
#######################################################################
#
#                 Cambridge Crystallographic Data Centre
#                                CCDC
#
#######################################################################
#
# If this CIF has been generated from an entry in the Cambridge
# Structural Database, then it will include bibliographic, chemical,
# crystal, experimental, refinement or atomic coordinate data resulting
# from the CCDC's data processing and validation procedures.
#
#######################################################################

data_CSD_CIF_ADETOU
_audit_creation_date 2013-02-01
_audit_creation_method CSD-ConQuest-V1
_database_code_CSD ADETOU
_database_code_depnum_ccdc_archive 'CCDC 847917'
_chemical_formula_sum 'C18 H16'
_chemical_formula_moiety
;
C18 H16
;
_journal_coden_Cambridge 579
_journal_volume 31
_journal_year 2012
_journal_page_first 644
_journal_name_full 'Organometallics '
loop_
_publ_author_name
"A.S.K.Hashmi"
"I.Braun"
"M.Rudolph"
"F.Rominger"
_chemical_name_systematic
;
6,7-Dimethyl-1-phenylnaphthalene
;
_cell_volume   1290.073
_exptl_crystal_colour 'colorless'
_exptl_crystal_density_diffrn 1.196
_exptl_crystal_description 'polyhedron'
_diffrn_ambient_temperature 200
#These two values have been output from a single CSD field.
_refine_ls_R_factor_gt 0.0548
_refine_ls_wR_factor_gt 0.0548
_symmetry_cell_setting monoclinic
_symmetry_space_group_name_H-M 'P 21/n'
_symmetry_Int_Tables_number 14
loop_
_symmetry_equiv_pos_site_id
_symmetry_equiv_pos_as_xyz
1 x,y,z
2 1/2-x,1/2+y,1/2-z
3 -x,-y,-z
4 -1/2+x,-1/2-y,-1/2+z
_cell_length_a 11.0139(14)
_cell_length_b 6.0840(8)
_cell_length_c 19.945(3)
_cell_angle_alpha 90
_cell_angle_beta 105.144(4)
_cell_angle_gamma 90
_cell_formula_units_Z 4
loop_
_atom_type_symbol
_atom_type_radius_bond
C 0.68
H 0.23
loop_
_atom_site_label
_atom_site_type_symbol
_atom_site_fract_x
_atom_site_fract_y
_atom_site_fract_z
C1 C 0.91055(14) 0.2628(2) 0.08170(7)
C2 C 0.86228(15) 0.4388(2) 0.04033(8)
H1 H 0.91830 0.54430 0.02990
C3 C 0.73208(15) 0.4672(3) 0.01293(8)
H2 H 0.70110 0.58980 -0.01600
C4 C 0.65057(15) 0.3191(2) 0.02777(8)
H3 H 0.56280 0.33800 0.00840
C5 C 0.69426(13) 0.1373(2) 0.07158(7)
C6 C 0.61115(13) -0.0118(2) 0.09065(7)
H4 H 0.52330 0.00750 0.07170
C7 C 0.65187(13) -0.1833(2) 0.13526(7)
C8 C 0.78363(13) -0.2116(2) 0.16385(7)
C9 C 0.86602(13) -0.0695(2) 0.14583(7)
H5 H 0.95360 -0.09030 0.16540
C10 C 0.82591(13) 0.1077(2) 0.09912(7)
C11 C 1.04954(14) 0.2355(2) 0.10818(8)
C12 C 1.12288(17) 0.3972(3) 0.14848(10)
H6 H 1.08390 0.52580 0.16010
C13 C 1.25229(18) 0.3735(4) 0.17192(11)
H7 H 1.30130 0.48500 0.19970
C14 C 1.30947(17) 0.1888(4) 0.15498(10)
H8 H 1.39810 0.17220 0.17110
C15 C 1.23854(16) 0.0281(3) 0.11467(10)
H9 H 1.27830 -0.09880 0.10250
C16 C 1.10969(15) 0.0504(3) 0.09182(9)
H10 H 1.06140 -0.06260 0.06450
C17 C 0.56061(15) -0.3363(3) 0.15593(9)
H11 H 0.56850 -0.32160 0.20580
H12 H 0.57920 -0.48810 0.14550
H13 H 0.47470 -0.29880 0.12990
C18 C 0.83098(15) -0.3944(3) 0.21429(8)
H14 H 0.92320 -0.39310 0.22790
H15 H 0.80110 -0.53550 0.19240
H16 H 0.79960 -0.37420 0.25550
loop_
_geom_bond_atom_site_label_1
_geom_bond_atom_site_label_2
_geom_bond_distance
_geom_bond_site_symmetry_1
_geom_bond_site_symmetry_2
C1 C2 1.371 1_555 1_555
C2 H1 0.950 1_555 1_555
C3 C2 1.405 1_555 1_555
H2 C3 0.950 1_555 1_555
C4 C3 1.358 1_555 1_555
H3 C4 0.950 1_555 1_555
C5 C4 1.414 1_555 1_555
C6 C5 1.410 1_555 1_555
H4 C6 0.950 1_555 1_555
C7 C6 1.369 1_555 1_555
C8 C7 1.424 1_555 1_555
C9 C8 1.368 1_555 1_555
H5 C9 0.950 1_555 1_555
C10 C1 1.432 1_555 1_555
C11 C1 1.492 1_555 1_555
C12 C11 1.388 1_555 1_555
H6 C12 0.950 1_555 1_555
C13 C12 1.387 1_555 1_555
H7 C13 0.950 1_555 1_555
C14 C13 1.373 1_555 1_555
H8 C14 0.950 1_555 1_555
C15 C14 1.373 1_555 1_555
H9 C15 0.950 1_555 1_555
C16 C11 1.388 1_555 1_555
H10 C16 0.949 1_555 1_555
C17 C7 1.504 1_555 1_555
H11 C17 0.980 1_555 1_555
H12 C17 0.980 1_555 1_555
H13 C17 0.980 1_555 1_555
C18 C8 1.499 1_555 1_555
H14 C18 0.980 1_555 1_555
H15 C18 0.980 1_555 1_555
H16 C18 0.979 1_555 1_555
C5 C10 1.421 1_555 1_555
C9 C10 1.418 1_555 1_555
C15 C16 1.379 1_555 1_555
#END
