
#######################################################################
#
#                 Cambridge Crystallographic Data Centre
#                                CCDC
#
#######################################################################
#
# If this CIF has been generated from an entry in the Cambridge
# Structural Database, then it will include bibliographic, chemical,
# crystal, experimental, refinement or atomic coordinate data resulting
# from the CCDC's data processing and validation procedures.
#
#######################################################################

data_CSD_CIF_AGEWEQ
_audit_creation_date 2013-09-19
_audit_creation_method CSD-ConQuest-V1
_database_code_CSD AGEWEQ
_database_code_depnum_ccdc_archive 'CCDC 962261'
_chemical_formula_sum 'C44 H44'
_chemical_formula_moiety
;
C44 H44
;
_journal_coden_Cambridge 35
_journal_volume 77
_journal_year 2012
_journal_page_first 10617
_journal_name_full 'J.Org.Chem. '
loop_
_publ_author_name
"B.Kumar"
"B.T.King"
_chemical_name_systematic
;
5,6,11,12-tetrakis(hex-1-yn-1-yl)dibenzo[b,h]biphenylene
;
_cell_volume   1647.304
_exptl_crystal_colour 'yellow'
_exptl_crystal_density_diffrn 1.155
_exptl_crystal_description 'BLOCK'
_diffrn_ambient_temperature 100
#These two values have been output from a single CSD field.
_refine_ls_R_factor_gt 0.0408
_refine_ls_wR_factor_gt 0.0408
_symmetry_cell_setting triclinic
_symmetry_space_group_name_H-M 'P -1'
_symmetry_Int_Tables_number 2
loop_
_symmetry_equiv_pos_site_id
_symmetry_equiv_pos_as_xyz
1 x,y,z
2 -x,-y,-z
_cell_length_a 8.2772(2)
_cell_length_b 9.2440(2)
_cell_length_c 22.2287(5)
_cell_angle_alpha 94.95
_cell_angle_beta 91.91
_cell_angle_gamma 103.19
_cell_formula_units_Z 2
loop_
_atom_type_symbol
_atom_type_radius_bond
C 0.68
H 0.23
loop_
_atom_site_label
_atom_site_type_symbol
_atom_site_fract_x
_atom_site_fract_y
_atom_site_fract_z
C1 C 0.43660(14) 0.59609(13) 0.24108(5)
C2 C 0.62659(15) 0.70672(14) 0.14646(6)
C3 C 0.25124(14) 0.68177(13) 0.39499(5)
C4 C 0.36484(14) 0.62722(13) 0.30047(5)
C5 C 0.44364(14) 0.78298(13) 0.30063(5)
C6 C 0.55226(15) 0.55110(14) 0.14601(6)
C7 C 0.38529(15) 0.33488(13) 0.19432(5)
C8 C 0.33300(15) 0.83605(13) 0.39543(5)
C9 C 0.50758(15) 1.04513(13) 0.34475(5)
C10 C 0.51318(14) 0.75249(13) 0.24132(5)
C11 C 0.45399(14) 0.49197(13) 0.19562(5)
C12 C 0.04138(15) 0.02493(13) 0.31499(5)
H1 H 0.00690 0.05220 0.27520
H2 H 0.16040 0.02300 0.31430
C13 C 0.43271(14) 0.89012(13) 0.34562(5)
C14 C 0.60795(14) 0.81286(13) 0.19673(6)
C15 C 0.74885(15) 1.09918(14) 0.20084(6)
C16 C 0.66583(16) 0.50763(15) 0.04829(6)
H3 H 0.67860 0.44070 0.01480
C17 C 0.68580(15) 0.96828(14) 0.19842(6)
C18 C 0.26693(14) 0.57150(13) 0.34543(5)
C19 C 0.56451(15) 1.17647(14) 0.34385(6)
C20 C 0.92369(15) 1.29938(13) 0.14696(6)
H4 H 1.00840 1.23960 0.14200
H5 H 0.84550 1.27340 0.11090
C21 C 0.60757(16) 1.42447(13) 0.40394(6)
H6 H 0.48720 1.41730 0.40760
H7 H 0.64790 1.37910 0.43850
C22 C 0.01886(16) 0.14294(13) 0.36453(6)
H8 H -0.10100 0.14050 0.36650
H9 H 0.05780 0.11720 0.40390
C23 C 0.18271(15) 0.41851(13) 0.34728(5)
C24 C 0.21969(16) 0.88841(14) 0.49207(6)
H10 H 0.20950 0.95760 0.52510
C25 C 0.13776(16) 0.73803(14) 0.49136(6)
H11 H 0.07100 0.70530 0.52370
C26 C 0.73907(17) 0.65993(15) 0.04913(6)
H12 H 0.80240 0.69630 0.01650
C27 C 0.28305(17) 0.03838(14) 0.18385(6)
H13 H 0.16320 0.00920 0.19130
H14 H 0.34430 -0.00170 0.21500
C28 C 0.33684(15) 0.20151(14) 0.19009(5)
C29 C -0.06002(16) -0.12963(13) 0.32489(6)
H15 H -0.17900 -0.12750 0.32570
H16 H -0.02550 -0.15660 0.36470
C30 C 0.10847(15) 0.29476(13) 0.35527(5)
C31 C 0.69804(16) 1.58808(14) 0.40684(6)
H17 H 0.81790 1.59470 0.40200
H18 H 0.65550 1.63360 0.37270
C32 C 1.00899(15) 1.46441(14) 0.15043(6)
H19 H 1.08510 1.49130 0.18700
H20 H 0.92420 1.52440 0.15410
C33 C 0.57550(15) 0.45473(14) 0.09568(6)
H21 H 0.52740 0.35080 0.09470
C34 C 0.71933(16) 0.75720(15) 0.09732(6)
H22 H 0.76930 0.86050 0.09740
C35 C 0.15379(15) 0.63750(14) 0.44378(6)
H23 H 0.09760 0.53570 0.44390
C36 C 0.82873(16) 1.25849(13) 0.20309(6)
H24 H 0.90660 1.28670 0.23920
H25 H 0.74270 1.31690 0.20750
C37 C 0.31500(16) 0.93605(14) 0.44488(6)
H26 H 0.36980 1.03850 0.44570
C38 C 0.63441(17) 1.33736(13) 0.34485(6)
H27 H 0.58250 1.37570 0.31070
H28 H 0.75510 1.35480 0.33900
C39 C 0.31184(18) -0.03184(15) 0.12117(6)
H29 H 0.42870 0.00740 0.11160
H30 H 0.29410 -0.14120 0.12220
C40 C 1.10721(17) 1.50221(15) 0.09471(6)
H31 H 1.19130 1.44300 0.09100
H32 H 1.16200 1.60870 0.09880
H33 H 1.03150 1.47920 0.05860
C41 C 0.19867(18) -0.00071(16) 0.07186(7)
H34 H 0.22130 0.10830 0.06900
H35 H 0.08180 -0.03440 0.08260
C42 C 0.67716(19) 1.67653(15) 0.46581(7)
H36 H 0.55960 1.67690 0.46950
H37 H 0.74250 1.77940 0.46610
H38 H 0.71590 1.63040 0.49990
C43 C -0.03861(17) -0.24854(14) 0.27566(6)
H39 H -0.07390 -0.22300 0.23620
H40 H -0.10670 -0.34580 0.28370
H41 H 0.07850 -0.25320 0.27550
C44 C 0.2211(2) -0.07904(18) 0.01020(7)
H42 H 0.33640 -0.04550 -0.00080
H43 H 0.14630 -0.05450 -0.02040
H44 H 0.19510 -0.18730 0.01240
loop_
_geom_bond_atom_site_label_1
_geom_bond_atom_site_label_2
_geom_bond_distance
_geom_bond_site_symmetry_1
_geom_bond_site_symmetry_2
C1 C4 1.498 1_555 1_555
C2 C6 1.429 1_555 1_555
C3 C8 1.431 1_555 1_555
C4 C5 1.438 1_555 1_555
C5 C10 1.486 1_555 1_555
C6 C11 1.462 1_555 1_555
C7 C11 1.431 1_555 1_555
C8 C13 1.458 1_555 1_555
C9 C13 1.428 1_555 1_555
C10 C1 1.440 1_555 1_555
C11 C1 1.369 1_555 1_555
C12 H1 0.991 1_555 1_555
H2 C12 0.990 1_555 1_555
C13 C5 1.366 1_555 1_555
C14 C2 1.458 1_555 1_555
C15 C17 1.199 1_555 1_555
C16 H3 0.951 1_555 1_555
C17 C14 1.431 1_555 1_555
C18 C3 1.465 1_555 1_555
C19 C9 1.200 1_555 1_555
C20 H4 0.990 1_555 1_555
H5 C20 0.990 1_555 1_555
C21 H6 0.990 1_555 1_555
H7 C21 0.990 1_555 1_555
C22 C12 1.529 1_555 1_555
H8 C22 0.990 1_555 1_555
H9 C22 0.989 1_555 1_555
C23 C18 1.432 1_555 1_555
C24 H10 0.950 1_555 1_555
C25 C24 1.399 1_555 1_555
H11 C25 0.949 1_555 1_555
C26 C16 1.398 1_555 1_555
H12 C26 0.949 1_555 1_555
C27 H13 0.990 1_555 1_555
H14 C27 0.990 1_555 1_555
C28 C7 1.201 1_555 1_555
C29 C12 1.521 1_555 1_555
H15 C29 0.990 1_555 1_555
H16 C29 0.990 1_555 1_555
C30 C22 1.465 1_555 1_555
C31 C21 1.522 1_555 1_555
H17 C31 0.990 1_555 1_555
H18 C31 0.991 1_555 1_555
C32 C20 1.522 1_555 1_555
H19 C32 0.989 1_555 1_555
H20 C32 0.990 1_555 1_555
C33 C6 1.415 1_555 1_555
H21 C33 0.950 1_555 1_555
C34 C2 1.407 1_555 1_555
H22 C34 0.950 1_555 1_555
C35 C3 1.407 1_555 1_555
H23 C35 0.950 1_555 1_555
C36 C15 1.466 1_555 1_555
H24 C36 0.990 1_555 1_555
H25 C36 0.990 1_555 1_555
C37 C8 1.408 1_555 1_555
H26 C37 0.950 1_555 1_555
C38 C19 1.466 1_555 1_555
H27 C38 0.990 1_555 1_555
H28 C38 0.990 1_555 1_555
C39 C27 1.535 1_555 1_555
H29 C39 0.990 1_555 1_555
H30 C39 0.990 1_555 1_555
C40 C32 1.526 1_555 1_555
H31 C40 0.980 1_555 1_555
H32 C40 0.980 1_555 1_555
H33 C40 0.979 1_555 1_555
C41 C39 1.507 1_555 1_555
H34 C41 0.990 1_555 1_555
H35 C41 0.990 1_555 1_555
C42 C31 1.520 1_555 1_555
H36 C42 0.980 1_555 1_555
H37 C42 0.980 1_555 1_555
H38 C42 0.980 1_555 1_555
C43 C29 1.527 1_555 1_555
H39 C43 0.980 1_555 1_555
H40 C43 0.980 1_555 1_555
H41 C43 0.980 1_555 1_555
C44 C41 1.531 1_555 1_555
H42 C44 0.980 1_555 1_555
H43 C44 0.980 1_555 1_555
H44 C44 0.980 1_555 1_555
C4 C18 1.369 1_555 1_555
C10 C14 1.363 1_555 1_555
C16 C33 1.372 1_555 1_555
C20 C36 1.526 1_555 1_555
C21 C38 1.530 1_555 1_555
C23 C30 1.200 1_555 1_555
C24 C37 1.376 1_555 1_555
C25 C35 1.377 1_555 1_555
C26 C34 1.377 1_555 1_555
C27 C28 1.465 1_555 1_555
#END
