
#######################################################################
#
#                 Cambridge Crystallographic Data Centre
#                                CCDC
#
#######################################################################
#
# If this CIF has been generated from an entry in the Cambridge
# Structural Database, then it will include bibliographic, chemical,
# crystal, experimental, refinement or atomic coordinate data resulting
# from the CCDC's data processing and validation procedures.
#
#######################################################################

data_CSD_CIF_ANTCEN10
_audit_creation_date 1991-07-31
_audit_creation_method CSD-ConQuest-V1
_database_code_CSD ANTCEN10
_database_code_depnum_ccdc_archive 'CCDC 1103070'
_chemical_formula_sum 'C14 H10'
_chemical_formula_moiety
;
C14 H10
;
_journal_coeditor_code "IUCr CR0217"
_journal_coden_Cambridge 622
_journal_volume 46
_journal_year 1990
_journal_page_first 795
_journal_name_full 'Acta Crystallogr.,Sect.B:Struct.Sci. '
loop_
_publ_author_name
"C.P.Brock"
"J.D.Dunitz"
_chemical_name_systematic
;
Anthracene
;
_cell_volume    459.725
_exptl_special_details
;
stable monoclinic polymorph

;
_diffrn_ambient_temperature 140
#These two values have been output from a single CSD field.
_refine_ls_R_factor_gt 0.039
_refine_ls_wR_factor_gt 0.039
_symmetry_cell_setting monoclinic
_symmetry_space_group_name_H-M 'P 21/a'
_symmetry_Int_Tables_number 14
loop_
_symmetry_equiv_pos_site_id
_symmetry_equiv_pos_as_xyz
1 x,y,z
2 1/2-x,1/2+y,-z
3 -x,-y,-z
4 -1/2+x,-1/2-y,z
_cell_length_a 8.4414(15)
_cell_length_b 5.9958(15)
_cell_length_c 11.1123(13)
_cell_angle_alpha 90
_cell_angle_beta 125.175(14)
_cell_angle_gamma 90
_cell_formula_units_Z 2
loop_
_atom_type_symbol
_atom_type_radius_bond
C 0.68
H 0.23
loop_
_atom_site_label
_atom_site_type_symbol
_atom_site_fract_x
_atom_site_fract_y
_atom_site_fract_z
C1 C 0.0864(3) 0.0270(3) 0.3675(2)
C2 C 0.1172(2) 0.1554(3) 0.2824(2)
C3 C 0.0586(2) 0.0816(3) 0.1394(2)
C4 C 0.0871(2) 0.2105(3) 0.0490(2)
C5 C -0.0305(2) -0.1338(3) 0.0896(2)
C6 C -0.0601(2) -0.2631(3) 0.1831(2)
C7 C -0.0047(3) -0.1851(4) 0.3169(2)
H1 H 0.122(3) 0.074(3) 0.466(2)
H2 H 0.180(2) 0.303(3) 0.316(2)
H3 H 0.151(3) 0.355(3) 0.086(2)
H4 H -0.123(2) -0.413(3) 0.148(2)
H5 H -0.028(3) -0.277(3) 0.380(2)
C5B C 0.0305(2) 0.1338(3) -0.0896(2)
C4B C -0.0871(2) -0.2105(3) -0.0490(2)
C3B C -0.0586(2) -0.0816(3) -0.1394(2)
C6B C 0.0601(2) 0.2631(3) -0.1831(2)
H3B H -0.151(3) -0.355(3) -0.086(2)
C2B C -0.1172(2) -0.1554(3) -0.2824(2)
C7B C 0.0047(3) 0.1851(4) -0.3169(2)
H4B H 0.123(2) 0.413(3) -0.148(2)
C1B C -0.0864(3) -0.0270(3) -0.3675(2)
H2B H -0.180(2) -0.303(3) -0.316(2)
H5B H 0.028(3) 0.277(3) -0.380(2)
H1B H -0.122(3) -0.074(3) -0.466(2)
loop_
_geom_bond_atom_site_label_1
_geom_bond_atom_site_label_2
_geom_bond_distance
_geom_bond_site_symmetry_1
_geom_bond_site_symmetry_2
C1 C2 1.356 1_555 1_555
C2 C3 1.435 1_555 1_555
C3 C4 1.394 1_555 1_555
C4 H3 0.977 1_555 1_555
C5 C3 1.435 1_555 1_555
C6 C5 1.429 1_555 1_555
C7 C1 1.424 1_555 1_555
H1 C1 0.994 1_555 1_555
H2 C2 0.988 1_555 1_555
H4 C6 1.002 1_555 1_555
H5 C7 0.996 1_555 1_555
C5B C4 1.401 1_555 1_555
C4B C5 1.401 1_555 1_555
C3B C5B 1.435 1_555 1_555
C6B C5B 1.429 1_555 1_555
H3B C4B 0.977 1_555 1_555
C2B C3B 1.435 1_555 1_555
C7B C6B 1.359 1_555 1_555
H4B C6B 1.002 1_555 1_555
C1B C2B 1.356 1_555 1_555
H2B C2B 0.988 1_555 1_555
H5B C7B 0.996 1_555 1_555
H1B C1B 0.994 1_555 1_555
C6 C7 1.359 1_555 1_555
C4B C3B 1.394 1_555 1_555
C7B C1B 1.424 1_555 1_555
#END
