
#######################################################################
#
#                 Cambridge Crystallographic Data Centre
#                                CCDC
#
#######################################################################
#
# If this CIF has been generated from an entry in the Cambridge
# Structural Database, then it will include bibliographic, chemical,
# crystal, experimental, refinement or atomic coordinate data resulting
# from the CCDC's data processing and validation procedures.
#
#######################################################################

data_CSD_CIF_ARAGIK
_audit_creation_date 2011-08-02
_audit_creation_method CSD-ConQuest-V1
_database_code_CSD ARAGIK
_database_code_depnum_ccdc_archive 'CCDC 749294'
_chemical_formula_sum 'C74 H66'
_chemical_formula_moiety
;
C74 H66
;
_journal_coden_Cambridge 1220
_journal_volume 16
_journal_year 2010
_journal_page_first 5909
_journal_name_full 'Chem.-Eur.J. '
loop_
_publ_author_name
"Yun-Hua Kung"
"Yu-Sung Chen"
"Chia-Cheng Tai"
"Wei-Szu Liu"
"Chien-Chueh Shin"
"Chih-Chung Ma"
"Yi-Chan Tsai"
"Tsun-Cheng Wu"
"Ming-Yu Kuo"
"Yao-Ting Wu"
_chemical_name_systematic
;
7,9,16,18-tetrakis(4-butylphenyl)acenaphtho[1',2':6,7]naphtho[2,3-k]fluoranthe
ne
;
_cell_volume   5461.195
_exptl_crystal_colour 'orange'
_exptl_crystal_density_diffrn 1.162
_exptl_crystal_description 'columnar'
_diffrn_ambient_temperature 296
#These two values have been output from a single CSD field.
_refine_ls_R_factor_gt 0.0763
_refine_ls_wR_factor_gt 0.0763
_symmetry_cell_setting monoclinic
_symmetry_space_group_name_H-M 'C 2/c'
_symmetry_Int_Tables_number 15
loop_
_symmetry_equiv_pos_site_id
_symmetry_equiv_pos_as_xyz
1 x,y,z
2 -x,y,1/2-z
3 1/2+x,1/2+y,z
4 1/2-x,1/2+y,1/2-z
5 -x,-y,-z
6 x,-y,-1/2+z
7 -1/2-x,-1/2-y,-z
8 -1/2+x,-1/2-y,-1/2+z
_cell_length_a 17.8939(6)
_cell_length_b 20.3823(8)
_cell_length_c 15.5372(6)
_cell_angle_alpha 90
_cell_angle_beta 105.478(2)
_cell_angle_gamma 90
_cell_formula_units_Z 4
loop_
_atom_type_symbol
_atom_type_radius_bond
C 0.68
H 0.23
loop_
_atom_site_label
_atom_site_type_symbol
_atom_site_fract_x
_atom_site_fract_y
_atom_site_fract_z
C1 C 0.05164(18) 0.71582(15) -0.1760(2)
H1 H 0.05540 0.76130 -0.17370
C2 C 0.00000 0.68500(19) -0.25000
C3 C 0.00000 0.61678(18) -0.25000
C4 C 0.04558(14) 0.57810(13) -0.17982(16)
C5 C 0.09342(16) 0.60969(14) -0.10844(18)
H2 H 0.12390 0.58590 -0.06080
C6 C 0.09582(18) 0.67921(15) -0.1081(2)
H3 H 0.12880 0.70050 -0.05980
C7 C 0.02754(14) 0.50877(13) -0.20572(16)
C8 C 0.05197(14) 0.45141(12) -0.16075(16)
C9 C 0.02458(13) 0.39006(12) -0.20507(15)
C10 C 0.04665(14) 0.32998(12) -0.16323(16)
H4 H 0.07870 0.32990 -0.10530
C11 C 0.02290(13) 0.27016(12) -0.20426(15)
C12 C 0.04270(14) 0.20901(12) -0.15660(15)
C13 C 0.01984(14) 0.15142(13) -0.20264(16)
C14 C 0.02810(14) 0.08210(13) -0.17253(17)
C15 C 0.05299(16) 0.05118(14) -0.09188(19)
H5 H 0.07100 0.07510 -0.03950
C16 C 0.05069(19) -0.01863(15) -0.0901(2)
H6 H 0.06670 -0.04000 -0.03530
C17 C 0.02597(19) -0.05519(16) -0.1655(2)
H7 H 0.02620 -0.10070 -0.16130
C18 C 0.00000 -0.0251(2) -0.25000
C19 C 0.00000 0.04325(18) -0.25000
C20 C 0.10451(14) 0.45137(12) -0.06861(16)
C21 C 0.18284(15) 0.46423(14) -0.05133(18)
H8 H 0.20410 0.47160 -0.09900
C22 C 0.23061(16) 0.46649(14) 0.03449(19)
H9 H 0.28310 0.47540 0.04340
C23 C 0.20166(16) 0.45565(14) 0.10785(19)
C24 C 0.12390(17) 0.44139(16) 0.09007(19)
H10 H 0.10300 0.43290 0.13770
C25 C 0.07563(16) 0.43914(14) 0.00452(18)
H11 H 0.02340 0.42940 -0.00430
C26 C 0.2536(2) 0.46008(17) 0.2023(2)
H12 H 0.30330 0.47770 0.19950
H13 H 0.23080 0.49140 0.23490
C27 C 0.26784(19) 0.39864(17) 0.25395(19)
H14 H 0.29230 0.36760 0.22260
H15 H 0.21830 0.38030 0.25570
C28 C 0.31804(19) 0.40521(18) 0.3489(2)
H16 H 0.36610 0.42670 0.34740
H17 H 0.29170 0.43360 0.38140
C29 C 0.3372(3) 0.3431(2) 0.3987(3)
H18 H 0.29080 0.32420 0.40790
H19 H 0.37350 0.35160 0.45540
H20 H 0.35990 0.31320 0.36510
C30 C 0.08871(14) 0.20877(12) -0.06209(16)
C31 C 0.16469(15) 0.18599(14) -0.03820(18)
H21 H 0.18640 0.17010 -0.08220
C32 C 0.20834(16) 0.18642(14) 0.04898(19)
H22 H 0.25860 0.16990 0.06270
C33 C 0.17986(17) 0.21060(14) 0.11684(18)
C34 C 0.10489(18) 0.23393(17) 0.09323(19)
H23 H 0.08390 0.25080 0.13730
C35 C 0.06023(17) 0.23284(16) 0.00582(18)
H24 H 0.00970 0.24870 -0.00760
C36 C 0.22817(19) 0.21001(16) 0.21255(18)
H25 H 0.21190 0.24590 0.24440
H26 H 0.28210 0.21730 0.21400
C37 C 0.2215(3) 0.1459(2) 0.2600(2)
H27 H 0.23780 0.11030 0.22780
H28 H 0.16740 0.13870 0.25760
C38 C 0.2692(3) 0.1430(2) 0.3579(2)
H29 H 0.26140 0.18270 0.38890
H30 H 0.25340 0.10570 0.38760
C39 C 0.3511(3) 0.1367(3) 0.3586(3)
H31 H 0.35750 0.09890 0.32440
H32 H 0.38220 0.13180 0.41900
H33 H 0.36710 0.17520 0.33280
C1A C -0.05164(18) 0.71582(15) -0.3240(2)
H1A H -0.05540 0.76130 -0.32630
C4A C -0.04558(14) 0.57810(13) -0.32018(16)
C5A C -0.09342(16) 0.60969(14) -0.39156(18)
H2A H -0.12390 0.58590 -0.43920
C6A C -0.09582(18) 0.67921(15) -0.3919(2)
H3A H -0.12880 0.70050 -0.44020
C7A C -0.02754(14) 0.50877(13) -0.29428(16)
C8A C -0.05197(14) 0.45141(12) -0.33925(16)
C9A C -0.02458(13) 0.39006(12) -0.29493(15)
C10A C -0.04665(14) 0.32998(12) -0.33677(16)
H4A H -0.07870 0.32990 -0.39470
C11A C -0.02290(13) 0.27016(12) -0.29574(15)
C12A C -0.04270(14) 0.20901(12) -0.34340(15)
C13A C -0.01984(14) 0.15142(13) -0.29736(16)
C14A C -0.02810(14) 0.08210(13) -0.32747(17)
C15A C -0.05299(16) 0.05118(14) -0.40812(19)
H5A H -0.07100 0.07510 -0.46050
C16A C -0.05069(19) -0.01863(15) -0.4099(2)
H6A H -0.06670 -0.04000 -0.46470
C17A C -0.02597(19) -0.05519(16) -0.3345(2)
H7A H -0.02620 -0.10070 -0.33870
C20A C -0.10451(14) 0.45137(12) -0.43139(16)
C21A C -0.18284(15) 0.46423(14) -0.44867(18)
H8A H -0.20410 0.47160 -0.40100
C22A C -0.23061(16) 0.46649(14) -0.53449(19)
H9A H -0.28310 0.47540 -0.54340
C23A C -0.20166(16) 0.45565(14) -0.60785(19)
C24A C -0.12390(17) 0.44139(16) -0.59007(19)
H10A H -0.10300 0.43290 -0.63770
C25A C -0.07563(16) 0.43914(14) -0.50452(18)
H11A H -0.02340 0.42940 -0.49570
C26A C -0.2536(2) 0.46008(17) -0.7023(2)
H12A H -0.30330 0.47770 -0.69950
H13A H -0.23080 0.49140 -0.73490
C27A C -0.26784(19) 0.39864(17) -0.75395(19)
H14A H -0.29230 0.36760 -0.72260
H15A H -0.21830 0.38030 -0.75570
C28A C -0.31804(19) 0.40521(18) -0.8489(2)
H16A H -0.36610 0.42670 -0.84740
H17A H -0.29170 0.43360 -0.88140
C29A C -0.3372(3) 0.3431(2) -0.8987(3)
H18A H -0.29080 0.32420 -0.90790
H19A H -0.37350 0.35160 -0.95540
H20A H -0.35990 0.31320 -0.86510
C30A C -0.08871(14) 0.20877(12) -0.43791(16)
C31A C -0.16469(15) 0.18599(14) -0.46180(18)
H21A H -0.18640 0.17010 -0.41780
C32A C -0.20834(16) 0.18642(14) -0.54898(19)
H22A H -0.25860 0.16990 -0.56270
C33A C -0.17986(17) 0.21060(14) -0.61684(18)
C34A C -0.10489(18) 0.23393(17) -0.59323(19)
H23A H -0.08390 0.25080 -0.63730
C35A C -0.06023(17) 0.23284(16) -0.50582(18)
H24A H -0.00970 0.24870 -0.49240
C36A C -0.22817(19) 0.21001(16) -0.71255(18)
H25A H -0.21190 0.24590 -0.74440
H26A H -0.28210 0.21730 -0.71400
C37A C -0.2215(3) 0.1459(2) -0.7600(2)
H27A H -0.23780 0.11030 -0.72780
H28A H -0.16740 0.13870 -0.75760
C38A C -0.2692(3) 0.1430(2) -0.8579(2)
H29A H -0.26140 0.18270 -0.88890
H30A H -0.25340 0.10570 -0.88760
C39A C -0.3511(3) 0.1367(3) -0.8586(3)
H31A H -0.35750 0.09890 -0.82440
H32A H -0.38220 0.13180 -0.91900
H33A H -0.36710 0.17520 -0.83280
loop_
_geom_bond_atom_site_label_1
_geom_bond_atom_site_label_2
_geom_bond_distance
_geom_bond_site_symmetry_1
_geom_bond_site_symmetry_2
C1 H1 0.929 1_555 1_555
C2 C1 1.415 1_555 1_555
C3 C2 1.390 1_555 1_555
C4 C3 1.415 1_555 1_555
C5 C4 1.368 1_555 1_555
H2 C5 0.930 1_555 1_555
C6 C1 1.360 1_555 1_555
H3 C6 0.929 1_555 1_555
C7 C4 1.481 1_555 1_555
C8 C7 1.372 1_555 1_555
C9 C8 1.448 1_555 1_555
C10 C9 1.393 1_555 1_555
H4 C10 0.929 1_555 1_555
C11 C10 1.389 1_555 1_555
C12 C11 1.445 1_555 1_555
C13 C12 1.379 1_555 1_555
C14 C13 1.483 1_555 1_555
C15 C14 1.367 1_555 1_555
H5 C15 0.929 1_555 1_555
C16 C15 1.424 1_555 1_555
H6 C16 0.931 1_555 1_555
C17 C16 1.359 1_555 1_555
H7 C17 0.930 1_555 1_555
C18 C17 1.411 1_555 1_555
C19 C14 1.416 1_555 1_555
C20 C8 1.488 1_555 1_555
C21 C20 1.380 1_555 1_555
H8 C21 0.931 1_555 1_555
C22 C21 1.379 1_555 1_555
H9 C22 0.930 1_555 1_555
C23 C22 1.390 1_555 1_555
C24 C23 1.375 1_555 1_555
H10 C24 0.930 1_555 1_555
C25 C20 1.391 1_555 1_555
H11 C25 0.929 1_555 1_555
C26 C23 1.516 1_555 1_555
H12 C26 0.971 1_555 1_555
H13 C26 0.970 1_555 1_555
C27 C26 1.472 1_555 1_555
H14 C27 0.971 1_555 1_555
H15 C27 0.969 1_555 1_555
C28 C27 1.515 1_555 1_555
H16 C28 0.971 1_555 1_555
H17 C28 0.969 1_555 1_555
C29 C28 1.476 1_555 1_555
H18 C29 0.960 1_555 1_555
H19 C29 0.961 1_555 1_555
H20 C29 0.960 1_555 1_555
C30 C12 1.479 1_555 1_555
C31 C30 1.390 1_555 1_555
H21 C31 0.930 1_555 1_555
C32 C31 1.371 1_555 1_555
H22 C32 0.930 1_555 1_555
C33 C32 1.379 1_555 1_555
C34 C33 1.378 1_555 1_555
H23 C34 0.930 1_555 1_555
C35 C30 1.379 1_555 1_555
H24 C35 0.930 1_555 1_555
C36 C33 1.508 1_555 1_555
H25 C36 0.970 1_555 1_555
H26 C36 0.971 1_555 1_555
C37 C36 1.521 1_555 1_555
H27 C37 0.969 1_555 1_555
H28 C37 0.970 1_555 1_555
C38 C37 1.534 1_555 1_555
H29 C38 0.971 1_555 1_555
H30 C38 0.970 1_555 1_555
C39 C38 1.468 1_555 1_555
H31 C39 0.960 1_555 1_555
H32 C39 0.960 1_555 1_555
H33 C39 0.959 1_555 1_555
C1A C2 1.415 1_555 1_555
H1A C1A 0.929 1_555 1_555
C4A C3 1.415 1_555 1_555
C5A C4A 1.368 1_555 1_555
H2A C5A 0.930 1_555 1_555
C6A C1A 1.360 1_555 1_555
H3A C6A 0.929 1_555 1_555
C7A C7 1.463 1_555 1_555
C8A C7A 1.372 1_555 1_555
C9A C9 1.438 1_555 1_555
C10A C9A 1.393 1_555 1_555
H4A C10A 0.929 1_555 1_555
C11A C11 1.439 1_555 1_555
C12A C11A 1.445 1_555 1_555
C13A C13 1.453 1_555 1_555
C14A C19 1.416 1_555 1_555
C15A C14A 1.367 1_555 1_555
H5A C15A 0.929 1_555 1_555
C16A C15A 1.424 1_555 1_555
H6A C16A 0.931 1_555 1_555
C17A C18 1.411 1_555 1_555
H7A C17A 0.930 1_555 1_555
C20A C8A 1.488 1_555 1_555
C21A C20A 1.380 1_555 1_555
H8A C21A 0.931 1_555 1_555
C22A C21A 1.379 1_555 1_555
H9A C22A 0.930 1_555 1_555
C23A C22A 1.390 1_555 1_555
C24A C23A 1.375 1_555 1_555
H10A C24A 0.930 1_555 1_555
C25A C20A 1.391 1_555 1_555
H11A C25A 0.929 1_555 1_555
C26A C23A 1.516 1_555 1_555
H12A C26A 0.971 1_555 1_555
H13A C26A 0.970 1_555 1_555
C27A C26A 1.472 1_555 1_555
H14A C27A 0.971 1_555 1_555
H15A C27A 0.969 1_555 1_555
C28A C27A 1.515 1_555 1_555
H16A C28A 0.971 1_555 1_555
H17A C28A 0.969 1_555 1_555
C29A C28A 1.476 1_555 1_555
H18A C29A 0.960 1_555 1_555
H19A C29A 0.961 1_555 1_555
H20A C29A 0.960 1_555 1_555
C30A C12A 1.479 1_555 1_555
C31A C30A 1.390 1_555 1_555
H21A C31A 0.930 1_555 1_555
C32A C31A 1.371 1_555 1_555
H22A C32A 0.930 1_555 1_555
C33A C32A 1.379 1_555 1_555
C34A C33A 1.378 1_555 1_555
H23A C34A 0.930 1_555 1_555
C35A C30A 1.379 1_555 1_555
H24A C35A 0.930 1_555 1_555
C36A C33A 1.508 1_555 1_555
H25A C36A 0.970 1_555 1_555
H26A C36A 0.971 1_555 1_555
C37A C36A 1.521 1_555 1_555
H27A C37A 0.969 1_555 1_555
H28A C37A 0.970 1_555 1_555
C38A C37A 1.534 1_555 1_555
H29A C38A 0.971 1_555 1_555
H30A C38A 0.970 1_555 1_555
C39A C38A 1.468 1_555 1_555
H31A C39A 0.960 1_555 1_555
H32A C39A 0.960 1_555 1_555
H33A C39A 0.959 1_555 1_555
C5 C6 1.418 1_555 1_555
C18 C19 1.393 1_555 1_555
C24 C25 1.379 1_555 1_555
C34 C35 1.380 1_555 1_555
C4A C7A 1.481 1_555 1_555
C5A C6A 1.418 1_555 1_555
C8A C9A 1.448 1_555 1_555
C10A C11A 1.389 1_555 1_555
C12A C13A 1.379 1_555 1_555
C13A C14A 1.483 1_555 1_555
C16A C17A 1.359 1_555 1_555
C24A C25A 1.379 1_555 1_555
C34A C35A 1.380 1_555 1_555
#END
