
#######################################################################
#
#                 Cambridge Crystallographic Data Centre
#                                CCDC
#
#######################################################################
#
# If this CIF has been generated from an entry in the Cambridge
# Structural Database, then it will include bibliographic, chemical,
# crystal, experimental, refinement or atomic coordinate data resulting
# from the CCDC's data processing and validation procedures.
#
#######################################################################

data_CSD_CIF_ASUBAS
_audit_creation_date 2011-08-22
_audit_creation_method CSD-ConQuest-V1
_database_code_CSD ASUBAS
_database_code_depnum_ccdc_archive 'CCDC 808317'
_chemical_formula_sum 'C28 H18'
_chemical_formula_moiety
;
C28 H18
;
_journal_coden_Cambridge 16
_journal_volume 67
_journal_year 2011
_journal_page_first 3395
_journal_name_full 'Tetrahedron '
loop_
_publ_author_name
"Yali Qiao"
"Jing Zhang"
"Wei Xu"
"Daoben Zhu"
_chemical_name_systematic
;
2,7-Diphenylpyrene
;
_chemical_melting_point 589.15
_cell_volume   1814.943
_exptl_crystal_colour 'colorless'
_exptl_crystal_density_diffrn 1.297
_exptl_crystal_description 'block'
_diffrn_ambient_temperature 173
#These two values have been output from a single CSD field.
_refine_ls_R_factor_gt 0.0676
_refine_ls_wR_factor_gt 0.0676
_symmetry_cell_setting orthorhombic
_symmetry_space_group_name_H-M 'P b c a'
_symmetry_Int_Tables_number 61
loop_
_symmetry_equiv_pos_site_id
_symmetry_equiv_pos_as_xyz
1 x,y,z
2 1/2-x,-y,1/2+z
3 -x,1/2+y,1/2-z
4 1/2+x,1/2-y,-z
5 -x,-y,-z
6 -1/2+x,y,-1/2-z
7 x,-1/2-y,-1/2+z
8 -1/2-x,-1/2+y,z
_cell_length_a 7.7673(16)
_cell_length_b 7.6033(15)
_cell_length_c 30.732(6)
_cell_angle_alpha 90
_cell_angle_beta 90
_cell_angle_gamma 90
_cell_formula_units_Z 4
loop_
_atom_type_symbol
_atom_type_radius_bond
C 0.68
H 0.23
loop_
_atom_site_label
_atom_site_type_symbol
_atom_site_fract_x
_atom_site_fract_y
_atom_site_fract_z
C1 C 0.6155(3) 0.4597(3) 0.34818(8)
H1 H 0.70310 0.48960 0.36850
C2 C 0.6015(4) 0.5534(4) 0.30958(9)
H2 H 0.67920 0.64690 0.30370
C3 C 0.4757(4) 0.5116(3) 0.27966(8)
H3 H 0.46720 0.57510 0.25310
C4 C 0.3621(3) 0.3767(3) 0.28856(7)
H4 H 0.27450 0.34800 0.26820
C5 C 0.3751(3) 0.2831(3) 0.32700(7)
H5 H 0.29600 0.19060 0.33270
C6 C 0.5027(3) 0.3222(3) 0.35753(7)
C7 C 0.5136(3) 0.2226(3) 0.39922(7)
C8 C 0.4634(3) 0.0465(3) 0.40136(7)
H6 H 0.43120 -0.01250 0.37540
C9 C 0.4591(3) -0.0452(3) 0.44070(7)
C10 C 0.4050(3) -0.2256(3) 0.44378(7)
H7 H 0.37730 -0.28820 0.41800
C11 C 0.5059(3) 0.0438(3) 0.47961(7)
C12 C 0.5631(3) 0.2211(3) 0.47755(7)
C13 C 0.6073(3) 0.3079(3) 0.51757(7)
H8 H 0.64610 0.42630 0.51670
C14 C 0.5677(3) 0.3055(3) 0.43729(7)
H9 H 0.60900 0.42290 0.43580
C1D C 0.3845(3) -0.4597(3) 0.65182(8)
H1D H 0.29690 -0.48960 0.63150
C2D C 0.3985(4) -0.5534(4) 0.69042(9)
H2D H 0.32080 -0.64690 0.69630
C3D C 0.5243(4) -0.5116(3) 0.72034(8)
H3D H 0.53280 -0.57510 0.74690
C4D C 0.6379(3) -0.3767(3) 0.71144(7)
H4D H 0.72550 -0.34800 0.73180
C5D C 0.6249(3) -0.2831(3) 0.67300(7)
H5D H 0.70400 -0.19060 0.66730
C6D C 0.4973(3) -0.3222(3) 0.64247(7)
C7D C 0.4864(3) -0.2226(3) 0.60078(7)
C8D C 0.5366(3) -0.0465(3) 0.59864(7)
H6D H 0.56880 0.01250 0.62460
C9D C 0.5409(3) 0.0452(3) 0.55930(7)
C10D C 0.5950(3) 0.2256(3) 0.55622(7)
H7D H 0.62270 0.28820 0.58200
C11D C 0.4941(3) -0.0438(3) 0.52039(7)
C12D C 0.4369(3) -0.2211(3) 0.52245(7)
C13D C 0.3927(3) -0.3079(3) 0.48243(7)
H8D H 0.35390 -0.42630 0.48330
C14D C 0.4323(3) -0.3055(3) 0.56271(7)
H9D H 0.39100 -0.42290 0.56420
loop_
_geom_bond_atom_site_label_1
_geom_bond_atom_site_label_2
_geom_bond_distance
_geom_bond_site_symmetry_1
_geom_bond_site_symmetry_2
C1 H1 0.951 1_555 1_555
C2 C1 1.388 1_555 1_555
H2 C2 0.950 1_555 1_555
C3 C2 1.379 1_555 1_555
H3 C3 0.951 1_555 1_555
C4 C3 1.380 1_555 1_555
H4 C4 0.950 1_555 1_555
C5 C4 1.383 1_555 1_555
H5 C5 0.950 1_555 1_555
C6 C1 1.394 1_555 1_555
C7 C6 1.491 1_555 1_555
C8 C7 1.396 1_555 1_555
H6 C8 0.949 1_555 1_555
C9 C8 1.396 1_555 1_555
C10 C9 1.438 1_555 1_555
H7 C10 0.949 1_555 1_555
C11 C9 1.421 1_555 1_555
C12 C11 1.421 1_555 1_555
C13 C12 1.437 1_555 1_555
H8 C13 0.950 1_555 1_555
C14 C7 1.394 1_555 1_555
H9 C14 0.950 1_555 1_555
C1D H1D 0.951 1_555 1_555
C2D C1D 1.388 1_555 1_555
H2D C2D 0.950 1_555 1_555
C3D C2D 1.379 1_555 1_555
H3D C3D 0.951 1_555 1_555
C4D C3D 1.380 1_555 1_555
H4D C4D 0.950 1_555 1_555
C5D C4D 1.383 1_555 1_555
H5D C5D 0.950 1_555 1_555
C6D C1D 1.394 1_555 1_555
C7D C6D 1.491 1_555 1_555
C8D C7D 1.396 1_555 1_555
H6D C8D 0.949 1_555 1_555
C9D C8D 1.396 1_555 1_555
C10D C13 1.346 1_555 1_555
H7D C10D 0.949 1_555 1_555
C11D C11 1.422 1_555 1_555
C12D C11D 1.421 1_555 1_555
C13D C10 1.346 1_555 1_555
H8D C13D 0.950 1_555 1_555
C14D C7D 1.394 1_555 1_555
H9D C14D 0.950 1_555 1_555
C5 C6 1.397 1_555 1_555
C12 C14 1.394 1_555 1_555
C5D C6D 1.397 1_555 1_555
C9D C10D 1.438 1_555 1_555
C9D C11D 1.421 1_555 1_555
C12D C13D 1.437 1_555 1_555
C12D C14D 1.394 1_555 1_555
#END
