
#######################################################################
#
#                 Cambridge Crystallographic Data Centre
#                                CCDC
#
#######################################################################
#
# If this CIF has been generated from an entry in the Cambridge
# Structural Database, then it will include bibliographic, chemical,
# crystal, experimental, refinement or atomic coordinate data resulting
# from the CCDC's data processing and validation procedures.
#
#######################################################################

data_CSD_CIF_AYOTEO
_audit_creation_date 2011-10-18
_audit_creation_method CSD-ConQuest-V1
_database_code_CSD AYOTEO
_database_code_depnum_ccdc_archive 'CCDC 845318'
_chemical_formula_sum 'C19 H18'
_chemical_formula_moiety
;
C19 H18
;
_journal_coeditor_code "IUCr NG5202"
_journal_coden_Cambridge 1370
_journal_volume 67
_journal_year 2011
_journal_page_first o2251
_journal_name_full 'Acta Crystallogr.,Sect.E:Struct.Rep.Online '
loop_
_publ_author_name
"N.Arumugam"
"A.I.Almansour"
"U.Karama"
"M.M.Rosli"
"I.A.Razak"
_chemical_name_systematic
;
9-(Pent-4-en-1-yl)anthracene
;
_cell_volume   1396.554
_exptl_crystal_colour 'colorless'
_exptl_crystal_density_diffrn 1.172
_exptl_crystal_description 'block'
_diffrn_ambient_temperature 100
#These two values have been output from a single CSD field.
_refine_ls_R_factor_gt 0.0494
_refine_ls_wR_factor_gt 0.0494
_symmetry_cell_setting monoclinic
_symmetry_space_group_name_H-M 'P 21/c'
_symmetry_Int_Tables_number 14
loop_
_symmetry_equiv_pos_site_id
_symmetry_equiv_pos_as_xyz
1 x,y,z
2 -x,1/2+y,1/2-z
3 -x,-y,-z
4 x,-1/2-y,-1/2+z
_cell_length_a 11.1555(2)
_cell_length_b 7.2678(1)
_cell_length_c 19.7129(3)
_cell_angle_alpha 90
_cell_angle_beta 119.096(1)
_cell_angle_gamma 90
_cell_formula_units_Z 4
loop_
_atom_type_symbol
_atom_type_radius_bond
C 0.68
H 0.23
loop_
_atom_site_label
_atom_site_type_symbol
_atom_site_fract_x
_atom_site_fract_y
_atom_site_fract_z
C1 C 0.12149(8) 0.51562(11) 0.87949(5)
C2 C 0.03754(9) 0.45215(12) 0.91135(5)
H1 H 0.06930 0.35400 0.94780
C3 C -0.08723(9) 0.53006(14) 0.89033(5)
H2 H -0.14050 0.48600 0.91260
C4 C -0.13826(9) 0.67610(14) 0.83556(6)
H3 H -0.22500 0.72940 0.82160
C5 C -0.06301(9) 0.73990(12) 0.80296(5)
H4 H -0.09810 0.83720 0.76620
C6 C 0.06813(8) 0.66222(11) 0.82341(5)
C7 C 0.14534(8) 0.72875(11) 0.79022(5)
H5 H 0.11010 0.82630 0.75360
C8 C 0.27345(8) 0.65400(11) 0.81012(5)
C9 C 0.35206(9) 0.72202(13) 0.77582(5)
H6 H 0.31780 0.82210 0.74040
C10 C 0.47518(9) 0.64570(14) 0.79301(6)
H7 H 0.52580 0.69190 0.76950
C11 C 0.52754(9) 0.49685(14) 0.84623(6)
H8 H 0.61290 0.44300 0.85750
C12 C 0.45707(8) 0.43008(12) 0.88137(5)
H9 H 0.49480 0.33120 0.91720
C13 C 0.32723(8) 0.50604(11) 0.86544(5)
C14 C 0.25201(8) 0.43960(11) 0.90096(5)
C15 C 0.30778(9) 0.28354(11) 0.95877(5)
H10 H 0.27110 0.29410 0.99530
H11 H 0.40890 0.29430 0.98910
C16 C 0.27031(9) 0.09379(11) 0.91969(5)
H12 H 0.31800 0.07570 0.88900
H13 H 0.17030 0.08870 0.88360
C17 C 0.31046(9) -0.06170(12) 0.97964(5)
H14 H 0.31540 -0.17890 0.95550
H15 H 0.40280 -0.03610 1.02380
C18 C 0.21099(11) -0.08229(13) 1.00944(6)
H16 H 0.12040 -0.11980 0.97340
C19 C 0.23850(14) -0.05277(16) 1.08162(7)
H17 H 0.32790 -0.01510 1.11950
H18 H 0.16890 -0.06920 1.09570
loop_
_geom_bond_atom_site_label_1
_geom_bond_atom_site_label_2
_geom_bond_distance
_geom_bond_site_symmetry_1
_geom_bond_site_symmetry_2
C1 C2 1.434 1_555 1_555
C2 H1 0.950 1_555 1_555
C3 C2 1.367 1_555 1_555
H2 C3 0.950 1_555 1_555
C4 C3 1.421 1_555 1_555
H3 C4 0.950 1_555 1_555
C5 C4 1.363 1_555 1_555
H4 C5 0.950 1_555 1_555
C6 C1 1.439 1_555 1_555
C7 C6 1.397 1_555 1_555
H5 C7 0.950 1_555 1_555
C8 C7 1.395 1_555 1_555
C9 C8 1.431 1_555 1_555
H6 C9 0.950 1_555 1_555
C10 C9 1.362 1_555 1_555
H7 C10 0.949 1_555 1_555
C11 C10 1.420 1_555 1_555
H8 C11 0.951 1_555 1_555
C12 C11 1.365 1_555 1_555
H9 C12 0.950 1_555 1_555
C13 C8 1.438 1_555 1_555
C14 C1 1.416 1_555 1_555
C15 C14 1.511 1_555 1_555
H10 C15 0.989 1_555 1_555
H11 C15 0.990 1_555 1_555
C16 C15 1.535 1_555 1_555
H12 C16 0.990 1_555 1_555
H13 C16 0.990 1_555 1_555
C17 C16 1.536 1_555 1_555
H14 C17 0.990 1_555 1_555
H15 C17 0.991 1_555 1_555
C18 C17 1.494 1_555 1_555
H16 C18 0.950 1_555 1_555
C19 C18 1.319 1_555 1_555
H17 C19 0.950 1_555 1_555
H18 C19 0.951 1_555 1_555
C5 C6 1.431 1_555 1_555
C12 C13 1.435 1_555 1_555
C13 C14 1.414 1_555 1_555
#END
