
#######################################################################
#
#                 Cambridge Crystallographic Data Centre
#                                CCDC
#
#######################################################################
#
# If this CIF has been generated from an entry in the Cambridge
# Structural Database, then it will include bibliographic, chemical,
# crystal, experimental, refinement or atomic coordinate data resulting
# from the CCDC's data processing and validation procedures.
#
#######################################################################

data_CSD_CIF_BEKJAE
_audit_creation_date 2013-02-22
_audit_creation_method CSD-ConQuest-V1
_database_code_CSD BEKJAE
_database_code_depnum_ccdc_archive 'CCDC 908944'
_chemical_formula_sum 'C26 H18'
_chemical_formula_moiety
;
C26 H18
;
_journal_coden_Cambridge 579
_journal_volume 31
_journal_year 2012
_journal_page_first 1653
_journal_name_full 'Organometallics '
loop_
_publ_author_name
"G.G.Melikyan"
"B.Rivas"
"S.Harutyunyan"
"L.Carlson"
"R.Sepanian"
_chemical_name_systematic
;
2,2'-Hexa-1,5-diyne-3,4-diyldinaphthalene
;
_cell_volume   1774.120
_exptl_crystal_colour 'colorless'
_exptl_crystal_density_diffrn 1.237
_exptl_crystal_description 'block'
_diffrn_ambient_temperature 173
#These two values have been output from a single CSD field.
_refine_ls_R_factor_gt 0.0419
_refine_ls_wR_factor_gt 0.0419
_symmetry_cell_setting orthorhombic
_symmetry_space_group_name_H-M 'P c a 21'
_symmetry_Int_Tables_number 29
loop_
_symmetry_equiv_pos_site_id
_symmetry_equiv_pos_as_xyz
1 x,y,z
2 -x,-y,1/2+z
3 1/2+x,-y,z
4 1/2-x,y,1/2+z
_cell_length_a 11.8926(4)
_cell_length_b 19.5888(6)
_cell_length_c 7.6155(3)
_cell_angle_alpha 90
_cell_angle_beta 90
_cell_angle_gamma 90
_cell_formula_units_Z 4
loop_
_atom_type_symbol
_atom_type_radius_bond
C 0.68
H 0.23
loop_
_atom_site_label
_atom_site_type_symbol
_atom_site_fract_x
_atom_site_fract_y
_atom_site_fract_z
C1 C 0.3423(2) 0.64053(11) 0.5940(3)
H1 H 0.31580 0.68310 0.55080
C2 C 0.2830(2) 0.58256(10) 0.5592(3)
H2 H 0.21430 0.58540 0.49580
C3 C 0.3226(2) 0.51815(11) 0.6167(3)
C4 C 0.2637(2) 0.45671(11) 0.5830(3)
H3 H 0.19370 0.45840 0.52300
C5 C 0.3057(2) 0.39535(12) 0.6351(3)
H4 H 0.26450 0.35470 0.61250
C6 C 0.4106(2) 0.39179(12) 0.7231(3)
H5 H 0.44030 0.34880 0.75720
C7 C 0.4687(2) 0.44997(11) 0.7585(3)
H6 H 0.53900 0.44710 0.81730
C8 C 0.4262(2) 0.51471(11) 0.7093(3)
C9 C 0.4836(2) 0.57681(11) 0.7486(3)
H7 H 0.55150 0.57530 0.81430
C10 C 0.4429(2) 0.63833(11) 0.6937(3)
C11 C 0.5063(2) 0.70362(12) 0.7379(3)
H8 H 0.58110 0.68960 0.78590
C12 C 0.4475(2) 0.74763(12) 0.8835(3)
H9 H 0.43970 0.71790 0.98950
C13 C 0.5209(2) 0.80845(11) 0.9369(3)
C14 C 0.6268(2) 0.79558(12) 1.0183(3)
H10 H 0.65010 0.74980 1.03700
C15 C 0.6953(2) 0.84763(11) 1.0698(3)
H11 H 0.76480 0.83750 1.12550
C16 C 0.6643(2) 0.91656(11) 1.0416(3)
C17 C 0.7335(2) 0.97206(12) 1.0915(3)
H12 H 0.80340 0.96350 1.14760
C18 C 0.7012(2) 1.03732(12) 1.0601(4)
H13 H 0.74870 1.07410 1.09400
C19 C 0.5980(2) 1.05076(13) 0.9779(3)
H14 H 0.57620 1.09670 0.95660
C20 C 0.5284(2) 0.99881(12) 0.9280(4)
H15 H 0.45890 1.00880 0.87220
C21 C 0.5596(2) 0.92999(11) 0.9592(3)
C22 C 0.4899(2) 0.87455(11) 0.9096(3)
H16 H 0.41950 0.88380 0.85570
C23 C 0.5287(2) 0.74580(12) 0.5803(4)
C24 C 0.5478(3) 0.77895(13) 0.4551(4)
C25 C 0.3341(2) 0.76899(12) 0.8334(3)
C26 C 0.2435(3) 0.78793(13) 0.7925(4)
H17 H 0.55650 0.80760 0.35830
H18 H 0.16960 0.80180 0.76230
loop_
_geom_bond_atom_site_label_1
_geom_bond_atom_site_label_2
_geom_bond_distance
_geom_bond_site_symmetry_1
_geom_bond_site_symmetry_2
C1 H1 0.950 1_555 1_555
C2 C1 1.363 1_555 1_555
H2 C2 0.951 1_555 1_555
C3 C2 1.416 1_555 1_555
C4 C3 1.416 1_555 1_555
H3 C4 0.950 1_555 1_555
C5 C4 1.361 1_555 1_555
H4 C5 0.951 1_555 1_555
C6 C5 1.418 1_555 1_555
H5 C6 0.949 1_555 1_555
C7 C6 1.360 1_555 1_555
H6 C7 0.950 1_555 1_555
C8 C3 1.421 1_555 1_555
C9 C8 1.427 1_555 1_555
H7 C9 0.950 1_555 1_555
C10 C1 1.418 1_555 1_555
C11 C10 1.522 1_555 1_555
H8 C11 1.000 1_555 1_555
C12 C11 1.569 1_555 1_555
H9 C12 1.000 1_555 1_555
C13 C12 1.532 1_555 1_555
C14 C13 1.426 1_555 1_555
H10 C14 0.949 1_555 1_555
C15 C14 1.363 1_555 1_555
H11 C15 0.950 1_555 1_555
C16 C15 1.416 1_555 1_555
C17 C16 1.416 1_555 1_555
H12 C17 0.950 1_555 1_555
C18 C17 1.356 1_555 1_555
H13 C18 0.951 1_555 1_555
C19 C18 1.403 1_555 1_555
H14 C19 0.950 1_555 1_555
C20 C19 1.366 1_555 1_555
H15 C20 0.950 1_555 1_555
C21 C16 1.419 1_555 1_555
C22 C13 1.362 1_555 1_555
H16 C22 0.950 1_555 1_555
C23 C11 1.481 1_555 1_555
C24 C23 1.176 1_555 1_555
C25 C12 1.463 1_555 1_555
C26 C25 1.181 1_555 1_555
H17 C24 0.932 1_555 1_555
H18 C26 0.948 1_555 1_555
C7 C8 1.416 1_555 1_555
C9 C10 1.364 1_555 1_555
C20 C21 1.418 1_555 1_555
C21 C22 1.417 1_555 1_555
#END
