
#######################################################################
#
#                 Cambridge Crystallographic Data Centre
#                                CCDC
#
#######################################################################
#
# If this CIF has been generated from an entry in the Cambridge
# Structural Database, then it will include bibliographic, chemical,
# crystal, experimental, refinement or atomic coordinate data resulting
# from the CCDC's data processing and validation procedures.
#
#######################################################################

data_CSD_CIF_BENANT02
_audit_creation_date 1988-09-04
_audit_creation_method CSD-ConQuest-V1
_database_code_CSD BENANT02
_database_code_depnum_ccdc_archive 'CCDC 1108602'
_chemical_formula_sum 'C20 H16'
_chemical_formula_moiety
;
C20 H16
;
_journal_coden_Cambridge 557
_journal_volume 8
_journal_year 1987
_journal_page_first 5
_journal_name_full 'Carcinogenesis '
loop_
_publ_author_name
"C.L.Klein"
"E.D.Stevens"
"D.E.Zacharias"
"J.P.Glusker"
_chemical_name_systematic
;
7,12-Dimethylbenz(a)anthracene
;
_cell_volume   1343.422
_exptl_crystal_density_diffrn 1.267
_exptl_special_details
;
carcinogenic agent

;
_diffrn_ambient_temperature 180
#These two values have been output from a single CSD field.
_refine_ls_R_factor_gt 0.05
_refine_ls_wR_factor_gt 0.05
_symmetry_cell_setting orthorhombic
_symmetry_space_group_name_H-M 'P n a 21'
_symmetry_Int_Tables_number 33
loop_
_symmetry_equiv_pos_site_id
_symmetry_equiv_pos_as_xyz
1 x,y,z
2 1/2-x,1/2+y,1/2+z
3 1/2+x,1/2-y,z
4 -x,-y,1/2+z
_cell_length_a 8.615(2)
_cell_length_b 21.036(4)
_cell_length_c 7.413(2)
_cell_angle_alpha 90
_cell_angle_beta 90
_cell_angle_gamma 90
_cell_formula_units_Z 4
loop_
_atom_type_symbol
_atom_type_radius_bond
C 0.68
H 0.23
loop_
_atom_site_label
_atom_site_type_symbol
_atom_site_fract_x
_atom_site_fract_y
_atom_site_fract_z
C1 C 0.1631(3) 0.1390(2) 0.15372(8)
C2 C 0.2025(3) 0.2027(2) 0.13875(9)
C3 C 0.3340(4) 0.2264(2) 0.22559(9)
C4 C 0.4302(3) 0.1855(2) 0.31610(9)
C5 C 0.5062(3) 0.0764(2) 0.4039(1)
C6 C 0.4817(3) 0.0133(2) 0.39673(9)
C7 C 0.3185(3) -0.0800(2) 0.32447(8)
C8 C 0.1478(4) -0.1714(2) 0.24412(8)
C9 C 0.0070(4) -0.1947(3) 0.19422(9)
C10 C -0.1202(4) -0.1534(3) 0.1692(1)
C11 C -0.1025(3) -0.0895(2) 0.19406(9)
C12 C 0.0651(3) 0.0045(2) 0.25532(8)
C13 C 0.2152(3) 0.0288(2) 0.27826(8)
C14 C 0.2542(3) 0.0968(2) 0.25618(8)
C15 C 0.3953(3) 0.1200(2) 0.32860(9)
C16 C 0.3388(3) -0.0139(2) 0.33025(8)
C17 C 0.1734(3) -0.1046(2) 0.26922(8)
C18 C 0.0449(3) -0.0625(2) 0.24105(8)
C19 C -0.0794(3) 0.0458(2) 0.25971(8)
C20 C 0.4492(4) -0.1248(2) 0.3720(1)
H1 H 0.083(3) 0.123(3) 0.0938(9)
H2 H 0.139(4) 0.230(3) 0.062(1)
H3 H 0.356(4) 0.268(3) 0.213(1)
H4 H 0.528(4) 0.200(3) 0.3615(9)
H5 H 0.600(4) 0.095(3) 0.449(1)
H6 H 0.564(4) -0.014(3) 0.445(1)
H7 H 0.231(4) -0.200(2) 0.2571(9)
H8 H -0.007(5) -0.238(3) 0.174(1)
H9 H -0.218(3) -0.170(2) 0.1348(9)
H10 H -0.198(4) -0.063(2) 0.1763(9)
H11 H -0.161(4) 0.023(3) 0.328(1)
H12 H -0.117(4) 0.051(3) 0.141(1)
H13 H -0.058(4) 0.089(3) 0.316(1)
H14 H 0.487(7) -0.143(4) 0.268(2)
H15 H 0.541(6) -0.103(4) 0.429(2)
H16 H 0.422(6) -0.159(4) 0.443(2)
loop_
_geom_bond_atom_site_label_1
_geom_bond_atom_site_label_2
_geom_bond_distance
_geom_bond_site_symmetry_1
_geom_bond_site_symmetry_2
C1 C2 1.387 1_555 1_555
C2 C3 1.395 1_555 1_555
C3 C4 1.370 1_555 1_555
C4 C15 1.413 1_555 1_555
C5 C6 1.345 1_555 1_555
C6 C16 1.444 1_555 1_555
C7 C16 1.402 1_555 1_555
C8 C9 1.360 1_555 1_555
C9 C10 1.411 1_555 1_555
C10 C11 1.365 1_555 1_555
C11 C18 1.434 1_555 1_555
C12 C13 1.401 1_555 1_555
C13 C14 1.478 1_555 1_555
C14 C1 1.407 1_555 1_555
C15 C5 1.437 1_555 1_555
C16 C13 1.445 1_555 1_555
C17 C7 1.414 1_555 1_555
C18 C12 1.424 1_555 1_555
C19 C12 1.518 1_555 1_555
C20 C7 1.510 1_555 1_555
H1 C1 0.887 1_555 1_555
H2 C2 0.976 1_555 1_555
H3 C3 0.900 1_555 1_555
H4 C4 0.957 1_555 1_555
H5 C5 0.958 1_555 1_555
H6 C6 0.980 1_555 1_555
H7 C8 0.941 1_555 1_555
H8 C9 0.931 1_555 1_555
H9 C10 0.947 1_555 1_555
H10 C11 1.002 1_555 1_555
H11 C19 0.990 1_555 1_555
H12 C19 0.944 1_555 1_555
H13 C19 1.017 1_555 1_555
H14 C20 0.920 1_555 1_555
H15 C20 1.007 1_555 1_555
H16 C20 0.922 1_555 1_555
C8 C17 1.435 1_555 1_555
C14 C15 1.416 1_555 1_555
C17 C18 1.433 1_555 1_555
#END
