
#######################################################################
#
#                 Cambridge Crystallographic Data Centre
#                                CCDC
#
#######################################################################
#
# If this CIF has been generated from an entry in the Cambridge
# Structural Database, then it will include bibliographic, chemical,
# crystal, experimental, refinement or atomic coordinate data resulting
# from the CCDC's data processing and validation procedures.
#
#######################################################################

data_CSD_CIF_BILQUK
_audit_creation_date 2013-11-26
_audit_creation_method CSD-ConQuest-V1
_database_code_CSD BILQUK
_database_code_depnum_ccdc_archive 'CCDC 894161'
_chemical_formula_sum 'C35 H22'
_chemical_formula_moiety
;
C35 H22
;
_journal_coden_Cambridge 574
_journal_volume 97
_journal_year 2013
_journal_page_first 389
_journal_name_full 'Dyes Pigm. '
loop_
_publ_author_name
"Duanqin Li"
"Miaochang Liu"
"Jiuxi Chen"
"Jian Lan"
"Xiaobo Huang"
"Huayue Wu"
_chemical_name_systematic
;
7-((4-Methylphenyl)ethynyl)-12-phenylindeno[2,1-a]phenalene
;
_cell_volume   1193.744
_exptl_crystal_colour 'brown red'
_exptl_crystal_density_diffrn 1.231
_exptl_crystal_description 'Block'
_diffrn_ambient_temperature 298
#These two values have been output from a single CSD field.
_refine_ls_R_factor_gt 0.0802
_refine_ls_wR_factor_gt 0.0802
_symmetry_cell_setting triclinic
_symmetry_space_group_name_H-M 'P -1'
_symmetry_Int_Tables_number 2
loop_
_symmetry_equiv_pos_site_id
_symmetry_equiv_pos_as_xyz
1 x,y,z
2 -x,-y,-z
_cell_length_a 10.091(3)
_cell_length_b 10.600(3)
_cell_length_c 12.795(4)
_cell_angle_alpha 71.816(5)
_cell_angle_beta 89.732(5)
_cell_angle_gamma 67.788(4)
_cell_formula_units_Z 2
loop_
_atom_type_symbol
_atom_type_radius_bond
C 0.68
H 0.23
loop_
_atom_site_label
_atom_site_type_symbol
_atom_site_fract_x
_atom_site_fract_y
_atom_site_fract_z
C1 C 0.2384(6) -0.7703(5) 0.1253(5)
H1 H 0.22770 -0.74540 0.04600
H2 H 0.16710 -0.80640 0.15480
H3 H 0.33310 -0.84340 0.15610
C2 C 0.2185(4) -0.6384(4) 0.1549(4)
C3 C 0.2453(4) -0.6493(4) 0.2642(3)
H4 H 0.27990 -0.73970 0.31940
C4 C 0.2213(4) -0.5274(4) 0.2920(3)
H5 H 0.23950 -0.53670 0.36580
C5 C 0.1704(3) -0.3908(3) 0.2113(3)
C6 C 0.1477(5) -0.3810(4) 0.1018(3)
H6 H 0.11680 -0.29130 0.04610
C7 C 0.1706(5) -0.5025(5) 0.0749(4)
H7 H 0.15340 -0.49320 0.00100
C8 C 0.1415(4) -0.2652(4) 0.2428(3)
C9 C 0.1134(4) -0.1644(4) 0.2734(3)
C10 C 0.0806(3) -0.0456(3) 0.3141(3)
C11 C 0.1828(3) -0.0548(3) 0.4005(3)
C12 C 0.1512(3) 0.0607(3) 0.4424(2)
C13 C 0.0215(3) 0.1888(3) 0.4036(2)
C14 C -0.0743(3) 0.1998(3) 0.3132(2)
C15 C -0.0416(3) 0.0760(3) 0.2752(3)
C16 C -0.1619(4) 0.1150(4) 0.1904(3)
C17 C -0.2581(3) 0.2548(3) 0.1789(3)
C18 C -0.2008(3) 0.3087(3) 0.2535(3)
C19 C -0.3848(4) 0.3208(4) 0.1069(3)
H8 H -0.45030 0.41300 0.10120
C20 C -0.4125(5) 0.2465(4) 0.0429(3)
H9 H -0.49730 0.28950 -0.00610
C21 C -0.3151(5) 0.1098(5) 0.0516(3)
H10 H -0.33420 0.06180 0.00770
C22 C -0.1897(5) 0.0436(4) 0.1247(3)
H11 H -0.12420 -0.04840 0.13000
C23 C -0.2668(3) 0.4613(3) 0.2469(3)
C24 C -0.1860(4) 0.5466(3) 0.2206(3)
H12 H -0.08870 0.50410 0.21370
C25 C -0.2478(4) 0.6912(4) 0.2049(3)
H13 H -0.19190 0.74560 0.18770
C26 C -0.3913(5) 0.7573(5) 0.2142(4)
H14 H -0.43260 0.85590 0.20300
C27 C -0.4725(4) 0.6769(5) 0.2401(4)
H15 H -0.56960 0.72100 0.24700
C28 C -0.4116(4) 0.5296(5) 0.2561(3)
H16 H -0.46860 0.47620 0.27310
C29 C 0.3098(4) -0.1769(4) 0.4426(3)
H17 H 0.32980 -0.25360 0.41600
C30 C 0.4084(4) -0.1869(5) 0.5244(3)
H18 H 0.49450 -0.26830 0.54990
C31 C 0.3785(4) -0.0782(5) 0.5664(3)
H19 H 0.44410 -0.08680 0.62160
C32 C 0.2505(4) 0.0476(4) 0.5286(3)
C33 C 0.2170(4) 0.1600(4) 0.5730(3)
H20 H 0.28240 0.15300 0.62770
C34 C 0.0910(4) 0.2789(4) 0.5376(3)
H21 H 0.06990 0.35150 0.56890
C35 C -0.0065(4) 0.2914(4) 0.4543(3)
H22 H -0.09350 0.37200 0.43230
loop_
_geom_bond_atom_site_label_1
_geom_bond_atom_site_label_2
_geom_bond_distance
_geom_bond_site_symmetry_1
_geom_bond_site_symmetry_2
C1 H1 0.961 1_555 1_555
H2 C1 0.960 1_555 1_555
H3 C1 0.960 1_555 1_555
C2 C1 1.502 1_555 1_555
C3 C2 1.386 1_555 1_555
H4 C3 0.931 1_555 1_555
C4 C3 1.380 1_555 1_555
H5 C4 0.930 1_555 1_555
C5 C4 1.391 1_555 1_555
C6 C5 1.386 1_555 1_555
H6 C6 0.930 1_555 1_555
C7 C2 1.384 1_555 1_555
H7 C7 0.930 1_555 1_555
C8 C5 1.435 1_555 1_555
C9 C8 1.186 1_555 1_555
C10 C9 1.435 1_555 1_555
C11 C10 1.471 1_555 1_555
C12 C11 1.415 1_555 1_555
C13 C12 1.430 1_555 1_555
C14 C13 1.458 1_555 1_555
C15 C10 1.354 1_555 1_555
C16 C15 1.475 1_555 1_555
C17 C16 1.392 1_555 1_555
C18 C14 1.375 1_555 1_555
C19 C17 1.380 1_555 1_555
H8 C19 0.930 1_555 1_555
C20 C19 1.393 1_555 1_555
H9 C20 0.930 1_555 1_555
C21 C20 1.379 1_555 1_555
H10 C21 0.930 1_555 1_555
C22 C16 1.385 1_555 1_555
H11 C22 0.930 1_555 1_555
C23 C18 1.472 1_555 1_555
C24 C23 1.400 1_555 1_555
H12 C24 0.930 1_555 1_555
C25 C24 1.366 1_555 1_555
H13 C25 0.930 1_555 1_555
C26 C25 1.373 1_555 1_555
H14 C26 0.930 1_555 1_555
C27 C26 1.363 1_555 1_555
H15 C27 0.930 1_555 1_555
C28 C23 1.387 1_555 1_555
H16 C28 0.931 1_555 1_555
C29 C11 1.387 1_555 1_555
H17 C29 0.930 1_555 1_555
C30 C29 1.399 1_555 1_555
H18 C30 0.931 1_555 1_555
C31 C30 1.353 1_555 1_555
H19 C31 0.929 1_555 1_555
C32 C12 1.432 1_555 1_555
C33 C32 1.405 1_555 1_555
H20 C33 0.930 1_555 1_555
C34 C33 1.359 1_555 1_555
H21 C34 0.930 1_555 1_555
C35 C13 1.375 1_555 1_555
H22 C35 0.930 1_555 1_555
C6 C7 1.372 1_555 1_555
C14 C15 1.462 1_555 1_555
C17 C18 1.472 1_555 1_555
C21 C22 1.378 1_555 1_555
C27 C28 1.391 1_555 1_555
C31 C32 1.408 1_555 1_555
C34 C35 1.395 1_555 1_555
#END
