
#######################################################################
#
#                 Cambridge Crystallographic Data Centre
#                                CCDC
#
#######################################################################
#
# If this CIF has been generated from an entry in the Cambridge
# Structural Database, then it will include bibliographic, chemical,
# crystal, experimental, refinement or atomic coordinate data resulting
# from the CCDC's data processing and validation procedures.
#
#######################################################################

data_CSD_CIF_BILRAR
_audit_creation_date 2013-11-26
_audit_creation_method CSD-ConQuest-V1
_database_code_CSD BILRAR
_database_code_depnum_ccdc_archive 'CCDC 894160'
_chemical_formula_sum 'C34 H20'
_chemical_formula_moiety
;
C34 H20
;
_journal_coden_Cambridge 574
_journal_volume 97
_journal_year 2013
_journal_page_first 389
_journal_name_full 'Dyes Pigm. '
loop_
_publ_author_name
"Duanqin Li"
"Miaochang Liu"
"Jiuxi Chen"
"Jian Lan"
"Xiaobo Huang"
"Huayue Wu"
_chemical_name_systematic
;
12-Phenyl-7-(phenylethynyl)indeno[2,1-a]phenalene
;
_cell_volume   2257.439
_exptl_crystal_colour 'brown'
_exptl_crystal_density_diffrn 1.261
_exptl_crystal_description 'Prism'
_diffrn_ambient_temperature 298
#These two values have been output from a single CSD field.
_refine_ls_R_factor_gt 0.0543
_refine_ls_wR_factor_gt 0.0543
_symmetry_cell_setting monoclinic
_symmetry_space_group_name_H-M 'P 21/c'
_symmetry_Int_Tables_number 14
loop_
_symmetry_equiv_pos_site_id
_symmetry_equiv_pos_as_xyz
1 x,y,z
2 -x,1/2+y,1/2-z
3 -x,-y,-z
4 x,-1/2-y,-1/2+z
_cell_length_a 12.559(4)
_cell_length_b 22.070(7)
_cell_length_c 8.161(3)
_cell_angle_alpha 90
_cell_angle_beta 93.656(6)
_cell_angle_gamma 90
_cell_formula_units_Z 4
loop_
_atom_type_symbol
_atom_type_radius_bond
C 0.68
H 0.23
loop_
_atom_site_label
_atom_site_type_symbol
_atom_site_fract_x
_atom_site_fract_y
_atom_site_fract_z
C1 C 1.2855(3) 0.7900(2) 0.6676(5)
H1 H 1.21480 0.77830 0.67490
C2 C 1.3654(5) 0.7550(3) 0.7405(6)
H2 H 1.34890 0.71890 0.79230
C3 C 1.4688(5) 0.7730(3) 0.7367(5)
H3 H 1.52280 0.75010 0.78950
C4 C 1.4932(3) 0.8249(2) 0.6548(5)
H4 H 1.56390 0.83710 0.65210
C5 C 1.4128(2) 0.85945(14) 0.5760(4)
H5 H 1.42980 0.89400 0.51810
C6 C 1.3077(2) 0.84224(13) 0.5838(3)
C7 C 1.2226(2) 0.87664(12) 0.5029(3)
C8 C 1.14958(19) 0.90462(12) 0.4399(3)
C9 C 1.06247(17) 0.93909(11) 0.3633(3)
C10 C 1.08498(17) 0.99693(11) 0.2859(3)
C11 C 1.18689(18) 1.02065(12) 0.2883(3)
H6 H 1.24230 0.99930 0.34290
C12 C 1.2100(2) 1.07460(13) 0.2134(3)
H7 H 1.28000 1.08850 0.21600
C13 C 1.1298(2) 1.10776(13) 0.1349(3)
H8 H 1.14530 1.14440 0.08560
C14 C 1.02272(19) 1.08615(11) 0.1288(3)
C15 C 0.9390(2) 1.11998(12) 0.0479(3)
H9 H 0.95370 1.15680 -0.00110
C16 C 0.8366(2) 1.09848(13) 0.0419(3)
H10 H 0.78210 1.12080 -0.01160
C17 C 0.81336(19) 1.04335(11) 0.1152(3)
H11 H 0.74330 1.02950 0.10860
C18 C 0.89143(17) 1.00873(10) 0.1975(3)
C19 C 0.99919(17) 1.03059(10) 0.2047(3)
C20 C 0.87036(17) 0.9511(1) 0.2776(3)
C21 C 0.95986(17) 0.91755(11) 0.3597(3)
C22 C 0.91627(18) 0.86203(10) 0.4270(3)
C23 C 0.9601(2) 0.81585(12) 0.5253(3)
H12 H 1.03300 0.81510 0.55380
C24 C 0.8939(2) 0.77058(12) 0.5809(3)
H13 H 0.92260 0.74020 0.64940
C25 C 0.7863(2) 0.77034(13) 0.5355(3)
H14 H 0.74360 0.73930 0.57180
C26 C 0.7412(2) 0.81546(12) 0.4370(3)
H15 H 0.66860 0.81480 0.40630
C27 C 0.80575(18) 0.86224(10) 0.3838(3)
C28 C 0.77840(17) 0.91759(11) 0.2912(3)
C29 C 0.66492(17) 0.93139(11) 0.2385(3)
C30 C 0.6074(2) 0.89276(12) 0.1285(3)
H16 H 0.64170 0.86030 0.08170
C31 C 0.4998(2) 0.90260(14) 0.0892(4)
H17 H 0.46250 0.87700 0.01550
C32 C 0.4477(2) 0.95034(14) 0.1590(3)
H18 H 0.37550 0.95690 0.13260
C33 C 0.5030(2) 0.98772(14) 0.2671(3)
H19 H 0.46830 1.01990 0.31430
C34 C 0.61075(19) 0.97789(12) 0.3068(3)
H20 H 0.64700 1.00350 0.38160
loop_
_geom_bond_atom_site_label_1
_geom_bond_atom_site_label_2
_geom_bond_distance
_geom_bond_site_symmetry_1
_geom_bond_site_symmetry_2
C1 H1 0.930 1_555 1_555
C2 C1 1.372 1_555 1_555
H2 C2 0.931 1_555 1_555
C3 C2 1.360 1_555 1_555
H3 C3 0.929 1_555 1_555
C4 C3 1.371 1_555 1_555
H4 C4 0.929 1_555 1_555
C5 C4 1.390 1_555 1_555
H5 C5 0.929 1_555 1_555
C6 C1 1.378 1_555 1_555
C7 C6 1.437 1_555 1_555
C8 C7 1.194 1_555 1_555
C9 C8 1.442 1_555 1_555
C10 C9 1.460 1_555 1_555
C11 C10 1.382 1_555 1_555
H6 C11 0.930 1_555 1_555
C12 C11 1.378 1_555 1_555
H7 C12 0.930 1_555 1_555
C13 C12 1.370 1_555 1_555
H8 C13 0.929 1_555 1_555
C14 C13 1.425 1_555 1_555
C15 C14 1.418 1_555 1_555
H9 C15 0.929 1_555 1_555
C16 C15 1.369 1_555 1_555
H10 C16 0.929 1_555 1_555
C17 C16 1.395 1_555 1_555
H11 C17 0.930 1_555 1_555
C18 C17 1.383 1_555 1_555
C19 C10 1.436 1_555 1_555
C20 C18 1.462 1_555 1_555
C21 C9 1.372 1_555 1_555
C22 C21 1.463 1_555 1_555
C23 C22 1.389 1_555 1_555
H12 C23 0.930 1_555 1_555
C24 C23 1.394 1_555 1_555
H13 C24 0.931 1_555 1_555
C25 C24 1.378 1_555 1_555
H14 C25 0.930 1_555 1_555
C26 C25 1.379 1_555 1_555
H15 C26 0.930 1_555 1_555
C27 C22 1.410 1_555 1_555
C28 C20 1.382 1_555 1_555
C29 C28 1.494 1_555 1_555
C30 C29 1.404 1_555 1_555
H16 C30 0.930 1_555 1_555
C31 C30 1.386 1_555 1_555
H17 C31 0.930 1_555 1_555
C32 C31 1.382 1_555 1_555
H18 C32 0.930 1_555 1_555
C33 C32 1.365 1_555 1_555
H19 C33 0.930 1_555 1_555
C34 C29 1.369 1_555 1_555
H20 C34 0.929 1_555 1_555
C5 C6 1.379 1_555 1_555
C14 C19 1.413 1_555 1_555
C18 C19 1.434 1_555 1_555
C20 C21 1.471 1_555 1_555
C26 C27 1.399 1_555 1_555
C27 C28 1.466 1_555 1_555
C33 C34 1.388 1_555 1_555
#END
