
#######################################################################
#
#                 Cambridge Crystallographic Data Centre
#                                CCDC
#
#######################################################################
#
# If this CIF has been generated from an entry in the Cambridge
# Structural Database, then it will include bibliographic, chemical,
# crystal, experimental, refinement or atomic coordinate data resulting
# from the CCDC's data processing and validation procedures.
#
#######################################################################

data_CSD_CIF_BINAPH21
_audit_creation_date 2018-02-06
_audit_creation_method CSD-ConQuest-V1
_database_code_CSD BINAPH21
_database_code_depnum_ccdc_archive 'CCDC 1531194'
_chemical_formula_sum 'C20 H14'
_chemical_formula_moiety
;
C20 H14
;
_journal_coden_Cambridge 1326
_journal_volume 20
_journal_year 2018
_journal_page_first 5305
_journal_name_full 'Phys.Chem.Chem.Phys.(PCCP) '
loop_
_publ_author_name
"Kinga Roszak"
"A.Katrusiak"
_chemical_name_systematic
;
(+-)-1,1'-binaphthalene
;
_chemical_name_common
;
(+-)-1,1'-binaphthyl
;
_cell_volume   1187.967
_exptl_crystal_colour 'colorless'
_exptl_crystal_density_diffrn 1.422
_exptl_crystal_description 'plate'
_diffrn_ambient_temperature 296
_diffrn_ambient_pressure 1160000.0
#These two values have been output from a single CSD field.
_refine_ls_R_factor_gt 0.1158
_refine_ls_wR_factor_gt 0.1158
loop_
_citation_database_id_CSD
_citation_special_details
BNPHTA "is a stereoisomer of this entry"
_symmetry_cell_setting monoclinic
_symmetry_space_group_name_H-M 'C 2/c'
_symmetry_Int_Tables_number 15
loop_
_symmetry_equiv_pos_site_id
_symmetry_equiv_pos_as_xyz
1 x,y,z
2 -x,y,1/2-z
3 1/2+x,1/2+y,z
4 1/2-x,1/2+y,1/2-z
5 -x,-y,-z
6 x,-y,-1/2+z
7 -1/2-x,-1/2-y,-z
8 -1/2+x,-1/2-y,-1/2+z
_cell_length_a 20.584(13)
_cell_length_b 6.058(4)
_cell_length_c 9.874(5)
_cell_angle_alpha 90
_cell_angle_beta 105.24(2)
_cell_angle_gamma 90
_cell_formula_units_Z 4
loop_
_atom_type_symbol
_atom_type_radius_bond
C 0.68
H 0.23
loop_
_atom_site_label
_atom_site_type_symbol
_atom_site_fract_x
_atom_site_fract_y
_atom_site_fract_z
C1 C 0.4207(5) 0.263(2) 0.1721(11)
C2 C 0.4630(5) 0.093(2) 0.2456(11)
C3 C 0.4363(5) -0.069(2) 0.3126(11)
H1 H 0.46490 -0.17550 0.36420
C4 C 0.3668(6) -0.079(2) 0.3053(12)
H2 H 0.34980 -0.19170 0.34980
C5 C 0.3264(5) 0.075(2) 0.2348(11)
H3 H 0.28070 0.06610 0.23030
C6 C 0.3489(5) 0.255(2) 0.1647(11)
C7 C 0.3077(6) 0.424(2) 0.0906(12)
H4 H 0.26220 0.42340 0.08770
C8 C 0.3305(5) 0.585(2) 0.0249(12)
H5 H 0.30100 0.69050 -0.02480
C9 C 0.4000(6) 0.596(2) 0.0300(12)
H6 H 0.41660 0.71260 -0.01210
C10 C 0.4422(5) 0.434(2) 0.0970(11)
H7 H 0.48680 0.43540 0.09310
C1A C 0.5793(5) 0.263(2) 0.3279(11)
C2A C 0.5370(5) 0.093(2) 0.2544(11)
C3A C 0.5637(5) -0.069(2) 0.1874(11)
H1A H 0.53510 -0.17550 0.13580
C4A C 0.6332(6) -0.079(2) 0.1947(12)
H2A H 0.65020 -0.19170 0.15020
C5A C 0.6736(5) 0.075(2) 0.2652(11)
H3A H 0.71930 0.06610 0.26970
C6A C 0.6511(5) 0.255(2) 0.3353(11)
C7A C 0.6923(6) 0.424(2) 0.4094(12)
H4A H 0.73780 0.42340 0.41230
C8A C 0.6695(5) 0.585(2) 0.4751(12)
H5A H 0.69900 0.69050 0.52480
C9A C 0.6000(6) 0.596(2) 0.4700(12)
H6A H 0.58340 0.71260 0.51210
C10A C 0.5578(5) 0.434(2) 0.4030(11)
H7A H 0.51320 0.43540 0.40690
loop_
_geom_bond_atom_site_label_1
_geom_bond_atom_site_label_2
_geom_bond_distance
_geom_bond_site_symmetry_1
_geom_bond_site_symmetry_2
C1 C2 1.419 1_555 1_555
C2 C3 1.376 1_555 1_555
C3 H1 0.930 1_555 1_555
C4 C3 1.415 1_555 1_555
H2 C4 0.929 1_555 1_555
C5 C4 1.320 1_555 1_555
H3 C5 0.932 1_555 1_555
C6 C1 1.461 1_555 1_555
C7 C6 1.406 1_555 1_555
H4 C7 0.929 1_555 1_555
C8 C7 1.324 1_555 1_555
H5 C8 0.928 1_555 1_555
C9 C8 1.420 1_555 1_555
H6 C9 0.929 1_555 1_555
C10 C1 1.411 1_555 1_555
H7 C10 0.929 1_555 1_555
C1A C2A 1.419 1_555 1_555
C2A C2 1.503 1_555 1_555
C3A C2A 1.376 1_555 1_555
H1A C3A 0.930 1_555 1_555
C4A C3A 1.415 1_555 1_555
H2A C4A 0.929 1_555 1_555
C5A C4A 1.320 1_555 1_555
H3A C5A 0.932 1_555 1_555
C6A C1A 1.461 1_555 1_555
C7A C6A 1.406 1_555 1_555
H4A C7A 0.929 1_555 1_555
C8A C7A 1.324 1_555 1_555
H5A C8A 0.928 1_555 1_555
C9A C8A 1.420 1_555 1_555
H6A C9A 0.929 1_555 1_555
C10A C1A 1.411 1_555 1_555
H7A C10A 0.929 1_555 1_555
C5 C6 1.432 1_555 1_555
C9 C10 1.361 1_555 1_555
C5A C6A 1.432 1_555 1_555
C9A C10A 1.361 1_555 1_555
#END
