
#######################################################################
#
#                 Cambridge Crystallographic Data Centre
#                                CCDC
#
#######################################################################
#
# If this CIF has been generated from an entry in the Cambridge
# Structural Database, then it will include bibliographic, chemical,
# crystal, experimental, refinement or atomic coordinate data resulting
# from the CCDC's data processing and validation procedures.
#
#######################################################################

data_CSD_CIF_BINAPH24
_audit_creation_date 2018-02-06
_audit_creation_method CSD-ConQuest-V1
_database_code_CSD BINAPH24
_database_code_depnum_ccdc_archive 'CCDC 1531197'
_chemical_formula_sum 'C20 H14'
_chemical_formula_moiety
;
C20 H14
;
_journal_coden_Cambridge 1326
_journal_volume 20
_journal_year 2018
_journal_page_first 5305
_journal_name_full 'Phys.Chem.Chem.Phys.(PCCP) '
loop_
_publ_author_name
"Kinga Roszak"
"A.Katrusiak"
_chemical_name_systematic
;
(+-)-1,1'-binaphthalene
;
_chemical_name_common
;
(+-)-1,1'-binaphthyl
;
_cell_volume   1105.888
_exptl_crystal_colour 'colorless'
_exptl_crystal_density_diffrn 1.527
_exptl_crystal_description 'plate'
_diffrn_ambient_temperature 296
_diffrn_ambient_pressure 2970000.0
#These two values have been output from a single CSD field.
_refine_ls_R_factor_gt 0.0857
_refine_ls_wR_factor_gt 0.0857
loop_
_citation_database_id_CSD
_citation_special_details
BNPHTA "is a stereoisomer of this entry"
_symmetry_cell_setting monoclinic
_symmetry_space_group_name_H-M 'C 2/c'
_symmetry_Int_Tables_number 15
loop_
_symmetry_equiv_pos_site_id
_symmetry_equiv_pos_as_xyz
1 x,y,z
2 -x,y,1/2-z
3 1/2+x,1/2+y,z
4 1/2-x,1/2+y,1/2-z
5 -x,-y,-z
6 x,-y,-1/2+z
7 -1/2-x,-1/2-y,-z
8 -1/2+x,-1/2-y,-1/2+z
_cell_length_a 20.32(1)
_cell_length_b 5.888(2)
_cell_length_c 9.592(7)
_cell_angle_alpha 90
_cell_angle_beta 105.50(2)
_cell_angle_gamma 90
_cell_formula_units_Z 4
loop_
_atom_type_symbol
_atom_type_radius_bond
C 0.68
H 0.23
loop_
_atom_site_label
_atom_site_type_symbol
_atom_site_fract_x
_atom_site_fract_y
_atom_site_fract_z
C1 C 0.4168(10) 0.2566(10) 0.1688(9)
C2 C 0.4602(10) 0.0886(14) 0.2436(12)
C3 C 0.4344(10) -0.0849(11) 0.3121(9)
H1 H 0.46350 -0.19730 0.36210
C4 C 0.3653(10) -0.0903(11) 0.3058(8)
H2 H 0.34810 -0.20630 0.35160
C5 C 0.322(1) 0.0777(16) 0.2310(11)
H3 H 0.27570 0.07410 0.22680
C6 C 0.3477(10) 0.2512(12) 0.1625(8)
C7 C 0.2985(19) 0.426(2) 0.0881(14)
H4 H 0.25250 0.42220 0.08580
C8 C 0.328(2) 0.599(2) 0.020(2)
H5 H 0.30000 0.71530 -0.02840
C9 C 0.399(2) 0.596(2) 0.0257(18)
H6 H 0.41940 0.70630 -0.01910
C10 C 0.4320(18) 0.4351(17) 0.0953(13)
H7 H 0.47800 0.43900 0.09690
C1A C 0.5832(10) 0.2566(10) 0.3312(9)
C2A C 0.5398(10) 0.0886(14) 0.2564(12)
C3A C 0.5656(10) -0.0849(11) 0.1879(9)
H1A H 0.53650 -0.19730 0.13790
C4A C 0.6347(10) -0.0903(11) 0.1942(8)
H2A H 0.65190 -0.20630 0.14840
C5A C 0.678(1) 0.0777(16) 0.2690(11)
H3A H 0.72430 0.07410 0.27320
C6A C 0.6523(10) 0.2512(12) 0.3375(8)
C7A C 0.7015(19) 0.426(2) 0.4119(14)
H4A H 0.74750 0.42220 0.41420
C8A C 0.672(2) 0.599(2) 0.480(2)
H5A H 0.70000 0.71530 0.52840
C9A C 0.601(2) 0.596(2) 0.4743(18)
H6A H 0.58060 0.70630 0.51910
C10A C 0.5680(18) 0.4351(17) 0.4047(13)
H7A H 0.52200 0.43900 0.40310
loop_
_geom_bond_atom_site_label_1
_geom_bond_atom_site_label_2
_geom_bond_distance
_geom_bond_site_symmetry_1
_geom_bond_site_symmetry_2
C1 C2 1.390 1_555 1_555
C2 C3 1.391 1_555 1_555
C3 H1 0.931 1_555 1_555
C4 C3 1.390 1_555 1_555
H2 C4 0.929 1_555 1_555
C5 C4 1.389 1_555 1_555
H3 C5 0.931 1_555 1_555
C6 C1 1.390 1_555 1_555
C7 C6 1.479 1_555 1_555
H4 C7 0.929 1_555 1_555
C8 C7 1.426 1_555 1_555
H5 C8 0.931 1_555 1_555
C9 C8 1.429 1_555 1_555
H6 C9 0.935 1_555 1_555
C10 C1 1.347 1_555 1_555
H7 C10 0.931 1_555 1_555
C1A C2A 1.390 1_555 1_555
C2A C2 1.589 1_555 1_555
C3A C2A 1.391 1_555 1_555
H1A C3A 0.931 1_555 1_555
C4A C3A 1.390 1_555 1_555
H2A C4A 0.929 1_555 1_555
C5A C4A 1.389 1_555 1_555
H3A C5A 0.931 1_555 1_555
C6A C1A 1.390 1_555 1_555
C7A C6A 1.479 1_555 1_555
H4A C7A 0.929 1_555 1_555
C8A C7A 1.426 1_555 1_555
H5A C8A 0.931 1_555 1_555
C9A C8A 1.429 1_555 1_555
H6A C9A 0.935 1_555 1_555
C10A C1A 1.347 1_555 1_555
H7A C10A 0.931 1_555 1_555
C5 C6 1.390 1_555 1_555
C9 C10 1.246 1_555 1_555
C5A C6A 1.390 1_555 1_555
C9A C10A 1.246 1_555 1_555
#END
