
#######################################################################
#
#                 Cambridge Crystallographic Data Centre
#                                CCDC
#
#######################################################################
#
# If this CIF has been generated from an entry in the Cambridge
# Structural Database, then it will include bibliographic, chemical,
# crystal, experimental, refinement or atomic coordinate data resulting
# from the CCDC's data processing and validation procedures.
#
#######################################################################

data_CSD_CIF_BIPHEC
_audit_creation_date 1981-11-16
_audit_creation_method CSD-ConQuest-V1
_database_code_CSD BIPHEC
_chemical_formula_sum 'C32 H18'
_chemical_formula_moiety
;
C32 H18
;
_journal_coeditor_code "IUCr A20139"
_journal_coden_Cambridge 107
_journal_volume 37
_journal_year 1981
_journal_page_first 1218
_journal_name_full 'Acta Crystallogr.,Sect.B:Struct.Crystallogr.Cryst.Chem. '
loop_
_publ_author_name
"M.van Meerssche"
"G.Germain"
"J.P.Declercq"
"B.Soubrier-Payen"
"H.P.Figeys"
"P.Vanommeslaeghe"
_chemical_name_systematic
;
Biphenyleno(2,3-c)pentahelicene
;
_cell_volume   2061.301
_exptl_crystal_density_diffrn 1.3
_diffrn_ambient_temperature ?
_diffrn_special_details
;
The study was carried out at room temperature,in the range 283-303K

;
#These two values have been output from a single CSD field.
_refine_ls_R_factor_gt 0.061
_refine_ls_wR_factor_gt 0.061
_symmetry_cell_setting monoclinic
_symmetry_space_group_name_H-M 'P 21/n'
_symmetry_Int_Tables_number 14
loop_
_symmetry_equiv_pos_site_id
_symmetry_equiv_pos_as_xyz
1 x,y,z
2 1/2-x,1/2+y,1/2-z
3 -x,-y,-z
4 -1/2+x,-1/2-y,-1/2+z
_cell_length_a 17.580(5)
_cell_length_b 7.972(3)
_cell_length_c 14.719(4)
_cell_angle_alpha 90
_cell_angle_beta 92.21(2)
_cell_angle_gamma 90
_cell_formula_units_Z 4
loop_
_atom_type_symbol
_atom_type_radius_bond
C 0.68
loop_
_atom_site_label
_atom_site_type_symbol
_atom_site_fract_x
_atom_site_fract_y
_atom_site_fract_z
C1 C 0.05560 0.83830 0.56260
C2 C 0.01750 0.82380 0.64660
C3 C 0.01620 0.66980 0.69620
C4 C 0.04920 0.52230 0.65810
C5 C 0.15490 0.31350 0.46860
C6 C 0.18960 0.32950 0.38270
C7 C 0.19260 0.47890 0.33890
C8 C 0.16230 0.62620 0.37410
C9 C 0.12840 0.61270 0.45620
C10 C 0.08650 0.69780 0.53000
C11 C 0.08290 0.54050 0.57760
C12 C 0.12490 0.45780 0.50190
C13 C -0.02410 0.96380 0.67790
C14 C -0.07040 0.95030 0.74860
C15 C -0.07540 0.79900 0.79900
C16 C -0.02420 0.66340 0.78040
C17 C -0.13260 0.77010 0.86730
C18 C -0.14030 0.61830 0.90470
C19 C -0.08830 0.48720 0.89300
C20 C -0.02210 0.52130 0.84140
C21 C -0.09720 0.32480 0.93160
C22 C -0.04610 0.20840 0.92380
C23 C 0.02560 0.24500 0.88960
C24 C 0.04070 0.40860 0.85550
C25 C 0.08390 0.12200 0.89240
C26 C 0.15430 0.15760 0.87370
C27 C 0.17690 0.32620 0.85600
C28 C 0.11950 0.45430 0.84750
C29 C 0.25330 0.37430 0.85060
C30 C 0.27590 0.53460 0.84220
C31 C 0.22060 0.66080 0.83960
C32 C 0.14450 0.62100 0.84240
loop_
_geom_bond_atom_site_label_1
_geom_bond_atom_site_label_2
_geom_bond_distance
_geom_bond_site_symmetry_1
_geom_bond_site_symmetry_2
C1 C2 1.433 1_555 1_555
C2 C3 1.429 1_555 1_555
C3 C4 1.435 1_555 1_555
C4 C11 1.353 1_555 1_555
C5 C6 1.431 1_555 1_555
C6 C7 1.356 1_555 1_555
C7 C8 1.397 1_555 1_555
C8 C9 1.372 1_555 1_555
C9 C10 1.498 1_555 1_555
C10 C1 1.342 1_555 1_555
C11 C10 1.439 1_555 1_555
C12 C5 1.364 1_555 1_555
C13 C2 1.421 1_555 1_555
C14 C13 1.350 1_555 1_555
C15 C14 1.421 1_555 1_555
C16 C3 1.453 1_555 1_555
C17 C15 1.467 1_555 1_555
C18 C17 1.338 1_555 1_555
C19 C18 1.403 1_555 1_555
C20 C16 1.445 1_555 1_555
C21 C19 1.425 1_555 1_555
C22 C21 1.300 1_555 1_555
C23 C22 1.406 1_555 1_555
C24 C20 1.432 1_555 1_555
C25 C23 1.418 1_555 1_555
C26 C25 1.309 1_555 1_555
C27 C26 1.428 1_555 1_555
C28 C24 1.442 1_555 1_555
C29 C27 1.402 1_555 1_555
C30 C29 1.345 1_555 1_555
C31 C30 1.399 1_555 1_555
C32 C28 1.403 1_555 1_555
C9 C12 1.409 1_555 1_555
C11 C12 1.512 1_555 1_555
C15 C16 1.440 1_555 1_555
C19 C20 1.440 1_555 1_555
C23 C24 1.426 1_555 1_555
C27 C28 1.438 1_555 1_555
C31 C32 1.377 1_555 1_555
#END
