
#######################################################################
#
#                 Cambridge Crystallographic Data Centre
#                                CCDC
#
#######################################################################
#
# If this CIF has been generated from an entry in the Cambridge
# Structural Database, then it will include bibliographic, chemical,
# crystal, experimental, refinement or atomic coordinate data resulting
# from the CCDC's data processing and validation procedures.
#
#######################################################################

data_CSD_CIF_BNPYRE12
_audit_creation_date 2018-03-16
_audit_creation_method CSD-ConQuest-V1
_database_code_CSD BNPYRE12
_database_code_depnum_ccdc_archive 'CCDC 1830498'
_chemical_formula_sum 'C20 H12'
_chemical_formula_moiety
;
C20 H12
;
_journal_coden_Cambridge 557
_journal_volume 18
_journal_year 1997
_journal_page_first 415
_journal_name_full 'Carcinogenesis '
loop_
_publ_author_name
"C.J.Carrell"
"T.G.Carrell"
"H.L.Carrell"
"K.Prout"
"J.P.Glusker"
_chemical_name_systematic
;
benzo[pqr]tetraphene
;
_cell_volume   1211.032
_exptl_special_details
;
monoclinic polymorph

;
_diffrn_ambient_temperature 120
_symmetry_cell_setting monoclinic
_symmetry_space_group_name_H-M 'P 21/c'
_symmetry_Int_Tables_number 14
loop_
_symmetry_equiv_pos_site_id
_symmetry_equiv_pos_as_xyz
1 x,y,z
2 -x,1/2+y,1/2-z
3 -x,-y,-z
4 x,-1/2-y,-1/2+z
_cell_length_a 4.489(1)
_cell_length_b 20.309(6)
_cell_length_c 13.372(5)
_cell_angle_alpha 90
_cell_angle_beta 96.59(2)
_cell_angle_gamma 90
_cell_formula_units_Z 4
loop_
_atom_type_symbol
_atom_type_radius_bond
C 0.68
H 0.23
loop_
_atom_site_label
_atom_site_type_symbol
_atom_site_fract_x
_atom_site_fract_y
_atom_site_fract_z
C1 C -0.3806(6) -0.2199(2) 0.1215(2)
C2 C -0.4480(7) -0.2628(1) 0.1948(2)
C3 C -0.3090(7) -0.2577(1) 0.2929(2)
C4 C 0.0493(6) -0.2019(1) 0.4199(2)
C5 C 0.2512(6) -0.1544(2) 0.4433(2)
C6 C 0.5333(6) -0.0575(1) 0.3948(2)
C7 C 0.8186(6) 0.0392(1) 0.3501(2)
C8 C 0.8912(7) 0.0844(1) 0.2812(2)
C9 C 0.7503(6) 0.0812(1) 0.1811(2)
C10 C 0.5444(6) 0.0329(1) 0.1528(2)
C11 C 0.1083(6) -0.0757(1) 0.0948(2)
C12 C -0.0926(7) -0.1239(1) 0.0705(2)
C13 C -0.0994(6) -0.2088(1) 0.3197(2)
C14 C -0.1708(6) -0.1696(1) 0.1447(2)
C15 C -0.0275(6) -0.1636(1) 0.2440(2)
C16 C 0.1855(6) -0.1118(1) 0.2690(2)
C17 C 0.3299(6) -0.1068(1) 0.3711(2)
C18 C 0.2557(6) -0.0672(1) 0.1944(2)
C19 C 0.4699(6) -0.0153(1) 0.2224(2)
C20 C 0.6079(6) -0.0117(1) 0.3225(2)
H1 H -0.478(5) -0.224(1) 0.050(2)
H2 H -0.602(5) -0.298(1) 0.176(2)
H3 H -0.362(5) -0.290(1) 0.345(2)
H4 H -0.001(6) -0.234(1) 0.474(2)
H5 H 0.358(6) -0.151(1) 0.514(2)
H6 H 0.635(6) -0.053(1) 0.466(2)
H7 H 0.915(6) 0.041(1) 0.422(2)
H8 H 1.048(6) 0.120(1) 0.302(2)
H9 H 0.800(6) 0.114(1) 0.130(2)
H10 H 0.439(5) 0.032(1) 0.080(2)
H11 H 0.158(6) -0.043(1) 0.041(2)
H12 H -0.190(6) -0.128(1) -0.002(2)
loop_
_geom_bond_atom_site_label_1
_geom_bond_atom_site_label_2
_geom_bond_distance
_geom_bond_site_symmetry_1
_geom_bond_site_symmetry_2
C1 C2 1.371 1_555 1_555
C2 C3 1.390 1_555 1_555
C3 C13 1.387 1_555 1_555
C4 C5 1.336 1_555 1_555
C5 C17 1.439 1_555 1_555
C6 C17 1.368 1_555 1_555
C7 C8 1.366 1_555 1_555
C8 C9 1.415 1_555 1_555
C9 C10 1.371 1_555 1_555
C10 C19 1.417 1_555 1_555
C11 C12 1.345 1_555 1_555
C12 C14 1.431 1_555 1_555
C13 C4 1.434 1_555 1_555
C14 C1 1.400 1_555 1_555
C15 C13 1.431 1_555 1_555
C16 C15 1.435 1_555 1_555
C17 C16 1.446 1_555 1_555
C18 C11 1.428 1_555 1_555
C19 C18 1.447 1_555 1_555
C20 C6 1.409 1_555 1_555
H1 C1 1.008 1_555 1_555
H2 C2 1.006 1_555 1_555
H3 C3 1.005 1_555 1_555
H4 C4 1.018 1_555 1_555
H5 C5 1.012 1_555 1_555
H6 C6 1.012 1_555 1_555
H7 C7 1.009 1_555 1_555
H8 C8 1.025 1_555 1_555
H9 C9 0.998 1_555 1_555
H10 C10 1.033 1_555 1_555
H11 C11 1.022 1_555 1_555
H12 C12 1.020 1_555 1_555
C7 C20 1.421 1_555 1_555
C14 C15 1.413 1_555 1_555
C16 C18 1.410 1_555 1_555
C19 C20 1.411 1_555 1_555
#END
