
#######################################################################
#
#                 Cambridge Crystallographic Data Centre
#                                CCDC
#
#######################################################################
#
# If this CIF has been generated from an entry in the Cambridge
# Structural Database, then it will include bibliographic, chemical,
# crystal, experimental, refinement or atomic coordinate data resulting
# from the CCDC's data processing and validation procedures.
#
#######################################################################

data_CSD_CIF_BOBNAJ
_audit_creation_date 2014-05-09
_audit_creation_method CSD-ConQuest-V1
_database_code_CSD BOBNAJ
_database_code_depnum_ccdc_archive 'CCDC 924100'
_chemical_formula_sum 'C26 H18'
_chemical_formula_moiety
;
C26 H18
;
_journal_coden_Cambridge 4
_journal_volume 135
_journal_year 2013
_journal_page_first 18815
_journal_name_full 'J.Am.Chem.Soc. '
loop_
_publ_author_name
"J.Carreras"
"G.Gopakumar"
"Liangu Gu"
"Ana Gimeno"
"P.Linowski"
"J.Petuskova"
"W.Thiel"
"M.Alcarazo"
_chemical_name_systematic
;
4,5-diphenylphenanthrene
;
_cell_volume   1728.927
_exptl_crystal_colour 'colorless'
_exptl_crystal_density_diffrn 1.269
_exptl_crystal_description 'prism'
_exptl_crystal_preparation 'dichloromethane/pentane'
_diffrn_ambient_temperature 100
#These two values have been output from a single CSD field.
_refine_ls_R_factor_gt 0.046
_refine_ls_wR_factor_gt 0.046
_symmetry_cell_setting monoclinic
_symmetry_space_group_name_H-M 'P 21/n'
_symmetry_Int_Tables_number 14
loop_
_symmetry_equiv_pos_site_id
_symmetry_equiv_pos_as_xyz
1 x,y,z
2 1/2-x,1/2+y,1/2-z
3 -x,-y,-z
4 -1/2+x,-1/2-y,-1/2+z
_cell_length_a 8.9259(3)
_cell_length_b 12.5274(11)
_cell_length_c 16.0569(10)
_cell_angle_alpha 90
_cell_angle_beta 105.646(5)
_cell_angle_gamma 90
_cell_formula_units_Z 4
loop_
_atom_type_symbol
_atom_type_radius_bond
C 0.68
H 0.23
loop_
_atom_site_label
_atom_site_type_symbol
_atom_site_fract_x
_atom_site_fract_y
_atom_site_fract_z
C1 C 0.43836(10) 0.76665(7) 0.22386(6)
C2 C 0.49453(10) 0.86692(7) 0.20170(6)
C3 C 0.52078(10) 0.96216(7) 0.25651(5)
C4 C 0.44061(10) 0.98633(7) 0.32029(5)
C5 C 0.49339(11) 1.07103(7) 0.37694(6)
H1 H 0.44360 1.08480 0.42120
C6 C 0.61719(12) 1.13644(7) 0.37088(6)
H2 H 0.65760 1.18890 0.41380
C7 C 0.67938(11) 1.12367(7) 0.30203(6)
H3 H 0.75680 1.17180 0.29430
C8 C 0.62885(10) 1.03958(7) 0.24284(6)
C9 C 0.67966(11) 1.03639(8) 0.16521(6)
H4 H 0.75270 1.08750 0.15670
C10 C 0.62454(11) 0.96142(8) 0.10432(6)
H5 H 0.64550 0.96710 0.04950
C11 C 0.53444(11) 0.87299(7) 0.12148(6)
C12 C 0.49465(11) 0.78970(8) 0.06029(6)
H6 H 0.51550 0.79700 0.00560
C13 C 0.42580(11) 0.69806(8) 0.07943(6)
H7 H 0.39360 0.64370 0.03720
C14 C 0.40387(11) 0.68599(7) 0.16198(6)
H8 H 0.36390 0.62030 0.17630
C15 C 0.42887(10) 0.73466(7) 0.31188(5)
C16 C 0.55448(11) 0.74801(7) 0.38508(6)
H9 H 0.64340 0.78680 0.38070
C17 C 0.55036(12) 0.70481(8) 0.46451(6)
H10 H 0.63670 0.71390 0.51370
C18 C 0.42010(13) 0.64832(8) 0.47199(6)
H11 H 0.41800 0.61810 0.52590
C19 C 0.29333(12) 0.63648(7) 0.40018(6)
H12 H 0.20350 0.59930 0.40530
C20 C 0.29757(11) 0.67896(7) 0.32079(6)
H13 H 0.21050 0.67010 0.27200
C21 C 0.28863(10) 0.93849(7) 0.32155(5)
C22 C 0.25222(11) 0.92284(7) 0.40024(6)
H14 H 0.32990 0.93400 0.45300
C23 C 0.10393(13) 0.89115(8) 0.40208(7)
H15 H 0.08080 0.88150 0.45600
C24 C -0.01057(12) 0.87356(9) 0.32538(8)
H16 H -0.11190 0.85180 0.32660
C25 C 0.02425(11) 0.88806(8) 0.24675(7)
H17 H -0.05350 0.87560 0.19420
C26 C 0.17219(10) 0.92071(7) 0.24466(6)
H18 H 0.19440 0.93100 0.19060
loop_
_geom_bond_atom_site_label_1
_geom_bond_atom_site_label_2
_geom_bond_distance
_geom_bond_site_symmetry_1
_geom_bond_site_symmetry_2
C1 C2 1.432 1_555 1_555
C2 C3 1.463 1_555 1_555
C3 C4 1.431 1_555 1_555
C4 C5 1.394 1_555 1_555
C5 H1 0.950 1_555 1_555
C6 C5 1.400 1_555 1_555
H2 C6 0.950 1_555 1_555
C7 C6 1.374 1_555 1_555
H3 C7 0.950 1_555 1_555
C8 C3 1.426 1_555 1_555
C9 C8 1.437 1_555 1_555
H4 C9 0.950 1_555 1_555
C10 C9 1.349 1_555 1_555
H5 C10 0.951 1_555 1_555
C11 C2 1.428 1_555 1_555
C12 C11 1.411 1_555 1_555
H6 C12 0.950 1_555 1_555
C13 C12 1.375 1_555 1_555
H7 C13 0.949 1_555 1_555
C14 C1 1.392 1_555 1_555
H8 C14 0.950 1_555 1_555
C15 C1 1.493 1_555 1_555
C16 C15 1.398 1_555 1_555
H9 C16 0.949 1_555 1_555
C17 C16 1.395 1_555 1_555
H10 C17 0.950 1_555 1_555
C18 C17 1.394 1_555 1_555
H11 C18 0.950 1_555 1_555
C19 C18 1.389 1_555 1_555
H12 C19 0.950 1_555 1_555
C20 C15 1.404 1_555 1_555
H13 C20 0.950 1_555 1_555
C21 C4 1.488 1_555 1_555
C22 C21 1.401 1_555 1_555
H14 C22 0.949 1_555 1_555
C23 C22 1.390 1_555 1_555
H15 C23 0.950 1_555 1_555
C24 C23 1.390 1_555 1_555
H16 C24 0.950 1_555 1_555
C25 C24 1.391 1_555 1_555
H17 C25 0.950 1_555 1_555
C26 C21 1.401 1_555 1_555
H18 C26 0.950 1_555 1_555
C7 C8 1.409 1_555 1_555
C10 C11 1.439 1_555 1_555
C13 C14 1.399 1_555 1_555
C19 C20 1.391 1_555 1_555
C25 C26 1.391 1_555 1_555
#END
