
#######################################################################
#
#                 Cambridge Crystallographic Data Centre
#                                CCDC
#
#######################################################################
#
# If this CIF has been generated from an entry in the Cambridge
# Structural Database, then it will include bibliographic, chemical,
# crystal, experimental, refinement or atomic coordinate data resulting
# from the CCDC's data processing and validation procedures.
#
#######################################################################

data_CSD_CIF_BONJOD
_audit_creation_date 1983-09-01
_audit_creation_method CSD-ConQuest-V1
_database_code_CSD BONJOD
_database_code_depnum_ccdc_archive 'CCDC 1113793'
_chemical_formula_sum 'C24 H18'
_chemical_formula_moiety
;
C24 H18
;
_journal_coden_Cambridge 48
_journal_volume 116
_journal_year 1983
_journal_page_first 536
_journal_name_full 'Chem.Ber. '
loop_
_publ_author_name
"H.Irngartinger"
"A.Goldmann"
_chemical_name_systematic
;
(2.0.0)(1,4)Benzeno(1,8)naphthaleno(1,4)benzenophane
;
_cell_volume   1610.815
_exptl_crystal_density_diffrn 1.26
_diffrn_ambient_temperature ?
_diffrn_special_details
;
The study was carried out at room temperature,in the range 283-303K

;
#These two values have been output from a single CSD field.
_refine_ls_R_factor_gt 0.039
_refine_ls_wR_factor_gt 0.039
_symmetry_cell_setting orthorhombic
_symmetry_space_group_name_H-M 'P 21 21 21'
_symmetry_Int_Tables_number 19
loop_
_symmetry_equiv_pos_site_id
_symmetry_equiv_pos_as_xyz
1 x,y,z
2 1/2+x,1/2-y,-z
3 -x,1/2+y,1/2-z
4 1/2-x,-y,1/2+z
_cell_length_a 25.818(3)
_cell_length_b 8.499(1)
_cell_length_c 7.341(1)
_cell_angle_alpha 90
_cell_angle_beta 90
_cell_angle_gamma 90
_cell_formula_units_Z 4
loop_
_atom_type_symbol
_atom_type_radius_bond
C 0.68
H 0.23
loop_
_atom_site_label
_atom_site_type_symbol
_atom_site_fract_x
_atom_site_fract_y
_atom_site_fract_z
C1 C 0.30700 0.59570 0.71110
C2 C 0.34500 0.68590 0.64100
C3 C 0.37610 0.62600 0.50070
C4 C 0.36980 0.47750 0.43150
C5 C 0.32840 0.37970 0.49930
C6 C 0.31430 0.22440 0.43530
C7 C 0.27440 0.14450 0.51730
C8 C 0.24470 0.20880 0.65690
C9 C 0.25580 0.35520 0.71720
C10 C 0.29740 0.44310 0.64360
C11 C 0.40790 0.42580 0.28990
C12 C 0.40740 0.48600 0.11460
C13 C 0.43600 0.41500 -0.02250
C14 C 0.46600 0.28300 0.01220
C15 C 0.47360 0.24320 0.19300
C16 C 0.44460 0.31210 0.32880
C17 C 0.33900 0.14620 0.27490
C18 C 0.32890 0.19950 0.10080
C19 C 0.35730 0.14540 -0.04470
C20 C 0.39710 0.03880 -0.02110
C21 C 0.40090 -0.03240 0.14610
C22 C 0.37210 0.01930 0.29260
C23 C 0.48070 0.16660 -0.13350
C24 C 0.44040 0.03310 -0.15940
H1 H 0.28700 0.62900 0.81400
H2 H 0.35400 0.79100 0.67900
H3 H 0.40500 0.68700 0.44500
H4 H 0.26300 0.04400 0.46300
H5 H 0.21600 0.15100 0.70900
H6 H 0.23700 0.39900 0.81000
H7 H 0.38200 0.56600 0.08500
H8 H 0.43300 0.44900 -0.14500
H9 H 0.49800 0.15600 0.23200
H10 H 0.44600 0.27500 0.45300
H11 H 0.30500 0.28600 0.08700
H12 H 0.35000 0.18500 -0.17000
H13 H 0.42800 -0.11100 0.16900
H14 H 0.37600 -0.02200 0.41500
H15 H 0.48700 0.21900 -0.25800
H16 H 0.51400 0.11600 -0.10000
H17 H 0.43000 0.02600 -0.30100
H18 H 0.46500 -0.07500 -0.18400
loop_
_geom_bond_atom_site_label_1
_geom_bond_atom_site_label_2
_geom_bond_distance
_geom_bond_site_symmetry_1
_geom_bond_site_symmetry_2
C1 C2 1.347 1_555 1_555
C2 C3 1.402 1_555 1_555
C3 C4 1.370 1_555 1_555
C4 C5 1.443 1_555 1_555
C5 C6 1.448 1_555 1_555
C6 C7 1.373 1_555 1_555
C7 C8 1.392 1_555 1_555
C8 C9 1.351 1_555 1_555
C9 C10 1.415 1_555 1_555
C10 C1 1.410 1_555 1_555
C11 C4 1.497 1_555 1_555
C12 C11 1.385 1_555 1_555
C13 C12 1.386 1_555 1_555
C14 C13 1.387 1_555 1_555
C15 C14 1.384 1_555 1_555
C16 C11 1.383 1_555 1_555
C17 C6 1.495 1_555 1_555
C18 C17 1.381 1_555 1_555
C19 C18 1.375 1_555 1_555
C20 C19 1.381 1_555 1_555
C21 C20 1.372 1_555 1_555
C22 C17 1.382 1_555 1_555
C23 C14 1.506 1_555 1_555
C24 C20 1.511 1_555 1_555
H1 C1 0.958 1_555 1_555
H2 C2 0.964 1_555 1_555
H3 C3 0.996 1_555 1_555
H4 C7 0.987 1_555 1_555
H5 C8 0.968 1_555 1_555
H6 C9 0.916 1_555 1_555
H7 C12 0.969 1_555 1_555
H8 C13 0.948 1_555 1_555
H9 C15 1.014 1_555 1_555
H10 C16 0.965 1_555 1_555
H11 C18 0.965 1_555 1_555
H12 C19 0.997 1_555 1_555
H13 C21 0.982 1_555 1_555
H14 C22 0.970 1_555 1_555
H15 C23 1.030 1_555 1_555
H16 C23 0.992 1_555 1_555
H17 C24 1.075 1_555 1_555
H18 C24 1.131 1_555 1_555
C5 C10 1.433 1_555 1_555
C15 C16 1.377 1_555 1_555
C21 C22 1.379 1_555 1_555
C23 C24 1.551 1_555 1_555
#END
