
#######################################################################
#
#                 Cambridge Crystallographic Data Centre
#                                CCDC
#
#######################################################################
#
# If this CIF has been generated from an entry in the Cambridge
# Structural Database, then it will include bibliographic, chemical,
# crystal, experimental, refinement or atomic coordinate data resulting
# from the CCDC's data processing and validation procedures.
#
#######################################################################

data_CSD_CIF_BZPHAN01
_audit_creation_date 2001-05-08
_audit_creation_method CSD-ConQuest-V1
_database_code_CSD BZPHAN01
_database_code_depnum_ccdc_archive 'CCDC 158680'
_chemical_formula_sum 'C18 H12'
_chemical_formula_moiety
;
C18 H12
;
_journal_coden_Cambridge 4
_journal_volume 122
_journal_year 2000
_journal_page_first 12629
_journal_name_full 'J.Am.Chem.Soc. '
loop_
_publ_author_name
"M.K.Lakshman"
"P.L.Kole"
"S.Chaturvedi"
"J.H.Saugier"
"H.J.C.Yeh"
"J.P.Glusker"
"H.L.Carrell"
"A.K.Katz"
"C.E.Afshar"
"W.-M.Dashwood"
"G.Kenniston"
"W.M.Baird"
_chemical_name_systematic
;
Benzo(c)phenanthrene
;
_cell_volume   1163.699
_exptl_crystal_colour 'colorless'
_exptl_crystal_description 'lath'
_diffrn_ambient_temperature 120
#These two values have been output from a single CSD field.
_refine_ls_R_factor_gt 0.048
_refine_ls_wR_factor_gt 0.048
_symmetry_cell_setting orthorhombic
_symmetry_space_group_name_H-M 'P 21 21 21'
_symmetry_Int_Tables_number 19
loop_
_symmetry_equiv_pos_site_id
_symmetry_equiv_pos_as_xyz
1 x,y,z
2 1/2-x,-y,1/2+z
3 1/2+x,1/2-y,-z
4 -x,1/2+y,1/2-z
_cell_length_a 14.451(4)
_cell_length_b 13.884(1)
_cell_length_c 5.800(1)
_cell_angle_alpha 90
_cell_angle_beta 90
_cell_angle_gamma 90
_cell_formula_units_Z 4
loop_
_atom_type_symbol
_atom_type_radius_bond
C 0.68
H 0.23
loop_
_atom_site_label
_atom_site_type_symbol
_atom_site_fract_x
_atom_site_fract_y
_atom_site_fract_z
C1 C 0.3672(2) 0.1389(2) 0.1541(4)
C2 C 0.4126(2) 0.0758(2) 0.0077(5)
C3 C 0.3720(2) 0.0468(2) -0.1990(5)
C4 C 0.2840(2) 0.0761(2) -0.2507(5)
C5 C 0.1387(2) 0.1566(2) -0.1387(5)
C6 C 0.0889(2) 0.2078(2) 0.0148(5)
C7 C 0.0772(2) 0.3080(2) 0.3647(5)
C8 C 0.1152(2) 0.3532(2) 0.5490(5)
C9 C 0.2528(2) 0.4089(2) 0.7574(5)
C10 C 0.3475(2) 0.4191(2) 0.7760(5)
C11 C 0.4044(2) 0.3781(2) 0.6057(6)
C12 C 0.3670(2) 0.3242(2) 0.4329(5)
C13 C 0.2784(2) 0.1759(2) 0.0992(5)
C14 C 0.2346(2) 0.1372(2) -0.0994(5)
C15 C 0.1319(2) 0.2531(2) 0.2069(5)
C16 C 0.2282(2) 0.2444(2) 0.2418(5)
C17 C 0.2709(2) 0.3051(2) 0.4180(5)
C18 C 0.2134(2) 0.3547(2) 0.5772(5)
H1 H 0.399(1) 0.160(1) 0.308(3)
H2 H 0.253(1) 0.053(1) -0.403(3)
H3 H 0.478(1) 0.050(1) 0.052(3)
H4 H 0.408(1) 0.003(1) -0.313(3)
H5 H 0.107(1) 0.131(1) -0.288(3)
H6 H 0.018(1) 0.214(1) -0.007(3)
H7 H 0.006(1) 0.313(1) 0.338(3)
H8 H 0.073(1) 0.387(1) 0.669(3)
H9 H 0.210(1) 0.442(1) 0.878(3)
H10 H 0.376(1) 0.457(1) 0.914(3)
H11 H 0.475(1) 0.389(1) 0.612(3)
H12 H 0.411(1) 0.296(1) 0.307(3)
loop_
_geom_bond_atom_site_label_1
_geom_bond_atom_site_label_2
_geom_bond_distance
_geom_bond_site_symmetry_1
_geom_bond_site_symmetry_2
C1 C2 1.385 1_555 1_555
C2 C3 1.394 1_555 1_555
C3 C4 1.368 1_555 1_555
C4 C14 1.414 1_555 1_555
C5 C6 1.348 1_555 1_555
C6 C15 1.422 1_555 1_555
C7 C8 1.356 1_555 1_555
C8 C18 1.429 1_555 1_555
C9 C10 1.380 1_555 1_555
C10 C11 1.406 1_555 1_555
C11 C12 1.363 1_555 1_555
C12 C17 1.416 1_555 1_555
C13 C1 1.418 1_555 1_555
C14 C5 1.430 1_555 1_555
C15 C7 1.430 1_555 1_555
C16 C13 1.454 1_555 1_555
C17 C16 1.461 1_555 1_555
C18 C9 1.408 1_555 1_555
H1 C1 1.046 1_555 1_555
H2 C4 1.041 1_555 1_555
H3 C2 1.043 1_555 1_555
H4 C3 1.038 1_555 1_555
H5 C5 1.042 1_555 1_555
H6 C6 1.036 1_555 1_555
H7 C7 1.043 1_555 1_555
H8 C8 1.038 1_555 1_555
H9 C9 1.041 1_555 1_555
H10 C10 1.043 1_555 1_555
H11 C11 1.032 1_555 1_555
H12 C12 1.044 1_555 1_555
C13 C14 1.420 1_555 1_555
C15 C16 1.411 1_555 1_555
C17 C18 1.420 1_555 1_555
#END
