
#######################################################################
#
#                 Cambridge Crystallographic Data Centre
#                                CCDC
#
#######################################################################
#
# If this CIF has been generated from an entry in the Cambridge
# Structural Database, then it will include bibliographic, chemical,
# crystal, experimental, refinement or atomic coordinate data resulting
# from the CCDC's data processing and validation procedures.
#
#######################################################################

data_CSD_CIF_BZPHAN
_audit_creation_date 1971-12-31
_audit_creation_method CSD-ConQuest-V1
_database_code_CSD BZPHAN
_database_code_depnum_ccdc_archive 'CCDC 1118394'
_chemical_formula_sum 'C18 H12'
_chemical_formula_moiety
;
C18 H12
;
_journal_coden_Cambridge 2
_journal_year 1963
_journal_page_first 2108
_journal_name_full 'J.Chem.Soc. '
loop_
_publ_author_name
"F.L.Hirshfeld"
"S.Sandler"
"G.M.J.Schmidt"
_chemical_name_systematic
;
Benzo(c)phenanthrene
;
_cell_volume   1200.628
_diffrn_ambient_temperature ?
_diffrn_special_details
;
The study was carried out at room temperature,in the range 283-303K

;
#These two values have been output from a single CSD field.
_refine_ls_R_factor_gt 0.09
_refine_ls_wR_factor_gt 0.09
_symmetry_cell_setting orthorhombic
_symmetry_space_group_name_H-M 'P 21 21 21'
_symmetry_Int_Tables_number 19
loop_
_symmetry_equiv_pos_site_id
_symmetry_equiv_pos_as_xyz
1 x,y,z
2 1/2+x,1/2-y,-z
3 -x,1/2+y,1/2-z
4 1/2-x,-y,1/2+z
_cell_length_a 14.66
_cell_length_b 14.157
_cell_length_c 5.785
_cell_angle_alpha 90
_cell_angle_beta 90
_cell_angle_gamma 90
_cell_formula_units_Z 4
loop_
_atom_type_symbol
_atom_type_radius_bond
C 0.68
H 0.20
loop_
_atom_site_label
_atom_site_type_symbol
_atom_site_fract_x
_atom_site_fract_y
_atom_site_fract_z
C1 C 0.36940 0.14250 0.15100
C2 C 0.13590 0.25070 0.21200
C3 C 0.36870 0.32640 0.41880
C4 C 0.40480 0.38290 0.58980
C5 C 0.34840 0.42220 0.76070
C6 C 0.25650 0.40880 0.74810
C7 C 0.11920 0.34960 0.54730
C8 C 0.08150 0.30430 0.36970
C9 C 0.27300 0.30520 0.41080
C10 C 0.21690 0.35450 0.57480
C11 C 0.41410 0.08140 0.00430
C12 C 0.37270 0.05020 -0.20270
C13 C 0.28380 0.07750 -0.24790
C14 C 0.14070 0.15430 -0.13520
C15 C 0.09260 0.20460 0.02150
C16 C 0.28060 0.17760 0.09770
C17 C 0.23650 0.13680 -0.09800
C18 C 0.23130 0.24440 0.24170
H1 H 0.39300 0.16500 0.26710
H2 H 0.21790 0.44700 0.83630
H3 H 0.06790 0.39540 0.60780
H4 H 0.02300 0.29910 0.34260
H5 H 0.47420 0.05440 0.06890
H6 H 0.42030 0.00050 -0.27390
H7 H 0.25870 0.04730 -0.37940
H8 H 0.09190 0.11720 -0.27160
H9 H 0.03390 0.20780 0.00460
H10 H 0.42210 0.30560 0.29940
H11 H 0.46640 0.40290 0.58250
H12 H 0.37510 0.45960 0.89340
loop_
_geom_bond_atom_site_label_1
_geom_bond_atom_site_label_2
_geom_bond_distance
_geom_bond_site_symmetry_1
_geom_bond_site_symmetry_2
C1 C11 1.378 1_555 1_555
C2 C8 1.430 1_555 1_555
C3 C4 1.378 1_555 1_555
C4 C5 1.404 1_555 1_555
C5 C6 1.362 1_555 1_555
C6 C10 1.390 1_555 1_555
C7 C8 1.331 1_555 1_555
C8 H4 0.875 1_555 1_555
C9 C3 1.435 1_555 1_555
C10 C7 1.443 1_555 1_555
C11 C12 1.413 1_555 1_555
C12 C13 1.384 1_555 1_555
C13 C17 1.392 1_555 1_555
C14 C15 1.351 1_555 1_555
C15 C2 1.429 1_555 1_555
C16 C1 1.427 1_555 1_555
C17 C14 1.442 1_555 1_555
C18 C2 1.412 1_555 1_555
H1 C1 0.820 1_555 1_555
H2 C6 0.934 1_555 1_555
H3 C7 1.053 1_555 1_555
H5 C11 1.031 1_555 1_555
H6 C12 1.073 1_555 1_555
H7 C13 0.947 1_555 1_555
H8 C14 1.188 1_555 1_555
H9 C15 0.867 1_555 1_555
H10 C3 1.085 1_555 1_555
H11 C4 0.947 1_555 1_555
H12 C5 1.011 1_555 1_555
C9 C10 1.437 1_555 1_555
C9 C18 1.439 1_555 1_555
C16 C17 1.426 1_555 1_555
C16 C18 1.453 1_555 1_555
#END
