
#######################################################################
#
#                 Cambridge Crystallographic Data Centre
#                                CCDC
#
#######################################################################
#
# If this CIF has been generated from an entry in the Cambridge
# Structural Database, then it will include bibliographic, chemical,
# crystal, experimental, refinement or atomic coordinate data resulting
# from the CCDC's data processing and validation procedures.
#
#######################################################################

data_CSD_CIF_CAJSAJ
_audit_creation_date 2012-01-16
_audit_creation_method CSD-ConQuest-V1
_database_code_CSD CAJSAJ
_database_code_depnum_ccdc_archive 'CCDC 855120'
_chemical_formula_sum 'C31 H23'
_chemical_formula_moiety
;
C31 H23
;
_journal_coden_Cambridge 4
_journal_volume 133
_journal_year 2011
_journal_page_first 14240
_journal_name_full 'J.Am.Chem.Soc. '
loop_
_publ_author_name
"T.Kubo"
"Y.Katada"
"A.Shimizu"
"Y.Hirao"
"K.Sato"
"T.Takui"
"M.Uruichi"
"K.Yakushi"
"R.C.Haddon"
_chemical_name_systematic
;
15-Butyl-cyclopenta[1,2-a:4,3-a']diphenalene radical
;
_cell_volume   4034.466
_exptl_crystal_colour 'black'
_exptl_crystal_density_diffrn 1.302
_exptl_crystal_description 'block'
_diffrn_ambient_temperature 100
#These two values have been output from a single CSD field.
_refine_ls_R_factor_gt 0.0436
_refine_ls_wR_factor_gt 0.0436
_symmetry_cell_setting monoclinic
_symmetry_space_group_name_H-M 'C 2/c'
_symmetry_Int_Tables_number 15
loop_
_symmetry_equiv_pos_site_id
_symmetry_equiv_pos_as_xyz
1 x,y,z
2 -x,y,1/2-z
3 1/2+x,1/2+y,z
4 1/2-x,1/2+y,1/2-z
5 -x,-y,-z
6 x,-y,-1/2+z
7 -1/2-x,-1/2-y,-z
8 -1/2+x,-1/2-y,-1/2+z
_cell_length_a 26.0073(8)
_cell_length_b 11.9479(4)
_cell_length_c 12.9923(5)
_cell_angle_alpha 90
_cell_angle_beta 92.082(1)
_cell_angle_gamma 90
_cell_formula_units_Z 8
loop_
_atom_type_symbol
_atom_type_radius_bond
C 0.68
H 0.23
loop_
_atom_site_label
_atom_site_type_symbol
_atom_site_fract_x
_atom_site_fract_y
_atom_site_fract_z
C1 C 0.06589(5) 0.37326(12) 0.14194(10)
C2 C 0.07774(5) 0.48937(11) 0.14953(10)
C3 C 0.03057(5) 0.55191(12) 0.13829(10)
C4 C 0.02803(5) 0.66490(12) 0.14685(10)
C5 C 0.07378(5) 0.72785(12) 0.16933(10)
C6 C 0.07200(6) 0.84358(13) 0.18319(12)
C7 C 0.11677(7) 0.90548(13) 0.20243(12)
C8 C 0.16347(6) 0.85296(13) 0.20770(12)
C9 C 0.16757(6) 0.73520(13) 0.19719(11)
C10 C 0.21579(6) 0.68043(13) 0.20434(11)
C11 C 0.21888(5) 0.56708(14) 0.19128(12)
C12 C 0.17479(5) 0.50232(12) 0.17227(11)
C13 C 0.12549(5) 0.55047(12) 0.16663(10)
C14 C 0.12207(5) 0.67031(12) 0.17825(10)
C15 C 0.01163(5) 0.36131(12) 0.12443(10)
C16 C -0.01094(5) 0.47130(12) 0.12249(10)
C17 C -0.06245(5) 0.48986(12) 0.11203(10)
C18 C -0.09690(5) 0.39750(12) 0.09847(10)
C19 C -0.15006(5) 0.41438(13) 0.0870(1)
C20 C -0.18370(6) 0.32359(14) 0.07232(11)
C21 C -0.16477(6) 0.21687(14) 0.06925(11)
C22 C -0.11128(6) 0.19509(13) 0.08143(11)
C23 C -0.09171(6) 0.08492(13) 0.07878(12)
C24 C -0.04003(6) 0.06525(13) 0.09029(12)
C25 C -0.00532(6) 0.15380(13) 0.10481(12)
C26 C -0.02183(5) 0.26515(12) 0.10937(10)
C27 C -0.07640(5) 0.28636(12) 0.09664(10)
C28 C 0.10456(5) 0.28035(12) 0.15398(11)
C29 C 0.13027(6) 0.24802(12) 0.05427(11)
C30 C 0.17530(6) 0.16805(13) 0.07183(13)
C31 C 0.20341(7) 0.14032(15) -0.02487(14)
H1 H -0.00430 0.70260 0.13840
H2 H 0.03950 0.88100 0.17940
H3 H 0.11450 0.98540 0.21190
H4 H 0.19420 0.89670 0.21880
H5 H 0.24650 0.72370 0.21980
H6 H 0.25210 0.53090 0.19350
H7 H 0.17800 0.42240 0.16400
H8 H -0.07560 0.56470 0.11440
H9 H -0.16350 0.48920 0.08950
H10 H -0.21980 0.33710 0.06460
H11 H -0.18770 0.15520 0.05940
H12 H -0.11500 0.02280 0.06950
H13 H -0.02740 -0.00970 0.08780
H14 H 0.03050 0.13680 0.11230
H15 H 0.13090 0.30200 0.20320
H16 H 0.08760 0.21560 0.18000
H17 H 0.10520 0.21220 0.00940
H18 H 0.14210 0.31380 0.02190
H19 H 0.19890 0.20210 0.12120
H20 H 0.16270 0.10050 0.10150
H21 H 0.23190 0.09080 -0.00940
H22 H 0.18100 0.10420 -0.07410
H23 H 0.21680 0.20660 -0.05520
loop_
_geom_bond_atom_site_label_1
_geom_bond_atom_site_label_2
_geom_bond_distance
_geom_bond_site_symmetry_1
_geom_bond_site_symmetry_2
C1 C2 1.424 1_555 1_555
C2 C3 1.439 1_555 1_555
C3 C4 1.356 1_555 1_555
C4 C5 1.429 1_555 1_555
C5 C6 1.395 1_555 1_555
C6 C7 1.394 1_555 1_555
C7 C8 1.367 1_555 1_555
C8 C9 1.418 1_555 1_555
C9 C10 1.415 1_555 1_555
C10 C11 1.368 1_555 1_555
C11 C12 1.398 1_555 1_555
C12 C13 1.405 1_555 1_555
C13 C2 1.451 1_555 1_555
C14 C5 1.433 1_555 1_555
C15 C1 1.428 1_555 1_555
C16 C3 1.456 1_555 1_555
C17 C16 1.360 1_555 1_555
C18 C17 1.428 1_555 1_555
C19 C18 1.400 1_555 1_555
C20 C19 1.402 1_555 1_555
C21 C20 1.368 1_555 1_555
C22 C21 1.418 1_555 1_555
C23 C22 1.412 1_555 1_555
C24 C23 1.367 1_555 1_555
C25 C24 1.399 1_555 1_555
C26 C15 1.450 1_555 1_555
C27 C18 1.431 1_555 1_555
C28 C1 1.502 1_555 1_555
C29 C28 1.529 1_555 1_555
C30 C29 1.522 1_555 1_555
C31 C30 1.513 1_555 1_555
H1 C4 0.957 1_555 1_555
H2 C6 0.956 1_555 1_555
H3 C7 0.965 1_555 1_555
H4 C8 0.961 1_555 1_555
H5 C10 0.966 1_555 1_555
H6 C11 0.966 1_555 1_555
H7 C12 0.965 1_555 1_555
H8 C17 0.958 1_555 1_555
H9 C19 0.961 1_555 1_555
H10 C20 0.954 1_555 1_555
H11 C21 0.954 1_555 1_555
H12 C23 0.963 1_555 1_555
H13 C24 0.955 1_555 1_555
H14 C25 0.955 1_555 1_555
H15 C28 0.956 1_555 1_555
H16 C28 0.958 1_555 1_555
H17 C29 0.959 1_555 1_555
H18 C29 0.948 1_555 1_555
H19 C30 0.962 1_555 1_555
H20 C30 0.957 1_555 1_555
H21 C31 0.964 1_555 1_555
H22 C31 0.953 1_555 1_555
H23 C31 0.956 1_555 1_555
C9 C14 1.429 1_555 1_555
C13 C14 1.443 1_555 1_555
C15 C16 1.439 1_555 1_555
C22 C27 1.428 1_555 1_555
C25 C26 1.400 1_555 1_555
C26 C27 1.445 1_555 1_555
#END
