
#######################################################################
#
#                 Cambridge Crystallographic Data Centre
#                                CCDC
#
#######################################################################
#
# If this CIF has been generated from an entry in the Cambridge
# Structural Database, then it will include bibliographic, chemical,
# crystal, experimental, refinement or atomic coordinate data resulting
# from the CCDC's data processing and validation procedures.
#
#######################################################################

data_CSD_CIF_CAZHIX
_audit_creation_date 2017-05-29
_audit_creation_method CSD-ConQuest-V1
_database_code_CSD CAZHIX
_database_code_depnum_ccdc_archive 'CCDC 1534889'
_chemical_formula_sum 'C34 H18'
_chemical_formula_moiety
;
C34 H18
;
_journal_coden_Cambridge 1291
_journal_year 2017
_journal_page_first 2801
_journal_name_full 'Eur.J.Org.Chem. '
loop_
_publ_author_name
"Xiaoqi Tian"
"L.M.Roch"
"K.K.Baldridge"
"J.S.Siegel"
_chemical_name_systematic
;
1,2-dimethylbenzo[e]indeno[1',2',3':5,6]acenaphtho[3,2,1,8-lmnoa]acephenanthry
lene
;
_cell_volume   1032.016
_exptl_crystal_colour 'colorless'
_exptl_crystal_density_diffrn 1.372
_exptl_crystal_description 'Prism'
_diffrn_ambient_temperature 113
#These two values have been output from a single CSD field.
_refine_ls_R_factor_gt 0.0366
_refine_ls_wR_factor_gt 0.0366
_symmetry_cell_setting monoclinic
_symmetry_space_group_name_H-M 'P 21'
_symmetry_Int_Tables_number 4
loop_
_symmetry_equiv_pos_site_id
_symmetry_equiv_pos_as_xyz
1 x,y,z
2 -x,1/2+y,-z
_cell_length_a 10.743(5)
_cell_length_b 7.991(3)
_cell_length_c 12.772(6)
_cell_angle_alpha 90
_cell_angle_beta 109.739(9)
_cell_angle_gamma 90
_cell_formula_units_Z 2
loop_
_atom_type_symbol
_atom_type_radius_bond
C 0.68
H 0.23
loop_
_atom_site_label
_atom_site_type_symbol
_atom_site_fract_x
_atom_site_fract_y
_atom_site_fract_z
C1 C 0.86607(15) 0.2262(2) 0.54833(13)
H1 H 0.91640 0.16070 0.51150
H2 H 0.89870 0.20190 0.62820
H3 H 0.87700 0.34570 0.53660
C2 C 0.72138(15) 0.18036(18) 0.50006(13)
C3 C 0.65044(15) 0.13688(18) 0.57512(12)
C4 C 0.68356(15) 0.19690(19) 0.68969(12)
H4 H 0.77180 0.22820 0.73100
C5 C 0.58602(15) 0.20790(19) 0.73767(12)
C6 C 0.56988(15) 0.30932(18) 0.83007(12)
C7 C 0.66195(16) 0.3836(2) 0.92163(12)
H5 H 0.75390 0.37160 0.93470
C8 C 0.61678(16) 0.4774(2) 0.99511(13)
H6 H 0.67900 0.52680 1.05920
C9 C 0.48294(17) 0.4983(2) 0.97497(12)
H7 H 0.45440 0.56300 1.02500
C10 C 0.38877(15) 0.4254(2) 0.88182(12)
H8 H 0.29700 0.44150 0.86810
C11 C 0.43111(15) 0.33005(19) 0.81039(12)
C12 C 0.35546(15) 0.24302(19) 0.70509(12)
C13 C 0.23102(14) 0.26701(19) 0.62583(12)
H9 H 0.16420 0.32340 0.64540
C14 C 0.20330(14) 0.20555(19) 0.51289(12)
C15 C 0.10998(14) 0.28587(19) 0.41586(12)
H10 H 0.03550 0.34340 0.42230
C16 C 0.12921(14) 0.27890(19) 0.31393(12)
C17 C 0.08594(15) 0.3879(2) 0.21411(12)
C18 C -0.02065(15) 0.4940(2) 0.17478(12)
H11 H -0.08410 0.50180 0.21140
C19 C -0.03419(16) 0.5910(2) 0.07948(14)
H12 H -0.10760 0.66440 0.05150
C20 C 0.05876(16) 0.5805(2) 0.02583(13)
H13 H 0.04760 0.64570 -0.03890
C21 C 0.16792(16) 0.4752(2) 0.06600(12)
H14 H 0.23180 0.47030 0.02970
C22 C 0.18282(15) 0.3774(2) 0.15946(12)
C23 C 0.28971(15) 0.2615(2) 0.22298(11)
C24 C 0.42324(15) 0.24702(19) 0.23787(12)
H15 H 0.45630 0.29060 0.18320
C25 C 0.51391(15) 0.16507(18) 0.33718(12)
C26 C 0.65526(15) 0.19506(19) 0.38514(12)
C27 C 0.72962(16) 0.2611(2) 0.31221(13)
H16 H 0.75760 0.37650 0.33360
H17 H 0.67190 0.25830 0.23420
H18 H 0.80760 0.19120 0.32160
C28 C 0.52475(15) 0.07077(18) 0.52380(12)
C29 C 0.42629(14) 0.07906(18) 0.57552(12)
C30 C 0.45421(15) 0.15476(18) 0.67586(12)
C31 C 0.29952(15) 0.10236(18) 0.49455(12)
C32 C 0.31969(14) 0.09762(18) 0.39011(12)
C33 C 0.24080(15) 0.19057(19) 0.30460(12)
C34 C 0.45799(15) 0.08408(18) 0.40698(12)
loop_
_geom_bond_atom_site_label_1
_geom_bond_atom_site_label_2
_geom_bond_distance
_geom_bond_site_symmetry_1
_geom_bond_site_symmetry_2
C1 H1 0.979 1_555 1_555
H2 C1 0.980 1_555 1_555
H3 C1 0.980 1_555 1_555
C2 C1 1.511 1_555 1_555
C3 C2 1.454 1_555 1_555
C4 C3 1.465 1_555 1_555
H4 C4 0.950 1_555 1_555
C5 C4 1.384 1_555 1_555
C6 C5 1.489 1_555 1_555
C7 C6 1.385 1_555 1_555
H5 C7 0.949 1_555 1_555
C8 C7 1.409 1_555 1_555
H6 C8 0.950 1_555 1_555
C9 C8 1.383 1_555 1_555
H7 C9 0.950 1_555 1_555
C10 C9 1.402 1_555 1_555
H8 C10 0.950 1_555 1_555
C11 C6 1.435 1_555 1_555
C12 C11 1.488 1_555 1_555
C13 C12 1.391 1_555 1_555
H9 C13 0.950 1_555 1_555
C14 C13 1.456 1_555 1_555
C15 C14 1.454 1_555 1_555
H10 C15 0.950 1_555 1_555
C16 C15 1.386 1_555 1_555
C17 C16 1.483 1_555 1_555
C18 C17 1.376 1_555 1_555
H11 C18 0.950 1_555 1_555
C19 C18 1.409 1_555 1_555
H12 C19 0.950 1_555 1_555
C20 C19 1.391 1_555 1_555
H13 C20 0.950 1_555 1_555
C21 C20 1.393 1_555 1_555
H14 C21 0.950 1_555 1_555
C22 C17 1.438 1_555 1_555
C23 C22 1.485 1_555 1_555
C24 C23 1.387 1_555 1_555
H15 C24 0.950 1_555 1_555
C25 C24 1.467 1_555 1_555
C26 C2 1.403 1_555 1_555
C27 C26 1.512 1_555 1_555
H16 C27 0.980 1_555 1_555
H17 C27 0.980 1_555 1_555
H18 C27 0.980 1_555 1_555
C28 C3 1.391 1_555 1_555
C29 C28 1.425 1_555 1_555
C30 C5 1.433 1_555 1_555
C31 C14 1.402 1_555 1_555
C32 C31 1.422 1_555 1_555
C33 C16 1.430 1_555 1_555
C34 C25 1.391 1_555 1_555
C10 C11 1.378 1_555 1_555
C12 C30 1.425 1_555 1_555
C21 C22 1.390 1_555 1_555
C23 C33 1.433 1_555 1_555
C25 C26 1.453 1_555 1_555
C28 C34 1.424 1_555 1_555
C29 C30 1.356 1_555 1_555
C29 C31 1.417 1_555 1_555
C32 C33 1.356 1_555 1_555
C32 C34 1.432 1_555 1_555
#END
