
#######################################################################
#
#                 Cambridge Crystallographic Data Centre
#                                CCDC
#
#######################################################################
#
# If this CIF has been generated from an entry in the Cambridge
# Structural Database, then it will include bibliographic, chemical,
# crystal, experimental, refinement or atomic coordinate data resulting
# from the CCDC's data processing and validation procedures.
#
#######################################################################

data_CSD_CIF_CEBJUR
_audit_creation_date 2017-05-30
_audit_creation_method CSD-ConQuest-V1
_database_code_CSD CEBJUR
_database_code_depnum_ccdc_archive 'CCDC 1553035'
_chemical_formula_sum 'C40 H24'
_chemical_formula_moiety
;
C40 H24
;
_journal_coden_Cambridge 179
_journal_volume 56
_journal_year 2017
_journal_page_first 5082
_journal_name_full 'Angew.Chem.,Int.Ed. '
loop_
_publ_author_name
"Chaolumen"
"M.Murata"
"A.Wakamiya"
"Y.Murata"
_chemical_name_systematic
;
12,20-dimethyldibenzo[a,f]benzo[4,5]indeno[1,2,3-cd]perylene
;
_cell_volume   2317.487
_exptl_crystal_colour 'blue'
_exptl_crystal_density_diffrn 1.446
_exptl_crystal_description 'block'
_diffrn_ambient_temperature 100
#These two values have been output from a single CSD field.
_refine_ls_R_factor_gt 0.0589
_refine_ls_wR_factor_gt 0.0589
_symmetry_cell_setting monoclinic
_symmetry_space_group_name_H-M 'P 21/c'
_symmetry_Int_Tables_number 14
loop_
_symmetry_equiv_pos_site_id
_symmetry_equiv_pos_as_xyz
1 x,y,z
2 -x,1/2+y,1/2-z
3 -x,-y,-z
4 x,-1/2-y,-1/2+z
_cell_length_a 24.166(8)
_cell_length_b 3.8334(13)
_cell_length_c 26.768(9)
_cell_angle_alpha 90
_cell_angle_beta 110.841(4)
_cell_angle_gamma 90
_cell_formula_units_Z 4
loop_
_atom_type_symbol
_atom_type_radius_bond
C 0.68
H 0.23
loop_
_atom_site_label
_atom_site_type_symbol
_atom_site_fract_x
_atom_site_fract_y
_atom_site_fract_z
C1 C 0.37639(11) 0.2621(6) 0.2620(1)
C2 C 0.23209(11) -0.0289(6) 0.40233(10)
C3 C 0.19140(11) 0.0562(6) 0.28921(10)
C4 C 0.08980(11) -0.0346(6) 0.28488(10)
H1 H 0.06240 -0.09980 0.30130
C5 C 0.25253(11) 0.0665(6) 0.3188(1)
C6 C 0.27010(11) 0.0513(6) 0.3746(1)
C7 C 0.17261(11) -0.1148(6) 0.37236(10)
C8 C 0.44129(12) 0.1049(7) 0.5375(1)
H2 H 0.48220 0.14870 0.55600
C9 C 0.32960(11) 0.1447(6) 0.39944(10)
C10 C 0.22440(11) 0.0929(7) 0.53724(10)
H3 H 0.26000 0.21790 0.55470
C11 C 0.15129(11) -0.0457(6) 0.31616(10)
C12 C 0.34715(11) -0.0672(7) 0.53988(10)
H4 H 0.32420 -0.15340 0.55960
C13 C 0.35207(11) 0.1089(7) 0.16886(10)
H5 H 0.36170 0.11060 0.13740
C14 C 0.35159(11) 0.2233(6) 0.35616(10)
C15 C 0.11714(11) -0.2496(7) 0.48647(10)
C16 C 0.16637(11) 0.1706(7) 0.23481(10)
H6 H 0.19210 0.24860 0.21730
C17 C 0.41898(11) 0.3834(6) 0.3114(1)
C18 C 0.25571(11) -0.0162(6) 0.45904(10)
C19 C 0.15629(11) -0.1763(6) 0.45849(10)
C20 C 0.31794(11) 0.0174(6) 0.48498(10)
C21 C 0.29905(12) -0.0421(7) 0.16808(10)
H7 H 0.27380 -0.15270 0.13640
C22 C 0.06372(11) -0.4247(7) 0.45965(10)
H8 H 0.03720 -0.47070 0.47790
C23 C 0.13276(12) -0.1377(7) 0.54079(10)
C24 C 0.35550(11) 0.1202(6) 0.45537(10)
C25 C 0.38975(11) 0.2528(7) 0.21459(10)
H9 H 0.42600 0.34980 0.21480
C26 C 0.08580(11) -0.4424(6) 0.37975(11)
H10 H 0.07510 -0.51760 0.34370
C27 C 0.04938(11) -0.5296(6) 0.40797(10)
H11 H 0.01450 -0.66230 0.39120
C28 C 0.47679(11) 0.5308(7) 0.31316(10)
H12 H 0.49940 0.60970 0.34960
H13 H 0.46960 0.72860 0.28850
H14 H 0.49930 0.35080 0.30260
C29 C 0.32029(11) 0.1313(6) 0.25999(10)
C30 C 0.30649(11) 0.1470(6) 0.30762(10)
C31 C 0.41679(11) 0.1728(7) 0.48435(10)
H15 H 0.44130 0.25780 0.46600
C32 C 0.09286(12) -0.2097(7) 0.57140(11)
H16 H 0.11230 -0.13500 0.60860
H17 H 0.08450 -0.46030 0.57040
H18 H 0.05570 -0.08110 0.55520
C33 C 0.40644(11) 0.3491(6) 0.35735(10)
H19 H 0.43560 0.41200 0.39060
C34 C 0.28309(11) -0.0332(6) 0.21191(10)
H20 H 0.24690 -0.13720 0.21050
C35 C 0.13720(11) -0.2498(6) 0.40231(10)
C36 C 0.40637(12) -0.0299(7) 0.56521(11)
H21 H 0.42430 -0.09490 0.60170
C37 C 0.21318(11) -0.0338(6) 0.48634(10)
C38 C 0.10759(12) 0.1711(7) 0.20776(10)
H22 H 0.09250 0.24410 0.17150
C39 C 0.18439(12) 0.0410(7) 0.56373(10)
H23 H 0.19350 0.13310 0.59870
C40 C 0.06836(11) 0.0639(7) 0.23301(10)
H24 H 0.02690 0.06090 0.21370
loop_
_geom_bond_atom_site_label_1
_geom_bond_atom_site_label_2
_geom_bond_distance
_geom_bond_site_symmetry_1
_geom_bond_site_symmetry_2
C1 C17 1.434 1_555 1_555
C2 C6 1.405 1_555 1_555
C3 C5 1.407 1_555 1_555
C4 H1 0.949 1_555 1_555
C5 C6 1.401 1_555 1_555
C6 C9 1.399 1_555 1_555
C7 C2 1.413 1_555 1_555
C8 H2 0.950 1_555 1_555
C9 C14 1.467 1_555 1_555
C10 H3 0.950 1_555 1_555
C11 C3 1.453 1_555 1_555
C12 H4 0.951 1_555 1_555
C13 H5 0.950 1_555 1_555
C14 C30 1.398 1_555 1_555
C15 C19 1.428 1_555 1_555
C16 C3 1.432 1_555 1_555
H6 C16 0.950 1_555 1_555
C17 C28 1.492 1_555 1_555
C18 C2 1.420 1_555 1_555
C19 C35 1.435 1_555 1_555
C20 C12 1.423 1_555 1_555
C21 C13 1.399 1_555 1_555
H7 C21 0.950 1_555 1_555
C22 C15 1.405 1_555 1_555
H8 C22 0.950 1_555 1_555
C23 C15 1.432 1_555 1_555
C24 C9 1.405 1_555 1_555
C25 C1 1.417 1_555 1_555
H9 C25 0.950 1_555 1_555
C26 H10 0.951 1_555 1_555
C27 C22 1.362 1_555 1_555
H11 C27 0.949 1_555 1_555
C28 H12 0.981 1_555 1_555
H13 C28 0.979 1_555 1_555
H14 C28 0.980 1_555 1_555
C29 C1 1.428 1_555 1_555
C30 C5 1.471 1_555 1_555
C31 C8 1.358 1_555 1_555
H15 C31 0.951 1_555 1_555
C32 C23 1.496 1_555 1_555
H16 C32 0.981 1_555 1_555
H17 C32 0.980 1_555 1_555
H18 C32 0.980 1_555 1_555
C33 C14 1.400 1_555 1_555
H19 C33 0.949 1_555 1_555
C34 C21 1.360 1_555 1_555
H20 C34 0.950 1_555 1_555
C35 C7 1.460 1_555 1_555
C36 C8 1.405 1_555 1_555
H21 C36 0.950 1_555 1_555
C37 C10 1.379 1_555 1_555
C38 C16 1.345 1_555 1_555
H22 C38 0.949 1_555 1_555
C39 C10 1.402 1_555 1_555
H23 C39 0.950 1_555 1_555
C40 C4 1.352 1_555 1_555
H24 C40 0.950 1_555 1_555
C4 C11 1.423 1_555 1_555
C7 C11 1.431 1_555 1_555
C12 C36 1.356 1_555 1_555
C13 C25 1.356 1_555 1_555
C17 C33 1.374 1_555 1_555
C18 C20 1.420 1_555 1_555
C18 C37 1.459 1_555 1_555
C19 C37 1.419 1_555 1_555
C20 C24 1.456 1_555 1_555
C23 C39 1.363 1_555 1_555
C24 C31 1.421 1_555 1_555
C26 C27 1.389 1_555 1_555
C26 C35 1.385 1_555 1_555
C29 C30 1.429 1_555 1_555
C29 C34 1.428 1_555 1_555
C38 C40 1.407 1_555 1_555
#END
