
#######################################################################
#
#                 Cambridge Crystallographic Data Centre
#                                CCDC
#
#######################################################################
#
# If this CIF has been generated from an entry in the Cambridge
# Structural Database, then it will include bibliographic, chemical,
# crystal, experimental, refinement or atomic coordinate data resulting
# from the CCDC's data processing and validation procedures.
#
#######################################################################

data_CSD_CIF_CEGCAS
_audit_creation_date 1984-10-09
_audit_creation_method CSD-ConQuest-V1
_database_code_CSD CEGCAS
_database_code_depnum_ccdc_archive 'CCDC 1122356'
_chemical_formula_sum 'C28 H14'
_chemical_formula_moiety
;
C28 H14
;
_journal_coden_Cambridge 4
_journal_volume 105
_journal_year 1983
_journal_page_first 7171
_journal_name_full 'J.Am.Chem.Soc. '
loop_
_publ_author_name
"K.Yamamoto"
"T.Harada"
"M.Nakazaki"
"T.Naka"
"Y.Kai"
"S.Harada"
"N.Kasai"
_chemical_name_systematic
;
(7)Circulene
;
_chemical_melting_point 568.15
_cell_volume   1675.607
_exptl_crystal_colour 'yellow'
_exptl_crystal_density_diffrn 1.39
_exptl_special_details
;
Melting point range 568.15-569.15K

;
_diffrn_ambient_temperature ?
_diffrn_special_details
;
The study was carried out at room temperature,in the range 283-303K

;
#These two values have been output from a single CSD field.
_refine_ls_R_factor_gt 0.094
_refine_ls_wR_factor_gt 0.094
_symmetry_cell_setting monoclinic
_symmetry_space_group_name_H-M 'C 2/c'
_symmetry_Int_Tables_number 15
loop_
_symmetry_equiv_pos_site_id
_symmetry_equiv_pos_as_xyz
1 x,y,z
2 1/2+x,1/2+y,z
3 -x,y,1/2-z
4 1/2-x,1/2+y,1/2-z
5 -x,-y,-z
6 -1/2-x,-1/2-y,-z
7 x,-y,-1/2+z
8 -1/2+x,-1/2-y,-1/2+z
_cell_length_a 13.106(2)
_cell_length_b 11.664(2)
_cell_length_c 11.015(3)
_cell_angle_alpha 90
_cell_angle_beta 95.67(1)
_cell_angle_gamma 90
_cell_formula_units_Z 4
loop_
_atom_type_symbol
_atom_type_radius_bond
C 0.68
H 0.23
loop_
_atom_site_label
_atom_site_type_symbol
_atom_site_fract_x
_atom_site_fract_y
_atom_site_fract_z
C1 C 0.00000 0.10620 0.25000
C2 C 0.00000 0.22950 0.25000
C3 C 0.03130 0.29170 0.14960
C4 C 0.07480 0.23880 0.06030
C5 C 0.10130 0.12160 0.07370
C6 C 0.18140 0.08480 0.00430
C7 C 0.23120 -0.01320 0.03640
C8 C 0.19310 -0.08970 0.12050
C9 C 0.24730 -0.19350 0.14280
C10 C 0.20410 -0.28120 0.19750
C11 C 0.10270 -0.27230 0.22780
C12 C 0.05110 -0.16340 0.22860
C13 C 0.09980 -0.06680 0.17520
C14 C 0.06220 0.05100 0.16470
C15 C 0.05020 -0.37610 0.24530
H1 H 0.01900 0.37800 0.14400
H2 H 0.09200 0.28300 -0.01700
H3 H 0.20000 0.13500 -0.06500
H4 H 0.29800 -0.03300 0.00000
H5 H 0.32000 -0.20000 0.11600
H6 H 0.24400 -0.35500 0.21500
H7 H 0.09100 -0.45100 0.24800
C14B C -0.06220 0.05100 0.33530
C3B C -0.03130 0.29170 0.35040
C12B C -0.05110 -0.16340 0.27140
C15B C -0.05020 -0.37610 0.25470
C5B C -0.10130 0.12160 0.42630
C13B C -0.09980 -0.06680 0.32480
C4B C -0.07480 0.23880 0.43970
H1B H -0.01900 0.37800 0.35600
C11B C -0.10270 -0.27230 0.27220
H7B H -0.09100 -0.45100 0.25200
C6B C -0.18140 0.08480 0.49570
C8B C -0.19310 -0.08970 0.37950
H2B H -0.09200 0.28300 0.51700
C10B C -0.20410 -0.28120 0.30250
C7B C -0.23120 -0.01320 0.46360
H3B H -0.20000 0.13500 0.56500
C9B C -0.24730 -0.19350 0.35720
H6B H -0.24400 -0.35500 0.28500
H4B H -0.29800 -0.03300 0.50000
H5B H -0.32000 -0.20000 0.38400
loop_
_geom_bond_atom_site_label_1
_geom_bond_atom_site_label_2
_geom_bond_distance
_geom_bond_site_symmetry_1
_geom_bond_site_symmetry_2
C1 C2 1.438 1_555 1_555
C2 C3 1.417 1_555 1_555
C3 C4 1.336 1_555 1_555
C4 C5 1.415 1_555 1_555
C5 C6 1.425 1_555 1_555
C6 C7 1.346 1_555 1_555
C7 C8 1.412 1_555 1_555
C8 C9 1.413 1_555 1_555
C9 C10 1.341 1_555 1_555
C10 C11 1.406 1_555 1_555
C11 C12 1.439 1_555 1_555
C12 C13 1.448 1_555 1_555
C13 C8 1.441 1_555 1_555
C14 C1 1.454 1_555 1_555
C15 C11 1.415 1_555 1_555
H1 C3 1.020 1_555 1_555
H2 C4 1.039 1_555 1_555
H3 C6 1.011 1_555 1_555
H4 C7 1.025 1_555 1_555
H5 C9 1.028 1_555 1_555
H6 C10 1.016 1_555 1_555
H7 C15 1.023 1_555 1_555
C14B C1 1.454 1_555 1_555
C3B C2 1.417 1_555 1_555
C12B C12 1.463 1_555 1_555
C15B C15 1.330 1_555 1_555
C5B C14B 1.431 1_555 1_555
C13B C14B 1.460 1_555 1_555
C4B C3B 1.336 1_555 1_555
H1B C3B 1.020 1_555 1_555
C11B C12B 1.439 1_555 1_555
H7B C15B 1.023 1_555 1_555
C6B C5B 1.425 1_555 1_555
C8B C13B 1.441 1_555 1_555
H2B C4B 1.039 1_555 1_555
C10B C11B 1.406 1_555 1_555
C7B C6B 1.346 1_555 1_555
H3B C6B 1.011 1_555 1_555
C9B C8B 1.413 1_555 1_555
H6B C10B 1.016 1_555 1_555
H4B C7B 1.025 1_555 1_555
H5B C9B 1.028 1_555 1_555
C5 C14 1.431 1_555 1_555
C13 C14 1.460 1_555 1_555
C12B C13B 1.448 1_555 1_555
C15B C11B 1.415 1_555 1_555
C5B C4B 1.415 1_555 1_555
C8B C7B 1.412 1_555 1_555
C10B C9B 1.341 1_555 1_555
#END
