
#######################################################################
#
#                 Cambridge Crystallographic Data Centre
#                                CCDC
#
#######################################################################
#
# If this CIF has been generated from an entry in the Cambridge
# Structural Database, then it will include bibliographic, chemical,
# crystal, experimental, refinement or atomic coordinate data resulting
# from the CCDC's data processing and validation procedures.
#
#######################################################################

data_CSD_CIF_CENYEZ
_audit_creation_date 1984-11-14
_audit_creation_method CSD-ConQuest-V1
_database_code_CSD CENYEZ
_database_code_depnum_ccdc_archive 'CCDC 1123158'
_chemical_formula_sum 'C42 H24'
_chemical_formula_moiety
;
C42 H24
;
_journal_coden_Cambridge 48
_journal_volume 117
_journal_year 1984
_journal_page_first 260
_journal_name_full 'Chem.Ber. '
loop_
_publ_author_name
"P.Wahl"
"C.Krieger"
"D.Schweitzer"
"H.A.Staab"
_chemical_name_systematic
;
1,8-bis(2-Pyrenyl)-naphthalene
;
_chemical_melting_point 604.15
_cell_volume   2656.236
_exptl_crystal_colour 'pale yellow'
_exptl_crystal_density_diffrn 1.32
_exptl_special_details
;
Melting point range 604.15-606.15K

;
_diffrn_ambient_temperature ?
_diffrn_special_details
;
The study was carried out at room temperature,in the range 283-303K

;
#These two values have been output from a single CSD field.
_refine_ls_R_factor_gt 0.043
_refine_ls_wR_factor_gt 0.043
_symmetry_cell_setting monoclinic
_symmetry_space_group_name_H-M 'P 21/n'
_symmetry_Int_Tables_number 14
loop_
_symmetry_equiv_pos_site_id
_symmetry_equiv_pos_as_xyz
1 x,y,z
2 1/2-x,1/2+y,1/2-z
3 -x,-y,-z
4 -1/2+x,-1/2-y,-1/2+z
_cell_length_a 11.448(2)
_cell_length_b 10.790(2)
_cell_length_c 21.544(4)
_cell_angle_alpha 90
_cell_angle_beta 93.50(3)
_cell_angle_gamma 90
_cell_formula_units_Z 4
loop_
_atom_type_symbol
_atom_type_radius_bond
C 0.68
H 0.23
loop_
_atom_site_label
_atom_site_type_symbol
_atom_site_fract_x
_atom_site_fract_y
_atom_site_fract_z
C1 C -0.15720 0.49640 0.06980
C2 C -0.21250 0.55010 0.01890
C3 C -0.23760 0.48860 -0.03790
C4 C -0.20680 0.36550 -0.04100
C5 C -0.14730 0.30470 0.00900
C6 C -0.11830 0.17620 0.00300
C7 C -0.06480 0.11550 0.05040
C8 C -0.03110 0.17660 0.10610
C9 C -0.05320 0.30200 0.11460
C10 C -0.11700 0.36800 0.06660
C11 C -0.19270 0.53480 0.18310
C12 C -0.14580 0.57100 0.12750
C13 C -0.08360 0.68370 0.12760
C14 C -0.06400 0.75350 0.18070
C15 C -0.10620 0.71060 0.23720
C16 C 0.00510 0.86510 0.18140
C17 C 0.02930 0.92660 0.23460
C18 C -0.01070 0.88550 0.29290
C19 C -0.07990 0.77560 0.29290
C20 C 0.01370 0.94670 0.34840
C21 C -0.02450 0.90450 0.40500
C22 C -0.09200 0.79650 0.40450
C23 C -0.11950 0.73160 0.34990
C24 C -0.18680 0.61710 0.34810
C25 C -0.21530 0.55790 0.29520
C26 C -0.17400 0.60060 0.23710
C27 C -0.03470 0.29840 0.23070
C28 C -0.00570 0.35230 0.17480
C29 C 0.07300 0.45180 0.17820
C30 C 0.11590 0.49940 0.23400
C31 C 0.08310 0.44520 0.29050
C32 C 0.19050 0.60830 0.23850
C33 C 0.22440 0.65680 0.29370
C34 C 0.19380 0.60380 0.35110
C35 C 0.12180 0.49640 0.34830
C36 C 0.22950 0.65320 0.40810
C37 C 0.19850 0.59890 0.46210
C38 C 0.12840 0.49270 0.46110
C39 C 0.08950 0.44150 0.40460
C40 C 0.01420 0.33340 0.40060
C41 C -0.02630 0.29000 0.34550
C42 C 0.00660 0.34160 0.28760
H1 H -0.24900 0.63500 0.01900
H2 H -0.28800 0.53000 -0.07600
H3 H -0.23300 0.32000 -0.08300
H4 H -0.15000 0.13900 -0.04000
H5 H -0.04800 0.02400 0.04600
H6 H 0.02700 0.13900 0.14900
H7 H -0.23500 0.46100 0.17800
H8 H -0.05500 0.71400 0.08600
H9 H 0.02700 0.89100 0.13300
H10 H 0.08100 1.00500 0.23600
H11 H 0.05800 1.02700 0.34800
H12 H 0.00100 0.96100 0.45200
H13 H -0.10600 0.76300 0.45000
H14 H -0.20900 0.59000 0.38900
H15 H -0.26300 0.47600 0.29400
H16 H -0.08500 0.23300 0.22600
H17 H 0.09200 0.49100 0.13900
H18 H 0.20900 0.64400 0.19100
H19 H 0.27200 0.72900 0.30100
H20 H 0.27700 0.73400 0.40800
H21 H 0.23100 0.62600 0.50400
H22 H 0.11700 0.45000 0.50500
H23 H 0.00100 0.29100 0.44300
H24 H -0.07800 0.22800 0.34100
loop_
_geom_bond_atom_site_label_1
_geom_bond_atom_site_label_2
_geom_bond_distance
_geom_bond_site_symmetry_1
_geom_bond_site_symmetry_2
C1 C2 1.362 1_555 1_555
C2 C3 1.406 1_555 1_555
C3 C4 1.377 1_555 1_555
C4 C5 1.402 1_555 1_555
C5 C6 1.433 1_555 1_555
C6 C7 1.331 1_555 1_555
C7 C8 1.402 1_555 1_555
C8 C9 1.391 1_555 1_555
C9 C10 1.420 1_555 1_555
C10 C1 1.463 1_555 1_555
C11 C12 1.398 1_555 1_555
C12 C1 1.480 1_555 1_555
C13 C12 1.409 1_555 1_555
C14 C13 1.377 1_555 1_555
C15 C14 1.415 1_555 1_555
C16 C14 1.440 1_555 1_555
C17 C16 1.339 1_555 1_555
C18 C17 1.433 1_555 1_555
C19 C15 1.407 1_555 1_555
C20 C18 1.379 1_555 1_555
C21 C20 1.397 1_555 1_555
C22 C21 1.398 1_555 1_555
C23 C19 1.417 1_555 1_555
C24 C23 1.455 1_555 1_555
C25 C24 1.330 1_555 1_555
C26 C11 1.369 1_555 1_555
C27 C28 1.396 1_555 1_555
C28 C9 1.479 1_555 1_555
C29 C28 1.401 1_555 1_555
C30 C29 1.370 1_555 1_555
C31 C30 1.421 1_555 1_555
C32 C30 1.452 1_555 1_555
C33 C32 1.335 1_555 1_555
C34 C33 1.425 1_555 1_555
C35 C31 1.409 1_555 1_555
C36 C34 1.378 1_555 1_555
C37 C36 1.369 1_555 1_555
C38 C37 1.398 1_555 1_555
C39 C35 1.419 1_555 1_555
C40 C39 1.450 1_555 1_555
C41 C40 1.333 1_555 1_555
C42 C27 1.368 1_555 1_555
H1 C2 1.007 1_555 1_555
H2 C3 1.072 1_555 1_555
H3 C4 1.057 1_555 1_555
H4 C6 1.054 1_555 1_555
H5 C7 1.011 1_555 1_555
H6 C8 1.177 1_555 1_555
H7 C11 0.935 1_555 1_555
H8 C13 1.026 1_555 1_555
H9 C16 1.123 1_555 1_555
H10 C17 1.032 1_555 1_555
H11 C20 1.004 1_555 1_555
H12 C21 1.203 1_555 1_555
H13 C22 1.066 1_555 1_555
H14 C24 0.977 1_555 1_555
H15 C25 1.038 1_555 1_555
H16 C27 0.913 1_555 1_555
H17 C29 0.981 1_555 1_555
H18 C32 1.126 1_555 1_555
H19 C33 0.958 1_555 1_555
H20 C36 1.028 1_555 1_555
H21 C37 0.999 1_555 1_555
H22 C38 1.067 1_555 1_555
H23 C40 1.041 1_555 1_555
H24 C41 0.895 1_555 1_555
C5 C10 1.440 1_555 1_555
C15 C26 1.418 1_555 1_555
C18 C19 1.426 1_555 1_555
C22 C23 1.389 1_555 1_555
C25 C26 1.440 1_555 1_555
C31 C42 1.419 1_555 1_555
C34 C35 1.421 1_555 1_555
C38 C39 1.385 1_555 1_555
C41 C42 1.437 1_555 1_555
#END
