
#######################################################################
#
#                 Cambridge Crystallographic Data Centre
#                                CCDC
#
#######################################################################
#
# If this CIF has been generated from an entry in the Cambridge
# Structural Database, then it will include bibliographic, chemical,
# crystal, experimental, refinement or atomic coordinate data resulting
# from the CCDC's data processing and validation procedures.
#
#######################################################################

data_CSD_CIF_CETQOJ
_audit_creation_date 2013-04-30
_audit_creation_method CSD-ConQuest-V1
_database_code_CSD CETQOJ
_database_code_depnum_ccdc_archive 'CCDC 923795'
_chemical_formula_sum 'C40 H42'
_chemical_formula_moiety
;
C40 H42
;
_journal_coden_Cambridge 1695
_journal_volume 1
_journal_year 2013
_journal_page_first 2817
_journal_name_full 'J.Mater.Chem.C '
loop_
_publ_author_name
"A.Dadvand"
"Wei-Hsin Sun"
"A.G.Moiseev"
"F.Belanger-Gariepy"
"F.Rosei"
"Hong Meng"
"D.F.Perepichka"
_chemical_name_systematic
;
9,10-bis(2-(4-Pentylphenyl)vinyl)anthracene
;
_cell_volume    758.050
_exptl_crystal_colour 'pale yellow'
_exptl_crystal_density_diffrn 1.145
_exptl_crystal_description 'needle'
_diffrn_ambient_temperature 100
#These two values have been output from a single CSD field.
_refine_ls_R_factor_gt 0.0532
_refine_ls_wR_factor_gt 0.0532
_symmetry_cell_setting triclinic
_symmetry_space_group_name_H-M 'P -1'
_symmetry_Int_Tables_number 2
loop_
_symmetry_equiv_pos_site_id
_symmetry_equiv_pos_as_xyz
1 x,y,z
2 -x,-y,-z
_cell_length_a 6.5844(3)
_cell_length_b 9.2194(3)
_cell_length_c 13.5405(5)
_cell_angle_alpha 100.0975(16)
_cell_angle_beta 99.8398(18)
_cell_angle_gamma 105.7088(16)
_cell_formula_units_Z 1
loop_
_atom_type_symbol
_atom_type_radius_bond
C 0.68
H 0.23
loop_
_atom_site_label
_atom_site_type_symbol
_atom_site_fract_x
_atom_site_fract_y
_atom_site_fract_z
C1 C 0.1347(2) 0.91825(16) 0.4591(1)
C2 C 0.0152(2) 0.86273(15) 0.52928(10)
C3 C 0.0173(2) 0.72005(16) 0.55706(11)
H1 H 0.10840 0.66600 0.53130
C4 C -0.1078(3) 0.66006(17) 0.61932(11)
H2 H -0.10370 0.56500 0.63620
C5 C -0.2446(3) 0.73941(17) 0.65919(11)
H3 H -0.33230 0.69700 0.70240
C6 C -0.2500(2) 0.87601(16) 0.63547(11)
H4 H -0.34170 0.92780 0.66310
C7 C -0.1220(2) 0.94407(15) 0.57029(10)
C8 C 0.2700(2) 0.82923(15) 0.41732(11)
H5 H 0.38060 0.81260 0.46480
C9 C 0.2464(2) 0.77090(15) 0.31728(11)
H6 H 0.13990 0.79300 0.27070
C10 C 0.3688(2) 0.67573(15) 0.27171(11)
C11 C 0.2962(2) 0.59731(16) 0.16821(11)
H7 H 0.17270 0.61040 0.12750
C12 C 0.4012(3) 0.50025(16) 0.12340(11)
H8 H 0.34620 0.44610 0.05320
C13 C 0.5856(3) 0.48127(16) 0.17994(12)
C14 C 0.6616(2) 0.56274(17) 0.28281(12)
H9 H 0.78880 0.55300 0.32250
C15 C 0.5555(2) 0.65752(17) 0.32828(11)
H10 H 0.61010 0.71080 0.39870
C16 C 0.6971(3) 0.37318(18) 0.13255(13)
H11 H 0.85600 0.42260 0.15630
H12 H 0.65920 0.35810 0.05670
C17 C 0.6376(3) 0.21464(17) 0.15894(12)
H13 H 0.66790 0.22890 0.23480
H14 H 0.48050 0.16130 0.13120
C18 C 0.7655(3) 0.11396(17) 0.11429(12)
H15 H 0.72570 0.09360 0.03810
H16 H 0.92210 0.17220 0.13720
C19 C 0.7266(3) -0.04003(18) 0.14554(13)
H17 H 0.76440 -0.02050 0.22170
H18 H 0.57070 -0.10000 0.12130
C20 C 0.8587(3) -0.13439(18) 0.10148(13)
H19 H 0.82170 -0.15410 0.02610
H20 H 0.82700 -0.23320 0.12230
H21 H 1.01340 -0.07710 0.12740
C1A C -0.1347(2) 1.08175(16) 0.5409(1)
C2A C -0.0152(2) 1.13727(15) 0.47072(10)
C3A C -0.0173(2) 1.27995(16) 0.44294(11)
H1A H -0.10840 1.33400 0.46870
C4A C 0.1078(3) 1.33994(17) 0.38068(11)
H2A H 0.10370 1.43500 0.36380
C5A C 0.2446(3) 1.26059(17) 0.34081(11)
H3A H 0.33230 1.30300 0.29760
C6A C 0.2500(2) 1.12399(16) 0.36453(11)
H4A H 0.34170 1.07220 0.33690
C7A C 0.1220(2) 1.05593(15) 0.42971(10)
C8A C -0.2700(2) 1.17077(15) 0.58268(11)
H5A H -0.38060 1.18740 0.53520
C9A C -0.2464(2) 1.22910(15) 0.68272(11)
H6A H -0.13990 1.20700 0.72930
C10A C -0.3688(2) 1.32427(15) 0.72829(11)
C11A C -0.2962(2) 1.40269(16) 0.83179(11)
H7A H -0.17270 1.38960 0.87250
C12A C -0.4012(3) 1.49975(16) 0.87660(11)
H8A H -0.34620 1.55390 0.94680
C13A C -0.5856(3) 1.51873(16) 0.82006(12)
C14A C -0.6616(2) 1.43726(17) 0.71719(12)
H9A H -0.78880 1.44700 0.67750
C15A C -0.5555(2) 1.34248(17) 0.67172(11)
H10A H -0.61010 1.28920 0.60130
C16A C -0.6971(3) 1.62682(18) 0.86745(13)
H11A H -0.85600 1.57740 0.84370
H12A H -0.65920 1.64190 0.94330
C17A C -0.6376(3) 1.78536(17) 0.84106(12)
H13A H -0.66790 1.77110 0.76520
H14A H -0.48050 1.83870 0.86880
C18A C -0.7655(3) 1.88604(17) 0.88571(12)
H15A H -0.72570 1.90640 0.96190
H16A H -0.92210 1.82780 0.86280
C19A C -0.7266(3) 2.04003(18) 0.85446(13)
H17A H -0.76440 2.02050 0.77830
H18A H -0.57070 2.10000 0.87870
C20A C -0.8587(3) 2.13439(18) 0.89852(13)
H19A H -0.82170 2.15410 0.97390
H20A H -0.82700 2.23320 0.87770
H21A H -1.01340 2.07710 0.87260
loop_
_geom_bond_atom_site_label_1
_geom_bond_atom_site_label_2
_geom_bond_distance
_geom_bond_site_symmetry_1
_geom_bond_site_symmetry_2
C1 C2 1.411 1_555 1_555
C2 C3 1.433 1_555 1_555
C3 H1 0.950 1_555 1_555
C4 C3 1.360 1_555 1_555
H2 C4 0.950 1_555 1_555
C5 C4 1.422 1_555 1_555
H3 C5 0.950 1_555 1_555
C6 C5 1.361 1_555 1_555
H4 C6 0.950 1_555 1_555
C7 C2 1.442 1_555 1_555
C8 C1 1.481 1_555 1_555
H5 C8 0.950 1_555 1_555
C9 C8 1.333 1_555 1_555
H6 C9 0.950 1_555 1_555
C10 C9 1.471 1_555 1_555
C11 C10 1.394 1_555 1_555
H7 C11 0.950 1_555 1_555
C12 C11 1.391 1_555 1_555
H8 C12 0.950 1_555 1_555
C13 C12 1.391 1_555 1_555
C14 C13 1.395 1_555 1_555
H9 C14 0.950 1_555 1_555
C15 C10 1.400 1_555 1_555
H10 C15 0.950 1_555 1_555
C16 C13 1.509 1_555 1_555
H11 C16 0.991 1_555 1_555
H12 C16 0.990 1_555 1_555
C17 C16 1.529 1_555 1_555
H13 C17 0.990 1_555 1_555
H14 C17 0.990 1_555 1_555
C18 C17 1.529 1_555 1_555
H15 C18 0.991 1_555 1_555
H16 C18 0.990 1_555 1_555
C19 C18 1.520 1_555 1_555
H17 C19 0.990 1_555 1_555
H18 C19 0.990 1_555 1_555
C20 C19 1.508 1_555 1_555
H19 C20 0.980 1_555 1_555
H20 C20 0.980 1_555 1_555
H21 C20 0.980 1_555 1_555
C1A C7 1.414 1_555 1_555
C2A C1A 1.411 1_555 1_555
C3A C2A 1.433 1_555 1_555
H1A C3A 0.950 1_555 1_555
C4A C3A 1.360 1_555 1_555
H2A C4A 0.950 1_555 1_555
C5A C4A 1.422 1_555 1_555
H3A C5A 0.950 1_555 1_555
C6A C5A 1.361 1_555 1_555
H4A C6A 0.950 1_555 1_555
C7A C1 1.414 1_555 1_555
C8A C1A 1.481 1_555 1_555
H5A C8A 0.950 1_555 1_555
C9A C8A 1.333 1_555 1_555
H6A C9A 0.950 1_555 1_555
C10A C9A 1.471 1_555 1_555
C11A C10A 1.394 1_555 1_555
H7A C11A 0.950 1_555 1_555
C12A C11A 1.391 1_555 1_555
H8A C12A 0.950 1_555 1_555
C13A C12A 1.391 1_555 1_555
C14A C13A 1.395 1_555 1_555
H9A C14A 0.950 1_555 1_555
C15A C10A 1.400 1_555 1_555
H10A C15A 0.950 1_555 1_555
C16A C13A 1.509 1_555 1_555
H11A C16A 0.991 1_555 1_555
H12A C16A 0.990 1_555 1_555
C17A C16A 1.529 1_555 1_555
H13A C17A 0.990 1_555 1_555
H14A C17A 0.990 1_555 1_555
C18A C17A 1.529 1_555 1_555
H15A C18A 0.991 1_555 1_555
H16A C18A 0.990 1_555 1_555
C19A C18A 1.520 1_555 1_555
H17A C19A 0.990 1_555 1_555
H18A C19A 0.990 1_555 1_555
C20A C19A 1.508 1_555 1_555
H19A C20A 0.980 1_555 1_555
H20A C20A 0.980 1_555 1_555
H21A C20A 0.980 1_555 1_555
C6 C7 1.430 1_555 1_555
C14 C15 1.385 1_555 1_555
C2A C7A 1.442 1_555 1_555
C6A C7A 1.430 1_555 1_555
C14A C15A 1.385 1_555 1_555
#END
