
#######################################################################
#
#                 Cambridge Crystallographic Data Centre
#                                CCDC
#
#######################################################################
#
# If this CIF has been generated from an entry in the Cambridge
# Structural Database, then it will include bibliographic, chemical,
# crystal, experimental, refinement or atomic coordinate data resulting
# from the CCDC's data processing and validation procedures.
#
#######################################################################

data_CSD_CIF_CEXQUT
_audit_creation_date 2013-07-05
_audit_creation_method CSD-ConQuest-V1
_database_code_CSD CEXQUT
_database_code_depnum_ccdc_archive 'CCDC 925656'
_chemical_formula_sum 'C46 H34'
_chemical_formula_moiety
;
C46 H34
;
_journal_coden_Cambridge 241
_journal_volume 42
_journal_year 2013
_journal_page_first 592
_journal_name_full 'Chem.Lett. '
loop_
_publ_author_name
"A.Konishi"
"Y.Hirao"
"K.Matsumoto"
"H.Kurata"
"T.Kubo"
_chemical_name_systematic
;
7,14-Dimesitylphenanthro[1,10,9,8-opqra]perylene
;
_cell_volume   1535.943
_exptl_crystal_colour 'blue'
_exptl_crystal_density_diffrn 1.269
_exptl_crystal_description 'prism'
_diffrn_ambient_temperature 200
#These two values have been output from a single CSD field.
_refine_ls_R_factor_gt 0.0627
_refine_ls_wR_factor_gt 0.0627
_symmetry_cell_setting monoclinic
_symmetry_space_group_name_H-M 'P 21/c'
_symmetry_Int_Tables_number 14
loop_
_symmetry_equiv_pos_site_id
_symmetry_equiv_pos_as_xyz
1 x,y,z
2 -x,1/2+y,1/2-z
3 -x,-y,-z
4 x,-1/2-y,-1/2+z
_cell_length_a 8.6021(10)
_cell_length_b 23.618(3)
_cell_length_c 8.8170(11)
_cell_angle_alpha 90
_cell_angle_beta 120.969(3)
_cell_angle_gamma 90
_cell_formula_units_Z 2
loop_
_atom_type_symbol
_atom_type_radius_bond
C 0.68
H 0.23
loop_
_atom_site_label
_atom_site_type_symbol
_atom_site_fract_x
_atom_site_fract_y
_atom_site_fract_z
C1 C 0.6843(2) 0.10834(7) 0.2390(2)
C2 C 0.6783(2) 0.08423(7) 0.3819(2)
C3 C 0.5501(3) 0.10275(8) 0.4271(3)
H1 H 0.46550 0.13150 0.35900
C4 C 0.5471(3) 0.07967(8) 0.5669(3)
H2 H 0.46210 0.09310 0.59680
C5 C 0.6671(3) 0.03665(8) 0.6668(3)
H3 H 0.66080 0.02090 0.76270
C6 C 0.7952(2) 0.01606(7) 0.6305(2)
C7 C 0.8049(2) 0.04050(7) 0.4873(2)
C8 C 0.9367(2) 0.02222(6) 0.4478(2)
C9 C 0.9458(2) 0.04763(7) 0.3072(2)
C10 C 1.0800(2) 0.02997(7) 0.2666(2)
C11 C 1.0874(3) 0.05774(8) 0.1321(3)
H4 H 1.17910 0.04750 0.10750
C12 C 0.9640(3) 0.10038(8) 0.0311(3)
H5 H 0.97250 0.11820 -0.06090
C13 C 0.8325(3) 0.11643(8) 0.0634(2)
H6 H 0.74880 0.14510 -0.00730
C14 C 0.8181(2) 0.09098(7) 0.2017(2)
C15 C 0.5482(2) 0.15226(8) 0.1255(2)
C16 C 0.3950(3) 0.13651(8) -0.0365(3)
C17 C 0.2713(3) 0.17792(9) -0.1410(3)
H7 H 0.16770 0.16720 -0.25030
C18 C 0.2942(3) 0.23476(9) -0.0907(3)
C19 C 0.4452(3) 0.24914(8) 0.0701(3)
H8 H 0.46180 0.28750 0.10730
C20 C 0.5738(3) 0.20918(8) 0.1794(3)
C21 C 0.3637(3) 0.07569(8) -0.0987(3)
H9 H 0.23690 0.07080 -0.19300
H10 H 0.39050 0.05070 0.00050
H11 H 0.44330 0.06620 -0.14400
C22 C 0.1621(3) 0.28023(11) -0.2080(4)
H12 H 0.16810 0.31240 -0.13500
H13 H 0.03880 0.26480 -0.27030
H14 H 0.19410 0.29290 -0.29430
C23 C 0.7361(3) 0.22751(9) 0.3521(3)
H15 H 0.76530 0.26700 0.34290
H16 H 0.83990 0.20340 0.37910
H17 H 0.70870 0.22410 0.44680
C1B C 1.3157(2) -0.10834(7) 0.7610(2)
C2B C 1.3217(2) -0.08423(7) 0.6181(2)
C3B C 1.4499(3) -0.10275(8) 0.5729(3)
H1B H 1.53450 -0.13150 0.64100
C4B C 1.4529(3) -0.07967(8) 0.4331(3)
H2B H 1.53790 -0.09310 0.40320
C5B C 1.3329(3) -0.03665(8) 0.3332(3)
H3B H 1.33920 -0.02090 0.23730
C6B C 1.2048(2) -0.01606(7) 0.3695(2)
C7B C 1.1951(2) -0.04050(7) 0.5127(2)
C8B C 1.0633(2) -0.02222(6) 0.5522(2)
C9B C 1.0542(2) -0.04763(7) 0.6928(2)
C10B C 0.9200(2) -0.02997(7) 0.7334(2)
C11B C 0.9126(3) -0.05774(8) 0.8679(3)
H4B H 0.82090 -0.04750 0.89250
C12B C 1.0360(3) -0.10038(8) 0.9689(3)
H5B H 1.02750 -0.11820 1.06090
C13B C 1.1675(3) -0.11643(8) 0.9366(2)
H6B H 1.25120 -0.14510 1.00730
C14B C 1.1819(2) -0.09098(7) 0.7983(2)
C15B C 1.4518(2) -0.15226(8) 0.8745(2)
C16B C 1.6050(3) -0.13651(8) 1.0365(3)
C17B C 1.7287(3) -0.17792(9) 1.1410(3)
H7B H 1.83230 -0.16720 1.25030
C18B C 1.7058(3) -0.23476(9) 1.0907(3)
C19B C 1.5548(3) -0.24914(8) 0.9299(3)
H8B H 1.53820 -0.28750 0.89270
C20B C 1.4262(3) -0.20918(8) 0.8206(3)
C21B C 1.6363(3) -0.07569(8) 1.0987(3)
H9B H 1.76310 -0.07080 1.19300
H10B H 1.60950 -0.05070 0.99950
H11B H 1.55670 -0.06620 1.14400
C22B C 1.8379(3) -0.28023(11) 1.2080(4)
H12B H 1.83190 -0.31240 1.13500
H13B H 1.96120 -0.26480 1.27030
H14B H 1.80590 -0.29290 1.29430
C23B C 1.2639(3) -0.22751(9) 0.6479(3)
H15B H 1.23470 -0.26700 0.65710
H16B H 1.16010 -0.20340 0.62090
H17B H 1.29130 -0.22410 0.55320
loop_
_geom_bond_atom_site_label_1
_geom_bond_atom_site_label_2
_geom_bond_distance
_geom_bond_site_symmetry_1
_geom_bond_site_symmetry_2
C1 C2 1.408 1_555 1_555
C2 C3 1.421 1_555 1_555
C3 H1 0.949 1_555 1_555
C4 C3 1.360 1_555 1_555
H2 C4 0.950 1_555 1_555
C5 C4 1.392 1_555 1_555
H3 C5 0.950 1_555 1_555
C6 C5 1.384 1_555 1_555
C7 C2 1.440 1_555 1_555
C8 C7 1.414 1_555 1_555
C9 C8 1.415 1_555 1_555
C10 C9 1.435 1_555 1_555
C11 C10 1.385 1_555 1_555
H4 C11 0.951 1_555 1_555
C12 C11 1.400 1_555 1_555
H5 C12 0.949 1_555 1_555
C13 C12 1.355 1_555 1_555
H6 C13 0.951 1_555 1_555
C14 C1 1.411 1_555 1_555
C15 C1 1.497 1_555 1_555
C16 C15 1.406 1_555 1_555
C17 C16 1.389 1_555 1_555
H7 C17 0.950 1_555 1_555
C18 C17 1.396 1_555 1_555
C19 C18 1.385 1_555 1_555
H8 C19 0.949 1_555 1_555
C20 C15 1.405 1_555 1_555
C21 C16 1.512 1_555 1_555
H9 C21 0.980 1_555 1_555
H10 C21 0.979 1_555 1_555
H11 C21 0.980 1_555 1_555
C22 C18 1.518 1_555 1_555
H12 C22 0.980 1_555 1_555
H13 C22 0.980 1_555 1_555
H14 C22 0.980 1_555 1_555
C23 C20 1.506 1_555 1_555
H15 C23 0.980 1_555 1_555
H16 C23 0.980 1_555 1_555
H17 C23 0.981 1_555 1_555
C1B C2B 1.408 1_555 1_555
C2B C3B 1.421 1_555 1_555
C3B H1B 0.949 1_555 1_555
C4B C3B 1.360 1_555 1_555
H2B C4B 0.950 1_555 1_555
C5B C4B 1.392 1_555 1_555
H3B C5B 0.950 1_555 1_555
C6B C10 1.468 1_555 1_555
C7B C2B 1.440 1_555 1_555
C8B C8 1.450 1_555 1_555
C9B C8B 1.415 1_555 1_555
C10B C6 1.468 1_555 1_555
C11B C10B 1.385 1_555 1_555
H4B C11B 0.951 1_555 1_555
C12B C11B 1.400 1_555 1_555
H5B C12B 0.949 1_555 1_555
C13B C12B 1.355 1_555 1_555
H6B C13B 0.951 1_555 1_555
C14B C1B 1.411 1_555 1_555
C15B C1B 1.497 1_555 1_555
C16B C15B 1.406 1_555 1_555
C17B C16B 1.389 1_555 1_555
H7B C17B 0.950 1_555 1_555
C18B C17B 1.396 1_555 1_555
C19B C18B 1.385 1_555 1_555
H8B C19B 0.949 1_555 1_555
C20B C15B 1.405 1_555 1_555
C21B C16B 1.512 1_555 1_555
H9B C21B 0.980 1_555 1_555
H10B C21B 0.979 1_555 1_555
H11B C21B 0.980 1_555 1_555
C22B C18B 1.518 1_555 1_555
H12B C22B 0.980 1_555 1_555
H13B C22B 0.980 1_555 1_555
H14B C22B 0.980 1_555 1_555
C23B C20B 1.506 1_555 1_555
H15B C23B 0.980 1_555 1_555
H16B C23B 0.980 1_555 1_555
H17B C23B 0.981 1_555 1_555
C6 C7 1.429 1_555 1_555
C9 C14 1.438 1_555 1_555
C13 C14 1.421 1_555 1_555
C19 C20 1.395 1_555 1_555
C5B C6B 1.384 1_555 1_555
C6B C7B 1.429 1_555 1_555
C7B C8B 1.414 1_555 1_555
C9B C10B 1.435 1_555 1_555
C9B C14B 1.438 1_555 1_555
C13B C14B 1.421 1_555 1_555
C19B C20B 1.395 1_555 1_555
#END
