
#######################################################################
#
#                 Cambridge Crystallographic Data Centre
#                                CCDC
#
#######################################################################
#
# If this CIF has been generated from an entry in the Cambridge
# Structural Database, then it will include bibliographic, chemical,
# crystal, experimental, refinement or atomic coordinate data resulting
# from the CCDC's data processing and validation procedures.
#
#######################################################################

data_CSD_CIF_CISFOZ
_audit_creation_date 1985-03-28
_audit_creation_method CSD-ConQuest-V1
_database_code_CSD CISFOZ
_chemical_formula_sum 'C22 H18'
_chemical_formula_moiety
;
C22 H18
;
_journal_coeditor_code "IUCr A23895"
_journal_coden_Cambridge 591
_journal_volume 40
_journal_year 1984
_journal_page_first 1612
_journal_name_full 'Acta Crystallogr.,Sect.C:Cryst.Struct.Commun. '
loop_
_publ_author_name
"M.Kimura"
"S.Kashino"
"S.Morosawa"
"M.Haisa"
_chemical_name_systematic
;
exo-(8bRS,8cSR,12aRS,12bSR)-8b,8c,9,10,12a,12b-Hexahydrobenzocyclobuta(1,2-e)p
yrene
;
_chemical_melting_point 404.5
_cell_volume   1462.657
_exptl_crystal_colour 'colorless'
_exptl_crystal_density_diffrn 1.282
_exptl_special_details
;
Melting point range 404.5-405.5K

;
_diffrn_ambient_temperature ?
_diffrn_special_details
;
The study was carried out at room temperature,in the range 283-303K

;
#These two values have been output from a single CSD field.
_refine_ls_R_factor_gt 0.05
_refine_ls_wR_factor_gt 0.05
_symmetry_cell_setting monoclinic
_symmetry_space_group_name_H-M 'P 21/a'
_symmetry_Int_Tables_number 14
loop_
_symmetry_equiv_pos_site_id
_symmetry_equiv_pos_as_xyz
1 x,y,z
2 1/2-x,1/2+y,-z
3 -x,-y,-z
4 -1/2+x,-1/2-y,z
_cell_length_a 21.698(2)
_cell_length_b 13.240(1)
_cell_length_c 5.1026(4)
_cell_angle_alpha 90
_cell_angle_beta 93.802(7)
_cell_angle_gamma 90
_cell_formula_units_Z 4
loop_
_atom_type_symbol
_atom_type_radius_bond
C 0.68
H 0.23
loop_
_atom_site_label
_atom_site_type_symbol
_atom_site_fract_x
_atom_site_fract_y
_atom_site_fract_z
C1 C 0.74718(9) 0.2484(2) 0.3383(4)
C2 C 0.81020(1) 0.2623(2) 0.4064(5)
C3 C 0.82864(9) 0.3276(2) 0.6041(5)
C4 C 0.80400(1) 0.4512(2) 0.9467(4)
C5 C 0.76250(1) 0.5068(2) 1.0674(4)
C6 C 0.65540(1) 0.5661(2) 1.1016(5)
C7 C 0.59440(1) 0.5646(2) 1.0145(5)
C8 C 0.57380(1) 0.4976(2) 0.8184(5)
C9 C 0.49630(1) 0.2394(2) 0.4310(5)
C10 C 0.49560(1) 0.1592(2) 0.2763(5)
C11 C 0.54870(1) 0.0893(2) 0.2604(5)
C12 C 0.59440(1) 0.0947(2) 0.4964(4)
C13 C 0.78540(9) 0.3830(2) 0.7367(4)
C14 C 0.69800(1) 0.5022(1) 0.9871(4)
C15 C 0.67724(9) 0.4338(1) 0.7882(4)
C16 C 0.72170(8) 0.3717(1) 0.6624(4)
C17 C 0.61366(9) 0.4316(1) 0.7050(4)
C18 C 0.58863(8) 0.3593(1) 0.4976(4)
C19 C 0.54991(9) 0.2709(2) 0.6102(4)
C20 C 0.60663(8) 0.2015(1) 0.5926(4)
C21 C 0.63570(8) 0.2803(1) 0.4096(4)
C22 C 0.70312(8) 0.3011(1) 0.4659(4)
H1 H 0.732(1) 0.201(2) 0.193(4)
H2 H 0.839(1) 0.222(2) 0.311(5)
H3 H 0.874(1) 0.337(2) 0.655(4)
H4 H 0.850(1) 0.457(2) 0.997(5)
H5 H 0.775(1) 0.555(2) 1.215(5)
H6 H 0.672(1) 0.615(2) 1.253(5)
H7 H 0.565(1) 0.613(2) 1.099(5)
H8 H 0.528(1) 0.498(2) 0.758(4)
H9 H 0.459(1) 0.287(2) 0.430(5)
H10 H 0.458(1) 0.145(2) 0.165(5)
H11 H 0.573(1) 0.106(2) 0.089(5)
H12 H 0.532(1) 0.012(2) 0.237(5)
H13 H 0.633(1) 0.058(2) 0.454(4)
H14 H 0.575(1) 0.055(2) 0.652(2)
H15 H 0.5657(9) 0.399(2) 0.354(4)
H16 H 0.5350(1) 0.284(2) 0.792(4)
H17 H 0.6323(9) 0.200(1) 0.762(4)
H18 H 0.6280(1) 0.259(2) 0.222(4)
loop_
_geom_bond_atom_site_label_1
_geom_bond_atom_site_label_2
_geom_bond_distance
_geom_bond_site_symmetry_1
_geom_bond_site_symmetry_2
C1 C2 1.401 1_555 1_555
C2 C3 1.368 1_555 1_555
C3 C13 1.400 1_555 1_555
C4 C5 1.344 1_555 1_555
C5 C14 1.433 1_555 1_555
C6 C7 1.368 1_555 1_555
C7 C8 1.389 1_555 1_555
C8 C17 1.383 1_555 1_555
C9 C10 1.323 1_555 1_555
C10 C11 1.484 1_555 1_555
C11 C12 1.510 1_555 1_555
C12 C20 1.514 1_555 1_555
C13 C4 1.438 1_555 1_555
C14 C6 1.408 1_555 1_555
C15 C14 1.412 1_555 1_555
C16 C13 1.417 1_555 1_555
C17 C15 1.417 1_555 1_555
C18 C17 1.502 1_555 1_555
C19 C9 1.491 1_555 1_555
C20 C19 1.543 1_555 1_555
C21 C18 1.549 1_555 1_555
C22 C1 1.381 1_555 1_555
H1 C1 1.010 1_555 1_555
H2 C2 0.976 1_555 1_555
H3 C3 1.009 1_555 1_555
H4 C4 1.017 1_555 1_555
H5 C5 1.010 1_555 1_555
H6 C6 1.053 1_555 1_555
H7 C7 1.020 1_555 1_555
H8 C8 1.021 1_555 1_555
H9 C9 1.026 1_555 1_555
H10 C10 0.981 1_555 1_555
H11 C11 1.074 1_555 1_555
H12 C11 1.090 1_555 1_555
H13 C12 1.004 1_555 1_555
H14 C12 1.062 1_555 1_555
H15 C18 1.006 1_555 1_555
H16 C19 1.017 1_555 1_555
H17 C20 0.997 1_555 1_555
H18 C21 1.001 1_555 1_555
C15 C16 1.449 1_555 1_555
C16 C22 1.410 1_555 1_555
C18 C19 1.572 1_555 1_555
C20 C21 1.561 1_555 1_555
C21 C22 1.498 1_555 1_555
#END
