
#######################################################################
#
#                 Cambridge Crystallographic Data Centre
#                                CCDC
#
#######################################################################
#
# If this CIF has been generated from an entry in the Cambridge
# Structural Database, then it will include bibliographic, chemical,
# crystal, experimental, refinement or atomic coordinate data resulting
# from the CCDC's data processing and validation procedures.
#
#######################################################################

data_CSD_CIF_CIWRAB
_audit_creation_date 1985-05-09
_audit_creation_method CSD-ConQuest-V1
_database_code_CSD CIWRAB
_database_code_depnum_ccdc_archive 'CCDC 1126628'
_chemical_formula_sum 'C27 H16'
_chemical_formula_moiety
;
C27 H16
;
_journal_coden_Cambridge 54
_journal_volume 93
_journal_year 1984
_journal_page_first 449
_journal_name_full 'Bull.Soc.Chim.Belg. '
loop_
_publ_author_name
"M.van Meerssche"
"J.P.Declercq"
"G.Germain"
"B.Soubrier-Payen"
_chemical_name_systematic
;
15bH-Benzo(cd)(benzo(6,7)cyclohepta)(1,2,3-fd)pyrene
;
_cell_volume    830.248
_exptl_crystal_density_diffrn 1.36
_diffrn_ambient_temperature ?
_diffrn_special_details
;
The study was carried out at room temperature,in the range 283-303K

;
#These two values have been output from a single CSD field.
_refine_ls_R_factor_gt 0.034
_refine_ls_wR_factor_gt 0.034
_symmetry_cell_setting monoclinic
_symmetry_space_group_name_H-M 'P 21'
_symmetry_Int_Tables_number 4
loop_
_symmetry_equiv_pos_site_id
_symmetry_equiv_pos_as_xyz
1 x,y,z
2 -x,1/2+y,-z
_cell_length_a 15.918(4)
_cell_length_b 10.864(3)
_cell_length_c 4.825(2)
_cell_angle_alpha 90
_cell_angle_beta 95.72(2)
_cell_angle_gamma 90
_cell_formula_units_Z 2
loop_
_atom_type_symbol
_atom_type_radius_bond
C 0.68
H 0.23
loop_
_atom_site_label
_atom_site_type_symbol
_atom_site_fract_x
_atom_site_fract_y
_atom_site_fract_z
C1 C 0.34645 0.75132 0.44004
C2 C 0.42002 0.70767 0.34819
C3 C 0.49922 0.75314 0.45772
C4 C 0.50420 0.84222 0.65898
C5 C 0.43354 0.98323 0.97033
C6 C 0.36177 1.02994 1.05619
C7 C 0.20453 1.04600 1.01293
C8 C 0.12819 1.01696 0.88111
C9 C 0.04218 0.89836 0.52086
C10 C 0.03649 0.81100 0.31618
C11 C 0.09623 0.64836 0.03650
C12 C 0.13375 0.53756 0.04141
C13 C 0.18643 0.36484 0.34118
C14 C 0.23723 0.31452 0.56228
C15 C 0.29617 0.38937 0.71539
C16 C 0.30378 0.51113 0.64264
C17 C 0.25346 0.56311 0.41948
C18 C 0.19281 0.48923 0.26986
C19 C 0.18605 0.76908 0.39539
C20 C 0.10777 0.74327 0.25181
C21 C 0.19355 0.86250 0.59911
C22 C 0.12081 0.92665 0.66755
C23 C 0.27491 0.89868 0.73111
C24 C 0.28067 0.99072 0.93536
C25 C 0.35056 0.84457 0.64463
C26 C 0.43032 0.89016 0.75831
C27 C 0.26304 0.69673 0.32680
H1 H 0.42177 0.63740 0.19939
H2 H 0.54813 0.72182 0.37638
H3 H 0.56262 0.87009 0.73045
H4 H 0.48720 1.00538 1.05243
H5 H 0.36725 1.09020 1.20226
H6 H 0.21657 1.11152 1.15798
H7 H 0.07151 1.06350 0.92101
H8 H -0.01051 0.94326 0.56119
H9 H -0.01878 0.79335 0.19939
H10 H 0.05064 0.66533 -0.12921
H11 H 0.12178 0.47642 -0.12205
H12 H 0.14597 0.31043 0.22215
H13 H 0.23015 0.22728 0.62811
H14 H 0.33456 0.35321 0.87170
H15 H 0.34958 0.56160 0.75769
H16 H 0.26141 0.69777 0.12033
loop_
_geom_bond_atom_site_label_1
_geom_bond_atom_site_label_2
_geom_bond_distance
_geom_bond_site_symmetry_1
_geom_bond_site_symmetry_2
C1 C2 1.377 1_555 1_555
C2 C3 1.407 1_555 1_555
C3 C4 1.368 1_555 1_555
C4 C26 1.413 1_555 1_555
C5 C6 1.352 1_555 1_555
C6 C24 1.428 1_555 1_555
C7 C8 1.352 1_555 1_555
C8 C22 1.419 1_555 1_555
C9 C10 1.366 1_555 1_555
C10 C20 1.413 1_555 1_555
C11 C12 1.343 1_555 1_555
C12 C18 1.472 1_555 1_555
C13 C14 1.385 1_555 1_555
C14 C15 1.396 1_555 1_555
C15 C16 1.377 1_555 1_555
C16 C17 1.396 1_555 1_555
C17 C18 1.399 1_555 1_555
C18 C13 1.401 1_555 1_555
C19 C20 1.393 1_555 1_555
C20 C11 1.462 1_555 1_555
C21 C19 1.410 1_555 1_555
C22 C9 1.409 1_555 1_555
C23 C21 1.440 1_555 1_555
C24 C7 1.435 1_555 1_555
C25 C1 1.411 1_555 1_555
C26 C5 1.436 1_555 1_555
C27 C1 1.506 1_555 1_555
H1 C2 1.050 1_555 1_555
H2 C3 0.968 1_555 1_555
H3 C4 1.006 1_555 1_555
H4 C5 0.936 1_555 1_555
H5 C6 0.960 1_555 1_555
H6 C7 1.003 1_555 1_555
H7 C8 1.068 1_555 1_555
H8 C9 1.006 1_555 1_555
H9 C10 1.015 1_555 1_555
H10 C11 1.041 1_555 1_555
H11 C12 1.034 1_555 1_555
H12 C13 1.010 1_555 1_555
H13 C14 1.009 1_555 1_555
H14 C15 1.002 1_555 1_555
H15 C16 1.029 1_555 1_555
H16 C27 0.994 1_555 1_555
C17 C27 1.531 1_555 1_555
C19 C27 1.520 1_555 1_555
C21 C22 1.418 1_555 1_555
C23 C24 1.401 1_555 1_555
C23 C25 1.439 1_555 1_555
C25 C26 1.421 1_555 1_555
#END
