
#######################################################################
#
#                 Cambridge Crystallographic Data Centre
#                                CCDC
#
#######################################################################
#
# If this CIF has been generated from an entry in the Cambridge
# Structural Database, then it will include bibliographic, chemical,
# crystal, experimental, refinement or atomic coordinate data resulting
# from the CCDC's data processing and validation procedures.
#
#######################################################################

data_CSD_CIF_CIZCOE
_audit_creation_date 2008-08-28
_audit_creation_method CSD-ConQuest-V1
_database_code_CSD CIZCOE
_database_code_depnum_ccdc_archive 'CCDC 671509'
_chemical_formula_sum 'C36 H34'
_chemical_formula_moiety
;
C36 H34
;
_journal_coden_Cambridge 1145
_journal_volume 18
_journal_year 2008
_journal_page_first 1961
_journal_name_full 'J.Mater.Chem. '
loop_
_publ_author_name
"Jihua Chen"
"S.Subramanian"
"S.R.Parkin"
"M.Siegler"
"K.Gallup"
"C.Haughn"
"D.C.Martin"
"J.E.Anthony"
_chemical_name_systematic
;
6,13-bis(n-Heptynyl)pentacene
;
_cell_volume   1293.065
_exptl_crystal_colour 'blue'
_exptl_crystal_density_diffrn 1.198
_exptl_crystal_description 'thin rod'
_exptl_crystal_preparation 'hexanes'
_diffrn_ambient_temperature 90.0
#These two values have been output from a single CSD field.
_refine_ls_R_factor_gt 0.051
_refine_ls_wR_factor_gt 0.051
_symmetry_cell_setting monoclinic
_symmetry_space_group_name_H-M 'P 21/n'
_symmetry_Int_Tables_number 14
loop_
_symmetry_equiv_pos_site_id
_symmetry_equiv_pos_as_xyz
1 x,y,z
2 1/2-x,1/2+y,1/2-z
3 -x,-y,-z
4 -1/2+x,-1/2-y,-1/2+z
_cell_length_a 12.3212(3)
_cell_length_b 5.1420(2)
_cell_length_c 20.8030(7)
_cell_angle_alpha 90
_cell_angle_beta 101.1599(12)
_cell_angle_gamma 90
_cell_formula_units_Z 2
loop_
_atom_type_symbol
_atom_type_radius_bond
C 0.68
H 0.23
loop_
_atom_site_label
_atom_site_type_symbol
_atom_site_fract_x
_atom_site_fract_y
_atom_site_fract_z
C1 C 0.51308(16) 0.6924(3) 0.45304(9)
C2 C 0.59302(15) 0.6709(3) 0.51191(9)
C3 C 0.68524(16) 0.8370(4) 0.52584(9)
H1 H 0.69480 0.96470 0.49440
C4 C 0.76261(16) 0.8216(4) 0.58359(9)
C5 C 0.85579(16) 0.9916(4) 0.59835(10)
H2 H 0.86600 1.12090 0.56750
C6 C 0.92984(16) 0.9725(4) 0.65542(10)
H3 H 0.99140 1.08730 0.66410
C7 C 0.91560(17) 0.7800(4) 0.70268(10)
H4 H 0.96800 0.76780 0.74260
C8 C 0.82877(16) 0.6155(4) 0.6913(1)
H5 H 0.82080 0.48930 0.72340
C9 C 0.74823(16) 0.6280(4) 0.63155(9)
C10 C 0.65873(16) 0.4610(4) 0.61796(9)
H6 H 0.65060 0.33180 0.64930
C11 C 0.42075(15) 0.5251(4) 0.44050(9)
C12 C 0.52704(16) 0.8852(4) 0.4057(1)
C13 C 0.53886(15) 1.0482(4) 0.36626(9)
C14 C 0.55413(16) 1.2466(4) 0.31833(9)
H7 H 0.55200 1.42070 0.33840
H8 H 0.49200 1.23640 0.28030
C15 C 0.66353(16) 1.2163(4) 0.29431(9)
H9 H 0.66420 1.04390 0.27320
H10 H 0.66670 1.35000 0.26050
C16 C 0.76687(16) 1.2404(4) 0.34758(9)
H11 H 0.76350 1.10790 0.38170
H12 H 0.83240 1.20140 0.32820
C17 C 0.78237(16) 1.5054(4) 0.37989(10)
H13 H 0.72010 1.53910 0.40250
H14 H 0.78030 1.63990 0.34560
C18 C 0.89100(17) 1.5294(4) 0.42930(11)
H15 H 0.89210 1.40260 0.46460
H16 H 0.89760 1.70540 0.44770
H17 H 0.95310 1.49560 0.40730
C1B C 0.48692(16) 0.3076(3) 0.54696(9)
C2B C 0.40698(15) 0.3291(3) 0.48809(9)
C3B C 0.31476(16) 0.1630(4) 0.47416(9)
H1B H 0.30520 0.03530 0.50560
C4B C 0.23739(16) 0.1784(4) 0.41641(9)
C5B C 0.14421(16) 0.0084(4) 0.40165(10)
H2B H 0.13400 -0.12090 0.43250
C6B C 0.07016(16) 0.0275(4) 0.34458(10)
H3B H 0.00860 -0.08730 0.33590
C7B C 0.08440(17) 0.2200(4) 0.29732(10)
H4B H 0.03200 0.23220 0.25740
C8B C 0.17123(16) 0.3845(4) 0.3087(1)
H5B H 0.17920 0.51070 0.27660
C9B C 0.25177(16) 0.3720(4) 0.36845(9)
C10B C 0.34127(16) 0.5390(4) 0.38204(9)
H6B H 0.34940 0.66820 0.35070
C11B C 0.57925(15) 0.4749(4) 0.55950(9)
C12B C 0.47296(16) 0.1148(4) 0.5943(1)
C13B C 0.46114(15) -0.0482(4) 0.63374(9)
C14B C 0.44587(16) -0.2466(4) 0.68167(9)
H7B H 0.44800 -0.42070 0.66160
H8B H 0.50800 -0.23640 0.71970
C15B C 0.33647(16) -0.2163(4) 0.70569(9)
H9B H 0.33580 -0.04390 0.72680
H10B H 0.33330 -0.35000 0.73950
C16B C 0.23313(16) -0.2404(4) 0.65242(9)
H11B H 0.23650 -0.10790 0.61830
H12B H 0.16760 -0.20140 0.67180
C17B C 0.21763(16) -0.5054(4) 0.62011(10)
H13B H 0.27990 -0.53910 0.59750
H14B H 0.21970 -0.63990 0.65440
C18B C 0.10900(17) -0.5294(4) 0.57070(11)
H15B H 0.10790 -0.40260 0.53540
H16B H 0.10240 -0.70540 0.55230
H17B H 0.04690 -0.49560 0.59270
loop_
_geom_bond_atom_site_label_1
_geom_bond_atom_site_label_2
_geom_bond_distance
_geom_bond_site_symmetry_1
_geom_bond_site_symmetry_2
C1 C2 1.420 1_555 1_555
C2 C3 1.406 1_555 1_555
C3 H1 0.950 1_555 1_555
C4 C3 1.384 1_555 1_555
C5 C4 1.428 1_555 1_555
H2 C5 0.949 1_555 1_555
C6 C5 1.354 1_555 1_555
H3 C6 0.950 1_555 1_555
C7 C6 1.430 1_555 1_555
H4 C7 0.950 1_555 1_555
C8 C7 1.348 1_555 1_555
H5 C8 0.950 1_555 1_555
C9 C4 1.444 1_555 1_555
C10 C9 1.383 1_555 1_555
H6 C10 0.950 1_555 1_555
C11 C1 1.410 1_555 1_555
C12 C1 1.431 1_555 1_555
C13 C12 1.201 1_555 1_555
C14 C13 1.464 1_555 1_555
H7 C14 0.990 1_555 1_555
H8 C14 0.990 1_555 1_555
C15 C14 1.534 1_555 1_555
H9 C15 0.990 1_555 1_555
H10 C15 0.990 1_555 1_555
C16 C15 1.523 1_555 1_555
H11 C16 0.991 1_555 1_555
H12 C16 0.990 1_555 1_555
C17 C16 1.515 1_555 1_555
H13 C17 0.990 1_555 1_555
H14 C17 0.990 1_555 1_555
C18 C17 1.527 1_555 1_555
H15 C18 0.980 1_555 1_555
H16 C18 0.980 1_555 1_555
H17 C18 0.980 1_555 1_555
C1B C2B 1.420 1_555 1_555
C2B C11 1.446 1_555 1_555
C3B C2B 1.406 1_555 1_555
H1B C3B 0.950 1_555 1_555
C4B C3B 1.384 1_555 1_555
C5B C4B 1.428 1_555 1_555
H2B C5B 0.949 1_555 1_555
C6B C5B 1.354 1_555 1_555
H3B C6B 0.950 1_555 1_555
C7B C6B 1.430 1_555 1_555
H4B C7B 0.950 1_555 1_555
C8B C7B 1.348 1_555 1_555
H5B C8B 0.950 1_555 1_555
C9B C4B 1.444 1_555 1_555
C10B C11 1.408 1_555 1_555
H6B C10B 0.950 1_555 1_555
C11B C2 1.446 1_555 1_555
C12B C1B 1.431 1_555 1_555
C13B C12B 1.201 1_555 1_555
C14B C13B 1.464 1_555 1_555
H7B C14B 0.990 1_555 1_555
H8B C14B 0.990 1_555 1_555
C15B C14B 1.534 1_555 1_555
H9B C15B 0.990 1_555 1_555
H10B C15B 0.990 1_555 1_555
C16B C15B 1.523 1_555 1_555
H11B C16B 0.991 1_555 1_555
H12B C16B 0.990 1_555 1_555
C17B C16B 1.515 1_555 1_555
H13B C17B 0.990 1_555 1_555
H14B C17B 0.990 1_555 1_555
C18B C17B 1.527 1_555 1_555
H15B C18B 0.980 1_555 1_555
H16B C18B 0.980 1_555 1_555
H17B C18B 0.980 1_555 1_555
C8 C9 1.434 1_555 1_555
C10 C11B 1.408 1_555 1_555
C1B C11B 1.410 1_555 1_555
C8B C9B 1.434 1_555 1_555
C9B C10B 1.383 1_555 1_555
#END
