
#######################################################################
#
#                 Cambridge Crystallographic Data Centre
#                                CCDC
#
#######################################################################
#
# If this CIF has been generated from an entry in the Cambridge
# Structural Database, then it will include bibliographic, chemical,
# crystal, experimental, refinement or atomic coordinate data resulting
# from the CCDC's data processing and validation procedures.
#
#######################################################################

data_CSD_CIF_CIZCIY
_audit_creation_date 2008-08-28
_audit_creation_method CSD-ConQuest-V1
_database_code_CSD CIZCIY
_database_code_depnum_ccdc_archive 'CCDC 671508'
_chemical_formula_sum 'C38 H38'
_chemical_formula_moiety
;
C38 H38
;
_journal_coden_Cambridge 1145
_journal_volume 18
_journal_year 2008
_journal_page_first 1961
_journal_name_full 'J.Mater.Chem. '
loop_
_publ_author_name
"Jihua Chen"
"S.Subramanian"
"S.R.Parkin"
"M.Siegler"
"K.Gallup"
"C.Haughn"
"D.C.Martin"
"J.E.Anthony"
_chemical_name_systematic
;
6,13-bis(n-Octynyl)pentacene
;
_chemical_melting_point 396.15
_cell_volume    717.917
_exptl_crystal_colour 'blue'
_exptl_crystal_density_diffrn 1.144
_exptl_crystal_description 'needle'
_exptl_crystal_preparation 'hexanes'
_diffrn_ambient_temperature 90
#These two values have been output from a single CSD field.
_refine_ls_R_factor_gt 0.0474
_refine_ls_wR_factor_gt 0.0474
_symmetry_cell_setting triclinic
_symmetry_space_group_name_H-M 'P -1'
_symmetry_Int_Tables_number 2
loop_
_symmetry_equiv_pos_site_id
_symmetry_equiv_pos_as_xyz
1 x,y,z
2 -x,-y,-z
_cell_length_a 6.6368(1)
_cell_length_b 8.3446(2)
_cell_length_c 13.7421(3)
_cell_angle_alpha 105.5261(9)
_cell_angle_beta 100.2523(9)
_cell_angle_gamma 92.7360(9)
_cell_formula_units_Z 1
loop_
_atom_type_symbol
_atom_type_radius_bond
C 0.68
H 0.23
loop_
_atom_site_label
_atom_site_type_symbol
_atom_site_fract_x
_atom_site_fract_y
_atom_site_fract_z
C1 C 0.3167(2) 0.58226(19) 0.49429(11)
C2 C 0.3829(2) 0.50182(18) 0.40214(11)
C3 C 0.2723(2) 0.50037(19) 0.30454(12)
H1 H 0.14670 0.55040 0.30010
C4 C 0.3407(2) 0.42830(19) 0.21471(12)
C5 C 0.2314(3) 0.4299(2) 0.11542(12)
H2 H 0.10490 0.47860 0.10980
C6 C 0.3062(3) 0.3625(2) 0.02893(13)
H3 H 0.23280 0.36650 -0.03630
C7 C 0.4932(3) 0.2865(2) 0.03558(13)
H4 H 0.54330 0.23920 -0.02540
C8 C 0.6008(3) 0.2806(2) 0.12776(13)
H5 H 0.72520 0.22860 0.13050
C9 C 0.5308(2) 0.35123(19) 0.22112(12)
C10 C 0.6379(2) 0.34780(19) 0.31624(12)
H6 H 0.76130 0.29460 0.31970
C11 C 0.4293(2) 0.57967(18) 0.59168(11)
C12 C 0.1360(2) 0.66897(19) 0.48851(11)
C13 C -0.0122(2) 0.74409(19) 0.48461(11)
C14 C -0.1981(2) 0.83236(19) 0.47558(11)
H7 H -0.16490 0.94940 0.51910
H8 H -0.30460 0.77880 0.50200
C15 C -0.2850(2) 0.83215(19) 0.36485(11)
H9 H -0.18090 0.89030 0.33940
H10 H -0.31270 0.71530 0.32070
C16 C -0.4820(2) 0.91708(19) 0.35567(11)
H11 H -0.58270 0.86340 0.38540
H12 H -0.45200 1.03570 0.39670
C17 C -0.5783(2) 0.90919(19) 0.24554(11)
H13 H -0.59810 0.79100 0.20340
H14 H -0.48180 0.97050 0.21760
C18 C -0.7840(2) 0.9823(2) 0.23495(12)
H15 H -0.76470 1.10040 0.27710
H16 H -0.88110 0.92070 0.26240
C19 C -0.8779(3) 0.9739(2) 0.12388(12)
H17 H -0.78560 1.03920 0.09730
H18 H -1.01130 1.01980 0.12140
H19 H -0.89720 0.85730 0.08160
C1A C 0.6833(2) 0.41774(19) 0.50571(11)
C2A C 0.6171(2) 0.49818(18) 0.59786(11)
C3A C 0.7277(2) 0.49963(19) 0.69546(12)
H1A H 0.85330 0.44960 0.69990
C4A C 0.6593(2) 0.57170(19) 0.78529(12)
C5A C 0.7686(3) 0.5701(2) 0.88458(12)
H2A H 0.89510 0.52140 0.89020
C6A C 0.6938(3) 0.6375(2) 0.97107(13)
H3A H 0.76720 0.63350 1.03630
C7A C 0.5068(3) 0.7135(2) 0.96442(13)
H4A H 0.45670 0.76080 1.02540
C8A C 0.3992(3) 0.7194(2) 0.87224(13)
H5A H 0.27480 0.77140 0.86950
C9A C 0.4692(2) 0.64877(19) 0.77888(12)
C10A C 0.3621(2) 0.65220(19) 0.68376(12)
H6A H 0.23870 0.70540 0.68030
C11A C 0.5707(2) 0.42033(18) 0.40832(11)
C12A C 0.8640(2) 0.33103(19) 0.51149(11)
C13A C 1.0122(2) 0.25591(19) 0.51539(11)
C14A C 1.1981(2) 0.16764(19) 0.52442(11)
H7A H 1.16490 0.05060 0.48090
H8A H 1.30460 0.22120 0.49800
C15A C 1.2850(2) 0.16785(19) 0.63515(11)
H9A H 1.18090 0.10970 0.66060
H10A H 1.31270 0.28470 0.67930
C16A C 1.4820(2) 0.08292(19) 0.64433(11)
H11A H 1.58270 0.13660 0.61460
H12A H 1.45200 -0.03570 0.60330
C17A C 1.5783(2) 0.09081(19) 0.75446(11)
H13A H 1.59810 0.20900 0.79660
H14A H 1.48180 0.02950 0.78240
C18A C 1.7840(2) 0.0177(2) 0.76505(12)
H15A H 1.76470 -0.10040 0.72290
H16A H 1.88110 0.07930 0.73760
C19A C 1.8779(3) 0.0261(2) 0.87612(12)
H17A H 1.78560 -0.03920 0.90270
H18A H 2.01130 -0.01980 0.87860
H19A H 1.89720 0.14270 0.91840
loop_
_geom_bond_atom_site_label_1
_geom_bond_atom_site_label_2
_geom_bond_distance
_geom_bond_site_symmetry_1
_geom_bond_site_symmetry_2
C1 C2 1.421 1_555 1_555
C2 C3 1.406 1_555 1_555
C3 H1 0.950 1_555 1_555
C4 C3 1.386 1_555 1_555
C5 C4 1.431 1_555 1_555
H2 C5 0.950 1_555 1_555
C6 C5 1.362 1_555 1_555
H3 C6 0.951 1_555 1_555
C7 C6 1.420 1_555 1_555
H4 C7 0.950 1_555 1_555
C8 C7 1.353 1_555 1_555
H5 C8 0.950 1_555 1_555
C9 C4 1.443 1_555 1_555
C10 C9 1.381 1_555 1_555
H6 C10 0.950 1_555 1_555
C11 C1 1.418 1_555 1_555
C12 C1 1.431 1_555 1_555
C13 C12 1.192 1_555 1_555
C14 C13 1.470 1_555 1_555
H7 C14 0.990 1_555 1_555
H8 C14 0.990 1_555 1_555
C15 C14 1.528 1_555 1_555
H9 C15 0.990 1_555 1_555
H10 C15 0.990 1_555 1_555
C16 C15 1.518 1_555 1_555
H11 C16 0.990 1_555 1_555
H12 C16 0.990 1_555 1_555
C17 C16 1.517 1_555 1_555
H13 C17 0.990 1_555 1_555
H14 C17 0.990 1_555 1_555
C18 C17 1.521 1_555 1_555
H15 C18 0.989 1_555 1_555
H16 C18 0.990 1_555 1_555
C19 C18 1.524 1_555 1_555
H17 C19 0.980 1_555 1_555
H18 C19 0.980 1_555 1_555
H19 C19 0.980 1_555 1_555
C1A C2A 1.421 1_555 1_555
C2A C11 1.448 1_555 1_555
C3A C2A 1.406 1_555 1_555
H1A C3A 0.950 1_555 1_555
C4A C3A 1.386 1_555 1_555
C5A C4A 1.431 1_555 1_555
H2A C5A 0.950 1_555 1_555
C6A C5A 1.362 1_555 1_555
H3A C6A 0.951 1_555 1_555
C7A C6A 1.420 1_555 1_555
H4A C7A 0.950 1_555 1_555
C8A C7A 1.353 1_555 1_555
H5A C8A 0.950 1_555 1_555
C9A C4A 1.443 1_555 1_555
C10A C11 1.408 1_555 1_555
H6A C10A 0.950 1_555 1_555
C11A C2 1.448 1_555 1_555
C12A C1A 1.431 1_555 1_555
C13A C12A 1.192 1_555 1_555
C14A C13A 1.470 1_555 1_555
H7A C14A 0.990 1_555 1_555
H8A C14A 0.990 1_555 1_555
C15A C14A 1.528 1_555 1_555
H9A C15A 0.990 1_555 1_555
H10A C15A 0.990 1_555 1_555
C16A C15A 1.518 1_555 1_555
H11A C16A 0.990 1_555 1_555
H12A C16A 0.990 1_555 1_555
C17A C16A 1.517 1_555 1_555
H13A C17A 0.990 1_555 1_555
H14A C17A 0.990 1_555 1_555
C18A C17A 1.521 1_555 1_555
H15A C18A 0.989 1_555 1_555
H16A C18A 0.990 1_555 1_555
C19A C18A 1.524 1_555 1_555
H17A C19A 0.980 1_555 1_555
H18A C19A 0.980 1_555 1_555
H19A C19A 0.980 1_555 1_555
C8 C9 1.429 1_555 1_555
C10 C11A 1.408 1_555 1_555
C1A C11A 1.418 1_555 1_555
C8A C9A 1.429 1_555 1_555
C9A C10A 1.381 1_555 1_555
#END
