
#######################################################################
#
#                 Cambridge Crystallographic Data Centre
#                                CCDC
#
#######################################################################
#
# If this CIF has been generated from an entry in the Cambridge
# Structural Database, then it will include bibliographic, chemical,
# crystal, experimental, refinement or atomic coordinate data resulting
# from the CCDC's data processing and validation procedures.
#
#######################################################################

data_CSD_CIF_CIZRIN
_audit_creation_date 2008-08-28
_audit_creation_method CSD-ConQuest-V1
_database_code_CSD CIZRIN
_database_code_depnum_ccdc_archive 'CCDC 664060'
_chemical_formula_sum 'C60 H42'
_chemical_formula_moiety
;
C60 H42
;
_journal_coden_Cambridge 35
_journal_volume 73
_journal_year 2008
_journal_page_first 2404
_journal_name_full 'J.Org.Chem. '
loop_
_publ_author_name
"S.Sankararaman"
"G.Venkataramana"
"B.Varghese"
_chemical_name_systematic
;
1,4-bis(4-t-butyl-2-(pyren-1-ylethynyl)phenyl)buta-1,3-diyne
;
_cell_volume   2026.570
_exptl_crystal_colour 'colorless'
_exptl_crystal_density_diffrn 1.25
_exptl_special_details
;
open conformer

;
_exptl_crystal_description 'prismatic'
_exptl_crystal_preparation 'hexane'
_diffrn_ambient_temperature 293
#These two values have been output from a single CSD field.
_refine_ls_R_factor_gt 0.0529
_refine_ls_wR_factor_gt 0.0529
_symmetry_cell_setting triclinic
_symmetry_space_group_name_H-M 'P -1'
_symmetry_Int_Tables_number 2
loop_
_symmetry_equiv_pos_site_id
_symmetry_equiv_pos_as_xyz
1 x,y,z
2 -x,-y,-z
_cell_length_a 11.1104(4)
_cell_length_b 12.9232(4)
_cell_length_c 15.1849(5)
_cell_angle_alpha 80.639(2)
_cell_angle_beta 70.439(2)
_cell_angle_gamma 85.675(2)
_cell_formula_units_Z 2
loop_
_atom_type_symbol
_atom_type_radius_bond
C 0.68
H 0.23
loop_
_atom_site_label
_atom_site_type_symbol
_atom_site_fract_x
_atom_site_fract_y
_atom_site_fract_z
C1 C 0.21378(15) 0.35019(12) -0.56978(12)
C2 C 0.23813(16) 0.40321(13) -0.66179(12)
H1 H 0.32190 0.40830 -0.70270
C3 C 0.14042(17) 0.44793(13) -0.69293(13)
H2 H 0.15930 0.48270 -0.75440
C4 C -0.09173(18) 0.48661(14) -0.66369(14)
H3 H -0.07490 0.52240 -0.72470
C5 C -0.21347(18) 0.47781(14) -0.60563(15)
H4 H -0.27900 0.50740 -0.62750
C6 C -0.37024(17) 0.41132(15) -0.44899(17)
H5 H -0.43770 0.43800 -0.46980
C7 C -0.39566(17) 0.36036(15) -0.35851(16)
H6 H -0.48000 0.35350 -0.31890
C8 C -0.29869(17) 0.31914(15) -0.32507(15)
H7 H -0.31810 0.28580 -0.26300
C9 C -0.06714(17) 0.28229(13) -0.35335(13)
H8 H -0.08450 0.24690 -0.29220
C10 C 0.05529(16) 0.29046(12) -0.41148(12)
H9 H 0.12050 0.26100 -0.38920
C11 C 0.08683(15) 0.34351(12) -0.50660(11)
C12 C 0.01299(16) 0.44188(13) -0.63341(13)
C13 C -0.24434(16) 0.42406(13) -0.51102(14)
C14 C -0.17031(16) 0.32703(13) -0.38412(13)
C15 C -0.14299(15) 0.38088(12) -0.47792(13)
C16 C -0.01393(15) 0.38954(12) -0.53930(12)
C17 C 0.31629(15) 0.29981(13) -0.54015(12)
C18 C 0.39881(15) 0.25272(13) -0.51504(12)
C19 C 0.49573(15) 0.19060(12) -0.48616(12)
C20 C 0.61612(15) 0.17520(13) -0.55301(12)
H10 H 0.63210 0.20720 -0.61510
C21 C 0.71216(14) 0.11373(12) -0.52947(11)
C22 C 0.68328(16) 0.06413(13) -0.43571(12)
H11 H 0.74430 0.02000 -0.41850
C23 C 0.56647(16) 0.07923(14) -0.36842(12)
H12 H 0.55030 0.04540 -0.30680
C24 C 0.47187(15) 0.14473(13) -0.39162(12)
C25 C 0.84467(15) 0.09685(13) -0.60124(12)
C26 C 0.94791(17) 0.12331(15) -0.56257(15)
H13 H 1.03080 0.11250 -0.60730
H14 H 0.93990 0.07870 -0.50390
H15 H 0.93760 0.19530 -0.55230
C27 C 0.85962(18) -0.01834(15) -0.61514(15)
H16 H 0.94230 -0.03040 -0.65960
H17 H 0.79460 -0.03540 -0.63870
H18 H 0.85140 -0.06160 -0.55580
C28 C 0.86537(17) 0.16779(18) -0.69562(14)
H19 H 0.94920 0.15460 -0.73800
H20 H 0.85740 0.23990 -0.68580
H21 H 0.80250 0.15350 -0.72240
C29 C 0.35574(15) 0.16745(13) -0.31936(12)
C30 C 0.26137(15) 0.19007(13) -0.25740(12)
C31 C 0.15388(15) 0.21831(13) -0.18746(12)
C32 C 0.06267(15) 0.24787(13) -0.12713(12)
C33 C -0.04205(15) 0.29184(13) -0.05773(12)
C34 C -0.15412(16) 0.32564(14) -0.07713(12)
H22 H -0.16310 0.31490 -0.13370
C35 C -0.25249(15) 0.37511(14) -0.01302(12)
H23 H -0.32640 0.39650 -0.02740
C36 C -0.24281(14) 0.39340(13) 0.07236(11)
C37 C -0.13226(14) 0.35626(13) 0.09291(12)
H24 H -0.12470 0.36570 0.15020
C38 C -0.03264(14) 0.30531(13) 0.03007(11)
C39 C -0.34315(15) 0.45505(13) 0.14210(11)
C40 C -0.46031(16) 0.48638(16) 0.11126(13)
H25 H -0.52040 0.52480 0.15670
H26 H -0.49950 0.42440 0.10710
H27 H -0.43440 0.52950 0.05060
C41 C -0.28137(16) 0.55525(13) 0.14735(13)
H28 H -0.34270 0.59520 0.19070
H29 H -0.25330 0.59650 0.08580
H30 H -0.20950 0.53670 0.16880
C42 C -0.38732(15) 0.38945(13) 0.24051(11)
H31 H -0.45010 0.42880 0.28360
H32 H -0.31550 0.37260 0.26230
H33 H -0.42400 0.32590 0.23730
C43 C 0.07830(15) 0.27022(13) 0.05580(12)
C44 C 0.16968(15) 0.24269(13) 0.07936(12)
C45 C 0.28076(15) 0.20985(12) 0.10561(12)
C46 C 0.27766(16) 0.20850(13) 0.19824(12)
H34 H 0.20330 0.22980 0.24260
C47 C 0.38301(16) 0.17605(14) 0.22563(13)
H35 H 0.37870 0.17600 0.28790
C48 C 0.60908(17) 0.10804(14) 0.18540(14)
H36 H 0.60760 0.10840 0.24700
C49 C 0.71544(17) 0.07488(14) 0.12220(14)
H37 H 0.78580 0.05240 0.14090
C50 C 0.83184(16) 0.03749(14) -0.04037(15)
H38 H 0.90250 0.01300 -0.02270
C51 C 0.83609(17) 0.03792(15) -0.13230(15)
H39 H 0.90970 0.01400 -0.17560
C52 C 0.73329(17) 0.07315(14) -0.16104(14)
H40 H 0.73820 0.07330 -0.22340
C53 C 0.50961(16) 0.14440(14) -0.12231(13)
H41 H 0.51210 0.14520 -0.18420
C54 C 0.40230(16) 0.17640(13) -0.05887(12)
H42 H 0.33200 0.19840 -0.07790
C55 C 0.39320(15) 0.17761(12) 0.03721(12)
C56 C 0.49665(16) 0.14317(13) 0.16009(13)
C57 C 0.72275(16) 0.07345(13) 0.02676(14)
C58 C 0.62080(15) 0.10891(13) -0.09638(12)
C59 C 0.61523(15) 0.10928(12) -0.00195(12)
C60 C 0.50151(15) 0.14375(12) 0.06559(12)
loop_
_geom_bond_atom_site_label_1
_geom_bond_atom_site_label_2
_geom_bond_distance
_geom_bond_site_symmetry_1
_geom_bond_site_symmetry_2
C1 C2 1.399 1_555 1_555
C2 H1 0.930 1_555 1_555
C3 C2 1.377 1_555 1_555
H2 C3 0.929 1_555 1_555
C4 H3 0.930 1_555 1_555
C5 C4 1.346 1_555 1_555
H4 C5 0.930 1_555 1_555
C6 H5 0.930 1_555 1_555
C7 C6 1.369 1_555 1_555
H6 C7 0.930 1_555 1_555
C8 C7 1.376 1_555 1_555
H7 C8 0.931 1_555 1_555
C9 H8 0.929 1_555 1_555
C10 C9 1.352 1_555 1_555
H9 C10 0.930 1_555 1_555
C11 C1 1.415 1_555 1_555
C12 C3 1.402 1_555 1_555
C13 C5 1.430 1_555 1_555
C14 C8 1.409 1_555 1_555
C15 C13 1.423 1_555 1_555
C16 C11 1.425 1_555 1_555
C17 C1 1.435 1_555 1_555
C18 C17 1.196 1_555 1_555
C19 C18 1.438 1_555 1_555
C20 C19 1.406 1_555 1_555
H10 C20 0.929 1_555 1_555
C21 C20 1.390 1_555 1_555
C22 C21 1.403 1_555 1_555
H11 C22 0.930 1_555 1_555
C23 C22 1.380 1_555 1_555
H12 C23 0.930 1_555 1_555
C24 C19 1.405 1_555 1_555
C25 C21 1.535 1_555 1_555
C26 C25 1.534 1_555 1_555
H13 C26 0.960 1_555 1_555
H14 C26 0.960 1_555 1_555
H15 C26 0.960 1_555 1_555
C27 C25 1.526 1_555 1_555
H16 C27 0.960 1_555 1_555
H17 C27 0.960 1_555 1_555
H18 C27 0.960 1_555 1_555
C28 C25 1.527 1_555 1_555
H19 C28 0.960 1_555 1_555
H20 C28 0.960 1_555 1_555
H21 C28 0.960 1_555 1_555
C29 C24 1.433 1_555 1_555
C30 C29 1.205 1_555 1_555
C31 C30 1.378 1_555 1_555
C32 C31 1.202 1_555 1_555
C33 C32 1.436 1_555 1_555
C34 C33 1.396 1_555 1_555
H22 C34 0.930 1_555 1_555
C35 C34 1.391 1_555 1_555
H23 C35 0.930 1_555 1_555
C36 C35 1.395 1_555 1_555
C37 C36 1.398 1_555 1_555
H24 C37 0.929 1_555 1_555
C38 C33 1.411 1_555 1_555
C39 C36 1.533 1_555 1_555
C40 C39 1.531 1_555 1_555
H25 C40 0.960 1_555 1_555
H26 C40 0.961 1_555 1_555
H27 C40 0.960 1_555 1_555
C41 C39 1.536 1_555 1_555
H28 C41 0.960 1_555 1_555
H29 C41 0.961 1_555 1_555
H30 C41 0.960 1_555 1_555
C42 C39 1.534 1_555 1_555
H31 C42 0.960 1_555 1_555
H32 C42 0.960 1_555 1_555
H33 C42 0.959 1_555 1_555
C43 C38 1.435 1_555 1_555
C44 C43 1.197 1_555 1_555
C45 C44 1.434 1_555 1_555
C46 C45 1.393 1_555 1_555
H34 C46 0.930 1_555 1_555
C47 C46 1.384 1_555 1_555
H35 C47 0.931 1_555 1_555
C48 H36 0.931 1_555 1_555
C49 C48 1.341 1_555 1_555
H37 C49 0.929 1_555 1_555
C50 H38 0.930 1_555 1_555
C51 C50 1.380 1_555 1_555
H39 C51 0.930 1_555 1_555
C52 C51 1.376 1_555 1_555
H40 C52 0.930 1_555 1_555
C53 H41 0.929 1_555 1_555
C54 C53 1.344 1_555 1_555
H42 C54 0.930 1_555 1_555
C55 C45 1.416 1_555 1_555
C56 C47 1.407 1_555 1_555
C57 C49 1.427 1_555 1_555
C58 C52 1.407 1_555 1_555
C59 C57 1.425 1_555 1_555
C60 C55 1.425 1_555 1_555
C4 C12 1.439 1_555 1_555
C6 C13 1.405 1_555 1_555
C9 C14 1.427 1_555 1_555
C10 C11 1.433 1_555 1_555
C12 C16 1.421 1_555 1_555
C14 C15 1.423 1_555 1_555
C15 C16 1.426 1_555 1_555
C23 C24 1.401 1_555 1_555
C37 C38 1.399 1_555 1_555
C48 C56 1.447 1_555 1_555
C50 C57 1.402 1_555 1_555
C53 C58 1.440 1_555 1_555
C54 C55 1.431 1_555 1_555
C56 C60 1.417 1_555 1_555
C58 C59 1.415 1_555 1_555
C59 C60 1.429 1_555 1_555
#END
