
#######################################################################
#
#                 Cambridge Crystallographic Data Centre
#                                CCDC
#
#######################################################################
#
# If this CIF has been generated from an entry in the Cambridge
# Structural Database, then it will include bibliographic, chemical,
# crystal, experimental, refinement or atomic coordinate data resulting
# from the CCDC's data processing and validation procedures.
#
#######################################################################

data_CSD_CIF_CORONE03
_audit_creation_date 2015-12-04
_audit_creation_method CSD-ConQuest-V1
_database_code_CSD CORONE03
_database_code_depnum_ccdc_archive 'CCDC 1422752'
_chemical_formula_sum 'C24 H12'
_chemical_formula_moiety
;
C24 H12
;
_journal_coden_Cambridge 1147
_journal_volume 16
_journal_year 2016
_journal_page_first 331
_journal_name_full 'Cryst.Growth Des. '
loop_
_publ_author_name
"O.Kataeva"
"M.Khrizanforov"
"Y.Budnikova"
"D.Islamov"
"T.Burganov"
"A.Vandyukov"
"K.Lyssenko"
"B.Mahns"
"M.Nohr"
"S.Hampel"
"M.Knupfer"
_chemical_name_systematic
;
coronene
;
_cell_volume    695.592
_exptl_crystal_colour 'colorless'
_exptl_crystal_density_diffrn 1.434
_exptl_crystal_description 'needle'
_diffrn_ambient_temperature 100
#These two values have been output from a single CSD field.
_refine_ls_R_factor_gt 0.0454
_refine_ls_wR_factor_gt 0.0454
_symmetry_cell_setting monoclinic
_symmetry_space_group_name_H-M 'P 21/n'
_symmetry_Int_Tables_number 14
loop_
_symmetry_equiv_pos_site_id
_symmetry_equiv_pos_as_xyz
1 x,y,z
2 1/2-x,1/2+y,1/2-z
3 -x,-y,-z
4 -1/2+x,-1/2-y,-1/2+z
_cell_length_a 10.0086(4)
_cell_length_b 4.6651(2)
_cell_length_c 15.5437(6)
_cell_angle_alpha 90
_cell_angle_beta 106.576(3)
_cell_angle_gamma 90
_cell_formula_units_Z 2
loop_
_atom_type_symbol
_atom_type_radius_bond
C 0.68
H 0.23
loop_
_atom_site_label
_atom_site_type_symbol
_atom_site_fract_x
_atom_site_fract_y
_atom_site_fract_z
C1 C 0.2928(2) 1.4897(5) 1.11323(14)
H1 H 0.34680 1.62820 1.15310
C2 C 0.3452(2) 1.3662(5) 1.05062(14)
H2 H 0.43590 1.41820 1.04830
C3 C 0.3184(2) 1.0359(5) 0.92039(14)
H3 H 0.40700 1.09140 0.91510
C4 C 0.2419(2) 0.8375(5) 0.86247(14)
H4 H 0.27880 0.75600 0.81810
C5 C 0.0264(2) 0.5424(5) 0.80817(14)
H5 H 0.06150 0.45800 0.76340
C6 C -0.1012(2) 0.4623(5) 0.81472(14)
H6 H -0.15310 0.32140 0.77480
C7 C 0.2681(2) 1.1615(5) 0.98861(14)
C8 C 0.1081(2) 0.7501(4) 0.86720(13)
C9 C -0.1580(2) 0.5852(4) 0.88001(13)
C10 C 0.1345(2) 1.0809(4) 0.99398(13)
C11 C 0.0545(2) 0.8746(4) 0.93340(13)
C12 C -0.07963(19) 0.7928(4) 0.93967(13)
C1B C -0.2928(2) 0.5103(5) 0.88677(14)
H1B H -0.34680 0.37180 0.84690
C2B C -0.3452(2) 0.6338(5) 0.94938(14)
H2B H -0.43590 0.58180 0.95170
C3B C -0.3184(2) 0.9641(5) 1.07961(14)
H3B H -0.40700 0.90860 1.08490
C4B C -0.2419(2) 1.1625(5) 1.13753(14)
H4B H -0.27880 1.24400 1.18190
C5B C -0.0264(2) 1.4576(5) 1.19183(14)
H5B H -0.06150 1.54200 1.23660
C6B C 0.1012(2) 1.5377(5) 1.18528(14)
H6B H 0.15310 1.67860 1.22520
C7B C -0.2681(2) 0.8385(5) 1.01139(14)
C8B C -0.1081(2) 1.2499(4) 1.13280(13)
C9B C 0.1580(2) 1.4148(4) 1.11999(13)
C10B C -0.1345(2) 0.9191(4) 1.00602(13)
C11B C -0.0545(2) 1.1254(4) 1.06660(13)
C12B C 0.07963(19) 1.2072(4) 1.06033(13)
loop_
_geom_bond_atom_site_label_1
_geom_bond_atom_site_label_2
_geom_bond_distance
_geom_bond_site_symmetry_1
_geom_bond_site_symmetry_2
C1 H1 0.950 1_555 1_555
C2 C1 1.358 1_555 1_555
H2 C2 0.950 1_555 1_555
C3 H3 0.950 1_555 1_555
C4 C3 1.364 1_555 1_555
H4 C4 0.950 1_555 1_555
C5 H5 0.950 1_555 1_555
C6 C5 1.362 1_555 1_555
H6 C6 0.950 1_555 1_555
C7 C2 1.418 1_555 1_555
C8 C4 1.422 1_555 1_555
C9 C6 1.418 1_555 1_555
C10 C7 1.414 1_555 1_555
C11 C8 1.414 1_555 1_555
C12 C9 1.414 1_555 1_555
C1B C9 1.426 1_555 1_555
H1B C1B 0.950 1_555 1_555
C2B C1B 1.358 1_555 1_555
H2B C2B 0.950 1_555 1_555
C3B H3B 0.950 1_555 1_555
C4B C3B 1.364 1_555 1_555
H4B C4B 0.950 1_555 1_555
C5B H5B 0.950 1_555 1_555
C6B C5B 1.362 1_555 1_555
H6B C6B 0.950 1_555 1_555
C7B C2B 1.418 1_555 1_555
C8B C4B 1.422 1_555 1_555
C9B C1 1.426 1_555 1_555
C10B C12 1.427 1_555 1_555
C11B C8B 1.414 1_555 1_555
C12B C10 1.427 1_555 1_555
C3 C7 1.423 1_555 1_555
C5 C8 1.422 1_555 1_555
C10 C11 1.423 1_555 1_555
C11 C12 1.425 1_555 1_555
C3B C7B 1.423 1_555 1_555
C5B C8B 1.422 1_555 1_555
C6B C9B 1.418 1_555 1_555
C7B C10B 1.414 1_555 1_555
C9B C12B 1.414 1_555 1_555
C10B C11B 1.423 1_555 1_555
C11B C12B 1.425 1_555 1_555
#END
