
#######################################################################
#
#                 Cambridge Crystallographic Data Centre
#                                CCDC
#
#######################################################################
#
# If this CIF has been generated from an entry in the Cambridge
# Structural Database, then it will include bibliographic, chemical,
# crystal, experimental, refinement or atomic coordinate data resulting
# from the CCDC's data processing and validation procedures.
#
#######################################################################

data_CSD_CIF_CUCJIT
_audit_creation_date 1985-09-20
_audit_creation_method CSD-ConQuest-V1
_database_code_CSD CUCJIT
_database_code_depnum_ccdc_archive 'CCDC 1132218'
_chemical_formula_sum 'C22 H16'
_chemical_formula_moiety
;
C22 H16
;
_journal_coden_Cambridge 209
_journal_volume 108
_journal_year 1984
_journal_page_first 1
_journal_name_full 'Mol.Cryst.Liq.Cryst. (Discontinued) '
loop_
_publ_author_name
"S.M.Aldoshin"
"M.V.Alfimov"
"L.O.Atovmyan"
"V.F.Kaminskii"
"V.F.Razumov"
"A.G.Rachinsky"
_chemical_name_systematic
;
trans-1,2-Di-(1-naphthyl)ethylene
;
_cell_volume   1523.420
_exptl_crystal_colour 'yellow'
_exptl_crystal_density_diffrn 1.229
_diffrn_ambient_temperature ?
_diffrn_special_details
;
The study was carried out at room temperature,in the range 283-303K

;
#These two values have been output from a single CSD field.
_refine_ls_R_factor_gt 0.045
_refine_ls_wR_factor_gt 0.045
loop_
_citation_database_id_CSD
_citation_special_details
CUCJEP "is a stereoisomer of this entry"
_symmetry_cell_setting monoclinic
_symmetry_space_group_name_H-M 'B 1 1 2/b'
_symmetry_Int_Tables_number 15
loop_
_symmetry_equiv_pos_site_id
_symmetry_equiv_pos_as_xyz
1 x,y,z
2 1/2+x,y,1/2+z
3 -x,1/2-y,z
4 1/2-x,1/2-y,1/2+z
5 -x,-y,-z
6 -1/2-x,-y,-1/2-z
7 x,-1/2+y,-z
8 -1/2+x,-1/2+y,-1/2-z
_cell_length_a 27.775(13)
_cell_length_b 8.816(8)
_cell_length_c 6.251(4)
_cell_angle_alpha 90
_cell_angle_beta 90
_cell_angle_gamma 84.43(5)
_cell_formula_units_Z 4
loop_
_atom_type_symbol
_atom_type_radius_bond
C 0.68
H 0.23
loop_
_atom_site_label
_atom_site_type_symbol
_atom_site_fract_x
_atom_site_fract_y
_atom_site_fract_z
C1 C 0.0218(1) 0.4630(4) 0.0184(7)
C2 C 0.0565(1) 0.4967(4) 0.1822(7)
C3 C 0.0411(1) 0.5834(5) 0.3558(8)
C4 C 0.0724(2) 0.6172(5) 0.5161(8)
C5 C 0.1206(1) 0.5673(5) 0.5077(9)
C6 C 0.1388(1) 0.4742(5) 0.3314(8)
C7 C 0.1886(1) 0.4163(6) 0.3170(9)
C8 C 0.2042(1) 0.3301(6) 0.1519(10)
C9 C 0.1729(1) 0.2922(5) -0.0071(9)
C10 C 0.1256(1) 0.3489(4) -0.0011(8)
C11 C 0.1066(1) 0.4384(4) 0.1678(7)
H1 H 0.0301(7) 0.3626(28) -0.0750(35)
H2 H 0.0061(7) 0.6137(25) 0.3730(38)
H3 H 0.0674(7) 0.6820(24) 0.6171(36)
H4 H 0.1465(7) 0.5808(25) 0.6067(38)
H5 H 0.2090(7) 0.4461(25) 0.4283(36)
H6 H 0.2402(8) 0.2936(25) 0.1354(38)
H7 H 0.1862(7) 0.2567(25) -0.1583(40)
H8 H 0.1068(7) 0.3045(25) -0.1221(38)
C1D C -0.0218(1) 0.5370(4) -0.0184(7)
C2D C -0.0565(1) 0.5033(4) -0.1822(7)
H1D H -0.0301(7) 0.6374(28) 0.0750(35)
C3D C -0.0411(1) 0.4166(5) -0.3558(8)
C11D C -0.1066(1) 0.5616(4) -0.1678(7)
C4D C -0.0724(2) 0.3828(5) -0.5161(8)
H2D H -0.0061(7) 0.3863(25) -0.3730(38)
C6D C -0.1388(1) 0.5258(5) -0.3314(8)
C10D C -0.1256(1) 0.6511(4) 0.0011(8)
C5D C -0.1206(1) 0.4327(5) -0.5077(9)
H3D H -0.0674(7) 0.3180(24) -0.6171(36)
C7D C -0.1886(1) 0.5837(6) -0.3170(9)
C9D C -0.1729(1) 0.7078(5) 0.0071(9)
H8D H -0.1068(7) 0.6955(25) 0.1221(38)
H4D H -0.1465(7) 0.4192(25) -0.6067(38)
C8D C -0.2042(1) 0.6699(6) -0.1519(10)
H5D H -0.2090(7) 0.5539(25) -0.4283(36)
H7D H -0.1862(7) 0.7433(25) 0.1583(40)
H6D H -0.2402(8) 0.7064(25) -0.1354(38)
loop_
_geom_bond_atom_site_label_1
_geom_bond_atom_site_label_2
_geom_bond_distance
_geom_bond_site_symmetry_1
_geom_bond_site_symmetry_2
C1 C2 1.456 1_555 1_555
C2 C3 1.372 1_555 1_555
C3 C4 1.378 1_555 1_555
C4 C5 1.369 1_555 1_555
C5 C6 1.436 1_555 1_555
C6 C7 1.430 1_555 1_555
C7 C8 1.329 1_555 1_555
C8 C9 1.383 1_555 1_555
C9 C10 1.360 1_555 1_555
C10 C11 1.391 1_555 1_555
C11 C2 1.439 1_555 1_555
H1 C1 1.067 1_555 1_555
H2 C3 0.989 1_555 1_555
H3 C4 0.854 1_555 1_555
H4 C5 0.965 1_555 1_555
H5 C7 0.950 1_555 1_555
H6 C8 1.025 1_555 1_555
H7 C9 1.051 1_555 1_555
H8 C10 1.019 1_555 1_555
C1D C1 1.339 1_555 1_555
C2D C1D 1.456 1_555 1_555
H1D C1D 1.067 1_555 1_555
C3D C2D 1.372 1_555 1_555
C11D C2D 1.439 1_555 1_555
C4D C3D 1.378 1_555 1_555
H2D C3D 0.989 1_555 1_555
C6D C11D 1.414 1_555 1_555
C10D C11D 1.391 1_555 1_555
C5D C4D 1.369 1_555 1_555
H3D C4D 0.854 1_555 1_555
C7D C6D 1.430 1_555 1_555
C9D C10D 1.360 1_555 1_555
H8D C10D 1.019 1_555 1_555
H4D C5D 0.965 1_555 1_555
C8D C7D 1.329 1_555 1_555
H5D C7D 0.950 1_555 1_555
H7D C9D 1.051 1_555 1_555
H6D C8D 1.025 1_555 1_555
C6 C11 1.414 1_555 1_555
C6D C5D 1.436 1_555 1_555
C9D C8D 1.383 1_555 1_555
#END
