
#######################################################################
#
#                 Cambridge Crystallographic Data Centre
#                                CCDC
#
#######################################################################
#
# If this CIF has been generated from an entry in the Cambridge
# Structural Database, then it will include bibliographic, chemical,
# crystal, experimental, refinement or atomic coordinate data resulting
# from the CCDC's data processing and validation procedures.
#
#######################################################################

data_CSD_CIF_DACXIQ
_audit_creation_date 2012-02-14
_audit_creation_method CSD-ConQuest-V1
_database_code_CSD DACXIQ
_database_code_depnum_ccdc_archive 'CCDC 298135'
_chemical_formula_sum 'C16 H14'
_chemical_formula_moiety
;
C16 H14
;
_journal_coden_Cambridge 35
_journal_volume 76
_journal_year 2011
_journal_page_first 5170
_journal_name_full 'J.Org.Chem. '
loop_
_publ_author_name
"Xianlong Wang"
"P.A.Beckmann"
"C.W.Mallory"
"A.L.Rheingold"
"A.G.DiPasquale"
"P.J.Carroll"
"F.B.Mallory"
_chemical_name_systematic
;
3,9-Dimethylphenanthrene
;
_cell_volume   1096.970
_exptl_crystal_colour 'colorless'
_exptl_crystal_density_diffrn 1.249
_exptl_crystal_description 'blade'
_diffrn_ambient_temperature 100
#These two values have been output from a single CSD field.
_refine_ls_R_factor_gt 0.0541
_refine_ls_wR_factor_gt 0.0541
_symmetry_cell_setting monoclinic
_symmetry_space_group_name_H-M 'P 21/n'
_symmetry_Int_Tables_number 14
loop_
_symmetry_equiv_pos_site_id
_symmetry_equiv_pos_as_xyz
1 x,y,z
2 1/2-x,1/2+y,1/2-z
3 -x,-y,-z
4 -1/2+x,-1/2-y,-1/2+z
_cell_length_a 13.5583(12)
_cell_length_b 4.8269(4)
_cell_length_c 17.3642(15)
_cell_angle_alpha 90
_cell_angle_beta 105.136(2)
_cell_angle_gamma 90
_cell_formula_units_Z 4
loop_
_atom_type_symbol
_atom_type_radius_bond
C 0.68
H 0.23
loop_
_atom_site_label
_atom_site_type_symbol
_atom_site_fract_x
_atom_site_fract_y
_atom_site_fract_z
C1 C 0.10258(13) -0.1059(4) -0.08739(10)
H1 H 0.03300 -0.05000 -0.10280
C2 C 0.13634(13) -0.3036(4) -0.13132(10)
H2 H 0.09000 -0.38250 -0.17670
C3 C 0.23891(13) -0.3902(4) -0.10968(10)
C4 C 0.30479(13) -0.2723(4) -0.04383(10)
H3 H 0.37410 -0.33100 -0.02890
C5 C 0.27273(13) -0.0668(3) 0.00228(10)
C6 C 0.34173(13) 0.0654(3) 0.07073(10)
C7 C 0.44723(13) 0.0044(4) 0.09444(10)
H4 H 0.47420 -0.12980 0.06550
C8 C 0.51175(14) 0.1345(4) 0.15835(11)
H5 H 0.58250 0.09120 0.17270
C9 C 0.47343(15) 0.3311(4) 0.20240(11)
H6 H 0.51810 0.42020 0.24680
C10 C 0.37150(14) 0.3944(4) 0.18122(11)
H7 H 0.34620 0.52810 0.21140
C11 C 0.30306(13) 0.2657(3) 0.11554(10)
C12 C 0.19575(14) 0.3377(4) 0.09262(10)
C13 C 0.13371(13) 0.2185(4) 0.02685(11)
H8 H 0.06390 0.27170 0.01110
C14 C 0.16936(13) 0.0156(4) -0.01979(10)
C15 C 0.27518(14) -0.6092(4) -0.15795(11)
H9 H 0.34850 -0.64040 -0.13570
H10 H 0.26250 -0.54720 -0.21340
H11 H 0.23800 -0.78220 -0.15600
C16 C 0.15424(14) 0.5445(4) 0.14099(11)
H12 H 0.08020 0.56250 0.11880
H13 H 0.18690 0.72470 0.13920
H14 H 0.16860 0.48090 0.19640
loop_
_geom_bond_atom_site_label_1
_geom_bond_atom_site_label_2
_geom_bond_distance
_geom_bond_site_symmetry_1
_geom_bond_site_symmetry_2
C1 H1 0.950 1_555 1_555
C2 C1 1.373 1_555 1_555
H2 C2 0.950 1_555 1_555
C3 C2 1.406 1_555 1_555
C4 C3 1.377 1_555 1_555
H3 C4 0.950 1_555 1_555
C5 C4 1.413 1_555 1_555
C6 C5 1.454 1_555 1_555
C7 C6 1.412 1_555 1_555
H4 C7 0.950 1_555 1_555
C8 C7 1.373 1_555 1_555
H5 C8 0.949 1_555 1_555
C9 C8 1.401 1_555 1_555
H6 C9 0.950 1_555 1_555
C10 C9 1.369 1_555 1_555
H7 C10 0.950 1_555 1_555
C11 C6 1.424 1_555 1_555
C12 C11 1.447 1_555 1_555
C13 C12 1.357 1_555 1_555
H8 C13 0.949 1_555 1_555
C14 C1 1.409 1_555 1_555
C15 C3 1.509 1_555 1_555
H9 C15 0.980 1_555 1_555
H10 C15 0.980 1_555 1_555
H11 C15 0.981 1_555 1_555
C16 C12 1.505 1_555 1_555
H12 C16 0.981 1_555 1_555
H13 C16 0.980 1_555 1_555
H14 C16 0.980 1_555 1_555
C5 C14 1.410 1_555 1_555
C10 C11 1.412 1_555 1_555
C13 C14 1.433 1_555 1_555
#END
