
#######################################################################
#
#                 Cambridge Crystallographic Data Centre
#                                CCDC
#
#######################################################################
#
# If this CIF has been generated from an entry in the Cambridge
# Structural Database, then it will include bibliographic, chemical,
# crystal, experimental, refinement or atomic coordinate data resulting
# from the CCDC's data processing and validation procedures.
#
#######################################################################

data_CSD_CIF_DBNTHR02
_audit_creation_date 1976-03-15
_audit_creation_method CSD-ConQuest-V1
_database_code_CSD DBNTHR02
_chemical_formula_sum 'C22 H14'
_chemical_formula_moiety
;
C22 H14
;
_journal_coden_Cambridge 188
_journal_year 1975
_journal_page_first 1271
_journal_name_full 'J.Chem.Soc.,Perkin Trans.2 '
loop_
_publ_author_name
"J.Iball"
"C.H.Morgan"
"D.E.Zacharias"
_chemical_name_systematic
;
Dibenz(a,h)anthracene
;
_cell_volume   1443.702
_exptl_crystal_density_diffrn 1.29
_exptl_special_details
;
orthorhombic polymorph

;
_diffrn_ambient_temperature ?
_diffrn_special_details
;
The study was carried out at room temperature,in the range 283-303K

;
#These two values have been output from a single CSD field.
_refine_ls_R_factor_gt 0.035
_refine_ls_wR_factor_gt 0.035
_symmetry_cell_setting orthorhombic
_symmetry_space_group_name_H-M 'P c a b'
_symmetry_Int_Tables_number 61
loop_
_symmetry_equiv_pos_site_id
_symmetry_equiv_pos_as_xyz
1 x,y,z
2 1/2-x,y,1/2+z
3 1/2+x,1/2-y,z
4 -x,1/2-y,1/2+z
5 -x,-y,-z
6 -1/2+x,-y,-1/2-z
7 -1/2-x,-1/2+y,-z
8 x,-1/2+y,-1/2-z
_cell_length_a 8.263(2)
_cell_length_b 11.466(2)
_cell_length_c 15.238(2)
_cell_angle_alpha 90
_cell_angle_beta 90
_cell_angle_gamma 90
_cell_formula_units_Z 4
loop_
_atom_type_symbol
_atom_type_radius_bond
C 0.68
H 0.23
loop_
_atom_site_label
_atom_site_type_symbol
_atom_site_fract_x
_atom_site_fract_y
_atom_site_fract_z
C1 C -0.02500 -0.14330 0.35730
C2 C -0.08590 -0.17410 0.20400
C3 C -0.09200 -0.20940 0.29270
C4 C 0.05460 -0.03900 0.33610
C5 C 0.06170 -0.00280 0.25030
C6 C -0.00790 -0.06840 0.18210
C7 C -0.00200 -0.03250 0.09060
C8 C 0.07680 0.06840 0.06210
C9 C -0.08000 -0.10210 0.02560
C10 C -0.15930 -0.20800 0.05220
C11 C -0.16140 -0.24200 0.13620
H1 H -0.02600 -0.16600 0.42200
H2 H -0.14900 -0.28000 0.30200
H3 H 0.10700 0.01000 0.38600
H4 H 0.11800 0.07000 0.23400
H5 H 0.12800 0.12100 0.10600
H6 H -0.22000 -0.25400 0.00300
H7 H -0.21600 -0.31300 0.15300
C9D C 0.08000 0.10210 -0.02560
C8D C -0.07680 -0.06840 -0.06210
C7D C 0.00200 0.03250 -0.09060
C10D C 0.15930 0.20800 -0.05220
H5D H -0.12800 -0.12100 -0.10600
C6D C 0.00790 0.06840 -0.18210
C11D C 0.16140 0.24200 -0.13620
H6D H 0.22000 0.25400 -0.00300
C2D C 0.08590 0.17410 -0.20400
C5D C -0.06170 0.00280 -0.25030
H7D H 0.21600 0.31300 -0.15300
C3D C 0.09200 0.20940 -0.29270
C4D C -0.05460 0.03900 -0.33610
H4D H -0.11800 -0.07000 -0.23400
C1D C 0.02500 0.14330 -0.35730
H2D H 0.14900 0.28000 -0.30200
H3D H -0.10700 -0.01000 -0.38600
H1D H 0.02600 0.16600 -0.42200
loop_
_geom_bond_atom_site_label_1
_geom_bond_atom_site_label_2
_geom_bond_distance
_geom_bond_site_symmetry_1
_geom_bond_site_symmetry_2
C1 C3 1.360 1_555 1_555
C2 C3 1.412 1_555 1_555
C3 H2 0.947 1_555 1_555
C4 C1 1.403 1_555 1_555
C5 C4 1.373 1_555 1_555
C6 C2 1.413 1_555 1_555
C7 C6 1.455 1_555 1_555
C8 C7 1.397 1_555 1_555
C9 C7 1.426 1_555 1_555
C10 C9 1.438 1_555 1_555
C11 C2 1.436 1_555 1_555
H1 C1 1.020 1_555 1_555
H3 C4 1.040 1_555 1_555
H4 C5 0.987 1_555 1_555
H5 C8 0.995 1_555 1_555
H6 C10 1.045 1_555 1_555
H7 C11 0.965 1_555 1_555
C9D C8 1.391 1_555 1_555
C8D C9 1.391 1_555 1_555
C7D C9D 1.426 1_555 1_555
C10D C9D 1.438 1_555 1_555
H5D C8D 0.995 1_555 1_555
C6D C7D 1.455 1_555 1_555
C11D C10D 1.338 1_555 1_555
H6D C10D 1.045 1_555 1_555
C2D C6D 1.413 1_555 1_555
C5D C6D 1.406 1_555 1_555
H7D C11D 0.965 1_555 1_555
C3D C2D 1.412 1_555 1_555
C4D C5D 1.373 1_555 1_555
H4D C5D 0.987 1_555 1_555
C1D C3D 1.360 1_555 1_555
H2D C3D 0.947 1_555 1_555
H3D C4D 1.040 1_555 1_555
H1D C1D 1.020 1_555 1_555
C5 C6 1.406 1_555 1_555
C10 C11 1.338 1_555 1_555
C8D C7D 1.397 1_555 1_555
C11D C2D 1.436 1_555 1_555
C4D C1D 1.403 1_555 1_555
#END
