
#######################################################################
#
#                 Cambridge Crystallographic Data Centre
#                                CCDC
#
#######################################################################
#
# If this CIF has been generated from an entry in the Cambridge
# Structural Database, then it will include bibliographic, chemical,
# crystal, experimental, refinement or atomic coordinate data resulting
# from the CCDC's data processing and validation procedures.
#
#######################################################################

data_CSD_CIF_DBNTHR01
_audit_creation_date 1976-03-15
_audit_creation_method CSD-ConQuest-V1
_database_code_CSD DBNTHR01
_chemical_formula_sum 'C22 H14'
_chemical_formula_moiety
;
C22 H14
;
_journal_coden_Cambridge 188
_journal_year 1975
_journal_page_first 1271
_journal_name_full 'J.Chem.Soc.,Perkin Trans.2 '
loop_
_publ_author_name
"J.Iball"
"C.H.Morgan"
"D.E.Zacharias"
_chemical_name_systematic
;
Dibenz(a,h)anthracene
;
_cell_volume   1443.702
_exptl_special_details
;
orthorhombic polymorph
Y-COORD. OF H1 GIVEN AS .169 IN TABLE 1 SHOULD BE NEGATIVE
;
_diffrn_ambient_temperature ?
_diffrn_special_details
;
The study was carried out at room temperature,in the range 283-303K

;
#These two values have been output from a single CSD field.
_refine_ls_R_factor_gt 0.067
_refine_ls_wR_factor_gt 0.067
_symmetry_cell_setting orthorhombic
_symmetry_space_group_name_H-M 'P c a b'
_symmetry_Int_Tables_number 61
loop_
_symmetry_equiv_pos_site_id
_symmetry_equiv_pos_as_xyz
1 x,y,z
2 1/2-x,y,1/2+z
3 1/2+x,1/2-y,z
4 -x,1/2-y,1/2+z
5 -x,-y,-z
6 -1/2+x,-y,-1/2-z
7 -1/2-x,-1/2+y,-z
8 x,-1/2+y,-1/2-z
_cell_length_a 8.263(2)
_cell_length_b 11.466(2)
_cell_length_c 15.238(2)
_cell_angle_alpha 90
_cell_angle_beta 90
_cell_angle_gamma 90
_cell_formula_units_Z 4
loop_
_atom_type_symbol
_atom_type_radius_bond
C 0.68
H 0.23
loop_
_atom_site_label
_atom_site_type_symbol
_atom_site_fract_x
_atom_site_fract_y
_atom_site_fract_z
C1 C -0.02400 -0.14310 0.35810
C2 C -0.08710 -0.17400 0.20410
C3 C -0.09330 -0.20920 0.29330
C4 C 0.04390 -0.03620 0.33630
C5 C 0.06300 -0.00210 0.25050
C6 C -0.00870 -0.06820 0.18190
C7 C -0.00190 -0.03200 0.09020
C8 C 0.07640 0.06900 0.06210
C9 C -0.07960 -0.10280 0.02590
C10 C -0.16010 -0.20830 0.05200
C11 C -0.16210 -0.24310 0.13660
H1 H -0.03100 -0.16900 0.42100
H2 H -0.15000 -0.28500 0.31000
H3 H 0.10600 0.01400 0.38700
H4 H 0.11600 0.06900 0.23700
H5 H 0.13300 0.11900 0.10600
H6 H -0.22000 -0.25900 0.00800
H7 H -0.21700 -0.31400 0.15400
C9D C 0.07960 0.10280 -0.02590
C8D C -0.07640 -0.06900 -0.06210
C7D C 0.00190 0.03200 -0.09020
C10D C 0.16010 0.20830 -0.05200
H5D H -0.13300 -0.11900 -0.10600
C6D C 0.00870 0.06820 -0.18190
C11D C 0.16210 0.24310 -0.13660
H6D H 0.22000 0.25900 -0.00800
C2D C 0.08710 0.17400 -0.20410
C5D C -0.06300 0.00210 -0.25050
H7D H 0.21700 0.31400 -0.15400
C3D C 0.09330 0.20920 -0.29330
C4D C -0.04390 0.03620 -0.33630
H4D H -0.11600 -0.06900 -0.23700
C1D C 0.02400 0.14310 -0.35810
H2D H 0.15000 0.28500 -0.31000
H3D H -0.10600 -0.01400 -0.38700
H1D H 0.03100 0.16900 -0.42100
loop_
_geom_bond_atom_site_label_1
_geom_bond_atom_site_label_2
_geom_bond_distance
_geom_bond_site_symmetry_1
_geom_bond_site_symmetry_2
C1 C3 1.370 1_555 1_555
C2 C3 1.419 1_555 1_555
C3 H2 1.020 1_555 1_555
C4 C1 1.388 1_555 1_555
C5 C4 1.374 1_555 1_555
C6 C2 1.416 1_555 1_555
C7 C6 1.459 1_555 1_555
C8 C7 1.394 1_555 1_555
C9 C7 1.425 1_555 1_555
C10 C9 1.437 1_555 1_555
C11 C2 1.439 1_555 1_555
H1 C1 1.005 1_555 1_555
H3 C4 1.092 1_555 1_555
H4 C5 0.948 1_555 1_555
H5 C8 0.997 1_555 1_555
H6 C10 1.016 1_555 1_555
H7 C11 0.968 1_555 1_555
C9D C8 1.396 1_555 1_555
C8D C9 1.396 1_555 1_555
C7D C9D 1.425 1_555 1_555
C10D C9D 1.437 1_555 1_555
H5D C8D 0.997 1_555 1_555
C6D C7D 1.459 1_555 1_555
C11D C10D 1.350 1_555 1_555
H6D C10D 1.016 1_555 1_555
C2D C6D 1.416 1_555 1_555
C5D C6D 1.421 1_555 1_555
H7D C11D 0.968 1_555 1_555
C3D C2D 1.419 1_555 1_555
C4D C5D 1.374 1_555 1_555
H4D C5D 0.948 1_555 1_555
C1D C3D 1.370 1_555 1_555
H2D C3D 1.020 1_555 1_555
H3D C4D 1.092 1_555 1_555
H1D C1D 1.005 1_555 1_555
C5 C6 1.421 1_555 1_555
C10 C11 1.350 1_555 1_555
C8D C7D 1.394 1_555 1_555
C11D C2D 1.439 1_555 1_555
C4D C1D 1.388 1_555 1_555
#END
