
#######################################################################
#
#                 Cambridge Crystallographic Data Centre
#                                CCDC
#
#######################################################################
#
# If this CIF has been generated from an entry in the Cambridge
# Structural Database, then it will include bibliographic, chemical,
# crystal, experimental, refinement or atomic coordinate data resulting
# from the CCDC's data processing and validation procedures.
#
#######################################################################

data_CSD_CIF_DEFTUG
_audit_creation_date 2017-09-26
_audit_creation_method CSD-ConQuest-V1
_database_code_CSD DEFTUG
_database_code_depnum_ccdc_archive 'CCDC 1522475'
_chemical_formula_sum 'C28 H14'
_chemical_formula_moiety
;
C28 H14
;
_journal_coden_Cambridge 241
_journal_volume 46
_journal_year 2017
_journal_page_first 1556
_journal_name_full 'Chem.Lett. '
loop_
_publ_author_name
"S.Hishikawa"
"Y.Okabe"
"R.Tsuruoka"
"Shuhei Higashibayashi"
"H.Ohtsu"
"M.Kawano"
"Y.Yakiyama"
"H.Sakurai"
_chemical_name_systematic
;
1,4-dihydro-as-indaceno[2,1,8,7-cdefg]indeno[1,2,3-jk]pyrene
;
_cell_volume   1632.714
_exptl_crystal_colour 'yellow'
_exptl_crystal_density_diffrn 1.425
_exptl_crystal_description 'prism'
_diffrn_ambient_temperature 107
_diffrn_radiation_probe x-ray
_diffrn_source synchrotron
#These two values have been output from a single CSD field.
_refine_ls_R_factor_gt 0.0571
_refine_ls_wR_factor_gt 0.0571
_symmetry_cell_setting orthorhombic
_symmetry_space_group_name_H-M 'P n a 21'
_symmetry_Int_Tables_number 33
loop_
_symmetry_equiv_pos_site_id
_symmetry_equiv_pos_as_xyz
1 x,y,z
2 -x,-y,1/2+z
3 1/2-x,1/2+y,1/2+z
4 1/2+x,1/2-y,z
_cell_length_a 9.8502(1)
_cell_length_b 22.6524(1)
_cell_length_c 7.3173(1)
_cell_angle_alpha 90
_cell_angle_beta 90
_cell_angle_gamma 90
_cell_formula_units_Z 4
loop_
_atom_type_symbol
_atom_type_radius_bond
C 0.68
H 0.23
loop_
_atom_site_label
_atom_site_type_symbol
_atom_site_fract_x
_atom_site_fract_y
_atom_site_fract_z
C1 C 1.1382(2) 0.34544(10) 0.3618(3)
H1 H 1.18470 0.31960 0.27660
H2 H 1.18350 0.34390 0.47940
C2 C 0.5661(2) 0.38298(10) 0.4901(4)
H3 H 0.48660 0.36560 0.43340
H4 H 0.55190 0.38540 0.62110
C3 C 0.79929(19) 0.48742(8) 0.2552(3)
C4 C 0.71832(19) 0.43918(8) 0.3072(3)
C5 C 0.74819(19) 0.54253(8) 0.2972(3)
C6 C 0.94148(19) 0.48076(9) 0.2261(3)
C7 C 0.6222(2) 0.55078(8) 0.3856(3)
C8 C 0.7449(2) 0.64070(9) 0.3744(3)
C9 C 0.8330(2) 0.59400(9) 0.2993(3)
C10 C 1.0297(2) 0.52992(10) 0.2398(3)
C11 C 0.7766(2) 0.38247(9) 0.3256(3)
C12 C 0.5464(2) 0.50155(9) 0.4452(3)
H5 H 0.46470 0.50650 0.50720
C13 C 0.9715(2) 0.58796(9) 0.2693(3)
H6 H 1.02700 0.62120 0.26810
C14 C 0.9960(2) 0.42345(10) 0.2457(3)
C15 C 0.9861(3) 0.32939(10) 0.3786(3)
C16 C 0.59786(19) 0.44432(9) 0.4081(3)
C17 C 1.1295(2) 0.40974(11) 0.2877(3)
C18 C 0.7695(3) 0.70048(9) 0.4055(3)
H7 H 0.85090 0.71760 0.36910
C19 C 1.2201(2) 0.45759(12) 0.2853(4)
H8 H 1.31260 0.45120 0.30150
C20 C 0.5203(3) 0.6489(1) 0.5163(3)
H9 H 0.43800 0.63240 0.55200
C21 C 1.1707(2) 0.51568(10) 0.2583(3)
H10 H 1.23340 0.54630 0.25230
C22 C 0.6184(2) 0.61452(9) 0.4301(3)
C23 C 0.9125(2) 0.37457(10) 0.2957(3)
C24 C 0.6972(3) 0.34689(10) 0.4440(4)
C25 C 0.9076(3) 0.29019(10) 0.4836(4)
H11 H 0.94990 0.25700 0.53250
C26 C 0.6693(3) 0.73432(10) 0.4925(4)
H12 H 0.68430 0.77430 0.51290
C27 C 0.7662(3) 0.29865(10) 0.5192(4)
H13 H 0.71980 0.27190 0.59280
C28 C 0.5475(3) 0.70879(11) 0.5486(4)
H14 H 0.48330 0.73180 0.60850
loop_
_geom_bond_atom_site_label_1
_geom_bond_atom_site_label_2
_geom_bond_distance
_geom_bond_site_symmetry_1
_geom_bond_site_symmetry_2
C1 H1 0.970 1_555 1_555
H2 C1 0.970 1_555 1_555
C2 H3 0.970 1_555 1_555
H4 C2 0.970 1_555 1_555
C3 C4 1.405 1_555 1_555
C4 C11 1.413 1_555 1_555
C5 C3 1.381 1_555 1_555
C6 C3 1.425 1_555 1_555
C7 C5 1.412 1_555 1_555
C8 C9 1.474 1_555 1_555
C9 C5 1.434 1_555 1_555
C10 C6 1.416 1_555 1_555
C11 C23 1.368 1_555 1_555
C12 C7 1.411 1_555 1_555
H5 C12 0.931 1_555 1_555
C13 C9 1.389 1_555 1_555
H6 C13 0.931 1_555 1_555
C14 C6 1.412 1_555 1_555
C15 C1 1.547 1_555 1_555
C16 C2 1.546 1_555 1_555
C17 C1 1.557 1_555 1_555
C18 C8 1.394 1_555 1_555
H7 C18 0.930 1_555 1_555
C19 C17 1.404 1_555 1_555
H8 C19 0.930 1_555 1_555
C20 H9 0.930 1_555 1_555
C21 C10 1.432 1_555 1_555
H10 C21 0.930 1_555 1_555
C22 C7 1.481 1_555 1_555
C23 C14 1.427 1_555 1_555
C24 C2 1.565 1_555 1_555
C25 C15 1.406 1_555 1_555
H11 C25 0.931 1_555 1_555
C26 C18 1.403 1_555 1_555
H12 C26 0.930 1_555 1_555
C27 C24 1.400 1_555 1_555
H13 C27 0.931 1_555 1_555
C28 C20 1.403 1_555 1_555
H14 C28 0.929 1_555 1_555
C4 C16 1.402 1_555 1_555
C8 C22 1.439 1_555 1_555
C10 C13 1.450 1_555 1_555
C11 C24 1.418 1_555 1_555
C12 C16 1.418 1_555 1_555
C14 C17 1.386 1_555 1_555
C15 C23 1.393 1_555 1_555
C19 C21 1.417 1_555 1_555
C20 C22 1.392 1_555 1_555
C25 C27 1.430 1_555 1_555
C26 C28 1.394 1_555 1_555
#END
