
#######################################################################
#
#                 Cambridge Crystallographic Data Centre
#                                CCDC
#
#######################################################################
#
# If this CIF has been generated from an entry in the Cambridge
# Structural Database, then it will include bibliographic, chemical,
# crystal, experimental, refinement or atomic coordinate data resulting
# from the CCDC's data processing and validation procedures.
#
#######################################################################

data_CSD_CIF_DEMBON
_audit_creation_date 2006-09-26
_audit_creation_method CSD-ConQuest-V1
_database_code_CSD DEMBON
_database_code_depnum_ccdc_archive 'CCDC 618243'
_chemical_formula_sum 'C30 H18'
_chemical_formula_moiety
;
C30 H18
;
_journal_coeditor_code "IUCr IS2050"
_journal_coden_Cambridge 1370
_journal_volume 62
_journal_year 2006
_journal_page_first o3410
_journal_name_full 'Acta Crystallogr.,Sect.E:Struct.Rep.Online '
loop_
_publ_author_name
"T.Kubo"
"K.Nakasuji"
_chemical_name_systematic
;
bis(9-Phenanthryl)ethyne
;
_chemical_melting_point 516
_cell_volume    959.858
_exptl_crystal_colour 'colorless'
_exptl_crystal_density_diffrn 1.309
_exptl_special_details
;
Melting point range 516-518K

;
_exptl_crystal_description 'prism'
_exptl_crystal_preparation 'benzene'
_diffrn_ambient_temperature 150
#These two values have been output from a single CSD field.
_refine_ls_R_factor_gt 0.0454
_refine_ls_wR_factor_gt 0.0454
_symmetry_cell_setting monoclinic
_symmetry_space_group_name_H-M 'P 21/c'
_symmetry_Int_Tables_number 14
loop_
_symmetry_equiv_pos_site_id
_symmetry_equiv_pos_as_xyz
1 x,y,z
2 -x,1/2+y,1/2-z
3 -x,-y,-z
4 x,-1/2-y,-1/2+z
_cell_length_a 9.3403(8)
_cell_length_b 15.2266(11)
_cell_length_c 6.9007(5)
_cell_angle_alpha 90
_cell_angle_beta 102.0338(13)
_cell_angle_gamma 90
_cell_formula_units_Z 2
loop_
_atom_type_symbol
_atom_type_radius_bond
C 0.68
H 0.23
loop_
_atom_site_label
_atom_site_type_symbol
_atom_site_fract_x
_atom_site_fract_y
_atom_site_fract_z
C1 C 0.47993(11) 0.01799(6) 0.92192(15)
C2 C 0.43548(11) 0.06022(6) 0.73302(14)
C3 C 0.29146(11) 0.06268(6) 0.64007(15)
C4 C 0.24495(11) 0.10142(6) 0.44845(15)
C5 C 0.09541(12) 0.10037(7) 0.35211(17)
C6 C 0.05009(12) 0.13640(7) 0.16696(18)
C7 C 0.15306(13) 0.17465(7) 0.07087(16)
C8 C 0.29921(12) 0.17623(7) 0.16138(16)
C9 C 0.34933(11) 0.13988(6) 0.35194(15)
C10 C 0.50284(11) 0.14027(6) 0.45150(15)
C11 C 0.61247(11) 0.17975(6) 0.36754(16)
C12 C 0.75734(12) 0.17803(7) 0.46387(17)
C13 C 0.79952(11) 0.13606(7) 0.64737(17)
C14 C 0.69535(11) 0.09771(7) 0.73422(15)
C15 C 0.54608(11) 0.09947(6) 0.63996(14)
H1 H 0.22030 0.03800 0.70430
H2 H 0.02540 0.07440 0.41650
H3 H -0.05060 0.13540 0.10420
H4 H 0.12180 0.19960 -0.05720
H5 H 0.36760 0.20230 0.09440
H6 H 0.58590 0.20800 0.24240
H7 H 0.82920 0.20560 0.40530
H8 H 0.89980 0.13410 0.71170
H9 H 0.72430 0.06970 0.85930
C1B C 0.52007(11) -0.01799(6) 1.07808(15)
C2B C 0.56452(11) -0.06022(6) 1.26698(14)
C3B C 0.70854(11) -0.06268(6) 1.35993(15)
C4B C 0.75505(11) -0.10142(6) 1.55155(15)
C5B C 0.90459(12) -0.10037(7) 1.64789(17)
C6B C 0.94991(12) -0.13640(7) 1.83304(18)
C7B C 0.84694(13) -0.17465(7) 1.92913(16)
C8B C 0.70079(12) -0.17623(7) 1.83862(16)
C9B C 0.65067(11) -0.13988(6) 1.64806(15)
C10B C 0.49716(11) -0.14027(6) 1.54850(15)
C11B C 0.38753(11) -0.17975(6) 1.63246(16)
C12B C 0.24266(12) -0.17803(7) 1.53613(17)
C13B C 0.20048(11) -0.13606(7) 1.35263(17)
C14B C 0.30465(11) -0.09771(7) 1.26578(15)
C15B C 0.45392(11) -0.09947(6) 1.36004(14)
H1B H 0.77970 -0.03800 1.29570
H2B H 0.97460 -0.07440 1.58350
H3B H 1.05060 -0.13540 1.89580
H4B H 0.87820 -0.19960 2.05720
H5B H 0.63240 -0.20230 1.90560
H6B H 0.41410 -0.20800 1.75760
H7B H 0.17080 -0.20560 1.59470
H8B H 0.10020 -0.13410 1.28830
H9B H 0.27570 -0.06970 1.14070
loop_
_geom_bond_atom_site_label_1
_geom_bond_atom_site_label_2
_geom_bond_distance
_geom_bond_site_symmetry_1
_geom_bond_site_symmetry_2
C1 C2 1.435 1_555 1_555
C2 C3 1.365 1_555 1_555
C3 C4 1.430 1_555 1_555
C4 C5 1.416 1_555 1_555
C5 C6 1.374 1_555 1_555
C6 C7 1.404 1_555 1_555
C7 C8 1.378 1_555 1_555
C8 C9 1.414 1_555 1_555
C9 C4 1.417 1_555 1_555
C10 C9 1.455 1_555 1_555
C11 C10 1.412 1_555 1_555
C12 C11 1.378 1_555 1_555
C13 C12 1.400 1_555 1_555
C14 C13 1.375 1_555 1_555
C15 C2 1.454 1_555 1_555
H1 C3 0.950 1_555 1_555
H2 C5 0.950 1_555 1_555
H3 C6 0.950 1_555 1_555
H4 C7 0.950 1_555 1_555
H5 C8 0.950 1_555 1_555
H6 C11 0.950 1_555 1_555
H7 C12 0.950 1_555 1_555
H8 C13 0.950 1_555 1_555
H9 C14 0.950 1_555 1_555
C1B C1 1.197 1_555 1_555
C2B C1B 1.435 1_555 1_555
C3B C2B 1.365 1_555 1_555
C4B C3B 1.430 1_555 1_555
C5B C4B 1.416 1_555 1_555
C6B C5B 1.374 1_555 1_555
C7B C6B 1.404 1_555 1_555
C8B C7B 1.378 1_555 1_555
C9B C4B 1.417 1_555 1_555
C10B C9B 1.455 1_555 1_555
C11B C10B 1.412 1_555 1_555
C12B C11B 1.378 1_555 1_555
C13B C12B 1.400 1_555 1_555
C14B C13B 1.375 1_555 1_555
C15B C2B 1.454 1_555 1_555
H1B C3B 0.950 1_555 1_555
H2B C5B 0.950 1_555 1_555
H3B C6B 0.950 1_555 1_555
H4B C7B 0.950 1_555 1_555
H5B C8B 0.950 1_555 1_555
H6B C11B 0.950 1_555 1_555
H7B C12B 0.950 1_555 1_555
H8B C13B 0.950 1_555 1_555
H9B C14B 0.950 1_555 1_555
C10 C15 1.422 1_555 1_555
C14 C15 1.411 1_555 1_555
C8B C9B 1.414 1_555 1_555
C10B C15B 1.422 1_555 1_555
C14B C15B 1.411 1_555 1_555
#END
