
#######################################################################
#
#                 Cambridge Crystallographic Data Centre
#                                CCDC
#
#######################################################################
#
# If this CIF has been generated from an entry in the Cambridge
# Structural Database, then it will include bibliographic, chemical,
# crystal, experimental, refinement or atomic coordinate data resulting
# from the CCDC's data processing and validation procedures.
#
#######################################################################

data_CSD_CIF_DESZEJ
_audit_creation_date 2018-02-08
_audit_creation_method CSD-ConQuest-V1
_database_code_CSD DESZEJ
_database_code_depnum_ccdc_archive 'CCDC 1584282'
_chemical_formula_sum 'C24 H20'
_chemical_formula_moiety
;
C24 H20
;
_journal_coden_Cambridge 1336
_journal_volume 20
_journal_year 2018
_journal_page_first 966
_journal_name_full 'Org.Lett. '
loop_
_publ_author_name
"J.Karunakaran"
"A.K.Mohanakrishnan"
_chemical_name_systematic
;
1,4-bis(4-methylphenyl)naphthalene
;
_chemical_melting_point 437
_cell_volume   1741.955
_exptl_crystal_colour 'yellow'
_exptl_crystal_density_diffrn 1.176
_exptl_crystal_description 'block'
_exptl_crystal_preparation 'dichloromethane'
_diffrn_ambient_temperature 296
#These two values have been output from a single CSD field.
_refine_ls_R_factor_gt 0.0514
_refine_ls_wR_factor_gt 0.0514
_symmetry_cell_setting monoclinic
_symmetry_space_group_name_H-M 'P 21/c'
_symmetry_Int_Tables_number 14
loop_
_symmetry_equiv_pos_site_id
_symmetry_equiv_pos_as_xyz
1 x,y,z
2 -x,1/2+y,1/2-z
3 -x,-y,-z
4 x,-1/2-y,-1/2+z
_cell_length_a 10.0953(15)
_cell_length_b 19.187(2)
_cell_length_c 10.1071(15)
_cell_angle_alpha 90
_cell_angle_beta 117.154(4)
_cell_angle_gamma 90
_cell_formula_units_Z 4
loop_
_atom_type_symbol
_atom_type_radius_bond
C 0.68
H 0.23
loop_
_atom_site_label
_atom_site_type_symbol
_atom_site_fract_x
_atom_site_fract_y
_atom_site_fract_z
C1 C 0.4062(3) 0.70589(14) 0.5063(3)
H1 H 0.50920 0.70510 0.56240
C2 C 0.3252(3) 0.75075(16) 0.5441(4)
H2 H 0.37300 0.78020 0.62540
C3 C 0.1710(3) 0.75291(16) 0.4621(4)
H3 H 0.11650 0.78440 0.48770
C4 C 0.0997(3) 0.70928(14) 0.3449(3)
H4 H -0.00350 0.71160 0.29100
C5 C 0.1787(3) 0.66035(13) 0.3030(3)
C6 C 0.3373(3) 0.66017(13) 0.3830(3)
C7 C 0.4219(3) 0.61412(13) 0.3395(3)
C8 C 0.3451(3) 0.57074(13) 0.2210(3)
H5 H 0.39840 0.54060 0.19100
C9 C 0.1892(3) 0.57016(13) 0.1434(3)
H6 H 0.14230 0.53970 0.06390
C10 C 0.1045(3) 0.61317(13) 0.1815(3)
C11 C 0.5870(3) 0.61190(14) 0.4189(3)
C12 C 0.6746(3) 0.67039(15) 0.4399(3)
H7 H 0.62900 0.71300 0.40250
C13 C 0.8275(3) 0.66690(16) 0.5148(3)
H8 H 0.88290 0.70720 0.52620
C14 C 0.9007(3) 0.60496(18) 0.5736(3)
C15 C 0.8139(3) 0.54626(17) 0.5508(3)
H9 H 0.85990 0.50360 0.58740
C16 C 0.6606(3) 0.54929(15) 0.4753(3)
H10 H 0.60550 0.50870 0.46180
C17 C 1.0684(3) 0.60137(18) 0.6579(4)
H11 H 1.10940 0.60230 0.58890
H12 H 1.09740 0.55900 0.71440
H13 H 1.10500 0.64050 0.72400
C18 C -0.0605(3) 0.61013(12) 0.0992(3)
C19 C -0.1479(3) 0.59850(15) 0.1706(4)
H14 H -0.10220 0.59240 0.27320
C20 C -0.3011(3) 0.59581(16) 0.0927(4)
H15 H -0.35600 0.58850 0.14440
C21 C -0.3745(3) 0.60357(14) -0.0586(4)
C22 C -0.2886(3) 0.61356(13) -0.1308(3)
H16 H -0.33510 0.61830 -0.23370
C23 C -0.1354(3) 0.61672(13) -0.0542(3)
H17 H -0.08110 0.62340 -0.10670
C24 C -0.5423(3) 0.60126(17) -0.1421(4)
H18 H -0.57930 0.56810 -0.09580
H19 H -0.57250 0.58760 -0.24330
H20 H -0.58190 0.64660 -0.14040
loop_
_geom_bond_atom_site_label_1
_geom_bond_atom_site_label_2
_geom_bond_distance
_geom_bond_site_symmetry_1
_geom_bond_site_symmetry_2
C1 H1 0.930 1_555 1_555
C2 C1 1.357 1_555 1_555
H2 C2 0.930 1_555 1_555
C3 C2 1.391 1_555 1_555
H3 C3 0.930 1_555 1_555
C4 C3 1.358 1_555 1_555
H4 C4 0.931 1_555 1_555
C5 C4 1.416 1_555 1_555
C6 C1 1.420 1_555 1_555
C7 C6 1.430 1_555 1_555
C8 C7 1.371 1_555 1_555
H5 C8 0.930 1_555 1_555
C9 C8 1.402 1_555 1_555
H6 C9 0.930 1_555 1_555
C10 C5 1.431 1_555 1_555
C11 C7 1.484 1_555 1_555
C12 C11 1.384 1_555 1_555
H7 C12 0.930 1_555 1_555
C13 C12 1.376 1_555 1_555
H8 C13 0.930 1_555 1_555
C14 C13 1.382 1_555 1_555
C15 C14 1.380 1_555 1_555
H9 C15 0.930 1_555 1_555
C16 C11 1.391 1_555 1_555
H10 C16 0.930 1_555 1_555
C17 C14 1.510 1_555 1_555
H11 C17 0.960 1_555 1_555
H12 C17 0.959 1_555 1_555
H13 C17 0.960 1_555 1_555
C18 C10 1.485 1_555 1_555
C19 C18 1.389 1_555 1_555
H14 C19 0.930 1_555 1_555
C20 C19 1.380 1_555 1_555
H15 C20 0.930 1_555 1_555
C21 C20 1.369 1_555 1_555
C22 C21 1.378 1_555 1_555
H16 C22 0.930 1_555 1_555
C23 C18 1.386 1_555 1_555
H17 C23 0.930 1_555 1_555
C24 C21 1.510 1_555 1_555
H18 C24 0.961 1_555 1_555
H19 C24 0.961 1_555 1_555
H20 C24 0.961 1_555 1_555
C5 C6 1.427 1_555 1_555
C9 C10 1.364 1_555 1_555
C15 C16 1.379 1_555 1_555
C22 C23 1.379 1_555 1_555
#END
