
#######################################################################
#
#                 Cambridge Crystallographic Data Centre
#                                CCDC
#
#######################################################################
#
# If this CIF has been generated from an entry in the Cambridge
# Structural Database, then it will include bibliographic, chemical,
# crystal, experimental, refinement or atomic coordinate data resulting
# from the CCDC's data processing and validation procedures.
#
#######################################################################

data_CSD_CIF_DITBEN01
_audit_creation_date 2015-06-11
_audit_creation_method CSD-ConQuest-V1
_database_code_CSD DITBEN01
_database_code_depnum_ccdc_archive 'CCDC 1059941'
_chemical_formula_sum 'C30 H18'
_chemical_formula_moiety
;
C30 H18
;
_journal_coden_Cambridge 1350
_journal_volume 17
_journal_year 2015
_journal_page_first 4877
_journal_name_full 'CrystEngComm '
loop_
_publ_author_name
"R.I.Goldstein"
"Rui Guo"
"C.Hughes"
"D.P.Maurer"
"T.R.Newhouse"
"T.J.Sisto"
"R.R.Conry"
"S.L.Price"
"D.M.Thamattoor"
_chemical_name_systematic
;
1,2-bis(9-Anthryl)acetylene
;
_cell_volume    946.378
_exptl_crystal_colour 'red'
_exptl_crystal_density_diffrn 1.328
_exptl_special_details
;
alpha P21/n polymorph

;
_exptl_crystal_description 'needle'
_diffrn_ambient_temperature 173
#These two values have been output from a single CSD field.
_refine_ls_R_factor_gt 0.053
_refine_ls_wR_factor_gt 0.053
_symmetry_cell_setting monoclinic
_symmetry_space_group_name_H-M 'P 21/n'
_symmetry_Int_Tables_number 14
loop_
_symmetry_equiv_pos_site_id
_symmetry_equiv_pos_as_xyz
1 x,y,z
2 1/2-x,1/2+y,1/2-z
3 -x,-y,-z
4 -1/2+x,-1/2-y,-1/2+z
_cell_length_a 12.388(3)
_cell_length_b 5.0693(11)
_cell_length_c 15.112(3)
_cell_angle_alpha 90
_cell_angle_beta 94.269(3)
_cell_angle_gamma 90
_cell_formula_units_Z 2
loop_
_atom_type_symbol
_atom_type_radius_bond
C 0.68
H 0.23
loop_
_atom_site_label
_atom_site_type_symbol
_atom_site_fract_x
_atom_site_fract_y
_atom_site_fract_z
C1 C 0.93427(13) 0.2087(3) 0.42073(10)
C2 C 0.98884(13) 0.1202(3) 0.34739(10)
C3 C 1.08728(15) 0.2342(3) 0.32376(11)
H1 H 1.11900 0.37350 0.35880
C4 C 1.13716(16) 0.1481(4) 0.25205(12)
H2 H 1.20230 0.23000 0.23710
C5 C 1.09301(16) -0.0624(3) 0.19941(12)
H3 H 1.12900 -0.12200 0.14980
C6 C 0.99996(15) -0.1784(3) 0.21969(12)
H4 H 0.97130 -0.32020 0.18420
C7 C 0.94383(14) -0.0919(3) 0.29346(11)
C8 C 0.84657(14) -0.2055(3) 0.31371(11)
H5 H 0.81760 -0.34690 0.27810
C9 C 0.79032(14) -0.1184(3) 0.38450(11)
C10 C 0.68973(15) -0.2327(3) 0.40382(12)
H6 H 0.66040 -0.37290 0.36790
C11 C 0.63535(15) -0.1458(4) 0.47220(12)
H7 H 0.56830 -0.22460 0.48390
C12 C 0.67784(16) 0.0625(3) 0.52657(12)
H8 H 0.63900 0.12320 0.57450
C13 C 0.77396(14) 0.1764(3) 0.51072(11)
H9 H 0.80140 0.31520 0.54820
C14 C 0.83413(13) 0.0926(3) 0.43947(10)
C15 C 0.98034(13) 0.4141(3) 0.47657(10)
C1B C 1.06573(13) 0.7913(3) 0.57927(10)
C2B C 1.01116(13) 0.8798(3) 0.65261(10)
C3B C 0.91272(15) 0.7658(3) 0.67624(11)
H1B H 0.88100 0.62650 0.64120
C4B C 0.86284(16) 0.8519(4) 0.74795(12)
H2B H 0.79770 0.77000 0.76290
C5B C 0.90699(16) 1.0624(3) 0.80059(12)
H3B H 0.87100 1.12200 0.85020
C6B C 1.00004(15) 1.1784(3) 0.78031(12)
H4B H 1.02870 1.32020 0.81580
C7B C 1.05617(14) 1.0919(3) 0.70654(11)
C8B C 1.15343(14) 1.2055(3) 0.68629(11)
H5B H 1.18240 1.34690 0.72190
C9B C 1.20968(14) 1.1184(3) 0.61550(11)
C10B C 1.31027(15) 1.2327(3) 0.59618(12)
H6B H 1.33960 1.37290 0.63210
C11B C 1.36465(15) 1.1458(4) 0.52780(12)
H7B H 1.43170 1.22460 0.51610
C12B C 1.32216(16) 0.9375(3) 0.47343(12)
H8B H 1.36100 0.87680 0.42550
C13B C 1.22604(14) 0.8236(3) 0.48928(11)
H9B H 1.19860 0.68480 0.45180
C14B C 1.16587(13) 0.9074(3) 0.56053(10)
C15B C 1.01966(13) 0.5859(3) 0.52343(10)
loop_
_geom_bond_atom_site_label_1
_geom_bond_atom_site_label_2
_geom_bond_distance
_geom_bond_site_symmetry_1
_geom_bond_site_symmetry_2
C1 C2 1.414 1_555 1_555
C2 C3 1.419 1_555 1_555
C3 H1 0.950 1_555 1_555
C4 C3 1.359 1_555 1_555
H2 C4 0.950 1_555 1_555
C5 C4 1.416 1_555 1_555
H3 C5 0.950 1_555 1_555
C6 C5 1.349 1_555 1_555
H4 C6 0.950 1_555 1_555
C7 C2 1.436 1_555 1_555
C8 C7 1.390 1_555 1_555
H5 C8 0.950 1_555 1_555
C9 C8 1.391 1_555 1_555
C10 C9 1.424 1_555 1_555
H6 C10 0.950 1_555 1_555
C11 C10 1.349 1_555 1_555
H7 C11 0.950 1_555 1_555
C12 C11 1.415 1_555 1_555
H8 C12 0.950 1_555 1_555
C13 C12 1.361 1_555 1_555
H9 C13 0.950 1_555 1_555
C14 C1 1.420 1_555 1_555
C15 C1 1.432 1_555 1_555
C1B C2B 1.414 1_555 1_555
C2B C3B 1.419 1_555 1_555
C3B H1B 0.950 1_555 1_555
C4B C3B 1.359 1_555 1_555
H2B C4B 0.950 1_555 1_555
C5B C4B 1.416 1_555 1_555
H3B C5B 0.950 1_555 1_555
C6B C5B 1.349 1_555 1_555
H4B C6B 0.950 1_555 1_555
C7B C2B 1.436 1_555 1_555
C8B C7B 1.390 1_555 1_555
H5B C8B 0.950 1_555 1_555
C9B C8B 1.391 1_555 1_555
C10B C9B 1.424 1_555 1_555
H6B C10B 0.950 1_555 1_555
C11B C10B 1.349 1_555 1_555
H7B C11B 0.950 1_555 1_555
C12B C11B 1.415 1_555 1_555
H8B C12B 0.950 1_555 1_555
C13B C12B 1.361 1_555 1_555
H9B C13B 0.950 1_555 1_555
C14B C1B 1.420 1_555 1_555
C15B C15 1.202 1_555 1_555
C6 C7 1.426 1_555 1_555
C9 C14 1.436 1_555 1_555
C13 C14 1.419 1_555 1_555
C1B C15B 1.432 1_555 1_555
C6B C7B 1.426 1_555 1_555
C9B C14B 1.436 1_555 1_555
C13B C14B 1.419 1_555 1_555
#END
