
#######################################################################
#
#                 Cambridge Crystallographic Data Centre
#                                CCDC
#
#######################################################################
#
# If this CIF has been generated from an entry in the Cambridge
# Structural Database, then it will include bibliographic, chemical,
# crystal, experimental, refinement or atomic coordinate data resulting
# from the CCDC's data processing and validation procedures.
#
#######################################################################

data_CSD_CIF_DMBPHA
_audit_creation_date 1971-12-31
_audit_creation_method CSD-ConQuest-V1
_database_code_CSD DMBPHA
_database_code_depnum_ccdc_archive 'CCDC 1142539'
_chemical_formula_sum 'C20 H16'
_chemical_formula_moiety
;
C20 H16
;
_journal_coden_Cambridge 2
_journal_year 1963
_journal_page_first 2108
_journal_name_full 'J.Chem.Soc. '
loop_
_publ_author_name
"F.L.Hirshfeld"
"S.Sandler"
"G.M.J.Schmidt"
_chemical_name_systematic
;
1,12-Dimethylbenzo(c)phenanthrene
;
_cell_volume   1356.985
_diffrn_ambient_temperature ?
_diffrn_special_details
;
The study was carried out at room temperature,in the range 283-303K

;
#These two values have been output from a single CSD field.
_refine_ls_R_factor_gt 0.104
_refine_ls_wR_factor_gt 0.104
_symmetry_cell_setting orthorhombic
_symmetry_space_group_name_H-M 'P b n a'
_symmetry_Int_Tables_number 60
loop_
_symmetry_equiv_pos_site_id
_symmetry_equiv_pos_as_xyz
1 x,y,z
2 1/2-x,-y,1/2+z
3 x,1/2-y,-z
4 1/2-x,1/2+y,1/2-z
5 -x,-y,-z
6 -1/2+x,y,-1/2-z
7 -x,-1/2+y,z
8 -1/2+x,-1/2-y,-1/2+z
_cell_length_a 15.42
_cell_length_b 12.165
_cell_length_c 7.234
_cell_angle_alpha 90
_cell_angle_beta 90
_cell_angle_gamma 90
_cell_formula_units_Z 4
loop_
_atom_type_symbol
_atom_type_radius_bond
C 0.68
H 0.20
loop_
_atom_site_label
_atom_site_type_symbol
_atom_site_fract_x
_atom_site_fract_y
_atom_site_fract_z
C1 C 0.35320 0.13000 -0.10410
C2 C 0.13560 0.25000 0.00000
C3 C 0.39590 0.12580 0.08330
C4 C 0.38980 0.06860 -0.24730
C5 C 0.34870 0.05390 -0.41700
C6 C 0.26520 0.09260 -0.44100
C7 C 0.13240 0.17200 -0.30960
C8 C 0.08930 0.21160 -0.15840
C9 C 0.27030 0.18090 -0.13560
C10 C 0.22420 0.15200 -0.29740
C11 C 0.22730 0.25000 0.00000
H1 H 0.44380 0.02820 -0.22530
H2 H 0.36990 0.02110 -0.48460
H3 H 0.23640 0.07290 -0.55270
H4 H 0.10760 0.15150 -0.42400
H5 H 0.02350 0.21770 -0.16130
H6 H 0.35110 0.12600 0.14900
H7 H 0.44350 0.05700 0.08910
H8 H 0.44640 0.17980 0.07490
C8B C 0.08930 0.28840 0.15840
C9B C 0.27030 0.31910 0.13560
C7B C 0.13240 0.32800 0.30960
H5B H 0.02350 0.28230 0.16130
C1B C 0.35320 0.37000 0.10410
C10B C 0.22420 0.34800 0.29740
H4B H 0.10760 0.34850 0.42400
C3B C 0.39590 0.37420 -0.08330
C4B C 0.38980 0.43140 0.24730
C6B C 0.26520 0.40740 0.44100
H6B H 0.35110 0.37400 -0.14900
H7B H 0.44350 0.44300 -0.08910
H8B H 0.44640 0.32020 -0.07490
C5B C 0.34870 0.44610 0.41700
H1B H 0.44380 0.47180 0.22530
H3B H 0.23640 0.42710 0.55270
H2B H 0.36990 0.47890 0.48460
loop_
_geom_bond_atom_site_label_1
_geom_bond_atom_site_label_2
_geom_bond_distance
_geom_bond_site_symmetry_1
_geom_bond_site_symmetry_2
C1 C3 1.508 1_555 1_555
C2 C8 1.429 1_555 1_555
C3 H6 0.839 1_555 1_555
C4 C1 1.396 1_555 1_555
C5 C4 1.393 1_555 1_555
C6 C5 1.382 1_555 1_555
C7 C8 1.368 1_555 1_555
C8 H5 1.018 1_555 1_555
C9 C1 1.439 1_555 1_555
C10 C6 1.415 1_555 1_555
C11 C2 1.414 1_555 1_555
H1 C4 0.980 1_555 1_555
H2 C5 0.711 1_555 1_555
H3 C6 0.953 1_555 1_555
H4 C7 0.945 1_555 1_555
H7 C3 1.114 1_555 1_555
H8 C3 1.021 1_555 1_555
C8B C2 1.429 1_555 1_555
C9B C11 1.452 1_555 1_555
C7B C8B 1.368 1_555 1_555
H5B C8B 1.018 1_555 1_555
C1B C9B 1.439 1_555 1_555
C10B C9B 1.414 1_555 1_555
H4B C7B 0.945 1_555 1_555
C3B C1B 1.508 1_555 1_555
C4B C1B 1.396 1_555 1_555
C6B C10B 1.415 1_555 1_555
H6B C3B 0.839 1_555 1_555
H7B C3B 1.114 1_555 1_555
H8B C3B 1.021 1_555 1_555
C5B C4B 1.393 1_555 1_555
H1B C4B 0.980 1_555 1_555
H3B C6B 0.953 1_555 1_555
H2B C5B 0.711 1_555 1_555
C7 C10 1.439 1_555 1_555
C9 C10 1.414 1_555 1_555
C9 C11 1.452 1_555 1_555
C7B C10B 1.439 1_555 1_555
C6B C5B 1.382 1_555 1_555
#END
