
#######################################################################
#
#                 Cambridge Crystallographic Data Centre
#                                CCDC
#
#######################################################################
#
# If this CIF has been generated from an entry in the Cambridge
# Structural Database, then it will include bibliographic, chemical,
# crystal, experimental, refinement or atomic coordinate data resulting
# from the CCDC's data processing and validation procedures.
#
#######################################################################

data_CSD_CIF_DMNAPH03
_audit_creation_date 2001-04-25
_audit_creation_method CSD-ConQuest-V1
_database_code_CSD DMNAPH03
_database_code_depnum_ccdc_archive 'CCDC 158802'
_database_code_depnum_ccdc_journal 440/219
_chemical_formula_sum 'C12 H12'
_chemical_formula_moiety
;
C12 H12
;
_journal_coden_Cambridge 440
_journal_volume 24
_journal_year 2000
_journal_page_first 1063
_journal_name_full 'New J.Chem. '
loop_
_publ_author_name
"C.C.Wilson"
"H.Nowell"
_chemical_name_systematic
;
1,8-Dimethylnaphthalene
;
_cell_volume    891.660
_exptl_crystal_colour 'pale yellow'
_exptl_crystal_density_diffrn 1.162
_exptl_crystal_description 'thick plate'
_exptl_crystal_preparation 'acetone'
_diffrn_ambient_temperature 100
_diffrn_radiation_probe 'neutron radiation'
#These two values have been output from a single CSD field.
_refine_ls_R_factor_gt 0.0933
_refine_ls_wR_factor_gt 0.0933
_symmetry_cell_setting monoclinic
_symmetry_space_group_name_H-M 'P 21/c'
_symmetry_Int_Tables_number 14
loop_
_symmetry_equiv_pos_site_id
_symmetry_equiv_pos_as_xyz
1 x,y,z
2 x,1/2-y,1/2+z
3 -x,-y,-z
4 -x,-1/2+y,-1/2-z
_cell_length_a 9.678(2)
_cell_length_b 6.917(2)
_cell_length_c 16.141(4)
_cell_angle_alpha 90
_cell_angle_beta 124.39(2)
_cell_angle_gamma 90
_cell_formula_units_Z 4
loop_
_atom_type_symbol
_atom_type_radius_bond
C 0.68
H 0.23
loop_
_atom_site_label
_atom_site_type_symbol
_atom_site_fract_x
_atom_site_fract_y
_atom_site_fract_z
C1 C 0.2491(5) -0.0639(6) 0.4621(4)
C2 C 0.1663(6) 0.0594(8) 0.4891(4)
C3 C 0.0862(6) 0.2309(8) 0.4368(4)
C4 C 0.0953(5) 0.2847(7) 0.3580(4)
C5 C 0.1813(5) 0.1676(6) 0.3284(3)
C6 C 0.2598(5) -0.0106(6) 0.3799(3)
C7 C 0.3427(5) -0.1216(7) 0.3442(4)
C8 C 0.3454(6) -0.0514(9) 0.2649(4)
C9 C 0.2693(7) 0.1225(10) 0.2159(5)
C10 C 0.1872(6) 0.2316(8) 0.2467(4)
C11 C 0.3216(7) -0.2453(8) 0.5247(5)
C12 C 0.4285(7) -0.3141(8) 0.3876(5)
H1 H 0.1607(18) 0.015(2) 0.5524(12)
H2 H 0.0187(18) 0.319(2) 0.4589(14)
H3 H 0.0345(14) 0.4162(19) 0.3163(10)
H4 H 0.1200(15) 0.3644(19) 0.2074(10)
H5 H 0.273(2) 0.171(3) 0.1534(13)
H6 H 0.4105(17) -0.136(2) 0.2401(10)
H7 H 0.4580(14) -0.2529(19) 0.5632(12)
H8 H 0.2671(18) -0.3771(18) 0.4814(12)
H9 H 0.292(3) -0.248(3) 0.5798(15)
H10 H 0.5355(15) -0.301(2) 0.4652(11)
H11 H 0.3446(18) -0.4217(19) 0.3826(14)
H12 H 0.474(2) -0.372(2) 0.3449(14)
loop_
_geom_bond_atom_site_label_1
_geom_bond_atom_site_label_2
_geom_bond_distance
_geom_bond_site_symmetry_1
_geom_bond_site_symmetry_2
C1 C2 1.398 1_555 1_555
C2 C3 1.408 1_555 1_555
C3 C4 1.375 1_555 1_555
C4 C5 1.423 1_555 1_555
C5 C6 1.440 1_555 1_555
C6 C1 1.436 1_555 1_555
C7 C6 1.445 1_555 1_555
C8 C7 1.383 1_555 1_555
C9 C8 1.399 1_555 1_555
C10 C5 1.422 1_555 1_555
C11 C1 1.512 1_555 1_555
C12 C7 1.515 1_555 1_555
H1 C2 1.097 1_555 1_555
H2 C3 1.090 1_555 1_555
H3 C4 1.086 1_555 1_555
H4 C10 1.097 1_555 1_555
H5 C9 1.083 1_555 1_555
H6 C8 1.088 1_555 1_555
H7 C11 1.098 1_555 1_555
H8 C11 1.087 1_555 1_555
H9 C11 1.078 1_555 1_555
H10 C12 1.088 1_555 1_555
H11 C12 1.070 1_555 1_555
H12 C12 1.083 1_555 1_555
C9 C10 1.376 1_555 1_555
#END
