
#######################################################################
#
#                 Cambridge Crystallographic Data Centre
#                                CCDC
#
#######################################################################
#
# If this CIF has been generated from an entry in the Cambridge
# Structural Database, then it will include bibliographic, chemical,
# crystal, experimental, refinement or atomic coordinate data resulting
# from the CCDC's data processing and validation procedures.
#
#######################################################################

data_CSD_CIF_DOGCEI
_audit_creation_date 2009-02-19
_audit_creation_method CSD-ConQuest-V1
_database_code_CSD DOGCEI
_database_code_depnum_ccdc_archive 'CCDC 671873'
_chemical_formula_sum 'C36 H24'
_chemical_formula_moiety
;
C36 H24
;
_journal_coden_Cambridge 1366
_journal_volume 350
_journal_year 2008
_journal_page_first 1841
_journal_name_full 'Adv.Synth.Catal. '
loop_
_publ_author_name
"Yao-Ting Wu"
"Wei-Chih Lin"
"Chia-Ju Liu"
"Chuan-Yi Wu"
_chemical_name_systematic
;
2-(1-Naphthyl)-3-(1-naphthylethynyl)-1,2-dihydrophenanthrene
;
_cell_volume   2440.456
_exptl_crystal_colour 'orange'
_exptl_crystal_density_diffrn 1.243
_exptl_crystal_description 'Lamellar'
_diffrn_ambient_temperature 296
#These two values have been output from a single CSD field.
_refine_ls_R_factor_gt 0.0646
_refine_ls_wR_factor_gt 0.0646
_symmetry_cell_setting monoclinic
_symmetry_space_group_name_H-M 'P 21/n'
_symmetry_Int_Tables_number 14
loop_
_symmetry_equiv_pos_site_id
_symmetry_equiv_pos_as_xyz
1 x,y,z
2 1/2-x,1/2+y,1/2-z
3 -x,-y,-z
4 -1/2+x,-1/2-y,-1/2+z
_cell_length_a 9.4820(17)
_cell_length_b 14.912(2)
_cell_length_c 17.501(2)
_cell_angle_alpha 90
_cell_angle_beta 99.524(8)
_cell_angle_gamma 90
_cell_formula_units_Z 4
loop_
_atom_type_symbol
_atom_type_radius_bond
C 0.68
H 0.23
loop_
_atom_site_label
_atom_site_type_symbol
_atom_site_fract_x
_atom_site_fract_y
_atom_site_fract_z
C1 C 0.7901(7) 0.0017(5) 0.9796(4)
C2 C 0.7720(8) -0.0863(5) 0.9938(4)
H1 H 0.77980 -0.12740 0.95470
C3 C 0.7408(7) -0.1197(5) 1.0668(4)
C4 C 0.7466(7) -0.2129(5) 1.0855(4)
C5 C 0.7797(8) -0.2802(5) 1.0333(4)
H2 H 0.80050 -0.26340 0.98520
C6 C 0.7812(8) -0.3693(6) 1.0528(5)
H3 H 0.80310 -0.41200 1.01790
C7 C 0.7502(9) -0.3967(6) 1.1248(6)
H4 H 0.75100 -0.45740 1.13730
C8 C 0.7191(8) -0.3348(6) 1.1763(5)
H5 H 0.69920 -0.35370 1.22400
C9 C 0.7161(8) -0.2412(6) 1.1588(5)
C10 C 0.6818(8) -0.1760(6) 1.2122(4)
H6 H 0.66390 -0.19360 1.26070
C11 C 0.6754(8) -0.0883(6) 1.1920(5)
H7 H 0.64950 -0.04640 1.22650
C12 C 0.7063(8) -0.0588(5) 1.1210(5)
C13 C 0.6949(8) 0.0383(5) 1.1005(4)
H8 H 0.59540 0.05210 1.08110
H9 H 0.72350 0.07320 1.14730
C14 C 0.7819(10) 0.0671(5) 1.0421(5)
H10 H 0.87870 0.06300 1.07200
C15 C 0.7718(10) 0.1659(5) 1.0243(5)
C16 C 0.870(1) 0.2295(5) 1.0643(5)
C17 C 0.9845(10) 0.2049(6) 1.1245(5)
H11 H 0.99800 0.14510 1.13880
C18 C 1.0729(10) 0.2681(8) 1.1605(5)
H12 H 1.14670 0.25060 1.19950
C19 C 1.0581(10) 0.3584(7) 1.1416(5)
H13 H 1.12080 0.40060 1.16750
C20 C 0.9498(11) 0.3844(5) 1.0843(6)
H14 H 0.93940 0.44470 1.07120
C21 C 0.8538(9) 0.3216(6) 1.0449(5)
C22 C 0.7415(11) 0.3495(6) 0.9860(5)
H15 H 0.73160 0.40970 0.97250
C23 C 0.6470(9) 0.2874(7) 0.9488(5)
H16 H 0.57190 0.30590 0.91100
C24 C 0.6638(10) 0.1957(6) 0.9679(5)
H17 H 0.60020 0.15440 0.94150
C25 C 0.8300(8) 0.0309(5) 0.9075(5)
C26 C 0.8651(8) 0.0527(5) 0.8480(5)
C27 C 0.9054(8) 0.0791(6) 0.7764(5)
C28 C 0.9276(8) 0.0161(6) 0.7225(5)
H18 H 0.91890 -0.04440 0.73360
C29 C 0.9629(9) 0.0416(7) 0.6514(5)
H19 H 0.97780 -0.00210 0.61560
C30 C 0.9759(8) 0.1301(8) 0.6338(5)
H20 H 1.00050 0.14580 0.58630
C31 C 0.9527(8) 0.1980(7) 0.6862(5)
C32 C 0.9572(9) 0.2897(8) 0.6682(5)
H21 H 0.97930 0.30630 0.62030
C33 C 0.9305(10) 0.3550(7) 0.7178(6)
H22 H 0.93230 0.41500 0.70350
C34 C 0.9007(9) 0.3312(6) 0.7897(6)
H23 H 0.88440 0.37560 0.82440
C35 C 0.8948(8) 0.2421(7) 0.8106(5)
H24 H 0.87500 0.22770 0.85940
C36 C 0.9181(8) 0.1718(6) 0.7591(5)
loop_
_geom_bond_atom_site_label_1
_geom_bond_atom_site_label_2
_geom_bond_distance
_geom_bond_site_symmetry_1
_geom_bond_site_symmetry_2
C1 C2 1.352 1_555 1_555
C2 H1 0.931 1_555 1_555
C3 C2 1.447 1_555 1_555
C4 C3 1.427 1_555 1_555
C5 C4 1.427 1_555 1_555
H2 C5 0.930 1_555 1_555
C6 C5 1.371 1_555 1_555
H3 C6 0.929 1_555 1_555
C7 C6 1.401 1_555 1_555
H4 C7 0.931 1_555 1_555
C8 C7 1.356 1_555 1_555
H5 C8 0.930 1_555 1_555
C9 C4 1.425 1_555 1_555
C10 C9 1.423 1_555 1_555
H6 C10 0.930 1_555 1_555
C11 C10 1.353 1_555 1_555
H7 C11 0.930 1_555 1_555
C12 C3 1.391 1_555 1_555
C13 C12 1.491 1_555 1_555
H8 C13 0.970 1_555 1_555
H9 C13 0.970 1_555 1_555
C14 C1 1.477 1_555 1_555
H10 C14 0.980 1_555 1_555
C15 C14 1.506 1_555 1_555
C16 C15 1.429 1_555 1_555
C17 C16 1.430 1_555 1_555
H11 C17 0.929 1_555 1_555
C18 C17 1.346 1_555 1_555
H12 C18 0.930 1_555 1_555
C19 C18 1.388 1_555 1_555
H13 C19 0.930 1_555 1_555
C20 C19 1.367 1_555 1_555
H14 C20 0.929 1_555 1_555
C21 C16 1.417 1_555 1_555
C22 C21 1.416 1_555 1_555
H15 C22 0.929 1_555 1_555
C23 C22 1.375 1_555 1_555
H16 C23 0.930 1_555 1_555
C24 C15 1.373 1_555 1_555
H17 C24 0.930 1_555 1_555
C25 C1 1.443 1_555 1_555
C26 C25 1.190 1_555 1_555
C27 C26 1.425 1_555 1_555
C28 C27 1.372 1_555 1_555
H18 C28 0.929 1_555 1_555
C29 C28 1.394 1_555 1_555
H19 C29 0.931 1_555 1_555
C30 C29 1.365 1_555 1_555
H20 C30 0.930 1_555 1_555
C31 C30 1.408 1_555 1_555
C32 C31 1.405 1_555 1_555
H21 C32 0.931 1_555 1_555
C33 C32 1.356 1_555 1_555
H22 C33 0.930 1_555 1_555
C34 C33 1.381 1_555 1_555
H23 C34 0.928 1_555 1_555
C35 C34 1.382 1_555 1_555
H24 C35 0.929 1_555 1_555
C36 C27 1.424 1_555 1_555
C8 C9 1.428 1_555 1_555
C11 C12 1.394 1_555 1_555
C13 C14 1.479 1_555 1_555
C20 C21 1.405 1_555 1_555
C23 C24 1.410 1_555 1_555
C31 C36 1.424 1_555 1_555
C35 C36 1.423 1_555 1_555
#END
