
#######################################################################
#
#                 Cambridge Crystallographic Data Centre
#                                CCDC
#
#######################################################################
#
# If this CIF has been generated from an entry in the Cambridge
# Structural Database, then it will include bibliographic, chemical,
# crystal, experimental, refinement or atomic coordinate data resulting
# from the CCDC's data processing and validation procedures.
#
#######################################################################

data_CSD_CIF_DPANTR07
_audit_creation_date 2016-03-03
_audit_creation_method CSD-ConQuest-V1
_database_code_CSD DPANTR07
_database_code_depnum_ccdc_archive 'CCDC 1442975'
_chemical_formula_sum 'C26 H18'
_chemical_formula_moiety
;
C26 H18
;
_journal_coden_Cambridge 1350
_journal_volume 18
_journal_year 2016
_journal_page_first 2173
_journal_name_full 'CrystEngComm '
loop_
_publ_author_name
"F.P.A.Fabbiani"
"S.Bergantin"
"Angelo Gavezzotti"
"S.Rizzato"
"M.Moret"
_chemical_name_systematic
;
9,10-Diphenylanthracene
;
_cell_volume   1501.815
_exptl_crystal_colour 'yellow'
_exptl_crystal_density_diffrn 1.461
_exptl_crystal_description 'block'
_exptl_crystal_preparation '1,1,2,2-tetrachloroethane'
_diffrn_ambient_temperature 296
#These two values have been output from a single CSD field.
_refine_ls_R_factor_gt 0.0528
_refine_ls_wR_factor_gt 0.0528
_symmetry_cell_setting monoclinic
_symmetry_space_group_name_H-M 'C 2/c'
_symmetry_Int_Tables_number 15
loop_
_symmetry_equiv_pos_site_id
_symmetry_equiv_pos_as_xyz
1 x,y,z
2 -x,y,1/2-z
3 1/2+x,1/2+y,z
4 1/2-x,1/2+y,1/2-z
5 -x,-y,-z
6 x,-y,-1/2+z
7 -1/2-x,-1/2-y,-z
8 -1/2+x,-1/2-y,-1/2+z
_cell_length_a 10.041(2)
_cell_length_b 13.150(2)
_cell_length_c 11.378(2)
_cell_angle_alpha 90
_cell_angle_beta 88.483(17)
_cell_angle_gamma 90
_cell_formula_units_Z 4
loop_
_atom_type_symbol
_atom_type_radius_bond
C 0.68
H 0.23
loop_
_atom_site_label
_atom_site_type_symbol
_atom_site_fract_x
_atom_site_fract_y
_atom_site_fract_z
C1 C 0.0200(6) 0.1301(4) -0.0379(6)
H1 H 0.02520 0.07180 -0.08410
C2 C -0.0970(7) 0.1559(4) 0.0132(6)
H2 H -0.17110 0.11510 0.00150
C3 C 0.1236(6) 0.2791(4) 0.0496(6)
C4 C -0.0035(7) 0.3030(4) 0.0995(6)
H3 H -0.01320 0.36180 0.14420
C5 C -0.1104(8) 0.2434(4) 0.0841(6)
H4 H -0.19210 0.25960 0.11970
C6 C 0.2383(7) 0.3377(4) 0.0694(6)
C7 C 0.1365(7) 0.1900(4) -0.0230(6)
C8 C 0.2247(7) 0.4322(4) 0.1409(6)
C9 C 0.2923(7) 0.4431(4) 0.2439(6)
H5 H 0.34520 0.38990 0.26950
C10 C 0.2834(7) 0.5309(4) 0.3102(6)
H6 H 0.33240 0.53820 0.37790
C11 C 0.2000(8) 0.6078(5) 0.2737(6)
H7 H 0.18990 0.66610 0.31940
C12 C 0.1323(7) 0.5994(4) 0.1713(6)
H8 H 0.07860 0.65250 0.14660
C13 C 0.1440(6) 0.5118(4) 0.1050(5)
H9 H 0.09750 0.50590 0.03570
C1F C 0.4800(6) 0.3699(4) 0.0379(6)
H1F H 0.47480 0.42820 0.08410
C2F C 0.5970(7) 0.3441(4) -0.0132(6)
H2F H 0.67110 0.38490 -0.00150
C3F C 0.3764(6) 0.2209(4) -0.0496(6)
C4F C 0.5035(7) 0.1970(4) -0.0995(6)
H3F H 0.51320 0.13820 -0.14420
C5F C 0.6104(8) 0.2566(4) -0.0841(6)
H4F H 0.69210 0.24040 -0.11970
C6F C 0.2617(7) 0.1623(4) -0.0694(6)
C7F C 0.3635(7) 0.3100(4) 0.0230(6)
C8F C 0.2753(7) 0.0678(4) -0.1409(6)
C9F C 0.2077(7) 0.0569(4) -0.2439(6)
H5F H 0.15480 0.11010 -0.26950
C10F C 0.2166(7) -0.0309(4) -0.3102(6)
H6F H 0.16760 -0.03820 -0.37790
C11F C 0.3000(8) -0.1078(5) -0.2737(6)
H7F H 0.31010 -0.16610 -0.31940
C12F C 0.3677(7) -0.0994(4) -0.1713(6)
H8F H 0.42140 -0.15250 -0.14660
C13F C 0.3560(6) -0.0118(4) -0.1050(5)
H9F H 0.40250 -0.00590 -0.03570
loop_
_geom_bond_atom_site_label_1
_geom_bond_atom_site_label_2
_geom_bond_distance
_geom_bond_site_symmetry_1
_geom_bond_site_symmetry_2
C1 H1 0.930 1_555 1_555
C2 C1 1.341 1_555 1_555
H2 C2 0.930 1_555 1_555
C3 C4 1.418 1_555 1_555
C4 H3 0.929 1_555 1_555
C5 C2 1.410 1_555 1_555
H4 C5 0.930 1_555 1_555
C6 C3 1.409 1_555 1_555
C7 C1 1.424 1_555 1_555
C8 C6 1.490 1_555 1_555
C9 C8 1.377 1_555 1_555
H5 C9 0.930 1_555 1_555
C10 C9 1.381 1_555 1_555
H6 C10 0.930 1_555 1_555
C11 C10 1.384 1_555 1_555
H7 C11 0.930 1_555 1_555
C12 C11 1.369 1_555 1_555
H8 C12 0.930 1_555 1_555
C13 C8 1.392 1_555 1_555
H9 C13 0.930 1_555 1_555
C1F H1F 0.930 1_555 1_555
C2F C1F 1.341 1_555 1_555
H2F C2F 0.930 1_555 1_555
C3F C4F 1.418 1_555 1_555
C4F H3F 0.929 1_555 1_555
C5F C2F 1.410 1_555 1_555
H4F C5F 0.930 1_555 1_555
C6F C7 1.399 1_555 1_555
C7F C6 1.399 1_555 1_555
C8F C6F 1.490 1_555 1_555
C9F C8F 1.377 1_555 1_555
H5F C9F 0.930 1_555 1_555
C10F C9F 1.381 1_555 1_555
H6F C10F 0.930 1_555 1_555
C11F C10F 1.384 1_555 1_555
H7F C11F 0.930 1_555 1_555
C12F C11F 1.369 1_555 1_555
H8F C12F 0.930 1_555 1_555
C13F C8F 1.392 1_555 1_555
H9F C13F 0.930 1_555 1_555
C3 C7 1.437 1_555 1_555
C4 C5 1.344 1_555 1_555
C12 C13 1.380 1_555 1_555
C1F C7F 1.424 1_555 1_555
C3F C6F 1.409 1_555 1_555
C3F C7F 1.437 1_555 1_555
C4F C5F 1.344 1_555 1_555
C12F C13F 1.380 1_555 1_555
#END
