
#######################################################################
#
#                 Cambridge Crystallographic Data Centre
#                                CCDC
#
#######################################################################
#
# If this CIF has been generated from an entry in the Cambridge
# Structural Database, then it will include bibliographic, chemical,
# crystal, experimental, refinement or atomic coordinate data resulting
# from the CCDC's data processing and validation procedures.
#
#######################################################################

data_CSD_CIF_DUWHOT
_audit_creation_date 2010-09-06
_audit_creation_method CSD-ConQuest-V1
_database_code_CSD DUWHOT
_database_code_depnum_ccdc_archive 'CCDC 746565'
_chemical_formula_sum 'C30 H36'
_chemical_formula_moiety
;
C30 H36
;
_journal_coden_Cambridge 1291
_journal_year 2010
_journal_page_first 3033
_journal_name_full 'Eur.J.Org.Chem. '
loop_
_publ_author_name
"C.Kitamura"
"H.Tsukuda"
"A.Yoneda"
"T.Kawase"
"T.Kobayashi"
"H.Naito"
_chemical_name_systematic
;
1,4,7,10-Tetraisopropyltetracene
;
_chemical_melting_point 474
_cell_volume   2292.108
_exptl_crystal_colour 'orange'
_exptl_crystal_density_diffrn 1.149
_exptl_crystal_description 'prism'
_diffrn_ambient_temperature 223
#These two values have been output from a single CSD field.
_refine_ls_R_factor_gt 0.0595
_refine_ls_wR_factor_gt 0.0595
_symmetry_cell_setting monoclinic
_symmetry_space_group_name_H-M 'C 2/c'
_symmetry_Int_Tables_number 15
loop_
_symmetry_equiv_pos_site_id
_symmetry_equiv_pos_as_xyz
1 x,y,z
2 -x,y,1/2-z
3 1/2+x,1/2+y,z
4 1/2-x,1/2+y,1/2-z
5 -x,-y,-z
6 x,-y,-1/2+z
7 -1/2-x,-1/2-y,-z
8 -1/2+x,-1/2-y,-1/2+z
_cell_length_a 18.267(8)
_cell_length_b 6.339(2)
_cell_length_c 19.795(8)
_cell_angle_alpha 90
_cell_angle_beta 90.357(2)
_cell_angle_gamma 90
_cell_formula_units_Z 4
loop_
_atom_type_symbol
_atom_type_radius_bond
C 0.68
H 0.23
loop_
_atom_site_label
_atom_site_type_symbol
_atom_site_fract_x
_atom_site_fract_y
_atom_site_fract_z
C1 C 0.07972(9) 0.5188(2) -0.08694(8)
C2 C 0.04572(10) 0.6347(2) -0.13539(9)
H1 H 0.06870 0.75800 -0.15090
C3 C -0.02302(10) 0.5778(2) -0.16372(9)
H2 H -0.04470 0.66780 -0.19580
C4 C -0.05879(9) 0.3973(2) -0.14602(9)
C5 C -0.02678(9) 0.2685(2) -0.09322(8)
C6 C 0.04128(9) 0.3332(2) -0.06181(8)
C7 C 0.06796(9) 0.2175(2) -0.00740(8)
H3 H 0.11110 0.26260 0.01430
C8 C 0.03256(8) 0.0347(2) 0.01648(8)
C9 C -0.06041(9) 0.0848(2) -0.07043(8)
H4 H -0.10350 0.03900 -0.09210
C10 C 0.1554(1) 0.5729(2) -0.06040(9)
H5 H 0.15370 0.56750 -0.01040
C11 C 0.18169(11) 0.7931(2) -0.08051(11)
H6 H 0.18680 0.80020 -0.12920
H7 H 0.22870 0.82130 -0.05920
H8 H 0.14630 0.89740 -0.06580
C12 C 0.21212(10) 0.4117(2) -0.08363(10)
H9 H 0.19670 0.27130 -0.07040
H10 H 0.25910 0.44350 -0.06290
H11 H 0.21660 0.41800 -0.13240
C13 C -0.12865(10) 0.3283(3) -0.18152(10)
H12 H -0.15940 0.25560 -0.14770
C14 C -0.17368(11) 0.5097(4) -0.21060(12)
H13 H -0.18330 0.61210 -0.17530
H14 H -0.21970 0.45570 -0.22820
H15 H -0.14670 0.57680 -0.24680
C15 C -0.11098(12) 0.1683(3) -0.23708(12)
H16 H -0.08190 0.23600 -0.27170
H17 H -0.15620 0.11620 -0.25690
H18 H -0.08370 0.05140 -0.21780
C1D C -0.07972(9) -0.5188(2) 0.08694(8)
C2D C -0.04572(10) -0.6347(2) 0.13539(9)
H1D H -0.06870 -0.75800 0.15090
C3D C 0.02302(10) -0.5778(2) 0.16372(9)
H2D H 0.04470 -0.66780 0.19580
C4D C 0.05879(9) -0.3973(2) 0.14602(9)
C5D C 0.02678(9) -0.2685(2) 0.09322(8)
C6D C -0.04128(9) -0.3332(2) 0.06181(8)
C7D C -0.06796(9) -0.2175(2) 0.00740(8)
H3D H -0.11110 -0.26260 -0.01430
C8D C -0.03256(8) -0.0347(2) -0.01648(8)
C9D C 0.06041(9) -0.0848(2) 0.07043(8)
H4D H 0.10350 -0.03900 0.09210
C10D C -0.1554(1) -0.5729(2) 0.06040(9)
H5D H -0.15370 -0.56750 0.01040
C11D C -0.18169(11) -0.7931(2) 0.08051(11)
H6D H -0.18680 -0.80020 0.12920
H7D H -0.22870 -0.82130 0.05920
H8D H -0.14630 -0.89740 0.06580
C12D C -0.21212(10) -0.4117(2) 0.08363(10)
H9D H -0.19670 -0.27130 0.07040
H10D H -0.25910 -0.44350 0.06290
H11D H -0.21660 -0.41800 0.13240
C13D C 0.12865(10) -0.3283(3) 0.18152(10)
H12D H 0.15940 -0.25560 0.14770
C14D C 0.17368(11) -0.5097(4) 0.21060(12)
H13D H 0.18330 -0.61210 0.17530
H14D H 0.21970 -0.45570 0.22820
H15D H 0.14670 -0.57680 0.24680
C15D C 0.11098(12) -0.1683(3) 0.23708(12)
H16D H 0.08190 -0.23600 0.27170
H17D H 0.15620 -0.11620 0.25690
H18D H 0.08370 -0.05140 0.21780
loop_
_geom_bond_atom_site_label_1
_geom_bond_atom_site_label_2
_geom_bond_distance
_geom_bond_site_symmetry_1
_geom_bond_site_symmetry_2
C1 C2 1.356 1_555 1_555
C2 H1 0.940 1_555 1_555
C3 C2 1.419 1_555 1_555
H2 C3 0.939 1_555 1_555
C4 C3 1.364 1_555 1_555
C5 C4 1.447 1_555 1_555
C6 C1 1.459 1_555 1_555
C7 C6 1.389 1_555 1_555
H3 C7 0.940 1_555 1_555
C8 C7 1.410 1_555 1_555
C9 C5 1.393 1_555 1_555
H4 C9 0.940 1_555 1_555
C10 C1 1.515 1_555 1_555
H5 C10 0.991 1_555 1_555
C11 C10 1.530 1_555 1_555
H6 C11 0.970 1_555 1_555
H7 C11 0.971 1_555 1_555
H8 C11 0.971 1_555 1_555
C12 C10 1.528 1_555 1_555
H9 C12 0.970 1_555 1_555
H10 C12 0.970 1_555 1_555
H11 C12 0.970 1_555 1_555
C13 C4 1.517 1_555 1_555
H12 C13 0.990 1_555 1_555
C14 C13 1.525 1_555 1_555
H13 C14 0.971 1_555 1_555
H14 C14 0.970 1_555 1_555
H15 C14 0.970 1_555 1_555
C15 C13 1.532 1_555 1_555
H16 C15 0.970 1_555 1_555
H17 C15 0.970 1_555 1_555
H18 C15 0.970 1_555 1_555
C1D C2D 1.356 1_555 1_555
C2D H1D 0.940 1_555 1_555
C3D C2D 1.419 1_555 1_555
H2D C3D 0.939 1_555 1_555
C4D C3D 1.364 1_555 1_555
C5D C4D 1.447 1_555 1_555
C6D C1D 1.459 1_555 1_555
C7D C6D 1.389 1_555 1_555
H3D C7D 0.940 1_555 1_555
C8D C8 1.423 1_555 1_555
C9D C8 1.402 1_555 1_555
H4D C9D 0.940 1_555 1_555
C10D C1D 1.515 1_555 1_555
H5D C10D 0.991 1_555 1_555
C11D C10D 1.530 1_555 1_555
H6D C11D 0.970 1_555 1_555
H7D C11D 0.971 1_555 1_555
H8D C11D 0.971 1_555 1_555
C12D C10D 1.528 1_555 1_555
H9D C12D 0.970 1_555 1_555
H10D C12D 0.970 1_555 1_555
H11D C12D 0.970 1_555 1_555
C13D C4D 1.517 1_555 1_555
H12D C13D 0.990 1_555 1_555
C14D C13D 1.525 1_555 1_555
H13D C14D 0.971 1_555 1_555
H14D C14D 0.970 1_555 1_555
H15D C14D 0.970 1_555 1_555
C15D C13D 1.532 1_555 1_555
H16D C15D 0.970 1_555 1_555
H17D C15D 0.970 1_555 1_555
H18D C15D 0.970 1_555 1_555
C5 C6 1.446 1_555 1_555
C9 C8D 1.402 1_555 1_555
C5D C6D 1.446 1_555 1_555
C5D C9D 1.393 1_555 1_555
C7D C8D 1.410 1_555 1_555
#END
