
#######################################################################
#
#                 Cambridge Crystallographic Data Centre
#                                CCDC
#
#######################################################################
#
# If this CIF has been generated from an entry in the Cambridge
# Structural Database, then it will include bibliographic, chemical,
# crystal, experimental, refinement or atomic coordinate data resulting
# from the CCDC's data processing and validation procedures.
#
#######################################################################

data_CSD_CIF_EDUZEI
_audit_creation_date 2002-04-09
_audit_creation_method CSD-ConQuest-V1
_database_code_CSD EDUZEI
_database_code_depnum_ccdc_archive 'CCDC 179937'
_chemical_formula_sum 'C34 H50'
_chemical_formula_moiety
;
C34 H50
;
_journal_coden_Cambridge 4
_journal_volume 124
_journal_year 2002
_journal_page_first 576
_journal_name_full 'J.Am.Chem.Soc. '
loop_
_publ_author_name
"T.Takahashi"
"Y.Li"
"P.Stepnicka"
"M.Kitamura"
"Y.Liu"
"K.Nakajima"
"M.Kotora"
_chemical_name_systematic
;
1,2,3,4-Tetraethyl-5,6,7,8-tetrapropylanthracene
;
_cell_volume   2997.296
_exptl_crystal_colour 'colorless'
_exptl_crystal_density_diffrn 1.017
_exptl_crystal_description 'prism'
_diffrn_ambient_temperature 298
#These two values have been output from a single CSD field.
_refine_ls_R_factor_gt 0.048
_refine_ls_wR_factor_gt 0.048
_symmetry_cell_setting monoclinic
_symmetry_space_group_name_H-M 'P 21/a'
_symmetry_Int_Tables_number 14
loop_
_symmetry_equiv_pos_site_id
_symmetry_equiv_pos_as_xyz
1 x,y,z
2 1/2-x,1/2+y,-z
3 -x,-y,-z
4 -1/2+x,-1/2-y,z
_cell_length_a 20.328(4)
_cell_length_b 11.479(2)
_cell_length_c 13.009(2)
_cell_angle_alpha 90
_cell_angle_beta 99.11(1)
_cell_angle_gamma 90
_cell_formula_units_Z 4
loop_
_atom_type_symbol
_atom_type_radius_bond
C 0.68
H 0.23
loop_
_atom_site_label
_atom_site_type_symbol
_atom_site_fract_x
_atom_site_fract_y
_atom_site_fract_z
C1 C 0.32098(7) 0.3667(1) 0.3108(1)
C2 C 0.31892(7) 0.2574(1) 0.3577(1)
C3 C 0.36830(7) 0.2196(1) 0.4432(1)
C4 C 0.36113(8) 0.1134(1) 0.4893(1)
C5 C 0.30509(9) 0.0394(1) 0.4534(1)
C6 C 0.25871(8) 0.0708(1) 0.3690(1)
C7 C 0.26476(7) 0.1819(1) 0.3197(1)
C8 C 0.21807(7) 0.2196(1) 0.2358(1)
C9 C 0.22001(7) 0.3285(1) 0.1895(1)
C10 C 0.17041(7) 0.3646(1) 0.1036(1)
C11 C 0.17343(7) 0.4750(1) 0.0627(1)
C12 C 0.22652(7) 0.5539(1) 0.1044(1)
C13 C 0.27453(7) 0.5215(1) 0.1855(1)
C14 C 0.27288(7) 0.4063(1) 0.2295(1)
C15 C 0.42804(9) 0.2971(2) 0.4778(1)
C16 C 0.4825(1) 0.2811(3) 0.4114(2)
C17 C 0.4119(1) 0.0742(2) 0.5817(1)
C18 C 0.3933(2) 0.1149(3) 0.6853(2)
C19 C 0.2977(1) -0.0773(2) 0.5068(2)
C20 C 0.3295(2) -0.1769(2) 0.4565(3)
C21 C 0.1997(1) -0.0062(2) 0.3282(2)
C22 C 0.1360(1) 0.0329(3) 0.3670(2)
C23 C 0.11541(7) 0.2805(1) 0.0627(1)
C24 C 0.05724(9) 0.2824(2) 0.1251(2)
C25 C 0.0055(2) 0.1904(4) 0.0891(3)
C26 C 0.12209(8) 0.5126(1) -0.0290(1)
C27 C 0.14124(9) 0.4834(2) -0.1346(1)
C28 C 0.0894(1) 0.5209(3) -0.2243(2)
C29 C 0.22615(8) 0.6751(1) 0.0572(1)
C30 C 0.18175(9) 0.7606(1) 0.1044(1)
C31 C 0.1704(1) 0.8732(2) 0.0438(2)
C32 C 0.33071(9) 0.6022(1) 0.2310(1)
C33 C 0.39542(9) 0.5801(2) 0.1892(2)
C34 C 0.4528(1) 0.6536(3) 0.2419(3)
H1 H 0.3565(9) 0.416(2) 0.340(1)
H2 H 0.1794(8) 0.167(1) 0.209(1)
H3 H 0.4131(9) 0.380(2) 0.480(1)
H4 H 0.4451(9) 0.284(1) 0.554(1)
H5 H 0.471(1) 0.311(2) 0.339(2)
H6 H 0.523(1) 0.331(2) 0.438(2)
H7 H 0.499(1) 0.196(2) 0.421(2)
H8 H 0.456(1) 0.109(2) 0.572(2)
H9 H 0.416(1) -0.013(2) 0.579(2)
H10 H 0.389(1) 0.207(3) 0.682(2)
H11 H 0.428(1) 0.093(2) 0.740(2)
H12 H 0.349(1) 0.077(2) 0.687(2)
H13 H 0.316(1) -0.068(2) 0.581(2)
H14 H 0.248(1) -0.092(2) 0.505(2)
H15 H 0.383(2) -0.159(2) 0.452(2)
H16 H 0.322(2) -0.242(3) 0.481(2)
H17 H 0.309(2) -0.189(2) 0.383(3)
H18 H 0.207(1) -0.087(2) 0.350(2)
H19 H 0.1974(10) 0.000(2) 0.249(2)
H20 H 0.146(1) 0.024(2) 0.450(2)
H21 H 0.102(1) -0.014(2) 0.341(2)
H22 H 0.122(1) 0.116(3) 0.341(2)
H23 H 0.136(1) 0.200(2) 0.065(1)
H24 H 0.0962(8) 0.298(1) -0.013(1)
H25 H 0.077(1) 0.270(2) 0.205(2)
H26 H 0.033(1) 0.366(2) 0.117(2)
H27 H 0.028(2) 0.113(3) 0.095(2)
H28 H -0.034(2) 0.193(3) 0.134(3)
H29 H -0.006(2) 0.188(2) 0.009(3)
H30 H 0.0783(9) 0.477(2) -0.020(1)
H31 H 0.1098(8) 0.598(1) -0.022(1)
H32 H 0.1484(10) 0.399(2) -0.140(1)
H33 H 0.184(1) 0.522(2) -0.142(2)
H34 H 0.046(1) 0.482(2) -0.219(2)
H35 H 0.101(1) 0.506(2) -0.296(2)
H36 H 0.077(2) 0.609(3) -0.221(3)
H37 H 0.2118(9) 0.672(1) -0.019(1)
H38 H 0.2723(9) 0.711(2) 0.065(1)
H39 H 0.138(1) 0.726(2) 0.113(1)
H40 H 0.200(1) 0.773(2) 0.178(2)
H41 H 0.153(1) 0.861(2) -0.033(2)
H42 H 0.135(1) 0.928(2) 0.070(2)
H43 H 0.211(1) 0.916(2) 0.047(2)
H44 H 0.3165(9) 0.686(2) 0.226(1)
H45 H 0.3409(10) 0.594(2) 0.312(2)
H46 H 0.387(1) 0.604(2) 0.115(2)
H47 H 0.405(1) 0.492(2) 0.200(2)
H48 H 0.442(2) 0.733(3) 0.230(2)
H49 H 0.493(2) 0.627(3) 0.224(3)
H50 H 0.464(1) 0.626(2) 0.320(2)
loop_
_geom_bond_atom_site_label_1
_geom_bond_atom_site_label_2
_geom_bond_distance
_geom_bond_site_symmetry_1
_geom_bond_site_symmetry_2
C1 C2 1.399 1_555 1_555
C2 C3 1.442 1_555 1_555
C3 C4 1.376 1_555 1_555
C4 C5 1.438 1_555 1_555
C5 C6 1.377 1_555 1_555
C6 C7 1.441 1_555 1_555
C7 C2 1.427 1_555 1_555
C8 C7 1.397 1_555 1_555
C9 C8 1.391 1_555 1_555
C10 C9 1.442 1_555 1_555
C11 C10 1.380 1_555 1_555
C12 C11 1.447 1_555 1_555
C13 C12 1.370 1_555 1_555
C14 C1 1.398 1_555 1_555
C15 C3 1.515 1_555 1_555
C16 C15 1.519 1_555 1_555
C17 C4 1.523 1_555 1_555
C18 C17 1.529 1_555 1_555
C19 C5 1.527 1_555 1_555
C20 C19 1.512 1_555 1_555
C21 C6 1.517 1_555 1_555
C22 C21 1.530 1_555 1_555
C23 C10 1.509 1_555 1_555
C24 C23 1.537 1_555 1_555
C25 C24 1.512 1_555 1_555
C26 C11 1.518 1_555 1_555
C27 C26 1.523 1_555 1_555
C28 C27 1.506 1_555 1_555
C29 C12 1.520 1_555 1_555
C30 C29 1.527 1_555 1_555
C31 C30 1.513 1_555 1_555
C32 C13 1.516 1_555 1_555
C33 C32 1.522 1_555 1_555
C34 C33 1.513 1_555 1_555
H1 C1 0.948 1_555 1_555
H2 C8 1.009 1_555 1_555
H3 C15 1.001 1_555 1_555
H4 C15 1.008 1_555 1_555
H5 C16 0.995 1_555 1_555
H6 C16 1.018 1_555 1_555
H7 C16 1.034 1_555 1_555
H8 C17 1.007 1_555 1_555
H9 C17 1.006 1_555 1_555
H10 C18 1.061 1_555 1_555
H11 C18 0.953 1_555 1_555
H12 C18 1.004 1_555 1_555
H13 C19 0.984 1_555 1_555
H14 C19 1.021 1_555 1_555
H15 C20 1.117 1_555 1_555
H16 C20 0.836 1_555 1_555
H17 C20 0.990 1_555 1_555
H18 C21 0.974 1_555 1_555
H19 C21 1.026 1_555 1_555
H20 C22 1.071 1_555 1_555
H21 C22 0.899 1_555 1_555
H22 C22 1.037 1_555 1_555
H23 C23 1.013 1_555 1_555
H24 C23 1.020 1_555 1_555
H25 C24 1.063 1_555 1_555
H26 C24 1.076 1_555 1_555
H27 C25 0.997 1_555 1_555
H28 C25 1.066 1_555 1_555
H29 C25 1.032 1_555 1_555
H30 C26 1.003 1_555 1_555
H31 C26 1.019 1_555 1_555
H32 C27 0.984 1_555 1_555
H33 C27 0.994 1_555 1_555
H34 C28 1.001 1_555 1_555
H35 C28 1.012 1_555 1_555
H36 C28 1.045 1_555 1_555
H37 C29 0.989 1_555 1_555
H38 C29 1.015 1_555 1_555
H39 C30 0.996 1_555 1_555
H40 C30 0.981 1_555 1_555
H41 C31 1.015 1_555 1_555
H42 C31 1.052 1_555 1_555
H43 C31 0.956 1_555 1_555
H44 C32 1.004 1_555 1_555
H45 C32 1.045 1_555 1_555
H46 C33 0.992 1_555 1_555
H47 C33 1.035 1_555 1_555
H48 C34 0.945 1_555 1_555
H49 C34 0.936 1_555 1_555
H50 C34 1.054 1_555 1_555
C9 C14 1.430 1_555 1_555
C13 C14 1.443 1_555 1_555
#END
