
#######################################################################
#
#                 Cambridge Crystallographic Data Centre
#                                CCDC
#
#######################################################################
#
# If this CIF has been generated from an entry in the Cambridge
# Structural Database, then it will include bibliographic, chemical,
# crystal, experimental, refinement or atomic coordinate data resulting
# from the CCDC's data processing and validation procedures.
#
#######################################################################

data_CSD_CIF_ENILET
_audit_creation_date 2011-06-07
_audit_creation_method CSD-ConQuest-V1
_database_code_CSD ENILET
_database_code_depnum_ccdc_archive 'CCDC 797219'
_chemical_formula_sum 'C96 H66'
_chemical_formula_moiety
;
C96 H66
;
_journal_coden_Cambridge 24
_journal_volume 52
_journal_year 2011
_journal_page_first 1329
_journal_name_full 'Tetrahedron Lett. '
loop_
_publ_author_name
"Zuo-Qin Liang"
"Ye-Xin Li"
"Jia-Xiang Yang"
"Yan Ren"
"Xu-Tang Tao"
_chemical_name_systematic
;
1,3,6,8-tetrakis(4-(2,2-diphenylvinyl)phenyl)pyrene
;
_cell_volume   1707.520
_exptl_crystal_colour 'green'
_exptl_crystal_density_diffrn 1.186
_exptl_crystal_description 'block'
_diffrn_ambient_temperature 293
#These two values have been output from a single CSD field.
_refine_ls_R_factor_gt 0.038
_refine_ls_wR_factor_gt 0.038
_symmetry_cell_setting triclinic
_symmetry_space_group_name_H-M 'P -1'
_symmetry_Int_Tables_number 2
loop_
_symmetry_equiv_pos_site_id
_symmetry_equiv_pos_as_xyz
1 x,y,z
2 -x,-y,-z
_cell_length_a 9.3930(4)
_cell_length_b 10.0128(3)
_cell_length_c 18.4987(5)
_cell_angle_alpha 90.386(2)
_cell_angle_beta 96.938(3)
_cell_angle_gamma 98.509(3)
_cell_formula_units_Z 1
loop_
_atom_type_symbol
_atom_type_radius_bond
C 0.68
H 0.23
loop_
_atom_site_label
_atom_site_type_symbol
_atom_site_fract_x
_atom_site_fract_y
_atom_site_fract_z
C1 C 0.93885(13) 0.51287(12) 0.39964(6)
C2 C 0.94564(12) 0.52797(11) 0.47669(6)
C3 C 0.73006(14) 0.62864(12) 0.38611(6)
H1 H 0.65720 0.66110 0.35580
C4 C 0.84350(13) 0.59655(12) 0.50744(6)
C5 C 0.62086(13) 0.71373(12) 0.48957(6)
C6 C 0.82869(13) 0.56362(12) 0.35442(6)
C7 C 0.81318(13) 0.54740(12) 0.27364(6)
C8 C 0.73488(13) 0.64755(12) 0.46061(6)
C9 C 0.85064(14) 0.60243(13) 0.58516(6)
H2 H 0.78230 0.64320 0.60610
C10 C 0.65344(14) 0.82517(12) 0.53783(6)
H3 H 0.74980 0.86280 0.55090
C11 C 1.04782(14) 0.44874(13) 0.37140(6)
H4 H 1.04790 0.44260 0.32120
C12 C 0.79188(14) 0.41966(13) 0.24078(6)
H5 H 0.79290 0.34420 0.26980
C13 C 0.81186(14) 0.65755(13) 0.22878(6)
H6 H 0.82580 0.74420 0.24940
C14 C 0.36783(14) 0.72049(13) 0.49761(7)
H7 H 0.27120 0.68620 0.48250
C15 C 0.40059(14) 0.82618(13) 0.54883(7)
C16 C 0.27429(14) 0.93054(13) 0.64564(7)
C17 C 0.76955(14) 0.51235(13) 0.12050(6)
C18 C 0.76412(15) 0.40168(14) -0.00462(7)
C19 C 0.76929(15) 0.40254(13) 0.16604(7)
H8 H 0.75350 0.31560 0.14570
C20 C 0.13665(14) 0.97796(13) 0.65971(7)
C21 C 0.54593(15) 0.88029(13) 0.56637(7)
H9 H 0.57090 0.95500 0.59790
C22 C 0.47513(14) 0.66520(12) 0.46861(7)
H10 H 0.44960 0.59440 0.43450
C23 C 0.28007(15) 0.87497(13) 0.58001(7)
H11 H 0.19340 0.86570 0.54900
C24 C 0.79008(14) 0.64062(13) 0.15382(7)
H12 H 0.78910 0.71620 0.12490
C25 C 0.73374(15) 0.41315(14) -0.08514(7)
C26 C 0.39334(14) 0.94556(13) 0.70781(7)
C27 C 0.74794(15) 0.50263(14) 0.04033(7)
H13 H 0.71860 0.57800 0.01730
C28 C 0.81833(17) 0.27605(14) 0.02151(7)
C29 C 0.47165(15) 0.84193(14) 0.72852(8)
H14 H 0.45350 0.76120 0.70160
C30 C 0.82392(16) 0.36559(15) -0.13079(7)
H15 H 0.90120 0.32390 -0.11070
C31 C 0.61748(17) 0.47062(16) -0.11718(7)
H16 H 0.55530 0.50230 -0.08790
C32 C 0.42642(17) 1.06477(15) 0.74909(8)
H17 H 0.37670 1.13650 0.73620
C33 C 0.07607(16) 0.94805(15) 0.72349(8)
H18 H 0.12370 0.89990 0.75910
C34 C -0.06407(17) 1.09727(16) 0.62192(9)
H19 H -0.10970 1.15010 0.58800
C35 C -0.12362(17) 1.06319(17) 0.68435(9)
H20 H -0.21090 1.09050 0.69240
C36 C 0.80039(18) 0.37936(16) -0.20500(8)
H21 H 0.86330 0.34930 -0.23450
C37 C -0.05340(18) 0.98851(18) 0.73489(9)
H22 H -0.09360 0.96490 0.77740
C38 C 0.68478(19) 0.43709(18) -0.23571(8)
H23 H 0.66910 0.44600 -0.28590
C39 C 0.60534(19) 0.97546(19) 0.82875(9)
H24 H 0.67520 0.98490 0.86930
C40 C 0.95995(19) 0.27838(18) 0.05265(8)
H25 H 1.02310 0.35960 0.05660
C41 C 0.57590(17) 0.85685(17) 0.78839(9)
H26 H 0.62670 0.78600 0.80150
C42 C 0.9163(4) 0.0427(2) 0.07316(11)
H27 H 0.94910 -0.03550 0.09080
C43 C 0.59178(19) 0.48197(17) -0.19200(8)
H28 H 0.51210 0.51970 -0.21270
C44 C 0.53104(19) 1.07943(18) 0.80868(9)
H29 H 0.55120 1.16050 0.83540
C45 C 0.7278(2) 0.15338(18) 0.01617(9)
H30 H 0.63270 0.14880 -0.00570
C46 C 1.0092(3) 0.1622(3) 0.07798(10)
H31 H 1.10520 0.16510 0.09830
C47 C 0.7763(3) 0.0374(2) 0.04286(11)
H32 H 0.71340 -0.04400 0.04010
C48 C 0.06387(15) 1.05340(13) 0.60900(7)
H33 H 0.10160 1.07490 0.56560
C1A C 1.06115(13) 0.48713(12) 0.60036(6)
C2A C 1.05436(12) 0.47203(11) 0.52331(6)
C3A C 1.26994(14) 0.37136(12) 0.61389(6)
H1A H 1.34280 0.33890 0.64420
C4A C 1.15650(13) 0.40345(12) 0.49256(6)
C5A C 1.37914(13) 0.28627(12) 0.51043(6)
C6A C 1.17131(13) 0.43638(12) 0.64558(6)
C7A C 1.18682(13) 0.45260(12) 0.72636(6)
C8A C 1.26512(13) 0.35245(12) 0.53939(6)
C9A C 1.14936(14) 0.39757(13) 0.41484(6)
H2A H 1.21770 0.35680 0.39390
C10A C 1.34656(14) 0.17483(12) 0.46217(6)
H3A H 1.25020 0.13720 0.44910
C11A C 0.95218(14) 0.55126(13) 0.62860(6)
H4A H 0.95210 0.55740 0.67880
C12A C 1.20812(14) 0.58034(13) 0.75922(6)
H5A H 1.20710 0.65580 0.73020
C13A C 1.18814(14) 0.34245(13) 0.77122(6)
H6A H 1.17420 0.25580 0.75060
C14A C 1.63217(14) 0.27951(13) 0.50239(7)
H7A H 1.72880 0.31380 0.51750
C15A C 1.59941(14) 0.17382(13) 0.45117(7)
C16A C 1.72571(14) 0.06946(13) 0.35436(7)
C17A C 1.23045(14) 0.48765(13) 0.87950(6)
C18A C 1.23588(15) 0.59832(14) 1.00462(7)
C19A C 1.23071(15) 0.59746(13) 0.83396(7)
H8A H 1.24650 0.68440 0.85430
C20A C 1.86335(14) 0.02204(13) 0.34029(7)
C21A C 1.45407(15) 0.11971(13) 0.43363(7)
H9A H 1.42910 0.04500 0.40210
C22A C 1.52487(14) 0.33480(12) 0.53139(7)
H10A H 1.55040 0.40560 0.56550
C23A C 1.71993(15) 0.12503(13) 0.41999(7)
H11A H 1.80660 0.13430 0.45100
C24A C 1.20992(14) 0.35938(13) 0.84618(7)
H12A H 1.21090 0.28380 0.87510
C25A C 1.26626(15) 0.58685(14) 1.08514(7)
C26A C 1.60666(14) 0.05444(13) 0.29219(7)
C27A C 1.25206(15) 0.49737(14) 0.95967(7)
H13A H 1.28140 0.42200 0.98270
C28A C 1.18167(17) 0.72395(14) 0.97849(7)
C29A C 1.52835(15) 0.15807(14) 0.27148(8)
H14A H 1.54650 0.23880 0.29840
C30A C 1.17608(16) 0.63441(15) 1.13079(7)
H15A H 1.09880 0.67610 1.11070
C31A C 1.38252(17) 0.52938(16) 1.11718(7)
H16A H 1.44470 0.49770 1.08790
C32A C 1.57358(17) -0.06477(15) 0.25091(8)
H17A H 1.62330 -0.13650 0.26380
C33A C 1.92393(16) 0.05195(15) 0.27651(8)
H18A H 1.87630 0.10010 0.24090
C34A C 2.06407(17) -0.09727(16) 0.37808(9)
H19A H 2.10970 -0.15010 0.41200
C35A C 2.12362(17) -0.06319(17) 0.31565(9)
H20A H 2.21090 -0.09050 0.30760
C36A C 1.19961(18) 0.62064(16) 1.20500(8)
H21A H 1.13670 0.65070 1.23450
C37A C 2.05340(18) 0.01149(18) 0.26511(9)
H22A H 2.09360 0.03510 0.22260
C38A C 1.31522(19) 0.56291(18) 1.23571(8)
H23A H 1.33090 0.55400 1.28590
C39A C 1.39466(19) 0.02454(19) 0.17125(9)
H24A H 1.32480 0.01510 0.13070
C40A C 1.04005(19) 0.72162(18) 0.94735(8)
H25A H 0.97690 0.64040 0.94340
C41A C 1.42410(17) 0.14315(17) 0.21161(9)
H26A H 1.37330 0.21400 0.19850
C42A C 1.0837(4) 0.9573(2) 0.92684(11)
H27A H 1.05090 1.03550 0.90920
C43A C 1.40822(19) 0.51803(17) 1.19200(8)
H28A H 1.48790 0.48030 1.21270
C44A C 1.46896(19) -0.07943(18) 0.19132(9)
H29A H 1.44880 -0.16050 0.16460
C45A C 1.2722(2) 0.84662(18) 0.98383(9)
H30A H 1.36730 0.85120 1.00570
C46A C 0.9908(3) 0.8378(3) 0.92202(10)
H31A H 0.89480 0.83490 0.90170
C47A C 1.2237(3) 0.9626(2) 0.95714(11)
H32A H 1.28660 1.04400 0.95990
C48A C 1.93613(15) -0.05340(13) 0.39100(7)
H33A H 1.89840 -0.07490 0.43440
loop_
_geom_bond_atom_site_label_1
_geom_bond_atom_site_label_2
_geom_bond_distance
_geom_bond_site_symmetry_1
_geom_bond_site_symmetry_2
C1 C2 1.425 1_555 1_555
C2 C4 1.427 1_555 1_555
C3 H1 0.929 1_555 1_555
C4 C8 1.414 1_555 1_555
C5 C8 1.489 1_555 1_555
C6 C1 1.407 1_555 1_555
C7 C6 1.489 1_555 1_555
C8 C3 1.384 1_555 1_555
C9 C4 1.432 1_555 1_555
H2 C9 0.930 1_555 1_555
C10 C5 1.398 1_555 1_555
H3 C10 0.930 1_555 1_555
C11 C1 1.432 1_555 1_555
H4 C11 0.930 1_555 1_555
C12 C7 1.389 1_555 1_555
H5 C12 0.930 1_555 1_555
C13 C7 1.385 1_555 1_555
H6 C13 0.930 1_555 1_555
C14 H7 0.930 1_555 1_555
C15 C14 1.390 1_555 1_555
C16 C20 1.492 1_555 1_555
C17 C19 1.390 1_555 1_555
C18 C25 1.491 1_555 1_555
C19 C12 1.379 1_555 1_555
H8 C19 0.930 1_555 1_555
C20 C33 1.386 1_555 1_555
C21 C10 1.376 1_555 1_555
H9 C21 0.929 1_555 1_555
C22 C5 1.390 1_555 1_555
H10 C22 0.930 1_555 1_555
C23 C15 1.473 1_555 1_555
H11 C23 0.930 1_555 1_555
C24 C13 1.383 1_555 1_555
H12 C24 0.930 1_555 1_555
C25 C30 1.394 1_555 1_555
C26 C16 1.494 1_555 1_555
C27 C17 1.473 1_555 1_555
H13 C27 0.930 1_555 1_555
C28 C18 1.488 1_555 1_555
C29 C26 1.388 1_555 1_555
H14 C29 0.929 1_555 1_555
C30 H15 0.931 1_555 1_555
C31 C25 1.382 1_555 1_555
H16 C31 0.930 1_555 1_555
C32 C26 1.387 1_555 1_555
H17 C32 0.930 1_555 1_555
C33 H18 0.929 1_555 1_555
C34 H19 0.929 1_555 1_555
C35 C34 1.367 1_555 1_555
H20 C35 0.930 1_555 1_555
C36 C30 1.375 1_555 1_555
H21 C36 0.931 1_555 1_555
C37 C33 1.376 1_555 1_555
H22 C37 0.930 1_555 1_555
C38 C36 1.370 1_555 1_555
H23 C38 0.929 1_555 1_555
C39 H24 0.930 1_555 1_555
C40 C28 1.381 1_555 1_555
H25 C40 0.930 1_555 1_555
C41 C29 1.378 1_555 1_555
H26 C41 0.930 1_555 1_555
C42 H27 0.930 1_555 1_555
C43 C31 1.384 1_555 1_555
H28 C43 0.931 1_555 1_555
C44 C32 1.377 1_555 1_555
H29 C44 0.930 1_555 1_555
C45 C28 1.382 1_555 1_555
H30 C45 0.930 1_555 1_555
C46 C40 1.379 1_555 1_555
H31 C46 0.930 1_555 1_555
C47 C42 1.359 1_555 1_555
H32 C47 0.930 1_555 1_555
C48 C20 1.388 1_555 1_555
H33 C48 0.930 1_555 1_555
C1A C2A 1.425 1_555 1_555
C2A C2 1.436 1_555 1_555
C3A H1A 0.929 1_555 1_555
C4A C2A 1.427 1_555 1_555
C5A C8A 1.489 1_555 1_555
C6A C1A 1.407 1_555 1_555
C7A C6A 1.489 1_555 1_555
C8A C3A 1.384 1_555 1_555
C9A C11 1.335 1_555 1_555
H2A C9A 0.930 1_555 1_555
C10A C5A 1.398 1_555 1_555
H3A C10A 0.930 1_555 1_555
C11A C9 1.335 1_555 1_555
H4A C11A 0.930 1_555 1_555
C12A C7A 1.389 1_555 1_555
H5A C12A 0.930 1_555 1_555
C13A C7A 1.385 1_555 1_555
H6A C13A 0.930 1_555 1_555
C14A H7A 0.930 1_555 1_555
C15A C14A 1.390 1_555 1_555
C16A C20A 1.492 1_555 1_555
C17A C19A 1.390 1_555 1_555
C18A C25A 1.491 1_555 1_555
C19A C12A 1.379 1_555 1_555
H8A C19A 0.930 1_555 1_555
C20A C33A 1.386 1_555 1_555
C21A C10A 1.376 1_555 1_555
H9A C21A 0.929 1_555 1_555
C22A C5A 1.390 1_555 1_555
H10A C22A 0.930 1_555 1_555
C23A C15A 1.473 1_555 1_555
H11A C23A 0.930 1_555 1_555
C24A C13A 1.383 1_555 1_555
H12A C24A 0.930 1_555 1_555
C25A C30A 1.394 1_555 1_555
C26A C16A 1.494 1_555 1_555
C27A C17A 1.473 1_555 1_555
H13A C27A 0.930 1_555 1_555
C28A C18A 1.488 1_555 1_555
C29A C26A 1.388 1_555 1_555
H14A C29A 0.929 1_555 1_555
C30A H15A 0.931 1_555 1_555
C31A C25A 1.382 1_555 1_555
H16A C31A 0.930 1_555 1_555
C32A C26A 1.387 1_555 1_555
H17A C32A 0.930 1_555 1_555
C33A H18A 0.929 1_555 1_555
C34A H19A 0.929 1_555 1_555
C35A C34A 1.367 1_555 1_555
H20A C35A 0.930 1_555 1_555
C36A C30A 1.375 1_555 1_555
H21A C36A 0.931 1_555 1_555
C37A C33A 1.376 1_555 1_555
H22A C37A 0.930 1_555 1_555
C38A C36A 1.370 1_555 1_555
H23A C38A 0.929 1_555 1_555
C39A H24A 0.930 1_555 1_555
C40A C28A 1.381 1_555 1_555
H25A C40A 0.930 1_555 1_555
C41A C29A 1.378 1_555 1_555
H26A C41A 0.930 1_555 1_555
C42A H27A 0.930 1_555 1_555
C43A C31A 1.384 1_555 1_555
H28A C43A 0.931 1_555 1_555
C44A C32A 1.377 1_555 1_555
H29A C44A 0.930 1_555 1_555
C45A C28A 1.382 1_555 1_555
H30A C45A 0.930 1_555 1_555
C46A C40A 1.379 1_555 1_555
H31A C46A 0.930 1_555 1_555
C47A C42A 1.359 1_555 1_555
H32A C47A 0.930 1_555 1_555
C48A C20A 1.388 1_555 1_555
H33A C48A 0.930 1_555 1_555
C3 C6 1.389 1_555 1_555
C14 C22 1.379 1_555 1_555
C15 C21 1.391 1_555 1_555
C16 C23 1.342 1_555 1_555
C17 C24 1.398 1_555 1_555
C18 C27 1.342 1_555 1_555
C34 C48 1.385 1_555 1_555
C35 C37 1.369 1_555 1_555
C38 C43 1.379 1_555 1_555
C39 C41 1.373 1_555 1_555
C39 C44 1.366 1_555 1_555
C42 C46 1.368 1_555 1_555
C45 C47 1.382 1_555 1_555
C1A C11A 1.432 1_555 1_555
C3A C6A 1.389 1_555 1_555
C4A C8A 1.414 1_555 1_555
C4A C9A 1.432 1_555 1_555
C14A C22A 1.379 1_555 1_555
C15A C21A 1.391 1_555 1_555
C16A C23A 1.342 1_555 1_555
C17A C24A 1.398 1_555 1_555
C18A C27A 1.342 1_555 1_555
C34A C48A 1.385 1_555 1_555
C35A C37A 1.369 1_555 1_555
C38A C43A 1.379 1_555 1_555
C39A C41A 1.373 1_555 1_555
C39A C44A 1.366 1_555 1_555
C42A C46A 1.368 1_555 1_555
C45A C47A 1.382 1_555 1_555
#END
