
#######################################################################
#
#                 Cambridge Crystallographic Data Centre
#                                CCDC
#
#######################################################################
#
# If this CIF has been generated from an entry in the Cambridge
# Structural Database, then it will include bibliographic, chemical,
# crystal, experimental, refinement or atomic coordinate data resulting
# from the CCDC's data processing and validation procedures.
#
#######################################################################

data_CSD_CIF_EQAKUE
_audit_creation_date 2016-06-24
_audit_creation_method CSD-ConQuest-V1
_database_code_CSD EQAKUE
_database_code_depnum_ccdc_archive 'CCDC 986895'
_chemical_formula_sum 'C37 H20'
_chemical_formula_moiety
;
C37 H20
;
_journal_coden_Cambridge 917
_journal_volume 10
_journal_year 2014
_journal_page_first 841
_journal_name_full 'Beilstein J.Org.Chem. '
loop_
_publ_author_name
"B.B.Shrestha"
"Shuhei Higashibayashi"
"H.Sakurai"
_chemical_name_systematic
;
2-(pyren-1-yl)-4,7-dihydro-1H-tricyclopenta[def,jkl,pqr]triphenylene
;
_chemical_name_common
;
1-(pyren-1-yl)sumanene
;
_cell_volume   2213.233
_exptl_crystal_colour 'colorless'
_exptl_crystal_density_diffrn 1.394
_exptl_crystal_preparation 'dichloromethane/methanol'
_diffrn_ambient_temperature 123
#These two values have been output from a single CSD field.
_refine_ls_R_factor_gt 0.0639
_refine_ls_wR_factor_gt 0.0639
_symmetry_cell_setting orthorhombic
_symmetry_space_group_name_H-M 'P 21 c a'
_symmetry_Int_Tables_number 29
loop_
_symmetry_equiv_pos_site_id
_symmetry_equiv_pos_as_xyz
1 x,y,z
2 1/2+x,y,1/2-z
3 1/2+x,-y,-z
4 x,-y,1/2+z
_cell_length_a 8.0620(5)
_cell_length_b 16.422(1)
_cell_length_c 16.717(1)
_cell_angle_alpha 90
_cell_angle_beta 90
_cell_angle_gamma 90
_cell_formula_units_Z 4
loop_
_atom_type_symbol
_atom_type_radius_bond
C 0.68
H 0.23
loop_
_atom_site_label
_atom_site_type_symbol
_atom_site_fract_x
_atom_site_fract_y
_atom_site_fract_z
C1 C 0.1724(5) 0.1421(3) 0.1357(2)
C2 C 0.2403(5) -0.1855(3) 0.1779(2)
C3 C -0.0369(5) 0.0388(3) 0.1645(2)
H1 H -0.14650 0.02500 0.18040
C4 C 0.2393(6) -0.0046(3) 0.1202(2)
C5 C 0.0115(5) 0.1229(3) 0.1629(2)
C6 C 0.4493(5) 0.1000(3) 0.0877(2)
C7 C 0.2887(6) 0.0792(3) 0.1152(2)
C8 C 0.3561(5) -0.0670(2) 0.1018(2)
C9 C 0.2174(5) -0.3799(3) 0.2738(2)
C10 C 0.1959(5) -0.2684(3) 0.1782(2)
C11 C 0.0709(5) -0.0216(3) 0.1439(2)
H2 H 0.03400 -0.07650 0.14510
C12 C 0.2382(6) -0.3191(3) 0.1168(2)
C13 C 0.2238(6) 0.2253(3) 0.1312(2)
C14 C 0.4943(6) 0.1850(3) 0.0829(2)
H3 H 0.60230 0.19930 0.06500
C15 C 0.4462(6) -0.5401(3) 0.1771(3)
H4 H 0.50230 -0.58910 0.19040
C16 C 0.1872(5) -0.2984(3) 0.2585(3)
C17 C 0.2252(6) -0.2386(3) 0.3138(2)
C18 C 0.5131(5) -0.0442(3) 0.0739(2)
H5 H 0.58990 -0.08530 0.05890
C19 C 0.4570(6) -0.5085(3) 0.0961(3)
H6 H 0.52200 -0.53650 0.05750
C20 C 0.3544(6) -0.4995(3) 0.2356(3)
C21 C 0.3108(5) -0.1544(3) 0.1086(2)
C22 C 0.3736(6) -0.4379(3) 0.0745(3)
C23 C 0.3601(6) -0.2105(3) 0.0447(2)
H7 H 0.41580 -0.18980 -0.00110
C24 C 0.3872(7) 0.2447(3) 0.1031(2)
H8 H 0.42030 0.30000 0.09860
C25 C 0.2836(6) -0.2637(3) 0.3886(2)
H9 H 0.30230 -0.22500 0.42980
C26 C -0.0474(7) 0.2653(3) 0.1820(2)
H10 H -0.12130 0.30700 0.19880
C27 C 0.3268(5) -0.2937(3) 0.0497(2)
C28 C 0.2355(6) -0.1573(2) 0.2663(2)
H11 H 0.13730 -0.12270 0.27670
H12 H 0.33700 -0.12660 0.28040
C29 C 0.5599(6) 0.0374(3) 0.0675(2)
H13 H 0.66820 0.05070 0.04930
C30 C 0.2891(6) -0.4067(3) 0.3450(3)
C31 C 0.3623(6) -0.4935(3) 0.3278(3)
H14 H 0.47800 -0.49800 0.34720
H15 H 0.29440 -0.53650 0.35330
C32 C -0.0974(6) 0.1855(3) 0.1853(2)
H16 H -0.20640 0.17260 0.20280
C33 C 0.2669(6) -0.4042(3) 0.1315(2)
C34 C 0.3151(6) -0.3487(3) 0.4026(3)
H17 H 0.35540 -0.36520 0.45350
C35 C 0.2582(6) -0.4344(3) 0.2094(3)
C36 C 0.1091(7) 0.2860(3) 0.1547(2)
H18 H 0.14000 0.34180 0.15170
C37 C 0.4044(6) -0.3705(3) 0.0114(2)
H19 H 0.52460 -0.36290 0.00180
H20 H 0.34950 -0.38400 -0.03990
loop_
_geom_bond_atom_site_label_1
_geom_bond_atom_site_label_2
_geom_bond_distance
_geom_bond_site_symmetry_1
_geom_bond_site_symmetry_2
C1 C5 1.410 1_555 1_555
C2 C10 1.408 1_555 1_555
C3 H1 0.950 1_555 1_555
C4 C7 1.435 1_555 1_555
C5 C3 1.435 1_555 1_555
C6 C7 1.416 1_555 1_555
C7 C1 1.436 1_555 1_555
C8 C4 1.425 1_555 1_555
C9 C16 1.384 1_555 1_555
C10 C12 1.365 1_555 1_555
C11 C3 1.363 1_555 1_555
H2 C11 0.950 1_555 1_555
C12 C27 1.394 1_555 1_555
C13 C1 1.430 1_555 1_555
C14 C6 1.444 1_555 1_555
H3 C14 0.950 1_555 1_555
C15 H4 0.949 1_555 1_555
C16 C10 1.432 1_555 1_555
C17 C16 1.383 1_555 1_555
C18 C8 1.400 1_555 1_555
H5 C18 0.950 1_555 1_555
C19 C15 1.453 1_555 1_555
H6 C19 0.950 1_555 1_555
C20 C15 1.396 1_555 1_555
C21 C2 1.388 1_555 1_555
C22 C19 1.388 1_555 1_555
C23 C21 1.466 1_555 1_555
H7 C23 0.950 1_555 1_555
C24 C13 1.434 1_555 1_555
H8 C24 0.950 1_555 1_555
C25 C17 1.398 1_555 1_555
H9 C25 0.949 1_555 1_555
C26 H10 0.950 1_555 1_555
C27 C23 1.395 1_555 1_555
C28 C2 1.549 1_555 1_555
H11 C28 0.990 1_555 1_555
H12 C28 0.990 1_555 1_555
C29 C6 1.402 1_555 1_555
H13 C29 0.950 1_555 1_555
C30 C9 1.394 1_555 1_555
C31 C20 1.546 1_555 1_555
H14 C31 0.990 1_555 1_555
H15 C31 0.990 1_555 1_555
C32 C5 1.403 1_555 1_555
H16 C32 0.950 1_555 1_555
C33 C12 1.438 1_555 1_555
C34 C25 1.438 1_555 1_555
H17 C34 0.950 1_555 1_555
C35 C9 1.438 1_555 1_555
C36 C13 1.415 1_555 1_555
H18 C36 0.951 1_555 1_555
C37 C22 1.549 1_555 1_555
H19 C37 0.990 1_555 1_555
H20 C37 0.990 1_555 1_555
C4 C11 1.442 1_555 1_555
C8 C21 1.485 1_555 1_555
C14 C24 1.349 1_555 1_555
C17 C28 1.556 1_555 1_555
C18 C29 1.396 1_555 1_555
C20 C35 1.391 1_555 1_555
C22 C33 1.398 1_555 1_555
C26 C32 1.372 1_555 1_555
C26 C36 1.384 1_555 1_555
C27 C37 1.547 1_555 1_555
C30 C31 1.569 1_555 1_555
C30 C34 1.371 1_555 1_555
C33 C35 1.395 1_555 1_555
#END
