
#######################################################################
#
#                 Cambridge Crystallographic Data Centre
#                                CCDC
#
#######################################################################
#
# If this CIF has been generated from an entry in the Cambridge
# Structural Database, then it will include bibliographic, chemical,
# crystal, experimental, refinement or atomic coordinate data resulting
# from the CCDC's data processing and validation procedures.
#
#######################################################################

data_CSD_CIF_EQEBUZ
_audit_creation_date 2016-06-27
_audit_creation_method CSD-ConQuest-V1
_database_code_CSD EQEBUZ
_database_code_depnum_ccdc_archive 'CCDC 920618'
_chemical_formula_sum 'C26 H16'
_chemical_formula_moiety
;
C26 H16
;
_journal_coden_Cambridge 917
_journal_volume 9
_journal_year 2013
_journal_page_first 2224
_journal_name_full 'Beilstein J.Org.Chem. '
loop_
_publ_author_name
"Yin-wei Sun"
"Qin Xu"
"Min Shi"
_chemical_name_systematic
;
benzo[i]pentahelicene
;
_cell_volume   1646.937
_exptl_crystal_colour 'colorless'
_exptl_crystal_density_diffrn 1.324
_exptl_crystal_description 'prismatic'
_diffrn_ambient_temperature 273
#These two values have been output from a single CSD field.
_refine_ls_R_factor_gt 0.0678
_refine_ls_wR_factor_gt 0.0678
_symmetry_cell_setting monoclinic
_symmetry_space_group_name_H-M 'P 21/n'
_symmetry_Int_Tables_number 14
loop_
_symmetry_equiv_pos_site_id
_symmetry_equiv_pos_as_xyz
1 x,y,z
2 1/2-x,1/2+y,1/2-z
3 -x,-y,-z
4 -1/2+x,-1/2-y,-1/2+z
_cell_length_a 5.8492(16)
_cell_length_b 13.351(4)
_cell_length_c 21.102(6)
_cell_angle_alpha 90
_cell_angle_beta 91.971(5)
_cell_angle_gamma 90
_cell_formula_units_Z 4
loop_
_atom_type_symbol
_atom_type_radius_bond
C 0.68
H 0.23
loop_
_atom_site_label
_atom_site_type_symbol
_atom_site_fract_x
_atom_site_fract_y
_atom_site_fract_z
C1 C 0.8540(4) 0.64756(17) 0.18075(13)
C2 C 1.0034(5) 0.6370(2) 0.13030(14)
H1 H 1.14050 0.67240 0.13140
C3 C 0.9519(6) 0.5762(2) 0.07982(15)
H2 H 1.05460 0.57000 0.04740
C4 C 0.7467(6) 0.5232(2) 0.07656(17)
H3 H 0.70950 0.48410 0.04120
C5 C 0.6023(6) 0.5287(2) 0.12481(16)
H4 H 0.46590 0.49280 0.12250
C6 C 0.6542(5) 0.58779(19) 0.17873(14)
C7 C 0.5212(5) 0.5823(2) 0.23301(16)
H5 H 0.38080 0.54960 0.23070
C8 C 0.5950(5) 0.6240(2) 0.28831(16)
H6 H 0.51250 0.61310 0.32460
C9 C 0.7960(5) 0.68422(18) 0.29248(14)
C10 C 0.9077(4) 0.70704(17) 0.23707(13)
C11 C 1.0820(4) 0.78476(17) 0.23921(13)
C12 C 1.1966(5) 0.80563(18) 0.29694(13)
C13 C 1.1020(5) 0.76981(18) 0.35551(14)
C14 C 0.8902(5) 0.71871(19) 0.35342(14)
C15 C 0.7883(7) 0.6959(2) 0.41115(17)
H7 H 0.64720 0.66380 0.41030
C16 C 0.8903(9) 0.7196(3) 0.46820(18)
H8 H 0.81820 0.70460 0.50560
C17 C 1.1025(9) 0.7664(3) 0.47021(18)
H9 H 1.17530 0.78060 0.50910
C18 C 1.2043(7) 0.7916(2) 0.41525(16)
H10 H 1.34510 0.82400 0.41730
C19 C 1.3986(5) 0.8651(2) 0.29672(16)
H11 H 1.48210 0.87510 0.33450
C20 C 1.4714(5) 0.9071(2) 0.24316(17)
H12 H 1.61360 0.93840 0.24340
C21 C 1.3361(5) 0.90468(18) 0.18654(15)
C22 C 1.1340(5) 0.84567(18) 0.18487(13)
C23 C 0.9819(5) 0.8589(2) 0.13222(14)
H13 H 0.84410 0.82410 0.13080
C24 C 1.0308(6) 0.9213(2) 0.08319(15)
H14 H 0.92550 0.92960 0.04960
C25 C 1.2400(7) 0.9727(2) 0.08359(17)
H15 H 1.27720 1.01240 0.04920
C26 C 1.3868(6) 0.9644(2) 0.13395(17)
H16 H 1.52480 0.99900 0.13390
loop_
_geom_bond_atom_site_label_1
_geom_bond_atom_site_label_2
_geom_bond_distance
_geom_bond_site_symmetry_1
_geom_bond_site_symmetry_2
C1 C2 1.407 1_555 1_555
C2 H1 0.930 1_555 1_555
C3 C2 1.365 1_555 1_555
H2 C3 0.930 1_555 1_555
C4 C3 1.393 1_555 1_555
H3 C4 0.930 1_555 1_555
C5 C4 1.347 1_555 1_555
H4 C5 0.931 1_555 1_555
C6 C1 1.415 1_555 1_555
C7 C6 1.408 1_555 1_555
H5 C7 0.930 1_555 1_555
C8 C7 1.350 1_555 1_555
H6 C8 0.931 1_555 1_555
C9 C8 1.425 1_555 1_555
C10 C1 1.455 1_555 1_555
C11 C10 1.454 1_555 1_555
C12 C11 1.398 1_555 1_555
C13 C12 1.452 1_555 1_555
C14 C9 1.456 1_555 1_555
C15 C14 1.408 1_555 1_555
H7 C15 0.930 1_555 1_555
C16 C15 1.362 1_555 1_555
H8 C16 0.929 1_555 1_555
C17 C16 1.389 1_555 1_555
H9 C17 0.931 1_555 1_555
C18 C13 1.407 1_555 1_555
H10 C18 0.930 1_555 1_555
C19 C12 1.424 1_555 1_555
H11 C19 0.930 1_555 1_555
C20 C19 1.344 1_555 1_555
H12 C20 0.931 1_555 1_555
C21 C20 1.411 1_555 1_555
C22 C11 1.447 1_555 1_555
C23 C22 1.410 1_555 1_555
H13 C23 0.930 1_555 1_555
C24 C23 1.366 1_555 1_555
H14 C24 0.930 1_555 1_555
C25 C24 1.403 1_555 1_555
H15 C25 0.930 1_555 1_555
C26 C21 1.406 1_555 1_555
H16 C26 0.930 1_555 1_555
C5 C6 1.409 1_555 1_555
C9 C10 1.393 1_555 1_555
C13 C14 1.414 1_555 1_555
C17 C18 1.364 1_555 1_555
C21 C22 1.420 1_555 1_555
C25 C26 1.348 1_555 1_555
#END
