
#######################################################################
#
#                 Cambridge Crystallographic Data Centre
#                                CCDC
#
#######################################################################
#
# If this CIF has been generated from an entry in the Cambridge
# Structural Database, then it will include bibliographic, chemical,
# crystal, experimental, refinement or atomic coordinate data resulting
# from the CCDC's data processing and validation procedures.
#
#######################################################################

data_CSD_CIF_FALHIK
_audit_creation_date 2005-04-13
_audit_creation_method CSD-ConQuest-V1
_database_code_CSD FALHIK
_database_code_depnum_ccdc_archive 'CCDC 198759'
_chemical_formula_sum 'C28 H22'
_chemical_formula_moiety
;
C28 H22
;
_journal_coden_Cambridge 16
_journal_volume 59
_journal_year 2003
_journal_page_first 1539
_journal_name_full 'Tetrahedron '
loop_
_publ_author_name
"Gon-Ann Lee"
"Chih-Hwa Cherng"
"Ai Ni Huang"
"Yu-Hsien Lin"
_chemical_name_systematic
;
3,10-Diphenyl-tetracyclo(10.2.2.0^2,11^.0^4,9^)hexadeca-2,4,6,8,10,13-hexaene
;
_chemical_melting_point 512.15
_cell_volume   3882.275
_exptl_crystal_density_diffrn 1.227
_exptl_special_details
;
Melting point range 512.15-513.15K

;
_diffrn_ambient_temperature 293
#These two values have been output from a single CSD field.
_refine_ls_R_factor_gt 0.052
_refine_ls_wR_factor_gt 0.052
_symmetry_cell_setting orthorhombic
_symmetry_space_group_name_H-M 'P b c a'
_symmetry_Int_Tables_number 61
loop_
_symmetry_equiv_pos_site_id
_symmetry_equiv_pos_as_xyz
1 x,y,z
2 1/2-x,-y,1/2+z
3 1/2+x,1/2-y,-z
4 -x,1/2+y,1/2-z
5 -x,-y,-z
6 -1/2+x,y,-1/2-z
7 -1/2-x,-1/2+y,z
8 x,-1/2-y,-1/2+z
_cell_length_a 10.791(4)
_cell_length_b 17.1042(20)
_cell_length_c 21.034(3)
_cell_angle_alpha 90
_cell_angle_beta 90
_cell_angle_gamma 90
_cell_formula_units_Z 8
loop_
_atom_type_symbol
_atom_type_radius_bond
C 0.68
H 0.23
loop_
_atom_site_label
_atom_site_type_symbol
_atom_site_fract_x
_atom_site_fract_y
_atom_site_fract_z
C1 C 0.23543 0.27763 0.16377
C2 C 0.37810 0.26383 0.15924
C3 C 0.41986 0.21618 0.21538
C4 C 0.30923 0.19564 0.25990
C5 C 0.21727 0.15247 0.21879
C6 C 0.17801 0.19697 0.16765
C7 C 0.16005 0.39121 0.23521
C8 C 0.21320 0.31881 0.22653
C9 C 0.25155 0.27297 0.27930
C10 C 0.23777 0.29898 0.34004
C11 C 0.18032 0.37295 0.35114
C12 C 0.14224 0.41985 0.29835
C13 C 0.09052 0.49463 0.31052
C14 C 0.07227 0.51965 0.37062
C15 C 0.10696 0.47387 0.42352
C16 C 0.15902 0.40226 0.41352
C17 C 0.12427 0.44032 0.17991
C18 C 0.21270 0.47166 0.13976
C19 C 0.18050 0.51868 0.08885
C20 C 0.05869 0.53412 0.07609
C21 C -0.03177 0.50311 0.11487
C22 C -0.00093 0.45615 0.16655
C23 C 0.28004 0.25145 0.39590
C24 C 0.39638 0.26445 0.42323
C25 C 0.43397 0.22077 0.47496
C26 C 0.35934 0.16420 0.50071
C27 C 0.24411 0.15091 0.47399
C28 C 0.20568 0.19424 0.42160
H1 H 0.19724 0.31220 0.12233
H2 H 0.42719 0.32001 0.15713
H3 H 0.40099 0.23329 0.11381
H4 H 0.46554 0.16151 0.19853
H5 H 0.49177 0.24824 0.24184
H6 H 0.34115 0.16041 0.30122
H7 H 0.18720 0.09726 0.22774
H8 H 0.11660 0.17680 0.13460
H9 H 0.06132 0.52840 0.27317
H10 H 0.03472 0.57326 0.37825
H11 H 0.09454 0.49530 0.46780
H12 H 0.18205 0.36846 0.45162
H13 H 0.30202 0.45848 0.14570
H14 H 0.24852 0.54422 0.06186
H15 H 0.03420 0.56782 0.03871
H16 H -0.12374 0.51421 0.10420
H17 H -0.06905 0.43642 0.19582
H18 H 0.45363 0.30605 0.40447
H19 H 0.51744 0.23061 0.49603
H20 H 0.38795 0.13081 0.53634
H21 H 0.18435 0.11142 0.49437
H22 H 0.12224 0.18229 0.40060
loop_
_geom_bond_atom_site_label_1
_geom_bond_atom_site_label_2
_geom_bond_distance
_geom_bond_site_symmetry_1
_geom_bond_site_symmetry_2
C1 C2 1.560 1_555 1_555
C2 C3 1.504 1_555 1_555
C3 C4 1.557 1_555 1_555
C4 C5 1.509 1_555 1_555
C5 C6 1.384 1_555 1_555
C6 C1 1.515 1_555 1_555
C7 C8 1.377 1_555 1_555
C8 C1 1.515 1_555 1_555
C9 C4 1.518 1_555 1_555
C10 C9 1.361 1_555 1_555
C11 C10 1.428 1_555 1_555
C12 C7 1.429 1_555 1_555
C13 C12 1.419 1_555 1_555
C14 C13 1.349 1_555 1_555
C15 C14 1.411 1_555 1_555
C16 C11 1.423 1_555 1_555
C17 C7 1.486 1_555 1_555
C18 C17 1.382 1_555 1_555
C19 C18 1.384 1_555 1_555
C20 C19 1.367 1_555 1_555
C21 C20 1.378 1_555 1_555
C22 C17 1.406 1_555 1_555
C23 C10 1.500 1_555 1_555
C24 C23 1.399 1_555 1_555
C25 C24 1.381 1_555 1_555
C26 C25 1.370 1_555 1_555
C27 C26 1.383 1_555 1_555
C28 C23 1.376 1_555 1_555
H1 C1 1.131 1_555 1_555
H2 C2 1.098 1_555 1_555
H3 C2 1.117 1_555 1_555
H4 C3 1.115 1_555 1_555
H5 C3 1.101 1_555 1_555
H6 C4 1.112 1_555 1_555
H7 C5 1.016 1_555 1_555
H8 C6 1.021 1_555 1_555
H9 C13 1.025 1_555 1_555
H10 C14 1.015 1_555 1_555
H11 C15 1.010 1_555 1_555
H12 C16 1.019 1_555 1_555
H13 C18 0.998 1_555 1_555
H14 C19 1.026 1_555 1_555
H15 C20 1.010 1_555 1_555
H16 C21 1.035 1_555 1_555
H17 C22 1.017 1_555 1_555
H18 C24 1.022 1_555 1_555
H19 C25 1.018 1_555 1_555
H20 C26 0.992 1_555 1_555
H21 C27 1.028 1_555 1_555
H22 C28 1.024 1_555 1_555
C8 C9 1.421 1_555 1_555
C11 C12 1.430 1_555 1_555
C15 C16 1.364 1_555 1_555
C21 C22 1.392 1_555 1_555
C27 C28 1.391 1_555 1_555
#END
