
#######################################################################
#
#                 Cambridge Crystallographic Data Centre
#                                CCDC
#
#######################################################################
#
# If this CIF has been generated from an entry in the Cambridge
# Structural Database, then it will include bibliographic, chemical,
# crystal, experimental, refinement or atomic coordinate data resulting
# from the CCDC's data processing and validation procedures.
#
#######################################################################

data_CSD_CIF_FAQYOL
_audit_creation_date 1999-07-19
_audit_creation_method CSD-ConQuest-V1
_database_code_CSD FAQYOL
_database_code_depnum_ccdc_archive 'CCDC 119522'
_chemical_formula_sum 'C35 H24'
_chemical_formula_moiety
;
C35 H24
;
_journal_coden_Cambridge 35
_journal_volume 64
_journal_year 1999
_journal_page_first 1650
_journal_name_full 'J.Org.Chem. '
loop_
_publ_author_name
"Kung K Wang"
"Hai-Ren Zhang"
"J.L.Petersen"
_chemical_name_systematic
;
5,10,11-Triphenyl-11H-benzo(b)fluorene
;
_chemical_melting_point 470.15
_cell_volume   4830.005
_exptl_crystal_colour 'white'
_exptl_crystal_density_diffrn 1.223
_exptl_special_details
;
Melting point range 470.15-472.15K

;
_exptl_crystal_preparation 'methanol/dichloromethane'
_diffrn_ambient_temperature ?
_diffrn_special_details
;
The study was carried out at room temperature,in the range 283-303K

;
#These two values have been output from a single CSD field.
_refine_ls_R_factor_gt 0.0692
_refine_ls_wR_factor_gt 0.0692
_symmetry_cell_setting monoclinic
_symmetry_space_group_name_H-M 'I 2/a'
_symmetry_Int_Tables_number 15
loop_
_symmetry_equiv_pos_site_id
_symmetry_equiv_pos_as_xyz
1 x,y,z
2 1/2+x,1/2+y,1/2+z
3 1/2+x,-y,z
4 x,1/2-y,1/2+z
5 -x,-y,-z
6 -1/2-x,-1/2-y,-1/2-z
7 -1/2-x,y,-z
8 -x,-1/2+y,-1/2-z
_cell_length_a 15.737(2)
_cell_length_b 6.485(1)
_cell_length_c 47.931(9)
_cell_angle_alpha 90
_cell_angle_beta 99.10(2)
_cell_angle_gamma 90
_cell_formula_units_Z 8
loop_
_atom_type_symbol
_atom_type_radius_bond
C 0.68
H 0.23
loop_
_atom_site_label
_atom_site_type_symbol
_atom_site_fract_x
_atom_site_fract_y
_atom_site_fract_z
C1 C 0.4558(3) 0.1690(8) 0.33138(9)
C2 C 0.4309(3) 0.3069(8) 0.35010(9)
C3 C 0.3665(3) 0.4770(7) 0.3464(1)
C4 C 0.3082(3) 0.5424(9) 0.32328(10)
H1 H 0.3060(3) 0.4775(9) 0.30588(10)
C5 C 0.2536(3) 0.704(1) 0.32631(12)
H2 H 0.2143(3) 0.7466(10) 0.31082(12)
C6 C 0.2561(3) 0.8040(9) 0.35186(13)
H3 H 0.2198(3) 0.9154(9) 0.35341(13)
C7 C 0.3127(3) 0.7375(8) 0.37509(11)
H4 H 0.3143(3) 0.8029(8) 0.39244(11)
C8 C 0.3666(3) 0.5743(8) 0.3725(1)
C9 C 0.4314(3) 0.4779(8) 0.39544(9)
H5 H 0.4778(3) 0.5765(8) 0.40153(9)
C10 C 0.4661(3) 0.3002(8) 0.37958(9)
C11 C 0.5238(3) 0.1509(8) 0.39042(9)
C12 C 0.5475(3) -0.0028(8) 0.37171(10)
C13 C 0.6037(3) -0.1660(8) 0.38145(10)
H6 H 0.6245(3) -0.1770(8) 0.40066(10)
C14 C 0.6283(3) -0.3078(8) 0.36332(10)
H7 H 0.6649(3) -0.4152(8) 0.37016(10)
C15 C 0.5982(3) -0.2911(9) 0.33443(10)
H8 H 0.6156(3) -0.3864(9) 0.32199(10)
C16 C 0.5436(3) -0.1370(9) 0.32436(9)
H9 H 0.5246(3) -0.1291(9) 0.30500(9)
C17 C 0.5146(3) 0.0121(8) 0.34221(9)
C18 C 0.4250(3) 0.1887(8) 0.30018(9)
C19 C 0.3697(3) 0.0463(9) 0.28602(10)
H10 H 0.3507(3) -0.0637(9) 0.29583(10)
C20 C 0.3420(4) 0.0653(11) 0.25707(12)
H11 H 0.3050(4) -0.0332(11) 0.24769(12)
C21 C 0.3682(4) 0.2256(11) 0.24245(11)
H12 H 0.3486(4) 0.2385(11) 0.22318(11)
C22 C 0.4240(4) 0.3692(10) 0.25624(11)
H13 H 0.4433(4) 0.4782(10) 0.24628(11)
C23 C 0.4512(3) 0.3505(9) 0.28494(10)
H14 H 0.4880(3) 0.4495(9) 0.29422(10)
C24 C 0.3928(3) 0.4055(8) 0.4212(1)
C25 C 0.4236(3) 0.4822(9) 0.44771(11)
H15 H 0.4674(3) 0.5799(9) 0.44989(11)
C26 C 0.3896(4) 0.4149(10) 0.47125(11)
H16 H 0.4103(4) 0.4664(10) 0.48915(11)
C27 C 0.3247(4) 0.2703(11) 0.46745(12)
H17 H 0.3021(4) 0.2218(11) 0.48298(12)
C28 C 0.2934(3) 0.1977(10) 0.44117(12)
H18 H 0.2490(3) 0.1015(10) 0.43884(12)
C29 C 0.3272(3) 0.2660(9) 0.41807(11)
H19 H 0.3051(3) 0.2167(9) 0.40017(11)
C30 C 0.5621(3) 0.1501(8) 0.42105(9)
C31 C 0.6274(3) 0.2857(9) 0.43112(10)
H20 H 0.6484(3) 0.3761(9) 0.4188(1)
C32 C 0.6619(4) 0.2871(10) 0.46005(12)
H21 H 0.7060(4) 0.378(1) 0.46697(12)
C33 C 0.6302(4) 0.1543(11) 0.47773(11)
H22 H 0.6522(4) 0.1561(11) 0.49692(11)
C34 C 0.5664(4) 0.0179(10) 0.46762(11)
H23 H 0.5463(4) -0.0752(10) 0.47983(11)
C35 C 0.5324(3) 0.0183(8) 0.43976(10)
H24 H 0.4881(3) -0.0726(8) 0.43321(10)
loop_
_geom_bond_atom_site_label_1
_geom_bond_atom_site_label_2
_geom_bond_distance
_geom_bond_site_symmetry_1
_geom_bond_site_symmetry_2
C1 C2 1.367 1_555 1_555
C2 C3 1.489 1_555 1_555
C3 C4 1.389 1_555 1_555
C4 H1 0.930 1_555 1_555
C5 C4 1.377 1_555 1_555
H2 C5 0.930 1_555 1_555
C6 C5 1.381 1_555 1_555
H3 C6 0.931 1_555 1_555
C7 C6 1.380 1_555 1_555
H4 C7 0.930 1_555 1_555
C8 C3 1.401 1_555 1_555
C9 C8 1.512 1_555 1_555
H5 C9 0.980 1_555 1_555
C10 C2 1.434 1_555 1_555
C11 C10 1.372 1_555 1_555
C12 C11 1.429 1_555 1_555
C13 C12 1.411 1_555 1_555
H6 C13 0.930 1_555 1_555
C14 C13 1.363 1_555 1_555
H7 C14 0.930 1_555 1_555
C15 C14 1.395 1_555 1_555
H8 C15 0.930 1_555 1_555
C16 C15 1.356 1_555 1_555
H9 C16 0.930 1_555 1_555
C17 C1 1.417 1_555 1_555
C18 C1 1.503 1_555 1_555
C19 C18 1.373 1_555 1_555
H10 C19 0.929 1_555 1_555
C20 C19 1.393 1_555 1_555
H11 C20 0.931 1_555 1_555
C21 C20 1.354 1_555 1_555
H12 C21 0.930 1_555 1_555
C22 C21 1.375 1_555 1_555
H13 C22 0.930 1_555 1_555
C23 C18 1.378 1_555 1_555
H14 C23 0.929 1_555 1_555
C24 C9 1.533 1_555 1_555
C25 C24 1.379 1_555 1_555
H15 C25 0.930 1_555 1_555
C26 C25 1.393 1_555 1_555
H16 C26 0.930 1_555 1_555
C27 C26 1.377 1_555 1_555
H17 C27 0.929 1_555 1_555
C28 C27 1.362 1_555 1_555
H18 C28 0.930 1_555 1_555
C29 C24 1.363 1_555 1_555
H19 C29 0.930 1_555 1_555
C30 C11 1.496 1_555 1_555
C31 C30 1.380 1_555 1_555
H20 C31 0.929 1_555 1_555
C32 C31 1.407 1_555 1_555
H21 C32 0.931 1_555 1_555
C33 C32 1.357 1_555 1_555
H22 C33 0.930 1_555 1_555
C34 C33 1.368 1_555 1_555
H23 C34 0.930 1_555 1_555
C35 C30 1.373 1_555 1_555
H24 C35 0.929 1_555 1_555
C7 C8 1.374 1_555 1_555
C9 C10 1.528 1_555 1_555
C12 C17 1.430 1_555 1_555
C16 C17 1.414 1_555 1_555
C22 C23 1.380 1_555 1_555
C28 C29 1.375 1_555 1_555
C34 C35 1.358 1_555 1_555
#END
