
#######################################################################
#
#                 Cambridge Crystallographic Data Centre
#                                CCDC
#
#######################################################################
#
# If this CIF has been generated from an entry in the Cambridge
# Structural Database, then it will include bibliographic, chemical,
# crystal, experimental, refinement or atomic coordinate data resulting
# from the CCDC's data processing and validation procedures.
#
#######################################################################

data_CSD_CIF_FAZJIZ11
_audit_creation_date 2017-02-21
_audit_creation_method CSD-ConQuest-V1
_database_code_CSD FAZJIZ11
_database_code_depnum_ccdc_archive 'CCDC 1525472'
_chemical_formula_sum 'C30 H22'
_chemical_formula_moiety
;
C30 H22
;
_journal_coden_Cambridge 182
_journal_volume 53
_journal_year 2017
_journal_page_first 2748
_journal_name_full 'Chem.Commun. '
loop_
_publ_author_name
"M.V.Ivanov"
"K.Thakur"
"A.Bhatnagar"
"R.Rathore"
_chemical_name_systematic
;
1,2,10,11-tetrahydrobisbenzo[4,5]cyclohepta[1,2,3-de:1',2',3'-kl]anthracene
;
_cell_volume   1920.947
_exptl_crystal_colour 'yellow'
_exptl_crystal_density_diffrn 1.323
_exptl_crystal_description 'prism'
_diffrn_ambient_temperature 100
#These two values have been output from a single CSD field.
_refine_ls_R_factor_gt 0.037
_refine_ls_wR_factor_gt 0.037
_symmetry_cell_setting monoclinic
_symmetry_space_group_name_H-M 'P 21/c'
_symmetry_Int_Tables_number 14
loop_
_symmetry_equiv_pos_site_id
_symmetry_equiv_pos_as_xyz
1 x,y,z
2 -x,1/2+y,1/2-z
3 -x,-y,-z
4 x,-1/2-y,-1/2+z
_cell_length_a 7.64722(7)
_cell_length_b 10.95523(14)
_cell_length_c 22.9991(3)
_cell_angle_alpha 90
_cell_angle_beta 94.4658(10)
_cell_angle_gamma 90
_cell_formula_units_Z 4
loop_
_atom_type_symbol
_atom_type_radius_bond
C 0.68
H 0.23
loop_
_atom_site_label
_atom_site_type_symbol
_atom_site_fract_x
_atom_site_fract_y
_atom_site_fract_z
C1 C 0.39749(13) 0.45591(10) 0.13544(5)
C2 C 0.53439(13) 0.45921(10) 0.09683(5)
C3 C 0.59010(14) 0.57521(10) 0.07651(5)
H1 H 0.54510 0.64780 0.09230
C4 C 0.70640(14) 0.58314(11) 0.03491(5)
H2 H 0.73850 0.66060 0.02050
C5 C 0.77890(14) 0.47568(11) 0.01342(5)
H3 H 0.85960 0.48270 -0.01580
C6 C 0.73872(14) 0.36161(11) 0.03261(5)
C7 C 0.60850(13) 0.34877(10) 0.07490(5)
C8 C 0.54428(14) 0.2361(1) 0.09488(5)
C9 C 0.38132(14) 0.2356(1) 0.12097(5)
C10 C 0.29175(15) 0.12240(11) 0.12787(5)
H4 H 0.34410 0.04870 0.11610
C11 C 0.13355(16) 0.11812(12) 0.15086(6)
H5 H 0.07680 0.04190 0.15520
C12 C 0.05361(15) 0.22666(11) 0.16820(5)
H6 H -0.05840 0.22200 0.18330
C13 C 0.13127(14) 0.33851(11) 0.16411(5)
C14 C 0.30153(14) 0.34676(10) 0.14027(5)
C15 C 0.37237(14) 0.56912(10) 0.17010(5)
C16 C 0.52094(15) 0.62036(10) 0.20042(5)
H7 H 0.63020 0.57900 0.20050
C17 C 0.51197(16) 0.72992(11) 0.23024(5)
H8 H 0.61390 0.76260 0.25080
C18 C 0.35369(18) 0.79141(12) 0.22986(6)
H9 H 0.34740 0.86820 0.24880
C19 C 0.20439(17) 0.74017(11) 0.20169(5)
H10 H 0.09550 0.78180 0.20220
C20 C 0.21078(15) 0.62859(11) 0.17252(5)
C21 C 0.04651(15) 0.56587(11) 0.14899(5)
H11 H 0.05290 0.54830 0.10700
H12 H -0.05580 0.61960 0.15330
C22 C 0.02435(14) 0.44663(11) 0.18229(5)
H13 H 0.05520 0.46230 0.22420
H14 H -0.10120 0.42350 0.17800
C23 C 0.63934(14) 0.11671(10) 0.09274(5)
C24 C 0.66476(14) 0.04864(10) 0.14453(5)
H15 H 0.62610 0.08100 0.17960
C25 C 0.74534(15) -0.06497(11) 0.14528(5)
H16 H 0.76120 -0.10970 0.18070
C26 C 0.80283(15) -0.11334(11) 0.09428(6)
H17 H 0.85590 -0.19180 0.09440
C27 C 0.78195(15) -0.04603(11) 0.04323(5)
H18 H 0.82290 -0.07850 0.00850
C28 C 0.70195(14) 0.06863(11) 0.04186(5)
C29 C 0.70231(16) 0.14679(11) -0.01151(5)
H19 H 0.58190 0.17540 -0.02330
H20 H 0.74530 0.09940 -0.04420
C30 C 0.82324(16) 0.25623(11) 0.00292(5)
H21 H 0.92550 0.22790 0.02840
H22 H 0.86780 0.28630 -0.03370
loop_
_geom_bond_atom_site_label_1
_geom_bond_atom_site_label_2
_geom_bond_distance
_geom_bond_site_symmetry_1
_geom_bond_site_symmetry_2
C1 C2 1.425 1_555 1_555
C2 C3 1.430 1_555 1_555
C3 H1 0.950 1_555 1_555
C4 C3 1.359 1_555 1_555
H2 C4 0.950 1_555 1_555
C5 C4 1.407 1_555 1_555
H3 C5 0.950 1_555 1_555
C6 C5 1.368 1_555 1_555
C7 C2 1.444 1_555 1_555
C8 C7 1.418 1_555 1_555
C9 C8 1.425 1_555 1_555
C10 C9 1.432 1_555 1_555
H4 C10 0.950 1_555 1_555
C11 C10 1.358 1_555 1_555
H5 C11 0.950 1_555 1_555
C12 C11 1.409 1_555 1_555
H6 C12 0.950 1_555 1_555
C13 C12 1.368 1_555 1_555
C14 C1 1.412 1_555 1_555
C15 C1 1.495 1_555 1_555
C16 C15 1.403 1_555 1_555
H7 C16 0.950 1_555 1_555
C17 C16 1.387 1_555 1_555
H8 C17 0.950 1_555 1_555
C18 C17 1.385 1_555 1_555
H9 C18 0.950 1_555 1_555
C19 C18 1.387 1_555 1_555
H10 C19 0.950 1_555 1_555
C20 C15 1.402 1_555 1_555
C21 C20 1.496 1_555 1_555
H11 C21 0.990 1_555 1_555
H12 C21 0.990 1_555 1_555
C22 C13 1.516 1_555 1_555
H13 C22 0.989 1_555 1_555
H14 C22 0.990 1_555 1_555
C23 C8 1.499 1_555 1_555
C24 C23 1.406 1_555 1_555
H15 C24 0.949 1_555 1_555
C25 C24 1.388 1_555 1_555
H16 C25 0.950 1_555 1_555
C26 C25 1.389 1_555 1_555
H17 C26 0.950 1_555 1_555
C27 C26 1.385 1_555 1_555
H18 C27 0.950 1_555 1_555
C28 C23 1.401 1_555 1_555
C29 C28 1.497 1_555 1_555
H19 C29 0.990 1_555 1_555
H20 C29 0.991 1_555 1_555
C30 C6 1.512 1_555 1_555
H21 C30 0.990 1_555 1_555
H22 C30 0.989 1_555 1_555
C6 C7 1.452 1_555 1_555
C9 C14 1.447 1_555 1_555
C13 C14 1.454 1_555 1_555
C19 C20 1.397 1_555 1_555
C21 C22 1.530 1_555 1_555
C27 C28 1.396 1_555 1_555
C29 C30 1.535 1_555 1_555
#END
