
#######################################################################
#
#                 Cambridge Crystallographic Data Centre
#                                CCDC
#
#######################################################################
#
# If this CIF has been generated from an entry in the Cambridge
# Structural Database, then it will include bibliographic, chemical,
# crystal, experimental, refinement or atomic coordinate data resulting
# from the CCDC's data processing and validation procedures.
#
#######################################################################

data_CSD_CIF_FEKTUM
_audit_creation_date 2013-04-04
_audit_creation_method CSD-ConQuest-V1
_database_code_CSD FEKTUM
_database_code_depnum_ccdc_archive 'CCDC 887757'
_chemical_formula_sum 'C22 H26'
_chemical_formula_moiety
;
C22 H26
;
_journal_coden_Cambridge 1220
_journal_volume 18
_journal_year 2012
_journal_page_first 15394
_journal_name_full 'Chem.-Eur.J. '
loop_
_publ_author_name
"C.Hoffend"
"F.Schodel"
"M.Bolte"
"H.-W.Lerner"
"M.Wagner"
_chemical_name_systematic
;
2,6-Di-t-butylanthracene
;
_cell_volume    835.303
_exptl_crystal_colour 'colorless'
_exptl_crystal_density_diffrn 1.155
_exptl_crystal_description 'plate'
_diffrn_ambient_temperature 173
#These two values have been output from a single CSD field.
_refine_ls_R_factor_gt 0.0449
_refine_ls_wR_factor_gt 0.0449
_symmetry_cell_setting monoclinic
_symmetry_space_group_name_H-M 'P 21/c'
_symmetry_Int_Tables_number 14
loop_
_symmetry_equiv_pos_site_id
_symmetry_equiv_pos_as_xyz
1 x,y,z
2 -x,1/2+y,1/2-z
3 -x,-y,-z
4 x,-1/2-y,-1/2+z
_cell_length_a 12.7547(14)
_cell_length_b 6.1402(4)
_cell_length_c 10.7182(13)
_cell_angle_alpha 90
_cell_angle_beta 95.671(9)
_cell_angle_gamma 90
_cell_formula_units_Z 2
loop_
_atom_type_symbol
_atom_type_radius_bond
C 0.68
H 0.23
loop_
_atom_site_label
_atom_site_type_symbol
_atom_site_fract_x
_atom_site_fract_y
_atom_site_fract_z
C1 C 0.41012(9) 0.5470(2) 0.41529(12)
C2 C 0.32065(10) 0.5876(2) 0.32665(12)
H1 H 0.28470 0.72270 0.33030
C3 C 0.28499(9) 0.4397(2) 0.23720(12)
C4 C 0.34167(10) 0.2383(2) 0.23167(12)
H2 H 0.31870 0.13420 0.16930
C5 C 0.42758(10) 0.1926(2) 0.31343(12)
H3 H 0.46300 0.05750 0.30700
C6 C 0.46529(9) 0.3437(2) 0.40846(11)
C7 C 0.44647(9) 0.6976(2) 0.50669(12)
H4 H 0.41030 0.83220 0.51150
C8 C 0.18418(9) 0.4768(2) 0.14821(12)
C9 C 0.19267(11) 0.3754(3) 0.01896(13)
H5 H 0.25070 0.44420 -0.01990
H6 H 0.12660 0.39830 -0.03420
H7 H 0.20620 0.21890 0.02830
C10 C 0.09266(10) 0.3676(3) 0.20731(15)
H8 H 0.08640 0.43100 0.29020
H9 H 0.10620 0.21090 0.21600
H10 H 0.02700 0.39120 0.15350
C11 C 0.15979(12) 0.7195(2) 0.12963(15)
H11 H 0.15390 0.78790 0.21130
H12 H 0.09320 0.73660 0.07650
H13 H 0.21670 0.78930 0.08920
C1B C 0.58988(9) 0.4530(2) 0.58471(12)
C2B C 0.67935(10) 0.4124(2) 0.67335(12)
H1B H 0.71530 0.27730 0.66970
C3B C 0.71501(9) 0.5603(2) 0.76280(12)
C4B C 0.65833(10) 0.7617(2) 0.76833(12)
H2B H 0.68130 0.86580 0.83070
C5B C 0.57242(10) 0.8074(2) 0.68657(12)
H3B H 0.53700 0.94250 0.69300
C6B C 0.53471(9) 0.6563(2) 0.59154(11)
C7B C 0.55353(9) 0.3024(2) 0.49331(12)
H4B H 0.58970 0.16780 0.48850
C8B C 0.81582(9) 0.5232(2) 0.85179(12)
C9B C 0.80733(11) 0.6246(3) 0.98104(13)
H5B H 0.74930 0.55580 1.01990
H6B H 0.87340 0.60170 1.03420
H7B H 0.79380 0.78110 0.97170
C10B C 0.90734(10) 0.6324(3) 0.79269(15)
H8B H 0.91360 0.56900 0.70980
H9B H 0.89380 0.78910 0.78400
H10B H 0.97300 0.60880 0.84650
C11B C 0.84021(12) 0.2805(2) 0.87037(15)
H11B H 0.84610 0.21210 0.78870
H12B H 0.90680 0.26340 0.92350
H13B H 0.78330 0.21070 0.91080
loop_
_geom_bond_atom_site_label_1
_geom_bond_atom_site_label_2
_geom_bond_distance
_geom_bond_site_symmetry_1
_geom_bond_site_symmetry_2
C1 C2 1.433 1_555 1_555
C2 H1 0.951 1_555 1_555
C3 C2 1.365 1_555 1_555
C4 C3 1.437 1_555 1_555
H2 C4 0.950 1_555 1_555
C5 C4 1.363 1_555 1_555
H3 C5 0.950 1_555 1_555
C6 C1 1.438 1_555 1_555
C7 C1 1.393 1_555 1_555
H4 C7 0.950 1_555 1_555
C8 C3 1.540 1_555 1_555
C9 C8 1.532 1_555 1_555
H5 C9 0.980 1_555 1_555
H6 C9 0.980 1_555 1_555
H7 C9 0.980 1_555 1_555
C10 C8 1.536 1_555 1_555
H8 C10 0.980 1_555 1_555
H9 C10 0.980 1_555 1_555
H10 C10 0.980 1_555 1_555
C11 C8 1.531 1_555 1_555
H11 C11 0.980 1_555 1_555
H12 C11 0.980 1_555 1_555
H13 C11 0.980 1_555 1_555
C1B C2B 1.433 1_555 1_555
C2B H1B 0.951 1_555 1_555
C3B C2B 1.365 1_555 1_555
C4B C3B 1.437 1_555 1_555
H2B C4B 0.950 1_555 1_555
C5B C4B 1.363 1_555 1_555
H3B C5B 0.950 1_555 1_555
C6B C7 1.398 1_555 1_555
C7B C6 1.398 1_555 1_555
H4B C7B 0.950 1_555 1_555
C8B C3B 1.540 1_555 1_555
C9B C8B 1.532 1_555 1_555
H5B C9B 0.980 1_555 1_555
H6B C9B 0.980 1_555 1_555
H7B C9B 0.980 1_555 1_555
C10B C8B 1.536 1_555 1_555
H8B C10B 0.980 1_555 1_555
H9B C10B 0.980 1_555 1_555
H10B C10B 0.980 1_555 1_555
C11B C8B 1.531 1_555 1_555
H11B C11B 0.980 1_555 1_555
H12B C11B 0.980 1_555 1_555
H13B C11B 0.980 1_555 1_555
C5 C6 1.426 1_555 1_555
C1B C6B 1.438 1_555 1_555
C1B C7B 1.393 1_555 1_555
C5B C6B 1.426 1_555 1_555
#END
