
#######################################################################
#
#                 Cambridge Crystallographic Data Centre
#                                CCDC
#
#######################################################################
#
# If this CIF has been generated from an entry in the Cambridge
# Structural Database, then it will include bibliographic, chemical,
# crystal, experimental, refinement or atomic coordinate data resulting
# from the CCDC's data processing and validation procedures.
#
#######################################################################

data_CSD_CIF_FETZOW
_audit_creation_date 2018-03-28
_audit_creation_method CSD-ConQuest-V1
_database_code_CSD FETZOW
_database_code_depnum_ccdc_archive 'CCDC 1574336'
_chemical_formula_sum 'C28 H20'
_chemical_formula_moiety
;
C28 H20
;
_journal_coden_Cambridge 1695
_journal_volume 6
_journal_year 2018
_journal_page_first 3856
_journal_name_full 'J.Mater.Chem.C '
loop_
_publ_author_name
"Dan Liu"
"Jie Li"
"Jie Liu"
"Xiuqiang Lu"
"Mengxiao Hu"
"Yang Li"
"Zhibin Shu"
"Zhenjie Ni"
"Shang Ding"
"Lang Jiang"
"Yonggang Zhen"
"Xiaotao Zhang"
"Huanli Dong"
"Wenping Hu"
_chemical_name_systematic
;
2-(2,2-diphenylethenyl)anthracene
;
_cell_volume   3899.493
_exptl_crystal_colour 'colorless'
_exptl_crystal_density_diffrn 1.214
_exptl_crystal_description 'plate'
_diffrn_ambient_temperature 173
#These two values have been output from a single CSD field.
_refine_ls_R_factor_gt 0.0752
_refine_ls_wR_factor_gt 0.0752
_symmetry_cell_setting orthorhombic
_symmetry_space_group_name_H-M 'P b c a'
_symmetry_Int_Tables_number 61
loop_
_symmetry_equiv_pos_site_id
_symmetry_equiv_pos_as_xyz
1 x,y,z
2 1/2-x,-y,1/2+z
3 -x,1/2+y,1/2-z
4 1/2+x,1/2-y,-z
5 -x,-y,-z
6 -1/2+x,y,-1/2-z
7 x,-1/2-y,-1/2+z
8 -1/2-x,-1/2+y,z
_cell_length_a 11.0823(6)
_cell_length_b 8.2233(4)
_cell_length_c 42.789(2)
_cell_angle_alpha 90
_cell_angle_beta 90
_cell_angle_gamma 90
_cell_formula_units_Z 8
loop_
_atom_type_symbol
_atom_type_radius_bond
C 0.68
H 0.23
loop_
_atom_site_label
_atom_site_type_symbol
_atom_site_fract_x
_atom_site_fract_y
_atom_site_fract_z
C1 C 0.25691(19) 0.6419(2) 0.79491(4)
H1 H 0.18390 0.69770 0.79460
C2 C 0.30825(19) 0.6018(3) 0.82278(4)
H2 H 0.26960 0.62920 0.84130
C3 C 0.42010(19) 0.5186(3) 0.82372(5)
H3 H 0.45480 0.49340 0.84290
C4 C 0.47726(19) 0.4754(2) 0.79691(5)
H4 H 0.55060 0.42080 0.79800
C5 C 0.42634(17) 0.5124(2) 0.76704(4)
C6 C 0.48144(17) 0.4670(2) 0.73896(4)
H5 H 0.55410 0.41040 0.73950
C7 C 0.42996(16) 0.5047(2) 0.71005(4)
C8 C 0.48201(17) 0.4540(2) 0.68100(4)
H6 H 0.55320 0.39420 0.68120
C9 C 0.42992(17) 0.4912(2) 0.65319(4)
H7 H 0.46580 0.45530 0.63480
C10 C 0.32045(17) 0.5850(2) 0.65153(4)
C11 C 0.26725(18) 0.6311(2) 0.67913(4)
H8 H 0.19510 0.68880 0.67840
C12 C 0.31846(17) 0.5938(2) 0.70891(4)
C13 C 0.26348(17) 0.6390(2) 0.73703(4)
H9 H 0.19150 0.69710 0.73640
C14 C 0.31368(17) 0.5993(2) 0.76612(4)
C15 C 0.25995(19) 0.6250(2) 0.62188(4)
H10 H 0.17710 0.64190 0.62320
C16 C 0.30812(17) 0.6408(2) 0.59292(4)
C17 C 0.22971(18) 0.6643(2) 0.56495(4)
C18 C 0.11064(19) 0.6072(2) 0.56379(5)
H11 H 0.07820 0.55470 0.58110
C19 C 0.0402(2) 0.6278(3) 0.53718(5)
H12 H -0.03840 0.58850 0.53690
C20 C 0.0864(2) 0.7062(3) 0.51119(5)
H13 H 0.03910 0.72020 0.49340
C21 C 0.2032(2) 0.7632(3) 0.51193(5)
H14 H 0.23480 0.81620 0.49460
C22 C 0.27401(19) 0.7425(2) 0.53827(4)
H15 H 0.35280 0.78140 0.53820
C23 C 0.44121(17) 0.6416(2) 0.58762(4)
C24 C 0.51384(18) 0.7507(2) 0.60377(4)
H16 H 0.47860 0.82340 0.61770
C25 C 0.6377(2) 0.7530(3) 0.59951(5)
H17 H 0.68500 0.82750 0.61040
C26 C 0.6905(2) 0.6446(3) 0.57912(5)
H18 H 0.77380 0.64500 0.57640
C27 C 0.6199(2) 0.5354(3) 0.56274(5)
H19 H 0.65600 0.46180 0.54910
C28 C 0.49572(19) 0.5347(2) 0.56650(4)
H20 H 0.44860 0.46300 0.55500
loop_
_geom_bond_atom_site_label_1
_geom_bond_atom_site_label_2
_geom_bond_distance
_geom_bond_site_symmetry_1
_geom_bond_site_symmetry_2
C1 H1 0.930 1_555 1_555
C2 C1 1.362 1_555 1_555
H2 C2 0.929 1_555 1_555
C3 C2 1.416 1_555 1_555
H3 C3 0.930 1_555 1_555
C4 C3 1.358 1_555 1_555
H4 C4 0.930 1_555 1_555
C5 C4 1.430 1_555 1_555
C6 C5 1.399 1_555 1_555
H5 C6 0.930 1_555 1_555
C7 C6 1.397 1_555 1_555
C8 C7 1.432 1_555 1_555
H6 C8 0.930 1_555 1_555
C9 C8 1.358 1_555 1_555
H7 C9 0.930 1_555 1_555
C10 C9 1.439 1_555 1_555
C11 C10 1.373 1_555 1_555
H8 C11 0.930 1_555 1_555
C12 C7 1.437 1_555 1_555
C13 C12 1.399 1_555 1_555
H9 C13 0.930 1_555 1_555
C14 C1 1.427 1_555 1_555
C15 C10 1.472 1_555 1_555
H10 C15 0.930 1_555 1_555
C16 C15 1.356 1_555 1_555
C17 C16 1.492 1_555 1_555
C18 C17 1.402 1_555 1_555
H11 C18 0.930 1_555 1_555
C19 C18 1.391 1_555 1_555
H12 C19 0.929 1_555 1_555
C20 C19 1.384 1_555 1_555
H13 C20 0.931 1_555 1_555
C21 C20 1.377 1_555 1_555
H14 C21 0.929 1_555 1_555
C22 C17 1.399 1_555 1_555
H15 C22 0.930 1_555 1_555
C23 C16 1.492 1_555 1_555
C24 C23 1.389 1_555 1_555
H16 C24 0.930 1_555 1_555
C25 C24 1.385 1_555 1_555
H17 C25 0.931 1_555 1_555
C26 C25 1.378 1_555 1_555
H18 C26 0.930 1_555 1_555
C27 C26 1.382 1_555 1_555
H19 C27 0.931 1_555 1_555
C28 C23 1.398 1_555 1_555
H20 C28 0.929 1_555 1_555
C5 C14 1.439 1_555 1_555
C11 C12 1.428 1_555 1_555
C13 C14 1.402 1_555 1_555
C21 C22 1.384 1_555 1_555
C27 C28 1.386 1_555 1_555
#END
