
#######################################################################
#
#                 Cambridge Crystallographic Data Centre
#                                CCDC
#
#######################################################################
#
# If this CIF has been generated from an entry in the Cambridge
# Structural Database, then it will include bibliographic, chemical,
# crystal, experimental, refinement or atomic coordinate data resulting
# from the CCDC's data processing and validation procedures.
#
#######################################################################

data_CSD_CIF_FEWWEJ
_audit_creation_date 1987-11-26
_audit_creation_method CSD-ConQuest-V1
_database_code_CSD FEWWEJ
_chemical_formula_sum 'C16 H14'
_chemical_formula_moiety
;
C16 H14
;
_journal_coden_Cambridge 4
_journal_volume 109
_journal_year 1987
_journal_page_first 2077
_journal_name_full 'J.Am.Chem.Soc. '
loop_
_publ_author_name
"R.N.Armstrong"
"H.L.Ammon"
"J.N.Darnow"
_chemical_name_systematic
;
4,5-Dimethylphenanthrene
;
_cell_volume    572.888
_exptl_crystal_density_diffrn 1.196
_diffrn_ambient_temperature ?
_diffrn_special_details
;
The study was carried out at room temperature,in the range 283-303K

;
#These two values have been output from a single CSD field.
_refine_ls_R_factor_gt 0.034
_refine_ls_wR_factor_gt 0.034
_symmetry_cell_setting monoclinic
_symmetry_space_group_name_H-M 'P 21'
_symmetry_Int_Tables_number 4
loop_
_symmetry_equiv_pos_site_id
_symmetry_equiv_pos_as_xyz
1 x,y,z
2 -x,1/2+y,-z
_cell_length_a 8.327(1)
_cell_length_b 8.2540(8)
_cell_length_c 8.746(1)
_cell_angle_alpha 90
_cell_angle_beta 107.63(1)
_cell_angle_gamma 90
_cell_formula_units_Z 2
loop_
_atom_type_symbol
_atom_type_radius_bond
C 0.68
H 0.23
loop_
_atom_site_label
_atom_site_type_symbol
_atom_site_fract_x
_atom_site_fract_y
_atom_site_fract_z
C1 C 1.1061(7) 0.45000 0.5142(5)
C2 C 1.2694(8) 0.4104(7) 0.5480(5)
C3 C 1.3219(6) 0.3001(7) 0.4523(5)
C4 C 1.2089(4) 0.2367(6) 0.3142(4)
C5 C 1.0397(4) 0.2952(5) 0.2647(4)
C6 C 0.9158(4) 0.2557(5) 0.1111(4)
C7 C 0.9503(4) 0.2249(5) -0.0348(4)
C8 C 0.8230(4) 0.1716(6) -0.1651(5)
C9 C 0.6592(6) 0.1549(7) -0.1620(6)
C10 C 0.6171(5) 0.2059(7) -0.0308(6)
C11 C 0.7446(4) 0.2617(6) 0.1055(5)
C12 C 0.6945(6) 0.3392(7) 0.2323(7)
C13 C 0.8126(7) 0.4121(7) 0.3530(6)
C14 C 0.9899(6) 0.38940 0.3757(4)
C15 C 1.2671(6) 0.0920(7) 0.2422(6)
C16 C 1.1137(6) 0.2667(7) -0.0651(5)
H1 H 1.05(1) 0.53(1) 0.604(8)
H2 H 1.329(5) 0.459(6) 0.643(5)
H3 H 1.441(4) 0.232(6) 0.495(5)
H4 H 0.837(4) 0.156(4) -0.252(4)
H5 H 0.545(9) 0.10(1) -0.249(8)
H6 H 0.506(9) 0.20(1) -0.032(8)
H7 H 0.554(5) 0.346(7) 0.214(5)
H8 H 0.768(6) 0.476(7) 0.441(6)
H9 H 1.163(5) 0.040(5) 0.161(5)
H10 H 1.342(5) 0.113(6) 0.195(5)
H11 H 1.342(5) 0.019(5) 0.333(4)
H12 H 1.207(5) 0.325(6) 0.014(5)
H13 H 1.187(6) 0.166(7) -0.095(5)
H14 H 1.084(5) 0.327(7) -0.169(6)
loop_
_geom_bond_atom_site_label_1
_geom_bond_atom_site_label_2
_geom_bond_distance
_geom_bond_site_symmetry_1
_geom_bond_site_symmetry_2
C1 C2 1.342 1_555 1_555
C2 C3 1.394 1_555 1_555
C3 C4 1.389 1_555 1_555
C4 C5 1.427 1_555 1_555
C5 C6 1.461 1_555 1_555
C6 C7 1.413 1_555 1_555
C7 C8 1.373 1_555 1_555
C8 C9 1.379 1_555 1_555
C9 C10 1.364 1_555 1_555
C10 C11 1.412 1_555 1_555
C11 C6 1.412 1_555 1_555
C12 C11 1.447 1_555 1_555
C13 C12 1.347 1_555 1_555
C14 C1 1.394 1_555 1_555
C15 C4 1.498 1_555 1_555
C16 C7 1.503 1_555 1_555
H1 C1 1.222 1_555 1_555
H2 C2 0.921 1_555 1_555
H3 C3 1.102 1_555 1_555
H4 C8 0.813 1_555 1_555
H5 C9 1.118 1_555 1_555
H6 C10 0.923 1_555 1_555
H7 C12 1.133 1_555 1_555
H8 C13 1.087 1_555 1_555
H9 C15 1.033 1_555 1_555
H10 C15 0.863 1_555 1_555
H11 C15 1.041 1_555 1_555
H12 C16 0.994 1_555 1_555
H13 C16 1.108 1_555 1_555
H14 C16 0.999 1_555 1_555
C5 C14 1.401 1_555 1_555
C13 C14 1.441 1_555 1_555
#END
