
#######################################################################
#
#                 Cambridge Crystallographic Data Centre
#                                CCDC
#
#######################################################################
#
# If this CIF has been generated from an entry in the Cambridge
# Structural Database, then it will include bibliographic, chemical,
# crystal, experimental, refinement or atomic coordinate data resulting
# from the CCDC's data processing and validation procedures.
#
#######################################################################

data_CSD_CIF_FEWWEJ03
_audit_creation_date 2014-05-09
_audit_creation_method CSD-ConQuest-V1
_database_code_CSD FEWWEJ03
_database_code_depnum_ccdc_archive 'CCDC 924098'
_chemical_formula_sum 'C16 H14'
_chemical_formula_moiety
;
C16 H14
;
_journal_coden_Cambridge 4
_journal_volume 135
_journal_year 2013
_journal_page_first 18815
_journal_name_full 'J.Am.Chem.Soc. '
loop_
_publ_author_name
"J.Carreras"
"G.Gopakumar"
"Liangu Gu"
"Ana Gimeno"
"P.Linowski"
"J.Petuskova"
"W.Thiel"
"M.Alcarazo"
_chemical_name_systematic
;
4,5-dimethylphenanthrene
;
_cell_volume    555.218
_exptl_crystal_colour 'colorless'
_exptl_crystal_density_diffrn 1.234
_exptl_crystal_description 'plate'
_exptl_crystal_preparation 'methanol'
_diffrn_ambient_temperature 100
#These two values have been output from a single CSD field.
_refine_ls_R_factor_gt 0.036
_refine_ls_wR_factor_gt 0.036
_symmetry_cell_setting monoclinic
_symmetry_space_group_name_H-M 'P 21'
_symmetry_Int_Tables_number 4
loop_
_symmetry_equiv_pos_site_id
_symmetry_equiv_pos_as_xyz
1 x,y,z
2 -x,1/2+y,-z
_cell_length_a 8.3090(8)
_cell_length_b 8.0817(7)
_cell_length_c 8.7050(8)
_cell_angle_alpha 90
_cell_angle_beta 108.227(1)
_cell_angle_gamma 90
_cell_formula_units_Z 2
loop_
_atom_type_symbol
_atom_type_radius_bond
C 0.68
H 0.23
loop_
_atom_site_label
_atom_site_type_symbol
_atom_site_fract_x
_atom_site_fract_y
_atom_site_fract_z
C1 C 1.21185(9) 0.68687(9) 0.31337(8)
C2 C 1.32815(10) 0.75210(11) 0.45228(9)
H1 H 1.44330 0.71880 0.48010
C3 C 1.28063(11) 0.86522(11) 0.55208(9)
H2 H 1.36360 0.91450 0.64130
C4 C 1.11174(12) 0.90391(10) 0.51889(9)
H3 H 1.07690 0.97330 0.59070
C5 C 0.99036(10) 0.84139(9) 0.37924(8)
C6 C 0.81308(11) 0.86354(11) 0.35915(10)
H4 H 0.77960 0.93130 0.43300
C7 C 0.69402(11) 0.78905(11) 0.23651(11)
H5 H 0.57930 0.78930 0.23520
C8 C 0.73864(9) 0.70915(9) 0.10755(9)
C9 C 0.60892(9) 0.65254(11) -0.02913(10)
H6 H 0.49510 0.65010 -0.02780
C10 C 0.64648(10) 0.60071(10) -0.16466(9)
H7 H 0.56080 0.55450 -0.25370
C11 C 0.81226(10) 0.61695(9) -0.16964(8)
H8 H 0.83550 0.59040 -0.26690
C12 C 0.94456(9) 0.67075(8) -0.03675(8)
C13 C 0.91174(8) 0.70322(8) 0.11155(8)
C14 C 1.04160(9) 0.74514(8) 0.26507(8)
C15 C 1.26928(10) 0.5390(1) 0.23772(9)
H9 H 1.32160 0.45740 0.32180
H10 H 1.35210 0.57470 0.18540
H11 H 1.17140 0.48910 0.15700
C16 C 1.10848(10) 0.7127(1) -0.06925(9)
H12 H 1.16620 0.61030 -0.08220
H13 H 1.18170 0.77630 0.02180
H14 H 1.08370 0.77860 -0.16840
loop_
_geom_bond_atom_site_label_1
_geom_bond_atom_site_label_2
_geom_bond_distance
_geom_bond_site_symmetry_1
_geom_bond_site_symmetry_2
C1 C2 1.394 1_555 1_555
C2 H1 0.950 1_555 1_555
C3 C2 1.400 1_555 1_555
H2 C3 0.950 1_555 1_555
C4 C3 1.377 1_555 1_555
H3 C4 0.950 1_555 1_555
C5 C4 1.408 1_555 1_555
C6 C5 1.439 1_555 1_555
H4 C6 0.950 1_555 1_555
C7 C6 1.349 1_555 1_555
H5 C7 0.950 1_555 1_555
C8 C7 1.440 1_555 1_555
C9 C8 1.409 1_555 1_555
H6 C9 0.950 1_555 1_555
C10 C9 1.377 1_555 1_555
H7 C10 0.950 1_555 1_555
C11 C10 1.398 1_555 1_555
H8 C11 0.950 1_555 1_555
C12 C11 1.393 1_555 1_555
C13 C8 1.429 1_555 1_555
C14 C1 1.424 1_555 1_555
C15 C1 1.512 1_555 1_555
H9 C15 0.980 1_555 1_555
H10 C15 0.980 1_555 1_555
H11 C15 0.980 1_555 1_555
C16 C12 1.514 1_555 1_555
H12 C16 0.981 1_555 1_555
H13 C16 0.980 1_555 1_555
H14 C16 0.980 1_555 1_555
C5 C14 1.428 1_555 1_555
C12 C13 1.425 1_555 1_555
C13 C14 1.471 1_555 1_555
#END
