
#######################################################################
#
#                 Cambridge Crystallographic Data Centre
#                                CCDC
#
#######################################################################
#
# If this CIF has been generated from an entry in the Cambridge
# Structural Database, then it will include bibliographic, chemical,
# crystal, experimental, refinement or atomic coordinate data resulting
# from the CCDC's data processing and validation procedures.
#
#######################################################################

data_CSD_CIF_GEFFOP
_audit_creation_date 2017-08-03
_audit_creation_method CSD-ConQuest-V1
_database_code_CSD GEFFOP
_database_code_depnum_ccdc_archive 'CCDC 1515296'
_chemical_formula_sum 'C28 H22'
_chemical_formula_moiety
;
C28 H22
;
_journal_coden_Cambridge 4
_journal_volume 139
_journal_year 2017
_journal_page_first 4948
_journal_name_full 'J.Am.Chem.Soc. '
loop_
_publ_author_name
"Lianghu Gu"
"L.M.Wolf"
"A.Zielinski"
"W.Thiel"
"M.Alcarazo"
_chemical_name_systematic
;
9-(3-(azulen-1-yl)but-1-en-1-yl)anthracene
;
_cell_volume   3821.681
_exptl_crystal_colour 'blue'
_exptl_crystal_density_diffrn 1.246
_exptl_crystal_description 'block'
_diffrn_ambient_temperature 100
#These two values have been output from a single CSD field.
_refine_ls_R_factor_gt 0.0371
_refine_ls_wR_factor_gt 0.0371
_symmetry_cell_setting monoclinic
_symmetry_space_group_name_H-M 'C 2/c'
_symmetry_Int_Tables_number 15
loop_
_symmetry_equiv_pos_site_id
_symmetry_equiv_pos_as_xyz
1 x,y,z
2 -x,y,1/2-z
3 1/2+x,1/2+y,z
4 1/2-x,1/2+y,1/2-z
5 -x,-y,-z
6 x,-y,-1/2+z
7 -1/2-x,-1/2-y,-z
8 -1/2+x,-1/2-y,-1/2+z
_cell_length_a 27.455(2)
_cell_length_b 8.9353(7)
_cell_length_c 19.0572(14)
_cell_angle_alpha 90
_cell_angle_beta 125.169(2)
_cell_angle_gamma 90
_cell_formula_units_Z 8
loop_
_atom_type_symbol
_atom_type_radius_bond
C 0.68
H 0.23
loop_
_atom_site_label
_atom_site_type_symbol
_atom_site_fract_x
_atom_site_fract_y
_atom_site_fract_z
C1 C 0.52727(5) 0.82459(11) 0.54137(7)
C2 C 0.48316(5) 0.78833(11) 0.55636(7)
H1 H 0.44860 0.73880 0.51400
C3 C 0.49088(5) 0.82508(12) 0.63158(7)
H2 H 0.46140 0.80140 0.63960
C4 C 0.54339(5) 0.89909(12) 0.69770(7)
H3 H 0.54820 0.92340 0.74880
C5 C 0.58676(5) 0.93468(12) 0.68677(7)
H4 H 0.62110 0.98240 0.73080
C6 C 0.58026(5) 0.89970(11) 0.60834(7)
C7 C 0.62427(5) 0.93688(12) 0.59605(7)
H5 H 0.65870 0.98500 0.63970
C8 C 0.61740(5) 0.90288(12) 0.51923(7)
C9 C 0.66200(5) 0.94314(13) 0.50590(8)
H6 H 0.69660 0.99060 0.54960
C10 C 0.65457(6) 0.91305(13) 0.43026(8)
H7 H 0.68420 0.93870 0.42290
C11 C 0.60168(5) 0.84257(12) 0.36262(7)
H8 H 0.59650 0.82430 0.31070
C12 C 0.55839(5) 0.80137(11) 0.37293(7)
H9 H 0.52410 0.75520 0.32770
C13 C 0.56453(5) 0.82766(11) 0.45180(7)
C14 C 0.52001(5) 0.78691(11) 0.46374(7)
C15 C 0.46494(5) 0.70835(11) 0.39681(7)
H10 H 0.42900 0.75490 0.37760
C16 C 0.46209(5) 0.57731(12) 0.36161(7)
H11 H 0.49800 0.53400 0.37800
C17 C 0.40560(5) 0.49213(11) 0.29722(7)
H12 H 0.40770 0.39630 0.32390
C18 C 0.40330(6) 0.45616(13) 0.21646(7)
H13 H 0.37000 0.39170 0.17950
H14 H 0.43950 0.40700 0.23280
H15 H 0.39900 0.54730 0.18670
C19 C 0.35063(5) 0.57133(12) 0.27765(7)
C20 C 0.31160(5) 0.66123(13) 0.20594(7)
H16 H 0.31400 0.67550 0.15970
C21 C 0.26862(5) 0.72623(13) 0.21372(8)
H17 H 0.23840 0.79040 0.17410
C22 C 0.27853(5) 0.67878(12) 0.29091(7)
C23 C 0.24461(5) 0.71807(13) 0.32102(8)
H18 H 0.21280 0.78210 0.28590
C24 C 0.25188(6) 0.67447(13) 0.39666(8)
H19 H 0.22410 0.71270 0.40500
C25 C 0.29518(6) 0.58129(13) 0.46148(8)
H20 H 0.29220 0.56680 0.50720
C26 C 0.34221(5) 0.50653(13) 0.46833(7)
H21 H 0.36610 0.44960 0.51780
C27 C 0.35852(5) 0.50526(12) 0.41102(7)
H22 H 0.39190 0.44810 0.42770
C28 C 0.33161(5) 0.57788(11) 0.33244(7)
loop_
_geom_bond_atom_site_label_1
_geom_bond_atom_site_label_2
_geom_bond_distance
_geom_bond_site_symmetry_1
_geom_bond_site_symmetry_2
C1 C2 1.432 1_555 1_555
C2 H1 0.930 1_555 1_555
C3 C2 1.363 1_555 1_555
H2 C3 0.930 1_555 1_555
C4 C3 1.418 1_555 1_555
H3 C4 0.930 1_555 1_555
C5 C4 1.359 1_555 1_555
H4 C5 0.929 1_555 1_555
C6 C1 1.434 1_555 1_555
C7 C6 1.397 1_555 1_555
H5 C7 0.930 1_555 1_555
C8 C7 1.397 1_555 1_555
C9 C8 1.432 1_555 1_555
H6 C9 0.930 1_555 1_555
C10 C9 1.361 1_555 1_555
H7 C10 0.930 1_555 1_555
C11 C10 1.418 1_555 1_555
H8 C11 0.929 1_555 1_555
C12 C11 1.362 1_555 1_555
H9 C12 0.930 1_555 1_555
C13 C8 1.436 1_555 1_555
C14 C1 1.415 1_555 1_555
C15 C14 1.478 1_555 1_555
H10 C15 0.930 1_555 1_555
C16 C15 1.329 1_555 1_555
H11 C16 0.930 1_555 1_555
C17 C16 1.516 1_555 1_555
H12 C17 0.980 1_555 1_555
C18 C17 1.538 1_555 1_555
H13 C18 0.960 1_555 1_555
H14 C18 0.960 1_555 1_555
H15 C18 0.960 1_555 1_555
C19 C17 1.506 1_555 1_555
C20 C19 1.405 1_555 1_555
H16 C20 0.930 1_555 1_555
C21 C20 1.398 1_555 1_555
H17 C21 0.930 1_555 1_555
C22 C21 1.399 1_555 1_555
C23 C22 1.391 1_555 1_555
H18 C23 0.930 1_555 1_555
C24 C23 1.392 1_555 1_555
H19 C24 0.929 1_555 1_555
C25 C24 1.393 1_555 1_555
H20 C25 0.930 1_555 1_555
C26 C25 1.392 1_555 1_555
H21 C26 0.930 1_555 1_555
C27 C26 1.399 1_555 1_555
H22 C27 0.931 1_555 1_555
C28 C19 1.412 1_555 1_555
C5 C6 1.434 1_555 1_555
C12 C13 1.432 1_555 1_555
C13 C14 1.414 1_555 1_555
C22 C28 1.495 1_555 1_555
C27 C28 1.391 1_555 1_555
#END
