
#######################################################################
#
#                 Cambridge Crystallographic Data Centre
#                                CCDC
#
#######################################################################
#
# If this CIF has been generated from an entry in the Cambridge
# Structural Database, then it will include bibliographic, chemical,
# crystal, experimental, refinement or atomic coordinate data resulting
# from the CCDC's data processing and validation procedures.
#
#######################################################################

data_CSD_CIF_GEPPOJ
_audit_creation_date 2017-11-29
_audit_creation_method CSD-ConQuest-V1
_database_code_CSD GEPPOJ
_database_code_depnum_ccdc_archive 'CCDC 1570555'
_chemical_formula_sum 'C34 H24'
_chemical_formula_moiety
;
C34 H24
;
_journal_coden_Cambridge 4
_journal_volume 139
_journal_year 2017
_journal_page_first 15933
_journal_name_full 'J.Am.Chem.Soc. '
loop_
_publ_author_name
"Zexin Jin"
"Yew Chin Teo"
"S.J.Teat"
"Yan Xia"
_chemical_name_systematic
;
5,8,13,16-tetramethylbenzo[6,7]biphenyleno[2,1-a]benzo[h]biphenylene
;
_cell_volume   1065.799
_exptl_crystal_colour 'red'
_exptl_crystal_density_diffrn 1.348
_exptl_crystal_description 'plate'
_diffrn_ambient_temperature 100
_diffrn_radiation_probe x-ray
_diffrn_source synchrotron
#These two values have been output from a single CSD field.
_refine_ls_R_factor_gt 0.0461
_refine_ls_wR_factor_gt 0.0461
_symmetry_cell_setting monoclinic
_symmetry_space_group_name_H-M 'P 21/n'
_symmetry_Int_Tables_number 14
loop_
_symmetry_equiv_pos_site_id
_symmetry_equiv_pos_as_xyz
1 x,y,z
2 1/2-x,1/2+y,1/2-z
3 -x,-y,-z
4 -1/2+x,-1/2-y,-1/2+z
_cell_length_a 7.8079(5)
_cell_length_b 5.2899(3)
_cell_length_c 26.0814(17)
_cell_angle_alpha 90
_cell_angle_beta 98.358(2)
_cell_angle_gamma 90
_cell_formula_units_Z 2
loop_
_atom_type_symbol
_atom_type_radius_bond
C 0.68
H 0.23
loop_
_atom_site_label
_atom_site_type_symbol
_atom_site_fract_x
_atom_site_fract_y
_atom_site_fract_z
C1 C 0.4740(2) -0.0315(3) 0.26392(6)
H1 H 0.47250 -0.14740 0.23600
C2 C 0.6093(2) 0.1411(3) 0.27467(7)
H2 H 0.70070 0.14220 0.25430
C3 C 0.6103(2) 0.3106(3) 0.31501(6)
H3 H 0.70280 0.42800 0.32180
C4 C 0.4778(2) 0.3138(3) 0.34628(6)
C5 C 0.4827(2) 0.4973(3) 0.38842(6)
C6 C 0.3516(2) 0.4756(3) 0.41638(6)
C7 C 0.2686(2) 0.5826(3) 0.45971(6)
C8 C 0.2748(2) 0.7730(3) 0.49704(6)
H4 H 0.36620 0.89310 0.50200
C9 C 0.1410(2) 0.7774(3) 0.52632(6)
H5 H 0.14080 0.90480 0.55200
C10 C -0.0037(2) 0.4009(3) 0.48044(6)
C11 C 0.1346(2) 0.4052(3) 0.45133(6)
C12 C 0.2131(2) 0.2921(3) 0.40679(6)
C13 C 0.1983(2) 0.1241(3) 0.36753(6)
C14 C 0.3387(2) 0.1347(3) 0.33573(6)
C15 C 0.3416(2) -0.0336(3) 0.29399(6)
H6 H 0.25010 -0.15200 0.28620
C16 C 0.6226(2) 0.6923(3) 0.39864(7)
H7 H 0.59870 0.80360 0.42680
H8 H 0.62630 0.79260 0.36720
H9 H 0.73440 0.60830 0.40860
C17 C 0.0531(2) -0.0627(3) 0.35540(7)
H10 H -0.02820 -0.04340 0.38040
H11 H 0.10020 -0.23470 0.35750
H12 H -0.00740 -0.03170 0.32030
C1B C -0.4740(2) 1.0315(3) 0.73608(6)
H1B H -0.47250 1.14740 0.76400
C2B C -0.6093(2) 0.8589(3) 0.72533(7)
H2B H -0.70070 0.85780 0.74570
C3B C -0.6103(2) 0.6894(3) 0.68499(6)
H3B H -0.70280 0.57200 0.67820
C4B C -0.4778(2) 0.6862(3) 0.65372(6)
C5B C -0.4827(2) 0.5027(3) 0.61158(6)
C6B C -0.3516(2) 0.5244(3) 0.58362(6)
C7B C -0.2686(2) 0.4174(3) 0.54029(6)
C8B C -0.2748(2) 0.2270(3) 0.50296(6)
H4B H -0.36620 0.10690 0.49800
C9B C -0.1410(2) 0.2226(3) 0.47368(6)
H5B H -0.14080 0.09520 0.44800
C10B C 0.0037(2) 0.5991(3) 0.51956(6)
C11B C -0.1346(2) 0.5948(3) 0.54867(6)
C12B C -0.2131(2) 0.7079(3) 0.59321(6)
C13B C -0.1983(2) 0.8759(3) 0.63247(6)
C14B C -0.3387(2) 0.8653(3) 0.66427(6)
C15B C -0.3416(2) 1.0336(3) 0.70601(6)
H6B H -0.25010 1.15200 0.71380
C16B C -0.6226(2) 0.3077(3) 0.60136(7)
H7B H -0.59870 0.19640 0.57320
H8B H -0.62630 0.20740 0.63280
H9B H -0.73440 0.39170 0.59140
C17B C -0.0531(2) 1.0627(3) 0.64460(7)
H10B H 0.02820 1.04340 0.61960
H11B H -0.10020 1.23470 0.64250
H12B H 0.00740 1.03170 0.67970
loop_
_geom_bond_atom_site_label_1
_geom_bond_atom_site_label_2
_geom_bond_distance
_geom_bond_site_symmetry_1
_geom_bond_site_symmetry_2
C1 H1 0.951 1_555 1_555
C2 C1 1.394 1_555 1_555
H2 C2 0.950 1_555 1_555
C3 C2 1.382 1_555 1_555
H3 C3 0.949 1_555 1_555
C4 C3 1.407 1_555 1_555
C5 C4 1.463 1_555 1_555
C6 C5 1.345 1_555 1_555
C7 C6 1.493 1_555 1_555
C8 C7 1.397 1_555 1_555
H4 C8 0.950 1_555 1_555
C9 C8 1.381 1_555 1_555
H5 C9 0.950 1_555 1_555
C10 C11 1.408 1_555 1_555
C11 C7 1.399 1_555 1_555
C12 C6 1.448 1_555 1_555
C13 C12 1.348 1_555 1_555
C14 C4 1.437 1_555 1_555
C15 C1 1.385 1_555 1_555
H6 C15 0.950 1_555 1_555
C16 C5 1.498 1_555 1_555
H7 C16 0.980 1_555 1_555
H8 C16 0.981 1_555 1_555
H9 C16 0.980 1_555 1_555
C17 C13 1.503 1_555 1_555
H10 C17 0.979 1_555 1_555
H11 C17 0.980 1_555 1_555
H12 C17 0.981 1_555 1_555
C1B H1B 0.951 1_555 1_555
C2B C1B 1.394 1_555 1_555
H2B C2B 0.950 1_555 1_555
C3B C2B 1.382 1_555 1_555
H3B C3B 0.949 1_555 1_555
C4B C3B 1.407 1_555 1_555
C5B C4B 1.463 1_555 1_555
C6B C5B 1.345 1_555 1_555
C7B C6B 1.493 1_555 1_555
C8B C7B 1.397 1_555 1_555
H4B C8B 0.950 1_555 1_555
C9B C10 1.419 1_555 1_555
H5B C9B 0.950 1_555 1_555
C10B C9 1.419 1_555 1_555
C11B C7B 1.399 1_555 1_555
C12B C6B 1.448 1_555 1_555
C13B C12B 1.348 1_555 1_555
C14B C4B 1.437 1_555 1_555
C15B C1B 1.385 1_555 1_555
H6B C15B 0.950 1_555 1_555
C16B C5B 1.498 1_555 1_555
H7B C16B 0.980 1_555 1_555
H8B C16B 0.981 1_555 1_555
H9B C16B 0.980 1_555 1_555
C17B C13B 1.503 1_555 1_555
H10B C17B 0.979 1_555 1_555
H11B C17B 0.980 1_555 1_555
H12B C17B 0.981 1_555 1_555
C10 C10B 1.458 1_555 1_555
C11 C12 1.513 1_555 1_555
C13 C14 1.469 1_555 1_555
C14 C15 1.409 1_555 1_555
C8B C9B 1.381 1_555 1_555
C10B C11B 1.408 1_555 1_555
C11B C12B 1.513 1_555 1_555
C13B C14B 1.469 1_555 1_555
C14B C15B 1.409 1_555 1_555
#END
