
#######################################################################
#
#                 Cambridge Crystallographic Data Centre
#                                CCDC
#
#######################################################################
#
# If this CIF has been generated from an entry in the Cambridge
# Structural Database, then it will include bibliographic, chemical,
# crystal, experimental, refinement or atomic coordinate data resulting
# from the CCDC's data processing and validation procedures.
#
#######################################################################

data_CSD_CIF_GICWUK
_audit_creation_date 1989-05-23
_audit_creation_method CSD-ConQuest-V1
_database_code_CSD GICWUK
_chemical_formula_sum 'C32 H26'
_chemical_formula_moiety
;
C32 H26
;
_journal_coeditor_code "IUCr AN0094"
_journal_coden_Cambridge 591
_journal_volume 44
_journal_year 1988
_journal_page_first 1011
_journal_name_full 'Acta Crystallogr.,Sect.C:Cryst.Struct.Commun. '
loop_
_publ_author_name
"S.Seth"
"H.Sur"
"S.Chakraborty"
_chemical_name_systematic
;
7,14-Di-n-propylacenaphtho(1,2-k)fluoranthene
;
_cell_volume   2186.249
_exptl_crystal_colour 'yellow'
_exptl_crystal_density_diffrn 1.247
_diffrn_ambient_temperature ?
_diffrn_special_details
;
The study was carried out at room temperature,in the range 283-303K

;
#These two values have been output from a single CSD field.
_refine_ls_R_factor_gt 0.045
_refine_ls_wR_factor_gt 0.045
_symmetry_cell_setting monoclinic
_symmetry_space_group_name_H-M 'C 2/c'
_symmetry_Int_Tables_number 15
loop_
_symmetry_equiv_pos_site_id
_symmetry_equiv_pos_as_xyz
1 x,y,z
2 1/2+x,1/2+y,z
3 -x,y,1/2-z
4 1/2-x,1/2+y,1/2-z
5 -x,-y,-z
6 -1/2-x,-1/2-y,-z
7 x,-y,-1/2+z
8 -1/2+x,-1/2-y,-1/2+z
_cell_length_a 18.727(3)
_cell_length_b 5.149(2)
_cell_length_c 24.078(4)
_cell_angle_alpha 90
_cell_angle_beta 109.67(1)
_cell_angle_gamma 90
_cell_formula_units_Z 4
loop_
_atom_type_symbol
_atom_type_radius_bond
C 0.68
H 0.23
loop_
_atom_site_label
_atom_site_type_symbol
_atom_site_fract_x
_atom_site_fract_y
_atom_site_fract_z
C1 C 0.1312(2) 0.7447(7) -0.1541(1)
C2 C 0.1123(1) 0.8732(5) -0.1034(1)
C3 C 0.0458(1) 0.7388(5) -0.0917(1)
C4 C 0.0227(1) 0.8715(4) -0.0447(1)
C5 C 0.0537(1) 0.8019(4) 0.0147(1)
C6 C 0.1110(1) 0.6023(4) 0.0441(1)
C7 C 0.1542(1) 0.4232(5) 0.0268(1)
C8 C 0.2017(1) 0.2520(5) 0.0694(1)
C9 C 0.2076(1) 0.2607(5) 0.1278(1)
C10 C 0.1663(1) 0.4472(5) 0.1477(1)
C11 C 0.1665(1) 0.4806(5) 0.2063(1)
C12 C 0.1216(1) 0.6663(5) 0.2177(1)
C13 C 0.0729(1) 0.8322(5) 0.1736(1)
C14 C 0.0721(1) 0.8046(4) 0.1161(1)
C15 C -0.0305(1) 1.0724(4) -0.0586(1)
C16 C 0.1192(1) 0.6120(4) 0.1048(1)
H1 H 0.08600 0.77500 -0.18800
H2 H 0.14000 0.56100 -0.14800
H3 H 0.17400 0.82000 -0.16000
H4 H 0.10000 1.05500 -0.11300
H5 H 0.15600 0.87300 -0.06800
H6 H 0.06000 0.56100 -0.08000
H7 H 0.00400 0.73000 -0.12800
H8 H 0.15300 0.42000 -0.01400
H9 H 0.23200 0.12300 0.05700
H10 H 0.24000 0.13800 0.15600
H11 H 0.20000 0.37300 0.23800
H12 H 0.12400 0.68800 0.25800
H13 H 0.04100 0.96100 0.18300
C15D C 0.0305(1) 0.9276(4) 0.0586(1)
C5D C -0.0537(1) 1.1981(4) -0.0147(1)
C14D C -0.0721(1) 1.1954(4) -0.1161(1)
C4D C -0.0227(1) 1.1285(4) 0.0447(1)
C6D C -0.1110(1) 1.3977(4) -0.0441(1)
C13D C -0.0729(1) 1.1678(5) -0.1736(1)
C16D C -0.1192(1) 1.3880(4) -0.1048(1)
C3D C -0.0458(1) 1.2612(5) 0.0917(1)
C7D C -0.1542(1) 1.5768(5) -0.0268(1)
C12D C -0.1216(1) 1.3337(5) -0.2177(1)
H13D H -0.04100 1.03900 -0.18300
C10D C -0.1663(1) 1.5528(5) -0.1477(1)
C2D C -0.1123(1) 1.1268(5) 0.1034(1)
H6D H -0.06000 1.43900 0.08000
H7D H -0.00400 1.27000 0.12800
C8D C -0.2017(1) 1.7480(5) -0.0694(1)
H8D H -0.15300 1.58000 0.01400
C11D C -0.1665(1) 1.5194(5) -0.2063(1)
H12D H -0.12400 1.31200 -0.25800
C9D C -0.2076(1) 1.7393(5) -0.1278(1)
C1D C -0.1312(2) 1.2553(7) 0.1541(1)
H4D H -0.10000 0.94500 0.11300
H5D H -0.15600 1.12700 0.06800
H9D H -0.23200 1.87700 -0.05700
H11D H -0.20000 1.62700 -0.23800
H10D H -0.24000 1.86200 -0.15600
H1D H -0.08600 1.22500 0.18800
H2D H -0.14000 1.43900 0.14800
H3D H -0.17400 1.18000 0.16000
loop_
_geom_bond_atom_site_label_1
_geom_bond_atom_site_label_2
_geom_bond_distance
_geom_bond_site_symmetry_1
_geom_bond_site_symmetry_2
C1 C2 1.531 1_555 1_555
C2 C3 1.531 1_555 1_555
C3 C4 1.505 1_555 1_555
C4 C5 1.397 1_555 1_555
C5 C6 1.482 1_555 1_555
C6 C7 1.380 1_555 1_555
C7 C8 1.416 1_555 1_555
C8 C9 1.374 1_555 1_555
C9 C10 1.414 1_555 1_555
C10 C11 1.420 1_555 1_555
C11 C12 1.361 1_555 1_555
C12 C13 1.427 1_555 1_555
C13 C14 1.387 1_555 1_555
C14 C16 1.413 1_555 1_555
C15 C4 1.396 1_555 1_555
C16 C6 1.418 1_555 1_555
H1 C1 0.971 1_555 1_555
H2 C1 0.963 1_555 1_555
H3 C1 0.943 1_555 1_555
H4 C2 0.973 1_555 1_555
H5 C2 0.963 1_555 1_555
H6 C3 0.968 1_555 1_555
H7 C3 0.958 1_555 1_555
H8 C7 0.975 1_555 1_555
H9 C8 0.983 1_555 1_555
H10 C9 0.975 1_555 1_555
H11 C11 0.980 1_555 1_555
H12 C12 0.963 1_555 1_555
H13 C13 0.969 1_555 1_555
C15D C5 1.426 1_555 1_555
C5D C15 1.426 1_555 1_555
C14D C15 1.483 1_555 1_555
C4D C15D 1.396 1_555 1_555
C6D C5D 1.482 1_555 1_555
C13D C14D 1.387 1_555 1_555
C16D C14D 1.413 1_555 1_555
C3D C4D 1.505 1_555 1_555
C7D C6D 1.380 1_555 1_555
C12D C13D 1.427 1_555 1_555
H13D C13D 0.969 1_555 1_555
C10D C16D 1.397 1_555 1_555
C2D C3D 1.531 1_555 1_555
H6D C3D 0.968 1_555 1_555
H7D C3D 0.958 1_555 1_555
C8D C7D 1.416 1_555 1_555
H8D C7D 0.975 1_555 1_555
C11D C12D 1.361 1_555 1_555
H12D C12D 0.963 1_555 1_555
C9D C10D 1.414 1_555 1_555
C1D C2D 1.531 1_555 1_555
H4D C2D 0.973 1_555 1_555
H5D C2D 0.963 1_555 1_555
H9D C8D 0.983 1_555 1_555
H11D C11D 0.980 1_555 1_555
H10D C9D 0.975 1_555 1_555
H1D C1D 0.971 1_555 1_555
H2D C1D 0.963 1_555 1_555
H3D C1D 0.943 1_555 1_555
C10 C16 1.397 1_555 1_555
C14 C15D 1.483 1_555 1_555
C5D C4D 1.397 1_555 1_555
C6D C16D 1.418 1_555 1_555
C10D C11D 1.420 1_555 1_555
C8D C9D 1.374 1_555 1_555
#END
