
#######################################################################
#
#                 Cambridge Crystallographic Data Centre
#                                CCDC
#
#######################################################################
#
# If this CIF has been generated from an entry in the Cambridge
# Structural Database, then it will include bibliographic, chemical,
# crystal, experimental, refinement or atomic coordinate data resulting
# from the CCDC's data processing and validation procedures.
#
#######################################################################

data_CSD_CIF_GUQZUP01
_audit_creation_date 2015-09-24
_audit_creation_method CSD-ConQuest-V1
_database_code_CSD GUQZUP01
_database_code_depnum_ccdc_archive 'CCDC 1426977'
_chemical_formula_sum 'C48 H24'
_chemical_formula_moiety
;
C48 H24
;
_journal_coden_Cambridge 4
_journal_volume 136
_journal_year 2014
_journal_page_first 15749
_journal_name_full 'J.Am.Chem.Soc. '
loop_
_publ_author_name
"A.M.Hiszpanski"
"R.M.Baur"
"Bumjung Kim"
"N.J.Tremblay"
"C.Nuckolls"
"A.R.Woll"
"Yueh-Lin Loo"
_chemical_name_systematic
;
trinaphtho[1,2,3,4-fgh:1',2',3',4'-pqr:1'',2'',3'',4''-za_1_b_1_]trinaphthylen
e
;
_cell_volume   2911.999
_exptl_crystal_colour 'orange'
_exptl_crystal_density_diffrn 1.37
_exptl_special_details
;
orthorhombic polymorph

;
_exptl_crystal_description 'BLOCK'
_diffrn_ambient_temperature 125
#These two values have been output from a single CSD field.
_refine_ls_R_factor_gt 0.0618
_refine_ls_wR_factor_gt 0.0618
_symmetry_cell_setting orthorhombic
_symmetry_space_group_name_H-M 'P b c n'
_symmetry_Int_Tables_number 60
loop_
_symmetry_equiv_pos_site_id
_symmetry_equiv_pos_as_xyz
1 x,y,z
2 1/2-x,1/2-y,1/2+z
3 -x,y,1/2-z
4 1/2+x,1/2-y,-z
5 -x,-y,-z
6 -1/2+x,-1/2+y,-1/2-z
7 x,-y,-1/2+z
8 -1/2-x,-1/2+y,z
_cell_length_a 18.731(2)
_cell_length_b 8.154(1)
_cell_length_c 19.066(2)
_cell_angle_alpha 90
_cell_angle_beta 90
_cell_angle_gamma 90
_cell_formula_units_Z 4
loop_
_atom_type_symbol
_atom_type_radius_bond
C 0.68
H 0.23
loop_
_atom_site_label
_atom_site_type_symbol
_atom_site_fract_x
_atom_site_fract_y
_atom_site_fract_z
C1 C 0.02936(12) -0.1256(3) 0.16872(12)
H1 H 0.05550 -0.20670 0.19360
C2 C 0.05524(12) 0.0310(3) 0.16385(11)
H2 H 0.09970 0.05670 0.18510
C3 C 0.01743(11) 0.1552(3) 0.12804(10)
C4 C 0.0464(1) 0.3177(3) 0.1183(1)
C5 C 0.02314(10) 0.4086(3) 0.06045(10)
C6 C 0.06435(10) 0.5458(2) 0.0361(1)
C7 C 0.04146(10) 0.6367(2) -0.02462(10)
C8 C 0.08189(11) 0.7688(3) -0.0489(1)
C9 C 0.04754(11) 0.8872(3) -0.09427(10)
C10 C 0.07240(12) 1.0499(3) -0.10036(11)
H3 H 0.11600 1.07950 -0.07830
C11 C 0.03553(12) 1.1660(3) -0.13701(12)
H4 H 0.05400 1.27420 -0.14100
C12 C 0.10530(12) 0.3442(3) 0.23577(11)
H5 H 0.07770 0.25500 0.25280
C13 C 0.09862(11) 0.3914(3) 0.16480(11)
C14 C 0.13897(10) 0.5278(3) 0.14088(11)
C15 C 0.12715(10) 0.5894(2) 0.07063(10)
C16 C 0.17816(11) 0.6899(2) 0.03341(10)
C17 C 0.15610(11) 0.7789(2) -0.02692(11)
C18 C 0.20843(11) 0.8566(3) -0.06830(11)
H6 H 0.19410 0.91530 -0.10900
C19 C 0.15065(13) 0.4240(3) 0.28058(11)
H7 H 0.15500 0.38800 0.32780
C20 C 0.19037(12) 0.5577(3) 0.25722(11)
H8 H 0.22170 0.61280 0.28850
C21 C 0.18424(11) 0.6098(3) 0.18904(11)
H9 H 0.21080 0.70240 0.17380
C22 C 0.25198(11) 0.6833(3) 0.04887(10)
H10 H 0.26770 0.62270 0.08850
C23 C 0.30139(12) 0.7621(3) 0.00801(11)
H11 H 0.35060 0.75730 0.02000
C24 C 0.27964(11) 0.8497(3) -0.05118(11)
H12 H 0.31390 0.90420 -0.07950
C1D C -0.02936(12) 1.1256(3) -0.16872(12)
H1D H -0.05550 1.20670 -0.19360
C2D C -0.05524(12) 0.9690(3) -0.16385(11)
H2D H -0.09970 0.94330 -0.18510
C3D C -0.01743(11) 0.8448(3) -0.12804(10)
C4D C -0.0464(1) 0.6823(3) -0.1183(1)
C5D C -0.02314(10) 0.5914(3) -0.06045(10)
C6D C -0.06435(10) 0.4542(2) -0.0361(1)
C7D C -0.04146(10) 0.3633(2) 0.02462(10)
C8D C -0.08189(11) 0.2312(3) 0.0489(1)
C9D C -0.04754(11) 0.1128(3) 0.09427(10)
C10D C -0.07240(12) -0.0499(3) 0.10036(11)
H3D H -0.11600 -0.07950 0.07830
C11D C -0.03553(12) -0.1660(3) 0.13701(12)
H4D H -0.05400 -0.27420 0.14100
C12D C -0.10530(12) 0.6558(3) -0.23577(11)
H5D H -0.07770 0.74500 -0.25280
C13D C -0.09862(11) 0.6086(3) -0.16480(11)
C14D C -0.13897(10) 0.4722(3) -0.14088(11)
C15D C -0.12715(10) 0.4106(2) -0.07063(10)
C16D C -0.17816(11) 0.3101(2) -0.03341(10)
C17D C -0.15610(11) 0.2211(2) 0.02692(11)
C18D C -0.20843(11) 0.1434(3) 0.06830(11)
H6D H -0.19410 0.08470 0.10900
C19D C -0.15065(13) 0.5760(3) -0.28058(11)
H7D H -0.15500 0.61200 -0.32780
C20D C -0.19037(12) 0.4423(3) -0.25722(11)
H8D H -0.22170 0.38720 -0.28850
C21D C -0.18424(11) 0.3902(3) -0.18904(11)
H9D H -0.21080 0.29760 -0.17380
C22D C -0.25198(11) 0.3167(3) -0.04887(10)
H10D H -0.26770 0.37730 -0.08850
C23D C -0.30139(12) 0.2379(3) -0.00801(11)
H11D H -0.35060 0.24270 -0.02000
C24D C -0.27964(11) 0.1503(3) 0.05118(11)
H12D H -0.31390 0.09580 0.07950
loop_
_geom_bond_atom_site_label_1
_geom_bond_atom_site_label_2
_geom_bond_distance
_geom_bond_site_symmetry_1
_geom_bond_site_symmetry_2
C1 H1 0.950 1_555 1_555
C2 C1 1.369 1_555 1_555
H2 C2 0.950 1_555 1_555
C3 C2 1.412 1_555 1_555
C4 C3 1.444 1_555 1_555
C5 C4 1.398 1_555 1_555
C6 C5 1.436 1_555 1_555
C7 C6 1.440 1_555 1_555
C8 C7 1.396 1_555 1_555
C9 C8 1.447 1_555 1_555
C10 C9 1.411 1_555 1_555
H3 C10 0.950 1_555 1_555
C11 C10 1.364 1_555 1_555
H4 C11 0.951 1_555 1_555
C12 H5 0.950 1_555 1_555
C13 C4 1.450 1_555 1_555
C14 C13 1.420 1_555 1_555
C15 C6 1.394 1_555 1_555
C16 C15 1.445 1_555 1_555
C17 C8 1.454 1_555 1_555
C18 C17 1.409 1_555 1_555
H6 C18 0.950 1_555 1_555
C19 C12 1.369 1_555 1_555
H7 C19 0.950 1_555 1_555
C20 C19 1.393 1_555 1_555
H8 C20 0.950 1_555 1_555
C21 C14 1.417 1_555 1_555
H9 C21 0.950 1_555 1_555
C22 C16 1.415 1_555 1_555
H10 C22 0.950 1_555 1_555
C23 C22 1.370 1_555 1_555
H11 C23 0.950 1_555 1_555
C24 C18 1.374 1_555 1_555
H12 C24 0.949 1_555 1_555
C1D C11 1.397 1_555 1_555
H1D C1D 0.950 1_555 1_555
C2D C1D 1.369 1_555 1_555
H2D C2D 0.950 1_555 1_555
C3D C9 1.420 1_555 1_555
C4D C3D 1.444 1_555 1_555
C5D C7 1.438 1_555 1_555
C6D C5D 1.436 1_555 1_555
C7D C5 1.438 1_555 1_555
C8D C7D 1.396 1_555 1_555
C9D C3 1.420 1_555 1_555
C10D C9D 1.411 1_555 1_555
H3D C10D 0.950 1_555 1_555
C11D C1 1.397 1_555 1_555
H4D C11D 0.951 1_555 1_555
C12D H5D 0.950 1_555 1_555
C13D C4D 1.450 1_555 1_555
C14D C13D 1.420 1_555 1_555
C15D C6D 1.394 1_555 1_555
C16D C15D 1.445 1_555 1_555
C17D C8D 1.454 1_555 1_555
C18D C17D 1.409 1_555 1_555
H6D C18D 0.950 1_555 1_555
C19D C12D 1.369 1_555 1_555
H7D C19D 0.950 1_555 1_555
C20D C19D 1.393 1_555 1_555
H8D C20D 0.950 1_555 1_555
C21D C14D 1.417 1_555 1_555
H9D C21D 0.950 1_555 1_555
C22D C16D 1.415 1_555 1_555
H10D C22D 0.950 1_555 1_555
C23D C22D 1.370 1_555 1_555
H11D C23D 0.950 1_555 1_555
C24D C18D 1.374 1_555 1_555
H12D C24D 0.949 1_555 1_555
C12 C13 1.412 1_555 1_555
C14 C15 1.448 1_555 1_555
C16 C17 1.421 1_555 1_555
C20 C21 1.372 1_555 1_555
C23 C24 1.396 1_555 1_555
C2D C3D 1.412 1_555 1_555
C4D C5D 1.398 1_555 1_555
C6D C7D 1.440 1_555 1_555
C8D C9D 1.447 1_555 1_555
C10D C11D 1.364 1_555 1_555
C12D C13D 1.412 1_555 1_555
C14D C15D 1.448 1_555 1_555
C16D C17D 1.421 1_555 1_555
C20D C21D 1.372 1_555 1_555
C23D C24D 1.396 1_555 1_555
#END
