
#######################################################################
#
#                 Cambridge Crystallographic Data Centre
#                                CCDC
#
#######################################################################
#
# If this CIF has been generated from an entry in the Cambridge
# Structural Database, then it will include bibliographic, chemical,
# crystal, experimental, refinement or atomic coordinate data resulting
# from the CCDC's data processing and validation procedures.
#
#######################################################################

data_CSD_CIF_HEBGAX
_audit_creation_date 2006-04-25
_audit_creation_method CSD-ConQuest-V1
_database_code_CSD HEBGAX
_database_code_depnum_ccdc_archive 'CCDC 272911'
_chemical_formula_sum 'C27 H20'
_chemical_formula_moiety
;
C27 H20
;
_journal_coden_Cambridge 182
_journal_year 2005
_journal_page_first 5910
_journal_name_full 'Chem.Commun. '
loop_
_publ_author_name
"J.Vicario"
"A.Meetsma"
"B.L.Feringa"
_chemical_name_systematic
;
(R)-9-(2-Methyl-2,3-dihydro-1H-cyclopenta[a]naphthalen-1-ylidene)-9H-fluorene
;
_cell_volume   8138.259
_exptl_crystal_colour 'yellow'
_exptl_crystal_density_diffrn 1.265
_exptl_special_details
;
Cell published as a 32.404(2) b 8.9496(4) c 8.9496(4)

;
_exptl_crystal_description 'needle'
_diffrn_ambient_temperature 100
#These two values have been output from a single CSD field.
_refine_ls_R_factor_gt 0.0412
_refine_ls_wR_factor_gt 0.0412
_symmetry_cell_setting rhombohedral
_symmetry_space_group_name_H-M 'R -3'
_symmetry_Int_Tables_number 148
loop_
_symmetry_equiv_pos_site_id
_symmetry_equiv_pos_as_xyz
1 x,y,z
2 -y,x-y,z
3 -x+y,-x,z
4 1/3+x,2/3+y,2/3+z
5 2/3+x,1/3+y,1/3+z
6 2/3-y,1/3+x-y,1/3+z
7 2/3-x+y,1/3-x,1/3+z
8 1/3-y,2/3+x-y,2/3+z
9 1/3-x+y,2/3-x,2/3+z
10 -x,-y,-z
11 y,-x+y,-z
12 x-y,x,-z
13 -1/3-x,-2/3-y,-2/3-z
14 -2/3-x,-1/3-y,-1/3-z
15 -2/3+y,-1/3-x+y,-1/3-z
16 -2/3+x-y,-1/3+x,-1/3-z
17 -1/3+y,-2/3-x+y,-2/3-z
18 -1/3+x-y,-2/3+x,-2/3-z
_cell_length_a 32.404(2)
_cell_length_b 32.404(2)
_cell_length_c 8.9496(4)
_cell_angle_alpha 90
_cell_angle_beta 90
_cell_angle_gamma 120
_cell_formula_units_Z 18
loop_
_atom_type_symbol
_atom_type_radius_bond
C 0.68
H 0.23
loop_
_atom_site_label
_atom_site_type_symbol
_atom_site_fract_x
_atom_site_fract_y
_atom_site_fract_z
C1 C 0.20874(4) 0.10711(4) 0.30126(13)
C2 C 0.22128(4) 0.12817(4) 0.45327(13)
C3 C 0.26413(5) 0.14802(4) 0.53181(14)
C4 C 0.26732(5) 0.16898(5) 0.66995(14)
C5 C 0.22824(5) 0.16985(5) 0.73097(15)
C6 C 0.18600(5) 0.15171(5) 0.65210(14)
C7 C 0.18310(5) 0.13200(4) 0.51154(14)
C8 C 0.14532(5) 0.11449(4) 0.39922(14)
C9 C 0.10008(5) 0.10897(5) 0.40750(16)
C10 C 0.06966(5) 0.08956(5) 0.28628(17)
C11 C 0.08456(5) 0.07583(5) 0.15932(17)
C12 C 0.12983(5) 0.08128(5) 0.15008(15)
C13 C 0.16097(4) 0.10111(4) 0.27056(14)
C14 C 0.23502(4) 0.09612(4) 0.20869(13)
C15 C 0.27711(4) 0.09162(4) 0.24212(13)
C16 C 0.28807(4) 0.07243(4) 0.37027(13)
C17 C 0.25690(5) 0.05151(4) 0.49344(14)
C18 C 0.26942(5) 0.03293(5) 0.61083(14)
C19 C 0.31367(5) 0.03456(5) 0.61280(15)
C20 C 0.34400(5) 0.05332(4) 0.49451(15)
C21 C 0.33189(4) 0.07196(4) 0.36877(14)
C22 C 0.36171(4) 0.08855(4) 0.24081(15)
C23 C 0.34868(5) 0.10336(5) 0.11497(14)
C24 C 0.30569(4) 0.10402(4) 0.11591(13)
C25 C 0.28311(5) 0.11649(5) -0.01038(14)
C26 C 0.23029(5) 0.09286(5) 0.03879(14)
C27 C 0.20252(5) 0.04157(5) -0.01889(15)
H1 H 0.29236 0.14775 0.48976
H2 H 0.29772 0.18396 0.72454
H3 H 0.23080 0.18442 0.83115
H4 H 0.15883 0.15383 0.69340
H5 H 0.09008 0.11777 0.50074
H6 H 0.03849 0.08546 0.28941
H7 H 0.06298 0.06240 0.07419
H8 H 0.13869 0.07071 0.05893
H9 H 0.22616 0.05043 0.49179
H10 H 0.24686 0.01822 0.69218
H11 H 0.32236 0.02233 0.69746
H12 H 0.37483 0.05391 0.49187
H13 H 0.39156 0.08765 0.24324
H14 H 0.36826 0.11247 0.02419
H15 H 0.29681 0.15107 -0.01616
H16 H 0.28703 0.10480 -0.10972
H17 H 0.21469 0.11044 0.00166
H18 H 0.22066 0.02471 0.00435
H19 H 0.17001 0.02332 0.02573
H20 H 0.19967 0.04190 -0.12996
loop_
_geom_bond_atom_site_label_1
_geom_bond_atom_site_label_2
_geom_bond_distance
_geom_bond_site_symmetry_1
_geom_bond_site_symmetry_2
C1 C2 1.485 1_555 1_555
C2 C3 1.394 1_555 1_555
C3 C4 1.389 1_555 1_555
C4 C5 1.392 1_555 1_555
C5 C6 1.383 1_555 1_555
C6 C7 1.393 1_555 1_555
C7 C2 1.404 1_555 1_555
C8 C7 1.462 1_555 1_555
C9 C8 1.387 1_555 1_555
C10 C9 1.387 1_555 1_555
C11 C10 1.392 1_555 1_555
C12 C11 1.390 1_555 1_555
C13 C1 1.486 1_555 1_555
C14 C1 1.357 1_555 1_555
C15 C14 1.473 1_555 1_555
C16 C15 1.431 1_555 1_555
C17 C16 1.418 1_555 1_555
C18 C17 1.369 1_555 1_555
C19 C18 1.408 1_555 1_555
C20 C19 1.363 1_555 1_555
C21 C16 1.428 1_555 1_555
C22 C21 1.419 1_555 1_555
C23 C22 1.371 1_555 1_555
C24 C15 1.387 1_555 1_555
C25 C24 1.507 1_555 1_555
C26 C14 1.527 1_555 1_555
C27 C26 1.531 1_555 1_555
H1 C3 0.993 1_555 1_555
H2 C4 0.983 1_555 1_555
H3 C5 0.997 1_555 1_555
H4 C6 0.988 1_555 1_555
H5 C9 0.987 1_555 1_555
H6 C10 0.951 1_555 1_555
H7 C11 0.977 1_555 1_555
H8 C12 0.982 1_555 1_555
H9 C17 0.979 1_555 1_555
H10 C18 0.971 1_555 1_555
H11 C19 0.960 1_555 1_555
H12 C20 0.990 1_555 1_555
H13 C22 0.982 1_555 1_555
H14 C23 0.981 1_555 1_555
H15 C25 0.979 1_555 1_555
H16 C25 0.999 1_555 1_555
H17 C26 0.989 1_555 1_555
H18 C27 1.004 1_555 1_555
H19 C27 0.998 1_555 1_555
H20 C27 0.999 1_555 1_555
C8 C13 1.411 1_555 1_555
C12 C13 1.395 1_555 1_555
C20 C21 1.422 1_555 1_555
C23 C24 1.404 1_555 1_555
C25 C26 1.549 1_555 1_555
#END
