
#######################################################################
#
#                 Cambridge Crystallographic Data Centre
#                                CCDC
#
#######################################################################
#
# If this CIF has been generated from an entry in the Cambridge
# Structural Database, then it will include bibliographic, chemical,
# crystal, experimental, refinement or atomic coordinate data resulting
# from the CCDC's data processing and validation procedures.
#
#######################################################################

data_CSD_CIF_HEXHEL05
_audit_creation_date 2017-06-21
_audit_creation_method CSD-ConQuest-V1
_database_code_CSD HEXHEL05
_database_code_depnum_ccdc_archive 'CCDC 1535631'
_chemical_formula_sum 'C26 H16'
_chemical_formula_moiety
;
C26 H16
;
_journal_coden_Cambridge 1350
_journal_volume 19
_journal_year 2017
_journal_page_first 3626
_journal_name_full 'CrystEngComm '
loop_
_publ_author_name
"Y.Yoshida"
"Y.Nakamura"
"H.Kishida"
"H.Hayama"
"Y.Nakano"
"H.Yamochi"
"G.Saito"
_chemical_name_systematic
;
hexahelicene
;
_chemical_name_common
;
(m)-[6]helicene
;
_cell_volume   1650.294
_exptl_crystal_colour 'colorless'
_exptl_crystal_density_diffrn 1.322
_exptl_crystal_description 'plate'
_diffrn_ambient_temperature 100
#These two values have been output from a single CSD field.
_refine_ls_R_factor_gt 0.0294
_refine_ls_wR_factor_gt 0.0294
_symmetry_cell_setting orthorhombic
_symmetry_space_group_name_H-M 'P 21 21 21'
_symmetry_Int_Tables_number 19
loop_
_symmetry_equiv_pos_site_id
_symmetry_equiv_pos_as_xyz
1 x,y,z
2 1/2+x,1/2-y,-z
3 -x,1/2+y,1/2-z
4 1/2-x,-y,1/2+z
_cell_length_a 7.3079(3)
_cell_length_b 12.9491(6)
_cell_length_c 17.4393(8)
_cell_angle_alpha 90
_cell_angle_beta 90
_cell_angle_gamma 90
_cell_formula_units_Z 4
loop_
_atom_type_symbol
_atom_type_radius_bond
C 0.68
H 0.23
loop_
_atom_site_label
_atom_site_type_symbol
_atom_site_fract_x
_atom_site_fract_y
_atom_site_fract_z
C1 C 0.0672(2) 0.79947(10) 0.07419(8)
H1 H 0.08580 0.86820 0.06100
C2 C 0.21502(18) 0.73101(9) 0.07783(7)
H2 H 0.33300 0.75520 0.06920
C3 C -0.10470(19) 0.7644(1) 0.09025(8)
H3 H -0.20280 0.81010 0.08810
C4 C 0.18771(16) 0.62847(9) 0.09406(7)
H4 H 0.28760 0.58400 0.09490
C5 C -0.13647(17) 0.66056(10) 0.10998(7)
C6 C 0.01137(16) 0.58901(10) 0.10945(7)
C7 C -0.31231(19) 0.62747(12) 0.13591(9)
H5 H -0.41270 0.67100 0.13070
C8 C -0.33364(18) 0.53394(14) 0.16780(8)
H6 H -0.44640 0.51630 0.18870
C9 C -0.18704(18) 0.46075(12) 0.17039(7)
C10 C -0.02246(17) 0.48264(10) 0.13140(7)
C11 C -0.2028(2) 0.36844(12) 0.21371(8)
H7 H -0.31320 0.35230 0.23740
C12 C -0.0589(2) 0.30406(12) 0.22078(8)
H8 H -0.06500 0.24930 0.25520
C13 C 0.1021(2) 0.31867(10) 0.17629(8)
C14 C 0.10998(17) 0.40055(9) 0.12251(7)
C15 C 0.2554(2) 0.25211(11) 0.18471(9)
H9 H 0.25220 0.19960 0.22100
C16 C 0.4058(2) 0.26427(10) 0.14054(9)
H10 H 0.51170 0.22750 0.15190
C17 C 0.40404(18) 0.3325(1) 0.07704(8)
C18 C 0.24775(17) 0.39463(9) 0.06295(7)
C19 C 0.5538(2) 0.33491(11) 0.02494(9)
H11 H 0.66120 0.30020 0.03740
C20 C 0.54367(19) 0.38632(11) -0.04206(9)
H12 H 0.64650 0.39120 -0.07330
C21 C 0.37534(18) 0.43352(10) -0.06551(8)
C22 C 0.22570(17) 0.43774(9) -0.01360(7)
C23 C 0.35386(19) 0.47116(11) -0.14101(8)
H13 H 0.45330 0.47020 -0.17430
C24 C 0.1908(2) 0.50875(11) -0.16605(8)
H14 H 0.17980 0.53430 -0.21570
C25 C 0.03908(19) 0.50886(10) -0.11658(7)
H15 H -0.07370 0.53230 -0.13410
C26 C 0.05656(17) 0.47448(9) -0.04242(7)
H16 H -0.04510 0.47530 -0.01040
loop_
_geom_bond_atom_site_label_1
_geom_bond_atom_site_label_2
_geom_bond_distance
_geom_bond_site_symmetry_1
_geom_bond_site_symmetry_2
C1 H1 0.929 1_555 1_555
C2 C1 1.399 1_555 1_555
H2 C2 0.930 1_555 1_555
C3 C1 1.365 1_555 1_555
H3 C3 0.930 1_555 1_555
C4 C2 1.372 1_555 1_555
H4 C4 0.930 1_555 1_555
C5 C3 1.407 1_555 1_555
C6 C4 1.412 1_555 1_555
C7 C5 1.428 1_555 1_555
H5 C7 0.930 1_555 1_555
C8 C7 1.342 1_555 1_555
H6 C8 0.930 1_555 1_555
C9 C8 1.431 1_555 1_555
C10 C6 1.451 1_555 1_555
C11 C9 1.419 1_555 1_555
H7 C11 0.930 1_555 1_555
C12 C11 1.348 1_555 1_555
H8 C12 0.930 1_555 1_555
C13 C12 1.422 1_555 1_555
C14 C10 1.446 1_555 1_555
C15 C13 1.421 1_555 1_555
H9 C15 0.929 1_555 1_555
C16 C15 1.351 1_555 1_555
H10 C16 0.930 1_555 1_555
C17 C16 1.417 1_555 1_555
C18 C14 1.449 1_555 1_555
C19 C17 1.423 1_555 1_555
H11 C19 0.930 1_555 1_555
C20 C19 1.347 1_555 1_555
H12 C20 0.930 1_555 1_555
C21 C20 1.433 1_555 1_555
C22 C18 1.456 1_555 1_555
C23 C21 1.413 1_555 1_555
H13 C23 0.930 1_555 1_555
C24 C23 1.359 1_555 1_555
H14 C24 0.930 1_555 1_555
C25 C24 1.405 1_555 1_555
H15 C25 0.930 1_555 1_555
C26 C22 1.417 1_555 1_555
H16 C26 0.929 1_555 1_555
C5 C6 1.423 1_555 1_555
C9 C10 1.410 1_555 1_555
C13 C14 1.417 1_555 1_555
C17 C18 1.419 1_555 1_555
C21 C22 1.421 1_555 1_555
C25 C26 1.374 1_555 1_555
#END
