
#######################################################################
#
#                 Cambridge Crystallographic Data Centre
#                                CCDC
#
#######################################################################
#
# If this CIF has been generated from an entry in the Cambridge
# Structural Database, then it will include bibliographic, chemical,
# crystal, experimental, refinement or atomic coordinate data resulting
# from the CCDC's data processing and validation procedures.
#
#######################################################################

data_CSD_CIF_HEXHEL03
_audit_creation_date 2017-01-12
_audit_creation_method CSD-ConQuest-V1
_database_code_CSD HEXHEL03
_database_code_depnum_ccdc_archive 'CCDC 1514734'
_chemical_formula_sum 'C26 H16'
_chemical_formula_moiety
;
C26 H16
;
_journal_coden_Cambridge 1326
_journal_volume 19
_journal_year 2017
_journal_page_first 2900
_journal_name_full 'Phys.Chem.Chem.Phys.(PCCP) '
loop_
_publ_author_name
"M.Dracinsky"
"Jan Storch"
"V.Cirkva"
"I.Cisarova"
"J.Sykora"
_chemical_name_systematic
;
hexahelicene
;
_chemical_name_common
;
[6]helicene
;
_cell_volume   1667.376
_exptl_crystal_colour 'yellow'
_exptl_crystal_density_diffrn 1.308
_exptl_crystal_description 'block'
_exptl_crystal_preparation 'chloroform'
_diffrn_ambient_temperature 150
#These two values have been output from a single CSD field.
_refine_ls_R_factor_gt 0.0345
_refine_ls_wR_factor_gt 0.0345
_symmetry_cell_setting orthorhombic
_symmetry_space_group_name_H-M 'P 21 21 21'
_symmetry_Int_Tables_number 19
loop_
_symmetry_equiv_pos_site_id
_symmetry_equiv_pos_as_xyz
1 x,y,z
2 1/2+x,1/2-y,-z
3 -x,1/2+y,1/2-z
4 1/2-x,-y,1/2+z
_cell_length_a 7.3280(3)
_cell_length_b 13.0400(6)
_cell_length_c 17.4490(5)
_cell_angle_alpha 90
_cell_angle_beta 90
_cell_angle_gamma 90
_cell_formula_units_Z 4
loop_
_atom_type_symbol
_atom_type_radius_bond
C 0.68
H 0.23
loop_
_atom_site_label
_atom_site_type_symbol
_atom_site_fract_x
_atom_site_fract_y
_atom_site_fract_z
C1 C 0.5578(3) 0.47487(18) -0.04239(13)
C2 C 0.5401(4) 0.50999(19) -0.11638(13)
C3 C 0.6919(5) 0.5108(2) -0.16583(15)
C4 C 0.8549(4) 0.4741(2) -0.14083(16)
C5 C 0.8762(3) 0.43592(19) -0.06593(15)
C6 C 1.0450(4) 0.3887(3) -0.0426(2)
C7 C 1.0544(4) 0.3358(2) 0.0237(2)
C8 C 0.9054(4) 0.33282(19) 0.07571(16)
C9 C 0.9070(5) 0.2637(2) 0.1393(2)
C10 C 0.7575(6) 0.2519(2) 0.18304(18)
C11 C 0.6053(4) 0.3180(2) 0.17528(14)
C12 C 0.4434(5) 0.3030(3) 0.22007(14)
C13 C 0.3002(5) 0.3665(3) 0.21352(15)
C14 C 0.3155(4) 0.4589(2) 0.17058(14)
C15 C 0.1693(4) 0.5319(3) 0.16908(16)
C16 C 0.1894(4) 0.6247(3) 0.13636(18)
C17 C 0.3646(3) 0.6573(2) 0.11046(13)
C18 C 0.3950(4) 0.7606(2) 0.09073(16)
C19 C 0.5666(4) 0.7958(2) 0.07469(15)
C20 C 0.7148(4) 0.72816(19) 0.07822(14)
C21 C 0.6884(3) 0.62606(17) 0.09465(12)
C22 C 0.5122(3) 0.58674(18) 0.10984(12)
C23 C 0.4798(3) 0.48055(19) 0.13146(12)
C24 C 0.6128(3) 0.39968(17) 0.12187(12)
C25 C 0.7501(3) 0.39452(16) 0.06232(13)
C26 C 0.7270(3) 0.43845(17) -0.01410(13)
H1 H 0.453(4) 0.469(2) -0.0105(14)
H2 H 0.419(4) 0.535(2) -0.1355(15)
H3 H 0.673(5) 0.542(3) -0.2174(19)
H4 H 0.969(5) 0.473(3) -0.1742(19)
H5 H 1.152(5) 0.390(3) -0.080(2)
H6 H 1.172(5) 0.297(3) 0.0397(19)
H7 H 1.018(5) 0.225(2) 0.1450(17)
H8 H 0.748(5) 0.197(3) 0.2240(19)
H9 H 0.442(5) 0.239(3) 0.2551(19)
H10 H 0.173(5) 0.352(3) 0.2420(19)
H11 H 0.053(5) 0.508(3) 0.1919(18)
H12 H 0.082(5) 0.681(2) 0.1335(17)
H13 H 0.291(5) 0.810(3) 0.0918(19)
H14 H 0.589(4) 0.870(2) 0.0623(18)
H15 H 0.842(4) 0.755(2) 0.0712(16)
H16 H 0.797(3) 0.5818(19) 0.0975(14)
loop_
_geom_bond_atom_site_label_1
_geom_bond_atom_site_label_2
_geom_bond_distance
_geom_bond_site_symmetry_1
_geom_bond_site_symmetry_2
C1 C2 1.376 1_555 1_555
C2 C3 1.408 1_555 1_555
C3 C4 1.359 1_555 1_555
C4 C5 1.407 1_555 1_555
C5 C6 1.440 1_555 1_555
C6 C7 1.349 1_555 1_555
C7 C8 1.420 1_555 1_555
C8 C9 1.430 1_555 1_555
C9 C10 1.344 1_555 1_555
C10 C11 1.416 1_555 1_555
C11 C12 1.434 1_555 1_555
C12 C13 1.342 1_555 1_555
C13 C14 1.423 1_555 1_555
C14 C15 1.433 1_555 1_555
C15 C16 1.346 1_555 1_555
C16 C17 1.426 1_555 1_555
C17 C18 1.408 1_555 1_555
C18 C19 1.368 1_555 1_555
C19 C20 1.400 1_555 1_555
C20 C21 1.376 1_555 1_555
C21 C22 1.414 1_555 1_555
C22 C17 1.420 1_555 1_555
C23 C14 1.413 1_555 1_555
C24 C11 1.416 1_555 1_555
C25 C8 1.413 1_555 1_555
C26 C1 1.417 1_555 1_555
H1 C1 0.951 1_555 1_555
H2 C2 1.003 1_555 1_555
H3 C3 0.997 1_555 1_555
H4 C4 1.019 1_555 1_555
H5 C6 1.020 1_555 1_555
H6 C7 1.038 1_555 1_555
H7 C9 0.962 1_555 1_555
H8 C10 1.014 1_555 1_555
H9 C12 1.035 1_555 1_555
H10 C13 1.073 1_555 1_555
H11 C15 0.991 1_555 1_555
H12 C16 1.077 1_555 1_555
H13 C18 0.998 1_555 1_555
H14 C19 1.005 1_555 1_555
H15 C20 1.003 1_555 1_555
H16 C21 0.984 1_555 1_555
C5 C26 1.419 1_555 1_555
C22 C23 1.455 1_555 1_555
C23 C24 1.446 1_555 1_555
C24 C25 1.448 1_555 1_555
C25 C26 1.461 1_555 1_555
#END
