
#######################################################################
#
#                 Cambridge Crystallographic Data Centre
#                                CCDC
#
#######################################################################
#
# If this CIF has been generated from an entry in the Cambridge
# Structural Database, then it will include bibliographic, chemical,
# crystal, experimental, refinement or atomic coordinate data resulting
# from the CCDC's data processing and validation procedures.
#
#######################################################################

data_CSD_CIF_HIGNIV01
_audit_creation_date 2007-11-16
_audit_creation_method CSD-ConQuest-V1
_database_code_CSD HIGNIV01
_database_code_depnum_ccdc_archive 'CCDC 642338'
_chemical_formula_sum 'C34 H44'
_chemical_formula_moiety
;
C34 H44
;
_journal_coden_Cambridge 1350
_journal_volume 9
_journal_year 2007
_journal_page_first 644
_journal_name_full 'CrystEngComm '
loop_
_publ_author_name
"C.Kitamura"
"T.Ohara"
"N.Kawatsuki"
"A.Yoneda"
"T.Kobayashi"
"H.Naito"
"T.Komatsu"
"T.Kitamura"
_chemical_name_systematic
;
1,4,7,10-tetrakis(n-Butyl)tetracene
;
_chemical_melting_point 387
_cell_volume    673.354
_exptl_crystal_colour 'yellow'
_exptl_crystal_density_diffrn 1.116
_exptl_special_details
;
Melting point range 387-389K
polymorph B

;
_exptl_crystal_description 'Platelet'
_diffrn_ambient_temperature 223.2
#These two values have been output from a single CSD field.
_refine_ls_R_factor_gt 0.0845
_refine_ls_wR_factor_gt 0.0845
_symmetry_cell_setting triclinic
_symmetry_space_group_name_H-M 'P -1'
_symmetry_Int_Tables_number 2
loop_
_symmetry_equiv_pos_site_id
_symmetry_equiv_pos_as_xyz
1 x,y,z
2 -x,-y,-z
_cell_length_a 5.392(6)
_cell_length_b 8.66(1)
_cell_length_c 15.19(2)
_cell_angle_alpha 101.41(3)
_cell_angle_beta 98.80(4)
_cell_angle_gamma 99.35(6)
_cell_formula_units_Z 1
loop_
_atom_type_symbol
_atom_type_radius_bond
C 0.68
H 0.23
loop_
_atom_site_label
_atom_site_type_symbol
_atom_site_fract_x
_atom_site_fract_y
_atom_site_fract_z
C1 C -0.0891(3) 0.4437(2) 0.2301(1)
C2 C 0.0702(4) 0.5187(3) 0.1830(2)
C3 C 0.2997(4) 0.6336(3) 0.2294(2)
C4 C 0.3716(3) 0.6728(2) 0.3212(1)
C5 C 0.2102(3) 0.5952(2) 0.3752(1)
C6 C -0.0222(3) 0.4805(2) 0.3286(1)
C7 C -0.1754(4) 0.4098(3) 0.3810(2)
C8 C -0.1149(3) 0.4437(2) 0.4769(1)
C9 C 0.2704(4) 0.6288(3) 0.4696(2)
C10 C -0.3317(4) 0.3230(3) 0.1830(2)
C11 C -0.4134(4) 0.3030(3) 0.0801(2)
C12 C -0.6652(4) 0.1829(3) 0.0427(2)
C13 C -0.7603(6) 0.1654(5) -0.0587(2)
C14 C 0.6091(4) 0.7961(3) 0.3708(2)
C15 C 0.7697(4) 0.8725(3) 0.3110(2)
C16 C 1.0007(4) 0.9970(3) 0.3674(2)
C17 C 1.1646(5) 1.0715(4) 0.3075(2)
H1 H 0.031(4) 0.495(3) 0.117(2)
H2 H 0.402(5) 0.680(3) 0.190(2)
H3 H -0.332(5) 0.336(3) 0.354(2)
H4 H 0.432(4) 0.702(3) 0.505(2)
H5 H -0.309(4) 0.214(3) 0.195(2)
H6 H -0.477(4) 0.351(3) 0.212(2)
H7 H -0.279(5) 0.264(3) 0.043(2)
H8 H -0.445(5) 0.416(4) 0.067(2)
H9 H -0.649(4) 0.084(4) 0.057(2)
H10 H -0.793(5) 0.215(3) 0.076(2)
H11 H -0.632(7) 0.122(5) -0.103(3)
H12 H -0.942(6) 0.086(5) -0.082(2)
H13 H -0.788(6) 0.276(5) -0.068(2)
H14 H 0.719(4) 0.741(3) 0.407(2)
H15 H 0.554(4) 0.884(3) 0.413(1)
H16 H 0.833(4) 0.784(3) 0.275(2)
H17 H 0.660(4) 0.922(3) 0.272(2)
H18 H 1.106(5) 0.942(4) 0.410(2)
H19 H 0.935(5) 1.079(4) 0.409(2)
H20 H 1.243(5) 0.992(4) 0.268(2)
H21 H 1.067(5) 1.130(4) 0.269(2)
H22 H 1.290(9) 1.161(6) 0.337(4)
C1A C 0.0891(3) 0.5563(2) 0.7699(1)
C2A C -0.0702(4) 0.4813(3) 0.8170(2)
C3A C -0.2997(4) 0.3664(3) 0.7706(2)
C4A C -0.3716(3) 0.3272(2) 0.6788(1)
C5A C -0.2102(3) 0.4048(2) 0.6248(1)
C6A C 0.0222(3) 0.5195(2) 0.6714(1)
C7A C 0.1754(4) 0.5902(3) 0.6190(2)
C8A C 0.1149(3) 0.5563(2) 0.5231(1)
C9A C -0.2704(4) 0.3712(3) 0.5304(2)
C10A C 0.3317(4) 0.6770(3) 0.8170(2)
C11A C 0.4134(4) 0.6970(3) 0.9199(2)
C12A C 0.6652(4) 0.8171(3) 0.9573(2)
C13A C 0.7603(6) 0.8346(5) 1.0587(2)
C14A C -0.6091(4) 0.2039(3) 0.6292(2)
C15A C -0.7697(4) 0.1275(3) 0.6890(2)
C16A C -1.0007(4) 0.0030(3) 0.6326(2)
C17A C -1.1646(5) -0.0715(4) 0.6925(2)
H1A H -0.031(4) 0.505(3) 0.883(2)
H2A H -0.402(5) 0.320(3) 0.810(2)
H3A H 0.332(5) 0.664(3) 0.646(2)
H4A H -0.432(4) 0.298(3) 0.495(2)
H5A H 0.309(4) 0.786(3) 0.805(2)
H6A H 0.477(4) 0.649(3) 0.788(2)
H7A H 0.279(5) 0.736(3) 0.957(2)
H8A H 0.445(5) 0.584(4) 0.933(2)
H9A H 0.649(4) 0.916(4) 0.943(2)
H10A H 0.793(5) 0.785(3) 0.924(2)
H11A H 0.632(7) 0.878(5) 1.103(3)
H12A H 0.942(6) 0.914(5) 1.082(2)
H13A H 0.788(6) 0.724(5) 1.068(2)
H14A H -0.719(4) 0.259(3) 0.593(2)
H15A H -0.554(4) 0.116(3) 0.587(1)
H16A H -0.833(4) 0.216(3) 0.725(2)
H17A H -0.660(4) 0.078(3) 0.728(2)
H18A H -1.106(5) 0.058(4) 0.590(2)
H19A H -0.935(5) -0.079(4) 0.591(2)
H20A H -1.243(5) 0.008(4) 0.732(2)
H21A H -1.067(5) -0.130(4) 0.731(2)
H22A H -1.290(9) -0.161(6) 0.663(4)
loop_
_geom_bond_atom_site_label_1
_geom_bond_atom_site_label_2
_geom_bond_distance
_geom_bond_site_symmetry_1
_geom_bond_site_symmetry_2
C1 C2 1.365 1_555 1_555
C2 C3 1.440 1_555 1_555
C3 C4 1.347 1_555 1_555
C4 C5 1.459 1_555 1_555
C5 C6 1.450 1_555 1_555
C6 C1 1.442 1_555 1_555
C7 C6 1.386 1_555 1_555
C8 C7 1.403 1_555 1_555
C9 C5 1.381 1_555 1_555
C10 C1 1.513 1_555 1_555
C11 C10 1.525 1_555 1_555
C12 C11 1.523 1_555 1_555
C13 C12 1.516 1_555 1_555
C14 C4 1.513 1_555 1_555
C15 C14 1.518 1_555 1_555
C16 C15 1.523 1_555 1_555
C17 C16 1.523 1_555 1_555
H1 C2 0.965 1_555 1_555
H2 C3 0.974 1_555 1_555
H3 C7 0.951 1_555 1_555
H4 C9 0.996 1_555 1_555
H5 C10 1.019 1_555 1_555
H6 C10 0.996 1_555 1_555
H7 C11 1.042 1_555 1_555
H8 C11 1.071 1_555 1_555
H9 C12 0.938 1_555 1_555
H10 C12 0.960 1_555 1_555
H11 C13 1.095 1_555 1_555
H12 C13 1.066 1_555 1_555
H13 C13 1.026 1_555 1_555
H14 C14 0.989 1_555 1_555
H15 C14 1.009 1_555 1_555
H16 C15 0.990 1_555 1_555
H17 C15 0.980 1_555 1_555
H18 C16 1.032 1_555 1_555
H19 C16 1.001 1_555 1_555
H20 C17 1.011 1_555 1_555
H21 C17 0.993 1_555 1_555
H22 C17 0.926 1_555 1_555
C1A C2A 1.365 1_555 1_555
C2A C3A 1.440 1_555 1_555
C3A C4A 1.347 1_555 1_555
C4A C5A 1.459 1_555 1_555
C5A C6A 1.450 1_555 1_555
C6A C1A 1.442 1_555 1_555
C7A C6A 1.386 1_555 1_555
C8A C8 1.432 1_555 1_555
C9A C8 1.413 1_555 1_555
C10A C1A 1.513 1_555 1_555
C11A C10A 1.525 1_555 1_555
C12A C11A 1.523 1_555 1_555
C13A C12A 1.516 1_555 1_555
C14A C4A 1.513 1_555 1_555
C15A C14A 1.518 1_555 1_555
C16A C15A 1.523 1_555 1_555
C17A C16A 1.523 1_555 1_555
H1A C2A 0.965 1_555 1_555
H2A C3A 0.974 1_555 1_555
H3A C7A 0.951 1_555 1_555
H4A C9A 0.996 1_555 1_555
H5A C10A 1.019 1_555 1_555
H6A C10A 0.996 1_555 1_555
H7A C11A 1.042 1_555 1_555
H8A C11A 1.071 1_555 1_555
H9A C12A 0.938 1_555 1_555
H10A C12A 0.960 1_555 1_555
H11A C13A 1.095 1_555 1_555
H12A C13A 1.066 1_555 1_555
H13A C13A 1.026 1_555 1_555
H14A C14A 0.989 1_555 1_555
H15A C14A 1.009 1_555 1_555
H16A C15A 0.990 1_555 1_555
H17A C15A 0.980 1_555 1_555
H18A C16A 1.032 1_555 1_555
H19A C16A 1.001 1_555 1_555
H20A C17A 1.011 1_555 1_555
H21A C17A 0.993 1_555 1_555
H22A C17A 0.926 1_555 1_555
C9 C8A 1.413 1_555 1_555
C5A C9A 1.381 1_555 1_555
C7A C8A 1.403 1_555 1_555
#END
