
#######################################################################
#
#                 Cambridge Crystallographic Data Centre
#                                CCDC
#
#######################################################################
#
# If this CIF has been generated from an entry in the Cambridge
# Structural Database, then it will include bibliographic, chemical,
# crystal, experimental, refinement or atomic coordinate data resulting
# from the CCDC's data processing and validation procedures.
#
#######################################################################

data_CSD_CIF_HPTHEL01
_audit_creation_date 1976-10-25
_audit_creation_method CSD-ConQuest-V1
_database_code_CSD HPTHEL01
_database_code_depnum_ccdc_archive 'CCDC 1178372'
_chemical_formula_sum 'C30 H18'
_chemical_formula_moiety
;
C30 H18
;
_journal_coden_Cambridge 189
_journal_volume 5
_journal_year 1976
_journal_page_first 247
_journal_name_full 'Cryst.Struct.Commun. '
loop_
_publ_author_name
"T.E.M.van den Hark"
"P.T.Beurskens"
_chemical_name_systematic
;
Heptahelicene
;
_cell_volume   1933.956
_exptl_crystal_density_diffrn 1.3
_exptl_special_details
;
AVERAGE BOND LENGTHS IN PAPER

;
_diffrn_ambient_temperature ?
_diffrn_special_details
;
The study was carried out at room temperature,in the range 283-303K

;
#These two values have been output from a single CSD field.
_refine_ls_R_factor_gt 0.095
_refine_ls_wR_factor_gt 0.095
_symmetry_cell_setting monoclinic
_symmetry_space_group_name_H-M 'P 21/c'
_symmetry_Int_Tables_number 14
loop_
_symmetry_equiv_pos_site_id
_symmetry_equiv_pos_as_xyz
1 x,y,z
2 -x,1/2+y,1/2-z
3 -x,-y,-z
4 x,-1/2-y,-1/2+z
_cell_length_a 8.112(7)
_cell_length_b 11.504(13)
_cell_length_c 21.584(21)
_cell_angle_alpha 90
_cell_angle_beta 106.23(7)
_cell_angle_gamma 90
_cell_formula_units_Z 4
loop_
_atom_type_symbol
_atom_type_radius_bond
C 0.68
H 0.23
loop_
_atom_site_label
_atom_site_type_symbol
_atom_site_fract_x
_atom_site_fract_y
_atom_site_fract_z
C1 C 0.45300 0.21000 0.03290
C2 C 0.84800 0.19400 0.25930
C3 C 0.73100 0.00400 0.22080
C4 C 0.60700 -0.05400 0.18590
C5 C 0.29700 -0.07200 0.11450
C6 C 0.14900 -0.02500 0.08790
C7 C -0.05700 0.14000 0.07550
C8 C -0.08900 0.25000 0.09080
C9 C 0.03800 0.31600 0.13300
C10 C 0.20500 0.27400 0.15430
C11 C 0.25000 0.16200 0.13480
C12 C 0.36200 0.16300 -0.02710
C13 C 0.10900 0.09300 0.09700
C14 C 0.41800 0.11700 0.15380
C15 C 0.44400 -0.00800 0.15000
C16 C 0.57100 0.18600 0.17910
C17 C 0.71700 0.12600 0.22000
C18 C 0.59100 0.31000 0.16860
C19 C 0.72100 0.37300 0.21820
C20 C 0.49100 0.37200 0.11430
C21 C 0.47700 0.49500 0.12080
C22 C 0.40400 0.32000 0.05240
C23 C 0.23200 0.22800 -0.06890
C24 C 0.27300 0.38200 0.00330
C25 C 0.19000 0.33300 -0.05430
C26 C 0.24900 0.50300 0.01900
C27 C 0.35400 0.55300 0.07150
C28 C 0.59300 0.55100 0.17470
C29 C 0.71300 0.49300 0.21700
C30 C 0.84400 0.30800 0.26150
H1 H 0.57500 0.18000 0.07000
H2 H 0.31900 0.30700 0.19400
loop_
_geom_bond_atom_site_label_1
_geom_bond_atom_site_label_2
_geom_bond_distance
_geom_bond_site_symmetry_1
_geom_bond_site_symmetry_2
C1 C12 1.407 1_555 1_555
C2 C17 1.399 1_555 1_555
C3 C4 1.265 1_555 1_555
C4 C15 1.434 1_555 1_555
C5 C6 1.295 1_555 1_555
C6 C13 1.422 1_555 1_555
C7 C8 1.351 1_555 1_555
C8 C9 1.394 1_555 1_555
C9 C10 1.390 1_555 1_555
C10 C11 1.434 1_555 1_555
C11 C13 1.443 1_555 1_555
C12 C23 1.398 1_555 1_555
C13 C7 1.404 1_555 1_555
C14 C11 1.407 1_555 1_555
C15 C5 1.428 1_555 1_555
C16 C14 1.446 1_555 1_555
C17 C3 1.408 1_555 1_555
C18 C16 1.461 1_555 1_555
C19 C18 1.467 1_555 1_555
C20 C18 1.417 1_555 1_555
C21 C20 1.430 1_555 1_555
C22 C1 1.425 1_555 1_555
C23 C25 1.317 1_555 1_555
C24 C22 1.460 1_555 1_555
C25 C24 1.360 1_555 1_555
C26 C24 1.459 1_555 1_555
C27 C21 1.407 1_555 1_555
C28 C21 1.429 1_555 1_555
C29 C19 1.382 1_555 1_555
C30 C2 1.313 1_555 1_555
H1 C1 1.139 1_555 1_555
H2 C10 1.136 1_555 1_555
C14 C15 1.459 1_555 1_555
C16 C17 1.440 1_555 1_555
C19 C30 1.381 1_555 1_555
C20 C22 1.454 1_555 1_555
C26 C27 1.342 1_555 1_555
C28 C29 1.315 1_555 1_555
#END
