
#######################################################################
#
#                 Cambridge Crystallographic Data Centre
#                                CCDC
#
#######################################################################
#
# If this CIF has been generated from an entry in the Cambridge
# Structural Database, then it will include bibliographic, chemical,
# crystal, experimental, refinement or atomic coordinate data resulting
# from the CCDC's data processing and validation procedures.
#
#######################################################################

data_CSD_CIF_HURXID
_audit_creation_date 2015-11-11
_audit_creation_method CSD-ConQuest-V1
_database_code_CSD HURXID
_database_code_depnum_ccdc_archive 'CCDC 1062911'
_chemical_formula_sum 'C29 H18'
_chemical_formula_moiety
;
C29 H18
;
_journal_coden_Cambridge 35
_journal_volume 80
_journal_year 2015
_journal_page_first 10446
_journal_name_full 'J.Org.Chem. '
loop_
_publ_author_name
"Che-Wei Lee"
"En-Chih Liu"
"Yao-Ting Wu"
_chemical_name_systematic
;
9,11-dimethyl-7H-dibenzo[ghi,mno]indeno[1,2-b]fluoranthene
;
_cell_volume   1741.793
_exptl_crystal_colour 'yellow'
_exptl_crystal_density_diffrn 1.397
_exptl_crystal_description 'Columnar'
_diffrn_ambient_temperature 100
_diffrn_special_details
;
twin

;
#These two values have been output from a single CSD field.
_refine_ls_R_factor_gt 0.0572
_refine_ls_wR_factor_gt 0.0572
_symmetry_cell_setting orthorhombic
_symmetry_space_group_name_H-M 'P n a 21'
_symmetry_Int_Tables_number 33
loop_
_symmetry_equiv_pos_site_id
_symmetry_equiv_pos_as_xyz
1 x,y,z
2 -x,-y,1/2+z
3 1/2-x,1/2+y,1/2+z
4 1/2+x,1/2-y,z
_cell_length_a 13.442(2)
_cell_length_b 33.697(6)
_cell_length_c 3.8454(6)
_cell_angle_alpha 90
_cell_angle_beta 90
_cell_angle_gamma 90
_cell_formula_units_Z 4
loop_
_atom_type_symbol
_atom_type_radius_bond
C 0.68
H 0.23
loop_
_atom_site_label
_atom_site_type_symbol
_atom_site_fract_x
_atom_site_fract_y
_atom_site_fract_z
C1 C 0.1759(3) 0.29272(12) 0.4611(12)
H1 H 0.11560 0.30230 0.57650
H2 H 0.18230 0.26400 0.49750
H3 H 0.17180 0.29830 0.21130
C2 C 0.2653(3) 0.31347(11) 0.6113(12)
C3 C 0.3570(3) 0.29367(12) 0.6505(12)
H4 H 0.36380 0.26670 0.58170
C4 C 0.4370(3) 0.31404(11) 0.7906(12)
C5 C 0.5386(3) 0.29757(11) 0.8771(12)
H5 H 0.57330 0.28830 0.66500
H6 H 0.53360 0.27530 1.04380
C6 C 0.5918(3) 0.33260(11) 1.0381(12)
C7 C 0.6937(3) 0.33356(11) 1.1498(12)
C8 C 0.7226(3) 0.36920(12) 1.2930(11)
C9 C 0.8241(3) 0.38071(12) 1.3225(12)
C10 C 0.8286(3) 0.42264(12) 1.3155(12)
C11 C 0.9106(3) 0.44339(12) 1.1930(12)
C12 C 0.9979(3) 0.41902(13) 1.1304(13)
H7 H 1.05950 0.43160 1.08120
C13 C 0.8903(3) 0.48347(11) 1.0803(12)
H8 H 0.94460 0.50050 1.02700
C14 C 0.7747(3) 0.30598(12) 1.0773(12)
H9 H 0.75960 0.27970 1.00480
C15 C 0.8731(3) 0.31724(12) 1.1120(13)
H10 H 0.92370 0.29810 1.06990
C16 C 0.9020(3) 0.35688(12) 1.2095(12)
C17 C 0.9940(3) 0.37826(12) 1.1400(13)
H11 H 1.05330 0.36360 1.10000
C18 C 0.5300(3) 0.36643(11) 1.0286(11)
C19 C 0.4314(3) 0.35409(11) 0.8938(11)
C20 C 0.2590(3) 0.35268(12) 0.7269(12)
H12 H 0.19710 0.36600 0.70260
C21 C 0.3390(3) 0.37358(11) 0.8774(11)
C22 C 0.3174(3) 0.41385(11) 1.0322(13)
H13 H 0.36460 0.41930 1.22040
H14 H 0.24950 0.41420 1.12470
H15 H 0.32400 0.43420 0.85190
C23 C 0.5709(3) 0.40554(11) 1.1057(11)
C24 C 0.5442(3) 0.44454(11) 0.9802(11)
H16 H 0.47940 0.44840 0.88760
C25 C 0.6086(3) 0.47658(12) 0.9887(11)
H17 H 0.58630 0.50160 0.90470
C26 C 0.7085(3) 0.47315(11) 1.1209(12)
C27 C 0.7302(3) 0.43730(12) 1.2789(11)
C28 C 0.6634(3) 0.40443(12) 1.2694(11)
C29 C 0.7949(3) 0.49785(12) 1.0475(12)
H18 H 0.78510 0.52450 0.97530
loop_
_geom_bond_atom_site_label_1
_geom_bond_atom_site_label_2
_geom_bond_distance
_geom_bond_site_symmetry_1
_geom_bond_site_symmetry_2
C1 H1 0.979 1_555 1_555
H2 C1 0.982 1_555 1_555
H3 C1 0.980 1_555 1_555
C2 C1 1.506 1_555 1_555
C3 C2 1.410 1_555 1_555
H4 C3 0.951 1_555 1_555
C4 C3 1.385 1_555 1_555
C5 C4 1.511 1_555 1_555
H5 C5 0.990 1_555 1_555
H6 C5 0.989 1_555 1_555
C6 C5 1.513 1_555 1_555
C7 C6 1.436 1_555 1_555
C8 C7 1.377 1_555 1_555
C9 C8 1.423 1_555 1_555
C10 C9 1.414 1_555 1_555
C11 C10 1.388 1_555 1_555
C12 C11 1.452 1_555 1_555
H7 C12 0.949 1_555 1_555
C13 C11 1.444 1_555 1_555
H8 C13 0.951 1_555 1_555
C14 C7 1.458 1_555 1_555
H9 C14 0.950 1_555 1_555
C15 C14 1.382 1_555 1_555
H10 C15 0.951 1_555 1_555
C16 C9 1.389 1_555 1_555
C17 C12 1.375 1_555 1_555
H11 C17 0.950 1_555 1_555
C18 C6 1.411 1_555 1_555
C19 C4 1.409 1_555 1_555
C20 C2 1.397 1_555 1_555
H12 C20 0.950 1_555 1_555
C21 C19 1.406 1_555 1_555
C22 C21 1.510 1_555 1_555
H13 C22 0.980 1_555 1_555
H14 C22 0.980 1_555 1_555
H15 C22 0.979 1_555 1_555
C23 C18 1.458 1_555 1_555
C24 C23 1.445 1_555 1_555
H16 C24 0.950 1_555 1_555
C25 C24 1.384 1_555 1_555
H17 C25 0.951 1_555 1_555
C26 C25 1.441 1_555 1_555
C27 C10 1.419 1_555 1_555
C28 C8 1.432 1_555 1_555
C29 C13 1.377 1_555 1_555
H18 C29 0.949 1_555 1_555
C15 C16 1.441 1_555 1_555
C16 C17 1.456 1_555 1_555
C18 C19 1.483 1_555 1_555
C20 C21 1.410 1_555 1_555
C23 C28 1.394 1_555 1_555
C26 C27 1.383 1_555 1_555
C26 C29 1.456 1_555 1_555
C27 C28 1.426 1_555 1_555
#END
