
#######################################################################
#
#                 Cambridge Crystallographic Data Centre
#                                CCDC
#
#######################################################################
#
# If this CIF has been generated from an entry in the Cambridge
# Structural Database, then it will include bibliographic, chemical,
# crystal, experimental, refinement or atomic coordinate data resulting
# from the CCDC's data processing and validation procedures.
#
#######################################################################

data_CSD_CIF_ICUPUU
_audit_creation_date 2017-01-04
_audit_creation_method CSD-ConQuest-V1
_database_code_CSD ICUPUU
_database_code_depnum_ccdc_archive 'CCDC 1482799'
_chemical_formula_sum 'C36 H32'
_chemical_formula_moiety
;
C36 H32
;
_journal_coden_Cambridge 1220
_journal_volume 22
_journal_year 2016
_journal_page_first 14840
_journal_name_full 'Chem.-Eur.J. '
loop_
_publ_author_name
"Gang Zhang"
"F.Rominger"
"Ute Zschieschang"
"H.Klauk"
"M.Mastalerz"
_chemical_name_systematic
;
2,10-di-t-butyldibenzo[fg,qr]pentacene
;
_cell_volume   1215.721
_exptl_crystal_colour 'orange'
_exptl_crystal_description 'needle'
_diffrn_ambient_temperature 100
#These two values have been output from a single CSD field.
_refine_ls_R_factor_gt 0.0695
_refine_ls_wR_factor_gt 0.0695
_symmetry_cell_setting monoclinic
_symmetry_space_group_name_H-M 'P 21/c'
_symmetry_Int_Tables_number 14
loop_
_symmetry_equiv_pos_site_id
_symmetry_equiv_pos_as_xyz
1 x,y,z
2 -x,1/2+y,1/2-z
3 -x,-y,-z
4 x,-1/2-y,-1/2+z
_cell_length_a 12.654(4)
_cell_length_b 5.9003(19)
_cell_length_c 16.299(5)
_cell_angle_alpha 90
_cell_angle_beta 92.546(10)
_cell_angle_gamma 90
_cell_formula_units_Z 2
loop_
_atom_type_symbol
_atom_type_radius_bond
C 0.68
H 0.23
loop_
_atom_site_label
_atom_site_type_symbol
_atom_site_fract_x
_atom_site_fract_y
_atom_site_fract_z
C1 C 0.4077(3) -0.0235(6) 0.5481(2)
C2 C 0.3204(3) -0.0413(6) 0.5954(2)
H1 H 0.31980 -0.15650 0.63600
C3 C 0.2323(3) 0.1026(6) 0.5862(2)
C4 C 0.2365(3) 0.2741(7) 0.5288(2)
H2 H 0.17750 0.37270 0.52100
C5 C 0.3256(3) 0.3072(6) 0.4812(2)
C6 C 0.3298(3) 0.4952(6) 0.4238(2)
C7 C 0.2486(3) 0.6575(6) 0.4133(2)
H3 H 0.18620 0.64290 0.44320
C8 C 0.2585(3) 0.8367(7) 0.3604(2)
H4 H 0.20360 0.94620 0.35480
C9 C 0.3485(3) 0.8588(7) 0.3148(2)
H5 H 0.35450 0.98130 0.27740
C10 C 0.4280(3) 0.7033(7) 0.3242(2)
H6 H 0.48940 0.71940 0.29320
C11 C 0.4208(3) 0.5199(6) 0.3786(2)
C12 C 0.5054(3) 0.3649(7) 0.3898(2)
H7 H 0.56680 0.38750 0.35930
C13 C 0.5033(3) 0.1855(6) 0.4418(2)
C14 C 0.4119(3) 0.1558(6) 0.4905(2)
C15 C 0.1390(3) 0.0720(7) 0.6414(2)
C16 C 0.1070(3) -0.1785(7) 0.6442(3)
H8 H 0.04640 -0.19610 0.67900
H9 H 0.16660 -0.26830 0.66680
H10 H 0.08780 -0.23110 0.58850
C17 C 0.1730(3) 0.1524(7) 0.7283(2)
H11 H 0.11510 0.12760 0.76520
H12 H 0.19030 0.31420 0.72690
H13 H 0.23540 0.06660 0.74810
C18 C 0.0408(3) 0.2063(7) 0.6113(3)
H14 H -0.01740 0.17650 0.64750
H15 H 0.02000 0.15940 0.55520
H16 H 0.05720 0.36860 0.61190
C1B C 0.5923(3) 0.0235(6) 0.4519(2)
C2B C 0.6796(3) 0.0413(6) 0.4046(2)
H1B H 0.68020 0.15650 0.36400
C3B C 0.7677(3) -0.1026(6) 0.4138(2)
C4B C 0.7635(3) -0.2741(7) 0.4712(2)
H2B H 0.82250 -0.37270 0.47900
C5B C 0.6744(3) -0.3072(6) 0.5188(2)
C6B C 0.6702(3) -0.4952(6) 0.5762(2)
C7B C 0.7514(3) -0.6575(6) 0.5867(2)
H3B H 0.81380 -0.64290 0.55680
C8B C 0.7415(3) -0.8367(7) 0.6396(2)
H4B H 0.79640 -0.94620 0.64520
C9B C 0.6515(3) -0.8588(7) 0.6852(2)
H5B H 0.64550 -0.98130 0.72260
C10B C 0.5720(3) -0.7033(7) 0.6758(2)
H6B H 0.51060 -0.71940 0.70680
C11B C 0.5792(3) -0.5199(6) 0.6214(2)
C12B C 0.4946(3) -0.3649(7) 0.6102(2)
H7B H 0.43320 -0.38750 0.64070
C13B C 0.4967(3) -0.1855(6) 0.5582(2)
C14B C 0.5881(3) -0.1558(6) 0.5095(2)
C15B C 0.8610(3) -0.0720(7) 0.3586(2)
C16B C 0.8930(3) 0.1785(7) 0.3558(3)
H8B H 0.95360 0.19610 0.32100
H9B H 0.83340 0.26830 0.33320
H10B H 0.91220 0.23110 0.41150
C17B C 0.8270(3) -0.1524(7) 0.2717(2)
H11B H 0.88490 -0.12760 0.23480
H12B H 0.80970 -0.31420 0.27310
H13B H 0.76460 -0.06660 0.25190
C18B C 0.9592(3) -0.2063(7) 0.3887(3)
H14B H 1.01740 -0.17650 0.35250
H15B H 0.98000 -0.15940 0.44480
H16B H 0.94280 -0.36860 0.38810
loop_
_geom_bond_atom_site_label_1
_geom_bond_atom_site_label_2
_geom_bond_distance
_geom_bond_site_symmetry_1
_geom_bond_site_symmetry_2
C1 C2 1.379 1_555 1_555
C2 H1 0.949 1_555 1_555
C3 C2 1.404 1_555 1_555
C4 C3 1.381 1_555 1_555
H2 C4 0.951 1_555 1_555
C5 C4 1.410 1_555 1_555
C6 C5 1.454 1_555 1_555
C7 C6 1.409 1_555 1_555
H3 C7 0.950 1_555 1_555
C8 C7 1.374 1_555 1_555
H4 C8 0.950 1_555 1_555
C9 C8 1.393 1_555 1_555
H5 C9 0.951 1_555 1_555
C10 C9 1.365 1_555 1_555
H6 C10 0.950 1_555 1_555
C11 C6 1.402 1_555 1_555
C12 C11 1.414 1_555 1_555
H7 C12 0.950 1_555 1_555
C13 C12 1.357 1_555 1_555
C14 C1 1.417 1_555 1_555
C15 C3 1.527 1_555 1_555
C16 C15 1.534 1_555 1_555
H8 C16 0.979 1_555 1_555
H9 C16 0.980 1_555 1_555
H10 C16 0.980 1_555 1_555
C17 C15 1.537 1_555 1_555
H11 C17 0.979 1_555 1_555
H12 C17 0.980 1_555 1_555
H13 C17 0.980 1_555 1_555
C18 C15 1.536 1_555 1_555
H14 C18 0.980 1_555 1_555
H15 C18 0.980 1_555 1_555
H16 C18 0.980 1_555 1_555
C1B C13 1.481 1_555 1_555
C2B C1B 1.379 1_555 1_555
H1B C2B 0.949 1_555 1_555
C3B C2B 1.404 1_555 1_555
C4B C3B 1.381 1_555 1_555
H2B C4B 0.951 1_555 1_555
C5B C4B 1.410 1_555 1_555
C6B C5B 1.454 1_555 1_555
C7B C6B 1.409 1_555 1_555
H3B C7B 0.950 1_555 1_555
C8B C7B 1.374 1_555 1_555
H4B C8B 0.950 1_555 1_555
C9B C8B 1.393 1_555 1_555
H5B C9B 0.951 1_555 1_555
C10B C9B 1.365 1_555 1_555
H6B C10B 0.950 1_555 1_555
C11B C6B 1.402 1_555 1_555
C12B C11B 1.414 1_555 1_555
H7B C12B 0.950 1_555 1_555
C13B C1 1.481 1_555 1_555
C14B C1B 1.417 1_555 1_555
C15B C3B 1.527 1_555 1_555
C16B C15B 1.534 1_555 1_555
H8B C16B 0.979 1_555 1_555
H9B C16B 0.980 1_555 1_555
H10B C16B 0.980 1_555 1_555
C17B C15B 1.537 1_555 1_555
H11B C17B 0.979 1_555 1_555
H12B C17B 0.980 1_555 1_555
H13B C17B 0.980 1_555 1_555
C18B C15B 1.536 1_555 1_555
H14B C18B 0.980 1_555 1_555
H15B C18B 0.980 1_555 1_555
H16B C18B 0.980 1_555 1_555
C5 C14 1.414 1_555 1_555
C10 C11 1.405 1_555 1_555
C13 C14 1.442 1_555 1_555
C5B C14B 1.414 1_555 1_555
C10B C11B 1.405 1_555 1_555
C12B C13B 1.357 1_555 1_555
C13B C14B 1.442 1_555 1_555
#END
