
#######################################################################
#
#                 Cambridge Crystallographic Data Centre
#                                CCDC
#
#######################################################################
#
# If this CIF has been generated from an entry in the Cambridge
# Structural Database, then it will include bibliographic, chemical,
# crystal, experimental, refinement or atomic coordinate data resulting
# from the CCDC's data processing and validation procedures.
#
#######################################################################

data_CSD_CIF_ICUQUV
_audit_creation_date 2017-01-04
_audit_creation_method CSD-ConQuest-V1
_database_code_CSD ICUQUV
_database_code_depnum_ccdc_archive 'CCDC 1482804'
_chemical_formula_sum 'C44 H36'
_chemical_formula_moiety
;
C44 H36
;
_journal_coden_Cambridge 1220
_journal_volume 22
_journal_year 2016
_journal_page_first 14840
_journal_name_full 'Chem.-Eur.J. '
loop_
_publ_author_name
"Gang Zhang"
"F.Rominger"
"Ute Zschieschang"
"H.Klauk"
"M.Mastalerz"
_chemical_name_systematic
;
2,12-di-t-butyltetrabenzo[a,fg,l,qr]pentacene
;
_cell_volume   2969.251
_exptl_crystal_colour 'orange'
_exptl_crystal_density_diffrn 1.263
_exptl_crystal_description 'needle'
_diffrn_ambient_temperature 200
#These two values have been output from a single CSD field.
_refine_ls_R_factor_gt 0.0918
_refine_ls_wR_factor_gt 0.0918
_symmetry_cell_setting orthorhombic
_symmetry_space_group_name_H-M 'P c a 21'
_symmetry_Int_Tables_number 29
loop_
_symmetry_equiv_pos_site_id
_symmetry_equiv_pos_as_xyz
1 x,y,z
2 -x,-y,1/2+z
3 1/2+x,-y,z
4 1/2-x,y,1/2+z
_cell_length_a 22.119(6)
_cell_length_b 6.2411(16)
_cell_length_c 21.509(6)
_cell_angle_alpha 90
_cell_angle_beta 90
_cell_angle_gamma 90
_cell_formula_units_Z 4
loop_
_atom_type_symbol
_atom_type_radius_bond
C 0.68
H 0.23
loop_
_atom_site_label
_atom_site_type_symbol
_atom_site_fract_x
_atom_site_fract_y
_atom_site_fract_z
C1 C 0.5994(4) 0.7848(16) 0.5617(4)
C2 C 0.5776(5) 0.8244(18) 0.6216(4)
H1 H 0.55060 0.72340 0.63960
C3 C 0.5928(6) 0.9975(15) 0.6550(6)
C4 C 0.6386(5) 1.1356(17) 0.6320(4)
H2 H 0.65280 1.24960 0.65740
C5 C 0.6633(4) 1.1072(15) 0.5723(4)
C6 C 0.7065(4) 1.2564(17) 0.5469(5)
C7 C 0.7227(5) 1.4462(19) 0.5789(5)
H3 H 0.70570 1.47490 0.61860
C8 C 0.7623(4) 1.5869(18) 0.5538(5)
H4 H 0.77040 1.71770 0.57480
C9 C 0.7919(5) 1.5430(17) 0.4966(5)
C10 C 0.8336(4) 1.6932(17) 0.4699(5)
H5 H 0.84050 1.82660 0.48990
C11 C 0.8635(5) 1.6468(19) 0.4159(5)
H6 H 0.89260 1.74290 0.39930
C12 C 0.8499(6) 1.452(2) 0.3857(6)
H7 H 0.87010 1.42060 0.34780
C13 C 0.8108(5) 1.3136(17) 0.4073(4)
H8 H 0.80420 1.18360 0.38530
C14 C 0.7782(4) 1.3528(16) 0.4624(4)
C15 C 0.7324(4) 1.2099(15) 0.4884(4)
C16 C 0.7135(5) 1.0284(16) 0.4554(6)
H9 H 0.73190 1.00000 0.41640
C17 C 0.6701(4) 0.8900(16) 0.4760(4)
C18 C 0.6435(4) 0.9250(18) 0.5367(4)
C19 C 0.6494(5) 0.7052(17) 0.4392(4)
C20 C 0.6713(4) 0.6678(16) 0.3803(4)
H10 H 0.70150 0.76090 0.36450
C21 C 0.6507(5) 0.4952(16) 0.3414(7)
C22 C 0.6104(4) 0.3570(18) 0.3685(4)
H11 H 0.59720 0.23720 0.34490
C23 C 0.5877(5) 0.3812(17) 0.4282(5)
C24 C 0.5411(4) 0.2371(17) 0.4542(4)
C25 C 0.5256(5) 0.0404(17) 0.4231(6)
H12 H 0.54470 0.00650 0.38480
C26 C 0.4851(4) -0.0958(17) 0.4466(5)
H13 H 0.47530 -0.22200 0.42410
C27 C 0.4561(4) -0.0557(19) 0.5053(5)
C28 C 0.4122(5) -0.1969(18) 0.5283(5)
H14 H 0.40300 -0.32440 0.50610
C29 C 0.3828(5) -0.1529(18) 0.5820(5)
H15 H 0.35450 -0.25300 0.59810
C30 C 0.3936(5) 0.0365(19) 0.6140(6)
H16 H 0.37130 0.07010 0.65050
C31 C 0.4387(5) 0.1802(18) 0.5910(5)
H17 H 0.44810 0.30610 0.61390
C32 C 0.4691(4) 0.1379(15) 0.5354(4)
C33 C 0.5150(4) 0.2826(16) 0.5108(4)
C34 C 0.5354(6) 0.4617(18) 0.5451(6)
H18 H 0.51720 0.48890 0.58430
C35 C 0.5805(5) 0.6006(17) 0.5248(4)
C36 C 0.6051(4) 0.5625(19) 0.4645(5)
C37 C 0.5748(6) 1.0290(18) 0.7257(5)
C38 C 0.5202(6) 0.890(2) 0.7389(5)
H19 H 0.48830 0.92180 0.70870
H20 H 0.53160 0.73870 0.73560
H21 H 0.50540 0.91930 0.78100
C39 C 0.6237(6) 0.990(2) 0.7687(7)
H22 H 0.65790 1.08330 0.75840
H23 H 0.61010 1.02060 0.81120
H24 H 0.63640 0.83990 0.76580
C40 C 0.5522(6) 1.264(2) 0.7321(5)
H25 H 0.51910 1.28850 0.70270
H26 H 0.53790 1.28800 0.77460
H27 H 0.58550 1.36220 0.72290
C41 C 0.6750(5) 0.4643(18) 0.2778(6)
C42 C 0.6917(5) 0.231(2) 0.2635(5)
H28 H 0.70740 0.22110 0.22100
H29 H 0.72270 0.18250 0.29290
H30 H 0.65570 0.14070 0.26750
C43 C 0.6204(6) 0.525(2) 0.2321(7)
H31 H 0.63350 0.50790 0.18890
H32 H 0.58600 0.43020 0.24020
H33 H 0.60830 0.67400 0.23930
C44 C 0.7280(5) 0.610(2) 0.2574(6)
H34 H 0.73990 0.57390 0.21480
H35 H 0.71530 0.76020 0.25920
H36 H 0.76250 0.58770 0.28530
loop_
_geom_bond_atom_site_label_1
_geom_bond_atom_site_label_2
_geom_bond_distance
_geom_bond_site_symmetry_1
_geom_bond_site_symmetry_2
C1 C2 1.398 1_555 1_555
C2 H1 0.951 1_555 1_555
C3 C2 1.340 1_555 1_555
C4 C3 1.419 1_555 1_555
H2 C4 0.950 1_555 1_555
C5 C4 1.407 1_555 1_555
C6 C5 1.442 1_555 1_555
C7 C6 1.416 1_555 1_555
H3 C7 0.950 1_555 1_555
C8 C7 1.353 1_555 1_555
H4 C8 0.950 1_555 1_555
C9 C8 1.420 1_555 1_555
C10 C9 1.435 1_555 1_555
H5 C10 0.949 1_555 1_555
C11 C10 1.368 1_555 1_555
H6 C11 0.949 1_555 1_555
C12 C11 1.411 1_555 1_555
H7 C12 0.950 1_555 1_555
C13 C12 1.308 1_555 1_555
H8 C13 0.951 1_555 1_555
C14 C9 1.429 1_555 1_555
C15 C6 1.413 1_555 1_555
C16 C15 1.401 1_555 1_555
H9 C16 0.949 1_555 1_555
C17 C16 1.365 1_555 1_555
C18 C1 1.416 1_555 1_555
C19 C17 1.472 1_555 1_555
C20 C19 1.376 1_555 1_555
H10 C20 0.948 1_555 1_555
C21 C20 1.438 1_555 1_555
C22 C21 1.371 1_555 1_555
H11 C22 0.950 1_555 1_555
C23 C22 1.387 1_555 1_555
C24 C23 1.478 1_555 1_555
C25 C24 1.439 1_555 1_555
H12 C25 0.950 1_555 1_555
C26 C25 1.334 1_555 1_555
H13 C26 0.950 1_555 1_555
C27 C26 1.438 1_555 1_555
C28 C27 1.402 1_555 1_555
H14 C28 0.950 1_555 1_555
C29 C28 1.354 1_555 1_555
H15 C29 0.950 1_555 1_555
C30 C29 1.389 1_555 1_555
H16 C30 0.951 1_555 1_555
C31 C30 1.430 1_555 1_555
H17 C31 0.950 1_555 1_555
C32 C27 1.401 1_555 1_555
C33 C24 1.377 1_555 1_555
C34 C33 1.413 1_555 1_555
H18 C34 0.950 1_555 1_555
C35 C1 1.458 1_555 1_555
C36 C19 1.432 1_555 1_555
C37 C3 1.584 1_555 1_555
C38 C37 1.514 1_555 1_555
H19 C38 0.979 1_555 1_555
H20 C38 0.980 1_555 1_555
H21 C38 0.980 1_555 1_555
C39 C37 1.444 1_555 1_555
H22 C39 0.980 1_555 1_555
H23 C39 0.981 1_555 1_555
H24 C39 0.980 1_555 1_555
C40 C37 1.556 1_555 1_555
H25 C40 0.979 1_555 1_555
H26 C40 0.979 1_555 1_555
H27 C40 0.978 1_555 1_555
C41 C21 1.482 1_555 1_555
C42 C41 1.533 1_555 1_555
H28 C42 0.980 1_555 1_555
H29 C42 0.981 1_555 1_555
H30 C42 0.979 1_555 1_555
C43 C41 1.603 1_555 1_555
H31 C43 0.979 1_555 1_555
H32 C43 0.979 1_555 1_555
H33 C43 0.980 1_555 1_555
C44 C41 1.547 1_555 1_555
H34 C44 0.980 1_555 1_555
H35 C44 0.979 1_555 1_555
H36 C44 0.981 1_555 1_555
C5 C18 1.439 1_555 1_555
C13 C14 1.409 1_555 1_555
C14 C15 1.461 1_555 1_555
C17 C18 1.449 1_555 1_555
C23 C36 1.428 1_555 1_555
C31 C32 1.397 1_555 1_555
C32 C33 1.458 1_555 1_555
C34 C35 1.392 1_555 1_555
C35 C36 1.426 1_555 1_555
#END
