
#######################################################################
#
#                 Cambridge Crystallographic Data Centre
#                                CCDC
#
#######################################################################
#
# If this CIF has been generated from an entry in the Cambridge
# Structural Database, then it will include bibliographic, chemical,
# crystal, experimental, refinement or atomic coordinate data resulting
# from the CCDC's data processing and validation procedures.
#
#######################################################################

data_CSD_CIF_ICURAC
_audit_creation_date 2017-01-04
_audit_creation_method CSD-ConQuest-V1
_database_code_CSD ICURAC
_database_code_depnum_ccdc_archive 'CCDC 1482805'
_chemical_formula_sum 'C44 H36'
_chemical_formula_moiety
;
C44 H36
;
_journal_coden_Cambridge 1220
_journal_volume 22
_journal_year 2016
_journal_page_first 14840
_journal_name_full 'Chem.-Eur.J. '
loop_
_publ_author_name
"Gang Zhang"
"F.Rominger"
"Ute Zschieschang"
"H.Klauk"
"M.Mastalerz"
_chemical_name_systematic
;
9,19-di-t-butyltetrabenzo[a,hi,l,st]pentacene
;
_cell_volume   2941.636
_exptl_crystal_colour 'yellow'
_exptl_crystal_density_diffrn 1.275
_exptl_crystal_description 'needle'
_diffrn_ambient_temperature 200
#These two values have been output from a single CSD field.
_refine_ls_R_factor_gt 0.0426
_refine_ls_wR_factor_gt 0.0426
_symmetry_cell_setting monoclinic
_symmetry_space_group_name_H-M 'C 2/c'
_symmetry_Int_Tables_number 15
loop_
_symmetry_equiv_pos_site_id
_symmetry_equiv_pos_as_xyz
1 x,y,z
2 -x,y,1/2-z
3 1/2+x,1/2+y,z
4 1/2-x,1/2+y,1/2-z
5 -x,-y,-z
6 x,-y,-1/2+z
7 -1/2-x,-1/2-y,-z
8 -1/2+x,-1/2-y,-1/2+z
_cell_length_a 28.725(3)
_cell_length_b 6.0124(6)
_cell_length_c 19.5850(19)
_cell_angle_alpha 90
_cell_angle_beta 119.579(2)
_cell_angle_gamma 90
_cell_formula_units_Z 4
loop_
_atom_type_symbol
_atom_type_radius_bond
C 0.68
H 0.23
loop_
_atom_site_label
_atom_site_type_symbol
_atom_site_fract_x
_atom_site_fract_y
_atom_site_fract_z
C1 C 0.29792(8) 0.1177(3) 0.52695(11)
C2 C 0.34594(8) 0.0029(3) 0.55833(11)
H1 H 0.35140 -0.11930 0.59220
C3 C 0.38663(8) 0.0601(3) 0.54206(11)
C4 C 0.37649(8) 0.2297(3) 0.48927(12)
H2 H 0.4046(8) 0.276(3) 0.4794(12)
C5 C 0.32771(8) 0.3473(3) 0.45200(11)
C6 C 0.31654(7) 0.5223(3) 0.39480(11)
C7 C 0.34250(7) 0.5467(3) 0.34745(11)
C8 C 0.37301(8) 0.3789(4) 0.33719(12)
H3 H 0.3777(7) 0.236(3) 0.3612(11)
C9 C 0.39416(9) 0.4061(4) 0.28862(13)
H4 H 0.41430 0.28910 0.28300
C10 C 0.38649(9) 0.6048(4) 0.24708(13)
H5 H 0.40220 0.62510 0.21470
C11 C 0.35614(8) 0.7689(4) 0.25368(13)
H6 H 0.35070 0.90340 0.22530
C12 C 0.33268(8) 0.7435(3) 0.30149(11)
C13 C 0.29667(8) 0.9071(3) 0.30068(12)
H7 H 0.29240 1.04330 0.27360
C14 C 0.26848(8) 0.8710(3) 0.33796(11)
H8 H 0.24300 0.97840 0.33400
C15 C 0.27618(8) 0.6754(3) 0.38314(11)
C16 C 0.24102(8) 0.6313(3) 0.41254(11)
H9 H 0.21460 0.73910 0.40450
C17 C 0.24328(7) 0.4408(3) 0.45193(11)
C18 C 0.28912(7) 0.2990(3) 0.47586(11)
C19 C 0.44127(8) -0.0575(4) 0.58128(12)
C20 C 0.48542(9) 0.1144(4) 0.62701(14)
H10 H 0.52040 0.04080 0.65120
H11 H 0.47990 0.18150 0.66800
H12 H 0.48420 0.23050 0.59100
C21 C 0.45050(9) -0.1650(4) 0.51810(14)
H13 H 0.48560 -0.23760 0.54300
H14 H 0.44920 -0.05040 0.48160
H15 H 0.42250 -0.27590 0.48930
C22 C 0.44488(9) -0.2395(4) 0.63811(15)
H16 H 0.47980 -0.31300 0.66040
H17 H 0.41650 -0.34910 0.60990
H18 H 0.44070 -0.17330 0.68050
C1F C 0.20208(8) 0.3823(3) 0.47305(11)
C2F C 0.15406(8) 0.4971(3) 0.44167(11)
H1F H 0.14860 0.61930 0.40780
C3F C 0.11337(8) 0.4399(3) 0.45794(11)
C4F C 0.12351(8) 0.2703(3) 0.51073(12)
H2F H 0.0954(8) 0.224(3) 0.5206(12)
C5F C 0.17229(8) 0.1527(3) 0.54800(11)
C6F C 0.18346(7) -0.0223(3) 0.60520(11)
C7F C 0.15750(7) -0.0467(3) 0.65255(11)
C8F C 0.12699(8) 0.1211(4) 0.66281(12)
H3F H 0.1223(7) 0.264(3) 0.6388(11)
C9F C 0.10584(9) 0.0939(4) 0.71138(13)
H4F H 0.08570 0.21090 0.71700
C10F C 0.11351(9) -0.1048(4) 0.75292(13)
H5F H 0.09780 -0.12510 0.78530
C11F C 0.14386(8) -0.2689(4) 0.74632(13)
H6F H 0.14930 -0.40340 0.77470
C12F C 0.16732(8) -0.2435(3) 0.69851(11)
C13F C 0.20333(8) -0.4071(3) 0.69932(12)
H7F H 0.20760 -0.54330 0.72640
C14F C 0.23152(8) -0.3710(3) 0.66204(11)
H8F H 0.25700 -0.47840 0.66600
C15F C 0.22382(8) -0.1754(3) 0.61686(11)
C16F C 0.25898(8) -0.1313(3) 0.58746(11)
H9F H 0.28540 -0.23910 0.59550
C17F C 0.25672(7) 0.0592(3) 0.54807(11)
C18F C 0.21088(7) 0.2010(3) 0.52414(11)
C19F C 0.05873(8) 0.5575(4) 0.41872(12)
C20F C 0.01458(9) 0.3856(4) 0.37299(14)
H10F H -0.02040 0.45920 0.34880
H11F H 0.02010 0.31850 0.33200
H12F H 0.01580 0.26950 0.40900
C21F C 0.04950(9) 0.6650(4) 0.48190(14)
H13F H 0.01440 0.73760 0.45700
H14F H 0.05080 0.55040 0.51840
H15F H 0.07750 0.77590 0.51070
C22F C 0.05512(9) 0.7395(4) 0.36189(15)
H16F H 0.02020 0.81300 0.33960
H17F H 0.08350 0.84910 0.39010
H18F H 0.05930 0.67330 0.31950
loop_
_geom_bond_atom_site_label_1
_geom_bond_atom_site_label_2
_geom_bond_distance
_geom_bond_site_symmetry_1
_geom_bond_site_symmetry_2
C1 C2 1.386 1_555 1_555
C2 H1 0.950 1_555 1_555
C3 C2 1.398 1_555 1_555
C4 C3 1.377 1_555 1_555
H2 C4 0.960 1_555 1_555
C5 C4 1.409 1_555 1_555
C6 C5 1.453 1_555 1_555
C7 C6 1.456 1_555 1_555
C8 C7 1.414 1_555 1_555
H3 C8 0.957 1_555 1_555
C9 C8 1.368 1_555 1_555
H4 C9 0.951 1_555 1_555
C10 C9 1.400 1_555 1_555
H5 C10 0.950 1_555 1_555
C11 C10 1.364 1_555 1_555
H6 C11 0.950 1_555 1_555
C12 C7 1.428 1_555 1_555
C13 C12 1.422 1_555 1_555
H7 C13 0.950 1_555 1_555
C14 C13 1.349 1_555 1_555
H8 C14 0.950 1_555 1_555
C15 C6 1.408 1_555 1_555
C16 C15 1.413 1_555 1_555
H9 C16 0.950 1_555 1_555
C17 C16 1.364 1_555 1_555
C18 C1 1.415 1_555 1_555
C19 C3 1.537 1_555 1_555
C20 C19 1.535 1_555 1_555
H10 C20 0.980 1_555 1_555
H11 C20 0.979 1_555 1_555
H12 C20 0.981 1_555 1_555
C21 C19 1.531 1_555 1_555
H13 C21 0.980 1_555 1_555
H14 C21 0.980 1_555 1_555
H15 C21 0.981 1_555 1_555
C22 C19 1.527 1_555 1_555
H16 C22 0.980 1_555 1_555
H17 C22 0.979 1_555 1_555
H18 C22 0.980 1_555 1_555
C1F C17 1.476 1_555 1_555
C2F C1F 1.386 1_555 1_555
H1F C2F 0.950 1_555 1_555
C3F C2F 1.398 1_555 1_555
C4F C3F 1.377 1_555 1_555
H2F C4F 0.960 1_555 1_555
C5F C4F 1.409 1_555 1_555
C6F C5F 1.453 1_555 1_555
C7F C6F 1.456 1_555 1_555
C8F C7F 1.414 1_555 1_555
H3F C8F 0.957 1_555 1_555
C9F C8F 1.368 1_555 1_555
H4F C9F 0.951 1_555 1_555
C10F C9F 1.400 1_555 1_555
H5F C10F 0.950 1_555 1_555
C11F C10F 1.364 1_555 1_555
H6F C11F 0.950 1_555 1_555
C12F C7F 1.428 1_555 1_555
C13F C12F 1.422 1_555 1_555
H7F C13F 0.950 1_555 1_555
C14F C13F 1.349 1_555 1_555
H8F C14F 0.950 1_555 1_555
C15F C6F 1.408 1_555 1_555
C16F C15F 1.413 1_555 1_555
H9F C16F 0.950 1_555 1_555
C17F C1 1.476 1_555 1_555
C18F C1F 1.415 1_555 1_555
C19F C3F 1.537 1_555 1_555
C20F C19F 1.535 1_555 1_555
H10F C20F 0.980 1_555 1_555
H11F C20F 0.979 1_555 1_555
H12F C20F 0.981 1_555 1_555
C21F C19F 1.531 1_555 1_555
H13F C21F 0.980 1_555 1_555
H14F C21F 0.980 1_555 1_555
H15F C21F 0.981 1_555 1_555
C22F C19F 1.527 1_555 1_555
H16F C22F 0.980 1_555 1_555
H17F C22F 0.979 1_555 1_555
H18F C22F 0.980 1_555 1_555
C5 C18 1.429 1_555 1_555
C11 C12 1.406 1_555 1_555
C14 C15 1.422 1_555 1_555
C17 C18 1.439 1_555 1_555
C5F C18F 1.429 1_555 1_555
C11F C12F 1.406 1_555 1_555
C14F C15F 1.422 1_555 1_555
C16F C17F 1.364 1_555 1_555
C17F C18F 1.439 1_555 1_555
#END
