
#######################################################################
#
#                 Cambridge Crystallographic Data Centre
#                                CCDC
#
#######################################################################
#
# If this CIF has been generated from an entry in the Cambridge
# Structural Database, then it will include bibliographic, chemical,
# crystal, experimental, refinement or atomic coordinate data resulting
# from the CCDC's data processing and validation procedures.
#
#######################################################################

data_CSD_CIF_IDAKII
_audit_creation_date 2006-08-03
_audit_creation_method CSD-ConQuest-V1
_database_code_CSD IDAKII
_database_code_depnum_ccdc_archive 'CCDC 297972'
_chemical_formula_sum 'C22 H22'
_chemical_formula_moiety
;
C22 H22
;
_journal_coden_Cambridge 179
_journal_volume 45
_journal_year 2006
_journal_page_first 2923
_journal_name_full 'Angew.Chem.,Int.Ed. '
loop_
_publ_author_name
"S.K.Collins"
"A.Grandbois"
"M.P.Vachon"
"J.Cote"
_chemical_name_systematic
;
1,2,3,4,11,12,13,14-octahydro(5)helicene
;
_cell_volume   1517.786
_exptl_crystal_colour 'colorless'
_exptl_crystal_density_diffrn 1.253
_exptl_crystal_description 'block'
_exptl_crystal_preparation 'ethyl acetate'
_diffrn_ambient_temperature 100
#These two values have been output from a single CSD field.
_refine_ls_R_factor_gt 0.0322
_refine_ls_wR_factor_gt 0.0322
_symmetry_cell_setting orthorhombic
_symmetry_space_group_name_H-M 'P n a 21'
_symmetry_Int_Tables_number 33
loop_
_symmetry_equiv_pos_site_id
_symmetry_equiv_pos_as_xyz
1 x,y,z
2 -x,-y,1/2+z
3 1/2+x,1/2-y,z
4 1/2-x,1/2+y,1/2+z
_cell_length_a 8.6280(2)
_cell_length_b 8.5228(2)
_cell_length_c 20.6404(5)
_cell_angle_alpha 90
_cell_angle_beta 90
_cell_angle_gamma 90
_cell_formula_units_Z 4
loop_
_atom_type_symbol
_atom_type_radius_bond
C 0.68
H 0.23
loop_
_atom_site_label
_atom_site_type_symbol
_atom_site_fract_x
_atom_site_fract_y
_atom_site_fract_z
C1 C 0.09952(16) 0.38113(17) 0.03228(7)
H1 H 0.07180 0.41000 0.07730
H2 H 0.09160 0.26570 0.02820
C2 C -0.01459(17) 0.46015(19) -0.01533(7)
H3 H -0.11960 0.41650 -0.00840
H4 H -0.01890 0.57400 -0.00600
C3 C 0.0315(2) 0.4362(2) -0.08640(8)
H5 H -0.04750 0.37040 -0.10810
H6 H 0.03380 0.53930 -0.10850
C4 C 0.18961(19) 0.3582(2) -0.09291(7)
H7 H 0.18000 0.24480 -0.08340
H8 H 0.22730 0.36970 -0.13800
C5 C 0.30399(19) 0.43079(17) -0.04730(7)
C6 C 0.44121(19) 0.50143(19) -0.06839(7)
H9 H 0.47100 0.49390 -0.11260
C7 C 0.53270(18) 0.58136(17) -0.02546(8)
H10 H 0.62230 0.63470 -0.04070
C8 C 0.49587(17) 0.58559(16) 0.04088(8)
C9 C 0.57763(17) 0.68936(17) 0.08378(8)
H11 H 0.66700 0.74320 0.06860
C10 C 0.52995(17) 0.71143(17) 0.14478(8)
H12 H 0.57290 0.79470 0.16950
C11 C 0.41472(16) 0.61119(16) 0.17354(8)
C12 C 0.38158(18) 0.6209(2) 0.23981(8)
H13 H 0.41940 0.70720 0.26430
C13 C 0.29504(17) 0.5070(2) 0.26980(8)
H14 H 0.26690 0.51860 0.31400
C14 C 0.24814(16) 0.37376(19) 0.23532(7)
C15 C 0.17917(19) 0.2323(2) 0.26828(7)
H15 H 0.07040 0.21910 0.25400
H16 H 0.17900 0.24910 0.31570
C16 C 0.2708(2) 0.0825(2) 0.25251(8)
H17 H 0.36060 0.07470 0.28220
H18 H 0.20370 -0.00990 0.26010
C17 C 0.32906(17) 0.07964(18) 0.18232(7)
H19 H 0.31070 -0.02580 0.16370
H20 H 0.44220 0.09910 0.18190
C18 C 0.24821(15) 0.20299(16) 0.13999(6)
H21 H 0.29060 0.19940 0.09540
H22 H 0.13570 0.18060 0.13780
C19 C 0.27444(14) 0.36365(16) 0.16895(7)
C20 C 0.34613(14) 0.49013(16) 0.13540(6)
C21 C 0.36724(15) 0.49750(15) 0.06468(7)
C22 C 0.26394(16) 0.43219(15) 0.01829(7)
loop_
_geom_bond_atom_site_label_1
_geom_bond_atom_site_label_2
_geom_bond_distance
_geom_bond_site_symmetry_1
_geom_bond_site_symmetry_2
C1 H1 0.991 1_555 1_555
H2 C1 0.990 1_555 1_555
C2 C1 1.545 1_555 1_555
H3 C2 0.990 1_555 1_555
H4 C2 0.990 1_555 1_555
C3 C2 1.534 1_555 1_555
H5 C3 0.990 1_555 1_555
H6 C3 0.990 1_555 1_555
C4 C3 1.523 1_555 1_555
H7 C4 0.990 1_555 1_555
H8 C4 0.991 1_555 1_555
C5 C4 1.498 1_555 1_555
C6 C5 1.398 1_555 1_555
H9 C6 0.950 1_555 1_555
C7 C6 1.368 1_555 1_555
H10 C7 0.950 1_555 1_555
C8 C7 1.406 1_555 1_555
C9 C8 1.437 1_555 1_555
H11 C9 0.950 1_555 1_555
C10 C9 1.338 1_555 1_555
H12 C10 0.949 1_555 1_555
C11 C10 1.439 1_555 1_555
C12 C11 1.400 1_555 1_555
H13 C12 0.950 1_555 1_555
C13 C12 1.372 1_555 1_555
H14 C13 0.949 1_555 1_555
C14 C13 1.400 1_555 1_555
C15 C14 1.507 1_555 1_555
H15 C15 0.990 1_555 1_555
H16 C15 0.989 1_555 1_555
C16 C15 1.537 1_555 1_555
H17 C16 0.990 1_555 1_555
H18 C16 0.990 1_555 1_555
C17 C16 1.534 1_555 1_555
H19 C17 0.990 1_555 1_555
H20 C17 0.990 1_555 1_555
C18 C17 1.535 1_555 1_555
H21 C18 0.991 1_555 1_555
H22 C18 0.990 1_555 1_555
C19 C14 1.391 1_555 1_555
C20 C11 1.426 1_555 1_555
C21 C8 1.427 1_555 1_555
C22 C1 1.512 1_555 1_555
C5 C22 1.397 1_555 1_555
C18 C19 1.511 1_555 1_555
C19 C20 1.423 1_555 1_555
C20 C21 1.472 1_555 1_555
C21 C22 1.422 1_555 1_555
#END
