
#######################################################################
#
#                 Cambridge Crystallographic Data Centre
#                                CCDC
#
#######################################################################
#
# If this CIF has been generated from an entry in the Cambridge
# Structural Database, then it will include bibliographic, chemical,
# crystal, experimental, refinement or atomic coordinate data resulting
# from the CCDC's data processing and validation procedures.
#
#######################################################################

data_CSD_CIF_IDAQOW
_audit_creation_date 2017-01-04
_audit_creation_method CSD-ConQuest-V1
_database_code_CSD IDAQOW
_database_code_depnum_ccdc_archive 'CCDC 1479105'
_chemical_formula_sum 'C21 H16'
_chemical_formula_moiety
;
C21 H16
;
_journal_coden_Cambridge 1220
_journal_volume 22
_journal_year 2016
_journal_page_first 14175
_journal_name_full 'Chem.-Eur.J. '
loop_
_publ_author_name
"Ning Sun"
"Xin Xie"
"Haoyi Chen"
"Yuanhong Liu"
_chemical_name_systematic
;
2-methyl-1-phenylanthracene
;
_cell_volume   1425.694
_exptl_crystal_colour 'yellow'
_exptl_crystal_density_diffrn 1.25
_exptl_crystal_description 'block'
_diffrn_ambient_temperature 130
#These two values have been output from a single CSD field.
_refine_ls_R_factor_gt 0.0578
_refine_ls_wR_factor_gt 0.0578
_symmetry_cell_setting monoclinic
_symmetry_space_group_name_H-M 'P 21/c'
_symmetry_Int_Tables_number 14
loop_
_symmetry_equiv_pos_site_id
_symmetry_equiv_pos_as_xyz
1 x,y,z
2 -x,1/2+y,1/2-z
3 -x,-y,-z
4 x,-1/2-y,-1/2+z
_cell_length_a 11.3684(14)
_cell_length_b 12.7420(15)
_cell_length_c 11.3304(14)
_cell_angle_alpha 90
_cell_angle_beta 119.698(2)
_cell_angle_gamma 90
_cell_formula_units_Z 4
loop_
_atom_type_symbol
_atom_type_radius_bond
C 0.68
H 0.23
loop_
_atom_site_label
_atom_site_type_symbol
_atom_site_fract_x
_atom_site_fract_y
_atom_site_fract_z
C1 C 0.3587(2) 0.44933(16) 0.2163(2)
H1 H 0.44000 0.42470 0.29780
H2 H 0.37500 0.51970 0.19250
H3 H 0.33710 0.40110 0.14080
C2 C 0.24192(18) 0.45311(13) 0.24347(18)
C3 C 0.13896(19) 0.52935(14) 0.17193(19)
H4 H 0.14770 0.57600 0.11130
C4 C 0.02923(19) 0.53707(14) 0.18805(18)
H5 H -0.03730 0.58900 0.13890
C5 C 0.01170(17) 0.46886(13) 0.27731(17)
C6 C -0.10109(17) 0.47572(13) 0.29502(18)
H6 H -0.16790 0.52750 0.24620
C7 C -0.11848(17) 0.40843(13) 0.38265(17)
C8 C -0.23165(17) 0.41562(14) 0.40383(18)
H7 H -0.29850 0.46790 0.35710
C9 C -0.24576(18) 0.34901(14) 0.48966(19)
H8 H -0.32210 0.35510 0.50230
C10 C -0.14713(18) 0.27038(14) 0.56051(19)
H9 H -0.15780 0.22390 0.62010
C11 C -0.03721(18) 0.26127(13) 0.54332(18)
H10 H 0.02800 0.20830 0.59140
C12 C -0.01801(17) 0.32970(13) 0.45461(17)
C13 C 0.09544(17) 0.32275(13) 0.43722(17)
H11 H 0.16130 0.27000 0.48480
C14 C 0.11437(16) 0.39150(12) 0.35145(16)
C15 C 0.23063(17) 0.38599(13) 0.33240(17)
C16 C 0.33900(17) 0.30674(13) 0.41058(18)
C17 C 0.35185(19) 0.21776(14) 0.3474(2)
H12 H 0.28960 0.20560 0.25400
C18 C 0.4558(2) 0.14613(15) 0.4203(2)
H13 H 0.46400 0.08550 0.37620
C19 C 0.54612(19) 0.16259(15) 0.5552(2)
H14 H 0.61690 0.11360 0.60420
C20 C 0.53407(19) 0.25060(16) 0.6197(2)
H15 H 0.59640 0.26220 0.71320
C21 C 0.43055(19) 0.32209(15) 0.54741(19)
H16 H 0.42230 0.38230 0.59220
loop_
_geom_bond_atom_site_label_1
_geom_bond_atom_site_label_2
_geom_bond_distance
_geom_bond_site_symmetry_1
_geom_bond_site_symmetry_2
C1 H1 0.980 1_555 1_555
H2 C1 0.980 1_555 1_555
H3 C1 0.981 1_555 1_555
C2 C1 1.505 1_555 1_555
C3 C2 1.425 1_555 1_555
H4 C3 0.950 1_555 1_555
C4 C3 1.351 1_555 1_555
H5 C4 0.950 1_555 1_555
C5 C4 1.420 1_555 1_555
C6 C5 1.395 1_555 1_555
H6 C6 0.950 1_555 1_555
C7 C6 1.398 1_555 1_555
C8 C7 1.424 1_555 1_555
H7 C8 0.950 1_555 1_555
C9 C8 1.359 1_555 1_555
H8 C9 0.950 1_555 1_555
C10 C9 1.419 1_555 1_555
H9 C10 0.950 1_555 1_555
C11 C10 1.362 1_555 1_555
H10 C11 0.950 1_555 1_555
C12 C7 1.433 1_555 1_555
C13 C12 1.401 1_555 1_555
H11 C13 0.950 1_555 1_555
C14 C5 1.438 1_555 1_555
C15 C2 1.375 1_555 1_555
C16 C15 1.497 1_555 1_555
C17 C16 1.387 1_555 1_555
H12 C17 0.950 1_555 1_555
C18 C17 1.395 1_555 1_555
H13 C18 0.949 1_555 1_555
C19 C18 1.371 1_555 1_555
H14 C19 0.950 1_555 1_555
C20 C19 1.382 1_555 1_555
H15 C20 0.950 1_555 1_555
C21 C16 1.388 1_555 1_555
H16 C21 0.950 1_555 1_555
C11 C12 1.427 1_555 1_555
C13 C14 1.402 1_555 1_555
C14 C15 1.443 1_555 1_555
C20 C21 1.389 1_555 1_555
#END
