
#######################################################################
#
#                 Cambridge Crystallographic Data Centre
#                                CCDC
#
#######################################################################
#
# If this CIF has been generated from an entry in the Cambridge
# Structural Database, then it will include bibliographic, chemical,
# crystal, experimental, refinement or atomic coordinate data resulting
# from the CCDC's data processing and validation procedures.
#
#######################################################################

data_CSD_CIF_IGAPOY
_audit_creation_date 2018-08-10
_audit_creation_method CSD-ConQuest-V1
_database_code_CSD IGAPOY
_database_code_depnum_ccdc_archive 'CCDC 1831316'
_chemical_formula_sum 'C28 H22'
_chemical_formula_moiety
;
C28 H22
;
_journal_coden_Cambridge 179
_journal_volume 57
_journal_year 2018
_journal_page_first 8848
_journal_name_full 'Angew.Chem.,Int.Ed. '
loop_
_publ_author_name
"Zhuangzhi Shi"
_chemical_name_systematic
;
1,6,8,13-tetramethyldibenzo[fg,op]tetracene
;
_cell_volume   1788.974
_exptl_crystal_density_diffrn 1.331
_diffrn_ambient_temperature 153
#These two values have been output from a single CSD field.
_refine_ls_R_factor_gt 0.0411
_refine_ls_wR_factor_gt 0.0411
_symmetry_cell_setting monoclinic
_symmetry_space_group_name_H-M 'P 21/c'
_symmetry_Int_Tables_number 14
loop_
_symmetry_equiv_pos_site_id
_symmetry_equiv_pos_as_xyz
1 x,y,z
2 -x,1/2+y,1/2-z
3 -x,-y,-z
4 x,-1/2-y,-1/2+z
_cell_length_a 13.3756(9)
_cell_length_b 7.5284(5)
_cell_length_c 18.9851(13)
_cell_angle_alpha 90
_cell_angle_beta 110.645(2)
_cell_angle_gamma 90
_cell_formula_units_Z 4
loop_
_atom_type_symbol
_atom_type_radius_bond
C 0.68
H 0.23
loop_
_atom_site_label
_atom_site_type_symbol
_atom_site_fract_x
_atom_site_fract_y
_atom_site_fract_z
C1 C 0.17506(11) 0.7476(2) 0.17464(8)
H1 H 0.17925 0.80207 0.12888
H2 H 0.14147 0.83095 0.19921
H3 H 0.13233 0.63875 0.16143
C2 C 0.28594(11) 0.70324(19) 0.22756(8)
C3 C 0.30464(12) 0.6588(2) 0.30234(8)
H4 H 0.24605 0.64929 0.31937
C4 C 0.40641(11) 0.6284(2) 0.35188(8)
H5 H 0.41718 0.60412 0.40314
C5 C 0.49509(11) 0.63234(17) 0.32834(8)
C6 C 0.47704(11) 0.66361(18) 0.25174(7)
C7 C 0.37239(11) 0.70561(18) 0.20361(8)
H6 H 0.36087 0.73668 0.15285
C8 C 0.56829(11) 0.65906(17) 0.22571(7)
C9 C 0.55671(11) 0.62728(18) 0.14993(7)
C10 C 0.64679(12) 0.64081(19) 0.12951(8)
H7 H 0.63955 0.61979 0.07860
C11 C 0.74569(11) 0.68348(19) 0.18046(8)
H8 H 0.80403 0.69945 0.16357
C12 C 0.76162(11) 0.70370(17) 0.25685(7)
C13 C 0.67329(11) 0.68219(17) 0.28046(7)
C14 C 0.69203(11) 0.66582(17) 0.36054(7)
C15 C 0.79757(11) 0.68081(17) 0.41569(7)
C16 C 0.88323(10) 0.74625(17) 0.39023(7)
C17 C 0.86632(11) 0.74795(17) 0.31212(8)
C18 C 0.95072(11) 0.8010(2) 0.28894(8)
H9 H 0.93985 0.80223 0.23672
C19 C 1.04848(11) 0.8511(2) 0.33958(8)
H10 H 1.10461 0.88182 0.32211
C20 C 1.06584(11) 0.85713(18) 0.41647(8)
C21 C 0.98260(11) 0.80895(18) 0.43966(8)
H11 H 0.99285 0.81857 0.49164
C22 C 1.17345(11) 0.9076(2) 0.47253(8)
H12 H 1.21978 0.80268 0.48506
H13 H 1.16475 0.95377 0.51829
H14 H 1.20583 0.99912 0.45072
C23 C 0.45503(11) 0.5668(2) 0.08896(8)
H15 H 0.41490 0.67071 0.06263
H16 H 0.41141 0.49948 0.11166
H17 H 0.47287 0.49112 0.05309
C24 C 0.60423(11) 0.61872(17) 0.38236(8)
C25 C 0.62513(11) 0.56815(19) 0.45654(8)
H18 H 0.56774 0.53210 0.47175
C26 C 0.72713(11) 0.56935(19) 0.50822(8)
H19 H 0.73858 0.52872 0.55783
C27 C 0.81469(11) 0.62770(18) 0.49098(7)
C28 C 0.92011(11) 0.6238(2) 0.55629(8)
H20 H 0.93863 0.74427 0.57617
H21 H 0.97613 0.57833 0.53897
H22 H 0.91380 0.54630 0.59599
loop_
_geom_bond_atom_site_label_1
_geom_bond_atom_site_label_2
_geom_bond_distance
_geom_bond_site_symmetry_1
_geom_bond_site_symmetry_2
C1 H1 0.980 1_555 1_555
H2 C1 0.980 1_555 1_555
H3 C1 0.980 1_555 1_555
C2 C1 1.507 1_555 1_555
C3 C2 1.393 1_555 1_555
H4 C3 0.950 1_555 1_555
C4 C3 1.374 1_555 1_555
H5 C4 0.950 1_555 1_555
C5 C4 1.408 1_555 1_555
C6 C5 1.407 1_555 1_555
C7 C2 1.384 1_555 1_555
H6 C7 0.950 1_555 1_555
C8 C6 1.470 1_555 1_555
C9 C8 1.412 1_555 1_555
C10 C9 1.393 1_555 1_555
H7 C10 0.950 1_555 1_555
C11 C10 1.373 1_555 1_555
H8 C11 0.950 1_555 1_555
C12 C11 1.398 1_555 1_555
C13 C8 1.433 1_555 1_555
C14 C13 1.456 1_555 1_555
C15 C14 1.435 1_555 1_555
C16 C15 1.476 1_555 1_555
C17 C12 1.462 1_555 1_555
C18 C17 1.406 1_555 1_555
H9 C18 0.950 1_555 1_555
C19 C18 1.375 1_555 1_555
H10 C19 0.950 1_555 1_555
C20 C19 1.396 1_555 1_555
C21 C16 1.411 1_555 1_555
H11 C21 0.950 1_555 1_555
C22 C20 1.506 1_555 1_555
H12 C22 0.980 1_555 1_555
H13 C22 0.980 1_555 1_555
H14 C22 0.980 1_555 1_555
C23 C9 1.512 1_555 1_555
H15 C23 0.980 1_555 1_555
H16 C23 0.980 1_555 1_555
H17 C23 0.980 1_555 1_555
C24 C5 1.462 1_555 1_555
C25 C24 1.389 1_555 1_555
H18 C25 0.950 1_555 1_555
C26 C25 1.371 1_555 1_555
H19 C26 0.950 1_555 1_555
C27 C15 1.423 1_555 1_555
C28 C27 1.514 1_555 1_555
H20 C28 0.980 1_555 1_555
H21 C28 0.980 1_555 1_555
H22 C28 0.980 1_555 1_555
C6 C7 1.411 1_555 1_555
C12 C13 1.413 1_555 1_555
C14 C24 1.421 1_555 1_555
C16 C17 1.419 1_555 1_555
C20 C21 1.382 1_555 1_555
C26 C27 1.394 1_555 1_555
#END
