
#######################################################################
#
#                 Cambridge Crystallographic Data Centre
#                                CCDC
#
#######################################################################
#
# If this CIF has been generated from an entry in the Cambridge
# Structural Database, then it will include bibliographic, chemical,
# crystal, experimental, refinement or atomic coordinate data resulting
# from the CCDC's data processing and validation procedures.
#
#######################################################################

data_CSD_CIF_IJUBOG
_audit_creation_date 2016-04-05
_audit_creation_method CSD-ConQuest-V1
_database_code_CSD IJUBOG
_database_code_depnum_ccdc_archive 'CCDC 1036129'
_chemical_formula_sum 'C24 H18'
_chemical_formula_moiety
;
C24 H18
;
_journal_coden_Cambridge 1475
_journal_volume 7
_journal_year 2016
_journal_page_first 4318
_journal_name_full 'Chemical Science '
loop_
_publ_author_name
"Gen-Qiang Chen"
"Wei Fang"
"Yin Wei"
"Xiang-Ying Tang"
"Min Shi"
_chemical_name_systematic
;
1-(Bicyclo[4.2.0]octa-3,5-dien-1-yl)pyrene
;
_cell_volume   1642.429
_exptl_crystal_colour 'colorless'
_exptl_crystal_density_diffrn 1.239
_exptl_crystal_description 'prismatic'
_diffrn_ambient_temperature 293
#These two values have been output from a single CSD field.
_refine_ls_R_factor_gt 0.0744
_refine_ls_wR_factor_gt 0.0744
_symmetry_cell_setting monoclinic
_symmetry_space_group_name_H-M 'P 21/n'
_symmetry_Int_Tables_number 14
loop_
_symmetry_equiv_pos_site_id
_symmetry_equiv_pos_as_xyz
1 x,y,z
2 1/2-x,1/2+y,1/2-z
3 -x,-y,-z
4 -1/2+x,-1/2-y,-1/2+z
_cell_length_a 7.4014(12)
_cell_length_b 11.2513(18)
_cell_length_c 19.726(3)
_cell_angle_alpha 90
_cell_angle_beta 91.021(4)
_cell_angle_gamma 90
_cell_formula_units_Z 4
loop_
_atom_type_symbol
_atom_type_radius_bond
C 0.68
H 0.23
loop_
_atom_site_label
_atom_site_type_symbol
_atom_site_fract_x
_atom_site_fract_y
_atom_site_fract_z
C1 C 0.4846(5) 0.3143(3) 0.08232(17)
C2 C 0.3405(5) 0.4015(3) 0.1109(2)
H1 H 0.28260 0.45010 0.07620
H2 H 0.25090 0.36250 0.13850
C3 C 0.4846(6) 0.4683(3) 0.1526(2)
H3 H 0.47890 0.55410 0.14800
H4 H 0.49220 0.44470 0.19980
C4 C 0.6207(6) 0.4106(3) 0.1088(2)
C5 C 0.7695(6) 0.4348(3) 0.0789(2)
H5 H 0.84220 0.49770 0.09310
C6 C 0.8208(6) 0.3592(4) 0.0211(2)
H6 H 0.94080 0.35640 0.00800
C7 C 0.6979(6) 0.2955(3) -0.01230(19)
H7 H 0.73430 0.24930 -0.04870
C8 C 0.5033(6) 0.2948(4) 0.0062(2)
H8 H 0.44930 0.21930 -0.00650
H9 H 0.43970 0.35720 -0.01830
C9 C 0.4970(4) 0.1976(3) 0.12122(16)
C10 C 0.6525(5) 0.1687(3) 0.15742(16)
H10 H 0.74910 0.22160 0.15740
C11 C 0.6695(5) 0.0641(3) 0.19366(16)
H11 H 0.77580 0.04880 0.21790
C12 C 0.5300(5) -0.0184(3) 0.19446(16)
C13 C 0.3699(4) 0.0065(3) 0.15702(15)
C14 C 0.3524(4) 0.1152(3) 0.11968(15)
C15 C 0.1872(5) 0.1353(3) 0.08325(17)
H12 H 0.17220 0.20620 0.05950
C16 C 0.0521(5) 0.0551(3) 0.08203(19)
H13 H -0.05310 0.07170 0.05730
C17 C 0.0669(5) -0.0551(3) 0.11797(18)
C18 C 0.2268(5) -0.0769(3) 0.15588(16)
C19 C 0.2458(6) -0.1863(3) 0.19311(19)
C20 C 0.1044(8) -0.2667(4) 0.1904(2)
H14 H 0.11450 -0.33770 0.21430
C21 C -0.0485(7) -0.2444(4) 0.1537(3)
H15 H -0.14080 -0.30050 0.15300
C22 C -0.0705(6) -0.1399(4) 0.1172(2)
H16 H -0.17650 -0.12640 0.09240
C23 C 0.5428(6) -0.1273(3) 0.23141(18)
H17 H 0.64760 -0.14320 0.25650
C24 C 0.4090(7) -0.2070(3) 0.2310(2)
H18 H 0.42220 -0.27690 0.25580
loop_
_geom_bond_atom_site_label_1
_geom_bond_atom_site_label_2
_geom_bond_distance
_geom_bond_site_symmetry_1
_geom_bond_site_symmetry_2
C1 C2 1.562 1_555 1_555
C2 H1 0.970 1_555 1_555
H2 C2 0.970 1_555 1_555
C3 C2 1.532 1_555 1_555
H3 C3 0.970 1_555 1_555
H4 C3 0.969 1_555 1_555
C4 C1 1.563 1_555 1_555
C5 C4 1.288 1_555 1_555
H5 C5 0.929 1_555 1_555
C6 C5 1.478 1_555 1_555
H6 C6 0.930 1_555 1_555
C7 C6 1.324 1_555 1_555
H7 C7 0.930 1_555 1_555
C8 C1 1.526 1_555 1_555
H8 C8 0.970 1_555 1_555
H9 C8 0.970 1_555 1_555
C9 C1 1.523 1_555 1_555
C10 C9 1.382 1_555 1_555
H10 C10 0.930 1_555 1_555
C11 C10 1.382 1_555 1_555
H11 C11 0.929 1_555 1_555
C12 C11 1.389 1_555 1_555
C13 C12 1.413 1_555 1_555
C14 C9 1.416 1_555 1_555
C15 C14 1.425 1_555 1_555
H12 C15 0.931 1_555 1_555
C16 C15 1.347 1_555 1_555
H13 C16 0.930 1_555 1_555
C17 C16 1.431 1_555 1_555
C18 C13 1.415 1_555 1_555
C19 C18 1.439 1_555 1_555
C20 C19 1.384 1_555 1_555
H14 C20 0.930 1_555 1_555
C21 C20 1.356 1_555 1_555
H15 C21 0.930 1_555 1_555
C22 C17 1.394 1_555 1_555
H16 C22 0.930 1_555 1_555
C23 C12 1.428 1_555 1_555
H17 C23 0.930 1_555 1_555
C24 C19 1.428 1_555 1_555
H18 C24 0.930 1_555 1_555
C3 C4 1.488 1_555 1_555
C7 C8 1.492 1_555 1_555
C13 C14 1.432 1_555 1_555
C17 C18 1.410 1_555 1_555
C21 C22 1.387 1_555 1_555
C23 C24 1.336 1_555 1_555
#END
