
#######################################################################
#
#                 Cambridge Crystallographic Data Centre
#                                CCDC
#
#######################################################################
#
# If this CIF has been generated from an entry in the Cambridge
# Structural Database, then it will include bibliographic, chemical,
# crystal, experimental, refinement or atomic coordinate data resulting
# from the CCDC's data processing and validation procedures.
#
#######################################################################

data_CSD_CIF_IQITEI
_audit_creation_date 2011-07-18
_audit_creation_method CSD-ConQuest-V1
_database_code_CSD IQITEI
_database_code_depnum_ccdc_archive 'CCDC 778536'
_chemical_formula_sum 'C46 H46'
_chemical_formula_moiety
;
C46 H46
;
_journal_coden_Cambridge 241
_journal_volume 39
_journal_year 2010
_journal_page_first 771
_journal_name_full 'Chem.Lett. '
loop_
_publ_author_name
"C.Kitamura"
"T.Naito"
"A.Yoneda"
"T.Kawase"
"T.Komatsu"
_chemical_name_systematic
;
6,13-Diphenyl-1,4,8,11-tetra-n-propylpentacene
;
_cell_volume    862.900
_exptl_crystal_colour 'dark purple'
_exptl_crystal_density_diffrn 1.152
_exptl_crystal_description 'prism'
_diffrn_ambient_temperature 223
#These two values have been output from a single CSD field.
_refine_ls_R_factor_gt 0.0785
_refine_ls_wR_factor_gt 0.0785
_symmetry_cell_setting triclinic
_symmetry_space_group_name_H-M 'P -1'
_symmetry_Int_Tables_number 2
loop_
_symmetry_equiv_pos_site_id
_symmetry_equiv_pos_as_xyz
1 x,y,z
2 -x,-y,-z
_cell_length_a 8.767(4)
_cell_length_b 10.208(4)
_cell_length_c 11.400(5)
_cell_angle_alpha 64.00(2)
_cell_angle_beta 73.12(2)
_cell_angle_gamma 73.54(2)
_cell_formula_units_Z 1
loop_
_atom_type_symbol
_atom_type_radius_bond
C 0.68
H 0.23
loop_
_atom_site_label
_atom_site_type_symbol
_atom_site_fract_x
_atom_site_fract_y
_atom_site_fract_z
C1 C 0.67813(19) 0.26552(18) 0.35573(16)
C2 C 0.6592(2) 0.12291(19) 0.39822(18)
H1 H 0.60570 0.09970 0.35110
C3 C 0.7178(2) 0.00737(19) 0.51203(18)
H2 H 0.69920 -0.08890 0.53880
C4 C 0.79956(19) 0.03194(17) 0.58288(16)
C5 C 0.83250(18) 0.18004(16) 0.53769(15)
C6 C 0.76783(18) 0.29784(17) 0.42523(15)
C7 C 0.79950(18) 0.43876(17) 0.38290(15)
H3 H 0.75470 0.51540 0.31140
C8 C 0.89593(17) 0.47262(16) 0.44215(14)
C9 C 0.92809(18) 0.61726(16) 0.39399(14)
C10 C 0.96640(17) 0.35368(16) 0.55092(14)
C11 C 0.92946(18) 0.21089(16) 0.59576(14)
H4 H 0.97250 0.13380 0.66800
C12 C 0.84773(19) 0.73804(16) 0.28510(15)
C13 C 0.9310(2) 0.7889(2) 0.15564(18)
H5 H 1.04170 0.74980 0.13570
C14 C 0.8534(3) 0.8972(3) 0.0540(2)
H6 H 0.91170 0.93080 -0.03390
C15 C 0.6919(3) 0.9552(2) 0.0820(2)
H7 H 0.63960 1.02920 0.01350
C16 C 0.6071(3) 0.9046(3) 0.2101(2)
H8 H 0.49620 0.94340 0.22910
C17 C 0.6835(2) 0.7964(2) 0.31224(19)
H9 H 0.62430 0.76260 0.39980
C18 C 0.6086(2) 0.38673(19) 0.23892(17)
H10 H 0.58170 0.34120 0.18930
H11 H 0.69170 0.44600 0.17950
C19 C 0.4576(2) 0.4894(2) 0.2773(2)
H12 H 0.36790 0.43440 0.32330
H13 H 0.47820 0.52250 0.33920
C20 C 0.4088(3) 0.6236(3) 0.1574(3)
H14 H 0.49790 0.67740 0.11070
H15 H 0.31490 0.68760 0.18630
H16 H 0.38240 0.59160 0.09820
C21 C 0.8564(2) -0.08890(17) 0.70602(16)
H17 H 0.81380 -0.05430 0.77910
H18 H 0.97490 -0.10340 0.68980
C22 C 0.8089(2) -0.23831(19) 0.75149(19)
H19 H 0.85260 -0.27540 0.68010
H20 H 0.69050 -0.22580 0.76910
C23 C 0.8715(3) -0.3515(2) 0.8762(2)
H21 H 0.98840 -0.36190 0.86000
H22 H 0.84340 -0.44630 0.89930
H23 H 0.82260 -0.31840 0.94890
C1A C 1.32187(19) 0.73448(18) 0.64427(16)
C2A C 1.3408(2) 0.87709(19) 0.60178(18)
H1A H 1.39430 0.90030 0.64890
C3A C 1.2822(2) 0.99263(19) 0.48797(18)
H2A H 1.30080 1.08890 0.46120
C4A C 1.20044(19) 0.96806(17) 0.41712(16)
C5A C 1.16750(18) 0.81996(16) 0.46231(15)
C6A C 1.23217(18) 0.70216(17) 0.57477(15)
C7A C 1.20050(18) 0.56124(17) 0.61710(15)
H3A H 1.24530 0.48460 0.68860
C8A C 1.10407(17) 0.52738(16) 0.55785(14)
C9A C 1.07191(18) 0.38274(16) 0.60601(14)
C10A C 1.03360(17) 0.64632(16) 0.44908(14)
C11A C 1.07054(18) 0.78911(16) 0.40424(14)
H4A H 1.02750 0.86620 0.33200
C12A C 1.15227(19) 0.26196(16) 0.71490(15)
C13A C 1.0690(2) 0.2111(2) 0.84436(18)
H5A H 0.95830 0.25020 0.86430
C14A C 1.1466(3) 0.1028(3) 0.9460(2)
H6A H 1.08830 0.06920 1.03390
C15A C 1.3081(3) 0.0448(2) 0.9180(2)
H7A H 1.36040 -0.02920 0.98650
C16A C 1.3929(3) 0.0954(3) 0.7899(2)
H8A H 1.50380 0.05660 0.77090
C17A C 1.3165(2) 0.2036(2) 0.68776(19)
H9A H 1.37570 0.23740 0.60020
C18A C 1.3914(2) 0.61327(19) 0.76108(17)
H10A H 1.41830 0.65880 0.81070
H11A H 1.30830 0.55400 0.82050
C19A C 1.5424(2) 0.5106(2) 0.7227(2)
H12A H 1.63210 0.56560 0.67670
H13A H 1.52180 0.47750 0.66080
C20A C 1.5912(3) 0.3764(3) 0.8426(3)
H14A H 1.50210 0.32260 0.88930
H15A H 1.68510 0.31240 0.81370
H16A H 1.61760 0.40840 0.90180
C21A C 1.1436(2) 1.08890(17) 0.29398(16)
H17A H 1.18620 1.05430 0.22090
H18A H 1.02510 1.10340 0.31020
C22A C 1.1911(2) 1.23831(19) 0.24851(19)
H19A H 1.14740 1.27540 0.31990
H20A H 1.30950 1.22580 0.23090
C23A C 1.1285(3) 1.3515(2) 0.1238(2)
H21A H 1.01160 1.36190 0.14000
H22A H 1.15660 1.44630 0.10070
H23A H 1.17740 1.31840 0.05110
loop_
_geom_bond_atom_site_label_1
_geom_bond_atom_site_label_2
_geom_bond_distance
_geom_bond_site_symmetry_1
_geom_bond_site_symmetry_2
C1 C2 1.361 1_555 1_555
C2 H1 0.941 1_555 1_555
C3 C2 1.428 1_555 1_555
H2 C3 0.940 1_555 1_555
C4 C3 1.358 1_555 1_555
C5 C4 1.453 1_555 1_555
C6 C1 1.447 1_555 1_555
C7 C6 1.385 1_555 1_555
H3 C7 0.940 1_555 1_555
C8 C7 1.411 1_555 1_555
C9 C8 1.413 1_555 1_555
C10 C8 1.447 1_555 1_555
C11 C5 1.386 1_555 1_555
H4 C11 0.940 1_555 1_555
C12 C9 1.494 1_555 1_555
C13 C12 1.378 1_555 1_555
H5 C13 0.941 1_555 1_555
C14 C13 1.391 1_555 1_555
H6 C14 0.940 1_555 1_555
C15 C14 1.373 1_555 1_555
H7 C15 0.941 1_555 1_555
C16 C15 1.370 1_555 1_555
H8 C16 0.940 1_555 1_555
C17 C12 1.393 1_555 1_555
H9 C17 0.940 1_555 1_555
C18 C1 1.508 1_555 1_555
H10 C18 0.981 1_555 1_555
H11 C18 0.980 1_555 1_555
C19 C18 1.524 1_555 1_555
H12 C19 0.980 1_555 1_555
H13 C19 0.981 1_555 1_555
C20 C19 1.515 1_555 1_555
H14 C20 0.970 1_555 1_555
H15 C20 0.969 1_555 1_555
H16 C20 0.971 1_555 1_555
C21 C4 1.510 1_555 1_555
H17 C21 0.980 1_555 1_555
H18 C21 0.980 1_555 1_555
C22 C21 1.520 1_555 1_555
H19 C22 0.979 1_555 1_555
H20 C22 0.980 1_555 1_555
C23 C22 1.520 1_555 1_555
H21 C23 0.970 1_555 1_555
H22 C23 0.970 1_555 1_555
H23 C23 0.971 1_555 1_555
C1A C2A 1.361 1_555 1_555
C2A H1A 0.941 1_555 1_555
C3A C2A 1.428 1_555 1_555
H2A C3A 0.940 1_555 1_555
C4A C3A 1.358 1_555 1_555
C5A C4A 1.453 1_555 1_555
C6A C1A 1.447 1_555 1_555
C7A C6A 1.385 1_555 1_555
H3A C7A 0.940 1_555 1_555
C8A C7A 1.411 1_555 1_555
C9A C10 1.412 1_555 1_555
C10A C9 1.412 1_555 1_555
C11A C5A 1.386 1_555 1_555
H4A C11A 0.940 1_555 1_555
C12A C9A 1.494 1_555 1_555
C13A C12A 1.378 1_555 1_555
H5A C13A 0.941 1_555 1_555
C14A C13A 1.391 1_555 1_555
H6A C14A 0.940 1_555 1_555
C15A C14A 1.373 1_555 1_555
H7A C15A 0.941 1_555 1_555
C16A C15A 1.370 1_555 1_555
H8A C16A 0.940 1_555 1_555
C17A C12A 1.393 1_555 1_555
H9A C17A 0.940 1_555 1_555
C18A C1A 1.508 1_555 1_555
H10A C18A 0.981 1_555 1_555
H11A C18A 0.980 1_555 1_555
C19A C18A 1.524 1_555 1_555
H12A C19A 0.980 1_555 1_555
H13A C19A 0.981 1_555 1_555
C20A C19A 1.515 1_555 1_555
H14A C20A 0.970 1_555 1_555
H15A C20A 0.969 1_555 1_555
H16A C20A 0.971 1_555 1_555
C21A C4A 1.510 1_555 1_555
H17A C21A 0.980 1_555 1_555
H18A C21A 0.980 1_555 1_555
C22A C21A 1.520 1_555 1_555
H19A C22A 0.979 1_555 1_555
H20A C22A 0.980 1_555 1_555
C23A C22A 1.520 1_555 1_555
H21A C23A 0.970 1_555 1_555
H22A C23A 0.970 1_555 1_555
H23A C23A 0.971 1_555 1_555
C5 C6 1.447 1_555 1_555
C10 C11 1.417 1_555 1_555
C16 C17 1.389 1_555 1_555
C5A C6A 1.447 1_555 1_555
C8A C9A 1.413 1_555 1_555
C8A C10A 1.447 1_555 1_555
C10A C11A 1.417 1_555 1_555
C16A C17A 1.389 1_555 1_555
#END
