
#######################################################################
#
#                 Cambridge Crystallographic Data Centre
#                                CCDC
#
#######################################################################
#
# If this CIF has been generated from an entry in the Cambridge
# Structural Database, then it will include bibliographic, chemical,
# crystal, experimental, refinement or atomic coordinate data resulting
# from the CCDC's data processing and validation procedures.
#
#######################################################################

data_CSD_CIF_JUZFAN01
_audit_creation_date 2015-12-10
_audit_creation_method CSD-ConQuest-V1
_database_code_CSD JUZFAN01
_database_code_depnum_ccdc_archive 'CCDC 1037061'
_chemical_formula_sum 'C38 H26'
_chemical_formula_moiety
;
C38 H26
;
_journal_coden_Cambridge 983
_journal_volume 119
_journal_year 2015
_journal_page_first 18602
_journal_name_full 'J.Phys.Chem.C '
loop_
_publ_author_name
"Ye-Xin Li"
"Jin-Xing Qiu"
"Jin-Ling Miao"
"Zhen-Wei Zhang"
"Xiao-Feng Yang"
"Guo-Xin Sun"
_chemical_name_systematic
;
9-(2-(3-(2-(9-Anthryl)vinyl)phenyl)vinyl)phenanthrene
;
_cell_volume   1270.029
_exptl_crystal_density_diffrn 1.262
_exptl_special_details
;
beta polymorph

;
_diffrn_ambient_temperature 293.1
#These two values have been output from a single CSD field.
_refine_ls_R_factor_gt 0.0456
_refine_ls_wR_factor_gt 0.0456
_symmetry_cell_setting monoclinic
_symmetry_space_group_name_H-M 'P 21'
_symmetry_Int_Tables_number 4
loop_
_symmetry_equiv_pos_site_id
_symmetry_equiv_pos_as_xyz
1 x,y,z
2 -x,1/2+y,-z
_cell_length_a 10.9201(6)
_cell_length_b 5.6944(2)
_cell_length_c 20.5440(11)
_cell_angle_alpha 90
_cell_angle_beta 96.198(5)
_cell_angle_gamma 90
_cell_formula_units_Z 2
loop_
_atom_type_symbol
_atom_type_radius_bond
C 0.68
H 0.23
loop_
_atom_site_label
_atom_site_type_symbol
_atom_site_fract_x
_atom_site_fract_y
_atom_site_fract_z
C1 C 0.2292(2) 1.1781(5) 0.13882(13)
C2 C 0.2010(2) 1.3555(5) 0.08852(13)
C3 C 0.4744(3) -0.4207(5) 0.41634(14)
C4 C 0.3686(4) -0.5512(6) 0.42878(17)
H1 H 0.37830 -0.68510 0.45480
C5 C 0.5929(3) -0.4902(6) 0.44009(14)
H2 H 0.60300 -0.62690 0.46490
C6 C 0.1629(3) 1.1760(6) 0.19063(14)
H3 H 0.17890 1.05810 0.22170
C7 C 0.3355(3) -0.1528(7) 0.35148(15)
H4 H 0.32240 -0.01860 0.32590
C8 C 0.9163(3) -0.2988(7) 0.44643(16)
H5 H 0.99430 -0.34510 0.46450
C9 C 0.2554(4) -0.4862(8) 0.4040(2)
H6 H 0.18780 -0.57520 0.41300
C10 C 0.2373(3) -0.2834(8) 0.36430(19)
H7 H 0.15830 -0.24000 0.34710
C11 C 0.0698(2) 1.3441(6) 0.20050(14)
C12 C 0.6958(3) -0.3643(5) 0.42823(13)
C13 C 0.6506(3) 0.3406(6) 0.16215(14)
H8 H 0.71450 0.23370 0.16020
C14 C 0.4832(2) 0.4910(5) 0.21337(13)
H9 H 0.43300 0.48420 0.24710
C15 C 0.5787(2) 0.3286(5) 0.21249(12)
C16 C 0.1463(3) 1.6965(6) -0.00812(15)
H10 H 0.12850 1.81040 -0.04020
C17 C 0.9014(3) -0.0900(6) 0.40943(15)
H11 H 0.97000 0.00140 0.40380
C18 C 0.6001(3) 0.1421(5) 0.26213(13)
H12 H 0.66100 0.03330 0.25550
C19 C 0.7888(3) -0.0202(6) 0.38187(14)
H13 H 0.78200 0.11890 0.35800
C20 C 0.3304(3) 1.0108(6) 0.13359(14)
H14 H 0.38120 1.04160 0.10110
C21 C 0.4605(2) 0.6628(5) 0.16542(13)
C22 C 0.0829(3) 1.6942(5) 0.04542(15)
H15 H 0.02130 1.80490 0.04890
C23 C 0.0070(3) 1.3391(7) 0.25626(16)
H16 H 0.02320 1.21840 0.28650
C24 C 0.5629(3) -0.0880(5) 0.36077(13)
C25 C 0.6817(3) -0.1536(5) 0.38852(13)
C26 C 0.8171(3) -0.4310(6) 0.45543(15)
H17 H 0.82760 -0.56840 0.47980
C27 C 0.6293(3) 0.5117(7) 0.11344(16)
H18 H 0.67960 0.51910 0.07970
C28 C 0.0445(2) 1.5246(5) 0.15359(14)
C29 C 0.5350(3) 0.6679(6) 0.11516(14)
H19 H 0.52060 0.77920 0.08210
C30 C 0.3572(3) 0.8243(5) 0.16923(13)
H20 H 0.30460 0.79000 0.20070
C31 C 0.2625(3) 1.3643(6) 0.03234(13)
H21 H 0.32300 1.25300 0.02700
C32 C 0.4589(3) -0.2148(5) 0.37605(13)
C33 C 0.1090(2) 1.5262(5) 0.09600(13)
C34 C 0.5433(3) 0.1115(5) 0.31431(13)
H22 H 0.48580 0.22440 0.32310
C35 C 0.2366(3) 1.5319(6) -0.01534(15)
H23 H 0.27950 1.53430 -0.05210
C36 C -0.0417(3) 1.6973(6) 0.16738(17)
H24 H -0.05890 1.82110 0.13830
C37 C -0.1000(3) 1.6853(7) 0.22261(19)
H25 H -0.15670 1.80110 0.23030
C38 C -0.0771(3) 1.5058(8) 0.26745(18)
H26 H -0.11850 1.49930 0.30470
loop_
_geom_bond_atom_site_label_1
_geom_bond_atom_site_label_2
_geom_bond_distance
_geom_bond_site_symmetry_1
_geom_bond_site_symmetry_2
C1 C2 1.454 1_555 1_555
C2 C31 1.397 1_555 1_555
C3 C4 1.420 1_555 1_555
C4 H1 0.931 1_555 1_555
C5 C3 1.390 1_555 1_555
H2 C5 0.930 1_555 1_555
C6 C1 1.350 1_555 1_555
H3 C6 0.930 1_555 1_555
C7 H4 0.930 1_555 1_555
C8 H5 0.930 1_555 1_555
C9 C4 1.337 1_555 1_555
H6 C9 0.930 1_555 1_555
C10 C7 1.354 1_555 1_555
H7 C10 0.930 1_555 1_555
C11 C6 1.427 1_555 1_555
C12 C5 1.377 1_555 1_555
C13 H8 0.930 1_555 1_555
C14 H9 0.930 1_555 1_555
C15 C13 1.366 1_555 1_555
C16 H10 0.930 1_555 1_555
C17 C8 1.411 1_555 1_555
H11 C17 0.930 1_555 1_555
C18 C15 1.473 1_555 1_555
H12 C18 0.930 1_555 1_555
C19 C17 1.357 1_555 1_555
H13 C19 0.930 1_555 1_555
C20 C1 1.472 1_555 1_555
H14 C20 0.930 1_555 1_555
C21 C14 1.391 1_555 1_555
C22 C16 1.362 1_555 1_555
H15 C22 0.930 1_555 1_555
C23 C11 1.397 1_555 1_555
H16 C23 0.931 1_555 1_555
C24 C25 1.410 1_555 1_555
C25 C12 1.450 1_555 1_555
C26 C8 1.348 1_555 1_555
H17 C26 0.929 1_555 1_555
C27 C13 1.398 1_555 1_555
H18 C27 0.931 1_555 1_555
C28 C11 1.416 1_555 1_555
C29 C21 1.382 1_555 1_555
H19 C29 0.930 1_555 1_555
C30 C20 1.305 1_555 1_555
H20 C30 0.931 1_555 1_555
C31 H21 0.931 1_555 1_555
C32 C3 1.435 1_555 1_555
C33 C2 1.418 1_555 1_555
C34 C18 1.307 1_555 1_555
H22 C34 0.930 1_555 1_555
C35 C16 1.380 1_555 1_555
H23 C35 0.931 1_555 1_555
C36 C28 1.411 1_555 1_555
H24 C36 0.930 1_555 1_555
C37 C36 1.361 1_555 1_555
H25 C37 0.930 1_555 1_555
C38 C23 1.358 1_555 1_555
H26 C38 0.931 1_555 1_555
C7 C32 1.431 1_555 1_555
C9 C10 1.415 1_555 1_555
C12 C26 1.432 1_555 1_555
C14 C15 1.395 1_555 1_555
C19 C25 1.414 1_555 1_555
C21 C30 1.464 1_555 1_555
C22 C33 1.419 1_555 1_555
C24 C32 1.409 1_555 1_555
C24 C34 1.484 1_555 1_555
C27 C29 1.364 1_555 1_555
C28 C33 1.441 1_555 1_555
C31 C35 1.375 1_555 1_555
C37 C38 1.381 1_555 1_555
#END
