
#######################################################################
#
#                 Cambridge Crystallographic Data Centre
#                                CCDC
#
#######################################################################
#
# If this CIF has been generated from an entry in the Cambridge
# Structural Database, then it will include bibliographic, chemical,
# crystal, experimental, refinement or atomic coordinate data resulting
# from the CCDC's data processing and validation procedures.
#
#######################################################################

data_CSD_CIF_KAGFUV
_audit_creation_date 2010-11-24
_audit_creation_method CSD-ConQuest-V1
_database_code_CSD KAGFUV
_database_code_depnum_ccdc_archive 'CCDC 762791'
_chemical_formula_sum 'C36 H20'
_chemical_formula_moiety
;
C36 H20
;
_journal_coden_Cambridge 179
_journal_volume 49
_journal_year 2010
_journal_page_first 7059
_journal_name_full 'Angew.Chem.,Int.Ed. '
loop_
_publ_author_name
"Tsun-Cheng Wu"
"Chia-Hua Chen"
"D.Hibi"
"A.Shimizu"
"Y.Tobe"
"Yao-Ting Wu"
_chemical_name_systematic
;
11-Phenylbenzo[a]naphtho[2,1,8-cde]perylene
;
_cell_volume   4474.631
_exptl_crystal_colour 'red'
_exptl_crystal_density_diffrn 1.344
_exptl_crystal_description 'columnar'
_exptl_crystal_preparation 'dichloromethane/methanol'
_diffrn_ambient_temperature 295
#These two values have been output from a single CSD field.
_refine_ls_R_factor_gt 0.0568
_refine_ls_wR_factor_gt 0.0568
_symmetry_cell_setting orthorhombic
_symmetry_space_group_name_H-M 'P b c a'
_symmetry_Int_Tables_number 61
loop_
_symmetry_equiv_pos_site_id
_symmetry_equiv_pos_as_xyz
1 x,y,z
2 1/2-x,-y,1/2+z
3 -x,1/2+y,1/2-z
4 1/2+x,1/2-y,-z
5 -x,-y,-z
6 -1/2+x,y,-1/2-z
7 x,-1/2-y,-1/2+z
8 -1/2-x,-1/2+y,z
_cell_length_a 12.235(2)
_cell_length_b 15.726(3)
_cell_length_c 23.256(4)
_cell_angle_alpha 90
_cell_angle_beta 90
_cell_angle_gamma 90
_cell_formula_units_Z 8
loop_
_atom_type_symbol
_atom_type_radius_bond
C 0.68
H 0.23
loop_
_atom_site_label
_atom_site_type_symbol
_atom_site_fract_x
_atom_site_fract_y
_atom_site_fract_z
C1 C 0.39234(15) 0.96983(11) 0.17741(8)
C2 C 0.29531(15) 1.01912(11) 0.16313(8)
C3 C 0.25735(17) 1.02577(13) 0.10685(9)
H1 H 0.29500 0.99850 0.07740
C4 C 0.16417(19) 1.07257(14) 0.09399(10)
H2 H 0.14060 1.07660 0.05610
C5 C 0.10665(17) 1.11279(13) 0.13657(10)
H3 H 0.04370 1.14300 0.12730
C6 C 0.14138(15) 1.10885(12) 0.19354(9)
C7 C 0.08466(16) 1.15060(12) 0.23882(10)
H4 H 0.02090 1.18050 0.23070
C8 C 0.12168(16) 1.14755(13) 0.29341(10)
H5 H 0.08400 1.17690 0.32190
C9 C 0.21737(15) 1.10028(11) 0.30866(9)
C10 C 0.25763(16) 1.09649(12) 0.36657(8)
C11 C 0.21958(18) 1.15265(14) 0.40977(10)
H6 H 0.16630 1.19260 0.40050
C12 C 0.2590(2) 1.14969(15) 0.4645(1)
H7 H 0.23140 1.18620 0.49240
C13 C 0.34077(18) 1.09180(14) 0.47851(9)
H8 H 0.36920 1.09070 0.51560
C14 C 0.37924(17) 1.03688(13) 0.43833(8)
H9 H 0.43440 0.99910 0.44840
C15 C 0.33768(15) 1.03544(11) 0.38128(8)
C16 C 0.38121(14) 0.98008(11) 0.33723(8)
C17 C 0.44701(15) 0.90499(12) 0.35070(8)
C18 C 0.43780(16) 0.85959(13) 0.40180(8)
H10 H 0.38290 0.87370 0.42780
C19 C 0.50996(19) 0.79287(13) 0.41494(9)
H11 H 0.50160 0.76270 0.44900
C20 C 0.59207(18) 0.77217(13) 0.37804(10)
H12 H 0.64270 0.73090 0.38840
C21 C 0.60097(16) 0.81263(12) 0.32440(9)
C22 C 0.68364(17) 0.79156(13) 0.28472(10)
H13 H 0.73450 0.74980 0.29410
C23 C 0.69006(16) 0.83118(13) 0.23328(10)
H14 H 0.74850 0.81980 0.20890
C24 C 0.60946(15) 0.88933(13) 0.21631(9)
H15 H 0.61490 0.91530 0.18050
C25 C 0.52172(14) 0.90910(11) 0.25172(8)
C26 C 0.42464(14) 0.95974(10) 0.23369(8)
C27 C 0.23728(14) 1.06142(11) 0.20736(8)
C28 C 0.27306(14) 1.05546(11) 0.26533(8)
C29 C 0.36074(13) 0.99858(11) 0.27962(8)
C30 C 0.52271(14) 0.87590(11) 0.30872(8)
C31 C 0.45257(15) 0.93244(12) 0.12761(8)
C32 C 0.44703(18) 0.84675(13) 0.11472(9)
H16 H 0.40130 0.81140 0.13590
C33 C 0.5087(2) 0.81335(15) 0.07075(10)
H17 H 0.50420 0.75560 0.06250
C34 C 0.5770(2) 0.86452(16) 0.03877(10)
H18 H 0.61990 0.84120 0.00980
C35 C 0.58118(18) 0.94997(15) 0.05006(9)
H19 H 0.62630 0.98500 0.02830
C36 C 0.51850(17) 0.98420(14) 0.09366(8)
H20 H 0.52040 1.04250 0.10040
loop_
_geom_bond_atom_site_label_1
_geom_bond_atom_site_label_2
_geom_bond_distance
_geom_bond_site_symmetry_1
_geom_bond_site_symmetry_2
C1 C2 1.456 1_555 1_555
C2 C3 1.393 1_555 1_555
C3 H1 0.930 1_555 1_555
C4 C3 1.390 1_555 1_555
H2 C4 0.929 1_555 1_555
C5 C4 1.370 1_555 1_555
H3 C5 0.930 1_555 1_555
C6 C5 1.393 1_555 1_555
C7 C6 1.422 1_555 1_555
H4 C7 0.930 1_555 1_555
C8 C7 1.349 1_555 1_555
H5 C8 0.930 1_555 1_555
C9 C8 1.431 1_555 1_555
C10 C9 1.435 1_555 1_555
C11 C10 1.416 1_555 1_555
H6 C11 0.931 1_555 1_555
C12 C11 1.362 1_555 1_555
H7 C12 0.930 1_555 1_555
C13 C12 1.391 1_555 1_555
H8 C13 0.930 1_555 1_555
C14 C13 1.357 1_555 1_555
H9 C14 0.929 1_555 1_555
C15 C10 1.414 1_555 1_555
C16 C15 1.446 1_555 1_555
C17 C16 1.463 1_555 1_555
C18 C17 1.391 1_555 1_555
H10 C18 0.931 1_555 1_555
C19 C18 1.405 1_555 1_555
H11 C19 0.929 1_555 1_555
C20 C19 1.361 1_555 1_555
H12 C20 0.929 1_555 1_555
C21 C20 1.405 1_555 1_555
C22 C21 1.409 1_555 1_555
H13 C22 0.931 1_555 1_555
C23 C22 1.351 1_555 1_555
H14 C23 0.930 1_555 1_555
C24 C23 1.402 1_555 1_555
H15 C24 0.930 1_555 1_555
C25 C24 1.388 1_555 1_555
C26 C1 1.376 1_555 1_555
C27 C2 1.416 1_555 1_555
C28 C9 1.406 1_555 1_555
C29 C16 1.394 1_555 1_555
C30 C17 1.421 1_555 1_555
C31 C1 1.493 1_555 1_555
C32 C31 1.382 1_555 1_555
H16 C32 0.930 1_555 1_555
C33 C32 1.375 1_555 1_555
H17 C33 0.930 1_555 1_555
C34 C33 1.378 1_555 1_555
H18 C34 0.929 1_555 1_555
C35 C34 1.370 1_555 1_555
H19 C35 0.930 1_555 1_555
C36 C31 1.392 1_555 1_555
H20 C36 0.930 1_555 1_555
C6 C27 1.427 1_555 1_555
C14 C15 1.421 1_555 1_555
C21 C30 1.428 1_555 1_555
C25 C26 1.490 1_555 1_555
C25 C30 1.425 1_555 1_555
C26 C29 1.458 1_555 1_555
C27 C28 1.421 1_555 1_555
C28 C29 1.436 1_555 1_555
C35 C36 1.381 1_555 1_555
#END
