
#######################################################################
#
#                 Cambridge Crystallographic Data Centre
#                                CCDC
#
#######################################################################
#
# If this CIF has been generated from an entry in the Cambridge
# Structural Database, then it will include bibliographic, chemical,
# crystal, experimental, refinement or atomic coordinate data resulting
# from the CCDC's data processing and validation procedures.
#
#######################################################################

data_CSD_CIF_KAGGOQ
_audit_creation_date 2010-11-24
_audit_creation_method CSD-ConQuest-V1
_database_code_CSD KAGGOQ
_database_code_depnum_ccdc_archive 'CCDC 771823'
_chemical_formula_sum 'C24 H20'
_chemical_formula_moiety
;
C24 H20
;
_journal_coden_Cambridge 179
_journal_volume 49
_journal_year 2010
_journal_page_first 7059
_journal_name_full 'Angew.Chem.,Int.Ed. '
loop_
_publ_author_name
"Tsun-Cheng Wu"
"Chia-Hua Chen"
"D.Hibi"
"A.Shimizu"
"Y.Tobe"
"Yao-Ting Wu"
_chemical_name_systematic
;
4,5,6,11,12,13-Hexahydrodibenzo[de,mn]tetracene
;
_cell_volume    799.898
_exptl_crystal_colour 'yellow'
_exptl_crystal_density_diffrn 1.28
_exptl_crystal_description 'columnar'
_diffrn_ambient_temperature 296
#These two values have been output from a single CSD field.
_refine_ls_R_factor_gt 0.0445
_refine_ls_wR_factor_gt 0.0445
_symmetry_cell_setting monoclinic
_symmetry_space_group_name_H-M 'P 21/c'
_symmetry_Int_Tables_number 14
loop_
_symmetry_equiv_pos_site_id
_symmetry_equiv_pos_as_xyz
1 x,y,z
2 -x,1/2+y,1/2-z
3 -x,-y,-z
4 x,-1/2-y,-1/2+z
_cell_length_a 7.9800(3)
_cell_length_b 14.4187(6)
_cell_length_c 7.4057(3)
_cell_angle_alpha 90
_cell_angle_beta 110.161(2)
_cell_angle_gamma 90
_cell_formula_units_Z 2
loop_
_atom_type_symbol
_atom_type_radius_bond
C 0.68
H 0.23
loop_
_atom_site_label
_atom_site_type_symbol
_atom_site_fract_x
_atom_site_fract_y
_atom_site_fract_z
C1 C -0.2729(3) 0.16669(12) 0.8567(3)
H1 H -0.31440 0.20010 0.94010
C2 C -0.3918(2) 0.14042(12) 0.6765(3)
H2 H -0.51150 0.15700 0.64110
C3 C -0.3351(2) 0.09100(12) 0.5524(2)
H3 H -0.41680 0.07410 0.43340
C4 C -0.15513(19) 0.06499(10) 0.60070(19)
C5 C 0.09072(18) -0.01134(10) 0.52847(19)
C6 C 0.20764(19) 0.01964(11) 0.7108(2)
H4 H 0.32840 0.00540 0.74630
C7 C 0.1515(2) 0.06878(11) 0.83482(19)
C8 C -0.03356(19) 0.09238(10) 0.78331(19)
C9 C -0.0955(2) 0.14362(11) 0.9119(2)
C10 C 0.2186(3) 0.18326(14) 1.1048(2)
H5 H 0.29880 0.19560 1.23460
H6 H 0.22180 0.23630 1.02570
C11 C 0.2808(2) 0.09889(14) 1.0284(2)
H7 H 0.29660 0.04850 1.11950
H8 H 0.39590 0.11180 1.01660
C12 C 0.0332(3) 0.17092(13) 1.1063(2)
H9 H -0.00650 0.22840 1.14630
H10 H 0.03360 0.12350 1.19930
C1B C 0.2729(3) -0.16669(12) 0.1433(3)
H1B H 0.31440 -0.20010 0.05990
C2B C 0.3918(2) -0.14042(12) 0.3235(3)
H2B H 0.51150 -0.15700 0.35890
C3B C 0.3351(2) -0.09100(12) 0.4476(2)
H3B H 0.41680 -0.07410 0.56660
C4B C 0.15513(19) -0.06499(10) 0.39930(19)
C5B C -0.09072(18) 0.01134(10) 0.47153(19)
C6B C -0.20764(19) -0.01964(11) 0.2892(2)
H4B H -0.32840 -0.00540 0.25370
C7B C -0.1515(2) -0.06878(11) 0.16518(19)
C8B C 0.03356(19) -0.09238(10) 0.21669(19)
C9B C 0.0955(2) -0.14362(11) 0.0881(2)
C10B C -0.2186(3) -0.18326(14) -0.1048(2)
H5B H -0.29880 -0.19560 -0.23460
H6B H -0.22180 -0.23630 -0.02570
C11B C -0.2808(2) -0.09889(14) -0.0284(2)
H7B H -0.29660 -0.04850 -0.11950
H8B H -0.39590 -0.11180 -0.01660
C12B C -0.0332(3) -0.17092(13) -0.1063(2)
H9B H 0.00650 -0.22840 -0.14630
H10B H -0.03360 -0.12350 -0.19930
loop_
_geom_bond_atom_site_label_1
_geom_bond_atom_site_label_2
_geom_bond_distance
_geom_bond_site_symmetry_1
_geom_bond_site_symmetry_2
C1 H1 0.930 1_555 1_555
C2 C1 1.397 1_555 1_555
H2 C2 0.930 1_555 1_555
C3 C2 1.358 1_555 1_555
H3 C3 0.930 1_555 1_555
C4 C3 1.406 1_555 1_555
C5 C6 1.423 1_555 1_555
C6 H4 0.930 1_555 1_555
C7 C6 1.353 1_555 1_555
C8 C4 1.422 1_555 1_555
C9 C1 1.372 1_555 1_555
C10 H5 0.970 1_555 1_555
H6 C10 0.969 1_555 1_555
C11 C7 1.513 1_555 1_555
H7 C11 0.970 1_555 1_555
H8 C11 0.970 1_555 1_555
C12 C9 1.504 1_555 1_555
H9 C12 0.969 1_555 1_555
H10 C12 0.970 1_555 1_555
C1B H1B 0.930 1_555 1_555
C2B C1B 1.397 1_555 1_555
H2B C2B 0.930 1_555 1_555
C3B C2B 1.358 1_555 1_555
H3B C3B 0.930 1_555 1_555
C4B C5 1.455 1_555 1_555
C5B C4 1.455 1_555 1_555
C6B C5B 1.423 1_555 1_555
H4B C6B 0.930 1_555 1_555
C7B C6B 1.353 1_555 1_555
C8B C4B 1.422 1_555 1_555
C9B C1B 1.372 1_555 1_555
C10B H5B 0.970 1_555 1_555
H6B C10B 0.969 1_555 1_555
C11B C7B 1.513 1_555 1_555
H7B C11B 0.970 1_555 1_555
H8B C11B 0.970 1_555 1_555
C12B C9B 1.504 1_555 1_555
H9B C12B 0.969 1_555 1_555
H10B C12B 0.970 1_555 1_555
C5 C5B 1.400 1_555 1_555
C7 C8 1.433 1_555 1_555
C8 C9 1.422 1_555 1_555
C10 C11 1.497 1_555 1_555
C10 C12 1.494 1_555 1_555
C3B C4B 1.406 1_555 1_555
C7B C8B 1.433 1_555 1_555
C8B C9B 1.422 1_555 1_555
C10B C11B 1.497 1_555 1_555
C10B C12B 1.494 1_555 1_555
#END
