
#######################################################################
#
#                 Cambridge Crystallographic Data Centre
#                                CCDC
#
#######################################################################
#
# If this CIF has been generated from an entry in the Cambridge
# Structural Database, then it will include bibliographic, chemical,
# crystal, experimental, refinement or atomic coordinate data resulting
# from the CCDC's data processing and validation procedures.
#
#######################################################################

data_CSD_CIF_KAQKUK
_audit_creation_date 2012-03-13
_audit_creation_method CSD-ConQuest-V1
_database_code_CSD KAQKUK
_database_code_depnum_ccdc_archive 'CCDC 867117'
_chemical_formula_sum 'C22 H14'
_chemical_formula_moiety
;
C22 H14
;
_journal_coden_Cambridge 4
_journal_volume 133
_journal_year 2011
_journal_page_first 10716
_journal_name_full 'J.Am.Chem.Soc. '
loop_
_publ_author_name
"K.Mochida"
"K.Kawasumi"
"Y.Segawa"
"K.Itami"
_chemical_name_systematic
;
4-Phenylpyrene
;
_cell_volume    692.245
_exptl_crystal_colour 'colorless'
_exptl_crystal_density_diffrn 1.335
_exptl_crystal_description 'block'
_diffrn_ambient_temperature 103
#These two values have been output from a single CSD field.
_refine_ls_R_factor_gt 0.0599
_refine_ls_wR_factor_gt 0.0599
_symmetry_cell_setting triclinic
_symmetry_space_group_name_H-M 'P -1'
_symmetry_Int_Tables_number 2
loop_
_symmetry_equiv_pos_site_id
_symmetry_equiv_pos_as_xyz
1 x,y,z
2 -x,-y,-z
_cell_length_a 5.739(3)
_cell_length_b 10.225(6)
_cell_length_c 12.543(7)
_cell_angle_alpha 82.33(2)
_cell_angle_beta 77.27(2)
_cell_angle_gamma 75.35(2)
_cell_formula_units_Z 2
loop_
_atom_type_symbol
_atom_type_radius_bond
C 0.68
H 0.23
loop_
_atom_site_label
_atom_site_type_symbol
_atom_site_fract_x
_atom_site_fract_y
_atom_site_fract_z
C1 C 0.5060(4) 0.2580(2) 0.43903(17)
C2 C 0.6945(4) 0.3177(2) 0.38023(17)
H1 H 0.77020 0.36570 0.41720
C3 C 0.7715(4) 0.3076(2) 0.26881(18)
H2 H 0.89850 0.34970 0.22950
C4 C 0.6656(4) 0.2368(2) 0.21379(17)
H3 H 0.72070 0.22920 0.13720
C5 C 0.4797(4) 0.1773(2) 0.27086(18)
H4 H 0.40620 0.12870 0.23330
C6 C 0.3991(4) 0.1876(2) 0.38216(17)
H5 H 0.27000 0.14650 0.42050
C7 C 0.4123(4) 0.2712(2) 0.55898(17)
C8 C 0.1809(4) 0.3456(2) 0.59478(17)
H6 H 0.08220 0.38730 0.54230
C9 C 0.0813(4) 0.3633(2) 0.70846(18)
C10 C -0.1535(4) 0.4420(2) 0.74459(19)
H7 H -0.25340 0.48430 0.69280
C11 C -0.2424(4) 0.4593(2) 0.85454(19)
H8 H -0.40170 0.51420 0.87760
C12 C -0.1002(4) 0.3968(2) 0.93183(19)
H9 H -0.16340 0.40980 1.00730
C13 C 0.1346(4) 0.3151(2) 0.89990(18)
C14 C 0.2845(4) 0.2458(2) 0.97723(18)
H10 H 0.22380 0.25500 1.05330
C15 C 0.5107(4) 0.1675(2) 0.94340(18)
H11 H 0.60480 0.12200 0.99660
C16 C 0.6125(4) 0.1513(2) 0.82969(18)
C17 C 0.8493(4) 0.0727(2) 0.79344(18)
H12 H 0.94740 0.02810 0.84550
C18 C 0.9408(4) 0.0594(2) 0.68352(18)
H13 H 1.10120 0.00570 0.66020
C19 C 0.8000(4) 0.1241(2) 0.60634(18)
H14 H 0.86590 0.11350 0.53080
C20 C 0.5645(4) 0.2042(2) 0.63703(17)
C21 C 0.4693(4) 0.21783(19) 0.75185(17)
C22 C 0.2280(4) 0.29920(19) 0.78636(17)
loop_
_geom_bond_atom_site_label_1
_geom_bond_atom_site_label_2
_geom_bond_distance
_geom_bond_site_symmetry_1
_geom_bond_site_symmetry_2
C1 C2 1.396 1_555 1_555
C2 H1 0.950 1_555 1_555
C3 C2 1.379 1_555 1_555
H2 C3 0.950 1_555 1_555
C4 C3 1.382 1_555 1_555
H3 C4 0.950 1_555 1_555
C5 C4 1.377 1_555 1_555
H4 C5 0.950 1_555 1_555
C6 C1 1.399 1_555 1_555
H5 C6 0.950 1_555 1_555
C7 C1 1.494 1_555 1_555
C8 C7 1.364 1_555 1_555
H6 C8 0.950 1_555 1_555
C9 C8 1.432 1_555 1_555
C10 C9 1.396 1_555 1_555
H7 C10 0.949 1_555 1_555
C11 C10 1.379 1_555 1_555
H8 C11 0.950 1_555 1_555
C12 C11 1.391 1_555 1_555
H9 C12 0.950 1_555 1_555
C13 C12 1.399 1_555 1_555
C14 C13 1.435 1_555 1_555
H10 C14 0.949 1_555 1_555
C15 C14 1.352 1_555 1_555
H11 C15 0.950 1_555 1_555
C16 C15 1.432 1_555 1_555
C17 C16 1.404 1_555 1_555
H12 C17 0.951 1_555 1_555
C18 C17 1.375 1_555 1_555
H13 C18 0.950 1_555 1_555
C19 C18 1.390 1_555 1_555
H14 C19 0.949 1_555 1_555
C20 C7 1.444 1_555 1_555
C21 C16 1.409 1_555 1_555
C22 C9 1.416 1_555 1_555
C5 C6 1.380 1_555 1_555
C13 C22 1.422 1_555 1_555
C19 C20 1.393 1_555 1_555
C20 C21 1.435 1_555 1_555
C21 C22 1.431 1_555 1_555
#END
