
#######################################################################
#
#                 Cambridge Crystallographic Data Centre
#                                CCDC
#
#######################################################################
#
# If this CIF has been generated from an entry in the Cambridge
# Structural Database, then it will include bibliographic, chemical,
# crystal, experimental, refinement or atomic coordinate data resulting
# from the CCDC's data processing and validation procedures.
#
#######################################################################

data_CSD_CIF_KAQLEV
_audit_creation_date 2012-03-13
_audit_creation_method CSD-ConQuest-V1
_database_code_CSD KAQLEV
_database_code_depnum_ccdc_archive 'CCDC 867119'
_chemical_formula_sum 'C30 H18'
_chemical_formula_moiety
;
C30 H18
;
_journal_coden_Cambridge 4
_journal_volume 133
_journal_year 2011
_journal_page_first 10716
_journal_name_full 'J.Am.Chem.Soc. '
loop_
_publ_author_name
"K.Mochida"
"K.Kawasumi"
"Y.Segawa"
"K.Itami"
_chemical_name_systematic
;
Tribenzo[a,c,f]tetraphene
;
_cell_volume    895.676
_exptl_crystal_colour 'yellow'
_exptl_crystal_density_diffrn 1.403
_diffrn_ambient_temperature 103
#These two values have been output from a single CSD field.
_refine_ls_R_factor_gt 0.0564
_refine_ls_wR_factor_gt 0.0564
_symmetry_cell_setting triclinic
_symmetry_space_group_name_H-M 'P -1'
_symmetry_Int_Tables_number 2
loop_
_symmetry_equiv_pos_site_id
_symmetry_equiv_pos_as_xyz
1 x,y,z
2 -x,-y,-z
_cell_length_a 3.9020(15)
_cell_length_b 12.153(5)
_cell_length_c 19.400(8)
_cell_angle_alpha 85.547(12)
_cell_angle_beta 85.134(11)
_cell_angle_gamma 78.235(12)
_cell_formula_units_Z 2
loop_
_atom_type_symbol
_atom_type_radius_bond
C 0.68
H 0.23
loop_
_atom_site_label
_atom_site_type_symbol
_atom_site_fract_x
_atom_site_fract_y
_atom_site_fract_z
C1 C 0.3471(6) 0.57395(19) 0.15890(12)
C2 C -0.1741(6) 0.81813(19) 0.45135(12)
C3 C -0.0680(6) 0.8952(2) 0.40066(12)
H1 H -0.08140 0.97050 0.41220
C4 C 0.1522(6) 0.94671(18) 0.28030(12)
C5 C -0.0251(6) 0.6758(2) 0.36673(11)
H2 H -0.01280 0.60060 0.35510
C6 C 0.2052(6) 0.6604(2) 0.10718(12)
C7 C 0.1958(6) 1.05436(19) 0.29650(12)
H3 H 0.15500 1.07470 0.34320
C8 C 0.0560(6) 0.86542(19) 0.33409(12)
C9 C -0.1603(6) 0.70658(19) 0.43377(12)
C10 C 0.0054(6) 0.8561(2) 0.07087(12)
H4 H -0.03890 0.93360 0.08000
C11 C 0.1860(6) 0.80422(19) 0.19321(12)
C12 C 0.0909(6) 0.75109(19) 0.31707(12)
C13 C 0.2051(6) 0.91817(19) 0.21077(12)
C14 C 0.2028(6) 0.71984(19) 0.24595(12)
C15 C 0.6506(6) 0.3845(2) 0.19071(13)
H5 H 0.75430 0.31050 0.17790
C16 C 0.3352(6) 0.6033(2) 0.22852(12)
C17 C 0.4952(6) 0.51990(19) 0.27721(12)
H6 H 0.49650 0.53810 0.32390
C18 C 0.3161(6) 0.99639(19) 0.16132(12)
H7 H 0.36220 0.97710 0.11440
C19 C 0.5013(6) 0.4640(2) 0.14246(12)
H8 H 0.50250 0.44380 0.09610
C20 C 0.1462(6) 0.7746(2) 0.12270(12)
C21 C -0.0687(7) 0.8259(2) 0.00770(12)
H9 H -0.16310 0.88240 -0.02600
C22 C 0.1277(6) 0.6328(2) 0.04226(12)
H10 H 0.16920 0.55580 0.03200
C23 C -0.2851(6) 0.6293(2) 0.48331(12)
H11 H -0.28250 0.55480 0.47140
C24 C 0.2951(6) 1.1297(2) 0.24674(13)
H12 H 0.31910 1.20190 0.25880
C25 C -0.3025(6) 0.8482(2) 0.51992(12)
H13 H -0.30830 0.92230 0.53300
C26 C -0.4167(7) 0.7716(2) 0.56678(13)
H14 H -0.50160 0.79280 0.61220
C27 C -0.0068(7) 0.7139(2) -0.00699(12)
H15 H -0.05660 0.69310 -0.05070
C28 C 0.6487(6) 0.4133(2) 0.25873(12)
H16 H 0.75400 0.35900 0.29250
C29 C 0.3607(6) 1.1003(2) 0.17840(12)
H17 H 0.43570 1.15150 0.14370
C30 C -0.4094(6) 0.6617(2) 0.54826(12)
H18 H -0.49160 0.60920 0.58120
loop_
_geom_bond_atom_site_label_1
_geom_bond_atom_site_label_2
_geom_bond_distance
_geom_bond_site_symmetry_1
_geom_bond_site_symmetry_2
C1 C6 1.453 1_555 1_555
C2 C3 1.401 1_555 1_555
C3 H1 0.949 1_555 1_555
C4 C7 1.415 1_555 1_555
C5 H2 0.949 1_555 1_555
C6 C20 1.412 1_555 1_555
C7 H3 0.949 1_555 1_555
C8 C3 1.389 1_555 1_555
C9 C2 1.413 1_555 1_555
C10 H4 0.950 1_555 1_555
C11 C13 1.469 1_555 1_555
C12 C5 1.389 1_555 1_555
C13 C4 1.407 1_555 1_555
C14 C11 1.387 1_555 1_555
C15 H5 0.951 1_555 1_555
C16 C1 1.418 1_555 1_555
C17 C16 1.415 1_555 1_555
H6 C17 0.950 1_555 1_555
C18 C13 1.403 1_555 1_555
H7 C18 0.951 1_555 1_555
C19 C1 1.398 1_555 1_555
H8 C19 0.950 1_555 1_555
C20 C10 1.418 1_555 1_555
C21 C10 1.376 1_555 1_555
H9 C21 0.950 1_555 1_555
C22 C6 1.401 1_555 1_555
H10 C22 0.950 1_555 1_555
C23 C9 1.418 1_555 1_555
H11 C23 0.950 1_555 1_555
C24 C7 1.365 1_555 1_555
H12 C24 0.950 1_555 1_555
C25 C2 1.429 1_555 1_555
H13 C25 0.950 1_555 1_555
C26 C25 1.364 1_555 1_555
H14 C26 0.951 1_555 1_555
C27 C21 1.381 1_555 1_555
H15 C27 0.950 1_555 1_555
C28 C15 1.390 1_555 1_555
H16 C28 0.949 1_555 1_555
C29 C18 1.378 1_555 1_555
H17 C29 0.950 1_555 1_555
C30 C23 1.369 1_555 1_555
H18 C30 0.951 1_555 1_555
C4 C8 1.460 1_555 1_555
C5 C9 1.410 1_555 1_555
C8 C12 1.430 1_555 1_555
C11 C20 1.470 1_555 1_555
C12 C14 1.466 1_555 1_555
C14 C16 1.461 1_555 1_555
C15 C19 1.368 1_555 1_555
C17 C28 1.373 1_555 1_555
C22 C27 1.374 1_555 1_555
C24 C29 1.389 1_555 1_555
C26 C30 1.404 1_555 1_555
#END
