
#######################################################################
#
#                 Cambridge Crystallographic Data Centre
#                                CCDC
#
#######################################################################
#
# If this CIF has been generated from an entry in the Cambridge
# Structural Database, then it will include bibliographic, chemical,
# crystal, experimental, refinement or atomic coordinate data resulting
# from the CCDC's data processing and validation procedures.
#
#######################################################################

data_CSD_CIF_KAYHUQ
_audit_creation_date 2017-07-25
_audit_creation_method CSD-ConQuest-V1
_database_code_CSD KAYHUQ
_database_code_depnum_ccdc_archive 'CCDC 1522350'
_chemical_formula_sum 'C30 H18'
_chemical_formula_moiety
;
C30 H18
;
_journal_coden_Cambridge 1490
_journal_volume 8
_journal_year 2017
_journal_page_first 16089
_journal_name_full 'Nat.Commun. '
loop_
_publ_author_name
"A.Shiotari"
"T.Nakae"
"K.Iwata"
"S.Mori"
"T.Okujima"
"H.Uno"
"H.Sakaguchi"
"Y.Sugimoto"
_chemical_name_systematic
;
diazuleno[1,2-a:2',1'-c]anthracene
;
_cell_volume   3734.332
_exptl_crystal_colour 'orange'
_exptl_crystal_density_diffrn 1.346
_exptl_crystal_description 'platelet'
_exptl_crystal_preparation 'Re-crystallisation from solvent'
_diffrn_ambient_temperature 100
#These two values have been output from a single CSD field.
_refine_ls_R_factor_gt 0.0702
_refine_ls_wR_factor_gt 0.0702
_symmetry_cell_setting monoclinic
_symmetry_space_group_name_H-M 'C 2/c'
_symmetry_Int_Tables_number 15
loop_
_symmetry_equiv_pos_site_id
_symmetry_equiv_pos_as_xyz
1 x,y,z
2 -x,y,1/2-z
3 1/2+x,1/2+y,z
4 1/2-x,1/2+y,1/2-z
5 -x,-y,-z
6 x,-y,-1/2+z
7 -1/2-x,-1/2-y,-z
8 -1/2+x,-1/2-y,-1/2+z
_cell_length_a 37.630(13)
_cell_length_b 6.3613(19)
_cell_length_c 16.724(6)
_cell_angle_alpha 90
_cell_angle_beta 111.123(5)
_cell_angle_gamma 90
_cell_formula_units_Z 8
loop_
_atom_type_symbol
_atom_type_radius_bond
C 0.68
H 0.23
loop_
_atom_site_label
_atom_site_type_symbol
_atom_site_fract_x
_atom_site_fract_y
_atom_site_fract_z
C1 C 0.64120(5) -0.2106(3) 0.43809(11)
C2 C 0.63587(6) -0.3986(3) 0.39058(11)
C3 C 0.60392(6) -0.5218(3) 0.35665(11)
C4 C 0.56688(6) -0.4889(3) 0.35643(11)
C5 C 0.55396(5) -0.3225(3) 0.39223(10)
C6 C 0.57454(5) -0.1509(2) 0.43963(10)
C7 C 0.55783(5) 0.0046(3) 0.47299(10)
C8 C 0.58636(5) 0.1499(2) 0.5176(1)
C9 C 0.58223(4) 0.3360(2) 0.56079(9)
C10 C 0.54920(5) 0.4162(3) 0.57051(10)
C11 C 0.55846(4) 0.6021(3) 0.61683(10)
C12 C 0.53222(5) 0.7212(3) 0.63965(10)
C13 C 0.53751(5) 0.9077(3) 0.68532(11)
C14 C 0.57075(5) 1.0271(3) 0.71904(10)
C15 C 0.60627(5) 0.9882(3) 0.71558(10)
C16 C 0.61944(5) 0.8186(3) 0.67924(10)
C17 C 0.59991(4) 0.6430(2) 0.63646(9)
C18 C 0.61386(4) 0.4711(2) 0.60071(9)
C19 C 0.65114(4) 0.4137(2) 0.59970(9)
C20 C 0.68328(5) 0.5397(3) 0.63671(11)
C21 C 0.71971(5) 0.4850(3) 0.63808(11)
C22 C 0.75181(5) 0.6195(3) 0.67486(13)
C23 C 0.78708(5) 0.5598(3) 0.67693(13)
C24 C 0.79187(5) 0.3628(3) 0.64237(12)
C25 C 0.76179(5) 0.2296(3) 0.60763(11)
C26 C 0.72459(5) 0.2879(3) 0.60364(10)
C27 C 0.69230(5) 0.1593(3) 0.56585(10)
C28 C 0.65585(4) 0.2168(2) 0.55962(9)
C29 C 0.62216(4) 0.0901(2) 0.51496(9)
C30 C 0.61568(5) -0.0994(3) 0.46397(10)
H1 H 0.6677(6) -0.156(3) 0.4544(13)
H2 H 0.6596(6) -0.448(4) 0.3772(14)
H3 H 0.6065(7) -0.657(4) 0.3285(15)
H4 H 0.5483(6) -0.600(3) 0.3258(14)
H5 H 0.5250(6) -0.324(3) 0.3833(13)
H6 H 0.5283(6) 0.014(3) 0.4676(15)
H7 H 0.5230(6) 0.346(3) 0.5458(13)
H8 H 0.5045(6) 0.653(3) 0.6194(13)
H9 H 0.5135(6) 0.967(3) 0.6936(13)
H10 H 0.5690(6) 1.162(3) 0.7499(14)
H11 H 0.6270(6) 1.104(3) 0.7437(13)
H12 H 0.6470(6) 0.832(3) 0.6822(12)
H13 H 0.6830(7) 0.691(4) 0.6640(16)
H14 H 0.7474(6) 0.759(4) 0.6951(15)
H15 H 0.8089(7) 0.662(4) 0.7022(15)
H16 H 0.8190(6) 0.322(3) 0.6446(13)
H17 H 0.7658(6) 0.086(4) 0.5844(15)
H18 H 0.6970(6) 0.011(3) 0.5472(13)
loop_
_geom_bond_atom_site_label_1
_geom_bond_atom_site_label_2
_geom_bond_distance
_geom_bond_site_symmetry_1
_geom_bond_site_symmetry_2
C1 C2 1.410 1_555 1_555
C2 C3 1.375 1_555 1_555
C3 C4 1.408 1_555 1_555
C4 C5 1.387 1_555 1_555
C5 C6 1.406 1_555 1_555
C6 C7 1.392 1_555 1_555
C7 C8 1.409 1_555 1_555
C8 C9 1.424 1_555 1_555
C9 C10 1.406 1_555 1_555
C10 C11 1.388 1_555 1_555
C11 C12 1.402 1_555 1_555
C12 C13 1.386 1_555 1_555
C13 C14 1.397 1_555 1_555
C14 C15 1.381 1_555 1_555
C15 C16 1.413 1_555 1_555
C16 C17 1.386 1_555 1_555
C17 C11 1.496 1_555 1_555
C18 C9 1.424 1_555 1_555
C19 C18 1.456 1_555 1_555
C20 C19 1.396 1_555 1_555
C21 C20 1.406 1_555 1_555
C22 C21 1.426 1_555 1_555
C23 C22 1.369 1_555 1_555
C24 C23 1.418 1_555 1_555
C25 C24 1.365 1_555 1_555
C26 C21 1.419 1_555 1_555
C27 C26 1.411 1_555 1_555
C28 C19 1.461 1_555 1_555
C29 C8 1.416 1_555 1_555
C30 C1 1.382 1_555 1_555
H1 C1 0.997 1_555 1_555
H2 C2 1.044 1_555 1_555
H3 C3 1.002 1_555 1_555
H4 C4 0.996 1_555 1_555
H5 C5 1.045 1_555 1_555
H6 C7 1.084 1_555 1_555
H7 C10 1.024 1_555 1_555
H8 C12 1.066 1_555 1_555
H9 C13 1.033 1_555 1_555
H10 C14 1.016 1_555 1_555
H11 C15 1.053 1_555 1_555
H12 C16 1.024 1_555 1_555
H13 C20 1.067 1_555 1_555
H14 C22 0.985 1_555 1_555
H15 C23 1.013 1_555 1_555
H16 C24 1.041 1_555 1_555
H17 C25 1.025 1_555 1_555
H18 C27 1.029 1_555 1_555
C6 C30 1.488 1_555 1_555
C17 C18 1.434 1_555 1_555
C25 C26 1.426 1_555 1_555
C27 C28 1.387 1_555 1_555
C28 C29 1.460 1_555 1_555
C29 C30 1.446 1_555 1_555
#END
