
#######################################################################
#
#                 Cambridge Crystallographic Data Centre
#                                CCDC
#
#######################################################################
#
# If this CIF has been generated from an entry in the Cambridge
# Structural Database, then it will include bibliographic, chemical,
# crystal, experimental, refinement or atomic coordinate data resulting
# from the CCDC's data processing and validation procedures.
#
#######################################################################

data_CSD_CIF_KEDJOS
_audit_creation_date 1990-07-27
_audit_creation_method CSD-ConQuest-V1
_database_code_CSD KEDJOS
_database_code_depnum_ccdc_fiz 'CSD 53815'
_chemical_formula_sum 'C16 H14'
_chemical_formula_moiety
;
C16 H14
;
_journal_coden_Cambridge 643
_journal_volume 189
_journal_year 1989
_journal_page_first 109
_journal_name_full 'Z.Krist.Cryst.Mater. '
loop_
_publ_author_name
"O.Johnson"
"D.W.Jones"
_chemical_name_systematic
;
9,10-Dimethylphenanthrene
;
_cell_volume    561.320
_exptl_crystal_density_diffrn 1.22
_exptl_special_details
;
mutagenic and tumour-initiating activity
CSD 53815 contains no more data; 53804 has been used
;
_diffrn_ambient_temperature ?
_diffrn_special_details
;
The study was carried out at room temperature,in the range 283-303K

;
#These two values have been output from a single CSD field.
_refine_ls_R_factor_gt 0.03
_refine_ls_wR_factor_gt 0.03
_symmetry_cell_setting monoclinic
_symmetry_space_group_name_H-M 'P 21'
_symmetry_Int_Tables_number 4
loop_
_symmetry_equiv_pos_site_id
_symmetry_equiv_pos_as_xyz
1 x,y,z
2 -x,1/2+y,-z
_cell_length_a 9.103(3)
_cell_length_b 5.454(2)
_cell_length_c 11.666(3)
_cell_angle_alpha 90
_cell_angle_beta 104.27(2)
_cell_angle_gamma 90
_cell_formula_units_Z 2
loop_
_atom_type_symbol
_atom_type_radius_bond
C 0.68
H 0.23
loop_
_atom_site_label
_atom_site_type_symbol
_atom_site_fract_x
_atom_site_fract_y
_atom_site_fract_z
C1 C 1.3361(4) 0.01150 0.3569(3)
C2 C 1.4303(4) 0.178(1) 0.3230(3)
C3 C 1.3729(3) 0.352(1) 0.2380(3)
C4 C 1.2210(3) 0.357(1) 0.1869(3)
C5 C 0.8944(3) 0.361(1) 0.0722(2)
C6 C 0.7420(3) 0.364(1) 0.0208(3)
C7 C 0.6482(3) 0.198(1) 0.0577(3)
C8 C 0.7065(3) 0.035(1) 0.1449(3)
C9 C 0.9244(3) -0.153(1) 0.2921(2)
C10 C 1.0755(3) -0.163(1) 0.3421(2)
C11 C 1.1770(3) 0.012(1) 0.3056(2)
C12 C 1.1204(3) 0.189(1) 0.2176(2)
C13 C 0.9598(3) 0.191(1) 0.1628(2)
C14 C 0.8632(3) 0.024(1) 0.1999(2)
C15 C 0.8150(4) -0.323(1) 0.3305(3)
C16 C 1.1433(5) -0.346(1) 0.4360(3)
H1 H 1.373(3) -0.122(4) 0.412(2)
H2 H 1.538(1) 0.170(7) 0.364(2)
H3 H 1.438(1) 0.475(5) 0.215(2)
H4 H 1.186(3) 0.486(4) 0.129(2)
H5 H 0.960(3) 0.482(4) 0.049(2)
H6 H 0.701(3) 0.472(5) -0.046(2)
H7 H 0.540(1) 0.189(7) 0.019(2)
H8 H 0.641(3) -0.086(4) 0.169(3)
H9 H 0.770(4) -0.448(8) 0.273(3)
H10 H 0.855(3) -0.405(7) 0.401(4)
H11 H 0.729(4) -0.243(6) 0.349(3)
H12 H 1.230(4) -0.447(8) 0.418(3)
H13 H 1.075(4) -0.445(7) 0.459(3)
H14 H 1.192(4) -0.274(6) 0.508(3)
loop_
_geom_bond_atom_site_label_1
_geom_bond_atom_site_label_2
_geom_bond_distance
_geom_bond_site_symmetry_1
_geom_bond_site_symmetry_2
C1 C2 1.372 1_555 1_555
C2 C3 1.379 1_555 1_555
C3 C4 1.364 1_555 1_555
C4 C12 1.403 1_555 1_555
C5 C6 1.369 1_555 1_555
C6 C7 1.384 1_555 1_555
C7 C8 1.357 1_555 1_555
C8 C14 1.414 1_555 1_555
C9 C10 1.356 1_555 1_555
C10 C11 1.463 1_555 1_555
C11 C1 1.424 1_555 1_555
C12 C11 1.411 1_555 1_555
C13 C5 1.422 1_555 1_555
C14 C9 1.450 1_555 1_555
C15 C9 1.507 1_555 1_555
C16 C10 1.498 1_555 1_555
H1 C1 0.975 1_555 1_555
H2 C2 0.980 1_555 1_555
H3 C3 0.975 1_555 1_555
H4 C4 0.973 1_555 1_555
H5 C5 0.972 1_555 1_555
H6 C6 0.975 1_555 1_555
H7 C7 0.978 1_555 1_555
H8 C8 0.976 1_555 1_555
H9 C15 0.973 1_555 1_555
H10 C15 0.928 1_555 1_555
H11 C15 0.966 1_555 1_555
H12 C16 1.026 1_555 1_555
H13 C16 0.912 1_555 1_555
H14 C16 0.934 1_555 1_555
C12 C13 1.444 1_555 1_555
C13 C14 1.406 1_555 1_555
#END
