
#######################################################################
#
#                 Cambridge Crystallographic Data Centre
#                                CCDC
#
#######################################################################
#
# If this CIF has been generated from an entry in the Cambridge
# Structural Database, then it will include bibliographic, chemical,
# crystal, experimental, refinement or atomic coordinate data resulting
# from the CCDC's data processing and validation procedures.
#
#######################################################################

data_CSD_CIF_KEDQUI
_audit_creation_date 2017-07-27
_audit_creation_method CSD-ConQuest-V1
_database_code_CSD KEDQUI
_database_code_depnum_ccdc_archive 'CCDC 1481422'
_chemical_formula_sum 'C46 H24'
_chemical_formula_moiety
;
C46 H24
;
_journal_coden_Cambridge 1695
_journal_volume 5
_journal_year 2017
_journal_page_first 7935
_journal_name_full 'J.Mater.Chem.C '
loop_
_publ_author_name
"Ding-Chi Huang"
"Chi-Hsien Kuo"
"Man-Tzu Ho"
"Bo-Chao Lin"
"Wei-Tao Peng"
"Ito Chao"
"Chao-Ping Hsu"
"Yu-Tai Tao"
_chemical_name_systematic
;
tetrabenzo[hi,lm,yz,c~1~d~1~]octacene
;
_cell_volume   2671.634
_exptl_crystal_colour 'pale yellow'
_exptl_crystal_density_diffrn 1.434
_exptl_crystal_description 'prism'
_exptl_crystal_preparation 'Vapour deposition'
_diffrn_ambient_temperature 296
#These two values have been output from a single CSD field.
_refine_ls_R_factor_gt 0.0804
_refine_ls_wR_factor_gt 0.0804
_symmetry_cell_setting monoclinic
_symmetry_space_group_name_H-M 'C 2/c'
_symmetry_Int_Tables_number 15
loop_
_symmetry_equiv_pos_site_id
_symmetry_equiv_pos_as_xyz
1 x,y,z
2 -x,y,1/2-z
3 1/2+x,1/2+y,z
4 1/2-x,1/2+y,1/2-z
5 -x,-y,-z
6 x,-y,-1/2+z
7 -1/2-x,-1/2-y,-z
8 -1/2+x,-1/2-y,-1/2+z
_cell_length_a 31.9402(19)
_cell_length_b 3.8977(2)
_cell_length_c 23.9483(14)
_cell_angle_alpha 90
_cell_angle_beta 116.350(4)
_cell_angle_gamma 90
_cell_formula_units_Z 4
loop_
_atom_type_symbol
_atom_type_radius_bond
C 0.68
H 0.23
loop_
_atom_site_label
_atom_site_type_symbol
_atom_site_fract_x
_atom_site_fract_y
_atom_site_fract_z
C1 C -0.01823(16) 0.0282(12) 0.21982(19)
C2 C -0.00674(17) -0.0449(11) 0.16847(18)
C3 C -0.03992(17) -0.1877(12) 0.1123(2)
H1 H -0.07040 -0.22230 0.10650
C4 C -0.02773(17) -0.2769(12) 0.0659(2)
H2 H -0.04990 -0.37770 0.02960
C5 C 0.01661(17) -0.2195(13) 0.0723(2)
H3 H 0.02380 -0.27360 0.03970
C6 C 0.05079(16) -0.0812(12) 0.1269(2)
C7 C 0.03985(16) -0.0116(11) 0.1764(2)
C8 C 0.07576(16) 0.0941(11) 0.2368(2)
C9 C 0.06578(16) 0.1038(11) 0.2887(2)
C10 C 0.10056(16) 0.2217(12) 0.3455(2)
H4 H 0.09430 0.23590 0.37990
C11 C 0.14383(17) 0.3171(12) 0.3515(2)
H5 H 0.16630 0.39930 0.38950
C12 C 0.15404(17) 0.2917(12) 0.3020(2)
H6 H 0.18390 0.34970 0.30750
C13 C 0.12099(16) 0.1813(12) 0.2433(2)
C14 C 0.13212(17) 0.1491(12) 0.1907(2)
C15 C 0.09771(17) 0.0005(12) 0.1334(2)
C16 C 0.10917(17) -0.0421(13) 0.0846(2)
H7 H 0.08720 -0.14160 0.04800
C17 C 0.15227(17) 0.0571(12) 0.0874(2)
C18 C 0.18573(16) 0.2088(12) 0.1438(2)
C19 C 0.17449(17) 0.2488(12) 0.1935(2)
H8 H 0.19650 0.34710 0.23020
C20 C 0.22925(18) 0.3141(13) 0.1464(2)
H9 H 0.25170 0.41140 0.18290
C21 C 0.23871(19) 0.2759(14) 0.0970(2)
H10 H 0.26740 0.34640 0.09990
C22 C 0.2056(2) 0.1311(14) 0.0415(3)
H11 H 0.21220 0.10850 0.00750
C23 C 0.1637(2) 0.0231(15) 0.0370(2)
H12 H 0.14210 -0.07500 0.00000
C1A C 0.01823(16) 0.0282(12) 0.28018(19)
C2A C 0.00674(17) -0.0449(11) 0.33153(18)
C3A C 0.03992(17) -0.1877(12) 0.3877(2)
H1A H 0.07040 -0.22230 0.39350
C4A C 0.02773(17) -0.2769(12) 0.4341(2)
H2A H 0.04990 -0.37770 0.47040
C5A C -0.01661(17) -0.2195(13) 0.4277(2)
H3A H -0.02380 -0.27360 0.46030
C6A C -0.05079(16) -0.0812(12) 0.3731(2)
C7A C -0.03985(16) -0.0116(11) 0.3236(2)
C8A C -0.07576(16) 0.0941(11) 0.2632(2)
C9A C -0.06578(16) 0.1038(11) 0.2113(2)
C10A C -0.10056(16) 0.2217(12) 0.1545(2)
H4A H -0.09430 0.23590 0.12010
C11A C -0.14383(17) 0.3171(12) 0.1485(2)
H5A H -0.16630 0.39930 0.11050
C12A C -0.15404(17) 0.2917(12) 0.1980(2)
H6A H -0.18390 0.34970 0.19250
C13A C -0.12099(16) 0.1813(12) 0.2567(2)
C14A C -0.13212(17) 0.1491(12) 0.3093(2)
C15A C -0.09771(17) 0.0005(12) 0.3666(2)
C16A C -0.10917(17) -0.0421(13) 0.4154(2)
H7A H -0.08720 -0.14160 0.45200
C17A C -0.15227(17) 0.0571(12) 0.4126(2)
C18A C -0.18573(16) 0.2088(12) 0.3562(2)
C19A C -0.17449(17) 0.2488(12) 0.3065(2)
H8A H -0.19650 0.34710 0.26980
C20A C -0.22925(18) 0.3141(13) 0.3536(2)
H9A H -0.25170 0.41140 0.31710
C21A C -0.23871(19) 0.2759(14) 0.4030(2)
H10A H -0.26740 0.34640 0.40010
C22A C -0.2056(2) 0.1311(14) 0.4585(3)
H11A H -0.21220 0.10850 0.49250
C23A C -0.1637(2) 0.0231(15) 0.4630(2)
H12A H -0.14210 -0.07500 0.50000
loop_
_geom_bond_atom_site_label_1
_geom_bond_atom_site_label_2
_geom_bond_distance
_geom_bond_site_symmetry_1
_geom_bond_site_symmetry_2
C1 C2 1.459 1_555 1_555
C2 C3 1.406 1_555 1_555
C3 H1 0.930 1_555 1_555
C4 C3 1.375 1_555 1_555
H2 C4 0.930 1_555 1_555
C5 C4 1.374 1_555 1_555
H3 C5 0.931 1_555 1_555
C6 C5 1.387 1_555 1_555
C7 C2 1.420 1_555 1_555
C8 C7 1.451 1_555 1_555
C9 C8 1.414 1_555 1_555
C10 C9 1.398 1_555 1_555
H4 C10 0.932 1_555 1_555
C11 C10 1.376 1_555 1_555
H5 C11 0.931 1_555 1_555
C12 C11 1.366 1_555 1_555
H6 C12 0.931 1_555 1_555
C13 C8 1.424 1_555 1_555
C14 C13 1.458 1_555 1_555
C15 C6 1.471 1_555 1_555
C16 C15 1.381 1_555 1_555
H7 C16 0.930 1_555 1_555
C17 C16 1.403 1_555 1_555
C18 C17 1.426 1_555 1_555
C19 C14 1.381 1_555 1_555
H8 C19 0.930 1_555 1_555
C20 C18 1.424 1_555 1_555
H9 C20 0.930 1_555 1_555
C21 C20 1.353 1_555 1_555
H10 C21 0.929 1_555 1_555
C22 C21 1.398 1_555 1_555
H11 C22 0.931 1_555 1_555
C23 C17 1.414 1_555 1_555
H12 C23 0.930 1_555 1_555
C1A C1 1.397 1_555 1_555
C2A C1A 1.459 1_555 1_555
C3A C2A 1.406 1_555 1_555
H1A C3A 0.930 1_555 1_555
C4A C3A 1.375 1_555 1_555
H2A C4A 0.930 1_555 1_555
C5A C4A 1.374 1_555 1_555
H3A C5A 0.931 1_555 1_555
C6A C5A 1.387 1_555 1_555
C7A C2A 1.420 1_555 1_555
C8A C7A 1.451 1_555 1_555
C9A C1 1.470 1_555 1_555
C10A C9A 1.398 1_555 1_555
H4A C10A 0.932 1_555 1_555
C11A C10A 1.376 1_555 1_555
H5A C11A 0.931 1_555 1_555
C12A C11A 1.366 1_555 1_555
H6A C12A 0.931 1_555 1_555
C13A C8A 1.424 1_555 1_555
C14A C13A 1.458 1_555 1_555
C15A C6A 1.471 1_555 1_555
C16A C15A 1.381 1_555 1_555
H7A C16A 0.930 1_555 1_555
C17A C16A 1.403 1_555 1_555
C18A C17A 1.426 1_555 1_555
C19A C14A 1.381 1_555 1_555
H8A C19A 0.930 1_555 1_555
C20A C18A 1.424 1_555 1_555
H9A C20A 0.930 1_555 1_555
C21A C20A 1.353 1_555 1_555
H10A C21A 0.929 1_555 1_555
C22A C21A 1.398 1_555 1_555
H11A C22A 0.931 1_555 1_555
C23A C17A 1.414 1_555 1_555
H12A C23A 0.930 1_555 1_555
C6 C7 1.403 1_555 1_555
C9 C1A 1.470 1_555 1_555
C12 C13 1.399 1_555 1_555
C14 C15 1.445 1_555 1_555
C18 C19 1.396 1_555 1_555
C22 C23 1.361 1_555 1_555
C6A C7A 1.403 1_555 1_555
C8A C9A 1.414 1_555 1_555
C12A C13A 1.399 1_555 1_555
C14A C15A 1.445 1_555 1_555
C18A C19A 1.396 1_555 1_555
C22A C23A 1.361 1_555 1_555
#END
