
#######################################################################
#
#                 Cambridge Crystallographic Data Centre
#                                CCDC
#
#######################################################################
#
# If this CIF has been generated from an entry in the Cambridge
# Structural Database, then it will include bibliographic, chemical,
# crystal, experimental, refinement or atomic coordinate data resulting
# from the CCDC's data processing and validation procedures.
#
#######################################################################

data_CSD_CIF_KEGQIZ
_audit_creation_date 2017-07-28
_audit_creation_method CSD-ConQuest-V1
_database_code_CSD KEGQIZ
_database_code_depnum_ccdc_archive 'CCDC 1565495'
_chemical_formula_sum 'C40 H40'
_chemical_formula_moiety
;
C40 H40
;
_journal_coden_Cambridge 1336
_journal_volume 19
_journal_year 2017
_journal_page_first 3791
_journal_name_full 'Org.Lett. '
loop_
_publ_author_name
"Y.Suzuki"
"K.Yamada"
"K.Watanabe"
"T.Kochi"
"Yutaka Ie"
"Yoshio Aso"
"F.Kakiuchi"
_chemical_name_systematic
;
3,12-dihexyldibenzo[h,rst]pentaphene
;
_cell_volume   1394.393
_exptl_crystal_colour 'colorless'
_exptl_crystal_density_diffrn 1.24
_exptl_crystal_description 'block'
_diffrn_ambient_temperature 93
#These two values have been output from a single CSD field.
_refine_ls_R_factor_gt 0.0571
_refine_ls_wR_factor_gt 0.0571
_symmetry_cell_setting triclinic
_symmetry_space_group_name_H-M 'P -1'
_symmetry_Int_Tables_number 2
loop_
_symmetry_equiv_pos_site_id
_symmetry_equiv_pos_as_xyz
1 x,y,z
2 -x,-y,-z
_cell_length_a 9.7034(14)
_cell_length_b 11.4834(18)
_cell_length_c 12.9123(17)
_cell_angle_alpha 91.785(3)
_cell_angle_beta 100.949(3)
_cell_angle_gamma 98.523(3)
_cell_formula_units_Z 2
loop_
_atom_type_symbol
_atom_type_radius_bond
C 0.68
H 0.23
loop_
_atom_site_label
_atom_site_type_symbol
_atom_site_fract_x
_atom_site_fract_y
_atom_site_fract_z
C1 C 1.2656(3) 0.7762(2) -0.00350(18)
H1 H 1.23650 0.84300 0.02620
C2 C 1.3467(3) 0.7912(2) -0.08038(19)
H2 H 1.37020 0.86810 -0.10350
C3 C 1.3958(3) 0.6960(2) -0.12570(18)
C4 C 1.3593(3) 0.5859(2) -0.09078(18)
H3 H 1.39190 0.52050 -0.11990
C5 C 1.2744(2) 0.5666(2) -0.01267(18)
C6 C 1.2347(3) 0.4517(2) 0.01954(18)
H4 H 1.26720 0.38740 -0.01140
C7 C 1.1503(2) 0.4292(2) 0.09434(18)
C8 C 1.1077(3) 0.3082(2) 0.12397(18)
C9 C 1.1457(3) 0.2099(2) 0.07426(19)
H5 H 1.20000 0.22230 0.02050
C10 C 1.1062(3) 0.0963(2) 0.10137(19)
H6 H 1.13260 0.03170 0.06630
C11 C 1.0274(3) 0.0771(2) 0.18038(19)
H7 H 1.00050 -0.00080 0.20000
C12 C 0.9887(3) 0.1708(2) 0.22987(19)
H8 H 0.93440 0.15640 0.28340
C13 C 1.0266(2) 0.2877(2) 0.20392(18)
C14 C 0.9808(3) 0.3884(2) 0.25525(18)
C15 C 0.9028(3) 0.3726(2) 0.33401(18)
H9 H 0.87720 0.29480 0.35440
C16 C 0.8593(3) 0.4674(2) 0.38594(18)
C17 C 0.7806(3) 0.4462(2) 0.46754(18)
H10 H 0.75560 0.36730 0.48560
C18 C 0.7396(3) 0.5362(2) 0.52105(18)
C19 C 0.7809(3) 0.6528(2) 0.49310(19)
H11 H 0.75630 0.71670 0.53050
C20 C 0.8554(3) 0.6763(2) 0.41370(18)
H12 H 0.88020 0.75560 0.39690
C21 C 0.8957(2) 0.5842(2) 0.35679(18)
C22 C 0.9737(2) 0.6026(2) 0.27188(18)
C23 C 1.0091(3) 0.7166(2) 0.23608(19)
H13 H 0.97720 0.78170 0.26630
C24 C 1.0880(3) 0.7356(2) 0.15911(18)
H14 H 1.10930 0.81340 0.13730
C25 C 1.1387(2) 0.6419(2) 0.11106(18)
C26 C 1.2249(2) 0.6635(2) 0.03195(18)
C27 C 1.1020(2) 0.5267(2) 0.14233(18)
C28 C 1.0186(2) 0.5061(2) 0.22314(18)
C29 C 1.4819(3) 0.7125(2) -0.21207(18)
H15 H 1.42930 0.66260 -0.27520
H16 H 1.57240 0.68240 -0.18820
C30 C 1.5170(3) 0.8376(2) -0.24553(19)
H17 H 1.57010 0.88860 -0.18310
H18 H 1.42730 0.86830 -0.27130
C31 C 1.6049(3) 0.8454(2) -0.33188(19)
H19 H 1.55060 0.79570 -0.39470
H20 H 1.69320 0.81260 -0.30660
C32 C 1.6446(3) 0.9706(2) -0.36500(19)
H21 H 1.55640 1.00300 -0.39170
H22 H 1.69760 1.02080 -0.30220
C33 C 1.7347(3) 0.9767(2) -0.45014(19)
H23 H 1.68390 0.92330 -0.51160
H24 H 1.82520 0.94830 -0.42210
C34 C 1.7677(3) 1.1011(2) -0.4871(2)
H25 H 1.67870 1.12900 -0.51700
H26 H 1.82620 1.09990 -0.54110
H27 H 1.81940 1.15430 -0.42680
C35 C 0.6545(3) 0.5175(2) 0.60757(18)
H28 H 0.56680 0.55260 0.58720
H29 H 0.71050 0.56160 0.67280
C36 C 0.6120(3) 0.3901(2) 0.63342(18)
H30 H 0.55650 0.34480 0.56860
H31 H 0.69910 0.35460 0.65630
C37 C 0.5244(3) 0.3793(2) 0.71963(18)
H32 H 0.58100 0.42310 0.78490
H33 H 0.43870 0.41650 0.69750
C38 C 0.4789(3) 0.2525(2) 0.74386(19)
H34 H 0.56510 0.21580 0.76620
H35 H 0.42370 0.20880 0.67810
C39 C 0.3897(3) 0.2382(2) 0.82928(19)
H36 H 0.44460 0.28080 0.89560
H37 H 0.30300 0.27430 0.80740
C40 C 0.3469(3) 0.1091(2) 0.8497(2)
H38 H 0.29220 0.06670 0.78430
H39 H 0.28860 0.10380 0.90410
H40 H 0.43250 0.07380 0.87390
loop_
_geom_bond_atom_site_label_1
_geom_bond_atom_site_label_2
_geom_bond_distance
_geom_bond_site_symmetry_1
_geom_bond_site_symmetry_2
C1 H1 0.950 1_555 1_555
C2 C1 1.379 1_555 1_555
H2 C2 0.951 1_555 1_555
C3 C2 1.409 1_555 1_555
C4 C3 1.375 1_555 1_555
H3 C4 0.951 1_555 1_555
C5 C4 1.421 1_555 1_555
C6 C5 1.417 1_555 1_555
H4 C6 0.950 1_555 1_555
C7 C6 1.387 1_555 1_555
C8 C7 1.473 1_555 1_555
C9 C8 1.411 1_555 1_555
H5 C9 0.950 1_555 1_555
C10 C9 1.379 1_555 1_555
H6 C10 0.949 1_555 1_555
C11 C10 1.391 1_555 1_555
H7 C11 0.950 1_555 1_555
C12 C11 1.369 1_555 1_555
H8 C12 0.950 1_555 1_555
C13 C8 1.417 1_555 1_555
C14 C13 1.480 1_555 1_555
C15 C14 1.380 1_555 1_555
H9 C15 0.950 1_555 1_555
C16 C15 1.418 1_555 1_555
C17 C16 1.421 1_555 1_555
H10 C17 0.951 1_555 1_555
C18 C17 1.373 1_555 1_555
C19 C18 1.418 1_555 1_555
H11 C19 0.950 1_555 1_555
C20 C19 1.374 1_555 1_555
H12 C20 0.949 1_555 1_555
C21 C16 1.417 1_555 1_555
C22 C21 1.450 1_555 1_555
C23 C22 1.418 1_555 1_555
H13 C23 0.950 1_555 1_555
C24 C23 1.369 1_555 1_555
H14 C24 0.950 1_555 1_555
C25 C24 1.420 1_555 1_555
C26 C1 1.412 1_555 1_555
C27 C7 1.442 1_555 1_555
C28 C14 1.442 1_555 1_555
C29 C3 1.516 1_555 1_555
H15 C29 0.990 1_555 1_555
H16 C29 0.990 1_555 1_555
C30 C29 1.522 1_555 1_555
H17 C30 0.991 1_555 1_555
H18 C30 0.990 1_555 1_555
C31 C30 1.524 1_555 1_555
H19 C31 0.990 1_555 1_555
H20 C31 0.990 1_555 1_555
C32 C31 1.528 1_555 1_555
H21 C32 0.990 1_555 1_555
H22 C32 0.989 1_555 1_555
C33 C32 1.526 1_555 1_555
H23 C33 0.990 1_555 1_555
H24 C33 0.990 1_555 1_555
C34 C33 1.528 1_555 1_555
H25 C34 0.980 1_555 1_555
H26 C34 0.980 1_555 1_555
H27 C34 0.981 1_555 1_555
C35 C18 1.513 1_555 1_555
H28 C35 0.989 1_555 1_555
H29 C35 0.990 1_555 1_555
C36 C35 1.525 1_555 1_555
H30 C36 0.990 1_555 1_555
H31 C36 0.991 1_555 1_555
C37 C36 1.521 1_555 1_555
H32 C37 0.990 1_555 1_555
H33 C37 0.989 1_555 1_555
C38 C37 1.518 1_555 1_555
H34 C38 0.990 1_555 1_555
H35 C38 0.990 1_555 1_555
C39 C38 1.525 1_555 1_555
H36 C39 0.990 1_555 1_555
H37 C39 0.990 1_555 1_555
C40 C39 1.524 1_555 1_555
H38 C40 0.980 1_555 1_555
H39 C40 0.980 1_555 1_555
H40 C40 0.980 1_555 1_555
C5 C26 1.423 1_555 1_555
C12 C13 1.406 1_555 1_555
C20 C21 1.412 1_555 1_555
C22 C28 1.420 1_555 1_555
C25 C26 1.443 1_555 1_555
C25 C27 1.410 1_555 1_555
C27 C28 1.442 1_555 1_555
#END
