
#######################################################################
#
#                 Cambridge Crystallographic Data Centre
#                                CCDC
#
#######################################################################
#
# If this CIF has been generated from an entry in the Cambridge
# Structural Database, then it will include bibliographic, chemical,
# crystal, experimental, refinement or atomic coordinate data resulting
# from the CCDC's data processing and validation procedures.
#
#######################################################################

data_CSD_CIF_KEPPOK
_audit_creation_date 1991-01-07
_audit_creation_method CSD-ConQuest-V1
_database_code_CSD KEPPOK
_chemical_formula_sum 'C26 H32'
_chemical_formula_moiety
;
C26 H32
;
_journal_coeditor_code "IUCr PA0060"
_journal_coden_Cambridge 591
_journal_volume 46
_journal_year 1990
_journal_page_first 1493
_journal_name_full 'Acta Crystallogr.,Sect.C:Cryst.Struct.Commun. '
loop_
_publ_author_name
"A.Chiarone"
"C.Riche"
"J.Riolo"
"P.Albrecht"
_chemical_name_systematic
;
20(R)-17-Methyl-18,19-dinor-17\a-1,3,5,7,9,11,13-cholestaheptaene
;
_cell_volume   2146.632
_exptl_crystal_density_diffrn 1.066
_diffrn_ambient_temperature ?
_diffrn_special_details
;
The study was carried out at room temperature,in the range 283-303K

;
#These two values have been output from a single CSD field.
_refine_ls_R_factor_gt 0.079
_refine_ls_wR_factor_gt 0.079
_symmetry_cell_setting monoclinic
_symmetry_space_group_name_H-M 'C 2'
_symmetry_Int_Tables_number 5
loop_
_symmetry_equiv_pos_site_id
_symmetry_equiv_pos_as_xyz
1 x,y,z
2 1/2+x,1/2+y,z
3 -x,y,-z
4 1/2-x,1/2+y,-z
_cell_length_a 22.103(6)
_cell_length_b 6.726(5)
_cell_length_c 14.539(7)
_cell_angle_alpha 90
_cell_angle_beta 96.71(3)
_cell_angle_gamma 90
_cell_formula_units_Z 4
loop_
_atom_type_symbol
_atom_type_radius_bond
C 0.68
H 0.23
loop_
_atom_site_label
_atom_site_type_symbol
_atom_site_fract_x
_atom_site_fract_y
_atom_site_fract_z
C1 C 0.7236(3) 0.34230 -0.1146(5)
C2 C 0.7506(4) 0.3327(26) -0.1949(7)
C3 C 0.7451(4) 0.4962(28) -0.2521(6)
C4 C 0.7128(4) 0.6546(26) -0.2330(6)
C5 C 0.6846(3) 0.6659(22) -0.1514(6)
C6 C 0.6504(4) 0.8347(21) -0.1274(6)
C7 C 0.6223(3) 0.8438(20) -0.0516(6)
C8 C 0.6269(3) 0.6806(19) 0.0130(4)
C9 C 0.6608(3) 0.5117(19) -0.0047(4)
C10 C 0.6902(3) 0.5018(20) -0.0905(5)
C11 C 0.6659(3) 0.3561(19) 0.0598(6)
C12 C 0.6359(3) 0.3636(20) 0.1384(5)
C13 C 0.6007(3) 0.5285(20) 0.1536(5)
C14 C 0.5960(3) 0.6816(20) 0.0929(5)
C15 C 0.5575(5) 0.8510(19) 0.1264(7)
C16 C 0.5349(6) 0.7635(22) 0.2121(7)
C17 C 0.5651(3) 0.5608(19) 0.2345(5)
C18 C 0.6087(4) 0.5660(26) 0.3243(6)
C19 C 0.5173(3) 0.3889(20) 0.2397(4)
C20 C 0.4793(3) 0.3533(21) 0.1467(5)
C21 C 0.4759(4) 0.4228(21) 0.3163(5)
C22 C 0.4385(4) 0.2414(23) 0.3352(5)
C23 C 0.4004(4) 0.2631(24) 0.4153(7)
C24 C 0.3599(5) 0.0943(23) 0.4283(8)
C25 C 0.3924(8) -0.0985(30) 0.4483(11)
C26 C 0.3134(8) 0.1517(39) 0.4936(11)
H1 H 0.72900 0.22700 -0.07100
H2 H 0.77300 0.21200 -0.21100
H3 H 0.76600 0.49600 -0.31000
H4 H 0.70900 0.76800 -0.27800
H5 H 0.64800 0.95200 -0.17000
H6 H 0.59800 0.96400 -0.03900
H7 H 0.69200 0.23800 0.04900
H8 H 0.64000 0.25100 0.18400
H9 H 0.52300 0.88500 0.07900
H10 H 0.58300 0.97200 0.14200
H11 H 0.54500 0.85500 0.26600
H12 H 0.49000 0.74600 0.20100
H13 H 0.58500 0.58700 0.37800
H14 H 0.63800 0.67700 0.32100
H15 H 0.63100 0.43700 0.33300
H16 H 0.54200 0.26600 0.25600
H17 H 0.50700 0.33200 0.09800
H18 H 0.45300 0.47200 0.13000
H19 H 0.45300 0.23300 0.15100
H20 H 0.44700 0.53500 0.29700
H21 H 0.50200 0.45900 0.37500
H22 H 0.41000 0.21100 0.27800
H23 H 0.46700 0.12700 0.35000
H24 H 0.37500 0.38500 0.40400
H25 H 0.42900 0.28000 0.47400
H26 H 0.33600 0.06400 0.36700
H27 H 0.36200 -0.20500 0.45600
H28 H 0.42100 -0.08600 0.50600
H29 H 0.41600 -0.13400 0.39600
H30 H 0.28600 0.03600 0.50200
H31 H 0.28800 0.26500 0.46600
H32 H 0.33500 0.19200 0.55500
loop_
_geom_bond_atom_site_label_1
_geom_bond_atom_site_label_2
_geom_bond_distance
_geom_bond_site_symmetry_1
_geom_bond_site_symmetry_2
C1 C2 1.373 1_555 1_555
C2 C3 1.376 1_555 1_555
C3 C4 1.330 1_555 1_555
C4 C5 1.405 1_555 1_555
C5 C6 1.430 1_555 1_555
C6 C7 1.328 1_555 1_555
C7 C8 1.441 1_555 1_555
C8 C9 1.401 1_555 1_555
C9 C10 1.474 1_555 1_555
C10 C1 1.371 1_555 1_555
C11 C9 1.401 1_555 1_555
C12 C11 1.388 1_555 1_555
C13 C12 1.387 1_555 1_555
C14 C8 1.415 1_555 1_555
C15 C14 1.535 1_555 1_555
C16 C15 1.515 1_555 1_555
C17 C13 1.505 1_555 1_555
C18 C17 1.530 1_555 1_555
C19 C17 1.574 1_555 1_555
C20 C19 1.525 1_555 1_555
C21 C19 1.539 1_555 1_555
C22 C21 1.517 1_555 1_555
C23 C22 1.522 1_555 1_555
C24 C23 1.472 1_555 1_555
C25 C24 1.494 1_555 1_555
C26 C24 1.528 1_555 1_555
H1 C1 1.000 1_555 1_555
H2 C2 0.993 1_555 1_555
H3 C3 1.006 1_555 1_555
H4 C4 1.002 1_555 1_555
H5 C6 1.001 1_555 1_555
H6 C7 0.999 1_555 1_555
H7 C11 1.005 1_555 1_555
H8 C12 1.004 1_555 1_555
H9 C15 0.993 1_555 1_555
H10 C15 1.001 1_555 1_555
H11 C16 1.001 1_555 1_555
H12 C16 0.994 1_555 1_555
H13 C18 1.000 1_555 1_555
H14 C18 0.993 1_555 1_555
H15 C18 0.999 1_555 1_555
H16 C19 1.004 1_555 1_555
H17 C20 0.999 1_555 1_555
H18 C20 1.001 1_555 1_555
H19 C20 1.003 1_555 1_555
H20 C21 1.007 1_555 1_555
H21 C21 1.003 1_555 1_555
H22 C22 1.004 1_555 1_555
H23 C22 1.002 1_555 1_555
H24 C23 0.996 1_555 1_555
H25 C23 1.007 1_555 1_555
H26 C24 1.002 1_555 1_555
H27 C25 0.997 1_555 1_555
H28 C25 0.993 1_555 1_555
H29 C25 1.000 1_555 1_555
H30 C26 1.002 1_555 1_555
H31 C26 1.002 1_555 1_555
H32 C26 0.999 1_555 1_555
C5 C10 1.411 1_555 1_555
C13 C14 1.352 1_555 1_555
C16 C17 1.536 1_555 1_555
#END
