
#######################################################################
#
#                 Cambridge Crystallographic Data Centre
#                                CCDC
#
#######################################################################
#
# If this CIF has been generated from an entry in the Cambridge
# Structural Database, then it will include bibliographic, chemical,
# crystal, experimental, refinement or atomic coordinate data resulting
# from the CCDC's data processing and validation procedures.
#
#######################################################################

data_CSD_CIF_KIMLEZ
_audit_creation_date 2013-09-11
_audit_creation_method CSD-ConQuest-V1
_database_code_CSD KIMLEZ
_database_code_depnum_ccdc_archive 'CCDC 881405'
_chemical_formula_sum 'C60 H50'
_chemical_formula_moiety
;
C60 H50
;
_journal_coden_Cambridge 35
_journal_volume 77
_journal_year 2012
_journal_page_first 11007
_journal_name_full 'J.Org.Chem. '
loop_
_publ_author_name
"Yeon Ok Lee"
"T.Pradhan"
"Sangwook Yoo"
"Tae Hyun Kim"
"J.Kim"
"Jong Seung Kim"
_chemical_name_systematic
;
1,3,6,8-tetrakis((4-propylphenyl)ethynyl)pyrene
;
_cell_volume   2147.617
_exptl_crystal_colour 'orange'
_exptl_crystal_density_diffrn 1.192
_exptl_crystal_description 'plate'
_diffrn_ambient_temperature 170
#These two values have been output from a single CSD field.
_refine_ls_R_factor_gt 0.0505
_refine_ls_wR_factor_gt 0.0505
_symmetry_cell_setting monoclinic
_symmetry_space_group_name_H-M 'P 21/c'
_symmetry_Int_Tables_number 14
loop_
_symmetry_equiv_pos_site_id
_symmetry_equiv_pos_as_xyz
1 x,y,z
2 -x,1/2+y,1/2-z
3 -x,-y,-z
4 x,-1/2-y,-1/2+z
_cell_length_a 14.743(3)
_cell_length_b 15.881(3)
_cell_length_c 9.4082(18)
_cell_angle_alpha 90
_cell_angle_beta 102.849(4)
_cell_angle_gamma 90
_cell_formula_units_Z 2
loop_
_atom_type_symbol
_atom_type_radius_bond
C 0.68
H 0.23
loop_
_atom_site_label
_atom_site_type_symbol
_atom_site_fract_x
_atom_site_fract_y
_atom_site_fract_z
C1 C 0.09943(19) 0.15861(17) 0.9197(3)
C2 C 0.05856(19) 0.15555(17) 0.7721(3)
H1 H 0.07490 0.19750 0.71020
C3 C -0.00542(19) 0.09380(17) 0.7102(3)
C4 C -0.02795(19) 0.02992(17) 0.8033(3)
C5 C 0.0114(2) 0.03177(15) 0.9519(3)
C6 C 0.07570(19) 0.09657(17) 1.0140(3)
C7 C 0.11275(19) 0.09637(17) 1.1654(3)
H2 H 0.15460 0.14000 1.20640
C8 C -0.09127(18) -0.03661(17) 0.7450(3)
H3 H -0.11810 -0.03870 0.64350
C9 C 0.16488(19) 0.22513(17) 0.9781(3)
C10 C 0.2156(2) 0.27537(18) 1.0274(3)
C11 C 0.2855(2) 0.34003(18) 1.0916(4)
C12 C 0.3142(2) 0.40013(19) 1.0029(4)
H4 H 0.28770 0.40150 0.90120
C13 C 0.3820(2) 0.4578(2) 1.0652(4)
H5 H 0.40070 0.49900 1.00440
C14 C 0.4227(2) 0.4577(2) 1.2095(4)
C15 C 0.3926(2) 0.3995(2) 1.2973(4)
H6 H 0.41910 0.39920 1.39910
C16 C 0.3246(2) 0.34163(18) 1.2396(4)
H7 H 0.30440 0.30240 1.30220
C17 C 0.5018(3) 0.5199(2) 1.2726(4)
H8 H 0.53520 0.50010 1.37000
H9 H 0.54670 0.52120 1.20850
C18 C 0.4664(3) 0.6050(2) 1.2854(4)
H10 H 0.43610 0.60760 1.36920
H11 H 0.41930 0.61920 1.19600
C19 C 0.5481(3) 0.6700(2) 1.3075(4)
H12 H 0.60100 0.64860 1.38070
H13 H 0.52740 0.72370 1.34070
H14 H 0.56690 0.67840 1.21500
C20 C -0.0489(2) 0.09687(17) 0.5584(4)
C21 C -0.0880(2) 0.10107(17) 0.4342(4)
C22 C -0.1330(2) 0.10698(18) 0.2835(4)
C23 C -0.1119(2) 0.17163(18) 0.1968(4)
H15 H -0.06840 0.21370 0.23930
C24 C -0.1527(2) 0.17594(19) 0.0504(4)
H16 H -0.13690 0.22120 -0.00560
C25 C -0.2164(2) 0.1159(2) -0.0175(4)
C26 C -0.2382(2) 0.0520(2) 0.0695(4)
H17 H -0.28250 0.01060 0.02690
C27 C -0.1979(2) 0.04693(18) 0.2148(3)
H18 H -0.21410 0.00170 0.27050
C28 C -0.2570(2) 0.1184(2) -0.1849(4)
H19 H -0.20560 0.12490 -0.23630
H20 H -0.28910 0.06460 -0.21660
C29 C -0.3217(3) 0.1873(2) -0.2236(4)
H21 H -0.29000 0.24150 -0.19370
H22 H -0.37370 0.18120 -0.17350
C30 C -0.3598(3) 0.1855(2) -0.3941(4)
H23 H -0.30890 0.17200 -0.44180
H24 H -0.38560 0.24080 -0.42730
H25 H -0.40860 0.14270 -0.41910
C1B C -0.09943(19) -0.15861(17) 1.0803(3)
C2B C -0.05856(19) -0.15555(17) 1.2279(3)
H1B H -0.07490 -0.19750 1.28980
C3B C 0.00542(19) -0.09380(17) 1.2898(3)
C4B C 0.02795(19) -0.02992(17) 1.1967(3)
C5B C -0.0114(2) -0.03177(15) 1.0481(3)
C6B C -0.07570(19) -0.09657(17) 0.9860(3)
C7B C -0.11275(19) -0.09637(17) 0.8346(3)
H2B H -0.15460 -0.14000 0.79360
C8B C 0.09127(18) 0.03661(17) 1.2550(3)
H3B H 0.11810 0.03870 1.35650
C9B C -0.16488(19) -0.22513(17) 1.0219(3)
C10B C -0.2156(2) -0.27537(18) 0.9726(3)
C11B C -0.2855(2) -0.34003(18) 0.9084(4)
C12B C -0.3142(2) -0.40013(19) 0.9971(4)
H4B H -0.28770 -0.40150 1.09880
C13B C -0.3820(2) -0.4578(2) 0.9348(4)
H5B H -0.40070 -0.49900 0.99560
C14B C -0.4227(2) -0.4577(2) 0.7905(4)
C15B C -0.3926(2) -0.3995(2) 0.7027(4)
H6B H -0.41910 -0.39920 0.60090
C16B C -0.3246(2) -0.34163(18) 0.7604(4)
H7B H -0.30440 -0.30240 0.69780
C17B C -0.5018(3) -0.5199(2) 0.7274(4)
H8B H -0.53520 -0.50010 0.63000
H9B H -0.54670 -0.52120 0.79150
C18B C -0.4664(3) -0.6050(2) 0.7146(4)
H10B H -0.43610 -0.60760 0.63080
H11B H -0.41930 -0.61920 0.80400
C19B C -0.5481(3) -0.6700(2) 0.6925(4)
H12B H -0.60100 -0.64860 0.61930
H13B H -0.52740 -0.72370 0.65930
H14B H -0.56690 -0.67840 0.78500
C20B C 0.0489(2) -0.09687(17) 1.4416(4)
C21B C 0.0880(2) -0.10107(17) 1.5658(4)
C22B C 0.1330(2) -0.10698(18) 1.7165(4)
C23B C 0.1119(2) -0.17163(18) 1.8032(4)
H15B H 0.06840 -0.21370 1.76070
C24B C 0.1527(2) -0.17594(19) 1.9496(4)
H16B H 0.13690 -0.22120 2.00560
C25B C 0.2164(2) -0.1159(2) 2.0175(4)
C26B C 0.2382(2) -0.0520(2) 1.9305(4)
H17B H 0.28250 -0.01060 1.97310
C27B C 0.1979(2) -0.04693(18) 1.7852(3)
H18B H 0.21410 -0.00170 1.72950
C28B C 0.2570(2) -0.1184(2) 2.1849(4)
H19B H 0.20560 -0.12490 2.23630
H20B H 0.28910 -0.06460 2.21660
C29B C 0.3217(3) -0.1873(2) 2.2236(4)
H21B H 0.29000 -0.24150 2.19370
H22B H 0.37370 -0.18120 2.17350
C30B C 0.3598(3) -0.1855(2) 2.3941(4)
H23B H 0.30890 -0.17200 2.44180
H24B H 0.38560 -0.24080 2.42730
H25B H 0.40860 -0.14270 2.41910
loop_
_geom_bond_atom_site_label_1
_geom_bond_atom_site_label_2
_geom_bond_distance
_geom_bond_site_symmetry_1
_geom_bond_site_symmetry_2
C1 C2 1.386 1_555 1_555
C2 H1 0.950 1_555 1_555
C3 C2 1.395 1_555 1_555
C4 C3 1.427 1_555 1_555
C5 C4 1.390 1_555 1_555
C6 C1 1.421 1_555 1_555
C7 C6 1.408 1_555 1_555
H2 C7 0.951 1_555 1_555
C8 C4 1.436 1_555 1_555
H3 C8 0.949 1_555 1_555
C9 C1 1.454 1_555 1_555
C10 C9 1.121 1_555 1_555
C11 C10 1.485 1_555 1_555
C12 C11 1.394 1_555 1_555
H4 C12 0.950 1_555 1_555
C13 C12 1.386 1_555 1_555
H5 C13 0.949 1_555 1_555
C14 C13 1.357 1_555 1_555
C15 C14 1.377 1_555 1_555
H6 C15 0.951 1_555 1_555
C16 C11 1.384 1_555 1_555
H7 C16 0.950 1_555 1_555
C17 C14 1.543 1_555 1_555
H8 C17 0.990 1_555 1_555
H9 C17 0.990 1_555 1_555
C18 C17 1.463 1_555 1_555
H10 C18 0.990 1_555 1_555
H11 C18 0.990 1_555 1_555
C19 C18 1.565 1_555 1_555
H12 C19 0.979 1_555 1_555
H13 C19 0.980 1_555 1_555
H14 C19 0.979 1_555 1_555
C20 C3 1.430 1_555 1_555
C21 C20 1.184 1_555 1_555
C22 C21 1.429 1_555 1_555
C23 C22 1.389 1_555 1_555
H15 C23 0.951 1_555 1_555
C24 C23 1.377 1_555 1_555
H16 C24 0.950 1_555 1_555
C25 C24 1.390 1_555 1_555
C26 C25 1.386 1_555 1_555
H17 C26 0.950 1_555 1_555
C27 C22 1.403 1_555 1_555
H18 C27 0.950 1_555 1_555
C28 C25 1.556 1_555 1_555
H19 C28 0.991 1_555 1_555
H20 C28 0.990 1_555 1_555
C29 C28 1.444 1_555 1_555
H21 C29 0.990 1_555 1_555
H22 C29 0.990 1_555 1_555
C30 C29 1.578 1_555 1_555
H23 C30 0.980 1_555 1_555
H24 C30 0.980 1_555 1_555
H25 C30 0.980 1_555 1_555
C1B C2B 1.386 1_555 1_555
C2B H1B 0.950 1_555 1_555
C3B C2B 1.395 1_555 1_555
C4B C3B 1.427 1_555 1_555
C5B C5 1.444 1_555 1_555
C6B C1B 1.421 1_555 1_555
C7B C8 1.353 1_555 1_555
H2B C7B 0.951 1_555 1_555
C8B C7 1.353 1_555 1_555
H3B C8B 0.949 1_555 1_555
C9B C1B 1.454 1_555 1_555
C10B C9B 1.121 1_555 1_555
C11B C10B 1.485 1_555 1_555
C12B C11B 1.394 1_555 1_555
H4B C12B 0.950 1_555 1_555
C13B C12B 1.386 1_555 1_555
H5B C13B 0.949 1_555 1_555
C14B C13B 1.357 1_555 1_555
C15B C14B 1.377 1_555 1_555
H6B C15B 0.951 1_555 1_555
C16B C11B 1.384 1_555 1_555
H7B C16B 0.950 1_555 1_555
C17B C14B 1.543 1_555 1_555
H8B C17B 0.990 1_555 1_555
H9B C17B 0.990 1_555 1_555
C18B C17B 1.463 1_555 1_555
H10B C18B 0.990 1_555 1_555
H11B C18B 0.990 1_555 1_555
C19B C18B 1.565 1_555 1_555
H12B C19B 0.979 1_555 1_555
H13B C19B 0.980 1_555 1_555
H14B C19B 0.979 1_555 1_555
C20B C3B 1.430 1_555 1_555
C21B C20B 1.184 1_555 1_555
C22B C21B 1.429 1_555 1_555
C23B C22B 1.389 1_555 1_555
H15B C23B 0.951 1_555 1_555
C24B C23B 1.377 1_555 1_555
H16B C24B 0.950 1_555 1_555
C25B C24B 1.390 1_555 1_555
C26B C25B 1.386 1_555 1_555
H17B C26B 0.950 1_555 1_555
C27B C22B 1.403 1_555 1_555
H18B C27B 0.950 1_555 1_555
C28B C25B 1.556 1_555 1_555
H19B C28B 0.991 1_555 1_555
H20B C28B 0.990 1_555 1_555
C29B C28B 1.444 1_555 1_555
H21B C29B 0.990 1_555 1_555
H22B C29B 0.990 1_555 1_555
C30B C29B 1.578 1_555 1_555
H23B C30B 0.980 1_555 1_555
H24B C30B 0.980 1_555 1_555
H25B C30B 0.980 1_555 1_555
C5 C6 1.433 1_555 1_555
C15 C16 1.379 1_555 1_555
C26 C27 1.366 1_555 1_555
C4B C5B 1.390 1_555 1_555
C4B C8B 1.436 1_555 1_555
C5B C6B 1.433 1_555 1_555
C6B C7B 1.408 1_555 1_555
C15B C16B 1.379 1_555 1_555
C26B C27B 1.366 1_555 1_555
#END
