
#######################################################################
#
#                 Cambridge Crystallographic Data Centre
#                                CCDC
#
#######################################################################
#
# If this CIF has been generated from an entry in the Cambridge
# Structural Database, then it will include bibliographic, chemical,
# crystal, experimental, refinement or atomic coordinate data resulting
# from the CCDC's data processing and validation procedures.
#
#######################################################################

data_CSD_CIF_KIZRAM
_audit_creation_date 1992-03-26
_audit_creation_method CSD-ConQuest-V1
_database_code_CSD KIZRAM
_chemical_formula_sum 'C24 H16'
_chemical_formula_moiety
;
C24 H16
;
_journal_coden_Cambridge 579
_journal_volume 10
_journal_year 1991
_journal_page_first 2089
_journal_name_full 'Organometallics '
loop_
_publ_author_name
"W.J.Youngs"
"A.Djebli"
"C.A.Tessier"
_chemical_name_systematic
;
Di-indeno(2,3-a;3,2-b)naphthalene
;
_cell_volume   1534.638
_exptl_crystal_colour 'yellow'
_exptl_crystal_density_diffrn 1.317
_diffrn_ambient_temperature ?
_diffrn_special_details
;
The study was carried out at room temperature,in the range 283-303K

;
#These two values have been output from a single CSD field.
_refine_ls_R_factor_gt 0.0369
_refine_ls_wR_factor_gt 0.0369
_symmetry_cell_setting orthorhombic
_symmetry_space_group_name_H-M 'P 21 21 21'
_symmetry_Int_Tables_number 19
loop_
_symmetry_equiv_pos_site_id
_symmetry_equiv_pos_as_xyz
1 x,y,z
2 1/2+x,1/2-y,-z
3 -x,1/2+y,1/2-z
4 1/2-x,-y,1/2+z
_cell_length_a 5.4604(9)
_cell_length_b 13.675(2)
_cell_length_c 20.552(3)
_cell_angle_alpha 90
_cell_angle_beta 90
_cell_angle_gamma 90
_cell_formula_units_Z 4
loop_
_atom_type_symbol
_atom_type_radius_bond
C 0.68
H 0.23
loop_
_atom_site_label
_atom_site_type_symbol
_atom_site_fract_x
_atom_site_fract_y
_atom_site_fract_z
C1 C 0.3275(11) 0.3540(4) 0.4941(3)
C2 C 0.1593(11) 0.3753(4) 0.5498(3)
C3 C 0.1705(10) 0.3294(4) 0.6121(3)
C4 C -0.0025(11) 0.3595(4) 0.6596(3)
C5 C -0.1671(11) 0.4341(4) 0.6427(2)
C6 C -0.3560(12) 0.4776(4) 0.6889(3)
C7 C -0.4807(11) 0.5519(4) 0.6464(3)
C8 C -0.3809(10) 0.5501(3) 0.5840(3)
C9 C -0.1800(11) 0.4781(3) 0.5818(3)
C10 C -0.0032(11) 0.4486(4) 0.5338(2)
C11 C 0.0561(11) 0.4812(4) 0.4667(3)
C12 C 0.2491(11) 0.4248(4) 0.4437(3)
C13 C 0.3418(11) 0.2564(4) 0.6286(3)
C14 C 0.3508(12) 0.2166(4) 0.6897(3)
C15 C 0.1806(12) 0.2446(5) 0.7360(3)
C16 C 0.0047(12) 0.3137(4) 0.7229(3)
C17 C -0.6760(12) 0.6141(4) 0.6616(3)
C18 C -0.7708(11) 0.6751(5) 0.6137(4)
C19 C -0.6748(12) 0.6709(4) 0.5513(3)
C20 C -0.4823(11) 0.6093(4) 0.5357(3)
C21 C -0.0312(13) 0.5564(5) 0.4274(3)
C22 C 0.0718(15) 0.5719(5) 0.3668(3)
C23 C 0.2596(13) 0.5128(5) 0.3450(3)
C24 C 0.3559(12) 0.4397(4) 0.3827(3)
H1 H 0.32550 0.28380 0.48400
H2 H 0.49930 0.35920 0.50910
H3 H -0.49000 0.41640 0.70260
H4 H -0.29470 0.51240 0.72940
H5 H 0.44850 0.23860 0.59870
H6 H 0.46140 0.16000 0.69580
H7 H 0.18310 0.21640 0.77960
H8 H -0.12870 0.34380 0.75560
H9 H -0.75780 0.60960 0.70460
H10 H -0.93370 0.71600 0.61560
H11 H -0.73500 0.71480 0.51680
H12 H -0.43080 0.60710 0.47890
H13 H -0.16790 0.61980 0.44740
H14 H 0.07120 0.63560 0.33430
H15 H 0.35740 0.53400 0.30170
H16 H 0.52000 0.39720 0.36870
loop_
_geom_bond_atom_site_label_1
_geom_bond_atom_site_label_2
_geom_bond_distance
_geom_bond_site_symmetry_1
_geom_bond_site_symmetry_2
C1 C2 1.496 1_555 1_555
C2 C3 1.427 1_555 1_555
C3 C4 1.419 1_555 1_555
C4 C5 1.403 1_555 1_555
C5 C6 1.523 1_555 1_555
C6 C7 1.503 1_555 1_555
C7 C8 1.394 1_555 1_555
C8 C9 1.475 1_555 1_555
C9 C5 1.391 1_555 1_555
C10 C2 1.378 1_555 1_555
C11 C10 1.485 1_555 1_555
C12 C1 1.481 1_555 1_555
C13 C3 1.409 1_555 1_555
C14 C13 1.369 1_555 1_555
C15 C14 1.384 1_555 1_555
C16 C4 1.444 1_555 1_555
C17 C7 1.399 1_555 1_555
C18 C17 1.390 1_555 1_555
C19 C18 1.387 1_555 1_555
C20 C8 1.395 1_555 1_555
C21 C11 1.392 1_555 1_555
C22 C21 1.383 1_555 1_555
C23 C22 1.380 1_555 1_555
C24 C12 1.398 1_555 1_555
H1 C1 0.982 1_555 1_555
H2 C1 0.990 1_555 1_555
H3 C6 1.147 1_555 1_555
H4 C6 1.016 1_555 1_555
H5 C13 0.881 1_555 1_555
H6 C14 0.990 1_555 1_555
H7 C15 0.976 1_555 1_555
H8 C16 1.073 1_555 1_555
H9 C17 0.992 1_555 1_555
H10 C18 1.051 1_555 1_555
H11 C19 0.985 1_555 1_555
H12 C20 1.201 1_555 1_555
H13 C21 1.216 1_555 1_555
H14 C22 1.098 1_555 1_555
H15 C23 1.078 1_555 1_555
H16 C24 1.106 1_555 1_555
C9 C10 1.438 1_555 1_555
C11 C12 1.389 1_555 1_555
C15 C16 1.374 1_555 1_555
C19 C20 1.385 1_555 1_555
C23 C24 1.370 1_555 1_555
#END
