
#######################################################################
#
#                 Cambridge Crystallographic Data Centre
#                                CCDC
#
#######################################################################
#
# If this CIF has been generated from an entry in the Cambridge
# Structural Database, then it will include bibliographic, chemical,
# crystal, experimental, refinement or atomic coordinate data resulting
# from the CCDC's data processing and validation procedures.
#
#######################################################################

data_CSD_CIF_LAYPIL
_audit_creation_date 2006-03-20
_audit_creation_method CSD-ConQuest-V1
_database_code_CSD LAYPIL
_database_code_depnum_ccdc_archive 'CCDC 221115'
_chemical_formula_sum 'C24 H20'
_chemical_formula_moiety
;
C24 H20
;
_journal_coden_Cambridge 182
_journal_year 2005
_journal_page_first 5665
_journal_name_full 'Chem.Commun. '
loop_
_publ_author_name
"J.Storsberg"
"Min-Liang Yao"
"N.Ocal"
"A.de Meijere"
"A.E.W.Adam"
"D.E.Kaufmann"
_chemical_name_systematic
;
9-(9-Phenanthryl)tetracyclo(3.3.2.0^6,8^.0^4,10^)dec-2-ene
;
_chemical_melting_point 427.15
_cell_volume   3300.969
_exptl_crystal_colour 'colorless'
_exptl_crystal_density_diffrn 1.241
_exptl_special_details
;
Melting point range 427.15-429.15K

;
_exptl_crystal_description 'irregular polyhedron'
_exptl_crystal_preparation 'n-hexane'
_diffrn_ambient_temperature ?
_diffrn_special_details
;
The study was carried out at room temperature,in the range 283-303K

;
#These two values have been output from a single CSD field.
_refine_ls_R_factor_gt 0.0304
_refine_ls_wR_factor_gt 0.0304
_symmetry_cell_setting monoclinic
_symmetry_space_group_name_H-M 'C 2/c'
_symmetry_Int_Tables_number 15
loop_
_symmetry_equiv_pos_site_id
_symmetry_equiv_pos_as_xyz
1 x,y,z
2 1/2+x,1/2+y,z
3 -x,y,1/2-z
4 1/2-x,1/2+y,1/2-z
5 -x,-y,-z
6 -1/2-x,-1/2-y,-z
7 x,-y,-1/2+z
8 -1/2+x,-1/2-y,-1/2+z
_cell_length_a 22.183(7)
_cell_length_b 6.6592(12)
_cell_length_c 22.362(6)
_cell_angle_alpha 90
_cell_angle_beta 92.17(2)
_cell_angle_gamma 90
_cell_formula_units_Z 8
loop_
_atom_type_symbol
_atom_type_radius_bond
C 0.68
H 0.23
loop_
_atom_site_label
_atom_site_type_symbol
_atom_site_fract_x
_atom_site_fract_y
_atom_site_fract_z
C1 C 0.38666(8) -0.0290(3) 0.04900(9)
C2 C 0.45195(9) 0.0114(3) 0.06234(10)
C3 C 0.48407(10) -0.1175(3) 0.09404(10)
C4 C 0.45749(9) -0.2938(3) 0.12145(11)
C5 C 0.41471(11) -0.4285(3) 0.08404(12)
C6 C 0.40315(11) -0.3941(3) 0.01876(12)
C7 C 0.34013(12) -0.3562(4) -0.00398(15)
C8 C 0.38418(9) -0.1885(3) -0.00005(11)
C9 C 0.35724(8) -0.1052(3) 0.10670(9)
C10 C 0.39055(9) -0.2877(3) 0.12895(11)
C11 C 0.35267(7) 0.0554(2) 0.15442(8)
C12 C 0.30641(7) 0.2079(3) 0.14892(8)
C13 C 0.26527(8) 0.2135(3) 0.09939(10)
C14 C 0.22188(9) 0.3571(3) 0.09437(11)
C15 C 0.21694(9) 0.4995(4) 0.13909(11)
C16 C 0.25577(9) 0.4979(3) 0.18786(10)
C17 C 0.30172(7) 0.3556(3) 0.19433(9)
C18 C 0.34421(7) 0.3579(3) 0.24565(8)
C19 C 0.34414(9) 0.5024(3) 0.29159(10)
C20 C 0.38546(10) 0.4982(4) 0.33882(10)
C21 C 0.42859(10) 0.3496(3) 0.34227(11)
C22 C 0.43027(8) 0.2078(3) 0.29837(9)
C23 C 0.38860(7) 0.2083(3) 0.24918(9)
C24 C 0.39078(8) 0.0600(3) 0.20310(9)
H1 H 0.3661(8) 0.098(3) 0.0336(8)
H2 H 0.4685(9) 0.136(3) 0.0444(9)
H3 H 0.5258(10) -0.101(3) 0.1023(9)
H4 H 0.4808(9) -0.363(3) 0.1535(10)
H5 H 0.4155(8) -0.561(3) 0.0968(9)
H6 H 0.4286(10) -0.466(3) -0.0078(11)
H7 H 0.3286(10) -0.402(4) -0.0437(12)
H8 H 0.3103(10) -0.373(3) 0.0286(12)
H9 H 0.3990(9) -0.141(3) -0.0389(10)
H10 H 0.3164(8) -0.146(2) 0.0942(7)
H11 H 0.3780(8) -0.341(3) 0.1654(9)
H12 H 0.2668(7) 0.116(3) 0.0684(9)
H13 H 0.1949(9) 0.355(3) 0.0606(10)
H14 H 0.1867(9) 0.604(3) 0.1342(9)
H15 H 0.2527(8) 0.602(3) 0.2177(9)
H16 H 0.3153(8) 0.609(3) 0.2887(8)
H17 H 0.3854(8) 0.607(3) 0.3711(10)
H18 H 0.4563(9) 0.349(3) 0.376(1)
H19 H 0.4607(8) 0.096(3) 0.3007(9)
H20 H 0.4207(8) -0.044(3) 0.2093(8)
loop_
_geom_bond_atom_site_label_1
_geom_bond_atom_site_label_2
_geom_bond_distance
_geom_bond_site_symmetry_1
_geom_bond_site_symmetry_2
C1 C2 1.492 1_555 1_555
C2 C3 1.307 1_555 1_555
C3 C4 1.459 1_555 1_555
C4 C5 1.531 1_555 1_555
C5 C6 1.490 1_555 1_555
C6 C7 1.491 1_555 1_555
C7 C8 1.484 1_555 1_555
C8 C1 1.526 1_555 1_555
C9 C1 1.553 1_555 1_555
C10 C4 1.501 1_555 1_555
C11 C9 1.517 1_555 1_555
C12 C11 1.446 1_555 1_555
C13 C12 1.409 1_555 1_555
C14 C13 1.358 1_555 1_555
C15 C14 1.385 1_555 1_555
C16 C15 1.364 1_555 1_555
C17 C12 1.420 1_555 1_555
C18 C17 1.457 1_555 1_555
C19 C18 1.408 1_555 1_555
C20 C19 1.372 1_555 1_555
C21 C20 1.377 1_555 1_555
C22 C21 1.364 1_555 1_555
C23 C18 1.401 1_555 1_555
C24 C11 1.353 1_555 1_555
H1 C1 1.015 1_555 1_555
H2 C2 0.998 1_555 1_555
H3 C3 0.943 1_555 1_555
H4 C4 0.983 1_555 1_555
H5 C5 0.927 1_555 1_555
H6 C6 0.962 1_555 1_555
H7 C7 0.964 1_555 1_555
H8 C7 1.009 1_555 1_555
H9 C8 0.992 1_555 1_555
H10 C9 0.976 1_555 1_555
H11 C10 0.941 1_555 1_555
H12 C13 0.951 1_555 1_555
H13 C14 0.946 1_555 1_555
H14 C15 0.970 1_555 1_555
H15 C16 0.966 1_555 1_555
H16 C19 0.956 1_555 1_555
H17 C20 1.023 1_555 1_555
H18 C21 0.955 1_555 1_555
H19 C22 1.005 1_555 1_555
H20 C24 0.966 1_555 1_555
C5 C10 1.489 1_555 1_555
C6 C8 1.488 1_555 1_555
C9 C10 1.498 1_555 1_555
C16 C17 1.395 1_555 1_555
C22 C23 1.410 1_555 1_555
C23 C24 1.429 1_555 1_555
#END
