
#######################################################################
#
#                 Cambridge Crystallographic Data Centre
#                                CCDC
#
#######################################################################
#
# If this CIF has been generated from an entry in the Cambridge
# Structural Database, then it will include bibliographic, chemical,
# crystal, experimental, refinement or atomic coordinate data resulting
# from the CCDC's data processing and validation procedures.
#
#######################################################################

data_CSD_CIF_LEPPIF03
_audit_creation_date 2013-07-31
_audit_creation_method CSD-ConQuest-V1
_database_code_CSD LEPPIF03
_database_code_depnum_ccdc_archive 'CCDC 855467'
_chemical_formula_sum 'C30 H18'
_chemical_formula_moiety
;
C30 H18
;
_journal_coden_Cambridge 1078
_journal_year 2011
_journal_name_full 'CSD Communication(Private Communication) '
loop_
_publ_author_name
"A.S.Batsanov"
"J.C.Collings"
"T.B.Marder"
_chemical_name_systematic
;
9,10-bis(phenylethynyl)anthracene
;
_cell_volume   1981.925
_exptl_crystal_colour 'dark yellow'
_exptl_crystal_density_diffrn 1.268
_exptl_special_details
;
monoclinic polymorph
contribution from Department of Chemistry, Durham University, South Road, 
Durham, UK
;
_exptl_crystal_description 'block'
_diffrn_ambient_temperature 120
#These two values have been output from a single CSD field.
_refine_ls_R_factor_gt 0.0412
_refine_ls_wR_factor_gt 0.0412
_symmetry_cell_setting monoclinic
_symmetry_space_group_name_H-M 'C 2/c'
_symmetry_Int_Tables_number 15
loop_
_symmetry_equiv_pos_site_id
_symmetry_equiv_pos_as_xyz
1 x,y,z
2 -x,y,1/2-z
3 1/2+x,1/2+y,z
4 1/2-x,1/2+y,1/2-z
5 -x,-y,-z
6 x,-y,-1/2+z
7 -1/2-x,-1/2-y,-z
8 -1/2+x,-1/2-y,-1/2+z
_cell_length_a 22.4208(16)
_cell_length_b 5.3576(5)
_cell_length_c 16.6710(13)
_cell_angle_alpha 90
_cell_angle_beta 98.23(1)
_cell_angle_gamma 90
_cell_formula_units_Z 4
loop_
_atom_type_symbol
_atom_type_radius_bond
C 0.68
H 0.23
loop_
_atom_site_label
_atom_site_type_symbol
_atom_site_fract_x
_atom_site_fract_y
_atom_site_fract_z
C1 C 0.54487(4) 1.00555(18) 0.36657(5)
H1 H 0.5451(6) 1.118(2) 0.3179(7)
C2 C 0.50374(4) 0.81638(17) 0.36316(5)
H2 H 0.4740(5) 0.791(2) 0.3134(7)
C3 C 0.50161(4) 0.65428(16) 0.43081(5)
C4 C 0.45840(4) 0.46058(16) 0.42884(5)
C5 C 0.45631(4) 0.30604(16) 0.49734(5)
C6 C 0.41372(4) 0.10723(17) 0.49650(5)
H3 H 0.3846(5) 0.078(2) 0.4468(7)
C7 C 0.41307(4) -0.04368(17) 0.56229(6)
H4 H 0.3843(5) -0.185(2) 0.5609(7)
C8 C 0.41650(4) 0.42235(16) 0.35676(5)
C9 C 0.38141(4) 0.39711(16) 0.29559(5)
C10 C 0.33756(4) 0.38493(16) 0.22410(5)
C11 C 0.33627(4) 0.57226(18) 0.16543(5)
H5 H 0.3663(5) 0.707(3) 0.1721(7)
C12 C 0.29179(5) 0.57191(19) 0.09842(6)
H6 H 0.2914(6) 0.709(3) 0.0583(8)
C13 C 0.24837(4) 0.38533(19) 0.08898(5)
H7 H 0.2165(6) 0.388(2) 0.0397(8)
C14 C 0.25027(4) 0.19545(19) 0.14587(5)
H8 H 0.2200(5) 0.057(2) 0.1394(7)
C15 C 0.29461(4) 0.19415(17) 0.21339(5)
H9 H 0.2956(6) 0.058(2) 0.2538(7)
C1D C 0.45513(4) -0.00555(18) 0.63343(5)
H1D H 0.4549(6) -0.118(2) 0.6821(7)
C2D C 0.49626(4) 0.18362(17) 0.63684(5)
H2D H 0.5260(5) 0.209(2) 0.6866(7)
C3D C 0.49839(4) 0.34572(16) 0.56919(5)
C4D C 0.54160(4) 0.53942(16) 0.57116(5)
C5D C 0.54369(4) 0.69396(16) 0.50266(5)
C6D C 0.58628(4) 0.89277(17) 0.50350(5)
H3D H 0.6154(5) 0.922(2) 0.5532(7)
C7D C 0.58693(4) 1.04368(17) 0.43771(6)
H4D H 0.6157(5) 1.185(2) 0.4391(7)
C8D C 0.58350(4) 0.57765(16) 0.64324(5)
C9D C 0.61859(4) 0.60289(16) 0.70441(5)
C10D C 0.66244(4) 0.61507(16) 0.77590(5)
C11D C 0.66373(4) 0.42774(18) 0.83457(5)
H5D H 0.6337(5) 0.293(3) 0.8279(7)
C12D C 0.70821(5) 0.42809(19) 0.90158(6)
H6D H 0.7086(6) 0.291(3) 0.9417(8)
C13D C 0.75163(4) 0.61467(19) 0.91102(5)
H7D H 0.7835(6) 0.612(2) 0.9603(8)
C14D C 0.74973(4) 0.80455(19) 0.85413(5)
H8D H 0.7800(5) 0.943(2) 0.8606(7)
C15D C 0.70539(4) 0.80585(17) 0.78661(5)
H9D H 0.7044(6) 0.942(2) 0.7462(7)
loop_
_geom_bond_atom_site_label_1
_geom_bond_atom_site_label_2
_geom_bond_distance
_geom_bond_site_symmetry_1
_geom_bond_site_symmetry_2
C1 H1 1.011 1_555 1_555
C2 C1 1.366 1_555 1_555
H2 C2 0.996 1_555 1_555
C3 C2 1.430 1_555 1_555
C4 C3 1.417 1_555 1_555
C5 C4 1.417 1_555 1_555
C6 C5 1.429 1_555 1_555
H3 C6 0.991 1_555 1_555
C7 C6 1.364 1_555 1_555
H4 C7 0.993 1_555 1_555
C8 C4 1.430 1_555 1_555
C9 C8 1.203 1_555 1_555
C10 C9 1.434 1_555 1_555
C11 C10 1.399 1_555 1_555
H5 C11 0.983 1_555 1_555
C12 C11 1.387 1_555 1_555
H6 C12 0.993 1_555 1_555
C13 C12 1.388 1_555 1_555
H7 C13 1.009 1_555 1_555
C14 C13 1.387 1_555 1_555
H8 C14 1.001 1_555 1_555
C15 C10 1.398 1_555 1_555
H9 C15 0.991 1_555 1_555
C1D C7 1.420 1_555 1_555
H1D C1D 1.011 1_555 1_555
C2D C1D 1.366 1_555 1_555
H2D C2D 0.996 1_555 1_555
C3D C5 1.431 1_555 1_555
C4D C3D 1.417 1_555 1_555
C5D C3 1.431 1_555 1_555
C6D C5D 1.429 1_555 1_555
H3D C6D 0.991 1_555 1_555
C7D C1 1.420 1_555 1_555
H4D C7D 0.993 1_555 1_555
C8D C4D 1.430 1_555 1_555
C9D C8D 1.203 1_555 1_555
C10D C9D 1.434 1_555 1_555
C11D C10D 1.399 1_555 1_555
H5D C11D 0.983 1_555 1_555
C12D C11D 1.387 1_555 1_555
H6D C12D 0.993 1_555 1_555
C13D C12D 1.388 1_555 1_555
H7D C13D 1.009 1_555 1_555
C14D C13D 1.387 1_555 1_555
H8D C14D 1.001 1_555 1_555
C15D C10D 1.398 1_555 1_555
H9D C15D 0.991 1_555 1_555
C14 C15 1.391 1_555 1_555
C2D C3D 1.430 1_555 1_555
C4D C5D 1.417 1_555 1_555
C6D C7D 1.364 1_555 1_555
C14D C15D 1.391 1_555 1_555
#END
