
#######################################################################
#
#                 Cambridge Crystallographic Data Centre
#                                CCDC
#
#######################################################################
#
# If this CIF has been generated from an entry in the Cambridge
# Structural Database, then it will include bibliographic, chemical,
# crystal, experimental, refinement or atomic coordinate data resulting
# from the CCDC's data processing and validation procedures.
#
#######################################################################

data_CSD_CIF_LEPPIF01
_audit_creation_date 2010-05-03
_audit_creation_method CSD-ConQuest-V1
_database_code_CSD LEPPIF01
_database_code_depnum_ccdc_archive 'CCDC 715257'
_chemical_formula_sum 'C30 H18'
_chemical_formula_moiety
;
C30 H18
;
_journal_coden_Cambridge 1096
_journal_volume 21
_journal_year 2009
_journal_page_first 2840
_journal_name_full 'Chem.Mater. '
loop_
_publ_author_name
"Chengliang Wang"
"Yaling Liu"
"Zhuoyu Ji"
"Erjing Wang"
"Rongjin Li"
"Hui Jiang"
"Qingxin Tang"
"Hongxiang Li"
"Wenping Hu"
_chemical_name_systematic
;
9,10-bis(Phenylethynyl)anthracene
;
_cell_volume   2043.924
_exptl_crystal_colour 'orange'
_exptl_crystal_density_diffrn 1.23
_exptl_special_details
;
monoclinic polymorph

;
_exptl_crystal_description 'plate'
_diffrn_ambient_temperature 296
#These two values have been output from a single CSD field.
_refine_ls_R_factor_gt 0.0594
_refine_ls_wR_factor_gt 0.0594
_symmetry_cell_setting monoclinic
_symmetry_space_group_name_H-M 'C 2/c'
_symmetry_Int_Tables_number 15
loop_
_symmetry_equiv_pos_site_id
_symmetry_equiv_pos_as_xyz
1 x,y,z
2 -x,y,1/2-z
3 1/2+x,1/2+y,z
4 1/2-x,1/2+y,1/2-z
5 -x,-y,-z
6 x,-y,-1/2+z
7 -1/2-x,-1/2-y,-z
8 -1/2+x,-1/2-y,-1/2+z
_cell_length_a 22.866(5)
_cell_length_b 5.3567(11)
_cell_length_c 16.930(3)
_cell_angle_alpha 90
_cell_angle_beta 99.72(3)
_cell_angle_gamma 90
_cell_formula_units_Z 4
loop_
_atom_type_symbol
_atom_type_radius_bond
C 0.68
H 0.23
loop_
_atom_site_label
_atom_site_type_symbol
_atom_site_fract_x
_atom_site_fract_y
_atom_site_fract_z
C1 C -0.2048(1) -0.2978(4) 0.21367(13)
H1 H -0.20400 -0.42340 0.25180
C2 C -0.24896(10) -0.2970(5) 0.14666(15)
H2 H -0.27780 -0.42110 0.14030
C3 C -0.2503(1) -0.1149(6) 0.08990(14)
H3 H -0.28050 -0.11210 0.04560
C4 C -0.20710(12) 0.0622(5) 0.09887(14)
H4 H -0.20710 0.18360 0.05960
C5 C -0.1636(1) 0.0632(4) 0.16533(13)
H5 H -0.13450 0.18640 0.17070
C6 C -0.16215(8) -0.1147(4) 0.22432(11)
C7 C -0.11809(9) -0.1001(4) 0.29572(12)
C8 C -0.08317(9) -0.0755(4) 0.35646(12)
C9 C -0.04128(8) -0.0385(4) 0.42884(11)
C10 C 0.00168(8) 0.1525(4) 0.43193(11)
C11 C 0.00412(9) 0.3127(4) 0.36540(12)
H6 H -0.02280 0.28980 0.31820
C12 C 0.0448(1) 0.4974(4) 0.36963(13)
H7 H 0.04540 0.60050 0.32560
C13 C 0.08635(9) 0.5350(4) 0.44043(14)
H8 H 0.11430 0.66190 0.44260
C14 C 0.08571(9) 0.3878(4) 0.50492(12)
H9 H 0.11330 0.41520 0.55120
C15 C 0.04352(8) 0.1910(4) 0.50353(11)
C1D C 0.2048(1) 0.2978(4) 0.78633(13)
H1D H 0.20400 0.42340 0.74820
C2D C 0.24896(10) 0.2970(5) 0.85334(15)
H2D H 0.27780 0.42110 0.85970
C3D C 0.2503(1) 0.1149(6) 0.91010(14)
H3D H 0.28050 0.11210 0.95440
C4D C 0.20710(12) -0.0622(5) 0.90113(14)
H4D H 0.20710 -0.18360 0.94040
C5D C 0.1636(1) -0.0632(4) 0.83467(13)
H5D H 0.13450 -0.18640 0.82930
C6D C 0.16215(8) 0.1147(4) 0.77568(11)
C7D C 0.11809(9) 0.1001(4) 0.70428(12)
C8D C 0.08317(9) 0.0755(4) 0.64354(12)
C9D C 0.04128(8) 0.0385(4) 0.57116(11)
C10D C -0.00168(8) -0.1525(4) 0.56807(11)
C11D C -0.00412(9) -0.3127(4) 0.63460(12)
H6D H 0.02280 -0.28980 0.68180
C12D C -0.0448(1) -0.4974(4) 0.63037(13)
H7D H -0.04540 -0.60050 0.67440
C13D C -0.08635(9) -0.5350(4) 0.55957(14)
H8D H -0.11430 -0.66190 0.55740
C14D C -0.08571(9) -0.3878(4) 0.49508(12)
H9D H -0.11330 -0.41520 0.44880
C15D C -0.04352(8) -0.1910(4) 0.49647(11)
loop_
_geom_bond_atom_site_label_1
_geom_bond_atom_site_label_2
_geom_bond_distance
_geom_bond_site_symmetry_1
_geom_bond_site_symmetry_2
C1 H1 0.930 1_555 1_555
C2 C1 1.386 1_555 1_555
H2 C2 0.930 1_555 1_555
C3 C2 1.366 1_555 1_555
H3 C3 0.930 1_555 1_555
C4 C3 1.359 1_555 1_555
H4 C4 0.930 1_555 1_555
C5 C4 1.370 1_555 1_555
H5 C5 0.931 1_555 1_555
C6 C1 1.373 1_555 1_555
C7 C6 1.439 1_555 1_555
C8 C7 1.198 1_555 1_555
C9 C8 1.436 1_555 1_555
C10 C9 1.413 1_555 1_555
C11 C10 1.425 1_555 1_555
H6 C11 0.931 1_555 1_555
C12 C11 1.352 1_555 1_555
H7 C12 0.930 1_555 1_555
C13 C12 1.413 1_555 1_555
H8 C13 0.929 1_555 1_555
C14 C13 1.349 1_555 1_555
H9 C14 0.931 1_555 1_555
C15 C10 1.427 1_555 1_555
C1D H1D 0.930 1_555 1_555
C2D C1D 1.386 1_555 1_555
H2D C2D 0.930 1_555 1_555
C3D C2D 1.366 1_555 1_555
H3D C3D 0.930 1_555 1_555
C4D C3D 1.359 1_555 1_555
H4D C4D 0.930 1_555 1_555
C5D C4D 1.370 1_555 1_555
H5D C5D 0.931 1_555 1_555
C6D C1D 1.373 1_555 1_555
C7D C6D 1.439 1_555 1_555
C8D C7D 1.198 1_555 1_555
C9D C15 1.414 1_555 1_555
C10D C9D 1.413 1_555 1_555
C11D C10D 1.425 1_555 1_555
H6D C11D 0.931 1_555 1_555
C12D C11D 1.352 1_555 1_555
H7D C12D 0.930 1_555 1_555
C13D C12D 1.413 1_555 1_555
H8D C13D 0.929 1_555 1_555
C14D C13D 1.349 1_555 1_555
H9D C14D 0.931 1_555 1_555
C15D C9 1.414 1_555 1_555
C5 C6 1.377 1_555 1_555
C14 C15 1.426 1_555 1_555
C5D C6D 1.377 1_555 1_555
C8D C9D 1.436 1_555 1_555
C10D C15D 1.427 1_555 1_555
C14D C15D 1.426 1_555 1_555
#END
