
#######################################################################
#
#                 Cambridge Crystallographic Data Centre
#                                CCDC
#
#######################################################################
#
# If this CIF has been generated from an entry in the Cambridge
# Structural Database, then it will include bibliographic, chemical,
# crystal, experimental, refinement or atomic coordinate data resulting
# from the CCDC's data processing and validation procedures.
#
#######################################################################

data_CSD_CIF_LEPPIF06
_audit_creation_date 2015-03-30
_audit_creation_method CSD-ConQuest-V1
_database_code_CSD LEPPIF06
_database_code_depnum_ccdc_archive 'CCDC 1050623'
_chemical_formula_sum 'C30 H18'
_chemical_formula_moiety
;
C30 H18
;
_journal_coden_Cambridge 1490
_journal_volume 6
_journal_year 2015
_journal_page_first 6737
_journal_name_full 'Nat.Commun. '
loop_
_publ_author_name
"Yuchen Wu"
"Jiangang Feng"
"Xiangyu Jiang"
"Zhen Zhang"
"Xuedong Wang"
"Bin Su"
"Lei Jiang"
_chemical_name_systematic
;
9,10-bis(phenylethynyl)anthracene
;
_cell_volume   1998.371
_exptl_crystal_colour 'orange'
_exptl_crystal_density_diffrn 1.258
_exptl_special_details
;
monoclinic polymorph

;
_exptl_crystal_description 'plate'
_diffrn_ambient_temperature 173.2
#These two values have been output from a single CSD field.
_refine_ls_R_factor_gt 0.0676
_refine_ls_wR_factor_gt 0.0676
_symmetry_cell_setting monoclinic
_symmetry_space_group_name_H-M 'C 2/c'
_symmetry_Int_Tables_number 15
loop_
_symmetry_equiv_pos_site_id
_symmetry_equiv_pos_as_xyz
1 x,y,z
2 -x,y,1/2-z
3 1/2+x,1/2+y,z
4 1/2-x,1/2+y,1/2-z
5 -x,-y,-z
6 x,-y,-1/2+z
7 -1/2-x,-1/2-y,-z
8 -1/2+x,-1/2-y,-1/2+z
_cell_length_a 22.535(14)
_cell_length_b 5.356(3)
_cell_length_c 16.749(11)
_cell_angle_alpha 90
_cell_angle_beta 98.687(9)
_cell_angle_gamma 90
_cell_formula_units_Z 4
loop_
_atom_type_symbol
_atom_type_radius_bond
C 0.68
H 0.23
loop_
_atom_site_label
_atom_site_type_symbol
_atom_site_fract_x
_atom_site_fract_y
_atom_site_fract_z
C1 C 0.33762(7) 0.1153(3) 0.22411(10)
C2 C 0.33610(8) -0.0699(4) 0.16551(11)
H1 H 0.36500 -0.19520 0.17140
C3 C 0.29195(9) -0.0684(4) 0.09872(11)
H2 H 0.29130 -0.19250 0.05980
C4 C 0.24887(8) 0.1153(4) 0.08941(11)
H3 H 0.21870 0.11310 0.04490
C5 C 0.25047(8) 0.3030(4) 0.14614(11)
H4 H 0.22180 0.42910 0.13930
C6 C 0.29473(8) 0.3043(4) 0.21339(10)
H5 H 0.29570 0.43160 0.25140
C7 C 0.38145(8) 0.1031(3) 0.2956(1)
C8 C 0.41655(7) 0.0775(3) 0.35663(10)
C9 C 0.45843(7) 0.0396(3) 0.42882(10)
C10 C 0.45627(7) 0.1933(3) 0.49707(9)
C11 C 0.49839(7) 0.1538(3) 0.56892(10)
C12 C 0.49599(8) 0.3149(3) 0.63612(10)
H6 H 0.52290 0.29110 0.68330
C13 C 0.45516(8) 0.5023(4) 0.63261(11)
H7 H 0.45470 0.60600 0.67700
C14 C 0.41325(8) 0.5411(4) 0.56177(11)
H8 H 0.38520 0.66890 0.56000
C15 C 0.41402(7) 0.3913(3) 0.49622(10)
H9 H 0.38640 0.41900 0.44990
C1D C 0.66238(7) -0.1153(3) 0.77589(10)
C2D C 0.66390(8) 0.0699(4) 0.83449(11)
H1D H 0.63500 0.19520 0.82860
C3D C 0.70805(9) 0.0684(4) 0.90128(11)
H2D H 0.70870 0.19250 0.94020
C4D C 0.75113(8) -0.1153(4) 0.91059(11)
H3D H 0.78130 -0.11310 0.95510
C5D C 0.74953(8) -0.3030(4) 0.85386(11)
H4D H 0.77820 -0.42910 0.86070
C6D C 0.70527(8) -0.3043(4) 0.78661(10)
H5D H 0.70430 -0.43160 0.74860
C7D C 0.61855(8) -0.1031(3) 0.7044(1)
C8D C 0.58345(7) -0.0775(3) 0.64337(10)
C9D C 0.54157(7) -0.0396(3) 0.57118(10)
C10D C 0.54373(7) -0.1933(3) 0.50293(9)
C11D C 0.50161(7) -0.1538(3) 0.43108(10)
C12D C 0.50401(8) -0.3149(3) 0.36388(10)
H6D H 0.47710 -0.29110 0.31670
C13D C 0.54484(8) -0.5023(4) 0.36739(11)
H7D H 0.54530 -0.60600 0.32300
C14D C 0.58675(8) -0.5411(4) 0.43823(11)
H8D H 0.61480 -0.66890 0.44000
C15D C 0.58598(7) -0.3913(3) 0.50378(10)
H9D H 0.61360 -0.41900 0.55010
loop_
_geom_bond_atom_site_label_1
_geom_bond_atom_site_label_2
_geom_bond_distance
_geom_bond_site_symmetry_1
_geom_bond_site_symmetry_2
C1 C2 1.392 1_555 1_555
C2 H1 0.930 1_555 1_555
C3 C2 1.380 1_555 1_555
H2 C3 0.930 1_555 1_555
C4 C3 1.374 1_555 1_555
H3 C4 0.930 1_555 1_555
C5 C4 1.380 1_555 1_555
H4 C5 0.930 1_555 1_555
C6 C1 1.392 1_555 1_555
H5 C6 0.931 1_555 1_555
C7 C1 1.434 1_555 1_555
C8 C7 1.202 1_555 1_555
C9 C8 1.431 1_555 1_555
C10 C9 1.415 1_555 1_555
C11 C10 1.431 1_555 1_555
C12 C11 1.426 1_555 1_555
H6 C12 0.929 1_555 1_555
C13 C12 1.357 1_555 1_555
H7 C13 0.929 1_555 1_555
C14 C13 1.416 1_555 1_555
H8 C14 0.929 1_555 1_555
C15 C10 1.424 1_555 1_555
H9 C15 0.930 1_555 1_555
C1D C2D 1.392 1_555 1_555
C2D H1D 0.930 1_555 1_555
C3D C2D 1.380 1_555 1_555
H2D C3D 0.930 1_555 1_555
C4D C3D 1.374 1_555 1_555
H3D C4D 0.930 1_555 1_555
C5D C4D 1.380 1_555 1_555
H4D C5D 0.930 1_555 1_555
C6D C1D 1.392 1_555 1_555
H5D C6D 0.931 1_555 1_555
C7D C1D 1.434 1_555 1_555
C8D C7D 1.202 1_555 1_555
C9D C11 1.418 1_555 1_555
C10D C9D 1.415 1_555 1_555
C11D C9 1.418 1_555 1_555
C12D C11D 1.426 1_555 1_555
H6D C12D 0.929 1_555 1_555
C13D C12D 1.357 1_555 1_555
H7D C13D 0.929 1_555 1_555
C14D C13D 1.416 1_555 1_555
H8D C14D 0.929 1_555 1_555
C15D C10D 1.424 1_555 1_555
H9D C15D 0.930 1_555 1_555
C5 C6 1.387 1_555 1_555
C14 C15 1.362 1_555 1_555
C5D C6D 1.387 1_555 1_555
C8D C9D 1.431 1_555 1_555
C10D C11D 1.431 1_555 1_555
C14D C15D 1.362 1_555 1_555
#END
