
#######################################################################
#
#                 Cambridge Crystallographic Data Centre
#                                CCDC
#
#######################################################################
#
# If this CIF has been generated from an entry in the Cambridge
# Structural Database, then it will include bibliographic, chemical,
# crystal, experimental, refinement or atomic coordinate data resulting
# from the CCDC's data processing and validation procedures.
#
#######################################################################

data_CSD_CIF_LETCUK
_audit_creation_date 2013-04-23
_audit_creation_method CSD-ConQuest-V1
_database_code_CSD LETCUK
_database_code_depnum_ccdc_archive 'CCDC 925233'
_chemical_formula_sum 'C26 H18'
_chemical_formula_moiety
;
C26 H18
;
_journal_coeditor_code "IUCr pv2619"
_journal_coden_Cambridge 1370
_journal_volume 69
_journal_year 2013
_journal_page_first o308
_journal_name_full 'Acta Crystallogr.,Sect.E:Struct.Rep.Online '
loop_
_publ_author_name
"M.L.Wolfenden"
"R.K.Dhar"
"F.R.Fronczek"
"S.F.Watkins"
_chemical_name_systematic
;
2-[3-(Naphthalen-2-yl)phenyl]naphthalene
;
_chemical_name_common
;
2,2'-(1,3-Phenylene)dinaphthalene
;
_chemical_melting_point 143.5
_cell_volume   3458.951
_exptl_crystal_colour 'colorless'
_exptl_crystal_density_diffrn 1.269
_exptl_crystal_description 'prism'
_diffrn_ambient_temperature 100
#These two values have been output from a single CSD field.
_refine_ls_R_factor_gt 0.0453
_refine_ls_wR_factor_gt 0.0453
_symmetry_cell_setting orthorhombic
_symmetry_space_group_name_H-M 'P b c n'
_symmetry_Int_Tables_number 60
loop_
_symmetry_equiv_pos_site_id
_symmetry_equiv_pos_as_xyz
1 x,y,z
2 1/2-x,1/2-y,1/2+z
3 1/2+x,1/2-y,-z
4 -x,y,1/2-z
5 -x,-y,-z
6 -1/2+x,-1/2+y,-1/2-z
7 -1/2-x,-1/2+y,z
8 x,-y,-1/2+z
_cell_length_a 25.9304(3)
_cell_length_b 8.9300(1)
_cell_length_c 14.9377(2)
_cell_angle_alpha 90
_cell_angle_beta 90
_cell_angle_gamma 90
_cell_formula_units_Z 8
loop_
_atom_type_symbol
_atom_type_radius_bond
C 0.68
H 0.23
loop_
_atom_site_label
_atom_site_type_symbol
_atom_site_fract_x
_atom_site_fract_y
_atom_site_fract_z
C1 C 0.63414(3) 0.65124(10) 0.39203(6)
C2 C 0.62992(3) 0.71392(10) 0.30628(6)
H1 H 0.6484(5) 0.8056(15) 0.2934(8)
C3 C 0.59837(3) 0.65068(10) 0.24032(6)
C4 C 0.57139(4) 0.51927(11) 0.26073(6)
H2 H 0.5494(5) 0.4704(15) 0.2136(8)
C5 C 0.57577(4) 0.45461(11) 0.34519(6)
H3 H 0.5574(5) 0.3638(16) 0.3575(8)
C6 C 0.60671(4) 0.51962(11) 0.41055(6)
H4 H 0.6101(5) 0.4717(15) 0.4700(9)
C7 C 0.65216(4) 0.72652(11) 0.55034(6)
H5 H 0.6193(5) 0.6799(15) 0.5698(8)
C8 C 0.66657(3) 0.72466(10) 0.46121(6)
C9 C 0.71347(4) 0.79654(11) 0.43622(6)
H6 H 0.7242(5) 0.7931(15) 0.3721(8)
C10 C 0.74404(4) 0.86589(11) 0.49847(6)
H7 H 0.7772(5) 0.9160(15) 0.4807(8)
C11 C 0.72952(4) 0.86948(10) 0.59028(6)
C12 C 0.76011(4) 0.94138(11) 0.65616(7)
H8 H 0.7930(5) 0.9933(16) 0.6373(9)
C13 C 0.74530(4) 0.94171(12) 0.74436(7)
H9 H 0.7680(5) 0.9909(16) 0.7903(9)
C14 C 0.69902(4) 0.87049(13) 0.77044(6)
H10 H 0.6888(5) 0.8669(17) 0.8349(9)
C15 C 0.66831(4) 0.80109(12) 0.70813(6)
H11 H 0.6365(5) 0.7517(16) 0.7256(9)
C16 C 0.68280(4) 0.79842(10) 0.61631(6)
C17 C 0.54718(3) 0.72005(10) 0.10483(6)
H12 H 0.5158(5) 0.6693(15) 0.1293(8)
C18 C 0.59332(3) 0.72319(10) 0.15125(6)
C19 C 0.63624(3) 0.79954(11) 0.11308(6)
H13 H 0.6705(5) 0.8014(15) 0.1453(8)
C20 C 0.63221(3) 0.86852(11) 0.03141(6)
H14 H 0.6622(5) 0.9217(15) 0.0055(8)
C21 C 0.58490(3) 0.86835(10) -0.01638(6)
C22 C 0.57913(4) 0.94470(11) -0.09892(6)
H15 H 0.6099(5) 0.9976(15) -0.1227(9)
C23 C 0.53253(4) 0.94754(12) -0.14213(6)
H16 H 0.5289(5) 1.0075(16) -0.1999(9)
C24 C 0.48948(4) 0.87247(12) -0.10533(6)
H17 H 0.4556(5) 0.8770(16) -0.1362(9)
C25 C 0.49393(4) 0.79656(11) -0.02576(6)
H18 H 0.4636(5) 0.7474(16) 0.0014(8)
C26 C 0.54175(3) 0.79277(10) 0.02090(6)
loop_
_geom_bond_atom_site_label_1
_geom_bond_atom_site_label_2
_geom_bond_distance
_geom_bond_site_symmetry_1
_geom_bond_site_symmetry_2
C1 C2 1.402 1_555 1_555
C2 H1 0.968 1_555 1_555
C3 C2 1.400 1_555 1_555
C4 C3 1.400 1_555 1_555
H2 C4 1.006 1_555 1_555
C5 C4 1.392 1_555 1_555
H3 C5 0.958 1_555 1_555
C6 C1 1.401 1_555 1_555
H4 C6 0.990 1_555 1_555
C7 H5 0.992 1_555 1_555
C8 C1 1.485 1_555 1_555
C9 C8 1.425 1_555 1_555
H6 C9 0.998 1_555 1_555
C10 C9 1.370 1_555 1_555
H7 C10 1.005 1_555 1_555
C11 C10 1.423 1_555 1_555
C12 C11 1.418 1_555 1_555
H8 C12 1.011 1_555 1_555
C13 C12 1.372 1_555 1_555
H9 C13 1.005 1_555 1_555
C14 C13 1.413 1_555 1_555
H10 C14 0.999 1_555 1_555
C15 C14 1.373 1_555 1_555
H11 C15 0.971 1_555 1_555
C16 C7 1.419 1_555 1_555
C17 H12 1.001 1_555 1_555
C18 C3 1.485 1_555 1_555
C19 C18 1.424 1_555 1_555
H13 C19 1.011 1_555 1_555
C20 C19 1.371 1_555 1_555
H14 C20 0.990 1_555 1_555
C21 C20 1.419 1_555 1_555
C22 C21 1.417 1_555 1_555
H15 C22 0.993 1_555 1_555
C23 C22 1.370 1_555 1_555
H16 C23 1.020 1_555 1_555
C24 C23 1.413 1_555 1_555
H17 C24 0.993 1_555 1_555
C25 C24 1.373 1_555 1_555
H18 C25 0.988 1_555 1_555
C26 C17 1.419 1_555 1_555
C5 C6 1.391 1_555 1_555
C7 C8 1.383 1_555 1_555
C11 C16 1.422 1_555 1_555
C15 C16 1.422 1_555 1_555
C17 C18 1.383 1_555 1_555
C21 C26 1.420 1_555 1_555
C25 C26 1.423 1_555 1_555
#END
