
#######################################################################
#
#                 Cambridge Crystallographic Data Centre
#                                CCDC
#
#######################################################################
#
# If this CIF has been generated from an entry in the Cambridge
# Structural Database, then it will include bibliographic, chemical,
# crystal, experimental, refinement or atomic coordinate data resulting
# from the CCDC's data processing and validation procedures.
#
#######################################################################

data_CSD_CIF_LEZSEQ
_audit_creation_date 2013-05-26
_audit_creation_method CSD-ConQuest-V1
_database_code_CSD LEZSEQ
_database_code_depnum_ccdc_archive 'CCDC 826179'
_chemical_formula_sum 'C32 H20'
_chemical_formula_moiety
;
C32 H20
;
_journal_coden_Cambridge 179
_journal_volume 50
_journal_year 2011
_journal_page_first 9413
_journal_name_full 'Angew.Chem.,Int.Ed. '
loop_
_publ_author_name
"Zhenhua Gu"
"G.B.Boursalian"
"V.Gandon"
"R.Padilla"
"Hao Shen"
"T.V.Timofeeva"
"P.Tongwa"
"K.P.C.Vollhardt"
"A.A.Yakovenko"
_chemical_name_systematic
;
11,12-Diphenylbenzo[3,4]cyclobuta[1,2-a]phenanthrene
;
_cell_volume   2099.129
_exptl_crystal_colour 'yellow'
_exptl_crystal_density_diffrn 1.28
_exptl_crystal_description 'prism'
_diffrn_ambient_temperature 100
#These two values have been output from a single CSD field.
_refine_ls_R_factor_gt 0.0458
_refine_ls_wR_factor_gt 0.0458
_symmetry_cell_setting monoclinic
_symmetry_space_group_name_H-M 'P 21/c'
_symmetry_Int_Tables_number 14
loop_
_symmetry_equiv_pos_site_id
_symmetry_equiv_pos_as_xyz
1 x,y,z
2 -x,1/2+y,1/2-z
3 -x,-y,-z
4 x,-1/2-y,-1/2+z
_cell_length_a 8.0852(10)
_cell_length_b 24.146(3)
_cell_length_c 10.9096(13)
_cell_angle_alpha 90
_cell_angle_beta 99.740(2)
_cell_angle_gamma 90
_cell_formula_units_Z 4
loop_
_atom_type_symbol
_atom_type_radius_bond
C 0.68
H 0.23
loop_
_atom_site_label
_atom_site_type_symbol
_atom_site_fract_x
_atom_site_fract_y
_atom_site_fract_z
C1 C -0.21316(17) 0.29159(5) 0.32449(13)
H1 H -0.276(2) 0.2758(6) 0.3861(15)
C2 C -0.05017(17) 0.31305(5) 0.36683(12)
H2 H -0.0030(19) 0.3133(6) 0.4570(14)
C3 C 0.03036(16) 0.33391(5) 0.27630(12)
C4 C 0.18534(16) 0.36195(5) 0.24278(11)
C5 C 0.34645(15) 0.38274(5) 0.28401(11)
C6 C 0.42824(15) 0.38258(5) 0.41253(11)
C7 C 0.58304(15) 0.40602(5) 0.44707(11)
C8 C 0.67031(16) 0.43080(5) 0.35451(11)
C9 C 0.83283(17) 0.45349(5) 0.38964(13)
H3 H 0.8849(19) 0.4502(6) 0.4769(14)
C10 C 0.91598(18) 0.47783(6) 0.30317(13)
H4 H 1.027(2) 0.4932(7) 0.3300(15)
C11 C 0.83820(18) 0.48101(6) 0.17883(13)
H5 H 0.895(2) 0.4992(7) 0.1172(15)
C12 C 0.68148(18) 0.45839(5) 0.14181(12)
H6 H 0.6285(19) 0.4607(6) 0.0532(15)
C13 C 0.59443(16) 0.43180(5) 0.22741(11)
C14 C 0.42959(16) 0.40626(5) 0.18871(11)
C15 C 0.35127(18) 0.40456(6) 0.06329(12)
H7 H 0.4139(19) 0.4185(6) -0.0020(14)
C16 C 0.19092(18) 0.38263(6) 0.02450(12)
H8 H 0.139(2) 0.3821(6) -0.0663(15)
C17 C 0.10983(17) 0.36227(5) 0.11666(12)
C18 C -0.04484(16) 0.33427(5) 0.14861(12)
C19 C -0.20216(18) 0.31354(6) 0.10684(13)
H9 H -0.253(2) 0.3140(7) 0.0190(16)
C20 C -0.28610(18) 0.29154(5) 0.20064(13)
H10 H -0.399(2) 0.2772(6) 0.1785(14)
C21 C 0.34026(15) 0.35661(5) 0.50790(11)
C22 C 0.34584(17) 0.29946(6) 0.52661(13)
H11 H 0.4001(19) 0.2757(6) 0.4712(14)
C23 C 0.27214(18) 0.27589(6) 0.62139(15)
H12 H 0.281(2) 0.2361(8) 0.6324(16)
C24 C 0.19034(19) 0.30911(7) 0.69530(14)
H13 H 0.138(2) 0.2924(7) 0.7600(15)
C25 C 0.1811(2) 0.36593(7) 0.67562(13)
H14 H 0.122(2) 0.3903(8) 0.7303(17)
C26 C 0.25712(17) 0.38957(6) 0.58290(12)
H15 H 0.253(2) 0.4303(7) 0.5694(15)
C27 C 0.66003(15) 0.40730(5) 0.58183(11)
C28 C 0.65611(17) 0.45583(5) 0.65121(12)
H16 H 0.609(2) 0.4903(7) 0.6080(14)
C29 C 0.71657(17) 0.45638(6) 0.77852(12)
H17 H 0.7146(19) 0.4903(6) 0.8253(14)
C30 C 0.78245(17) 0.40844(6) 0.83833(12)
H18 H 0.823(2) 0.4089(6) 0.9285(15)
C31 C 0.78834(17) 0.36010(6) 0.77012(12)
H19 H 0.837(2) 0.3266(7) 0.8103(14)
C32 C 0.72809(17) 0.35957(5) 0.64276(12)
H20 H 0.7318(19) 0.3252(6) 0.5956(14)
loop_
_geom_bond_atom_site_label_1
_geom_bond_atom_site_label_2
_geom_bond_distance
_geom_bond_site_symmetry_1
_geom_bond_site_symmetry_2
C1 H1 0.985 1_555 1_555
C2 C1 1.419 1_555 1_555
H2 C2 0.993 1_555 1_555
C3 C2 1.368 1_555 1_555
C4 C3 1.522 1_555 1_555
C5 C4 1.397 1_555 1_555
C6 C5 1.446 1_555 1_555
C7 C6 1.367 1_555 1_555
C8 C7 1.455 1_555 1_555
C9 C8 1.415 1_555 1_555
H3 C9 0.977 1_555 1_555
C10 C9 1.379 1_555 1_555
H4 C10 0.970 1_555 1_555
C11 C10 1.397 1_555 1_555
H5 C11 0.980 1_555 1_555
C12 C11 1.376 1_555 1_555
H6 C12 0.990 1_555 1_555
C13 C8 1.418 1_555 1_555
C14 C5 1.446 1_555 1_555
C15 C14 1.408 1_555 1_555
H7 C15 1.000 1_555 1_555
C16 C15 1.398 1_555 1_555
H8 C16 1.008 1_555 1_555
C17 C4 1.408 1_555 1_555
C18 C3 1.423 1_555 1_555
C19 C18 1.371 1_555 1_555
H9 C19 0.977 1_555 1_555
C20 C1 1.380 1_555 1_555
H10 C20 0.968 1_555 1_555
C21 C6 1.494 1_555 1_555
C22 C21 1.395 1_555 1_555
H11 C22 0.988 1_555 1_555
C23 C22 1.399 1_555 1_555
H12 C23 0.969 1_555 1_555
C24 C23 1.383 1_555 1_555
H13 C24 0.970 1_555 1_555
C25 C24 1.389 1_555 1_555
H14 C25 1.013 1_555 1_555
C26 C21 1.393 1_555 1_555
H15 C26 0.994 1_555 1_555
C27 C7 1.497 1_555 1_555
C28 C27 1.398 1_555 1_555
H16 C28 1.000 1_555 1_555
C29 C28 1.392 1_555 1_555
H17 C29 0.967 1_555 1_555
C30 C29 1.390 1_555 1_555
H18 C30 0.983 1_555 1_555
C31 C30 1.389 1_555 1_555
H19 C31 0.971 1_555 1_555
C32 C27 1.396 1_555 1_555
H20 C32 0.980 1_555 1_555
C12 C13 1.415 1_555 1_555
C13 C14 1.464 1_555 1_555
C16 C17 1.380 1_555 1_555
C17 C18 1.513 1_555 1_555
C19 C20 1.423 1_555 1_555
C25 C26 1.392 1_555 1_555
C31 C32 1.392 1_555 1_555
#END
