
#######################################################################
#
#                 Cambridge Crystallographic Data Centre
#                                CCDC
#
#######################################################################
#
# If this CIF has been generated from an entry in the Cambridge
# Structural Database, then it will include bibliographic, chemical,
# crystal, experimental, refinement or atomic coordinate data resulting
# from the CCDC's data processing and validation procedures.
#
#######################################################################

data_CSD_CIF_LIHDEL
_audit_creation_date 2000-04-27
_audit_creation_method CSD-ConQuest-V1
_database_code_CSD LIHDEL
_database_code_depnum_ccdc_archive 'CCDC 127287'
_chemical_formula_sum 'C28 H20'
_chemical_formula_moiety
;
C28 H20
;
_journal_coden_Cambridge 35
_journal_volume 64
_journal_year 1999
_journal_page_first 8758
_journal_name_full 'J.Org.Chem. '
loop_
_publ_author_name
"F.C.Krebs"
"M.Jorgensen"
"M.Larsen"
_chemical_name_systematic
;
14,15-Dimethylbenzo(s)picene
;
_chemical_melting_point 535.15
_cell_volume   1782.195
_exptl_crystal_colour 'colorless'
_exptl_crystal_density_diffrn 1.328
_exptl_special_details
;
Melting point range 535.15-536.15K

;
_exptl_crystal_description 'plate'
_exptl_crystal_preparation 'n-hexane'
_diffrn_ambient_temperature 120
#These two values have been output from a single CSD field.
_refine_ls_R_factor_gt 0.0484
_refine_ls_wR_factor_gt 0.0484
_symmetry_cell_setting monoclinic
_symmetry_space_group_name_H-M 'P 21/n'
_symmetry_Int_Tables_number 14
loop_
_symmetry_equiv_pos_site_id
_symmetry_equiv_pos_as_xyz
1 x,y,z
2 1/2-x,1/2+y,1/2-z
3 -x,-y,-z
4 -1/2+x,-1/2-y,-1/2+z
_cell_length_a 12.024(2)
_cell_length_b 7.5310(15)
_cell_length_c 19.962(4)
_cell_angle_alpha 90
_cell_angle_beta 99.62(3)
_cell_angle_gamma 90
_cell_formula_units_Z 4
loop_
_atom_type_symbol
_atom_type_radius_bond
C 0.68
H 0.23
loop_
_atom_site_label
_atom_site_type_symbol
_atom_site_fract_x
_atom_site_fract_y
_atom_site_fract_z
C1 C 0.63717(19) 0.1046(3) 0.05637(10)
C2 C 0.64500(15) 0.1568(2) 0.12938(9)
C3 C 0.74884(15) 0.1783(2) 0.16976(9)
C4 C 0.76246(14) 0.2161(2) 0.23969(9)
C5 C 0.87311(14) 0.2140(2) 0.28255(9)
C6 C 0.97663(14) 0.2534(2) 0.25752(9)
C7 C 0.98025(15) 0.3469(2) 0.19659(10)
C8 C 1.08085(16) 0.3874(3) 0.17595(11)
C9 C 1.18353(17) 0.3320(3) 0.21472(12)
C10 C 1.18334(16) 0.2455(3) 0.27472(11)
C11 C 1.08175(15) 0.2091(2) 0.29875(10)
C12 C 1.08191(16) 0.1372(3) 0.36418(10)
C13 C 0.98518(16) 0.1207(3) 0.39005(10)
C14 C 0.87798(15) 0.1631(2) 0.35041(9)
C15 C 0.77636(15) 0.1644(2) 0.38095(9)
C16 C 0.77736(17) 0.1076(3) 0.44944(9)
C17 C 0.68564(17) 0.1234(3) 0.47996(10)
C18 C 0.58702(16) 0.2128(2) 0.44716(9)
C19 C 0.49496(18) 0.2463(3) 0.48115(10)
C20 C 0.40541(19) 0.3460(3) 0.45134(11)
C21 C 0.40577(17) 0.4215(3) 0.38739(10)
C22 C 0.49190(15) 0.3855(2) 0.35222(10)
C23 C 0.58330(15) 0.2743(2) 0.37938(9)
C24 C 0.67499(14) 0.2298(2) 0.34364(9)
C25 C 0.66418(14) 0.2305(2) 0.26985(9)
C26 C 0.55848(15) 0.2119(2) 0.22749(9)
C27 C 0.54692(14) 0.1752(2) 0.15883(9)
C28 C 0.43177(16) 0.1430(3) 0.11787(10)
H1 H 0.4893(15) 0.211(2) 0.2493(9)
H2 H 0.8152(15) 0.155(2) 0.1513(9)
H3 H 1.0793(15) 0.456(3) 0.1324(10)
H4 H 0.3714(18) 0.159(3) 0.1474(12)
H5 H 0.4915(15) 0.442(3) 0.3085(10)
H6 H 0.3457(17) 0.503(3) 0.3674(10)
H7 H 0.9104(16) 0.390(3) 0.1688(10)
H8 H 0.4123(17) 0.225(3) 0.0792(11)
H9 H 1.2559(18) 0.358(3) 0.1980(11)
H10 H 0.4993(16) 0.197(3) 0.5277(11)
H11 H 0.8472(18) 0.049(3) 0.4745(11)
H12 H 1.2547(18) 0.207(3) 0.3040(11)
H13 H 1.1532(17) 0.107(3) 0.3914(10)
H14 H 0.598(2) 0.193(3) 0.0270(14)
H15 H 0.6863(16) 0.079(3) 0.5266(11)
H16 H 0.711(2) 0.083(3) 0.0450(12)
H17 H 0.9852(16) 0.079(3) 0.4370(11)
H18 H 0.3439(17) 0.369(3) 0.4756(11)
H19 H 0.594(2) -0.009(3) 0.0462(12)
H20 H 0.4246(16) 0.025(3) 0.0976(10)
loop_
_geom_bond_atom_site_label_1
_geom_bond_atom_site_label_2
_geom_bond_distance
_geom_bond_site_symmetry_1
_geom_bond_site_symmetry_2
C1 C2 1.497 1_555 1_555
C2 C3 1.378 1_555 1_555
C3 C4 1.407 1_555 1_555
C4 C5 1.457 1_555 1_555
C5 C6 1.447 1_555 1_555
C6 C7 1.412 1_555 1_555
C7 C8 1.376 1_555 1_555
C8 C9 1.406 1_555 1_555
C9 C10 1.364 1_555 1_555
C10 C11 1.412 1_555 1_555
C11 C6 1.428 1_555 1_555
C12 C11 1.414 1_555 1_555
C13 C12 1.355 1_555 1_555
C14 C5 1.400 1_555 1_555
C15 C14 1.454 1_555 1_555
C16 C15 1.431 1_555 1_555
C17 C16 1.351 1_555 1_555
C18 C17 1.424 1_555 1_555
C19 C18 1.414 1_555 1_555
C20 C19 1.365 1_555 1_555
C21 C20 1.398 1_555 1_555
C22 C21 1.372 1_555 1_555
C23 C18 1.424 1_555 1_555
C24 C15 1.407 1_555 1_555
C25 C4 1.417 1_555 1_555
C26 C25 1.411 1_555 1_555
C27 C2 1.410 1_555 1_555
C28 C27 1.505 1_555 1_555
H1 C26 1.001 1_555 1_555
H2 C3 0.949 1_555 1_555
H3 C8 1.009 1_555 1_555
H4 C28 1.016 1_555 1_555
H5 C22 0.970 1_555 1_555
H6 C21 0.980 1_555 1_555
H7 C7 0.981 1_555 1_555
H8 C28 0.986 1_555 1_555
H9 C9 1.002 1_555 1_555
H10 C19 0.994 1_555 1_555
H11 C16 1.005 1_555 1_555
H12 C10 0.997 1_555 1_555
H13 C12 0.962 1_555 1_555
H14 C1 0.957 1_555 1_555
H15 C17 0.988 1_555 1_555
H16 C1 0.966 1_555 1_555
H17 C13 0.988 1_555 1_555
H18 C20 0.965 1_555 1_555
H19 C1 1.004 1_555 1_555
H20 C28 0.974 1_555 1_555
C13 C14 1.431 1_555 1_555
C22 C23 1.416 1_555 1_555
C23 C24 1.449 1_555 1_555
C24 C25 1.457 1_555 1_555
C26 C27 1.382 1_555 1_555
#END
