
#######################################################################
#
#                 Cambridge Crystallographic Data Centre
#                                CCDC
#
#######################################################################
#
# If this CIF has been generated from an entry in the Cambridge
# Structural Database, then it will include bibliographic, chemical,
# crystal, experimental, refinement or atomic coordinate data resulting
# from the CCDC's data processing and validation procedures.
#
#######################################################################

data_CSD_CIF_LONBEX
_audit_creation_date 2014-07-30
_audit_creation_method CSD-ConQuest-V1
_database_code_CSD LONBEX
_database_code_depnum_ccdc_archive 'CCDC 945412'
_chemical_formula_sum 'C16 H14'
_chemical_formula_moiety
;
C16 H14
;
_journal_coden_Cambridge 8
_journal_volume 139
_journal_year 2013
_journal_page_first 204501
_journal_name_full 'J.Chem.Phys. '
loop_
_publ_author_name
"P.A.Beckmann"
"K.G.Conn"
"C.W.Mallory"
"F.B.Mallory"
"A.L.Rheingold"
"L.Rotkina"
"Xianlong Wang"
_chemical_name_systematic
;
1,8-dimethylphenanthrene
;
_cell_volume   1076.821
_exptl_crystal_colour 'colorless'
_exptl_crystal_density_diffrn 1.272
_exptl_crystal_description 'plate'
_diffrn_ambient_temperature 100
#These two values have been output from a single CSD field.
_refine_ls_R_factor_gt 0.0466
_refine_ls_wR_factor_gt 0.0466
_symmetry_cell_setting monoclinic
_symmetry_space_group_name_H-M 'P 21/c'
_symmetry_Int_Tables_number 14
loop_
_symmetry_equiv_pos_site_id
_symmetry_equiv_pos_as_xyz
1 x,y,z
2 -x,1/2+y,1/2-z
3 -x,-y,-z
4 x,-1/2-y,-1/2+z
_cell_length_a 8.6543(9)
_cell_length_b 6.0367(6)
_cell_length_c 20.9744(18)
_cell_angle_alpha 90
_cell_angle_beta 100.672(7)
_cell_angle_gamma 90
_cell_formula_units_Z 4
loop_
_atom_type_symbol
_atom_type_radius_bond
C 0.68
H 0.23
loop_
_atom_site_label
_atom_site_type_symbol
_atom_site_fract_x
_atom_site_fract_y
_atom_site_fract_z
C1 C 0.34221(19) 0.4668(3) 0.36188(7)
C2 C 0.2788(2) 0.3027(3) 0.39478(7)
H1 H 0.30060 0.30180 0.44090
C3 C 0.1829(2) 0.1378(3) 0.36153(8)
H2 H 0.13950 0.02730 0.38520
C4 C 0.15079(19) 0.1337(3) 0.29492(8)
H3 H 0.08650 0.01950 0.27290
C5 C 0.0827(2) 0.1368(3) 0.15175(8)
H4 H 0.03960 0.02110 0.17370
C6 C 0.0512(2) 0.1446(3) 0.08508(8)
H5 H -0.01550 0.03610 0.06140
C7 C 0.1166(2) 0.3113(3) 0.05182(7)
H6 H 0.09500 0.31280 0.00570
C8 C 0.2111(2) 0.4722(3) 0.08466(7)
C9 C 0.3391(2) 0.6359(3) 0.19042(8)
H7 H 0.38230 0.75010 0.16790
C10 C 0.3704(2) 0.6354(3) 0.25612(8)
H8 H 0.43510 0.74830 0.27860
C11 C 0.21285(19) 0.2984(3) 0.25879(7)
C12 C 0.17879(19) 0.2992(3) 0.18782(7)
C13 C 0.30761(19) 0.4673(3) 0.29248(7)
C14 C 0.24310(19) 0.4702(3) 0.15385(7)
C15 C 0.4479(2) 0.6402(3) 0.39861(8)
H9 H 0.45500 0.61730 0.44530
H10 H 0.40450 0.78760 0.38670
H11 H 0.55290 0.62870 0.38770
C16 C 0.2843(2) 0.6455(3) 0.04748(8)
H12 H 0.25080 0.62040 0.00080
H13 H 0.39910 0.63540 0.05890
H14 H 0.25040 0.79310 0.05870
loop_
_geom_bond_atom_site_label_1
_geom_bond_atom_site_label_2
_geom_bond_distance
_geom_bond_site_symmetry_1
_geom_bond_site_symmetry_2
C1 C2 1.378 1_555 1_555
C2 H1 0.951 1_555 1_555
C3 C2 1.397 1_555 1_555
H2 C3 0.950 1_555 1_555
C4 C3 1.373 1_555 1_555
H3 C4 0.950 1_555 1_555
C5 H4 0.950 1_555 1_555
C6 C5 1.375 1_555 1_555
H5 C6 0.950 1_555 1_555
C7 C6 1.402 1_555 1_555
H6 C7 0.951 1_555 1_555
C8 C7 1.370 1_555 1_555
C9 H7 0.951 1_555 1_555
C10 C9 1.354 1_555 1_555
H8 C10 0.950 1_555 1_555
C11 C4 1.415 1_555 1_555
C12 C5 1.411 1_555 1_555
C13 C1 1.431 1_555 1_555
C14 C8 1.426 1_555 1_555
C15 C1 1.505 1_555 1_555
H9 C15 0.980 1_555 1_555
H10 C15 0.980 1_555 1_555
H11 C15 0.980 1_555 1_555
C16 C8 1.512 1_555 1_555
H12 C16 0.980 1_555 1_555
H13 C16 0.980 1_555 1_555
H14 C16 0.980 1_555 1_555
C9 C14 1.429 1_555 1_555
C10 C13 1.435 1_555 1_555
C11 C12 1.463 1_555 1_555
C11 C13 1.413 1_555 1_555
C12 C14 1.425 1_555 1_555
#END
