
#######################################################################
#
#                 Cambridge Crystallographic Data Centre
#                                CCDC
#
#######################################################################
#
# If this CIF has been generated from an entry in the Cambridge
# Structural Database, then it will include bibliographic, chemical,
# crystal, experimental, refinement or atomic coordinate data resulting
# from the CCDC's data processing and validation procedures.
#
#######################################################################

data_CSD_CIF_MARHOE
_audit_creation_date 2012-05-22
_audit_creation_method CSD-ConQuest-V1
_database_code_CSD MARHOE
_database_code_depnum_ccdc_archive 'CCDC 844123'
_chemical_formula_sum 'C44 H30'
_chemical_formula_moiety
;
C44 H30
;
_journal_coden_Cambridge 1350
_journal_volume 14
_journal_year 2012
_journal_page_first 2843
_journal_name_full 'CrystEngComm '
loop_
_publ_author_name
"Ye-Xin Li"
"Jiong Jia"
"Xu-Tang Tao"
_chemical_name_systematic
;
9,9'-(Biphenyl-4,4'-diyldiethene-2,1-diyl)dianthracene
;
_cell_volume   1537.053
_exptl_crystal_colour 'yellow'
_exptl_crystal_density_diffrn 1.207
_exptl_crystal_description 'block'
_diffrn_ambient_temperature 293
#These two values have been output from a single CSD field.
_refine_ls_R_factor_gt 0.0748
_refine_ls_wR_factor_gt 0.0748
_symmetry_cell_setting monoclinic
_symmetry_space_group_name_H-M 'P 21/c'
_symmetry_Int_Tables_number 14
loop_
_symmetry_equiv_pos_site_id
_symmetry_equiv_pos_as_xyz
1 x,y,z
2 -x,1/2+y,1/2-z
3 -x,-y,-z
4 x,-1/2-y,-1/2+z
_cell_length_a 6.4897(14)
_cell_length_b 19.302(5)
_cell_length_c 12.454(2)
_cell_angle_alpha 90
_cell_angle_beta 99.848(19)
_cell_angle_gamma 90
_cell_formula_units_Z 2
loop_
_atom_type_symbol
_atom_type_radius_bond
C 0.68
H 0.23
loop_
_atom_site_label
_atom_site_type_symbol
_atom_site_fract_x
_atom_site_fract_y
_atom_site_fract_z
C1 C 0.0216(4) 0.43258(14) 0.1125(2)
H1 H 0.15790 0.44100 0.14720
C2 C -0.0611(4) 0.47224(11) 0.0214(2)
C3 C -0.2960(4) 0.36706(12) 0.1053(2)
C4 C -0.5297(5) 0.22186(16) 0.2599(2)
C5 C -0.4261(4) 0.31343(14) 0.1451(3)
H2 H -0.56020 0.30890 0.10510
C6 C -0.5315(5) 0.15270(17) 0.2233(2)
C7 C -0.6863(5) 0.10544(17) 0.2472(3)
C8 C -0.2642(4) 0.45686(14) -0.0258(2)
H3 H -0.32580 0.48160 -0.08700
C9 C -0.0923(4) 0.38140(14) 0.1525(2)
H4 H -0.03040 0.35590 0.21280
C10 C -0.6701(5) 0.24248(16) 0.3280(3)
C11 C -0.8253(5) 0.19416(18) 0.3520(3)
C12 C -0.3785(4) 0.40611(15) 0.0146(3)
H5 H -0.51500 0.39770 -0.01980
C13 C -0.3834(5) 0.27273(18) 0.2249(3)
H6 H -0.24900 0.27480 0.26530
C14 C -0.8312(5) 0.12809(18) 0.3090(3)
H7 H -0.93590 0.09790 0.32200
C15 C -0.6644(6) 0.3090(2) 0.3761(3)
H8 H -0.56670 0.34110 0.36070
C16 C -0.3803(8) 0.0597(3) 0.1321(3)
H9 H -0.27620 0.04380 0.09540
C17 C -0.9629(6) 0.2158(2) 0.4223(3)
H10 H -1.06400 0.18510 0.43810
C18 C -0.6845(7) 0.03604(19) 0.2096(3)
H11 H -0.78740 0.00540 0.22370
C19 C -0.9517(7) 0.2793(3) 0.4667(3)
H12 H -1.04460 0.29220 0.51220
C20 C -0.7972(8) 0.3271(2) 0.4440(4)
H13 H -0.78780 0.37080 0.47590
C21 C -0.3795(6) 0.1264(2) 0.1638(3)
H14 H -0.27710 0.15610 0.14640
C22 C -0.5366(9) 0.0136(2) 0.1538(4)
H15 H -0.53770 -0.03200 0.12980
C1B C -0.0216(4) 0.56742(14) -0.1125(2)
H1B H -0.15790 0.55900 -0.14720
C2B C 0.0611(4) 0.52776(11) -0.0214(2)
C3B C 0.2960(4) 0.63294(12) -0.1053(2)
C4B C 0.5297(5) 0.77814(16) -0.2599(2)
C5B C 0.4261(4) 0.68657(14) -0.1451(3)
H2B H 0.56020 0.69110 -0.10510
C6B C 0.5315(5) 0.84730(17) -0.2233(2)
C7B C 0.6863(5) 0.89456(17) -0.2472(3)
C8B C 0.2642(4) 0.54314(14) 0.0258(2)
H3B H 0.32580 0.51840 0.08700
C9B C 0.0923(4) 0.61860(14) -0.1525(2)
H4B H 0.03040 0.64410 -0.21280
C10B C 0.6701(5) 0.75752(16) -0.3280(3)
C11B C 0.8253(5) 0.80584(18) -0.3520(3)
C12B C 0.3785(4) 0.59389(15) -0.0146(3)
H5B H 0.51500 0.60230 0.01980
C13B C 0.3834(5) 0.72727(18) -0.2249(3)
H6B H 0.24900 0.72520 -0.26530
C14B C 0.8312(5) 0.87191(18) -0.3090(3)
H7B H 0.93590 0.90210 -0.32200
C15B C 0.6644(6) 0.6910(2) -0.3761(3)
H8B H 0.56670 0.65890 -0.36070
C16B C 0.3803(8) 0.9403(3) -0.1321(3)
H9B H 0.27620 0.95620 -0.09540
C17B C 0.9629(6) 0.7842(2) -0.4223(3)
H10B H 1.06400 0.81490 -0.43810
C18B C 0.6845(7) 0.96396(19) -0.2096(3)
H11B H 0.78740 0.99460 -0.22370
C19B C 0.9517(7) 0.7207(3) -0.4667(3)
H12B H 1.04460 0.70780 -0.51220
C20B C 0.7972(8) 0.6729(2) -0.4440(4)
H13B H 0.78780 0.62920 -0.47590
C21B C 0.3795(6) 0.8736(2) -0.1638(3)
H14B H 0.27710 0.84390 -0.14640
C22B C 0.5366(9) 0.9864(2) -0.1538(4)
H15B H 0.53770 1.03200 -0.12980
loop_
_geom_bond_atom_site_label_1
_geom_bond_atom_site_label_2
_geom_bond_distance
_geom_bond_site_symmetry_1
_geom_bond_site_symmetry_2
C1 H1 0.930 1_555 1_555
C2 C1 1.397 1_555 1_555
C3 C5 1.474 1_555 1_555
C4 C6 1.410 1_555 1_555
C5 H2 0.930 1_555 1_555
C6 C7 1.426 1_555 1_555
C7 C14 1.384 1_555 1_555
C8 C2 1.381 1_555 1_555
H3 C8 0.930 1_555 1_555
C9 C1 1.377 1_555 1_555
H4 C9 0.930 1_555 1_555
C10 C4 1.404 1_555 1_555
C11 C10 1.441 1_555 1_555
C12 C3 1.387 1_555 1_555
H5 C12 0.930 1_555 1_555
C13 C4 1.482 1_555 1_555
H6 C13 0.930 1_555 1_555
C14 C11 1.381 1_555 1_555
H7 C14 0.930 1_555 1_555
C15 C10 1.415 1_555 1_555
H8 C15 0.930 1_555 1_555
C16 H9 0.930 1_555 1_555
C17 C11 1.416 1_555 1_555
H10 C17 0.930 1_555 1_555
C18 C7 1.420 1_555 1_555
H11 C18 0.931 1_555 1_555
C19 C17 1.341 1_555 1_555
H12 C19 0.929 1_555 1_555
C20 C15 1.352 1_555 1_555
H13 C20 0.930 1_555 1_555
C21 C6 1.425 1_555 1_555
H14 C21 0.931 1_555 1_555
C22 C16 1.410 1_555 1_555
H15 C22 0.929 1_555 1_555
C1B H1B 0.930 1_555 1_555
C2B C2 1.485 1_555 1_555
C3B C5B 1.474 1_555 1_555
C4B C6B 1.410 1_555 1_555
C5B H2B 0.930 1_555 1_555
C6B C7B 1.426 1_555 1_555
C7B C14B 1.384 1_555 1_555
C8B C2B 1.381 1_555 1_555
H3B C8B 0.930 1_555 1_555
C9B C1B 1.377 1_555 1_555
H4B C9B 0.930 1_555 1_555
C10B C4B 1.404 1_555 1_555
C11B C10B 1.441 1_555 1_555
C12B C3B 1.387 1_555 1_555
H5B C12B 0.930 1_555 1_555
C13B C4B 1.482 1_555 1_555
H6B C13B 0.930 1_555 1_555
C14B C11B 1.381 1_555 1_555
H7B C14B 0.930 1_555 1_555
C15B C10B 1.415 1_555 1_555
H8B C15B 0.930 1_555 1_555
C16B H9B 0.930 1_555 1_555
C17B C11B 1.416 1_555 1_555
H10B C17B 0.930 1_555 1_555
C18B C7B 1.420 1_555 1_555
H11B C18B 0.931 1_555 1_555
C19B C17B 1.341 1_555 1_555
H12B C19B 0.929 1_555 1_555
C20B C15B 1.352 1_555 1_555
H13B C20B 0.930 1_555 1_555
C21B C6B 1.425 1_555 1_555
H14B C21B 0.931 1_555 1_555
C22B C16B 1.410 1_555 1_555
H15B C22B 0.929 1_555 1_555
C3 C9 1.380 1_555 1_555
C5 C13 1.260 1_555 1_555
C8 C12 1.375 1_555 1_555
C16 C21 1.346 1_555 1_555
C18 C22 1.349 1_555 1_555
C19 C20 1.426 1_555 1_555
C1B C2B 1.397 1_555 1_555
C3B C9B 1.380 1_555 1_555
C5B C13B 1.260 1_555 1_555
C8B C12B 1.375 1_555 1_555
C16B C21B 1.346 1_555 1_555
C18B C22B 1.349 1_555 1_555
C19B C20B 1.426 1_555 1_555
#END
