
#######################################################################
#
#                 Cambridge Crystallographic Data Centre
#                                CCDC
#
#######################################################################
#
# If this CIF has been generated from an entry in the Cambridge
# Structural Database, then it will include bibliographic, chemical,
# crystal, experimental, refinement or atomic coordinate data resulting
# from the CCDC's data processing and validation procedures.
#
#######################################################################

data_CSD_CIF_MASXEM
_audit_creation_date 2017-04-25
_audit_creation_method CSD-ConQuest-V1
_database_code_CSD MASXEM
_database_code_depnum_ccdc_archive 'CCDC 1521686'
_chemical_formula_sum 'C30 H18'
_chemical_formula_moiety
;
C30 H18
;
_journal_coden_Cambridge 171
_journal_volume 16
_journal_year 2017
_journal_page_first 925
_journal_name_full 'Photochem.Photobiol.Sci. '
loop_
_publ_author_name
"Shota Fujino"
"M.Yamaji"
"H.Okamoto"
"T.Mutai"
"Isao Yoshikawa"
"H.Houjou"
"F.Tani"
_chemical_name_systematic
;
dibenzo[a,c]picene
;
_chemical_melting_point 561
_cell_volume   3617.405
_exptl_crystal_colour 'colorless'
_exptl_crystal_density_diffrn 1.39
_exptl_special_details
;
Melting point range 561-562K

;
_exptl_crystal_description 'plate'
_diffrn_ambient_temperature 93
#These two values have been output from a single CSD field.
_refine_ls_R_factor_gt 0.0775
_refine_ls_wR_factor_gt 0.0775
_symmetry_cell_setting orthorhombic
_symmetry_space_group_name_H-M 'P b c a'
_symmetry_Int_Tables_number 61
loop_
_symmetry_equiv_pos_site_id
_symmetry_equiv_pos_as_xyz
1 x,y,z
2 1/2+x,1/2-y,-z
3 -x,1/2+y,1/2-z
4 1/2-x,-y,1/2+z
5 -x,-y,-z
6 -1/2-x,-1/2+y,z
7 x,-1/2-y,-1/2+z
8 -1/2+x,y,-1/2-z
_cell_length_a 7.560(4)
_cell_length_b 20.153(11)
_cell_length_c 23.743(12)
_cell_angle_alpha 90
_cell_angle_beta 90
_cell_angle_gamma 90
_cell_formula_units_Z 8
loop_
_atom_type_symbol
_atom_type_radius_bond
C 0.68
H 0.23
loop_
_atom_site_label
_atom_site_type_symbol
_atom_site_fract_x
_atom_site_fract_y
_atom_site_fract_z
C1 C 0.4200(3) -0.00155(11) 0.61599(9)
H1 H 0.48240 0.00280 0.65050
C2 C 0.3336(3) -0.05997(11) 0.60375(9)
H2 H 0.33680 -0.09580 0.62980
C3 C 0.2410(3) -0.06663(11) 0.55307(9)
H3 H 0.18080 -0.10690 0.54490
C4 C 0.2366(3) -0.01530(11) 0.51487(9)
H4 H 0.17370 -0.02080 0.48060
C5 C 0.3239(3) 0.04553(11) 0.52563(9)
C6 C 0.4163(3) 0.05204(11) 0.57736(9)
C7 C 0.5081(3) 0.11244(11) 0.58933(9)
H5 H 0.56760 0.11720 0.62430
C8 C 0.5120(3) 0.16327(11) 0.55163(9)
H6 H 0.57430 0.20280 0.56080
C9 C 0.4239(3) 0.15841(10) 0.49822(9)
C10 C 0.3269(3) 0.10049(10) 0.48594(9)
C11 C 0.2319(3) 0.09803(10) 0.43431(9)
H7 H 0.15550 0.06150 0.42730
C12 C 0.2471(3) 0.14633(10) 0.39456(9)
H8 H 0.18280 0.14230 0.36030
C13 C 0.3573(3) 0.2030(1) 0.40307(9)
C14 C 0.4330(3) 0.21156(10) 0.45738(9)
C15 C 0.5109(3) 0.27381(10) 0.47013(9)
H9 H 0.56750 0.28000 0.50550
C16 C 0.5058(3) 0.32497(11) 0.43242(9)
H10 H 0.54840 0.36730 0.44360
C17 C 0.4387(3) 0.31665(10) 0.37714(9)
C18 C 0.3807(3) 0.25365(10) 0.36042(9)
C19 C 0.3542(3) 0.24105(10) 0.30010(9)
C20 C 0.3667(3) 0.17668(11) 0.27698(9)
H11 H 0.38550 0.14000 0.30140
C21 C 0.3523(3) 0.16577(11) 0.21985(9)
H12 H 0.36070 0.12190 0.20540
C22 C 0.3253(3) 0.21914(12) 0.18321(9)
H13 H 0.31080 0.21160 0.14400
C23 C 0.3198(3) 0.28254(11) 0.20432(9)
H14 H 0.30350 0.31870 0.17920
C24 C 0.3379(3) 0.29525(10) 0.26269(9)
C25 C 0.3561(3) 0.36331(11) 0.28368(9)
C26 C 0.3164(3) 0.41895(11) 0.25014(10)
H15 H 0.26550 0.41270 0.21390
C27 C 0.3503(3) 0.48258(11) 0.26900(9)
H16 H 0.32190 0.51970 0.24600
C28 C 0.4261(3) 0.49219(11) 0.32179(9)
H17 H 0.45360 0.53580 0.33420
C29 C 0.4616(3) 0.43865(11) 0.35609(9)
H18 H 0.51260 0.44590 0.39210
C30 C 0.4234(3) 0.37319(10) 0.33860(9)
loop_
_geom_bond_atom_site_label_1
_geom_bond_atom_site_label_2
_geom_bond_distance
_geom_bond_site_symmetry_1
_geom_bond_site_symmetry_2
C1 H1 0.950 1_555 1_555
C2 C1 1.377 1_555 1_555
H2 C2 0.951 1_555 1_555
C3 C2 1.399 1_555 1_555
H3 C3 0.950 1_555 1_555
C4 C3 1.376 1_555 1_555
H4 C4 0.949 1_555 1_555
C5 C4 1.416 1_555 1_555
C6 C1 1.417 1_555 1_555
C7 C6 1.430 1_555 1_555
H5 C7 0.949 1_555 1_555
C8 C7 1.361 1_555 1_555
H6 C8 0.951 1_555 1_555
C9 C8 1.436 1_555 1_555
C10 C5 1.454 1_555 1_555
C11 C10 1.422 1_555 1_555
H7 C11 0.950 1_555 1_555
C12 C11 1.361 1_555 1_555
H8 C12 0.951 1_555 1_555
C13 C12 1.428 1_555 1_555
C14 C9 1.446 1_555 1_555
C15 C14 1.419 1_555 1_555
H9 C15 0.951 1_555 1_555
C16 C15 1.366 1_555 1_555
H10 C16 0.950 1_555 1_555
C17 C16 1.417 1_555 1_555
C18 C13 1.449 1_555 1_555
C19 C18 1.468 1_555 1_555
C20 C19 1.412 1_555 1_555
H11 C20 0.950 1_555 1_555
C21 C20 1.378 1_555 1_555
H12 C21 0.950 1_555 1_555
C22 C21 1.398 1_555 1_555
H13 C22 0.950 1_555 1_555
C23 C22 1.373 1_555 1_555
H14 C23 0.950 1_555 1_555
C24 C19 1.413 1_555 1_555
C25 C24 1.466 1_555 1_555
C26 C25 1.408 1_555 1_555
H15 C26 0.951 1_555 1_555
C27 C26 1.382 1_555 1_555
H16 C27 0.951 1_555 1_555
C28 C27 1.392 1_555 1_555
H17 C28 0.950 1_555 1_555
C29 C28 1.378 1_555 1_555
H18 C29 0.949 1_555 1_555
C30 C17 1.466 1_555 1_555
C5 C6 1.419 1_555 1_555
C9 C10 1.409 1_555 1_555
C13 C14 1.421 1_555 1_555
C17 C18 1.401 1_555 1_555
C23 C24 1.416 1_555 1_555
C25 C30 1.414 1_555 1_555
C29 C30 1.413 1_555 1_555
#END
