
#######################################################################
#
#                 Cambridge Crystallographic Data Centre
#                                CCDC
#
#######################################################################
#
# If this CIF has been generated from an entry in the Cambridge
# Structural Database, then it will include bibliographic, chemical,
# crystal, experimental, refinement or atomic coordinate data resulting
# from the CCDC's data processing and validation procedures.
#
#######################################################################

data_CSD_CIF_MIVFED
_audit_creation_date 2008-06-05
_audit_creation_method CSD-ConQuest-V1
_database_code_CSD MIVFED
_database_code_depnum_ccdc_archive 'CCDC 645858'
_chemical_formula_sum 'C32 H20'
_chemical_formula_moiety
;
C32 H20
;
_journal_coden_Cambridge 1220
_journal_volume 13
_journal_year 2007
_journal_page_first 9462
_journal_name_full 'Chem.-Eur.J. '
loop_
_publ_author_name
"C.Werner"
"H.Hopf"
"I.Dix"
"P.Bubenitschek"
"P.G.Jones"
_chemical_name_systematic
;
1,8(1,4)-Dinaphthalenocyclotetradecaphan-2,6,9,13-tetrayne
;
_chemical_name_common
;
syn-(6.6)(1,4)naphthalenocyclophan-1,5,18,22-tetrayne
;
_chemical_melting_point 373.15
_cell_volume   2142.598
_exptl_crystal_colour 'yellow'
_exptl_crystal_density_diffrn 1.254
_exptl_crystal_description 'tablet'
_diffrn_ambient_temperature 143
#These two values have been output from a single CSD field.
_refine_ls_R_factor_gt 0.0764
_refine_ls_wR_factor_gt 0.0764
_symmetry_cell_setting orthorhombic
_symmetry_space_group_name_H-M 'P c a 21'
_symmetry_Int_Tables_number 29
loop_
_symmetry_equiv_pos_site_id
_symmetry_equiv_pos_as_xyz
1 x,y,z
2 -x,-y,1/2+z
3 1/2+x,-y,z
4 1/2-x,y,1/2+z
_cell_length_a 9.2650(19)
_cell_length_b 14.683(3)
_cell_length_c 15.750(3)
_cell_angle_alpha 90
_cell_angle_beta 90
_cell_angle_gamma 90
_cell_formula_units_Z 4
loop_
_atom_type_symbol
_atom_type_radius_bond
C 0.68
H 0.23
loop_
_atom_site_label
_atom_site_type_symbol
_atom_site_fract_x
_atom_site_fract_y
_atom_site_fract_z
C1 C 0.3320(11) 0.6750(8) 0.1719(6)
C2 C 0.3641(12) 0.6090(8) 0.1319(7)
C3 C 0.4156(16) 0.5200(9) 0.0977(9)
H1 H 0.33030 0.48310 0.08190
H2 H 0.47100 0.53190 0.04510
C4 C 0.4993(17) 0.4700(9) 0.1508(9)
H3 H 0.58860 0.45410 0.11960
H4 H 0.44770 0.41230 0.16230
C5 C 0.5421(12) 0.5085(7) 0.2324(7)
C6 C 0.557(1) 0.5435(6) 0.2984(5)
C7 C 0.5526(9) 0.6008(6) 0.3746(6)
C8 C 0.4215(10) 0.6219(6) 0.4090(6)
H5 H 0.33670 0.59330 0.38800
C9 C 0.4113(11) 0.6853(7) 0.4750(6)
H6 H 0.31970 0.69880 0.49900
C10 C 0.5319(12) 0.7280(7) 0.5051(6)
C11 C 0.6693(10) 0.7038(6) 0.4740(6)
C12 C 0.7954(10) 0.7450(6) 0.5053(6)
H7 H 0.78820 0.78970 0.54870
C13 C 0.9283(11) 0.7219(7) 0.4742(8)
H8 H 1.01310 0.75020 0.49560
C14 C 0.9373(11) 0.6556(7) 0.4103(9)
H9 H 1.02960 0.63720 0.39040
C15 C 0.8169(10) 0.6170(6) 0.3761(7)
H10 H 0.82600 0.57500 0.33060
C16 C 0.6796(10) 0.6389(5) 0.4076(6)
C17 C 0.5107(11) 0.8036(7) 0.5630(6)
C18 C 0.4868(13) 0.8701(9) 0.6022(6)
C19 C 0.4348(16) 0.9584(9) 0.6352(7)
H11 H 0.41220 0.95110 0.69620
H12 H 0.51400 1.00330 0.63050
C20 C 0.3194(17) 0.992(1) 0.5965(10)
H13 H 0.32850 1.05920 0.59640
H14 H 0.23410 0.97680 0.63160
C21 C 0.2877(14) 0.9626(7) 0.5076(8)
C22 C 0.2843(12) 0.9269(6) 0.4402(7)
C23 C 0.2943(10) 0.8755(6) 0.3633(7)
C24 C 0.1755(11) 0.8338(6) 0.3308(7)
H15 H 0.08300 0.84830 0.35300
C25 C 0.1869(12) 0.7701(7) 0.2650(7)
H16 H 0.10210 0.74090 0.24480
C26 C 0.3160(11) 0.7488(6) 0.2295(7)
C27 C 0.4440(11) 0.7961(6) 0.2584(6)
C28 C 0.5795(11) 0.7775(6) 0.2248(6)
H17 H 0.58910 0.73290 0.18140
C29 C 0.6980(12) 0.8221(6) 0.2531(7)
H18 H 0.78940 0.80990 0.22820
C30 C 0.6869(11) 0.8861(6) 0.3187(6)
H19 H 0.77090 0.91690 0.33800
C31 C 0.5568(10) 0.9048(6) 0.3553(6)
H20 H 0.55040 0.94770 0.40040
C32 C 0.4328(11) 0.8603(6) 0.3260(6)
loop_
_geom_bond_atom_site_label_1
_geom_bond_atom_site_label_2
_geom_bond_distance
_geom_bond_site_symmetry_1
_geom_bond_site_symmetry_2
C1 C2 1.194 1_555 1_555
C2 C3 1.492 1_555 1_555
C3 H1 0.990 1_555 1_555
H2 C3 0.990 1_555 1_555
C4 C3 1.356 1_555 1_555
H3 C4 0.990 1_555 1_555
H4 C4 0.990 1_555 1_555
C5 C4 1.459 1_555 1_555
C6 C5 1.168 1_555 1_555
C7 C6 1.466 1_555 1_555
C8 C7 1.366 1_555 1_555
H5 C8 0.950 1_555 1_555
C9 C8 1.399 1_555 1_555
H6 C9 0.950 1_555 1_555
C10 C9 1.366 1_555 1_555
C11 C10 1.410 1_555 1_555
C12 C11 1.405 1_555 1_555
H7 C12 0.950 1_555 1_555
C13 C12 1.368 1_555 1_555
H8 C13 0.951 1_555 1_555
C14 C13 1.403 1_555 1_555
H9 C14 0.950 1_555 1_555
C15 C14 1.362 1_555 1_555
H10 C15 0.949 1_555 1_555
C16 C7 1.403 1_555 1_555
C17 C10 1.450 1_555 1_555
C18 C17 1.176 1_555 1_555
C19 C18 1.478 1_555 1_555
H11 C19 0.989 1_555 1_555
H12 C19 0.989 1_555 1_555
C20 C19 1.326 1_555 1_555
H13 C20 0.990 1_555 1_555
H14 C20 0.990 1_555 1_555
C21 C20 1.494 1_555 1_555
C22 C21 1.184 1_555 1_555
C23 C22 1.430 1_555 1_555
C24 C23 1.360 1_555 1_555
H15 C24 0.950 1_555 1_555
C25 C24 1.400 1_555 1_555
H16 C25 0.950 1_555 1_555
C26 C1 1.421 1_555 1_555
C27 C26 1.448 1_555 1_555
C28 C27 1.389 1_555 1_555
H17 C28 0.951 1_555 1_555
C29 C28 1.354 1_555 1_555
H18 C29 0.950 1_555 1_555
C30 C29 1.400 1_555 1_555
H19 C30 0.950 1_555 1_555
C31 C30 1.364 1_555 1_555
H20 C31 0.951 1_555 1_555
C32 C23 1.429 1_555 1_555
C11 C16 1.418 1_555 1_555
C15 C16 1.403 1_555 1_555
C25 C26 1.357 1_555 1_555
C27 C32 1.426 1_555 1_555
C31 C32 1.400 1_555 1_555
#END
