
#######################################################################
#
#                 Cambridge Crystallographic Data Centre
#                                CCDC
#
#######################################################################
#
# If this CIF has been generated from an entry in the Cambridge
# Structural Database, then it will include bibliographic, chemical,
# crystal, experimental, refinement or atomic coordinate data resulting
# from the CCDC's data processing and validation procedures.
#
#######################################################################

data_CSD_CIF_MOKQAE
_audit_creation_date 2002-09-27
_audit_creation_method CSD-ConQuest-V1
_database_code_CSD MOKQAE
_chemical_formula_sum 'C30 H42'
_chemical_formula_moiety
;
C30 H42
;
_journal_coden_Cambridge 35
_journal_volume 66
_journal_year 2001
_journal_page_first 6711
_journal_name_full 'J.Org.Chem. '
loop_
_publ_author_name
"V.Marks"
"H.E.Gottlieb"
"A.Melman"
"G.Byk"
"S.Cohen"
"S.E.Biali"
_chemical_name_systematic
;
1,2,3,4,5,6,7,8-Octaethylanthracene
;
_chemical_melting_point 473.15
_cell_volume   1228.782
_exptl_crystal_density_diffrn 1.09
_exptl_crystal_preparation 'n-hexane/ethanol'
_diffrn_ambient_temperature ?
_diffrn_special_details
;
The study was carried out at room temperature,in the range 283-303K

;
#These two values have been output from a single CSD field.
_refine_ls_R_factor_gt 0.06
_refine_ls_wR_factor_gt 0.06
_symmetry_cell_setting monoclinic
_symmetry_space_group_name_H-M 'P 21/c'
_symmetry_Int_Tables_number 14
loop_
_symmetry_equiv_pos_site_id
_symmetry_equiv_pos_as_xyz
1 x,y,z
2 -x,1/2+y,1/2-z
3 -x,-y,-z
4 x,-1/2-y,-1/2+z
_cell_length_a 9.681(2)
_cell_length_b 14.645(3)
_cell_length_c 8.704(4)
_cell_angle_alpha 90
_cell_angle_beta 95.29(3)
_cell_angle_gamma 90
_cell_formula_units_Z 2
loop_
_atom_type_symbol
_atom_type_radius_bond
C 0.68
H 0.23
loop_
_atom_site_label
_atom_site_type_symbol
_atom_site_fract_x
_atom_site_fract_y
_atom_site_fract_z
C1 C 0.7255(2) 0.5697(1) 0.2027(2)
C2 C 0.6964(2) 0.6209(1) 0.3281(2)
C3 C 0.5558(2) 0.6406(1) 0.3577(2)
C4 C 0.4458(2) 0.6082(1) 0.2615(2)
C5 C 0.4724(2) 0.5549(1) 0.1286(2)
C6 C 0.6123(2) 0.5348(1) 0.0998(2)
C7 C 0.3655(2) 0.5196(1) 0.0271(2)
C8 C 0.8722(2) 0.5453(2) 0.1739(3)
C9 C 0.9183(3) 0.4545(2) 0.2422(4)
C10 C 0.8145(2) 0.6587(2) 0.4371(2)
C11 C 0.8592(3) 0.7533(2) 0.3921(3)
C12 C 0.5299(2) 0.6944(2) 0.5018(2)
C13 C 0.5222(3) 0.6322(2) 0.6405(3)
C14 C 0.2960(2) 0.6246(2) 0.2943(3)
C15 C 0.2289(3) 0.7030(2) 0.2079(4)
H1 H 0.87800 0.54300 0.06600
H2 H 0.93300 0.59100 0.21800
H3 H 0.78500 0.66100 0.53800
H4 H 0.89200 0.61900 0.43700
H5 H 0.60400 0.73700 0.52300
H6 H 0.44500 0.72700 0.48400
H7 H 0.24400 0.57100 0.26700
H8 H 0.29400 0.63600 0.40200
H9 H 0.91400 0.45600 0.35100
H10 H 0.85900 0.40800 0.19900
H11 H 1.01100 0.44300 0.22000
H12 H 0.93200 0.77400 0.46500
H13 H 0.89200 0.75100 0.29200
H14 H 0.78300 0.79400 0.39100
H15 H 0.50400 0.66800 0.72800
H16 H 0.45000 0.58900 0.61900
H17 H 0.60800 0.60100 0.66100
H18 H 0.28100 0.75700 0.23200
H19 H 0.22600 0.69200 0.10000
H20 H 0.13700 0.71100 0.23600
H21 H 0.279(2) 0.533(1) 0.044(2)
C7B C 0.6345(2) 0.4804(1) -0.0271(2)
C5B C 0.5276(2) 0.4451(1) -0.1286(2)
C4B C 0.5542(2) 0.3918(1) -0.2615(2)
C3B C 0.4442(2) 0.3594(1) -0.3577(2)
C2B C 0.3036(2) 0.3791(1) -0.3281(2)
C1B C 0.2745(2) 0.4303(1) -0.2027(2)
C6B C 0.3877(2) 0.4652(1) -0.0998(2)
C8B C 0.1278(2) 0.4547(2) -0.1739(3)
C9B C 0.0817(3) 0.5455(2) -0.2422(4)
H9B H 0.08600 0.54400 -0.35100
H10B H 0.14100 0.59200 -0.19900
H11B H -0.01100 0.55700 -0.22000
H1B H 0.12200 0.45700 -0.06600
H2B H 0.06700 0.40900 -0.21800
C10B C 0.1855(2) 0.3413(2) -0.4371(2)
C11B C 0.1408(3) 0.2467(2) -0.3921(3)
H12B H 0.06800 0.22600 -0.46500
H13B H 0.10800 0.24900 -0.29200
H14B H 0.21700 0.20600 -0.39100
H3B H 0.21500 0.33900 -0.53800
H4B H 0.10800 0.38100 -0.43700
C12B C 0.4701(2) 0.3056(2) -0.5018(2)
C13B C 0.4778(3) 0.3678(2) -0.6405(3)
H15B H 0.49600 0.33200 -0.72800
H16B H 0.55000 0.41100 -0.61900
H17B H 0.39200 0.39900 -0.66100
H5B H 0.39600 0.26300 -0.52300
H6B H 0.55500 0.27300 -0.48400
C14B C 0.7040(2) 0.3754(2) -0.2943(3)
C15B C 0.7711(3) 0.2970(2) -0.2079(4)
H18B H 0.71900 0.24300 -0.23200
H19B H 0.77400 0.30800 -0.10000
H20B H 0.86300 0.28900 -0.23600
H7B H 0.75600 0.42900 -0.26700
H8B H 0.70600 0.36400 -0.40200
H21B H 0.721(2) 0.467(1) -0.044(2)
loop_
_geom_bond_atom_site_label_1
_geom_bond_atom_site_label_2
_geom_bond_distance
_geom_bond_site_symmetry_1
_geom_bond_site_symmetry_2
C1 C2 1.375 1_555 1_555
C2 C3 1.438 1_555 1_555
C3 C4 1.377 1_555 1_555
C4 C5 1.438 1_555 1_555
C5 C6 1.431 1_555 1_555
C6 C1 1.443 1_555 1_555
C7 C5 1.396 1_555 1_555
C8 C1 1.508 1_555 1_555
C9 C8 1.507 1_555 1_555
C10 C2 1.521 1_555 1_555
C11 C10 1.514 1_555 1_555
C12 C3 1.521 1_555 1_555
C13 C12 1.520 1_555 1_555
C14 C4 1.523 1_555 1_555
C15 C14 1.489 1_555 1_555
H1 C8 0.947 1_555 1_555
H2 C8 0.949 1_555 1_555
H3 C10 0.949 1_555 1_555
H4 C10 0.949 1_555 1_555
H5 C12 0.956 1_555 1_555
H6 C12 0.951 1_555 1_555
H7 C14 0.951 1_555 1_555
H8 C14 0.954 1_555 1_555
H9 C9 0.952 1_555 1_555
H10 C9 0.946 1_555 1_555
H11 C9 0.950 1_555 1_555
H12 C11 0.953 1_555 1_555
H13 C11 0.955 1_555 1_555
H14 C11 0.948 1_555 1_555
H15 C13 0.954 1_555 1_555
H16 C13 0.949 1_555 1_555
H17 C13 0.950 1_555 1_555
H18 C15 0.951 1_555 1_555
H19 C15 0.951 1_555 1_555
H20 C15 0.951 1_555 1_555
H21 C7 0.886 1_555 1_555
C7B C6 1.395 1_555 1_555
C5B C7B 1.396 1_555 1_555
C4B C5B 1.438 1_555 1_555
C3B C4B 1.377 1_555 1_555
C2B C3B 1.438 1_555 1_555
C1B C2B 1.375 1_555 1_555
C6B C7 1.395 1_555 1_555
C8B C1B 1.508 1_555 1_555
C9B C8B 1.507 1_555 1_555
H9B C9B 0.952 1_555 1_555
H10B C9B 0.946 1_555 1_555
H11B C9B 0.950 1_555 1_555
H1B C8B 0.947 1_555 1_555
H2B C8B 0.949 1_555 1_555
C10B C2B 1.521 1_555 1_555
C11B C10B 1.514 1_555 1_555
H12B C11B 0.953 1_555 1_555
H13B C11B 0.955 1_555 1_555
H14B C11B 0.948 1_555 1_555
H3B C10B 0.949 1_555 1_555
H4B C10B 0.949 1_555 1_555
C12B C3B 1.521 1_555 1_555
C13B C12B 1.520 1_555 1_555
H15B C13B 0.954 1_555 1_555
H16B C13B 0.949 1_555 1_555
H17B C13B 0.950 1_555 1_555
H5B C12B 0.956 1_555 1_555
H6B C12B 0.951 1_555 1_555
C14B C4B 1.523 1_555 1_555
C15B C14B 1.489 1_555 1_555
H18B C15B 0.951 1_555 1_555
H19B C15B 0.951 1_555 1_555
H20B C15B 0.951 1_555 1_555
H7B C14B 0.951 1_555 1_555
H8B C14B 0.954 1_555 1_555
H21B C7B 0.886 1_555 1_555
C5B C6B 1.431 1_555 1_555
C1B C6B 1.443 1_555 1_555
#END
