
#######################################################################
#
#                 Cambridge Crystallographic Data Centre
#                                CCDC
#
#######################################################################
#
# If this CIF has been generated from an entry in the Cambridge
# Structural Database, then it will include bibliographic, chemical,
# crystal, experimental, refinement or atomic coordinate data resulting
# from the CCDC's data processing and validation procedures.
#
#######################################################################

data_CSD_CIF_NAMQEZ
_audit_creation_date 2012-03-30
_audit_creation_method CSD-ConQuest-V1
_database_code_CSD NAMQEZ
_database_code_depnum_ccdc_archive 'CCDC 792539'
_chemical_formula_sum 'C33 H26'
_chemical_formula_moiety
;
C33 H26
;
_journal_coden_Cambridge 16
_journal_volume 68
_journal_year 2012
_journal_page_first 1688
_journal_name_full 'Tetrahedron '
loop_
_publ_author_name
"C.Kitamura"
"Y.Tanigawa"
"T.Kobayashi"
"H.Naito"
"H.Kurata"
"T.Kawase"
_chemical_name_systematic
;
17,17-Diethyl-17H-dibenzo[4,5:6,7]indeno[1,2-l]phenanthrene
;
_cell_volume   4461.214
_exptl_crystal_colour 'colorless'
_exptl_crystal_density_diffrn 1.258
_exptl_crystal_description 'prism'
_diffrn_ambient_temperature 223
#These two values have been output from a single CSD field.
_refine_ls_R_factor_gt 0.1039
_refine_ls_wR_factor_gt 0.1039
_symmetry_cell_setting orthorhombic
_symmetry_space_group_name_H-M 'P c a b'
_symmetry_Int_Tables_number 61
loop_
_symmetry_equiv_pos_site_id
_symmetry_equiv_pos_as_xyz
1 x,y,z
2 -x,1/2-y,1/2+z
3 1/2+x,-y,1/2-z
4 1/2-x,1/2+y,-z
5 -x,-y,-z
6 x,-1/2+y,-1/2-z
7 -1/2-x,y,-1/2+z
8 -1/2+x,-1/2-y,z
_cell_length_a 14.212(3)
_cell_length_b 15.503(3)
_cell_length_c 20.248(4)
_cell_angle_alpha 90
_cell_angle_beta 90
_cell_angle_gamma 90
_cell_formula_units_Z 8
loop_
_atom_type_symbol
_atom_type_radius_bond
C 0.68
H 0.23
loop_
_atom_site_label
_atom_site_type_symbol
_atom_site_fract_x
_atom_site_fract_y
_atom_site_fract_z
C1 C 0.61659(15) 0.14261(15) 0.84179(11)
C2 C 0.65313(15) 0.07231(15) 0.88813(11)
C3 C 0.70084(15) -0.00647(15) 0.87117(12)
C4 C 0.71047(16) -0.03638(16) 0.80528(12)
H1 H 0.68600 -0.00300 0.77060
C5 C 0.75463(18) -0.11279(16) 0.79100(13)
H2 H 0.76000 -0.13120 0.74690
C6 C 0.79126(18) -0.16279(17) 0.84156(15)
H3 H 0.82230 -0.21470 0.83160
C7 C 0.78239(18) -0.13682(17) 0.90607(14)
H4 H 0.80630 -0.17210 0.93990
C8 C 0.73818(16) -0.05823(15) 0.92272(12)
C9 C 0.73512(15) -0.02679(15) 0.99062(12)
C10 C 0.78219(17) -0.06994(17) 1.04226(13)
H5 H 0.81020 -0.12380 1.03390
C11 C 0.78811(17) -0.03539(18) 1.10423(13)
H6 H 0.81910 -0.06600 1.13790
C12 C 0.74862(17) 0.04460(18) 1.11770(12)
H7 H 0.75490 0.06920 1.15990
C13 C 0.70026(16) 0.08779(17) 1.06897(12)
H8 H 0.67420 0.14220 1.07820
C14 C 0.68900(15) 0.05197(15) 1.00550(11)
C15 C 0.64011(15) 0.09593(14) 0.95278(11)
C16 C 0.58169(15) 0.17510(14) 0.95392(11)
C17 C 0.52794(15) 0.21378(15) 1.00683(12)
C18 C 0.50543(17) 0.16920(17) 1.06525(12)
H9 H 0.52530 0.11180 1.07040
C19 C 0.45516(19) 0.2079(2) 1.11476(13)
H10 H 0.44090 0.17730 1.15360
C20 C 0.4253(2) 0.2928(2) 1.10736(14)
H11 H 0.39460 0.32090 1.14240
C21 C 0.44032(19) 0.33554(18) 1.04927(14)
H12 H 0.41780 0.39220 1.04450
C22 C 0.48878(16) 0.29673(16) 0.99637(12)
C23 C 0.49415(15) 0.33662(15) 0.93108(12)
C24 C 0.45822(17) 0.41975(16) 0.91853(14)
H13 H 0.43510 0.45280 0.95390
C25 C 0.45612(18) 0.45357(17) 0.85602(15)
H14 H 0.43170 0.50910 0.84890
C26 C 0.49005(18) 0.40587(17) 0.80323(14)
H15 H 0.48700 0.42860 0.76020
C27 C 0.52816(16) 0.32544(16) 0.81353(12)
H16 H 0.55170 0.29400 0.77750
C28 C 0.53240(15) 0.28928(15) 0.87781(12)
C29 C 0.57581(15) 0.20692(14) 0.89091(11)
C30 C 0.53673(16) 0.11045(16) 0.79533(12)
H17 H 0.51070 0.16000 0.77140
H18 H 0.56380 0.07100 0.76260
C31 C 0.45724(17) 0.06457(19) 0.83110(14)
H19 H 0.48170 0.01380 0.85320
H20 H 0.40950 0.04750 0.79950
H21 H 0.42970 0.10320 0.86350
C32 C 0.70076(16) 0.17968(16) 0.80159(12)
H22 H 0.73120 0.13230 0.77760
H23 H 0.67640 0.22040 0.76880
C33 C 0.77424(17) 0.22527(17) 0.84340(14)
H24 H 0.74640 0.27570 0.86390
H25 H 0.82640 0.24290 0.81560
H26 H 0.79680 0.18630 0.87740
loop_
_geom_bond_atom_site_label_1
_geom_bond_atom_site_label_2
_geom_bond_distance
_geom_bond_site_symmetry_1
_geom_bond_site_symmetry_2
C1 C2 1.529 1_555 1_555
C2 C3 1.439 1_555 1_555
C3 C4 1.419 1_555 1_555
C4 H1 0.939 1_555 1_555
C5 C4 1.371 1_555 1_555
H2 C5 0.941 1_555 1_555
C6 C5 1.386 1_555 1_555
H3 C6 0.940 1_555 1_555
C7 C6 1.373 1_555 1_555
H4 C7 0.940 1_555 1_555
C8 C3 1.420 1_555 1_555
C9 C8 1.459 1_555 1_555
C10 C9 1.410 1_555 1_555
H5 C10 0.940 1_555 1_555
C11 C10 1.367 1_555 1_555
H6 C11 0.940 1_555 1_555
C12 C11 1.388 1_555 1_555
H7 C12 0.940 1_555 1_555
C13 C12 1.376 1_555 1_555
H8 C13 0.940 1_555 1_555
C14 C9 1.418 1_555 1_555
C15 C2 1.372 1_555 1_555
C16 C15 1.482 1_555 1_555
C17 C16 1.446 1_555 1_555
C18 C17 1.407 1_555 1_555
H9 C18 0.939 1_555 1_555
C19 C18 1.369 1_555 1_555
H10 C19 0.941 1_555 1_555
C20 C19 1.391 1_555 1_555
H11 C20 0.940 1_555 1_555
C21 C20 1.367 1_555 1_555
H12 C21 0.940 1_555 1_555
C22 C17 1.417 1_555 1_555
C23 C22 1.461 1_555 1_555
C24 C23 1.409 1_555 1_555
H13 C24 0.940 1_555 1_555
C25 C24 1.370 1_555 1_555
H14 C25 0.939 1_555 1_555
C26 C25 1.386 1_555 1_555
H15 C26 0.941 1_555 1_555
C27 C26 1.375 1_555 1_555
H16 C27 0.939 1_555 1_555
C28 C23 1.413 1_555 1_555
C29 C1 1.523 1_555 1_555
C30 C1 1.556 1_555 1_555
H17 C30 0.981 1_555 1_555
H18 C30 0.980 1_555 1_555
C31 C30 1.519 1_555 1_555
H19 C31 0.970 1_555 1_555
H20 C31 0.969 1_555 1_555
H21 C31 0.971 1_555 1_555
C32 C1 1.557 1_555 1_555
H22 C32 0.981 1_555 1_555
H23 C32 0.979 1_555 1_555
C33 C32 1.519 1_555 1_555
H24 C33 0.970 1_555 1_555
H25 C33 0.970 1_555 1_555
H26 C33 0.970 1_555 1_555
C7 C8 1.412 1_555 1_555
C13 C14 1.409 1_555 1_555
C14 C15 1.445 1_555 1_555
C16 C29 1.370 1_555 1_555
C21 C22 1.408 1_555 1_555
C27 C28 1.418 1_555 1_555
C28 C29 1.443 1_555 1_555
#END
