
#######################################################################
#
#                 Cambridge Crystallographic Data Centre
#                                CCDC
#
#######################################################################
#
# If this CIF has been generated from an entry in the Cambridge
# Structural Database, then it will include bibliographic, chemical,
# crystal, experimental, refinement or atomic coordinate data resulting
# from the CCDC's data processing and validation procedures.
#
#######################################################################

data_CSD_CIF_NAMQOJ
_audit_creation_date 2012-03-30
_audit_creation_method CSD-ConQuest-V1
_database_code_CSD NAMQOJ
_database_code_depnum_ccdc_archive 'CCDC 792541'
_chemical_formula_sum 'C31 H22'
_chemical_formula_moiety
;
C31 H22
;
_journal_coden_Cambridge 16
_journal_volume 68
_journal_year 2012
_journal_page_first 1688
_journal_name_full 'Tetrahedron '
loop_
_publ_author_name
"C.Kitamura"
"Y.Tanigawa"
"T.Kobayashi"
"H.Naito"
"H.Kurata"
"T.Kawase"
_chemical_name_systematic
;
17,17-Dimethyl-17H-dibenzo[4,5:6,7]indeno[1,2-l]phenanthrene
;
_cell_volume   4402.599
_exptl_crystal_colour 'colorless'
_exptl_crystal_density_diffrn 1.19
_exptl_crystal_description 'prism'
_diffrn_ambient_temperature 223
#These two values have been output from a single CSD field.
_refine_ls_R_factor_gt 0.0682
_refine_ls_wR_factor_gt 0.0682
_symmetry_cell_setting tetragonal
_symmetry_space_group_name_H-M 'I 4'
_symmetry_Int_Tables_number 79
loop_
_symmetry_equiv_pos_site_id
_symmetry_equiv_pos_as_xyz
1 x,y,z
2 -x,-y,z
3 -y,x,z
4 y,-x,z
5 1/2+x,1/2+y,1/2+z
6 1/2-x,1/2-y,1/2+z
7 1/2-y,1/2+x,1/2+z
8 1/2+y,1/2-x,1/2+z
_cell_length_a 20.5757(6)
_cell_length_b 20.5757(6)
_cell_length_c 10.3992(4)
_cell_angle_alpha 90
_cell_angle_beta 90
_cell_angle_gamma 90
_cell_formula_units_Z 8
loop_
_atom_type_symbol
_atom_type_radius_bond
C 0.68
H 0.23
loop_
_atom_site_label
_atom_site_type_symbol
_atom_site_fract_x
_atom_site_fract_y
_atom_site_fract_z
C1 C 0.73072(11) 0.89888(11) 0.3445(2)
C2 C 0.65961(11) 0.87632(11) 0.3380(2)
C3 C 0.61381(12) 0.88764(12) 0.2368(2)
C4 C 0.62597(14) 0.92920(14) 0.1306(3)
H1 H 0.66690 0.94910 0.12270
C5 C 0.57914(15) 0.94099(15) 0.0389(3)
H2 H 0.58850 0.96810 -0.03150
C6 C 0.51749(16) 0.91255(16) 0.0505(3)
H3 H 0.48510 0.92150 -0.01070
C7 C 0.50466(13) 0.87194(15) 0.1509(3)
H4 H 0.46310 0.85330 0.15760
C8 C 0.55190(12) 0.85686(12) 0.2456(3)
C9 C 0.54030(11) 0.80908(12) 0.3457(3)
C10 C 0.48542(12) 0.76840(14) 0.3428(3)
H5 H 0.45320 0.77570 0.28030
C11 C 0.47761(13) 0.71877(14) 0.4281(3)
H6 H 0.44000 0.69290 0.42530
C12 C 0.52585(13) 0.70626(14) 0.5202(3)
H7 H 0.52170 0.67060 0.57620
C13 C 0.57908(12) 0.74614(13) 0.5283(3)
H8 H 0.61100 0.73790 0.59090
C14 C 0.58671(11) 0.79958(11) 0.4439(2)
C15 C 0.64438(11) 0.84011(11) 0.4441(2)
C16 C 0.69886(11) 0.84284(11) 0.5353(2)
C17 C 0.70268(12) 0.82593(11) 0.6698(2)
C18 C 0.64776(13) 0.81794(12) 0.7486(2)
H9 H 0.60620 0.82390 0.71290
C19 C 0.65314(14) 0.80163(14) 0.8762(2)
H10 H 0.61560 0.79650 0.92680
C20 C 0.71463(14) 0.79275(13) 0.9305(3)
H11 H 0.71850 0.77870 1.01620
C21 C 0.76925(13) 0.80453(12) 0.8588(2)
H12 H 0.81030 0.79980 0.89750
C22 C 0.76574(12) 0.82363(11) 0.7278(2)
C23 C 0.82267(12) 0.84344(12) 0.6555(3)
C24 C 0.88622(14) 0.83831(15) 0.7053(3)
H13 H 0.89240 0.81850 0.78580
C25 C 0.93871(14) 0.86112(17) 0.6405(4)
H14 H 0.98050 0.85620 0.67580
C26 C 0.93101(13) 0.89204(14) 0.5208(3)
H15 H 0.96720 0.90930 0.47750
C27 C 0.86976(12) 0.89671(12) 0.4676(3)
H16 H 0.86490 0.91650 0.38680
C28 C 0.81458(11) 0.87263(11) 0.5310(3)
C29 C 0.75128(12) 0.87136(11) 0.4743(2)
C30 C 0.73738(13) 0.97356(12) 0.3480(3)
H17 H 0.72450 0.99150 0.26560
H18 H 0.78220 0.98510 0.36570
H19 H 0.70960 0.99100 0.41500
C31 C 0.76856(14) 0.86833(13) 0.2322(3)
H20 H 0.75400 0.88730 0.15190
H21 H 0.76090 0.82180 0.23070
H22 H 0.81460 0.87660 0.24330
loop_
_geom_bond_atom_site_label_1
_geom_bond_atom_site_label_2
_geom_bond_distance
_geom_bond_site_symmetry_1
_geom_bond_site_symmetry_2
C1 C2 1.536 1_555 1_555
C2 C3 1.432 1_555 1_555
C3 C4 1.419 1_555 1_555
C4 H1 0.940 1_555 1_555
C5 C4 1.377 1_555 1_555
H2 C5 0.940 1_555 1_555
C6 C5 1.402 1_555 1_555
H3 C6 0.940 1_555 1_555
C7 C6 1.363 1_555 1_555
H4 C7 0.940 1_555 1_555
C8 C3 1.426 1_555 1_555
C9 C8 1.452 1_555 1_555
C10 C9 1.406 1_555 1_555
H5 C10 0.940 1_555 1_555
C11 C10 1.362 1_555 1_555
H6 C11 0.940 1_555 1_555
C12 C11 1.403 1_555 1_555
H7 C12 0.941 1_555 1_555
C13 C12 1.371 1_555 1_555
H8 C13 0.940 1_555 1_555
C14 C9 1.412 1_555 1_555
C15 C2 1.368 1_555 1_555
C16 C15 1.469 1_555 1_555
C17 C16 1.443 1_555 1_555
C18 C17 1.406 1_555 1_555
H9 C18 0.940 1_555 1_555
C19 C18 1.373 1_555 1_555
H10 C19 0.941 1_555 1_555
C20 C19 1.397 1_555 1_555
H11 C20 0.940 1_555 1_555
C21 C20 1.370 1_555 1_555
H12 C21 0.941 1_555 1_555
C22 C17 1.432 1_555 1_555
C23 C22 1.450 1_555 1_555
C24 C23 1.410 1_555 1_555
H13 C24 0.940 1_555 1_555
C25 C24 1.357 1_555 1_555
H14 C25 0.940 1_555 1_555
C26 C25 1.407 1_555 1_555
H15 C26 0.940 1_555 1_555
C27 C26 1.380 1_555 1_555
H16 C27 0.939 1_555 1_555
C28 C23 1.437 1_555 1_555
C29 C1 1.524 1_555 1_555
C30 C1 1.543 1_555 1_555
H17 C30 0.970 1_555 1_555
H18 C30 0.970 1_555 1_555
H19 C30 0.970 1_555 1_555
C31 C1 1.538 1_555 1_555
H20 C31 0.969 1_555 1_555
H21 C31 0.970 1_555 1_555
H22 C31 0.969 1_555 1_555
C7 C8 1.418 1_555 1_555
C13 C14 1.416 1_555 1_555
C14 C15 1.450 1_555 1_555
C16 C29 1.382 1_555 1_555
C21 C22 1.420 1_555 1_555
C27 C28 1.403 1_555 1_555
C28 C29 1.430 1_555 1_555
#END
