
#######################################################################
#
#                 Cambridge Crystallographic Data Centre
#                                CCDC
#
#######################################################################
#
# If this CIF has been generated from an entry in the Cambridge
# Structural Database, then it will include bibliographic, chemical,
# crystal, experimental, refinement or atomic coordinate data resulting
# from the CCDC's data processing and validation procedures.
#
#######################################################################

data_CSD_CIF_NAMYUV01
_audit_creation_date 2010-10-12
_audit_creation_method CSD-ConQuest-V1
_database_code_CSD NAMYUV01
_database_code_depnum_ccdc_archive 'CCDC 731481'
_chemical_formula_sum 'C19 H12'
_chemical_formula_moiety
;
C19 H12
;
_journal_coden_Cambridge 1003
_journal_volume 40
_journal_year 2010
_journal_page_first 343
_journal_name_full 'J.Chem.Cryst. '
loop_
_publ_author_name
"Naijue Zhu"
"D.Lightsey"
"Jiawang Liu"
"M.Foroozesh"
"K.M.Morgan"
"E.D.Stevens"
"C.L.K.Stevens"
_chemical_name_systematic
;
1-(Prop-1-yn-1-yl)pyrene
;
_cell_volume   1261.970
_exptl_crystal_colour 'colorless'
_exptl_crystal_density_diffrn 1.265
_exptl_crystal_description 'cube'
_diffrn_ambient_temperature 298
#These two values have been output from a single CSD field.
_refine_ls_R_factor_gt 0.052
_refine_ls_wR_factor_gt 0.052
_symmetry_cell_setting monoclinic
_symmetry_space_group_name_H-M 'P 21/n'
_symmetry_Int_Tables_number 14
loop_
_symmetry_equiv_pos_site_id
_symmetry_equiv_pos_as_xyz
1 x,y,z
2 1/2-x,1/2+y,1/2-z
3 -x,-y,-z
4 -1/2+x,-1/2-y,-1/2+z
_cell_length_a 8.97(5)
_cell_length_b 10.14(5)
_cell_length_c 14.08(5)
_cell_angle_alpha 90
_cell_angle_beta 99.8(2)
_cell_angle_gamma 90
_cell_formula_units_Z 4
loop_
_atom_type_symbol
_atom_type_radius_bond
C 0.68
H 0.23
loop_
_atom_site_label
_atom_site_type_symbol
_atom_site_fract_x
_atom_site_fract_y
_atom_site_fract_z
C1 C 0.6065(2) 0.33403(17) 0.50258(14)
C2 C 0.7363(2) 0.39580(17) 0.55252(14)
C3 C 0.8062(2) 0.49689(17) 0.51124(14)
C4 C 0.8228(2) 0.64293(17) 0.37158(14)
C5 C 0.7650(2) 0.68534(17) 0.28229(14)
C6 C 0.5648(2) 0.67340(17) 0.13660(14)
C7 C 0.4345(2) 0.61548(17) 0.08732(14)
C8 C 0.3649(2) 0.51428(17) 0.12789(14)
C9 C 0.3527(2) 0.36283(17) 0.26515(14)
C10 C 0.4110(2) 0.31958(17) 0.35461(14)
C11 C 0.7509(2) 0.54000(17) 0.41759(14)
C12 C 0.6288(2) 0.63002(17) 0.22924(14)
C13 C 0.4227(2) 0.46772(17) 0.22042(14)
C14 C 0.5457(2) 0.37629(17) 0.40868(14)
C15 C 0.6182(2) 0.48067(17) 0.36608(14)
C16 C 0.5564(2) 0.52596(17) 0.27195(14)
C17 C 0.5373(2) 0.22961(17) 0.54813(14)
C18 C 0.4833(2) 0.14268(17) 0.58825(14)
C19 C 0.4210(2) 0.03698(17) 0.63929(14)
H1 H 0.77774 0.36779 0.61671
H2 H 0.89444 0.53806 0.54727
H3 H 0.91415 0.68140 0.40583
H4 H 0.81480 0.75435 0.25300
H5 H 0.61112 0.74507 0.10785
H6 H 0.39248 0.64497 0.02361
H7 H 0.27560 0.47422 0.09228
H8 H 0.26262 0.32369 0.22978
H9 H 0.36168 0.24908 0.38268
H10 H 0.32792 0.00753 0.60120
H11 H 0.49124 -0.03515 0.64951
H12 H 0.40181 0.06866 0.70034
loop_
_geom_bond_atom_site_label_1
_geom_bond_atom_site_label_2
_geom_bond_distance
_geom_bond_site_symmetry_1
_geom_bond_site_symmetry_2
C1 C2 1.401 1_555 1_555
C2 C3 1.380 1_555 1_555
C3 C11 1.398 1_555 1_555
C4 C5 1.346 1_555 1_555
C5 C12 1.433 1_555 1_555
C6 C7 1.384 1_555 1_555
C7 C8 1.375 1_555 1_555
C8 C13 1.400 1_555 1_555
C9 C10 1.352 1_555 1_555
C10 C14 1.434 1_555 1_555
C11 C4 1.438 1_555 1_555
C12 C6 1.403 1_555 1_555
C13 C9 1.434 1_555 1_555
C14 C1 1.408 1_555 1_555
C15 C11 1.418 1_555 1_555
C16 C12 1.425 1_555 1_555
C17 C1 1.433 1_555 1_555
C18 C17 1.193 1_555 1_555
C19 C18 1.454 1_555 1_555
H1 C2 0.960 1_555 1_555
H2 C3 0.960 1_555 1_555
H3 C4 0.960 1_555 1_555
H4 C5 0.960 1_555 1_555
H5 C6 0.960 1_555 1_555
H6 C7 0.960 1_555 1_555
H7 C8 0.960 1_555 1_555
H8 C9 0.960 1_555 1_555
H9 C10 0.960 1_555 1_555
H10 C19 0.960 1_555 1_555
H11 C19 0.960 1_555 1_555
H12 C19 0.960 1_555 1_555
C13 C16 1.420 1_555 1_555
C14 C15 1.427 1_555 1_555
C15 C16 1.423 1_555 1_555
#END
