
#######################################################################
#
#                 Cambridge Crystallographic Data Centre
#                                CCDC
#
#######################################################################
#
# If this CIF has been generated from an entry in the Cambridge
# Structural Database, then it will include bibliographic, chemical,
# crystal, experimental, refinement or atomic coordinate data resulting
# from the CCDC's data processing and validation procedures.
#
#######################################################################

data_CSD_CIF_NAMYUV
_audit_creation_date 1998-03-17
_audit_creation_method CSD-ConQuest-V1
_database_code_CSD NAMYUV
_database_code_depnum_ccdc_archive 'CCDC 1216597'
_database_code_depnum_ccdc_journal 1003/5139
_chemical_formula_sum 'C19 H12'
_chemical_formula_moiety
;
C19 H12
;
_journal_coden_Cambridge 1003
_journal_volume 27
_journal_year 1997
_journal_page_first 183
_journal_name_full 'J.Chem.Cryst. '
loop_
_publ_author_name
"J.T.Mague"
"M.Foroozesh"
"N.E.Hopkins"
"L.L.-S.Gan"
"W.L.Alworth"
_chemical_name_systematic
;
1-Propynylpyrene
;
_cell_volume   1260.075
_exptl_crystal_colour 'colorless'
_exptl_crystal_density_diffrn 1.27
_exptl_crystal_description 'block'
_exptl_crystal_preparation 'light petroleum'
_diffrn_ambient_temperature ?
_diffrn_special_details
;
The study was carried out at room temperature,in the range 283-303K

;
#These two values have been output from a single CSD field.
_refine_ls_R_factor_gt 0.042
_refine_ls_wR_factor_gt 0.042
_symmetry_cell_setting monoclinic
_symmetry_space_group_name_H-M 'P 21/n'
_symmetry_Int_Tables_number 14
loop_
_symmetry_equiv_pos_site_id
_symmetry_equiv_pos_as_xyz
1 x,y,z
2 1/2-x,1/2+y,1/2-z
3 -x,-y,-z
4 -1/2+x,-1/2-y,-1/2+z
_cell_length_a 8.972(2)
_cell_length_b 10.136(2)
_cell_length_c 14.060(2)
_cell_angle_alpha 90
_cell_angle_beta 99.77(1)
_cell_angle_gamma 90
_cell_formula_units_Z 4
loop_
_atom_type_symbol
_atom_type_radius_bond
C 0.68
H 0.23
loop_
_atom_site_label
_atom_site_type_symbol
_atom_site_fract_x
_atom_site_fract_y
_atom_site_fract_z
C1 C 0.4438(2) 0.4734(2) 0.7283(1)
C2 C 0.3716(2) 0.3700(2) 0.7709(1)
C3 C 0.4353(3) 0.3275(2) 0.8634(2)
C4 C 0.5653(3) 0.3852(3) 0.9126(2)
C5 C 0.6352(3) 0.4856(2) 0.8719(2)
C6 C 0.5774(2) 0.5323(2) 0.7800(1)
C7 C 0.6467(2) 0.6365(2) 0.7345(1)
C8 C 0.5890(2) 0.6801(2) 0.6457(1)
C9 C 0.4543(2) 0.6233(2) 0.5912(1)
C10 C 0.3819(2) 0.5195(2) 0.6340(1)
C11 C 0.2484(2) 0.4598(2) 0.5821(1)
C12 C 0.1779(2) 0.3569(2) 0.6284(2)
C13 C 0.2356(2) 0.3153(2) 0.7177(2)
C14 C 0.1943(2) 0.5035(2) 0.4892(2)
C15 C 0.2638(2) 0.6036(2) 0.4475(1)
C16 C 0.3933(2) 0.6656(2) 0.4975(1)
C17 C 0.4629(2) 0.7707(2) 0.4516(1)
C18 C 0.5168(2) 0.8570(2) 0.4117(2)
C19 C 0.5794(3) 0.9635(2) 0.3612(2)
H1 H 0.38860 0.25800 0.89280
H2 H 0.60670 0.35480 0.97550
H3 H 0.72460 0.52390 0.90700
H4 H 0.73630 0.67610 0.76810
H5 H 0.63820 0.74990 0.61830
H6 H 0.08800 0.31730 0.59520
H7 H 0.18480 0.24760 0.74630
H8 H 0.10670 0.46320 0.45350
H9 H 0.22350 0.63120 0.38370
H10 H 0.54170 1.04550 0.37940
H11 H 0.55090 0.95150 0.29350
H12 H 0.68670 0.96270 0.37770
loop_
_geom_bond_atom_site_label_1
_geom_bond_atom_site_label_2
_geom_bond_distance
_geom_bond_site_symmetry_1
_geom_bond_site_symmetry_2
C1 C2 1.417 1_555 1_555
C2 C3 1.397 1_555 1_555
C3 C4 1.381 1_555 1_555
C4 C5 1.370 1_555 1_555
C5 C6 1.391 1_555 1_555
C6 C1 1.423 1_555 1_555
C7 C6 1.431 1_555 1_555
C8 C7 1.343 1_555 1_555
C9 C8 1.437 1_555 1_555
C10 C1 1.426 1_555 1_555
C11 C10 1.427 1_555 1_555
C12 C11 1.432 1_555 1_555
C13 C2 1.430 1_555 1_555
C14 C11 1.387 1_555 1_555
C15 C14 1.373 1_555 1_555
C16 C9 1.405 1_555 1_555
C17 C16 1.442 1_555 1_555
C18 C17 1.186 1_555 1_555
C19 C18 1.456 1_555 1_555
H1 C3 0.949 1_555 1_555
H2 C4 0.951 1_555 1_555
H3 C5 0.950 1_555 1_555
H4 C7 0.950 1_555 1_555
H5 C8 0.949 1_555 1_555
H6 C12 0.950 1_555 1_555
H7 C13 0.950 1_555 1_555
H8 C14 0.950 1_555 1_555
H9 C15 0.951 1_555 1_555
H10 C19 0.949 1_555 1_555
H11 C19 0.951 1_555 1_555
H12 C19 0.951 1_555 1_555
C9 C10 1.423 1_555 1_555
C12 C13 1.342 1_555 1_555
C15 C16 1.401 1_555 1_555
#END
