
#######################################################################
#
#                 Cambridge Crystallographic Data Centre
#                                CCDC
#
#######################################################################
#
# If this CIF has been generated from an entry in the Cambridge
# Structural Database, then it will include bibliographic, chemical,
# crystal, experimental, refinement or atomic coordinate data resulting
# from the CCDC's data processing and validation procedures.
#
#######################################################################

data_CSD_CIF_NAMZIK
_audit_creation_date 1998-03-17
_audit_creation_method CSD-ConQuest-V1
_database_code_CSD NAMZIK
_database_code_depnum_ccdc_archive 'CCDC 1216602'
_database_code_depnum_ccdc_journal 1003/5139
_chemical_formula_sum 'C17 H12'
_chemical_formula_moiety
;
C17 H12
;
_journal_coden_Cambridge 1003
_journal_volume 27
_journal_year 1997
_journal_page_first 183
_journal_name_full 'J.Chem.Cryst. '
loop_
_publ_author_name
"J.T.Mague"
"M.Foroozesh"
"N.E.Hopkins"
"L.L.-S.Gan"
"W.L.Alworth"
_chemical_name_systematic
;
9-Propynylphenanthrene
;
_cell_volume   1177.086
_exptl_crystal_colour 'colorless'
_exptl_crystal_density_diffrn 1.22
_exptl_crystal_description 'plate'
_exptl_crystal_preparation 'water/isopropanol'
_diffrn_ambient_temperature ?
_diffrn_special_details
;
The study was carried out at room temperature,in the range 283-303K

;
#These two values have been output from a single CSD field.
_refine_ls_R_factor_gt 0.041
_refine_ls_wR_factor_gt 0.041
_symmetry_cell_setting orthorhombic
_symmetry_space_group_name_H-M 'P 21 21 21'
_symmetry_Int_Tables_number 19
loop_
_symmetry_equiv_pos_site_id
_symmetry_equiv_pos_as_xyz
1 x,y,z
2 1/2-x,-y,1/2+z
3 1/2+x,1/2-y,-z
4 -x,1/2+y,1/2-z
_cell_length_a 5.8867(6)
_cell_length_b 13.476(1)
_cell_length_c 14.838(2)
_cell_angle_alpha 90
_cell_angle_beta 90
_cell_angle_gamma 90
_cell_formula_units_Z 4
loop_
_atom_type_symbol
_atom_type_radius_bond
C 0.68
H 0.23
loop_
_atom_site_label
_atom_site_type_symbol
_atom_site_fract_x
_atom_site_fract_y
_atom_site_fract_z
C1 C 1.2423(7) 0.0916(2) 0.3911(2)
C2 C 1.2421(7) 0.0055(2) 0.4455(2)
C3 C 1.0766(7) -0.0088(2) 0.5090(2)
C4 C 0.9068(6) 0.0602(3) 0.5189(2)
C5 C 0.9011(6) 0.1440(2) 0.4676(2)
C6 C 1.0674(6) 0.1624(2) 0.4025(2)
C7 C 1.0730(5) 0.2517(2) 0.3471(2)
C8 C 0.9125(6) 0.3283(2) 0.3559(2)
C9 C 0.9187(7) 0.4116(2) 0.3040(2)
C10 C 1.0911(6) 0.4238(2) 0.2413(2)
C11 C 1.2512(6) 0.3517(3) 0.2303(2)
C12 C 1.2461(6) 0.2638(2) 0.2816(2)
C13 C 1.4118(5) 0.1869(2) 0.2695(2)
C14 C 1.4106(8) 0.1058(2) 0.3233(2)
C15 C 1.5831(6) 0.1952(2) 0.1998(2)
C16 C 1.7237(6) 0.1992(2) 0.1426(2)
C17 C 1.9010(7) 0.2017(3) 0.0748(2)
H1 H 1.35800 -0.04280 0.43800
H2 H 1.07910 -0.06620 0.54610
H3 H 0.79100 0.04930 0.56240
H4 H 0.78210 0.19070 0.47610
H5 H 0.79560 0.32170 0.39960
H6 H 0.80520 0.46120 0.31060
H7 H 1.09790 0.48260 0.20600
H8 H 1.36850 0.36090 0.18720
H9 H 1.52520 0.05690 0.31560
H10 H 2.04090 0.18180 0.10100
H11 H 1.91510 0.26730 0.05190
H12 H 1.86300 0.15780 0.02710
loop_
_geom_bond_atom_site_label_1
_geom_bond_atom_site_label_2
_geom_bond_distance
_geom_bond_site_symmetry_1
_geom_bond_site_symmetry_2
C1 C2 1.413 1_555 1_555
C2 C3 1.369 1_555 1_555
C3 C4 1.373 1_555 1_555
C4 C5 1.362 1_555 1_555
C5 C6 1.397 1_555 1_555
C6 C1 1.414 1_555 1_555
C7 C6 1.458 1_555 1_555
C8 C7 1.405 1_555 1_555
C9 C8 1.362 1_555 1_555
C10 C9 1.387 1_555 1_555
C11 C10 1.363 1_555 1_555
C12 C7 1.418 1_555 1_555
C13 C12 1.434 1_555 1_555
C14 C1 1.425 1_555 1_555
C15 C13 1.449 1_555 1_555
C16 C15 1.187 1_555 1_555
C17 C16 1.450 1_555 1_555
H1 C2 0.949 1_555 1_555
H2 C3 0.950 1_555 1_555
H3 C4 0.950 1_555 1_555
H4 C5 0.950 1_555 1_555
H5 C8 0.950 1_555 1_555
H6 C9 0.950 1_555 1_555
H7 C10 0.951 1_555 1_555
H8 C11 0.949 1_555 1_555
H9 C14 0.950 1_555 1_555
H10 C17 0.949 1_555 1_555
H11 C17 0.951 1_555 1_555
H12 C17 0.949 1_555 1_555
C11 C12 1.408 1_555 1_555
C13 C14 1.353 1_555 1_555
#END
