
#######################################################################
#
#                 Cambridge Crystallographic Data Centre
#                                CCDC
#
#######################################################################
#
# If this CIF has been generated from an entry in the Cambridge
# Structural Database, then it will include bibliographic, chemical,
# crystal, experimental, refinement or atomic coordinate data resulting
# from the CCDC's data processing and validation procedures.
#
#######################################################################

data_CSD_CIF_NAPANT
_audit_creation_date 1971-12-31
_audit_creation_method CSD-ConQuest-V1
_database_code_CSD NAPANT
_chemical_formula_sum 'C34 H18'
_chemical_formula_moiety
;
C34 H18
;
_journal_coden_Cambridge 2
_journal_year 1959
_journal_page_first 2607
_journal_name_full 'J.Chem.Soc. '
loop_
_publ_author_name
"M.G.Rossmann"
_chemical_name_systematic
;
1,9-5,10-Diperinaphthyleneanthracene
;
_cell_volume   1044.318
_exptl_crystal_density_diffrn 1.356
_exptl_special_details
;
Bond lengths ranging from 1.15 to 1.75

;
_diffrn_ambient_temperature ?
_diffrn_special_details
;
The study was carried out at room temperature,in the range 283-303K

;
#These two values have been output from a single CSD field.
_refine_ls_R_factor_gt 0.19
_refine_ls_wR_factor_gt 0.19
_symmetry_cell_setting monoclinic
_symmetry_space_group_name_H-M 'P 21'
_symmetry_Int_Tables_number 4
loop_
_symmetry_equiv_pos_site_id
_symmetry_equiv_pos_as_xyz
1 x,y,z
2 -x,1/2+y,-z
_cell_length_a 11.95(3)
_cell_length_b 7.83(2)
_cell_length_c 11.17(3)
_cell_angle_alpha 90
_cell_angle_beta 92.30(33)
_cell_angle_gamma 90
_cell_formula_units_Z 2
loop_
_atom_type_symbol
_atom_type_radius_bond
C 0.68
loop_
_atom_site_label
_atom_site_type_symbol
_atom_site_fract_x
_atom_site_fract_y
_atom_site_fract_z
C1 C 0.09500 0.28600 0.14700
C2 C 0.04000 0.28600 0.03700
C3 C 0.20000 0.26100 0.14200
C4 C 0.26300 0.22500 0.25200
C5 C 0.38800 0.24200 0.25500
C6 C 0.44800 0.19700 0.14500
C7 C -0.07000 0.24200 0.03800
C8 C -0.13800 0.24200 0.15500
C9 C -0.26700 0.20300 0.16300
C10 C -0.32200 0.19700 0.28200
C11 C -0.26500 0.26100 0.37000
C12 C -0.14100 0.25800 0.36700
C13 C -0.09300 0.41100 0.47200
C14 C 0.01500 0.35000 0.48300
C15 C 0.07300 0.42200 0.37000
C16 C 0.03000 0.34200 0.26300
C17 C -0.08800 0.32500 0.26200
C18 C 0.21500 0.25000 -0.08000
C19 C 0.26000 0.23300 0.03300
C20 C 0.10800 0.24200 -0.07000
C21 C 0.04500 0.21700 -0.17000
C22 C -0.06700 0.20800 -0.17800
C23 C -0.13800 0.24400 -0.06500
C24 C 0.38700 0.18600 0.02800
C25 C 0.44000 0.12800 -0.07500
C26 C 0.57000 0.14700 -0.09300
C27 C 0.62300 0.18100 -0.20200
C28 C 0.57500 0.16100 -0.29800
C29 C 0.45900 0.21900 -0.29800
C30 C 0.41200 0.21900 -0.40200
C31 C 0.30700 0.30300 -0.41000
C32 C 0.24200 0.28300 -0.29700
C33 C 0.28700 0.23900 -0.19700
C34 C 0.38200 0.21400 -0.19200
loop_
_geom_bond_atom_site_label_1
_geom_bond_atom_site_label_2
_geom_bond_distance
_geom_bond_site_symmetry_1
_geom_bond_site_symmetry_2
C1 C2 1.370 1_555 1_555
C2 C7 1.359 1_555 1_555
C3 C1 1.273 1_555 1_555
C4 C3 1.443 1_555 1_555
C5 C4 1.499 1_555 1_555
C6 C5 1.490 1_555 1_555
C7 C8 1.566 1_555 1_555
C8 C9 1.578 1_555 1_555
C9 C10 1.507 1_555 1_555
C10 C11 1.276 1_555 1_555
C11 C12 1.484 1_555 1_555
C12 C13 1.757 1_555 1_555
C13 C14 1.377 1_555 1_555
C14 C15 1.569 1_555 1_555
C15 C16 1.427 1_555 1_555
C16 C1 1.599 1_555 1_555
C17 C8 1.466 1_555 1_555
C18 C19 1.359 1_555 1_555
C19 C3 1.454 1_555 1_555
C20 C2 1.512 1_555 1_555
C21 C20 1.336 1_555 1_555
C22 C21 1.340 1_555 1_555
C23 C7 1.382 1_555 1_555
C24 C6 1.473 1_555 1_555
C25 C24 1.411 1_555 1_555
C26 C25 1.581 1_555 1_555
C27 C26 1.420 1_555 1_555
C28 C27 1.206 1_555 1_555
C29 C28 1.459 1_555 1_555
C30 C29 1.270 1_555 1_555
C31 C30 1.416 1_555 1_555
C32 C31 1.516 1_555 1_555
C33 C18 1.596 1_555 1_555
C34 C25 1.603 1_555 1_555
C12 C17 1.453 1_555 1_555
C16 C17 1.416 1_555 1_555
C18 C20 1.289 1_555 1_555
C19 C24 1.565 1_555 1_555
C22 C23 1.574 1_555 1_555
C29 C34 1.529 1_555 1_555
C32 C33 1.268 1_555 1_555
C33 C34 1.151 1_555 1_555
#END
