
#######################################################################
#
#                 Cambridge Crystallographic Data Centre
#                                CCDC
#
#######################################################################
#
# If this CIF has been generated from an entry in the Cambridge
# Structural Database, then it will include bibliographic, chemical,
# crystal, experimental, refinement or atomic coordinate data resulting
# from the CCDC's data processing and validation procedures.
#
#######################################################################

data_CSD_CIF_NAPCPR01
_audit_creation_date 1996-09-23
_audit_creation_method CSD-ConQuest-V1
_database_code_CSD NAPCPR01
_database_code_depnum_ccdc_fiz 'CSD 320158'
_chemical_formula_sum 'C11 H8'
_chemical_formula_moiety
;
C11 H8
;
_journal_coden_Cambridge 1078
_journal_year 1996
_journal_name_full 'CSD Communication(Private Communication) '
loop_
_publ_author_name
"R.Boese"
"D.Blaeser"
"N.Niederpruem"
"T.Miebach"
_chemical_name_systematic
;
Cyclopropa(b)naphthalene
;
_cell_volume    734.092
_diffrn_ambient_temperature 120
#These two values have been output from a single CSD field.
_refine_ls_R_factor_gt 0.056
_refine_ls_wR_factor_gt 0.056
_symmetry_cell_setting orthorhombic
_symmetry_space_group_name_H-M 'P n m a'
_symmetry_Int_Tables_number 62
loop_
_symmetry_equiv_pos_site_id
_symmetry_equiv_pos_as_xyz
1 x,y,z
2 1/2-x,-y,1/2+z
3 1/2+x,1/2-y,1/2-z
4 -x,1/2+y,-z
5 -x,-y,-z
6 -1/2+x,y,-1/2-z
7 -1/2-x,-1/2+y,-1/2+z
8 x,-1/2-y,z
_cell_length_a 11.1836(47)
_cell_length_b 10.2960(48)
_cell_length_c 6.3753(24)
_cell_angle_alpha 90
_cell_angle_beta 90
_cell_angle_gamma 90
_cell_formula_units_Z 4
loop_
_atom_type_symbol
_atom_type_radius_bond
C 0.68
H 0.23
loop_
_atom_site_label
_atom_site_type_symbol
_atom_site_fract_x
_atom_site_fract_y
_atom_site_fract_z
C1 C 0.18984(15) 0.75000 0.42882(25)
H1 H 0.2284(19) 0.75000 0.5697(31)
H2 H 0.0981(20) 0.75000 0.4222(31)
C2 C 0.25497(8) 0.68321(10) 0.25299(16)
C3 C 0.30918(10) 0.60731(10) 0.10779(16)
H3 H 0.3100(13) 0.5100(15) 0.1081(19)
C4 C 0.37044(8) 0.67967(10) -0.05305(16)
C5 C 0.43372(10) 0.61398(12) -0.21432(17)
H4 H 0.4344(13) 0.5166(14) -0.2119(22)
C6 C 0.49459(10) 0.68127(14) -0.36678(17)
H5 H 0.5381(13) 0.6318(15) -0.4756(24)
C2G C 0.25497(8) 0.81679(10) 0.25299(16)
C3G C 0.30918(10) 0.89269(10) 0.10779(16)
H3G H 0.3100(13) 0.9900(15) 0.1081(19)
C4G C 0.37044(8) 0.82033(10) -0.05305(16)
C6G C 0.49459(10) 0.81873(14) -0.36678(17)
C5G C 0.43372(10) 0.88602(12) -0.21432(17)
H4G H 0.4344(13) 0.9834(14) -0.2119(22)
H5G H 0.5381(13) 0.8682(15) -0.4756(24)
loop_
_geom_bond_atom_site_label_1
_geom_bond_atom_site_label_2
_geom_bond_distance
_geom_bond_site_symmetry_1
_geom_bond_site_symmetry_2
C1 H1 0.996 1_555 1_555
H2 C1 1.027 1_555 1_555
C2 C1 1.503 1_555 1_555
C3 C2 1.355 1_555 1_555
H3 C3 1.002 1_555 1_555
C4 C3 1.441 1_555 1_555
C5 C4 1.420 1_555 1_555
H4 C5 1.003 1_555 1_555
C6 C5 1.374 1_555 1_555
H5 C6 0.989 1_555 1_555
C2G C1 1.503 1_555 1_555
C3G C2G 1.355 1_555 1_555
H3G C3G 1.002 1_555 1_555
C4G C4 1.448 1_555 1_555
C6G C6 1.415 1_555 1_555
C5G C4G 1.420 1_555 1_555
H4G C5G 1.003 1_555 1_555
H5G C6G 0.989 1_555 1_555
C2 C2G 1.375 1_555 1_555
C3G C4G 1.441 1_555 1_555
C6G C5G 1.374 1_555 1_555
#END
