
#######################################################################
#
#                 Cambridge Crystallographic Data Centre
#                                CCDC
#
#######################################################################
#
# If this CIF has been generated from an entry in the Cambridge
# Structural Database, then it will include bibliographic, chemical,
# crystal, experimental, refinement or atomic coordinate data resulting
# from the CCDC's data processing and validation procedures.
#
#######################################################################

data_CSD_CIF_NAPCPR
_audit_creation_date 1974-05-08
_audit_creation_method CSD-ConQuest-V1
_database_code_CSD NAPCPR
_chemical_formula_sum 'C11 H8'
_chemical_formula_moiety
;
C11 H8
;
_journal_coden_Cambridge 4
_journal_volume 95
_journal_year 1973
_journal_page_first 7878
_journal_name_full 'J.Am.Chem.Soc. '
loop_
_publ_author_name
"W.E.Billups"
"W.Y.Chow"
"K.H.Leavell"
"E.S.Lewis"
"J.L.Margrave"
"R.L.Sass"
"J.J.Shieh"
"P.G.Werness"
"J.L.Wood"
_chemical_name_systematic
;
Naphtho(b)cyclopropene
;
_cell_volume    756.855
_diffrn_ambient_temperature ?
_diffrn_special_details
;
The study was carried out at room temperature,in the range 283-303K

;
#These two values have been output from a single CSD field.
_refine_ls_R_factor_gt 0.058
_refine_ls_wR_factor_gt 0.058
_symmetry_cell_setting orthorhombic
_symmetry_space_group_name_H-M 'P n m a'
_symmetry_Int_Tables_number 62
loop_
_symmetry_equiv_pos_site_id
_symmetry_equiv_pos_as_xyz
1 x,y,z
2 1/2-x,1/2+y,1/2+z
3 x,1/2-y,z
4 1/2-x,-y,1/2+z
5 -x,-y,-z
6 -1/2+x,-1/2-y,-1/2-z
7 -x,-1/2+y,-z
8 -1/2+x,y,-1/2-z
_cell_length_a 11.391
_cell_length_b 10.398
_cell_length_c 6.39
_cell_angle_alpha 90
_cell_angle_beta 90
_cell_angle_gamma 90
_cell_formula_units_Z 4
loop_
_atom_type_symbol
_atom_type_radius_bond
C 0.68
H 0.23
loop_
_atom_site_label
_atom_site_type_symbol
_atom_site_fract_x
_atom_site_fract_y
_atom_site_fract_z
C1 C 0.25430 0.31580 0.74450
C2 C 0.30830 0.38930 0.60240
C3 C 0.43340 0.38340 0.28510
C4 C 0.49360 0.31750 0.13540
C5 C 0.37100 0.31920 0.44410
C6 C 0.18840 0.25000 0.91810
H1 H 0.30100 0.48480 0.60070
H2 H 0.43190 0.47920 0.28910
H3 H 0.54380 0.36860 0.03940
H4 H 0.22500 0.25000 1.06050
H5 H 0.09320 0.25000 0.90370
C1B C 0.25430 0.18420 0.74450
C5B C 0.37100 0.18080 0.44410
C4B C 0.49360 0.18250 0.13540
C2B C 0.30830 0.11070 0.60240
C3B C 0.43340 0.11660 0.28510
H3B H 0.54380 0.13140 0.03940
H1B H 0.30100 0.01520 0.60070
H2B H 0.43190 0.02080 0.28910
loop_
_geom_bond_atom_site_label_1
_geom_bond_atom_site_label_2
_geom_bond_distance
_geom_bond_site_symmetry_1
_geom_bond_site_symmetry_2
C1 C2 1.337 1_555 1_555
C2 C5 1.437 1_555 1_555
C3 C4 1.362 1_555 1_555
C4 H3 0.993 1_555 1_555
C5 C3 1.408 1_555 1_555
C6 C1 1.504 1_555 1_555
H1 C2 0.997 1_555 1_555
H2 C3 0.997 1_555 1_555
H4 C6 1.001 1_555 1_555
H5 C6 1.088 1_555 1_555
C1B C1 1.368 1_555 1_555
C5B C5 1.439 1_555 1_555
C4B C4 1.404 1_555 1_555
C2B C1B 1.337 1_555 1_555
C3B C5B 1.408 1_555 1_555
H3B C4B 0.993 1_555 1_555
H1B C2B 0.997 1_555 1_555
H2B C3B 0.997 1_555 1_555
C6 C1B 1.504 1_555 1_555
C5B C2B 1.437 1_555 1_555
C4B C3B 1.362 1_555 1_555
#END
