
#######################################################################
#
#                 Cambridge Crystallographic Data Centre
#                                CCDC
#
#######################################################################
#
# If this CIF has been generated from an entry in the Cambridge
# Structural Database, then it will include bibliographic, chemical,
# crystal, experimental, refinement or atomic coordinate data resulting
# from the CCDC's data processing and validation procedures.
#
#######################################################################

data_CSD_CIF_NAPHTA25
_audit_creation_date 2007-04-17
_audit_creation_method CSD-ConQuest-V1
_database_code_CSD NAPHTA25
_database_code_depnum_ccdc_archive 'CCDC 600176'
_chemical_formula_sum 'C10 H8'
_chemical_formula_moiety
;
C10 H8
;
_journal_coden_Cambridge 1277
_journal_volume 110
_journal_year 2006
_journal_page_first 11695
_journal_name_full 'J.Phys.Chem.A '
loop_
_publ_author_name
"S.C.Capelli"
"A.Albinati"
"S.A.Mason"
"B.T.M.Willis"
_chemical_name_systematic
;
Naphthalene
;
_chemical_melting_point 353.5
_cell_volume    342.031
_exptl_crystal_colour 'colorless'
_exptl_crystal_density_diffrn 1.244
_exptl_crystal_description 'prismatic'
_exptl_crystal_preparation 'ethanol'
_diffrn_ambient_temperature 60
_diffrn_radiation_probe x-ray
_diffrn_source synchrotron
#These two values have been output from a single CSD field.
_refine_ls_R_factor_gt 0.0373
_refine_ls_wR_factor_gt 0.0373
_symmetry_cell_setting monoclinic
_symmetry_space_group_name_H-M 'P 21/a'
_symmetry_Int_Tables_number 14
loop_
_symmetry_equiv_pos_site_id
_symmetry_equiv_pos_as_xyz
1 x,y,z
2 1/2-x,1/2+y,-z
3 -x,-y,-z
4 -1/2+x,-1/2-y,z
_cell_length_a 8.0926(4)
_cell_length_b 5.9404(3)
_cell_length_c 8.6353(4)
_cell_angle_alpha 90
_cell_angle_beta 124.521(1)
_cell_angle_gamma 90
_cell_formula_units_Z 2
loop_
_atom_type_symbol
_atom_type_radius_bond
C 0.68
H 0.23
loop_
_atom_site_label
_atom_site_type_symbol
_atom_site_fract_x
_atom_site_fract_y
_atom_site_fract_z
C1 C 0.08228(6) 0.01955(8) 0.32914(6)
C2 C 0.11281(6) 0.16397(7) 0.22313(6)
C3 C 0.04812(5) 0.10567(6) 0.03742(5)
C4 C 0.07679(6) 0.25221(7) -0.07543(6)
C5 C -0.01370(6) -0.19092(7) 0.25454(6)
H1 H 0.1264(16) 0.0599(18) 0.4610(15)
H2 H 0.1791(17) 0.3079(19) 0.2710(17)
H3 H 0.1406(17) 0.3935(18) -0.0270(15)
H4 H -0.0375(18) -0.293(2) 0.3315(16)
C1B C -0.08228(6) -0.01955(8) -0.32914(6)
C2B C -0.11281(6) -0.16397(7) -0.22313(6)
C3B C -0.04812(5) -0.10567(6) -0.03742(5)
C4B C -0.07679(6) -0.25221(7) 0.07543(6)
C5B C 0.01370(6) 0.19092(7) -0.25454(6)
H1B H -0.1264(16) -0.0599(18) -0.4610(15)
H2B H -0.1791(17) -0.3079(19) -0.2710(17)
H3B H -0.1406(17) -0.3935(18) 0.0270(15)
H4B H 0.0375(18) 0.293(2) -0.3315(16)
loop_
_geom_bond_atom_site_label_1
_geom_bond_atom_site_label_2
_geom_bond_distance
_geom_bond_site_symmetry_1
_geom_bond_site_symmetry_2
C1 C2 1.375 1_555 1_555
C2 C3 1.419 1_555 1_555
C3 C4 1.420 1_555 1_555
C4 H3 0.949 1_555 1_555
C5 C1 1.419 1_555 1_555
H1 C1 1.010 1_555 1_555
H2 C2 0.969 1_555 1_555
H4 C5 0.996 1_555 1_555
C1B C2B 1.375 1_555 1_555
C2B C3B 1.419 1_555 1_555
C3B C3 1.425 1_555 1_555
C4B C5 1.375 1_555 1_555
C5B C4 1.375 1_555 1_555
H1B C1B 1.010 1_555 1_555
H2B C2B 0.969 1_555 1_555
H3B C4B 0.949 1_555 1_555
H4B C5B 0.996 1_555 1_555
C1B C5B 1.419 1_555 1_555
C3B C4B 1.420 1_555 1_555
#END
