
#######################################################################
#
#                 Cambridge Crystallographic Data Centre
#                                CCDC
#
#######################################################################
#
# If this CIF has been generated from an entry in the Cambridge
# Structural Database, then it will include bibliographic, chemical,
# crystal, experimental, refinement or atomic coordinate data resulting
# from the CCDC's data processing and validation procedures.
#
#######################################################################

data_CSD_CIF_NAPHTA54
_audit_creation_date 1983-03-10
_audit_creation_method CSD-ConQuest-V1
_database_code_CSD NAPHTA54
_database_code_depnum_ccdc_archive 'CCDC 1216813'
_chemical_formula_sum 'C10 H8'
_chemical_formula_moiety
;
C10 H8
;
_journal_coeditor_code "IUCr A21415"
_journal_coden_Cambridge 107
_journal_volume 38
_journal_year 1982
_journal_page_first 2218
_journal_name_full 'Acta Crystallogr.,Sect.B:Struct.Crystallogr.Cryst.Chem. '
loop_
_publ_author_name
"C.P.Brock"
"J.D.Dunitz"
_chemical_name_systematic
;
naphthalene
;
_cell_volume    344.945
_exptl_crystal_density_diffrn 1.234
_diffrn_ambient_temperature 109
#These two values have been output from a single CSD field.
_refine_ls_R_factor_gt 0.04
_refine_ls_wR_factor_gt 0.04
_symmetry_cell_setting monoclinic
_symmetry_space_group_name_H-M 'P 21/a'
_symmetry_Int_Tables_number 14
loop_
_symmetry_equiv_pos_site_id
_symmetry_equiv_pos_as_xyz
1 x,y,z
2 1/2-x,1/2+y,-z
3 -x,-y,-z
4 -1/2+x,-1/2-y,z
_cell_length_a 8.1224(51)
_cell_length_b 5.9430(19)
_cell_length_c 8.6525(43)
_cell_angle_alpha 90
_cell_angle_beta 124.322(41)
_cell_angle_gamma 90
_cell_formula_units_Z 2
loop_
_atom_type_symbol
_atom_type_radius_bond
C 0.68
H 0.23
loop_
_atom_site_label
_atom_site_type_symbol
_atom_site_fract_x
_atom_site_fract_y
_atom_site_fract_z
C1 C 0.08260 0.01890 0.32860
C2 C 0.11340 0.16350 0.22300
C3 C 0.04790 0.10540 0.03700
C4 C 0.07690 0.25180 -0.07580
C5 C -0.01310 -0.19030 0.25470
H1 H 0.12100 0.05450 0.44580
H2 H 0.17950 0.30540 0.27080
H3 H 0.14110 0.38840 -0.02430
H4 H -0.03090 -0.29120 0.32880
C1B C -0.08260 -0.01890 -0.32860
C2B C -0.11340 -0.16350 -0.22300
C3B C -0.04790 -0.10540 -0.03700
C4B C -0.07690 -0.25180 0.07580
C5B C 0.01310 0.19030 -0.25470
H1B H -0.12100 -0.05450 -0.44580
H2B H -0.17950 -0.30540 -0.27080
H3B H -0.14110 -0.38840 0.02430
H4B H 0.03090 0.29120 -0.32880
loop_
_geom_bond_atom_site_label_1
_geom_bond_atom_site_label_2
_geom_bond_distance
_geom_bond_site_symmetry_1
_geom_bond_site_symmetry_2
C1 C2 1.376 1_555 1_555
C2 C3 1.424 1_555 1_555
C3 C4 1.423 1_555 1_555
C4 H3 0.931 1_555 1_555
C5 C1 1.414 1_555 1_555
H1 C1 0.902 1_555 1_555
H2 C2 0.959 1_555 1_555
H4 C5 0.947 1_555 1_555
C1B C2B 1.376 1_555 1_555
C2B C3B 1.424 1_555 1_555
C3B C3 1.422 1_555 1_555
C4B C5 1.376 1_555 1_555
C5B C4 1.376 1_555 1_555
H1B C1B 0.902 1_555 1_555
H2B C2B 0.959 1_555 1_555
H3B C4B 0.931 1_555 1_555
H4B C5B 0.947 1_555 1_555
C1B C5B 1.414 1_555 1_555
C3B C4B 1.423 1_555 1_555
#END
