
#######################################################################
#
#                 Cambridge Crystallographic Data Centre
#                                CCDC
#
#######################################################################
#
# If this CIF has been generated from an entry in the Cambridge
# Structural Database, then it will include bibliographic, chemical,
# crystal, experimental, refinement or atomic coordinate data resulting
# from the CCDC's data processing and validation procedures.
#
#######################################################################

data_CSD_CIF_NAYGEC
_audit_creation_date 2017-08-07
_audit_creation_method CSD-ConQuest-V1
_database_code_CSD NAYGEC
_database_code_depnum_ccdc_archive 'CCDC 1530358'
_chemical_formula_sum 'C24 H18'
_chemical_formula_moiety
;
C24 H18
;
_journal_coden_Cambridge 4
_journal_volume 139
_journal_year 2017
_journal_page_first 2960
_journal_name_full 'J.Am.Chem.Soc. '
loop_
_publ_author_name
"C.C.McAtee"
"P.S.Riehl"
"C.S.Schindler"
_chemical_name_systematic
;
5,12-dimethylbenzo[k]tetraphene
;
_cell_volume   1559.698
_exptl_crystal_colour 'pale yellow'
_exptl_crystal_density_diffrn 1.305
_exptl_crystal_description 'plate'
_diffrn_ambient_temperature 85
#These two values have been output from a single CSD field.
_refine_ls_R_factor_gt 0.0399
_refine_ls_wR_factor_gt 0.0399
_symmetry_cell_setting orthorhombic
_symmetry_space_group_name_H-M 'P b c a'
_symmetry_Int_Tables_number 61
loop_
_symmetry_equiv_pos_site_id
_symmetry_equiv_pos_as_xyz
1 x,y,z
2 1/2-x,-y,1/2+z
3 -x,1/2+y,1/2-z
4 1/2+x,1/2-y,-z
5 -x,-y,-z
6 -1/2+x,y,-1/2-z
7 x,-1/2-y,-1/2+z
8 -1/2-x,-1/2+y,z
_cell_length_a 13.92565(12)
_cell_length_b 6.76441(5)
_cell_length_c 16.55751(12)
_cell_angle_alpha 90
_cell_angle_beta 90
_cell_angle_gamma 90
_cell_formula_units_Z 4
loop_
_atom_type_symbol
_atom_type_radius_bond
C 0.68
H 0.23
loop_
_atom_site_label
_atom_site_type_symbol
_atom_site_fract_x
_atom_site_fract_y
_atom_site_fract_z
C1 C 0.34271(8) 0.64491(17) 0.60590(7)
H1 H 0.28730 0.63910 0.56950
H2 H 0.37710 0.76970 0.59760
H3 H 0.32060 0.63700 0.66200
C2 C 0.40886(8) 0.47464(15) 0.58844(6)
C3 C 0.49833(7) 0.45362(15) 0.63292(6)
C4 C 0.52539(8) 0.59227(16) 0.69209(6)
H4 H 0.48320 0.69840 0.70460
C5 C 0.61170(8) 0.57746(17) 0.73233(6)
H5 H 0.62800 0.67040 0.77310
C6 C 0.67517(8) 0.42421(17) 0.71263(6)
H6 H 0.73580 0.41620 0.73870
C7 C 0.65011(8) 0.28509(16) 0.65573(6)
H7 H 0.69390 0.18200 0.64300
C8 C 0.56067(8) 0.29267(15) 0.61597(6)
C9 C 0.53157(7) 0.14169(15) 0.55802(6)
C10 C 0.44425(7) 0.16920(15) 0.51443(6)
C11 C 0.38644(8) 0.34030(15) 0.53083(6)
H8 H 0.32990 0.36020 0.49980
C12 C 0.41545(7) 0.02924(15) 0.45751(6)
H9 H 0.35770 0.05100 0.42830
C1D C 0.65729(8) -0.64491(17) 0.39410(7)
H1D H 0.71270 -0.63910 0.43050
H2D H 0.62290 -0.76970 0.40240
H3D H 0.67940 -0.63700 0.33800
C2D C 0.59114(8) -0.47464(15) 0.41156(6)
C3D C 0.50167(7) -0.45362(15) 0.36708(6)
C4D C 0.47461(8) -0.59227(16) 0.30791(6)
H4D H 0.51680 -0.69840 0.29540
C5D C 0.38830(8) -0.57746(17) 0.26767(6)
H5D H 0.37200 -0.67040 0.22690
C6D C 0.32483(8) -0.42421(17) 0.28737(6)
H6D H 0.26420 -0.41620 0.26130
C7D C 0.34989(8) -0.28509(16) 0.34427(6)
H7D H 0.30610 -0.18200 0.35700
C8D C 0.43933(8) -0.29267(15) 0.38403(6)
C9D C 0.46843(7) -0.14169(15) 0.44198(6)
C10D C 0.55575(7) -0.16920(15) 0.48557(6)
C11D C 0.61356(8) -0.34030(15) 0.46917(6)
H8D H 0.67010 -0.36020 0.50020
C12D C 0.58455(7) -0.02924(15) 0.54249(6)
H9D H 0.64230 -0.05100 0.57170
loop_
_geom_bond_atom_site_label_1
_geom_bond_atom_site_label_2
_geom_bond_distance
_geom_bond_site_symmetry_1
_geom_bond_site_symmetry_2
C1 H1 0.980 1_555 1_555
H2 C1 0.980 1_555 1_555
H3 C1 0.980 1_555 1_555
C2 C1 1.503 1_555 1_555
C3 C2 1.454 1_555 1_555
C4 C3 1.408 1_555 1_555
H4 C4 0.951 1_555 1_555
C5 C4 1.378 1_555 1_555
H5 C5 0.950 1_555 1_555
C6 C5 1.401 1_555 1_555
H6 C6 0.950 1_555 1_555
C7 C6 1.377 1_555 1_555
H7 C7 0.950 1_555 1_555
C8 C3 1.420 1_555 1_555
C9 C8 1.459 1_555 1_555
C10 C9 1.426 1_555 1_555
C11 C2 1.354 1_555 1_555
H8 C11 0.950 1_555 1_555
C12 C10 1.395 1_555 1_555
H9 C12 0.950 1_555 1_555
C1D H1D 0.980 1_555 1_555
H2D C1D 0.980 1_555 1_555
H3D C1D 0.980 1_555 1_555
C2D C1D 1.503 1_555 1_555
C3D C2D 1.454 1_555 1_555
C4D C3D 1.408 1_555 1_555
H4D C4D 0.951 1_555 1_555
C5D C4D 1.378 1_555 1_555
H5D C5D 0.950 1_555 1_555
C6D C5D 1.401 1_555 1_555
H6D C6D 0.950 1_555 1_555
C7D C6D 1.377 1_555 1_555
H7D C7D 0.950 1_555 1_555
C8D C3D 1.420 1_555 1_555
C9D C12 1.395 1_555 1_555
C10D C9D 1.426 1_555 1_555
C11D C2D 1.354 1_555 1_555
H8D C11D 0.950 1_555 1_555
C12D C9 1.395 1_555 1_555
H9D C12D 0.950 1_555 1_555
C7 C8 1.410 1_555 1_555
C10 C11 1.436 1_555 1_555
C7D C8D 1.410 1_555 1_555
C8D C9D 1.459 1_555 1_555
C10D C11D 1.436 1_555 1_555
C10D C12D 1.395 1_555 1_555
#END
