
#######################################################################
#
#                 Cambridge Crystallographic Data Centre
#                                CCDC
#
#######################################################################
#
# If this CIF has been generated from an entry in the Cambridge
# Structural Database, then it will include bibliographic, chemical,
# crystal, experimental, refinement or atomic coordinate data resulting
# from the CCDC's data processing and validation procedures.
#
#######################################################################

data_CSD_CIF_NEJCIQ
_audit_creation_date 2012-10-03
_audit_creation_method CSD-ConQuest-V1
_database_code_CSD NEJCIQ
_database_code_depnum_ccdc_archive 'CCDC 828345'
_chemical_formula_sum 'C27 H36'
_chemical_formula_moiety
;
C27 H36
;
_journal_coden_Cambridge 16
_journal_volume 68
_journal_year 2012
_journal_page_first 6485
_journal_name_full 'Tetrahedron '
loop_
_publ_author_name
"P.Ghosh"
"J.Das"
"A.Sarkar"
"S.W.Ng"
"E.R.T.Tiekink"
_chemical_name_systematic
;
1-Methyl-17-(6-methylheptan-2-yl)estra-1,3,5(10),6,8,14-hexaene
;
_chemical_name_common
;
1-Methyl-19-norcholestra-1,3,5(10),6,8(9),14(15)-hexaene
;
_cell_volume   2158.890
_exptl_crystal_colour 'colorless'
_exptl_crystal_density_diffrn 1.109
_exptl_crystal_description 'prism'
_diffrn_ambient_temperature 100
#These two values have been output from a single CSD field.
_refine_ls_R_factor_gt 0.0473
_refine_ls_wR_factor_gt 0.0473
_symmetry_cell_setting orthorhombic
_symmetry_space_group_name_H-M 'P 21 21 21'
_symmetry_Int_Tables_number 19
loop_
_symmetry_equiv_pos_site_id
_symmetry_equiv_pos_as_xyz
1 x,y,z
2 1/2-x,-y,1/2+z
3 -x,1/2+y,1/2-z
4 1/2+x,1/2-y,-z
_cell_length_a 5.9494(7)
_cell_length_b 11.5746(12)
_cell_length_c 31.351(3)
_cell_angle_alpha 90
_cell_angle_beta 90
_cell_angle_gamma 90
_cell_formula_units_Z 4
loop_
_atom_type_symbol
_atom_type_radius_bond
C 0.68
H 0.23
loop_
_atom_site_label
_atom_site_type_symbol
_atom_site_fract_x
_atom_site_fract_y
_atom_site_fract_z
C1 C 1.1700(5) 0.5301(2) -0.11877(8)
H1 H 1.24800 0.54700 -0.14560
H2 H 1.27970 0.50670 -0.09710
H3 H 1.09040 0.59940 -0.10900
C2 C 1.0037(5) 0.4338(2) -0.12576(8)
C3 C 1.0172(5) 0.3801(2) -0.16479(8)
H4 H 1.13710 0.40050 -0.18330
C4 C 0.8632(6) 0.2967(2) -0.17852(8)
H5 H 0.88050 0.26110 -0.20560
C5 C 0.6892(5) 0.2673(2) -0.15290(8)
H6 H 0.57980 0.21360 -0.16260
C6 C 0.6697(4) 0.3161(2) -0.11168(8)
C7 C 0.8289(4) 0.3990(2) -0.09620(8)
C8 C 0.8045(4) 0.43894(19) -0.05271(7)
C9 C 0.6247(4) 0.39862(19) -0.02797(7)
C10 C 0.4668(4) 0.32007(19) -0.04504(8)
H7 H 0.34430 0.29480 -0.02800
C11 C 0.4885(4) 0.2804(2) -0.08549(8)
H8 H 0.38040 0.22780 -0.09650
C12 C 0.9718(4) 0.52157(19) -0.03246(7)
H9 H 0.94570 0.59970 -0.04440
H10 H 1.12510 0.49760 -0.04090
C13 C 0.9631(4) 0.5296(2) 0.01610(7)
H11 H 1.05110 0.59750 0.02550
H12 H 1.03410 0.45980 0.02850
C14 C 0.7222(4) 0.54015(19) 0.03320(7)
C15 C 0.6077(4) 0.65090(19) 0.01698(8)
H13 H 0.59850 0.64870 -0.01420
H14 H 0.69580 0.71830 0.02580
H15 H 0.45600 0.65630 0.02900
C16 C 0.5969(4) 0.43580(18) 0.01656(7)
C17 C 0.4702(4) 0.38738(19) 0.04672(8)
H16 H 0.37980 0.32070 0.04240
C18 C 0.4877(4) 0.4509(2) 0.08813(8)
H17 H 0.50270 0.39670 0.11240
H18 H 0.35470 0.50070 0.09290
C19 C 0.7027(4) 0.5240(2) 0.08248(7)
H19 H 0.83130 0.47360 0.09120
C20 C 0.7134(4) 0.6324(2) 0.11099(8)
H20 H 0.59850 0.68800 0.10000
C21 C 0.9413(4) 0.6927(2) 0.10850(8)
H21 H 0.96560 0.72130 0.07940
H22 H 1.06040 0.63770 0.11590
H23 H 0.94420 0.75760 0.12850
C22 C 0.6510(4) 0.6046(2) 0.15749(8)
H24 H 0.65700 0.67720 0.17420
H25 H 0.49360 0.57690 0.15810
C23 C 0.7988(4) 0.5147(2) 0.17985(8)
H26 H 0.80540 0.44420 0.16210
H27 H 0.95350 0.54560 0.18240
C24 C 0.7138(5) 0.4828(3) 0.22392(8)
H28 H 0.71840 0.55280 0.24210
H29 H 0.55450 0.45900 0.22140
C25 C 0.8417(5) 0.3876(3) 0.24635(9)
H30 H 0.85150 0.32090 0.22620
C26 C 0.7218(6) 0.3453(4) 0.28612(11)
H31 H 0.56630 0.32520 0.27900
H32 H 0.72250 0.40650 0.30770
H33 H 0.79920 0.27700 0.29730
C27 C 1.0764(6) 0.4217(4) 0.25755(12)
H34 H 1.16260 0.43480 0.23140
H35 H 1.14710 0.35990 0.27420
H36 H 1.07360 0.49280 0.27450
loop_
_geom_bond_atom_site_label_1
_geom_bond_atom_site_label_2
_geom_bond_distance
_geom_bond_site_symmetry_1
_geom_bond_site_symmetry_2
C1 H1 0.980 1_555 1_555
H2 C1 0.980 1_555 1_555
H3 C1 0.981 1_555 1_555
C2 C1 1.506 1_555 1_555
C3 C2 1.375 1_555 1_555
H4 C3 0.949 1_555 1_555
C4 C3 1.399 1_555 1_555
H5 C4 0.949 1_555 1_555
C5 C4 1.354 1_555 1_555
H6 C5 0.950 1_555 1_555
C6 C5 1.415 1_555 1_555
C7 C2 1.450 1_555 1_555
C8 C7 1.447 1_555 1_555
C9 C8 1.401 1_555 1_555
C10 C9 1.413 1_555 1_555
H7 C10 0.950 1_555 1_555
C11 C6 1.417 1_555 1_555
H8 C11 0.950 1_555 1_555
C12 C8 1.519 1_555 1_555
H9 C12 0.991 1_555 1_555
H10 C12 0.989 1_555 1_555
C13 C12 1.526 1_555 1_555
H11 C13 0.989 1_555 1_555
H12 C13 0.991 1_555 1_555
C14 C13 1.535 1_555 1_555
C15 C14 1.538 1_555 1_555
H13 C15 0.979 1_555 1_555
H14 C15 0.980 1_555 1_555
H15 C15 0.980 1_555 1_555
C16 C9 1.470 1_555 1_555
C17 C16 1.333 1_555 1_555
H16 C17 0.950 1_555 1_555
C18 C17 1.496 1_555 1_555
H17 C18 0.990 1_555 1_555
H18 C18 0.990 1_555 1_555
C19 C14 1.561 1_555 1_555
H19 C19 1.000 1_555 1_555
C20 C19 1.542 1_555 1_555
H20 C20 1.000 1_555 1_555
C21 C20 1.527 1_555 1_555
H21 C21 0.981 1_555 1_555
H22 C21 0.980 1_555 1_555
H23 C21 0.979 1_555 1_555
C22 C20 1.538 1_555 1_555
H24 C22 0.991 1_555 1_555
H25 C22 0.990 1_555 1_555
C23 C22 1.532 1_555 1_555
H26 C23 0.988 1_555 1_555
H27 C23 0.991 1_555 1_555
C24 C23 1.517 1_555 1_555
H28 C24 0.991 1_555 1_555
H29 C24 0.990 1_555 1_555
C25 C24 1.513 1_555 1_555
H30 C25 0.999 1_555 1_555
C26 C25 1.518 1_555 1_555
H31 C26 0.980 1_555 1_555
H32 C26 0.980 1_555 1_555
H33 C26 0.980 1_555 1_555
C27 C25 1.493 1_555 1_555
H34 C27 0.979 1_555 1_555
H35 C27 0.980 1_555 1_555
H36 C27 0.980 1_555 1_555
C6 C7 1.433 1_555 1_555
C10 C11 1.355 1_555 1_555
C14 C16 1.512 1_555 1_555
C18 C19 1.544 1_555 1_555
#END
