
#######################################################################
#
#                 Cambridge Crystallographic Data Centre
#                                CCDC
#
#######################################################################
#
# If this CIF has been generated from an entry in the Cambridge
# Structural Database, then it will include bibliographic, chemical,
# crystal, experimental, refinement or atomic coordinate data resulting
# from the CCDC's data processing and validation procedures.
#
#######################################################################

data_CSD_CIF_NEJGUE
_audit_creation_date 1998-04-22
_audit_creation_method CSD-ConQuest-V1
_database_code_CSD NEJGUE
_chemical_formula_sum 'C38 H42'
_chemical_formula_moiety
;
C38 H42
;
_journal_coden_Cambridge 24
_journal_volume 38
_journal_year 1997
_journal_page_first 3427
_journal_name_full 'Tetrahedron Lett. '
loop_
_publ_author_name
"A.Matsuura"
"T.Nishinaga"
"K.Komatsu"
_chemical_name_systematic
;
1,2:3,4:5,6:7,8-tetrakis(Bicyclo(2.2.2)octeno)anthracene
;
_chemical_melting_point 673.15
_cell_volume    682.567
_exptl_crystal_colour 'yellow'
_exptl_crystal_density_diffrn 1.213
_exptl_special_details
;
Melts above 673.15K

;
_exptl_crystal_description 'prisms'
_exptl_crystal_preparation 'carbon disulfide/hexane'
_diffrn_ambient_temperature ?
_diffrn_special_details
;
The study was carried out at room temperature,in the range 283-303K

;
#These two values have been output from a single CSD field.
_refine_ls_R_factor_gt 0.051
_refine_ls_wR_factor_gt 0.051
_symmetry_cell_setting triclinic
_symmetry_space_group_name_H-M 'P -1'
_symmetry_Int_Tables_number 2
loop_
_symmetry_equiv_pos_site_id
_symmetry_equiv_pos_as_xyz
1 x,y,z
2 -x,-y,-z
_cell_length_a 9.612(2)
_cell_length_b 11.331(2)
_cell_length_c 6.646(1)
_cell_angle_alpha 95.14(2)
_cell_angle_beta 106.94(1)
_cell_angle_gamma 96.32(2)
_cell_formula_units_Z 1
loop_
_atom_type_symbol
_atom_type_radius_bond
C 0.68
H 0.23
loop_
_atom_site_label
_atom_site_type_symbol
_atom_site_fract_x
_atom_site_fract_y
_atom_site_fract_z
C1 C 0.6393(3) 0.5492(2) 0.6298(4)
C2 C 0.5706(2) 0.6091(2) 0.4617(4)
C3 C 0.6379(2) 0.7175(2) 0.4141(4)
C4 C 0.5666(3) 0.7730(2) 0.2462(4)
C5 C 0.4223(2) 0.7248(2) 0.1192(4)
C6 C 0.3536(2) 0.6209(2) 0.1590(4)
C7 C 0.5747(2) 0.4417(2) 0.6728(4)
C8 C 0.7888(3) 0.7834(2) 0.5352(4)
C9 C 0.8821(3) 0.7901(3) 0.3830(5)
C10 C 0.7708(3) 0.9109(3) 0.6110(5)
C11 C 0.6584(3) 0.8834(2) 0.2166(4)
C12 C 0.8004(3) 0.8450(3) 0.1859(5)
C13 C 0.6996(3) 0.9732(3) 0.4183(5)
C14 C 0.3278(3) 0.7791(2) -0.0629(4)
C15 C 0.2832(3) 0.6867(3) -0.2614(4)
C16 C 0.1888(3) 0.8038(3) -0.0080(5)
C17 C 0.1993(3) 0.5850(2) 0.0106(4)
C18 C 0.2038(4) 0.5714(3) -0.2174(5)
C19 C 0.1125(3) 0.6884(3) 0.0392(5)
H1 H 0.728(2) 0.582(2) 0.718(3)
H2 H 0.833(3) 0.748(2) 0.652(4)
H3 H 0.905(3) 0.710(2) 0.341(4)
H4 H 0.977(3) 0.842(2) 0.455(4)
H5 H 0.707(3) 0.908(2) 0.711(4)
H6 H 0.868(3) 0.953(3) 0.690(4)
H7 H 0.608(2) 0.919(2) 0.087(4)
H8 H 0.776(3) 0.782(3) 0.062(4)
H9 H 0.864(3) 0.913(3) 0.157(4)
H10 H 0.619(3) 1.006(3) 0.441(4)
H11 H 0.772(3) 1.039(3) 0.397(5)
H12 H 0.380(3) 0.849(2) -0.083(4)
H13 H 0.368(4) 0.673(3) -0.308(5)
H14 H 0.220(3) 0.720(3) -0.383(5)
H15 H 0.216(3) 0.865(3) 0.112(4)
H16 H 0.122(3) 0.836(2) -0.121(4)
H17 H 0.153(3) 0.510(2) 0.039(4)
H18 H 0.253(3) 0.506(3) -0.250(5)
H19 H 0.099(3) 0.554(3) -0.312(5)
H20 H 0.105(3) 0.697(3) 0.182(5)
H21 H 0.010(3) 0.665(3) -0.061(4)
C7A C 0.4253(2) 0.5583(2) 0.3272(4)
C1A C 0.3607(3) 0.4508(2) 0.3702(4)
C2A C 0.4294(2) 0.3909(2) 0.5383(4)
C3A C 0.3621(2) 0.2825(2) 0.5859(4)
C4A C 0.4334(3) 0.2270(2) 0.7538(4)
C5A C 0.5777(2) 0.2752(2) 0.8808(4)
C6A C 0.6464(2) 0.3791(2) 0.8410(4)
C17A C 0.8007(3) 0.4150(2) 0.9894(4)
C18A C 0.7962(4) 0.4286(3) 1.2174(5)
C15A C 0.7168(3) 0.3133(3) 1.2614(4)
C14A C 0.6722(3) 0.2209(2) 1.0629(4)
C16A C 0.8112(3) 0.1962(3) 1.0080(5)
C19A C 0.8875(3) 0.3116(3) 0.9608(5)
H17A H 0.847(3) 0.490(2) 0.961(4)
H20A H 0.895(3) 0.303(3) 0.818(5)
H21A H 0.990(3) 0.335(3) 1.061(4)
H15A H 0.784(3) 0.135(3) 0.888(4)
H16A H 0.878(3) 0.164(2) 1.121(4)
H12A H 0.620(3) 0.151(2) 1.083(4)
H13A H 0.632(4) 0.327(3) 1.308(5)
H14A H 0.780(3) 0.280(3) 1.383(5)
H18A H 0.747(3) 0.494(3) 1.250(5)
H19A H 0.901(3) 0.446(3) 1.312(5)
C11A C 0.3416(3) 0.1166(2) 0.7834(4)
C12A C 0.1996(3) 0.1550(3) 0.8141(5)
C9A C 0.1179(3) 0.2099(3) 0.6170(5)
C8A C 0.2112(3) 0.2166(2) 0.4648(4)
C10A C 0.2292(3) 0.0891(3) 0.3890(5)
C13A C 0.3004(3) 0.0268(3) 0.5817(5)
H7A H 0.392(2) 0.081(2) 0.913(4)
H10A H 0.381(3) -0.006(3) 0.559(4)
H11A H 0.228(3) -0.039(3) 0.603(5)
H5A H 0.293(3) 0.092(2) 0.289(4)
H6A H 0.132(3) 0.047(3) 0.310(4)
H2A H 0.167(3) 0.252(2) 0.348(4)
H3A H 0.095(3) 0.290(2) 0.659(4)
H4A H 0.023(3) 0.158(2) 0.545(4)
H8A H 0.224(3) 0.218(3) 0.938(4)
H9A H 0.136(3) 0.087(3) 0.843(4)
H1A H 0.272(2) 0.418(2) 0.282(3)
loop_
_geom_bond_atom_site_label_1
_geom_bond_atom_site_label_2
_geom_bond_distance
_geom_bond_site_symmetry_1
_geom_bond_site_symmetry_2
C1 C2 1.396 1_555 1_555
C2 C3 1.429 1_555 1_555
C3 C4 1.373 1_555 1_555
C4 C5 1.415 1_555 1_555
C5 C6 1.371 1_555 1_555
C6 C17 1.510 1_555 1_555
C7 C1 1.397 1_555 1_555
C8 C3 1.511 1_555 1_555
C9 C8 1.536 1_555 1_555
C10 C8 1.532 1_555 1_555
C11 C4 1.511 1_555 1_555
C12 C9 1.541 1_555 1_555
C13 C10 1.538 1_555 1_555
C14 C5 1.511 1_555 1_555
C15 C14 1.531 1_555 1_555
C16 C14 1.531 1_555 1_555
C17 C18 1.523 1_555 1_555
C18 C15 1.534 1_555 1_555
C19 C16 1.531 1_555 1_555
H1 C1 0.899 1_555 1_555
H2 C8 0.919 1_555 1_555
H3 C9 0.992 1_555 1_555
H4 C9 0.992 1_555 1_555
H5 C10 1.028 1_555 1_555
H6 C10 0.973 1_555 1_555
H7 C11 1.001 1_555 1_555
H8 C12 0.994 1_555 1_555
H9 C12 0.998 1_555 1_555
H10 C13 0.939 1_555 1_555
H11 C13 1.011 1_555 1_555
H12 C14 0.931 1_555 1_555
H13 C15 0.975 1_555 1_555
H14 C15 0.992 1_555 1_555
H15 C16 0.962 1_555 1_555
H16 C16 0.964 1_555 1_555
H17 C17 0.975 1_555 1_555
H18 C18 0.963 1_555 1_555
H19 C18 1.007 1_555 1_555
H20 C19 0.970 1_555 1_555
H21 C19 1.006 1_555 1_555
C7A C2 1.444 1_555 1_555
C1A C7A 1.397 1_555 1_555
C2A C7 1.444 1_555 1_555
C3A C2A 1.429 1_555 1_555
C4A C3A 1.373 1_555 1_555
C5A C4A 1.415 1_555 1_555
C6A C7 1.424 1_555 1_555
C17A C6A 1.510 1_555 1_555
C18A C17A 1.523 1_555 1_555
C15A C18A 1.534 1_555 1_555
C14A C5A 1.511 1_555 1_555
C16A C14A 1.531 1_555 1_555
C19A C17A 1.540 1_555 1_555
H17A C17A 0.975 1_555 1_555
H20A C19A 0.970 1_555 1_555
H21A C19A 1.006 1_555 1_555
H15A C16A 0.962 1_555 1_555
H16A C16A 0.964 1_555 1_555
H12A C14A 0.931 1_555 1_555
H13A C15A 0.975 1_555 1_555
H14A C15A 0.992 1_555 1_555
H18A C18A 0.963 1_555 1_555
H19A C18A 1.007 1_555 1_555
C11A C4A 1.511 1_555 1_555
C12A C11A 1.540 1_555 1_555
C9A C12A 1.541 1_555 1_555
C8A C3A 1.511 1_555 1_555
C10A C8A 1.532 1_555 1_555
C13A C11A 1.532 1_555 1_555
H7A C11A 1.001 1_555 1_555
H10A C13A 0.939 1_555 1_555
H11A C13A 1.011 1_555 1_555
H5A C10A 1.028 1_555 1_555
H6A C10A 0.973 1_555 1_555
H2A C8A 0.919 1_555 1_555
H3A C9A 0.992 1_555 1_555
H4A C9A 0.992 1_555 1_555
H8A C12A 0.994 1_555 1_555
H9A C12A 0.998 1_555 1_555
H1A C1A 0.899 1_555 1_555
C6 C7A 1.424 1_555 1_555
C11 C12 1.540 1_555 1_555
C11 C13 1.532 1_555 1_555
C17 C19 1.540 1_555 1_555
C1A C2A 1.396 1_555 1_555
C5A C6A 1.371 1_555 1_555
C15A C14A 1.531 1_555 1_555
C16A C19A 1.531 1_555 1_555
C9A C8A 1.536 1_555 1_555
C10A C13A 1.538 1_555 1_555
#END
