
#######################################################################
#
#                 Cambridge Crystallographic Data Centre
#                                CCDC
#
#######################################################################
#
# If this CIF has been generated from an entry in the Cambridge
# Structural Database, then it will include bibliographic, chemical,
# crystal, experimental, refinement or atomic coordinate data resulting
# from the CCDC's data processing and validation procedures.
#
#######################################################################

data_CSD_CIF_NEKFAL
_audit_creation_date 2006-08-31
_audit_creation_method CSD-ConQuest-V1
_database_code_CSD NEKFAL
_database_code_depnum_ccdc_archive 'CCDC 288445'
_chemical_formula_sum 'C38 H38'
_chemical_formula_moiety
;
C38 H38
;
_journal_coden_Cambridge 440
_journal_volume 30
_journal_year 2006
_journal_page_first 751
_journal_name_full 'New J.Chem. '
loop_
_publ_author_name
"T.Muller"
"W.Seichter"
"E.Weber"
_chemical_name_systematic
;
9,10-bis(2-(1-Adamantyl)ethynyl)anthracene
;
_chemical_melting_point 594.15
_cell_volume    663.474
_exptl_crystal_density_diffrn 1.238
_exptl_special_details
;
Melting point range 594.15-597.15K

;
_exptl_crystal_preparation '2-butanone'
_diffrn_ambient_temperature 93
#These two values have been output from a single CSD field.
_refine_ls_R_factor_gt 0.0448
_refine_ls_wR_factor_gt 0.0448
_symmetry_cell_setting triclinic
_symmetry_space_group_name_H-M 'P -1'
_symmetry_Int_Tables_number 2
loop_
_symmetry_equiv_pos_site_id
_symmetry_equiv_pos_as_xyz
1 x,y,z
2 -x,-y,-z
_cell_length_a 6.6620(2)
_cell_length_b 10.1600(3)
_cell_length_c 11.1284(3)
_cell_angle_alpha 114.744(2)
_cell_angle_beta 92.734(2)
_cell_angle_gamma 101.360(2)
_cell_formula_units_Z 1
loop_
_atom_type_symbol
_atom_type_radius_bond
C 0.68
H 0.23
loop_
_atom_site_label
_atom_site_type_symbol
_atom_site_fract_x
_atom_site_fract_y
_atom_site_fract_z
C1 C 0.87788(8) 0.73030(6) 0.52867(5)
C2 C 1.08568(9) 0.83586(7) 0.61262(6)
H1 H 1.19140 0.77760 0.60460
H2 H 1.13420 0.91050 0.57840
C3 C 1.05775(10) 0.91590(7) 0.76016(6)
H3 H 1.19260 0.98400 0.81370
C4 C 0.98529(10) 0.79999(8) 0.81326(6)
H4 H 1.08990 0.74110 0.80610
H5 H 0.96930 0.85120 0.90870
C5 C 0.77785(9) 0.69584(6) 0.73182(5)
H6 H 0.73070 0.62050 0.76670
C6 C 0.80542(9) 0.61547(6) 0.58439(5)
H7 H 0.67250 0.54680 0.53160
H8 H 0.90900 0.55560 0.57630
C7 C 0.71364(9) 0.82242(7) 0.54276(5)
H9 H 0.75730 0.89650 0.50730
H10 H 0.57970 0.75540 0.49000
C8 C 0.6874(1) 0.90299(7) 0.69024(6)
H11 H 0.58180 0.96270 0.69840
C9 C 0.61578(10) 0.78776(7) 0.74423(6)
H12 H 0.48110 0.72080 0.69280
H13 H 0.59740 0.83940 0.83920
C10 C 0.89549(12) 1.00761(7) 0.77126(6)
H14 H 0.87890 1.06170 0.86620
H15 H 0.94220 1.08210 0.73660
C11 C 0.90585(9) 0.65644(7) 0.38791(5)
C12 C 0.93345(9) 0.60275(6) 0.27201(5)
C13 C 0.96784(8) 0.54784(6) 0.13560(5)
C14 C 0.80568(8) 0.44732(6) 0.03195(5)
C15 C 0.60887(9) 0.39140(6) 0.06043(5)
H16 H 0.58730 0.41960 0.15080
C16 C 0.45090(9) 0.29783(7) -0.04040(6)
H17 H 0.32120 0.26140 -0.01960
C17 C 0.47999(9) 0.25483(7) -0.17624(6)
H18 H 0.36850 0.19190 -0.24570
C18 C 0.66783(9) 0.30363(6) -0.20737(5)
H19 H 0.68600 0.27260 -0.29850
C19 C 1.16293(8) 0.59946(6) 0.10479(5)
C1A C 1.12212(8) 0.26970(6) -0.52867(5)
C2A C 0.91432(9) 0.16414(7) -0.61262(6)
H1A H 0.80860 0.22240 -0.60460
H2A H 0.86580 0.08950 -0.57840
C3A C 0.94225(10) 0.08410(7) -0.76016(6)
H3A H 0.80740 0.01600 -0.81370
C4A C 1.01471(10) 0.20001(8) -0.81326(6)
H4A H 0.91010 0.25890 -0.80610
H5A H 1.03070 0.14880 -0.90870
C5A C 1.22215(9) 0.30416(6) -0.73182(5)
H6A H 1.26930 0.37950 -0.76670
C6A C 1.19458(9) 0.38453(6) -0.58439(5)
H7A H 1.32750 0.45320 -0.53160
H8A H 1.09100 0.44440 -0.57630
C7A C 1.28636(9) 0.17758(7) -0.54276(5)
H9A H 1.24270 0.10350 -0.50730
H10A H 1.42030 0.24460 -0.49000
C8A C 1.3126(1) 0.09701(7) -0.69024(6)
H11A H 1.41820 0.03730 -0.69840
C9A C 1.38422(10) 0.21224(7) -0.74423(6)
H12A H 1.51890 0.27920 -0.69280
H13A H 1.40260 0.16060 -0.83920
C10A C 1.10451(12) -0.00761(7) -0.77126(6)
H14A H 1.12110 -0.06170 -0.86620
H15A H 1.05780 -0.08210 -0.73660
C11A C 1.09415(9) 0.34356(7) -0.38791(5)
C12A C 1.06655(9) 0.39725(6) -0.27201(5)
C13A C 1.03216(8) 0.45216(6) -0.13560(5)
C14A C 1.19432(8) 0.55268(6) -0.03195(5)
C15A C 1.39113(9) 0.60860(6) -0.06043(5)
H16A H 1.41270 0.58040 -0.15080
C16A C 1.54910(9) 0.70217(7) 0.04040(6)
H17A H 1.67880 0.73860 0.01960
C17A C 1.52001(9) 0.74517(7) 0.17624(6)
H18A H 1.63150 0.80810 0.24570
C18A C 1.33217(9) 0.69637(6) 0.20737(5)
H19A H 1.31400 0.72740 0.29850
C19A C 0.83707(8) 0.40054(6) -0.10479(5)
loop_
_geom_bond_atom_site_label_1
_geom_bond_atom_site_label_2
_geom_bond_distance
_geom_bond_site_symmetry_1
_geom_bond_site_symmetry_2
C1 C2 1.547 1_555 1_555
C2 H1 0.990 1_555 1_555
H2 C2 0.991 1_555 1_555
C3 C2 1.537 1_555 1_555
H3 C3 1.000 1_555 1_555
C4 C3 1.535 1_555 1_555
H4 C4 0.990 1_555 1_555
H5 C4 0.990 1_555 1_555
C5 C4 1.534 1_555 1_555
H6 C5 1.000 1_555 1_555
C6 C1 1.546 1_555 1_555
H7 C6 0.990 1_555 1_555
H8 C6 0.990 1_555 1_555
C7 C1 1.547 1_555 1_555
H9 C7 0.990 1_555 1_555
H10 C7 0.990 1_555 1_555
C8 C7 1.534 1_555 1_555
H11 C8 1.000 1_555 1_555
C9 C5 1.536 1_555 1_555
H12 C9 0.990 1_555 1_555
H13 C9 0.990 1_555 1_555
C10 C3 1.538 1_555 1_555
H14 C10 0.990 1_555 1_555
H15 C10 0.991 1_555 1_555
C11 C1 1.466 1_555 1_555
C12 C11 1.212 1_555 1_555
C13 C12 1.429 1_555 1_555
C14 C13 1.415 1_555 1_555
C15 C14 1.428 1_555 1_555
H16 C15 0.950 1_555 1_555
C16 C15 1.368 1_555 1_555
H17 C16 0.950 1_555 1_555
C17 C16 1.422 1_555 1_555
H18 C17 0.950 1_555 1_555
C18 C17 1.368 1_555 1_555
H19 C18 0.950 1_555 1_555
C19 C13 1.416 1_555 1_555
C1A C2A 1.547 1_555 1_555
C2A H1A 0.990 1_555 1_555
H2A C2A 0.991 1_555 1_555
C3A C2A 1.537 1_555 1_555
H3A C3A 1.000 1_555 1_555
C4A C3A 1.535 1_555 1_555
H4A C4A 0.990 1_555 1_555
H5A C4A 0.990 1_555 1_555
C5A C4A 1.534 1_555 1_555
H6A C5A 1.000 1_555 1_555
C6A C1A 1.546 1_555 1_555
H7A C6A 0.990 1_555 1_555
H8A C6A 0.990 1_555 1_555
C7A C1A 1.547 1_555 1_555
H9A C7A 0.990 1_555 1_555
H10A C7A 0.990 1_555 1_555
C8A C7A 1.534 1_555 1_555
H11A C8A 1.000 1_555 1_555
C9A C5A 1.536 1_555 1_555
H12A C9A 0.990 1_555 1_555
H13A C9A 0.990 1_555 1_555
C10A C3A 1.538 1_555 1_555
H14A C10A 0.990 1_555 1_555
H15A C10A 0.991 1_555 1_555
C11A C1A 1.466 1_555 1_555
C12A C11A 1.212 1_555 1_555
C13A C12A 1.429 1_555 1_555
C14A C19 1.432 1_555 1_555
C15A C14A 1.428 1_555 1_555
H16A C15A 0.950 1_555 1_555
C16A C15A 1.368 1_555 1_555
H17A C16A 0.950 1_555 1_555
C17A C16A 1.422 1_555 1_555
H18A C17A 0.950 1_555 1_555
C18A C19 1.429 1_555 1_555
H19A C18A 0.950 1_555 1_555
C19A C14 1.432 1_555 1_555
C5 C6 1.536 1_555 1_555
C8 C9 1.535 1_555 1_555
C8 C10 1.537 1_555 1_555
C18 C19A 1.429 1_555 1_555
C5A C6A 1.536 1_555 1_555
C8A C9A 1.535 1_555 1_555
C8A C10A 1.537 1_555 1_555
C13A C14A 1.415 1_555 1_555
C13A C19A 1.416 1_555 1_555
C17A C18A 1.368 1_555 1_555
#END
