
#######################################################################
#
#                 Cambridge Crystallographic Data Centre
#                                CCDC
#
#######################################################################
#
# If this CIF has been generated from an entry in the Cambridge
# Structural Database, then it will include bibliographic, chemical,
# crystal, experimental, refinement or atomic coordinate data resulting
# from the CCDC's data processing and validation procedures.
#
#######################################################################

data_CSD_CIF_NOBFEP01
_audit_creation_date 2015-05-26
_audit_creation_method CSD-ConQuest-V1
_database_code_CSD NOBFEP01
_database_code_depnum_ccdc_archive 'CCDC 1403104'
_chemical_formula_sum 'C36 H24'
_chemical_formula_moiety
;
C36 H24
;
_journal_coden_Cambridge 4
_journal_volume 137
_journal_year 2015
_journal_page_first 6335
_journal_name_full 'J.Am.Chem.Soc. '
loop_
_publ_author_name
"R.K.Mohamed"
"S.Mondal"
"Brian Gold"
"C.J.Evoniuk"
"T.Banerjee"
"K.Hanson"
"I.V.Alabugin"
_chemical_name_systematic
;
2,2',2''-benzene-1,3,5-triyltrinaphthalene
;
_cell_volume   2457.597
_exptl_crystal_colour 'colorless'
_exptl_crystal_density_diffrn 1.234
_exptl_crystal_description 'needle'
_diffrn_ambient_temperature 173
#These two values have been output from a single CSD field.
_refine_ls_R_factor_gt 0.0532
_refine_ls_wR_factor_gt 0.0532
_symmetry_cell_setting orthorhombic
_symmetry_space_group_name_H-M 'P n a 21'
_symmetry_Int_Tables_number 33
loop_
_symmetry_equiv_pos_site_id
_symmetry_equiv_pos_as_xyz
1 x,y,z
2 -x,-y,1/2+z
3 1/2-x,1/2+y,1/2+z
4 1/2+x,1/2-y,z
_cell_length_a 7.3179(6)
_cell_length_b 23.2967(17)
_cell_length_c 14.4155(13)
_cell_angle_alpha 90
_cell_angle_beta 90
_cell_angle_gamma 90
_cell_formula_units_Z 4
loop_
_atom_type_symbol
_atom_type_radius_bond
C 0.68
H 0.23
loop_
_atom_site_label
_atom_site_type_symbol
_atom_site_fract_x
_atom_site_fract_y
_atom_site_fract_z
C1 C 0.9040(5) 0.34897(19) 0.7754(2)
H1 H 0.92060 0.34640 0.84070
C2 C 0.9774(4) 0.39591(17) 0.7263(2)
H2 H 1.04400 0.42470 0.75850
C3 C 0.9531(3) 0.40018(13) 0.6324(2)
H3 H 1.00200 0.43230 0.60020
C4 C 0.8571(3) 0.35788(11) 0.58288(17)
C5 C 0.8357(3) 0.36068(10) 0.48525(17)
H4 H 0.88450 0.39270 0.45270
C6 C 0.7467(3) 0.31860(9) 0.43637(17)
C7 C 0.7256(3) 0.32181(10) 0.33382(17)
C8 C 0.7319(3) 0.27192(10) 0.28089(18)
H5 H 0.74920 0.23610 0.31120
C9 C 0.7137(3) 0.27297(9) 0.18577(18)
C10 C 0.7226(3) 0.21928(10) 0.13069(18)
C11 C 0.7959(3) 0.21908(10) 0.04492(18)
H6 H 0.83790 0.25410 0.01880
C12 C 0.8118(3) 0.16691(11) -0.00810(18)
C13 C 0.7465(3) 0.1163(1) 0.03123(17)
C14 C 0.7637(4) 0.06340(13) -0.0211(2)
H7 H 0.71910 0.02840 0.00390
C15 C 0.8442(4) 0.06428(16) -0.1060(2)
H8 H 0.85460 0.02960 -0.14030
C16 C 0.6927(4) 0.60124(13) -0.0780(2)
H9 H 0.68380 0.63740 -0.10830
C17 C 0.6113(3) 0.59334(11) 0.0057(2)
H10 H 0.54610 0.62410 0.03350
C18 C 0.6225(3) 0.54001(9) 0.05176(18)
C19 C 0.5370(3) 0.52938(10) 0.13752(18)
H11 H 0.46510 0.55880 0.16500
C20 C 0.5544(3) 0.47805(9) 0.18223(17)
H12 H 0.49540 0.47240 0.24020
C21 C 0.6598(3) 0.43299(9) 0.14298(16)
C22 C 0.6826(3) 0.37715(9) 0.19211(16)
C23 C 0.6889(3) 0.32612(9) 0.14191(18)
H13 H 0.67610 0.32730 0.07640
C24 C 0.6569(3) 0.16656(10) 0.16879(19)
H14 H 0.60360 0.16640 0.22890
C25 C 0.6692(3) 0.11665(11) 0.12058(18)
H15 H 0.62560 0.08190 0.14720
C26 C 0.9125(5) 0.11571(16) -0.1442(2)
H16 H 0.97090 0.11530 -0.20310
C27 C 0.8947(4) 0.16664(14) -0.0962(2)
H17 H 0.93830 0.20140 -0.12250
C28 C 0.8100(4) 0.30765(16) 0.7301(2)
H18 H 0.76050 0.27630 0.76400
C29 C 0.7839(3) 0.31042(12) 0.63140(19)
C30 C 0.6937(4) 0.26795(12) 0.58189(19)
H19 H 0.64450 0.23590 0.61410
C31 C 0.6739(3) 0.27119(10) 0.4873(2)
H20 H 0.61100 0.24150 0.45520
C32 C 0.7003(3) 0.37427(9) 0.28812(16)
H21 H 0.69500 0.40860 0.32350
C33 C 0.7396(3) 0.44159(10) 0.05832(16)
H22 H 0.80760 0.41120 0.03100
C34 C 0.7240(3) 0.49465(10) 0.00982(16)
C35 C 0.8063(3) 0.50383(12) -0.07675(19)
H23 H 0.87340 0.47380 -0.10550
C36 C 0.7903(4) 0.55619(13) -0.1202(2)
H24 H 0.84560 0.56200 -0.17910
loop_
_geom_bond_atom_site_label_1
_geom_bond_atom_site_label_2
_geom_bond_distance
_geom_bond_site_symmetry_1
_geom_bond_site_symmetry_2
C1 H1 0.951 1_555 1_555
C2 C1 1.409 1_555 1_555
H2 C2 0.950 1_555 1_555
C3 C2 1.369 1_555 1_555
H3 C3 0.951 1_555 1_555
C4 C3 1.405 1_555 1_555
C5 C4 1.418 1_555 1_555
H4 C5 0.951 1_555 1_555
C6 C5 1.372 1_555 1_555
C7 C6 1.488 1_555 1_555
C8 C7 1.391 1_555 1_555
H5 C8 0.950 1_555 1_555
C9 C8 1.378 1_555 1_555
C10 C9 1.483 1_555 1_555
C11 C10 1.348 1_555 1_555
H6 C11 0.950 1_555 1_555
C12 C11 1.440 1_555 1_555
C13 C12 1.393 1_555 1_555
C14 C13 1.450 1_555 1_555
H7 C14 0.949 1_555 1_555
C15 C14 1.358 1_555 1_555
H8 C15 0.950 1_555 1_555
C16 H9 0.951 1_555 1_555
C17 C16 1.358 1_555 1_555
H10 C17 0.950 1_555 1_555
C18 C17 1.411 1_555 1_555
C19 C18 1.408 1_555 1_555
H11 C19 0.951 1_555 1_555
C20 C19 1.364 1_555 1_555
H12 C20 0.950 1_555 1_555
C21 C20 1.420 1_555 1_555
C22 C21 1.491 1_555 1_555
C23 C9 1.402 1_555 1_555
H13 C23 0.949 1_555 1_555
C24 C10 1.429 1_555 1_555
H14 C24 0.950 1_555 1_555
C25 C13 1.407 1_555 1_555
H15 C25 0.951 1_555 1_555
C26 C15 1.410 1_555 1_555
H16 C26 0.951 1_555 1_555
C27 C12 1.407 1_555 1_555
H17 C27 0.949 1_555 1_555
C28 C1 1.351 1_555 1_555
H18 C28 0.950 1_555 1_555
C29 C4 1.414 1_555 1_555
C30 C29 1.387 1_555 1_555
H19 C30 0.950 1_555 1_555
C31 C6 1.429 1_555 1_555
H20 C31 0.951 1_555 1_555
C32 C7 1.401 1_555 1_555
H21 C32 0.949 1_555 1_555
C33 C21 1.368 1_555 1_555
H22 C33 0.951 1_555 1_555
C34 C18 1.426 1_555 1_555
C35 C34 1.402 1_555 1_555
H23 C35 0.950 1_555 1_555
C36 C16 1.408 1_555 1_555
H24 C36 0.950 1_555 1_555
C22 C23 1.393 1_555 1_555
C22 C32 1.392 1_555 1_555
C24 C25 1.358 1_555 1_555
C26 C27 1.380 1_555 1_555
C28 C29 1.437 1_555 1_555
C30 C31 1.373 1_555 1_555
C33 C34 1.425 1_555 1_555
C35 C36 1.376 1_555 1_555
#END
