
#######################################################################
#
#                 Cambridge Crystallographic Data Centre
#                                CCDC
#
#######################################################################
#
# If this CIF has been generated from an entry in the Cambridge
# Structural Database, then it will include bibliographic, chemical,
# crystal, experimental, refinement or atomic coordinate data resulting
# from the CCDC's data processing and validation procedures.
#
#######################################################################

data_CSD_CIF_NOBFEP
_audit_creation_date 2002-03-14
_audit_creation_method CSD-ConQuest-V1
_database_code_CSD NOBFEP
_database_code_depnum_ccdc_archive 'CCDC 164196'
_chemical_formula_sum 'C36 H24'
_chemical_formula_moiety
;
C36 H24
;
_journal_coden_Cambridge 1088
_journal_year 2001
_journal_page_first 1947
_journal_name_full 'Synlett '
loop_
_publ_author_name
"Zilong Li"
"Wen-Hua Sun"
"Xianglin Jin"
"Changxing Shao"
_chemical_name_systematic
;
1,3,5-tris(2'-Naphthyl)benzene
;
_cell_volume   2453.627
_exptl_crystal_colour 'colorless'
_exptl_crystal_density_diffrn 1.236
_exptl_crystal_description 'platelet'
_diffrn_ambient_temperature 293
#These two values have been output from a single CSD field.
_refine_ls_R_factor_gt 0.0285
_refine_ls_wR_factor_gt 0.0285
_symmetry_cell_setting orthorhombic
_symmetry_space_group_name_H-M 'P n a 21'
_symmetry_Int_Tables_number 33
loop_
_symmetry_equiv_pos_site_id
_symmetry_equiv_pos_as_xyz
1 x,y,z
2 -x,-y,1/2+z
3 1/2+x,1/2-y,z
4 1/2-x,1/2+y,1/2+z
_cell_length_a 7.3174(3)
_cell_length_b 23.2626(13)
_cell_length_c 14.4143(6)
_cell_angle_alpha 90
_cell_angle_beta 90
_cell_angle_gamma 90
_cell_formula_units_Z 4
loop_
_atom_type_symbol
_atom_type_radius_bond
C 0.68
H 0.23
loop_
_atom_site_label
_atom_site_type_symbol
_atom_site_fract_x
_atom_site_fract_y
_atom_site_fract_z
C1 C 0.2238(6) 0.3215(2) 0.0939(4)
C2 C 0.1994(6) 0.3742(2) 0.1406(4)
H1 H 0.19380 0.40790 0.10610
C3 C 0.1837(6) 0.3775(2) 0.2363(4)
C4 C 0.1892(6) 0.3258(2) 0.2861(4)
H2 H 0.17630 0.32670 0.35020
C5 C 0.2134(6) 0.2736(2) 0.2422(4)
C6 C 0.2332(6) 0.2721(2) 0.1466(4)
H3 H 0.25330 0.23700 0.11730
C7 C 0.2480(6) 0.3182(2) -0.0070(4)
C8 C 0.1735(6) 0.2701(2) -0.0595(4)
H4 H 0.11170 0.24080 -0.02870
C9 C 0.1939(7) 0.2677(3) -0.1536(4)
H5 H 0.14420 0.23660 -0.18530
C10 C 0.2852(6) 0.3096(3) -0.2042(4)
C11 C 0.3571(6) 0.3569(3) -0.1553(4)
C12 C 0.3359(6) 0.3602(2) -0.0577(4)
H6 H 0.38300 0.39200 -0.02660
C13 C 0.4514(7) 0.3999(2) -0.2051(4)
H7 H 0.49680 0.43150 -0.17310
C14 C 0.4786(7) 0.3965(3) -0.2995(5)
H8 H 0.54390 0.42490 -0.33070
C15 C 0.4049(8) 0.3490(3) -0.3479(5)
H9 H 0.42000 0.34650 -0.41190
C16 C 0.3104(7) 0.3060(3) -0.3015(4)
H10 H 0.26360 0.27490 -0.33420
C17 C 0.1605(6) 0.4325(2) 0.2837(4)
C18 C 0.0559(6) 0.47817(19) 0.2444(4)
H11 H -0.00020 0.47290 0.18720
C19 C 0.0367(6) 0.52929(19) 0.2892(4)
H12 H -0.03420 0.55810 0.26260
C20 C 0.1221(6) 0.5393(2) 0.3750(4)
C21 C 0.2257(6) 0.4945(2) 0.4176(4)
C22 C 0.2408(6) 0.4416(2) 0.3698(4)
H13 H 0.30680 0.41180 0.39700
C23 C 0.3078(6) 0.5038(2) 0.5052(4)
H14 H 0.37330 0.47450 0.53370
C24 C 0.2906(7) 0.5560(2) 0.5479(4)
H15 H 0.34360 0.56180 0.60570
C25 C 0.1945(7) 0.6005(3) 0.5056(5)
H16 H 0.18560 0.63590 0.53530
C26 C 0.1121(7) 0.5928(2) 0.4203(4)
H17 H 0.04970 0.62310 0.39260
C27 C 0.2239(6) 0.2196(2) 0.2982(4)
C28 C 0.1565(6) 0.1678(2) 0.2595(4)
H18 H 0.10370 0.16820 0.20080
C29 C 0.1688(6) 0.1153(3) 0.3094(4)
H19 H 0.12620 0.08100 0.28410
C30 C 0.2474(6) 0.1169(2) 0.3978(4)
C31 C 0.3107(6) 0.1669(3) 0.4381(4)
C32 C 0.2982(6) 0.2204(2) 0.3847(4)
H20 H 0.34070 0.25470 0.40980
C33 C 0.3958(7) 0.1682(3) 0.5235(4)
H21 H 0.44090 0.20200 0.54930
C34 C 0.4096(8) 0.1143(3) 0.5694(5)
H22 H 0.46710 0.11230 0.62680
C35 C 0.3379(8) 0.0637(3) 0.5295(5)
H23 H 0.34630 0.02970 0.56310
C36 C 0.2577(7) 0.0621(3) 0.4452(4)
H24 H 0.21240 0.02830 0.41950
loop_
_geom_bond_atom_site_label_1
_geom_bond_atom_site_label_2
_geom_bond_distance
_geom_bond_site_symmetry_1
_geom_bond_site_symmetry_2
C1 C2 1.410 1_555 1_555
C2 H1 0.929 1_555 1_555
C3 C2 1.386 1_555 1_555
C4 C3 1.401 1_555 1_555
H2 C4 0.929 1_555 1_555
C5 C4 1.381 1_555 1_555
C6 C1 1.379 1_555 1_555
H3 C6 0.931 1_555 1_555
C7 C1 1.467 1_555 1_555
C8 C7 1.457 1_555 1_555
H4 C8 0.931 1_555 1_555
C9 C8 1.366 1_555 1_555
H5 C9 0.930 1_555 1_555
C10 C9 1.389 1_555 1_555
C11 C10 1.409 1_555 1_555
C12 C7 1.379 1_555 1_555
H6 C12 0.931 1_555 1_555
C13 C11 1.411 1_555 1_555
H7 C13 0.929 1_555 1_555
C14 C13 1.377 1_555 1_555
H8 C14 0.931 1_555 1_555
C15 C14 1.414 1_555 1_555
H9 C15 0.931 1_555 1_555
C16 C10 1.417 1_555 1_555
H10 C16 0.929 1_555 1_555
C17 C3 1.460 1_555 1_555
C18 C17 1.427 1_555 1_555
H11 C18 0.929 1_555 1_555
C19 C18 1.360 1_555 1_555
H12 C19 0.930 1_555 1_555
C20 C19 1.405 1_555 1_555
C21 C20 1.428 1_555 1_555
C22 C17 1.389 1_555 1_555
H13 C22 0.931 1_555 1_555
C23 C21 1.415 1_555 1_555
H14 C23 0.929 1_555 1_555
C24 C23 1.367 1_555 1_555
H15 C24 0.929 1_555 1_555
C25 C24 1.392 1_555 1_555
H16 C25 0.930 1_555 1_555
C26 C20 1.407 1_555 1_555
H17 C26 0.930 1_555 1_555
C27 C5 1.495 1_555 1_555
C28 C27 1.416 1_555 1_555
H18 C28 0.930 1_555 1_555
C29 C28 1.420 1_555 1_555
H19 C29 0.931 1_555 1_555
C30 C29 1.399 1_555 1_555
C31 C30 1.380 1_555 1_555
C32 C27 1.360 1_555 1_555
H20 C32 0.930 1_555 1_555
C33 C31 1.380 1_555 1_555
H21 C33 0.930 1_555 1_555
C34 C33 1.421 1_555 1_555
H22 C34 0.929 1_555 1_555
C35 C34 1.411 1_555 1_555
H23 C35 0.929 1_555 1_555
C36 C30 1.448 1_555 1_555
H24 C36 0.930 1_555 1_555
C5 C6 1.386 1_555 1_555
C11 C12 1.417 1_555 1_555
C15 C16 1.388 1_555 1_555
C21 C22 1.415 1_555 1_555
C25 C26 1.381 1_555 1_555
C31 C32 1.466 1_555 1_555
C35 C36 1.350 1_555 1_555
#END
