
#######################################################################
#
#                 Cambridge Crystallographic Data Centre
#                                CCDC
#
#######################################################################
#
# If this CIF has been generated from an entry in the Cambridge
# Structural Database, then it will include bibliographic, chemical,
# crystal, experimental, refinement or atomic coordinate data resulting
# from the CCDC's data processing and validation procedures.
#
#######################################################################

data_CSD_CIF_NUMCAA
_audit_creation_date 2010-05-04
_audit_creation_method CSD-ConQuest-V1
_database_code_CSD NUMCAA
_database_code_depnum_ccdc_archive 'CCDC 715256'
_chemical_formula_sum 'C38 H22'
_chemical_formula_moiety
;
C38 H22
;
_journal_coden_Cambridge 1096
_journal_volume 21
_journal_year 2009
_journal_page_first 2840
_journal_name_full 'Chem.Mater. '
loop_
_publ_author_name
"Chengliang Wang"
"Yaling Liu"
"Zhuoyu Ji"
"Erjing Wang"
"Rongjin Li"
"Hui Jiang"
"Qingxin Tang"
"Hongxiang Li"
"Wenping Hu"
_chemical_name_systematic
;
9,10-bis(2-Naphthylethynyl)anthracene
;
_chemical_melting_point 536.15
_cell_volume   1277.237
_exptl_crystal_colour 'orange'
_exptl_crystal_density_diffrn 1.244
_exptl_crystal_description 'plate'
_exptl_crystal_preparation 'toluene'
_diffrn_ambient_temperature 173
#These two values have been output from a single CSD field.
_refine_ls_R_factor_gt 0.0479
_refine_ls_wR_factor_gt 0.0479
_symmetry_cell_setting monoclinic
_symmetry_space_group_name_H-M 'P 21/c'
_symmetry_Int_Tables_number 14
loop_
_symmetry_equiv_pos_site_id
_symmetry_equiv_pos_as_xyz
1 x,y,z
2 -x,1/2+y,1/2-z
3 -x,-y,-z
4 x,-1/2-y,-1/2+z
_cell_length_a 11.787(2)
_cell_length_b 5.9569(12)
_cell_length_c 18.334(4)
_cell_angle_alpha 90
_cell_angle_beta 97.17(3)
_cell_angle_gamma 90
_cell_formula_units_Z 2
loop_
_atom_type_symbol
_atom_type_radius_bond
C 0.68
H 0.23
loop_
_atom_site_label
_atom_site_type_symbol
_atom_site_fract_x
_atom_site_fract_y
_atom_site_fract_z
C1 C 0.42614(17) 0.9248(3) 0.10080(11)
H1 H 0.41000 1.06620 0.07780
C2 C 0.50788(17) 0.7885(3) 0.07708(12)
H2 H 0.54840 0.83650 0.03820
C3 C 0.53180(17) 0.5778(3) 0.11007(11)
H3 H 0.58830 0.48410 0.09320
C4 C 0.47453(15) 0.5068(3) 0.16607(11)
H4 H 0.49120 0.36370 0.18760
C5 C 0.39006(16) 0.6452(3) 0.19249(10)
C6 C 0.32964(15) 0.5777(3) 0.2508(1)
H5 H 0.34610 0.43620 0.27350
C7 C 0.24737(16) 0.7130(3) 0.27535(11)
C8 C 0.22347(17) 0.9253(3) 0.24106(11)
H6 H 0.16710 1.01980 0.25770
C9 C 0.28023(16) 0.9949(3) 0.18478(11)
H7 H 0.26260 1.13680 0.16250
C10 C 0.36556(15) 0.8576(3) 0.15899(11)
C11 C 0.18633(17) 0.6465(3) 0.33474(12)
C12 C 0.13240(16) 0.5976(3) 0.38403(11)
C13 C 0.06622(15) 0.5467(3) 0.4423(1)
C14 C -0.02757(15) 0.6874(3) 0.45302(11)
C15 C -0.05535(17) 0.8809(3) 0.40882(11)
H8 H -0.01150 0.91560 0.37020
C16 C -0.14364(16) 1.0169(3) 0.42106(11)
H9 H -0.16020 1.14620 0.39130
C17 C -0.21100(17) 0.9678(3) 0.47753(12)
H10 H -0.27320 1.06280 0.48500
C18 C 0.09416(16) 0.3608(3) 0.48875(11)
C19 C 0.18735(15) 0.2140(3) 0.47897(11)
H11 H 0.23340 0.24480 0.44120
C1B C -0.42614(17) 0.0752(3) 0.89920(11)
H1B H -0.41000 -0.06620 0.92220
C2B C -0.50788(17) 0.2115(3) 0.92292(12)
H2B H -0.54840 0.16350 0.96180
C3B C -0.53180(17) 0.4222(3) 0.88993(11)
H3B H -0.58830 0.51590 0.90680
C4B C -0.47453(15) 0.4932(3) 0.83393(11)
H4B H -0.49120 0.63630 0.81240
C5B C -0.39006(16) 0.3548(3) 0.80751(10)
C6B C -0.32964(15) 0.4223(3) 0.7492(1)
H5B H -0.34610 0.56380 0.72650
C7B C -0.24737(16) 0.2870(3) 0.72465(11)
C8B C -0.22347(17) 0.0747(3) 0.75894(11)
H6B H -0.16710 -0.01980 0.74230
C9B C -0.28023(16) 0.0051(3) 0.81522(11)
H7B H -0.26260 -0.13680 0.83750
C10B C -0.36556(15) 0.1424(3) 0.84101(11)
C11B C -0.18633(17) 0.3535(3) 0.66526(12)
C12B C -0.13240(16) 0.4024(3) 0.61597(11)
C13B C -0.06622(15) 0.4533(3) 0.5577(1)
C14B C 0.02757(15) 0.3126(3) 0.54698(11)
C15B C 0.05535(17) 0.1191(3) 0.59118(11)
H8B H 0.01150 0.08440 0.62980
C16B C 0.14364(16) -0.0169(3) 0.57894(11)
H9B H 0.16020 -0.14620 0.60870
C17B C 0.21100(17) 0.0322(3) 0.52247(12)
H10B H 0.27320 -0.06280 0.51500
C18B C -0.09416(16) 0.6392(3) 0.51125(11)
C19B C -0.18735(15) 0.7860(3) 0.52103(11)
H11B H -0.23340 0.75520 0.55880
loop_
_geom_bond_atom_site_label_1
_geom_bond_atom_site_label_2
_geom_bond_distance
_geom_bond_site_symmetry_1
_geom_bond_site_symmetry_2
C1 H1 0.951 1_555 1_555
C2 C1 1.372 1_555 1_555
H2 C2 0.950 1_555 1_555
C3 C2 1.406 1_555 1_555
H3 C3 0.950 1_555 1_555
C4 C3 1.364 1_555 1_555
H4 C4 0.950 1_555 1_555
C5 C4 1.423 1_555 1_555
C6 C5 1.415 1_555 1_555
H5 C6 0.949 1_555 1_555
C7 C6 1.379 1_555 1_555
C8 C7 1.425 1_555 1_555
H6 C8 0.950 1_555 1_555
C9 C8 1.363 1_555 1_555
H7 C9 0.950 1_555 1_555
C10 C1 1.414 1_555 1_555
C11 C7 1.434 1_555 1_555
C12 C11 1.204 1_555 1_555
C13 C12 1.432 1_555 1_555
C14 C13 1.420 1_555 1_555
C15 C14 1.423 1_555 1_555
H8 C15 0.950 1_555 1_555
C16 C15 1.359 1_555 1_555
H9 C16 0.950 1_555 1_555
C17 C16 1.412 1_555 1_555
H10 C17 0.950 1_555 1_555
C18 C13 1.411 1_555 1_555
C19 C18 1.433 1_555 1_555
H11 C19 0.950 1_555 1_555
C1B H1B 0.951 1_555 1_555
C2B C1B 1.372 1_555 1_555
H2B C2B 0.950 1_555 1_555
C3B C2B 1.406 1_555 1_555
H3B C3B 0.950 1_555 1_555
C4B C3B 1.364 1_555 1_555
H4B C4B 0.950 1_555 1_555
C5B C4B 1.423 1_555 1_555
C6B C5B 1.415 1_555 1_555
H5B C6B 0.949 1_555 1_555
C7B C6B 1.379 1_555 1_555
C8B C7B 1.425 1_555 1_555
H6B C8B 0.950 1_555 1_555
C9B C8B 1.363 1_555 1_555
H7B C9B 0.950 1_555 1_555
C10B C1B 1.414 1_555 1_555
C11B C7B 1.434 1_555 1_555
C12B C11B 1.204 1_555 1_555
C13B C12B 1.432 1_555 1_555
C14B C18 1.431 1_555 1_555
C15B C14B 1.423 1_555 1_555
H8B C15B 0.950 1_555 1_555
C16B C15B 1.359 1_555 1_555
H9B C16B 0.950 1_555 1_555
C17B C19 1.353 1_555 1_555
H10B C17B 0.950 1_555 1_555
C18B C14 1.431 1_555 1_555
C19B C17 1.353 1_555 1_555
H11B C19B 0.950 1_555 1_555
C5 C10 1.420 1_555 1_555
C9 C10 1.422 1_555 1_555
C5B C10B 1.420 1_555 1_555
C9B C10B 1.422 1_555 1_555
C13B C14B 1.420 1_555 1_555
C13B C18B 1.411 1_555 1_555
C16B C17B 1.412 1_555 1_555
C18B C19B 1.433 1_555 1_555
#END
