
#######################################################################
#
#                 Cambridge Crystallographic Data Centre
#                                CCDC
#
#######################################################################
#
# If this CIF has been generated from an entry in the Cambridge
# Structural Database, then it will include bibliographic, chemical,
# crystal, experimental, refinement or atomic coordinate data resulting
# from the CCDC's data processing and validation procedures.
#
#######################################################################

data_CSD_CIF_OBIHEO
_audit_creation_date 2011-11-29
_audit_creation_method CSD-ConQuest-V1
_database_code_CSD OBIHEO
_database_code_depnum_ccdc_archive 'CCDC 790126'
_chemical_formula_sum 'C28 H20'
_chemical_formula_moiety
;
C28 H20
;
_journal_coden_Cambridge 1078
_journal_year 2010
_journal_name_full 'CSD Communication(Private Communication) '
loop_
_publ_author_name
"A.Berkessel"
"M.Bolte"
_chemical_name_systematic
;
1,2,3-Triphenylnaphthalene
;
_cell_volume   1993.202
_exptl_crystal_colour 'colorless'
_exptl_crystal_density_diffrn 1.188
_exptl_special_details
;
contribution from Institut fuer Anorganische 
Chemie,J.-W.-Goethe-Universitaet, Max-von-Laue-Str. 7,D-60438 
Frankfurt/Main,Germany
;
_exptl_crystal_description 'plate'
_diffrn_ambient_temperature 173
#These two values have been output from a single CSD field.
_refine_ls_R_factor_gt 0.0454
_refine_ls_wR_factor_gt 0.0454
_symmetry_cell_setting monoclinic
_symmetry_space_group_name_H-M 'P 21/c'
_symmetry_Int_Tables_number 14
loop_
_symmetry_equiv_pos_site_id
_symmetry_equiv_pos_as_xyz
1 x,y,z
2 -x,1/2+y,1/2-z
3 -x,-y,-z
4 x,-1/2-y,-1/2+z
_cell_length_a 10.1370(7)
_cell_length_b 21.6576(12)
_cell_length_c 9.4740(7)
_cell_angle_alpha 90
_cell_angle_beta 106.606(5)
_cell_angle_gamma 90
_cell_formula_units_Z 4
loop_
_atom_type_symbol
_atom_type_radius_bond
C 0.68
H 0.23
loop_
_atom_site_label
_atom_site_type_symbol
_atom_site_fract_x
_atom_site_fract_y
_atom_site_fract_z
C1 C 0.64485(12) 0.41810(6) 0.80420(12)
C2 C 0.50654(12) 0.44217(5) 0.75481(12)
C3 C 0.48448(12) 0.50578(5) 0.74749(12)
C4 C 0.59859(12) 0.54810(6) 0.78775(12)
C5 C 0.58122(14) 0.61357(6) 0.78329(14)
H1 H 0.49110 0.63060 0.75290
C6 C 0.69333(15) 0.65230(7) 0.82241(16)
H2 H 0.67990 0.69570 0.81950
C7 C 0.82840(15) 0.62803(7) 0.86694(17)
H3 H 0.90510 0.65520 0.89400
C8 C 0.84894(14) 0.56534(7) 0.87122(16)
H4 H 0.94010 0.54940 0.90070
C9 C 0.73509(13) 0.52383(6) 0.83193(13)
C10 C 0.75395(12) 0.45889(6) 0.83839(13)
H5 H 0.84500 0.44290 0.86730
C11 C 0.67468(13) 0.35066(6) 0.82998(13)
C12 C 0.60472(14) 0.31502(6) 0.90965(14)
H6 H 0.53310 0.33320 0.94200
C13 C 0.63955(16) 0.25321(7) 0.94174(17)
H7 H 0.59150 0.22960 0.99570
C14 C 0.74364(18) 0.22607(7) 0.89544(18)
H8 H 0.76670 0.18390 0.91720
C15 C 0.81401(18) 0.26051(8) 0.81731(18)
H9 H 0.88560 0.24190 0.78570
C16 C 0.78023(15) 0.32263(7) 0.78457(16)
H10 H 0.82930 0.34590 0.73110
C17 C 0.38599(12) 0.39848(5) 0.70884(13)
C18 C 0.37063(14) 0.36042(6) 0.58606(14)
H11 H 0.43520 0.36290 0.53070
C19 C 0.26123(16) 0.31884(6) 0.54414(16)
H12 H 0.25170 0.29320 0.46040
C20 C 0.16646(15) 0.31467(7) 0.62401(17)
H13 H 0.09250 0.28610 0.59560
C21 C 0.17999(14) 0.35246(7) 0.74595(17)
H14 H 0.11510 0.34970 0.80090
C22 C 0.28889(13) 0.39447(6) 0.78782(14)
H15 H 0.29700 0.42050 0.87060
C23 C 0.34160(12) 0.53179(5) 0.69904(13)
C24 C 0.26123(13) 0.52849(6) 0.55189(14)
H16 H 0.29730 0.50980 0.48010
C25 C 0.12788(14) 0.55270(7) 0.51098(16)
H17 H 0.07340 0.55030 0.41120
C26 C 0.07456(14) 0.58023(7) 0.61548(19)
H18 H -0.01680 0.59590 0.58750
C27 C 0.15515(14) 0.58475(7) 0.76086(18)
H19 H 0.11980 0.60450 0.83190
C28 C 0.28733(13) 0.56036(6) 0.80222(15)
H20 H 0.34150 0.56320 0.90200
loop_
_geom_bond_atom_site_label_1
_geom_bond_atom_site_label_2
_geom_bond_distance
_geom_bond_site_symmetry_1
_geom_bond_site_symmetry_2
C1 C2 1.443 1_555 1_555
C2 C3 1.394 1_555 1_555
C3 C4 1.439 1_555 1_555
C4 C5 1.428 1_555 1_555
C5 H1 0.950 1_555 1_555
C6 C5 1.375 1_555 1_555
H2 C6 0.949 1_555 1_555
C7 C6 1.414 1_555 1_555
H3 C7 0.950 1_555 1_555
C8 C7 1.372 1_555 1_555
H4 C8 0.951 1_555 1_555
C9 C4 1.427 1_555 1_555
C10 C1 1.380 1_555 1_555
H5 C10 0.950 1_555 1_555
C11 C1 1.497 1_555 1_555
C12 C11 1.405 1_555 1_555
H6 C12 0.950 1_555 1_555
C13 C12 1.396 1_555 1_555
H7 C13 0.950 1_555 1_555
C14 C13 1.384 1_555 1_555
H8 C14 0.951 1_555 1_555
C15 C14 1.384 1_555 1_555
H9 C15 0.950 1_555 1_555
C16 C11 1.401 1_555 1_555
H10 C16 0.950 1_555 1_555
C17 C2 1.508 1_555 1_555
C18 C17 1.398 1_555 1_555
H11 C18 0.950 1_555 1_555
C19 C18 1.395 1_555 1_555
H12 C19 0.950 1_555 1_555
C20 C19 1.385 1_555 1_555
H13 C20 0.950 1_555 1_555
C21 C20 1.390 1_555 1_555
H14 C21 0.950 1_555 1_555
C22 C17 1.399 1_555 1_555
H15 C22 0.950 1_555 1_555
C23 C3 1.499 1_555 1_555
C24 C23 1.401 1_555 1_555
H16 C24 0.950 1_555 1_555
C25 C24 1.397 1_555 1_555
H17 C25 0.950 1_555 1_555
C26 C25 1.391 1_555 1_555
H18 C26 0.950 1_555 1_555
C27 C26 1.390 1_555 1_555
H19 C27 0.950 1_555 1_555
C28 C23 1.396 1_555 1_555
H20 C28 0.950 1_555 1_555
C8 C9 1.426 1_555 1_555
C9 C10 1.418 1_555 1_555
C15 C16 1.401 1_555 1_555
C21 C22 1.398 1_555 1_555
C27 C28 1.388 1_555 1_555
#END
