
#######################################################################
#
#                 Cambridge Crystallographic Data Centre
#                                CCDC
#
#######################################################################
#
# If this CIF has been generated from an entry in the Cambridge
# Structural Database, then it will include bibliographic, chemical,
# crystal, experimental, refinement or atomic coordinate data resulting
# from the CCDC's data processing and validation procedures.
#
#######################################################################

data_CSD_CIF_ODIVIJ
_audit_creation_date 2018-08-24
_audit_creation_method CSD-ConQuest-V1
_database_code_CSD ODIVIJ
_database_code_depnum_ccdc_archive 'CCDC 1510639'
_chemical_formula_sum 'C38 H22'
_chemical_formula_moiety
;
C38 H22
;
_journal_coden_Cambridge 15
_journal_volume 95
_journal_year 2017
_journal_page_first 432
_journal_name_full 'Can.J.Chem. '
loop_
_publ_author_name
"K.Uchida"
"T.Kubo"
"D.Yamanaka"
"A.Furube"
"H.Matsuzaki"
"R.Nishii"
"Y.Sakagami"
"A.Abulikemu"
"K.Kamada"
_chemical_name_systematic
;
2,9-diphenyldibenzo[cd,lm]perylene
;
_chemical_name_common
;
2,9-diphenylperopyrene
;
_cell_volume   2431.323
_exptl_crystal_colour 'yellow'
_exptl_crystal_density_diffrn 1.307
_exptl_crystal_description 'prism'
_exptl_crystal_preparation 'Re-crystallisation from solvent'
_diffrn_ambient_temperature 200
#These two values have been output from a single CSD field.
_refine_ls_R_factor_gt 0.0772
_refine_ls_wR_factor_gt 0.0772
_symmetry_cell_setting orthorhombic
_symmetry_space_group_name_H-M 'P c a b'
_symmetry_Int_Tables_number 61
loop_
_symmetry_equiv_pos_site_id
_symmetry_equiv_pos_as_xyz
1 x,y,z
2 -x,1/2-y,1/2+z
3 1/2+x,-y,1/2-z
4 1/2-x,1/2+y,-z
5 -x,-y,-z
6 x,-1/2+y,-1/2-z
7 -1/2-x,y,-1/2+z
8 -1/2+x,-1/2-y,z
_cell_length_a 7.1966(9)
_cell_length_b 8.4849(9)
_cell_length_c 39.817(4)
_cell_angle_alpha 90
_cell_angle_beta 90
_cell_angle_gamma 90
_cell_formula_units_Z 4
loop_
_atom_type_symbol
_atom_type_radius_bond
C 0.68
H 0.23
loop_
_atom_site_label
_atom_site_type_symbol
_atom_site_fract_x
_atom_site_fract_y
_atom_site_fract_z
C1 C 0.6013(4) -0.0705(3) 0.10506(6)
H1 H 0.48060 -0.11220 0.10890
C2 C 0.8539(4) -0.0087(3) 0.06645(6)
C3 C 1.1079(4) 0.0593(3) 0.02756(6)
C4 C 0.6404(4) -0.1296(3) 0.01314(6)
H2 H 0.56840 -0.17240 -0.00460
C5 C 0.8189(4) -0.0643(3) 0.00573(6)
C6 C 0.9269(4) -0.0034(3) 0.03289(6)
C7 C 0.9576(4) 0.0499(3) 0.09407(6)
C8 C 0.7011(4) -0.0090(3) 0.13215(7)
C9 C 0.6741(4) -0.0723(3) 0.07255(6)
C10 C 0.6126(4) 0.0014(4) 0.16591(7)
C11 C 1.1384(4) 0.1119(3) 0.08758(7)
H3 H 1.21060 0.15060 0.10580
C12 C 1.2100(4) 0.1168(3) 0.05595(7)
H4 H 1.33060 0.15950 0.05260
C13 C 0.5710(4) -0.1323(3) 0.04473(6)
H5 H 0.45080 -0.17520 0.04850
C14 C 0.6500(4) 0.1283(4) 0.18719(7)
H6 H 0.73590 0.20700 0.18030
C15 C 0.8791(4) 0.0487(3) 0.12629(6)
H7 H 0.94940 0.08830 0.14460
C16 C 0.4858(5) -0.1114(4) 0.17701(7)
H8 H 0.45800 -0.19900 0.16300
C17 C 0.3995(5) -0.0985(5) 0.20804(7)
H9 H 0.31400 -0.17690 0.21520
C18 C 0.5634(5) 0.1411(4) 0.21829(7)
H10 H 0.59110 0.22790 0.23250
C19 C 0.4382(5) 0.0291(4) 0.22853(8)
H11 H 0.37810 0.03910 0.24970
C1D C 1.3987(4) 0.0705(3) -0.10506(6)
H1D H 1.51940 0.11220 -0.10890
C2D C 1.1461(4) 0.0087(3) -0.06645(6)
C3D C 0.8921(4) -0.0593(3) -0.02756(6)
C4D C 1.3596(4) 0.1296(3) -0.01314(6)
H2D H 1.43160 0.17240 0.00460
C5D C 1.1811(4) 0.0643(3) -0.00573(6)
C6D C 1.0731(4) 0.0034(3) -0.03289(6)
C7D C 1.0424(4) -0.0499(3) -0.09407(6)
C8D C 1.2989(4) 0.0090(3) -0.13215(7)
C9D C 1.3259(4) 0.0723(3) -0.07255(6)
C10D C 1.3874(4) -0.0014(4) -0.16591(7)
C11D C 0.8616(4) -0.1119(3) -0.08758(7)
H3D H 0.78940 -0.15060 -0.10580
C12D C 0.7900(4) -0.1168(3) -0.05595(7)
H4D H 0.66940 -0.15950 -0.05260
C13D C 1.4290(4) 0.1323(3) -0.04473(6)
H5D H 1.54920 0.17520 -0.04850
C14D C 1.3500(4) -0.1283(4) -0.18719(7)
H6D H 1.26410 -0.20700 -0.18030
C15D C 1.1209(4) -0.0487(3) -0.12629(6)
H7D H 1.05060 -0.08830 -0.14460
C16D C 1.5142(5) 0.1114(4) -0.17701(7)
H8D H 1.54200 0.19900 -0.16300
C17D C 1.6005(5) 0.0985(5) -0.20804(7)
H9D H 1.68600 0.17690 -0.21520
C18D C 1.4366(5) -0.1411(4) -0.21829(7)
H10D H 1.40890 -0.22790 -0.23250
C19D C 1.5618(5) -0.0291(4) -0.22853(8)
H11D H 1.62190 -0.03910 -0.24970
loop_
_geom_bond_atom_site_label_1
_geom_bond_atom_site_label_2
_geom_bond_distance
_geom_bond_site_symmetry_1
_geom_bond_site_symmetry_2
C1 H1 0.950 1_555 1_555
C2 C6 1.437 1_555 1_555
C3 C6 1.423 1_555 1_555
C4 H2 0.948 1_555 1_555
C5 C4 1.430 1_555 1_555
C6 C5 1.428 1_555 1_555
C7 C2 1.419 1_555 1_555
C8 C1 1.397 1_555 1_555
C9 C1 1.397 1_555 1_555
C10 C8 1.490 1_555 1_555
C11 C7 1.427 1_555 1_555
H3 C11 0.951 1_555 1_555
C12 C3 1.434 1_555 1_555
H4 C12 0.950 1_555 1_555
C13 C4 1.354 1_555 1_555
H5 C13 0.950 1_555 1_555
C14 C10 1.396 1_555 1_555
H6 C14 0.950 1_555 1_555
C15 C7 1.402 1_555 1_555
H7 C15 0.949 1_555 1_555
C16 C10 1.394 1_555 1_555
H8 C16 0.951 1_555 1_555
C17 C16 1.387 1_555 1_555
H9 C17 0.950 1_555 1_555
C18 C14 1.391 1_555 1_555
H10 C18 0.950 1_555 1_555
C19 C17 1.384 1_555 1_555
H11 C19 0.951 1_555 1_555
C1D H1D 0.950 1_555 1_555
C2D C6D 1.437 1_555 1_555
C3D C5 1.427 1_555 1_555
C4D H2D 0.948 1_555 1_555
C5D C3 1.427 1_555 1_555
C6D C3D 1.423 1_555 1_555
C7D C2D 1.419 1_555 1_555
C8D C1D 1.397 1_555 1_555
C9D C1D 1.397 1_555 1_555
C10D C8D 1.490 1_555 1_555
C11D C7D 1.427 1_555 1_555
H3D C11D 0.951 1_555 1_555
C12D C3D 1.434 1_555 1_555
H4D C12D 0.950 1_555 1_555
C13D C4D 1.354 1_555 1_555
H5D C13D 0.950 1_555 1_555
C14D C10D 1.396 1_555 1_555
H6D C14D 0.950 1_555 1_555
C15D C7D 1.402 1_555 1_555
H7D C15D 0.949 1_555 1_555
C16D C10D 1.394 1_555 1_555
H8D C16D 0.951 1_555 1_555
C17D C16D 1.387 1_555 1_555
H9D C17D 0.950 1_555 1_555
C18D C14D 1.391 1_555 1_555
H10D C18D 0.950 1_555 1_555
C19D C17D 1.384 1_555 1_555
H11D C19D 0.951 1_555 1_555
C2 C9 1.423 1_555 1_555
C8 C15 1.391 1_555 1_555
C9 C13 1.427 1_555 1_555
C11 C12 1.361 1_555 1_555
C18 C19 1.372 1_555 1_555
C2D C9D 1.423 1_555 1_555
C4D C5D 1.430 1_555 1_555
C5D C6D 1.428 1_555 1_555
C8D C15D 1.391 1_555 1_555
C9D C13D 1.427 1_555 1_555
C11D C12D 1.361 1_555 1_555
C18D C19D 1.372 1_555 1_555
#END
