
#######################################################################
#
#                 Cambridge Crystallographic Data Centre
#                                CCDC
#
#######################################################################
#
# If this CIF has been generated from an entry in the Cambridge
# Structural Database, then it will include bibliographic, chemical,
# crystal, experimental, refinement or atomic coordinate data resulting
# from the CCDC's data processing and validation procedures.
#
#######################################################################

data_CSD_CIF_OFABAB
_audit_creation_date 2018-08-28
_audit_creation_method CSD-ConQuest-V1
_database_code_CSD OFABAB
_database_code_depnum_ccdc_archive 'CCDC 1011639'
_chemical_formula_sum 'C40 H26'
_chemical_formula_moiety
;
C40 H26
;
_journal_coden_Cambridge 172
_journal_volume 41
_journal_year 2008
_journal_page_first 7933
_journal_name_full 'Macromolecules '
loop_
_publ_author_name
"S.Kawano"
"Changduk Yang"
"M.Ribas"
"S.Baluschev"
"M.Baumgarten"
"K.Mu llen"
_chemical_name_systematic
;
4,5,9,10-tetraphenylpyrene
;
_cell_volume   1316.340
_exptl_crystal_density_diffrn 1.278
_diffrn_ambient_temperature 293
#These two values have been output from a single CSD field.
_refine_ls_R_factor_gt 0.0247
_refine_ls_wR_factor_gt 0.0247
_symmetry_cell_setting monoclinic
_symmetry_space_group_name_H-M 'P 21/n'
_symmetry_Int_Tables_number 14
loop_
_symmetry_equiv_pos_site_id
_symmetry_equiv_pos_as_xyz
1 x,y,z
2 1/2-x,1/2+y,1/2-z
3 -x,-y,-z
4 -1/2+x,-1/2-y,-1/2+z
_cell_length_a 11.5703(5)
_cell_length_b 7.8358(4)
_cell_length_c 15.4854(6)
_cell_angle_alpha 90
_cell_angle_beta 110.3476(13)
_cell_angle_gamma 90
_cell_formula_units_Z 2
loop_
_atom_type_symbol
_atom_type_radius_bond
C 0.68
H 0.23
loop_
_atom_site_label
_atom_site_type_symbol
_atom_site_fract_x
_atom_site_fract_y
_atom_site_fract_z
C1 C 0.6869(2) 0.3154(3) 0.50972(18)
C2 C 0.8130(2) 0.2388(3) 0.53838(17)
C3 C 0.9012(3) 0.3011(4) 0.50478(18)
C4 C 0.8427(2) 0.1076(4) 0.60184(18)
C5 C 1.0198(3) 0.2325(5) 0.5361(2)
C6 C 1.0479(3) 0.1017(5) 0.5983(2)
C7 C 0.9607(3) 0.0414(4) 0.6324(2)
C8 C 0.5312(2) 0.6761(3) 0.58707(18)
C9 C 0.6690(2) 0.4605(3) 0.56068(18)
C10 C 0.5504(2) 0.5340(3) 0.53743(16)
C11 C 0.3926(2) 0.8990(4) 0.61672(17)
C12 C 0.4098(2) 0.7510(3) 0.56249(17)
C13 C 0.7474(2) 0.6725(4) 0.68063(18)
C14 C 0.7676(2) 0.5339(3) 0.63283(18)
C15 C 0.6323(2) 0.7436(3) 0.65872(16)
C16 C 0.3772(2) 0.8721(4) 0.7009(2)
C17 C 0.3973(3) 1.0661(4) 0.5888(2)
C18 C 0.3660(2) 1.0063(4) 0.7538(2)
C19 C 0.3698(2) 1.1701(4) 0.7260(2)
C20 C 0.3859(3) 1.2019(4) 0.6430(2)
H1 H 0.88060 0.39200 0.46150
H2 H 0.78180 0.06540 0.62450
H3 H 1.08080 0.27440 0.51340
H4 H 1.12780 0.05200 0.61790
H5 H 0.98270 -0.04630 0.67750
H6 H 0.81460 0.71940 0.72950
H7 H 0.84810 0.48780 0.64730
H8 H 0.62010 0.83880 0.69260
H9 H 0.37450 0.75870 0.72180
H10 H 0.40880 1.08670 0.53190
H11 H 0.35530 0.98560 0.81100
H12 H 0.36160 1.26190 0.76350
H13 H 0.38880 1.31570 0.62270
C1B C 0.3131(2) 0.6846(3) 0.49028(18)
C2B C 0.1870(2) 0.7612(3) 0.46162(17)
C3B C 0.0988(3) 0.6989(4) 0.49522(18)
C4B C 0.1573(2) 0.8924(4) 0.39816(18)
C5B C -0.0198(3) 0.7675(5) 0.4639(2)
C6B C -0.0479(3) 0.8983(5) 0.4017(2)
C7B C 0.0393(3) 0.9586(4) 0.3676(2)
C8B C 0.4688(2) 0.3239(3) 0.41293(18)
C9B C 0.3310(2) 0.5395(3) 0.43932(18)
C10B C 0.4496(2) 0.4660(3) 0.46257(16)
C11B C 0.6074(2) 0.1010(4) 0.38328(17)
C12B C 0.5902(2) 0.2490(3) 0.43751(17)
C13B C 0.2526(2) 0.3275(4) 0.31937(18)
C14B C 0.2324(2) 0.4661(3) 0.36717(18)
C15B C 0.3677(2) 0.2564(3) 0.34128(16)
C16B C 0.6228(2) 0.1279(4) 0.2991(2)
C17B C 0.6027(3) -0.0661(4) 0.4112(2)
C18B C 0.6340(2) -0.0063(4) 0.2462(2)
C19B C 0.6302(2) -0.1701(4) 0.2740(2)
C20B C 0.6141(3) -0.2019(4) 0.3570(2)
H1B H 0.11940 0.60800 0.53850
H2B H 0.21820 0.93460 0.37550
H3B H -0.08080 0.72560 0.48660
H4B H -0.12780 0.94800 0.38210
H5B H 0.01730 1.04630 0.32250
H6B H 0.18540 0.28060 0.27050
H7B H 0.15190 0.51220 0.35270
H8B H 0.37990 0.16120 0.30740
H9B H 0.62550 0.24130 0.27820
H10B H 0.59120 -0.08670 0.46810
H11B H 0.64470 0.01440 0.18900
H12B H 0.63840 -0.26190 0.23650
H13B H 0.61120 -0.31570 0.37730
loop_
_geom_bond_atom_site_label_1
_geom_bond_atom_site_label_2
_geom_bond_distance
_geom_bond_site_symmetry_1
_geom_bond_site_symmetry_2
C1 C2 1.495 1_555 1_555
C2 C3 1.386 1_555 1_555
C3 C5 1.394 1_555 1_555
C4 C2 1.381 1_555 1_555
C5 C6 1.366 1_555 1_555
C6 C7 1.375 1_555 1_555
C7 C4 1.381 1_555 1_555
C8 C10 1.414 1_555 1_555
C9 C1 1.439 1_555 1_555
C10 C9 1.414 1_555 1_555
C11 C12 1.485 1_555 1_555
C12 C8 1.446 1_555 1_555
C13 C14 1.379 1_555 1_555
C14 C9 1.412 1_555 1_555
C15 C8 1.406 1_555 1_555
C16 C11 1.392 1_555 1_555
C17 C11 1.386 1_555 1_555
C18 C16 1.367 1_555 1_555
C19 C18 1.359 1_555 1_555
C20 C17 1.390 1_555 1_555
H1 C3 0.950 1_555 1_555
H2 C4 0.949 1_555 1_555
H3 C5 0.950 1_555 1_555
H4 C6 0.950 1_555 1_555
H5 C7 0.949 1_555 1_555
H6 C13 0.950 1_555 1_555
H7 C14 0.950 1_555 1_555
H8 C15 0.950 1_555 1_555
H9 C16 0.950 1_555 1_555
H10 C17 0.950 1_555 1_555
H11 C18 0.950 1_555 1_555
H12 C19 0.950 1_555 1_555
H13 C20 0.950 1_555 1_555
C1B C12 1.379 1_555 1_555
C2B C1B 1.495 1_555 1_555
C3B C2B 1.386 1_555 1_555
C4B C2B 1.381 1_555 1_555
C5B C3B 1.394 1_555 1_555
C6B C5B 1.366 1_555 1_555
C7B C4B 1.381 1_555 1_555
C8B C10B 1.414 1_555 1_555
C9B C1B 1.439 1_555 1_555
C10B C10 1.431 1_555 1_555
C11B C12B 1.485 1_555 1_555
C12B C1 1.379 1_555 1_555
C13B C14B 1.379 1_555 1_555
C14B C9B 1.412 1_555 1_555
C15B C8B 1.406 1_555 1_555
C16B C11B 1.392 1_555 1_555
C17B C11B 1.386 1_555 1_555
C18B C16B 1.367 1_555 1_555
C19B C18B 1.359 1_555 1_555
C20B C17B 1.390 1_555 1_555
H1B C3B 0.950 1_555 1_555
H2B C4B 0.949 1_555 1_555
H3B C5B 0.950 1_555 1_555
H4B C6B 0.950 1_555 1_555
H5B C7B 0.949 1_555 1_555
H6B C13B 0.950 1_555 1_555
H7B C14B 0.950 1_555 1_555
H8B C15B 0.950 1_555 1_555
H9B C16B 0.950 1_555 1_555
H10B C17B 0.950 1_555 1_555
H11B C18B 0.950 1_555 1_555
H12B C19B 0.950 1_555 1_555
H13B C20B 0.950 1_555 1_555
C13 C15 1.373 1_555 1_555
C19 C20 1.384 1_555 1_555
C6B C7B 1.375 1_555 1_555
C8B C12B 1.446 1_555 1_555
C9B C10B 1.414 1_555 1_555
C13B C15B 1.373 1_555 1_555
C19B C20B 1.384 1_555 1_555
#END
