
#######################################################################
#
#                 Cambridge Crystallographic Data Centre
#                                CCDC
#
#######################################################################
#
# If this CIF has been generated from an entry in the Cambridge
# Structural Database, then it will include bibliographic, chemical,
# crystal, experimental, refinement or atomic coordinate data resulting
# from the CCDC's data processing and validation procedures.
#
#######################################################################

data_CSD_CIF_OHCHRY
_audit_creation_date 1971-12-31
_audit_creation_method CSD-ConQuest-V1
_database_code_CSD OHCHRY
_chemical_formula_sum 'C18 H20'
_chemical_formula_moiety
;
C18 H20
;
_journal_coeditor_code "IUCr A02249"
_journal_coden_Cambridge 1
_journal_volume 11
_journal_year 1958
_journal_page_first 325
_journal_name_full 'Acta Crystallogr. '
loop_
_publ_author_name
"W.G.Ferrier"
"J.Iball"
_chemical_name_systematic
;
1,2,3,4,7,8,9,10-Octahydrochrysene
;
_cell_volume    653.186
_exptl_crystal_density_diffrn 1.178
_exptl_special_details
;
Hydrogen atom (D)H2 removed for suspected coordinate error

;
_diffrn_ambient_temperature ?
_diffrn_special_details
;
The study was carried out at room temperature,in the range 283-303K

;
#These two values have been output from a single CSD field.
_refine_ls_R_factor_gt 0.2
_refine_ls_wR_factor_gt 0.2
_symmetry_cell_setting monoclinic
_symmetry_space_group_name_H-M 'P 21/a'
_symmetry_Int_Tables_number 14
loop_
_symmetry_equiv_pos_site_id
_symmetry_equiv_pos_as_xyz
1 x,y,z
2 1/2-x,1/2+y,-z
3 -x,-y,-z
4 -1/2+x,-1/2-y,z
_cell_length_a 10.06(1)
_cell_length_b 7.24(1)
_cell_length_c 9.14(1)
_cell_angle_alpha 90
_cell_angle_beta 101.13(3)
_cell_angle_gamma 90
_cell_formula_units_Z 2
loop_
_atom_type_symbol
_atom_type_radius_bond
C 0.68
H 0.23
loop_
_atom_site_label
_atom_site_type_symbol
_atom_site_fract_x
_atom_site_fract_y
_atom_site_fract_z
C1 C -0.03539 0.08536 0.01138
C2 C -0.10457 0.10622 0.12790
C3 C -0.17545 0.28287 0.14278
C4 C -0.21521 0.31436 0.29650
C5 C -0.28738 0.13923 0.33479
C6 C -0.18817 -0.01492 0.36214
C7 C -0.10855 -0.03660 0.23326
C8 C -0.03211 -0.19627 0.21236
C9 C -0.03499 0.22569 -0.09934
H1 H -0.26173 0.28039 0.06718
H2 H -0.11123 0.38412 0.12921
H3 H -0.27594 0.42403 0.29278
H4 H -0.32594 0.16119 0.42604
H5 H -0.36223 0.10677 0.25000
H6 H -0.12097 0.01257 0.45580
H7 H -0.23837 -0.13218 0.37013
H8 H -0.03091 -0.29544 0.28326
H9 H -0.08419 0.34254 -0.08928
C1B C 0.03539 -0.08536 -0.01138
C9B C 0.03499 -0.22569 0.09934
C8B C 0.03211 0.19627 -0.21236
C2B C 0.10457 -0.10622 -0.12790
H9B H 0.08419 -0.34254 0.08928
C7B C 0.10855 0.03660 -0.23326
H8B H 0.03091 0.29544 -0.28326
C3B C 0.17545 -0.28287 -0.14278
C6B C 0.18817 0.01492 -0.36214
C4B C 0.21521 -0.31436 -0.29650
H1B H 0.26173 -0.28039 -0.06718
H2B H 0.11123 -0.38412 -0.12921
C5B C 0.28738 -0.13923 -0.33479
H6B H 0.12097 -0.01257 -0.45580
H7B H 0.23837 0.13218 -0.37013
H3B H 0.27594 -0.42403 -0.29278
H4B H 0.32594 -0.16119 -0.42604
H5B H 0.36223 -0.10677 -0.25000
loop_
_geom_bond_atom_site_label_1
_geom_bond_atom_site_label_2
_geom_bond_distance
_geom_bond_site_symmetry_1
_geom_bond_site_symmetry_2
C1 C2 1.388 1_555 1_555
C2 C3 1.483 1_555 1_555
C3 C4 1.550 1_555 1_555
C4 C5 1.535 1_555 1_555
C5 C6 1.486 1_555 1_555
C6 C7 1.555 1_555 1_555
C7 C2 1.419 1_555 1_555
C8 C7 1.422 1_555 1_555
C9 C1 1.435 1_555 1_555
H1 C3 1.000 1_555 1_555
H2 C3 1.001 1_555 1_555
H3 C4 0.998 1_555 1_555
H4 C5 0.998 1_555 1_555
H5 C5 0.999 1_555 1_555
H6 C6 1.003 1_555 1_555
H7 C6 0.998 1_555 1_555
H8 C8 0.966 1_555 1_555
H9 C9 0.993 1_555 1_555
C1B C1 1.461 1_555 1_555
C9B C8 1.355 1_555 1_555
C8B C9 1.355 1_555 1_555
C2B C1B 1.388 1_555 1_555
H9B C9B 0.993 1_555 1_555
C7B C8B 1.422 1_555 1_555
H8B C8B 0.966 1_555 1_555
C3B C2B 1.483 1_555 1_555
C6B C7B 1.555 1_555 1_555
C4B C3B 1.550 1_555 1_555
H1B C3B 1.000 1_555 1_555
H2B C3B 1.001 1_555 1_555
C5B C6B 1.486 1_555 1_555
H6B C6B 1.003 1_555 1_555
H7B C6B 0.998 1_555 1_555
H3B C4B 0.998 1_555 1_555
H4B C5B 0.998 1_555 1_555
H5B C5B 0.999 1_555 1_555
C1B C9B 1.435 1_555 1_555
C2B C7B 1.419 1_555 1_555
C4B C5B 1.535 1_555 1_555
#END
