
#######################################################################
#
#                 Cambridge Crystallographic Data Centre
#                                CCDC
#
#######################################################################
#
# If this CIF has been generated from an entry in the Cambridge
# Structural Database, then it will include bibliographic, chemical,
# crystal, experimental, refinement or atomic coordinate data resulting
# from the CCDC's data processing and validation procedures.
#
#######################################################################

data_CSD_CIF_OJOZOD
_audit_creation_date 2011-05-03
_audit_creation_method CSD-ConQuest-V1
_database_code_CSD OJOZOD
_database_code_depnum_ccdc_archive 'CCDC 668280'
_chemical_formula_sum 'C34 H24'
_chemical_formula_moiety
;
C34 H24
;
_journal_coden_Cambridge 16
_journal_volume 67
_journal_year 2011
_journal_page_first 689
_journal_name_full 'Tetrahedron '
loop_
_publ_author_name
"C.F.R.A.C.Lima"
"J.E.Rodriguez-Borges"
"L.M.N.B.F.Santos"
_chemical_name_systematic
;
1,8-bis(Biphen-4-yl)naphthalene
;
_cell_volume   2247.862
_exptl_crystal_colour 'colorless'
_exptl_crystal_density_diffrn 1.278
_exptl_crystal_description 'block'
_exptl_crystal_preparation 'sublimation'
_diffrn_ambient_temperature 120
#These two values have been output from a single CSD field.
_refine_ls_R_factor_gt 0.0639
_refine_ls_wR_factor_gt 0.0639
_symmetry_cell_setting monoclinic
_symmetry_space_group_name_H-M 'P 21/n'
_symmetry_Int_Tables_number 14
loop_
_symmetry_equiv_pos_site_id
_symmetry_equiv_pos_as_xyz
1 x,y,z
2 1/2-x,1/2+y,1/2-z
3 -x,-y,-z
4 -1/2+x,-1/2-y,-1/2+z
_cell_length_a 17.03970(17)
_cell_length_b 7.3957(11)
_cell_length_c 17.8518(17)
_cell_angle_alpha 90
_cell_angle_beta 92.312(9)
_cell_angle_gamma 90
_cell_formula_units_Z 4
loop_
_atom_type_symbol
_atom_type_radius_bond
C 0.68
H 0.23
loop_
_atom_site_label
_atom_site_type_symbol
_atom_site_fract_x
_atom_site_fract_y
_atom_site_fract_z
C1 C 0.34531(14) 0.5680(3) 0.41920(13)
C2 C 0.41911(15) 0.6340(3) 0.40437(14)
C3 C 0.43097(16) 0.7731(4) 0.35268(14)
C4 C 0.36766(16) 0.8508(3) 0.31689(14)
C5 C 0.22696(15) 0.8743(3) 0.29056(13)
C6 C 0.15169(17) 0.8201(4) 0.30032(14)
C7 C 0.13739(15) 0.6754(3) 0.34925(13)
C8 C 0.19704(14) 0.5856(3) 0.38811(13)
C9 C 0.27714(14) 0.6441(3) 0.38087(12)
C10 C 0.29048(15) 0.7903(3) 0.32967(13)
C11 C 0.34596(13) 0.4156(3) 0.47477(13)
C12 C 0.37604(14) 0.2479(3) 0.45359(14)
C13 C 0.38381(13) 0.1062(3) 0.50377(13)
C14 C 0.36368(13) 0.1280(3) 0.57837(13)
C15 C 0.33549(13) 0.2965(3) 0.59982(13)
C16 C 0.32608(13) 0.4377(3) 0.54882(13)
C17 C 0.37401(13) -0.0241(3) 0.63281(13)
C18 C 0.43317(14) -0.1524(3) 0.62500(14)
C19 C 0.44331(15) -0.2925(4) 0.67574(14)
C20 C 0.39458(15) -0.3088(4) 0.73544(14)
C21 C 0.33579(14) -0.1824(3) 0.74415(14)
C22 C 0.32590(13) -0.0419(3) 0.69330(13)
C23 C 0.17210(13) 0.4307(3) 0.43487(13)
C24 C 0.12017(13) 0.4583(3) 0.49179(13)
C25 C 0.09647(13) 0.3163(3) 0.53593(13)
C26 C 0.12340(13) 0.1419(3) 0.52461(13)
C27 C 0.17323(13) 0.1121(3) 0.46536(13)
C28 C 0.19625(13) 0.2540(3) 0.42097(13)
C29 C 0.10097(13) -0.0097(3) 0.57399(13)
C30 C 0.02431(14) -0.0271(3) 0.59856(13)
C31 C 0.00520(14) -0.1669(3) 0.64650(13)
C32 C 0.06180(15) -0.2890(3) 0.67157(14)
C33 C 0.13750(15) -0.2729(4) 0.64755(14)
C34 C 0.15682(14) -0.1358(3) 0.59885(13)
H1 H 0.46360 0.58300 0.43030
H2 H 0.48260 0.81250 0.34280
H3 H 0.37530 0.94720 0.28280
H4 H 0.23680 0.97030 0.25680
H5 H 0.10920 0.87920 0.27440
H6 H 0.08470 0.63840 0.35570
H7 H 0.39150 0.23110 0.40350
H8 H 0.40300 -0.00710 0.48740
H9 H 0.32240 0.31520 0.65050
H10 H 0.30590 0.55030 0.56480
H11 H 0.46700 -0.14340 0.58420
H12 H 0.48410 -0.37810 0.66950
H13 H 0.40140 -0.40570 0.77010
H14 H 0.30210 -0.19190 0.78510
H15 H 0.28530 0.04400 0.70000
H16 H 0.10070 0.57650 0.50050
H17 H 0.06110 0.33870 0.57470
H18 H 0.19140 -0.00670 0.45560
H19 H 0.22910 0.23090 0.38030
H20 H -0.01490 0.05710 0.58230
H21 H -0.04720 -0.17860 0.66220
H22 H 0.04870 -0.38310 0.70500
H23 H 0.17660 -0.35660 0.66460
H24 H 0.20890 -0.12750 0.58210
loop_
_geom_bond_atom_site_label_1
_geom_bond_atom_site_label_2
_geom_bond_distance
_geom_bond_site_symmetry_1
_geom_bond_site_symmetry_2
C1 C2 1.384 1_555 1_555
C2 C3 1.402 1_555 1_555
C3 C4 1.359 1_555 1_555
C4 C10 1.416 1_555 1_555
C5 C6 1.362 1_555 1_555
C6 C7 1.409 1_555 1_555
C7 C8 1.378 1_555 1_555
C8 C9 1.443 1_555 1_555
C9 C1 1.439 1_555 1_555
C10 C5 1.409 1_555 1_555
C11 C1 1.501 1_555 1_555
C12 C11 1.400 1_555 1_555
C13 C12 1.382 1_555 1_555
C14 C13 1.398 1_555 1_555
C15 C14 1.395 1_555 1_555
C16 C11 1.387 1_555 1_555
C17 C14 1.492 1_555 1_555
C18 C17 1.395 1_555 1_555
C19 C18 1.382 1_555 1_555
C20 C19 1.382 1_555 1_555
C21 C20 1.384 1_555 1_555
C22 C17 1.388 1_555 1_555
C23 C8 1.489 1_555 1_555
C24 C23 1.389 1_555 1_555
C25 C24 1.383 1_555 1_555
C26 C25 1.387 1_555 1_555
C27 C26 1.400 1_555 1_555
C28 C23 1.395 1_555 1_555
C29 C26 1.486 1_555 1_555
C30 C29 1.401 1_555 1_555
C31 C30 1.389 1_555 1_555
C32 C31 1.382 1_555 1_555
C33 C32 1.381 1_555 1_555
C34 C29 1.392 1_555 1_555
H1 C2 0.950 1_555 1_555
H2 C3 0.950 1_555 1_555
H3 C4 0.950 1_555 1_555
H4 C5 0.951 1_555 1_555
H5 C6 0.950 1_555 1_555
H6 C7 0.950 1_555 1_555
H7 C12 0.950 1_555 1_555
H8 C13 0.950 1_555 1_555
H9 C15 0.951 1_555 1_555
H10 C16 0.949 1_555 1_555
H11 C18 0.949 1_555 1_555
H12 C19 0.950 1_555 1_555
H13 C20 0.951 1_555 1_555
H14 C21 0.950 1_555 1_555
H15 C22 0.950 1_555 1_555
H16 C24 0.950 1_555 1_555
H17 C25 0.950 1_555 1_555
H18 C27 0.950 1_555 1_555
H19 C28 0.950 1_555 1_555
H20 C30 0.950 1_555 1_555
H21 C31 0.951 1_555 1_555
H22 C32 0.949 1_555 1_555
H23 C33 0.950 1_555 1_555
H24 C34 0.950 1_555 1_555
C9 C10 1.440 1_555 1_555
C15 C16 1.390 1_555 1_555
C21 C22 1.386 1_555 1_555
C27 C28 1.381 1_555 1_555
C33 C34 1.384 1_555 1_555
#END
