
#######################################################################
#
#                 Cambridge Crystallographic Data Centre
#                                CCDC
#
#######################################################################
#
# If this CIF has been generated from an entry in the Cambridge
# Structural Database, then it will include bibliographic, chemical,
# crystal, experimental, refinement or atomic coordinate data resulting
# from the CCDC's data processing and validation procedures.
#
#######################################################################

data_CSD_CIF_OVIRER
_audit_creation_date 2011-09-23
_audit_creation_method CSD-ConQuest-V1
_database_code_CSD OVIRER
_database_code_depnum_ccdc_archive 'CCDC 784074'
_chemical_formula_sum 'C34 H22'
_chemical_formula_moiety
;
C34 H22
;
_journal_coden_Cambridge 35
_journal_volume 75
_journal_year 2010
_journal_page_first 6889
_journal_name_full 'J.Org.Chem. '
loop_
_publ_author_name
"O.Songis"
"J.Misek"
"M.B.Schmid"
"A.Kollarovic"
"I.G.Stara"
"D.Saman"
"I.Cisarova"
"I.Stary"
_chemical_name_systematic
;
3,12-Diphenylpentahelicene
;
_cell_volume   2198.693
_exptl_crystal_colour 'colorless'
_exptl_crystal_density_diffrn 1.301
_exptl_crystal_description 'prism'
_diffrn_ambient_temperature 150
#These two values have been output from a single CSD field.
_refine_ls_R_factor_gt 0.0397
_refine_ls_wR_factor_gt 0.0397
_symmetry_cell_setting monoclinic
_symmetry_space_group_name_H-M 'C 2/c'
_symmetry_Int_Tables_number 15
loop_
_symmetry_equiv_pos_site_id
_symmetry_equiv_pos_as_xyz
1 x,y,z
2 -x,y,1/2-z
3 1/2+x,1/2+y,z
4 1/2-x,1/2+y,1/2-z
5 -x,-y,-z
6 x,-y,-1/2+z
7 -1/2-x,-1/2-y,-z
8 -1/2+x,-1/2-y,-1/2+z
_cell_length_a 20.2803(8)
_cell_length_b 9.1154(3)
_cell_length_c 12.4619(5)
_cell_angle_alpha 90
_cell_angle_beta 107.3695(18)
_cell_angle_gamma 90
_cell_formula_units_Z 4
loop_
_atom_type_symbol
_atom_type_radius_bond
C 0.68
H 0.23
loop_
_atom_site_label
_atom_site_type_symbol
_atom_site_fract_x
_atom_site_fract_y
_atom_site_fract_z
C1 C 0.42827(5) -0.05523(11) 0.18165(8)
H1 H 0.44230 -0.06070 0.26140
C2 C 0.39415(5) -0.17206(11) 0.12063(9)
H2 H 0.38470 -0.25580 0.15900
C3 C 0.37263(5) -0.17072(11) 0.00167(9)
C4 C 0.38221(5) -0.04216(11) -0.05040(9)
H3 H 0.36620 -0.03690 -0.13010
C5 C 0.41490(5) 0.08148(11) 0.01057(8)
C6 C 0.41526(6) 0.21803(12) -0.04563(9)
H4 H 0.39910 0.22230 -0.12540
C7 C 0.43840(6) 0.34103(11) 0.01405(9)
H5 H 0.43430 0.43250 -0.02400
C8 C 0.46893(6) 0.33652(11) 0.13314(9)
C9 C 0.48734(6) 0.47039(11) 0.19328(9)
H6 H 0.48180 0.56060 0.15340
C10 C 0.47926(5) 0.20042(11) 0.19130(8)
C11 C 0.44338(5) 0.07351(11) 0.12962(9)
C12 C 0.33958(5) -0.30004(11) -0.06541(8)
C13 C 0.29630(6) -0.39447(12) -0.02904(10)
H7 H 0.28770 -0.37630 0.04070
C14 C 0.26565(6) -0.51443(12) -0.09331(11)
H8 H 0.23630 -0.57740 -0.06740
C15 C 0.27768(6) -0.54281(13) -0.19497(11)
H9 H 0.25700 -0.62540 -0.23860
C16 C 0.32016(6) -0.44980(13) -0.23264(10)
H10 H 0.32830 -0.46820 -0.30270
C17 C 0.35087(6) -0.33008(12) -0.16851(9)
H11 H 0.38000 -0.26740 -0.19500
C1A C 0.57173(5) -0.05523(11) 0.31835(8)
H1A H 0.55770 -0.06070 0.23860
C2A C 0.60585(5) -0.17206(11) 0.37937(9)
H2A H 0.61530 -0.25580 0.34100
C3A C 0.62737(5) -0.17072(11) 0.49833(9)
C4A C 0.61779(5) -0.04216(11) 0.55040(9)
H3A H 0.63380 -0.03690 0.63010
C5A C 0.58510(5) 0.08148(11) 0.48943(8)
C6A C 0.58474(6) 0.21803(12) 0.54563(9)
H4A H 0.60090 0.22230 0.62540
C7A C 0.56160(6) 0.34103(11) 0.48595(9)
H5A H 0.56570 0.43250 0.52400
C8A C 0.53107(6) 0.33652(11) 0.36686(9)
C9A C 0.51266(6) 0.47039(11) 0.30672(9)
H6A H 0.51820 0.56060 0.34660
C10A C 0.52074(5) 0.20042(11) 0.30870(8)
C11A C 0.55662(5) 0.07351(11) 0.37038(9)
C12A C 0.66042(5) -0.30004(11) 0.56541(8)
C13A C 0.70370(6) -0.39447(12) 0.52904(10)
H7A H 0.71230 -0.37630 0.45930
C14A C 0.73435(6) -0.51443(12) 0.59331(11)
H8A H 0.76370 -0.57740 0.56740
C15A C 0.72232(6) -0.54281(13) 0.69497(11)
H9A H 0.74300 -0.62540 0.73860
C16A C 0.67984(6) -0.44980(13) 0.73264(10)
H10A H 0.67170 -0.46820 0.80270
C17A C 0.64913(6) -0.33008(12) 0.66851(9)
H11A H 0.62000 -0.26740 0.69500
loop_
_geom_bond_atom_site_label_1
_geom_bond_atom_site_label_2
_geom_bond_distance
_geom_bond_site_symmetry_1
_geom_bond_site_symmetry_2
C1 H1 0.950 1_555 1_555
C2 C1 1.370 1_555 1_555
H2 C2 0.950 1_555 1_555
C3 C2 1.415 1_555 1_555
C4 C3 1.381 1_555 1_555
H3 C4 0.950 1_555 1_555
C5 C4 1.409 1_555 1_555
C6 C5 1.429 1_555 1_555
H4 C6 0.950 1_555 1_555
C7 C6 1.350 1_555 1_555
H5 C7 0.950 1_555 1_555
C8 C7 1.428 1_555 1_555
C9 C8 1.422 1_555 1_555
H6 C9 0.950 1_555 1_555
C10 C8 1.420 1_555 1_555
C11 C1 1.418 1_555 1_555
C12 C3 1.484 1_555 1_555
C13 C12 1.398 1_555 1_555
H7 C13 0.951 1_555 1_555
C14 C13 1.388 1_555 1_555
H8 C14 0.950 1_555 1_555
C15 C14 1.384 1_555 1_555
H9 C15 0.950 1_555 1_555
C16 C15 1.387 1_555 1_555
H10 C16 0.951 1_555 1_555
C17 C12 1.398 1_555 1_555
H11 C17 0.949 1_555 1_555
C1A H1A 0.950 1_555 1_555
C2A C1A 1.370 1_555 1_555
H2A C2A 0.950 1_555 1_555
C3A C2A 1.415 1_555 1_555
C4A C3A 1.381 1_555 1_555
H3A C4A 0.950 1_555 1_555
C5A C4A 1.409 1_555 1_555
C6A C5A 1.429 1_555 1_555
H4A C6A 0.950 1_555 1_555
C7A C6A 1.350 1_555 1_555
H5A C7A 0.950 1_555 1_555
C8A C7A 1.428 1_555 1_555
C9A C9 1.352 1_555 1_555
H6A C9A 0.950 1_555 1_555
C10A C10 1.454 1_555 1_555
C11A C1A 1.418 1_555 1_555
C12A C3A 1.484 1_555 1_555
C13A C12A 1.398 1_555 1_555
H7A C13A 0.951 1_555 1_555
C14A C13A 1.388 1_555 1_555
H8A C14A 0.950 1_555 1_555
C15A C14A 1.384 1_555 1_555
H9A C15A 0.950 1_555 1_555
C16A C15A 1.387 1_555 1_555
H10A C16A 0.951 1_555 1_555
C17A C12A 1.398 1_555 1_555
H11A C17A 0.949 1_555 1_555
C5 C11 1.424 1_555 1_555
C10 C11 1.458 1_555 1_555
C16 C17 1.386 1_555 1_555
C5A C11A 1.424 1_555 1_555
C8A C9A 1.422 1_555 1_555
C8A C10A 1.420 1_555 1_555
C10A C11A 1.458 1_555 1_555
C16A C17A 1.386 1_555 1_555
#END
