
#######################################################################
#
#                 Cambridge Crystallographic Data Centre
#                                CCDC
#
#######################################################################
#
# If this CIF has been generated from an entry in the Cambridge
# Structural Database, then it will include bibliographic, chemical,
# crystal, experimental, refinement or atomic coordinate data resulting
# from the CCDC's data processing and validation procedures.
#
#######################################################################

data_CSD_CIF_OXIYOK
_audit_creation_date 2011-10-18
_audit_creation_method CSD-ConQuest-V1
_database_code_CSD OXIYOK
_database_code_depnum_ccdc_archive 'CCDC 842726'
_chemical_formula_sum 'C30 H26'
_chemical_formula_moiety
;
C30 H26
;
_journal_coden_Cambridge 1336
_journal_volume 13
_journal_year 2011
_journal_page_first 1634
_journal_name_full 'Org.Lett. '
loop_
_publ_author_name
"T.S.Navale"
"K.Thakur"
"R.Rathmore"
_chemical_name_systematic
;
3,6-Dimethyl-9,10-bis(4-methylphenyl)phenanthrene
;
_cell_volume   2165.443
_exptl_crystal_colour 'colorless'
_exptl_crystal_density_diffrn 1.186
_exptl_crystal_description 'needle'
_diffrn_ambient_temperature 100
#These two values have been output from a single CSD field.
_refine_ls_R_factor_gt 0.055
_refine_ls_wR_factor_gt 0.055
_symmetry_cell_setting monoclinic
_symmetry_space_group_name_H-M 'P 21/n'
_symmetry_Int_Tables_number 14
loop_
_symmetry_equiv_pos_site_id
_symmetry_equiv_pos_as_xyz
1 x,y,z
2 1/2-x,1/2+y,1/2-z
3 -x,-y,-z
4 -1/2+x,-1/2-y,-1/2+z
_cell_length_a 10.9572(11)
_cell_length_b 10.3404(12)
_cell_length_c 19.780(2)
_cell_angle_alpha 90
_cell_angle_beta 104.931(6)
_cell_angle_gamma 90
_cell_formula_units_Z 4
loop_
_atom_type_symbol
_atom_type_radius_bond
C 0.68
H 0.23
loop_
_atom_site_label
_atom_site_type_symbol
_atom_site_fract_x
_atom_site_fract_y
_atom_site_fract_z
C1 C 0.5952(2) 0.3738(2) 0.61274(12)
C2 C 0.5660(2) 0.4894(2) 0.63735(12)
C3 C 0.5122(2) 0.2630(2) 0.60818(12)
C4 C 0.3963(2) 0.2769(2) 0.62757(12)
C5 C 0.3160(2) 0.1684(3) 0.62049(13)
H1 H 0.23800 0.17740 0.63270
C6 C 0.3450(2) 0.0501(3) 0.59683(13)
C7 C 0.4617(2) 0.0381(3) 0.58023(13)
H2 H 0.48520 -0.04320 0.56510
C8 C 0.5418(2) 0.1407(2) 0.58533(13)
H3 H 0.61950 0.12940 0.57320
C9 C 0.2542(3) -0.0616(3) 0.58825(16)
H4 H 0.20130 -0.05180 0.62100
H5 H 0.30170 -0.14270 0.59790
H6 H 0.20060 -0.06280 0.54020
C10 C 0.7117(2) 0.3577(2) 0.58684(13)
C11 C 0.7141(2) 0.4042(2) 0.52123(13)
H7 H 0.64380 0.45150 0.49440
C12 C 0.8171(2) 0.3828(3) 0.49418(13)
H8 H 0.81600 0.41550 0.44920
C13 C 0.9214(2) 0.3146(2) 0.53143(13)
C14 C 0.9202(2) 0.2698(2) 0.59758(14)
H9 H 0.99120 0.22370 0.62460
C15 C 0.8169(2) 0.2914(2) 0.62497(13)
H10 H 0.81860 0.26020 0.67040
C16 C 1.0307(2) 0.2877(3) 0.49994(14)
H11 H 1.00590 0.30830 0.44990
H12 H 1.05390 0.19610 0.50620
H13 H 1.10310 0.34110 0.52330
C17 C 0.4504(2) 0.5050(2) 0.65920(12)
C18 C 0.3646(2) 0.4008(2) 0.65327(12)
C19 C 0.2504(2) 0.4212(3) 0.67175(13)
H14 H 0.19260 0.35130 0.66770
C20 C 0.2191(2) 0.5386(3) 0.69553(13)
C21 C 0.3065(2) 0.6398(3) 0.70320(13)
H15 H 0.28800 0.72070 0.72110
C22 C 0.4186(2) 0.6239(3) 0.68527(13)
H16 H 0.47590 0.69440 0.69050
C23 C 0.0907(2) 0.5587(3) 0.70909(15)
H17 H 0.08500 0.64680 0.72620
H18 H 0.07910 0.49650 0.74430
H19 H 0.02480 0.54560 0.66560
C24 C 0.6516(2) 0.6043(2) 0.64159(13)
C25 C 0.7462(2) 0.6301(2) 0.70178(13)
H20 H 0.75710 0.57460 0.74120
C26 C 0.8250(2) 0.7364(3) 0.70490(13)
H21 H 0.88790 0.75370 0.74690
C27 C 0.8139(2) 0.8178(3) 0.64792(14)
C28 C 0.7188(2) 0.7919(3) 0.58812(14)
H22 H 0.70880 0.84670 0.54850
C29 C 0.6379(2) 0.6874(3) 0.58479(13)
H23 H 0.57260 0.67250 0.54340
C30 C 0.9030(3) 0.9305(3) 0.65151(15)
H24 H 0.99020 0.90110 0.67050
H25 H 0.88330 0.99770 0.68200
H26 H 0.89350 0.96580 0.60450
loop_
_geom_bond_atom_site_label_1
_geom_bond_atom_site_label_2
_geom_bond_distance
_geom_bond_site_symmetry_1
_geom_bond_site_symmetry_2
C1 C2 1.360 1_555 1_555
C2 C17 1.449 1_555 1_555
C3 C1 1.451 1_555 1_555
C4 C3 1.425 1_555 1_555
C5 C4 1.410 1_555 1_555
H1 C5 0.951 1_555 1_555
C6 C5 1.376 1_555 1_555
C7 C6 1.405 1_555 1_555
H2 C7 0.950 1_555 1_555
C8 C3 1.409 1_555 1_555
H3 C8 0.949 1_555 1_555
C9 C6 1.505 1_555 1_555
H4 C9 0.979 1_555 1_555
H5 C9 0.979 1_555 1_555
H6 C9 0.980 1_555 1_555
C10 C1 1.502 1_555 1_555
C11 C10 1.391 1_555 1_555
H7 C11 0.951 1_555 1_555
C12 C11 1.386 1_555 1_555
H8 C12 0.949 1_555 1_555
C13 C12 1.383 1_555 1_555
C14 C13 1.391 1_555 1_555
H9 C14 0.951 1_555 1_555
C15 C10 1.385 1_555 1_555
H10 C15 0.950 1_555 1_555
C16 C13 1.511 1_555 1_555
H11 C16 0.980 1_555 1_555
H12 C16 0.980 1_555 1_555
H13 C16 0.979 1_555 1_555
C17 C18 1.415 1_555 1_555
C18 C4 1.453 1_555 1_555
C19 C18 1.407 1_555 1_555
H14 C19 0.951 1_555 1_555
C20 C19 1.377 1_555 1_555
C21 C20 1.400 1_555 1_555
H15 C21 0.950 1_555 1_555
C22 C17 1.411 1_555 1_555
H16 C22 0.950 1_555 1_555
C23 C20 1.513 1_555 1_555
H17 C23 0.979 1_555 1_555
H18 C23 0.980 1_555 1_555
H19 C23 0.980 1_555 1_555
C24 C2 1.503 1_555 1_555
C25 C24 1.388 1_555 1_555
H20 C25 0.951 1_555 1_555
C26 C25 1.389 1_555 1_555
H21 C26 0.950 1_555 1_555
C27 C26 1.387 1_555 1_555
C28 C27 1.386 1_555 1_555
H22 C28 0.950 1_555 1_555
C29 C24 1.391 1_555 1_555
H23 C29 0.951 1_555 1_555
C30 C27 1.510 1_555 1_555
H24 C30 0.981 1_555 1_555
H25 C30 0.980 1_555 1_555
H26 C30 0.979 1_555 1_555
C7 C8 1.364 1_555 1_555
C14 C15 1.393 1_555 1_555
C21 C22 1.373 1_555 1_555
C28 C29 1.388 1_555 1_555
#END
