
#######################################################################
#
#                 Cambridge Crystallographic Data Centre
#                                CCDC
#
#######################################################################
#
# If this CIF has been generated from an entry in the Cambridge
# Structural Database, then it will include bibliographic, chemical,
# crystal, experimental, refinement or atomic coordinate data resulting
# from the CCDC's data processing and validation procedures.
#
#######################################################################

data_CSD_CIF_OXOVEE
_audit_creation_date 2016-10-19
_audit_creation_method CSD-ConQuest-V1
_database_code_CSD OXOVEE
_database_code_depnum_ccdc_archive 'CCDC 1482702'
_chemical_formula_sum 'C32 H22'
_chemical_formula_moiety
;
C32 H22
;
_journal_coden_Cambridge 1336
_journal_volume 18
_journal_year 2016
_journal_page_first 4876
_journal_name_full 'Org.Lett. '
loop_
_publ_author_name
"S.Kumar"
"Man-Tzu Ho"
"Yu-Tai Tao"
_chemical_name_systematic
;
11-methyl-8-(4-methylphenyl)dibenzo[f,pqr]tetraphene
;
_cell_volume   2032.181
_exptl_crystal_colour 'green'
_exptl_crystal_density_diffrn 1.329
_exptl_crystal_description 'prism'
_diffrn_ambient_temperature 100
#These two values have been output from a single CSD field.
_refine_ls_R_factor_gt 0.0403
_refine_ls_wR_factor_gt 0.0403
_symmetry_cell_setting monoclinic
_symmetry_space_group_name_H-M 'P 21/c'
_symmetry_Int_Tables_number 14
loop_
_symmetry_equiv_pos_site_id
_symmetry_equiv_pos_as_xyz
1 x,y,z
2 -x,1/2+y,1/2-z
3 -x,-y,-z
4 x,-1/2-y,-1/2+z
_cell_length_a 14.4427(5)
_cell_length_b 5.4346(2)
_cell_length_c 26.7077(9)
_cell_angle_alpha 90
_cell_angle_beta 104.207(2)
_cell_angle_gamma 90
_cell_formula_units_Z 4
loop_
_atom_type_symbol
_atom_type_radius_bond
C 0.68
H 0.23
loop_
_atom_site_label
_atom_site_type_symbol
_atom_site_fract_x
_atom_site_fract_y
_atom_site_fract_z
C1 C 0.70287(9) 0.7251(2) 0.65851(5)
C2 C 0.70072(9) 0.5855(2) 0.70383(5)
C3 C 0.62296(10) 0.6029(2) 0.72742(5)
H1 H 0.57050 0.70640 0.71240
C4 C 0.62189(10) 0.4743(3) 0.77119(5)
H2 H 0.56910 0.49170 0.78630
C5 C 0.69745(10) 0.3163(3) 0.79437(5)
C6 C 0.77232(9) 0.2918(3) 0.77136(5)
H3 H 0.82320 0.18360 0.78640
C7 C 0.77615(9) 0.4225(2) 0.72596(5)
C8 C 0.85184(9) 0.3883(2) 0.70029(5)
C9 C 0.92046(9) 0.1964(3) 0.71583(5)
H4 H 0.91640 0.09280 0.74390
C10 C 0.99108(9) 0.1589(3) 0.69154(5)
H5 H 1.03560 0.02950 0.70270
C11 C 0.99976(9) 0.3100(2) 0.64959(5)
C12 C 1.07214(9) 0.2653(3) 0.62389(5)
H6 H 1.11710 0.13710 0.63540
C13 C 1.07789(10) 0.4070(3) 0.58222(5)
H7 H 1.12710 0.37710 0.56500
C14 C 1.01201(10) 0.5944(3) 0.56507(5)
H8 H 1.01730 0.69100 0.53630
C15 C 0.93856(9) 0.6440(2) 0.58896(5)
C16 C 0.86914(9) 0.8402(2) 0.57110(5)
C17 C 0.87528(9) 0.9907(3) 0.52915(5)
H9 H 0.92140 0.95290 0.51030
C18 C 0.81664(10) 1.1908(3) 0.51460(5)
H10 H 0.82050 1.28590 0.48530
C19 C 0.75167(9) 1.2520(2) 0.54326(5)
H11 H 0.71350 1.39560 0.53500
C20 C 0.74270(9) 1.1044(2) 0.58369(5)
H12 H 0.69840 1.14980 0.60310
C21 C 0.79690(9) 0.8881(2) 0.59723(5)
C22 C 0.78354(9) 0.7213(2) 0.63864(5)
C23 C 0.85676(9) 0.5406(2) 0.65827(5)
C24 C 0.93234(9) 0.5017(2) 0.63261(5)
C25 C 0.69476(12) 0.1765(3) 0.84258(6)
H13 H 0.64380 0.24240 0.85710
H14 H 0.75620 0.19380 0.86790
H15 H 0.68250 0.00210 0.83420
C26 C 0.61318(9) 0.8564(2) 0.63259(5)
C27 C 0.58034(9) 1.0615(2) 0.65454(5)
H16 H 0.61410 1.11620 0.68780
C28 C 0.49930(9) 1.1859(2) 0.62853(5)
H17 H 0.47910 1.32730 0.64390
C29 C 0.44659(9) 1.1082(3) 0.58022(5)
C30 C 0.47792(9) 0.8995(3) 0.55898(5)
H18 H 0.44270 0.84140 0.52630
C31 C 0.55962(9) 0.7751(2) 0.58464(5)
H19 H 0.57940 0.63280 0.56940
C32 C 0.35819(10) 1.2447(3) 0.55260(6)
H20 H 0.34300 1.20340 0.51580
H21 H 0.36930 1.42220 0.55690
H22 H 0.30470 1.19750 0.56710
loop_
_geom_bond_atom_site_label_1
_geom_bond_atom_site_label_2
_geom_bond_distance
_geom_bond_site_symmetry_1
_geom_bond_site_symmetry_2
C1 C2 1.435 1_555 1_555
C2 C3 1.419 1_555 1_555
C3 H1 0.950 1_555 1_555
C4 C3 1.365 1_555 1_555
H2 C4 0.951 1_555 1_555
C5 C4 1.407 1_555 1_555
C6 C5 1.375 1_555 1_555
H3 C6 0.950 1_555 1_555
C7 C2 1.416 1_555 1_555
C8 C7 1.438 1_555 1_555
C9 C8 1.428 1_555 1_555
H4 C9 0.951 1_555 1_555
C10 C9 1.352 1_555 1_555
H5 C10 0.950 1_555 1_555
C11 C10 1.419 1_555 1_555
C12 C11 1.405 1_555 1_555
H6 C12 0.951 1_555 1_555
C13 C12 1.373 1_555 1_555
H7 C13 0.951 1_555 1_555
C14 C13 1.392 1_555 1_555
H8 C14 0.949 1_555 1_555
C15 C14 1.392 1_555 1_555
C16 C15 1.461 1_555 1_555
C17 C16 1.407 1_555 1_555
H9 C17 0.951 1_555 1_555
C18 C17 1.375 1_555 1_555
H10 C18 0.951 1_555 1_555
C19 C18 1.389 1_555 1_555
H11 C19 0.950 1_555 1_555
C20 C19 1.377 1_555 1_555
H12 C20 0.950 1_555 1_555
C21 C16 1.414 1_555 1_555
C22 C1 1.394 1_555 1_555
C23 C8 1.410 1_555 1_555
C24 C11 1.422 1_555 1_555
C25 C5 1.504 1_555 1_555
H13 C25 0.980 1_555 1_555
H14 C25 0.979 1_555 1_555
H15 C25 0.980 1_555 1_555
C26 C1 1.492 1_555 1_555
C27 C26 1.396 1_555 1_555
H16 C27 0.950 1_555 1_555
C28 C27 1.382 1_555 1_555
H17 C28 0.950 1_555 1_555
C29 C28 1.393 1_555 1_555
C30 C29 1.392 1_555 1_555
H18 C30 0.950 1_555 1_555
C31 C26 1.395 1_555 1_555
H19 C31 0.950 1_555 1_555
C32 C29 1.504 1_555 1_555
H20 C32 0.979 1_555 1_555
H21 C32 0.980 1_555 1_555
H22 C32 0.980 1_555 1_555
C6 C7 1.418 1_555 1_555
C15 C24 1.420 1_555 1_555
C20 C21 1.409 1_555 1_555
C21 C22 1.479 1_555 1_555
C22 C23 1.444 1_555 1_555
C23 C24 1.440 1_555 1_555
C30 C31 1.386 1_555 1_555
#END
