
#######################################################################
#
#                 Cambridge Crystallographic Data Centre
#                                CCDC
#
#######################################################################
#
# If this CIF has been generated from an entry in the Cambridge
# Structural Database, then it will include bibliographic, chemical,
# crystal, experimental, refinement or atomic coordinate data resulting
# from the CCDC's data processing and validation procedures.
#
#######################################################################

data_CSD_CIF_PERLEN07
_audit_creation_date 2004-11-16
_audit_creation_method CSD-ConQuest-V1
_database_code_CSD PERLEN07
_database_code_depnum_ccdc_archive 'CCDC 215338'
_chemical_formula_sum 'C20 H12'
_chemical_formula_moiety
;
C20 H12
;
_journal_coden_Cambridge 657
_journal_volume 115
_journal_year 2003
_journal_page_first 637
_journal_name_full 'Proc.Indian Acad.Sci.,Chem.Sci. '
loop_
_publ_author_name
"A.Ranganathan"
"G.U.Kulkarni"
_chemical_name_systematic
;
Perylene
;
_cell_volume    596.428
_exptl_crystal_colour 'yellow-orange'
_exptl_crystal_density_diffrn 1.405
_exptl_special_details
;
beta polymorph

;
_exptl_crystal_description 'plate-like'
_exptl_crystal_preparation 'benzene'
_diffrn_ambient_temperature 130
_diffrn_special_details
;
charge density study

;
#These two values have been output from a single CSD field.
_refine_ls_R_factor_gt 0.0709
_refine_ls_wR_factor_gt 0.0709
_symmetry_cell_setting monoclinic
_symmetry_space_group_name_H-M 'P 21/c'
_symmetry_Int_Tables_number 14
loop_
_symmetry_equiv_pos_site_id
_symmetry_equiv_pos_as_xyz
1 x,y,z
2 -x,1/2+y,1/2-z
3 -x,-y,-z
4 x,-1/2-y,-1/2+z
_cell_length_a 9.7450(1)
_cell_length_b 5.8232(1)
_cell_length_c 10.5824(1)
_cell_angle_alpha 90
_cell_angle_beta 96.693(1)
_cell_angle_gamma 90
_cell_formula_units_Z 2
loop_
_atom_type_symbol
_atom_type_radius_bond
C 0.68
H 0.23
loop_
_atom_site_label
_atom_site_type_symbol
_atom_site_fract_x
_atom_site_fract_y
_atom_site_fract_z
C1 C 0.41041(7) 0.32622(12) 0.04361(8)
C2 C 0.55909(7) 0.32837(12) 0.08960(8)
C3 C 0.35512(7) 0.49761(12) -0.04485(7)
C4 C 0.61868(8) 0.16640(13) 0.17516(9)
C5 C 0.21092(7) 0.49541(13) -0.08943(8)
C6 C 0.32168(8) 0.16278(13) 0.08466(9)
C7 C 0.12523(8) 0.32353(14) -0.04511(9)
C8 C 0.15514(8) 0.66545(14) -0.17649(9)
C9 C 0.17985(9) 0.16166(14) 0.04038(9)
C10 C 0.76085(8) 0.16971(14) 0.21897(9)
H1 H 0.8018(14) 0.0351(18) 0.2832(11)
H2 H 0.3615(14) 0.0302(17) 0.1507(11)
H3 H 0.5564(12) 0.0312(16) 0.2096(14)
H4 H 0.0461(4) 0.6618(22) -0.2110(13)
H5 H 0.1162(13) 0.0282(17) 0.0746(14)
H6 H 0.0164(4) 0.3224(21) -0.0805(14)
C3B C 0.64488(7) 0.50239(12) 0.04485(7)
C1B C 0.58959(7) 0.67378(12) -0.04361(8)
C2B C 0.44091(7) 0.67163(12) -0.08960(8)
C10B C 0.23915(8) 0.83029(14) -0.21897(9)
C4B C 0.38132(8) 0.83360(13) -0.17516(9)
H3B H 0.4436(12) 0.9688(16) -0.2096(14)
H1B H 0.1982(14) 0.9649(18) -0.2832(11)
C6B C 0.67832(8) 0.83722(13) -0.08466(9)
C9B C 0.82015(9) 0.83834(14) -0.04038(9)
C7B C 0.87477(8) 0.67647(14) 0.04511(9)
C5B C 0.78908(7) 0.50459(13) 0.08943(8)
C8B C 0.84486(8) 0.33455(14) 0.17649(9)
H4B H 0.9539(4) 0.3382(22) 0.2110(13)
H6B H 0.9836(4) 0.6776(21) 0.0805(14)
H5B H 0.8838(13) 0.9718(17) -0.0746(14)
H2B H 0.6385(14) 0.9698(17) -0.1507(11)
loop_
_geom_bond_atom_site_label_1
_geom_bond_atom_site_label_2
_geom_bond_distance
_geom_bond_site_symmetry_1
_geom_bond_site_symmetry_2
C1 C2 1.474 1_555 1_555
C2 C4 1.387 1_555 1_555
C3 C1 1.430 1_555 1_555
C4 C10 1.409 1_555 1_555
C5 C3 1.429 1_555 1_555
C6 C1 1.389 1_555 1_555
C7 C5 1.418 1_555 1_555
C8 C5 1.417 1_555 1_555
C9 C6 1.407 1_555 1_555
C10 H1 1.083 1_555 1_555
H2 C6 1.083 1_555 1_555
H3 C4 1.083 1_555 1_555
H4 C8 1.083 1_555 1_555
H5 C9 1.083 1_555 1_555
H6 C7 1.083 1_555 1_555
C3B C2 1.429 1_555 1_555
C1B C3B 1.430 1_555 1_555
C2B C3 1.429 1_555 1_555
C10B C8 1.371 1_555 1_555
C4B C2B 1.387 1_555 1_555
H3B C4B 1.083 1_555 1_555
H1B C10B 1.083 1_555 1_555
C6B C1B 1.389 1_555 1_555
C9B C6B 1.407 1_555 1_555
C7B C9B 1.370 1_555 1_555
C5B C3B 1.429 1_555 1_555
C8B C10 1.371 1_555 1_555
H4B C8B 1.083 1_555 1_555
H6B C7B 1.083 1_555 1_555
H5B C9B 1.083 1_555 1_555
H2B C6B 1.083 1_555 1_555
C7 C9 1.370 1_555 1_555
C1B C2B 1.474 1_555 1_555
C10B C4B 1.409 1_555 1_555
C7B C5B 1.418 1_555 1_555
C5B C8B 1.417 1_555 1_555
#END
