
#######################################################################
#
#                 Cambridge Crystallographic Data Centre
#                                CCDC
#
#######################################################################
#
# If this CIF has been generated from an entry in the Cambridge
# Structural Database, then it will include bibliographic, chemical,
# crystal, experimental, refinement or atomic coordinate data resulting
# from the CCDC's data processing and validation procedures.
#
#######################################################################

data_CSD_CIF_PERLEN08
_audit_creation_date 2017-04-26
_audit_creation_method CSD-ConQuest-V1
_database_code_CSD PERLEN08
_database_code_depnum_ccdc_archive 'CCDC 1546182'
_chemical_formula_sum 'C20 H12'
_chemical_formula_moiety
;
C20 H12
;
_journal_coden_Cambridge 1078
_journal_year 2017
_journal_name_full 'CSD Communication(Private Communication) '
loop_
_publ_author_name
"M.Bolte"
_chemical_name_systematic
;
perylene
;
_cell_volume   1217.612
_exptl_crystal_colour 'brown'
_exptl_crystal_density_diffrn 1.376
_exptl_special_details
;
alpha polymorph

;
_exptl_crystal_description 'plate'
_diffrn_ambient_temperature 173
#These two values have been output from a single CSD field.
_refine_ls_R_factor_gt 0.0505
_refine_ls_wR_factor_gt 0.0505
_symmetry_cell_setting monoclinic
_symmetry_space_group_name_H-M 'P 21/c'
_symmetry_Int_Tables_number 14
loop_
_symmetry_equiv_pos_site_id
_symmetry_equiv_pos_as_xyz
1 x,y,z
2 -x,1/2+y,1/2-z
3 -x,-y,-z
4 x,-1/2-y,-1/2+z
_cell_length_a 10.2735(18)
_cell_length_b 10.8005(12)
_cell_length_c 11.1744(16)
_cell_angle_alpha 90
_cell_angle_beta 100.880(12)
_cell_angle_gamma 90
_cell_formula_units_Z 4
loop_
_atom_type_symbol
_atom_type_radius_bond
C 0.68
H 0.23
loop_
_atom_site_label
_atom_site_type_symbol
_atom_site_fract_x
_atom_site_fract_y
_atom_site_fract_z
C1 C 0.2910(3) 0.1766(3) 0.9741(2)
H1 H 0.32938 0.11319 1.02835
C2 C 0.1535(3) 0.1784(3) 0.9349(3)
H2 H 0.10005 0.11742 0.96332
C3 C 0.0959(3) 0.2680(3) 0.8556(3)
H3 H 0.00261 0.26805 0.82796
C4 C 0.1743(3) 0.3603(3) 0.8147(2)
C5 C 0.1147(3) 0.4559(3) 0.7353(2)
H4 H 0.02132 0.45733 0.70848
C6 C 0.1910(3) 0.5451(3) 0.6978(2)
H5 H 0.15046 0.60845 0.64450
C7 C 0.3289(3) 0.5446(3) 0.7367(2)
H6 H 0.37991 0.60831 0.70926
C8 C 0.3933(3) 0.4543(3) 0.8141(2)
C9 C 0.3140(3) 0.3589(3) 0.8542(2)
C10 C 0.3733(3) 0.2642(3) 0.9365(2)
C11 C 0.5824(3) 0.1721(3) 1.0549(2)
H7 H 0.53087 0.10966 1.08375
C12 C 0.7205(3) 0.1702(3) 1.0930(3)
H8 H 0.76086 0.10739 1.14705
C13 C 0.7970(3) 0.2580(3) 1.0527(3)
H9 H 0.89057 0.25538 1.07818
C14 C 0.7389(3) 0.3530(3) 0.9734(2)
C15 C 0.8156(3) 0.4476(3) 0.9328(3)
H10 H 0.90937 0.44597 0.95690
C16 C 0.7571(3) 0.5408(3) 0.8597(3)
H11 H 0.81010 0.60400 0.83407
C17 C 0.6193(3) 0.5437(3) 0.8223(2)
H12 H 0.58024 0.61004 0.77228
C18 C 0.5377(3) 0.4527(3) 0.8560(2)
C19 C 0.5975(3) 0.3551(3) 0.9341(2)
C20 C 0.5189(3) 0.2616(3) 0.9770(2)
loop_
_geom_bond_atom_site_label_1
_geom_bond_atom_site_label_2
_geom_bond_distance
_geom_bond_site_symmetry_1
_geom_bond_site_symmetry_2
C1 H1 0.950 1_555 1_555
C2 C1 1.398 1_555 1_555
H2 C2 0.950 1_555 1_555
C3 C2 1.369 1_555 1_555
H3 C3 0.950 1_555 1_555
C4 C3 1.411 1_555 1_555
C5 C4 1.422 1_555 1_555
H4 C5 0.950 1_555 1_555
C6 C5 1.357 1_555 1_555
H5 C6 0.950 1_555 1_555
C7 C6 1.401 1_555 1_555
H6 C7 0.950 1_555 1_555
C8 C7 1.386 1_555 1_555
C9 C4 1.420 1_555 1_555
C10 C1 1.386 1_555 1_555
C11 H7 0.951 1_555 1_555
C12 C11 1.402 1_555 1_555
H8 C12 0.950 1_555 1_555
C13 C12 1.361 1_555 1_555
H9 C13 0.950 1_555 1_555
C14 C13 1.412 1_555 1_555
C15 C14 1.416 1_555 1_555
H10 C15 0.950 1_555 1_555
C16 C15 1.362 1_555 1_555
H11 C16 0.950 1_555 1_555
C17 C16 1.399 1_555 1_555
H12 C17 0.950 1_555 1_555
C18 C8 1.469 1_555 1_555
C19 C14 1.436 1_555 1_555
C20 C10 1.479 1_555 1_555
C8 C9 1.437 1_555 1_555
C9 C10 1.432 1_555 1_555
C11 C20 1.380 1_555 1_555
C17 C18 1.389 1_555 1_555
C18 C19 1.431 1_555 1_555
C19 C20 1.431 1_555 1_555
#END
