
#######################################################################
#
#                 Cambridge Crystallographic Data Centre
#                                CCDC
#
#######################################################################
#
# If this CIF has been generated from an entry in the Cambridge
# Structural Database, then it will include bibliographic, chemical,
# crystal, experimental, refinement or atomic coordinate data resulting
# from the CCDC's data processing and validation procedures.
#
#######################################################################

data_CSD_CIF_PERLEN01
_audit_creation_date 1971-12-31
_audit_creation_method CSD-ConQuest-V1
_database_code_CSD PERLEN01
_database_code_depnum_ccdc_archive 'CCDC 1231185'
_chemical_formula_sum 'C20 H12'
_chemical_formula_moiety
;
C20 H12
;
_journal_coden_Cambridge 14
_journal_volume 279
_journal_year 1964
_journal_page_first 129
_journal_name_full 'Proc.R.Soc.London,Ser.A '
loop_
_publ_author_name
"A.Camerman"
"J.Trotter"
_chemical_name_systematic
;
Perylene
;
_cell_volume   1231.776
_exptl_special_details
;
alpha polymorph

;
_diffrn_ambient_temperature ?
_diffrn_special_details
;
The study was carried out at room temperature,in the range 283-303K

;
#These two values have been output from a single CSD field.
_refine_ls_R_factor_gt 0.081
_refine_ls_wR_factor_gt 0.081
_symmetry_cell_setting monoclinic
_symmetry_space_group_name_H-M 'P 21/a'
_symmetry_Int_Tables_number 14
loop_
_symmetry_equiv_pos_site_id
_symmetry_equiv_pos_as_xyz
1 x,y,z
2 1/2-x,1/2+y,-z
3 -x,-y,-z
4 -1/2+x,-1/2-y,z
_cell_length_a 11.277
_cell_length_b 10.826
_cell_length_c 10.263
_cell_angle_alpha 90
_cell_angle_beta 100.55
_cell_angle_gamma 90
_cell_formula_units_Z 4
loop_
_atom_type_symbol
_atom_type_radius_bond
C 0.68
H 0.20
loop_
_atom_site_label
_atom_site_type_symbol
_atom_site_fract_x
_atom_site_fract_y
_atom_site_fract_z
C1 C 0.26240 -0.04740 0.38160
C2 C 0.18570 -0.04660 0.10500
C3 C -0.05170 -0.23870 -0.29590
C4 C -0.09230 -0.32740 -0.21980
C5 C -0.05470 -0.32850 -0.07980
C6 C 0.02600 -0.32320 0.20570
C7 C 0.06640 -0.32170 0.34500
C8 C 0.14510 -0.23190 0.40210
C9 C 0.18410 -0.14190 0.32390
C10 C 0.14520 -0.14040 0.18420
C11 C 0.06520 -0.23530 0.12510
C12 C 0.30050 0.04320 0.30700
C13 C 0.02540 -0.23660 -0.02040
C14 C 0.26360 0.04470 0.16830
C15 C 0.17960 0.04280 -0.11850
C16 C 0.14170 0.03860 -0.25820
C17 C 0.06680 -0.05300 -0.31750
C18 C 0.02660 -0.14560 -0.23980
C19 C 0.06510 -0.14520 -0.09960
C20 C 0.14460 -0.04930 -0.03860
H1 H 0.29000 -0.04600 0.49300
H2 H -0.07800 -0.23600 -0.40200
H3 H -0.15300 -0.40000 -0.26600
H4 H -0.08600 -0.40000 -0.01600
H5 H -0.03700 -0.39300 0.16100
H6 H 0.03300 -0.39900 0.41200
H7 H 0.17900 -0.23200 0.51200
H8 H 0.35800 0.11400 0.36700
H9 H 0.29700 0.12000 0.10800
H10 H 0.24300 0.11400 -0.07000
H11 H 0.17300 0.11100 -0.32500
H12 H 0.03800 -0.06300 -0.42300
loop_
_geom_bond_atom_site_label_1
_geom_bond_atom_site_label_2
_geom_bond_distance
_geom_bond_site_symmetry_1
_geom_bond_site_symmetry_2
C1 C9 1.409 1_555 1_555
C2 C10 1.427 1_555 1_555
C3 C4 1.368 1_555 1_555
C4 C5 1.422 1_555 1_555
C5 C13 1.406 1_555 1_555
C6 C7 1.419 1_555 1_555
C7 C8 1.373 1_555 1_555
C8 C9 1.384 1_555 1_555
C9 C10 1.421 1_555 1_555
C10 C11 1.427 1_555 1_555
C11 C6 1.385 1_555 1_555
C12 C1 1.361 1_555 1_555
C13 C11 1.479 1_555 1_555
C14 C2 1.401 1_555 1_555
C15 C16 1.420 1_555 1_555
C16 C17 1.371 1_555 1_555
C17 C18 1.407 1_555 1_555
C18 C3 1.393 1_555 1_555
C19 C13 1.405 1_555 1_555
C20 C2 1.462 1_555 1_555
H1 C1 1.129 1_555 1_555
H2 C3 1.075 1_555 1_555
H3 C4 1.092 1_555 1_555
H4 C5 1.112 1_555 1_555
H5 C6 1.080 1_555 1_555
H6 C7 1.187 1_555 1_555
H7 C8 1.123 1_555 1_555
H8 C12 1.114 1_555 1_555
H9 C14 1.129 1_555 1_555
H10 C15 1.106 1_555 1_555
H11 C16 1.139 1_555 1_555
H12 C17 1.077 1_555 1_555
C12 C14 1.408 1_555 1_555
C15 C20 1.393 1_555 1_555
C18 C19 1.425 1_555 1_555
C19 C20 1.438 1_555 1_555
#END
