
#######################################################################
#
#                 Cambridge Crystallographic Data Centre
#                                CCDC
#
#######################################################################
#
# If this CIF has been generated from an entry in the Cambridge
# Structural Database, then it will include bibliographic, chemical,
# crystal, experimental, refinement or atomic coordinate data resulting
# from the CCDC's data processing and validation procedures.
#
#######################################################################

data_CSD_CIF_PEZPOA
_audit_creation_date 2007-07-19
_audit_creation_method CSD-ConQuest-V1
_database_code_CSD PEZPOA
_database_code_depnum_ccdc_archive 'CCDC 614433'
_chemical_formula_sum 'C32 H20'
_chemical_formula_moiety
;
C32 H20
;
_journal_coden_Cambridge 1088
_journal_year 2007
_journal_page_first 897
_journal_name_full 'Synlett '
loop_
_publ_author_name
"G.Dyker"
"K.Merz"
"I.M.Oppel"
"E.Muth"
_chemical_name_systematic
;
2H-spiro(acenaphthylene-1,13'-dibenzo[a,i]fluorene)
;
_chemical_melting_point 491.15
_cell_volume   4465.321
_exptl_crystal_colour 'yellow'
_exptl_crystal_density_diffrn 1.203
_exptl_crystal_description 'prism'
_diffrn_ambient_temperature 293
#These two values have been output from a single CSD field.
_refine_ls_R_factor_gt 0.1283
_refine_ls_wR_factor_gt 0.1283
_symmetry_cell_setting tetragonal
_symmetry_space_group_name_H-M 'I -4'
_symmetry_Int_Tables_number 82
loop_
_symmetry_equiv_pos_site_id
_symmetry_equiv_pos_as_xyz
1 x,y,z
2 -x,-y,z
3 y,-x,-z
4 -y,x,-z
5 1/2+x,1/2+y,1/2+z
6 1/2-x,1/2-y,1/2+z
7 1/2+y,1/2-x,1/2-z
8 1/2-y,1/2+x,1/2-z
_cell_length_a 20.673(2)
_cell_length_b 20.673(2)
_cell_length_c 10.4483(14)
_cell_angle_alpha 90
_cell_angle_beta 90
_cell_angle_gamma 90
_cell_formula_units_Z 8
loop_
_atom_type_symbol
_atom_type_radius_bond
C 0.68
H 0.23
loop_
_atom_site_label
_atom_site_type_symbol
_atom_site_fract_x
_atom_site_fract_y
_atom_site_fract_z
C1 C 0.3957(6) 0.2581(6) 0.2896(14)
C2 C 0.3221(6) 0.2343(6) 0.2772(15)
H1 H 0.31960 0.19340 0.23210
H2 H 0.30250 0.22930 0.36100
C3 C 0.2892(6) 0.2868(7) 0.2028(14)
C4 C 0.2283(7) 0.2971(8) 0.1649(18)
H3 H 0.19660 0.26730 0.18730
C5 C 0.2109(10) 0.3512(9) 0.093(2)
H4 H 0.16830 0.35500 0.06500
C6 C 0.2530(9) 0.3980(9) 0.0619(17)
H5 H 0.23970 0.43450 0.01710
C7 C 0.3205(8) 0.3899(8) 0.1010(16)
C8 C 0.370(1) 0.4335(8) 0.0842(17)
H6 H 0.36180 0.47170 0.03980
C9 C 0.4318(10) 0.4223(10) 0.1314(18)
H7 H 0.46460 0.45260 0.11980
C10 C 0.4440(7) 0.3621(7) 0.1996(15)
H8 H 0.48550 0.35260 0.22870
C11 C 0.3967(7) 0.3212(7) 0.2200(14)
C12 C 0.3359(6) 0.3352(6) 0.1706(12)
C13 C 0.3397(8) 0.3445(7) 0.5136(16)
H9 H 0.32350 0.35090 0.43150
C14 C 0.3102(10) 0.3770(8) 0.6153(18)
H10 H 0.27290 0.40160 0.60510
C15 C 0.3431(11) 0.3691(8) 0.7415(17)
H11 H 0.32650 0.39070 0.81240
C16 C 0.3960(11) 0.3321(9) 0.7563(17)
H12 H 0.41510 0.32860 0.83660
C17 C 0.4223(8) 0.2990(7) 0.6534(16)
C18 C 0.4771(9) 0.2586(8) 0.6685(16)
H13 H 0.49730 0.25660 0.74790
C19 C 0.5011(8) 0.2223(8) 0.5697(16)
H14 H 0.53710 0.19600 0.58160
C20 C 0.4713(7) 0.2257(7) 0.4539(13)
C21 C 0.4860(7) 0.1931(7) 0.3403(18)
C22 C 0.5367(6) 0.1456(7) 0.3131(18)
H15 H 0.56600 0.13390 0.37660
C23 C 0.5410(8) 0.1181(7) 0.1922(19)
H16 H 0.57510 0.09020 0.17460
C24 C 0.4953(8) 0.1310(7) 0.0952(17)
C25 C 0.4978(9) 0.0992(9) -0.0198(18)
H17 H 0.52980 0.06840 -0.03400
C26 C 0.4548(10) 0.1122(9) -0.112(2)
H18 H 0.45630 0.08830 -0.18720
C27 C 0.405(1) 0.1629(9) -0.0991(18)
H19 H 0.37690 0.17360 -0.16550
C28 C 0.4029(8) 0.1926(8) 0.0147(18)
H20 H 0.37090 0.22350 0.02820
C29 C 0.4468(7) 0.1795(6) 0.1160(14)
C30 C 0.4436(6) 0.2085(6) 0.2407(16)
C31 C 0.4179(7) 0.2637(7) 0.4315(15)
C32 C 0.3925(7) 0.3027(7) 0.5290(15)
loop_
_geom_bond_atom_site_label_1
_geom_bond_atom_site_label_2
_geom_bond_distance
_geom_bond_site_symmetry_1
_geom_bond_site_symmetry_2
C1 C2 1.604 1_555 1_555
C2 H1 0.969 1_555 1_555
H2 C2 0.970 1_555 1_555
C3 C2 1.498 1_555 1_555
C4 C3 1.337 1_555 1_555
H3 C4 0.929 1_555 1_555
C5 C4 1.394 1_555 1_555
H4 C5 0.931 1_555 1_555
C6 C5 1.341 1_555 1_555
H5 C6 0.930 1_555 1_555
C7 C6 1.464 1_555 1_555
C8 C7 1.375 1_555 1_555
H6 C8 0.931 1_555 1_555
C9 C8 1.389 1_555 1_555
H7 C9 0.931 1_555 1_555
C10 C9 1.456 1_555 1_555
H8 C10 0.931 1_555 1_555
C11 C1 1.494 1_555 1_555
C12 C3 1.431 1_555 1_555
C13 H9 0.930 1_555 1_555
C14 C13 1.397 1_555 1_555
H10 C14 0.930 1_555 1_555
C15 C14 1.493 1_555 1_555
H11 C15 0.931 1_555 1_555
C16 C15 1.343 1_555 1_555
H12 C16 0.930 1_555 1_555
C17 C16 1.386 1_555 1_555
C18 C17 1.416 1_555 1_555
H13 C18 0.930 1_555 1_555
C19 C18 1.369 1_555 1_555
H14 C19 0.930 1_555 1_555
C20 C19 1.360 1_555 1_555
C21 C20 1.398 1_555 1_555
C22 C21 1.464 1_555 1_555
H15 C22 0.930 1_555 1_555
C23 C22 1.388 1_555 1_555
H16 C23 0.929 1_555 1_555
C24 C23 1.411 1_555 1_555
C25 C24 1.371 1_555 1_555
H17 C25 0.930 1_555 1_555
C26 C25 1.338 1_555 1_555
H18 C26 0.929 1_555 1_555
C27 C26 1.475 1_555 1_555
H19 C27 0.932 1_555 1_555
C28 C27 1.339 1_555 1_555
H20 C28 0.930 1_555 1_555
C29 C24 1.435 1_555 1_555
C30 C1 1.514 1_555 1_555
C31 C1 1.556 1_555 1_555
C32 C13 1.401 1_555 1_555
C7 C12 1.382 1_555 1_555
C10 C11 1.310 1_555 1_555
C11 C12 1.389 1_555 1_555
C17 C32 1.440 1_555 1_555
C20 C31 1.375 1_555 1_555
C21 C30 1.397 1_555 1_555
C28 C29 1.420 1_555 1_555
C29 C30 1.436 1_555 1_555
C31 C32 1.401 1_555 1_555
#END
