
#######################################################################
#
#                 Cambridge Crystallographic Data Centre
#                                CCDC
#
#######################################################################
#
# If this CIF has been generated from an entry in the Cambridge
# Structural Database, then it will include bibliographic, chemical,
# crystal, experimental, refinement or atomic coordinate data resulting
# from the CCDC's data processing and validation procedures.
#
#######################################################################

data_CSD_CIF_PHENAN01
_audit_creation_date 1971-12-31
_audit_creation_method CSD-ConQuest-V1
_database_code_CSD PHENAN01
_chemical_formula_sum 'C14 H10'
_chemical_formula_moiety
;
C14 H10
;
_journal_coden_Cambridge 46
_journal_volume 4
_journal_year 1961
_journal_page_first 413
_journal_name_full 'Mol.Phys. '
loop_
_publ_author_name
"R.Mason"
_chemical_name_systematic
;
Phenanthrene
;
_cell_volume    491.632
_exptl_special_details
;
room temperature polymorph

;
_diffrn_ambient_temperature ?
_diffrn_special_details
;
The study was carried out at room temperature,in the range 283-303K

;
#These two values have been output from a single CSD field.
_refine_ls_R_factor_gt 0.12
_refine_ls_wR_factor_gt 0.12
_symmetry_cell_setting monoclinic
_symmetry_space_group_name_H-M 'P 21'
_symmetry_Int_Tables_number 4
loop_
_symmetry_equiv_pos_site_id
_symmetry_equiv_pos_as_xyz
1 x,y,z
2 -x,1/2+y,-z
_cell_length_a 8.57
_cell_length_b 6.11
_cell_length_c 9.47
_cell_angle_alpha 90
_cell_angle_beta 97.5
_cell_angle_gamma 90
_cell_formula_units_Z 2
loop_
_atom_type_symbol
_atom_type_radius_bond
C 0.68
loop_
_atom_site_label
_atom_site_type_symbol
_atom_site_fract_x
_atom_site_fract_y
_atom_site_fract_z
C1 C 0.12100 0.28530 -0.37500
C2 C 0.40130 0.06420 0.10480
C3 C 0.27440 0.43660 0.15160
C4 C 0.46740 0.02900 0.25540
C5 C 0.33300 0.37720 0.31020
C6 C 0.43030 0.20100 0.34200
C7 C 0.20940 0.11950 -0.33230
C8 C 0.08340 0.45860 -0.29040
C9 C 0.27430 0.06000 -0.18840
C10 C 0.15010 0.44780 -0.14910
C11 C 0.24200 0.24400 -0.09320
C12 C 0.11570 0.62600 -0.05790
C13 C 0.29760 0.23810 0.06060
C14 C 0.17630 0.60510 0.10150
loop_
_geom_bond_atom_site_label_1
_geom_bond_atom_site_label_2
_geom_bond_distance
_geom_bond_site_symmetry_1
_geom_bond_site_symmetry_2
C1 C7 1.298 1_555 1_555
C2 C4 1.480 1_555 1_555
C3 C5 1.563 1_555 1_555
C4 C6 1.395 1_555 1_555
C5 C6 1.371 1_555 1_555
C7 C9 1.449 1_555 1_555
C8 C1 1.391 1_555 1_555
C9 C11 1.489 1_555 1_555
C10 C8 1.386 1_555 1_555
C11 C10 1.530 1_555 1_555
C12 C10 1.444 1_555 1_555
C13 C2 1.413 1_555 1_555
C14 C3 1.374 1_555 1_555
C3 C13 1.516 1_555 1_555
C11 C13 1.473 1_555 1_555
C12 C14 1.536 1_555 1_555
#END
