
#######################################################################
#
#                 Cambridge Crystallographic Data Centre
#                                CCDC
#
#######################################################################
#
# If this CIF has been generated from an entry in the Cambridge
# Structural Database, then it will include bibliographic, chemical,
# crystal, experimental, refinement or atomic coordinate data resulting
# from the CCDC's data processing and validation procedures.
#
#######################################################################

data_CSD_CIF_PIFSUV
_audit_creation_date 2018-07-24
_audit_creation_method CSD-ConQuest-V1
_database_code_CSD PIFSUV
_database_code_depnum_ccdc_archive 'CCDC 1826743'
_chemical_formula_sum 'C28 H20'
_chemical_formula_moiety
;
C28 H20
;
_journal_coden_Cambridge 3056
_journal_volume 1
_journal_year 2018
_journal_page_first 38
_journal_name_full 'Communications Chemistry '
loop_
_publ_author_name
"H.Tanaka"
"M.Ikenosako"
"Yuka Kato"
"Michiya Fujiki"
"Y.Inoue"
"T.Mori"
_chemical_name_systematic
;
7,10-dimethylhexahelicene
;
_cell_volume   3646.000
_exptl_crystal_colour 'orange'
_exptl_crystal_density_diffrn 1.299
_exptl_crystal_description 'platelet'
_diffrn_ambient_temperature 123
#These two values have been output from a single CSD field.
_refine_ls_R_factor_gt 0.0371
_refine_ls_wR_factor_gt 0.0371
_symmetry_cell_setting orthorhombic
_symmetry_space_group_name_H-M 'P b c a'
_symmetry_Int_Tables_number 61
loop_
_symmetry_equiv_pos_site_id
_symmetry_equiv_pos_as_xyz
1 x,y,z
2 1/2-x,-y,1/2+z
3 1/2+x,1/2-y,-z
4 -x,1/2+y,1/2-z
5 -x,-y,-z
6 -1/2+x,y,-1/2-z
7 -1/2-x,-1/2+y,z
8 x,-1/2-y,-1/2+z
_cell_length_a 9.88906(18)
_cell_length_b 18.3802(4)
_cell_length_c 20.0591(4)
_cell_angle_alpha 90
_cell_angle_beta 90
_cell_angle_gamma 90
_cell_formula_units_Z 8
loop_
_atom_type_symbol
_atom_type_radius_bond
C 0.68
H 0.23
loop_
_atom_site_label
_atom_site_type_symbol
_atom_site_fract_x
_atom_site_fract_y
_atom_site_fract_z
C1 C 0.88828(11) 0.16505(6) 0.13728(5)
C2 C 0.77777(11) 0.13478(6) 0.17303(5)
C3 C 0.75584(12) 0.15109(6) 0.23894(6)
C4 C 0.84251(13) 0.19868(6) 0.27318(6)
C5 C 0.94530(13) 0.23225(6) 0.23928(6)
C6 C 0.96846(11) 0.21754(6) 0.17091(5)
C7 C 1.06820(12) 0.25734(6) 0.13470(6)
C8 C 1.07895(12) 0.24989(6) 0.06777(6)
C9 C 0.99960(11) 0.19756(6) 0.03209(6)
C10 C 0.91665(11) 0.14819(6) 0.06776(5)
C11 C 1.00179(11) 0.19731(6) -0.03965(6)
C12 C 0.91653(12) 0.15139(6) -0.07203(6)
C13 C 0.84279(11) 0.09618(6) -0.03810(5)
C14 C 0.85674(10) 0.08755(6) 0.03188(5)
C15 C 0.75785(12) 0.04854(6) -0.07491(6)
C16 C 0.69172(12) -0.00820(6) -0.04610(6)
C17 C 0.72070(11) -0.02468(6) 0.02255(6)
C18 C 0.81158(11) 0.01886(6) 0.06009(5)
C19 C 0.65844(12) -0.08676(6) 0.05332(6)
C20 C 0.68860(12) -0.10673(6) 0.11636(6)
C21 C 0.79392(11) -0.07104(6) 0.15215(6)
C22 C 0.86156(11) -0.01078(6) 0.12288(5)
C23 C 0.83604(13) -0.09775(7) 0.21501(6)
C24 C 0.94661(14) -0.06931(7) 0.24652(6)
C25 C 1.02204(13) -0.01429(6) 0.21504(6)
C26 C 0.98038(11) 0.01409(6) 0.15500(6)
C27 C 1.09062(13) 0.24956(7) -0.07735(6)
C28 C 0.59979(14) -0.05617(8) -0.08674(7)
H1 H 0.7142(14) 0.1016(8) 0.1497(6)
H2 H 0.6769(15) 0.1295(8) 0.2620(7)
H3 H 0.8270(15) 0.2106(8) 0.3209(8)
H4 H 1.0075(14) 0.2680(8) 0.2614(7)
H5 H 1.1277(15) 0.2940(8) 0.1596(7)
H6 H 1.1448(13) 0.2816(7) 0.0429(6)
H7 H 0.9087(14) 0.1539(8) -0.1208(7)
H8 H 0.7489(14) 0.0582(8) -0.1231(7)
H9 H 0.5917(15) -0.1141(8) 0.0283(7)
H10 H 0.6447(15) -0.1488(9) 0.1369(7)
H11 H 0.7808(15) -0.1385(9) 0.2341(7)
H12 H 0.9756(15) -0.0868(8) 0.2899(8)
H13 H 1.1070(15) 0.0043(8) 0.2354(7)
H14 H 1.0363(13) 0.0510(7) 0.1330(6)
H15 H 1.0691(16) 0.3023(9) -0.0667(7)
H16 H 1.1868(16) 0.2415(8) -0.0649(7)
H17 H 1.0787(17) 0.2406(9) -0.1265(9)
H18 H 0.5933(16) -0.0385(9) -0.1335(9)
H19 H 0.6344(16) -0.1077(10) -0.0875(8)
H20 H 0.5044(18) -0.0582(9) -0.0680(8)
loop_
_geom_bond_atom_site_label_1
_geom_bond_atom_site_label_2
_geom_bond_distance
_geom_bond_site_symmetry_1
_geom_bond_site_symmetry_2
C1 C2 1.421 1_555 1_555
C2 C3 1.373 1_555 1_555
C3 C4 1.404 1_555 1_555
C4 C5 1.370 1_555 1_555
C5 C6 1.416 1_555 1_555
C6 C1 1.419 1_555 1_555
C7 C6 1.427 1_555 1_555
C8 C7 1.354 1_555 1_555
C9 C8 1.433 1_555 1_555
C10 C1 1.456 1_555 1_555
C11 C9 1.439 1_555 1_555
C12 C11 1.358 1_555 1_555
C13 C12 1.423 1_555 1_555
C14 C10 1.453 1_555 1_555
C15 C13 1.420 1_555 1_555
C16 C15 1.360 1_555 1_555
C17 C16 1.439 1_555 1_555
C18 C14 1.454 1_555 1_555
C19 C17 1.436 1_555 1_555
C20 C19 1.350 1_555 1_555
C21 C20 1.425 1_555 1_555
C22 C18 1.459 1_555 1_555
C23 C21 1.416 1_555 1_555
C24 C23 1.367 1_555 1_555
C25 C24 1.406 1_555 1_555
C26 C22 1.416 1_555 1_555
C27 C11 1.505 1_555 1_555
C28 C16 1.506 1_555 1_555
H1 C2 0.993 1_555 1_555
H2 C3 0.990 1_555 1_555
H3 C4 0.994 1_555 1_555
H4 C5 1.003 1_555 1_555
H5 C7 1.025 1_555 1_555
H6 C8 1.006 1_555 1_555
H7 C12 0.982 1_555 1_555
H8 C15 0.987 1_555 1_555
H9 C19 0.970 1_555 1_555
H10 C20 0.978 1_555 1_555
H11 C23 1.003 1_555 1_555
H12 C24 0.971 1_555 1_555
H13 C25 0.995 1_555 1_555
H14 C26 0.980 1_555 1_555
H15 C27 1.015 1_555 1_555
H16 C27 0.994 1_555 1_555
H17 C27 1.006 1_555 1_555
H18 C28 0.995 1_555 1_555
H19 C28 1.007 1_555 1_555
H20 C28 1.016 1_555 1_555
C9 C10 1.417 1_555 1_555
C13 C14 1.419 1_555 1_555
C17 C18 1.420 1_555 1_555
C21 C22 1.421 1_555 1_555
C25 C26 1.376 1_555 1_555
#END
