
#######################################################################
#
#                 Cambridge Crystallographic Data Centre
#                                CCDC
#
#######################################################################
#
# If this CIF has been generated from an entry in the Cambridge
# Structural Database, then it will include bibliographic, chemical,
# crystal, experimental, refinement or atomic coordinate data resulting
# from the CCDC's data processing and validation procedures.
#
#######################################################################

data_CSD_CIF_POBPIG06
_audit_creation_date 2008-10-16
_audit_creation_method CSD-ConQuest-V1
_database_code_CSD POBPIG06
_database_code_depnum_ccdc_archive 'CCDC 642482'
_chemical_formula_sum 'C32 H16'
_chemical_formula_moiety
;
C32 H16
;
_journal_coden_Cambridge 983
_journal_volume 111
_journal_year 2007
_journal_page_first 18878
_journal_name_full 'J.Phys.Chem.C '
loop_
_publ_author_name
"M.A.Heinrich"
"J.Pflaum"
"A.K.Tripathi"
"W.Frey"
"M.L.Steigerwald"
"T.Siegrist"
_chemical_name_systematic
;
diindeno[1,2,3-cd:1',2',3'-lm]perylene
;
_chemical_name_common
;
di-indenoperylene
;
_cell_volume   1028.948
_exptl_crystal_density_diffrn 1.293
_exptl_special_details
;
beta polymorph
phase transition at 403 K to alpha polymorph

;
_diffrn_ambient_temperature 423
#These two values have been output from a single CSD field.
_refine_ls_R_factor_gt 0.0327
_refine_ls_wR_factor_gt 0.0327
_symmetry_cell_setting monoclinic
_symmetry_space_group_name_H-M 'P 21/a'
_symmetry_Int_Tables_number 14
loop_
_symmetry_equiv_pos_site_id
_symmetry_equiv_pos_as_xyz
1 x,y,z
2 1/2-x,1/2+y,-z
3 -x,-y,-z
4 -1/2+x,-1/2-y,z
_cell_length_a 7.1709(8)
_cell_length_b 8.5496(9)
_cell_length_c 16.7981(18)
_cell_angle_alpha 90
_cell_angle_beta 92.416(11)
_cell_angle_gamma 90
_cell_formula_units_Z 2
loop_
_atom_type_symbol
_atom_type_radius_bond
C 0.68
H 0.23
loop_
_atom_site_label
_atom_site_type_symbol
_atom_site_fract_x
_atom_site_fract_y
_atom_site_fract_z
C1 C 1.2255(8) 0.4855(6) 0.0734(2)
C2 C 1.3881(7) 0.5610(6) 0.0991(3)
C3 C 1.0925(5) 0.4434(4) 0.1272(2)
C4 C 1.4214(4) 0.5949(4) 0.1797(2)
C5 C 1.1226(4) 0.4758(3) 0.20692(18)
C6 C 1.2913(4) 0.5513(3) 0.23360(19)
C7 C 1.0105(4) 0.4488(3) 0.27694(15)
C8 C 1.2879(3) 0.5697(3) 0.32087(17)
C9 C 0.8398(3) 0.3842(3) 0.29062(16)
C10 C 1.1165(3) 0.5060(2) 0.34308(15)
C11 C 1.4051(3) 0.6296(3) 0.38046(18)
C12 C 0.7765(3) 0.3798(2) 0.36934(16)
C13 C 1.0588(3) 0.5023(2) 0.42113(15)
C14 C 1.3501(3) 0.6272(2) 0.46002(16)
C15 C 0.8802(3) 0.4372(2) 0.43523(14)
C16 C 1.1811(3) 0.5654(2) 0.48253(14)
H1 H 1.42910 0.67140 0.49980
H2 H 1.51930 0.67410 0.36690
H3 H 0.76550 0.34520 0.24810
H4 H 0.66080 0.33280 0.37870
H5 H 1.52810 0.64980 0.19840
H6 H 1.47310 0.59450 0.06260
H7 H 1.20840 0.46280 0.02000
H8 H 0.98750 0.38410 0.10960
C1B C 0.7745(8) 0.5145(6) 0.9266(2)
C2B C 0.6119(7) 0.4390(6) 0.9009(3)
C3B C 0.9075(5) 0.5566(4) 0.8728(2)
C4B C 0.5786(4) 0.4051(4) 0.8203(2)
C5B C 0.8774(4) 0.5242(3) 0.79308(18)
C6B C 0.7087(4) 0.4487(3) 0.76640(19)
C7B C 0.9895(4) 0.5512(3) 0.72306(15)
C8B C 0.7121(3) 0.4303(3) 0.67913(17)
C9B C 1.1602(3) 0.6158(3) 0.70938(16)
C10B C 0.8835(3) 0.4940(2) 0.65692(15)
C11B C 0.5949(3) 0.3704(3) 0.61954(18)
C12B C 1.2235(3) 0.6202(2) 0.63066(16)
C13B C 0.9412(3) 0.4977(2) 0.57887(15)
C14B C 0.6499(3) 0.3728(2) 0.53998(16)
C15B C 1.1198(3) 0.5628(2) 0.56477(14)
C16B C 0.8189(3) 0.4346(2) 0.51747(14)
H1B H 0.57090 0.32860 0.50020
H2B H 0.48070 0.32590 0.63310
H3B H 1.23450 0.65480 0.75190
H4B H 1.33920 0.66720 0.62130
H5B H 0.47190 0.35020 0.80160
H6B H 0.52690 0.40550 0.93740
H7B H 0.79160 0.53720 0.98000
H8B H 1.01250 0.61590 0.89040
loop_
_geom_bond_atom_site_label_1
_geom_bond_atom_site_label_2
_geom_bond_distance
_geom_bond_site_symmetry_1
_geom_bond_site_symmetry_2
C1 C2 1.386 1_555 1_555
C2 C4 1.395 1_555 1_555
C3 C1 1.389 1_555 1_555
C4 C6 1.379 1_555 1_555
C5 C3 1.376 1_555 1_555
C6 C5 1.427 1_555 1_555
C7 C5 1.471 1_555 1_555
C8 C6 1.476 1_555 1_555
C9 C7 1.371 1_555 1_555
C10 C7 1.407 1_555 1_555
C11 C8 1.378 1_555 1_555
C12 C9 1.417 1_555 1_555
C13 C10 1.392 1_555 1_555
C14 C11 1.409 1_555 1_555
C15 C12 1.396 1_555 1_555
C16 C13 1.431 1_555 1_555
H1 C14 0.937 1_555 1_555
H2 C11 0.940 1_555 1_555
H3 C9 0.934 1_555 1_555
H4 C12 0.941 1_555 1_555
H5 C4 0.940 1_555 1_555
H6 C2 0.928 1_555 1_555
H7 C1 0.921 1_555 1_555
H8 C3 0.945 1_555 1_555
C1B C2B 1.386 1_555 1_555
C2B C4B 1.395 1_555 1_555
C3B C1B 1.389 1_555 1_555
C4B C6B 1.379 1_555 1_555
C5B C3B 1.376 1_555 1_555
C6B C5B 1.427 1_555 1_555
C7B C5B 1.471 1_555 1_555
C8B C6B 1.476 1_555 1_555
C9B C7B 1.371 1_555 1_555
C10B C7B 1.407 1_555 1_555
C11B C8B 1.378 1_555 1_555
C12B C9B 1.417 1_555 1_555
C13B C10B 1.392 1_555 1_555
C14B C11B 1.409 1_555 1_555
C15B C16 1.467 1_555 1_555
C16B C15 1.467 1_555 1_555
H1B C14B 0.937 1_555 1_555
H2B C11B 0.940 1_555 1_555
H3B C9B 0.934 1_555 1_555
H4B C12B 0.941 1_555 1_555
H5B C4B 0.940 1_555 1_555
H6B C2B 0.928 1_555 1_555
H7B C1B 0.921 1_555 1_555
H8B C3B 0.945 1_555 1_555
C8 C10 1.409 1_555 1_555
C13 C15 1.425 1_555 1_555
C14 C16 1.389 1_555 1_555
C8B C10B 1.409 1_555 1_555
C12B C15B 1.396 1_555 1_555
C13B C15B 1.425 1_555 1_555
C13B C16B 1.431 1_555 1_555
C14B C16B 1.389 1_555 1_555
#END
