
#######################################################################
#
#                 Cambridge Crystallographic Data Centre
#                                CCDC
#
#######################################################################
#
# If this CIF has been generated from an entry in the Cambridge
# Structural Database, then it will include bibliographic, chemical,
# crystal, experimental, refinement or atomic coordinate data resulting
# from the CCDC's data processing and validation procedures.
#
#######################################################################

data_CSD_CIF_PYRCEN
_audit_creation_date 1971-12-31
_audit_creation_method CSD-ConQuest-V1
_database_code_CSD PYRCEN
_chemical_formula_sum 'C14 H12'
_chemical_formula_moiety
;
C14 H12
;
_journal_coeditor_code "IUCr A03215"
_journal_coden_Cambridge 1
_journal_volume 14
_journal_year 1961
_journal_page_first 872
_journal_name_full 'Acta Crystallogr. '
loop_
_publ_author_name
"G.L.Simmons"
"E.C.Lingafelter"
_chemical_name_systematic
;
Pyracene
;
_cell_volume    459.723
_diffrn_ambient_temperature ?
_diffrn_special_details
;
The study was carried out at room temperature,in the range 283-303K

;
#These two values have been output from a single CSD field.
_refine_ls_R_factor_gt 0.06
_refine_ls_wR_factor_gt 0.06
_symmetry_cell_setting monoclinic
_symmetry_space_group_name_H-M 'P 21/n'
_symmetry_Int_Tables_number 14
loop_
_symmetry_equiv_pos_site_id
_symmetry_equiv_pos_as_xyz
1 x,y,z
2 1/2-x,1/2+y,1/2-z
3 -x,-y,-z
4 -1/2+x,-1/2-y,-1/2+z
_cell_length_a 12.56
_cell_length_b 5.03
_cell_length_c 7.32
_cell_angle_alpha 90
_cell_angle_beta 96.23
_cell_angle_gamma 90
_cell_formula_units_Z 2
loop_
_atom_type_symbol
_atom_type_radius_bond
C 0.68
H 0.20
loop_
_atom_site_label
_atom_site_type_symbol
_atom_site_fract_x
_atom_site_fract_y
_atom_site_fract_z
C1 C 0.12280 0.19700 -0.02800
C2 C 0.09800 0.40780 0.27050
C3 C 0.17220 0.40930 0.10730
C4 C 0.14430 0.09600 -0.19600
C5 C 0.07610 -0.10200 -0.29000
C6 C 0.01120 0.19700 0.21740
C7 C 0.03210 0.09080 0.04500
H1 H 0.09480 -0.17620 -0.42060
H2 H 0.21300 0.16660 -0.25720
H3 H 0.06200 0.59980 0.28370
H4 H 0.14400 0.35540 0.39800
H5 H 0.17090 0.60120 0.04250
H6 H 0.25330 0.35820 0.15730
C6B C -0.01120 -0.19700 -0.21740
C5B C -0.07610 0.10200 0.29000
C7B C -0.03210 -0.09080 -0.04500
C2B C -0.09800 -0.40780 -0.27050
C4B C -0.14430 -0.09600 0.19600
H1B H -0.09480 0.17620 0.42060
C1B C -0.12280 -0.19700 0.02800
C3B C -0.17220 -0.40930 -0.10730
H3B H -0.06200 -0.59980 -0.28370
H4B H -0.14400 -0.35540 -0.39800
H2B H -0.21300 -0.16660 0.25720
H5B H -0.17090 -0.60120 -0.04250
H6B H -0.25330 -0.35820 -0.15730
loop_
_geom_bond_atom_site_label_1
_geom_bond_atom_site_label_2
_geom_bond_distance
_geom_bond_site_symmetry_1
_geom_bond_site_symmetry_2
C1 C3 1.540 1_555 1_555
C2 C3 1.593 1_555 1_555
C3 H5 1.075 1_555 1_555
C4 C1 1.384 1_555 1_555
C5 C4 1.439 1_555 1_555
C6 C2 1.540 1_555 1_555
C7 C1 1.414 1_555 1_555
H1 C5 1.076 1_555 1_555
H2 C4 1.075 1_555 1_555
H3 C2 1.075 1_555 1_555
H4 C2 1.076 1_555 1_555
H6 C3 1.075 1_555 1_555
C6B C5 1.356 1_555 1_555
C5B C6 1.356 1_555 1_555
C7B C7 1.343 1_555 1_555
C2B C6B 1.540 1_555 1_555
C4B C5B 1.439 1_555 1_555
H1B C5B 1.076 1_555 1_555
C1B C7B 1.414 1_555 1_555
C3B C2B 1.593 1_555 1_555
H3B C2B 1.075 1_555 1_555
H4B C2B 1.076 1_555 1_555
H2B C4B 1.075 1_555 1_555
H5B C3B 1.075 1_555 1_555
H6B C3B 1.075 1_555 1_555
C6 C7 1.421 1_555 1_555
C6B C7B 1.421 1_555 1_555
C4B C1B 1.384 1_555 1_555
C1B C3B 1.540 1_555 1_555
#END
