
#######################################################################
#
#                 Cambridge Crystallographic Data Centre
#                                CCDC
#
#######################################################################
#
# If this CIF has been generated from an entry in the Cambridge
# Structural Database, then it will include bibliographic, chemical,
# crystal, experimental, refinement or atomic coordinate data resulting
# from the CCDC's data processing and validation procedures.
#
#######################################################################

data_CSD_CIF_PYRENE07
_audit_creation_date 2001-02-05
_audit_creation_method CSD-ConQuest-V1
_database_code_CSD PYRENE07
_database_code_depnum_ccdc_archive 'CCDC 118728'
_chemical_formula_sum 'C16 H10'
_chemical_formula_moiety
;
C16 H10
;
_journal_coden_Cambridge 119
_journal_volume 520
_journal_year 2000
_journal_page_first 29
_journal_name_full 'J.Mol.Struct. '
loop_
_publ_author_name
"C.S.Frampton"
"K.S.Knight"
"N.Shankland"
"K.Shankland"
_chemical_name_systematic
;
Pyrene
;
_cell_volume   1016.278
_exptl_crystal_colour 'colorless'
_exptl_crystal_density_diffrn 1.322
_exptl_special_details
;
polymorph II
phase transition at 110 K

;
_exptl_crystal_description 'prism'
_diffrn_ambient_temperature 93
#These two values have been output from a single CSD field.
_refine_ls_R_factor_gt 0.0515
_refine_ls_wR_factor_gt 0.0515
_symmetry_cell_setting monoclinic
_symmetry_space_group_name_H-M 'P 21/a'
_symmetry_Int_Tables_number 14
loop_
_symmetry_equiv_pos_site_id
_symmetry_equiv_pos_as_xyz
1 x,y,z
2 1/2-x,1/2+y,-z
3 -x,-y,-z
4 -1/2+x,-1/2-y,z
_cell_length_a 12.358(6)
_cell_length_b 10.020(4)
_cell_length_c 8.260(4)
_cell_angle_alpha 90
_cell_angle_beta 96.48(4)
_cell_angle_gamma 90
_cell_formula_units_Z 4
loop_
_atom_type_symbol
_atom_type_radius_bond
C 0.68
H 0.23
loop_
_atom_site_label
_atom_site_type_symbol
_atom_site_fract_x
_atom_site_fract_y
_atom_site_fract_z
C1 C 0.27144(13) -0.0137(2) 0.3851(2)
H1 H 0.31639(13) 0.0182(2) 0.4780(2)
C2 C 0.27380(12) 0.0495(2) 0.2363(2)
H2 H 0.31983(12) 0.1246(2) 0.2284(2)
C3 C 0.20899(11) 0.00362(14) 0.0974(2)
C4 C 0.20947(12) 0.06492(14) -0.0596(2)
H3 H 0.25462(12) 0.14039(14) -0.0705(2)
C5 C 0.14753(12) 0.01798(14) -0.1915(2)
H4 H 0.15060(12) 0.06043(14) -0.2937(2)
C6 C 0.07676(12) -0.09484(14) -0.1818(2)
C7 C 0.01071(12) -0.1457(2) -0.3164(2)
H5 H 0.01219(12) -0.1049(2) -0.4199(2)
C8 C -0.05647(13) -0.2538(2) -0.3016(2)
H6 H -0.10006(13) -0.2869(2) -0.3951(2)
C9 C -0.06114(12) -0.3147(2) -0.1521(2)
H7 H -0.10830(12) -0.3887(2) -0.1437(2)
C10 C 0.00318(12) -0.26810(14) -0.0130(2)
C11 C 0.00039(12) -0.32737(15) 0.1449(2)
H8 H -0.04697(12) -0.40057(15) 0.1566(2)
C12 C 0.06301(12) -0.28170(15) 0.2757(2)
H9 H 0.05884(12) -0.32344(15) 0.3781(2)
C13 C 0.13673(12) -0.17102(14) 0.2663(2)
C14 C 0.20446(13) -0.1225(2) 0.4003(2)
H10 H 0.20451(13) -0.1649(2) 0.5032(2)
C15 C 0.13979(11) -0.10808(14) 0.1120(2)
C16 C 0.07317(11) -0.15734(14) -0.0277(2)
loop_
_geom_bond_atom_site_label_1
_geom_bond_atom_site_label_2
_geom_bond_distance
_geom_bond_site_symmetry_1
_geom_bond_site_symmetry_2
C1 H1 0.950 1_555 1_555
C2 C1 1.386 1_555 1_555
H2 C2 0.950 1_555 1_555
C3 C2 1.401 1_555 1_555
C4 C3 1.436 1_555 1_555
H3 C4 0.950 1_555 1_555
C5 C4 1.344 1_555 1_555
H4 C5 0.950 1_555 1_555
C6 C5 1.437 1_555 1_555
C7 C6 1.399 1_555 1_555
H5 C7 0.950 1_555 1_555
C8 C7 1.379 1_555 1_555
H6 C8 0.950 1_555 1_555
C9 C8 1.384 1_555 1_555
H7 C9 0.950 1_555 1_555
C10 C9 1.401 1_555 1_555
C11 C10 1.437 1_555 1_555
H8 C11 0.950 1_555 1_555
C12 C11 1.337 1_555 1_555
H9 C12 0.950 1_555 1_555
C13 C12 1.443 1_555 1_555
C14 C1 1.383 1_555 1_555
H10 C14 0.950 1_555 1_555
C15 C3 1.422 1_555 1_555
C16 C6 1.424 1_555 1_555
C10 C16 1.421 1_555 1_555
C13 C14 1.397 1_555 1_555
C13 C15 1.426 1_555 1_555
C15 C16 1.428 1_555 1_555
#END
