
#######################################################################
#
#                 Cambridge Crystallographic Data Centre
#                                CCDC
#
#######################################################################
#
# If this CIF has been generated from an entry in the Cambridge
# Structural Database, then it will include bibliographic, chemical,
# crystal, experimental, refinement or atomic coordinate data resulting
# from the CCDC's data processing and validation procedures.
#
#######################################################################

data_CSD_CIF_PYRENE09
_audit_creation_date 2006-11-23
_audit_creation_method CSD-ConQuest-V1
_database_code_CSD PYRENE09
_database_code_depnum_ccdc_archive 'CCDC 624348'
_chemical_formula_sum 'C16 H10'
_chemical_formula_moiety
;
C16 H10
;
_journal_coeditor_code "IUCr BS5035"
_journal_coden_Cambridge 622
_journal_volume 62
_journal_year 2006
_journal_page_first 826
_journal_name_full 'Acta Crystallogr.,Sect.B:Struct.Sci. '
loop_
_publ_author_name
"F.P.A.Fabbiani"
"D.R.Allan"
"S.Parsons"
"C.R.Pulham"
_chemical_name_systematic
;
Pyrene
;
_cell_volume    477.811
_exptl_crystal_colour 'colorless'
_exptl_crystal_density_diffrn 1.406
_exptl_special_details
;
polymorph III

;
_exptl_crystal_description 'block'
_diffrn_ambient_temperature 298
_diffrn_ambient_pressure 500000.0
#These two values have been output from a single CSD field.
_refine_ls_R_factor_gt 0.1336
_refine_ls_wR_factor_gt 0.1336
_symmetry_cell_setting monoclinic
_symmetry_space_group_name_H-M 'P 21/a'
_symmetry_Int_Tables_number 14
loop_
_symmetry_equiv_pos_site_id
_symmetry_equiv_pos_as_xyz
1 x,y,z
2 1/2-x,1/2+y,-z
3 -x,-y,-z
4 -1/2+x,-1/2-y,z
_cell_length_a 15.309(4)
_cell_length_b 3.8375(5)
_cell_length_c 8.3341(16)
_cell_angle_alpha 90
_cell_angle_beta 102.606(19)
_cell_angle_gamma 90
_cell_formula_units_Z 2
loop_
_atom_type_symbol
_atom_type_radius_bond
C 0.68
H 0.23
loop_
_atom_site_label
_atom_site_type_symbol
_atom_site_fract_x
_atom_site_fract_y
_atom_site_fract_z
C1 C 0.6548(6) 0.035(3) 0.8780(7)
H1 H 0.69560 0.04670 0.97840
C2 C 0.6786(4) 0.163(3) 0.7380(8)
H2 H 0.73490 0.26150 0.74560
C3 C 0.6186(4) 0.146(2) 0.5850(6)
C4 C 0.6405(5) 0.272(4) 0.4364(8)
H3 H 0.69750 0.36020 0.43990
C5 C 0.5808(6) 0.266(4) 0.2933(8)
H4 H 0.59720 0.35310 0.20010
C6 C 0.4918(5) 0.127(2) 0.2786(6)
C7 C 0.5712(6) -0.109(2) 0.8703(5)
H5 H 0.55670 -0.19480 0.96560
C8 C 0.5324(4) -0.001(2) 0.5761(5)
C1B C 0.3452(6) -0.035(3) 0.1220(7)
H1B H 0.30440 -0.04670 0.02160
C2B C 0.3214(4) -0.163(3) 0.2620(8)
H2B H 0.26510 -0.26150 0.25440
C3B C 0.3814(4) -0.146(2) 0.4150(6)
C4B C 0.3595(5) -0.272(4) 0.5636(8)
H3B H 0.30250 -0.36020 0.56010
C5B C 0.4192(6) -0.266(4) 0.7067(8)
H4B H 0.40280 -0.35310 0.79990
C6B C 0.5082(5) -0.127(2) 0.7214(6)
C7B C 0.4288(6) 0.109(2) 0.1297(5)
H5B H 0.44330 0.19480 0.03440
C8B C 0.4676(4) 0.001(2) 0.4239(5)
loop_
_geom_bond_atom_site_label_1
_geom_bond_atom_site_label_2
_geom_bond_distance
_geom_bond_site_symmetry_1
_geom_bond_site_symmetry_2
C1 H1 0.930 1_555 1_555
C2 C1 1.386 1_555 1_555
H2 C2 0.931 1_555 1_555
C3 C2 1.401 1_555 1_555
C4 C3 1.436 1_555 1_555
H3 C4 0.930 1_555 1_555
C5 C4 1.335 1_555 1_555
H4 C5 0.929 1_555 1_555
C6 C5 1.443 1_555 1_555
C7 C1 1.383 1_555 1_555
H5 C7 0.930 1_555 1_555
C8 C3 1.422 1_555 1_555
C1B H1B 0.930 1_555 1_555
C2B C1B 1.386 1_555 1_555
H2B C2B 0.931 1_555 1_555
C3B C2B 1.401 1_555 1_555
C4B C3B 1.436 1_555 1_555
H3B C4B 0.930 1_555 1_555
C5B C4B 1.335 1_555 1_555
H4B C5B 0.929 1_555 1_555
C6B C7 1.397 1_555 1_555
C7B C6 1.397 1_555 1_555
H5B C7B 0.930 1_555 1_555
C8B C6 1.426 1_555 1_555
C8 C6B 1.426 1_555 1_555
C8 C8B 1.430 1_555 1_555
C1B C7B 1.383 1_555 1_555
C3B C8B 1.422 1_555 1_555
C5B C6B 1.443 1_555 1_555
#END
