
#######################################################################
#
#                 Cambridge Crystallographic Data Centre
#                                CCDC
#
#######################################################################
#
# If this CIF has been generated from an entry in the Cambridge
# Structural Database, then it will include bibliographic, chemical,
# crystal, experimental, refinement or atomic coordinate data resulting
# from the CCDC's data processing and validation procedures.
#
#######################################################################

data_CSD_CIF_PYRPYR11
_audit_creation_date 2017-07-27
_audit_creation_method CSD-ConQuest-V1
_database_code_CSD PYRPYR11
_database_code_depnum_ccdc_archive 'CCDC 1481423'
_chemical_formula_sum 'C30 H16'
_chemical_formula_moiety
;
C30 H16
;
_journal_coden_Cambridge 1695
_journal_volume 5
_journal_year 2017
_journal_page_first 7935
_journal_name_full 'J.Mater.Chem.C '
loop_
_publ_author_name
"Ding-Chi Huang"
"Chi-Hsien Kuo"
"Man-Tzu Ho"
"Bo-Chao Lin"
"Wei-Tao Peng"
"Ito Chao"
"Chao-Ping Hsu"
"Yu-Tai Tao"
_chemical_name_systematic
;
tetrabenzo[de,hi,mn,qr]tetracene
;
_cell_volume   1758.818
_exptl_crystal_colour 'yellow'
_exptl_crystal_density_diffrn 1.422
_exptl_crystal_description 'plate'
_exptl_crystal_preparation 'Vapour deposition'
_diffrn_ambient_temperature 100
#These two values have been output from a single CSD field.
_refine_ls_R_factor_gt 0.0419
_refine_ls_wR_factor_gt 0.0419
_symmetry_cell_setting monoclinic
_symmetry_space_group_name_H-M 'P 21/n'
_symmetry_Int_Tables_number 14
loop_
_symmetry_equiv_pos_site_id
_symmetry_equiv_pos_as_xyz
1 x,y,z
2 1/2-x,1/2+y,1/2-z
3 -x,-y,-z
4 -1/2+x,-1/2-y,-1/2+z
_cell_length_a 13.1759(3)
_cell_length_b 7.4913(2)
_cell_length_c 18.1519(5)
_cell_angle_alpha 90
_cell_angle_beta 100.990(1)
_cell_angle_gamma 90
_cell_formula_units_Z 4
loop_
_atom_type_symbol
_atom_type_radius_bond
C 0.68
H 0.23
loop_
_atom_site_label
_atom_site_type_symbol
_atom_site_fract_x
_atom_site_fract_y
_atom_site_fract_z
C1 C 0.12890(12) 0.12081(19) 0.36536(8)
H1 H 0.19840 0.08090 0.37850
C2 C 0.06478(12) 0.1063(2) 0.41743(9)
H2 H 0.09120 0.05770 0.46560
C3 C -0.03686(12) 0.1615(2) 0.40009(9)
H3 H -0.07860 0.15850 0.43740
C4 C -0.18433(12) 0.2790(2) 0.30764(9)
H4 H -0.22740 0.27440 0.34400
C5 C -0.22372(12) 0.3391(2) 0.23783(9)
H5 H -0.29340 0.37910 0.22640
C6 C -0.20259(11) 0.4045(2) 0.10803(9)
H6 H -0.27330 0.43770 0.09500
C7 C -0.14004(11) 0.41648(19) 0.05539(9)
H7 H -0.16680 0.46510 0.00730
C8 C -0.03819(11) 0.35798(19) 0.07219(8)
H8 H 0.00350 0.36740 0.03510
C9 C 0.12660(11) 0.12134(19) 0.03308(8)
H9 H 0.05340 0.12230 0.01900
C10 C 0.18474(11) 0.0633(2) -0.01852(8)
H10 H 0.15090 0.02190 -0.06640
C11 C 0.29138(12) 0.0652(2) -0.00067(9)
H11 H 0.33070 0.03220 -0.03730
C12 C 0.45230(11) 0.1173(2) 0.09249(9)
H12 H 0.49280 0.08880 0.05600
C13 C 0.50014(11) 0.1583(2) 0.16297(9)
H13 H 0.57350 0.16120 0.17480
C14 C 0.49079(12) 0.23530(19) 0.29405(9)
H14 H 0.56410 0.23500 0.30730
C15 C 0.43247(12) 0.27291(19) 0.34748(9)
H15 H 0.46610 0.30440 0.39680
C16 C 0.32541(11) 0.26554(19) 0.33054(8)
H16 H 0.28720 0.29160 0.36860
C17 C -0.07867(12) 0.22190(19) 0.32783(9)
C18 C -0.16207(11) 0.34359(19) 0.18067(9)
C19 C -0.01403(11) 0.23219(18) 0.27348(8)
C20 C -0.05713(11) 0.28683(19) 0.19854(8)
C21 C 0.09346(11) 0.19307(18) 0.29373(8)
C22 C 0.00488(11) 0.28532(18) 0.14245(8)
C23 C 0.15903(11) 0.21390(18) 0.23781(8)
C24 C 0.11255(11) 0.22747(18) 0.16228(8)
C25 C 0.27221(11) 0.22045(18) 0.25841(8)
C26 C 0.17250(11) 0.17856(19) 0.10531(8)
C27 C 0.33207(11) 0.19581(18) 0.20184(8)
C28 C 0.28197(11) 0.16412(18) 0.12595(8)
C29 C 0.44203(11) 0.19758(19) 0.22028(9)
C30 C 0.34161(11) 0.11574(19) 0.07134(8)
loop_
_geom_bond_atom_site_label_1
_geom_bond_atom_site_label_2
_geom_bond_distance
_geom_bond_site_symmetry_1
_geom_bond_site_symmetry_2
C1 H1 0.950 1_555 1_555
C2 C1 1.387 1_555 1_555
H2 C2 0.950 1_555 1_555
C3 C2 1.379 1_555 1_555
H3 C3 0.951 1_555 1_555
C4 H4 0.950 1_555 1_555
C5 C4 1.352 1_555 1_555
H5 C5 0.950 1_555 1_555
C6 H6 0.950 1_555 1_555
C7 C6 1.379 1_555 1_555
H7 C7 0.950 1_555 1_555
C8 C7 1.389 1_555 1_555
H8 C8 0.949 1_555 1_555
C9 H9 0.950 1_555 1_555
C10 C9 1.388 1_555 1_555
H10 C10 0.950 1_555 1_555
C11 C10 1.381 1_555 1_555
H11 C11 0.950 1_555 1_555
C12 H12 0.951 1_555 1_555
C13 C12 1.349 1_555 1_555
H13 C13 0.950 1_555 1_555
C14 H14 0.950 1_555 1_555
C15 C14 1.376 1_555 1_555
H15 C15 0.950 1_555 1_555
C16 C15 1.386 1_555 1_555
H16 C16 0.949 1_555 1_555
C17 C3 1.398 1_555 1_555
C18 C5 1.435 1_555 1_555
C19 C17 1.423 1_555 1_555
C20 C18 1.424 1_555 1_555
C21 C1 1.404 1_555 1_555
C22 C8 1.403 1_555 1_555
C23 C21 1.461 1_555 1_555
C24 C22 1.461 1_555 1_555
C25 C16 1.403 1_555 1_555
C26 C9 1.402 1_555 1_555
C27 C25 1.421 1_555 1_555
C28 C26 1.424 1_555 1_555
C29 C13 1.435 1_555 1_555
C30 C11 1.400 1_555 1_555
C4 C17 1.436 1_555 1_555
C6 C18 1.401 1_555 1_555
C12 C30 1.436 1_555 1_555
C14 C29 1.399 1_555 1_555
C19 C20 1.430 1_555 1_555
C19 C21 1.424 1_555 1_555
C20 C22 1.422 1_555 1_555
C23 C24 1.395 1_555 1_555
C23 C25 1.467 1_555 1_555
C24 C26 1.463 1_555 1_555
C27 C28 1.429 1_555 1_555
C27 C29 1.424 1_555 1_555
C28 C30 1.424 1_555 1_555
#END
