
#######################################################################
#
#                 Cambridge Crystallographic Data Centre
#                                CCDC
#
#######################################################################
#
# If this CIF has been generated from an entry in the Cambridge
# Structural Database, then it will include bibliographic, chemical,
# crystal, experimental, refinement or atomic coordinate data resulting
# from the CCDC's data processing and validation procedures.
#
#######################################################################

data_CSD_CIF_QAYJIM
_audit_creation_date 2017-08-31
_audit_creation_method CSD-ConQuest-V1
_database_code_CSD QAYJIM
_database_code_depnum_ccdc_archive 'CCDC 1510133'
_chemical_formula_sum 'C25 H18'
_chemical_formula_moiety
;
C25 H18
;
_journal_coden_Cambridge 1499
_journal_volume 7
_journal_year 2017
_journal_page_first 4242
_journal_name_full 'ACS Catalysis '
loop_
_publ_author_name
"Liu-Zhu Yu"
"Yin-Wei"
"Min Shi"
_chemical_name_systematic
;
3-methyl-7-phenyltetraphene
;
_cell_volume   1677.643
_exptl_crystal_colour 'colorless'
_exptl_crystal_density_diffrn 1.261
_exptl_crystal_description 'prismatic'
_diffrn_ambient_temperature 293
#These two values have been output from a single CSD field.
_refine_ls_R_factor_gt 0.049
_refine_ls_wR_factor_gt 0.049
_symmetry_cell_setting monoclinic
_symmetry_space_group_name_H-M 'P 21/c'
_symmetry_Int_Tables_number 14
loop_
_symmetry_equiv_pos_site_id
_symmetry_equiv_pos_as_xyz
1 x,y,z
2 -x,1/2+y,1/2-z
3 -x,-y,-z
4 x,-1/2-y,-1/2+z
_cell_length_a 13.316(2)
_cell_length_b 20.470(3)
_cell_length_c 6.2779(10)
_cell_angle_alpha 90
_cell_angle_beta 101.369(4)
_cell_angle_gamma 90
_cell_formula_units_Z 4
loop_
_atom_type_symbol
_atom_type_radius_bond
C 0.68
H 0.23
loop_
_atom_site_label
_atom_site_type_symbol
_atom_site_fract_x
_atom_site_fract_y
_atom_site_fract_z
C1 C 0.70827(12) 0.03296(8) 0.1394(3)
C2 C 0.67360(13) -0.01120(9) -0.0333(3)
H1 H 0.60650 -0.02630 -0.05630
C3 C 0.73587(14) -0.03177(9) -0.1652(3)
H2 H 0.71160 -0.06080 -0.27740
C4 C 0.83660(14) -0.00938(9) -0.1329(3)
H3 H 0.87910 -0.02360 -0.22450
C5 C 0.87356(14) 0.03292(8) 0.0306(3)
H4 H 0.94110 0.04700 0.04930
C6 C 0.81106(12) 0.05595(8) 0.1732(3)
C7 C 0.84581(12) 0.10022(8) 0.3450(3)
C8 C 0.77936(12) 0.12111(8) 0.4778(3)
C9 C 0.67637(12) 0.09737(8) 0.4441(3)
C10 C 0.64457(13) 0.05404(8) 0.2760(3)
H5 H 0.57780 0.03830 0.25330
C11 C 0.60855(13) 0.11952(8) 0.5865(3)
C12 C 0.64548(14) 0.16449(8) 0.7530(3)
C13 C 0.74822(14) 0.18776(8) 0.7782(3)
H6 H 0.77190 0.21810 0.88680
C14 C 0.81165(14) 0.16745(8) 0.6511(3)
H7 H 0.87820 0.18360 0.67490
C15 C 0.58071(15) 0.18590(9) 0.8894(3)
H8 H 0.60580 0.21570 0.99890
C16 C 0.48129(16) 0.16455(9) 0.8673(3)
C17 C 0.44655(15) 0.11949(9) 0.7039(3)
H9 H 0.37990 0.10380 0.68650
C18 C 0.50768(14) 0.09764(9) 0.5682(3)
H10 H 0.48160 0.06740 0.46090
C19 C 0.41211(17) 0.18955(10) 1.0131(4)
H11 H 0.44940 0.19120 1.16030
H12 H 0.35450 0.16080 1.00410
H13 H 0.38850 0.23260 0.96740
C20 C 0.95423(13) 0.12304(8) 0.3867(3)
C21 C 0.98810(16) 0.16796(9) 0.2530(3)
H14 H 0.94250 0.18450 0.13380
C22 C 1.08824(17) 0.1886(1) 0.2936(4)
H15 H 1.10960 0.21900 0.20190
C23 C 1.15647(15) 0.16482(10) 0.4670(4)
H16 H 1.22410 0.17900 0.49400
C24 C 1.12473(14) 0.11995(10) 0.6011(3)
H17 H 1.17100 0.10340 0.71930
C25 C 1.02470(13) 0.09941(9) 0.5611(3)
H18 H 1.00390 0.06890 0.65330
loop_
_geom_bond_atom_site_label_1
_geom_bond_atom_site_label_2
_geom_bond_distance
_geom_bond_site_symmetry_1
_geom_bond_site_symmetry_2
C1 C2 1.417 1_555 1_555
C2 H1 0.929 1_555 1_555
C3 C2 1.350 1_555 1_555
H2 C3 0.930 1_555 1_555
C4 C3 1.394 1_555 1_555
H3 C4 0.930 1_555 1_555
C5 C4 1.359 1_555 1_555
H4 C5 0.930 1_555 1_555
C6 C1 1.423 1_555 1_555
C7 C6 1.415 1_555 1_555
C8 C7 1.397 1_555 1_555
C9 C8 1.431 1_555 1_555
C10 C1 1.388 1_555 1_555
H5 C10 0.930 1_555 1_555
C11 C9 1.462 1_555 1_555
C12 C11 1.407 1_555 1_555
C13 C12 1.428 1_555 1_555
H6 C13 0.930 1_555 1_555
C14 C8 1.444 1_555 1_555
H7 C14 0.930 1_555 1_555
C15 C12 1.400 1_555 1_555
H8 C15 0.930 1_555 1_555
C16 C15 1.375 1_555 1_555
C17 C16 1.389 1_555 1_555
H9 C17 0.930 1_555 1_555
C18 C11 1.399 1_555 1_555
H10 C18 0.930 1_555 1_555
C19 C16 1.510 1_555 1_555
H11 C19 0.960 1_555 1_555
H12 C19 0.960 1_555 1_555
H13 C19 0.960 1_555 1_555
C20 C7 1.491 1_555 1_555
C21 C20 1.379 1_555 1_555
H14 C21 0.930 1_555 1_555
C22 C21 1.374 1_555 1_555
H15 C22 0.930 1_555 1_555
C23 C22 1.363 1_555 1_555
H16 C23 0.929 1_555 1_555
C24 C23 1.368 1_555 1_555
H17 C24 0.930 1_555 1_555
C25 C20 1.381 1_555 1_555
H18 C25 0.930 1_555 1_555
C5 C6 1.418 1_555 1_555
C9 C10 1.380 1_555 1_555
C13 C14 1.337 1_555 1_555
C17 C18 1.364 1_555 1_555
C24 C25 1.372 1_555 1_555
#END
