
#######################################################################
#
#                 Cambridge Crystallographic Data Centre
#                                CCDC
#
#######################################################################
#
# If this CIF has been generated from an entry in the Cambridge
# Structural Database, then it will include bibliographic, chemical,
# crystal, experimental, refinement or atomic coordinate data resulting
# from the CCDC's data processing and validation procedures.
#
#######################################################################

data_CSD_CIF_QEFBAE
_audit_creation_date 2004-01-28
_audit_creation_method CSD-ConQuest-V1
_database_code_CSD QEFBAE
_database_code_depnum_ccdc_archive 'CCDC 156308'
_chemical_formula_sum 'C22 H20'
_chemical_formula_moiety
;
C22 H20
;
_journal_coden_Cambridge 8
_journal_volume 118
_journal_year 2003
_journal_page_first 11129
_journal_name_full 'J.Chem.Phys. '
loop_
_publ_author_name
"P.A.Beckmann"
"C.A.Buser"
"K.Gullifer"
"F.B.Mallory"
"C.W.Mallory"
"G.M.Rossi"
"A.L.Rheingold"
_chemical_name_systematic
;
3-t-Butylchrysene
;
_chemical_melting_point 390.35
_cell_volume   1599.939
_exptl_crystal_density_diffrn 1.181
_exptl_special_details
;
Melting point range 390.35-390.95K

;
_exptl_crystal_description 'thin plate'
_exptl_crystal_preparation 'hexanes'
_diffrn_ambient_temperature 173
#These two values have been output from a single CSD field.
_refine_ls_R_factor_gt 0.0999
_refine_ls_wR_factor_gt 0.0999
_symmetry_cell_setting monoclinic
_symmetry_space_group_name_H-M 'P 21/n'
_symmetry_Int_Tables_number 14
loop_
_symmetry_equiv_pos_site_id
_symmetry_equiv_pos_as_xyz
1 x,y,z
2 1/2+x,1/2-y,1/2+z
3 -x,-y,-z
4 -1/2-x,-1/2+y,-1/2-z
_cell_length_a 9.7207(12)
_cell_length_b 6.1898(7)
_cell_length_c 26.791(3)
_cell_angle_alpha 90
_cell_angle_beta 97.011(2)
_cell_angle_gamma 90
_cell_formula_units_Z 4
loop_
_atom_type_symbol
_atom_type_radius_bond
C 0.68
H 0.23
loop_
_atom_site_label
_atom_site_type_symbol
_atom_site_fract_x
_atom_site_fract_y
_atom_site_fract_z
C1 C 0.2092(4) 0.2441(6) 0.14715(14)
H1 H 0.15380 0.12300 0.14960
C2 C 0.1901(4) 0.3672(6) 0.10458(14)
H2 H 0.12120 0.33050 0.07880
C3 C 0.2750(4) 0.5512(6) 0.09932(13)
C4 C 0.3711(4) 0.6074(5) 0.13913(13)
H3 H 0.42530 0.72960 0.13630
C5 C 0.5674(4) 0.7428(5) 0.22748(13)
H4 H 0.55550 0.83280 0.19950
C6 C 0.6576(4) 0.8009(6) 0.26766(13)
H5 H 0.70380 0.93220 0.26700
C7 C 0.7837(4) 0.7238(6) 0.35155(13)
H6 H 0.83190 0.85320 0.35060
C8 C 0.8107(4) 0.5910(6) 0.39222(13)
H7 H 0.87690 0.63010 0.41870
C9 C 0.7383(4) 0.3950(7) 0.39406(14)
H8 H 0.75690 0.30480 0.42180
C10 C 0.6408(4) 0.3361(6) 0.35531(14)
H9 H 0.59330 0.20660 0.35730
C11 C 0.4283(4) 0.2186(6) 0.27060(14)
H10 H 0.44070 0.12890 0.29860
C12 C 0.3335(4) 0.1653(6) 0.23120(14)
H11 H 0.28190 0.03950 0.23280
C13 C 0.3109(4) 0.2960(5) 0.18752(13)
C14 C 0.3908(3) 0.4867(5) 0.18425(13)
C15 C 0.4895(3) 0.5462(5) 0.22693(12)
C16 C 0.5097(4) 0.4112(5) 0.26970(12)
C17 C 0.6106(4) 0.4686(6) 0.31204(13)
C18 C 0.6838(4) 0.6677(5) 0.31088(12)
C19 C 0.2570(4) 0.6718(6) 0.04868(13)
C20 C 0.2789(5) 0.5113(7) 0.00628(14)
H12 H 0.21440 0.39400 0.00650
H13 H 0.37180 0.45610 0.01150
H14 H 0.26400 0.58400 -0.02560
C21 C 0.1091(4) 0.7664(7) 0.03949(16)
H15 H 0.04260 0.65220 0.04020
H16 H 0.09590 0.83620 0.00730
H17 H 0.09680 0.86980 0.06530
C22 C 0.3620(4) 0.8583(6) 0.04728(14)
H18 H 0.45460 0.80170 0.05290
H19 H 0.34900 0.96140 0.07310
H20 H 0.34790 0.92760 0.01500
loop_
_geom_bond_atom_site_label_1
_geom_bond_atom_site_label_2
_geom_bond_distance
_geom_bond_site_symmetry_1
_geom_bond_site_symmetry_2
C1 H1 0.930 1_555 1_555
C2 C1 1.365 1_555 1_555
H2 C2 0.930 1_555 1_555
C3 C2 1.424 1_555 1_555
C4 C3 1.374 1_555 1_555
H3 C4 0.930 1_555 1_555
C5 H4 0.930 1_555 1_555
C6 C5 1.351 1_555 1_555
H5 C6 0.930 1_555 1_555
C7 H6 0.930 1_555 1_555
C8 C7 1.365 1_555 1_555
H7 C8 0.930 1_555 1_555
C9 C8 1.406 1_555 1_555
H8 C9 0.929 1_555 1_555
C10 C9 1.367 1_555 1_555
H9 C10 0.930 1_555 1_555
C11 H10 0.929 1_555 1_555
C12 C11 1.355 1_555 1_555
H11 C12 0.930 1_555 1_555
C13 C1 1.410 1_555 1_555
C14 C4 1.414 1_555 1_555
C15 C5 1.432 1_555 1_555
C16 C11 1.433 1_555 1_555
C17 C10 1.421 1_555 1_555
C18 C6 1.419 1_555 1_555
C19 C3 1.540 1_555 1_555
C20 C19 1.543 1_555 1_555
H12 C20 0.960 1_555 1_555
H13 C20 0.960 1_555 1_555
H14 C20 0.961 1_555 1_555
C21 C19 1.544 1_555 1_555
H15 C21 0.960 1_555 1_555
H16 C21 0.959 1_555 1_555
H17 C21 0.960 1_555 1_555
C22 C19 1.544 1_555 1_555
H18 C22 0.961 1_555 1_555
H19 C22 0.961 1_555 1_555
H20 C22 0.960 1_555 1_555
C7 C18 1.412 1_555 1_555
C12 C13 1.418 1_555 1_555
C13 C14 1.422 1_555 1_555
C14 C15 1.448 1_555 1_555
C15 C16 1.412 1_555 1_555
C16 C17 1.450 1_555 1_555
C17 C18 1.425 1_555 1_555
#END
