
#######################################################################
#
#                 Cambridge Crystallographic Data Centre
#                                CCDC
#
#######################################################################
#
# If this CIF has been generated from an entry in the Cambridge
# Structural Database, then it will include bibliographic, chemical,
# crystal, experimental, refinement or atomic coordinate data resulting
# from the CCDC's data processing and validation procedures.
#
#######################################################################

data_CSD_CIF_QETFOK
_audit_creation_date 2001-05-23
_audit_creation_method CSD-ConQuest-V1
_database_code_CSD QETFOK
_database_code_depnum_ccdc_archive 'CCDC 158742'
_chemical_formula_sum 'C26 H36'
_chemical_formula_moiety
;
C26 H36
;
_journal_coden_Cambridge 35
_journal_volume 65
_journal_year 2000
_journal_page_first 6826
_journal_name_full 'J.Org.Chem. '
loop_
_publ_author_name
"J.K.Kochi"
"R.Rathore"
"P.Le Magueres"
_chemical_name_systematic
;
1,2,3,4,7,8,9,10-Octahydro-1,1,4,4,7,7,10,10-octamethylnaphthacene
;
_cell_volume   1032.855
_exptl_crystal_colour 'colorless'
_exptl_crystal_density_diffrn 1.121
_exptl_crystal_description 'prism'
_exptl_crystal_preparation 'toluene'
_diffrn_ambient_temperature 123
#These two values have been output from a single CSD field.
_refine_ls_R_factor_gt 0.0478
_refine_ls_wR_factor_gt 0.0478
_symmetry_cell_setting monoclinic
_symmetry_space_group_name_H-M 'P 21/n'
_symmetry_Int_Tables_number 14
loop_
_symmetry_equiv_pos_site_id
_symmetry_equiv_pos_as_xyz
1 x,y,z
2 1/2+x,1/2-y,1/2+z
3 -x,-y,-z
4 -1/2-x,-1/2+y,-1/2-z
_cell_length_a 5.8991(1)
_cell_length_b 22.0559(5)
_cell_length_c 8.3897(2)
_cell_angle_alpha 90
_cell_angle_beta 108.880(1)
_cell_angle_gamma 90
_cell_formula_units_Z 2
loop_
_atom_type_symbol
_atom_type_radius_bond
C 0.68
H 0.23
loop_
_atom_site_label
_atom_site_type_symbol
_atom_site_fract_x
_atom_site_fract_y
_atom_site_fract_z
C1 C 0.49443(12) -0.01484(3) 0.92401(8)
C2 C 0.59883(13) 0.01387(3) 0.81373(9)
C3 C 0.71193(12) 0.06949(3) 0.84888(8)
C4 C 0.72366(12) 0.09956(3) 1.00309(9)
C5 C 0.37700(13) -0.07160(3) 0.88843(9)
C6 C 0.81185(13) 0.09859(3) 0.72002(9)
C7 C 1.0068(2) 0.14468(4) 0.80832(11)
C8 C 0.9204(2) 0.18982(4) 0.91270(11)
C9 C 0.85512(13) 0.15989(3) 1.05767(10)
C10 C 0.9245(2) 0.05160(4) 0.63336(11)
C11 C 0.6036(2) 0.12954(4) 0.58396(11)
C12 C 0.7002(2) 0.20499(4) 1.11707(13)
C13 C 1.0856(2) 0.14701(4) 1.20471(11)
H1 H 0.5892(23) -0.0073(5) 0.7076(16)
H2 H 0.3632(22) -0.0908(5) 0.7749(16)
H3 H 1.1526(25) 0.1223(6) 0.8826(18)
H4 H 1.0619(28) 0.1659(7) 0.7194(20)
H5 H 0.7764(26) 0.2113(6) 0.8359(18)
H6 H 1.0484(27) 0.2222(7) 0.9652(19)
H7 H 1.0130(26) 0.0730(7) 0.5621(18)
H8 H 0.7999(26) 0.0224(6) 0.5592(18)
H9 H 1.0451(26) 0.0273(6) 0.7177(18)
H10 H 0.5150(26) 0.1599(7) 0.6358(18)
H11 H 0.4839(27) 0.0975(7) 0.5204(19)
H12 H 0.6663(26) 0.1523(7) 0.5016(18)
H13 H 0.7805(26) 0.2451(7) 1.1383(19)
H14 H 0.6629(26) 0.1908(6) 1.2213(19)
H15 H 0.5447(26) 0.2115(7) 1.0284(18)
H16 H 1.1926(26) 0.1190(7) 1.1701(18)
H17 H 1.0463(26) 0.1287(7) 1.2993(19)
H18 H 1.1751(27) 0.1855(7) 1.2441(19)
C1B C 0.50557(12) 0.01484(3) 1.07599(8)
C2B C 0.40117(13) -0.01387(3) 1.18627(9)
C3B C 0.28807(12) -0.06949(3) 1.15112(8)
C4B C 0.27634(12) -0.09956(3) 0.99691(9)
C5B C 0.62300(13) 0.07160(3) 1.11157(9)
H2B H 0.6368(22) 0.0908(5) 1.2251(16)
C9B C 0.14488(13) -0.15989(3) 0.94233(10)
C8B C 0.0796(2) -0.18982(4) 1.08730(11)
C7B C -0.0068(2) -0.14468(4) 1.19168(11)
C6B C 0.18815(13) -0.09859(3) 1.27998(9)
C10B C 0.0755(2) -0.05160(4) 1.36664(11)
H7B H -0.0130(26) -0.0730(7) 1.4379(18)
H8B H 0.2001(26) -0.0224(6) 1.4408(18)
H9B H -0.0451(26) -0.0273(6) 1.2823(18)
C11B C 0.3964(2) -0.12954(4) 1.41604(11)
H10B H 0.4850(26) -0.1599(7) 1.3642(18)
H11B H 0.5161(27) -0.0975(7) 1.4796(19)
H12B H 0.3337(26) -0.1523(7) 1.4984(18)
H3B H -0.1526(25) -0.1223(6) 1.1174(18)
H4B H -0.0619(28) -0.1659(7) 1.2806(20)
H5B H 0.2236(26) -0.2113(6) 1.1641(18)
H6B H -0.0484(27) -0.2222(7) 1.0348(19)
C12B C 0.2998(2) -0.20499(4) 0.88293(13)
H13B H 0.2195(26) -0.2451(7) 0.8617(19)
H14B H 0.3371(26) -0.1908(6) 0.7787(19)
H15B H 0.4553(26) -0.2115(7) 0.9716(18)
C13B C -0.0856(2) -0.14701(4) 0.79529(11)
H16B H -0.1926(26) -0.1190(7) 0.8299(18)
H17B H -0.0463(26) -0.1287(7) 0.7007(19)
H18B H -0.1751(27) -0.1855(7) 0.7559(19)
H1B H 0.4108(23) 0.0073(5) 1.2924(16)
loop_
_geom_bond_atom_site_label_1
_geom_bond_atom_site_label_2
_geom_bond_distance
_geom_bond_site_symmetry_1
_geom_bond_site_symmetry_2
C1 C2 1.416 1_555 1_555
C2 C3 1.382 1_555 1_555
C3 C4 1.435 1_555 1_555
C4 C9 1.534 1_555 1_555
C5 C1 1.415 1_555 1_555
C6 C3 1.530 1_555 1_555
C7 C6 1.534 1_555 1_555
C8 C7 1.519 1_555 1_555
C9 C8 1.538 1_555 1_555
C10 C6 1.535 1_555 1_555
C11 C6 1.540 1_555 1_555
C12 C9 1.539 1_555 1_555
C13 C9 1.538 1_555 1_555
H1 C2 0.991 1_555 1_555
H2 C5 1.021 1_555 1_555
H3 C7 1.012 1_555 1_555
H4 C7 1.019 1_555 1_555
H5 C8 1.003 1_555 1_555
H6 C8 1.029 1_555 1_555
H7 C10 1.027 1_555 1_555
H8 C10 1.023 1_555 1_555
H9 C10 0.984 1_555 1_555
H10 C11 1.029 1_555 1_555
H11 C11 1.019 1_555 1_555
H12 C11 1.016 1_555 1_555
H13 C12 0.992 1_555 1_555
H14 C12 1.018 1_555 1_555
H15 C12 0.987 1_555 1_555
H16 C13 0.991 1_555 1_555
H17 C13 0.983 1_555 1_555
H18 C13 0.998 1_555 1_555
C1B C1 1.416 1_555 1_555
C2B C1B 1.416 1_555 1_555
C3B C2B 1.382 1_555 1_555
C4B C5 1.382 1_555 1_555
C5B C4 1.382 1_555 1_555
H2B C5B 1.021 1_555 1_555
C9B C4B 1.534 1_555 1_555
C8B C9B 1.538 1_555 1_555
C7B C8B 1.519 1_555 1_555
C6B C3B 1.530 1_555 1_555
C10B C6B 1.535 1_555 1_555
H7B C10B 1.027 1_555 1_555
H8B C10B 1.023 1_555 1_555
H9B C10B 0.984 1_555 1_555
C11B C6B 1.540 1_555 1_555
H10B C11B 1.029 1_555 1_555
H11B C11B 1.019 1_555 1_555
H12B C11B 1.016 1_555 1_555
H3B C7B 1.012 1_555 1_555
H4B C7B 1.019 1_555 1_555
H5B C8B 1.003 1_555 1_555
H6B C8B 1.029 1_555 1_555
C12B C9B 1.539 1_555 1_555
H13B C12B 0.992 1_555 1_555
H14B C12B 1.018 1_555 1_555
H15B C12B 0.987 1_555 1_555
C13B C9B 1.538 1_555 1_555
H16B C13B 0.991 1_555 1_555
H17B C13B 0.983 1_555 1_555
H18B C13B 0.998 1_555 1_555
H1B C2B 0.991 1_555 1_555
C1B C5B 1.415 1_555 1_555
C3B C4B 1.435 1_555 1_555
C7B C6B 1.534 1_555 1_555
#END
