
#######################################################################
#
#                 Cambridge Crystallographic Data Centre
#                                CCDC
#
#######################################################################
#
# If this CIF has been generated from an entry in the Cambridge
# Structural Database, then it will include bibliographic, chemical,
# crystal, experimental, refinement or atomic coordinate data resulting
# from the CCDC's data processing and validation procedures.
#
#######################################################################

data_CSD_CIF_QIRGIJ
_audit_creation_date 2013-10-30
_audit_creation_method CSD-ConQuest-V1
_database_code_CSD QIRGIJ
_database_code_depnum_ccdc_archive 'CCDC 805495'
_chemical_formula_sum 'C42 H24'
_chemical_formula_moiety
;
C42 H24
;
_journal_coden_Cambridge 15
_journal_volume 91
_journal_year 2013
_journal_page_first 1059
_journal_name_full 'Can.J.Chem. '
loop_
_publ_author_name
"G.L.Eakins"
"M.Cooper"
"T.Phillips"
"N.N.Gerasimchuk"
"B.E.Breyfogle"
"C.J.Stearman"
_chemical_name_systematic
;
7-(7H-Dibenzo[c,g]fluoren-7-ylidene)-7H-dibenzo[c,g]fluorene
;
_chemical_name_common
;
Fused-(phenyl)bis-fluorenone
;
_cell_volume   2616.224
_exptl_crystal_colour 'black red'
_exptl_crystal_density_diffrn 1.342
_exptl_special_details
;
monoclinic P21/c polymorph

;
_exptl_crystal_description 'needle'
_diffrn_ambient_temperature 150
#These two values have been output from a single CSD field.
_refine_ls_R_factor_gt 0.0659
_refine_ls_wR_factor_gt 0.0659
_symmetry_cell_setting monoclinic
_symmetry_space_group_name_H-M 'P 21/c'
_symmetry_Int_Tables_number 14
loop_
_symmetry_equiv_pos_site_id
_symmetry_equiv_pos_as_xyz
1 x,y,z
2 -x,1/2+y,1/2-z
3 -x,-y,-z
4 x,-1/2-y,-1/2+z
_cell_length_a 15.065(4)
_cell_length_b 8.483(2)
_cell_length_c 20.489(5)
_cell_angle_alpha 90
_cell_angle_beta 92.347(5)
_cell_angle_gamma 90
_cell_formula_units_Z 4
loop_
_atom_type_symbol
_atom_type_radius_bond
C 0.68
H 0.23
loop_
_atom_site_label
_atom_site_type_symbol
_atom_site_fract_x
_atom_site_fract_y
_atom_site_fract_z
C1 C 0.46036(17) 0.7390(3) 0.49965(11)
H1 H 0.49550 0.76390 0.53780
C2 C 0.49564(16) 0.6437(3) 0.45056(11)
H2 H 0.55360 0.60070 0.45670
C3 C 0.44704(15) 0.6129(3) 0.39423(11)
H3 H 0.47200 0.54950 0.36140
C4 C 0.35987(15) 0.6740(3) 0.38398(11)
C5 C 0.30429(15) 0.6410(3) 0.32765(11)
C6 C 0.21221(14) 0.6592(3) 0.32970(11)
C7 C 0.17003(15) 0.5866(3) 0.27056(11)
C8 C 0.08032(15) 0.5808(3) 0.25463(11)
C9 C 0.03551(14) 0.5880(3) 0.18890(11)
C10 C 0.07089(15) 0.6040(3) 0.12673(11)
H4 H 0.13320 0.59760 0.12190
C11 C 0.01521(16) 0.6287(3) 0.07315(11)
H5 H 0.03850 0.62520 0.03080
C12 C -0.07654(15) 0.6593(3) 0.07986(11)
C13 C -0.13084(16) 0.7068(3) 0.02554(12)
H6 H -0.10860 0.70020 -0.01710
C14 C -0.21501(16) 0.7620(3) 0.03345(12)
H7 H -0.25140 0.79090 -0.00360
C15 C -0.30055(16) 0.4233(3) 0.36653(12)
H8 H -0.35120 0.39170 0.38930
C16 C -0.22218(16) 0.4508(3) 0.39981(11)
H9 H -0.21860 0.43700 0.44590
C17 C -0.14550(15) 0.4997(3) 0.36719(11)
C18 C -0.15214(14) 0.5263(3) 0.29825(11)
C19 C -0.07404(14) 0.5741(3) 0.26644(10)
C20 C -0.05628(15) 0.6040(3) 0.19694(11)
C21 C 0.24429(15) 0.5313(3) 0.23185(11)
C22 C 0.32428(14) 0.5771(3) 0.26319(10)
C23 C 0.37545(16) 0.7955(3) 0.49213(11)
H10 H 0.35200 0.85920 0.52550
C24 C 0.32187(15) 0.7606(3) 0.43554(11)
C25 C 0.23111(16) 0.8069(3) 0.42970(11)
H11 H 0.20790 0.87580 0.46130
C26 C 0.17676(15) 0.7540(3) 0.37937(11)
H12 H 0.11540 0.78050 0.37760
C27 C 0.40445(14) 0.5750(3) 0.22823(10)
C28 C 0.48068(14) 0.6654(3) 0.24570(11)
H13 H 0.48150 0.72620 0.28470
C29 C 0.55320(15) 0.6671(3) 0.20768(11)
H14 H 0.60320 0.73030 0.22000
C30 C 0.55412(16) 0.5758(3) 0.15058(11)
H15 H 0.60580 0.57230 0.12560
C31 C 0.48016(15) 0.4920(3) 0.13105(11)
H16 H 0.48060 0.43340 0.09150
C32 C 0.40323(15) 0.4903(3) 0.1681(1)
C33 C 0.32443(15) 0.4119(3) 0.14581(11)
H17 H 0.32620 0.34290 0.10940
C34 C 0.24614(15) 0.4338(3) 0.17577(11)
H18 H 0.19340 0.38420 0.15920
C35 C 0.00825(14) 0.5730(3) 0.30089(11)
C36 C 0.01403(15) 0.5350(3) 0.36819(11)
H19 H 0.07030 0.52850 0.39070
C37 C -0.06170(16) 0.5079(3) 0.40042(11)
H20 H -0.05810 0.49410 0.44650
C38 C -0.24755(16) 0.7761(3) 0.09652(12)
H21 H -0.30440 0.82120 0.10220
C39 C -0.19757(14) 0.7248(3) 0.15002(11)
H22 H -0.22080 0.73400 0.19230
C40 C -0.11213(14) 0.6586(3) 0.14344(11)
C41 C -0.23425(15) 0.4899(3) 0.26516(11)
H23 H -0.23910 0.49920 0.21890
C42 C -0.30654(15) 0.4417(3) 0.29824(12)
H24 H -0.36110 0.42070 0.27500
loop_
_geom_bond_atom_site_label_1
_geom_bond_atom_site_label_2
_geom_bond_distance
_geom_bond_site_symmetry_1
_geom_bond_site_symmetry_2
C1 H1 0.950 1_555 1_555
C2 C1 1.411 1_555 1_555
H2 C2 0.950 1_555 1_555
C3 C2 1.366 1_555 1_555
H3 C3 0.951 1_555 1_555
C4 C3 1.419 1_555 1_555
C5 C4 1.426 1_555 1_555
C6 C5 1.398 1_555 1_555
C7 C6 1.479 1_555 1_555
C8 C7 1.378 1_555 1_555
C9 C8 1.483 1_555 1_555
C10 C9 1.407 1_555 1_555
H4 C10 0.949 1_555 1_555
C11 C10 1.370 1_555 1_555
H5 C11 0.950 1_555 1_555
C12 C11 1.419 1_555 1_555
C13 C12 1.413 1_555 1_555
H6 C13 0.950 1_555 1_555
C14 C13 1.368 1_555 1_555
H7 C14 0.950 1_555 1_555
C15 H8 0.949 1_555 1_555
C16 C15 1.359 1_555 1_555
H9 C16 0.951 1_555 1_555
C17 C16 1.420 1_555 1_555
C18 C17 1.430 1_555 1_555
C19 C18 1.427 1_555 1_555
C20 C9 1.406 1_555 1_555
C21 C7 1.474 1_555 1_555
C22 C5 1.470 1_555 1_555
C23 C1 1.369 1_555 1_555
H10 C23 0.951 1_555 1_555
C24 C4 1.426 1_555 1_555
C25 C24 1.423 1_555 1_555
H11 C25 0.950 1_555 1_555
C26 C6 1.418 1_555 1_555
H12 C26 0.951 1_555 1_555
C27 C22 1.429 1_555 1_555
C28 C27 1.415 1_555 1_555
H13 C28 0.951 1_555 1_555
C29 C28 1.368 1_555 1_555
H14 C29 0.950 1_555 1_555
C30 C29 1.404 1_555 1_555
H15 C30 0.950 1_555 1_555
C31 C30 1.368 1_555 1_555
H16 C31 0.951 1_555 1_555
C32 C27 1.426 1_555 1_555
C33 C32 1.420 1_555 1_555
H17 C33 0.949 1_555 1_555
C34 C21 1.417 1_555 1_555
H18 C34 0.949 1_555 1_555
C35 C8 1.472 1_555 1_555
C36 C35 1.415 1_555 1_555
H19 C36 0.950 1_555 1_555
C37 C17 1.411 1_555 1_555
H20 C37 0.951 1_555 1_555
C38 C14 1.406 1_555 1_555
H21 C38 0.950 1_555 1_555
C39 C38 1.375 1_555 1_555
H22 C39 0.951 1_555 1_555
C40 C12 1.429 1_555 1_555
C41 C18 1.420 1_555 1_555
H23 C41 0.951 1_555 1_555
C42 C15 1.407 1_555 1_555
H24 C42 0.950 1_555 1_555
C19 C20 1.482 1_555 1_555
C19 C35 1.401 1_555 1_555
C20 C40 1.431 1_555 1_555
C21 C22 1.397 1_555 1_555
C23 C24 1.417 1_555 1_555
C25 C26 1.366 1_555 1_555
C31 C32 1.411 1_555 1_555
C33 C34 1.364 1_555 1_555
C36 C37 1.361 1_555 1_555
C39 C40 1.416 1_555 1_555
C41 C42 1.369 1_555 1_555
#END
