
#######################################################################
#
#                 Cambridge Crystallographic Data Centre
#                                CCDC
#
#######################################################################
#
# If this CIF has been generated from an entry in the Cambridge
# Structural Database, then it will include bibliographic, chemical,
# crystal, experimental, refinement or atomic coordinate data resulting
# from the CCDC's data processing and validation procedures.
#
#######################################################################

data_CSD_CIF_QIXWAW
_audit_creation_date 2008-09-17
_audit_creation_method CSD-ConQuest-V1
_database_code_CSD QIXWAW
_database_code_depnum_ccdc_archive 'CCDC 296369'
_chemical_formula_sum 'C40 H24'
_chemical_formula_moiety
;
C40 H24
;
_journal_coden_Cambridge 920
_journal_volume 2
_journal_year 2007
_journal_page_first 1370
_journal_name_full 'Chem.Asian J. '
loop_
_publ_author_name
"T.Kubo"
"Y.Goto"
"M.Uruichi"
"K.Yakushi"
"M.Nakano"
"A.Fuyuhiro"
"Y.Morita"
"K.Nakasuji"
_chemical_name_systematic
;
2-phenyl-1-((2-phenyl-1H-phenalen-6-ylidene)ethenylidene)-1H-phenalene
;
_chemical_melting_point 573.15
_cell_volume    635.400
_exptl_crystal_colour 'black'
_exptl_crystal_density_diffrn 1.319
_exptl_special_details
;
Melts above 573.15K

;
_exptl_crystal_description 'Prism'
_diffrn_ambient_temperature 200
#These two values have been output from a single CSD field.
_refine_ls_R_factor_gt 0.0693
_refine_ls_wR_factor_gt 0.0693
_symmetry_cell_setting triclinic
_symmetry_space_group_name_H-M 'P -1'
_symmetry_Int_Tables_number 2
loop_
_symmetry_equiv_pos_site_id
_symmetry_equiv_pos_as_xyz
1 x,y,z
2 -x,-y,-z
_cell_length_a 5.681(2)
_cell_length_b 9.368(5)
_cell_length_c 12.688(6)
_cell_angle_alpha 80.746(18)
_cell_angle_beta 75.678(17)
_cell_angle_gamma 77.860(18)
_cell_formula_units_Z 1
loop_
_atom_type_symbol
_atom_type_radius_bond
C 0.68
H 0.23
loop_
_atom_site_label
_atom_site_type_symbol
_atom_site_fract_x
_atom_site_fract_y
_atom_site_fract_z
C1 C 0.4460(4) 0.9488(3) 0.02265(19)
C2 C 0.3142(4) 0.8400(3) 0.07545(18)
C3 C 0.2226(5) 0.7571(3) 0.01296(19)
C4 C 0.0506(5) 0.6721(3) 0.0654(2)
C5 C -0.0309(4) 0.6514(3) 0.1833(2)
C6 C -0.2011(5) 0.5625(3) 0.2362(2)
C7 C -0.2698(5) 0.5415(3) 0.3507(2)
C8 C -0.1698(5) 0.6078(3) 0.4128(2)
C9 C 0.0034(4) 0.7012(3) 0.3632(2)
C10 C 0.1093(5) 0.7729(3) 0.42474(19)
C11 C 0.2767(5) 0.8619(3) 0.3735(2)
C12 C 0.3469(5) 0.8840(3) 0.2593(2)
C13 C 0.2480(4) 0.8163(3) 0.19488(18)
C14 C 0.0753(4) 0.7223(2) 0.24677(18)
C15 C 0.3102(4) 0.7708(3) -0.10812(19)
C16 C 0.1538(5) 0.8411(3) -0.1758(2)
C17 C 0.2372(5) 0.8556(3) -0.2884(2)
C18 C 0.4757(5) 0.7970(3) -0.3350(2)
C19 C 0.6329(5) 0.7230(3) -0.2691(2)
C20 C 0.5511(5) 0.7113(3) -0.1563(2)
H1 H -0.01800 0.62450 0.02200
H2 H -0.27230 0.51520 0.19380
H3 H -0.38650 0.47920 0.38600
H4 H -0.21560 0.59100 0.49020
H5 H 0.06320 0.75930 0.50290
H6 H 0.34630 0.91030 0.41590
H7 H 0.46460 0.94560 0.22500
H8 H -0.01320 0.88060 -0.14480
H9 H 0.12910 0.90610 -0.33430
H10 H 0.53250 0.80810 -0.41280
H11 H 0.79780 0.68090 -0.30090
H12 H 0.66000 0.66090 -0.11090
C1A C 0.5540(4) 1.0512(3) -0.02265(19)
C2A C 0.6858(4) 1.1600(3) -0.07545(18)
C3A C 0.7774(5) 1.2429(3) -0.01296(19)
C4A C 0.9494(5) 1.3279(3) -0.0654(2)
C5A C 1.0309(4) 1.3486(3) -0.1833(2)
C6A C 1.2011(5) 1.4375(3) -0.2362(2)
C7A C 1.2698(5) 1.4585(3) -0.3507(2)
C8A C 1.1698(5) 1.3922(3) -0.4128(2)
C9A C 0.9966(4) 1.2988(3) -0.3632(2)
C10A C 0.8907(5) 1.2271(3) -0.42474(19)
C11A C 0.7233(5) 1.1381(3) -0.3735(2)
C12A C 0.6531(5) 1.1160(3) -0.2593(2)
C13A C 0.7520(4) 1.1837(3) -0.19488(18)
C14A C 0.9247(4) 1.2777(2) -0.24677(18)
C15A C 0.6898(4) 1.2292(3) 0.10812(19)
C16A C 0.8462(5) 1.1589(3) 0.1758(2)
C17A C 0.7628(5) 1.1444(3) 0.2884(2)
C18A C 0.5243(5) 1.2030(3) 0.3350(2)
C19A C 0.3671(5) 1.2770(3) 0.2691(2)
C20A C 0.4489(5) 1.2887(3) 0.1563(2)
H1A H 1.01800 1.37550 -0.02200
H2A H 1.27230 1.48480 -0.19380
H3A H 1.38650 1.52080 -0.38600
H4A H 1.21560 1.40900 -0.49020
H5A H 0.93680 1.24070 -0.50290
H6A H 0.65370 1.08970 -0.41590
H7A H 0.53540 1.05440 -0.22500
H8A H 1.01320 1.11940 0.14480
H9A H 0.87090 1.09390 0.33430
H10A H 0.46750 1.19190 0.41280
H11A H 0.20220 1.31910 0.30090
H12A H 0.34000 1.33910 0.11090
loop_
_geom_bond_atom_site_label_1
_geom_bond_atom_site_label_2
_geom_bond_distance
_geom_bond_site_symmetry_1
_geom_bond_site_symmetry_2
C1 C2 1.379 1_555 1_555
C2 C3 1.440 1_555 1_555
C3 C4 1.366 1_555 1_555
C4 C5 1.446 1_555 1_555
C5 C6 1.384 1_555 1_555
C6 C7 1.401 1_555 1_555
C7 C8 1.363 1_555 1_555
C8 C9 1.417 1_555 1_555
C9 C10 1.412 1_555 1_555
C10 C11 1.369 1_555 1_555
C11 C12 1.398 1_555 1_555
C12 C13 1.389 1_555 1_555
C13 C2 1.460 1_555 1_555
C14 C5 1.426 1_555 1_555
C15 C3 1.486 1_555 1_555
C16 C15 1.382 1_555 1_555
C17 C16 1.383 1_555 1_555
C18 C17 1.372 1_555 1_555
C19 C18 1.378 1_555 1_555
C20 C15 1.390 1_555 1_555
H1 C4 0.955 1_555 1_555
H2 C6 0.953 1_555 1_555
H3 C7 0.955 1_555 1_555
H4 C8 0.948 1_555 1_555
H5 C10 0.956 1_555 1_555
H6 C11 0.954 1_555 1_555
H7 C12 0.952 1_555 1_555
H8 C16 0.952 1_555 1_555
H9 C17 0.952 1_555 1_555
H10 C18 0.955 1_555 1_555
H11 C19 0.951 1_555 1_555
H12 C20 0.951 1_555 1_555
C1A C1 1.234 1_555 1_555
C2A C1A 1.379 1_555 1_555
C3A C2A 1.440 1_555 1_555
C4A C3A 1.366 1_555 1_555
C5A C4A 1.446 1_555 1_555
C6A C5A 1.384 1_555 1_555
C7A C6A 1.401 1_555 1_555
C8A C7A 1.363 1_555 1_555
C9A C8A 1.417 1_555 1_555
C10A C9A 1.412 1_555 1_555
C11A C10A 1.369 1_555 1_555
C12A C11A 1.398 1_555 1_555
C13A C2A 1.460 1_555 1_555
C14A C5A 1.426 1_555 1_555
C15A C3A 1.486 1_555 1_555
C16A C15A 1.382 1_555 1_555
C17A C16A 1.383 1_555 1_555
C18A C17A 1.372 1_555 1_555
C19A C18A 1.378 1_555 1_555
C20A C15A 1.390 1_555 1_555
H1A C4A 0.955 1_555 1_555
H2A C6A 0.953 1_555 1_555
H3A C7A 0.955 1_555 1_555
H4A C8A 0.948 1_555 1_555
H5A C10A 0.956 1_555 1_555
H6A C11A 0.954 1_555 1_555
H7A C12A 0.952 1_555 1_555
H8A C16A 0.952 1_555 1_555
H9A C17A 0.952 1_555 1_555
H10A C18A 0.955 1_555 1_555
H11A C19A 0.951 1_555 1_555
H12A C20A 0.951 1_555 1_555
C9 C14 1.425 1_555 1_555
C13 C14 1.424 1_555 1_555
C19 C20 1.385 1_555 1_555
C9A C14A 1.425 1_555 1_555
C12A C13A 1.389 1_555 1_555
C13A C14A 1.424 1_555 1_555
C19A C20A 1.385 1_555 1_555
#END
