
#######################################################################
#
#                 Cambridge Crystallographic Data Centre
#                                CCDC
#
#######################################################################
#
# If this CIF has been generated from an entry in the Cambridge
# Structural Database, then it will include bibliographic, chemical,
# crystal, experimental, refinement or atomic coordinate data resulting
# from the CCDC's data processing and validation procedures.
#
#######################################################################

data_CSD_CIF_QQQCIG25
_audit_creation_date 2016-06-09
_audit_creation_method CSD-ConQuest-V1
_database_code_CSD QQQCIG25
_database_code_depnum_ccdc_archive 'CCDC 991021'
_chemical_formula_sum 'C42 H28'
_chemical_formula_moiety
;
C42 H28
;
_journal_coden_Cambridge 983
_journal_volume 119
_journal_year 2014
_journal_page_first 13476
_journal_name_full 'J.Phys.Chem.C '
loop_
_publ_author_name
"S.Bergantin"
"M.Moret"
"G.Buth"
"F.P.A.Fabbiani"
_chemical_name_systematic
;
5,6,11,12-tetraphenyltetracene
;
_chemical_name_common
;
rubrene
;
_chemical_melting_point 588
_cell_volume    633.028
_exptl_crystal_colour 'red'
_exptl_crystal_density_diffrn 1.397
_exptl_special_details
;
Luminescent, High-pressure data collection in a diamond anvil cell.
polymorph I
Oxygen-sensitive, Light-sensitive
;
_exptl_crystal_description 'prism'
_exptl_crystal_preparation '1,1,2,2-Tetrachloroethane'
_diffrn_ambient_temperature 293
_diffrn_ambient_pressure 1210000.0
_diffrn_radiation_probe x-ray
_diffrn_source synchrotron
_diffrn_special_details
;
twin

;
#These two values have been output from a single CSD field.
_refine_ls_R_factor_gt 0.045
_refine_ls_wR_factor_gt 0.045
_symmetry_cell_setting triclinic
_symmetry_space_group_name_H-M 'P -1'
_symmetry_Int_Tables_number 2
loop_
_symmetry_equiv_pos_site_id
_symmetry_equiv_pos_as_xyz
1 x,y,z
2 -x,-y,-z
_cell_length_a 6.8535(4)
_cell_length_b 8.2642(12)
_cell_length_c 11.6573(11)
_cell_angle_alpha 91.614(11)
_cell_angle_beta 104.921(5)
_cell_angle_gamma 96.311(7)
_cell_formula_units_Z 1
loop_
_atom_type_symbol
_atom_type_radius_bond
C 0.68
H 0.23
loop_
_atom_site_label
_atom_site_type_symbol
_atom_site_fract_x
_atom_site_fract_y
_atom_site_fract_z
C1 C 0.5405(4) 0.1906(5) 0.8365(3)
C2 C 0.4181(4) 0.0537(5) 0.8552(3)
H1 H 0.37160 0.05020 0.92340
C3 C 0.3653(4) -0.0782(5) 0.7720(3)
H2 H 0.28340 -0.16980 0.78450
C4 C 0.4349(4) -0.0730(5) 0.6700(3)
H3 H 0.39950 -0.16120 0.61430
C5 C 0.5573(4) 0.0639(5) 0.6513(3)
H4 H 0.60380 0.06740 0.58300
C6 C 0.6101(4) 0.1958(5) 0.7345(3)
H5 H 0.69200 0.28740 0.72200
C7 C 0.2352(4) 0.3902(5) 0.7307(3)
C8 C 0.0992(4) 0.2489(5) 0.6973(3)
H6 H 0.04810 0.19410 0.75400
C9 C 0.0394(4) 0.1895(5) 0.5792(3)
H7 H -0.05160 0.09500 0.55690
C10 C 0.1156(4) 0.2714(5) 0.4945(3)
H8 H 0.07560 0.23160 0.41540
C11 C 0.2516(4) 0.4127(5) 0.5279(3)
H9 H 0.30270 0.46740 0.47120
C12 C 0.3114(4) 0.4721(5) 0.6460(3)
H10 H 0.40240 0.56660 0.66830
C13 C 0.6031(5) 0.3297(9) 0.9310(5)
C14 C 0.4717(5) 0.4496(9) 0.9435(5)
C15 C 0.2884(5) 0.4652(9) 0.8567(5)
C16 C 0.1537(5) 0.5701(10) 0.8786(5)
C17 C -0.0345(5) 0.5844(10) 0.7943(6)
H11 H -0.07060 0.51910 0.72400
C18 C -0.1618(5) 0.6892(11) 0.8130(6)
H12 H -0.28250 0.69680 0.75550
C19 C -0.1118(5) 0.7877(11) 0.9203(6)
H13 H -0.20120 0.85840 0.93390
C20 C 0.0651(5) 0.7794(10) 1.0028(6)
H14 H 0.09640 0.84750 1.07160
C21 C 0.2065(5) 0.6698(10) 0.9886(5)
C1A C 0.4595(4) 0.8094(5) 1.1635(3)
C2A C 0.5819(4) 0.9463(5) 1.1448(3)
H1A H 0.62840 0.94980 1.07660
C3A C 0.6347(4) 1.0782(5) 1.2280(3)
H2A H 0.71660 1.16980 1.21550
C4A C 0.5651(4) 1.0730(5) 1.3300(3)
H3A H 0.60050 1.16120 1.38570
C5A C 0.4427(4) 0.9361(5) 1.3487(3)
H4A H 0.39620 0.93260 1.41700
C6A C 0.3899(4) 0.8042(5) 1.2655(3)
H5A H 0.30800 0.71260 1.27800
C7A C 0.7648(4) 0.6098(5) 1.2693(3)
C8A C 0.9008(4) 0.7511(5) 1.3027(3)
H6A H 0.95190 0.80590 1.24600
C9A C 0.9606(4) 0.8105(5) 1.4208(3)
H7A H 1.05160 0.90500 1.44310
C10A C 0.8844(4) 0.7286(5) 1.5055(3)
H8A H 0.92440 0.76840 1.58460
C11A C 0.7484(4) 0.5873(5) 1.4721(3)
H9A H 0.69730 0.53260 1.52880
C12A C 0.6886(4) 0.5279(5) 1.3540(3)
H10A H 0.59760 0.43340 1.33170
C13A C 0.3969(5) 0.6703(9) 1.0690(5)
C14A C 0.5283(5) 0.5504(9) 1.0565(5)
C15A C 0.7116(5) 0.5348(9) 1.1433(5)
C16A C 0.8463(5) 0.4299(10) 1.1214(5)
C17A C 1.0345(5) 0.4156(10) 1.2057(6)
H11A H 1.07060 0.48090 1.27600
C18A C 1.1618(5) 0.3108(11) 1.1870(6)
H12A H 1.28250 0.30320 1.24450
C19A C 1.1118(5) 0.2123(11) 1.0797(6)
H13A H 1.20120 0.14160 1.06610
C20A C 0.9349(5) 0.2206(10) 0.9972(6)
H14A H 0.90360 0.15250 0.92840
C21A C 0.7935(5) 0.3302(10) 1.0114(5)
loop_
_geom_bond_atom_site_label_1
_geom_bond_atom_site_label_2
_geom_bond_distance
_geom_bond_site_symmetry_1
_geom_bond_site_symmetry_2
C1 C2 1.389 1_555 1_555
C2 H1 0.930 1_555 1_555
C3 C2 1.390 1_555 1_555
H2 C3 0.930 1_555 1_555
C4 C3 1.391 1_555 1_555
H3 C4 0.930 1_555 1_555
C5 C4 1.389 1_555 1_555
H4 C5 0.931 1_555 1_555
C6 C1 1.391 1_555 1_555
H5 C6 0.930 1_555 1_555
C7 C8 1.390 1_555 1_555
C8 H6 0.930 1_555 1_555
C9 C8 1.390 1_555 1_555
H7 C9 0.930 1_555 1_555
C10 C9 1.390 1_555 1_555
H8 C10 0.931 1_555 1_555
C11 C10 1.390 1_555 1_555
H9 C11 0.930 1_555 1_555
C12 C7 1.390 1_555 1_555
H10 C12 0.930 1_555 1_555
C13 C1 1.515 1_555 1_555
C14 C13 1.439 1_555 1_555
C15 C7 1.516 1_555 1_555
C16 C15 1.398 1_555 1_555
C17 C16 1.425 1_555 1_555
H11 C17 0.930 1_555 1_555
C18 C17 1.346 1_555 1_555
H12 C18 0.930 1_555 1_555
C19 C18 1.416 1_555 1_555
H13 C19 0.930 1_555 1_555
C20 C19 1.349 1_555 1_555
H14 C20 0.930 1_555 1_555
C21 C16 1.446 1_555 1_555
C1A C2A 1.389 1_555 1_555
C2A H1A 0.930 1_555 1_555
C3A C2A 1.390 1_555 1_555
H2A C3A 0.930 1_555 1_555
C4A C3A 1.391 1_555 1_555
H3A C4A 0.930 1_555 1_555
C5A C4A 1.389 1_555 1_555
H4A C5A 0.931 1_555 1_555
C6A C1A 1.391 1_555 1_555
H5A C6A 0.930 1_555 1_555
C7A C8A 1.390 1_555 1_555
C8A H6A 0.930 1_555 1_555
C9A C8A 1.390 1_555 1_555
H7A C9A 0.930 1_555 1_555
C10A C9A 1.390 1_555 1_555
H8A C10A 0.931 1_555 1_555
C11A C10A 1.390 1_555 1_555
H9A C11A 0.930 1_555 1_555
C12A C7A 1.390 1_555 1_555
H10A C12A 0.930 1_555 1_555
C13A C21 1.396 1_555 1_555
C14A C14 1.478 1_555 1_555
C15A C7A 1.516 1_555 1_555
C16A C15A 1.398 1_555 1_555
C17A C16A 1.425 1_555 1_555
H11A C17A 0.930 1_555 1_555
C18A C17A 1.346 1_555 1_555
H12A C18A 0.930 1_555 1_555
C19A C18A 1.416 1_555 1_555
H13A C19A 0.930 1_555 1_555
C20A C19A 1.349 1_555 1_555
H14A C20A 0.930 1_555 1_555
C21A C13 1.396 1_555 1_555
C5 C6 1.390 1_555 1_555
C11 C12 1.390 1_555 1_555
C14 C15 1.417 1_555 1_555
C20 C21 1.433 1_555 1_555
C1A C13A 1.515 1_555 1_555
C5A C6A 1.390 1_555 1_555
C11A C12A 1.390 1_555 1_555
C13A C14A 1.439 1_555 1_555
C14A C15A 1.417 1_555 1_555
C16A C21A 1.446 1_555 1_555
C20A C21A 1.433 1_555 1_555
#END
