
#######################################################################
#
#                 Cambridge Crystallographic Data Centre
#                                CCDC
#
#######################################################################
#
# If this CIF has been generated from an entry in the Cambridge
# Structural Database, then it will include bibliographic, chemical,
# crystal, experimental, refinement or atomic coordinate data resulting
# from the CCDC's data processing and validation procedures.
#
#######################################################################

data_CSD_CIF_QQQCIG08
_audit_creation_date 2006-05-23
_audit_creation_method CSD-ConQuest-V1
_database_code_CSD QQQCIG08
_database_code_depnum_ccdc_archive 'CCDC 605651'
_chemical_formula_sum 'C42 H28'
_chemical_formula_moiety
;
C42 H28
;
_journal_coeditor_code "IUCr BK5027"
_journal_coden_Cambridge 622
_journal_volume 62
_journal_year 2006
_journal_page_first 330
_journal_name_full 'Acta Crystallogr.,Sect.B:Struct.Sci. '
loop_
_publ_author_name
"O.D.Jurchescu"
"A.Meetsma"
"T.T.M.Palstra"
_chemical_name_systematic
;
Rubrene
;
_cell_volume   2762.116
_exptl_crystal_colour 'orange'
_exptl_crystal_density_diffrn 1.281
_exptl_special_details
;
orthorhombic polymorph

;
_exptl_crystal_description 'platelet'
_diffrn_ambient_temperature 200.0
#These two values have been output from a single CSD field.
_refine_ls_R_factor_gt 0.0407
_refine_ls_wR_factor_gt 0.0407
_symmetry_cell_setting orthorhombic
_symmetry_space_group_name_H-M 'C m c a'
_symmetry_Int_Tables_number 64
loop_
_symmetry_equiv_pos_site_id
_symmetry_equiv_pos_as_xyz
1 x,y,z
2 1/2+x,1/2+y,z
3 -x,1/2-y,1/2+z
4 x,-y,-z
5 -x,1/2+y,1/2-z
6 1/2-x,-y,1/2+z
7 1/2+x,1/2-y,-z
8 1/2-x,y,1/2-z
9 -x,-y,-z
10 -1/2-x,-1/2-y,-z
11 x,-1/2+y,-1/2-z
12 -x,y,z
13 x,-1/2-y,-1/2+z
14 -1/2+x,y,-1/2-z
15 -1/2-x,-1/2+y,z
16 -1/2+x,-y,-1/2+z
_cell_length_a 26.838(4)
_cell_length_b 7.181(1)
_cell_length_c 14.332(2)
_cell_angle_alpha 90
_cell_angle_beta 90
_cell_angle_gamma 90
_cell_formula_units_Z 4
loop_
_atom_type_symbol
_atom_type_radius_bond
C 0.68
H 0.23
loop_
_atom_site_label
_atom_site_type_symbol
_atom_site_fract_x
_atom_site_fract_y
_atom_site_fract_z
C1 C 0.02718(7) 0.00000 0.00000
C2 C 0.05301(5) -0.14396(19) 0.04907(9)
C3 C 0.02666(5) -0.29437(19) 0.08762(9)
C4 C 0.05171(6) -0.4456(2) 0.13397(10)
C5 C 0.02627(6) -0.5864(2) 0.17497(10)
C6 C 0.10730(5) -0.13351(19) 0.07261(9)
C7 C 0.14271(6) -0.2461(2) 0.02964(11)
C8 C 0.19149(6) -0.2484(3) 0.06023(13)
C9 C 0.20606(7) -0.1373(3) 0.13390(13)
C10 C 0.17164(7) -0.0244(3) 0.17747(12)
C11 C 0.12264(6) -0.0233(2) 0.1473(1)
H1 H 0.0880(7) -0.443(2) 0.1341(12)
H2 H 0.0447(6) -0.686(2) 0.2055(12)
H3 H 0.1325(6) -0.324(2) -0.0239(11)
H4 H 0.2169(7) -0.328(3) 0.0280(13)
H5 H 0.2407(8) -0.139(2) 0.1536(12)
H6 H 0.1809(8) 0.057(3) 0.2298(16)
H7 H 0.0971(6) 0.052(2) 0.1789(12)
C1H C -0.02718(7) 0.00000 0.00000
C2K C -0.05301(5) -0.14396(19) 0.04907(9)
C2C C 0.05301(5) 0.14396(19) -0.04907(9)
C2H C -0.05301(5) 0.14396(19) -0.04907(9)
C3K C -0.02666(5) -0.29437(19) 0.08762(9)
C3C C 0.02666(5) 0.29437(19) -0.08762(9)
C3H C -0.02666(5) 0.29437(19) -0.08762(9)
C4H C -0.05171(6) 0.4456(2) -0.13397(10)
C4C C 0.05171(6) 0.4456(2) -0.13397(10)
C4K C -0.05171(6) -0.4456(2) 0.13397(10)
C5H C -0.02627(6) 0.5864(2) -0.17497(10)
C5C C 0.02627(6) 0.5864(2) -0.17497(10)
C5K C -0.02627(6) -0.5864(2) 0.17497(10)
C6H C -0.10730(5) 0.13351(19) -0.07261(9)
C6C C 0.10730(5) 0.13351(19) -0.07261(9)
C6K C -0.10730(5) -0.13351(19) 0.07261(9)
C7H C -0.14271(6) 0.2461(2) -0.02964(11)
C7C C 0.14271(6) 0.2461(2) -0.02964(11)
C7K C -0.14271(6) -0.2461(2) 0.02964(11)
C8H C -0.19149(6) 0.2484(3) -0.06023(13)
C8C C 0.19149(6) 0.2484(3) -0.06023(13)
C8K C -0.19149(6) -0.2484(3) 0.06023(13)
C9H C -0.20606(7) 0.1373(3) -0.13390(13)
C9C C 0.20606(7) 0.1373(3) -0.13390(13)
C9K C -0.20606(7) -0.1373(3) 0.13390(13)
C10H C -0.17164(7) 0.0244(3) -0.17747(12)
C10C C 0.17164(7) 0.0244(3) -0.17747(12)
C10K C -0.17164(7) -0.0244(3) 0.17747(12)
C11H C -0.12264(6) 0.0233(2) -0.1473(1)
C11C C 0.12264(6) 0.0233(2) -0.1473(1)
C11K C -0.12264(6) -0.0233(2) 0.1473(1)
H1C H 0.0880(7) 0.443(2) -0.1341(12)
H1H H -0.0880(7) 0.443(2) -0.1341(12)
H1K H -0.0880(7) -0.443(2) 0.1341(12)
H2C H 0.0447(6) 0.686(2) -0.2055(12)
H2H H -0.0447(6) 0.686(2) -0.2055(12)
H2K H -0.0447(6) -0.686(2) 0.2055(12)
H3H H -0.1325(6) 0.324(2) 0.0239(11)
H3C H 0.1325(6) 0.324(2) 0.0239(11)
H3K H -0.1325(6) -0.324(2) -0.0239(11)
H4H H -0.2169(7) 0.328(3) -0.0280(13)
H4C H 0.2169(7) 0.328(3) -0.0280(13)
H4K H -0.2169(7) -0.328(3) 0.0280(13)
H5H H -0.2407(8) 0.139(2) -0.1536(12)
H5C H 0.2407(8) 0.139(2) -0.1536(12)
H5K H -0.2407(8) -0.139(2) 0.1536(12)
H6H H -0.1809(8) -0.057(3) -0.2298(16)
H6C H 0.1809(8) -0.057(3) -0.2298(16)
H6K H -0.1809(8) 0.057(3) 0.2298(16)
H7H H -0.0971(6) -0.052(2) -0.1789(12)
H7C H 0.0971(6) -0.052(2) -0.1789(12)
H7K H -0.0971(6) 0.052(2) 0.1789(12)
loop_
_geom_bond_atom_site_label_1
_geom_bond_atom_site_label_2
_geom_bond_distance
_geom_bond_site_symmetry_1
_geom_bond_site_symmetry_2
C1 C2 1.430 1_555 1_555
C2 C3 1.404 1_555 1_555
C3 C4 1.440 1_555 1_555
C4 C5 1.354 1_555 1_555
C5 H2 0.973 1_555 1_555
C6 C2 1.497 1_555 1_555
C7 C6 1.391 1_555 1_555
C8 C7 1.381 1_555 1_555
C9 C8 1.380 1_555 1_555
C10 C9 1.379 1_555 1_555
C11 C6 1.393 1_555 1_555
H1 C4 0.974 1_555 1_555
H3 C7 0.988 1_555 1_555
H4 C8 1.003 1_555 1_555
H5 C9 0.972 1_555 1_555
H6 C10 0.983 1_555 1_555
H7 C11 0.984 1_555 1_555
C1H C1 1.459 1_555 1_555
C2K C1H 1.430 1_555 1_555
C2C C1 1.430 1_555 1_555
C2H C1H 1.430 1_555 1_555
C3K C3 1.431 1_555 1_555
C3C C2C 1.404 1_555 1_555
C3H C2H 1.404 1_555 1_555
C4H C3H 1.440 1_555 1_555
C4C C3C 1.440 1_555 1_555
C4K C3K 1.440 1_555 1_555
C5H C4H 1.354 1_555 1_555
C5C C4C 1.354 1_555 1_555
C5K C5 1.410 1_555 1_555
C6H C2H 1.497 1_555 1_555
C6C C2C 1.497 1_555 1_555
C6K C2K 1.497 1_555 1_555
C7H C6H 1.391 1_555 1_555
C7C C6C 1.391 1_555 1_555
C7K C6K 1.391 1_555 1_555
C8H C7H 1.381 1_555 1_555
C8C C7C 1.381 1_555 1_555
C8K C7K 1.381 1_555 1_555
C9H C8H 1.380 1_555 1_555
C9C C8C 1.380 1_555 1_555
C9K C8K 1.380 1_555 1_555
C10H C9H 1.379 1_555 1_555
C10C C9C 1.379 1_555 1_555
C10K C9K 1.379 1_555 1_555
C11H C6H 1.393 1_555 1_555
C11C C6C 1.393 1_555 1_555
C11K C6K 1.393 1_555 1_555
H1C C4C 0.974 1_555 1_555
H1H C4H 0.974 1_555 1_555
H1K C4K 0.974 1_555 1_555
H2C C5C 0.973 1_555 1_555
H2H C5H 0.973 1_555 1_555
H2K C5K 0.973 1_555 1_555
H3H C7H 0.988 1_555 1_555
H3C C7C 0.988 1_555 1_555
H3K C7K 0.988 1_555 1_555
H4H C8H 1.003 1_555 1_555
H4C C8C 1.003 1_555 1_555
H4K C8K 1.003 1_555 1_555
H5H C9H 0.972 1_555 1_555
H5C C9C 0.972 1_555 1_555
H5K C9K 0.972 1_555 1_555
H6H C10H 0.983 1_555 1_555
H6C C10C 0.983 1_555 1_555
H6K C10K 0.983 1_555 1_555
H7H C11H 0.984 1_555 1_555
H7C C11C 0.984 1_555 1_555
H7K C11K 0.984 1_555 1_555
C10 C11 1.384 1_555 1_555
C2K C3K 1.404 1_555 1_555
C3C C3H 1.431 1_555 1_555
C4K C5K 1.354 1_555 1_555
C5H C5C 1.410 1_555 1_555
C10H C11H 1.384 1_555 1_555
C10C C11C 1.384 1_555 1_555
C10K C11K 1.384 1_555 1_555
#END
