
#######################################################################
#
#                 Cambridge Crystallographic Data Centre
#                                CCDC
#
#######################################################################
#
# If this CIF has been generated from an entry in the Cambridge
# Structural Database, then it will include bibliographic, chemical,
# crystal, experimental, refinement or atomic coordinate data resulting
# from the CCDC's data processing and validation procedures.
#
#######################################################################

data_CSD_CIF_QQQCIG15
_audit_creation_date 2011-03-21
_audit_creation_method CSD-ConQuest-V1
_database_code_CSD QQQCIG15
_database_code_depnum_ccdc_archive 'CCDC 791499'
_chemical_formula_sum 'C42 H28'
_chemical_formula_moiety
;
C42 H28
;
_journal_coden_Cambridge 1147
_journal_volume 10
_journal_year 2010
_journal_page_first 3496
_journal_name_full 'Cryst.Growth Des. '
loop_
_publ_author_name
"M.El Helou"
"O.Medenbach"
"G.Witte"
_chemical_name_systematic
;
5,6,11,12-Tetraphenylnaphthacene
;
_chemical_name_common
;
Rubrene
;
_cell_volume   2776.949
_exptl_special_details
;
orthorhombic polymorph

;
_diffrn_ambient_temperature 293
#These two values have been output from a single CSD field.
_refine_ls_R_factor_gt 0.0402
_refine_ls_wR_factor_gt 0.0402
_symmetry_cell_setting orthorhombic
_symmetry_space_group_name_H-M 'B b c m'
_symmetry_Int_Tables_number 64
loop_
_symmetry_equiv_pos_site_id
_symmetry_equiv_pos_as_xyz
1 x,y,z
2 -x,-y,z
3 1/2-x,1/2+y,-z
4 x,1/2-y,1/2-z
5 1/2+x,y,1/2+z
6 1/2-x,-y,1/2+z
7 -x,1/2+y,1/2-z
8 1/2+x,1/2-y,-z
9 -x,-y,-z
10 x,y,-z
11 -1/2+x,-1/2-y,z
12 -x,-1/2+y,-1/2+z
13 -1/2-x,-y,-1/2-z
14 -1/2+x,y,-1/2-z
15 x,-1/2-y,-1/2+z
16 -1/2-x,-1/2+y,z
_cell_length_a 7.175(2)
_cell_length_b 14.435(4)
_cell_length_c 26.812(7)
_cell_angle_alpha 90
_cell_angle_beta 90
_cell_angle_gamma 90
_cell_formula_units_Z 4
loop_
_atom_type_symbol
_atom_type_radius_bond
C 0.68
H 0.23
loop_
_atom_site_label
_atom_site_type_symbol
_atom_site_fract_x
_atom_site_fract_y
_atom_site_fract_z
C1 C 0.00000 0.00000 0.02749(10)
C2 C -0.1441(4) 0.04891(16) 0.05306(9)
C3 C -0.2927(3) 0.08742(17) 0.02681(8)
C4 C -0.4422(4) 0.1336(2) 0.05191(11)
C5 C -0.5838(4) 0.17451(18) 0.02665(10)
C6 C -0.1328(4) 0.07243(17) 0.10673(10)
C7 C -0.2460(5) 0.0298(2) 0.14220(12)
C8 C -0.2480(5) 0.0598(3) 0.19120(12)
C9 C -0.1355(6) 0.1330(3) 0.20569(13)
C10 C -0.0220(6) 0.1765(2) 0.17127(14)
C11 C -0.0214(5) 0.14671(19) 0.12177(11)
H1 H -0.446(4) 0.134(2) 0.0870(4)
H2 H -0.675(3) 0.2064(18) 0.045(1)
H3 H -0.318(4) -0.0232(14) 0.1342(11)
H4 H -0.326(3) 0.0312(18) 0.2153(8)
H5 H -0.136(4) 0.1543(17) 0.2388(5)
H6 H 0.053(3) 0.2266(14) 0.1809(10)
H7 H 0.053(4) 0.1787(17) 0.0984(9)
C1H C 0.00000 0.00000 -0.02749(10)
C2A C 0.1441(4) -0.04891(16) 0.05306(9)
C2H C 0.1441(4) -0.04891(16) -0.05306(9)
C2I C -0.1441(4) 0.04891(16) -0.05306(9)
C3A C 0.2927(3) -0.08742(17) 0.02681(8)
C3H C 0.2927(3) -0.08742(17) -0.02681(8)
C3I C -0.2927(3) 0.08742(17) -0.02681(8)
C4A C 0.4422(4) -0.1336(2) 0.05191(11)
C4H C 0.4422(4) -0.1336(2) -0.05191(11)
C4I C -0.4422(4) 0.1336(2) -0.05191(11)
C5A C 0.5838(4) -0.17451(18) 0.02665(10)
C5H C 0.5838(4) -0.17451(18) -0.02665(10)
C5I C -0.5838(4) 0.17451(18) -0.02665(10)
C6A C 0.1328(4) -0.07243(17) 0.10673(10)
C6H C 0.1328(4) -0.07243(17) -0.10673(10)
C6I C -0.1328(4) 0.07243(17) -0.10673(10)
C7A C 0.2460(5) -0.0298(2) 0.14220(12)
C7H C 0.2460(5) -0.0298(2) -0.14220(12)
C7I C -0.2460(5) 0.0298(2) -0.14220(12)
C8A C 0.2480(5) -0.0598(3) 0.19120(12)
C8H C 0.2480(5) -0.0598(3) -0.19120(12)
C8I C -0.2480(5) 0.0598(3) -0.19120(12)
C9A C 0.1355(6) -0.1330(3) 0.20569(13)
C9H C 0.1355(6) -0.1330(3) -0.20569(13)
C9I C -0.1355(6) 0.1330(3) -0.20569(13)
C10A C 0.0220(6) -0.1765(2) 0.17127(14)
C10H C 0.0220(6) -0.1765(2) -0.17127(14)
C10I C -0.0220(6) 0.1765(2) -0.17127(14)
C11A C 0.0214(5) -0.14671(19) 0.12177(11)
C11H C 0.0214(5) -0.14671(19) -0.12177(11)
C11I C -0.0214(5) 0.14671(19) -0.12177(11)
H1A H 0.446(4) -0.134(2) 0.0870(4)
H1H H 0.446(4) -0.134(2) -0.0870(4)
H1I H -0.446(4) 0.134(2) -0.0870(4)
H2A H 0.675(3) -0.2064(18) 0.045(1)
H2H H 0.675(3) -0.2064(18) -0.045(1)
H2I H -0.675(3) 0.2064(18) -0.045(1)
H3A H 0.318(4) 0.0232(14) 0.1342(11)
H3H H 0.318(4) 0.0232(14) -0.1342(11)
H3I H -0.318(4) -0.0232(14) -0.1342(11)
H4A H 0.326(3) -0.0312(18) 0.2153(8)
H4H H 0.326(3) -0.0312(18) -0.2153(8)
H4I H -0.326(3) 0.0312(18) -0.2153(8)
H5A H 0.136(4) -0.1543(17) 0.2388(5)
H5H H 0.136(4) -0.1543(17) -0.2388(5)
H5I H -0.136(4) 0.1543(17) -0.2388(5)
H6A H -0.053(3) -0.2266(14) 0.1809(10)
H6H H -0.053(3) -0.2266(14) -0.1809(10)
H6I H 0.053(3) 0.2266(14) -0.1809(10)
H7A H -0.053(4) -0.1787(17) 0.0984(9)
H7H H -0.053(4) -0.1787(17) -0.0984(9)
H7I H 0.053(4) 0.1787(17) -0.0984(9)
loop_
_geom_bond_atom_site_label_1
_geom_bond_atom_site_label_2
_geom_bond_distance
_geom_bond_site_symmetry_1
_geom_bond_site_symmetry_2
C1 C2 1.427 1_555 1_555
C2 C3 1.393 1_555 1_555
C3 C4 1.431 1_555 1_555
C4 C5 1.356 1_555 1_555
C5 H2 0.939 1_555 1_555
C6 C2 1.481 1_555 1_555
C7 C6 1.394 1_555 1_555
C8 C7 1.383 1_555 1_555
C9 C8 1.385 1_555 1_555
C10 C9 1.382 1_555 1_555
C11 C6 1.397 1_555 1_555
H1 C4 0.941 1_555 1_555
H3 C7 0.948 1_555 1_555
H4 C8 0.949 1_555 1_555
H5 C9 0.939 1_555 1_555
H6 C10 0.938 1_555 1_555
H7 C11 0.944 1_555 1_555
C1H C1 1.474 1_555 1_555
C2A C1 1.427 1_555 1_555
C2H C1H 1.427 1_555 1_555
C2I C1H 1.427 1_555 1_555
C3A C2A 1.393 1_555 1_555
C3H C2H 1.393 1_555 1_555
C3I C3 1.438 1_555 1_555
C4A C3A 1.431 1_555 1_555
C4H C3H 1.431 1_555 1_555
C4I C3I 1.431 1_555 1_555
C5A C4A 1.356 1_555 1_555
C5H C4H 1.356 1_555 1_555
C5I C5 1.429 1_555 1_555
C6A C2A 1.481 1_555 1_555
C6H C2H 1.481 1_555 1_555
C6I C2I 1.481 1_555 1_555
C7A C6A 1.394 1_555 1_555
C7H C6H 1.394 1_555 1_555
C7I C6I 1.394 1_555 1_555
C8A C7A 1.383 1_555 1_555
C8H C7H 1.383 1_555 1_555
C8I C7I 1.383 1_555 1_555
C9A C8A 1.385 1_555 1_555
C9H C8H 1.385 1_555 1_555
C9I C8I 1.385 1_555 1_555
C10A C9A 1.382 1_555 1_555
C10H C9H 1.382 1_555 1_555
C10I C9I 1.382 1_555 1_555
C11A C6A 1.397 1_555 1_555
C11H C6H 1.397 1_555 1_555
C11I C6I 1.397 1_555 1_555
H1A C4A 0.941 1_555 1_555
H1H C4H 0.941 1_555 1_555
H1I C4I 0.941 1_555 1_555
H2A C5A 0.939 1_555 1_555
H2H C5H 0.939 1_555 1_555
H2I C5I 0.939 1_555 1_555
H3A C7A 0.948 1_555 1_555
H3H C7H 0.948 1_555 1_555
H3I C7I 0.948 1_555 1_555
H4A C8A 0.949 1_555 1_555
H4H C8H 0.949 1_555 1_555
H4I C8I 0.949 1_555 1_555
H5A C9A 0.939 1_555 1_555
H5H C9H 0.939 1_555 1_555
H5I C9I 0.939 1_555 1_555
H6A C10A 0.938 1_555 1_555
H6H C10H 0.938 1_555 1_555
H6I C10I 0.938 1_555 1_555
H7A C11A 0.944 1_555 1_555
H7H C11H 0.944 1_555 1_555
H7I C11I 0.944 1_555 1_555
C10 C11 1.395 1_555 1_555
C2I C3I 1.393 1_555 1_555
C3A C3H 1.438 1_555 1_555
C4I C5I 1.356 1_555 1_555
C5A C5H 1.429 1_555 1_555
C10A C11A 1.395 1_555 1_555
C10H C11H 1.395 1_555 1_555
C10I C11I 1.395 1_555 1_555
#END
