
#######################################################################
#
#                 Cambridge Crystallographic Data Centre
#                                CCDC
#
#######################################################################
#
# If this CIF has been generated from an entry in the Cambridge
# Structural Database, then it will include bibliographic, chemical,
# crystal, experimental, refinement or atomic coordinate data resulting
# from the CCDC's data processing and validation procedures.
#
#######################################################################

data_CSD_CIF_QQQCIG05
_audit_creation_date 2006-05-23
_audit_creation_method CSD-ConQuest-V1
_database_code_CSD QQQCIG05
_database_code_depnum_ccdc_archive 'CCDC 605648'
_chemical_formula_sum 'C42 H28'
_chemical_formula_moiety
;
C42 H28
;
_journal_coeditor_code "IUCr BK5027"
_journal_coden_Cambridge 622
_journal_volume 62
_journal_year 2006
_journal_page_first 330
_journal_name_full 'Acta Crystallogr.,Sect.B:Struct.Sci. '
loop_
_publ_author_name
"O.D.Jurchescu"
"A.Meetsma"
"T.T.M.Palstra"
_chemical_name_systematic
;
Rubrene
;
_cell_volume   2737.476
_exptl_crystal_colour 'orange'
_exptl_crystal_density_diffrn 1.292
_exptl_special_details
;
orthorhombic polymorph

;
_exptl_crystal_description 'platelet'
_diffrn_ambient_temperature 125.0
#These two values have been output from a single CSD field.
_refine_ls_R_factor_gt 0.0377
_refine_ls_wR_factor_gt 0.0377
_symmetry_cell_setting orthorhombic
_symmetry_space_group_name_H-M 'C m c a'
_symmetry_Int_Tables_number 64
loop_
_symmetry_equiv_pos_site_id
_symmetry_equiv_pos_as_xyz
1 x,y,z
2 1/2+x,1/2+y,z
3 -x,1/2-y,1/2+z
4 x,-y,-z
5 -x,1/2+y,1/2-z
6 1/2-x,-y,1/2+z
7 1/2+x,1/2-y,-z
8 1/2-x,y,1/2-z
9 -x,-y,-z
10 -1/2-x,-1/2-y,-z
11 x,-1/2+y,-1/2-z
12 -x,y,z
13 x,-1/2-y,-1/2+z
14 -1/2+x,y,-1/2-z
15 -1/2-x,-1/2+y,z
16 -1/2+x,-y,-1/2+z
_cell_length_a 26.789(4)
_cell_length_b 7.173(1)
_cell_length_c 14.246(2)
_cell_angle_alpha 90
_cell_angle_beta 90
_cell_angle_gamma 90
_cell_formula_units_Z 4
loop_
_atom_type_symbol
_atom_type_radius_bond
C 0.68
H 0.23
loop_
_atom_site_label
_atom_site_type_symbol
_atom_site_fract_x
_atom_site_fract_y
_atom_site_fract_z
C1 C 0.02723(7) 0.00000 0.00000
C2 C 0.05315(5) -0.14435(18) 0.04909(9)
C3 C 0.02670(5) -0.29541(18) 0.08757(8)
C4 C 0.05192(6) -0.44699(19) 0.13405(9)
C5 C 0.02634(6) -0.58862(18) 0.17511(9)
C6 C 0.10755(5) -0.13436(18) 0.07266(9)
C7 C 0.14287(5) -0.2473(2) 0.02915(10)
C8 C 0.19178(6) -0.2505(2) 0.05983(11)
C9 C 0.20663(6) -0.1387(2) 0.13433(11)
C10 C 0.17202(6) -0.0252(2) 0.17824(11)
C11 C 0.12299(6) -0.0236(2) 0.14796(9)
H1 H 0.0882(6) -0.445(2) 0.1358(10)
H2 H 0.0442(5) -0.688(2) 0.2072(11)
H3 H 0.1324(6) -0.325(2) -0.0251(11)
H4 H 0.2170(6) -0.330(2) 0.0266(11)
H5 H 0.2416(7) -0.141(2) 0.1545(11)
H6 H 0.1817(6) 0.056(2) 0.2302(13)
H7 H 0.0976(6) 0.053(2) 0.1789(10)
C1H C -0.02723(7) 0.00000 0.00000
C2K C -0.05315(5) -0.14435(18) 0.04909(9)
C2C C 0.05315(5) 0.14435(18) -0.04909(9)
C2H C -0.05315(5) 0.14435(18) -0.04909(9)
C3K C -0.02670(5) -0.29541(18) 0.08757(8)
C3C C 0.02670(5) 0.29541(18) -0.08757(8)
C3H C -0.02670(5) 0.29541(18) -0.08757(8)
C4H C -0.05192(6) 0.44699(19) -0.13405(9)
C4C C 0.05192(6) 0.44699(19) -0.13405(9)
C4K C -0.05192(6) -0.44699(19) 0.13405(9)
C5H C -0.02634(6) 0.58862(18) -0.17511(9)
C5C C 0.02634(6) 0.58862(18) -0.17511(9)
C5K C -0.02634(6) -0.58862(18) 0.17511(9)
C6H C -0.10755(5) 0.13436(18) -0.07266(9)
C6C C 0.10755(5) 0.13436(18) -0.07266(9)
C6K C -0.10755(5) -0.13436(18) 0.07266(9)
C7H C -0.14287(5) 0.2473(2) -0.02915(10)
C7C C 0.14287(5) 0.2473(2) -0.02915(10)
C7K C -0.14287(5) -0.2473(2) 0.02915(10)
C8H C -0.19178(6) 0.2505(2) -0.05983(11)
C8C C 0.19178(6) 0.2505(2) -0.05983(11)
C8K C -0.19178(6) -0.2505(2) 0.05983(11)
C9H C -0.20663(6) 0.1387(2) -0.13433(11)
C9C C 0.20663(6) 0.1387(2) -0.13433(11)
C9K C -0.20663(6) -0.1387(2) 0.13433(11)
C10H C -0.17202(6) 0.0252(2) -0.17824(11)
C10C C 0.17202(6) 0.0252(2) -0.17824(11)
C10K C -0.17202(6) -0.0252(2) 0.17824(11)
C11H C -0.12299(6) 0.0236(2) -0.14796(9)
C11C C 0.12299(6) 0.0236(2) -0.14796(9)
C11K C -0.12299(6) -0.0236(2) 0.14796(9)
H1C H 0.0882(6) 0.445(2) -0.1358(10)
H1H H -0.0882(6) 0.445(2) -0.1358(10)
H1K H -0.0882(6) -0.445(2) 0.1358(10)
H2C H 0.0442(5) 0.688(2) -0.2072(11)
H2H H -0.0442(5) 0.688(2) -0.2072(11)
H2K H -0.0442(5) -0.688(2) 0.2072(11)
H3H H -0.1324(6) 0.325(2) 0.0251(11)
H3C H 0.1324(6) 0.325(2) 0.0251(11)
H3K H -0.1324(6) -0.325(2) -0.0251(11)
H4H H -0.2170(6) 0.330(2) -0.0266(11)
H4C H 0.2170(6) 0.330(2) -0.0266(11)
H4K H -0.2170(6) -0.330(2) 0.0266(11)
H5H H -0.2416(7) 0.141(2) -0.1545(11)
H5C H 0.2416(7) 0.141(2) -0.1545(11)
H5K H -0.2416(7) -0.141(2) 0.1545(11)
H6H H -0.1817(6) -0.056(2) -0.2302(13)
H6C H 0.1817(6) -0.056(2) -0.2302(13)
H6K H -0.1817(6) 0.056(2) 0.2302(13)
H7H H -0.0976(6) -0.053(2) -0.1789(10)
H7C H 0.0976(6) -0.053(2) -0.1789(10)
H7K H -0.0976(6) 0.053(2) 0.1789(10)
loop_
_geom_bond_atom_site_label_1
_geom_bond_atom_site_label_2
_geom_bond_distance
_geom_bond_site_symmetry_1
_geom_bond_site_symmetry_2
C1 C2 1.429 1_555 1_555
C2 C3 1.406 1_555 1_555
C3 C4 1.441 1_555 1_555
C4 C5 1.358 1_555 1_555
C5 H2 0.973 1_555 1_555
C6 C2 1.497 1_555 1_555
C7 C6 1.391 1_555 1_555
C8 C7 1.381 1_555 1_555
C9 C8 1.388 1_555 1_555
C10 C9 1.383 1_555 1_555
C11 C6 1.398 1_555 1_555
H1 C4 0.972 1_555 1_555
H3 C7 0.993 1_555 1_555
H4 C8 1.003 1_555 1_555
H5 C9 0.980 1_555 1_555
H6 C10 0.977 1_555 1_555
H7 C11 0.979 1_555 1_555
C1H C1 1.459 1_555 1_555
C2K C1H 1.429 1_555 1_555
C2C C1 1.429 1_555 1_555
C2H C1H 1.429 1_555 1_555
C3K C3 1.431 1_555 1_555
C3C C2C 1.406 1_555 1_555
C3H C2H 1.406 1_555 1_555
C4H C3H 1.441 1_555 1_555
C4C C3C 1.441 1_555 1_555
C4K C3K 1.441 1_555 1_555
C5H C4H 1.358 1_555 1_555
C5C C4C 1.358 1_555 1_555
C5K C5 1.411 1_555 1_555
C6H C2H 1.497 1_555 1_555
C6C C2C 1.497 1_555 1_555
C6K C2K 1.497 1_555 1_555
C7H C6H 1.391 1_555 1_555
C7C C6C 1.391 1_555 1_555
C7K C6K 1.391 1_555 1_555
C8H C7H 1.381 1_555 1_555
C8C C7C 1.381 1_555 1_555
C8K C7K 1.381 1_555 1_555
C9H C8H 1.388 1_555 1_555
C9C C8C 1.388 1_555 1_555
C9K C8K 1.388 1_555 1_555
C10H C9H 1.383 1_555 1_555
C10C C9C 1.383 1_555 1_555
C10K C9K 1.383 1_555 1_555
C11H C6H 1.398 1_555 1_555
C11C C6C 1.398 1_555 1_555
C11K C6K 1.398 1_555 1_555
H1C C4C 0.972 1_555 1_555
H1H C4H 0.972 1_555 1_555
H1K C4K 0.972 1_555 1_555
H2C C5C 0.973 1_555 1_555
H2H C5H 0.973 1_555 1_555
H2K C5K 0.973 1_555 1_555
H3H C7H 0.993 1_555 1_555
H3C C7C 0.993 1_555 1_555
H3K C7K 0.993 1_555 1_555
H4H C8H 1.003 1_555 1_555
H4C C8C 1.003 1_555 1_555
H4K C8K 1.003 1_555 1_555
H5H C9H 0.980 1_555 1_555
H5C C9C 0.980 1_555 1_555
H5K C9K 0.980 1_555 1_555
H6H C10H 0.977 1_555 1_555
H6C C10C 0.977 1_555 1_555
H6K C10K 0.977 1_555 1_555
H7H C11H 0.979 1_555 1_555
H7C C11C 0.979 1_555 1_555
H7K C11K 0.979 1_555 1_555
C10 C11 1.383 1_555 1_555
C2K C3K 1.406 1_555 1_555
C3C C3H 1.431 1_555 1_555
C4K C5K 1.358 1_555 1_555
C5H C5C 1.411 1_555 1_555
C10H C11H 1.383 1_555 1_555
C10C C11C 1.383 1_555 1_555
C10K C11K 1.383 1_555 1_555
#END
