
#######################################################################
#
#                 Cambridge Crystallographic Data Centre
#                                CCDC
#
#######################################################################
#
# If this CIF has been generated from an entry in the Cambridge
# Structural Database, then it will include bibliographic, chemical,
# crystal, experimental, refinement or atomic coordinate data resulting
# from the CCDC's data processing and validation procedures.
#
#######################################################################

data_CSD_CIF_QQQCIG11
_audit_creation_date 2006-05-23
_audit_creation_method CSD-ConQuest-V1
_database_code_CSD QQQCIG11
_database_code_depnum_ccdc_archive 'CCDC 605654'
_chemical_formula_sum 'C42 H28'
_chemical_formula_moiety
;
C42 H28
;
_journal_coeditor_code "IUCr BK5027"
_journal_coden_Cambridge 622
_journal_volume 62
_journal_year 2006
_journal_page_first 330
_journal_name_full 'Acta Crystallogr.,Sect.B:Struct.Sci. '
loop_
_publ_author_name
"O.D.Jurchescu"
"A.Meetsma"
"T.T.M.Palstra"
_chemical_name_systematic
;
Rubrene
;
_cell_volume   2788.513
_exptl_crystal_colour 'orange'
_exptl_crystal_density_diffrn 1.269
_exptl_special_details
;
orthorhombic polymorph

;
_exptl_crystal_description 'platelet'
_diffrn_ambient_temperature 293.0
#These two values have been output from a single CSD field.
_refine_ls_R_factor_gt 0.044
_refine_ls_wR_factor_gt 0.044
_symmetry_cell_setting orthorhombic
_symmetry_space_group_name_H-M 'C m c a'
_symmetry_Int_Tables_number 64
loop_
_symmetry_equiv_pos_site_id
_symmetry_equiv_pos_as_xyz
1 x,y,z
2 1/2+x,1/2+y,z
3 -x,1/2-y,1/2+z
4 x,-y,-z
5 -x,1/2+y,1/2-z
6 1/2-x,-y,1/2+z
7 1/2+x,1/2-y,-z
8 1/2-x,y,1/2-z
9 -x,-y,-z
10 -1/2-x,-1/2-y,-z
11 x,-1/2+y,-1/2-z
12 -x,y,z
13 x,-1/2-y,-1/2+z
14 -1/2+x,y,-1/2-z
15 -1/2-x,-1/2+y,z
16 -1/2+x,-y,-1/2+z
_cell_length_a 26.86(1)
_cell_length_b 7.193(3)
_cell_length_c 14.433(5)
_cell_angle_alpha 90
_cell_angle_beta 90
_cell_angle_gamma 90
_cell_formula_units_Z 4
loop_
_atom_type_symbol
_atom_type_radius_bond
C 0.68
H 0.23
loop_
_atom_site_label
_atom_site_type_symbol
_atom_site_fract_x
_atom_site_fract_y
_atom_site_fract_z
C1 C 0.02705(7) 0.00000 0.00000
C2 C 0.05294(5) -0.1429(2) 0.04897(10)
C3 C 0.02658(5) -0.2928(2) 0.08756(10)
C4 C 0.05147(7) -0.4433(2) 0.13347(11)
C5 C 0.02589(7) -0.5831(2) 0.17451(12)
C6 C 0.10704(6) -0.1325(2) 0.07249(11)
C7 C 0.14252(6) -0.2440(2) 0.03033(13)
C8 C 0.19095(7) -0.2455(3) 0.06085(16)
C9 C 0.20534(8) -0.1351(3) 0.13354(16)
C10 C 0.17085(8) -0.0241(3) 0.17627(15)
C11 C 0.12213(7) -0.0226(3) 0.14638(12)
H1 H 0.0875(6) -0.441(2) 0.1339(10)
H2 H 0.0444(5) -0.680(2) 0.2050(12)
H3 H 0.1318(6) -0.324(2) -0.0213(12)
H4 H 0.2165(7) -0.321(3) 0.0286(14)
H5 H 0.2409(8) -0.133(2) 0.1504(12)
H6 H 0.1794(8) 0.060(3) 0.2267(16)
H7 H 0.0955(6) 0.055(2) 0.1763(12)
C1H C -0.02705(7) 0.00000 0.00000
C2K C -0.05294(5) -0.1429(2) 0.04897(10)
C2C C 0.05294(5) 0.1429(2) -0.04897(10)
C2H C -0.05294(5) 0.1429(2) -0.04897(10)
C3K C -0.02658(5) -0.2928(2) 0.08756(10)
C3C C 0.02658(5) 0.2928(2) -0.08756(10)
C3H C -0.02658(5) 0.2928(2) -0.08756(10)
C4H C -0.05147(7) 0.4433(2) -0.13347(11)
C4C C 0.05147(7) 0.4433(2) -0.13347(11)
C4K C -0.05147(7) -0.4433(2) 0.13347(11)
C5H C -0.02589(7) 0.5831(2) -0.17451(12)
C5C C 0.02589(7) 0.5831(2) -0.17451(12)
C5K C -0.02589(7) -0.5831(2) 0.17451(12)
C6H C -0.10704(6) 0.1325(2) -0.07249(11)
C6C C 0.10704(6) 0.1325(2) -0.07249(11)
C6K C -0.10704(6) -0.1325(2) 0.07249(11)
C7H C -0.14252(6) 0.2440(2) -0.03033(13)
C7C C 0.14252(6) 0.2440(2) -0.03033(13)
C7K C -0.14252(6) -0.2440(2) 0.03033(13)
C8H C -0.19095(7) 0.2455(3) -0.06085(16)
C8C C 0.19095(7) 0.2455(3) -0.06085(16)
C8K C -0.19095(7) -0.2455(3) 0.06085(16)
C9H C -0.20534(8) 0.1351(3) -0.13354(16)
C9C C 0.20534(8) 0.1351(3) -0.13354(16)
C9K C -0.20534(8) -0.1351(3) 0.13354(16)
C10H C -0.17085(8) 0.0241(3) -0.17627(15)
C10C C 0.17085(8) 0.0241(3) -0.17627(15)
C10K C -0.17085(8) -0.0241(3) 0.17627(15)
C11H C -0.12213(7) 0.0226(3) -0.14638(12)
C11C C 0.12213(7) 0.0226(3) -0.14638(12)
C11K C -0.12213(7) -0.0226(3) 0.14638(12)
H1C H 0.0875(6) 0.441(2) -0.1339(10)
H1H H -0.0875(6) 0.441(2) -0.1339(10)
H1K H -0.0875(6) -0.441(2) 0.1339(10)
H2C H 0.0444(5) 0.680(2) -0.2050(12)
H2H H -0.0444(5) 0.680(2) -0.2050(12)
H2K H -0.0444(5) -0.680(2) 0.2050(12)
H3H H -0.1318(6) 0.324(2) 0.0213(12)
H3C H 0.1318(6) 0.324(2) 0.0213(12)
H3K H -0.1318(6) -0.324(2) -0.0213(12)
H4H H -0.2165(7) 0.321(3) -0.0286(14)
H4C H 0.2165(7) 0.321(3) -0.0286(14)
H4K H -0.2165(7) -0.321(3) 0.0286(14)
H5H H -0.2409(8) 0.133(2) -0.1504(12)
H5C H 0.2409(8) 0.133(2) -0.1504(12)
H5K H -0.2409(8) -0.133(2) 0.1504(12)
H6H H -0.1794(8) -0.060(3) -0.2267(16)
H6C H 0.1794(8) -0.060(3) -0.2267(16)
H6K H -0.1794(8) 0.060(3) 0.2267(16)
H7H H -0.0955(6) -0.055(2) -0.1763(12)
H7C H 0.0955(6) -0.055(2) -0.1763(12)
H7K H -0.0955(6) 0.055(2) 0.1763(12)
loop_
_geom_bond_atom_site_label_1
_geom_bond_atom_site_label_2
_geom_bond_distance
_geom_bond_site_symmetry_1
_geom_bond_site_symmetry_2
C1 C2 1.428 1_555 1_555
C2 C3 1.405 1_555 1_555
C3 C4 1.435 1_555 1_555
C4 C5 1.354 1_555 1_555
C5 H2 0.963 1_555 1_555
C6 C2 1.494 1_555 1_555
C7 C6 1.386 1_555 1_555
C8 C7 1.373 1_555 1_555
C9 C8 1.371 1_555 1_555
C10 C9 1.370 1_555 1_555
C11 C6 1.388 1_555 1_555
H1 C4 0.968 1_555 1_555
H3 C7 0.985 1_555 1_555
H4 C8 0.991 1_555 1_555
H5 C9 0.986 1_555 1_555
H6 C10 0.974 1_555 1_555
H7 C11 1.005 1_555 1_555
C1H C1 1.453 1_555 1_555
C2K C1H 1.428 1_555 1_555
C2C C1 1.428 1_555 1_555
C2H C1H 1.428 1_555 1_555
C3K C3 1.428 1_555 1_555
C3C C2C 1.405 1_555 1_555
C3H C2H 1.405 1_555 1_555
C4H C3H 1.435 1_555 1_555
C4C C3C 1.435 1_555 1_555
C4K C3K 1.435 1_555 1_555
C5H C4H 1.354 1_555 1_555
C5C C4C 1.354 1_555 1_555
C5K C5 1.391 1_555 1_555
C6H C2H 1.494 1_555 1_555
C6C C2C 1.494 1_555 1_555
C6K C2K 1.494 1_555 1_555
C7H C6H 1.386 1_555 1_555
C7C C6C 1.386 1_555 1_555
C7K C6K 1.386 1_555 1_555
C8H C7H 1.373 1_555 1_555
C8C C7C 1.373 1_555 1_555
C8K C7K 1.373 1_555 1_555
C9H C8H 1.371 1_555 1_555
C9C C8C 1.371 1_555 1_555
C9K C8K 1.371 1_555 1_555
C10H C9H 1.370 1_555 1_555
C10C C9C 1.370 1_555 1_555
C10K C9K 1.370 1_555 1_555
C11H C6H 1.388 1_555 1_555
C11C C6C 1.388 1_555 1_555
C11K C6K 1.388 1_555 1_555
H1C C4C 0.968 1_555 1_555
H1H C4H 0.968 1_555 1_555
H1K C4K 0.968 1_555 1_555
H2C C5C 0.963 1_555 1_555
H2H C5H 0.963 1_555 1_555
H2K C5K 0.963 1_555 1_555
H3H C7H 0.985 1_555 1_555
H3C C7C 0.985 1_555 1_555
H3K C7K 0.985 1_555 1_555
H4H C8H 0.991 1_555 1_555
H4C C8C 0.991 1_555 1_555
H4K C8K 0.991 1_555 1_555
H5H C9H 0.986 1_555 1_555
H5C C9C 0.986 1_555 1_555
H5K C9K 0.986 1_555 1_555
H6H C10H 0.974 1_555 1_555
H6C C10C 0.974 1_555 1_555
H6K C10K 0.974 1_555 1_555
H7H C11H 1.005 1_555 1_555
H7C C11C 1.005 1_555 1_555
H7K C11K 1.005 1_555 1_555
C10 C11 1.378 1_555 1_555
C2K C3K 1.405 1_555 1_555
C3C C3H 1.428 1_555 1_555
C4K C5K 1.354 1_555 1_555
C5H C5C 1.391 1_555 1_555
C10H C11H 1.378 1_555 1_555
C10C C11C 1.378 1_555 1_555
C10K C11K 1.378 1_555 1_555
#END
