
#######################################################################
#
#                 Cambridge Crystallographic Data Centre
#                                CCDC
#
#######################################################################
#
# If this CIF has been generated from an entry in the Cambridge
# Structural Database, then it will include bibliographic, chemical,
# crystal, experimental, refinement or atomic coordinate data resulting
# from the CCDC's data processing and validation procedures.
#
#######################################################################

data_CSD_CIF_QQQCIG31
_audit_creation_date 2016-06-09
_audit_creation_method CSD-ConQuest-V1
_database_code_CSD QQQCIG31
_database_code_depnum_ccdc_archive 'CCDC 991019'
_chemical_formula_sum 'C42 H28'
_chemical_formula_moiety
;
C42 H28
;
_journal_coden_Cambridge 983
_journal_volume 119
_journal_year 2014
_journal_page_first 13476
_journal_name_full 'J.Phys.Chem.C '
loop_
_publ_author_name
"S.Bergantin"
"M.Moret"
"G.Buth"
"F.P.A.Fabbiani"
_chemical_name_systematic
;
5,6,11,12-tetraphenyltetracene
;
_chemical_name_common
;
rubrene
;
_chemical_melting_point 588
_cell_volume    697.863
_exptl_crystal_colour 'red'
_exptl_crystal_density_diffrn 1.267
_exptl_special_details
;
Luminescent
polymorph I
Oxygen-sensitive, Light-sensitive

;
_exptl_crystal_description 'prism'
_exptl_crystal_preparation '1,1,2,2-Tetrachloroethane'
_diffrn_ambient_temperature 293
_diffrn_special_details
;
twin

;
#These two values have been output from a single CSD field.
_refine_ls_R_factor_gt 0.0524
_refine_ls_wR_factor_gt 0.0524
_symmetry_cell_setting triclinic
_symmetry_space_group_name_H-M 'P -1'
_symmetry_Int_Tables_number 2
loop_
_symmetry_equiv_pos_site_id
_symmetry_equiv_pos_as_xyz
1 x,y,z
2 -x,-y,-z
_cell_length_a 7.0883(7)
_cell_length_b 8.5994(8)
_cell_length_c 12.0059(11)
_cell_angle_alpha 93.486(5)
_cell_angle_beta 105.642(5)
_cell_angle_gamma 95.977(5)
_cell_formula_units_Z 1
loop_
_atom_type_symbol
_atom_type_radius_bond
C 0.68
H 0.23
loop_
_atom_site_label
_atom_site_type_symbol
_atom_site_fract_x
_atom_site_fract_y
_atom_site_fract_z
C1 C 0.5349(3) 0.19760(16) 0.83716(13)
C2 C 0.4208(3) 0.0656(2) 0.85595(13)
H1 H 0.37610 0.06540 0.92200
C3 C 0.3736(3) -0.06618(17) 0.77602(16)
H2 H 0.29730 -0.15450 0.78860
C4 C 0.4404(3) -0.06590(18) 0.67730(15)
H3 H 0.40880 -0.15400 0.62380
C5 C 0.5545(3) 0.0661(2) 0.65851(13)
H4 H 0.59920 0.06630 0.59250
C6 C 0.6017(3) 0.19788(18) 0.73844(14)
H5 H 0.67800 0.28620 0.72590
C7 C 0.2396(3) 0.3888(2) 0.73598(11)
C8 C 0.1046(3) 0.2540(2) 0.70009(14)
H6 H 0.05520 0.20210 0.75400
C9 C 0.0434(3) 0.19650(19) 0.58361(15)
H7 H -0.04690 0.10630 0.55960
C10 C 0.1172(3) 0.2739(2) 0.50302(11)
H8 H 0.07630 0.23550 0.42510
C11 C 0.2522(3) 0.4088(2) 0.53890(13)
H9 H 0.30160 0.46060 0.48500
C12 C 0.3134(3) 0.46627(19) 0.65538(15)
H10 H 0.40370 0.55650 0.67940
C13 C 0.5967(4) 0.3335(3) 0.9304(2)
C14 C 0.4723(4) 0.4477(3) 0.9461(2)
C15 C 0.2938(4) 0.4639(3) 0.8598(2)
C16 C 0.1649(4) 0.5670(3) 0.8824(2)
C17 C -0.0188(4) 0.5821(3) 0.7984(2)
H11 H -0.05520 0.51890 0.72850
C18 C -0.1393(4) 0.6854(4) 0.8181(3)
H12 H -0.25720 0.69200 0.76220
C19 C -0.0880(4) 0.7833(4) 0.9229(3)
H13 H -0.17330 0.85270 0.93650
C20 C 0.0850(4) 0.7767(3) 1.0038(2)
H14 H 0.11800 0.84420 1.07150
C21 C 0.2193(4) 0.6687(3) 0.9882(2)
C1A C 0.4651(3) 0.80240(16) 1.16284(13)
C2A C 0.5792(3) 0.9344(2) 1.14405(13)
H1A H 0.62390 0.93460 1.07800
C3A C 0.6264(3) 1.06618(17) 1.22398(16)
H2A H 0.70270 1.15450 1.21140
C4A C 0.5596(3) 1.06590(18) 1.32270(15)
H3A H 0.59120 1.15400 1.37620
C5A C 0.4455(3) 0.9339(2) 1.34149(13)
H4A H 0.40080 0.93370 1.40750
C6A C 0.3983(3) 0.80212(18) 1.26156(14)
H5A H 0.32200 0.71380 1.27410
C7A C 0.7604(3) 0.6112(2) 1.26402(11)
C8A C 0.8954(3) 0.7460(2) 1.29991(14)
H6A H 0.94480 0.79790 1.24600
C9A C 0.9566(3) 0.80350(19) 1.41639(15)
H7A H 1.04690 0.89370 1.44040
C10A C 0.8828(3) 0.7261(2) 1.49698(11)
H8A H 0.92370 0.76450 1.57490
C11A C 0.7478(3) 0.5912(2) 1.46110(13)
H9A H 0.69840 0.53940 1.51500
C12A C 0.6866(3) 0.53373(19) 1.34462(15)
H10A H 0.59630 0.44350 1.32060
C13A C 0.4033(4) 0.6665(3) 1.0696(2)
C14A C 0.5277(4) 0.5523(3) 1.0539(2)
C15A C 0.7062(4) 0.5361(3) 1.1402(2)
C16A C 0.8351(4) 0.4330(3) 1.1176(2)
C17A C 1.0188(4) 0.4179(3) 1.2016(2)
H11A H 1.05520 0.48110 1.27150
C18A C 1.1393(4) 0.3146(4) 1.1819(3)
H12A H 1.25720 0.30800 1.23780
C19A C 1.0880(4) 0.2167(4) 1.0771(3)
H13A H 1.17330 0.14730 1.06350
C20A C 0.9150(4) 0.2233(3) 0.9962(2)
H14A H 0.88200 0.15580 0.92850
C21A C 0.7807(4) 0.3313(3) 1.0118(2)
loop_
_geom_bond_atom_site_label_1
_geom_bond_atom_site_label_2
_geom_bond_distance
_geom_bond_site_symmetry_1
_geom_bond_site_symmetry_2
C1 C2 1.390 1_555 1_555
C2 H1 0.930 1_555 1_555
C3 C2 1.390 1_555 1_555
H2 C3 0.930 1_555 1_555
C4 C3 1.390 1_555 1_555
H3 C4 0.930 1_555 1_555
C5 C4 1.390 1_555 1_555
H4 C5 0.929 1_555 1_555
C6 C1 1.390 1_555 1_555
H5 C6 0.930 1_555 1_555
C7 C8 1.390 1_555 1_555
C8 H6 0.930 1_555 1_555
C9 C8 1.390 1_555 1_555
H7 C9 0.930 1_555 1_555
C10 C9 1.390 1_555 1_555
H8 C10 0.930 1_555 1_555
C11 C10 1.390 1_555 1_555
H9 C11 0.930 1_555 1_555
C12 C7 1.390 1_555 1_555
H10 C12 0.930 1_555 1_555
C13 C1 1.510 1_555 1_555
C14 C13 1.423 1_555 1_555
C15 C7 1.516 1_555 1_555
C16 C15 1.403 1_555 1_555
C17 C16 1.440 1_555 1_555
H11 C17 0.930 1_555 1_555
C18 C17 1.348 1_555 1_555
H12 C18 0.930 1_555 1_555
C19 C18 1.409 1_555 1_555
H13 C19 0.930 1_555 1_555
C20 C19 1.353 1_555 1_555
H14 C20 0.930 1_555 1_555
C21 C16 1.434 1_555 1_555
C1A C2A 1.390 1_555 1_555
C2A H1A 0.930 1_555 1_555
C3A C2A 1.390 1_555 1_555
H2A C3A 0.930 1_555 1_555
C4A C3A 1.390 1_555 1_555
H3A C4A 0.930 1_555 1_555
C5A C4A 1.390 1_555 1_555
H4A C5A 0.929 1_555 1_555
C6A C1A 1.390 1_555 1_555
H5A C6A 0.930 1_555 1_555
C7A C8A 1.390 1_555 1_555
C8A H6A 0.930 1_555 1_555
C9A C8A 1.390 1_555 1_555
H7A C9A 0.930 1_555 1_555
C10A C9A 1.390 1_555 1_555
H8A C10A 0.930 1_555 1_555
C11A C10A 1.390 1_555 1_555
H9A C11A 0.930 1_555 1_555
C12A C7A 1.390 1_555 1_555
H10A C12A 0.930 1_555 1_555
C13A C21 1.406 1_555 1_555
C14A C14 1.466 1_555 1_555
C15A C7A 1.516 1_555 1_555
C16A C15A 1.403 1_555 1_555
C17A C16A 1.440 1_555 1_555
H11A C17A 0.930 1_555 1_555
C18A C17A 1.348 1_555 1_555
H12A C18A 0.930 1_555 1_555
C19A C18A 1.409 1_555 1_555
H13A C19A 0.930 1_555 1_555
C20A C19A 1.353 1_555 1_555
H14A C20A 0.930 1_555 1_555
C21A C13 1.406 1_555 1_555
C5 C6 1.390 1_555 1_555
C11 C12 1.390 1_555 1_555
C14 C15 1.429 1_555 1_555
C20 C21 1.436 1_555 1_555
C1A C13A 1.510 1_555 1_555
C5A C6A 1.390 1_555 1_555
C11A C12A 1.390 1_555 1_555
C13A C14A 1.423 1_555 1_555
C14A C15A 1.429 1_555 1_555
C16A C21A 1.434 1_555 1_555
C20A C21A 1.436 1_555 1_555
#END
