
#######################################################################
#
#                 Cambridge Crystallographic Data Centre
#                                CCDC
#
#######################################################################
#
# If this CIF has been generated from an entry in the Cambridge
# Structural Database, then it will include bibliographic, chemical,
# crystal, experimental, refinement or atomic coordinate data resulting
# from the CCDC's data processing and validation procedures.
#
#######################################################################

data_CSD_CIF_QQQCIG10
_audit_creation_date 2006-05-23
_audit_creation_method CSD-ConQuest-V1
_database_code_CSD QQQCIG10
_database_code_depnum_ccdc_archive 'CCDC 605653'
_chemical_formula_sum 'C42 H28'
_chemical_formula_moiety
;
C42 H28
;
_journal_coeditor_code "IUCr BK5027"
_journal_coden_Cambridge 622
_journal_volume 62
_journal_year 2006
_journal_page_first 330
_journal_name_full 'Acta Crystallogr.,Sect.B:Struct.Sci. '
loop_
_publ_author_name
"O.D.Jurchescu"
"A.Meetsma"
"T.T.M.Palstra"
_chemical_name_systematic
;
Rubrene
;
_cell_volume   2809.048
_exptl_crystal_colour 'orange'
_exptl_crystal_density_diffrn 1.259
_exptl_special_details
;
orthorhombic polymorph

;
_exptl_crystal_description 'platelet'
_diffrn_ambient_temperature 275.0
#These two values have been output from a single CSD field.
_refine_ls_R_factor_gt 0.0419
_refine_ls_wR_factor_gt 0.0419
_symmetry_cell_setting orthorhombic
_symmetry_space_group_name_H-M 'C m c a'
_symmetry_Int_Tables_number 64
loop_
_symmetry_equiv_pos_site_id
_symmetry_equiv_pos_as_xyz
1 x,y,z
2 1/2+x,1/2+y,z
3 -x,1/2-y,1/2+z
4 x,-y,-z
5 -x,1/2+y,1/2-z
6 1/2-x,-y,1/2+z
7 1/2+x,1/2-y,-z
8 1/2-x,y,1/2-z
9 -x,-y,-z
10 -1/2-x,-1/2-y,-z
11 x,-1/2+y,-1/2-z
12 -x,y,z
13 x,-1/2-y,-1/2+z
14 -1/2+x,y,-1/2-z
15 -1/2-x,-1/2+y,z
16 -1/2+x,-y,-1/2+z
_cell_length_a 26.938(5)
_cell_length_b 7.211(1)
_cell_length_c 14.461(3)
_cell_angle_alpha 90
_cell_angle_beta 90
_cell_angle_gamma 90
_cell_formula_units_Z 4
loop_
_atom_type_symbol
_atom_type_radius_bond
C 0.68
H 0.23
loop_
_atom_site_label
_atom_site_type_symbol
_atom_site_fract_x
_atom_site_fract_y
_atom_site_fract_z
C1 C 0.02714(7) 0.00000 0.00000
C2 C 0.05290(5) -0.14318(18) 0.04901(9)
C3 C 0.02661(5) -0.29299(18) 0.08757(9)
C4 C 0.05169(7) -0.4439(2) 0.13369(10)
C5 C 0.02612(7) -0.5841(2) 0.17468(11)
C6 C 0.10704(6) -0.13275(19) 0.07255(10)
C7 C 0.14248(6) -0.2446(2) 0.03009(12)
C8 C 0.19109(7) -0.2464(3) 0.06060(15)
C9 C 0.20544(8) -0.1361(3) 0.13363(15)
C10 C 0.17115(8) -0.0238(3) 0.17662(14)
C11 C 0.12231(7) -0.0226(2) 0.14648(11)
H1 H 0.0890(7) -0.441(2) 0.1366(12)
H2 H 0.0450(6) -0.684(2) 0.2061(12)
H3 H 0.1322(6) -0.324(2) -0.0219(12)
H4 H 0.2160(7) -0.324(3) 0.0268(14)
H5 H 0.2404(9) -0.138(3) 0.1536(15)
H6 H 0.1794(8) 0.057(3) 0.2296(16)
H7 H 0.0964(7) 0.050(2) 0.1780(13)
C1H C -0.02714(7) 0.00000 0.00000
C2K C -0.05290(5) -0.14318(18) 0.04901(9)
C2C C 0.05290(5) 0.14318(18) -0.04901(9)
C2H C -0.05290(5) 0.14318(18) -0.04901(9)
C3K C -0.02661(5) -0.29299(18) 0.08757(9)
C3C C 0.02661(5) 0.29299(18) -0.08757(9)
C3H C -0.02661(5) 0.29299(18) -0.08757(9)
C4H C -0.05169(7) 0.4439(2) -0.13369(10)
C4C C 0.05169(7) 0.4439(2) -0.13369(10)
C4K C -0.05169(7) -0.4439(2) 0.13369(10)
C5H C -0.02612(7) 0.5841(2) -0.17468(11)
C5C C 0.02612(7) 0.5841(2) -0.17468(11)
C5K C -0.02612(7) -0.5841(2) 0.17468(11)
C6H C -0.10704(6) 0.13275(19) -0.07255(10)
C6C C 0.10704(6) 0.13275(19) -0.07255(10)
C6K C -0.10704(6) -0.13275(19) 0.07255(10)
C7H C -0.14248(6) 0.2446(2) -0.03009(12)
C7C C 0.14248(6) 0.2446(2) -0.03009(12)
C7K C -0.14248(6) -0.2446(2) 0.03009(12)
C8H C -0.19109(7) 0.2464(3) -0.06060(15)
C8C C 0.19109(7) 0.2464(3) -0.06060(15)
C8K C -0.19109(7) -0.2464(3) 0.06060(15)
C9H C -0.20544(8) 0.1361(3) -0.13363(15)
C9C C 0.20544(8) 0.1361(3) -0.13363(15)
C9K C -0.20544(8) -0.1361(3) 0.13363(15)
C10H C -0.17115(8) 0.0238(3) -0.17662(14)
C10C C 0.17115(8) 0.0238(3) -0.17662(14)
C10K C -0.17115(8) -0.0238(3) 0.17662(14)
C11H C -0.12231(7) 0.0226(2) -0.14648(11)
C11C C 0.12231(7) 0.0226(2) -0.14648(11)
C11K C -0.12231(7) -0.0226(2) 0.14648(11)
H1C H 0.0890(7) 0.441(2) -0.1366(12)
H1H H -0.0890(7) 0.441(2) -0.1366(12)
H1K H -0.0890(7) -0.441(2) 0.1366(12)
H2C H 0.0450(6) 0.684(2) -0.2061(12)
H2H H -0.0450(6) 0.684(2) -0.2061(12)
H2K H -0.0450(6) -0.684(2) 0.2061(12)
H3H H -0.1322(6) 0.324(2) 0.0219(12)
H3C H 0.1322(6) 0.324(2) 0.0219(12)
H3K H -0.1322(6) -0.324(2) -0.0219(12)
H4H H -0.2160(7) 0.324(3) -0.0268(14)
H4C H 0.2160(7) 0.324(3) -0.0268(14)
H4K H -0.2160(7) -0.324(3) 0.0268(14)
H5H H -0.2404(9) 0.138(3) -0.1536(15)
H5C H 0.2404(9) 0.138(3) -0.1536(15)
H5K H -0.2404(9) -0.138(3) 0.1536(15)
H6H H -0.1794(8) -0.057(3) -0.2296(16)
H6C H 0.1794(8) -0.057(3) -0.2296(16)
H6K H -0.1794(8) 0.057(3) 0.2296(16)
H7H H -0.0964(7) -0.050(2) -0.1780(13)
H7C H 0.0964(7) -0.050(2) -0.1780(13)
H7K H -0.0964(7) 0.050(2) 0.1780(13)
loop_
_geom_bond_atom_site_label_1
_geom_bond_atom_site_label_2
_geom_bond_distance
_geom_bond_site_symmetry_1
_geom_bond_site_symmetry_2
C1 C2 1.432 1_555 1_555
C2 C3 1.407 1_555 1_555
C3 C4 1.444 1_555 1_555
C4 C5 1.359 1_555 1_555
C5 H2 0.992 1_555 1_555
C6 C2 1.500 1_555 1_555
C7 C6 1.392 1_555 1_555
C8 C7 1.382 1_555 1_555
C9 C8 1.377 1_555 1_555
C10 C9 1.377 1_555 1_555
C11 C6 1.394 1_555 1_555
H1 C4 1.006 1_555 1_555
H3 C7 0.985 1_555 1_555
H4 C8 1.001 1_555 1_555
H5 C9 0.985 1_555 1_555
H6 C10 0.988 1_555 1_555
H7 C11 0.984 1_555 1_555
C1H C1 1.462 1_555 1_555
C2K C1H 1.432 1_555 1_555
C2C C1 1.432 1_555 1_555
C2H C1H 1.432 1_555 1_555
C3K C3 1.434 1_555 1_555
C3C C2C 1.407 1_555 1_555
C3H C2H 1.407 1_555 1_555
C4H C3H 1.444 1_555 1_555
C4C C3C 1.444 1_555 1_555
C4K C3K 1.444 1_555 1_555
C5H C4H 1.359 1_555 1_555
C5C C4C 1.359 1_555 1_555
C5K C5 1.407 1_555 1_555
C6H C2H 1.500 1_555 1_555
C6C C2C 1.500 1_555 1_555
C6K C2K 1.500 1_555 1_555
C7H C6H 1.392 1_555 1_555
C7C C6C 1.392 1_555 1_555
C7K C6K 1.392 1_555 1_555
C8H C7H 1.382 1_555 1_555
C8C C7C 1.382 1_555 1_555
C8K C7K 1.382 1_555 1_555
C9H C8H 1.377 1_555 1_555
C9C C8C 1.377 1_555 1_555
C9K C8K 1.377 1_555 1_555
C10H C9H 1.377 1_555 1_555
C10C C9C 1.377 1_555 1_555
C10K C9K 1.377 1_555 1_555
C11H C6H 1.394 1_555 1_555
C11C C6C 1.394 1_555 1_555
C11K C6K 1.394 1_555 1_555
H1C C4C 1.006 1_555 1_555
H1H C4H 1.006 1_555 1_555
H1K C4K 1.006 1_555 1_555
H2C C5C 0.992 1_555 1_555
H2H C5H 0.992 1_555 1_555
H2K C5K 0.992 1_555 1_555
H3H C7H 0.985 1_555 1_555
H3C C7C 0.985 1_555 1_555
H3K C7K 0.985 1_555 1_555
H4H C8H 1.001 1_555 1_555
H4C C8C 1.001 1_555 1_555
H4K C8K 1.001 1_555 1_555
H5H C9H 0.985 1_555 1_555
H5C C9C 0.985 1_555 1_555
H5K C9K 0.985 1_555 1_555
H6H C10H 0.988 1_555 1_555
H6C C10C 0.988 1_555 1_555
H6K C10K 0.988 1_555 1_555
H7H C11H 0.984 1_555 1_555
H7C C11C 0.984 1_555 1_555
H7K C11K 0.984 1_555 1_555
C10 C11 1.386 1_555 1_555
C2K C3K 1.407 1_555 1_555
C3C C3H 1.434 1_555 1_555
C4K C5K 1.359 1_555 1_555
C5H C5C 1.407 1_555 1_555
C10H C11H 1.386 1_555 1_555
C10C C11C 1.386 1_555 1_555
C10K C11K 1.386 1_555 1_555
#END
