
#######################################################################
#
#                 Cambridge Crystallographic Data Centre
#                                CCDC
#
#######################################################################
#
# If this CIF has been generated from an entry in the Cambridge
# Structural Database, then it will include bibliographic, chemical,
# crystal, experimental, refinement or atomic coordinate data resulting
# from the CCDC's data processing and validation procedures.
#
#######################################################################

data_CSD_CIF_QQQCIG29
_audit_creation_date 2016-06-09
_audit_creation_method CSD-ConQuest-V1
_database_code_CSD QQQCIG29
_database_code_depnum_ccdc_archive 'CCDC 991025'
_chemical_formula_sum 'C42 H28'
_chemical_formula_moiety
;
C42 H28
;
_journal_coden_Cambridge 983
_journal_volume 119
_journal_year 2014
_journal_page_first 13476
_journal_name_full 'J.Phys.Chem.C '
loop_
_publ_author_name
"S.Bergantin"
"M.Moret"
"G.Buth"
"F.P.A.Fabbiani"
_chemical_name_systematic
;
5,6,11,12-tetraphenyltetracene
;
_chemical_name_common
;
rubrene
;
_chemical_melting_point 588
_cell_volume    542.808
_exptl_crystal_colour 'red'
_exptl_crystal_density_diffrn 1.629
_exptl_special_details
;
Luminescent, high-pressure data collection in a diamond anvil cell.
polymorph I
Oxygen-sensitive, Light-sensitive
;
_exptl_crystal_description 'prism'
_exptl_crystal_preparation '1,1,2,2-Tetrachloroethane'
_diffrn_ambient_temperature 293
_diffrn_ambient_pressure 5910000.0
_diffrn_radiation_probe x-ray
_diffrn_source synchrotron
_diffrn_special_details
;
twin

;
#These two values have been output from a single CSD field.
_refine_ls_R_factor_gt 0.0561
_refine_ls_wR_factor_gt 0.0561
_symmetry_cell_setting triclinic
_symmetry_space_group_name_H-M 'P -1'
_symmetry_Int_Tables_number 2
loop_
_symmetry_equiv_pos_site_id
_symmetry_equiv_pos_as_xyz
1 x,y,z
2 -x,-y,-z
_cell_length_a 6.6162(4)
_cell_length_b 7.6757(17)
_cell_length_c 11.1002(13)
_cell_angle_alpha 87.399(17)
_cell_angle_beta 104.322(7)
_cell_angle_gamma 96.289(9)
_cell_formula_units_Z 1
loop_
_atom_type_symbol
_atom_type_radius_bond
C 0.68
H 0.23
loop_
_atom_site_label
_atom_site_type_symbol
_atom_site_fract_x
_atom_site_fract_y
_atom_site_fract_z
C1 C 0.5453(6) 0.1792(8) 0.8396(4)
C2 C 0.4034(6) 0.0385(8) 0.8569(4)
H1 H 0.35190 0.03110 0.92790
C3 C 0.3385(6) -0.0911(8) 0.7680(5)
H2 H 0.24360 -0.18520 0.77960
C4 C 0.4154(6) -0.0800(8) 0.6619(5)
H3 H 0.37200 -0.16660 0.60250
C5 C 0.5573(6) 0.0607(8) 0.6447(4)
H4 H 0.60880 0.06820 0.57370
C6 C 0.6222(5) 0.1903(8) 0.7335(4)
H5 H 0.71720 0.28440 0.72200
C7 C 0.2285(5) 0.3855(8) 0.7278(4)
C8 C 0.0863(5) 0.2374(7) 0.6978(4)
H6 H 0.03090 0.17770 0.75900
C9 C 0.0271(5) 0.1787(7) 0.5763(4)
H7 H -0.06800 0.07960 0.55620
C10 C 0.1100(6) 0.2680(8) 0.4848(4)
H8 H 0.07030 0.22860 0.40350
C11 C 0.2521(6) 0.4160(8) 0.5148(4)
H9 H 0.30750 0.47580 0.45360
C12 C 0.3113(5) 0.4748(7) 0.6363(4)
H10 H 0.40640 0.57390 0.65640
C13 C 0.6114(7) 0.3236(14) 0.9327(8)
C14 C 0.4724(7) 0.4426(15) 0.9460(8)
C15 C 0.2809(7) 0.4599(15) 0.8572(7)
C16 C 0.1370(7) 0.5625(16) 0.8806(8)
C17 C -0.0589(7) 0.5811(16) 0.7918(9)
H11 H -0.09200 0.51580 0.71970
C18 C -0.1939(7) 0.6873(16) 0.8085(9)
H12 H -0.32150 0.69180 0.75030
C19 C -0.1443(8) 0.7946(17) 0.9150(9)
H13 H -0.24030 0.86810 0.92690
C20 C 0.0391(7) 0.7902(16) 0.9977(9)
H14 H 0.07060 0.86410 1.06540
C21 C 0.1884(7) 0.6764(15) 0.9860(8)
C1A C 0.4547(6) 0.8208(8) 1.1604(4)
C2A C 0.5966(6) 0.9615(8) 1.1431(4)
H1A H 0.64810 0.96890 1.07210
C3A C 0.6615(6) 1.0911(8) 1.2320(5)
H2A H 0.75640 1.18520 1.22040
C4A C 0.5846(6) 1.0800(8) 1.3381(5)
H3A H 0.62800 1.16660 1.39750
C5A C 0.4427(6) 0.9393(8) 1.3553(4)
H4A H 0.39120 0.93180 1.42630
C6A C 0.3778(5) 0.8097(8) 1.2665(4)
H5A H 0.28280 0.71560 1.27800
C7A C 0.7715(5) 0.6145(8) 1.2722(4)
C8A C 0.9137(5) 0.7626(7) 1.3022(4)
H6A H 0.96910 0.82230 1.24100
C9A C 0.9729(5) 0.8213(7) 1.4237(4)
H7A H 1.06800 0.92040 1.44380
C10A C 0.8900(6) 0.7320(8) 1.5152(4)
H8A H 0.92970 0.77140 1.59650
C11A C 0.7479(6) 0.5840(8) 1.4852(4)
H9A H 0.69250 0.52420 1.54640
C12A C 0.6887(5) 0.5252(7) 1.3637(4)
H10A H 0.59360 0.42610 1.34360
C13A C 0.3886(7) 0.6764(14) 1.0673(8)
C14A C 0.5276(7) 0.5574(15) 1.0540(8)
C15A C 0.7191(7) 0.5401(15) 1.1428(7)
C16A C 0.8630(7) 0.4375(16) 1.1194(8)
C17A C 1.0589(7) 0.4189(16) 1.2082(9)
H11A H 1.09200 0.48420 1.28030
C18A C 1.1939(7) 0.3127(16) 1.1915(9)
H12A H 1.32150 0.30820 1.24970
C19A C 1.1443(8) 0.2054(17) 1.0850(9)
H13A H 1.24030 0.13190 1.07310
C20A C 0.9609(7) 0.2098(16) 1.0023(9)
H14A H 0.92940 0.13590 0.93460
C21A C 0.8116(7) 0.3236(15) 1.0140(8)
loop_
_geom_bond_atom_site_label_1
_geom_bond_atom_site_label_2
_geom_bond_distance
_geom_bond_site_symmetry_1
_geom_bond_site_symmetry_2
C1 C2 1.390 1_555 1_555
C2 H1 0.930 1_555 1_555
C3 C2 1.391 1_555 1_555
H2 C3 0.930 1_555 1_555
C4 C3 1.390 1_555 1_555
H3 C4 0.929 1_555 1_555
C5 C4 1.390 1_555 1_555
H4 C5 0.930 1_555 1_555
C6 C1 1.390 1_555 1_555
H5 C6 0.930 1_555 1_555
C7 C8 1.390 1_555 1_555
C8 H6 0.929 1_555 1_555
C9 C8 1.389 1_555 1_555
H7 C9 0.930 1_555 1_555
C10 C9 1.390 1_555 1_555
H8 C10 0.930 1_555 1_555
C11 C10 1.390 1_555 1_555
H9 C11 0.930 1_555 1_555
C12 C7 1.390 1_555 1_555
H10 C12 0.930 1_555 1_555
C13 C1 1.504 1_555 1_555
C14 C13 1.402 1_555 1_555
C15 C7 1.515 1_555 1_555
C16 C15 1.378 1_555 1_555
C17 C16 1.438 1_555 1_555
H11 C17 0.930 1_555 1_555
C18 C17 1.324 1_555 1_555
H12 C18 0.930 1_555 1_555
C19 C18 1.422 1_555 1_555
H13 C19 0.931 1_555 1_555
C20 C19 1.331 1_555 1_555
H14 C20 0.930 1_555 1_555
C21 C16 1.442 1_555 1_555
C1A C2A 1.390 1_555 1_555
C2A H1A 0.930 1_555 1_555
C3A C2A 1.391 1_555 1_555
H2A C3A 0.930 1_555 1_555
C4A C3A 1.390 1_555 1_555
H3A C4A 0.929 1_555 1_555
C5A C4A 1.390 1_555 1_555
H4A C5A 0.930 1_555 1_555
C6A C1A 1.390 1_555 1_555
H5A C6A 0.930 1_555 1_555
C7A C8A 1.390 1_555 1_555
C8A H6A 0.929 1_555 1_555
C9A C8A 1.389 1_555 1_555
H7A C9A 0.930 1_555 1_555
C10A C9A 1.390 1_555 1_555
H8A C10A 0.930 1_555 1_555
C11A C10A 1.390 1_555 1_555
H9A C11A 0.930 1_555 1_555
C12A C7A 1.390 1_555 1_555
H10A C12A 0.930 1_555 1_555
C13A C21 1.406 1_555 1_555
C14A C14 1.468 1_555 1_555
C15A C7A 1.515 1_555 1_555
C16A C15A 1.378 1_555 1_555
C17A C16A 1.438 1_555 1_555
H11A C17A 0.930 1_555 1_555
C18A C17A 1.324 1_555 1_555
H12A C18A 0.930 1_555 1_555
C19A C18A 1.422 1_555 1_555
H13A C19A 0.931 1_555 1_555
C20A C19A 1.331 1_555 1_555
H14A C20A 0.930 1_555 1_555
C21A C13 1.406 1_555 1_555
C5 C6 1.390 1_555 1_555
C11 C12 1.390 1_555 1_555
C14 C15 1.415 1_555 1_555
C20 C21 1.421 1_555 1_555
C1A C13A 1.504 1_555 1_555
C5A C6A 1.390 1_555 1_555
C11A C12A 1.390 1_555 1_555
C13A C14A 1.402 1_555 1_555
C14A C15A 1.415 1_555 1_555
C16A C21A 1.442 1_555 1_555
C20A C21A 1.421 1_555 1_555
#END
