
#######################################################################
#
#                 Cambridge Crystallographic Data Centre
#                                CCDC
#
#######################################################################
#
# If this CIF has been generated from an entry in the Cambridge
# Structural Database, then it will include bibliographic, chemical,
# crystal, experimental, refinement or atomic coordinate data resulting
# from the CCDC's data processing and validation procedures.
#
#######################################################################

data_CSD_CIF_QQQCIG06
_audit_creation_date 2006-05-23
_audit_creation_method CSD-ConQuest-V1
_database_code_CSD QQQCIG06
_database_code_depnum_ccdc_archive 'CCDC 605649'
_chemical_formula_sum 'C42 H28'
_chemical_formula_moiety
;
C42 H28
;
_journal_coeditor_code "IUCr BK5027"
_journal_coden_Cambridge 622
_journal_volume 62
_journal_year 2006
_journal_page_first 330
_journal_name_full 'Acta Crystallogr.,Sect.B:Struct.Sci. '
loop_
_publ_author_name
"O.D.Jurchescu"
"A.Meetsma"
"T.T.M.Palstra"
_chemical_name_systematic
;
Rubrene
;
_cell_volume   2736.441
_exptl_crystal_colour 'orange'
_exptl_crystal_density_diffrn 1.293
_exptl_special_details
;
orthorhombic polymorph

;
_exptl_crystal_description 'platelet'
_diffrn_ambient_temperature 150.0
#These two values have been output from a single CSD field.
_refine_ls_R_factor_gt 0.0387
_refine_ls_wR_factor_gt 0.0387
_symmetry_cell_setting orthorhombic
_symmetry_space_group_name_H-M 'C m c a'
_symmetry_Int_Tables_number 64
loop_
_symmetry_equiv_pos_site_id
_symmetry_equiv_pos_as_xyz
1 x,y,z
2 1/2+x,1/2+y,z
3 -x,1/2-y,1/2+z
4 x,-y,-z
5 -x,1/2+y,1/2-z
6 1/2-x,-y,1/2+z
7 1/2+x,1/2-y,-z
8 1/2-x,y,1/2-z
9 -x,-y,-z
10 -1/2-x,-1/2-y,-z
11 x,-1/2+y,-1/2-z
12 -x,y,z
13 x,-1/2-y,-1/2+z
14 -1/2+x,y,-1/2-z
15 -1/2-x,-1/2+y,z
16 -1/2+x,-y,-1/2+z
_cell_length_a 26.775(4)
_cell_length_b 7.168(1)
_cell_length_c 14.258(2)
_cell_angle_alpha 90
_cell_angle_beta 90
_cell_angle_gamma 90
_cell_formula_units_Z 4
loop_
_atom_type_symbol
_atom_type_radius_bond
C 0.68
H 0.23
loop_
_atom_site_label
_atom_site_type_symbol
_atom_site_fract_x
_atom_site_fract_y
_atom_site_fract_z
C1 C 0.02727(7) 0.00000 0.00000
C2 C 0.05307(5) -0.14417(18) 0.04907(9)
C3 C 0.02670(5) -0.29515(18) 0.08757(8)
C4 C 0.05186(6) -0.44662(19) 0.13409(9)
C5 C 0.02630(6) -0.58805(19) 0.17505(10)
C6 C 0.10744(5) -0.13413(18) 0.07267(9)
C7 C 0.14283(5) -0.2470(2) 0.02912(10)
C8 C 0.19169(6) -0.2498(2) 0.06004(12)
C9 C 0.20647(6) -0.1379(2) 0.13425(11)
C10 C 0.17191(6) -0.0249(2) 0.17798(11)
C11 C 0.12289(6) -0.0237(2) 0.14788(10)
H1 H 0.0877(6) -0.448(2) 0.1341(11)
H2 H 0.0447(6) -0.688(2) 0.2071(11)
H3 H 0.1328(6) -0.324(2) -0.0250(11)
H4 H 0.2163(6) -0.330(2) 0.0272(12)
H5 H 0.2412(7) -0.142(2) 0.1537(12)
H6 H 0.1813(7) 0.055(3) 0.2297(14)
H7 H 0.0976(6) 0.053(2) 0.1778(11)
C1H C -0.02727(7) 0.00000 0.00000
C2K C -0.05307(5) -0.14417(18) 0.04907(9)
C2C C 0.05307(5) 0.14417(18) -0.04907(9)
C2H C -0.05307(5) 0.14417(18) -0.04907(9)
C3K C -0.02670(5) -0.29515(18) 0.08757(8)
C3C C 0.02670(5) 0.29515(18) -0.08757(8)
C3H C -0.02670(5) 0.29515(18) -0.08757(8)
C4H C -0.05186(6) 0.44662(19) -0.13409(9)
C4C C 0.05186(6) 0.44662(19) -0.13409(9)
C4K C -0.05186(6) -0.44662(19) 0.13409(9)
C5H C -0.02630(6) 0.58805(19) -0.17505(10)
C5C C 0.02630(6) 0.58805(19) -0.17505(10)
C5K C -0.02630(6) -0.58805(19) 0.17505(10)
C6H C -0.10744(5) 0.13413(18) -0.07267(9)
C6C C 0.10744(5) 0.13413(18) -0.07267(9)
C6K C -0.10744(5) -0.13413(18) 0.07267(9)
C7H C -0.14283(5) 0.2470(2) -0.02912(10)
C7C C 0.14283(5) 0.2470(2) -0.02912(10)
C7K C -0.14283(5) -0.2470(2) 0.02912(10)
C8H C -0.19169(6) 0.2498(2) -0.06004(12)
C8C C 0.19169(6) 0.2498(2) -0.06004(12)
C8K C -0.19169(6) -0.2498(2) 0.06004(12)
C9H C -0.20647(6) 0.1379(2) -0.13425(11)
C9C C 0.20647(6) 0.1379(2) -0.13425(11)
C9K C -0.20647(6) -0.1379(2) 0.13425(11)
C10H C -0.17191(6) 0.0249(2) -0.17798(11)
C10C C 0.17191(6) 0.0249(2) -0.17798(11)
C10K C -0.17191(6) -0.0249(2) 0.17798(11)
C11H C -0.12289(6) 0.0237(2) -0.14788(10)
C11C C 0.12289(6) 0.0237(2) -0.14788(10)
C11K C -0.12289(6) -0.0237(2) 0.14788(10)
H1C H 0.0877(6) 0.448(2) -0.1341(11)
H1H H -0.0877(6) 0.448(2) -0.1341(11)
H1K H -0.0877(6) -0.448(2) 0.1341(11)
H2C H 0.0447(6) 0.688(2) -0.2071(11)
H2H H -0.0447(6) 0.688(2) -0.2071(11)
H2K H -0.0447(6) -0.688(2) 0.2071(11)
H3H H -0.1328(6) 0.324(2) 0.0250(11)
H3C H 0.1328(6) 0.324(2) 0.0250(11)
H3K H -0.1328(6) -0.324(2) -0.0250(11)
H4H H -0.2163(6) 0.330(2) -0.0272(12)
H4C H 0.2163(6) 0.330(2) -0.0272(12)
H4K H -0.2163(6) -0.330(2) 0.0272(12)
H5H H -0.2412(7) 0.142(2) -0.1537(12)
H5C H 0.2412(7) 0.142(2) -0.1537(12)
H5K H -0.2412(7) -0.142(2) 0.1537(12)
H6H H -0.1813(7) -0.055(3) -0.2297(14)
H6C H 0.1813(7) -0.055(3) -0.2297(14)
H6K H -0.1813(7) 0.055(3) 0.2297(14)
H7H H -0.0976(6) -0.053(2) -0.1778(11)
H7C H 0.0976(6) -0.053(2) -0.1778(11)
H7K H -0.0976(6) 0.053(2) 0.1778(11)
loop_
_geom_bond_atom_site_label_1
_geom_bond_atom_site_label_2
_geom_bond_distance
_geom_bond_site_symmetry_1
_geom_bond_site_symmetry_2
C1 C2 1.426 1_555 1_555
C2 C3 1.404 1_555 1_555
C3 C4 1.440 1_555 1_555
C4 C5 1.355 1_555 1_555
C5 H2 0.982 1_555 1_555
C6 C2 1.496 1_555 1_555
C7 C6 1.392 1_555 1_555
C8 C7 1.381 1_555 1_555
C9 C8 1.385 1_555 1_555
C10 C9 1.379 1_555 1_555
C11 C6 1.396 1_555 1_555
H1 C4 0.960 1_555 1_555
H3 C7 0.986 1_555 1_555
H4 C8 0.992 1_555 1_555
H5 C9 0.971 1_555 1_555
H6 C10 0.967 1_555 1_555
H7 C11 0.971 1_555 1_555
C1H C1 1.460 1_555 1_555
C2K C1H 1.426 1_555 1_555
C2C C1 1.426 1_555 1_555
C2H C1H 1.426 1_555 1_555
C3K C3 1.430 1_555 1_555
C3C C2C 1.404 1_555 1_555
C3H C2H 1.404 1_555 1_555
C4H C3H 1.440 1_555 1_555
C4C C3C 1.440 1_555 1_555
C4K C3K 1.440 1_555 1_555
C5H C4H 1.355 1_555 1_555
C5C C4C 1.355 1_555 1_555
C5K C5 1.408 1_555 1_555
C6H C2H 1.496 1_555 1_555
C6C C2C 1.496 1_555 1_555
C6K C2K 1.496 1_555 1_555
C7H C6H 1.392 1_555 1_555
C7C C6C 1.392 1_555 1_555
C7K C6K 1.392 1_555 1_555
C8H C7H 1.381 1_555 1_555
C8C C7C 1.381 1_555 1_555
C8K C7K 1.381 1_555 1_555
C9H C8H 1.385 1_555 1_555
C9C C8C 1.385 1_555 1_555
C9K C8K 1.385 1_555 1_555
C10H C9H 1.379 1_555 1_555
C10C C9C 1.379 1_555 1_555
C10K C9K 1.379 1_555 1_555
C11H C6H 1.396 1_555 1_555
C11C C6C 1.396 1_555 1_555
C11K C6K 1.396 1_555 1_555
H1C C4C 0.960 1_555 1_555
H1H C4H 0.960 1_555 1_555
H1K C4K 0.960 1_555 1_555
H2C C5C 0.982 1_555 1_555
H2H C5H 0.982 1_555 1_555
H2K C5K 0.982 1_555 1_555
H3H C7H 0.986 1_555 1_555
H3C C7C 0.986 1_555 1_555
H3K C7K 0.986 1_555 1_555
H4H C8H 0.992 1_555 1_555
H4C C8C 0.992 1_555 1_555
H4K C8K 0.992 1_555 1_555
H5H C9H 0.971 1_555 1_555
H5C C9C 0.971 1_555 1_555
H5K C9K 0.971 1_555 1_555
H6H C10H 0.967 1_555 1_555
H6C C10C 0.967 1_555 1_555
H6K C10K 0.967 1_555 1_555
H7H C11H 0.971 1_555 1_555
H7C C11C 0.971 1_555 1_555
H7K C11K 0.971 1_555 1_555
C10 C11 1.381 1_555 1_555
C2K C3K 1.404 1_555 1_555
C3C C3H 1.430 1_555 1_555
C4K C5K 1.355 1_555 1_555
C5H C5C 1.408 1_555 1_555
C10H C11H 1.381 1_555 1_555
C10C C11C 1.381 1_555 1_555
C10K C11K 1.381 1_555 1_555
#END
