
#######################################################################
#
#                 Cambridge Crystallographic Data Centre
#                                CCDC
#
#######################################################################
#
# If this CIF has been generated from an entry in the Cambridge
# Structural Database, then it will include bibliographic, chemical,
# crystal, experimental, refinement or atomic coordinate data resulting
# from the CCDC's data processing and validation procedures.
#
#######################################################################

data_CSD_CIF_QUATER10
_audit_creation_date 1976-02-16
_audit_creation_method CSD-ConQuest-V1
_database_code_CSD QUATER10
_database_code_depnum_ccdc_archive 'CCDC 1245481'
_chemical_formula_sum 'C40 H20'
_chemical_formula_moiety
;
C40 H20
;
_journal_coden_Cambridge 14
_journal_volume 344
_journal_year 1975
_journal_page_first 199
_journal_name_full 'Proc.R.Soc.London,Ser.A '
loop_
_publ_author_name
"K.A.Kerr"
"J.P.Ashmore"
"J.C.Speakman"
_chemical_name_systematic
;
Quaterrylene
;
_chemical_melting_point 843
_cell_volume   2240.927
_exptl_crystal_density_diffrn 1.48
_diffrn_ambient_temperature ?
_diffrn_special_details
;
The study was carried out at room temperature,in the range 283-303K

;
#These two values have been output from a single CSD field.
_refine_ls_R_factor_gt 0.04
_refine_ls_wR_factor_gt 0.04
_symmetry_cell_setting monoclinic
_symmetry_space_group_name_H-M 'P 21/a'
_symmetry_Int_Tables_number 14
loop_
_symmetry_equiv_pos_site_id
_symmetry_equiv_pos_as_xyz
1 x,y,z
2 1/2-x,1/2+y,-z
3 -x,-y,-z
4 -1/2+x,-1/2-y,z
_cell_length_a 11.145(1)
_cell_length_b 10.630(3)
_cell_length_c 19.235(4)
_cell_angle_alpha 90
_cell_angle_beta 100.46(4)
_cell_angle_gamma 90
_cell_formula_units_Z 4
loop_
_atom_type_symbol
_atom_type_radius_bond
C 0.68
H 0.23
loop_
_atom_site_label
_atom_site_type_symbol
_atom_site_fract_x
_atom_site_fract_y
_atom_site_fract_z
C1 C 0.27937 -0.04255 0.44284
C2 C 0.19995 0.05005 -0.05013
C3 C 0.18105 0.04980 -0.12334
C4 C 0.11332 -0.04301 -0.16266
C5 C 0.09356 -0.04258 -0.24039
C6 C 0.14110 0.04848 -0.27897
C7 C 0.12179 0.04770 -0.35281
C8 C 0.05435 -0.04539 -0.38986
C9 C 0.00113 -0.14043 -0.35375
C10 C -0.07269 -0.23597 -0.39155
C11 C -0.12435 -0.32752 -0.35648
C12 C 0.33134 0.04875 0.40721
C13 C -0.10457 -0.32683 -0.28255
C14 C -0.03401 -0.23665 -0.24290
C15 C -0.01263 -0.23628 -0.16544
C16 C -0.06137 -0.32560 -0.12640
C17 C -0.04257 -0.32668 -0.05328
C18 C 0.02899 -0.23515 -0.01350
C19 C 0.05026 -0.23595 0.06401
C20 C -0.00004 -0.32573 0.10200
C21 C 0.01982 -0.32488 0.17508
C22 C 0.09004 -0.23468 0.21509
C23 C 0.31044 0.04822 0.33311
C24 C 0.11023 -0.23334 0.29266
C25 C 0.05990 -0.32370 0.33058
C26 C 0.07966 -0.32140 0.40476
C27 C 0.15115 -0.23131 0.44172
C28 C 0.20531 -0.13724 0.40529
C29 C 0.18510 -0.13778 0.33052
C30 C 0.14379 -0.13951 0.17789
C31 C 0.12315 -0.13919 0.10230
C32 C 0.08199 -0.14040 -0.05087
C33 C 0.06125 -0.14084 -0.12656
C34 C 0.23853 -0.04192 0.29373
C35 C 0.02097 -0.13975 -0.27850
C36 C 0.21544 -0.04169 0.21627
C37 C 0.26234 0.05074 0.17789
C38 C 0.24265 0.05042 0.10508
C39 C 0.17451 -0.04229 0.06486
C40 C 0.15338 -0.04330 -0.01213
H1 H 0.29600 -0.04400 0.49900
H2 H 0.38100 0.12200 0.43300
H3 H 0.35100 0.11700 0.31000
H4 H 0.31400 0.11700 0.20400
H5 H 0.27700 0.11700 0.08100
H6 H 0.25200 0.11900 -0.02500
H7 H 0.21500 0.12200 -0.14700
H8 H 0.18800 0.11800 -0.25300
H9 H 0.15700 0.11200 -0.38100
H10 H 0.04200 -0.04500 -0.44600
H11 H -0.08700 -0.23300 -0.44500
H12 H -0.18100 -0.39900 -0.38500
H13 H -0.14300 -0.39100 -0.25900
H14 H -0.11100 -0.39200 -0.15000
H15 H -0.07800 -0.39400 -0.02600
H16 H -0.05300 -0.38900 0.07600
H17 H -0.02000 -0.38900 0.19700
H18 H 0.00600 -0.39100 0.30600
H19 H 0.04400 -0.39000 0.43000
H20 H 0.16400 -0.22600 0.49900
loop_
_geom_bond_atom_site_label_1
_geom_bond_atom_site_label_2
_geom_bond_distance
_geom_bond_site_symmetry_1
_geom_bond_site_symmetry_2
C1 C12 1.375 1_555 1_555
C2 C3 1.386 1_555 1_555
C3 C4 1.381 1_555 1_555
C4 C5 1.471 1_555 1_555
C5 C6 1.382 1_555 1_555
C6 C7 1.397 1_555 1_555
C7 C8 1.363 1_555 1_555
C8 C9 1.416 1_555 1_555
C9 C10 1.421 1_555 1_555
C10 C11 1.369 1_555 1_555
C11 C13 1.399 1_555 1_555
C12 C23 1.402 1_555 1_555
C13 C14 1.379 1_555 1_555
C14 C15 1.466 1_555 1_555
C15 C16 1.382 1_555 1_555
C16 C17 1.384 1_555 1_555
C17 C18 1.395 1_555 1_555
C18 C19 1.467 1_555 1_555
C19 C20 1.381 1_555 1_555
C20 C21 1.383 1_555 1_555
C21 C22 1.380 1_555 1_555
C22 C24 1.468 1_555 1_555
C23 C34 1.383 1_555 1_555
C24 C25 1.385 1_555 1_555
C25 C26 1.404 1_555 1_555
C26 C27 1.361 1_555 1_555
C27 C28 1.417 1_555 1_555
C28 C1 1.414 1_555 1_555
C29 C24 1.428 1_555 1_555
C30 C22 1.432 1_555 1_555
C31 C19 1.429 1_555 1_555
C32 C18 1.426 1_555 1_555
C33 C4 1.431 1_555 1_555
C34 C29 1.431 1_555 1_555
C35 C5 1.429 1_555 1_555
C36 C30 1.432 1_555 1_555
C37 C36 1.387 1_555 1_555
C38 C37 1.378 1_555 1_555
C39 C31 1.434 1_555 1_555
C40 C2 1.388 1_555 1_555
H1 C1 1.062 1_555 1_555
H2 C12 1.029 1_555 1_555
H3 C23 1.005 1_555 1_555
H4 C37 0.987 1_555 1_555
H5 C38 0.962 1_555 1_555
H6 C2 1.003 1_555 1_555
H7 C3 1.001 1_555 1_555
H8 C6 0.987 1_555 1_555
H9 C7 0.996 1_555 1_555
H10 C8 1.064 1_555 1_555
H11 C10 1.012 1_555 1_555
H12 C11 1.073 1_555 1_555
H13 C13 0.961 1_555 1_555
H14 C16 0.959 1_555 1_555
H15 C17 1.009 1_555 1_555
H16 C20 0.971 1_555 1_555
H17 C21 0.952 1_555 1_555
H18 C25 0.997 1_555 1_555
H19 C26 0.998 1_555 1_555
H20 C27 1.086 1_555 1_555
C9 C35 1.424 1_555 1_555
C14 C35 1.434 1_555 1_555
C15 C33 1.429 1_555 1_555
C28 C29 1.415 1_555 1_555
C30 C31 1.430 1_555 1_555
C32 C33 1.432 1_555 1_555
C32 C40 1.428 1_555 1_555
C34 C36 1.465 1_555 1_555
C38 C39 1.390 1_555 1_555
C39 C40 1.457 1_555 1_555
#END
