
#######################################################################
#
#                 Cambridge Crystallographic Data Centre
#                                CCDC
#
#######################################################################
#
# If this CIF has been generated from an entry in the Cambridge
# Structural Database, then it will include bibliographic, chemical,
# crystal, experimental, refinement or atomic coordinate data resulting
# from the CCDC's data processing and validation procedures.
#
#######################################################################

data_CSD_CIF_RAMYEK
_audit_creation_date 2005-08-18
_audit_creation_method CSD-ConQuest-V1
_database_code_CSD RAMYEK
_database_code_depnum_ccdc_archive 'CCDC 165774'
_chemical_formula_sum 'C24 H14'
_chemical_formula_moiety
;
C24 H14
;
_journal_coden_Cambridge 16
_journal_volume 61
_journal_year 2005
_journal_page_first 3033
_journal_name_full 'Tetrahedron '
loop_
_publ_author_name
"J.G.Rodriguez"
"J.L.Tejedor"
_chemical_name_systematic
;
1,4-bis(1-Naphthyl)-1,3-butadiyne
;
_chemical_melting_point 450.15
_cell_volume   1601.544
_exptl_crystal_colour 'dark blue'
_exptl_crystal_density_diffrn 1.254
_exptl_special_details
;
Melting point range 450.15-453.15K

;
_diffrn_ambient_temperature 293
#These two values have been output from a single CSD field.
_refine_ls_R_factor_gt 0.0558
_refine_ls_wR_factor_gt 0.0558
_symmetry_cell_setting monoclinic
_symmetry_space_group_name_H-M 'P 21/n'
_symmetry_Int_Tables_number 14
loop_
_symmetry_equiv_pos_site_id
_symmetry_equiv_pos_as_xyz
1 x,y,z
2 1/2-x,1/2+y,1/2-z
3 -x,-y,-z
4 -1/2+x,-1/2-y,-1/2+z
_cell_length_a 8.352(1)
_cell_length_b 12.747(2)
_cell_length_c 15.316(2)
_cell_angle_alpha 90
_cell_angle_beta 100.83(1)
_cell_angle_gamma 90
_cell_formula_units_Z 4
loop_
_atom_type_symbol
_atom_type_radius_bond
C 0.68
H 0.23
loop_
_atom_site_label
_atom_site_type_symbol
_atom_site_fract_x
_atom_site_fract_y
_atom_site_fract_z
C1 C 0.5662(3) 0.1835(2) 0.6046(1)
C2 C 0.4568(3) 0.1117(2) 0.5645(2)
C3 C 0.4115(3) 0.0251(2) 0.6114(2)
C4 C 0.4786(3) 0.0124(2) 0.6996(2)
C5 C 0.5903(3) 0.0857(2) 0.7430(1)
C6 C 0.6601(3) 0.0754(2) 0.8351(2)
C7 C 0.7691(3) 0.1453(2) 0.8763(2)
C8 C 0.8148(3) 0.2303(2) 0.8298(2)
C9 C 0.7505(3) 0.2453(2) 0.7421(2)
C10 C 0.6367(2) 0.1731(2) 0.6965(1)
C11 C 0.6108(3) 0.2705(2) 0.5546(1)
C12 C 0.6442(3) 0.3433(2) 0.5108(1)
C13 C 0.6726(3) 0.4253(2) 0.4586(1)
C14 C 0.6915(3) 0.4969(2) 0.4108(1)
C15 C 0.7165(3) 0.5843(2) 0.3561(2)
C16 C 0.8298(4) 0.6593(2) 0.3890(2)
C17 C 0.8576(4) 0.7451(2) 0.3362(2)
C18 C 0.7766(4) 0.7536(2) 0.2516(2)
C19 C 0.6612(3) 0.6777(2) 0.2138(2)
C20 C 0.5798(3) 0.6828(2) 0.1236(2)
C21 C 0.4710(3) 0.6093(2) 0.0886(2)
C22 C 0.4340(3) 0.5263(2) 0.1414(2)
C23 C 0.5100(3) 0.5184(2) 0.2284(2)
C24 C 0.6275(3) 0.5923(2) 0.2664(2)
H1 H 0.4108(3) 0.1199(2) 0.5047(2)
H2 H 0.3363(3) -0.0233(2) 0.5827(2)
H3 H 0.4498(3) -0.0451(2) 0.7306(2)
H4 H 0.6296(3) 0.0192(2) 0.8671(2)
H5 H 0.8141(3) 0.1367(2) 0.9362(2)
H6 H 0.8907(3) 0.2780(2) 0.8590(2)
H7 H 0.7818(3) 0.3031(2) 0.7123(2)
H8 H 0.8888(4) 0.6532(2) 0.4466(2)
H9 H 0.9324(4) 0.7964(2) 0.3598(2)
H10 H 0.7973(4) 0.8107(2) 0.2175(2)
H11 H 0.6021(3) 0.7381(2) 0.0882(2)
H12 H 0.4204(3) 0.6136(2) 0.0292(2)
H13 H 0.3572(3) 0.4763(2) 0.1171(2)
H14 H 0.4835(3) 0.4633(2) 0.2629(2)
loop_
_geom_bond_atom_site_label_1
_geom_bond_atom_site_label_2
_geom_bond_distance
_geom_bond_site_symmetry_1
_geom_bond_site_symmetry_2
C1 C2 1.356 1_555 1_555
C2 C3 1.407 1_555 1_555
C3 C4 1.371 1_555 1_555
C4 C5 1.397 1_555 1_555
C5 C6 1.428 1_555 1_555
C6 C7 1.343 1_555 1_555
C7 C8 1.389 1_555 1_555
C8 C9 1.363 1_555 1_555
C9 C10 1.410 1_555 1_555
C10 C1 1.426 1_555 1_555
C11 C1 1.436 1_555 1_555
C12 C11 1.208 1_555 1_555
C13 C12 1.364 1_555 1_555
C14 C13 1.199 1_555 1_555
C15 C14 1.433 1_555 1_555
C16 C15 1.373 1_555 1_555
C17 C16 1.405 1_555 1_555
C18 C17 1.349 1_555 1_555
C19 C18 1.411 1_555 1_555
C20 C19 1.422 1_555 1_555
C21 C20 1.345 1_555 1_555
C22 C21 1.401 1_555 1_555
C23 C22 1.368 1_555 1_555
C24 C15 1.438 1_555 1_555
H1 C2 0.930 1_555 1_555
H2 C3 0.930 1_555 1_555
H3 C4 0.929 1_555 1_555
H4 C6 0.930 1_555 1_555
H5 C7 0.930 1_555 1_555
H6 C8 0.930 1_555 1_555
H7 C9 0.930 1_555 1_555
H8 C16 0.929 1_555 1_555
H9 C17 0.929 1_555 1_555
H10 C18 0.931 1_555 1_555
H11 C20 0.929 1_555 1_555
H12 C21 0.930 1_555 1_555
H13 C22 0.931 1_555 1_555
H14 C23 0.930 1_555 1_555
C5 C10 1.415 1_555 1_555
C19 C24 1.414 1_555 1_555
C23 C24 1.405 1_555 1_555
#END
