
#######################################################################
#
#                 Cambridge Crystallographic Data Centre
#                                CCDC
#
#######################################################################
#
# If this CIF has been generated from an entry in the Cambridge
# Structural Database, then it will include bibliographic, chemical,
# crystal, experimental, refinement or atomic coordinate data resulting
# from the CCDC's data processing and validation procedures.
#
#######################################################################

data_CSD_CIF_REJTIM
_audit_creation_date 2017-10-11
_audit_creation_method CSD-ConQuest-V1
_database_code_CSD REJTIM
_database_code_depnum_ccdc_archive 'CCDC 1559789'
_chemical_formula_sum 'C19 H16'
_chemical_formula_moiety
;
C19 H16
;
_journal_coden_Cambridge 182
_journal_volume 53
_journal_year 2017
_journal_page_first 11666
_journal_name_full 'Chem.Commun. '
loop_
_publ_author_name
"Wei Fang"
"Yin Wei"
"Min Shi"
_chemical_name_systematic
;
1-cyclopropyl-2-phenylnaphthalene
;
_cell_volume   2629.960
_exptl_crystal_colour 'colorless'
_exptl_crystal_density_diffrn 1.234
_exptl_crystal_description 'prismatic'
_diffrn_ambient_temperature 293
#These two values have been output from a single CSD field.
_refine_ls_R_factor_gt 0.0661
_refine_ls_wR_factor_gt 0.0661
_symmetry_cell_setting orthorhombic
_symmetry_space_group_name_H-M 'P b c a'
_symmetry_Int_Tables_number 61
loop_
_symmetry_equiv_pos_site_id
_symmetry_equiv_pos_as_xyz
1 x,y,z
2 1/2-x,-y,1/2+z
3 -x,1/2+y,1/2-z
4 1/2+x,1/2-y,-z
5 -x,-y,-z
6 -1/2+x,y,-1/2-z
7 x,-1/2-y,-1/2+z
8 -1/2-x,-1/2+y,z
_cell_length_a 10.220(7)
_cell_length_b 14.584(10)
_cell_length_c 17.645(12)
_cell_angle_alpha 90
_cell_angle_beta 90
_cell_angle_gamma 90
_cell_formula_units_Z 8
loop_
_atom_type_symbol
_atom_type_radius_bond
C 0.68
H 0.23
loop_
_atom_site_label
_atom_site_type_symbol
_atom_site_fract_x
_atom_site_fract_y
_atom_site_fract_z
C1 C 0.8804(3) 0.2156(2) 0.41396(15)
C2 C 1.0133(3) 0.2383(2) 0.42246(18)
H1 H 1.06890 0.19760 0.44710
C3 C 1.0611(3) 0.3170(3) 0.39585(19)
H2 H 1.14950 0.33040 0.40150
C4 C 0.9794(3) 0.3786(2) 0.35991(18)
H3 H 1.01310 0.43350 0.34150
C5 C 0.8510(3) 0.3598(2) 0.35129(16)
H4 H 0.79710 0.40230 0.32750
C6 C 0.7976(3) 0.27755(19) 0.37742(14)
C7 C 0.6631(3) 0.25433(19) 0.36608(14)
C8 C 0.6188(3) 0.17086(18) 0.38816(14)
C9 C 0.7025(3) 0.11121(19) 0.42664(15)
H5 H 0.67060 0.05520 0.44370
C10 C 0.8289(3) 0.1334(2) 0.43952(16)
H6 H 0.88230 0.09280 0.46600
C11 C 0.4865(3) 0.13647(17) 0.36973(15)
C12 C 0.4416(3) 0.1373(2) 0.29634(16)
H7 H 0.49370 0.16240 0.25850
C13 C 0.3227(3) 0.1022(2) 0.27794(18)
H8 H 0.29440 0.10270 0.22790
C14 C 0.2450(3) 0.0662(2) 0.3333(2)
H9 H 0.16290 0.04290 0.32130
C15 C 0.2886(3) 0.0648(2) 0.40586(19)
H10 H 0.23620 0.03950 0.44350
C16 C 0.4074(3) 0.0995(2) 0.42453(16)
H11 H 0.43540 0.09820 0.47470
C17 C 0.5776(3) 0.3224(2) 0.32963(17)
H12 H 0.58780 0.32740 0.27460
C18 C 0.5501(3) 0.4108(2) 0.3694(2)
H13 H 0.58480 0.41870 0.42010
H14 H 0.54730 0.46630 0.33910
C19 C 0.4437(3) 0.3423(2) 0.3584(2)
H15 H 0.41370 0.30870 0.40260
H16 H 0.37620 0.35630 0.32150
loop_
_geom_bond_atom_site_label_1
_geom_bond_atom_site_label_2
_geom_bond_distance
_geom_bond_site_symmetry_1
_geom_bond_site_symmetry_2
C1 C2 1.406 1_555 1_555
C2 H1 0.930 1_555 1_555
C3 C2 1.333 1_555 1_555
H2 C3 0.930 1_555 1_555
C4 C3 1.381 1_555 1_555
H3 C4 0.930 1_555 1_555
C5 C4 1.349 1_555 1_555
H4 C5 0.929 1_555 1_555
C6 C1 1.396 1_555 1_555
C7 C6 1.430 1_555 1_555
C8 C7 1.356 1_555 1_555
C9 C8 1.396 1_555 1_555
H5 C9 0.930 1_555 1_555
C10 C1 1.385 1_555 1_555
H6 C10 0.931 1_555 1_555
C11 C8 1.478 1_555 1_555
C12 C11 1.374 1_555 1_555
H7 C12 0.929 1_555 1_555
C13 C12 1.358 1_555 1_555
H8 C13 0.929 1_555 1_555
C14 C13 1.364 1_555 1_555
H9 C14 0.930 1_555 1_555
C15 C14 1.356 1_555 1_555
H10 C15 0.930 1_555 1_555
C16 C11 1.371 1_555 1_555
H11 C16 0.931 1_555 1_555
C17 C7 1.471 1_555 1_555
H12 C17 0.979 1_555 1_555
C18 C17 1.495 1_555 1_555
H13 C18 0.969 1_555 1_555
H14 C18 0.970 1_555 1_555
C19 C17 1.488 1_555 1_555
H15 C19 0.971 1_555 1_555
H16 C19 0.970 1_555 1_555
C5 C6 1.396 1_555 1_555
C9 C10 1.351 1_555 1_555
C15 C16 1.356 1_555 1_555
C18 C19 1.489 1_555 1_555
#END
