
#######################################################################
#
#                 Cambridge Crystallographic Data Centre
#                                CCDC
#
#######################################################################
#
# If this CIF has been generated from an entry in the Cambridge
# Structural Database, then it will include bibliographic, chemical,
# crystal, experimental, refinement or atomic coordinate data resulting
# from the CCDC's data processing and validation procedures.
#
#######################################################################

data_CSD_CIF_REXYOL
_audit_creation_date 2018-02-22
_audit_creation_method CSD-ConQuest-V1
_database_code_CSD REXYOL
_database_code_depnum_ccdc_archive 'CCDC 1435826'
_chemical_formula_sum 'C24 H16'
_chemical_formula_moiety
;
C24 H16
;
_journal_coden_Cambridge 41
_journal_volume 62
_journal_year 2017
_journal_page_first 885
_journal_name_full 'Kristallografiya(Russ.)(Crystallogr.Rep.) '
loop_
_publ_author_name
"T.Li"
"C.-Z.Zhang"
"Y.-X.Su"
"M.-X.Niu"
"C.-Y.Gu"
"M.X.Song"
_chemical_name_systematic
;
1,2,7,8-tetrahydrodicyclopenta[cd,lm]perylene
;
_cell_volume    750.121
_exptl_crystal_colour 'orange'
_exptl_crystal_density_diffrn 1.348
_exptl_crystal_description 'block'
_diffrn_ambient_temperature 296
#These two values have been output from a single CSD field.
_refine_ls_R_factor_gt 0.0329
_refine_ls_wR_factor_gt 0.0329
_symmetry_cell_setting monoclinic
_symmetry_space_group_name_H-M 'P 21/n'
_symmetry_Int_Tables_number 14
loop_
_symmetry_equiv_pos_site_id
_symmetry_equiv_pos_as_xyz
1 x,y,z
2 1/2-x,1/2+y,1/2-z
3 -x,-y,-z
4 -1/2+x,-1/2-y,-1/2+z
_cell_length_a 7.7067(3)
_cell_length_b 8.2568(3)
_cell_length_c 12.0508(5)
_cell_angle_alpha 90
_cell_angle_beta 101.981(2)
_cell_angle_gamma 90
_cell_formula_units_Z 2
loop_
_atom_type_symbol
_atom_type_radius_bond
C 0.68
H 0.23
loop_
_atom_site_label
_atom_site_type_symbol
_atom_site_fract_x
_atom_site_fract_y
_atom_site_fract_z
C1 C 0.04714(15) 0.15134(15) 0.04761(11)
C2 C 0.16376(15) 0.07773(15) -0.01539(11)
C3 C 0.31583(16) 0.16228(16) -0.02487(12)
H1 H 0.39300 0.11510 -0.06540
C4 C 0.35909(16) 0.31583(17) 0.02380(13)
H2 H 0.46220 0.36800 0.01470
C5 C 0.24890(16) 0.38801(16) 0.08460(12)
C6 C 0.25412(17) 0.54770(17) 0.14581(13)
H3 H 0.25290 0.63730 0.09360
H4 H 0.35990 0.55560 0.20540
C7 C 0.08465(18) 0.54915(17) 0.19663(13)
H5 H 0.11560 0.55570 0.27870
H6 H 0.00950 0.64050 0.16790
C8 C -0.00803(16) 0.39142(16) 0.15923(11)
C9 C -0.16334(16) 0.32353(16) 0.17471(12)
H7 H -0.23530 0.37850 0.21530
C10 C -0.21318(16) 0.16934(16) 0.12853(12)
H8 H -0.31800 0.12420 0.14100
C11 C -0.11436(15) 0.08128(15) 0.06547(11)
C12 C 0.09408(15) 0.30452(15) 0.09546(11)
C1B C -0.04714(15) -0.15134(15) -0.04761(11)
C2B C -0.16376(15) -0.07773(15) 0.01539(11)
C3B C -0.31583(16) -0.16228(16) 0.02487(12)
H1B H -0.39300 -0.11510 0.06540
C4B C -0.35909(16) -0.31583(17) -0.02380(13)
H2B H -0.46220 -0.36800 -0.01470
C5B C -0.24890(16) -0.38801(16) -0.08460(12)
C6B C -0.25412(17) -0.54770(17) -0.14581(13)
H3B H -0.25290 -0.63730 -0.09360
H4B H -0.35990 -0.55560 -0.20540
C7B C -0.08465(18) -0.54915(17) -0.19663(13)
H5B H -0.11560 -0.55570 -0.27870
H6B H -0.00950 -0.64050 -0.16790
C8B C 0.00803(16) -0.39142(16) -0.15923(11)
C9B C 0.16334(16) -0.32353(16) -0.17471(12)
H7B H 0.23530 -0.37850 -0.21530
C10B C 0.21318(16) -0.16934(16) -0.12853(12)
H8B H 0.31800 -0.12420 -0.14100
C11B C 0.11436(15) -0.08128(15) -0.06547(11)
C12B C -0.09408(15) -0.30452(15) -0.09546(11)
loop_
_geom_bond_atom_site_label_1
_geom_bond_atom_site_label_2
_geom_bond_distance
_geom_bond_site_symmetry_1
_geom_bond_site_symmetry_2
C1 C2 1.427 1_555 1_555
C2 C3 1.389 1_555 1_555
C3 H1 0.930 1_555 1_555
C4 C3 1.408 1_555 1_555
H2 C4 0.930 1_555 1_555
C5 C4 1.368 1_555 1_555
C6 C5 1.507 1_555 1_555
H3 C6 0.970 1_555 1_555
H4 C6 0.970 1_555 1_555
C7 C6 1.553 1_555 1_555
H5 C7 0.970 1_555 1_555
H6 C7 0.970 1_555 1_555
C8 C7 1.509 1_555 1_555
C9 C8 1.369 1_555 1_555
H7 C9 0.930 1_555 1_555
C10 C9 1.410 1_555 1_555
H8 C10 0.930 1_555 1_555
C11 C1 1.429 1_555 1_555
C12 C1 1.406 1_555 1_555
C1B C2B 1.427 1_555 1_555
C2B C11 1.462 1_555 1_555
C3B C2B 1.389 1_555 1_555
H1B C3B 0.930 1_555 1_555
C4B C3B 1.408 1_555 1_555
H2B C4B 0.930 1_555 1_555
C5B C4B 1.368 1_555 1_555
C6B C5B 1.507 1_555 1_555
H3B C6B 0.970 1_555 1_555
H4B C6B 0.970 1_555 1_555
C7B C6B 1.553 1_555 1_555
H5B C7B 0.970 1_555 1_555
H6B C7B 0.970 1_555 1_555
C8B C7B 1.509 1_555 1_555
C9B C8B 1.369 1_555 1_555
H7B C9B 0.930 1_555 1_555
C10B C9B 1.410 1_555 1_555
H8B C10B 0.930 1_555 1_555
C11B C2 1.462 1_555 1_555
C12B C1B 1.406 1_555 1_555
C5 C12 1.407 1_555 1_555
C8 C12 1.406 1_555 1_555
C10 C11 1.388 1_555 1_555
C1B C11B 1.429 1_555 1_555
C5B C12B 1.407 1_555 1_555
C8B C12B 1.406 1_555 1_555
C10B C11B 1.388 1_555 1_555
#END
