
#######################################################################
#
#                 Cambridge Crystallographic Data Centre
#                                CCDC
#
#######################################################################
#
# If this CIF has been generated from an entry in the Cambridge
# Structural Database, then it will include bibliographic, chemical,
# crystal, experimental, refinement or atomic coordinate data resulting
# from the CCDC's data processing and validation procedures.
#
#######################################################################

data_CSD_CIF_RIWSIB
_audit_creation_date 2013-12-06
_audit_creation_method CSD-ConQuest-V1
_database_code_CSD RIWSIB
_database_code_depnum_ccdc_archive 'CCDC 938416'
_chemical_formula_sum 'C32 H16'
_chemical_formula_moiety
;
C32 H16
;
_journal_coden_Cambridge 1220
_journal_volume 20
_journal_year 2014
_journal_page_first 598
_journal_name_full 'Chem.-Eur.J. '
loop_
_publ_author_name
"Min-Kuan Chen"
"Hsin-Ju Hsin"
"Tsun-Cheng Wu"
"Bo-Yan Kang"
"Yen-Wei Lee"
"Ming-Yu Kuo"
"Yao-Ting Wu"
_chemical_name_systematic
;
1,6,7,12-tetrahydrocyclopenta[5,6]acenaphtho[3,2,1,8-fghij]dicyclopenta[pqr,tu
v]picene
;
_cell_volume   8622.589
_exptl_crystal_colour 'yellow'
_exptl_crystal_density_diffrn 1.388
_exptl_crystal_description 'tabular'
_diffrn_ambient_temperature 100
#These two values have been output from a single CSD field.
_refine_ls_R_factor_gt 0.0454
_refine_ls_wR_factor_gt 0.0454
_symmetry_cell_setting rhombohedral
_symmetry_space_group_name_H-M 'R -3'
_symmetry_Int_Tables_number 148
loop_
_symmetry_equiv_pos_site_id
_symmetry_equiv_pos_as_xyz
1 x,y,z
2 -y,x-y,z
3 -x+y,-x,z
4 2/3+x,1/3+y,1/3+z
5 2/3-y,1/3+x-y,1/3+z
6 2/3-x+y,1/3-x,1/3+z
7 1/3+x,2/3+y,2/3+z
8 1/3-y,2/3+x-y,2/3+z
9 1/3-x+y,2/3-x,2/3+z
10 -x,-y,-z
11 y,-x+y,-z
12 x-y,x,-z
13 -2/3-x,-1/3-y,-1/3-z
14 -2/3+y,-1/3-x+y,-1/3-z
15 -2/3+x-y,-1/3+x,-1/3-z
16 -1/3-x,-2/3-y,-2/3-z
17 -1/3+y,-2/3-x+y,-2/3-z
18 -1/3+x-y,-2/3+x,-2/3-z
_cell_length_a 18.3650(5)
_cell_length_b 18.3650(5)
_cell_length_c 29.5206(11)
_cell_angle_alpha 90
_cell_angle_beta 90
_cell_angle_gamma 120
_cell_formula_units_Z 18
loop_
_atom_type_symbol
_atom_type_radius_bond
C 0.68
H 0.23
loop_
_atom_site_label
_atom_site_type_symbol
_atom_site_fract_x
_atom_site_fract_y
_atom_site_fract_z
C1 C 0.07815(12) 0.24801(12) 1.04939(6)
H1 H 0.02760 0.21530 1.06590
C2 C 0.15554(12) 0.28575(11) 1.07303(6)
H2 H 0.15770 0.27520 1.10440
C3 C 0.22752(11) 0.33816(11) 1.04929(6)
C4 C 0.32113(11) 0.37381(11) 1.06012(6)
H3 H 0.34170 0.42150 1.08160
H4 H 0.33140 0.33000 1.07310
C5 C 0.36285(11) 0.40271(10) 1.01384(6)
C6 C 0.43077(11) 0.40302(10) 0.99316(6)
C7 C 0.4345(1) 0.40704(10) 0.94509(6)
C8 C 0.47386(10) 0.36267(10) 0.92763(6)
C9 C 0.45521(10) 0.32305(11) 0.88482(6)
C10 C 0.49273(11) 0.27304(11) 0.87677(7)
H5 H 0.48750 0.24840 0.84780
C11 C 0.07324(11) 0.25689(11) 1.00332(6)
H6 H 0.02040 0.22650 0.98850
C12 C 0.49164(11) 0.37303(11) 1.00815(6)
H7 H 0.54370 0.41980 1.02130
H8 H 0.46500 0.32710 1.03060
C13 C 0.50993(10) 0.34181(10) 0.96371(6)
C14 C 0.38502(11) 0.32025(11) 0.85893(6)
C15 C 0.35276(11) 0.36997(10) 0.87549(6)
C16 C 0.26536(11) 0.3434(1) 0.87126(6)
C17 C 0.23542(11) 0.36462(10) 0.91069(6)
C18 C 0.30809(10) 0.41296(10) 0.93854(6)
C19 C 0.30122(11) 0.40349(10) 0.98463(6)
C20 C 0.21980(11) 0.35561(10) 1.00383(6)
C21 C 0.14557(11) 0.31049(11) 0.97775(6)
C22 C 0.15534(11) 0.30936(11) 0.92818(6)
C23 C 0.09950(11) 0.23791(11) 0.90019(6)
H9 H 0.04230 0.20360 0.90880
C24 C 0.12855(11) 0.21936(11) 0.86135(6)
C25 C 0.09365(12) 0.13983(12) 0.83318(7)
H10 H 0.05420 0.13870 0.81000
H11 H 0.06360 0.08940 0.85260
C26 C 0.17211(12) 0.14250(12) 0.81022(7)
H12 H 0.17830 0.09440 0.82030
H13 H 0.16680 0.14080 0.77680
C27 C 0.24673(12) 0.22537(11) 0.82563(6)
C28 C 0.33063(11) 0.24964(11) 0.83059(6)
H14 H 0.35280 0.21950 0.81520
C29 C 0.21366(11) 0.27048(11) 0.84854(6)
C30 C 0.37898(11) 0.41572(10) 0.91744(6)
C31 C 0.53664(11) 0.25987(11) 0.91052(7)
H15 H 0.56400 0.22890 0.90350
C32 C 0.54268(11) 0.29021(11) 0.95480(7)
H16 H 0.56870 0.27550 0.97810
loop_
_geom_bond_atom_site_label_1
_geom_bond_atom_site_label_2
_geom_bond_distance
_geom_bond_site_symmetry_1
_geom_bond_site_symmetry_2
C1 H1 0.950 1_555 1_555
C2 C1 1.415 1_555 1_555
H2 C2 0.951 1_555 1_555
C3 C2 1.376 1_555 1_555
C4 C3 1.536 1_555 1_555
H3 C4 0.990 1_555 1_555
H4 C4 0.991 1_555 1_555
C5 C4 1.526 1_555 1_555
C6 C5 1.386 1_555 1_555
C7 C6 1.421 1_555 1_555
C8 C7 1.429 1_555 1_555
C9 C8 1.412 1_555 1_555
C10 C9 1.417 1_555 1_555
H5 C10 0.950 1_555 1_555
C11 C1 1.378 1_555 1_555
H6 C11 0.950 1_555 1_555
C12 C6 1.538 1_555 1_555
H7 C12 0.991 1_555 1_555
H8 C12 0.989 1_555 1_555
C13 C8 1.405 1_555 1_555
C14 C9 1.477 1_555 1_555
C15 C14 1.402 1_555 1_555
C16 C15 1.431 1_555 1_555
C17 C16 1.422 1_555 1_555
C18 C17 1.435 1_555 1_555
C19 C5 1.429 1_555 1_555
C20 C3 1.403 1_555 1_555
C21 C11 1.413 1_555 1_555
C22 C17 1.402 1_555 1_555
C23 C22 1.453 1_555 1_555
H9 C23 0.950 1_555 1_555
C24 C23 1.377 1_555 1_555
C25 C24 1.516 1_555 1_555
H10 C25 0.989 1_555 1_555
H11 C25 0.990 1_555 1_555
C26 C25 1.571 1_555 1_555
H12 C26 0.991 1_555 1_555
H13 C26 0.990 1_555 1_555
C27 C26 1.522 1_555 1_555
C28 C14 1.444 1_555 1_555
H14 C28 0.951 1_555 1_555
C29 C16 1.369 1_555 1_555
C30 C7 1.376 1_555 1_555
C31 C10 1.377 1_555 1_555
H15 C31 0.951 1_555 1_555
C32 C13 1.378 1_555 1_555
H16 C32 0.951 1_555 1_555
C12 C13 1.535 1_555 1_555
C15 C30 1.438 1_555 1_555
C18 C19 1.369 1_555 1_555
C18 C30 1.421 1_555 1_555
C19 C20 1.420 1_555 1_555
C20 C21 1.417 1_555 1_555
C21 C22 1.476 1_555 1_555
C24 C29 1.414 1_555 1_555
C27 C28 1.381 1_555 1_555
C27 C29 1.420 1_555 1_555
C31 C32 1.403 1_555 1_555
#END
