
#######################################################################
#
#                 Cambridge Crystallographic Data Centre
#                                CCDC
#
#######################################################################
#
# If this CIF has been generated from an entry in the Cambridge
# Structural Database, then it will include bibliographic, chemical,
# crystal, experimental, refinement or atomic coordinate data resulting
# from the CCDC's data processing and validation procedures.
#
#######################################################################

data_CSD_CIF_SEQDUN
_audit_creation_date 1999-02-09
_audit_creation_method CSD-ConQuest-V1
_database_code_CSD SEQDUN
_chemical_formula_sum 'C27 H20'
_chemical_formula_moiety
;
C27 H20
;
_journal_coden_Cambridge 35
_journal_volume 63
_journal_year 1998
_journal_page_first 1583
_journal_name_full 'J.Org.Chem. '
loop_
_publ_author_name
"B.Halton"
"M.J.Cooney"
"R.Boese"
"A.H.Maulitz"
_chemical_name_systematic
;
1-(10,10-Dimethyl-9-anthrylidene)-1H-cyclopropa(b)naphthalene
;
_chemical_melting_point 426.15
_cell_volume   3749.932
_exptl_crystal_colour 'bright yellow'
_exptl_crystal_density_diffrn 1.22
_exptl_special_details
;
Melting point range 426.15-428.15K

;
_exptl_crystal_description 'needles'
_exptl_crystal_preparation 'dichloromethane/light petroleum'
_diffrn_ambient_temperature ?
_diffrn_special_details
;
The study was carried out at room temperature,in the range 283-303K

;
#These two values have been output from a single CSD field.
_refine_ls_R_factor_gt 0.067
_refine_ls_wR_factor_gt 0.067
_symmetry_cell_setting orthorhombic
_symmetry_space_group_name_H-M 'P b c a'
_symmetry_Int_Tables_number 61
loop_
_symmetry_equiv_pos_site_id
_symmetry_equiv_pos_as_xyz
1 x,y,z
2 1/2-x,-y,1/2+z
3 1/2+x,1/2-y,-z
4 -x,1/2+y,1/2-z
5 -x,-y,-z
6 -1/2+x,y,-1/2-z
7 -1/2-x,-1/2+y,z
8 x,-1/2-y,-1/2+z
_cell_length_a 41.357(11)
_cell_length_b 12.651(3)
_cell_length_c 7.1672(13)
_cell_angle_alpha 90
_cell_angle_beta 90
_cell_angle_gamma 90
_cell_formula_units_Z 8
loop_
_atom_type_symbol
_atom_type_radius_bond
C 0.68
H 0.23
loop_
_atom_site_label
_atom_site_type_symbol
_atom_site_fract_x
_atom_site_fract_y
_atom_site_fract_z
C1 C 0.6459(1) 0.7187(3) 0.2031(5)
C2 C 0.6503(1) 0.6130(3) 0.2080(5)
C3 C 0.6809(1) 0.5772(3) 0.1423(5)
C4 C 0.6886(1) 0.4683(3) 0.1383(6)
C5 C 0.7171(1) 0.4329(3) 0.0683(6)
C6 C 0.7397(1) 0.5035(4) -0.0023(6)
C7 C 0.7337(1) 0.6094(3) 0.0014(6)
C8 C 0.7047(1) 0.6508(3) 0.0735(5)
C9 C 0.6985(1) 0.7616(3) 0.0730(5)
C10 C 0.6691(1) 0.7889(3) 0.1392(5)
C11 C 0.6385(1) 0.8290(3) 0.1971(5)
C12 C 0.6175(1) 0.9105(3) 0.2096(5)
C13 C 0.5841(1) 0.8976(3) 0.2752(5)
C14 C 0.5760(1) 0.8168(3) 0.3979(6)
C15 C 0.5447(1) 0.8046(3) 0.4617(6)
C16 C 0.5214(1) 0.8739(4) 0.4054(7)
C17 C 0.5291(1) 0.9543(3) 0.2833(6)
C18 C 0.5605(1) 0.9694(3) 0.2161(5)
C19 C 0.6274(1) 1.0163(3) 0.1495(5)
C20 C 0.6599(1) 1.0473(3) 0.1543(6)
C21 C 0.6693(1) 1.1446(4) 0.0924(6)
C22 C 0.6464(1) 1.2145(4) 0.0240(7)
C23 C 0.6144(1) 1.1858(3) 0.0211(6)
C24 C 0.6038(1) 1.0872(3) 0.0849(6)
C25 C 0.5683(1) 1.0524(3) 0.0692(6)
C26 C 0.5641(1) 1.0005(4) -0.1240(6)
C27 C 0.5450(1) 1.1470(3) 0.0827(8)
H1 H 0.6339(1) 0.5664(3) 0.2569(5)
H2 H 0.6730(1) 0.4184(3) 0.1861(6)
H3 H 0.7219(1) 0.3585(3) 0.0679(6)
H4 H 0.7597(1) 0.4780(4) -0.0550(6)
H5 H 0.7495(1) 0.6575(3) -0.0502(6)
H6 H 0.7142(1) 0.8119(3) 0.0276(5)
H7 H 0.5929(1) 0.7696(3) 0.4397(6)
H8 H 0.5392(1) 0.7477(3) 0.5454(6)
H9 H 0.4994(1) 0.8667(4) 0.4500(7)
H10 H 0.5123(1) 1.0021(3) 0.2444(6)
H11 H 0.6761(1) 1.0001(3) 0.2037(6)
H12 H 0.6917(1) 1.1659(4) 0.0921(6)
H13 H 0.6532(1) 1.2827(4) -0.0211(7)
H14 H 0.5985(1) 1.2347(3) -0.0274(6)
H15 H 0.5783(1) 0.9401(4) -0.1308(6)
H16 H 0.5421(1) 0.9784(4) -0.1456(6)
H17 H 0.5704(1) 1.0513(4) -0.2176(6)
H18 H 0.5227(1) 1.1245(3) 0.0717(8)
H19 H 0.5482(1) 1.1813(3) 0.2014(8)
H20 H 0.5500(1) 1.1957(3) -0.0166(8)
loop_
_geom_bond_atom_site_label_1
_geom_bond_atom_site_label_2
_geom_bond_distance
_geom_bond_site_symmetry_1
_geom_bond_site_symmetry_2
C1 C2 1.350 1_555 1_555
C2 C3 1.424 1_555 1_555
C3 C4 1.414 1_555 1_555
C4 C5 1.357 1_555 1_555
C5 C6 1.388 1_555 1_555
C6 C7 1.363 1_555 1_555
C7 C8 1.407 1_555 1_555
C8 C3 1.442 1_555 1_555
C9 C8 1.425 1_555 1_555
C10 C1 1.385 1_555 1_555
C11 C1 1.429 1_555 1_555
C12 C11 1.351 1_555 1_555
C13 C12 1.468 1_555 1_555
C14 C13 1.389 1_555 1_555
C15 C14 1.382 1_555 1_555
C16 C15 1.364 1_555 1_555
C17 C16 1.379 1_555 1_555
C18 C13 1.399 1_555 1_555
C19 C12 1.464 1_555 1_555
C20 C19 1.401 1_555 1_555
C21 C20 1.365 1_555 1_555
C22 C21 1.385 1_555 1_555
C23 C22 1.372 1_555 1_555
C24 C19 1.404 1_555 1_555
C25 C18 1.522 1_555 1_555
C26 C25 1.542 1_555 1_555
C27 C25 1.540 1_555 1_555
H1 C2 0.965 1_555 1_555
H2 C4 0.965 1_555 1_555
H3 C5 0.962 1_555 1_555
H4 C6 0.965 1_555 1_555
H5 C7 0.966 1_555 1_555
H6 C9 0.966 1_555 1_555
H7 C14 0.967 1_555 1_555
H8 C15 0.964 1_555 1_555
H9 C16 0.969 1_555 1_555
H10 C17 0.962 1_555 1_555
H11 C20 0.965 1_555 1_555
H12 C21 0.965 1_555 1_555
H13 C22 0.963 1_555 1_555
H14 C23 0.967 1_555 1_555
H15 C26 0.965 1_555 1_555
H16 C26 0.964 1_555 1_555
H17 C26 0.965 1_555 1_555
H18 C27 0.968 1_555 1_555
H19 C27 0.964 1_555 1_555
H20 C27 0.964 1_555 1_555
C9 C10 1.350 1_555 1_555
C10 C11 1.425 1_555 1_555
C17 C18 1.398 1_555 1_555
C23 C24 1.399 1_555 1_555
C24 C25 1.537 1_555 1_555
#END
