
#######################################################################
#
#                 Cambridge Crystallographic Data Centre
#                                CCDC
#
#######################################################################
#
# If this CIF has been generated from an entry in the Cambridge
# Structural Database, then it will include bibliographic, chemical,
# crystal, experimental, refinement or atomic coordinate data resulting
# from the CCDC's data processing and validation procedures.
#
#######################################################################

data_CSD_CIF_SEVYUQ
_audit_creation_date 2018-03-16
_audit_creation_method CSD-ConQuest-V1
_database_code_CSD SEVYUQ
_database_code_depnum_ccdc_archive 'CCDC 1830503'
_chemical_formula_sum 'C22 H16'
_chemical_formula_moiety
;
C22 H16
;
_journal_coden_Cambridge 557
_journal_volume 18
_journal_year 1997
_journal_page_first 415
_journal_name_full 'Carcinogenesis '
loop_
_publ_author_name
"C.J.Carrell"
"T.G.Carrell"
"H.L.Carrell"
"K.Prout"
"J.P.Glusker"
_chemical_name_systematic
;
3,11-dimethylbenzo[pqr]tetraphene
;
_cell_volume   1377.733
_diffrn_ambient_temperature 120
_symmetry_cell_setting monoclinic
_symmetry_space_group_name_H-M 'P 21/n'
_symmetry_Int_Tables_number 14
loop_
_symmetry_equiv_pos_site_id
_symmetry_equiv_pos_as_xyz
1 x,y,z
2 1/2-x,1/2+y,1/2-z
3 -x,-y,-z
4 -1/2+x,-1/2-y,-1/2+z
_cell_length_a 4.703(2)
_cell_length_b 16.739(6)
_cell_length_c 17.501(5)
_cell_angle_alpha 90
_cell_angle_beta 90.18(2)
_cell_angle_gamma 90
_cell_formula_units_Z 4
loop_
_atom_type_symbol
_atom_type_radius_bond
C 0.68
H 0.23
loop_
_atom_site_label
_atom_site_type_symbol
_atom_site_fract_x
_atom_site_fract_y
_atom_site_fract_z
C1 C 0.1265(5) 0.2117(1) 0.0379(1)
C2 C -0.0691(6) 0.2447(1) -0.0114(2)
C3 C -0.1741(5) 0.3217(1) -0.0012(1)
C4 C -0.1763(5) 0.4472(1) 0.0746(2)
C5 C -0.0716(5) 0.4909(1) 0.1329(1)
C6 C 0.2465(5) 0.5074(1) 0.2421(1)
C7 C 0.5554(6) 0.5293(2) 0.3522(2)
C8 C 0.7577(6) 0.5051(2) 0.4027(2)
C9 C 0.8710(6) 0.4284(2) 0.3954(2)
C10 C 0.7760(6) 0.3771(1) 0.3395(2)
C11 C 0.5351(5) 0.2646(1) 0.2137(1)
C12 C 0.4270(5) 0.2237(1) 0.1530(1)
C13 C -0.0755(5) 0.3670(1) 0.0609(1)
C14 C 0.2289(5) 0.2557(1) 0.1003(1)
C15 C 0.1303(5) 0.3346(1) 0.1123(1)
C16 C 0.2412(5) 0.3801(1) 0.1752(1)
C17 C 0.1403(5) 0.4603(1) 0.1843(1)
C18 C 0.4491(5) 0.3476(1) 0.2261(1)
C19 C 0.5595(5) 0.3990(1) 0.2864(1)
C20 C 0.4541(5) 0.4785(1) 0.2932(1)
C21 C 0.7349(6) 0.2183(2) 0.2646(2)
C22 C -0.3898(6) 0.3542(2) -0.0569(2)
H1 H 0.216(5) 0.154(1) 0.027(1)
H2 H -0.143(5) 0.212(1) -0.056(1)
H3 H -0.331(5) 0.470(1) 0.036(1)
H4 H -0.140(5) 0.544(1) 0.141(1)
H5 H 0.178(4) 0.568(1) 0.246(1)
H6 H 0.476(5) 0.587(1) 0.355(1)
H7 H 0.833(5) 0.542(1) 0.448(1)
H8 H 1.042(5) 0.407(1) 0.433(1)
H9 H 0.860(5) 0.321(1) 0.338(1)
H10 H 0.502(4) 0.169(1) 0.142(1)
H11 H 0.664(6) 0.219(2) 0.322(2)
H12 H 0.744(6) 0.159(2) 0.247(2)
H13 H 0.936(6) 0.238(1) 0.261(1)
H14 H -0.332(6) 0.408(2) -0.079(2)
H15 H -0.427(5) 0.314(2) -0.107(2)
H16 H -0.579(7) 0.361(2) -0.032(2)
loop_
_geom_bond_atom_site_label_1
_geom_bond_atom_site_label_2
_geom_bond_distance
_geom_bond_site_symmetry_1
_geom_bond_site_symmetry_2
C1 C2 1.375 1_555 1_555
C2 C3 1.392 1_555 1_555
C3 C13 1.403 1_555 1_555
C4 C5 1.347 1_555 1_555
C5 C17 1.435 1_555 1_555
C6 C17 1.375 1_555 1_555
C7 C8 1.358 1_555 1_555
C8 C9 1.396 1_555 1_555
C9 C10 1.375 1_555 1_555
C10 C19 1.424 1_555 1_555
C11 C12 1.361 1_555 1_555
C12 C14 1.414 1_555 1_555
C13 C4 1.444 1_555 1_555
C14 C1 1.401 1_555 1_555
C15 C13 1.426 1_555 1_555
C16 C15 1.435 1_555 1_555
C17 C16 1.433 1_555 1_555
C18 C11 1.463 1_555 1_555
C19 C18 1.456 1_555 1_555
C20 C6 1.408 1_555 1_555
C21 C11 1.507 1_555 1_555
C22 C3 1.506 1_555 1_555
H1 C1 1.071 1_555 1_555
H2 C2 1.014 1_555 1_555
H3 C4 1.062 1_555 1_555
H4 C5 0.956 1_555 1_555
H5 C6 1.067 1_555 1_555
H6 C7 1.037 1_555 1_555
H7 C8 1.065 1_555 1_555
H8 C9 1.098 1_555 1_555
H9 C10 1.019 1_555 1_555
H10 C12 1.000 1_555 1_555
H11 C21 1.060 1_555 1_555
H12 C21 1.040 1_555 1_555
H13 C21 1.004 1_555 1_555
H14 C22 1.017 1_555 1_555
H15 C22 1.119 1_555 1_555
H16 C22 0.999 1_555 1_555
C7 C20 1.419 1_555 1_555
C14 C15 1.416 1_555 1_555
C16 C18 1.428 1_555 1_555
C19 C20 1.425 1_555 1_555
#END
