
#######################################################################
#
#                 Cambridge Crystallographic Data Centre
#                                CCDC
#
#######################################################################
#
# If this CIF has been generated from an entry in the Cambridge
# Structural Database, then it will include bibliographic, chemical,
# crystal, experimental, refinement or atomic coordinate data resulting
# from the CCDC's data processing and validation procedures.
#
#######################################################################

data_CSD_CIF_SINFOK
_audit_creation_date 1991-09-03
_audit_creation_method CSD-ConQuest-V1
_database_code_CSD SINFOK
_database_code_depnum_ccdc_archive 'CCDC 1259580'
_database_code_depnum_ccdc_fiz 'CSD 54820'
_chemical_formula_sum 'C18 H12'
_chemical_formula_moiety
;
C18 H12
;
_journal_coden_Cambridge 48
_journal_volume 123
_journal_year 1990
_journal_page_first 2349
_journal_name_full 'Chem.Ber. '
loop_
_publ_author_name
"K.Mullen"
"W.Heinz"
"F.-G.Klarner"
"W.R.Roth"
"I.Kindermann"
"O.Adamczak"
"M.Wette"
"J.Lex"
_chemical_name_systematic
;
Cyclo-octa(def)phenanthrene
;
_chemical_melting_point 366.15
_cell_volume   1199.649
_exptl_crystal_colour 'colorless'
_exptl_crystal_density_diffrn 1.264
_diffrn_ambient_temperature ?
_diffrn_special_details
;
The study was carried out at room temperature,in the range 283-303K

;
#These two values have been output from a single CSD field.
_refine_ls_R_factor_gt 0.044
_refine_ls_wR_factor_gt 0.044
_symmetry_cell_setting monoclinic
_symmetry_space_group_name_H-M 'P 21/n'
_symmetry_Int_Tables_number 14
loop_
_symmetry_equiv_pos_site_id
_symmetry_equiv_pos_as_xyz
1 x,y,z
2 1/2-x,1/2+y,1/2-z
3 -x,-y,-z
4 -1/2+x,-1/2-y,-1/2+z
_cell_length_a 8.822(1)
_cell_length_b 10.837(2)
_cell_length_c 12.819(2)
_cell_angle_alpha 90
_cell_angle_beta 101.80(2)
_cell_angle_gamma 90
_cell_formula_units_Z 4
loop_
_atom_type_symbol
_atom_type_radius_bond
C 0.68
H 0.23
loop_
_atom_site_label
_atom_site_type_symbol
_atom_site_fract_x
_atom_site_fract_y
_atom_site_fract_z
C1 C 0.1241(2) 0.3791(1) 0.1327(1)
C2 C 0.1294(2) 0.3596(1) 0.0234(1)
C3 C 0.0038(2) 0.3239(2) -0.0495(1)
C4 C -0.1375(2) 0.2989(2) -0.0173(2)
C5 C -0.1382(2) 0.3000(2) 0.0915(1)
C6 C 0.0104(2) 0.3378(1) 0.1669(1)
C7 C 0.0205(2) 0.3091(2) 0.2792(1)
C8 C 0.0229(2) 0.3861(2) 0.3587(1)
C9 C 0.2752(2) 0.3660(2) -0.0092(1)
C10 C 0.2631(2) 0.4281(1) 0.2024(1)
C11 C 0.4070(2) 0.4145(1) 0.1696(1)
C12 C 0.5469(2) 0.4428(2) 0.2406(2)
C13 C 0.5463(2) 0.4929(2) 0.3373(2)
C14 C 0.4066(2) 0.5271(2) 0.3621(1)
C15 C 0.2649(2) 0.4979(1) 0.2967(1)
C16 C 0.1292(2) 0.5635(2) 0.3231(1)
C17 C 0.0069(2) 0.5176(2) 0.3531(1)
C18 C 0.4075(2) 0.3822(2) 0.0612(1)
H1 H 0.009(2) 0.316(2) -0.121(1)
H2 H -0.230(2) 0.273(2) -0.066(1)
H3 H -0.229(2) 0.270(1) 0.120(1)
H4 H -0.041(2) 0.218(2) 0.290(1)
H5 H -0.048(2) 0.354(2) 0.426(1)
H6 H 0.272(2) 0.352(2) -0.085(1)
H7 H 0.644(2) 0.428(2) 0.216(1)
H8 H 0.643(2) 0.513(2) 0.389(1)
H9 H 0.142(2) 0.655(2) 0.321(1)
H10 H -0.070(2) 0.573(1) 0.379(1)
H11 H 0.509(2) 0.381(2) 0.039(1)
H12? H -0.097(2) 0.221(1) -0.076(1)
loop_
_geom_bond_atom_site_label_1
_geom_bond_atom_site_label_2
_geom_bond_distance
_geom_bond_site_symmetry_1
_geom_bond_site_symmetry_2
C1 C2 1.427 1_555 1_555
C2 C3 1.352 1_555 1_555
C3 C4 1.417 1_555 1_555
C4 C5 1.396 1_555 1_555
C5 C6 1.517 1_555 1_555
C6 C1 1.256 1_555 1_555
C7 C6 1.458 1_555 1_555
C8 C7 1.314 1_555 1_555
C9 C2 1.433 1_555 1_555
C10 C1 1.461 1_555 1_555
C11 C10 1.424 1_555 1_555
C12 C11 1.409 1_555 1_555
C13 C12 1.354 1_555 1_555
C14 C13 1.385 1_555 1_555
C15 C10 1.423 1_555 1_555
C16 C15 1.490 1_555 1_555
C17 C8 1.432 1_555 1_555
C18 C9 1.333 1_555 1_555
H1 C3 0.931 1_555 1_555
H2 C4 0.962 1_555 1_555
H3 C5 1.000 1_555 1_555
H4 C7 1.148 1_555 1_555
H5 C8 1.215 1_555 1_555
H6 C9 0.978 1_555 1_555
H7 C12 0.985 1_555 1_555
H8 C13 0.992 1_555 1_555
H9 C16 0.999 1_555 1_555
H10 C17 1.011 1_555 1_555
H11 C18 0.994 1_555 1_555
C11 C18 1.434 1_555 1_555
C14 C15 1.392 1_555 1_555
C16 C17 1.315 1_555 1_555
#END
