
#######################################################################
#
#                 Cambridge Crystallographic Data Centre
#                                CCDC
#
#######################################################################
#
# If this CIF has been generated from an entry in the Cambridge
# Structural Database, then it will include bibliographic, chemical,
# crystal, experimental, refinement or atomic coordinate data resulting
# from the CCDC's data processing and validation procedures.
#
#######################################################################

data_CSD_CIF_SIVKEN
_audit_creation_date 1991-10-24
_audit_creation_method CSD-ConQuest-V1
_database_code_CSD SIVKEN
_chemical_formula_sum 'C34 H22'
_chemical_formula_moiety
;
C34 H22
;
_journal_coden_Cambridge 35
_journal_volume 56
_journal_year 1991
_journal_page_first 688
_journal_name_full 'J.Org.Chem. '
loop_
_publ_author_name
"R.P.L'Esperance"
"D.van Engen"
"R.Dayal"
"R.A.Pascal Junior"
_chemical_name_systematic
;
9,14-Diphenylbenzo(b)triphenylene
;
_chemical_melting_point 553.15
_cell_volume   2272.408
_exptl_crystal_colour 'colorless'
_exptl_crystal_density_diffrn 1.26
_exptl_special_details
;
Melting point range 553.15-555.15K

;
_diffrn_ambient_temperature ?
_diffrn_special_details
;
The study was carried out at room temperature,in the range 283-303K

;
#These two values have been output from a single CSD field.
_refine_ls_R_factor_gt 0.05
_refine_ls_wR_factor_gt 0.05
_symmetry_cell_setting monoclinic
_symmetry_space_group_name_H-M 'P 21/c'
_symmetry_Int_Tables_number 14
loop_
_symmetry_equiv_pos_site_id
_symmetry_equiv_pos_as_xyz
1 x,y,z
2 -x,1/2+y,1/2-z
3 -x,-y,-z
4 x,-1/2-y,-1/2+z
_cell_length_a 10.159(2)
_cell_length_b 12.611(2)
_cell_length_c 18.404(4)
_cell_angle_alpha 90
_cell_angle_beta 105.47(2)
_cell_angle_gamma 90
_cell_formula_units_Z 4
loop_
_atom_type_symbol
_atom_type_radius_bond
C 0.68
H 0.23
loop_
_atom_site_label
_atom_site_type_symbol
_atom_site_fract_x
_atom_site_fract_y
_atom_site_fract_z
C1 C 0.7747(2) 0.2655(1) 0.4234(1)
C2 C 0.9047(2) 0.2664(1) 0.4743(1)
C3 C 0.9460(2) 0.3433(2) 0.5369(1)
C4 C 0.8752(2) 0.4393(2) 0.5369(1)
C5 C 0.9256(2) 0.5181(2) 0.5883(1)
C6 C 1.0489(3) 0.5054(2) 0.6413(1)
C7 C 1.1209(2) 0.4127(2) 0.6431(1)
C8 C 1.0705(2) 0.3304(2) 0.5920(1)
C9 C 1.1478(2) 0.2316(2) 0.5936(1)
C10 C 1.2444(2) 0.1996(2) 0.6596(1)
C11 C 1.3149(2) 0.1060(2) 0.6623(1)
C12 C 1.2878(2) 0.0415(2) 0.5995(1)
C13 C 1.1913(2) 0.0702(2) 0.5344(1)
C14 C 1.1198(2) 0.1670(2) 0.5292(1)
C15 C 1.0087(2) 0.1964(1) 0.4615(1)
C16 C 0.9935(2) 0.1541(1) 0.3898(1)
C17 C 0.8697(2) 0.1712(1) 0.3320(1)
C18 C 0.8535(2) 0.1368(2) 0.2567(1)
C19 C 0.7306(2) 0.1418(2) 0.2046(1)
C20 C 0.6153(2) 0.1796(2) 0.2249(1)
C21 C 0.6279(2) 0.2173(2) 0.2957(1)
C22 C 0.7561(2) 0.2186(1) 0.3509(1)
C23 C 0.6509(2) 0.3005(2) 0.4461(1)
C24 C 0.5641(2) 0.3817(2) 0.4113(1)
C25 C 0.4466(2) 0.4037(2) 0.4335(2)
C26 C 0.4138(2) 0.3459(2) 0.4887(1)
C27 C 0.4960(2) 0.2651(2) 0.5227(1)
C28 C 0.6139(2) 0.2429(2) 0.5019(1)
C29 C 1.1008(2) 0.0889(2) 0.3693(1)
C30 C 1.2261(2) 0.1322(2) 0.3688(1)
C31 C 1.3262(2) 0.0701(2) 0.3527(1)
C32 C 1.3029(3) -0.0357(2) 0.3365(1)
C33 C 1.1786(2) -0.0794(2) 0.3351(1)
C34 C 1.0785(2) -0.0182(2) 0.3512(1)
H1 H 0.78940 0.44990 0.50000
H2 H 0.87450 0.58240 0.58730
H3 H 1.08440 0.56090 0.67680
H4 H 1.20710 0.40420 0.67990
H5 H 1.26160 0.24370 0.70370
H6 H 1.38240 0.08570 0.70740
H7 H 1.33650 -0.02410 0.60110
H8 H 1.17230 0.02340 0.49180
H9 H 0.93110 0.10940 0.24240
H10 H 0.72250 0.11950 0.15370
H11 H 0.52740 0.17890 0.18870
H12 H 0.54850 0.24370 0.30870
H13 H 0.58540 0.42250 0.37190
H14 H 0.38770 0.46040 0.40960
H15 H 0.33250 0.36230 0.50370
H16 H 0.47210 0.22370 0.56100
H17 H 0.67180 0.18610 0.52660
H18 H 1.24310 0.20620 0.37970
H19 H 1.41270 0.10090 0.35280
H20 H 1.37350 -0.07900 0.32620
H21 H 1.16160 -0.15300 0.32280
H22 H 0.99180 -0.04950 0.35000
loop_
_geom_bond_atom_site_label_1
_geom_bond_atom_site_label_2
_geom_bond_distance
_geom_bond_site_symmetry_1
_geom_bond_site_symmetry_2
C1 C2 1.401 1_555 1_555
C2 C3 1.479 1_555 1_555
C3 C4 1.408 1_555 1_555
C4 C5 1.373 1_555 1_555
C5 C6 1.376 1_555 1_555
C6 C7 1.375 1_555 1_555
C7 C8 1.402 1_555 1_555
C8 C3 1.404 1_555 1_555
C9 C8 1.469 1_555 1_555
C10 C9 1.402 1_555 1_555
C11 C10 1.375 1_555 1_555
C12 C11 1.380 1_555 1_555
C13 C12 1.379 1_555 1_555
C14 C9 1.403 1_555 1_555
C15 C2 1.444 1_555 1_555
C16 C15 1.393 1_555 1_555
C17 C16 1.430 1_555 1_555
C18 C17 1.419 1_555 1_555
C19 C18 1.358 1_555 1_555
C20 C19 1.404 1_555 1_555
C21 C20 1.361 1_555 1_555
C22 C1 1.425 1_555 1_555
C23 C1 1.494 1_555 1_555
C24 C23 1.391 1_555 1_555
C25 C24 1.389 1_555 1_555
C26 C25 1.362 1_555 1_555
C27 C26 1.360 1_555 1_555
C28 C23 1.389 1_555 1_555
C29 C16 1.492 1_555 1_555
C30 C29 1.387 1_555 1_555
C31 C30 1.377 1_555 1_555
C32 C31 1.374 1_555 1_555
C33 C32 1.372 1_555 1_555
C34 C29 1.395 1_555 1_555
H1 C4 0.961 1_555 1_555
H2 C5 0.960 1_555 1_555
H3 C6 0.960 1_555 1_555
H4 C7 0.960 1_555 1_555
H5 C10 0.961 1_555 1_555
H6 C11 0.960 1_555 1_555
H7 C12 0.960 1_555 1_555
H8 C13 0.959 1_555 1_555
H9 C18 0.960 1_555 1_555
H10 C19 0.960 1_555 1_555
H11 C20 0.961 1_555 1_555
H12 C21 0.960 1_555 1_555
H13 C24 0.960 1_555 1_555
H14 C25 0.960 1_555 1_555
H15 C26 0.961 1_555 1_555
H16 C27 0.959 1_555 1_555
H17 C28 0.961 1_555 1_555
H18 C30 0.960 1_555 1_555
H19 C31 0.960 1_555 1_555
H20 C32 0.960 1_555 1_555
H21 C33 0.960 1_555 1_555
H22 C34 0.960 1_555 1_555
C13 C14 1.411 1_555 1_555
C14 C15 1.488 1_555 1_555
C17 C22 1.423 1_555 1_555
C21 C22 1.422 1_555 1_555
C27 C28 1.380 1_555 1_555
C33 C34 1.371 1_555 1_555
#END
