
#######################################################################
#
#                 Cambridge Crystallographic Data Centre
#                                CCDC
#
#######################################################################
#
# If this CIF has been generated from an entry in the Cambridge
# Structural Database, then it will include bibliographic, chemical,
# crystal, experimental, refinement or atomic coordinate data resulting
# from the CCDC's data processing and validation procedures.
#
#######################################################################

data_CSD_CIF_SIVLUE
_audit_creation_date 1991-10-24
_audit_creation_method CSD-ConQuest-V1
_database_code_CSD SIVLUE
_chemical_formula_sum 'C36 H26'
_chemical_formula_moiety
;
C36 H26
;
_journal_coden_Cambridge 35
_journal_volume 56
_journal_year 1991
_journal_page_first 688
_journal_name_full 'J.Org.Chem. '
loop_
_publ_author_name
"R.P.L'Esperance"
"D.van Engen"
"R.Dayal"
"R.A.Pascal Junior"
_chemical_name_systematic
;
9,14-Di-p-tolylbenzo(b)triphenylene
;
_chemical_melting_point 548.15
_cell_volume   4909.025
_exptl_crystal_colour 'colorless'
_exptl_crystal_density_diffrn 1.24
_exptl_special_details
;
Melting point range 548.15-549.15K

;
_diffrn_ambient_temperature ?
_diffrn_special_details
;
The study was carried out at room temperature,in the range 283-303K

;
#These two values have been output from a single CSD field.
_refine_ls_R_factor_gt 0.046
_refine_ls_wR_factor_gt 0.046
_symmetry_cell_setting orthorhombic
_symmetry_space_group_name_H-M 'P c c n'
_symmetry_Int_Tables_number 56
loop_
_symmetry_equiv_pos_site_id
_symmetry_equiv_pos_as_xyz
1 x,y,z
2 1/2-x,y,1/2+z
3 x,1/2-y,1/2+z
4 1/2-x,1/2-y,z
5 -x,-y,-z
6 -1/2+x,-y,-1/2-z
7 -x,-1/2+y,-1/2-z
8 -1/2+x,-1/2+y,-z
_cell_length_a 15.474(2)
_cell_length_b 17.127(3)
_cell_length_c 18.523(3)
_cell_angle_alpha 90
_cell_angle_beta 90
_cell_angle_gamma 90
_cell_formula_units_Z 8
loop_
_atom_type_symbol
_atom_type_radius_bond
C 0.68
H 0.23
loop_
_atom_site_label
_atom_site_type_symbol
_atom_site_fract_x
_atom_site_fract_y
_atom_site_fract_z
C1 C 0.5447(1) 0.3986(1) 0.2070(1)
C2 C 0.5930(1) 0.4578(1) 0.1742(1)
C3 C 0.6348(1) 0.5223(1) 0.2153(1)
C4 C 0.6536(1) 0.5153(1) 0.2890(1)
C5 C 0.7052(1) 0.5688(1) 0.3246(1)
C6 C 0.7388(2) 0.6313(1) 0.2878(1)
C7 C 0.7219(1) 0.6395(1) 0.2159(1)
C8 C 0.6704(1) 0.5863(1) 0.1781(1)
C9 C 0.6554(1) 0.5942(1) 0.1007(1)
C10 C 0.6650(1) 0.6664(1) 0.0658(1)
C11 C 0.6513(1) 0.6743(1) -0.0067(1)
C12 C 0.6250(1) 0.6103(1) -0.0465(1)
C13 C 0.6139(1) 0.5391(1) -0.0132(1)
C14 C 0.6297(1) 0.5286(1) 0.0601(1)
C15 C 0.6121(1) 0.4536(1) 0.0985(1)
C16 C 0.6082(1) 0.3810(1) 0.0637(1)
C17 C 0.5741(1) 0.3157(1) 0.1013(1)
C18 C 0.5743(1) 0.2395(1) 0.0707(1)
C19 C 0.5324(2) 0.1795(1) 0.1027(1)
C20 C 0.4856(2) 0.1918(1) 0.1661(1)
C21 C 0.4855(1) 0.2630(1) 0.1986(1)
C22 C 0.5334(1) 0.3263(1) 0.1695(1)
C23 C 0.5020(1) 0.4093(1) 0.2780(1)
C24 C 0.4423(1) 0.4692(1) 0.2877(1)
C25 C 0.4012(1) 0.4797(1) 0.3530(1)
C26 C 0.4171(1) 0.4317(1) 0.4113(1)
C27 C 0.4750(1) 0.3709(1) 0.4014(1)
C28 C 0.5165(1) 0.3597(1) 0.3363(1)
C29 C 0.3737(2) 0.4446(2) 0.4832(1)
C30 C 0.6362(1) 0.3687(1) -0.0121(1)
C31 C 0.7225(1) 0.3718(1) -0.0315(1)
C32 C 0.7474(2) 0.3636(1) -0.1027(1)
C33 C 0.6883(1) 0.3532(1) -0.1571(1)
C34 C 0.6018(1) 0.3476(1) -0.1376(1)
C35 C 0.5766(1) 0.3541(1) -0.0667(1)
C36 C 0.7141(2) 0.3501(2) -0.2356(1)
H1 H 0.63000 0.47210 0.31550
H2 H 0.71730 0.56220 0.37500
H3 H 0.77410 0.66890 0.31250
H4 H 0.74620 0.68310 0.19040
H5 H 0.68160 0.71140 0.09350
H6 H 0.65990 0.72380 -0.02980
H7 H 0.61450 0.61550 -0.09740
H8 H 0.59480 0.49540 -0.04140
H9 H 0.60490 0.23050 0.02640
H10 H 0.53480 0.12830 0.08170
H11 H 0.45330 0.14960 0.18700
H12 H 0.45250 0.27060 0.24200
H13 H 0.42950 0.50370 0.24830
H14 H 0.36040 0.52160 0.35800
H15 H 0.48640 0.33580 0.44070
H16 H 0.55610 0.31690 0.33120
H17 H 0.31570 0.46260 0.47550
H18 H 0.40530 0.48310 0.51010
H19 H 0.37260 0.39650 0.50970
H20 H 0.76570 0.37980 0.00500
H21 H 0.80780 0.36510 -0.11440
H22 H 0.55900 0.33900 -0.17420
H23 H 0.51660 0.34830 -0.05460
H24 H 0.67260 0.31990 -0.26210
H25 H 0.77010 0.32630 -0.23990
H26 H 0.71620 0.40210 -0.25480
loop_
_geom_bond_atom_site_label_1
_geom_bond_atom_site_label_2
_geom_bond_distance
_geom_bond_site_symmetry_1
_geom_bond_site_symmetry_2
C1 C2 1.398 1_555 1_555
C2 C3 1.489 1_555 1_555
C3 C4 1.401 1_555 1_555
C4 C5 1.383 1_555 1_555
C5 C6 1.371 1_555 1_555
C6 C7 1.364 1_555 1_555
C7 C8 1.398 1_555 1_555
C8 C3 1.407 1_555 1_555
C9 C8 1.459 1_555 1_555
C10 C9 1.403 1_555 1_555
C11 C10 1.366 1_555 1_555
C12 C11 1.382 1_555 1_555
C13 C12 1.377 1_555 1_555
C14 C9 1.409 1_555 1_555
C15 C2 1.435 1_555 1_555
C16 C15 1.402 1_555 1_555
C17 C16 1.419 1_555 1_555
C18 C17 1.423 1_555 1_555
C19 C18 1.352 1_555 1_555
C20 C19 1.396 1_555 1_555
C21 C20 1.360 1_555 1_555
C22 C1 1.431 1_555 1_555
C23 C1 1.483 1_555 1_555
C24 C23 1.392 1_555 1_555
C25 C24 1.378 1_555 1_555
C26 C25 1.379 1_555 1_555
C27 C26 1.386 1_555 1_555
C28 C23 1.392 1_555 1_555
C29 C26 1.508 1_555 1_555
C30 C16 1.484 1_555 1_555
C31 C30 1.384 1_555 1_555
C32 C31 1.381 1_555 1_555
C33 C32 1.372 1_555 1_555
C34 C33 1.390 1_555 1_555
C35 C30 1.391 1_555 1_555
C36 C33 1.509 1_555 1_555
H1 C4 0.960 1_555 1_555
H2 C5 0.959 1_555 1_555
H3 C6 0.960 1_555 1_555
H4 C7 0.960 1_555 1_555
H5 C10 0.961 1_555 1_555
H6 C11 0.959 1_555 1_555
H7 C12 0.961 1_555 1_555
H8 C13 0.959 1_555 1_555
H9 C18 0.960 1_555 1_555
H10 C19 0.960 1_555 1_555
H11 C20 0.960 1_555 1_555
H12 C21 0.961 1_555 1_555
H13 C24 0.960 1_555 1_555
H14 C25 0.960 1_555 1_555
H15 C27 0.960 1_555 1_555
H16 C28 0.960 1_555 1_555
H17 C29 0.960 1_555 1_555
H18 C29 0.960 1_555 1_555
H19 C29 0.959 1_555 1_555
H20 C31 0.961 1_555 1_555
H21 C32 0.960 1_555 1_555
H22 C34 0.959 1_555 1_555
H23 C35 0.960 1_555 1_555
H24 C36 0.960 1_555 1_555
H25 C36 0.961 1_555 1_555
H26 C36 0.960 1_555 1_555
C13 C14 1.391 1_555 1_555
C14 C15 1.493 1_555 1_555
C17 C22 1.423 1_555 1_555
C21 C22 1.420 1_555 1_555
C27 C28 1.380 1_555 1_555
C34 C35 1.374 1_555 1_555
#END
