
#######################################################################
#
#                 Cambridge Crystallographic Data Centre
#                                CCDC
#
#######################################################################
#
# If this CIF has been generated from an entry in the Cambridge
# Structural Database, then it will include bibliographic, chemical,
# crystal, experimental, refinement or atomic coordinate data resulting
# from the CCDC's data processing and validation procedures.
#
#######################################################################

data_CSD_CIF_SIZLAQ
_audit_creation_date 2014-05-28
_audit_creation_method CSD-ConQuest-V1
_database_code_CSD SIZLAQ
_database_code_depnum_ccdc_archive 'CCDC 995161'
_chemical_formula_sum 'C46 H30'
_chemical_formula_moiety
;
C46 H30
;
_journal_coden_Cambridge 1441
_journal_volume 6
_journal_year 2014
_journal_page_first 492
_journal_name_full 'Nature Chemistry '
loop_
_publ_author_name
"S.R.Yost"
"Jiye Lee"
"M.W.B.Wilson"
"Tony Wu"
"D.P.McMahon"
"R.R.Parkhurst"
"N.J.Thompson"
"D.N.Congreve"
"Akshay Rao"
"K.Johnson"
"Matthew Y.Sfeir"
"M.G.Bawendi"
"T.M.Swager"
"R.H.Friend"
"M.A.Baldo"
"T.Van Voorhis"
_chemical_name_systematic
;
6,13-bis(biphenyl-4-yl)pentacene
;
_cell_volume   3134.436
_exptl_crystal_colour 'pink'
_exptl_crystal_density_diffrn 1.235
_exptl_crystal_description 'plate'
_diffrn_ambient_temperature 100
#These two values have been output from a single CSD field.
_refine_ls_R_factor_gt 0.0461
_refine_ls_wR_factor_gt 0.0461
_symmetry_cell_setting monoclinic
_symmetry_space_group_name_H-M 'P 21/n'
_symmetry_Int_Tables_number 14
loop_
_symmetry_equiv_pos_site_id
_symmetry_equiv_pos_as_xyz
1 x,y,z
2 1/2-x,1/2+y,1/2-z
3 -x,-y,-z
4 -1/2+x,-1/2-y,-1/2+z
_cell_length_a 9.5942(14)
_cell_length_b 27.260(4)
_cell_length_c 12.3336(18)
_cell_angle_alpha 90
_cell_angle_beta 103.662(4)
_cell_angle_gamma 90
_cell_formula_units_Z 4
loop_
_atom_type_symbol
_atom_type_radius_bond
C 0.68
H 0.23
loop_
_atom_site_label
_atom_site_type_symbol
_atom_site_fract_x
_atom_site_fract_y
_atom_site_fract_z
C1 C 0.72788(13) 0.41166(4) 0.56370(9)
C2 C 0.71968(14) 0.41785(4) 0.44907(10)
C3 C 0.72856(15) 0.46518(4) 0.40279(10)
H1 H 0.74250 0.49300 0.45060
C4 C 0.71727(14) 0.47180(4) 0.28861(10)
C5 C 0.71416(15) 0.51968(5) 0.24019(11)
H2 H 0.72490 0.54790 0.28670
C6 C 0.69592(17) 0.52503(5) 0.12769(12)
H3 H 0.69270 0.55700 0.09640
C7 C 0.68162(18) 0.48322(5) 0.05663(11)
H4 H 0.66910 0.48760 -0.02150
C8 C 0.68568(16) 0.43707(5) 0.09967(11)
H5 H 0.67710 0.40950 0.05130
C9 C 0.70265(15) 0.42966(5) 0.21691(10)
C10 C 0.69964(17) 0.38269(5) 0.26177(11)
H6 H 0.69500 0.35500 0.21440
C11 C 0.70331(14) 0.37537(4) 0.37655(10)
C12 C 0.69095(14) 0.32820(4) 0.41991(9)
C13 C 0.69175(13) 0.32224(4) 0.53404(9)
C14 C 0.67165(14) 0.27572(4) 0.57902(10)
H7 H 0.65150 0.24820 0.53060
C15 C 0.68066(14) 0.26932(4) 0.6927(1)
C16 C 0.66010(15) 0.22239(5) 0.73896(11)
H8 H 0.63600 0.19480 0.69110
C17 C 0.67470(16) 0.21688(5) 0.85092(11)
H9 H 0.66190 0.18540 0.88040
C18 C 0.70903(16) 0.25781(5) 0.92415(11)
H10 H 0.72050 0.25330 1.00210
C19 C 0.72554(16) 0.30339(5) 0.88345(10)
H11 H 0.74720 0.33040 0.93320
C20 C 0.71052(14) 0.31082(4) 0.76637(10)
C21 C 0.72258(14) 0.35724(4) 0.72248(10)
H12 H 0.73710 0.38480 0.77100
C22 C 0.71375(13) 0.36444(4) 0.60715(9)
C23 C 0.74980(14) 0.45452(4) 0.64131(9)
C24 C 0.63344(14) 0.47675(5) 0.67038(11)
H13 H 0.53900 0.46580 0.63710
C25 C 0.65347(15) 0.51476(5) 0.74756(10)
H14 H 0.57240 0.52940 0.76630
C26 C 0.79048(14) 0.53179(4) 0.79807(9)
C27 C 0.90728(14) 0.50963(5) 0.76835(10)
H15 H 1.00170 0.52060 0.80130
C28 C 0.88686(14) 0.47152(4) 0.69091(10)
H16 H 0.96770 0.45690 0.67170
C29 C 0.80984(14) 0.57186(4) 0.88192(10)
C30 C 0.70384(15) 0.60761(5) 0.87652(11)
H17 H 0.62010 0.60690 0.81730
C31 C 0.71995(17) 0.64427(5) 0.95707(11)
H18 H 0.64680 0.66820 0.95280
C32 C 0.84212(18) 0.64609(5) 1.04354(11)
H19 H 0.85330 0.67120 1.09830
C33 C 0.94751(18) 0.61098(5) 1.04925(11)
H20 H 1.03140 0.61210 1.10840
C34 C 0.93228(16) 0.57417(5) 0.96969(11)
H21 H 1.00570 0.55030 0.97490
C35 C 0.68839(14) 0.28431(4) 0.34694(10)
C36 C 0.56584(15) 0.26860(4) 0.27021(10)
H22 H 0.47710 0.28480 0.26620
C37 C 0.57189(14) 0.22920(4) 0.19897(10)
H23 H 0.48710 0.21910 0.14700
C38 C 0.70069(14) 0.20442(4) 0.20298(9)
C39 C 0.82239(14) 0.21980(5) 0.28219(10)
H24 H 0.91080 0.20310 0.28780
C40 C 0.81626(15) 0.25902(5) 0.35283(10)
H25 H 0.90050 0.26880 0.40590
C41 C 0.70919(14) 0.16363(4) 0.12469(9)
C42 C 0.58942(15) 0.13488(4) 0.07784(11)
H26 H 0.50150 0.14050 0.09860
C43 C 0.59718(15) 0.09817(5) 0.00117(11)
H27 H 0.51470 0.07900 -0.02990
C44 C 0.72436(15) 0.08932(4) -0.03027(10)
H28 H 0.72930 0.06440 -0.08310
C45 C 0.84424(15) 0.11725(5) 0.0162(1)
H29 H 0.93200 0.11120 -0.00440
C46 C 0.83704(14) 0.15405(5) 0.09276(10)
H30 H 0.92010 0.17300 0.12380
loop_
_geom_bond_atom_site_label_1
_geom_bond_atom_site_label_2
_geom_bond_distance
_geom_bond_site_symmetry_1
_geom_bond_site_symmetry_2
C1 C2 1.407 1_555 1_555
C2 C3 1.422 1_555 1_555
C3 H1 0.951 1_555 1_555
C4 C3 1.398 1_555 1_555
C5 C4 1.433 1_555 1_555
H2 C5 0.951 1_555 1_555
C6 C5 1.365 1_555 1_555
H3 C6 0.951 1_555 1_555
C7 C6 1.424 1_555 1_555
H4 C7 0.950 1_555 1_555
C8 C7 1.362 1_555 1_555
H5 C8 0.951 1_555 1_555
C9 C4 1.436 1_555 1_555
C10 C9 1.398 1_555 1_555
H6 C10 0.949 1_555 1_555
C11 C2 1.449 1_555 1_555
C12 C11 1.408 1_555 1_555
C13 C12 1.415 1_555 1_555
C14 C13 1.416 1_555 1_555
H7 C14 0.950 1_555 1_555
C15 C14 1.395 1_555 1_555
C16 C15 1.433 1_555 1_555
H8 C16 0.950 1_555 1_555
C17 C16 1.363 1_555 1_555
H9 C17 0.951 1_555 1_555
C18 C17 1.424 1_555 1_555
H10 C18 0.949 1_555 1_555
C19 C18 1.363 1_555 1_555
H11 C19 0.950 1_555 1_555
C20 C15 1.437 1_555 1_555
C21 C20 1.392 1_555 1_555
H12 C21 0.950 1_555 1_555
C22 C1 1.413 1_555 1_555
C23 C1 1.493 1_555 1_555
C24 C23 1.390 1_555 1_555
H13 C24 0.950 1_555 1_555
C25 C24 1.389 1_555 1_555
H14 C25 0.950 1_555 1_555
C26 C25 1.395 1_555 1_555
C27 C26 1.396 1_555 1_555
H15 C27 0.949 1_555 1_555
C28 C23 1.392 1_555 1_555
H16 C28 0.950 1_555 1_555
C29 C26 1.485 1_555 1_555
C30 C29 1.399 1_555 1_555
H17 C30 0.950 1_555 1_555
C31 C30 1.392 1_555 1_555
H18 C31 0.950 1_555 1_555
C32 C31 1.387 1_555 1_555
H19 C32 0.950 1_555 1_555
C33 C32 1.382 1_555 1_555
H20 C33 0.951 1_555 1_555
C34 C29 1.398 1_555 1_555
H21 C34 0.950 1_555 1_555
C35 C12 1.494 1_555 1_555
C36 C35 1.391 1_555 1_555
H22 C36 0.950 1_555 1_555
C37 C36 1.398 1_555 1_555
H23 C37 0.950 1_555 1_555
C38 C37 1.399 1_555 1_555
C39 C38 1.398 1_555 1_555
H24 C39 0.951 1_555 1_555
C40 C35 1.394 1_555 1_555
H25 C40 0.950 1_555 1_555
C41 C38 1.487 1_555 1_555
C42 C41 1.398 1_555 1_555
H26 C42 0.950 1_555 1_555
C43 C42 1.391 1_555 1_555
H27 C43 0.950 1_555 1_555
C44 C43 1.386 1_555 1_555
H28 C44 0.950 1_555 1_555
C45 C44 1.386 1_555 1_555
H29 C45 0.950 1_555 1_555
C46 C41 1.399 1_555 1_555
H30 C46 0.951 1_555 1_555
C8 C9 1.431 1_555 1_555
C10 C11 1.422 1_555 1_555
C13 C22 1.446 1_555 1_555
C19 C20 1.431 1_555 1_555
C21 C22 1.418 1_555 1_555
C27 C28 1.393 1_555 1_555
C33 C34 1.387 1_555 1_555
C39 C40 1.389 1_555 1_555
C45 C46 1.391 1_555 1_555
#END
