
#######################################################################
#
#                 Cambridge Crystallographic Data Centre
#                                CCDC
#
#######################################################################
#
# If this CIF has been generated from an entry in the Cambridge
# Structural Database, then it will include bibliographic, chemical,
# crystal, experimental, refinement or atomic coordinate data resulting
# from the CCDC's data processing and validation procedures.
#
#######################################################################

data_CSD_CIF_SOHVUG01
_audit_creation_date 2015-08-25
_audit_creation_method CSD-ConQuest-V1
_database_code_CSD SOHVUG01
_database_code_depnum_ccdc_archive 'CCDC 1420393'
_chemical_formula_sum 'C15 H12'
_chemical_formula_moiety
;
C15 H12
;
_journal_coden_Cambridge 1078
_journal_year 2015
_journal_name_full 'CSD Communication(Private Communication) '
loop_
_publ_author_name
"A.L.Rheingold"
"P.Beckmann"
_chemical_name_systematic
;
3-methylphenanthrene
;
_cell_volume   1030.459
_exptl_crystal_colour 'colorless'
_exptl_crystal_density_diffrn 1.239
_exptl_crystal_description 'block'
_diffrn_ambient_temperature 100.2
#These two values have been output from a single CSD field.
_refine_ls_R_factor_gt 0.0473
_refine_ls_wR_factor_gt 0.0473
_symmetry_cell_setting monoclinic
_symmetry_space_group_name_H-M 'P 21/n'
_symmetry_Int_Tables_number 14
loop_
_symmetry_equiv_pos_site_id
_symmetry_equiv_pos_as_xyz
1 x,y,z
2 1/2-x,1/2+y,1/2-z
3 -x,-y,-z
4 -1/2+x,-1/2-y,-1/2+z
_cell_length_a 7.895(3)
_cell_length_b 6.610(2)
_cell_length_c 20.048(5)
_cell_angle_alpha 90
_cell_angle_beta 99.959(17)
_cell_angle_gamma 90
_cell_formula_units_Z 4
loop_
_atom_type_symbol
_atom_type_radius_bond
C 0.68
H 0.23
loop_
_atom_site_label
_atom_site_type_symbol
_atom_site_fract_x
_atom_site_fract_y
_atom_site_fract_z
C1 C 0.5078(2) 0.6118(3) 0.73011(10)
C2 C 0.3054(2) 0.7555(3) 0.6331(1)
C3 C 0.6132(2) 0.4576(3) 0.76247(10)
H1 H 0.63030 0.33860 0.73790
C4 C 0.4867(2) 0.7909(3) 0.76762(10)
C5 C 0.5688(3) 0.8031(3) 0.83537(10)
H2 H 0.55460 0.92160 0.86060
C6 C 0.4275(3) 0.4240(3) 0.61948(10)
H3 H 0.50190 0.31670 0.63720
C7 C 0.4156(2) 0.5960(3) 0.66053(10)
C8 C 0.2922(3) 0.9337(3) 0.67248(11)
H4 H 0.22060 1.04200 0.65340
C9 C 0.3803(3) 0.9504(3) 0.73657(11)
H5 H 0.37070 1.07120 0.76130
C10 C 0.3358(3) 0.4065(3) 0.55516(10)
C11 C 0.2095(3) 0.7332(3) 0.56769(10)
H6 H 0.13310 0.83840 0.54960
C12 C 0.6928(3) 0.4748(3) 0.82940(11)
H7 H 0.76340 0.36820 0.85030
C13 C 0.6691(3) 0.6488(3) 0.86613(11)
H8 H 0.72220 0.66020 0.91230
C14 C 0.2225(3) 0.5653(3) 0.52932(11)
H9 H 0.15560 0.55480 0.48530
C15 C 0.3544(3) 0.2265(4) 0.51205(13)
H10 H 0.413(3) 0.109(4) 0.5419(13)
H11 H 0.242(3) 0.183(4) 0.4867(13)
H12 H 0.427(3) 0.260(4) 0.4760(14)
loop_
_geom_bond_atom_site_label_1
_geom_bond_atom_site_label_2
_geom_bond_distance
_geom_bond_site_symmetry_1
_geom_bond_site_symmetry_2
C1 C3 1.402 1_555 1_555
C2 C7 1.416 1_555 1_555
C3 H1 0.950 1_555 1_555
C4 C1 1.428 1_555 1_555
C5 C4 1.402 1_555 1_555
H2 C5 0.950 1_555 1_555
C6 H3 0.950 1_555 1_555
C7 C1 1.461 1_555 1_555
C8 C2 1.432 1_555 1_555
H4 C8 0.951 1_555 1_555
C9 C4 1.423 1_555 1_555
H5 C9 0.950 1_555 1_555
C10 C6 1.370 1_555 1_555
C11 C2 1.404 1_555 1_555
H6 C11 0.950 1_555 1_555
C12 C3 1.384 1_555 1_555
H7 C12 0.950 1_555 1_555
C13 C5 1.371 1_555 1_555
H8 C13 0.951 1_555 1_555
C14 C10 1.418 1_555 1_555
H9 C14 0.949 1_555 1_555
C15 C10 1.493 1_555 1_555
H10 C15 1.039 1_555 1_555
H11 C15 0.986 1_555 1_555
H12 C15 1.021 1_555 1_555
C6 C7 1.416 1_555 1_555
C8 C9 1.356 1_555 1_555
C11 C14 1.364 1_555 1_555
C12 C13 1.396 1_555 1_555
#END
