
#######################################################################
#
#                 Cambridge Crystallographic Data Centre
#                                CCDC
#
#######################################################################
#
# If this CIF has been generated from an entry in the Cambridge
# Structural Database, then it will include bibliographic, chemical,
# crystal, experimental, refinement or atomic coordinate data resulting
# from the CCDC's data processing and validation procedures.
#
#######################################################################

data_CSD_CIF_SOTMIX
_audit_creation_date 1992-10-01
_audit_creation_method CSD-ConQuest-V1
_database_code_CSD SOTMIX
_database_code_depnum_ccdc_archive 'CCDC 1262565'
_database_code_depnum_ccdc_fiz 'CSD 55282'
_chemical_formula_sum 'C28 H16'
_chemical_formula_moiety
;
C28 H16
;
_journal_coden_Cambridge 48
_journal_volume 124
_journal_year 1991
_journal_page_first 2761
_journal_name_full 'Chem.Ber. '
loop_
_publ_author_name
"H.J.Bestmann"
"W.Schaper"
"D.Ruppert"
"R.Zimmermann"
"H.Burzlaff"
_chemical_name_systematic
;
Phenanthro(9,10a-a)fluoranthene
;
_chemical_melting_point 487.15
_cell_volume   1654.934
_exptl_crystal_colour 'yellow-brown'
_exptl_crystal_density_diffrn 1.414
_exptl_special_details
;
Melting point range 487.15-488.15K

;
_diffrn_ambient_temperature ?
_diffrn_special_details
;
The study was carried out at room temperature,in the range 283-303K

;
#These two values have been output from a single CSD field.
_refine_ls_R_factor_gt 0.045
_refine_ls_wR_factor_gt 0.045
_symmetry_cell_setting monoclinic
_symmetry_space_group_name_H-M 'P 21/c'
_symmetry_Int_Tables_number 14
loop_
_symmetry_equiv_pos_site_id
_symmetry_equiv_pos_as_xyz
1 x,y,z
2 -x,1/2+y,1/2-z
3 -x,-y,-z
4 x,-1/2-y,-1/2+z
_cell_length_a 20.95(1)
_cell_length_b 3.98(1)
_cell_length_c 22.50(1)
_cell_angle_alpha 90
_cell_angle_beta 118.1(1)
_cell_angle_gamma 90
_cell_formula_units_Z 4
loop_
_atom_type_symbol
_atom_type_radius_bond
C 0.68
H 0.23
loop_
_atom_site_label
_atom_site_type_symbol
_atom_site_fract_x
_atom_site_fract_y
_atom_site_fract_z
C1 C 0.2057(2) 0.223(1) 0.1248(2)
C2 C 0.2612(2) 0.086(1) 0.1139(2)
C3 C 0.2456(2) 0.007(1) 0.0479(2)
C4 C 0.2995(2) -0.045(1) 0.0257(2)
C5 C 0.3688(2) 0.081(1) 0.0633(2)
C6 C 0.4198(2) 0.031(1) 0.0431(2)
C7 C 0.4024(3) -0.132(1) -0.0175(2)
C8 C 0.3334(2) -0.238(1) -0.0578(2)
C9 C 0.2804(2) -0.194(1) -0.0376(2)
C10 C 0.2060(2) -0.279(1) -0.0828(2)
C11 C 0.1868(2) -0.453(1) -0.1432(2)
C12 C 0.1167(3) -0.509(1) -0.1885(2)
C13 C 0.0639(3) -0.394(1) -0.1739(2)
C14 C 0.0814(2) -0.228(1) -0.1145(2)
C15 C 0.1533(2) -0.165(1) -0.0673(2)
C16 C 0.1720(2) -0.002(1) -0.0022(2)
C17 C 0.1193(2) 0.129(1) 0.0108(2)
C18 C 0.1364(2) 0.261(1) 0.0747(2)
C19 C 0.0875(2) 0.413(1) 0.0941(2)
C20 C 0.1118(3) 0.522(1) 0.1602(3)
C21 C 0.1834(3) 0.475(1) 0.2104(2)
C22 C 0.2292(2) 0.318(1) 0.1920(2)
C23 C 0.3039(2) 0.215(1) 0.2291(2)
C24 C 0.3507(3) 0.230(1) 0.2978(2)
C25 C 0.4178(3) 0.093(2) 0.3210(2)
C26 C 0.4375(3) -0.065(1) 0.2765(2)
C27 C 0.3906(2) -0.079(1) 0.2074(2)
C28 C 0.3239(2) 0.070(1) 0.1827(2)
H1 H 0.471(2) 0.14(1) 0.072(2)
H2 H 0.383(2) 0.231(9) 0.111(2)
H3 H 0.070(2) 0.15(1) -0.022(2)
H4 H 0.201(2) 0.58(1) 0.263(2)
H5 H 0.078(2) 0.64(1) 0.171(2)
H6 H 0.031(2) 0.463(9) 0.058(2)
H7 H 0.401(2) -0.22(1) 0.177(2)
H8 H 0.488(2) -0.22(1) 0.296(2)
H9 H 0.450(2) 0.10(1) 0.371(2)
H10 H 0.330(2) 0.370(9) 0.329(2)
H11 H 0.436(2) -0.15(1) -0.037(2)
H12 H 0.322(2) -0.34(1) -0.103(2)
H13 H 0.227(2) -0.525(9) -0.156(2)
H14 H 0.102(2) -0.65(1) -0.232(2)
H15 H 0.011(2) -0.45(1) -0.209(2)
H16 H 0.039(2) -0.13(1) -0.105(2)
loop_
_geom_bond_atom_site_label_1
_geom_bond_atom_site_label_2
_geom_bond_distance
_geom_bond_site_symmetry_1
_geom_bond_site_symmetry_2
C1 C2 1.406 1_555 1_555
C2 C3 1.398 1_555 1_555
C3 C4 1.449 1_555 1_555
C4 C5 1.385 1_555 1_555
C5 C6 1.358 1_555 1_555
C6 C7 1.395 1_555 1_555
C7 C8 1.362 1_555 1_555
C8 C9 1.395 1_555 1_555
C9 C4 1.415 1_555 1_555
C10 C9 1.444 1_555 1_555
C11 C10 1.405 1_555 1_555
C12 C11 1.355 1_555 1_555
C13 C12 1.372 1_555 1_555
C14 C13 1.377 1_555 1_555
C15 C10 1.382 1_555 1_555
C16 C3 1.418 1_555 1_555
C17 C16 1.371 1_555 1_555
C18 C1 1.364 1_555 1_555
C19 C18 1.424 1_555 1_555
C20 C19 1.395 1_555 1_555
C21 C20 1.402 1_555 1_555
C22 C1 1.404 1_555 1_555
C23 C22 1.443 1_555 1_555
C24 C23 1.388 1_555 1_555
C25 C24 1.362 1_555 1_555
C26 C25 1.399 1_555 1_555
C27 C26 1.395 1_555 1_555
C28 C2 1.487 1_555 1_555
H1 C6 1.051 1_555 1_555
H2 C5 1.138 1_555 1_555
H3 C17 0.949 1_555 1_555
H4 C21 1.140 1_555 1_555
H5 C20 0.971 1_555 1_555
H6 C19 1.093 1_555 1_555
H7 C27 0.985 1_555 1_555
H8 C26 1.120 1_555 1_555
H9 C25 1.003 1_555 1_555
H10 C24 1.131 1_555 1_555
H11 C7 0.992 1_555 1_555
H12 C8 1.014 1_555 1_555
H13 C11 1.050 1_555 1_555
H14 C12 1.041 1_555 1_555
H15 C13 1.038 1_555 1_555
H16 C14 1.080 1_555 1_555
C14 C15 1.397 1_555 1_555
C15 C16 1.476 1_555 1_555
C17 C18 1.409 1_555 1_555
C21 C22 1.363 1_555 1_555
C23 C28 1.418 1_555 1_555
C27 C28 1.372 1_555 1_555
#END
