
#######################################################################
#
#                 Cambridge Crystallographic Data Centre
#                                CCDC
#
#######################################################################
#
# If this CIF has been generated from an entry in the Cambridge
# Structural Database, then it will include bibliographic, chemical,
# crystal, experimental, refinement or atomic coordinate data resulting
# from the CCDC's data processing and validation procedures.
#
#######################################################################

data_CSD_CIF_SUHHAG
_audit_creation_date 2015-03-25
_audit_creation_method CSD-ConQuest-V1
_database_code_CSD SUHHAG
_database_code_depnum_ccdc_archive 'CCDC 989783'
_chemical_formula_sum 'C25 H18'
_chemical_formula_moiety
;
C25 H18
;
_journal_coden_Cambridge 35
_journal_volume 79
_journal_year 2014
_journal_page_first 11301
_journal_name_full 'J.Org.Chem. '
loop_
_publ_author_name
"Dan Li"
"Weidong Rao"
"Guan Liang Tay"
"B.J.Ayers"
"Philip Wai Hong Chan"
_chemical_name_systematic
;
3,4-diphenyl-1H-cyclopenta[b]naphthalene
;
_cell_volume    815.960
_exptl_crystal_colour 'colorless'
_exptl_crystal_density_diffrn 1.296
_exptl_crystal_description 'block'
_diffrn_ambient_temperature 103
#These two values have been output from a single CSD field.
_refine_ls_R_factor_gt 0.0527
_refine_ls_wR_factor_gt 0.0527
_symmetry_cell_setting triclinic
_symmetry_space_group_name_H-M 'P -1'
_symmetry_Int_Tables_number 2
loop_
_symmetry_equiv_pos_site_id
_symmetry_equiv_pos_as_xyz
1 x,y,z
2 -x,-y,-z
_cell_length_a 9.3651(5)
_cell_length_b 9.5625(5)
_cell_length_c 11.0503(6)
_cell_angle_alpha 71.447(2)
_cell_angle_beta 67.341(3)
_cell_angle_gamma 65.481(2)
_cell_formula_units_Z 2
loop_
_atom_type_symbol
_atom_type_radius_bond
C 0.68
H 0.23
loop_
_atom_site_label
_atom_site_type_symbol
_atom_site_fract_x
_atom_site_fract_y
_atom_site_fract_z
C1 C -0.13997(13) 0.82609(12) -0.15140(11)
C2 C -0.31464(13) 0.87610(13) -0.11300(11)
H1 H -0.37460 0.87400 -0.02120
C3 C -0.39818(14) 0.92736(14) -0.20592(12)
H2 H -0.51480 0.96140 -0.17780
C4 C -0.31208(15) 0.92989(14) -0.34288(12)
H3 H -0.37050 0.96440 -0.40660
C5 C -0.14402(15) 0.88247(14) -0.38360(12)
H4 H -0.08670 0.88400 -0.47580
C6 C -0.05414(14) 0.83119(13) -0.29064(11)
C7 C 0.11962(14) 0.78856(13) -0.33396(11)
H5 H 0.17760 0.79190 -0.42620
C8 C 0.20250(13) 0.74300(13) -0.24324(11)
C9 C 0.38379(13) 0.69796(14) -0.26560(12)
H6 H 0.44680 0.60450 -0.30790
H7 H 0.42470 0.78510 -0.32210
C10 C 0.39434(14) 0.66360(13) -0.12712(12)
H8 H 0.49410 0.63190 -0.10640
C11 C 0.24601(13) 0.68274(13) -0.03475(11)
C12 C 0.11902(13) 0.73510(12) -0.10292(11)
C13 C -0.05093(12) 0.77648(12) -0.05604(11)
C14 C -0.14097(12) 0.77437(12) 0.08894(11)
C15 C -0.22774(14) 0.66980(13) 0.16146(12)
H9 H -0.23480 0.60350 0.11720
C16 C -0.30341(15) 0.66288(15) 0.29792(12)
H10 H -0.36210 0.59180 0.34640
C17 C -0.29402(14) 0.75893(14) 0.36404(12)
H11 H -0.34430 0.75230 0.45760
C18 C -0.21042(14) 0.86488(14) 0.29235(12)
H12 H -0.20470 0.93180 0.33680
C19 C -0.13544(13) 0.87291(13) 0.15593(11)
H13 H -0.07960 0.94630 0.10750
C20 C 0.22464(13) 0.65523(13) 0.10998(11)
C21 C 0.16093(13) 0.54004(13) 0.20154(12)
H14 H 0.12560 0.48040 0.17180
C22 C 0.14928(14) 0.51276(14) 0.33533(12)
H15 H 0.10730 0.43350 0.39660
C23 C 0.19857(15) 0.60052(14) 0.38059(12)
H16 H 0.18820 0.58280 0.47270
C24 C 0.26313(15) 0.71449(15) 0.29030(13)
H17 H 0.29790 0.77410 0.32060
C25 C 0.27652(14) 0.74077(14) 0.15614(12)
H18 H 0.32160 0.81800 0.09480
loop_
_geom_bond_atom_site_label_1
_geom_bond_atom_site_label_2
_geom_bond_distance
_geom_bond_site_symmetry_1
_geom_bond_site_symmetry_2
C1 C2 1.425 1_555 1_555
C2 H1 0.950 1_555 1_555
C3 C2 1.374 1_555 1_555
H2 C3 0.950 1_555 1_555
C4 C3 1.412 1_555 1_555
H3 C4 0.950 1_555 1_555
C5 C4 1.370 1_555 1_555
H4 C5 0.950 1_555 1_555
C6 C1 1.431 1_555 1_555
C7 C6 1.420 1_555 1_555
H5 C7 0.950 1_555 1_555
C8 C7 1.356 1_555 1_555
C9 C8 1.506 1_555 1_555
H6 C9 0.990 1_555 1_555
H7 C9 0.990 1_555 1_555
C10 C9 1.493 1_555 1_555
H8 C10 0.950 1_555 1_555
C11 C10 1.349 1_555 1_555
C12 C8 1.436 1_555 1_555
C13 C1 1.436 1_555 1_555
C14 C13 1.494 1_555 1_555
C15 C14 1.402 1_555 1_555
H9 C15 0.950 1_555 1_555
C16 C15 1.390 1_555 1_555
H10 C16 0.950 1_555 1_555
C17 C16 1.389 1_555 1_555
H11 C17 0.950 1_555 1_555
C18 C17 1.392 1_555 1_555
H12 C18 0.950 1_555 1_555
C19 C14 1.397 1_555 1_555
H13 C19 0.950 1_555 1_555
C20 C11 1.482 1_555 1_555
C21 C20 1.401 1_555 1_555
H14 C21 0.950 1_555 1_555
C22 C21 1.385 1_555 1_555
H15 C22 0.950 1_555 1_555
C23 C22 1.391 1_555 1_555
H16 C23 0.950 1_555 1_555
C24 C23 1.392 1_555 1_555
H17 C24 0.950 1_555 1_555
C25 C20 1.397 1_555 1_555
H18 C25 0.950 1_555 1_555
C5 C6 1.417 1_555 1_555
C11 C12 1.479 1_555 1_555
C12 C13 1.389 1_555 1_555
C18 C19 1.388 1_555 1_555
C24 C25 1.387 1_555 1_555
#END
