
#######################################################################
#
#                 Cambridge Crystallographic Data Centre
#                                CCDC
#
#######################################################################
#
# If this CIF has been generated from an entry in the Cambridge
# Structural Database, then it will include bibliographic, chemical,
# crystal, experimental, refinement or atomic coordinate data resulting
# from the CCDC's data processing and validation procedures.
#
#######################################################################

data_CSD_CIF_SULNOE
_audit_creation_date 2015-08-27
_audit_creation_method CSD-ConQuest-V1
_database_code_CSD SULNOE
_database_code_depnum_ccdc_archive 'CCDC 1420875'
_chemical_formula_sum 'C19 H14'
_chemical_formula_moiety
;
C19 H14
;
_journal_coden_Cambridge 35
_journal_volume 80
_journal_year 2015
_journal_page_first 7435
_journal_name_full 'J.Org.Chem. '
loop_
_publ_author_name
"P.F.Thomson"
"D.Parrish"
"P.Pradhan"
"M.K.Lakshman"
_chemical_name_systematic
;
5-Methylbenzo[c]phenanthrene
;
_cell_volume   1225.583
_exptl_crystal_colour 'colorless'
_exptl_crystal_density_diffrn 1.313
_exptl_crystal_description 'block'
_diffrn_ambient_temperature 296
#These two values have been output from a single CSD field.
_refine_ls_R_factor_gt 0.0291
_refine_ls_wR_factor_gt 0.0291
_symmetry_cell_setting orthorhombic
_symmetry_space_group_name_H-M 'P 21 21 21'
_symmetry_Int_Tables_number 19
loop_
_symmetry_equiv_pos_site_id
_symmetry_equiv_pos_as_xyz
1 x,y,z
2 1/2+x,1/2-y,-z
3 -x,1/2+y,1/2-z
4 1/2-x,-y,1/2+z
_cell_length_a 5.8248(2)
_cell_length_b 14.0599(4)
_cell_length_c 14.9651(5)
_cell_angle_alpha 90
_cell_angle_beta 90
_cell_angle_gamma 90
_cell_formula_units_Z 4
loop_
_atom_type_symbol
_atom_type_radius_bond
C 0.68
H 0.23
loop_
_atom_site_label
_atom_site_type_symbol
_atom_site_fract_x
_atom_site_fract_y
_atom_site_fract_z
C1 C 0.2779(2) 0.62221(9) 1.07990(8)
C2 C 0.0967(2) 0.58209(8) 1.12257(8)
H1 H 0.07180 0.59720 1.18230
C3 C -0.0574(2) 0.51766(9) 1.07971(8)
C4 C -0.2450(2) 0.47956(9) 1.12955(8)
H2 H -0.25940 0.49460 1.18980
C5 C -0.4021(2) 0.42204(9) 1.09085(9)
H3 H -0.53120 0.40340 1.12290
C6 C -0.3715(2) 0.38974(8) 1.00127(8)
C7 C -0.5270(2) 0.32417(9) 0.96328(9)
H4 H -0.65990 0.30840 0.99430
C8 C -0.4867(2) 0.28328(9) 0.88186(9)
H5 H -0.59350 0.24220 0.85650
C9 C -0.2808(2) 0.30455(9) 0.83725(8)
H6 H -0.24680 0.27390 0.78380
C10 C -0.1293(2) 0.36966(8) 0.87127(8)
H7 H 0.00680 0.38150 0.84070
C11 C -0.1746(2) 0.41957(8) 0.95201(8)
C12 C -0.0282(2) 0.49334(8) 0.98904(8)
C13 C 0.1460(2) 0.54527(8) 0.93907(8)
C14 C 0.1589(2) 0.54553(8) 0.84452(8)
H8 H 0.04580 0.51430 0.81190
C15 C 0.3331(2) 0.59051(8) 0.79959(8)
H9 H 0.33830 0.58810 0.73750
C16 C 0.5027(2) 0.63995(9) 0.84647(8)
H10 H 0.62640 0.66670 0.81630
C17 C 0.4846(2) 0.64852(8) 0.93746(8)
H11 H 0.59340 0.68420 0.96820
C18 C 0.3053(2) 0.60461(8) 0.98573(8)
C19 C 0.4425(2) 0.68630(9) 1.12866(8)
H12 H 0.39790 0.69080 1.19030
H13 H 0.43970 0.74840 1.10210
H14 H 0.59480 0.66060 1.12470
loop_
_geom_bond_atom_site_label_1
_geom_bond_atom_site_label_2
_geom_bond_distance
_geom_bond_site_symmetry_1
_geom_bond_site_symmetry_2
C1 C2 1.356 1_555 1_555
C2 H1 0.930 1_555 1_555
C3 C2 1.427 1_555 1_555
C4 C3 1.427 1_555 1_555
H2 C4 0.930 1_555 1_555
C5 C4 1.352 1_555 1_555
H3 C5 0.930 1_555 1_555
C6 C5 1.427 1_555 1_555
C7 C6 1.412 1_555 1_555
H4 C7 0.929 1_555 1_555
C8 C7 1.368 1_555 1_555
H5 C8 0.930 1_555 1_555
C9 C8 1.405 1_555 1_555
H6 C9 0.930 1_555 1_555
C10 C9 1.370 1_555 1_555
H7 C10 0.930 1_555 1_555
C11 C6 1.426 1_555 1_555
C12 C3 1.410 1_555 1_555
C13 C12 1.457 1_555 1_555
C14 C13 1.417 1_555 1_555
H8 C14 0.930 1_555 1_555
C15 C14 1.372 1_555 1_555
H9 C15 0.930 1_555 1_555
C16 C15 1.397 1_555 1_555
H10 C16 0.930 1_555 1_555
C17 C16 1.371 1_555 1_555
H11 C17 0.930 1_555 1_555
C18 C1 1.440 1_555 1_555
C19 C1 1.505 1_555 1_555
H12 C19 0.960 1_555 1_555
H13 C19 0.959 1_555 1_555
H14 C19 0.960 1_555 1_555
C10 C11 1.422 1_555 1_555
C11 C12 1.453 1_555 1_555
C13 C18 1.430 1_555 1_555
C17 C18 1.412 1_555 1_555
#END
