
#######################################################################
#
#                 Cambridge Crystallographic Data Centre
#                                CCDC
#
#######################################################################
#
# If this CIF has been generated from an entry in the Cambridge
# Structural Database, then it will include bibliographic, chemical,
# crystal, experimental, refinement or atomic coordinate data resulting
# from the CCDC's data processing and validation procedures.
#
#######################################################################

data_CSD_CIF_SULPAS
_audit_creation_date 2015-08-27
_audit_creation_method CSD-ConQuest-V1
_database_code_CSD SULPAS
_database_code_depnum_ccdc_archive 'CCDC 1420877'
_chemical_formula_sum 'C20 H12'
_chemical_formula_moiety
;
C20 H12
;
_journal_coden_Cambridge 35
_journal_volume 80
_journal_year 2015
_journal_page_first 7435
_journal_name_full 'J.Org.Chem. '
loop_
_publ_author_name
"P.F.Thomson"
"D.Parrish"
"P.Pradhan"
"M.K.Lakshman"
_chemical_name_systematic
;
Benzo[l]acephenanthrylene
;
_cell_volume   1286.804
_exptl_crystal_colour 'yellow'
_exptl_crystal_density_diffrn 1.302
_exptl_crystal_description 'needle'
_diffrn_ambient_temperature 296
#These two values have been output from a single CSD field.
_refine_ls_R_factor_gt 0.0376
_refine_ls_wR_factor_gt 0.0376
_symmetry_cell_setting orthorhombic
_symmetry_space_group_name_H-M 'P n a 21'
_symmetry_Int_Tables_number 33
loop_
_symmetry_equiv_pos_site_id
_symmetry_equiv_pos_as_xyz
1 x,y,z
2 -x,-y,1/2+z
3 1/2-x,1/2+y,1/2+z
4 1/2+x,1/2-y,z
_cell_length_a 26.103(19)
_cell_length_b 9.905(7)
_cell_length_c 4.977(4)
_cell_angle_alpha 90
_cell_angle_beta 90
_cell_angle_gamma 90
_cell_formula_units_Z 4
loop_
_atom_type_symbol
_atom_type_radius_bond
C 0.68
H 0.23
loop_
_atom_site_label
_atom_site_type_symbol
_atom_site_fract_x
_atom_site_fract_y
_atom_site_fract_z
C1 C 0.16404(8) 1.1142(2) 0.4290(4)
C2 C 0.16312(9) 1.2483(3) 0.5321(5)
C3 C 0.19908(11) 1.3440(3) 0.4410(6)
H1 H 0.19820 1.43090 0.51130
C4 C 0.23467(11) 1.3135(3) 0.2555(6)
H2 H 0.25810 1.37810 0.19780
C5 C 0.23570(12) 1.1849(3) 0.1532(7)
H3 H 0.25980 1.16300 0.02240
C6 C 0.20227(10) 1.0885(3) 0.2388(7)
H4 H 0.20500 1.00190 0.16790
C7 C 0.12641(12) 1.2845(3) 0.7293(6)
H5 H 0.12580 1.37220 0.79610
C8 C 0.09263(10) 1.1936(3) 0.8203(6)
H6 H 0.06920 1.21970 0.95130
C9 C 0.09133(8) 1.0578(2) 0.7231(4)
C10 C 0.12707(8) 1.0164(2) 0.5225(4)
C11 C 0.12250(7) 0.8760(2) 0.4297(4)
C12 C 0.08475(8) 0.7963(2) 0.5461(4)
C13 C 0.04994(8) 0.8397(3) 0.7517(5)
C14 C 0.05360(8) 0.9686(3) 0.8333(5)
H7 H 0.03120 1.00060 0.96400
C15 C 0.15120(9) 0.8051(3) 0.2303(6)
H8 H 0.17730 0.85000 0.14000
C16 C 0.14133(10) 0.6724(3) 0.1680(6)
H9 H 0.16100 0.63130 0.03550
C17 C 0.10301(9) 0.5959(3) 0.2945(6)
H10 H 0.09740 0.50580 0.25020
C18 C 0.07421(9) 0.6602(3) 0.4865(5)
C19 C 0.03187(10) 0.6191(3) 0.6577(6)
H11 H 0.01700 0.53380 0.66030
C20 C 0.01751(10) 0.7238(3) 0.8116(6)
H12 H -0.00900 0.72250 0.93670
loop_
_geom_bond_atom_site_label_1
_geom_bond_atom_site_label_2
_geom_bond_distance
_geom_bond_site_symmetry_1
_geom_bond_site_symmetry_2
C1 C2 1.424 1_555 1_555
C2 C3 1.409 1_555 1_555
C3 H1 0.929 1_555 1_555
C4 C3 1.344 1_555 1_555
H2 C4 0.931 1_555 1_555
C5 C4 1.372 1_555 1_555
H3 C5 0.931 1_555 1_555
C6 C1 1.399 1_555 1_555
H4 C6 0.930 1_555 1_555
C7 C2 1.418 1_555 1_555
H5 C7 0.930 1_555 1_555
C8 C7 1.339 1_555 1_555
H6 C8 0.931 1_555 1_555
C9 C8 1.430 1_555 1_555
C10 C1 1.444 1_555 1_555
C11 C10 1.470 1_555 1_555
C12 C11 1.389 1_555 1_555
C13 C12 1.434 1_555 1_555
C14 C9 1.432 1_555 1_555
H7 C14 0.930 1_555 1_555
C15 C11 1.428 1_555 1_555
H8 C15 0.929 1_555 1_555
C16 C15 1.375 1_555 1_555
H9 C16 0.930 1_555 1_555
C17 C16 1.404 1_555 1_555
H10 C17 0.931 1_555 1_555
C18 C12 1.407 1_555 1_555
C19 C18 1.454 1_555 1_555
H11 C19 0.930 1_555 1_555
C20 C13 1.457 1_555 1_555
H12 C20 0.931 1_555 1_555
C5 C6 1.362 1_555 1_555
C9 C10 1.427 1_555 1_555
C13 C14 1.343 1_555 1_555
C17 C18 1.373 1_555 1_555
C19 C20 1.343 1_555 1_555
#END
