
#######################################################################
#
#                 Cambridge Crystallographic Data Centre
#                                CCDC
#
#######################################################################
#
# If this CIF has been generated from an entry in the Cambridge
# Structural Database, then it will include bibliographic, chemical,
# crystal, experimental, refinement or atomic coordinate data resulting
# from the CCDC's data processing and validation procedures.
#
#######################################################################

data_CSD_CIF_SUMMES
_audit_creation_date 1994-07-28
_audit_creation_method CSD-ConQuest-V1
_database_code_CSD SUMMES
_database_code_depnum_ccdc_archive 'CCDC 1264350'
_chemical_formula_sum 'C21 H14'
_chemical_formula_moiety
;
C21 H14
;
_journal_coden_Cambridge 55
_journal_volume 112
_journal_year 1993
_journal_page_first 584
_journal_name_full 'Rec.Trav.Chim.Pays-Bas(Fr.)(Rec.J.R.Neth.Chem.Soc.) '
loop_
_publ_author_name
"H.Cerfontain"
"A.Koeberg-Telder"
"U.Lerch"
_chemical_name_systematic
;
Monohomoperylene
;
_chemical_melting_point 443.15
_cell_volume    658.269
_exptl_crystal_colour 'red-brown'
_exptl_crystal_density_diffrn 1.344
_exptl_special_details
;
Melting point range 443.15-444.15K

;
_diffrn_ambient_temperature ?
_diffrn_special_details
;
The study was carried out at room temperature,in the range 283-303K

;
#These two values have been output from a single CSD field.
_refine_ls_R_factor_gt 0.036
_refine_ls_wR_factor_gt 0.036
_symmetry_cell_setting triclinic
_symmetry_space_group_name_H-M 'P -1'
_symmetry_Int_Tables_number 2
loop_
_symmetry_equiv_pos_site_id
_symmetry_equiv_pos_as_xyz
1 x,y,z
2 -x,-y,-z
_cell_length_a 7.823(1)
_cell_length_b 8.460(1)
_cell_length_c 10.284(2)
_cell_angle_alpha 94.63(2)
_cell_angle_beta 103.87(2)
_cell_angle_gamma 90.70(2)
_cell_formula_units_Z 2
loop_
_atom_type_symbol
_atom_type_radius_bond
C 0.68
H 0.23
loop_
_atom_site_label
_atom_site_type_symbol
_atom_site_fract_x
_atom_site_fract_y
_atom_site_fract_z
C1 C -0.2623(2) 0.3140(2) 0.2247(2)
C2 C -0.2694(2) 0.1520(2) 0.2478(2)
C3 C -0.1314(2) 0.0581(2) 0.3020(2)
C4 C 0.0275(2) 0.1225(2) 0.3825(2)
C5 C 0.1965(3) 0.0640(2) 0.3908(2)
C6 C 0.3441(2) 0.1623(2) 0.4110(2)
C7 C 0.3527(2) 0.3257(2) 0.3891(2)
C8 C 0.2119(2) 0.4219(2) 0.3399(1)
C9 C 0.2306(2) 0.5588(2) 0.2634(1)
C10 C 0.0749(2) 0.6154(2) 0.1772(1)
C11 C 0.3906(2) 0.6332(2) 0.2701(2)
C12 C 0.4048(2) 0.7588(2) 0.1925(2)
C13 C 0.2607(2) 0.8099(2) 0.1061(2)
C14 C 0.0925(2) 0.7396(2) 0.0949(2)
C15 C -0.0586(2) 0.7883(2) 0.0026(2)
C16 C -0.2194(2) 0.7217(2) -0.0051(2)
C17 C -0.2380(2) 0.6014(2) 0.0768(2)
C18 C -0.0959(2) 0.5446(2) 0.1664(1)
C19 C -0.1116(2) 0.4138(2) 0.2498(2)
C20 C 0.0401(2) 0.3791(2) 0.3467(1)
C21 C 0.0193(2) 0.2805(2) 0.4555(2)
H1 H -0.369(2) 0.352(2) 0.167(1)
H2 H -0.383(2) 0.102(2) 0.204(2)
H3 H -0.145(2) -0.056(2) 0.275(2)
H4 H 0.208(2) -0.051(2) 0.375(2)
H5 H 0.461(2) 0.111(2) 0.422(2)
H6 H 0.471(2) 0.367(2) 0.386(2)
H7 H 0.494(2) 0.598(2) 0.330(1)
H8 H 0.521(2) 0.808(2) 0.204(2)
H9 H 0.270(2) 0.895(2) 0.050(2)
H10 H -0.041(2) 0.871(2) -0.055(1)
H11 H -0.324(2) 0.758(2) -0.071(2)
H12 H -0.356(2) 0.555(2) 0.068(2)
H13 H -0.096(2) 0.300(2) 0.479(1)
H14 H 0.120(2) 0.302(2) 0.536(2)
loop_
_geom_bond_atom_site_label_1
_geom_bond_atom_site_label_2
_geom_bond_distance
_geom_bond_site_symmetry_1
_geom_bond_site_symmetry_2
C1 C2 1.412 1_555 1_555
C2 C3 1.382 1_555 1_555
C3 C4 1.395 1_555 1_555
C4 C5 1.403 1_555 1_555
C5 C6 1.379 1_555 1_555
C6 C7 1.422 1_555 1_555
C7 C8 1.397 1_555 1_555
C8 C9 1.476 1_555 1_555
C9 C10 1.437 1_555 1_555
C10 C14 1.427 1_555 1_555
C11 C9 1.378 1_555 1_555
C12 C11 1.398 1_555 1_555
C13 C12 1.357 1_555 1_555
C14 C13 1.413 1_555 1_555
C15 C14 1.416 1_555 1_555
C16 C15 1.354 1_555 1_555
C17 C16 1.400 1_555 1_555
C18 C10 1.434 1_555 1_555
C19 C1 1.401 1_555 1_555
C20 C8 1.407 1_555 1_555
C21 C4 1.489 1_555 1_555
H1 C1 0.976 1_555 1_555
H2 C2 0.969 1_555 1_555
H3 C3 0.980 1_555 1_555
H4 C5 0.982 1_555 1_555
H5 C6 1.003 1_555 1_555
H6 C7 0.994 1_555 1_555
H7 C11 0.959 1_555 1_555
H8 C12 0.972 1_555 1_555
H9 C13 0.971 1_555 1_555
H10 C15 0.981 1_555 1_555
H11 C16 0.999 1_555 1_555
H12 C17 0.980 1_555 1_555
H13 C21 1.000 1_555 1_555
H14 C21 0.999 1_555 1_555
C17 C18 1.382 1_555 1_555
C18 C19 1.475 1_555 1_555
C19 C20 1.406 1_555 1_555
C20 C21 1.486 1_555 1_555
#END
