
#######################################################################
#
#                 Cambridge Crystallographic Data Centre
#                                CCDC
#
#######################################################################
#
# If this CIF has been generated from an entry in the Cambridge
# Structural Database, then it will include bibliographic, chemical,
# crystal, experimental, refinement or atomic coordinate data resulting
# from the CCDC's data processing and validation procedures.
#
#######################################################################

data_CSD_CIF_SUQLAS01
_audit_creation_date 2015-11-16
_audit_creation_method CSD-ConQuest-V1
_database_code_CSD SUQLAS01
_database_code_depnum_ccdc_archive 'CCDC 1412198'
_chemical_formula_sum 'C30 H22'
_chemical_formula_moiety
;
C30 H22
;
_journal_coden_Cambridge 1350
_journal_volume 17
_journal_year 2015
_journal_page_first 9228
_journal_name_full 'CrystEngComm '
loop_
_publ_author_name
"Dong-En Wu"
"Man-Ning Wang"
"Yang-Hui Luo"
"Gao-Ju Wen"
"Bai-Wang Sun"
_chemical_name_systematic
;
9,10-bis(2-phenylvinyl)anthracene
;
_cell_volume   1029.640
_exptl_crystal_colour 'yellow'
_exptl_crystal_density_diffrn 1.234
_exptl_crystal_description 'needle'
_diffrn_ambient_temperature 293
#These two values have been output from a single CSD field.
_refine_ls_R_factor_gt 0.0846
_refine_ls_wR_factor_gt 0.0846
_symmetry_cell_setting monoclinic
_symmetry_space_group_name_H-M 'P 21/n'
_symmetry_Int_Tables_number 14
loop_
_symmetry_equiv_pos_site_id
_symmetry_equiv_pos_as_xyz
1 x,y,z
2 1/2-x,1/2+y,1/2-z
3 -x,-y,-z
4 -1/2+x,-1/2-y,-1/2+z
_cell_length_a 5.2605(11)
_cell_length_b 9.4604(19)
_cell_length_c 20.691(4)
_cell_angle_alpha 90
_cell_angle_beta 90.70(3)
_cell_angle_gamma 90
_cell_formula_units_Z 2
loop_
_atom_type_symbol
_atom_type_radius_bond
C 0.68
H 0.23
loop_
_atom_site_label
_atom_site_type_symbol
_atom_site_fract_x
_atom_site_fract_y
_atom_site_fract_z
C1 C 1.1575(8) 0.3981(4) 0.65043(18)
H1 H 1.19890 0.39300 0.60690
C2 C 1.2969(8) 0.4829(5) 0.6899(2)
H2 H 1.42750 0.53750 0.67320
C3 C 1.2441(10) 0.4882(5) 0.7556(2)
H3 H 1.34140 0.54470 0.78310
C4 C 1.0516(10) 0.4111(5) 0.7790(2)
H4 H 1.01600 0.41460 0.82290
C5 C 0.9061(8) 0.3268(4) 0.73869(18)
H5 H 0.77310 0.27450 0.75570
C6 C 0.9557(7) 0.3187(4) 0.67260(17)
C7 C 0.7981(8) 0.2252(4) 0.63124(18)
H6 H 0.66180 0.18180 0.65150
C8 C 0.8243(7) 0.1961(4) 0.57133(17)
H7 H 0.95420 0.24130 0.54930
C9 C 0.6627(7) 0.0957(4) 0.53472(16)
C10 C 0.4757(7) 0.1470(4) 0.49085(17)
C11 C 0.3092(7) 0.0500(4) 0.45667(16)
C12 C 0.1188(8) 0.1091(4) 0.41555(17)
H8 H 0.00600 0.04840 0.39450
C13 C 0.0946(9) 0.2507(5) 0.40567(19)
H9 H -0.03160 0.28520 0.37800
C14 C 0.2611(8) 0.3443(5) 0.43741(18)
H10 H 0.24580 0.44100 0.43030
C15 C 0.4439(8) 0.2953(4) 0.47827(19)
H11 H 0.55190 0.35950 0.49880
C1B C -0.1575(8) -0.3981(4) 0.34957(18)
H1B H -0.19890 -0.39300 0.39310
C2B C -0.2969(8) -0.4829(5) 0.3101(2)
H2B H -0.42750 -0.53750 0.32680
C3B C -0.2441(10) -0.4882(5) 0.2444(2)
H3B H -0.34140 -0.54470 0.21690
C4B C -0.0516(10) -0.4111(5) 0.2210(2)
H4B H -0.01600 -0.41460 0.17710
C5B C 0.0939(8) -0.3268(4) 0.26131(18)
H5B H 0.22690 -0.27450 0.24430
C6B C 0.0443(7) -0.3187(4) 0.32740(17)
C7B C 0.2019(8) -0.2252(4) 0.36876(18)
H6B H 0.33820 -0.18180 0.34850
C8B C 0.1757(7) -0.1961(4) 0.42867(17)
H7B H 0.04580 -0.24130 0.45070
C9B C 0.3373(7) -0.0957(4) 0.46528(16)
C10B C 0.5243(7) -0.1470(4) 0.50915(17)
C11B C 0.6908(7) -0.0500(4) 0.54333(16)
C12B C 0.8812(8) -0.1091(4) 0.58445(17)
H8B H 0.99400 -0.04840 0.60550
C13B C 0.9054(9) -0.2507(5) 0.59433(19)
H9B H 1.03160 -0.28520 0.62200
C14B C 0.7389(8) -0.3443(5) 0.56259(18)
H10B H 0.75420 -0.44100 0.56970
C15B C 0.5561(8) -0.2953(4) 0.52173(19)
H11B H 0.44810 -0.35950 0.50120
loop_
_geom_bond_atom_site_label_1
_geom_bond_atom_site_label_2
_geom_bond_distance
_geom_bond_site_symmetry_1
_geom_bond_site_symmetry_2
C1 H1 0.930 1_555 1_555
C2 C1 1.354 1_555 1_555
H2 C2 0.930 1_555 1_555
C3 C2 1.392 1_555 1_555
H3 C3 0.930 1_555 1_555
C4 C3 1.343 1_555 1_555
H4 C4 0.930 1_555 1_555
C5 C4 1.379 1_555 1_555
H5 C5 0.930 1_555 1_555
C6 C1 1.383 1_555 1_555
C7 C6 1.478 1_555 1_555
H6 C7 0.930 1_555 1_555
C8 C7 1.279 1_555 1_555
H7 C8 0.930 1_555 1_555
C9 C8 1.477 1_555 1_555
C10 C9 1.416 1_555 1_555
C11 C10 1.447 1_555 1_555
C12 C11 1.421 1_555 1_555
H8 C12 0.930 1_555 1_555
C13 C12 1.361 1_555 1_555
H9 C13 0.930 1_555 1_555
C14 C13 1.403 1_555 1_555
H10 C14 0.930 1_555 1_555
C15 C10 1.436 1_555 1_555
H11 C15 0.931 1_555 1_555
C1B H1B 0.930 1_555 1_555
C2B C1B 1.354 1_555 1_555
H2B C2B 0.930 1_555 1_555
C3B C2B 1.392 1_555 1_555
H3B C3B 0.930 1_555 1_555
C4B C3B 1.343 1_555 1_555
H4B C4B 0.930 1_555 1_555
C5B C4B 1.379 1_555 1_555
H5B C5B 0.930 1_555 1_555
C6B C1B 1.383 1_555 1_555
C7B C6B 1.478 1_555 1_555
H6B C7B 0.930 1_555 1_555
C8B C7B 1.279 1_555 1_555
H7B C8B 0.930 1_555 1_555
C9B C11 1.397 1_555 1_555
C10B C9B 1.416 1_555 1_555
C11B C9 1.397 1_555 1_555
C12B C11B 1.421 1_555 1_555
H8B C12B 0.930 1_555 1_555
C13B C12B 1.361 1_555 1_555
H9B C13B 0.930 1_555 1_555
C14B C13B 1.403 1_555 1_555
H10B C14B 0.930 1_555 1_555
C15B C10B 1.436 1_555 1_555
H11B C15B 0.931 1_555 1_555
C5 C6 1.397 1_555 1_555
C14 C15 1.354 1_555 1_555
C5B C6B 1.397 1_555 1_555
C8B C9B 1.477 1_555 1_555
C10B C11B 1.447 1_555 1_555
C14B C15B 1.354 1_555 1_555
#END
