
#######################################################################
#
#                 Cambridge Crystallographic Data Centre
#                                CCDC
#
#######################################################################
#
# If this CIF has been generated from an entry in the Cambridge
# Structural Database, then it will include bibliographic, chemical,
# crystal, experimental, refinement or atomic coordinate data resulting
# from the CCDC's data processing and validation procedures.
#
#######################################################################

data_CSD_CIF_SURTAA
_audit_creation_date 1996-01-18
_audit_creation_method CSD-ConQuest-V1
_database_code_CSD SURTAA
_chemical_formula_sum 'C24 H12'
_chemical_formula_moiety
;
C24 H12
;
_journal_coden_Cambridge 35
_journal_volume 60
_journal_year 1995
_journal_page_first 7015
_journal_name_full 'J.Org.Chem. '
loop_
_publ_author_name
"Z.Marcinow"
"F.R.Fronczek"
"Yen-Hsiang Liu"
"P.W.Rabideau"
_chemical_name_systematic
;
Indeno(7,7a,1,2,3-lmno)-1,12-ethenochrysene
;
_chemical_melting_point 487.15
_cell_volume   1435.672
_exptl_crystal_colour 'red'
_exptl_crystal_density_diffrn 1.39
_exptl_special_details
;
Melting point range 487.15-488.15K

;
_diffrn_ambient_temperature ?
_diffrn_special_details
;
The study was carried out at room temperature,in the range 283-303K

;
#These two values have been output from a single CSD field.
_refine_ls_R_factor_gt 0.047
_refine_ls_wR_factor_gt 0.047
_symmetry_cell_setting monoclinic
_symmetry_space_group_name_H-M 'P 21/c'
_symmetry_Int_Tables_number 14
loop_
_symmetry_equiv_pos_site_id
_symmetry_equiv_pos_as_xyz
1 x,y,z
2 -x,1/2+y,1/2-z
3 -x,-y,-z
4 x,-1/2-y,-1/2+z
_cell_length_a 4.8014(3)
_cell_length_b 13.539(2)
_cell_length_c 22.091(1)
_cell_angle_alpha 90
_cell_angle_beta 91.317(6)
_cell_angle_gamma 90
_cell_formula_units_Z 4
loop_
_atom_type_symbol
_atom_type_radius_bond
C 0.68
H 0.23
loop_
_atom_site_label
_atom_site_type_symbol
_atom_site_fract_x
_atom_site_fract_y
_atom_site_fract_z
C1 C -0.0931(4) 0.2884(1) 0.30064(9)
C2 C -0.2092(4) 0.3038(2) 0.24398(9)
C3 C -0.1237(4) 0.2482(1) 0.19249(8)
C4 C -0.2128(4) 0.2491(2) 0.12993(9)
C5 C -0.1031(5) 0.1872(2) 0.08799(8)
C6 C 0.1110(4) 0.1157(2) 0.10360(8)
C7 C 0.2468(5) 0.0446(2) 0.06784(8)
C8 C 0.4447(5) -0.0161(2) 0.09466(9)
C9 C 0.5260(5) -0.0130(1) 0.15632(9)
C10 C 0.3987(4) 0.0540(1) 0.19263(8)
C11 C 0.4058(4) 0.0840(1) 0.25829(7)
C12 C 0.5377(4) 0.0596(1) 0.31161(8)
C13 C 0.7472(4) -0.0114(1) 0.33241(9)
C14 C 0.7900(5) -0.0010(2) 0.3926(1)
C15 C 0.6113(4) 0.0779(2) 0.41538(8)
C16 C 0.5667(5) 0.1190(2) 0.47109(9)
C17 C 0.3693(5) 0.1949(2) 0.47579(9)
C18 C 0.2202(4) 0.2294(2) 0.42694(8)
C19 C 0.2610(4) 0.1893(1) 0.36840(8)
C20 C 0.1213(4) 0.2158(1) 0.31240(8)
C21 C 0.2029(4) 0.1625(1) 0.26238(8)
C22 C 0.0813(4) 0.1799(1) 0.20555(8)
C23 C 0.1965(4) 0.1155(1) 0.16374(8)
C24 C 0.4586(4) 0.1143(1) 0.36492(7)
H1 H -0.150(4) 0.329(1) 0.3391(7)
H2 H -0.358(4) 0.362(2) 0.2363(8)
H3 H -0.348(5) 0.298(1) 0.1140(9)
H4 H -0.173(4) 0.185(1) 0.0439(7)
H5 H 0.202(4) 0.042(1) 0.0222(8)
H6 H 0.527(5) -0.066(2) 0.0685(8)
H7 H 0.671(5) -0.059(2) 0.1757(8)
H8 H 0.833(4) -0.060(1) 0.3060(8)
H9 H 0.905(4) -0.038(1) 0.4170(7)
H10 H 0.671(5) 0.094(2) 0.5112(8)
H11 H 0.335(4) 0.227(2) 0.5176(8)
H12 H 0.088(4) 0.284(1) 0.4302(8)
loop_
_geom_bond_atom_site_label_1
_geom_bond_atom_site_label_2
_geom_bond_distance
_geom_bond_site_symmetry_1
_geom_bond_site_symmetry_2
C1 C2 1.374 1_555 1_555
C2 C3 1.432 1_555 1_555
C3 C4 1.437 1_555 1_555
C4 C5 1.364 1_555 1_555
C5 C6 1.448 1_555 1_555
C6 C7 1.414 1_555 1_555
C7 C8 1.380 1_555 1_555
C8 C9 1.409 1_555 1_555
C9 C10 1.365 1_555 1_555
C10 C11 1.506 1_555 1_555
C11 C12 1.365 1_555 1_555
C12 C13 1.458 1_555 1_555
C13 C14 1.348 1_555 1_555
C14 C15 1.466 1_555 1_555
C15 C16 1.372 1_555 1_555
C16 C17 1.403 1_555 1_555
C17 C18 1.364 1_555 1_555
C18 C19 1.420 1_555 1_555
C19 C20 1.439 1_555 1_555
C20 C1 1.443 1_555 1_555
C21 C11 1.446 1_555 1_555
C22 C3 1.376 1_555 1_555
C23 C6 1.381 1_555 1_555
C24 C12 1.449 1_555 1_555
H1 C1 1.053 1_555 1_555
H2 C2 1.074 1_555 1_555
H3 C4 0.986 1_555 1_555
H4 C5 1.023 1_555 1_555
H5 C7 1.027 1_555 1_555
H6 C8 0.978 1_555 1_555
H7 C9 1.021 1_555 1_555
H8 C13 0.977 1_555 1_555
H9 C14 0.913 1_555 1_555
H10 C16 1.063 1_555 1_555
H11 C17 1.037 1_555 1_555
H12 C18 0.978 1_555 1_555
C10 C23 1.419 1_555 1_555
C15 C24 1.409 1_555 1_555
C19 C24 1.393 1_555 1_555
C20 C21 1.384 1_555 1_555
C21 C22 1.392 1_555 1_555
C22 C23 1.394 1_555 1_555
#END
