
#######################################################################
#
#                 Cambridge Crystallographic Data Centre
#                                CCDC
#
#######################################################################
#
# If this CIF has been generated from an entry in the Cambridge
# Structural Database, then it will include bibliographic, chemical,
# crystal, experimental, refinement or atomic coordinate data resulting
# from the CCDC's data processing and validation procedures.
#
#######################################################################

data_CSD_CIF_SUVXUE
_audit_creation_date 2015-12-21
_audit_creation_method CSD-ConQuest-V1
_database_code_CSD SUVXUE
_database_code_depnum_ccdc_archive 'CCDC 999488'
_chemical_formula_sum 'C45 H40'
_chemical_formula_moiety
;
C45 H40
;
_journal_coden_Cambridge 1985
_journal_volume 7
_journal_year 2015
_journal_page_first e230
_journal_name_full 'NPG Asia Materials '
loop_
_publ_author_name
"Xuemin Zhang"
"Shengliang Li"
"Zhenying Liu"
"Shu Wang"
"Jinchong Xiao"
_chemical_name_systematic
;
2,7-di-t-butyl-11-methyl-9,14-diphenyldibenzo[de,qr]tetracene
;
_cell_volume   3260.846
_exptl_crystal_colour 'yellow'
_exptl_crystal_density_diffrn 1.183
_exptl_crystal_description 'Prism'
_diffrn_ambient_temperature 296
#These two values have been output from a single CSD field.
_refine_ls_R_factor_gt 0.0828
_refine_ls_wR_factor_gt 0.0828
_symmetry_cell_setting monoclinic
_symmetry_space_group_name_H-M 'P 21/n'
_symmetry_Int_Tables_number 14
loop_
_symmetry_equiv_pos_site_id
_symmetry_equiv_pos_as_xyz
1 x,y,z
2 1/2-x,1/2+y,1/2-z
3 -x,-y,-z
4 -1/2+x,-1/2-y,-1/2+z
_cell_length_a 15.5265(14)
_cell_length_b 10.2258(9)
_cell_length_c 20.7939(18)
_cell_angle_alpha 90
_cell_angle_beta 98.997(2)
_cell_angle_gamma 90
_cell_formula_units_Z 4
loop_
_atom_type_symbol
_atom_type_radius_bond
C 0.68
H 0.23
loop_
_atom_site_label
_atom_site_type_symbol
_atom_site_fract_x
_atom_site_fract_y
_atom_site_fract_z
C1 C 0.6757(3) 0.1211(4) 0.0052(2)
H1 H 0.70960 0.12870 -0.02770
C2 C 0.5908(3) 0.1547(4) -0.00745(19)
H2 H 0.56730 0.18530 -0.04860
C3 C 0.5368(2) 0.1436(3) 0.04184(17)
C4 C 0.4511(2) 0.1885(3) 0.03141(18)
H3 H 0.42760 0.21960 -0.00960
C5 C 0.4000(2) 0.1883(3) 0.07977(17)
C6 C 0.4345(2) 0.1285(3) 0.13888(17)
H4 H 0.40000 0.12470 0.17160
C7 C 0.5176(2) 0.0745(3) 0.15119(16)
C8 C 0.5532(2) 0.0114(3) 0.21426(16)
C9 C 0.4998(2) -0.0394(3) 0.25577(17)
C10 C 0.5347(2) -0.0718(3) 0.32072(17)
C11 C 0.4834(3) -0.1233(4) 0.36568(19)
H5 H 0.42540 -0.14450 0.35100
C12 C 0.5168(3) -0.1429(4) 0.4300(2)
H6 H 0.48110 -0.17550 0.45820
C13 C 0.6031(3) -0.1146(4) 0.45315(19)
C14 C 0.6550(3) -0.0686(4) 0.41161(18)
H7 H 0.71290 -0.04990 0.42790
C15 C 0.6244(2) -0.0474(3) 0.34336(17)
C16 C 0.6803(2) -0.0107(3) 0.29839(17)
C17 C 0.6462(2) 0.0089(3) 0.23260(16)
C18 C 0.7009(2) 0.0190(3) 0.18038(17)
C19 C 0.7884(2) -0.0198(3) 0.18841(19)
H8 H 0.81330 -0.05350 0.22860
C20 C 0.8406(2) -0.0110(3) 0.1397(2)
C21 C 0.8036(3) 0.0392(4) 0.0810(2)
H9 H 0.83820 0.05070 0.04880
C22 C 0.7151(2) 0.0740(3) 0.06757(18)
C23 C 0.6624(2) 0.0601(3) 0.11713(17)
C24 C 0.5720(2) 0.0918(3) 0.10348(16)
C25 C 0.3108(3) 0.2573(4) 0.07237(19)
C26 C 0.2744(3) 0.2852(5) 0.0015(2)
H10 H 0.31160 0.34650 -0.01590
H11 H 0.21690 0.32140 -0.00140
H12 H 0.27190 0.20540 -0.02300
C27 C 0.3236(3) 0.3844(5) 0.1091(3)
H13 H 0.35570 0.36870 0.15170
H14 H 0.26790 0.42150 0.11290
H15 H 0.35560 0.44400 0.08610
C28 C 0.2433(3) 0.1714(6) 0.0986(3)
H16 H 0.24160 0.08690 0.07830
H17 H 0.18690 0.21170 0.08900
H18 H 0.25910 0.16180 0.14480
C29 C 0.4065(2) -0.0748(4) 0.23386(17)
C30 C 0.3380(3) -0.0114(4) 0.2560(2)
H19 H 0.34930 0.05790 0.28510
C31 C 0.2526(3) -0.0502(6) 0.2352(2)
H20 H 0.20700 -0.00550 0.24950
C32 C 0.2352(3) -0.1532(6) 0.1940(3)
H21 H 0.17790 -0.17940 0.18070
C33 C 0.3014(3) -0.2181(5) 0.1722(2)
H22 H 0.28920 -0.28860 0.14400
C34 C 0.3875(3) -0.1793(4) 0.19203(18)
H23 H 0.43250 -0.22410 0.17700
C35 C 0.6332(4) -0.1404(6) 0.5240(3)
H24 H 0.69380 -0.11790 0.53500
H25 H 0.62540 -0.23130 0.53310
H26 H 0.59960 -0.08840 0.54950
C36 C 0.7737(2) 0.0193(3) 0.32611(17)
C37 C 0.8310(3) -0.0773(4) 0.3544(2)
H27 H 0.81240 -0.16370 0.35500
C38 C 0.9148(3) -0.0451(4) 0.3812(2)
H28 H 0.95260 -0.11010 0.39990
C39 C 0.9435(3) 0.0813(4) 0.3808(2)
H29 H 1.00040 0.10220 0.39910
C40 C 0.8880(3) 0.1770(4) 0.3533(2)
H30 H 0.90700 0.26320 0.35310
C41 C 0.8043(2) 0.1457(3) 0.32594(18)
H31 H 0.76740 0.21140 0.30690
C42 C 0.9360(3) -0.0556(4) 0.1534(2)
C43 C 0.9811(3) -0.0356(7) 0.0933(3)
H32 H 1.03930 -0.07030 0.10190
H33 H 0.98350 0.05610 0.08390
H34 H 0.94880 -0.08020 0.05670
C44 C 0.9404(3) -0.1943(6) 0.1731(5)
H35 H 0.91560 -0.20450 0.21230
H36 H 1.00020 -0.22230 0.18070
H37 H 0.90830 -0.24640 0.13910
C45 C 0.9846(3) 0.0319(7) 0.2066(3)
H38 H 0.96010 0.02110 0.24590
H39 H 0.97900 0.12150 0.19290
H40 H 1.04510 0.00800 0.21450
loop_
_geom_bond_atom_site_label_1
_geom_bond_atom_site_label_2
_geom_bond_distance
_geom_bond_site_symmetry_1
_geom_bond_site_symmetry_2
C1 H1 0.929 1_555 1_555
C2 C1 1.348 1_555 1_555
H2 C2 0.930 1_555 1_555
C3 C2 1.427 1_555 1_555
C4 C3 1.392 1_555 1_555
H3 C4 0.930 1_555 1_555
C5 C4 1.375 1_555 1_555
C6 C5 1.402 1_555 1_555
H4 C6 0.930 1_555 1_555
C7 C6 1.390 1_555 1_555
C8 C7 1.488 1_555 1_555
C9 C8 1.388 1_555 1_555
C10 C9 1.414 1_555 1_555
C11 C10 1.421 1_555 1_555
H5 C11 0.930 1_555 1_555
C12 C11 1.371 1_555 1_555
H6 C12 0.929 1_555 1_555
C13 C12 1.382 1_555 1_555
C14 C13 1.354 1_555 1_555
H7 C14 0.930 1_555 1_555
C15 C10 1.421 1_555 1_555
C16 C15 1.422 1_555 1_555
C17 C8 1.435 1_555 1_555
C18 C17 1.483 1_555 1_555
C19 C18 1.400 1_555 1_555
H8 C19 0.930 1_555 1_555
C20 C19 1.396 1_555 1_555
C21 C20 1.365 1_555 1_555
H9 C21 0.929 1_555 1_555
C22 C1 1.428 1_555 1_555
C23 C18 1.421 1_555 1_555
C24 C3 1.415 1_555 1_555
C25 C5 1.540 1_555 1_555
C26 C25 1.521 1_555 1_555
H10 C26 0.961 1_555 1_555
H11 C26 0.960 1_555 1_555
H12 C26 0.960 1_555 1_555
C27 C25 1.505 1_555 1_555
H13 C27 0.960 1_555 1_555
H14 C27 0.959 1_555 1_555
H15 C27 0.960 1_555 1_555
C28 C25 1.532 1_555 1_555
H16 C28 0.960 1_555 1_555
H17 C28 0.960 1_555 1_555
H18 C28 0.959 1_555 1_555
C29 C9 1.494 1_555 1_555
C30 C29 1.384 1_555 1_555
H19 C30 0.931 1_555 1_555
C31 C30 1.387 1_555 1_555
H20 C31 0.930 1_555 1_555
C32 C31 1.358 1_555 1_555
H21 C32 0.929 1_555 1_555
C33 C32 1.359 1_555 1_555
H22 C33 0.930 1_555 1_555
C34 C29 1.380 1_555 1_555
H23 C34 0.930 1_555 1_555
C35 C13 1.498 1_555 1_555
H24 C35 0.961 1_555 1_555
H25 C35 0.960 1_555 1_555
H26 C35 0.961 1_555 1_555
C36 C16 1.506 1_555 1_555
C37 C36 1.396 1_555 1_555
H27 C37 0.930 1_555 1_555
C38 C37 1.373 1_555 1_555
H28 C38 0.931 1_555 1_555
C39 C38 1.368 1_555 1_555
H29 C39 0.930 1_555 1_555
C40 C39 1.369 1_555 1_555
H30 C40 0.930 1_555 1_555
C41 C36 1.377 1_555 1_555
H31 C41 0.930 1_555 1_555
C42 C20 1.533 1_555 1_555
C43 C42 1.539 1_555 1_555
H32 C43 0.961 1_555 1_555
H33 C43 0.960 1_555 1_555
H34 C43 0.959 1_555 1_555
C44 C42 1.475 1_555 1_555
H35 C44 0.960 1_555 1_555
H36 C44 0.961 1_555 1_555
H37 C44 0.960 1_555 1_555
C45 C42 1.527 1_555 1_555
H38 C45 0.960 1_555 1_555
H39 C45 0.959 1_555 1_555
H40 C45 0.960 1_555 1_555
C7 C24 1.411 1_555 1_555
C14 C15 1.441 1_555 1_555
C16 C17 1.402 1_555 1_555
C21 C22 1.405 1_555 1_555
C22 C23 1.420 1_555 1_555
C23 C24 1.425 1_555 1_555
C33 C34 1.394 1_555 1_555
C40 C41 1.372 1_555 1_555
#END
