
#######################################################################
#
#                 Cambridge Crystallographic Data Centre
#                                CCDC
#
#######################################################################
#
# If this CIF has been generated from an entry in the Cambridge
# Structural Database, then it will include bibliographic, chemical,
# crystal, experimental, refinement or atomic coordinate data resulting
# from the CCDC's data processing and validation procedures.
#
#######################################################################

data_CSD_CIF_TAPSEK
_audit_creation_date 2012-05-09
_audit_creation_method CSD-ConQuest-V1
_database_code_CSD TAPSEK
_database_code_depnum_ccdc_archive 'CCDC 831276'
_chemical_formula_sum 'C38 H22'
_chemical_formula_moiety
;
C38 H22
;
_journal_coden_Cambridge 1220
_journal_volume 17
_journal_year 2011
_journal_page_first 14907
_journal_name_full 'Chem.-Eur.J. '
loop_
_publ_author_name
"Xiaobo Huang"
"Lintao Zeng"
"Zebing Zeng"
"Jishan Wu"
_chemical_name_systematic
;
7-Phenyl-14-(phenylethynyl)naphtho[1,2-k]fluoranthene
;
_cell_volume   2404.564
_exptl_crystal_colour 'yellow'
_exptl_crystal_density_diffrn 1.322
_exptl_crystal_description 'thin plate'
_diffrn_ambient_temperature 100
#These two values have been output from a single CSD field.
_refine_ls_R_factor_gt 0.0765
_refine_ls_wR_factor_gt 0.0765
_symmetry_cell_setting monoclinic
_symmetry_space_group_name_H-M 'P 21/n'
_symmetry_Int_Tables_number 14
loop_
_symmetry_equiv_pos_site_id
_symmetry_equiv_pos_as_xyz
1 x,y,z
2 1/2-x,1/2+y,1/2-z
3 -x,-y,-z
4 -1/2+x,-1/2-y,-1/2+z
_cell_length_a 9.6169(15)
_cell_length_b 22.307(3)
_cell_length_c 11.2104(17)
_cell_angle_alpha 90
_cell_angle_beta 90.961(4)
_cell_angle_gamma 90
_cell_formula_units_Z 4
loop_
_atom_type_symbol
_atom_type_radius_bond
C 0.68
H 0.23
loop_
_atom_site_label
_atom_site_type_symbol
_atom_site_fract_x
_atom_site_fract_y
_atom_site_fract_z
C1 C 0.7990(3) -0.19387(11) 0.5765(2)
C2 C 0.8101(3) -0.22916(12) 0.4740(3)
H1 H 0.80520 -0.21100 0.39740
C3 C 0.8283(3) -0.29090(12) 0.4841(3)
H2 H 0.83600 -0.31480 0.41430
C4 C 0.8353(3) -0.31742(12) 0.5953(3)
H3 H 0.84890 -0.35950 0.60210
C5 C 0.8224(3) -0.28274(12) 0.6966(3)
H4 H 0.82590 -0.30110 0.77310
C6 C 0.8045(3) -0.22149(12) 0.6873(3)
H5 H 0.79590 -0.19800 0.75760
C7 C 0.7790(3) -0.13001(12) 0.5672(2)
C8 C 0.7573(3) -0.07726(12) 0.5614(2)
C9 C 0.7357(3) -0.01413(11) 0.5407(2)
C10 C 0.8067(3) 0.01013(11) 0.4452(2)
C11 C 0.9062(3) -0.01641(12) 0.3609(2)
C12 C 0.9663(3) -0.07212(12) 0.3456(3)
H6 H 0.94580 -0.10400 0.39870
C13 C 1.0582(3) -0.08113(13) 0.2506(3)
H7 H 1.09950 -0.11950 0.24080
C14 C 1.0899(3) -0.03587(13) 0.1710(3)
H8 H 1.15160 -0.04330 0.10730
C15 C 1.0298(3) 0.02175(12) 0.1853(2)
C16 C 1.0509(3) 0.07296(14) 0.1117(3)
H9 H 1.11060 0.07030 0.04520
C17 C 0.9860(3) 0.12576(14) 0.1363(3)
H10 H 1.00040 0.15920 0.08540
C18 C 0.8969(3) 0.13243(13) 0.2361(2)
H11 H 0.85410 0.16990 0.25190
C19 C 0.8741(3) 0.08465(11) 0.3081(2)
C20 C 0.9413(3) 0.02930(12) 0.2809(2)
C21 C 0.7879(3) 0.07198(11) 0.4120(2)
C22 C 0.6964(3) 0.10739(11) 0.4723(2)
C23 C 0.6162(3) 0.08167(11) 0.5662(2)
C24 C 0.6390(3) 0.02194(11) 0.6058(2)
C25 C 0.5618(3) 0.00090(12) 0.7079(2)
C26 C 0.5930(3) -0.05320(12) 0.7709(2)
H12 H 0.67080 -0.07660 0.74830
C27 C 0.5126(3) -0.07203(13) 0.8634(3)
H13 H 0.53550 -0.10840 0.90340
C28 C 0.3972(3) -0.03880(13) 0.9003(3)
H14 H 0.33970 -0.05330 0.96200
C29 C 0.3689(3) 0.01441(13) 0.8465(3)
H15 H 0.29190 0.03740 0.87230
C30 C 0.4508(3) 0.03622(12) 0.7537(2)
C31 C 0.4267(3) 0.09452(12) 0.7049(3)
H16 H 0.35150 0.11780 0.73350
C32 C 0.5076(3) 0.11722(12) 0.6199(2)
H17 H 0.49360 0.15740 0.59420
C33 C 0.6834(3) 0.17257(11) 0.4410(2)
C34 C 0.5714(3) 0.19439(11) 0.3740(2)
H18 H 0.50090 0.16760 0.34680
C35 C 0.5619(3) 0.25491(12) 0.3465(3)
H19 H 0.48440 0.26950 0.30170
C36 C 0.6655(3) 0.29406(12) 0.3845(3)
H20 H 0.65920 0.33550 0.36560
C37 C 0.7780(3) 0.27253(12) 0.4499(3)
H21 H 0.84950 0.29920 0.47540
C38 C 0.7869(3) 0.21240(12) 0.4785(2)
H22 H 0.86420 0.19810 0.52410
loop_
_geom_bond_atom_site_label_1
_geom_bond_atom_site_label_2
_geom_bond_distance
_geom_bond_site_symmetry_1
_geom_bond_site_symmetry_2
C1 C2 1.398 1_555 1_555
C2 H1 0.950 1_555 1_555
C3 C2 1.393 1_555 1_555
H2 C3 0.951 1_555 1_555
C4 C3 1.380 1_555 1_555
H3 C4 0.951 1_555 1_555
C5 C4 1.381 1_555 1_555
H4 C5 0.950 1_555 1_555
C6 C1 1.387 1_555 1_555
H5 C6 0.951 1_555 1_555
C7 C1 1.441 1_555 1_555
C8 C7 1.197 1_555 1_555
C9 C8 1.442 1_555 1_555
C10 C9 1.389 1_555 1_555
C11 C10 1.480 1_555 1_555
C12 C11 1.382 1_555 1_555
H6 C12 0.950 1_555 1_555
C13 C12 1.410 1_555 1_555
H7 C13 0.951 1_555 1_555
C14 C13 1.385 1_555 1_555
H8 C14 0.951 1_555 1_555
C15 C14 1.419 1_555 1_555
C16 C15 1.426 1_555 1_555
H9 C16 0.950 1_555 1_555
C17 C16 1.363 1_555 1_555
H10 C17 0.951 1_555 1_555
C18 C17 1.428 1_555 1_555
H11 C18 0.950 1_555 1_555
C19 C18 1.357 1_555 1_555
C20 C11 1.403 1_555 1_555
C21 C10 1.440 1_555 1_555
C22 C21 1.369 1_555 1_555
C23 C22 1.435 1_555 1_555
C24 C9 1.438 1_555 1_555
C25 C24 1.453 1_555 1_555
C26 C25 1.428 1_555 1_555
H12 C26 0.950 1_555 1_555
C27 C26 1.370 1_555 1_555
H13 C27 0.951 1_555 1_555
C28 C27 1.403 1_555 1_555
H14 C28 0.950 1_555 1_555
C29 C28 1.357 1_555 1_555
H15 C29 0.950 1_555 1_555
C30 C25 1.429 1_555 1_555
C31 C30 1.428 1_555 1_555
H16 C31 0.950 1_555 1_555
C32 C23 1.450 1_555 1_555
H17 C32 0.950 1_555 1_555
C33 C22 1.500 1_555 1_555
C34 C33 1.391 1_555 1_555
H18 C34 0.950 1_555 1_555
C35 C34 1.387 1_555 1_555
H19 C35 0.949 1_555 1_555
C36 C35 1.387 1_555 1_555
H20 C36 0.950 1_555 1_555
C37 C36 1.383 1_555 1_555
H21 C37 0.950 1_555 1_555
C38 C33 1.394 1_555 1_555
H22 C38 0.950 1_555 1_555
C5 C6 1.381 1_555 1_555
C15 C20 1.390 1_555 1_555
C19 C20 1.429 1_555 1_555
C19 C21 1.468 1_555 1_555
C23 C24 1.420 1_555 1_555
C29 C30 1.402 1_555 1_555
C31 C32 1.340 1_555 1_555
C37 C38 1.381 1_555 1_555
#END
