
#######################################################################
#
#                 Cambridge Crystallographic Data Centre
#                                CCDC
#
#######################################################################
#
# If this CIF has been generated from an entry in the Cambridge
# Structural Database, then it will include bibliographic, chemical,
# crystal, experimental, refinement or atomic coordinate data resulting
# from the CCDC's data processing and validation procedures.
#
#######################################################################

data_CSD_CIF_TARNAE
_audit_creation_date 2017-03-29
_audit_creation_method CSD-ConQuest-V1
_database_code_CSD TARNAE
_database_code_depnum_ccdc_archive 'CCDC 1507389'
_chemical_formula_sum 'C36 H22'
_chemical_formula_moiety
;
C36 H22
;
_journal_coden_Cambridge 1088
_journal_volume 28
_journal_year 2017
_journal_page_first 323
_journal_name_full 'Synlett '
loop_
_publ_author_name
"S.P.Luppino"
"T.M.Swager"
_chemical_name_systematic
;
5,14-diphenylnaphtho[2',3':3,4]cyclobuta[1,2-b]anthracene
;
_cell_volume   4590.208
_exptl_crystal_colour 'yellow'
_exptl_crystal_density_diffrn 1.315
_exptl_crystal_description 'block'
_exptl_crystal_preparation 'chloroform/methanol'
_diffrn_ambient_temperature 100
#These two values have been output from a single CSD field.
_refine_ls_R_factor_gt 0.0502
_refine_ls_wR_factor_gt 0.0502
_symmetry_cell_setting monoclinic
_symmetry_space_group_name_H-M 'C 2/c'
_symmetry_Int_Tables_number 15
loop_
_symmetry_equiv_pos_site_id
_symmetry_equiv_pos_as_xyz
1 x,y,z
2 -x,y,1/2-z
3 1/2+x,1/2+y,z
4 1/2-x,1/2+y,1/2-z
5 -x,-y,-z
6 x,-y,-1/2+z
7 -1/2-x,-1/2-y,-z
8 -1/2+x,-1/2-y,-1/2+z
_cell_length_a 26.840(2)
_cell_length_b 7.1918(6)
_cell_length_c 25.803(2)
_cell_angle_alpha 90
_cell_angle_beta 112.839(7)
_cell_angle_gamma 90
_cell_formula_units_Z 8
loop_
_atom_type_symbol
_atom_type_radius_bond
C 0.68
H 0.23
loop_
_atom_site_label
_atom_site_type_symbol
_atom_site_fract_x
_atom_site_fract_y
_atom_site_fract_z
C1 C 0.48789(9) 0.7655(4) 0.52697(10)
C2 C 0.47941(10) 0.7778(4) 0.57558(10)
C3 C 0.42277(10) 0.7918(4) 0.56753(10)
C4 C 0.40663(11) 0.7972(4) 0.61389(11)
H1 H 0.43320 0.78070 0.65080
C5 C 0.35384(10) 0.8256(4) 0.60709(11)
H2 H 0.34450 0.83010 0.63900
C6 C 0.31396(10) 0.8477(4) 0.55327(11)
H3 H 0.27780 0.87490 0.54860
C7 C 0.38076(10) 0.7970(4) 0.51213(10)
C8 C 0.32693(10) 0.8303(4) 0.50723(11)
H4 H 0.29910 0.84070 0.47080
C9 C 0.39195(10) 0.7747(4) 0.46213(10)
C10 C 0.44556(10) 0.7633(4) 0.47198(10)
C11 C 0.48617(9) 0.7427(4) 0.44587(10)
C12 C 0.49485(10) 0.7238(4) 0.39831(10)
H5 H 0.46580 0.72320 0.36250
C13 C 0.55045(10) 0.7042(4) 0.40406(11)
C14 C 0.56349(11) 0.6820(4) 0.35745(11)
H6 H 0.53520 0.68040 0.32110
C15 C 0.61709(11) 0.6619(4) 0.36215(11)
C16 C 0.63085(11) 0.6376(4) 0.31475(12)
H7 H 0.60320 0.63720 0.27810
C17 C 0.68357(11) 0.6147(4) 0.32136(12)
H8 H 0.69200 0.59880 0.28910
C18 C 0.72543(11) 0.6144(4) 0.37512(12)
H9 H 0.76180 0.59840 0.37900
C19 C 0.71368(11) 0.6373(4) 0.42180(12)
H10 H 0.74210 0.63650 0.45800
C20 C 0.65945(10) 0.6623(4) 0.41672(11)
C21 C 0.64626(10) 0.6844(4) 0.46389(11)
H11 H 0.67450 0.68380 0.50020
C22 C 0.59333(10) 0.7071(4) 0.4593(1)
C23 C 0.58175(10) 0.7285(4) 0.50919(11)
H12 H 0.60970 0.73040 0.54570
C24 C 0.52929(10) 0.7456(4) 0.50134(10)
C25 C 0.52581(10) 0.7775(4) 0.63097(10)
C26 C 0.57065(10) 0.6656(4) 0.63775(11)
H13 H 0.57020 0.58990 0.60740
C27 C 0.61561(11) 0.6631(4) 0.68777(11)
H14 H 0.64550 0.58560 0.69160
C28 C 0.61711(11) 0.7737(4) 0.73246(11)
H15 H 0.64770 0.77110 0.76700
C29 C 0.57353(10) 0.8881(4) 0.72627(11)
H16 H 0.57450 0.96510 0.75660
C30 C 0.52863(10) 0.8905(4) 0.67609(10)
H17 H 0.49920 0.97040 0.67230
C31 C 0.34971(10) 0.7595(4) 0.40467(10)
C32 C 0.35288(10) 0.8656(4) 0.36083(10)
H18 H 0.38210 0.94980 0.36820
C33 C 0.31428(10) 0.8502(4) 0.30703(11)
H19 H 0.31710 0.92400 0.27770
C34 C 0.27141(10) 0.7278(4) 0.29535(11)
H20 H 0.24450 0.71930 0.25830
C35 C 0.26792(10) 0.6177(4) 0.33797(11)
H21 H 0.23900 0.53180 0.33010
C36 C 0.30675(10) 0.6336(4) 0.39188(11)
H22 H 0.30430 0.55760 0.42090
loop_
_geom_bond_atom_site_label_1
_geom_bond_atom_site_label_2
_geom_bond_distance
_geom_bond_site_symmetry_1
_geom_bond_site_symmetry_2
C1 C2 1.362 1_555 1_555
C2 C3 1.456 1_555 1_555
C3 C4 1.422 1_555 1_555
C4 H1 0.950 1_555 1_555
C5 C4 1.374 1_555 1_555
H2 C5 0.950 1_555 1_555
C6 C5 1.395 1_555 1_555
H3 C6 0.951 1_555 1_555
C7 C3 1.437 1_555 1_555
C8 C6 1.367 1_555 1_555
H4 C8 0.950 1_555 1_555
C9 C7 1.443 1_555 1_555
C10 C1 1.433 1_555 1_555
C11 C10 1.495 1_555 1_555
C12 C11 1.342 1_555 1_555
H5 C12 0.950 1_555 1_555
C13 C12 1.448 1_555 1_555
C14 C13 1.386 1_555 1_555
H6 C14 0.951 1_555 1_555
C15 C14 1.403 1_555 1_555
C16 C15 1.419 1_555 1_555
H7 C16 0.949 1_555 1_555
C17 C16 1.368 1_555 1_555
H8 C17 0.950 1_555 1_555
C18 C17 1.406 1_555 1_555
H9 C18 0.949 1_555 1_555
C19 C18 1.368 1_555 1_555
H10 C19 0.949 1_555 1_555
C20 C15 1.426 1_555 1_555
C21 C20 1.402 1_555 1_555
H11 C21 0.949 1_555 1_555
C22 C13 1.443 1_555 1_555
C23 C22 1.445 1_555 1_555
H12 C23 0.950 1_555 1_555
C24 C1 1.504 1_555 1_555
C25 C2 1.487 1_555 1_555
C26 C25 1.401 1_555 1_555
H13 C26 0.950 1_555 1_555
C27 C26 1.383 1_555 1_555
H14 C27 0.950 1_555 1_555
C28 C27 1.389 1_555 1_555
H15 C28 0.949 1_555 1_555
C29 C28 1.388 1_555 1_555
H16 C29 0.951 1_555 1_555
C30 C25 1.398 1_555 1_555
H17 C30 0.951 1_555 1_555
C31 C9 1.480 1_555 1_555
C32 C31 1.394 1_555 1_555
H18 C32 0.950 1_555 1_555
C33 C32 1.377 1_555 1_555
H19 C33 0.951 1_555 1_555
C34 C33 1.386 1_555 1_555
H20 C34 0.950 1_555 1_555
C35 C34 1.387 1_555 1_555
H21 C35 0.950 1_555 1_555
C36 C31 1.401 1_555 1_555
H22 C36 0.950 1_555 1_555
C7 C8 1.421 1_555 1_555
C9 C10 1.363 1_555 1_555
C11 C24 1.450 1_555 1_555
C19 C20 1.421 1_555 1_555
C21 C22 1.389 1_555 1_555
C23 C24 1.348 1_555 1_555
C29 C30 1.385 1_555 1_555
C35 C36 1.382 1_555 1_555
#END
