
#######################################################################
#
#                 Cambridge Crystallographic Data Centre
#                                CCDC
#
#######################################################################
#
# If this CIF has been generated from an entry in the Cambridge
# Structural Database, then it will include bibliographic, chemical,
# crystal, experimental, refinement or atomic coordinate data resulting
# from the CCDC's data processing and validation procedures.
#
#######################################################################

data_CSD_CIF_TAYFOO
_audit_creation_date 1997-02-10
_audit_creation_method CSD-ConQuest-V1
_database_code_CSD TAYFOO
_chemical_formula_sum 'C28 H16'
_chemical_formula_moiety
;
C28 H16
;
_journal_coden_Cambridge 16
_journal_volume 52
_journal_year 1996
_journal_page_first 8349
_journal_name_full 'Tetrahedron '
loop_
_publ_author_name
"W.Baidossi"
"H.Schumann"
"J.Blum"
_chemical_name_systematic
;
1,2-bis(Phenylethynyl)acenaphthylene
;
_chemical_melting_point 427.15
_cell_volume   1934.814
_exptl_crystal_colour 'brick red'
_exptl_crystal_density_diffrn 1.21
_exptl_special_details
;
Melting point range 427.15-428.15K

;
_diffrn_ambient_temperature ?
_diffrn_special_details
;
The study was carried out at room temperature,in the range 283-303K

;
#These two values have been output from a single CSD field.
_refine_ls_R_factor_gt 0.083
_refine_ls_wR_factor_gt 0.083
_symmetry_cell_setting monoclinic
_symmetry_space_group_name_H-M 'P 21/a'
_symmetry_Int_Tables_number 14
loop_
_symmetry_equiv_pos_site_id
_symmetry_equiv_pos_as_xyz
1 x,y,z
2 1/2-x,1/2+y,-z
3 -x,-y,-z
4 -1/2+x,-1/2-y,z
_cell_length_a 12.345(5)
_cell_length_b 13.799(3)
_cell_length_c 11.358(5)
_cell_angle_alpha 90
_cell_angle_beta 90.14(1)
_cell_angle_gamma 90
_cell_formula_units_Z 4
loop_
_atom_type_symbol
_atom_type_radius_bond
C 0.68
H 0.23
loop_
_atom_site_label
_atom_site_type_symbol
_atom_site_fract_x
_atom_site_fract_y
_atom_site_fract_z
C1 C 0.3541(5) 0.5287(6) 0.7011(6)
C2 C 0.3534(5) 0.4700(6) 0.7996(6)
C3 C 0.4659(5) 0.4504(6) 0.8315(6)
C4 C 0.5172(6) 0.3987(6) 0.9197(7)
C5 C 0.6307(6) 0.3965(7) 0.9215(7)
C6 C 0.6928(6) 0.4448(6) 0.8417(7)
C7 C 0.6435(5) 0.4995(7) 0.7495(7)
C8 C 0.6927(6) 0.5551(6) 0.6583(6)
C9 C 0.6306(7) 0.6023(7) 0.5798(7)
C10 C 0.5168(6) 0.6013(6) 0.5808(7)
C11 C 0.4657(5) 0.5494(6) 0.6681(6)
C12 C 0.5307(5) 0.4997(6) 0.7491(6)
C13 C 0.2631(6) 0.4330(6) 0.8639(6)
C14 C 0.1941(6) 0.4031(6) 0.9275(6)
C15 C 0.1171(6) 0.3657(6) 1.0093(6)
C16 C 0.1516(6) 0.3185(7) 1.1110(7)
C17 C 0.0781(7) 0.2843(7) 1.1913(8)
C18 C -0.0291(7) 0.2954(7) 1.1744(8)
C19 C -0.0655(7) 0.3422(7) 1.0761(8)
C20 C 0.0070(7) 0.3767(6) 0.9916(7)
C21 C 0.2645(6) 0.5653(6) 0.6362(6)
C22 C 0.1942(6) 0.5979(6) 0.5730(6)
C23 C 0.1173(6) 0.6334(6) 0.4910(6)
C24 C 0.0070(7) 0.6224(6) 0.5083(7)
C25 C -0.0666(6) 0.6580(7) 0.4245(7)
C26 C -0.0297(7) 0.7024(7) 0.3263(8)
C27 C 0.0773(7) 0.7160(7) 0.3076(8)
C28 C 0.1532(6) 0.6802(7) 0.3882(7)
H1 H 0.47640 0.36530 0.97770
H2 H 0.66610 0.35980 0.98110
H3 H 0.76950 0.44220 0.84750
H4 H 0.76940 0.55900 0.65300
H5 H 0.66560 0.63860 0.52000
H6 H 0.47630 0.63550 0.52310
H7 H 0.22700 0.30990 1.12510
H8 H 0.10320 0.25220 1.26020
H9 H -0.07910 0.27060 1.23050
H10 H -0.14100 0.35160 1.06530
H11 H -0.01920 0.40730 0.92230
H12 H -0.01880 0.59080 0.57680
H13 H -0.14230 0.65080 0.43660
H14 H -0.08000 0.72480 0.26910
H15 H 0.10100 0.75020 0.23970
H16 H 0.22850 0.68710 0.37350
loop_
_geom_bond_atom_site_label_1
_geom_bond_atom_site_label_2
_geom_bond_distance
_geom_bond_site_symmetry_1
_geom_bond_site_symmetry_2
C1 C2 1.381 1_555 1_555
C2 C3 1.460 1_555 1_555
C3 C4 1.382 1_555 1_555
C4 C5 1.402 1_555 1_555
C5 C6 1.363 1_555 1_555
C6 C7 1.426 1_555 1_555
C7 C8 1.426 1_555 1_555
C8 C9 1.343 1_555 1_555
C9 C10 1.405 1_555 1_555
C10 C11 1.377 1_555 1_555
C11 C1 1.457 1_555 1_555
C12 C3 1.408 1_555 1_555
C13 C2 1.429 1_555 1_555
C14 C13 1.192 1_555 1_555
C15 C14 1.427 1_555 1_555
C16 C15 1.392 1_555 1_555
C17 C16 1.372 1_555 1_555
C18 C17 1.346 1_555 1_555
C19 C18 1.365 1_555 1_555
C20 C15 1.382 1_555 1_555
C21 C1 1.421 1_555 1_555
C22 C21 1.212 1_555 1_555
C23 C22 1.416 1_555 1_555
C24 C23 1.385 1_555 1_555
C25 C24 1.403 1_555 1_555
C26 C25 1.353 1_555 1_555
C27 C26 1.351 1_555 1_555
C28 C23 1.407 1_555 1_555
H1 C4 0.950 1_555 1_555
H2 C5 0.951 1_555 1_555
H3 C6 0.950 1_555 1_555
H4 C8 0.950 1_555 1_555
H5 C9 0.949 1_555 1_555
H6 C10 0.949 1_555 1_555
H7 C16 0.952 1_555 1_555
H8 C17 0.950 1_555 1_555
H9 C18 0.952 1_555 1_555
H10 C19 0.949 1_555 1_555
H11 C20 0.949 1_555 1_555
H12 C24 0.948 1_555 1_555
H13 C25 0.950 1_555 1_555
H14 C26 0.949 1_555 1_555
H15 C27 0.951 1_555 1_555
H16 C28 0.950 1_555 1_555
C7 C12 1.393 1_555 1_555
C11 C12 1.399 1_555 1_555
C19 C20 1.397 1_555 1_555
C27 C28 1.399 1_555 1_555
#END
