
#######################################################################
#
#                 Cambridge Crystallographic Data Centre
#                                CCDC
#
#######################################################################
#
# If this CIF has been generated from an entry in the Cambridge
# Structural Database, then it will include bibliographic, chemical,
# crystal, experimental, refinement or atomic coordinate data resulting
# from the CCDC's data processing and validation procedures.
#
#######################################################################

data_CSD_CIF_TEBNAP02
_audit_creation_date 2012-02-14
_audit_creation_method CSD-ConQuest-V1
_database_code_CSD TEBNAP02
_database_code_depnum_ccdc_archive 'CCDC 860843'
_chemical_formula_sum 'C26 H16'
_chemical_formula_moiety
;
C26 H16
;
_journal_coden_Cambridge 4
_journal_volume 133
_journal_year 2011
_journal_page_first 18614
_journal_name_full 'J.Am.Chem.Soc. '
loop_
_publ_author_name
"T.Hatakeyama"
"S.Hashimoto"
"S.Seki"
"M.Nakamura"
_chemical_name_systematic
;
Dibenzo[g,p]chrysene
;
_cell_volume   1622.255
_exptl_crystal_colour 'colorless'
_exptl_crystal_density_diffrn 1.345
_exptl_crystal_description 'block'
_diffrn_ambient_temperature 173
#These two values have been output from a single CSD field.
_refine_ls_R_factor_gt 0.0395
_refine_ls_wR_factor_gt 0.0395
_symmetry_cell_setting monoclinic
_symmetry_space_group_name_H-M 'P 21/n'
_symmetry_Int_Tables_number 14
loop_
_symmetry_equiv_pos_site_id
_symmetry_equiv_pos_as_xyz
1 x,y,z
2 1/2-x,1/2+y,1/2-z
3 -x,-y,-z
4 -1/2+x,-1/2-y,-1/2+z
_cell_length_a 12.169(3)
_cell_length_b 7.6028(17)
_cell_length_c 17.687(4)
_cell_angle_alpha 90
_cell_angle_beta 97.532(4)
_cell_angle_gamma 90
_cell_formula_units_Z 4
loop_
_atom_type_symbol
_atom_type_radius_bond
C 0.68
H 0.23
loop_
_atom_site_label
_atom_site_type_symbol
_atom_site_fract_x
_atom_site_fract_y
_atom_site_fract_z
C1 C 0.58175(9) 0.12306(16) 0.21175(7)
C2 C 0.66986(9) 0.14398(16) 0.26937(7)
C3 C 0.47602(9) 0.05985(17) 0.23213(8)
C4 C 0.59851(9) 0.17194(16) 0.13392(7)
C5 C 0.64637(9) 0.17542(16) 0.34714(7)
C6 C 0.78300(9) 0.13777(16) 0.24974(7)
C7 C 0.45552(9) 0.06518(18) 0.30902(8)
C8 C 0.70696(10) 0.20194(16) 0.11624(7)
C9 C 0.5391(1) 0.14217(17) 0.36631(7)
C10 C 0.80126(9) 0.16293(16) 0.17336(7)
C11 C 0.39747(10) -0.02649(18) 0.17866(9)
C12 C 0.50918(11) 0.21824(18) 0.07781(8)
C13 C 0.30125(11) -0.0956(2) 0.19908(10)
C14 C 0.52633(12) 0.2823(2) 0.00783(8)
C15 C 0.28006(11) -0.0847(2) 0.27424(11)
C16 C 0.63319(12) 0.3083(2) -0.00946(8)
C17 C 0.35619(11) -0.0075(2) 0.32821(10)
C18 C 0.72156(12) 0.27053(19) 0.04434(7)
C19 C 0.72321(11) 0.26126(18) 0.40141(7)
C20 C 0.87373(9) 0.08565(17) 0.30312(7)
C21 C 0.69807(12) 0.3048(2) 0.47247(8)
C22 C 0.9779(1) 0.06655(18) 0.28199(7)
C23 C 0.59405(13) 0.2656(3) 0.49223(9)
C24 C 0.99604(10) 0.09814(18) 0.20726(8)
C25 C 0.51592(12) 0.1879(3) 0.43962(8)
C26 C 0.90899(10) 0.14434(18) 0.15395(8)
H1 H 0.41370 -0.04490 0.12590
H2 H 0.43220 0.21080 0.08980
H3 H 0.24820 -0.15990 0.15980
H4 H 0.46120 0.31550 -0.02910
H5 H 0.21190 -0.13410 0.28910
H6 H 0.64730 0.35770 -0.05930
H7 H 0.34290 -0.00540 0.38140
H8 H 0.79810 0.29490 0.03220
H9 H 0.79470 0.29760 0.38660
H10 H 0.86080 0.05160 0.35540
H11 H 0.75200 0.36970 0.50870
H12 H 1.03970 0.02890 0.32210
H13 H 0.57540 0.29600 0.54400
H14 H 1.07030 0.08370 0.19110
H15 H 0.44040 0.16530 0.45290
H16 H 0.92020 0.15800 0.09990
loop_
_geom_bond_atom_site_label_1
_geom_bond_atom_site_label_2
_geom_bond_distance
_geom_bond_site_symmetry_1
_geom_bond_site_symmetry_2
C1 C2 1.388 1_555 1_555
C2 C5 1.461 1_555 1_555
C3 C1 1.462 1_555 1_555
C4 C1 1.466 1_555 1_555
C5 C9 1.414 1_555 1_555
C6 C2 1.464 1_555 1_555
C7 C3 1.415 1_555 1_555
C8 C4 1.414 1_555 1_555
C9 C7 1.461 1_555 1_555
C10 C6 1.411 1_555 1_555
C11 C3 1.415 1_555 1_555
C12 C4 1.417 1_555 1_555
C13 C11 1.374 1_555 1_555
C14 C12 1.371 1_555 1_555
C15 C13 1.389 1_555 1_555
C16 C14 1.388 1_555 1_555
C17 C7 1.410 1_555 1_555
C18 C8 1.407 1_555 1_555
C19 C5 1.409 1_555 1_555
C20 C6 1.412 1_555 1_555
C21 C19 1.372 1_555 1_555
C22 C20 1.375 1_555 1_555
C23 C21 1.389 1_555 1_555
C24 C22 1.389 1_555 1_555
C25 C9 1.406 1_555 1_555
C26 C10 1.405 1_555 1_555
H1 C11 0.989 1_555 1_555
H2 C12 0.989 1_555 1_555
H3 C13 1.010 1_555 1_555
H4 C14 0.991 1_555 1_555
H5 C15 0.977 1_555 1_555
H6 C16 0.994 1_555 1_555
H7 C17 0.975 1_555 1_555
H8 C18 1.000 1_555 1_555
H9 C19 0.981 1_555 1_555
H10 C20 0.992 1_555 1_555
H11 C21 0.987 1_555 1_555
H12 C22 1.005 1_555 1_555
H13 C23 0.999 1_555 1_555
H14 C24 0.989 1_555 1_555
H15 C25 0.993 1_555 1_555
H16 C26 0.989 1_555 1_555
C8 C10 1.457 1_555 1_555
C15 C17 1.372 1_555 1_555
C16 C18 1.370 1_555 1_555
C23 C25 1.374 1_555 1_555
C24 C26 1.368 1_555 1_555
#END
