
#######################################################################
#
#                 Cambridge Crystallographic Data Centre
#                                CCDC
#
#######################################################################
#
# If this CIF has been generated from an entry in the Cambridge
# Structural Database, then it will include bibliographic, chemical,
# crystal, experimental, refinement or atomic coordinate data resulting
# from the CCDC's data processing and validation procedures.
#
#######################################################################

data_CSD_CIF_TEBNAP12
_audit_creation_date 2017-07-27
_audit_creation_method CSD-ConQuest-V1
_database_code_CSD TEBNAP12
_database_code_depnum_ccdc_archive 'CCDC 1481424'
_chemical_formula_sum 'C26 H16'
_chemical_formula_moiety
;
C26 H16
;
_journal_coden_Cambridge 1695
_journal_volume 5
_journal_year 2017
_journal_page_first 7935
_journal_name_full 'J.Mater.Chem.C '
loop_
_publ_author_name
"Ding-Chi Huang"
"Chi-Hsien Kuo"
"Man-Tzu Ho"
"Bo-Chao Lin"
"Wei-Tao Peng"
"Ito Chao"
"Chao-Ping Hsu"
"Yu-Tai Tao"
_chemical_name_systematic
;
dibenzo[g,p]chrysene
;
_cell_volume   1605.357
_exptl_crystal_colour 'colorless'
_exptl_crystal_density_diffrn 1.359
_exptl_crystal_description 'needle'
_exptl_crystal_preparation 'Vapour deposition'
_diffrn_ambient_temperature 100
#These two values have been output from a single CSD field.
_refine_ls_R_factor_gt 0.0337
_refine_ls_wR_factor_gt 0.0337
_symmetry_cell_setting monoclinic
_symmetry_space_group_name_H-M 'P 21/n'
_symmetry_Int_Tables_number 14
loop_
_symmetry_equiv_pos_site_id
_symmetry_equiv_pos_as_xyz
1 x,y,z
2 1/2-x,1/2+y,1/2-z
3 -x,-y,-z
4 -1/2+x,-1/2-y,-1/2+z
_cell_length_a 12.1404(4)
_cell_length_b 7.5623(2)
_cell_length_c 17.6416(5)
_cell_angle_alpha 90
_cell_angle_beta 97.621(2)
_cell_angle_gamma 90
_cell_formula_units_Z 4
loop_
_atom_type_symbol
_atom_type_radius_bond
C 0.68
H 0.23
loop_
_atom_site_label
_atom_site_type_symbol
_atom_site_fract_x
_atom_site_fract_y
_atom_site_fract_z
C1 C 0.40140(9) 0.82943(14) 0.36650(6)
C2 C 0.49109(10) 0.78283(16) 0.42255(7)
C3 C 0.47399(11) 0.71734(17) 0.49275(7)
C4 C 0.36657(11) 0.69076(17) 0.50990(7)
C5 C 0.27754(11) 0.72948(16) 0.45590(6)
C6 C 0.29250(9) 0.79934(14) 0.38399(6)
C7 C 0.19797(9) 0.83828(14) 0.32681(6)
C8 C 0.09025(10) 0.85808(15) 0.34623(7)
C9 C 0.00249(10) 0.90453(16) 0.29264(7)
C10 C 0.02079(9) 0.93581(15) 0.21749(6)
C11 C 0.12548(9) 0.91612(15) 0.19656(6)
C12 C 0.21636(9) 0.86386(14) 0.25004(6)
C13 C 0.32948(9) 0.85766(14) 0.23064(6)
C14 C 0.35322(9) 0.82630(14) 0.15278(6)
C15 C 0.27567(10) 0.73930(15) 0.09855(6)
C16 C 0.30103(11) 0.69546(17) 0.02711(7)
C17 C 0.40571(12) 0.73500(19) 0.00747(7)
C18 C 0.48420(11) 0.81373(18) 0.06014(7)
C19 C 0.46085(10) 0.85953(15) 0.13380(7)
C20 C 0.54442(9) 0.93683(15) 0.19124(7)
C21 C 0.64391(10) 1.00975(17) 0.17200(8)
C22 C 0.72052(10) 1.08788(17) 0.22630(8)
C23 C 0.69909(10) 1.09846(17) 0.30176(8)
C24 C 0.60257(10) 1.02842(16) 0.32217(7)
C25 C 0.52389(9) 0.94189(15) 0.26837(7)
C26 C 0.41779(9) 0.87861(14) 0.28852(6)
H1 H 0.5675(12) 0.7908(18) 0.4112(7)
H2 H 0.5389(12) 0.686(2) 0.5298(8)
H3 H 0.3530(12) 0.642(2) 0.5591(9)
H4 H 0.2006(12) 0.704(2) 0.4672(8)
H5 H 0.0778(11) 0.8458(19) 0.4009(8)
H6 H -0.0723(12) 0.9181(19) 0.3079(8)
H7 H -0.0409(11) 0.9749(19) 0.1787(8)
H8 H 0.1384(11) 0.9482(18) 0.1439(8)
H9 H 0.2025(11) 0.7015(18) 0.1132(7)
H10 H 0.2455(11) 0.6299(19) -0.0102(8)
H11 H 0.4255(12) 0.703(2) -0.0451(9)
H12 H 0.5607(13) 0.833(2) 0.0469(8)
H13 H 0.6580(12) 1.008(2) 0.1176(8)
H14 H 0.7883(13) 1.141(2) 0.2127(8)
H15 H 0.7527(12) 1.162(2) 0.3410(8)
H16 H 0.5853(11) 1.0460(19) 0.3748(8)
loop_
_geom_bond_atom_site_label_1
_geom_bond_atom_site_label_2
_geom_bond_distance
_geom_bond_site_symmetry_1
_geom_bond_site_symmetry_2
C1 C2 1.415 1_555 1_555
C2 C3 1.375 1_555 1_555
C3 C4 1.392 1_555 1_555
C4 C5 1.374 1_555 1_555
C5 C6 1.408 1_555 1_555
C6 C1 1.415 1_555 1_555
C7 C6 1.454 1_555 1_555
C8 C7 1.403 1_555 1_555
C9 C8 1.373 1_555 1_555
C10 C9 1.393 1_555 1_555
C11 C10 1.378 1_555 1_555
C12 C7 1.415 1_555 1_555
C13 C12 1.459 1_555 1_555
C14 C13 1.460 1_555 1_555
C15 C14 1.413 1_555 1_555
C16 C15 1.377 1_555 1_555
C17 C16 1.393 1_555 1_555
C18 C17 1.375 1_555 1_555
C19 C14 1.414 1_555 1_555
C20 C19 1.458 1_555 1_555
C21 C20 1.410 1_555 1_555
C22 C21 1.377 1_555 1_555
C23 C22 1.392 1_555 1_555
C24 C23 1.377 1_555 1_555
C25 C20 1.416 1_555 1_555
C26 C1 1.464 1_555 1_555
H1 C2 0.976 1_555 1_555
H2 C3 0.984 1_555 1_555
H3 C4 0.977 1_555 1_555
H4 C5 0.999 1_555 1_555
H5 C8 1.000 1_555 1_555
H6 C9 0.986 1_555 1_555
H7 C10 0.990 1_555 1_555
H8 C11 0.993 1_555 1_555
H9 C15 0.999 1_555 1_555
H10 C16 1.008 1_555 1_555
H11 C17 1.018 1_555 1_555
H12 C18 0.998 1_555 1_555
H13 C21 0.997 1_555 1_555
H14 C22 0.974 1_555 1_555
H15 C23 1.007 1_555 1_555
H16 C24 0.988 1_555 1_555
C11 C12 1.410 1_555 1_555
C13 C26 1.388 1_555 1_555
C18 C19 1.409 1_555 1_555
C24 C25 1.415 1_555 1_555
C25 C26 1.462 1_555 1_555
#END
