
#######################################################################
#
#                 Cambridge Crystallographic Data Centre
#                                CCDC
#
#######################################################################
#
# If this CIF has been generated from an entry in the Cambridge
# Structural Database, then it will include bibliographic, chemical,
# crystal, experimental, refinement or atomic coordinate data resulting
# from the CCDC's data processing and validation procedures.
#
#######################################################################

data_CSD_CIF_TEGNOL
_audit_creation_date 2017-08-13
_audit_creation_method CSD-ConQuest-V1
_database_code_CSD TEGNOL
_database_code_depnum_ccdc_archive 'CCDC 1553593'
_chemical_formula_sum 'C36 H20'
_chemical_formula_moiety
;
C36 H20
;
_journal_coden_Cambridge 16
_journal_volume 73
_journal_year 2017
_journal_page_first 5725
_journal_name_full 'Tetrahedron '
loop_
_publ_author_name
"Y.Yamamoto"
"Y.Fukuoka"
"J.Nishida"
"C.Kitamura"
"T.Kawase"
_chemical_name_systematic
;
decacyclo[20.6.6.1^2,6^.1^13,17^.0^1,11^.0^10,36^.0^12,22^.0^21,35^.0^23,28^.0
^29,34^]hexatriaconta-2,4,6(36),7,9,11,13(35),14,16,18,20,23,25,27,29,31,33-he
ptadecaene
;
_cell_volume   2246.762
_exptl_crystal_colour 'yellow'
_exptl_crystal_density_diffrn 1.338
_exptl_crystal_description 'prism'
_diffrn_ambient_temperature 200
#These two values have been output from a single CSD field.
_refine_ls_R_factor_gt 0.0524
_refine_ls_wR_factor_gt 0.0524
_symmetry_cell_setting monoclinic
_symmetry_space_group_name_H-M 'P 21/n'
_symmetry_Int_Tables_number 14
loop_
_symmetry_equiv_pos_site_id
_symmetry_equiv_pos_as_xyz
1 x,y,z
2 1/2-x,1/2+y,1/2-z
3 -x,-y,-z
4 -1/2+x,-1/2-y,-1/2+z
_cell_length_a 13.5571(14)
_cell_length_b 8.1842(8)
_cell_length_c 20.27(2)
_cell_angle_alpha 90
_cell_angle_beta 92.578(4)
_cell_angle_gamma 90
_cell_formula_units_Z 4
loop_
_atom_type_symbol
_atom_type_radius_bond
C 0.68
H 0.23
loop_
_atom_site_label
_atom_site_type_symbol
_atom_site_fract_x
_atom_site_fract_y
_atom_site_fract_z
C1 C 0.24462(14) 0.5079(2) 0.08133(10)
C2 C 0.11297(17) 0.2901(3) -0.19039(11)
C3 C 0.15464(14) 0.4101(2) 0.05072(10)
C4 C 0.15819(14) 0.3885(2) -0.0148(1)
C5 C 0.24858(14) 0.6694(2) 0.04333(10)
C6 C 0.25107(14) 0.4675(2) -0.04511(10)
C7 C 0.09038(15) 0.3689(2) 0.10409(11)
C8 C 0.00368(16) 0.2822(3) 0.10811(12)
H1 H -0.02700 0.23340 0.06990
C9 C 0.25268(16) 0.9602(3) 0.02808(12)
H2 H 0.25370 1.06730 0.04610
C10 C 0.14917(16) 0.3415(2) -0.12798(10)
C11 C 0.25301(14) 0.7828(2) -0.06621(11)
H3 H 0.25430 0.76830 -0.11270
C12 C 0.33584(15) 0.4119(2) 0.06133(11)
C13 C 0.25032(15) 0.8250(2) 0.07000(12)
H4 H 0.24990 0.83970 0.11650
C14 C 0.25057(14) 0.6480(2) -0.02469(10)
C15 C 0.22322(16) 0.5178(2) 0.15349(11)
C16 C 0.09079(17) 0.4269(3) 0.22483(11)
C17 C 0.41678(15) 0.3059(3) -0.03326(12)
H5 H 0.42010 0.29340 -0.07970
C18 C 0.27294(18) 0.5883(3) 0.20656(12)
H6 H 0.33480 0.64030 0.20150
C19 C 0.2304(2) 0.5822(3) 0.26903(12)
H7 H 0.26380 0.63320 0.30570
C20 C 0.13342(15) 0.4377(2) 0.16314(11)
C21 C -0.01895(17) 0.1584(3) -0.13488(13)
H8 H -0.07620 0.09130 -0.13730
C22 C 0.23711(16) 0.4314(2) -0.11755(10)
C23 C 0.01546(16) 0.2164(3) -0.07266(12)
H9 H -0.01910 0.19190 -0.03410
C24 C 0.33991(14) 0.3918(2) -0.00707(11)
C25 C 0.10056(15) 0.3098(2) -0.06859(11)
C26 C 0.02644(18) 0.1943(3) -0.19223(13)
H10 H -0.00040 0.15450 -0.23320
C27 C 0.14235(19) 0.5050(3) 0.27817(12)
H11 H 0.11570 0.50390 0.32070
C28 C 0.29066(18) 0.4721(3) -0.17094(11)
H12 H 0.35170 0.52850 -0.16510
C29 C 0.00193(17) 0.3364(3) 0.22662(12)
H13 H -0.02970 0.32360 0.26720
C30 C 0.48439(17) 0.2567(3) 0.07638(13)
H14 H 0.53410 0.20950 0.10490
C31 C -0.03853(17) 0.2673(3) 0.17019(13)
H15 H -0.09790 0.20650 0.17290
C32 C 0.40780(16) 0.3439(3) 0.10320(12)
H16 H 0.40500 0.35650 0.14970
C33 C 0.25350(19) 0.4285(3) -0.23481(12)
H17 H 0.28880 0.46130 -0.27200
C34 C 0.48904(16) 0.2380(3) 0.00906(13)
H18 H 0.54190 0.17830 -0.00850
C35 C 0.25355(16) 0.9391(3) -0.03930(12)
H19 H 0.25450 1.03180 -0.06750
C36 C 0.16800(19) 0.3402(3) -0.24477(12)
H20 H 0.14550 0.31250 -0.28840
loop_
_geom_bond_atom_site_label_1
_geom_bond_atom_site_label_2
_geom_bond_distance
_geom_bond_site_symmetry_1
_geom_bond_site_symmetry_2
C1 C3 1.564 1_555 1_555
C2 C10 1.401 1_555 1_555
C3 C4 1.343 1_555 1_555
C4 C6 1.565 1_555 1_555
C5 C1 1.532 1_555 1_555
C6 C14 1.534 1_555 1_555
C7 C3 1.459 1_555 1_555
C8 C7 1.379 1_555 1_555
H1 C8 0.950 1_555 1_555
C9 H2 0.949 1_555 1_555
C10 C22 1.409 1_555 1_555
C11 H3 0.951 1_555 1_555
C12 C1 1.535 1_555 1_555
C13 C5 1.383 1_555 1_555
H4 C13 0.950 1_555 1_555
C14 C5 1.391 1_555 1_555
C15 C1 1.506 1_555 1_555
C16 C20 1.404 1_555 1_555
C17 H5 0.950 1_555 1_555
C18 C15 1.371 1_555 1_555
H6 C18 0.950 1_555 1_555
C19 C18 1.416 1_555 1_555
H7 C19 0.949 1_555 1_555
C20 C7 1.424 1_555 1_555
C21 H8 0.950 1_555 1_555
C22 C6 1.501 1_555 1_555
C23 C21 1.407 1_555 1_555
H9 C23 0.951 1_555 1_555
C24 C6 1.531 1_555 1_555
C25 C4 1.462 1_555 1_555
C26 C2 1.410 1_555 1_555
H10 C26 0.949 1_555 1_555
C27 C16 1.414 1_555 1_555
H11 C27 0.950 1_555 1_555
C28 C22 1.371 1_555 1_555
H12 C28 0.950 1_555 1_555
C29 C16 1.416 1_555 1_555
H13 C29 0.950 1_555 1_555
C30 H14 0.950 1_555 1_555
C31 C8 1.411 1_555 1_555
H15 C31 0.950 1_555 1_555
C32 C12 1.381 1_555 1_555
H16 C32 0.951 1_555 1_555
C33 C28 1.414 1_555 1_555
H17 C33 0.950 1_555 1_555
C34 C17 1.389 1_555 1_555
H18 C34 0.950 1_555 1_555
C35 C9 1.377 1_555 1_555
H19 C35 0.950 1_555 1_555
C36 C2 1.419 1_555 1_555
H20 C36 0.950 1_555 1_555
C9 C13 1.396 1_555 1_555
C10 C25 1.422 1_555 1_555
C11 C14 1.389 1_555 1_555
C11 C35 1.391 1_555 1_555
C12 C24 1.400 1_555 1_555
C15 C20 1.404 1_555 1_555
C17 C24 1.383 1_555 1_555
C19 C27 1.371 1_555 1_555
C21 C26 1.371 1_555 1_555
C23 C25 1.383 1_555 1_555
C29 C31 1.368 1_555 1_555
C30 C32 1.391 1_555 1_555
C30 C34 1.377 1_555 1_555
C33 C36 1.373 1_555 1_555
#END
