
#######################################################################
#
#                 Cambridge Crystallographic Data Centre
#                                CCDC
#
#######################################################################
#
# If this CIF has been generated from an entry in the Cambridge
# Structural Database, then it will include bibliographic, chemical,
# crystal, experimental, refinement or atomic coordinate data resulting
# from the CCDC's data processing and validation procedures.
#
#######################################################################

data_CSD_CIF_TETLUA
_audit_creation_date 2007-02-21
_audit_creation_method CSD-ConQuest-V1
_database_code_CSD TETLUA
_database_code_depnum_ccdc_archive 'CCDC 279886'
_chemical_formula_sum 'C20 H26'
_chemical_formula_moiety
;
C20 H26
;
_journal_coden_Cambridge 15
_journal_volume 84
_journal_year 2006
_journal_page_first 1268
_journal_name_full 'Can.J.Chem. '
loop_
_publ_author_name
"A.W.Amick"
"K.S.Griswold"
"L.T.Scott"
_chemical_name_systematic
;
4,7-Di-t-butylacenaphthene
;
_chemical_melting_point 435.65
_cell_volume    841.937
_exptl_crystal_colour 'colorless'
_exptl_crystal_density_diffrn 1.051
_exptl_special_details
;
Melting point range 435.65-436.65K

;
_exptl_crystal_preparation 'glacial acetic acid/ethanol'
_diffrn_ambient_temperature 193
#These two values have been output from a single CSD field.
_refine_ls_R_factor_gt 0.0602
_refine_ls_wR_factor_gt 0.0602
_symmetry_cell_setting triclinic
_symmetry_space_group_name_H-M 'P -1'
_symmetry_Int_Tables_number 2
loop_
_symmetry_equiv_pos_site_id
_symmetry_equiv_pos_as_xyz
1 x,y,z
2 -x,-y,-z
_cell_length_a 6.874(2)
_cell_length_b 9.818(3)
_cell_length_c 12.734(4)
_cell_angle_alpha 99.649(6)
_cell_angle_beta 96.236(7)
_cell_angle_gamma 90.445(7)
_cell_formula_units_Z 2
loop_
_atom_type_symbol
_atom_type_radius_bond
C 0.68
H 0.23
loop_
_atom_site_label
_atom_site_type_symbol
_atom_site_fract_x
_atom_site_fract_y
_atom_site_fract_z
C1 C 0.2606(2) 0.73785(17) 0.57232(14)
C2 C 0.2357(2) 0.54257(17) 0.42101(14)
C3 C 0.2547(2) 0.59597(17) 0.53089(14)
C4 C 0.2297(3) 0.77843(17) 0.38695(13)
C5 C 0.2673(3) 0.49268(17) 0.59538(14)
C6 C 0.2238(3) 0.63223(18) 0.34986(15)
C7 C 0.2477(3) 0.82779(17) 0.49586(14)
C8 C 0.2861(3) 0.53068(19) 0.70383(16)
C9 C 0.2798(3) 0.77302(19) 0.68550(15)
C10 C 0.2913(3) 0.67421(19) 0.75087(14)
C11 C 0.2343(3) 0.38595(18) 0.40676(15)
C12 C 0.2198(3) 0.87329(18) 0.30250(15)
C13 C 0.2558(3) 0.35280(18) 0.52288(15)
C14 C 0.2228(4) 1.0266(2) 0.35173(19)
C15 C 0.3135(4) 0.7120(2) 0.87356(16)
C16 C 0.5188(7) 0.6733(7) 0.9159(3)
C17 C 0.2866(9) 0.8651(3) 0.9116(2)
C18 C 0.1624(7) 0.6306(4) 0.9197(3)
C19 C 0.3987(4) 0.8483(3) 0.2406(2)
C20 C 0.0317(4) 0.8411(3) 0.2261(2)
H1 H 0.212(3) 0.5992(17) 0.2746(14)
H2 H 0.280(3) 0.864(2) 0.7161(14)
H3 H 0.378(3) 0.3004(19) 0.5361(14)
H4 H 0.137(3) 0.295(2) 0.5361(15)
H5 H 0.109(3) 0.351(2) 0.3689(15)
H6 H 0.349(3) 0.3459(19) 0.3685(14)
H7 H 0.203(3) 1.082(2) 0.2939(17)
H8 H 0.024(3) 0.746(2) 0.1900(16)
H9 H -0.082(4) 0.857(3) 0.2663(19)
H10 H 0.402(3) 0.755(3) 0.2050(17)
H11 H 0.110(3) 1.045(2) 0.3945(16)
H12 H 0.355(4) 1.056(2) 0.4058(18)
H13 H 0.025(4) 0.896(3) 0.166(2)
H14 H 0.384(4) 0.902(3) 0.1829(19)
H15 H 0.299(4) 0.884(3) 0.992(3)
H16 H 0.532(4) 0.869(2) 0.2908(19)
H17 H 0.515(11) 0.570(7) 0.892(5)
H18 H 0.179(4) 0.655(3) 1.000(2)
H19 H 0.387(6) 0.920(4) 0.885(3)
H20 H 0.027(7) 0.688(5) 0.886(3)
H21 H 0.526(5) 0.696(3) 0.993(3)
H22 H 0.147(7) 0.886(4) 0.883(3)
H23 H 0.248(3) 0.926(2) 0.5191(15)
H24 H 0.300(3) 0.462(2) 0.7477(15)
H25 H 0.187(6) 0.534(4) 0.904(3)
H26 H 0.592(7) 0.761(5) 0.891(3)
loop_
_geom_bond_atom_site_label_1
_geom_bond_atom_site_label_2
_geom_bond_distance
_geom_bond_site_symmetry_1
_geom_bond_site_symmetry_2
C1 C3 1.403 1_555 1_555
C2 C3 1.401 1_555 1_555
C3 C5 1.405 1_555 1_555
C4 C6 1.433 1_555 1_555
C5 C8 1.360 1_555 1_555
C6 C2 1.362 1_555 1_555
C7 C1 1.416 1_555 1_555
C8 C10 1.434 1_555 1_555
C9 C1 1.416 1_555 1_555
C10 C9 1.378 1_555 1_555
C11 C2 1.518 1_555 1_555
C12 C4 1.533 1_555 1_555
C13 C5 1.517 1_555 1_555
C14 C12 1.530 1_555 1_555
C15 C10 1.535 1_555 1_555
C16 C15 1.529 1_555 1_555
C17 C15 1.519 1_555 1_555
C18 C15 1.530 1_555 1_555
C19 C12 1.531 1_555 1_555
C20 C12 1.528 1_555 1_555
H1 C6 0.953 1_555 1_555
H2 C9 0.913 1_555 1_555
H3 C13 1.002 1_555 1_555
H4 C13 1.035 1_555 1_555
H5 C11 0.970 1_555 1_555
H6 C11 1.019 1_555 1_555
H7 C14 0.985 1_555 1_555
H8 C20 0.967 1_555 1_555
H9 C20 0.979 1_555 1_555
H10 C19 0.953 1_555 1_555
H11 C14 0.996 1_555 1_555
H12 C14 1.085 1_555 1_555
H13 C20 1.005 1_555 1_555
H14 C19 0.971 1_555 1_555
H15 C17 1.003 1_555 1_555
H16 C19 1.056 1_555 1_555
H17 C16 1.008 1_555 1_555
H18 C18 1.004 1_555 1_555
H19 C17 0.994 1_555 1_555
H20 C18 1.171 1_555 1_555
H21 C16 0.965 1_555 1_555
H22 C17 1.024 1_555 1_555
H23 C7 0.960 1_555 1_555
H24 C8 0.944 1_555 1_555
H25 C18 0.956 1_555 1_555
H26 C16 1.102 1_555 1_555
C4 C7 1.382 1_555 1_555
C11 C13 1.558 1_555 1_555
#END
