
#######################################################################
#
#                 Cambridge Crystallographic Data Centre
#                                CCDC
#
#######################################################################
#
# If this CIF has been generated from an entry in the Cambridge
# Structural Database, then it will include bibliographic, chemical,
# crystal, experimental, refinement or atomic coordinate data resulting
# from the CCDC's data processing and validation procedures.
#
#######################################################################

data_CSD_CIF_TEWWOK
_audit_creation_date 2018-05-02
_audit_creation_method CSD-ConQuest-V1
_database_code_CSD TEWWOK
_database_code_depnum_ccdc_archive 'CCDC 1579024'
_chemical_formula_sum 'C30 H26'
_chemical_formula_moiety
;
C30 H26
;
_journal_coden_Cambridge 1475
_journal_volume 9
_journal_year 2018
_journal_page_first 4662
_journal_name_full 'Chemical Science '
loop_
_publ_author_name
"Yuanjing Cai"
"Lili Du"
"K.Samedov"
"Xinggui Gu"
"Fei Qi"
"H.H.Y.Sung"
"B.O.Patrick"
"Zhiping Yan"
"Xiaofang Jiang"
"Haoke Zhang"
"J.W.Y.Lam"
"I.D.Williams"
"D.L.Phillips"
"Anjun Qin"
"Ben Zhong Tang"
_chemical_name_systematic
;
10-(3,5-dimethylphenyl)-2,4-dimethyl-9-phenylphenanthrene
;
_cell_volume   2124.037
_exptl_crystal_colour 'colorless'
_exptl_crystal_density_diffrn 1.209
_exptl_crystal_description 'plate'
_diffrn_ambient_temperature 100.0
#These two values have been output from a single CSD field.
_refine_ls_R_factor_gt 0.0615
_refine_ls_wR_factor_gt 0.0615
_symmetry_cell_setting monoclinic
_symmetry_space_group_name_H-M 'P 21/c'
_symmetry_Int_Tables_number 14
loop_
_symmetry_equiv_pos_site_id
_symmetry_equiv_pos_as_xyz
1 x,y,z
2 -x,1/2+y,1/2-z
3 -x,-y,-z
4 x,-1/2-y,-1/2+z
_cell_length_a 17.4337(14)
_cell_length_b 6.9903(4)
_cell_length_c 17.9350(12)
_cell_angle_alpha 90
_cell_angle_beta 103.640(7)
_cell_angle_gamma 90
_cell_formula_units_Z 4
loop_
_atom_type_symbol
_atom_type_radius_bond
C 0.68
H 0.23
loop_
_atom_site_label
_atom_site_type_symbol
_atom_site_fract_x
_atom_site_fract_y
_atom_site_fract_z
C1 C 0.24437(13) 0.6890(3) 0.31958(12)
C2 C 0.31387(13) 0.5988(3) 0.32063(12)
C3 C 0.35808(13) 0.6418(3) 0.26402(12)
C4 C 0.42686(13) 0.5391(3) 0.26208(13)
H1 H 0.44680 0.44870 0.30150
C5 C 0.46614(13) 0.5656(3) 0.20489(13)
H2 H 0.51330 0.49710 0.20550
C6 C 0.43570(13) 0.6947(3) 0.14589(13)
H3 H 0.46060 0.70910 0.10450
C7 C 0.36998(13) 0.8004(3) 0.14772(13)
H4 H 0.34990 0.88680 0.10690
C8 C 0.33113(13) 0.7854(3) 0.20818(12)
C9 C 0.26292(13) 0.9010(3) 0.21299(12)
C10 C 0.24061(13) 1.0742(3) 0.17072(12)
C11 C 0.16934(14) 1.1570(3) 0.17285(13)
H5 H 0.15450 1.27070 0.14410
C12 C 0.11770(13) 1.0842(3) 0.21454(12)
C13 C 0.14345(13) 0.9297(3) 0.26188(12)
H6 H 0.11100 0.88210 0.29350
C14 C 0.21655(13) 0.8412(3) 0.26441(12)
C15 C 0.29238(15) 1.1822(3) 0.12821(15)
H7 H 0.34770 1.17010 0.15600
H8 H 0.27730 1.31760 0.12460
H9 H 0.28560 1.12890 0.07650
C16 C 0.03901(14) 1.1776(3) 0.20901(14)
H10 H 0.01140 1.11230 0.24340
H11 H 0.00740 1.16910 0.15610
H12 H 0.04690 1.31230 0.22400
C17 C 0.19797(13) 0.6408(3) 0.37724(12)
C18 C 0.19546(13) 0.7671(3) 0.43666(13)
H13 H 0.22310 0.88500 0.43990
C19 C 0.15320(14) 0.7241(3) 0.49147(13)
C20 C 0.11243(13) 0.5520(3) 0.48515(13)
H14 H 0.08320 0.52150 0.52200
C21 C 0.11331(13) 0.4230(3) 0.42623(13)
C22 C 0.15720(12) 0.4684(3) 0.37330(12)
H15 H 0.15940 0.38000 0.33360
C23 C 0.15140(16) 0.8609(3) 0.55639(14)
H16 H 0.19660 0.94810 0.56360
H17 H 0.15410 0.78840 0.60370
H18 H 0.10230 0.93500 0.54390
C24 C 0.06479(16) 0.2424(3) 0.41867(15)
H19 H 0.01500 0.26180 0.38050
H20 H 0.05370 0.21090 0.46830
H21 H 0.09420 0.13730 0.40230
C25 C 0.34536(13) 0.4484(3) 0.37933(12)
C26 C 0.38672(13) 0.4953(3) 0.45264(12)
H22 H 0.39360 0.62610 0.46700
C27 C 0.41834(14) 0.3553(3) 0.50549(14)
H23 H 0.44690 0.39050 0.55550
C28 C 0.40852(14) 0.1645(3) 0.48563(14)
H24 H 0.43020 0.06830 0.52190
C29 C 0.36690(14) 0.1141(3) 0.41269(14)
H25 H 0.36000 -0.01700 0.39880
C30 C 0.33531(14) 0.2544(3) 0.36001(14)
H26 H 0.30650 0.21880 0.31020
loop_
_geom_bond_atom_site_label_1
_geom_bond_atom_site_label_2
_geom_bond_distance
_geom_bond_site_symmetry_1
_geom_bond_site_symmetry_2
C1 C2 1.362 1_555 1_555
C2 C3 1.444 1_555 1_555
C3 C4 1.405 1_555 1_555
C4 H1 0.951 1_555 1_555
C5 C4 1.374 1_555 1_555
H2 C5 0.949 1_555 1_555
C6 C5 1.397 1_555 1_555
H3 C6 0.950 1_555 1_555
C7 C6 1.370 1_555 1_555
H4 C7 0.950 1_555 1_555
C8 C3 1.418 1_555 1_555
C9 C8 1.457 1_555 1_555
C10 C9 1.433 1_555 1_555
C11 C10 1.379 1_555 1_555
H5 C11 0.950 1_555 1_555
C12 C11 1.395 1_555 1_555
C13 C12 1.382 1_555 1_555
H6 C13 0.951 1_555 1_555
C14 C1 1.456 1_555 1_555
C15 C10 1.513 1_555 1_555
H7 C15 0.979 1_555 1_555
H8 C15 0.980 1_555 1_555
H9 C15 0.980 1_555 1_555
C16 C12 1.501 1_555 1_555
H10 C16 0.980 1_555 1_555
H11 C16 0.980 1_555 1_555
H12 C16 0.980 1_555 1_555
C17 C1 1.494 1_555 1_555
C18 C17 1.393 1_555 1_555
H13 C18 0.950 1_555 1_555
C19 C18 1.393 1_555 1_555
C20 C19 1.388 1_555 1_555
H14 C20 0.949 1_555 1_555
C21 C20 1.392 1_555 1_555
C22 C17 1.392 1_555 1_555
H15 C22 0.950 1_555 1_555
C23 C19 1.513 1_555 1_555
H16 C23 0.980 1_555 1_555
H17 C23 0.980 1_555 1_555
H18 C23 0.980 1_555 1_555
C24 C21 1.508 1_555 1_555
H19 C24 0.980 1_555 1_555
H20 C24 0.979 1_555 1_555
H21 C24 0.980 1_555 1_555
C25 C2 1.497 1_555 1_555
C26 C25 1.382 1_555 1_555
H22 C26 0.950 1_555 1_555
C27 C26 1.383 1_555 1_555
H23 C27 0.950 1_555 1_555
C28 C27 1.381 1_555 1_555
H24 C28 0.950 1_555 1_555
C29 C28 1.384 1_555 1_555
H25 C29 0.950 1_555 1_555
C30 C25 1.400 1_555 1_555
H26 C30 0.949 1_555 1_555
C7 C8 1.411 1_555 1_555
C9 C14 1.425 1_555 1_555
C13 C14 1.408 1_555 1_555
C21 C22 1.389 1_555 1_555
C29 C30 1.383 1_555 1_555
#END
