
#######################################################################
#
#                 Cambridge Crystallographic Data Centre
#                                CCDC
#
#######################################################################
#
# If this CIF has been generated from an entry in the Cambridge
# Structural Database, then it will include bibliographic, chemical,
# crystal, experimental, refinement or atomic coordinate data resulting
# from the CCDC's data processing and validation procedures.
#
#######################################################################

data_CSD_CIF_TEYGOW
_audit_creation_date 2018-05-03
_audit_creation_method CSD-ConQuest-V1
_database_code_CSD TEYGOW
_database_code_depnum_ccdc_archive 'CCDC 1492571'
_chemical_formula_sum 'C22 H14'
_chemical_formula_moiety
;
C22 H14
;
_journal_coden_Cambridge 1564
_journal_volume 82
_journal_year 2017
_journal_page_first 433
_journal_name_full 'ChemPlusChem '
loop_
_publ_author_name
"L.E.Harrington"
"J.F.Britten"
"K.Nikitin"
"M.J.McGlinchey"
_chemical_name_systematic
;
2-(2-naphthylethynyl)naphthalene
;
_cell_volume   1468.319
_exptl_crystal_colour 'colorless'
_exptl_crystal_density_diffrn 1.259
_exptl_crystal_description 'rectangular'
_diffrn_ambient_temperature 173
#These two values have been output from a single CSD field.
_refine_ls_R_factor_gt 0.0788
_refine_ls_wR_factor_gt 0.0788
_symmetry_cell_setting monoclinic
_symmetry_space_group_name_H-M 'C c'
_symmetry_Int_Tables_number 9
loop_
_symmetry_equiv_pos_site_id
_symmetry_equiv_pos_as_xyz
1 x,y,z
2 x,-y,1/2+z
3 1/2+x,1/2+y,z
4 1/2+x,1/2-y,1/2+z
_cell_length_a 33.326(16)
_cell_length_b 5.856(3)
_cell_length_c 7.535(4)
_cell_angle_alpha 90
_cell_angle_beta 93.127(8)
_cell_angle_gamma 90
_cell_formula_units_Z 4
loop_
_atom_type_symbol
_atom_type_radius_bond
C 0.68
H 0.23
loop_
_atom_site_label
_atom_site_type_symbol
_atom_site_fract_x
_atom_site_fract_y
_atom_site_fract_z
C1 C 0.5418(2) 0.5421(15) 1.1135(10)
C2 C 0.5808(2) 0.6511(12) 1.1594(8)
C3 C 0.5822(2) 0.8680(13) 1.2445(9)
H1 H 0.55790 0.94440 1.26790
C4 C 0.61772(19) 0.9654(12) 1.2922(8)
H2 H 0.61810 1.10980 1.34970
C5 C 0.65449(19) 0.8575(12) 1.2584(8)
C6 C 0.69253(19) 0.9569(13) 1.3114(9)
H3 H 0.69370 1.09650 1.37570
C7 C 0.7276(2) 0.8490(15) 1.2686(8)
H4 H 0.75280 0.92090 1.29500
C8 C 0.7263(2) 0.6358(14) 1.1872(9)
H5 H 0.75080 0.55950 1.16720
C9 C 0.68949(15) 0.5293(11) 1.1333(6)
H6 H 0.68890 0.38750 1.07200
C10 C 0.65353(18) 0.6428(11) 1.1746(7)
C11 C 0.61523(16) 0.5379(10) 1.1205(7)
H7 H 0.61410 0.39550 1.06000
C12 C 0.5099(2) 0.4565(14) 1.0810(9)
C13 C 0.4724(2) 0.3515(13) 1.0409(9)
C14 C 0.4705(2) 0.1310(14) 0.958(1)
H8 H 0.49470 0.05360 0.93490
C15 C 0.43397(19) 0.0293(12) 0.9111(8)
H9 H 0.43350 -0.11620 0.85530
C16 C 0.39737(19) 0.1388(11) 0.9451(9)
C17 C 0.3591(2) 0.0422(13) 0.9026(8)
H10 H 0.35750 -0.10670 0.85260
C18 C 0.3250(2) 0.1556(15) 0.9311(10)
H11 H 0.29980 0.09470 0.88860
C19 C 0.3264(2) 0.3691(15) 1.0258(9)
H12 H 0.30230 0.44080 1.05840
C20 C 0.3611(2) 0.4628(14) 1.0664(10)
H13 H 0.36120 0.60980 1.11960
C21 C 0.3987(2) 0.3602(12) 1.0364(8)
C22 C 0.4362(2) 0.4537(13) 1.0749(9)
H14 H 0.43720 0.60010 1.12920
loop_
_geom_bond_atom_site_label_1
_geom_bond_atom_site_label_2
_geom_bond_distance
_geom_bond_site_symmetry_1
_geom_bond_site_symmetry_2
C1 C2 1.472 1_555 1_555
C2 C3 1.422 1_555 1_555
C3 H1 0.950 1_555 1_555
C4 C3 1.345 1_555 1_555
H2 C4 0.950 1_555 1_555
C5 C4 1.414 1_555 1_555
C6 C5 1.432 1_555 1_555
H3 C6 0.950 1_555 1_555
C7 C6 1.382 1_555 1_555
H4 C7 0.951 1_555 1_555
C8 C7 1.391 1_555 1_555
H5 C8 0.950 1_555 1_555
C9 C8 1.416 1_555 1_555
H6 C9 0.950 1_555 1_555
C10 C5 1.407 1_555 1_555
C11 C2 1.371 1_555 1_555
H7 C11 0.950 1_555 1_555
C12 C1 1.189 1_555 1_555
C13 C12 1.411 1_555 1_555
C14 C13 1.434 1_555 1_555
H8 C14 0.949 1_555 1_555
C15 C14 1.384 1_555 1_555
H9 C15 0.950 1_555 1_555
C16 C15 1.414 1_555 1_555
C17 C16 1.416 1_555 1_555
H10 C17 0.950 1_555 1_555
C18 C17 1.344 1_555 1_555
H11 C18 0.952 1_555 1_555
C19 C18 1.439 1_555 1_555
H12 C19 0.950 1_555 1_555
C20 C19 1.301 1_555 1_555
H13 C20 0.950 1_555 1_555
C21 C16 1.467 1_555 1_555
C22 C13 1.383 1_555 1_555
H14 C22 0.950 1_555 1_555
C9 C10 1.420 1_555 1_555
C10 C11 1.455 1_555 1_555
C20 C21 1.419 1_555 1_555
C21 C22 1.381 1_555 1_555
#END
