
#######################################################################
#
#                 Cambridge Crystallographic Data Centre
#                                CCDC
#
#######################################################################
#
# If this CIF has been generated from an entry in the Cambridge
# Structural Database, then it will include bibliographic, chemical,
# crystal, experimental, refinement or atomic coordinate data resulting
# from the CCDC's data processing and validation procedures.
#
#######################################################################

data_CSD_CIF_TIDTOQ
_audit_creation_date 2007-09-25
_audit_creation_method CSD-ConQuest-V1
_database_code_CSD TIDTOQ
_database_code_depnum_ccdc_archive 'CCDC 638736'
_chemical_formula_sum 'C29 H20'
_chemical_formula_moiety
;
C29 H20
;
_journal_coden_Cambridge 177
_journal_volume 5
_journal_year 2007
_journal_page_first 1952
_journal_name_full 'Org.Biomol.Chem. '
loop_
_publ_author_name
"K.Nikitin"
"H.Muller-Bunz"
"Y.Ortin"
"M.J.McGlinchey"
_chemical_name_systematic
;
10-(Anthracen-9'-yl)-4a,9-methano-4a,9-dihydrophenanthrene
;
_chemical_melting_point 428.15
_cell_volume   1912.881
_exptl_crystal_colour 'yellow'
_exptl_crystal_density_diffrn 1.279
_exptl_crystal_description 'block'
_diffrn_ambient_temperature 100
#These two values have been output from a single CSD field.
_refine_ls_R_factor_gt 0.0524
_refine_ls_wR_factor_gt 0.0524
_symmetry_cell_setting monoclinic
_symmetry_space_group_name_H-M 'P 21/c'
_symmetry_Int_Tables_number 14
loop_
_symmetry_equiv_pos_site_id
_symmetry_equiv_pos_as_xyz
1 x,y,z
2 -x,1/2+y,1/2-z
3 -x,-y,-z
4 x,-1/2-y,-1/2+z
_cell_length_a 11.2911(8)
_cell_length_b 8.3652(6)
_cell_length_c 20.6135(15)
_cell_angle_alpha 90
_cell_angle_beta 100.741(2)
_cell_angle_gamma 90
_cell_formula_units_Z 4
loop_
_atom_type_symbol
_atom_type_radius_bond
C 0.68
H 0.23
loop_
_atom_site_label
_atom_site_type_symbol
_atom_site_fract_x
_atom_site_fract_y
_atom_site_fract_z
C1 C 0.38219(9) 0.09024(12) 0.12696(5)
H1 H 0.3184(13) 0.0121(18) 0.1294(7)
C2 C 0.46806(10) 0.05926(13) 0.09070(5)
H2 H 0.4644(15) -0.044(2) 0.0654(8)
C3 C 0.56766(10) 0.16908(13) 0.08941(5)
H3 H 0.6337(14) 0.1322(19) 0.0663(7)
C4 C 0.57436(9) 0.31331(13) 0.11876(5)
H4 H 0.6411(14) 0.3851(18) 0.1177(7)
C5 C 0.47642(9) 0.36828(11) 0.15290(5)
C6 C 0.39395(9) 0.50572(12) 0.12124(5)
C7 C 0.36876(9) 0.56641(12) 0.05811(5)
H5 H 0.4135(13) 0.5282(17) 0.0232(7)
C8 C 0.27677(10) 0.68141(13) 0.04352(5)
H6 H 0.2543(14) 0.7239(18) -0.0026(8)
C9 C 0.21452(10) 0.73412(13) 0.09126(5)
H7 H 0.1524(14) 0.8166(19) 0.0813(8)
C10 C 0.24146(9) 0.67340(12) 0.15584(5)
H8 H 0.1983(13) 0.7135(17) 0.1914(7)
C11 C 0.33055(9) 0.55880(11) 0.16970(5)
C12 C 0.37324(9) 0.45649(12) 0.23066(5)
H9 H 0.3544(12) 0.5018(17) 0.2730(7)
C13 C 0.32391(9) 0.28864(11) 0.20938(5)
C14 C 0.38748(9) 0.23663(11) 0.16364(5)
C15 C 0.50741(9) 0.43383(12) 0.22462(5)
H10 H 0.5518(13) 0.3526(18) 0.2566(7)
H11 H 0.5540(13) 0.5343(19) 0.2288(7)
C16 C 0.30803(9) 0.22893(12) 0.34754(5)
H12 H 0.3804(13) 0.2752(17) 0.3374(7)
C17 C 0.29731(10) 0.20807(13) 0.41204(5)
H13 H 0.3630(15) 0.242(2) 0.4478(8)
C18 C 0.19268(11) 0.13538(14) 0.42815(5)
H14 H 0.1871(15) 0.121(2) 0.4746(8)
C19 C 0.10296(11) 0.08252(14) 0.37954(6)
H15 H 0.0316(14) 0.0282(19) 0.3901(8)
C20 C 0.10905(9) 0.10503(12) 0.31143(5)
C21 C 0.01696(10) 0.05239(13) 0.26126(6)
H16 H -0.0543(15) -0.005(2) 0.2724(8)
C22 C 0.01899(9) 0.08345(12) 0.19508(5)
C23 C -0.07727(10) 0.03264(14) 0.14385(6)
H17 H -0.1416(15) -0.031(2) 0.1571(8)
C24 C -0.07779(10) 0.06893(14) 0.07956(6)
H18 H -0.1418(16) 0.028(2) 0.0437(8)
C25 C 0.01669(10) 0.16316(14) 0.06244(5)
H19 H 0.0101(15) 0.1941(19) 0.0144(8)
C26 C 0.11111(9) 0.21191(12) 0.10971(5)
H20 H 0.1731(14) 0.2780(17) 0.0967(7)
C27 C 0.11849(9) 0.16951(12) 0.17771(5)
C28 C 0.21747(9) 0.21323(11) 0.22763(5)
C29 C 0.21261(9) 0.18368(12) 0.29478(5)
loop_
_geom_bond_atom_site_label_1
_geom_bond_atom_site_label_2
_geom_bond_distance
_geom_bond_site_symmetry_1
_geom_bond_site_symmetry_2
C1 H1 0.981 1_555 1_555
C2 C1 1.355 1_555 1_555
H2 C2 1.006 1_555 1_555
C3 C2 1.456 1_555 1_555
H3 C3 1.005 1_555 1_555
C4 C3 1.345 1_555 1_555
H4 C4 0.967 1_555 1_555
C5 C4 1.490 1_555 1_555
C6 C5 1.545 1_555 1_555
C7 C6 1.376 1_555 1_555
H5 C7 1.005 1_555 1_555
C8 C7 1.407 1_555 1_555
H6 C8 1.002 1_555 1_555
C9 C8 1.384 1_555 1_555
H7 C9 0.978 1_555 1_555
C10 C9 1.404 1_555 1_555
H8 C10 1.010 1_555 1_555
C11 C6 1.405 1_555 1_555
C12 C11 1.523 1_555 1_555
H9 C12 1.010 1_555 1_555
C13 C12 1.544 1_555 1_555
C14 C1 1.435 1_555 1_555
C15 C5 1.554 1_555 1_555
H10 C15 1.012 1_555 1_555
H11 C15 0.987 1_555 1_555
C16 H12 0.962 1_555 1_555
C17 C16 1.369 1_555 1_555
H13 C17 0.985 1_555 1_555
C18 C17 1.422 1_555 1_555
H14 C18 0.979 1_555 1_555
C19 C18 1.359 1_555 1_555
H15 C19 0.984 1_555 1_555
C20 C19 1.431 1_555 1_555
C21 C20 1.394 1_555 1_555
H16 C21 1.000 1_555 1_555
C22 C21 1.393 1_555 1_555
C23 C22 1.432 1_555 1_555
H17 C23 0.980 1_555 1_555
C24 C23 1.359 1_555 1_555
H18 C24 0.993 1_555 1_555
C25 C24 1.423 1_555 1_555
H19 C25 1.013 1_555 1_555
C26 C25 1.366 1_555 1_555
H20 C26 0.968 1_555 1_555
C27 C22 1.435 1_555 1_555
C28 C13 1.467 1_555 1_555
C29 C16 1.432 1_555 1_555
C5 C14 1.534 1_555 1_555
C10 C11 1.380 1_555 1_555
C12 C15 1.555 1_555 1_555
C13 C14 1.359 1_555 1_555
C20 C29 1.438 1_555 1_555
C26 C27 1.433 1_555 1_555
C27 C28 1.419 1_555 1_555
C28 C29 1.417 1_555 1_555
#END
