
#######################################################################
#
#                 Cambridge Crystallographic Data Centre
#                                CCDC
#
#######################################################################
#
# If this CIF has been generated from an entry in the Cambridge
# Structural Database, then it will include bibliographic, chemical,
# crystal, experimental, refinement or atomic coordinate data resulting
# from the CCDC's data processing and validation procedures.
#
#######################################################################

data_CSD_CIF_TIDVAE
_audit_creation_date 2007-09-25
_audit_creation_method CSD-ConQuest-V1
_database_code_CSD TIDVAE
_database_code_depnum_ccdc_archive 'CCDC 639736'
_chemical_formula_sum 'C23 H16'
_chemical_formula_moiety
;
C23 H16
;
_journal_coden_Cambridge 177
_journal_volume 5
_journal_year 2007
_journal_page_first 1952
_journal_name_full 'Org.Biomol.Chem. '
loop_
_publ_author_name
"K.Nikitin"
"H.Muller-Bunz"
"Y.Ortin"
"M.J.McGlinchey"
_chemical_name_systematic
;
Indeno(1,2-a)-10,16-dihydroaceanthrylene
;
_chemical_melting_point 431.15
_cell_volume   2294.970
_exptl_crystal_colour 'yellow'
_exptl_crystal_density_diffrn 1.269
_exptl_crystal_description 'needle'
_diffrn_ambient_temperature 100
#These two values have been output from a single CSD field.
_refine_ls_R_factor_gt 0.0623
_refine_ls_wR_factor_gt 0.0623
_symmetry_cell_setting hexagonal
_symmetry_space_group_name_H-M 'P 61'
_symmetry_Int_Tables_number 169
loop_
_symmetry_equiv_pos_site_id
_symmetry_equiv_pos_as_xyz
1 x,y,z
2 -y,x-y,1/3+z
3 -x+y,-x,2/3+z
4 -x,-y,1/2+z
5 y,-x+y,5/6+z
6 x-y,x,1/6+z
_cell_length_a 23.6218(16)
_cell_length_b 23.6218(16)
_cell_length_c 4.7492(7)
_cell_angle_alpha 90
_cell_angle_beta 90
_cell_angle_gamma 120
_cell_formula_units_Z 6
loop_
_atom_type_symbol
_atom_type_radius_bond
C 0.68
H 0.23
loop_
_atom_site_label
_atom_site_type_symbol
_atom_site_fract_x
_atom_site_fract_y
_atom_site_fract_z
C1 C 0.8069(4) 0.0826(4) 0.742(2)
H1 H 0.82240 0.12380 0.83040
C2 C 0.8339(4) 0.0448(4) 0.812(3)
H2 H 0.86700 0.05940 0.95220
C3 C 0.8123(4) -0.0155(5) 0.677(3)
H3 H 0.83170 -0.04110 0.72390
C4 C 0.7651(4) -0.0374(4) 0.483(3)
H4 H 0.75180 -0.07840 0.39580
C5 C 0.7329(4) -0.0003(4) 0.400(2)
C6 C 0.7562(4) 0.0611(4) 0.5370(18)
C7 C 0.6823(4) -0.0234(4) 0.204(2)
H5 H 0.66810 -0.06440 0.11500
C8 C 0.6522(4) 0.0124(4) 0.1348(17)
C9 C 0.5998(4) -0.0052(4) -0.0531(17)
H6 H 0.58290 -0.04470 -0.15670
C10 C 0.5730(4) 0.0336(4) -0.0884(17)
H7 H 0.53780 0.02020 -0.21700
C11 C 0.5962(3) 0.0949(4) 0.0627(16)
H8 H 0.57580 0.12050 0.03820
C12 C 0.6482(3) 0.1146(4) 0.2411(15)
C13 C 0.6870(3) 0.1749(3) 0.4194(16)
H9 H 0.65820 0.18040 0.55780
C14 C 0.7270(3) 0.2362(3) 0.2543(17)
C15 C 0.7050(4) 0.2665(4) 0.0648(14)
H10 H 0.65950 0.24870 0.03210
C16 C 0.7498(4) 0.3223(4) -0.0733(15)
H11 H 0.73550 0.34280 -0.20470
C17 C 0.6757(4) 0.0725(4) 0.2780(16)
C18 C 0.8157(4) 0.3484(4) -0.0206(17)
H12 H 0.84610 0.38760 -0.11370
C19 C 0.8383(4) 0.3195(3) 0.1620(15)
H13 H 0.88390 0.33810 0.19420
C20 C 0.7936(4) 0.2627(3) 0.2994(15)
C21 C 0.8065(3) 0.2220(3) 0.5032(17)
H14 H 0.82790 0.24740 0.67540
H15 H 0.83500 0.20720 0.41710
C22 C 0.7391(3) 0.1634(3) 0.5733(16)
H16 H 0.73170 0.16100 0.78130
C23 C 0.7262(3) 0.0977(3) 0.4653(18)
loop_
_geom_bond_atom_site_label_1
_geom_bond_atom_site_label_2
_geom_bond_distance
_geom_bond_site_symmetry_1
_geom_bond_site_symmetry_2
C1 H1 0.949 1_555 1_555
C2 C1 1.373 1_555 1_555
H2 C2 0.951 1_555 1_555
C3 C2 1.405 1_555 1_555
H3 C3 0.950 1_555 1_555
C4 C3 1.335 1_555 1_555
H4 C4 0.951 1_555 1_555
C5 C4 1.473 1_555 1_555
C6 C1 1.425 1_555 1_555
C7 C5 1.393 1_555 1_555
H5 C7 0.951 1_555 1_555
C8 C7 1.389 1_555 1_555
C9 C8 1.409 1_555 1_555
H6 C9 0.948 1_555 1_555
C10 C9 1.360 1_555 1_555
H7 C10 0.949 1_555 1_555
C11 C10 1.456 1_555 1_555
H8 C11 0.950 1_555 1_555
C12 C11 1.368 1_555 1_555
C13 C12 1.510 1_555 1_555
H9 C13 1.000 1_555 1_555
C14 C13 1.495 1_555 1_555
C15 C14 1.402 1_555 1_555
H10 C15 0.951 1_555 1_555
C16 C15 1.376 1_555 1_555
H11 C16 0.950 1_555 1_555
C17 C8 1.414 1_555 1_555
C18 C16 1.381 1_555 1_555
H12 C18 0.951 1_555 1_555
C19 C18 1.367 1_555 1_555
H13 C19 0.950 1_555 1_555
C20 C14 1.388 1_555 1_555
C21 C20 1.499 1_555 1_555
H14 C21 0.990 1_555 1_555
H15 C21 0.989 1_555 1_555
C22 C13 1.567 1_555 1_555
H16 C22 1.000 1_555 1_555
C23 C6 1.407 1_555 1_555
C5 C6 1.425 1_555 1_555
C12 C17 1.445 1_555 1_555
C17 C23 1.363 1_555 1_555
C19 C20 1.387 1_555 1_555
C21 C22 1.536 1_555 1_555
C22 C23 1.514 1_555 1_555
#END
