
#######################################################################
#
#                 Cambridge Crystallographic Data Centre
#                                CCDC
#
#######################################################################
#
# If this CIF has been generated from an entry in the Cambridge
# Structural Database, then it will include bibliographic, chemical,
# crystal, experimental, refinement or atomic coordinate data resulting
# from the CCDC's data processing and validation procedures.
#
#######################################################################

data_CSD_CIF_TIHPOQ
_audit_creation_date 2007-09-25
_audit_creation_method CSD-ConQuest-V1
_database_code_CSD TIHPOQ
_database_code_depnum_ccdc_archive 'CCDC 657886'
_chemical_formula_sum 'C20 H18'
_chemical_formula_moiety
;
C20 H18
;
_journal_coeditor_code "IUCr GK2079"
_journal_coden_Cambridge 1370
_journal_volume 63
_journal_year 2007
_journal_page_first o3658
_journal_name_full 'Acta Crystallogr.,Sect.E:Struct.Rep.Online '
loop_
_publ_author_name
"Shu-Hong Li"
"Cai-Hong Xu"
_chemical_name_systematic
;
5,11,11-Trimethyl-11H-benzo(a)fluorene
;
_cell_volume   1441.921
_exptl_crystal_colour 'colorless'
_exptl_crystal_density_diffrn 1.19
_exptl_crystal_description 'platelet'
_exptl_crystal_preparation 'hexane/ethyl acetate'
_diffrn_ambient_temperature 295
#These two values have been output from a single CSD field.
_refine_ls_R_factor_gt 0.0381
_refine_ls_wR_factor_gt 0.0381
_symmetry_cell_setting orthorhombic
_symmetry_space_group_name_H-M 'P c a 21'
_symmetry_Int_Tables_number 29
loop_
_symmetry_equiv_pos_site_id
_symmetry_equiv_pos_as_xyz
1 x,y,z
2 -x,-y,1/2+z
3 1/2+x,-y,z
4 1/2-x,y,1/2+z
_cell_length_a 9.5632(19)
_cell_length_b 9.3715(19)
_cell_length_c 16.089(3)
_cell_angle_alpha 90
_cell_angle_beta 90
_cell_angle_gamma 90
_cell_formula_units_Z 4
loop_
_atom_type_symbol
_atom_type_radius_bond
C 0.68
H 0.23
loop_
_atom_site_label
_atom_site_type_symbol
_atom_site_fract_x
_atom_site_fract_y
_atom_site_fract_z
C1 C 0.3492(3) 0.6555(3) 0.74283(17)
C2 C 0.3398(3) 0.7348(3) 0.82441(17)
C3 C 0.2341(3) 0.7335(3) 0.88295(17)
H1 H 0.15470 0.67780 0.87500
C4 C 0.2484(4) 0.8161(3) 0.9532(2)
H2 H 0.17830 0.81440 0.99330
C5 C 0.3630(3) 0.9005(3) 0.9655(2)
H3 H 0.37000 0.95620 1.01310
C6 C 0.4688(3) 0.9028(3) 0.90671(19)
H4 H 0.54710 0.96010 0.91430
C7 C 0.4563(3) 0.8193(3) 0.83708(17)
C8 C 0.5481(2) 0.8018(3) 0.76460(15)
C9 C 0.6766(2) 0.8676(3) 0.74735(19)
H5 H 0.71600 0.92910 0.78620
C10 C 0.7438(3) 0.8426(2) 0.67483(18)
C11 C 0.6831(3) 0.7487(3) 0.61546(17)
C12 C 0.7497(4) 0.7194(3) 0.5390(2)
H6 H 0.83360 0.76470 0.52640
C13 C 0.6939(3) 0.6266(4) 0.4837(2)
H7 H 0.73900 0.60990 0.43350
C14 C 0.5699(3) 0.5561(4) 0.50155(19)
H8 H 0.53380 0.49030 0.46390
C15 C 0.5011(3) 0.5827(3) 0.57354(18)
H9 H 0.41690 0.53630 0.58400
C16 C 0.5541(3) 0.6789(3) 0.63294(16)
C17 C 0.4877(2) 0.7098(2) 0.70901(16)
C18 C 0.2245(3) 0.6957(3) 0.68713(18)
H10 H 0.22540 0.79660 0.67690
H11 H 0.13890 0.66990 0.71440
H12 H 0.23140 0.64550 0.63530
C19 C 0.3511(3) 0.4956(3) 0.75899(18)
H13 H 0.26290 0.46670 0.78200
H14 H 0.42460 0.47330 0.79750
H15 H 0.36700 0.44580 0.70770
C20 C 0.8835(3) 0.9111(3) 0.6573(2)
H16 H 0.91370 0.96330 0.70540
H17 H 0.87470 0.97510 0.61100
H18 H 0.95090 0.83850 0.64440
loop_
_geom_bond_atom_site_label_1
_geom_bond_atom_site_label_2
_geom_bond_distance
_geom_bond_site_symmetry_1
_geom_bond_site_symmetry_2
C1 C2 1.511 1_555 1_555
C2 C3 1.382 1_555 1_555
C3 H1 0.930 1_555 1_555
C4 C3 1.377 1_555 1_555
H2 C4 0.931 1_555 1_555
C5 C4 1.366 1_555 1_555
H3 C5 0.929 1_555 1_555
C6 C5 1.385 1_555 1_555
H4 C6 0.929 1_555 1_555
C7 C2 1.382 1_555 1_555
C8 C7 1.469 1_555 1_555
C9 C8 1.403 1_555 1_555
H5 C9 0.930 1_555 1_555
C10 C9 1.352 1_555 1_555
C11 C10 1.423 1_555 1_555
C12 C11 1.412 1_555 1_555
H6 C12 0.930 1_555 1_555
C13 C12 1.354 1_555 1_555
H7 C13 0.929 1_555 1_555
C14 C13 1.388 1_555 1_555
H8 C14 0.931 1_555 1_555
C15 C14 1.355 1_555 1_555
H9 C15 0.930 1_555 1_555
C16 C11 1.424 1_555 1_555
C17 C1 1.520 1_555 1_555
C18 C1 1.539 1_555 1_555
H10 C18 0.960 1_555 1_555
H11 C18 0.960 1_555 1_555
H12 C18 0.960 1_555 1_555
C19 C1 1.521 1_555 1_555
H13 C19 0.960 1_555 1_555
H14 C19 0.960 1_555 1_555
H15 C19 0.960 1_555 1_555
C20 C10 1.509 1_555 1_555
H16 C20 0.960 1_555 1_555
H17 C20 0.960 1_555 1_555
H18 C20 0.960 1_555 1_555
C6 C7 1.372 1_555 1_555
C8 C17 1.370 1_555 1_555
C15 C16 1.408 1_555 1_555
C16 C17 1.409 1_555 1_555
#END
