
#######################################################################
#
#                 Cambridge Crystallographic Data Centre
#                                CCDC
#
#######################################################################
#
# If this CIF has been generated from an entry in the Cambridge
# Structural Database, then it will include bibliographic, chemical,
# crystal, experimental, refinement or atomic coordinate data resulting
# from the CCDC's data processing and validation procedures.
#
#######################################################################

data_CSD_CIF_TIQWAR
_audit_creation_date 1997-03-26
_audit_creation_method CSD-ConQuest-V1
_database_code_CSD TIQWAR
_database_code_depnum_ccdc_archive 'CCDC 120385'
_chemical_formula_sum 'C60 H66'
_chemical_formula_moiety
;
C60 H66
;
_journal_coden_Cambridge 24
_journal_volume 37
_journal_year 1996
_journal_page_first 8371
_journal_name_full 'Tetrahedron Lett. '
loop_
_publ_author_name
"K.Zimmermann"
"R.Goddard"
"C.Kruger"
"M.W.Haenel"
_chemical_name_systematic
;
2,5,8,11,14,17-Hexa-t-butyldecacyclene
;
_chemical_melting_point 692
_cell_volume   9771.333
_exptl_crystal_colour 'yellow'
_exptl_crystal_density_diffrn 1.07
_diffrn_ambient_temperature ?
_diffrn_special_details
;
The study was carried out at room temperature,in the range 283-303K

;
#These two values have been output from a single CSD field.
_refine_ls_R_factor_gt 0.0751
_refine_ls_wR_factor_gt 0.0751
_symmetry_cell_setting orthorhombic
_symmetry_space_group_name_H-M 'P b c n'
_symmetry_Int_Tables_number 60
loop_
_symmetry_equiv_pos_site_id
_symmetry_equiv_pos_as_xyz
1 x,y,z
2 1/2-x,1/2-y,1/2+z
3 1/2+x,1/2-y,-z
4 -x,y,1/2-z
5 -x,-y,-z
6 -1/2+x,-1/2+y,-1/2-z
7 -1/2-x,-1/2+y,z
8 x,-y,-1/2+z
_cell_length_a 39.1630(12)
_cell_length_b 11.8042(4)
_cell_length_c 21.1369(7)
_cell_angle_alpha 90
_cell_angle_beta 90
_cell_angle_gamma 90
_cell_formula_units_Z 8
loop_
_atom_type_symbol
_atom_type_radius_bond
C 0.68
H 0.23
loop_
_atom_site_label
_atom_site_type_symbol
_atom_site_fract_x
_atom_site_fract_y
_atom_site_fract_z
C1 C 0.32074(7) 0.2184(3) 0.49832(14)
C2 C 0.30091(8) 0.3096(3) 0.47564(15)
H1 H 0.29150(8) 0.3053(3) 0.43532(15)
C3 C 0.29522(9) 0.4039(3) 0.51141(15)
C4 C 0.30914(8) 0.4111(3) 0.57362(15)
H2 H 0.30616(8) 0.4769(3) 0.59719(15)
C5 C 0.32685(7) 0.3219(2) 0.59898(13)
C6 C 0.34630(7) 0.3015(2) 0.65802(13)
C7 C 0.35184(7) 0.3678(2) 0.71145(13)
C8 C 0.33609(7) 0.4744(2) 0.73386(13)
C9 C 0.30786(8) 0.5386(3) 0.71883(14)
H3 H 0.29360(8) 0.5152(3) 0.68614(14)
C10 C 0.30007(9) 0.6399(3) 0.75228(15)
C11 C 0.32111(9) 0.6743(3) 0.8005(2)
H4 H 0.31675(9) 0.7426(3) 0.8208(2)
C12 C 0.34943(8) 0.6076(3) 0.82014(14)
C13 C 0.37137(9) 0.6307(3) 0.8717(2)
H5 H 0.36868(9) 0.6977(3) 0.8943(2)
C14 C 0.39654(9) 0.5561(3) 0.88920(15)
C15 C 0.40056(8) 0.4532(3) 0.85493(14)
H6 H 0.41660(8) 0.4004(3) 0.86846(14)
C16 C 0.38119(7) 0.4302(2) 0.80221(13)
C17 C 0.37866(7) 0.3378(2) 0.75501(13)
C18 C 0.39595(7) 0.2353(2) 0.74737(12)
C19 C 0.42515(7) 0.1823(2) 0.78142(12)
C20 C 0.44991(7) 0.2163(3) 0.82332(13)
H7 H 0.45008(7) 0.2907(3) 0.83767(13)
C21 C 0.47546(7) 0.1389(3) 0.84527(14)
C22 C 0.47515(8) 0.0294(3) 0.82401(14)
H8 H 0.49131(8) -0.0213(3) 0.83943(14)
C23 C 0.45090(8) -0.0088(3) 0.77918(14)
C24 C 0.44887(8) -0.1184(3) 0.75207(15)
H9 H 0.46415(8) -0.1739(3) 0.76528(15)
C25 C 0.42494(8) -0.1452(2) 0.70672(14)
C26 C 0.40200(8) -0.0593(2) 0.68538(13)
H10 H 0.38578(8) -0.0768(2) 0.65476(13)
C27 C 0.40347(7) 0.0490(2) 0.70936(13)
C28 C 0.38515(7) 0.1574(2) 0.69906(12)
C29 C 0.36290(7) 0.1934(2) 0.65187(13)
C30 C 0.35407(7) 0.1460(2) 0.58899(13)
C31 C 0.36486(8) 0.0569(2) 0.55246(14)
H11 H 0.37997(8) 0.0042(2) 0.56936(14)
C32 C 0.35315(8) 0.0438(3) 0.48852(14)
C33 C 0.33137(8) 0.1230(3) 0.46351(14)
H12 H 0.32342(8) 0.1135(3) 0.42239(14)
C34 C 0.33217(7) 0.2257(2) 0.56067(13)
C35 C 0.35553(8) 0.5092(2) 0.78614(13)
C36 C 0.42733(7) 0.0704(2) 0.75796(13)
C37 C 0.27451(13) 0.5045(4) 0.4868(2)
C38 C 0.25588(14) 0.4794(4) 0.4259(2)
H13 H 0.24301(14) 0.4106(4) 0.4305(2)
H14 H 0.27212(14) 0.4707(4) 0.3922(2)
H15 H 0.24066(14) 0.5407(4) 0.4162(2)
C39 C 0.2441(2) 0.5224(7) 0.5360(3)
H16 H 0.2303(2) 0.4554(7) 0.5376(3)
H17 H 0.2304(2) 0.5855(7) 0.5229(3)
H18 H 0.2534(2) 0.5372(7) 0.5773(3)
C40 C 0.2947(2) 0.6059(5) 0.4855(4)
H19 H 0.3057(2) 0.6160(5) 0.5257(4)
H20 H 0.2803(2) 0.6697(5) 0.4769(4)
H21 H 0.3117(2) 0.5997(5) 0.4529(4)
C41 C 0.26869(10) 0.7097(3) 0.7328(2)
C42 C 0.23751(11) 0.6334(4) 0.7254(3)
H22 H 0.23286(11) 0.5962(4) 0.7649(3)
H23 H 0.24191(11) 0.5776(4) 0.6934(3)
H24 H 0.21814(11) 0.6783(4) 0.7134(3)
C43 C 0.27621(15) 0.7687(5) 0.6707(2)
H25 H 0.29584(15) 0.8166(5) 0.6755(2)
H26 H 0.25689(15) 0.8138(5) 0.6585(2)
H27 H 0.28066(15) 0.7131(5) 0.6386(2)
C44 C 0.25996(13) 0.8003(4) 0.7818(2)
H28 H 0.25509(13) 0.7648(4) 0.8216(2)
H29 H 0.24033(13) 0.8423(4) 0.7679(2)
H30 H 0.27899(13) 0.8509(4) 0.7866(2)
C45 C 0.41976(11) 0.5797(3) 0.9456(2)
C46 C 0.4152(2) 0.6968(5) 0.9723(3)
H31 H 0.3919(2) 0.7072(5) 0.9847(3)
H32 H 0.4211(2) 0.7518(5) 0.9406(3)
H33 H 0.4298(2) 0.7062(5) 1.0084(3)
C47 C 0.45675(13) 0.5653(5) 0.9263(3)
H34 H 0.46004(13) 0.4907(5) 0.9092(3)
H35 H 0.47117(13) 0.5751(5) 0.9626(3)
H36 H 0.46249(13) 0.6208(5) 0.8949(3)
C48 C 0.4121(2) 0.4941(6) 0.9972(3)
H37 H 0.4149(2) 0.4189(6) 0.9807(3)
H38 H 0.3890(2) 0.5039(6) 1.0115(3)
H39 H 0.4275(2) 0.5054(6) 1.0320(3)
C49 C 0.50235(8) 0.1830(3) 0.89167(15)
C50 C 0.52168(10) 0.2815(4) 0.8613(2)
H40 H 0.53857(10) 0.3093(4) 0.8903(2)
H41 H 0.50593(10) 0.3411(4) 0.8512(2)
H42 H 0.53265(10) 0.2558(4) 0.8233(2)
C51 C 0.48487(9) 0.2222(4) 0.9527(2)
H43 H 0.47282(9) 0.1598(4) 0.9714(2)
H44 H 0.46905(9) 0.2820(4) 0.9431(2)
H45 H 0.50177(9) 0.2496(4) 0.9818(2)
C52 C 0.52854(10) 0.0913(4) 0.9095(2)
H46 H 0.51697(10) 0.0284(4) 0.9287(2)
H47 H 0.54479(10) 0.1221(4) 0.9388(2)
H48 H 0.54019(10) 0.0661(4) 0.8721(2)
C53 C 0.42457(9) -0.2624(3) 0.6752(2)
C54 C 0.43938(14) -0.3534(3) 0.7182(2)
H49 H 0.46222(14) -0.3329(3) 0.7300(2)
H50 H 0.43975(14) -0.4244(3) 0.6961(2)
H51 H 0.42553(14) -0.3602(3) 0.7554(2)
C55 C 0.38841(11) -0.2999(3) 0.6582(2)
H52 H 0.37812(11) -0.2444(3) 0.6310(2)
H53 H 0.37509(11) -0.3073(3) 0.6960(2)
H54 H 0.38931(11) -0.3715(3) 0.6367(2)
C56 C 0.44581(13) -0.2539(4) 0.6145(2)
H55 H 0.43637(13) -0.1964(4) 0.5876(2)
H56 H 0.44544(13) -0.3254(4) 0.5929(2)
H57 H 0.46894(13) -0.2346(4) 0.6251(2)
C57 C 0.36638(9) -0.0560(3) 0.4496(2)
C58 C 0.35176(13) -0.0603(4) 0.3833(2)
H58 H 0.32732(13) -0.0651(4) 0.3855(2)
H59 H 0.36053(13) -0.1256(4) 0.3616(2)
H60 H 0.35816(13) 0.0069(4) 0.3607(2)
C59 C 0.40480(12) -0.0485(6) 0.4447(3)
H61 H 0.41449(12) -0.0457(6) 0.4864(3)
H62 H 0.41097(12) 0.0187(6) 0.4219(3)
H63 H 0.41335(12) -0.1138(6) 0.4228(3)
C60 C 0.3562(2) -0.1651(4) 0.4825(3)
H64 H 0.3318(2) -0.1692(4) 0.4855(3)
H65 H 0.3659(2) -0.1665(4) 0.5243(3)
H66 H 0.3646(2) -0.2286(4) 0.4588(3)
loop_
_geom_bond_atom_site_label_1
_geom_bond_atom_site_label_2
_geom_bond_distance
_geom_bond_site_symmetry_1
_geom_bond_site_symmetry_2
C1 C2 1.411 1_555 1_555
C2 H1 0.930 1_555 1_555
C3 C2 1.364 1_555 1_555
C4 C3 1.426 1_555 1_555
H2 C4 0.930 1_555 1_555
C5 C4 1.370 1_555 1_555
C6 C5 1.482 1_555 1_555
C7 C6 1.391 1_555 1_555
C8 C7 1.479 1_555 1_555
C9 C8 1.378 1_555 1_555
H3 C9 0.930 1_555 1_555
C10 C9 1.422 1_555 1_555
C11 C10 1.372 1_555 1_555
H4 C11 0.929 1_555 1_555
C12 C11 1.422 1_555 1_555
C13 C12 1.414 1_555 1_555
H5 C13 0.930 1_555 1_555
C14 C13 1.373 1_555 1_555
C15 C14 1.423 1_555 1_555
H6 C15 0.930 1_555 1_555
C16 C15 1.375 1_555 1_555
C17 C7 1.441 1_555 1_555
C18 C17 1.396 1_555 1_555
C19 C18 1.489 1_555 1_555
C20 C19 1.373 1_555 1_555
H7 C20 0.929 1_555 1_555
C21 C20 1.432 1_555 1_555
C22 C21 1.369 1_555 1_555
H8 C22 0.930 1_555 1_555
C23 C22 1.415 1_555 1_555
C24 C23 1.417 1_555 1_555
H9 C24 0.930 1_555 1_555
C25 C24 1.377 1_555 1_555
C26 C25 1.428 1_555 1_555
H10 C26 0.930 1_555 1_555
C27 C26 1.376 1_555 1_555
C28 C18 1.438 1_555 1_555
C29 C6 1.438 1_555 1_555
C30 C29 1.483 1_555 1_555
C31 C30 1.371 1_555 1_555
H11 C31 0.930 1_555 1_555
C32 C31 1.436 1_555 1_555
C33 C1 1.408 1_555 1_555
H12 C33 0.930 1_555 1_555
C34 C1 1.394 1_555 1_555
C35 C8 1.403 1_555 1_555
C36 C19 1.413 1_555 1_555
C37 C3 1.529 1_555 1_555
C38 C37 1.509 1_555 1_555
H13 C38 0.961 1_555 1_555
H14 C38 0.960 1_555 1_555
H15 C38 0.960 1_555 1_555
C39 C37 1.595 1_555 1_555
H16 C39 0.959 1_555 1_555
H17 C39 0.959 1_555 1_555
H18 C39 0.962 1_555 1_555
C40 C37 1.435 1_555 1_555
H19 C40 0.960 1_555 1_555
H20 C40 0.958 1_555 1_555
H21 C40 0.961 1_555 1_555
C41 C10 1.536 1_555 1_555
C42 C41 1.525 1_555 1_555
H22 C42 0.961 1_555 1_555
H23 C42 0.960 1_555 1_555
H24 C42 0.960 1_555 1_555
C43 C41 1.515 1_555 1_555
H25 C43 0.960 1_555 1_555
H26 C43 0.960 1_555 1_555
H27 C43 0.960 1_555 1_555
C44 C41 1.528 1_555 1_555
H28 C44 0.959 1_555 1_555
H29 C44 0.961 1_555 1_555
H30 C44 0.960 1_555 1_555
C45 C14 1.525 1_555 1_555
C46 C45 1.504 1_555 1_555
H31 C46 0.957 1_555 1_555
H32 C46 0.961 1_555 1_555
H33 C46 0.960 1_555 1_555
C47 C45 1.515 1_555 1_555
H34 C47 0.961 1_555 1_555
H35 C47 0.960 1_555 1_555
H36 C47 0.959 1_555 1_555
C48 C45 1.517 1_555 1_555
H37 C48 0.960 1_555 1_555
H38 C48 0.961 1_555 1_555
H39 C48 0.961 1_555 1_555
C49 C21 1.530 1_555 1_555
C50 C49 1.529 1_555 1_555
H40 C50 0.960 1_555 1_555
H41 C50 0.960 1_555 1_555
H42 C50 0.960 1_555 1_555
C51 C49 1.532 1_555 1_555
H43 C51 0.960 1_555 1_555
H44 C51 0.961 1_555 1_555
H45 C51 0.960 1_555 1_555
C52 C49 1.538 1_555 1_555
H46 C52 0.960 1_555 1_555
H47 C52 0.960 1_555 1_555
H48 C52 0.960 1_555 1_555
C53 C25 1.536 1_555 1_555
C54 C53 1.522 1_555 1_555
H49 C54 0.960 1_555 1_555
H50 C54 0.960 1_555 1_555
H51 C54 0.959 1_555 1_555
C55 C53 1.527 1_555 1_555
H52 C55 0.960 1_555 1_555
H53 C55 0.958 1_555 1_555
H54 C55 0.960 1_555 1_555
C56 C53 1.532 1_555 1_555
H55 C56 0.960 1_555 1_555
H56 C56 0.960 1_555 1_555
H57 C56 0.961 1_555 1_555
C57 C32 1.527 1_555 1_555
C58 C57 1.515 1_555 1_555
H58 C58 0.960 1_555 1_555
H59 C58 0.960 1_555 1_555
H60 C58 0.959 1_555 1_555
C59 C57 1.511 1_555 1_555
H61 C59 0.960 1_555 1_555
H62 C59 0.959 1_555 1_555
H63 C59 0.959 1_555 1_555
C60 C57 1.517 1_555 1_555
H64 C60 0.959 1_555 1_555
H65 C60 0.962 1_555 1_555
H66 C60 0.960 1_555 1_555
C5 C34 1.410 1_555 1_555
C12 C35 1.387 1_555 1_555
C16 C17 1.481 1_555 1_555
C16 C35 1.412 1_555 1_555
C23 C36 1.388 1_555 1_555
C27 C28 1.483 1_555 1_555
C27 C36 1.411 1_555 1_555
C28 C29 1.391 1_555 1_555
C30 C34 1.407 1_555 1_555
C32 C33 1.372 1_555 1_555
#END
