
#######################################################################
#
#                 Cambridge Crystallographic Data Centre
#                                CCDC
#
#######################################################################
#
# If this CIF has been generated from an entry in the Cambridge
# Structural Database, then it will include bibliographic, chemical,
# crystal, experimental, refinement or atomic coordinate data resulting
# from the CCDC's data processing and validation procedures.
#
#######################################################################

data_CSD_CIF_TONLEN
_audit_creation_date 1997-05-05
_audit_creation_method CSD-ConQuest-V1
_database_code_CSD TONLEN
_chemical_formula_sum 'C36 H18'
_chemical_formula_moiety
;
C36 H18
;
_journal_coden_Cambridge 1096
_journal_volume 5
_journal_year 1993
_journal_page_first 1358
_journal_name_full 'Chem.Mater. '
loop_
_publ_author_name
"D.M.Ho"
"R.A.Pascal Junior"
_chemical_name_systematic
;
Decacyclene
;
_chemical_melting_point 667.15
_cell_volume   2085.654
_exptl_crystal_colour 'orange'
_exptl_crystal_density_diffrn 1.435
_exptl_special_details
;
Melting point range 667.15-669.15K

;
_diffrn_ambient_temperature ?
_diffrn_special_details
;
The study was carried out at room temperature,in the range 283-303K

;
#These two values have been output from a single CSD field.
_refine_ls_R_factor_gt 0.0686
_refine_ls_wR_factor_gt 0.0686
_symmetry_cell_setting orthorhombic
_symmetry_space_group_name_H-M 'C 2 2 21'
_symmetry_Int_Tables_number 20
loop_
_symmetry_equiv_pos_site_id
_symmetry_equiv_pos_as_xyz
1 x,y,z
2 -x,-y,1/2+z
3 x,-y,-z
4 -x,y,1/2-z
5 1/2+x,1/2+y,z
6 1/2-x,1/2-y,1/2+z
7 1/2+x,1/2-y,-z
8 1/2-x,1/2+y,1/2-z
_cell_length_a 3.944(2)
_cell_length_b 25.430(8)
_cell_length_c 20.795(8)
_cell_angle_alpha 90
_cell_angle_beta 90
_cell_angle_gamma 90
_cell_formula_units_Z 4
loop_
_atom_type_symbol
_atom_type_radius_bond
C 0.68
H 0.23
loop_
_atom_site_label
_atom_site_type_symbol
_atom_site_fract_x
_atom_site_fract_y
_atom_site_fract_z
C1 C 0.1521(21) -0.1544(2) 0.6740(3)
C2 C 0.0861(22) -0.2077(2) 0.6703(3)
C3 C 0.1987(25) -0.2358(2) 0.6156(3)
C4 C 0.3699(24) -0.2130(3) 0.5670(3)
C5 C 0.4410(26) -0.1583(3) 0.5680(3)
C6 C 0.6095(24) -0.1289(3) 0.5212(3)
C7 C 0.6496(22) -0.0756(3) 0.5288(3)
C8 C 0.5232(22) -0.0478(3) 0.5825(3)
C9 C 0.3370(21) -0.0753(2) 0.6288(2)
C10 C 0.3150(23) -0.1308(2) 0.6213(3)
C11 C 0.0724(18) -0.1116(2) 0.7203(2)
C12 C 0.1634(22) -0.0627(2) 0.6891(2)
C13 C 0.076(2) -0.0153(2) 0.7186(2)
C14 C 0.1097(22) 0.0397(2) 0.6976(3)
C15 C 0.1899(22) 0.0660(2) 0.6410(3)
C16 C 0.1875(23) 0.1213(2) 0.6401(3)
C17 C 0.1019(26) 0.1511(2) 0.6923(3)
C18 C 0.00000 0.1259(3) 0.75000
C19 C 0.00000 0.0705(3) 0.75000
H1 H -0.03380 -0.22530 0.70420
H2 H 0.15110 -0.27280 0.61310
H3 H 0.44450 -0.23390 0.53130
H4 H 0.69750 -0.14600 0.48350
H5 H 0.76890 -0.05630 0.49620
H6 H 0.56440 -0.01080 0.58720
H7 H 0.24650 0.04660 0.60290
H8 H 0.24880 0.13890 0.60100
H9 H 0.11080 0.18880 0.69000
C11C C -0.0724(18) -0.1116(2) 0.7797(2)
C1C C -0.1521(21) -0.1544(2) 0.8260(3)
C2C C -0.0861(22) -0.2077(2) 0.8297(3)
C3C C -0.1987(25) -0.2358(2) 0.8844(3)
C4C C -0.3699(24) -0.2130(3) 0.9330(3)
C5C C -0.4410(26) -0.1583(3) 0.9320(3)
C6C C -0.6095(24) -0.1289(3) 0.9788(3)
C7C C -0.6496(22) -0.0756(3) 0.9712(3)
C8C C -0.5232(22) -0.0478(3) 0.9175(3)
C9C C -0.3370(21) -0.0753(2) 0.8712(2)
C10C C -0.3150(23) -0.1308(2) 0.8787(3)
C12C C -0.1634(22) -0.0627(2) 0.8109(2)
C13C C -0.076(2) -0.0153(2) 0.7814(2)
C17C C -0.1019(26) 0.1511(2) 0.8077(3)
C16C C -0.1875(23) 0.1213(2) 0.8599(3)
C15C C -0.1899(22) 0.0660(2) 0.8590(3)
C14C C -0.1097(22) 0.0397(2) 0.8024(3)
H7C H -0.24650 0.04660 0.89710
H8C H -0.24880 0.13890 0.89900
H9C H -0.11080 0.18880 0.81000
H6C H -0.56440 -0.01080 0.91280
H5C H -0.76890 -0.05630 1.00380
H4C H -0.69750 -0.14600 1.01650
H3C H -0.44450 -0.23390 0.96870
H2C H -0.15110 -0.27280 0.88690
H1C H 0.03380 -0.22530 0.79580
loop_
_geom_bond_atom_site_label_1
_geom_bond_atom_site_label_2
_geom_bond_distance
_geom_bond_site_symmetry_1
_geom_bond_site_symmetry_2
C1 C2 1.382 1_555 1_555
C2 C3 1.415 1_555 1_555
C3 C4 1.347 1_555 1_555
C4 C5 1.419 1_555 1_555
C5 C6 1.396 1_555 1_555
C6 C7 1.374 1_555 1_555
C7 C8 1.413 1_555 1_555
C8 C9 1.398 1_555 1_555
C9 C10 1.423 1_555 1_555
C10 C1 1.405 1_555 1_555
C11 C1 1.487 1_555 1_555
C12 C9 1.464 1_555 1_555
C13 C12 1.396 1_555 1_555
C14 C13 1.471 1_555 1_555
C15 C14 1.390 1_555 1_555
C16 C15 1.406 1_555 1_555
C17 C16 1.366 1_555 1_555
C18 C17 1.418 1_555 1_555
C19 C14 1.410 1_555 1_555
H1 C2 0.960 1_555 1_555
H2 C3 0.961 1_555 1_555
H3 C4 0.959 1_555 1_555
H4 C6 0.961 1_555 1_555
H5 C7 0.960 1_555 1_555
H6 C8 0.960 1_555 1_555
H7 C15 0.960 1_555 1_555
H8 C16 0.959 1_555 1_555
H9 C17 0.961 1_555 1_555
C11C C11 1.361 1_555 1_555
C1C C11C 1.487 1_555 1_555
C2C C1C 1.382 1_555 1_555
C3C C2C 1.415 1_555 1_555
C4C C3C 1.347 1_555 1_555
C5C C4C 1.419 1_555 1_555
C6C C5C 1.396 1_555 1_555
C7C C6C 1.374 1_555 1_555
C8C C7C 1.413 1_555 1_555
C9C C8C 1.398 1_555 1_555
C10C C1C 1.405 1_555 1_555
C12C C11C 1.448 1_555 1_555
C13C C13 1.437 1_555 1_555
C17C C18 1.418 1_555 1_555
C16C C17C 1.366 1_555 1_555
C15C C16C 1.406 1_555 1_555
C14C C19 1.410 1_555 1_555
H7C C15C 0.960 1_555 1_555
H8C C16C 0.959 1_555 1_555
H9C C17C 0.961 1_555 1_555
H6C C8C 0.960 1_555 1_555
H5C C7C 0.960 1_555 1_555
H4C C6C 0.961 1_555 1_555
H3C C4C 0.959 1_555 1_555
H2C C3C 0.961 1_555 1_555
H1C C2C 0.960 1_555 1_555
C5 C10 1.402 1_555 1_555
C11 C12 1.448 1_555 1_555
C18 C19 1.409 1_555 1_555
C5C C10C 1.402 1_555 1_555
C9C C10C 1.423 1_555 1_555
C9C C12C 1.464 1_555 1_555
C12C C13C 1.396 1_555 1_555
C13C C14C 1.471 1_555 1_555
C15C C14C 1.390 1_555 1_555
#END
