
#######################################################################
#
#                 Cambridge Crystallographic Data Centre
#                                CCDC
#
#######################################################################
#
# If this CIF has been generated from an entry in the Cambridge
# Structural Database, then it will include bibliographic, chemical,
# crystal, experimental, refinement or atomic coordinate data resulting
# from the CCDC's data processing and validation procedures.
#
#######################################################################

data_CSD_CIF_TRIPHE11
_audit_creation_date 1974-05-08
_audit_creation_method CSD-ConQuest-V1
_database_code_CSD TRIPHE11
_database_code_depnum_ccdc_archive 'CCDC 1275703'
_chemical_formula_sum 'C18 H12'
_chemical_formula_moiety
;
C18 H12
;
_journal_coden_Cambridge 5
_journal_volume 138
_journal_year 1973
_journal_page_first 113
_journal_name_full 'Z.Kristallogr.,Kristallgeom.,Kristallphys.,Kristallchem. '
loop_
_publ_author_name
"G.Ferraris"
"D.W.Jones"
"J.Yerkess"
_chemical_name_systematic
;
Triphenylene
;
_cell_volume   1158.957
_exptl_crystal_density_diffrn 1.308
_diffrn_ambient_temperature ?
_diffrn_radiation_probe 'neutron radiation'
_diffrn_special_details
;
The study was carried out at room temperature,in the range 283-303K

;
#These two values have been output from a single CSD field.
_refine_ls_R_factor_gt 0.048
_refine_ls_wR_factor_gt 0.048
_symmetry_cell_setting orthorhombic
_symmetry_space_group_name_H-M 'P 21 21 21'
_symmetry_Int_Tables_number 19
loop_
_symmetry_equiv_pos_site_id
_symmetry_equiv_pos_as_xyz
1 x,y,z
2 1/2+x,1/2-y,-z
3 -x,1/2+y,1/2-z
4 1/2-x,-y,1/2+z
_cell_length_a 13.17(3)
_cell_length_b 16.73(3)
_cell_length_c 5.26(1)
_cell_angle_alpha 90
_cell_angle_beta 90
_cell_angle_gamma 90
_cell_formula_units_Z 4
loop_
_atom_type_symbol
_atom_type_radius_bond
C 0.68
H 0.20
loop_
_atom_site_label
_atom_site_type_symbol
_atom_site_fract_x
_atom_site_fract_y
_atom_site_fract_z
C1 C 0.44040 -0.30070 -0.42840
C2 C 0.55560 -0.48370 -1.15160
C3 C 0.56400 -0.54410 -1.33730
C4 C 0.48920 -0.60320 -1.35820
C5 C 0.40780 -0.60380 -1.19290
C6 C 0.39970 -0.54510 -1.00680
C7 C 0.47140 -0.48350 -0.98950
C8 C 0.45980 -0.42080 -0.79350
C9 C 0.37900 -0.42110 -0.62110
C10 C 0.36810 -0.36210 -0.44060
C11 C 0.52060 -0.29940 -0.59530
C12 C 0.53270 -0.35910 -0.78100
C13 C 0.61860 -0.35730 -0.95620
C14 C 0.69090 -0.29470 -0.95010
C15 C 0.76990 -0.29150 -1.12170
C16 C 0.78270 -0.35240 -1.29800
C17 C 0.71380 -0.41510 -1.30470
C18 C 0.63040 -0.41860 -1.14110
H1 H 0.43640 -0.25450 -0.28800
H2 H 0.62490 -0.54570 -1.45400
H3 H 0.49880 -0.64900 -1.50100
H4 H 0.35010 -0.64900 -1.21300
H5 H 0.33550 -0.54810 -0.88500
H6 H 0.32370 -0.46970 -0.62300
H7 H 0.30740 -0.36600 -0.30500
H8 H 0.57380 -0.25170 -0.57300
H9 H 0.68280 -0.24810 -0.82000
H10 H 0.82460 -0.24320 -1.10600
H11 H 0.84390 -0.35080 -1.43900
H12 H 0.72280 -0.46210 -1.45600
loop_
_geom_bond_atom_site_label_1
_geom_bond_atom_site_label_2
_geom_bond_distance
_geom_bond_site_symmetry_1
_geom_bond_site_symmetry_2
C1 C10 1.402 1_555 1_555
C2 C3 1.410 1_555 1_555
C3 C4 1.400 1_555 1_555
C4 C5 1.380 1_555 1_555
C5 C6 1.391 1_555 1_555
C6 C7 1.401 1_555 1_555
C7 C2 1.399 1_555 1_555
C8 C7 1.479 1_555 1_555
C9 C8 1.398 1_555 1_555
C10 C9 1.377 1_555 1_555
C11 C1 1.374 1_555 1_555
C12 C8 1.411 1_555 1_555
C13 C12 1.459 1_555 1_555
C14 C13 1.416 1_555 1_555
C15 C14 1.378 1_555 1_555
C16 C15 1.388 1_555 1_555
C17 C16 1.387 1_555 1_555
C18 C2 1.470 1_555 1_555
H1 C1 1.070 1_555 1_555
H2 C3 1.010 1_555 1_555
H3 C4 1.080 1_555 1_555
H4 C5 1.077 1_555 1_555
H5 C6 1.062 1_555 1_555
H6 C9 1.092 1_555 1_555
H7 C10 1.073 1_555 1_555
H8 C11 1.068 1_555 1_555
H9 C14 1.043 1_555 1_555
H10 C15 1.086 1_555 1_555
H11 C16 1.096 1_555 1_555
H12 C17 1.125 1_555 1_555
C11 C12 1.406 1_555 1_555
C13 C18 1.422 1_555 1_555
C17 C18 1.397 1_555 1_555
#END
