
#######################################################################
#
#                 Cambridge Crystallographic Data Centre
#                                CCDC
#
#######################################################################
#
# If this CIF has been generated from an entry in the Cambridge
# Structural Database, then it will include bibliographic, chemical,
# crystal, experimental, refinement or atomic coordinate data resulting
# from the CCDC's data processing and validation procedures.
#
#######################################################################

data_CSD_CIF_TRIPHE15
_audit_creation_date 2015-04-29
_audit_creation_method CSD-ConQuest-V1
_database_code_CSD TRIPHE15
_database_code_depnum_ccdc_archive 'CCDC 1004393'
_chemical_formula_sum 'C18 H12'
_chemical_formula_moiety
;
C18 H12
;
_journal_coden_Cambridge 597
_journal_volume 126
_journal_year 2014
_journal_page_first 1311
_journal_name_full 'J.Chem.Sci.(Bangalore,India) '
loop_
_publ_author_name
"P.R.Prasad"
"Harkesh B Singh"
"R.J.Butcher"
_chemical_name_systematic
;
Triphenylene
;
_cell_volume   1137.809
_exptl_crystal_colour 'pale yellow'
_exptl_crystal_density_diffrn 1.333
_exptl_crystal_description 'prism'
_diffrn_ambient_temperature 123
#These two values have been output from a single CSD field.
_refine_ls_R_factor_gt 0.055
_refine_ls_wR_factor_gt 0.055
_symmetry_cell_setting orthorhombic
_symmetry_space_group_name_H-M 'P 21 21 21'
_symmetry_Int_Tables_number 19
loop_
_symmetry_equiv_pos_site_id
_symmetry_equiv_pos_as_xyz
1 x,y,z
2 1/2-x,-y,1/2+z
3 1/2+x,1/2-y,-z
4 -x,1/2+y,1/2-z
_cell_length_a 5.26628(17)
_cell_length_b 12.9714(4)
_cell_length_c 16.6563(5)
_cell_angle_alpha 90
_cell_angle_beta 90
_cell_angle_gamma 90
_cell_formula_units_Z 4
loop_
_atom_type_symbol
_atom_type_radius_bond
C 0.68
H 0.23
loop_
_atom_site_label
_atom_site_type_symbol
_atom_site_fract_x
_atom_site_fract_y
_atom_site_fract_z
C1 C 0.6534(6) 0.5580(3) 0.51691(19)
C2 C 0.4856(6) 0.4733(2) 0.51600(19)
C3 C 0.2926(6) 0.4625(2) 0.57919(19)
C4 C 0.2795(6) 0.5354(2) 0.64141(19)
C5 C 0.4576(6) 0.6224(2) 0.64349(19)
C6 C 0.6397(6) 0.6336(2) 0.58199(18)
C7 C 0.8380(7) 0.5651(3) 0.4558(2)
H1 H 0.95090 0.62230 0.45540
C8 C 0.8586(7) 0.4913(3) 0.3967(2)
H2 H 0.98450 0.49780 0.35620
C9 C 0.6955(7) 0.4076(3) 0.3964(2)
H3 H 0.71190 0.35560 0.35660
C10 C 0.5086(7) 0.3999(3) 0.4545(2)
H4 H 0.39320 0.34370 0.45270
C11 C 0.1176(7) 0.3806(3) 0.5786(2)
H5 H 0.12670 0.33080 0.53690
C12 C -0.0674(7) 0.3708(3) 0.6371(2)
H6 H -0.18580 0.31560 0.63500
C13 C -0.0780(6) 0.4425(3) 0.6986(2)
H7 H -0.20320 0.43600 0.73940
C14 C 0.0920(6) 0.5230(3) 0.7011(2)
H8 H 0.08290 0.57130 0.74400
C15 C 0.4544(6) 0.6947(3) 0.7065(2)
H9 H 0.33100 0.68840 0.74780
C16 C 0.6275(7) 0.7749(3) 0.7094(2)
H10 H 0.62420 0.82220 0.75290
C17 C 0.8044(7) 0.7861(3) 0.6492(2)
H11 H 0.92150 0.84180 0.65090
C18 C 0.8123(6) 0.7171(3) 0.58636(19)
H12 H 0.93570 0.72560 0.54530
loop_
_geom_bond_atom_site_label_1
_geom_bond_atom_site_label_2
_geom_bond_distance
_geom_bond_site_symmetry_1
_geom_bond_site_symmetry_2
C1 C2 1.410 1_555 1_555
C2 C3 1.470 1_555 1_555
C3 C4 1.405 1_555 1_555
C4 C5 1.468 1_555 1_555
C5 C6 1.411 1_555 1_555
C6 C1 1.464 1_555 1_555
C7 C1 1.411 1_555 1_555
H1 C7 0.951 1_555 1_555
C8 C7 1.377 1_555 1_555
H2 C8 0.950 1_555 1_555
C9 C8 1.384 1_555 1_555
H3 C9 0.950 1_555 1_555
C10 C2 1.404 1_555 1_555
H4 C10 0.950 1_555 1_555
C11 C3 1.406 1_555 1_555
H5 C11 0.950 1_555 1_555
C12 C11 1.384 1_555 1_555
H6 C12 0.950 1_555 1_555
C13 C12 1.385 1_555 1_555
H7 C13 0.951 1_555 1_555
C14 C4 1.410 1_555 1_555
H8 C14 0.952 1_555 1_555
C15 C5 1.408 1_555 1_555
H9 C15 0.950 1_555 1_555
C16 C15 1.384 1_555 1_555
H10 C16 0.950 1_555 1_555
C17 C16 1.376 1_555 1_555
H11 C17 0.950 1_555 1_555
C18 C6 1.416 1_555 1_555
H12 C18 0.950 1_555 1_555
C9 C10 1.384 1_555 1_555
C13 C14 1.376 1_555 1_555
C17 C18 1.378 1_555 1_555
#END
