
#######################################################################
#
#                 Cambridge Crystallographic Data Centre
#                                CCDC
#
#######################################################################
#
# If this CIF has been generated from an entry in the Cambridge
# Structural Database, then it will include bibliographic, chemical,
# crystal, experimental, refinement or atomic coordinate data resulting
# from the CCDC's data processing and validation procedures.
#
#######################################################################

data_CSD_CIF_TUJWUQ
_audit_creation_date 1997-06-18
_audit_creation_method CSD-ConQuest-V1
_database_code_CSD TUJWUQ
_database_code_depnum_ccdc_archive 'CCDC 1276601'
_chemical_formula_sum 'C23 H16'
_chemical_formula_moiety
;
C23 H16
;
_journal_coden_Cambridge 15
_journal_volume 74
_journal_year 1996
_journal_page_first 1447
_journal_name_full 'Can.J.Chem. '
loop_
_publ_author_name
"D.Budac"
"P.Wan"
_chemical_name_systematic
;
3H-Cyclohepta(2,1-a:3,4-a')dinaphthalene
;
_chemical_melting_point 439.15
_cell_volume   1566.349
_exptl_crystal_colour 'colorless'
_exptl_crystal_density_diffrn 1.24
_exptl_special_details
;
Melting point range 439.15-441.15K

;
_diffrn_ambient_temperature ?
_diffrn_special_details
;
The study was carried out at room temperature,in the range 283-303K

;
#These two values have been output from a single CSD field.
_refine_ls_R_factor_gt 0.0499
_refine_ls_wR_factor_gt 0.0499
_symmetry_cell_setting monoclinic
_symmetry_space_group_name_H-M 'P 21/n'
_symmetry_Int_Tables_number 14
loop_
_symmetry_equiv_pos_site_id
_symmetry_equiv_pos_as_xyz
1 x,y,z
2 1/2-x,1/2+y,1/2-z
3 -x,-y,-z
4 -1/2+x,-1/2-y,-1/2+z
_cell_length_a 8.5545(6)
_cell_length_b 18.8395(17)
_cell_length_c 9.7556(6)
_cell_angle_alpha 90
_cell_angle_beta 94.960(7)
_cell_angle_gamma 90
_cell_formula_units_Z 4
loop_
_atom_type_symbol
_atom_type_radius_bond
C 0.68
H 0.23
loop_
_atom_site_label
_atom_site_type_symbol
_atom_site_fract_x
_atom_site_fract_y
_atom_site_fract_z
C1 C 0.7514(3) 0.7083(1) 0.0718(3)
C2 C 0.8552(3) 0.6535(2) 0.0911(3)
C3 C 0.8115(4) 0.5849(2) 0.0430(3)
C4 C 0.6675(4) 0.5731(1) -0.0200(3)
C5 C 0.4033(3) 0.6164(2) -0.1009(3)
C6 C 0.2948(3) 0.6688(1) -0.1087(3)
C7 C 0.2059(3) 0.7924(2) -0.0591(3)
C8 C 0.1850(3) 0.8165(2) 0.0793(3)
C9 C 0.2994(3) 0.8403(2) 0.1688(4)
C10 C 0.5062(3) 0.9326(1) 0.1699(3)
C11 C 0.6295(3) 0.9640(1) 0.1176(3)
C12 C 0.8203(3) 0.9669(2) -0.0591(3)
C13 C 0.8856(3) 0.9363(2) -0.1663(4)
C14 C 0.8361(3) 0.8693(2) -0.2137(3)
C15 C 0.7235(3) 0.8334(1) -0.1499(2)
C16 C 0.5985(3) 0.6982(1) 0.0057(2)
C17 C 0.5561(3) 0.6285(1) -0.0398(2)
C18 C 0.6534(2) 0.8632(1) -0.0364(2)
C19 C 0.7030(3) 0.9317(1) 0.0087(3)
C20 C 0.4849(2) 0.7544(1) -0.0116(2)
C21 C 0.5285(2) 0.8286(1) 0.0264(2)
C22 C 0.3318(3) 0.7380(1) -0.0610(3)
C23 C 0.4488(3) 0.8660(1) 0.1218(2)
H1 H 0.777(2) 0.757(1) 0.106(2)
H2 H 0.967(3) 0.664(1) 0.134(3)
H3 H 0.882(3) 0.548(2) 0.049(3)
H4 H 0.643(3) 0.523(2) -0.053(3)
H5 H 0.377(3) 0.566(1) -0.136(3)
H6 H 0.179(3) 0.662(1) -0.151(3)
H7 H 0.09700 0.77000 -0.10300
H8 H 0.23600 0.83700 -0.12000
H9 H 0.085(4) 0.802(2) 0.120(3)
H10 H 0.277(3) 0.855(1) 0.257(3)
H11 H 0.445(3) 0.953(1) 0.235(3)
H12 H 0.671(3) 1.019(1) 0.157(2)
H13 H 0.851(3) 1.014(2) -0.025(3)
H14 H 0.964(4) 0.955(1) -0.220(3)
H15 H 0.882(3) 0.847(1) -0.297(3)
H16 H 0.683(3) 0.788(1) -0.187(2)
loop_
_geom_bond_atom_site_label_1
_geom_bond_atom_site_label_2
_geom_bond_distance
_geom_bond_site_symmetry_1
_geom_bond_site_symmetry_2
C1 C2 1.364 1_555 1_555
C2 C3 1.414 1_555 1_555
C3 C4 1.347 1_555 1_555
C4 C17 1.415 1_555 1_555
C5 C6 1.353 1_555 1_555
C6 C22 1.411 1_555 1_555
C7 C8 1.450 1_555 1_555
C8 C9 1.332 1_555 1_555
C9 C23 1.476 1_555 1_555
C10 C11 1.348 1_555 1_555
C11 C19 1.418 1_555 1_555
C12 C13 1.356 1_555 1_555
C13 C14 1.397 1_555 1_555
C14 C15 1.370 1_555 1_555
C15 C18 1.420 1_555 1_555
C16 C1 1.420 1_555 1_555
C17 C5 1.408 1_555 1_555
C18 C19 1.417 1_555 1_555
C19 C12 1.414 1_555 1_555
C20 C16 1.437 1_555 1_555
C21 C18 1.434 1_555 1_555
C22 C7 1.488 1_555 1_555
C23 C10 1.413 1_555 1_555
H1 C1 0.994 1_555 1_555
H2 C2 1.029 1_555 1_555
H3 C3 0.919 1_555 1_555
H4 C4 1.013 1_555 1_555
H5 C5 1.028 1_555 1_555
H6 C6 1.048 1_555 1_555
H7 C7 1.077 1_555 1_555
H8 C7 1.073 1_555 1_555
H9 C8 1.011 1_555 1_555
H10 C9 0.939 1_555 1_555
H11 C10 0.939 1_555 1_555
H12 C11 1.151 1_555 1_555
H13 C12 0.976 1_555 1_555
H14 C13 0.953 1_555 1_555
H15 C14 1.023 1_555 1_555
H16 C15 0.980 1_555 1_555
C16 C17 1.423 1_555 1_555
C20 C21 1.486 1_555 1_555
C20 C22 1.391 1_555 1_555
C21 C23 1.392 1_555 1_555
#END
