
#######################################################################
#
#                 Cambridge Crystallographic Data Centre
#                                CCDC
#
#######################################################################
#
# If this CIF has been generated from an entry in the Cambridge
# Structural Database, then it will include bibliographic, chemical,
# crystal, experimental, refinement or atomic coordinate data resulting
# from the CCDC's data processing and validation procedures.
#
#######################################################################

data_CSD_CIF_UDIPAB
_audit_creation_date 2018-07-27
_audit_creation_method CSD-ConQuest-V1
_database_code_CSD UDIPAB
_database_code_depnum_ccdc_archive 'CCDC 1835454'
_chemical_formula_sum 'C40 H28'
_chemical_formula_moiety
;
C40 H28
;
_journal_coden_Cambridge 1499
_journal_volume 8
_journal_year 2018
_journal_page_first 6079
_journal_name_full 'ACS Catalysis '
loop_
_publ_author_name
"L.D.M.Nicholls"
"M.Marx"
"T.Hartung"
"E.Gonzalez-Fernandez"
"C.Golz"
"M.Alcarazo"
_chemical_name_systematic
;
5,10-bis((4-methylphenyl)methylidene)-5,10-dihydrofluoreno[3,4-c]fluorene
;
_cell_volume   2640.404
_exptl_crystal_colour 'yellow'
_exptl_crystal_density_diffrn 1.279
_exptl_crystal_description 'block'
_exptl_crystal_preparation 'chloroform'
_diffrn_ambient_temperature 100
#These two values have been output from a single CSD field.
_refine_ls_R_factor_gt 0.0399
_refine_ls_wR_factor_gt 0.0399
_symmetry_cell_setting monoclinic
_symmetry_space_group_name_H-M 'C 2/c'
_symmetry_Int_Tables_number 15
loop_
_symmetry_equiv_pos_site_id
_symmetry_equiv_pos_as_xyz
1 x,y,z
2 -x,y,1/2-z
3 1/2+x,1/2+y,z
4 1/2-x,1/2+y,1/2-z
5 -x,-y,-z
6 x,-y,-1/2+z
7 -1/2-x,-1/2-y,-z
8 -1/2+x,-1/2-y,-1/2+z
_cell_length_a 24.6931(12)
_cell_length_b 9.8945(5)
_cell_length_c 11.3008(5)
_cell_angle_alpha 90
_cell_angle_beta 107.002(1)
_cell_angle_gamma 90
_cell_formula_units_Z 4
loop_
_atom_type_symbol
_atom_type_radius_bond
C 0.68
H 0.23
loop_
_atom_site_label
_atom_site_type_symbol
_atom_site_fract_x
_atom_site_fract_y
_atom_site_fract_z
C1 C 0.45075(6) 0.91401(14) 0.68376(13)
H1 H 0.45116 1.01000 0.68540
C2 C 0.40275(6) 0.84850(14) 0.61767(13)
H2 H 0.36882 0.89715 0.58100
C3 C 0.40473(6) 0.70740(14) 0.60520(12)
C4 C 0.36111(6) 0.61763(14) 0.52585(12)
C5 C 0.39038(6) 0.48708(14) 0.52476(12)
C6 C 0.37505(6) 0.37688(14) 0.44562(13)
H3 H 0.33804 0.37078 0.38947
C7 C 0.41466(6) 0.27578(15) 0.44985(13)
H4 H 0.40445 0.19925 0.39726
C8 C 0.46943(6) 0.28596(14) 0.53099(12)
H5 H 0.49597 0.21579 0.53323
C9 C 0.48555(6) 0.39657(14) 0.60803(12)
H6 H 0.52320 0.40393 0.66103
C10 C 0.44588(5) 0.49718(13) 0.60700(12)
C11 C 0.45288(5) 0.63293(14) 0.66378(12)
C12 C 0.50000 0.69676(19) 0.75000
C13 C 0.50000 0.8422(2) 0.75000
C14 C 0.30762(6) 0.65473(15) 0.46672(13)
H7 H 0.29913 0.74848 0.46516
C15 C 0.26107(6) 0.56326(15) 0.40425(13)
C16 C 0.24748(6) 0.45528(15) 0.47005(13)
H8 H 0.26914 0.44040 0.55353
C17 C 0.20260(6) 0.36924(15) 0.41478(14)
H9 H 0.19363 0.29787 0.46206
C18 C 0.17111(6) 0.38503(15) 0.29392(14)
C19 C 0.18447(6) 0.49242(16) 0.22734(13)
H10 H 0.16356 0.50404 0.14288
C20 C 0.22779(6) 0.58295(16) 0.28206(13)
H11 H 0.23473 0.65815 0.23628
C21 C 0.12262(6) 0.29029(17) 0.23693(15)
H12 H 0.13760 0.20178 0.22337
H13 H 0.09969 0.32717 0.15761
H14 H 0.09908 0.28039 0.29278
C1A C 0.54925(6) 0.91401(14) 0.81624(13)
H1A H 0.54884 1.01000 0.81460
C2A C 0.59725(6) 0.84850(14) 0.88233(13)
H2A H 0.63118 0.89715 0.91900
C3A C 0.59527(6) 0.70740(14) 0.89480(12)
C4A C 0.63889(6) 0.61763(14) 0.97415(12)
C5A C 0.60962(6) 0.48708(14) 0.97524(12)
C6A C 0.62495(6) 0.37688(14) 1.05438(13)
H3A H 0.66196 0.37078 1.11053
C7A C 0.58534(6) 0.27578(15) 1.05015(13)
H4A H 0.59555 0.19925 1.10274
C8A C 0.53057(6) 0.28596(14) 0.96901(12)
H5A H 0.50402 0.21579 0.96677
C9A C 0.51445(6) 0.39657(14) 0.89197(12)
H6A H 0.47680 0.40393 0.83897
C10A C 0.55412(5) 0.49718(13) 0.89300(12)
C11A C 0.54712(5) 0.63293(14) 0.83622(12)
C14A C 0.69238(6) 0.65473(15) 1.03328(13)
H7A H 0.70087 0.74848 1.03484
C15A C 0.73893(6) 0.56326(15) 1.09575(13)
C16A C 0.75252(6) 0.45528(15) 1.02995(13)
H8A H 0.73086 0.44040 0.94647
C17A C 0.79740(6) 0.36924(15) 1.08522(14)
H9A H 0.80637 0.29787 1.03794
C18A C 0.82889(6) 0.38503(15) 1.20608(14)
C19A C 0.81553(6) 0.49242(16) 1.27266(13)
H10A H 0.83644 0.50404 1.35712
C20A C 0.77221(6) 0.58295(16) 1.21794(13)
H11A H 0.76527 0.65815 1.26371
C21A C 0.87738(6) 0.29029(17) 1.26307(15)
H12A H 0.86240 0.20178 1.27663
H13A H 0.90031 0.32717 1.34239
H14A H 0.90092 0.28039 1.20722
loop_
_geom_bond_atom_site_label_1
_geom_bond_atom_site_label_2
_geom_bond_distance
_geom_bond_site_symmetry_1
_geom_bond_site_symmetry_2
C1 H1 0.950 1_555 1_555
C2 C1 1.366 1_555 1_555
H2 C2 0.950 1_555 1_555
C3 C2 1.405 1_555 1_555
C4 C3 1.479 1_555 1_555
C5 C4 1.482 1_555 1_555
C6 C5 1.391 1_555 1_555
H3 C6 0.950 1_555 1_555
C7 C6 1.390 1_555 1_555
H4 C7 0.950 1_555 1_555
C8 C7 1.398 1_555 1_555
H5 C8 0.950 1_555 1_555
C9 C8 1.383 1_555 1_555
H6 C9 0.950 1_555 1_555
C10 C5 1.417 1_555 1_555
C11 C3 1.391 1_555 1_555
C12 C11 1.428 1_555 1_555
C13 C1 1.418 1_555 1_555
C14 C4 1.345 1_555 1_555
H7 C14 0.950 1_555 1_555
C15 C14 1.471 1_555 1_555
C16 C15 1.397 1_555 1_555
H8 C16 0.950 1_555 1_555
C17 C16 1.392 1_555 1_555
H9 C17 0.950 1_555 1_555
C18 C17 1.369 1_555 1_555
C19 C18 1.396 1_555 1_555
H10 C19 0.950 1_555 1_555
C20 C15 1.399 1_555 1_555
H11 C20 0.950 1_555 1_555
C21 C18 1.509 1_555 1_555
H12 C21 0.980 1_555 1_555
H13 C21 0.980 1_555 1_555
H14 C21 0.980 1_555 1_555
C1A C13 1.418 1_555 1_555
H1A C1A 0.950 1_555 1_555
C2A C1A 1.366 1_555 1_555
H2A C2A 0.950 1_555 1_555
C3A C2A 1.405 1_555 1_555
C4A C3A 1.479 1_555 1_555
C5A C4A 1.482 1_555 1_555
C6A C5A 1.391 1_555 1_555
H3A C6A 0.950 1_555 1_555
C7A C6A 1.390 1_555 1_555
H4A C7A 0.950 1_555 1_555
C8A C7A 1.398 1_555 1_555
H5A C8A 0.950 1_555 1_555
C9A C8A 1.383 1_555 1_555
H6A C9A 0.950 1_555 1_555
C10A C5A 1.417 1_555 1_555
C11A C12 1.428 1_555 1_555
C14A C4A 1.345 1_555 1_555
H7A C14A 0.950 1_555 1_555
C15A C14A 1.471 1_555 1_555
C16A C15A 1.397 1_555 1_555
H8A C16A 0.950 1_555 1_555
C17A C16A 1.392 1_555 1_555
H9A C17A 0.950 1_555 1_555
C18A C17A 1.369 1_555 1_555
C19A C18A 1.396 1_555 1_555
H10A C19A 0.950 1_555 1_555
C20A C15A 1.399 1_555 1_555
H11A C20A 0.950 1_555 1_555
C21A C18A 1.509 1_555 1_555
H12A C21A 0.980 1_555 1_555
H13A C21A 0.980 1_555 1_555
H14A C21A 0.980 1_555 1_555
C9 C10 1.394 1_555 1_555
C10 C11 1.477 1_555 1_555
C12 C13 1.439 1_555 1_555
C19 C20 1.394 1_555 1_555
C3A C11A 1.391 1_555 1_555
C9A C10A 1.394 1_555 1_555
C10A C11A 1.477 1_555 1_555
C19A C20A 1.394 1_555 1_555
#END
