
#######################################################################
#
#                 Cambridge Crystallographic Data Centre
#                                CCDC
#
#######################################################################
#
# If this CIF has been generated from an entry in the Cambridge
# Structural Database, then it will include bibliographic, chemical,
# crystal, experimental, refinement or atomic coordinate data resulting
# from the CCDC's data processing and validation procedures.
#
#######################################################################

data_CSD_CIF_UFUBAA
_audit_creation_date 2013-08-02
_audit_creation_method CSD-ConQuest-V1
_database_code_CSD UFUBAA
_database_code_depnum_ccdc_archive 'CCDC 927619'
_chemical_formula_sum 'C32 H30'
_chemical_formula_moiety
;
C32 H30
;
_journal_coden_Cambridge 1291
_journal_year 2013
_journal_page_first 5829
_journal_name_full 'Eur.J.Org.Chem. '
loop_
_publ_author_name
"Jian-Yong Hu"
"Xing Feng"
"A.Paudel"
"H.Tomiyasu"
"U.Rayhan"
"P.Thuery"
"M.R.J.Elsegood"
"C.Redshaw"
"T.Yamato"
_chemical_name_systematic
;
7-t-Butyl-1,3,12,14-tetramethyldibenzo[ij,no]tetraphene
;
_cell_volume   1098.352
_exptl_crystal_colour 'yellow'
_exptl_crystal_density_diffrn 1.253
_exptl_crystal_description 'tablet'
_diffrn_ambient_temperature 150
#These two values have been output from a single CSD field.
_refine_ls_R_factor_gt 0.049
_refine_ls_wR_factor_gt 0.049
_symmetry_cell_setting triclinic
_symmetry_space_group_name_H-M 'P -1'
_symmetry_Int_Tables_number 2
loop_
_symmetry_equiv_pos_site_id
_symmetry_equiv_pos_as_xyz
1 x,y,z
2 -x,-y,-z
_cell_length_a 8.2687(5)
_cell_length_b 8.4703(5)
_cell_length_c 16.9751(11)
_cell_angle_alpha 98.2723(9)
_cell_angle_beta 91.1145(9)
_cell_angle_gamma 110.5735(9)
_cell_formula_units_Z 2
loop_
_atom_type_symbol
_atom_type_radius_bond
C 0.68
H 0.23
loop_
_atom_site_label
_atom_site_type_symbol
_atom_site_fract_x
_atom_site_fract_y
_atom_site_fract_z
C1 C 0.36492(11) 0.96673(10) 0.23655(5)
C2 C 0.48882(11) 0.89725(11) 0.20366(5)
C3 C 0.58118(12) 0.96110(11) 0.13819(5)
C4 C 0.69274(12) 0.88404(12) 0.10241(5)
H1 H 0.7589(18) 0.9390(17) 0.0558(8)
C5 C 0.71416(12) 0.74347(11) 0.12822(5)
C6 C 0.61917(12) 0.67950(11) 0.19165(5)
H2 H 0.6290(16) 0.5753(16) 0.2095(8)
C7 C 0.50892(11) 0.75366(11) 0.23070(5)
C8 C 0.42316(11) 0.69627(11) 0.30161(5)
C9 C 0.32780(11) 0.78629(10) 0.34259(5)
C10 C 0.26869(11) 0.89742(10) 0.30035(5)
C11 C 0.11130(11) 0.92409(11) 0.31283(5)
C12 C 0.07410(12) 1.04322(12) 0.27333(5)
H3 H -0.0392(17) 1.0598(16) 0.2816(8)
C13 C 0.18202(12) 1.13515(12) 0.22124(5)
C14 C 0.32801(12) 1.09290(11) 0.20006(5)
C15 C 0.43269(13) 1.16280(12) 0.13792(6)
H4 H 0.4106(17) 1.2550(17) 0.1143(8)
C16 C 0.55369(13) 1.10042(12) 0.10848(6)
H5 H 0.6271(17) 1.1501(17) 0.0643(8)
C17 C 0.43508(12) 0.55045(11) 0.33082(5)
H6 H 0.4921(16) 0.4758(15) 0.2992(7)
C18 C 0.36182(12) 0.50279(11) 0.39886(5)
H7 H 0.3639(17) 0.3968(16) 0.4163(8)
C19 C 0.29631(11) 0.61190(11) 0.44962(5)
C20 C 0.25435(12) 0.57770(11) 0.52727(5)
H8 H 0.2569(16) 0.4669(16) 0.5437(8)
C21 C 0.22276(12) 0.69617(12) 0.58290(5)
C22 C 0.23799(12) 0.85490(12) 0.56033(5)
H9 H 0.2356(16) 0.9502(16) 0.6019(8)
C23 C 0.27140(11) 0.89248(11) 0.48430(5)
C24 C 0.29121(11) 0.76379(11) 0.42427(5)
C25 C 0.83152(12) 0.65662(12) 0.08607(5)
C26 C 0.98691(14) 0.78779(14) 0.05486(7)
H10 H 0.9529(19) 0.8484(19) 0.0136(9)
H11 H 1.065(2) 0.7274(19) 0.0291(9)
H12 H 1.057(2) 0.876(2) 0.0984(10)
C27 C 0.72464(13) 0.52489(12) 0.01482(6)
H13 H 0.6767(17) 0.5819(16) -0.0238(8)
H14 H 0.6235(17) 0.4373(16) 0.0329(8)
H15 H 0.7980(19) 0.4649(18) -0.0132(9)
C28 C 0.90200(15) 0.56433(15) 0.14206(6)
H16 H 0.9858(18) 0.5159(17) 0.1149(8)
H17 H 0.8086(19) 0.4632(18) 0.1583(8)
H18 H 0.965(2) 0.6422(19) 0.1905(9)
C29 C -0.02876(12) 0.81883(13) 0.35968(6)
H19 H -0.0271(16) 0.8740(16) 0.4171(8)
H20 H -0.0196(18) 0.7041(17) 0.3642(8)
H21 H -0.1447(17) 0.7984(16) 0.3332(7)
C30 C 0.13103(15) 1.26110(14) 0.18171(6)
H22 H 0.021(2) 1.267(2) 0.1986(10)
H23 H 0.108(2) 1.226(2) 0.1229(10)
H24 H 0.218(2) 1.374(2) 0.1899(10)
C31 C 0.18413(16) 0.66531(14) 0.66674(6)
H25 H 0.053(2) 0.6245(18) 0.6717(9)
H26 H 0.2392(18) 0.7699(18) 0.7038(8)
H27 H 0.223(2) 0.5736(19) 0.6827(9)
C32 C 0.30866(12) 1.07610(11) 0.47307(5)
H28 H 0.2062(16) 1.0954(15) 0.4498(7)
H29 H 0.4066(17) 1.1180(16) 0.4380(8)
H30 H 0.3510(16) 1.1511(16) 0.5240(8)
loop_
_geom_bond_atom_site_label_1
_geom_bond_atom_site_label_2
_geom_bond_distance
_geom_bond_site_symmetry_1
_geom_bond_site_symmetry_2
C1 C2 1.435 1_555 1_555
C2 C3 1.424 1_555 1_555
C3 C4 1.406 1_555 1_555
C4 H1 1.042 1_555 1_555
C5 C4 1.392 1_555 1_555
C6 C5 1.404 1_555 1_555
H2 C6 1.002 1_555 1_555
C7 C2 1.420 1_555 1_555
C8 C7 1.465 1_555 1_555
C9 C8 1.407 1_555 1_555
C10 C1 1.428 1_555 1_555
C11 C10 1.412 1_555 1_555
C12 C11 1.403 1_555 1_555
H3 C12 1.004 1_555 1_555
C13 C12 1.387 1_555 1_555
C14 C1 1.425 1_555 1_555
C15 C14 1.438 1_555 1_555
H4 C15 0.996 1_555 1_555
C16 C3 1.433 1_555 1_555
H5 C16 1.018 1_555 1_555
C17 C8 1.429 1_555 1_555
H6 C17 1.016 1_555 1_555
C18 C17 1.361 1_555 1_555
H7 C18 0.990 1_555 1_555
C19 C18 1.425 1_555 1_555
C20 C19 1.414 1_555 1_555
H8 C20 1.024 1_555 1_555
C21 C20 1.374 1_555 1_555
C22 C21 1.415 1_555 1_555
H9 C22 0.999 1_555 1_555
C23 C22 1.383 1_555 1_555
C24 C9 1.450 1_555 1_555
C25 C5 1.540 1_555 1_555
C26 C25 1.536 1_555 1_555
H10 C26 1.015 1_555 1_555
H11 C26 1.024 1_555 1_555
H12 C26 0.980 1_555 1_555
C27 C25 1.538 1_555 1_555
H13 C27 1.018 1_555 1_555
H14 C27 0.992 1_555 1_555
H15 C27 1.005 1_555 1_555
C28 C25 1.538 1_555 1_555
H16 C28 1.009 1_555 1_555
H17 C28 1.009 1_555 1_555
H18 C28 0.984 1_555 1_555
C29 C11 1.511 1_555 1_555
H19 C29 1.016 1_555 1_555
H20 C29 1.014 1_555 1_555
H21 C29 0.998 1_555 1_555
C30 C13 1.509 1_555 1_555
H22 C30 0.975 1_555 1_555
H23 C30 0.994 1_555 1_555
H24 C30 0.962 1_555 1_555
C31 C21 1.504 1_555 1_555
H25 C31 1.025 1_555 1_555
H26 C31 0.966 1_555 1_555
H27 C31 1.006 1_555 1_555
C32 C23 1.517 1_555 1_555
H28 C32 1.002 1_555 1_555
H29 C32 1.007 1_555 1_555
H30 C32 0.973 1_555 1_555
C6 C7 1.404 1_555 1_555
C9 C10 1.464 1_555 1_555
C13 C14 1.414 1_555 1_555
C15 C16 1.358 1_555 1_555
C19 C24 1.428 1_555 1_555
C23 C24 1.437 1_555 1_555
#END
