
#######################################################################
#
#                 Cambridge Crystallographic Data Centre
#                                CCDC
#
#######################################################################
#
# If this CIF has been generated from an entry in the Cambridge
# Structural Database, then it will include bibliographic, chemical,
# crystal, experimental, refinement or atomic coordinate data resulting
# from the CCDC's data processing and validation procedures.
#
#######################################################################

data_CSD_CIF_UKISOX01
_audit_creation_date 2011-03-25
_audit_creation_method CSD-ConQuest-V1
_database_code_CSD UKISOX01
_database_code_depnum_ccdc_archive 'CCDC 810853'
_chemical_formula_sum 'C30 H26'
_chemical_formula_moiety
;
C30 H26
;
_journal_coeditor_code "IUCr BK5096"
_journal_coden_Cambridge 622
_journal_volume 66
_journal_year 2010
_journal_page_first 622
_journal_name_full 'Acta Crystallogr.,Sect.B:Struct.Sci. '
loop_
_publ_author_name
"J.Frey"
"S.I.Khan"
"C.B.Knobler"
"D.A.Lightner"
"E.F.Maverick"
"D.J.Phillips"
"Z.Rappoport"
"K.N.Trueblood"
_chemical_name_systematic
;
trans-1-(4-t-Butylphenyl)-2-(2-benzo[c]phenanthrenyl)ethylene
;
_cell_volume   2101.488
_exptl_crystal_colour 'colorless'
_exptl_crystal_density_diffrn 1.222
_exptl_crystal_description 'plate'
_diffrn_ambient_temperature 100
_refine_special_details
;
high order refinement

;
#These two values have been output from a single CSD field.
_refine_ls_R_factor_gt 0.057
_refine_ls_wR_factor_gt 0.057
_symmetry_cell_setting monoclinic
_symmetry_space_group_name_H-M 'P 21/c'
_symmetry_Int_Tables_number 14
loop_
_symmetry_equiv_pos_site_id
_symmetry_equiv_pos_as_xyz
1 x,y,z
2 -x,1/2+y,1/2-z
3 -x,-y,-z
4 x,-1/2-y,-1/2+z
_cell_length_a 15.8912(15)
_cell_length_b 15.3430(14)
_cell_length_c 8.6285(8)
_cell_angle_alpha 90
_cell_angle_beta 92.680(2)
_cell_angle_gamma 90
_cell_formula_units_Z 4
loop_
_atom_type_symbol
_atom_type_radius_bond
C 0.68
H 0.23
loop_
_atom_site_label
_atom_site_type_symbol
_atom_site_fract_x
_atom_site_fract_y
_atom_site_fract_z
C1 C 1.02200 0.16470 0.50180
H1 H 1.00550 0.19490 0.40930
C2 C 1.09900 0.12010 0.51020
C3 C 1.12020 0.07770 0.64850
H2 H 1.17220 0.04720 0.65880
C4 C 1.06750 0.07880 0.77210
H3 H 1.08430 0.04920 0.86520
C5 C 0.93670 0.12100 0.89670
H4 H 0.96260 0.10300 0.99290
C6 C 0.85520 0.14240 0.89780
H5 H 0.82880 0.16090 0.80220
C7 C 0.83740 0.13520 1.18700
H6 H 0.89660 0.12970 1.20510
C8 C 0.78620 0.13860 1.30930
H7 H 0.81070 0.13800 1.41190
C9 C 0.64630 0.15590 1.41670
H8 H 0.67090 0.15470 1.51920
C10 C 0.56260 0.16980 1.39320
H9 H 0.53000 0.18530 1.47860
C11 C 0.43350 0.17360 1.22480
H10 H 0.40290 0.19120 1.31160
C12 C 0.39180 0.16020 1.08710
H11 H 0.33330 0.17270 1.07640
C13 C 0.38850 0.10530 0.81890
H12 H 0.32980 0.11700 0.80970
C14 C 0.42690 0.06720 0.69770
H13 H 0.39590 0.05480 0.60350
C15 C 0.51290 0.04670 0.71460
H14 H 0.53940 0.01730 0.63310
C16 C 0.55920 0.06850 0.84670
H15 H 0.61710 0.05300 0.85560
C17 C 0.52290 0.11360 0.97090
C18 C 0.43430 0.12780 0.95780
C19 C 0.56910 0.13850 1.11370
C20 C 0.52240 0.16180 1.24280
C21 C 0.66040 0.13950 1.13460
C22 C 0.69770 0.14290 1.28730
C23 C 0.71600 0.14310 1.01040
H16 H 0.69270 0.14800 0.90740
C24 C 0.80270 0.13990 1.03320
C25 C 0.96930 0.16570 0.62480
H17 H 0.91760 0.19670 0.61490
C26 C 0.99040 0.12230 0.76320
C27 C 1.15870 0.12330 0.37560
C28 C 1.21850 0.04490 0.37850
H18 H 1.18550 -0.00910 0.37260
H19 H 1.25350 0.04550 0.47500
H20 H 1.25460 0.04810 0.28970
C29 C 1.10990 0.12260 0.21830
H21 H 1.07530 0.17530 0.20800
H22 H 1.07360 0.07100 0.21130
H23 H 1.14970 0.12100 0.13490
C30 C 1.21010 0.20750 0.39170
H24 H 1.24750 0.21230 0.30490
H25 H 1.24390 0.20650 0.48960
H26 H 1.17190 0.25760 0.39090
loop_
_geom_bond_atom_site_label_1
_geom_bond_atom_site_label_2
_geom_bond_distance
_geom_bond_site_symmetry_1
_geom_bond_site_symmetry_2
C1 H1 0.949 1_555 1_555
C2 C1 1.401 1_555 1_555
C3 C2 1.387 1_555 1_555
H2 C3 0.950 1_555 1_555
C4 C3 1.387 1_555 1_555
H3 C4 0.950 1_555 1_555
C5 H4 0.950 1_555 1_555
C6 C5 1.337 1_555 1_555
H5 C6 0.951 1_555 1_555
C7 H6 0.950 1_555 1_555
C8 C7 1.363 1_555 1_555
H7 C8 0.950 1_555 1_555
C9 H8 0.950 1_555 1_555
C10 C9 1.353 1_555 1_555
H9 C10 0.951 1_555 1_555
C11 H10 0.951 1_555 1_555
C12 C11 1.349 1_555 1_555
H11 C12 0.949 1_555 1_555
C13 H12 0.950 1_555 1_555
C14 C13 1.367 1_555 1_555
H13 C14 0.950 1_555 1_555
C15 C14 1.403 1_555 1_555
H14 C15 0.950 1_555 1_555
C16 C15 1.369 1_555 1_555
H15 C16 0.950 1_555 1_555
C17 C16 1.421 1_555 1_555
C18 C12 1.421 1_555 1_555
C19 C17 1.456 1_555 1_555
C20 C10 1.425 1_555 1_555
C21 C19 1.454 1_555 1_555
C22 C8 1.412 1_555 1_555
C23 C21 1.422 1_555 1_555
H16 C23 0.950 1_555 1_555
C24 C6 1.468 1_555 1_555
C25 C1 1.382 1_555 1_555
H17 C25 0.950 1_555 1_555
C26 C4 1.394 1_555 1_555
C27 C2 1.534 1_555 1_555
C28 C27 1.532 1_555 1_555
H18 C28 0.981 1_555 1_555
H19 C28 0.980 1_555 1_555
H20 C28 0.980 1_555 1_555
C29 C27 1.531 1_555 1_555
H21 C29 0.980 1_555 1_555
H22 C29 0.980 1_555 1_555
H23 C29 0.980 1_555 1_555
C30 C27 1.531 1_555 1_555
H24 C30 0.980 1_555 1_555
H25 C30 0.980 1_555 1_555
H26 C30 0.979 1_555 1_555
C5 C26 1.465 1_555 1_555
C7 C24 1.415 1_555 1_555
C9 C22 1.428 1_555 1_555
C11 C20 1.426 1_555 1_555
C13 C18 1.416 1_555 1_555
C17 C18 1.424 1_555 1_555
C19 C20 1.413 1_555 1_555
C21 C22 1.420 1_555 1_555
C23 C24 1.383 1_555 1_555
C25 C26 1.394 1_555 1_555
#END
