
#######################################################################
#
#                 Cambridge Crystallographic Data Centre
#                                CCDC
#
#######################################################################
#
# If this CIF has been generated from an entry in the Cambridge
# Structural Database, then it will include bibliographic, chemical,
# crystal, experimental, refinement or atomic coordinate data resulting
# from the CCDC's data processing and validation procedures.
#
#######################################################################

data_CSD_CIF_UNASEI
_audit_creation_date 2011-04-26
_audit_creation_method CSD-ConQuest-V1
_database_code_CSD UNASEI
_database_code_depnum_ccdc_archive 'CCDC 753334'
_chemical_formula_sum 'C42 H28'
_chemical_formula_moiety
;
C42 H28
;
_journal_coden_Cambridge 1475
_journal_volume 2
_journal_year 2011
_journal_page_first 672
_journal_name_full 'Chemical Science '
loop_
_publ_author_name
"Zujin Zhao"
"Ping Lu"
"J.W.Y.Lam"
"Zhimimng Wang"
"C.Y.K.Chan"
"H.H.Y.Sung"
"I.D.Williams"
"Yuguang Ma"
"B.Z.Tang"
_chemical_name_systematic
;
1-(4-(Triphenylvinyl)phenyl)pyrene
;
_cell_volume   5679.756
_exptl_crystal_colour 'colorless'
_exptl_crystal_density_diffrn 1.246
_exptl_crystal_description 'plate'
_diffrn_ambient_temperature 173
#These two values have been output from a single CSD field.
_refine_ls_R_factor_gt 0.0553
_refine_ls_wR_factor_gt 0.0553
_symmetry_cell_setting monoclinic
_symmetry_space_group_name_H-M 'I 2/a'
_symmetry_Int_Tables_number 15
loop_
_symmetry_equiv_pos_site_id
_symmetry_equiv_pos_as_xyz
1 x,y,z
2 1/2-x,y,-z
3 1/2+x,1/2+y,1/2+z
4 -x,1/2+y,1/2-z
5 -x,-y,-z
6 -1/2+x,-y,z
7 -1/2-x,-1/2-y,-1/2-z
8 x,-1/2-y,-1/2+z
_cell_length_a 16.7865(17)
_cell_length_b 9.2933(6)
_cell_length_c 36.414(5)
_cell_angle_alpha 90
_cell_angle_beta 91.020(12)
_cell_angle_gamma 90
_cell_formula_units_Z 8
loop_
_atom_type_symbol
_atom_type_radius_bond
C 0.68
H 0.23
loop_
_atom_site_label
_atom_site_type_symbol
_atom_site_fract_x
_atom_site_fract_y
_atom_site_fract_z
C1 C 0.55485(17) 0.1310(3) 0.16920(9)
C2 C 0.53633(18) 0.0098(3) 0.19070(9)
H1 H 0.51190 -0.07140 0.17930
C3 C 0.55265(18) 0.0066(3) 0.22729(9)
H2 H 0.53910 -0.07730 0.24070
C4 C 0.58871(17) 0.1216(3) 0.24620(9)
C5 C 0.61072(17) 0.2397(3) 0.22415(9)
H3 H 0.63730 0.31890 0.23540
C6 C 0.59513(17) 0.2436(3) 0.18758(9)
H4 H 0.61190 0.32480 0.17390
C7 C 0.52820(19) 0.1440(3) 0.13106(8)
C8 C 0.59144(18) 0.1578(3) 0.10264(9)
C9 C 0.65399(19) 0.0586(3) 0.10176(10)
H5 H 0.65700 -0.01610 0.11950
C10 C 0.7113(2) 0.0688(4) 0.07519(10)
H6 H 0.75270 -0.00080 0.07440
C11 C 0.7092(2) 0.1783(4) 0.04986(10)
H7 H 0.74870 0.18410 0.03160
C12 C 0.6490(2) 0.2803(4) 0.0511(1)
H8 H 0.64800 0.35740 0.03400
C13 C 0.59079(19) 0.2696(3) 0.07715(9)
H9 H 0.54960 0.33960 0.07770
C14 C 0.4500(2) 0.1401(3) 0.12142(9)
C15 C 0.42052(18) 0.1338(3) 0.08326(9)
C16 C 0.43946(19) 0.0208(3) 0.05967(9)
H10 H 0.47350 -0.05390 0.06840
C17 C 0.4103(2) 0.0148(4) 0.02443(10)
H11 H 0.42330 -0.06470 0.00930
C18 C 0.3621(2) 0.1235(4) 0.01067(10)
H12 H 0.34190 0.12000 -0.01390
C19 C 0.3438(2) 0.2375(4) 0.03343(10)
H13 H 0.31220 0.31440 0.02410
C20 C 0.37022(19) 0.2417(3) 0.06885(9)
H14 H 0.35440 0.31890 0.08420
C21 C 0.38852(18) 0.1334(3) 0.15059(9)
C22 C 0.33536(18) 0.0191(3) 0.15200(9)
H15 H 0.33640 -0.05270 0.13340
C23 C 0.28096(19) 0.0077(4) 0.17992(9)
H16 H 0.24620 -0.07280 0.18080
C24 C 0.27693(19) 0.1129(4) 0.20656(9)
H17 H 0.23980 0.10540 0.22590
C25 C 0.32826(18) 0.2300(3) 0.20463(9)
H18 H 0.32570 0.30380 0.22260
C26 C 0.38280(18) 0.2401(3) 0.17692(9)
H19 H 0.41700 0.32140 0.17590
C27 C 0.60031(18) 0.1220(3) 0.28584(9)
C28 C 0.53445(18) 0.1245(3) 0.31003(9)
C29 C 0.45379(18) 0.1290(3) 0.29643(9)
H20 H 0.44350 0.12520 0.27070
C30 C 0.39215(19) 0.1385(3) 0.31983(10)
H21 H 0.33930 0.14240 0.31010
C31 C 0.4041(2) 0.1428(3) 0.3580(1)
C32 C 0.4829(2) 0.1370(3) 0.37311(10)
C33 C 0.5486(2) 0.1277(3) 0.34800(9)
C34 C 0.6280(2) 0.1246(3) 0.36312(10)
C35 C 0.6914(2) 0.1225(4) 0.33866(10)
H22 H 0.74460 0.12150 0.34790
C36 C 0.67722(19) 0.1220(3) 0.30153(10)
H23 H 0.72150 0.12170 0.28570
C37 C 0.3415(2) 0.1563(3) 0.38330(12)
H24 H 0.28810 0.16040 0.37430
C38 C 0.3558(3) 0.1634(4) 0.41993(13)
H25 H 0.31220 0.17340 0.43600
C39 C 0.4328(3) 0.1566(4) 0.43469(12)
H26 H 0.44140 0.16120 0.46050
C40 C 0.4977(3) 0.1428(4) 0.41113(11)
C41 C 0.5780(3) 0.1373(4) 0.42500(11)
H27 H 0.58800 0.13960 0.45070
C42 C 0.6395(2) 0.1288(4) 0.40162(11)
H28 H 0.69230 0.12560 0.41140
loop_
_geom_bond_atom_site_label_1
_geom_bond_atom_site_label_2
_geom_bond_distance
_geom_bond_site_symmetry_1
_geom_bond_site_symmetry_2
C1 C2 1.410 1_555 1_555
C2 H1 0.951 1_555 1_555
C3 C2 1.356 1_555 1_555
H2 C3 0.950 1_555 1_555
C4 C3 1.403 1_555 1_555
C5 C4 1.413 1_555 1_555
H3 C5 0.950 1_555 1_555
C6 C1 1.409 1_555 1_555
H4 C6 0.950 1_555 1_555
C7 C1 1.457 1_555 1_555
C8 C7 1.501 1_555 1_555
C9 C8 1.398 1_555 1_555
H5 C9 0.949 1_555 1_555
C10 C9 1.380 1_555 1_555
H6 C10 0.950 1_555 1_555
C11 C10 1.373 1_555 1_555
H7 C11 0.949 1_555 1_555
C12 C11 1.387 1_555 1_555
H8 C12 0.949 1_555 1_555
C13 C8 1.393 1_555 1_555
H9 C13 0.950 1_555 1_555
C14 C7 1.353 1_555 1_555
C15 C14 1.468 1_555 1_555
C16 C15 1.397 1_555 1_555
H10 C16 0.950 1_555 1_555
C17 C16 1.366 1_555 1_555
H11 C17 0.949 1_555 1_555
C18 C17 1.383 1_555 1_555
H12 C18 0.952 1_555 1_555
C19 C18 1.383 1_555 1_555
H13 C19 0.949 1_555 1_555
C20 C15 1.406 1_555 1_555
H14 C20 0.950 1_555 1_555
C21 C14 1.495 1_555 1_555
C22 C21 1.389 1_555 1_555
H15 C22 0.951 1_555 1_555
C23 C22 1.383 1_555 1_555
H16 C23 0.950 1_555 1_555
C24 C23 1.380 1_555 1_555
H17 C24 0.951 1_555 1_555
C25 C24 1.391 1_555 1_555
H18 C25 0.949 1_555 1_555
C26 C21 1.384 1_555 1_555
H19 C26 0.950 1_555 1_555
C27 C4 1.453 1_555 1_555
C28 C27 1.426 1_555 1_555
C29 C28 1.434 1_555 1_555
H20 C29 0.950 1_555 1_555
C30 C29 1.355 1_555 1_555
H21 C30 0.950 1_555 1_555
C31 C30 1.401 1_555 1_555
C32 C31 1.425 1_555 1_555
C33 C28 1.399 1_555 1_555
C34 C33 1.433 1_555 1_555
C35 C34 1.400 1_555 1_555
H22 C35 0.949 1_555 1_555
C36 C27 1.402 1_555 1_555
H23 C36 0.949 1_555 1_555
C37 C31 1.415 1_555 1_555
H24 C37 0.950 1_555 1_555
C38 C37 1.353 1_555 1_555
H25 C38 0.950 1_555 1_555
C39 C38 1.392 1_555 1_555
H26 C39 0.949 1_555 1_555
C40 C32 1.403 1_555 1_555
C41 C40 1.432 1_555 1_555
H27 C41 0.948 1_555 1_555
C42 C34 1.412 1_555 1_555
H28 C42 0.950 1_555 1_555
C5 C6 1.353 1_555 1_555
C12 C13 1.378 1_555 1_555
C19 C20 1.357 1_555 1_555
C25 C26 1.378 1_555 1_555
C32 C33 1.448 1_555 1_555
C35 C36 1.369 1_555 1_555
C39 C40 1.405 1_555 1_555
C41 C42 1.352 1_555 1_555
#END
