
#######################################################################
#
#                 Cambridge Crystallographic Data Centre
#                                CCDC
#
#######################################################################
#
# If this CIF has been generated from an entry in the Cambridge
# Structural Database, then it will include bibliographic, chemical,
# crystal, experimental, refinement or atomic coordinate data resulting
# from the CCDC's data processing and validation procedures.
#
#######################################################################

data_CSD_CIF_UNASIM
_audit_creation_date 2011-04-26
_audit_creation_method CSD-ConQuest-V1
_database_code_CSD UNASIM
_database_code_depnum_ccdc_archive 'CCDC 753335'
_chemical_formula_sum 'C40 H28'
_chemical_formula_moiety
;
C40 H28
;
_journal_coden_Cambridge 1475
_journal_volume 2
_journal_year 2011
_journal_page_first 672
_journal_name_full 'Chemical Science '
loop_
_publ_author_name
"Zujin Zhao"
"Ping Lu"
"J.W.Y.Lam"
"Zhimimng Wang"
"C.Y.K.Chan"
"H.H.Y.Sung"
"I.D.Williams"
"Yuguang Ma"
"B.Z.Tang"
_chemical_name_systematic
;
9-(4-(Triphenylvinyl)phenyl)anthracene
;
_cell_volume   1397.039
_exptl_crystal_colour 'colorless'
_exptl_crystal_density_diffrn 1.209
_exptl_crystal_description 'plate'
_diffrn_ambient_temperature 173
#These two values have been output from a single CSD field.
_refine_ls_R_factor_gt 0.0378
_refine_ls_wR_factor_gt 0.0378
_symmetry_cell_setting triclinic
_symmetry_space_group_name_H-M 'P -1'
_symmetry_Int_Tables_number 2
loop_
_symmetry_equiv_pos_site_id
_symmetry_equiv_pos_as_xyz
1 x,y,z
2 -x,-y,-z
_cell_length_a 9.4850(8)
_cell_length_b 9.6830(9)
_cell_length_c 15.5796(14)
_cell_angle_alpha 79.592(8)
_cell_angle_beta 83.901(7)
_cell_angle_gamma 85.662(7)
_cell_formula_units_Z 2
loop_
_atom_type_symbol
_atom_type_radius_bond
C 0.68
H 0.23
loop_
_atom_site_label
_atom_site_type_symbol
_atom_site_fract_x
_atom_site_fract_y
_atom_site_fract_z
C1 C 0.25479(13) 0.45215(14) 0.34225(8)
C2 C 0.13697(14) 0.42741(16) 0.40269(9)
H1 H 0.04440 0.44460 0.38350
C3 C 0.15249(14) 0.37790(16) 0.49060(9)
H2 H 0.07040 0.35970 0.53060
C4 C 0.28605(13) 0.35453(14) 0.52121(8)
C5 C 0.40426(13) 0.37481(15) 0.46011(9)
H3 H 0.49680 0.35690 0.47920
C6 C 0.38883(13) 0.42079(15) 0.37182(9)
H4 H 0.47080 0.43100 0.33100
C7 C 0.23867(13) 0.50954(15) 0.24765(9)
C8 C 0.27495(14) 0.40596(15) 0.18778(9)
C9 C 0.38193(17) 0.42747(17) 0.11972(10)
H5 H 0.43110 0.51170 0.10900
C10 C 0.4174(2) 0.3259(2) 0.06700(11)
H6 H 0.49120 0.34120 0.02070
C11 C 0.3470(2) 0.20365(18) 0.08117(11)
H7 H 0.37060 0.13580 0.04410
C12 C 0.24194(18) 0.18015(18) 0.14961(11)
H8 H 0.19330 0.09560 0.16010
C13 C 0.20756(15) 0.27951(16) 0.20273(10)
H9 H 0.13650 0.26150 0.25050
C14 C 0.19449(13) 0.64515(15) 0.22071(9)
C15 C 0.16511(14) 0.70245(15) 0.12794(9)
C16 C 0.22619(17) 0.82559(16) 0.08416(10)
H10 H 0.29210 0.86830 0.11150
C17 C 0.1910(2) 0.88603(18) 0.00057(10)
H11 H 0.23370 0.96930 -0.02900
C18 C 0.0947(2) 0.82599(19) -0.03957(11)
H12 H 0.06960 0.86880 -0.09610
C19 C 0.03490(19) 0.70330(19) 0.00263(11)
H13 H -0.03030 0.66050 -0.02520
C20 C 0.07031(16) 0.64263(17) 0.08583(10)
H14 H 0.02860 0.55830 0.11450
C21 C 0.16728(14) 0.74941(14) 0.28134(9)
C22 C 0.26769(16) 0.77427(17) 0.33514(10)
H15 H 0.35620 0.72140 0.33500
C23 C 0.24070(19) 0.8745(2) 0.38864(12)
H16 H 0.31030 0.88960 0.42500
C24 C 0.11283(19) 0.95281(19) 0.38928(12)
H17 H 0.09440 1.02200 0.42580
C25 C 0.01228(17) 0.93005(18) 0.33682(11)
H18 H -0.07620 0.98300 0.33780
C26 C 0.03891(15) 0.83038(16) 0.28246(10)
H19 H -0.03080 0.81700 0.24570
C27 C 0.30307(12) 0.31419(15) 0.61676(8)
C28 C 0.27488(13) 0.41579(16) 0.67153(9)
C29 C 0.23167(13) 0.55867(16) 0.63886(11)
H20 H 0.22060 0.58710 0.57820
C30 C 0.20611(15) 0.65460(19) 0.69355(12)
H21 H 0.17640 0.74870 0.67060
C31 C 0.22322(18) 0.6161(2) 0.78394(13)
H22 H 0.20490 0.68440 0.82110
C32 C 0.26551(17) 0.4829(2) 0.81777(12)
H23 H 0.27720 0.45880 0.87860
C33 C 0.29300(14) 0.37738(18) 0.76373(9)
C34 C 0.33853(15) 0.23988(19) 0.79692(10)
H24 H 0.35030 0.21470 0.85770
C35 C 0.36719(14) 0.13872(17) 0.74393(9)
C36 C 0.41665(16) -0.00222(19) 0.77729(11)
H25 H 0.42940 -0.02790 0.83790
C37 C 0.44547(17) -0.09910(19) 0.72496(11)
H26 H 0.48040 -0.19120 0.74850
C38 C 0.42391(15) -0.06437(17) 0.63484(11)
H27 H 0.44270 -0.13400 0.59860
C39 C 0.37644(14) 0.06814(15) 0.5995(1)
H28 H 0.36150 0.08940 0.53910
C40 C 0.34890(13) 0.17518(15) 0.65207(9)
loop_
_geom_bond_atom_site_label_1
_geom_bond_atom_site_label_2
_geom_bond_distance
_geom_bond_site_symmetry_1
_geom_bond_site_symmetry_2
C1 C2 1.389 1_555 1_555
C2 H1 0.951 1_555 1_555
C3 C2 1.386 1_555 1_555
H2 C3 0.951 1_555 1_555
C4 C3 1.389 1_555 1_555
C5 C4 1.393 1_555 1_555
H3 C5 0.950 1_555 1_555
C6 C1 1.392 1_555 1_555
H4 C6 0.950 1_555 1_555
C7 C1 1.498 1_555 1_555
C8 C7 1.487 1_555 1_555
C9 C8 1.386 1_555 1_555
H5 C9 0.950 1_555 1_555
C10 C9 1.392 1_555 1_555
H6 C10 0.950 1_555 1_555
C11 C10 1.375 1_555 1_555
H7 C11 0.950 1_555 1_555
C12 C11 1.379 1_555 1_555
H8 C12 0.950 1_555 1_555
C13 C8 1.395 1_555 1_555
H9 C13 0.950 1_555 1_555
C14 C7 1.353 1_555 1_555
C15 C14 1.499 1_555 1_555
C16 C15 1.396 1_555 1_555
H10 C16 0.950 1_555 1_555
C17 C16 1.392 1_555 1_555
H11 C17 0.950 1_555 1_555
C18 C17 1.377 1_555 1_555
H12 C18 0.950 1_555 1_555
C19 C18 1.381 1_555 1_555
H13 C19 0.950 1_555 1_555
C20 C15 1.384 1_555 1_555
H14 C20 0.950 1_555 1_555
C21 C14 1.494 1_555 1_555
C22 C21 1.395 1_555 1_555
H15 C22 0.950 1_555 1_555
C23 C22 1.383 1_555 1_555
H16 C23 0.950 1_555 1_555
C24 C23 1.381 1_555 1_555
H17 C24 0.950 1_555 1_555
C25 C24 1.374 1_555 1_555
H18 C25 0.950 1_555 1_555
C26 C21 1.398 1_555 1_555
H19 C26 0.950 1_555 1_555
C27 C4 1.492 1_555 1_555
C28 C27 1.408 1_555 1_555
C29 C28 1.430 1_555 1_555
H20 C29 0.950 1_555 1_555
C30 C29 1.362 1_555 1_555
H21 C30 0.950 1_555 1_555
C31 C30 1.414 1_555 1_555
H22 C31 0.950 1_555 1_555
C32 C31 1.350 1_555 1_555
H23 C32 0.950 1_555 1_555
C33 C28 1.443 1_555 1_555
C34 C33 1.392 1_555 1_555
H24 C34 0.951 1_555 1_555
C35 C34 1.385 1_555 1_555
C36 C35 1.432 1_555 1_555
H25 C36 0.950 1_555 1_555
C37 C36 1.345 1_555 1_555
H26 C37 0.950 1_555 1_555
C38 C37 1.416 1_555 1_555
H27 C38 0.950 1_555 1_555
C39 C38 1.365 1_555 1_555
H28 C39 0.950 1_555 1_555
C40 C27 1.414 1_555 1_555
C5 C6 1.387 1_555 1_555
C12 C13 1.378 1_555 1_555
C19 C20 1.388 1_555 1_555
C25 C26 1.388 1_555 1_555
C32 C33 1.430 1_555 1_555
C35 C40 1.437 1_555 1_555
C39 C40 1.426 1_555 1_555
#END
