
#######################################################################
#
#                 Cambridge Crystallographic Data Centre
#                                CCDC
#
#######################################################################
#
# If this CIF has been generated from an entry in the Cambridge
# Structural Database, then it will include bibliographic, chemical,
# crystal, experimental, refinement or atomic coordinate data resulting
# from the CCDC's data processing and validation procedures.
#
#######################################################################

data_CSD_CIF_UPIXEY
_audit_creation_date 2016-06-07
_audit_creation_method CSD-ConQuest-V1
_database_code_CSD UPIXEY
_database_code_depnum_ccdc_archive 'CCDC 1483906'
_chemical_formula_sum 'C22 H14'
_chemical_formula_moiety
;
C22 H14
;
_journal_coden_Cambridge 35
_journal_volume 81
_journal_year 2016
_journal_page_first 3983
_journal_name_full 'J.Org.Chem. '
loop_
_publ_author_name
"S.Banerjee"
"S.Sinha"
"P.Pradhan"
"A.Caruso"
"D.Liebowitz"
"D.Parrish"
"M.Rossi"
"B.Zajc"
_chemical_name_systematic
;
benzo[g]chrysene
;
_cell_volume   1392.055
_exptl_crystal_colour 'colorless'
_exptl_crystal_density_diffrn 1.328
_exptl_special_details
;
The temperature is reported as 421 K in the cif; this should probably be 148 
;
_exptl_crystal_description 'plate'
_diffrn_ambient_temperature 148
#These two values have been output from a single CSD field.
_refine_ls_R_factor_gt 0.0354
_refine_ls_wR_factor_gt 0.0354
_symmetry_cell_setting orthorhombic
_symmetry_space_group_name_H-M 'P c a 21'
_symmetry_Int_Tables_number 29
loop_
_symmetry_equiv_pos_site_id
_symmetry_equiv_pos_as_xyz
1 x,y,z
2 -x,-y,1/2+z
3 1/2+x,-y,z
4 1/2-x,y,1/2+z
_cell_length_a 25.004(14)
_cell_length_b 9.417(5)
_cell_length_c 5.912(3)
_cell_angle_alpha 90
_cell_angle_beta 90
_cell_angle_gamma 90
_cell_formula_units_Z 4
loop_
_atom_type_symbol
_atom_type_radius_bond
C 0.68
H 0.23
loop_
_atom_site_label
_atom_site_type_symbol
_atom_site_fract_x
_atom_site_fract_y
_atom_site_fract_z
C1 C 0.86116(6) 0.80584(16) 0.8990(3)
C2 C 0.82716(6) 0.83630(17) 1.0759(3)
C3 C 0.79682(7) 0.72927(18) 1.1742(3)
C4 C 0.79855(6) 0.59475(16) 1.0852(3)
C5 C 0.80172(6) 0.30721(16) 0.8861(3)
C6 C 0.79934(6) 0.17818(17) 0.7788(3)
C7 C 0.82580(6) 0.15891(17) 0.5725(3)
C8 C 0.85428(6) 0.26854(17) 0.4796(3)
C9 C 0.92488(6) 0.49085(15) 0.3022(2)
C10 C 0.96423(6) 0.58148(16) 0.2413(2)
C11 C 1.02900(6) 0.76690(16) 0.3458(3)
C12 C 1.04949(7) 0.85917(16) 0.5010(3)
C13 C 1.02302(6) 0.87943(16) 0.7072(3)
C14 C 0.97583(6) 0.80967(15) 0.7520(3)
C15 C 0.95250(6) 0.71492(14) 0.5938(3)
C16 C 0.98137(6) 0.69053(15) 0.3898(2)
C17 C 0.89552(6) 0.51026(15) 0.5073(2)
C18 C 0.90507(6) 0.63085(15) 0.6385(2)
C19 C 0.86695(6) 0.66599(15) 0.8177(2)
C20 C 0.83233(6) 0.56054(15) 0.9028(3)
C21 C 0.83109(5) 0.42131(16) 0.7947(3)
C22 C 0.85875(6) 0.40136(15) 0.5885(3)
H1 H 0.8805(6) 0.8815(16) 0.825(3)
H2 H 0.8230(7) 0.9344(18) 1.125(3)
H3 H 0.7725(7) 0.7523(17) 1.294(3)
H4 H 0.7749(6) 0.5232(16) 1.144(3)
H5 H 0.7836(7) 0.3165(17) 1.029(3)
H6 H 0.7791(7) 0.0991(19) 0.840(3)
H7 H 0.8237(7) 0.0677(19) 0.494(3)
H8 H 0.8723(7) 0.2527(17) 0.338(4)
H9 H 0.9162(7) 0.4113(19) 0.210(3)
H10 H 0.9823(7) 0.5670(18) 0.099(3)
H11 H 1.0477(7) 0.7522(18) 0.211(3)
H12 H 1.0836(7) 0.908(2) 0.471(3)
H13 H 1.0385(6) 0.9419(17) 0.823(3)
H14 H 0.9590(7) 0.8192(17) 0.902(3)
loop_
_geom_bond_atom_site_label_1
_geom_bond_atom_site_label_2
_geom_bond_distance
_geom_bond_site_symmetry_1
_geom_bond_site_symmetry_2
C1 C2 1.378 1_555 1_555
C2 C3 1.389 1_555 1_555
C3 C4 1.372 1_555 1_555
C4 C20 1.407 1_555 1_555
C5 C6 1.372 1_555 1_555
C6 C7 1.399 1_555 1_555
C7 C8 1.369 1_555 1_555
C8 C22 1.411 1_555 1_555
C9 C10 1.351 1_555 1_555
C10 C16 1.417 1_555 1_555
C11 C12 1.364 1_555 1_555
C12 C13 1.400 1_555 1_555
C13 C14 1.376 1_555 1_555
C14 C15 1.418 1_555 1_555
C15 C16 1.424 1_555 1_555
C16 C11 1.415 1_555 1_555
C17 C9 1.429 1_555 1_555
C18 C15 1.450 1_555 1_555
C19 C1 1.409 1_555 1_555
C20 C19 1.410 1_555 1_555
C21 C5 1.409 1_555 1_555
C22 C17 1.459 1_555 1_555
H1 C1 0.966 1_555 1_555
H2 C2 0.974 1_555 1_555
H3 C3 0.958 1_555 1_555
H4 C4 0.962 1_555 1_555
H5 C5 0.963 1_555 1_555
H6 C6 0.970 1_555 1_555
H7 C7 0.978 1_555 1_555
H8 C8 0.962 1_555 1_555
H9 C9 0.952 1_555 1_555
H10 C10 0.965 1_555 1_555
H11 C11 0.934 1_555 1_555
H12 C12 0.985 1_555 1_555
H13 C13 0.982 1_555 1_555
H14 C14 0.986 1_555 1_555
C17 C18 1.396 1_555 1_555
C18 C19 1.463 1_555 1_555
C20 C21 1.459 1_555 1_555
C21 C22 1.414 1_555 1_555
#END
