
#######################################################################
#
#                 Cambridge Crystallographic Data Centre
#                                CCDC
#
#######################################################################
#
# If this CIF has been generated from an entry in the Cambridge
# Structural Database, then it will include bibliographic, chemical,
# crystal, experimental, refinement or atomic coordinate data resulting
# from the CCDC's data processing and validation procedures.
#
#######################################################################

data_CSD_CIF_UWIQAU
_audit_creation_date 2016-09-12
_audit_creation_method CSD-ConQuest-V1
_database_code_CSD UWIQAU
_database_code_depnum_ccdc_archive 'CCDC 1454123'
_chemical_formula_sum 'C52 H50'
_chemical_formula_moiety
;
C52 H50
;
_journal_coden_Cambridge 1220
_journal_volume 22
_journal_year 2016
_journal_page_first 9116
_journal_name_full 'Chem.-Eur.J. '
loop_
_publ_author_name
"Gang Li"
"Ki-Young Yoon"
"Xinjue Zhong"
"X.-Y.Zhu"
"Guangbin Dong"
_chemical_name_systematic
;
2,5,11,14-tetrabutyldibenzo[ij,rst]phenanthro[9,10,1,2-defg]pentaphene
;
_cell_volume   1773.367
_exptl_crystal_colour 'yellow'
_exptl_crystal_density_diffrn 1.264
_exptl_crystal_description 'needle'
_diffrn_ambient_temperature 100
#These two values have been output from a single CSD field.
_refine_ls_R_factor_gt 0.0532
_refine_ls_wR_factor_gt 0.0532
_symmetry_cell_setting monoclinic
_symmetry_space_group_name_H-M 'P 21/c'
_symmetry_Int_Tables_number 14
loop_
_symmetry_equiv_pos_site_id
_symmetry_equiv_pos_as_xyz
1 x,y,z
2 -x,1/2+y,1/2-z
3 -x,-y,-z
4 x,-1/2-y,-1/2+z
_cell_length_a 17.0526(14)
_cell_length_b 4.8994(3)
_cell_length_c 22.5911(19)
_cell_angle_alpha 90
_cell_angle_beta 110.021(9)
_cell_angle_gamma 90
_cell_formula_units_Z 2
loop_
_atom_type_symbol
_atom_type_radius_bond
C 0.68
H 0.23
loop_
_atom_site_label
_atom_site_type_symbol
_atom_site_fract_x
_atom_site_fract_y
_atom_site_fract_z
C1 C 0.76859(11) 0.8159(3) 0.65678(8)
C2 C 0.71355(11) 0.8622(3) 0.59581(8)
H1 H 0.72630 1.00020 0.57100
C3 C 0.64007(10) 0.7113(3) 0.57022(8)
C4 C 0.62017(10) 0.5096(3) 0.60763(8)
C5 C 0.54402(10) 0.3535(3) 0.58260(8)
C6 C 0.48985(10) 0.3985(3) 0.51931(8)
C7 C 0.4160(1) 0.2417(3) 0.49439(8)
C8 C 0.39921(10) 0.0425(3) 0.53279(8)
H2 H 0.35060 -0.06690 0.51620
C9 C 0.45098(11) 0.0003(3) 0.59388(8)
H3 H 0.43710 -0.13550 0.61860
C10 C 0.52415(10) 0.1547(3) 0.62025(8)
C11 C 0.58001(10) 0.1055(3) 0.68485(8)
C12 C 0.56203(11) -0.0926(4) 0.72377(8)
H4 H 0.51090 -0.19050 0.70850
C13 C 0.61688(11) -0.1471(4) 0.78336(8)
H5 H 0.60300 -0.28010 0.80870
C14 C 0.69316(11) -0.0075(4) 0.80684(8)
C15 C 0.71027(11) 0.1909(3) 0.76982(8)
H6 H 0.76120 0.28910 0.78600
C16 C 0.65517(11) 0.2543(3) 0.70881(8)
C17 C 0.67559(10) 0.4614(3) 0.67017(8)
C18 C 0.74855(11) 0.6178(3) 0.69266(8)
H7 H 0.78580 0.58640 0.73430
C19 C 0.84922(11) 0.9747(3) 0.68130(8)
H8 H 0.87400 0.95010 0.72750
H9 H 0.83730 1.17140 0.67280
C20 C 0.91200(11) 0.8822(4) 0.65061(9)
H10 H 0.92280 0.68480 0.65870
H11 H 0.88680 0.90740 0.60450
C21 C 0.99484(11) 1.0341(4) 0.67397(9)
H12 H 1.02180 1.00150 0.71970
H13 H 0.98420 1.23250 0.66760
C22 C 1.05402(13) 0.9452(5) 0.64009(11)
H14 H 1.06700 0.75090 0.64800
H15 H 1.10560 1.05200 0.65570
H16 H 1.02740 0.97550 0.59470
C23 C 0.75525(11) -0.0760(4) 0.87118(8)
H17 H 0.81170 -0.02060 0.87270
H18 H 0.75580 -0.27610 0.87740
C24 C 0.73571(12) 0.0634(4) 0.92484(8)
H19 H 0.67910 0.00890 0.92310
H20 H 0.73540 0.26350 0.91870
C25 C 0.79784(12) -0.0056(4) 0.99010(9)
H21 H 0.77760 0.07460 1.02240
H22 H 0.79950 -0.20630 0.99560
C26 C 0.88574(14) 0.0963(5) 1.00122(10)
H23 H 0.90970 -0.00330 0.97380
H24 H 0.92020 0.06630 1.04540
H25 H 0.88410 0.29170 0.99160
C1B C 0.23141(11) 0.1841(3) 0.34322(8)
C2B C 0.28645(11) 0.1378(3) 0.40419(8)
H1B H 0.27370 -0.00020 0.42900
C3B C 0.35993(10) 0.2887(3) 0.42978(8)
C4B C 0.37983(10) 0.4904(3) 0.39237(8)
C5B C 0.45598(10) 0.6465(3) 0.41740(8)
C6B C 0.51015(10) 0.6015(3) 0.48069(8)
C7B C 0.5840(1) 0.7583(3) 0.50561(8)
C8B C 0.60079(10) 0.9575(3) 0.46721(8)
H2B H 0.64940 1.06690 0.48380
C9B C 0.54902(11) 0.9997(3) 0.40612(8)
H3B H 0.56290 1.13550 0.38140
C10B C 0.47585(10) 0.8453(3) 0.37975(8)
C11B C 0.41999(10) 0.8945(3) 0.31515(8)
C12B C 0.43797(11) 1.0926(4) 0.27623(8)
H4B H 0.48910 1.19050 0.29150
C13B C 0.38312(11) 1.1471(4) 0.21664(8)
H5B H 0.39700 1.28010 0.19130
C14B C 0.30684(11) 1.0075(4) 0.19316(8)
C15B C 0.28973(11) 0.8091(3) 0.23018(8)
H6B H 0.23880 0.71090 0.21400
C16B C 0.34483(11) 0.7457(3) 0.29119(8)
C17B C 0.32441(10) 0.5386(3) 0.32983(8)
C18B C 0.25145(11) 0.3822(3) 0.30734(8)
H7B H 0.21420 0.41360 0.26570
C19B C 0.15078(11) 0.0253(3) 0.31870(8)
H8B H 0.12600 0.04990 0.27250
H9B H 0.16270 -0.17140 0.32720
C20B C 0.08800(11) 0.1178(4) 0.34939(9)
H10B H 0.07720 0.31520 0.34130
H11B H 0.11320 0.09260 0.39550
C21B C 0.00516(11) -0.0341(4) 0.32603(9)
H12B H -0.02180 -0.00150 0.28030
H13B H 0.01580 -0.23250 0.33240
C22B C -0.05402(13) 0.0548(5) 0.35991(11)
H14B H -0.06700 0.24910 0.35200
H15B H -0.10560 -0.05200 0.34430
H16B H -0.02740 0.02450 0.40530
C23B C 0.24475(11) 1.0760(4) 0.12882(8)
H17B H 0.18830 1.02060 0.12730
H18B H 0.24420 1.27610 0.12260
C24B C 0.26429(12) 0.9366(4) 0.07516(8)
H19B H 0.32090 0.99110 0.07690
H20B H 0.26460 0.73650 0.08130
C25B C 0.20216(12) 1.0056(4) 0.00990(9)
H21B H 0.22240 0.92540 -0.02240
H22B H 0.20050 1.20630 0.00440
C26B C 0.11426(14) 0.9037(5) -0.00122(10)
H23B H 0.09030 1.00330 0.02620
H24B H 0.07980 0.93370 -0.04540
H25B H 0.11590 0.70830 0.00840
loop_
_geom_bond_atom_site_label_1
_geom_bond_atom_site_label_2
_geom_bond_distance
_geom_bond_site_symmetry_1
_geom_bond_site_symmetry_2
C1 C2 1.394 1_555 1_555
C2 H1 0.950 1_555 1_555
C3 C2 1.398 1_555 1_555
C4 C3 1.415 1_555 1_555
C5 C4 1.445 1_555 1_555
C6 C5 1.429 1_555 1_555
C7 C6 1.417 1_555 1_555
C8 C7 1.399 1_555 1_555
H2 C8 0.950 1_555 1_555
C9 C8 1.376 1_555 1_555
H3 C9 0.949 1_555 1_555
C10 C5 1.409 1_555 1_555
C11 C10 1.464 1_555 1_555
C12 C11 1.412 1_555 1_555
H4 C12 0.950 1_555 1_555
C13 C12 1.377 1_555 1_555
H5 C13 0.949 1_555 1_555
C14 C13 1.403 1_555 1_555
C15 C14 1.377 1_555 1_555
H6 C15 0.950 1_555 1_555
C16 C11 1.411 1_555 1_555
C17 C4 1.425 1_555 1_555
C18 C1 1.380 1_555 1_555
H7 C18 0.950 1_555 1_555
C19 C1 1.510 1_555 1_555
H8 C19 0.990 1_555 1_555
H9 C19 0.990 1_555 1_555
C20 C19 1.530 1_555 1_555
H10 C20 0.990 1_555 1_555
H11 C20 0.989 1_555 1_555
C21 C20 1.522 1_555 1_555
H12 C21 0.989 1_555 1_555
H13 C21 0.990 1_555 1_555
C22 C21 1.524 1_555 1_555
H14 C22 0.980 1_555 1_555
H15 C22 0.979 1_555 1_555
H16 C22 0.980 1_555 1_555
C23 C14 1.514 1_555 1_555
H17 C23 0.989 1_555 1_555
H18 C23 0.990 1_555 1_555
C24 C23 1.524 1_555 1_555
H19 C24 0.989 1_555 1_555
H20 C24 0.990 1_555 1_555
C25 C24 1.530 1_555 1_555
H21 C25 0.989 1_555 1_555
H22 C25 0.990 1_555 1_555
C26 C25 1.517 1_555 1_555
H23 C26 0.981 1_555 1_555
H24 C26 0.981 1_555 1_555
H25 C26 0.980 1_555 1_555
C1B C2B 1.394 1_555 1_555
C2B H1B 0.950 1_555 1_555
C3B C7 1.464 1_555 1_555
C4B C3B 1.415 1_555 1_555
C5B C4B 1.445 1_555 1_555
C6B C6 1.441 1_555 1_555
C7B C3 1.464 1_555 1_555
C8B C7B 1.399 1_555 1_555
H2B C8B 0.950 1_555 1_555
C9B C8B 1.376 1_555 1_555
H3B C9B 0.949 1_555 1_555
C10B C5B 1.409 1_555 1_555
C11B C10B 1.464 1_555 1_555
C12B C11B 1.412 1_555 1_555
H4B C12B 0.950 1_555 1_555
C13B C12B 1.377 1_555 1_555
H5B C13B 0.949 1_555 1_555
C14B C13B 1.403 1_555 1_555
C15B C14B 1.377 1_555 1_555
H6B C15B 0.950 1_555 1_555
C16B C11B 1.411 1_555 1_555
C17B C4B 1.425 1_555 1_555
C18B C1B 1.380 1_555 1_555
H7B C18B 0.950 1_555 1_555
C19B C1B 1.510 1_555 1_555
H8B C19B 0.990 1_555 1_555
H9B C19B 0.990 1_555 1_555
C20B C19B 1.530 1_555 1_555
H10B C20B 0.990 1_555 1_555
H11B C20B 0.989 1_555 1_555
C21B C20B 1.522 1_555 1_555
H12B C21B 0.989 1_555 1_555
H13B C21B 0.990 1_555 1_555
C22B C21B 1.524 1_555 1_555
H14B C22B 0.980 1_555 1_555
H15B C22B 0.979 1_555 1_555
H16B C22B 0.980 1_555 1_555
C23B C14B 1.514 1_555 1_555
H17B C23B 0.989 1_555 1_555
H18B C23B 0.990 1_555 1_555
C24B C23B 1.524 1_555 1_555
H19B C24B 0.989 1_555 1_555
H20B C24B 0.990 1_555 1_555
C25B C24B 1.530 1_555 1_555
H21B C25B 0.989 1_555 1_555
H22B C25B 0.990 1_555 1_555
C26B C25B 1.517 1_555 1_555
H23B C26B 0.981 1_555 1_555
H24B C26B 0.981 1_555 1_555
H25B C26B 0.980 1_555 1_555
C9 C10 1.405 1_555 1_555
C15 C16 1.411 1_555 1_555
C16 C17 1.456 1_555 1_555
C17 C18 1.400 1_555 1_555
C2B C3B 1.398 1_555 1_555
C5B C6B 1.429 1_555 1_555
C6B C7B 1.417 1_555 1_555
C9B C10B 1.405 1_555 1_555
C15B C16B 1.411 1_555 1_555
C16B C17B 1.456 1_555 1_555
C17B C18B 1.400 1_555 1_555
#END
