
#######################################################################
#
#                 Cambridge Crystallographic Data Centre
#                                CCDC
#
#######################################################################
#
# If this CIF has been generated from an entry in the Cambridge
# Structural Database, then it will include bibliographic, chemical,
# crystal, experimental, refinement or atomic coordinate data resulting
# from the CCDC's data processing and validation procedures.
#
#######################################################################

data_CSD_CIF_VASWOE
_audit_creation_date 2017-05-02
_audit_creation_method CSD-ConQuest-V1
_database_code_CSD VASWOE
_database_code_depnum_ccdc_archive 'CCDC 1520359'
_chemical_formula_sum 'C38 H24'
_chemical_formula_moiety
;
C38 H24
;
_journal_coden_Cambridge 4
_journal_volume 139
_journal_year 2017
_journal_page_first 1428
_journal_name_full 'J.Am.Chem.Soc. '
loop_
_publ_author_name
"E.Gonzalez-Fernandez"
"L.D.M.Nicholls"
"L.Schaaf"
"C.Fares"
"C.W.Lehmann"
"M.Alcarazo"
_chemical_name_systematic
;
5,12-diphenylhexahelicene
;
_cell_volume   1251.003
_exptl_crystal_colour 'yellow'
_exptl_crystal_density_diffrn 1.276
_exptl_crystal_description 'prism'
_exptl_crystal_preparation 'dichloromethane'
_diffrn_ambient_temperature 100
#These two values have been output from a single CSD field.
_refine_ls_R_factor_gt 0.0604
_refine_ls_wR_factor_gt 0.0604
_symmetry_cell_setting triclinic
_symmetry_space_group_name_H-M 'P -1'
_symmetry_Int_Tables_number 2
loop_
_symmetry_equiv_pos_site_id
_symmetry_equiv_pos_as_xyz
1 x,y,z
2 -x,-y,-z
_cell_length_a 9.6273(14)
_cell_length_b 9.6571(14)
_cell_length_c 14.569(2)
_cell_angle_alpha 106.794(2)
_cell_angle_beta 91.195(3)
_cell_angle_gamma 104.193(2)
_cell_formula_units_Z 2
loop_
_atom_type_symbol
_atom_type_radius_bond
C 0.68
H 0.23
loop_
_atom_site_label
_atom_site_type_symbol
_atom_site_fract_x
_atom_site_fract_y
_atom_site_fract_z
C1 C 0.89233(13) 0.64510(13) 0.82024(9)
C2 C 0.77821(13) 0.57514(13) 0.74504(9)
C3 C 0.51433(12) 0.42288(13) 0.69845(8)
C4 C 0.52636(12) 0.32242(13) 0.60534(8)
C5 C 0.64467(12) 0.25353(13) 0.58339(8)
C6 C 0.63328(13) 0.51896(13) 0.76857(9)
C7 C 0.37312(13) 0.42815(13) 0.72299(9)
C8 C 0.80797(14) 0.57273(14) 0.65013(9)
H1 H 0.73100 0.53600 0.60030
C9 C 0.66013(12) 0.18026(13) 0.48603(9)
C10 C 0.41141(13) 0.27827(14) 0.53268(9)
C11 C 1.03372(14) 0.69466(15) 0.79585(10)
H2 H 1.11120 0.73840 0.84540
C12 C 0.94629(15) 0.62260(15) 0.62843(10)
H3 H 0.96420 0.61770 0.56380
C13 C 0.46185(15) 0.55339(14) 0.89065(9)
H4 H 0.44390 0.58330 0.95640
C14 C 0.34978(14) 0.49337(14) 0.82050(9)
H5 H 0.25500 0.49490 0.83670
C15 C 0.73940(13) 0.24947(14) 0.65737(9)
H6 H 0.72210 0.28730 0.72270
C16 C 0.25513(13) 0.36890(15) 0.64995(10)
H7 H 0.16110 0.37340 0.66650
C17 C 0.60628(13) 0.57146(13) 0.86574(9)
C18 C 0.27597(13) 0.30583(15) 0.55659(10)
H8 H 0.19980 0.28010 0.50720
C19 C 0.78604(14) 0.12861(15) 0.46669(10)
H9 H 0.80370 0.08750 0.40180
C20 C 0.55094(13) 0.15958(14) 0.41075(9)
C21 C 0.98079(14) 0.74613(15) 0.99971(9)
C22 C 1.06069(14) 0.68052(16) 0.70151(10)
H10 H 1.15670 0.71000 0.68600
C23 C 0.88284(14) 0.13737(16) 0.54065(11)
H11 H 0.96830 0.10620 0.52630
C24 C 0.86282(14) 0.67483(14) 0.91997(9)
C25 C 0.85585(14) 0.19186(15) 0.63661(11)
H12 H 0.91790 0.18900 0.68720
C26 C 0.56674(13) 0.08950(14) 0.30754(9)
C27 C 0.72264(14) 0.64542(14) 0.93974(9)
H13 H 0.70170 0.67510 1.00490
C28 C 0.55579(15) 0.16574(14) 0.24047(10)
H14 H 0.53590 0.26100 0.26100
C29 C 0.60014(16) -0.03704(16) 0.11202(10)
H15 H 0.61360 -0.07900 0.04640
C30 C 0.42819(13) 0.20158(15) 0.43583(9)
H16 H 0.35160 0.17900 0.38720
C31 C 0.57378(16) 0.10326(15) 0.14345(10)
H17 H 0.56790 0.15720 0.09900
C32 C 0.59157(16) -0.05251(14) 0.2749(1)
H18 H 0.59830 -0.10660 0.31920
C33 C 0.60658(17) -0.11544(15) 0.17776(10)
H19 H 0.62140 -0.21300 0.15630
C34 C 1.20436(16) 0.74994(17) 1.08113(11)
H20 H 1.27950 0.70360 1.08560
C35 C 1.09313(15) 0.68086(16) 1.00725(10)
H21 H 1.09370 0.58830 0.96140
C36 C 0.98111(17) 0.88066(16) 1.06912(10)
H22 H 0.90420 0.92540 1.06620
C37 C 1.20655(17) 0.88564(18) 1.14824(11)
H23 H 1.28430 0.93400 1.19730
C38 C 1.09360(19) 0.95027(17) 1.14297(11)
H24 H 1.09280 1.04200 1.18970
loop_
_geom_bond_atom_site_label_1
_geom_bond_atom_site_label_2
_geom_bond_distance
_geom_bond_site_symmetry_1
_geom_bond_site_symmetry_2
C1 C2 1.422 1_555 1_555
C2 C6 1.454 1_555 1_555
C3 C4 1.448 1_555 1_555
C4 C5 1.451 1_555 1_555
C5 C9 1.420 1_555 1_555
C6 C3 1.449 1_555 1_555
C7 C3 1.422 1_555 1_555
C8 C2 1.413 1_555 1_555
H1 C8 0.950 1_555 1_555
C9 C19 1.424 1_555 1_555
C10 C4 1.409 1_555 1_555
C11 C1 1.417 1_555 1_555
H2 C11 0.950 1_555 1_555
C12 C8 1.377 1_555 1_555
H3 C12 0.951 1_555 1_555
C13 H4 0.950 1_555 1_555
C14 C7 1.425 1_555 1_555
H5 C14 0.950 1_555 1_555
C15 C5 1.413 1_555 1_555
H6 C15 0.950 1_555 1_555
C16 C7 1.424 1_555 1_555
H7 C16 0.950 1_555 1_555
C17 C6 1.412 1_555 1_555
C18 C10 1.424 1_555 1_555
H8 C18 0.950 1_555 1_555
C19 H9 0.950 1_555 1_555
C20 C9 1.439 1_555 1_555
C21 C24 1.488 1_555 1_555
C22 C11 1.378 1_555 1_555
H10 C22 0.950 1_555 1_555
C23 C19 1.380 1_555 1_555
H11 C23 0.951 1_555 1_555
C24 C1 1.446 1_555 1_555
C25 C15 1.371 1_555 1_555
H12 C25 0.950 1_555 1_555
C26 C20 1.488 1_555 1_555
C27 C17 1.428 1_555 1_555
H13 C27 0.950 1_555 1_555
C28 C26 1.399 1_555 1_555
H14 C28 0.950 1_555 1_555
C29 H15 0.950 1_555 1_555
C30 C10 1.425 1_555 1_555
H16 C30 0.950 1_555 1_555
C31 C28 1.400 1_555 1_555
H17 C31 0.950 1_555 1_555
C32 C26 1.397 1_555 1_555
H18 C32 0.950 1_555 1_555
C33 C29 1.391 1_555 1_555
H19 C33 0.950 1_555 1_555
C34 H20 0.949 1_555 1_555
C35 C21 1.396 1_555 1_555
H21 C35 0.950 1_555 1_555
C36 C21 1.396 1_555 1_555
H22 C36 0.950 1_555 1_555
C37 C34 1.385 1_555 1_555
H23 C37 0.950 1_555 1_555
C38 C36 1.400 1_555 1_555
H24 C38 0.950 1_555 1_555
C12 C22 1.402 1_555 1_555
C13 C14 1.360 1_555 1_555
C13 C17 1.426 1_555 1_555
C16 C18 1.362 1_555 1_555
C20 C30 1.365 1_555 1_555
C23 C25 1.399 1_555 1_555
C24 C27 1.364 1_555 1_555
C29 C31 1.387 1_555 1_555
C32 C33 1.396 1_555 1_555
C34 C35 1.392 1_555 1_555
C37 C38 1.391 1_555 1_555
#END
