
#######################################################################
#
#                 Cambridge Crystallographic Data Centre
#                                CCDC
#
#######################################################################
#
# If this CIF has been generated from an entry in the Cambridge
# Structural Database, then it will include bibliographic, chemical,
# crystal, experimental, refinement or atomic coordinate data resulting
# from the CCDC's data processing and validation procedures.
#
#######################################################################

data_CSD_CIF_VEBJES
_audit_creation_date 2006-05-24
_audit_creation_method CSD-ConQuest-V1
_database_code_CSD VEBJES
_database_code_depnum_ccdc_archive 'CCDC 298062'
_chemical_formula_sum 'C46 H30'
_chemical_formula_moiety
;
C46 H30
;
_journal_coden_Cambridge 4
_journal_volume 128
_journal_year 2006
_journal_page_first 1340
_journal_name_full 'J.Am.Chem.Soc. '
loop_
_publ_author_name
"Qian Miao"
"Xiaoliu Chi"
"R.Zeis"
"M.Lefenfeld"
"T.Siegrist"
"M.L.Steigerwald"
"C.Nuckolls"
_chemical_name_systematic
;
5,7,12,14-Tetraphenylpentacene
;
_cell_volume   3221.430
_exptl_crystal_colour 'dark-reddish'
_exptl_crystal_density_diffrn 1.201
_exptl_crystal_description 'platelet'
_diffrn_ambient_temperature 293
#These two values have been output from a single CSD field.
_refine_ls_R_factor_gt 0.0573
_refine_ls_wR_factor_gt 0.0573
_symmetry_cell_setting monoclinic
_symmetry_space_group_name_H-M 'C 2/c'
_symmetry_Int_Tables_number 15
loop_
_symmetry_equiv_pos_site_id
_symmetry_equiv_pos_as_xyz
1 x,y,z
2 1/2+x,1/2+y,z
3 -x,y,1/2-z
4 1/2-x,1/2+y,1/2-z
5 -x,-y,-z
6 -1/2-x,-1/2-y,-z
7 x,-y,-1/2+z
8 -1/2+x,-1/2-y,-1/2+z
_cell_length_a 27.8621(15)
_cell_length_b 8.0786(4)
_cell_length_c 16.0279(9)
_cell_angle_alpha 90
_cell_angle_beta 116.755(5)
_cell_angle_gamma 90
_cell_formula_units_Z 4
loop_
_atom_type_symbol
_atom_type_radius_bond
C 0.68
H 0.23
loop_
_atom_site_label
_atom_site_type_symbol
_atom_site_fract_x
_atom_site_fract_y
_atom_site_fract_z
C1 C 0.26251(9) 0.1136(3) 0.06297(17)
C2 C 0.20908(9) 0.1653(4) 0.00876(19)
C3 C 0.3048(1) 0.2037(3) 0.05385(18)
C4 C 0.35956(9) 0.1576(3) 0.11090(18)
C5 C 0.3714(1) 0.0271(3) 0.17328(19)
C6 C 0.3288(1) -0.0671(3) 0.17935(18)
C7 C 0.2752(1) -0.0218(3) 0.12428(18)
C8 C 0.2308(1) -0.1158(3) 0.13110(19)
C9 C 0.20050(17) -0.2261(5) 0.0638(3)
C10 C 0.15797(18) -0.3080(6) 0.0682(3)
C11 C 0.14560(14) -0.2804(4) 0.1385(3)
C12 C 0.17556(15) -0.1716(4) 0.2067(3)
C13 C 0.21873(12) -0.0882(4) 0.2036(2)
C14 C 0.34303(12) -0.2018(4) 0.2432(2)
C15 C 0.39527(14) -0.2388(4) 0.3007(3)
C16 C 0.43677(12) -0.1427(4) 0.2974(3)
C17 C 0.42577(11) -0.0165(4) 0.2373(2)
C18 C 0.4036(1) 0.2537(4) 0.10470(19)
C19 C 0.43596(13) 0.1833(5) 0.0704(2)
C20 C 0.47778(14) 0.2753(6) 0.0665(3)
C21 C 0.48612(15) 0.4329(6) 0.0972(3)
C22 C 0.45407(19) 0.5057(5) 0.1308(3)
C23 C 0.41293(14) 0.4162(5) 0.1350(3)
H1 H 0.17950 0.10380 0.01630
H2 H 0.20830 -0.24680 0.00770
H3 H 0.13560 -0.39060 0.01610
H4 H 0.11490 -0.34160 0.14200
H5 H 0.16650 -0.15010 0.26110
H6 H 0.24140 -0.00690 0.25590
H7 H 0.31340 -0.27250 0.24560
H8 H 0.40420 -0.33460 0.34670
H9 H 0.47550 -0.17000 0.34120
H10 H 0.45670 0.05020 0.23700
H11 H 0.42890 0.06350 0.04570
H12 H 0.50170 0.22340 0.04080
H13 H 0.51690 0.49840 0.09580
H14 H 0.45970 0.62830 0.15210
H15 H 0.38900 0.46980 0.16070
C1E C 0.23749(9) 0.3864(3) -0.06297(17)
C2E C 0.29092(9) 0.3347(4) -0.00876(19)
C3E C 0.1952(1) 0.2963(3) -0.05385(18)
C4E C 0.14044(9) 0.3424(3) -0.11090(18)
C5E C 0.1286(1) 0.4729(3) -0.17328(19)
C6E C 0.1712(1) 0.5671(3) -0.17935(18)
C7E C 0.2248(1) 0.5218(3) -0.12428(18)
C8E C 0.2692(1) 0.6158(3) -0.13110(19)
C9E C 0.29950(17) 0.7261(5) -0.0638(3)
C10E C 0.34203(18) 0.8080(6) -0.0682(3)
C11E C 0.35440(14) 0.7804(4) -0.1385(3)
C12E C 0.32444(15) 0.6716(4) -0.2067(3)
C13E C 0.28127(12) 0.5882(4) -0.2036(2)
C14E C 0.15697(12) 0.7018(4) -0.2432(2)
C15E C 0.10473(14) 0.7388(4) -0.3007(3)
C16E C 0.06323(12) 0.6427(4) -0.2974(3)
C17E C 0.07423(11) 0.5165(4) -0.2373(2)
C18E C 0.0964(1) 0.2463(4) -0.10470(19)
C19E C 0.06404(13) 0.3167(5) -0.0704(2)
C20E C 0.02222(14) 0.2247(6) -0.0665(3)
C21E C 0.01388(15) 0.0671(6) -0.0972(3)
C22E C 0.04593(19) -0.0057(5) -0.1308(3)
C23E C 0.08707(14) 0.0838(5) -0.1350(3)
H1E H 0.32050 0.39620 -0.01630
H2E H 0.29170 0.74680 -0.00770
H3E H 0.36440 0.89060 -0.01610
H4E H 0.38510 0.84160 -0.14200
H5E H 0.33350 0.65010 -0.26110
H6E H 0.25860 0.50690 -0.25590
H7E H 0.18660 0.77250 -0.24560
H8E H 0.09580 0.83460 -0.34670
H9E H 0.02450 0.67000 -0.34120
H10E H 0.04330 0.44980 -0.23700
H11E H 0.07110 0.43650 -0.04570
H12E H -0.00170 0.27660 -0.04080
H13E H -0.01690 0.00160 -0.09580
H14E H 0.04030 -0.12830 -0.15210
H15E H 0.11100 0.03020 -0.16070
loop_
_geom_bond_atom_site_label_1
_geom_bond_atom_site_label_2
_geom_bond_distance
_geom_bond_site_symmetry_1
_geom_bond_site_symmetry_2
C1 C2 1.407 1_555 1_555
C2 H1 1.015 1_555 1_555
C3 C1 1.447 1_555 1_555
C4 C3 1.431 1_555 1_555
C5 C4 1.387 1_555 1_555
C6 C5 1.450 1_555 1_555
C7 C1 1.405 1_555 1_555
C8 C7 1.497 1_555 1_555
C9 C8 1.360 1_555 1_555
C10 C9 1.386 1_555 1_555
C11 C10 1.337 1_555 1_555
C12 C11 1.357 1_555 1_555
C13 C8 1.366 1_555 1_555
C14 C6 1.422 1_555 1_555
C15 C14 1.360 1_555 1_555
C16 C15 1.413 1_555 1_555
C17 C5 1.440 1_555 1_555
C18 C4 1.493 1_555 1_555
C19 C18 1.373 1_555 1_555
C20 C19 1.407 1_555 1_555
C21 C20 1.347 1_555 1_555
C22 C21 1.366 1_555 1_555
C23 C18 1.383 1_555 1_555
H2 C9 1.029 1_555 1_555
H3 C10 1.031 1_555 1_555
H4 C11 1.011 1_555 1_555
H5 C12 1.026 1_555 1_555
H6 C13 1.028 1_555 1_555
H7 C14 1.019 1_555 1_555
H8 C15 1.019 1_555 1_555
H9 C16 1.012 1_555 1_555
H10 C17 1.018 1_555 1_555
H11 C19 1.031 1_555 1_555
H12 C20 1.018 1_555 1_555
H13 C21 1.017 1_555 1_555
H14 C22 1.036 1_555 1_555
H15 C23 1.024 1_555 1_555
C1E C2E 1.407 1_555 1_555
C2E C3 1.388 1_555 1_555
C3E C2 1.388 1_555 1_555
C4E C3E 1.431 1_555 1_555
C5E C4E 1.387 1_555 1_555
C6E C5E 1.450 1_555 1_555
C7E C1E 1.405 1_555 1_555
C8E C7E 1.497 1_555 1_555
C9E C8E 1.360 1_555 1_555
C10E C9E 1.386 1_555 1_555
C11E C10E 1.337 1_555 1_555
C12E C11E 1.357 1_555 1_555
C13E C8E 1.366 1_555 1_555
C14E C6E 1.422 1_555 1_555
C15E C14E 1.360 1_555 1_555
C16E C15E 1.413 1_555 1_555
C17E C5E 1.440 1_555 1_555
C18E C4E 1.493 1_555 1_555
C19E C18E 1.373 1_555 1_555
C20E C19E 1.407 1_555 1_555
C21E C20E 1.347 1_555 1_555
C22E C21E 1.366 1_555 1_555
C23E C18E 1.383 1_555 1_555
H1E C2E 1.015 1_555 1_555
H2E C9E 1.029 1_555 1_555
H3E C10E 1.031 1_555 1_555
H4E C11E 1.011 1_555 1_555
H5E C12E 1.026 1_555 1_555
H6E C13E 1.028 1_555 1_555
H7E C14E 1.019 1_555 1_555
H8E C15E 1.019 1_555 1_555
H9E C16E 1.012 1_555 1_555
H10E C17E 1.018 1_555 1_555
H11E C19E 1.031 1_555 1_555
H12E C20E 1.018 1_555 1_555
H13E C21E 1.017 1_555 1_555
H14E C22E 1.036 1_555 1_555
H15E C23E 1.024 1_555 1_555
C6 C7 1.399 1_555 1_555
C12 C13 1.399 1_555 1_555
C16 C17 1.340 1_555 1_555
C22 C23 1.382 1_555 1_555
C1E C3E 1.447 1_555 1_555
C6E C7E 1.399 1_555 1_555
C12E C13E 1.399 1_555 1_555
C16E C17E 1.340 1_555 1_555
C22E C23E 1.382 1_555 1_555
#END
