
#######################################################################
#
#                 Cambridge Crystallographic Data Centre
#                                CCDC
#
#######################################################################
#
# If this CIF has been generated from an entry in the Cambridge
# Structural Database, then it will include bibliographic, chemical,
# crystal, experimental, refinement or atomic coordinate data resulting
# from the CCDC's data processing and validation procedures.
#
#######################################################################

data_CSD_CIF_VEBJOC
_audit_creation_date 2006-05-23
_audit_creation_method CSD-ConQuest-V1
_database_code_CSD VEBJOC
_database_code_depnum_ccdc_archive 'CCDC 298064'
_chemical_formula_sum 'C58 H38'
_chemical_formula_moiety
;
C58 H38
;
_journal_coden_Cambridge 4
_journal_volume 128
_journal_year 2006
_journal_page_first 1340
_journal_name_full 'J.Am.Chem.Soc. '
loop_
_publ_author_name
"Qian Miao"
"Xiaoliu Chi"
"R.Zeis"
"M.Lefenfeld"
"T.Siegrist"
"M.L.Steigerwald"
"C.Nuckolls"
_chemical_name_systematic
;
1,4,6,8,11,13-Hexaphenylpentacene
;
_cell_volume    957.253
_exptl_crystal_colour 'blue'
_exptl_crystal_density_diffrn 1.275
_exptl_crystal_description 'prism'
_diffrn_ambient_temperature 293
#These two values have been output from a single CSD field.
_refine_ls_R_factor_gt 0.0666
_refine_ls_wR_factor_gt 0.0666
_symmetry_cell_setting triclinic
_symmetry_space_group_name_H-M 'P -1'
_symmetry_Int_Tables_number 2
loop_
_symmetry_equiv_pos_site_id
_symmetry_equiv_pos_as_xyz
1 x,y,z
2 -x,-y,-z
_cell_length_a 6.1995(7)
_cell_length_b 11.0201(13)
_cell_length_c 14.7000(15)
_cell_angle_alpha 95.660(9)
_cell_angle_beta 96.600(9)
_cell_angle_gamma 104.52(1)
_cell_formula_units_Z 1
loop_
_atom_type_symbol
_atom_type_radius_bond
C 0.68
H 0.23
loop_
_atom_site_label
_atom_site_type_symbol
_atom_site_fract_x
_atom_site_fract_y
_atom_site_fract_z
C1 C 0.1962(4) 0.6048(2) 0.51873(15)
C2 C 0.0783(4) 0.5671(2) 0.42780(15)
C3 C 0.1181(4) 0.5388(2) 0.59109(15)
C4 C 0.2357(4) 0.5705(2) 0.68222(16)
C5 C 0.1653(4) 0.5058(2) 0.75434(15)
C6 C -0.0381(4) 0.4033(2) 0.73634(16)
C7 C 0.1495(4) 0.6324(2) 0.35356(16)
C8 C -0.1191(4) 0.3387(2) 0.81196(16)
C9 C -0.3319(4) 0.2352(2) 0.79798(17)
C10 C -0.3311(5) 0.1189(3) 0.82882(19)
C11 C -0.5290(6) 0.0216(3) 0.8176(2)
C12 C -0.7268(5) 0.0394(3) 0.7763(2)
C13 C -0.7325(5) 0.1531(3) 0.7474(2)
C14 C -0.5349(5) 0.2505(2) 0.7586(2)
C15 C 0.0048(4) 0.3756(2) 0.89782(18)
C16 C 0.2068(4) 0.4739(3) 0.91495(17)
C17 C 0.2902(4) 0.5387(2) 0.84683(16)
C18 C 0.5048(4) 0.6402(2) 0.86979(16)
C19 C 0.5331(5) 0.7328(3) 0.94501(19)
C20 C 0.7361(6) 0.8252(3) 0.9704(2)
C21 C 0.9105(5) 0.8265(3) 0.9211(2)
C22 C 0.8866(5) 0.7355(3) 0.8474(2)
C23 C 0.6853(5) 0.6423(3) 0.82146(19)
C24 C 0.4043(4) 0.7132(2) 0.53683(16)
C25 C 0.5972(5) 0.6996(3) 0.5021(2)
C26 C 0.7911(5) 0.8003(3) 0.5176(3)
C27 C 0.7892(5) 0.9133(3) 0.5676(2)
C28 C 0.5999(6) 0.9277(3) 0.5983(2)
C29 C 0.4070(5) 0.8276(3) 0.5847(2)
H1 H 0.37450 0.64310 0.69480
H2 H 0.28610 0.70740 0.36700
H3 H -0.18410 0.10510 0.85940
H4 H -0.52720 -0.06100 0.84040
H5 H -0.87010 -0.03190 0.76770
H6 H -0.87950 0.16790 0.71770
H7 H -0.53880 0.33580 0.73760
H8 H -0.05400 0.33140 0.95050
H9 H 0.29350 0.49560 0.97980
H10 H 0.40150 0.73190 0.98180
H11 H 0.74950 0.89320 1.02460
H12 H 1.05930 0.89320 0.94100
H13 H 1.01690 0.73660 0.81090
H14 H 0.66790 0.57580 0.76630
H15 H 0.59400 0.61540 0.46550
H16 H 0.93330 0.79020 0.49210
H17 H 0.93230 0.98430 0.58180
H18 H 0.59800 1.01280 0.63060
H19 H 0.26810 0.83860 0.61190
C1A C -0.1962(4) 0.3952(2) 0.48127(15)
C2A C -0.0783(4) 0.4329(2) 0.57220(15)
C3A C -0.1181(4) 0.4612(2) 0.40891(15)
C4A C -0.2357(4) 0.4295(2) 0.31778(16)
C5A C -0.1653(4) 0.4942(2) 0.24566(15)
C6A C 0.0381(4) 0.5967(2) 0.26366(16)
C7A C -0.1495(4) 0.3676(2) 0.64644(16)
C8A C 0.1191(4) 0.6613(2) 0.18804(16)
C9A C 0.3319(4) 0.7648(2) 0.20202(17)
C10A C 0.3311(5) 0.8811(3) 0.17118(19)
C11A C 0.5290(6) 0.9784(3) 0.1824(2)
C12A C 0.7268(5) 0.9606(3) 0.2237(2)
C13A C 0.7325(5) 0.8469(3) 0.2526(2)
C14A C 0.5349(5) 0.7495(2) 0.2414(2)
C15A C -0.0048(4) 0.6244(2) 0.10218(18)
C16A C -0.2068(4) 0.5261(3) 0.08505(17)
C17A C -0.2902(4) 0.4613(2) 0.15317(16)
C18A C -0.5048(4) 0.3598(2) 0.13021(16)
C19A C -0.5331(5) 0.2672(3) 0.05499(19)
C20A C -0.7361(6) 0.1748(3) 0.0296(2)
C21A C -0.9105(5) 0.1735(3) 0.0789(2)
C22A C -0.8866(5) 0.2645(3) 0.1526(2)
C23A C -0.6853(5) 0.3577(3) 0.17854(19)
C24A C -0.4043(4) 0.2868(2) 0.46317(16)
C25A C -0.5972(5) 0.3004(3) 0.4979(2)
C26A C -0.7911(5) 0.1997(3) 0.4824(3)
C27A C -0.7892(5) 0.0867(3) 0.4324(2)
C28A C -0.5999(6) 0.0723(3) 0.4017(2)
C29A C -0.4070(5) 0.1724(3) 0.4153(2)
H1A H -0.37450 0.35690 0.30520
H2A H -0.28610 0.29260 0.63300
H3A H 0.18410 0.89490 0.14060
H4A H 0.52720 1.06100 0.15960
H5A H 0.87010 1.03190 0.23230
H6A H 0.87950 0.83210 0.28230
H7A H 0.53880 0.66420 0.26240
H8A H 0.05400 0.66860 0.04950
H9A H -0.29350 0.50440 0.02020
H10A H -0.40150 0.26810 0.01820
H11A H -0.74950 0.10680 -0.02460
H12A H -1.05930 0.10680 0.05900
H13A H -1.01690 0.26340 0.18910
H14A H -0.66790 0.42420 0.23370
H15A H -0.59400 0.38460 0.53450
H16A H -0.93330 0.20980 0.50790
H17A H -0.93230 0.01570 0.41820
H18A H -0.59800 -0.01280 0.36940
H19A H -0.26810 0.16140 0.38810
loop_
_geom_bond_atom_site_label_1
_geom_bond_atom_site_label_2
_geom_bond_distance
_geom_bond_site_symmetry_1
_geom_bond_site_symmetry_2
C1 C2 1.417 1_555 1_555
C2 C7 1.418 1_555 1_555
C3 C1 1.410 1_555 1_555
C4 C3 1.415 1_555 1_555
C5 C4 1.386 1_555 1_555
C6 C5 1.444 1_555 1_555
C7 H2 1.009 1_555 1_555
C8 C6 1.449 1_555 1_555
C9 C8 1.490 1_555 1_555
C10 C9 1.402 1_555 1_555
C11 C10 1.393 1_555 1_555
C12 C11 1.372 1_555 1_555
C13 C12 1.369 1_555 1_555
C14 C9 1.380 1_555 1_555
C15 C8 1.367 1_555 1_555
C16 C15 1.414 1_555 1_555
C17 C5 1.449 1_555 1_555
C18 C17 1.487 1_555 1_555
C19 C18 1.392 1_555 1_555
C20 C19 1.391 1_555 1_555
C21 C20 1.367 1_555 1_555
C22 C21 1.370 1_555 1_555
C23 C18 1.389 1_555 1_555
C24 C1 1.499 1_555 1_555
C25 C24 1.389 1_555 1_555
C26 C25 1.395 1_555 1_555
C27 C26 1.386 1_555 1_555
C28 C27 1.344 1_555 1_555
C29 C24 1.377 1_555 1_555
H1 C4 1.002 1_555 1_555
H3 C10 1.022 1_555 1_555
H4 C11 1.003 1_555 1_555
H5 C12 1.013 1_555 1_555
H6 C13 1.022 1_555 1_555
H7 C14 1.023 1_555 1_555
H8 C15 1.010 1_555 1_555
H9 C16 1.014 1_555 1_555
H10 C19 1.028 1_555 1_555
H11 C20 1.019 1_555 1_555
H12 C21 1.016 1_555 1_555
H13 C22 1.018 1_555 1_555
H14 C23 1.015 1_555 1_555
H15 C25 1.020 1_555 1_555
H16 C26 1.023 1_555 1_555
H17 C27 1.010 1_555 1_555
H18 C28 1.012 1_555 1_555
H19 C29 1.019 1_555 1_555
C1A C2A 1.417 1_555 1_555
C2A C3 1.438 1_555 1_555
C3A C2 1.438 1_555 1_555
C4A C3A 1.415 1_555 1_555
C5A C4A 1.386 1_555 1_555
C6A C7 1.389 1_555 1_555
C7A C6 1.389 1_555 1_555
C8A C6A 1.449 1_555 1_555
C9A C8A 1.490 1_555 1_555
C10A C9A 1.402 1_555 1_555
C11A C10A 1.393 1_555 1_555
C12A C11A 1.372 1_555 1_555
C13A C12A 1.369 1_555 1_555
C14A C9A 1.380 1_555 1_555
C15A C8A 1.367 1_555 1_555
C16A C15A 1.414 1_555 1_555
C17A C5A 1.449 1_555 1_555
C18A C17A 1.487 1_555 1_555
C19A C18A 1.392 1_555 1_555
C20A C19A 1.391 1_555 1_555
C21A C20A 1.367 1_555 1_555
C22A C21A 1.370 1_555 1_555
C23A C18A 1.389 1_555 1_555
C24A C1A 1.499 1_555 1_555
C25A C24A 1.389 1_555 1_555
C26A C25A 1.395 1_555 1_555
C27A C26A 1.386 1_555 1_555
C28A C27A 1.344 1_555 1_555
C29A C24A 1.377 1_555 1_555
H1A C4A 1.002 1_555 1_555
H2A C7A 1.009 1_555 1_555
H3A C10A 1.022 1_555 1_555
H4A C11A 1.003 1_555 1_555
H5A C12A 1.013 1_555 1_555
H6A C13A 1.022 1_555 1_555
H7A C14A 1.023 1_555 1_555
H8A C15A 1.010 1_555 1_555
H9A C16A 1.014 1_555 1_555
H10A C19A 1.028 1_555 1_555
H11A C20A 1.019 1_555 1_555
H12A C21A 1.016 1_555 1_555
H13A C22A 1.018 1_555 1_555
H14A C23A 1.015 1_555 1_555
H15A C25A 1.020 1_555 1_555
H16A C26A 1.023 1_555 1_555
H17A C27A 1.010 1_555 1_555
H18A C28A 1.012 1_555 1_555
H19A C29A 1.019 1_555 1_555
C13 C14 1.393 1_555 1_555
C16 C17 1.362 1_555 1_555
C22 C23 1.389 1_555 1_555
C28 C29 1.388 1_555 1_555
C1A C3A 1.410 1_555 1_555
C2A C7A 1.418 1_555 1_555
C5A C6A 1.444 1_555 1_555
C13A C14A 1.393 1_555 1_555
C16A C17A 1.362 1_555 1_555
C22A C23A 1.389 1_555 1_555
C28A C29A 1.388 1_555 1_555
#END
