
#######################################################################
#
#                 Cambridge Crystallographic Data Centre
#                                CCDC
#
#######################################################################
#
# If this CIF has been generated from an entry in the Cambridge
# Structural Database, then it will include bibliographic, chemical,
# crystal, experimental, refinement or atomic coordinate data resulting
# from the CCDC's data processing and validation procedures.
#
#######################################################################

data_CSD_CIF_VIHCUN
_audit_creation_date 2018-06-11
_audit_creation_method CSD-ConQuest-V1
_database_code_CSD VIHCUN
_database_code_depnum_ccdc_archive 'CCDC 1829145'
_chemical_formula_sum 'C21 H26'
_chemical_formula_moiety
;
C21 H26
;
_journal_coden_Cambridge 1336
_journal_volume 20
_journal_year 2018
_journal_page_first 3518
_journal_name_full 'Org.Lett. '
loop_
_publ_author_name
"M.Simon"
"K.Karaghiosoff"
"P.Knochel"
_chemical_name_systematic
;
2-(1-(octahydro-1H-inden-1-yl)ethyl)naphthalene
;
_cell_volume   1605.866
_exptl_crystal_colour 'colorless'
_exptl_crystal_density_diffrn 1.152
_exptl_crystal_description 'block'
_diffrn_ambient_temperature 143
#These two values have been output from a single CSD field.
_refine_ls_R_factor_gt 0.0567
_refine_ls_wR_factor_gt 0.0567
_symmetry_cell_setting monoclinic
_symmetry_space_group_name_H-M 'P 21/c'
_symmetry_Int_Tables_number 14
loop_
_symmetry_equiv_pos_site_id
_symmetry_equiv_pos_as_xyz
1 x,y,z
2 -x,1/2+y,1/2-z
3 -x,-y,-z
4 x,-1/2-y,-1/2+z
_cell_length_a 5.5039(3)
_cell_length_b 45.1131(18)
_cell_length_c 7.0986(6)
_cell_angle_alpha 90
_cell_angle_beta 114.343(5)
_cell_angle_gamma 90
_cell_formula_units_Z 4
loop_
_atom_type_symbol
_atom_type_radius_bond
C 0.68
H 0.23
loop_
_atom_site_label
_atom_site_type_symbol
_atom_site_fract_x
_atom_site_fract_y
_atom_site_fract_z
C1 C 0.3057(3) 0.07453(3) 0.3505(2)
H1 H 0.43410 0.07290 0.28420
C2 C 0.0244(3) 0.08028(3) 0.1852(2)
H2 H -0.09470 0.08560 0.25310
H3 H 0.02900 0.09720 0.09820
C3 C -0.0872(4) 0.05307(4) 0.0482(2)
H4 H -0.26900 0.05750 -0.05640
H5 H 0.02630 0.04840 -0.02570
C4 C -0.0973(3) 0.02643(4) 0.1755(2)
H6 H -0.16810 0.00910 0.08370
H7 H -0.21890 0.03070 0.24330
C5 C 0.1800(3) 0.01930(3) 0.3394(2)
H8 H 0.29250 0.01200 0.27060
H9 H 0.16590 0.00320 0.42930
C6 C 0.1989(3) 0.05595(3) 0.6269(2)
H10 H 0.28290 0.04480 0.75820
H11 H 0.00400 0.05250 0.56830
C7 C 0.2613(3) 0.08932(3) 0.6638(2)
H12 H 0.37780 0.09310 0.81090
H13 H 0.09480 0.10090 0.62560
C8 C 0.4050(3) 0.09795(3) 0.5242(2)
H14 H 0.60020 0.09450 0.60590
C9 C 0.3684(3) 0.13043(3) 0.4568(2)
H15 H 0.17340 0.13400 0.37510
C10 C 0.5120(3) 0.13773(3) 0.3170(2)
H16 H 0.43620 0.12570 0.19080
H17 H 0.70250 0.13330 0.39060
H18 H 0.48900 0.15880 0.28050
C11 C 0.4624(3) 0.15116(3) 0.6413(2)
C12 C 0.2962(3) 0.17207(3) 0.6648(2)
H19 H 0.11650 0.17300 0.56540
C13 C 0.3836(3) 0.19233(3) 0.8326(2)
C14 C 0.2133(3) 0.21409(3) 0.8570(3)
H20 H 0.03320 0.21530 0.75870
C15 C 0.3049(4) 0.23334(4) 1.0200(3)
H21 H 0.18750 0.24770 1.03400
C16 C 0.5712(4) 0.23207(4) 1.1674(3)
H22 H 0.63270 0.24560 1.27990
C17 C 0.7414(3) 0.21134(3) 1.1486(2)
H23 H 0.92100 0.21060 1.24820
C18 C 0.6522(3) 0.19087(3) 0.9816(2)
C19 C 0.8207(3) 0.16894(3) 0.9576(2)
H24 H 0.99990 0.16740 1.05710
C20 C 0.7298(3) 0.14984(3) 0.7931(2)
H25 H 0.84770 0.13540 0.78020
C21 C 0.3149(3) 0.04607(3) 0.4730(2)
H26 H 0.50670 0.04090 0.55470
loop_
_geom_bond_atom_site_label_1
_geom_bond_atom_site_label_2
_geom_bond_distance
_geom_bond_site_symmetry_1
_geom_bond_site_symmetry_2
C1 H1 1.000 1_555 1_555
C2 C1 1.531 1_555 1_555
H2 C2 0.990 1_555 1_555
H3 C2 0.989 1_555 1_555
C3 C2 1.529 1_555 1_555
H4 C3 0.990 1_555 1_555
H5 C3 0.990 1_555 1_555
C4 C3 1.518 1_555 1_555
H6 C4 0.989 1_555 1_555
H7 C4 0.991 1_555 1_555
C5 C4 1.524 1_555 1_555
H8 C5 0.990 1_555 1_555
H9 C5 0.991 1_555 1_555
C6 H10 0.990 1_555 1_555
H11 C6 0.990 1_555 1_555
C7 C6 1.542 1_555 1_555
H12 C7 0.989 1_555 1_555
H13 C7 0.991 1_555 1_555
C8 C1 1.543 1_555 1_555
H14 C8 1.001 1_555 1_555
C9 C8 1.529 1_555 1_555
H15 C9 1.001 1_555 1_555
C10 C9 1.538 1_555 1_555
H16 C10 0.981 1_555 1_555
H17 C10 0.980 1_555 1_555
H18 C10 0.980 1_555 1_555
C11 C9 1.516 1_555 1_555
C12 C11 1.371 1_555 1_555
H19 C12 0.950 1_555 1_555
C13 C12 1.419 1_555 1_555
C14 C13 1.416 1_555 1_555
H20 C14 0.950 1_555 1_555
C15 C14 1.366 1_555 1_555
H21 C15 0.949 1_555 1_555
C16 C15 1.408 1_555 1_555
H22 C16 0.950 1_555 1_555
C17 C16 1.369 1_555 1_555
H23 C17 0.950 1_555 1_555
C18 C13 1.421 1_555 1_555
C19 C18 1.414 1_555 1_555
H24 C19 0.950 1_555 1_555
C20 C11 1.422 1_555 1_555
H25 C20 0.950 1_555 1_555
C21 C1 1.540 1_555 1_555
H26 C21 1.000 1_555 1_555
C5 C21 1.526 1_555 1_555
C6 C21 1.541 1_555 1_555
C7 C8 1.551 1_555 1_555
C17 C18 1.421 1_555 1_555
C19 C20 1.369 1_555 1_555
#END
