
#######################################################################
#
#                 Cambridge Crystallographic Data Centre
#                                CCDC
#
#######################################################################
#
# If this CIF has been generated from an entry in the Cambridge
# Structural Database, then it will include bibliographic, chemical,
# crystal, experimental, refinement or atomic coordinate data resulting
# from the CCDC's data processing and validation procedures.
#
#######################################################################

data_CSD_CIF_VUFHUA
_audit_creation_date 2010-08-06
_audit_creation_method CSD-ConQuest-V1
_database_code_CSD VUFHUA
_database_code_depnum_ccdc_archive 'CCDC 747824'
_chemical_formula_sum 'C44 H22'
_chemical_formula_moiety
;
C44 H22
;
_journal_coden_Cambridge 4
_journal_volume 131
_journal_year 2009
_journal_page_first 10537
_journal_name_full 'J.Am.Chem.Soc. '
loop_
_publ_author_name
"B.D.Steinberg"
"E.A.Jackson"
"A.S.Filatov"
"A.Wakamiya"
"M.A.Petrukhina"
"L.T.Scott"
_chemical_name_systematic
;
Acenaphtho[3,2,1,8-fghij]tetrabenzo[a,c,m,o]picene
;
_cell_volume   2412.124
_exptl_crystal_colour 'yellow'
_exptl_crystal_density_diffrn 1.516
_exptl_crystal_description 'needle'
_diffrn_ambient_temperature 100
#These two values have been output from a single CSD field.
_refine_ls_R_factor_gt 0.0497
_refine_ls_wR_factor_gt 0.0497
_symmetry_cell_setting orthorhombic
_symmetry_space_group_name_H-M 'P n m a'
_symmetry_Int_Tables_number 62
loop_
_symmetry_equiv_pos_site_id
_symmetry_equiv_pos_as_xyz
1 x,y,z
2 1/2+x,1/2-y,1/2-z
3 -x,1/2+y,-z
4 1/2-x,-y,1/2+z
5 -x,-y,-z
6 -1/2-x,-1/2+y,-1/2+z
7 x,-1/2-y,z
8 -1/2+x,y,-1/2-z
_cell_length_a 19.7771(19)
_cell_length_b 32.525(3)
_cell_length_c 3.7499(4)
_cell_angle_alpha 90
_cell_angle_beta 90
_cell_angle_gamma 90
_cell_formula_units_Z 4
loop_
_atom_type_symbol
_atom_type_radius_bond
C 0.68
H 0.23
loop_
_atom_site_label
_atom_site_type_symbol
_atom_site_fract_x
_atom_site_fract_y
_atom_site_fract_z
C1 C 0.57903(13) 0.75000 -0.2758(7)
C2 C 0.62039(9) 0.78529(5) -0.2873(5)
C3 C 0.68870(9) 0.77172(5) -0.2921(5)
C4 C 0.51585(12) 0.75000 -0.1203(7)
C5 C 0.49225(9) 0.78962(5) -0.0113(5)
H1 H 0.44710 0.79230 0.07180
C6 C 0.53277(9) 0.82391(6) -0.0231(5)
H2 H 0.51490 0.84940 0.05740
C7 C 0.60151(9) 0.82275(5) -0.1532(5)
C8 C 0.65680(9) 0.85233(5) -0.0998(5)
C9 C 0.72434(9) 0.83855(6) -0.0984(5)
C10 C 0.74021(9) 0.79507(5) -0.1541(5)
C11 C 0.79528(9) 0.77113(5) -0.0172(5)
H3 H 0.83340 0.78510 0.07760
C12 C 0.64251(9) 0.89558(5) -0.0300(5)
C13 C 0.57960(9) 0.91305(6) -0.1100(5)
H4 H 0.54660 0.89680 -0.22800
C14 C 0.56434(9) 0.95270(6) -0.0234(5)
H5 H 0.52130 0.96380 -0.08230
C15 C 0.61211(9) 0.97686(6) 0.1518(5)
H6 H 0.60060 1.00370 0.23030
C16 C 0.67557(9) 0.96164(6) 0.2100(5)
H7 H 0.70850 0.97870 0.32090
C17 C 0.69344(9) 0.92136(5) 0.1097(5)
C18 C 0.76311(9) 0.90737(5) 0.1115(5)
C19 C 0.81665(10) 0.93304(6) 0.2120(5)
H8 H 0.80690 0.95890 0.31790
C20 C 0.88267(10) 0.92186(6) 0.1619(5)
H9 H 0.91820 0.93940 0.23980
C21 C 0.89741(9) 0.88460(6) -0.0042(5)
H10 H 0.94300 0.87730 -0.05230
C22 C 0.84627(9) 0.85854(6) -0.0978(5)
H11 H 0.85700 0.83340 -0.21440
C23 C 0.77820(9) 0.86789(5) -0.0261(5)
C2F C 0.62039(9) 0.71471(5) -0.2873(5)
C3F C 0.68870(9) 0.72828(5) -0.2921(5)
C5F C 0.49225(9) 0.71038(5) -0.0113(5)
H1F H 0.44710 0.70770 0.07180
C6F C 0.53277(9) 0.67609(6) -0.0231(5)
H2F H 0.51490 0.65060 0.05740
C7F C 0.60151(9) 0.67725(5) -0.1532(5)
C8F C 0.65680(9) 0.64767(5) -0.0998(5)
C9F C 0.72434(9) 0.66145(6) -0.0984(5)
C10F C 0.74021(9) 0.70493(5) -0.1541(5)
C11F C 0.79528(9) 0.72887(5) -0.0172(5)
H3F H 0.83340 0.71490 0.07760
C12F C 0.64251(9) 0.60442(5) -0.0300(5)
C13F C 0.57960(9) 0.58695(6) -0.1100(5)
H4F H 0.54660 0.60320 -0.22800
C14F C 0.56434(9) 0.54730(6) -0.0234(5)
H5F H 0.52130 0.53620 -0.08230
C15F C 0.61211(9) 0.52314(6) 0.1518(5)
H6F H 0.60060 0.49630 0.23030
C16F C 0.67557(9) 0.53836(6) 0.2100(5)
H7F H 0.70850 0.52130 0.32090
C17F C 0.69344(9) 0.57864(5) 0.1097(5)
C18F C 0.76311(9) 0.59263(5) 0.1115(5)
C19F C 0.81665(10) 0.56696(6) 0.2120(5)
H8F H 0.80690 0.54110 0.31790
C20F C 0.88267(10) 0.57814(6) 0.1619(5)
H9F H 0.91820 0.56060 0.23980
C21F C 0.89741(9) 0.61540(6) -0.0042(5)
H10F H 0.94300 0.62270 -0.05230
C22F C 0.84627(9) 0.64146(6) -0.0978(5)
H11F H 0.85700 0.66660 -0.21440
C23F C 0.77820(9) 0.63211(5) -0.0261(5)
loop_
_geom_bond_atom_site_label_1
_geom_bond_atom_site_label_2
_geom_bond_distance
_geom_bond_site_symmetry_1
_geom_bond_site_symmetry_2
C1 C2 1.410 1_555 1_555
C2 C3 1.421 1_555 1_555
C3 C10 1.372 1_555 1_555
C4 C1 1.379 1_555 1_555
C5 C4 1.430 1_555 1_555
H1 C5 0.950 1_555 1_555
C6 C5 1.374 1_555 1_555
H2 C6 0.950 1_555 1_555
C7 C2 1.370 1_555 1_555
C8 C7 1.470 1_555 1_555
C9 C8 1.409 1_555 1_555
C10 C9 1.464 1_555 1_555
C11 C10 1.434 1_555 1_555
H3 C11 0.949 1_555 1_555
C12 C8 1.458 1_555 1_555
C13 C12 1.400 1_555 1_555
H4 C13 0.949 1_555 1_555
C14 C13 1.364 1_555 1_555
H5 C14 0.951 1_555 1_555
C15 C14 1.393 1_555 1_555
H6 C15 0.949 1_555 1_555
C16 C15 1.367 1_555 1_555
H7 C16 0.951 1_555 1_555
C17 C12 1.411 1_555 1_555
C18 C17 1.451 1_555 1_555
C19 C18 1.400 1_555 1_555
H8 C19 0.950 1_555 1_555
C20 C19 1.368 1_555 1_555
H9 C20 0.951 1_555 1_555
C21 C20 1.393 1_555 1_555
H10 C21 0.950 1_555 1_555
C22 C21 1.365 1_555 1_555
H11 C22 0.951 1_555 1_555
C23 C9 1.456 1_555 1_555
C2F C1 1.410 1_555 1_555
C3F C3 1.413 1_555 1_555
C5F C4 1.430 1_555 1_555
H1F C5F 0.950 1_555 1_555
C6F C5F 1.374 1_555 1_555
H2F C6F 0.950 1_555 1_555
C7F C2F 1.370 1_555 1_555
C8F C7F 1.470 1_555 1_555
C9F C8F 1.409 1_555 1_555
C10F C3F 1.372 1_555 1_555
C11F C11 1.375 1_555 1_555
H3F C11F 0.949 1_555 1_555
C12F C8F 1.458 1_555 1_555
C13F C12F 1.400 1_555 1_555
H4F C13F 0.949 1_555 1_555
C14F C13F 1.364 1_555 1_555
H5F C14F 0.951 1_555 1_555
C15F C14F 1.393 1_555 1_555
H6F C15F 0.949 1_555 1_555
C16F C15F 1.367 1_555 1_555
H7F C16F 0.951 1_555 1_555
C17F C12F 1.411 1_555 1_555
C18F C17F 1.451 1_555 1_555
C19F C18F 1.400 1_555 1_555
H8F C19F 0.950 1_555 1_555
C20F C19F 1.368 1_555 1_555
H9F C20F 0.951 1_555 1_555
C21F C20F 1.393 1_555 1_555
H10F C21F 0.950 1_555 1_555
C22F C21F 1.365 1_555 1_555
H11F C22F 0.951 1_555 1_555
C23F C9F 1.456 1_555 1_555
C6 C7 1.445 1_555 1_555
C16 C17 1.408 1_555 1_555
C18 C23 1.416 1_555 1_555
C22 C23 1.406 1_555 1_555
C2F C3F 1.421 1_555 1_555
C6F C7F 1.445 1_555 1_555
C9F C10F 1.464 1_555 1_555
C10F C11F 1.434 1_555 1_555
C16F C17F 1.408 1_555 1_555
C18F C23F 1.416 1_555 1_555
C22F C23F 1.406 1_555 1_555
#END
