
#######################################################################
#
#                 Cambridge Crystallographic Data Centre
#                                CCDC
#
#######################################################################
#
# If this CIF has been generated from an entry in the Cambridge
# Structural Database, then it will include bibliographic, chemical,
# crystal, experimental, refinement or atomic coordinate data resulting
# from the CCDC's data processing and validation procedures.
#
#######################################################################

data_CSD_CIF_VUFHAG
_audit_creation_date 2010-08-06
_audit_creation_method CSD-ConQuest-V1
_database_code_CSD VUFHAG
_database_code_depnum_ccdc_archive 'CCDC 747820'
_chemical_formula_sum 'C32 H14'
_chemical_formula_moiety
;
C32 H14
;
_journal_coden_Cambridge 4
_journal_volume 131
_journal_year 2009
_journal_page_first 10537
_journal_name_full 'J.Am.Chem.Soc. '
loop_
_publ_author_name
"B.D.Steinberg"
"E.A.Jackson"
"A.S.Filatov"
"A.Wakamiya"
"M.A.Petrukhina"
"L.T.Scott"
_chemical_name_systematic
;
Di-indeno(1,2,3-bc:1',2',3'-ef)corannulene
;
_chemical_name_common
;
5a,9b,9e,9f-Tetrahydroacenaphtho[3,2,1,8-lmnoa]benzo[e]indeno[1,2,3-hi]acephen
anthrylene
;
_cell_volume   1763.365
_exptl_crystal_colour 'yellow'
_exptl_crystal_density_diffrn 1.501
_exptl_crystal_description 'needle'
_diffrn_ambient_temperature 100
#These two values have been output from a single CSD field.
_refine_ls_R_factor_gt 0.0711
_refine_ls_wR_factor_gt 0.0711
_symmetry_cell_setting orthorhombic
_symmetry_space_group_name_H-M 'P n m a'
_symmetry_Int_Tables_number 62
loop_
_symmetry_equiv_pos_site_id
_symmetry_equiv_pos_as_xyz
1 x,y,z
2 1/2-x,-y,1/2+z
3 -x,1/2+y,-z
4 1/2+x,1/2-y,1/2-z
5 -x,-y,-z
6 -1/2+x,y,-1/2-z
7 x,-1/2-y,z
8 -1/2-x,-1/2+y,-1/2+z
_cell_length_a 22.801(11)
_cell_length_b 19.793(10)
_cell_length_c 3.9073(19)
_cell_angle_alpha 90
_cell_angle_beta 90
_cell_angle_gamma 90
_cell_formula_units_Z 4
loop_
_atom_type_symbol
_atom_type_radius_bond
C 0.68
H 0.23
loop_
_atom_site_label
_atom_site_type_symbol
_atom_site_fract_x
_atom_site_fract_y
_atom_site_fract_z
C1 C 0.47001(14) 0.40298(17) 0.6131(8)
C2 C 0.43374(14) 0.45921(18) 0.6423(8)
C3 C 0.37571(14) 0.45735(17) 0.5277(7)
C4 C 0.35502(13) 0.39871(16) 0.3772(7)
C5 C 0.29659(13) 0.38344(15) 0.2326(7)
C6 C 0.24075(13) 0.40782(17) 0.2902(7)
C7 C 0.18955(13) 0.36754(16) 0.2060(7)
C8 C 0.13253(13) 0.37109(17) 0.3637(7)
C9 C 0.09594(14) 0.31569(16) 0.3875(8)
C10 C 0.11363(17) 0.25000 0.2615(10)
C11 C 0.16328(19) 0.25000 0.0618(10)
C12 C 0.19971(13) 0.30840(16) 0.0222(7)
C13 C 0.25666(13) 0.28560(13) -0.0539(7)
C14 C 0.30421(13) 0.31897(15) 0.0738(7)
C15 C 0.35764(12) 0.28527(14) 0.1794(7)
C16 C 0.39163(13) 0.34056(15) 0.3504(7)
C17 C 0.44881(14) 0.34299(17) 0.4699(7)
H1 H 0.5156(12) 0.4069(13) 0.686(6)
H2 H 0.4505(11) 0.5048(14) 0.727(6)
H3 H 0.3473(12) 0.4988(15) 0.551(6)
H4 H 0.2364(12) 0.4519(14) 0.431(8)
H5 H 0.1187(10) 0.4179(14) 0.478(6)
H6 H 0.0551(12) 0.3178(13) 0.524(6)
H7 H 0.4781(12) 0.3012(13) 0.451(7)
C1F C 0.47001(14) 0.09702(17) 0.6131(8)
C2F C 0.43374(14) 0.04079(18) 0.6423(8)
C3F C 0.37571(14) 0.04265(17) 0.5277(7)
C4F C 0.35502(13) 0.10129(16) 0.3772(7)
C5F C 0.29659(13) 0.11656(15) 0.2326(7)
C6F C 0.24075(13) 0.09218(17) 0.2902(7)
C7F C 0.18955(13) 0.13246(16) 0.2060(7)
C8F C 0.13253(13) 0.12891(17) 0.3637(7)
C9F C 0.09594(14) 0.18431(16) 0.3875(8)
C12F C 0.19971(13) 0.19160(16) 0.0222(7)
C13F C 0.25666(13) 0.21440(13) -0.0539(7)
C14F C 0.30421(13) 0.18103(15) 0.0738(7)
C15F C 0.35764(12) 0.21473(14) 0.1794(7)
C16F C 0.39163(13) 0.15944(15) 0.3504(7)
C17F C 0.44881(14) 0.15701(17) 0.4699(7)
H1F H 0.5156(12) 0.0931(13) 0.686(6)
H2F H 0.4505(11) -0.0048(14) 0.727(6)
H3F H 0.3473(12) 0.0012(15) 0.551(6)
H4F H 0.2364(12) 0.0481(14) 0.431(8)
H5F H 0.1187(10) 0.0821(14) 0.478(6)
H6F H 0.0551(12) 0.1822(13) 0.524(6)
H7F H 0.4781(12) 0.1988(13) 0.451(7)
loop_
_geom_bond_atom_site_label_1
_geom_bond_atom_site_label_2
_geom_bond_distance
_geom_bond_site_symmetry_1
_geom_bond_site_symmetry_2
C1 C2 1.391 1_555 1_555
C2 C3 1.397 1_555 1_555
C3 C4 1.384 1_555 1_555
C4 C5 1.478 1_555 1_555
C5 C6 1.380 1_555 1_555
C6 C7 1.451 1_555 1_555
C7 C8 1.440 1_555 1_555
C8 C9 1.381 1_555 1_555
C9 C10 1.448 1_555 1_555
C10 C11 1.375 1_555 1_555
C11 C12 1.432 1_555 1_555
C12 C7 1.393 1_555 1_555
C13 C12 1.406 1_555 1_555
C14 C5 1.430 1_555 1_555
C15 C14 1.449 1_555 1_555
C16 C4 1.426 1_555 1_555
C17 C1 1.399 1_555 1_555
H1 C1 1.081 1_555 1_555
H2 C2 1.034 1_555 1_555
H3 C3 1.049 1_555 1_555
H4 C6 1.036 1_555 1_555
H5 C8 1.076 1_555 1_555
H6 C9 1.074 1_555 1_555
H7 C17 1.066 1_555 1_555
C1F C2F 1.391 1_555 1_555
C2F C3F 1.397 1_555 1_555
C3F C4F 1.384 1_555 1_555
C4F C5F 1.478 1_555 1_555
C5F C6F 1.380 1_555 1_555
C6F C7F 1.451 1_555 1_555
C7F C8F 1.440 1_555 1_555
C8F C9F 1.381 1_555 1_555
C9F C10 1.448 1_555 1_555
C12F C11 1.432 1_555 1_555
C13F C13 1.409 1_555 1_555
C14F C5F 1.430 1_555 1_555
C15F C15 1.396 1_555 1_555
C16F C4F 1.426 1_555 1_555
C17F C1F 1.399 1_555 1_555
H1F C1F 1.081 1_555 1_555
H2F C2F 1.034 1_555 1_555
H3F C3F 1.049 1_555 1_555
H4F C6F 1.036 1_555 1_555
H5F C8F 1.076 1_555 1_555
H6F C9F 1.074 1_555 1_555
H7F C17F 1.066 1_555 1_555
C13 C14 1.364 1_555 1_555
C15 C16 1.498 1_555 1_555
C16 C17 1.386 1_555 1_555
C7F C12F 1.393 1_555 1_555
C12F C13F 1.406 1_555 1_555
C13F C14F 1.364 1_555 1_555
C14F C15F 1.449 1_555 1_555
C15F C16F 1.498 1_555 1_555
C16F C17F 1.386 1_555 1_555
#END
