
#######################################################################
#
#                 Cambridge Crystallographic Data Centre
#                                CCDC
#
#######################################################################
#
# If this CIF has been generated from an entry in the Cambridge
# Structural Database, then it will include bibliographic, chemical,
# crystal, experimental, refinement or atomic coordinate data resulting
# from the CCDC's data processing and validation procedures.
#
#######################################################################

data_CSD_CIF_VUFJAI
_audit_creation_date 2010-08-06
_audit_creation_method CSD-ConQuest-V1
_database_code_CSD VUFJAI
_database_code_depnum_ccdc_archive 'CCDC 747825'
_chemical_formula_sum 'C26 H12'
_chemical_formula_moiety
;
C26 H12
;
_journal_coden_Cambridge 4
_journal_volume 131
_journal_year 2009
_journal_page_first 10537
_journal_name_full 'J.Am.Chem.Soc. '
loop_
_publ_author_name
"B.D.Steinberg"
"E.A.Jackson"
"A.S.Filatov"
"A.Wakamiya"
"M.A.Petrukhina"
"L.T.Scott"
_chemical_name_systematic
;
Acenaphtho[3,2,1,8-lmnoa]benzo[e]acephenanthrylene
;
_chemical_name_common
;
Indenocorannulene
;
_cell_volume   1479.826
_exptl_crystal_colour 'yellow'
_exptl_crystal_density_diffrn 1.456
_exptl_crystal_description 'needle'
_diffrn_ambient_temperature 173
#These two values have been output from a single CSD field.
_refine_ls_R_factor_gt 0.0733
_refine_ls_wR_factor_gt 0.0733
_symmetry_cell_setting monoclinic
_symmetry_space_group_name_H-M 'P 21/n'
_symmetry_Int_Tables_number 14
loop_
_symmetry_equiv_pos_site_id
_symmetry_equiv_pos_as_xyz
1 x,y,z
2 1/2-x,1/2+y,1/2-z
3 -x,-y,-z
4 -1/2+x,-1/2-y,-1/2+z
_cell_length_a 3.8711(5)
_cell_length_b 31.278(4)
_cell_length_c 12.2437(16)
_cell_angle_alpha 90
_cell_angle_beta 93.423(2)
_cell_angle_gamma 90
_cell_formula_units_Z 4
loop_
_atom_type_symbol
_atom_type_radius_bond
C 0.68
H 0.23
loop_
_atom_site_label
_atom_site_type_symbol
_atom_site_fract_x
_atom_site_fract_y
_atom_site_fract_z
C1 C 0.6990(8) 0.30250(11) 0.2301(3)
C2 C 0.6841(8) 0.34395(11) 0.1921(3)
C3 C 0.5629(8) 0.37866(10) 0.2580(2)
C4 C 0.6508(8) 0.42345(11) 0.2534(3)
C5 C 0.6389(8) 0.44959(11) 0.3438(3)
C6 C 0.5299(7) 0.43404(10) 0.4479(3)
C7 C 0.6378(8) 0.45007(11) 0.5562(3)
C8 C 0.6300(7) 0.42417(10) 0.6465(2)
C9 C 0.8085(8) 0.42345(10) 0.7585(2)
C10 C 0.9484(8) 0.45650(11) 0.8225(3)
C11 C 1.1080(8) 0.44661(12) 0.9248(3)
C12 C 1.1288(8) 0.40481(12) 0.9615(3)
C13 C 0.9875(8) 0.37127(11) 0.8982(3)
C14 C 0.8248(8) 0.38029(10) 0.7969(3)
C15 C 0.6528(7) 0.3521(1) 0.7124(2)
C16 C 0.6816(8) 0.30938(10) 0.6847(3)
C17 C 0.5699(7) 0.29472(10) 0.5750(2)
C18 C 0.6989(8) 0.25776(10) 0.5188(3)
C19 C 0.7068(8) 0.25594(10) 0.4064(3)
C20 C 0.5926(7) 0.29143(10) 0.3376(2)
C21 C 0.4204(7) 0.32329(10) 0.3903(2)
C22 C 0.4071(7) 0.36614(10) 0.3511(2)
C23 C 0.3770(7) 0.39359(10) 0.4424(2)
C24 C 0.3624(7) 0.36752(10) 0.5354(2)
C25 C 0.3993(7) 0.32415(9) 0.5060(2)
C26 C 0.5038(7) 0.38129(9) 0.6331(2)
H1 H 0.819(7) 0.2800(9) 0.183(2)
H2 H 0.784(8) 0.3514(9) 0.122(2)
H3 H 0.754(8) 0.4355(9) 0.187(3)
H4 H 0.726(7) 0.4791(9) 0.336(2)
H5 H 0.761(7) 0.4779(9) 0.564(2)
H6 H 0.940(7) 0.4894(9) 0.801(2)
H7 H 1.218(8) 0.4704(10) 0.972(3)
H8 H 1.242(8) 0.3967(10) 1.036(3)
H9 H 0.999(8) 0.3405(10) 0.924(2)
H10 H 0.825(7) 0.2883(9) 0.737(2)
H11 H 0.785(8) 0.2325(10) 0.564(3)
H12 H 0.821(7) 0.2314(9) 0.376(2)
loop_
_geom_bond_atom_site_label_1
_geom_bond_atom_site_label_2
_geom_bond_distance
_geom_bond_site_symmetry_1
_geom_bond_site_symmetry_2
C1 C2 1.377 1_555 1_555
C2 C3 1.447 1_555 1_555
C3 C4 1.444 1_555 1_555
C4 C5 1.379 1_555 1_555
C5 C6 1.450 1_555 1_555
C6 C7 1.455 1_555 1_555
C7 C8 1.372 1_555 1_555
C8 C9 1.498 1_555 1_555
C9 C10 1.388 1_555 1_555
C10 C11 1.398 1_555 1_555
C11 C12 1.383 1_555 1_555
C12 C13 1.396 1_555 1_555
C13 C14 1.386 1_555 1_555
C14 C9 1.430 1_555 1_555
C15 C14 1.486 1_555 1_555
C16 C15 1.385 1_555 1_555
C17 C16 1.460 1_555 1_555
C18 C17 1.449 1_555 1_555
C19 C18 1.380 1_555 1_555
C20 C1 1.445 1_555 1_555
C21 C20 1.380 1_555 1_555
C22 C3 1.378 1_555 1_555
C23 C6 1.397 1_555 1_555
C24 C23 1.404 1_555 1_555
C25 C17 1.389 1_555 1_555
C26 C8 1.433 1_555 1_555
H1 C1 1.037 1_555 1_555
H2 C2 0.990 1_555 1_555
H3 C4 1.001 1_555 1_555
H4 C5 0.989 1_555 1_555
H5 C7 0.994 1_555 1_555
H6 C10 1.062 1_555 1_555
H7 C11 1.020 1_555 1_555
H8 C12 1.020 1_555 1_555
H9 C13 1.013 1_555 1_555
H10 C16 1.054 1_555 1_555
H11 C18 1.010 1_555 1_555
H12 C19 0.971 1_555 1_555
C15 C26 1.429 1_555 1_555
C19 C20 1.447 1_555 1_555
C21 C22 1.424 1_555 1_555
C21 C25 1.424 1_555 1_555
C22 C23 1.420 1_555 1_555
C24 C25 1.413 1_555 1_555
C24 C26 1.356 1_555 1_555
#END
