
#######################################################################
#
#                 Cambridge Crystallographic Data Centre
#                                CCDC
#
#######################################################################
#
# If this CIF has been generated from an entry in the Cambridge
# Structural Database, then it will include bibliographic, chemical,
# crystal, experimental, refinement or atomic coordinate data resulting
# from the CCDC's data processing and validation procedures.
#
#######################################################################

data_CSD_CIF_WANRAH
_audit_creation_date 2017-04-11
_audit_creation_method CSD-ConQuest-V1
_database_code_CSD WANRAH
_database_code_depnum_ccdc_archive 'CCDC 1413514'
_chemical_formula_sum 'C38 H36'
_chemical_formula_moiety
;
C38 H36
;
_journal_coden_Cambridge 1291
_journal_year 2017
_journal_page_first 1694
_journal_name_full 'Eur.J.Org.Chem. '
loop_
_publ_author_name
"M.S.Little"
"S.G.Yeates"
"A.A.Alwattar"
"K.W.J.Heard"
"J.Raftery"
"A.C.Edwards"
"A.V.S.Parry"
"P.Quayle"
_chemical_name_systematic
;
4,10-bis(4-t-butylphenyl)chrysene
;
_cell_volume   1354.851
_exptl_crystal_colour 'white'
_exptl_crystal_density_diffrn 1.208
_exptl_crystal_description 'prism'
_diffrn_ambient_temperature 100
#These two values have been output from a single CSD field.
_refine_ls_R_factor_gt 0.0636
_refine_ls_wR_factor_gt 0.0636
_symmetry_cell_setting monoclinic
_symmetry_space_group_name_H-M 'P 21'
_symmetry_Int_Tables_number 4
loop_
_symmetry_equiv_pos_site_id
_symmetry_equiv_pos_as_xyz
1 x,y,z
2 -x,1/2+y,-z
_cell_length_a 6.15728(15)
_cell_length_b 23.8062(6)
_cell_length_c 9.2710(2)
_cell_angle_alpha 90
_cell_angle_beta 94.455(2)
_cell_angle_gamma 90
_cell_formula_units_Z 2
loop_
_atom_type_symbol
_atom_type_radius_bond
C 0.68
H 0.23
loop_
_atom_site_label
_atom_site_type_symbol
_atom_site_fract_x
_atom_site_fract_y
_atom_site_fract_z
C1 C -0.1533(4) 0.66824(11) 0.5061(3)
C2 C -0.0502(4) 0.69443(11) 0.3888(3)
C3 C 0.1229(4) 0.66908(12) 0.3113(3)
C4 C 0.1871(4) 0.61191(11) 0.3341(3)
H1 H 0.10290 0.58840 0.39090
C5 C 0.3662(4) 0.59023(12) 0.2763(3)
H2 H 0.41410 0.55340 0.30240
C6 C 0.4828(4) 0.62209(11) 0.1770(3)
C7 C 0.6719(4) 0.59850(12) 0.1222(3)
H3 H 0.72490 0.56310 0.15690
C8 C 0.7779(4) 0.62662(13) 0.0194(3)
H4 H 0.90820 0.61190 -0.01410
C9 C 0.6918(4) 0.67723(13) -0.0352(3)
H5 H 0.76350 0.69580 -0.10890
C10 C 0.5059(4) 0.70172(12) 0.0132(3)
C11 C 0.4038(4) 0.67574(12) 0.1312(3)
C12 C 0.2277(4) 0.70094(11) 0.2072(3)
C13 C 0.1625(4) 0.75765(12) 0.1826(3)
H6 H 0.24340 0.78080 0.12280
C14 C -0.0128(5) 0.77939(11) 0.2427(3)
H7 H -0.05980 0.81630 0.21710
C15 C -0.1286(4) 0.74818(12) 0.3436(3)
C16 C -0.3121(5) 0.77292(12) 0.3993(3)
H8 H -0.36210 0.80860 0.36510
C17 C -0.4197(5) 0.74526(13) 0.5037(3)
H9 H -0.54800 0.76070 0.53840
C18 C -0.3361(4) 0.69430(12) 0.5570(3)
H10 H -0.40700 0.67630 0.63180
C19 C -0.0762(4) 0.61772(11) 0.5895(3)
C20 C -0.2180(4) 0.57301(12) 0.6081(3)
H11 H -0.36090 0.57390 0.56160
C21 C -0.1525(5) 0.52709(11) 0.6943(3)
H12 H -0.25180 0.49700 0.70410
C22 C 0.0531(5) 0.52408(11) 0.7659(3)
C23 C 0.1274(5) 0.47392(13) 0.8611(3)
C24 C -0.0637(5) 0.43640(14) 0.8975(3)
H13 H -0.16730 0.45850 0.94910
H14 H -0.00880 0.40520 0.95880
H15 H -0.13700 0.42160 0.80790
C25 C 0.2363(7) 0.49466(16) 1.0051(4)
H16 H 0.36850 0.51570 0.98760
H17 H 0.27470 0.46240 1.06770
H18 H 0.13550 0.51920 1.05250
C26 C 0.2864(6) 0.43768(15) 0.7809(4)
H19 H 0.21560 0.42570 0.68760
H20 H 0.32810 0.40450 0.83930
H21 H 0.41670 0.45970 0.76460
C27 C 0.1953(4) 0.56929(13) 0.7479(3)
H22 H 0.33780 0.56850 0.79530
C28 C 0.1320(4) 0.61486(12) 0.6628(3)
H23 H 0.23130 0.64490 0.65350
C29 C 0.4213(4) 0.75123(12) -0.0719(3)
C30 C 0.2195(5) 0.74974(13) -0.1535(3)
H24 H 0.13070 0.71720 -0.14990
C31 C 0.1475(5) 0.79448(13) -0.2386(3)
H25 H 0.01100 0.79200 -0.29350
C32 C 0.2726(4) 0.84386(12) -0.2458(3)
C33 C 0.1977(5) 0.89259(12) -0.3469(3)
C34 C -0.0496(5) 0.90045(17) -0.3517(5)
H26 H -0.09380 0.90490 -0.25310
H27 H -0.12200 0.86750 -0.39680
H28 H -0.09120 0.93400 -0.40840
C35 C 0.3036(6) 0.94779(14) -0.2988(4)
H29 H 0.23550 0.97860 -0.35590
H30 H 0.45950 0.94640 -0.31330
H31 H 0.28410 0.95400 -0.19610
C36 C 0.2636(7) 0.87855(14) -0.4981(3)
H32 H 0.21390 0.90850 -0.56540
H33 H 0.19660 0.84290 -0.53020
H34 H 0.42250 0.87530 -0.49580
C37 C 0.4721(5) 0.84468(13) -0.1658(3)
H35 H 0.56070 0.87730 -0.16860
C38 C 0.5470(5) 0.79922(13) -0.0813(3)
H36 H 0.68610 0.80110 -0.02940
loop_
_geom_bond_atom_site_label_1
_geom_bond_atom_site_label_2
_geom_bond_distance
_geom_bond_site_symmetry_1
_geom_bond_site_symmetry_2
C1 C2 1.443 1_555 1_555
C2 C3 1.461 1_555 1_555
C3 C4 1.428 1_555 1_555
C4 H1 0.950 1_555 1_555
C5 C4 1.364 1_555 1_555
H2 C5 0.950 1_555 1_555
C6 C5 1.429 1_555 1_555
C7 C6 1.422 1_555 1_555
H3 C7 0.951 1_555 1_555
C8 C7 1.371 1_555 1_555
H4 C8 0.950 1_555 1_555
C9 C8 1.395 1_555 1_555
H5 C9 0.951 1_555 1_555
C10 C9 1.390 1_555 1_555
C11 C6 1.420 1_555 1_555
C12 C3 1.421 1_555 1_555
C13 C12 1.422 1_555 1_555
H6 C13 0.950 1_555 1_555
C14 C13 1.355 1_555 1_555
H7 C14 0.949 1_555 1_555
C15 C2 1.419 1_555 1_555
C16 C15 1.407 1_555 1_555
H8 C16 0.950 1_555 1_555
C17 C16 1.382 1_555 1_555
H9 C17 0.950 1_555 1_555
C18 C1 1.399 1_555 1_555
H10 C18 0.950 1_555 1_555
C19 C1 1.487 1_555 1_555
C20 C19 1.396 1_555 1_555
H11 C20 0.950 1_555 1_555
C21 C20 1.395 1_555 1_555
H12 C21 0.951 1_555 1_555
C22 C21 1.385 1_555 1_555
C23 C22 1.533 1_555 1_555
C24 C23 1.536 1_555 1_555
H13 C24 0.980 1_555 1_555
H14 C24 0.979 1_555 1_555
H15 C24 0.980 1_555 1_555
C25 C23 1.529 1_555 1_555
H16 C25 0.980 1_555 1_555
H17 C25 0.980 1_555 1_555
H18 C25 0.981 1_555 1_555
C26 C23 1.539 1_555 1_555
H19 C26 0.980 1_555 1_555
H20 C26 0.981 1_555 1_555
H21 C26 0.980 1_555 1_555
C27 C22 1.406 1_555 1_555
H22 C27 0.950 1_555 1_555
C28 C19 1.405 1_555 1_555
H23 C28 0.949 1_555 1_555
C29 C10 1.490 1_555 1_555
C30 C29 1.404 1_555 1_555
H24 C30 0.950 1_555 1_555
C31 C30 1.378 1_555 1_555
H25 C31 0.950 1_555 1_555
C32 C31 1.410 1_555 1_555
C33 C32 1.539 1_555 1_555
C34 C33 1.531 1_555 1_555
H26 C34 0.980 1_555 1_555
H27 C34 0.980 1_555 1_555
H28 C34 0.979 1_555 1_555
C35 C33 1.518 1_555 1_555
H29 C35 0.980 1_555 1_555
H30 C35 0.980 1_555 1_555
H31 C35 0.980 1_555 1_555
C36 C33 1.526 1_555 1_555
H32 C36 0.981 1_555 1_555
H33 C36 0.980 1_555 1_555
H34 C36 0.980 1_555 1_555
C37 C32 1.385 1_555 1_555
H35 C37 0.951 1_555 1_555
C38 C29 1.386 1_555 1_555
H36 C38 0.950 1_555 1_555
C10 C11 1.443 1_555 1_555
C11 C12 1.467 1_555 1_555
C14 C15 1.428 1_555 1_555
C17 C18 1.393 1_555 1_555
C27 C28 1.380 1_555 1_555
C37 C38 1.393 1_555 1_555
#END
