
#######################################################################
#
#                 Cambridge Crystallographic Data Centre
#                                CCDC
#
#######################################################################
#
# If this CIF has been generated from an entry in the Cambridge
# Structural Database, then it will include bibliographic, chemical,
# crystal, experimental, refinement or atomic coordinate data resulting
# from the CCDC's data processing and validation procedures.
#
#######################################################################

data_CSD_CIF_WILKOS
_audit_creation_date 2008-01-08
_audit_creation_method CSD-ConQuest-V1
_database_code_CSD WILKOS
_database_code_depnum_ccdc_archive 'CCDC 299206'
_chemical_formula_sum 'C19 H14'
_chemical_formula_moiety
;
C19 H14
;
_journal_coden_Cambridge 1277
_journal_volume 111
_journal_year 2007
_journal_page_first 8803
_journal_name_full 'J.Phys.Chem.A '
loop_
_publ_author_name
"D.J.Wolstenholme"
"C.F.Matta"
"T.S.Cameron"
_chemical_name_systematic
;
4-Methylbenzo(c)phenanthrene
;
_chemical_name_common
;
4-Methyl-(4)helicene
;
_cell_volume   1254.742
_exptl_crystal_colour 'colorless'
_exptl_crystal_density_diffrn 1.291
_exptl_special_details
;
Study temperature given as 123.1 K in the cif

;
_exptl_crystal_description 'prism'
_diffrn_ambient_temperature 113
_refine_special_details
;
multipole refinement

;
#These two values have been output from a single CSD field.
_refine_ls_R_factor_gt 0.038
_refine_ls_wR_factor_gt 0.038
_symmetry_cell_setting monoclinic
_symmetry_space_group_name_H-M 'P 21/c'
_symmetry_Int_Tables_number 14
loop_
_symmetry_equiv_pos_site_id
_symmetry_equiv_pos_as_xyz
1 x,y,z
2 -x,1/2+y,1/2-z
3 -x,-y,-z
4 x,-1/2-y,-1/2+z
_cell_length_a 7.5875(5)
_cell_length_b 11.1085(5)
_cell_length_c 14.9042(9)
_cell_angle_alpha 90
_cell_angle_beta 92.772(3)
_cell_angle_gamma 90
_cell_formula_units_Z 4
loop_
_atom_type_symbol
_atom_type_radius_bond
C 0.68
H 0.23
loop_
_atom_site_label
_atom_site_type_symbol
_atom_site_fract_x
_atom_site_fract_y
_atom_site_fract_z
C1 C 0.24934(5) 0.72328(4) 0.53985(2)
C2 C 0.22536(5) 0.82008(4) 0.48272(2)
C3 C 0.37028(6) 0.87606(4) 0.44455(2)
C4 C 0.53829(5) 0.82936(4) 0.45881(2)
C5 C 0.73369(5) 0.66996(4) 0.52370(2)
C6 C 0.75737(5) 0.56689(4) 0.57270(2)
C7 C 0.64907(6) 0.40950(4) 0.67175(3)
C8 C 0.51927(6) 0.35784(4) 0.71871(3)
C9 C 0.22690(7) 0.36889(4) 0.78310(3)
C10 C 0.07634(7) 0.43141(5) 0.80156(3)
C11 C 0.05378(6) 0.54931(5) 0.76795(2)
C12 C 0.17601(5) 0.59912(4) 0.71284(2)
C13 C 0.68894(6) 0.88260(4) 0.41026(3)
C14 C 0.56479(5) 0.72733(4) 0.51614(2)
C15 C 0.42079(5) 0.67766(3) 0.56249(2)
C16 C 0.61852(5) 0.51927(4) 0.62356(2)
C17 C 0.45316(5) 0.57805(3) 0.62433(2)
C18 C 0.35518(6) 0.41945(4) 0.72815(2)
C19 C 0.32550(5) 0.53320(4) 0.68622(2)
H1 H 0.13417 0.67681 0.56252
H2 H 0.09372 0.85110 0.46321
H3 H 0.35682 0.95380 0.40091
H4 H 0.84124 0.70511 0.48632
H5 H 0.88210 0.51933 0.57458
H6 H 0.77670 0.36642 0.66881
H7 H 0.53780 0.27178 0.75199
H8 H 0.25010 0.28065 0.81223
H9 H -0.02079 0.39218 0.84374
H10 H -0.05288 0.60663 0.78798
H11 H 0.16181 0.69212 0.69194
H12 H 0.79268 0.91166 0.45520
H13 H 0.64327 0.95824 0.37266
H14 H 0.74756 0.82219 0.36552
loop_
_geom_bond_atom_site_label_1
_geom_bond_atom_site_label_2
_geom_bond_distance
_geom_bond_site_symmetry_1
_geom_bond_site_symmetry_2
C1 C2 1.378 1_555 1_555
C2 C3 1.407 1_555 1_555
C3 C4 1.383 1_555 1_555
C4 C13 1.503 1_555 1_555
C5 C6 1.365 1_555 1_555
C6 C16 1.429 1_555 1_555
C7 C8 1.362 1_555 1_555
C8 C18 1.434 1_555 1_555
C9 C10 1.376 1_555 1_555
C10 C11 1.410 1_555 1_555
C11 C12 1.384 1_555 1_555
C12 C19 1.423 1_555 1_555
C13 H12 1.059 1_555 1_555
C14 C4 1.428 1_555 1_555
C15 C1 1.421 1_555 1_555
C16 C7 1.428 1_555 1_555
C17 C15 1.453 1_555 1_555
C18 C9 1.418 1_555 1_555
C19 C17 1.457 1_555 1_555
H1 C1 1.083 1_555 1_555
H2 C2 1.083 1_555 1_555
H3 C3 1.083 1_555 1_555
H4 C5 1.083 1_555 1_555
H5 C6 1.083 1_555 1_555
H6 C7 1.083 1_555 1_555
H7 C8 1.083 1_555 1_555
H8 C9 1.083 1_555 1_555
H9 C10 1.083 1_555 1_555
H10 C11 1.083 1_555 1_555
H11 C12 1.083 1_555 1_555
H13 C13 1.059 1_555 1_555
H14 C13 1.059 1_555 1_555
C5 C14 1.431 1_555 1_555
C14 C15 1.431 1_555 1_555
C16 C17 1.415 1_555 1_555
C18 C19 1.423 1_555 1_555
#END
