
#######################################################################
#
#                 Cambridge Crystallographic Data Centre
#                                CCDC
#
#######################################################################
#
# If this CIF has been generated from an entry in the Cambridge
# Structural Database, then it will include bibliographic, chemical,
# crystal, experimental, refinement or atomic coordinate data resulting
# from the CCDC's data processing and validation procedures.
#
#######################################################################

data_CSD_CIF_WIWZEI
_audit_creation_date 2008-07-15
_audit_creation_method CSD-ConQuest-V1
_database_code_CSD WIWZEI
_database_code_depnum_ccdc_archive 'CCDC 661596'
_chemical_formula_sum 'C31 H26'
_chemical_formula_moiety
;
C31 H26
;
_journal_coden_Cambridge 16
_journal_volume 64
_journal_year 2008
_journal_page_first 1285
_journal_name_full 'Tetrahedron '
loop_
_publ_author_name
"Yanzhong Zhang"
"J.L.Petersen"
"K.K.Wang"
_chemical_name_systematic
;
7-t-butyl-13-phenyl-8H-indeno[2,1-b]phenanthrene
;
_cell_volume   2193.490
_exptl_crystal_density_diffrn 1.207
_exptl_crystal_preparation 'dichloromethane/hexanes'
_diffrn_ambient_temperature 295
#These two values have been output from a single CSD field.
_refine_ls_R_factor_gt 0.0606
_refine_ls_wR_factor_gt 0.0606
_symmetry_cell_setting monoclinic
_symmetry_space_group_name_H-M 'P 21/n'
_symmetry_Int_Tables_number 14
loop_
_symmetry_equiv_pos_site_id
_symmetry_equiv_pos_as_xyz
1 x,y,z
2 1/2-x,1/2+y,1/2-z
3 -x,-y,-z
4 -1/2+x,-1/2-y,-1/2+z
_cell_length_a 14.8243(12)
_cell_length_b 9.0268(8)
_cell_length_c 16.5130(14)
_cell_angle_alpha 90
_cell_angle_beta 96.945(2)
_cell_angle_gamma 90
_cell_formula_units_Z 4
loop_
_atom_type_symbol
_atom_type_radius_bond
C 0.68
H 0.23
loop_
_atom_site_label
_atom_site_type_symbol
_atom_site_fract_x
_atom_site_fract_y
_atom_site_fract_z
C1 C 0.32555(11) 0.6342(2) 0.13757(10)
C2 C 0.22915(12) 0.6820(2) 0.12386(11)
C3 C 0.15112(12) 0.6211(2) 0.08006(12)
H1 H 0.15410 0.53220 0.05200
C4 C 0.06972(13) 0.6953(3) 0.07923(13)
H2 H 0.01790 0.65650 0.04930
C5 C 0.06322(14) 0.8250(3) 0.12156(14)
H3 H 0.00740 0.87250 0.12020
C6 C 0.13883(14) 0.8850(3) 0.16600(14)
H4 H 0.13450 0.97210 0.19540
C7 C 0.22139(13) 0.8137(2) 0.16636(12)
C8 C 0.31179(13) 0.8636(2) 0.20604(12)
H5 H 0.31130 0.87640 0.26430
H6 H 0.32950 0.95620 0.18270
C9 C 0.37556(12) 0.7392(2) 0.1885(1)
C10 C 0.46643(12) 0.7172(2) 0.21719(11)
C11 C 0.50410(12) 0.5760(2) 0.19832(11)
C12 C 0.58469(12) 0.5187(2) 0.24468(12)
H7 H 0.61060 0.57210 0.28980
C13 C 0.62410(13) 0.3925(3) 0.22608(13)
H8 H 0.67260 0.35520 0.26120
C14 C 0.59317(12) 0.3142(2) 0.15352(13)
C15 C 0.64456(14) 0.1972(3) 0.12605(16)
H9 H 0.69650 0.16490 0.15860
C16 C 0.61981(16) 0.1306(3) 0.05313(16)
H10 H 0.65400 0.05280 0.03600
C17 C 0.54244(15) 0.1800(2) 0.00411(14)
H11 H 0.52630 0.13710 -0.04680
C18 C 0.48990(13) 0.2912(2) 0.03012(12)
H12 H 0.43830 0.32160 -0.00340
C19 C 0.51208(12) 0.3605(2) 0.10658(11)
C20 C 0.45961(11) 0.4828(2) 0.13627(10)
C21 C 0.36682(11) 0.5106(2) 0.10769(10)
C22 C 0.52633(13) 0.8359(2) 0.26584(12)
C23 C 0.49129(15) 0.9950(2) 0.25035(15)
H13 H 0.43690 1.00880 0.27570
H14 H 0.47820 1.01150 0.19270
H15 H 0.53680 1.06400 0.27300
C24 C 0.53062(19) 0.8072(3) 0.35837(14)
H16 H 0.47030 0.80930 0.37390
H17 H 0.56680 0.88270 0.38760
H18 H 0.55750 0.71200 0.37110
C25 C 0.62191(14) 0.8416(3) 0.23744(15)
H19 H 0.65540 0.92310 0.26350
H20 H 0.61620 0.85450 0.17930
H21 H 0.65350 0.75080 0.25190
C26 C 0.30985(11) 0.4065(2) 0.05304(11)
C27 C 0.28270(13) 0.4414(2) -0.02826(11)
H22 H 0.30110 0.53030 -0.04950
C28 C 0.22899(15) 0.3455(3) -0.07747(13)
H23 H 0.21180 0.36950 -0.13190
C29 C 0.20052(15) 0.2145(3) -0.04674(15)
H24 H 0.16380 0.15020 -0.08020
C30 C 0.22651(15) 0.1783(3) 0.03405(15)
H25 H 0.20720 0.08980 0.05510
C31 C 0.28123(12) 0.2737(2) 0.08339(12)
H26 H 0.29910 0.24860 0.13760
loop_
_geom_bond_atom_site_label_1
_geom_bond_atom_site_label_2
_geom_bond_distance
_geom_bond_site_symmetry_1
_geom_bond_site_symmetry_2
C1 C2 1.484 1_555 1_555
C2 C3 1.400 1_555 1_555
C3 H1 0.930 1_555 1_555
C4 C3 1.379 1_555 1_555
H2 C4 0.930 1_555 1_555
C5 C4 1.373 1_555 1_555
H3 C5 0.930 1_555 1_555
C6 C5 1.375 1_555 1_555
H4 C6 0.930 1_555 1_555
C7 C2 1.392 1_555 1_555
C8 C7 1.489 1_555 1_555
H5 C8 0.970 1_555 1_555
H6 C8 0.970 1_555 1_555
C9 C1 1.416 1_555 1_555
C10 C9 1.387 1_555 1_555
C11 C10 1.441 1_555 1_555
C12 C11 1.435 1_555 1_555
H7 C12 0.930 1_555 1_555
C13 C12 1.333 1_555 1_555
H8 C13 0.930 1_555 1_555
C14 C13 1.419 1_555 1_555
C15 C14 1.409 1_555 1_555
H9 C15 0.931 1_555 1_555
C16 C15 1.356 1_555 1_555
H10 C16 0.930 1_555 1_555
C17 C16 1.395 1_555 1_555
H11 C17 0.930 1_555 1_555
C18 C17 1.371 1_555 1_555
H12 C18 0.930 1_555 1_555
C19 C14 1.413 1_555 1_555
C20 C11 1.425 1_555 1_555
C21 C1 1.391 1_555 1_555
C22 C10 1.552 1_555 1_555
C23 C22 1.538 1_555 1_555
H13 C23 0.960 1_555 1_555
H14 C23 0.960 1_555 1_555
H15 C23 0.960 1_555 1_555
C24 C22 1.543 1_555 1_555
H16 C24 0.960 1_555 1_555
H17 C24 0.960 1_555 1_555
H18 C24 0.960 1_555 1_555
C25 C22 1.546 1_555 1_555
H19 C25 0.960 1_555 1_555
H20 C25 0.961 1_555 1_555
H21 C25 0.960 1_555 1_555
C26 C21 1.492 1_555 1_555
C27 C26 1.390 1_555 1_555
H22 C27 0.930 1_555 1_555
C28 C27 1.374 1_555 1_555
H23 C28 0.930 1_555 1_555
C29 C28 1.373 1_555 1_555
H24 C29 0.930 1_555 1_555
C30 C29 1.382 1_555 1_555
H25 C30 0.930 1_555 1_555
C31 C26 1.386 1_555 1_555
H26 C31 0.930 1_555 1_555
C6 C7 1.382 1_555 1_555
C8 C9 1.518 1_555 1_555
C18 C19 1.412 1_555 1_555
C19 C20 1.468 1_555 1_555
C20 C21 1.422 1_555 1_555
C30 C31 1.380 1_555 1_555
#END
