
#######################################################################
#
#                 Cambridge Crystallographic Data Centre
#                                CCDC
#
#######################################################################
#
# If this CIF has been generated from an entry in the Cambridge
# Structural Database, then it will include bibliographic, chemical,
# crystal, experimental, refinement or atomic coordinate data resulting
# from the CCDC's data processing and validation procedures.
#
#######################################################################

data_CSD_CIF_WUMWOR
_audit_creation_date 2010-06-17
_audit_creation_method CSD-ConQuest-V1
_database_code_CSD WUMWOR
_database_code_depnum_ccdc_archive 'CCDC 755726'
_chemical_formula_sum 'C40 H40'
_chemical_formula_moiety
;
C40 H40
;
_journal_coden_Cambridge 1336
_journal_volume 11
_journal_year 2009
_journal_page_first 4026
_journal_name_full 'Org.Lett. '
loop_
_publ_author_name
"H.Isobe"
"S.Hitosugi"
"T.Matsuno"
"T.Iwamoto"
"J.Ichikawa"
_chemical_name_systematic
;
3,9-bis(4-t-Butylphenyl)-6,12-dimethylchrysene
;
_chemical_melting_point 638.15
_cell_volume   1457.392
_exptl_crystal_colour 'colorless'
_exptl_crystal_density_diffrn 1.187
_exptl_special_details
;
Melts with decomposition.

;
_diffrn_ambient_temperature 223
#These two values have been output from a single CSD field.
_refine_ls_R_factor_gt 0.0582
_refine_ls_wR_factor_gt 0.0582
_symmetry_cell_setting triclinic
_symmetry_space_group_name_H-M 'P -1'
_symmetry_Int_Tables_number 2
loop_
_symmetry_equiv_pos_site_id
_symmetry_equiv_pos_as_xyz
1 x,y,z
2 -x,-y,-z
_cell_length_a 10.4320(18)
_cell_length_b 11.282(2)
_cell_length_c 13.320(2)
_cell_angle_alpha 102.375(1)
_cell_angle_beta 92.892(2)
_cell_angle_gamma 106.548(2)
_cell_formula_units_Z 2
loop_
_atom_type_symbol
_atom_type_radius_bond
C 0.68
H 0.23
loop_
_atom_site_label
_atom_site_type_symbol
_atom_site_fract_x
_atom_site_fract_y
_atom_site_fract_z
C1 C 0.29209(18) 0.60112(17) 0.22958(14)
C2 C 0.10845(19) 0.62973(17) -0.05630(14)
C3 C 0.33369(18) 0.66452(17) 0.41952(14)
C4 C 0.19404(18) 0.46762(17) -0.15483(14)
H1 H 0.24500 0.41080 -0.15660
C5 C 0.09480(19) 0.70843(17) 0.04064(15)
C6 C 0.05410(19) 0.55643(18) -0.24267(15)
H2 H 0.00970 0.56120 -0.30420
C7 C 0.28634(18) 0.68002(17) 0.32608(14)
H3 H 0.24840 0.74640 0.32670
C8 C 0.24970(18) 0.53681(17) 0.03903(14)
C9 C 0.35564(18) 0.50570(17) 0.22940(14)
C10 C 0.13765(19) 0.38496(17) -0.34861(14)
C11 C 0.23395(18) 0.61335(16) 0.13228(14)
C12 C 0.04318(19) 0.63266(17) -0.15033(15)
H4 H -0.00920 0.68820 -0.14990
C13 C 0.13014(19) 0.47152(17) -0.24711(15)
C14 C 0.38700(19) 0.56342(18) 0.41711(15)
H5 H 0.41470 0.54700 0.47960
C15 C 0.18632(19) 0.54523(17) -0.05770(14)
C16 C 0.15592(18) 0.69813(16) 0.12914(14)
H6 H 0.14640 0.74970 0.19210
C17 C 0.33300(18) 0.75574(17) 0.52096(14)
C18 C 0.37467(19) 0.43126(17) 0.13281(15)
C19 C 0.31631(19) 0.71566(18) 0.61022(15)
H7 H 0.29910 0.62880 0.60870
C20 C 0.1509(2) 0.21940(17) -0.53743(14)
C21 C 0.39947(19) 0.48825(17) 0.32541(15)
H8 H 0.43850 0.42290 0.32640
C22 C 0.1519(2) 0.12361(18) -0.63862(14)
C23 C 0.0404(2) 0.26256(18) -0.52006(15)
H9 H -0.03290 0.23550 -0.57220
C24 C 0.2484(2) 0.34586(17) -0.36486(14)
H10 H 0.32110 0.37420 -0.31210
C25 C 0.32471(19) 0.80307(19) 0.70419(15)
H11 H 0.31310 0.77350 0.76500
C26 C 0.32531(18) 0.45034(17) 0.04310(15)
H12 H 0.34200 0.40390 -0.01970
C27 C 0.3547(2) 0.88077(19) 0.52476(14)
H13 H 0.36480 0.90890 0.46330
C28 C 0.2570(2) 0.26449(17) -0.45815(15)
H14 H 0.33550 0.24020 -0.46720
C29 C 0.01100(19) 0.79798(17) 0.04375(14)
H15 H 0.00860 0.83930 0.11510
H16 H -0.07990 0.75030 0.01170
H17 H 0.05040 0.86190 0.00650
C30 C 0.3625(2) 0.96892(18) 0.61758(16)
H18 H 0.37670 1.05490 0.61720
C31 C 0.34976(19) 0.93272(19) 0.71031(15)
C32 C 0.0351(2) 0.34505(18) -0.42730(15)
H19 H -0.04070 0.37380 -0.41880
C33 C 0.3699(2) 1.02932(19) 0.81436(15)
C34 C 0.4484(2) 0.33367(18) 0.13020(14)
H20 H 0.46320 0.30180 0.05950
H21 H 0.39500 0.26370 0.15630
H22 H 0.53440 0.37270 0.17310
C35 C 0.1061(2) 0.16729(19) -0.73088(14)
H23 H 0.11100 0.10870 -0.79450
H24 H 0.16410 0.25190 -0.72950
H25 H 0.01400 0.16910 -0.72740
C36 C 0.2911(2) 0.1089(2) -0.65196(15)
H26 H 0.32000 0.07650 -0.59580
H27 H 0.35440 0.19100 -0.65110
H28 H 0.28740 0.04970 -0.71750
C37 C 0.2748(2) 0.9794(2) 0.88795(16)
H29 H 0.18250 0.95920 0.85720
H30 H 0.29040 1.04370 0.95240
H31 H 0.29030 0.90320 0.90160
C38 C 0.0532(2) -0.00565(18) -0.63591(15)
H32 H 0.08300 -0.03420 -0.57770
H33 H 0.05020 -0.06750 -0.69970
H34 H -0.03590 0.00300 -0.62860
C39 C 0.3520(3) 1.1545(2) 0.80080(16)
H35 H 0.26160 1.13930 0.76840
H36 H 0.41690 1.19050 0.75740
H37 H 0.36620 1.21360 0.86800
C40 C 0.5131(2) 1.0576(2) 0.86252(16)
H38 H 0.52910 1.12030 0.92790
H39 H 0.57520 1.09080 0.81620
H40 H 0.52700 0.98000 0.87430
loop_
_geom_bond_atom_site_label_1
_geom_bond_atom_site_label_2
_geom_bond_distance
_geom_bond_site_symmetry_1
_geom_bond_site_symmetry_2
C1 C7 1.413 1_555 1_555
C2 C5 1.441 1_555 1_555
C3 C7 1.380 1_555 1_555
C4 H1 0.940 1_555 1_555
C5 C16 1.355 1_555 1_555
C6 H2 0.940 1_555 1_555
C7 H3 0.940 1_555 1_555
C8 C11 1.399 1_555 1_555
C9 C1 1.416 1_555 1_555
C10 C13 1.509 1_555 1_555
C11 C1 1.453 1_555 1_555
C12 C2 1.406 1_555 1_555
H4 C12 0.941 1_555 1_555
C13 C4 1.384 1_555 1_555
C14 C3 1.400 1_555 1_555
H5 C14 0.940 1_555 1_555
C15 C2 1.416 1_555 1_555
C16 C11 1.427 1_555 1_555
H6 C16 0.940 1_555 1_555
C17 C3 1.515 1_555 1_555
C18 C9 1.434 1_555 1_555
C19 C17 1.362 1_555 1_555
H7 C19 0.940 1_555 1_555
C20 C22 1.539 1_555 1_555
C21 C9 1.408 1_555 1_555
H8 C21 0.940 1_555 1_555
C22 C35 1.522 1_555 1_555
C23 C20 1.385 1_555 1_555
H9 C23 0.940 1_555 1_555
C24 C10 1.360 1_555 1_555
H10 C24 0.940 1_555 1_555
C25 C19 1.399 1_555 1_555
H11 C25 0.941 1_555 1_555
C26 C8 1.426 1_555 1_555
H12 C26 0.940 1_555 1_555
C27 C17 1.353 1_555 1_555
H13 C27 0.940 1_555 1_555
C28 C20 1.389 1_555 1_555
H14 C28 0.940 1_555 1_555
C29 C5 1.508 1_555 1_555
H15 C29 0.970 1_555 1_555
H16 C29 0.970 1_555 1_555
H17 C29 0.970 1_555 1_555
C30 C27 1.393 1_555 1_555
H18 C30 0.940 1_555 1_555
C31 C25 1.394 1_555 1_555
C32 C10 1.362 1_555 1_555
H19 C32 0.940 1_555 1_555
C33 C31 1.532 1_555 1_555
C34 C18 1.508 1_555 1_555
H20 C34 0.970 1_555 1_555
H21 C34 0.970 1_555 1_555
H22 C34 0.970 1_555 1_555
C35 H23 0.970 1_555 1_555
H24 C35 0.970 1_555 1_555
H25 C35 0.970 1_555 1_555
C36 C22 1.523 1_555 1_555
H26 C36 0.970 1_555 1_555
H27 C36 0.970 1_555 1_555
H28 C36 0.970 1_555 1_555
C37 C33 1.510 1_555 1_555
H29 C37 0.971 1_555 1_555
H30 C37 0.970 1_555 1_555
H31 C37 0.970 1_555 1_555
C38 C22 1.536 1_555 1_555
H32 C38 0.970 1_555 1_555
H33 C38 0.970 1_555 1_555
H34 C38 0.969 1_555 1_555
C39 C33 1.523 1_555 1_555
H35 C39 0.970 1_555 1_555
H36 C39 0.970 1_555 1_555
H37 C39 0.971 1_555 1_555
C40 C33 1.513 1_555 1_555
H38 C40 0.970 1_555 1_555
H39 C40 0.970 1_555 1_555
H40 C40 0.970 1_555 1_555
C4 C15 1.418 1_555 1_555
C6 C12 1.372 1_555 1_555
C6 C13 1.401 1_555 1_555
C8 C15 1.452 1_555 1_555
C14 C21 1.365 1_555 1_555
C18 C26 1.360 1_555 1_555
C23 C32 1.393 1_555 1_555
C24 C28 1.401 1_555 1_555
C30 C31 1.383 1_555 1_555
#END
