
#######################################################################
#
#                 Cambridge Crystallographic Data Centre
#                                CCDC
#
#######################################################################
#
# If this CIF has been generated from an entry in the Cambridge
# Structural Database, then it will include bibliographic, chemical,
# crystal, experimental, refinement or atomic coordinate data resulting
# from the CCDC's data processing and validation procedures.
#
#######################################################################

data_CSD_CIF_WUSGUM
_audit_creation_date 2003-05-15
_audit_creation_method CSD-ConQuest-V1
_database_code_CSD WUSGUM
_database_code_depnum_ccdc_archive 'CCDC 189847'
_chemical_formula_sum 'C20 H12'
_chemical_formula_moiety
;
C20 H12
;
_journal_coden_Cambridge 16
_journal_volume 59
_journal_year 2003
_journal_page_first 801
_journal_name_full 'Tetrahedron '
loop_
_publ_author_name
"M.Mouri"
"S.Kuroda"
"M.Oda"
"R.Miyatake"
"M.Kyogoku"
_chemical_name_systematic
;
Azuleno(1,2-a)acenaphthylene
;
_chemical_melting_point 428.15
_cell_volume   1324.840
_exptl_crystal_colour 'green'
_exptl_crystal_density_diffrn 1.265
_exptl_special_details
;
Melting point range 428.15-429.15K

;
_exptl_crystal_description 'prismatic'
_exptl_crystal_preparation 'dichloromethane/hexane'
_diffrn_ambient_temperature 296.2
#These two values have been output from a single CSD field.
_refine_ls_R_factor_gt 0.0441
_refine_ls_wR_factor_gt 0.0441
_symmetry_cell_setting monoclinic
_symmetry_space_group_name_H-M 'P 21/a'
_symmetry_Int_Tables_number 14
loop_
_symmetry_equiv_pos_site_id
_symmetry_equiv_pos_as_xyz
1 x,y,z
2 1/2+x,1/2-y,z
3 -x,-y,-z
4 -1/2-x,-1/2+y,-z
_cell_length_a 8.070(3)
_cell_length_b 12.626(3)
_cell_length_c 13.203(3)
_cell_angle_alpha 90
_cell_angle_beta 100.00(2)
_cell_angle_gamma 90
_cell_formula_units_Z 4
loop_
_atom_type_symbol
_atom_type_radius_bond
C 0.68
H 0.23
loop_
_atom_site_label
_atom_site_type_symbol
_atom_site_fract_x
_atom_site_fract_y
_atom_site_fract_z
C1 C 0.4225(2) 0.1602(1) 0.3627(2)
C2 C 0.4846(3) 0.2085(2) 0.4560(2)
C3 C 0.4192(2) 0.1550(1) 0.5339(2)
C4 C 0.4532(3) 0.1794(2) 0.6380(2)
C5 C 0.3922(3) 0.1315(2) 0.7190(2)
C6 C 0.2853(3) 0.0473(2) 0.7173(2)
C7 C 0.2094(3) -0.0155(2) 0.6353(2)
C8 C 0.2211(2) -0.0065(2) 0.5324(2)
C9 C 0.3091(2) 0.0672(1) 0.4837(1)
C10 C 0.3161(2) 0.0740(1) 0.3792(1)
C11 C 0.2571(2) 0.0215(1) 0.2808(1)
C12 C 0.1579(2) -0.0634(2) 0.2462(2)
C13 C 0.1349(3) -0.0905(2) 0.1408(2)
C14 C 0.2085(3) -0.0356(2) 0.0713(2)
C15 C 0.3119(2) 0.0530(2) 0.1036(2)
C16 C 0.3991(3) 0.1194(3) 0.0432(2)
C17 C 0.4958(4) 0.2019(3) 0.0870(3)
C18 C 0.5137(3) 0.2265(2) 0.1920(2)
C19 C 0.4329(2) 0.1643(1) 0.2537(2)
C20 C 0.3324(2) 0.0786(1) 0.2072(2)
H1 H 0.559(2) 0.268(2) 0.467(1)
H2 H 0.529(3) 0.239(2) 0.652(2)
H3 H 0.435(3) 0.165(2) 0.789(2)
H4 H 0.260(3) 0.029(2) 0.786(2)
H5 H 0.138(3) -0.080(2) 0.653(2)
H6 H 0.161(2) -0.063(1) 0.485(2)
H7 H 0.103(2) -0.104(2) 0.296(1)
H8 H 0.059(3) -0.151(2) 0.116(2)
H9 H 0.197(3) -0.057(2) 0.001(2)
H10 H 0.396(3) 0.101(2) -0.024(2)
H11 H 0.558(3) 0.245(2) 0.041(2)
H12 H 0.581(3) 0.289(2) 0.225(2)
loop_
_geom_bond_atom_site_label_1
_geom_bond_atom_site_label_2
_geom_bond_distance
_geom_bond_site_symmetry_1
_geom_bond_site_symmetry_2
C1 C2 1.388 1_555 1_555
C2 C3 1.408 1_555 1_555
C3 C4 1.389 1_555 1_555
C4 C5 1.391 1_555 1_555
C5 C6 1.367 1_555 1_555
C6 C7 1.395 1_555 1_555
C7 C8 1.383 1_555 1_555
C8 C9 1.394 1_555 1_555
C9 C3 1.501 1_555 1_555
C10 C1 1.426 1_555 1_555
C11 C10 1.463 1_555 1_555
C12 C11 1.368 1_555 1_555
C13 C12 1.414 1_555 1_555
C14 C13 1.365 1_555 1_555
C15 C14 1.416 1_555 1_555
C16 C15 1.424 1_555 1_555
C17 C16 1.368 1_555 1_555
C18 C17 1.403 1_555 1_555
C19 C1 1.457 1_555 1_555
C20 C11 1.428 1_555 1_555
H1 C2 0.957 1_555 1_555
H2 C4 0.967 1_555 1_555
H3 C5 1.021 1_555 1_555
H4 C6 0.991 1_555 1_555
H5 C7 1.047 1_555 1_555
H6 C8 1.015 1_555 1_555
H7 C12 0.996 1_555 1_555
H8 C13 0.998 1_555 1_555
H9 C14 0.956 1_555 1_555
H10 C16 0.913 1_555 1_555
H11 C17 1.011 1_555 1_555
H12 C18 1.013 1_555 1_555
C9 C10 1.393 1_555 1_555
C15 C20 1.387 1_555 1_555
C18 C19 1.375 1_555 1_555
C19 C20 1.426 1_555 1_555
#END
