
#######################################################################
#
#                 Cambridge Crystallographic Data Centre
#                                CCDC
#
#######################################################################
#
# If this CIF has been generated from an entry in the Cambridge
# Structural Database, then it will include bibliographic, chemical,
# crystal, experimental, refinement or atomic coordinate data resulting
# from the CCDC's data processing and validation procedures.
#
#######################################################################

data_CSD_CIF_WUXMUZ
_audit_creation_date 2015-10-15
_audit_creation_method CSD-ConQuest-V1
_database_code_CSD WUXMUZ
_database_code_depnum_ccdc_archive 'CCDC 1044326'
_chemical_formula_sum 'C56 H58'
_chemical_formula_moiety
;
C56 H58
;
_journal_coden_Cambridge 1695
_journal_volume 4
_journal_year 2016
_journal_page_first 3041
_journal_name_full 'J.Mater.Chem.C '
loop_
_publ_author_name
"T.H.El-Assaad"
"M.Auer"
"R.Castaneda"
"K.M.Hallal"
"F.M.Jradi"
"L.Mosca"
"R.S.Khnayzer"
"D.Patra"
"T.V.Timofeeva"
"J.-L.Bredas"
"E.J.W.List-Kratochvil"
"B.Wex"
"B.R.Kaafarani"
_chemical_name_systematic
;
1,3,6,8-tetrakis(4-t-butylphenyl)pyrene
;
_cell_volume   4236.835
_exptl_crystal_colour 'colorless'
_exptl_crystal_density_diffrn 1.146
_exptl_special_details
;
Luminescent

;
_exptl_crystal_description 'block'
_diffrn_ambient_temperature 100.2
#These two values have been output from a single CSD field.
_refine_ls_R_factor_gt 0.0485
_refine_ls_wR_factor_gt 0.0485
_symmetry_cell_setting orthorhombic
_symmetry_space_group_name_H-M 'P c a b'
_symmetry_Int_Tables_number 61
loop_
_symmetry_equiv_pos_site_id
_symmetry_equiv_pos_as_xyz
1 x,y,z
2 -x,1/2-y,1/2+z
3 1/2+x,-y,1/2-z
4 1/2-x,1/2+y,-z
5 -x,-y,-z
6 x,-1/2+y,-1/2-z
7 -1/2-x,y,-1/2+z
8 -1/2+x,-1/2-y,z
_cell_length_a 12.3292(18)
_cell_length_b 14.816(2)
_cell_length_c 23.194(3)
_cell_angle_alpha 90
_cell_angle_beta 90
_cell_angle_gamma 90
_cell_formula_units_Z 4
loop_
_atom_type_symbol
_atom_type_radius_bond
C 0.68
H 0.23
loop_
_atom_site_label
_atom_site_type_symbol
_atom_site_fract_x
_atom_site_fract_y
_atom_site_fract_z
C1 C 0.31958(9) 0.00232(7) 0.09272(4)
C2 C 0.46094(9) -0.01861(7) 0.01963(4)
C3 C 0.35562(9) -0.24883(7) 0.06928(4)
C4 C 0.37006(9) -0.14972(7) 0.06190(5)
C5 C 0.44560(9) -0.11386(7) 0.02226(4)
C6 C 0.25150(9) 0.06065(7) 0.13051(5)
C7 C 0.50396(9) -0.16976(7) -0.01778(5)
H1 H 0.49040 -0.23290 -0.01840
C8 C 0.18633(9) 0.12942(8) 0.10848(5)
H2 H 0.18330 0.13890 0.06800
C9 C 0.32653(10) -0.43519(7) 0.09125(5)
C10 C 0.39880(9) 0.03983(7) 0.05564(4)
C11 C 0.12557(9) 0.18450(8) 0.14500(5)
H3 H 0.08150 0.23060 0.12890
C12 C 0.30834(9) -0.09102(8) 0.09548(5)
H4 H 0.25650 -0.11580 0.12130
C13 C 0.06581(9) 0.23444(8) 0.24671(5)
C14 C 0.23906(9) -0.37946(8) 0.07808(5)
H5 H 0.16820 -0.40440 0.07650
C15 C 0.42967(10) -0.39606(8) 0.09157(5)
H6 H 0.49120 -0.43280 0.09910
C16 C 0.42223(9) 0.13444(7) 0.05463(5)
H7 H 0.38510 0.17340 0.08050
C17 C 0.12811(9) 0.17328(8) 0.20481(5)
C18 C 0.25348(9) -0.28787(8) 0.06716(5)
H8 H 0.19230 -0.25150 0.05810
C19 C 0.44406(9) -0.30484(8) 0.08112(5)
H9 H 0.51510 -0.28000 0.08200
C20 C 0.19263(10) 0.10339(8) 0.22632(5)
H10 H 0.19570 0.09370 0.26680
C21 C 0.25234(10) 0.04780(8) 0.19018(5)
H11 H 0.29440 0.00030 0.20620
C22 C -0.00135(11) 0.17621(9) 0.28857(5)
H12 H -0.04950 0.13650 0.26650
H13 H -0.04480 0.21550 0.31350
H14 H 0.04750 0.13960 0.31230
C23 C 0.31375(11) -0.53560(8) 0.10460(5)
C24 C -0.01151(11) 0.29958(9) 0.21591(6)
H15 H 0.03000 0.33840 0.18980
H16 H -0.04900 0.33700 0.24450
H17 H -0.06500 0.26500 0.19380
C25 C 0.37595(12) -0.55861(9) 0.15996(6)
H18 H 0.45360 -0.54850 0.15380
H19 H 0.36350 -0.62200 0.17000
H20 H 0.35040 -0.52000 0.19150
C26 C 0.14854(11) 0.29056(10) 0.28110(6)
H21 H 0.19680 0.25000 0.30250
H22 H 0.11010 0.32990 0.30820
H23 H 0.19140 0.32750 0.25450
C27 C 0.19532(12) -0.56170(9) 0.11461(7)
H24 H 0.16520 -0.52490 0.14590
H25 H 0.19110 -0.62570 0.12520
H26 H 0.15370 -0.55130 0.07920
C28 C 0.35926(16) -0.59056(9) 0.05380(7)
H27 H 0.31990 -0.57480 0.01850
H28 H 0.35040 -0.65510 0.06170
H29 H 0.43650 -0.57680 0.04890
C1D C 0.68042(9) -0.00232(7) -0.09272(4)
C2D C 0.53906(9) 0.01861(7) -0.01963(4)
C3D C 0.64438(9) 0.24883(7) -0.06928(4)
C4D C 0.62994(9) 0.14972(7) -0.06190(5)
C5D C 0.55440(9) 0.11386(7) -0.02226(4)
C6D C 0.74850(9) -0.06065(7) -0.13051(5)
C7D C 0.49604(9) 0.16976(7) 0.01778(5)
H1D H 0.50960 0.23290 0.01840
C8D C 0.81367(9) -0.12942(8) -0.10848(5)
H2D H 0.81670 -0.13890 -0.06800
C9D C 0.67347(10) 0.43519(7) -0.09125(5)
C10D C 0.60120(9) -0.03983(7) -0.05564(4)
C11D C 0.87443(9) -0.18450(8) -0.14500(5)
H3D H 0.91850 -0.23060 -0.12890
C12D C 0.69166(9) 0.09102(8) -0.09548(5)
H4D H 0.74350 0.11580 -0.12130
C13D C 0.93419(9) -0.23444(8) -0.24671(5)
C14D C 0.76094(9) 0.37946(8) -0.07808(5)
H5D H 0.83180 0.40440 -0.07650
C15D C 0.57033(10) 0.39606(8) -0.09157(5)
H6D H 0.50880 0.43280 -0.09910
C16D C 0.57777(9) -0.13444(7) -0.05463(5)
H7D H 0.61490 -0.17340 -0.08050
C17D C 0.87189(9) -0.17328(8) -0.20481(5)
C18D C 0.74652(9) 0.28787(8) -0.06716(5)
H8D H 0.80770 0.25150 -0.05810
C19D C 0.55594(9) 0.30484(8) -0.08112(5)
H9D H 0.48490 0.28000 -0.08200
C20D C 0.80737(10) -0.10339(8) -0.22632(5)
H10D H 0.80430 -0.09370 -0.26680
C21D C 0.74766(10) -0.04780(8) -0.19018(5)
H11D H 0.70560 -0.00030 -0.20620
C22D C 1.00135(11) -0.17621(9) -0.28857(5)
H12D H 1.04950 -0.13650 -0.26650
H13D H 1.04480 -0.21550 -0.31350
H14D H 0.95250 -0.13960 -0.31230
C23D C 0.68625(11) 0.53560(8) -0.10460(5)
C24D C 1.01151(11) -0.29958(9) -0.21591(6)
H15D H 0.97000 -0.33840 -0.18980
H16D H 1.04900 -0.33700 -0.24450
H17D H 1.06500 -0.26500 -0.19380
C25D C 0.62405(12) 0.55861(9) -0.15996(6)
H18D H 0.54640 0.54850 -0.15380
H19D H 0.63650 0.62200 -0.17000
H20D H 0.64960 0.52000 -0.19150
C26D C 0.85146(11) -0.29056(10) -0.28110(6)
H21D H 0.80320 -0.25000 -0.30250
H22D H 0.88990 -0.32990 -0.30820
H23D H 0.80860 -0.32750 -0.25450
C27D C 0.80468(12) 0.56170(9) -0.11461(7)
H24D H 0.83480 0.52490 -0.14590
H25D H 0.80890 0.62570 -0.12520
H26D H 0.84630 0.55130 -0.07920
C28D C 0.64074(16) 0.59056(9) -0.05380(7)
H27D H 0.68010 0.57480 -0.01850
H28D H 0.64960 0.65510 -0.06170
H29D H 0.56350 0.57680 -0.04890
loop_
_geom_bond_atom_site_label_1
_geom_bond_atom_site_label_2
_geom_bond_distance
_geom_bond_site_symmetry_1
_geom_bond_site_symmetry_2
C1 C6 1.490 1_555 1_555
C2 C5 1.425 1_555 1_555
C3 C4 1.489 1_555 1_555
C4 C5 1.412 1_555 1_555
C5 C7 1.437 1_555 1_555
C6 C8 1.395 1_555 1_555
C7 H1 0.950 1_555 1_555
C8 H2 0.950 1_555 1_555
C9 C14 1.392 1_555 1_555
C10 C1 1.415 1_555 1_555
C11 C8 1.395 1_555 1_555
H3 C11 0.949 1_555 1_555
C12 C1 1.391 1_555 1_555
H4 C12 0.950 1_555 1_555
C13 C17 1.535 1_555 1_555
C14 H5 0.949 1_555 1_555
C15 C9 1.398 1_555 1_555
H6 C15 0.950 1_555 1_555
C16 C10 1.431 1_555 1_555
H7 C16 0.950 1_555 1_555
C17 C11 1.398 1_555 1_555
C18 C3 1.387 1_555 1_555
H8 C18 0.951 1_555 1_555
C19 C3 1.398 1_555 1_555
H9 C19 0.950 1_555 1_555
C20 C17 1.398 1_555 1_555
H10 C20 0.951 1_555 1_555
C21 C6 1.397 1_555 1_555
H11 C21 0.950 1_555 1_555
C22 C13 1.540 1_555 1_555
H12 C22 0.980 1_555 1_555
H13 C22 0.980 1_555 1_555
H14 C22 0.980 1_555 1_555
C23 C9 1.528 1_555 1_555
C24 C13 1.533 1_555 1_555
H15 C24 0.980 1_555 1_555
H16 C24 0.980 1_555 1_555
H17 C24 0.980 1_555 1_555
C25 C23 1.534 1_555 1_555
H18 C25 0.979 1_555 1_555
H19 C25 0.980 1_555 1_555
H20 C25 0.981 1_555 1_555
C26 C13 1.539 1_555 1_555
H21 C26 0.981 1_555 1_555
H22 C26 0.980 1_555 1_555
H23 C26 0.979 1_555 1_555
C27 C23 1.528 1_555 1_555
H24 C27 0.981 1_555 1_555
H25 C27 0.981 1_555 1_555
H26 C27 0.981 1_555 1_555
C28 C23 1.538 1_555 1_555
H27 C28 0.980 1_555 1_555
H28 C28 0.980 1_555 1_555
H29 C28 0.980 1_555 1_555
C1D C6D 1.490 1_555 1_555
C2D C2 1.436 1_555 1_555
C3D C4D 1.489 1_555 1_555
C4D C5D 1.412 1_555 1_555
C5D C2D 1.425 1_555 1_555
C6D C8D 1.395 1_555 1_555
C7D C16 1.354 1_555 1_555
H1D C7D 0.950 1_555 1_555
C8D H2D 0.950 1_555 1_555
C9D C14D 1.392 1_555 1_555
C10D C1D 1.415 1_555 1_555
C11D C8D 1.395 1_555 1_555
H3D C11D 0.949 1_555 1_555
C12D C1D 1.391 1_555 1_555
H4D C12D 0.950 1_555 1_555
C13D C17D 1.535 1_555 1_555
C14D H5D 0.949 1_555 1_555
C15D C9D 1.398 1_555 1_555
H6D C15D 0.950 1_555 1_555
C16D C7 1.354 1_555 1_555
H7D C16D 0.950 1_555 1_555
C17D C11D 1.398 1_555 1_555
C18D C3D 1.387 1_555 1_555
H8D C18D 0.951 1_555 1_555
C19D C3D 1.398 1_555 1_555
H9D C19D 0.950 1_555 1_555
C20D C17D 1.398 1_555 1_555
H10D C20D 0.951 1_555 1_555
C21D C6D 1.397 1_555 1_555
H11D C21D 0.950 1_555 1_555
C22D C13D 1.540 1_555 1_555
H12D C22D 0.980 1_555 1_555
H13D C22D 0.980 1_555 1_555
H14D C22D 0.980 1_555 1_555
C23D C9D 1.528 1_555 1_555
C24D C13D 1.533 1_555 1_555
H15D C24D 0.980 1_555 1_555
H16D C24D 0.980 1_555 1_555
H17D C24D 0.980 1_555 1_555
C25D C23D 1.534 1_555 1_555
H18D C25D 0.979 1_555 1_555
H19D C25D 0.980 1_555 1_555
H20D C25D 0.981 1_555 1_555
C26D C13D 1.539 1_555 1_555
H21D C26D 0.981 1_555 1_555
H22D C26D 0.980 1_555 1_555
H23D C26D 0.979 1_555 1_555
C27D C23D 1.528 1_555 1_555
H24D C27D 0.981 1_555 1_555
H25D C27D 0.981 1_555 1_555
H26D C27D 0.981 1_555 1_555
C28D C23D 1.538 1_555 1_555
H27D C28D 0.980 1_555 1_555
H28D C28D 0.980 1_555 1_555
H29D C28D 0.980 1_555 1_555
C2 C10 1.426 1_555 1_555
C4 C12 1.394 1_555 1_555
C14 C18 1.392 1_555 1_555
C15 C19 1.384 1_555 1_555
C20 C21 1.387 1_555 1_555
C2D C10D 1.426 1_555 1_555
C4D C12D 1.394 1_555 1_555
C5D C7D 1.437 1_555 1_555
C10D C16D 1.431 1_555 1_555
C14D C18D 1.392 1_555 1_555
C15D C19D 1.384 1_555 1_555
C20D C21D 1.387 1_555 1_555
#END
