
#######################################################################
#
#                 Cambridge Crystallographic Data Centre
#                                CCDC
#
#######################################################################
#
# If this CIF has been generated from an entry in the Cambridge
# Structural Database, then it will include bibliographic, chemical,
# crystal, experimental, refinement or atomic coordinate data resulting
# from the CCDC's data processing and validation procedures.
#
#######################################################################

data_CSD_CIF_XEHLEE
_audit_creation_date 2017-07-24
_audit_creation_method CSD-ConQuest-V1
_database_code_CSD XEHLEE
_database_code_depnum_ccdc_archive 'CCDC 1540144'
_chemical_formula_sum 'C24 H18'
_chemical_formula_moiety
;
C24 H18
;
_journal_coden_Cambridge 4
_journal_volume 139
_journal_year 2017
_journal_page_first 8977
_journal_name_full 'J.Am.Chem.Soc. '
loop_
_publ_author_name
"M.Wilklow-Marnell"
"Bo Li"
"Tian Zhou"
"K.Krogh-Jespersen"
"W.W.Brennessel"
"T.J.Emge"
"A.S.Goldman"
"W.D.Jones"
_chemical_name_systematic
;
2,2'-(buta-1,3-diene-1,4-diyl)dinaphthalene
;
_cell_volume    789.615
_exptl_crystal_colour 'light yellow'
_exptl_crystal_density_diffrn 1.289
_exptl_crystal_description 'block'
_diffrn_ambient_temperature 100
#These two values have been output from a single CSD field.
_refine_ls_R_factor_gt 0.0665
_refine_ls_wR_factor_gt 0.0665
_symmetry_cell_setting monoclinic
_symmetry_space_group_name_H-M 'P 21'
_symmetry_Int_Tables_number 4
loop_
_symmetry_equiv_pos_site_id
_symmetry_equiv_pos_as_xyz
1 x,y,z
2 -x,1/2+y,-z
_cell_length_a 6.4734(9)
_cell_length_b 7.2485(10)
_cell_length_c 16.941(2)
_cell_angle_alpha 90
_cell_angle_beta 96.619(3)
_cell_angle_gamma 90
_cell_formula_units_Z 2
loop_
_atom_type_symbol
_atom_type_radius_bond
C 0.68
H 0.23
loop_
_atom_site_label
_atom_site_type_symbol
_atom_site_fract_x
_atom_site_fract_y
_atom_site_fract_z
C1 C 0.8446(3) 0.4530(3) 0.56891(11)
H1 H 0.743(4) 0.368(4) 0.5899(15)
C2 C 0.7966(3) 0.5361(3) 0.49763(12)
H2 H 0.903(4) 0.622(4) 0.4790(14)
C3 C 0.6029(3) 0.5053(3) 0.44820(11)
H3 H 0.507(4) 0.422(4) 0.4708(13)
C4 C 0.5599(3) 0.5779(3) 0.37447(11)
H4 H 0.664(4) 0.650(4) 0.3522(15)
C5 C 1.0405(3) 0.4232(3) 0.70133(11)
H5 H 0.923(4) 0.358(4) 0.7195(14)
C6 C 1.0346(3) 0.4774(3) 0.62261(10)
C7 C 1.2167(3) 0.5608(3) 0.59730(11)
H6 H 1.214(4) 0.596(4) 0.5410(15)
C8 C 1.3898(3) 0.5912(3) 0.64988(11)
H7 H 1.514(4) 0.642(4) 0.6330(15)
C9 C 1.5695(3) 0.5835(3) 0.78731(11)
H8 H 1.690(4) 0.637(4) 0.7705(15)
C10 C 1.5670(3) 0.5394(3) 0.86643(12)
H9 H 1.698(4) 0.572(4) 0.9085(15)
C11 C 1.3912(3) 0.4522(3) 0.89227(12)
H10 H 1.393(4) 0.420(4) 0.9506(15)
C12 C 1.2203(3) 0.4115(3) 0.83902(11)
H11 H 1.103(3) 0.345(3) 0.8589(13)
C13 C 1.2165(3) 0.4573(3) 0.75739(10)
C14 C 1.3954(3) 0.5440(3) 0.73122(10)
C15 C 0.3735(3) 0.5817(3) 0.23947(11)
H12 H 0.492(4) 0.633(4) 0.2241(15)
C16 C 0.3739(3) 0.5402(3) 0.31953(11)
C17 C 0.1928(3) 0.4573(3) 0.34477(11)
H13 H 0.189(4) 0.430(4) 0.4056(14)
C18 C 0.0221(3) 0.4173(3) 0.29134(11)
H14 H -0.097(4) 0.358(4) 0.3109(14)
C19 C -0.1494(3) 0.4100(3) 0.15278(12)
H15 H -0.270(4) 0.350(4) 0.1695(15)
C20 C -0.1427(3) 0.4457(3) 0.07346(12)
H16 H -0.270(4) 0.414(4) 0.0319(15)
C21 C 0.0347(3) 0.5290(3) 0.04706(11)
H17 H 0.043(4) 0.544(4) -0.0091(16)
C22 C 0.2033(3) 0.5740(3) 0.10042(11)
H18 H 0.325(4) 0.627(4) 0.0830(15)
C23 C 0.2021(3) 0.5386(3) 0.18286(11)
C24 C 0.0227(3) 0.4549(3) 0.20899(10)
loop_
_geom_bond_atom_site_label_1
_geom_bond_atom_site_label_2
_geom_bond_distance
_geom_bond_site_symmetry_1
_geom_bond_site_symmetry_2
C1 H1 0.996 1_555 1_555
C2 C1 1.353 1_555 1_555
H2 C2 1.006 1_555 1_555
C3 C2 1.443 1_555 1_555
H3 C3 0.975 1_555 1_555
C4 C3 1.354 1_555 1_555
H4 C4 0.963 1_555 1_555
C5 H5 0.975 1_555 1_555
C6 C1 1.454 1_555 1_555
C7 C6 1.434 1_555 1_555
H6 C7 0.986 1_555 1_555
C8 C7 1.367 1_555 1_555
H7 C8 0.957 1_555 1_555
C9 H8 0.944 1_555 1_555
C10 C9 1.380 1_555 1_555
H9 C10 1.069 1_555 1_555
C11 C10 1.415 1_555 1_555
H10 C11 1.014 1_555 1_555
C12 C11 1.376 1_555 1_555
H11 C12 0.991 1_555 1_555
C13 C5 1.418 1_555 1_555
C14 C8 1.416 1_555 1_555
C15 H12 0.917 1_555 1_555
C16 C4 1.460 1_555 1_555
C17 C16 1.426 1_555 1_555
H13 C17 1.052 1_555 1_555
C18 C17 1.376 1_555 1_555
H14 C18 0.974 1_555 1_555
C19 H15 0.964 1_555 1_555
C20 C19 1.374 1_555 1_555
H16 C20 1.046 1_555 1_555
C21 C20 1.415 1_555 1_555
H17 C21 0.965 1_555 1_555
C22 C21 1.374 1_555 1_555
H18 C22 0.953 1_555 1_555
C23 C15 1.415 1_555 1_555
C24 C18 1.422 1_555 1_555
C5 C6 1.387 1_555 1_555
C9 C14 1.417 1_555 1_555
C12 C13 1.420 1_555 1_555
C13 C14 1.432 1_555 1_555
C15 C16 1.389 1_555 1_555
C19 C24 1.417 1_555 1_555
C22 C23 1.421 1_555 1_555
C23 C24 1.425 1_555 1_555
#END
