
#######################################################################
#
#                 Cambridge Crystallographic Data Centre
#                                CCDC
#
#######################################################################
#
# If this CIF has been generated from an entry in the Cambridge
# Structural Database, then it will include bibliographic, chemical,
# crystal, experimental, refinement or atomic coordinate data resulting
# from the CCDC's data processing and validation procedures.
#
#######################################################################

data_CSD_CIF_YABBAH
_audit_creation_date 2015-11-10
_audit_creation_method CSD-ConQuest-V1
_database_code_CSD YABBAH
_database_code_depnum_ccdc_archive 'CCDC 1025084'
_chemical_formula_sum 'C56 H34'
_chemical_formula_moiety
;
C56 H34
;
_journal_coden_Cambridge 35
_journal_volume 80
_journal_year 2015
_journal_page_first 10973
_journal_name_full 'J.Org.Chem. '
loop_
_publ_author_name
"Xing Feng"
"H.Tomiyasu"
"Jian-Yong Hu"
"Xianfu Wei"
"C.Redshaw"
"M.R.J.Elsegood"
"L.Horsburgh"
"S.J.Teat"
"T.Yamato"
_chemical_name_systematic
;
1,3-bis(biphenyl-4-ylethynyl)-6,8-diphenylpyrene
;
_chemical_melting_point 451
_cell_volume   3693.670
_exptl_crystal_colour 'dark yellow'
_exptl_crystal_density_diffrn 1.271
_exptl_crystal_description 'needle'
_exptl_crystal_preparation 'dichloromethane/hexane'
_diffrn_ambient_temperature 100
_diffrn_radiation_probe x-ray
_diffrn_source synchrotron
#These two values have been output from a single CSD field.
_refine_ls_R_factor_gt 0.047
_refine_ls_wR_factor_gt 0.047
_symmetry_cell_setting monoclinic
_symmetry_space_group_name_H-M 'C 2/c'
_symmetry_Int_Tables_number 15
loop_
_symmetry_equiv_pos_site_id
_symmetry_equiv_pos_as_xyz
1 x,y,z
2 -x,y,1/2-z
3 1/2+x,1/2+y,z
4 1/2-x,1/2+y,1/2-z
5 -x,-y,-z
6 x,-y,-1/2+z
7 -1/2-x,-1/2-y,-z
8 -1/2+x,-1/2-y,-1/2+z
_cell_length_a 30.883(6)
_cell_length_b 14.684(3)
_cell_length_c 8.1485(15)
_cell_angle_alpha 90
_cell_angle_beta 91.665(3)
_cell_angle_gamma 90
_cell_formula_units_Z 4
loop_
_atom_type_symbol
_atom_type_radius_bond
C 0.68
H 0.23
loop_
_atom_site_label
_atom_site_type_symbol
_atom_site_fract_x
_atom_site_fract_y
_atom_site_fract_z
C1 C 0.00000 0.46892(7) 0.75000
C2 C 0.00000 0.37111(7) 0.75000
C3 C 0.03167(2) 0.32308(5) 0.65922(8)
C4 C 0.03020(2) 0.22683(5) 0.65498(9)
C5 C 0.00000 0.18187(7) 0.75000
H1 H 0.00000 0.1114(13) 0.75000
C6 C 0.06288(2) 0.37471(5) 0.57116(9)
H2 H 0.0842(4) 0.3432(9) 0.5020(16)
C7 C 0.06373(2) 0.46743(5) 0.57667(9)
H3 H 0.0848(4) 0.5009(9) 0.5144(16)
C8 C 0.03245(2) 0.51737(5) 0.66576(8)
C9 C 0.03259(2) 0.61413(5) 0.67012(8)
C10 C 0.00000 0.66099(7) 0.75000
H4 H 0.00000 0.7292(13) 0.75000
C11 C 0.05778(2) 0.17021(5) 0.54791(9)
C12 C 0.03729(3) 0.10840(5) 0.43996(10)
H5 H 0.0055(4) 0.1066(9) 0.4336(15)
C13 C 0.06147(3) 0.05231(6) 0.33866(11)
H6 H 0.0468(4) 0.0118(10) 0.2645(16)
C14 C 0.10638(3) 0.05708(6) 0.34407(10)
H7 H 0.1232(5) 0.0159(10) 0.2701(17)
C15 C 0.12718(3) 0.11799(6) 0.45115(10)
H8 H 0.1594(4) 0.1209(9) 0.4564(16)
C16 C 0.10313(2) 0.17402(5) 0.55238(10)
H9 H 0.1181(4) 0.2142(8) 0.6277(14)
C17 C 0.06665(2) 0.66273(5) 0.59466(9)
C18 C 0.09703(3) 0.69955(5) 0.53167(10)
C19 C 0.13396(2) 0.73845(5) 0.45687(9)
C20 C 0.14299(3) 0.83184(5) 0.46997(10)
H10 H 0.1220(4) 0.8746(9) 0.5301(16)
C21 C 0.17927(3) 0.86794(5) 0.39661(10)
H11 H 0.1859(4) 0.9354(9) 0.4055(17)
C22 C 0.20737(2) 0.81303(5) 0.30770(9)
C23 C 0.19825(3) 0.71955(5) 0.29584(10)
H12 H 0.2172(4) 0.6796(9) 0.2263(15)
C24 C 0.16203(3) 0.68282(5) 0.36875(10)
H13 H 0.1556(4) 0.6187(9) 0.3527(16)
C25 C 0.24511(2) 0.85273(5) 0.22535(9)
C26 C 0.24174(3) 0.93729(6) 0.14559(11)
H14 H 0.2133(5) 0.9703(10) 0.1444(18)
C27 C 0.27690(3) 0.97420(6) 0.06576(11)
H15 H 0.2736(5) 1.0308(10) 0.0079(18)
C28 C 0.31626(3) 0.92780(7) 0.06656(12)
H16 H 0.3411(5) 0.9535(10) 0.0071(19)
C29 C 0.32036(3) 0.84470(7) 0.14799(12)
H17 H 0.3500(5) 0.8133(10) 0.1493(18)
C30 C 0.28493(3) 0.80710(6) 0.22563(11)
H18 H 0.2884(4) 0.7472(9) 0.2834(17)
C3A C -0.03167(2) 0.32308(5) 0.84078(8)
C4A C -0.03020(2) 0.22683(5) 0.84502(9)
C6A C -0.06288(2) 0.37471(5) 0.92884(9)
H2A H -0.0842(4) 0.3432(9) 0.9980(16)
C7A C -0.06373(2) 0.46743(5) 0.92333(9)
H3A H -0.0848(4) 0.5009(9) 0.9856(16)
C8A C -0.03245(2) 0.51737(5) 0.83424(8)
C9A C -0.03259(2) 0.61413(5) 0.82988(8)
C11A C -0.05778(2) 0.17021(5) 0.95209(9)
C12A C -0.03729(3) 0.10840(5) 1.06004(10)
H5A H -0.0055(4) 0.1066(9) 1.0664(15)
C13A C -0.06147(3) 0.05231(6) 1.16134(11)
H6A H -0.0468(4) 0.0118(10) 1.2355(16)
C14A C -0.10638(3) 0.05708(6) 1.15593(10)
H7A H -0.1232(5) 0.0159(10) 1.2299(17)
C15A C -0.12718(3) 0.11799(6) 1.04885(10)
H8A H -0.1594(4) 0.1209(9) 1.0436(16)
C16A C -0.10313(2) 0.17402(5) 0.94762(10)
H9A H -0.1181(4) 0.2142(8) 0.8723(14)
C17A C -0.06665(2) 0.66273(5) 0.90534(9)
C18A C -0.09703(3) 0.69955(5) 0.96833(10)
C19A C -0.13396(2) 0.73845(5) 1.04313(9)
C20A C -0.14299(3) 0.83184(5) 1.03003(10)
H10A H -0.1220(4) 0.8746(9) 0.9699(16)
C21A C -0.17927(3) 0.86794(5) 1.10339(10)
H11A H -0.1859(4) 0.9354(9) 1.0945(17)
C22A C -0.20737(2) 0.81303(5) 1.19230(9)
C23A C -0.19825(3) 0.71955(5) 1.20416(10)
H12A H -0.2172(4) 0.6796(9) 1.2737(15)
C24A C -0.16203(3) 0.68282(5) 1.13125(10)
H13A H -0.1556(4) 0.6187(9) 1.1473(16)
C25A C -0.24511(2) 0.85273(5) 1.27465(9)
C26A C -0.24174(3) 0.93729(6) 1.35441(11)
H14A H -0.2133(5) 0.9703(10) 1.3556(18)
C27A C -0.27690(3) 0.97420(6) 1.43424(11)
H15A H -0.2736(5) 1.0308(10) 1.4921(18)
C28A C -0.31626(3) 0.92780(7) 1.43344(12)
H16A H -0.3411(5) 0.9535(10) 1.4929(19)
C29A C -0.32036(3) 0.84470(7) 1.35201(12)
H17A H -0.3500(5) 0.8133(10) 1.3507(18)
C30A C -0.28493(3) 0.80710(6) 1.27437(11)
H18A H -0.2884(4) 0.7472(9) 1.2166(17)
loop_
_geom_bond_atom_site_label_1
_geom_bond_atom_site_label_2
_geom_bond_distance
_geom_bond_site_symmetry_1
_geom_bond_site_symmetry_2
C1 C2 1.436 1_555 1_555
C2 C3 1.429 1_555 1_555
C3 C4 1.414 1_555 1_555
C4 C5 1.395 1_555 1_555
C5 H1 1.035 1_555 1_555
C6 C3 1.435 1_555 1_555
H2 C6 0.993 1_555 1_555
C7 C6 1.362 1_555 1_555
H3 C7 0.970 1_555 1_555
C8 C1 1.422 1_555 1_555
C9 C8 1.421 1_555 1_555
C10 C9 1.396 1_555 1_555
H4 C10 1.002 1_555 1_555
C11 C4 1.490 1_555 1_555
C12 C11 1.402 1_555 1_555
H5 C12 0.982 1_555 1_555
C13 C12 1.398 1_555 1_555
H6 C13 0.953 1_555 1_555
C14 C13 1.388 1_555 1_555
H7 C14 1.008 1_555 1_555
C15 C14 1.393 1_555 1_555
H8 C15 0.996 1_555 1_555
C16 C11 1.401 1_555 1_555
H9 C16 0.960 1_555 1_555
C17 C9 1.425 1_555 1_555
C18 C17 1.210 1_555 1_555
C19 C18 1.428 1_555 1_555
C20 C19 1.403 1_555 1_555
H10 C20 1.036 1_555 1_555
C21 C20 1.390 1_555 1_555
H11 C21 1.014 1_555 1_555
C22 C21 1.402 1_555 1_555
C23 C22 1.404 1_555 1_555
H12 C23 1.013 1_555 1_555
C24 C19 1.404 1_555 1_555
H13 C24 0.970 1_555 1_555
C25 C22 1.481 1_555 1_555
C26 C25 1.404 1_555 1_555
H14 C26 1.003 1_555 1_555
C27 C26 1.392 1_555 1_555
H15 C27 0.959 1_555 1_555
C28 C27 1.393 1_555 1_555
H16 C28 0.994 1_555 1_555
C29 C28 1.393 1_555 1_555
H17 C29 1.025 1_555 1_555
C30 C25 1.400 1_555 1_555
H18 C30 1.002 1_555 1_555
C3A C2 1.429 1_555 1_555
C4A C5 1.395 1_555 1_555
C6A C3A 1.435 1_555 1_555
H2A C6A 0.993 1_555 1_555
C7A C6A 1.362 1_555 1_555
H3A C7A 0.970 1_555 1_555
C8A C1 1.422 1_555 1_555
C9A C10 1.396 1_555 1_555
C11A C4A 1.490 1_555 1_555
C12A C11A 1.402 1_555 1_555
H5A C12A 0.982 1_555 1_555
C13A C12A 1.398 1_555 1_555
H6A C13A 0.953 1_555 1_555
C14A C13A 1.388 1_555 1_555
H7A C14A 1.008 1_555 1_555
C15A C14A 1.393 1_555 1_555
H8A C15A 0.996 1_555 1_555
C16A C11A 1.401 1_555 1_555
H9A C16A 0.960 1_555 1_555
C17A C9A 1.425 1_555 1_555
C18A C17A 1.210 1_555 1_555
C19A C18A 1.428 1_555 1_555
C20A C19A 1.403 1_555 1_555
H10A C20A 1.036 1_555 1_555
C21A C20A 1.390 1_555 1_555
H11A C21A 1.014 1_555 1_555
C22A C21A 1.402 1_555 1_555
C23A C22A 1.404 1_555 1_555
H12A C23A 1.013 1_555 1_555
C24A C19A 1.404 1_555 1_555
H13A C24A 0.970 1_555 1_555
C25A C22A 1.481 1_555 1_555
C26A C25A 1.404 1_555 1_555
H14A C26A 1.003 1_555 1_555
C27A C26A 1.392 1_555 1_555
H15A C27A 0.959 1_555 1_555
C28A C27A 1.393 1_555 1_555
H16A C28A 0.994 1_555 1_555
C29A C28A 1.393 1_555 1_555
H17A C29A 1.025 1_555 1_555
C30A C25A 1.400 1_555 1_555
H18A C30A 1.002 1_555 1_555
C7 C8 1.428 1_555 1_555
C15 C16 1.394 1_555 1_555
C23 C24 1.391 1_555 1_555
C29 C30 1.394 1_555 1_555
C3A C4A 1.414 1_555 1_555
C7A C8A 1.428 1_555 1_555
C8A C9A 1.421 1_555 1_555
C15A C16A 1.394 1_555 1_555
C23A C24A 1.391 1_555 1_555
C29A C30A 1.394 1_555 1_555
#END
