
#######################################################################
#
#                 Cambridge Crystallographic Data Centre
#                                CCDC
#
#######################################################################
#
# If this CIF has been generated from an entry in the Cambridge
# Structural Database, then it will include bibliographic, chemical,
# crystal, experimental, refinement or atomic coordinate data resulting
# from the CCDC's data processing and validation procedures.
#
#######################################################################

data_CSD_CIF_YABBEL
_audit_creation_date 2015-11-10
_audit_creation_method CSD-ConQuest-V1
_database_code_CSD YABBEL
_database_code_depnum_ccdc_archive 'CCDC 1025085'
_chemical_formula_sum 'C40 H26'
_chemical_formula_moiety
;
C40 H26
;
_journal_coden_Cambridge 35
_journal_volume 80
_journal_year 2015
_journal_page_first 10973
_journal_name_full 'J.Org.Chem. '
loop_
_publ_author_name
"Xing Feng"
"H.Tomiyasu"
"Jian-Yong Hu"
"Xianfu Wei"
"C.Redshaw"
"M.R.J.Elsegood"
"L.Horsburgh"
"S.J.Teat"
"T.Yamato"
_chemical_name_systematic
;
1,3,6,8-tetraphenylpyrene
;
_chemical_melting_point 528
_cell_volume   2703.163
_exptl_crystal_colour 'yellow'
_exptl_crystal_density_diffrn 1.245
_exptl_crystal_description 'block'
_exptl_crystal_preparation 'dichloromethane'
_diffrn_ambient_temperature 150
_diffrn_special_details
;
180 degree rotation twin about [0 0 1].

;
#These two values have been output from a single CSD field.
_refine_ls_R_factor_gt 0.0465
_refine_ls_wR_factor_gt 0.0465
_symmetry_cell_setting orthorhombic
_symmetry_space_group_name_H-M 'P 21 21 21'
_symmetry_Int_Tables_number 19
loop_
_symmetry_equiv_pos_site_id
_symmetry_equiv_pos_as_xyz
1 x,y,z
2 1/2-x,-y,1/2+z
3 -x,1/2+y,1/2-z
4 1/2+x,1/2-y,-z
_cell_length_a 11.3528(6)
_cell_length_b 12.4313(7)
_cell_length_c 19.1537(10)
_cell_angle_alpha 90
_cell_angle_beta 90
_cell_angle_gamma 90
_cell_formula_units_Z 4
loop_
_atom_type_symbol
_atom_type_radius_bond
C 0.68
H 0.23
loop_
_atom_site_label
_atom_site_type_symbol
_atom_site_fract_x
_atom_site_fract_y
_atom_site_fract_z
C1 C 0.0989(2) 0.78687(19) 0.14235(11)
C2 C 0.1396(2) 0.6808(2) 0.12318(11)
C3 C 0.2634(2) 0.6613(2) 0.11359(11)
C4 C 0.3015(2) 0.5583(2) 0.09158(12)
C5 C 0.2179(2) 0.4762(2) 0.08404(12)
H1 H 0.246(2) 0.403(2) 0.0700(13)
C6 C 0.0983(2) 0.4911(2) 0.09670(12)
C7 C 0.0567(2) 0.5957(2) 0.11395(11)
C8 C -0.0668(2) 0.6191(2) 0.12059(13)
H2 H -0.121(3) 0.559(2) 0.1134(15)
C9 C -0.1054(2) 0.7207(2) 0.13437(13)
H3 H -0.190(3) 0.731(2) 0.1396(13)
C10 C -0.0253(2) 0.8082(2) 0.14510(11)
C11 C -0.0643(2) 0.9145(2) 0.15922(11)
C12 C 0.0188(2) 0.9934(2) 0.17576(12)
H4 H -0.012(3) 1.065(3) 0.1859(15)
C13 C 0.1397(2) 0.97318(19) 0.17719(11)
C14 C 0.1813(2) 0.8697(2) 0.15760(12)
C15 C 0.3049(2) 0.8461(2) 0.14984(12)
H5 H 0.358(2) 0.907(2) 0.1589(13)
C16 C 0.3436(2) 0.7486(2) 0.12802(13)
H6 H 0.432(3) 0.734(2) 0.1227(15)
C17 C 0.4280(2) 0.5313(2) 0.07818(13)
C18 C 0.4991(3) 0.5910(3) 0.03209(13)
H7 H 0.464(3) 0.658(3) 0.0092(16)
C19 C 0.6151(3) 0.5588(3) 0.01875(15)
H8 H 0.662(4) 0.613(4) -0.005(2)
C20 C 0.6609(3) 0.4672(3) 0.04978(16)
H9 H 0.742(4) 0.448(3) 0.0332(19)
C21 C 0.5931(3) 0.4094(3) 0.09539(16)
H10 H 0.626(3) 0.339(3) 0.1170(17)
C22 C 0.4777(3) 0.4405(2) 0.11038(15)
H11 H 0.421(3) 0.401(3) 0.146(2)
C23 C 0.0163(2) 0.3964(2) 0.09331(12)
C24 C -0.0516(2) 0.3676(2) 0.15153(13)
H12 H -0.046(3) 0.406(3) 0.1948(18)
C25 C -0.1270(3) 0.2802(2) 0.14969(14)
H13 H -0.173(3) 0.265(2) 0.1922(15)
C26 C -0.1373(3) 0.2194(2) 0.08905(16)
H14 H -0.194(3) 0.154(3) 0.0890(17)
C27 C -0.0694(3) 0.2461(3) 0.03130(16)
H15 H -0.079(3) 0.206(3) -0.0122(19)
C28 C 0.0078(3) 0.3336(2) 0.03342(14)
H16 H 0.062(3) 0.348(2) -0.0069(15)
C29 C -0.1912(2) 0.94671(19) 0.15763(12)
C30 C -0.2643(2) 0.9235(2) 0.10023(13)
H17 H -0.239(3) 0.883(2) 0.0605(14)
C31 C -0.3790(2) 0.9623(2) 0.09712(13)
H18 H -0.423(3) 0.946(3) 0.0526(16)
C32 C -0.4225(2) 1.0272(2) 0.15064(14)
H19 H -0.503(3) 1.058(2) 0.1493(15)
C33 C -0.3515(2) 1.0506(2) 0.20793(14)
H20 H -0.384(3) 1.101(3) 0.2457(16)
C34 C -0.2368(2) 1.0111(2) 0.21145(13)
H21 H -0.191(3) 1.027(2) 0.2508(16)
C35 C 0.2184(2) 1.0618(2) 0.20111(12)
C36 C 0.2025(3) 1.1667(2) 0.17530(13)
H22 H 0.142(3) 1.179(2) 0.1380(16)
C37 C 0.2684(3) 1.2511(2) 0.20167(14)
H23 H 0.254(3) 1.329(3) 0.1856(18)
C38 C 0.3534(3) 1.2330(2) 0.25318(13)
H24 H 0.402(3) 1.287(3) 0.2704(18)
C39 C 0.3688(2) 1.1305(2) 0.27967(13)
H25 H 0.420(3) 1.126(3) 0.3165(18)
C40 C 0.3016(2) 1.0454(2) 0.25407(12)
H26 H 0.312(3) 0.971(3) 0.2735(16)
loop_
_geom_bond_atom_site_label_1
_geom_bond_atom_site_label_2
_geom_bond_distance
_geom_bond_site_symmetry_1
_geom_bond_site_symmetry_2
C1 C2 1.445 1_555 1_555
C2 C3 1.438 1_555 1_555
C3 C4 1.416 1_555 1_555
C4 C5 1.401 1_555 1_555
C5 H1 1.001 1_555 1_555
C6 C5 1.392 1_555 1_555
C7 C2 1.427 1_555 1_555
C8 C7 1.438 1_555 1_555
H2 C8 0.978 1_555 1_555
C9 C8 1.363 1_555 1_555
H3 C9 0.974 1_555 1_555
C10 C1 1.436 1_555 1_555
C11 C10 1.420 1_555 1_555
C12 C11 1.397 1_555 1_555
H4 C12 0.976 1_555 1_555
C13 C12 1.396 1_555 1_555
C14 C1 1.422 1_555 1_555
C15 C14 1.441 1_555 1_555
H5 C15 0.983 1_555 1_555
C16 C3 1.443 1_555 1_555
H6 C16 1.025 1_555 1_555
C17 C4 1.497 1_555 1_555
C18 C17 1.408 1_555 1_555
H7 C18 1.022 1_555 1_555
C19 C18 1.400 1_555 1_555
H8 C19 0.972 1_555 1_555
C20 C19 1.386 1_555 1_555
H9 C20 1.003 1_555 1_555
C21 C20 1.368 1_555 1_555
H10 C21 1.038 1_555 1_555
C22 C17 1.405 1_555 1_555
H11 C22 1.059 1_555 1_555
C23 C6 1.502 1_555 1_555
C24 C23 1.402 1_555 1_555
H12 C24 0.959 1_555 1_555
C25 C24 1.384 1_555 1_555
H13 C25 0.986 1_555 1_555
C26 C25 1.391 1_555 1_555
H14 C26 1.037 1_555 1_555
C27 C26 1.388 1_555 1_555
H15 C27 0.977 1_555 1_555
C28 C23 1.391 1_555 1_555
H16 C28 1.004 1_555 1_555
C29 C11 1.496 1_555 1_555
C30 C29 1.407 1_555 1_555
H17 C30 0.957 1_555 1_555
C31 C30 1.390 1_555 1_555
H18 C31 1.009 1_555 1_555
C32 C31 1.395 1_555 1_555
H19 C32 0.991 1_555 1_555
C33 C32 1.392 1_555 1_555
H20 C33 1.026 1_555 1_555
C34 C29 1.404 1_555 1_555
H21 C34 0.937 1_555 1_555
C35 C13 1.491 1_555 1_555
C36 C35 1.406 1_555 1_555
H22 C36 1.003 1_555 1_555
C37 C36 1.384 1_555 1_555
H23 C37 1.029 1_555 1_555
C38 C37 1.398 1_555 1_555
H24 C38 0.929 1_555 1_555
C39 C38 1.383 1_555 1_555
H25 C39 0.916 1_555 1_555
C40 C35 1.401 1_555 1_555
H26 C40 1.004 1_555 1_555
C6 C7 1.422 1_555 1_555
C9 C10 1.433 1_555 1_555
C13 C14 1.421 1_555 1_555
C15 C16 1.355 1_555 1_555
C21 C22 1.396 1_555 1_555
C27 C28 1.397 1_555 1_555
C33 C34 1.393 1_555 1_555
C39 C40 1.393 1_555 1_555
#END
