
#######################################################################
#
#                 Cambridge Crystallographic Data Centre
#                                CCDC
#
#######################################################################
#
# If this CIF has been generated from an entry in the Cambridge
# Structural Database, then it will include bibliographic, chemical,
# crystal, experimental, refinement or atomic coordinate data resulting
# from the CCDC's data processing and validation procedures.
#
#######################################################################

data_CSD_CIF_YIWKAQ
_audit_creation_date 2002-03-22
_audit_creation_method CSD-ConQuest-V1
_database_code_CSD YIWKAQ
_database_code_depnum_ccdc_archive 'CCDC 162499'
_chemical_formula_sum 'C35 H38'
_chemical_formula_moiety
;
C35 H38
;
_journal_coden_Cambridge 35
_journal_volume 66
_journal_year 2001
_journal_page_first 9023
_journal_name_full 'J.Org.Chem. '
loop_
_publ_author_name
"A.Tsuge"
"R.Nada"
"T.Moriguchi"
"K.Sakata"
_chemical_name_systematic
;
1^3^,1^6^-Di-t-butyl-1(1,8)-fluorena-4(2,6)-naphthalenacyclohexaphane
;
_chemical_melting_point 489.15
_cell_volume   2694.152
_exptl_crystal_colour 'colorless'
_exptl_crystal_density_diffrn 1.131
_exptl_special_details
;
Melting point range 489.15-491.15K

;
_exptl_crystal_description 'prismatic'
_diffrn_ambient_temperature 296.2
#These two values have been output from a single CSD field.
_refine_ls_R_factor_gt 0.0429
_refine_ls_wR_factor_gt 0.0429
_symmetry_cell_setting monoclinic
_symmetry_space_group_name_H-M 'P 21/n'
_symmetry_Int_Tables_number 14
loop_
_symmetry_equiv_pos_site_id
_symmetry_equiv_pos_as_xyz
1 x,y,z
2 1/2+x,1/2-y,1/2+z
3 -x,-y,-z
4 -1/2-x,-1/2+y,-1/2-z
_cell_length_a 19.84(1)
_cell_length_b 6.041(5)
_cell_length_c 23.58(1)
_cell_angle_alpha 90
_cell_angle_beta 107.58(5)
_cell_angle_gamma 90
_cell_formula_units_Z 4
loop_
_atom_type_symbol
_atom_type_radius_bond
C 0.68
H 0.23
loop_
_atom_site_label
_atom_site_type_symbol
_atom_site_fract_x
_atom_site_fract_y
_atom_site_fract_z
C1 C 0.5297(5) 0.009(2) 0.6939(4)
C2 C 0.5237(5) 0.022(2) 0.6335(4)
C3 C 0.5669(5) 0.172(2) 0.6169(4)
C4 C 0.6164(5) 0.308(2) 0.6569(4)
C5 C 0.6194(4) 0.299(2) 0.7163(4)
C6 C 0.5767(5) 0.149(2) 0.7340(4)
C7 C 0.5709(4) 0.108(2) 0.7934(4)
C8 C 0.6058(4) 0.221(2) 0.8461(4)
C9 C 0.5925(4) 0.165(2) 0.8986(4)
C10 C 0.5423(5) 0.000(2) 0.8965(4)
C11 C 0.5048(5) -0.111(2) 0.8451(4)
C12 C 0.5221(4) -0.056(2) 0.7928(4)
C13 C 0.4941(4) -0.145(2) 0.7283(4)
C14 C 0.4720(5) -0.110(2) 0.5851(4)
C15 C 0.4037(6) 0.018(2) 0.5506(4)
C16 C 0.3575(6) 0.038(3) 0.5905(5)
C17 C 0.3141(7) -0.151(3) 0.5922(5)
C18 C 0.2864(6) -0.207(2) 0.6414(7)
C19 C 0.3064(6) -0.066(3) 0.6864(5)
C20 C 0.3085(5) -0.155(2) 0.7449(6)
C21 C 0.3470(5) -0.040(2) 0.7934(5)
C22 C 0.3725(6) 0.182(2) 0.7891(6)
C23 C 0.3664(6) 0.266(2) 0.7329(7)
C24 C 0.3407(6) 0.143(2) 0.6846(5)
C25 C 0.3659(6) 0.200(2) 0.6316(6)
C26 C 0.3788(5) -0.160(2) 0.8508(4)
C27 C 0.4478(5) -0.275(2) 0.8474(4)
C28 C 0.6694(5) 0.444(2) 0.6355(4)
C29 C 0.6354(6) 0.543(2) 0.5738(5)
C30 C 0.7293(6) 0.298(2) 0.6329(5)
C31 C 0.6980(6) 0.637(2) 0.6768(5)
C32 C 0.6313(5) 0.272(2) 0.9595(4)
C33 C 0.6815(6) 0.452(2) 0.9527(4)
C34 C 0.6776(5) 0.097(2) 0.9999(4)
C35 C 0.5778(5) 0.363(2) 0.9896(4)
H1 H 0.56320 0.18910 0.57260
H2 H 0.65460 0.39720 0.74820
H3 H 0.64160 0.34510 0.84600
H4 H 0.53350 -0.04190 0.93450
H5 H 0.44030 -0.15600 0.71130
H6 H 0.50540 -0.31200 0.72470
H7 H 0.45450 -0.24500 0.60270
H8 H 0.49380 -0.18010 0.55730
H9 H 0.42210 0.16570 0.54290
H10 H 0.38150 -0.04410 0.51310
H11 H 0.30120 -0.24840 0.55750
H12 H 0.25630 -0.33810 0.64200
H13 H 0.28020 -0.29830 0.74840
H14 H 0.39170 0.26980 0.82310
H15 H 0.38310 0.42590 0.73150
H16 H 0.38790 0.35820 0.62670
H17 H 0.34450 -0.25800 0.86040
H18 H 0.39180 -0.05350 0.88430
H19 H 0.43120 -0.36330 0.80790
H20 H 0.46110 -0.39080 0.87630
H21 H 0.59750 0.63720 0.57520
H22 H 0.61600 0.42430 0.54620
H23 H 0.66730 0.62480 0.55860
H24 H 0.71560 0.17160 0.60960
H25 H 0.76750 0.37040 0.62170
H26 H 0.75520 0.24070 0.67450
H27 H 0.73760 0.72500 0.66660
H28 H 0.72380 0.59080 0.71810
H29 H 0.66540 0.74440 0.67910
H30 H 0.65600 0.57090 0.92550
H31 H 0.71680 0.40120 0.93340
H32 H 0.70860 0.52830 0.98820
H33 H 0.71130 0.02750 0.98260
H34 H 0.70480 0.14680 1.03900
H35 H 0.64800 -0.02430 1.00630
H36 H 0.60230 0.43700 1.02810
H37 H 0.54990 0.25240 0.99680
H38 H 0.55000 0.47780 0.96520
loop_
_geom_bond_atom_site_label_1
_geom_bond_atom_site_label_2
_geom_bond_distance
_geom_bond_site_symmetry_1
_geom_bond_site_symmetry_2
C1 C2 1.395 1_555 1_555
C2 C3 1.383 1_555 1_555
C3 C4 1.403 1_555 1_555
C4 C5 1.385 1_555 1_555
C5 C6 1.388 1_555 1_555
C6 C1 1.395 1_555 1_555
C7 C6 1.461 1_555 1_555
C8 C7 1.404 1_555 1_555
C9 C8 1.383 1_555 1_555
C10 C9 1.399 1_555 1_555
C11 C10 1.388 1_555 1_555
C12 C7 1.382 1_555 1_555
C13 C1 1.539 1_555 1_555
C14 C2 1.511 1_555 1_555
C15 C14 1.559 1_555 1_555
C16 C15 1.504 1_555 1_555
C17 C16 1.438 1_555 1_555
C18 C17 1.465 1_555 1_555
C19 C18 1.325 1_555 1_555
C20 C19 1.469 1_555 1_555
C21 C20 1.359 1_555 1_555
C22 C21 1.448 1_555 1_555
C23 C22 1.390 1_555 1_555
C24 C19 1.441 1_555 1_555
C25 C16 1.352 1_555 1_555
C26 C21 1.497 1_555 1_555
C27 C11 1.517 1_555 1_555
C28 C4 1.535 1_555 1_555
C29 C28 1.529 1_555 1_555
C30 C28 1.496 1_555 1_555
C31 C28 1.515 1_555 1_555
C32 C9 1.551 1_555 1_555
C33 C32 1.515 1_555 1_555
C34 C32 1.530 1_555 1_555
C35 C32 1.545 1_555 1_555
H1 C3 1.030 1_555 1_555
H2 C5 1.043 1_555 1_555
H3 C8 1.033 1_555 1_555
H4 C10 0.996 1_555 1_555
H5 C13 1.023 1_555 1_555
H6 C13 1.042 1_555 1_555
H7 C14 1.022 1_555 1_555
H8 C14 0.984 1_555 1_555
H9 C15 1.001 1_555 1_555
H10 C15 0.939 1_555 1_555
H11 C17 0.977 1_555 1_555
H12 C18 0.995 1_555 1_555
H13 C20 1.049 1_555 1_555
H14 C22 0.941 1_555 1_555
H15 C23 1.025 1_555 1_555
H16 C25 1.071 1_555 1_555
H17 C26 0.979 1_555 1_555
H18 C26 0.991 1_555 1_555
H19 C27 1.037 1_555 1_555
H20 C27 0.956 1_555 1_555
H21 C29 0.951 1_555 1_555
H22 C29 0.967 1_555 1_555
H23 C29 0.954 1_555 1_555
H24 C30 0.932 1_555 1_555
H25 C30 0.978 1_555 1_555
H26 C30 1.021 1_555 1_555
H27 C31 1.035 1_555 1_555
H28 C31 0.994 1_555 1_555
H29 C31 0.929 1_555 1_555
H30 C33 0.994 1_555 1_555
H31 C33 0.992 1_555 1_555
H32 C33 0.965 1_555 1_555
H33 C34 0.977 1_555 1_555
H34 C34 0.965 1_555 1_555
H35 C34 0.979 1_555 1_555
H36 C35 0.997 1_555 1_555
H37 C35 0.916 1_555 1_555
H38 C35 0.962 1_555 1_555
C11 C12 1.416 1_555 1_555
C12 C13 1.549 1_555 1_555
C23 C24 1.326 1_555 1_555
C24 C25 1.519 1_555 1_555
C26 C27 1.559 1_555 1_555
#END
