
#######################################################################
#
#                 Cambridge Crystallographic Data Centre
#                                CCDC
#
#######################################################################
#
# If this CIF has been generated from an entry in the Cambridge
# Structural Database, then it will include bibliographic, chemical,
# crystal, experimental, refinement or atomic coordinate data resulting
# from the CCDC's data processing and validation procedures.
#
#######################################################################

data_CSD_CIF_YIWMIC
_audit_creation_date 2014-03-29
_audit_creation_method CSD-ConQuest-V1
_database_code_CSD YIWMIC
_database_code_depnum_ccdc_archive 'CCDC 981779'
_chemical_formula_sum 'C32 H22'
_chemical_formula_moiety
;
C32 H22
;
_journal_coden_Cambridge 920
_journal_volume 9
_journal_year 2014
_journal_page_first 1671
_journal_name_full 'Chem.Asian J. '
loop_
_publ_author_name
"Chao Chen"
"M.Harhausen"
"A.Fukazawa"
"S.Yamaguchi"
"R.Frohlich"
"C.G.Daniliuc"
"J.L.Petersen"
"G.Kehr"
"G.Erker"
_chemical_name_systematic
;
1,1'-((4,5-Dimethyl-1,2-phenylene)diethyne-2,1-diyl)dinaphthalene
;
_cell_volume   1112.145
_exptl_crystal_colour 'colorless'
_exptl_crystal_density_diffrn 1.214
_exptl_crystal_description 'plate'
_diffrn_ambient_temperature 223
#These two values have been output from a single CSD field.
_refine_ls_R_factor_gt 0.0554
_refine_ls_wR_factor_gt 0.0554
_symmetry_cell_setting triclinic
_symmetry_space_group_name_H-M 'P -1'
_symmetry_Int_Tables_number 2
loop_
_symmetry_equiv_pos_site_id
_symmetry_equiv_pos_as_xyz
1 x,y,z
2 -x,-y,-z
_cell_length_a 8.1726(2)
_cell_length_b 11.0699(3)
_cell_length_c 13.3109(4)
_cell_angle_alpha 101.795(1)
_cell_angle_beta 99.307(1)
_cell_angle_gamma 104.491(2)
_cell_formula_units_Z 2
loop_
_atom_type_symbol
_atom_type_radius_bond
C 0.68
H 0.23
loop_
_atom_site_label
_atom_site_type_symbol
_atom_site_fract_x
_atom_site_fract_y
_atom_site_fract_z
C1 C 0.4582(2) -0.24810(17) 0.27215(15)
C2 C 0.4183(3) -0.14845(19) 0.23063(16)
H1 H 0.46940 -0.06200 0.26920
C3 C 0.3071(3) -0.1757(2) 0.13579(17)
H2 H 0.28130 -0.10820 0.10980
C4 C 0.2303(3) -0.3043(2) 0.07613(18)
H3 H 0.15550 -0.32220 0.00990
C5 C 0.2640(3) -0.4027(2) 0.11394(18)
H4 H 0.21130 -0.48820 0.07360
C6 C 0.3775(3) -0.37852(18) 0.21323(16)
C7 C 0.4123(3) -0.47881(19) 0.25521(18)
H5 H 0.35730 -0.56510 0.21730
C8 C 0.5242(3) -0.4529(2) 0.34968(18)
H6 H 0.54500 -0.52130 0.37640
C9 C 0.6091(3) -0.32465(19) 0.40769(17)
H7 H 0.68810 -0.30790 0.47210
C10 C 0.5770(2) -0.22293(17) 0.37055(15)
C11 C 0.6621(2) -0.09180(18) 0.43000(14)
C12 C 0.7289(2) 0.01906(18) 0.47696(14)
C13 C 0.8087(2) 0.15103(17) 0.53418(14)
C14 C 0.9280(2) 0.18368(19) 0.62984(14)
H8 H 0.95650 0.11700 0.65590
C15 C 1.0065(2) 0.31001(19) 0.68824(14)
C16 C 0.9646(2) 0.40965(18) 0.64959(15)
C17 C 0.8485(3) 0.37858(18) 0.55350(15)
H9 H 0.82240 0.44570 0.52710
C18 C 0.7692(2) 0.25180(17) 0.49451(14)
C19 C 0.6493(3) 0.22562(17) 0.39484(15)
C20 C 0.5533(3) 0.21068(17) 0.31264(15)
C21 C 0.4317(3) 0.19651(17) 0.21590(15)
C22 C 0.4874(3) 0.21820(19) 0.12799(16)
H10 H 0.60650 0.23800 0.12890
C23 C 0.3686(3) 0.2113(2) 0.03565(16)
H11 H 0.40910 0.22700 -0.02400
C24 C 0.1949(3) 0.1818(2) 0.03300(16)
H12 H 0.11670 0.17830 -0.02840
C25 C 0.1320(3) 0.15662(17) 0.12136(14)
C26 C -0.0464(3) 0.1235(2) 0.12150(18)
H13 H -0.12690 0.11750 0.06030
C27 C -0.1052(3) 0.1001(2) 0.2074(2)
H14 H -0.22470 0.07830 0.20530
C28 C 0.0121(3) 0.1083(2) 0.29866(19)
H15 H -0.02900 0.09270 0.35820
C29 C 0.1853(3) 0.13870(19) 0.30289(15)
H16 H 0.26230 0.14310 0.36510
C30 C 0.2515(2) 0.16387(16) 0.21473(14)
C31 C 1.1344(3) 0.3374(2) 0.79156(16)
H17 H 1.15200 0.25720 0.80260
H18 H 1.08930 0.37710 0.84860
H19 H 1.24400 0.39550 0.78980
C32 C 1.0426(3) 0.5492(2) 0.71123(18)
H20 H 0.99880 0.60400 0.67240
H21 H 1.16790 0.57230 0.72180
H22 H 1.01140 0.56080 0.77910
loop_
_geom_bond_atom_site_label_1
_geom_bond_atom_site_label_2
_geom_bond_distance
_geom_bond_site_symmetry_1
_geom_bond_site_symmetry_2
C1 C2 1.414 1_555 1_555
C2 H1 0.940 1_555 1_555
C3 C2 1.359 1_555 1_555
H2 C3 0.940 1_555 1_555
C4 C3 1.407 1_555 1_555
H3 C4 0.940 1_555 1_555
C5 C4 1.358 1_555 1_555
H4 C5 0.940 1_555 1_555
C6 C1 1.424 1_555 1_555
C7 C6 1.409 1_555 1_555
H5 C7 0.940 1_555 1_555
C8 C7 1.360 1_555 1_555
H6 C8 0.940 1_555 1_555
C9 C8 1.407 1_555 1_555
H7 C9 0.939 1_555 1_555
C10 C1 1.428 1_555 1_555
C11 C10 1.437 1_555 1_555
C12 C11 1.198 1_555 1_555
C13 C12 1.431 1_555 1_555
C14 C13 1.392 1_555 1_555
H8 C14 0.940 1_555 1_555
C15 C14 1.384 1_555 1_555
C16 C15 1.401 1_555 1_555
C17 C16 1.385 1_555 1_555
H9 C17 0.940 1_555 1_555
C18 C13 1.412 1_555 1_555
C19 C18 1.444 1_555 1_555
C20 C19 1.193 1_555 1_555
C21 C20 1.448 1_555 1_555
C22 C21 1.366 1_555 1_555
H10 C22 0.940 1_555 1_555
C23 C22 1.413 1_555 1_555
H11 C23 0.940 1_555 1_555
C24 C23 1.368 1_555 1_555
H12 C24 0.940 1_555 1_555
C25 C24 1.408 1_555 1_555
C26 C25 1.412 1_555 1_555
H13 C26 0.940 1_555 1_555
C27 C26 1.357 1_555 1_555
H14 C27 0.940 1_555 1_555
C28 C27 1.392 1_555 1_555
H15 C28 0.940 1_555 1_555
C29 C28 1.359 1_555 1_555
H16 C29 0.940 1_555 1_555
C30 C21 1.423 1_555 1_555
C31 C15 1.511 1_555 1_555
H17 C31 0.970 1_555 1_555
H18 C31 0.970 1_555 1_555
H19 C31 0.970 1_555 1_555
C32 C16 1.512 1_555 1_555
H20 C32 0.970 1_555 1_555
H21 C32 0.970 1_555 1_555
H22 C32 0.970 1_555 1_555
C5 C6 1.419 1_555 1_555
C9 C10 1.384 1_555 1_555
C17 C18 1.391 1_555 1_555
C25 C30 1.426 1_555 1_555
C29 C30 1.418 1_555 1_555
#END
