
#######################################################################
#
#                 Cambridge Crystallographic Data Centre
#                                CCDC
#
#######################################################################
#
# If this CIF has been generated from an entry in the Cambridge
# Structural Database, then it will include bibliographic, chemical,
# crystal, experimental, refinement or atomic coordinate data resulting
# from the CCDC's data processing and validation procedures.
#
#######################################################################

data_CSD_CIF_YOSZAJ
_audit_creation_date 2015-02-15
_audit_creation_method CSD-ConQuest-V1
_database_code_CSD YOSZAJ
_database_code_depnum_ccdc_archive 'CCDC 1022048'
_chemical_formula_sum 'C36 H22'
_chemical_formula_moiety
;
C36 H22
;
_journal_coden_Cambridge 1220
_journal_volume 21
_journal_year 2015
_journal_page_first 4755
_journal_name_full 'Chem.-Eur.J. '
loop_
_publ_author_name
"En-Chih Liu"
"Min-Kuan Chen"
"Jen-Yi Li"
"Yao-Ting Wu"
_chemical_name_systematic
;
4,5-diphenylcyclopenta[gh]pentahelicene
;
_cell_volume   4735.494
_exptl_crystal_colour 'yellow'
_exptl_crystal_density_diffrn 1.275
_diffrn_ambient_temperature 100
#These two values have been output from a single CSD field.
_refine_ls_R_factor_gt 0.0412
_refine_ls_wR_factor_gt 0.0412
_symmetry_cell_setting orthorhombic
_symmetry_space_group_name_H-M 'P b c a'
_symmetry_Int_Tables_number 61
loop_
_symmetry_equiv_pos_site_id
_symmetry_equiv_pos_as_xyz
1 x,y,z
2 1/2+x,1/2-y,-z
3 -x,1/2+y,1/2-z
4 1/2-x,-y,1/2+z
5 -x,-y,-z
6 -1/2-x,-1/2+y,z
7 x,-1/2-y,-1/2+z
8 -1/2+x,y,-1/2-z
_cell_length_a 15.9909(10)
_cell_length_b 16.509(1)
_cell_length_c 17.9379(9)
_cell_angle_alpha 90
_cell_angle_beta 90
_cell_angle_gamma 90
_cell_formula_units_Z 8
loop_
_atom_type_symbol
_atom_type_radius_bond
C 0.68
H 0.23
loop_
_atom_site_label
_atom_site_type_symbol
_atom_site_fract_x
_atom_site_fract_y
_atom_site_fract_z
C1 C 0.8545(1) 0.77998(10) 0.70193(9)
H1 H 0.90360 0.81100 0.71060
C2 C 0.84403(10) 0.70694(10) 0.73675(9)
H2 H 0.88730 0.68650 0.76770
C3 C 0.76974(10) 0.66139(10) 0.72737(8)
C4 C 0.76323(10) 0.58182(10) 0.75762(9)
H3 H 0.80510 0.56220 0.79060
C5 C 0.69745(10) 0.53406(10) 0.73948(9)
H4 H 0.69680 0.47930 0.75580
C6 C 0.62892(10) 0.56408(10) 0.69630(8)
C7 C 0.56629(10) 0.5081(1) 0.67296(8)
H5 H 0.56930 0.45290 0.68770
C8 C 0.50186(10) 0.53453(9) 0.62913(8)
C9 C 0.42804(10) 0.49548(10) 0.59577(8)
C10 C 0.41029(10) 0.40837(9) 0.60564(8)
C11 C 0.47237(11) 0.35044(10) 0.59245(9)
H6 H 0.52550 0.36710 0.57450
C12 C 0.45711(11) 0.26873(10) 0.60535(9)
H7 H 0.49940 0.22980 0.59540
C13 C 0.37989(11) 0.24392(10) 0.63276(9)
H8 H 0.37000 0.18830 0.64300
C14 C 0.14605(11) 0.50925(11) 0.45296(9)
H9 H 0.09390 0.49820 0.42980
C15 C 0.21376(11) 0.45757(11) 0.44214(9)
H10 H 0.20790 0.41140 0.41090
C16 C 0.28946(10) 0.4729(1) 0.47648(8)
H11 H 0.33540 0.43750 0.46820
C17 C 0.2992(1) 0.54007(10) 0.52340(8)
C18 C 0.37862(10) 0.5537(1) 0.56332(8)
C19 C 0.41724(10) 0.63388(10) 0.57736(9)
C20 C 0.3953(1) 0.71239(9) 0.56250(9)
H12 H 0.34920 0.72420 0.53100
C21 C 0.44348(10) 0.77656(10) 0.59557(9)
C22 C 0.51733(10) 0.7610(1) 0.63870(8)
C23 C 0.54897(10) 0.67779(9) 0.64239(8)
C24 C 0.62639(10) 0.64760(9) 0.67545(8)
C25 C 0.70332(10) 0.69366(9) 0.68368(8)
C26 C 0.71929(10) 0.76643(10) 0.64410(9)
H13 H 0.67840 0.78630 0.61030
C27 C 0.79249(10) 0.80896(10) 0.65335(9)
H14 H 0.80110 0.85810 0.62680
C28 C 0.31716(11) 0.30088(10) 0.64509(9)
H15 H 0.26390 0.28390 0.66270
C29 C 0.33214(10) 0.38208(10) 0.63175(9)
H16 H 0.28900 0.42050 0.64040
C30 C 0.49382(10) 0.61912(10) 0.61667(8)
C31 C 0.54947(10) 0.82543(10) 0.68196(9)
H17 H 0.59510 0.81540 0.71460
C32 C 0.51638(10) 0.90228(10) 0.67805(9)
H18 H 0.53970 0.94440 0.70750
C33 C 0.44835(11) 0.91886(10) 0.63077(10)
H19 H 0.42760 0.97250 0.62630
C34 C 0.41216(11) 0.85694(10) 0.59113(9)
H20 H 0.36530 0.86810 0.56020
C35 C 0.23108(10) 0.59235(10) 0.53281(9)
H21 H 0.23670 0.63890 0.56350
C36 C 0.15540(11) 0.57692(10) 0.49775(10)
H22 H 0.10970 0.61300 0.50450
loop_
_geom_bond_atom_site_label_1
_geom_bond_atom_site_label_2
_geom_bond_distance
_geom_bond_site_symmetry_1
_geom_bond_site_symmetry_2
C1 H1 0.950 1_555 1_555
C2 C1 1.368 1_555 1_555
H2 C2 0.949 1_555 1_555
C3 C2 1.416 1_555 1_555
C4 C3 1.425 1_555 1_555
H3 C4 0.950 1_555 1_555
C5 C4 1.354 1_555 1_555
H4 C5 0.950 1_555 1_555
C6 C5 1.431 1_555 1_555
C7 C6 1.426 1_555 1_555
H5 C7 0.950 1_555 1_555
C8 C7 1.367 1_555 1_555
C9 C8 1.472 1_555 1_555
C10 C9 1.476 1_555 1_555
C11 C10 1.399 1_555 1_555
H6 C11 0.949 1_555 1_555
C12 C11 1.390 1_555 1_555
H7 C12 0.950 1_555 1_555
C13 C12 1.391 1_555 1_555
H8 C13 0.950 1_555 1_555
C14 H9 0.949 1_555 1_555
C15 C14 1.392 1_555 1_555
H10 C15 0.951 1_555 1_555
C16 C15 1.382 1_555 1_555
H11 C16 0.950 1_555 1_555
C17 C16 1.401 1_555 1_555
C18 C9 1.374 1_555 1_555
C19 C18 1.482 1_555 1_555
C20 C19 1.369 1_555 1_555
H12 C20 0.949 1_555 1_555
C21 C20 1.438 1_555 1_555
C22 C21 1.435 1_555 1_555
C23 C22 1.465 1_555 1_555
C24 C6 1.429 1_555 1_555
C25 C3 1.423 1_555 1_555
C26 C25 1.419 1_555 1_555
H13 C26 0.950 1_555 1_555
C27 C1 1.404 1_555 1_555
H14 C27 0.951 1_555 1_555
C28 C13 1.393 1_555 1_555
H15 C28 0.951 1_555 1_555
C29 C10 1.403 1_555 1_555
H16 C29 0.950 1_555 1_555
C30 C8 1.420 1_555 1_555
C31 C22 1.413 1_555 1_555
H17 C31 0.950 1_555 1_555
C32 C31 1.376 1_555 1_555
H18 C32 0.950 1_555 1_555
C33 C32 1.406 1_555 1_555
H19 C33 0.949 1_555 1_555
C34 C21 1.421 1_555 1_555
H20 C34 0.950 1_555 1_555
C35 C17 1.400 1_555 1_555
H21 C35 0.950 1_555 1_555
C36 C14 1.384 1_555 1_555
H22 C36 0.951 1_555 1_555
C17 C18 1.475 1_555 1_555
C19 C30 1.434 1_555 1_555
C23 C24 1.460 1_555 1_555
C23 C30 1.389 1_555 1_555
C24 C25 1.454 1_555 1_555
C26 C27 1.375 1_555 1_555
C28 C29 1.383 1_555 1_555
C33 C34 1.373 1_555 1_555
C35 C36 1.387 1_555 1_555
#END
