
#######################################################################
#
#                 Cambridge Crystallographic Data Centre
#                                CCDC
#
#######################################################################
#
# If this CIF has been generated from an entry in the Cambridge
# Structural Database, then it will include bibliographic, chemical,
# crystal, experimental, refinement or atomic coordinate data resulting
# from the CCDC's data processing and validation procedures.
#
#######################################################################

data_CSD_CIF_YOSZOX
_audit_creation_date 2015-02-15
_audit_creation_method CSD-ConQuest-V1
_database_code_CSD YOSZOX
_database_code_depnum_ccdc_archive 'CCDC 1022051'
_chemical_formula_sum 'C32 H18'
_chemical_formula_moiety
;
C32 H18
;
_journal_coden_Cambridge 1220
_journal_volume 21
_journal_year 2015
_journal_page_first 4755
_journal_name_full 'Chem.-Eur.J. '
loop_
_publ_author_name
"En-Chih Liu"
"Min-Kuan Chen"
"Jen-Yi Li"
"Yao-Ting Wu"
_chemical_name_systematic
;
benzo[a]phenanthro[9,10-e]acephenanthrylene
;
_cell_volume   1869.178
_exptl_crystal_colour 'orange'
_exptl_crystal_density_diffrn 1.43
_exptl_crystal_description 'Acicular'
_diffrn_ambient_temperature 100
#These two values have been output from a single CSD field.
_refine_ls_R_factor_gt 0.0367
_refine_ls_wR_factor_gt 0.0367
_symmetry_cell_setting orthorhombic
_symmetry_space_group_name_H-M 'P c c n'
_symmetry_Int_Tables_number 56
loop_
_symmetry_equiv_pos_site_id
_symmetry_equiv_pos_as_xyz
1 x,y,z
2 1/2+x,-y,1/2-z
3 -x,1/2+y,1/2-z
4 1/2-x,1/2-y,z
5 -x,-y,-z
6 -1/2-x,y,-1/2+z
7 x,-1/2-y,-1/2+z
8 -1/2+x,-1/2+y,-z
_cell_length_a 3.8982(4)
_cell_length_b 18.1566(17)
_cell_length_c 26.409(2)
_cell_angle_alpha 90
_cell_angle_beta 90
_cell_angle_gamma 90
_cell_formula_units_Z 4
loop_
_atom_type_symbol
_atom_type_radius_bond
C 0.68
H 0.23
loop_
_atom_site_label
_atom_site_type_symbol
_atom_site_fract_x
_atom_site_fract_y
_atom_site_fract_z
C1 C 0.0914(3) 0.90015(7) 0.37540(5)
H1 H 0.13420 0.90970 0.41020
C2 C -0.0830(3) 0.95265(7) 0.34613(5)
H2 H -0.16850 0.99640 0.36130
C3 C -0.1283(3) 0.93995(7) 0.29535(5)
H3 H -0.24120 0.97600 0.27530
C4 C -0.0107(3) 0.87433(7) 0.27201(5)
C5 C -0.0301(3) 0.86740(7) 0.21803(5)
H4 H -0.14170 0.90430 0.19860
C6 C 0.1119(3) 0.80767(7) 0.19447(5)
C7 C 0.1652(3) 0.78370(7) 0.14145(4)
C8 C 0.0723(3) 0.81993(7) 0.09492(5)
C9 C -0.1030(3) 0.88817(7) 0.09353(5)
H5 H -0.16730 0.91100 0.12450
C10 C -0.1826(3) 0.92237(7) 0.04850(5)
H6 H -0.29780 0.96850 0.04850
C11 C -0.0928(3) 0.88876(7) 0.00267(5)
H7 H -0.14620 0.91220 -0.02850
C12 C 0.0725(3) 0.82192(7) 0.00274(5)
H8 H 0.12890 0.79950 -0.02870
C13 C 0.1614(3) 0.78543(7) 0.04832(4)
C14 C 0.25000 0.75000 0.22567(6)
C15 C 0.2010(3) 0.83498(7) 0.35421(5)
H9 H 0.31970 0.80040 0.37480
C16 C 0.1418(3) 0.81805(6) 0.30267(5)
C17 C 0.25000 0.75000 0.27811(6)
C1C C 0.4086(3) 0.59985(7) 0.37540(5)
H1C H 0.36580 0.59030 0.41020
C2C C 0.5830(3) 0.54735(7) 0.34613(5)
H2C H 0.66850 0.50360 0.36130
C3C C 0.6283(3) 0.56005(7) 0.29535(5)
H3C H 0.74120 0.52400 0.27530
C4C C 0.5107(3) 0.62567(7) 0.27201(5)
C5C C 0.5301(3) 0.63260(7) 0.21803(5)
H4C H 0.64170 0.59570 0.19860
C6C C 0.3881(3) 0.69233(7) 0.19447(5)
C7C C 0.3348(3) 0.71630(7) 0.14145(4)
C8C C 0.4277(3) 0.68007(7) 0.09492(5)
C9C C 0.6030(3) 0.61183(7) 0.09353(5)
H5C H 0.66730 0.58900 0.12450
C10C C 0.6826(3) 0.57763(7) 0.04850(5)
H6C H 0.79780 0.53150 0.04850
C11C C 0.5928(3) 0.61124(7) 0.00267(5)
H7C H 0.64620 0.58780 -0.02850
C12C C 0.4275(3) 0.67808(7) 0.00274(5)
H8C H 0.37110 0.70050 -0.02870
C13C C 0.3386(3) 0.71457(7) 0.04832(4)
C15C C 0.2990(3) 0.66502(7) 0.35421(5)
H9C H 0.18030 0.69960 0.37480
C16C C 0.3582(3) 0.68195(6) 0.30267(5)
loop_
_geom_bond_atom_site_label_1
_geom_bond_atom_site_label_2
_geom_bond_distance
_geom_bond_site_symmetry_1
_geom_bond_site_symmetry_2
C1 H1 0.950 1_555 1_555
C2 C1 1.403 1_555 1_555
H2 C2 0.950 1_555 1_555
C3 C2 1.372 1_555 1_555
H3 C3 0.950 1_555 1_555
C4 C3 1.418 1_555 1_555
C5 C4 1.433 1_555 1_555
H4 C5 0.949 1_555 1_555
C6 C5 1.367 1_555 1_555
C7 C6 1.481 1_555 1_555
C8 C7 1.440 1_555 1_555
C9 C8 1.415 1_555 1_555
H5 C9 0.951 1_555 1_555
C10 C9 1.377 1_555 1_555
H6 C10 0.950 1_555 1_555
C11 C10 1.400 1_555 1_555
H7 C11 0.950 1_555 1_555
C12 C11 1.374 1_555 1_555
H8 C12 0.950 1_555 1_555
C13 C8 1.424 1_555 1_555
C14 C6 1.437 1_555 1_555
C15 C1 1.377 1_555 1_555
H9 C15 0.951 1_555 1_555
C16 C4 1.433 1_555 1_555
C17 C14 1.385 1_555 1_555
C1C H1C 0.950 1_555 1_555
C2C C1C 1.403 1_555 1_555
H2C C2C 0.950 1_555 1_555
C3C C2C 1.372 1_555 1_555
H3C C3C 0.950 1_555 1_555
C4C C3C 1.418 1_555 1_555
C5C C4C 1.433 1_555 1_555
H4C C5C 0.949 1_555 1_555
C6C C14 1.437 1_555 1_555
C7C C7 1.391 1_555 1_555
C8C C7C 1.440 1_555 1_555
C9C C8C 1.415 1_555 1_555
H5C C9C 0.951 1_555 1_555
C10C C9C 1.377 1_555 1_555
H6C C10C 0.950 1_555 1_555
C11C C10C 1.400 1_555 1_555
H7C C11C 0.950 1_555 1_555
C12C C11C 1.374 1_555 1_555
H8C C12C 0.950 1_555 1_555
C13C C13 1.460 1_555 1_555
C15C C1C 1.377 1_555 1_555
H9C C15C 0.951 1_555 1_555
C16C C17 1.458 1_555 1_555
C12 C13 1.417 1_555 1_555
C15 C16 1.414 1_555 1_555
C16 C17 1.458 1_555 1_555
C4C C16C 1.433 1_555 1_555
C5C C6C 1.367 1_555 1_555
C6C C7C 1.481 1_555 1_555
C8C C13C 1.424 1_555 1_555
C12C C13C 1.417 1_555 1_555
C15C C16C 1.414 1_555 1_555
#END
