
#######################################################################
#
#                 Cambridge Crystallographic Data Centre
#                                CCDC
#
#######################################################################
#
# If this CIF has been generated from an entry in the Cambridge
# Structural Database, then it will include bibliographic, chemical,
# crystal, experimental, refinement or atomic coordinate data resulting
# from the CCDC's data processing and validation procedures.
#
#######################################################################

data_CSD_CIF_YUNYUD
_audit_creation_date 2015-07-02
_audit_creation_method CSD-ConQuest-V1
_database_code_CSD YUNYUD
_database_code_depnum_ccdc_archive 'CCDC 1401397'
_chemical_formula_sum 'C42 H32'
_chemical_formula_moiety
;
C42 H32
;
_journal_coden_Cambridge 1695
_journal_volume 3
_journal_year 2015
_journal_page_first 7583
_journal_name_full 'J.Mater.Chem.C '
loop_
_publ_author_name
"Tien-Lin Wu"
"Chi-Hsien Kuo"
"Bo-Chao Lin"
"Yu-Tai Tao"
"Chao-Ping Hsu"
"Rai-Shung Liu"
_chemical_name_systematic
;
2,10-di-t-butylbenzo[lm]chryseno[1,12,11,10-opqrab]perylene
;
_cell_volume   2744.886
_exptl_crystal_colour 'orange red'
_exptl_crystal_density_diffrn 1.299
_exptl_crystal_description 'prism'
_diffrn_ambient_temperature 200
#These two values have been output from a single CSD field.
_refine_ls_R_factor_gt 0.068
_refine_ls_wR_factor_gt 0.068
_symmetry_cell_setting monoclinic
_symmetry_space_group_name_H-M 'C 2/c'
_symmetry_Int_Tables_number 15
loop_
_symmetry_equiv_pos_site_id
_symmetry_equiv_pos_as_xyz
1 x,y,z
2 -x,y,1/2-z
3 1/2+x,1/2+y,z
4 1/2-x,1/2+y,1/2-z
5 -x,-y,-z
6 x,-y,-1/2+z
7 -1/2-x,-1/2-y,-z
8 -1/2+x,-1/2-y,-1/2+z
_cell_length_a 26.659(4)
_cell_length_b 6.1038(11)
_cell_length_c 19.317(4)
_cell_angle_alpha 90
_cell_angle_beta 119.161(15)
_cell_angle_gamma 90
_cell_formula_units_Z 4
loop_
_atom_type_symbol
_atom_type_radius_bond
C 0.68
H 0.23
loop_
_atom_site_label
_atom_site_type_symbol
_atom_site_fract_x
_atom_site_fract_y
_atom_site_fract_z
C1 C 0.0602(2) 0.4832(8) 0.1649(3)
C2 C 0.0828(3) 0.5435(15) 0.1090(3)
H1 H 0.11740 0.45750 0.12230
H2 H 0.09230 0.69990 0.11430
H3 H 0.05340 0.51220 0.05430
C3 C 0.0075(3) 0.6121(11) 0.1447(3)
H4 H -0.02150 0.58240 0.08960
H5 H 0.01690 0.76860 0.15090
H6 H -0.00750 0.57020 0.18010
C4 C 0.0440(3) 0.2439(10) 0.1502(3)
H7 H 0.07830 0.15660 0.16290
H8 H 0.01550 0.22260 0.09430
H9 H 0.02780 0.19730 0.18370
C5 C 0.10524(19) 0.5313(8) 0.2517(3)
C6 C 0.1106(2) 0.3972(8) 0.3132(3)
H10 H 0.08590 0.27410 0.30070
C7 C 0.1506(2) 0.4358(8) 0.3923(3)
C8 C 0.18821(19) 0.6169(7) 0.4103(3)
C9 C 0.18292(19) 0.7584(8) 0.3489(3)
C10 C 0.1412(2) 0.7096(8) 0.2699(3)
H11 H 0.13790 0.80210 0.22830
C11 C 0.23151(19) 0.6600(7) 0.4915(3)
C12 C 0.23641(19) 0.5180(7) 0.5539(3)
C13 C 0.19921(19) 0.3318(7) 0.5345(2)
C14 C 0.1563(2) 0.2882(7) 0.4555(3)
C15 C 0.1214(2) 0.1053(8) 0.4413(3)
H12 H 0.09210 0.07640 0.38860
C16 C 0.1280(2) -0.0365(8) 0.5014(3)
H13 H 0.10340 -0.15990 0.48950
C17 C 0.1698(2) 0.0021(8) 0.5775(3)
H14 H 0.17470 -0.09680 0.61830
C18 C 0.2058(2) 0.1874(7) 0.5962(3)
C19 C 0.2496(2) 0.2293(9) 0.6749(3)
H15 H 0.25440 0.13310 0.71630
C20 C 0.2843(2) 0.4039(8) 0.6914(3)
H16 H 0.31350 0.42690 0.74460
C21 C 0.2791(2) 0.5559(8) 0.6321(3)
C1F C 0.4398(2) 1.0168(8) 0.8351(3)
C2F C 0.4172(3) 0.9565(15) 0.8910(3)
H1F H 0.38260 1.04250 0.87770
H2F H 0.40770 0.80010 0.88570
H3F H 0.44660 0.98780 0.94570
C3F C 0.4925(3) 0.8879(11) 0.8553(3)
H4F H 0.52150 0.91760 0.91040
H5F H 0.48310 0.73140 0.84910
H6F H 0.50750 0.92980 0.81990
C4F C 0.4560(3) 1.2561(10) 0.8498(3)
H7F H 0.42170 1.34340 0.83710
H8F H 0.48450 1.27740 0.90570
H9F H 0.47220 1.30270 0.81630
C5F C 0.39476(19) 0.9687(8) 0.7483(3)
C6F C 0.3894(2) 1.1028(8) 0.6868(3)
H10F H 0.41410 1.22590 0.69930
C7F C 0.3494(2) 1.0642(8) 0.6077(3)
C8F C 0.31179(19) 0.8831(7) 0.5897(3)
C9F C 0.31708(19) 0.7416(8) 0.6511(3)
C10F C 0.3588(2) 0.7904(8) 0.7301(3)
H11F H 0.36210 0.69790 0.77170
C11F C 0.26849(19) 0.8400(7) 0.5085(3)
C12F C 0.26359(19) 0.9820(7) 0.4461(3)
C13F C 0.30079(19) 1.1682(7) 0.4655(2)
C14F C 0.3437(2) 1.2118(7) 0.5445(3)
C15F C 0.3786(2) 1.3947(8) 0.5587(3)
H12F H 0.40790 1.42360 0.61140
C16F C 0.3720(2) 1.5365(8) 0.4986(3)
H13F H 0.39660 1.65990 0.51050
C17F C 0.3302(2) 1.4979(8) 0.4225(3)
H14F H 0.32530 1.59680 0.38170
C18F C 0.2942(2) 1.3126(7) 0.4038(3)
C19F C 0.2504(2) 1.2707(9) 0.3251(3)
H15F H 0.24560 1.36690 0.28370
C20F C 0.2157(2) 1.0961(8) 0.3086(3)
H16F H 0.18650 1.07310 0.25540
C21F C 0.2209(2) 0.9441(8) 0.3679(3)
loop_
_geom_bond_atom_site_label_1
_geom_bond_atom_site_label_2
_geom_bond_distance
_geom_bond_site_symmetry_1
_geom_bond_site_symmetry_2
C1 C2 1.516 1_555 1_555
C2 H1 0.981 1_555 1_555
H2 C2 0.980 1_555 1_555
H3 C2 0.980 1_555 1_555
C3 C1 1.487 1_555 1_555
H4 C3 0.981 1_555 1_555
H5 C3 0.980 1_555 1_555
H6 C3 0.979 1_555 1_555
C4 C1 1.510 1_555 1_555
H7 C4 0.981 1_555 1_555
H8 C4 0.980 1_555 1_555
H9 C4 0.979 1_555 1_555
C5 C1 1.542 1_555 1_555
C6 C5 1.392 1_555 1_555
H10 C6 0.949 1_555 1_555
C7 C6 1.393 1_555 1_555
C8 C7 1.417 1_555 1_555
C9 C8 1.418 1_555 1_555
C10 C5 1.378 1_555 1_555
H11 C10 0.950 1_555 1_555
C11 C8 1.448 1_555 1_555
C12 C11 1.438 1_555 1_555
C13 C12 1.433 1_555 1_555
C14 C7 1.464 1_555 1_555
C15 C14 1.392 1_555 1_555
H12 C15 0.950 1_555 1_555
C16 C15 1.389 1_555 1_555
H13 C16 0.950 1_555 1_555
C17 C16 1.364 1_555 1_555
H14 C17 0.950 1_555 1_555
C18 C13 1.423 1_555 1_555
C19 C18 1.418 1_555 1_555
H15 C19 0.949 1_555 1_555
C20 C19 1.344 1_555 1_555
H16 C20 0.950 1_555 1_555
C21 C12 1.398 1_555 1_555
C1F C2F 1.516 1_555 1_555
C2F H1F 0.981 1_555 1_555
H2F C2F 0.980 1_555 1_555
H3F C2F 0.980 1_555 1_555
C3F C1F 1.487 1_555 1_555
H4F C3F 0.981 1_555 1_555
H5F C3F 0.980 1_555 1_555
H6F C3F 0.979 1_555 1_555
C4F C1F 1.510 1_555 1_555
H7F C4F 0.981 1_555 1_555
H8F C4F 0.980 1_555 1_555
H9F C4F 0.979 1_555 1_555
C5F C1F 1.542 1_555 1_555
C6F C5F 1.392 1_555 1_555
H10F C6F 0.949 1_555 1_555
C7F C6F 1.393 1_555 1_555
C8F C7F 1.417 1_555 1_555
C9F C21 1.443 1_555 1_555
C10F C5F 1.378 1_555 1_555
H11F C10F 0.950 1_555 1_555
C11F C11 1.404 1_555 1_555
C12F C11F 1.438 1_555 1_555
C13F C12F 1.433 1_555 1_555
C14F C7F 1.464 1_555 1_555
C15F C14F 1.392 1_555 1_555
H12F C15F 0.950 1_555 1_555
C16F C15F 1.389 1_555 1_555
H13F C16F 0.950 1_555 1_555
C17F C16F 1.364 1_555 1_555
H14F C17F 0.950 1_555 1_555
C18F C13F 1.423 1_555 1_555
C19F C18F 1.418 1_555 1_555
H15F C19F 0.949 1_555 1_555
C20F C19F 1.344 1_555 1_555
H16F C20F 0.950 1_555 1_555
C21F C9 1.443 1_555 1_555
C9 C10 1.414 1_555 1_555
C13 C14 1.417 1_555 1_555
C17 C18 1.412 1_555 1_555
C20 C21 1.427 1_555 1_555
C8F C9F 1.418 1_555 1_555
C8F C11F 1.448 1_555 1_555
C9F C10F 1.414 1_555 1_555
C12F C21F 1.398 1_555 1_555
C13F C14F 1.417 1_555 1_555
C17F C18F 1.412 1_555 1_555
C20F C21F 1.427 1_555 1_555
#END
