
#######################################################################
#
#                 Cambridge Crystallographic Data Centre
#                                CCDC
#
#######################################################################
#
# If this CIF has been generated from an entry in the Cambridge
# Structural Database, then it will include bibliographic, chemical,
# crystal, experimental, refinement or atomic coordinate data resulting
# from the CCDC's data processing and validation procedures.
#
#######################################################################

data_CSD_CIF_ZATQAO
_audit_creation_date 2012-07-02
_audit_creation_method CSD-ConQuest-V1
_database_code_CSD ZATQAO
_database_code_depnum_ccdc_archive 'CCDC 803867'
_chemical_formula_sum 'C36 H26'
_chemical_formula_moiety
;
C36 H26
;
_journal_coden_Cambridge 1089
_journal_volume 24
_journal_year 2012
_journal_page_first 2171
_journal_name_full 'Adv.Mater. '
loop_
_publ_author_name
"Tao He"
"Xiying Zhang"
"Jiong Jia"
"Yexin Li"
"Xutang Tao"
_chemical_name_systematic
;
4,4'-bis(2-(2-naphthyl)vinyl)biphenyl
;
_cell_volume   2394.919
_exptl_crystal_colour 'yellow'
_exptl_crystal_density_diffrn 1.272
_exptl_crystal_description 'plate'
_diffrn_ambient_temperature 293
#These two values have been output from a single CSD field.
_refine_ls_R_factor_gt 0.054
_refine_ls_wR_factor_gt 0.054
_symmetry_cell_setting orthorhombic
_symmetry_space_group_name_H-M 'P 21 21 21'
_symmetry_Int_Tables_number 19
loop_
_symmetry_equiv_pos_site_id
_symmetry_equiv_pos_as_xyz
1 x,y,z
2 1/2-x,-y,1/2+z
3 1/2+x,1/2-y,-z
4 -x,1/2+y,1/2-z
_cell_length_a 5.9681(7)
_cell_length_b 7.5122(9)
_cell_length_c 53.418(6)
_cell_angle_alpha 90
_cell_angle_beta 90
_cell_angle_gamma 90
_cell_formula_units_Z 4
loop_
_atom_type_symbol
_atom_type_radius_bond
C 0.68
H 0.23
loop_
_atom_site_label
_atom_site_type_symbol
_atom_site_fract_x
_atom_site_fract_y
_atom_site_fract_z
C1 C 0.0400(5) 0.9039(3) 0.07679(5)
C2 C 0.2536(5) 0.8191(3) 0.07670(5)
C3 C 1.4565(5) 0.8194(4) 0.42396(5)
C4 C 0.8101(5) 0.8553(3) 0.26246(5)
C5 C 0.6932(5) 0.8594(4) 0.23790(5)
C6 C 1.2446(5) 0.9051(3) 0.42368(5)
C7 C 0.2687(5) 0.8350(4) 0.12209(5)
C8 C 0.3614(5) 0.7841(4) 0.09970(5)
H1 H 0.49840 0.72520 0.09970
C9 C 1.2342(5) 0.8843(4) 0.37814(5)
C10 C 1.1399(5) 0.9374(4) 0.40039(5)
H2 H 1.00290 0.99640 0.40010
C11 C 1.1256(5) 0.7672(4) 0.28815(5)
H3 H 1.26350 0.71020 0.28930
C12 C 0.4700(5) 0.8708(4) 0.19087(5)
C13 C 0.7176(5) 0.9332(4) 0.28392(5)
H4 H 0.57960 0.99000 0.28280
C14 C 1.5576(5) 0.7733(4) 0.40088(5)
H5 H 1.69890 0.72110 0.40080
C15 C -0.0565(5) 0.9481(4) 0.10003(5)
H6 H -0.19790 1.00000 0.10040
C16 C 0.3524(6) 0.7744(4) 0.05336(5)
H7 H 0.49000 0.71630 0.05300
C17 C 1.4498(5) 0.8048(4) 0.37887(6)
H8 H 1.51920 0.77330 0.36390
C18 C 0.3781(5) 0.9459(4) 0.21220(5)
H9 H 0.23940 1.00170 0.21100
C19 C 0.7857(6) 0.7813(4) 0.21642(5)
H10 H 0.92310 0.72350 0.21760
C20 C 1.0185(5) 0.7733(4) 0.26533(5)
H11 H 1.08670 0.72140 0.25150
C21 C 1.0329(5) 0.8442(4) 0.30948(5)
C22 C 0.4847(5) 0.9411(4) 0.23509(5)
H12 H 0.41650 0.99330 0.24890
C23 C 0.8259(6) 0.9280(4) 0.30676(5)
H13 H 0.75950 0.98150 0.32060
C24 C 1.1069(5) 0.9065(4) 0.35479(5)
H14 H 0.98000 0.97830 0.35540
C25 C 0.3452(6) 0.8832(4) 0.16735(5)
H15 H 0.21310 0.94880 0.16790
C26 C 1.5578(6) 0.7815(4) 0.44740(6)
H16 H 1.69680 0.72570 0.44790
C27 C 1.1425(6) 0.9506(4) 0.44669(6)
H17 H 1.00410 1.00740 0.44670
C28 C 0.3962(5) 0.8131(4) 0.14534(5)
H18 H 0.52480 0.74350 0.14460
C29 C 0.0523(5) 0.9166(4) 0.12185(5)
H19 H -0.01490 0.94850 0.13690
C30 C -0.0630(6) 0.9430(4) 0.05368(6)
H20 H -0.20220 0.99870 0.05350
C31 C 0.6783(6) 0.7879(4) 0.19356(5)
H21 H 0.74580 0.73610 0.17970
C32 C 1.1578(6) 0.8327(4) 0.33302(5)
H22 H 1.28860 0.76550 0.33260
C33 C 1.4540(7) 0.8260(5) 0.46912(6)
H23 H 1.52190 0.79930 0.48430
C34 C 1.2451(7) 0.9119(4) 0.46887(6)
H24 H 1.17630 0.94250 0.48390
C35 C 0.2468(7) 0.8161(5) 0.03151(6)
H25 H 0.31420 0.78800 0.01630
C36 C 0.0378(7) 0.9008(4) 0.03170(6)
H26 H -0.03250 0.92830 0.01670
loop_
_geom_bond_atom_site_label_1
_geom_bond_atom_site_label_2
_geom_bond_distance
_geom_bond_site_symmetry_1
_geom_bond_site_symmetry_2
C1 C2 1.425 1_555 1_555
C2 C8 1.412 1_555 1_555
C3 C6 1.419 1_555 1_555
C4 C5 1.486 1_555 1_555
C5 C19 1.402 1_555 1_555
C6 C10 1.413 1_555 1_555
C7 C8 1.372 1_555 1_555
C8 H1 0.930 1_555 1_555
C9 C10 1.374 1_555 1_555
C10 H2 0.930 1_555 1_555
C11 H3 0.930 1_555 1_555
C12 C18 1.385 1_555 1_555
C13 C4 1.400 1_555 1_555
H4 C13 0.929 1_555 1_555
C14 C3 1.416 1_555 1_555
H5 C14 0.930 1_555 1_555
C15 C1 1.408 1_555 1_555
H6 C15 0.930 1_555 1_555
C16 C2 1.419 1_555 1_555
H7 C16 0.930 1_555 1_555
C17 C9 1.419 1_555 1_555
H8 C17 0.931 1_555 1_555
C18 H9 0.930 1_555 1_555
C19 H10 0.930 1_555 1_555
C20 C4 1.396 1_555 1_555
H11 C20 0.929 1_555 1_555
C21 C11 1.392 1_555 1_555
C22 C5 1.396 1_555 1_555
H12 C22 0.929 1_555 1_555
C23 C13 1.381 1_555 1_555
H13 C23 0.930 1_555 1_555
C24 C9 1.470 1_555 1_555
H14 C24 0.930 1_555 1_555
C25 C12 1.464 1_555 1_555
H15 C25 0.930 1_555 1_555
C26 C3 1.419 1_555 1_555
H16 C26 0.930 1_555 1_555
C27 C6 1.414 1_555 1_555
H17 C27 0.930 1_555 1_555
C28 C7 1.466 1_555 1_555
H18 C28 0.930 1_555 1_555
C29 C7 1.430 1_555 1_555
H19 C29 0.930 1_555 1_555
C30 C1 1.410 1_555 1_555
H20 C30 0.930 1_555 1_555
C31 C12 1.398 1_555 1_555
H21 C31 0.928 1_555 1_555
C32 C21 1.464 1_555 1_555
H22 C32 0.930 1_555 1_555
C33 C26 1.357 1_555 1_555
H23 C33 0.928 1_555 1_555
C34 C27 1.365 1_555 1_555
H24 C34 0.931 1_555 1_555
C35 C16 1.363 1_555 1_555
H25 C35 0.931 1_555 1_555
C36 C30 1.357 1_555 1_555
H26 C36 0.928 1_555 1_555
C11 C20 1.377 1_555 1_555
C14 C17 1.361 1_555 1_555
C15 C29 1.355 1_555 1_555
C18 C22 1.379 1_555 1_555
C19 C31 1.380 1_555 1_555
C21 C23 1.394 1_555 1_555
C24 C32 1.324 1_555 1_555
C25 C28 1.324 1_555 1_555
C33 C34 1.404 1_555 1_555
C35 C36 1.400 1_555 1_555
#END
