
#######################################################################
#
#                 Cambridge Crystallographic Data Centre
#                                CCDC
#
#######################################################################
#
# If this CIF has been generated from an entry in the Cambridge
# Structural Database, then it will include bibliographic, chemical,
# crystal, experimental, refinement or atomic coordinate data resulting
# from the CCDC's data processing and validation procedures.
#
#######################################################################

data_CSD_CIF_ZEDPOQ
_audit_creation_date 2017-07-07
_audit_creation_method CSD-ConQuest-V1
_database_code_CSD ZEDPOQ
_database_code_depnum_ccdc_archive 'CCDC 1503156'
_chemical_formula_sum 'C32 H18'
_chemical_formula_moiety
;
C32 H18
;
_journal_coden_Cambridge 1767
_journal_volume 7
_journal_year 2016
_journal_page_first 4751
_journal_name_full 'J.Phys.Chem.Lett. '
loop_
_publ_author_name
"A.M.Philip"
"A.R.Mallia"
"M.Hariharan"
_chemical_name_systematic
;
1-(aceanthrylen-2-yl)pyrene
;
_cell_volume   1960.451
_exptl_crystal_colour 'brown'
_exptl_crystal_density_diffrn 1.364
_exptl_crystal_description 'block'
_diffrn_ambient_temperature 296
#These two values have been output from a single CSD field.
_refine_ls_R_factor_gt 0.0489
_refine_ls_wR_factor_gt 0.0489
_symmetry_cell_setting monoclinic
_symmetry_space_group_name_H-M 'P 21/c'
_symmetry_Int_Tables_number 14
loop_
_symmetry_equiv_pos_site_id
_symmetry_equiv_pos_as_xyz
1 x,y,z
2 -x,1/2+y,1/2-z
3 -x,-y,-z
4 x,-1/2-y,-1/2+z
_cell_length_a 30.4984(11)
_cell_length_b 3.9613(2)
_cell_length_c 16.2415(6)
_cell_angle_alpha 90
_cell_angle_beta 92.412(3)
_cell_angle_gamma 90
_cell_formula_units_Z 4
loop_
_atom_type_symbol
_atom_type_radius_bond
C 0.68
H 0.23
loop_
_atom_site_label
_atom_site_type_symbol
_atom_site_fract_x
_atom_site_fract_y
_atom_site_fract_z
C1 C 0.73175(7) 0.5751(5) 0.23861(12)
C2 C 0.70287(6) 0.6625(5) 0.17605(12)
H1 H 0.71060 0.75420 0.12600
C3 C 0.65793(6) 0.5914(5) 0.19905(12)
C4 C 0.61602(6) 0.6311(5) 0.16094(12)
C5 C 0.60784(7) 0.7772(6) 0.08214(12)
H2 H 0.63140 0.85480 0.05280
C6 C 0.56662(7) 0.8068(6) 0.04843(14)
H3 H 0.56220 0.90420 -0.00340
C7 C 0.53041(7) 0.6903(7) 0.09166(15)
H4 H 0.50230 0.70990 0.06790
C8 C 0.53615(7) 0.5505(6) 0.16720(14)
H5 H 0.51180 0.47450 0.19440
C9 C 0.57863(6) 0.5172(6) 0.20596(12)
C10 C 0.58423(7) 0.3753(6) 0.28467(13)
H6 H 0.55980 0.30180 0.31190
C11 C 0.62593(7) 0.3421(6) 0.32312(12)
C12 C 0.63702(8) 0.2114(6) 0.40287(13)
H7 H 0.61500 0.13090 0.43560
C13 C 0.67945(8) 0.2033(6) 0.43159(13)
H8 H 0.68580 0.11910 0.48420
C14 C 0.71462(7) 0.3189(6) 0.38416(13)
H9 H 0.74340 0.31080 0.40560
C15 C 0.70559(6) 0.4417(5) 0.30686(12)
C16 C 0.66121(7) 0.4529(5) 0.27786(12)
C17 C 0.77997(6) 0.6113(5) 0.24525(12)
C18 C 0.79844(7) 0.7555(6) 0.31742(13)
H10 H 0.78000 0.81800 0.35900
C19 C 0.84269(7) 0.8079(6) 0.32903(13)
H11 H 0.85340 0.91100 0.37720
C20 C 0.87182(7) 0.7093(5) 0.26988(13)
C21 C 0.91840(7) 0.7575(6) 0.28045(15)
H12 H 0.92970 0.86060 0.32820
C22 C 0.94591(7) 0.6572(6) 0.22310(16)
H13 H 0.97590 0.69200 0.23200
C23 C 0.93021(7) 0.4977(6) 0.14848(14)
C24 C 0.95816(7) 0.3877(6) 0.08825(16)
H14 H 0.98830 0.41910 0.09620
C25 C 0.94215(8) 0.2338(7) 0.01732(15)
H15 H 0.96140 0.16110 -0.02180
C26 C 0.89754(7) 0.1865(6) 0.00387(13)
H16 H 0.88710 0.08400 -0.04460
C27 C 0.86796(6) 0.2910(5) 0.06229(12)
C28 C 0.82157(7) 0.2404(6) 0.05166(12)
H17 H 0.81040 0.13510 0.00410
C29 C 0.79372(7) 0.3413(6) 0.10880(12)
H18 H 0.76380 0.30180 0.09970
C30 C 0.80852(6) 0.5079(5) 0.18339(12)
C31 C 0.85468(6) 0.5563(5) 0.19628(12)
C32 C 0.88415(6) 0.4496(5) 0.13545(12)
loop_
_geom_bond_atom_site_label_1
_geom_bond_atom_site_label_2
_geom_bond_distance
_geom_bond_site_symmetry_1
_geom_bond_site_symmetry_2
C1 C2 1.361 1_555 1_555
C2 H1 0.930 1_555 1_555
C3 C2 1.463 1_555 1_555
C4 C3 1.405 1_555 1_555
C5 C4 1.417 1_555 1_555
H2 C5 0.931 1_555 1_555
C6 C5 1.355 1_555 1_555
H3 C6 0.931 1_555 1_555
C7 C6 1.411 1_555 1_555
H4 C7 0.928 1_555 1_555
C8 C7 1.351 1_555 1_555
H5 C8 0.930 1_555 1_555
C9 C4 1.452 1_555 1_555
C10 C9 1.400 1_555 1_555
H6 C10 0.929 1_555 1_555
C11 C10 1.399 1_555 1_555
C12 C11 1.422 1_555 1_555
H7 C12 0.930 1_555 1_555
C13 C12 1.357 1_555 1_555
H8 C13 0.930 1_555 1_555
C14 C13 1.422 1_555 1_555
H9 C14 0.931 1_555 1_555
C15 C1 1.490 1_555 1_555
C16 C3 1.392 1_555 1_555
C17 C1 1.477 1_555 1_555
C18 C17 1.401 1_555 1_555
H10 C18 0.930 1_555 1_555
C19 C18 1.371 1_555 1_555
H11 C19 0.930 1_555 1_555
C20 C19 1.392 1_555 1_555
C21 C20 1.437 1_555 1_555
H12 C21 0.930 1_555 1_555
C22 C21 1.340 1_555 1_555
H13 C22 0.930 1_555 1_555
C23 C22 1.431 1_555 1_555
C24 C23 1.394 1_555 1_555
H14 C24 0.931 1_555 1_555
C25 C24 1.375 1_555 1_555
H15 C25 0.929 1_555 1_555
C26 C25 1.382 1_555 1_555
H16 C26 0.930 1_555 1_555
C27 C26 1.399 1_555 1_555
C28 C27 1.432 1_555 1_555
H17 C28 0.930 1_555 1_555
C29 C28 1.345 1_555 1_555
H18 C29 0.931 1_555 1_555
C30 C17 1.417 1_555 1_555
C31 C20 1.420 1_555 1_555
C32 C23 1.425 1_555 1_555
C8 C9 1.423 1_555 1_555
C11 C16 1.399 1_555 1_555
C14 C15 1.364 1_555 1_555
C15 C16 1.415 1_555 1_555
C27 C32 1.415 1_555 1_555
C29 C30 1.436 1_555 1_555
C30 C31 1.427 1_555 1_555
C31 C32 1.427 1_555 1_555
#END
