
#######################################################################
#
#                 Cambridge Crystallographic Data Centre
#                                CCDC
#
#######################################################################
#
# If this CIF has been generated from an entry in the Cambridge
# Structural Database, then it will include bibliographic, chemical,
# crystal, experimental, refinement or atomic coordinate data resulting
# from the CCDC's data processing and validation procedures.
#
#######################################################################

data_CSD_CIF_ZIWZOW
_audit_creation_date 2014-01-13
_audit_creation_method CSD-ConQuest-V1
_database_code_CSD ZIWZOW
_database_code_depnum_ccdc_archive 'CCDC 961911'
_chemical_formula_sum 'C18 H14'
_chemical_formula_moiety
;
C18 H14
;
_journal_coden_Cambridge 1078
_journal_year 2013
_journal_name_full 'CSD Communication(Private Communication) '
loop_
_publ_author_name
"R.K.Dhar"
"F.R.Fronczek"
"P.W.Rabideau"
_chemical_name_systematic
;
1,4-Dihydrotriphenylene
;
_cell_volume   1139.394
_exptl_crystal_colour 'colorless'
_exptl_crystal_density_diffrn 1.343
_exptl_special_details
;
Department of Chemistry, Louisiana State University, Baton Rouge, LA, 70803, 
USA
;
_exptl_crystal_description 'needle'
_diffrn_ambient_temperature 100
#These two values have been output from a single CSD field.
_refine_ls_R_factor_gt 0.0297
_refine_ls_wR_factor_gt 0.0297
_symmetry_cell_setting orthorhombic
_symmetry_space_group_name_H-M 'P 21 21 21'
_symmetry_Int_Tables_number 19
loop_
_symmetry_equiv_pos_site_id
_symmetry_equiv_pos_as_xyz
1 x,y,z
2 1/2-x,-y,1/2+z
3 -x,1/2+y,1/2-z
4 1/2+x,1/2-y,-z
_cell_length_a 5.2188(15)
_cell_length_b 12.737(4)
_cell_length_c 17.141(5)
_cell_angle_alpha 90
_cell_angle_beta 90
_cell_angle_gamma 90
_cell_formula_units_Z 4
loop_
_atom_type_symbol
_atom_type_radius_bond
C 0.68
H 0.23
loop_
_atom_site_label
_atom_site_type_symbol
_atom_site_fract_x
_atom_site_fract_y
_atom_site_fract_z
C1 C 0.5464(3) 0.61788(13) 0.64235(9)
C2 C 0.5440(3) 0.68692(13) 0.70715(10)
H1 H 0.661(4) 0.6761(14) 0.7494(11)
C3 C 0.3693(3) 0.76767(13) 0.7120(1)
H2 H 0.371(4) 0.8136(14) 0.7579(11)
C4 C 0.1932(4) 0.78403(13) 0.65237(10)
H3 H 0.070(4) 0.8418(16) 0.6567(11)
C5 C 0.1915(3) 0.71831(13) 0.58833(10)
H4 H 0.073(4) 0.7308(15) 0.5463(11)
C6 C 0.3662(3) 0.63385(12) 0.58210(9)
C7 C 0.3620(3) 0.56236(13) 0.51628(9)
C8 C 0.1800(3) 0.57341(14) 0.45511(9)
H5 H 0.058(4) 0.6291(16) 0.4554(11)
C9 C 0.1723(3) 0.50165(13) 0.39439(10)
H6 H 0.040(4) 0.5104(15) 0.3536(12)
C10 C 0.3437(4) 0.41894(14) 0.39200(9)
H7 H 0.338(4) 0.3682(15) 0.3496(11)
C11 C 0.5273(4) 0.40765(13) 0.44985(9)
H8 H 0.642(4) 0.3491(16) 0.4477(11)
C12 C 0.5368(3) 0.47843(13) 0.51367(10)
C13 C 0.7213(3) 0.46364(12) 0.57591(9)
C14 C 0.9016(4) 0.37304(14) 0.57067(10)
H9 H 0.798(4) 0.3058(15) 0.5670(11)
H10 H 0.991(4) 0.3695(14) 0.5174(11)
C15 C 1.0904(3) 0.36497(14) 0.63407(10)
H11 H 1.218(4) 0.3092(15) 0.6295(11)
C16 C 1.0959(3) 0.43084(14) 0.69414(10)
H12 H 1.224(4) 0.4215(14) 0.7355(11)
C17 C 0.9123(3) 0.51741(14) 0.70314(10)
H13 H 1.003(4) 0.5841(15) 0.7128(10)
H14 H 0.818(4) 0.5103(14) 0.7535(11)
C18 C 0.7262(3) 0.53099(12) 0.63806(9)
loop_
_geom_bond_atom_site_label_1
_geom_bond_atom_site_label_2
_geom_bond_distance
_geom_bond_site_symmetry_1
_geom_bond_site_symmetry_2
C1 C2 1.417 1_555 1_555
C2 H1 0.957 1_555 1_555
C3 C2 1.377 1_555 1_555
H2 C3 0.980 1_555 1_555
C4 C3 1.390 1_555 1_555
H3 C4 0.980 1_555 1_555
C5 C4 1.380 1_555 1_555
H4 C5 0.963 1_555 1_555
C6 C1 1.412 1_555 1_555
C7 C6 1.450 1_555 1_555
C8 C7 1.422 1_555 1_555
H5 C8 0.953 1_555 1_555
C9 C8 1.386 1_555 1_555
H6 C9 0.989 1_555 1_555
C10 C9 1.383 1_555 1_555
H7 C10 0.973 1_555 1_555
C11 C10 1.386 1_555 1_555
H8 C11 0.957 1_555 1_555
C12 C7 1.406 1_555 1_555
C13 C12 1.449 1_555 1_555
C14 C13 1.492 1_555 1_555
H9 C14 1.015 1_555 1_555
H10 C14 1.026 1_555 1_555
C15 C14 1.471 1_555 1_555
H11 C15 0.977 1_555 1_555
C16 C15 1.329 1_555 1_555
H12 C16 0.982 1_555 1_555
C17 C16 1.469 1_555 1_555
H13 C17 0.986 1_555 1_555
H14 C17 0.998 1_555 1_555
C18 C1 1.453 1_555 1_555
C5 C6 1.414 1_555 1_555
C11 C12 1.418 1_555 1_555
C13 C18 1.368 1_555 1_555
C17 C18 1.489 1_555 1_555
#END
