
#######################################################################
#
#                 Cambridge Crystallographic Data Centre
#                                CCDC
#
#######################################################################
#
# If this CIF has been generated from an entry in the Cambridge
# Structural Database, then it will include bibliographic, chemical,
# crystal, experimental, refinement or atomic coordinate data resulting
# from the CCDC's data processing and validation procedures.
#
#######################################################################

data_CSD_CIF_ZUDBAB
_audit_creation_date 1996-09-23
_audit_creation_method CSD-ConQuest-V1
_database_code_CSD ZUDBAB
_chemical_formula_sum 'C27 H20'
_chemical_formula_moiety
;
C27 H20
;
_journal_coden_Cambridge 188
_journal_year 1996
_journal_page_first 113
_journal_name_full 'J.Chem.Soc.,Perkin Trans.2 '
loop_
_publ_author_name
"Y.Mori"
"K.Maeda"
_chemical_name_systematic
;
(E)-1-(9-Anthryl)-3-(1-naphthyl)propene
;
_chemical_melting_point 405.15
_cell_volume   1879.835
_exptl_crystal_colour 'colorless'
_exptl_crystal_density_diffrn 1.217
_diffrn_ambient_temperature ?
_diffrn_special_details
;
The study was carried out at room temperature,in the range 283-303K

;
#These two values have been output from a single CSD field.
_refine_ls_R_factor_gt 0.087
_refine_ls_wR_factor_gt 0.087
_symmetry_cell_setting monoclinic
_symmetry_space_group_name_H-M 'P 21/n'
_symmetry_Int_Tables_number 14
loop_
_symmetry_equiv_pos_site_id
_symmetry_equiv_pos_as_xyz
1 x,y,z
2 1/2-x,1/2+y,1/2-z
3 -x,-y,-z
4 -1/2+x,-1/2-y,-1/2+z
_cell_length_a 16.360(9)
_cell_length_b 9.047(2)
_cell_length_c 13.165(7)
_cell_angle_alpha 90
_cell_angle_beta 105.26(4)
_cell_angle_gamma 90
_cell_formula_units_Z 4
loop_
_atom_type_symbol
_atom_type_radius_bond
C 0.68
H 0.23
loop_
_atom_site_label
_atom_site_type_symbol
_atom_site_fract_x
_atom_site_fract_y
_atom_site_fract_z
C1 C 1.2065(6) 0.0417(11) 0.5601(10)
C2 C 1.2179(7) 0.0715(12) 0.6633(10)
C3 C 1.1562(7) 0.1520(11) 0.6978(9)
C4 C 1.0826(6) 0.1980(9) 0.6290(8)
C5 C 1.0675(5) 0.1646(8) 0.5197(7)
C6 C 0.9914(5) 0.2090(8) 0.4447(7)
C7 C 0.9810(5) 0.1723(8) 0.3393(7)
C8 C 0.9053(6) 0.2055(9) 0.2598(7)
C9 C 0.8942(6) 0.1689(10) 0.1556(8)
C10 C 0.9597(7) 0.0916(12) 0.1253(8)
C11 C 1.0312(7) 0.0572(10) 0.1981(9)
C12 C 1.0451(6) 0.0941(9) 0.3059(8)
C13 C 1.1180(6) 0.0533(9) 0.3783(8)
C14 C 1.1314(5) 0.0863(9) 0.4839(8)
C15 C 0.9255(5) 0.2838(9) 0.4842(7)
C16 C 0.8952(5) 0.4135(9) 0.4566(7)
C17 C 0.8264(5) 0.4906(10) 0.4959(7)
C18 C 0.7956(6) 0.4034(9) 0.5760(8)
C19 C 0.7196(6) 0.3325(10) 0.5468(8)
C20 C 0.6891(7) 0.2487(12) 0.6188(11)
C21 C 0.7335(7) 0.2382(11) 0.7199(10)
C22 C 0.8117(6) 0.3087(10) 0.7549(9)
C23 C 0.8615(9) 0.2980(12) 0.8606(10)
C24 C 0.9358(10) 0.3669(14) 0.8925(10)
C25 C 0.9674(7) 0.4516(13) 0.8227(10)
C26 C 0.9234(6) 0.4633(10) 0.7200(8)
C27 C 0.8442(6) 0.3939(9) 0.6813(8)
H1 H 1.253(1) -0.008(1) 0.537(1)
H2 H 1.270(1) 0.034(1) 0.715(1)
H3 H 1.166(1) 0.177(1) 0.774(1)
H4 H 1.039(1) 0.253(1) 0.654(1)
H5 H 0.858(1) 0.257(1) 0.280(1)
H6 H 0.841(1) 0.195(1) 0.102(1)
H7 H 0.952(1) 0.065(1) 0.050(1)
H8 H 1.076(1) 0.002(1) 0.175(1)
H9 H 1.162(1) -0.003(1) 0.354(1)
H10 H 0.910(4) 0.223(8) 0.549(6)
H11 H 0.915(4) 0.483(9) 0.402(6)
H12 H 0.777(1) 0.507(1) 0.434(1)
H13 H 0.849(1) 0.588(1) 0.527(1)
H14 H 0.684(1) 0.341(1) 0.472(1)
H15 H 0.634(1) 0.196(1) 0.595(1)
H16 H 0.711(1) 0.179(1) 0.770(1)
H17 H 0.838(1) 0.239(1) 0.911(1)
H18 H 0.969(1) 0.357(1) 0.968(1)
H19 H 1.024(1) 0.501(1) 0.850(1)
H20 H 0.948(1) 0.525(1) 0.672(1)
loop_
_geom_bond_atom_site_label_1
_geom_bond_atom_site_label_2
_geom_bond_distance
_geom_bond_site_symmetry_1
_geom_bond_site_symmetry_2
C1 C2 1.349 1_555 1_555
C2 C3 1.413 1_555 1_555
C3 C4 1.367 1_555 1_555
C4 C5 1.427 1_555 1_555
C5 C6 1.428 1_555 1_555
C6 C7 1.393 1_555 1_555
C7 C8 1.427 1_555 1_555
C8 C9 1.376 1_555 1_555
C9 C10 1.422 1_555 1_555
C10 C11 1.339 1_555 1_555
C11 C12 1.417 1_555 1_555
C12 C7 1.427 1_555 1_555
C13 C12 1.367 1_555 1_555
C14 C1 1.425 1_555 1_555
C15 C6 1.478 1_555 1_555
C16 C15 1.288 1_555 1_555
C17 C16 1.526 1_555 1_555
C18 C17 1.506 1_555 1_555
C19 C18 1.361 1_555 1_555
C20 C19 1.404 1_555 1_555
C21 C20 1.341 1_555 1_555
C22 C21 1.395 1_555 1_555
C23 C22 1.419 1_555 1_555
C24 C23 1.332 1_555 1_555
C25 C24 1.396 1_555 1_555
C26 C25 1.358 1_555 1_555
C27 C18 1.408 1_555 1_555
H1 C1 0.998 1_555 1_555
H2 C2 1.000 1_555 1_555
H3 C3 0.999 1_555 1_555
H4 C4 0.994 1_555 1_555
H5 C8 0.997 1_555 1_555
H6 C9 0.994 1_555 1_555
H7 C10 0.995 1_555 1_555
H8 C11 0.998 1_555 1_555
H9 C13 1.001 1_555 1_555
H10 C15 1.099 1_555 1_555
H11 C16 1.067 1_555 1_555
H12 C17 0.996 1_555 1_555
H13 C17 1.001 1_555 1_555
H14 C19 1.006 1_555 1_555
H15 C20 0.995 1_555 1_555
H16 C21 0.993 1_555 1_555
H17 C23 1.004 1_555 1_555
H18 C24 1.003 1_555 1_555
H19 C25 1.006 1_555 1_555
H20 C26 1.003 1_555 1_555
C5 C14 1.441 1_555 1_555
C13 C14 1.382 1_555 1_555
C22 C27 1.445 1_555 1_555
C26 C27 1.409 1_555 1_555
#END
