
#######################################################################
#
#                 Cambridge Crystallographic Data Centre
#                                CCDC
#
#######################################################################
#
# If this CIF has been generated from an entry in the Cambridge
# Structural Database, then it will include bibliographic, chemical,
# crystal, experimental, refinement or atomic coordinate data resulting
# from the CCDC's data processing and validation procedures.
#
#######################################################################

data_CSD_CIF_ZZZNNM01
_audit_creation_date 2006-05-28
_audit_creation_method CSD-ConQuest-V1
_database_code_CSD ZZZNNM01
_database_code_depnum_ccdc_archive 'CCDC 601380'
_chemical_formula_sum 'C24 H16'
_chemical_formula_moiety
;
C24 H16
;
_journal_coden_Cambridge 1277
_journal_volume 110
_journal_year 2006
_journal_page_first 2299
_journal_name_full 'J.Phys.Chem.A '
loop_
_publ_author_name
"R.C.Santos"
"C.E.S.Bernardes"
"H.P.Diogo"
"M.F.M.Piedade"
"J.N.C.Lopes"
"M.E.M.da Piedade"
_chemical_name_systematic
;
(E)-dinaphthylenecyclobutane
;
_chemical_name_common
;
(E)-heptacyclene; 
6b,6c,12b,12c-tetrahydrocyclobuta(1,2-a:3,4-a')diacenaphthylene
;
_cell_volume    769.029
_exptl_crystal_colour 'colorless'
_exptl_crystal_density_diffrn 1.314
_exptl_special_details
;
polymorph II

;
_exptl_crystal_description 'needle'
_exptl_crystal_preparation 'benzene/methanol'
_diffrn_ambient_temperature 293
#These two values have been output from a single CSD field.
_refine_ls_R_factor_gt 0.0367
_refine_ls_wR_factor_gt 0.0367
loop_
_citation_database_id_CSD
_citation_special_details
ACNPCD "is a stereoisomer of this entry"
_symmetry_cell_setting monoclinic
_symmetry_space_group_name_H-M 'P 21/n'
_symmetry_Int_Tables_number 14
loop_
_symmetry_equiv_pos_site_id
_symmetry_equiv_pos_as_xyz
1 x,y,z
2 1/2-x,1/2+y,1/2-z
3 -x,-y,-z
4 -1/2+x,-1/2-y,-1/2+z
_cell_length_a 7.8270(5)
_cell_length_b 4.8647(5)
_cell_length_c 20.2212(16)
_cell_angle_alpha 90
_cell_angle_beta 92.791(6)
_cell_angle_gamma 90
_cell_formula_units_Z 2
loop_
_atom_type_symbol
_atom_type_radius_bond
C 0.68
H 0.23
loop_
_atom_site_label
_atom_site_type_symbol
_atom_site_fract_x
_atom_site_fract_y
_atom_site_fract_z
C1 C 0.04899(15) 0.0713(3) -0.04761(6)
C2 C -0.13299(14) 0.0400(3) -0.01894(6)
C3 C -0.22331(15) -0.1699(3) -0.06263(6)
C4 C -0.11064(15) -0.2592(2) -0.11051(6)
C5 C 0.04901(16) -0.1232(3) -0.10493(6)
C6 C -0.15124(18) -0.4610(3) -0.15818(7)
C7 C -0.38242(17) -0.2878(3) -0.06217(8)
C8 C -0.0201(2) -0.5272(3) -0.20175(7)
C9 C 0.17171(19) -0.1934(3) -0.14805(7)
C10 C -0.42670(19) -0.4903(3) -0.11020(9)
C11 C -0.3166(2) -0.5760(3) -0.15687(9)
C12 C 0.1342(2) -0.3977(3) -0.19612(8)
H1 H 0.0826(15) 0.263(3) -0.0588(7)
H2 H -0.2001(15) 0.211(3) -0.0134(7)
H3 H -0.4660(18) -0.231(3) -0.0321(8)
H4 H -0.350(2) -0.732(3) -0.1896(10)
H5 H -0.041(2) -0.671(4) -0.232(1)
H6 H -0.542(2) -0.571(3) -0.1103(8)
H7 H 0.288(2) -0.096(4) -0.1454(9)
H8 H 0.227(2) -0.451(3) -0.2258(9)
C1B C -0.04899(15) -0.0713(3) 0.04761(6)
C2B C 0.13299(14) -0.0400(3) 0.01894(6)
C3B C 0.22331(15) 0.1699(3) 0.06263(6)
C4B C 0.11064(15) 0.2592(2) 0.11051(6)
C5B C -0.04901(16) 0.1232(3) 0.10493(6)
C6B C 0.15124(18) 0.4610(3) 0.15818(7)
C7B C 0.38242(17) 0.2878(3) 0.06217(8)
C8B C 0.0201(2) 0.5272(3) 0.20175(7)
C9B C -0.17171(19) 0.1934(3) 0.14805(7)
C10B C 0.42670(19) 0.4903(3) 0.11020(9)
C11B C 0.3166(2) 0.5760(3) 0.15687(9)
C12B C -0.1342(2) 0.3977(3) 0.19612(8)
H1B H -0.0826(15) -0.263(3) 0.0588(7)
H2B H 0.2001(15) -0.211(3) 0.0134(7)
H3B H 0.4660(18) 0.231(3) 0.0321(8)
H4B H 0.350(2) 0.732(3) 0.1896(10)
H5B H 0.041(2) 0.671(4) 0.232(1)
H6B H 0.542(2) 0.571(3) 0.1103(8)
H7B H -0.288(2) 0.096(4) 0.1454(9)
H8B H -0.227(2) 0.451(3) 0.2258(9)
loop_
_geom_bond_atom_site_label_1
_geom_bond_atom_site_label_2
_geom_bond_distance
_geom_bond_site_symmetry_1
_geom_bond_site_symmetry_2
C1 C2 1.571 1_555 1_555
C2 C3 1.504 1_555 1_555
C3 C4 1.410 1_555 1_555
C4 C5 1.414 1_555 1_555
C5 C1 1.496 1_555 1_555
C6 C4 1.401 1_555 1_555
C7 C3 1.372 1_555 1_555
C8 C6 1.422 1_555 1_555
C9 C5 1.371 1_555 1_555
C10 C7 1.415 1_555 1_555
C11 C6 1.411 1_555 1_555
C12 C8 1.362 1_555 1_555
H1 C1 0.998 1_555 1_555
H2 C2 0.993 1_555 1_555
H3 C7 0.955 1_555 1_555
H4 C11 1.032 1_555 1_555
H5 C8 0.938 1_555 1_555
H6 C10 0.984 1_555 1_555
H7 C9 1.025 1_555 1_555
H8 C12 0.999 1_555 1_555
C1B C2 1.565 1_555 1_555
C2B C1 1.565 1_555 1_555
C3B C2B 1.504 1_555 1_555
C4B C3B 1.410 1_555 1_555
C5B C1B 1.496 1_555 1_555
C6B C4B 1.401 1_555 1_555
C7B C3B 1.372 1_555 1_555
C8B C6B 1.422 1_555 1_555
C9B C5B 1.371 1_555 1_555
C10B C7B 1.415 1_555 1_555
C11B C6B 1.411 1_555 1_555
C12B C8B 1.362 1_555 1_555
H1B C1B 0.998 1_555 1_555
H2B C2B 0.993 1_555 1_555
H3B C7B 0.955 1_555 1_555
H4B C11B 1.032 1_555 1_555
H5B C8B 0.938 1_555 1_555
H6B C10B 0.984 1_555 1_555
H7B C9B 1.025 1_555 1_555
H8B C12B 0.999 1_555 1_555
C9 C12 1.411 1_555 1_555
C10 C11 1.373 1_555 1_555
C1B C2B 1.571 1_555 1_555
C4B C5B 1.414 1_555 1_555
C9B C12B 1.411 1_555 1_555
C10B C11B 1.373 1_555 1_555
#END
