
#######################################################################
#
#                 Cambridge Crystallographic Data Centre
#                                CCDC
#
#######################################################################
#
# If this CIF has been generated from an entry in the Cambridge
# Structural Database, then it will include bibliographic, chemical,
# crystal, experimental, refinement or atomic coordinate data resulting
# from the CCDC's data processing and validation procedures.
#
#######################################################################

data_CSD_CIF_ZZZOYC01
_audit_creation_date 1986-03-24
_audit_creation_method CSD-ConQuest-V1
_database_code_CSD ZZZOYC01
_chemical_formula_sum 'C22 H14'
_chemical_formula_moiety
;
C22 H14
;
_journal_coden_Cambridge 591
_journal_volume 41
_journal_year 1985
_journal_page_first 907
_journal_name_full 'Acta Crystallogr.,Sect.C:Cryst.Struct.Commun. '
loop_
_publ_author_name
"A.De"
"R.Ghosh"
"S.Roychowdhury"
"P.Roychowdhury"
_chemical_name_systematic
;
Picene
;
_cell_volume    705.270
_exptl_crystal_density_diffrn 1.311
_exptl_special_details
;
monoclinic polymorph

;
_diffrn_ambient_temperature ?
_diffrn_special_details
;
The study was carried out at room temperature,in the range 283-303K

;
#These two values have been output from a single CSD field.
_refine_ls_R_factor_gt 0.037
_refine_ls_wR_factor_gt 0.037
_symmetry_cell_setting monoclinic
_symmetry_space_group_name_H-M 'P 21'
_symmetry_Int_Tables_number 4
loop_
_symmetry_equiv_pos_site_id
_symmetry_equiv_pos_as_xyz
1 x,y,z
2 -x,1/2+y,-z
_cell_length_a 8.480(2)
_cell_length_b 6.154(2)
_cell_length_c 13.515(3)
_cell_angle_alpha 90
_cell_angle_beta 90.46(1)
_cell_angle_gamma 90
_cell_formula_units_Z 2
loop_
_atom_type_symbol
_atom_type_radius_bond
C 0.68
H 0.23
loop_
_atom_site_label
_atom_site_type_symbol
_atom_site_fract_x
_atom_site_fract_y
_atom_site_fract_z
C1 C 0.6308(6) 0.2155(11) 0.3028(4)
C2 C 0.5434(7) 0.0449(14) 0.2607(4)
C3 C 0.5065(8) 0.0458(15) 0.1589(5)
C4 C 0.5598(7) 0.20700 0.0993(4)
C5 C 0.6449(7) 0.3808(13) 0.1336(4)
C6 C 0.6770(6) 0.3848(12) 0.2370(4)
C7 C 0.7645(7) 0.5541(13) 0.2787(4)
C8 C 0.8023(7) 0.5686(13) 0.3771(4)
C9 C 0.7633(6) 0.3992(11) 0.4439(4)
C10 C 0.6767(6) 0.2256(11) 0.4069(4)
C11 C 0.6269(6) 0.0540(13) 0.4713(4)
C12 C 0.6705(7) 0.0510(14) 0.5719(4)
C13 C 0.7599(7) 0.2316(12) 0.6073(4)
C14 C 0.8062(6) 0.4012(10) 0.5464(4)
C15 C 0.8942(6) 0.5739(12) 0.5864(4)
C16 C 0.9380(7) 0.5804(13) 0.6838(4)
C17 C 0.8987(7) 0.4088(12) 0.7500(4)
C18 C 0.8090(7) 0.2358(12) 0.7125(4)
C19 C 0.7686(7) 0.0728(14) 0.7781(4)
C20 C 0.8190(7) 0.0829(15) 0.8776(4)
C21 C 0.9074(8) 0.2556(14) 0.9106(4)
C22 C 0.9491(7) 0.4218(12) 0.8492(4)
H1 H 0.50510 -0.08740 0.30660
H2 H 0.43440 -0.08380 0.12740
H3 H 0.53400 0.19830 0.02170
H4 H 0.68570 0.50550 0.08400
H5 H 0.80610 0.68350 0.23030
H6 H 0.86280 0.71250 0.40420
H7 H 0.55470 -0.07520 0.44220
H8 H 0.63690 -0.08210 0.62030
H9 H 0.92910 0.70450 0.53840
H10 H 1.00560 0.71770 0.71070
H11 H 0.69580 -0.06110 0.75350
H12 H 0.78910 -0.04730 0.92740
H13 H 0.94360 0.26080 0.98700
H14 H 1.01800 0.55780 0.87590
loop_
_geom_bond_atom_site_label_1
_geom_bond_atom_site_label_2
_geom_bond_distance
_geom_bond_site_symmetry_1
_geom_bond_site_symmetry_2
C1 C2 1.403 1_555 1_555
C2 C3 1.409 1_555 1_555
C3 C4 1.358 1_555 1_555
C4 C5 1.369 1_555 1_555
C5 C6 1.422 1_555 1_555
C6 C1 1.427 1_555 1_555
C7 C6 1.395 1_555 1_555
C8 C7 1.368 1_555 1_555
C9 C8 1.420 1_555 1_555
C10 C1 1.458 1_555 1_555
C11 C10 1.434 1_555 1_555
C12 C11 1.406 1_555 1_555
C13 C12 1.426 1_555 1_555
C14 C9 1.429 1_555 1_555
C15 C14 1.404 1_555 1_555
C16 C15 1.365 1_555 1_555
C17 C16 1.425 1_555 1_555
C18 C13 1.479 1_555 1_555
C19 C18 1.384 1_555 1_555
C20 C19 1.409 1_555 1_555
C21 C20 1.373 1_555 1_555
C22 C17 1.406 1_555 1_555
H1 C2 1.075 1_555 1_555
H2 C3 1.089 1_555 1_555
H3 C4 1.071 1_555 1_555
H4 C5 1.078 1_555 1_555
H5 C7 1.091 1_555 1_555
H6 C8 1.086 1_555 1_555
H7 C11 1.076 1_555 1_555
H8 C12 1.088 1_555 1_555
H9 C15 1.076 1_555 1_555
H10 C16 1.082 1_555 1_555
H11 C19 1.080 1_555 1_555
H12 C20 1.078 1_555 1_555
H13 C21 1.075 1_555 1_555
H14 C22 1.081 1_555 1_555
C9 C10 1.387 1_555 1_555
C13 C14 1.388 1_555 1_555
C17 C18 1.401 1_555 1_555
C21 C22 1.365 1_555 1_555
#END
