
#######################################################################
#
#                 Cambridge Crystallographic Data Centre
#                                CCDC
#
#######################################################################
#
# If this CIF has been generated from an entry in the Cambridge
# Structural Database, then it will include bibliographic, chemical,
# crystal, experimental, refinement or atomic coordinate data resulting
# from the CCDC's data processing and validation procedures.
#
#######################################################################

data_CSD_CIF_AKUSIK
_audit_creation_date 2016-04-18
_audit_creation_method CSD-ConQuest-V1
_database_code_CSD AKUSIK
_database_code_depnum_ccdc_archive 'CCDC 1474867'
_chemical_formula_sum 'C36 H18'
_chemical_formula_moiety
;
C36 H18
;
_journal_coden_Cambridge 1336
_journal_volume 18
_journal_year 2016
_journal_page_first 1868
_journal_name_full 'Org.Lett. '
loop_
_publ_author_name
"Ya-Chu Hsieh"
"Tsun-Cheng Wu"
"Jen-Yi Li"
"Yi-Ting Chen"
"Ming-Yu Kuo"
"Pi-Tai Chou"
"Yao-Ting Wu"
_chemical_name_systematic
;
11b,18b-dihydrobenzo[a]benzo[5,6]acenaphtho[1,2-l]benzo[fg]aceanthrylene
;
_cell_volume   2120.533
_exptl_crystal_colour 'black'
_exptl_crystal_density_diffrn 1.411
_exptl_crystal_description 'Tabular'
_diffrn_ambient_temperature 296
#These two values have been output from a single CSD field.
_refine_ls_R_factor_gt 0.048
_refine_ls_wR_factor_gt 0.048
_symmetry_cell_setting monoclinic
_symmetry_space_group_name_H-M 'P 21/c'
_symmetry_Int_Tables_number 14
loop_
_symmetry_equiv_pos_site_id
_symmetry_equiv_pos_as_xyz
1 x,y,z
2 -x,1/2+y,1/2-z
3 -x,-y,-z
4 x,-1/2-y,-1/2+z
_cell_length_a 12.7866(5)
_cell_length_b 3.9237(1)
_cell_length_c 42.4380(15)
_cell_angle_alpha 90
_cell_angle_beta 95.156(3)
_cell_angle_gamma 90
_cell_formula_units_Z 4
loop_
_atom_type_symbol
_atom_type_radius_bond
C 0.68
H 0.23
loop_
_atom_site_label
_atom_site_type_symbol
_atom_site_fract_x
_atom_site_fract_y
_atom_site_fract_z
C1 C 0.26915(14) 0.9981(4) 0.13975(4)
C2 C 0.22320(16) 0.9073(4) 0.16681(4)
C3 C 0.25863(18) 0.8518(5) 0.20105(4)
C4 C 0.3543(2) 0.8629(5) 0.21879(4)
H1 H 0.41400 0.93200 0.20950
C5 C 0.3621(2) 0.7707(6) 0.25069(5)
H2 H 0.42700 0.77990 0.26250
C6 C 0.2747(3) 0.6660(6) 0.26500(5)
H3 H 0.28080 0.60900 0.28640
C7 C 0.1789(3) 0.6462(6) 0.24766(5)
H4 H 0.12030 0.57170 0.25720
C8 C 0.1698(2) 0.7375(5) 0.21595(5)
C9 C 0.0787(2) 0.7235(5) 0.19272(5)
C10 C -0.0289(2) 0.6515(6) 0.19395(6)
H5 H -0.05350 0.57990 0.21280
C11 C -0.0968(2) 0.6870(6) 0.16742(7)
H6 H -0.16780 0.64360 0.16870
C12 C -0.06221(18) 0.7885(5) 0.13792(6)
C13 C -0.12840(18) 0.8513(6) 0.11016(7)
H7 H -0.20030 0.81540 0.11000
C14 C -0.08721(17) 0.9648(6) 0.08351(6)
H8 H -0.13230 1.01980 0.06580
C15 C 0.02088(16) 1.0006(5) 0.08209(5)
H9 H 0.04640 1.07620 0.06350
C16 C 0.09063(15) 0.9251(5) 0.10801(4)
C17 C 0.20628(14) 0.9380(4) 0.10872(4)
C18 C 0.26111(14) 0.8749(4) 0.08274(4)
C19 C 0.23697(15) 0.7382(4) 0.04992(4)
C20 C 0.14828(17) 0.6062(5) 0.03331(4)
H10 H 0.08500 0.60040 0.04250
C21 C 0.15364(19) 0.4815(6) 0.00275(5)
H11 H 0.09360 0.39210 -0.00820
C22 C 0.24539(19) 0.4881(6) -0.01146(5)
H12 H 0.24690 0.40840 -0.03210
C23 C 0.33547(17) 0.6121(5) 0.00463(4)
H13 H 0.39820 0.61360 -0.00490
C24 C 0.33215(15) 0.7349(5) 0.03515(4)
C25 C 0.41618(15) 0.8698(4) 0.05725(4)
C26 C 0.52235(16) 0.9485(5) 0.05509(5)
H14 H 0.55380 0.89990 0.03670
C27 C 0.57937(16) 1.0973(5) 0.08025(5)
H15 H 0.64920 1.15410 0.07840
C28 C 0.53492(15) 1.1675(5) 0.10904(4)
C29 C 0.58827(16) 1.3306(5) 0.13538(5)
H16 H 0.65870 1.38860 0.13500
C30 C 0.53679(17) 1.4034(5) 0.16138(5)
H17 H 0.57200 1.52120 0.17810
C31 C 0.43198(16) 1.3049(5) 0.16347(4)
H18 H 0.39900 1.36070 0.18140
C32 C 0.37729(14) 1.1268(4) 0.13927(4)
C33 C 0.42856(14) 1.0748(4) 0.11150(4)
C34 C 0.37203(14) 0.9361(4) 0.08517(4)
C35 C 0.04723(16) 0.8381(5) 0.13640(5)
C36 C 0.11408(17) 0.8142(4) 0.16400(5)
loop_
_geom_bond_atom_site_label_1
_geom_bond_atom_site_label_2
_geom_bond_distance
_geom_bond_site_symmetry_1
_geom_bond_site_symmetry_2
C1 C2 1.383 1_555 1_555
C2 C3 1.499 1_555 1_555
C3 C4 1.378 1_555 1_555
C4 H1 0.930 1_555 1_555
C5 C4 1.396 1_555 1_555
H2 C5 0.931 1_555 1_555
C6 C5 1.381 1_555 1_555
H3 C6 0.932 1_555 1_555
C7 C6 1.373 1_555 1_555
H4 C7 0.930 1_555 1_555
C8 C3 1.421 1_555 1_555
C9 C8 1.458 1_555 1_555
C10 C9 1.410 1_555 1_555
H5 C10 0.929 1_555 1_555
C11 C10 1.366 1_555 1_555
H6 C11 0.930 1_555 1_555
C12 C11 1.422 1_555 1_555
C13 C12 1.409 1_555 1_555
H7 C13 0.930 1_555 1_555
C14 C13 1.365 1_555 1_555
H8 C14 0.931 1_555 1_555
C15 C14 1.396 1_555 1_555
H9 C15 0.929 1_555 1_555
C16 C15 1.384 1_555 1_555
C17 C1 1.499 1_555 1_555
C18 C17 1.381 1_555 1_555
C19 C18 1.499 1_555 1_555
C20 C19 1.381 1_555 1_555
H10 C20 0.930 1_555 1_555
C21 C20 1.394 1_555 1_555
H11 C21 0.930 1_555 1_555
C22 C21 1.367 1_555 1_555
H12 C22 0.932 1_555 1_555
C23 C22 1.374 1_555 1_555
H13 C23 0.930 1_555 1_555
C24 C19 1.418 1_555 1_555
C25 C24 1.461 1_555 1_555
C26 C25 1.403 1_555 1_555
H14 C26 0.929 1_555 1_555
C27 C26 1.368 1_555 1_555
H15 C27 0.930 1_555 1_555
C28 C27 1.420 1_555 1_555
C29 C28 1.410 1_555 1_555
H16 C29 0.930 1_555 1_555
C30 C29 1.365 1_555 1_555
H17 C30 0.929 1_555 1_555
C31 C30 1.405 1_555 1_555
H18 C31 0.929 1_555 1_555
C32 C1 1.474 1_555 1_555
C33 C28 1.421 1_555 1_555
C34 C18 1.433 1_555 1_555
C35 C12 1.420 1_555 1_555
C36 C2 1.437 1_555 1_555
C7 C8 1.387 1_555 1_555
C9 C36 1.384 1_555 1_555
C16 C17 1.477 1_555 1_555
C16 C35 1.413 1_555 1_555
C23 C24 1.386 1_555 1_555
C25 C34 1.382 1_555 1_555
C31 C32 1.379 1_555 1_555
C32 C33 1.414 1_555 1_555
C33 C34 1.386 1_555 1_555
C35 C36 1.390 1_555 1_555
#END
