
#######################################################################
#
#                 Cambridge Crystallographic Data Centre
#                                CCDC
#
#######################################################################
#
# If this CIF has been generated from an entry in the Cambridge
# Structural Database, then it will include bibliographic, chemical,
# crystal, experimental, refinement or atomic coordinate data resulting
# from the CCDC's data processing and validation procedures.
#
#######################################################################

data_CSD_CIF_ANTCEN23
_audit_creation_date 2017-05-12
_audit_creation_method CSD-ConQuest-V1
_database_code_CSD ANTCEN23
_database_code_depnum_ccdc_archive 'CCDC 1432438'
_chemical_formula_sum 'C14 H10'
_chemical_formula_moiety
;
C14 H10
;
_journal_coden_Cambridge 7
_journal_volume 90
_journal_year 2017
_journal_page_first 667
_journal_name_full 'Bull.Chem.Soc.Jpn. '
loop_
_publ_author_name
"A.Matsumoto"
"M.Suzuki"
"H.Hayashi"
"D.Kuzuhara"
"J.Yuasa"
"T.Kawai"
"N.Aratani"
"H.Yamada"
_chemical_name_systematic
;
anthracene
;
_cell_volume    455.256
_exptl_crystal_colour 'colorless'
_exptl_crystal_density_diffrn 1.3
_exptl_special_details
;
monoclinic polymorph

;
_exptl_crystal_description 'prism'
_diffrn_ambient_temperature 90
#These two values have been output from a single CSD field.
_refine_ls_R_factor_gt 0.0377
_refine_ls_wR_factor_gt 0.0377
_symmetry_cell_setting monoclinic
_symmetry_space_group_name_H-M 'P 21/c'
_symmetry_Int_Tables_number 14
loop_
_symmetry_equiv_pos_site_id
_symmetry_equiv_pos_as_xyz
1 x,y,z
2 -x,1/2+y,1/2-z
3 -x,-y,-z
4 x,-1/2-y,-1/2+z
_cell_length_a 9.2949(18)
_cell_length_b 5.9651(11)
_cell_length_c 8.4141(15)
_cell_angle_alpha 90
_cell_angle_beta 102.616(3)
_cell_angle_gamma 90
_cell_formula_units_Z 2
loop_
_atom_type_symbol
_atom_type_radius_bond
C 0.68
H 0.23
loop_
_atom_site_label
_atom_site_type_symbol
_atom_site_fract_x
_atom_site_fract_y
_atom_site_fract_z
C1 C 0.81750(14) 0.1866(2) 0.32247(14)
H1 H 0.87770 0.27480 0.40500
C2 C 0.68345(13) 0.2646(2) 0.24380(14)
H2 H 0.65160 0.40800 0.27120
C3 C 0.58962(12) 0.1346(2) 0.12058(14)
C4 C 0.45116(13) 0.2115(2) 0.03849(14)
H3 H 0.41820 0.35490 0.06450
C5 C 0.36018(13) 0.0818(2) -0.08103(14)
C6 C 0.21743(13) 0.1566(2) -0.16508(14)
H4 H 0.18200 0.29830 -0.13910
C7 C 0.13177(14) 0.0267(2) -0.28190(15)
H5 H 0.03740 0.07890 -0.33670
C1B C 0.18250(14) -0.1866(2) -0.32247(14)
H1B H 0.12230 -0.27480 -0.40500
C2B C 0.31655(13) -0.2646(2) -0.24380(14)
H2B H 0.34840 -0.40800 -0.27120
C3B C 0.41038(12) -0.1346(2) -0.12058(14)
C4B C 0.54884(13) -0.2115(2) -0.03849(14)
H3B H 0.58180 -0.35490 -0.06450
C5B C 0.63982(13) -0.0818(2) 0.08103(14)
C6B C 0.78257(13) -0.1566(2) 0.16508(14)
H4B H 0.81800 -0.29830 0.13910
C7B C 0.86823(14) -0.0267(2) 0.28190(15)
H5B H 0.96260 -0.07890 0.33670
loop_
_geom_bond_atom_site_label_1
_geom_bond_atom_site_label_2
_geom_bond_distance
_geom_bond_site_symmetry_1
_geom_bond_site_symmetry_2
C1 H1 0.950 1_555 1_555
C2 C1 1.359 1_555 1_555
H2 C2 0.950 1_555 1_555
C3 C2 1.429 1_555 1_555
C4 C3 1.398 1_555 1_555
H3 C4 0.950 1_555 1_555
C5 C4 1.398 1_555 1_555
C6 C5 1.432 1_555 1_555
H4 C6 0.950 1_555 1_555
C7 C6 1.363 1_555 1_555
H5 C7 0.950 1_555 1_555
C1B C7 1.424 1_555 1_555
H1B C1B 0.950 1_555 1_555
C2B C1B 1.359 1_555 1_555
H2B C2B 0.950 1_555 1_555
C3B C5 1.436 1_555 1_555
C4B C3B 1.398 1_555 1_555
H3B C4B 0.950 1_555 1_555
C5B C3 1.436 1_555 1_555
C6B C5B 1.432 1_555 1_555
H4B C6B 0.950 1_555 1_555
C7B C1 1.424 1_555 1_555
H5B C7B 0.950 1_555 1_555
C2B C3B 1.429 1_555 1_555
C4B C5B 1.398 1_555 1_555
C6B C7B 1.363 1_555 1_555
#END
