
#######################################################################
#
#                 Cambridge Crystallographic Data Centre
#                                CCDC
#
#######################################################################
#
# If this CIF has been generated from an entry in the Cambridge
# Structural Database, then it will include bibliographic, chemical,
# crystal, experimental, refinement or atomic coordinate data resulting
# from the CCDC's data processing and validation procedures.
#
#######################################################################

data_CSD_CIF_BATKIS
_audit_creation_date 2012-08-03
_audit_creation_method CSD-ConQuest-V1
_database_code_CSD BATKIS
_database_code_depnum_ccdc_archive 'CCDC 850477'
_chemical_formula_sum 'C24 H18'
_chemical_formula_moiety
;
C24 H18
;
_journal_coden_Cambridge 7
_journal_volume 85
_journal_year 2012
_journal_page_first 450
_journal_name_full 'Bull.Chem.Soc.Jpn. '
loop_
_publ_author_name
"S.Higashibayashi"
"T.Tsuruoka"
"Y.Soujanya"
"U.Purushotham"
"G.N.Sastry"
"S.Seki"
"T.Ishikawa"
"S.Toyota"
"H.Sakurai"
_chemical_name_systematic
;
2,5,8-Trimethyl-4,7-dihydro-1H-tricyclopenta[def,jkl,pqr]triphenylene
;
_cell_volume   1552.940
_exptl_crystal_colour 'brown'
_exptl_crystal_density_diffrn 1.31
_exptl_crystal_description 'block'
_diffrn_ambient_temperature 173
#These two values have been output from a single CSD field.
_refine_ls_R_factor_gt 0.057
_refine_ls_wR_factor_gt 0.057
_symmetry_cell_setting monoclinic
_symmetry_space_group_name_H-M 'P 21/a'
_symmetry_Int_Tables_number 14
loop_
_symmetry_equiv_pos_site_id
_symmetry_equiv_pos_as_xyz
1 x,y,z
2 1/2-x,1/2+y,-z
3 -x,-y,-z
4 -1/2+x,-1/2-y,z
_cell_length_a 7.905(6)
_cell_length_b 17.708(12)
_cell_length_c 11.434(9)
_cell_angle_alpha 90
_cell_angle_beta 104.010(9)
_cell_angle_gamma 90
_cell_formula_units_Z 4
loop_
_atom_type_symbol
_atom_type_radius_bond
C 0.68
H 0.23
loop_
_atom_site_label
_atom_site_type_symbol
_atom_site_fract_x
_atom_site_fract_y
_atom_site_fract_z
C1 C 0.3154(3) 0.37764(11) 0.53576(17)
C2 C 0.3148(3) 0.11967(10) 0.50753(17)
C3 C 0.2535(2) 0.17961(10) 0.56378(17)
C4 C 0.4008(3) 0.43474(11) 0.61250(18)
C5 C 0.2347(3) 0.25132(10) 0.51411(16)
C6 C 0.3339(3) 0.13307(11) 0.39128(17)
C7 C 0.3901(3) 0.06078(11) 0.60652(19)
C8 C 0.2580(2) 0.31631(10) 0.59105(16)
C9 C 0.3018(2) 0.30731(11) 0.71501(16)
C10 C 0.3076(3) 0.35412(11) 0.40350(17)
C11 C 0.2738(3) 0.26788(10) 0.40482(16)
C12 C 0.2994(3) 0.17075(11) 0.69225(17)
C13 C 0.4396(3) 0.23348(12) 0.87888(17)
C14 C 0.3134(3) 0.20680(11) 0.33817(16)
C15 C 0.4458(3) 0.42642(11) 0.74050(18)
C16 C 0.4042(3) 0.35939(11) 0.79214(17)
C17 C 0.5178(3) 0.16432(12) 0.91785(18)
C18 C 0.3922(3) 0.10426(10) 0.72393(18)
C19 C 0.3216(3) 0.23308(11) 0.76638(17)
C20 C 0.4968(3) 0.09942(12) 0.84202(17)
C21 C 0.6017(3) 0.02906(12) 0.8823(2)
C22 C 0.4834(3) 0.31736(12) 0.91214(17)
C23 C 0.5522(3) 0.48744(13) 0.8172(2)
C24 C 0.3535(3) 0.21912(12) 0.21672(17)
H1 H 0.443(3) 0.4794(11) 0.5811(17)
H2 H 0.419(3) 0.3681(11) 0.3792(17)
H3 H 0.218(3) 0.3838(13) 0.336(2)
H4 H 0.377(3) 0.0933(11) 0.3457(18)
H5 H 0.510(3) 0.0462(12) 0.6026(19)
H6 H 0.320(3) 0.0144(12) 0.5982(18)
H7 H 0.610(3) 0.1608(11) 0.995(2)
H8 H 0.613(3) 0.3280(12) 0.9408(19)
H9 H 0.433(3) 0.3358(12) 0.988(2)
H10 H 0.66430 0.01470 0.82140
H11 H 0.52340 -0.01200 0.89250
H12 H 0.68570 0.03870 0.95910
H13 H 0.63310 0.50960 0.77410
H14 H 0.61820 0.46550 0.89330
H15 H 0.47410 0.52680 0.83410
H16 H 0.24630 0.23290 0.15730
H17 H 0.40120 0.17260 0.19120
H18 H 0.43910 0.25990 0.22300
loop_
_geom_bond_atom_site_label_1
_geom_bond_atom_site_label_2
_geom_bond_distance
_geom_bond_site_symmetry_1
_geom_bond_site_symmetry_2
C1 C4 1.400 1_555 1_555
C2 C3 1.388 1_555 1_555
C3 C5 1.384 1_555 1_555
C4 C15 1.428 1_555 1_555
C5 C8 1.433 1_555 1_555
C6 C2 1.394 1_555 1_555
C7 C2 1.548 1_555 1_555
C8 C1 1.387 1_555 1_555
C9 C8 1.384 1_555 1_555
C10 C1 1.555 1_555 1_555
C11 C5 1.389 1_555 1_555
C12 C3 1.434 1_555 1_555
C13 C17 1.395 1_555 1_555
C14 C6 1.432 1_555 1_555
C15 C16 1.400 1_555 1_555
C16 C9 1.392 1_555 1_555
C17 C20 1.425 1_555 1_555
C18 C7 1.544 1_555 1_555
C19 C9 1.433 1_555 1_555
C20 C18 1.405 1_555 1_555
C21 C20 1.506 1_555 1_555
C22 C13 1.551 1_555 1_555
C23 C15 1.512 1_555 1_555
C24 C14 1.513 1_555 1_555
H1 C4 0.961 1_555 1_555
H2 C10 1.016 1_555 1_555
H3 C10 1.053 1_555 1_555
H4 C6 0.985 1_555 1_555
H5 C7 0.994 1_555 1_555
H6 C7 0.982 1_555 1_555
H7 C17 1.001 1_555 1_555
H8 C22 1.015 1_555 1_555
H9 C22 1.089 1_555 1_555
H10 C21 0.980 1_555 1_555
H11 C21 0.980 1_555 1_555
H12 C21 0.979 1_555 1_555
H13 C23 0.979 1_555 1_555
H14 C23 0.980 1_555 1_555
H15 C23 0.981 1_555 1_555
H16 C24 0.980 1_555 1_555
H17 C24 0.979 1_555 1_555
H18 C24 0.980 1_555 1_555
C10 C11 1.551 1_555 1_555
C11 C14 1.401 1_555 1_555
C12 C18 1.388 1_555 1_555
C12 C19 1.377 1_555 1_555
C13 C19 1.394 1_555 1_555
C16 C22 1.553 1_555 1_555
#END
