
#######################################################################
#
#                 Cambridge Crystallographic Data Centre
#                                CCDC
#
#######################################################################
#
# If this CIF has been generated from an entry in the Cambridge
# Structural Database, then it will include bibliographic, chemical,
# crystal, experimental, refinement or atomic coordinate data resulting
# from the CCDC's data processing and validation procedures.
#
#######################################################################

data_CSD_CIF_BNPYRE10
_audit_creation_date 1976-05-03
_audit_creation_method CSD-ConQuest-V1
_database_code_CSD BNPYRE10
_database_code_depnum_ccdc_archive 'CCDC 1112703'
_chemical_formula_sum 'C20 H12'
_chemical_formula_moiety
;
C20 H12
;
_journal_coeditor_code "IUCr A13108"
_journal_coden_Cambridge 107
_journal_volume 32
_journal_year 1976
_journal_page_first 328
_journal_name_full 'Acta Crystallogr.,Sect.B:Struct.Crystallogr.Cryst.Chem. '
loop_
_publ_author_name
"J.Iball"
"S.N.Scrimgeour"
"D.W.Young"
_chemical_name_systematic
;
Benzo(a)pyrene
;
_chemical_name_common
;
3,4-Benzopyrene
;
_cell_volume   1238.711
_exptl_crystal_density_diffrn 1.351
_exptl_special_details
;
monoclinic polymorph iii

;
_diffrn_ambient_temperature ?
_diffrn_special_details
;
The study was carried out at room temperature,in the range 283-303K

;
#These two values have been output from a single CSD field.
_refine_ls_R_factor_gt 0.069
_refine_ls_wR_factor_gt 0.069
_symmetry_cell_setting monoclinic
_symmetry_space_group_name_H-M 'P 21/c'
_symmetry_Int_Tables_number 14
loop_
_symmetry_equiv_pos_site_id
_symmetry_equiv_pos_as_xyz
1 x,y,z
2 -x,1/2+y,1/2-z
3 -x,-y,-z
4 x,-1/2-y,-1/2+z
_cell_length_a 4.535(5)
_cell_length_b 20.40(2)
_cell_length_c 13.49(1)
_cell_angle_alpha 90
_cell_angle_beta 97.0
_cell_angle_gamma 90
_cell_formula_units_Z 4
loop_
_atom_type_symbol
_atom_type_radius_bond
C 0.68
H 0.23
loop_
_atom_site_label
_atom_site_type_symbol
_atom_site_fract_x
_atom_site_fract_y
_atom_site_fract_z
C1 C 0.11720 -0.07470 0.09620
C2 C 0.33570 -0.10630 0.36900
C3 C 0.53590 -0.05750 0.39360
C4 C 0.60780 -0.01130 0.32170
C5 C 0.81560 0.03980 0.34960
C6 C 0.88760 0.08530 0.28140
C7 C 0.74780 0.08170 0.18340
C8 C 0.54600 0.03370 0.15480
C9 C 0.46860 -0.01480 0.22250
C10 C 0.26030 -0.06660 0.19530
C11 C 0.19300 -0.11120 0.26760
C12 C -0.08230 -0.12310 0.07190
C13 C -0.01570 -0.16240 0.24440
C14 C -0.15970 -0.16910 0.14560
C15 C -0.36870 -0.21980 0.12230
C16 C -0.43380 -0.26220 0.19590
C17 C -0.29390 -0.25770 0.29220
C18 C -0.08570 -0.20780 0.31720
C19 C 0.06190 -0.20130 0.41690
C20 C 0.26030 -0.15350 0.44190
H1 H 0.18900 -0.04300 0.04300
H2 H 0.64900 -0.05700 0.46400
H3 H 0.91300 0.03900 0.42500
H4 H 1.02900 0.12100 0.30300
H5 H 0.83100 0.11500 0.14000
H6 H 0.46800 0.03300 0.07900
H7 H -0.17600 -0.12900 0.00300
H8 H -0.46200 -0.22500 0.04600
H9 H -0.59900 -0.29600 0.18800
H10 H -0.36600 -0.28800 0.34900
H11 H -0.03300 -0.23100 0.46900
H12 H 0.37300 -0.14800 0.50900
loop_
_geom_bond_atom_site_label_1
_geom_bond_atom_site_label_2
_geom_bond_distance
_geom_bond_site_symmetry_1
_geom_bond_site_symmetry_2
C1 C10 1.423 1_555 1_555
C2 C3 1.361 1_555 1_555
C3 C4 1.419 1_555 1_555
C4 C5 1.425 1_555 1_555
C5 C6 1.374 1_555 1_555
C6 C7 1.397 1_555 1_555
C7 C8 1.364 1_555 1_555
C8 C9 1.419 1_555 1_555
C9 C4 1.410 1_555 1_555
C10 C9 1.435 1_555 1_555
C11 C2 1.444 1_555 1_555
C12 C1 1.352 1_555 1_555
C13 C11 1.419 1_555 1_555
C14 C12 1.441 1_555 1_555
C15 C14 1.412 1_555 1_555
C16 C15 1.376 1_555 1_555
C17 C16 1.378 1_555 1_555
C18 C13 1.414 1_555 1_555
C19 C18 1.434 1_555 1_555
C20 C2 1.447 1_555 1_555
H1 C1 1.047 1_555 1_555
H2 C3 1.023 1_555 1_555
H3 C5 1.059 1_555 1_555
H4 C6 0.990 1_555 1_555
H5 C7 1.000 1_555 1_555
H6 C8 1.041 1_555 1_555
H7 C12 0.981 1_555 1_555
H8 C15 1.069 1_555 1_555
H9 C16 1.014 1_555 1_555
H10 C17 1.066 1_555 1_555
H11 C19 1.058 1_555 1_555
H12 C20 0.990 1_555 1_555
C10 C11 1.395 1_555 1_555
C13 C14 1.418 1_555 1_555
C17 C18 1.401 1_555 1_555
C19 C20 1.342 1_555 1_555
#END
