
#######################################################################
#
#                 Cambridge Crystallographic Data Centre
#                                CCDC
#
#######################################################################
#
# If this CIF has been generated from an entry in the Cambridge
# Structural Database, then it will include bibliographic, chemical,
# crystal, experimental, refinement or atomic coordinate data resulting
# from the CCDC's data processing and validation procedures.
#
#######################################################################

data_CSD_CIF_BONJUJ
_audit_creation_date 1983-09-01
_audit_creation_method CSD-ConQuest-V1
_database_code_CSD BONJUJ
_database_code_depnum_ccdc_archive 'CCDC 1113794'
_chemical_formula_sum 'C24 H18'
_chemical_formula_moiety
;
C24 H18
;
_journal_coden_Cambridge 48
_journal_volume 116
_journal_year 1983
_journal_page_first 536
_journal_name_full 'Chem.Ber. '
loop_
_publ_author_name
"H.Irngartinger"
"A.Goldmann"
_chemical_name_systematic
;
(2.0.0)(1,3)Benzeno(1,8)naphthaleno(1,3)benzenophane
;
_cell_volume    809.805
_exptl_crystal_density_diffrn 1.26
_exptl_special_details
;
H6 deleted for suspected coordinate errors

;
_diffrn_ambient_temperature ?
_diffrn_special_details
;
The study was carried out at room temperature,in the range 283-303K

;
#These two values have been output from a single CSD field.
_refine_ls_R_factor_gt 0.054
_refine_ls_wR_factor_gt 0.054
_symmetry_cell_setting triclinic
_symmetry_space_group_name_H-M 'P -1'
_symmetry_Int_Tables_number 2
loop_
_symmetry_equiv_pos_site_id
_symmetry_equiv_pos_as_xyz
1 x,y,z
2 -x,-y,-z
_cell_length_a 7.848(1)
_cell_length_b 10.287(2)
_cell_length_c 11.163(2)
_cell_angle_alpha 99.73(2)
_cell_angle_beta 112.79(1)
_cell_angle_gamma 78.43(1)
_cell_formula_units_Z 2
loop_
_atom_type_symbol
_atom_type_radius_bond
C 0.68
H 0.23
loop_
_atom_site_label
_atom_site_type_symbol
_atom_site_fract_x
_atom_site_fract_y
_atom_site_fract_z
C1 C 0.22580 0.38320 0.27520
C2 C 0.40100 0.30760 0.30680
C3 C 0.42620 0.16830 0.28080
C4 C 0.27650 0.10480 0.22540
C5 C -0.06070 0.10410 0.12820
C6 C -0.23770 0.16740 0.08780
C7 C -0.27100 0.30720 0.10300
C8 C -0.13010 0.38310 0.15960
C9 C 0.06220 0.31890 0.20880
C10 C 0.09240 0.17550 0.18750
C11 C 0.22510 0.52900 0.31760
C12 C 0.14700 0.59140 0.40810
C13 C 0.12740 0.72880 0.44010
C14 C 0.20880 0.80290 0.38870
C15 C 0.30270 0.74100 0.30800
C16 C 0.30810 0.60570 0.26920
C17 C -0.18680 0.53110 0.16470
C18 C -0.23090 0.60180 0.26820
C19 C -0.24710 0.74030 0.28940
C20 C -0.25260 0.80750 0.18880
C21 C -0.22850 0.73900 0.07890
C22 C -0.18860 0.60160 0.06770
C23 C -0.00190 0.79340 0.51100
C24 C -0.21350 0.80870 0.42380
H1 H 0.51600 0.35400 0.36100
H2 H 0.56500 0.12000 0.31700
H3 H 0.28500 0.01000 0.19700
H4 H -0.03600 0.00600 0.10600
H5 H -0.34400 0.11500 0.03800
H6 H 0.09000 0.53600 0.44400
H7 H 0.20500 0.89900 0.42200
H8 H 0.37600 0.79100 0.28500
H9 H 0.36600 0.56000 0.20400
H10 H -0.22300 0.55200 0.34600
H11 H -0.26400 0.90300 0.20400
H12 H -0.23600 0.78300 0.00400
H13 H -0.15800 0.54700 -0.00500
H14 H -0.27200 0.78000 0.47200
H15 H -0.25200 0.90800 0.42900
H16 H 0.01800 0.74700 0.57700
H17 H 0.02900 0.88500 0.55100
loop_
_geom_bond_atom_site_label_1
_geom_bond_atom_site_label_2
_geom_bond_distance
_geom_bond_site_symmetry_1
_geom_bond_site_symmetry_2
C1 C2 1.381 1_555 1_555
C2 C3 1.402 1_555 1_555
C3 C4 1.341 1_555 1_555
C4 C10 1.416 1_555 1_555
C5 C6 1.345 1_555 1_555
C6 C7 1.402 1_555 1_555
C7 C8 1.367 1_555 1_555
C8 C9 1.448 1_555 1_555
C9 C1 1.440 1_555 1_555
C10 C5 1.412 1_555 1_555
C11 C1 1.494 1_555 1_555
C12 C11 1.382 1_555 1_555
C13 C12 1.391 1_555 1_555
C14 C13 1.395 1_555 1_555
C15 C14 1.376 1_555 1_555
C16 C11 1.401 1_555 1_555
C17 C8 1.496 1_555 1_555
C18 C17 1.381 1_555 1_555
C19 C18 1.392 1_555 1_555
C20 C19 1.398 1_555 1_555
C21 C20 1.368 1_555 1_555
C22 C17 1.396 1_555 1_555
C23 C13 1.507 1_555 1_555
C24 C19 1.492 1_555 1_555
H1 C2 1.030 1_555 1_555
H2 C3 1.052 1_555 1_555
H3 C4 0.970 1_555 1_555
H4 C5 0.996 1_555 1_555
H5 C6 1.008 1_555 1_555
H6 C12 1.002 1_555 1_555
H7 C14 0.994 1_555 1_555
H8 C15 0.969 1_555 1_555
H9 C16 1.006 1_555 1_555
H10 C18 1.057 1_555 1_555
H11 C20 0.960 1_555 1_555
H12 C21 0.993 1_555 1_555
H13 C22 0.987 1_555 1_555
H14 C24 0.942 1_555 1_555
H15 C24 1.004 1_555 1_555
H16 C23 0.892 1_555 1_555
H17 C23 1.006 1_555 1_555
C9 C10 1.440 1_555 1_555
C15 C16 1.383 1_555 1_555
C21 C22 1.380 1_555 1_555
C23 C24 1.557 1_555 1_555
#END
