
#######################################################################
#
#                 Cambridge Crystallographic Data Centre
#                                CCDC
#
#######################################################################
#
# If this CIF has been generated from an entry in the Cambridge
# Structural Database, then it will include bibliographic, chemical,
# crystal, experimental, refinement or atomic coordinate data resulting
# from the CCDC's data processing and validation procedures.
#
#######################################################################

data_CSD_CIF_BOXGAW01
_audit_creation_date 1988-09-21
_audit_creation_method CSD-ConQuest-V1
_database_code_CSD BOXGAW01
_database_code_depnum_ccdc_archive 'CCDC 1114591'
_chemical_formula_sum 'C38 H18'
_chemical_formula_moiety
;
C38 H18
;
_journal_coeditor_code "IUCr BU0168"
_journal_coden_Cambridge 622
_journal_volume 44
_journal_year 1988
_journal_page_first 77
_journal_name_full 'Acta Crystallogr.,Sect.B:Struct.Sci. '
loop_
_publ_author_name
"R.E.Marsh"
"F.H.Herbstein"
_chemical_name_systematic
;
Anthra(2,1,9,8-hijkl)benzo(de)naphtho(2,1,8,7-stuv)pentacene
;
_cell_volume   2118.718
_diffrn_ambient_temperature ?
_diffrn_special_details
;
The study was carried out at room temperature,in the range 283-303K

;
#These two values have been output from a single CSD field.
_refine_ls_R_factor_gt 0.069
_refine_ls_wR_factor_gt 0.069
loop_
_citation_database_id_CSD
_citation_special_details
BOXGAW "is reinterpreted by this entry"
_symmetry_cell_setting monoclinic
_symmetry_space_group_name_H-M 'P 21/a'
_symmetry_Int_Tables_number 14
loop_
_symmetry_equiv_pos_site_id
_symmetry_equiv_pos_as_xyz
1 x,y,z
2 1/2-x,1/2+y,-z
3 -x,-y,-z
4 -1/2+x,-1/2-y,z
_cell_length_a 31.276(4)
_cell_length_b 3.7818(4)
_cell_length_c 21.663(3)
_cell_angle_alpha 90
_cell_angle_beta 124.22(1)
_cell_angle_gamma 90
_cell_formula_units_Z 4
loop_
_atom_type_symbol
_atom_type_radius_bond
C 0.68
H 0.23
loop_
_atom_site_label
_atom_site_type_symbol
_atom_site_fract_x
_atom_site_fract_y
_atom_site_fract_z
C1 C -0.0170(1) 0.1449(10) -0.2041(2)
C2 C -0.0355(1) 0.1367(10) -0.1588(2)
C3 C -0.0060(1) 0.2583(11) -0.0858(2)
C4 C 0.0427(1) 0.3930(11) -0.0561(2)
C5 C 0.0641(1) 0.4073(10) -0.0985(2)
C6 C 0.1140(1) 0.5392(10) -0.0705(2)
C7 C 0.1340(1) 0.5550(9) -0.1128(2)
C8 C 0.1836(1) 0.7058(10) -0.0859(2)
C9 C 0.2028(1) 0.7150(9) -0.1280(2)
C10 C 0.1749(1) 0.5740(9) -0.2031(2)
C11 C 0.1953(1) 0.5736(9) -0.2470(2)
C12 C 0.2503(1) 0.6220(9) -0.2162(2)
C13 C 0.2896(1) 0.5404(10) -0.1424(2)
C14 C 0.3411(1) 0.6151(10) -0.1139(2)
C15 C 0.3548(1) 0.7662(10) -0.1584(2)
C16 C 0.3174(1) 0.8204(10) -0.2348(2)
C17 C 0.3310(2) 0.9447(11) -0.2837(2)
C18 C 0.2954(1) 0.9608(11) -0.3582(5)
C19 C 0.2432(1) 0.8558(10) -0.3903(2)
C20 C 0.2067(2) 0.8456(11) -0.4683(2)
C21 C 0.1579(2) 0.7223(11) -0.4987(2)
C22 C 0.1417(1) 0.6095(10) -0.4519(2)
C23 C 0.0908(1) 0.4853(10) -0.4821(2)
C24 C 0.0751(1) 0.392(1) -0.4375(2)
C25 C 0.1087(1) 0.4214(9) -0.3585(2)
C26 C 0.0912(1) 0.3515(9) -0.3103(2)
C27 C 0.0420(1) 0.2070(9) -0.3380(2)
C28 C 0.0232(1) 0.1784(9) -0.2937(2)
C29 C -0.0274(1) 0.035(1) -0.3222(2)
C30 C -0.0463(1) 0.0222(10) -0.2797(2)
C31 C 0.0336(1) 0.2827(9) -0.1739(2)
C32 C 0.0537(1) 0.2983(9) -0.2185(2)
C33 C 0.1035(1) 0.4345(9) -0.1892(2)
C34 C 0.1231(1) 0.4550(9) -0.2347(2)
C35 C 0.1602(1) 0.5325(9) -0.3260(2)
C36 C 0.1767(1) 0.6271(9) -0.3741(2)
C37 C 0.2281(1) 0.7482(9) -0.3431(2)
C38 C 0.2652(1) 0.7342(9) -0.2640(2)
H1 H -0.073(1) 0.04(1) -0.184(2)
H2 H -0.022(1) 0.256(9) -0.058(2)
H3 H 0.064(1) 0.488(10) -0.001(2)
H4 H 0.136(1) 0.629(8) -0.017(2)
H5 H 0.203(1) 0.805(9) -0.038(2)
H6 H 0.237(1) 0.832(8) -0.106(2)
H7 H 0.281(1) 0.425(10) -0.107(2)
H8 H 0.369(1) 0.548(8) -0.061(2)
H9 H 0.394(1) 0.842(9) -0.133(2)
H10 H 0.367(1) 1.007(9) -0.263(2)
H11 H 0.306(1) 1.030(9) -0.395(2)
H12 H 0.218(1) 0.93(1) -0.503(2)
H13 H 0.130(1) 0.706(11) -0.560(2)
H14 H 0.065(1) 0.471(10) -0.541(2)
H15 H 0.040(1) 0.314(10) -0.456(2)
H16 H 0.018(1) 0.116(8) -0.397(2)
H17 H -0.049(1) -0.048(10) -0.380(2)
H18 H -0.080(1) -0.061(9) -0.297(2)
loop_
_geom_bond_atom_site_label_1
_geom_bond_atom_site_label_2
_geom_bond_distance
_geom_bond_site_symmetry_1
_geom_bond_site_symmetry_2
C1 C2 1.392 1_555 1_555
C2 C3 1.387 1_555 1_555
C3 C4 1.375 1_555 1_555
C4 C5 1.409 1_555 1_555
C5 C6 1.410 1_555 1_555
C6 C7 1.371 1_555 1_555
C7 C8 1.433 1_555 1_555
C8 C9 1.345 1_555 1_555
C9 C10 1.448 1_555 1_555
C10 C11 1.412 1_555 1_555
C11 C12 1.465 1_555 1_555
C12 C13 1.397 1_555 1_555
C13 C14 1.392 1_555 1_555
C14 C15 1.380 1_555 1_555
C15 C16 1.404 1_555 1_555
C16 C17 1.425 1_555 1_555
C17 C18 1.352 1_555 1_555
C18 C19 1.425 1_555 1_555
C19 C20 1.411 1_555 1_555
C20 C21 1.360 1_555 1_555
C21 C22 1.430 1_555 1_555
C22 C23 1.418 1_555 1_555
C23 C24 1.354 1_555 1_555
C24 C25 1.422 1_555 1_555
C25 C26 1.450 1_555 1_555
C26 C27 1.410 1_555 1_555
C27 C28 1.383 1_555 1_555
C28 C29 1.443 1_555 1_555
C29 C30 1.346 1_555 1_555
C30 C1 1.432 1_555 1_555
C31 C1 1.428 1_555 1_555
C32 C28 1.422 1_555 1_555
C33 C7 1.443 1_555 1_555
C34 C10 1.431 1_555 1_555
C35 C11 1.430 1_555 1_555
C36 C22 1.403 1_555 1_555
C37 C19 1.406 1_555 1_555
C38 C12 1.419 1_555 1_555
H1 C2 1.043 1_555 1_555
H2 C3 0.976 1_555 1_555
H3 C4 1.050 1_555 1_555
H4 C6 1.017 1_555 1_555
H5 C8 0.937 1_555 1_555
H6 C9 0.997 1_555 1_555
H7 C13 1.041 1_555 1_555
H8 C14 1.007 1_555 1_555
H9 C15 1.063 1_555 1_555
H10 C17 0.978 1_555 1_555
H11 C18 1.054 1_555 1_555
H12 C20 1.044 1_555 1_555
H13 C21 1.107 1_555 1_555
H14 C23 1.060 1_555 1_555
H15 C24 0.979 1_555 1_555
H16 C27 1.112 1_555 1_555
H17 C29 1.082 1_555 1_555
H18 C30 0.952 1_555 1_555
C5 C31 1.431 1_555 1_555
C16 C38 1.418 1_555 1_555
C25 C35 1.411 1_555 1_555
C26 C34 1.412 1_555 1_555
C31 C32 1.420 1_555 1_555
C32 C33 1.408 1_555 1_555
C33 C34 1.426 1_555 1_555
C35 C36 1.444 1_555 1_555
C36 C37 1.425 1_555 1_555
C37 C38 1.431 1_555 1_555
#END
