
#######################################################################
#
#                 Cambridge Crystallographic Data Centre
#                                CCDC
#
#######################################################################
#
# If this CIF has been generated from an entry in the Cambridge
# Structural Database, then it will include bibliographic, chemical,
# crystal, experimental, refinement or atomic coordinate data resulting
# from the CCDC's data processing and validation procedures.
#
#######################################################################

data_CSD_CIF_BOYTAK01
_audit_creation_date 1984-04-14
_audit_creation_method CSD-ConQuest-V1
_database_code_CSD BOYTAK01
_database_code_depnum_ccdc_archive 'CCDC 1114734'
_chemical_formula_sum 'C29 H22'
_chemical_formula_moiety
;
C29 H22
;
_journal_coeditor_code "IUCr A22686"
_journal_coden_Cambridge 591
_journal_volume 39
_journal_year 1983
_journal_page_first 1261
_journal_name_full 'Acta Crystallogr.,Sect.C:Cryst.Struct.Commun. '
loop_
_publ_author_name
"M.-Ul-Haque"
"J.Ahmed"
"W.Horne"
_chemical_name_systematic
;
5,13-Diphenyl-8H-cyclonona(b)naphthalene
;
_cell_volume   4128.837
_exptl_crystal_density_diffrn 1.19
_diffrn_ambient_temperature ?
_diffrn_special_details
;
The study was carried out at room temperature,in the range 283-303K

;
#These two values have been output from a single CSD field.
_refine_ls_R_factor_gt 0.047
_refine_ls_wR_factor_gt 0.047
_symmetry_cell_setting monoclinic
_symmetry_space_group_name_H-M 'C 2/c'
_symmetry_Int_Tables_number 15
loop_
_symmetry_equiv_pos_site_id
_symmetry_equiv_pos_as_xyz
1 x,y,z
2 1/2+x,1/2+y,z
3 -x,y,1/2-z
4 1/2-x,1/2+y,1/2-z
5 -x,-y,-z
6 -1/2-x,-1/2-y,-z
7 x,-y,-1/2+z
8 -1/2+x,-1/2-y,-1/2+z
_cell_length_a 13.468(17)
_cell_length_b 22.137(5)
_cell_length_c 13.859(2)
_cell_angle_alpha 90
_cell_angle_beta 92.22(4)
_cell_angle_gamma 90
_cell_formula_units_Z 8
loop_
_atom_type_symbol
_atom_type_radius_bond
C 0.68
H 0.23
loop_
_atom_site_label
_atom_site_type_symbol
_atom_site_fract_x
_atom_site_fract_y
_atom_site_fract_z
C1 C 0.25460 0.24020 0.13990
C2 C 0.19880 0.29170 0.14580
C3 C 0.13820 0.30090 0.22350
C4 C 0.13130 0.25870 0.29360
C5 C 0.17980 0.15870 0.36240
C6 C 0.22720 0.05810 0.42980
C7 C 0.17500 0.00820 0.41510
C8 C 0.11270 -0.00310 0.32170
C9 C 0.15850 -0.03690 0.24610
C10 C 0.25220 -0.04090 0.22070
C11 C 0.34470 -0.01330 0.25900
C12 C 0.36680 0.04280 0.28130
C13 C 0.30920 0.14060 0.20820
C14 C 0.25110 0.19500 0.21220
C15 C 0.18740 0.20420 0.29020
C16 C 0.23520 0.10620 0.35620
C17 C 0.29980 0.09720 0.27880
C18 C 0.11270 0.16600 0.44500
C19 C 0.15250 0.18000 0.53640
C20 C 0.09260 0.18260 0.61460
C21 C -0.00820 0.17120 0.60290
C22 C -0.04990 0.15890 0.51280
C23 C 0.01060 0.15660 0.43400
C24 C 0.37970 0.13090 0.12840
C25 C 0.36500 0.08330 0.06470
C26 C 0.43050 0.07340 -0.00830
C27 C 0.50980 0.11130 -0.01900
C28 C 0.52590 0.15870 0.04330
C29 C 0.46080 0.16850 0.11660
H1 H 0.29800 0.23400 0.08500
H2 H 0.20500 0.32100 0.09100
H3 H 0.09700 0.33500 0.22500
H4 H 0.08900 0.26400 0.34700
H5 H 0.26500 0.06600 0.49600
H6 H 0.16800 -0.02000 0.46500
H7 H 0.07100 -0.03300 0.35500
H8 H 0.09200 0.04100 0.29000
H9 H 0.09900 -0.06200 0.21700
H10 H 0.26000 -0.06800 0.15900
H11 H 0.41100 -0.04400 0.26400
H12 H 0.43700 0.05300 0.30600
H13 H 0.22800 0.18500 0.54400
H14 H 0.12200 0.19300 0.68200
H15 H -0.05000 0.17400 0.66000
H16 H -0.11700 0.14900 0.50100
H17 H -0.01700 0.14700 0.37100
H18 H 0.30800 0.05700 0.07100
H19 H 0.41600 0.04000 -0.05500
H20 H 0.55400 0.10500 -0.06800
H21 H 0.58000 0.18800 0.03500
H22 H 0.47200 0.20200 0.16300
loop_
_geom_bond_atom_site_label_1
_geom_bond_atom_site_label_2
_geom_bond_distance
_geom_bond_site_symmetry_1
_geom_bond_site_symmetry_2
C1 C2 1.370 1_555 1_555
C2 C3 1.391 1_555 1_555
C3 C4 1.354 1_555 1_555
C4 C15 1.425 1_555 1_555
C5 C15 1.426 1_555 1_555
C6 C7 1.321 1_555 1_555
C7 C8 1.536 1_555 1_555
C8 C9 1.445 1_555 1_555
C9 C10 1.326 1_555 1_555
C10 C11 1.468 1_555 1_555
C11 C12 1.311 1_555 1_555
C12 C17 1.504 1_555 1_555
C13 C14 1.438 1_555 1_555
C14 C1 1.418 1_555 1_555
C15 C14 1.421 1_555 1_555
C16 C5 1.386 1_555 1_555
C17 C13 1.381 1_555 1_555
C18 C5 1.494 1_555 1_555
C19 C18 1.391 1_555 1_555
C20 C19 1.377 1_555 1_555
C21 C20 1.384 1_555 1_555
C22 C21 1.376 1_555 1_555
C23 C18 1.393 1_555 1_555
C24 C13 1.501 1_555 1_555
C25 C24 1.384 1_555 1_555
C26 C25 1.385 1_555 1_555
C27 C26 1.371 1_555 1_555
C28 C27 1.371 1_555 1_555
C29 C24 1.388 1_555 1_555
H1 C1 0.987 1_555 1_555
H2 C2 1.005 1_555 1_555
H3 C3 0.938 1_555 1_555
H4 C4 0.958 1_555 1_555
H5 C6 1.047 1_555 1_555
H6 C7 0.939 1_555 1_555
H7 C8 0.993 1_555 1_555
H8 C8 1.102 1_555 1_555
H9 C9 1.043 1_555 1_555
H10 C10 1.053 1_555 1_555
H11 C11 1.122 1_555 1_555
H12 C12 1.018 1_555 1_555
H13 C19 1.024 1_555 1_555
H14 C20 1.026 1_555 1_555
H15 C21 0.991 1_555 1_555
H16 C22 0.938 1_555 1_555
H17 C23 0.959 1_555 1_555
H18 C25 0.970 1_555 1_555
H19 C26 0.997 1_555 1_555
H20 C27 0.931 1_555 1_555
H21 C28 0.986 1_555 1_555
H22 C29 0.989 1_555 1_555
C6 C16 1.481 1_555 1_555
C16 C17 1.421 1_555 1_555
C22 C23 1.389 1_555 1_555
C28 C29 1.384 1_555 1_555
#END
