
#######################################################################
#
#                 Cambridge Crystallographic Data Centre
#                                CCDC
#
#######################################################################
#
# If this CIF has been generated from an entry in the Cambridge
# Structural Database, then it will include bibliographic, chemical,
# crystal, experimental, refinement or atomic coordinate data resulting
# from the CCDC's data processing and validation procedures.
#
#######################################################################

data_CSD_CIF_BUTPYR10
_audit_creation_date 1972-08-10
_audit_creation_method CSD-ConQuest-V1
_database_code_CSD BUTPYR10
_chemical_formula_sum 'C24 H26'
_chemical_formula_moiety
;
C24 H26
;
_journal_coeditor_code "IUCr A08975"
_journal_coden_Cambridge 107
_journal_volume 28
_journal_year 1972
_journal_page_first 1059
_journal_name_full 'Acta Crystallogr.,Sect.B:Struct.Crystallogr.Cryst.Chem. '
loop_
_publ_author_name
"A.C.Hazell"
"J.G.Lomborg"
_chemical_name_systematic
;
2,7-Di-t-butylpyrene
;
_cell_volume    439.604
_exptl_crystal_density_diffrn 1.19
_diffrn_ambient_temperature ?
_diffrn_special_details
;
The study was carried out at room temperature,in the range 283-303K

;
#These two values have been output from a single CSD field.
_refine_ls_R_factor_gt 0.068
_refine_ls_wR_factor_gt 0.068
_symmetry_cell_setting triclinic
_symmetry_space_group_name_H-M 'P -1'
_symmetry_Int_Tables_number 2
loop_
_symmetry_equiv_pos_site_id
_symmetry_equiv_pos_as_xyz
1 x,y,z
2 -x,-y,-z
_cell_length_a 9.004(5)
_cell_length_b 6.138(5)
_cell_length_c 9.153(5)
_cell_angle_alpha 96.9(3)
_cell_angle_beta 109.1(3)
_cell_angle_gamma 108.3(3)
_cell_formula_units_Z 1
loop_
_atom_type_symbol
_atom_type_radius_bond
C 0.68
H 0.20
loop_
_atom_site_label
_atom_site_type_symbol
_atom_site_fract_x
_atom_site_fract_y
_atom_site_fract_z
C1 C -0.22660 0.17440 -0.03720
C2 C 0.46640 0.52570 -0.23800
C3 C 0.36080 0.13080 -0.42550
C4 C 0.20120 0.39520 -0.48380
C5 C -0.14810 0.25460 -0.13340
C6 C -0.00970 0.19230 -0.14370
C7 C 0.07500 0.27410 -0.24070
C8 C 0.20830 0.21220 -0.25020
C9 C 0.25650 0.06250 -0.15860
C10 C -0.17670 0.02360 0.05920
C11 C 0.04130 0.04170 -0.05080
C12 C 0.30670 0.31440 -0.35050
H1 H -0.31800 0.22300 -0.03000
H2 H 0.53300 0.58900 -0.29500
H3 H 0.54700 0.47700 -0.14200
H4 H 0.42500 0.64000 -0.19400
H5 H 0.41700 0.19200 -0.49300
H6 H 0.26700 -0.01500 -0.49300
H7 H 0.44400 0.07900 -0.34800
H8 H 0.26400 0.45100 -0.54800
H9 H 0.18300 0.53500 -0.43600
H10 H 0.09900 0.27100 -0.54400
H11 H -0.18000 0.36600 -0.19400
H12 H 0.04200 0.37900 -0.30000
H13 H 0.34600 0.01900 -0.16000
C10A C 0.17670 -0.02360 -0.05920
C9A C -0.25650 -0.06250 0.15860
C11A C -0.04130 -0.04170 0.05080
C1A C 0.22660 -0.17440 0.03720
C8A C -0.20830 -0.21220 0.25020
H13A H -0.34600 -0.01900 0.16000
C6A C 0.00970 -0.19230 0.14370
C5A C 0.14810 -0.25460 0.13340
H1A H 0.31800 -0.22300 0.03000
C7A C -0.07500 -0.27410 0.24070
C12A C -0.30670 -0.31440 0.35050
H11A H 0.18000 -0.36600 0.19400
H12A H -0.04200 -0.37900 0.30000
C2A C -0.46640 -0.52570 0.23800
C3A C -0.36080 -0.13080 0.42550
C4A C -0.20120 -0.39520 0.48380
H2A H -0.53300 -0.58900 0.29500
H3A H -0.54700 -0.47700 0.14200
H4A H -0.42500 -0.64000 0.19400
H5A H -0.41700 -0.19200 0.49300
H6A H -0.26700 0.01500 0.49300
H7A H -0.44400 -0.07900 0.34800
H8A H -0.26400 -0.45100 0.54800
H9A H -0.18300 -0.53500 0.43600
H10A H -0.09900 -0.27100 0.54400
loop_
_geom_bond_atom_site_label_1
_geom_bond_atom_site_label_2
_geom_bond_distance
_geom_bond_site_symmetry_1
_geom_bond_site_symmetry_2
C1 C5 1.345 1_555 1_555
C2 C12 1.533 1_555 1_555
C3 C12 1.535 1_555 1_555
C4 C12 1.523 1_555 1_555
C5 C6 1.441 1_555 1_555
C6 C7 1.390 1_555 1_555
C7 C8 1.393 1_555 1_555
C8 C9 1.390 1_555 1_555
C9 H13 0.928 1_555 1_555
C10 C1 1.427 1_555 1_555
C11 C6 1.410 1_555 1_555
C12 C8 1.531 1_555 1_555
H1 C1 0.978 1_555 1_555
H2 C2 0.943 1_555 1_555
H3 C2 1.082 1_555 1_555
H4 C2 0.994 1_555 1_555
H5 C3 0.959 1_555 1_555
H6 C3 0.973 1_555 1_555
H7 C3 1.011 1_555 1_555
H8 C4 0.963 1_555 1_555
H9 C4 1.000 1_555 1_555
H10 C4 0.926 1_555 1_555
H11 C5 0.984 1_555 1_555
H12 C7 0.947 1_555 1_555
C10A C9 1.389 1_555 1_555
C9A C10 1.389 1_555 1_555
C11A C10 1.419 1_555 1_555
C1A C10A 1.427 1_555 1_555
C8A C9A 1.390 1_555 1_555
H13A C9A 0.928 1_555 1_555
C6A C11A 1.410 1_555 1_555
C5A C1A 1.345 1_555 1_555
H1A C1A 0.978 1_555 1_555
C7A C8A 1.393 1_555 1_555
C12A C8A 1.531 1_555 1_555
H11A C5A 0.984 1_555 1_555
H12A C7A 0.947 1_555 1_555
C2A C12A 1.533 1_555 1_555
C3A C12A 1.535 1_555 1_555
C4A C12A 1.523 1_555 1_555
H2A C2A 0.943 1_555 1_555
H3A C2A 1.082 1_555 1_555
H4A C2A 0.994 1_555 1_555
H5A C3A 0.959 1_555 1_555
H6A C3A 0.973 1_555 1_555
H7A C3A 1.011 1_555 1_555
H8A C4A 0.963 1_555 1_555
H9A C4A 1.000 1_555 1_555
H10A C4A 0.926 1_555 1_555
C11 C10A 1.419 1_555 1_555
C11 C11A 1.417 1_555 1_555
C6A C5A 1.441 1_555 1_555
C6A C7A 1.390 1_555 1_555
#END
