
#######################################################################
#
#                 Cambridge Crystallographic Data Centre
#                                CCDC
#
#######################################################################
#
# If this CIF has been generated from an entry in the Cambridge
# Structural Database, then it will include bibliographic, chemical,
# crystal, experimental, refinement or atomic coordinate data resulting
# from the CCDC's data processing and validation procedures.
#
#######################################################################

data_CSD_CIF_CAFVEN
_audit_creation_date 2017-01-04
_audit_creation_method CSD-ConQuest-V1
_database_code_CSD CAFVEN
_database_code_depnum_ccdc_archive 'CCDC 1432442'
_chemical_formula_sum 'C32 H18'
_chemical_formula_moiety
;
C32 H18
;
_journal_coden_Cambridge 1220
_journal_volume 22
_journal_year 2016
_journal_page_first 14462
_journal_name_full 'Chem.-Eur.J. '
loop_
_publ_author_name
"A.Matsumoto"
"M.Suzuki"
"H.Hayashi"
"D.Kuzuhara"
"J.Yuasa"
"T.Kawai"
"N.Aratani"
"H.Yamada"
_chemical_name_systematic
;
1,1'-bipyrene
;
_cell_volume   1930.676
_exptl_crystal_colour 'colorless'
_exptl_crystal_density_diffrn 1.385
_exptl_crystal_description 'prism'
_diffrn_ambient_temperature 90
#These two values have been output from a single CSD field.
_refine_ls_R_factor_gt 0.0414
_refine_ls_wR_factor_gt 0.0414
_symmetry_cell_setting orthorhombic
_symmetry_space_group_name_H-M 'P b c n'
_symmetry_Int_Tables_number 60
loop_
_symmetry_equiv_pos_site_id
_symmetry_equiv_pos_as_xyz
1 x,y,z
2 1/2-x,1/2-y,1/2+z
3 -x,y,1/2-z
4 1/2+x,1/2-y,-z
5 -x,-y,-z
6 -1/2+x,-1/2+y,-1/2-z
7 x,-y,-1/2+z
8 -1/2-x,-1/2+y,z
_cell_length_a 6.6188(8)
_cell_length_b 9.3137(12)
_cell_length_c 31.319(4)
_cell_angle_alpha 90
_cell_angle_beta 90
_cell_angle_gamma 90
_cell_formula_units_Z 4
loop_
_atom_type_symbol
_atom_type_radius_bond
C 0.68
H 0.23
loop_
_atom_site_label
_atom_site_type_symbol
_atom_site_fract_x
_atom_site_fract_y
_atom_site_fract_z
C1 C 1.3239(2) 0.41166(14) 0.31774(5)
H1 H 1.44920 0.46020 0.32100
C2 C 1.2321(2) 0.40648(15) 0.27806(4)
H2 H 1.29700 0.45100 0.25440
C3 C 1.0465(2) 0.33769(15) 0.27168(4)
C4 C 0.9501(2) 0.27105(14) 0.30679(4)
C5 C 0.7593(2) 0.19636(14) 0.30320(4)
H3 H 0.69420 0.19200 0.27620
C6 C 0.6711(2) 0.13259(14) 0.33714(4)
H4 H 0.54540 0.08500 0.33350
C7 C 0.7633(2) 0.13508(14) 0.37867(4)
C8 C 0.6741(2) 0.06902(15) 0.41429(5)
H5 H 0.54830 0.02100 0.41130
C9 C 0.7681(2) 0.07331(17) 0.45385(5)
H6 H 0.70590 0.02840 0.47770
C10 C 0.9526(2) 0.14282(15) 0.45892(5)
H7 H 1.01540 0.14450 0.48620
C11 C 1.0471(2) 0.21046(14) 0.42428(4)
C12 C 1.2375(2) 0.28277(16) 0.42839(5)
H8 H 1.30240 0.28540 0.45540
C13 C 1.3261(2) 0.34705(14) 0.39469(5)
H9 H 1.45230 0.39400 0.39850
C14 C 1.2336(2) 0.34599(15) 0.35317(4)
C15 C 1.0449(2) 0.27513(14) 0.34774(4)
C16 C 0.9514(2) 0.20708(14) 0.38350(4)
C1B C 0.6761(2) 0.41166(14) 0.18226(5)
H1B H 0.55080 0.46020 0.17900
C2B C 0.7679(2) 0.40648(15) 0.22194(4)
H2B H 0.70300 0.45100 0.24560
C3B C 0.9535(2) 0.33769(15) 0.22832(4)
C4B C 1.0499(2) 0.27105(14) 0.19321(4)
C5B C 1.2407(2) 0.19636(14) 0.19680(4)
H3B H 1.30580 0.19200 0.22380
C6B C 1.3289(2) 0.13259(14) 0.16286(4)
H4B H 1.45460 0.08500 0.16650
C7B C 1.2367(2) 0.13508(14) 0.12133(4)
C8B C 1.3259(2) 0.06902(15) 0.08571(5)
H5B H 1.45170 0.02100 0.08870
C9B C 1.2319(2) 0.07331(17) 0.04615(5)
H6B H 1.29410 0.02840 0.02230
C10B C 1.0474(2) 0.14282(15) 0.04108(5)
H7B H 0.98460 0.14450 0.01380
C11B C 0.9529(2) 0.21046(14) 0.07572(4)
C12B C 0.7625(2) 0.28277(16) 0.07161(5)
H8B H 0.69760 0.28540 0.04460
C13B C 0.6739(2) 0.34705(14) 0.10531(5)
H9B H 0.54770 0.39400 0.10150
C14B C 0.7664(2) 0.34599(15) 0.14683(4)
C15B C 0.9551(2) 0.27513(14) 0.15226(4)
C16B C 1.0486(2) 0.20708(14) 0.11650(4)
loop_
_geom_bond_atom_site_label_1
_geom_bond_atom_site_label_2
_geom_bond_distance
_geom_bond_site_symmetry_1
_geom_bond_site_symmetry_2
C1 H1 0.950 1_555 1_555
C2 C1 1.384 1_555 1_555
H2 C2 0.952 1_555 1_555
C3 C2 1.400 1_555 1_555
C4 C3 1.415 1_555 1_555
C5 C4 1.446 1_555 1_555
H3 C5 0.950 1_555 1_555
C6 C5 1.350 1_555 1_555
H4 C6 0.950 1_555 1_555
C7 C6 1.437 1_555 1_555
C8 C7 1.404 1_555 1_555
H5 C8 0.950 1_555 1_555
C9 C8 1.387 1_555 1_555
H6 C9 0.950 1_555 1_555
C10 C9 1.391 1_555 1_555
H7 C10 0.950 1_555 1_555
C11 C10 1.402 1_555 1_555
C12 C11 1.435 1_555 1_555
H8 C12 0.949 1_555 1_555
C13 C12 1.348 1_555 1_555
H9 C13 0.950 1_555 1_555
C14 C1 1.401 1_555 1_555
C15 C4 1.428 1_555 1_555
C16 C7 1.422 1_555 1_555
C1B H1B 0.950 1_555 1_555
C2B C1B 1.384 1_555 1_555
H2B C2B 0.952 1_555 1_555
C3B C3 1.491 1_555 1_555
C4B C3B 1.415 1_555 1_555
C5B C4B 1.446 1_555 1_555
H3B C5B 0.950 1_555 1_555
C6B C5B 1.350 1_555 1_555
H4B C6B 0.950 1_555 1_555
C7B C6B 1.437 1_555 1_555
C8B C7B 1.404 1_555 1_555
H5B C8B 0.950 1_555 1_555
C9B C8B 1.387 1_555 1_555
H6B C9B 0.950 1_555 1_555
C10B C9B 1.391 1_555 1_555
H7B C10B 0.950 1_555 1_555
C11B C10B 1.402 1_555 1_555
C12B C11B 1.435 1_555 1_555
H8B C12B 0.949 1_555 1_555
C13B C12B 1.348 1_555 1_555
H9B C13B 0.950 1_555 1_555
C14B C1B 1.401 1_555 1_555
C15B C4B 1.428 1_555 1_555
C16B C7B 1.422 1_555 1_555
C11 C16 1.426 1_555 1_555
C13 C14 1.437 1_555 1_555
C14 C15 1.423 1_555 1_555
C15 C16 1.428 1_555 1_555
C2B C3B 1.400 1_555 1_555
C11B C16B 1.426 1_555 1_555
C13B C14B 1.437 1_555 1_555
C14B C15B 1.423 1_555 1_555
C15B C16B 1.428 1_555 1_555
#END
