
#######################################################################
#
#                 Cambridge Crystallographic Data Centre
#                                CCDC
#
#######################################################################
#
# If this CIF has been generated from an entry in the Cambridge
# Structural Database, then it will include bibliographic, chemical,
# crystal, experimental, refinement or atomic coordinate data resulting
# from the CCDC's data processing and validation procedures.
#
#######################################################################

data_CSD_CIF_CETQUP
_audit_creation_date 2013-04-30
_audit_creation_method CSD-ConQuest-V1
_database_code_CSD CETQUP
_database_code_depnum_ccdc_archive 'CCDC 923794'
_chemical_formula_sum 'C40 H42'
_chemical_formula_moiety
;
C40 H42
;
_journal_coden_Cambridge 1695
_journal_volume 1
_journal_year 2013
_journal_page_first 2817
_journal_name_full 'J.Mater.Chem.C '
loop_
_publ_author_name
"A.Dadvand"
"Wei-Hsin Sun"
"A.G.Moiseev"
"F.Belanger-Gariepy"
"F.Rosei"
"Hong Meng"
"D.F.Perepichka"
_chemical_name_systematic
;
1,5-bis(2-(4-Pentylphenyl)vinyl)anthracene
;
_cell_volume    738.804
_exptl_crystal_colour 'pale yellow'
_exptl_crystal_density_diffrn 1.175
_exptl_crystal_description 'needle'
_diffrn_ambient_temperature 100
#These two values have been output from a single CSD field.
_refine_ls_R_factor_gt 0.0649
_refine_ls_wR_factor_gt 0.0649
_symmetry_cell_setting triclinic
_symmetry_space_group_name_H-M 'P -1'
_symmetry_Int_Tables_number 2
loop_
_symmetry_equiv_pos_site_id
_symmetry_equiv_pos_as_xyz
1 x,y,z
2 -x,-y,-z
_cell_length_a 6.7671(3)
_cell_length_b 10.0846(5)
_cell_length_c 12.0321(6)
_cell_angle_alpha 98.990(2)
_cell_angle_beta 106.294(2)
_cell_angle_gamma 104.765(3)
_cell_formula_units_Z 1
loop_
_atom_type_symbol
_atom_type_radius_bond
C 0.68
H 0.23
loop_
_atom_site_label
_atom_site_type_symbol
_atom_site_fract_x
_atom_site_fract_y
_atom_site_fract_z
C1 C 0.2195(3) 0.0667(2) 0.56170(18)
H1 H 0.37000 0.11150 0.60380
C2 C 0.0808(3) 0.1485(2) 0.55513(17)
C3 C 0.1544(3) 0.2994(2) 0.60838(18)
C4 C 0.0048(3) 0.3702(2) 0.59777(19)
H2 H 0.05240 0.46870 0.63360
C5 C -0.2185(3) 0.3006(2) 0.53502(19)
H3 H -0.31810 0.35280 0.52950
C6 C -0.2922(3) 0.1593(2) 0.48234(18)
H4 H -0.44240 0.11420 0.43940
C7 C -0.1463(3) 0.0789(2) 0.49114(17)
C8 C 0.3865(3) 0.3729(2) 0.67342(18)
H5 H 0.46990 0.32140 0.71410
C9 C 0.4878(3) 0.5077(2) 0.67898(19)
H6 H 0.40140 0.55970 0.64160
C10 C 0.7213(3) 0.5822(2) 0.73784(18)
C11 C 0.8168(4) 0.7015(2) 0.70103(19)
H7 H 0.72870 0.73460 0.64260
C12 C 1.0382(3) 0.7705(2) 0.74958(19)
H8 H 1.09920 0.85070 0.72370
C13 C 1.1730(3) 0.7256(2) 0.83505(18)
C14 C 1.0776(4) 0.6090(2) 0.87315(19)
H9 H 1.16560 0.57700 0.93260
C15 C 0.8557(3) 0.5394(2) 0.82512(19)
H10 H 0.79470 0.46070 0.85270
C16 C 1.4152(3) 0.8020(2) 0.8817(2)
H11 H 1.43820 0.90420 0.90920
H12 H 1.47070 0.79010 0.81410
C17 C 1.5513(4) 0.7558(2) 0.9826(2)
H13 H 1.53470 0.65460 0.95510
H14 H 1.49630 0.76590 1.05050
C18 C 1.7912(3) 0.8411(2) 1.0255(2)
H15 H 1.84890 0.82630 0.95910
H16 H 1.80760 0.94300 1.04850
C19 C 1.9226(4) 0.8001(3) 1.1309(2)
H17 H 1.86350 0.81500 1.19670
H18 H 1.90350 0.69790 1.10750
C20 C 2.1611(4) 0.8801(3) 1.1771(2)
H19 H 2.22250 0.86480 1.11330
H20 H 2.23360 0.84640 1.24440
H21 H 2.18270 0.98130 1.20370
C1A C -0.2195(3) -0.0667(2) 0.43830(18)
H1A H -0.37000 -0.11150 0.39620
C2A C -0.0808(3) -0.1485(2) 0.44487(17)
C3A C -0.1544(3) -0.2994(2) 0.39162(18)
C4A C -0.0048(3) -0.3702(2) 0.40223(19)
H2A H -0.05240 -0.46870 0.36640
C5A C 0.2185(3) -0.3006(2) 0.46498(19)
H3A H 0.31810 -0.35280 0.47050
C6A C 0.2922(3) -0.1593(2) 0.51766(18)
H4A H 0.44240 -0.11420 0.56060
C7A C 0.1463(3) -0.0789(2) 0.50886(17)
C8A C -0.3865(3) -0.3729(2) 0.32658(18)
H5A H -0.46990 -0.32140 0.28590
C9A C -0.4878(3) -0.5077(2) 0.32102(19)
H6A H -0.40140 -0.55970 0.35840
C10A C -0.7213(3) -0.5822(2) 0.26216(18)
C11A C -0.8168(4) -0.7015(2) 0.29897(19)
H7A H -0.72870 -0.73460 0.35740
C12A C -1.0382(3) -0.7705(2) 0.25042(19)
H8A H -1.09920 -0.85070 0.27630
C13A C -1.1730(3) -0.7256(2) 0.16495(18)
C14A C -1.0776(4) -0.6090(2) 0.12685(19)
H9A H -1.16560 -0.57700 0.06740
C15A C -0.8557(3) -0.5394(2) 0.17488(19)
H10A H -0.79470 -0.46070 0.14730
C16A C -1.4152(3) -0.8020(2) 0.1183(2)
H11A H -1.43820 -0.90420 0.09080
H12A H -1.47070 -0.79010 0.18590
C17A C -1.5513(4) -0.7558(2) 0.0174(2)
H13A H -1.53470 -0.65460 0.04490
H14A H -1.49630 -0.76590 -0.05050
C18A C -1.7912(3) -0.8411(2) -0.0255(2)
H15A H -1.84890 -0.82630 0.04090
H16A H -1.80760 -0.94300 -0.04850
C19A C -1.9226(4) -0.8001(3) -0.1309(2)
H17A H -1.86350 -0.81500 -0.19670
H18A H -1.90350 -0.69790 -0.10750
C20A C -2.1611(4) -0.8801(3) -0.1771(2)
H19A H -2.22250 -0.86480 -0.11330
H20A H -2.23360 -0.84640 -0.24440
H21A H -2.18270 -0.98130 -0.20370
loop_
_geom_bond_atom_site_label_1
_geom_bond_atom_site_label_2
_geom_bond_distance
_geom_bond_site_symmetry_1
_geom_bond_site_symmetry_2
C1 H1 0.950 1_555 1_555
C2 C1 1.393 1_555 1_555
C3 C2 1.451 1_555 1_555
C4 C3 1.369 1_555 1_555
H2 C4 0.949 1_555 1_555
C5 C4 1.414 1_555 1_555
H3 C5 0.950 1_555 1_555
C6 C5 1.363 1_555 1_555
H4 C6 0.950 1_555 1_555
C7 C2 1.437 1_555 1_555
C8 C3 1.471 1_555 1_555
H5 C8 0.950 1_555 1_555
C9 C8 1.339 1_555 1_555
H6 C9 0.950 1_555 1_555
C10 C9 1.471 1_555 1_555
C11 C10 1.411 1_555 1_555
H7 C11 0.949 1_555 1_555
C12 C11 1.386 1_555 1_555
H8 C12 0.950 1_555 1_555
C13 C12 1.387 1_555 1_555
C14 C13 1.399 1_555 1_555
H9 C14 0.949 1_555 1_555
C15 C10 1.386 1_555 1_555
H10 C15 0.950 1_555 1_555
C16 C13 1.517 1_555 1_555
H11 C16 0.989 1_555 1_555
H12 C16 0.990 1_555 1_555
C17 C16 1.519 1_555 1_555
H13 C17 0.989 1_555 1_555
H14 C17 0.990 1_555 1_555
C18 C17 1.524 1_555 1_555
H15 C18 0.990 1_555 1_555
H16 C18 0.990 1_555 1_555
C19 C18 1.513 1_555 1_555
H17 C19 0.990 1_555 1_555
H18 C19 0.990 1_555 1_555
C20 C19 1.502 1_555 1_555
H19 C20 0.980 1_555 1_555
H20 C20 0.980 1_555 1_555
H21 C20 0.980 1_555 1_555
C1A C7 1.402 1_555 1_555
H1A C1A 0.950 1_555 1_555
C2A C1A 1.393 1_555 1_555
C3A C2A 1.451 1_555 1_555
C4A C3A 1.369 1_555 1_555
H2A C4A 0.949 1_555 1_555
C5A C4A 1.414 1_555 1_555
H3A C5A 0.950 1_555 1_555
C6A C5A 1.363 1_555 1_555
H4A C6A 0.950 1_555 1_555
C7A C1 1.402 1_555 1_555
C8A C3A 1.471 1_555 1_555
H5A C8A 0.950 1_555 1_555
C9A C8A 1.339 1_555 1_555
H6A C9A 0.950 1_555 1_555
C10A C9A 1.471 1_555 1_555
C11A C10A 1.411 1_555 1_555
H7A C11A 0.949 1_555 1_555
C12A C11A 1.386 1_555 1_555
H8A C12A 0.950 1_555 1_555
C13A C12A 1.387 1_555 1_555
C14A C13A 1.399 1_555 1_555
H9A C14A 0.949 1_555 1_555
C15A C10A 1.386 1_555 1_555
H10A C15A 0.950 1_555 1_555
C16A C13A 1.517 1_555 1_555
H11A C16A 0.989 1_555 1_555
H12A C16A 0.990 1_555 1_555
C17A C16A 1.519 1_555 1_555
H13A C17A 0.989 1_555 1_555
H14A C17A 0.990 1_555 1_555
C18A C17A 1.524 1_555 1_555
H15A C18A 0.990 1_555 1_555
H16A C18A 0.990 1_555 1_555
C19A C18A 1.513 1_555 1_555
H17A C19A 0.990 1_555 1_555
H18A C19A 0.990 1_555 1_555
C20A C19A 1.502 1_555 1_555
H19A C20A 0.980 1_555 1_555
H20A C20A 0.980 1_555 1_555
H21A C20A 0.980 1_555 1_555
C6 C7 1.421 1_555 1_555
C14 C15 1.389 1_555 1_555
C2A C7A 1.437 1_555 1_555
C6A C7A 1.421 1_555 1_555
C14A C15A 1.389 1_555 1_555
#END
