
#######################################################################
#
#                 Cambridge Crystallographic Data Centre
#                                CCDC
#
#######################################################################
#
# If this CIF has been generated from an entry in the Cambridge
# Structural Database, then it will include bibliographic, chemical,
# crystal, experimental, refinement or atomic coordinate data resulting
# from the CCDC's data processing and validation procedures.
#
#######################################################################

data_CSD_CIF_CIRREC
_audit_creation_date 2013-11-25
_audit_creation_method CSD-ConQuest-V1
_database_code_CSD CIRREC
_database_code_depnum_ccdc_archive 'CCDC 952033'
_chemical_formula_sum 'C60 H30'
_chemical_formula_moiety
;
C60 H30
;
_journal_coden_Cambridge 1220
_journal_volume 19
_journal_year 2013
_journal_page_first 17262
_journal_name_full 'Chem.-Eur.J. '
loop_
_publ_author_name
"M.Kabdulov"
"M.Jansen"
"K.Yu.Amsharov"
_chemical_name_systematic
;
1,2:3,4:5,6-tris(Benzo(c)phenanthrene-4,5-diyl)benzene
;
_cell_volume   3478.473
_exptl_crystal_colour 'orange'
_exptl_crystal_density_diffrn 1.434
_exptl_crystal_description 'needle'
_diffrn_ambient_temperature 100
#These two values have been output from a single CSD field.
_refine_ls_R_factor_gt 0.1189
_refine_ls_wR_factor_gt 0.1189
_symmetry_cell_setting monoclinic
_symmetry_space_group_name_H-M 'P 21/c'
_symmetry_Int_Tables_number 14
loop_
_symmetry_equiv_pos_site_id
_symmetry_equiv_pos_as_xyz
1 x,y,z
2 -x,1/2+y,1/2-z
3 -x,-y,-z
4 x,-1/2-y,-1/2+z
_cell_length_a 24.488(14)
_cell_length_b 3.788(2)
_cell_length_c 38.48(2)
_cell_angle_alpha 90
_cell_angle_beta 102.962(8)
_cell_angle_gamma 90
_cell_formula_units_Z 4
loop_
_atom_type_symbol
_atom_type_radius_bond
C 0.68
H 0.23
loop_
_atom_site_label
_atom_site_type_symbol
_atom_site_fract_x
_atom_site_fract_y
_atom_site_fract_z
C1 C 0.2264(3) 0.692(2) 0.0719(2)
C2 C 0.4046(3) 0.173(2) 0.3185(2)
C3 C 0.3618(3) 1.132(2) 0.0048(2)
C4 C 0.2893(3) 0.925(2) 0.0366(2)
C5 C 0.2329(3) 0.811(2) 0.0386(2)
C6 C 0.3723(3) 0.281(2) 0.2506(2)
C7 C 0.0795(3) 0.161(2) 0.1659(2)
C8 C 0.3073(3) 0.062(2) 0.2860(2)
C9 C 0.3277(3) 0.988(2) 0.0690(2)
C10 C -0.0159(3) -0.012(2) 0.1388(2)
C11 C 0.0009(3) -0.010(2) 0.1060(2)
C12 C 0.3083(3) 0.978(2) 0.0034(2)
C13 C 0.3622(3) 0.168(2) 0.2855(2)
C14 C 0.2684(3) 0.707(2) 0.1039(2)
C15 C 0.1824(3) 0.837(2) 0.0118(2)
H1 H 0.18360 0.92450 -0.01120
C16 C 0.2612(3) 0.104(2) 0.25618(19)
H2 H 0.22560 0.01110 0.25720
C17 C 0.0272(3) 0.052(2) 0.1707(2)
C18 C 0.1322(3) 0.738(2) 0.0187(2)
H3 H 0.09920 0.76130 0.00030
C19 C 0.3780(3) 0.475(2) 0.1797(2)
H4 H 0.38060 0.54470 0.15650
C20 C 0.4247(3) 0.296(2) 0.2404(2)
H5 H 0.45840 0.24270 0.25730
C21 C -0.0742(3) -0.091(2) 0.1385(2)
C22 C 0.3249(3) 0.351(2) 0.2237(2)
C23 C 0.3969(3) 1.223(2) 0.0383(2)
H6 H 0.43160 1.33750 0.03920
C24 C 0.3810(3) 1.147(2) 0.0691(2)
H7 H 0.40580 1.20010 0.09120
C25 C 0.3922(3) 0.020(2) 0.3499(2)
C26 C 0.3371(3) -0.115(2) 0.3485(2)
H8 H 0.32870 -0.22310 0.36890
C27 C 0.1746(3) 0.575(2) 0.0792(2)
C28 C 0.1218(3) 0.187(2) 0.2283(2)
H9 H 0.15180 0.24970 0.24770
C29 C 0.3174(3) 0.881(2) 0.1028(2)
H10 H 0.34420 0.93080 0.12420
C30 C 0.0549(3) 0.117(2) 0.1027(2)
H11 H 0.06370 0.12600 0.07990
C31 C 0.1272(3) 0.602(2) 0.0520(2)
H12 H 0.09180 0.52990 0.05570
C32 C 0.3803(3) 1.182(2) -0.0271(2)
H13 H 0.41530 1.29330 -0.02620
C33 C 0.4331(3) 0.023(2) 0.3821(2)
H14 H 0.42440 -0.07950 0.40270
C34 C 0.2765(3) 0.852(2) -0.0302(2)
H15 H 0.24200 0.73200 -0.03160
C35 C 0.0939(3) 0.224(2) 0.1324(2)
C36 C 0.4580(3) 0.339(2) 0.3225(2)
H16 H 0.46700 0.45500 0.30270
C37 C 0.3263(3) 0.455(2) 0.1889(2)
C38 C -0.1102(3) -0.225(2) 0.1066(2)
C39 C 0.2677(3) 0.277(2) 0.2257(2)
C40 C -0.0893(3) -0.249(2) 0.0746(2)
H17 H -0.11220 -0.34350 0.05340
C41 C 0.2972(3) -0.089(2) 0.3181(2)
H18 H 0.26070 -0.17460 0.31800
C42 C 0.2443(3) 0.557(2) 0.1327(2)
C43 C -0.0999(3) -0.026(2) 0.1673(2)
H19 H -0.07800 0.07210 0.18870
C44 C -0.1556(3) -0.101(2) 0.1657(2)
H20 H -0.17140 -0.04750 0.18550
C45 C 0.2320(3) 0.358(2) 0.1909(2)
C46 C 0.1275(3) 0.222(2) 0.1939(2)
C47 C -0.1667(3) -0.306(2) 0.1056(2)
H21 H -0.18970 -0.39660 0.08420
C48 C 0.2673(3) 0.478(2) 0.1678(2)
C49 C 0.0704(3) 0.057(2) 0.2348(2)
H22 H 0.06710 0.01960 0.25860
C50 C 0.3481(3) 1.072(2) -0.0595(2)
H23 H 0.36070 1.10880 -0.08080
C51 C 0.4967(3) 0.334(2) 0.3545(2)
H24 H 0.53210 0.44410 0.35620
C52 C 0.4851(3) 0.170(2) 0.3848(2)
H25 H 0.51250 0.16110 0.40650
C53 C -0.0367(3) -0.137(2) 0.0747(2)
H26 H -0.02440 -0.14320 0.05310
C54 C 0.1745(3) 0.320(2) 0.1771(2)
C55 C 0.1524(3) 0.350(2) 0.1394(2)
C56 C 0.4264(3) 0.389(2) 0.20579(19)
H27 H 0.46170 0.39410 0.19940
C57 C 0.2967(3) 0.907(2) -0.0606(2)
H28 H 0.27490 0.82970 -0.08290
C58 C 0.0251(3) -0.016(2) 0.2069(2)
H29 H -0.00800 -0.11340 0.21200
C59 C 0.1861(3) 0.484(2) 0.1174(2)
C60 C -0.1892(3) -0.256(2) 0.1350(2)
H30 H -0.22670 -0.32470 0.13460
loop_
_geom_bond_atom_site_label_1
_geom_bond_atom_site_label_2
_geom_bond_distance
_geom_bond_site_symmetry_1
_geom_bond_site_symmetry_2
C1 C5 1.401 1_555 1_555
C2 C13 1.449 1_555 1_555
C3 C12 1.424 1_555 1_555
C4 C5 1.465 1_555 1_555
C5 C15 1.425 1_555 1_555
C6 C13 1.482 1_555 1_555
C7 C17 1.397 1_555 1_555
C8 C13 1.407 1_555 1_555
C9 C4 1.403 1_555 1_555
C10 C11 1.413 1_555 1_555
C11 C30 1.439 1_555 1_555
C12 C4 1.468 1_555 1_555
C14 C1 1.417 1_555 1_555
C15 H1 0.952 1_555 1_555
C16 C8 1.427 1_555 1_555
H2 C16 0.949 1_555 1_555
C17 C10 1.449 1_555 1_555
C18 C15 1.367 1_555 1_555
H3 C18 0.952 1_555 1_555
C19 H4 0.947 1_555 1_555
C20 C6 1.425 1_555 1_555
H5 C20 0.951 1_555 1_555
C21 C10 1.456 1_555 1_555
C22 C6 1.396 1_555 1_555
C23 C3 1.422 1_555 1_555
H6 C23 0.948 1_555 1_555
C24 C9 1.437 1_555 1_555
H7 C24 0.949 1_555 1_555
C25 C2 1.433 1_555 1_555
C26 C25 1.433 1_555 1_555
H8 C26 0.948 1_555 1_555
C27 C1 1.430 1_555 1_555
C28 H9 0.953 1_555 1_555
C29 C9 1.438 1_555 1_555
H10 C29 0.950 1_555 1_555
C30 H11 0.950 1_555 1_555
C31 C18 1.412 1_555 1_555
H12 C31 0.950 1_555 1_555
C32 C3 1.413 1_555 1_555
H13 C32 0.949 1_555 1_555
C33 C25 1.408 1_555 1_555
H14 C33 0.949 1_555 1_555
C34 C12 1.433 1_555 1_555
H15 C34 0.950 1_555 1_555
C35 C7 1.431 1_555 1_555
C36 C2 1.428 1_555 1_555
H16 C36 0.947 1_555 1_555
C37 C19 1.391 1_555 1_555
C38 C21 1.434 1_555 1_555
C39 C16 1.384 1_555 1_555
C40 C38 1.438 1_555 1_555
H17 C40 0.950 1_555 1_555
C41 C8 1.432 1_555 1_555
H18 C41 0.950 1_555 1_555
C42 C14 1.481 1_555 1_555
C43 C21 1.413 1_555 1_555
H19 C43 0.952 1_555 1_555
C44 C43 1.381 1_555 1_555
H20 C44 0.951 1_555 1_555
C45 C39 1.458 1_555 1_555
C46 C7 1.424 1_555 1_555
C47 C38 1.409 1_555 1_555
H21 C47 0.951 1_555 1_555
C48 C37 1.493 1_555 1_555
C49 C28 1.425 1_555 1_555
H22 C49 0.948 1_555 1_555
C50 C32 1.382 1_555 1_555
H23 C50 0.949 1_555 1_555
C51 C36 1.375 1_555 1_555
H24 C51 0.951 1_555 1_555
C52 C33 1.372 1_555 1_555
H25 C52 0.947 1_555 1_555
C53 C11 1.426 1_555 1_555
H26 C53 0.946 1_555 1_555
C54 C45 1.396 1_555 1_555
C55 C35 1.476 1_555 1_555
C56 C19 1.409 1_555 1_555
H27 C56 0.950 1_555 1_555
C57 C34 1.384 1_555 1_555
H28 C57 0.950 1_555 1_555
C58 C17 1.429 1_555 1_555
H29 C58 0.950 1_555 1_555
C59 C27 1.474 1_555 1_555
C60 C44 1.408 1_555 1_555
H30 C60 0.951 1_555 1_555
C14 C29 1.378 1_555 1_555
C20 C56 1.387 1_555 1_555
C22 C37 1.404 1_555 1_555
C22 C39 1.447 1_555 1_555
C23 C24 1.359 1_555 1_555
C26 C41 1.349 1_555 1_555
C27 C31 1.381 1_555 1_555
C28 C46 1.368 1_555 1_555
C30 C35 1.376 1_555 1_555
C40 C53 1.355 1_555 1_555
C42 C48 1.375 1_555 1_555
C42 C59 1.441 1_555 1_555
C45 C48 1.445 1_555 1_555
C46 C54 1.488 1_555 1_555
C47 C60 1.378 1_555 1_555
C49 C58 1.388 1_555 1_555
C50 C57 1.397 1_555 1_555
C51 C52 1.405 1_555 1_555
C54 C55 1.435 1_555 1_555
C55 C59 1.403 1_555 1_555
#END
