
#######################################################################
#
#                 Cambridge Crystallographic Data Centre
#                                CCDC
#
#######################################################################
#
# If this CIF has been generated from an entry in the Cambridge
# Structural Database, then it will include bibliographic, chemical,
# crystal, experimental, refinement or atomic coordinate data resulting
# from the CCDC's data processing and validation procedures.
#
#######################################################################

data_CSD_CIF_CUHBIS
_audit_creation_date 2015-07-11
_audit_creation_method CSD-ConQuest-V1
_database_code_CSD CUHBIS
_database_code_depnum_ccdc_archive 'CCDC 1056914'
_chemical_formula_sum 'C43 H30'
_chemical_formula_moiety
;
C43 H30
;
_journal_coden_Cambridge 241
_journal_volume 44
_journal_year 2015
_journal_page_first 978
_journal_name_full 'Chem.Lett. '
loop_
_publ_author_name
"Shinji Toyota"
"T.Oki"
"M.Inoue"
"K.Wakamatsu"
"T.Iwanaga"
_chemical_name_systematic
;
14-ethyl-32-mesitylheptacyclo[25.3.1.1^12,16^.0^5,30^.0^8,13^.0^15,20^.0^23,28
^]dotriaconta-1(31),2,4,8,10,12,14,16(32),17,19,23,25,27,29-tetradecaene-6,21-
diyne
;
_cell_volume   2946.857
_exptl_crystal_colour 'orange'
_exptl_crystal_density_diffrn 1.232
_exptl_special_details
;
Light-sensitive

;
_exptl_crystal_description 'prism'
_diffrn_ambient_temperature 123.2
#These two values have been output from a single CSD field.
_refine_ls_R_factor_gt 0.0449
_refine_ls_wR_factor_gt 0.0449
_symmetry_cell_setting monoclinic
_symmetry_space_group_name_H-M 'P 21/n'
_symmetry_Int_Tables_number 14
loop_
_symmetry_equiv_pos_site_id
_symmetry_equiv_pos_as_xyz
1 x,y,z
2 1/2-x,1/2+y,1/2-z
3 -x,-y,-z
4 -1/2+x,-1/2-y,-1/2+z
_cell_length_a 14.2950(18)
_cell_length_b 13.5363(15)
_cell_length_c 16.559(2)
_cell_angle_alpha 90
_cell_angle_beta 113.1194(15)
_cell_angle_gamma 90
_cell_formula_units_Z 4
loop_
_atom_type_symbol
_atom_type_radius_bond
C 0.68
H 0.23
loop_
_atom_site_label
_atom_site_type_symbol
_atom_site_fract_x
_atom_site_fract_y
_atom_site_fract_z
C1 C 0.84339(8) 0.03594(8) -0.06498(7)
C2 C 0.76394(9) -0.02511(9) -0.07157(7)
H1 H 0.7262(11) -0.0621(9) -0.1280(9)
C3 C 0.73569(9) -0.03981(9) 0.00069(8)
H2 H 0.6773(11) -0.0852(10) -0.0052(8)
C4 C 0.78680(9) 0.00705(8) 0.07837(7)
H3 H 0.7665(10) -0.0022(10) 0.1292(9)
C5 C 1.05386(9) 0.23969(9) 0.25728(7)
H4 H 1.0319(10) 0.2280(9) 0.3062(9)
C6 C 1.13059(10) 0.3033(1) 0.26482(8)
H5 H 1.1661(11) 0.3415(12) 0.3199(10)
C7 C 1.16144(9) 0.31719(10) 0.19385(7)
H6 H 1.2188(11) 0.3651(11) 0.2008(9)
C8 C 1.11561(8) 0.26621(8) 0.11649(7)
C9 C 0.98196(8) 0.14801(8) 0.02756(7)
H7 H 1.0059(10) 0.1533(9) -0.0217(8)
C10 C 0.92137(8) 0.12204(8) 0.16742(7)
H8 H 0.9023(9) 0.1116(9) 0.2180(8)
C11 C 0.89969(8) 0.08641(8) 0.01667(6)
C12 C 0.86917(8) 0.07208(8) 0.08892(7)
C13 C 1.03263(8) 0.19940(8) 0.10564(6)
C14 C 1.00145(8) 0.18677(8) 0.17760(7)
C15 C 0.87090(8) 0.04996(8) -0.13856(7)
C16 C 0.89598(8) 0.06387(8) -0.19886(6)
C17 C 1.15044(8) 0.27787(8) 0.04693(7)
C18 C 1.17834(8) 0.28347(8) -0.01252(7)
C19 C 1.21854(8) 0.27970(8) -0.07946(7)
C20 C 1.31749(9) 0.30971(9) -0.05765(7)
H9 H 1.3547(11) 0.3418(11) -0.0014(9)
C21 C 1.36860(9) 0.29175(9) -0.11382(8)
H10 H 1.4394(10) 0.3151(10) -0.0965(8)
C22 C 1.32212(8) 0.23919(8) -0.18920(7)
H11 H 1.3578(10) 0.2218(9) -0.2250(8)
C23 C 1.03367(9) 0.03692(8) -0.38089(7)
H12 H 1.071(1) 0.0235(10) -0.4196(9)
C24 C 0.94213(9) -0.00672(8) -0.39670(7)
C25 C 0.89344(8) 0.00712(8) -0.33803(7)
H13 H 0.8337(10) -0.0345(10) -0.3440(8)
C26 C 0.93382(8) 0.07003(8) -0.26728(6)
C27 C 1.06039(8) 0.20305(7) -0.19118(6)
C28 C 1.17453(8) 0.14675(7) -0.29121(7)
C29 C 1.16377(8) 0.22992(7) -0.16237(7)
C30 C 1.22042(8) 0.20401(8) -0.21469(7)
C31 C 1.02427(8) 0.12710(8) -0.25472(6)
C32 C 1.07912(8) 0.10306(8) -0.30854(6)
C33 C 0.98592(8) 0.26644(8) -0.16938(7)
H14 H 1.023(1) 0.318(1) -0.1269(8)
C34 C 0.91263(10) 0.31865(10) -0.25191(8)
H15 H 0.8678(12) 0.2695(12) -0.2997(10)
C35 C 1.22639(8) 0.13368(8) -0.35358(7)
C36 C 1.29735(9) 0.05751(8) -0.34164(7)
C37 C 1.3437(1) 0.04806(9) -0.40125(8)
H16 H 1.3914(11) -0.0087(11) -0.3936(9)
C38 C 1.32181(10) 0.11182(9) -0.47210(8)
C39 C 1.25279(10) 0.18741(9) -0.48198(7)
H17 H 1.2352(11) 0.2366(11) -0.5315(10)
C40 C 1.20402(9) 0.19959(8) -0.42414(7)
C41 C 1.12971(11) 0.28268(10) -0.43669(9)
H18 H 1.1544(13) 0.3291(13) -0.3846(11)
H19 H 1.0598(13) 0.2581(12) -0.4428(10)
C42 C 1.32401(11) -0.01247(10) -0.26525(9)
H20 H 1.2623(14) -0.0482(12) -0.2657(11)
H21 H 1.3544(12) 0.0230(12) -0.2087(10)
C43 C 1.37344(13) 0.09895(13) -0.53547(10)
H22 H 1.3391(15) 0.1466(15) -0.5869(13)
H23 H 0.943(1) 0.2282(9) -0.1437(8)
H24 H 0.9105(10) -0.0512(9) -0.4453(8)
H25 H 1.4414(15) 0.1132(13) -0.5095(11)
H26 H 0.8647(12) 0.3625(11) -0.2373(10)
H27 H 0.9514(12) 0.3587(11) -0.2789(10)
H28 H 1.1220(12) 0.3206(12) -0.4908(10)
H29 H 1.3744(13) -0.0670(12) -0.2681(10)
H30 H 1.3677(13) 0.0306(14) -0.557(1)
loop_
_geom_bond_atom_site_label_1
_geom_bond_atom_site_label_2
_geom_bond_distance
_geom_bond_site_symmetry_1
_geom_bond_site_symmetry_2
C1 C2 1.374 1_555 1_555
C2 H1 1.009 1_555 1_555
C3 C2 1.419 1_555 1_555
H2 C3 1.010 1_555 1_555
C4 C3 1.361 1_555 1_555
H3 C4 1.000 1_555 1_555
C5 H4 0.990 1_555 1_555
C6 C5 1.361 1_555 1_555
H5 C6 0.997 1_555 1_555
C7 C6 1.421 1_555 1_555
H6 C7 1.016 1_555 1_555
C8 C7 1.374 1_555 1_555
C9 H7 1.003 1_555 1_555
C10 H8 0.987 1_555 1_555
C11 C1 1.445 1_555 1_555
C12 C4 1.425 1_555 1_555
C13 C8 1.446 1_555 1_555
C14 C5 1.428 1_555 1_555
C15 C1 1.432 1_555 1_555
C16 C15 1.201 1_555 1_555
C17 C8 1.432 1_555 1_555
C18 C17 1.201 1_555 1_555
C19 C18 1.436 1_555 1_555
C20 C19 1.377 1_555 1_555
H9 C20 0.975 1_555 1_555
C21 C20 1.411 1_555 1_555
H10 C21 0.989 1_555 1_555
C22 C21 1.362 1_555 1_555
H11 C22 0.951 1_555 1_555
C23 H12 0.999 1_555 1_555
C24 C23 1.364 1_555 1_555
C25 C24 1.412 1_555 1_555
H13 C25 0.995 1_555 1_555
C26 C16 1.437 1_555 1_555
C27 C29 1.411 1_555 1_555
C28 C30 1.409 1_555 1_555
C29 C19 1.452 1_555 1_555
C30 C22 1.427 1_555 1_555
C31 C26 1.449 1_555 1_555
C32 C23 1.431 1_555 1_555
C33 C27 1.517 1_555 1_555
H14 C33 0.985 1_555 1_555
C34 C33 1.530 1_555 1_555
H15 C34 1.040 1_555 1_555
C35 C28 1.500 1_555 1_555
C36 C35 1.405 1_555 1_555
C37 C36 1.394 1_555 1_555
H16 C37 1.002 1_555 1_555
C38 C37 1.390 1_555 1_555
C39 C38 1.386 1_555 1_555
H17 C39 1.008 1_555 1_555
C40 C35 1.404 1_555 1_555
C41 C40 1.504 1_555 1_555
H18 C41 1.012 1_555 1_555
H19 C41 1.020 1_555 1_555
C42 C36 1.505 1_555 1_555
H20 C42 1.003 1_555 1_555
H21 C42 0.988 1_555 1_555
C43 C38 1.511 1_555 1_555
H22 C43 1.027 1_555 1_555
H23 C33 1.015 1_555 1_555
H24 C24 0.964 1_555 1_555
H25 C43 0.915 1_555 1_555
H26 C34 1.005 1_555 1_555
H27 C34 0.998 1_555 1_555
H28 C41 1.000 1_555 1_555
H29 C42 1.045 1_555 1_555
H30 C43 0.983 1_555 1_555
C9 C11 1.394 1_555 1_555
C9 C13 1.395 1_555 1_555
C10 C12 1.394 1_555 1_555
C10 C14 1.398 1_555 1_555
C11 C12 1.438 1_555 1_555
C13 C14 1.437 1_555 1_555
C25 C26 1.378 1_555 1_555
C27 C31 1.416 1_555 1_555
C28 C32 1.409 1_555 1_555
C29 C30 1.442 1_555 1_555
C31 C32 1.437 1_555 1_555
C39 C40 1.398 1_555 1_555
#END
