
#######################################################################
#
#                 Cambridge Crystallographic Data Centre
#                                CCDC
#
#######################################################################
#
# If this CIF has been generated from an entry in the Cambridge
# Structural Database, then it will include bibliographic, chemical,
# crystal, experimental, refinement or atomic coordinate data resulting
# from the CCDC's data processing and validation procedures.
#
#######################################################################

data_CSD_CIF_DIHDON
_audit_creation_date 1986-10-23
_audit_creation_method CSD-ConQuest-V1
_database_code_CSD DIHDON
_chemical_formula_sum 'C18 H12'
_chemical_formula_moiety
;
C18 H12
;
_journal_coden_Cambridge 179
_journal_volume 24
_journal_year 1985
_journal_page_first 1046
_journal_name_full 'Angew.Chem.,Int.Ed. '
loop_
_publ_author_name
"E.Vogel"
"B.Neumann"
"W.Klug"
"H.Schmickler"
"J.Lex"
_chemical_name_systematic
;
Dicyclohepta(de,ij)naphthalene
;
_chemical_name_common
;
Dipleiadiene
;
_chemical_melting_point 427.15
_cell_volume   1184.946
_exptl_crystal_colour 'reddish-black'
_exptl_crystal_density_diffrn 1.28
_exptl_special_details
;
Melting point range 427.15-428.15K
Cell data in paper differs slightly from results in Supp.Material. Data taken 
from Supp. Material
;
_diffrn_ambient_temperature ?
_diffrn_special_details
;
The study was carried out at room temperature,in the range 283-303K

;
#These two values have been output from a single CSD field.
_refine_ls_R_factor_gt 0.035
_refine_ls_wR_factor_gt 0.035
_symmetry_cell_setting monoclinic
_symmetry_space_group_name_H-M 'P 21/c'
_symmetry_Int_Tables_number 14
loop_
_symmetry_equiv_pos_site_id
_symmetry_equiv_pos_as_xyz
1 x,y,z
2 -x,1/2+y,1/2-z
3 -x,-y,-z
4 x,-1/2-y,-1/2+z
_cell_length_a 8.245(1)
_cell_length_b 10.516(1)
_cell_length_c 13.668(3)
_cell_angle_alpha 90
_cell_angle_beta 90.85(1)
_cell_angle_gamma 90
_cell_formula_units_Z 4
loop_
_atom_type_symbol
_atom_type_radius_bond
C 0.68
H 0.23
loop_
_atom_site_label
_atom_site_type_symbol
_atom_site_fract_x
_atom_site_fract_y
_atom_site_fract_z
C1 C 0.4673(3) 0.2633(2) 0.0109(2)
C2 C 0.5553(3) 0.3323(2) -0.0656(2)
C3 C 0.7051(4) 0.3238(3) -0.1009(2)
C4 C 0.8279(3) 0.2374(3) -0.0709(2)
C5 C 0.8157(3) 0.1458(2) -0.0042(2)
C6 C 0.6836(3) 0.1022(2) 0.0589(1)
C7 C 0.7255(3) -0.0018(2) 0.1148(2)
C8 C 0.6197(3) -0.0574(2) 0.1793(2)
C9 C 0.4656(3) -0.0113(2) 0.1942(1)
C10 C 0.3755(3) -0.08477(2) 0.2672(2)
C11 C 0.2300(3) -0.0723(2) 0.3066(2)
C12 C 0.1131(3) 0.0230(3) 0.2844(2)
C13 C 0.1257(3) 0.1170(3) 0.2193(2)
C14 C 0.2529(3) 0.1552(2) 0.1513(2)
C15 C 0.2113(3) 0.2584(2) 0.0939(2)
C16 C 0.3134(3) 0.3102(2) 0.0262(2)
C17 C 0.5224(2) 0.1554(2) 0.0684(1)
C18 C 0.4120(2) 0.0990(2) 0.1390(1)
H1 H 0.488(3) 0.394(2) -0.094(2)
H2 H 0.733(3) 0.381(2) -0.155(2)
H3 H 0.938(3) 0.249(2) -0.104(2)
H4 H 0.915(3) 0.096(2) 0.012(2)
H5 H 0.834(3) -0.036(2) 0.108(1)
H6 H 0.656(3) -0.131(2) 0.218(1)
H7 H 0.441(3) -0.159(2) 0.290(2)
H8 H 0.199(3) -0.135(2) 0.358(2)
H9 H 0.015(3) 0.019(2) 0.320(2)
H10 H 0.032(3) 0.173(2) 0.212(2)
H11 H 0.105(3) 0.294(2) 0.105(1)
H12 H 0.275(3) 0.384(2) -0.013(2)
loop_
_geom_bond_atom_site_label_1
_geom_bond_atom_site_label_2
_geom_bond_distance
_geom_bond_site_symmetry_1
_geom_bond_site_symmetry_2
C1 C2 1.473 1_555 1_555
C2 C3 1.336 1_555 1_555
C3 C4 1.416 1_555 1_555
C4 C5 1.331 1_555 1_555
C5 C6 1.472 1_555 1_555
C6 C7 1.375 1_555 1_555
C7 C8 1.379 1_555 1_555
C8 C9 1.378 1_555 1_555
C9 C10 1.472 1_555 1_555
C10 C11 1.329 1_555 1_555
C11 C12 1.420 1_555 1_555
C12 C13 1.335 1_555 1_555
C13 C14 1.468 1_555 1_555
C14 C15 1.379 1_555 1_555
C15 C16 1.373 1_555 1_555
C16 C1 1.380 1_555 1_555
C17 C1 1.449 1_555 1_555
C18 C9 1.449 1_555 1_555
H1 C2 0.934 1_555 1_555
H2 C3 0.983 1_555 1_555
H3 C4 1.028 1_555 1_555
H4 C5 0.994 1_555 1_555
H5 C7 0.970 1_555 1_555
H6 C8 0.982 1_555 1_555
H7 C10 0.997 1_555 1_555
H8 C11 0.999 1_555 1_555
H9 C12 0.951 1_555 1_555
H10 C13 0.975 1_555 1_555
H11 C15 0.967 1_555 1_555
H12 C16 0.992 1_555 1_555
C6 C17 1.450 1_555 1_555
C14 C18 1.451 1_555 1_555
C17 C18 1.462 1_555 1_555
#END
