
#######################################################################
#
#                 Cambridge Crystallographic Data Centre
#                                CCDC
#
#######################################################################
#
# If this CIF has been generated from an entry in the Cambridge
# Structural Database, then it will include bibliographic, chemical,
# crystal, experimental, refinement or atomic coordinate data resulting
# from the CCDC's data processing and validation procedures.
#
#######################################################################

data_CSD_CIF_DIMNAP03
_audit_creation_date 1997-09-01
_audit_creation_method CSD-ConQuest-V1
_database_code_CSD DIMNAP03
_database_code_depnum_ccdc_archive 'CCDC 115400'
_database_code_depnum_ccdc_journal 182/481
_chemical_formula_sum 'C12 H12'
_chemical_formula_moiety
;
C12 H12
;
_journal_coden_Cambridge 182
_journal_year 1997
_journal_page_first 1281
_journal_name_full 'Chem.Commun. '
loop_
_publ_author_name
"C.C.Wilson"
_chemical_name_systematic
;
1,5-Dimethylnaphthalene
;
_chemical_melting_point 333
_cell_volume    894.363
_exptl_crystal_colour 'colorless'
_exptl_crystal_density_diffrn 1.16
_diffrn_ambient_temperature 320
_diffrn_radiation_probe 'neutron radiation'
#These two values have been output from a single CSD field.
_refine_ls_R_factor_gt 0.065
_refine_ls_wR_factor_gt 0.065
_symmetry_cell_setting monoclinic
_symmetry_space_group_name_H-M 'P 21/c'
_symmetry_Int_Tables_number 14
loop_
_symmetry_equiv_pos_site_id
_symmetry_equiv_pos_as_xyz
1 x,y,z
2 -x,1/2+y,1/2-z
3 -x,-y,-z
4 x,-1/2-y,-1/2+z
_cell_length_a 6.146(7)
_cell_length_b 8.862(3)
_cell_length_c 16.760(4)
_cell_angle_alpha 90
_cell_angle_beta 101.55(7)
_cell_angle_gamma 90
_cell_formula_units_Z 4
loop_
_atom_type_symbol
_atom_type_radius_bond
C 0.68
H 0.23
loop_
_atom_site_label
_atom_site_type_symbol
_atom_site_fract_x
_atom_site_fract_y
_atom_site_fract_z
C1 C 0.3732(8) 0.40557(34) 0.32584(25)
C2 C 0.5702(14) 0.49004(63) 0.37302(44)
C3 C 0.1384(7) 0.32555(32) 0.19568(23)
C4 C 0.2363(9) 0.32592(38) 0.36642(32)
C5 C 0.0507(10) 0.24511(46) 0.32361(32)
C6 C 0.0054(9) 0.24385(46) 0.23997(30)
C7 C 0.0918(8) 0.32670(33) 0.10873(23)
C8 C -0.1000(14) 0.24178(70) 0.06093(47)
C9 C 0.2272(9) 0.40693(38) 0.06830(31)
C10 C 0.4095(10) 0.48754(44) 0.11042(31)
C11 C 0.4607(9) 0.48813(44) 0.19445(28)
C12 C 0.3263(7) 0.40645(33) 0.23881(24)
H1 H 0.5782(29) 0.4746(13) 0.4383(9)
H2 H 0.5533(27) 0.6081(12) 0.3617(8)
H3 H 0.7224(34) 0.4541(19) 0.3618(11)
H4 H 0.2697(22) 0.3278(9) 0.4303(7)
H5 H -0.0579(24) 0.1830(11) 0.3563(7)
H6 H -0.1343(22) 0.1812(10) 0.2101(7)
H7 H -0.1116(28) 0.2540(14) -0.0028(10)
H8 H -0.2502(41) 0.2771(17) 0.0747(12)
H9 H -0.0866(23) 0.1210(11) 0.0737(7)
H10 H 0.1946(22) 0.4092(10) 0.0019(6)
H11 H 0.5127(23) 0.5501(12) 0.0765(7)
H12 H 0.5985(21) 0.5494(10) 0.2264(8)
loop_
_geom_bond_atom_site_label_1
_geom_bond_atom_site_label_2
_geom_bond_distance
_geom_bond_site_symmetry_1
_geom_bond_site_symmetry_2
C1 C2 1.506 1_555 1_555
C2 H1 1.094 1_555 1_555
C3 C6 1.409 1_555 1_555
C4 C1 1.378 1_555 1_555
C5 C4 1.415 1_555 1_555
C6 C5 1.373 1_555 1_555
C7 C3 1.428 1_555 1_555
C8 C7 1.490 1_555 1_555
C9 C7 1.372 1_555 1_555
C10 C9 1.395 1_555 1_555
C11 C10 1.380 1_555 1_555
C12 C1 1.429 1_555 1_555
H2 C2 1.065 1_555 1_555
H3 C2 1.040 1_555 1_555
H4 C4 1.049 1_555 1_555
H5 C5 1.093 1_555 1_555
H6 C6 1.060 1_555 1_555
H7 C8 1.062 1_555 1_555
H8 C8 1.043 1_555 1_555
H9 C8 1.091 1_555 1_555
H10 C9 1.091 1_555 1_555
H11 C10 1.085 1_555 1_555
H12 C11 1.057 1_555 1_555
C3 C12 1.427 1_555 1_555
C11 C12 1.416 1_555 1_555
#END
