
#######################################################################
#
#                 Cambridge Crystallographic Data Centre
#                                CCDC
#
#######################################################################
#
# If this CIF has been generated from an entry in the Cambridge
# Structural Database, then it will include bibliographic, chemical,
# crystal, experimental, refinement or atomic coordinate data resulting
# from the CCDC's data processing and validation procedures.
#
#######################################################################

data_CSD_CIF_DMBZAN11
_audit_creation_date 1989-05-23
_audit_creation_method CSD-ConQuest-V1
_database_code_CSD DMBZAN11
_chemical_formula_sum 'C20 H16'
_chemical_formula_moiety
;
C20 H16
;
_journal_coden_Cambridge 557
_journal_volume 8
_journal_year 1987
_journal_page_first 1323
_journal_name_full 'Carcinogenesis '
loop_
_publ_author_name
"D.W.Jones"
"J.D.Shaw"
_chemical_name_systematic
;
1,12-Dimethylbenz(a)anthracene
;
_cell_volume    694.578
_exptl_crystal_density_diffrn 1.22
_exptl_special_details
;
carcinogenic activity

;
_diffrn_ambient_temperature ?
_diffrn_special_details
;
The study was carried out at room temperature,in the range 283-303K

;
#These two values have been output from a single CSD field.
_refine_ls_R_factor_gt 0.047
_refine_ls_wR_factor_gt 0.047
_symmetry_cell_setting monoclinic
_symmetry_space_group_name_H-M 'P 21'
_symmetry_Int_Tables_number 4
loop_
_symmetry_equiv_pos_site_id
_symmetry_equiv_pos_as_xyz
1 x,y,z
2 -x,1/2+y,-z
_cell_length_a 8.417(4)
_cell_length_b 8.318(3)
_cell_length_c 9.990(4)
_cell_angle_alpha 90
_cell_angle_beta 96.75(4)
_cell_angle_gamma 90
_cell_formula_units_Z 2
loop_
_atom_type_symbol
_atom_type_radius_bond
C 0.68
H 0.23
loop_
_atom_site_label
_atom_site_type_symbol
_atom_site_fract_x
_atom_site_fract_y
_atom_site_fract_z
C1 C 0.5393(3) 0.02460 0.5421(2)
C2 C 0.6291(4) 0.0813(4) 0.6576(3)
C3 C 0.7938(4) 0.1050(5) 0.6648(4)
C4 C 0.8708(4) 0.0562(5) 0.5602(4)
C5 C 0.8714(4) -0.0779(5) 0.3421(4)
C6 C 0.7934(4) -0.1505(5) 0.2358(4)
C7 C 0.5478(4) -0.1904(5) 0.0819(3)
C8 C 0.3080(5) -0.2184(6) -0.0838(3)
C9 C 0.1562(5) -0.1776(6) -0.1277(3)
C10 C 0.0730(4) -0.0722(6) -0.0508(3)
C11 C 0.1448(4) -0.0071(5) 0.0671(3)
C12 C 0.3821(3) 0.0156(4) 0.2402(2)
C13 C 0.6162(3) -0.0017(4) 0.4258(3)
C14 C 0.7870(3) -0.0024(4) 0.4419(3)
C15 C 0.6234(3) -0.1333(4) 0.2029(3)
C16 C 0.3874(4) -0.1570(5) 0.0384(3)
C17 C 0.3055(3) -0.0481(4) 0.1171(2)
C18 C 0.5338(3) -0.0412(4) 0.2906(3)
C19 C 0.3685(4) -0.0231(5) 0.5544(3)
C20 C 0.3045(3) 0.1580(4) 0.2991(3)
H1 H 0.5633(39) 0.0982(49) 0.7389(33)
H2 H 0.8507(42) 0.1540(55) 0.7485(35)
H3 H 0.9877(44) 0.0642(53) 0.5624(32)
H4 H 0.9919(32) -0.0789(43) 0.3537(27)
H5 H 0.8491(51) -0.2040(61) 0.1743(40)
H6 H 0.6104(55) -0.2487(76) 0.0288(46)
H7 H 0.3779(58) -0.3107(79) -0.1358(54)
H8 H 0.0968(41) -0.2327(57) -0.2142(37)
H9 H -0.0375(38) -0.0453(49) -0.0793(32)
H10 H 0.0809(35) 0.0664(42) 0.1206(29)
H11 H 0.3030(42) 0.0742(52) 0.5463(33)
H12 H 0.3734(39) -0.0735(58) 0.6439(37)
H13 H 0.3163(29) -0.0778(41) 0.4738(27)
H14 H 0.2023(32) 0.1256(44) 0.3335(27)
H15 H 0.2748(35) 0.2337(53) 0.2285(32)
H16 H 0.3709(30) 0.2048(38) 0.3756(28)
loop_
_geom_bond_atom_site_label_1
_geom_bond_atom_site_label_2
_geom_bond_distance
_geom_bond_site_symmetry_1
_geom_bond_site_symmetry_2
C1 C2 1.386 1_555 1_555
C2 C3 1.394 1_555 1_555
C3 C4 1.355 1_555 1_555
C4 C14 1.391 1_555 1_555
C5 C6 1.326 1_555 1_555
C6 C15 1.437 1_555 1_555
C7 C15 1.382 1_555 1_555
C8 C9 1.345 1_555 1_555
C9 C10 1.406 1_555 1_555
C10 C11 1.371 1_555 1_555
C11 C17 1.427 1_555 1_555
C12 C17 1.422 1_555 1_555
C13 C1 1.412 1_555 1_555
C14 C5 1.435 1_555 1_555
C15 C18 1.442 1_555 1_555
C16 C7 1.397 1_555 1_555
C17 C16 1.429 1_555 1_555
C18 C12 1.399 1_555 1_555
C19 C1 1.510 1_555 1_555
C20 C12 1.505 1_555 1_555
H1 C2 1.045 1_555 1_555
H2 C3 1.000 1_555 1_555
H3 C4 0.984 1_555 1_555
H4 C5 1.007 1_555 1_555
H5 C6 0.929 1_555 1_555
H6 C7 0.927 1_555 1_555
H7 C8 1.130 1_555 1_555
H8 C9 1.051 1_555 1_555
H9 C10 0.966 1_555 1_555
H10 C11 1.008 1_555 1_555
H11 C19 0.977 1_555 1_555
H12 C19 0.984 1_555 1_555
H13 C19 0.982 1_555 1_555
H14 C20 1.000 1_555 1_555
H15 C20 0.957 1_555 1_555
H16 C20 0.973 1_555 1_555
C8 C16 1.416 1_555 1_555
C13 C14 1.428 1_555 1_555
C13 C18 1.481 1_555 1_555
#END
