
#######################################################################
#
#                 Cambridge Crystallographic Data Centre
#                                CCDC
#
#######################################################################
#
# If this CIF has been generated from an entry in the Cambridge
# Structural Database, then it will include bibliographic, chemical,
# crystal, experimental, refinement or atomic coordinate data resulting
# from the CCDC's data processing and validation procedures.
#
#######################################################################

data_CSD_CIF_DPANTR11
_audit_creation_date 2016-04-05
_audit_creation_method CSD-ConQuest-V1
_database_code_CSD DPANTR11
_database_code_depnum_ccdc_archive 'CCDC 1453457'
_chemical_formula_sum 'C26 H18'
_chemical_formula_moiety
;
C26 H18
;
_journal_coden_Cambridge 983
_journal_volume 120
_journal_year 2016
_journal_page_first 1831
_journal_name_full 'J.Phys.Chem.C '
loop_
_publ_author_name
"T.Salzillo"
"R.G.D.Valle"
"E.Venuti"
"A.Brillante"
"T.Siegrist"
"M.Masino"
"F.Mezzadri"
"A.Girlando"
_chemical_name_systematic
;
9,10-diphenylanthracene
;
_cell_volume   1818.830
_exptl_crystal_colour 'colorless'
_exptl_crystal_density_diffrn 1.207
_exptl_special_details
;
gamma polymorph

;
_exptl_crystal_description 'plate'
_diffrn_ambient_temperature 293
#These two values have been output from a single CSD field.
_refine_ls_R_factor_gt 0.0533
_refine_ls_wR_factor_gt 0.0533
_symmetry_cell_setting monoclinic
_symmetry_space_group_name_H-M 'P 21/n'
_symmetry_Int_Tables_number 14
loop_
_symmetry_equiv_pos_site_id
_symmetry_equiv_pos_as_xyz
1 x,y,z
2 1/2-x,1/2+y,1/2-z
3 -x,-y,-z
4 -1/2+x,-1/2-y,-1/2+z
_cell_length_a 9.216(2)
_cell_length_b 21.111(5)
_cell_length_c 10.041(2)
_cell_angle_alpha 90
_cell_angle_beta 111.404(4)
_cell_angle_gamma 90
_cell_formula_units_Z 4
loop_
_atom_type_symbol
_atom_type_radius_bond
C 0.68
H 0.23
loop_
_atom_site_label
_atom_site_type_symbol
_atom_site_fract_x
_atom_site_fract_y
_atom_site_fract_z
C1 C 0.10752(14) 0.08976(5) 0.75186(12)
C2 C -0.04333(14) 0.20853(5) 0.67608(13)
C3 C -0.05580(14) 0.09337(5) 0.71228(13)
C4 C -0.13134(14) 0.15241(6) 0.67730(13)
C5 C 0.11826(14) 0.20448(5) 0.70742(13)
C6 C 0.19541(13) 0.14600(5) 0.75064(12)
C7 C 0.20718(14) 0.26071(6) 0.68711(13)
C8 C -0.14920(14) 0.03440(6) 0.70394(14)
C9 C 0.18985(16) 0.03125(6) 0.79118(15)
C10 C -0.29633(16) 0.15858(7) 0.63965(16)
C11 C 0.34684(17) 0.02813(7) 0.83052(17)
C12 C 0.36131(15) 0.14020(7) 0.79499(15)
C13 C -0.12485(16) 0.26770(7) 0.64038(15)
C14 C 0.43386(17) 0.08366(7) 0.83453(17)
C15 C 0.22078(16) 0.27050(7) 0.55622(16)
C16 C -0.17993(16) 0.01153(6) 0.81944(16)
C17 C -0.36780(18) 0.21566(8) 0.60758(19)
C18 C -0.28088(18) 0.27103(8) 0.60795(19)
C19 C -0.26945(18) -0.04271(7) 0.80797(19)
C20 C 0.30886(19) 0.32078(8) 0.5372(2)
C21 C 0.2797(2) 0.30271(7) 0.79674(18)
C22 C 0.38421(18) 0.36079(7) 0.6483(2)
C23 C -0.2080(2) 0.00089(8) 0.57709(18)
C24 C -0.3278(2) -0.07449(8) 0.6817(2)
C25 C 0.3693(2) 0.35225(8) 0.7772(2)
C26 C -0.2967(3) -0.05305(9) 0.5663(2)
H1 H 0.1283(16) -0.0067(7) 0.7884(14)
H2 H 0.1694(17) 0.2406(7) 0.4795(16)
H3 H -0.1328(17) 0.0340(7) 0.9135(18)
H4 H 0.548(2) 0.0805(8) 0.8651(18)
H5 H -0.484(2) 0.2191(8) 0.5837(17)
H6 H -0.0636(17) 0.3059(7) 0.6371(15)
H7 H 0.4214(17) 0.1774(7) 0.7929(15)
H8 H -0.3544(19) 0.1231(8) 0.6436(17)
H9 H 0.3961(19) -0.0121(8) 0.8570(17)
H10 H 0.321(2) 0.3258(8) 0.4470(19)
H11 H -0.334(2) 0.3123(8) 0.5824(18)
H12 H 0.451(2) 0.3957(9) 0.6355(19)
H13 H -0.181(2) 0.0154(9) 0.494(2)
H14 H 0.424(2) 0.3814(9) 0.863(2)
H15 H -0.393(2) -0.1116(9) 0.6741(18)
H16 H -0.292(2) -0.0574(8) 0.8907(19)
H17 H 0.266(2) 0.2981(8) 0.889(2)
H18 H -0.338(2) -0.0745(10) 0.476(2)
loop_
_geom_bond_atom_site_label_1
_geom_bond_atom_site_label_2
_geom_bond_distance
_geom_bond_site_symmetry_1
_geom_bond_site_symmetry_2
C1 C3 1.412 1_555 1_555
C2 C4 1.438 1_555 1_555
C3 C4 1.408 1_555 1_555
C4 C10 1.433 1_555 1_555
C5 C2 1.408 1_555 1_555
C6 C1 1.440 1_555 1_555
C7 C5 1.498 1_555 1_555
C8 C3 1.498 1_555 1_555
C9 C1 1.428 1_555 1_555
C10 C17 1.355 1_555 1_555
C11 C9 1.355 1_555 1_555
C12 C6 1.433 1_555 1_555
C13 C2 1.434 1_555 1_555
C14 C11 1.413 1_555 1_555
C15 C7 1.381 1_555 1_555
C16 C8 1.378 1_555 1_555
C17 C18 1.416 1_555 1_555
C18 C13 1.355 1_555 1_555
C19 C16 1.391 1_555 1_555
C20 C15 1.391 1_555 1_555
C21 C7 1.381 1_555 1_555
C22 C20 1.369 1_555 1_555
C23 C8 1.383 1_555 1_555
C24 C19 1.360 1_555 1_555
C25 C21 1.390 1_555 1_555
C26 C23 1.383 1_555 1_555
H1 C9 0.976 1_555 1_555
H2 C15 0.975 1_555 1_555
H3 C16 1.003 1_555 1_555
H4 C14 0.985 1_555 1_555
H5 C17 1.011 1_555 1_555
H6 C13 0.992 1_555 1_555
H7 C12 0.966 1_555 1_555
H8 C10 0.930 1_555 1_555
H9 C11 0.954 1_555 1_555
H10 C20 0.958 1_555 1_555
H11 C18 0.986 1_555 1_555
H12 C22 0.998 1_555 1_555
H13 C23 1.002 1_555 1_555
H14 C25 1.029 1_555 1_555
H15 C24 0.973 1_555 1_555
H16 C19 0.977 1_555 1_555
H17 C21 0.984 1_555 1_555
H18 C26 0.959 1_555 1_555
C5 C6 1.412 1_555 1_555
C12 C14 1.355 1_555 1_555
C22 C25 1.362 1_555 1_555
C24 C26 1.368 1_555 1_555
#END
