
#######################################################################
#
#                 Cambridge Crystallographic Data Centre
#                                CCDC
#
#######################################################################
#
# If this CIF has been generated from an entry in the Cambridge
# Structural Database, then it will include bibliographic, chemical,
# crystal, experimental, refinement or atomic coordinate data resulting
# from the CCDC's data processing and validation procedures.
#
#######################################################################

data_CSD_CIF_DUPXOD01
_audit_creation_date 2015-07-22
_audit_creation_method CSD-ConQuest-V1
_database_code_CSD DUPXOD01
_database_code_depnum_ccdc_archive 'CCDC 1022085'
_chemical_formula_sum 'C31 H21'
_chemical_formula_moiety
;
C31 H21
;
_journal_coden_Cambridge 4
_journal_volume 136
_journal_year 2014
_journal_page_first 18009
_journal_name_full 'J.Am.Chem.Soc. '
loop_
_publ_author_name
"Zhongyu Mou"
"K.Uchida"
"T.Kubo"
"M.Kertesz"
_chemical_name_systematic
;
2,5,8-tris(phenyl)phenalenyl radical
;
_cell_volume   8512.907
_exptl_crystal_colour 'black'
_exptl_crystal_density_diffrn 1.228
_exptl_special_details
;
Air-sensitive, Oxygen-sensitive

;
_exptl_crystal_description 'block'
_exptl_crystal_preparation 'toluene/n-hexane'
_diffrn_ambient_temperature 300
#These two values have been output from a single CSD field.
_refine_ls_R_factor_gt 0.057
_refine_ls_wR_factor_gt 0.057
_symmetry_cell_setting cubic
_symmetry_space_group_name_H-M 'I a -3'
_symmetry_Int_Tables_number 206
loop_
_symmetry_equiv_pos_site_id
_symmetry_equiv_pos_as_xyz
1 x,y,z
2 x,-y,1/2-z
3 1/2-x,y,-z
4 -x,1/2-y,z
5 z,x,y
6 z,-x,1/2-y
7 1/2-z,x,-y
8 -z,1/2-x,y
9 y,z,x
10 y,-z,1/2-x
11 1/2-y,z,-x
12 -y,1/2-z,x
13 1/2+x,1/2+y,1/2+z
14 1/2+x,1/2-y,-z
15 -x,1/2+y,1/2-z
16 1/2-x,-y,1/2+z
17 1/2+z,1/2+x,1/2+y
18 1/2+z,1/2-x,-y
19 -z,1/2+x,1/2-y
20 1/2-z,-x,1/2+y
21 1/2+y,1/2+z,1/2+x
22 1/2+y,1/2-z,-x
23 -y,1/2+z,1/2-x
24 1/2-y,-z,1/2+x
25 -x,-y,-z
26 -x,y,-1/2+z
27 -1/2+x,-y,z
28 x,-1/2+y,-z
29 -z,-x,-y
30 -z,x,-1/2+y
31 -1/2+z,-x,y
32 z,-1/2+x,-y
33 -y,-z,-x
34 -y,z,-1/2+x
35 -1/2+y,-z,x
36 y,-1/2+z,-x
37 -1/2-x,-1/2-y,-1/2-z
38 -1/2-x,-1/2+y,z
39 x,-1/2-y,-1/2+z
40 -1/2+x,y,-1/2-z
41 -1/2-z,-1/2-x,-1/2-y
42 -1/2-z,-1/2+x,y
43 z,-1/2-x,-1/2+y
44 -1/2+z,x,-1/2-y
45 -1/2-y,-1/2-z,-1/2-x
46 -1/2-y,-1/2+z,x
47 y,-1/2-z,-1/2+x
48 -1/2+y,z,-1/2-x
_cell_length_a 20.4186(4)
_cell_length_b 20.4186(4)
_cell_length_c 20.4186(4)
_cell_angle_alpha 90
_cell_angle_beta 90
_cell_angle_gamma 90
_cell_formula_units_Z 16
loop_
_atom_type_symbol
_atom_type_radius_bond
C 0.68
H 0.23
loop_
_atom_site_label
_atom_site_type_symbol
_atom_site_fract_x
_atom_site_fract_y
_atom_site_fract_z
C1 C 0.04446(6) 0.04446(6) 0.04446(6)
C2 C 0.09727(6) 0.00013(6) 0.03511(6)
C3 C 0.13957(6) 0.00970(7) -0.01897(6)
C4 C 0.13126(6) 0.06163(6) -0.06253(6)
C5 C 0.07870(6) 0.10444(6) -0.05330(7)
C6 C 0.17651(7) 0.07010(6) -0.11901(7)
C7 C 0.24276(7) 0.05401(8) -0.11417(8)
C8 C 0.28530(9) 0.06348(10) -0.16593(10)
C9 C 0.26275(9) 0.08917(9) -0.22413(9)
C10 C 0.19738(10) 0.10500(9) -0.23050(9)
C11 C 0.15444(8) 0.09538(7) -0.17860(7)
H1 H 0.1755(8) -0.0209(7) -0.0259(7)
H2 H 0.0718(7) 0.1425(8) -0.0845(7)
H3 H 0.2595(10) 0.0357(10) -0.0723(10)
H4 H 0.3356(11) 0.0500(12) -0.1649(10)
H5 H 0.2948(11) 0.0953(9) -0.2635(11)
H6 H 0.1782(9) 0.1226(9) -0.2724(10)
H7 H 0.1058(9) 0.1078(8) -0.1872(8)
C2D C 0.03511(6) 0.09727(6) 0.00013(6)
C3D C -0.01897(6) 0.13957(7) 0.00970(6)
C4D C -0.06253(6) 0.13126(6) 0.06163(6)
C5D C -0.05330(6) 0.07870(6) 0.10444(7)
C6D C -0.11901(7) 0.17651(6) 0.07010(7)
C7D C -0.11417(7) 0.24276(8) 0.05401(8)
C8D C -0.16593(9) 0.2853(1) 0.06348(10)
C9D C -0.22413(9) 0.26275(9) 0.08917(9)
C10D C -0.2305(1) 0.19738(9) 0.10500(9)
C11D C -0.17860(8) 0.15444(7) 0.09538(7)
H1D H -0.0259(8) 0.1755(7) -0.0209(7)
H2D H -0.0845(7) 0.0718(8) 0.1425(7)
H3D H -0.0723(10) 0.2595(10) 0.0357(10)
H4D H -0.1649(11) 0.3356(12) 0.050(1)
H5D H -0.2635(11) 0.2948(9) 0.0953(11)
H6D H -0.2724(9) 0.1782(9) 0.1226(10)
H7D H -0.1872(9) 0.1058(8) 0.1078(8)
C2H C 0.00013(6) 0.03511(6) 0.09727(6)
C3H C 0.00970(6) -0.01897(7) 0.13957(6)
C4H C 0.06163(6) -0.06253(6) 0.13126(6)
C5H C 0.10444(6) -0.05330(6) 0.07870(7)
C6H C 0.07010(7) -0.11901(6) 0.17651(7)
C7H C 0.05401(7) -0.11417(8) 0.24276(8)
C8H C 0.06348(9) -0.16593(10) 0.2853(1)
C9H C 0.08917(9) -0.22413(9) 0.26275(9)
C10H C 0.1050(1) -0.23050(9) 0.19738(9)
C11H C 0.09538(8) -0.17860(7) 0.15444(7)
H1H H -0.0209(8) -0.0259(7) 0.1755(7)
H2H H 0.1425(7) -0.0845(8) 0.0718(7)
H3H H 0.0357(10) -0.0723(10) 0.2595(10)
H4H H 0.0500(11) -0.1649(12) 0.3356(10)
H5H H 0.0953(11) -0.2635(9) 0.2948(11)
H6H H 0.1226(9) -0.2724(9) 0.1782(10)
H7H H 0.1078(9) -0.1872(8) 0.1058(8)
loop_
_geom_bond_atom_site_label_1
_geom_bond_atom_site_label_2
_geom_bond_distance
_geom_bond_site_symmetry_1
_geom_bond_site_symmetry_2
C1 C2 1.421 1_555 1_555
C2 C3 1.415 1_555 1_555
C3 C4 1.394 1_555 1_555
C4 C5 1.397 1_555 1_555
C5 H2 1.015 1_555 1_555
C6 C4 1.488 1_555 1_555
C7 C6 1.396 1_555 1_555
C8 C7 1.382 1_555 1_555
C9 C8 1.378 1_555 1_555
C10 C9 1.379 1_555 1_555
C11 C6 1.396 1_555 1_555
H1 C3 0.974 1_555 1_555
H3 C7 0.994 1_555 1_555
H4 C8 1.064 1_555 1_555
H5 C9 1.044 1_555 1_555
H6 C10 1.007 1_555 1_555
H7 C11 1.040 1_555 1_555
C2D C1 1.421 1_555 1_555
C3D C2D 1.415 1_555 1_555
C4D C3D 1.394 1_555 1_555
C5D C4D 1.397 1_555 1_555
C6D C4D 1.488 1_555 1_555
C7D C6D 1.396 1_555 1_555
C8D C7D 1.382 1_555 1_555
C9D C8D 1.378 1_555 1_555
C10D C9D 1.379 1_555 1_555
C11D C6D 1.396 1_555 1_555
H1D C3D 0.974 1_555 1_555
H2D C5D 1.015 1_555 1_555
H3D C7D 0.994 1_555 1_555
H4D C8D 1.064 1_555 1_555
H5D C9D 1.044 1_555 1_555
H6D C10D 1.007 1_555 1_555
H7D C11D 1.040 1_555 1_555
C2H C1 1.421 1_555 1_555
C3H C2H 1.415 1_555 1_555
C4H C3H 1.394 1_555 1_555
C5H C2 1.416 1_555 1_555
C6H C4H 1.488 1_555 1_555
C7H C6H 1.396 1_555 1_555
C8H C7H 1.382 1_555 1_555
C9H C8H 1.378 1_555 1_555
C10H C9H 1.379 1_555 1_555
C11H C6H 1.396 1_555 1_555
H1H C3H 0.974 1_555 1_555
H2H C5H 1.015 1_555 1_555
H3H C7H 0.994 1_555 1_555
H4H C8H 1.064 1_555 1_555
H5H C9H 1.044 1_555 1_555
H6H C10H 1.007 1_555 1_555
H7H C11H 1.040 1_555 1_555
C5 C2D 1.416 1_555 1_555
C10 C11 1.389 1_555 1_555
C5D C2H 1.416 1_555 1_555
C10D C11D 1.389 1_555 1_555
C4H C5H 1.397 1_555 1_555
C10H C11H 1.389 1_555 1_555
#END
