
#######################################################################
#
#                 Cambridge Crystallographic Data Centre
#                                CCDC
#
#######################################################################
#
# If this CIF has been generated from an entry in the Cambridge
# Structural Database, then it will include bibliographic, chemical,
# crystal, experimental, refinement or atomic coordinate data resulting
# from the CCDC's data processing and validation procedures.
#
#######################################################################

data_CSD_CIF_FIKWUU
_audit_creation_date 2018-09-03
_audit_creation_method CSD-ConQuest-V1
_database_code_CSD FIKWUU
_database_code_depnum_ccdc_archive 'CCDC 1830411'
_chemical_formula_sum 'C42 H24'
_chemical_formula_moiety
;
C42 H24
;
_journal_coden_Cambridge 1220
_journal_volume 24
_journal_year 2018
_journal_page_first 8548
_journal_name_full 'Chem.-Eur.J. '
loop_
_publ_author_name
"A.Konishi"
"A.Morinaga"
"M.Yasuda"
_chemical_name_systematic
;
15,16-diphenylbenzo[5,6]azuleno[7,8,1,2-defg]benzo[op]tetracene
;
_chemical_melting_point 564.45
_cell_volume   1299.165
_exptl_crystal_colour 'metallic light orange'
_exptl_crystal_density_diffrn 1.351
_exptl_special_details
;
Melting point range 564.45-565.25K

;
_exptl_crystal_description 'block'
_exptl_crystal_preparation 'dichloromethane/acetonitrile'
_diffrn_ambient_temperature 123
#These two values have been output from a single CSD field.
_refine_ls_R_factor_gt 0.0419
_refine_ls_wR_factor_gt 0.0419
_symmetry_cell_setting triclinic
_symmetry_space_group_name_H-M 'P -1'
_symmetry_Int_Tables_number 2
loop_
_symmetry_equiv_pos_site_id
_symmetry_equiv_pos_as_xyz
1 x,y,z
2 -x,-y,-z
_cell_length_a 10.1878(4)
_cell_length_b 10.7553(4)
_cell_length_c 13.0588(5)
_cell_angle_alpha 73.895(3)
_cell_angle_beta 75.381(3)
_cell_angle_gamma 74.351(3)
_cell_formula_units_Z 2
loop_
_atom_type_symbol
_atom_type_radius_bond
C 0.68
H 0.23
loop_
_atom_site_label
_atom_site_type_symbol
_atom_site_fract_x
_atom_site_fract_y
_atom_site_fract_z
C1 C 0.80353(12) 1.00632(12) 0.62897(10)
C2 C 0.87111(14) 0.97897(13) 0.71547(11)
H1 H 0.84080 1.03360 0.76660
C3 C 0.98385(14) 0.87096(13) 0.72718(11)
H2 H 1.02860 0.85300 0.78690
C4 C 1.03147(13) 0.79007(12) 0.65421(11)
H3 H 1.10940 0.71870 0.66360
C5 C 0.96606(12) 0.81184(11) 0.56576(10)
C6 C 1.01081(12) 0.73171(11) 0.48439(10)
C7 C 1.12907(13) 0.62747(13) 0.48930(11)
H4 H 1.17700 0.60760 0.54750
C8 C 1.17613(14) 0.55425(13) 0.41136(11)
H5 H 1.25880 0.48730 0.41370
C9 C 1.10291(14) 0.57811(13) 0.32907(11)
H6 H 1.13670 0.52600 0.27600
C10 C 0.98135(13) 0.67582(12) 0.32129(10)
C11 C 0.93839(12) 0.75992(11) 0.39622(10)
C12 C 0.82768(12) 0.87503(11) 0.38736(9)
C13 C 0.78956(12) 0.94907(11) 0.46474(10)
C14 C 0.85198(12) 0.92079(11) 0.55567(10)
C15 C 0.68317(12) 1.11873(11) 0.60987(10)
C16 C 0.61830(14) 1.19104(13) 0.68990(11)
H7 H 0.65230 1.16710 0.75560
C17 C 0.50635(15) 1.29620(14) 0.67614(11)
H8 H 0.46410 1.34320 0.73200
C18 C 0.45590(15) 1.33284(14) 0.58057(12)
H9 H 0.38010 1.40620 0.57010
C19 C 0.51628(14) 1.26212(13) 0.50031(11)
H10 H 0.48060 1.28760 0.43520
C20 C 0.62912(12) 1.15354(12) 0.51304(10)
C21 C 0.90532(12) 0.68032(12) 0.23672(10)
C22 C 0.92092(14) 0.55730(12) 0.21083(11)
H11 H 0.96200 0.47910 0.25700
C23 C 0.87964(15) 0.54469(13) 0.12203(12)
H12 H 0.89150 0.45970 0.10840
C24 C 0.82069(15) 0.65747(15) 0.05309(12)
H13 H 0.79700 0.65160 -0.01100
C25 C 0.79683(14) 0.77902(13) 0.07915(11)
H14 H 0.75600 0.85590 0.03160
C26 C 0.83025(12) 0.79437(12) 0.17306(10)
C27 C 0.69024(12) 1.07027(11) 0.43378(9)
C28 C 0.67549(12) 1.07921(11) 0.33011(9)
C29 C 0.57988(12) 1.18920(11) 0.26940(9)
C30 C 0.44233(12) 1.18130(12) 0.28097(10)
H15 H 0.41120 1.10480 0.32620
C31 C 0.35003(12) 1.28359(13) 0.22731(11)
H16 H 0.25650 1.27690 0.23630
C32 C 0.39446(13) 1.39537(12) 0.16068(10)
H17 H 0.33230 1.46420 0.12220
C33 C 0.53022(13) 1.40639(12) 0.15039(10)
H18 H 0.56030 1.48380 0.10610
C34 C 0.62234(12) 1.30411(12) 0.20488(10)
H19 H 0.71480 1.31260 0.19810
C35 C 0.75927(11) 0.95629(11) 0.29588(9)
C36 C 0.77703(11) 0.92781(11) 0.19683(10)
C37 C 0.73611(12) 1.03839(11) 0.10313(9)
C38 C 0.60594(13) 1.06952(12) 0.07515(10)
H20 H 0.53810 1.01990 0.11620
C39 C 0.57497(14) 1.17263(13) -0.01234(11)
H21 H 0.48570 1.19400 -0.03050
C40 C 0.67388(15) 1.24465(13) -0.07341(10)
H22 H 0.65250 1.31510 -0.13340
C41 C 0.80387(14) 1.21344(13) -0.04658(10)
H23 H 0.87180 1.26260 -0.08810
C42 C 0.83490(13) 1.11040(12) 0.04091(10)
H24 H 0.92460 1.08880 0.05850
loop_
_geom_bond_atom_site_label_1
_geom_bond_atom_site_label_2
_geom_bond_distance
_geom_bond_site_symmetry_1
_geom_bond_site_symmetry_2
C1 C2 1.391 1_555 1_555
C2 H1 0.950 1_555 1_555
C3 C2 1.401 1_555 1_555
H2 C3 0.950 1_555 1_555
C4 C3 1.378 1_555 1_555
H3 C4 0.950 1_555 1_555
C5 C4 1.410 1_555 1_555
C6 C5 1.460 1_555 1_555
C7 C6 1.408 1_555 1_555
H4 C7 0.950 1_555 1_555
C8 C7 1.371 1_555 1_555
H5 C8 0.950 1_555 1_555
C9 C8 1.388 1_555 1_555
H6 C9 0.951 1_555 1_555
C10 C9 1.397 1_555 1_555
C11 C6 1.441 1_555 1_555
C12 C11 1.432 1_555 1_555
C13 C12 1.374 1_555 1_555
C14 C1 1.418 1_555 1_555
C15 C1 1.488 1_555 1_555
C16 C15 1.400 1_555 1_555
H7 C16 0.950 1_555 1_555
C17 C16 1.381 1_555 1_555
H8 C17 0.950 1_555 1_555
C18 C17 1.385 1_555 1_555
H9 C18 0.950 1_555 1_555
C19 C18 1.386 1_555 1_555
H10 C19 0.950 1_555 1_555
C20 C15 1.421 1_555 1_555
C21 C10 1.485 1_555 1_555
C22 C21 1.413 1_555 1_555
H11 C22 0.950 1_555 1_555
C23 C22 1.380 1_555 1_555
H12 C23 0.950 1_555 1_555
C24 C23 1.384 1_555 1_555
H13 C24 0.950 1_555 1_555
C25 C24 1.385 1_555 1_555
H14 C25 0.950 1_555 1_555
C26 C21 1.425 1_555 1_555
C27 C13 1.445 1_555 1_555
C28 C27 1.374 1_555 1_555
C29 C28 1.492 1_555 1_555
C30 C29 1.394 1_555 1_555
H15 C30 0.950 1_555 1_555
C31 C30 1.390 1_555 1_555
H16 C31 0.950 1_555 1_555
C32 C31 1.386 1_555 1_555
H17 C32 0.950 1_555 1_555
C33 C32 1.390 1_555 1_555
H18 C33 0.950 1_555 1_555
C34 C29 1.397 1_555 1_555
H19 C34 0.950 1_555 1_555
C35 C12 1.480 1_555 1_555
C36 C26 1.481 1_555 1_555
C37 C36 1.506 1_555 1_555
C38 C37 1.393 1_555 1_555
H20 C38 0.950 1_555 1_555
C39 C38 1.387 1_555 1_555
H21 C39 0.950 1_555 1_555
C40 C39 1.387 1_555 1_555
H22 C40 0.950 1_555 1_555
C41 C40 1.385 1_555 1_555
H23 C41 0.949 1_555 1_555
C42 C37 1.390 1_555 1_555
H24 C42 0.951 1_555 1_555
C5 C14 1.414 1_555 1_555
C10 C11 1.424 1_555 1_555
C13 C14 1.408 1_555 1_555
C19 C20 1.406 1_555 1_555
C20 C27 1.466 1_555 1_555
C25 C26 1.414 1_555 1_555
C28 C35 1.484 1_555 1_555
C33 C34 1.394 1_555 1_555
C35 C36 1.368 1_555 1_555
C41 C42 1.387 1_555 1_555
#END
