
#######################################################################
#
#                 Cambridge Crystallographic Data Centre
#                                CCDC
#
#######################################################################
#
# If this CIF has been generated from an entry in the Cambridge
# Structural Database, then it will include bibliographic, chemical,
# crystal, experimental, refinement or atomic coordinate data resulting
# from the CCDC's data processing and validation procedures.
#
#######################################################################

data_CSD_CIF_FUPGOO
_audit_creation_date 2015-09-09
_audit_creation_method CSD-ConQuest-V1
_database_code_CSD FUPGOO
_database_code_depnum_ccdc_archive 'CCDC 1061674'
_chemical_formula_sum 'C30 H18'
_chemical_formula_moiety
;
C30 H18
;
_journal_coden_Cambridge 179
_journal_volume 54
_journal_year 2015
_journal_page_first 9308
_journal_name_full 'Angew.Chem.,Int.Ed. '
loop_
_publ_author_name
"Chaolumen"
"M.Murata"
"Y.Sugano"
"A.Wakamiya"
"Y.Murata"
_chemical_name_systematic
;
9-phenylindeno[1,2,3-fg]tetracene
;
_cell_volume   1830.356
_exptl_crystal_colour 'dark red'
_exptl_crystal_density_diffrn 1.373
_exptl_crystal_description 'needle'
_diffrn_ambient_temperature 100
#These two values have been output from a single CSD field.
_refine_ls_R_factor_gt 0.0412
_refine_ls_wR_factor_gt 0.0412
_symmetry_cell_setting monoclinic
_symmetry_space_group_name_H-M 'P 21/n'
_symmetry_Int_Tables_number 14
loop_
_symmetry_equiv_pos_site_id
_symmetry_equiv_pos_as_xyz
1 x,y,z
2 1/2-x,1/2+y,1/2-z
3 -x,-y,-z
4 -1/2+x,-1/2-y,-1/2+z
_cell_length_a 8.0531(6)
_cell_length_b 12.3414(10)
_cell_length_c 18.4991(15)
_cell_angle_alpha 90
_cell_angle_beta 95.415(1)
_cell_angle_gamma 90
_cell_formula_units_Z 4
loop_
_atom_type_symbol
_atom_type_radius_bond
C 0.68
H 0.23
loop_
_atom_site_label
_atom_site_type_symbol
_atom_site_fract_x
_atom_site_fract_y
_atom_site_fract_z
C1 C 0.62693(19) 0.01836(13) 0.23237(8)
H1 H 0.66490 0.07770 0.26230
C2 C 0.6810(2) -0.08277(13) 0.25061(9)
H2 H 0.75650 -0.09360 0.29260
C3 C 0.6252(2) -0.17218(13) 0.20716(9)
H3 H 0.66350 -0.24290 0.22030
C4 C 0.5178(2) -0.15830(12) 0.14688(9)
H4 H 0.48130 -0.21980 0.11890
C5 C 0.35174(18) -0.03295(12) 0.06164(8)
C6 C 0.19885(18) 0.08077(12) -0.02018(8)
C7 C 0.0338(2) 0.19790(13) -0.10971(9)
H5 H 0.00090 0.13690 -0.13890
C8 C -0.0225(2) 0.29776(14) -0.13104(9)
H6 H -0.09390 0.30580 -0.17460
C9 C 0.0250(2) 0.38961(14) -0.08841(9)
H7 H -0.01530 0.45910 -0.10360
C10 C 0.1268(2) 0.38006(13) -0.02642(9)
H8 H 0.15650 0.44330 0.00110
C11 C 0.29525(19) 0.26798(12) 0.06434(8)
C12 C 0.46202(18) 0.14294(12) 0.15121(8)
H9 H 0.50070 0.20130 0.18180
C13 C 0.51404(18) 0.03831(12) 0.16921(8)
C14 C 0.45838(18) -0.05371(12) 0.12460(8)
C15 C 0.30336(18) 0.07430(12) 0.04496(8)
C16 C 0.14078(19) 0.18221(13) -0.04468(8)
C17 C 0.19157(19) 0.27697(12) -0.00092(8)
C18 C 0.35382(19) 0.16471(12) 0.08892(8)
C19 C 0.27187(18) -0.10064(12) 0.00255(8)
C20 C 0.27351(19) -0.21193(12) -0.00973(9)
H10 H 0.33570 -0.25860 0.02350
C21 C 0.1835(2) -0.25383(13) -0.07083(9)
H11 H 0.18410 -0.32970 -0.07940
C22 C 0.0930(2) -0.18645(13) -0.11941(9)
H12 H 0.03250 -0.21660 -0.16120
C23 C 0.08887(19) -0.07558(13) -0.10815(9)
H13 H 0.02540 -0.03010 -0.14170
C24 C 0.17823(18) -0.03155(12) -0.04739(8)
C25 C 0.34256(19) 0.36598(12) 0.10919(8)
C26 C 0.4531(2) 0.44207(12) 0.08623(9)
H14 H 0.50210 0.43070 0.04210
C27 C 0.4930(2) 0.53421(12) 0.12680(9)
H15 H 0.56820 0.58590 0.11020
C28 C 0.4238(2) 0.55128(13) 0.19122(9)
H16 H 0.44940 0.61530 0.21850
C29 C 0.3175(2) 0.47506(13) 0.21593(9)
H17 H 0.27180 0.48590 0.26090
C30 C 0.2771(2) 0.38280(13) 0.17552(9)
H18 H 0.20430 0.33050 0.19310
loop_
_geom_bond_atom_site_label_1
_geom_bond_atom_site_label_2
_geom_bond_distance
_geom_bond_site_symmetry_1
_geom_bond_site_symmetry_2
C1 H1 0.951 1_555 1_555
C2 C1 1.354 1_555 1_555
H2 C2 0.950 1_555 1_555
C3 C2 1.413 1_555 1_555
H3 C3 0.950 1_555 1_555
C4 C3 1.356 1_555 1_555
H4 C4 0.950 1_555 1_555
C5 C14 1.404 1_555 1_555
C6 C15 1.405 1_555 1_555
C7 H5 0.949 1_555 1_555
C8 C7 1.359 1_555 1_555
H6 C8 0.950 1_555 1_555
C9 C8 1.413 1_555 1_555
H7 C9 0.950 1_555 1_555
C10 C9 1.350 1_555 1_555
H8 C10 0.950 1_555 1_555
C11 C17 1.406 1_555 1_555
C12 H9 0.950 1_555 1_555
C13 C1 1.432 1_555 1_555
C14 C4 1.424 1_555 1_555
C15 C5 1.406 1_555 1_555
C16 C6 1.397 1_555 1_555
C17 C10 1.438 1_555 1_555
C18 C11 1.419 1_555 1_555
C19 C5 1.474 1_555 1_555
C20 C19 1.392 1_555 1_555
H10 C20 0.950 1_555 1_555
C21 C20 1.384 1_555 1_555
H11 C21 0.950 1_555 1_555
C22 C21 1.381 1_555 1_555
H12 C22 0.950 1_555 1_555
C23 C22 1.385 1_555 1_555
H13 C23 0.950 1_555 1_555
C24 C6 1.479 1_555 1_555
C25 C11 1.496 1_555 1_555
C26 C25 1.388 1_555 1_555
H14 C26 0.950 1_555 1_555
C27 C26 1.384 1_555 1_555
H15 C27 0.950 1_555 1_555
C28 C27 1.379 1_555 1_555
H16 C28 0.950 1_555 1_555
C29 C28 1.379 1_555 1_555
H17 C29 0.950 1_555 1_555
C30 C25 1.396 1_555 1_555
H18 C30 0.950 1_555 1_555
C7 C16 1.425 1_555 1_555
C12 C13 1.388 1_555 1_555
C12 C18 1.403 1_555 1_555
C13 C14 1.450 1_555 1_555
C15 C18 1.417 1_555 1_555
C16 C17 1.459 1_555 1_555
C19 C24 1.420 1_555 1_555
C23 C24 1.387 1_555 1_555
C29 C30 1.384 1_555 1_555
#END
