
#######################################################################
#
#                 Cambridge Crystallographic Data Centre
#                                CCDC
#
#######################################################################
#
# If this CIF has been generated from an entry in the Cambridge
# Structural Database, then it will include bibliographic, chemical,
# crystal, experimental, refinement or atomic coordinate data resulting
# from the CCDC's data processing and validation procedures.
#
#######################################################################

data_CSD_CIF_GIJROI
_audit_creation_date 2013-09-12
_audit_creation_method CSD-ConQuest-V1
_database_code_CSD GIJROI
_database_code_depnum_ccdc_archive 'CCDC 881424'
_chemical_formula_sum 'C38 H24'
_chemical_formula_moiety
;
C38 H24
;
_journal_coden_Cambridge 16
_journal_volume 69
_journal_year 2013
_journal_page_first 4371
_journal_name_full 'Tetrahedron '
loop_
_publ_author_name
"K.Kawasumi"
"K.Mochida"
"Y.Segawa"
"K.Itami"
_chemical_name_systematic
;
3,4,9-Triphenylperylene
;
_cell_volume   2331.660
_exptl_crystal_colour 'yellow'
_exptl_crystal_density_diffrn 1.369
_exptl_crystal_description 'Platelet'
_diffrn_ambient_temperature 103
#These two values have been output from a single CSD field.
_refine_ls_R_factor_gt 0.0689
_refine_ls_wR_factor_gt 0.0689
_symmetry_cell_setting orthorhombic
_symmetry_space_group_name_H-M 'P c a 21'
_symmetry_Int_Tables_number 29
loop_
_symmetry_equiv_pos_site_id
_symmetry_equiv_pos_as_xyz
1 x,y,z
2 -x,-y,1/2+z
3 1/2-x,y,1/2+z
4 1/2+x,-y,z
_cell_length_a 9.162(2)
_cell_length_b 18.927(5)
_cell_length_c 13.446(3)
_cell_angle_alpha 90
_cell_angle_beta 90
_cell_angle_gamma 90
_cell_formula_units_Z 4
loop_
_atom_type_symbol
_atom_type_radius_bond
C 0.68
H 0.23
loop_
_atom_site_label
_atom_site_type_symbol
_atom_site_fract_x
_atom_site_fract_y
_atom_site_fract_z
C1 C 0.5354(6) 0.6067(2) 0.3929(3)
H1 H 0.58500 0.57820 0.44030
C2 C 0.5305(5) 0.6791(3) 0.4059(4)
H2 H 0.57010 0.69870 0.46500
C3 C 0.4706(5) 0.7238(2) 0.3367(4)
C4 C 0.4157(5) 0.6945(2) 0.2451(3)
C5 C 0.3760(5) 0.7361(2) 0.1589(3)
C6 C 0.2982(5) 0.7025(2) 0.0837(3)
H3 H 0.26450 0.72980 0.02910
C7 C 0.2680(5) 0.6304(2) 0.0856(3)
H4 H 0.20950 0.61040 0.03460
C8 C 0.3210(5) 0.5876(2) 0.1597(3)
C9 C 0.3998(5) 0.6191(2) 0.2395(3)
C10 C 0.4685(5) 0.5749(2) 0.3113(3)
C11 C 0.4672(5) 0.4984(2) 0.3002(3)
C12 C 0.5512(5) 0.4544(2) 0.3597(3)
H5 H 0.61350 0.47480 0.40840
C13 C 0.5463(5) 0.3813(2) 0.3498(3)
H6 H 0.60820 0.35320 0.39050
C14 C 0.4553(5) 0.3483(2) 0.2835(3)
C15 C 0.3674(5) 0.3915(2) 0.2185(3)
C16 C 0.2671(5) 0.3629(2) 0.1498(4)
H7 H 0.25510 0.31310 0.14620
C17 C 0.1870(5) 0.4051(2) 0.0884(4)
H8 H 0.11920 0.38440 0.04350
C18 C 0.2037(5) 0.4783(2) 0.0910(4)
H9 H 0.14870 0.50700 0.04670
C19 C 0.2994(5) 0.5098(2) 0.1571(3)
C20 C 0.3776(5) 0.4669(2) 0.2253(3)
C21 C 0.4570(5) 0.8005(2) 0.3646(3)
C22 C 0.5719(6) 0.8353(3) 0.4103(4)
H10 H 0.65830 0.81000 0.42620
C23 C 0.5626(6) 0.9060(3) 0.4328(4)
H11 H 0.64350 0.92920 0.46250
C24 C 0.4378(7) 0.9434(3) 0.4130(4)
H12 H 0.43220 0.99230 0.42810
C25 C 0.3203(6) 0.9090(3) 0.3708(4)
H13 H 0.23280 0.93440 0.35820
C26 C 0.3279(6) 0.8385(2) 0.3467(3)
H14 H 0.24600 0.81550 0.31800
C27 C 0.4223(5) 0.8105(2) 0.1434(3)
C28 C 0.5641(6) 0.8339(2) 0.1651(4)
H15 H 0.63490 0.80080 0.18720
C29 C 0.6029(6) 0.9043(2) 0.1550(4)
H16 H 0.69890 0.91930 0.17130
C30 C 0.5011(6) 0.9523(3) 0.1210(4)
H17 H 0.52640 1.00080 0.11610
C31 C 0.3634(6) 0.9305(2) 0.0943(4)
H18 H 0.29450 0.96340 0.06900
C32 C 0.3261(6) 0.8595(2) 0.1047(3)
H19 H 0.23170 0.84430 0.08460
C33 C 0.4514(5) 0.2701(2) 0.2821(4)
C34 C 0.4421(5) 0.2323(3) 0.3712(4)
H20 H 0.43550 0.25760 0.43200
C35 C 0.4422(6) 0.1601(3) 0.3739(4)
H21 H 0.43370 0.13610 0.43560
C36 C 0.4547(6) 0.1216(3) 0.2853(4)
H22 H 0.45580 0.07140 0.28630
C37 C 0.4656(6) 0.1576(3) 0.1969(4)
H23 H 0.47280 0.13180 0.13650
C38 C 0.4662(5) 0.2307(3) 0.1941(4)
H24 H 0.47660 0.25440 0.13220
loop_
_geom_bond_atom_site_label_1
_geom_bond_atom_site_label_2
_geom_bond_distance
_geom_bond_site_symmetry_1
_geom_bond_site_symmetry_2
C1 H1 0.951 1_555 1_555
C2 C1 1.382 1_555 1_555
H2 C2 0.949 1_555 1_555
C3 C2 1.372 1_555 1_555
C4 C3 1.441 1_555 1_555
C5 C4 1.448 1_555 1_555
C6 C5 1.391 1_555 1_555
H3 C6 0.949 1_555 1_555
C7 C6 1.393 1_555 1_555
H4 C7 0.949 1_555 1_555
C8 C7 1.373 1_555 1_555
C9 C4 1.436 1_555 1_555
C10 C1 1.393 1_555 1_555
C11 C10 1.456 1_555 1_555
C12 C11 1.388 1_555 1_555
H5 C12 0.951 1_555 1_555
C13 C12 1.391 1_555 1_555
H6 C13 0.951 1_555 1_555
C14 C13 1.371 1_555 1_555
C15 C14 1.443 1_555 1_555
C16 C15 1.411 1_555 1_555
H7 C16 0.950 1_555 1_555
C17 C16 1.363 1_555 1_555
H8 C17 0.951 1_555 1_555
C18 C17 1.394 1_555 1_555
H9 C18 0.951 1_555 1_555
C19 C8 1.486 1_555 1_555
C20 C11 1.430 1_555 1_555
C21 C3 1.505 1_555 1_555
C22 C21 1.386 1_555 1_555
H10 C22 0.950 1_555 1_555
C23 C22 1.375 1_555 1_555
H11 C23 0.950 1_555 1_555
C24 C23 1.371 1_555 1_555
H12 C24 0.949 1_555 1_555
C25 C24 1.380 1_555 1_555
H13 C25 0.950 1_555 1_555
C26 C21 1.405 1_555 1_555
H14 C26 0.949 1_555 1_555
C27 C5 1.485 1_555 1_555
C28 C27 1.403 1_555 1_555
H15 C28 0.950 1_555 1_555
C29 C28 1.386 1_555 1_555
H16 C29 0.950 1_555 1_555
C30 C29 1.380 1_555 1_555
H17 C30 0.949 1_555 1_555
C31 C30 1.375 1_555 1_555
H18 C31 0.950 1_555 1_555
C32 C27 1.381 1_555 1_555
H19 C32 0.951 1_555 1_555
C33 C14 1.481 1_555 1_555
C34 C33 1.398 1_555 1_555
H20 C34 0.949 1_555 1_555
C35 C34 1.367 1_555 1_555
H21 C35 0.949 1_555 1_555
C36 C35 1.401 1_555 1_555
H22 C36 0.950 1_555 1_555
C37 C36 1.374 1_555 1_555
H23 C37 0.950 1_555 1_555
C38 C33 1.405 1_555 1_555
H24 C38 0.950 1_555 1_555
C8 C9 1.424 1_555 1_555
C9 C10 1.424 1_555 1_555
C15 C20 1.433 1_555 1_555
C18 C19 1.384 1_555 1_555
C19 C20 1.419 1_555 1_555
C25 C26 1.375 1_555 1_555
C31 C32 1.394 1_555 1_555
C37 C38 1.384 1_555 1_555
#END
