
#######################################################################
#
#                 Cambridge Crystallographic Data Centre
#                                CCDC
#
#######################################################################
#
# If this CIF has been generated from an entry in the Cambridge
# Structural Database, then it will include bibliographic, chemical,
# crystal, experimental, refinement or atomic coordinate data resulting
# from the CCDC's data processing and validation procedures.
#
#######################################################################

data_CSD_CIF_GUMZUK
_audit_creation_date 2010-10-03
_audit_creation_method CSD-ConQuest-V1
_database_code_CSD GUMZUK
_database_code_depnum_ccdc_archive 'CCDC 723052'
_chemical_formula_sum 'C30 H36'
_chemical_formula_moiety
;
C30 H36
;
_journal_coden_Cambridge 1220
_journal_volume 16
_journal_year 2010
_journal_page_first 890
_journal_name_full 'Chem.-Eur.J. '
loop_
_publ_author_name
"C.Kitamura"
"Y.Abe"
"T.Ohara"
"A.Yoneda"
"T.Kawase"
"T.Kobayashi"
"H.Naito"
"T.Komatsu"
_chemical_name_systematic
;
1,4,7,10-Tetrapropyltetracene
;
_chemical_melting_point 467
_cell_volume    565.545
_exptl_crystal_colour 'orange'
_exptl_crystal_density_diffrn 1.164
_exptl_crystal_description 'needle'
_diffrn_ambient_temperature 223.2
#These two values have been output from a single CSD field.
_refine_ls_R_factor_gt 0.0761
_refine_ls_wR_factor_gt 0.0761
_symmetry_cell_setting triclinic
_symmetry_space_group_name_H-M 'P -1'
_symmetry_Int_Tables_number 2
loop_
_symmetry_equiv_pos_site_id
_symmetry_equiv_pos_as_xyz
1 x,y,z
2 -x,-y,-z
_cell_length_a 5.058(4)
_cell_length_b 9.292(8)
_cell_length_c 12.80(1)
_cell_angle_alpha 103.76(2)
_cell_angle_beta 90.45(4)
_cell_angle_gamma 104.02(2)
_cell_formula_units_Z 1
loop_
_atom_type_symbol
_atom_type_radius_bond
C 0.68
H 0.23
loop_
_atom_site_label
_atom_site_type_symbol
_atom_site_fract_x
_atom_site_fract_y
_atom_site_fract_z
C1 C 0.8055(4) 0.4654(2) 0.2956(2)
C2 C 0.8726(5) 0.3677(2) 0.3486(2)
C3 C 1.0219(4) 0.2594(2) 0.3019(2)
C4 C 1.1139(4) 0.2488(2) 0.2015(2)
C5 C 1.0538(4) 0.3531(2) 0.1409(1)
C6 C 0.8947(4) 0.4601(2) 0.1874(1)
C7 C 0.8293(4) 0.5536(2) 0.1266(1)
C8 C 0.9186(4) 0.5513(2) 0.0222(1)
C9 C 1.1446(4) 0.3523(2) 0.0387(2)
C10 C 0.6459(4) 0.5775(2) 0.3478(2)
C11 C 0.8190(5) 0.7412(2) 0.3900(2)
C12 C 0.6504(6) 0.8509(3) 0.4406(2)
C13 C 1.2684(5) 0.1339(2) 0.1499(2)
C14 C 1.3003(5) 0.0178(3) 0.2121(2)
C15 C 1.4542(6) -0.0936(3) 0.1501(2)
H1 H 0.813(4) 0.372(2) 0.419(2)
H2 H 1.060(4) 0.193(2) 0.345(2)
H3 H 0.717(4) 0.624(2) 0.154(2)
H4 H 1.255(4) 0.283(2) 0.008(2)
H5 H 0.562(4) 0.544(2) 0.408(2)
H6 H 0.496(5) 0.576(3) 0.296(2)
H7 H 0.962(5) 0.741(3) 0.444(2)
H8 H 0.922(4) 0.775(2) 0.329(2)
H9 H 0.548(6) 0.822(3) 0.504(2)
H10 H 0.512(5) 0.849(3) 0.388(2)
H11 H 0.762(6) 0.961(3) 0.464(2)
H12 H 1.462(5) 0.192(2) 0.135(2)
H13 H 1.180(4) 0.076(2) 0.082(2)
H14 H 1.407(5) 0.075(3) 0.283(2)
H15 H 1.115(5) -0.039(3) 0.227(2)
H16 H 1.637(6) -0.041(3) 0.139(2)
H17 H 1.472(6) -0.176(4) 0.187(3)
H18 H 1.354(6) -0.151(3) 0.080(3)
C1A C 1.1945(4) 0.5346(2) -0.2956(2)
C2A C 1.1274(5) 0.6323(2) -0.3486(2)
C3A C 0.9781(4) 0.7406(2) -0.3019(2)
C4A C 0.8861(4) 0.7512(2) -0.2015(2)
C5A C 0.9462(4) 0.6469(2) -0.1409(1)
C6A C 1.1053(4) 0.5399(2) -0.1874(1)
C7A C 1.1707(4) 0.4464(2) -0.1266(1)
C8A C 1.0814(4) 0.4487(2) -0.0222(1)
C9A C 0.8554(4) 0.6477(2) -0.0387(2)
C10A C 1.3541(4) 0.4225(2) -0.3478(2)
C11A C 1.1810(5) 0.2588(2) -0.3900(2)
C12A C 1.3496(6) 0.1491(3) -0.4406(2)
C13A C 0.7316(5) 0.8661(2) -0.1499(2)
C14A C 0.6997(5) 0.9822(3) -0.2121(2)
C15A C 0.5458(6) 1.0936(3) -0.1501(2)
H1A H 1.187(4) 0.628(2) -0.419(2)
H2A H 0.940(4) 0.807(2) -0.345(2)
H3A H 1.283(4) 0.376(2) -0.154(2)
H4A H 0.745(4) 0.717(2) -0.008(2)
H5A H 1.438(4) 0.456(2) -0.408(2)
H6A H 1.504(5) 0.424(3) -0.296(2)
H7A H 1.038(5) 0.259(3) -0.444(2)
H8A H 1.078(4) 0.225(2) -0.329(2)
H9A H 1.452(6) 0.178(3) -0.504(2)
H10A H 1.488(5) 0.151(3) -0.388(2)
H11A H 1.238(6) 0.039(3) -0.464(2)
H12A H 0.538(5) 0.808(2) -0.135(2)
H13A H 0.820(4) 0.924(2) -0.082(2)
H14A H 0.593(5) 0.925(3) -0.283(2)
H15A H 0.885(5) 1.039(3) -0.227(2)
H16A H 0.363(6) 1.041(3) -0.139(2)
H17A H 0.528(6) 1.176(4) -0.187(3)
H18A H 0.646(6) 1.151(3) -0.080(3)
loop_
_geom_bond_atom_site_label_1
_geom_bond_atom_site_label_2
_geom_bond_distance
_geom_bond_site_symmetry_1
_geom_bond_site_symmetry_2
C1 C2 1.356 1_555 1_555
C2 C3 1.425 1_555 1_555
C3 C4 1.360 1_555 1_555
C4 C5 1.459 1_555 1_555
C5 C6 1.451 1_555 1_555
C6 C1 1.453 1_555 1_555
C7 C6 1.388 1_555 1_555
C8 C7 1.411 1_555 1_555
C9 C5 1.389 1_555 1_555
C10 C1 1.506 1_555 1_555
C11 C10 1.526 1_555 1_555
C12 C11 1.517 1_555 1_555
C13 C4 1.505 1_555 1_555
C14 C13 1.521 1_555 1_555
C15 C14 1.522 1_555 1_555
H1 C2 0.947 1_555 1_555
H2 C3 0.970 1_555 1_555
H3 C7 0.973 1_555 1_555
H4 C9 0.969 1_555 1_555
H5 C10 0.962 1_555 1_555
H6 C10 0.999 1_555 1_555
H7 C11 0.997 1_555 1_555
H8 C11 1.012 1_555 1_555
H9 C12 1.021 1_555 1_555
H10 C12 0.962 1_555 1_555
H11 C12 1.013 1_555 1_555
H12 C13 1.040 1_555 1_555
H13 C13 0.948 1_555 1_555
H14 C14 1.011 1_555 1_555
H15 C14 1.002 1_555 1_555
H16 C15 0.964 1_555 1_555
H17 C15 1.011 1_555 1_555
H18 C15 0.990 1_555 1_555
C1A C2A 1.356 1_555 1_555
C2A C3A 1.425 1_555 1_555
C3A C4A 1.360 1_555 1_555
C4A C5A 1.459 1_555 1_555
C5A C6A 1.451 1_555 1_555
C6A C1A 1.453 1_555 1_555
C7A C6A 1.388 1_555 1_555
C8A C8 1.428 1_555 1_555
C9A C8 1.407 1_555 1_555
C10A C1A 1.506 1_555 1_555
C11A C10A 1.526 1_555 1_555
C12A C11A 1.517 1_555 1_555
C13A C4A 1.505 1_555 1_555
C14A C13A 1.521 1_555 1_555
C15A C14A 1.522 1_555 1_555
H1A C2A 0.947 1_555 1_555
H2A C3A 0.970 1_555 1_555
H3A C7A 0.973 1_555 1_555
H4A C9A 0.969 1_555 1_555
H5A C10A 0.962 1_555 1_555
H6A C10A 0.999 1_555 1_555
H7A C11A 0.997 1_555 1_555
H8A C11A 1.012 1_555 1_555
H9A C12A 1.021 1_555 1_555
H10A C12A 0.962 1_555 1_555
H11A C12A 1.013 1_555 1_555
H12A C13A 1.040 1_555 1_555
H13A C13A 0.948 1_555 1_555
H14A C14A 1.011 1_555 1_555
H15A C14A 1.002 1_555 1_555
H16A C15A 0.964 1_555 1_555
H17A C15A 1.011 1_555 1_555
H18A C15A 0.990 1_555 1_555
C9 C8A 1.407 1_555 1_555
C5A C9A 1.389 1_555 1_555
C7A C8A 1.411 1_555 1_555
#END
