
#######################################################################
#
#                 Cambridge Crystallographic Data Centre
#                                CCDC
#
#######################################################################
#
# If this CIF has been generated from an entry in the Cambridge
# Structural Database, then it will include bibliographic, chemical,
# crystal, experimental, refinement or atomic coordinate data resulting
# from the CCDC's data processing and validation procedures.
#
#######################################################################

data_CSD_CIF_HPTHEL04
_audit_creation_date 2017-04-25
_audit_creation_method CSD-ConQuest-V1
_database_code_CSD HPTHEL04
_database_code_depnum_ccdc_archive 'CCDC 1521685'
_chemical_formula_sum 'C30 H18'
_chemical_formula_moiety
;
C30 H18
;
_journal_coden_Cambridge 171
_journal_volume 16
_journal_year 2017
_journal_page_first 925
_journal_name_full 'Photochem.Photobiol.Sci. '
loop_
_publ_author_name
"Shota Fujino"
"M.Yamaji"
"H.Okamoto"
"T.Mutai"
"Isao Yoshikawa"
"H.Houjou"
"F.Tani"
_chemical_name_systematic
;
heptahelicene
;
_chemical_melting_point 528
_cell_volume   1891.343
_exptl_crystal_colour 'colorless'
_exptl_crystal_density_diffrn 1.329
_exptl_special_details
;
Melting point range 528-529K

;
_exptl_crystal_description 'prism'
_diffrn_ambient_temperature 93
#These two values have been output from a single CSD field.
_refine_ls_R_factor_gt 0.0518
_refine_ls_wR_factor_gt 0.0518
_symmetry_cell_setting monoclinic
_symmetry_space_group_name_H-M 'P 21/n'
_symmetry_Int_Tables_number 14
loop_
_symmetry_equiv_pos_site_id
_symmetry_equiv_pos_as_xyz
1 x,y,z
2 1/2-x,1/2+y,1/2-z
3 -x,-y,-z
4 -1/2+x,-1/2-y,-1/2+z
_cell_length_a 8.001(4)
_cell_length_b 11.525(6)
_cell_length_c 20.641(10)
_cell_angle_alpha 90
_cell_angle_beta 96.436(9)
_cell_angle_gamma 90
_cell_formula_units_Z 4
loop_
_atom_type_symbol
_atom_type_radius_bond
C 0.68
H 0.23
loop_
_atom_site_label
_atom_site_type_symbol
_atom_site_fract_x
_atom_site_fract_y
_atom_site_fract_z
C1 C 0.58051(17) 0.29186(11) 0.03076(6)
H1 H 0.51840 0.33400 0.05960
C2 C 0.60447(18) 0.33968(13) -0.02840(7)
H2 H 0.55820 0.41360 -0.04030
C3 C 0.69723(19) 0.27941(14) -0.07123(7)
H3 H 0.71900 0.31410 -0.11120
C4 C 0.7563(2) 0.17092(14) -0.05554(7)
H4 H 0.81770 0.13010 -0.08510
C5 C 0.72773(18) 0.11806(12) 0.00399(7)
C6 C 0.7707(2) -0.00090(13) 0.01638(8)
H5 H 0.83500 -0.04160 -0.01230
C7 C 0.7205(2) -0.05549(12) 0.06848(8)
H6 H 0.73750 -0.13680 0.07310
C8 C 0.64260(18) 0.00582(12) 0.11684(7)
C9 C 0.5838(2) -0.05503(12) 0.17012(8)
H7 H 0.60100 -0.13640 0.17410
C10 C 0.50403(18) 0.00184(13) 0.21477(7)
H8 H 0.45130 -0.04090 0.24620
C11 C 0.49803(17) 0.12511(13) 0.21531(7)
C12 C 0.41263(18) 0.18454(14) 0.26233(7)
H9 H 0.36150 0.14140 0.29400
C13 C 0.40350(19) 0.30157(15) 0.26236(7)
H10 H 0.33180 0.33940 0.28940
C14 C 0.49969(18) 0.36857(13) 0.22250(7)
C15 C 0.4927(2) 0.49217(14) 0.22352(7)
H11 H 0.42120 0.52970 0.25070
C16 C 0.5858(2) 0.55673(13) 0.18657(8)
H12 H 0.56810 0.63810 0.18330
C17 C 0.71022(19) 0.50391(12) 0.15248(7)
C18 C 0.8148(2) 0.57266(12) 0.11609(8)
H13 H 0.79430 0.65370 0.11210
C19 C 0.9412(2) 0.52592(12) 0.08736(7)
H14 H 1.00120 0.57210 0.05970
C20 C 0.98605(18) 0.40692(12) 0.09824(7)
C21 C 1.13159(18) 0.36019(13) 0.07532(7)
H15 H 1.19530 0.40670 0.04910
C22 C 1.18261(19) 0.24920(13) 0.09016(7)
H16 H 1.27760 0.21760 0.07270
C23 C 1.09354(17) 0.18253(12) 0.13140(7)
H17 H 1.13260 0.10710 0.14400
C24 C 0.95128(17) 0.22457(11) 0.15373(6)
H18 H 0.89400 0.17830 0.18230
C25 C 0.88708(17) 0.33597(11) 0.13517(6)
C26 C 0.73303(17) 0.38215(11) 0.15567(6)
C27 C 0.60510(17) 0.31216(11) 0.18130(6)
C28 C 0.57658(16) 0.18915(11) 0.16864(6)
C29 C 0.62301(16) 0.12746(11) 0.11224(6)
C30 C 0.64568(17) 0.18160(11) 0.05000(6)
loop_
_geom_bond_atom_site_label_1
_geom_bond_atom_site_label_2
_geom_bond_distance
_geom_bond_site_symmetry_1
_geom_bond_site_symmetry_2
C1 H1 0.951 1_555 1_555
C2 C1 1.373 1_555 1_555
H2 C2 0.950 1_555 1_555
C3 C2 1.401 1_555 1_555
H3 C3 0.950 1_555 1_555
C4 C3 1.363 1_555 1_555
H4 C4 0.950 1_555 1_555
C5 C4 1.413 1_555 1_555
C6 C5 1.430 1_555 1_555
H5 C6 0.950 1_555 1_555
C7 C6 1.346 1_555 1_555
H6 C7 0.950 1_555 1_555
C8 C7 1.423 1_555 1_555
C9 C8 1.428 1_555 1_555
H7 C9 0.950 1_555 1_555
C10 C9 1.348 1_555 1_555
H8 C10 0.950 1_555 1_555
C11 C10 1.422 1_555 1_555
C12 C11 1.424 1_555 1_555
H9 C12 0.950 1_555 1_555
C13 C12 1.351 1_555 1_555
H10 C13 0.950 1_555 1_555
C14 C13 1.417 1_555 1_555
C15 C14 1.426 1_555 1_555
H11 C15 0.949 1_555 1_555
C16 C15 1.348 1_555 1_555
H12 C16 0.950 1_555 1_555
C17 C16 1.419 1_555 1_555
C18 C17 1.426 1_555 1_555
H13 C18 0.950 1_555 1_555
C19 C18 1.341 1_555 1_555
H14 C19 0.949 1_555 1_555
C20 C19 1.429 1_555 1_555
C21 C20 1.412 1_555 1_555
H15 C21 0.950 1_555 1_555
C22 C21 1.367 1_555 1_555
H16 C22 0.949 1_555 1_555
C23 C22 1.400 1_555 1_555
H17 C23 0.950 1_555 1_555
C24 C23 1.364 1_555 1_555
H18 C24 0.950 1_555 1_555
C25 C20 1.418 1_555 1_555
C26 C17 1.416 1_555 1_555
C27 C14 1.421 1_555 1_555
C28 C11 1.415 1_555 1_555
C29 C8 1.413 1_555 1_555
C30 C1 1.413 1_555 1_555
C5 C30 1.417 1_555 1_555
C24 C25 1.419 1_555 1_555
C25 C26 1.449 1_555 1_555
C26 C27 1.449 1_555 1_555
C27 C28 1.455 1_555 1_555
C28 C29 1.448 1_555 1_555
C29 C30 1.458 1_555 1_555
#END
