
#######################################################################
#
#                 Cambridge Crystallographic Data Centre
#                                CCDC
#
#######################################################################
#
# If this CIF has been generated from an entry in the Cambridge
# Structural Database, then it will include bibliographic, chemical,
# crystal, experimental, refinement or atomic coordinate data resulting
# from the CCDC's data processing and validation procedures.
#
#######################################################################

data_CSD_CIF_IFIQOF
_audit_creation_date 2013-08-07
_audit_creation_method CSD-ConQuest-V1
_database_code_CSD IFIQOF
_database_code_depnum_ccdc_archive 'CCDC 954760'
_chemical_formula_sum 'C30 H18'
_chemical_formula_moiety
;
C30 H18
;
_journal_coden_Cambridge 4
_journal_volume 135
_journal_year 2013
_journal_page_first 7434
_journal_name_full 'J.Am.Chem.Soc. '
loop_
_publ_author_name
"J.Seibel"
"O.Allemann"
"J.S.Siegel"
"K.-H.Ernst"
_chemical_name_systematic
;
Dibenzo[f,l]pentahelicene
;
_cell_volume   1794.986
_exptl_crystal_colour 'colorless'
_exptl_crystal_density_diffrn 1.4
_exptl_crystal_description 'plate'
_diffrn_ambient_temperature 100
#These two values have been output from a single CSD field.
_refine_ls_R_factor_gt 0.0326
_refine_ls_wR_factor_gt 0.0326
_symmetry_cell_setting monoclinic
_symmetry_space_group_name_H-M 'P 21/n'
_symmetry_Int_Tables_number 14
loop_
_symmetry_equiv_pos_site_id
_symmetry_equiv_pos_as_xyz
1 x,y,z
2 1/2-x,1/2+y,1/2-z
3 -x,-y,-z
4 -1/2+x,-1/2-y,-1/2+z
_cell_length_a 19.3549(3)
_cell_length_b 5.12886(5)
_cell_length_c 19.9604(3)
_cell_angle_alpha 90
_cell_angle_beta 115.0553(19)
_cell_angle_gamma 90
_cell_formula_units_Z 4
loop_
_atom_type_symbol
_atom_type_radius_bond
C 0.68
H 0.23
loop_
_atom_site_label
_atom_site_type_symbol
_atom_site_fract_x
_atom_site_fract_y
_atom_site_fract_z
C1 C 0.87437(6) -0.0151(2) -0.00128(6)
H1 H 0.92090 0.00130 -0.00620
C2 C 0.82316(7) -0.2050(2) -0.04071(6)
H2 H 0.83460 -0.31900 -0.07210
C3 C 0.75438(7) -0.2301(2) -0.03456(6)
H3 H 0.71880 -0.36090 -0.06190
C4 C 0.73813(6) -0.0648(2) 0.01120(6)
H4 H 0.69110 -0.08290 0.01500
C5 C 0.77260(6) 0.3126(2) 0.09979(6)
C6 C 0.82937(6) 0.48615(19) 0.14649(5)
C7 C 0.98151(6) 0.6754(2) 0.27732(6)
C8 C 1.03494(6) 0.8637(2) 0.32059(6)
C9 C 1.12832(6) 1.2140(2) 0.32691(6)
H5 H 1.12640 1.28260 0.37030
C10 C 1.17743(6) 1.3226(2) 0.30112(6)
H6 H 1.20920 1.46450 0.32670
C11 C 1.18051(6) 1.2240(2) 0.23735(6)
H7 H 1.21510 1.29640 0.22000
C12 C 1.13336(6) 1.0217(2) 0.19945(6)
H8 H 1.13560 0.95710 0.15580
C13 C 1.03135(6) 0.5927(2) 0.11813(6)
H9 H 1.06990 0.64620 0.10350
C14 C 0.98063(6) 0.4048(2) 0.07857(6)
H10 H 0.98900 0.31090 0.04160
C15 C 0.91588(6) 0.3472(2) 0.09146(6)
C16 C 0.85941(6) 0.1559(2) 0.04636(5)
C17 C 0.78969(6) 0.1305(2) 0.05247(5)
C18 C 0.90602(6) 0.48150(19) 0.14830(5)
C19 C 0.96940(6) 0.62816(19) 0.20066(6)
C20 C 1.02746(6) 0.7089(2) 0.18059(6)
C21 C 1.08199(6) 0.9088(2) 0.22396(6)
C22 C 1.08088(6) 1.0026(2) 0.29008(6)
C23 C 1.04741(6) 0.8974(2) 0.39511(6)
H11 H 1.08130 1.03000 0.42380
C24 C 1.01163(7) 0.7425(2) 0.42691(6)
H12 H 1.02010 0.77000 0.47690
C25 C 0.96263(6) 0.5441(2) 0.38534(6)
H13 H 0.93940 0.43180 0.40770
C26 C 0.94794(6) 0.5112(2) 0.31217(6)
H14 H 0.91460 0.37570 0.28450
C27 C 0.80761(6) 0.6830(2) 0.18333(6)
H15 H 0.84420 0.80940 0.21180
C28 C 0.73466(6) 0.6963(2) 0.17901(6)
H16 H 0.72150 0.82960 0.20460
C29 C 0.68026(6) 0.5133(2) 0.13699(6)
H17 H 0.63070 0.51620 0.13580
C30 C 0.69878(6) 0.3280(2) 0.09718(6)
H18 H 0.66090 0.20790 0.06730
loop_
_geom_bond_atom_site_label_1
_geom_bond_atom_site_label_2
_geom_bond_distance
_geom_bond_site_symmetry_1
_geom_bond_site_symmetry_2
C1 H1 0.950 1_555 1_555
C2 C1 1.375 1_555 1_555
H2 C2 0.949 1_555 1_555
C3 C2 1.394 1_555 1_555
H3 C3 0.951 1_555 1_555
C4 C3 1.377 1_555 1_555
H4 C4 0.949 1_555 1_555
C5 C6 1.415 1_555 1_555
C6 C18 1.469 1_555 1_555
C7 C8 1.411 1_555 1_555
C8 C22 1.459 1_555 1_555
C9 H5 0.950 1_555 1_555
C10 C9 1.376 1_555 1_555
H6 C10 0.950 1_555 1_555
C11 C10 1.394 1_555 1_555
H7 C11 0.950 1_555 1_555
C12 C11 1.377 1_555 1_555
H8 C12 0.950 1_555 1_555
C13 H9 0.950 1_555 1_555
C14 C13 1.364 1_555 1_555
H10 C14 0.951 1_555 1_555
C15 C14 1.413 1_555 1_555
C16 C1 1.411 1_555 1_555
C17 C4 1.408 1_555 1_555
C18 C15 1.408 1_555 1_555
C19 C7 1.467 1_555 1_555
C20 C13 1.412 1_555 1_555
C21 C12 1.405 1_555 1_555
C22 C9 1.410 1_555 1_555
C23 C8 1.413 1_555 1_555
H11 C23 0.950 1_555 1_555
C24 C23 1.373 1_555 1_555
H12 C24 0.951 1_555 1_555
C25 C24 1.399 1_555 1_555
H13 C25 0.950 1_555 1_555
C26 C7 1.414 1_555 1_555
H14 C26 0.950 1_555 1_555
C27 C6 1.414 1_555 1_555
H15 C27 0.951 1_555 1_555
C28 C27 1.379 1_555 1_555
H16 C28 0.950 1_555 1_555
C29 C28 1.395 1_555 1_555
H17 C29 0.950 1_555 1_555
C30 C5 1.410 1_555 1_555
H18 C30 0.950 1_555 1_555
C5 C17 1.462 1_555 1_555
C15 C16 1.461 1_555 1_555
C16 C17 1.411 1_555 1_555
C18 C19 1.441 1_555 1_555
C19 C20 1.406 1_555 1_555
C20 C21 1.463 1_555 1_555
C21 C22 1.413 1_555 1_555
C25 C26 1.375 1_555 1_555
C29 C30 1.380 1_555 1_555
#END
