
#######################################################################
#
#                 Cambridge Crystallographic Data Centre
#                                CCDC
#
#######################################################################
#
# If this CIF has been generated from an entry in the Cambridge
# Structural Database, then it will include bibliographic, chemical,
# crystal, experimental, refinement or atomic coordinate data resulting
# from the CCDC's data processing and validation procedures.
#
#######################################################################

data_CSD_CIF_IFOMEY
_audit_creation_date 2018-08-09
_audit_creation_method CSD-ConQuest-V1
_database_code_CSD IFOMEY
_database_code_depnum_ccdc_archive 'CCDC 1496976'
_chemical_formula_sum 'C36 H32'
_chemical_formula_moiety
;
C36 H32
;
_journal_coden_Cambridge 2020
_journal_volume 2
_journal_year 2017
_journal_page_first 1436
_journal_name_full 'Chem. Sel. '
loop_
_publ_author_name
"Chuan-Zeng Wang"
"R.Kihara"
"Xing Feng"
"P.Thuery"
"C.Redshaw"
"T.Yamato"
_chemical_name_systematic
;
10,15-di-t-butylnaphtho[2,1,8-def]pentahelicene
;
_chemical_melting_point 473.15
_cell_volume   2532.745
_exptl_crystal_colour 'yellow'
_exptl_crystal_density_diffrn 1.218
_exptl_crystal_description 'irregular'
_exptl_crystal_preparation 'dichloromethane / hexane'
_diffrn_ambient_temperature 150
#These two values have been output from a single CSD field.
_refine_ls_R_factor_gt 0.0534
_refine_ls_wR_factor_gt 0.0534
_symmetry_cell_setting monoclinic
_symmetry_space_group_name_H-M 'P 21/c'
_symmetry_Int_Tables_number 14
loop_
_symmetry_equiv_pos_site_id
_symmetry_equiv_pos_as_xyz
1 x,y,z
2 -x,1/2+y,1/2-z
3 -x,-y,-z
4 x,-1/2-y,-1/2+z
_cell_length_a 14.5009(8)
_cell_length_b 19.1757(9)
_cell_length_c 9.3758(4)
_cell_angle_alpha 90
_cell_angle_beta 103.715(3)
_cell_angle_gamma 90
_cell_formula_units_Z 4
loop_
_atom_type_symbol
_atom_type_radius_bond
C 0.68
H 0.23
loop_
_atom_site_label
_atom_site_type_symbol
_atom_site_fract_x
_atom_site_fract_y
_atom_site_fract_z
C1 C -0.01743(11) 0.04898(9) 0.65396(17)
C2 C 0.07630(11) 0.05299(8) 0.73998(17)
C3 C 0.10283(12) 0.00768(9) 0.86687(17)
C4 C 0.04690(13) -0.05237(9) 0.87139(18)
C5 C -0.04102(13) -0.06022(9) 0.76848(19)
H1 H -0.07680 -0.10180 0.76800
C6 C -0.07478(12) -0.00882(9) 0.67028(18)
H2 H -0.13780 -0.01170 0.61170
C7 C 0.07833(14) -0.10479(10) 0.9805(2)
H3 H 0.04180 -0.14610 0.97860
C8 C 0.15868(15) -0.09672(11) 1.0858(2)
H4 H 0.18170 -0.13410 1.15100
C9 C 0.20949(13) -0.03236(10) 1.10036(19)
C10 C 0.17865(12) 0.02163(9) 0.99666(17)
C11 C 0.21548(13) 0.08914(10) 1.03385(18)
H5 H 0.19140 0.12710 0.97080
C12 C 0.28527(14) 0.10137(12) 1.1589(2)
H6 H 0.30820 0.14740 1.18220
C13 C 0.32260(15) 0.04580(14) 1.2520(2)
H7 H 0.37420 0.05340 1.33430
C14 C 0.28454(14) -0.01909(13) 1.2239(2)
H8 H 0.30900 -0.05630 1.28890
C15 C -0.05437(11) 0.10296(9) 0.54515(17)
C16 C -0.15109(12) 0.10926(9) 0.47914(18)
H9 H -0.19420 0.07760 0.50660
C17 C -0.18689(12) 0.1603(1) 0.37441(18)
C18 C -0.12266(13) 0.20502(9) 0.33290(18)
H10 H -0.14560 0.23920 0.25970
C19 C -0.02530(12) 0.20124(9) 0.39576(17)
C20 C 0.00931(12) 0.15098(8) 0.50640(17)
C21 C 0.10875(12) 0.14552(8) 0.57134(17)
C22 C 0.17346(12) 0.18752(9) 0.51603(18)
C23 C 0.13613(13) 0.23602(9) 0.39974(19)
H11 H 0.17890 0.26320 0.36020
C24 C 0.04196(13) 0.24395(9) 0.34542(19)
H12 H 0.01970 0.27840 0.27260
C25 C 0.14374(11) 0.09741(8) 0.68634(16)
C26 C 0.24229(11) 0.08963(9) 0.73409(17)
H13 H 0.26630 0.05430 0.80400
C27 C 0.30683(12) 0.13140(9) 0.68386(18)
C28 C 0.27075(12) 0.18034(9) 0.57535(18)
H14 H 0.31360 0.20970 0.54070
C29 C -0.29335(12) 0.16347(10) 0.29983(19)
C30 C -0.35532(16) 0.1303(2) 0.3937(3)
H15 H -0.42230 0.13390 0.34200
H16 H -0.34510 0.15490 0.48790
H17 H -0.33810 0.08110 0.41110
C31 C -0.32671(17) 0.23775(14) 0.2639(4)
H18 H -0.29530 0.25700 0.19080
H19 H -0.31070 0.26610 0.35330
H20 H -0.39560 0.23810 0.22430
C32 C -0.31003(15) 0.12205(14) 0.1579(3)
H21 H -0.27370 0.14290 0.09300
H22 H -0.37780 0.12280 0.10930
H23 H -0.28940 0.07370 0.17980
C33 C 0.41391(12) 0.12744(10) 0.75315(19)
C34 C 0.43996(15) 0.19173(12) 0.8527(3)
H24 H 0.42530 0.23420 0.79350
H25 H 0.50790 0.19060 0.90000
H26 H 0.40330 0.19130 0.92800
C35 C 0.47155(14) 0.12822(15) 0.6363(2)
H27 H 0.45540 0.08720 0.57300
H28 H 0.53940 0.12740 0.68400
H29 H 0.45680 0.17060 0.57690
C36 C 0.44240(14) 0.06272(12) 0.8489(3)
H30 H 0.41060 0.06350 0.93020
H31 H 0.51130 0.06250 0.88830
H32 H 0.42350 0.02070 0.78960
loop_
_geom_bond_atom_site_label_1
_geom_bond_atom_site_label_2
_geom_bond_distance
_geom_bond_site_symmetry_1
_geom_bond_site_symmetry_2
C1 C2 1.409 1_555 1_555
C2 C3 1.450 1_555 1_555
C3 C4 1.415 1_555 1_555
C4 C5 1.413 1_555 1_555
C5 H1 0.951 1_555 1_555
C6 C1 1.416 1_555 1_555
H2 C6 0.950 1_555 1_555
C7 C4 1.430 1_555 1_555
H3 C7 0.951 1_555 1_555
C8 C7 1.346 1_555 1_555
H4 C8 0.950 1_555 1_555
C9 C8 1.427 1_555 1_555
C10 C3 1.458 1_555 1_555
C11 C10 1.412 1_555 1_555
H5 C11 0.950 1_555 1_555
C12 C11 1.375 1_555 1_555
H6 C12 0.950 1_555 1_555
C13 C12 1.402 1_555 1_555
H7 C13 0.950 1_555 1_555
C14 C9 1.412 1_555 1_555
H8 C14 0.951 1_555 1_555
C15 C1 1.463 1_555 1_555
C16 C15 1.398 1_555 1_555
H9 C16 0.950 1_555 1_555
C17 C16 1.396 1_555 1_555
C18 C17 1.388 1_555 1_555
H10 C18 0.950 1_555 1_555
C19 C18 1.397 1_555 1_555
C20 C15 1.411 1_555 1_555
C21 C20 1.430 1_555 1_555
C22 C21 1.424 1_555 1_555
C23 C22 1.438 1_555 1_555
H11 C23 0.950 1_555 1_555
C24 C19 1.436 1_555 1_555
H12 C24 0.950 1_555 1_555
C25 C2 1.472 1_555 1_555
C26 C25 1.401 1_555 1_555
H13 C26 0.950 1_555 1_555
C27 C26 1.396 1_555 1_555
C28 C22 1.395 1_555 1_555
H14 C28 0.951 1_555 1_555
C29 C17 1.538 1_555 1_555
C30 C29 1.537 1_555 1_555
H15 C30 0.980 1_555 1_555
H16 C30 0.981 1_555 1_555
H17 C30 0.980 1_555 1_555
C31 C29 1.516 1_555 1_555
H18 C31 0.981 1_555 1_555
H19 C31 0.980 1_555 1_555
H20 C31 0.980 1_555 1_555
C32 C29 1.519 1_555 1_555
H21 C32 0.980 1_555 1_555
H22 C32 0.980 1_555 1_555
H23 C32 0.981 1_555 1_555
C33 C27 1.536 1_555 1_555
C34 C33 1.538 1_555 1_555
H24 C34 0.980 1_555 1_555
H25 C34 0.980 1_555 1_555
H26 C34 0.979 1_555 1_555
C35 C33 1.528 1_555 1_555
H27 C35 0.980 1_555 1_555
H28 C35 0.980 1_555 1_555
H29 C35 0.980 1_555 1_555
C36 C33 1.530 1_555 1_555
H30 C36 0.980 1_555 1_555
H31 C36 0.980 1_555 1_555
H32 C36 0.980 1_555 1_555
C5 C6 1.358 1_555 1_555
C9 C10 1.418 1_555 1_555
C13 C14 1.361 1_555 1_555
C19 C20 1.418 1_555 1_555
C21 C25 1.418 1_555 1_555
C23 C24 1.348 1_555 1_555
C27 C28 1.392 1_555 1_555
#END
