
#######################################################################
#
#                 Cambridge Crystallographic Data Centre
#                                CCDC
#
#######################################################################
#
# If this CIF has been generated from an entry in the Cambridge
# Structural Database, then it will include bibliographic, chemical,
# crystal, experimental, refinement or atomic coordinate data resulting
# from the CCDC's data processing and validation procedures.
#
#######################################################################

data_CSD_CIF_IKACEC
_audit_creation_date 2003-11-28
_audit_creation_method CSD-ConQuest-V1
_database_code_CSD IKACEC
_database_code_depnum_ccdc_archive 'CCDC 217038'
_chemical_formula_sum 'C38 H24'
_chemical_formula_moiety
;
C38 H24
;
_journal_coden_Cambridge 1336
_journal_volume 5
_journal_year 2003
_journal_page_first 2477
_journal_name_full 'Org.Lett. '
loop_
_publ_author_name
"K.R.Deaton"
"M.S.Gin"
_chemical_name_systematic
;
2,3-bis(2-Phenylethynyl)-1,4-diphenylnaphthalene
;
_chemical_melting_point 498.15
_cell_volume   5306.851
_exptl_crystal_colour 'colorless'
_exptl_crystal_density_diffrn 1.203
_exptl_special_details
;
Melting point range 498.15-500.15K

;
_exptl_crystal_description 'prism'
_diffrn_ambient_temperature 193
#These two values have been output from a single CSD field.
_refine_ls_R_factor_gt 0.0438
_refine_ls_wR_factor_gt 0.0438
_symmetry_cell_setting orthorhombic
_symmetry_space_group_name_H-M 'P b c a'
_symmetry_Int_Tables_number 61
loop_
_symmetry_equiv_pos_site_id
_symmetry_equiv_pos_as_xyz
1 x,y,z
2 1/2-x,-y,1/2+z
3 -x,1/2+y,1/2-z
4 1/2+x,1/2-y,-z
5 -x,-y,-z
6 -1/2+x,y,-1/2-z
7 x,-1/2-y,-1/2+z
8 -1/2-x,-1/2+y,z
_cell_length_a 16.252(7)
_cell_length_b 15.611(7)
_cell_length_c 20.917(9)
_cell_angle_alpha 90
_cell_angle_beta 90
_cell_angle_gamma 90
_cell_formula_units_Z 8
loop_
_atom_type_symbol
_atom_type_radius_bond
C 0.68
H 0.23
loop_
_atom_site_label
_atom_site_type_symbol
_atom_site_fract_x
_atom_site_fract_y
_atom_site_fract_z
C1 C 0.01758(9) 0.83179(9) 0.48943(6)
C2 C 0.04686(9) 0.86235(9) 0.43149(6)
C3 C 0.00664(9) 0.83975(9) 0.37254(6)
C4 C -0.09436(8) 0.75716(9) 0.43186(6)
C5 C -0.06220(9) 0.78744(9) 0.37259(6)
C6 C -0.16582(9) 0.70519(10) 0.43391(7)
H1 H -0.19280 0.69060 0.39510
C7 C -0.19673(10) 0.67571(10) 0.49029(7)
H2 H -0.24420 0.64020 0.49050
C8 C -0.15842(10) 0.69782(10) 0.54780(7)
H3 H -0.18050 0.67770 0.58710
C9 C -0.05447(9) 0.77874(9) 0.49048(6)
C10 C -0.08961(9) 0.74804(10) 0.54816(7)
H4 H -0.06480 0.76270 0.58780
C11 C 0.06062(9) 0.85258(9) 0.55072(7)
C12 C 0.06563(11) 0.93609(11) 0.57326(7)
H5 H 0.04290 0.98160 0.54880
C13 C 0.10352(11) 0.95358(12) 0.63122(8)
H6 H 0.10640 1.01090 0.64620
C14 C 0.13698(11) 0.88851(13) 0.66708(8)
H7 H 0.16300 0.90080 0.70670
C15 C 0.13256(10) 0.80561(12) 0.64533(7)
H8 H 0.15560 0.76040 0.67000
C16 C 0.09471(9) 0.78781(10) 0.58775(7)
H9 H 0.09190 0.73020 0.57320
C17 C 0.11719(9) 0.91753(9) 0.42750(7)
C18 C 0.17365(10) 0.96608(10) 0.42004(7)
C19 C 0.24192(9) 1.02377(9) 0.41211(7)
C20 C 0.25322(10) 1.09241(10) 0.45383(8)
H10 H 0.21560 1.10130 0.48800
C21 C 0.31905(11) 1.14776(11) 0.44580(9)
H11 H 0.32630 1.19450 0.47430
C22 C 0.37381(11) 1.13520(11) 0.39683(10)
H12 H 0.41910 1.17310 0.39170
C23 C 0.36339(11) 1.06788(12) 0.35512(9)
H13 H 0.40150 1.05940 0.32130
C24 C 0.29759(10) 1.01250(11) 0.36237(8)
H14 H 0.29040 0.96650 0.33320
C25 C 0.03726(9) 0.87135(9) 0.31281(7)
C26 C 0.05733(9) 0.89718(9) 0.26129(7)
C27 C 0.07541(9) 0.92604(9) 0.19749(7)
C28 C 0.14913(10) 0.96626(11) 0.18242(8)
H15 H 0.18940 0.97530 0.21470
C29 C 0.16400(12) 0.99311(12) 0.12051(9)
H16 H 0.21480 1.01990 0.11030
C30 C 0.10598(12) 0.98141(11) 0.07375(8)
H17 H 0.11640 1.00080 0.03150
C31 C 0.03299(12) 0.94175(11) 0.08796(8)
H18 H -0.00710 0.93360 0.05550
C32 C 0.01755(10) 0.91359(11) 0.14945(7)
H19 H -0.03290 0.88560 0.15890
C33 C -0.10280(9) 0.76196(9) 0.31125(6)
C34 C -0.07217(12) 0.69514(12) 0.27539(8)
H20 H -0.02330 0.66700 0.28880
C35 C -0.11128(14) 0.66820(13) 0.22020(9)
H21 H -0.08910 0.62220 0.19600
C36 C -0.18214(12) 0.70812(12) 0.20057(8)
H22 H -0.21000 0.68880 0.16330
C37 C -0.21256(11) 0.77582(12) 0.23476(7)
H23 H -0.26080 0.80450 0.22050
C38 C -0.17331(10) 0.80286(11) 0.29016(7)
H24 H -0.19500 0.84970 0.31370
loop_
_geom_bond_atom_site_label_1
_geom_bond_atom_site_label_2
_geom_bond_distance
_geom_bond_site_symmetry_1
_geom_bond_site_symmetry_2
C1 C2 1.387 1_555 1_555
C2 C3 1.440 1_555 1_555
C3 C5 1.385 1_555 1_555
C4 C5 1.426 1_555 1_555
C5 C33 1.497 1_555 1_555
C6 C4 1.417 1_555 1_555
H1 C6 0.950 1_555 1_555
C7 C6 1.362 1_555 1_555
H2 C7 0.950 1_555 1_555
C8 C7 1.398 1_555 1_555
H3 C8 0.950 1_555 1_555
C9 C1 1.434 1_555 1_555
C10 C8 1.366 1_555 1_555
H4 C10 0.950 1_555 1_555
C11 C1 1.496 1_555 1_555
C12 C11 1.389 1_555 1_555
H5 C12 0.950 1_555 1_555
C13 C12 1.387 1_555 1_555
H6 C13 0.949 1_555 1_555
C14 C13 1.375 1_555 1_555
H7 C14 0.950 1_555 1_555
C15 C14 1.374 1_555 1_555
H8 C15 0.951 1_555 1_555
C16 C11 1.389 1_555 1_555
H9 C16 0.951 1_555 1_555
C17 C2 1.434 1_555 1_555
C18 C17 1.200 1_555 1_555
C19 C18 1.439 1_555 1_555
C20 C19 1.394 1_555 1_555
H10 C20 0.951 1_555 1_555
C21 C20 1.385 1_555 1_555
H11 C21 0.950 1_555 1_555
C22 C21 1.371 1_555 1_555
H12 C22 0.950 1_555 1_555
C23 C22 1.376 1_555 1_555
H13 C23 0.950 1_555 1_555
C24 C19 1.390 1_555 1_555
H14 C24 0.950 1_555 1_555
C25 C3 1.432 1_555 1_555
C26 C25 1.196 1_555 1_555
C27 C26 1.439 1_555 1_555
C28 C27 1.389 1_555 1_555
H15 C28 0.951 1_555 1_555
C29 C28 1.382 1_555 1_555
H16 C29 0.950 1_555 1_555
C30 C29 1.371 1_555 1_555
H17 C30 0.949 1_555 1_555
C31 C30 1.371 1_555 1_555
H18 C31 0.950 1_555 1_555
C32 C27 1.390 1_555 1_555
H19 C32 0.950 1_555 1_555
C33 C34 1.378 1_555 1_555
C34 H20 0.950 1_555 1_555
C35 C34 1.383 1_555 1_555
H21 C35 0.950 1_555 1_555
C36 C35 1.372 1_555 1_555
H22 C36 0.951 1_555 1_555
C37 C36 1.369 1_555 1_555
H23 C37 0.951 1_555 1_555
C38 C33 1.384 1_555 1_555
H24 C38 0.949 1_555 1_555
C4 C9 1.427 1_555 1_555
C9 C10 1.418 1_555 1_555
C15 C16 1.381 1_555 1_555
C23 C24 1.383 1_555 1_555
C31 C32 1.382 1_555 1_555
C37 C38 1.388 1_555 1_555
#END
