
#######################################################################
#
#                 Cambridge Crystallographic Data Centre
#                                CCDC
#
#######################################################################
#
# If this CIF has been generated from an entry in the Cambridge
# Structural Database, then it will include bibliographic, chemical,
# crystal, experimental, refinement or atomic coordinate data resulting
# from the CCDC's data processing and validation procedures.
#
#######################################################################

data_CSD_CIF_ISIMEE
_audit_creation_date 2016-08-15
_audit_creation_method CSD-ConQuest-V1
_database_code_CSD ISIMEE
_database_code_depnum_ccdc_archive 'CCDC 1499230'
_chemical_formula_sum 'C29 H18'
_chemical_formula_moiety
;
C29 H18
;
_journal_coden_Cambridge 1336
_journal_volume 18
_journal_year 2016
_journal_page_first 3654
_journal_name_full 'Org.Lett. '
loop_
_publ_author_name
"H.Oyama"
"M.Akiyama"
"Koji Nakano"
"M.Naito"
"K.Nobusawa"
"K.Nozaki"
_chemical_name_systematic
;
9H-naphtho[2',1':6,7]indeno[2,1-c]phenanthrene
;
_cell_volume   1879.044
_exptl_crystal_colour 'colorless'
_exptl_crystal_density_diffrn 1.295
_exptl_crystal_description 'Block'
_diffrn_ambient_temperature 93
#These two values have been output from a single CSD field.
_refine_ls_R_factor_gt 0.0438
_refine_ls_wR_factor_gt 0.0438
_symmetry_cell_setting orthorhombic
_symmetry_space_group_name_H-M 'P 21 21 21'
_symmetry_Int_Tables_number 19
loop_
_symmetry_equiv_pos_site_id
_symmetry_equiv_pos_as_xyz
1 x,y,z
2 1/2-x,-y,1/2+z
3 1/2+x,1/2-y,-z
4 -x,1/2+y,1/2-z
_cell_length_a 8.051(3)
_cell_length_b 14.010(6)
_cell_length_c 16.659(6)
_cell_angle_alpha 90
_cell_angle_beta 90
_cell_angle_gamma 90
_cell_formula_units_Z 4
loop_
_atom_type_symbol
_atom_type_radius_bond
C 0.68
H 0.23
loop_
_atom_site_label
_atom_site_type_symbol
_atom_site_fract_x
_atom_site_fract_y
_atom_site_fract_z
C1 C 0.7091(3) 0.59322(17) 0.61264(13)
H1 H 0.77840 0.54060 0.62560
C2 C 0.4555(3) 0.49241(17) 0.63696(13)
C3 C 0.4357(3) 0.66317(18) 0.59879(13)
C4 C 0.7658(3) 0.44767(16) 0.47664(14)
C5 C 0.7260(3) 0.27678(17) 0.65205(15)
C6 C 0.5344(3) 0.40083(17) 0.64051(13)
C7 C 0.6815(3) 0.75788(17) 0.57314(14)
H2 H 0.73140 0.81650 0.55760
C8 C 0.5350(3) 0.58157(16) 0.61394(13)
C9 C 0.6015(3) 0.47425(16) 0.45633(13)
H3 H 0.51230 0.45420 0.48970
C10 C 0.4613(3) 0.32978(18) 0.68837(13)
C11 C 0.6928(3) 0.36064(17) 0.60868(13)
C12 C 0.8043(3) 0.38596(17) 0.54467(14)
C13 C 0.2872(3) 0.49690(18) 0.66271(13)
C14 C 0.2600(3) 0.65949(19) 0.61368(14)
H4 H 0.19180 0.71210 0.59930
C15 C 0.7803(3) 0.67947(17) 0.59300(14)
H5 H 0.89780 0.68570 0.59300
C16 C 0.3018(3) 0.33851(19) 0.71997(14)
H6 H 0.25600 0.28950 0.75250
C17 C 0.5676(3) 0.52867(17) 0.38918(15)
H7 H 0.45640 0.54620 0.37720
C18 C 0.1915(3) 0.58181(19) 0.64790(14)
H8 H 0.07750 0.58310 0.66260
C19 C 0.2122(3) 0.4196(2) 0.70309(14)
H9 H 0.09890 0.42360 0.71870
C20 C 0.5116(3) 0.74982(18) 0.57622(14)
H10 H 0.44440 0.80330 0.56300
C21 C 1.0607(3) 0.44173(19) 0.43629(16)
H11 H 1.14960 0.46680 0.40520
C22 C 0.8944(3) 0.47533(18) 0.42335(15)
C23 C 0.9963(3) 0.26213(18) 0.59623(16)
H12 H 1.10320 0.23340 0.59590
C24 C 0.9633(3) 0.34086(18) 0.54516(15)
C25 C 0.8573(3) 0.53131(18) 0.35558(16)
H13 H 0.94460 0.55090 0.32090
C26 C 0.5797(3) 0.24955(18) 0.70211(15)
H14 H 0.53190 0.18800 0.68420
H15 H 0.61040 0.24460 0.75950
C27 C 0.6972(3) 0.55810(19) 0.33869(15)
H16 H 0.67420 0.59640 0.29300
C28 C 0.8757(3) 0.22713(18) 0.64594(16)
H17 H 0.89350 0.17020 0.67570
C29 C 1.0911(3) 0.37426(19) 0.49284(16)
H18 H 1.19990 0.34870 0.49770
loop_
_geom_bond_atom_site_label_1
_geom_bond_atom_site_label_2
_geom_bond_distance
_geom_bond_site_symmetry_1
_geom_bond_site_symmetry_2
C1 H1 0.949 1_555 1_555
C2 C6 1.433 1_555 1_555
C3 C8 1.418 1_555 1_555
C4 C9 1.415 1_555 1_555
C5 C11 1.405 1_555 1_555
C6 C10 1.405 1_555 1_555
C7 H2 0.950 1_555 1_555
C8 C1 1.411 1_555 1_555
C9 H3 0.951 1_555 1_555
C10 C16 1.393 1_555 1_555
C11 C6 1.491 1_555 1_555
C12 C4 1.459 1_555 1_555
C13 C2 1.423 1_555 1_555
C14 C3 1.437 1_555 1_555
H4 C14 0.950 1_555 1_555
C15 C1 1.377 1_555 1_555
H5 C15 0.950 1_555 1_555
C16 H6 0.949 1_555 1_555
C17 C9 1.381 1_555 1_555
H7 C17 0.950 1_555 1_555
C18 C13 1.439 1_555 1_555
H8 C18 0.950 1_555 1_555
C19 C13 1.411 1_555 1_555
H9 C19 0.950 1_555 1_555
C20 C3 1.410 1_555 1_555
H10 C20 0.950 1_555 1_555
C21 H11 0.951 1_555 1_555
C22 C4 1.418 1_555 1_555
C23 H12 0.950 1_555 1_555
C24 C12 1.428 1_555 1_555
C25 C22 1.407 1_555 1_555
H13 C25 0.950 1_555 1_555
C26 C5 1.493 1_555 1_555
H14 C26 0.990 1_555 1_555
H15 C26 0.990 1_555 1_555
C27 C17 1.402 1_555 1_555
H16 C27 0.950 1_555 1_555
C28 C5 1.395 1_555 1_555
H17 C28 0.950 1_555 1_555
C29 C21 1.357 1_555 1_555
H18 C29 0.950 1_555 1_555
C2 C8 1.455 1_555 1_555
C7 C15 1.396 1_555 1_555
C7 C20 1.373 1_555 1_555
C10 C26 1.491 1_555 1_555
C11 C12 1.438 1_555 1_555
C14 C18 1.347 1_555 1_555
C16 C19 1.375 1_555 1_555
C21 C22 1.436 1_555 1_555
C23 C24 1.418 1_555 1_555
C23 C28 1.367 1_555 1_555
C24 C29 1.427 1_555 1_555
C25 C27 1.372 1_555 1_555
#END
