
#######################################################################
#
#                 Cambridge Crystallographic Data Centre
#                                CCDC
#
#######################################################################
#
# If this CIF has been generated from an entry in the Cambridge
# Structural Database, then it will include bibliographic, chemical,
# crystal, experimental, refinement or atomic coordinate data resulting
# from the CCDC's data processing and validation procedures.
#
#######################################################################

data_CSD_CIF_JOJSEI
_audit_creation_date 2014-05-21
_audit_creation_method CSD-ConQuest-V1
_database_code_CSD JOJSEI
_database_code_depnum_ccdc_archive 'CCDC 1004382'
_chemical_formula_sum 'C28 H20'
_chemical_formula_moiety
;
C28 H20
;
_journal_coden_Cambridge 920
_journal_volume 9
_journal_year 2014
_journal_page_first 1623
_journal_name_full 'Chem.Asian J. '
loop_
_publ_author_name
"Y.Ueda"
"H.Tsuji"
"H.Tanaka"
"E.Nakamura"
_chemical_name_systematic
;
3,11-dimethyldibenzo[g,p]chrysene
;
_chemical_melting_point 561
_cell_volume   1784.796
_exptl_crystal_colour 'colorless'
_exptl_crystal_density_diffrn 1.326
_exptl_crystal_description 'block'
_diffrn_ambient_temperature 123
#These two values have been output from a single CSD field.
_refine_ls_R_factor_gt 0.0458
_refine_ls_wR_factor_gt 0.0458
_symmetry_cell_setting monoclinic
_symmetry_space_group_name_H-M 'P 21/a'
_symmetry_Int_Tables_number 14
loop_
_symmetry_equiv_pos_site_id
_symmetry_equiv_pos_as_xyz
1 x,y,z
2 1/2-x,1/2+y,-z
3 -x,-y,-z
4 -1/2+x,-1/2-y,z
_cell_length_a 7.8211(1)
_cell_length_b 19.1546(4)
_cell_length_c 12.2097(2)
_cell_angle_alpha 90
_cell_angle_beta 102.6413(10)
_cell_angle_gamma 90
_cell_formula_units_Z 4
loop_
_atom_type_symbol
_atom_type_radius_bond
C 0.68
H 0.23
loop_
_atom_site_label
_atom_site_type_symbol
_atom_site_fract_x
_atom_site_fract_y
_atom_site_fract_z
C1 C 0.6740(2) 0.11234(9) 0.23957(14)
C2 C 0.5363(2) 0.27242(10) 0.05246(14)
C3 C 0.6129(2) 0.18240(9) 0.20224(14)
C4 C 0.7416(3) 0.06630(9) 0.16949(16)
H1 H 0.73940 0.07980 0.09430
C5 C 0.5510(2) 0.20111(9) 0.08388(14)
C6 C 0.8194(2) -0.01916(10) 0.31789(15)
C7 C 0.6125(2) 0.23352(9) 0.28303(14)
C8 C 0.6296(2) 0.30652(9) 0.25200(14)
C9 C 0.6899(2) 0.09266(9) 0.35298(14)
C10 C 0.6341(2) 0.14173(9) 0.42968(14)
C11 C 0.5067(3) 0.23495(10) 0.56922(14)
H2 H 0.45990 0.26620 0.61550
C12 C 0.5991(2) 0.21145(9) 0.39527(14)
C13 C 0.8104(3) 0.00258(9) 0.20703(15)
H3 H 0.85290 -0.02740 0.15700
C14 C 0.7399(2) 0.42349(9) 0.30068(15)
H4 H 0.78760 0.45660 0.35700
C15 C 0.5517(3) 0.16731(10) 0.60590(16)
H5 H 0.54140 0.15300 0.67870
C16 C 0.5299(2) 0.2566(1) 0.46644(14)
H6 H 0.49870 0.30300 0.44250
C17 C 0.6997(2) 0.35766(9) 0.33194(15)
H7 H 0.71970 0.34640 0.40950
C18 C 0.6416(2) 0.39353(10) 0.10800(16)
H8 H 0.61980 0.40590 0.03080
C19 C 0.7606(2) 0.02667(9) 0.38860(15)
H9 H 0.76800 0.01320 0.46440
C20 C 0.7118(3) 0.44283(9) 0.18706(16)
C21 C 0.4570(3) 0.29019(11) -0.05904(15)
H10 H 0.44740 0.33800 -0.08030
C22 C 0.6011(2) 0.32528(10) 0.13749(15)
C23 C 0.8971(3) -0.08862(10) 0.35955(16)
H11 H 0.96700 -0.08350 0.43620
H12 H 0.97220 -0.10530 0.31050
H13 H 0.80270 -0.12240 0.35910
C24 C 0.6108(2) 0.12132(11) 0.53653(14)
H14 H 0.63680 0.07470 0.56090
C25 C 0.3937(3) 0.24027(11) -0.13728(15)
H15 H 0.34050 0.25340 -0.21200
C26 C 0.7645(3) 0.51409(10) 0.15475(17)
H16 H 0.89250 0.51670 0.16750
H17 H 0.72240 0.54950 0.20050
H18 H 0.71300 0.52250 0.07520
C27 C 0.4819(2) 0.15098(10) 0.00102(15)
H19 H 0.48730 0.10290 0.02080
C28 C 0.4073(3) 0.16990(11) -0.10695(16)
H20 H 0.36480 0.13500 -0.16140
loop_
_geom_bond_atom_site_label_1
_geom_bond_atom_site_label_2
_geom_bond_distance
_geom_bond_site_symmetry_1
_geom_bond_site_symmetry_2
C1 C3 1.463 1_555 1_555
C2 C5 1.417 1_555 1_555
C3 C5 1.465 1_555 1_555
C4 C1 1.410 1_555 1_555
H1 C4 0.950 1_555 1_555
C5 C27 1.414 1_555 1_555
C6 C13 1.403 1_555 1_555
C7 C3 1.390 1_555 1_555
C8 C7 1.462 1_555 1_555
C9 C1 1.414 1_555 1_555
C10 C9 1.459 1_555 1_555
C11 H2 0.950 1_555 1_555
C12 C7 1.460 1_555 1_555
C13 C4 1.372 1_555 1_555
H3 C13 0.950 1_555 1_555
C14 H4 0.950 1_555 1_555
C15 C11 1.391 1_555 1_555
H5 C15 0.950 1_555 1_555
C16 C11 1.371 1_555 1_555
H6 C16 0.951 1_555 1_555
C17 C8 1.407 1_555 1_555
H7 C17 0.950 1_555 1_555
C18 H8 0.950 1_555 1_555
C19 C6 1.379 1_555 1_555
H9 C19 0.950 1_555 1_555
C20 C14 1.406 1_555 1_555
C21 C2 1.409 1_555 1_555
H10 C21 0.950 1_555 1_555
C22 C2 1.459 1_555 1_555
C23 C6 1.504 1_555 1_555
H11 C23 0.980 1_555 1_555
H12 C23 0.980 1_555 1_555
H13 C23 0.981 1_555 1_555
C24 C10 1.411 1_555 1_555
H14 C24 0.949 1_555 1_555
C25 C21 1.366 1_555 1_555
H15 C25 0.950 1_555 1_555
C26 C20 1.503 1_555 1_555
H16 C26 0.980 1_555 1_555
H17 C26 0.980 1_555 1_555
H18 C26 0.980 1_555 1_555
C27 H19 0.951 1_555 1_555
C28 C25 1.396 1_555 1_555
H20 C28 0.950 1_555 1_555
C8 C22 1.413 1_555 1_555
C9 C19 1.410 1_555 1_555
C10 C12 1.409 1_555 1_555
C12 C16 1.415 1_555 1_555
C14 C17 1.374 1_555 1_555
C15 C24 1.371 1_555 1_555
C18 C20 1.376 1_555 1_555
C18 C22 1.410 1_555 1_555
C27 C28 1.369 1_555 1_555
#END
