
#######################################################################
#
#                 Cambridge Crystallographic Data Centre
#                                CCDC
#
#######################################################################
#
# If this CIF has been generated from an entry in the Cambridge
# Structural Database, then it will include bibliographic, chemical,
# crystal, experimental, refinement or atomic coordinate data resulting
# from the CCDC's data processing and validation procedures.
#
#######################################################################

data_CSD_CIF_KOBXII
_audit_creation_date 1992-03-26
_audit_creation_method CSD-ConQuest-V1
_database_code_CSD KOBXII
_chemical_formula_sum 'C38 H22'
_chemical_formula_moiety
;
C38 H22
;
_journal_coeditor_code "IUCr HH0453"
_journal_coden_Cambridge 591
_journal_volume 47
_journal_year 1991
_journal_page_first 1848
_journal_name_full 'Acta Crystallogr.,Sect.C:Cryst.Struct.Commun. '
loop_
_publ_author_name
"W.H.Watson"
"R.P.Kashyap"
"B.F.Plummer"
"W.G.Reese"
_chemical_name_systematic
;
7,14-Diphenylacenaphtho(1,2-k)fluoranthene
;
_cell_volume   2481.389
_exptl_crystal_colour 'pale yellow'
_exptl_crystal_density_diffrn 1.281
_exptl_special_details
;
z(C24) is 0.2487, not 0.2587

;
_diffrn_ambient_temperature ?
_diffrn_special_details
;
The study was carried out at room temperature,in the range 283-303K

;
#These two values have been output from a single CSD field.
_refine_ls_R_factor_gt 0.0552
_refine_ls_wR_factor_gt 0.0552
_symmetry_cell_setting orthorhombic
_symmetry_space_group_name_H-M 'A b a m'
_symmetry_Int_Tables_number 64
loop_
_symmetry_equiv_pos_site_id
_symmetry_equiv_pos_as_xyz
1 x,y,z
2 -x,-y,z
3 1/2-x,1/2+y,z
4 1/2+x,1/2-y,z
5 x,1/2+y,1/2+z
6 -x,1/2-y,1/2+z
7 1/2-x,y,1/2+z
8 1/2+x,-y,1/2+z
9 -x,-y,-z
10 x,y,-z
11 -1/2+x,-1/2-y,-z
12 -1/2-x,-1/2+y,-z
13 -x,-1/2-y,-1/2-z
14 x,-1/2+y,-1/2-z
15 -1/2+x,-y,-1/2-z
16 -1/2-x,y,-1/2-z
_cell_length_a 13.752(8)
_cell_length_b 7.877(5)
_cell_length_c 22.907(16)
_cell_angle_alpha 90
_cell_angle_beta 90
_cell_angle_gamma 90
_cell_formula_units_Z 4
loop_
_atom_type_symbol
_atom_type_radius_bond
C 0.68
H 0.23
loop_
_atom_site_label
_atom_site_type_symbol
_atom_site_fract_x
_atom_site_fract_y
_atom_site_fract_z
C1 C 0.6113(2) 0.1178(3) 0.00000
C2 C 0.5857(1) 0.2065(2) 0.0510(1)
C3 C 0.6063(1) 0.1351(2) 0.1040(1)
C4 C 0.6525(1) -0.0261(2) 0.1049(1)
C5 C 0.6770(1) -0.1114(3) 0.0553(1)
C6 C 0.6570(2) -0.0414(3) 0.00000
C7 C 0.5403(1) 0.3664(2) 0.0310(1)
C8 C 0.50000 0.50000 0.0631(1)
C9 C 0.50000 0.50000 0.1275(1)
C10 C 0.5830(1) 0.5404(2) 0.1587(1)
C11 C 0.5831(2) 0.5405(3) 0.2188(1)
C12 C 0.50000 0.50000 0.2487(2)
H1 H 0.5879(11) 0.1933(19) 0.1420(7)
H2 H 0.6647(11) -0.0721(18) 0.1444(7)
H3 H 0.7118(11) -0.2260(22) 0.0567(6)
H4 H 0.6422(11) 0.5634(17) 0.1370(7)
H5 H 0.6445(13) 0.5654(22) 0.2401(10)
H6 H 0.50000 0.50000 0.2903(13)
C2I C 0.5857(1) 0.2065(2) -0.0510(1)
C3I C 0.6063(1) 0.1351(2) -0.1040(1)
C4I C 0.6525(1) -0.0261(2) -0.1049(1)
C5I C 0.6770(1) -0.1114(3) -0.0553(1)
H3I H 0.7118(11) -0.2260(22) -0.0567(6)
H2I H 0.6647(11) -0.0721(18) -0.1444(7)
H1I H 0.5879(11) 0.1933(19) -0.1420(7)
C7I C 0.5403(1) 0.3664(2) -0.0310(1)
C7A C 0.4597(1) 0.6336(2) 0.0310(1)
C2A C 0.4143(1) 0.7935(2) 0.0510(1)
C1A C 0.3887(2) 0.8822(3) 0.00000
C2H C 0.4143(1) 0.7935(2) -0.0510(1)
C3H C 0.3937(1) 0.8649(2) -0.1040(1)
C4H C 0.3475(1) 1.0261(2) -0.1049(1)
C5H C 0.3230(1) 1.1114(3) -0.0553(1)
C6H C 0.3430(2) 1.0414(3) 0.00000
C5A C 0.3230(1) 1.1114(3) 0.0553(1)
C4A C 0.3475(1) 1.0261(2) 0.1049(1)
C3A C 0.3937(1) 0.8649(2) 0.1040(1)
H1A H 0.4121(11) 0.8067(19) 0.1420(7)
H2A H 0.3353(11) 1.0721(18) 0.1444(7)
H3A H 0.2882(11) 1.2260(22) 0.0567(6)
H3H H 0.2882(11) 1.2260(22) -0.0567(6)
H2H H 0.3353(11) 1.0721(18) -0.1444(7)
H1H H 0.4121(11) 0.8067(19) -0.1420(7)
C7H C 0.4597(1) 0.6336(2) -0.0310(1)
C8H C 0.50000 0.50000 -0.0631(1)
C9H C 0.50000 0.50000 -0.1275(1)
C10H C 0.4170(1) 0.4596(2) -0.1587(1)
C11H C 0.4169(2) 0.4595(3) -0.2188(1)
C12H C 0.50000 0.50000 -0.2487(2)
C11I C 0.5831(2) 0.5405(3) -0.2188(1)
C10I C 0.5830(1) 0.5404(2) -0.1587(1)
H4I H 0.6422(11) 0.5634(17) -0.1370(7)
H5I H 0.6445(13) 0.5654(22) -0.2401(10)
H6H H 0.50000 0.50000 -0.2903(13)
H5H H 0.3555(13) 0.4346(22) -0.2401(10)
H4H H 0.3578(11) 0.4366(17) -0.1370(7)
C11A C 0.4169(2) 0.4595(3) 0.2188(1)
C10A C 0.4170(1) 0.4596(2) 0.1587(1)
H4A H 0.3578(11) 0.4366(17) 0.1370(7)
H5A H 0.3555(13) 0.4346(22) 0.2401(10)
loop_
_geom_bond_atom_site_label_1
_geom_bond_atom_site_label_2
_geom_bond_distance
_geom_bond_site_symmetry_1
_geom_bond_site_symmetry_2
C1 C2 1.406 1_555 1_555
C2 C3 1.368 1_555 1_555
C3 C4 1.420 1_555 1_555
C4 C5 1.362 1_555 1_555
C5 C6 1.409 1_555 1_555
C6 C1 1.403 1_555 1_555
C7 C2 1.479 1_555 1_555
C8 C7 1.398 1_555 1_555
C9 C8 1.475 1_555 1_555
C10 C9 1.384 1_555 1_555
C11 C10 1.377 1_555 1_555
C12 C11 1.370 1_555 1_555
H1 C3 1.016 1_555 1_555
H2 C4 0.989 1_555 1_555
H3 C5 1.022 1_555 1_555
H4 C10 0.971 1_555 1_555
H5 C11 0.995 1_555 1_555
H6 C12 0.953 1_555 1_555
C2I C1 1.406 1_555 1_555
C3I C2I 1.368 1_555 1_555
C4I C3I 1.420 1_555 1_555
C5I C6 1.409 1_555 1_555
H3I C5I 1.022 1_555 1_555
H2I C4I 0.989 1_555 1_555
H1I C3I 1.016 1_555 1_555
C7I C7 1.420 1_555 1_555
C7A C8 1.398 1_555 1_555
C2A C7A 1.479 1_555 1_555
C1A C2A 1.406 1_555 1_555
C2H C1A 1.406 1_555 1_555
C3H C2H 1.368 1_555 1_555
C4H C3H 1.420 1_555 1_555
C5H C4H 1.362 1_555 1_555
C6H C1A 1.403 1_555 1_555
C5A C6H 1.409 1_555 1_555
C4A C5A 1.362 1_555 1_555
C3A C2A 1.368 1_555 1_555
H1A C3A 1.016 1_555 1_555
H2A C4A 0.989 1_555 1_555
H3A C5A 1.022 1_555 1_555
H3H C5H 1.022 1_555 1_555
H2H C4H 0.989 1_555 1_555
H1H C3H 1.016 1_555 1_555
C7H C7A 1.420 1_555 1_555
C8H C7I 1.398 1_555 1_555
C9H C8H 1.475 1_555 1_555
C10H C9H 1.384 1_555 1_555
C11H C10H 1.377 1_555 1_555
C12H C11H 1.370 1_555 1_555
C11I C12H 1.370 1_555 1_555
C10I C9H 1.384 1_555 1_555
H4I C10I 0.971 1_555 1_555
H5I C11I 0.995 1_555 1_555
H6H C12H 0.953 1_555 1_555
H5H C11H 0.995 1_555 1_555
H4H C10H 0.971 1_555 1_555
C11A C12 1.370 1_555 1_555
C10A C9 1.384 1_555 1_555
H4A C10A 0.971 1_555 1_555
H5A C11A 0.995 1_555 1_555
C2I C7I 1.479 1_555 1_555
C4I C5I 1.362 1_555 1_555
C2H C7H 1.479 1_555 1_555
C5H C6H 1.409 1_555 1_555
C4A C3A 1.420 1_555 1_555
C7H C8H 1.398 1_555 1_555
C11I C10I 1.377 1_555 1_555
C11A C10A 1.377 1_555 1_555
#END
