
#######################################################################
#
#                 Cambridge Crystallographic Data Centre
#                                CCDC
#
#######################################################################
#
# If this CIF has been generated from an entry in the Cambridge
# Structural Database, then it will include bibliographic, chemical,
# crystal, experimental, refinement or atomic coordinate data resulting
# from the CCDC's data processing and validation procedures.
#
#######################################################################

data_CSD_CIF_KOMHOJ
_audit_creation_date 1992-09-08
_audit_creation_method CSD-ConQuest-V1
_database_code_CSD KOMHOJ
_chemical_formula_sum 'C22 H28'
_chemical_formula_moiety
;
C22 H28
;
_journal_coeditor_code "IUCr AL0465"
_journal_coden_Cambridge 591
_journal_volume 48
_journal_year 1992
_journal_page_first 397
_journal_name_full 'Acta Crystallogr.,Sect.C:Cryst.Struct.Commun. '
loop_
_publ_author_name
"P.Moreau"
"J.Solofo"
"P.Geneste"
"A.Finiels"
"J.Rambaud"
"J.-P.Declercq"
_chemical_name_systematic
;
2,6-Dicyclohexylnaphthalene
;
_cell_volume   1767.236
_exptl_crystal_colour 'colorless'
_exptl_crystal_density_diffrn 1.1
_diffrn_ambient_temperature ?
_diffrn_special_details
;
The study was carried out at room temperature,in the range 283-303K

;
#These two values have been output from a single CSD field.
_refine_ls_R_factor_gt 0.048
_refine_ls_wR_factor_gt 0.048
_symmetry_cell_setting monoclinic
_symmetry_space_group_name_H-M 'C 2/c'
_symmetry_Int_Tables_number 15
loop_
_symmetry_equiv_pos_site_id
_symmetry_equiv_pos_as_xyz
1 x,y,z
2 1/2+x,1/2+y,z
3 -x,y,1/2-z
4 1/2-x,1/2+y,1/2-z
5 -x,-y,-z
6 -1/2-x,-1/2-y,-z
7 x,-y,-1/2+z
8 -1/2+x,-1/2-y,-1/2+z
_cell_length_a 25.691(4)
_cell_length_b 5.663(1)
_cell_length_c 13.279(2)
_cell_angle_alpha 90
_cell_angle_beta 113.83(1)
_cell_angle_gamma 90
_cell_formula_units_Z 4
loop_
_atom_type_symbol
_atom_type_radius_bond
C 0.68
H 0.23
loop_
_atom_site_label
_atom_site_type_symbol
_atom_site_fract_x
_atom_site_fract_y
_atom_site_fract_z
C1 C 0.89024(8) 0.04074(37) 0.14790(16)
C2 C 0.89249(11) 0.25787(43) 0.21716(20)
C3 C 0.85391(11) 0.23409(51) 0.27836(21)
C4 C 0.79358(11) 0.17567(55) 0.20160(25)
C5 C 0.79105(14) -0.04118(64) 0.13313(31)
C6 C 0.82929(10) -0.01573(55) 0.07105(22)
C7 C 0.96763(7) -0.10978(31) 0.09470(14)
C8 C 0.92831(7) 0.05994(32) 0.08544(14)
C9 C 0.92250(9) 0.25254(34) 0.01304(16)
C10 C 0.95555(9) 0.27007(34) -0.04508(16)
C11 C 1.00299(7) -0.09702(30) 0.03577(13)
H1 H 0.9037(9) -0.0943(41) 0.1997(18)
H2 H 0.9330(11) 0.2904(44) 0.2651(21)
H3 H 0.8784(10) 0.3885(45) 0.1668(21)
H4 H 0.8544(11) 0.3871(52) 0.3169(22)
H5 H 0.8677(12) 0.1032(5) 0.3348(24)
H6 H 0.7781(12) 0.3070(53) 0.1501(24)
H7 H 0.7702(12) 0.1531(49) 0.2403(22)
H8 H 0.8068(13) -0.1795(62) 0.1890(27)
H9 H 0.7513(15) -0.0647(60) 0.0758(26)
H10 H 0.8164(12) 0.1130(54) 0.0139(24)
H11 H 0.8286(12) -0.1502(69) 0.0256(25)
H12 H 0.9750(8) -0.2481(35) 0.1444(15)
H13 H 0.895(1) 0.3733(45) 0.0061(18)
C11D C 0.99701(7) 0.09702(30) -0.03577(13)
C10D C 1.04445(9) -0.27007(34) 0.04508(16)
C7D C 1.03237(7) 0.10978(31) -0.09470(14)
C9D C 1.07750(9) -0.25254(34) -0.01304(16)
C8D C 1.07169(7) -0.05994(32) -0.08544(14)
H12D H 1.0250(8) 0.2481(35) -0.1444(15)
H13D H 1.105(1) -0.3733(45) -0.0061(18)
C1D C 1.10976(8) -0.04074(37) -0.14790(16)
C2D C 1.10751(11) -0.25787(43) -0.21716(20)
C6D C 1.17071(10) 0.01573(55) -0.07105(22)
H1D H 1.0963(9) 0.0943(41) -0.1997(18)
C3D C 1.14609(11) -0.23409(51) -0.27836(21)
H2D H 1.0670(11) -0.2904(44) -0.2651(21)
H3D H 1.1216(10) -0.3885(45) -0.1668(21)
C5D C 1.20895(14) 0.04118(64) -0.13313(31)
H10D H 1.1836(12) -0.1130(54) -0.0139(24)
H11D H 1.1714(12) 0.1502(69) -0.0256(25)
C4D C 1.20642(11) -0.17567(55) -0.20160(25)
H4D H 1.1456(11) -0.3871(52) -0.3169(22)
H5D H 1.1323(12) -0.1032(5) -0.3348(24)
H8D H 1.1932(13) 0.1795(62) -0.1890(27)
H9D H 1.2487(15) 0.0647(60) -0.0758(26)
H6D H 1.2219(12) -0.3070(53) -0.1501(24)
H7D H 1.2298(12) -0.1531(49) -0.2403(22)
loop_
_geom_bond_atom_site_label_1
_geom_bond_atom_site_label_2
_geom_bond_distance
_geom_bond_site_symmetry_1
_geom_bond_site_symmetry_2
C1 C2 1.523 1_555 1_555
C2 C3 1.520 1_555 1_555
C3 C4 1.508 1_555 1_555
C4 C5 1.514 1_555 1_555
C5 C6 1.523 1_555 1_555
C6 C1 1.518 1_555 1_555
C7 C8 1.363 1_555 1_555
C8 C1 1.520 1_555 1_555
C9 C8 1.421 1_555 1_555
C10 C9 1.362 1_555 1_555
C11 C7 1.420 1_555 1_555
H1 C1 0.993 1_555 1_555
H2 C2 0.993 1_555 1_555
H3 C2 0.964 1_555 1_555
H4 C3 1.004 1_555 1_555
H5 C3 1.011 1_555 1_555
H6 C4 0.979 1_555 1_555
H7 C4 0.944 1_555 1_555
H8 C5 1.042 1_555 1_555
H9 C5 1.006 1_555 1_555
H10 C6 1.007 1_555 1_555
H11 C6 0.967 1_555 1_555
H12 C7 0.992 1_555 1_555
H13 C9 0.961 1_555 1_555
C11D C10 1.416 1_555 1_555
C10D C11 1.416 1_555 1_555
C7D C11D 1.420 1_555 1_555
C9D C10D 1.362 1_555 1_555
C8D C7D 1.363 1_555 1_555
H12D C7D 0.992 1_555 1_555
H13D C9D 0.961 1_555 1_555
C1D C8D 1.520 1_555 1_555
C2D C1D 1.523 1_555 1_555
C6D C1D 1.518 1_555 1_555
H1D C1D 0.993 1_555 1_555
C3D C2D 1.520 1_555 1_555
H2D C2D 0.993 1_555 1_555
H3D C2D 0.964 1_555 1_555
C5D C6D 1.523 1_555 1_555
H10D C6D 1.007 1_555 1_555
H11D C6D 0.967 1_555 1_555
C4D C3D 1.508 1_555 1_555
H4D C3D 1.004 1_555 1_555
H5D C3D 1.011 1_555 1_555
H8D C5D 1.042 1_555 1_555
H9D C5D 1.006 1_555 1_555
H6D C4D 0.979 1_555 1_555
H7D C4D 0.944 1_555 1_555
C11 C11D 1.420 1_555 1_555
C9D C8D 1.421 1_555 1_555
C5D C4D 1.514 1_555 1_555
#END
