
#######################################################################
#
#                 Cambridge Crystallographic Data Centre
#                                CCDC
#
#######################################################################
#
# If this CIF has been generated from an entry in the Cambridge
# Structural Database, then it will include bibliographic, chemical,
# crystal, experimental, refinement or atomic coordinate data resulting
# from the CCDC's data processing and validation procedures.
#
#######################################################################

data_CSD_CIF_MBZANT10
_audit_creation_date 1980-10-28
_audit_creation_method CSD-ConQuest-V1
_database_code_CSD MBZANT10
_chemical_formula_sum 'C19 H14'
_chemical_formula_moiety
;
C19 H14
;
_journal_coden_Cambridge 175
_journal_volume 4
_journal_year 1979
_journal_page_first 43
_journal_name_full 'Cancer Biochem.Biophys. '
loop_
_publ_author_name
"D.W.Jones"
"J.M.Sowden"
_chemical_name_systematic
;
1-Methylbenz(a)anthracene
;
_cell_volume    633.912
_exptl_crystal_colour 'colorless'
_exptl_crystal_density_diffrn 1.29
_diffrn_ambient_temperature ?
_diffrn_special_details
;
The study was carried out at room temperature,in the range 283-303K

;
#These two values have been output from a single CSD field.
_refine_ls_R_factor_gt 0.09
_refine_ls_wR_factor_gt 0.09
_symmetry_cell_setting monoclinic
_symmetry_space_group_name_H-M 'P 21'
_symmetry_Int_Tables_number 4
loop_
_symmetry_equiv_pos_site_id
_symmetry_equiv_pos_as_xyz
1 x,y,z
2 -x,1/2+y,-z
_cell_length_a 8.491(2)
_cell_length_b 7.138(2)
_cell_length_c 10.500(2)
_cell_angle_alpha 90
_cell_angle_beta 95.06(1)
_cell_angle_gamma 90
_cell_formula_units_Z 2
loop_
_atom_type_symbol
_atom_type_radius_bond
C 0.68
H 0.23
loop_
_atom_site_label
_atom_site_type_symbol
_atom_site_fract_x
_atom_site_fract_y
_atom_site_fract_z
C1 C 0.53790 0.14680 0.56080
C2 C 0.62510 0.17660 0.68000
C3 C 0.78580 0.18270 0.69440
C4 C 0.87450 0.15130 0.59230
C5 C 0.88480 0.06790 0.36600
C6 C 0.81660 0.01970 0.25060
C7 C 0.58010 0.00090 0.10230
C8 C 0.34440 -0.00720 -0.05690
C9 C 0.18990 0.04170 -0.08560
C10 C 0.10290 0.13620 0.00080
C11 C 0.17160 0.18380 0.11940
C12 C 0.40090 0.16610 0.28080
C13 C 0.62830 0.13000 0.45080
C14 C 0.79400 0.11820 0.46980
C15 C 0.64770 0.04030 0.22270
C16 C 0.42090 0.04040 0.06670
C17 C 0.33070 0.13120 0.15590
C18 C 0.55480 0.10980 0.31900
C19 C 0.36350 0.12710 0.55950
H1 H 0.55700 0.20500 0.74400
H2 H 0.83600 0.21200 0.77800
H3 H 0.99200 0.15400 0.60100
H4 H 1.00200 0.06700 0.37700
H5 H 0.86400 -0.05000 0.16800
H6 H 0.63900 -0.06100 0.02800
H7 H 0.40600 -0.07700 -0.12100
H8 H 0.14300 0.00200 -0.17000
H9 H 0.00100 0.25000 -0.02200
H10 H 0.13800 0.25000 0.20100
H11 H 0.35000 0.25000 0.35900
H12 H 0.34300 0.10700 0.62600
H13 H 0.31000 0.00300 0.50100
H14 H 0.29600 0.25000 0.51600
loop_
_geom_bond_atom_site_label_1
_geom_bond_atom_site_label_2
_geom_bond_distance
_geom_bond_site_symmetry_1
_geom_bond_site_symmetry_2
C1 C2 1.413 1_555 1_555
C2 C3 1.360 1_555 1_555
C3 C4 1.382 1_555 1_555
C4 C14 1.422 1_555 1_555
C5 C6 1.341 1_555 1_555
C6 C15 1.446 1_555 1_555
C7 C15 1.371 1_555 1_555
C8 C9 1.365 1_555 1_555
C9 C10 1.394 1_555 1_555
C10 C11 1.371 1_555 1_555
C11 C17 1.422 1_555 1_555
C12 C17 1.414 1_555 1_555
C13 C1 1.447 1_555 1_555
C14 C5 1.435 1_555 1_555
C15 C18 1.425 1_555 1_555
C16 C7 1.399 1_555 1_555
C17 C16 1.418 1_555 1_555
C18 C12 1.392 1_555 1_555
C19 C1 1.486 1_555 1_555
H1 C2 0.946 1_555 1_555
H2 C3 0.964 1_555 1_555
H3 C4 0.994 1_555 1_555
H4 C5 0.992 1_555 1_555
H5 C6 1.106 1_555 1_555
H6 C7 1.060 1_555 1_555
H7 C8 1.018 1_555 1_555
H8 C9 0.981 1_555 1_555
H9 C10 1.196 1_555 1_555
H10 C11 1.040 1_555 1_555
H11 C12 1.132 1_555 1_555
H12 C19 0.748 1_555 1_555
H13 C19 1.149 1_555 1_555
H14 C19 1.123 1_555 1_555
C8 C16 1.440 1_555 1_555
C13 C14 1.406 1_555 1_555
C13 C18 1.474 1_555 1_555
#END
