
#######################################################################
#
#                 Cambridge Crystallographic Data Centre
#                                CCDC
#
#######################################################################
#
# If this CIF has been generated from an entry in the Cambridge
# Structural Database, then it will include bibliographic, chemical,
# crystal, experimental, refinement or atomic coordinate data resulting
# from the CCDC's data processing and validation procedures.
#
#######################################################################

data_CSD_CIF_MEBANT10
_audit_creation_date 1977-11-18
_audit_creation_method CSD-ConQuest-V1
_database_code_CSD MEBANT10
_chemical_formula_sum 'C19 H14'
_chemical_formula_moiety
;
C19 H14
;
_journal_coden_Cambridge 175
_journal_volume 1
_journal_year 1976
_journal_page_first 281
_journal_name_full 'Cancer Biochem.Biophys. '
loop_
_publ_author_name
"D.W.Jones"
"J.M.Sowden"
_chemical_name_systematic
;
12-Methylbenz(a)anthracene
;
_chemical_melting_point 411.15
_cell_volume    633.047
_exptl_crystal_density_diffrn 1.29
_exptl_special_details
;
beta is 91.84 not 9.48. z(C5) is 1.009 not 1.09

;
_diffrn_ambient_temperature ?
_diffrn_special_details
;
The study was carried out at room temperature,in the range 283-303K

;
#These two values have been output from a single CSD field.
_refine_ls_R_factor_gt 0.092
_refine_ls_wR_factor_gt 0.092
_symmetry_cell_setting monoclinic
_symmetry_space_group_name_H-M 'P 21'
_symmetry_Int_Tables_number 4
loop_
_symmetry_equiv_pos_site_id
_symmetry_equiv_pos_as_xyz
1 x,y,z
2 -x,1/2+y,-z
_cell_length_a 9.269(2)
_cell_length_b 7.442(2)
_cell_length_c 9.182(1)
_cell_angle_alpha 90
_cell_angle_beta 91.84(1)
_cell_angle_gamma 90
_cell_formula_units_Z 2
loop_
_atom_type_symbol
_atom_type_radius_bond
C 0.68
H 0.23
loop_
_atom_site_label
_atom_site_type_symbol
_atom_site_fract_x
_atom_site_fract_y
_atom_site_fract_z
C1 C -0.23710 -0.29730 -0.24420
C2 C -0.11010 -0.29370 -0.15980
C3 C -0.10010 -0.37730 -0.02630
C4 C -0.21910 -0.46340 0.02520
C5 C -0.47790 -0.53520 0.00900
C6 C -0.60660 -0.52220 -0.06010
C7 C -0.75490 -0.45370 -0.27680
C8 C -0.90980 -0.39470 -0.49500
C9 C -0.92440 -0.34660 -0.63820
C10 C -0.79890 -0.31260 -0.71930
C11 C -0.66370 -0.33100 -0.65620
C12 C -0.50530 -0.38510 -0.43680
C13 C -0.35790 -0.39610 -0.19830
C14 C -0.35160 -0.46710 -0.05710
C15 C -0.61950 -0.45940 -0.20840
C16 C -0.77060 -0.40840 -0.42530
C17 C -0.64470 -0.37470 -0.50650
C18 C -0.49380 -0.41050 -0.28680
C19 C -0.37490 -0.39010 -0.53310
H1 H -0.24200 -0.23300 -0.33500
H2 H -0.02800 -0.22900 -0.19600
H3 H -0.01200 -0.37700 0.03000
H4 H -0.21000 -0.52700 0.11600
H5 H -0.47100 -0.58900 0.10400
H6 H -0.69200 -0.55600 -0.01100
H7 H -0.83800 -0.48900 -0.22600
H8 H -0.99600 -0.41800 -0.44200
H9 H -0.98200 -0.33600 -0.68400
H10 H -0.80800 -0.27100 -0.81800
H11 H -0.58100 -0.32000 -0.71300
H12 H -0.38600 -0.50000 -0.62900
H13 H -0.26800 -0.42000 -0.46100
H14 H -0.36200 -0.24400 -0.59000
loop_
_geom_bond_atom_site_label_1
_geom_bond_atom_site_label_2
_geom_bond_distance
_geom_bond_site_symmetry_1
_geom_bond_site_symmetry_2
C1 C2 1.389 1_555 1_555
C2 C3 1.375 1_555 1_555
C3 C4 1.373 1_555 1_555
C4 C14 1.421 1_555 1_555
C5 C6 1.337 1_555 1_555
C6 C15 1.441 1_555 1_555
C7 C15 1.386 1_555 1_555
C8 C9 1.365 1_555 1_555
C9 C10 1.424 1_555 1_555
C10 C11 1.370 1_555 1_555
C11 C17 1.418 1_555 1_555
C12 C17 1.425 1_555 1_555
C13 C1 1.415 1_555 1_555
C14 C5 1.429 1_555 1_555
C15 C18 1.436 1_555 1_555
C16 C7 1.408 1_555 1_555
C17 C16 1.427 1_555 1_555
C18 C12 1.391 1_555 1_555
C19 C12 1.521 1_555 1_555
H1 C1 0.961 1_555 1_555
H2 C2 0.968 1_555 1_555
H3 C3 0.952 1_555 1_555
H4 C4 0.960 1_555 1_555
H5 C5 0.960 1_555 1_555
H6 C6 0.957 1_555 1_555
H7 C7 0.950 1_555 1_555
H8 C8 0.964 1_555 1_555
H9 C9 0.674 1_555 1_555
H10 C10 0.959 1_555 1_555
H11 C11 0.944 1_555 1_555
H12 C19 1.204 1_555 1_555
H13 C19 1.195 1_555 1_555
H14 C19 1.214 1_555 1_555
C8 C16 1.425 1_555 1_555
C13 C14 1.400 1_555 1_555
C13 C18 1.481 1_555 1_555
#END
