
#######################################################################
#
#                 Cambridge Crystallographic Data Centre
#                                CCDC
#
#######################################################################
#
# If this CIF has been generated from an entry in the Cambridge
# Structural Database, then it will include bibliographic, chemical,
# crystal, experimental, refinement or atomic coordinate data resulting
# from the CCDC's data processing and validation procedures.
#
#######################################################################

data_CSD_CIF_NAPHTA53
_audit_creation_date 1983-03-10
_audit_creation_method CSD-ConQuest-V1
_database_code_CSD NAPHTA53
_database_code_depnum_ccdc_archive 'CCDC 1216812'
_chemical_formula_sum 'C10 H8'
_chemical_formula_moiety
;
C10 H8
;
_journal_coeditor_code "IUCr A21415"
_journal_coden_Cambridge 107
_journal_volume 38
_journal_year 1982
_journal_page_first 2218
_journal_name_full 'Acta Crystallogr.,Sect.B:Struct.Crystallogr.Cryst.Chem. '
loop_
_publ_author_name
"C.P.Brock"
"J.D.Dunitz"
_chemical_name_systematic
;
naphthalene
;
_cell_volume    343.698
_exptl_crystal_density_diffrn 1.239
_diffrn_ambient_temperature 92
#These two values have been output from a single CSD field.
_refine_ls_R_factor_gt 0.038
_refine_ls_wR_factor_gt 0.038
_symmetry_cell_setting monoclinic
_symmetry_space_group_name_H-M 'P 21/a'
_symmetry_Int_Tables_number 14
loop_
_symmetry_equiv_pos_site_id
_symmetry_equiv_pos_as_xyz
1 x,y,z
2 1/2-x,1/2+y,-z
3 -x,-y,-z
4 -1/2+x,-1/2-y,z
_cell_length_a 8.1080(53)
_cell_length_b 5.9397(16)
_cell_length_c 8.6472(46)
_cell_angle_alpha 90
_cell_angle_beta 124.379(43)
_cell_angle_gamma 90
_cell_formula_units_Z 2
loop_
_atom_type_symbol
_atom_type_radius_bond
C 0.68
H 0.23
loop_
_atom_site_label
_atom_site_type_symbol
_atom_site_fract_x
_atom_site_fract_y
_atom_site_fract_z
C1 C 0.08240 0.01890 0.32880
C2 C 0.11320 0.16380 0.22330
C3 C 0.04790 0.10550 0.03710
C4 C 0.07700 0.25210 -0.07560
C5 C -0.01340 -0.19060 0.25450
H1 H 0.12290 0.05720 0.44710
H2 H 0.17980 0.30670 0.27260
H3 H 0.14120 0.38830 -0.02530
H4 H -0.03230 -0.29160 0.32890
C1B C -0.08240 -0.01890 -0.32880
C2B C -0.11320 -0.16380 -0.22330
C3B C -0.04790 -0.10550 -0.03710
C4B C -0.07700 -0.25210 0.07560
C5B C 0.01340 0.19060 -0.25450
H1B H -0.12290 -0.05720 -0.44710
H2B H -0.17980 -0.30670 -0.27260
H3B H -0.14120 -0.38830 0.02530
H4B H 0.03230 0.29160 -0.32890
loop_
_geom_bond_atom_site_label_1
_geom_bond_atom_site_label_2
_geom_bond_distance
_geom_bond_site_symmetry_1
_geom_bond_site_symmetry_2
C1 C2 1.376 1_555 1_555
C2 C3 1.425 1_555 1_555
C3 C4 1.422 1_555 1_555
C4 H3 0.927 1_555 1_555
C5 C1 1.415 1_555 1_555
H1 C1 0.909 1_555 1_555
H2 C2 0.966 1_555 1_555
H4 C5 0.953 1_555 1_555
C1B C2B 1.376 1_555 1_555
C2B C3B 1.425 1_555 1_555
C3B C3 1.422 1_555 1_555
C4B C5 1.375 1_555 1_555
C5B C4 1.375 1_555 1_555
H1B C1B 0.909 1_555 1_555
H2B C2B 0.966 1_555 1_555
H3B C4B 0.927 1_555 1_555
H4B C5B 0.953 1_555 1_555
C1B C5B 1.415 1_555 1_555
C3B C4B 1.422 1_555 1_555
#END
