
#######################################################################
#
#                 Cambridge Crystallographic Data Centre
#                                CCDC
#
#######################################################################
#
# If this CIF has been generated from an entry in the Cambridge
# Structural Database, then it will include bibliographic, chemical,
# crystal, experimental, refinement or atomic coordinate data resulting
# from the CCDC's data processing and validation procedures.
#
#######################################################################

data_CSD_CIF_NEVGUT
_audit_creation_date 2018-04-25
_audit_creation_method CSD-ConQuest-V1
_database_code_CSD NEVGUT
_database_code_depnum_ccdc_archive 'CCDC 1585563'
_chemical_formula_sum 'C48 H24'
_chemical_formula_moiety
;
C48 H24
;
_journal_coden_Cambridge 4
_journal_volume 140
_journal_year 2018
_journal_page_first 4317
_journal_name_full 'J.Am.Chem.Soc. '
loop_
_publ_author_name
"Y.Nakakuki"
"T.Hirose"
"H.Sotome"
"H.Miyasaka"
"K.Matsuda"
_chemical_name_systematic
;
hexabenzo[de,gh,jk,mn,pq,st]heptahelicene
;
_cell_volume   1437.246
_exptl_crystal_colour 'green'
_exptl_crystal_density_diffrn 1.388
_exptl_crystal_description 'Prism'
_exptl_crystal_preparation 'toluene'
_diffrn_ambient_temperature 296
#These two values have been output from a single CSD field.
_refine_ls_R_factor_gt 0.0839
_refine_ls_wR_factor_gt 0.0839
_symmetry_cell_setting triclinic
_symmetry_space_group_name_H-M 'P -1'
_symmetry_Int_Tables_number 2
loop_
_symmetry_equiv_pos_site_id
_symmetry_equiv_pos_as_xyz
1 x,y,z
2 -x,-y,-z
_cell_length_a 8.8337(7)
_cell_length_b 10.0588(8)
_cell_length_c 16.3246(15)
_cell_angle_alpha 91.209(2)
_cell_angle_beta 95.437(2)
_cell_angle_gamma 95.278(2)
_cell_formula_units_Z 2
loop_
_atom_type_symbol
_atom_type_radius_bond
C 0.68
H 0.23
loop_
_atom_site_label
_atom_site_type_symbol
_atom_site_fract_x
_atom_site_fract_y
_atom_site_fract_z
C1 C 0.0562(3) 0.7986(3) 0.23778(17)
H1 H 0.13070 0.73880 0.24000
C2 C 0.0847(4) 0.9193(3) 0.28324(19)
H2 H 0.17780 0.93930 0.31470
C3 C -0.0233(4) 1.0075(3) 0.28150(19)
H3 H -0.00610 1.08430 0.31510
C4 C -0.1611(4) 0.9848(3) 0.22985(19)
C5 C -0.2722(5) 1.0763(4) 0.2236(2)
H4 H -0.25850 1.15350 0.25690
C6 C -0.3999(5) 1.0534(4) 0.1694(2)
H5 H -0.47480 1.11280 0.16800
C7 C -0.4194(4) 0.9405(4) 0.1154(2)
H6 H -0.50520 0.92840 0.07730
C8 C -0.3130(3) 0.8470(3) 0.11791(18)
C9 C -0.3194(3) 0.7341(3) 0.05690(17)
C10 C -0.4163(4) 0.7268(4) -0.01502(19)
H7 H -0.47850 0.79520 -0.02650
C11 C -0.4225(4) 0.6197(4) -0.07034(19)
H8 H -0.48540 0.61910 -0.11940
C12 C -0.3375(4) 0.5149(3) -0.05380(18)
H9 H -0.34550 0.44270 -0.09100
C13 C -0.2372(3) 0.5149(3) 0.01931(16)
C14 C -0.1497(3) 0.4027(3) 0.04100(17)
C15 C -0.1483(4) 0.2893(3) -0.01111(19)
H10 H -0.20470 0.28470 -0.06230
C16 C -0.0651(4) 0.1857(3) 0.0126(2)
H11 H -0.06970 0.11000 -0.02160
C17 C 0.0258(4) 0.1922(3) 0.0870(2)
H12 H 0.08460 0.12230 0.10080
C18 C 0.0308(3) 0.3011(3) 0.14135(18)
C19 C 0.1356(3) 0.3155(3) 0.21723(18)
C20 C 0.2521(4) 0.2338(3) 0.2349(2)
H13 H 0.27080 0.17100 0.19530
C21 C 0.3414(4) 0.2431(3) 0.3098(2)
H14 H 0.41920 0.18740 0.31930
C22 C 0.3164(3) 0.3338(3) 0.3703(2)
H15 H 0.37490 0.33640 0.42090
C23 C 0.2028(3) 0.4226(3) 0.35605(17)
C24 C 0.1744(3) 0.5252(3) 0.41605(17)
C25 C 0.2767(3) 0.5602(3) 0.48654(19)
H16 H 0.36460 0.51640 0.49610
C26 C 0.2481(4) 0.6579(3) 0.5410(2)
H17 H 0.31660 0.68000 0.58710
C27 C 0.1182(4) 0.7239(3) 0.52779(19)
H18 H 0.10160 0.79060 0.56530
C28 C 0.0108(3) 0.6939(3) 0.45995(16)
C29 C -0.1259(3) 0.7665(3) 0.44439(17)
C30 C -0.1520(4) 0.8767(3) 0.4917(2)
H19 H -0.07800 0.91010 0.53320
C31 C -0.2879(4) 0.9391(4) 0.4784(2)
H20 H -0.30020 1.01590 0.50880
C32 C -0.4009(4) 0.8880(4) 0.4216(2)
H21 H -0.49160 0.92840 0.41470
C33 C -0.3831(4) 0.7733(3) 0.37234(19)
C34 C -0.5027(4) 0.7128(4) 0.3164(2)
H22 H -0.59550 0.74990 0.30970
C35 C -0.4824(3) 0.5993(3) 0.27195(19)
H23 H -0.56420 0.55560 0.23880
C36 C -0.3391(3) 0.5492(3) 0.27630(17)
H24 H -0.32660 0.47380 0.24460
C37 C -0.2156(3) 0.6092(3) 0.32677(16)
C38 C -0.0624(3) 0.5630(3) 0.32912(16)
C39 C -0.0078(3) 0.4999(3) 0.26246(16)
C40 C -0.0658(3) 0.5168(3) 0.17616(16)
C41 C -0.1199(3) 0.6338(3) 0.14729(16)
C42 C -0.0809(3) 0.7660(3) 0.18943(16)
C43 C -0.1853(3) 0.8652(3) 0.17910(17)
C44 C -0.2240(3) 0.6287(3) 0.07332(16)
C45 C -0.0640(3) 0.4054(3) 0.11928(16)
C46 C 0.1134(3) 0.4139(3) 0.27864(17)
C47 C 0.0397(3) 0.5904(3) 0.40341(16)
C48 C -0.2407(3) 0.7177(3) 0.38047(17)
loop_
_geom_bond_atom_site_label_1
_geom_bond_atom_site_label_2
_geom_bond_distance
_geom_bond_site_symmetry_1
_geom_bond_site_symmetry_2
C1 H1 0.930 1_555 1_555
C2 C1 1.399 1_555 1_555
H2 C2 0.930 1_555 1_555
C3 C2 1.360 1_555 1_555
H3 C3 0.930 1_555 1_555
C4 C3 1.411 1_555 1_555
C5 C4 1.404 1_555 1_555
H4 C5 0.930 1_555 1_555
C6 C5 1.365 1_555 1_555
H5 C6 0.930 1_555 1_555
C7 C6 1.410 1_555 1_555
H6 C7 0.931 1_555 1_555
C8 C7 1.388 1_555 1_555
C9 C8 1.488 1_555 1_555
C10 C9 1.382 1_555 1_555
H7 C10 0.931 1_555 1_555
C11 C10 1.385 1_555 1_555
H8 C11 0.930 1_555 1_555
C12 C11 1.366 1_555 1_555
H9 C12 0.930 1_555 1_555
C13 C12 1.417 1_555 1_555
C14 C13 1.457 1_555 1_555
C15 C14 1.410 1_555 1_555
H10 C15 0.929 1_555 1_555
C16 C15 1.371 1_555 1_555
H11 C16 0.930 1_555 1_555
C17 C16 1.388 1_555 1_555
H12 C17 0.931 1_555 1_555
C18 C17 1.390 1_555 1_555
C19 C18 1.471 1_555 1_555
C20 C19 1.388 1_555 1_555
H13 C20 0.931 1_555 1_555
C21 C20 1.387 1_555 1_555
H14 C21 0.930 1_555 1_555
C22 C21 1.377 1_555 1_555
H15 C22 0.930 1_555 1_555
C23 C22 1.410 1_555 1_555
C24 C23 1.463 1_555 1_555
C25 C24 1.411 1_555 1_555
H16 C25 0.930 1_555 1_555
C26 C25 1.368 1_555 1_555
H17 C26 0.929 1_555 1_555
C27 C26 1.380 1_555 1_555
H18 C27 0.930 1_555 1_555
C28 C27 1.397 1_555 1_555
C29 C28 1.472 1_555 1_555
C30 C29 1.387 1_555 1_555
H19 C30 0.930 1_555 1_555
C31 C30 1.406 1_555 1_555
H20 C31 0.930 1_555 1_555
C32 C31 1.353 1_555 1_555
H21 C32 0.930 1_555 1_555
C33 C32 1.422 1_555 1_555
C34 C33 1.413 1_555 1_555
H22 C34 0.930 1_555 1_555
C35 C34 1.375 1_555 1_555
H23 C35 0.930 1_555 1_555
C36 C35 1.401 1_555 1_555
H24 C36 0.930 1_555 1_555
C37 C36 1.386 1_555 1_555
C38 C37 1.468 1_555 1_555
C39 C38 1.395 1_555 1_555
C40 C39 1.472 1_555 1_555
C41 C40 1.386 1_555 1_555
C42 C1 1.390 1_555 1_555
C43 C4 1.434 1_555 1_555
C44 C9 1.428 1_555 1_555
C45 C14 1.421 1_555 1_555
C46 C19 1.433 1_555 1_555
C47 C24 1.411 1_555 1_555
C48 C29 1.430 1_555 1_555
C8 C43 1.430 1_555 1_555
C13 C44 1.419 1_555 1_555
C18 C45 1.433 1_555 1_555
C23 C46 1.422 1_555 1_555
C28 C47 1.433 1_555 1_555
C33 C48 1.419 1_555 1_555
C37 C48 1.432 1_555 1_555
C38 C47 1.447 1_555 1_555
C39 C46 1.446 1_555 1_555
C40 C45 1.442 1_555 1_555
C41 C42 1.481 1_555 1_555
C41 C44 1.444 1_555 1_555
C42 C43 1.422 1_555 1_555
#END
