
#######################################################################
#
#                 Cambridge Crystallographic Data Centre
#                                CCDC
#
#######################################################################
#
# If this CIF has been generated from an entry in the Cambridge
# Structural Database, then it will include bibliographic, chemical,
# crystal, experimental, refinement or atomic coordinate data resulting
# from the CCDC's data processing and validation procedures.
#
#######################################################################

data_CSD_CIF_OMNAPH
_audit_creation_date 1971-12-31
_audit_creation_method CSD-ConQuest-V1
_database_code_CSD OMNAPH
_chemical_formula_sum 'C18 H24'
_chemical_formula_moiety
;
C18 H24
;
_journal_coden_Cambridge 2
_journal_year 1953
_journal_page_first 17
_journal_name_full 'J.Chem.Soc. '
loop_
_publ_author_name
"D.M.Donaldson"
"J.M.Robertson"
_chemical_name_systematic
;
Octamethylnaphthalene
;
_cell_volume   1439.564
_exptl_crystal_density_diffrn 1.109
_exptl_special_details
;
Origin is at -1, not 2/m

;
_diffrn_ambient_temperature ?
_diffrn_special_details
;
The study was carried out at room temperature,in the range 283-303K

;
#These two values have been output from a single CSD field.
_refine_ls_R_factor_gt 0.142
_refine_ls_wR_factor_gt 0.142
_symmetry_cell_setting orthorhombic
_symmetry_space_group_name_H-M 'C c c a'
_symmetry_Int_Tables_number 68
loop_
_symmetry_equiv_pos_site_id
_symmetry_equiv_pos_as_xyz
1 x,y,z
2 -x,1/2-y,z
3 1/2+x,-y,1/2-z
4 1/2-x,1/2+y,1/2-z
5 1/2+x,1/2+y,z
6 1/2-x,-y,z
7 x,1/2-y,1/2-z
8 -x,y,1/2-z
9 -x,-y,-z
10 x,-1/2+y,-z
11 -1/2-x,y,-1/2+z
12 -1/2+x,-1/2-y,-1/2+z
13 -1/2-x,-1/2-y,-z
14 -1/2+x,y,-z
15 -x,-1/2+y,-1/2+z
16 x,-y,-1/2+z
_cell_length_a 16.66(3)
_cell_length_b 11.31(1)
_cell_length_c 7.64(3)
_cell_angle_alpha 90
_cell_angle_beta 90
_cell_angle_gamma 90
_cell_formula_units_Z 4
loop_
_atom_type_symbol
_atom_type_radius_bond
C 0.68
loop_
_atom_site_label
_atom_site_type_symbol
_atom_site_fract_x
_atom_site_fract_y
_atom_site_fract_z
C1 C 0.04100 0.25000 0.25000
C2 C 0.07900 0.36000 0.28400
C3 C 0.04200 0.46200 0.23800
C4 C 0.16800 0.36500 0.34500
C5 C 0.08600 0.58100 0.21600
C1A C -0.04100 0.25000 0.25000
C2F C 0.07900 0.14000 0.21600
C3G C -0.04200 0.46200 0.26200
C2A C -0.07900 0.14000 0.28400
C2G C -0.07900 0.36000 0.21600
C3F C 0.04200 0.03800 0.26200
C4F C 0.16800 0.13500 0.15500
C5G C -0.08600 0.58100 0.28400
C3A C -0.04200 0.03800 0.23800
C4A C -0.16800 0.13500 0.34500
C4G C -0.16800 0.36500 0.15500
C5F C 0.08600 -0.08100 0.28400
C5A C -0.08600 -0.08100 0.21600
loop_
_geom_bond_atom_site_label_1
_geom_bond_atom_site_label_2
_geom_bond_distance
_geom_bond_site_symmetry_1
_geom_bond_site_symmetry_2
C1 C2 1.420 1_555 1_555
C2 C3 1.354 1_555 1_555
C3 C5 1.542 1_555 1_555
C4 C2 1.555 1_555 1_555
C1A C1 1.366 1_555 1_555
C2F C1 1.420 1_555 1_555
C3G C3 1.411 1_555 1_555
C2A C1A 1.420 1_555 1_555
C2G C1A 1.420 1_555 1_555
C3F C2F 1.354 1_555 1_555
C4F C2F 1.555 1_555 1_555
C5G C3G 1.542 1_555 1_555
C3A C2A 1.354 1_555 1_555
C4A C2A 1.555 1_555 1_555
C4G C2G 1.555 1_555 1_555
C5F C3F 1.542 1_555 1_555
C5A C3A 1.542 1_555 1_555
C3G C2G 1.354 1_555 1_555
C3F C3A 1.411 1_555 1_555
#END
