
#######################################################################
#
#                 Cambridge Crystallographic Data Centre
#                                CCDC
#
#######################################################################
#
# If this CIF has been generated from an entry in the Cambridge
# Structural Database, then it will include bibliographic, chemical,
# crystal, experimental, refinement or atomic coordinate data resulting
# from the CCDC's data processing and validation procedures.
#
#######################################################################

data_CSD_CIF_OPOPOZ
_audit_creation_date 2011-06-29
_audit_creation_method CSD-ConQuest-V1
_database_code_CSD OPOPOZ
_database_code_depnum_ccdc_archive 'CCDC 822581'
_chemical_formula_sum 'C60 H34'
_chemical_formula_moiety
;
C60 H34
;
_journal_coden_Cambridge 4
_journal_volume 132
_journal_year 2010
_journal_page_first 14421
_journal_name_full 'J.Am.Chem.Soc. '
loop_
_publ_author_name
"A.Shimizu"
"T.Kubo"
"M.Uruichi"
"K.Yakushi"
"M.Nakano"
"D.Shiomi"
"K.Sato"
"T.Takui"
"Y.Hirao"
"K.Matsumoto"
"H.Kurata"
"Y.Morita"
"K.Nakasuji"
_chemical_name_systematic
;
6,7,15,16-tetraphenyldicyclopenta[b,g]naphthaleno[1,2,3-cd;6,7,8-c'd']diphenal
ene
;
_cell_volume   7430.640
_exptl_crystal_colour 'black'
_exptl_crystal_density_diffrn 1.35
_exptl_crystal_description 'block'
_diffrn_ambient_temperature 200
#These two values have been output from a single CSD field.
_refine_ls_R_factor_gt 0.0666
_refine_ls_wR_factor_gt 0.0666
_symmetry_cell_setting tetragonal
_symmetry_space_group_name_H-M 'I 41 c d'
_symmetry_Int_Tables_number 110
loop_
_symmetry_equiv_pos_site_id
_symmetry_equiv_pos_as_xyz
1 x,y,z
2 -x,-y,z
3 -y,1/2+x,1/4+z
4 y,1/2-x,1/4+z
5 -x,y,1/2+z
6 x,-y,1/2+z
7 1/2+y,x,1/4+z
8 1/2-y,-x,1/4+z
9 1/2+x,1/2+y,1/2+z
10 1/2-x,1/2-y,1/2+z
11 1/2-y,x,3/4+z
12 1/2+y,-x,3/4+z
13 1/2-x,1/2+y,z
14 1/2+x,1/2-y,z
15 y,1/2+x,3/4+z
16 -y,1/2-x,3/4+z
_cell_length_a 12.4649(5)
_cell_length_b 12.4649(5)
_cell_length_c 47.8243(16)
_cell_angle_alpha 90
_cell_angle_beta 90
_cell_angle_gamma 90
_cell_formula_units_Z 8
loop_
_atom_type_symbol
_atom_type_radius_bond
C 0.68
H 0.23
loop_
_atom_site_label
_atom_site_type_symbol
_atom_site_fract_x
_atom_site_fract_y
_atom_site_fract_z
C1 C 0.9502(3) 0.3104(3) 0.26184(8)
C2 C 0.9788(4) 0.4010(4) 0.27693(9)
C3 C 1.00000 0.50000 0.26239(14)
C4 C 1.00000 0.50000 0.23195(14)
C5 C 0.9802(4) 0.4015(4) 0.21707(9)
C6 C 0.9506(3) 0.3111(3) 0.23154(8)
C7 C 0.9244(3) 0.2019(3) 0.22197(7)
C8 C 0.9114(3) 0.1486(3) 0.19621(8)
H1 H 0.92220 0.18610 0.17920
C9 C 0.8831(3) 0.0424(4) 0.19583(8)
H2 H 0.87760 0.00760 0.17820
C10 C 0.8615(4) -0.0186(3) 0.2202(1)
C11 C 0.8336(3) -0.1284(3) 0.22128(9)
H3 H 0.82430 -0.16680 0.20430
C12 C 0.8195(2) -0.1817(2) 0.24649(10)
H4 H 0.80060 -0.25550 0.24640
C13 C 0.8327(3) -0.1286(3) 0.27191(9)
H5 H 0.82200 -0.16610 0.28900
C14 C 0.8620(4) -0.0186(3) 0.27232(10)
C15 C 0.8794(3) 0.0404(3) 0.29728(8)
H6 H 0.87130 0.00520 0.31480
C16 C 0.9078(3) 0.1479(3) 0.29692(8)
H7 H 0.91760 0.18550 0.31400
C17 C 0.9221(3) 0.2018(3) 0.27112(7)
C18 C 0.9054(2) 0.1402(2) 0.24665(9)
C19 C 0.8748(2) 0.0336(2) 0.24666(10)
C20 C 0.9944(3) 0.3840(4) 0.30687(11)
C21 C 0.9110(3) 0.3923(3) 0.32645(9)
H8 H 0.84230 0.41640 0.32050
C22 C 0.9275(5) 0.3656(4) 0.35455(10)
H9 H 0.87040 0.37040 0.36770
C23 C 1.0312(6) 0.3309(4) 0.36316(11)
H10 H 1.04420 0.31270 0.38220
C24 C 1.1108(4) 0.3242(3) 0.34423(9)
H11 H 1.17940 0.29950 0.35000
C25 C 1.0954(3) 0.3522(3) 0.31651(9)
H12 H 1.15420 0.34980 0.30390
C26 C 1.0009(3) 0.3876(4) 0.18576(10)
C27 C 1.1040(3) 0.3574(3) 0.17834(8)
H13 H 1.15800 0.35250 0.19230
C28 C 1.1289(4) 0.3344(4) 0.15074(9)
H14 H 1.19950 0.31410 0.14540
C29 C 1.0462(5) 0.3420(4) 0.13099(9)
H15 H 1.06240 0.32740 0.11200
C30 C 0.9466(5) 0.3686(4) 0.13759(10)
H16 H 0.89330 0.37360 0.12340
C31 C 0.9200(3) 0.3894(3) 0.16573(9)
H17 H 0.84790 0.40440 0.17090
C1A C 1.0498(3) 0.6896(3) 0.26184(8)
C2A C 1.0212(4) 0.5990(4) 0.27693(9)
C5A C 1.0198(4) 0.5985(4) 0.21707(9)
C6A C 1.0494(3) 0.6889(3) 0.23154(8)
C7A C 1.0756(3) 0.7981(3) 0.22197(7)
C8A C 1.0886(3) 0.8514(3) 0.19621(8)
H1A H 1.07780 0.81390 0.17920
C9A C 1.1169(3) 0.9576(4) 0.19583(8)
H2A H 1.12240 0.99240 0.17820
C10A C 1.1385(4) 1.0186(3) 0.2202(1)
C11A C 1.1664(3) 1.1284(3) 0.22128(9)
H3A H 1.17570 1.16680 0.20430
C12A C 1.1805(2) 1.1817(2) 0.24649(10)
H4A H 1.19940 1.25550 0.24640
C13A C 1.1673(3) 1.1286(3) 0.27191(9)
H5A H 1.17800 1.16610 0.28900
C14A C 1.1380(4) 1.0186(3) 0.27232(10)
C15A C 1.1206(3) 0.9596(3) 0.29728(8)
H6A H 1.12870 0.99480 0.31480
C16A C 1.0922(3) 0.8521(3) 0.29692(8)
H7A H 1.08240 0.81450 0.31400
C17A C 1.0779(3) 0.7982(3) 0.27112(7)
C18A C 1.0946(2) 0.8598(2) 0.24665(9)
C19A C 1.1252(2) 0.9664(2) 0.24666(10)
C20A C 1.0056(3) 0.6160(4) 0.30687(11)
C21A C 1.0890(3) 0.6077(3) 0.32645(9)
H8A H 1.15770 0.58360 0.32050
C22A C 1.0725(5) 0.6344(4) 0.35455(10)
H9A H 1.12960 0.62960 0.36770
C23A C 0.9688(6) 0.6691(4) 0.36316(11)
H10A H 0.95580 0.68730 0.38220
C24A C 0.8892(4) 0.6758(3) 0.34423(9)
H11A H 0.82060 0.70050 0.35000
C25A C 0.9046(3) 0.6478(3) 0.31651(9)
H12A H 0.84580 0.65020 0.30390
C26A C 0.9991(3) 0.6124(4) 0.18576(10)
C27A C 0.8960(3) 0.6426(3) 0.17834(8)
H13A H 0.84200 0.64750 0.19230
C28A C 0.8711(4) 0.6656(4) 0.15074(9)
H14A H 0.80050 0.68590 0.14540
C29A C 0.9538(5) 0.6580(4) 0.13099(9)
H15A H 0.93760 0.67260 0.11200
C30A C 1.0534(5) 0.6314(4) 0.13759(10)
H16A H 1.10670 0.62640 0.12340
C31A C 1.0800(3) 0.6106(3) 0.16573(9)
H17A H 1.15210 0.59560 0.17090
loop_
_geom_bond_atom_site_label_1
_geom_bond_atom_site_label_2
_geom_bond_distance
_geom_bond_site_symmetry_1
_geom_bond_site_symmetry_2
C1 C2 1.387 1_555 1_555
C2 C3 1.441 1_555 1_555
C3 C4 1.456 1_555 1_555
C4 C5 1.440 1_555 1_555
C5 C6 1.373 1_555 1_555
C6 C1 1.449 1_555 1_555
C7 C6 1.473 1_555 1_555
C8 C7 1.409 1_555 1_555
H1 C8 0.948 1_555 1_555
C9 C8 1.370 1_555 1_555
H2 C9 0.951 1_555 1_555
C10 C9 1.417 1_555 1_555
C11 C10 1.413 1_555 1_555
H3 C11 0.950 1_555 1_555
C12 C11 1.388 1_555 1_555
H4 C12 0.950 1_555 1_555
C13 C12 1.394 1_555 1_555
H5 C13 0.951 1_555 1_555
C14 C13 1.419 1_555 1_555
C15 C14 1.419 1_555 1_555
H6 C15 0.951 1_555 1_555
C16 C15 1.386 1_555 1_555
H7 C16 0.950 1_555 1_555
C17 C1 1.467 1_555 1_555
C18 C7 1.429 1_555 1_555
C19 C10 1.433 1_555 1_555
C20 C2 1.460 1_555 1_555
C21 C20 1.403 1_555 1_555
H8 C21 0.951 1_555 1_555
C22 C21 1.400 1_555 1_555
H9 C22 0.952 1_555 1_555
C23 C22 1.424 1_555 1_555
H10 C23 0.952 1_555 1_555
C24 C23 1.346 1_555 1_555
H11 C24 0.950 1_555 1_555
C25 C20 1.398 1_555 1_555
H12 C25 0.950 1_555 1_555
C26 C5 1.529 1_555 1_555
C27 C26 1.385 1_555 1_555
H13 C27 0.950 1_555 1_555
C28 C27 1.386 1_555 1_555
H14 C28 0.951 1_555 1_555
C29 C28 1.401 1_555 1_555
H15 C29 0.948 1_555 1_555
C30 C29 1.323 1_555 1_555
H16 C30 0.952 1_555 1_555
C31 C26 1.391 1_555 1_555
H17 C31 0.951 1_555 1_555
C1A C2A 1.387 1_555 1_555
C2A C3 1.441 1_555 1_555
C5A C4 1.440 1_555 1_555
C6A C1A 1.449 1_555 1_555
C7A C6A 1.473 1_555 1_555
C8A C7A 1.409 1_555 1_555
H1A C8A 0.948 1_555 1_555
C9A C8A 1.370 1_555 1_555
H2A C9A 0.951 1_555 1_555
C10A C9A 1.417 1_555 1_555
C11A C10A 1.413 1_555 1_555
H3A C11A 0.950 1_555 1_555
C12A C11A 1.388 1_555 1_555
H4A C12A 0.950 1_555 1_555
C13A C12A 1.394 1_555 1_555
H5A C13A 0.951 1_555 1_555
C14A C13A 1.419 1_555 1_555
C15A C14A 1.419 1_555 1_555
H6A C15A 0.951 1_555 1_555
C16A C15A 1.386 1_555 1_555
H7A C16A 0.950 1_555 1_555
C17A C1A 1.467 1_555 1_555
C18A C7A 1.429 1_555 1_555
C19A C10A 1.433 1_555 1_555
C20A C2A 1.460 1_555 1_555
C21A C20A 1.403 1_555 1_555
H8A C21A 0.951 1_555 1_555
C22A C21A 1.400 1_555 1_555
H9A C22A 0.952 1_555 1_555
C23A C22A 1.424 1_555 1_555
H10A C23A 0.952 1_555 1_555
C24A C23A 1.346 1_555 1_555
H11A C24A 0.950 1_555 1_555
C25A C20A 1.398 1_555 1_555
H12A C25A 0.950 1_555 1_555
C26A C5A 1.529 1_555 1_555
C27A C26A 1.385 1_555 1_555
H13A C27A 0.950 1_555 1_555
C28A C27A 1.386 1_555 1_555
H14A C28A 0.951 1_555 1_555
C29A C28A 1.401 1_555 1_555
H15A C29A 0.948 1_555 1_555
C30A C29A 1.323 1_555 1_555
H16A C30A 0.952 1_555 1_555
C31A C26A 1.391 1_555 1_555
H17A C31A 0.951 1_555 1_555
C14 C19 1.398 1_555 1_555
C16 C17 1.416 1_555 1_555
C17 C18 1.415 1_555 1_555
C18 C19 1.382 1_555 1_555
C24 C25 1.384 1_555 1_555
C30 C31 1.410 1_555 1_555
C5A C6A 1.373 1_555 1_555
C14A C19A 1.398 1_555 1_555
C16A C17A 1.416 1_555 1_555
C17A C18A 1.415 1_555 1_555
C18A C19A 1.382 1_555 1_555
C24A C25A 1.384 1_555 1_555
C30A C31A 1.410 1_555 1_555
#END
