
#######################################################################
#
#                 Cambridge Crystallographic Data Centre
#                                CCDC
#
#######################################################################
#
# If this CIF has been generated from an entry in the Cambridge
# Structural Database, then it will include bibliographic, chemical,
# crystal, experimental, refinement or atomic coordinate data resulting
# from the CCDC's data processing and validation procedures.
#
#######################################################################

data_CSD_CIF_PEPXAJ
_audit_creation_date 1994-03-28
_audit_creation_method CSD-ConQuest-V1
_database_code_CSD PEPXAJ
_database_code_depnum_ccdc_archive 'CCDC 1231024'
_database_code_depnum_ccdc_fiz 'CSD 57306'
_chemical_formula_sum 'C24 H16'
_chemical_formula_moiety
;
C24 H16
;
_journal_coden_Cambridge 48
_journal_volume 126
_journal_year 1993
_journal_page_first 1635
_journal_name_full 'Chem.Ber. '
loop_
_publ_author_name
"C.Puls"
"A.Stolle"
"A.de Meijere"
_chemical_name_systematic
;
12-Methyl-10,11-methanodibenzo(c,g)phenanthrene
;
_chemical_melting_point 395.15
_cell_volume   1524.089
_exptl_crystal_colour 'pale yellow'
_exptl_crystal_density_diffrn 1.326
_exptl_special_details
;
Melting point range 395.15-396.15K

;
_diffrn_ambient_temperature ?
_diffrn_special_details
;
The study was carried out at room temperature,in the range 283-303K

;
#These two values have been output from a single CSD field.
_refine_ls_R_factor_gt 0.0545
_refine_ls_wR_factor_gt 0.0545
_symmetry_cell_setting monoclinic
_symmetry_space_group_name_H-M 'P 21/n'
_symmetry_Int_Tables_number 14
loop_
_symmetry_equiv_pos_site_id
_symmetry_equiv_pos_as_xyz
1 x,y,z
2 1/2-x,1/2+y,1/2-z
3 -x,-y,-z
4 -1/2+x,-1/2-y,-1/2+z
_cell_length_a 11.421(2)
_cell_length_b 7.752(2)
_cell_length_c 17.239(3)
_cell_angle_alpha 90
_cell_angle_beta 93.06(3)
_cell_angle_gamma 90
_cell_formula_units_Z 4
loop_
_atom_type_symbol
_atom_type_radius_bond
C 0.68
H 0.23
loop_
_atom_site_label
_atom_site_type_symbol
_atom_site_fract_x
_atom_site_fract_y
_atom_site_fract_z
C1 C 0.0318(1) -0.2727(2) -0.9969(1)
C2 C 0.0820(2) -0.3233(2) -1.0658(1)
C3 C 0.0220(2) -0.2979(2) -1.1358(1)
C4 C -0.0935(2) -0.2375(2) -1.1400(1)
C5 C -0.1500(2) -0.1945(3) -1.2128(1)
C6 C -0.2596(2) -0.1291(3) -1.2160(1)
C7 C -0.3286(2) -0.1257(2) -1.1491(1)
C8 C -0.4487(2) -0.0898(3) -1.1611(1)
C9 C -0.5251(2) -0.1284(3) -1.1054(1)
C10 C -0.4837(2) -0.2002(2) -1.0344(1)
C11 C -0.5686(2) -0.2743(3) -0.9864(1)
C12 C -0.5371(2) -0.3645(3) -0.9220(1)
C13 C -0.4174(2) -0.3676(2) -0.8942(1)
C14 C -0.3868(2) -0.4457(3) -0.8230(1)
C15 C -0.2765(2) -0.4270(3) -0.7884(1)
C16 C -0.1955(2) -0.3230(2) -0.8241(1)
C17 C -0.2215(1) -0.2495(2) -0.8961(1)
C18 C -0.1356(1) -0.1301(2) -0.9302(1)
C19 C -0.0833(1) -0.2098(2) -1.0002(1)
C20 C -0.1534(1) -0.2089(2) -1.0701(1)
C21 C -0.2796(1) -0.1755(2) -1.0746(1)
C22 C -0.3613(1) -0.2121(2) -1.0142(1)
C23 C -0.3309(1) -0.2778(2) -0.9363(1)
C24 C 0.1052(2) -0.2839(3) -0.9225(1)
H1 H 0.1583(2) -0.3757(2) -1.0639(1)
H2 H 0.0601(2) -0.3221(2) -1.1829(1)
H3 H -0.1102(2) -0.2120(3) -1.2599(1)
H4 H -0.2921(2) -0.0839(3) -1.2643(1)
H5 H -0.4773(2) -0.0376(3) -1.2089(1)
H6 H -0.6073(2) -0.1064(3) -1.1148(1)
H7 H -0.6504(2) -0.2591(3) -1.0005(1)
H8 H -0.5951(2) -0.4266(3) -0.8948(1)
H9 H -0.4439(2) -0.5137(3) -0.7979(1)
H10 H -0.2554(2) -0.4847(3) -0.7404(1)
H11 H -0.1204(2) -0.3019(2) -0.7982(1)
H12 H -0.07421(13) -0.1035(2) -0.8919(1)
H13 H -0.17437(13) -0.0244(2) -0.9451(1)
H14 H 0.0602(2) -0.2456(3) -0.8803(1)
H15 H 0.1292(2) -0.4013(3) -0.9136(1)
H16 H 0.1733(2) -0.2122(3) -0.9258(1)
loop_
_geom_bond_atom_site_label_1
_geom_bond_atom_site_label_2
_geom_bond_distance
_geom_bond_site_symmetry_1
_geom_bond_site_symmetry_2
C1 C2 1.402 1_555 1_555
C2 C3 1.370 1_555 1_555
C3 C4 1.398 1_555 1_555
C4 C5 1.420 1_555 1_555
C5 C6 1.349 1_555 1_555
C6 C7 1.431 1_555 1_555
C7 C8 1.404 1_555 1_555
C8 C9 1.365 1_555 1_555
C9 C10 1.403 1_555 1_555
C10 C11 1.428 1_555 1_555
C11 C12 1.345 1_555 1_555
C12 C13 1.425 1_555 1_555
C13 C14 1.396 1_555 1_555
C14 C15 1.372 1_555 1_555
C15 C16 1.395 1_555 1_555
C16 C17 1.383 1_555 1_555
C17 C18 1.492 1_555 1_555
C18 C19 1.507 1_555 1_555
C19 C1 1.400 1_555 1_555
C20 C4 1.434 1_555 1_555
C21 C7 1.427 1_555 1_555
C22 C10 1.425 1_555 1_555
C23 C13 1.437 1_555 1_555
C24 C1 1.497 1_555 1_555
H1 C2 0.960 1_555 1_555
H2 C3 0.960 1_555 1_555
H3 C5 0.961 1_555 1_555
H4 C6 0.960 1_555 1_555
H5 C8 0.960 1_555 1_555
H6 C9 0.959 1_555 1_555
H7 C11 0.960 1_555 1_555
H8 C12 0.961 1_555 1_555
H9 C14 0.959 1_555 1_555
H10 C15 0.960 1_555 1_555
H11 C16 0.960 1_555 1_555
H12 C18 0.959 1_555 1_555
H13 C18 0.960 1_555 1_555
H14 C24 0.960 1_555 1_555
H15 C24 0.960 1_555 1_555
H16 C24 0.960 1_555 1_555
C17 C23 1.413 1_555 1_555
C19 C20 1.411 1_555 1_555
C20 C21 1.462 1_555 1_555
C21 C22 1.463 1_555 1_555
C22 C23 1.461 1_555 1_555
#END
