
#######################################################################
#
#                 Cambridge Crystallographic Data Centre
#                                CCDC
#
#######################################################################
#
# If this CIF has been generated from an entry in the Cambridge
# Structural Database, then it will include bibliographic, chemical,
# crystal, experimental, refinement or atomic coordinate data resulting
# from the CCDC's data processing and validation procedures.
#
#######################################################################

data_CSD_CIF_PEYNAP
_audit_creation_date 1972-07-26
_audit_creation_method CSD-ConQuest-V1
_database_code_CSD PEYNAP
_database_code_depnum_ccdc_archive 'CCDC 1231955'
_chemical_formula_sum 'C26 H16'
_chemical_formula_moiety
;
C26 H16
;
_journal_coden_Cambridge 48
_journal_volume 104
_journal_year 1971
_journal_page_first 3272
_journal_name_full 'Chem.Ber. '
loop_
_publ_author_name
"A.E.Jungk"
"G.M.J.Schmidt"
_chemical_name_systematic
;
1,8-bis(Phenylethynyl)naphthalene
;
_chemical_melting_point 372.15
_cell_volume   1782.206
_exptl_crystal_density_diffrn 1.22
_exptl_special_details
;
Melting point range 372.15-373.15K
THE Z COORDINATE OF H27 GIVEN AS -0.1930,SHOULD BE 0.1930
;
_diffrn_ambient_temperature ?
_diffrn_special_details
;
The study was carried out at room temperature,in the range 283-303K

;
#These two values have been output from a single CSD field.
_refine_ls_R_factor_gt 0.06
_refine_ls_wR_factor_gt 0.06
_symmetry_cell_setting monoclinic
_symmetry_space_group_name_H-M 'P 21/n'
_symmetry_Int_Tables_number 14
loop_
_symmetry_equiv_pos_site_id
_symmetry_equiv_pos_as_xyz
1 x,y,z
2 1/2-x,1/2+y,1/2-z
3 -x,-y,-z
4 -1/2+x,-1/2-y,-1/2+z
_cell_length_a 15.052(1)
_cell_length_b 11.816(1)
_cell_length_c 10.025(1)
_cell_angle_alpha 90
_cell_angle_beta 91.70(1)
_cell_angle_gamma 90
_cell_formula_units_Z 4
loop_
_atom_type_symbol
_atom_type_radius_bond
C 0.68
H 0.20
loop_
_atom_site_label
_atom_site_type_symbol
_atom_site_fract_x
_atom_site_fract_y
_atom_site_fract_z
C1 C 0.03847 -0.17289 0.26028
C2 C 0.18410 -0.23484 0.34856
C3 C -0.02855 -0.09050 0.22428
C4 C -0.08856 -0.03081 0.18900
C5 C -0.15716 0.04941 0.15322
C6 C -0.18831 0.05949 0.02174
C7 C -0.25357 0.13818 -0.01219
C8 C -0.28749 0.20762 0.08484
C9 C -0.25658 0.19859 0.21490
C10 C -0.19221 0.11967 0.24929
C11 C 0.09939 0.06725 0.32834
C12 C 0.01879 -0.28477 0.23275
C13 C 0.06202 0.15461 0.30926
C14 C 0.00894 0.25319 0.27923
C15 C -0.01646 0.27713 0.14786
C16 C -0.07238 0.36671 0.11949
C17 C -0.10371 0.43282 0.22109
C18 C -0.07826 0.41108 0.35132
C19 C -0.02139 0.32172 0.38134
C20 C 0.07868 -0.37204 0.26191
C21 C 0.15971 -0.34735 0.31812
C22 C 0.26958 -0.21198 0.40383
C23 C 0.29550 -0.10467 0.43287
C24 C 0.23661 -0.01525 0.40882
C25 C 0.15252 -0.03251 0.35351
C26 C 0.12348 -0.14449 0.32071
H1 H -0.03810 -0.30140 0.19300
H2 H 0.06380 -0.44820 0.24040
H3 H 0.20190 -0.40740 0.34280
H4 H 0.30970 -0.27600 0.41890
H5 H 0.35760 -0.08860 0.47270
H6 H 0.25580 0.06480 0.42930
H7 H -0.16200 0.00950 -0.04080
H8 H -0.27760 0.14470 -0.11080
H9 H -0.33390 0.26200 0.06560
H10 H -0.28210 0.24680 0.28340
H11 H -0.16920 0.11340 0.34200
H12 H 0.00710 0.22520 0.07310
H13 H -0.09130 0.38340 0.02230
H14 H -0.14530 0.49130 0.20120
H15 H -0.10080 0.46220 0.42350
H16 H -0.00260 0.30560 0.47650
loop_
_geom_bond_atom_site_label_1
_geom_bond_atom_site_label_2
_geom_bond_distance
_geom_bond_site_symmetry_1
_geom_bond_site_symmetry_2
C1 C3 1.440 1_555 1_555
C2 C21 1.410 1_555 1_555
C3 C4 1.191 1_555 1_555
C4 C5 1.439 1_555 1_555
C5 C6 1.391 1_555 1_555
C6 C7 1.388 1_555 1_555
C7 C8 1.382 1_555 1_555
C8 C9 1.375 1_555 1_555
C9 C10 1.381 1_555 1_555
C10 C5 1.388 1_555 1_555
C11 C13 1.188 1_555 1_555
C12 C1 1.381 1_555 1_555
C13 C14 1.439 1_555 1_555
C14 C15 1.390 1_555 1_555
C15 C16 1.377 1_555 1_555
C16 C17 1.378 1_555 1_555
C17 C18 1.374 1_555 1_555
C18 C19 1.387 1_555 1_555
C19 C14 1.393 1_555 1_555
C20 C12 1.395 1_555 1_555
C21 C20 1.360 1_555 1_555
C22 C2 1.412 1_555 1_555
C23 C22 1.356 1_555 1_555
C24 C23 1.396 1_555 1_555
C25 C11 1.442 1_555 1_555
C26 C1 1.439 1_555 1_555
H1 C12 0.954 1_555 1_555
H2 C20 0.951 1_555 1_555
H3 C21 0.979 1_555 1_555
H4 C22 0.977 1_555 1_555
H5 C23 1.023 1_555 1_555
H6 C24 1.008 1_555 1_555
H7 C6 0.956 1_555 1_555
H8 C7 1.045 1_555 1_555
H9 C8 0.964 1_555 1_555
H10 C9 0.979 1_555 1_555
H11 C10 0.985 1_555 1_555
H12 C15 1.039 1_555 1_555
H13 C16 1.026 1_555 1_555
H14 C17 0.950 1_555 1_555
H15 C18 1.009 1_555 1_555
H16 C19 1.005 1_555 1_555
C2 C26 1.427 1_555 1_555
C24 C25 1.382 1_555 1_555
C25 C26 1.429 1_555 1_555
#END
