
#######################################################################
#
#                 Cambridge Crystallographic Data Centre
#                                CCDC
#
#######################################################################
#
# If this CIF has been generated from an entry in the Cambridge
# Structural Database, then it will include bibliographic, chemical,
# crystal, experimental, refinement or atomic coordinate data resulting
# from the CCDC's data processing and validation procedures.
#
#######################################################################

data_CSD_CIF_PICFEO01
_audit_creation_date 2017-09-19
_audit_creation_method CSD-ConQuest-V1
_database_code_CSD PICFEO01
_database_code_depnum_ccdc_archive 'CCDC 1552916'
_chemical_formula_sum 'C30 H16'
_chemical_formula_moiety
;
C30 H16
;
_journal_coden_Cambridge 1220
_journal_volume 23
_journal_year 2017
_journal_page_first 14153
_journal_name_full 'Chem.-Eur.J. '
loop_
_publ_author_name
"C.Schaack"
"E.Sidler"
"N.Trapp"
"F.Diederich"
_chemical_name_systematic
;
(+)-(P)-2,15-diethynylhexahelicene
;
_cell_volume    963.027
_exptl_crystal_colour 'light yellow'
_exptl_crystal_density_diffrn 1.298
_exptl_crystal_description 'block'
_diffrn_ambient_temperature 100
#These two values have been output from a single CSD field.
_refine_ls_R_factor_gt 0.0331
_refine_ls_wR_factor_gt 0.0331
loop_
_citation_database_id_CSD
_citation_special_details
NEMKUO "is a stereoisomer of this entry"
_symmetry_cell_setting monoclinic
_symmetry_space_group_name_H-M 'P 21'
_symmetry_Int_Tables_number 4
loop_
_symmetry_equiv_pos_site_id
_symmetry_equiv_pos_as_xyz
1 x,y,z
2 -x,1/2+y,-z
_cell_length_a 7.2835(1)
_cell_length_b 13.1708(1)
_cell_length_c 10.0514(1)
_cell_angle_alpha 90
_cell_angle_beta 92.858(1)
_cell_angle_gamma 90
_cell_formula_units_Z 2
loop_
_atom_type_symbol
_atom_type_radius_bond
C 0.68
H 0.23
loop_
_atom_site_label
_atom_site_type_symbol
_atom_site_fract_x
_atom_site_fract_y
_atom_site_fract_z
C1 C 0.3136(4) 0.6047(2) 0.0798(3)
H1 H 0.19990 0.58930 0.03380
C2 C 0.4558(4) 0.62384(19) 0.1373(2)
C3 C 0.6313(3) 0.64161(18) 0.2056(2)
C4 C 0.7751(3) 0.6876(2) 0.1391(2)
H2 H 0.75620 0.70880 0.04910
C5 C 0.9428(3) 0.7016(2) 0.2052(3)
H3 H 1.03750 0.73600 0.16180
C6 C 0.9770(3) 0.66562(18) 0.3365(2)
C7 C 0.8351(3) 0.61454(18) 0.4025(2)
C8 C 0.6606(3) 0.60965(18) 0.3360(2)
H4 H 0.56000 0.58360 0.38210
C9 C 1.1502(3) 0.68336(19) 0.4049(3)
H5 H 1.24730 0.71380 0.35930
C10 C 1.1767(3) 0.65705(19) 0.5342(2)
H6 H 1.29040 0.67290 0.57990
C11 C 1.0379(3) 0.60595(19) 0.6038(2)
C12 C 0.8727(3) 0.57410(17) 0.5360(2)
C13 C 1.0625(3) 0.5928(2) 0.7444(2)
H7 H 1.17620 0.61040 0.78890
C14 C 0.9237(4) 0.5552(2) 0.8144(2)
H8 H 0.93380 0.55620 0.90890
C15 C 0.7634(3) 0.5143(2) 0.7488(2)
C16 C 0.7469(3) 0.51054(19) 0.6071(2)
C17 C 0.6185(4) 0.4781(2) 0.8262(3)
H9 H 0.63020 0.48170 0.92060
C18 C 0.4644(4) 0.4389(2) 0.7660(3)
H10 H 0.36110 0.42460 0.81700
C19 C 0.4558(3) 0.41870(19) 0.6269(3)
C20 C 0.6046(3) 0.44458(18) 0.5486(2)
C21 C 0.2977(4) 0.3684(2) 0.5681(3)
H11 H 0.19390 0.35780 0.62010
C22 C 0.2923(3) 0.3356(2) 0.4409(3)
H12 H 0.18290 0.30650 0.40220
C23 C 0.4516(3) 0.34476(19) 0.3644(2)
C24 C 0.6095(3) 0.39703(18) 0.4179(2)
C25 C 0.4556(4) 0.2996(2) 0.2369(3)
H13 H 0.35080 0.26350 0.20240
C26 C 0.6064(4) 0.3066(2) 0.1622(3)
H14 H 0.60390 0.27910 0.07470
C27 C 0.7668(4) 0.35530(19) 0.2162(3)
C28 C 0.7683(3) 0.39628(18) 0.3431(2)
H15 H 0.87910 0.42460 0.38080
C29 C 0.9266(4) 0.3643(2) 0.1391(3)
C30 C 1.0579(4) 0.3758(2) 0.0746(3)
H16 H 1.16260 0.38500 0.02310
loop_
_geom_bond_atom_site_label_1
_geom_bond_atom_site_label_2
_geom_bond_distance
_geom_bond_site_symmetry_1
_geom_bond_site_symmetry_2
C1 H1 0.950 1_555 1_555
C2 C1 1.188 1_555 1_555
C3 C2 1.440 1_555 1_555
C4 C3 1.407 1_555 1_555
H2 C4 0.950 1_555 1_555
C5 C4 1.373 1_555 1_555
H3 C5 0.949 1_555 1_555
C6 C5 1.413 1_555 1_555
C7 C6 1.425 1_555 1_555
C8 C3 1.383 1_555 1_555
H4 C8 0.950 1_555 1_555
C9 C6 1.426 1_555 1_555
H5 C9 0.950 1_555 1_555
C10 C9 1.350 1_555 1_555
H6 C10 0.950 1_555 1_555
C11 C10 1.427 1_555 1_555
C12 C7 1.457 1_555 1_555
C13 C11 1.426 1_555 1_555
H7 C13 0.950 1_555 1_555
C14 C13 1.354 1_555 1_555
H8 C14 0.949 1_555 1_555
C15 C14 1.418 1_555 1_555
C16 C12 1.455 1_555 1_555
C17 C15 1.424 1_555 1_555
H9 C17 0.950 1_555 1_555
C18 C17 1.351 1_555 1_555
H10 C18 0.950 1_555 1_555
C19 C18 1.422 1_555 1_555
C20 C16 1.454 1_555 1_555
C21 C19 1.431 1_555 1_555
H11 C21 0.951 1_555 1_555
C22 C21 1.348 1_555 1_555
H12 C22 0.950 1_555 1_555
C23 C22 1.429 1_555 1_555
C24 C20 1.457 1_555 1_555
C25 C23 1.414 1_555 1_555
H13 C25 0.950 1_555 1_555
C26 C25 1.364 1_555 1_555
H14 C26 0.950 1_555 1_555
C27 C26 1.417 1_555 1_555
C28 C24 1.411 1_555 1_555
H15 C28 0.951 1_555 1_555
C29 C27 1.435 1_555 1_555
C30 C29 1.191 1_555 1_555
H16 C30 0.951 1_555 1_555
C7 C8 1.408 1_555 1_555
C11 C12 1.416 1_555 1_555
C15 C16 1.424 1_555 1_555
C19 C20 1.413 1_555 1_555
C23 C24 1.423 1_555 1_555
C27 C28 1.385 1_555 1_555
#END
