
#######################################################################
#
#                 Cambridge Crystallographic Data Centre
#                                CCDC
#
#######################################################################
#
# If this CIF has been generated from an entry in the Cambridge
# Structural Database, then it will include bibliographic, chemical,
# crystal, experimental, refinement or atomic coordinate data resulting
# from the CCDC's data processing and validation procedures.
#
#######################################################################

data_CSD_CIF_QQQABM10
_audit_creation_date 1991-05-01
_audit_creation_method CSD-ConQuest-V1
_database_code_CSD QQQABM10
_database_code_depnum_ccdc_fiz 'CSD 53818'
_chemical_formula_sum 'C19 H14'
_chemical_formula_moiety
;
C19 H14
;
_journal_coden_Cambridge 643
_journal_volume 191
_journal_year 1990
_journal_page_first 59
_journal_name_full 'Z.Krist.Cryst.Mater. '
loop_
_publ_author_name
"D.W.Jones"
"J.M.Sowden"
"J.Yerkess"
"A.C.Hazell"
"R.G.Hazell"
_chemical_name_systematic
;
1-Methyltriphenylene
;
_chemical_melting_point 366
_cell_volume   1287.080
_exptl_crystal_density_diffrn 1.25
_diffrn_ambient_temperature ?
_diffrn_special_details
;
The study was carried out at room temperature,in the range 283-303K

;
#These two values have been output from a single CSD field.
_refine_ls_R_factor_gt 0.087
_refine_ls_wR_factor_gt 0.087
_symmetry_cell_setting orthorhombic
_symmetry_space_group_name_H-M 'P 21 21 21'
_symmetry_Int_Tables_number 19
loop_
_symmetry_equiv_pos_site_id
_symmetry_equiv_pos_as_xyz
1 x,y,z
2 1/2+x,1/2-y,-z
3 -x,1/2+y,1/2-z
4 1/2-x,-y,1/2+z
_cell_length_a 11.62(1)
_cell_length_b 15.14(1)
_cell_length_c 7.316(5)
_cell_angle_alpha 90
_cell_angle_beta 90
_cell_angle_gamma 90
_cell_formula_units_Z 4
loop_
_atom_type_symbol
_atom_type_radius_bond
C 0.68
H 0.23
loop_
_atom_site_label
_atom_site_type_symbol
_atom_site_fract_x
_atom_site_fract_y
_atom_site_fract_z
C1 C 0.2371(6) 0.7830(4) 1.003(1)
C2 C 0.3196(6) 0.7812(5) 0.864(1)
C3 C 0.3284(6) 0.8507(5) 0.740(1)
C4 C 0.2511(6) 0.9181(5) 0.7467(9)
C5 C 0.0738(6) 1.0543(5) 0.734(1)
C6 C -0.0155(7) 1.1130(5) 0.720(1)
C7 C -0.1056(7) 1.1105(5) 0.837(1)
C8 C -0.1057(6) 1.0488(5) 0.982(1)
C9 C -0.0793(6) 0.9456(5) 1.3125(9)
C10 C -0.0665(7) 0.8974(5) 1.473(1)
C11 C 0.0203(7) 0.8379(6) 1.489(1)
C12 C 0.0960(6) 0.8242(5) 1.3453(9)
C13 C 0.0822(5) 0.8690(4) 1.1771(8)
C14 C 0.1634(5) 0.8557(4) 1.0200(9)
C15 C 0.1649(5) 0.9229(4) 0.8818(9)
C16 C 0.0770(6) 0.9901(4) 0.8764(8)
C17 C -0.0129(5) 0.9909(4) 1.0033(9)
C18 C -0.0047(5) 0.9332(4) 1.1635(8)
C19 C 0.2346(9) 0.7004(6) 1.122(1)
H1 H 0.38000 0.72000 0.85000
H2 H 0.40000 0.85000 0.65000
H3 H 0.26000 0.97000 0.65000
H4 H 0.15000 1.06000 0.64000
H5 H -0.01000 1.17000 0.62000
H6 H -0.18000 1.16000 0.82000
H7 H -0.18000 1.04000 1.08000
H8 H -0.16000 0.99000 1.30000
H9 H -0.13000 0.91000 1.58000
H10 H 0.03000 0.80000 1.62000
H11 H 0.16000 0.77000 1.36000
H12 H 0.24000 0.72000 1.27000
H13 H 0.14000 0.67000 1.10000
H14 H 0.29000 0.64000 1.11000
loop_
_geom_bond_atom_site_label_1
_geom_bond_atom_site_label_2
_geom_bond_distance
_geom_bond_site_symmetry_1
_geom_bond_site_symmetry_2
C1 C2 1.398 1_555 1_555
C2 C3 1.393 1_555 1_555
C3 C4 1.360 1_555 1_555
C4 C15 1.409 1_555 1_555
C5 C6 1.370 1_555 1_555
C6 C7 1.353 1_555 1_555
C7 C8 1.413 1_555 1_555
C8 C17 1.398 1_555 1_555
C9 C10 1.390 1_555 1_555
C10 C11 1.357 1_555 1_555
C11 C12 1.386 1_555 1_555
C12 C13 1.414 1_555 1_555
C13 C14 1.501 1_555 1_555
C14 C1 1.400 1_555 1_555
C15 C14 1.434 1_555 1_555
C16 C5 1.425 1_555 1_555
C17 C16 1.398 1_555 1_555
C18 C9 1.405 1_555 1_555
C19 C1 1.524 1_555 1_555
H1 C2 1.167 1_555 1_555
H2 C3 1.061 1_555 1_555
H3 C4 1.062 1_555 1_555
H4 C5 1.124 1_555 1_555
H5 C6 1.133 1_555 1_555
H6 C7 1.151 1_555 1_555
H7 C8 1.130 1_555 1_555
H8 C9 1.157 1_555 1_555
H9 C10 1.093 1_555 1_555
H10 C11 1.123 1_555 1_555
H11 C12 1.113 1_555 1_555
H12 C19 1.124 1_555 1_555
H13 C19 1.203 1_555 1_555
H14 C19 1.122 1_555 1_555
C13 C18 1.405 1_555 1_555
C15 C16 1.442 1_555 1_555
C17 C18 1.465 1_555 1_555
#END
