
#######################################################################
#
#                 Cambridge Crystallographic Data Centre
#                                CCDC
#
#######################################################################
#
# If this CIF has been generated from an entry in the Cambridge
# Structural Database, then it will include bibliographic, chemical,
# crystal, experimental, refinement or atomic coordinate data resulting
# from the CCDC's data processing and validation procedures.
#
#######################################################################

data_CSD_CIF_QQQCIG30
_audit_creation_date 2016-06-09
_audit_creation_method CSD-ConQuest-V1
_database_code_CSD QQQCIG30
_database_code_depnum_ccdc_archive 'CCDC 991026'
_chemical_formula_sum 'C42 H28'
_chemical_formula_moiety
;
C42 H28
;
_journal_coden_Cambridge 983
_journal_volume 119
_journal_year 2014
_journal_page_first 13476
_journal_name_full 'J.Phys.Chem.C '
loop_
_publ_author_name
"S.Bergantin"
"M.Moret"
"G.Buth"
"F.P.A.Fabbiani"
_chemical_name_systematic
;
5,6,11,12-tetraphenyltetracene
;
_chemical_name_common
;
rubrene
;
_chemical_melting_point 588
_cell_volume   1040.283
_exptl_crystal_colour 'red'
_exptl_crystal_density_diffrn 1.7
_exptl_special_details
;
Luminescent, high-pressure data collection in a diamond anvil cell.
polymorph II
Oxygen-sensitive, Light-sensitive
;
_exptl_crystal_description 'prism'
_exptl_crystal_preparation '1,1,2,2-Tetrachloroethane'
_diffrn_ambient_temperature 293
_diffrn_ambient_pressure 7120000.0
_diffrn_radiation_probe x-ray
_diffrn_source synchrotron
_diffrn_special_details
;
twin

;
#These two values have been output from a single CSD field.
_refine_ls_R_factor_gt 0.06
_refine_ls_wR_factor_gt 0.06
_symmetry_cell_setting triclinic
_symmetry_space_group_name_H-M 'P -1'
_symmetry_Int_Tables_number 2
loop_
_symmetry_equiv_pos_site_id
_symmetry_equiv_pos_as_xyz
1 x,y,z
2 -x,-y,-z
_cell_length_a 14.2395(16)
_cell_length_b 6.7738(13)
_cell_length_c 11.281(1)
_cell_angle_alpha 81.264(14)
_cell_angle_beta 100.378(10)
_cell_angle_gamma 101.773(10)
_cell_formula_units_Z 2
loop_
_atom_type_symbol
_atom_type_radius_bond
C 0.68
H 0.23
loop_
_atom_site_label
_atom_site_type_symbol
_atom_site_fract_x
_atom_site_fract_y
_atom_site_fract_z
C1 C 0.3773(3) 0.5952(12) 0.2606(5)
C2 C 0.3994(3) 0.8056(12) 0.2549(5)
H1 H 0.40140 0.88490 0.18010
C3 C 0.4184(3) 0.8976(12) 0.3609(6)
H2 H 0.43320 1.03850 0.35710
C4 C 0.4154(3) 0.7792(13) 0.4726(5)
H3 H 0.42820 0.84070 0.54350
C5 C 0.3933(3) 0.5687(12) 0.4783(5)
H4 H 0.39130 0.48940 0.55300
C6 C 0.3742(3) 0.4767(12) 0.3723(6)
H5 H 0.35940 0.33590 0.37610
C7 C 0.2068(3) 0.7578(12) 0.1723(5)
C8 C 0.2274(3) 0.9683(12) 0.1482(4)
H6 H 0.24250 1.02880 0.07270
C9 C 0.2254(3) 1.0882(11) 0.2371(5)
H7 H 0.23920 1.22900 0.22090
C10 C 0.2029(3) 0.9977(12) 0.3500(5)
H8 H 0.20160 1.07800 0.40950
C11 C 0.1823(3) 0.7873(12) 0.3741(4)
H9 H 0.16720 0.72680 0.44970
C12 C 0.1843(3) 0.6674(11) 0.2853(5)
H10 H 0.17050 0.52660 0.30140
C13 C 0.1428(3) 0.3694(12) -0.2631(4)
C14 C 0.0538(3) 0.2433(12) -0.2912(5)
H11 H 0.01360 0.19780 -0.23240
C15 C 0.0248(3) 0.1851(12) -0.4071(5)
H12 H -0.03470 0.10070 -0.42590
C16 C 0.0848(3) 0.2531(12) -0.4950(4)
H13 H 0.06550 0.21410 -0.57260
C17 C 0.1738(3) 0.3792(12) -0.4670(4)
H14 H 0.21400 0.42470 -0.52580
C18 C 0.2028(3) 0.4374(12) -0.3511(5)
H15 H 0.26240 0.52180 -0.33230
C19 C 0.3051(3) 0.1812(12) -0.1755(5)
C20 C 0.2247(3) 0.0270(12) -0.1925(5)
H16 H 0.18060 -0.00310 -0.13790
C21 C 0.2103(3) -0.0822(11) -0.2911(5)
H17 H 0.15650 -0.18540 -0.30240
C22 C 0.2762(3) -0.0373(12) -0.3727(5)
H18 H 0.26650 -0.11030 -0.43870
C23 C 0.3566(3) 0.1169(12) -0.3557(5)
H19 H 0.40070 0.14700 -0.41030
C24 C 0.3711(3) 0.2261(11) -0.2571(5)
H20 H 0.42490 0.32930 -0.24580
C25 C 0.0463(5) 0.757(2) 0.0076(10)
H21 H 0.05200 0.80190 0.08310
C26 C -0.0292(4) 0.794(2) -0.078(1)
H22 H -0.07570 0.86030 -0.06200
C27 C -0.0360(4) 0.728(2) -0.1924(10)
H23 H -0.08460 0.76300 -0.25420
C28 C 0.0244(4) 0.618(2) -0.2148(10)
H24 H 0.01520 0.57260 -0.29050
C29 C 0.1030(4) 0.569(2) -0.1253(9)
C30 C 0.1172(4) 0.654(2) -0.0135(9)
C31 C 0.4050(4) 0.294(2) 0.0144(9)
C32 C 0.4163(4) 0.381(2) 0.1265(10)
C33 C 0.4983(4) 0.343(2) 0.2155(10)
H25 H 0.50120 0.37370 0.29390
C34 C 0.5707(5) 0.267(2) 0.1903(10)
H26 H 0.62490 0.25380 0.24870
C35 C 0.5647(5) 0.206(3) 0.0747(10)
H27 H 0.61630 0.15870 0.05510
C36 C 0.4830(4) 0.215(2) -0.0077(10)
H28 H 0.47870 0.16800 -0.08200
C37 C 0.3207(4) 0.306(2) -0.0706(10)
C38 C 0.3518(4) 0.496(2) 0.1445(10)
C39 C 0.2686(4) 0.523(2) 0.0566(9)
C40 C 0.2504(4) 0.415(2) -0.0535(9)
C41 C 0.1677(4) 0.446(2) -0.1419(10)
C42 C 0.2001(4) 0.639(2) 0.0705(10)
loop_
_geom_bond_atom_site_label_1
_geom_bond_atom_site_label_2
_geom_bond_distance
_geom_bond_site_symmetry_1
_geom_bond_site_symmetry_2
C1 C2 1.390 1_555 1_555
C2 H1 0.931 1_555 1_555
C3 C2 1.390 1_555 1_555
H2 C3 0.931 1_555 1_555
C4 C3 1.390 1_555 1_555
H3 C4 0.930 1_555 1_555
C5 C4 1.390 1_555 1_555
H4 C5 0.930 1_555 1_555
C6 C1 1.390 1_555 1_555
H5 C6 0.930 1_555 1_555
C7 C8 1.390 1_555 1_555
C8 H6 0.929 1_555 1_555
C9 C8 1.390 1_555 1_555
H7 C9 0.930 1_555 1_555
C10 C9 1.389 1_555 1_555
H8 C10 0.931 1_555 1_555
C11 C10 1.390 1_555 1_555
H9 C11 0.930 1_555 1_555
C12 C7 1.390 1_555 1_555
H10 C12 0.930 1_555 1_555
C13 C14 1.390 1_555 1_555
C14 H11 0.930 1_555 1_555
C15 C14 1.390 1_555 1_555
H12 C15 0.930 1_555 1_555
C16 C15 1.390 1_555 1_555
H13 C16 0.930 1_555 1_555
C17 C16 1.390 1_555 1_555
H14 C17 0.930 1_555 1_555
C18 C13 1.391 1_555 1_555
H15 C18 0.931 1_555 1_555
C19 C20 1.390 1_555 1_555
C20 H16 0.930 1_555 1_555
C21 C20 1.390 1_555 1_555
H17 C21 0.930 1_555 1_555
C22 C21 1.389 1_555 1_555
H18 C22 0.930 1_555 1_555
C23 C22 1.390 1_555 1_555
H19 C23 0.930 1_555 1_555
C24 C19 1.390 1_555 1_555
H20 C24 0.930 1_555 1_555
C25 H21 0.932 1_555 1_555
C26 C25 1.347 1_555 1_555
H22 C26 0.928 1_555 1_555
C27 C26 1.410 1_555 1_555
H23 C27 0.930 1_555 1_555
C28 C27 1.325 1_555 1_555
H24 C28 0.930 1_555 1_555
C29 C28 1.423 1_555 1_555
C30 C25 1.410 1_555 1_555
C31 C32 1.445 1_555 1_555
C32 C33 1.435 1_555 1_555
C33 H25 0.931 1_555 1_555
C34 C33 1.332 1_555 1_555
H26 C34 0.930 1_555 1_555
C35 C34 1.410 1_555 1_555
H27 C35 0.931 1_555 1_555
C36 C31 1.402 1_555 1_555
H28 C36 0.929 1_555 1_555
C37 C19 1.516 1_555 1_555
C38 C1 1.515 1_555 1_555
C39 C38 1.425 1_555 1_555
C40 C37 1.414 1_555 1_555
C41 C13 1.493 1_555 1_555
C42 C7 1.478 1_555 1_555
C5 C6 1.390 1_555 1_555
C11 C12 1.390 1_555 1_555
C17 C18 1.390 1_555 1_555
C23 C24 1.390 1_555 1_555
C29 C30 1.430 1_555 1_555
C29 C41 1.415 1_555 1_555
C30 C42 1.385 1_555 1_555
C31 C37 1.403 1_555 1_555
C32 C38 1.378 1_555 1_555
C35 C36 1.358 1_555 1_555
C39 C40 1.493 1_555 1_555
C39 C42 1.414 1_555 1_555
C40 C41 1.428 1_555 1_555
#END
