
#######################################################################
#
#                 Cambridge Crystallographic Data Centre
#                                CCDC
#
#######################################################################
#
# If this CIF has been generated from an entry in the Cambridge
# Structural Database, then it will include bibliographic, chemical,
# crystal, experimental, refinement or atomic coordinate data resulting
# from the CCDC's data processing and validation procedures.
#
#######################################################################

data_CSD_CIF_QQQCIG32
_audit_creation_date 2016-11-08
_audit_creation_method CSD-ConQuest-V1
_database_code_CSD QQQCIG32
_database_code_depnum_ccdc_archive 'CCDC 1515640'
_chemical_formula_sum 'C42 H28'
_chemical_formula_moiety
;
C42 H28
;
_journal_coden_Cambridge 1320
_journal_year 2016
_journal_page_first 1
_journal_name_full 'Thesis '
loop_
_publ_author_name
"T.Wombacher"
_chemical_name_systematic
;
5,6,11,12-tetraphenyltetracene
;
_chemical_name_common
;
Rubrene
;
_cell_volume    694.406
_exptl_crystal_colour 'orange'
_exptl_crystal_density_diffrn 1.274
_exptl_special_details
;
triclinic polymorph

;
_exptl_crystal_description 'prism'
_diffrn_ambient_temperature 293
_diffrn_special_details
;
twin

;
#These two values have been output from a single CSD field.
_refine_ls_R_factor_gt 0.0526
_refine_ls_wR_factor_gt 0.0526
_symmetry_cell_setting triclinic
_symmetry_space_group_name_H-M 'P -1'
_symmetry_Int_Tables_number 2
loop_
_symmetry_equiv_pos_site_id
_symmetry_equiv_pos_as_xyz
1 x,y,z
2 -x,-y,-z
_cell_length_a 7.082(1)
_cell_length_b 8.580(1)
_cell_length_c 11.982(2)
_cell_angle_alpha 93.36(1)
_cell_angle_beta 105.63(2)
_cell_angle_gamma 96.02(1)
_cell_formula_units_Z 1
loop_
_atom_type_symbol
_atom_type_radius_bond
C 0.68
H 0.23
loop_
_atom_site_label
_atom_site_type_symbol
_atom_site_fract_x
_atom_site_fract_y
_atom_site_fract_z
C1 C -0.0974(3) 0.6665(2) 0.56952(18)
C2 C 0.0277(3) 0.5522(2) 0.55391(17)
C3 C 0.2065(3) 0.5364(2) 0.64018(18)
C4 C 0.3352(3) 0.4334(2) 0.61774(18)
C5 C 0.2811(3) 0.3315(3) 0.51167(18)
C6 C 0.4149(4) 0.2237(3) 0.4960(2)
H1 H 0.38180 0.15640 0.42810
C7 C 0.5879(4) 0.2168(3) 0.5770(2)
H2 H 0.67310 0.14710 0.56340
C8 C 0.6395(4) 0.3149(3) 0.6817(2)
H3 H 0.75800 0.30860 0.73740
C9 C 0.5186(3) 0.4179(3) 0.7019(2)
H4 H 0.55480 0.48050 0.77220
C10 C -0.0346(3) 0.8012(2) 0.66242(18)
C11 C 0.0776(4) 0.9344(3) 0.6453(2)
H5 H 0.12230 0.93570 0.57910
C12 C 0.1249(4) 1.0659(3) 0.7245(2)
H6 H 0.20090 1.15440 0.71150
C13 C 0.0598(4) 1.0657(3) 0.8219(2)
H7 H 0.09170 1.15390 0.87550
C14 C -0.0528(4) 0.9350(3) 0.8405(2)
H8 H -0.09730 0.93500 0.90680
C15 C -0.1006(3) 0.8037(3) 0.76174(19)
H9 H -0.17750 0.71600 0.77510
C16 C 0.2595(3) 0.6111(3) 0.76293(18)
C17 C 0.3958(3) 0.7455(3) 0.8011(2)
H10 H 0.44770 0.79770 0.74800
C18 C 0.4547(4) 0.8018(3) 0.9170(2)
H11 H 0.54460 0.89260 0.94100
C19 C 0.3827(5) 0.7260(4) 0.9968(2)
H12 H 0.42330 0.76450 1.07480
C20 C 0.2497(4) 0.5923(4) 0.9609(2)
H13 H 0.20050 0.54000 1.01490
C21 C 0.1884(4) 0.5350(3) 0.8449(2)
H14 H 0.09840 0.44430 0.82170
C1A C 0.0974(3) 0.3335(2) 0.43048(18)
C2A C -0.0277(3) 0.4478(2) 0.44609(17)
C3A C -0.2065(3) 0.4636(2) 0.35982(18)
C4A C -0.3352(3) 0.5666(2) 0.38226(18)
C5A C -0.2811(3) 0.6685(3) 0.48833(18)
C6A C -0.4149(4) 0.7763(3) 0.5040(2)
H1A H -0.38180 0.84360 0.57190
C7A C -0.5879(4) 0.7832(3) 0.4230(2)
H2A H -0.67310 0.85290 0.43660
C8A C -0.6395(4) 0.6851(3) 0.3183(2)
H3A H -0.75800 0.69140 0.26260
C9A C -0.5186(3) 0.5821(3) 0.2981(2)
H4A H -0.55480 0.51950 0.22780
C10A C 0.0346(3) 0.1988(2) 0.33758(18)
C11A C -0.0776(4) 0.0656(3) 0.3547(2)
H5A H -0.12230 0.06430 0.42090
C12A C -0.1249(4) -0.0659(3) 0.2755(2)
H6A H -0.20090 -0.15440 0.28850
C13A C -0.0598(4) -0.0657(3) 0.1781(2)
H7A H -0.09170 -0.15390 0.12450
C14A C 0.0528(4) 0.0650(3) 0.1595(2)
H8A H 0.09730 0.06500 0.09320
C15A C 0.1006(3) 0.1963(3) 0.23826(19)
H9A H 0.17750 0.28400 0.22490
C16A C -0.2595(3) 0.3889(3) 0.23707(18)
C17A C -0.3958(3) 0.2545(3) 0.1989(2)
H10A H -0.44770 0.20230 0.25200
C18A C -0.4547(4) 0.1982(3) 0.0830(2)
H11A H -0.54460 0.10740 0.05900
C19A C -0.3827(5) 0.2740(4) 0.0032(2)
H12A H -0.42330 0.23550 -0.07480
C20A C -0.2497(4) 0.4077(4) 0.0391(2)
H13A H -0.20050 0.46000 -0.01490
C21A C -0.1884(4) 0.4650(3) 0.1551(2)
H14A H -0.09840 0.55570 0.17830
loop_
_geom_bond_atom_site_label_1
_geom_bond_atom_site_label_2
_geom_bond_distance
_geom_bond_site_symmetry_1
_geom_bond_site_symmetry_2
C1 C2 1.425 1_555 1_555
C2 C3 1.427 1_555 1_555
C3 C4 1.399 1_555 1_555
C4 C5 1.437 1_555 1_555
C5 C6 1.431 1_555 1_555
C6 H1 0.930 1_555 1_555
C7 C6 1.352 1_555 1_555
H2 C7 0.930 1_555 1_555
C8 C7 1.407 1_555 1_555
H3 C8 0.930 1_555 1_555
C9 C4 1.438 1_555 1_555
H4 C9 0.930 1_555 1_555
C10 C1 1.499 1_555 1_555
C11 C10 1.380 1_555 1_555
H5 C11 0.930 1_555 1_555
C12 C11 1.382 1_555 1_555
H6 C12 0.929 1_555 1_555
C13 C12 1.365 1_555 1_555
H7 C13 0.930 1_555 1_555
C14 C13 1.371 1_555 1_555
H8 C14 0.930 1_555 1_555
C15 C10 1.391 1_555 1_555
H9 C15 0.929 1_555 1_555
C16 C3 1.502 1_555 1_555
C17 C16 1.392 1_555 1_555
H10 C17 0.930 1_555 1_555
C18 C17 1.379 1_555 1_555
H11 C18 0.931 1_555 1_555
C19 C18 1.365 1_555 1_555
H12 C19 0.930 1_555 1_555
C20 C19 1.373 1_555 1_555
H13 C20 0.930 1_555 1_555
C21 C16 1.385 1_555 1_555
H14 C21 0.930 1_555 1_555
C1A C5 1.401 1_555 1_555
C2A C2 1.464 1_555 1_555
C3A C2A 1.427 1_555 1_555
C4A C3A 1.399 1_555 1_555
C5A C1 1.401 1_555 1_555
C6A C5A 1.431 1_555 1_555
H1A C6A 0.930 1_555 1_555
C7A C6A 1.352 1_555 1_555
H2A C7A 0.930 1_555 1_555
C8A C7A 1.407 1_555 1_555
H3A C8A 0.930 1_555 1_555
C9A C4A 1.438 1_555 1_555
H4A C9A 0.930 1_555 1_555
C10A C1A 1.499 1_555 1_555
C11A C10A 1.380 1_555 1_555
H5A C11A 0.930 1_555 1_555
C12A C11A 1.382 1_555 1_555
H6A C12A 0.929 1_555 1_555
C13A C12A 1.365 1_555 1_555
H7A C13A 0.930 1_555 1_555
C14A C13A 1.371 1_555 1_555
H8A C14A 0.930 1_555 1_555
C15A C10A 1.391 1_555 1_555
H9A C15A 0.929 1_555 1_555
C16A C3A 1.502 1_555 1_555
C17A C16A 1.392 1_555 1_555
H10A C17A 0.930 1_555 1_555
C18A C17A 1.379 1_555 1_555
H11A C18A 0.931 1_555 1_555
C19A C18A 1.365 1_555 1_555
H12A C19A 0.930 1_555 1_555
C20A C19A 1.373 1_555 1_555
H13A C20A 0.930 1_555 1_555
C21A C16A 1.385 1_555 1_555
H14A C21A 0.930 1_555 1_555
C8 C9 1.348 1_555 1_555
C14 C15 1.378 1_555 1_555
C20 C21 1.383 1_555 1_555
C1A C2A 1.425 1_555 1_555
C4A C5A 1.437 1_555 1_555
C8A C9A 1.348 1_555 1_555
C14A C15A 1.378 1_555 1_555
C20A C21A 1.383 1_555 1_555
#END
