
#######################################################################
#
#                 Cambridge Crystallographic Data Centre
#                                CCDC
#
#######################################################################
#
# If this CIF has been generated from an entry in the Cambridge
# Structural Database, then it will include bibliographic, chemical,
# crystal, experimental, refinement or atomic coordinate data resulting
# from the CCDC's data processing and validation procedures.
#
#######################################################################

data_CSD_CIF_QUMTOH
_audit_creation_date 2001-11-07
_audit_creation_method CSD-ConQuest-V1
_database_code_CSD QUMTOH
_database_code_depnum_ccdc_archive 'CCDC 165561'
_chemical_formula_sum 'C23 H18'
_chemical_formula_moiety
;
C23 H18
;
_journal_coden_Cambridge 182
_journal_year 2001
_journal_page_first 1672
_journal_name_full 'Chem.Commun. '
loop_
_publ_author_name
"Zheng Duan"
"K.Nakajima"
"T.Takahashi"
_chemical_name_systematic
;
3-Methyl-1,2-diphenylnaphthalene
;
_cell_volume   3285.634
_exptl_crystal_colour 'colorless'
_exptl_crystal_density_diffrn 1.19
_exptl_crystal_description 'prismatic'
_diffrn_ambient_temperature 298
#These two values have been output from a single CSD field.
_refine_ls_R_factor_gt 0.044
_refine_ls_wR_factor_gt 0.044
_symmetry_cell_setting monoclinic
_symmetry_space_group_name_H-M 'C 2/c'
_symmetry_Int_Tables_number 15
loop_
_symmetry_equiv_pos_site_id
_symmetry_equiv_pos_as_xyz
1 x,y,z
2 x,-y,1/2+z
3 1/2+x,1/2+y,z
4 1/2+x,1/2-y,1/2+z
5 -x,-y,-z
6 -x,y,-1/2-z
7 -1/2-x,-1/2-y,-z
8 -1/2-x,-1/2+y,-1/2-z
_cell_length_a 21.312(1)
_cell_length_b 10.6981(6)
_cell_length_c 16.2781(8)
_cell_angle_alpha 90
_cell_angle_beta 117.713(4)
_cell_angle_gamma 90
_cell_formula_units_Z 8
loop_
_atom_type_symbol
_atom_type_radius_bond
C 0.68
H 0.23
loop_
_atom_site_label
_atom_site_type_symbol
_atom_site_fract_x
_atom_site_fract_y
_atom_site_fract_z
C1 C 0.36422(7) 0.2401(1) 0.64145(9)
C2 C 0.39850(7) 0.3139(1) 0.60484(9)
C3 C 0.41070(8) 0.4441(1) 0.6279(1)
C4 C 0.38838(9) 0.4928(1) 0.6876(1)
C5 C 0.35363(8) 0.4210(1) 0.7264(1)
C6 C 0.3314(1) 0.4723(2) 0.7893(1)
C7 C 0.2983(1) 0.4011(2) 0.8263(1)
C8 C 0.2853(1) 0.2750(2) 0.8033(1)
C9 C 0.30632(8) 0.2208(2) 0.7436(1)
C10 C 0.34091(7) 0.2920(1) 0.70328(9)
C11 C 0.35320(7) 0.1038(1) 0.61847(9)
C12 C 0.39827(8) 0.0155(1) 0.6798(1)
C13 C 0.39031(10) -0.1102(1) 0.6570(1)
C14 C 0.33665(10) -0.1495(1) 0.5732(1)
C15 C 0.29047(10) -0.0631(2) 0.5130(1)
C16 C 0.29808(8) 0.0625(1) 0.5352(1)
C17 C 0.42460(8) 0.2587(1) 0.54201(10)
C18 C 0.49568(9) 0.2274(2) 0.5762(1)
C19 C 0.5198(1) 0.1739(2) 0.5189(1)
C20 C 0.4739(1) 0.1510(2) 0.4271(1)
C21 C 0.4036(1) 0.1819(2) 0.3924(1)
C22 C 0.37905(9) 0.2359(2) 0.4491(1)
C23 C 0.4473(1) 0.5246(2) 0.5873(2)
H1 H 0.3964(8) 0.583(2) 0.707(1)
H2 H 0.342(1) 0.561(2) 0.805(1)
H3 H 0.280(1) 0.438(2) 0.869(2)
H4 H 0.264(1) 0.223(2) 0.829(2)
H5 H 0.3001(9) 0.130(2) 0.730(1)
H6 H 0.4362(10) 0.041(2) 0.743(1)
H7 H 0.424(1) -0.167(2) 0.703(1)
H8 H 0.331(1) -0.240(2) 0.557(1)
H9 H 0.251(1) -0.093(2) 0.449(1)
H10 H 0.2657(9) 0.130(2) 0.491(1)
H11 H 0.531(1) 0.243(2) 0.649(1)
H12 H 0.572(1) 0.152(2) 0.549(2)
H13 H 0.497(1) 0.115(2) 0.388(2)
H14 H 0.367(1) 0.167(2) 0.328(2)
H15 H 0.3285(10) 0.258(2) 0.424(1)
H16 H 0.447(1) 0.614(3) 0.603(2)
H17 H 0.495(2) 0.491(3) 0.606(2)
H18 H 0.421(1) 0.528(3) 0.520(2)
loop_
_geom_bond_atom_site_label_1
_geom_bond_atom_site_label_2
_geom_bond_distance
_geom_bond_site_symmetry_1
_geom_bond_site_symmetry_2
C1 C2 1.385 1_555 1_555
C2 C3 1.435 1_555 1_555
C3 C4 1.368 1_555 1_555
C4 C5 1.404 1_555 1_555
C5 C6 1.423 1_555 1_555
C6 C7 1.355 1_555 1_555
C7 C8 1.393 1_555 1_555
C8 C9 1.373 1_555 1_555
C9 C10 1.416 1_555 1_555
C10 C1 1.426 1_555 1_555
C11 C1 1.497 1_555 1_555
C12 C11 1.386 1_555 1_555
C13 C12 1.384 1_555 1_555
C14 C13 1.376 1_555 1_555
C15 C14 1.373 1_555 1_555
C16 C11 1.390 1_555 1_555
C17 C2 1.494 1_555 1_555
C18 C17 1.390 1_555 1_555
C19 C18 1.381 1_555 1_555
C20 C19 1.375 1_555 1_555
C21 C20 1.373 1_555 1_555
C22 C17 1.387 1_555 1_555
C23 C3 1.505 1_555 1_555
H1 C4 1.005 1_555 1_555
H2 C6 0.981 1_555 1_555
H3 C7 1.021 1_555 1_555
H4 C8 0.931 1_555 1_555
H5 C9 0.991 1_555 1_555
H6 C12 1.006 1_555 1_555
H7 C13 0.972 1_555 1_555
H8 C14 0.996 1_555 1_555
H9 C15 1.039 1_555 1_555
H10 C16 1.026 1_555 1_555
H11 C18 1.081 1_555 1_555
H12 C19 1.013 1_555 1_555
H13 C20 1.043 1_555 1_555
H14 C21 0.986 1_555 1_555
H15 C22 0.987 1_555 1_555
H16 C23 0.991 1_555 1_555
H17 C23 0.984 1_555 1_555
H18 C23 0.972 1_555 1_555
C5 C10 1.423 1_555 1_555
C15 C16 1.381 1_555 1_555
C21 C22 1.381 1_555 1_555
#END
