
#######################################################################
#
#                 Cambridge Crystallographic Data Centre
#                                CCDC
#
#######################################################################
#
# If this CIF has been generated from an entry in the Cambridge
# Structural Database, then it will include bibliographic, chemical,
# crystal, experimental, refinement or atomic coordinate data resulting
# from the CCDC's data processing and validation procedures.
#
#######################################################################

data_CSD_CIF_RELGUM
_audit_creation_date 2013-02-22
_audit_creation_method CSD-ConQuest-V1
_database_code_CSD RELGUM
_database_code_depnum_ccdc_archive 'CCDC 911477'
_chemical_formula_sum 'C18 H16'
_chemical_formula_moiety
;
C18 H16
;
_journal_coden_Cambridge 35
_journal_volume 77
_journal_year 2012
_journal_page_first 1693
_journal_name_full 'J.Org.Chem. '
loop_
_publ_author_name
"C.W.Anson"
"D.M.Thamattoor"
_chemical_name_systematic
;
1-Methyl-8-(4-methylphenyl)naphthalene
;
_cell_volume   1335.756
_exptl_crystal_colour 'colorless'
_exptl_crystal_density_diffrn 1.155
_exptl_crystal_description 'plate'
_diffrn_ambient_temperature 173
#These two values have been output from a single CSD field.
_refine_ls_R_factor_gt 0.0489
_refine_ls_wR_factor_gt 0.0489
_symmetry_cell_setting monoclinic
_symmetry_space_group_name_H-M 'P 21/c'
_symmetry_Int_Tables_number 14
loop_
_symmetry_equiv_pos_site_id
_symmetry_equiv_pos_as_xyz
1 x,y,z
2 -x,1/2+y,1/2-z
3 -x,-y,-z
4 x,-1/2-y,-1/2+z
_cell_length_a 8.1895(14)
_cell_length_b 24.346(4)
_cell_length_c 7.5266(13)
_cell_angle_alpha 90
_cell_angle_beta 117.113(2)
_cell_angle_gamma 90
_cell_formula_units_Z 4
loop_
_atom_type_symbol
_atom_type_radius_bond
C 0.68
H 0.23
loop_
_atom_site_label
_atom_site_type_symbol
_atom_site_fract_x
_atom_site_fract_y
_atom_site_fract_z
C1 C 0.7312(2) 0.13648(6) 0.5837(2)
C2 C 0.5721(2) 0.15777(6) 0.4152(2)
C3 C 0.3848(2) 0.14502(6) 0.3670(2)
C4 C 0.2462(3) 0.16744(7) 0.1969(3)
H1 H 0.12280 0.15870 0.16430
C5 C 0.2800(3) 0.20252(8) 0.0705(3)
H2 H 0.18050 0.21680 -0.04600
C6 C 0.4548(3) 0.21622(7) 0.1141(3)
H3 H 0.47710 0.24040 0.02850
C7 C 0.6034(3) 0.19485(6) 0.2852(3)
C8 C 0.7846(3) 0.20994(7) 0.3271(3)
H4 H 0.80360 0.23520 0.24210
C9 C 0.9303(3) 0.18889(8) 0.4861(3)
H5 H 1.05120 0.19910 0.51230
C10 C 0.9028(3) 0.15170(7) 0.6131(3)
H6 H 1.00690 0.13660 0.72300
C11 C 0.7283(2) 0.09756(6) 0.7369(2)
C12 C 0.7422(3) 0.04157(7) 0.7188(3)
H7 H 0.74470 0.02730 0.60270
C13 C 0.7523(3) 0.00590(7) 0.8666(3)
H8 H 0.76020 -0.03250 0.84910
C14 C 0.7514(2) 0.02483(8) 1.0386(2)
C15 C 0.7385(3) 0.08055(8) 1.0576(3)
H9 H 0.73670 0.09470 1.17430
C16 C 0.7279(3) 0.11645(7) 0.9103(3)
H10 H 0.72030 0.15480 0.92840
C17 C 0.7637(3) -0.01438(9) 1.1998(3)
H11 H 0.88490 -0.01130 1.31530
H12 H 0.74520 -0.05210 1.14860
H13 H 0.66880 -0.00520 1.24020
C18 C 0.3290(2) 0.10904(8) 0.4920(3)
H14 H 0.19550 0.10420 0.42490
H15 H 0.36640 0.12630 0.62250
H16 H 0.38860 0.07310 0.51020
loop_
_geom_bond_atom_site_label_1
_geom_bond_atom_site_label_2
_geom_bond_distance
_geom_bond_site_symmetry_1
_geom_bond_site_symmetry_2
C1 C2 1.438 1_555 1_555
C2 C3 1.440 1_555 1_555
C3 C4 1.379 1_555 1_555
C4 H1 0.949 1_555 1_555
C5 C4 1.397 1_555 1_555
H2 C5 0.950 1_555 1_555
C6 C5 1.356 1_555 1_555
H3 C6 0.950 1_555 1_555
C7 C2 1.438 1_555 1_555
C8 C7 1.418 1_555 1_555
H4 C8 0.950 1_555 1_555
C9 C8 1.348 1_555 1_555
H5 C9 0.950 1_555 1_555
C10 C1 1.370 1_555 1_555
H6 C10 0.950 1_555 1_555
C11 C1 1.501 1_555 1_555
C12 C11 1.380 1_555 1_555
H7 C12 0.949 1_555 1_555
C13 C12 1.384 1_555 1_555
H8 C13 0.950 1_555 1_555
C14 C13 1.377 1_555 1_555
C15 C14 1.373 1_555 1_555
H9 C15 0.950 1_555 1_555
C16 C11 1.385 1_555 1_555
H10 C16 0.950 1_555 1_555
C17 C14 1.511 1_555 1_555
H11 C17 0.980 1_555 1_555
H12 C17 0.981 1_555 1_555
H13 C17 0.981 1_555 1_555
C18 C3 1.501 1_555 1_555
H14 C18 0.980 1_555 1_555
H15 C18 0.980 1_555 1_555
H16 C18 0.981 1_555 1_555
C6 C7 1.408 1_555 1_555
C9 C10 1.407 1_555 1_555
C15 C16 1.383 1_555 1_555
#END
