
#######################################################################
#
#                 Cambridge Crystallographic Data Centre
#                                CCDC
#
#######################################################################
#
# If this CIF has been generated from an entry in the Cambridge
# Structural Database, then it will include bibliographic, chemical,
# crystal, experimental, refinement or atomic coordinate data resulting
# from the CCDC's data processing and validation procedures.
#
#######################################################################

data_CSD_CIF_RIWSAT
_audit_creation_date 2013-12-06
_audit_creation_method CSD-ConQuest-V1
_database_code_CSD RIWSAT
_database_code_depnum_ccdc_archive 'CCDC 938415'
_chemical_formula_sum 'C30 H14'
_chemical_formula_moiety
;
C30 H14
;
_journal_coden_Cambridge 1220
_journal_volume 20
_journal_year 2014
_journal_page_first 598
_journal_name_full 'Chem.-Eur.J. '
loop_
_publ_author_name
"Min-Kuan Chen"
"Hsin-Ju Hsin"
"Tsun-Cheng Wu"
"Bo-Yan Kang"
"Yen-Wei Lee"
"Ming-Yu Kuo"
"Yao-Ting Wu"
_chemical_name_systematic
;
1,12,12d,12h-Tetrahydroacenaphtho[3,2,1,8-fghij]dicyclopenta[pqr,tuv]picene
;
_cell_volume   1697.202
_exptl_crystal_colour 'yellow'
_exptl_crystal_density_diffrn 1.465
_diffrn_ambient_temperature 100
#These two values have been output from a single CSD field.
_refine_ls_R_factor_gt 0.0284
_refine_ls_wR_factor_gt 0.0284
_symmetry_cell_setting monoclinic
_symmetry_space_group_name_H-M 'C c'
_symmetry_Int_Tables_number 9
loop_
_symmetry_equiv_pos_site_id
_symmetry_equiv_pos_as_xyz
1 x,y,z
2 x,-y,1/2+z
3 1/2+x,1/2+y,z
4 1/2+x,1/2-y,1/2+z
_cell_length_a 20.4913(14)
_cell_length_b 10.0252(7)
_cell_length_c 8.4972(5)
_cell_angle_alpha 90
_cell_angle_beta 103.520(1)
_cell_angle_gamma 90
_cell_formula_units_Z 4
loop_
_atom_type_symbol
_atom_type_radius_bond
C 0.68
H 0.23
loop_
_atom_site_label
_atom_site_type_symbol
_atom_site_fract_x
_atom_site_fract_y
_atom_site_fract_z
C1 C 0.39459(8) 0.35180(18) 0.2974(2)
H1 H 0.41360 0.27090 0.27060
C2 C 0.33820(8) 0.34799(16) 0.3659(2)
C3 C 0.31631(8) 0.47417(16) 0.4083(2)
C4 C 0.25630(9) 0.49407(16) 0.4611(2)
C5 C 0.22993(9) 0.62537(16) 0.4199(2)
C6 C 0.16058(9) 0.63869(16) 0.3834(2)
C7 C 0.11175(9) 0.73963(16) 0.2822(2)
H2 H 0.13060 0.77860 0.19530
H3 H 0.10110 0.81240 0.35080
C8 C 0.04908(9) 0.65421(17) 0.2113(2)
C9 C -0.00659(9) 0.67612(18) 0.0879(2)
H4 H -0.01620 0.76250 0.04250
C10 C -0.04918(9) 0.5670(2) 0.0302(2)
H5 H -0.08990 0.58310 -0.04770
C11 C 0.42242(9) 0.47293(18) 0.2690(2)
H6 H 0.46260 0.47260 0.23120
C12 C 0.39359(9) 0.59673(18) 0.2937(2)
H7 H 0.41160 0.67780 0.26450
C13 C 0.33873(9) 0.59717(16) 0.3613(2)
C14 C 0.29186(8) 0.23420(16) 0.3623(2)
C15 C 0.28839(9) 0.11711(16) 0.2614(2)
H8 H 0.32820 0.08520 0.23540
C16 C 0.22869(9) 0.05024(16) 0.2017(2)
H9 H 0.22880 -0.02720 0.13730
C17 C 0.16640(9) 0.09493(15) 0.2347(2)
C18 C 0.09979(9) 0.07595(16) 0.1355(2)
H10 H 0.09060 0.00030 0.06650
C19 C 0.04879(9) 0.16611(16) 0.1388(2)
H11 H 0.00570 0.15160 0.06970
C20 C 0.05886(8) 0.28074(17) 0.2431(2)
C21 C 0.02386(8) 0.41042(17) 0.2069(2)
C22 C 0.05942(8) 0.52507(17) 0.2775(2)
C23 C 0.12221(8) 0.52111(16) 0.3922(2)
C24 C 0.14859(8) 0.39860(16) 0.4434(2)
C25 C 0.21872(8) 0.38478(16) 0.4792(2)
C26 C 0.23488(9) 0.25714(16) 0.4204(2)
C27 C 0.17243(8) 0.19219(15) 0.3528(2)
C28 C 0.11868(8) 0.28085(16) 0.3612(2)
C29 C 0.28767(9) 0.70534(17) 0.3788(2)
H12 H 0.30720 0.76850 0.46670
H13 H 0.27220 0.75560 0.27660
C30 C -0.03380(9) 0.43688(19) 0.0832(2)
H14 H -0.06220 0.36560 0.03580
loop_
_geom_bond_atom_site_label_1
_geom_bond_atom_site_label_2
_geom_bond_distance
_geom_bond_site_symmetry_1
_geom_bond_site_symmetry_2
C1 H1 0.950 1_555 1_555
C2 C1 1.411 1_555 1_555
C3 C2 1.417 1_555 1_555
C4 C3 1.418 1_555 1_555
C5 C4 1.435 1_555 1_555
C6 C5 1.388 1_555 1_555
C7 C6 1.537 1_555 1_555
H2 C7 0.990 1_555 1_555
H3 C7 0.989 1_555 1_555
C8 C7 1.544 1_555 1_555
C9 C8 1.375 1_555 1_555
H4 C9 0.950 1_555 1_555
C10 C9 1.414 1_555 1_555
H5 C10 0.950 1_555 1_555
C11 C1 1.387 1_555 1_555
H6 C11 0.951 1_555 1_555
C12 C11 1.411 1_555 1_555
H7 C12 0.949 1_555 1_555
C13 C3 1.406 1_555 1_555
C14 C2 1.480 1_555 1_555
C15 C14 1.446 1_555 1_555
H8 C15 0.949 1_555 1_555
C16 C15 1.383 1_555 1_555
H9 C16 0.950 1_555 1_555
C17 C16 1.441 1_555 1_555
C18 C17 1.439 1_555 1_555
H10 C18 0.950 1_555 1_555
C19 C18 1.387 1_555 1_555
H11 C19 0.950 1_555 1_555
C20 C19 1.436 1_555 1_555
C21 C20 1.482 1_555 1_555
C22 C8 1.408 1_555 1_555
C23 C6 1.429 1_555 1_555
C24 C23 1.371 1_555 1_555
C25 C4 1.368 1_555 1_555
C26 C14 1.389 1_555 1_555
C27 C17 1.384 1_555 1_555
C28 C20 1.391 1_555 1_555
C29 C5 1.536 1_555 1_555
H12 C29 0.990 1_555 1_555
H13 C29 0.990 1_555 1_555
C30 C10 1.392 1_555 1_555
H14 C30 0.950 1_555 1_555
C12 C13 1.377 1_555 1_555
C13 C29 1.538 1_555 1_555
C21 C22 1.417 1_555 1_555
C21 C30 1.411 1_555 1_555
C22 C23 1.421 1_555 1_555
C24 C25 1.404 1_555 1_555
C24 C28 1.434 1_555 1_555
C25 C26 1.440 1_555 1_555
C26 C27 1.431 1_555 1_555
C27 C28 1.430 1_555 1_555
#END
