
#######################################################################
#
#                 Cambridge Crystallographic Data Centre
#                                CCDC
#
#######################################################################
#
# If this CIF has been generated from an entry in the Cambridge
# Structural Database, then it will include bibliographic, chemical,
# crystal, experimental, refinement or atomic coordinate data resulting
# from the CCDC's data processing and validation procedures.
#
#######################################################################

data_CSD_CIF_ROMDAZ
_audit_creation_date 2009-03-24
_audit_creation_method CSD-ConQuest-V1
_database_code_CSD ROMDAZ
_database_code_depnum_ccdc_archive 'CCDC 722044'
_chemical_formula_sum 'C26 H20'
_chemical_formula_moiety
;
C26 H20
;
_journal_coeditor_code "IUCr AT2699"
_journal_coden_Cambridge 1370
_journal_volume 65
_journal_year 2009
_journal_page_first o294
_journal_name_full 'Acta Crystallogr.,Sect.E:Struct.Rep.Online '
loop_
_publ_author_name
"Y.Sonoda"
"M.Yoshida"
"M.Goto"
_chemical_name_systematic
;
(Z,E,Z)-1,6-bis(1-naphthyl)hexa-1,3,5-triene
;
_cell_volume    887.225
_exptl_crystal_colour 'pale yellow'
_exptl_crystal_density_diffrn 1.244
_exptl_crystal_description 'rectangular'
_exptl_crystal_preparation 'dichloromethane'
_diffrn_ambient_temperature 203
#These two values have been output from a single CSD field.
_refine_ls_R_factor_gt 0.0426
_refine_ls_wR_factor_gt 0.0426
loop_
_citation_database_id_CSD
_citation_special_details
TUPPIF "is a stereoisomer of this entry"
_symmetry_cell_setting monoclinic
_symmetry_space_group_name_H-M 'P 21/n'
_symmetry_Int_Tables_number 14
loop_
_symmetry_equiv_pos_site_id
_symmetry_equiv_pos_as_xyz
1 x,y,z
2 1/2-x,1/2+y,1/2-z
3 -x,-y,-z
4 -1/2+x,-1/2-y,-1/2+z
_cell_length_a 5.0071(8)
_cell_length_b 11.0709(17)
_cell_length_c 16.110(3)
_cell_angle_alpha 90
_cell_angle_beta 96.535(3)
_cell_angle_gamma 90
_cell_formula_units_Z 2
loop_
_atom_type_symbol
_atom_type_radius_bond
C 0.68
H 0.23
loop_
_atom_site_label
_atom_site_type_symbol
_atom_site_fract_x
_atom_site_fract_y
_atom_site_fract_z
C1 C 0.0718(2) 0.18611(12) 0.28101(8)
C2 C 0.2135(3) 0.10461(14) 0.33764(9)
H1 H 0.33830 0.05110 0.31830
C3 C 0.1719(3) 0.10250(15) 0.42018(9)
H2 H 0.27110 0.04890 0.45700
C4 C -0.0171(3) 0.17947(16) 0.45017(9)
H3 H -0.04460 0.17730 0.50690
C5 C -0.1600(3) 0.25694(15) 0.39761(9)
H4 H -0.28940 0.30680 0.41820
C6 C -0.1188(3) 0.26465(13) 0.31206(8)
C7 C -0.2601(3) 0.34839(14) 0.2575(1)
H5 H -0.38700 0.40020 0.27760
C8 C -0.2140(3) 0.35465(14) 0.17611(10)
H6 H -0.30630 0.41200 0.14060
C9 C -0.0295(3) 0.27621(13) 0.14452(9)
H7 H -0.00160 0.28180 0.08790
C10 C 0.1111(3) 0.19160(13) 0.19424(8)
C11 C 0.3027(3) 0.10910(13) 0.16049(8)
H8 H 0.47330 0.10200 0.19110
C12 C 0.2587(3) 0.04314(13) 0.09057(8)
H9 H 0.40520 -0.00230 0.07610
C13 C 0.0132(3) 0.03363(13) 0.03492(8)
H10 H -0.13740 0.07710 0.04830
C1B C -0.0718(2) -0.18611(12) -0.28101(8)
C2B C -0.2135(3) -0.10461(14) -0.33764(9)
H1B H -0.33830 -0.05110 -0.31830
C3B C -0.1719(3) -0.10250(15) -0.42018(9)
H2B H -0.27110 -0.04890 -0.45700
C4B C 0.0171(3) -0.17947(16) -0.45017(9)
H3B H 0.04460 -0.17730 -0.50690
C5B C 0.1600(3) -0.25694(15) -0.39761(9)
H4B H 0.28940 -0.30680 -0.41820
C6B C 0.1188(3) -0.26465(13) -0.31206(8)
C7B C 0.2601(3) -0.34839(14) -0.2575(1)
H5B H 0.38700 -0.40020 -0.27760
C8B C 0.2140(3) -0.35465(14) -0.17611(10)
H6B H 0.30630 -0.41200 -0.14060
C9B C 0.0295(3) -0.27621(13) -0.14452(9)
H7B H 0.00160 -0.28180 -0.08790
C10B C -0.1111(3) -0.19160(13) -0.19424(8)
C11B C -0.3027(3) -0.10910(13) -0.16049(8)
H8B H -0.47330 -0.10200 -0.19110
C12B C -0.2587(3) -0.04314(13) -0.09057(8)
H9B H -0.40520 0.00230 -0.07610
C13B C -0.0132(3) -0.03363(13) -0.03492(8)
H10B H 0.13740 -0.07710 -0.04830
loop_
_geom_bond_atom_site_label_1
_geom_bond_atom_site_label_2
_geom_bond_distance
_geom_bond_site_symmetry_1
_geom_bond_site_symmetry_2
C1 C2 1.415 1_555 1_555
C2 H1 0.940 1_555 1_555
C3 C2 1.369 1_555 1_555
H2 C3 0.940 1_555 1_555
C4 C3 1.400 1_555 1_555
H3 C4 0.940 1_555 1_555
C5 C4 1.352 1_555 1_555
H4 C5 0.940 1_555 1_555
C6 C1 1.423 1_555 1_555
C7 C6 1.411 1_555 1_555
H5 C7 0.940 1_555 1_555
C8 C7 1.359 1_555 1_555
H6 C8 0.940 1_555 1_555
C9 C8 1.405 1_555 1_555
H7 C9 0.940 1_555 1_555
C10 C1 1.435 1_555 1_555
C11 C10 1.473 1_555 1_555
H8 C11 0.940 1_555 1_555
C12 C11 1.339 1_555 1_555
H9 C12 0.940 1_555 1_555
C13 C12 1.440 1_555 1_555
H10 C13 0.940 1_555 1_555
C1B C2B 1.415 1_555 1_555
C2B H1B 0.940 1_555 1_555
C3B C2B 1.369 1_555 1_555
H2B C3B 0.940 1_555 1_555
C4B C3B 1.400 1_555 1_555
H3B C4B 0.940 1_555 1_555
C5B C4B 1.352 1_555 1_555
H4B C5B 0.940 1_555 1_555
C6B C1B 1.423 1_555 1_555
C7B C6B 1.411 1_555 1_555
H5B C7B 0.940 1_555 1_555
C8B C7B 1.359 1_555 1_555
H6B C8B 0.940 1_555 1_555
C9B C8B 1.405 1_555 1_555
H7B C9B 0.940 1_555 1_555
C10B C1B 1.435 1_555 1_555
C11B C10B 1.473 1_555 1_555
H8B C11B 0.940 1_555 1_555
C12B C11B 1.339 1_555 1_555
H9B C12B 0.940 1_555 1_555
C13B C13 1.343 1_555 1_555
H10B C13B 0.940 1_555 1_555
C5 C6 1.419 1_555 1_555
C9 C10 1.373 1_555 1_555
C5B C6B 1.419 1_555 1_555
C9B C10B 1.373 1_555 1_555
C12B C13B 1.440 1_555 1_555
#END
