
#######################################################################
#
#                 Cambridge Crystallographic Data Centre
#                                CCDC
#
#######################################################################
#
# If this CIF has been generated from an entry in the Cambridge
# Structural Database, then it will include bibliographic, chemical,
# crystal, experimental, refinement or atomic coordinate data resulting
# from the CCDC's data processing and validation procedures.
#
#######################################################################

data_CSD_CIF_RUNZOR
_audit_creation_date 2015-08-07
_audit_creation_method CSD-ConQuest-V1
_database_code_CSD RUNZOR
_database_code_depnum_ccdc_archive 'CCDC 1040410'
_chemical_formula_sum 'C28 H18'
_chemical_formula_moiety
;
C28 H18
;
_journal_coden_Cambridge 1220
_journal_volume 21
_journal_year 2015
_journal_page_first 9970
_journal_name_full 'Chem.-Eur.J. '
loop_
_publ_author_name
"B.T.Haire"
"K.W.J.Heard"
"M.S.Little"
"A.V.S.Parry"
"J.Raftery"
"P.Quayle"
"S.G.Yeates"
_chemical_name_systematic
;
7-Phenylbenzo[k]tetraphene
;
_chemical_melting_point 475.15
_cell_volume   3541.273
_exptl_crystal_colour 'white'
_exptl_crystal_density_diffrn 1.33
_exptl_crystal_description 'plate'
_exptl_crystal_preparation 'chloroform'
_diffrn_ambient_temperature 100
#These two values have been output from a single CSD field.
_refine_ls_R_factor_gt 0.0475
_refine_ls_wR_factor_gt 0.0475
_symmetry_cell_setting orthorhombic
_symmetry_space_group_name_H-M 'P b c a'
_symmetry_Int_Tables_number 61
loop_
_symmetry_equiv_pos_site_id
_symmetry_equiv_pos_as_xyz
1 x,y,z
2 1/2+x,1/2-y,-z
3 -x,1/2+y,1/2-z
4 1/2-x,-y,1/2+z
5 -x,-y,-z
6 -1/2-x,-1/2+y,z
7 x,-1/2-y,-1/2+z
8 -1/2+x,y,-1/2-z
_cell_length_a 10.4773(3)
_cell_length_b 17.8272(5)
_cell_length_c 18.9595(6)
_cell_angle_alpha 90
_cell_angle_beta 90
_cell_angle_gamma 90
_cell_formula_units_Z 8
loop_
_atom_type_symbol
_atom_type_radius_bond
C 0.68
H 0.23
loop_
_atom_site_label
_atom_site_type_symbol
_atom_site_fract_x
_atom_site_fract_y
_atom_site_fract_z
C1 C 0.42131(13) 0.04703(7) 0.61019(7)
C2 C 0.42437(13) -0.01388(7) 0.65801(7)
C3 C 0.33993(13) -0.08011(7) 0.65592(7)
C4 C 0.26930(13) -0.10245(8) 0.59607(7)
H1 H 0.27130 -0.07210 0.55490
C5 C 0.19701(14) -0.16765(8) 0.59599(8)
H2 H 0.15170 -0.18170 0.55470
C6 C 0.19026(14) -0.21285(8) 0.65612(8)
H3 H 0.13840 -0.25660 0.65640
C7 C 0.25934(13) -0.19330(8) 0.71472(7)
H4 H 0.25480 -0.22380 0.75570
C8 C 0.33695(13) -0.12873(8) 0.71528(7)
C9 C 0.42099(13) -0.11634(8) 0.77411(7)
H5 H 0.41220 -0.14590 0.81550
C10 C 0.51217(13) -0.06311(8) 0.77105(7)
H6 H 0.57250 -0.05910 0.80830
C11 C 0.51944(13) -0.01228(7) 0.71223(7)
C12 C 0.61872(13) 0.03941(7) 0.70965(7)
H7 H 0.68370 0.03720 0.74460
C13 C 0.62615(13) 0.09444(7) 0.65753(7)
C14 C 0.73423(13) 0.14560(7) 0.65161(7)
C15 C 0.84586(13) 0.13828(7) 0.69270(7)
H8 H 0.85180 0.09880 0.72620
C16 C 0.94649(14) 0.18758(8) 0.68497(8)
H9 H 1.02080 0.18170 0.71310
C17 C 0.93980(14) 0.24635(8) 0.63582(8)
H10 H 1.00920 0.28020 0.63060
C18 C 0.83226(15) 0.25446(8) 0.59536(7)
H11 H 0.82770 0.29440 0.56230
C19 C 0.72852(14) 0.20484(7) 0.60189(7)
C20 C 0.61705(14) 0.21300(8) 0.55861(7)
H12 H 0.61200 0.25400 0.52670
C21 C 0.51914(14) 0.16382(8) 0.56216(7)
H13 H 0.44730 0.17080 0.53230
C22 C 0.52069(13) 0.10096(7) 0.61004(7)
C23 C 0.31233(13) 0.05819(7) 0.56008(7)
C24 C 0.32787(13) 0.04884(7) 0.48740(7)
H14 H 0.40990 0.03760 0.46890
C25 C 0.22488(14) 0.05582(8) 0.44197(7)
H15 H 0.23640 0.04830 0.39280
C26 C 0.10504(14) 0.07371(8) 0.46820(8)
H16 H 0.03420 0.07770 0.43710
C27 C 0.08896(14) 0.08567(8) 0.53996(8)
H17 H 0.00740 0.09900 0.55790
C28 C 0.19213(14) 0.07817(8) 0.58563(7)
H18 H 0.18060 0.08670 0.63470
loop_
_geom_bond_atom_site_label_1
_geom_bond_atom_site_label_2
_geom_bond_distance
_geom_bond_site_symmetry_1
_geom_bond_site_symmetry_2
C1 C2 1.415 1_555 1_555
C2 C3 1.476 1_555 1_555
C3 C4 1.412 1_555 1_555
C4 H1 0.950 1_555 1_555
C5 C4 1.387 1_555 1_555
H2 C5 0.949 1_555 1_555
C6 C5 1.398 1_555 1_555
H3 C6 0.951 1_555 1_555
C7 C6 1.371 1_555 1_555
H4 C7 0.950 1_555 1_555
C8 C3 1.421 1_555 1_555
C9 C8 1.438 1_555 1_555
H5 C9 0.950 1_555 1_555
C10 C9 1.348 1_555 1_555
H6 C10 0.950 1_555 1_555
C11 C2 1.432 1_555 1_555
C12 C11 1.391 1_555 1_555
H7 C12 0.951 1_555 1_555
C13 C12 1.395 1_555 1_555
C14 C13 1.458 1_555 1_555
C15 C14 1.411 1_555 1_555
H8 C15 0.950 1_555 1_555
C16 C15 1.380 1_555 1_555
H9 C16 0.950 1_555 1_555
C17 C16 1.404 1_555 1_555
H10 C17 0.950 1_555 1_555
C18 C17 1.371 1_555 1_555
H11 C18 0.950 1_555 1_555
C19 C14 1.417 1_555 1_555
C20 C19 1.435 1_555 1_555
H12 C20 0.950 1_555 1_555
C21 C20 1.351 1_555 1_555
H13 C21 0.950 1_555 1_555
C22 C1 1.417 1_555 1_555
C23 C1 1.499 1_555 1_555
C24 C23 1.398 1_555 1_555
H14 C24 0.950 1_555 1_555
C25 C24 1.386 1_555 1_555
H15 C25 0.950 1_555 1_555
C26 C25 1.388 1_555 1_555
H16 C26 0.951 1_555 1_555
C27 C26 1.387 1_555 1_555
H17 C27 0.950 1_555 1_555
C28 C23 1.396 1_555 1_555
H18 C28 0.950 1_555 1_555
C7 C8 1.409 1_555 1_555
C10 C11 1.439 1_555 1_555
C13 C22 1.430 1_555 1_555
C18 C19 1.407 1_555 1_555
C21 C22 1.442 1_555 1_555
C27 C28 1.391 1_555 1_555
#END
