
#######################################################################
#
#                 Cambridge Crystallographic Data Centre
#                                CCDC
#
#######################################################################
#
# If this CIF has been generated from an entry in the Cambridge
# Structural Database, then it will include bibliographic, chemical,
# crystal, experimental, refinement or atomic coordinate data resulting
# from the CCDC's data processing and validation procedures.
#
#######################################################################

data_CSD_CIF_RUTZOV
_audit_creation_date 1998-03-12
_audit_creation_method CSD-ConQuest-V1
_database_code_CSD RUTZOV
_chemical_formula_sum 'C28 H28'
_chemical_formula_moiety
;
C28 H28
;
_journal_coden_Cambridge 35
_journal_volume 62
_journal_year 1997
_journal_page_first 7644
_journal_name_full 'J.Org.Chem. '
loop_
_publ_author_name
"R.Gleiter"
"K.Staub"
"H.Irngartinger"
"T.Oeser"
_chemical_name_systematic
;
4,7,14,17-Tetramethyl-anti-(2.2)(1,4)naphthalenophane
;
_cell_volume    962.240
_exptl_crystal_colour 'colorless'
_exptl_crystal_density_diffrn 1.26
_exptl_crystal_description 'prism'
_diffrn_ambient_temperature ?
_diffrn_special_details
;
The study was carried out at room temperature,in the range 283-303K

;
#These two values have been output from a single CSD field.
_refine_ls_R_factor_gt 0.04
_refine_ls_wR_factor_gt 0.04
_symmetry_cell_setting monoclinic
_symmetry_space_group_name_H-M 'P 21/n'
_symmetry_Int_Tables_number 14
loop_
_symmetry_equiv_pos_site_id
_symmetry_equiv_pos_as_xyz
1 x,y,z
2 1/2-x,1/2+y,1/2-z
3 -x,-y,-z
4 -1/2+x,-1/2-y,-1/2+z
_cell_length_a 8.712(2)
_cell_length_b 12.035(2)
_cell_length_c 9.428(1)
_cell_angle_alpha 90
_cell_angle_beta 103.24(1)
_cell_angle_gamma 90
_cell_formula_units_Z 2
loop_
_atom_type_symbol
_atom_type_radius_bond
C 0.68
H 0.23
loop_
_atom_site_label
_atom_site_type_symbol
_atom_site_fract_x
_atom_site_fract_y
_atom_site_fract_z
C1 C 0.4184(2) 0.5188(2) 0.1869(2)
C2 C 0.5950(2) 0.5551(2) 0.2339(2)
C3 C 0.6477(2) 0.5784(1) 0.3969(2)
C4 C 0.5249(2) 0.7675(1) 0.4062(2)
C5 C 0.5837(2) 0.6645(1) 0.4740(2)
C6 C 0.4586(2) 0.8428(1) 0.4837(2)
C7 C 0.4517(2) 0.8238(1) 0.6277(2)
C8 C 0.5111(2) 0.7288(1) 0.7010(2)
C9 C 0.3621(2) 0.4594(1) 0.3083(2)
C10 C 0.5782(2) 0.6449(1) 0.6252(2)
C11 C 0.2688(2) 0.5221(1) 0.3764(2)
C12 C 0.7361(2) 0.4969(1) 0.4779(2)
C13 C 0.5409(2) 0.8027(2) 0.2560(2)
C14 C 0.5147(2) 0.7250(2) 0.8622(2)
H1 H 0.350(2) 0.589(1) 0.166(2)
H2 H 0.409(2) 0.477(2) 0.094(2)
H3 H 0.609(2) 0.618(1) 0.170(2)
H4 H 0.663(2) 0.493(1) 0.215(2)
H5 H 0.421(2) 0.913(1) 0.437(2)
H6 H 0.409(2) 0.881(1) 0.679(2)
H7 H 0.221(2) 0.588(1) 0.332(2)
H8 H 0.788(2) 0.438(1) 0.431(2)
H9 H 0.458(2) 0.765(2) 0.174(2)
H10 H 0.654(2) 0.788(2) 0.240(2)
H11 H 0.524(2) 0.883(2) 0.247(2)
H12 H 0.623(2) 0.711(2) 0.926(2)
H13 H 0.473(2) 0.801(2) 0.889(2)
H14 H 0.444(2) 0.665(1) 0.886(2)
C9B C 0.6379(2) 0.5406(1) 0.6917(2)
C1B C 0.5816(2) 0.4812(2) 0.8131(2)
C2B C 0.4050(2) 0.4449(2) 0.7661(2)
C3B C 0.3523(2) 0.4216(1) 0.6031(2)
C5B C 0.4163(2) 0.3355(1) 0.5260(2)
C4B C 0.4751(2) 0.2325(1) 0.5938(2)
C6B C 0.5414(2) 0.1572(1) 0.5163(2)
C7B C 0.5483(2) 0.1762(1) 0.3723(2)
C8B C 0.4889(2) 0.2712(1) 0.2990(2)
C10B C 0.4218(2) 0.3551(1) 0.3748(2)
C12B C 0.2639(2) 0.5031(1) 0.5221(2)
H8B H 0.212(2) 0.562(1) 0.569(2)
C14B C 0.4853(2) 0.2750(2) 0.1378(2)
H12B H 0.377(2) 0.289(2) 0.074(2)
H13B H 0.527(2) 0.199(2) 0.111(2)
H14B H 0.556(2) 0.335(1) 0.114(2)
H6B H 0.591(2) 0.119(1) 0.321(2)
H5B H 0.579(2) 0.087(1) 0.563(2)
C13B C 0.4591(2) 0.1973(2) 0.7440(2)
H9B H 0.542(2) 0.235(2) 0.826(2)
H10B H 0.346(2) 0.212(2) 0.760(2)
H11B H 0.476(2) 0.117(2) 0.753(2)
H3B H 0.391(2) 0.382(1) 0.830(2)
H4B H 0.337(2) 0.507(1) 0.785(2)
H1B H 0.650(2) 0.411(1) 0.834(2)
H2B H 0.591(2) 0.523(2) 0.906(2)
C11B C 0.7312(2) 0.4779(1) 0.6236(2)
H7B H 0.779(2) 0.412(1) 0.668(2)
loop_
_geom_bond_atom_site_label_1
_geom_bond_atom_site_label_2
_geom_bond_distance
_geom_bond_site_symmetry_1
_geom_bond_site_symmetry_2
C1 C2 1.563 1_555 1_555
C2 C3 1.526 1_555 1_555
C3 C5 1.449 1_555 1_555
C4 C5 1.434 1_555 1_555
C5 C10 1.456 1_555 1_555
C6 C4 1.372 1_555 1_555
C7 C6 1.392 1_555 1_555
C8 C7 1.374 1_555 1_555
C9 C1 1.523 1_555 1_555
C10 C8 1.436 1_555 1_555
C11 C9 1.372 1_555 1_555
C12 C3 1.367 1_555 1_555
C13 C4 1.515 1_555 1_555
C14 C8 1.514 1_555 1_555
H1 C1 1.027 1_555 1_555
H2 C1 0.997 1_555 1_555
H3 C2 0.992 1_555 1_555
H4 C2 0.995 1_555 1_555
H5 C6 0.974 1_555 1_555
H6 C7 0.964 1_555 1_555
H7 C11 0.948 1_555 1_555
H8 C12 0.997 1_555 1_555
H9 C13 1.034 1_555 1_555
H10 C13 1.045 1_555 1_555
H11 C13 0.978 1_555 1_555
H12 C14 1.010 1_555 1_555
H13 C14 1.037 1_555 1_555
H14 C14 1.007 1_555 1_555
C9B C10 1.446 1_555 1_555
C1B C9B 1.523 1_555 1_555
C2B C1B 1.563 1_555 1_555
C3B C2B 1.526 1_555 1_555
C5B C3B 1.449 1_555 1_555
C4B C5B 1.434 1_555 1_555
C6B C4B 1.372 1_555 1_555
C7B C6B 1.392 1_555 1_555
C8B C7B 1.374 1_555 1_555
C10B C9 1.446 1_555 1_555
C12B C11 1.403 1_555 1_555
H8B C12B 0.997 1_555 1_555
C14B C8B 1.514 1_555 1_555
H12B C14B 1.010 1_555 1_555
H13B C14B 1.037 1_555 1_555
H14B C14B 1.007 1_555 1_555
H6B C7B 0.964 1_555 1_555
H5B C6B 0.974 1_555 1_555
C13B C4B 1.515 1_555 1_555
H9B C13B 1.034 1_555 1_555
H10B C13B 1.045 1_555 1_555
H11B C13B 0.978 1_555 1_555
H3B C2B 0.992 1_555 1_555
H4B C2B 0.995 1_555 1_555
H1B C1B 1.027 1_555 1_555
H2B C1B 0.997 1_555 1_555
C11B C12 1.403 1_555 1_555
H7B C11B 0.948 1_555 1_555
C9B C11B 1.372 1_555 1_555
C3B C12B 1.367 1_555 1_555
C5B C10B 1.456 1_555 1_555
C8B C10B 1.436 1_555 1_555
#END
