
#######################################################################
#
#                 Cambridge Crystallographic Data Centre
#                                CCDC
#
#######################################################################
#
# If this CIF has been generated from an entry in the Cambridge
# Structural Database, then it will include bibliographic, chemical,
# crystal, experimental, refinement or atomic coordinate data resulting
# from the CCDC's data processing and validation procedures.
#
#######################################################################

data_CSD_CIF_SIRDAA
_audit_creation_date 2013-12-17
_audit_creation_method CSD-ConQuest-V1
_database_code_CSD SIRDAA
_database_code_depnum_ccdc_archive 'CCDC 977506'
_chemical_formula_sum 'C30 H22'
_chemical_formula_moiety
;
C30 H22
;
_journal_coden_Cambridge 1089
_journal_volume 21
_journal_year 2009
_journal_page_first 3649
_journal_name_full 'Adv.Mater. '
loop_
_publ_author_name
"Lang Jiang"
"Wenping Hu"
"Zhongming Wei"
"Wei Xu"
"Hong Meng"
_chemical_name_systematic
;
2,6-bis(2-Phenylvinyl)anthracene
;
_cell_volume   1942.753
_exptl_special_details
;
The temperature of the study was not reported

;
_diffrn_ambient_temperature ?
_diffrn_special_details
;
The study was carried out at room temperature,in the range 283-303K

;
#These two values have been output from a single CSD field.
_refine_ls_R_factor_gt 0.184
_refine_ls_wR_factor_gt 0.184
_symmetry_cell_setting orthorhombic
_symmetry_space_group_name_H-M 'P 21 21 21'
_symmetry_Int_Tables_number 19
loop_
_symmetry_equiv_pos_site_id
_symmetry_equiv_pos_as_xyz
1 x,y,z
2 1/2-x,-y,1/2+z
3 1/2+x,1/2-y,-z
4 -x,1/2+y,1/2-z
_cell_length_a 5.888(2)
_cell_length_b 7.344(3)
_cell_length_c 44.928(18)
_cell_angle_alpha 90
_cell_angle_beta 90
_cell_angle_gamma 90
_cell_formula_units_Z 4
loop_
_atom_type_symbol
_atom_type_radius_bond
C 0.68
H 0.23
loop_
_atom_site_label
_atom_site_type_symbol
_atom_site_fract_x
_atom_site_fract_y
_atom_site_fract_z
C1 C 0.4147(15) 0.1596(10) -0.1698(2)
C2 C 0.4920(16) 0.2147(9) -0.1963(2)
H1 H 0.62820 0.27870 -0.19700
C3 C 0.3770(13) 0.1804(9) -0.2233(2)
C4 C 0.1562(13) 0.0947(9) -0.2214(2)
C5 C 0.0687(14) 0.0527(9) -0.1930(2)
H2 H -0.07840 0.00750 -0.19140
C6 C 0.1920(14) 0.0762(9) -0.1680(2)
H3 H 0.13440 0.03910 -0.14970
C7 C 0.4669(14) 0.2250(8) -0.2511(2)
H4 H 0.60770 0.28190 -0.25240
C8 C 0.3452(14) 0.1842(9) -0.2768(2)
C9 C 0.1266(12) 0.0981(9) -0.2758(2)
C10 C 0.0426(14) 0.0578(8) -0.2479(2)
H5 H -0.09920 0.00240 -0.24660
C11 C 0.4346(13) 0.2281(8) -0.3055(2)
H6 H 0.57680 0.28230 -0.30700
C12 C 0.3137(16) 0.1914(9) -0.3305(2)
H7 H 0.37800 0.21930 -0.34890
C13 C 0.0949(12) 0.1129(8) -0.3300(2)
C14 C 0.0098(13) 0.0640(8) -0.3022(2)
H8 H -0.13050 0.00620 -0.30120
C15 C 0.5466(18) 0.1788(10) -0.1430(2)
H9 H 0.67140 0.25600 -0.14430
C16 C 0.5130(12) 0.1004(9) -0.1167(2)
H10 H 0.38550 0.02610 -0.11520
C17 C 0.6528(14) 0.1165(9) -0.0896(2)
C18 C 0.8660(15) 0.1945(9) -0.0894(2)
H11 H 0.93260 0.22880 -0.10730
C19 C 0.9827(15) 0.2227(8) -0.0630(2)
H12 H 1.12340 0.28040 -0.06310
C20 C 0.8885(18) 0.1646(12) -0.0363(2)
H13 H 0.96520 0.18220 -0.01850
C21 C 0.6799(19) 0.0805(11) -0.0367(2)
H14 H 0.61610 0.03890 -0.01910
C22 C 0.5651(15) 0.0575(9) -0.0632(2)
H15 H 0.42410 0.00040 -0.06300
C23 C -0.0456(13) 0.0926(9) -0.3559(2)
H16 H -0.17700 0.02360 -0.35360
C24 C -0.0085(16) 0.1605(10) -0.3821(2)
H17 H 0.12820 0.22250 -0.38430
C25 C -0.1504(17) 0.1533(11) -0.4086(2)
C26 C -0.0604(15) 0.2146(10) -0.4361(2)
H18 H 0.07880 0.27430 -0.43660
C27 C -0.1770(19) 0.1864(11) -0.4615(2)
H19 H -0.11350 0.22190 -0.47960
C28 C -0.3904(18) 0.1052(10) -0.4613(2)
H20 H -0.47160 0.09010 -0.47890
C29 C -0.4789(18) 0.0478(10) -0.4347(2)
H21 H -0.62140 -0.00670 -0.43450
C30 C -0.3661(16) 0.0679(12) -0.4089(2)
H22 H -0.42960 0.02570 -0.39130
loop_
_geom_bond_atom_site_label_1
_geom_bond_atom_site_label_2
_geom_bond_distance
_geom_bond_site_symmetry_1
_geom_bond_site_symmetry_2
C1 C2 1.337 1_555 1_555
C2 H1 0.930 1_555 1_555
C3 C2 1.412 1_555 1_555
C4 C3 1.447 1_555 1_555
C5 C4 1.410 1_555 1_555
H2 C5 0.930 1_555 1_555
C6 C1 1.450 1_555 1_555
H3 C6 0.930 1_555 1_555
C7 C3 1.396 1_555 1_555
H4 C7 0.930 1_555 1_555
C8 C7 1.392 1_555 1_555
C9 C8 1.435 1_555 1_555
C10 C4 1.392 1_555 1_555
H5 C10 0.931 1_555 1_555
C11 C8 1.430 1_555 1_555
H6 C11 0.930 1_555 1_555
C12 C11 1.357 1_555 1_555
H7 C12 0.932 1_555 1_555
C13 C12 1.412 1_555 1_555
C14 C9 1.394 1_555 1_555
H8 C14 0.930 1_555 1_555
C15 C1 1.440 1_555 1_555
H9 C15 0.930 1_555 1_555
C16 C15 1.329 1_555 1_555
H10 C16 0.931 1_555 1_555
C17 C16 1.474 1_555 1_555
C18 C17 1.380 1_555 1_555
H11 C18 0.930 1_555 1_555
C19 C18 1.386 1_555 1_555
H12 C19 0.931 1_555 1_555
C20 C19 1.389 1_555 1_555
H13 C20 0.927 1_555 1_555
C21 C20 1.375 1_555 1_555
H14 C21 0.927 1_555 1_555
C22 C17 1.364 1_555 1_555
H15 C22 0.930 1_555 1_555
C23 C13 1.435 1_555 1_555
H16 C23 0.931 1_555 1_555
C24 C23 1.297 1_555 1_555
H17 C24 0.930 1_555 1_555
C25 C24 1.455 1_555 1_555
C26 C25 1.418 1_555 1_555
H18 C26 0.930 1_555 1_555
C27 C26 1.348 1_555 1_555
H19 C27 0.932 1_555 1_555
C28 C27 1.391 1_555 1_555
H20 C28 0.931 1_555 1_555
C29 C28 1.370 1_555 1_555
H21 C29 0.930 1_555 1_555
C30 C25 1.417 1_555 1_555
H22 C30 0.928 1_555 1_555
C5 C6 1.348 1_555 1_555
C9 C10 1.380 1_555 1_555
C13 C14 1.393 1_555 1_555
C21 C22 1.379 1_555 1_555
C29 C30 1.344 1_555 1_555
#END
