
#######################################################################
#
#                 Cambridge Crystallographic Data Centre
#                                CCDC
#
#######################################################################
#
# If this CIF has been generated from an entry in the Cambridge
# Structural Database, then it will include bibliographic, chemical,
# crystal, experimental, refinement or atomic coordinate data resulting
# from the CCDC's data processing and validation procedures.
#
#######################################################################

data_CSD_CIF_TAVHEE02
_audit_creation_date 2012-05-22
_audit_creation_method CSD-ConQuest-V1
_database_code_CSD TAVHEE02
_database_code_depnum_ccdc_archive 'CCDC 831828'
_chemical_formula_sum 'C21 H12'
_chemical_formula_moiety
;
C21 H12
;
_journal_coden_Cambridge 177
_journal_volume 10
_journal_year 2012
_journal_page_first 2218
_journal_name_full 'Org.Biomol.Chem. '
loop_
_publ_author_name
"S.Mebs"
"M.Weber"
"P.Luger"
"B.M.Schmidt"
"H.Sakurai"
"S.Higashibayashi"
"S.Onogi"
"D.Lentz"
_chemical_name_systematic
;
4,7-Dihydro-1H-tricyclopenta[def,jkl,pqr]triphenylene
;
_chemical_name_common
;
sumanene
;
_cell_volume   1803.454
_exptl_crystal_colour 'colorless'
_exptl_crystal_density_diffrn 1.46
_exptl_crystal_description 'prism'
_diffrn_ambient_temperature 100
_refine_special_details
;
multipole refinement

;
#These two values have been output from a single CSD field.
_refine_ls_R_factor_gt 0.022
_refine_ls_wR_factor_gt 0.022
_symmetry_cell_setting rhombohedral
_symmetry_space_group_name_H-M 'R 3 c'
_symmetry_Int_Tables_number 161
loop_
_symmetry_equiv_pos_site_id
_symmetry_equiv_pos_as_xyz
1 x,y,z
2 -y,x-y,z
3 -x+y,-x,z
4 -y,-x,1/2+z
5 -x+y,y,1/2+z
6 x,x-y,1/2+z
7 1/3+x,2/3+y,2/3+z
8 1/3-y,2/3+x-y,2/3+z
9 1/3-x+y,2/3-x,2/3+z
10 1/3-y,2/3-x,1/6+z
11 1/3-x+y,2/3+y,1/6+z
12 1/3+x,2/3+x-y,1/6+z
13 2/3+x,1/3+y,1/3+z
14 2/3-y,1/3+x-y,1/3+z
15 2/3-x+y,1/3-x,1/3+z
16 2/3-y,1/3-x,5/6+z
17 2/3-x+y,1/3+y,5/6+z
18 2/3+x,1/3+x-y,5/6+z
_cell_length_a 16.5754(5)
_cell_length_b 16.5754(5)
_cell_length_c 7.5796(5)
_cell_angle_alpha 90
_cell_angle_beta 90
_cell_angle_gamma 120
_cell_formula_units_Z 6
loop_
_atom_type_symbol
_atom_type_radius_bond
C 0.68
H 0.23
loop_
_atom_site_label
_atom_site_type_symbol
_atom_site_fract_x
_atom_site_fract_y
_atom_site_fract_z
C1 C 0.04619(1) 0.94824(1) 0.21787
C2 C 0.09778(1) 1.04450(1) 0.21792(3)
C3 C 0.18455(1) 1.09340(1) 0.13581(4)
C4 C 0.22166(1) 1.03979(1) 0.07079(4)
C5 C 0.16837(1) 0.94019(1) 0.07105(4)
C6 C 0.07721(1) 0.89316(1) 0.13649(4)
C7 C -0.00982(1) 0.79730(1) 0.09838(4)
H1 H 0.29203 1.07436 0.01928
H2 H 0.19905 0.90061 0.01991
H3 H -0.01076 0.77624 -0.03846
H4 H -0.01263 0.74360 0.18584
C1A C 0.05176(1) 1.09795(1) 0.21787
C1B C -0.09795(1) 0.95381(1) 0.21787
C2A C -0.04450(1) 1.05328(1) 0.21792(3)
C2B C -0.05328(1) 0.90222(1) 0.21792(3)
C3A C -0.09340(1) 1.09115(1) 0.13581(4)
C3B C -0.09115(1) 0.81545(1) 0.13581(4)
C4A C -0.03979(1) 1.18187(1) 0.07079(4)
C4B C -0.18187(1) 0.77834(1) 0.07079(4)
C5A C 0.05981(1) 1.22818(1) 0.07105(4)
C5B C -0.22818(1) 0.83163(1) 0.07105(4)
C6A C 0.10684(1) 1.18405(1) 0.13649(4)
C6B C -0.18405(1) 0.92279(1) 0.13649(4)
C7A C 0.20270(1) 1.19288(1) 0.09838(4)
C7B C -0.19288(1) 1.00982(1) 0.09838(4)
H1A H -0.07436 1.21767 0.01928
H1B H -0.21767 0.70797 0.01928
H2A H 0.09939 1.29844 0.01991
H2B H -0.29844 0.80095 0.01991
H3A H 0.22376 1.21300 -0.03846
H3B H -0.21300 1.01076 -0.03846
H4A H 0.25640 1.24377 0.18584
H4B H -0.24377 1.01263 0.18584
loop_
_geom_bond_atom_site_label_1
_geom_bond_atom_site_label_2
_geom_bond_distance
_geom_bond_site_symmetry_1
_geom_bond_site_symmetry_2
C1 C2 1.383 1_555 1_555
C2 C3 1.395 1_555 1_555
C3 C4 1.399 1_555 1_555
C4 C5 1.431 1_555 1_555
C5 C6 1.400 1_555 1_555
C6 C1 1.396 1_555 1_555
C7 C6 1.548 1_555 1_555
H1 C4 1.083 1_555 1_555
H2 C5 1.083 1_555 1_555
H3 C7 1.092 1_555 1_555
H4 C7 1.092 1_555 1_555
C1A C2 1.429 1_555 1_555
C1B C2A 1.429 1_555 1_555
C2A C1A 1.383 1_555 1_555
C2B C1 1.429 1_555 1_555
C3A C2A 1.395 1_555 1_555
C3B C7 1.547 1_555 1_555
C4A C3A 1.399 1_555 1_555
C4B C3B 1.399 1_555 1_555
C5A C4A 1.431 1_555 1_555
C5B C4B 1.431 1_555 1_555
C6A C1A 1.396 1_555 1_555
C6B C1B 1.396 1_555 1_555
C7A C3 1.547 1_555 1_555
C7B C3A 1.547 1_555 1_555
H1A C4A 1.083 1_555 1_555
H1B C4B 1.083 1_555 1_555
H2A C5A 1.083 1_555 1_555
H2B C5B 1.083 1_555 1_555
H3A C7A 1.092 1_555 1_555
H3B C7B 1.092 1_555 1_555
H4A C7A 1.092 1_555 1_555
H4B C7B 1.092 1_555 1_555
C1B C2B 1.383 1_555 1_555
C2B C3B 1.395 1_555 1_555
C5A C6A 1.400 1_555 1_555
C5B C6B 1.400 1_555 1_555
C6A C7A 1.548 1_555 1_555
C6B C7B 1.548 1_555 1_555
#END
