
#######################################################################
#
#                 Cambridge Crystallographic Data Centre
#                                CCDC
#
#######################################################################
#
# If this CIF has been generated from an entry in the Cambridge
# Structural Database, then it will include bibliographic, chemical,
# crystal, experimental, refinement or atomic coordinate data resulting
# from the CCDC's data processing and validation procedures.
#
#######################################################################

data_CSD_CIF_TEBNAP11
_audit_creation_date 2014-05-21
_audit_creation_method CSD-ConQuest-V1
_database_code_CSD TEBNAP11
_database_code_depnum_ccdc_archive 'CCDC 1004381'
_chemical_formula_sum 'C26 H16'
_chemical_formula_moiety
;
C26 H16
;
_journal_coden_Cambridge 920
_journal_volume 9
_journal_year 2014
_journal_page_first 1623
_journal_name_full 'Chem.Asian J. '
loop_
_publ_author_name
"Y.Ueda"
"H.Tsuji"
"H.Tanaka"
"E.Nakamura"
_chemical_name_systematic
;
dibenzo[g,p]chrysene
;
_chemical_melting_point 489
_cell_volume   1616.338
_exptl_crystal_density_diffrn 1.349
_exptl_crystal_description 'block'
_diffrn_ambient_temperature 296
#These two values have been output from a single CSD field.
_refine_ls_R_factor_gt 0.0512
_refine_ls_wR_factor_gt 0.0512
_symmetry_cell_setting monoclinic
_symmetry_space_group_name_H-M 'P 21/n'
_symmetry_Int_Tables_number 14
loop_
_symmetry_equiv_pos_site_id
_symmetry_equiv_pos_as_xyz
1 x,y,z
2 1/2-x,1/2+y,1/2-z
3 -x,-y,-z
4 -1/2+x,-1/2-y,-1/2+z
_cell_length_a 12.1629(2)
_cell_length_b 7.5896(1)
_cell_length_c 17.6638(3)
_cell_angle_alpha 90
_cell_angle_beta 97.5762(11)
_cell_angle_gamma 90
_cell_formula_units_Z 4
loop_
_atom_type_symbol
_atom_type_radius_bond
C 0.68
H 0.23
loop_
_atom_site_label
_atom_site_type_symbol
_atom_site_fract_x
_atom_site_fract_y
_atom_site_fract_z
C1 C 0.30185(14) 0.1629(2) 0.17265(11)
C2 C 0.14622(15) 0.1753(3) 0.34685(11)
C3 C 0.28321(14) 0.1373(2) 0.24916(11)
C4 C 0.08204(15) 0.1227(2) 0.21157(11)
C5 C 0.37390(14) 0.0844(2) 0.30256(11)
H1 H 0.36290 0.06220 0.35280
C6 C 0.17054(14) 0.1437(2) 0.26900(11)
C7 C -0.02380(14) 0.0592(2) 0.23231(12)
C8 C -0.04440(15) 0.0647(3) 0.30886(12)
C9 C 0.20742(14) 0.2022(2) 0.11535(11)
C10 C 0.47787(14) 0.0653(2) 0.28171(11)
H2 H 0.53640 0.03050 0.31790
C11 C 0.49680(14) 0.0976(3) 0.20693(11)
H3 H 0.56790 0.08800 0.19340
C12 C 0.09910(14) 0.1721(2) 0.13343(11)
C13 C 0.22421(15) 0.2613(3) 0.40083(11)
H4 H 0.29370 0.28960 0.38780
C14 C 0.03960(16) 0.1421(3) 0.36636(12)
C15 C -0.14379(16) -0.0074(3) 0.32850(13)
H5 H -0.15790 -0.00250 0.37890
C16 C -0.19884(15) -0.0960(3) 0.19917(14)
H6 H -0.24980 -0.15030 0.16260
C17 C 0.40949(14) 0.1435(3) 0.15363(11)
H7 H 0.42190 0.16240 0.10340
C18 C -0.10212(15) -0.0266(3) 0.17861(13)
H8 H -0.08820 -0.03660 0.12830
C19 C -0.22019(15) -0.0850(3) 0.27420(14)
H9 H -0.28600 -0.12990 0.28780
C20 C 0.00943(15) 0.2180(3) 0.07757(11)
H10 H -0.06270 0.20420 0.08880
C21 C 0.02580(17) 0.2820(3) 0.00755(12)
H11 H -0.03490 0.30770 -0.02850
C22 C 0.19902(16) 0.3041(3) 0.47240(11)
H12 H 0.25190 0.35880 0.50750
C23 C 0.22169(17) 0.2708(3) 0.04368(11)
H13 H 0.29310 0.29110 0.03220
C24 C 0.01655(18) 0.1878(3) 0.44005(13)
H14 H -0.05340 0.16460 0.45360
C25 C 0.09523(18) 0.2657(3) 0.49217(13)
H15 H 0.07890 0.29270 0.54080
C26 C 0.13242(17) 0.3089(3) -0.01002(12)
H16 H 0.14340 0.35220 -0.05770
loop_
_geom_bond_atom_site_label_1
_geom_bond_atom_site_label_2
_geom_bond_distance
_geom_bond_site_symmetry_1
_geom_bond_site_symmetry_2
C1 C3 1.413 1_555 1_555
C2 C6 1.464 1_555 1_555
C3 C5 1.412 1_555 1_555
C4 C6 1.388 1_555 1_555
C5 H1 0.930 1_555 1_555
C6 C3 1.459 1_555 1_555
C7 C4 1.466 1_555 1_555
C8 C7 1.408 1_555 1_555
C9 C1 1.458 1_555 1_555
C10 C5 1.371 1_555 1_555
H2 C10 0.930 1_555 1_555
C11 C10 1.392 1_555 1_555
H3 C11 0.930 1_555 1_555
C12 C4 1.471 1_555 1_555
C13 C2 1.413 1_555 1_555
H4 C13 0.930 1_555 1_555
C14 C2 1.408 1_555 1_555
C15 C8 1.411 1_555 1_555
H5 C15 0.929 1_555 1_555
C16 H6 0.930 1_555 1_555
C17 C1 1.402 1_555 1_555
H7 C17 0.931 1_555 1_555
C18 C7 1.412 1_555 1_555
H8 C18 0.929 1_555 1_555
C19 C15 1.377 1_555 1_555
H9 C19 0.930 1_555 1_555
C20 C12 1.414 1_555 1_555
H10 C20 0.931 1_555 1_555
C21 C20 1.368 1_555 1_555
H11 C21 0.930 1_555 1_555
C22 C13 1.378 1_555 1_555
H12 C22 0.930 1_555 1_555
C23 C9 1.401 1_555 1_555
H13 C23 0.930 1_555 1_555
C24 C14 1.410 1_555 1_555
H14 C24 0.931 1_555 1_555
C25 C22 1.384 1_555 1_555
H15 C25 0.930 1_555 1_555
C26 C21 1.388 1_555 1_555
H16 C26 0.930 1_555 1_555
C8 C14 1.465 1_555 1_555
C9 C12 1.415 1_555 1_555
C11 C17 1.368 1_555 1_555
C16 C18 1.381 1_555 1_555
C16 C19 1.386 1_555 1_555
C23 C26 1.375 1_555 1_555
C24 C25 1.371 1_555 1_555
#END
