
#######################################################################
#
#                 Cambridge Crystallographic Data Centre
#                                CCDC
#
#######################################################################
#
# If this CIF has been generated from an entry in the Cambridge
# Structural Database, then it will include bibliographic, chemical,
# crystal, experimental, refinement or atomic coordinate data resulting
# from the CCDC's data processing and validation procedures.
#
#######################################################################

data_CSD_CIF_TESGIK
_audit_creation_date 2017-12-13
_audit_creation_method CSD-ConQuest-V1
_database_code_CSD TESGIK
_database_code_depnum_ccdc_archive 'CCDC 1556051'
_chemical_formula_sum 'C37 H24'
_chemical_formula_moiety
;
C37 H24
;
_journal_coden_Cambridge 1291
_journal_year 2017
_journal_page_first 6747
_journal_name_full 'Eur.J.Org.Chem. '
loop_
_publ_author_name
"J.Karunakaran"
"A.K.Mohanakrishnan"
_chemical_name_systematic
;
7-(4-methylphenyl)-12-(naphthalen-1-yl)benzo[k]fluoranthene
;
_cell_volume   2447.615
_exptl_crystal_density_diffrn 1.272
_diffrn_ambient_temperature 296
#These two values have been output from a single CSD field.
_refine_ls_R_factor_gt 0.0795
_refine_ls_wR_factor_gt 0.0795
_symmetry_cell_setting monoclinic
_symmetry_space_group_name_H-M 'P 21/c'
_symmetry_Int_Tables_number 14
loop_
_symmetry_equiv_pos_site_id
_symmetry_equiv_pos_as_xyz
1 x,y,z
2 -x,1/2+y,1/2-z
3 -x,-y,-z
4 x,-1/2-y,-1/2+z
_cell_length_a 12.6805(17)
_cell_length_b 16.0079(17)
_cell_length_c 12.9671(17)
_cell_angle_alpha 90
_cell_angle_beta 111.583(5)
_cell_angle_gamma 90
_cell_formula_units_Z 4
loop_
_atom_type_symbol
_atom_type_radius_bond
C 0.68
H 0.23
loop_
_atom_site_label
_atom_site_type_symbol
_atom_site_fract_x
_atom_site_fract_y
_atom_site_fract_z
C1 C 1.3892(5) 0.1574(4) -0.0741(6)
H1 H 1.40035 0.20173 -0.11892
H2 H 1.37816 0.10571 -0.11430
H3 H 1.45462 0.15294 -0.00691
C2 C 1.2859(4) 0.1759(3) -0.0463(5)
C3 C 1.2927(4) 0.1872(3) 0.0610(4)
H4 H 1.36302 0.18260 0.11836
C4 C 1.1989(4) 0.2050(3) 0.0864(4)
H5 H 1.20686 0.21256 0.16000
C5 C 1.0932(3) 0.2117(2) 0.0036(3)
C6 C 1.0859(4) 0.1988(3) -0.1040(4)
H6 H 1.01551 0.20197 -0.16147
C7 C 1.1804(5) 0.1815(3) -0.1277(4)
H7 H 1.17255 0.17324 -0.20112
C8 C 0.9926(3) 0.2347(2) 0.0302(3)
C9 C 0.9851(3) 0.3123(2) 0.0714(3)
C10 C 1.0605(3) 0.3854(2) 0.0925(3)
C11 C 1.1587(4) 0.4051(3) 0.0793(4)
H8 H 1.19287 0.36698 0.04719
C12 C 1.2086(4) 0.4840(3) 0.1147(4)
H9 H 1.27687 0.49666 0.10692
C13 C 1.1600(4) 0.5421(3) 0.1599(4)
H10 H 1.19558 0.59335 0.18232
C14 C 1.0581(4) 0.5257(3) 0.1729(4)
C15 C 0.9946(4) 0.5793(3) 0.2152(4)
H11 H 1.02162 0.63263 0.23907
C16 C 0.8963(4) 0.5543(3) 0.2213(4)
H12 H 0.85706 0.59114 0.24953
C17 C 0.8497(4) 0.4744(3) 0.1867(4)
H13 H 0.78163 0.45869 0.19277
C18 C 0.9066(4) 0.4211(2) 0.1445(3)
C19 C 1.0095(4) 0.4464(3) 0.1374(3)
C20 C 0.8894(3) 0.3348(2) 0.1007(3)
C21 C 0.8023(3) 0.2800(2) 0.0881(3)
C22 C 0.8097(3) 0.1979(2) 0.0465(3)
C23 C 0.7257(4) 0.1376(3) 0.0364(4)
H14 H 0.66437 0.15152 0.05606
C24 C 0.7327(4) 0.0594(3) -0.0015(5)
H15 H 0.67630 0.02042 -0.00761
C25 C 0.8239(4) 0.0377(3) -0.0311(4)
H16 H 0.82801 -0.01587 -0.05723
C26 C 0.9069(4) 0.0938(3) -0.0221(4)
H17 H 0.96690 0.07833 -0.04306
C27 C 0.9039(3) 0.1757(2) 0.0186(3)
C28 C 0.6998(4) 0.3054(2) 0.1103(4)
C29 C 0.6928(4) 0.2971(3) 0.2113(4)
H18 H 0.75343 0.27405 0.26914
C30 C 0.5959(5) 0.3225(3) 0.2302(5)
H19 H 0.59260 0.31603 0.30020
C31 C 0.5069(4) 0.3565(3) 0.1472(4)
H20 H 0.44301 0.37312 0.16099
C32 C 0.5097(4) 0.3670(3) 0.0417(4)
C33 C 0.4205(4) 0.4021(3) -0.0452(5)
H21 H 0.35559 0.41852 -0.03331
C34 C 0.4254(4) 0.4130(3) -0.1473(5)
H22 H 0.36428 0.43672 -0.20391
C35 C 0.5208(4) 0.3891(3) -0.1675(4)
H23 H 0.52444 0.39706 -0.23709
C36 C 0.6093(4) 0.3536(3) -0.0843(4)
H24 H 0.67292 0.33698 -0.09847
C37 C 0.6072(3) 0.3414(2) 0.0227(4)
loop_
_geom_bond_atom_site_label_1
_geom_bond_atom_site_label_2
_geom_bond_distance
_geom_bond_site_symmetry_1
_geom_bond_site_symmetry_2
C1 H1 0.960 1_555 1_555
H2 C1 0.960 1_555 1_555
H3 C1 0.960 1_555 1_555
C2 C1 1.510 1_555 1_555
C3 C2 1.374 1_555 1_555
H4 C3 0.931 1_555 1_555
C4 C3 1.376 1_555 1_555
H5 C4 0.930 1_555 1_555
C5 C4 1.379 1_555 1_555
C6 C5 1.379 1_555 1_555
H6 C6 0.930 1_555 1_555
C7 C2 1.369 1_555 1_555
H7 C7 0.930 1_555 1_555
C8 C5 1.485 1_555 1_555
C9 C8 1.369 1_555 1_555
C10 C9 1.472 1_555 1_555
C11 C10 1.355 1_555 1_555
H8 C11 0.931 1_555 1_555
C12 C11 1.412 1_555 1_555
H9 C12 0.930 1_555 1_555
C13 C12 1.362 1_555 1_555
H10 C13 0.930 1_555 1_555
C14 C13 1.388 1_555 1_555
C15 C14 1.418 1_555 1_555
H11 C15 0.930 1_555 1_555
C16 C15 1.339 1_555 1_555
H12 C16 0.929 1_555 1_555
C17 C16 1.411 1_555 1_555
H13 C17 0.930 1_555 1_555
C18 C17 1.356 1_555 1_555
C19 C10 1.410 1_555 1_555
C20 C9 1.444 1_555 1_555
C21 C20 1.372 1_555 1_555
C22 C21 1.437 1_555 1_555
C23 C22 1.407 1_555 1_555
H14 C23 0.930 1_555 1_555
C24 C23 1.360 1_555 1_555
H15 C24 0.930 1_555 1_555
C25 C24 1.390 1_555 1_555
H16 C25 0.931 1_555 1_555
C26 C25 1.356 1_555 1_555
H17 C26 0.931 1_555 1_555
C27 C8 1.434 1_555 1_555
C28 C21 1.488 1_555 1_555
C29 C28 1.351 1_555 1_555
H18 C29 0.930 1_555 1_555
C30 C29 1.399 1_555 1_555
H19 C30 0.930 1_555 1_555
C31 C30 1.354 1_555 1_555
H20 C31 0.930 1_555 1_555
C32 C31 1.392 1_555 1_555
C33 C32 1.388 1_555 1_555
H21 C33 0.929 1_555 1_555
C34 C33 1.359 1_555 1_555
H22 C34 0.930 1_555 1_555
C35 C34 1.383 1_555 1_555
H23 C35 0.929 1_555 1_555
C36 C35 1.362 1_555 1_555
H24 C36 0.930 1_555 1_555
C37 C28 1.421 1_555 1_555
C6 C7 1.370 1_555 1_555
C14 C19 1.412 1_555 1_555
C18 C19 1.401 1_555 1_555
C18 C20 1.479 1_555 1_555
C22 C27 1.415 1_555 1_555
C26 C27 1.419 1_555 1_555
C32 C37 1.408 1_555 1_555
C36 C37 1.411 1_555 1_555
#END
