
#######################################################################
#
#                 Cambridge Crystallographic Data Centre
#                                CCDC
#
#######################################################################
#
# If this CIF has been generated from an entry in the Cambridge
# Structural Database, then it will include bibliographic, chemical,
# crystal, experimental, refinement or atomic coordinate data resulting
# from the CCDC's data processing and validation procedures.
#
#######################################################################

data_CSD_CIF_TEXGOV
_audit_creation_date 2018-05-02
_audit_creation_method CSD-ConQuest-V1
_database_code_CSD TEXGOV
_database_code_depnum_ccdc_archive 'CCDC 1579021'
_chemical_formula_sum 'C28 H20'
_chemical_formula_moiety
;
C28 H20
;
_journal_coden_Cambridge 1475
_journal_volume 9
_journal_year 2018
_journal_page_first 4662
_journal_name_full 'Chemical Science '
loop_
_publ_author_name
"Yuanjing Cai"
"Lili Du"
"K.Samedov"
"Xinggui Gu"
"Fei Qi"
"H.H.Y.Sung"
"B.O.Patrick"
"Zhiping Yan"
"Xiaofang Jiang"
"Haoke Zhang"
"J.W.Y.Lam"
"I.D.Williams"
"D.L.Phillips"
"Anjun Qin"
"Ben Zhong Tang"
_chemical_name_systematic
;
14-phenyl-8,9-dihydrobenzo[4,5]cyclohepta[1,2,3-jk]phenanthrene
;
_cell_volume   1814.321
_exptl_crystal_colour 'colorless'
_exptl_crystal_density_diffrn 1.305
_exptl_crystal_description 'plate'
_diffrn_ambient_temperature 100
#These two values have been output from a single CSD field.
_refine_ls_R_factor_gt 0.0285
_refine_ls_wR_factor_gt 0.0285
_symmetry_cell_setting orthorhombic
_symmetry_space_group_name_H-M 'P 21 21 21'
_symmetry_Int_Tables_number 19
loop_
_symmetry_equiv_pos_site_id
_symmetry_equiv_pos_as_xyz
1 x,y,z
2 1/2-x,-y,1/2+z
3 1/2+x,1/2-y,-z
4 -x,1/2+y,1/2-z
_cell_length_a 8.34750(16)
_cell_length_b 10.3140(2)
_cell_length_c 21.0732(4)
_cell_angle_alpha 90
_cell_angle_beta 90
_cell_angle_gamma 90
_cell_formula_units_Z 4
loop_
_atom_type_symbol
_atom_type_radius_bond
C 0.68
H 0.23
loop_
_atom_site_label
_atom_site_type_symbol
_atom_site_fract_x
_atom_site_fract_y
_atom_site_fract_z
C1 C 0.3952(2) 0.48254(16) 0.43282(8)
C2 C 0.5454(2) 0.52165(17) 0.41377(9)
C3 C 0.6657(2) 0.55864(16) 0.45980(9)
C4 C 0.8267(2) 0.58295(18) 0.44195(9)
H1 H 0.85870 0.56880 0.39930
C5 C 0.9370(2) 0.62652(18) 0.48528(9)
H2 H 1.04440 0.64210 0.47260
C6 C 0.8908(2) 0.64780(18) 0.54798(10)
H3 H 0.96610 0.68030 0.57780
C7 C 0.7367(2) 0.62182(17) 0.56673(9)
H4 H 0.70740 0.63580 0.60980
C8 C 0.6207(2) 0.57496(17) 0.52391(9)
C9 C 0.4616(2) 0.53416(17) 0.54451(9)
C10 C 0.4138(2) 0.54908(18) 0.60815(9)
H5 H 0.47840 0.59860 0.63630
C11 C 0.2755(2) 0.4934(2) 0.63022(9)
H6 H 0.24080 0.50770 0.67260
C12 C 0.1866(2) 0.4151(2) 0.58915(9)
H7 H 0.09670 0.36950 0.60550
C13 C 0.2240(2) 0.40120(17) 0.52577(9)
C14 C 0.3583(2) 0.47024(17) 0.50076(9)
C15 C 0.1231(2) 0.30191(19) 0.49061(10)
H8 H 0.01550 0.33970 0.48360
H9 H 0.10950 0.22550 0.51850
C16 C 0.1870(2) 0.25472(18) 0.42669(9)
H10 H 0.30150 0.23080 0.43070
H11 H 0.12670 0.17720 0.41270
C17 C 0.2636(2) 0.47223(17) 0.38474(8)
C18 C 0.1682(2) 0.36166(18) 0.37906(9)
C19 C 0.0477(2) 0.35705(19) 0.33317(9)
H12 H -0.01710 0.28170 0.32960
C20 C 0.0212(2) 0.4609(2) 0.29272(10)
H13 H -0.05940 0.45610 0.26100
C21 C 0.1135(2) 0.5718(2) 0.29907(9)
H14 H 0.09450 0.64420 0.27230
C22 C 0.2334(2) 0.57706(19) 0.34450(9)
H15 H 0.29620 0.65350 0.34840
C23 C 0.5863(2) 0.53137(17) 0.34484(9)
C24 C 0.5679(2) 0.42551(19) 0.30429(9)
H16 H 0.53430 0.34450 0.32110
C25 C 0.5981(2) 0.4367(2) 0.23957(9)
H17 H 0.58430 0.36380 0.21260
C26 C 0.6486(2) 0.5544(2) 0.21447(9)
H18 H 0.66730 0.56280 0.17020
C27 C 0.6715(2) 0.65996(19) 0.25453(10)
H19 H 0.70780 0.74020 0.23770
C28 C 0.6413(2) 0.64813(19) 0.31908(9)
H20 H 0.65830 0.72050 0.34620
loop_
_geom_bond_atom_site_label_1
_geom_bond_atom_site_label_2
_geom_bond_distance
_geom_bond_site_symmetry_1
_geom_bond_site_symmetry_2
C1 C2 1.377 1_555 1_555
C2 C3 1.447 1_555 1_555
C3 C4 1.418 1_555 1_555
C4 H1 0.949 1_555 1_555
C5 C4 1.372 1_555 1_555
H2 C5 0.949 1_555 1_555
C6 C5 1.394 1_555 1_555
H3 C6 0.950 1_555 1_555
C7 C6 1.372 1_555 1_555
H4 C7 0.951 1_555 1_555
C8 C3 1.412 1_555 1_555
C9 C8 1.459 1_555 1_555
C10 C9 1.408 1_555 1_555
H5 C10 0.951 1_555 1_555
C11 C10 1.371 1_555 1_555
H6 C11 0.950 1_555 1_555
C12 C11 1.397 1_555 1_555
H7 C12 0.950 1_555 1_555
C13 C12 1.379 1_555 1_555
C14 C1 1.470 1_555 1_555
C15 C13 1.519 1_555 1_555
H8 C15 0.990 1_555 1_555
H9 C15 0.990 1_555 1_555
C16 C15 1.528 1_555 1_555
H10 C16 0.991 1_555 1_555
H11 C16 0.990 1_555 1_555
C17 C1 1.498 1_555 1_555
C18 C16 1.500 1_555 1_555
C19 C18 1.396 1_555 1_555
H12 C19 0.950 1_555 1_555
C20 C19 1.387 1_555 1_555
H13 C20 0.950 1_555 1_555
C21 C20 1.386 1_555 1_555
H14 C21 0.949 1_555 1_555
C22 C17 1.397 1_555 1_555
H15 C22 0.950 1_555 1_555
C23 C2 1.496 1_555 1_555
C24 C23 1.395 1_555 1_555
H16 C24 0.950 1_555 1_555
C25 C24 1.392 1_555 1_555
H17 C25 0.950 1_555 1_555
C26 C25 1.390 1_555 1_555
H18 C26 0.950 1_555 1_555
C27 C26 1.391 1_555 1_555
H19 C27 0.950 1_555 1_555
C28 C23 1.398 1_555 1_555
H20 C28 0.951 1_555 1_555
C7 C8 1.409 1_555 1_555
C9 C14 1.424 1_555 1_555
C13 C14 1.429 1_555 1_555
C17 C18 1.396 1_555 1_555
C21 C22 1.386 1_555 1_555
C27 C28 1.389 1_555 1_555
#END
