
#######################################################################
#
#                 Cambridge Crystallographic Data Centre
#                                CCDC
#
#######################################################################
#
# If this CIF has been generated from an entry in the Cambridge
# Structural Database, then it will include bibliographic, chemical,
# crystal, experimental, refinement or atomic coordinate data resulting
# from the CCDC's data processing and validation procedures.
#
#######################################################################

data_CSD_CIF_VEPHEE
_audit_creation_date 2006-12-04
_audit_creation_method CSD-ConQuest-V1
_database_code_CSD VEPHEE
_database_code_depnum_ccdc_archive 'CCDC 621869'
_chemical_formula_sum 'C40 H42'
_chemical_formula_moiety
;
C40 H42
;
_journal_coden_Cambridge 4
_journal_volume 128
_journal_year 2006
_journal_page_first 9304
_journal_name_full 'J.Am.Chem.Soc. '
loop_
_publ_author_name
"Hong Meng"
"Fangping Sun"
"M.B.Goldfinger"
"Feng Gao"
"D.J.Londono"
"W.J.Marshal"
"G.S.Blackman"
"K.D.Dobbs"
"D.E.Keys"
_chemical_name_systematic
;
2,6-bis(2-(4-n-Pentylphenyl)vinyl)anthracene
;
_chemical_melting_point 591.15
_cell_volume   2859.887
_exptl_crystal_colour 'gold'
_exptl_crystal_density_diffrn 1.214
_exptl_crystal_description 'plate'
_diffrn_ambient_temperature 293
#These two values have been output from a single CSD field.
_refine_ls_R_factor_gt 0.1048
_refine_ls_wR_factor_gt 0.1048
_symmetry_cell_setting monoclinic
_symmetry_space_group_name_H-M 'C 2/c'
_symmetry_Int_Tables_number 15
loop_
_symmetry_equiv_pos_site_id
_symmetry_equiv_pos_as_xyz
1 x,y,z
2 1/2+x,1/2+y,z
3 -x,y,1/2-z
4 1/2-x,1/2+y,1/2-z
5 -x,-y,-z
6 -1/2-x,-1/2-y,-z
7 x,-y,-1/2+z
8 -1/2+x,-1/2-y,-1/2+z
_cell_length_a 67.66(6)
_cell_length_b 7.230(5)
_cell_length_c 5.848(5)
_cell_angle_alpha 90
_cell_angle_beta 91.395(11)
_cell_angle_gamma 90
_cell_formula_units_Z 4
loop_
_atom_type_symbol
_atom_type_radius_bond
C 0.68
H 0.23
loop_
_atom_site_label
_atom_site_type_symbol
_atom_site_fract_x
_atom_site_fract_y
_atom_site_fract_z
C1 C 0.25108(12) 0.3320(9) 0.2888(12)
H1 H 0.25190 0.38520 0.14450
C2 C 0.23258(11) 0.2928(9) 0.3719(11)
C3 C 0.26838(10) 0.2960(9) 0.4097(12)
C4 C 0.28746(10) 0.3368(9) 0.3288(12)
H2 H 0.28860 0.38610 0.18280
C5 C 0.30378(11) 0.3069(9) 0.4548(12)
H3 H 0.31590 0.34020 0.39640
C6 C 0.30320(11) 0.2257(9) 0.6759(12)
C7 C 0.2148(1) 0.3260(9) 0.2470(12)
H4 H 0.21540 0.38550 0.10640
C8 C 0.32067(12) 0.2079(10) 0.8207(13)
H5 H 0.31960 0.13510 0.95080
C9 C 0.33810(11) 0.2847(10) 0.7872(13)
H6 H 0.33920 0.35610 0.65590
C10 C 0.35591(11) 0.2692(10) 0.9355(12)
C11 C 0.37363(11) 0.3291(10) 0.8576(12)
H7 H 0.37400 0.38640 0.71540
C12 C 0.39105(11) 0.3071(10) 0.9843(13)
H8 H 0.40290 0.35060 0.92660
C13 C 0.39106(11) 0.2212(10) 1.1951(13)
C14 C 0.37302(11) 0.1676(10) 1.2745(13)
H9 H 0.37250 0.11600 1.42000
C15 C 0.35561(11) 0.1859(10) 1.1505(13)
H10 H 0.34380 0.14340 1.20910
C16 C 0.40931(11) 0.1903(12) 1.3375(14)
H11 H 0.41100 0.05780 1.35480
H12 H 0.40690 0.23990 1.48850
C17 C 0.42824(11) 0.2667(12) 1.2611(15)
H13 H 0.43060 0.22240 1.10760
H14 H 0.42710 0.40040 1.25380
C18 C 0.44573(12) 0.2178(13) 1.4115(16)
H15 H 0.44690 0.08410 1.41550
H16 H 0.44300 0.25860 1.56570
C19 C 0.46492(14) 0.2941(15) 1.3479(18)
H17 H 0.46780 0.25250 1.19450
H18 H 0.46390 0.42780 1.34360
C20 C 0.48223(13) 0.2417(15) 1.5063(19)
H19 H 0.49410 0.29890 1.45360
H20 H 0.47970 0.28350 1.65860
H21 H 0.48380 0.10980 1.50670
C1E C 0.24892(12) 0.1680(9) 0.7112(12)
H1E H 0.24810 0.11480 0.85550
C2E C 0.26742(11) 0.2072(9) 0.6281(11)
C3E C 0.23162(10) 0.2040(9) 0.5903(12)
C4E C 0.21254(10) 0.1632(9) 0.6712(12)
H2E H 0.21140 0.11390 0.81720
C5E C 0.19622(11) 0.1931(9) 0.5452(12)
H3E H 0.18410 0.15980 0.60360
C6E C 0.19680(11) 0.2743(9) 0.3241(12)
C7E C 0.2852(1) 0.1740(9) 0.7530(12)
H4E H 0.28460 0.11450 0.89360
C8E C 0.17933(12) 0.2921(10) 0.1793(13)
H5E H 0.18040 0.36490 0.04920
C9E C 0.16190(11) 0.2153(10) 0.2128(13)
H6E H 0.16080 0.14390 0.34410
C10E C 0.14409(11) 0.2308(10) 0.0645(12)
C11E C 0.12637(11) 0.1709(10) 0.1424(12)
H7E H 0.12600 0.11360 0.28460
C12E C 0.10895(11) 0.1929(10) 0.0157(13)
H8E H 0.09710 0.14940 0.07340
C13E C 0.10894(11) 0.2788(10) -0.1951(13)
C14E C 0.12698(11) 0.3324(10) -0.2745(13)
H9E H 0.12750 0.38400 -0.42000
C15E C 0.14439(11) 0.3141(10) -0.1505(13)
H10E H 0.15620 0.35660 -0.20910
C16E C 0.09069(11) 0.3097(12) -0.3375(14)
H11E H 0.08900 0.44220 -0.35480
H12E H 0.09310 0.26010 -0.48850
C17E C 0.07176(11) 0.2333(12) -0.2611(15)
H13E H 0.06940 0.27760 -0.10760
H14E H 0.07290 0.09960 -0.25380
C18E C 0.05427(12) 0.2822(13) -0.4115(16)
H15E H 0.05310 0.41590 -0.41550
H16E H 0.05700 0.24140 -0.56570
C19E C 0.03508(14) 0.2059(15) -0.3479(18)
H17E H 0.03220 0.24750 -0.19450
H18E H 0.03610 0.07220 -0.34360
C20E C 0.01777(13) 0.2583(15) -0.5063(19)
H19E H 0.00590 0.20110 -0.45360
H20E H 0.02030 0.21650 -0.65860
H21E H 0.01620 0.39020 -0.50670
loop_
_geom_bond_atom_site_label_1
_geom_bond_atom_site_label_2
_geom_bond_distance
_geom_bond_site_symmetry_1
_geom_bond_site_symmetry_2
C1 H1 0.930 1_555 1_555
C2 C1 1.383 1_555 1_555
C3 C1 1.377 1_555 1_555
C4 C3 1.417 1_555 1_555
H2 C4 0.930 1_555 1_555
C5 C4 1.330 1_555 1_555
H3 C5 0.928 1_555 1_555
C6 C5 1.421 1_555 1_555
C7 C2 1.413 1_555 1_555
H4 C7 0.930 1_555 1_555
C8 C6 1.443 1_555 1_555
H5 C8 0.929 1_555 1_555
C9 C8 1.322 1_555 1_555
H6 C9 0.930 1_555 1_555
C10 C9 1.472 1_555 1_555
C11 C10 1.363 1_555 1_555
H7 C11 0.930 1_555 1_555
C12 C11 1.386 1_555 1_555
H8 C12 0.932 1_555 1_555
C13 C12 1.380 1_555 1_555
C14 C13 1.372 1_555 1_555
H9 C14 0.931 1_555 1_555
C15 C10 1.395 1_555 1_555
H10 C15 0.929 1_555 1_555
C16 C13 1.489 1_555 1_555
H11 C16 0.970 1_555 1_555
H12 C16 0.971 1_555 1_555
C17 C16 1.474 1_555 1_555
H13 C17 0.970 1_555 1_555
H14 C17 0.971 1_555 1_555
C18 C17 1.499 1_555 1_555
H15 C18 0.970 1_555 1_555
H16 C18 0.971 1_555 1_555
C19 C18 1.467 1_555 1_555
H17 C19 0.970 1_555 1_555
H18 C19 0.969 1_555 1_555
C20 C19 1.523 1_555 1_555
H19 C20 0.961 1_555 1_555
H20 C20 0.960 1_555 1_555
H21 C20 0.960 1_555 1_555
C1E H1E 0.930 1_555 1_555
C2E C3 1.432 1_555 1_555
C3E C2 1.432 1_555 1_555
C4E C3E 1.417 1_555 1_555
H2E C4E 0.930 1_555 1_555
C5E C4E 1.330 1_555 1_555
H3E C5E 0.928 1_555 1_555
C6E C7 1.361 1_555 1_555
C7E C6 1.361 1_555 1_555
H4E C7E 0.930 1_555 1_555
C8E C6E 1.443 1_555 1_555
H5E C8E 0.929 1_555 1_555
C9E C8E 1.322 1_555 1_555
H6E C9E 0.930 1_555 1_555
C10E C9E 1.472 1_555 1_555
C11E C10E 1.363 1_555 1_555
H7E C11E 0.930 1_555 1_555
C12E C11E 1.386 1_555 1_555
H8E C12E 0.932 1_555 1_555
C13E C12E 1.380 1_555 1_555
C14E C13E 1.372 1_555 1_555
H9E C14E 0.931 1_555 1_555
C15E C10E 1.395 1_555 1_555
H10E C15E 0.929 1_555 1_555
C16E C13E 1.489 1_555 1_555
H11E C16E 0.970 1_555 1_555
H12E C16E 0.971 1_555 1_555
C17E C16E 1.474 1_555 1_555
H13E C17E 0.970 1_555 1_555
H14E C17E 0.971 1_555 1_555
C18E C17E 1.499 1_555 1_555
H15E C18E 0.970 1_555 1_555
H16E C18E 0.971 1_555 1_555
C19E C18E 1.467 1_555 1_555
H17E C19E 0.970 1_555 1_555
H18E C19E 0.969 1_555 1_555
C20E C19E 1.523 1_555 1_555
H19E C20E 0.961 1_555 1_555
H20E C20E 0.960 1_555 1_555
H21E C20E 0.960 1_555 1_555
C14 C15 1.375 1_555 1_555
C1E C2E 1.383 1_555 1_555
C1E C3E 1.377 1_555 1_555
C2E C7E 1.413 1_555 1_555
C5E C6E 1.421 1_555 1_555
C14E C15E 1.375 1_555 1_555
#END
