
#######################################################################
#
#                 Cambridge Crystallographic Data Centre
#                                CCDC
#
#######################################################################
#
# If this CIF has been generated from an entry in the Cambridge
# Structural Database, then it will include bibliographic, chemical,
# crystal, experimental, refinement or atomic coordinate data resulting
# from the CCDC's data processing and validation procedures.
#
#######################################################################

data_CSD_CIF_VUFHEK
_audit_creation_date 2010-08-06
_audit_creation_method CSD-ConQuest-V1
_database_code_CSD VUFHEK
_database_code_depnum_ccdc_archive 'CCDC 747821'
_chemical_formula_sum 'C32 H14'
_chemical_formula_moiety
;
C32 H14
;
_journal_coden_Cambridge 4
_journal_volume 131
_journal_year 2009
_journal_page_first 10537
_journal_name_full 'J.Am.Chem.Soc. '
loop_
_publ_author_name
"B.D.Steinberg"
"E.A.Jackson"
"A.S.Filatov"
"A.Wakamiya"
"M.A.Petrukhina"
"L.T.Scott"
_chemical_name_systematic
;
Di-indeno(1,2,3-bc:1',2',3'-hi)corannulene
;
_chemical_name_common
;
14b,14c,14d,14f-Tetrahydrobenzo[e]indeno[1',2',3':5,6]acenaphtho[3,2,1,8-lmnoa
]acephenanthrylene
;
_cell_volume   1852.063
_exptl_crystal_colour 'yellow'
_exptl_crystal_description 'block'
_diffrn_ambient_temperature 193
#These two values have been output from a single CSD field.
_refine_ls_R_factor_gt 0.0381
_refine_ls_wR_factor_gt 0.0381
_symmetry_cell_setting orthorhombic
_symmetry_space_group_name_H-M 'C m c 21'
_symmetry_Int_Tables_number 36
loop_
_symmetry_equiv_pos_site_id
_symmetry_equiv_pos_as_xyz
1 x,y,z
2 -x,-y,1/2+z
3 x,-y,1/2+z
4 -x,y,z
5 1/2+x,1/2+y,z
6 1/2-x,1/2-y,1/2+z
7 1/2+x,1/2-y,1/2+z
8 1/2-x,1/2+y,z
_cell_length_a 26.018(5)
_cell_length_b 9.2556(16)
_cell_length_c 7.6909(13)
_cell_angle_alpha 90
_cell_angle_beta 90
_cell_angle_gamma 90
_cell_formula_units_Z 4
loop_
_atom_type_symbol
_atom_type_radius_bond
C 0.68
H 0.23
loop_
_atom_site_label
_atom_site_type_symbol
_atom_site_fract_x
_atom_site_fract_y
_atom_site_fract_z
C1 C 0.50000 0.2161(2) 0.5019(3)
C2 C 0.45090(6) 0.06887(16) 0.7032(2)
C3 C 0.50000 0.1048(2) 0.6252(3)
C4 C 0.37916(7) 0.39492(18) 0.6176(2)
C5 C 0.34278(7) 0.32549(17) 0.7397(2)
C6 C 0.41292(6) 0.28027(16) 0.5667(2)
C7 C 0.44408(7) 0.56656(17) 0.5113(2)
C8 C 0.40832(6) 0.15612(16) 0.6750(2)
C9 C 0.45650(6) 0.30614(17) 0.4759(2)
C10 C 0.39433(7) 0.53591(17) 0.5880(2)
C11 C 0.47276(7) 0.45124(17) 0.4475(2)
C12 C 0.36053(6) 0.18233(16) 0.7754(2)
C13 C 0.30004(7) 0.3786(2) 0.8256(3)
C14 C 0.29217(7) 0.1524(2) 0.9799(3)
C15 C 0.27466(7) 0.2908(2) 0.9446(3)
C16 C 0.33518(7) 0.09746(19) 0.8957(3)
C17 C 0.47362(7) 0.69675(18) 0.5369(2)
H1 H 0.4542(8) 0.785(2) 0.567(3)
H2 H 0.2879(6) 0.474(2) 0.806(3)
H3 H 0.2448(8) 0.327(2) 1.009(3)
H4 H 0.2735(8) 0.092(2) 1.064(4)
H5 H 0.3489(7) 0.002(3) 0.924(3)
H6 H 0.4492(6) -0.003(2) 0.795(3)
H7 H 0.3737(8) 0.613(2) 0.633(3)
C2C C 0.54910(6) 0.06887(16) 0.7032(2)
C4C C 0.62084(7) 0.39492(18) 0.6176(2)
C5C C 0.65722(7) 0.32549(17) 0.7397(2)
C6C C 0.58708(6) 0.28027(16) 0.5667(2)
C7C C 0.55592(7) 0.56656(17) 0.5113(2)
C8C C 0.59168(6) 0.15612(16) 0.6750(2)
C9C C 0.54350(6) 0.30614(17) 0.4759(2)
C10C C 0.60567(7) 0.53591(17) 0.5880(2)
C11C C 0.52724(7) 0.45124(17) 0.4475(2)
C12C C 0.63947(6) 0.18233(16) 0.7754(2)
C13C C 0.69996(7) 0.3786(2) 0.8256(3)
C14C C 0.70783(7) 0.1524(2) 0.9799(3)
C15C C 0.72534(7) 0.2908(2) 0.9446(3)
C16C C 0.66482(7) 0.09746(19) 0.8957(3)
C17C C 0.52638(7) 0.69675(18) 0.5369(2)
H1C H 0.5458(8) 0.785(2) 0.567(3)
H2C H 0.7121(6) 0.474(2) 0.806(3)
H3C H 0.7552(8) 0.327(2) 1.009(3)
H4C H 0.7265(8) 0.092(2) 1.064(4)
H5C H 0.6511(7) 0.002(3) 0.924(3)
H6C H 0.5508(6) -0.003(2) 0.795(3)
H7C H 0.6263(8) 0.613(2) 0.633(3)
loop_
_geom_bond_atom_site_label_1
_geom_bond_atom_site_label_2
_geom_bond_distance
_geom_bond_site_symmetry_1
_geom_bond_site_symmetry_2
C1 C3 1.400 1_555 1_555
C2 C3 1.450 1_555 1_555
C3 C2C 1.450 1_555 1_555
C4 C5 1.480 1_555 1_555
C5 C12 1.430 1_555 1_555
C6 C4 1.432 1_555 1_555
C7 C10 1.450 1_555 1_555
C8 C2 1.388 1_555 1_555
C9 C1 1.420 1_555 1_555
C10 C4 1.382 1_555 1_555
C11 C7 1.392 1_555 1_555
C12 C8 1.484 1_555 1_555
C13 C5 1.384 1_555 1_555
C14 C15 1.386 1_555 1_555
C15 C13 1.391 1_555 1_555
C16 C12 1.381 1_555 1_555
C17 C7 1.443 1_555 1_555
H1 C17 0.988 1_555 1_555
H2 C13 0.950 1_555 1_555
H3 C15 0.980 1_555 1_555
H4 C14 0.983 1_555 1_555
H5 C16 0.977 1_555 1_555
H6 C2 0.971 1_555 1_555
H7 C10 0.958 1_555 1_555
C2C C8C 1.388 1_555 1_555
C4C C5C 1.480 1_555 1_555
C5C C12C 1.430 1_555 1_555
C6C C4C 1.432 1_555 1_555
C7C C10C 1.450 1_555 1_555
C8C C6C 1.424 1_555 1_555
C9C C1 1.420 1_555 1_555
C10C C4C 1.382 1_555 1_555
C11C C11 1.417 1_555 1_555
C12C C8C 1.484 1_555 1_555
C13C C5C 1.384 1_555 1_555
C14C C15C 1.386 1_555 1_555
C15C C13C 1.391 1_555 1_555
C16C C12C 1.381 1_555 1_555
C17C C17 1.373 1_555 1_555
H1C C17C 0.988 1_555 1_555
H2C C13C 0.950 1_555 1_555
H3C C15C 0.980 1_555 1_555
H4C C14C 0.983 1_555 1_555
H5C C16C 0.977 1_555 1_555
H6C C2C 0.971 1_555 1_555
H7C C10C 0.958 1_555 1_555
C6 C8 1.424 1_555 1_555
C6 C9 1.353 1_555 1_555
C9 C11 1.425 1_555 1_555
C14 C16 1.389 1_555 1_555
C6C C9C 1.353 1_555 1_555
C7C C11C 1.392 1_555 1_555
C7C C17C 1.443 1_555 1_555
C9C C11C 1.425 1_555 1_555
C14C C16C 1.389 1_555 1_555
#END
