
#######################################################################
#
#                 Cambridge Crystallographic Data Centre
#                                CCDC
#
#######################################################################
#
# If this CIF has been generated from an entry in the Cambridge
# Structural Database, then it will include bibliographic, chemical,
# crystal, experimental, refinement or atomic coordinate data resulting
# from the CCDC's data processing and validation procedures.
#
#######################################################################

data_CSD_CIF_XAHTAB
_audit_creation_date 2001-01-15
_audit_creation_method CSD-ConQuest-V1
_database_code_CSD XAHTAB
_database_code_depnum_ccdc_archive 'CCDC 150904'
_chemical_formula_sum 'C44 H28'
_chemical_formula_moiety
;
C44 H28
;
_journal_coden_Cambridge 1336
_journal_volume 2
_journal_year 2000
_journal_page_first 2081
_journal_name_full 'Org.Lett. '
loop_
_publ_author_name
"M.Iyoda"
"T.Kondo"
"K.Nakao"
"K.Hara"
"Y.Kuwatani"
"M.Yoshida"
"H.Matsuyama"
_chemical_name_systematic
;
1,8-[1,1'-(1,8-Naphthalene-1,8-diyl)-bis(4,4'-biphenyl)]naphthalene
;
_chemical_name_common
;
1,4(1,8)-Dinaphthalena-2,3,5,6(1,4)-tetrabenzenacyclohexaphane
;
_cell_volume   5761.034
_exptl_crystal_colour 'colorless'
_exptl_crystal_density_diffrn 1.284
_exptl_crystal_description 'platelet'
_exptl_crystal_preparation 'chlorobenzene'
_diffrn_ambient_temperature ?
_diffrn_special_details
;
The study was carried out at room temperature,in the range 283-303K

;
#These two values have been output from a single CSD field.
_refine_ls_R_factor_gt 0.0437
_refine_ls_wR_factor_gt 0.0437
_symmetry_cell_setting orthorhombic
_symmetry_space_group_name_H-M 'P b c a'
_symmetry_Int_Tables_number 61
loop_
_symmetry_equiv_pos_site_id
_symmetry_equiv_pos_as_xyz
1 x,y,z
2 1/2+x,1/2-y,-z
3 -x,1/2+y,1/2-z
4 1/2-x,-y,1/2+z
5 -x,-y,-z
6 -1/2-x,-1/2+y,z
7 x,-1/2-y,-1/2+z
8 -1/2+x,y,-1/2-z
_cell_length_a 24.1982(5)
_cell_length_b 30.3055(7)
_cell_length_c 7.8559(2)
_cell_angle_alpha 90
_cell_angle_beta 90
_cell_angle_gamma 90
_cell_formula_units_Z 8
loop_
_atom_type_symbol
_atom_type_radius_bond
C 0.68
H 0.23
loop_
_atom_site_label
_atom_site_type_symbol
_atom_site_fract_x
_atom_site_fract_y
_atom_site_fract_z
C1 C 0.5573(1) 0.17293(10) 0.9461(3)
C2 C 0.5776(1) 0.21127(10) 1.0188(4)
C3 C 0.6129(1) 0.2104(1) 1.1608(4)
C4 C 0.6280(1) 0.1717(1) 1.2308(4)
C5 C 0.6234(1) 0.0912(1) 1.2440(4)
C6 C 0.6055(1) 0.0515(1) 1.1861(5)
C7 C 0.5682(1) 0.0504(1) 1.0497(4)
C8 C 0.5492(1) 0.0879(1) 0.9711(4)
C9 C 0.57017(10) 0.13057(9) 1.0220(4)
C10 C 0.6074(1) 0.1313(1) 1.1652(4)
C11 C 0.5217(1) 0.17928(8) 0.7924(3)
C12 C 0.4751(1) 0.20610(8) 0.8043(3)
C13 C 0.4377(1) 0.20897(8) 0.6724(3)
C14 C 0.4460(1) 0.18625(8) 0.5195(3)
C15 C 0.4958(1) 0.16364(8) 0.5008(3)
C16 C 0.5328(1) 0.16005(9) 0.6346(3)
C17 C 0.4023(1) 0.18433(8) 0.3880(3)
C18 C 0.3469(1) 0.18254(9) 0.4331(3)
C19 C 0.3057(1) 0.17636(9) 0.3134(4)
C20 C 0.3186(1) 0.17195(8) 0.1415(3)
C21 C 0.3735(1) 0.17623(9) 0.0952(3)
C22 C 0.4147(1) 0.18181(9) 0.2150(4)
C23 C 0.2765(1) 0.16490(8) 0.0043(4)
C24 C 0.2652(1) 0.20137(9) -0.0942(4)
C25 C 0.2283(1) 0.2001(1) -0.2333(5)
C26 C 0.2023(1) 0.1618(1) -0.2717(4)
C27 C 0.1855(1) 0.0832(1) -0.2234(4)
C28 C 0.1947(1) 0.0448(1) -0.1385(4)
C29 C 0.2317(1) 0.04480(9) -0.0007(4)
C30 C 0.2591(1) 0.08187(9) 0.0525(3)
C31 C 0.25028(10) 0.12324(9) -0.0345(3)
C32 C 0.2124(1) 0.12272(9) -0.1757(3)
C33 C 0.2988(1) 0.07557(8) 0.1966(3)
C34 C 0.3540(1) 0.06844(9) 0.1626(3)
C35 C 0.3926(1) 0.06455(9) 0.2912(4)
C36 C 0.3774(1) 0.06696(8) 0.4623(3)
C37 C 0.3211(1) 0.07051(9) 0.4965(3)
C38 C 0.2827(1) 0.07488(9) 0.3667(4)
C39 C 0.4198(1) 0.06899(8) 0.5979(3)
C40 C 0.4717(1) 0.04991(9) 0.5767(4)
C41 C 0.5136(1) 0.05548(9) 0.6953(4)
C42 C 0.5050(1) 0.08108(8) 0.8401(3)
C43 C 0.4527(1) 0.09866(9) 0.8651(3)
C44 C 0.4113(1) 0.09285(8) 0.7460(3)
H1 H 0.56690 0.23980 0.96750
H2 H 0.62570 0.23820 1.21120
H3 H 0.65530 0.17080 1.32520
H4 H 0.64870 0.09260 1.34430
H5 H 0.61860 0.02480 1.23910
H6 H 0.55490 0.02150 1.00850
H7 H 0.46850 0.22310 0.90700
H8 H 0.40440 0.22660 0.68590
H9 H 0.50280 0.14910 0.39330
H10 H 0.56740 0.14380 0.61700
H11 H 0.33700 0.18550 0.55210
H12 H 0.26690 0.17600 0.34770
H13 H 0.38320 0.17450 -0.02420
H14 H 0.45290 0.18480 0.17950
H15 H 0.28290 0.22940 -0.06410
H16 H 0.22240 0.22710 -0.29970
H17 H 0.17500 0.16150 -0.36430
H18 H 0.15780 0.08380 -0.31630
H19 H 0.17640 0.01810 -0.17620
H20 H 0.23860 0.01700 0.05780
H21 H 0.36610 0.06550 0.04450
H22 H 0.43130 0.06030 0.26390
H23 H 0.30880 0.07000 0.61460
H24 H 0.24360 0.07700 0.39360
H25 H 0.47770 0.03160 0.47670
H26 H 0.54930 0.04120 0.67460
H27 H 0.44480 0.11550 0.96830
H28 H 0.37530 0.10650 0.76280
loop_
_geom_bond_atom_site_label_1
_geom_bond_atom_site_label_2
_geom_bond_distance
_geom_bond_site_symmetry_1
_geom_bond_site_symmetry_2
C1 C2 1.385 1_555 1_555
C2 C3 1.405 1_555 1_555
C3 C4 1.346 1_555 1_555
C4 C10 1.419 1_555 1_555
C5 C6 1.357 1_555 1_555
C6 C7 1.401 1_555 1_555
C7 C8 1.373 1_555 1_555
C8 C9 1.446 1_555 1_555
C9 C1 1.449 1_555 1_555
C10 C5 1.418 1_555 1_555
C11 C1 1.496 1_555 1_555
C12 C11 1.393 1_555 1_555
C13 C12 1.379 1_555 1_555
C14 C13 1.399 1_555 1_555
C15 C14 1.394 1_555 1_555
C16 C11 1.396 1_555 1_555
C17 C14 1.479 1_555 1_555
C18 C17 1.388 1_555 1_555
C19 C18 1.383 1_555 1_555
C20 C19 1.392 1_555 1_555
C21 C20 1.383 1_555 1_555
C22 C17 1.394 1_555 1_555
C23 C20 1.498 1_555 1_555
C24 C23 1.377 1_555 1_555
C25 C24 1.412 1_555 1_555
C26 C25 1.354 1_555 1_555
C27 C28 1.360 1_555 1_555
C28 C29 1.405 1_555 1_555
C29 C30 1.370 1_555 1_555
C30 C31 1.444 1_555 1_555
C31 C23 1.445 1_555 1_555
C32 C26 1.425 1_555 1_555
C33 C30 1.497 1_555 1_555
C34 C33 1.379 1_555 1_555
C35 C34 1.381 1_555 1_555
C36 C35 1.395 1_555 1_555
C37 C36 1.393 1_555 1_555
C38 C33 1.392 1_555 1_555
C39 C36 1.480 1_555 1_555
C40 C39 1.393 1_555 1_555
C41 C40 1.387 1_555 1_555
C42 C8 1.499 1_555 1_555
C43 C42 1.387 1_555 1_555
C44 C39 1.385 1_555 1_555
H1 C2 0.988 1_555 1_555
H2 C3 0.981 1_555 1_555
H3 C4 0.994 1_555 1_555
H4 C5 0.999 1_555 1_555
H5 C6 0.964 1_555 1_555
H6 C7 0.988 1_555 1_555
H7 C12 0.970 1_555 1_555
H8 C13 0.973 1_555 1_555
H9 C15 0.967 1_555 1_555
H10 C16 0.981 1_555 1_555
H11 C18 0.969 1_555 1_555
H12 C19 0.977 1_555 1_555
H13 C21 0.968 1_555 1_555
H14 C22 0.970 1_555 1_555
H15 C24 0.980 1_555 1_555
H16 C25 0.981 1_555 1_555
H17 C26 0.983 1_555 1_555
H18 C27 0.991 1_555 1_555
H19 C28 0.969 1_555 1_555
H20 C29 0.974 1_555 1_555
H21 C34 0.977 1_555 1_555
H22 C35 0.969 1_555 1_555
H23 C37 0.974 1_555 1_555
H24 C38 0.972 1_555 1_555
H25 C40 0.973 1_555 1_555
H26 C41 0.980 1_555 1_555
H27 C43 0.977 1_555 1_555
H28 C44 0.973 1_555 1_555
C9 C10 1.441 1_555 1_555
C15 C16 1.385 1_555 1_555
C21 C22 1.381 1_555 1_555
C27 C32 1.414 1_555 1_555
C31 C32 1.439 1_555 1_555
C37 C38 1.386 1_555 1_555
C41 C42 1.393 1_555 1_555
C43 C44 1.382 1_555 1_555
#END
