
#######################################################################
#
#                 Cambridge Crystallographic Data Centre
#                                CCDC
#
#######################################################################
#
# If this CIF has been generated from an entry in the Cambridge
# Structural Database, then it will include bibliographic, chemical,
# crystal, experimental, refinement or atomic coordinate data resulting
# from the CCDC's data processing and validation procedures.
#
#######################################################################

data_CSD_CIF_XATKOV
_audit_creation_date 2017-03-02
_audit_creation_method CSD-ConQuest-V1
_database_code_CSD XATKOV
_database_code_depnum_ccdc_archive 'CCDC 1481132'
_chemical_formula_sum 'C24 H16'
_chemical_formula_moiety
;
C24 H16
;
_journal_coden_Cambridge 1695
_journal_volume 5
_journal_year 2017
_journal_page_first 2852
_journal_name_full 'J.Mater.Chem.C '
loop_
_publ_author_name
"Wenjun Xu"
"Yaowu He"
"I.Murtaza"
"Dongwei Zhang"
"Aiyuan Li"
"Zhao Hu"
"Xingwei Zeng"
"Yitong Guo"
"Yanan Zhu"
"Ming Liu"
"Hong Meng"
_chemical_name_systematic
;
2-phenyltetracene
;
_cell_volume    745.039
_exptl_crystal_colour 'purple'
_exptl_crystal_density_diffrn 1.357
_exptl_crystal_description 'thin plate'
_diffrn_ambient_temperature 293
#These two values have been output from a single CSD field.
_refine_ls_R_factor_gt 0.2288
_refine_ls_wR_factor_gt 0.2288
_symmetry_cell_setting monoclinic
_symmetry_space_group_name_H-M 'P 21'
_symmetry_Int_Tables_number 4
loop_
_symmetry_equiv_pos_site_id
_symmetry_equiv_pos_as_xyz
1 x,y,z
2 -x,1/2+y,-z
_cell_length_a 6.1567(7)
_cell_length_b 7.2515(8)
_cell_length_c 16.757(2)
_cell_angle_alpha 90
_cell_angle_beta 95.203(5)
_cell_angle_gamma 90
_cell_formula_units_Z 2
loop_
_atom_type_symbol
_atom_type_radius_bond
C 0.68
H 0.23
loop_
_atom_site_label
_atom_site_type_symbol
_atom_site_fract_x
_atom_site_fract_y
_atom_site_fract_z
C1 C -1.489(2) -0.414(2) -1.4796(8)
H1 H -1.61760 -0.44900 -1.50940
C2 C -1.314(4) -0.395(4) -1.5162(12)
H2 H -1.30820 -0.42800 -1.56960
C3 C -1.113(2) -0.315(2) -1.4650(9)
H3 H -0.97740 -0.30340 -1.48500
C4 C -1.146(2) -0.265(2) -1.3915(9)
H4 H -1.02930 -0.21340 -1.36000
C5 C -1.351(2) -0.283(3) -1.3565(8)
C6 C -1.493(2) -0.389(3) -1.4125(8)
H5 H -1.60840 -0.44600 -1.39000
C7 C -1.378(3) -0.255(3) -1.2766(10)
C8 C -1.220(3) -0.287(3) -1.2109(10)
H6 H -1.08500 -0.33220 -1.22290
C9 C -1.247(3) -0.260(3) -1.1319(11)
C10 C -1.465(3) -0.173(3) -1.1111(9)
C11 C -1.609(3) -0.145(3) -1.1742(10)
H7 H -1.74240 -0.09430 -1.16380
C12 C -1.582(3) -0.180(3) -1.2492(11)
H8 H -1.69840 -0.15760 -1.28740
C13 C -1.092(3) -0.294(3) -1.0705(10)
H9 H -0.95970 -0.34430 -1.08240
C14 C -1.121(3) -0.256(3) -0.9897(11)
C15 C -1.331(2) -0.177(2) -0.9684(10)
C16 C -1.481(4) -0.135(3) -1.0333(11)
H10 H -1.60690 -0.07340 -1.02140
C17 C -0.963(3) -0.288(3) -0.9256(11)
H11 H -0.82810 -0.33480 -0.93690
C18 C -0.997(3) -0.253(3) -0.8449(11)
C19 C -1.199(3) -0.172(3) -0.8268(10)
C20 C -1.350(3) -0.140(3) -0.890(1)
H12 H -1.48030 -0.08560 -0.87810
C21 C -0.821(2) -0.301(2) -0.7842(9)
H13 H -0.69060 -0.35070 -0.79830
C22 C -0.852(5) -0.272(5) -0.7106(16)
H14 H -0.74240 -0.30080 -0.67060
C23 C -1.062(3) -0.192(2) -0.6883(10)
H15 H -1.08440 -0.17260 -0.63470
C24 C -1.219(4) -0.147(3) -0.7469(10)
H16 H -1.34820 -0.09590 -0.73210
loop_
_geom_bond_atom_site_label_1
_geom_bond_atom_site_label_2
_geom_bond_distance
_geom_bond_site_symmetry_1
_geom_bond_site_symmetry_2
C1 H1 0.932 1_555 1_555
C2 C1 1.295 1_555 1_555
H2 C2 0.930 1_555 1_555
C3 C2 1.553 1_555 1_555
H3 C3 0.931 1_555 1_555
C4 C3 1.317 1_555 1_555
H4 C4 0.931 1_555 1_555
C5 C4 1.445 1_555 1_555
C6 C1 1.141 1_555 1_555
H5 C6 0.931 1_555 1_555
C7 C5 1.379 1_555 1_555
C8 C7 1.421 1_555 1_555
H6 C8 0.932 1_555 1_555
C9 C8 1.363 1_555 1_555
C10 C9 1.551 1_555 1_555
C11 C10 1.332 1_555 1_555
H7 C11 0.931 1_555 1_555
C12 C7 1.479 1_555 1_555
H8 C12 0.931 1_555 1_555
C13 C9 1.361 1_555 1_555
H9 C13 0.930 1_555 1_555
C14 C13 1.409 1_555 1_555
C15 C14 1.487 1_555 1_555
C16 C10 1.345 1_555 1_555
H10 C16 0.932 1_555 1_555
C17 C14 1.402 1_555 1_555
H11 C17 0.932 1_555 1_555
C18 C17 1.410 1_555 1_555
C19 C18 1.433 1_555 1_555
C20 C15 1.356 1_555 1_555
H12 C20 0.932 1_555 1_555
C21 C18 1.459 1_555 1_555
H13 C21 0.930 1_555 1_555
C22 C21 1.282 1_555 1_555
H14 C22 0.931 1_555 1_555
C23 C22 1.495 1_555 1_555
H15 C23 0.932 1_555 1_555
C24 C19 1.368 1_555 1_555
H16 C24 0.931 1_555 1_555
C5 C6 1.445 1_555 1_555
C11 C12 1.307 1_555 1_555
C15 C16 1.395 1_555 1_555
C19 C20 1.364 1_555 1_555
C23 C24 1.354 1_555 1_555
#END
