
#######################################################################
#
#                 Cambridge Crystallographic Data Centre
#                                CCDC
#
#######################################################################
#
# If this CIF has been generated from an entry in the Cambridge
# Structural Database, then it will include bibliographic, chemical,
# crystal, experimental, refinement or atomic coordinate data resulting
# from the CCDC's data processing and validation procedures.
#
#######################################################################

data_CSD_CIF_XECJIZ
_audit_creation_date 2006-06-05
_audit_creation_method CSD-ConQuest-V1
_database_code_CSD XECJIZ
_database_code_depnum_ccdc_archive 'CCDC 280084'
_chemical_formula_sum 'C30 H20'
_chemical_formula_moiety
;
C30 H20
;
_journal_coden_Cambridge 471
_journal_volume 22
_journal_year 2006
_journal_page_first x5
_journal_name_full 'Anal.Sci.:X-Ray Struct.Anal.Online '
loop_
_publ_author_name
"C.Kitamura"
"C.Matsumoto"
"N.Kawatsuki"
"A.Yoneda"
"T.Kobayashi"
"H.Naito"
_chemical_name_systematic
;
5,12-Diphenyltetracene
;
_chemical_melting_point 479
_cell_volume    984.815
_exptl_crystal_colour 'orange'
_exptl_crystal_density_diffrn 1.283
_exptl_special_details
;
photoluminescent

;
_exptl_crystal_description 'Prism'
_exptl_crystal_preparation 'xylene'
_diffrn_ambient_temperature 173
#These two values have been output from a single CSD field.
_refine_ls_R_factor_gt 0.0822
_refine_ls_wR_factor_gt 0.0822
_symmetry_cell_setting triclinic
_symmetry_space_group_name_H-M 'P -1'
_symmetry_Int_Tables_number 2
loop_
_symmetry_equiv_pos_site_id
_symmetry_equiv_pos_as_xyz
1 x,y,z
2 -x,-y,-z
_cell_length_a 8.936(3)
_cell_length_b 11.527(4)
_cell_length_c 11.643(5)
_cell_angle_alpha 112.84(2)
_cell_angle_beta 107.24(2)
_cell_angle_gamma 64.41(2)
_cell_formula_units_Z 2
loop_
_atom_type_symbol
_atom_type_radius_bond
C 0.68
H 0.23
loop_
_atom_site_label
_atom_site_type_symbol
_atom_site_fract_x
_atom_site_fract_y
_atom_site_fract_z
C1 C -0.0538(3) 0.3331(2) 0.3897(2)
C2 C -0.0708(4) 0.3238(3) 0.4972(2)
C3 C 0.0090(3) 0.1985(3) 0.5247(2)
C4 C 0.1093(3) 0.0891(2) 0.4466(2)
C5 C 0.1338(2) 0.0941(2) 0.3328(2)
C6 C 0.2404(2) -0.0175(2) 0.2530(2)
C7 C 0.2534(2) -0.0112(2) 0.1379(2)
C8 C 0.3586(3) -0.1236(2) 0.0542(2)
C9 C 0.3652(2) -0.1207(2) -0.0636(2)
C10 C 0.4658(3) -0.2344(2) -0.1495(2)
C11 C 0.4678(3) -0.2306(2) -0.2640(2)
C12 C 0.3692(3) -0.1115(3) -0.3006(2)
C13 C 0.2721(3) -0.0009(2) -0.2212(2)
C14 C 0.2651(2) -0.0007(2) -0.1003(2)
C15 C 0.1649(2) 0.1132(2) -0.0171(2)
C16 C 0.1573(2) 0.1117(2) 0.1031(2)
C17 C 0.0580(2) 0.2262(2) 0.1874(2)
C18 C 0.0452(2) 0.2188(2) 0.3014(2)
C19 C -0.0331(2) 0.3572(2) 0.1573(2)
C20 C 0.0523(3) 0.4375(2) 0.1702(3)
C21 C -0.0323(3) 0.5616(3) 0.1486(3)
C22 C -0.2034(3) 0.6071(2) 0.1129(2)
C23 C -0.2894(3) 0.5285(2) 0.0993(3)
C24 C -0.2049(3) 0.4034(2) 0.1211(3)
C25 C 0.3395(2) -0.1443(2) 0.2903(2)
C26 C 0.2766(3) -0.2465(2) 0.2514(3)
C27 C 0.3659(3) -0.3612(2) 0.2910(3)
C28 C 0.5180(3) -0.3747(2) 0.3686(2)
C29 C 0.5834(3) -0.2753(2) 0.4061(2)
C30 C 0.4945(3) -0.1605(2) 0.3670(2)
H1 H -0.10930 0.42090 0.37220
H2 H -0.14010 0.40240 0.56490
H3 H -0.02050 0.19790 0.59930
H4 H 0.15290 0.00690 0.47420
H5 H 0.43870 -0.21500 0.07730
H6 H 0.54850 -0.31160 -0.11570
H7 H 0.52690 -0.30900 -0.32500
H8 H 0.37560 -0.11110 -0.38570
H9 H 0.18890 0.08300 -0.24490
H10 H 0.07910 0.19950 -0.05910
H11 H 0.16450 0.41320 0.19700
H12 H 0.04230 0.60730 0.14160
H13 H -0.25850 0.69340 0.10820
H14 H -0.40410 0.56260 0.07650
H15 H -0.28310 0.36580 0.13300
H16 H 0.17700 -0.24550 0.19100
H17 H 0.32130 -0.43380 0.25610
H18 H 0.58630 -0.45890 0.38840
H19 H 0.68230 -0.27750 0.46620
H20 H 0.53840 -0.09630 0.40060
loop_
_geom_bond_atom_site_label_1
_geom_bond_atom_site_label_2
_geom_bond_distance
_geom_bond_site_symmetry_1
_geom_bond_site_symmetry_2
C1 C2 1.354 1_555 1_555
C2 C3 1.425 1_555 1_555
C3 C4 1.355 1_555 1_555
C4 C5 1.431 1_555 1_555
C5 C6 1.401 1_555 1_555
C6 C7 1.411 1_555 1_555
C7 C8 1.422 1_555 1_555
C8 C9 1.404 1_555 1_555
C9 C10 1.423 1_555 1_555
C10 C11 1.356 1_555 1_555
C11 C12 1.425 1_555 1_555
C12 C13 1.356 1_555 1_555
C13 C14 1.427 1_555 1_555
C14 C9 1.435 1_555 1_555
C15 C14 1.405 1_555 1_555
C16 C7 1.448 1_555 1_555
C17 C16 1.411 1_555 1_555
C18 C1 1.434 1_555 1_555
C19 C17 1.499 1_555 1_555
C20 C19 1.377 1_555 1_555
C21 C20 1.383 1_555 1_555
C22 C21 1.373 1_555 1_555
C23 C22 1.362 1_555 1_555
C24 C19 1.379 1_555 1_555
C25 C6 1.502 1_555 1_555
C26 C25 1.384 1_555 1_555
C27 C26 1.393 1_555 1_555
C28 C27 1.373 1_555 1_555
C29 C28 1.373 1_555 1_555
C30 C25 1.387 1_555 1_555
H1 C1 0.989 1_555 1_555
H2 C2 1.037 1_555 1_555
H3 C3 0.983 1_555 1_555
H4 C4 0.998 1_555 1_555
H5 C8 1.072 1_555 1_555
H6 C10 1.012 1_555 1_555
H7 C11 0.955 1_555 1_555
H8 C12 1.011 1_555 1_555
H9 C13 1.014 1_555 1_555
H10 C15 1.146 1_555 1_555
H11 C20 0.906 1_555 1_555
H12 C21 1.048 1_555 1_555
H13 C22 0.916 1_555 1_555
H14 C23 0.920 1_555 1_555
H15 C24 1.030 1_555 1_555
H16 C26 0.956 1_555 1_555
H17 C27 0.976 1_555 1_555
H18 C28 0.973 1_555 1_555
H19 C29 0.948 1_555 1_555
H20 C30 0.889 1_555 1_555
C5 C18 1.442 1_555 1_555
C15 C16 1.428 1_555 1_555
C17 C18 1.403 1_555 1_555
C23 C24 1.394 1_555 1_555
C29 C30 1.391 1_555 1_555
#END
