
#######################################################################
#
#                 Cambridge Crystallographic Data Centre
#                                CCDC
#
#######################################################################
#
# If this CIF has been generated from an entry in the Cambridge
# Structural Database, then it will include bibliographic, chemical,
# crystal, experimental, refinement or atomic coordinate data resulting
# from the CCDC's data processing and validation procedures.
#
#######################################################################

data_CSD_CIF_XIDLUT
_audit_creation_date 2013-05-21
_audit_creation_method CSD-ConQuest-V1
_database_code_CSD XIDLUT
_database_code_depnum_ccdc_archive 'CCDC 891216'
_chemical_formula_sum 'C20 H14'
_chemical_formula_moiety
;
C20 H14
;
_journal_coden_Cambridge 182
_journal_volume 49
_journal_year 2013
_journal_page_first 4301
_journal_name_full 'Chem.Commun. '
loop_
_publ_author_name
"Hai Xia"
"Danqing Liu"
"Xiaomin Xu"
"Qian Miao"
_chemical_name_systematic
;
2,7-Dimethylcyclopenta[hi]aceanthrylene
;
_cell_volume   1307.222
_exptl_crystal_colour 'black'
_exptl_crystal_density_diffrn 1.292
_exptl_crystal_description 'block'
_diffrn_ambient_temperature 296
#These two values have been output from a single CSD field.
_refine_ls_R_factor_gt 0.0581
_refine_ls_wR_factor_gt 0.0581
_symmetry_cell_setting monoclinic
_symmetry_space_group_name_H-M 'P 21/c'
_symmetry_Int_Tables_number 14
loop_
_symmetry_equiv_pos_site_id
_symmetry_equiv_pos_as_xyz
1 x,y,z
2 -x,1/2+y,1/2-z
3 -x,-y,-z
4 x,-1/2-y,-1/2+z
_cell_length_a 10.2176(15)
_cell_length_b 10.4839(15)
_cell_length_c 12.2150(17)
_cell_angle_alpha 90
_cell_angle_beta 92.507(3)
_cell_angle_gamma 90
_cell_formula_units_Z 4
loop_
_atom_type_symbol
_atom_type_radius_bond
C 0.68
H 0.23
loop_
_atom_site_label
_atom_site_type_symbol
_atom_site_fract_x
_atom_site_fract_y
_atom_site_fract_z
C1 C 0.1764(3) 0.3144(3) 1.1238(3)
H1 H 0.20540 0.38870 1.16380
H2 H 0.15330 0.24880 1.17430
H3 H 0.10130 0.33560 1.07740
C2 C 0.2840(3) 0.2677(3) 1.0553(2)
C3 C 0.2733(3) 0.1546(3) 0.9827(2)
C4 C 0.1774(3) 0.0674(3) 0.9578(2)
H4 H 0.09550 0.07420 0.98780
C5 C 0.2051(3) -0.0344(3) 0.8849(2)
H5 H 0.13990 -0.09430 0.86870
C6 C 0.3225(3) -0.0479(3) 0.8381(2)
H6 H 0.33580 -0.11590 0.79100
C7 C 0.4255(3) 0.0416(2) 0.86074(19)
C8 C 0.3962(3) 0.1412(2) 0.93366(19)
C9 C 0.6379(3) 0.1422(2) 0.85983(19)
C10 C 0.5538(3) 0.0437(2) 0.82233(19)
C11 C 0.6304(3) -0.0355(3) 0.7499(2)
H7 H 0.59940 -0.10800 0.71340
C12 C 0.7531(3) 0.0123(3) 0.7438(2)
C13 C 0.8638(3) -0.0385(3) 0.6805(2)
H8 H 0.83520 -0.11310 0.64050
H9 H 0.93570 -0.06050 0.73020
H10 H 0.89150 0.02530 0.63020
C14 C 0.7621(3) 0.1269(3) 0.81452(19)
C15 C 0.8599(3) 0.2098(3) 0.8433(2)
H11 H 0.94250 0.20120 0.81500
C16 C 0.8334(3) 0.3099(3) 0.9178(2)
H12 H 0.90000 0.36710 0.93690
C17 C 0.7142(3) 0.3256(3) 0.9624(2)
H13 H 0.70150 0.39200 1.01130
C18 C 0.6089(3) 0.2402(3) 0.93415(19)
C19 C 0.4809(3) 0.2382(2) 0.97214(19)
C20 C 0.4069(3) 0.3155(3) 1.0484(2)
H14 H 0.43940 0.38650 1.08630
loop_
_geom_bond_atom_site_label_1
_geom_bond_atom_site_label_2
_geom_bond_distance
_geom_bond_site_symmetry_1
_geom_bond_site_symmetry_2
C1 H1 0.959 1_555 1_555
H2 C1 0.960 1_555 1_555
H3 C1 0.960 1_555 1_555
C2 C1 1.493 1_555 1_555
C3 C2 1.482 1_555 1_555
C4 C3 1.365 1_555 1_555
H4 C4 0.931 1_555 1_555
C5 C4 1.426 1_555 1_555
H5 C5 0.930 1_555 1_555
C6 C5 1.359 1_555 1_555
H6 C6 0.930 1_555 1_555
C7 C6 1.428 1_555 1_555
C8 C3 1.422 1_555 1_555
C9 C10 1.407 1_555 1_555
C10 C7 1.412 1_555 1_555
C11 C10 1.465 1_555 1_555
H7 C11 0.930 1_555 1_555
C12 C11 1.355 1_555 1_555
C13 C12 1.496 1_555 1_555
H8 C13 0.961 1_555 1_555
H9 C13 0.960 1_555 1_555
H10 C13 0.959 1_555 1_555
C14 C9 1.416 1_555 1_555
C15 C14 1.359 1_555 1_555
H11 C15 0.930 1_555 1_555
C16 C15 1.423 1_555 1_555
H12 C16 0.929 1_555 1_555
C17 C16 1.366 1_555 1_555
H13 C17 0.930 1_555 1_555
C18 C9 1.411 1_555 1_555
C19 C8 1.403 1_555 1_555
C20 C2 1.358 1_555 1_555
H14 C20 0.930 1_555 1_555
C7 C8 1.413 1_555 1_555
C12 C14 1.480 1_555 1_555
C17 C18 1.430 1_555 1_555
C18 C19 1.407 1_555 1_555
C19 C20 1.469 1_555 1_555
#END
