
#######################################################################
#
#                 Cambridge Crystallographic Data Centre
#                                CCDC
#
#######################################################################
#
# If this CIF has been generated from an entry in the Cambridge
# Structural Database, then it will include bibliographic, chemical,
# crystal, experimental, refinement or atomic coordinate data resulting
# from the CCDC's data processing and validation procedures.
#
#######################################################################

data_CSD_CIF_XOCLUX
_audit_creation_date 2008-10-31
_audit_creation_method CSD-ConQuest-V1
_database_code_CSD XOCLUX
_database_code_depnum_ccdc_archive 'CCDC 662235'
_chemical_formula_sum 'C20 H22'
_chemical_formula_moiety
;
C20 H22
;
_journal_coden_Cambridge 7
_journal_volume 81
_journal_year 2008
_journal_page_first 754
_journal_name_full 'Bull.Chem.Soc.Jpn. '
loop_
_publ_author_name
"C.Kitamura"
"C.Matsumoto"
"N.Kawatsuki"
"A.Yoneda"
"K.Asada"
"T.Kobayashi"
"H.Naito"
_chemical_name_systematic
;
1,4-Di(n-propyl)anthracene
;
_chemical_melting_point 350.15
_cell_volume   1507.818
_exptl_crystal_colour 'colorless'
_exptl_crystal_density_diffrn 1.156
_exptl_special_details
;
Melting point range 350.15-351.15K
fluorescent

;
_exptl_crystal_description 'Needle'
_diffrn_ambient_temperature 223.2
#These two values have been output from a single CSD field.
_refine_ls_R_factor_gt 0.0904
_refine_ls_wR_factor_gt 0.0904
_symmetry_cell_setting monoclinic
_symmetry_space_group_name_H-M 'P 21/c'
_symmetry_Int_Tables_number 14
loop_
_symmetry_equiv_pos_site_id
_symmetry_equiv_pos_as_xyz
1 x,y,z
2 -x,1/2+y,1/2-z
3 -x,-y,-z
4 x,-1/2-y,-1/2+z
_cell_length_a 15.37(1)
_cell_length_b 5.373(4)
_cell_length_c 23.17(1)
_cell_angle_alpha 90
_cell_angle_beta 128.00(3)
_cell_angle_gamma 90
_cell_formula_units_Z 4
loop_
_atom_type_symbol
_atom_type_radius_bond
C 0.68
H 0.23
loop_
_atom_site_label
_atom_site_type_symbol
_atom_site_fract_x
_atom_site_fract_y
_atom_site_fract_z
C1 C 0.2341(2) 0.1675(4) 0.2752(1)
C2 C 0.1559(2) 0.3051(5) 0.2708(1)
C3 C 0.0930(2) 0.4918(5) 0.2160(1)
C4 C 0.1096(2) 0.5485(4) 0.1664(1)
C5 C 0.1937(2) 0.4128(4) 0.1696(1)
C6 C 0.2181(2) 0.4648(4) 0.1218(1)
C7 C 0.2966(2) 0.3296(4) 0.1226(1)
C8 C 0.3240(2) 0.3867(4) 0.0754(1)
C9 C 0.4003(2) 0.2512(5) 0.0774(1)
C10 C 0.4540(2) 0.0487(5) 0.1265(1)
C11 C 0.4303(2) -0.0126(4) 0.1722(1)
C12 C 0.3517(2) 0.1281(4) 0.1727(1)
C13 C 0.3297(2) 0.0780(4) 0.2218(1)
C14 C 0.2541(2) 0.2170(4) 0.2229(1)
C15 C 0.3020(2) -0.0307(5) 0.3331(1)
C16 C 0.2750(2) -0.0840(5) 0.3847(1)
C17 C 0.3521(3) -0.2803(6) 0.4411(2)
C18 C 0.0435(2) 0.7453(4) 0.1077(1)
C19 C -0.0453(2) 0.8789(5) 0.1056(1)
C20 C -0.1019(2) 1.0776(5) 0.0460(2)
H1 H 0.14270 0.27630 0.30480
H2 H 0.03830 0.57830 0.21430
H3 H 0.18040 0.59530 0.08790
H4 H 0.28860 0.52020 0.04240
H5 H 0.41760 0.29200 0.04610
H6 H 0.50660 -0.04430 0.12740
H7 H 0.46590 -0.14920 0.20400
H8 H 0.36710 -0.05390 0.25520
H9 H 0.29390 -0.18630 0.30810
H10 H 0.37980 0.01810 0.36260
H11 H 0.19860 -0.14210 0.35650
H12 H 0.28170 0.06980 0.40990
H13 H 0.34660 -0.43160 0.41620
H14 H 0.33130 -0.31510 0.47230
H15 H 0.42740 -0.21940 0.47090
H16 H 0.09520 0.87040 0.11400
H17 H 0.00850 0.66640 0.05990
H18 H -0.01210 0.95680 0.15320
H19 H -0.10030 0.75800 0.09640
H20 H -0.15490 1.16720 0.04780
H21 H -0.13970 0.99910 -0.00160
H22 H -0.04700 1.19290 0.05370
loop_
_geom_bond_atom_site_label_1
_geom_bond_atom_site_label_2
_geom_bond_distance
_geom_bond_site_symmetry_1
_geom_bond_site_symmetry_2
C1 C2 1.360 1_555 1_555
C2 C3 1.429 1_555 1_555
C3 C4 1.356 1_555 1_555
C4 C5 1.446 1_555 1_555
C5 C6 1.399 1_555 1_555
C6 C7 1.399 1_555 1_555
C7 C8 1.426 1_555 1_555
C8 C9 1.357 1_555 1_555
C9 C10 1.415 1_555 1_555
C10 C11 1.355 1_555 1_555
C11 C12 1.431 1_555 1_555
C12 C7 1.424 1_555 1_555
C13 C12 1.398 1_555 1_555
C14 C1 1.446 1_555 1_555
C15 C1 1.516 1_555 1_555
C16 C15 1.515 1_555 1_555
C17 C16 1.522 1_555 1_555
C18 C4 1.516 1_555 1_555
C19 C18 1.516 1_555 1_555
C20 C19 1.525 1_555 1_555
H1 C2 0.939 1_555 1_555
H2 C3 0.940 1_555 1_555
H3 C6 0.940 1_555 1_555
H4 C8 0.940 1_555 1_555
H5 C9 0.939 1_555 1_555
H6 C10 0.940 1_555 1_555
H7 C11 0.941 1_555 1_555
H8 C13 0.940 1_555 1_555
H9 C15 0.980 1_555 1_555
H10 C15 0.980 1_555 1_555
H11 C16 0.979 1_555 1_555
H12 C16 0.980 1_555 1_555
H13 C17 0.970 1_555 1_555
H14 C17 0.972 1_555 1_555
H15 C17 0.969 1_555 1_555
H16 C18 0.981 1_555 1_555
H17 C18 0.981 1_555 1_555
H18 C19 0.979 1_555 1_555
H19 C19 0.980 1_555 1_555
H20 C20 0.969 1_555 1_555
H21 C20 0.971 1_555 1_555
H22 C20 0.971 1_555 1_555
C5 C14 1.443 1_555 1_555
C13 C14 1.395 1_555 1_555
#END
