
#######################################################################
#
#                 Cambridge Crystallographic Data Centre
#                                CCDC
#
#######################################################################
#
# If this CIF has been generated from an entry in the Cambridge
# Structural Database, then it will include bibliographic, chemical,
# crystal, experimental, refinement or atomic coordinate data resulting
# from the CCDC's data processing and validation procedures.
#
#######################################################################

data_CSD_CIF_YEWMEV
_audit_creation_date 2018-01-31
_audit_creation_method CSD-ConQuest-V1
_database_code_CSD YEWMEV
_database_code_depnum_ccdc_archive 'CCDC 1518670'
_chemical_formula_sum 'C36 H24'
_chemical_formula_moiety
;
C36 H24
;
_journal_coden_Cambridge 38
_journal_volume 359
_journal_year 2018
_journal_page_first 435
_journal_name_full 'Science '
loop_
_publ_author_name
"Y.Koga"
"T.Kaneda"
"Y.Saito"
"K.Murakami"
"K.Itami"
_chemical_name_systematic
;
1-(biphenyl-4-yl)-6-phenyltriphenylene
;
_cell_volume   2370.862
_exptl_crystal_colour 'colorless'
_exptl_crystal_density_diffrn 1.279
_exptl_crystal_description 'block'
_diffrn_ambient_temperature 123
#These two values have been output from a single CSD field.
_refine_ls_R_factor_gt 0.0304
_refine_ls_wR_factor_gt 0.0304
_symmetry_cell_setting orthorhombic
_symmetry_space_group_name_H-M 'P 21 21 21'
_symmetry_Int_Tables_number 19
loop_
_symmetry_equiv_pos_site_id
_symmetry_equiv_pos_as_xyz
1 x,y,z
2 1/2-x,-y,1/2+z
3 1/2+x,1/2-y,-z
4 -x,1/2+y,1/2-z
_cell_length_a 9.1178(2)
_cell_length_b 14.3487(3)
_cell_length_c 18.1219(3)
_cell_angle_alpha 90
_cell_angle_beta 90
_cell_angle_gamma 90
_cell_formula_units_Z 4
loop_
_atom_type_symbol
_atom_type_radius_bond
C 0.68
H 0.23
loop_
_atom_site_label
_atom_site_type_symbol
_atom_site_fract_x
_atom_site_fract_y
_atom_site_fract_z
C1 C -0.0400(2) 1.09925(15) 0.62453(10)
C2 C -0.0298(2) 1.19602(15) 0.61189(11)
H1 H 0.05160 1.22890 0.63160
C3 C -0.1333(2) 1.24483(15) 0.57204(11)
C4 C -0.2527(2) 1.19477(16) 0.54263(12)
H2 H -0.32540 1.22660 0.51480
C5 C -0.2650(2) 1.10058(16) 0.55370(12)
H3 H -0.34620 1.06840 0.53300
C6 C -0.1607(2) 1.05027(15) 0.59489(11)
C7 C -0.1736(2) 0.95004(15) 0.60819(11)
C8 C -0.3051(2) 0.90301(16) 0.59187(12)
H4 H -0.38440 0.93710 0.57120
C9 C -0.3222(3) 0.80932(16) 0.60494(13)
H5 H -0.41110 0.77880 0.59210
C10 C -0.2083(2) 0.75958(16) 0.63721(12)
H6 H -0.21910 0.69480 0.64660
C11 C -0.0797(3) 0.80417(15) 0.65556(12)
H7 H -0.00430 0.76960 0.67920
C12 C -0.0560(2) 0.89985(15) 0.64051(11)
C13 C 0.0781(2) 0.94951(15) 0.66380(11)
C14 C 0.2083(2) 0.90473(15) 0.68940(11)
C15 C 0.3171(2) 0.95666(15) 0.72378(12)
H8 H 0.40120 0.92580 0.74280
C16 C 0.3058(3) 1.05264(16) 0.73101(12)
H9 H 0.37840 1.08670 0.75720
C17 C 0.1885(2) 1.09772(15) 0.69992(12)
H10 H 0.18320 1.16370 0.70280
C18 C 0.0758(2) 1.04845(15) 0.66386(11)
C19 C -0.1190(2) 1.34715(15) 0.56063(12)
C20 C -0.0617(2) 1.40441(15) 0.61601(12)
H11 H -0.02910 1.37740 0.66090
C21 C -0.0519(2) 1.50009(16) 0.60633(13)
H12 H -0.01330 1.53800 0.64470
C22 C -0.0983(3) 1.54064(16) 0.54087(13)
H13 H -0.09160 1.60620 0.53420
C23 C -0.1546(2) 1.48438(16) 0.48503(13)
H14 H -0.18660 1.51160 0.44000
C24 C -0.1640(2) 1.38906(16) 0.49500(12)
H15 H -0.20180 1.35130 0.45640
C25 C 0.2432(2) 0.80390(15) 0.67877(11)
C26 C 0.2510(2) 0.76496(15) 0.60812(12)
H16 H 0.22910 0.80230 0.56620
C27 C 0.2904(2) 0.67241(15) 0.59867(11)
H17 H 0.29650 0.64730 0.55030
C28 C 0.3214(2) 0.61536(14) 0.65934(11)
C29 C 0.3144(2) 0.65509(15) 0.72972(11)
H18 H 0.33510 0.61780 0.77180
C30 C 0.2779(2) 0.74777(16) 0.73889(11)
H19 H 0.27640 0.77370 0.78710
C31 C 0.3604(2) 0.51580(15) 0.64963(11)
C32 C 0.4547(2) 0.48712(16) 0.59310(12)
H20 H 0.49440 0.53200 0.56020
C33 C 0.4908(2) 0.39397(16) 0.58470(13)
H21 H 0.55450 0.37550 0.54590
C34 C 0.4347(3) 0.32764(16) 0.63246(13)
H22 H 0.45980 0.26380 0.62650
C35 C 0.3420(3) 0.35488(16) 0.68887(13)
H23 H 0.30360 0.30970 0.72200
C36 C 0.3048(2) 0.44791(15) 0.69722(12)
H24 H 0.24050 0.46580 0.73600
loop_
_geom_bond_atom_site_label_1
_geom_bond_atom_site_label_2
_geom_bond_distance
_geom_bond_site_symmetry_1
_geom_bond_site_symmetry_2
C1 C2 1.410 1_555 1_555
C2 H1 0.949 1_555 1_555
C3 C2 1.379 1_555 1_555
C4 C3 1.409 1_555 1_555
H2 C4 0.950 1_555 1_555
C5 C4 1.371 1_555 1_555
H3 C5 0.950 1_555 1_555
C6 C1 1.412 1_555 1_555
C7 C6 1.463 1_555 1_555
C8 C7 1.407 1_555 1_555
H4 C8 0.950 1_555 1_555
C9 C8 1.374 1_555 1_555
H5 C9 0.950 1_555 1_555
C10 C9 1.389 1_555 1_555
H6 C10 0.950 1_555 1_555
C11 C10 1.377 1_555 1_555
H7 C11 0.950 1_555 1_555
C12 C7 1.418 1_555 1_555
C13 C12 1.477 1_555 1_555
C14 C13 1.427 1_555 1_555
C15 C14 1.388 1_555 1_555
H8 C15 0.950 1_555 1_555
C16 C15 1.387 1_555 1_555
H9 C16 0.950 1_555 1_555
C17 C16 1.371 1_555 1_555
H10 C17 0.949 1_555 1_555
C18 C1 1.468 1_555 1_555
C19 C3 1.488 1_555 1_555
C20 C19 1.398 1_555 1_555
H11 C20 0.949 1_555 1_555
C21 C20 1.387 1_555 1_555
H12 C21 0.950 1_555 1_555
C22 C21 1.387 1_555 1_555
H13 C22 0.950 1_555 1_555
C23 C22 1.393 1_555 1_555
H14 C23 0.951 1_555 1_555
C24 C19 1.394 1_555 1_555
H15 C24 0.950 1_555 1_555
C25 C14 1.494 1_555 1_555
C26 C25 1.399 1_555 1_555
H16 C26 0.951 1_555 1_555
C27 C26 1.386 1_555 1_555
H17 C27 0.949 1_555 1_555
C28 C27 1.400 1_555 1_555
C29 C28 1.398 1_555 1_555
H18 C29 0.950 1_555 1_555
C30 C25 1.391 1_555 1_555
H19 C30 0.950 1_555 1_555
C31 C28 1.483 1_555 1_555
C32 C31 1.399 1_555 1_555
H20 C32 0.949 1_555 1_555
C33 C32 1.385 1_555 1_555
H21 C33 0.950 1_555 1_555
C34 C33 1.384 1_555 1_555
H22 C34 0.950 1_555 1_555
C35 C34 1.383 1_555 1_555
H23 C35 0.950 1_555 1_555
C36 C31 1.396 1_555 1_555
H24 C36 0.951 1_555 1_555
C5 C6 1.408 1_555 1_555
C11 C12 1.416 1_555 1_555
C13 C18 1.420 1_555 1_555
C17 C18 1.408 1_555 1_555
C23 C24 1.382 1_555 1_555
C29 C30 1.381 1_555 1_555
C35 C36 1.386 1_555 1_555
#END
