
#######################################################################
#
#                 Cambridge Crystallographic Data Centre
#                                CCDC
#
#######################################################################
#
# If this CIF has been generated from an entry in the Cambridge
# Structural Database, then it will include bibliographic, chemical,
# crystal, experimental, refinement or atomic coordinate data resulting
# from the CCDC's data processing and validation procedures.
#
#######################################################################

data_CSD_CIF_YOFCUR
_audit_creation_date 1995-11-27
_audit_creation_method CSD-ConQuest-V1
_database_code_CSD YOFCUR
_chemical_formula_sum 'C48 H20'
_chemical_formula_moiety
;
C48 H20
;
_journal_coden_Cambridge 4
_journal_volume 117
_journal_year 1995
_journal_page_first 30
_journal_name_full 'J.Am.Chem.Soc. '
loop_
_publ_author_name
"R.Goddard"
"M.W.Haenel"
"W.C.Herndon"
"C.Kruger"
"M.Zander"
_chemical_name_systematic
;
Benzo(1,2,3-bc:4,5,6-b',c')dicoronene
;
_cell_volume   1268.916
_exptl_crystal_colour 'dark red'
_exptl_crystal_density_diffrn 1.57
_diffrn_ambient_temperature ?
_diffrn_special_details
;
The study was carried out at room temperature,in the range 283-303K

;
#These two values have been output from a single CSD field.
_refine_ls_R_factor_gt 0.052
_refine_ls_wR_factor_gt 0.052
_symmetry_cell_setting monoclinic
_symmetry_space_group_name_H-M 'P 21/c'
_symmetry_Int_Tables_number 14
loop_
_symmetry_equiv_pos_site_id
_symmetry_equiv_pos_as_xyz
1 x,y,z
2 -x,1/2+y,1/2-z
3 -x,-y,-z
4 x,-1/2-y,-1/2+z
_cell_length_a 10.376(1)
_cell_length_b 3.832(1)
_cell_length_c 31.914(3)
_cell_angle_alpha 90
_cell_angle_beta 90.24(1)
_cell_angle_gamma 90
_cell_formula_units_Z 2
loop_
_atom_type_symbol
_atom_type_radius_bond
C 0.68
H 0.23
loop_
_atom_site_label
_atom_site_type_symbol
_atom_site_fract_x
_atom_site_fract_y
_atom_site_fract_z
C1 C -0.1305(1) 0.3200(4) 0.0675(1)
C2 C -0.0680(1) 0.1646(3) 0.0344(1)
C3 C -0.1359(1) 0.0793(3) -0.0051(1)
C4 C -0.2652(1) 0.1515(4) -0.0106(1)
C5 C -0.4661(1) 0.1464(4) -0.0532(1)
C6 C -0.5288(1) 0.0658(4) -0.0897(1)
C7 C -0.5263(1) -0.1772(4) -0.1621(1)
C8 C -0.4613(1) -0.3309(4) -0.1942(1)
C9 C -0.2570(1) -0.5658(4) -0.2236(1)
C10 C -0.1287(1) -0.6373(4) -0.2195(1)
C11 C -0.0725(1) 0.6298(4) 0.1766(1)
C12 C -0.1345(1) 0.5544(4) 0.1400(1)
C13 C -0.0684(1) 0.3998(4) 0.1057(1)
C14 C 0.0661(1) 0.0824(3) 0.0385(1)
C15 C -0.3325(1) 0.0719(4) -0.0481(1)
C16 C -0.4636(1) -0.0910(4) -0.1237(1)
C17 C -0.3280(1) -0.4086(4) -0.1909(1)
C18 C 0.0611(1) 0.5580(4) 0.1819(1)
C19 C 0.1313(1) 0.1627(3) 0.0765(1)
C20 C -0.2648(1) -0.0861(3) -0.0813(1)
C21 C -0.3307(1) -0.1678(4) -0.1194(1)
C22 C -0.2628(1) -0.3263(4) -0.1529(1)
C23 C 0.1290(1) 0.4022(3) 0.1485(1)
C24 C 0.0641(1) 0.3214(4) 0.1101(1)
H1 H -0.225(1) 0.382(4) 0.0651(4)
H2 H -0.317(1) 0.264(4) 0.0121(4)
H3 H -0.514(1) 0.251(5) -0.0291(4)
H4 H -0.625(1) 0.114(4) -0.0926(4)
H5 H -0.621(1) -0.122(4) -0.1642(4)
H6 H -0.507(1) -0.390(4) -0.2223(5)
H7 H -0.304(1) -0.615(4) -0.2508(5)
H8 H -0.080(1) -0.746(4) -0.2429(4)
H9 H -0.118(1) 0.740(4) 0.2003(4)
H10 H -0.230(1) 0.605(4) 0.1368(4)
C14B C -0.0661(1) -0.0824(3) -0.0385(1)
C3B C 0.1359(1) -0.0793(3) 0.0051(1)
C18B C -0.0611(1) -0.5580(4) -0.1819(1)
C10B C 0.1287(1) 0.6373(4) 0.2195(1)
C20B C 0.2648(1) 0.0861(3) 0.0813(1)
C19B C -0.1313(1) -0.1627(3) -0.0765(1)
C23B C -0.1290(1) -0.4022(3) -0.1485(1)
C22B C 0.2628(1) 0.3263(4) 0.1529(1)
C2B C 0.0680(1) -0.1646(3) -0.0344(1)
C4B C 0.2652(1) -0.1515(4) 0.0106(1)
C11B C 0.0725(1) -0.6298(4) -0.1766(1)
C9B C 0.2570(1) 0.5658(4) 0.2236(1)
H8B H 0.080(1) 0.746(4) 0.2429(4)
C15B C 0.3325(1) -0.0719(4) 0.0481(1)
C21B C 0.3307(1) 0.1678(4) 0.1194(1)
C24B C -0.0641(1) -0.3214(4) -0.1101(1)
C17B C 0.3280(1) 0.4086(4) 0.1909(1)
C1B C 0.1305(1) -0.3200(4) -0.0675(1)
H2B H 0.317(1) -0.264(4) -0.0121(4)
C12B C 0.1345(1) -0.5544(4) -0.1400(1)
H9B H 0.118(1) -0.740(4) -0.2003(4)
H7B H 0.304(1) 0.615(4) 0.2508(5)
C5B C 0.4661(1) -0.1464(4) 0.0532(1)
C16B C 0.4636(1) 0.0910(4) 0.1237(1)
C13B C 0.0684(1) -0.3998(4) -0.1057(1)
C8B C 0.4613(1) 0.3309(4) 0.1942(1)
H1B H 0.225(1) -0.382(4) -0.0651(4)
H10B H 0.230(1) -0.605(4) -0.1368(4)
C6B C 0.5288(1) -0.0658(4) 0.0897(1)
H3B H 0.514(1) -0.251(5) 0.0291(4)
C7B C 0.5263(1) 0.1772(4) 0.1621(1)
H6B H 0.507(1) 0.390(4) 0.2223(5)
H4B H 0.625(1) -0.114(4) 0.0926(4)
H5B H 0.621(1) 0.122(4) 0.1642(4)
loop_
_geom_bond_atom_site_label_1
_geom_bond_atom_site_label_2
_geom_bond_distance
_geom_bond_site_symmetry_1
_geom_bond_site_symmetry_2
C1 C2 1.377 1_555 1_555
C2 C3 1.478 1_555 1_555
C3 C4 1.380 1_555 1_555
C4 C15 1.416 1_555 1_555
C5 C6 1.367 1_555 1_555
C6 C16 1.415 1_555 1_555
C7 C8 1.363 1_555 1_555
C8 C17 1.418 1_555 1_555
C9 C10 1.365 1_555 1_555
C10 H8 0.995 1_555 1_555
C11 C12 1.362 1_555 1_555
C12 C13 1.423 1_555 1_555
C13 C1 1.410 1_555 1_555
C14 C2 1.432 1_555 1_555
C15 C5 1.424 1_555 1_555
C16 C7 1.424 1_555 1_555
C17 C9 1.415 1_555 1_555
C18 C11 1.423 1_555 1_555
C19 C14 1.420 1_555 1_555
C20 C15 1.410 1_555 1_555
C21 C16 1.416 1_555 1_555
C22 C17 1.422 1_555 1_555
C23 C18 1.413 1_555 1_555
C24 C13 1.414 1_555 1_555
H1 C1 1.011 1_555 1_555
H2 C4 1.001 1_555 1_555
H3 C5 1.001 1_555 1_555
H4 C6 1.019 1_555 1_555
H5 C7 1.007 1_555 1_555
H6 C8 1.038 1_555 1_555
H7 C9 1.012 1_555 1_555
H9 C11 0.988 1_555 1_555
H10 C12 1.014 1_555 1_555
C14B C3 1.432 1_555 1_555
C3B C14 1.432 1_555 1_555
C18B C10 1.420 1_555 1_555
C10B C18 1.420 1_555 1_555
C20B C19 1.424 1_555 1_555
C19B C20 1.424 1_555 1_555
C23B C22 1.425 1_555 1_555
C22B C23 1.425 1_555 1_555
C2B C14B 1.432 1_555 1_555
C4B C3B 1.380 1_555 1_555
C11B C18B 1.423 1_555 1_555
C9B C10B 1.365 1_555 1_555
H8B C10B 0.995 1_555 1_555
C15B C20B 1.410 1_555 1_555
C21B C20B 1.427 1_555 1_555
C24B C19B 1.418 1_555 1_555
C17B C22B 1.422 1_555 1_555
C1B C2B 1.377 1_555 1_555
H2B C4B 1.001 1_555 1_555
C12B C11B 1.362 1_555 1_555
H9B C11B 0.988 1_555 1_555
H7B C9B 1.012 1_555 1_555
C5B C15B 1.424 1_555 1_555
C16B C21B 1.416 1_555 1_555
C13B C24B 1.414 1_555 1_555
C8B C17B 1.418 1_555 1_555
H1B C1B 1.011 1_555 1_555
H10B C12B 1.014 1_555 1_555
C6B C5B 1.367 1_555 1_555
H3B C5B 1.001 1_555 1_555
C7B C16B 1.424 1_555 1_555
H6B C8B 1.038 1_555 1_555
H4B C6B 1.019 1_555 1_555
H5B C7B 1.007 1_555 1_555
C19 C24 1.418 1_555 1_555
C20 C21 1.427 1_555 1_555
C21 C22 1.419 1_555 1_555
C23 C24 1.430 1_555 1_555
C14B C19B 1.420 1_555 1_555
C3B C2B 1.478 1_555 1_555
C18B C23B 1.413 1_555 1_555
C23B C24B 1.430 1_555 1_555
C22B C21B 1.419 1_555 1_555
C4B C15B 1.416 1_555 1_555
C9B C17B 1.415 1_555 1_555
C1B C13B 1.410 1_555 1_555
C12B C13B 1.423 1_555 1_555
C16B C6B 1.415 1_555 1_555
C8B C7B 1.363 1_555 1_555
#END
