
#######################################################################
#
#                 Cambridge Crystallographic Data Centre
#                                CCDC
#
#######################################################################
#
# If this CIF has been generated from an entry in the Cambridge
# Structural Database, then it will include bibliographic, chemical,
# crystal, experimental, refinement or atomic coordinate data resulting
# from the CCDC's data processing and validation procedures.
#
#######################################################################

data_CSD_CIF_ZZZUJZ01
_audit_creation_date 1981-09-30
_audit_creation_method CSD-ConQuest-V1
_database_code_CSD ZZZUJZ01
_chemical_formula_sum 'C22 H16'
_chemical_formula_moiety
;
C22 H16
;
_journal_coden_Cambridge 188
_journal_year 1981
_journal_page_first 870
_journal_name_full 'J.Chem.Soc.,Perkin Trans.2 '
loop_
_publ_author_name
"R.Kuroda"
"S.F.Mason"
_chemical_name_systematic
;
rac-9,10-Dihydrodibenzo(c,g)phenanthrene
;
_cell_volume   2977.753
_exptl_crystal_colour 'light yellow'
_exptl_crystal_density_diffrn 1.25
_exptl_special_details
;
H3 deleted (suspected coordinate error)

;
_diffrn_ambient_temperature ?
_diffrn_special_details
;
The study was carried out at room temperature,in the range 283-303K

;
#These two values have been output from a single CSD field.
_refine_ls_R_factor_gt 0.0437
_refine_ls_wR_factor_gt 0.0437
loop_
_citation_database_id_CSD
_citation_special_details
HPHENA "is a stereoisomer of this entry"
_symmetry_cell_setting tetragonal
_symmetry_space_group_name_H-M 'P 42 b c'
_symmetry_Int_Tables_number 106
loop_
_symmetry_equiv_pos_site_id
_symmetry_equiv_pos_as_xyz
1 x,y,z
2 -y,x,1/2+z
3 -x,-y,z
4 y,-x,1/2+z
5 1/2-x,1/2+y,z
6 1/2+y,1/2+x,1/2+z
7 1/2+x,1/2-y,z
8 1/2-y,1/2-x,1/2+z
_cell_length_a 20.018(2)
_cell_length_b 20.018(2)
_cell_length_c 7.431(1)
_cell_angle_alpha 90
_cell_angle_beta 90
_cell_angle_gamma 90
_cell_formula_units_Z 8
loop_
_atom_type_symbol
_atom_type_radius_bond
C 0.68
H 0.23
loop_
_atom_site_label
_atom_site_type_symbol
_atom_site_fract_x
_atom_site_fract_y
_atom_site_fract_z
C1 C 0.73090 0.01770 0.57370
C2 C 0.69200 -0.03300 0.50090
C3 C 0.63030 -0.05010 0.58110
C4 C 0.60880 -0.01910 0.73440
C5 C 0.65040 0.02750 0.82460
C6 C 0.63330 0.05440 0.99680
C7 C 0.67640 0.09220 1.09180
C8 C 0.74050 0.10600 1.02130
C9 C 0.75780 0.08360 0.85260
C10 C 0.71370 0.04440 0.74730
C11 C 0.71880 -0.07170 0.34180
C12 C 0.79280 0.03610 0.47600
C13 C 0.82680 -0.01520 0.38790
C14 C 0.88860 -0.00340 0.30570
C15 C 0.91520 0.05930 0.30630
C16 C 0.88000 0.11410 0.37670
C17 C 0.90400 0.18000 0.35780
C18 C 0.86620 0.23370 0.40230
C19 C 0.80010 0.22420 0.47430
C20 C 0.77680 0.16020 0.50260
C21 C 0.81630 0.10320 0.45750
C22 C 0.79350 -0.08200 0.37000
H1 H 0.55900 -0.03100 0.79200
H2 H 0.58600 0.04200 1.03100
H3 H 0.66500 0.11300 1.22100
H4 H 0.77600 0.13400 1.10000
H5 H 0.80200 0.09100 0.80700
H6 H 0.69400 -0.12000 0.31700
H7 H 0.71500 -0.04100 0.21600
H8 H 0.91600 -0.04400 0.23700
H9 H 0.96000 0.07100 0.27000
H10 H 0.95800 0.18900 0.31700
H11 H 0.88300 0.28500 0.40500
H12 H 0.77000 0.26600 0.51300
H13 H 0.73000 0.15400 0.55400
H14 H 0.81600 -0.10700 0.26100
H15 H 0.80300 -0.10800 0.47900
loop_
_geom_bond_atom_site_label_1
_geom_bond_atom_site_label_2
_geom_bond_distance
_geom_bond_site_symmetry_1
_geom_bond_site_symmetry_2
C1 C2 1.389 1_555 1_555
C2 C3 1.413 1_555 1_555
C3 C4 1.367 1_555 1_555
C4 C5 1.419 1_555 1_555
C5 C6 1.430 1_555 1_555
C6 C7 1.347 1_555 1_555
C7 C8 1.413 1_555 1_555
C8 C9 1.376 1_555 1_555
C9 C10 1.417 1_555 1_555
C10 C1 1.438 1_555 1_555
C11 C2 1.512 1_555 1_555
C12 C1 1.483 1_555 1_555
C13 C12 1.395 1_555 1_555
C14 C13 1.400 1_555 1_555
C15 C14 1.363 1_555 1_555
C16 C15 1.405 1_555 1_555
C17 C16 1.411 1_555 1_555
C18 C17 1.356 1_555 1_555
C19 C18 1.440 1_555 1_555
C20 C19 1.380 1_555 1_555
C21 C12 1.430 1_555 1_555
C22 C11 1.524 1_555 1_555
H1 C4 1.111 1_555 1_555
H2 C6 1.011 1_555 1_555
H3 C7 1.071 1_555 1_555
H4 C8 1.078 1_555 1_555
H5 C9 0.959 1_555 1_555
H6 C11 1.102 1_555 1_555
H7 C11 1.121 1_555 1_555
H8 C14 1.105 1_555 1_555
H9 C15 0.965 1_555 1_555
H10 C17 1.137 1_555 1_555
H11 C18 1.081 1_555 1_555
H12 C19 1.070 1_555 1_555
H13 C20 1.019 1_555 1_555
H14 C22 1.053 1_555 1_555
H15 C22 0.981 1_555 1_555
C5 C10 1.432 1_555 1_555
C13 C22 1.500 1_555 1_555
C16 C21 1.426 1_555 1_555
C20 C21 1.428 1_555 1_555
#END
