
#######################################################################
#
#                 Cambridge Crystallographic Data Centre
#                                CCDC
#
#######################################################################
#
# If this CIF has been generated from an entry in the Cambridge
# Structural Database, then it will include bibliographic, chemical,
# crystal, experimental, refinement or atomic coordinate data resulting
# from the CCDC's data processing and validation procedures.
#
#######################################################################

data_CSD_CIF_AANHOX
_audit_creation_date 1981-11-16
_audit_creation_method CSD-ConQuest-V1
_database_code_CSD AANHOX
_database_code_depnum_ccdc_archive 'CCDC 1100023'
_chemical_formula_sum 'C8 H9 N1 O2'
_chemical_formula_moiety
;
C8 H9 N1 O2
;
_journal_coeditor_code "IUCr A20110"
_journal_coden_Cambridge 107
_journal_volume 37
_journal_year 1981
_journal_page_first 1130
_journal_name_full 'Acta Crystallogr.,Sect.B:Struct.Crystallogr.Cryst.Chem. '
loop_
_publ_author_name
"M.R.Ciajolo"
"F.Lelj"
"T.Tancredi"
"P.A.Temussi"
_chemical_name_systematic
;
Z-Anisaldehyde oxime
;
_chemical_melting_point 397
_cell_volume   1587.479
_exptl_crystal_colour 'colorless'
_exptl_crystal_density_diffrn 1.265
_diffrn_ambient_temperature ?
_diffrn_special_details
;
The study was carried out at room temperature,in the range 283-303K

;
#These two values have been output from a single CSD field.
_refine_ls_R_factor_gt 0.077
_refine_ls_wR_factor_gt 0.077
_symmetry_cell_setting orthorhombic
_symmetry_space_group_name_H-M 'P n a 21'
_symmetry_Int_Tables_number 33
loop_
_symmetry_equiv_pos_site_id
_symmetry_equiv_pos_as_xyz
1 x,y,z
2 1/2-x,1/2+y,1/2+z
3 1/2+x,1/2-y,z
4 -x,-y,1/2+z
_cell_length_a 7.750(4)
_cell_length_b 11.572(1)
_cell_length_c 17.701(1)
_cell_angle_alpha 90
_cell_angle_beta 90
_cell_angle_gamma 90
_cell_formula_units_Z 8
loop_
_atom_type_symbol
_atom_type_radius_bond
C 0.68
N 0.68
O 0.68
loop_
_atom_site_label
_atom_site_type_symbol
_atom_site_fract_x
_atom_site_fract_y
_atom_site_fract_z
O1 O 0.92090 0.57670 0.58650
O2 O 0.79510 0.60380 0.22440
N1 N 0.91100 0.69770 0.22310
C1 C 0.93000 0.60320 0.51230
C2 C 0.86400 0.53480 0.45600
C3 C 0.87600 0.56750 0.38030
C4 C 0.95900 0.67290 0.36260
C5 C 1.02600 0.73830 0.42230
C6 C 1.00900 0.70620 0.49570
C7 C 0.81400 0.48460 0.61090
C8 C 0.98100 0.72430 0.28570
O3 O 0.95110 0.88790 0.72270
O4 O 0.98710 0.78650 1.08320
N2 N 1.12300 0.86430 1.08810
C9 C 0.81100 0.81870 0.69940
C10 C 0.99600 0.88780 0.79760
C11 C 1.11400 0.96760 0.81930
C12 C 1.16800 0.97360 0.89690
C13 C 1.10400 0.89460 0.94900
C14 C 0.98100 0.81260 0.92560
C15 C 0.92900 0.80860 0.84940
C16 C 1.16600 0.91190 1.02540
#END
