
#######################################################################
#
#                 Cambridge Crystallographic Data Centre
#                                CCDC
#
#######################################################################
#
# If this CIF has been generated from an entry in the Cambridge
# Structural Database, then it will include bibliographic, chemical,
# crystal, experimental, refinement or atomic coordinate data resulting
# from the CCDC's data processing and validation procedures.
#
#######################################################################

data_CSD_CIF_AANHOX01
_audit_creation_date 1988-09-05
_audit_creation_method CSD-ConQuest-V1
_database_code_CSD AANHOX01
_database_code_depnum_ccdc_archive 'CCDC 1100024'
_chemical_formula_sum 'C8 H9 N1 O2'
_chemical_formula_moiety
;
C8 H9 N1 O2
;
_journal_coden_Cambridge 3
_journal_volume 41
_journal_year 1987
_journal_page_first 184
_journal_name_full 'Acta Chem.Scand. '
loop_
_publ_author_name
"B.Jerslev"
_chemical_name_systematic
;
Z-4-Methoxybenzaldoxime
;
_chemical_melting_point 404.15
_cell_volume   1524.124
_exptl_crystal_density_diffrn 1.318
_exptl_special_details
;
Melting point range 404.15-404.65K

;
_diffrn_ambient_temperature 105
#These two values have been output from a single CSD field.
_refine_ls_R_factor_gt 0.044
_refine_ls_wR_factor_gt 0.044
_symmetry_cell_setting orthorhombic
_symmetry_space_group_name_H-M 'P n a 21'
_symmetry_Int_Tables_number 33
loop_
_symmetry_equiv_pos_site_id
_symmetry_equiv_pos_as_xyz
1 x,y,z
2 1/2-x,1/2+y,1/2+z
3 1/2+x,1/2-y,z
4 -x,-y,1/2+z
_cell_length_a 7.557(8)
_cell_length_b 11.458(6)
_cell_length_c 17.602(5)
_cell_angle_alpha 90
_cell_angle_beta 90
_cell_angle_gamma 90
_cell_formula_units_Z 8
loop_
_atom_type_symbol
_atom_type_radius_bond
C 0.68
H 0.23
N 0.68
O 0.68
loop_
_atom_site_label
_atom_site_type_symbol
_atom_site_fract_x
_atom_site_fract_y
_atom_site_fract_z
C1 C 1.0966(2) 0.8972(1) 0.86572(9)
C2 C 0.9741(2) 0.8135(1) 0.8405(1)
C3 C 0.9240(2) 0.8074(2) 0.7643(1)
C4 C 0.9961(2) 0.8846(1) 0.71178(9)
C5 C 1.1204(2) 0.9673(2) 0.7355(1)
C6 C 1.1685(2) 0.9735(1) 0.8111(1)
C7 C 1.1572(2) 0.9132(2) 0.9440(1)
C8 C 0.8092(3) 0.8169(2) 0.6120(1)
N1 N 1.1078(2) 0.8676(2) 1.00740(9)
O1 O 0.9702(2) 0.7880(1) 1.00000
O2 O 0.9566(2) 0.8862(1) 0.63633(7)
H1 H 0.914(3) 0.758(2) 0.875(2)
H2 H 0.841(4) 0.757(2) 0.750(2)
H3 H 1.169(4) 1.023(2) 0.700(2)
H4 H 1.251(3) 1.032(2) 0.829(2)
H5 H 1.263(4) 0.965(2) 0.949(2)
H6 H 0.704(3) 0.841(2) 0.639(2)
H7 H 0.838(3) 0.740(2) 0.615(1)
H8 H 0.804(4) 0.839(2) 0.561(2)
H9 H 0.941(6) 0.761(4) 1.045(3)
C9 C 0.9523(2) 0.6742(1) 0.28132(9)
C10 C 0.8760(2) 0.5671(1) 0.3011(1)
C11 C 0.8678(2) 0.5325(1) 0.3772(1)
C12 C 0.9368(2) 0.6036(2) 0.43383(9)
C13 C 1.0149(2) 0.7102(2) 0.4147(1)
C14 C 1.0229(2) 0.7445(2) 0.3397(1)
C15 C 0.9666(2) 0.7235(1) 0.2046(1)
C16 C 0.8336(3) 0.4807(2) 0.5334(1)
N2 N 0.8937(2) 0.6962(1) 0.14108(9)
O3 O 0.7838(2) 0.5981(1) 0.14425(8)
O4 O 0.9379(2) 0.5780(1) 0.50928(7)
H10 H 0.833(3) 0.513(2) 0.263(1)
H11 H 0.811(3) 0.457(2) 0.388(1)
H12 H 1.065(4) 0.761(2) 0.453(1)
H13 H 1.073(3) 0.814(2) 0.327(1)
H14 H 1.045(4) 0.792(2) 0.197(2)
H15 H 0.710(3) 0.491(2) 0.526(2)
H16 H 0.845(4) 0.476(2) 0.582(2)
H17 H 0.878(4) 0.411(20) 0.510(2)
H18 H 0.729(5) 0.605(3) 0.101(2)
#END
