
#######################################################################
#
#                 Cambridge Crystallographic Data Centre
#                                CCDC
#
#######################################################################
#
# If this CIF has been generated from an entry in the Cambridge
# Structural Database, then it will include bibliographic, chemical,
# crystal, experimental, refinement or atomic coordinate data resulting
# from the CCDC's data processing and validation procedures.
#
#######################################################################

data_CSD_CIF_AARBOX
_audit_creation_date 1979-05-25
_audit_creation_method CSD-ConQuest-V1
_database_code_CSD AARBOX
_database_code_depnum_ccdc_archive 'CCDC 1100028'
_chemical_formula_sum 'C5 H11 N1 O5'
_chemical_formula_moiety
;
C5 H11 N1 O5
;
_journal_coden_Cambridge 3
_journal_volume 32
_journal_year 1978
_journal_page_first 733
_journal_name_full 'Acta Chem.Scand. '
loop_
_publ_author_name
"A.Mostad"
_chemical_name_systematic
;
anti-D-Arabinose-oxime
;
_cell_volume    364.797
_exptl_crystal_density_diffrn 1.59
_exptl_special_details
;
Hydrogen coordinates appear to be reported in error, these have been 
suppressed in the CSD entry
;
_diffrn_ambient_temperature 281
#These two values have been output from a single CSD field.
_refine_ls_R_factor_gt 0.11
_refine_ls_wR_factor_gt 0.11
loop_
_citation_database_id_CSD
_citation_special_details
SARBOX "is a stereoisomer of this entry"
_symmetry_cell_setting monoclinic
_symmetry_space_group_name_H-M 'P 21'
_symmetry_Int_Tables_number 4
loop_
_symmetry_equiv_pos_site_id
_symmetry_equiv_pos_as_xyz
1 x,y,z
2 -x,1/2+y,-z
_cell_length_a 4.898(2)
_cell_length_b 5.160(3)
_cell_length_c 14.436(7)
_cell_angle_alpha 90
_cell_angle_beta 90.98(4)
_cell_angle_gamma 90
_cell_formula_units_Z 2
loop_
_atom_type_symbol
_atom_type_radius_bond
C 0.68
H 0.23
N 0.68
O 0.68
loop_
_atom_site_label
_atom_site_type_symbol
_atom_site_fract_x
_atom_site_fract_y
_atom_site_fract_z
O1 O 0.33590 0.77430 0.07850
O2 O -0.20480 0.27960 0.19870
O3 O 0.31900 0.32100 0.29070
O4 O -0.14760 0.85500 0.31700
O5 O 0.37140 0.90450 0.40850
N1 N 0.32450 0.51490 0.05000
C1 C 0.15920 0.38470 0.09680
C2 C -0.01360 0.47680 0.17810
C3 C 0.16690 0.54700 0.25840
C4 C 0.00390 0.63270 0.34360
C5 C 0.18430 0.69620 0.42610
H1? H 0.50000 0.19000 0.26000
H2? H 0.24000 0.21000 0.07000
H3? H -0.19000 0.58000 0.14000
H4? H 0.30000 0.70000 0.24000
H5? H -0.12000 0.53000 0.34000
H6? H 0.34000 0.57000 0.44000
H7? H -0.12000 0.29000 0.23000
H8? H 0.05000 0.73000 0.41000
H9? H -0.25000 0.63000 0.34000
H10? H 0.35000 0.43000 0.37000
H11? H 0.47000 0.64000 0.03000
#END
