
#######################################################################
#
#                 Cambridge Crystallographic Data Centre
#                                CCDC
#
#######################################################################
#
# If this CIF has been generated from an entry in the Cambridge
# Structural Database, then it will include bibliographic, chemical,
# crystal, experimental, refinement or atomic coordinate data resulting
# from the CCDC's data processing and validation procedures.
#
#######################################################################

data_CSD_CIF_ABAGIV
_audit_creation_date 2011-11-16
_audit_creation_method CSD-ConQuest-V1
_database_code_CSD ABAGIV
_database_code_depnum_ccdc_archive 'CCDC 850670'
_chemical_formula_sum 'C15 H15 N3 O2'
_chemical_formula_moiety
;
C15 H15 N3 O2
;
_journal_coeditor_code "IUCr RZ2637"
_journal_coden_Cambridge 1370
_journal_volume 67
_journal_year 2011
_journal_page_first o2801
_journal_name_full 'Acta Crystallogr.,Sect.E:Struct.Rep.Online '
loop_
_publ_author_name
"A.Zeb"
"S.Yousuf"
_chemical_name_systematic
;
(E)-1-(2-Methylphenyl)-2-(1-(3-nitrophenyl)ethylidene)hydrazine
;
_cell_volume   1380.333
_exptl_crystal_colour 'yellow'
_exptl_crystal_density_diffrn 1.296
_exptl_crystal_description 'plate'
_diffrn_ambient_temperature 273
#These two values have been output from a single CSD field.
_refine_ls_R_factor_gt 0.0602
_refine_ls_wR_factor_gt 0.0602
_symmetry_cell_setting monoclinic
_symmetry_space_group_name_H-M 'P 21/n'
_symmetry_Int_Tables_number 14
loop_
_symmetry_equiv_pos_site_id
_symmetry_equiv_pos_as_xyz
1 x,y,z
2 1/2-x,1/2+y,1/2-z
3 -x,-y,-z
4 -1/2+x,-1/2-y,-1/2+z
_cell_length_a 7.4763(18)
_cell_length_b 25.742(6)
_cell_length_c 7.6564(19)
_cell_angle_alpha 90
_cell_angle_beta 110.485(5)
_cell_angle_gamma 90
_cell_formula_units_Z 4
loop_
_atom_type_symbol
_atom_type_radius_bond
C 0.68
H 0.23
N 0.68
O 0.68
loop_
_atom_site_label
_atom_site_type_symbol
_atom_site_fract_x
_atom_site_fract_y
_atom_site_fract_z
O1 O -0.0105(4) 0.25761(8) 0.7851(3)
O2 O -0.0998(3) 0.30826(7) 0.5495(3)
N1 N 0.2485(3) 0.00558(7) 0.5057(3)
N2 N 0.1857(2) 0.05385(7) 0.4420(2)
N3 N -0.0373(3) 0.26679(8) 0.6232(3)
C1 C 0.0995(4) 0.15320(9) 0.3011(3)
H1 H 0.13200 0.12840 0.22900
C2 C 0.0380(4) 0.20121(10) 0.2255(3)
H2 H 0.02750 0.20820 0.10320
C3 C -0.0082(3) 0.23888(9) 0.3293(3)
H3 H -0.04950 0.27160 0.27970
C4 C 0.0086(3) 0.22673(8) 0.5084(3)
C5 C 0.0684(3) 0.17883(8) 0.5874(3)
H4 H 0.07780 0.17220 0.70970
C6 C 0.1147(3) 0.14059(8) 0.4826(3)
C7 C 0.1796(3) 0.08832(8) 0.5615(3)
C8 C 0.3256(3) -0.08197(8) 0.4538(3)
C9 C 0.3307(3) -0.12021(9) 0.3286(4)
H5 H 0.37310 -0.15330 0.37310
C10 C 0.2748(4) -0.11080(11) 0.1401(4)
H6 H 0.27910 -0.13720 0.05880
C11 C 0.2130(4) -0.06233(11) 0.0734(3)
H7 H 0.17470 -0.05580 -0.05390
C12 C 0.2068(3) -0.02331(9) 0.1923(3)
H8 H 0.16650 0.00970 0.14560
C13 C 0.2604(3) -0.03265(8) 0.3823(3)
C14 C 0.3872(4) -0.0929(1) 0.6573(3)
H9 H 0.43760 -0.12750 0.68140
H10 H 0.27960 -0.08980 0.69760
H11 H 0.48400 -0.06850 0.72420
C15 C 0.2345(4) 0.07845(9) 0.7658(3)
H12 H 0.35630 0.06140 0.81100
H13 H 0.14010 0.05670 0.78770
H14 H 0.24220 0.11090 0.82990
H15 H 0.285(4) -0.0027(9) 0.622(4)
#END
