
#######################################################################
#
#                 Cambridge Crystallographic Data Centre
#                                CCDC
#
#######################################################################
#
# If this CIF has been generated from an entry in the Cambridge
# Structural Database, then it will include bibliographic, chemical,
# crystal, experimental, refinement or atomic coordinate data resulting
# from the CCDC's data processing and validation procedures.
#
#######################################################################

data_CSD_CIF_ABAPIE
_audit_creation_date 2011-11-16
_audit_creation_method CSD-ConQuest-V1
_database_code_CSD ABAPIE
_database_code_depnum_ccdc_archive 'CCDC 838510'
_chemical_formula_sum 'C20 H21 N1 O4'
_chemical_formula_moiety
;
C20 H21 N1 O4
;
_journal_coeditor_code "IUCr NK2110"
_journal_coden_Cambridge 1370
_journal_volume 67
_journal_year 2011
_journal_page_first o2753
_journal_name_full 'Acta Crystallogr.,Sect.E:Struct.Rep.Online '
loop_
_publ_author_name
"E.Govindan"
"K.SakthiMurugesan"
"J.Srinivasan"
"M.Bakthadoss"
"A.SubbiahPandi"
_chemical_name_systematic
;
(E)-Methyl 
3-(4-ethylphenyl)-2-(2-[(E)-(hydroxyimino)methyl]phenoxymethyl)acrylate
;
_cell_volume    885.430
_exptl_crystal_colour 'white'
_exptl_crystal_density_diffrn 1.273
_exptl_crystal_description 'block'
_diffrn_ambient_temperature 293
#These two values have been output from a single CSD field.
_refine_ls_R_factor_gt 0.0532
_refine_ls_wR_factor_gt 0.0532
_symmetry_cell_setting triclinic
_symmetry_space_group_name_H-M 'P -1'
_symmetry_Int_Tables_number 2
loop_
_symmetry_equiv_pos_site_id
_symmetry_equiv_pos_as_xyz
1 x,y,z
2 -x,-y,-z
_cell_length_a 9.0053(2)
_cell_length_b 9.3655(3)
_cell_length_c 12.1793(3)
_cell_angle_alpha 75.299(1)
_cell_angle_beta 74.756(1)
_cell_angle_gamma 64.891(1)
_cell_formula_units_Z 2
loop_
_atom_type_symbol
_atom_type_radius_bond
C 0.68
H 0.23
N 0.68
O 0.68
loop_
_atom_site_label
_atom_site_type_symbol
_atom_site_fract_x
_atom_site_fract_y
_atom_site_fract_z
C1 C -0.16884(13) 0.61894(13) 0.41644(9)
C2 C -0.25120(16) 0.53924(17) 0.50619(11)
H1 H -0.32200 0.59160 0.56690
C3 C -0.23045(18) 0.38465(18) 0.50735(13)
H2 H -0.28770 0.33370 0.56770
C4 C -0.12419(17) 0.30617(16) 0.41841(13)
H3 H -0.11000 0.20170 0.41900
C5 C -0.03793(15) 0.38050(15) 0.32794(11)
H4 H 0.03340 0.32630 0.26820
C6 C -0.05852(12) 0.53598(13) 0.32705(9)
C7 C -0.19037(14) 0.78288(14) 0.41442(10)
H5 H -0.10360 0.81700 0.37840
C8 C 0.13999(13) 0.54048(14) 0.1519(1)
H6 H 0.08410 0.52070 0.10270
H7 H 0.21790 0.43870 0.18390
C9 C 0.23062(13) 0.64543(14) 0.08369(9)
C10 C 0.39509(14) 0.61395(15) 0.11024(10)
C11 C 0.58541(18) 0.4676(2) 0.23780(14)
H8 H 0.66960 0.46110 0.16970
H9 H 0.61460 0.36630 0.28800
H10 H 0.57730 0.54830 0.27690
C12 C 0.17940(13) 0.76549(14) -0.00239(10)
H11 H 0.25230 0.81760 -0.03580
C13 C 0.02946(14) 0.82890(14) -0.0529(1)
C14 C -0.11884(15) 0.80690(17) -0.00057(11)
H12 H -0.12720 0.74860 0.07340
C15 C -0.25321(16) 0.87026(18) -0.05692(12)
H13 H -0.34950 0.85180 -0.02050
C16 C -0.24822(16) 0.96077(15) -0.16646(11)
C17 C -0.10288(17) 0.98621(16) -0.21751(11)
H14 H -0.09660 1.04790 -0.29030
C18 C 0.03252(15) 0.92197(15) -0.16260(11)
H15 H 0.12840 0.94100 -0.19940
C19 C -0.3973(2) 1.0316(2) -0.22612(15)
H16 H -0.48290 1.11840 -0.18810
H17 H -0.36460 1.07660 -0.30510
C20 C -0.4694(3) 0.9162(3) -0.2271(2)
H18 H -0.39020 0.83660 -0.27260
H19 H -0.56910 0.97160 -0.25970
H20 H -0.49540 0.86560 -0.14960
N1 N -0.32728(13) 0.87907(12) 0.46171(9)
O1 O -0.32289(13) 1.02929(12) 0.4545(1)
H21 H -0.41680 1.09240 0.47640
O2 O 0.01993(10) 0.62061(9) 0.24319(7)
O3 O 0.42776(12) 0.50810(14) 0.20593(8)
O4 O 0.49093(12) 0.67314(14) 0.05241(10)
#END
