
#######################################################################
#
#                 Cambridge Crystallographic Data Centre
#                                CCDC
#
#######################################################################
#
# If this CIF has been generated from an entry in the Cambridge
# Structural Database, then it will include bibliographic, chemical,
# crystal, experimental, refinement or atomic coordinate data resulting
# from the CCDC's data processing and validation procedures.
#
#######################################################################

data_CSD_CIF_ABATUU
_audit_creation_date 2011-11-29
_audit_creation_method CSD-ConQuest-V1
_database_code_CSD ABATUU
_database_code_depnum_ccdc_archive 'CCDC 850896'
_chemical_formula_sum 'C12 H17 N1 O2'
_chemical_formula_moiety
;
C12 H17 N1 O2
;
_journal_coden_Cambridge 9
_journal_volume 50
_journal_year 2011
_journal_page_first 4515
_journal_name_full 'Inorg.Chem. '
loop_
_publ_author_name
"R.S.Forgan"
"B.D.Roach"
"P.A.Wood"
"F.J.White"
"J.Campbell"
"D.K.Henderson"
"E.Kamenetzky"
"F.E.McAllister"
"S.Parsons"
"E.Pidcock"
"P.Richardson"
"R.M.Swart"
"P.A.Tasker"
_chemical_name_systematic
;
4-t-Butyl-2-((hydroxyimino)methyl)-6-methylphenol
;
_cell_volume   2329.130
_exptl_crystal_colour 'colorless'
_exptl_crystal_density_diffrn 1.182
_exptl_crystal_description 'block'
_exptl_crystal_preparation 'hexane/chloroform'
_diffrn_ambient_temperature 150
_refine_special_details
;
C42',C43',C44' and C42,C43,C44 disordered over two sites with occupancies 
0.515:0.485.
;
#These two values have been output from a single CSD field.
_refine_ls_R_factor_gt 0.0763
_refine_ls_wR_factor_gt 0.0763
_symmetry_cell_setting orthorhombic
_symmetry_space_group_name_H-M 'P b c a'
_symmetry_Int_Tables_number 61
loop_
_symmetry_equiv_pos_site_id
_symmetry_equiv_pos_as_xyz
1 x,y,z
2 1/2-x,-y,1/2+z
3 -x,1/2+y,1/2-z
4 1/2+x,1/2-y,-z
5 -x,-y,-z
6 -1/2+x,y,-1/2-z
7 x,-1/2-y,-1/2+z
8 -1/2-x,-1/2+y,z
_cell_length_a 9.4523(6)
_cell_length_b 9.6626(5)
_cell_length_c 25.5013(15)
_cell_angle_alpha 90
_cell_angle_beta 90
_cell_angle_gamma 90
_cell_formula_units_Z 8
loop_
_atom_type_symbol
_atom_type_radius_bond
C 0.68
H 0.23
N 0.68
O 0.68
loop_
_atom_site_label
_atom_site_type_symbol
_atom_site_fract_x
_atom_site_fract_y
_atom_site_fract_z
O1 O 0.01789(15) 0.18280(16) 0.04110(6)
H1 H 0.05490 0.13650 0.01680
C1 C 0.1268(2) 0.2259(2) 0.07234(7)
C2 C 0.2650(2) 0.1773(2) 0.06546(7)
C3 C 0.3714(2) 0.2265(2) 0.09869(8)
H2 H 0.46570 0.19520 0.09360
C4 C 0.3436(2) 0.3196(2) 0.13873(8)
C5 C 0.2048(2) 0.3643(2) 0.14425(8)
H3 H 0.18380 0.42860 0.17130
C6 C 0.0953(2) 0.3199(2) 0.11221(8)
C7 C 0.3004(2) 0.0719(2) 0.02677(7)
H4 H 0.39640 0.04520 0.02230
N1 N 0.20510(18) 0.01497(17) -0.00107(6)
O2 O 0.26006(16) -0.08706(16) -0.03474(6)
H5 H 0.18180 -0.11600 -0.04580
C8 C 0.4611(2) 0.3690(2) 0.17574(8)
C9 C 0.5736(11) 0.2599(10) 0.1815(5)
H6 H 0.63270 0.28120 0.21200
H7 H 0.63240 0.25820 0.14980
H8 H 0.52890 0.16930 0.18630
C10 C 0.5481(15) 0.4857(14) 0.1546(5)
H9 H 0.63320 0.49700 0.17610
H10 H 0.49250 0.57130 0.15550
H11 H 0.57550 0.46530 0.11830
C11 C 0.4163(9) 0.382(2) 0.23198(18)
H12 H 0.35440 0.30380 0.24110
H13 H 0.36510 0.46880 0.23700
H14 H 0.50010 0.38030 0.25460
C12 C -0.0548(3) 0.3662(3) 0.12052(9)
H15 H -0.09060 0.40910 0.08830
H16 H -0.05810 0.43360 0.14920
H17 H -0.11370 0.28610 0.12950
C13? C 0.5068(9) 0.2491(6) 0.2087(3)
C14? C 0.5730(6) 0.4351(6) 0.1425(3)
C15? C 0.4053(5) 0.4840(5) 0.2101(2)
H18? H 0.56380 0.18560 0.18750
H19? H 0.42330 0.20040 0.22200
H20? H 0.56340 0.28280 0.23830
H21? H 0.64700 0.47370 0.16510
H22? H 0.53080 0.50940 0.12150
H23? H 0.61450 0.36550 0.11910
H24? H 0.32880 0.44840 0.23230
H25? H 0.36910 0.55910 0.18800
H26? H 0.48190 0.51920 0.23230
#END
