
#######################################################################
#
#                 Cambridge Crystallographic Data Centre
#                                CCDC
#
#######################################################################
#
# If this CIF has been generated from an entry in the Cambridge
# Structural Database, then it will include bibliographic, chemical,
# crystal, experimental, refinement or atomic coordinate data resulting
# from the CCDC's data processing and validation procedures.
#
#######################################################################

data_CSD_CIF_ABATOP
_audit_creation_date 2016-11-22
_audit_creation_method CSD-ConQuest-V1
_database_code_CSD ABATOP
_database_code_depnum_ccdc_archive 'CCDC 1058923'
_chemical_formula_sum 'C28 H18 N4 O4'
_chemical_formula_moiety
;
C28 H18 N4 O4
;
_journal_coden_Cambridge 1336
_journal_volume 17
_journal_year 2015
_journal_page_first 3506
_journal_name_full 'Org.Lett. '
loop_
_publ_author_name
"E.J.Donckele"
"A.D.Finke"
"L.Ruhlmann"
"C.Boudon"
"N.Trapp"
"F.Diederich"
_chemical_name_systematic
;
(1-(4-(dimethylamino)phenyl)-2-(1,3-dioxo-1,3-dihydro-2H-inden-2-ylidene)-2-(4
-nitrophenyl)ethylidene)malononitrile
;
_cell_volume   2340.894
_exptl_crystal_colour 'dark brown'
_exptl_crystal_density_diffrn 1.346
_exptl_crystal_description 'plate'
_diffrn_ambient_temperature 100
#These two values have been output from a single CSD field.
_refine_ls_R_factor_gt 0.0375
_refine_ls_wR_factor_gt 0.0375
_symmetry_cell_setting monoclinic
_symmetry_space_group_name_H-M 'P 21/c'
_symmetry_Int_Tables_number 14
loop_
_symmetry_equiv_pos_site_id
_symmetry_equiv_pos_as_xyz
1 x,y,z
2 -x,1/2+y,1/2-z
3 -x,-y,-z
4 x,-1/2-y,-1/2+z
_cell_length_a 8.3939(3)
_cell_length_b 22.8222(8)
_cell_length_c 14.0623(4)
_cell_angle_alpha 90
_cell_angle_beta 119.661(2)
_cell_angle_gamma 90
_cell_formula_units_Z 4
loop_
_atom_type_symbol
_atom_type_radius_bond
C 0.68
H 0.23
N 0.68
O 0.68
loop_
_atom_site_label
_atom_site_type_symbol
_atom_site_fract_x
_atom_site_fract_y
_atom_site_fract_z
O1 O -0.38587(14) 0.71866(5) -0.17172(10)
O2 O -0.39143(13) 0.63622(5) -0.24845(8)
O3 O 0.43249(12) 0.76467(4) -0.00120(8)
O4 O 0.84733(13) 0.64696(4) 0.29777(8)
N1 N -0.31131(15) 0.67416(5) -0.17956(10)
N2 N 0.25355(15) 0.53658(5) 0.46055(9)
N3 N 0.68581(18) 0.57937(6) -0.01353(10)
N4 N 0.76253(17) 0.45519(5) 0.23365(10)
C1 C -0.11356(16) 0.66675(6) -0.10343(10)
C2 C -0.02990(17) 0.61562(6) -0.10742(11)
H1 H -0.09670 0.58600 -0.15650
C3 C 0.15643(17) 0.60952(6) -0.03634(10)
H2 H 0.21520 0.57500 -0.03650
C4 C 0.25704(16) 0.65463(5) 0.03553(10)
C5 C 0.45571(16) 0.64666(5) 0.11234(10)
C6 C 0.50744(16) 0.58738(5) 0.16568(10)
C7 C 0.44147(16) 0.57262(5) 0.24008(10)
C8 C 0.41146(17) 0.61759(5) 0.29807(10)
H3 H 0.43360 0.65620 0.28690
C9 C 0.35061(17) 0.60609(5) 0.37042(10)
H4 H 0.33540 0.63680 0.40870
C10 C 0.31056(16) 0.54798(5) 0.38772(10)
C11 C 0.22953(19) 0.58387(6) 0.52180(11)
H5 H 0.12630 0.60740 0.47310
H6 H 0.33790 0.60770 0.55510
H7 H 0.20860 0.56760 0.57770
C12 C 0.20318(18) 0.47765(6) 0.47385(11)
H8 H 0.30450 0.45170 0.49270
H9 H 0.09940 0.46500 0.40660
H10 H 0.17230 0.47730 0.53110
C13 C 0.33481(16) 0.50280(5) 0.32661(10)
H11 H 0.30630 0.46440 0.33440
C14 C 0.39975(16) 0.51492(5) 0.25618(10)
H12 H 0.41650 0.48440 0.21830
C15 C 0.60593(17) 0.55141(5) 0.13592(10)
C16 C 0.65047(17) 0.56796(6) 0.05317(11)
C17 C 0.68833(17) 0.49750(6) 0.19062(10)
C18 C 0.58503(16) 0.68772(5) 0.13559(10)
C19 C 0.56865(17) 0.74369(5) 0.07457(10)
C20 C 0.75746(16) 0.76782(5) 0.12276(10)
C21 C 0.88105(17) 0.73256(5) 0.20861(10)
C22 C 0.78289(17) 0.68287(6) 0.22448(10)
C23 C 1.06609(17) 0.74652(6) 0.26760(11)
H13 H 1.14850 0.72290 0.32470
C24 C 1.12395(17) 0.79685(6) 0.23855(11)
H14 H 1.24700 0.80740 0.27710
C25 C 0.99935(18) 0.83206(6) 0.15175(11)
H15 H 1.04150 0.86550 0.13340
C26 C 0.81497(18) 0.81802(6) 0.09275(11)
H16 H 0.73260 0.84140 0.03510
C27 C 0.16719(17) 0.70548(5) 0.03837(10)
H17 H 0.23310 0.73530 0.08720
C28 C -0.01980(17) 0.71175(6) -0.03115(11)
H18 H -0.08080 0.74540 -0.02930
#END
