
#######################################################################
#
#                 Cambridge Crystallographic Data Centre
#                                CCDC
#
#######################################################################
#
# If this CIF has been generated from an entry in the Cambridge
# Structural Database, then it will include bibliographic, chemical,
# crystal, experimental, refinement or atomic coordinate data resulting
# from the CCDC's data processing and validation procedures.
#
#######################################################################

data_CSD_CIF_ABAVAC
_audit_creation_date 2011-11-29
_audit_creation_method CSD-ConQuest-V1
_database_code_CSD ABAVAC
_database_code_depnum_ccdc_archive 'CCDC 850897'
_chemical_formula_sum 'C15 H23 N1 O2'
_chemical_formula_moiety
;
C15 H23 N1 O2
;
_journal_coden_Cambridge 9
_journal_volume 50
_journal_year 2011
_journal_page_first 4515
_journal_name_full 'Inorg.Chem. '
loop_
_publ_author_name
"R.S.Forgan"
"B.D.Roach"
"P.A.Wood"
"F.J.White"
"J.Campbell"
"D.K.Henderson"
"E.Kamenetzky"
"F.E.McAllister"
"S.Parsons"
"E.Pidcock"
"P.Richardson"
"R.M.Swart"
"P.A.Tasker"
_chemical_name_systematic
;
2,4-Di-t-butyl-6-((hydroxyimino)methyl)phenol
;
_cell_volume   1450.102
_exptl_crystal_colour 'colorless'
_exptl_crystal_density_diffrn 1.142
_exptl_crystal_description 'plate'
_exptl_crystal_preparation 'dichloroethane'
_diffrn_ambient_temperature 150
#These two values have been output from a single CSD field.
_refine_ls_R_factor_gt 0.0521
_refine_ls_wR_factor_gt 0.0521
_symmetry_cell_setting monoclinic
_symmetry_space_group_name_H-M 'P 21/n'
_symmetry_Int_Tables_number 14
loop_
_symmetry_equiv_pos_site_id
_symmetry_equiv_pos_as_xyz
1 x,y,z
2 1/2-x,1/2+y,1/2-z
3 -x,-y,-z
4 -1/2+x,-1/2-y,-1/2+z
_cell_length_a 12.1513(3)
_cell_length_b 8.1802(2)
_cell_length_c 15.2351(4)
_cell_angle_alpha 90
_cell_angle_beta 106.752(2)
_cell_angle_gamma 90
_cell_formula_units_Z 4
loop_
_atom_type_symbol
_atom_type_radius_bond
C 0.68
H 0.23
N 0.68
O 0.68
loop_
_atom_site_label
_atom_site_type_symbol
_atom_site_fract_x
_atom_site_fract_y
_atom_site_fract_z
O1 O 0.67111(7) 0.43274(10) 0.04665(6)
H1 H 0.61430 0.48960 0.04850
C1 C 0.8741(1) 0.41255(14) 0.12000(8)
C2 C 0.75923(10) 0.62385(15) 0.16622(8)
N1 N 0.55632(8) 0.65113(13) 0.10503(7)
O2 O 0.45964(8) 0.74040(12) 0.10868(7)
C3 C 0.96513(10) 0.61203(15) 0.24083(8)
C4 C 0.64929(10) 0.70369(16) 0.15992(9)
H2 H 0.64750 0.79590 0.19740
C5 C 0.85814(10) 0.68280(16) 0.22998(8)
H3 H 0.85210 0.77390 0.26700
C6 C 0.7679(1) 0.48954(15) 0.11044(8)
C7 C 0.96908(10) 0.47820(15) 0.18518(8)
H4 H 1.04160 0.42810 0.19210
C8 C 1.07239(10) 0.68012(16) 0.31077(9)
C9 C 1.18084(11) 0.58262(18) 0.31245(10)
H5 H 1.17080 0.46840 0.32800
H6 H 1.24710 0.62940 0.35850
H7 H 1.19390 0.58780 0.25200
C10 C 0.8857(1) 0.26308(15) 0.06248(9)
C11 C 1.05643(12) 0.67282(19) 0.40683(9)
H8 H 1.04540 0.55900 0.42250
H9 H 0.98890 0.73730 0.40800
H10 H 1.12480 0.71750 0.45150
C12 C 0.81008(12) 0.12171(17) 0.07856(10)
H11 H 0.72960 0.15710 0.06190
H12 H 0.83490 0.09020 0.14340
H13 H 0.81760 0.02790 0.04070
C13 C 0.85308(11) 0.30889(18) -0.03963(9)
H14 H 0.77380 0.34920 -0.05910
H15 H 0.85970 0.21220 -0.07580
H16 H 0.90500 0.39440 -0.04910
C14 C 1.09061(12) 0.85840(17) 0.28651(10)
H17 H 1.02210 0.92270 0.28530
H18 H 1.10400 0.86260 0.22610
H19 H 1.15730 0.90370 0.33270
C15 C 1.00997(11) 0.20044(18) 0.08899(11)
H20 H 1.06080 0.28740 0.07960
H21 H 1.01510 0.10610 0.05070
H22 H 1.03330 0.16770 0.15360
H23 H 0.4089(16) 0.696(2) 0.0648(13)
#END
