
#######################################################################
#
#                 Cambridge Crystallographic Data Centre
#                                CCDC
#
#######################################################################
#
# If this CIF has been generated from an entry in the Cambridge
# Structural Database, then it will include bibliographic, chemical,
# crystal, experimental, refinement or atomic coordinate data resulting
# from the CCDC's data processing and validation procedures.
#
#######################################################################

data_CSD_CIF_ABAVEG
_audit_creation_date 2011-11-29
_audit_creation_method CSD-ConQuest-V1
_database_code_CSD ABAVEG
_database_code_depnum_ccdc_archive 'CCDC 850898'
_chemical_formula_sum 'C11 H14 N2 O4'
_chemical_formula_moiety
;
C11 H14 N2 O4
;
_journal_coden_Cambridge 9
_journal_volume 50
_journal_year 2011
_journal_page_first 4515
_journal_name_full 'Inorg.Chem. '
loop_
_publ_author_name
"R.S.Forgan"
"B.D.Roach"
"P.A.Wood"
"F.J.White"
"J.Campbell"
"D.K.Henderson"
"E.Kamenetzky"
"F.E.McAllister"
"S.Parsons"
"E.Pidcock"
"P.Richardson"
"R.M.Swart"
"P.A.Tasker"
_chemical_name_systematic
;
4-t-Butyl-2-((hydroxyimino)methyl)-6-nitrophenol
;
_cell_volume    574.190
_exptl_crystal_colour 'yellow'
_exptl_crystal_density_diffrn 1.378
_exptl_crystal_description 'block'
_exptl_crystal_preparation 'chloroform'
_diffrn_ambient_temperature 150
#These two values have been output from a single CSD field.
_refine_ls_R_factor_gt 0.0436
_refine_ls_wR_factor_gt 0.0436
_symmetry_cell_setting triclinic
_symmetry_space_group_name_H-M 'P -1'
_symmetry_Int_Tables_number 2
loop_
_symmetry_equiv_pos_site_id
_symmetry_equiv_pos_as_xyz
1 x,y,z
2 -x,-y,-z
_cell_length_a 5.9763(2)
_cell_length_b 7.3363(3)
_cell_length_c 13.4872(5)
_cell_angle_alpha 80.545(2)
_cell_angle_beta 80.030(2)
_cell_angle_gamma 86.569(2)
_cell_formula_units_Z 2
loop_
_atom_type_symbol
_atom_type_radius_bond
C 0.68
H 0.23
N 0.68
O 0.68
loop_
_atom_site_label
_atom_site_type_symbol
_atom_site_fract_x
_atom_site_fract_y
_atom_site_fract_z
O1 O 0.70002(15) 0.41295(11) 0.06809(6)
C1 C 0.71209(18) 0.26003(14) 0.13709(8)
C2 C 0.91033(18) 0.14596(14) 0.12455(8)
O2 O 1.42017(15) 0.18986(12) -0.06468(6)
C3 C 0.93153(19) -0.01262(15) 0.19482(8)
H1 H 1.06520 -0.08870 0.18460
C4 C 0.76547(17) -0.06592(14) 0.28000(8)
C5 C 0.57092(18) 0.04580(14) 0.29101(8)
H2 H 0.45340 0.01380 0.34740
C6 C 0.54417(18) 0.20416(14) 0.22102(8)
C7 C 1.08747(19) 0.20153(15) 0.03676(8)
H3 H 1.06100 0.30690 -0.01150
N1 N 1.27631(16) 0.11119(13) 0.02396(7)
C8 C 0.79704(18) -0.24319(15) 0.35417(8)
C9 C 0.7498(2) -0.40855(16) 0.30538(10)
H4 H 0.59330 -0.39800 0.29180
H5 H 0.77030 -0.52340 0.35200
H6 H 0.85550 -0.40990 0.24120
C10 C 1.0406(2) -0.26084(18) 0.37722(10)
H7 H 1.14790 -0.26840 0.31410
H8 H 1.05710 -0.37290 0.42650
H9 H 1.07240 -0.15250 0.40580
C11 C 0.6345(2) -0.24560(18) 0.45554(9)
H10 H 0.65400 -0.13450 0.48440
H11 H 0.66810 -0.35570 0.50320
H12 H 0.47740 -0.24810 0.44390
N2 N 0.33343(16) 0.31313(13) 0.23854(7)
O3 O 0.30755(15) 0.45784(11) 0.17862(7)
O4 O 0.18777(14) 0.25901(12) 0.31142(7)
H13 H 1.527(3) 0.111(2) -0.0640(12)
H14 H 0.577(4) 0.473(3) 0.0870(16)
#END
