
#######################################################################
#
#                 Cambridge Crystallographic Data Centre
#                                CCDC
#
#######################################################################
#
# If this CIF has been generated from an entry in the Cambridge
# Structural Database, then it will include bibliographic, chemical,
# crystal, experimental, refinement or atomic coordinate data resulting
# from the CCDC's data processing and validation procedures.
#
#######################################################################

data_CSD_CIF_ABAWEH
_audit_creation_date 2011-11-29
_audit_creation_method CSD-ConQuest-V1
_database_code_CSD ABAWEH
_database_code_depnum_ccdc_archive 'CCDC 850903'
_chemical_formula_sum 'C15 H22 N2 O4'
_chemical_formula_moiety
;
C15 H22 N2 O4
;
_journal_coden_Cambridge 9
_journal_volume 50
_journal_year 2011
_journal_page_first 4515
_journal_name_full 'Inorg.Chem. '
loop_
_publ_author_name
"R.S.Forgan"
"B.D.Roach"
"P.A.Wood"
"F.J.White"
"J.Campbell"
"D.K.Henderson"
"E.Kamenetzky"
"F.E.McAllister"
"S.Parsons"
"E.Pidcock"
"P.Richardson"
"R.M.Swart"
"P.A.Tasker"
_chemical_name_systematic
;
2-((Hydroxyimino)methyl)-6-nitro-4-(2,4,4-trimethylpentan-2-yl)phenol
;
_cell_volume    775.119
_exptl_crystal_colour 'yellow'
_exptl_crystal_density_diffrn 1.261
_exptl_crystal_description 'block'
_exptl_crystal_preparation 'chloroform'
_diffrn_ambient_temperature 150
_diffrn_special_details
;
twin

;
#These two values have been output from a single CSD field.
_refine_ls_R_factor_gt 0.0505
_refine_ls_wR_factor_gt 0.0505
_symmetry_cell_setting triclinic
_symmetry_space_group_name_H-M 'P -1'
_symmetry_Int_Tables_number 2
loop_
_symmetry_equiv_pos_site_id
_symmetry_equiv_pos_as_xyz
1 x,y,z
2 -x,-y,-z
_cell_length_a 7.0554(6)
_cell_length_b 13.7741(13)
_cell_length_c 8.3130(5)
_cell_angle_alpha 91.144(6)
_cell_angle_beta 106.331(6)
_cell_angle_gamma 89.509(7)
_cell_formula_units_Z 2
loop_
_atom_type_symbol
_atom_type_radius_bond
C 0.68
H 0.23
N 0.68
O 0.68
loop_
_atom_site_label
_atom_site_type_symbol
_atom_site_fract_x
_atom_site_fract_y
_atom_site_fract_z
O1 O 1.38223(19) 0.03852(10) 0.67639(16)
H1 H 1.427(4) 0.060(2) 0.780(3)
C1 C 1.2289(2) 0.09923(13) 0.6224(2)
O2 O 1.1803(2) -0.06403(10) 0.11476(17)
H2 H 1.109(3) -0.0653(18) 0.009(3)
C2 C 1.1180(2) 0.09135(13) 0.45203(19)
N1 N 1.0959(2) 0.01128(11) 0.18969(17)
C3 C 0.9551(2) 0.15080(13) 0.3926(2)
H3 H 0.87890 0.14250 0.27920
C4 C 0.8968(2) 0.22240(13) 0.4905(2)
C5 C 1.0081(3) 0.23098(13) 0.6562(2)
H4 H 0.97450 0.27910 0.72710
C6 C 1.1688(2) 0.16986(13) 0.72030(19)
C7 C 1.1805(2) 0.01855(13) 0.3464(2)
H5 H 1.28640 -0.02410 0.39590
C8 C 0.7090(3) 0.28288(13) 0.4196(2)
C9 C 0.5343(3) 0.21496(16) 0.4145(3)
H6 H 0.53450 0.16020 0.33750
H7 H 0.40990 0.25100 0.37570
H8 H 0.54750 0.19060 0.52710
C10 C 0.6963(3) 0.37019(16) 0.5342(2)
H9 H 0.68470 0.34690 0.64170
H10 H 0.58030 0.40970 0.48070
H11 H 0.81580 0.40960 0.55340
C11 C 0.6829(3) 0.31461(14) 0.2369(2)
H12 H 0.69080 0.25470 0.17110
H13 H 0.54600 0.33920 0.19470
C12 C 0.8174(3) 0.39012(15) 0.1886(2)
C13 C 1.0379(3) 0.37383(16) 0.2724(2)
H14 H 1.11480 0.42190 0.23230
H15 H 1.07540 0.30840 0.24420
H16 H 1.06450 0.38080 0.39430
C14 C 0.7616(4) 0.49438(16) 0.2250(3)
H17 H 0.79430 0.50560 0.34650
H18 H 0.61950 0.50410 0.17520
H19 H 0.83510 0.54010 0.17660
C15 C 0.7816(4) 0.37790(18) -0.0017(2)
H20 H 0.63980 0.38300 -0.05770
H21 H 0.82990 0.31410 -0.02680
H22 H 0.85210 0.42880 -0.04190
N2 N 1.2722(2) 0.18023(13) 0.89864(18)
O3 O 1.4144(2) 0.12601(12) 0.95989(16)
O4 O 1.2155(2) 0.24145(13) 0.98261(17)
#END
