
#######################################################################
#
#                 Cambridge Crystallographic Data Centre
#                                CCDC
#
#######################################################################
#
# If this CIF has been generated from an entry in the Cambridge
# Structural Database, then it will include bibliographic, chemical,
# crystal, experimental, refinement or atomic coordinate data resulting
# from the CCDC's data processing and validation procedures.
#
#######################################################################

data_CSD_CIF_ABEKUO
_audit_creation_date 2004-11-10
_audit_creation_method CSD-ConQuest-V1
_database_code_CSD ABEKUO
_database_code_depnum_ccdc_archive 'CCDC 251730'
_chemical_formula_sum 'C16 H15 N3 O3'
_chemical_formula_moiety
;
C16 H15 N3 O3
;
_journal_coeditor_code "IUCr LH6263"
_journal_coden_Cambridge 1370
_journal_volume 60
_journal_year 2004
_journal_page_first o1560
_journal_name_full 'Acta Crystallogr.,Sect.E:Struct.Rep.Online '
loop_
_publ_author_name
"C.Glidewell"
"J.N.Low"
"J.M.S.Skakle"
"J.L.Wardell"
_chemical_name_systematic
;
(E)-((2-(Phenyldiazenyl)phenyl)ethylideneaminooxy)acetic acid
;
_chemical_melting_point 420
_cell_volume   1449.522
_exptl_crystal_colour 'colorless'
_exptl_crystal_density_diffrn 1.362
_exptl_special_details
;
Melting point range 420-421K

;
_exptl_crystal_description 'block'
_exptl_crystal_preparation 'ethanol'
_diffrn_ambient_temperature 120
#These two values have been output from a single CSD field.
_refine_ls_R_factor_gt 0.0687
_refine_ls_wR_factor_gt 0.0687
_symmetry_cell_setting monoclinic
_symmetry_space_group_name_H-M 'P 2/c'
_symmetry_Int_Tables_number 13
loop_
_symmetry_equiv_pos_site_id
_symmetry_equiv_pos_as_xyz
1 x,y,z
2 x,-y,1/2+z
3 -x,-y,-z
4 -x,y,-1/2-z
_cell_length_a 16.927(2)
_cell_length_b 4.5244(5)
_cell_length_c 19.673(2)
_cell_angle_alpha 90
_cell_angle_beta 105.828(5)
_cell_angle_gamma 90
_cell_formula_units_Z 4
loop_
_atom_type_symbol
_atom_type_radius_bond
C 0.68
H 0.23
N 0.68
O 0.68
loop_
_atom_site_label
_atom_site_type_symbol
_atom_site_fract_x
_atom_site_fract_y
_atom_site_fract_z
O1 O 0.46906(14) 0.7971(5) 0.54731(11)
O2 O 0.55689(14) 0.4231(6) 0.58201(11)
O3 O 0.57470(13) 0.5937(6) 0.72230(11)
N1 N 0.66025(15) 0.5730(7) 0.73040(13)
N2 N 0.80586(15) 0.6485(6) 0.90340(12)
N3 N 0.85988(16) 0.7732(6) 0.95175(13)
C1 C 0.52388(19) 0.6478(8) 0.59434(16)
C2 C 0.5416(2) 0.7907(8) 0.66556(16)
C3 C 0.69242(19) 0.4093(7) 0.78678(15)
C4 C 0.6478(2) 0.2676(8) 0.83366(17)
C5 C 0.78107(19) 0.3522(7) 0.79952(15)
C6 C 0.83809(18) 0.4609(7) 0.85880(14)
C7 C 0.9206(2) 0.3874(8) 0.87194(17)
C8 C 0.9458(2) 0.2030(8) 0.82658(17)
C9 C 0.8899(2) 0.0953(8) 0.76677(17)
C10 C 0.8080(2) 0.1681(8) 0.75322(16)
C11 C 0.82756(19) 0.9473(7) 0.99800(14)
C12 C 0.8830(2) 1.1286(7) 1.04418(15)
C13 C 0.8578(2) 1.2983(8) 1.09284(16)
C14 C 0.7775(2) 1.2874(8) 1.09551(16)
C15 C 0.7221(2) 1.1054(8) 1.04992(17)
C16 C 0.7466(2) 0.9344(7) 1.00096(16)
H1 H 0.46170 0.71840 0.50850
H2 H 0.58010 0.95150 0.66760
H3 H 0.49120 0.87480 0.67150
H4 H 0.58980 0.29780 0.81450
H5 H 0.66530 0.35400 0.87990
H6 H 0.65930 0.05950 0.83680
H7 H 0.95870 0.46310 0.91150
H8 H 1.00090 0.15020 0.83620
H9 H 0.90760 -0.02620 0.73570
H10 H 0.77050 0.09440 0.71310
H11 H 0.93730 1.13640 1.04250
H12 H 0.89520 1.42010 1.12380
H13 H 0.76050 1.40270 1.12810
H14 H 0.66790 1.09760 1.05210
H15 H 0.70910 0.81180 0.97030
#END
