
#######################################################################
#
#                 Cambridge Crystallographic Data Centre
#                                CCDC
#
#######################################################################
#
# If this CIF has been generated from an entry in the Cambridge
# Structural Database, then it will include bibliographic, chemical,
# crystal, experimental, refinement or atomic coordinate data resulting
# from the CCDC's data processing and validation procedures.
#
#######################################################################

data_CSD_CIF_ABELID
_audit_creation_date 2004-11-10
_audit_creation_method CSD-ConQuest-V1
_database_code_CSD ABELID
_database_code_depnum_ccdc_archive 'CCDC 251733'
_chemical_formula_sum 'C16 H12 N2 O3'
_chemical_formula_moiety
;
C16 H12 N2 O3
;
_journal_coeditor_code "IUCr LH6259"
_journal_coden_Cambridge 1370
_journal_volume 60
_journal_year 2004
_journal_page_first o1568
_journal_name_full 'Acta Crystallogr.,Sect.E:Struct.Rep.Online '
loop_
_publ_author_name
"G.B.Riddle"
"D.A.Grossie"
"K.Turnbull"
_chemical_name_systematic
;
4-Hydroxy-4-benzylsydno(3,4-a)indole
;
_chemical_name_common
;
9-Benzyl-1,9-dihydroxy-9H-indolo(1,2-c)(1,2,3)oxadiazole
;
_chemical_melting_point 426
_cell_volume   1347.116
_exptl_crystal_colour 'colorless'
_exptl_crystal_density_diffrn 1.382
_exptl_crystal_description 'rectangular block'
_diffrn_ambient_temperature 298
#These two values have been output from a single CSD field.
_refine_ls_R_factor_gt 0.0454
_refine_ls_wR_factor_gt 0.0454
_symmetry_cell_setting triclinic
_symmetry_space_group_name_H-M 'P -1'
_symmetry_Int_Tables_number 2
loop_
_symmetry_equiv_pos_site_id
_symmetry_equiv_pos_as_xyz
1 x,y,z
2 -x,-y,-z
_cell_length_a 9.502(3)
_cell_length_b 11.906(3)
_cell_length_c 13.676(3)
_cell_angle_alpha 105.712(17)
_cell_angle_beta 108.29(2)
_cell_angle_gamma 101.13(2)
_cell_formula_units_Z 4
loop_
_atom_type_symbol
_atom_type_radius_bond
C 0.68
H 0.23
N 0.68
O 0.68
loop_
_atom_site_label
_atom_site_type_symbol
_atom_site_fract_x
_atom_site_fract_y
_atom_site_fract_z
O1 O 0.06381(11) 0.91184(9) 0.23631(7)
O2 O 0.38874(11) 1.02465(9) 0.58549(8)
H1 H 0.46990 1.01640 0.62250
N1 N 0.04449(12) 0.87778(9) 0.37416(8)
O3 O 0.32522(12) 0.97072(11) 0.28399(8)
C1 C 0.25884(15) 0.68517(12) 0.41996(11)
C2 C 0.19893(14) 0.91401(11) 0.40119(10)
C3 C 0.21751(15) 0.93699(12) 0.31043(10)
C4 C 0.14545(15) 0.87376(11) 0.54491(10)
N2 N -0.04404(14) 0.87417(12) 0.27835(9)
C5 C 0.36584(15) 0.80779(13) 0.50322(11)
H2 H 0.45230 0.83280 0.48260
H3 H 0.40770 0.79990 0.57460
C6 C 0.28376(14) 0.90847(11) 0.51301(10)
C7 C 0.00500(15) 0.85209(11) 0.46019(10)
C8 C 0.14229(18) 0.86358(13) 0.64249(12)
H4 H 0.23390 0.87820 0.70160
C9 C -0.13872(17) 0.81907(13) 0.46460(13)
H5 H -0.23020 0.80500 0.40560
C10 C 0.17663(18) 0.60081(14) 0.44962(13)
H6 H 0.19080 0.61810 0.52320
C11 C 0.23467(19) 0.65548(14) 0.30891(12)
H7 H 0.29000 0.71060 0.28730
C12 C -0.0013(2) 0.83097(14) 0.65003(13)
H8 H -0.00520 0.82430 0.71540
C13 C -0.1384(2) 0.80816(13) 0.56291(14)
H9 H -0.23260 0.78500 0.57040
C14 C 0.1313(2) 0.54699(16) 0.23084(14)
H10 H 0.11630 0.52950 0.15710
C15 C 0.0734(2) 0.49084(15) 0.37131(18)
H11 H 0.01940 0.43460 0.39270
C16 C 0.0497(2) 0.46379(16) 0.26182(17)
H12 H -0.02080 0.39010 0.20930
N3 N 0.78504(12) 0.72564(10) 0.03365(8)
O4 O 0.72381(11) 0.99693(9) 0.06274(8)
H13 H 0.80270 1.03420 0.05880
O5 O 0.98113(12) 0.72160(11) -0.00281(9)
C17 C 0.67248(14) 0.87303(11) -0.00974(10)
C18 C 0.58262(14) 0.79513(11) 0.03645(10)
C19 C 0.52104(15) 0.73598(12) -0.21101(10)
C20 C 0.57398(16) 0.86318(12) -0.12691(11)
H14 H 0.48330 0.88860 -0.12570
H15 H 0.63470 0.91920 -0.14920
C21 C 0.65269(15) 0.70994(12) 0.06281(10)
O6 O 0.99882(13) 0.87069(11) -0.07826(10)
C22 C 0.80143(14) 0.81551(12) -0.00627(10)
C23 C 0.61095(17) 0.70102(15) -0.26917(11)
H16 H 0.70140 0.75800 -0.25870
N4 N 0.88544(15) 0.66495(13) 0.03915(11)
C24 C 0.93047(16) 0.81594(14) -0.03500(12)
C25 C 0.44961(16) 0.80003(14) 0.05550(12)
H17 H 0.39950 0.85630 0.03880
C26 C 0.38509(16) 0.64930(14) -0.23059(11)
H18 H 0.32160 0.67090 -0.19370
C27 C 0.59983(19) 0.62972(14) 0.10828(12)
H19 H 0.65120 0.57440 0.12580
C28 C 0.5683(2) 0.58295(17) -0.34242(13)
H20 H 0.63050 0.56080 -0.38020
C29 C 0.3427(2) 0.53138(15) -0.30412(13)
H21 H 0.25150 0.47400 -0.31620
C30 C 0.3922(2) 0.71922(17) 0.10006(14)
H22 H 0.30180 0.72100 0.11250
C31 C 0.4663(2) 0.63578(16) 0.12644(14)
H23 H 0.42540 0.58310 0.15680
C32 C 0.4351(2) 0.49881(16) -0.35943(14)
H24 H 0.40680 0.41920 -0.40860
#END
