
#######################################################################
#
#                 Cambridge Crystallographic Data Centre
#                                CCDC
#
#######################################################################
#
# If this CIF has been generated from an entry in the Cambridge
# Structural Database, then it will include bibliographic, chemical,
# crystal, experimental, refinement or atomic coordinate data resulting
# from the CCDC's data processing and validation procedures.
#
#######################################################################

data_CSD_CIF_ABENUQ
_audit_creation_date 2001-10-17
_audit_creation_method CSD-ConQuest-V1
_database_code_CSD ABENUQ
_chemical_formula_sum 'C8 H11 N3 O6'
_chemical_formula_moiety
;
C8 H11 N3 O6
;
_journal_coden_Cambridge 653
_journal_volume 18
_journal_year 1999
_journal_page_first 1995
_journal_name_full 'Nucleos.Nucleot. '
loop_
_publ_author_name
"H.C.Lee"
"P.Kumar"
"L.I.Wiebe"
"R.McDonald"
"J.R.Mercer"
"K.Ohkura"
"K.Seki"
_chemical_name_systematic
;
1-(2-deoxy-\a-D-arabinofuranosyl)-2-nitro-imidazole
;
_chemical_name_common
;
azomycin arabinoside
;
_chemical_melting_point 428.15
_cell_volume    520.535
_exptl_crystal_colour 'colorless'
_exptl_crystal_density_diffrn 1.563
_exptl_special_details
;
Melting point range 428.15-429.15K
The space group appears to be P21 not P21/a
;
_exptl_crystal_description 'prism'
_exptl_crystal_preparation 'ethanol'
_diffrn_ambient_temperature ?
_diffrn_special_details
;
The study was carried out at room temperature,in the range 283-303K

;
#These two values have been output from a single CSD field.
_refine_ls_R_factor_gt 0.0319
_refine_ls_wR_factor_gt 0.0319
_symmetry_cell_setting monoclinic
_symmetry_space_group_name_H-M 'P 21'
_symmetry_Int_Tables_number 4
loop_
_symmetry_equiv_pos_site_id
_symmetry_equiv_pos_as_xyz
1 x,y,z
2 -x,1/2+y,-z
_cell_length_a 10.012(3)
_cell_length_b 7.186(2)
_cell_length_c 7.453(3)
_cell_angle_alpha 90
_cell_angle_beta 103.89(3)
_cell_angle_gamma 90
_cell_formula_units_Z 2
loop_
_atom_type_symbol
_atom_type_radius_bond
C 0.68
H 0.23
N 0.68
O 0.68
loop_
_atom_site_label
_atom_site_type_symbol
_atom_site_fract_x
_atom_site_fract_y
_atom_site_fract_z
O1 O 0.88972(4) 0.19700 0.75352(6)
O2 O 0.94902(5) -0.00869(10) 0.41313(7)
O3 O 0.80371(6) -0.19819(11) 0.77847(7)
O4 O 1.17170(5) 0.25203(10) 0.85901(7)
O5 O 0.66043(5) 0.17613(14) 0.21222(6)
O6 O 0.44039(5) 0.14129(17) 0.14005(7)
N1 N 0.66138(5) 0.16765(13) 0.58367(6)
N2 N 0.43130(5) 0.16297(15) 0.49749(7)
N3 N 0.54954(6) 0.16143(15) 0.25097(7)
C1 C 0.80866(6) 0.16224(17) 0.57529(8)
C2 C 0.84866(6) -0.03035(17) 0.51591(8)
C3 C 0.90999(7) -0.12385(17) 0.70328(9)
C4 C 0.97589(6) 0.03855(16) 0.82135(9)
C5 C 1.12247(7) 0.07067(17) 0.80501(11)
C6 C 0.54692(6) 0.16427(18) 0.44426(8)
C7 C 0.47369(6) 0.16684(19) 0.68684(9)
C8 C 0.61407(6) 0.16889(19) 0.74076(8)
H1 H 0.8234(6) 0.2636(10) 0.4836(8)
H2 H 0.7732(6) -0.0935(10) 0.4478(8)
H3 H 0.9177(9) -0.0675(16) 0.3202(13)
H4 H 0.9732(6) -0.2123(10) 0.6800(8)
H5 H 0.7484(9) -0.2461(14) 0.7160(12)
H6 H 0.9799(7) 0.0230(12) 0.9413(9)
H7 H 1.1787(8) 0.2717(14) 0.9729(11)
H8 H 1.1274(7) 0.0585(12) 0.6747(10)
H9 H 1.1774(8) -0.0376(13) 0.8662(11)
H10 H 0.4063(7) 0.1767(14) 0.7627(10)
H11 H 0.6735(6) 0.1635(12) 0.8498(9)
#END
