
#######################################################################
#
#                 Cambridge Crystallographic Data Centre
#                                CCDC
#
#######################################################################
#
# If this CIF has been generated from an entry in the Cambridge
# Structural Database, then it will include bibliographic, chemical,
# crystal, experimental, refinement or atomic coordinate data resulting
# from the CCDC's data processing and validation procedures.
#
#######################################################################

data_CSD_CIF_ABEPON
_audit_creation_date 2004-11-10
_audit_creation_method CSD-ConQuest-V1
_database_code_CSD ABEPON
_database_code_depnum_ccdc_archive 'CCDC 251749'
_chemical_formula_sum 'C15 H13 N3 O4'
_chemical_formula_moiety
;
C15 H13 N3 O4
;
_journal_coeditor_code "IUCr HG6074"
_journal_coden_Cambridge 1370
_journal_volume 60
_journal_year 2004
_journal_page_first o1613
_journal_name_full 'Acta Crystallogr.,Sect.E:Struct.Rep.Online '
loop_
_publ_author_name
"E.Asker"
"J.Masnovi"
_chemical_name_systematic
;
9-Ethyl-3-methyl-1,6-dinitrocarbazole
;
_chemical_melting_point 429
_cell_volume    689.091
_exptl_crystal_colour 'yellow'
_exptl_crystal_density_diffrn 1.442
_exptl_crystal_description 'needle'
_exptl_crystal_preparation 'dichloromethane'
_diffrn_ambient_temperature 293
#These two values have been output from a single CSD field.
_refine_ls_R_factor_gt 0.0422
_refine_ls_wR_factor_gt 0.0422
_symmetry_cell_setting triclinic
_symmetry_space_group_name_H-M 'P -1'
_symmetry_Int_Tables_number 2
loop_
_symmetry_equiv_pos_site_id
_symmetry_equiv_pos_as_xyz
1 x,y,z
2 -x,-y,-z
_cell_length_a 6.7094(4)
_cell_length_b 8.8147(6)
_cell_length_c 12.2004(9)
_cell_angle_alpha 72.908(6)
_cell_angle_beta 87.720(6)
_cell_angle_gamma 88.718(6)
_cell_formula_units_Z 2
loop_
_atom_type_symbol
_atom_type_radius_bond
C 0.68
H 0.23
N 0.68
O 0.68
loop_
_atom_site_label
_atom_site_type_symbol
_atom_site_fract_x
_atom_site_fract_y
_atom_site_fract_z
O1 O 0.6810(3) 0.2723(2) 0.08878(15)
O2 O 0.8095(3) 0.1447(2) -0.02367(16)
O3 O -0.4115(3) -0.1958(2) 0.54203(16)
O4 O -0.2239(3) -0.3960(2) 0.54437(17)
N1 N 0.7038(3) 0.1512(3) 0.05920(16)
N2 N -0.2610(3) -0.2535(2) 0.51102(16)
N3 N 0.2828(3) 0.11477(19) 0.19406(14)
C1 C 0.6113(3) 0.0053(2) 0.13046(17)
C2 C 0.7224(3) -0.1326(3) 0.14370(19)
H1 H 0.84010 -0.12860 0.10000
C3 C 0.6650(3) -0.2765(3) 0.2196(2)
C4 C 0.4884(3) -0.2814(2) 0.28391(19)
H2 H 0.44720 -0.37640 0.33600
C5 C 0.3738(3) -0.1452(2) 0.27068(17)
C6 C 0.1846(3) -0.1191(2) 0.32324(17)
C7 C 0.0552(3) -0.2172(2) 0.40242(17)
H3 H 0.08530 -0.32400 0.43550
C8 C -0.1196(3) -0.1510(2) 0.43046(17)
C9 C -0.1698(3) 0.0091(3) 0.38410(18)
H4 H -0.28880 0.04910 0.40670
C10 C -0.0423(3) 0.1072(2) 0.30493(18)
H5 H -0.07340 0.21410 0.27300
C11 C 0.1347(3) 0.0423(2) 0.27372(17)
C12 C 0.4304(3) 0.0021(2) 0.19297(17)
C13 C 0.2544(4) 0.2749(3) 0.1143(2)
H6 H 0.11790 0.28640 0.08950
H7 H 0.34150 0.28680 0.04700
C14 C 0.2973(4) 0.4046(3) 0.1671(2)
H8 H 0.27520 0.50610 0.11210
H9 H 0.43350 0.39610 0.18960
H10 H 0.21040 0.39430 0.23330
C15 C 0.7964(4) -0.4229(3) 0.2344(2)
H11 H 0.73460 -0.51160 0.28980
H12 H 0.92410 -0.40430 0.26060
H13 H 0.81370 -0.44550 0.16230
H14? H 0.91360 -0.39600 0.18530
H15? H 0.72420 -0.50330 0.21450
H16? H 0.83460 -0.46210 0.31280
#END
