
#######################################################################
#
#                 Cambridge Crystallographic Data Centre
#                                CCDC
#
#######################################################################
#
# If this CIF has been generated from an entry in the Cambridge
# Structural Database, then it will include bibliographic, chemical,
# crystal, experimental, refinement or atomic coordinate data resulting
# from the CCDC's data processing and validation procedures.
#
#######################################################################

data_CSD_CIF_ABICUJ
_audit_creation_date 2001-10-17
_audit_creation_method CSD-ConQuest-V1
_database_code_CSD ABICUJ
_chemical_formula_sum 'C28 H24 N4 O13'
_chemical_formula_moiety
;
C28 H24 N4 O13
;
_journal_coden_Cambridge 1336
_journal_volume 2
_journal_year 2000
_journal_page_first 1379
_journal_name_full 'Org.Lett. '
loop_
_publ_author_name
"Zhi-Hui Peng"
"K.A.Woerpel"
_chemical_name_systematic
;
2-((3,5-Dinitrobenzoyl)oxymethyl)-4-methyl-5-(2-phenylethyl)oxolan-3-yl 
3,5-dinitrobenzoate
;
_cell_volume   1388.837
_exptl_crystal_colour 'colorless'
_exptl_crystal_density_diffrn 1.493
_diffrn_ambient_temperature 163
#These two values have been output from a single CSD field.
_refine_ls_R_factor_gt 0.0544
_refine_ls_wR_factor_gt 0.0544
_symmetry_cell_setting triclinic
_symmetry_space_group_name_H-M 'P -1'
_symmetry_Int_Tables_number 2
loop_
_symmetry_equiv_pos_site_id
_symmetry_equiv_pos_as_xyz
1 x,y,z
2 -x,-y,-z
_cell_length_a 11.5924(8)
_cell_length_b 11.7511(8)
_cell_length_c 12.3782(9)
_cell_angle_alpha 72.971(1)
_cell_angle_beta 66.037(1)
_cell_angle_gamma 65.761(1)
_cell_formula_units_Z 2
loop_
_atom_type_symbol
_atom_type_radius_bond
C 0.68
H 0.23
N 0.68
O 0.68
loop_
_atom_site_label
_atom_site_type_symbol
_atom_site_fract_x
_atom_site_fract_y
_atom_site_fract_z
O1 O 1.0820(2) 0.3133(2) 0.5168(1)
O2 O 0.7316(2) 0.4316(2) 0.6787(1)
O3 O 0.6622(2) 0.3295(2) 0.8647(1)
O4 O 0.1893(2) 0.5131(2) 1.1061(2)
O5 O 0.0882(2) 0.7128(2) 1.0568(2)
O6 O 0.2161(2) 0.8619(2) 0.6234(2)
O7 O 0.4290(2) 0.8038(2) 0.5242(2)
O8 O 0.8762(2) 0.4375(2) 0.3502(1)
O9 O 0.6601(2) 0.4570(2) 0.4568(1)
O10 O 0.3225(2) 0.8234(2) 0.3178(2)
O11 O 0.3811(2) 0.9427(2) 0.1486(2)
O12 O 0.8530(2) 0.8376(2) -0.0971(2)
O13 O 0.9760(2) 0.6423(2) -0.0672(2)
N1 N 0.1787(2) 0.6125(2) 1.0358(2)
N2 N 0.3320(2) 0.7952(2) 0.6132(2)
N3 N 0.4063(2) 0.8523(2) 0.2248(2)
N4 N 0.8746(2) 0.7325(2) -0.0369(2)
C1 C 0.9431(2) 0.3734(2) 0.5292(2)
C2 C 0.9215(2) 0.3291(2) 0.4359(2)
C3 C 1.0603(2) 0.2468(2) 0.3687(2)
C4 C 1.1514(2) 0.2920(2) 0.3945(2)
C5 C 0.8657(2) 0.3378(3) 0.6593(2)
C6 C 0.6410(2) 0.4145(2) 0.7852(2)
C7 C 0.5074(2) 0.5158(2) 0.7956(2)
C8 C 0.4068(2) 0.5171(2) 0.9049(2)
C9 C 0.2846(2) 0.6105(2) 0.9174(2)
C10 C 0.2554(3) 0.7041(2) 0.8244(2)
C11 C 0.3577(2) 0.6986(2) 0.7158(2)
C12 C 0.4832(2) 0.6070(2) 0.6987(2)
C13 C 0.7447(2) 0.4902(2) 0.3708(2)
C14 C 0.7120(2) 0.5951(2) 0.2734(2)
C15 C 0.5786(2) 0.6719(2) 0.2929(2)
C16 C 0.5470(2) 0.7702(2) 0.2040(2)
C17 C 0.6417(3) 0.7949(2) 0.0959(2)
C18 C 0.7715(2) 0.7125(2) 0.0785(2)
C19 C 0.8103(3) 0.6147(2) 0.1649(2)
C20 C 1.0783(3) 0.1078(3) 0.4151(3)
C21 C 1.2929(2) 0.2038(3) 0.3813(2)
C22 C 1.3727(3) 0.1860(3) 0.2507(2)
C23 C 1.5195(2) 0.1057(2) 0.2244(2)
C24 C 1.5694(3) 0.0138(2) 0.3097(2)
C25 C 1.7044(3) -0.0579(3) 0.2809(3)
C26 C 1.7922(3) -0.0379(3) 0.1654(3)
C27 C 1.7430(3) 0.0519(3) 0.0803(3)
C28 C 1.6079(3) 0.1230(3) 0.1095(2)
H1 H 0.918(2) 0.469(2) 0.5117(19)
H2 H 0.860(2) 0.284(2) 0.4693(18)
H3 H 1.071(2) 0.266(2) 0.285(2)
H4 H 1.156(2) 0.372(2) 0.344(2)
H5 H 0.862(2) 0.251(3) 0.673(2)
H6 H 0.910(2) 0.343(2) 0.708(2)
H7 H 0.420(2) 0.464(2) 0.964(2)
H8 H 0.173(3) 0.770(2) 0.835(2)
H9 H 0.545(2) 0.604(2) 0.627(2)
H10 H 0.512(3) 0.659(3) 0.366(2)
H11 H 0.619(2) 0.861(2) 0.039(2)
H12 H 0.899(2) 0.564(2) 0.1496(18)
H13 H 1.169(3) 0.049(3) 0.375(2)
H14 H 1.006(3) 0.084(3) 0.409(2)
H15 H 1.062(3) 0.093(2) 0.501(2)
H16 H 1.292(2) 0.123(2) 0.430(2)
H17 H 1.332(2) 0.239(2) 0.409(2)
H18 H 1.329(3) 0.147(3) 0.222(2)
H19 H 1.368(3) 0.265(3) 0.199(2)
H20 H 1.507(3) -0.001(2) 0.393(2)
H21 H 1.739(3) -0.118(2) 0.339(2)
H22 H 1.885(3) -0.082(3) 0.147(2)
H23 H 1.800(3) 0.066(2) -0.001(2)
H24 H 1.581(2) 0.184(2) 0.050(2)
#END
