
#######################################################################
#
#                 Cambridge Crystallographic Data Centre
#                                CCDC
#
#######################################################################
#
# If this CIF has been generated from an entry in the Cambridge
# Structural Database, then it will include bibliographic, chemical,
# crystal, experimental, refinement or atomic coordinate data resulting
# from the CCDC's data processing and validation procedures.
#
#######################################################################

data_CSD_CIF_ABIGUQ
_audit_creation_date 2016-11-23
_audit_creation_method CSD-ConQuest-V1
_database_code_CSD ABIGUQ
_database_code_depnum_ccdc_archive 'CCDC 1444086'
_chemical_formula_sum 'C12 H11 N3 O7'
_chemical_formula_moiety
;
C12 H11 N3 O7
;
_journal_coden_Cambridge 1441
_journal_volume 9
_journal_year 2017
_journal_page_first 179
_journal_name_full 'Nature Chemistry '
loop_
_publ_author_name
"G.Storch"
"O.Trapp"
_chemical_name_systematic
;
methyl 2-((3,5-dinitrobenzoyl)amino)but-2-enoate
;
_cell_volume   5453.548
_exptl_crystal_colour 'colorless'
_exptl_crystal_density_diffrn 1.507
_exptl_crystal_description 'plate'
_diffrn_ambient_temperature 200
#These two values have been output from a single CSD field.
_refine_ls_R_factor_gt 0.1187
_refine_ls_wR_factor_gt 0.1187
_symmetry_cell_setting orthorhombic
_symmetry_space_group_name_H-M 'P n a 21'
_symmetry_Int_Tables_number 33
loop_
_symmetry_equiv_pos_site_id
_symmetry_equiv_pos_as_xyz
1 x,y,z
2 -x,-y,1/2+z
3 1/2+x,1/2-y,z
4 1/2-x,1/2+y,1/2+z
_cell_length_a 13.390(3)
_cell_length_b 46.606(9)
_cell_length_c 8.7389(17)
_cell_angle_alpha 90
_cell_angle_beta 90
_cell_angle_gamma 90
_cell_formula_units_Z 16
loop_
_atom_type_symbol
_atom_type_radius_bond
C 0.68
H 0.23
N 0.68
O 0.68
loop_
_atom_site_label
_atom_site_type_symbol
_atom_site_fract_x
_atom_site_fract_y
_atom_site_fract_z
C1 C 0.1800(9) 0.5341(2) -0.0152(17)
O1 O 0.1043(8) 0.5271(2) -0.0856(13)
N1 N 0.1951(9) 0.5607(2) 0.0371(14)
H1 H 0.24980 0.56530 0.08700
C2 C 0.1192(10) 0.5813(3) 0.0088(15)
C3 C 0.0788(13) 0.5968(4) 0.1211(17)
H2 H 0.03380 0.61160 0.09130
C4 C 0.0970(13) 0.5935(4) 0.2882(17)
H3 H 0.05760 0.60770 0.34440
H4 H 0.07720 0.57420 0.32030
H5 H 0.16810 0.59640 0.30980
C5 C 0.0941(10) 0.5855(3) -0.1549(15)
O2 O 0.1498(8) 0.5815(2) -0.2611(12)
O3 O 0.0012(8) 0.5954(2) -0.1675(13)
C6 C -0.0324(14) 0.6026(5) -0.3239(19)
H6 H -0.10130 0.60960 -0.32030
H7 H 0.01100 0.61760 -0.36630
H8 H -0.02900 0.58550 -0.38860
C7 C 0.2593(9) 0.5120(3) 0.0145(19)
C8 C 0.3499(9) 0.5175(3) 0.0827(17)
H9 H 0.36810 0.53650 0.11000
C9 C 0.414(1) 0.4948(3) 0.1107(18)
C10 C 0.3916(10) 0.4667(3) 0.0829(19)
H10 H 0.43620 0.45150 0.10780
C11 C 0.2992(10) 0.4618(2) 0.0161(18)
C12 C 0.2324(11) 0.4833(3) -0.016(2)
H11 H 0.16900 0.47890 -0.05900
N2 N 0.5112(10) 0.5024(3) 0.1815(17)
O4 O 0.5456(8) 0.5263(3) 0.1610(15)
O5 O 0.5539(9) 0.4836(3) 0.2547(15)
N3 N 0.2702(9) 0.4320(2) -0.0181(15)
O6 O 0.3189(10) 0.4130(2) 0.0441(17)
O7 O 0.1978(11) 0.4277(3) -0.0990(19)
C13 C 0.3207(10) 0.5333(3) 0.4848(17)
O8 O 0.3951(8) 0.5263(2) 0.4124(13)
N4 N 0.3094(8) 0.5598(2) 0.5406(15)
H12 H 0.25600 0.56430 0.59400
C14 C 0.3854(10) 0.5806(3) 0.5122(14)
C15 C 0.4285(13) 0.5959(4) 0.6240(16)
H13 H 0.47350 0.61060 0.59470
C16 C 0.4112(11) 0.5915(4) 0.7896(16)
H14 H 0.45120 0.60530 0.84800
H15 H 0.34030 0.59430 0.81270
H16 H 0.43070 0.57190 0.81790
C17 C 0.4105(10) 0.5851(3) 0.3492(14)
O9 O 0.3549(8) 0.5819(2) 0.2445(12)
O10 O 0.5047(8) 0.5936(2) 0.3343(13)
C18 C 0.5384(14) 0.5985(5) 0.1775(18)
H17 H 0.60840 0.60460 0.17850
H18 H 0.53210 0.58070 0.11860
H19 H 0.49730 0.61350 0.13030
C19 C 0.2416(9) 0.5114(3) 0.5184(19)
C20 C 0.1491(9) 0.5170(3) 0.5812(18)
H20 H 0.13060 0.53620 0.60420
C21 C 0.0831(10) 0.4949(3) 0.6110(18)
C22 C 0.1059(10) 0.4666(3) 0.5829(19)
H21 H 0.06090 0.45150 0.60620
C23 C 0.1985(10) 0.4617(3) 0.5184(17)
C24 C 0.2631(11) 0.4832(3) 0.4765(19)
H22 H 0.32170 0.47900 0.41970
N5 N -0.0132(10) 0.5025(3) 0.6850(17)
O11 O -0.0436(8) 0.5270(3) 0.6624(15)
O12 O -0.0573(10) 0.4836(3) 0.7538(15)
N6 N 0.2253(10) 0.4317(3) 0.4834(17)
O13 O 0.1779(11) 0.4127(3) 0.5444(18)
O14 O 0.2968(11) 0.4271(3) 0.4012(18)
C25 C 0.5675(11) 0.2841(3) 1.018(2)
O15 O 0.645(1) 0.2774(3) 1.0848(17)
N7 N 0.5536(11) 0.3112(3) 0.965(2)
H23 H 0.49800 0.31610 0.91840
C26 C 0.6328(12) 0.3316(4) 0.9886(17)
C27 C 0.6795(13) 0.3451(3) 0.8732(17)
H24 H 0.72180 0.36030 0.90560
C28 C 0.678(2) 0.3410(4) 0.708(2)
H25 H 0.72160 0.35500 0.65940
H26 H 0.70060 0.32150 0.68410
H27 H 0.60920 0.34350 0.67080
C29 C 0.6603(11) 0.3356(4) 1.1504(17)
O16 O 0.6049(10) 0.3319(3) 1.2583(17)
O17 O 0.7565(10) 0.3433(3) 1.1680(18)
C30 C 0.7924(15) 0.3466(5) 1.326(2)
H28 H 0.86290 0.35220 1.32510
H29 H 0.75310 0.36140 1.37820
H30 H 0.78500 0.32830 1.38060
C31 C 0.4868(10) 0.2623(3) 0.9937(18)
C32 C 0.3943(11) 0.2693(3) 0.925(2)
H31 H 0.37800 0.28860 0.90120
C33 C 0.3286(11) 0.2474(3) 0.894(2)
C34 C 0.3538(11) 0.2191(3) 0.915(2)
H32 H 0.30970 0.20430 0.88360
C35 C 0.4442(12) 0.2126(3) 0.982(2)
C36 C 0.5102(12) 0.2338(3) 1.020(2)
H33 H 0.57250 0.22890 1.06540
N8 N 0.2332(10) 0.2531(3) 0.8148(18)
O18 O 0.1986(10) 0.2769(3) 0.8267(16)
O19 O 0.1894(10) 0.2331(3) 0.760(2)
N9 N 0.4793(14) 0.1831(3) 1.007(2)
O20 O 0.4289(13) 0.1635(3) 0.951(2)
O21 O 0.5438(15) 0.1788(4) 1.102(3)
C37 C 0.4297(11) 0.2837(3) 0.513(2)
O22 O 0.3541(8) 0.2776(2) 0.5852(16)
N10 N 0.4446(11) 0.3111(3) 0.4662(19)
H34 H 0.50110 0.31590 0.42160
C38 C 0.3684(14) 0.3318(4) 0.4893(19)
C39 C 0.3216(17) 0.3468(4) 0.378(2)
H35 H 0.27370 0.36040 0.41110
C40 C 0.336(2) 0.3444(6) 0.211(2)
H36 H 0.29180 0.35800 0.15880
H37 H 0.40570 0.34890 0.18570
H38 H 0.32050 0.32480 0.17790
C41 C 0.3421(13) 0.3361(4) 0.6516(18)
O23 O 0.3981(12) 0.3313(3) 0.7578(17)
O24 O 0.2483(11) 0.3460(4) 0.6687(18)
C42 C 0.203(2) 0.3513(6) 0.821(3)
H39 H 0.13490 0.35840 0.80760
H40 H 0.20190 0.33330 0.87910
H41 H 0.24300 0.36560 0.87580
C43 C 0.5052(10) 0.2611(3) 0.479(2)
C44 C 0.6015(10) 0.2683(3) 0.423(2)
H42 H 0.62520 0.28750 0.41620
C45 C 0.6567(11) 0.2450(3) 0.380(2)
C46 C 0.6336(12) 0.2168(3) 0.412(2)
H43 H 0.67710 0.20160 0.38370
C47 C 0.5463(12) 0.2118(3) 0.484(3)
C48 C 0.4807(12) 0.2331(3) 0.519(2)
H44 H 0.41960 0.22900 0.56980
N11 N 0.7571(10) 0.2504(3) 0.3178(19)
O25 O 0.7883(8) 0.2747(3) 0.320(2)
O26 O 0.7960(9) 0.2307(3) 0.2488(16)
N12 N 0.5190(13) 0.1819(3) 0.518(2)
O27 O 0.5666(13) 0.1631(3) 0.456(2)
O28 O 0.4432(14) 0.1785(3) 0.594(3)
#END
