
#######################################################################
#
#                 Cambridge Crystallographic Data Centre
#                                CCDC
#
#######################################################################
#
# If this CIF has been generated from an entry in the Cambridge
# Structural Database, then it will include bibliographic, chemical,
# crystal, experimental, refinement or atomic coordinate data resulting
# from the CCDC's data processing and validation procedures.
#
#######################################################################

data_CSD_CIF_ABIHAX
_audit_creation_date 2016-11-23
_audit_creation_method CSD-ConQuest-V1
_database_code_CSD ABIHAX
_database_code_depnum_ccdc_archive 'CCDC 1444087'
_chemical_formula_sum 'C15 H18 N4 O6'
_chemical_formula_moiety
;
C15 H18 N4 O6
;
_journal_coden_Cambridge 1441
_journal_volume 9
_journal_year 2017
_journal_page_first 179
_journal_name_full 'Nature Chemistry '
loop_
_publ_author_name
"G.Storch"
"O.Trapp"
_chemical_name_systematic
;
N-(1-(dimethylamino)-4-methyl-1-oxopent-2-en-2-yl)-3,5-dinitrobenzamide
;
_cell_volume    836.683
_exptl_crystal_colour 'colorless'
_exptl_crystal_density_diffrn 1.391
_exptl_crystal_description 'polyhedron'
_diffrn_ambient_temperature 200
#These two values have been output from a single CSD field.
_refine_ls_R_factor_gt 0.0548
_refine_ls_wR_factor_gt 0.0548
_symmetry_cell_setting triclinic
_symmetry_space_group_name_H-M 'P -1'
_symmetry_Int_Tables_number 2
loop_
_symmetry_equiv_pos_site_id
_symmetry_equiv_pos_as_xyz
1 x,y,z
2 -x,-y,-z
_cell_length_a 8.4153(6)
_cell_length_b 9.3760(7)
_cell_length_c 12.2991(9)
_cell_angle_alpha 110.4494(13)
_cell_angle_beta 98.7296(14)
_cell_angle_gamma 106.5665(14)
_cell_formula_units_Z 2
loop_
_atom_type_symbol
_atom_type_radius_bond
C 0.68
H 0.23
N 0.68
O 0.68
loop_
_atom_site_label
_atom_site_type_symbol
_atom_site_fract_x
_atom_site_fract_y
_atom_site_fract_z
C1 C 0.2440(2) 0.7355(2) 0.46191(17)
O1 O 0.29857(18) 0.71487(18) 0.37265(13)
N1 N 0.0791(2) 0.6530(2) 0.45243(15)
H1 H 0.036(3) 0.667(3) 0.511(2)
C2 C -0.0225(2) 0.5227(2) 0.33780(17)
C3 C 0.0553(2) 0.3953(2) 0.29168(17)
O2 O 0.08740(19) 0.32461(18) 0.35579(13)
N2 N 0.0773(2) 0.3556(2) 0.18112(16)
C4 C 0.0678(4) 0.4501(3) 0.1106(2)
H2 H 0.17730 0.48340 0.09100
H3 H 0.04590 0.54760 0.15740
H4 H -0.02620 0.38340 0.03560
C5 C 0.1363(4) 0.2211(3) 0.1311(2)
H5 H 0.07180 0.15560 0.04580
H6 H 0.11720 0.15230 0.17590
H7 H 0.25980 0.26510 0.13810
C6 C -0.1821(3) 0.4977(3) 0.28377(19)
H8 H -0.23610 0.40440 0.20890
C7 C -0.2884(3) 0.5981(3) 0.3259(2)
H9 H -0.21190 0.70540 0.39330
C8 C -0.4222(3) 0.5068(4) 0.3721(3)
H10 H -0.50390 0.56250 0.38890
H11 H -0.36440 0.50430 0.44640
H12 H -0.48470 0.39470 0.31080
C9 C -0.3743(4) 0.6287(4) 0.2216(3)
H13 H -0.44490 0.69340 0.24930
H14 H -0.44780 0.52380 0.15470
H15 H -0.28520 0.68840 0.19410
C10 C 0.3662(3) 0.8500(2) 0.58482(18)
C11 C 0.5410(3) 0.9001(2) 0.59024(19)
H16 H 0.57630 0.86520 0.51870
C12 C 0.6624(3) 1.0009(3) 0.7003(2)
C13 C 0.6178(3) 1.0554(3) 0.8060(2)
H17 H 0.70260 1.12470 0.88120
C14 C 0.4438(3) 1.0047(3) 0.79763(19)
C15 C 0.3158(3) 0.9031(2) 0.69008(19)
H18 H 0.19730 0.87070 0.68820
N3 N 0.8464(3) 1.0533(3) 0.7044(2)
O3 O 0.8846(2) 1.0101(2) 0.60958(19)
O4 O 0.9514(2) 1.1380(3) 0.80367(18)
N4 N 0.3919(3) 1.0602(3) 0.90986(18)
O5 O 0.5006(3) 1.1703(3) 1.00013(17)
O6 O 0.2447(3) 0.9898(3) 0.90723(18)
#END
