
#######################################################################
#
#                 Cambridge Crystallographic Data Centre
#                                CCDC
#
#######################################################################
#
# If this CIF has been generated from an entry in the Cambridge
# Structural Database, then it will include bibliographic, chemical,
# crystal, experimental, refinement or atomic coordinate data resulting
# from the CCDC's data processing and validation procedures.
#
#######################################################################

data_CSD_CIF_ABITOX
_audit_creation_date 2016-11-23
_audit_creation_method CSD-ConQuest-V1
_database_code_CSD ABITOX
_database_code_depnum_ccdc_archive 'CCDC 1495967'
_chemical_formula_sum 'C31 H37 N5 O8'
_chemical_formula_moiety
;
C31 H37 N5 O8
;
_journal_coden_Cambridge 35
_journal_volume 81
_journal_year 2016
_journal_page_first 10863
_journal_name_full 'J.Org.Chem. '
loop_
_publ_author_name
"S.Yamazaki"
"H.Sugiura"
"S.Ohashi"
"K.Ishizuka"
"R.Saimu"
"Yuji Mikata"
"A.Ogawa"
_chemical_name_systematic
;
diethyl 
(4-((1H-benzotriazol-1-yloxy)(3-nitrophenyl)methyl)-1-(cyclohexylmethyl)-2-oxo
pyrrolidin-3-yl)malonate
;
_cell_volume   1489.023
_exptl_crystal_colour 'colorless'
_exptl_crystal_density_diffrn 1.355
_diffrn_ambient_temperature 153
#These two values have been output from a single CSD field.
_refine_ls_R_factor_gt 0.0404
_refine_ls_wR_factor_gt 0.0404
_symmetry_cell_setting triclinic
_symmetry_space_group_name_H-M 'P -1'
_symmetry_Int_Tables_number 2
loop_
_symmetry_equiv_pos_site_id
_symmetry_equiv_pos_as_xyz
1 x,y,z
2 -x,-y,-z
_cell_length_a 11.5911(12)
_cell_length_b 12.1293(15)
_cell_length_c 12.5797(13)
_cell_angle_alpha 76.989(6)
_cell_angle_beta 62.670(4)
_cell_angle_gamma 72.283(5)
_cell_formula_units_Z 2
loop_
_atom_type_symbol
_atom_type_radius_bond
C 0.68
H 0.23
N 0.68
O 0.68
loop_
_atom_site_label
_atom_site_type_symbol
_atom_site_fract_x
_atom_site_fract_y
_atom_site_fract_z
O1 O 1.12447(9) 0.69463(8) 0.42705(9)
O2 O 0.85448(10) 0.69220(8) 0.64535(8)
O3 O 0.85317(9) 0.87841(7) 0.56598(8)
O4 O 0.94925(9) 0.88043(8) 0.28169(8)
O5 O 0.72631(9) 0.92608(7) 0.39010(8)
O6 O 0.33891(12) 0.86113(11) 0.42521(11)
O7 O 0.50450(11) 0.85222(9) 0.25017(10)
O8 O 0.90327(9) 0.52577(7) 0.17388(8)
N1 N 1.17734(10) 0.61073(9) 0.25952(9)
N2 N 0.45143(12) 0.8165(1) 0.35672(11)
N3 N 0.87405(10) 0.42991(9) 0.16035(9)
N4 N 0.74872(11) 0.43090(11) 0.18089(11)
N5 N 0.75554(12) 0.33776(11) 0.14016(11)
C1 C 1.09392(12) 0.65551(10) 0.36432(11)
C2 C 0.95343(12) 0.64427(10) 0.39673(11)
C3 C 0.96307(12) 0.61518(10) 0.27986(11)
C4 C 1.11339(12) 0.56636(11) 0.20724(11)
C5 C 0.87977(12) 0.53099(10) 0.29820(11)
C6 C 1.32107(12) 0.59859(11) 0.20499(12)
C7 C 1.37015(12) 0.67805(10) 0.08885(11)
C8 C 1.31046(13) 0.80594(11) 0.11078(13)
C9 C 1.36240(14) 0.88569(13) -0.00471(16)
C10 C 1.51455(15) 0.85868(14) -0.06458(17)
C11 C 1.57224(14) 0.73108(13) -0.08658(13)
C12 C 1.52268(12) 0.65266(12) 0.03050(12)
C13 C 0.85344(12) 0.76907(10) 0.56569(11)
C14 C 0.84492(12) 0.75053(10) 0.45383(11)
C15 C 0.84951(12) 0.85904(10) 0.36492(11)
C16 C 0.86250(15) 0.90676(13) 0.66847(13)
C17 C 1.00526(16) 0.87714(15) 0.65071(15)
C18 C 0.71704(14) 1.03791(11) 0.31833(13)
C19 C 0.57379(16) 1.08645(13) 0.33943(17)
C20 C 0.73343(12) 0.57532(10) 0.37465(11)
C21 C 0.65892(12) 0.66982(10) 0.32940(12)
C22 C 0.52868(12) 0.7153(1) 0.40485(12)
C23 C 0.46859(13) 0.67165(11) 0.52372(12)
C24 C 0.54354(13) 0.57745(12) 0.56752(12)
C25 C 0.67485(12) 0.52887(11) 0.49352(11)
C26 C 0.96612(12) 0.33946(10) 0.10011(11)
C27 C 0.88793(13) 0.27964(11) 0.08869(11)
C28 C 0.94906(16) 0.17937(12) 0.02706(13)
C29 C 1.08534(16) 0.14501(12) -0.01765(14)
C30 C 1.16248(14) 0.20663(12) -0.00393(13)
C31 C 1.10491(13) 0.30575(11) 0.05444(12)
H1 H 0.9363(13) 0.5769(12) 0.4610(12)
H2 H 0.9326(14) 0.6865(13) 0.2360(13)
H3 H 1.1418(14) 0.5927(12) 0.1206(13)
H4 H 1.1385(15) 0.4777(14) 0.2168(13)
H5 H 0.9146(14) 0.4521(12) 0.3323(12)
H6 H 1.3414(14) 0.6195(13) 0.2641(13)
H7 H 1.3667(15) 0.5129(14) 0.1903(14)
H8 H 1.3424(14) 0.6602(12) 0.0325(12)
H9 H 1.3332(17) 0.8229(15) 0.1740(15)
H10 H 1.2104(17) 0.8205(14) 0.1475(14)
H11 H 1.3300(17) 0.8728(15) -0.0643(15)
H12 H 1.3251(18) 0.9654(17) 0.0132(16)
H13 H 1.5452(18) 0.9087(16) -0.1424(17)
H14 H 1.5432(17) 0.8771(15) -0.0087(16)
H15 H 1.6702(18) 0.7136(15) -0.1245(15)
H16 H 1.5438(17) 0.7135(14) -0.1441(15)
H17 H 1.5539(15) 0.6669(13) 0.0878(14)
H18 H 1.5600(16) 0.5690(14) 0.0121(14)
H19 H 0.7570(14) 0.7336(12) 0.4854(12)
H20 H 0.8249(18) 0.9907(16) 0.6708(15)
H21 H 0.8096(16) 0.8624(14) 0.7418(15)
H22 H 1.0450(19) 0.7915(18) 0.6424(16)
H23 H 1.061(2) 0.9174(17) 0.5764(18)
H24 H 1.0084(18) 0.9010(16) 0.7190(17)
H25 H 0.7759(18) 1.0266(15) 0.2326(17)
H26 H 0.7493(16) 1.0899(14) 0.3460(14)
H27 H 0.548(2) 1.0355(18) 0.3110(18)
H28 H 0.515(2) 1.0955(17) 0.4273(19)
H29 H 0.5633(16) 1.1664(15) 0.2937(15)
H30 H 0.6956(14) 0.7040(12) 0.2463(13)
H31 H 0.3775(17) 0.7065(14) 0.5728(14)
H32 H 0.5020(16) 0.5473(14) 0.6506(15)
H33 H 0.7265(15) 0.4628(13) 0.5231(13)
H34 H 0.8958(17) 0.1383(15) 0.0138(15)
H35 H 1.1308(18) 0.0780(16) -0.0640(16)
H36 H 1.2597(18) 0.1795(15) -0.0404(15)
H37 H 1.1559(15) 0.3505(13) 0.0625(13)
#END
