
#######################################################################
#
#                 Cambridge Crystallographic Data Centre
#                                CCDC
#
#######################################################################
#
# If this CIF has been generated from an entry in the Cambridge
# Structural Database, then it will include bibliographic, chemical,
# crystal, experimental, refinement or atomic coordinate data resulting
# from the CCDC's data processing and validation procedures.
#
#######################################################################

data_CSD_CIF_ABOFON
_audit_creation_date 2005-02-04
_audit_creation_method CSD-ConQuest-V1
_database_code_CSD ABOFON
_database_code_depnum_ccdc_archive 'CCDC 235732'
_chemical_formula_sum 'C28 H32 N2 O5'
_chemical_formula_moiety
;
C28 H32 N2 O5
;
_journal_coden_Cambridge 16
_journal_volume 60
_journal_year 2004
_journal_page_first 8881
_journal_name_full 'Tetrahedron '
loop_
_publ_author_name
"V.Sridharan"
"S.Muthusubramanian"
"S.Sivasubramanian"
"K.Polborn"
_chemical_name_systematic
;
3-r-[2-methoxy-5-(t-pentyl)phenyl]-5-cis-(2-methoxyphenyl)-4-trans-nitro-2-phe
nyltetrahydroisoxazole
;
_chemical_melting_point 406.15
_cell_volume   1281.373
_exptl_crystal_colour 'colorless'
_exptl_crystal_density_diffrn 1.235
_exptl_special_details
;
Melting point range 406.15-407.15K

;
_exptl_crystal_description 'plate'
_diffrn_ambient_temperature 295
#These two values have been output from a single CSD field.
_refine_ls_R_factor_gt 0.0559
_refine_ls_wR_factor_gt 0.0559
_symmetry_cell_setting triclinic
_symmetry_space_group_name_H-M 'P -1'
_symmetry_Int_Tables_number 2
loop_
_symmetry_equiv_pos_site_id
_symmetry_equiv_pos_as_xyz
1 x,y,z
2 -x,-y,-z
_cell_length_a 9.7540(14)
_cell_length_b 12.694(2)
_cell_length_c 12.797(2)
_cell_angle_alpha 100.176(13)
_cell_angle_beta 111.387(11)
_cell_angle_gamma 111.519(13)
_cell_formula_units_Z 2
loop_
_atom_type_symbol
_atom_type_radius_bond
C 0.73
H 0.23
N 0.68
O 0.68
loop_
_atom_site_label
_atom_site_type_symbol
_atom_site_fract_x
_atom_site_fract_y
_atom_site_fract_z
N1 N 0.0081(2) 0.3033(2) 0.2961(2)
N2 N -0.3478(3) 0.0560(2) 0.1925(2)
O1 O 0.0370(2) 0.23328(14) 0.2152(2)
O2 O -0.1591(2) 0.1138(2) 0.4903(2)
O3 O -0.4405(3) -0.0350(2) 0.1980(2)
O4 O -0.3941(2) 0.1184(2) 0.1430(2)
O5 O -0.2866(2) -0.1295(2) 0.0534(2)
C1 C -0.0648(3) 0.2222(2) 0.3505(2)
H1 H -0.1410(3) 0.2442(2) 0.3705(2)
C2 C -0.1648(3) 0.0945(2) 0.2517(2)
H2 H -0.1440(3) 0.0355(2) 0.2862(2)
C3 C -0.0938(3) 0.1094(2) 0.1631(2)
H3 H -0.1809(3) 0.0957(2) 0.0851(2)
C4 C -0.0690(3) 0.3706(2) 0.2465(2)
C5 C -0.1127(4) 0.4369(2) 0.3148(2)
H4 H -0.1018(4) 0.4303(2) 0.3883(2)
C6 C -0.1725(4) 0.5127(3) 0.2735(3)
H5 H -0.2036(4) 0.5557(3) 0.3190(3)
C7 C -0.1864(4) 0.5254(3) 0.1671(3)
H6 H -0.2259(4) 0.5770(3) 0.1402(3)
C8 C -0.1417(4) 0.4616(3) 0.1003(3)
H7 H -0.1504(4) 0.4706(3) 0.0279(3)
C9 C -0.0834(3) 0.3837(2) 0.1388(2)
H8 H -0.0540(3) 0.3404(2) 0.0921(2)
C10 C 0.0658(3) 0.2245(2) 0.4622(2)
C11 C 0.0093(3) 0.1657(2) 0.5317(2)
C12 C 0.1229(4) 0.1652(2) 0.6353(2)
H9 H 0.0862(4) 0.1274(2) 0.6828(2)
C13 C 0.2902(4) 0.2209(3) 0.6673(2)
H10 H 0.3647(4) 0.2183(3) 0.7360(2)
C14 C 0.3520(4) 0.2805(2) 0.6014(3)
C15 C 0.2347(3) 0.2812(2) 0.4977(2)
H11 H 0.2719(3) 0.3211(2) 0.4516(2)
C16 C -0.2257(5) 0.0507(3) 0.5555(3)
H12 H -0.3453(5) 0.0139(17) 0.5137(10)
H13 H -0.1848(22) 0.1065(5) 0.6341(8)
H14 H -0.1922(23) -0.0110(13) 0.5627(17)
C17 C 0.5386(4) 0.3492(4) 0.6430(4)
C18 C 0.5961(7) 0.3927(8) 0.5697(10)
H15 H 0.7143(7) 0.4497(8) 0.6125(10)
H16 H 0.5342(7) 0.4295(8) 0.5268(10)
C19 C 0.5574(7) 0.2674(5) 0.4841(6)
H17 H 0.6523(18) 0.2773(9) 0.4720(26)
H18 H 0.4623(27) 0.2417(17) 0.4080(12)
H19 H 0.5343(44) 0.2074(10) 0.5203(16)
C20 C 0.6380(5) 0.2993(4) 0.7234(4)
H20 H 0.5962(24) 0.2149(8) 0.6811(10)
H21 H 0.6264(29) 0.3088(23) 0.7953(12)
H22 H 0.7537(7) 0.3431(18) 0.7441(21)
C21 C 0.6010(6) 0.4960(4) 0.7384(7)
H23 H 0.5709(45) 0.4892(5) 0.8014(21)
H24 H 0.5460(39) 0.5338(15) 0.6924(9)
H25 H 0.7196(9) 0.5444(12) 0.7729(30)
C22 C -0.0176(3) 0.0274(2) 0.1469(2)
C23 C -0.1233(3) -0.0968(2) 0.0879(2)
C24 C -0.0575(5) -0.1755(3) 0.0717(2)
H26 H -0.1273(5) -0.2586(3) 0.0327(2)
C25 C 0.1129(5) -0.1283(4) 0.1145(3)
H27 H 0.1574(5) -0.1806(4) 0.1045(3)
C26 C 0.2164(4) -0.0074(4) 0.1705(3)
H28 H 0.3306(4) 0.0230(4) 0.1980(3)
C27 C 0.1512(3) 0.0708(3) 0.1868(2)
H29 H 0.2224(3) 0.1537(3) 0.2253(2)
C28 C -0.4073(5) -0.2517(3) -0.0160(3)
H30 H -0.5162(5) -0.2606(5) -0.0333(18)
H31 H -0.3845(18) -0.3024(4) 0.0280(9)
H32 H -0.4033(21) -0.2752(7) -0.0899(10)
#END
