
#######################################################################
#
#                 Cambridge Crystallographic Data Centre
#                                CCDC
#
#######################################################################
#
# If this CIF has been generated from an entry in the Cambridge
# Structural Database, then it will include bibliographic, chemical,
# crystal, experimental, refinement or atomic coordinate data resulting
# from the CCDC's data processing and validation procedures.
#
#######################################################################

data_CSD_CIF_ABULIT01
_audit_creation_date 2008-04-10
_audit_creation_method CSD-ConQuest-V1
_database_code_CSD ABULIT01
_database_code_depnum_ccdc_archive 'CCDC 656840'
_chemical_formula_sum 'C8 H9 N1 O3'
_chemical_formula_moiety
;
C8 H9 N1 O3
;
_journal_coden_Cambridge 182
_journal_year 2007
_journal_page_first 4940
_journal_name_full 'Chem.Commun. '
loop_
_publ_author_name
"R.S.Forgan"
"P.A.Wood"
"J.Campbell"
"D.K.Henderson"
"F.E.McAllister"
"S.Parsons"
"E.Pidcock"
"R.M.Swart"
"P.A.Tasker"
_chemical_name_systematic
;
2-hydroxy-3-methoxybenzaldehyde oxime
;
_chemical_name_common
;
3-Methoxy-2-hydroxybenzaldehyde oxime; 3-Methoxysalicylaldoxime; O-vanillin 
oxime
;
_cell_volume   1570.729
_exptl_crystal_colour 'yellow'
_exptl_crystal_density_diffrn 1.414
_exptl_crystal_description 'block'
_exptl_crystal_preparation 'chloroform'
_diffrn_ambient_temperature 298
#These two values have been output from a single CSD field.
_refine_ls_R_factor_gt 0.0296
_refine_ls_wR_factor_gt 0.0296
_symmetry_cell_setting orthorhombic
_symmetry_space_group_name_H-M 'P b c a'
_symmetry_Int_Tables_number 61
loop_
_symmetry_equiv_pos_site_id
_symmetry_equiv_pos_as_xyz
1 x,y,z
2 1/2+x,1/2-y,-z
3 -x,1/2+y,1/2-z
4 1/2-x,-y,1/2+z
5 -x,-y,-z
6 -1/2-x,-1/2+y,z
7 x,-1/2-y,-1/2+z
8 -1/2+x,y,-1/2-z
_cell_length_a 13.9108(5)
_cell_length_b 7.1936(3)
_cell_length_c 15.6965(6)
_cell_angle_alpha 90
_cell_angle_beta 90
_cell_angle_gamma 90
_cell_formula_units_Z 8
loop_
_atom_type_symbol
_atom_type_radius_bond
C 0.68
H 0.23
N 0.68
O 0.68
loop_
_atom_site_label
_atom_site_type_symbol
_atom_site_fract_x
_atom_site_fract_y
_atom_site_fract_z
O1 O 0.48465(14) -0.0109(3) 0.67399(10)
N1 N 0.52591(15) 0.1051(3) 0.61253(13)
C1 C 0.55412(16) 0.2605(4) 0.64192(16)
C2 C 0.59609(16) 0.3988(3) 0.58484(15)
C3 C 0.60837(17) 0.3635(3) 0.49795(16)
O2 O 0.58585(13) 0.1967(2) 0.46236(11)
C4 C 0.64463(16) 0.5009(3) 0.44381(16)
O3 O 0.65143(12) 0.4492(3) 0.36008(11)
C5 C 0.6941(2) 0.5805(4) 0.30307(18)
C6 C 0.67093(18) 0.6709(4) 0.47694(17)
C7 C 0.66042(18) 0.7057(4) 0.56397(18)
C8 C 0.62294(18) 0.5730(4) 0.61711(17)
H1 H 0.460(2) -0.098(4) 0.641(2)
H2 H 0.54750 0.28770 0.70060
H3 H 0.566(2) 0.128(4) 0.505(2)
H4 H 0.69360 0.52440 0.24660
H5 H 0.75920 0.61010 0.31940
H6 H 0.65650 0.69490 0.30290
H7 H 0.69590 0.76260 0.44150
H8 H 0.67850 0.82200 0.58700
H9 H 0.61470 0.59790 0.67580
#END
