
#######################################################################
#
#                 Cambridge Crystallographic Data Centre
#                                CCDC
#
#######################################################################
#
# If this CIF has been generated from an entry in the Cambridge
# Structural Database, then it will include bibliographic, chemical,
# crystal, experimental, refinement or atomic coordinate data resulting
# from the CCDC's data processing and validation procedures.
#
#######################################################################

data_CSD_CIF_ABURIY
_audit_creation_date 2001-10-17
_audit_creation_method CSD-ConQuest-V1
_database_code_CSD ABURIY
_database_code_depnum_ccdc_archive 'CCDC 165849'
_chemical_formula_sum 'C20 H23 N1 O4'
_chemical_formula_moiety
;
C20 H23 N1 O4
;
_journal_coden_Cambridge 1320
_journal_year 2001
_journal_name_full 'Thesis '
loop_
_publ_author_name
"K.Rettig"
"H.Ritter"
"D.Schollmeyer"
_chemical_name_systematic
;
2,5,9-Cyclododecatrien-1-ylmethyl 4-nitrobenzoate
;
_chemical_melting_point 343.15
_cell_volume   3709.136
_exptl_crystal_colour 'colorless'
_exptl_crystal_density_diffrn 1.223
_exptl_special_details
;
Melting point range 343.15-344.15K
contribution from Thesis, Karsten Rettig, University of Wuppertal, Institut 
fur Organische Chemie (2001)
;
_exptl_crystal_description 'plate'
_diffrn_ambient_temperature 298
#These two values have been output from a single CSD field.
_refine_ls_R_factor_gt 0.0747
_refine_ls_wR_factor_gt 0.0747
_symmetry_cell_setting monoclinic
_symmetry_space_group_name_H-M 'P 21/c'
_symmetry_Int_Tables_number 14
loop_
_symmetry_equiv_pos_site_id
_symmetry_equiv_pos_as_xyz
1 x,y,z
2 x,1/2-y,1/2+z
3 -x,-y,-z
4 -x,-1/2+y,-1/2-z
_cell_length_a 11.2389(11)
_cell_length_b 8.1296(4)
_cell_length_c 40.637(4)
_cell_angle_alpha 90
_cell_angle_beta 92.584(5)
_cell_angle_gamma 90
_cell_formula_units_Z 8
loop_
_atom_type_symbol
_atom_type_radius_bond
C 0.68
H 0.23
N 0.68
O 0.68
loop_
_atom_site_label
_atom_site_type_symbol
_atom_site_fract_x
_atom_site_fract_y
_atom_site_fract_z
C1 C 0.9835(4) 0.0383(6) 0.63942(12)
H1 H 0.90990 -0.00110 0.62820
C2 C 0.9672(4) 0.2175(6) 0.64704(11)
H2 H 1.02460 0.26500 0.66130
C3 C 0.8822(4) 0.3135(7) 0.63603(11)
H3 H 0.82610 0.26890 0.62110
C4 C 0.8669(5) 0.4908(6) 0.64547(12)
H4 H 0.93310 0.52430 0.66010
H5 H 0.86760 0.55890 0.62590
C5 C 0.7530(5) 0.5170(7) 0.66219(15)
H6 H 0.68540 0.53760 0.64880
C6 C 0.7397(5) 0.5134(7) 0.69406(15)
H7 H 0.66310 0.53420 0.70080
C7 C 0.8308(5) 0.4803(7) 0.72077(12)
H8 H 0.83210 0.57150 0.73620
H9 H 0.90840 0.47470 0.71130
C8 C 0.8094(5) 0.3202(7) 0.73973(12)
H10 H 0.86960 0.30970 0.75750
H11 H 0.73230 0.32560 0.74940
C9 C 0.8136(5) 0.1718(8) 0.71805(13)
H12 H 0.74620 0.15140 0.70450
C10 C 0.9001(5) 0.0696(7) 0.71608(13)
H13 H 0.96610 0.08740 0.73030
C11 C 0.9063(5) -0.0750(7) 0.69347(13)
H14 H 0.83150 -0.08330 0.68070
H15 H 0.91520 -0.17410 0.70670
C12 C 1.0073(5) -0.0679(6) 0.66987(12)
H16 H 1.02450 -0.17900 0.66280
H17 H 1.07790 -0.02660 0.68170
C13 C 1.0829(4) 0.0154(7) 0.61626(12)
H18 H 1.15600 0.06390 0.62550
H19 H 1.09670 -0.10070 0.61240
O1 O 1.0462(3) 0.0967(5) 0.58575(9)
C14 C 1.1138(5) 0.0816(7) 0.56000(13)
O2 O 1.2066(3) 0.0089(5) 0.56053(8)
C15 C 1.0586(4) 0.1661(6) 0.53080(13)
C16 C 0.9519(4) 0.2502(6) 0.53198(13)
H20 H 0.91430 0.25770 0.55190
C17 C 0.9002(4) 0.3228(6) 0.50431(14)
H21 H 0.82810 0.37840 0.50510
C18 C 0.9588(5) 0.3108(6) 0.47519(13)
C19 C 1.0644(4) 0.2273(6) 0.47289(13)
H22 H 1.10090 0.21830 0.45290
C20 C 1.1146(4) 0.1574(6) 0.50113(14)
H23 H 1.18730 0.10330 0.50030
N1 N 0.9021(5) 0.3875(6) 0.44549(14)
O3 O 0.8080(4) 0.4616(6) 0.4479(1)
O4 O 0.9539(4) 0.3767(6) 0.41992(10)
C21 C 0.4845(4) 0.0507(6) 0.62693(11)
H24 H 0.41040 0.00780 0.61660
C22 C 0.4642(4) 0.2266(6) 0.63574(10)
H25 H 0.52160 0.27600 0.64970
C23 C 0.3739(4) 0.3178(6) 0.62579(10)
H26 H 0.31700 0.27050 0.61140
C24 C 0.3552(4) 0.4941(6) 0.63586(11)
H27 H 0.42530 0.53230 0.64840
H28 H 0.34580 0.56180 0.61630
C25 C 0.2489(4) 0.5145(6) 0.65597(13)
H29 H 0.17660 0.53240 0.64450
C26 C 0.2464(5) 0.5101(6) 0.68817(14)
H30 H 0.17240 0.52500 0.69710
C27 C 0.3493(5) 0.4836(6) 0.71197(12)
H31 H 0.35440 0.57580 0.72710
H32 H 0.42200 0.48180 0.70000
C28 C 0.3414(5) 0.3228(7) 0.73199(11)
H33 H 0.40990 0.31520 0.74730
H34 H 0.27040 0.32570 0.74470
C29 C 0.3373(5) 0.1745(7) 0.71038(12)
H35 H 0.26560 0.15300 0.69880
C30 C 0.4232(5) 0.0737(7) 0.70619(12)
H36 H 0.49240 0.09140 0.71910
C31 C 0.4250(5) -0.0693(6) 0.68287(12)
H37 H 0.34690 -0.07940 0.67190
H38 H 0.43950 -0.16900 0.69560
C32 C 0.5179(4) -0.0576(6) 0.65671(12)
H39 H 0.53400 -0.16780 0.64890
H40 H 0.59130 -0.01570 0.66710
C33 C 0.5804(4) 0.0358(6) 0.60234(12)
H41 H 0.65340 0.08700 0.61090
H42 H 0.59660 -0.07910 0.59790
O5 O 0.5380(3) 0.1173(4) 0.57260(8)
C34 C 0.6020(4) 0.1059(6) 0.54625(13)
O6 O 0.6946(3) 0.0333(5) 0.54560(8)
C35 C 0.5436(4) 0.1930(6) 0.51782(12)
C36 C 0.4366(4) 0.2749(5) 0.52094(12)
H43 H 0.40130 0.27710 0.54120
C37 C 0.3825(4) 0.3530(6) 0.49428(13)
H44 H 0.31060 0.40790 0.49630
C38 C 0.4364(4) 0.3485(6) 0.46460(12)
C39 C 0.5421(5) 0.2677(6) 0.46087(13)
H45 H 0.57660 0.26490 0.44050
C40 C 0.5962(4) 0.1910(6) 0.48771(13)
H46 H 0.66860 0.13740 0.48560
N2 N 0.3763(5) 0.4304(6) 0.43603(12)
O7 O 0.2884(4) 0.5121(6) 0.4404(1)
O8 O 0.4192(4) 0.4113(6) 0.40951(10)
#END
