
#######################################################################
#
#                 Cambridge Crystallographic Data Centre
#                                CCDC
#
#######################################################################
#
# If this CIF has been generated from an entry in the Cambridge
# Structural Database, then it will include bibliographic, chemical,
# crystal, experimental, refinement or atomic coordinate data resulting
# from the CCDC's data processing and validation procedures.
#
#######################################################################

data_CSD_CIF_ABUTOG
_audit_creation_date 2001-10-17
_audit_creation_method CSD-ConQuest-V1
_database_code_CSD ABUTOG
_database_code_depnum_ccdc_archive 'CCDC 166807'
_chemical_formula_sum 'C44 H68 N2 O13'
_chemical_formula_moiety
;
C44 H68 N2 O13
;
_journal_coden_Cambridge 1320
_journal_year 2001
_journal_name_full 'Thesis '
loop_
_publ_author_name
"P.Allef"
"H.Kunz"
"D.Schollmeyer"
_chemical_name_systematic
;
N-Ethyl-(2,3,4,6-tetra-O-pivaloyl-\b-D-galactopyranosyl)-2,2-(pentamethylene)-
3-(p-nitrophenyl)-\b-2,2-alanine ethyl ester
;
_cell_volume   2398.901
_exptl_crystal_colour 'colorless'
_exptl_crystal_density_diffrn 1.153
_exptl_special_details
;
contribution from Thesis, Petra Allef, University of Mainz Institut fur 
Organische Chemie (2000)
;
_exptl_crystal_description 'needle'
_diffrn_ambient_temperature 293
_refine_special_details
;
Three of the pivaloyl groups are disordered.

;
#These two values have been output from a single CSD field.
_refine_ls_R_factor_gt 0.0523
_refine_ls_wR_factor_gt 0.0523
_symmetry_cell_setting monoclinic
_symmetry_space_group_name_H-M 'P 21'
_symmetry_Int_Tables_number 4
loop_
_symmetry_equiv_pos_site_id
_symmetry_equiv_pos_as_xyz
1 x,y,z
2 -x,1/2+y,-z
_cell_length_a 15.734(2)
_cell_length_b 10.3283(7)
_cell_length_c 15.783(2)
_cell_angle_alpha 90
_cell_angle_beta 110.722(6)
_cell_angle_gamma 90
_cell_formula_units_Z 2
loop_
_atom_type_symbol
_atom_type_radius_bond
C 0.68
H 0.23
N 0.68
O 0.68
loop_
_atom_site_label
_atom_site_type_symbol
_atom_site_fract_x
_atom_site_fract_y
_atom_site_fract_z
O1 O 0.79926(11) 0.35289(16) 0.76552(12)
C1 C 0.88123(16) 0.2807(3) 0.78564(18)
H1 H 0.89970 0.24850 0.84800
C2 C 0.86782(17) 0.1663(3) 0.72186(17)
H2 H 0.92290 0.11290 0.73980
C3 C 0.78785(17) 0.0870(2) 0.72505(16)
H3 H 0.80410 0.04720 0.78510
C4 C 0.70387(16) 0.1701(2) 0.70787(16)
H4 H 0.68420 0.20730 0.64680
C5 C 0.72768(15) 0.2781(2) 0.77957(15)
H5 H 0.75190 0.23810 0.83970
N1 N 0.65237(12) 0.35655(19) 0.77549(12)
C6 C 0.6144(2) 0.4369(3) 0.69355(19)
H6 H 0.63150 0.39940 0.64560
H7 H 0.64120 0.52260 0.70620
C7 C 0.5128(2) 0.4502(5) 0.6605(3)
H8 H 0.49290 0.50360 0.60730
H9 H 0.49510 0.48920 0.70700
H10 H 0.48540 0.36610 0.64620
C8 C 0.65412(15) 0.4257(2) 0.85805(16)
H11 H 0.59820 0.47700 0.83590
C9 C 0.72781(15) 0.5308(2) 0.89131(15)
C10 C 0.82057(16) 0.5047(2) 0.92982(16)
H12 H 0.84050 0.41930 0.93900
C11 C 0.88325(17) 0.6042(3) 0.95454(17)
H13 H 0.94510 0.58640 0.98040
C12 C 0.85273(18) 0.7303(2) 0.94035(17)
C13 C 0.76118(17) 0.7599(3) 0.90353(19)
H14 H 0.74130 0.84530 0.89500
C14 C 0.70047(17) 0.6587(2) 0.87996(18)
H15 H 0.63870 0.67710 0.85550
N2 N 0.91902(16) 0.8363(2) 0.96650(16)
O2 O 0.99901(14) 0.8086(2) 0.99502(18)
O3 O 0.89060(18) 0.9475(2) 0.9572(2)
C15 C 0.63804(17) 0.3386(2) 0.93285(17)
C16 C 0.6250(2) 0.4291(3) 1.0042(2)
H16 H 0.58030 0.49460 0.97410
H17 H 0.68190 0.47280 1.03620
C17 C 0.5937(3) 0.3567(3) 1.0729(2)
H18 H 0.63990 0.29500 1.10610
H19 H 0.58530 0.41780 1.11590
C18 C 0.5052(3) 0.2861(5) 1.0249(3)
H20 H 0.48800 0.23740 1.06890
H21 H 0.45770 0.34870 0.99660
C19 C 0.5139(3) 0.1953(4) 0.9540(3)
H22 H 0.45500 0.15730 0.92130
H23 H 0.55530 0.12580 0.98340
C20 C 0.5490(2) 0.2643(3) 0.8866(2)
H24 H 0.55860 0.20050 0.84570
H25 H 0.50300 0.32430 0.85060
C21 C 0.7115(2) 0.2402(3) 0.9764(2)
O4 O 0.7092(2) 0.1286(2) 0.9550(2)
O5 O 0.77917(15) 0.2909(3) 1.04504(17)
C22 C 0.8518(3) 0.2016(6) 1.0956(4)
H26 H 0.82640 0.12390 1.11170
H27 H 0.88770 0.17700 1.05930
C23 C 0.9077(5) 0.2704(10) 1.1767(5)
H28 H 0.95640 0.21520 1.21230
H29 H 0.87120 0.29440 1.21170
H30 H 0.93240 0.34690 1.15970
C24 C 0.95130(18) 0.3774(3) 0.7793(2)
H31 H 0.93190 0.41580 0.71940
H32 H 0.95940 0.44600 0.82350
O6 O 1.03530(13) 0.3066(2) 0.79737(16)
C25 C 1.0925(2) 0.3522(5) 0.7618(3)
O7 O 1.0860(4) 0.4690(6) 0.7392(6)
O8? O 1.0589(7) 0.4030(12) 0.6851(7)
C26 C 1.1776(2) 0.2707(6) 0.7797(3)
C27 C 1.2454(5) 0.3242(17) 0.8556(8)
H33 H 1.22350 0.32960 0.90510
H34 H 1.26050 0.40930 0.84090
H35 H 1.29850 0.27020 0.87260
C28 C 1.1667(6) 0.1335(10) 0.8127(7)
H36 H 1.12320 0.08610 0.76420
H37 H 1.14590 0.13920 0.86290
H38 H 1.22420 0.08970 0.83140
C29 C 1.1987(7) 0.2639(14) 0.7003(6)
H39 H 1.14720 0.23120 0.65160
H40 H 1.24960 0.20710 0.71010
H41 H 1.21370 0.34880 0.68510
O9 O 0.84763(13) 0.21491(18) 0.63139(12)
C30 C 0.8931(2) 0.1638(3) 0.5816(2)
O10 O 0.9463(2) 0.0782(3) 0.60812(19)
C31 C 0.8667(3) 0.2281(4) 0.4889(2)
C32 C 0.7807(10) 0.1639(15) 0.4263(10)
H42 H 0.76330 0.20240 0.36730
H43 H 0.73280 0.17560 0.45010
H44 H 0.79150 0.07310 0.42210
C33 C 0.9423(11) 0.218(2) 0.4508(11)
H45 H 0.92370 0.25860 0.39240
H46 H 0.95540 0.12810 0.44480
H47 H 0.99580 0.25990 0.49100
C34 C 0.8418(8) 0.3735(9) 0.4891(6)
H48 H 0.82640 0.40820 0.42910
H49 H 0.89270 0.42000 0.52990
H50 H 0.79070 0.38230 0.50860
C35? C 0.9199(11) 0.3564(11) 0.5075(8)
H51? H 0.90750 0.40270 0.45170
H52? H 0.98380 0.33850 0.53370
H53? H 0.90170 0.40780 0.54880
C36? C 0.9069(11) 0.1383(12) 0.4341(9)
H54? H 0.89330 0.17280 0.37430
H55? H 0.88080 0.05350 0.43020
H56? H 0.97160 0.13280 0.46400
C37? C 0.7664(9) 0.227(3) 0.4494(10)
H57? H 0.74690 0.26620 0.39030
H58? H 0.74230 0.27560 0.48770
H59? H 0.74480 0.13970 0.44450
O11 O 0.76581(13) -0.01361(18) 0.65786(12)
C38 C 0.8108(2) -0.1255(3) 0.6820(2)
O12 O 0.8688(2) -0.1406(3) 0.75527(19)
C39 C 0.7818(3) -0.2262(3) 0.6083(3)
C40 C 0.6741(4) -0.2459(7) 0.5864(5)
H60 H 0.66420 -0.27200 0.64050
H61 H 0.65140 -0.31150 0.54080
H62 H 0.64290 -0.16590 0.56480
C41 C 0.8230(7) -0.3572(6) 0.6555(8)
H63 H 0.80970 -0.36710 0.71010
H64 H 0.88760 -0.35680 0.67010
H65 H 0.79670 -0.42790 0.61530
C42 C 0.7970(12) -0.1896(12) 0.5284(8)
H66 H 0.77710 -0.25780 0.48440
H67 H 0.86060 -0.17420 0.54220
H68 H 0.76350 -0.11200 0.50430
C43? C 0.7407(13) -0.3391(13) 0.6234(13)
H69? H 0.72440 -0.39300 0.57050
H70? H 0.68710 -0.31720 0.63600
H71? H 0.78230 -0.38490 0.67410
C44? C 0.8748(9) -0.259(2) 0.5904(12)
H72? H 0.89790 -0.18130 0.57290
H73? H 0.86250 -0.32190 0.54280
H74? H 0.91900 -0.29290 0.64480
C45? C 0.7240(13) -0.1621(14) 0.5137(8)
H75? H 0.75120 -0.08120 0.50720
H76? H 0.66300 -0.14700 0.51160
H77? H 0.72280 -0.21920 0.46540
O13 O 0.63402(11) 0.08794(17) 0.71755(11)
C46 C 0.55768(19) 0.0734(3) 0.64521(19)
O14 O 0.5541(12) 0.112(2) 0.5725(10)
O15? O 0.5348(12) 0.144(2) 0.5804(13)
C47 C 0.4913(2) -0.0219(3) 0.6622(2)
C48 C 0.5345(3) -0.1024(4) 0.7463(3)
H78 H 0.49000 -0.15960 0.75440
H79 H 0.55770 -0.04650 0.79790
H80 H 0.58340 -0.15220 0.73990
C49 C 0.4138(3) 0.0588(5) 0.6751(3)
H81 H 0.38510 0.11030 0.62200
H82 H 0.43850 0.11440 0.72670
H83 H 0.36980 0.00160 0.68450
C50 C 0.4506(3) -0.1026(5) 0.5774(3)
H84 H 0.42350 -0.04660 0.52640
H85 H 0.40500 -0.15900 0.58420
H86 H 0.49750 -0.15330 0.56770
#END
