
#######################################################################
#
#                 Cambridge Crystallographic Data Centre
#                                CCDC
#
#######################################################################
#
# If this CIF has been generated from an entry in the Cambridge
# Structural Database, then it will include bibliographic, chemical,
# crystal, experimental, refinement or atomic coordinate data resulting
# from the CCDC's data processing and validation procedures.
#
#######################################################################

data_CSD_CIF_ABUTIA01
_audit_creation_date 2009-03-02
_audit_creation_method CSD-ConQuest-V1
_database_code_CSD ABUTIA01
_database_code_depnum_ccdc_archive 'CCDC 166806'
_chemical_formula_sum 'C43 H60 N2 O13'
_chemical_formula_moiety
;
C43 H60 N2 O13
;
_journal_coden_Cambridge 392
_journal_volume 74
_journal_year 2007
_journal_page_first 421
_journal_name_full 'Heterocycles '
loop_
_publ_author_name
"P.Allef"
"H.Kunz"
_chemical_name_systematic
;
1-(4-Nitrophenyl)-N-(2,3,4,6-tetra-O-pivaloyl-\b-D-galactopyranosyl)-6,7-dimet
hoxy-1,2,3,4-tetrahydroisoquinoline
;
_chemical_melting_point 460.15
_cell_volume   4800.955
_exptl_crystal_colour 'colorless'
_exptl_crystal_density_diffrn 1.125
_exptl_crystal_description 'rectangular block'
_diffrn_ambient_temperature 296
#These two values have been output from a single CSD field.
_refine_ls_R_factor_gt 0.1084
_refine_ls_wR_factor_gt 0.1084
_symmetry_cell_setting orthorhombic
_symmetry_space_group_name_H-M 'P 21 21 21'
_symmetry_Int_Tables_number 19
loop_
_symmetry_equiv_pos_site_id
_symmetry_equiv_pos_as_xyz
1 x,y,z
2 1/2-x,-y,1/2+z
3 1/2+x,1/2-y,-z
4 -x,1/2+y,1/2-z
_cell_length_a 11.0836(5)
_cell_length_b 12.8833(4)
_cell_length_c 33.6217(10)
_cell_angle_alpha 90
_cell_angle_beta 90
_cell_angle_gamma 90
_cell_formula_units_Z 4
loop_
_atom_type_symbol
_atom_type_radius_bond
C 0.68
H 0.23
N 0.68
O 0.68
loop_
_atom_site_label
_atom_site_type_symbol
_atom_site_fract_x
_atom_site_fract_y
_atom_site_fract_z
O1 O 0.2995(3) 0.5264(3) 0.35457(13)
C1 C 0.2051(5) 0.4527(4) 0.3624(2)
H1 H 0.1750(5) 0.4275(4) 0.3368(2)
C2 C 0.1009(4) 0.5055(4) 0.3838(2)
H2 H 0.1250(4) 0.5293(4) 0.4103(2)
C3 C 0.0589(4) 0.5943(4) 0.3585(2)
H3 H 0.0268(4) 0.5668(4) 0.3334(2)
C4 C 0.1619(5) 0.6698(4) 0.3492(2)
H4 H 0.1340(5) 0.7253(4) 0.3315(2)
C5 C 0.2595(5) 0.6083(5) 0.3297(2)
H5 H 0.2302(5) 0.5800(5) 0.3045(2)
N1 N 0.2547(4) 0.3651(3) 0.38372(13)
C6 C 0.3226(7) 0.3961(5) 0.4206(2)
H6 H 0.2756(7) 0.4451(5) 0.4361(2)
H7 H 0.3987(7) 0.4284(5) 0.4135(2)
C7 C 0.3445(7) 0.2984(5) 0.4442(2)
H8 H 0.3877(7) 0.3152(5) 0.4684(2)
H9 H 0.2679(7) 0.2673(5) 0.4514(2)
C8 C 0.4166(5) 0.2231(4) 0.4201(2)
C9 C 0.4106(5) 0.2285(4) 0.3795(2)
C10 C 0.3256(5) 0.2970(4) 0.3573(2)
H10 H 0.3727(5) 0.3408(4) 0.3392(2)
C11 C 0.4961(5) 0.1536(4) 0.4380(2)
H11 H 0.4994(5) 0.1502(4) 0.4656(2)
C12 C 0.5694(5) 0.0904(4) 0.4161(2)
C13 C 0.5667(5) 0.0978(5) 0.3748(2)
C14 C 0.4885(5) 0.1655(4) 0.3567(2)
H12 H 0.4868(5) 0.1700(4) 0.3291(2)
C15 C 0.2350(5) 0.2344(5) 0.3326(2)
C16 C 0.1715(6) 0.1550(6) 0.3505(2)
H13 H 0.1864(6) 0.1407(6) 0.3771(2)
C17 C 0.0863(7) 0.0953(7) 0.3305(2)
H14 H 0.0457(7) 0.0410(7) 0.3429(2)
C18 C 0.0661(7) 0.1205(9) 0.2923(3)
C19 C 0.1267(9) 0.1986(9) 0.2733(2)
H15 H 0.1093(9) 0.2140(9) 0.2469(2)
C20 C 0.2139(7) 0.2545(7) 0.2935(2)
H16 H 0.2579(7) 0.3055(7) 0.2803(2)
O2 O 0.6439(5) 0.0345(4) 0.35468(15)
C21 C 0.6735(9) 0.0626(9) 0.3148(3)
H17 H 0.7282(9) 0.0123(9) 0.3039(3)
H18 H 0.7109(9) 0.1298(9) 0.3146(3)
H19 H 0.6013(9) 0.0645(9) 0.2990(3)
O3 O 0.6505(5) 0.0206(4) 0.43131(14)
C22 C 0.6576(9) 0.0101(6) 0.4724(2)
H20 H 0.7175(9) -0.0409(6) 0.4789(2)
H21 H 0.5807(9) -0.0114(6) 0.4826(2)
H22 H 0.6795(9) 0.0756(6) 0.4840(2)
N2 N -0.0261(8) 0.0651(12) 0.2692(3)
O4 O -0.0584(9) 0.0919(14) 0.2395(3)
O5 O -0.0573(9) -0.0220(11) 0.2838(5)
O6 O 0.0044(3) 0.4327(3) 0.38603(11)
C23 C -0.0338(8) 0.3998(7) 0.4211(2)
O7 O 0.0085(8) 0.4305(8) 0.4516(2)
C24 C -0.1337(6) 0.3211(6) 0.4198(2)
C25 C -0.1943(13) 0.3134(11) 0.3788(3)
H23 H -0.2571(14) 0.2622(13) 0.3797(5)
H24 H -0.1353(17) 0.2937(14) 0.3593(4)
H25 H -0.2281(17) 0.3795(14) 0.3718(4)
C26 C -0.2274(10) 0.3551(9) 0.4509(3)
H26 H -0.2933(12) 0.3067(11) 0.4510(4)
H27 H -0.2570(14) 0.4230(11) 0.4443(4)
H28 H -0.1905(14) 0.3568(12) 0.4767(4)
C27 C -0.0819(12) 0.2147(9) 0.4314(3)
H29 H -0.1449(15) 0.1636(9) 0.4307(5)
H30 H -0.0489(15) 0.2183(12) 0.4578(4)
H31 H -0.0195(14) 0.1956(12) 0.4130(4)
O8 O -0.0360(3) 0.6505(3) 0.37890(11)
C28 C -0.1390(6) 0.6650(7) 0.3593(3)
O9 O -0.1575(6) 0.6250(9) 0.3283(3)
C29 C -0.2218(7) 0.7393(8) 0.3787(3)
C30 C -0.2593(18) 0.6964(17) 0.4198(6)
H32 H -0.3131(20) 0.7444(22) 0.4325(6)
H33 H -0.1888(23) 0.6871(21) 0.4360(7)
H34 H -0.2993(23) 0.6308(19) 0.4164(8)
C31 C -0.3356(15) 0.7574(14) 0.3530(5)
H35 H -0.3880(17) 0.8058(17) 0.3662(7)
H36 H -0.3772(20) 0.6927(17) 0.3493(6)
H37 H -0.3124(21) 0.7848(19) 0.3276(5)
C32 C -0.1540(14) 0.8433(13) 0.3841(5)
H38 H -0.2063(20) 0.8927(14) 0.3967(7)
H39 H -0.1294(20) 0.8693(19) 0.3586(6)
H40 H -0.0840(18) 0.8323(18) 0.4005(6)
O10 O 0.2047(4) 0.7120(3) 0.38595(13)
C33 C 0.1859(8) 0.8105(6) 0.3949(3)
O11 O 0.1372(9) 0.8692(5) 0.3717(2)
C34 C 0.2373(9) 0.8383(6) 0.4346(2)
C35 C 0.3735(10) 0.8170(12) 0.4383(6)
H41 H 0.4006(11) 0.8364(16) 0.4644(7)
H42 H 0.4162(12) 0.8568(15) 0.4187(7)
H43 H 0.3886(16) 0.7444(13) 0.4341(7)
C36 C 0.1684(14) 0.7716(10) 0.4651(5)
H44 H 0.1978(18) 0.7864(13) 0.4914(4)
H45 H 0.1806(20) 0.6995(8) 0.4592(7)
H46 H 0.0839(13) 0.7875(15) 0.4638(7)
C37 C 0.2125(14) 0.9540(6) 0.4427(4)
H47 H 0.2451(19) 0.9727(9) 0.4682(5)
H48 H 0.1271(15) 0.9662(12) 0.4426(6)
H49 H 0.2499(18) 0.9953(8) 0.4224(6)
C38 C 0.3733(7) 0.6764(7) 0.3222(3)
H50 H 0.4096(7) 0.6957(7) 0.3474(3)
H51 H 0.4323(7) 0.6374(7) 0.3070(3)
O12 O 0.3402(6) 0.7655(4) 0.3013(2)
C39 C 0.3890(7) 0.7886(6) 0.2671(3)
O13 O 0.4654(9) 0.7349(7) 0.2535(2)
C40 C 0.3382(5) 0.8831(4) 0.2487(2)
C41 C 0.4093(8) 0.9107(8) 0.2108(2)
H52 H 0.3758(11) 0.9722(9) 0.1990(3)
H53 H 0.4043(11) 0.8543(10) 0.1922(3)
H54 H 0.4923(7) 0.9229(11) 0.2175(3)
C42 C 0.3547(9) 0.9697(8) 0.2797(3)
H55 H 0.3232(12) 1.0337(6) 0.2694(4)
H56 H 0.439(1) 0.9779(12) 0.2855(3)
H57 H 0.3123(11) 0.9516(12) 0.3036(2)
C43 C 0.2034(6) 0.8721(8) 0.2385(3)
H58 H 0.1750(7) 0.9353(10) 0.2266(3)
H59 H 0.1586(6) 0.8583(10) 0.2623(3)
H60 H 0.1927(9) 0.8158(10) 0.2201(3)
#END
