
#######################################################################
#
#                 Cambridge Crystallographic Data Centre
#                                CCDC
#
#######################################################################
#
# If this CIF has been generated from an entry in the Cambridge
# Structural Database, then it will include bibliographic, chemical,
# crystal, experimental, refinement or atomic coordinate data resulting
# from the CCDC's data processing and validation procedures.
#
#######################################################################

data_CSD_CIF_ACAGAO
_audit_creation_date 2013-02-22
_audit_creation_method CSD-ConQuest-V1
_database_code_CSD ACAGAO
_database_code_depnum_ccdc_archive 'CCDC 858690'
_chemical_formula_sum 'C22 H22 N2 O6'
_chemical_formula_moiety
;
C22 H22 N2 O6
;
_journal_coden_Cambridge 177
_journal_volume 10
_journal_year 2012
_journal_page_first 8236
_journal_name_full 'Org.Biomol.Chem. '
loop_
_publ_author_name
"Hai-Bin Yang"
"Min Shi"
_chemical_name_systematic
;
Dimethyl 
1-methyl-2-oxo-2'-phenyl-1,2-dihydro-4'H-spiro[indole-3,3'-[1,2]oxazinane]-4',
4'-dicarboxylate
;
_cell_volume   3926.552
_exptl_crystal_colour 'colorless'
_exptl_crystal_density_diffrn 1.388
_exptl_crystal_description 'block'
_diffrn_ambient_temperature 133
#These two values have been output from a single CSD field.
_refine_ls_R_factor_gt 0.0487
_refine_ls_wR_factor_gt 0.0487
_symmetry_cell_setting monoclinic
_symmetry_space_group_name_H-M 'P 21/c'
_symmetry_Int_Tables_number 14
loop_
_symmetry_equiv_pos_site_id
_symmetry_equiv_pos_as_xyz
1 x,y,z
2 -x,1/2+y,1/2-z
3 -x,-y,-z
4 x,-1/2-y,-1/2+z
_cell_length_a 20.206(4)
_cell_length_b 8.8525(16)
_cell_length_c 22.032(4)
_cell_angle_alpha 90
_cell_angle_beta 94.898(3)
_cell_angle_gamma 90
_cell_formula_units_Z 8
loop_
_atom_type_symbol
_atom_type_radius_bond
C 0.68
H 0.23
N 0.68
O 0.68
loop_
_atom_site_label
_atom_site_type_symbol
_atom_site_fract_x
_atom_site_fract_y
_atom_site_fract_z
O1 O 0.69549(8) 0.88448(18) 0.37831(8)
O2 O 0.50074(8) 0.67760(19) 0.32058(9)
O3 O 0.60828(10) 0.4826(2) 0.50212(10)
O4 O 0.69586(9) 0.5906(2) 0.46399(8)
O5 O 0.63311(10) 0.8568(2) 0.50806(8)
O6 O 0.56645(9) 0.95218(18) 0.43126(8)
O7 O 0.18979(8) 0.62306(17) 0.37472(7)
O8 O 0.00460(8) 0.82783(19) 0.29390(8)
O9 O 0.07991(10) 1.0420(2) 0.47794(9)
O10 O 0.17406(9) 0.9185(2) 0.46450(8)
O11 O 0.1094(1) 0.6539(2) 0.49499(8)
O12 O 0.05352(9) 0.55453(18) 0.41290(8)
N1 N 0.72353(10) 0.6560(2) 0.33876(9)
N2 N 0.56246(10) 0.7622(2) 0.32090(9)
N3 N 0.22563(10) 0.8579(2) 0.34753(10)
N4 N 0.06730(9) 0.7459(2) 0.30261(9)
C1 C 0.69277(12) 0.5157(3) 0.32731(11)
C2 C 0.72072(13) 0.3869(3) 0.30539(13)
H1 H 0.76580 0.38460 0.29640
C3 C 0.68028(14) 0.2608(3) 0.29707(15)
H2 H 0.69830 0.17010 0.28230
C4 C 0.61411(14) 0.2639(3) 0.30972(15)
H3 H 0.58730 0.17620 0.30330
C5 C 0.58719(13) 0.3950(3) 0.33169(12)
H4 H 0.54190 0.39790 0.34030
C6 C 0.62659(11) 0.5209(3) 0.3409(1)
C7 C 0.61236(12) 0.6791(3) 0.36247(11)
C8 C 0.68146(11) 0.7569(2) 0.36122(10)
C9 C 0.79491(13) 0.6779(3) 0.34254(14)
H5 H 0.80550 0.78140 0.35580
H6 H 0.81110 0.66060 0.30240
H7 H 0.81640 0.60640 0.37200
C10 C 0.57918(12) 0.7663(3) 0.25863(11)
C11 C 0.61761(14) 0.8859(3) 0.24297(12)
H8 H 0.63260 0.95830 0.27290
C12 C 0.63459(16) 0.9010(3) 0.18368(12)
H9 H 0.66150 0.98320 0.17310
C13 C 0.61225(16) 0.7957(3) 0.13951(12)
H10 H 0.62320 0.80600 0.09860
C14 C 0.57368(15) 0.6757(3) 0.15639(13)
H11 H 0.55840 0.60340 0.12650
C15 C 0.55679(14) 0.6585(3) 0.21599(12)
H12 H 0.53070 0.57530 0.22710
C16 C 0.47287(13) 0.7110(3) 0.37601(13)
H13 H 0.42720 0.66990 0.37480
H14 H 0.47050 0.82180 0.38150
C17 C 0.51568(12) 0.6411(3) 0.42911(13)
H15 H 0.51190 0.52980 0.42680
H16 H 0.49880 0.67400 0.46790
C18 C 0.58980(12) 0.6863(3) 0.42920(11)
C19 C 0.63096(13) 0.5737(3) 0.46969(11)
C20 C 0.73970(16) 0.4892(4) 0.49966(16)
H17 H 0.73720 0.51010 0.54310
H18 H 0.78540 0.50420 0.48910
H19 H 0.72620 0.38450 0.49100
C21 C 0.60057(13) 0.8413(3) 0.46022(11)
C22 C 0.57808(16) 1.1000(3) 0.45806(13)
H20 H 0.56710 1.09830 0.50050
H21 H 0.55010 1.17460 0.43520
H22 H 0.62490 1.12730 0.45660
C23 C 0.19667(12) 0.9999(3) 0.33449(11)
C24 C 0.22899(14) 1.1341(3) 0.32551(13)
H23 H 0.27600 1.13890 0.32670
C25 C 0.18989(14) 1.2623(3) 0.31458(13)
H24 H 0.21080 1.35700 0.30950
C26 C 0.12136(13) 1.2546(3) 0.31102(12)
H25 H 0.09580 1.34310 0.30200
C27 C 0.08918(12) 1.1177(3) 0.32061(11)
H26 H 0.04210 1.11260 0.31830
C28 C 0.12734(12) 0.9900(3) 0.33347(10)
C29 C 0.10962(11) 0.8296(2) 0.34994(10)
C30 C 0.17908(12) 0.7532(3) 0.35928(10)
C31 C 0.29656(13) 0.8369(3) 0.36271(14)
H27 H 0.31140 0.90170 0.39730
H28 H 0.32070 0.86380 0.32750
H29 H 0.30540 0.73100 0.37360
C32 C 0.09267(12) 0.7425(3) 0.24308(10)
C33 C 0.07287(13) 0.8449(3) 0.19737(11)
H30 H 0.04380 0.92570 0.20520
C34 C 0.09599(13) 0.8282(3) 0.14001(11)
H31 H 0.08160 0.89680 0.10840
C35 C 0.13959(14) 0.7133(3) 0.12817(11)
H32 H 0.15520 0.70300 0.08890
C36 C 0.16018(14) 0.6135(3) 0.17453(12)
H33 H 0.19070 0.53530 0.16710
C37 C 0.13669(13) 0.6268(3) 0.23154(11)
H34 H 0.15060 0.55700 0.26280
C38 C -0.03227(12) 0.7902(3) 0.34426(12)
H35 H -0.03370 0.67910 0.34920
H36 H -0.07840 0.82750 0.33670
C39 C 0.00037(12) 0.8614(3) 0.40123(12)
H37 H -0.02260 0.82690 0.43670
H38 H -0.00460 0.97250 0.39830
C40 C 0.07536(12) 0.8219(3) 0.41204(10)
C41 C 0.10875(13) 0.9400(3) 0.45629(11)
C42 C 0.21065(16) 1.0304(4) 0.50171(14)
H39 H 0.20900 1.12760 0.48030
H40 H 0.25700 0.99820 0.50950
H41 H 0.19080 1.04130 0.54050
C43 C 0.08289(12) 0.6680(3) 0.44475(10)
C44 C 0.06270(14) 0.4079(3) 0.44211(12)
H42 H 0.11000 0.38170 0.44560
H43 H 0.03770 0.33130 0.41760
H44 H 0.04660 0.41180 0.48280
#END
