
#######################################################################
#
#                 Cambridge Crystallographic Data Centre
#                                CCDC
#
#######################################################################
#
# If this CIF has been generated from an entry in the Cambridge
# Structural Database, then it will include bibliographic, chemical,
# crystal, experimental, refinement or atomic coordinate data resulting
# from the CCDC's data processing and validation procedures.
#
#######################################################################

data_CSD_CIF_ACALUL
_audit_creation_date 2001-10-17
_audit_creation_method CSD-ConQuest-V1
_database_code_CSD ACALUL
_database_code_depnum_ccdc_archive 'CCDC 158581'
_chemical_formula_sum 'C17 H18 N2 O3'
_chemical_formula_moiety
;
C17 H18 N2 O3
;
_journal_coden_Cambridge 182
_journal_year 2001
_journal_page_first 1500
_journal_name_full 'Chem.Commun. '
loop_
_publ_author_name
"H.Adams"
"P.L.Bernad Junior"
"D.S.Eggleston"
"R.C.Haltiwanger"
"K.D.M.Harris"
"G.A.Hembury"
"C.A.Hunter"
"D.J.Livingstone"
"B.M.Kariuki"
"J.F.McCabe"
_chemical_name_systematic
;
N-4-nitrophenyl 4-t-butylbenzamide
;
_cell_volume    753.422
_exptl_crystal_colour 'colorless'
_exptl_crystal_density_diffrn 1.315
_exptl_crystal_description 'block'
_diffrn_ambient_temperature 293
#These two values have been output from a single CSD field.
_refine_ls_R_factor_gt 0.0613
_refine_ls_wR_factor_gt 0.0613
_symmetry_cell_setting triclinic
_symmetry_space_group_name_H-M 'P -1'
_symmetry_Int_Tables_number 2
loop_
_symmetry_equiv_pos_site_id
_symmetry_equiv_pos_as_xyz
1 x,y,z
2 -x,-y,-z
_cell_length_a 5.712(2)
_cell_length_b 10.575(3)
_cell_length_c 12.798(5)
_cell_angle_alpha 88.08(3)
_cell_angle_beta 77.96(2)
_cell_angle_gamma 85.32(3)
_cell_formula_units_Z 2
loop_
_atom_type_symbol
_atom_type_radius_bond
C 0.68
H 0.23
N 0.68
O 0.68
loop_
_atom_site_label
_atom_site_type_symbol
_atom_site_fract_x
_atom_site_fract_y
_atom_site_fract_z
O1 O 0.1444(10) -0.3897(3) -0.1028(2)
O2 O -0.2069(8) -0.6746(2) -0.5631(2)
O3 O 0.1186(7) -0.7630(3) -0.5266(2)
N1 N -0.2302(8) -0.40941(19) -0.13038(19)
H1 H -0.37970 -0.39090 -0.10380
N2 N -0.0604(10) -0.6908(2) -0.5060(2)
C1 C -0.1795(8) -0.4824(2) -0.2235(2)
C2 C -0.3475(8) -0.4718(2) -0.2873(2)
H2 H -0.48670 -0.41850 -0.26820
C3 C -0.3076(8) -0.5411(3) -0.3798(2)
H3 H -0.41920 -0.53400 -0.42370
C4 C -0.1053(8) -0.6194(2) -0.4065(2)
C5 C 0.0637(9) -0.6320(2) -0.3434(2)
H4 H 0.20200 -0.68590 -0.36280
C6 C 0.0237(8) -0.5633(2) -0.2512(2)
H5 H 0.13490 -0.57160 -0.20720
C7 C -0.0732(16) -0.3646(3) -0.0773(3)
C8 C -0.1830(8) -0.2789(2) 0.0126(2)
C9 C -0.4118(8) -0.2853(2) 0.0711(2)
H6 H -0.50650 -0.34650 0.05530
C10 C -0.5039(8) -0.2025(2) 0.1531(2)
H7 H -0.65920 -0.20980 0.19190
C11 C -0.3715(8) -0.1085(2) 0.1793(2)
C12 C -0.1413(9) -0.1042(3) 0.1204(3)
H8 H -0.04600 -0.04300 0.13590
C13 C -0.0478(8) -0.1874(3) 0.0393(2)
H9 H 0.10920 -0.18190 0.00190
C14 C -0.4810(8) -0.0100(2) 0.2652(2)
C15 C -0.6616(8) -0.0673(3) 0.3551(2)
H10 H -0.78240 -0.10340 0.32590
H11 H -0.73560 -0.00240 0.40450
H12 H -0.58070 -0.13240 0.39160
C16 C -0.6108(8) 0.0972(3) 0.2110(3)
H13 H -0.72880 0.06300 0.17880
H14 H -0.49670 0.13750 0.15700
H15 H -0.68830 0.15840 0.26330
C17 C -0.2929(10) 0.0437(4) 0.3158(4)
H16 H -0.36980 0.10430 0.36880
H17 H -0.17990 0.08460 0.26180
H18 H -0.21020 -0.02390 0.34900
#END
