
#######################################################################
#
#                 Cambridge Crystallographic Data Centre
#                                CCDC
#
#######################################################################
#
# If this CIF has been generated from an entry in the Cambridge
# Structural Database, then it will include bibliographic, chemical,
# crystal, experimental, refinement or atomic coordinate data resulting
# from the CCDC's data processing and validation procedures.
#
#######################################################################

data_CSD_CIF_ACALOF
_audit_creation_date 2001-10-17
_audit_creation_method CSD-ConQuest-V1
_database_code_CSD ACALOF
_database_code_depnum_ccdc_archive 'CCDC 158580'
_chemical_formula_sum 'C19 H22 N2 O3'
_chemical_formula_moiety
;
C19 H22 N2 O3
;
_journal_coden_Cambridge 182
_journal_year 2001
_journal_page_first 1500
_journal_name_full 'Chem.Commun. '
loop_
_publ_author_name
"H.Adams"
"P.L.Bernad Junior"
"D.S.Eggleston"
"R.C.Haltiwanger"
"K.D.M.Harris"
"G.A.Hembury"
"C.A.Hunter"
"D.J.Livingstone"
"B.M.Kariuki"
"J.F.McCabe"
_chemical_name_systematic
;
N-2,6-diisopropylphenyl 4-nitrobenzamide
;
_cell_volume   3701.433
_exptl_crystal_colour 'colorless'
_exptl_crystal_density_diffrn 1.171
_exptl_crystal_description 'block'
_diffrn_ambient_temperature 150
#These two values have been output from a single CSD field.
_refine_ls_R_factor_gt 0.0731
_refine_ls_wR_factor_gt 0.0731
_symmetry_cell_setting monoclinic
_symmetry_space_group_name_H-M 'P 21/n'
_symmetry_Int_Tables_number 14
loop_
_symmetry_equiv_pos_site_id
_symmetry_equiv_pos_as_xyz
1 x,y,z
2 1/2+x,1/2-y,1/2+z
3 -x,-y,-z
4 -1/2-x,-1/2+y,-1/2-z
_cell_length_a 19.197(3)
_cell_length_b 9.7545(15)
_cell_length_c 19.767(3)
_cell_angle_alpha 90
_cell_angle_beta 90.374(3)
_cell_angle_gamma 90
_cell_formula_units_Z 8
loop_
_atom_type_symbol
_atom_type_radius_bond
C 0.68
H 0.23
N 0.68
O 0.68
loop_
_atom_site_label
_atom_site_type_symbol
_atom_site_fract_x
_atom_site_fract_y
_atom_site_fract_z
N1 N 0.23824(12) 0.7438(2) 0.24863(11)
H1 H 0.25230 0.82840 0.24140
N2 N 0.50692(13) 0.7532(3) 0.05142(12)
O1 O 0.25774(12) 0.52146(19) 0.23120(13)
O2 O 0.52701(13) 0.8710(2) 0.04383(13)
O3 O 0.53405(13) 0.6558(2) 0.02337(12)
C1 C 0.27489(15) 0.6418(3) 0.22227(14)
C2 C 0.33607(14) 0.6771(2) 0.17844(13)
C3 C 0.37244(16) 0.5691(3) 0.14971(15)
H2 H 0.35890 0.47740 0.15920
C4 C 0.42828(15) 0.5934(3) 0.10731(14)
H3 H 0.45270 0.51970 0.08690
C5 C 0.44743(15) 0.7277(3) 0.09542(13)
C6 C 0.41286(16) 0.8358(3) 0.12333(14)
H4 H 0.42730 0.92710 0.11420
C7 C 0.35662(15) 0.8115(3) 0.16511(14)
H5 H 0.33210 0.88610 0.18460
C8 C 0.17694(14) 0.7232(2) 0.28821(13)
C9 C 0.11211(16) 0.7247(3) 0.25474(15)
C10 C 0.05321(17) 0.7152(3) 0.29524(17)
H6 H 0.00840 0.71680 0.27460
C11 C 0.05838(18) 0.7036(3) 0.36447(17)
H7 H 0.01730 0.69870 0.39100
C12 C 0.12230(18) 0.6991(3) 0.39526(15)
H8 H 0.12520 0.68950 0.44300
C13 C 0.18297(15) 0.7083(3) 0.35796(14)
C14 C 0.25369(19) 0.7076(3) 0.39307(16)
H9 H 0.28970 0.70210 0.35680
C15 C 0.2663(3) 0.8400(4) 0.4311(3)
H10 H 0.25990 0.91780 0.40030
H11 H 0.31390 0.84070 0.44920
H12 H 0.23310 0.84720 0.46840
C16 C 0.2637(3) 0.5836(4) 0.4381(3)
H13 H 0.25580 0.50000 0.41160
H14 H 0.23040 0.58730 0.47540
H15 H 0.31130 0.58320 0.45630
C17 C 0.10559(18) 0.7371(3) 0.17831(16)
H16 H 0.15370 0.73310 0.15940
C18 C 0.0745(3) 0.8729(4) 0.1576(2)
H17 H 0.07140 0.87760 0.10810
H18 H 0.10410 0.94750 0.17430
H19 H 0.02780 0.88180 0.17690
C19 C 0.0651(2) 0.6180(4) 0.14845(18)
H20 H 0.06220 0.62850 0.09920
H21 H 0.01810 0.61660 0.16740
H22 H 0.08900 0.53190 0.15940
N3 N 0.75369(12) 0.2701(2) 0.23238(11)
H23 H 0.75390 0.18800 0.25080
N4 N 0.55608(13) 0.2591(3) 0.49800(12)
O4 O 0.71995(11) 0.49041(17) 0.2418(1)
O5 O 0.54532(13) 0.1412(2) 0.51460(12)
O6 O 0.53283(14) 0.3567(2) 0.52858(12)
C20 C 0.71958(15) 0.3713(3) 0.26380(14)
C21 C 0.67890(14) 0.3359(2) 0.32610(13)
C22 C 0.67107(17) 0.2027(3) 0.34998(14)
H24 H 0.69320 0.12860 0.32760
C23 C 0.63063(17) 0.1788(3) 0.40682(15)
H25 H 0.62530 0.08830 0.42380
C24 C 0.59872(14) 0.2858(3) 0.43791(13)
C25 C 0.60620(16) 0.4195(3) 0.41548(15)
H26 H 0.58430 0.49330 0.43840
C26 C 0.64574(16) 0.4419(3) 0.35976(15)
H27 H 0.65080 0.53300 0.34340
C27 C 0.78986(15) 0.2905(2) 0.16991(13)
C28 C 0.75147(16) 0.2947(3) 0.10946(14)
C29 C 0.78810(18) 0.3105(3) 0.04960(15)
H28 H 0.76340 0.31580 0.00790
C30 C 0.85984(19) 0.3186(3) 0.04988(16)
H29 H 0.88410 0.32840 0.00840
C31 C 0.89624(17) 0.3125(3) 0.10964(17)
H30 H 0.94560 0.31840 0.10900
C32 C 0.86281(15) 0.2981(3) 0.17074(14)
C33 C 0.90310(17) 0.2866(3) 0.23685(17)
H31 H 0.87680 0.22440 0.26770
C34 C 0.9771(2) 0.2245(5) 0.2258(2)
H32 H 0.97270 0.13450 0.20410
H33 H 1.00080 0.21430 0.26960
H34 H 1.00420 0.28570 0.19680
C35 C 0.9098(2) 0.4250(3) 0.27070(19)
H35 H 0.86320 0.46270 0.27880
H36 H 0.93580 0.48730 0.24130
H37 H 0.93460 0.41470 0.31390
C36 C 0.67287(17) 0.2787(3) 0.10725(16)
H38 H 0.65700 0.26500 0.15480
C37 C 0.6373(2) 0.4076(4) 0.0807(2)
H39 H 0.65220 0.48670 0.10780
H40 H 0.58670 0.39700 0.08390
H41 H 0.65020 0.42220 0.03340
C38 C 0.65136(19) 0.1520(4) 0.06720(19)
H42 H 0.67490 0.07120 0.08590
H43 H 0.66450 0.16360 0.01970
H44 H 0.60080 0.13960 0.07020
#END
