
#######################################################################
#
#                 Cambridge Crystallographic Data Centre
#                                CCDC
#
#######################################################################
#
# If this CIF has been generated from an entry in the Cambridge
# Structural Database, then it will include bibliographic, chemical,
# crystal, experimental, refinement or atomic coordinate data resulting
# from the CCDC's data processing and validation procedures.
#
#######################################################################

data_CSD_CIF_ACALUO
_audit_creation_date 2017-09-29
_audit_creation_method CSD-ConQuest-V1
_database_code_CSD ACALUO
_database_code_depnum_ccdc_archive 'CCDC 1577194'
_chemical_formula_sum 'C38 H26 N6 O2'
_chemical_formula_moiety
;
C38 H26 N6 O2
;
_journal_coden_Cambridge 1078
_journal_year 2017
_journal_name_full 'CSD Communication(Private Communication) '
loop_
_publ_author_name
"Rui Li"
_chemical_name_systematic
;
N-[3,5-bis(pyridin-4-yl)phenyl]-N-(4-nitrophenyl)-3,5-bis(pyridin-4-yl)aniline
 unknown solvate
;
_cell_volume   3335.550
_exptl_crystal_colour 'yellow'
_exptl_crystal_density_diffrn 1.192
_exptl_crystal_description 'block'
_diffrn_ambient_temperature 173
_refine_special_details
;
The MASK/OLEX2 program has been used to model some disorder.

;
#These two values have been output from a single CSD field.
_refine_ls_R_factor_gt 0.0836
_refine_ls_wR_factor_gt 0.0836
_symmetry_cell_setting triclinic
_symmetry_space_group_name_H-M 'P -1'
_symmetry_Int_Tables_number 2
loop_
_symmetry_equiv_pos_site_id
_symmetry_equiv_pos_as_xyz
1 x,y,z
2 -x,-y,-z
_cell_length_a 12.759(3)
_cell_length_b 16.293(3)
_cell_length_c 16.879(3)
_cell_angle_alpha 106.09(3)
_cell_angle_beta 92.96(3)
_cell_angle_gamma 96.68(3)
_cell_formula_units_Z 4
loop_
_atom_type_symbol
_atom_type_radius_bond
C 0.68
H 0.23
N 0.68
O 0.68
loop_
_atom_site_label
_atom_site_type_symbol
_atom_site_fract_x
_atom_site_fract_y
_atom_site_fract_z
O1 O 0.46415(19) 0.70048(15) 0.60361(16)
O2 O 0.3238(2) 0.61909(15) 0.53641(15)
N1 N 1.1325(3) 0.4282(3) 0.5849(3)
N2 N 0.7731(2) 0.17603(19) 0.98118(18)
N3 N 0.4670(3) -0.07488(19) 0.28901(18)
N4 N 0.0569(2) 0.1296(2) 0.7693(2)
N5 N 0.54978(18) 0.33846(15) 0.64107(16)
N6 N 0.4090(2) 0.62925(18) 0.57734(17)
C1 C 0.4461(2) 0.55509(19) 0.59552(18)
C2 C 0.5395(2) 0.56503(19) 0.64534(19)
H1 H 0.57822 0.61937 0.66784
C3 C 0.5742(2) 0.49352(18) 0.66118(19)
H2 H 0.63597 0.50001 0.69532
C4 C 0.5172(2) 0.41129(18) 0.62634(18)
C5 C 0.4224(2) 0.40384(19) 0.57629(19)
H3 H 0.38317 0.34985 0.55284
C6 C 0.3876(2) 0.47517(19) 0.56193(19)
H4 H 0.32451 0.46970 0.52956
C7 C 0.4789(2) 0.25816(18) 0.61404(19)
C8 C 0.4940(2) 0.19688(19) 0.54181(19)
H5 H 0.55211 0.20616 0.51281
C9 C 0.4226(2) 0.12119(19) 0.51212(18)
C10 C 0.3359(2) 0.1102(2) 0.55750(19)
H6 H 0.28717 0.06044 0.53847
C11 C 0.3205(2) 0.17146(19) 0.63012(19)
C12 C 0.3939(2) 0.24561(18) 0.65892(19)
H7 H 0.38572 0.28658 0.70817
C13 C 0.2293(2) 0.1569(2) 0.6783(2)
C14 C 0.1311(3) 0.1186(2) 0.6406(2)
H8 H 0.12001 0.10043 0.58315
C15 C 0.0489(3) 0.1070(3) 0.6879(3)
H9 H -0.01686 0.08149 0.66033
C16 C 0.1495(3) 0.1701(4) 0.8054(3)
H10 H 0.15686 0.19086 0.86281
C17 C 0.2373(3) 0.1839(3) 0.7626(2)
H11 H 0.30151 0.21159 0.79169
C18 C 0.4378(2) 0.0542(2) 0.43505(19)
C19 C 0.3565(3) -0.0116(2) 0.3939(2)
H12 H 0.28985 -0.01398 0.41375
C20 C 0.3764(3) -0.0728(2) 0.3236(2)
H13 H 0.32130 -0.11639 0.29836
C21 C 0.5439(3) -0.0121(2) 0.3277(2)
H14 H 0.60899 -0.01133 0.30538
C22 C 0.5336(3) 0.0524(2) 0.3992(2)
H15 H 0.59079 0.09451 0.42319
C23 C 0.6520(2) 0.33652(18) 0.67996(18)
C24 C 0.7439(2) 0.36459(18) 0.64899(19)
H16 H 0.73963 0.38880 0.60529
C25 C 0.8428(2) 0.35649(19) 0.68339(19)
C26 C 0.8465(2) 0.32073(19) 0.74972(19)
H17 H 0.91204 0.31526 0.77312
C27 C 0.7551(2) 0.29319(18) 0.78154(18)
C28 C 0.6571(2) 0.30083(18) 0.74512(19)
H18 H 0.59492 0.28175 0.76491
C29 C 0.7613(2) 0.25388(19) 0.85142(19)
C30 C 0.8469(3) 0.2133(2) 0.8659(2)
H19 H 0.90256 0.21085 0.83219
C31 C 0.8495(3) 0.1766(3) 0.9303(2)
H20 H 0.90850 0.15058 0.93879
C32 C 0.6906(3) 0.2150(2) 0.9664(2)
H21 H 0.63537 0.21544 1.00036
C33 C 0.6816(2) 0.2546(2) 0.9046(2)
H22 H 0.62259 0.28156 0.89840
C34 C 0.9422(2) 0.3812(2) 0.6484(2)
C35 C 0.9569(3) 0.4540(2) 0.6197(2)
H23 H 0.90332 0.48830 0.62051
C36 C 1.0524(3) 0.4741(3) 0.5902(3)
H24 H 1.06146 0.52358 0.57273
C37 C 1.1169(3) 0.3583(4) 0.6121(3)
H25 H 1.17157 0.32470 0.60938
C38 C 1.0249(3) 0.3326(3) 0.6440(3)
H26 H 1.01884 0.28348 0.66210
O3 O 0.5728(2) 0.45379(16) 0.92854(17)
O4 O 0.4390(2) 0.36860(15) 0.85399(17)
N7 N 0.3118(3) 1.1956(2) 1.00590(19)
N8 N 0.8542(2) 0.9174(2) 0.6841(2)
N9 N 0.34300(18) 0.72454(16) 0.80600(16)
N10 N -0.2366(3) 0.5943(2) 0.8422(2)
N11 N 0.1315(2) 0.89283(18) 0.47285(18)
N12 N 0.4914(2) 0.44083(18) 0.88157(18)
C39 C 0.3789(3) 1.1925(2) 0.9476(2)
H27 H 0.40090 1.24334 0.93465
C40 C 0.4180(3) 1.1186(2) 0.9052(2)
H28 H 0.46354 1.12045 0.86424
C41 C 0.3889(2) 1.0411(2) 0.92378(19)
C42 C 0.3189(3) 1.0446(2) 0.9843(2)
H29 H 0.29623 0.99495 0.99913
C43 C 0.2828(3) 1.1208(2) 1.0227(2)
H30 H 0.23545 1.12051 1.06275
C44 C 0.4300(2) 0.96135(19) 0.87959(18)
C45 C 0.5276(2) 0.9652(2) 0.84683(19)
H31 H 0.56832 1.01855 0.85546
C46 C 0.5662(2) 0.89145(19) 0.80151(19)
C47 C 0.5058(2) 0.8119(2) 0.79058(19)
H32 H 0.53089 0.76190 0.76111
C48 C 0.4088(2) 0.80615(19) 0.82312(18)
C49 C 0.3710(2) 0.88007(19) 0.86817(18)
H33 H 0.30646 0.87571 0.89088
C50 C 0.6672(2) 0.8984(2) 0.7623(2)
C51 C 0.7474(3) 0.9663(2) 0.7956(2)
H34 H 0.74043 1.00720 0.84520
C52 C 0.8373(3) 0.9732(3) 0.7552(3)
H35 H 0.88961 1.01960 0.77882
C53 C 0.7764(3) 0.8516(3) 0.6521(3)
H36 H 0.78570 0.81164 0.60248
C54 C 0.6827(2) 0.8396(2) 0.6886(2)
H37 H 0.63136 0.79283 0.66383
C55 C 0.2402(2) 0.71979(19) 0.76402(19)
C56 C 0.1486(2) 0.68875(19) 0.79316(19)
H38 H 0.15297 0.66620 0.83798
C57 C 0.0500(2) 0.6914(2) 0.7551(2)
C58 C 0.0450(2) 0.7274(2) 0.6897(2)
H39 H -0.02074 0.73059 0.66519
C59 C 0.1369(2) 0.75888(18) 0.65990(19)
C60 C 0.2343(2) 0.75376(18) 0.69728(18)
H40 H 0.29629 0.77324 0.67749
C61 C 0.1325(2) 0.80147(19) 0.59309(19)
C62 C 0.2028(2) 0.7907(2) 0.53230(19)
H41 H 0.25240 0.75272 0.53033
C63 C 0.1991(3) 0.8363(2) 0.4746(2)
H42 H 0.24689 0.82714 0.43429
C64 C 0.0629(3) 0.9013(2) 0.5311(2)
H43 H 0.01363 0.93909 0.53119
C65 C 0.0598(3) 0.8583(2) 0.5907(2)
H44 H 0.00951 0.86718 0.62913
C66 C -0.0486(2) 0.6585(2) 0.7860(2)
C67 C -0.0558(3) 0.5852(2) 0.8129(2)
H45 H 0.00249 0.55599 0.81347
C68 C -0.1504(3) 0.5558(2) 0.8390(2)
H46 H -0.15365 0.50557 0.85535
C69 C -0.1390(2) 0.7000(2) 0.7892(2)
H47 H -0.13846 0.74966 0.77226
C70 C -0.2292(3) 0.6663(3) 0.8180(2)
H48 H -0.28802 0.69542 0.82062
C71 C 0.3809(2) 0.65294(19) 0.82205(18)
C72 C 0.4719(2) 0.66470(19) 0.87643(19)
H49 H 0.50767 0.71993 0.90031
C73 C 0.5089(2) 0.5953(2) 0.89489(19)
H50 H 0.56935 0.60338 0.93088
C74 C 0.4548(2) 0.5135(2) 0.85914(19)
C75 C 0.3668(2) 0.5001(2) 0.80410(19)
H51 H 0.33213 0.44453 0.78012
C76 C 0.3299(2) 0.5685(2) 0.78446(19)
H52 H 0.27124 0.55912 0.74639
#END
