
#######################################################################
#
#                 Cambridge Crystallographic Data Centre
#                                CCDC
#
#######################################################################
#
# If this CIF has been generated from an entry in the Cambridge
# Structural Database, then it will include bibliographic, chemical,
# crystal, experimental, refinement or atomic coordinate data resulting
# from the CCDC's data processing and validation procedures.
#
#######################################################################

data_CSD_CIF_ACAMEW
_audit_creation_date 2001-10-17
_audit_creation_method CSD-ConQuest-V1
_database_code_CSD ACAMEW
_database_code_depnum_ccdc_archive 'CCDC 158583'
_chemical_formula_sum 'C19 H22 N2 O3'
_chemical_formula_moiety
;
C19 H22 N2 O3
;
_journal_coden_Cambridge 182
_journal_year 2001
_journal_page_first 1500
_journal_name_full 'Chem.Commun. '
loop_
_publ_author_name
"H.Adams"
"P.L.Bernad Junior"
"D.S.Eggleston"
"R.C.Haltiwanger"
"K.D.M.Harris"
"G.A.Hembury"
"C.A.Hunter"
"D.J.Livingstone"
"B.M.Kariuki"
"J.F.McCabe"
_chemical_name_systematic
;
N-2,6-dimethyl-4-nitrophenyl 4-t-butylbenzamide
;
_cell_volume   5647.134
_exptl_crystal_colour 'colorless'
_exptl_crystal_density_diffrn 1.152
_exptl_crystal_description 'block'
_diffrn_ambient_temperature 293
_refine_special_details
;
The t-butyl groups are disordered over two positions.

;
#These two values have been output from a single CSD field.
_refine_ls_R_factor_gt 0.1042
_refine_ls_wR_factor_gt 0.1042
_symmetry_cell_setting monoclinic
_symmetry_space_group_name_H-M 'P 21/n'
_symmetry_Int_Tables_number 14
loop_
_symmetry_equiv_pos_site_id
_symmetry_equiv_pos_as_xyz
1 x,y,z
2 1/2+x,1/2-y,1/2+z
3 -x,-y,-z
4 -1/2-x,-1/2+y,-1/2-z
_cell_length_a 10.818(4)
_cell_length_b 26.351(8)
_cell_length_c 19.810(5)
_cell_angle_alpha 90
_cell_angle_beta 90.08(3)
_cell_angle_gamma 90
_cell_formula_units_Z 12
loop_
_atom_type_symbol
_atom_type_radius_bond
C 0.68
H 0.23
N 0.68
O 0.68
loop_
_atom_site_label
_atom_site_type_symbol
_atom_site_fract_x
_atom_site_fract_y
_atom_site_fract_z
O1 O 0.8492(7) -0.0041(4) 0.5412(3)
O2 O 0.6580(7) 0.0180(3) 0.5430(3)
O3 O 0.8229(7) 0.0647(3) 0.2065(3)
N1 N 0.7508(9) 0.0054(3) 0.5125(3)
N2 N 0.7341(6) -0.0102(2) 0.2290(3)
H1 H 0.70030 -0.03860 0.21170
C1 C 0.7456(9) 0.0029(3) 0.4387(4)
C2 C 0.8541(9) -0.0046(3) 0.4043(4)
H2 H 0.93000 -0.00860 0.42880
C3 C 0.8534(8) -0.0089(3) 0.3338(4)
C4 C 0.7381(9) -0.0048(3) 0.3009(4)
C5 C 0.6294(8) 0.0033(3) 0.3368(4)
C6 C 0.6338(8) 0.0070(3) 0.4063(4)
H3 H 0.55900 0.01190 0.43150
C7 C 0.7772(9) 0.0248(4) 0.1859(4)
C8 C 0.7677(8) 0.0146(3) 0.1134(4)
C9 C 0.7855(10) -0.0322(4) 0.0871(5)
H4 H 0.79820 -0.06010 0.11740
C10 C 0.7879(11) -0.0407(5) 0.0164(5)
H5 H 0.80740 -0.07350 -0.00190
C11 C 0.7591(9) -0.0019(4) -0.0286(4)
C12 C 0.7378(12) 0.0423(5) -0.0007(5)
H6 H 0.72280 0.07030 -0.03060
C13 C 0.7381(11) 0.0502(4) 0.0688(5)
H7 H 0.72210 0.08360 0.08600
C14 C 0.5081(8) 0.0077(4) 0.3003(4)
H8 H 0.52340 0.00480 0.25270
H9 H 0.45390 -0.01910 0.31440
H10 H 0.47040 0.03990 0.30960
C15 C 0.9720(9) -0.0184(4) 0.2966(4)
H11 H 0.95480 -0.01930 0.24910
H12 H 1.02990 0.00830 0.30600
H13 H 1.00670 -0.05030 0.31040
C16 C 0.7555(11) -0.0103(5) -0.1038(5)
C17? C 0.669(5) -0.0515(17) -0.1296(18)
H14? H 0.58130 -0.04930 -0.12480
H15? H 0.70060 -0.07790 -0.10090
H16? H 0.68970 -0.05900 -0.17570
C18 C 0.6172(18) -0.0163(10) -0.1211(8)
H17 H 0.57440 0.01560 -0.12230
H18 H 0.57960 -0.03800 -0.08790
H19 H 0.61240 -0.03220 -0.16460
C19 C 0.7810(16) 0.0338(5) -0.1462(6)
H20 H 0.86440 0.04490 -0.13890
H21 H 0.76910 0.02650 -0.19330
H22 H 0.72480 0.06010 -0.13270
C20? C 0.888(3) -0.028(2) -0.1192(19)
H23? H 0.91460 -0.01620 -0.16250
H24? H 0.90020 -0.06440 -0.11680
H25? H 0.93660 -0.01220 -0.08450
C21 C 0.812(3) -0.0611(8) -0.1253(8)
H26 H 0.79730 -0.06730 -0.17240
H27 H 0.78500 -0.08990 -0.09950
H28 H 0.89850 -0.05560 -0.11790
O4 O 0.5587(7) 0.1216(3) 0.4723(3)
O5 O 0.3683(7) 0.1004(3) 0.4796(3)
O6 O 0.4258(6) 0.0913(2) 0.8245(3)
N3 N 0.4645(9) 0.1151(3) 0.5050(3)
N4 N 0.4781(6) 0.1669(2) 0.7801(3)
H29 H 0.50170 0.19910 0.78830
C22 C 0.4666(9) 0.1243(3) 0.5789(4)
C23 C 0.5802(8) 0.1294(3) 0.6096(4)
H30 H 0.65600 0.12450 0.58530
C24 C 0.5848(9) 0.1415(3) 0.6782(4)
C25 C 0.4724(9) 0.1496(3) 0.7116(4)
C26 C 0.3577(9) 0.1432(3) 0.6803(4)
C27 C 0.3560(8) 0.1303(3) 0.6125(4)
H31 H 0.27870 0.12580 0.58930
C28 C 0.4553(8) 0.1356(4) 0.8329(4)
C29 C 0.4696(8) 0.1587(3) 0.9012(4)
C30 C 0.4678(11) 0.1265(4) 0.9557(4)
H32 H 0.45680 0.09070 0.94880
C31 C 0.4824(13) 0.1456(4) 1.0199(5)
H33 H 0.47940 0.12250 1.05740
C32 C 0.4958(10) 0.1947(4) 1.0360(5)
C33 C 0.4868(10) 0.2076(4) 0.9160(5)
H34 H 0.49470 0.23110 0.87940
C34 C 0.4986(11) 0.2245(4) 0.9814(5)
H35 H 0.50700 0.26020 0.98940
C35 C 0.2378(8) 0.1517(4) 0.7170(4)
H36 H 0.25390 0.16020 0.76330
H37 H 0.19460 0.17910 0.69560
H38 H 0.18820 0.12150 0.71500
C36 C 0.7065(8) 0.1469(4) 0.7145(4)
H39 H 0.69300 0.15550 0.76100
H40 H 0.75220 0.11570 0.71190
H41 H 0.75250 0.17350 0.69300
C37 C 0.5080(15) 0.2147(5) 1.1075(6)
C38 C 0.514(2) 0.1753(6) 1.1574(6)
H42 H 0.43460 0.15880 1.15800
H43 H 0.57650 0.15120 1.14580
H44 H 0.53090 0.18920 1.20130
C39 C 0.440(3) 0.2641(9) 1.1213(9)
H45 H 0.35300 0.25870 1.11620
H46 H 0.46710 0.28950 1.08980
H47 H 0.45750 0.27530 1.16640
C40? C 0.372(3) 0.224(2) 1.131(2)
H48? H 0.33290 0.19180 1.13970
H49? H 0.32760 0.24130 1.09590
H50? H 0.37210 0.24400 1.17120
C41 C 0.648(2) 0.2288(12) 1.1195(15)
H51 H 0.65840 0.24290 1.16370
H52 H 0.67400 0.25300 1.08620
H53 H 0.69690 0.19850 1.11540
C42? C 0.604(5) 0.2586(18) 1.108(4)
H54? H 0.68010 0.24570 1.12530
H55? H 0.57430 0.28550 1.13600
H56? H 0.61690 0.27130 1.06280
O7 O 0.5653(7) 0.3805(3) 1.0603(3)
O8 O 0.3725(8) 0.3846(4) 1.0584(4)
O9 O 0.5465(7) 0.2707(2) 0.7514(3)
N5 N 0.4687(9) 0.3792(3) 1.0304(4)
N6 N 0.4669(6) 0.3490(3) 0.7493(3)
H57 H 0.43920 0.37430 0.72280
C43 C 0.4676(10) 0.3709(3) 0.9568(4)
C44 C 0.5784(9) 0.3717(3) 0.9240(4)
H58 H 0.65400 0.37680 0.94850
C45 C 0.5806(9) 0.3636(3) 0.8540(4)
C46 C 0.4672(9) 0.3563(3) 0.8216(4)
C47 C 0.3537(9) 0.3563(3) 0.8556(4)
C48 C 0.3564(9) 0.3639(3) 0.9247(4)
H59 H 0.28070 0.36450 0.94990
C49 C 0.5047(8) 0.3060(3) 0.7183(4)
C50 C 0.4967(9) 0.3053(3) 0.6440(4)
C51 C 0.5418(11) 0.2653(4) 0.6090(5)
H60 H 0.58260 0.23920 0.63430
C52 C 0.5381(12) 0.2616(4) 0.5390(5)
H61 H 0.57540 0.23310 0.51670
C53 C 0.4883(10) 0.2983(4) 0.5000(4)
C54 C 0.4478(11) 0.3380(4) 0.5350(5)
H62 H 0.41720 0.36580 0.50860
C55 C 0.4515(11) 0.3420(4) 0.6050(4)
H63 H 0.42440 0.37270 0.62660
C56 C 0.2345(8) 0.3482(4) 0.8183(4)
H64 H 0.25310 0.34310 0.77140
H65 H 0.19160 0.31900 0.83540
H66 H 0.18340 0.37770 0.82330
C57 C 0.6987(9) 0.3655(4) 0.8162(4)
H67 H 0.68110 0.35990 0.76930
H68 H 0.73830 0.39790 0.82150
H69 H 0.75250 0.33930 0.83250
C58 C 0.4828(14) 0.2928(4) 0.4237(5)
C59? C 0.533(4) 0.3397(13) 0.394(2)
H70? H 0.61010 0.34760 0.41540
H71? H 0.47530 0.36690 0.40190
H72? H 0.54480 0.33540 0.34670
C60 C 0.429(3) 0.3376(9) 0.3897(12)
H73 H 0.45070 0.36770 0.41430
H74 H 0.34100 0.33430 0.38780
H75 H 0.46170 0.33990 0.34470
C61 C 0.6017(19) 0.2742(11) 0.3969(7)
H76 H 0.58690 0.25190 0.35940
H77 H 0.64490 0.25610 0.43180
H78 H 0.65070 0.30250 0.38230
C62? C 0.333(5) 0.2884(16) 0.4022(17)
H79? H 0.28740 0.31480 0.42410
H80? H 0.30150 0.25590 0.41590
H81? H 0.32550 0.29180 0.35420
C63 C 0.424(3) 0.2439(8) 0.4030(9)
H82 H 0.41720 0.24260 0.35470
H83 H 0.34300 0.24160 0.42270
H84 H 0.47370 0.21610 0.41850
#END
