
#######################################################################
#
#                 Cambridge Crystallographic Data Centre
#                                CCDC
#
#######################################################################
#
# If this CIF has been generated from an entry in the Cambridge
# Structural Database, then it will include bibliographic, chemical,
# crystal, experimental, refinement or atomic coordinate data resulting
# from the CCDC's data processing and validation procedures.
#
#######################################################################

data_CSD_CIF_ACAMIA
_audit_creation_date 2001-10-17
_audit_creation_method CSD-ConQuest-V1
_database_code_CSD ACAMIA
_database_code_depnum_ccdc_archive 'CCDC 158584'
_chemical_formula_sum 'C21 H26 N2 O3'
_chemical_formula_moiety
;
C21 H26 N2 O3
;
_journal_coden_Cambridge 182
_journal_year 2001
_journal_page_first 1500
_journal_name_full 'Chem.Commun. '
loop_
_publ_author_name
"H.Adams"
"P.L.Bernad Junior"
"D.S.Eggleston"
"R.C.Haltiwanger"
"K.D.M.Harris"
"G.A.Hembury"
"C.A.Hunter"
"D.J.Livingstone"
"B.M.Kariuki"
"J.F.McCabe"
_chemical_name_systematic
;
N-2,6-diethyl-4-nitrophenyl 4-t-butylbenzamide
;
_cell_volume   5988.459
_exptl_crystal_density_diffrn 1.179
_diffrn_ambient_temperature 296
#These two values have been output from a single CSD field.
_refine_ls_R_factor_gt 0.1184
_refine_ls_wR_factor_gt 0.1184
_symmetry_cell_setting monoclinic
_symmetry_space_group_name_H-M 'P 21/n'
_symmetry_Int_Tables_number 14
loop_
_symmetry_equiv_pos_site_id
_symmetry_equiv_pos_as_xyz
1 x,y,z
2 1/2+x,1/2-y,1/2+z
3 -x,-y,-z
4 -1/2-x,-1/2+y,-1/2-z
_cell_length_a 10.601(2)
_cell_length_b 20.517(5)
_cell_length_c 27.623(6)
_cell_angle_alpha 90
_cell_angle_beta 94.625(4)
_cell_angle_gamma 90
_cell_formula_units_Z 12
loop_
_atom_type_symbol
_atom_type_radius_bond
C 0.68
H 0.23
N 0.68
O 0.68
loop_
_atom_site_label
_atom_site_type_symbol
_atom_site_fract_x
_atom_site_fract_y
_atom_site_fract_z
O1 O 0.5349(10) -0.0201(4) 0.6152(5)
O2 O 0.3417(10) -0.0155(4) 0.6084(5)
O3 O 0.4375(6) 0.3159(3) 0.5913(2)
O4 O 0.3382(8) -0.0307(3) 0.4891(4)
O5 O 0.1431(9) -0.0243(3) 0.4959(4)
O6 O 0.1916(7) 0.2908(3) 0.4328(2)
O7 O 0.1520(9) -0.0592(4) 0.3791(5)
O8 O -0.0445(9) -0.0572(4) 0.3831(4)
O9 O -0.0102(7) 0.2380(3) 0.2701(3)
N1 N 0.4413(13) 0.0094(4) 0.6144(4)
N2 N 0.4666(7) 0.2730(3) 0.6652(3)
H1 H 0.47530 0.28070 0.69590
N3 N 0.2449(10) -0.0005(4) 0.4947(4)
N4 N 0.2785(7) 0.2711(3) 0.5077(2)
H2 H 0.31200 0.28700 0.53460
N5 N 0.0546(12) -0.0317(4) 0.3787(4)
N6 N 0.0523(4) 0.23985(18) 0.34913(13)
H3 H 0.06880 0.26380 0.37440
C1 C 0.4457(4) 0.07787(18) 0.62574(13)
C2 C 0.5622(4) 0.10933(18) 0.62896(13)
H4 H 0.63510 0.08630 0.62340
C3 C 0.5696(4) 0.17522(18) 0.64055(13)
C4 C 0.4605(4) 0.20964(18) 0.64891(13)
C5 C 0.3440(4) 0.17818(18) 0.64569(13)
C6 C 0.3366(4) 0.11229(18) 0.63411(13)
H5 H 0.25870 0.09120 0.63200
C7 C 0.2089(19) 0.2203(7) 0.6435(8)
H6 H 0.21900 0.26410 0.63120
H7 H 0.14110 0.19840 0.62430
C8 C 0.191(2) 0.2202(10) 0.6881(8)
H8 H 0.23130 0.18260 0.70330
H9 H 0.10210 0.21880 0.69200
H10 H 0.22690 0.25900 0.70310
C9 C 0.6914(11) 0.2144(8) 0.6348(11)
H11 H 0.73220 0.19330 0.60870
H12 H 0.66390 0.25680 0.62250
C10 C 0.759(2) 0.2230(12) 0.6603(12)
H13 H 0.72300 0.24250 0.68770
H14 H 0.81960 0.25210 0.64820
H15 H 0.79940 0.18270 0.67010
C11 C 0.4592(4) 0.32256(19) 0.63405(16)
C12 C 0.4745(4) 0.38958(19) 0.65585(16)
C13 C 0.4869(4) 0.40195(19) 0.70548(16)
H16 H 0.48440 0.36770 0.72740
C14 C 0.5032(4) 0.46549(19) 0.72230(16)
H17 H 0.51150 0.47380 0.75550
C15 C 0.5070(4) 0.51667(19) 0.68948(16)
C16 C 0.4946(4) 0.50430(19) 0.63985(16)
H18 H 0.49720 0.53850 0.61790
C17 C 0.4784(4) 0.44076(19) 0.62303(16)
H19 H 0.47010 0.43250 0.58980
C18 C 0.5134(17) 0.5876(5) 0.7077(5)
C19 C 0.523(2) 0.5929(6) 0.7597(7)
H20 H 0.59910 0.57150 0.77280
H21 H 0.45110 0.57270 0.77230
H22 H 0.52640 0.63810 0.76880
C20 C 0.623(3) 0.6165(9) 0.6906(11)
H23 H 0.69720 0.59740 0.70710
H24 H 0.62240 0.66250 0.69690
H25 H 0.62350 0.60920 0.65630
C21 C 0.3992(13) 0.6278(5) 0.6892(7)
H26 H 0.40890 0.67170 0.70090
H27 H 0.32400 0.60910 0.70050
H28 H 0.39250 0.62800 0.65430
C22 C 0.2550(4) 0.06989(18) 0.49645(13)
C23 C 0.3725(4) 0.10014(18) 0.49705(13)
H29 H 0.44530 0.07520 0.49560
C24 C 0.3810(4) 0.1677(2) 0.49987(13)
C25 C 0.2722(4) 0.20492(18) 0.50208(13)
C26 C 0.1547(4) 0.17468(18) 0.50148(13)
C27 C 0.1462(4) 0.10716(19) 0.49866(14)
H30 H 0.06760 0.08690 0.49830
C28 C 0.0357(10) 0.2127(5) 0.5077(5)
H31 H 0.05700 0.24510 0.53260
H32 H 0.01590 0.23640 0.47770
C29 C -0.0725(12) 0.1840(6) 0.5191(7)
H33 H -0.09620 0.15090 0.49550
H34 H -0.13850 0.21610 0.51900
H35 H -0.05990 0.16470 0.55070
C30 C 0.5068(10) 0.1980(5) 0.5013(5)
H36 H 0.50270 0.24040 0.51670
H37 H 0.56580 0.17150 0.52150
C31 C 0.5528(16) 0.2058(8) 0.4573(6)
H38 H 0.55540 0.16440 0.44130
H39 H 0.63670 0.22370 0.46150
H40 H 0.49900 0.23500 0.43790
C32 C 0.2351(3) 0.31033(15) 0.47363(14)
C33 C 0.2401(3) 0.38214(15) 0.48160(14)
C34 C 0.2306(3) 0.40832(15) 0.52757(14)
H41 H 0.22340 0.38090 0.55400
C35 C 0.2320(3) 0.47551(15) 0.53404(14)
H42 H 0.22560 0.49300 0.56480
C36 C 0.2428(3) 0.51651(15) 0.49453(14)
C37 C 0.2523(3) 0.49033(15) 0.44856(14)
H43 H 0.25960 0.51780 0.42210
C38 C 0.2510(3) 0.42314(15) 0.44209(14)
H44 H 0.25730 0.40560 0.41130
C39 C 0.2389(12) 0.5909(4) 0.5011(4)
C40 C 0.375(2) 0.6077(6) 0.5156(10)
H45 H 0.39480 0.59750 0.54930
H46 H 0.38870 0.65340 0.51060
H47 H 0.42950 0.58300 0.49630
C41 C 0.168(2) 0.6113(5) 0.5412(6)
H48 H 0.08510 0.59180 0.53790
H49 H 0.15920 0.65790 0.54080
H50 H 0.21130 0.59780 0.57130
C42 C 0.216(2) 0.6291(2) 0.45091(18)
H51 H 0.13910 0.61410 0.43380
H52 H 0.28580 0.62130 0.43150
H53 H 0.20980 0.67500 0.45720
C43 C 0.0584(5) 0.0378(2) 0.37125(15)
C44 C 0.1724(5) 0.0688(2) 0.36463(15)
H54 H 0.24690 0.04470 0.36550
C45 C 0.1751(5) 0.1356(2) 0.35674(15)
C46 C 0.0637(4) 0.1716(2) 0.35548(15)
C47 C -0.0503(4) 0.1407(2) 0.36210(15)
C48 C -0.0529(4) 0.0738(2) 0.36998(15)
H55 H -0.12920 0.05310 0.37440
C49 C 0.2890(12) 0.1724(6) 0.3519(6)
H56 H 0.27970 0.21560 0.36540
H57 H 0.35930 0.15110 0.37020
C50 C 0.3142(18) 0.1775(8) 0.3051(8)
H58 H 0.30690 0.13530 0.29000
H59 H 0.39860 0.19370 0.30340
H60 H 0.25500 0.20690 0.28860
C51 C -0.1804(13) 0.1791(7) 0.3747(8)
H61 H -0.21580 0.15950 0.40260
H62 H -0.16280 0.22470 0.38180
C52 C -0.259(2) 0.1732(9) 0.3358(7)
H63 H -0.21460 0.18220 0.30750
H64 H -0.32720 0.20340 0.33750
H65 H -0.29120 0.12950 0.33390
C53 C 0.0190(4) 0.2697(2) 0.30842(17)
C54 C 0.0081(4) 0.3403(2) 0.30794(17)
C55 C 0.0134(4) 0.3753(2) 0.35113(17)
H66 H 0.02600 0.35370 0.38070
C56 C -0.0001(4) 0.4427(2) 0.35010(17)
H67 H 0.00350 0.46610 0.37900
C57 C -0.0189(4) 0.4750(2) 0.30590(17)
C58 C -0.0242(4) 0.4400(2) 0.26271(17)
H68 H -0.03680 0.46160 0.23310
C59 C -0.0107(4) 0.3726(2) 0.26373(17)
H69 H -0.01430 0.34920 0.23480
C60 C -0.0257(16) 0.5514(5) 0.3057(5)
C61 C 0.1093(19) 0.5785(7) 0.3108(7)
H70 H 0.15590 0.56140 0.28520
H71 H 0.15000 0.56580 0.34170
H72 H 0.10660 0.62520 0.30870
C62 C -0.093(2) 0.5755(6) 0.3475(7)
H73 H -0.10090 0.62200 0.34570
H74 H -0.04620 0.56360 0.37740
H75 H -0.17600 0.55620 0.34640
C63 C -0.083(2) 0.5740(6) 0.2587(6)
H76 H -0.16370 0.55370 0.25190
H77 H -0.02850 0.56280 0.23370
H78 H -0.09320 0.62050 0.25950
#END
