
#######################################################################
#
#                 Cambridge Crystallographic Data Centre
#                                CCDC
#
#######################################################################
#
# If this CIF has been generated from an entry in the Cambridge
# Structural Database, then it will include bibliographic, chemical,
# crystal, experimental, refinement or atomic coordinate data resulting
# from the CCDC's data processing and validation procedures.
#
#######################################################################

data_CSD_CIF_ACEDOE
_audit_creation_date 2017-09-29
_audit_creation_method CSD-ConQuest-V1
_database_code_CSD ACEDOE
_database_code_depnum_ccdc_archive 'CCDC 1555885'
_chemical_formula_sum 'C9 H9 N1 O5'
_chemical_formula_moiety
;
C9 H9 N1 O5
;
_journal_coden_Cambridge 4
_journal_volume 139
_journal_year 2017
_journal_page_first 13483
_journal_name_full 'J.Am.Chem.Soc. '
loop_
_publ_author_name
"Mingxin Dong"
"A.Babalhavaeji"
"C.V.Collins"
"K.Jarrah"
"O.Sadovski"
"Qiuyun Dai"
"G.Andrew Woolley"
_chemical_name_systematic
;
5-methoxy-6-nitro-2,3-dihydro-1,4-benzodioxine
;
_cell_volume    911.172
_exptl_crystal_colour 'yellow'
_exptl_crystal_density_diffrn 1.539
_exptl_crystal_description 'needle'
_diffrn_ambient_temperature 147
#These two values have been output from a single CSD field.
_refine_ls_R_factor_gt 0.0419
_refine_ls_wR_factor_gt 0.0419
_symmetry_cell_setting monoclinic
_symmetry_space_group_name_H-M 'P 21/c'
_symmetry_Int_Tables_number 14
loop_
_symmetry_equiv_pos_site_id
_symmetry_equiv_pos_as_xyz
1 x,y,z
2 -x,1/2+y,1/2-z
3 -x,-y,-z
4 x,-1/2-y,-1/2+z
_cell_length_a 3.9358(2)
_cell_length_b 18.4765(7)
_cell_length_c 12.6373(5)
_cell_angle_alpha 90
_cell_angle_beta 97.475(3)
_cell_angle_gamma 90
_cell_formula_units_Z 4
loop_
_atom_type_symbol
_atom_type_radius_bond
C 0.68
H 0.23
N 0.68
O 0.68
loop_
_atom_site_label
_atom_site_type_symbol
_atom_site_fract_x
_atom_site_fract_y
_atom_site_fract_z
O1 O 0.2755(3) 0.52519(7) 0.09841(9)
O2 O 0.6706(3) 0.50147(6) 0.30116(9)
O3 O 0.9897(3) 0.61343(7) 0.40687(9)
O4 O 0.9035(6) 0.75960(9) 0.42545(13)
O5 O 0.9914(4) 0.80833(7) 0.27699(13)
N1 N 0.8919(4) 0.75805(9) 0.32853(14)
C1 C 0.7780(4) 0.62664(9) 0.31477(13)
C2 C 0.7379(5) 0.69566(9) 0.27027(14)
C3 C 0.5515(5) 0.70761(10) 0.17126(14)
H1 H 0.53140 0.75500 0.14210
C4 C 0.3956(5) 0.65004(10) 0.11552(13)
H2 H 0.26350 0.65770 0.04800
C5 C 0.4310(4) 0.58100(9) 0.15771(13)
C6 C 0.6206(4) 0.56893(9) 0.25695(13)
C7 C 0.4218(5) 0.45563(9) 0.12965(14)
H3 H 0.65280 0.45160 0.10710
H4 H 0.27660 0.41670 0.09400
C8 C 0.4465(5) 0.44704(9) 0.24815(14)
H5 H 0.21570 0.45160 0.27060
H6 H 0.53630 0.39830 0.26890
C9 C 0.8193(5) 0.59953(12) 0.49895(14)
H7 H 0.98890 0.58570 0.55930
H8 H 0.65370 0.56020 0.48300
H9 H 0.69910 0.64330 0.51720
#END
