
#######################################################################
#
#                 Cambridge Crystallographic Data Centre
#                                CCDC
#
#######################################################################
#
# If this CIF has been generated from an entry in the Cambridge
# Structural Database, then it will include bibliographic, chemical,
# crystal, experimental, refinement or atomic coordinate data resulting
# from the CCDC's data processing and validation procedures.
#
#######################################################################

data_CSD_CIF_ACENIH
_audit_creation_date 1974-05-08
_audit_creation_method CSD-ConQuest-V1
_database_code_CSD ACENIH
_chemical_formula_sum 'C8 H14 N6 O10'
_chemical_formula_moiety
;
C8 H14 N6 O10
;
_journal_coeditor_code "IUCr A10383"
_journal_coden_Cambridge 107
_journal_volume 29
_journal_year 1973
_journal_page_first 2795
_journal_name_full 'Acta Crystallogr.,Sect.B:Struct.Crystallogr.Cryst.Chem. '
loop_
_publ_author_name
"R.E.Cobbledick"
"R.W.H.Small"
_chemical_name_systematic
;
1,7-Diacetoxy-2,4,6-trinitro-2,4,6-triazaheptane
;
_cell_volume   1483.172
_exptl_crystal_density_diffrn 1.586
_diffrn_ambient_temperature ?
_diffrn_special_details
;
The study was carried out at room temperature,in the range 283-303K

;
#These two values have been output from a single CSD field.
_refine_ls_R_factor_gt 0.115
_refine_ls_wR_factor_gt 0.115
_symmetry_cell_setting monoclinic
_symmetry_space_group_name_H-M 'C 2/c'
_symmetry_Int_Tables_number 15
loop_
_symmetry_equiv_pos_site_id
_symmetry_equiv_pos_as_xyz
1 x,y,z
2 1/2+x,1/2+y,z
3 -x,y,1/2-z
4 1/2-x,1/2+y,1/2-z
5 -x,-y,-z
6 -1/2-x,-1/2-y,-z
7 x,-y,-1/2+z
8 -1/2+x,-1/2-y,-1/2+z
_cell_length_a 26.935(4)
_cell_length_b 9.174(1)
_cell_length_c 6.122(1)
_cell_angle_alpha 90
_cell_angle_beta 101.35(3)
_cell_angle_gamma 90
_cell_formula_units_Z 4
loop_
_atom_type_symbol
_atom_type_radius_bond
C 0.68
H 0.20
N 0.68
O 0.68
loop_
_atom_site_label
_atom_site_type_symbol
_atom_site_fract_x
_atom_site_fract_y
_atom_site_fract_z
C1 C 0.18939 0.25142 -0.36881
C2 C 0.13451 0.18011 -0.70960
C3 C 0.04674 0.25244 -0.65012
C4 C 0.21778 0.37604 -0.26075
H1 H 0.13009 0.10204 -0.61770
H2 H 0.19343 0.48019 -0.26691
H3 H 0.22999 0.34633 -0.12902
H4 H 0.15451 0.12940 -0.85465
H5 H 0.06001 0.20577 -0.51740
H6 H 0.03786 0.36831 -0.63185
H7 H 0.24871 0.39465 -0.31460
N1 N 0.08534 0.24068 -0.78928
N2 N 0.08046 0.33447 -0.97001
N3 N 0.00000 0.17972 -0.75000
N4 N 0.00000 0.03167 -0.75000
O1 O 0.16632 0.28538 -0.58079
O2 O 0.11635 0.34547 -1.06188
O3 O 0.03970 0.39456 -1.02594
O4 O 0.03997 -0.02971 -0.67474
O5 O 0.18444 0.13257 -0.29409
C3B C -0.04674 0.25244 -0.84988
O4B O -0.03997 -0.02971 -0.82526
H5B H -0.06001 0.20577 -0.98260
H6B H -0.03786 0.36831 -0.86815
N1B N -0.08534 0.24068 -0.71072
C2B C -0.13451 0.18011 -0.79040
N2B N -0.08046 0.33447 -0.52999
H1B H -0.13009 0.10204 -0.88230
H4B H -0.15451 0.12940 -0.64535
O1B O -0.16632 0.28538 -0.91921
O2B O -0.11635 0.34547 -0.43812
O3B O -0.03970 0.39456 -0.47406
C1B C -0.18939 0.25142 -1.13119
C4B C -0.21778 0.37604 -1.23925
O5B O -0.18444 0.13257 -1.20591
H2B H -0.19343 0.48019 -1.23309
H3B H -0.22999 0.34633 -1.37098
H7B H -0.24871 0.39465 -1.18540
#END
