
#######################################################################
#
#                 Cambridge Crystallographic Data Centre
#                                CCDC
#
#######################################################################
#
# If this CIF has been generated from an entry in the Cambridge
# Structural Database, then it will include bibliographic, chemical,
# crystal, experimental, refinement or atomic coordinate data resulting
# from the CCDC's data processing and validation procedures.
#
#######################################################################

data_CSD_CIF_ACENUS
_audit_creation_date 2005-02-04
_audit_creation_method CSD-ConQuest-V1
_database_code_CSD ACENUS
_database_code_depnum_ccdc_archive 'CCDC 255862'
_chemical_formula_sum 'C11 H13 N1 O4'
_chemical_formula_moiety
;
C11 H13 N1 O4
;
_journal_coeditor_code "IUCr AC6124"
_journal_coden_Cambridge 1370
_journal_volume 60
_journal_year 2004
_journal_page_first o1923
_journal_name_full 'Acta Crystallogr.,Sect.E:Struct.Rep.Online '
loop_
_publ_author_name
"R.Chopra"
"Ning Shan"
"W.D.S.Motherwell"
"W.Jones"
_chemical_name_systematic
;
rac-2-(p-Nitrophenoxy)tetrahydropyran
;
_chemical_melting_point 332
_cell_volume   1086.686
_exptl_crystal_colour 'pale yellow'
_exptl_crystal_density_diffrn 1.364
_exptl_crystal_description 'block'
_exptl_crystal_preparation 'hexane'
_diffrn_ambient_temperature 180
#These two values have been output from a single CSD field.
_refine_ls_R_factor_gt 0.0422
_refine_ls_wR_factor_gt 0.0422
_symmetry_cell_setting monoclinic
_symmetry_space_group_name_H-M 'P 21/c'
_symmetry_Int_Tables_number 14
loop_
_symmetry_equiv_pos_site_id
_symmetry_equiv_pos_as_xyz
1 x,y,z
2 -x,1/2+y,1/2-z
3 -x,-y,-z
4 x,-1/2-y,-1/2+z
_cell_length_a 7.4772(1)
_cell_length_b 21.9462(4)
_cell_length_c 6.7828(1)
_cell_angle_alpha 90
_cell_angle_beta 102.491(1)
_cell_angle_gamma 90
_cell_formula_units_Z 4
loop_
_atom_type_symbol
_atom_type_radius_bond
C 0.68
H 0.23
N 0.68
O 0.68
loop_
_atom_site_label
_atom_site_type_symbol
_atom_site_fract_x
_atom_site_fract_y
_atom_site_fract_z
N1 N 0.0794(2) 0.31572(6) 0.83905(18)
O1 O -0.08743(19) 0.30900(6) 0.81357(19)
O2 O 0.1547(2) 0.36578(5) 0.8542(2)
O3 O 0.49426(12) 0.10316(4) 0.89300(14)
O4 O 0.74541(13) 0.12513(5) 0.75296(16)
C1 C 0.19406(19) 0.26134(6) 0.85389(18)
C2 C 0.10857(18) 0.20498(6) 0.83302(19)
H1 H -0.02110 0.20200 0.80970
C3 C 0.21496(17) 0.15338(6) 0.84666(19)
H2 H 0.15850 0.11440 0.83310
C4 C 0.40482(17) 0.15789(6) 0.88016(18)
C5 C 0.48881(18) 0.21476(6) 0.8987(2)
H3 H 0.61830 0.21790 0.91990
C6 C 0.3819(2) 0.26676(6) 0.8859(2)
H4 H 0.43760 0.30590 0.89920
C7 C 0.69021(17) 0.10322(7) 0.9249(2)
H5 H 0.74110 0.13060 1.04140
C8 C 0.7531(2) 0.03892(8) 0.9800(2)
H6 H 0.69430 0.02400 1.08820
H7 H 0.88730 0.03890 1.03320
C9 C 0.7073(2) -0.00382(7) 0.8016(2)
H8 H 0.57320 -0.01030 0.76420
H9 H 0.76660 -0.04380 0.83840
C10 C 0.7730(2) 0.02266(7) 0.6232(2)
H10 H 0.90850 0.02430 0.65420
H11 H 0.73250 -0.00370 0.50330
C11 C 0.6961(2) 0.08599(7) 0.5787(2)
H12 H 0.74320 0.10360 0.46560
H13 H 0.56090 0.08370 0.53660
#END
