
#######################################################################
#
#                 Cambridge Crystallographic Data Centre
#                                CCDC
#
#######################################################################
#
# If this CIF has been generated from an entry in the Cambridge
# Structural Database, then it will include bibliographic, chemical,
# crystal, experimental, refinement or atomic coordinate data resulting
# from the CCDC's data processing and validation procedures.
#
#######################################################################

data_CSD_CIF_ACEOXM01
_audit_creation_date 2004-12-15
_audit_creation_method CSD-ConQuest-V1
_database_code_CSD ACEOXM01
_database_code_depnum_ccdc_archive 'CCDC 246651'
_chemical_formula_sum 'C3 H7 N1 O1'
_chemical_formula_moiety
;
C3 H7 N1 O1
;
_journal_coden_Cambridge 1078
_journal_year 2004
_journal_name_full 'CSD Communication(Private Communication) '
loop_
_publ_author_name
"S.Parsons"
"W.Pu"
"R.Ramage"
"P.A.Wood"
_chemical_name_systematic
;
Acetoxime
;
_chemical_melting_point 328
_cell_volume    664.785
_exptl_crystal_colour 'colorless'
_exptl_crystal_density_diffrn 1.096
_exptl_special_details
;
Melting point range 328-329K
contribution from School of Chemistry, The University of Edinburgh King's 
Buildings, West Mains Road, Edinburgh, Scotland EH9 3JJ
;
_exptl_crystal_description 'block'
_exptl_crystal_preparation 'diethyl ether'
_diffrn_ambient_temperature 220
_diffrn_special_details
;
crystal is twinned with scale factor 0.615

;
#These two values have been output from a single CSD field.
_refine_ls_R_factor_gt 0.0646
_refine_ls_wR_factor_gt 0.0646
_symmetry_cell_setting triclinic
_symmetry_space_group_name_H-M 'P -1'
_symmetry_Int_Tables_number 2
loop_
_symmetry_equiv_pos_site_id
_symmetry_equiv_pos_as_xyz
1 x,y,z
2 -x,-y,-z
_cell_length_a 7.006(2)
_cell_length_b 10.482(3)
_cell_length_c 10.580(5)
_cell_angle_alpha 60.489(15)
_cell_angle_beta 79.61(3)
_cell_angle_gamma 83.453(17)
_cell_formula_units_Z 6
loop_
_atom_type_symbol
_atom_type_radius_bond
C 0.68
H 0.23
N 0.68
O 0.68
loop_
_atom_site_label
_atom_site_type_symbol
_atom_site_fract_x
_atom_site_fract_y
_atom_site_fract_z
O1 O -0.2406(4) -0.2007(2) -0.0656(2)
H1 H -0.24850 -0.18960 0.00770
N1 N -0.2403(4) -0.3489(3) -0.0220(3)
C1 C -0.2390(4) -0.3720(3) -0.1303(3)
C2 C -0.2360(6) -0.2562(4) -0.2869(4)
H2 H -0.26870 -0.16160 -0.29170
H3 H -0.32990 -0.27800 -0.33020
H4 H -0.10740 -0.25380 -0.34050
C3 C -0.2377(6) -0.5264(3) -0.0956(4)
H5 H -0.23990 -0.58950 0.00920
H6 H -0.12120 -0.54830 -0.14760
H7 H -0.35110 -0.54330 -0.12560
O2 O -0.2291(4) -0.2624(2) 0.3221(2)
H8 H -0.22320 -0.34610 0.33170
N2 N -0.2500(4) -0.1592(3) 0.1770(3)
C4 C -0.2459(4) -0.0270(3) 0.1529(3)
C5 C -0.2187(6) 0.0165(4) 0.2620(4)
H9 H -0.25990 -0.06180 0.36010
H10 H -0.29580 0.10490 0.24540
H11 H -0.08270 0.03480 0.25180
C6 C -0.2650(6) 0.0905(3) 0.0005(4)
H12 H -0.28550 0.04650 -0.05780
H13 H -0.14730 0.14620 -0.04260
H14 H -0.37460 0.15530 0.00260
O3 O -0.2701(4) -0.5901(2) 0.2608(2)
H15 H -0.26290 -0.51780 0.17740
N3 N -0.2582(4) -0.5445(3) 0.3634(3)
C7 C -0.2668(4) -0.6506(3) 0.4936(3)
C8 C -0.2916(6) -0.8062(3) 0.5363(4)
H16 H -0.42860 -0.82450 0.55110
H17 H -0.23810 -0.86970 0.62650
H18 H -0.22420 -0.82610 0.45900
C9 C -0.2573(6) -0.6144(4) 0.6117(3)
H19 H -0.14460 -0.66370 0.65960
H20 H -0.37400 -0.64660 0.68300
H21 H -0.24720 -0.50920 0.56940
#END
