
#######################################################################
#
#                 Cambridge Crystallographic Data Centre
#                                CCDC
#
#######################################################################
#
# If this CIF has been generated from an entry in the Cambridge
# Structural Database, then it will include bibliographic, chemical,
# crystal, experimental, refinement or atomic coordinate data resulting
# from the CCDC's data processing and validation procedures.
#
#######################################################################

data_CSD_CIF_ACERIK
_audit_creation_date 2005-02-04
_audit_creation_method CSD-ConQuest-V1
_database_code_CSD ACERIK
_database_code_depnum_ccdc_archive 'CCDC 255875'
_chemical_formula_sum 'C13 H10 N4 O4'
_chemical_formula_moiety
;
C13 H10 N4 O4
;
_journal_coeditor_code "IUCr CV6384"
_journal_coden_Cambridge 1370
_journal_volume 60
_journal_year 2004
_journal_page_first o1954
_journal_name_full 'Acta Crystallogr.,Sect.E:Struct.Rep.Online '
loop_
_publ_author_name
"Shang Shan"
"Xiao-Juan Wang"
"Wei-Xiao Hu"
"Duan-Jun Xu"
_chemical_name_systematic
;
2-Nitrobenzaldehyde 4-nitrophenylhydrazone
;
_cell_volume   1264.765
_exptl_crystal_colour 'red'
_exptl_crystal_density_diffrn 1.503
_exptl_crystal_description 'prism'
_exptl_crystal_preparation 'ethanol/acetone'
_diffrn_ambient_temperature 295
#These two values have been output from a single CSD field.
_refine_ls_R_factor_gt 0.038
_refine_ls_wR_factor_gt 0.038
_symmetry_cell_setting monoclinic
_symmetry_space_group_name_H-M 'P 21/n'
_symmetry_Int_Tables_number 14
loop_
_symmetry_equiv_pos_site_id
_symmetry_equiv_pos_as_xyz
1 x,y,z
2 1/2-x,1/2+y,1/2-z
3 -x,-y,-z
4 -1/2+x,-1/2-y,-1/2+z
_cell_length_a 7.2570(7)
_cell_length_b 12.0869(11)
_cell_length_c 14.4455(11)
_cell_angle_alpha 90
_cell_angle_beta 93.465(2)
_cell_angle_gamma 90
_cell_formula_units_Z 4
loop_
_atom_type_symbol
_atom_type_radius_bond
C 0.68
H 0.23
N 0.68
O 0.68
loop_
_atom_site_label
_atom_site_type_symbol
_atom_site_fract_x
_atom_site_fract_y
_atom_site_fract_z
O1 O -0.00642(17) 0.19208(10) 0.30321(7)
O2 O 0.03558(17) 0.05519(9) 0.39773(8)
O3 O 0.7286(2) 0.6689(1) 0.82471(9)
O4 O 0.7094(2) 0.83026(11) 0.88241(9)
N1 N 0.34927(19) 0.44231(9) 0.64730(8)
H1 H 0.38370 0.41640 0.70100
N2 N 0.37078(17) 0.55105(9) 0.62929(8)
N3 N 0.04482(17) 0.15383(11) 0.38014(8)
N4 N 0.67471(18) 0.76378(11) 0.82075(9)
C1 C 0.27283(19) 0.37307(11) 0.58029(9)
C2 C 0.2606(2) 0.26020(12) 0.60004(10)
H2 H 0.30510 0.23360 0.65750
C3 C 0.1835(2) 0.18865(11) 0.53533(10)
H3 H 0.17470 0.11360 0.54860
C4 C 0.11859(19) 0.22946(12) 0.44984(9)
C5 C 0.1285(2) 0.34100(12) 0.4294(1)
H4 H 0.08300 0.36700 0.37190
C6 C 0.2053(2) 0.41295(12) 0.49376(10)
H5 H 0.21270 0.48800 0.48010
C7 C 0.4481(2) 0.60993(12) 0.69375(10)
H6 H 0.48830 0.57850 0.75020
C8 C 0.47217(19) 0.72834(11) 0.67676(9)
C9 C 0.5683(2) 0.80205(12) 0.73694(10)
C10 C 0.5749(2) 0.91451(12) 0.71953(11)
H7 H 0.63740 0.96140 0.76170
C11 C 0.4892(2) 0.95664(13) 0.64008(12)
H8 H 0.49320 1.03220 0.62810
C12 C 0.3967(2) 0.88605(14) 0.57783(11)
H9 H 0.34030 0.91410 0.52330
C13 C 0.3879(2) 0.77497(12) 0.59618(10)
H10 H 0.32380 0.72910 0.55370
#END
