
#######################################################################
#
#                 Cambridge Crystallographic Data Centre
#                                CCDC
#
#######################################################################
#
# If this CIF has been generated from an entry in the Cambridge
# Structural Database, then it will include bibliographic, chemical,
# crystal, experimental, refinement or atomic coordinate data resulting
# from the CCDC's data processing and validation procedures.
#
#######################################################################

data_CSD_CIF_ACERIK01
_audit_creation_date 2005-02-28
_audit_creation_method CSD-ConQuest-V1
_database_code_CSD ACERIK01
_database_code_depnum_ccdc_archive 'CCDC 263042'
_chemical_formula_sum 'C13 H10 N4 O4'
_chemical_formula_moiety
;
C13 H10 N4 O4
;
_journal_coeditor_code "IUCr SK1791"
_journal_coden_Cambridge 591
_journal_volume 61
_journal_year 2005
_journal_page_first o10
_journal_name_full 'Acta Crystallogr.,Sect.C:Cryst.Struct.Commun. '
loop_
_publ_author_name
"J.L.Wardell"
"J.M.S.Skakle"
"J.N.Low"
"C.Glidewell"
_chemical_name_systematic
;
(E)-2-Nitrobenzaldehyde 4-nitrophenylhydrazone
;
_cell_volume   1229.567
_exptl_crystal_colour 'colorless'
_exptl_crystal_density_diffrn 1.546
_exptl_crystal_description 'plate'
_exptl_crystal_preparation 'ethanol'
_diffrn_ambient_temperature 120
#These two values have been output from a single CSD field.
_refine_ls_R_factor_gt 0.0413
_refine_ls_wR_factor_gt 0.0413
_symmetry_cell_setting monoclinic
_symmetry_space_group_name_H-M 'P 21/n'
_symmetry_Int_Tables_number 14
loop_
_symmetry_equiv_pos_site_id
_symmetry_equiv_pos_as_xyz
1 x,y,z
2 1/2-x,1/2+y,1/2-z
3 -x,-y,-z
4 -1/2+x,-1/2-y,-1/2+z
_cell_length_a 7.1134(2)
_cell_length_b 12.0842(5)
_cell_length_c 14.3190(6)
_cell_angle_alpha 90
_cell_angle_beta 92.624(2)
_cell_angle_gamma 90
_cell_formula_units_Z 4
loop_
_atom_type_symbol
_atom_type_radius_bond
C 0.68
H 0.23
N 0.68
O 0.68
loop_
_atom_site_label
_atom_site_type_symbol
_atom_site_fract_x
_atom_site_fract_y
_atom_site_fract_z
O1 O 0.73241(15) 0.33101(8) 0.82298(7)
O2 O 0.70871(16) 0.16840(9) 0.88338(7)
O3 O -0.00609(14) 0.81117(8) 0.30158(6)
O4 O 0.03642(14) 0.94804(8) 0.39777(7)
N1 N 0.34709(16) 0.55738(9) 0.64646(8)
N2 N 0.36844(15) 0.44833(9) 0.62764(8)
N3 N 0.04478(14) 0.84879(9) 0.37967(7)
N4 N 0.67585(16) 0.23528(9) 0.82027(8)
C1 C 0.27104(17) 0.62700(11) 0.57939(9)
C2 C 0.26017(18) 0.74045(11) 0.60029(9)
C3 C 0.18288(18) 0.81329(11) 0.53564(9)
C4 C 0.11711(17) 0.77266(10) 0.44916(9)
C5 C 0.12580(18) 0.66068(11) 0.42772(9)
C6 C 0.20225(18) 0.58757(11) 0.49214(9)
C7 C 0.47066(17) 0.27057(10) 0.67573(9)
C8 C 0.56730(18) 0.19667(11) 0.73658(9)
C9 C 0.57388(18) 0.08369(11) 0.71966(9)
C10 C 0.48742(19) 0.04096(11) 0.63951(10)
C11 C 0.39468(18) 0.11216(12) 0.57631(9)
C12 C 0.38577(18) 0.22401(11) 0.59457(9)
C13 C 0.44610(17) 0.38921(11) 0.69311(9)
H1 H 0.38220 0.58350 0.70190
H2 H 0.30650 0.76690 0.65940
H3 H 0.17440 0.88990 0.54970
H4 H 0.07880 0.63480 0.36850
H5 H 0.20860 0.51090 0.47790
H6 H 0.63780 0.03600 0.76320
H7 H 0.49100 -0.03630 0.62750
H8 H 0.33720 0.08350 0.52020
H9 H 0.32020 0.27090 0.55090
H10 H 0.48650 0.42140 0.75120
#END
