
#######################################################################
#
#                 Cambridge Crystallographic Data Centre
#                                CCDC
#
#######################################################################
#
# If this CIF has been generated from an entry in the Cambridge
# Structural Database, then it will include bibliographic, chemical,
# crystal, experimental, refinement or atomic coordinate data resulting
# from the CCDC's data processing and validation procedures.
#
#######################################################################

data_CSD_CIF_ACIKON
_audit_creation_date 2006-07-27
_audit_creation_method CSD-ConQuest-V1
_database_code_CSD ACIKON
_database_code_depnum_ccdc_archive 'CCDC 602400'
_chemical_formula_sum 'C29 H25 N3 O3'
_chemical_formula_moiety
;
C29 H25 N3 O3
;
_journal_coden_Cambridge 652
_journal_volume 37
_journal_year 2004
_journal_page_first 553
_journal_name_full 'Spectrosc.Lett. '
loop_
_publ_author_name
"M.Aygun"
"H.Karabiyik"
"N.Coskun"
_chemical_name_systematic
;
rac-6-(4-Methoxyphenyl)-1,5,7a-triphenyl-tetrahydroimidazo(1,5-b)(1,2,4)oxadia
zol-2-one
;
_cell_volume   2356.091
_exptl_crystal_density_diffrn 1.307
_exptl_crystal_description 'prism'
_exptl_crystal_preparation 'acetonitrile'
_diffrn_ambient_temperature ?
_diffrn_special_details
;
The study was carried out at room temperature,in the range 283-303K

;
#These two values have been output from a single CSD field.
_refine_ls_R_factor_gt 0.066
_refine_ls_wR_factor_gt 0.066
_symmetry_cell_setting monoclinic
_symmetry_space_group_name_H-M 'P 21/n'
_symmetry_Int_Tables_number 14
loop_
_symmetry_equiv_pos_site_id
_symmetry_equiv_pos_as_xyz
1 x,y,z
2 1/2-x,1/2+y,1/2-z
3 -x,-y,-z
4 -1/2+x,-1/2-y,-1/2+z
_cell_length_a 10.812(1)
_cell_length_b 16.464(2)
_cell_length_c 13.379(1)
_cell_angle_alpha 90
_cell_angle_beta 98.39(1)
_cell_angle_gamma 90
_cell_formula_units_Z 4
loop_
_atom_type_symbol
_atom_type_radius_bond
C 0.68
N 0.68
O 0.68
loop_
_atom_site_label
_atom_site_type_symbol
_atom_site_fract_x
_atom_site_fract_y
_atom_site_fract_z
O1 O -0.1874(4) 0.2274(3) -0.1730(3)
O2 O -0.0962(3) 0.2367(2) -0.0105(3)
O3 O 0.5531(4) -0.0875(3) 0.1661(3)
N1 N 0.2016(4) 0.1566(3) 0.0694(3)
N2 N 0.0303(4) 0.2355(3) 0.0437(3)
N3 N 0.0288(4) 0.2432(3) -0.1287(3)
C1 C 0.0672(5) 0.1471(3) 0.0599(4)
C2 C 0.2265(5) 0.2121(3) -0.0114(4)
C3 C 0.1082(5) 0.2643(3) -0.0337(4)
C4 C -0.0936(6) 0.2341(4) -0.1122(5)
C5 C 0.5149(6) -0.1675(4) 0.1872(5)
C6 C 0.4596(6) -0.0328(4) 0.1418(4)
C7 C 0.4973(5) 0.0445(4) 0.1232(5)
C8 C 0.4125(6) 0.1068(4) 0.0986(4)
C9 C 0.2849(5) 0.0915(3) 0.0917(4)
C10 C 0.2483(5) 0.0142(4) 0.1108(4)
C11 C 0.3344(5) -0.0480(3) 0.1361(4)
C12 C 0.0182(5) 0.1154(3) 0.1516(4)
C13 C 0.0671(6) 0.1410(4) 0.2473(5)
C14 C 0.0207(7) 0.1134(4) 0.3292(5)
C15 C -0.0771(7) 0.0615(4) 0.3188(5)
C16 C -0.1307(6) 0.0331(4) 0.2257(6)
C17 C -0.0816(5) 0.0613(3) 0.1412(5)
C18 C 0.1293(5) 0.3556(3) -0.0221(5)
C19 C 0.1964(6) 0.3821(4) 0.0695(5)
C20 C 0.2230(7) 0.4631(5) 0.0859(6)
C21 C 0.1826(7) 0.5190(4) 0.0114(7)
C22 C 0.1149(6) 0.4942(6) -0.0777(6)
C23 C 0.0885(5) 0.4121(4) -0.0940(5)
C24 C 0.0700(5) 0.2313(4) -0.2235(4)
C25 C 0.1704(5) 0.2733(4) -0.2490(4)
C26 C 0.2074(5) 0.2628(4) -0.3411(4)
C27 C 0.1473(6) 0.2092(4) -0.4091(5)
C28 C 0.0518(6) 0.1637(4) -0.3828(5)
C29 C 0.0099(6) 0.1749(4) -0.2914(5)
#END
