
#######################################################################
#
#                 Cambridge Crystallographic Data Centre
#                                CCDC
#
#######################################################################
#
# If this CIF has been generated from an entry in the Cambridge
# Structural Database, then it will include bibliographic, chemical,
# crystal, experimental, refinement or atomic coordinate data resulting
# from the CCDC's data processing and validation procedures.
#
#######################################################################

data_CSD_CIF_ACNFRL
_audit_creation_date 1980-12-11
_audit_creation_method CSD-ConQuest-V1
_database_code_CSD ACNFRL
_chemical_formula_sum 'C11 H13 N1 O9'
_chemical_formula_moiety
;
C11 H13 N1 O9
;
_journal_coden_Cambridge 16
_journal_volume 36
_journal_year 1980
_journal_page_first 1817
_journal_name_full 'Tetrahedron '
loop_
_publ_author_name
"A.F.Mishnev"
"Ya.Ya.Bleidelis"
"K.K.Venters"
_chemical_name_systematic
;
trans-2-Acetoxy-5-nitro-2,5-dihydro-2-furfural diacetate
;
_cell_volume   1396.350
_diffrn_ambient_temperature ?
_diffrn_special_details
;
The study was carried out at room temperature,in the range 283-303K

;
#These two values have been output from a single CSD field.
_refine_ls_R_factor_gt 0.079
_refine_ls_wR_factor_gt 0.079
_symmetry_cell_setting monoclinic
_symmetry_space_group_name_H-M 'P 21/n'
_symmetry_Int_Tables_number 14
loop_
_symmetry_equiv_pos_site_id
_symmetry_equiv_pos_as_xyz
1 x,y,z
2 1/2-x,1/2+y,1/2-z
3 -x,-y,-z
4 -1/2+x,-1/2-y,-1/2+z
_cell_length_a 8.067(3)
_cell_length_b 16.051(8)
_cell_length_c 11.303(4)
_cell_angle_alpha 90
_cell_angle_beta 107.43(3)
_cell_angle_gamma 90
_cell_formula_units_Z 4
loop_
_atom_type_symbol
_atom_type_radius_bond
C 0.68
N 0.68
O 0.68
loop_
_atom_site_label
_atom_site_type_symbol
_atom_site_fract_x
_atom_site_fract_y
_atom_site_fract_z
C1 C 0.32780 0.39850 0.73510
C2 C 0.32750 0.35220 0.53170
C3 C 0.13340 0.35840 0.46710
C4 C 0.09750 0.43010 0.41520
C5 C 0.25960 0.48150 0.44000
C6 C 0.39560 0.37460 0.86750
C7 C 0.42290 0.28090 0.49320
C8 C 0.50090 0.28770 0.19320
C9 C 0.54530 0.29910 0.32680
C10 C 0.44690 0.13650 0.53690
C11 C 0.35500 0.06370 0.56600
O1 O 0.39400 0.42750 0.50170
O2 O 0.37100 0.46800 0.26890
O3 O 0.20800 0.57250 0.27550
O4 O 0.37140 0.34160 0.66160
O5 O 0.24670 0.46020 0.69760
O6 O 0.34740 0.20730 0.52020
O7 O 0.59060 0.13830 0.52610
O8 O 0.39960 0.28300 0.36570
O9 O 0.68070 0.31920 0.39830
N1 N 0.28430 0.50850 0.31770
#END
