
#######################################################################
#
#                 Cambridge Crystallographic Data Centre
#                                CCDC
#
#######################################################################
#
# If this CIF has been generated from an entry in the Cambridge
# Structural Database, then it will include bibliographic, chemical,
# crystal, experimental, refinement or atomic coordinate data resulting
# from the CCDC's data processing and validation procedures.
#
#######################################################################

data_CSD_CIF_ACNOCT
_audit_creation_date 1977-07-22
_audit_creation_method CSD-ConQuest-V1
_database_code_CSD ACNOCT
_database_code_depnum_ccdc_archive 'CCDC 1100856'
_chemical_formula_sum 'C16 H24 N8 O8'
_chemical_formula_moiety
;
C16 H24 N8 O8
;
_journal_coden_Cambridge 188
_journal_year 1977
_journal_page_first 334
_journal_name_full 'J.Chem.Soc.,Perkin Trans.2 '
loop_
_publ_author_name
"S.Menchetti"
"C.Sabelli"
_chemical_name_systematic
;
anti-3,6,9,12,15,18,21,24-Octamethyl-1,4,7,10,13,16,19,22-octaoxa-2,5,8,11,14,
17,20,23-octa-azacyclotetracosa-2,5,8,11,14,17,20,23-octaene
;
_chemical_name_common
;
Acetonitrile oxide octamer
;
_chemical_melting_point 444.15
_cell_volume   4584.279
_exptl_special_details
;
Melts with decomposition.

;
_diffrn_ambient_temperature ?
_diffrn_special_details
;
The study was carried out at room temperature,in the range 283-303K

;
#These two values have been output from a single CSD field.
_refine_ls_R_factor_gt 0.071
_refine_ls_wR_factor_gt 0.071
_symmetry_cell_setting monoclinic
_symmetry_space_group_name_H-M 'C 2/c'
_symmetry_Int_Tables_number 15
loop_
_symmetry_equiv_pos_site_id
_symmetry_equiv_pos_as_xyz
1 x,y,z
2 1/2+x,1/2+y,z
3 -x,y,1/2-z
4 1/2-x,1/2+y,1/2-z
5 -x,-y,-z
6 -1/2-x,-1/2-y,-z
7 x,-y,-1/2+z
8 -1/2+x,-1/2-y,-1/2+z
_cell_length_a 23.915(7)
_cell_length_b 17.467(6)
_cell_length_c 11.169(4)
_cell_angle_alpha 90
_cell_angle_beta 100.71(6)
_cell_angle_gamma 90
_cell_formula_units_Z 8
loop_
_atom_type_symbol
_atom_type_radius_bond
C 0.68
H 0.23
N 0.68
O 0.68
loop_
_atom_site_label
_atom_site_type_symbol
_atom_site_fract_x
_atom_site_fract_y
_atom_site_fract_z
O1 O 0.08990 0.16500 0.12890
O2 O 0.18260 0.13350 0.06600
O3 O 0.27940 0.18580 0.08750
O4 O 0.32250 0.26000 0.27510
O5 O 0.28130 0.32180 0.44500
O6 O 0.19290 0.40480 0.41410
O7 O 0.10250 0.41200 0.25630
O8 O 0.05290 0.29820 0.14390
N1 N 0.10610 0.08260 0.13300
N2 N 0.21280 0.11590 -0.03340
N3 N 0.33700 0.21230 0.09160
N4 N 0.35690 0.25660 0.39740
N5 N 0.26310 0.34830 0.55300
N6 N 0.15960 0.47530 0.40860
N7 N 0.05530 0.42860 0.15910
N8 N 0.01200 0.24130 0.09570
C1 C 0.15340 0.07530 0.09560
C2 C 0.26100 0.14860 -0.01750
C3 C 0.35570 0.24620 0.19000
C4 C 0.33250 0.28670 0.47940
C5 C 0.21940 0.39140 0.53090
C6 C 0.11550 0.47510 0.32460
C7 C 0.03240 0.36670 0.10980
C8 C 0.03430 0.17660 0.09500
C9 C 0.17610 -0.00660 0.09260
C10 C 0.29370 0.14560 -0.11780
C11 C 0.41760 0.27390 0.20950
C12 C 0.36240 0.28120 0.60710
C13 C 0.19770 0.42430 0.63630
C14 C 0.08120 0.54550 0.31230
C15 C -0.01910 0.37690 0.00870
C16 C -0.00410 0.10730 0.04880
H1 H 0.21000 0.00500 0.11500
H2 H 0.16500 -0.01300 0.01000
H3 H 0.14500 -0.03100 0.13500
H4 H 0.33200 0.11400 -0.08100
H5 H 0.27700 0.11800 -0.18800
H6 H 0.30200 0.20000 -0.15100
H7 H 0.43600 0.23800 0.27000
H8 H 0.40200 0.30600 0.13500
H9 H 0.40000 0.32500 0.22500
H10 H 0.36400 0.33000 0.64800
H11 H 0.40700 0.25800 0.61200
H12 H 0.33900 0.24900 0.64200
H13 H 0.20100 0.47100 0.63200
H14 H 0.15400 0.41200 0.62600
H15 H 0.21700 0.41000 0.70900
H16 H 0.04800 0.53700 0.33100
H17 H 0.07700 0.56800 0.22900
H18 H 0.10000 0.59100 0.36100
H19 H -0.02800 0.43000 -0.01600
H20 H -0.00800 0.35100 -0.06600
H21 H -0.05300 0.34500 0.04100
H22 H 0.00400 0.09000 0.13000
H23 H -0.03100 0.14100 0.00700
H24 H 0.01900 0.09600 -0.02500
#END
