
#######################################################################
#
#                 Cambridge Crystallographic Data Centre
#                                CCDC
#
#######################################################################
#
# If this CIF has been generated from an entry in the Cambridge
# Structural Database, then it will include bibliographic, chemical,
# crystal, experimental, refinement or atomic coordinate data resulting
# from the CCDC's data processing and validation procedures.
#
#######################################################################

data_CSD_CIF_ACNPHY
_audit_creation_date 1972-12-21
_audit_creation_method CSD-ConQuest-V1
_database_code_CSD ACNPHY
_database_code_depnum_ccdc_archive 'CCDC 1100868'
_chemical_formula_sum 'C9 H11 N3 O2'
_chemical_formula_moiety
;
C9 H11 N3 O2
;
_journal_coden_Cambridge 103
_journal_volume 72
_journal_year 1972
_journal_page_first 441
_journal_name_full 'Acta Chim.Acad.Sci.Hung. '
loop_
_publ_author_name
"G.Menczel"
"G.Samay"
"K.Simon"
_chemical_name_systematic
;
Acetone p-nitrophenylhydrazone
;
_cell_volume    987.332
_exptl_crystal_density_diffrn 1.3
_diffrn_ambient_temperature ?
_diffrn_special_details
;
The study was carried out at room temperature,in the range 283-303K

;
#These two values have been output from a single CSD field.
_refine_ls_R_factor_gt 0.109
_refine_ls_wR_factor_gt 0.109
_symmetry_cell_setting monoclinic
_symmetry_space_group_name_H-M 'P 21/c'
_symmetry_Int_Tables_number 14
loop_
_symmetry_equiv_pos_site_id
_symmetry_equiv_pos_as_xyz
1 x,y,z
2 -x,1/2+y,1/2-z
3 -x,-y,-z
4 x,-1/2-y,-1/2+z
_cell_length_a 4.053(15)
_cell_length_b 20.74(5)
_cell_length_c 11.80(3)
_cell_angle_alpha 90
_cell_angle_beta 95.5(4)
_cell_angle_gamma 90
_cell_formula_units_Z 4
loop_
_atom_type_symbol
_atom_type_radius_bond
C 0.68
N 0.68
O 0.68
loop_
_atom_site_label
_atom_site_type_symbol
_atom_site_fract_x
_atom_site_fract_y
_atom_site_fract_z
C1 C -0.03180 0.01060 0.27680
C2 C -0.01990 -0.05460 0.34160
C3 C 0.08850 0.01250 0.15740
C4 C -0.28430 0.16740 0.32940
C5 C -0.25090 0.22950 0.27800
C6 C -0.37190 0.28350 0.33320
C7 C -0.51600 0.27770 0.43420
C8 C -0.56240 0.21630 0.48500
C9 C -0.43570 0.16240 0.43120
N1 N -0.16750 0.05650 0.33190
N2 N -0.16620 0.11670 0.27400
N3 N -0.65290 0.33300 0.48900
O1 O -0.59680 0.38620 0.44500
O2 O -0.79020 0.32700 0.57630
#END
