
#######################################################################
#
#                 Cambridge Crystallographic Data Centre
#                                CCDC
#
#######################################################################
#
# If this CIF has been generated from an entry in the Cambridge
# Structural Database, then it will include bibliographic, chemical,
# crystal, experimental, refinement or atomic coordinate data resulting
# from the CCDC's data processing and validation procedures.
#
#######################################################################

data_CSD_CIF_ACNPHY01
_audit_creation_date 2017-12-18
_audit_creation_method CSD-ConQuest-V1
_database_code_CSD ACNPHY01
_database_code_depnum_ccdc_archive 'CCDC 1812232'
_chemical_formula_sum 'C9 H11 N3 O2'
_chemical_formula_moiety
;
C9 H11 N3 O2
;
_journal_coden_Cambridge 1078
_journal_year 2017
_journal_name_full 'CSD Communication(Private Communication) '
loop_
_publ_author_name
"Low"
"J.Nicolson"
"Wardell"
"James"
_chemical_name_systematic
;
1-(4-nitrophenyl)-2-(propan-2-ylidene)hydrazine
;
_cell_volume    944.357
_exptl_crystal_colour 'orange'
_exptl_crystal_density_diffrn 1.359
_exptl_crystal_description 'plate'
_diffrn_ambient_temperature 120
#These two values have been output from a single CSD field.
_refine_ls_R_factor_gt 0.048
_refine_ls_wR_factor_gt 0.048
_symmetry_cell_setting monoclinic
_symmetry_space_group_name_H-M 'P 21/c'
_symmetry_Int_Tables_number 14
loop_
_symmetry_equiv_pos_site_id
_symmetry_equiv_pos_as_xyz
1 x,y,z
2 -x,1/2+y,1/2-z
3 -x,-y,-z
4 x,-1/2-y,-1/2+z
_cell_length_a 3.9169(1)
_cell_length_b 20.5622(9)
_cell_length_c 11.7527(6)
_cell_angle_alpha 90
_cell_angle_beta 93.913(2)
_cell_angle_gamma 90
_cell_formula_units_Z 4
loop_
_atom_type_symbol
_atom_type_radius_bond
C 0.68
H 0.23
N 0.68
O 0.68
loop_
_atom_site_label
_atom_site_type_symbol
_atom_site_fract_x
_atom_site_fract_y
_atom_site_fract_z
O1 O 0.1829(3) 0.17386(5) 0.57569(10)
O2 O 0.3726(4) 0.11306(6) 0.44331(12)
N1 N 0.8475(3) 0.44526(6) 0.32871(12)
N2 N 0.8199(4) 0.38647(6) 0.27109(12)
N3 N 0.3321(3) 0.16688(6) 0.48679(12)
C1 C 0.6988(4) 0.33328(7) 0.32585(14)
H1 H 0.928(4) 0.3805(8) 0.2103(16)
C2 C 0.5446(4) 0.33914(7) 0.42983(14)
H2 H 0.52288 0.38070 0.46390
C3 C 0.4597(4) 0.22382(7) 0.43259(13)
C4 C 0.7266(4) 0.27151(7) 0.27579(14)
H3 H 0.82774 0.26736 0.20494
C5 C 0.6086(4) 0.21717(8) 0.32857(14)
H4 H 0.62805 0.17550 0.29469
C6 C 0.4249(4) 0.28454(7) 0.48246(14)
H5 H 0.31898 0.28843 0.55249
C7 C 0.9810(4) 0.49250(8) 0.27530(14)
C8 C 1.0991(5) 0.48842(8) 0.15684(15)
H6 H 1.18187 0.53113 0.13397
H7 H 0.90794 0.47489 0.10401
H8 H 1.28486 0.45657 0.15510
C9 C 1.0187(5) 0.55563(8) 0.33785(16)
H9 H 1.26017 0.56850 0.34397
H10 H 0.93739 0.55064 0.41439
H11 H 0.88332 0.58914 0.29620
#END
