
#######################################################################
#
#                 Cambridge Crystallographic Data Centre
#                                CCDC
#
#######################################################################
#
# If this CIF has been generated from an entry in the Cambridge
# Structural Database, then it will include bibliographic, chemical,
# crystal, experimental, refinement or atomic coordinate data resulting
# from the CCDC's data processing and validation procedures.
#
#######################################################################

data_CSD_CIF_ACNTBP
_audit_creation_date 1974-09-30
_audit_creation_method CSD-ConQuest-V1
_database_code_CSD ACNTBP
_chemical_formula_sum 'C14 H11 N1 O3'
_chemical_formula_moiety
;
C14 H11 N1 O3
;
_journal_coeditor_code "IUCr A11095"
_journal_coden_Cambridge 107
_journal_volume 30
_journal_year 1974
_journal_page_first 1562
_journal_name_full 'Acta Crystallogr.,Sect.B:Struct.Crystallogr.Cryst.Chem. '
loop_
_publ_author_name
"H.H.Sutherland"
"J.H.C.Hogg"
"D.J.Williams"
_chemical_name_systematic
;
4-Acetyl-2'-nitrobiphenyl
;
_cell_volume   1196.580
_exptl_crystal_density_diffrn 1.34
_diffrn_ambient_temperature ?
_diffrn_special_details
;
The study was carried out at room temperature,in the range 283-303K

;
#These two values have been output from a single CSD field.
_refine_ls_R_factor_gt 0.045
_refine_ls_wR_factor_gt 0.045
_symmetry_cell_setting monoclinic
_symmetry_space_group_name_H-M 'P 21/c'
_symmetry_Int_Tables_number 14
loop_
_symmetry_equiv_pos_site_id
_symmetry_equiv_pos_as_xyz
1 x,y,z
2 -x,1/2+y,1/2-z
3 -x,-y,-z
4 x,-1/2-y,-1/2+z
_cell_length_a 12.146(1)
_cell_length_b 12.647(1)
_cell_length_c 7.812(1)
_cell_angle_alpha 90
_cell_angle_beta 94.33(1)
_cell_angle_gamma 90
_cell_formula_units_Z 4
loop_
_atom_type_symbol
_atom_type_radius_bond
C 0.68
H 0.20
N 0.68
O 0.68
loop_
_atom_site_label
_atom_site_type_symbol
_atom_site_fract_x
_atom_site_fract_y
_atom_site_fract_z
C1 C 0.22850 -0.45440 0.38580
C2 C 0.34740 -0.77300 0.37430
C3 C 0.24370 -0.75190 0.43150
C4 C 0.20480 -0.64970 0.43620
C5 C 0.39360 -0.88210 0.36420
C6 C 0.31950 -0.97560 0.38080
C7 C 0.12340 -0.42040 0.32760
C8 C 0.08870 -0.31690 0.33970
C9 C 0.16120 -0.24220 0.41000
C10 C 0.26620 -0.27140 0.46900
C11 C 0.29940 -0.37590 0.45780
C12 C 0.26770 -0.56560 0.38290
C13 C 0.37220 -0.58670 0.32790
C14 C 0.41100 -0.68890 0.32460
H1 H 0.19700 -0.80800 0.46800
H2 H 0.13100 -0.63400 0.48100
H3 H 0.35500 -1.02700 0.35900
H4 H 0.26300 -0.97500 0.27700
H5 H 0.28500 -0.97800 0.49900
H6 H 0.02200 -0.30300 0.30600
H7 H 0.13600 -0.17300 0.41500
H8 H 0.32000 -0.21800 0.55500
H9 H 0.37600 -0.40000 0.52500
H10 H 0.41500 -0.53100 0.28100
H11 H 0.48000 -0.70400 0.27500
N1 N 0.04470 -0.49550 0.24130
O1 O -0.05060 -0.49270 0.28130
O2 O 0.07720 -0.55490 0.13300
O3 O 0.49090 -0.89260 0.34100
#END
