
#######################################################################
#
#                 Cambridge Crystallographic Data Centre
#                                CCDC
#
#######################################################################
#
# If this CIF has been generated from an entry in the Cambridge
# Structural Database, then it will include bibliographic, chemical,
# crystal, experimental, refinement or atomic coordinate data resulting
# from the CCDC's data processing and validation procedures.
#
#######################################################################

data_CSD_CIF_ACOTIY
_audit_creation_date 2017-09-30
_audit_creation_method CSD-ConQuest-V1
_database_code_CSD ACOTIY
_database_code_depnum_ccdc_archive 'CCDC 1572978'
_chemical_formula_sum 'C16 H21 N1 O4'
_chemical_formula_moiety
;
C16 H21 N1 O4
;
_journal_coeditor_code "fn3243"
_journal_coden_Cambridge 1777
_journal_volume 73
_journal_year 2017
_journal_page_first 814
_journal_name_full 'Acta Crystallogr.,Sect.C:Cryst.Struct.Chem. '
loop_
_publ_author_name
"S.M.Oburn"
"E.Bosch"
_chemical_name_systematic
;
1,2-dibutoxy-4-ethynyl-5-nitrobenzene
;
_cell_volume   1520.244
_exptl_crystal_colour 'colorless'
_exptl_crystal_density_diffrn 1.273
_exptl_crystal_description 'irregular block'
_diffrn_ambient_temperature 100
#These two values have been output from a single CSD field.
_refine_ls_R_factor_gt 0.0413
_refine_ls_wR_factor_gt 0.0413
_symmetry_cell_setting monoclinic
_symmetry_space_group_name_H-M 'P 21/c'
_symmetry_Int_Tables_number 14
loop_
_symmetry_equiv_pos_site_id
_symmetry_equiv_pos_as_xyz
1 x,y,z
2 -x,1/2+y,1/2-z
3 -x,-y,-z
4 x,-1/2-y,-1/2+z
_cell_length_a 8.5209(5)
_cell_length_b 18.0914(10)
_cell_length_c 9.9579(5)
_cell_angle_alpha 90
_cell_angle_beta 97.967(1)
_cell_angle_gamma 90
_cell_formula_units_Z 4
loop_
_atom_type_symbol
_atom_type_radius_bond
C 0.68
H 0.23
N 0.68
O 0.68
loop_
_atom_site_label
_atom_site_type_symbol
_atom_site_fract_x
_atom_site_fract_y
_atom_site_fract_z
O1 O 0.24462(15) 0.41330(6) -0.09599(12)
N1 N 0.22644(15) 0.34657(7) -0.09358(12)
C1 C 0.41750(17) 0.33670(8) 0.12054(14)
O2 O 0.13376(14) 0.31327(7) -0.17849(12)
C2 C 0.31940(17) 0.30296(8) 0.01366(14)
O3 O 0.38628(12) 0.10631(5) 0.09739(10)
C3 C 0.30591(17) 0.22633(8) 0.00230(14)
H1 H 0.2381(18) 0.2081(9) -0.0705(14)
H2 H 0.4862(18) 0.5273(7) 0.1967(15)
O4 O 0.57880(12) 0.16462(5) 0.28966(10)
C4 C 0.39137(16) 0.18124(8) 0.09726(14)
C5 C 0.49571(16) 0.21339(8) 0.20434(14)
C6 C 0.50568(17) 0.28947(8) 0.21533(14)
H3 H 0.57394 0.31056 0.28890
C7 C 0.43705(17) 0.41478(8) 0.14269(14)
C8 C 0.46506(19) 0.47713(9) 0.17401(16)
C9 C 0.27503(17) 0.07150(8) -0.00558(14)
H4 H 0.30704 0.07999 -0.09618
H5 H 0.16792 0.09259 -0.00501
C10 C 0.27354(17) -0.01003(8) 0.02436(14)
H6 H 0.23674 -0.01785 0.11332
H7 H 0.38271 -0.02968 0.03018
C11 C 0.16582(18) -0.05231(8) -0.08441(15)
H8 H 0.05730 -0.03172 -0.09203
H9 H 0.20441 -0.04562 -0.17293
C12 C 0.16069(19) -0.13435(8) -0.05226(16)
H10 H 0.26680 -0.15557 -0.05028
H11 H 0.08694 -0.15923 -0.12212
H12 H 0.12502 -0.14113 0.03635
C13 C 0.69850(17) 0.19390(8) 0.39333(14)
H13 H 0.64840 0.22445 0.45811
H14 H 0.77381 0.22526 0.35163
C14 C 0.78460(17) 0.12937(8) 0.46602(14)
H15 H 0.84481 0.10273 0.40288
H16 H 0.70648 0.09460 0.49566
C15 C 0.89834(18) 0.15516(9) 0.58933(15)
H17 H 0.97456 0.19091 0.55972
H18 H 0.83753 0.18088 0.65316
C16 C 0.9892(2) 0.0909(1) 0.66219(17)
H19 H 0.91409 0.05540 0.69171
H20 H 1.05913 0.10951 0.74139
H21 H 1.05270 0.06647 0.60033
#END
