
#######################################################################
#
#                 Cambridge Crystallographic Data Centre
#                                CCDC
#
#######################################################################
#
# If this CIF has been generated from an entry in the Cambridge
# Structural Database, then it will include bibliographic, chemical,
# crystal, experimental, refinement or atomic coordinate data resulting
# from the CCDC's data processing and validation procedures.
#
#######################################################################

data_CSD_CIF_ACOWIY
_audit_creation_date 2002-02-27
_audit_creation_method CSD-ConQuest-V1
_database_code_CSD ACOWIY
_database_code_depnum_ccdc_archive 'CCDC 159435'
_chemical_formula_sum 'C3 H5 N3 O4'
_chemical_formula_moiety
;
C3 H5 N3 O4
;
_journal_coden_Cambridge 1003
_journal_volume 30
_journal_year 2000
_journal_page_first 647
_journal_name_full 'J.Chem.Cryst. '
loop_
_publ_author_name
"S.M.Peiris"
"R.Gilardi"
"P.R.Dave"
"T.P.Russell"
_chemical_name_systematic
;
3,3-Dinitro-1-azacyclobutane
;
_chemical_name_common
;
3,3-dinitroazetidine
;
_cell_volume   1188.951
_exptl_crystal_density_diffrn 1.644
_exptl_crystal_description 'chunk'
_diffrn_ambient_temperature 223
#These two values have been output from a single CSD field.
_refine_ls_R_factor_gt 0.0435
_refine_ls_wR_factor_gt 0.0435
_symmetry_cell_setting monoclinic
_symmetry_space_group_name_H-M 'P 21/c'
_symmetry_Int_Tables_number 14
loop_
_symmetry_equiv_pos_site_id
_symmetry_equiv_pos_as_xyz
1 x,y,z
2 x,1/2-y,1/2+z
3 -x,-y,-z
4 -x,-1/2+y,-1/2-z
_cell_length_a 5.9280(7)
_cell_length_b 15.838(2)
_cell_length_c 12.6837(15)
_cell_angle_alpha 90
_cell_angle_beta 93.23(2)
_cell_angle_gamma 90
_cell_formula_units_Z 8
loop_
_atom_type_symbol
_atom_type_radius_bond
C 0.68
H 0.23
N 0.68
O 0.68
loop_
_atom_site_label
_atom_site_type_symbol
_atom_site_fract_x
_atom_site_fract_y
_atom_site_fract_z
N1 N 0.6246(3) 0.37048(12) 0.66252(15)
H1 H 0.5339(44) 0.3892(17) 0.7059(21)
C1 C 0.5596(4) 0.39337(13) 0.5517(2)
H2 H 0.6856(4) 0.41445(13) 0.5124(2)
H3 H 0.4301(4) 0.43181(13) 0.5445(2)
C2 C 0.4992(3) 0.30138(12) 0.5278(2)
N2 N 0.6275(3) 0.25743(12) 0.44496(15)
O1 O 0.6798(3) 0.29842(12) 0.36963(13)
O2 O 0.6678(3) 0.18274(11) 0.45988(15)
N3 N 0.2528(3) 0.28704(11) 0.4960(2)
O3 O 0.1200(3) 0.31753(11) 0.5548(2)
O4 O 0.2032(3) 0.24811(12) 0.41597(15)
C3 C 0.5693(4) 0.28052(14) 0.6421(2)
H4 H 0.4450(4) 0.25951(14) 0.6826(2)
H5 H 0.7004(4) 0.24290(14) 0.6499(2)
N4 N 0.3123(3) 0.44223(12) 0.8229(2)
H6 H 0.3759(42) 0.4287(16) 0.8851(21)
C4 C 0.0668(3) 0.42327(13) 0.8162(2)
H7 H 0.0107(3) 0.40113(13) 0.8819(2)
H8 H 0.0190(3) 0.38741(13) 0.7560(2)
C5 C 0.0170(3) 0.51666(12) 0.7983(2)
N5 N -0.0827(3) 0.53735(11) 0.68950(14)
O5 O -0.2730(3) 0.56502(12) 0.67959(13)
O6 O 0.0366(3) 0.52068(12) 0.61792(13)
N6 N -0.1296(3) 0.56082(12) 0.87427(14)
O7 O -0.1146(3) 0.63685(12) 0.8773(2)
O8 O -0.2480(3) 0.51817(13) 0.92836(13)
C6 C 0.2682(3) 0.53457(13) 0.8177(2)
H9 H 0.3362(3) 0.56268(13) 0.7584(2)
H10 H 0.3060(3) 0.56427(13) 0.8841(2)
#END
