
#######################################################################
#
#                 Cambridge Crystallographic Data Centre
#                                CCDC
#
#######################################################################
#
# If this CIF has been generated from an entry in the Cambridge
# Structural Database, then it will include bibliographic, chemical,
# crystal, experimental, refinement or atomic coordinate data resulting
# from the CCDC's data processing and validation procedures.
#
#######################################################################

data_CSD_CIF_ACOWUK
_audit_creation_date 2002-02-27
_audit_creation_method CSD-ConQuest-V1
_database_code_CSD ACOWUK
_database_code_depnum_ccdc_archive 'CCDC 159437'
_chemical_formula_sum 'C7 H8 N6 O9'
_chemical_formula_moiety
;
C7 H8 N6 O9
;
_journal_coden_Cambridge 1003
_journal_volume 30
_journal_year 2000
_journal_page_first 647
_journal_name_full 'J.Chem.Cryst. '
loop_
_publ_author_name
"S.M.Peiris"
"R.Gilardi"
"P.R.Dave"
"T.P.Russell"
_chemical_name_systematic
;
bis(3,3-dinitroazetidinyl) ketone
;
_cell_volume   1227.600
_exptl_crystal_colour 'colorless'
_exptl_crystal_density_diffrn 1.732
_exptl_crystal_description 'thick prism'
_diffrn_ambient_temperature 293
#These two values have been output from a single CSD field.
_refine_ls_R_factor_gt 0.0351
_refine_ls_wR_factor_gt 0.0351
_symmetry_cell_setting monoclinic
_symmetry_space_group_name_H-M 'P 21/n'
_symmetry_Int_Tables_number 14
loop_
_symmetry_equiv_pos_site_id
_symmetry_equiv_pos_as_xyz
1 x,y,z
2 1/2+x,1/2-y,1/2+z
3 -x,-y,-z
4 -1/2-x,-1/2+y,-1/2-z
_cell_length_a 10.3630(6)
_cell_length_b 6.0901(5)
_cell_length_c 19.9421(11)
_cell_angle_alpha 90
_cell_angle_beta 102.739(5)
_cell_angle_gamma 90
_cell_formula_units_Z 4
loop_
_atom_type_symbol
_atom_type_radius_bond
C 0.68
H 0.23
N 0.68
O 0.68
loop_
_atom_site_label
_atom_site_type_symbol
_atom_site_fract_x
_atom_site_fract_y
_atom_site_fract_z
O1 O 0.54506(15) 0.6186(2) 0.57253(8)
N1 N 0.3876(2) 0.3829(3) 0.59427(9)
C1 C 0.5154(2) 0.4476(3) 0.59732(10)
N2 N 0.6056(2) 0.3008(3) 0.63183(9)
O2 O 0.8405(2) -0.2206(3) 0.57183(9)
C2 C 0.7455(2) 0.2953(4) 0.62706(13)
H1 H 0.8069(22) 0.3582(37) 0.6659(11)
H2 H 0.7603(21) 0.3505(37) 0.5849(12)
N3 N 0.0920(2) 0.2560(4) 0.59376(11)
O3 O 0.9315(2) 0.0068(4) 0.71142(10)
C3 C 0.3404(2) 0.2675(4) 0.64897(12)
H3 H 0.3827(22) 0.3061(38) 0.6916(12)
H4 H 0.3282(21) 0.1096(42) 0.6389(11)
N4 N 0.7652(2) -0.0662(3) 0.56499(10)
O4 O 0.7768(2) -0.2328(3) 0.71027(8)
C4 C 0.7373(2) 0.0437(3) 0.62805(10)
N5 N 0.1702(2) 0.5236(4) 0.6827(1)
O5 O 0.7072(2) 0.0121(3) 0.51078(8)
C5 C 0.2716(2) 0.5248(4) 0.57612(12)
H5 H 0.2244(22) 0.5161(38) 0.5294(12)
H6 H 0.2876(22) 0.6783(42) 0.5909(12)
N6 N 0.8226(2) -0.0698(3) 0.68863(9)
C6 C 0.5906(2) 0.0596(4) 0.62923(14)
H7 H 0.5366(22) 0.0085(38) 0.5893(12)
H8 H 0.5693(21) -0.0009(38) 0.6703(12)
O6 O 0.0685(2) 0.4801(4) 0.69982(10)
C7 C 0.2103(2) 0.3933(4) 0.62651(10)
O7 O 0.0001(2) 0.3541(4) 0.55905(11)
O8 O 0.0980(2) 0.0612(4) 0.60397(13)
O9 O 0.2500(2) 0.6610(4) 0.70955(11)
#END
