
#######################################################################
#
#                 Cambridge Crystallographic Data Centre
#                                CCDC
#
#######################################################################
#
# If this CIF has been generated from an entry in the Cambridge
# Structural Database, then it will include bibliographic, chemical,
# crystal, experimental, refinement or atomic coordinate data resulting
# from the CCDC's data processing and validation procedures.
#
#######################################################################

data_CSD_CIF_ACUMAP
_audit_creation_date 2017-10-02
_audit_creation_method CSD-ConQuest-V1
_database_code_CSD ACUMAP
_database_code_depnum_ccdc_archive 'CCDC 1539569'
_chemical_formula_sum 'C13 H18 N2 O2'
_chemical_formula_moiety
;
C13 H18 N2 O2
;
_journal_coden_Cambridge 1291
_journal_year 2017
_journal_page_first 5410
_journal_name_full 'Eur.J.Org.Chem. '
loop_
_publ_author_name
"V.Yu.Shuvalov"
"I.V.Eltsov"
"N.A.Tumanov"
"E.V.Boldyreva"
"A.A.Nefedov"
"G.P.Sagitullina"
_chemical_name_systematic
;
N-methyl-10-nitrobicyclo[6.3.1]dodeca-1(12),8,10-trien-12-amine
;
_cell_volume    602.649
_exptl_crystal_colour 'yellow'
_exptl_crystal_density_diffrn 1.291
_exptl_crystal_description 'prism'
_exptl_crystal_preparation 'CDCl3'
_diffrn_ambient_temperature 295
#These two values have been output from a single CSD field.
_refine_ls_R_factor_gt 0.0655
_refine_ls_wR_factor_gt 0.0655
_symmetry_cell_setting triclinic
_symmetry_space_group_name_H-M 'P -1'
_symmetry_Int_Tables_number 2
loop_
_symmetry_equiv_pos_site_id
_symmetry_equiv_pos_as_xyz
1 x,y,z
2 -x,-y,-z
_cell_length_a 7.5944(4)
_cell_length_b 7.7999(4)
_cell_length_c 11.5179(6)
_cell_angle_alpha 107.438(5)
_cell_angle_beta 94.544(4)
_cell_angle_gamma 109.194(5)
_cell_formula_units_Z 2
loop_
_atom_type_symbol
_atom_type_radius_bond
C 0.68
H 0.23
N 0.68
O 0.68
loop_
_atom_site_label
_atom_site_type_symbol
_atom_site_fract_x
_atom_site_fract_y
_atom_site_fract_z
N1 N 0.67926(18) 1.32342(17) 0.21399(13)
C1 C 0.5445(2) 1.2334(2) 0.43075(15)
H1 H 0.753(3) 1.340(3) 0.1649(17)
C2 C 0.8420(2) 1.1307(3) 0.41262(16)
C3 C 0.7614(2) 1.2891(2) 0.46847(15)
C4 C 0.9476(2) 1.0209(3) 0.19652(18)
C5 C 0.9829(2) 1.1746(3) 0.32463(17)
N2 N 0.1913(2) 0.5797(2) 0.12806(15)
O1 O 0.0658(2) 0.5557(2) 0.19051(14)
C6 C 0.61619(19) 0.98292(19) 0.12473(12)
C7 C 0.47228(18) 1.10019(19) 0.29697(13)
H2 H 0.862(3) 1.133(3) 0.0700(18)
H3 H 0.803(3) 0.907(3) 0.0182(18)
H4 H 1.067(3) 1.046(3) 0.1684(18)
H5 H 0.906(3) 0.893(3) 0.2029(19)
H6 H 1.113(3) 1.191(3) 0.3655(19)
H7 H 0.990(3) 1.303(3) 0.310(2)
H8 H 0.913(3) 1.113(3) 0.483(2)
H9 H 0.732(3) 1.000(3) 0.3682(18)
H10 H 0.830(3) 1.403(3) 0.4437(16)
H11 H 0.793(3) 1.331(3) 0.557(2)
H12 H 0.516(3) 1.352(3) 0.4499(18)
H13 H 0.482(3) 1.167(3) 0.4809(18)
C8 C 0.6221(3) 1.4852(2) 0.2663(2)
H14 H 0.65430 1.57110 0.21990
H15 H 0.68690 1.55330 0.35130
H16 H 0.48730 1.43870 0.26260
C9 C 0.58478(18) 1.14048(19) 0.20856(12)
O2 O 0.1967(2) 0.44789(19) 0.03859(16)
C10 C 0.8083(2) 1.0155(2) 0.09020(15)
C11 C 0.34010(19) 0.9150(2) 0.26776(14)
H17 H 0.261(3) 0.886(2) 0.3234(16)
C12 C 0.33615(19) 0.76909(19) 0.16183(14)
C13 C 0.4845(2) 0.7989(2) 0.09747(13)
H18 H 0.501(3) 0.691(3) 0.0384(17)
#END
