
#######################################################################
#
#                 Cambridge Crystallographic Data Centre
#                                CCDC
#
#######################################################################
#
# If this CIF has been generated from an entry in the Cambridge
# Structural Database, then it will include bibliographic, chemical,
# crystal, experimental, refinement or atomic coordinate data resulting
# from the CCDC's data processing and validation procedures.
#
#######################################################################

data_CSD_CIF_ACUMIX
_audit_creation_date 2017-10-02
_audit_creation_method CSD-ConQuest-V1
_database_code_CSD ACUMIX
_database_code_depnum_ccdc_archive 'CCDC 1539571'
_chemical_formula_sum 'C14 H20 N2 O2'
_chemical_formula_moiety
;
C14 H20 N2 O2
;
_journal_coden_Cambridge 1291
_journal_year 2017
_journal_page_first 5410
_journal_name_full 'Eur.J.Org.Chem. '
loop_
_publ_author_name
"V.Yu.Shuvalov"
"I.V.Eltsov"
"N.A.Tumanov"
"E.V.Boldyreva"
"A.A.Nefedov"
"G.P.Sagitullina"
_chemical_name_systematic
;
N-methyl-11-nitrobicyclo[7.3.1]trideca-1(13),9,11-trien-13-amine
;
_cell_volume    642.458
_exptl_crystal_colour 'yellow'
_exptl_crystal_density_diffrn 1.284
_exptl_crystal_description 'prism'
_exptl_crystal_preparation 'CDCl3'
_diffrn_ambient_temperature 295
_refine_special_details
;
C3B,C4B and C3A,C4A disordered over two sites with occupancies 0.622:0.378; 
C6A,C7A and C6B,C7B disordered over two sites with occupancies 0.620:0.380.
;
#These two values have been output from a single CSD field.
_refine_ls_R_factor_gt 0.0563
_refine_ls_wR_factor_gt 0.0563
_symmetry_cell_setting triclinic
_symmetry_space_group_name_H-M 'P -1'
_symmetry_Int_Tables_number 2
loop_
_symmetry_equiv_pos_site_id
_symmetry_equiv_pos_as_xyz
1 x,y,z
2 -x,-y,-z
_cell_length_a 8.0654(5)
_cell_length_b 8.1394(2)
_cell_length_c 11.5797(2)
_cell_angle_alpha 109.383(7)
_cell_angle_beta 94.2808(13)
_cell_angle_gamma 112.8490(15)
_cell_formula_units_Z 2
loop_
_atom_type_symbol
_atom_type_radius_bond
C 0.68
H 0.23
N 0.68
O 0.68
loop_
_atom_site_label
_atom_site_type_symbol
_atom_site_fract_x
_atom_site_fract_y
_atom_site_fract_z
N1 N 0.78281(13) 0.91213(14) 0.38491(11)
N2 N 0.28442(15) 0.16007(13) 0.29293(10)
H1 H 0.197(2) 0.150(2) 0.3360(16)
O1 O 0.76098(16) 1.04873(13) 0.45567(13)
O2 O 0.92057(14) 0.93610(15) 0.34068(13)
C1 C 0.3386(3) 0.0037(2) 0.26365(17)
H2 H 0.295(3) -0.064(3) 0.3225(18)
H3 H 0.293(3) -0.081(3) 0.177(2)
H4 H 0.476(3) 0.050(3) 0.279(2)
C2 C 0.35622(15) 0.49890(15) 0.37216(10)
C3 C 0.39109(14) 0.34130(14) 0.29959(10)
C4 C 0.52368(14) 0.37677(15) 0.2258(1)
C5 C 0.65577(13) 0.56538(15) 0.25915(11)
H5 H 0.750(2) 0.594(2) 0.2104(15)
C6 C 0.64357(13) 0.71778(14) 0.35184(10)
C7 C 0.48712(15) 0.68557(15) 0.40116(10)
H6 H 0.461(2) 0.790(2) 0.4505(15)
C8 C 0.16625(17) 0.46046(18) 0.39648(14)
H7 H 0.11460 0.33890 0.40750
H8 H 0.17780 0.56240 0.47430
C9 C 0.0098(3) 0.3488(4) 0.2643(2)
H9 H -0.00150 0.21810 0.22610
H10 H -0.10760 0.33780 0.28450
C10 C 0.0371(3) 0.4352(3) 0.1649(2)
H11 H -0.07890 0.36990 0.10220
H12 H 0.06200 0.57030 0.20500
C11 C 0.18912(18) 0.4257(2) 0.09673(13)
H13 H 0.14250 0.47960 0.04630
H14 H 0.30880 0.52000 0.15250
C12 C 0.1819(3) 0.2331(4) 0.0226(2)
H15 H 0.09170 0.17510 -0.05660
H16 H 0.13750 0.15020 0.06830
C13 C 0.3662(3) 0.2344(3) -0.00625(19)
H17 H 0.43400 0.35040 -0.02110
H18 H 0.33800 0.12390 -0.08380
C14 C 0.49441(17) 0.22759(17) 0.09649(11)
H19 H 0.44070 0.09940 0.09820
H20 H 0.61330 0.25030 0.07530
H21? H 0.16420 0.58230 0.44440
H22? H 0.13830 0.38170 0.44600
C15? C 0.0461(5) 0.4513(6) 0.3014(4)
H23? H 0.08290 0.58090 0.30340
H24? H -0.07680 0.40740 0.31740
C16? C 0.0367(5) 0.3156(5) 0.1679(4)
H25? H -0.08700 0.26100 0.11620
H26? H 0.05830 0.20930 0.17410
H27? H 0.29650 0.48210 0.16550
H28? H 0.20920 0.52330 0.06210
C17? C 0.2235(6) 0.2703(7) -0.0049(4)
H29? H 0.10620 0.18530 -0.06600
H30? H 0.30660 0.33780 -0.04770
C18? C 0.2983(5) 0.1401(5) 0.0220(3)
H31? H 0.21810 0.07290 0.06630
H32? H 0.28650 0.04260 -0.05820
H33? H 0.57860 0.28840 0.05150
H34? H 0.52220 0.12590 0.10520
#END
