
#######################################################################
#
#                 Cambridge Crystallographic Data Centre
#                                CCDC
#
#######################################################################
#
# If this CIF has been generated from an entry in the Cambridge
# Structural Database, then it will include bibliographic, chemical,
# crystal, experimental, refinement or atomic coordinate data resulting
# from the CCDC's data processing and validation procedures.
#
#######################################################################

data_CSD_CIF_ACUMIX01
_audit_creation_date 2017-10-02
_audit_creation_method CSD-ConQuest-V1
_database_code_CSD ACUMIX01
_database_code_depnum_ccdc_archive 'CCDC 1539572'
_chemical_formula_sum 'C14 H20 N2 O2'
_chemical_formula_moiety
;
C14 H20 N2 O2
;
_journal_coden_Cambridge 1291
_journal_year 2017
_journal_page_first 5410
_journal_name_full 'Eur.J.Org.Chem. '
loop_
_publ_author_name
"V.Yu.Shuvalov"
"I.V.Eltsov"
"N.A.Tumanov"
"E.V.Boldyreva"
"A.A.Nefedov"
"G.P.Sagitullina"
_chemical_name_systematic
;
N-methyl-11-nitrobicyclo[7.3.1]trideca-1(13),9,11-trien-13-amine
;
_cell_volume    624.863
_exptl_crystal_colour 'yellow'
_exptl_crystal_density_diffrn 1.32
_exptl_crystal_description 'prism'
_exptl_crystal_preparation 'CDCl3'
_diffrn_ambient_temperature 100
_refine_special_details
;
C3B,C4B and C3A,C4A disordered over two sites with occupancies 0.650:0.350; 
C6A,C7A and C6B,C7B disordered over two sites with occupancies 0.654:0.346.
;
#These two values have been output from a single CSD field.
_refine_ls_R_factor_gt 0.0453
_refine_ls_wR_factor_gt 0.0453
_symmetry_cell_setting triclinic
_symmetry_space_group_name_H-M 'P -1'
_symmetry_Int_Tables_number 2
loop_
_symmetry_equiv_pos_site_id
_symmetry_equiv_pos_as_xyz
1 x,y,z
2 -x,-y,-z
_cell_length_a 8.0706(4)
_cell_length_b 8.1279(1)
_cell_length_c 11.3171(3)
_cell_angle_alpha 109.448(6)
_cell_angle_beta 94.3326(7)
_cell_angle_gamma 113.1957(8)
_cell_formula_units_Z 2
loop_
_atom_type_symbol
_atom_type_radius_bond
C 0.68
H 0.23
N 0.68
O 0.68
loop_
_atom_site_label
_atom_site_type_symbol
_atom_site_fract_x
_atom_site_fract_y
_atom_site_fract_z
N1 N 0.78389(10) 0.91381(11) 0.38651(8)
N2 N 0.27974(11) 0.15873(10) 0.29487(8)
H1 H 0.1908(19) 0.1522(19) 0.3389(13)
O1 O 0.75844(9) 1.05307(9) 0.45319(8)
O2 O 0.92672(9) 0.93653(10) 0.34566(8)
C1 C 0.33236(16) 0.00032(14) 0.26567(10)
H2 H 0.2861(19) -0.0669(19) 0.3246(14)
H3 H 0.283(2) -0.091(2) 0.1708(15)
H4 H 0.470(2) 0.055(2) 0.2892(14)
C2 C 0.35295(11) 0.49903(12) 0.37273(8)
C3 C 0.38820(11) 0.33993(11) 0.30110(8)
C4 C 0.52378(11) 0.37428(12) 0.22729(8)
C5 C 0.65761(11) 0.56406(12) 0.26104(9)
H5 H 0.756(2) 0.591(2) 0.2126(14)
C6 C 0.64390(11) 0.71847(11) 0.35367(8)
C7 C 0.48463(11) 0.68733(12) 0.40200(8)
H6 H 0.4599(16) 0.7997(18) 0.4521(12)
C8 C 0.16175(12) 0.45974(13) 0.39616(10)
H7 H 0.10820 0.33660 0.40950
H8 H 0.17200 0.56630 0.47570
C9 C 0.00702(18) 0.3439(2) 0.26163(15)
H9 H -0.00320 0.21060 0.22300
H10 H -0.11380 0.33100 0.28140
C10 C 0.03623(19) 0.4306(2) 0.15876(15)
H11 H 0.06190 0.56910 0.20030
H12 H -0.08200 0.36270 0.09240
C11 C 0.19138(13) 0.42124(14) 0.08970(9)
H13 H 0.14600 0.47610 0.03590
H14 H 0.31280 0.51830 0.15000
C12 C 0.1831(2) 0.2279(2) 0.01615(16)
H15 H 0.09070 0.16630 -0.06710
H16 H 0.13740 0.14480 0.06490
C13 C 0.36744(19) 0.2291(2) -0.01213(14)
H17 H 0.33840 0.11570 -0.09320
H18 H 0.43810 0.34810 -0.02720
C14 C 0.49627(12) 0.22228(12) 0.09599(9)
H19 H 0.43980 0.09120 0.09820
H20 H 0.61840 0.24540 0.07520
H21? H 0.15910 0.58480 0.44420
H22? H 0.13310 0.38160 0.44940
C15? C 0.0406(4) 0.4454(5) 0.2904(3)
H23? H 0.07910 0.57720 0.29050
H24? H -0.08680 0.39970 0.30390
C16? C 0.0366(3) 0.3076(4) 0.1571(3)
H25? H -0.08860 0.24760 0.09990
H26? H 0.06050 0.20160 0.16660
H27? H 0.30110 0.48310 0.16260
H28? H 0.21070 0.51890 0.05160
C17? C 0.2305(5) 0.2607(5) -0.0150(3)
H29? H 0.11280 0.17300 -0.08170
H30? H 0.32000 0.33020 -0.05720
C18? C 0.3025(4) 0.1292(4) 0.0185(3)
H31? H 0.21930 0.06450 0.06590
H32? H 0.29110 0.02590 -0.06340
H33? H 0.52680 0.12100 0.10730
H34? H 0.58230 0.28450 0.04890
#END
