
#######################################################################
#
#                 Cambridge Crystallographic Data Centre
#                                CCDC
#
#######################################################################
#
# If this CIF has been generated from an entry in the Cambridge
# Structural Database, then it will include bibliographic, chemical,
# crystal, experimental, refinement or atomic coordinate data resulting
# from the CCDC's data processing and validation procedures.
#
#######################################################################

data_CSD_CIF_ACUZON
_audit_creation_date 2002-02-27
_audit_creation_method CSD-ConQuest-V1
_database_code_CSD ACUZON
_database_code_depnum_ccdc_archive 'CCDC 150229'
_chemical_formula_sum 'C11 H10 N2 O2'
_chemical_formula_moiety
;
C11 H10 N2 O2
;
_journal_coden_Cambridge 644
_journal_volume 56
_journal_year 2001
_journal_page_first 1264
_journal_name_full 'Z.Naturforsch.,B:Chem.Sci. '
loop_
_publ_author_name
"E.G.Petkova"
"K.V.Domasevitch"
"M.V.Gorichko"
"V.Y.Zub"
"R.D.Lampeka"
_chemical_name_systematic
;
N-((8-Hydroxyquinolin-2-yl)methylene)methylamine N-oxide
;
_chemical_name_common
;
8-Hydroxyquinoline-2-carbaldehyde N-methylnitrone
;
_chemical_melting_point 429.15
_cell_volume   1878.895
_exptl_crystal_colour 'light yellow'
_exptl_crystal_density_diffrn 1.43
_exptl_crystal_description 'plate'
_diffrn_ambient_temperature 223
#These two values have been output from a single CSD field.
_refine_ls_R_factor_gt 0.0431
_refine_ls_wR_factor_gt 0.0431
_symmetry_cell_setting orthorhombic
_symmetry_space_group_name_H-M 'P b c a'
_symmetry_Int_Tables_number 61
loop_
_symmetry_equiv_pos_site_id
_symmetry_equiv_pos_as_xyz
1 x,y,z
2 1/2+x,y,1/2-z
3 1/2-x,1/2+y,z
4 x,1/2-y,1/2+z
5 -x,-y,-z
6 -1/2-x,-y,-1/2+z
7 -1/2+x,-1/2-y,-z
8 -x,-1/2+y,-1/2-z
_cell_length_a 11.6129(10)
_cell_length_b 7.4453(6)
_cell_length_c 21.731(2)
_cell_angle_alpha 90
_cell_angle_beta 90
_cell_angle_gamma 90
_cell_formula_units_Z 8
loop_
_atom_type_symbol
_atom_type_radius_bond
C 0.68
H 0.23
N 0.68
O 0.68
loop_
_atom_site_label
_atom_site_type_symbol
_atom_site_fract_x
_atom_site_fract_y
_atom_site_fract_z
O1 O 0.78258(10) 0.3731(2) -0.03872(6)
O2 O 0.37222(10) -0.0479(2) 0.14220(6)
N1 N 0.67148(12) 0.3646(2) -0.04189(6)
N2 N 0.55129(12) 0.1207(2) 0.08382(6)
C1 C 0.60551(15) 0.2826(2) -0.00246(8)
H1 H 0.5242(18) 0.2819(29) -0.0110(8)
C2 C 0.6204(2) 0.4604(3) -0.09474(9)
C3 C 0.63944(14) 0.1952(2) 0.05431(7)
C4 C 0.75324(15) 0.1954(2) 0.07827(8)
H2 H 0.8156(18) 0.2513(25) 0.0542(8)
C5 C 0.77206(14) 0.1238(3) 0.13537(8)
H3 H 0.8524(15) 0.1231(27) 0.1540(9)
C6 C 0.68077(14) 0.0457(2) 0.16867(8)
C7 C 0.6930(2) -0.0342(3) 0.22730(8)
H4 H 0.7675(14) -0.0233(25) 0.2465(9)
C8 C 0.6027(2) -0.1221(3) 0.25345(8)
H5 H 0.6120(19) -0.1799(27) 0.2938(10)
C9 C 0.49473(15) -0.1308(2) 0.22414(8)
H6 H 0.4284(16) -0.1888(27) 0.2442(8)
C10 C 0.47799(14) -0.0457(2) 0.16876(8)
C11 C 0.57151(14) 0.0436(2) 0.13941(7)
H7 H 0.6556(16) 0.4176(28) -0.1311(10)
H8 H 0.5371(20) 0.4449(26) -0.0923(10)
H9 H 0.6401(22) 0.5875(38) -0.0871(12)
H10 H 0.3671(23) 0.0154(34) 0.1053(15)
#END
