
#######################################################################
#
#                 Cambridge Crystallographic Data Centre
#                                CCDC
#
#######################################################################
#
# If this CIF has been generated from an entry in the Cambridge
# Structural Database, then it will include bibliographic, chemical,
# crystal, experimental, refinement or atomic coordinate data resulting
# from the CCDC's data processing and validation procedures.
#
#######################################################################

data_CSD_CIF_ADACIT
_audit_creation_date 2013-04-04
_audit_creation_method CSD-ConQuest-V1
_database_code_CSD ADACIT
_database_code_depnum_ccdc_archive 'CCDC 881252'
_chemical_formula_sum 'C19 H19 N1 O7'
_chemical_formula_moiety
;
C19 H19 N1 O7
;
_journal_coden_Cambridge 179
_journal_volume 51
_journal_year 2012
_journal_page_first 9825
_journal_name_full 'Angew.Chem.,Int.Ed. '
loop_
_publ_author_name
"Yang Yang"
"Xingnian Fu"
"Jianwei Chen"
"Hongbin Zhai"
_chemical_name_systematic
;
1-(3-Hydroxy-4-methyl-2-oxo-4-vinyltetrahydrofuran-3-yl)pent-3-yn-1-yl 
4-nitrobenzoate
;
_cell_volume   3720.953
_exptl_crystal_colour 'colorless'
_exptl_crystal_density_diffrn 1.329
_exptl_crystal_description 'prismatic'
_diffrn_ambient_temperature 293
#These two values have been output from a single CSD field.
_refine_ls_R_factor_gt 0.0602
_refine_ls_wR_factor_gt 0.0602
_symmetry_cell_setting orthorhombic
_symmetry_space_group_name_H-M 'P b c a'
_symmetry_Int_Tables_number 61
loop_
_symmetry_equiv_pos_site_id
_symmetry_equiv_pos_as_xyz
1 x,y,z
2 1/2-x,-y,1/2+z
3 -x,1/2+y,1/2-z
4 1/2+x,1/2-y,-z
5 -x,-y,-z
6 -1/2+x,y,-1/2-z
7 x,-1/2-y,-1/2+z
8 -1/2-x,-1/2+y,z
_cell_length_a 11.1527(15)
_cell_length_b 15.392(2)
_cell_length_c 21.676(3)
_cell_angle_alpha 90
_cell_angle_beta 90
_cell_angle_gamma 90
_cell_formula_units_Z 8
loop_
_atom_type_symbol
_atom_type_radius_bond
C 0.68
H 0.23
N 0.68
O 0.68
loop_
_atom_site_label
_atom_site_type_symbol
_atom_site_fract_x
_atom_site_fract_y
_atom_site_fract_z
O1 O -0.27882(18) 0.11588(15) 0.72351(9)
O2 O -0.23150(19) -0.02269(14) 0.71406(10)
O3 O -0.01574(17) 0.07220(12) 0.74740(8)
O4 O 0.07875(14) 0.15722(11) 0.64314(7)
O5 O 0.05287(16) 0.16367(13) 0.53980(8)
O6 O 0.6718(2) 0.15455(16) 0.52036(12)
O7 O 0.68061(19) 0.23421(18) 0.60126(11)
N1 N 0.6239(2) 0.19286(17) 0.56325(13)
C1 C -0.2055(3) 0.0624(2) 0.70939(12)
C2 C -0.1295(3) -0.07366(19) 0.69409(16)
H1 H -0.15570 -0.12390 0.67070
H2 H -0.08340 -0.09350 0.72930
C3 C -0.0541(3) -0.01302(17) 0.65365(13)
C4 C -0.0754(2) 0.07330(16) 0.68937(11)
C5 C -0.0493(2) 0.15730(16) 0.65515(11)
H3 H -0.09370 0.15860 0.61610
C6 C -0.0760(3) 0.23877(17) 0.69235(12)
H4 H -0.11060 0.23740 0.73140
C7 C -0.0424(3) 0.31937(19) 0.66129(12)
C8 C -0.0171(3) 0.3857(2) 0.63870(14)
C9 C 0.0118(4) 0.4707(2) 0.61079(17)
H5 H -0.05440 0.48970 0.58590
H6 H 0.08200 0.46520 0.58550
H7 H 0.02650 0.51240 0.64280
C10 C 0.0731(3) -0.04251(19) 0.65246(17)
H8 H 0.11590 -0.03750 0.68910
C11 C 0.1306(4) -0.0746(2) 0.6054(2)
H9 H 0.09180 -0.08100 0.56770
H10 H 0.21040 -0.09120 0.60950
C12 C -0.1125(3) -0.0094(2) 0.59004(14)
H11 H -0.07000 0.03120 0.56450
H12 H -0.19440 0.00880 0.59410
H13 H -0.10980 -0.06600 0.57140
C13 C 0.1177(2) 0.16417(16) 0.58403(11)
C14 C 0.2507(2) 0.17211(15) 0.58103(11)
C15 C 0.3045(2) 0.16428(18) 0.52378(12)
H14 H 0.25730 0.15410 0.48910
C16 C 0.4264(3) 0.17136(17) 0.51749(12)
H15 H 0.46270 0.16510 0.47910
C17 C 0.4937(2) 0.18787(16) 0.56912(12)
C18 C 0.4434(3) 0.19773(18) 0.62634(12)
H16 H 0.49090 0.21000 0.66050
C19 C 0.3212(2) 0.18911(18) 0.63235(12)
H17 H 0.28570 0.19470 0.67100
H18 H 0.0594(18) 0.081(2) 0.7444(19)
#END
