
#######################################################################
#
#                 Cambridge Crystallographic Data Centre
#                                CCDC
#
#######################################################################
#
# If this CIF has been generated from an entry in the Cambridge
# Structural Database, then it will include bibliographic, chemical,
# crystal, experimental, refinement or atomic coordinate data resulting
# from the CCDC's data processing and validation procedures.
#
#######################################################################

data_CSD_CIF_ADADUG
_audit_creation_date 2013-04-04
_audit_creation_method CSD-ConQuest-V1
_database_code_CSD ADADUG
_database_code_depnum_ccdc_archive 'CCDC 878578'
_chemical_formula_sum 'C22 H18 N2 O2'
_chemical_formula_moiety
;
C22 H18 N2 O2
;
_journal_coden_Cambridge 179
_journal_volume 51
_journal_year 2012
_journal_page_first 9846
_journal_name_full 'Angew.Chem.,Int.Ed. '
loop_
_publ_author_name
"Hongqiang Liu"
"M.El-Salfiti"
"M.Lautens"
_chemical_name_systematic
;
9-(8-Methyl-6-nitro-3,4-dihydronaphthalen-1(2H)-ylidene)-9H-pyrrolo[1,2-a]indo
le
;
_cell_volume    846.793
_exptl_crystal_colour 'orange'
_exptl_crystal_density_diffrn 1.343
_exptl_crystal_description 'plate'
_diffrn_ambient_temperature 150
#These two values have been output from a single CSD field.
_refine_ls_R_factor_gt 0.0379
_refine_ls_wR_factor_gt 0.0379
_symmetry_cell_setting triclinic
_symmetry_space_group_name_H-M 'P -1'
_symmetry_Int_Tables_number 2
loop_
_symmetry_equiv_pos_site_id
_symmetry_equiv_pos_as_xyz
1 x,y,z
2 -x,-y,-z
_cell_length_a 8.1416(4)
_cell_length_b 9.8400(5)
_cell_length_c 11.8161(6)
_cell_angle_alpha 67.337(2)
_cell_angle_beta 77.462(2)
_cell_angle_gamma 79.075(2)
_cell_formula_units_Z 2
loop_
_atom_type_symbol
_atom_type_radius_bond
C 0.68
H 0.23
N 0.68
O 0.68
loop_
_atom_site_label
_atom_site_type_symbol
_atom_site_fract_x
_atom_site_fract_y
_atom_site_fract_z
O1 O -0.20331(13) -0.13467(12) 0.98551(10)
O2 O 0.00927(14) -0.30672(11) 1.01796(10)
N1 N 0.19883(12) 0.35571(10) 0.30102(9)
N2 N -0.05253(15) -0.17871(13) 0.96581(10)
C1 C 0.43287(15) 0.38923(12) 0.35827(11)
C2 C 0.58037(16) 0.45354(14) 0.33681(12)
H1 H 0.64380 0.42990 0.40200
C3 C 0.63397(17) 0.55314(15) 0.21849(13)
H2 H 0.73560 0.59580 0.20340
C4 C 0.54236(18) 0.59090(15) 0.12292(13)
H3 H 0.58160 0.65960 0.04350
C5 C 0.39360(17) 0.52998(14) 0.14103(12)
H4 H 0.32970 0.55560 0.07580
C6 C 0.34321(15) 0.43037(13) 0.25837(11)
C7 C 0.07396(16) 0.33209(14) 0.25132(12)
H5 H 0.05450 0.37800 0.16770
C8 C -0.01744(16) 0.22892(14) 0.34647(12)
H6 H -0.11260 0.19100 0.33990
C9 C 0.05379(15) 0.18859(13) 0.45582(12)
H7 H 0.01580 0.11900 0.53510
C10 C 0.18891(14) 0.26925(12) 0.42568(11)
C11 C 0.33670(14) 0.28534(12) 0.47025(11)
C12 C 0.26480(14) 0.12095(12) 0.68888(11)
C13 C 0.38143(14) 0.21211(12) 0.58467(11)
C14 C 0.56123(15) 0.20247(14) 0.60747(12)
H8 H 0.57280 0.29210 0.62270
H9 H 0.64200 0.20080 0.53200
C15 C 0.60740(16) 0.06478(15) 0.71800(13)
H10 H 0.73180 0.03770 0.70760
H11 H 0.57150 0.08640 0.79550
C16 C 0.52040(16) -0.06450(14) 0.72736(13)
H12 H 0.54940 -0.08230 0.64800
H13 H 0.55840 -0.15590 0.79410
C17 C 0.33274(15) -0.02504(13) 0.75581(11)
C18 C 0.22954(16) -0.12309(13) 0.84690(11)
H14 H 0.27370 -0.22220 0.88970
C19 C 0.06076(16) -0.07348(13) 0.87411(11)
C20 C -0.00604(15) 0.07206(13) 0.81860(11)
H15 H -0.12100 0.10380 0.84400
C21 C 0.09541(14) 0.17217(13) 0.72540(11)
C22 C 0.01819(15) 0.33088(13) 0.67248(12)
H16 H -0.04430 0.36320 0.74030
H17 H -0.05950 0.33860 0.61690
H18 H 0.10820 0.39410 0.62580
#END
