
#######################################################################
#
#                 Cambridge Crystallographic Data Centre
#                                CCDC
#
#######################################################################
#
# If this CIF has been generated from an entry in the Cambridge
# Structural Database, then it will include bibliographic, chemical,
# crystal, experimental, refinement or atomic coordinate data resulting
# from the CCDC's data processing and validation procedures.
#
#######################################################################

data_CSD_CIF_ADAFUI
_audit_creation_date 2013-04-04
_audit_creation_method CSD-ConQuest-V1
_database_code_CSD ADAFUI
_database_code_depnum_ccdc_archive 'CCDC 894695'
_chemical_formula_sum 'C35 H46 N2 O8'
_chemical_formula_moiety
;
C35 H46 N2 O8
;
_journal_coden_Cambridge 179
_journal_volume 51
_journal_year 2012
_journal_page_first 9860
_journal_name_full 'Angew.Chem.,Int.Ed. '
loop_
_publ_author_name
"S.Nakazawa"
"S.Nishida"
"T.Ise"
"T.Yoshino"
"N.Mori"
"R.D.Rahimi"
"K.Sato"
"Y.Morita"
"K.Toyota"
"D.Shiomi"
"M.Kitagawa"
"H.Hara"
"P.Carl"
"P.Hofer"
"T.Takui"
_chemical_name_systematic
;
1-Hydroxy-2,2,6,6-tetramethylpiperidin-4-yl 
4-(((1-hydroxy-2,2,6,6-tetramethylpiperidin-4-yl)oxy)carbonyl)-2,6-dimethylphe
nyl terephthalate
;
_chemical_melting_point 452.15
_cell_volume   6758.643
_exptl_crystal_colour 'orange'
_exptl_crystal_density_diffrn 1.224
_exptl_special_details
;
Melting point range 452.15-453.15K

;
_exptl_crystal_description 'block'
_diffrn_ambient_temperature 200
#These two values have been output from a single CSD field.
_refine_ls_R_factor_gt 0.06
_refine_ls_wR_factor_gt 0.06
_symmetry_cell_setting monoclinic
_symmetry_space_group_name_H-M 'C 2/c'
_symmetry_Int_Tables_number 15
loop_
_symmetry_equiv_pos_site_id
_symmetry_equiv_pos_as_xyz
1 x,y,z
2 -x,y,1/2-z
3 1/2+x,1/2+y,z
4 1/2-x,1/2+y,1/2-z
5 -x,-y,-z
6 x,-y,-1/2+z
7 -1/2-x,-1/2-y,-z
8 -1/2+x,-1/2-y,-1/2+z
_cell_length_a 42.212(6)
_cell_length_b 11.8996(15)
_cell_length_c 14.361(2)
_cell_angle_alpha 90
_cell_angle_beta 110.458(3)
_cell_angle_gamma 90
_cell_formula_units_Z 8
loop_
_atom_type_symbol
_atom_type_radius_bond
C 0.68
H 0.23
N 0.68
O 0.68
loop_
_atom_site_label
_atom_site_type_symbol
_atom_site_fract_x
_atom_site_fract_y
_atom_site_fract_z
O1 O 0.45002(8) 0.7108(2) 0.4098(2)
O2 O 0.36982(7) 0.9537(2) 0.55969(17)
O3 O 0.35210(8) 1.1171(2) 0.4808(2)
O4 O 0.25385(7) 1.0354(2) 0.72819(18)
O5 O 0.28923(8) 1.1189(2) 0.8666(2)
O6 O 0.15864(8) 1.0914(2) 1.0642(2)
O7 O 0.13373(8) 0.9631(2) 0.94569(18)
O8 O 0.04826(8) 0.7089(2) 1.06935(19)
N1 N 0.43150(9) 0.7750(2) 0.4432(2)
N2 N 0.06761(9) 0.7750(2) 1.0425(2)
C1 C 0.44754(11) 0.8194(3) 0.5449(2)
C2 C 0.42079(11) 0.8609(3) 0.5838(2)
C3 C 0.39444(10) 0.9351(3) 0.5117(2)
C4 C 0.37714(10) 0.8712(3) 0.4159(2)
C5 C 0.40211(11) 0.8282(3) 0.3664(2)
C6 C 0.41382(12) 0.9224(3) 0.3143(2)
C7 C 0.38368(11) 0.7368(3) 0.2932(2)
C8 C 0.47316(11) 0.9128(3) 0.5459(3)
C9 C 0.46675(11) 0.7220(3) 0.6110(2)
C10 C 0.34964(11) 1.0437(4) 0.5364(3)
C11 C 0.32503(11) 1.0405(3) 0.5886(2)
C12 C 0.30528(11) 1.1342(3) 0.5861(2)
C13 C 0.28212(11) 1.1360(3) 0.6351(2)
C14 C 0.27965(11) 1.0388(4) 0.6863(2)
C15 C 0.29861(11) 0.9446(3) 0.6901(2)
C16 C 0.3215(1) 0.9464(3) 0.6401(2)
C17 C 0.26118(12) 1.2387(3) 0.6345(2)
C18 C 0.29364(12) 0.8404(3) 0.7443(2)
C19 C 0.26277(12) 1.0773(3) 0.8228(2)
C20 C 0.23370(11) 1.0642(3) 0.8605(2)
C21 C 0.20445(12) 1.0096(3) 0.8097(2)
C22 C 0.17897(11) 0.9995(3) 0.8510(2)
C23 C 0.18350(11) 1.0473(3) 0.9428(2)
C24 C 0.21316(11) 1.1043(3) 0.9923(2)
C25 C 0.2391(1) 1.1116(3) 0.9538(2)
C26 C 0.15761(12) 1.0390(4) 0.9914(3)
C27 C 0.10724(10) 0.9392(3) 0.9880(2)
C28 C 0.08286(11) 0.8650(3) 0.9115(2)
C29 C 0.05341(12) 0.8200(3) 0.9392(2)
C30 C 0.09558(11) 0.8304(3) 1.1241(2)
C31 C 0.12166(10) 0.8751(3) 1.0840(2)
C32 C 0.02639(11) 0.9078(3) 0.9320(2)
C33 C 0.03742(12) 0.7209(3) 0.8713(2)
C34 C 0.08051(11) 0.9236(3) 1.1709(2)
C35 C 0.11175(11) 0.7428(3) 1.2034(2)
H1 H 0.36310 0.91060 0.36940
H2 H 0.36710 0.81060 0.43440
H3 H 0.40390 1.00380 0.50000
H4 H 0.43160 0.90270 0.64290
H5 H 0.40970 0.79770 0.59880
H6 H 0.42260 0.98250 0.35960
H7 H 0.39520 0.94870 0.25930
H8 H 0.43090 0.89490 0.29140
H9 H 0.37990 0.67370 0.32860
H10 H 0.36260 0.76500 0.25010
H11 H 0.39710 0.71470 0.25520
H12 H 0.48160 0.94620 0.61000
H13 H 0.46220 0.96840 0.49800
H14 H 0.09660 0.94460 1.23340
H15 H 0.48910 0.71870 0.60970
H16 H 0.46770 0.73410 0.67730
H17 H 0.45540 0.65320 0.58690
H18 H 0.30760 1.19870 0.55000
H19 H 0.33490 0.88180 0.64140
H20 H 0.26160 1.29330 0.58440
H21 H 0.23860 1.21130 0.62340
H22 H 0.26860 1.26630 0.70340
H23 H 0.27690 0.79370 0.69950
H24 H 0.31440 0.80050 0.76980
H25 H 0.28650 0.86180 0.79760
H26 H 0.20130 0.97860 0.74610
H27 H 0.15870 0.95980 0.81630
H28 H 0.21590 1.13940 1.05410
H29 H 0.25990 1.14760 0.98980
H30 H 0.09660 1.00640 0.99720
H31 H 0.09510 0.80260 0.90030
H32 H 0.07370 0.90710 0.85190
H33 H 0.13640 0.92380 1.13230
H34 H 0.13420 0.81330 1.07310
H35 H 0.03650 0.98020 0.94480
H36 H 0.00980 0.90650 0.86720
H37 H 0.01610 0.89170 0.97970
H38 H 0.02400 0.74810 0.80750
H39 H 0.02360 0.67930 0.89890
H40 H 0.05480 0.67370 0.86540
H41 H 0.06060 0.89660 1.18000
H42 H 0.07510 0.98710 1.12810
H43 H 0.13000 0.70810 1.19000
H44 H 0.12000 0.77790 1.26670
H45 H 0.09550 0.68750 1.20290
H46 H 0.49130 0.88120 0.53020
#END
