
#######################################################################
#
#                 Cambridge Crystallographic Data Centre
#                                CCDC
#
#######################################################################
#
# If this CIF has been generated from an entry in the Cambridge
# Structural Database, then it will include bibliographic, chemical,
# crystal, experimental, refinement or atomic coordinate data resulting
# from the CCDC's data processing and validation procedures.
#
#######################################################################

data_CSD_CIF_ADALUP
_audit_creation_date 2017-10-02
_audit_creation_method CSD-ConQuest-V1
_database_code_CSD ADALUP
_database_code_depnum_ccdc_archive 'CCDC 1502099'
_chemical_formula_sum 'C19 H17 N5 O3'
_chemical_formula_moiety
;
C19 H17 N5 O3
;
_journal_coden_Cambridge 1501
_journal_volume 19
_journal_year 2017
_journal_page_first 279
_journal_name_full 'ACS Comb. Sci. '
loop_
_publ_author_name
"H.Surya Prakash Rao"
"L.N.Adigopula"
"R.Krishna"
_chemical_name_systematic
;
2-[6-(methylamino)-5-nitro-3-phenyl-4,7-dihydro-1H-pyrazolo[3,4-b]pyridin-4-yl
]phenol unknown solvate
;
_cell_volume   2202.538
_exptl_crystal_colour 'colorless'
_exptl_crystal_density_diffrn 1.099
_exptl_crystal_description 'plate'
_diffrn_ambient_temperature 298
_refine_special_details
;
O3,O4 and O47,O48 disordered over two sites with occupancies 0.645:0.355; 
Disordered solvent molecules were not modelled and the disordered density was 
taken into account using the SQUEEZE/PLATON procedure.
;
#These two values have been output from a single CSD field.
_refine_ls_R_factor_gt 0.1598
_refine_ls_wR_factor_gt 0.1598
_symmetry_cell_setting triclinic
_symmetry_space_group_name_H-M 'P -1'
_symmetry_Int_Tables_number 2
loop_
_symmetry_equiv_pos_site_id
_symmetry_equiv_pos_as_xyz
1 x,y,z
2 -x,-y,-z
_cell_length_a 11.3633(9)
_cell_length_b 12.479(1)
_cell_length_c 16.6341(17)
_cell_angle_alpha 86.351(7)
_cell_angle_beta 72.539(8)
_cell_angle_gamma 78.203(7)
_cell_formula_units_Z 4
loop_
_atom_type_symbol
_atom_type_radius_bond
C 0.68
H 0.23
N 0.68
O 0.68
loop_
_atom_site_label
_atom_site_type_symbol
_atom_site_fract_x
_atom_site_fract_y
_atom_site_fract_z
O1 O 0.1275(4) 0.3710(3) 0.2147(2)
O2 O 0.1327(5) 0.3890(3) 0.0805(3)
N1 N 0.1377(4) 0.4333(3) 0.1476(3)
C1 C 0.1045(5) 0.6993(4) 0.2383(3)
N2 N 0.1326(5) 0.7151(4) 0.0854(3)
H1 H 0.14180 0.75680 0.04170
N3 N 0.1690(5) 0.5670(4) 0.0003(3)
H2 H 0.18260 0.49710 -0.00470
N4 N 0.0574(5) 0.8665(4) 0.1792(3)
H3 H 0.04780 0.91780 0.14340
C2 C 0.1497(5) 0.6070(4) 0.0765(3)
C3 C 0.1440(5) 0.5374(4) 0.1507(3)
N5 N 0.0326(5) 0.8741(4) 0.2639(3)
C4 C 0.1528(5) 0.5776(4) 0.2336(3)
H4 H 0.09710 0.54330 0.28030
C5 C 0.0999(5) 0.7608(4) 0.1655(3)
C6 C 0.0571(5) 0.7750(4) 0.3018(3)
C7 C 0.2864(5) 0.5470(4) 0.2420(3)
C8 C 0.1688(7) 0.6322(5) -0.0750(4)
H5 H 0.21570 0.58850 -0.12390
H6 H 0.20680 0.69410 -0.07450
H7 H 0.08380 0.65730 -0.07650
C9 C 0.0307(5) 0.7690(5) 0.3939(3)
C10 C 0.3184(6) 0.4603(5) 0.2937(4)
H8 H 0.25800 0.42000 0.32250
C11 C -0.0180(8) 0.8616(6) 0.4438(4)
H9 H -0.02900 0.93030 0.41900
C12 C -0.0249(7) 0.7535(7) 0.5714(4)
H10 H -0.04030 0.74870 0.62960
C13 C 0.0547(8) 0.6694(6) 0.4347(4)
H11 H 0.09170 0.60640 0.40250
C14 C 0.4360(8) 0.4334(7) 0.3030(5)
H12 H 0.45500 0.37590 0.33830
C15 C 0.0256(8) 0.6615(7) 0.5206(4)
H13 H 0.03980 0.59310 0.54550
C16 C 0.4973(8) 0.5746(13) 0.2102(7)
H14 H 0.55810 0.61510 0.18300
C17 C 0.3793(7) 0.6011(8) 0.1983(5)
C18 C -0.0511(8) 0.8518(7) 0.5326(4)
H15 H -0.09160 0.91370 0.56550
C19 C 0.5252(9) 0.4907(10) 0.2607(6)
H16 H 0.60580 0.47220 0.26660
O3 O 0.3593(8) 0.6546(8) 0.1288(7)
H17 H 0.41590 0.68830 0.10730
N6 N 0.1614(5) 0.3741(4) -0.1157(3)
N7 N 0.1678(5) 0.2158(4) -0.0266(3)
H18 H 0.15350 0.25430 0.01770
N8 N 0.1825(5) -0.0596(4) -0.0898(3)
O4 O 0.1348(5) -0.1036(3) -0.0190(3)
N9 N 0.1837(4) 0.3858(4) -0.2004(3)
O5 O 0.2115(5) -0.1159(3) -0.1559(3)
N10 N 0.1434(6) 0.0671(4) 0.0577(3)
H19 H 0.14640 -0.00240 0.06260
C20 C 0.2274(5) 0.2082(4) -0.1817(3)
C21 C 0.2244(5) 0.2896(4) -0.2435(3)
C22 C 0.1875(6) 0.2671(4) -0.1070(3)
C23 C 0.2637(6) 0.0879(4) -0.1817(4)
H20 H 0.22930 0.05940 -0.22140
C24 C 0.2025(7) 0.0460(4) -0.0937(4)
C25 C 0.2513(5) 0.2841(5) -0.3341(4)
C26 C 0.1714(6) 0.1084(5) -0.0194(4)
C27 C 0.4087(8) 0.0488(5) -0.2108(4)
C28 C 0.1086(8) 0.1288(5) 0.1335(4)
H21 H 0.03640 0.18520 0.13510
H22 H 0.17730 0.16160 0.13520
H23 H 0.08870 0.08120 0.18130
C29 C 0.2996(7) 0.2712(6) -0.5094(4)
H24 H 0.31750 0.26750 -0.56760
C30 C 0.2313(8) 0.3753(7) -0.3827(4)
H25 H 0.20110 0.44340 -0.35690
C31 C 0.2550(9) 0.3686(7) -0.4689(5)
H26 H 0.24000 0.43220 -0.49970
C32 C 0.3177(9) 0.1789(7) -0.4631(4)
H27 H 0.34580 0.11140 -0.49010
C33 C 0.2947(9) 0.1832(5) -0.3746(4)
H28 H 0.30850 0.11930 -0.34390
C34 C 0.4694(11) -0.0355(7) -0.2705(5)
C35 C 0.4852(8) 0.1009(9) -0.1842(6)
C36 C 0.6096(10) 0.0626(14) -0.2089(8)
H29 H 0.65800 0.08910 -0.18140
C37 C 0.6048(13) -0.0602(9) -0.2979(6)
H30 H 0.64660 -0.11470 -0.33790
C38 C 0.6676(13) -0.0089(13) -0.2685(7)
H31 H 0.75480 -0.02220 -0.28930
O6 O 0.4258(8) 0.1457(9) -0.1077(8)
H32 H 0.35950 0.12410 -0.08760
H33 H 0.186(5) 0.413(5) -0.088(4)
H34? H 0.36320 0.65610 0.16040
O7? O 0.2547(14) 0.3851(11) 0.3211(10)
O8? O 0.4241(18) -0.1047(14) -0.2906(12)
H35? H 0.45130 0.16200 -0.14960
H36? H 0.00430 0.93500 0.29090
H37? H 0.17310 0.44850 -0.22460
H38? H 0.44100 -0.01680 -0.32000
H39? H 0.44060 -0.10200 -0.24700
#END
