
#######################################################################
#
#                 Cambridge Crystallographic Data Centre
#                                CCDC
#
#######################################################################
#
# If this CIF has been generated from an entry in the Cambridge
# Structural Database, then it will include bibliographic, chemical,
# crystal, experimental, refinement or atomic coordinate data resulting
# from the CCDC's data processing and validation procedures.
#
#######################################################################

data_CSD_CIF_ADAMEY
_audit_creation_date 2006-07-27
_audit_creation_method CSD-ConQuest-V1
_database_code_CSD ADAMEY
_database_code_depnum_ccdc_archive 'CCDC 608533'
_chemical_formula_sum 'C18 H16 N4 O3'
_chemical_formula_moiety
;
C18 H16 N4 O3
;
_journal_coeditor_code "IUCr XU2021"
_journal_coden_Cambridge 1370
_journal_volume 62
_journal_year 2006
_journal_page_first o1738
_journal_name_full 'Acta Crystallogr.,Sect.E:Struct.Rep.Online '
loop_
_publ_author_name
"Zong-Xiao Li"
"Xin-Li Zhang"
_chemical_name_systematic
;
1,5-Dimethy-4-((2-nitrobenzylidene)amino)-2-phenyl-1H-pyrazol-3(4H)-one
;
_cell_volume   1646.877
_exptl_crystal_colour 'yellow'
_exptl_crystal_density_diffrn 1.357
_exptl_crystal_description 'rod'
_exptl_crystal_preparation 'methanol'
_diffrn_ambient_temperature 298
#These two values have been output from a single CSD field.
_refine_ls_R_factor_gt 0.04
_refine_ls_wR_factor_gt 0.04
_symmetry_cell_setting orthorhombic
_symmetry_space_group_name_H-M 'P 21 21 21'
_symmetry_Int_Tables_number 19
loop_
_symmetry_equiv_pos_site_id
_symmetry_equiv_pos_as_xyz
1 x,y,z
2 1/2-x,-y,1/2+z
3 -x,1/2+y,1/2-z
4 1/2+x,1/2-y,-z
_cell_length_a 6.886(1)
_cell_length_b 13.382(1)
_cell_length_c 17.872(2)
_cell_angle_alpha 90
_cell_angle_beta 90
_cell_angle_gamma 90
_cell_formula_units_Z 4
loop_
_atom_type_symbol
_atom_type_radius_bond
C 0.68
H 0.23
N 0.68
O 0.68
loop_
_atom_site_label
_atom_site_type_symbol
_atom_site_fract_x
_atom_site_fract_y
_atom_site_fract_z
O1 O 0.2942(3) 0.10700(14) 0.64522(11)
O2 O 0.1196(4) 0.31282(18) 0.80304(14)
O3 O -0.1181(4) 0.3846(2) 0.74796(17)
N1 N 0.5664(3) 0.04172(15) 0.58586(12)
N2 N 0.7372(3) 0.08166(16) 0.55613(12)
N3 N 0.5490(3) 0.30135(15) 0.63944(12)
N4 N 0.0519(5) 0.3784(2) 0.76375(16)
C1 C 0.3722(4) -0.10703(19) 0.59159(16)
H1 H 0.37200 -0.10130 0.64340
C2 C 0.2703(5) -0.1831(2) 0.55718(18)
H2 H 0.19750 -0.22740 0.58580
C3 C 0.2763(4) -0.1932(2) 0.48060(19)
H3 H 0.20980 -0.24540 0.45760
C4 C 0.3800(4) -0.1268(2) 0.43799(17)
H4 H 0.38400 -0.13440 0.38630
C5 C 0.4785(4) -0.04870(19) 0.47131(16)
H5 H 0.54690 -0.00270 0.44250
C6 C 0.4733(4) -0.04038(18) 0.54900(15)
C7 C 0.4602(4) 0.11804(19) 0.62143(15)
C8 C 0.5853(4) 0.20377(18) 0.61724(14)
C9 C 0.7499(4) 0.17774(19) 0.57977(14)
C10 C 0.3990(4) 0.32157(19) 0.67874(16)
H6 H 0.31880 0.27030 0.69560
C11 C 0.3533(4) 0.4263(2) 0.69727(15)
C12 C 0.4722(5) 0.50275(19) 0.67332(17)
H7 H 0.58660 0.48750 0.64810
C13 C 0.4244(5) 0.6021(2) 0.68612(17)
H8 H 0.50930 0.65230 0.67110
C14 C 0.2531(5) 0.6269(2) 0.72066(16)
H9 H 0.22070 0.69370 0.72770
C15 C 0.1302(5) 0.5535(2) 0.74468(15)
H10 H 0.01290 0.56930 0.76760
C16 C 0.1848(4) 0.4547(2) 0.73403(15)
C17 C 0.9020(4) 0.0148(2) 0.54373(18)
H11 H 0.99290 0.04600 0.51030
H12 H 0.85680 -0.04660 0.52210
H13 H 0.96460 0.00110 0.59060
C18 C 0.9244(5) 0.2388(2) 0.56588(19)
H14 H 0.90010 0.30650 0.58100
H15 H 0.95540 0.23720 0.51350
H16 H 1.03140 0.21240 0.59410
#END
