
#######################################################################
#
#                 Cambridge Crystallographic Data Centre
#                                CCDC
#
#######################################################################
#
# If this CIF has been generated from an entry in the Cambridge
# Structural Database, then it will include bibliographic, chemical,
# crystal, experimental, refinement or atomic coordinate data resulting
# from the CCDC's data processing and validation procedures.
#
#######################################################################

data_CSD_CIF_ADAMIB
_audit_creation_date 2002-02-27
_audit_creation_method CSD-ConQuest-V1
_database_code_CSD ADAMIB
_database_code_depnum_ccdc_archive 'CCDC 162938'
_chemical_formula_sum 'C25 H30 N2 O5'
_chemical_formula_moiety
;
C25 H30 N2 O5
;
_journal_coden_Cambridge 35
_journal_volume 66
_journal_year 2001
_journal_page_first 8447
_journal_name_full 'J.Org.Chem. '
loop_
_publ_author_name
"G.Cravotto"
"G.B.Giovenzana"
"T.Pilati"
"M.Sisti"
"G.Palmisano"
_chemical_name_systematic
;
(3R)-1-Methyl-3-(5-methoxy-2-nitrophenyl)pyrrolidine-3-carboxylic acid 
(1S,2R)-2-phenylcyclohexyl ester
;
_chemical_melting_point 434.15
_cell_volume   2315.457
_exptl_crystal_colour 'yellow'
_exptl_crystal_density_diffrn 1.258
_exptl_crystal_description 'needles'
_diffrn_ambient_temperature 293
#These two values have been output from a single CSD field.
_refine_ls_R_factor_gt 0.0373
_refine_ls_wR_factor_gt 0.0373
_symmetry_cell_setting orthorhombic
_symmetry_space_group_name_H-M 'P 21 21 21'
_symmetry_Int_Tables_number 19
loop_
_symmetry_equiv_pos_site_id
_symmetry_equiv_pos_as_xyz
1 x,y,z
2 1/2-x,-y,1/2+z
3 -x,1/2+y,1/2-z
4 1/2+x,1/2-y,-z
_cell_length_a 7.4003(10)
_cell_length_b 7.8599(12)
_cell_length_c 39.808(4)
_cell_angle_alpha 90
_cell_angle_beta 90
_cell_angle_gamma 90
_cell_formula_units_Z 4
loop_
_atom_type_symbol
_atom_type_radius_bond
C 0.68
H 0.23
N 0.68
O 0.68
loop_
_atom_site_label
_atom_site_type_symbol
_atom_site_fract_x
_atom_site_fract_y
_atom_site_fract_z
N1 N 1.1749(4) 0.4541(4) 0.59504(6)
C1 C 1.0179(5) 0.5143(4) 0.61330(8)
H1 H 0.916(3) 0.433(3) 0.6107(7)
H2 H 1.050(4) 0.527(4) 0.6382(4)
C2 C 0.9770(4) 0.6923(4) 0.59762(7)
C3 C 1.1657(5) 0.7478(5) 0.58455(8)
H3 H 1.198(5) 0.860(3) 0.5933(8)
H4 H 1.157(4) 0.771(3) 0.5606(4)
C4 C 1.2912(5) 0.6038(5) 0.59367(10)
H5 H 1.356(5) 0.620(5) 0.6155(6)
H6 H 1.390(4) 0.597(6) 0.5771(8)
C5 C 0.9144(5) 0.7983(4) 0.62774(7)
O1 O 1.0130(3) 0.8824(3) 0.64490(5)
O2 O 0.7390(3) 0.7704(2) 0.63408(4)
C6 C 0.6633(4) 0.8374(4) 0.66543(7)
H7 H 0.766(3) 0.897(3) 0.6772(6)
C7 C 0.5146(5) 0.9605(5) 0.65658(8)
H8 H 0.574(3) 1.052(3) 0.6438(6)
H9 H 0.420(3) 0.907(3) 0.6420(5)
C8 C 0.4184(6) 1.0230(5) 0.68832(10)
H10 H 0.318(4) 1.095(4) 0.6795(10)
H11 H 0.508(4) 1.099(3) 0.6997(7)
C9 C 0.3488(5) 0.8760(5) 0.70887(9)
H12 H 0.299(4) 0.924(4) 0.7299(6)
H13 H 0.258(4) 0.808(3) 0.6959(7)
C10 C 0.5025(5) 0.7549(5) 0.71779(8)
H14 H 0.593(3) 0.814(3) 0.7321(6)
H15 H 0.473(5) 0.652(3) 0.7315(7)
C11 C 0.5979(4) 0.6873(4) 0.68619(7)
H16 H 0.507(4) 0.624(3) 0.6740(6)
C12 C 0.7491(4) 0.5641(4) 0.69424(7)
C13 C 0.8972(5) 0.6137(4) 0.71300(8)
H17 H 0.903(3) 0.723(2) 0.7203(6)
C14 C 1.0337(5) 0.5015(5) 0.72047(9)
H18 H 1.128(3) 0.536(2) 0.7333(7)
C15 C 1.0258(6) 0.3371(5) 0.70894(10)
H19 H 1.121(3) 0.266(2) 0.7136(7)
C16 C 0.8833(7) 0.2857(5) 0.69010(11)
H20 H 0.876(3) 0.179(2) 0.6811(7)
C17 C 0.7433(6) 0.3970(4) 0.68303(9)
H21 H 0.654(3) 0.365(2) 0.6687(7)
C18 C 0.8410(4) 0.6823(4) 0.56863(7)
C19 C 0.7291(5) 0.8111(5) 0.55677(8)
C20 C 0.6131(6) 0.7889(9) 0.52936(10)
H22 H 0.545(5) 0.876(3) 0.5226(7)
C21 C 0.6129(7) 0.6338(9) 0.51261(10)
H23 H 0.534(4) 0.617(3) 0.4957(7)
C22 C 0.7214(6) 0.5038(7) 0.52359(9)
C23 C 0.8291(5) 0.5287(6) 0.55115(8)
H24 H 0.906(3) 0.444(2) 0.5580(5)
N2 N 0.7312(6) 0.9824(5) 0.57128(9)
O3 O 0.8726(5) 1.0372(4) 0.58250(8)
O4 O 0.5904(5) 1.0639(5) 0.57097(8)
O5 O 0.7391(5) 0.3440(5) 0.50851(7)
C24 C 0.6618(8) 0.3149(7) 0.47760(11)
H25 H 0.68320 0.19920 0.47100
H26 H 0.71420 0.39030 0.46130
H27 H 0.53400 0.33500 0.47890
C25 C 1.2606(6) 0.3086(5) 0.61151(10)
H28 H 1.36640 0.27580 0.59910
H29 H 1.17730 0.21510 0.61220
H30 H 1.29450 0.33950 0.63400
#END
