
#######################################################################
#
#                 Cambridge Crystallographic Data Centre
#                                CCDC
#
#######################################################################
#
# If this CIF has been generated from an entry in the Cambridge
# Structural Database, then it will include bibliographic, chemical,
# crystal, experimental, refinement or atomic coordinate data resulting
# from the CCDC's data processing and validation procedures.
#
#######################################################################

data_CSD_CIF_ADANID
_audit_creation_date 2006-07-27
_audit_creation_method CSD-ConQuest-V1
_database_code_CSD ADANID
_database_code_depnum_ccdc_archive 'CCDC 608539'
_chemical_formula_sum 'C31 H22 N2 O6'
_chemical_formula_moiety
;
C31 H22 N2 O6
;
_journal_coeditor_code "IUCr YA2006"
_journal_coden_Cambridge 1370
_journal_volume 62
_journal_year 2006
_journal_page_first o2037
_journal_name_full 'Acta Crystallogr.,Sect.E:Struct.Rep.Online '
loop_
_publ_author_name
"M.Arslan"
"E.Asker"
"J.Masnovi"
"R.J.Baker"
_chemical_name_systematic
;
10,10'-Dinitro-10,10'-(propane-1,3-diyl)di-10H-anthracen-9-one
;
_chemical_melting_point 464
_cell_volume   2564.820
_exptl_crystal_colour 'yellow'
_exptl_crystal_density_diffrn 1.343
_exptl_special_details
;
Melting point range 464-465K

;
_exptl_crystal_description 'block'
_exptl_crystal_preparation 'dichloromethane'
_diffrn_ambient_temperature 295
#These two values have been output from a single CSD field.
_refine_ls_R_factor_gt 0.076
_refine_ls_wR_factor_gt 0.076
_symmetry_cell_setting monoclinic
_symmetry_space_group_name_H-M 'P 21/n'
_symmetry_Int_Tables_number 14
loop_
_symmetry_equiv_pos_site_id
_symmetry_equiv_pos_as_xyz
1 x,y,z
2 1/2-x,1/2+y,1/2-z
3 -x,-y,-z
4 -1/2+x,-1/2-y,-1/2+z
_cell_length_a 13.438(2)
_cell_length_b 14.490(3)
_cell_length_c 13.974(3)
_cell_angle_alpha 90
_cell_angle_beta 109.505(5)
_cell_angle_gamma 90
_cell_formula_units_Z 4
loop_
_atom_type_symbol
_atom_type_radius_bond
C 0.68
H 0.23
N 0.68
O 0.68
loop_
_atom_site_label
_atom_site_type_symbol
_atom_site_fract_x
_atom_site_fract_y
_atom_site_fract_z
O1 O 0.6501(3) 0.8155(3) 1.6982(3)
O2 O 0.5262(3) 0.7478(4) 1.5921(4)
O3 O 1.0146(3) 0.7358(4) 1.7797(3)
O4 O 0.6649(3) 0.3216(2) 1.2418(3)
O5 O 0.5424(3) 0.4161(3) 1.2316(3)
O6 O 1.0343(2) 0.4184(3) 1.4236(3)
N1 N 0.6169(3) 0.7578(3) 1.6353(3)
N2 N 0.6317(3) 0.3880(3) 1.2705(3)
C1 C 0.9345(5) 0.8340(4) 1.5986(5)
H1 H 1.00610 0.83990 1.63480
C2 C 0.8909(7) 0.8850(5) 1.5129(6)
H2 H 0.93190 0.92610 1.49100
C3 C 0.7871(6) 0.8747(4) 1.4601(5)
H3 H 0.75680 0.90950 1.40170
C4 C 0.7256(4) 0.8143(3) 1.4907(4)
H4 H 0.65430 0.80860 1.45300
C5 C 0.7685(3) 0.7619(3) 1.5770(3)
C6 C 0.6958(4) 0.5779(4) 1.7388(4)
H5 H 0.62420 0.56980 1.70380
C7 C 0.7437(7) 0.5267(4) 1.8245(5)
H6 H 0.70430 0.48410 1.84640
C8 C 0.8480(8) 0.5374(5) 1.8775(5)
H7 H 0.87980 0.50220 1.93530
C9 C 0.9049(5) 0.5995(5) 1.8458(4)
H8 H 0.97630 0.60710 1.88240
C10 C 0.8586(4) 0.6524(4) 1.7592(4)
C11 C 0.9224(4) 0.7210(4) 1.7277(4)
C12 C 0.8730(3) 0.7727(3) 1.6333(3)
C13 C 0.6986(3) 0.6962(3) 1.6083(3)
C14 C 0.7531(3) 0.6415(3) 1.7039(3)
C15 C 0.6376(3) 0.6339(3) 1.5206(3)
H9 H 0.58940 0.59580 1.54190
H10 H 0.59570 0.67190 1.46440
C16 C 0.7094(3) 0.5715(3) 1.4842(3)
H11 H 0.75670 0.60910 1.46100
H12 H 0.75190 0.53340 1.53990
C17 C 0.9300(4) 0.5421(4) 1.2691(4)
H13 H 1.00240 0.53520 1.28390
C18 C 0.8775(6) 0.6013(4) 1.1967(5)
H14 H 0.91300 0.63430 1.16090
C19 C 0.7724(6) 0.6132(4) 1.1755(5)
H15 H 0.73630 0.65520 1.12570
C20 C 0.7186(4) 0.5642(3) 1.2263(4)
H16 H 0.64630 0.57290 1.21040
C21 C 0.7704(3) 0.5023(3) 1.3006(3)
C22 C 0.7235(4) 0.3268(3) 1.4867(4)
H17 H 0.65120 0.33240 1.47340
C23 C 0.7817(6) 0.2653(4) 1.5591(4)
H18 H 0.74740 0.22850 1.59290
C24 C 0.8884(6) 0.2574(4) 1.5824(4)
H19 H 0.92670 0.21660 1.63260
C25 C 0.9381(5) 0.3100(4) 1.5314(4)
H20 H 1.01070 0.30420 1.54640
C26 C 0.8822(3) 0.3719(3) 1.4572(3)
C27 C 0.9391(4) 0.4265(4) 1.4035(4)
C28 C 0.8788(3) 0.4903(3) 1.3231(4)
C29 C 0.7091(3) 0.4481(3) 1.3555(3)
C30 C 0.7731(3) 0.3801(3) 1.4339(3)
C31 C 0.6434(3) 0.5108(3) 1.3983(3)
H21 H 0.59930 0.54960 1.34430
H22 H 0.59730 0.47300 1.42270
#END
