
#######################################################################
#
#                 Cambridge Crystallographic Data Centre
#                                CCDC
#
#######################################################################
#
# If this CIF has been generated from an entry in the Cambridge
# Structural Database, then it will include bibliographic, chemical,
# crystal, experimental, refinement or atomic coordinate data resulting
# from the CCDC's data processing and validation procedures.
#
#######################################################################

data_CSD_CIF_ADAVIL
_audit_creation_date 2006-07-27
_audit_creation_method CSD-ConQuest-V1
_database_code_CSD ADAVIL
_database_code_depnum_ccdc_archive 'CCDC 610810'
_chemical_formula_sum 'C17 H16 N2 O3'
_chemical_formula_moiety
;
C17 H16 N2 O3
;
_journal_coeditor_code "IUCr HK2045"
_journal_coden_Cambridge 1370
_journal_volume 62
_journal_year 2006
_journal_page_first o2389
_journal_name_full 'Acta Crystallogr.,Sect.E:Struct.Rep.Online '
loop_
_publ_author_name
"Ying Li"
"Xiao-Yan Yang"
"Xue-Mei Li"
"Shu-Sheng Zhang"
_chemical_name_systematic
;
N-(4-Ethoxyphenyl)-N-(3-(2-nitrophenyl)prop-2-enylidene)amine
;
_cell_volume    753.228
_exptl_crystal_colour 'yellow'
_exptl_crystal_density_diffrn 1.307
_exptl_crystal_description 'plate'
_exptl_crystal_preparation 'ethanol/water'
_diffrn_ambient_temperature 296
#These two values have been output from a single CSD field.
_refine_ls_R_factor_gt 0.0552
_refine_ls_wR_factor_gt 0.0552
_symmetry_cell_setting triclinic
_symmetry_space_group_name_H-M 'P -1'
_symmetry_Int_Tables_number 2
loop_
_symmetry_equiv_pos_site_id
_symmetry_equiv_pos_as_xyz
1 x,y,z
2 -x,-y,-z
_cell_length_a 7.1103(10)
_cell_length_b 7.6318(11)
_cell_length_c 15.456(2)
_cell_angle_alpha 76.803(2)
_cell_angle_beta 81.767(2)
_cell_angle_gamma 67.553(2)
_cell_formula_units_Z 2
loop_
_atom_type_symbol
_atom_type_radius_bond
C 0.68
H 0.23
N 0.68
O 0.68
loop_
_atom_site_label
_atom_site_type_symbol
_atom_site_fract_x
_atom_site_fract_y
_atom_site_fract_z
O1 O 0.7092(3) -0.2117(3) 0.02098(14)
O2 O 0.9750(3) -0.2983(3) -0.06488(11)
O3 O -0.4715(2) 0.6814(2) 0.38287(10)
N1 N 0.8887(3) -0.2458(3) 0.00386(14)
N2 N 0.3433(3) 0.2691(3) 0.29721(12)
C1 C 1.0133(3) -0.2311(3) 0.06833(13)
C2 C 1.2197(4) -0.3364(3) 0.06006(16)
H1 H 1.27180 -0.40800 0.01500
C3 C 1.3466(4) -0.3354(4) 0.11769(17)
H2 H 1.48530 -0.40740 0.11280
C4 C 1.2688(4) -0.2273(3) 0.18324(16)
H3 H 1.35490 -0.22470 0.22250
C5 C 1.0637(3) -0.1233(3) 0.19061(15)
H4 H 1.01450 -0.05130 0.23550
C6 C 0.9247(3) -0.1198(3) 0.13429(14)
C7 C 0.7091(3) -0.0004(3) 0.14610(15)
H5 H 0.62700 0.02130 0.10010
C8 C 0.6206(3) 0.0790(3) 0.21536(15)
H6 H 0.70330 0.05740 0.26110
C9 C 0.4099(3) 0.1955(3) 0.22797(15)
H7 H 0.32060 0.21750 0.18480
C10 C 0.1343(3) 0.3787(3) 0.31275(13)
C11 C 0.0882(3) 0.5055(3) 0.36999(13)
H8 H 0.19380 0.52010 0.39320
C12 C -0.1111(3) 0.6118(3) 0.39393(13)
H9 H -0.13820 0.69820 0.43190
C13 C -0.2691(3) 0.5893(3) 0.36142(13)
C14 C -0.2248(3) 0.4639(3) 0.30292(15)
H10 H -0.33050 0.44890 0.28000
C15 C -0.0266(3) 0.3617(3) 0.27849(14)
H11 H 0.00040 0.27970 0.23840
C16 C -0.5252(3) 0.8023(3) 0.44760(15)
H12 H -0.47860 0.90950 0.42610
H13 H -0.46170 0.72940 0.50270
C17 C -0.7521(4) 0.8757(4) 0.46310(17)
H14 H -0.79220 0.95900 0.50580
H15 H -0.79640 0.76870 0.48530
H16 H -0.81340 0.94650 0.40810
#END
