
#######################################################################
#
#                 Cambridge Crystallographic Data Centre
#                                CCDC
#
#######################################################################
#
# If this CIF has been generated from an entry in the Cambridge
# Structural Database, then it will include bibliographic, chemical,
# crystal, experimental, refinement or atomic coordinate data resulting
# from the CCDC's data processing and validation procedures.
#
#######################################################################

data_CSD_CIF_ADERIL01
_audit_creation_date 2014-07-18
_audit_creation_method CSD-ConQuest-V1
_database_code_CSD ADERIL01
_database_code_depnum_ccdc_archive 'CCDC 997429'
_chemical_formula_sum 'C8 H10 N2 O1'
_chemical_formula_moiety
;
C8 H10 N2 O1
;
_journal_coden_Cambridge 179
_journal_volume 53
_journal_year 2014
_journal_page_first 9889
_journal_name_full 'Angew.Chem.,Int.Ed. '
loop_
_publ_author_name
"J.Jayakumar"
"K.Parthasarathy"
"Yi-Hsiang Chen"
"Tai-Hua Lee"
"Shih-Ching Chuang"
"Chien-Hong Cheng"
_chemical_name_systematic
;
N'-Hydroxy-4-methylbenzenecarboximidamide
;
_chemical_name_common
;
4-Methylbenzamidoxime
;
_cell_volume    797.047
_exptl_crystal_colour 'colorless'
_exptl_crystal_density_diffrn 1.252
_exptl_crystal_description 'Blade'
_diffrn_ambient_temperature 296
#These two values have been output from a single CSD field.
_refine_ls_R_factor_gt 0.0781
_refine_ls_wR_factor_gt 0.0781
_symmetry_cell_setting triclinic
_symmetry_space_group_name_H-M 'P -1'
_symmetry_Int_Tables_number 2
loop_
_symmetry_equiv_pos_site_id
_symmetry_equiv_pos_as_xyz
1 x,y,z
2 -x,-y,-z
_cell_length_a 6.4074(8)
_cell_length_b 7.4624(11)
_cell_length_c 17.148(2)
_cell_angle_alpha 79.393(7)
_cell_angle_beta 82.088(7)
_cell_angle_gamma 85.492(7)
_cell_formula_units_Z 4
loop_
_atom_type_symbol
_atom_type_radius_bond
C 0.68
H 0.23
N 0.68
O 0.68
loop_
_atom_site_label
_atom_site_type_symbol
_atom_site_fract_x
_atom_site_fract_y
_atom_site_fract_z
O1 O 0.2582(4) 0.4802(5) 0.49496(16)
H1 H 0.31990 0.46370 0.53470
N1 N 0.3947(5) 0.5645(5) 0.42692(19)
N2 N 0.0937(5) 0.5667(5) 0.3671(2)
H2 H 0.02300 0.51680 0.41100
H3 H 0.03440 0.59420 0.32410
C1 C 0.2964(5) 0.6014(5) 0.3657(2)
C2 C 0.4181(5) 0.6888(4) 0.2900(2)
C3 C 0.6026(5) 0.7718(5) 0.2909(2)
H4 H 0.64830 0.77660 0.33960
C4 C 0.7201(6) 0.8476(5) 0.2209(2)
H5 H 0.84400 0.90240 0.22330
C5 C 0.6588(7) 0.8442(5) 0.1480(2)
C6 C 0.7906(8) 0.9263(7) 0.0713(3)
H6 H 0.81300 1.05140 0.07260
H7 H 0.71800 0.92050 0.02650
H8 H 0.92430 0.85890 0.06620
C7 C 0.4724(7) 0.7635(6) 0.1468(2)
H9 H 0.42640 0.76070 0.09790
C8 C 0.3532(6) 0.6871(5) 0.2166(2)
H10 H 0.22820 0.63400 0.21420
O2 O 0.7538(4) 0.5108(5) 0.99890(16)
H11 H 0.82300 0.47380 1.03610
N3 N 0.8930(5) 0.5701(5) 0.92772(19)
N4 N 0.5801(5) 0.7000(5) 0.8856(2)
H12 H 0.50950 0.65930 0.93100
H13 H 0.51660 0.76360 0.84790
C9 C 0.7909(5) 0.6639(5) 0.8737(2)
C10 C 0.9102(5) 0.7311(5) 0.7952(2)
C11 C 1.1162(5) 0.6641(5) 0.7756(2)
H14 H 1.17900 0.57640 0.81240
C12 C 1.2277(6) 0.7263(5) 0.7025(2)
H15 H 1.36540 0.68030 0.69100
C13 C 1.1406(7) 0.8549(5) 0.6459(2)
C14 C 1.2643(8) 0.9220(7) 0.5653(3)
H16 H 1.41010 0.92750 0.57150
H17 H 1.20910 1.04150 0.54370
H18 H 1.25200 0.83950 0.52950
C15 C 0.9369(7) 0.9200(6) 0.6650(2)
H19 H 0.87440 1.00640 0.62760
C16 C 0.8223(6) 0.8601(5) 0.7385(2)
H20 H 0.68500 0.90700 0.74980
#END
