
#######################################################################
#
#                 Cambridge Crystallographic Data Centre
#                                CCDC
#
#######################################################################
#
# If this CIF has been generated from an entry in the Cambridge
# Structural Database, then it will include bibliographic, chemical,
# crystal, experimental, refinement or atomic coordinate data resulting
# from the CCDC's data processing and validation procedures.
#
#######################################################################

data_CSD_CIF_ADERIL
_audit_creation_date 2006-07-27
_audit_creation_method CSD-ConQuest-V1
_database_code_CSD ADERIL
_database_code_depnum_ccdc_archive 'CCDC 613679'
_chemical_formula_sum 'C8 H10 N2 O1'
_chemical_formula_moiety
;
C8 H10 N2 O1
;
_journal_coeditor_code "IUCr FL2025"
_journal_coden_Cambridge 1370
_journal_volume 62
_journal_year 2006
_journal_page_first o3105
_journal_name_full 'Acta Crystallogr.,Sect.E:Struct.Rep.Online '
loop_
_publ_author_name
"Hai-Bo Wang"
"Xiao-Chen Yan"
"Zhi-Qian Liu"
_chemical_name_systematic
;
4-Methylbenzamidoxime
;
_cell_volume    801.745
_exptl_crystal_colour 'colorless'
_exptl_crystal_density_diffrn 1.244
_exptl_crystal_description 'Block'
_exptl_crystal_preparation 'ethanol'
_diffrn_ambient_temperature 293
#These two values have been output from a single CSD field.
_refine_ls_R_factor_gt 0.0594
_refine_ls_wR_factor_gt 0.0594
_symmetry_cell_setting triclinic
_symmetry_space_group_name_H-M 'P -1'
_symmetry_Int_Tables_number 2
loop_
_symmetry_equiv_pos_site_id
_symmetry_equiv_pos_as_xyz
1 x,y,z
2 -x,-y,-z
_cell_length_a 6.4220(13)
_cell_length_b 7.4720(15)
_cell_length_c 17.181(3)
_cell_angle_alpha 79.48(3)
_cell_angle_beta 82.16(3)
_cell_angle_gamma 85.45(3)
_cell_formula_units_Z 4
loop_
_atom_type_symbol
_atom_type_radius_bond
C 0.68
H 0.23
N 0.68
O 0.68
loop_
_atom_site_label
_atom_site_type_symbol
_atom_site_fract_x
_atom_site_fract_y
_atom_site_fract_z
O1 O 0.7585(3) -0.5201(3) 0.49471(10)
H1 H 0.82320 -0.54380 0.53360
C1 C 1.2925(6) -0.0745(5) 0.07132(17)
H2 H 1.41430 -0.02510 0.08430
H3 H 1.21110 0.02070 0.04160
H4 H 1.33620 -0.16770 0.03980
N1 N 0.5933(3) -0.4323(3) 0.36661(12)
H5 H 0.52270 -0.48250 0.41020
H6 H 0.53410 -0.40410 0.32370
C2 C 1.1597(4) -0.1556(3) 0.14751(15)
C3 C 1.2212(4) -0.1523(3) 0.22104(15)
H7 H 1.34500 -0.09800 0.22350
C4 C 1.1037(3) -0.2275(3) 0.29118(14)
H8 H 1.14880 -0.22190 0.33980
N2 N 0.8938(3) -0.4364(3) 0.42707(11)
C5 C 0.9182(3) -0.3117(3) 0.28989(12)
C6 C 0.8543(4) -0.3128(3) 0.21607(13)
H9 H 0.72950 -0.36550 0.21340
C7 C 0.9735(4) -0.2367(4) 0.14619(14)
H10 H 0.92780 -0.24000 0.09740
C8 C 0.7973(3) -0.3979(3) 0.36550(12)
O2 O 0.7465(2) 0.4901(3) 0.00134(9)
H11 H 0.67860 0.54890 -0.03280
N3 N 0.6073(3) 0.4297(3) 0.07206(11)
N4 N 0.9204(3) 0.2999(3) 0.11458(12)
H12 H 0.99100 0.33870 0.06920
H13 H 0.98350 0.23730 0.15260
C9 C 0.2353(6) 0.0804(5) 0.43483(17)
H14 H 0.09730 0.14040 0.43720
H15 H 0.30690 0.10840 0.47630
H16 H 0.22340 -0.04900 0.44200
C10 C 0.3589(4) 0.1458(3) 0.35450(14)
C11 C 0.2718(4) 0.2750(3) 0.29760(14)
H17 H 0.13420 0.32080 0.30900
C12 C 0.3834(3) 0.3377(3) 0.22445(13)
H18 H 0.32120 0.42590 0.18790
C13 C 0.5897(3) 0.2692(3) 0.20495(12)
C14 C 0.6770(4) 0.1402(3) 0.26139(13)
H19 H 0.81360 0.09260 0.24970
C15 C 0.5651(4) 0.0805(3) 0.33501(14)
H20 H 0.62880 -0.00500 0.37220
C16 C 0.7098(3) 0.3374(3) 0.12622(12)
#END
