
#######################################################################
#
#                 Cambridge Crystallographic Data Centre
#                                CCDC
#
#######################################################################
#
# If this CIF has been generated from an entry in the Cambridge
# Structural Database, then it will include bibliographic, chemical,
# crystal, experimental, refinement or atomic coordinate data resulting
# from the CCDC's data processing and validation procedures.
#
#######################################################################

data_CSD_CIF_ADEWOW
_audit_creation_date 2006-07-27
_audit_creation_method CSD-ConQuest-V1
_database_code_CSD ADEWOW
_database_code_depnum_ccdc_archive 'CCDC 613700'
_chemical_formula_sum 'C14 H11 N3 O5'
_chemical_formula_moiety
;
C14 H11 N3 O5
;
_journal_coeditor_code "IUCr HB2084"
_journal_coden_Cambridge 1370
_journal_volume 62
_journal_year 2006
_journal_page_first o3026
_journal_name_full 'Acta Crystallogr.,Sect.E:Struct.Rep.Online '
loop_
_publ_author_name
"Hong-Mei Xu"
"Shi-Xiong Liu"
_chemical_name_systematic
;
5-Nitrosalicylaldehyde (2-hydroxybenzoyl)hydrazone
;
_cell_volume   1288.774
_exptl_crystal_colour 'colorless'
_exptl_crystal_density_diffrn 1.553
_diffrn_ambient_temperature 293
#These two values have been output from a single CSD field.
_refine_ls_R_factor_gt 0.0398
_refine_ls_wR_factor_gt 0.0398
_symmetry_cell_setting monoclinic
_symmetry_space_group_name_H-M 'P 21/c'
_symmetry_Int_Tables_number 14
loop_
_symmetry_equiv_pos_site_id
_symmetry_equiv_pos_as_xyz
1 x,y,z
2 -x,1/2+y,1/2-z
3 -x,-y,-z
4 x,-1/2-y,-1/2+z
_cell_length_a 7.645(3)
_cell_length_b 6.751(3)
_cell_length_c 24.994(11)
_cell_angle_alpha 90
_cell_angle_beta 92.473(9)
_cell_angle_gamma 90
_cell_formula_units_Z 4
loop_
_atom_type_symbol
_atom_type_radius_bond
C 0.68
H 0.23
N 0.68
O 0.68
loop_
_atom_site_label
_atom_site_type_symbol
_atom_site_fract_x
_atom_site_fract_y
_atom_site_fract_z
C1 C 0.28834(18) 0.6284(2) 0.12442(6)
C2 C 0.32468(18) 0.7406(2) 0.07870(5)
C3 C 0.39886(18) 0.9272(2) 0.08554(6)
H1 H 0.42210 1.00430 0.05590
C4 C 0.43803(18) 0.9981(2) 0.13654(5)
C5 C 0.40496(19) 0.8872(2) 0.18154(6)
H2 H 0.43310 0.93640 0.21560
C6 C 0.3304(2) 0.7042(2) 0.17522(6)
H3 H 0.30730 0.62910 0.20530
C7 C 0.2908(2) 0.6683(2) 0.02415(6)
H4 H 0.31180 0.75100 -0.00460
C8 C 0.16326(19) 0.2517(2) -0.04980(5)
C9 C 0.14129(18) 0.1995(2) -0.10724(6)
C10 C 0.07759(19) 0.0103(2) -0.12123(6)
C11 C 0.0585(2) -0.0422(3) -0.17506(7)
H5 H 0.01490 -0.16660 -0.18450
C12 C 0.1034(2) 0.0881(3) -0.21415(6)
H6 H 0.08990 0.05130 -0.25000
C13 C 0.1685(2) 0.2734(3) -0.20104(6)
H7 H 0.20020 0.36030 -0.22780
C14 C 0.1860(2) 0.3287(2) -0.14807(6)
H8 H 0.22850 0.45420 -0.13930
N1 N 0.23313(17) 0.4939(2) 0.01539(5)
N2 N 0.20856(19) 0.4402(2) -0.03749(5)
H9 H 0.22190 0.52580 -0.06250
N3 N 0.52248(17) 1.1896(2) 0.14243(5)
O1 O 0.21312(15) 0.44866(17) 0.12172(5)
H10 H 0.18220 0.41720 0.08800
O2 O 0.1422(2) 0.12946(19) -0.01428(4)
O3 O 0.54438(19) 1.26019(18) 0.18736(5)
O4 O 0.57015(17) 1.27376(18) 0.10198(5)
O5 O 0.03168(18) -0.12711(18) -0.08534(5)
H11 H 0.03750 -0.07000 -0.05080
#END
