
#######################################################################
#
#                 Cambridge Crystallographic Data Centre
#                                CCDC
#
#######################################################################
#
# If this CIF has been generated from an entry in the Cambridge
# Structural Database, then it will include bibliographic, chemical,
# crystal, experimental, refinement or atomic coordinate data resulting
# from the CCDC's data processing and validation procedures.
#
#######################################################################

data_CSD_CIF_ADEWEM
_audit_creation_date 2006-07-27
_audit_creation_method CSD-ConQuest-V1
_database_code_CSD ADEWEM
_database_code_depnum_ccdc_archive 'CCDC 613698'
_chemical_formula_sum 'C14 H11 N5 O6'
_chemical_formula_moiety
;
C14 H11 N5 O6
;
_journal_coeditor_code "IUCr HB2079"
_journal_coden_Cambridge 1370
_journal_volume 62
_journal_year 2006
_journal_page_first o2800
_journal_name_full 'Acta Crystallogr.,Sect.E:Struct.Rep.Online '
loop_
_publ_author_name
"Shang Shan"
"Zheng Fan"
_chemical_name_systematic
;
(E)-Acetophenone 2,4,6-trinitrophenylhydrazone
;
_cell_volume   1480.532
_exptl_crystal_colour 'red'
_exptl_crystal_density_diffrn 1.549
_exptl_crystal_description 'prism'
_exptl_crystal_preparation 'acetone/ethanol'
_diffrn_ambient_temperature 295
#These two values have been output from a single CSD field.
_refine_ls_R_factor_gt 0.049
_refine_ls_wR_factor_gt 0.049
_symmetry_cell_setting monoclinic
_symmetry_space_group_name_H-M 'P 21/n'
_symmetry_Int_Tables_number 14
loop_
_symmetry_equiv_pos_site_id
_symmetry_equiv_pos_as_xyz
1 x,y,z
2 1/2-x,1/2+y,1/2-z
3 -x,-y,-z
4 -1/2+x,-1/2-y,-1/2+z
_cell_length_a 10.318(4)
_cell_length_b 13.850(5)
_cell_length_c 10.385(4)
_cell_angle_alpha 90
_cell_angle_beta 93.952(12)
_cell_angle_gamma 90
_cell_formula_units_Z 4
loop_
_atom_type_symbol
_atom_type_radius_bond
C 0.68
H 0.23
N 0.68
O 0.68
loop_
_atom_site_label
_atom_site_type_symbol
_atom_site_fract_x
_atom_site_fract_y
_atom_site_fract_z
N1 N 0.8995(2) 0.83248(14) 0.48185(18)
N2 N 0.47405(16) 0.74005(14) 0.30253(17)
N3 N 0.81341(18) 0.49156(14) 0.4397(2)
N4 N 0.57470(15) 0.44296(12) 0.35829(16)
C1 C 0.48823(18) 0.38190(15) 0.31306(18)
O1 O 1.00931(16) 0.80898(12) 0.52263(18)
O2 O 0.86172(19) 0.91586(13) 0.4727(2)
O3 O 0.45507(15) 0.82576(13) 0.28748(17)
O4 O 0.38907(14) 0.67913(12) 0.27538(17)
O5 O 0.8183(3) 0.45829(14) 0.5447(2)
O6 O 0.8495(2) 0.45149(14) 0.3470(3)
C2 C 0.63250(17) 0.60800(14) 0.36896(17)
C3 C 0.60152(17) 0.70762(14) 0.35419(18)
C4 C 0.68810(19) 0.78010(14) 0.39048(18)
H1 H 0.66460 0.84450 0.37930
C5 C 0.80861(18) 0.75615(14) 0.44289(18)
C6 C 0.84657(18) 0.66125(14) 0.45915(18)
H2 H 0.92920 0.64610 0.49480
C7 C 0.76091(17) 0.59025(13) 0.42200(18)
N5 N 0.54652(15) 0.53838(12) 0.33449(16)
H3 H 0.47260 0.55380 0.29690
C8 C 0.51783(18) 0.27952(15) 0.33804(18)
C9 C 0.6399(2) 0.25117(15) 0.3925(2)
H4 H 0.70310 0.29770 0.41270
C10 C 0.6673(2) 0.15611(16) 0.4164(2)
H5 H 0.74900 0.13850 0.45240
C11 C 0.5751(3) 0.08625(18) 0.3877(2)
H6 H 0.59370 0.02170 0.40550
C12 C 0.4567(3) 0.11217(18) 0.3330(2)
H7 H 0.39440 0.06500 0.31280
C13 C 0.4284(2) 0.20731(17) 0.3075(2)
H8 H 0.34730 0.22360 0.26900
C14 C 0.3656(2) 0.41198(18) 0.2379(3)
H9 H 0.31390 0.45040 0.29180
H10 H 0.31760 0.35560 0.20950
H11 H 0.38680 0.44920 0.16430
#END
