
#######################################################################
#
#                 Cambridge Crystallographic Data Centre
#                                CCDC
#
#######################################################################
#
# If this CIF has been generated from an entry in the Cambridge
# Structural Database, then it will include bibliographic, chemical,
# crystal, experimental, refinement or atomic coordinate data resulting
# from the CCDC's data processing and validation procedures.
#
#######################################################################

data_CSD_CIF_ADICUM
_audit_creation_date 2006-07-27
_audit_creation_method CSD-ConQuest-V1
_database_code_CSD ADICUM
_database_code_depnum_ccdc_archive 'CCDC 613729'
_chemical_formula_sum 'C20 H21 N3 O4'
_chemical_formula_moiety
;
C20 H21 N3 O4
;
_journal_coeditor_code "IUCr HK2064"
_journal_coden_Cambridge 1370
_journal_volume 62
_journal_year 2006
_journal_page_first o3130
_journal_name_full 'Acta Crystallogr.,Sect.E:Struct.Rep.Online '
loop_
_publ_author_name
"Hao Xu"
"Yong Ling"
"Zhi-Hong Zou"
"Wen-Long Huang"
"Cheng Yao"
_chemical_name_systematic
;
3-((6,7-Dimethoxy-1,2,3,4-tetrahydroisoquinolin-2-yl)methyl)-4-phenyl-1,2,5-ox
adiazole 2-oxide
;
_chemical_melting_point 389
_cell_volume   1852.787
_exptl_crystal_colour 'colorless'
_exptl_crystal_density_diffrn 1.317
_exptl_crystal_description 'block'
_exptl_crystal_preparation 'ethyl acetate/petroleum ether'
_diffrn_ambient_temperature 296
#These two values have been output from a single CSD field.
_refine_ls_R_factor_gt 0.0503
_refine_ls_wR_factor_gt 0.0503
_symmetry_cell_setting monoclinic
_symmetry_space_group_name_H-M 'P 21/c'
_symmetry_Int_Tables_number 14
loop_
_symmetry_equiv_pos_site_id
_symmetry_equiv_pos_as_xyz
1 x,y,z
2 -x,1/2+y,1/2-z
3 -x,-y,-z
4 x,-1/2-y,-1/2+z
_cell_length_a 12.850(3)
_cell_length_b 6.8840(14)
_cell_length_c 21.723(4)
_cell_angle_alpha 90
_cell_angle_beta 105.38(3)
_cell_angle_gamma 90
_cell_formula_units_Z 4
loop_
_atom_type_symbol
_atom_type_radius_bond
C 0.68
H 0.23
N 0.68
O 0.68
loop_
_atom_site_label
_atom_site_type_symbol
_atom_site_fract_x
_atom_site_fract_y
_atom_site_fract_z
O1 O 0.01786(14) 0.7727(3) -0.1464(1)
O2 O -0.09163(13) 0.4708(3) -0.13015(9)
O3 O 0.61426(15) 0.0759(3) 0.09777(10)
O4 O 0.65153(13) 0.1479(3) 0.20414(9)
N1 N 0.32717(13) 0.2393(3) 0.06987(8)
N2 N 0.57702(17) 0.1050(3) 0.14421(10)
N3 N 0.59222(16) 0.1742(3) 0.24813(10)
C1 C 0.0806(2) 0.9099(5) -0.16931(16)
H1 H 0.03390 0.99150 -0.20070
H2 H 0.12980 0.84310 -0.18840
H3 H 0.12050 0.98830 -0.13450
C2 C -0.1527(2) 0.3024(5) -0.12622(14)
H4 H -0.22360 0.31520 -0.15460
H5 H -0.15810 0.28700 -0.08330
H6 H -0.11770 0.19070 -0.13810
C3 C 0.01243(18) 0.4767(4) -0.09316(11)
C4 C 0.06194(18) 0.3369(4) -0.05035(10)
H7 H 0.02310 0.22720 -0.04490
C5 C 0.16920(17) 0.3555(3) -0.01485(9)
C6 C 0.22130(18) 0.1904(4) 0.02824(11)
H8 H 0.17420 0.15230 0.05440
H9 H 0.22870 0.07980 0.00210
C7 C 0.39225(17) 0.3439(3) 0.03474(9)
H10 H 0.39550 0.27010 -0.00270
H11 H 0.46520 0.35990 0.06150
C8 C 0.34249(17) 0.5411(3) 0.01479(10)
H12 H 0.34660 0.61970 0.05240
H13 H 0.38260 0.60670 -0.01110
C9 C 0.22649(16) 0.5197(3) -0.02262(9)
C10 C 0.17615(18) 0.6618(4) -0.06632(10)
H14 H 0.21470 0.77210 -0.07150
C11 C 0.07154(18) 0.6420(4) -0.10156(11)
C12 C 0.38239(18) 0.0619(3) 0.09896(10)
H15 H 0.40470 -0.01260 0.06670
H16 H 0.33260 -0.01720 0.11480
C13 C 0.47874(18) 0.1073(3) 0.15244(11)
C14 C 0.49038(17) 0.1494(3) 0.21749(10)
C15 C 0.40650(18) 0.1612(3) 0.25163(10)
C16 C 0.4319(2) 0.1157(3) 0.31643(10)
H17 H 0.50240 0.08340 0.33800
C17 C 0.3533(3) 0.1185(4) 0.34850(12)
H18 H 0.37080 0.08710 0.39170
C18 C 0.2492(2) 0.1673(4) 0.31736(12)
H19 H 0.19610 0.16720 0.33930
C19 C 0.2232(2) 0.2162(4) 0.25391(12)
H20 H 0.15280 0.25140 0.23300
C20 C 0.30182(18) 0.2131(3) 0.22106(11)
H21 H 0.28400 0.24640 0.17800
#END
