
#######################################################################
#
#                 Cambridge Crystallographic Data Centre
#                                CCDC
#
#######################################################################
#
# If this CIF has been generated from an entry in the Cambridge
# Structural Database, then it will include bibliographic, chemical,
# crystal, experimental, refinement or atomic coordinate data resulting
# from the CCDC's data processing and validation procedures.
#
#######################################################################

data_CSD_CIF_ADINAE
_audit_creation_date 2013-02-01
_audit_creation_method CSD-ConQuest-V1
_database_code_CSD ADINAE
_database_code_depnum_ccdc_archive 'CCDC 851935'
_chemical_formula_sum 'C26 H26 N2 O7'
_chemical_formula_moiety
;
C26 H26 N2 O7
;
_journal_coden_Cambridge 35
_journal_volume 77
_journal_year 2012
_journal_page_first 1477
_journal_name_full 'J.Org.Chem. '
loop_
_publ_author_name
"C.F.Weise"
"M.Pischl"
"A.Pfaltz"
"C.Schneider"
_chemical_name_systematic
;
7-(4-Benzyl-2-oxo-1,3-oxazolidin-3-yl)-2,4-dimethyl-7-oxohepta-1,5-dien-1-yl 
4-nitrobenzoate
;
_cell_volume   1234.662
_exptl_crystal_colour 'colorless'
_exptl_crystal_density_diffrn 1.287
_exptl_crystal_description 'small needles'
_diffrn_ambient_temperature 293
#These two values have been output from a single CSD field.
_refine_ls_R_factor_gt 0.0347
_refine_ls_wR_factor_gt 0.0347
_symmetry_cell_setting monoclinic
_symmetry_space_group_name_H-M 'P 21'
_symmetry_Int_Tables_number 4
loop_
_symmetry_equiv_pos_site_id
_symmetry_equiv_pos_as_xyz
1 x,y,z
2 -x,1/2+y,-z
_cell_length_a 11.3130(3)
_cell_length_b 6.2890(2)
_cell_length_c 17.3747(6)
_cell_angle_alpha 90
_cell_angle_beta 92.826(3)
_cell_angle_gamma 90
_cell_formula_units_Z 2
loop_
_atom_type_symbol
_atom_type_radius_bond
C 0.68
H 0.23
N 0.68
O 0.68
loop_
_atom_site_label
_atom_site_type_symbol
_atom_site_fract_x
_atom_site_fract_y
_atom_site_fract_z
O1 O 1.01162(17) -0.0815(3) 0.38741(11)
O2 O 1.15053(16) -0.1405(3) 0.31316(10)
O3 O 1.42506(13) 0.7822(3) 0.45064(9)
O4 O 1.28088(11) 0.7933(2) 0.53414(8)
O5 O 0.83882(13) 0.7271(3) 0.82678(8)
O6 O 1.10873(12) 0.3019(3) 0.90248(9)
O7 O 0.95943(11) 0.1774(2) 0.96740(8)
N1 N 1.10480(18) -0.0352(3) 0.36126(11)
N2 N 0.91775(12) 0.4399(3) 0.88533(9)
C1 C 1.16469(19) 0.1573(4) 0.38998(12)
C2 C 1.1194(2) 0.2619(4) 0.45054(13)
C3 C 1.1757(2) 0.4414(4) 0.47848(13)
C4 C 1.27565(18) 0.5150(3) 0.44608(12)
C5 C 1.3191(2) 0.4056(4) 0.38475(15)
C6 C 1.2647(2) 0.2259(5) 0.35641(15)
C7 C 1.3377(2) 0.7083(4) 0.47502(12)
C8 C 1.3245(2) 0.9812(4) 0.56802(13)
C9 C 1.27184(19) 1.0643(3) 0.62574(12)
C10 C 1.1638(2) 0.9692(5) 0.65958(13)
C11 C 1.17627(18) 0.9333(4) 0.74659(12)
C12 C 1.0624(2) 0.8551(4) 0.77595(13)
C13 C 1.0450(2) 0.6792(4) 0.81450(13)
C14 C 0.92726(19) 0.6227(4) 0.84071(12)
C15 C 1.3160(3) 1.2698(5) 0.65888(16)
C16 C 1.2806(2) 0.7907(5) 0.76831(16)
C17 C 1.00676(18) 0.3093(4) 0.91630(11)
C18 C 0.8399(2) 0.2439(5) 0.98080(15)
C19 C 0.80195(17) 0.3733(4) 0.91191(12)
C20 C 0.73169(18) 0.2542(4) 0.84922(13)
C21 C 0.60779(16) 0.2054(4) 0.87254(11)
C22 C 0.5806(2) 0.0144(4) 0.90491(14)
C23 C 0.4674(2) -0.0242(5) 0.92930(14)
C24 C 0.3822(2) 0.1277(4) 0.92094(13)
C25 C 0.40821(19) 0.3170(4) 0.88778(13)
C26 C 0.52024(19) 0.3570(4) 0.86397(13)
H1 H 1.0504(18) 0.213(4) 0.4756(12)
H2 H 1.1460(16) 0.521(3) 0.5191(11)
H3 H 1.3914(17) 0.461(3) 0.3681(11)
H4 H 1.297(2) 0.141(4) 0.3168(13)
H5 H 1.3917(16) 1.045(3) 0.5414(10)
H6 H 1.0956(15) 1.064(3) 0.6461(9)
H7 H 1.1489(16) 0.831(3) 0.6373(11)
H8 H 1.1920(13) 1.071(3) 0.7673(9)
H9 H 0.9965(16) 0.935(3) 0.7599(11)
H10 H 1.1042(14) 0.591(3) 0.8253(9)
H11 H 1.3479(14) 1.254(3) 0.7115(8)
H12 H 1.2524(15) 1.372(3) 0.6571(12)
H13 H 1.3805(14) 1.333(3) 0.6309(9)
H14 H 1.2695(16) 0.646(4) 0.7421(11)
H15 H 1.3534(19) 0.846(4) 0.7527(11)
H16 H 1.2864(15) 0.768(3) 0.8257(11)
H17 H 0.7965(16) 0.121(3) 0.9889(10)
H18 H 0.8486(17) 0.326(4) 1.0299(12)
H19 H 0.7614(14) 0.491(3) 0.9244(9)
H20 H 0.7702(14) 0.132(3) 0.8358(9)
H21 H 0.7264(14) 0.343(3) 0.8016(10)
H22 H 0.6351(16) -0.096(3) 0.9105(10)
H23 H 0.4539(16) -0.153(3) 0.9518(11)
H24 H 0.3015(18) 0.091(3) 0.9365(10)
H25 H 0.3456(18) 0.426(4) 0.8794(11)
H26 H 0.5388(15) 0.480(3) 0.8413(10)
#END
