
#######################################################################
#
#                 Cambridge Crystallographic Data Centre
#                                CCDC
#
#######################################################################
#
# If this CIF has been generated from an entry in the Cambridge
# Structural Database, then it will include bibliographic, chemical,
# crystal, experimental, refinement or atomic coordinate data resulting
# from the CCDC's data processing and validation procedures.
#
#######################################################################

data_CSD_CIF_ADINIL
_audit_creation_date 2006-07-27
_audit_creation_method CSD-ConQuest-V1
_database_code_CSD ADINIL
_database_code_depnum_ccdc_archive 'CCDC 298643'
_chemical_formula_sum 'C30 H24 N4 O12'
_chemical_formula_moiety
;
C30 H24 N4 O12
;
_journal_coden_Cambridge 24
_journal_volume 47
_journal_year 2006
_journal_page_first 4041
_journal_name_full 'Tetrahedron Lett. '
loop_
_publ_author_name
"H.Konishi"
"K.Tanaka"
"Y.Teshima"
"T.Mita"
"O.Morikawa"
"K.Kobayashi"
_chemical_name_systematic
;
syn-1^4^,1^6^,5^4^,5^6^-Tetranitro-3^2^,7^2^-di-n-propyl-2,4,6,8-tetraoxa-1,3,
5,7(1,3)-tetrabenzenacyclo-octaphane
;
_cell_volume   5742.326
_exptl_crystal_colour 'brown'
_exptl_crystal_density_diffrn 1.463
_exptl_special_details
;
1,3-alternate conformation

;
_exptl_crystal_description 'prism'
_exptl_crystal_preparation 'dimethylformamide'
_diffrn_ambient_temperature 173.1
#These two values have been output from a single CSD field.
_refine_ls_R_factor_gt 0.07
_refine_ls_wR_factor_gt 0.07
loop_
_citation_database_id_CSD
_citation_special_details
ACUNAO "is a stereoisomer of this entry"
_symmetry_cell_setting tetragonal
_symmetry_space_group_name_H-M 'I -4 2 d'
_symmetry_Int_Tables_number 122
loop_
_symmetry_equiv_pos_site_id
_symmetry_equiv_pos_as_xyz
1 x,y,z
2 y,-x,-z
3 -x,-y,z
4 -y,x,-z
5 1/2-x,y,3/4-z
6 1/2-y,-x,3/4+z
7 1/2+x,-y,3/4-z
8 1/2+y,x,3/4+z
9 1/2+x,1/2+y,1/2+z
10 1/2+y,1/2-x,1/2-z
11 1/2-x,1/2-y,1/2+z
12 1/2-y,1/2+x,1/2-z
13 -x,1/2+y,1/4-z
14 -y,1/2-x,1/4+z
15 x,1/2-y,1/4-z
16 y,1/2+x,1/4+z
_cell_length_a 15.550(9)
_cell_length_b 15.550(9)
_cell_length_c 23.748(8)
_cell_angle_alpha 90
_cell_angle_beta 90
_cell_angle_gamma 90
_cell_formula_units_Z 8
loop_
_atom_type_symbol
_atom_type_radius_bond
C 0.68
H 0.23
N 0.68
O 0.68
loop_
_atom_site_label
_atom_site_type_symbol
_atom_site_fract_x
_atom_site_fract_y
_atom_site_fract_z
O1 O 0.26846(7) 0.35948(6) 0.00390(3)
O2 O 0.29260(7) 0.43754(6) 0.19945(4)
O3 O 0.1391(1) 0.38656(9) -0.06347(5)
O4 O 0.13664(8) 0.30113(7) -0.13304(4)
O5 O 0.2250(1) 0.5389(1) 0.27371(5)
O6 O 0.1623(2) 0.4919(1) 0.3381(1)
N1 N 0.15670(9) 0.3184(1) -0.08547(6)
N2 N 0.1997(1) 0.4805(1) 0.29683(7)
C1 C 0.3177(1) 0.37833(9) 0.05208(6)
C2 C 0.2762(1) 0.39529(9) 0.10187(5)
C3 C 0.3306(1) 0.41412(9) 0.14644(5)
C4 C 0.4175(1) 0.4171(1) 0.14272(6)
C5 C 0.4564(1) 0.3986(1) 0.09218(6)
C6 C 0.4055(1) 0.3799(1) 0.04662(6)
C7 C 0.2641(1) 0.3727(1) 0.23302(5)
C8 C 0.2830(1) 0.2888(1) 0.22196(5)
C9 C 0.2512(1) 0.27550(9) -0.00529(6)
C10 C 0.19951(9) 0.2542(1) -0.05121(5)
C11 C 0.1868(1) 0.1698(1) -0.06426(5)
C12 C 0.2181(1) 0.3928(1) 0.28122(5)
C13 C 0.1815(1) 0.3913(1) 0.10684(6)
C14 C 0.1365(1) 0.4762(1) 0.11007(8)
C15 C 0.1412(2) 0.5198(1) 0.05603(7)
H1 H 0.45060 0.43170 0.17490
H2 H 0.51740 0.39800 0.08910
H3 H 0.43070 0.36830 0.01120
H4 H 0.31780 0.27520 0.19030
H5 H 0.15470 0.15540 -0.09700
H6 H 0.15980 0.36130 0.07490
H7 H 0.16950 0.35930 0.13990
H8 H 0.07770 0.46770 0.11920
H9 H 0.16330 0.51020 0.13790
H10 H 0.19120 0.55350 0.05520
H11 H 0.09170 0.55550 0.05090
H12 H 0.14250 0.47780 0.02700
O1N O 0.26846(7) 0.14052(6) 0.24610(3)
O2N O 0.29260(7) 0.06246(6) 0.05055(4)
O3N O 0.1391(1) 0.11344(9) 0.31347(5)
O4N O 0.13664(8) 0.19887(7) 0.38304(4)
O5N O 0.2250(1) -0.0389(1) -0.02371(5)
O6N O 0.1623(2) 0.0081(1) -0.0881(1)
N1N N 0.15670(9) 0.1816(1) 0.33547(6)
N2N N 0.1997(1) 0.0195(1) -0.04683(7)
C1N C 0.3177(1) 0.12167(9) 0.19792(6)
C2N C 0.2762(1) 0.10471(9) 0.14813(5)
C3N C 0.3306(1) 0.08588(9) 0.10356(5)
C4N C 0.4175(1) 0.0829(1) 0.10728(6)
C5N C 0.4564(1) 0.1014(1) 0.15782(6)
C6N C 0.4055(1) 0.1201(1) 0.20338(6)
C7N C 0.2641(1) 0.1273(1) 0.01698(5)
C8N C 0.2830(1) 0.2112(1) 0.02804(5)
C9N C 0.2512(1) 0.22450(9) 0.25529(6)
C10N C 0.19951(9) 0.2458(1) 0.30121(5)
C11N C 0.1868(1) 0.3302(1) 0.31426(5)
C12N C 0.2181(1) 0.1072(1) -0.03122(5)
C13N C 0.1815(1) 0.1087(1) 0.14316(6)
C14N C 0.1365(1) 0.0238(1) 0.13993(8)
C15N C 0.1412(2) -0.0198(1) 0.19397(7)
H1N H 0.45060 0.06830 0.07510
H2N H 0.51740 0.10200 0.16090
H3N H 0.43070 0.13170 0.23880
H4N H 0.31780 0.22480 0.05970
H5N H 0.15470 0.34460 0.34700
H6N H 0.15980 0.13870 0.17510
H7N H 0.16950 0.14070 0.11010
H8N H 0.07770 0.03230 0.13080
H9N H 0.16330 -0.01020 0.11210
H10N H 0.19120 -0.05350 0.19480
H11N H 0.09170 -0.05550 0.19910
H12N H 0.14250 0.02220 0.22300
#END
