
#######################################################################
#
#                 Cambridge Crystallographic Data Centre
#                                CCDC
#
#######################################################################
#
# If this CIF has been generated from an entry in the Cambridge
# Structural Database, then it will include bibliographic, chemical,
# crystal, experimental, refinement or atomic coordinate data resulting
# from the CCDC's data processing and validation procedures.
#
#######################################################################

data_CSD_CIF_ADOJEK
_audit_creation_date 2013-02-01
_audit_creation_method CSD-ConQuest-V1
_database_code_CSD ADOJEK
_database_code_depnum_ccdc_archive 'CCDC 898798'
_chemical_formula_sum 'C9 H9 N3 O3'
_chemical_formula_moiety
;
C9 H9 N3 O3
;
_journal_coden_Cambridge 182
_journal_volume 48
_journal_year 2012
_journal_page_first 11289
_journal_name_full 'Chem.Commun. '
loop_
_publ_author_name
"C.B.Aakeroy"
"A.S.Sinha"
"K.N.Epa"
"C.L.Spartz"
"J.Desper"
_chemical_name_systematic
;
Benzene-1,3,5-triyltris(N-hydroxymethanimine)
;
_cell_volume    937.738
_exptl_crystal_colour 'orange'
_exptl_crystal_density_diffrn 1.468
_exptl_crystal_description 'prism'
_diffrn_ambient_temperature 120
#These two values have been output from a single CSD field.
_refine_ls_R_factor_gt 0.0499
_refine_ls_wR_factor_gt 0.0499
_symmetry_cell_setting orthorhombic
_symmetry_space_group_name_H-M 'P n a 21'
_symmetry_Int_Tables_number 33
loop_
_symmetry_equiv_pos_site_id
_symmetry_equiv_pos_as_xyz
1 x,y,z
2 -x,-y,1/2+z
3 1/2+x,1/2-y,z
4 1/2-x,1/2+y,1/2+z
_cell_length_a 16.6967(11)
_cell_length_b 4.2787(3)
_cell_length_c 13.1262(8)
_cell_angle_alpha 90
_cell_angle_beta 90
_cell_angle_gamma 90
_cell_formula_units_Z 4
loop_
_atom_type_symbol
_atom_type_radius_bond
C 0.68
H 0.23
N 0.68
O 0.68
loop_
_atom_site_label
_atom_site_type_symbol
_atom_site_fract_x
_atom_site_fract_y
_atom_site_fract_z
C1 C 0.21012(14) 0.4850(6) 0.35713(18)
C2 C 0.22874(14) 0.2768(6) 0.27816(19)
H1 H 0.18990 0.23200 0.22730
C3 C 0.30399(14) 0.1346(6) 0.27371(18)
C4 C 0.36108(14) 0.2048(6) 0.34856(18)
H2 H 0.41250 0.10970 0.34570
C5 C 0.34325(14) 0.4127(6) 0.42709(17)
C6 C 0.26710(14) 0.5524(6) 0.43130(18)
H3 H 0.25450 0.69310 0.48490
C7 C 0.13312(15) 0.6506(6) 0.36379(19)
H4 H 0.12420 0.78480 0.42030
N1 N 0.07767(12) 0.6229(5) 0.29731(16)
O1 O 0.01244(11) 0.8131(5) 0.32295(15)
H5 H -0.023(2) 0.764(8) 0.268(3)
C8 C 0.32022(14) -0.0851(6) 0.19032(18)
H6 H 0.27990 -0.12330 0.14080
N2 N 0.38763(13) -0.2266(5) 0.18277(16)
O2 O 0.38904(12) -0.4282(5) 0.09840(14)
H7 H 0.436(2) -0.525(8) 0.110(3)
C9 C 0.40652(15) 0.4846(6) 0.50146(18)
H8 H 0.45640 0.37860 0.49770
N3 N 0.39488(13) 0.6882(6) 0.57091(17)
O3 O 0.46436(12) 0.7300(5) 0.63027(15)
H9 H 0.447(2) 0.857(9) 0.688(3)
#END
