
#######################################################################
#
#                 Cambridge Crystallographic Data Centre
#                                CCDC
#
#######################################################################
#
# If this CIF has been generated from an entry in the Cambridge
# Structural Database, then it will include bibliographic, chemical,
# crystal, experimental, refinement or atomic coordinate data resulting
# from the CCDC's data processing and validation procedures.
#
#######################################################################

data_CSD_CIF_ADOJEI
_audit_creation_date 2002-05-16
_audit_creation_method CSD-ConQuest-V1
_database_code_CSD ADOJEI
_database_code_depnum_ccdc_archive 'CCDC 181420'
_database_code_depnum_ccdc_journal 1267/708
_chemical_formula_sum 'C10 H13 N3 O1'
_chemical_formula_moiety
;
C10 H13 N3 O1
;
_journal_coden_Cambridge 1267
_journal_volume 216
_journal_year 2001
_journal_page_first 585
_journal_name_full 'Z.Kristallogr.-New Cryst.Struct. '
loop_
_publ_author_name
"J.Iulek"
"J.Zukerman-Schpector"
"C.C.Stadler"
"A.Tozetto"
"M.Vega"
_chemical_name_systematic
;
2-(Hydroxyimino)-3-methyl-5-(2-pyridyl)-4-azapent-3-ene
;
_chemical_melting_point 416
_cell_volume   1026.077
_exptl_crystal_colour 'colorless'
_exptl_crystal_density_diffrn 1.238
_exptl_crystal_description 'irregular'
_exptl_crystal_preparation 'ethanol'
_diffrn_ambient_temperature 291
#These two values have been output from a single CSD field.
_refine_ls_R_factor_gt 0.0447
_refine_ls_wR_factor_gt 0.0447
_symmetry_cell_setting monoclinic
_symmetry_space_group_name_H-M 'P 21/c'
_symmetry_Int_Tables_number 14
loop_
_symmetry_equiv_pos_site_id
_symmetry_equiv_pos_as_xyz
1 x,y,z
2 -x,1/2+y,1/2-z
3 -x,-y,-z
4 x,-1/2-y,-1/2+z
_cell_length_a 7.1477(9)
_cell_length_b 18.768(2)
_cell_length_c 7.651(1)
_cell_angle_alpha 90
_cell_angle_beta 91.36(1)
_cell_angle_gamma 90
_cell_formula_units_Z 4
loop_
_atom_type_symbol
_atom_type_radius_bond
C 0.68
H 0.23
N 0.68
O 0.68
loop_
_atom_site_label
_atom_site_type_symbol
_atom_site_fract_x
_atom_site_fract_y
_atom_site_fract_z
O1 O 0.5960(2) 0.64319(8) 0.3570(2)
H1 H 0.47740 0.67490 0.39210
N1 N 0.5032(3) 0.58012(9) 0.3090(2)
N2 N 0.6418(2) 0.41251(9) 0.1715(2)
N3 N 0.7019(2) 0.22682(9) 0.0587(2)
C1 C 0.7292(3) 0.29743(11) 0.0528(3)
C2 C 0.5290(3) 0.46109(11) 0.2173(3)
C3 C 0.5717(3) 0.34317(11) 0.1152(3)
H2 H 0.47940 0.34940 0.02140
H3 H 0.51130 0.31980 0.21190
C4 C 0.6163(3) 0.52951(11) 0.2741(3)
C5 C 0.8385(4) 0.18447(13) 0.0044(3)
H4 H 0.81990 0.13550 0.00930
C6 C 0.8250(3) 0.53484(12) 0.2853(3)
H5 H 0.86040 0.58250 0.31700
H6 H 0.87600 0.52320 0.17400
H7 H 0.87250 0.50220 0.37220
C7 C 0.3198(3) 0.45515(13) 0.2175(3)
H8 H 0.28050 0.41640 0.14340
H9 H 0.26520 0.49870 0.17490
H10 H 0.27970 0.44650 0.33450
C8 C 1.0307(3) 0.28119(14) -0.0680(3)
H11 H 1.14040 0.29980 -0.11240
C9 C 0.8917(3) 0.32584(12) -0.0109(3)
H12 H 0.90760 0.37500 -0.01540
C10 C 1.0046(4) 0.20893(14) -0.0581(3)
H13 H 1.09710 0.17740 -0.09280
#END
