
#######################################################################
#
#                 Cambridge Crystallographic Data Centre
#                                CCDC
#
#######################################################################
#
# If this CIF has been generated from an entry in the Cambridge
# Structural Database, then it will include bibliographic, chemical,
# crystal, experimental, refinement or atomic coordinate data resulting
# from the CCDC's data processing and validation procedures.
#
#######################################################################

data_CSD_CIF_ADOJUY
_audit_creation_date 2002-05-16
_audit_creation_method CSD-ConQuest-V1
_database_code_CSD ADOJUY
_database_code_depnum_ccdc_archive 'CCDC 181423'
_database_code_depnum_ccdc_journal 1267/712
_chemical_formula_sum 'C13 H15 N1 O2'
_chemical_formula_moiety
;
C13 H15 N1 O2
;
_journal_coden_Cambridge 1267
_journal_volume 216
_journal_year 2001
_journal_page_first 651
_journal_name_full 'Z.Kristallogr.-New Cryst.Struct. '
loop_
_publ_author_name
"C.Meenakshi"
"V.Ramamoorthy"
"S.Muthusubramanian"
"S.Sivasubramanian"
"T.Ziegler"
"J.Lex"
_chemical_name_systematic
;
2-(4-Methoxyphenyl)-2-cyclohexene-1-one oxime
;
_chemical_melting_point 442
_cell_volume    571.679
_exptl_crystal_colour 'pale yellow'
_exptl_crystal_density_diffrn 1.262
_exptl_special_details
;
Melting point range 442-443K

;
_exptl_crystal_description 'prism'
_exptl_crystal_preparation 'ethanol'
_diffrn_ambient_temperature 293
#These two values have been output from a single CSD field.
_refine_ls_R_factor_gt 0.038
_refine_ls_wR_factor_gt 0.038
_symmetry_cell_setting triclinic
_symmetry_space_group_name_H-M 'P -1'
_symmetry_Int_Tables_number 2
loop_
_symmetry_equiv_pos_site_id
_symmetry_equiv_pos_as_xyz
1 x,y,z
2 -x,-y,-z
_cell_length_a 6.493(1)
_cell_length_b 9.195(1)
_cell_length_c 10.225(1)
_cell_angle_alpha 70.60(1)
_cell_angle_beta 85.80(1)
_cell_angle_gamma 83.49(1)
_cell_formula_units_Z 2
loop_
_atom_type_symbol
_atom_type_radius_bond
C 0.68
H 0.23
N 0.68
O 0.68
loop_
_atom_site_label
_atom_site_type_symbol
_atom_site_fract_x
_atom_site_fract_y
_atom_site_fract_z
C1 C 0.20380(16) 0.43415(12) 0.84911(11)
C2 C 0.09315(17) 0.29570(13) 0.91944(11)
C3 C -0.0654(2) 0.26703(15) 0.85737(13)
C4 C -0.1506(2) 0.37087(18) 0.72200(15)
C5 C -0.0803(2) 0.53192(16) 0.68151(14)
C6 C 0.15008(19) 0.52783(15) 0.70229(12)
C7 C 0.5167(2) -0.19336(19) 1.47490(17)
C8 C 0.15911(17) 0.18875(12) 1.05800(11)
C9 C 0.01309(18) 0.14660(14) 1.16791(12)
C10 C 0.06881(19) 0.04440(15) 1.29595(12)
C11 C 0.27313(18) -0.01937(13) 1.31772(11)
C12 C 0.42094(18) 0.02027(13) 1.21025(13)
C13 C 0.36260(18) 0.12455(13) 1.08218(12)
N1 N 0.34048(14) 0.46563(10) 0.91795(9)
O1 O 0.43859(13) 0.59869(10) 0.84108(9)
O2 O 0.31267(14) -0.11933(11) 1.44860(9)
H1 H -0.130(2) 0.1712(18) 0.9035(15)
H2 H -0.102(3) 0.3196(19) 0.6529(18)
H3 H -0.307(3) 0.373(2) 0.7281(19)
H4 H -0.113(2) 0.5908(18) 0.5842(17)
H5 H -0.155(2) 0.5898(18) 0.7407(16)
H6 H 0.190(2) 0.6312(19) 0.6805(15)
H7 H 0.237(2) 0.4783(18) 0.6395(16)
H8 H 0.621(3) -0.1203(19) 1.4566(16)
H9 H 0.553(3) -0.260(2) 1.4150(18)
H10 H 0.513(3) -0.260(2) 1.569(2)
H11 H -0.127(2) 0.1919(17) 1.1533(14)
H12 H -0.034(2) 0.0142(17) 1.3745(15)
H13 H 0.560(2) -0.0231(17) 1.2218(15)
H14 H 0.468(2) 0.1500(16) 1.0056(14)
H15 H 0.524(3) 0.600(2) 0.9036(19)
#END
