
#######################################################################
#
#                 Cambridge Crystallographic Data Centre
#                                CCDC
#
#######################################################################
#
# If this CIF has been generated from an entry in the Cambridge
# Structural Database, then it will include bibliographic, chemical,
# crystal, experimental, refinement or atomic coordinate data resulting
# from the CCDC's data processing and validation procedures.
#
#######################################################################

data_CSD_CIF_ADOKUZ
_audit_creation_date 2002-05-16
_audit_creation_method CSD-ConQuest-V1
_database_code_CSD ADOKUZ
_database_code_depnum_ccdc_archive 'CCDC 181428'
_database_code_depnum_ccdc_journal 1267/716
_chemical_formula_sum 'C20 H16 N4 O5'
_chemical_formula_moiety
;
C20 H16 N4 O5
;
_journal_coden_Cambridge 1267
_journal_volume 216
_journal_year 2001
_journal_page_first 657
_journal_name_full 'Z.Kristallogr.-New Cryst.Struct. '
loop_
_publ_author_name
"G.F.de Lima"
"R.H.A.Santos"
"J.Souza"
"J.R.Lechat"
_chemical_name_systematic
;
N-(1,2-Diphenyl-2-hydroxyethylidene)-N'-(2,4-dinitrophenyl)-hydrazine
;
_cell_volume   1824.099
_exptl_crystal_colour 'orange'
_exptl_crystal_density_diffrn 1.429
_exptl_crystal_description 'prism'
_exptl_crystal_preparation 'acetonitrile'
_diffrn_ambient_temperature 253
#These two values have been output from a single CSD field.
_refine_ls_R_factor_gt 0.0746
_refine_ls_wR_factor_gt 0.0746
_symmetry_cell_setting monoclinic
_symmetry_space_group_name_H-M 'P 21/c'
_symmetry_Int_Tables_number 14
loop_
_symmetry_equiv_pos_site_id
_symmetry_equiv_pos_as_xyz
1 x,y,z
2 -x,1/2+y,1/2-z
3 -x,-y,-z
4 x,-1/2-y,-1/2+z
_cell_length_a 8.085(1)
_cell_length_b 20.378(2)
_cell_length_c 11.1372(10)
_cell_angle_alpha 90
_cell_angle_beta 96.226(12)
_cell_angle_gamma 90
_cell_formula_units_Z 4
loop_
_atom_type_symbol
_atom_type_radius_bond
C 0.68
H 0.23
N 0.68
O 0.68
loop_
_atom_site_label
_atom_site_type_symbol
_atom_site_fract_x
_atom_site_fract_y
_atom_site_fract_z
O1 O 0.6518(2) 0.41031(10) 0.4529(2)
H1 H 0.638(4) 0.447(2) 0.408(3)
O2 O 0.5275(3) 0.32292(11) 0.2311(2)
O3 O 0.3964(3) 0.25437(13) 0.1077(2)
O4 O 0.4025(4) 0.02962(13) 0.1675(2)
O5 O 0.4948(4) -0.01172(12) 0.3404(2)
N1 N 0.7810(3) 0.28734(11) 0.5460(2)
N2 N 0.6910(3) 0.28242(12) 0.4337(2)
H2 H 0.648(4) 0.3183(18) 0.396(3)
N3 N 0.4848(3) 0.26690(13) 0.2016(2)
N4 N 0.4716(4) 0.03491(13) 0.2711(3)
C1 C 1.0092(5) 0.28652(16) 0.7495(3)
H3 H 0.98460 0.24710 0.70960
C2 C 1.1088(5) 0.2864(2) 0.8590(3)
H4 H 1.14970 0.24690 0.89170
C3 C 1.1476(4) 0.3437(2) 0.9195(3)
H5 H 1.21450 0.34320 0.99290
C4 C 1.0872(5) 0.40175(19) 0.8711(3)
H6 H 1.11390 0.44100 0.91140
C5 C 0.9854(4) 0.40232(16) 0.7614(3)
H7 H 0.94360 0.44200 0.73010
C6 C 0.9456(4) 0.34498(14) 0.6986(3)
C7 C 0.8399(3) 0.34386(13) 0.5799(2)
C8 C 0.6366(3) 0.22310(13) 0.3940(3)
C9 C 0.6758(4) 0.16611(14) 0.4647(3)
H8 H 0.74020 0.17020 0.53870
C10 C 0.6213(4) 0.10568(15) 0.4267(3)
H9 H 0.64550 0.06920 0.47560
C11 C 0.5286(4) 0.09849(14) 0.3138(3)
C12 C 0.4878(4) 0.15148(14) 0.2409(3)
H10 H 0.42720 0.14610 0.16570
C13 C 0.5383(4) 0.21298(14) 0.2812(3)
C14 C 0.8199(4) 0.40650(13) 0.5049(3)
H11 H 0.832(4) 0.4448(17) 0.561(3)
C15 C 0.9445(3) 0.40757(13) 0.4122(3)
C16 C 1.1131(4) 0.41010(17) 0.4516(3)
H12 H 1.14780 0.41130 0.53400
C17 C 1.2290(5) 0.4108(2) 0.3706(4)
H13 H 1.34170 0.41250 0.39820
C18 C 1.1786(5) 0.40914(19) 0.2480(4)
H14 H 1.25700 0.40910 0.19270
C19 C 1.0128(5) 0.40746(18) 0.2089(3)
H15 H 0.97850 0.40680 0.12640
C20 C 0.8958(4) 0.40678(15) 0.2893(3)
H16 H 0.78320 0.40580 0.26110
#END
