
#######################################################################
#
#                 Cambridge Crystallographic Data Centre
#                                CCDC
#
#######################################################################
#
# If this CIF has been generated from an entry in the Cambridge
# Structural Database, then it will include bibliographic, chemical,
# crystal, experimental, refinement or atomic coordinate data resulting
# from the CCDC's data processing and validation procedures.
#
#######################################################################

data_CSD_CIF_ADOKAF
_audit_creation_date 2002-05-16
_audit_creation_method CSD-ConQuest-V1
_database_code_CSD ADOKAF
_database_code_depnum_ccdc_archive 'CCDC 181424'
_database_code_depnum_ccdc_journal 1267/711
_chemical_formula_sum 'C12 H13 N1 O1'
_chemical_formula_moiety
;
C12 H13 N1 O1
;
_journal_coden_Cambridge 1267
_journal_volume 216
_journal_year 2001
_journal_page_first 649
_journal_name_full 'Z.Kristallogr.-New Cryst.Struct. '
loop_
_publ_author_name
"C.Meenakshi"
"V.Ramamoorthy"
"S.Muthusubramanian"
"S.Sivasubramanian"
"T.Ziegler"
"J.Lex"
_chemical_name_systematic
;
2-Phenyl-2-cyclohexene-1-one oxime
;
_chemical_melting_point 431
_cell_volume    506.897
_exptl_crystal_colour 'colorless'
_exptl_crystal_density_diffrn 1.227
_exptl_crystal_description 'prism'
_exptl_crystal_preparation 'ethanol'
_diffrn_ambient_temperature 293
#These two values have been output from a single CSD field.
_refine_ls_R_factor_gt 0.0401
_refine_ls_wR_factor_gt 0.0401
_symmetry_cell_setting triclinic
_symmetry_space_group_name_H-M 'P -1'
_symmetry_Int_Tables_number 2
loop_
_symmetry_equiv_pos_site_id
_symmetry_equiv_pos_as_xyz
1 x,y,z
2 -x,-y,-z
_cell_length_a 6.276(1)
_cell_length_b 8.914(1)
_cell_length_c 10.151(1)
_cell_angle_alpha 68.40(1)
_cell_angle_beta 77.04(1)
_cell_angle_gamma 76.21(1)
_cell_formula_units_Z 2
loop_
_atom_type_symbol
_atom_type_radius_bond
C 0.68
H 0.23
N 0.68
O 0.68
loop_
_atom_site_label
_atom_site_type_symbol
_atom_site_fract_x
_atom_site_fract_y
_atom_site_fract_z
C1 C 0.28257(18) 0.22255(14) 0.34726(12)
C2 C 0.38117(18) 0.28387(14) 0.43256(12)
C3 C 0.5495(2) 0.36671(15) 0.36903(14)
C4 C 0.6537(2) 0.39971(19) 0.21556(15)
C5 C 0.5985(2) 0.28817(19) 0.15075(15)
C6 C 0.3532(2) 0.2774(2) 0.18766(13)
C7 C 0.29251(19) 0.25276(14) 0.58751(12)
C8 C 0.4361(2) 0.18907(16) 0.68858(14)
C9 C 0.3556(3) 0.16316(19) 0.83282(16)
C10 C 0.1318(3) 0.1987(2) 0.87843(16)
C11 C -0.0124(3) 0.2637(2) 0.77903(16)
C12 C 0.0662(2) 0.29078(18) 0.63543(15)
N1 N 0.14449(15) 0.12428(12) 0.41567(10)
O1 O 0.05970(15) 0.07237(12) 0.3252(1)
H1 H 0.609(2) 0.4119(18) 0.4271(14)
H2 H 0.602(3) 0.515(2) 0.1609(17)
H3 H 0.816(3) 0.389(2) 0.2102(17)
H4 H 0.643(3) 0.325(2) 0.0469(18)
H5 H 0.684(2) 0.176(2) 0.1879(15)
H6 H 0.261(3) 0.387(2) 0.1470(17)
H7 H 0.321(3) 0.200(2) 0.1512(17)
H8 H 0.593(3) 0.1606(18) 0.6567(15)
H9 H 0.462(3) 0.122(2) 0.8970(19)
H10 H 0.072(3) 0.182(2) 0.979(2)
H11 H -0.175(3) 0.288(2) 0.812(2)
H12 H -0.035(3) 0.3360(19) 0.5663(16)
H13 H -0.029(3) 0.001(3) 0.392(2)
#END
