
#######################################################################
#
#                 Cambridge Crystallographic Data Centre
#                                CCDC
#
#######################################################################
#
# If this CIF has been generated from an entry in the Cambridge
# Structural Database, then it will include bibliographic, chemical,
# crystal, experimental, refinement or atomic coordinate data resulting
# from the CCDC's data processing and validation procedures.
#
#######################################################################

data_CSD_CIF_ADOWUO
_audit_creation_date 2017-10-03
_audit_creation_method CSD-ConQuest-V1
_database_code_CSD ADOWUO
_database_code_depnum_ccdc_archive 'CCDC 1501785; not CCDC 1701785 as published'
_chemical_formula_sum 'C3 H2 N8 O8'
_chemical_formula_moiety
;
C3 H2 N8 O8
;
_journal_coden_Cambridge 440
_journal_volume 41
_journal_year 2017
_journal_page_first 3068
_journal_name_full 'New J.Chem. '
loop_
_publ_author_name
"T.S.Hermann"
"T.M.Klapotke"
"B.Krumm"
"J.Stierstorfer"
_chemical_name_systematic
;
N-nitro-3-(trinitromethyl)-1H-1,2,4-triazol-5-amine
;
_chemical_name_common
;
3-trinitromethyl-5-nitramino-1H-1,2,4-triazole
;
_chemical_melting_point 398.15
_cell_volume    944.506
_exptl_crystal_colour 'colorless'
_exptl_crystal_density_diffrn 1.956
_exptl_special_details
;
Melts with decomposition.
explosive; impact-sensitive

;
_exptl_crystal_description 'block'
_diffrn_ambient_temperature 173
#These two values have been output from a single CSD field.
_refine_ls_R_factor_gt 0.0327
_refine_ls_wR_factor_gt 0.0327
_symmetry_cell_setting monoclinic
_symmetry_space_group_name_H-M 'P 21/n'
_symmetry_Int_Tables_number 14
loop_
_symmetry_equiv_pos_site_id
_symmetry_equiv_pos_as_xyz
1 x,y,z
2 1/2-x,1/2+y,1/2-z
3 -x,-y,-z
4 -1/2+x,-1/2-y,-1/2+z
_cell_length_a 9.1597(7)
_cell_length_b 10.5684(7)
_cell_length_c 9.9433(7)
_cell_angle_alpha 90
_cell_angle_beta 101.110(7)
_cell_angle_gamma 90
_cell_formula_units_Z 4
loop_
_atom_type_symbol
_atom_type_radius_bond
C 0.68
H 0.23
N 0.68
O 0.68
loop_
_atom_site_label
_atom_site_type_symbol
_atom_site_fract_x
_atom_site_fract_y
_atom_site_fract_z
O1 O 0.66140(13) -0.23453(10) 0.73795(11)
O2 O 0.66412(15) -0.30415(11) 0.94459(11)
O3 O 0.53941(13) 0.34885(12) 0.52703(11)
O4 O 0.30735(13) 0.39513(12) 0.52530(11)
O5 O 0.28902(14) 0.44027(11) 0.80897(12)
O6 O 0.21095(12) 0.24781(12) 0.75906(13)
O7 O 0.60805(16) 0.47741(12) 0.76459(14)
O8 O 0.60829(13) 0.34312(12) 0.92938(11)
N1 N 0.53535(13) -0.01420(12) 0.66610(12)
N2 N 0.49885(13) 0.10364(11) 0.61697(11)
N3 N 0.50208(12) 0.09486(11) 0.84495(11)
N4 N 0.56685(14) -0.11894(11) 0.88691(12)
N5 N 0.63488(14) -0.22617(11) 0.85383(12)
N6 N 0.42915(14) 0.35424(12) 0.57693(13)
N7 N 0.30160(14) 0.33278(13) 0.77010(13)
N8 N 0.56720(14) 0.38309(12) 0.81561(13)
C1 C 0.53693(14) -0.01698(13) 0.80058(13)
C2 C 0.48144(14) 0.16456(13) 0.72779(13)
C3 C 0.44689(15) 0.30234(13) 0.72316(13)
H1 H 0.5507(19) -0.0739(18) 0.6138(19)
H2 H 0.549(2) -0.1170(17) 0.969(2)
#END
