
#######################################################################
#
#                 Cambridge Crystallographic Data Centre
#                                CCDC
#
#######################################################################
#
# If this CIF has been generated from an entry in the Cambridge
# Structural Database, then it will include bibliographic, chemical,
# crystal, experimental, refinement or atomic coordinate data resulting
# from the CCDC's data processing and validation procedures.
#
#######################################################################

data_CSD_CIF_ADUKAL
_audit_creation_date 2002-05-16
_audit_creation_method CSD-ConQuest-V1
_database_code_CSD ADUKAL
_database_code_depnum_ccdc_archive 'CCDC 182068'
_chemical_formula_sum 'C42 H34 N2 O10'
_chemical_formula_moiety
;
C42 H34 N2 O10
;
_journal_coden_Cambridge 1078
_journal_year 2000
_journal_name_full 'CSD Communication(Private Communication) '
loop_
_publ_author_name
"P.Schoenholzer"
"J.J.Daly"
"M.Hennig"
_chemical_name_systematic
;
3,6-Dimethoxy-7-(4'-formylphenyl)-4-(methoxycarbonylmethyl)-2-(3'-nitrophenyl)
-5-(phthalimidomethyl)-9,9-dimethylxanthene
;
_cell_volume   1761.010
_exptl_crystal_colour 'colorless'
_exptl_crystal_density_diffrn 1.371
_exptl_special_details
;
contribution from F. Hoffmann-La Roche AG, Pharma Research 65/308, CH 4070 
Basel, Switzerland
;
_diffrn_ambient_temperature 183
#These two values have been output from a single CSD field.
_refine_ls_R_factor_gt 0.063
_refine_ls_wR_factor_gt 0.063
_symmetry_cell_setting triclinic
_symmetry_space_group_name_H-M 'P -1'
_symmetry_Int_Tables_number 2
loop_
_symmetry_equiv_pos_site_id
_symmetry_equiv_pos_as_xyz
1 x,y,z
2 -x,-y,-z
_cell_length_a 9.545(1)
_cell_length_b 13.099(1)
_cell_length_c 14.422(2)
_cell_angle_alpha 85.42(1)
_cell_angle_beta 79.99(1)
_cell_angle_gamma 83.51(1)
_cell_formula_units_Z 2
loop_
_atom_type_symbol
_atom_type_radius_bond
C 0.68
H 0.23
N 0.68
O 0.68
loop_
_atom_site_label
_atom_site_type_symbol
_atom_site_fract_x
_atom_site_fract_y
_atom_site_fract_z
O1 O 0.3367(3) 0.2609(2) 0.2302(2)
O2 O 0.4541(3) 0.3453(3) -0.0953(2)
O3 O 0.1603(3) 0.1759(2) 0.5492(2)
O4 O 0.1950(4) 0.1941(3) -0.0109(3)
O5 O 0.0555(5) 0.2250(4) 0.1265(3)
O6 O 0.0559(4) 0.4422(3) 0.3363(2)
O7 O -0.1337(3) 0.1685(2) 0.5088(2)
O8 O 0.6133(5) -0.0207(4) 0.8939(3)
O9 O 1.1971(4) 0.4184(3) -0.2421(3)
O10 O 1.0888(4) 0.4864(3) -0.1135(3)
N1 N -0.0034(4) 0.2893(3) 0.4179(2)
N2 N 1.0967(4) 0.4274(3) -0.1764(3)
C1 C 0.5100(4) 0.2176(3) 0.3352(3)
C2 C 0.5287(5) 0.1894(3) 0.4274(3)
H1 H 0.6216(5) 0.1792(3) 0.4404(3)
C3 C 0.4170(5) 0.1755(3) 0.5015(3)
C4 C 0.4453(5) 0.1459(3) 0.5987(3)
C5 C 0.5537(5) 0.0677(3) 0.6125(3)
H2 H 0.6077(5) 0.0359(3) 0.5606(3)
C6 C 0.5816(5) 0.0369(4) 0.7017(3)
H3 H 0.6535(5) -0.0155(4) 0.7095(3)
C7 C 0.5028(6) 0.0840(4) 0.7798(3)
C8 C 0.5259(6) 0.0482(5) 0.8763(4)
H4 H 0.4692(6) 0.0811(5) 0.9265(4)
C9 C 0.3969(5) 0.1642(4) 0.7662(3)
H5 H 0.3441(5) 0.1969(4) 0.8179(3)
C10 C 0.3707(5) 0.1948(4) 0.6769(3)
H6 H 0.3015(5) 0.2492(4) 0.6688(3)
C11 C 0.2779(5) 0.1887(3) 0.4801(3)
C12 C 0.1416(6) 0.0708(4) 0.5803(4)
H7 H 0.0581(6) 0.0684(4) 0.6280(4)
H8 H 0.2240(6) 0.0402(4) 0.6059(4)
H9 H 0.1303(6) 0.0335(4) 0.5279(4)
C13 C 0.2513(5) 0.2149(3) 0.3882(3)
C14 C 0.1040(4) 0.2193(4) 0.3632(3)
H10 H 0.1091(4) 0.2405(4) 0.2968(3)
H11 H 0.0731(4) 0.1507(4) 0.3725(3)
C15 C -0.1129(4) 0.2572(4) 0.4861(3)
C16 C -0.2044(5) 0.3518(3) 0.5176(3)
C17 C -0.3274(5) 0.3627(4) 0.5825(3)
H12 H -0.3642(5) 0.3062(4) 0.6175(3)
C18 C -0.3950(5) 0.4615(4) 0.5939(3)
H13 H -0.4791(5) 0.4715(4) 0.6371(3)
C19 C -0.3388(5) 0.5454(4) 0.5418(4)
H14 H -0.3854(5) 0.6110(4) 0.5512(4)
C20 C -0.2160(6) 0.5338(4) 0.4765(4)
H15 H -0.1797(6) 0.5903(4) 0.4410(4)
C21 C -0.1479(5) 0.4356(3) 0.4651(3)
C22 C -0.0187(5) 0.3968(3) 0.3979(3)
C23 C 0.3703(5) 0.2314(3) 0.3178(3)
C24 C 0.4444(5) 0.2737(3) 0.1544(3)
C25 C 0.3972(5) 0.3056(3) 0.0697(3)
C26 C 0.2392(5) 0.3339(4) 0.0684(3)
H16 H 0.1989(5) 0.3718(4) 0.1236(3)
H17 H 0.2289(5) 0.3797(4) 0.0133(3)
C27 C 0.1541(5) 0.2455(4) 0.0672(3)
C28 C 0.1174(8) 0.1069(6) -0.0171(6)
H18 H 0.1541(8) 0.0751(6) -0.0753(6)
H19 H 0.0178(8) 0.1298(6) -0.0150(6)
H20 H 0.1288(8) 0.0580(6) 0.0350(6)
C29 C 0.4992(5) 0.3171(3) -0.0109(3)
C30 C 0.4757(7) 0.4474(4) -0.1314(4)
H21 H 0.4410(7) 0.4602(4) -0.1902(4)
H22 H 0.5759(7) 0.4558(4) -0.1411(4)
H23 H 0.4249(7) 0.4951(4) -0.0871(4)
C31 C 0.6473(5) 0.2993(4) -0.0062(3)
C32 C 0.7587(5) 0.3050(4) -0.0922(3)
C33 C 0.7551(6) 0.2489(4) -0.1695(3)
H24 H 0.6791(6) 0.2103(4) -0.1693(3)
C34 C 0.8642(6) 0.2502(4) -0.2472(3)
H25 H 0.8608(6) 0.2116(4) -0.2980(3)
C35 C 0.9771(5) 0.3075(4) -0.2498(3)
H26 H 1.0504(5) 0.3081(4) -0.3016(3)
C36 C 0.9782(5) 0.3639(4) -0.1737(3)
C37 C 0.8736(5) 0.3636(4) -0.0938(3)
H27 H 0.8794(5) 0.4012(4) -0.0427(3)
C38 C 0.6858(5) 0.2722(3) 0.0807(3)
H28 H 0.7828(5) 0.2627(3) 0.0844(3)
C39 C 0.5891(5) 0.2582(3) 0.1629(3)
C40 C 0.6384(5) 0.2332(3) 0.2576(3)
C41 C 0.7128(5) 0.3241(4) 0.2796(3)
H29 H 0.7448(5) 0.3096(4) 0.3392(3)
H30 H 0.6468(5) 0.3852(4) 0.2822(3)
H31 H 0.7935(5) 0.3343(4) 0.2310(3)
C42 C 0.7435(5) 0.1351(4) 0.2531(3)
H32 H 0.7743(5) 0.1198(4) 0.3131(3)
H33 H 0.8250(5) 0.1456(4) 0.2053(3)
H34 H 0.6971(5) 0.0787(4) 0.2382(3)
#END
