
#######################################################################
#
#                 Cambridge Crystallographic Data Centre
#                                CCDC
#
#######################################################################
#
# If this CIF has been generated from an entry in the Cambridge
# Structural Database, then it will include bibliographic, chemical,
# crystal, experimental, refinement or atomic coordinate data resulting
# from the CCDC's data processing and validation procedures.
#
#######################################################################

data_CSD_CIF_ADUSAV
_audit_creation_date 2013-09-17
_audit_creation_method CSD-ConQuest-V1
_database_code_CSD ADUSAV
_database_code_depnum_ccdc_archive 'CCDC 921617'
_chemical_formula_sum 'C26 H30 N2 O5'
_chemical_formula_moiety
;
C26 H30 N2 O5
;
_journal_coden_Cambridge 182
_journal_volume 49
_journal_year 2013
_journal_page_first 9962
_journal_name_full 'Chem.Commun. '
loop_
_publ_author_name
"Tista Sengupta"
"S.Khamarui"
"S.Samanta"
"D.K.Maiti"
_chemical_name_systematic
;
Ethyl 
3-(2-(2-methoxyphenyl)vinyl)-1-(4-methylphenyl)-2-nitrotetrahydro-1H-pyrrolizi
ne-7a(5H)-carboxylate
;
_cell_volume   2408.066
_exptl_crystal_density_diffrn 1.243
_diffrn_ambient_temperature 296
#These two values have been output from a single CSD field.
_refine_ls_R_factor_gt 0.0563
_refine_ls_wR_factor_gt 0.0563
_symmetry_cell_setting triclinic
_symmetry_space_group_name_H-M 'P -1'
_symmetry_Int_Tables_number 2
loop_
_symmetry_equiv_pos_site_id
_symmetry_equiv_pos_as_xyz
1 x,y,z
2 -x,-y,-z
_cell_length_a 8.5277(8)
_cell_length_b 11.7075(12)
_cell_length_c 24.388(2)
_cell_angle_alpha 87.450(4)
_cell_angle_beta 88.887(4)
_cell_angle_gamma 81.918(4)
_cell_formula_units_Z 4
loop_
_atom_type_symbol
_atom_type_radius_bond
C 0.68
H 0.23
N 0.68
O 0.68
loop_
_atom_site_label
_atom_site_type_symbol
_atom_site_fract_x
_atom_site_fract_y
_atom_site_fract_z
C1 C -0.0994(4) 0.8113(3) 0.52856(13)
H1 H -0.18820 0.84660 0.50650
H2 H -0.11590 0.83690 0.56580
N1 N 0.0488(3) 0.84345(18) 0.50574(8)
O1 O 0.2864(3) 1.0411(2) 0.71797(9)
C2 C -0.0855(6) 0.6853(4) 0.5280(3)
H3 H -0.14840 0.63990 0.54840
H4 H -0.172(9) 0.678(6) 0.502(3)
N2 N 0.4526(3) 0.8600(2) 0.54966(9)
O2 O 0.0742(3) 0.7148(2) 0.38040(9)
C3 C 0.0432(4) 0.6420(3) 0.49039(14)
H5 H 0.00110 0.61310 0.45790
H6 H 0.11450 0.58010 0.50820
O3 O 0.1786(2) 0.87249(17) 0.39975(7)
C4 C 0.1306(3) 0.7458(2) 0.47499(11)
O4 O 0.4796(3) 0.95607(19) 0.55944(9)
C5 C 0.3068(3) 0.7331(2) 0.49317(10)
H7 H 0.31680 0.68090 0.52580
O5 O 0.5252(3) 0.7716(2) 0.56940(9)
C6 C 0.3164(3) 0.8534(2) 0.5122(1)
H8 H 0.32450 0.90560 0.48010
C7 C 0.1582(3) 0.8895(2) 0.54216(10)
H9 H 0.13510 0.97390 0.54060
C8 C 0.1601(3) 0.8470(2) 0.60137(11)
H10 H 0.16010 0.76850 0.60900
C9 C 0.1618(3) 0.9149(2) 0.64281(11)
H11 H 0.15950 0.99330 0.63430
C10 C 0.1670(4) 0.8785(3) 0.70138(11)
C11 C 0.1061(4) 0.7801(3) 0.72063(13)
H12 H 0.05830 0.73740 0.69620
C12 C 0.1151(5) 0.7444(4) 0.77536(15)
H13 H 0.07270 0.67880 0.78770
C13 C 0.1867(5) 0.8063(5) 0.81111(15)
H14 H 0.19660 0.78060 0.84770
C14 C 0.2444(4) 0.9059(4) 0.79410(13)
H15 H 0.29080 0.94840 0.81900
C15 C 0.2325(4) 0.9424(3) 0.73911(12)
C16 C 0.3489(6) 1.1142(4) 0.75415(18)
H16 H 0.27110 1.13780 0.78190
H17 H 0.37570 1.18110 0.73390
H18 H 0.44210 1.07320 0.77110
C17 C 0.4296(3) 0.6834(2) 0.45173(11)
C18 C 0.4391(4) 0.5692(2) 0.43855(13)
H19 H 0.37010 0.52330 0.45550
C19 C 0.5493(4) 0.5216(3) 0.40067(13)
H20 H 0.55100 0.44490 0.39190
C20 C 0.6565(4) 0.5852(3) 0.37564(13)
C21 C 0.6479(4) 0.6980(3) 0.38886(14)
H21 H 0.71860 0.74300 0.37230
C22 C 0.5370(4) 0.7473(3) 0.42607(12)
H22 H 0.53450 0.82450 0.43400
C23 C 0.7794(5) 0.5308(4) 0.33546(17)
H23 H 0.80190 0.58790 0.30810
H24 H 0.73970 0.46890 0.31820
H25 H 0.87470 0.50120 0.35470
C24 C 0.1216(3) 0.7744(3) 0.41347(12)
C25 C 0.1984(4) 0.8976(3) 0.34132(12)
H26 H 0.26630 0.83450 0.32480
H27 H 0.09650 0.90720 0.32340
C26 C 0.2692(5) 1.0032(4) 0.33445(14)
H28 H 0.20210 1.06490 0.35140
H29 H 0.28120 1.02210 0.29600
H30 H 0.37120 0.99230 0.35140
N3 N 0.1158(3) 0.3370(2) 0.00615(9)
N4 N 0.5271(3) 0.3270(2) 0.04771(9)
O6 O 0.1322(3) 0.5842(2) 0.21181(8)
O7 O 0.5817(3) 0.4152(2) 0.05537(9)
O8 O 0.5763(3) 0.2349(2) 0.07051(9)
O9 O 0.1199(3) 0.2366(2) -0.12434(10)
O10 O 0.2383(3) 0.3820(2) -0.09802(9)
C27 C -0.0279(4) 0.3036(3) 0.03224(15)
H31 H -0.02920 0.31710 0.07120
H32 H -0.12130 0.34800 0.01590
C28 C -0.0252(7) 0.1831(4) 0.0235(2)
H33 H -0.00230 0.13930 0.05780
H34 H -0.12880 0.16970 0.01170
C29 C 0.0908(4) 0.1433(3) -0.01680(14)
H35 H 0.04030 0.12430 -0.04980
H36 H 0.15870 0.07520 -0.00290
C30 C 0.1873(3) 0.2435(2) -0.02887(11)
C31 C 0.3645(3) 0.2194(2) -0.0115(1)
H37 H 0.37060 0.16430 0.02010
C32 C 0.3894(3) 0.3350(2) 0.00979(10)
H38 H 0.40640 0.38770 -0.02140
C33 C 0.2334(3) 0.3814(2) 0.03963(11)
H39 H 0.21750 0.46590 0.03540
C34 C 0.2372(4) 0.3487(2) 0.09978(11)
H40 H 0.23870 0.27130 0.11060
C35 C 0.2385(3) 0.4246(2) 0.13804(11)
H41 H 0.22150 0.50200 0.12640
C36 C 0.2638(4) 0.4000(3) 0.19712(11)
C37 C 0.2114(4) 0.4835(3) 0.23442(12)
C38 C 0.2360(5) 0.4630(4) 0.28991(13)
H42 H 0.19890 0.51930 0.31460
C39 C 0.3153(5) 0.3593(4) 0.30846(16)
H43 H 0.32980 0.34490 0.34600
C40 C 0.3742(5) 0.2758(4) 0.27253(18)
H44 H 0.43020 0.20620 0.28540
C41 C 0.3485(4) 0.2971(3) 0.21717(14)
H45 H 0.38890 0.24130 0.19270
C42 C 0.1040(6) 0.6821(3) 0.24374(14)
H46 H 0.03870 0.66630 0.27490
H47 H 0.05110 0.74600 0.22200
H48 H 0.20300 0.70100 0.25610
C43 C 0.4824(3) 0.1685(2) -0.05391(10)
C44 C 0.4779(4) 0.0589(2) -0.07149(11)
H49 H 0.40050 0.01670 -0.05740
C45 C 0.5862(4) 0.0102(3) -0.10968(12)
H50 H 0.57910 -0.06370 -0.12100
C46 C 0.7041(4) 0.0680(3) -0.13141(11)
C47 C 0.7089(4) 0.1773(3) -0.11430(13)
H51 H 0.78670 0.21910 -0.12850
C48 C 0.6004(4) 0.2270(3) -0.07624(12)
H52 H 0.60700 0.30130 -0.06540
C49 C 0.8257(5) 0.0133(3) -0.17215(15)
H53 H 0.81830 0.05840 -0.20610
H54 H 0.80580 -0.06360 -0.17860
H55 H 0.92990 0.01050 -0.15750
C50 C 0.1754(4) 0.2853(3) -0.08888(12)
C51 C 0.2330(6) 0.4359(4) -0.15288(16)
H56 H 0.16950 0.39570 -0.17600
H57 H 0.18230 0.51520 -0.15110
C52 C 0.3828(6) 0.4347(5) -0.17637(18)
H58 H 0.45370 0.45620 -0.14980
H59 H 0.37730 0.48850 -0.20740
H60 H 0.42080 0.35850 -0.18820
#END
