
#######################################################################
#
#                 Cambridge Crystallographic Data Centre
#                                CCDC
#
#######################################################################
#
# If this CIF has been generated from an entry in the Cambridge
# Structural Database, then it will include bibliographic, chemical,
# crystal, experimental, refinement or atomic coordinate data resulting
# from the CCDC's data processing and validation procedures.
#
#######################################################################

data_CSD_CIF_ADUWEB
_audit_creation_date 2002-05-15
_audit_creation_method CSD-ConQuest-V1
_database_code_CSD ADUWEB
_database_code_depnum_ccdc_archive 'CCDC 182750'
_chemical_formula_sum 'C16 H25 N1 O4'
_chemical_formula_moiety
;
C16 H25 N1 O4
;
_journal_coden_Cambridge 1336
_journal_volume 4
_journal_year 2002
_journal_page_first 671
_journal_name_full 'Org.Lett. '
loop_
_publ_author_name
"M.M.Wagenaar"
"D.M.Gibson"
"J.Clardy"
_chemical_name_systematic
;
Akanthomycim
;
_cell_volume   3277.751
_exptl_crystal_colour 'colorless'
_exptl_crystal_density_diffrn 1.197
_exptl_special_details
;
antibacterial activity

;
_exptl_crystal_description 'plate'
_diffrn_ambient_temperature 173
#These two values have been output from a single CSD field.
_refine_ls_R_factor_gt 0.051
_refine_ls_wR_factor_gt 0.051
_chemical_compound_source
;
Akanthomyces gracilis (ARS 2910) isolated from ant Paltothyreus
;
_symmetry_cell_setting orthorhombic
_symmetry_space_group_name_H-M 'P 21 21 21'
_symmetry_Int_Tables_number 19
loop_
_symmetry_equiv_pos_site_id
_symmetry_equiv_pos_as_xyz
1 x,y,z
2 1/2-x,-y,1/2+z
3 -x,1/2+y,1/2-z
4 1/2+x,1/2-y,-z
_cell_length_a 9.2802(6)
_cell_length_b 10.9945(8)
_cell_length_c 32.125(2)
_cell_angle_alpha 90
_cell_angle_beta 90
_cell_angle_gamma 90
_cell_formula_units_Z 8
loop_
_atom_type_symbol
_atom_type_radius_bond
C 0.68
H 0.23
N 0.68
O 0.68
loop_
_atom_site_label
_atom_site_type_symbol
_atom_site_fract_x
_atom_site_fract_y
_atom_site_fract_z
O1 O 1.0100(4) 0.0301(3) 0.38109(11)
O2 O 1.2101(4) 0.0895(3) 0.43674(12)
O3 O 0.6427(4) 0.1046(4) 0.47990(12)
O4 O 0.8580(5) 0.0457(4) 0.31147(13)
N1 N 1.0639(5) 0.0926(4) 0.44708(16)
C1 C 0.9647(6) 0.0618(5) 0.41680(19)
C2 C 1.0299(7) 0.1229(5) 0.48687(19)
H1 H 1.10400 0.14310 0.50610
C3 C 0.8921(7) 0.1244(5) 0.49899(16)
H2 H 0.86810 0.14240 0.52710
C4 C 0.7823(7) 0.0989(5) 0.46964(18)
C5 C 0.8176(6) 0.0690(5) 0.42899(17)
C6 C 0.7019(6) 0.0499(5) 0.39591(15)
H3 H 0.60920 0.06620 0.41080
C7 C 0.7139(6) 0.1557(5) 0.36316(16)
H4 H 0.80330 0.20110 0.37090
C8 C 0.7323(6) 0.1241(5) 0.31721(16)
C9 C 0.6045(7) 0.0589(6) 0.2969(2)
C10 C 0.5880(6) -0.0749(6) 0.30680(15)
H5 H 0.67950 -0.11650 0.29850
C11 C 0.5613(6) -0.1034(6) 0.35264(15)
H6 H 0.53000 -0.18920 0.35490
H7 H 0.48070 -0.05200 0.36250
C12 C 0.6900(6) -0.0844(5) 0.38194(16)
H8 H 0.78090 -0.10940 0.36760
C13 C 0.5912(6) 0.2445(5) 0.37067(16)
H9 H 0.59730 0.31120 0.35050
H10 H 0.59830 0.27730 0.39900
H11 H 0.49890 0.20230 0.36740
C14 C 0.7651(6) 0.2399(5) 0.29277(15)
H12 H 0.77720 0.21980 0.26320
H13 H 0.85390 0.27670 0.30340
H14 H 0.68520 0.29740 0.29600
C15 C 0.4668(6) -0.1272(6) 0.27993(17)
H15 H 0.48510 -0.10790 0.25060
H16 H 0.37470 -0.09150 0.28850
H17 H 0.46300 -0.21570 0.28350
C16 C 0.6674(6) -0.1631(5) 0.42078(16)
H18 H 0.65950 -0.24860 0.41260
H19 H 0.57880 -0.13780 0.43500
H20 H 0.74950 -0.15300 0.43960
H21 H 0.620(4) 0.068(4) 0.2650(14)
H22 H 0.519(5) 0.109(4) 0.3031(14)
H23 H 1.215(9) 0.138(8) 0.400(2)
H24 H 0.904(5) 0.039(5) 0.3308(15)
H25 H 0.630(8) 0.107(6) 0.511(2)
O5 O 1.1988(4) 0.2684(3) 0.38339(12)
O6 O 1.2359(4) 0.0730(4) 0.33683(13)
O7 O 1.0793(4) 0.5031(4) 0.26572(13)
O8 O 1.0881(4) 0.4102(4) 0.44185(11)
N2 N 1.1923(5) 0.1827(5) 0.31924(15)
C17 C 1.1784(6) 0.2823(6) 0.3444(2)
C18 C 1.1714(6) 0.1839(7) 0.27773(19)
H26 H 1.18260 0.11170 0.26180
C19 C 1.1340(7) 0.2900(7) 0.25905(19)
H27 H 1.11710 0.29260 0.22990
C20 C 1.1205(6) 0.3964(6) 0.28329(18)
C21 C 1.1405(6) 0.3937(6) 0.32562(17)
C22 C 1.1203(5) 0.5056(5) 0.35292(15)
H28 H 1.09870 0.57320 0.33300
C23 C 0.9786(5) 0.4888(5) 0.37865(15)
H29 H 0.94800 0.40300 0.37330
C24 C 0.9862(6) 0.4999(6) 0.42657(16)
C25 C 1.0285(7) 0.6246(7) 0.4434(2)
C26 C 1.1857(7) 0.6619(5) 0.44091(17)
H30 H 1.24400 0.60140 0.45690
C27 C 1.2437(8) 0.6670(6) 0.3968(2)
C28 C 1.2625(6) 0.5433(5) 0.37439(17)
H31 H 1.29050 0.47980 0.39510
C29 C 0.8603(6) 0.5676(6) 0.35933(16)
H32 H 0.77100 0.55780 0.37530
H33 H 0.84410 0.54230 0.33050
H34 H 0.89010 0.65310 0.35990
C30 C 0.8420(6) 0.4639(6) 0.44609(16)
H35 H 0.84840 0.47130 0.47640
H36 H 0.81920 0.37970 0.43860
H37 H 0.76600 0.51790 0.43570
C31 C 1.2038(8) 0.7874(6) 0.46166(18)
H38 H 1.16540 0.78440 0.49010
H39 H 1.15110 0.84870 0.44560
H40 H 1.30620 0.80890 0.46250
C32 C 1.3814(6) 0.5544(6) 0.34098(16)
H41 H 1.39230 0.47650 0.32650
H42 H 1.47270 0.57640 0.35430
H43 H 1.35470 0.61750 0.32090
H44 H 1.007(5) 0.626(4) 0.4702(15)
H45 H 0.967(5) 0.689(4) 0.4263(14)
H46 H 1.162(5) 0.055(5) 0.3503(14)
H47 H 1.103(6) 0.508(6) 0.2397(17)
H48 H 1.334(5) 0.703(4) 0.3990(12)
H49 H 1.183(6) 0.728(5) 0.3756(16)
H50 H 1.138(6) 0.354(5) 0.4173(18)
#END
