
#######################################################################
#
#                 Cambridge Crystallographic Data Centre
#                                CCDC
#
#######################################################################
#
# If this CIF has been generated from an entry in the Cambridge
# Structural Database, then it will include bibliographic, chemical,
# crystal, experimental, refinement or atomic coordinate data resulting
# from the CCDC's data processing and validation procedures.
#
#######################################################################

data_CSD_CIF_AFAZUD
_audit_creation_date 2007-10-17
_audit_creation_method CSD-ConQuest-V1
_database_code_CSD AFAZUD
_database_code_depnum_ccdc_archive 'CCDC 641678'
_chemical_formula_sum 'C8 H10 N2 O4'
_chemical_formula_moiety
;
C8 H10 N2 O4
;
_journal_coden_Cambridge 16
_journal_volume 63
_journal_year 2007
_journal_page_first 8027
_journal_name_full 'Tetrahedron '
loop_
_publ_author_name
"C.Ayats"
"P.Camps"
"M.Font-Bardia"
"X.Solans"
"S.Vazquez"
_chemical_name_systematic
;
(+-)-1,3-Dinitrotricyclo(3.3.0.0^3,7^)octane
;
_cell_volume   1802.530
_exptl_crystal_colour 'white'
_exptl_crystal_density_diffrn 1.461
_exptl_crystal_description 'prism'
_diffrn_ambient_temperature 293
#These two values have been output from a single CSD field.
_refine_ls_R_factor_gt 0.0609
_refine_ls_wR_factor_gt 0.0609
_symmetry_cell_setting orthorhombic
_symmetry_space_group_name_H-M 'F d d 2'
_symmetry_Int_Tables_number 43
loop_
_symmetry_equiv_pos_site_id
_symmetry_equiv_pos_as_xyz
1 x,y,z
2 -x,-y,z
3 1/4-x,1/4+y,1/4+z
4 3/4+x,3/4-y,1/4+z
5 x,1/2+y,1/2+z
6 -x,1/2-y,1/2+z
7 1/4-x,3/4+y,3/4+z
8 3/4+x,1/4-y,3/4+z
9 1/2+x,y,1/2+z
10 1/2-x,-y,1/2+z
11 3/4-x,1/4+y,3/4+z
12 1/4+x,3/4-y,3/4+z
13 1/2+x,1/2+y,z
14 1/2-x,1/2-y,z
15 3/4-x,3/4+y,1/4+z
16 1/4+x,1/4-y,1/4+z
_cell_length_a 6.649(6)
_cell_length_b 22.650(13)
_cell_length_c 11.969(9)
_cell_angle_alpha 90
_cell_angle_beta 90
_cell_angle_gamma 90
_cell_formula_units_Z 8
loop_
_atom_type_symbol
_atom_type_radius_bond
C 0.68
H 0.23
N 0.68
O 0.68
loop_
_atom_site_label
_atom_site_type_symbol
_atom_site_fract_x
_atom_site_fract_y
_atom_site_fract_z
O1 O 0.5805(8) 0.10680(16) 0.0567(4)
O2 O 0.3618(5) 0.17952(16) 0.1141(4)
N1 N 0.5361(5) 0.16180(12) 0.0694(2)
C1 C 0.6641(4) 0.20962(11) 0.0317(2)
C2 C 0.8638(7) 0.1899(2) -0.0079(7)
H1 H 0.85480 0.15870 -0.06320
H2 H 0.95140 0.17780 0.05270
C3 C 0.5750(5) 0.2515(2) -0.0583(3)
H3 H 0.43580 0.24580 -0.08310
C4 C 0.75000 0.25000 -0.1473(5)
H4 H 0.74660 0.21490 -0.19360
H5 H 0.75340 0.28510 -0.19360
C5 C 0.75000 0.25000 0.1207(4)
H6 H 0.85190 0.23130 0.16670
H7 H 0.64810 0.26870 0.16670
O1M O 0.9195(8) 0.39320(16) 0.0567(4)
O2M O 1.1382(5) 0.32048(16) 0.1141(4)
N1M N 0.9639(5) 0.33820(12) 0.0694(2)
C1M C 0.8359(4) 0.29038(11) 0.0317(2)
C2M C 0.6362(7) 0.3101(2) -0.0079(7)
H1M H 0.64520 0.34130 -0.06320
H2M H 0.54860 0.32220 0.05270
C3M C 0.9250(5) 0.2485(2) -0.0583(3)
H3M H 1.06420 0.25420 -0.08310
#END
