
#######################################################################
#
#                 Cambridge Crystallographic Data Centre
#                                CCDC
#
#######################################################################
#
# If this CIF has been generated from an entry in the Cambridge
# Structural Database, then it will include bibliographic, chemical,
# crystal, experimental, refinement or atomic coordinate data resulting
# from the CCDC's data processing and validation procedures.
#
#######################################################################

data_CSD_CIF_AFENIJ
_audit_creation_date 2007-10-17
_audit_creation_method CSD-ConQuest-V1
_database_code_CSD AFENIJ
_database_code_depnum_ccdc_archive 'CCDC 660244'
_chemical_formula_sum 'C32 H29 N3 O4'
_chemical_formula_moiety
;
C32 H29 N3 O4
;
_journal_coeditor_code "IUCr CF2131"
_journal_coden_Cambridge 1370
_journal_volume 63
_journal_year 2007
_journal_page_first o3750
_journal_name_full 'Acta Crystallogr.,Sect.E:Struct.Rep.Online '
loop_
_publ_author_name
"N.Srinivasan"
"M.S.Nandhini"
"R.Ranjithkumar"
"S.Perumal"
"R.V.Krishnakumar"
_chemical_name_systematic
;
8-((E)-4-Methoxybenzylidene)-4-(4-methoxyphenyl)-3-(3-phenyl-1,2,4-oxadiazol-5
-yl)-5,6,7,8-tetrahydro-4H-chromen-2-amine
;
_cell_volume   1325.824
_exptl_crystal_colour 'colorless'
_exptl_crystal_density_diffrn 1.301
_exptl_crystal_description 'block'
_exptl_crystal_preparation 'ethyl acetate'
_diffrn_ambient_temperature 298
#These two values have been output from a single CSD field.
_refine_ls_R_factor_gt 0.0543
_refine_ls_wR_factor_gt 0.0543
_symmetry_cell_setting triclinic
_symmetry_space_group_name_H-M 'P -1'
_symmetry_Int_Tables_number 2
loop_
_symmetry_equiv_pos_site_id
_symmetry_equiv_pos_as_xyz
1 x,y,z
2 -x,-y,-z
_cell_length_a 10.5014(3)
_cell_length_b 11.3187(4)
_cell_length_c 11.6458(4)
_cell_angle_alpha 91.07(2)
_cell_angle_beta 98.45(2)
_cell_angle_gamma 104.10(3)
_cell_formula_units_Z 2
loop_
_atom_type_symbol
_atom_type_radius_bond
C 0.68
H 0.23
N 0.68
O 0.68
loop_
_atom_site_label
_atom_site_type_symbol
_atom_site_fract_x
_atom_site_fract_y
_atom_site_fract_z
O1 O 0.44750(9) -0.06770(9) 0.74873(8)
O2 O 0.77429(10) 0.29001(9) 0.69489(8)
O3 O 0.03663(13) -0.7014(1) 1.00681(11)
O4 O 1.11417(11) -0.09930(11) 0.60871(11)
N1 N 0.39565(13) 0.05173(14) 0.61084(12)
N2 N 0.78419(13) 0.39013(11) 0.62222(11)
N3 N 0.59051(11) 0.25039(10) 0.56538(9)
C1 C 0.49210(13) 0.03321(12) 0.69183(11)
C2 C 0.61886(12) 0.10433(11) 0.71726(10)
C3 C 0.72111(12) 0.06893(11) 0.80595(10)
H1 H 0.76680 0.14090 0.85750
C4 C 0.65386(12) -0.02897(11) 0.87854(10)
C5 C 0.52803(12) -0.09250(11) 0.84756(10)
C6 C 0.45949(13) -0.19525(12) 0.90757(11)
C7 C 0.33702(13) -0.26063(12) 0.86451(11)
H2 H 0.29570 -0.23240 0.79820
C8 C 0.25958(13) -0.37157(12) 0.90901(11)
C9 C 0.25819(14) -0.39269(13) 1.02612(12)
H3 H 0.30730 -0.33230 1.08160
C10 C 0.18564(14) -0.50118(13) 1.06275(12)
H4 H 0.18720 -0.51320 1.14170
C11 C 0.11123(14) -0.59097(12) 0.98113(13)
C12 C 0.10668(17) -0.57044(14) 0.86384(13)
H5 H 0.05430 -0.62960 0.80860
C13 C 0.17943(15) -0.46289(13) 0.82911(12)
H6 H 0.17520 -0.45050 0.75010
C14 C 0.0408(2) -0.72963(17) 1.12512(17)
H7 H -0.01560 -0.80940 1.13040
H8 H 0.01040 -0.67040 1.16670
H9 H 0.13040 -0.72820 1.15850
C15 C 0.67314(13) 0.36061(11) 0.54936(11)
C16 C 0.65582(12) 0.21169(11) 0.65603(10)
C17 C 0.64071(14) 0.43903(12) 0.45653(11)
C18 C 0.53368(18) 0.39616(16) 0.37008(14)
H10 H 0.48210 0.31660 0.36970
C19 C 0.5029(2) 0.4720(2) 0.28346(16)
H11 H 0.43100 0.44280 0.22480
C20 C 0.5776(2) 0.58886(19) 0.28403(16)
H12 H 0.55590 0.63960 0.22650
C21 C 0.6838(3) 0.63113(17) 0.36871(17)
H13 H 0.73500 0.71070 0.36830
C22 C 0.7166(2) 0.55744(14) 0.45519(15)
H14 H 0.78970 0.58720 0.51260
C23 C 0.82502(11) 0.02492(10) 0.74932(9)
C24 C 0.96020(12) 0.07784(12) 0.78085(12)
H15 H 0.98830 0.14280 0.83630
C25 C 1.05339(13) 0.03552(13) 0.73117(13)
H16 H 1.14330 0.07290 0.75250
C26 C 1.01362(13) -0.06205(12) 0.65001(11)
C27 C 0.87972(13) -0.11618(13) 0.61681(12)
H17 H 0.85200 -0.18140 0.56160
C28 C 0.78722(12) -0.07194(12) 0.66695(11)
H18 H 0.69720 -0.10850 0.64450
C29 C 1.0822(2) -0.2066(2) 0.5367(2)
H19 H 1.16190 -0.22090 0.51440
H20 H 1.02250 -0.19800 0.46840
H21 H 1.04040 -0.27420 0.57800
C30 C 0.54074(16) -0.22266(16) 1.01766(13)
H22 H 0.52360 -0.17790 1.08310
H23 H 0.51240 -0.30900 1.03010
C31 C 0.68687(16) -0.18972(15) 1.01387(15)
H24 H 0.70590 -0.24260 0.95570
H25 H 0.73400 -0.20310 1.08860
C32 C 0.73658(14) -0.05845(13) 0.98560(11)
H26 H 0.73340 -0.00520 1.05080
H27 H 0.82840 -0.04390 0.97330
H28 H 0.3161(19) 0.0034(17) 0.6047(16)
H29 H 0.4161(19) 0.1154(18) 0.5695(17)
#END
