
#######################################################################
#
#                 Cambridge Crystallographic Data Centre
#                                CCDC
#
#######################################################################
#
# If this CIF has been generated from an entry in the Cambridge
# Structural Database, then it will include bibliographic, chemical,
# crystal, experimental, refinement or atomic coordinate data resulting
# from the CCDC's data processing and validation procedures.
#
#######################################################################

data_CSD_CIF_AFEPUX
_audit_creation_date 2007-10-17
_audit_creation_method CSD-ConQuest-V1
_database_code_CSD AFEPUX
_database_code_depnum_ccdc_archive 'CCDC 660251'
_chemical_formula_sum 'C7 H6 N6 O6'
_chemical_formula_moiety
;
C7 H6 N6 O6
;
_journal_coeditor_code "IUCr BT2462"
_journal_coden_Cambridge 1370
_journal_volume 63
_journal_year 2007
_journal_page_first o3759
_journal_name_full 'Acta Crystallogr.,Sect.E:Struct.Rep.Online '
loop_
_publ_author_name
"G.Smith"
"U.D.Wermuth"
"J.M.White"
_chemical_name_systematic
;
(2,4,6-Trinitrophenyl)guanidine
;
_cell_volume    500.084
_exptl_crystal_colour 'pale yellow'
_exptl_crystal_density_diffrn 1.794
_exptl_crystal_description 'block'
_diffrn_ambient_temperature 130
#These two values have been output from a single CSD field.
_refine_ls_R_factor_gt 0.0383
_refine_ls_wR_factor_gt 0.0383
_symmetry_cell_setting triclinic
_symmetry_space_group_name_H-M 'P -1'
_symmetry_Int_Tables_number 2
loop_
_symmetry_equiv_pos_site_id
_symmetry_equiv_pos_as_xyz
1 x,y,z
2 -x,-y,-z
_cell_length_a 7.6596(10)
_cell_length_b 7.7316(10)
_cell_length_c 9.0411(12)
_cell_angle_alpha 104.045(3)
_cell_angle_beta 95.004(2)
_cell_angle_gamma 103.121(2)
_cell_formula_units_Z 2
loop_
_atom_type_symbol
_atom_type_radius_bond
C 0.68
H 0.23
N 0.68
O 0.68
loop_
_atom_site_label
_atom_site_type_symbol
_atom_site_fract_x
_atom_site_fract_y
_atom_site_fract_z
O1 O 0.55099(19) 0.2258(2) 0.77212(16)
O2 O 0.5482(2) -0.0210(2) 0.84817(16)
O3 O 1.0096(2) 0.1267(2) 1.29934(15)
O4 O 1.2715(2) 0.3153(2) 1.30851(16)
O5 O 1.3738(2) 0.5820(2) 0.86527(16)
O6 O 1.2606(2) 0.3618(2) 0.65498(16)
N1 N 0.8963(2) 0.3241(2) 0.66327(19)
N2 N 0.6276(2) 0.1290(3) 0.83048(19)
N3 N 1.1174(3) 0.2305(2) 1.24375(19)
N4 N 1.2622(2) 0.4378(2) 0.79090(19)
N5 N 0.7296(3) 0.0290(3) 0.5177(2)
N6 N 0.6838(3) 0.2908(3) 0.4587(2)
C1 C 0.9402(3) 0.2847(3) 0.7955(2)
C2 C 0.8224(3) 0.1947(3) 0.8841(2)
C3 C 0.8779(3) 0.1727(3) 1.0261(2)
C4 C 1.0577(3) 0.2486(3) 1.0925(2)
C5 C 1.1831(3) 0.3402(3) 1.0166(2)
C6 C 1.1241(3) 0.3516(3) 0.8732(2)
C7 C 0.7699(3) 0.2148(3) 0.5494(2)
H1 H 0.79440 0.10670 1.07740
H2 H 1.30590 0.39310 1.06320
H3 H 0.810(3) -0.016(3) 0.553(2)
H4 H 0.658(3) -0.040(3) 0.431(3)
H5 H 0.694(3) 0.414(4) 0.486(3)
H6 H 0.612(3) 0.231(3) 0.382(2)
#END
