
#######################################################################
#
#                 Cambridge Crystallographic Data Centre
#                                CCDC
#
#######################################################################
#
# If this CIF has been generated from an entry in the Cambridge
# Structural Database, then it will include bibliographic, chemical,
# crystal, experimental, refinement or atomic coordinate data resulting
# from the CCDC's data processing and validation procedures.
#
#######################################################################

data_CSD_CIF_AFIFUS
_audit_creation_date 2013-09-18
_audit_creation_method CSD-ConQuest-V1
_database_code_CSD AFIFUS
_database_code_depnum_ccdc_archive 'CCDC 961760'
_chemical_formula_sum 'C29 H23 N3 O4'
_chemical_formula_moiety
;
C29 H23 N3 O4
;
_journal_coeditor_code "IUCr SU2607"
_journal_coden_Cambridge 1370
_journal_volume 69
_journal_year 2013
_journal_page_first o1045
_journal_name_full 'Acta Crystallogr.,Sect.E:Struct.Rep.Online '
loop_
_publ_author_name
"S.K.Devi"
"T.Srinivasan"
"J.N.S.Rao"
"R.Raghunathan"
"D.Velmurugan"
_chemical_name_systematic
;
2-Methyl-4-(1-naphthyl)-3a-nitro-2,3,3a,9b-tetrahydro-4H-spiro[chromeno[3,4-c]
pyrrole-1,3'-indol]-2'(1'H)-one
;
_cell_volume   2352.614
_exptl_crystal_colour 'colorless'
_exptl_crystal_density_diffrn 1.348
_exptl_crystal_description 'Block'
_diffrn_ambient_temperature 293
#These two values have been output from a single CSD field.
_refine_ls_R_factor_gt 0.0476
_refine_ls_wR_factor_gt 0.0476
_symmetry_cell_setting monoclinic
_symmetry_space_group_name_H-M 'P 21/n'
_symmetry_Int_Tables_number 14
loop_
_symmetry_equiv_pos_site_id
_symmetry_equiv_pos_as_xyz
1 x,y,z
2 1/2-x,1/2+y,1/2-z
3 -x,-y,-z
4 -1/2+x,-1/2-y,-1/2+z
_cell_length_a 9.4359(6)
_cell_length_b 16.5086(11)
_cell_length_c 15.1964(10)
_cell_angle_alpha 90
_cell_angle_beta 96.363(4)
_cell_angle_gamma 90
_cell_formula_units_Z 4
loop_
_atom_type_symbol
_atom_type_radius_bond
C 0.68
H 0.23
N 0.68
O 0.68
loop_
_atom_site_label
_atom_site_type_symbol
_atom_site_fract_x
_atom_site_fract_y
_atom_site_fract_z
C1 C 0.48112(16) 0.19305(10) 0.41572(11)
C2 C 0.44179(19) 0.19055(11) 0.32492(11)
H1 H 0.47910 0.22790 0.28790
C3 C 0.3479(2) 0.13283(12) 0.29034(13)
H2 H 0.32040 0.13140 0.22970
C4 C 0.29370(19) 0.07669(13) 0.34465(13)
H3 H 0.23000 0.03750 0.32060
C5 C 0.33401(17) 0.07866(12) 0.43511(12)
H4 H 0.29860 0.03990 0.47140
C6 C 0.42704(15) 0.13804(10) 0.47241(11)
C7 C 0.47639(14) 0.13939(9) 0.57035(10)
H5 H 0.53040 0.08930 0.58360
C8 C 0.57755(15) 0.21006(9) 0.59985(10)
C9 C 0.56344(17) 0.28055(9) 0.53218(10)
H6 H 0.46690 0.30270 0.53120
C10 C 0.66706(18) 0.34982(10) 0.55074(10)
C11 C 0.8044(2) 0.34132(13) 0.53052(12)
H7 H 0.83090 0.29360 0.50420
C12 C 0.9055(3) 0.40300(18) 0.54864(15)
H8 H 0.99880 0.39550 0.53590
C13 C 0.8670(3) 0.47382(17) 0.58491(16)
H9 H 0.93490 0.51420 0.59740
C14 C 0.7272(3) 0.48697(12) 0.60376(13)
C15 C 0.6841(5) 0.56123(15) 0.64053(17)
H10 H 0.75120 0.60200 0.65310
C16 C 0.5499(5) 0.57387(15) 0.65736(19)
H11 H 0.52500 0.62310 0.68130
C17 C 0.4470(4) 0.51399(14) 0.63942(16)
H12 H 0.35370 0.52370 0.65070
C18 C 0.4821(3) 0.44085(11) 0.60523(13)
H13 H 0.41230 0.40130 0.59400
C19 C 0.6225(2) 0.42464(10) 0.58675(11)
C20 C 0.54002(18) 0.23565(10) 0.69127(11)
H14 H 0.62500 0.23990 0.73320
H15 H 0.49060 0.28730 0.68830
C21 C 0.36114(16) 0.14308(9) 0.63575(11)
C22 C 0.28572(16) 0.06403(10) 0.64729(11)
C23 C 0.33684(19) -0.00967(11) 0.67741(14)
H16 H 0.43290 -0.01640 0.69740
C24 C 0.2425(2) -0.07411(12) 0.67744(16)
H17 H 0.27560 -0.12450 0.69800
C25 C 0.1010(2) -0.06438(13) 0.64754(17)
H18 H 0.03970 -0.10850 0.64740
C26 C 0.0477(2) 0.00972(14) 0.61763(16)
H19 H -0.04820 0.01640 0.59730
C27 C 0.14211(17) 0.07308(11) 0.61905(13)
C28 C 0.23476(18) 0.19965(12) 0.60220(14)
C29 C 0.3701(3) 0.19088(14) 0.79120(15)
H20 H 0.30390 0.23390 0.77480
H21 H 0.43660 0.20800 0.84010
H22 H 0.31920 0.14410 0.80810
N1 N 0.72963(13) 0.17834(8) 0.60492(9)
N2 N 0.44715(15) 0.17065(8) 0.71623(9)
N3 N 0.11545(15) 0.15370(11) 0.59269(13)
H23 H 0.0310(14) 0.1754(13) 0.5819(15)
O1 O 0.57898(12) 0.25128(7) 0.44517(7)
O2 O 0.75903(12) 0.13501(8) 0.54490(9)
O3 O 0.81715(14) 0.20033(10) 0.66412(10)
O4 O 0.24095(15) 0.27211(9) 0.58777(12)
#END
