
#######################################################################
#
#                 Cambridge Crystallographic Data Centre
#                                CCDC
#
#######################################################################
#
# If this CIF has been generated from an entry in the Cambridge
# Structural Database, then it will include bibliographic, chemical,
# crystal, experimental, refinement or atomic coordinate data resulting
# from the CCDC's data processing and validation procedures.
#
#######################################################################

data_CSD_CIF_AFIKIK
_audit_creation_date 2007-10-17
_audit_creation_method CSD-ConQuest-V1
_database_code_CSD AFIKIK
_database_code_depnum_ccdc_archive 'CCDC 652653'
_chemical_formula_sum 'C24 H34 N4 O4'
_chemical_formula_moiety
;
C24 H34 N4 O4
;
_journal_coeditor_code "IUCr HG2270"
_journal_coden_Cambridge 1370
_journal_volume 63
_journal_year 2007
_journal_page_first o3852
_journal_name_full 'Acta Crystallogr.,Sect.E:Struct.Rep.Online '
loop_
_publ_author_name
"Yan-Ping Zhang"
"Xiao Chen"
"Jun-Yan Shi"
"Li Xu"
"Wen-Kui Dong"
_chemical_name_systematic
;
5,5'-bis(Diethylamino)-2,2'-(ethylenedioxybis(nitrilomethylidyne))-diphenol
;
_cell_volume   1201.872
_exptl_crystal_colour 'colorless'
_exptl_crystal_density_diffrn 1.223
_exptl_crystal_description 'prism'
_exptl_crystal_preparation 'ethanol'
_diffrn_ambient_temperature 298
#These two values have been output from a single CSD field.
_refine_ls_R_factor_gt 0.0428
_refine_ls_wR_factor_gt 0.0428
_symmetry_cell_setting monoclinic
_symmetry_space_group_name_H-M 'P 21/c'
_symmetry_Int_Tables_number 14
loop_
_symmetry_equiv_pos_site_id
_symmetry_equiv_pos_as_xyz
1 x,y,z
2 -x,1/2+y,1/2-z
3 -x,-y,-z
4 x,-1/2-y,-1/2+z
_cell_length_a 7.3705(10)
_cell_length_b 18.386(2)
_cell_length_c 8.9368(16)
_cell_angle_alpha 90
_cell_angle_beta 97.063(2)
_cell_angle_gamma 90
_cell_formula_units_Z 2
loop_
_atom_type_symbol
_atom_type_radius_bond
C 0.68
H 0.23
N 0.68
O 0.68
loop_
_atom_site_label
_atom_site_type_symbol
_atom_site_fract_x
_atom_site_fract_y
_atom_site_fract_z
N1 N 0.7756(3) 0.48722(11) 0.1956(2)
N2 N 0.3985(2) 0.32076(11) 0.7116(2)
O1 O 0.7825(2) 0.52817(9) 0.06124(18)
O2 O 0.8711(2) 0.41916(11) 0.4589(2)
H1 H 0.88840 0.44240 0.38360
C1 C 0.9679(3) 0.53421(13) 0.0339(3)
H2 H 1.04410 0.54420 0.12800
H3 H 0.98000 0.57460 -0.03400
C2 C 0.6097(3) 0.47704(12) 0.2187(2)
H4 H 0.51660 0.49600 0.15000
C3 C 0.5613(3) 0.43738(12) 0.3469(2)
C4 C 0.6890(3) 0.40947(13) 0.4609(3)
C5 C 0.6359(3) 0.37169(13) 0.5808(2)
H5 H 0.72450 0.35360 0.65440
C6 C 0.4517(3) 0.35996(12) 0.5943(2)
C7 C 0.3223(3) 0.38893(12) 0.4812(2)
H6 H 0.19810 0.38250 0.48660
C8 C 0.3788(3) 0.42628(12) 0.3639(2)
H7 H 0.29040 0.44540 0.29130
C9 C 0.5293(3) 0.28426(14) 0.8212(3)
H8 H 0.63190 0.26800 0.77160
H9 H 0.47190 0.24160 0.85850
C10 C 0.5996(4) 0.33191(18) 0.9531(3)
H10 H 0.65900 0.37380 0.91740
H11 H 0.68530 0.30500 1.02140
H12 H 0.49920 0.34730 1.00450
C11 C 0.2080(3) 0.31521(14) 0.7367(3)
H13 H 0.14470 0.35910 0.69950
H14 H 0.20160 0.31240 0.84430
C12 C 0.1107(4) 0.25025(17) 0.6610(3)
H15 H 0.09870 0.25650 0.55360
H16 H -0.00840 0.24590 0.69310
H17 H 0.18000 0.20700 0.68820
N1B N 1.2244(3) 0.51278(11) -0.1956(2)
N2B N 1.6015(2) 0.67924(11) -0.7116(2)
O1B O 1.2175(2) 0.47183(9) -0.06124(18)
O2B O 1.1289(2) 0.58084(11) -0.4589(2)
H1B H 1.11160 0.55760 -0.38360
C1B C 1.0321(3) 0.46579(13) -0.0339(3)
H2B H 0.95590 0.45580 -0.12800
H3B H 1.02000 0.42540 0.03400
C2B C 1.3903(3) 0.52296(12) -0.2187(2)
H4B H 1.48340 0.50400 -0.15000
C3B C 1.4387(3) 0.56262(12) -0.3469(2)
C4B C 1.3110(3) 0.59053(13) -0.4609(3)
C5B C 1.3641(3) 0.62831(13) -0.5808(2)
H5B H 1.27550 0.64640 -0.65440
C6B C 1.5483(3) 0.64004(12) -0.5943(2)
C7B C 1.6777(3) 0.61107(12) -0.4812(2)
H6B H 1.80190 0.61750 -0.48660
C8B C 1.6212(3) 0.57372(12) -0.3639(2)
H7B H 1.70960 0.55460 -0.29130
C9B C 1.4707(3) 0.71574(14) -0.8212(3)
H8B H 1.36810 0.73200 -0.77160
H9B H 1.52810 0.75840 -0.85850
C10B C 1.4004(4) 0.66809(18) -0.9531(3)
H10B H 1.34100 0.62620 -0.91740
H11B H 1.31470 0.69500 -1.02140
H12B H 1.50080 0.65270 -1.00450
C11B C 1.7920(3) 0.68479(14) -0.7367(3)
H13B H 1.85530 0.64090 -0.69950
H14B H 1.79840 0.68760 -0.84430
C12B C 1.8893(4) 0.74975(17) -0.6610(3)
H15B H 1.90130 0.74350 -0.55360
H16B H 2.00840 0.75410 -0.69310
H17B H 1.82000 0.79300 -0.68820
#END
