
#######################################################################
#
#                 Cambridge Crystallographic Data Centre
#                                CCDC
#
#######################################################################
#
# If this CIF has been generated from an entry in the Cambridge
# Structural Database, then it will include bibliographic, chemical,
# crystal, experimental, refinement or atomic coordinate data resulting
# from the CCDC's data processing and validation procedures.
#
#######################################################################

data_CSD_CIF_AFISEP
_audit_creation_date 2013-09-18
_audit_creation_method CSD-ConQuest-V1
_database_code_CSD AFISEP
_database_code_depnum_ccdc_archive 'CCDC 961818'
_chemical_formula_sum 'C21 H25 N3 O3'
_chemical_formula_moiety
;
C21 H25 N3 O3
;
_journal_coeditor_code "IUCr gk2579"
_journal_coden_Cambridge 1370
_journal_volume 69
_journal_year 2013
_journal_page_first o1333
_journal_name_full 'Acta Crystallogr.,Sect.E:Struct.Rep.Online '
loop_
_publ_author_name
"B.C.Manjunath"
"S.Madan Kumar"
"A.C.Vinayaka"
"S.Jayasheelan"
"M.P.Sadashiva"
"N.K.Lokanath"
_chemical_name_systematic
;
2-(4-Isobutylphenyl)-N'-(1-(3-nitrophenyl)ethylidene)propanehydrazide
;
_chemical_melting_point 442
_cell_volume   2030.881
_exptl_crystal_colour 'colorless'
_exptl_crystal_density_diffrn 1.202
_exptl_crystal_description 'block'
_diffrn_ambient_temperature 300
#These two values have been output from a single CSD field.
_refine_ls_R_factor_gt 0.0679
_refine_ls_wR_factor_gt 0.0679
_symmetry_cell_setting triclinic
_symmetry_space_group_name_H-M 'P -1'
_symmetry_Int_Tables_number 2
loop_
_symmetry_equiv_pos_site_id
_symmetry_equiv_pos_as_xyz
1 x,y,z
2 -x,-y,-z
_cell_length_a 12.201(5)
_cell_length_b 13.429(5)
_cell_length_c 13.932(5)
_cell_angle_alpha 90.470(7)
_cell_angle_beta 110.099(6)
_cell_angle_gamma 107.321(6)
_cell_formula_units_Z 4
loop_
_atom_type_symbol
_atom_type_radius_bond
C 0.68
H 0.23
N 0.68
O 0.68
loop_
_atom_site_label
_atom_site_type_symbol
_atom_site_fract_x
_atom_site_fract_y
_atom_site_fract_z
O1 O 0.84024(16) -0.14913(15) 0.55714(13)
O2 O 0.7121(2) 0.3312(2) 0.70085(17)
O3 O 0.6171(2) 0.44110(17) 0.63494(17)
N1 N 0.71527(17) -0.05635(16) 0.48633(14)
N2 N 0.67981(18) 0.03078(15) 0.49209(14)
N3 N 0.6410(2) 0.3595(2) 0.6291(2)
C1 C 0.6003(4) -0.1837(3) 0.9456(3)
C2 C 0.6171(4) -0.0619(4) 1.0906(3)
C3 C 0.6444(4) -0.0725(3) 0.9916(3)
C4 C 0.7774(3) -0.0140(3) 1.0121(2)
C5 C 0.8123(3) -0.0023(3) 0.9175(2)
C6 C 0.8563(3) -0.0728(3) 0.8837(2)
C7 C 0.8846(3) -0.0651(2) 0.7957(2)
C8 C 0.8700(2) 0.0160(2) 0.73670(17)
C9 C 0.8267(2) 0.0874(2) 0.77044(19)
C10 C 0.7972(2) 0.0782(2) 0.8581(2)
C11 C 0.9017(2) 0.0263(2) 0.64037(18)
C12 C 1.0355(2) 0.0331(2) 0.6613(2)
C13 C 0.8170(2) -0.0664(2) 0.55925(18)
C14 C 0.5906(2) 0.04170(19) 0.41559(17)
C15 C 0.5237(3) -0.0325(2) 0.31726(19)
C16 C 0.5552(2) 0.13587(19) 0.42770(17)
C17 C 0.4665(2) 0.1624(2) 0.34890(19)
C18 C 0.4373(3) 0.2526(3) 0.3600(2)
C19 C 0.4939(3) 0.3181(2) 0.4514(2)
C20 C 0.5797(2) 0.2901(2) 0.53021(19)
C21 C 0.6115(2) 0.2023(2) 0.52082(17)
H1 H 0.67210 -0.10530 0.43560
H2 H 0.82740 -0.05020 1.05870
H3 H 0.59630 -0.03620 0.94160
H4 H 0.79750 0.05550 1.04680
H5 H 0.86760 -0.12810 0.92150
H6 H 0.91390 -0.11510 0.77560
H7 H 0.81680 0.14350 0.73340
H8 H 0.76650 0.12740 0.87770
H9 H 0.61870 -0.18750 0.88430
H10 H 0.88910 0.09070 0.61300
H11 H 0.51290 -0.21200 0.92870
H12 H 1.04760 -0.03190 0.68230
H13 H 1.08950 0.08940 0.71510
H14 H 1.05330 0.04610 0.59980
H15 H 0.64070 -0.22360 0.99420
H16 H 0.66670 -0.09230 1.14350
H17 H 0.53160 -0.09780 1.07700
H18 H 0.51060 0.00710 0.25970
H19 H 0.44560 -0.07640 0.31740
H20 H 0.57200 -0.07560 0.31190
H21 H 0.63620 0.01110 1.11300
H22 H 0.42550 0.11830 0.28690
H23 H 0.37880 0.26920 0.30510
H24 H 0.47490 0.37890 0.45980
H25 H 0.67030 0.18670 0.57610
O4 O 0.60116(16) 0.75492(14) 0.32931(12)
O5 O 0.7193(3) 0.2616(2) 0.2322(2)
O6 O 0.8201(3) 0.1626(2) 0.3011(2)
N4 N 0.70320(18) 0.65361(16) 0.42081(14)
N5 N 0.73709(17) 0.56469(16) 0.42424(14)
N6 N 0.7882(3) 0.2379(2) 0.3055(2)
C22 C 1.0431(3) 0.6854(3) -0.0762(3)
C23 C 0.8173(3) 0.6347(3) -0.1156(2)
C24 C 0.9435(3) 0.6789(2) -0.0323(2)
C25 C 0.9575(3) 0.6178(3) 0.0603(2)
C26 C 0.8631(3) 0.6109(2) 0.10965(18)
C27 C 0.8514(2) 0.6997(2) 0.14981(19)
C28 C 0.7625(2) 0.6943(2) 0.19134(17)
C29 C 0.6818(2) 0.59888(19) 0.19621(15)
C30 C 0.6943(3) 0.5099(2) 0.15785(18)
C31 C 0.7823(3) 0.5158(2) 0.11506(19)
C32 C 0.5795(2) 0.59323(19) 0.23640(16)
C33 C 0.4704(2) 0.6125(2) 0.15221(19)
C34 C 0.6271(2) 0.6736(2) 0.33137(17)
C35 C 0.8072(2) 0.5478(2) 0.51048(17)
C36 C 0.8537(3) 0.6172(2) 0.61121(18)
C37 C 0.8429(2) 0.4523(2) 0.50529(18)
C38 C 0.9217(2) 0.4223(3) 0.5904(2)
C39 C 0.9561(3) 0.3350(3) 0.5827(3)
C40 C 0.9135(3) 0.2737(3) 0.4908(3)
C41 C 0.8343(2) 0.3021(2) 0.4058(2)
C42 C 0.7998(2) 0.3889(2) 0.41132(19)
H26 H 0.95220 0.54710 0.03880
H27 H 0.73030 0.69710 0.47570
H28 H 1.03900 0.65070 0.11170
H29 H 0.95290 0.75090 -0.00840
H30 H 0.81100 0.67760 -0.17080
H31 H 0.75540 0.63420 -0.08760
H32 H 0.90500 0.76520 0.14880
H33 H 0.80540 0.56430 -0.14140
H34 H 0.75670 0.75610 0.21660
H35 H 1.02760 0.61810 -0.11160
H36 H 1.12200 0.70520 -0.02120
H37 H 0.64230 0.44430 0.16080
H38 H 1.04270 0.73700 -0.12350
H39 H 0.78740 0.45400 0.08910
H40 H 0.55160 0.52280 0.25590
H41 H 0.49630 0.68180 0.13330
H42 H 0.40510 0.60630 0.17770
H43 H 0.44150 0.56140 0.09300
H44 H 0.90770 0.68430 0.60720
H45 H 0.89770 0.58480 0.66580
H46 H 0.78510 0.62670 0.62470
H47 H 0.95180 0.46260 0.65410
H48 H 1.00910 0.31750 0.64090
H49 H 0.93680 0.21460 0.48530
H50 H 0.74740 0.40610 0.35250
#END
