
#######################################################################
#
#                 Cambridge Crystallographic Data Centre
#                                CCDC
#
#######################################################################
#
# If this CIF has been generated from an entry in the Cambridge
# Structural Database, then it will include bibliographic, chemical,
# crystal, experimental, refinement or atomic coordinate data resulting
# from the CCDC's data processing and validation procedures.
#
#######################################################################

data_CSD_CIF_AFITIU
_audit_creation_date 2013-09-18
_audit_creation_method CSD-ConQuest-V1
_database_code_CSD AFITIU
_database_code_depnum_ccdc_archive 'CCDC 942939'
_chemical_formula_sum 'C29 H32 N2 O2'
_chemical_formula_moiety
;
C29 H32 N2 O2
;
_journal_coeditor_code "IUCr pv2632"
_journal_coden_Cambridge 1370
_journal_volume 69
_journal_year 2013
_journal_page_first o1276
_journal_name_full 'Acta Crystallogr.,Sect.E:Struct.Rep.Online '
loop_
_publ_author_name
"T.Vinuchakkaravarthy"
"R.Sivakumar"
"T.Srinivasan"
"V.Thanikachalam"
"D.Velmurugan"
_chemical_name_systematic
;
(((3-Isopropyl-1-methyl-2,6-diphenylpiperidin-4-ylidene)amino)oxy)(3-methylphe
nyl)methanone
;
_chemical_name_common
;
[(4E)-1-Methyl-2,6-diphenyl-3-(propan-2-yl)piperidin-4-ylidene]amino 
3-methylbenzoate
;
_cell_volume   1252.071
_exptl_crystal_colour 'colorless'
_exptl_crystal_density_diffrn 1.169
_exptl_crystal_description 'Block'
_diffrn_ambient_temperature 293
#These two values have been output from a single CSD field.
_refine_ls_R_factor_gt 0.0468
_refine_ls_wR_factor_gt 0.0468
_symmetry_cell_setting triclinic
_symmetry_space_group_name_H-M 'P -1'
_symmetry_Int_Tables_number 2
loop_
_symmetry_equiv_pos_site_id
_symmetry_equiv_pos_as_xyz
1 x,y,z
2 -x,-y,-z
_cell_length_a 10.7837(4)
_cell_length_b 11.7075(4)
_cell_length_c 12.0586(4)
_cell_angle_alpha 114.352(3)
_cell_angle_beta 96.245(2)
_cell_angle_gamma 109.530(5)
_cell_formula_units_Z 2
loop_
_atom_type_symbol
_atom_type_radius_bond
C 0.68
H 0.23
N 0.68
O 0.68
loop_
_atom_site_label
_atom_site_type_symbol
_atom_site_fract_x
_atom_site_fract_y
_atom_site_fract_z
C1 C 0.85940(14) 0.07747(14) 0.32666(13)
H1 H 0.92920 0.05070 0.35370
C2 C 0.86023(15) 0.20135(15) 0.44415(13)
H2 H 0.79280 0.22790 0.41250
C3 C 0.99781(15) 0.31978(15) 0.48597(14)
C4 C 1.02338(17) 0.35945(15) 0.38514(14)
H3 H 1.11160 0.43780 0.41690
H4 H 0.95270 0.38560 0.36100
C5 C 1.02226(15) 0.23655(15) 0.26978(14)
H5 H 1.09830 0.21590 0.29470
C6 C 0.72125(15) -0.04589(15) 0.27061(14)
C7 C 0.71016(18) -0.17315(17) 0.25442(17)
H6 H 0.78830 -0.18280 0.28170
C8 C 0.5842(2) -0.28672(18) 0.19804(19)
H7 H 0.57860 -0.37210 0.18650
C9 C 0.4681(2) -0.27374(19) 0.15942(19)
H8 H 0.38360 -0.34990 0.12190
C10 C 0.47680(18) -0.1480(2) 0.17625(18)
H9 H 0.39770 -0.13860 0.15130
C11 C 0.60263(16) -0.03497(17) 0.23022(16)
H10 H 0.60760 0.04950 0.23950
C12 C 0.81213(17) 0.16674(17) 0.54654(15)
H11 H 0.71930 0.09240 0.50430
C13 C 0.7980(2) 0.2888(2) 0.64964(19)
H12 H 0.74370 0.32010 0.61080
H13 H 0.88740 0.36260 0.69810
H14 H 0.75400 0.26060 0.70480
C14 C 0.8961(2) 0.1127(2) 0.60377(19)
H15 H 0.90180 0.03520 0.53700
H16 H 0.85280 0.08450 0.65920
H17 H 0.98680 0.18430 0.65130
C15 C 1.29265(17) 0.54898(17) 0.72791(15)
C16 C 1.41632(16) 0.65991(17) 0.73437(15)
C17 C 1.49678(19) 0.7698(2) 0.85301(18)
H18 H 1.47520 0.77130 0.92610
C18 C 1.6094(2) 0.8772(2) 0.8616(2)
H19 H 1.66260 0.95210 0.94080
C19 C 1.64325(19) 0.8744(2) 0.7553(2)
H20 H 1.71970 0.94750 0.76320
C20 C 1.56626(19) 0.7648(2) 0.6353(2)
C21 C 1.45135(18) 0.65867(19) 0.62697(18)
H21 H 1.39670 0.58520 0.54740
C22 C 1.6026(3) 0.7604(3) 0.5167(3)
H22 H 1.68470 0.84080 0.53960
H23 H 1.52870 0.75860 0.46290
H24 H 1.61760 0.67900 0.47220
C23 C 1.04536(16) 0.27730(15) 0.16717(14)
C24 C 1.17432(18) 0.31908(16) 0.15031(17)
H25 H 1.24610 0.31810 0.19960
C25 C 1.1978(3) 0.36252(19) 0.0605(2)
H26 H 1.28510 0.38950 0.04960
C26 C 1.0947(3) 0.3661(2) -0.0117(2)
H27 H 1.11110 0.39570 -0.07150
C27 C 0.9668(3) 0.3257(2) 0.0046(2)
H28 H 0.89590 0.32800 -0.04460
C28 C 0.9410(2) 0.28125(19) 0.09366(17)
H29 H 0.85330 0.25410 0.10370
C29 C 0.90196(18) -0.00294(16) 0.12275(16)
H30 H 0.81830 -0.08410 0.09310
H31 H 0.97770 -0.01820 0.15340
H32 H 0.91590 0.01680 0.05410
N1 N 0.89281(12) 0.11408(12) 0.22587(11)
N2 N 1.08029(13) 0.36687(14) 0.59413(12)
O1 O 1.20675(11) 0.47558(12) 0.60903(10)
O2 O 1.26989(15) 0.52897(16) 0.81397(12)
#END
