
#######################################################################
#
#                 Cambridge Crystallographic Data Centre
#                                CCDC
#
#######################################################################
#
# If this CIF has been generated from an entry in the Cambridge
# Structural Database, then it will include bibliographic, chemical,
# crystal, experimental, refinement or atomic coordinate data resulting
# from the CCDC's data processing and validation procedures.
#
#######################################################################

data_CSD_CIF_AFIWIX
_audit_creation_date 2013-09-18
_audit_creation_method CSD-ConQuest-V1
_database_code_CSD AFIWIX
_database_code_depnum_ccdc_archive 'CCDC 961868'
_chemical_formula_sum 'C27 H25 N1 O3'
_chemical_formula_moiety
;
C27 H25 N1 O3
;
_journal_coeditor_code "IUCr zl2560"
_journal_coden_Cambridge 1370
_journal_volume 69
_journal_year 2013
_journal_page_first o1284
_journal_name_full 'Acta Crystallogr.,Sect.E:Struct.Rep.Online '
loop_
_publ_author_name
"R.Sandhya"
"M.Sithambaresan"
"S.Prathapan"
"M.R.P.Kurup"
_chemical_name_systematic
;
(2-t-Butyl-3-phenyl-2,3-dihydro-1,2-oxazole-4,5-diyl)bis(phenylmethanone)
;
_cell_volume   2195.801
_exptl_crystal_colour 'yellow'
_exptl_crystal_density_diffrn 1.245
_exptl_crystal_description 'block'
_diffrn_ambient_temperature 296
#These two values have been output from a single CSD field.
_refine_ls_R_factor_gt 0.0378
_refine_ls_wR_factor_gt 0.0378
_symmetry_cell_setting orthorhombic
_symmetry_space_group_name_H-M 'P n a 21'
_symmetry_Int_Tables_number 33
loop_
_symmetry_equiv_pos_site_id
_symmetry_equiv_pos_as_xyz
1 x,y,z
2 -x,-y,1/2+z
3 1/2-x,1/2+y,1/2+z
4 1/2+x,1/2-y,z
_cell_length_a 20.1034(12)
_cell_length_b 17.799(1)
_cell_length_c 6.1366(3)
_cell_angle_alpha 90
_cell_angle_beta 90
_cell_angle_gamma 90
_cell_formula_units_Z 4
loop_
_atom_type_symbol
_atom_type_radius_bond
C 0.68
H 0.23
N 0.68
O 0.68
loop_
_atom_site_label
_atom_site_type_symbol
_atom_site_fract_x
_atom_site_fract_y
_atom_site_fract_z
O1 O 0.14603(9) 0.40278(10) 0.0012(3)
O2 O 0.05003(7) 0.36111(8) 0.3046(3)
O3 O 0.20313(8) 0.27030(9) 0.7795(3)
N1 N 0.01783(8) 0.30875(9) 0.4612(3)
C1 C 0.25597(12) 0.60359(13) 0.4233(5)
H1 H 0.27720 0.64730 0.46900
C2 C 0.26649(13) 0.57720(14) 0.2177(5)
H2 H 0.29560 0.60230 0.12500
C3 C 0.23438(11) 0.51380(13) 0.1469(4)
H3 H 0.24160 0.49620 0.00620
C4 C 0.19103(9) 0.47575(10) 0.2851(3)
C5 C 0.1524(1) 0.41275(12) 0.1949(4)
C6 C 0.11570(9) 0.36106(10) 0.3468(3)
C7 C 0.13418(9) 0.31458(10) 0.5061(3)
C8 C 0.07315(9) 0.27504(10) 0.5896(4)
H4 H 0.06700 0.28560 0.74510
C9 C 0.07424(9) 0.19093(11) 0.5505(4)
C10 C 0.09136(13) 0.16269(13) 0.3489(4)
H5 H 0.10220 0.19560 0.23670
C11 C 0.09257(16) 0.08604(14) 0.3114(5)
H6 H 0.10480 0.06770 0.17520
C12 C 0.07586(14) 0.03747(13) 0.4739(6)
H7 H 0.07650 -0.01400 0.44860
C13 C -0.03126(10) 0.35530(11) 0.5852(4)
C14 C -0.06460(13) 0.30225(15) 0.7463(5)
H8 H -0.07840 0.25750 0.67170
H9 H -0.10270 0.32650 0.80910
H10 H -0.03370 0.28930 0.85950
C15 C -0.08187(12) 0.38226(15) 0.4187(5)
H11 H -0.06030 0.41400 0.31390
H12 H -0.11630 0.41000 0.49120
H13 H -0.10100 0.33970 0.34570
C16 C -0.00051(13) 0.42144(13) 0.7032(5)
H14 H 0.03180 0.40360 0.80610
H15 H -0.03460 0.44880 0.77880
H16 H 0.02080 0.45390 0.59960
C17 C 0.05818(14) 0.06446(14) 0.6739(6)
H17 H 0.04660 0.03120 0.78450
C18 C 0.05747(11) 0.14130(13) 0.7128(5)
H18 H 0.04560 0.15930 0.84970
C19 C 0.19933(10) 0.30137(10) 0.6033(4)
C20 C 0.26076(9) 0.32369(10) 0.4850(4)
C21 C 0.30928(11) 0.36438(13) 0.5935(5)
H19 H 0.30190 0.38100 0.73510
C22 C 0.36829(14) 0.37991(17) 0.4906(7)
H20 H 0.40030 0.40870 0.56120
C23 C 0.38057(15) 0.35349(19) 0.2856(8)
H21 H 0.42130 0.36290 0.21930
C24 C 0.33269(16) 0.31311(17) 0.1776(5)
H22 H 0.34100 0.29510 0.03800
C25 C 0.27250(12) 0.29918(13) 0.2752(4)
H23 H 0.23960 0.27320 0.19980
C26 C 0.18161(10) 0.50193(11) 0.4950(4)
H24 H 0.15340 0.47640 0.58970
C27 C 0.21427(12) 0.56621(12) 0.5637(4)
H25 H 0.20800 0.58400 0.70470
#END
