
#######################################################################
#
#                 Cambridge Crystallographic Data Centre
#                                CCDC
#
#######################################################################
#
# If this CIF has been generated from an entry in the Cambridge
# Structural Database, then it will include bibliographic, chemical,
# crystal, experimental, refinement or atomic coordinate data resulting
# from the CCDC's data processing and validation procedures.
#
#######################################################################

data_CSD_CIF_AFOMAL
_audit_creation_date 2013-09-18
_audit_creation_method CSD-ConQuest-V1
_database_code_CSD AFOMAL
_database_code_depnum_ccdc_archive 'CCDC 961752'
_chemical_formula_sum 'C19 H14 N4 O4'
_chemical_formula_moiety
;
C19 H14 N4 O4
;
_journal_coeditor_code "IUCr BT6909"
_journal_coden_Cambridge 1370
_journal_volume 69
_journal_year 2013
_journal_page_first o1039
_journal_name_full 'Acta Crystallogr.,Sect.E:Struct.Rep.Online '
loop_
_publ_author_name
"R.Melendrez-Luevano"
"B.M.Cabrera-Vivas"
"M.Flores-Alamo"
"J.C.Ramirez"
"P.Conde-Sanchez"
_chemical_name_systematic
;
(E)- 1-(2,4-Dinitrobenzylidene)-2,2-diphenylhydrazine
;
_chemical_name_common
;
2-(2,4-Dinitrobenzylidene)-1,1-diphenylhydrazine
;
_chemical_melting_point 447.15
_cell_volume   1696.417
_exptl_crystal_colour 'red'
_exptl_crystal_density_diffrn 1.419
_exptl_special_details
;
Melting point range 447.15-450.15K

;
_exptl_crystal_description 'prism'
_diffrn_ambient_temperature 298
#These two values have been output from a single CSD field.
_refine_ls_R_factor_gt 0.0396
_refine_ls_wR_factor_gt 0.0396
_symmetry_cell_setting triclinic
_symmetry_space_group_name_H-M 'P -1'
_symmetry_Int_Tables_number 2
loop_
_symmetry_equiv_pos_site_id
_symmetry_equiv_pos_as_xyz
1 x,y,z
2 -x,-y,-z
_cell_length_a 7.0288(6)
_cell_length_b 13.5001(7)
_cell_length_c 17.9271(11)
_cell_angle_alpha 91.878(5)
_cell_angle_beta 93.431(6)
_cell_angle_gamma 91.548(6)
_cell_formula_units_Z 4
loop_
_atom_type_symbol
_atom_type_radius_bond
C 0.68
H 0.23
N 0.68
O 0.68
loop_
_atom_site_label
_atom_site_type_symbol
_atom_site_fract_x
_atom_site_fract_y
_atom_site_fract_z
C1 C 0.3668(2) -0.02195(12) 0.81399(8)
C2 C 0.3795(2) -0.12554(12) 0.81250(8)
C3 C 0.3529(2) -0.18098(12) 0.87481(8)
H1 H 0.36390 -0.24950 0.87250
C4 C 0.3103(2) -0.13346(13) 0.93960(8)
C5 C 0.2958(2) -0.03170(13) 0.94464(9)
H2 H 0.26690 -0.00010 0.98930
C6 C 0.3250(2) 0.02177(13) 0.88257(8)
H3 H 0.31660 0.09040 0.88620
C7 C 0.3967(2) 0.04206(13) 0.75145(9)
H4 H 0.40050 0.01660 0.70270
C8 C 0.4850(2) 0.29930(12) 0.73592(9)
C9 C 0.5557(2) 0.32258(13) 0.80812(9)
H5 H 0.58020 0.27250 0.84140
C10 C 0.5895(2) 0.42039(15) 0.83049(10)
H6 H 0.63630 0.43580 0.87920
C11 C 0.5552(3) 0.49555(14) 0.78203(12)
H7 H 0.57810 0.56140 0.79770
C12 C 0.4870(3) 0.47210(14) 0.71041(11)
H8 H 0.46410 0.52250 0.67720
C13 C 0.4517(2) 0.37495(13) 0.68692(10)
H9 H 0.40540 0.36010 0.63800
C14 C 0.4312(3) 0.17046(12) 0.63452(9)
C15 C 0.5912(3) 0.17379(13) 0.59397(10)
H10 H 0.70880 0.19360 0.61690
C16 C 0.5746(3) 0.14724(15) 0.51853(11)
H11 H 0.68180 0.15000 0.49050
C17 C 0.4022(4) 0.11692(15) 0.48480(11)
H12 H 0.39260 0.09830 0.43430
C18 C 0.2445(3) 0.11405(15) 0.52541(10)
H13 H 0.12730 0.09330 0.50250
C19 C 0.2574(3) 0.14172(14) 0.60044(10)
H14 H 0.14890 0.14090 0.62770
N1 N 0.41773(19) 0.13568(10) 0.76728(7)
N2 N 0.4450(2) 0.19996(10) 0.71228(7)
N3 N 0.4219(2) -0.18328(11) 0.74490(8)
N4 N 0.2742(2) -0.19203(14) 1.00492(9)
O1 O 0.4180(2) -0.14424(10) 0.68499(7)
O2 O 0.4573(2) -0.27067(10) 0.75110(7)
O3 O 0.2800(2) -0.28198(11) 0.99918(7)
O4 O 0.2412(2) -0.14791(11) 1.06275(7)
C20 C 1.0722(2) 0.48446(12) 0.81436(8)
C21 C 1.0599(2) 0.38024(12) 0.81056(8)
C22 C 1.1091(2) 0.32368(13) 0.87149(9)
H15 H 1.09860 0.25490 0.86750
C23 C 1.1730(2) 0.36977(13) 0.93732(9)
C24 C 1.1862(2) 0.47202(13) 0.94478(9)
H16 H 1.22840 0.50310 0.99010
C25 C 1.1357(2) 0.52650(13) 0.88409(9)
H17 H 1.14410 0.59530 0.88950
C26 C 1.0249(2) 0.54984(13) 0.75336(9)
H18 H 1.00600 0.52570 0.70420
C27 C 0.9320(2) 0.80531(12) 0.73992(9)
C28 C 0.8888(2) 0.82648(13) 0.81281(9)
H19 H 0.88250 0.77600 0.84670
C29 C 0.8550(2) 0.92275(14) 0.8350(1)
H20 H 0.82780 0.93700 0.88430
C30 C 0.8608(2) 0.99803(14) 0.78533(11)
H21 H 0.83800 1.06280 0.80090
C31 C 0.9002(3) 0.97709(14) 0.71319(11)
H22 H 0.90300 1.02780 0.67940
C32 C 0.9361(2) 0.88092(13) 0.68955(10)
H23 H 0.96280 0.86720 0.64010
C33 C 0.9507(3) 0.67717(12) 0.63857(9)
C34 C 1.1080(3) 0.66776(14) 0.59758(10)
H24 H 1.22940 0.68030 0.62000
C35 C 1.0852(3) 0.63946(15) 0.52263(11)
H25 H 1.19140 0.63390 0.49440
C36 C 0.9074(4) 0.61979(15) 0.49027(11)
H26 H 0.89270 0.60000 0.44000
C37 C 0.7515(3) 0.62890(16) 0.53095(11)
H27 H 0.63050 0.61520 0.50850
C38 C 0.7723(3) 0.65841(14) 0.60565(10)
H28 H 0.66540 0.66550 0.63340
N5 N 1.01036(19) 0.64297(11) 0.77055(7)
N6 N 0.9722(2) 0.70762(10) 0.71597(7)
N7 N 0.99175(19) 0.32343(12) 0.74256(8)
N8 N 1.2312(2) 0.31012(14) 1.00096(9)
O5 O 0.9506(2) 0.36593(10) 0.68571(7)
O6 O 0.9778(2) 0.23333(10) 0.74548(7)
O7 O 1.2219(2) 0.22001(11) 0.99330(8)
O8 O 1.2854(2) 0.35333(11) 1.05901(7)
#END
