
#######################################################################
#
#                 Cambridge Crystallographic Data Centre
#                                CCDC
#
#######################################################################
#
# If this CIF has been generated from an entry in the Cambridge
# Structural Database, then it will include bibliographic, chemical,
# crystal, experimental, refinement or atomic coordinate data resulting
# from the CCDC's data processing and validation procedures.
#
#######################################################################

data_CSD_CIF_AFONEQ
_audit_creation_date 2013-09-18
_audit_creation_method CSD-ConQuest-V1
_database_code_CSD AFONEQ
_database_code_depnum_ccdc_archive 'CCDC 961759'
_chemical_formula_sum 'C29 H27 N3 O5'
_chemical_formula_moiety
;
C29 H27 N3 O5
;
_journal_coeditor_code "IUCr HB7087"
_journal_coden_Cambridge 1370
_journal_volume 69
_journal_year 2013
_journal_page_first o1047
_journal_name_full 'Acta Crystallogr.,Sect.E:Struct.Rep.Online '
loop_
_publ_author_name
"S.K.Devi"
"T.Srinivasan"
"J.N.S.Rao"
"R.Raghunathan"
"D.Velmurugan"
_chemical_name_systematic
;
6-(4-Methoxyphenyl)-6a-nitro-6a,7,8,9,10,12a-hexahydro-6H,6bH-spiro[chromeno[3
,4-a]indolizine-12,3'-indol]-2'(1'H)-one
;
_cell_volume   1222.489
_exptl_crystal_colour 'colorless'
_exptl_crystal_density_diffrn 1.352
_exptl_crystal_description 'Block'
_diffrn_ambient_temperature 293
#These two values have been output from a single CSD field.
_refine_ls_R_factor_gt 0.0421
_refine_ls_wR_factor_gt 0.0421
_symmetry_cell_setting triclinic
_symmetry_space_group_name_H-M 'P -1'
_symmetry_Int_Tables_number 2
loop_
_symmetry_equiv_pos_site_id
_symmetry_equiv_pos_as_xyz
1 x,y,z
2 -x,-y,-z
_cell_length_a 9.3438(3)
_cell_length_b 11.3626(4)
_cell_length_c 13.5713(4)
_cell_angle_alpha 68.687(1)
_cell_angle_beta 88.284(1)
_cell_angle_gamma 66.757(1)
_cell_formula_units_Z 2
loop_
_atom_type_symbol
_atom_type_radius_bond
C 0.68
H 0.23
N 0.68
O 0.68
loop_
_atom_site_label
_atom_site_type_symbol
_atom_site_fract_x
_atom_site_fract_y
_atom_site_fract_z
C1 C 0.2341(3) 1.0337(2) 0.38130(16)
H1 H 0.31060 1.07250 0.36900
H2 H 0.13360 1.10410 0.34340
H3 H 0.26540 0.95920 0.35640
C2 C 0.3493(2) 0.87030(17) 0.55807(14)
C3 C 0.4983(2) 0.82230(18) 0.53115(14)
H4 H 0.51920 0.86620 0.46340
C4 C 0.6175(2) 0.70767(16) 0.60584(13)
H5 H 0.71910 0.67780 0.58830
C5 C 0.58892(17) 0.63663(15) 0.70583(11)
C6 C 0.43845(19) 0.68872(17) 0.73146(13)
H6 H 0.41650 0.64460 0.79880
C7 C 0.3206(2) 0.80484(19) 0.65897(14)
H7 H 0.22070 0.83930 0.67830
C8 C 0.72252(16) 0.51114(14) 0.78326(10)
H8 H 0.81510 0.53250 0.77240
C9 C 0.77152(15) 0.36977(13) 0.77426(10)
C10 C 0.91910(15) 0.26057(13) 0.85468(10)
H9 H 0.90140 0.17580 0.88650
C11 C 0.94489(16) 0.29989(14) 0.94587(10)
C12 C 1.07826(18) 0.21855(17) 1.02158(11)
H10 H 1.15860 0.14460 1.01170
C13 C 1.0931(2) 0.2457(2) 1.11079(12)
H11 H 1.18430 0.19200 1.15950
C14 C 0.9731(2) 0.35255(19) 1.12802(12)
H12 H 0.98170 0.36850 1.18960
C15 C 0.8405(2) 0.43555(17) 1.05410(12)
H13 H 0.75980 0.50810 1.06520
C16 C 0.82846(17) 0.40991(15) 0.96263(11)
C17 C 0.81967(15) 0.37337(14) 0.6640(1)
H14 H 0.84710 0.45280 0.63210
C18 C 0.70480(18) 0.38308(17) 0.58150(11)
H15 H 0.60860 0.46610 0.56620
H16 H 0.67900 0.30320 0.60820
C19 C 0.7827(2) 0.38777(19) 0.48083(12)
H17 H 0.71470 0.38710 0.42860
H18 H 0.79750 0.47310 0.45050
C20 C 0.9400(2) 0.26524(19) 0.50478(13)
H19 H 0.99140 0.27580 0.44090
H20 H 0.92320 0.18110 0.52440
C21 C 1.04685(18) 0.25141(17) 0.59464(11)
H21 H 1.14190 0.16680 0.61250
H22 H 1.07640 0.32920 0.57180
C22 C 1.05240(15) 0.22993(13) 0.78451(10)
C23 C 1.18780(16) 0.08993(14) 0.83232(10)
C24 C 1.19077(18) -0.04125(15) 0.87141(11)
H23 H 1.09850 -0.05380 0.86940
C25 C 1.3337(2) -0.15412(16) 0.91379(13)
H24 H 1.33720 -0.24320 0.94160
C26 C 1.4710(2) -0.13609(17) 0.91531(14)
H25 H 1.56600 -0.21330 0.94310
C27 C 1.46969(18) -0.00471(17) 0.87613(14)
H26 H 1.56210 0.00770 0.87730
C28 C 1.32679(16) 0.10650(15) 0.83550(11)
C29 C 1.13735(15) 0.32878(14) 0.76355(10)
N1 N 0.64091(14) 0.31789(13) 0.79590(9)
N2 N 0.96439(13) 0.24825(11) 0.68832(8)
N3 N 1.29296(14) 0.24880(12) 0.79328(10)
H27 H 1.36320 0.28130 0.78710
O1 O 0.22311(19) 0.98242(14) 0.49209(11)
O2 O 0.69437(12) 0.49773(11) 0.89032(8)
O3 O 0.50728(14) 0.39968(14) 0.78486(14)
O4 O 0.67564(14) 0.19579(13) 0.81793(11)
O5 O 1.07592(12) 0.45448(10) 0.72573(8)
#END
