
#######################################################################
#
#                 Cambridge Crystallographic Data Centre
#                                CCDC
#
#######################################################################
#
# If this CIF has been generated from an entry in the Cambridge
# Structural Database, then it will include bibliographic, chemical,
# crystal, experimental, refinement or atomic coordinate data resulting
# from the CCDC's data processing and validation procedures.
#
#######################################################################

data_CSD_CIF_AFUSEB
_audit_creation_date 2013-09-19
_audit_creation_method CSD-ConQuest-V1
_database_code_CSD AFUSEB
_database_code_depnum_ccdc_archive 'CCDC 961938'
_chemical_formula_sum 'C16 H16 N4 O7'
_chemical_formula_moiety
;
C16 H16 N4 O7
;
_journal_coeditor_code "IUCr hb7102"
_journal_coden_Cambridge 1370
_journal_volume 69
_journal_year 2013
_journal_page_first o1203
_journal_name_full 'Acta Crystallogr.,Sect.E:Struct.Rep.Online '
loop_
_publ_author_name
"H.-K.Fun"
"S.Chantrapromma"
"B.Nilwanna"
"T.Kobkeatthawin"
"N.Boonnak"
_chemical_name_systematic
;
1-(2,4-Dinitrophenyl)-2-[(E)-2,4,5-trimethoxybenzylidene]hydrazine
;
_cell_volume   1619.744
_exptl_crystal_colour 'red'
_exptl_crystal_density_diffrn 1.543
_exptl_crystal_description 'Needle'
_diffrn_ambient_temperature 100
#These two values have been output from a single CSD field.
_refine_ls_R_factor_gt 0.0551
_refine_ls_wR_factor_gt 0.0551
_symmetry_cell_setting monoclinic
_symmetry_space_group_name_H-M 'P 21/c'
_symmetry_Int_Tables_number 14
loop_
_symmetry_equiv_pos_site_id
_symmetry_equiv_pos_as_xyz
1 x,y,z
2 -x,1/2+y,1/2-z
3 -x,-y,-z
4 x,-1/2-y,-1/2+z
_cell_length_a 8.0273(13)
_cell_length_b 15.048(2)
_cell_length_c 13.686(2)
_cell_angle_alpha 90
_cell_angle_beta 101.546(3)
_cell_angle_gamma 90
_cell_formula_units_Z 4
loop_
_atom_type_symbol
_atom_type_radius_bond
C 0.68
H 0.23
N 0.68
O 0.68
loop_
_atom_site_label
_atom_site_type_symbol
_atom_site_fract_x
_atom_site_fract_y
_atom_site_fract_z
O1 O 1.12652(19) 0.44523(11) 0.52056(12)
O2 O 1.38293(19) 0.39446(11) 0.56829(12)
O3 O 1.4973(2) 0.08730(12) 0.60481(14)
O4 O 1.2974(2) -0.00920(12) 0.55543(14)
O5 O 0.33101(19) 0.48609(11) 0.33462(13)
O6 O -0.05504(19) 0.24861(11) 0.19418(12)
O7 O 0.18289(19) 0.13357(11) 0.24418(12)
N1 N 0.8715(2) 0.33762(14) 0.44831(15)
H1 H 0.891(4) 0.394(2) 0.466(2)
N2 N 0.7106(2) 0.30856(14) 0.40437(14)
N3 N 1.2304(2) 0.38263(13) 0.53664(14)
N4 N 1.3513(2) 0.06807(14) 0.56381(15)
C1 C 0.9955(3) 0.27522(16) 0.46967(16)
C2 C 1.1676(3) 0.29321(15) 0.51555(16)
C3 C 1.2840(3) 0.22554(16) 0.54419(16)
H2 H 1.39510 0.23860 0.57560
C4 C 1.2341(3) 0.13928(16) 0.52577(17)
C5 C 1.0706(3) 0.11895(17) 0.47365(17)
H3 H 1.04070 0.06020 0.45790
C6 C 0.9552(3) 0.18490(16) 0.44595(16)
H4 H 0.84720 0.17050 0.41060
C7 C 0.5914(3) 0.36708(16) 0.38720(16)
H5 H 0.61280 0.42610 0.40560
C8 C 0.4214(3) 0.33803(16) 0.33783(16)
C9 C 0.2900(3) 0.39983(16) 0.31141(17)
C10 C 0.1277(3) 0.37208(16) 0.26307(17)
H6 H 0.04090 0.41350 0.24530
C11 C 0.0970(3) 0.28289(16) 0.24183(16)
C12 C 0.2279(3) 0.21986(16) 0.26910(16)
C13 C 0.3866(3) 0.24807(16) 0.31568(16)
H7 H 0.47330 0.20650 0.33300
C14 C 0.2019(3) 0.55210(17) 0.3101(2)
H8 H 0.24730 0.60900 0.33330
H9 H 0.10840 0.53770 0.34140
H10 H 0.16290 0.55400 0.23910
C15 C -0.1945(3) 0.30917(17) 0.16478(18)
H11 H -0.29110 0.27750 0.12840
H12 H -0.16230 0.35490 0.12320
H13 H -0.22330 0.33560 0.22310
C16 C 0.3069(3) 0.06688(16) 0.28081(18)
H14 H 0.26000 0.00920 0.26230
H15 H 0.33800 0.07090 0.35210
H16 H 0.40580 0.07590 0.25250
#END
