
#######################################################################
#
#                 Cambridge Crystallographic Data Centre
#                                CCDC
#
#######################################################################
#
# If this CIF has been generated from an entry in the Cambridge
# Structural Database, then it will include bibliographic, chemical,
# crystal, experimental, refinement or atomic coordinate data resulting
# from the CCDC's data processing and validation procedures.
#
#######################################################################

data_CSD_CIF_AGAFOF
_audit_creation_date 2013-09-19
_audit_creation_method CSD-ConQuest-V1
_database_code_CSD AGAFOF
_database_code_depnum_ccdc_archive 'CCDC 925346'
_chemical_formula_sum 'C27 H22 N6 O5'
_chemical_formula_moiety
;
C27 H22 N6 O5
;
_journal_coden_Cambridge 388
_journal_volume 49
_journal_year 2013
_journal_page_first 607
_journal_name_full 'Zh.Org.Khim.(Russ.)(Russ.J.Org.Chem.) '
loop_
_publ_author_name
"I.V.Galkina"
"G.L.Takhautdinova"
"E.V.Tudrii"
"L.M.Yusupova"
"I.F.Falyakhov"
"O.K.Pozdeev"
"M.P.Shulaeva"
"L.V.Kipenskaya"
"V.G.Sakhibullina"
"D.B.Krivolapov"
"I.A.Litvinov"
"V.I.Galkin"
"R.A.Cherkasov"
_chemical_name_systematic
;
4-dibenzilamino-6-benzil-5,7-dinitrobenzofuroxane
;
_chemical_name_common
;
N$4!,N$4!,N$6!-Tribenzyl-5,7-dinitro-2,1,3-benzoxadiazole-4,6-diamine
;
_cell_volume   1214.948
_exptl_crystal_colour 'orange'
_exptl_crystal_density_diffrn 1.396
_exptl_crystal_description 'Prism'
_diffrn_ambient_temperature 296
_refine_special_details
;
C27,C28,C29,C30 and C27A,C28A,C30A disordered over two sites with occupancies 
0.518:0.482; C29A disordered by symmetry over one sites with occupancy 0.482.
;
#These two values have been output from a single CSD field.
_refine_ls_R_factor_gt 0.0622
_refine_ls_wR_factor_gt 0.0622
_symmetry_cell_setting triclinic
_symmetry_space_group_name_H-M 'P -1'
_symmetry_Int_Tables_number 2
loop_
_symmetry_equiv_pos_site_id
_symmetry_equiv_pos_as_xyz
1 x,y,z
2 -x,-y,-z
_cell_length_a 7.5913(13)
_cell_length_b 13.463(2)
_cell_length_c 13.795(4)
_cell_angle_alpha 114.525(3)
_cell_angle_beta 99.512(3)
_cell_angle_gamma 100.451(2)
_cell_formula_units_Z 2
loop_
_atom_type_symbol
_atom_type_radius_bond
C 0.68
H 0.23
N 0.68
O 0.68
loop_
_atom_site_label
_atom_site_type_symbol
_atom_site_fract_x
_atom_site_fract_y
_atom_site_fract_z
C1 C 1.0042(4) 0.3148(3) 0.4905(2)
C2 C 0.9391(4) 0.2248(2) 0.3756(2)
C3 C 1.0749(4) 0.2330(2) 0.3167(2)
C4 C 1.1902(4) 0.3420(2) 0.3371(2)
C5 C 1.2255(4) 0.4350(2) 0.4429(2)
C6 C 1.1468(4) 0.4157(3) 0.5225(3)
C7 C 0.6516(5) 0.1285(3) 0.4005(3)
H1 H 0.53600 0.14550 0.38100
H2 H 0.71110 0.17890 0.47830
C8 C 0.6103(6) 0.0081(3) 0.3817(3)
C9 C 0.4318(7) -0.0586(4) 0.3424(3)
H3 H 0.33550 -0.02940 0.32560
C10 C 0.3919(12) -0.1689(5) 0.3273(5)
H4 H 0.26940 -0.21410 0.29920
C11 C 0.5290(16) -0.2112(6) 0.3528(7)
H5 H 0.50240 -0.28520 0.34360
C12 C 0.7062(12) -0.1451(6) 0.3921(6)
H6 H 0.80180 -0.17420 0.41000
C13 C 0.7474(8) -0.0356(4) 0.4059(4)
H7 H 0.87050 0.00850 0.43210
C14 C 0.6894(5) 0.0760(3) 0.2139(3)
H8 H 0.55760 0.04550 0.20260
H9 H 0.74260 0.01230 0.19000
C15 C 0.7117(4) 0.1325(3) 0.1404(3)
C16 C 0.7412(4) 0.0732(3) 0.0385(3)
H10 H 0.76010 0.00180 0.01870
C17 C 0.7428(5) 0.1192(3) -0.0348(3)
H11 H 0.76390 0.07890 -0.10300
C18 C 0.7135(5) 0.2229(4) -0.0070(3)
H12 H 0.71220 0.25270 -0.05690
C19 C 0.6856(5) 0.2840(3) 0.0947(3)
H13 H 0.66870 0.35580 0.11410
C20 C 0.6829(4) 0.2385(3) 0.1682(3)
H14 H 0.66160 0.27930 0.23630
C21 C 1.1985(5) 0.2771(3) 0.1404(3)
H15 H 1.07190 0.23060 0.12010
H16 H 1.27830 0.22680 0.12530
C22 C 1.2097(6) 0.3367(4) 0.0708(3)
C23 C 1.1977(7) 0.2748(4) -0.0381(4)
H17 H 1.14500 0.19740 -0.06460
C24 C 1.244(4) 0.300(2) -0.1130(18)
H18 H 1.22800 0.24690 -0.18550
C25 C 1.317(3) 0.4131(17) -0.0737(14)
H19 H 1.34100 0.44050 -0.12330
C26 C 1.357(2) 0.4888(11) 0.0356(12)
H20 H 1.41460 0.56560 0.06160
C27 C 1.306(2) 0.4449(8) 0.1080(8)
H21 H 1.34140 0.49310 0.18370
N1 N 1.1833(4) 0.4803(2) 0.6295(2)
N2 N 0.9559(4) 0.3169(2) 0.5778(2)
N3 N 1.1291(4) 0.1336(2) 0.2613(2)
N4 N 1.3311(4) 0.5446(2) 0.4711(3)
N5 N 0.7750(4) 0.1492(2) 0.3337(2)
N6 N 1.2533(4) 0.3546(3) 0.2578(2)
O1 O 1.0656(4) 0.4178(2) 0.66429(19)
O2 O 1.0387(4) 0.04119(19) 0.2515(2)
O3 O 1.2746(3) 0.14123(19) 0.2329(2)
O4 O 1.3998(4) 0.56441(18) 0.4028(2)
O5 O 1.3557(3) 0.62131(19) 0.5665(2)
H22 H 1.336(5) 0.424(3) 0.282(3)
H23? H 1.21180 0.20180 -0.06770
C28? C 1.156(3) 0.337(2) -0.1074(13)
H24? H 1.15720 0.30150 -0.18110
H25? H 1.09650 0.56600 0.06440
C29? C 1.1162(19) 0.4382(14) -0.0695(11)
H26? H 1.09020 0.46940 -0.11720
C30? C 1.1407(16) 0.4421(8) 0.1060(8)
H27? H 1.11520 0.47290 0.17440
C31? C 1.1146(16) 0.4940(8) 0.0369(9)
#END
