
#######################################################################
#
#                 Cambridge Crystallographic Data Centre
#                                CCDC
#
#######################################################################
#
# If this CIF has been generated from an entry in the Cambridge
# Structural Database, then it will include bibliographic, chemical,
# crystal, experimental, refinement or atomic coordinate data resulting
# from the CCDC's data processing and validation procedures.
#
#######################################################################

data_CSD_CIF_AGAXOX
_audit_creation_date 2013-09-19
_audit_creation_method CSD-ConQuest-V1
_database_code_CSD AGAXOX
_database_code_depnum_ccdc_archive 'CCDC 962153'
_chemical_formula_sum 'C13 H9 N3 O3'
_chemical_formula_moiety
;
C13 H9 N3 O3
;
_journal_coeditor_code "IUCr kj2228"
_journal_coden_Cambridge 1370
_journal_volume 69
_journal_year 2013
_journal_page_first o1159
_journal_name_full 'Acta Crystallogr.,Sect.E:Struct.Rep.Online '
loop_
_publ_author_name
"Y.Kandri Rodi"
"K.Misbahi"
"A.El-Ghayoury"
"L.Zorina"
"E.M.Essassi"
"L.El Ammari"
_chemical_name_systematic
;
5-Nitro-1,3-bis(prop-2-yn-1-yl)-1,3-dihydro-2H-benzimidazol-2-one
;
_cell_volume   2457.258
_exptl_crystal_colour 'colorless'
_exptl_crystal_density_diffrn 1.38
_exptl_crystal_description 'prism'
_diffrn_ambient_temperature 150
#These two values have been output from a single CSD field.
_refine_ls_R_factor_gt 0.0468
_refine_ls_wR_factor_gt 0.0468
_symmetry_cell_setting orthorhombic
_symmetry_space_group_name_H-M 'P c a 21'
_symmetry_Int_Tables_number 29
loop_
_symmetry_equiv_pos_site_id
_symmetry_equiv_pos_as_xyz
1 x,y,z
2 -x,-y,1/2+z
3 1/2-x,y,1/2+z
4 1/2+x,-y,z
_cell_length_a 20.0988(16)
_cell_length_b 4.2645(3)
_cell_length_c 28.669(2)
_cell_angle_alpha 90
_cell_angle_beta 90
_cell_angle_gamma 90
_cell_formula_units_Z 8
loop_
_atom_type_symbol
_atom_type_radius_bond
C 0.68
H 0.23
N 0.68
O 0.68
loop_
_atom_site_label
_atom_site_type_symbol
_atom_site_fract_x
_atom_site_fract_y
_atom_site_fract_z
O1 O 0.07911(10) -0.4511(5) 0.39515(8)
O2 O 0.29627(10) 0.6066(6) 0.25710(8)
O3 O 0.24251(12) 0.5944(5) 0.19215(8)
N1 N 0.15605(10) -0.1129(5) 0.36150(7)
N2 N 0.07187(10) -0.2738(5) 0.31877(7)
N3 N 0.24996(12) 0.5152(5) 0.23272(10)
C1 C 0.09991(12) -0.2962(6) 0.36290(9)
C2 C 0.16290(13) 0.0211(5) 0.31805(10)
C3 C 0.10972(10) -0.0835(5) 0.29072(8)
C4 C 0.21066(11) 0.2190(5) 0.30002(8)
H1 H 0.24710 0.29220 0.31810
C5 C 0.10186(14) 0.0045(5) 0.24439(10)
H2 H 0.06550 -0.06830 0.22620
C6 C 0.20185(11) 0.3042(5) 0.25370(8)
C7 C 0.14964(12) 0.2035(6) 0.22587(9)
H3 H 0.14660 0.27040 0.19430
C8 C 0.19954(13) -0.0708(6) 0.40183(9)
H4 H 0.17810 -0.16250 0.42970
H5 H 0.20600 0.15610 0.40760
C9 C 0.26444(13) -0.2195(7) 0.39468(10)
C10 C 0.31652(16) -0.340(1) 0.38963(14)
H6 H 0.35860 -0.43740 0.38550
C11 C 0.01090(12) -0.4388(6) 0.30644(10)
H7 H 0.01740 -0.54560 0.27610
H8 H 0.00200 -0.60180 0.33020
C12 C -0.04656(12) -0.2329(6) 0.30314(10)
C13 C -0.09362(15) -0.0705(8) 0.29930(15)
H9 H -0.13160 0.06050 0.29620
O4 O 0.32562(11) 0.4775(5) -0.01141(8)
O5 O 0.54368(10) -0.5661(5) 0.12857(8)
O6 O 0.49109(12) -0.5397(6) 0.19373(8)
N4 N 0.40313(10) 0.1452(5) 0.02253(7)
N5 N 0.3178(1) 0.3013(5) 0.06502(7)
N6 N 0.49818(12) -0.4715(5) 0.15248(10)
C14 C 0.34636(12) 0.3236(6) 0.02130(9)
C15 C 0.41073(12) 0.0130(5) 0.06653(10)
C16 C 0.35634(11) 0.1154(5) 0.09333(8)
C17 C 0.45827(11) -0.1800(5) 0.08478(8)
H10 H 0.49500 -0.25270 0.06690
C18 C 0.34914(13) 0.0292(6) 0.13955(10)
H11 H 0.31240 0.10110 0.15740
C19 C 0.44923(11) -0.2632(5) 0.13144(9)
C20 C 0.39648(11) -0.1631(6) 0.15897(9)
H12 H 0.39320 -0.22640 0.19070
C21 C 0.44756(13) 0.1050(6) -0.01722(9)
H13 H 0.45360 -0.12170 -0.02340
H14 H 0.42700 0.20030 -0.04520
C22 C 0.51236(13) 0.2486(7) -0.00918(10)
C23 C 0.56438(16) 0.3678(10) -0.00310(14)
H15 H 0.60640 0.46420 0.00180
C24 C 0.25700(13) 0.4618(6) 0.07741(10)
H16 H 0.24590 0.61550 0.05270
H17 H 0.26400 0.57910 0.10680
C25 C 0.20067(12) 0.2450(6) 0.08344(10)
C26 C 0.15561(15) 0.0767(8) 0.09000(14)
H18 H 0.11900 -0.05980 0.09530
#END
