
#######################################################################
#
#                 Cambridge Crystallographic Data Centre
#                                CCDC
#
#######################################################################
#
# If this CIF has been generated from an entry in the Cambridge
# Structural Database, then it will include bibliographic, chemical,
# crystal, experimental, refinement or atomic coordinate data resulting
# from the CCDC's data processing and validation procedures.
#
#######################################################################

data_CSD_CIF_AGETIR
_audit_creation_date 2013-09-19
_audit_creation_method CSD-ConQuest-V1
_database_code_CSD AGETIR
_database_code_depnum_ccdc_archive 'CCDC 962255'
_chemical_formula_sum 'C25 H24 N8 O2'
_chemical_formula_moiety
;
C25 H24 N8 O2
;
_journal_coden_Cambridge 1336
_journal_volume 15
_journal_year 2013
_journal_page_first 3836
_journal_name_full 'Org.Lett. '
loop_
_publ_author_name
"Hu Zhang"
"Liang Zhao"
"De-Xian Wang"
"Mei-Xiang Wang"
_chemical_name_systematic
;
2,8,14,20-Tetramethyl-28-nitro-2,8,14,20,25,26,27-hepta-azapentacyclo[19.3.1.1
^3,7^.1^9,13^.1^15,19^]octacosa-1(25),3(28),4,6,9(27),10,12,15(26),16,18,21,23
-dodecaene unknown solvate
;
_cell_volume   5043.374
_exptl_crystal_colour 'yellow'
_exptl_crystal_density_diffrn 1.234
_exptl_crystal_description 'block'
_diffrn_ambient_temperature 173
_refine_special_details
;
The SQUEEZE/PLATON program was used to model some disorder.

;
#These two values have been output from a single CSD field.
_refine_ls_R_factor_gt 0.0967
_refine_ls_wR_factor_gt 0.0967
_symmetry_cell_setting monoclinic
_symmetry_space_group_name_H-M 'P 21/c'
_symmetry_Int_Tables_number 14
loop_
_symmetry_equiv_pos_site_id
_symmetry_equiv_pos_as_xyz
1 x,y,z
2 -x,1/2+y,1/2-z
3 -x,-y,-z
4 x,-1/2-y,-1/2+z
_cell_length_a 10.295(2)
_cell_length_b 13.858(3)
_cell_length_c 35.376(7)
_cell_angle_alpha 90
_cell_angle_beta 92.18(3)
_cell_angle_gamma 90
_cell_formula_units_Z 8
loop_
_atom_type_symbol
_atom_type_radius_bond
C 0.68
H 0.23
N 0.68
O 0.68
loop_
_atom_site_label
_atom_site_type_symbol
_atom_site_fract_x
_atom_site_fract_y
_atom_site_fract_z
O1 O 0.0721(3) 0.2445(2) -0.07768(8)
O2 O 0.0825(2) 0.2764(2) -0.01819(7)
N1 N 0.1321(3) 0.26126(19) -0.04821(8)
N2 N 0.2677(3) 0.4358(2) -0.03270(8)
N3 N 0.3084(2) 0.41141(18) 0.03063(7)
N4 N 0.3526(3) 0.3704(2) 0.09294(7)
N5 N 0.3334(2) 0.20551(19) 0.07790(7)
N6 N 0.2973(3) 0.0427(2) 0.06159(8)
N7 N 0.2763(2) 0.06284(18) -0.00327(7)
N8 N 0.2708(3) 0.0924(2) -0.06689(7)
C1 C 0.2760(3) 0.2641(2) -0.04901(8)
C2 C 0.3405(3) 0.1797(2) -0.05857(8)
C3 C 0.4748(3) 0.1828(3) -0.05848(9)
H1 H 0.52200 0.12660 -0.06490
C4 C 0.5411(3) 0.2667(3) -0.04913(10)
H2 H 0.63340 0.26750 -0.04890
C5 C 0.4735(3) 0.3504(2) -0.03998(9)
H3 H 0.52000 0.40790 -0.03380
C6 C 0.3384(3) 0.3499(2) -0.03985(8)
C7 C 0.1954(4) 0.4820(3) -0.06424(11)
H4 H 0.22760 0.54790 -0.06750
H5 H 0.10280 0.48400 -0.05880
H6 H 0.20750 0.44510 -0.08750
C8 C 0.2529(3) 0.4668(2) 0.00421(9)
C9 C 0.1825(3) 0.5505(3) 0.01264(12)
H7 H 0.14570 0.59040 -0.00680
C10 C 0.1694(4) 0.5718(3) 0.05019(12)
H8 H 0.12210 0.62770 0.05690
C11 C 0.2233(3) 0.5142(3) 0.07819(11)
H9 H 0.21300 0.52870 0.10420
C12 C 0.2941(3) 0.4332(2) 0.06706(9)
C13 C 0.2980(4) 0.3613(3) 0.1305(1)
H10 H 0.20900 0.33640 0.12790
H11 H 0.29710 0.42470 0.14270
H12 H 0.35140 0.31670 0.14600
C14 C 0.4076(3) 0.2847(2) 0.07765(8)
C15 C 0.5299(3) 0.2871(3) 0.06317(10)
H13 H 0.58060 0.34440 0.06420
C16 C 0.5769(3) 0.2034(3) 0.04707(10)
H14 H 0.66040 0.20260 0.03650
C17 C 0.5017(3) 0.1218(3) 0.04656(10)
H15 H 0.53210 0.06360 0.03580
C18 C 0.3793(3) 0.1259(2) 0.06219(8)
C19 C 0.2330(5) 0.0188(3) 0.09631(11)
H16 H 0.14270 0.04130 0.09450
H17 H 0.27850 0.05030 0.11780
H18 H 0.23440 -0.05130 0.10000
C20 C 0.2438(3) 0.0113(2) 0.02704(9)
C21 C 0.1625(4) -0.0688(2) 0.02422(11)
H19 H 0.14140 -0.10500 0.04590
C22 C 0.1138(4) -0.0935(3) -0.01137(11)
H20 H 0.05660 -0.14710 -0.01410
C23 C 0.1461(3) -0.0426(3) -0.04302(10)
H21 H 0.11350 -0.06010 -0.06750
C24 C 0.2295(3) 0.0366(2) -0.03730(9)
C25 C 0.2371(4) 0.0681(3) -0.10609(10)
H22 H 0.26530 0.00200 -0.11130
H23 H 0.28070 0.11290 -0.12290
H24 H 0.14280 0.07290 -0.11050
O3 O 0.9440(3) 0.40064(19) 0.26652(8)
O4 O 0.9967(2) 0.4527(2) 0.32267(8)
N9 N 0.9170(3) 0.43114(19) 0.29726(8)
N10 N 0.8036(2) 0.61136(18) 0.28501(7)
N11 N 0.6988(2) 0.59190(18) 0.22713(7)
N12 N 0.5864(3) 0.5585(2) 0.17127(8)
N13 N 0.6076(3) 0.39374(19) 0.18490(7)
N14 N 0.6452(3) 0.2300(2) 0.19890(8)
N15 N 0.7125(3) 0.24435(18) 0.26143(8)
N16 N 0.7735(3) 0.2745(2) 0.32332(8)
C26 C 0.7783(3) 0.4447(2) 0.30540(8)
C27 C 0.7103(3) 0.3658(2) 0.31847(9)
C28 C 0.5815(3) 0.3797(3) 0.32601(10)
H25 H 0.53160 0.32790 0.33540
C29 C 0.5246(3) 0.4692(3) 0.31988(10)
H26 H 0.43540 0.47780 0.32500
C30 C 0.5945(3) 0.5462(2) 0.30640(9)
H27 H 0.55340 0.60690 0.30230
C31 C 0.7246(3) 0.5348(2) 0.29883(8)
C32 C 0.8774(3) 0.6699(2) 0.31279(9)
H28 H 0.96530 0.68070 0.30400
H29 H 0.88250 0.63610 0.33710
H30 H 0.83380 0.73220 0.31580
C33 C 0.7794(3) 0.6456(2) 0.24851(8)
C34 C 0.8371(3) 0.7301(2) 0.23546(9)
H31 H 0.89440 0.76750 0.25120
C35 C 0.8064(3) 0.7563(2) 0.19853(10)
H32 H 0.84460 0.81280 0.18850
C36 C 0.7219(3) 0.7027(2) 0.17578(9)
H33 H 0.70010 0.72170 0.15050
C37 C 0.6698(3) 0.6194(2) 0.19146(8)
C38 C 0.5347(5) 0.5800(3) 0.13459(10)
H34 H 0.50750 0.52010 0.12190
H35 H 0.60130 0.61200 0.12000
H36 H 0.45960 0.62290 0.13660
C39 C 0.5407(3) 0.4751(2) 0.19051(8)
C40 C 0.4376(3) 0.4818(2) 0.21347(9)
H37 H 0.39310 0.54130 0.21640
C41 C 0.3993(3) 0.3997(2) 0.23247(9)
H38 H 0.32680 0.40160 0.24830
C42 C 0.4678(3) 0.3155(2) 0.22803(9)
H39 H 0.44480 0.25850 0.24110
C43 C 0.5712(3) 0.3157(2) 0.20402(9)
C44 C 0.6766(4) 0.2032(3) 0.15996(10)
H40 H 0.62430 0.24220 0.14200
H41 H 0.65740 0.13470 0.15580
H42 H 0.76910 0.21510 0.15620
C45 C 0.7178(3) 0.1933(2) 0.22947(10)
C46 C 0.7925(3) 0.1091(3) 0.22683(11)
H43 H 0.79520 0.07340 0.20390
C47 C 0.8618(3) 0.0803(3) 0.25908(12)
H44 H 0.91380 0.02380 0.25820
C48 C 0.8577(3) 0.1310(3) 0.29238(12)
H45 H 0.90420 0.11010 0.31460
C49 C 0.7818(3) 0.2149(2) 0.29199(10)
C50 C 0.8403(5) 0.2527(3) 0.35901(11)
H46 H 0.81090 0.19000 0.36820
H47 H 0.82110 0.30280 0.37750
H48 H 0.93420 0.25050 0.35550
#END
