
#######################################################################
#
#                 Cambridge Crystallographic Data Centre
#                                CCDC
#
#######################################################################
#
# If this CIF has been generated from an entry in the Cambridge
# Structural Database, then it will include bibliographic, chemical,
# crystal, experimental, refinement or atomic coordinate data resulting
# from the CCDC's data processing and validation procedures.
#
#######################################################################

data_CSD_CIF_AGIKEI
_audit_creation_date 2013-09-19
_audit_creation_method CSD-ConQuest-V1
_database_code_CSD AGIKEI
_database_code_depnum_ccdc_archive 'CCDC 860247'
_chemical_formula_sum 'C16 H17 N1 O7'
_chemical_formula_moiety
;
C16 H17 N1 O7
;
_journal_coden_Cambridge 388
_journal_volume 49
_journal_year 2013
_journal_page_first 888
_journal_name_full 'Zh.Org.Khim.(Russ.)(Russ.J.Org.Chem.) '
loop_
_publ_author_name
"A.S.Kilmetev"
"E.E.Shults"
"M.M.Shakirov"
"T.V.Rybalova"
"G.A.Tolstikov"
_chemical_name_systematic
;
(5aS,9R,9aS)-ethyl 
9a-ethoxycarbonyl-9-methoxy-2-nitro-7-oxo-5a,6,7,8,9,9a-hexahydrodibenzo[b,d]f
uran
;
_chemical_name_common
;
Ethyl 
9-methoxy-2-nitro-7-oxo-6,7,8,9-tetrahydrodibenzo[b,d]furan-9a(5aH)-carboxylat
e
;
_chemical_melting_point 342
_cell_volume   3090.098
_exptl_crystal_colour 'colorless'
_exptl_crystal_density_diffrn 1.441
_exptl_crystal_description 'elongated plate'
_diffrn_ambient_temperature 150
#These two values have been output from a single CSD field.
_refine_ls_R_factor_gt 0.0422
_refine_ls_wR_factor_gt 0.0422
_symmetry_cell_setting orthorhombic
_symmetry_space_group_name_H-M 'P c a 21'
_symmetry_Int_Tables_number 29
loop_
_symmetry_equiv_pos_site_id
_symmetry_equiv_pos_as_xyz
1 x,y,z
2 -x,-y,1/2+z
3 1/2+x,-y,z
4 1/2-x,y,1/2+z
_cell_length_a 26.1891(7)
_cell_length_b 7.2924(2)
_cell_length_c 16.1801(5)
_cell_angle_alpha 90
_cell_angle_beta 90
_cell_angle_gamma 90
_cell_formula_units_Z 8
loop_
_atom_type_symbol
_atom_type_radius_bond
C 0.68
H 0.23
N 0.68
O 0.68
loop_
_atom_site_label
_atom_site_type_symbol
_atom_site_fract_x
_atom_site_fract_y
_atom_site_fract_z
N1 N 0.90870(6) 0.4808(3) 0.24446(13)
O1 O 0.95318(6) 0.5101(2) 0.26541(12)
O2 O 0.89545(7) 0.4664(3) 0.17202(11)
O3 O 0.65900(6) 0.7342(3) 0.51209(11)
O4 O 0.71746(6) 0.60653(19) 0.24165(9)
O5 O 0.67184(5) 0.12086(19) 0.30692(9)
O6 O 0.74189(5) 0.16836(18) 0.22988(8)
O7 O 0.76189(5) 0.3715(2) 0.48499(9)
C1 C 0.81989(7) 0.4278(2) 0.28574(12)
H1 H 0.81010 0.42760 0.22920
C2 C 0.87014(7) 0.4574(3) 0.30950(13)
C3 C 0.88612(7) 0.4582(3) 0.39105(14)
H2 H 0.92100 0.47850 0.40400
C4 C 0.85073(7) 0.4290(3) 0.45393(14)
H3 H 0.86050 0.42900 0.51040
C5 C 0.80022(7) 0.3997(3) 0.43011(12)
C6 C 0.71624(7) 0.3188(3) 0.43850(12)
H4 H 0.71060 0.18390 0.44470
C7 C 0.67123(7) 0.4204(3) 0.47498(13)
H5 H 0.63940 0.37450 0.44930
H6 H 0.66940 0.39470 0.53500
C8 C 0.67481(7) 0.6239(3) 0.46198(13)
C9 C 0.69875(7) 0.6843(3) 0.38175(14)
H7 H 0.73470 0.71970 0.39200
H8 H 0.68050 0.79370 0.36090
C10 C 0.69725(7) 0.5343(2) 0.31602(12)
H9 H 0.66090 0.49760 0.30650
C11 C 0.72810(7) 0.3628(2) 0.34556(11)
C12 C 0.78466(7) 0.3986(2) 0.34794(11)
C13 C 0.69148(10) 0.5537(3) 0.16786(13)
H10 H 0.69600 0.42190 0.15870
H11 H 0.70550 0.62180 0.12090
H12 H 0.65500 0.58120 0.17340
C14 C 0.71114(7) 0.2017(2) 0.29279(11)
C15 C 0.72352(8) 0.0345(3) 0.16865(14)
H13 H 0.69630 0.08950 0.13420
H14 H 0.70940 -0.07480 0.19680
C16 C 0.76801(8) -0.0182(4) 0.11607(14)
H15 H 0.78700 0.09210 0.10020
H16 H 0.75580 -0.08100 0.06630
H17 H 0.79050 -0.10040 0.14720
N2 N 0.65224(7) -0.0699(3) 0.94565(11)
O8 O 0.69810(6) -0.0726(3) 0.92895(11)
O9 O 0.63522(7) -0.0964(3) 1.01527(10)
O10 O 0.40587(7) -0.2398(2) 0.65923(11)
O11 O 0.45836(5) -0.13303(19) 0.93392(8)
O12 O 0.42249(5) 0.35853(18) 0.86566(10)
O13 O 0.49119(5) 0.31229(18) 0.94635(8)
C17 C 0.56646(7) 0.0171(2) 0.89893(11)
H18 H 0.55520 0.02080 0.95470
C18 C 0.61627(7) -0.0307(2) 0.87866(12)
C19 C 0.63397(7) -0.0428(3) 0.79793(13)
H19 H 0.66850 -0.07520 0.78730
C20 C 0.60096(8) -0.0073(3) 0.73317(12)
H20 H 0.61170 -0.01830 0.67730
C21 C 0.55134(7) 0.0452(3) 0.75292(11)
O14 O 0.51519(5) 0.0845(2) 0.69576(8)
C22 C 0.47028(7) 0.1559(3) 0.73842(12)
H21 H 0.46870 0.29200 0.73100
C23 C 0.42395(7) 0.0691(3) 0.69841(12)
H22 H 0.39260 0.12320 0.72240
H23 H 0.42410 0.09660 0.63850
C24 C 0.42295(7) -0.1365(3) 0.71064(13)
C25 C 0.44445(7) -0.2034(3) 0.79238(12)
H24 H 0.48020 -0.24410 0.78420
H25 H 0.42440 -0.31010 0.81170
C26 C 0.44303(7) -0.0537(2) 0.85794(11)
H26 H 0.40720 -0.00830 0.86350
C27 C 0.47817(6) 0.1106(2) 0.83237(11)
C28 C 0.53400(6) 0.0589(2) 0.83432(11)
C29 C 0.43352(10) -0.0621(3) 1.00552(13)
H27 H 0.45150 0.04790 1.02460
H28 H 0.43390 -0.15480 1.04930
H29 H 0.39810 -0.03060 0.99190
C30 C 0.46111(7) 0.2761(2) 0.88268(12)
C31 C 0.47180(8) 0.4527(3) 1.00358(14)
H30 H 0.45720 0.55640 0.97200
H31 H 0.44450 0.40000 1.03860
C32 C 0.5139(1) 0.5179(5) 1.0556(2)
H32 H 0.52890 0.41410 1.08540
H33 H 0.50090 0.60790 1.09540
H34 H 0.54000 0.57540 1.02080
#END
