
#######################################################################
#
#                 Cambridge Crystallographic Data Centre
#                                CCDC
#
#######################################################################
#
# If this CIF has been generated from an entry in the Cambridge
# Structural Database, then it will include bibliographic, chemical,
# crystal, experimental, refinement or atomic coordinate data resulting
# from the CCDC's data processing and validation procedures.
#
#######################################################################

data_CSD_CIF_AGISUG
_audit_creation_date 2013-09-20
_audit_creation_method CSD-ConQuest-V1
_database_code_CSD AGISUG
_database_code_depnum_ccdc_archive 'CCDC 915929'
_chemical_formula_sum 'C34 H40 N4 O6'
_chemical_formula_moiety
;
C34 H40 N4 O6
;
_journal_coden_Cambridge 1336
_journal_volume 15
_journal_year 2013
_journal_page_first 4280
_journal_name_full 'Org.Lett. '
loop_
_publ_author_name
"P.Ravat"
"Y.Ito"
"E.Gorelik"
"V.Enkelmann"
"M.Baumgarten"
_chemical_name_systematic
;
2,2'-(4,5,9,10-Tetramethoxypyrene-2,7-diyl)bis(4,4,5,5-tetramethyl-4,5-dihydro
-1H-imidazol-1-oxyl radical)
;
_cell_volume   1519.304
_exptl_crystal_colour 'dark red'
_exptl_crystal_density_diffrn 1.313
_exptl_crystal_description 'prism'
_diffrn_ambient_temperature 120
#These two values have been output from a single CSD field.
_refine_ls_R_factor_gt 0.0428
_refine_ls_wR_factor_gt 0.0428
_symmetry_cell_setting monoclinic
_symmetry_space_group_name_H-M 'P 21/n'
_symmetry_Int_Tables_number 14
loop_
_symmetry_equiv_pos_site_id
_symmetry_equiv_pos_as_xyz
1 x,y,z
2 1/2-x,1/2+y,1/2-z
3 -x,-y,-z
4 -1/2+x,-1/2-y,-1/2+z
_cell_length_a 6.3524(2)
_cell_length_b 11.2655(3)
_cell_length_c 21.2306(5)
_cell_angle_alpha 90
_cell_angle_beta 90.2971(17)
_cell_angle_gamma 90
_cell_formula_units_Z 2
loop_
_atom_type_symbol
_atom_type_radius_bond
C 0.68
H 0.23
N 0.68
O 0.68
loop_
_atom_site_label
_atom_site_type_symbol
_atom_site_fract_x
_atom_site_fract_y
_atom_site_fract_z
N1 N -0.04145(17) 0.73216(9) 0.19105(5)
N2 N 0.16107(17) 0.87729(9) 0.15174(5)
O1 O 0.72113(15) 0.82284(7) -0.00253(4)
O2 O 0.09526(13) 0.31589(7) 0.09658(4)
O3 O -0.11792(18) 0.62940(9) 0.20031(6)
C1 C 0.23967(18) 0.36324(10) 0.05549(5)
C2 C 0.29261(18) 0.48719(10) 0.06224(5)
C3 C 0.18487(19) 0.56022(10) 0.10501(6)
C4 C 0.23717(19) 0.68074(10) 0.10961(5)
C5 C 0.39979(19) 0.72795(10) 0.07322(5)
C6 C 0.50720(18) 0.65763(10) 0.02984(5)
C7 C 0.45075(17) 0.53567(9) 0.02320(5)
C8 C 0.66541(18) 0.70587(10) -0.01113(6)
C9 C 0.6495(3) 0.90062(12) -0.05164(7)
C10 C -0.1097(2) 0.30362(15) 0.06930(7)
C11 C 0.12168(18) 0.76466(10) 0.15046(6)
C12 C -0.09280(19) 0.83546(10) 0.23262(6)
C13 C 0.0283(2) 0.81518(13) 0.29422(6)
C14 C -0.3280(2) 0.84076(12) 0.24505(7)
C15 C 0.00129(19) 0.93696(10) 0.19179(6)
C16 C -0.1618(2) 0.99004(13) 0.14608(7)
C17 C 0.1060(2) 1.03583(12) 0.22962(7)
H1 H 0.07660 0.52790 0.13050
H2 H 0.43790 0.80900 0.07820
H3 H 0.69320 0.97950 -0.04260
H4 H 0.70740 0.87630 -0.09070
H5 H 0.50020 0.89770 -0.05410
H6 H -0.20290 0.27070 0.09950
H7 H -0.15990 0.37940 0.05650
H8 H -0.10250 0.25270 0.03370
H9 H 0.00060 0.87850 0.32260
H10 H 0.17490 0.81180 0.28580
H11 H -0.01570 0.74240 0.31250
H12 H -0.35830 0.90660 0.27150
H13 H -0.40120 0.84940 0.20620
H14 H -0.37170 0.76960 0.26510
H15 H -0.26850 1.02970 0.16920
H16 H -0.09430 1.04490 0.11890
H17 H -0.22320 0.92810 0.12180
H18 H 0.00430 1.07400 0.25530
H19 H 0.16600 1.09200 0.20160
H20 H 0.21350 1.00300 0.25550
N1B N 1.04145(17) 0.26784(9) -0.19105(5)
N2B N 0.83893(17) 0.12271(9) -0.15174(5)
O1B O 0.27887(15) 0.17716(7) 0.00253(4)
O2B O 0.90474(13) 0.68411(7) -0.09658(4)
O3B O 1.11792(18) 0.37060(9) -0.20031(6)
C1B C 0.76033(18) 0.63676(10) -0.05549(5)
C2B C 0.70739(18) 0.51281(10) -0.06224(5)
C3B C 0.81513(19) 0.43978(10) -0.10501(6)
C4B C 0.76283(19) 0.31926(10) -0.10961(5)
C5B C 0.60021(19) 0.27205(10) -0.07322(5)
C6B C 0.49280(18) 0.34237(10) -0.02984(5)
C7B C 0.54925(17) 0.46433(9) -0.02320(5)
C8B C 0.33459(18) 0.29413(10) 0.01113(6)
C9B C 0.3505(3) 0.09938(12) 0.05164(7)
C10B C 1.1097(2) 0.69638(15) -0.06930(7)
C11B C 0.87832(18) 0.23534(10) -0.15046(6)
C12B C 1.09280(19) 0.16454(10) -0.23262(6)
C13B C 0.9717(2) 0.18482(13) -0.29422(6)
C14B C 1.3280(2) 0.15924(12) -0.24505(7)
C15B C 0.99871(19) 0.06304(10) -0.19179(6)
C16B C 1.1618(2) 0.00996(13) -0.14608(7)
C17B C 0.8940(2) -0.03583(12) -0.22962(7)
H1B H 0.92340 0.47210 -0.13050
H2B H 0.56210 0.19100 -0.07820
H3B H 0.30680 0.02050 0.04260
H4B H 0.29260 0.12370 0.09070
H5B H 0.49980 0.10230 0.05410
H6B H 1.20290 0.72930 -0.09950
H7B H 1.15990 0.62060 -0.05650
H8B H 1.10250 0.74730 -0.03370
H9B H 0.99940 0.12150 -0.32260
H10B H 0.82510 0.18820 -0.28580
H11B H 1.01570 0.25760 -0.31250
H12B H 1.35830 0.09340 -0.27150
H13B H 1.40120 0.15060 -0.20620
H14B H 1.37170 0.23040 -0.26510
H15B H 1.26850 -0.02970 -0.16920
H16B H 1.09430 -0.04490 -0.11890
H17B H 1.22320 0.07190 -0.12180
H18B H 0.99570 -0.07400 -0.25530
H19B H 0.83400 -0.09200 -0.20160
H20B H 0.78650 -0.00300 -0.25550
#END
