
#######################################################################
#
#                 Cambridge Crystallographic Data Centre
#                                CCDC
#
#######################################################################
#
# If this CIF has been generated from an entry in the Cambridge
# Structural Database, then it will include bibliographic, chemical,
# crystal, experimental, refinement or atomic coordinate data resulting
# from the CCDC's data processing and validation procedures.
#
#######################################################################

data_CSD_CIF_AGITER
_audit_creation_date 2013-09-20
_audit_creation_method CSD-ConQuest-V1
_database_code_CSD AGITER
_database_code_depnum_ccdc_archive 'CCDC 915927'
_chemical_formula_sum 'C34 H40 N4 O8'
_chemical_formula_moiety
;
C34 H40 N4 O8
;
_journal_coden_Cambridge 1336
_journal_volume 15
_journal_year 2013
_journal_page_first 4280
_journal_name_full 'Org.Lett. '
loop_
_publ_author_name
"P.Ravat"
"Y.Ito"
"E.Gorelik"
"V.Enkelmann"
"M.Baumgarten"
_chemical_name_systematic
;
2,2'-(4,5,9,10-Tetramethoxypyrene-2,7-diyl)bis(4,4,5,5-tetramethyl-4,5-dihydro
-1H-imidazol-1-oxyl) 3,3'-dioxide diradical
;
_cell_volume   1522.503
_exptl_crystal_colour 'dark blue'
_exptl_crystal_density_diffrn 1.38
_exptl_crystal_description 'prism'
_diffrn_ambient_temperature 120
#These two values have been output from a single CSD field.
_refine_ls_R_factor_gt 0.0578
_refine_ls_wR_factor_gt 0.0578
_symmetry_cell_setting monoclinic
_symmetry_space_group_name_H-M 'P 21/n'
_symmetry_Int_Tables_number 14
loop_
_symmetry_equiv_pos_site_id
_symmetry_equiv_pos_as_xyz
1 x,y,z
2 1/2-x,1/2+y,1/2-z
3 -x,-y,-z
4 -1/2+x,-1/2-y,-1/2+z
_cell_length_a 6.2882(2)
_cell_length_b 11.4945(6)
_cell_length_c 21.0641(9)
_cell_angle_alpha 90
_cell_angle_beta 90.135(3)
_cell_angle_gamma 90
_cell_formula_units_Z 2
loop_
_atom_type_symbol
_atom_type_radius_bond
C 0.68
H 0.23
N 0.68
O 0.68
loop_
_atom_site_label
_atom_site_type_symbol
_atom_site_fract_x
_atom_site_fract_y
_atom_site_fract_z
N1 N 0.4815(4) 0.27574(16) 0.29940(9)
N2 N 0.6726(4) 0.12938(17) 0.33583(9)
O1 O 0.5299(3) 0.65839(18) 0.41678(9)
O2 O 1.2909(3) 0.20218(15) 0.48353(9)
O3 O 0.4027(3) 0.37701(15) 0.29043(9)
O4 O 0.8062(3) 0.06757(16) 0.36687(9)
C1 C 0.9530(4) 0.4655(2) 0.47574(10)
C2 C 0.7702(4) 0.5065(2) 0.44246(10)
C3 C 0.6679(4) 0.4345(2) 0.39799(11)
C4 C 0.7506(4) 0.3238(2) 0.38498(11)
C5 C 0.9394(4) 0.2857(2) 0.41526(11)
C6 C 1.0384(4) 0.3555(2) 0.46092(11)
C7 C 1.2173(4) 0.3123(2) 0.49697(11)
C8 C 0.6903(4) 0.6213(2) 0.45627(11)
C9 C 0.3594(5) 0.7238(3) 0.44277(14)
C10 C 1.2058(6) 0.1150(3) 0.52485(18)
C11 C 0.6390(4) 0.2451(2) 0.34101(11)
C12 C 0.4259(4) 0.1772(2) 0.25559(11)
C13 C 0.5538(5) 0.1973(2) 0.19551(12)
C14 C 0.1876(4) 0.1772(2) 0.24059(12)
C15 C 0.5040(4) 0.0714(2) 0.29555(11)
C16 C 0.3385(5) 0.0242(2) 0.34119(13)
C17 C 0.6018(5) -0.0272(2) 0.25792(13)
H1 H 0.54420 0.46090 0.37640
H2 H 1.00050 0.21290 0.40420
H3 H 0.26140 0.74330 0.41010
H4 H 0.41280 0.79300 0.46170
H5 H 0.28970 0.67820 0.47410
H6 H 1.26020 0.04080 0.51350
H7 H 1.24550 0.13250 0.56730
H8 H 1.05520 0.11450 0.52140
H9 H 0.52500 0.13720 0.16580
H10 H 0.70100 0.19730 0.20570
H11 H 0.51590 0.27030 0.17760
H12 H 0.15510 0.11500 0.21250
H13 H 0.11130 0.16730 0.27910
H14 H 0.14820 0.24890 0.22150
H15 H 0.22930 -0.01390 0.31790
H16 H 0.40310 -0.02940 0.36960
H17 H 0.27920 0.08700 0.36460
H18 H 0.49620 -0.06410 0.23270
H19 H 0.66380 -0.08240 0.28590
H20 H 0.70880 0.00430 0.23110
N1B N 1.5185(4) 0.72426(16) 0.70060(9)
N2B N 1.3274(4) 0.87062(17) 0.66417(9)
O1B O 1.4701(3) 0.34161(18) 0.58322(9)
O2B O 0.7091(3) 0.79782(15) 0.51647(9)
O3B O 1.5973(3) 0.62299(15) 0.70957(9)
O4B O 1.1938(3) 0.93243(16) 0.63313(9)
C1B C 1.0470(4) 0.5345(2) 0.52426(10)
C2B C 1.2298(4) 0.4935(2) 0.55754(10)
C3B C 1.3321(4) 0.5655(2) 0.60201(11)
C4B C 1.2494(4) 0.6762(2) 0.61502(11)
C5B C 1.0606(4) 0.7143(2) 0.58474(11)
C6B C 0.9616(4) 0.6445(2) 0.53908(11)
C7B C 0.7827(4) 0.6877(2) 0.50303(11)
C8B C 1.3097(4) 0.3787(2) 0.54373(11)
C9B C 1.6406(5) 0.2762(3) 0.55723(14)
C10B C 0.7942(6) 0.8850(3) 0.47515(18)
C11B C 1.3610(4) 0.7549(2) 0.65899(11)
C12B C 1.5741(4) 0.8228(2) 0.74441(11)
C13B C 1.4462(5) 0.8027(2) 0.80449(12)
C14B C 1.8124(4) 0.8228(2) 0.75941(12)
C15B C 1.4960(4) 0.9286(2) 0.70445(11)
C16B C 1.6615(5) 0.9758(2) 0.65881(13)
C17B C 1.3982(5) 1.0272(2) 0.74208(13)
H1B H 1.45580 0.53910 0.62360
H2B H 0.99950 0.78710 0.59580
H3B H 1.73860 0.25670 0.58990
H4B H 1.58720 0.20700 0.53830
H5B H 1.71030 0.32180 0.52590
H6B H 0.73980 0.95920 0.48650
H7B H 0.75450 0.86750 0.43270
H8B H 0.94480 0.88550 0.47860
H9B H 1.47500 0.86280 0.83420
H10B H 1.29900 0.80270 0.79430
H11B H 1.48410 0.72970 0.82240
H12B H 1.84490 0.88500 0.78750
H13B H 1.88870 0.83270 0.72090
H14B H 1.85180 0.75110 0.77850
H15B H 1.77070 1.01390 0.68210
H16B H 1.59690 1.02940 0.63040
H17B H 1.72080 0.91300 0.63540
H18B H 1.50380 1.06410 0.76730
H19B H 1.33620 1.08240 0.71410
H20B H 1.29120 0.99570 0.76890
#END
