
#######################################################################
#
#                 Cambridge Crystallographic Data Centre
#                                CCDC
#
#######################################################################
#
# If this CIF has been generated from an entry in the Cambridge
# Structural Database, then it will include bibliographic, chemical,
# crystal, experimental, refinement or atomic coordinate data resulting
# from the CCDC's data processing and validation procedures.
#
#######################################################################

data_CSD_CIF_AGOKUE
_audit_creation_date 2013-09-21
_audit_creation_method CSD-ConQuest-V1
_database_code_CSD AGOKUE
_database_code_depnum_ccdc_archive 'CCDC 929372'
_chemical_formula_sum 'C18 H16 N4 O4'
_chemical_formula_moiety
;
C18 H16 N4 O4
;
_journal_coden_Cambridge 177
_journal_volume 11
_journal_year 2013
_journal_page_first 7350
_journal_name_full 'Org.Biomol.Chem. '
loop_
_publ_author_name
"M.Nagarjuna Reddy"
"K.C.Kumara Swamy"
_chemical_name_systematic
;
1-(2,3-Dihydro-5H-1,4-benzodioxepin-2-ylmethyl)-4-(4-nitrophenyl)-1H-1,2,3-tri
azole
;
_cell_volume    840.101
_exptl_crystal_colour 'colorless'
_exptl_crystal_density_diffrn 1.393
_exptl_crystal_description 'block'
_diffrn_ambient_temperature 298
#These two values have been output from a single CSD field.
_refine_ls_R_factor_gt 0.0549
_refine_ls_wR_factor_gt 0.0549
_symmetry_cell_setting triclinic
_symmetry_space_group_name_H-M 'P -1'
_symmetry_Int_Tables_number 2
loop_
_symmetry_equiv_pos_site_id
_symmetry_equiv_pos_as_xyz
1 x,y,z
2 -x,-y,-z
_cell_length_a 6.0255(6)
_cell_length_b 10.3665(11)
_cell_length_c 13.6263(14)
_cell_angle_alpha 92.903(9)
_cell_angle_beta 97.168(8)
_cell_angle_gamma 94.666(8)
_cell_formula_units_Z 2
loop_
_atom_type_symbol
_atom_type_radius_bond
C 0.68
H 0.23
N 0.68
O 0.68
loop_
_atom_site_label
_atom_site_type_symbol
_atom_site_fract_x
_atom_site_fract_y
_atom_site_fract_z
O1 O 0.3818(2) 0.33113(15) 0.84987(12)
O2 O 0.8667(2) 0.36683(15) 0.94288(12)
N1 N 0.0459(3) -0.10775(19) 0.86069(17)
N2 N 0.2035(3) -0.0400(2) 0.92149(18)
C1 C 0.4862(4) 0.3591(2) 0.76785(18)
C2 C -0.0809(3) -0.0250(2) 0.80883(17)
C3 C 0.7015(4) 0.4222(2) 0.77834(19)
N3 N 0.1759(3) 0.08571(18) 0.91038(15)
C4 C -0.2810(3) -0.0727(2) 0.74085(17)
C5 C 0.0034(3) 0.0978(2) 0.84035(18)
H1 H -0.04830 0.17460 0.81790
C6 C -0.3624(4) -0.2018(2) 0.73777(19)
H2 H -0.28210 -0.25900 0.77540
C7 C 0.6779(4) 0.3272(2) 0.98927(18)
H3 H 0.61750 0.40320 1.01630
H4 H 0.72480 0.27490 1.04390
C8 C 0.4955(3) 0.2497(2) 0.91881(18)
H5 H 0.56320 0.18320 0.88160
C9 C 0.8275(4) 0.4671(2) 0.87748(19)
H6 H 0.97100 0.51060 0.86760
H7 H 0.74400 0.53020 0.90860
C10 C 0.3219(4) 0.1851(2) 0.97356(19)
H8 H 0.39560 0.14540 1.03030
H9 H 0.23110 0.24980 0.99790
C11 C -0.6735(4) -0.1622(3) 0.6246(2)
C12 C 0.7912(4) 0.4490(2) 0.6926(2)
H10 H 0.93580 0.48970 0.69720
C13 C -0.5596(4) -0.2471(3) 0.6801(2)
H11 H -0.61410 -0.33370 0.67910
C14 C 0.3676(4) 0.3274(2) 0.6749(2)
H12 H 0.22330 0.28620 0.66910
O3 O -0.9731(4) -0.3145(3) 0.57828(19)
C15 C -0.3986(4) 0.0098(2) 0.6822(2)
H13 H -0.34420 0.09640 0.68220
N4 N -0.8864(4) -0.2092(3) 0.5639(2)
C16 C -0.5958(4) -0.0344(3) 0.6238(2)
H14 H -0.67500 0.02150 0.58440
C17 C 0.4601(5) 0.3561(3) 0.5934(2)
H15 H 0.37950 0.33450 0.53110
C18 C 0.6735(5) 0.4173(3) 0.6010(2)
H16 H 0.73710 0.43700 0.54420
O4 O -0.9614(5) -0.1414(3) 0.5012(3)
#END
