
#######################################################################
#
#                 Cambridge Crystallographic Data Centre
#                                CCDC
#
#######################################################################
#
# If this CIF has been generated from an entry in the Cambridge
# Structural Database, then it will include bibliographic, chemical,
# crystal, experimental, refinement or atomic coordinate data resulting
# from the CCDC's data processing and validation procedures.
#
#######################################################################

data_CSD_CIF_AGUNUN
_audit_creation_date 2015-07-22
_audit_creation_method CSD-ConQuest-V1
_database_code_CSD AGUNUN
_database_code_depnum_ccdc_archive 'CCDC 1034376'
_chemical_formula_sum 'C11 H13 N3 O3'
_chemical_formula_moiety
;
C11 H13 N3 O3
;
_journal_coden_Cambridge 1200
_journal_volume 23
_journal_year 2015
_journal_page_first 6025
_journal_name_full 'Bioorg.Med.Chem. '
loop_
_publ_author_name
"K.Ebert"
"J.Wiemer"
"J.Caballero"
"M.Kockerling"
"J.Steinbach"
"J.Pietzsch"
"C.Mamat"
_chemical_name_systematic
;
1-(1-Ethoxyethyl)-4-nitro-1H-indazole
;
_chemical_melting_point 331
_cell_volume   1141.432
_exptl_crystal_colour 'colorless'
_exptl_crystal_density_diffrn 1.369
_exptl_crystal_description 'block'
_diffrn_ambient_temperature 296
#These two values have been output from a single CSD field.
_refine_ls_R_factor_gt 0.0439
_refine_ls_wR_factor_gt 0.0439
_symmetry_cell_setting monoclinic
_symmetry_space_group_name_H-M 'P 21/c'
_symmetry_Int_Tables_number 14
loop_
_symmetry_equiv_pos_site_id
_symmetry_equiv_pos_as_xyz
1 x,y,z
2 -x,1/2+y,1/2-z
3 -x,-y,-z
4 x,-1/2-y,-1/2+z
_cell_length_a 7.3880(3)
_cell_length_b 19.1430(7)
_cell_length_c 8.2931(3)
_cell_angle_alpha 90
_cell_angle_beta 103.298(2)
_cell_angle_gamma 90
_cell_formula_units_Z 4
loop_
_atom_type_symbol
_atom_type_radius_bond
C 0.68
H 0.23
N 0.68
O 0.68
loop_
_atom_site_label
_atom_site_type_symbol
_atom_site_fract_x
_atom_site_fract_y
_atom_site_fract_z
N1 N 0.09074(15) 0.33972(5) -0.07314(11)
N2 N 0.05932(16) 0.34957(5) -0.23972(12)
C1 C 0.11118(18) 0.41404(6) -0.26294(15)
H1 H 0.10380 0.43430 -0.36620
C2 C 0.17948(15) 0.44834(6) -0.10983(14)
C3 C 0.16367(15) 0.39826(6) 0.01152(13)
C4 C 0.21122(17) 0.41219(6) 0.18177(14)
H2 H 0.19750 0.37860 0.25920
C5 C 0.27943(18) 0.47801(7) 0.22951(16)
H3 H 0.31250 0.48890 0.34180
C6 C 0.30026(18) 0.52880(7) 0.11385(17)
H4 H 0.34780 0.57250 0.14980
C7 C 0.25072(16) 0.51423(6) -0.05249(15)
C8 C 0.06209(16) 0.26995(6) -0.00959(14)
H5 H 0.07290 0.27290 0.11020
O1 O 0.19603(11) 0.22260(4) -0.04062(9)
C9 C -0.12704(17) 0.24217(7) -0.09080(15)
H6 H -0.14270 0.19660 -0.04750
H7 H -0.13860 0.23910 -0.20830
H8 H -0.22070 0.27310 -0.06850
C10 C 0.37640(17) 0.23055(7) 0.06785(16)
H9 H 0.36490 0.23500 0.18160
H10 H 0.43620 0.27230 0.03890
C11 C 0.49048(18) 0.16732(7) 0.05015(17)
H11 H 0.61160 0.17160 0.12280
H12 H 0.50270 0.16370 -0.06230
H13 H 0.43010 0.12620 0.07870
N3 N 0.27367(16) 0.56768(6) -0.17221(16)
O2 O 0.22904(18) 0.55317(6) -0.31938(14)
O3 O 0.33825(17) 0.62456(5) -0.11889(16)
#END
