
#######################################################################
#
#                 Cambridge Crystallographic Data Centre
#                                CCDC
#
#######################################################################
#
# If this CIF has been generated from an entry in the Cambridge
# Structural Database, then it will include bibliographic, chemical,
# crystal, experimental, refinement or atomic coordinate data resulting
# from the CCDC's data processing and validation procedures.
#
#######################################################################

data_CSD_CIF_AHACIX
_audit_creation_date 2015-07-23
_audit_creation_method CSD-ConQuest-V1
_database_code_CSD AHACIX
_database_code_depnum_ccdc_archive 'CCDC 1414527'
_chemical_formula_sum 'C10 H8 N4 O2'
_chemical_formula_moiety
;
C10 H8 N4 O2
;
_journal_coden_Cambridge 1078
_journal_year 2015
_journal_name_full 'CSD Communication(Private Communication) '
loop_
_publ_author_name
"M.Topper"
"M.L.McLaughlin"
"F.R.Fronczek"
_chemical_name_systematic
;
5-nitro-4-phenylpyrimidin-2-amine
;
_cell_volume    957.334
_exptl_crystal_colour 'colorless'
_exptl_crystal_density_diffrn 1.5
_exptl_crystal_preparation 'Re-crystallisation from solvent'
_diffrn_ambient_temperature 90
#These two values have been output from a single CSD field.
_refine_ls_R_factor_gt 0.05
_refine_ls_wR_factor_gt 0.05
_symmetry_cell_setting triclinic
_symmetry_space_group_name_H-M 'P -1'
_symmetry_Int_Tables_number 2
loop_
_symmetry_equiv_pos_site_id
_symmetry_equiv_pos_as_xyz
1 x,y,z
2 -x,-y,-z
_cell_length_a 7.7259(5)
_cell_length_b 11.0541(8)
_cell_length_c 11.8753(10)
_cell_angle_alpha 77.883(4)
_cell_angle_beta 88.493(5)
_cell_angle_gamma 74.990(5)
_cell_formula_units_Z 4
loop_
_atom_type_symbol
_atom_type_radius_bond
C 0.68
H 0.23
N 0.68
O 0.68
loop_
_atom_site_label
_atom_site_type_symbol
_atom_site_fract_x
_atom_site_fract_y
_atom_site_fract_z
O1 O -0.0973(2) 0.24737(15) 0.73401(14)
O2 O 0.1010(2) 0.09960(14) 0.67155(14)
N1 N -0.0682(3) 0.51971(19) 0.23362(18)
H1 H 0.024(4) 0.529(2) 0.198(2)
H2 H -0.175(3) 0.557(2) 0.206(2)
N2 N -0.1978(2) 0.44371(17) 0.40029(16)
N3 N 0.1230(2) 0.38379(17) 0.37737(16)
N4 N 0.0030(2) 0.20894(18) 0.65928(17)
C1 C -0.0465(3) 0.4468(2) 0.3393(2)
C2 C -0.1715(3) 0.3685(2) 0.5047(2)
H3 H -0.27230 0.36400 0.55140
C3 C -0.0038(3) 0.2967(2) 0.54824(19)
C4 C 0.1472(3) 0.30643(19) 0.4818(2)
C5 C 0.3345(3) 0.2372(2) 0.5196(2)
C6 C 0.4508(3) 0.1844(2) 0.4402(2)
H4 H 0.41140 0.19720 0.36250
C7 C 0.6241(3) 0.1132(2) 0.4749(2)
H5 H 0.70290 0.07700 0.42090
C8 C 0.6820(3) 0.0948(2) 0.5877(2)
H6 H 0.79950 0.04400 0.61160
C9 C 0.5692(3) 0.1505(2) 0.6662(2)
H7 H 0.61080 0.13970 0.74310
C10 C 0.3959(3) 0.2217(2) 0.6325(2)
H8 H 0.31890 0.25990 0.68630
O3 O 0.2571(2) 0.72595(15) -0.22502(14)
O4 O 0.3590(2) 0.87840(15) -0.18429(14)
N5 N 0.4397(3) 0.50196(18) 0.28357(18)
H9 H 0.538(4) 0.490(2) 0.320(2)
H10 H 0.361(3) 0.459(2) 0.307(2)
N6 N 0.2711(2) 0.56330(17) 0.11548(16)
N7 N 0.5410(2) 0.63171(17) 0.13256(16)
N8 N 0.3274(2) 0.77275(18) -0.15874(17)
C11 C 0.4172(3) 0.5672(2) 0.1756(2)
C12 C 0.2515(3) 0.6279(2) 0.0073(2)
H11 H 0.15310 0.62620 -0.03810
C13 C 0.3694(3) 0.6980(2) -0.04215(19)
C14 C 0.5165(3) 0.6989(2) 0.0238(2)
C15 C 0.6535(3) 0.7691(2) -0.0220(2)
C16 C 0.6908(3) 0.8576(2) 0.0342(2)
H12 H 0.63730 0.86880 0.10550
C17 C 0.8072(3) 0.9304(2) -0.0146(2)
H13 H 0.83160 0.99250 0.02270
C18 C 0.8872(3) 0.9120(2) -0.1174(2)
H14 H 0.96550 0.96240 -0.15100
C19 C 0.8540(3) 0.8207(2) -0.1715(2)
H15 H 0.91140 0.80730 -0.24120
C20 C 0.7376(3) 0.7490(2) -0.1244(2)
H16 H 0.71490 0.68620 -0.16150
#END
