
#######################################################################
#
#                 Cambridge Crystallographic Data Centre
#                                CCDC
#
#######################################################################
#
# If this CIF has been generated from an entry in the Cambridge
# Structural Database, then it will include bibliographic, chemical,
# crystal, experimental, refinement or atomic coordinate data resulting
# from the CCDC's data processing and validation procedures.
#
#######################################################################

data_CSD_CIF_AHADOE
_audit_creation_date 2015-07-23
_audit_creation_method CSD-ConQuest-V1
_database_code_CSD AHADOE
_database_code_depnum_ccdc_archive 'CCDC 1061276'
_chemical_formula_sum 'C16 H16 N2 O5'
_chemical_formula_moiety
;
C16 H16 N2 O5
;
_journal_coden_Cambridge 1220
_journal_volume 21
_journal_year 2015
_journal_page_first 12885
_journal_name_full 'Chem.-Eur.J. '
loop_
_publ_author_name
"Lijun Li"
"Sheng Zhang"
"Yanbin Hu"
"Yanan Li"
"Chong Li"
"Zhenggen Zha"
"Zhiyong Wang"
_chemical_name_systematic
;
(R)-2-(3-(3-methoxyphenyl)-4-nitrobutanoyl)pyridine 1-oxide
;
_cell_volume    767.174
_exptl_crystal_colour 'colorless'
_exptl_crystal_density_diffrn 1.369
_exptl_special_details
;
Absolute configuration
Moisture-sensitive, Light-sensitive

;
_exptl_crystal_description 'block'
_exptl_crystal_preparation 'ethyl acetate'
_diffrn_ambient_temperature 291
#These two values have been output from a single CSD field.
_refine_ls_R_factor_gt 0.0314
_refine_ls_wR_factor_gt 0.0314
_symmetry_cell_setting monoclinic
_symmetry_space_group_name_H-M 'P 21'
_symmetry_Int_Tables_number 4
loop_
_symmetry_equiv_pos_site_id
_symmetry_equiv_pos_as_xyz
1 x,y,z
2 -x,1/2+y,-z
_cell_length_a 5.7307(2)
_cell_length_b 11.6217(3)
_cell_length_c 11.8016(4)
_cell_angle_alpha 90
_cell_angle_beta 102.563(3)
_cell_angle_gamma 90
_cell_formula_units_Z 2
loop_
_atom_type_symbol
_atom_type_radius_bond
C 0.68
H 0.23
N 0.68
O 0.68
loop_
_atom_site_label
_atom_site_type_symbol
_atom_site_fract_x
_atom_site_fract_y
_atom_site_fract_z
O1 O 0.2381(3) -0.30534(16) 0.0667(2)
N1 N 0.4376(3) -0.35011(16) 0.12009(17)
O2 O 0.8722(4) 0.24078(19) 0.52257(16)
N2 N 0.1846(4) 0.22010(17) 0.12922(18)
O3 O 0.8033(3) -0.10283(15) 0.2012(2)
O4 O 0.3196(4) 0.26803(17) 0.07847(19)
C1 C 0.6513(4) 0.1378(2) 0.3520(2)
H1 H 0.73650 0.17330 0.30300
C2 C 0.6279(4) -0.28335(19) 0.17241(18)
C3 C 0.4063(4) 0.03659(17) 0.17677(19)
H2 H 0.53140 0.06940 0.14160
C4 C 0.8396(4) -0.3368(2) 0.2246(2)
H3 H 0.97000 -0.29210 0.25950
O5 O 0.0651(5) 0.2704(2) 0.1867(2)
C5 C 0.4719(4) 0.05944(19) 0.30695(19)
C6 C 0.6149(4) -0.15441(19) 0.1740(2)
C7 C 0.3818(4) -0.09200(18) 0.1461(2)
H4 H 0.27310 -0.12730 0.18850
H5 H 0.31250 -0.10000 0.06390
C8 C 0.1680(4) 0.09288(19) 0.1205(2)
H6 H 0.12350 0.07070 0.03940
H7 H 0.04440 0.06580 0.15860
C9 C 0.7038(5) 0.1635(2) 0.4701(2)
C10 C 0.3488(5) 0.0060(3) 0.3807(2)
H8 H 0.22890 -0.04690 0.35160
C11 C 0.4594(5) -0.4670(2) 0.1230(2)
H9 H 0.32860 -0.51190 0.08880
C12 C 0.6668(5) -0.5194(2) 0.1744(2)
H10 H 0.67710 -0.59920 0.17470
C13 C 0.8617(5) -0.4549(2) 0.2261(3)
H11 H 1.00510 -0.49000 0.26110
C14 C 0.4052(6) 0.0315(4) 0.4984(3)
H12 H 0.32280 -0.00500 0.54800
C15 C 0.5793(6) 0.1093(3) 0.5426(2)
H13 H 0.61420 0.12580 0.62160
C16 C 1.0216(6) 0.2929(3) 0.4564(3)
H14 H 1.13010 0.34480 0.50470
H15 H 0.92540 0.33460 0.39290
H16 H 1.11090 0.23450 0.42680
#END
