
#######################################################################
#
#                 Cambridge Crystallographic Data Centre
#                                CCDC
#
#######################################################################
#
# If this CIF has been generated from an entry in the Cambridge
# Structural Database, then it will include bibliographic, chemical,
# crystal, experimental, refinement or atomic coordinate data resulting
# from the CCDC's data processing and validation procedures.
#
#######################################################################

data_CSD_CIF_AHAZAL
_audit_creation_date 2010-08-24
_audit_creation_method CSD-ConQuest-V1
_database_code_CSD AHAZAL
_database_code_depnum_ccdc_archive 'CCDC 757772'
_chemical_formula_sum 'C12 H17 N1 O2'
_chemical_formula_moiety
;
C12 H17 N1 O2
;
_journal_coden_Cambridge 1291
_journal_year 2010
_journal_page_first 882
_journal_name_full 'Eur.J.Org.Chem. '
loop_
_publ_author_name
"S.Blanc"
"C.A.C.Bordogna"
"B.R.Buckley"
"M.R.J.Elsegood"
"P.C.B.Page"
_chemical_name_systematic
;
3-t-Butyl-3-(2-methoxyphenyl)oxaziridine
;
_chemical_melting_point 325.15
_cell_volume   2292.545
_exptl_crystal_colour 'colorless'
_exptl_crystal_density_diffrn 1.201
_exptl_special_details
;
Melting point range 325.15-326.15K

;
_exptl_crystal_description 'block'
_exptl_crystal_preparation 'chloroform/hexane'
_diffrn_ambient_temperature 150
#These two values have been output from a single CSD field.
_refine_ls_R_factor_gt 0.0434
_refine_ls_wR_factor_gt 0.0434
_symmetry_cell_setting monoclinic
_symmetry_space_group_name_H-M 'P 21/n'
_symmetry_Int_Tables_number 14
loop_
_symmetry_equiv_pos_site_id
_symmetry_equiv_pos_as_xyz
1 x,y,z
2 1/2-x,1/2+y,1/2-z
3 -x,-y,-z
4 -1/2+x,-1/2-y,-1/2+z
_cell_length_a 13.0279(7)
_cell_length_b 8.8246(5)
_cell_length_c 20.4893(11)
_cell_angle_alpha 90
_cell_angle_beta 103.284(2)
_cell_angle_gamma 90
_cell_formula_units_Z 8
loop_
_atom_type_symbol
_atom_type_radius_bond
C 0.68
H 0.23
N 0.68
O 0.68
loop_
_atom_site_label
_atom_site_type_symbol
_atom_site_fract_x
_atom_site_fract_y
_atom_site_fract_z
O1 O 0.23302(6) -0.03644(8) 0.57360(4)
N1 N 0.34396(7) 0.01593(10) 0.57233(4)
H1 H 0.3287(10) 0.0778(15) 0.5357(6)
C1 C 0.28579(7) 0.07733(11) 0.61813(5)
C2 C 0.23818(7) 0.23245(11) 0.60371(4)
C3 C 0.30040(7) 0.35604(11) 0.59361(5)
C4 C 0.25514(9) 0.49776(12) 0.57779(5)
H2 H 0.29760 0.58140 0.57130
C5 C 0.14757(9) 0.51653(13) 0.57152(6)
H3 H 0.11670 0.61340 0.56030
C6 C 0.08485(9) 0.39653(14) 0.58130(5)
H4 H 0.01130 0.41050 0.57710
C7 C 0.13062(8) 0.25486(12) 0.59738(5)
H5 H 0.08770 0.17200 0.60410
O2 O 0.40479(5) 0.32502(8) 0.59843(4)
C8 C 0.47122(9) 0.44843(14) 0.59061(6)
H6 H 0.47360 0.52160 0.62690
H7 H 0.44330 0.49790 0.54730
H8 H 0.54250 0.41080 0.59220
C9 C 0.32279(8) 0.02690(11) 0.69138(5)
C10 C 0.4043(1) 0.13947(13) 0.72923(5)
H9 H 0.46530 0.14170 0.70880
H10 H 0.42710 0.10820 0.77620
H11 H 0.37280 0.24070 0.72690
C11 C 0.22797(10) 0.02201(16) 0.72340(6)
H12 H 0.25050 -0.01450 0.76970
H13 H 0.17440 -0.04660 0.69770
H14 H 0.19810 0.12400 0.72330
C12 C 0.37312(11) -0.12990(13) 0.69543(6)
H15 H 0.32110 -0.20330 0.67200
H16 H 0.39710 -0.15980 0.74250
H17 H 0.43350 -0.12730 0.67440
O3 O 0.29324(6) -0.28944(9) 0.43385(4)
N2 N 0.18225(7) -0.25138(10) 0.44029(5)
H18 H 0.1946(10) -0.1910(15) 0.4755(7)
C13 C 0.22991(7) -0.18245(11) 0.39078(5)
C14 C 0.26761(7) -0.02201(11) 0.40280(5)
C15 C 0.19712(7) 0.09299(11) 0.41111(5)
C16 C 0.23213(9) 0.24152(11) 0.42301(5)
H19 H 0.18430 0.31950 0.42800
C17 C 0.33776(9) 0.27485(13) 0.42745(5)
H20 H 0.36150 0.37650 0.43510
C18 C 0.40877(9) 0.16288(13) 0.42089(6)
H21 H 0.48100 0.18670 0.42480
C19 C 0.37308(8) 0.01491(12) 0.40857(5)
H22 H 0.42160 -0.06250 0.40400
O4 O 0.09595(5) 0.04721(8) 0.40846(4)
C20 C 0.02224(9) 0.16088(14) 0.41682(6)
H23 H 0.01520 0.23580 0.38080
H24 H 0.04730 0.21110 0.46020
H25 H -0.04650 0.11390 0.41520
C21 C 0.19061(8) -0.23510(11) 0.31794(5)
C22 C 0.10439(10) -0.12870(13) 0.28003(6)
H26 H 0.04450 -0.12980 0.30150
H27 H 0.08110 -0.16270 0.23340
H28 H 0.13250 -0.02550 0.28090
C23 C 0.28377(10) -0.23368(15) 0.28406(6)
H29 H 0.31140 -0.13030 0.28440
H30 H 0.26020 -0.26880 0.23760
H31 H 0.33930 -0.30100 0.30850
C24 C 0.14626(11) -0.39556(13) 0.31541(6)
H32 H 0.12220 -0.42740 0.26860
H33 H 0.08680 -0.39750 0.33720
H34 H 0.20130 -0.46480 0.33880
#END
