
#######################################################################
#
#                 Cambridge Crystallographic Data Centre
#                                CCDC
#
#######################################################################
#
# If this CIF has been generated from an entry in the Cambridge
# Structural Database, then it will include bibliographic, chemical,
# crystal, experimental, refinement or atomic coordinate data resulting
# from the CCDC's data processing and validation procedures.
#
#######################################################################

data_CSD_CIF_AHEDOH
_audit_creation_date 2010-08-29
_audit_creation_method CSD-ConQuest-V1
_database_code_CSD AHEDOH
_database_code_depnum_ccdc_archive 'CCDC 740867'
_chemical_formula_sum 'C34 H40 N2 O24'
_chemical_formula_moiety
;
C34 H40 N2 O24
;
_journal_coden_Cambridge 1220
_journal_volume 15
_journal_year 2009
_journal_page_first 13456
_journal_name_full 'Chem.-Eur.J. '
loop_
_publ_author_name
"J.K.-H.Hui"
"Zhen Yu"
"T.Mirfakhrai"
"M.J.MacLachlan"
_chemical_name_systematic
;
(4,5-Dinitro-1,2-phenylene)bis(oxy-6-(acetoxymethyl)tetrahydro-2H-pyran-2,3,4,
5-tetrayl) hexaacetate
;
_chemical_name_common
;
1,2-bis(Tetra-O-acetyl-beta-D-galactopyranosyl)-4,5-dinitrobenzene
;
_chemical_melting_point 471.15
_cell_volume   4071.965
_exptl_crystal_colour 'colorless'
_exptl_crystal_density_diffrn 1.404
_exptl_special_details
;
Melting point range 471.15-472.15K

;
_exptl_crystal_description 'plate'
_exptl_crystal_preparation 'methanol'
_diffrn_ambient_temperature 173
#These two values have been output from a single CSD field.
_refine_ls_R_factor_gt 0.0502
_refine_ls_wR_factor_gt 0.0502
_symmetry_cell_setting orthorhombic
_symmetry_space_group_name_H-M 'P 2 21 21'
_symmetry_Int_Tables_number 18
loop_
_symmetry_equiv_pos_site_id
_symmetry_equiv_pos_as_xyz
1 x,y,z
2 -x,1/2-y,1/2+z
3 x,-y,-z
4 -x,1/2+y,1/2-z
_cell_length_a 10.3821(4)
_cell_length_b 16.9702(8)
_cell_length_c 23.1117(11)
_cell_angle_alpha 90
_cell_angle_beta 90
_cell_angle_gamma 90
_cell_formula_units_Z 4
loop_
_atom_type_symbol
_atom_type_radius_bond
C 0.68
H 0.23
N 0.68
O 0.68
loop_
_atom_site_label
_atom_site_type_symbol
_atom_site_fract_x
_atom_site_fract_y
_atom_site_fract_z
O1 O -0.2449(2) 0.42725(11) 0.69268(8)
O2 O 0.12213(19) 0.34284(11) 0.78045(7)
O3 O 0.58881(19) 0.09648(11) 0.66476(7)
O4 O 0.74262(19) 0.19055(10) 0.73211(8)
O5 O -0.08767(19) 0.38167(11) 0.79165(8)
O6 O 0.3423(2) 0.15630(11) 0.69579(8)
O7 O 0.34587(19) 0.26762(11) 0.78593(7)
O8 O 0.16351(19) 0.45539(11) 0.69783(8)
O9 O 0.54483(18) 0.22382(11) 0.81366(8)
O10 O 0.6312(2) -0.03054(12) 0.68603(9)
O11 O -0.0627(2) 0.51728(12) 0.64608(8)
O12 O 0.7197(2) 0.19067(13) 0.91496(9)
O13 O 0.8828(2) 0.10282(12) 0.69447(9)
O14 O 0.4011(2) 0.22295(15) 0.61523(9)
O15 O -0.3573(2) 0.52334(14) 0.64801(10)
O16 O 0.1747(2) 0.34537(14) 0.64353(10)
O17 O 0.4005(3) 0.20319(18) 0.99571(10)
N1 N 0.0664(3) 0.33181(19) 0.98790(11)
O18 O -0.0792(3) 0.64760(15) 0.66028(13)
C1 C 0.4290(3) 0.20201(15) 0.78587(11)
H1 H 0.38890 0.15740 0.80590
C2 C 0.4598(3) 0.18021(17) 0.72317(11)
H2 H 0.49760 0.22530 0.70280
O19 O -0.3727(3) 0.49077(17) 0.90443(11)
O20 O 0.7585(3) 0.06212(15) 0.92256(10)
O21 O 0.0330(3) 0.27435(19) 1.01547(12)
C3 C -0.0538(3) 0.50351(17) 0.70760(12)
H3 H -0.01850 0.54990 0.72720
C4 C 0.5531(3) 0.11100(16) 0.72364(11)
H4 H 0.50910 0.06440 0.73900
O22 O 0.2945(3) 0.29453(17) 1.03843(10)
O23 O -0.2961(3) 0.37999(15) 0.86827(10)
C5 C 0.3342(3) 0.26267(16) 0.89052(11)
H5 H 0.41340 0.23730 0.89290
C6 C 0.6720(3) 0.12761(16) 0.76002(11)
H6 H 0.72550 0.08030 0.76370
C7 C -0.1872(3) 0.48354(16) 0.73161(12)
H7 H -0.24020 0.53120 0.73350
C8 C -0.1782(3) 0.44562(18) 0.79149(12)
H8 H -0.15100 0.48540 0.81970
N2 N 0.3247(3) 0.25747(18) 0.99574(11)
C9 C 0.6324(3) 0.15835(17) 0.81945(11)
H9 H 0.58930 0.11590 0.84080
C10 C 0.0364(3) 0.43401(16) 0.71406(11)
H10 H 0.00650 0.39050 0.68960
C11 C 0.0387(3) 0.40769(17) 0.77690(11)
H11 H 0.06700 0.45050 0.80240
C12 C 0.3240(3) 0.18300(18) 0.64036(12)
C13 C 0.2842(3) 0.28396(16) 0.83697(11)
C14 C 0.1682(3) 0.32442(15) 0.83389(11)
C15 C 0.1005(3) 0.34161(18) 0.88433(11)
H12 H 0.02250 0.36850 0.88240
C16 C 0.1497(3) 0.31848(18) 0.93722(11)
C17 C 0.2657(3) 0.27946(17) 0.94022(11)
C18 C 0.8461(3) 0.16896(16) 0.69949(11)
O24 O 0.0326(4) 0.39814(19) 0.99815(13)
C19 C 0.6314(3) 0.02271(17) 0.65166(13)
C20 C 0.7477(3) 0.18580(19) 0.85379(12)
H13 H 0.81860 0.14950 0.84770
H14 H 0.77430 0.23720 0.83990
C21 C 0.9032(4) 0.2398(2) 0.67099(15)
H15 H 0.85590 0.28590 0.68220
H16 H 0.89910 0.23360 0.62970
H17 H 0.99150 0.24530 0.68270
C22 C 0.2272(3) 0.40020(18) 0.66542(12)
C23 C -0.3052(3) 0.4110(2) 0.81024(14)
H18 H -0.37130 0.45140 0.80880
H19 H -0.32970 0.36920 0.78390
C24 C -0.3380(3) 0.4235(2) 0.91180(14)
C25 C -0.3168(3) 0.45736(19) 0.64861(13)
C26 C -0.3342(4) 0.3977(2) 0.60185(15)
H20 H -0.29210 0.34950 0.61270
H21 H -0.29720 0.41720 0.56660
H22 H -0.42440 0.38800 0.59620
C27 C 0.3665(3) 0.4188(2) 0.66243(15)
H23 H 0.38340 0.46630 0.68370
H24 H 0.39130 0.42610 0.62280
H25 H 0.41510 0.37620 0.67880
C28 C 0.2002(3) 0.1528(2) 0.61675(13)
H26 H 0.15700 0.12220 0.64580
H27 H 0.21700 0.12040 0.58360
H28 H 0.14660 0.19640 0.60570
C29 C -0.0765(3) 0.5926(2) 0.62807(16)
C30 C 0.7322(4) 0.1235(2) 0.94530(14)
C31 C -0.3272(5) 0.3832(2) 0.96865(15)
H29 H -0.29600 0.33050 0.96290
H30 H -0.41020 0.38140 0.98680
H31 H -0.26820 0.41160 0.99290
C32 C 0.6771(4) 0.0185(2) 0.59078(14)
H32 H 0.66740 0.06920 0.57280
H33 H 0.62720 -0.01980 0.57000
H34 H 0.76620 0.00350 0.59020
C33 C -0.0902(4) 0.5945(3) 0.56381(16)
H35 H -0.08390 0.54190 0.54880
H36 H -0.02300 0.62640 0.54750
H37 H -0.17240 0.61640 0.55380
C34 C 0.7138(5) 0.1372(3) 1.00840(15)
H38 H 0.69330 0.19160 1.01500
H39 H 0.79160 0.12400 1.02860
H40 H 0.64470 0.10470 1.02230
#END
