
#######################################################################
#
#                 Cambridge Crystallographic Data Centre
#                                CCDC
#
#######################################################################
#
# If this CIF has been generated from an entry in the Cambridge
# Structural Database, then it will include bibliographic, chemical,
# crystal, experimental, refinement or atomic coordinate data resulting
# from the CCDC's data processing and validation procedures.
#
#######################################################################

data_CSD_CIF_AHEMAB01
_audit_creation_date 2008-02-21
_audit_creation_method CSD-ConQuest-V1
_database_code_CSD AHEMAB01
_database_code_depnum_ccdc_archive 'CCDC 648204'
_chemical_formula_sum 'C4 H4 N2 O2'
_chemical_formula_moiety
;
C4 H4 N2 O2
;
_journal_coden_Cambridge 1350
_journal_volume 9
_journal_year 2007
_journal_page_first 980
_journal_name_full 'CrystEngComm '
loop_
_publ_author_name
"N.J.Babu"
"A.Nangia"
_chemical_name_systematic
;
Pyrazine-N,N'-dioxide
;
_chemical_melting_point 560
_cell_volume    932.402
_exptl_crystal_colour 'colorless'
_exptl_crystal_density_diffrn 1.597
_exptl_special_details
;
Melts with decomposition.
orthorhombic polymorph 1

;
_exptl_crystal_description 'plate'
_diffrn_ambient_temperature 293
#These two values have been output from a single CSD field.
_refine_ls_R_factor_gt 0.0605
_refine_ls_wR_factor_gt 0.0605
_symmetry_cell_setting orthorhombic
_symmetry_space_group_name_H-M 'P n m a'
_symmetry_Int_Tables_number 62
loop_
_symmetry_equiv_pos_site_id
_symmetry_equiv_pos_as_xyz
1 x,y,z
2 1/2-x,-y,1/2+z
3 -x,1/2+y,-z
4 1/2+x,1/2-y,1/2-z
5 -x,-y,-z
6 -1/2+x,y,-1/2-z
7 x,-1/2-y,z
8 -1/2-x,-1/2+y,-1/2+z
_cell_length_a 11.8672(18)
_cell_length_b 12.2217(19)
_cell_length_c 6.4287(10)
_cell_angle_alpha 90
_cell_angle_beta 90
_cell_angle_gamma 90
_cell_formula_units_Z 8
loop_
_atom_type_symbol
_atom_type_radius_bond
C 0.68
H 0.23
N 0.68
O 0.68
loop_
_atom_site_label
_atom_site_type_symbol
_atom_site_fract_x
_atom_site_fract_y
_atom_site_fract_z
N1 N 0.5620(2) 0.25000 0.1955(4)
O1 O 0.4985(2) 0.25000 0.3607(4)
O2 O 0.7642(2) 0.25000 -0.3092(4)
C1 C 0.7432(3) 0.25000 0.0447(5)
H1 H 0.82110 0.25000 0.06130
C2 C 0.5188(3) 0.25000 0.0012(5)
H2 H 0.44100 0.25000 -0.01570
C3 C 0.6762(3) 0.25000 0.2151(5)
H3 H 0.70850 0.25000 0.34690
N2 N 0.6989(2) 0.25000 -0.1494(4)
C4 C 0.5847(3) 0.25000 -0.1677(5)
H4 H 0.55200 0.25000 -0.29920
O3 O 0.36647(16) 0.49092(17) 0.1660(3)
N3 N 0.43087(18) 0.49625(16) 0.3286(3)
C5 C 0.3878(2) 0.4920(2) 0.5233(4)
H5 H 0.31030 0.48690 0.54130
C6 C 0.5444(2) 0.50498(19) 0.3080(4)
H6 H 0.57600 0.50890 0.17580
O3D O 0.63353(16) 0.50908(17) 0.8340(3)
N3D N 0.56913(18) 0.50375(16) 0.6714(3)
C5D C 0.6122(2) 0.5080(2) 0.4767(4)
H5D H 0.68970 0.51310 0.45870
C6D C 0.4556(2) 0.49502(19) 0.6920(4)
H6D H 0.42400 0.49110 0.82420
#END
