
#######################################################################
#
#                 Cambridge Crystallographic Data Centre
#                                CCDC
#
#######################################################################
#
# If this CIF has been generated from an entry in the Cambridge
# Structural Database, then it will include bibliographic, chemical,
# crystal, experimental, refinement or atomic coordinate data resulting
# from the CCDC's data processing and validation procedures.
#
#######################################################################

data_CSD_CIF_AHEMAB
_audit_creation_date 2003-02-06
_audit_creation_method CSD-ConQuest-V1
_database_code_CSD AHEMAB
_database_code_depnum_ccdc_archive 'CCDC 200770'
_chemical_formula_sum 'C4 H4 N2 O2'
_chemical_formula_moiety
;
C4 H4 N2 O2
;
_journal_coeditor_code "IUCr BT6204"
_journal_coden_Cambridge 1370
_journal_volume 58
_journal_year 2002
_journal_page_first o1253
_journal_name_full 'Acta Crystallogr.,Sect.E:Struct.Rep.Online '
loop_
_publ_author_name
"C.Nather"
"P.Kowallik"
"I.Jess"
_chemical_name_systematic
;
Pyrazine N,N'-dioxide
;
_cell_volume    233.484
_exptl_crystal_colour 'colorless'
_exptl_crystal_density_diffrn 1.594
_exptl_special_details
;
monoclinic polymorph 2

;
_exptl_crystal_description 'block'
_diffrn_ambient_temperature 293
#These two values have been output from a single CSD field.
_refine_ls_R_factor_gt 0.0394
_refine_ls_wR_factor_gt 0.0394
_symmetry_cell_setting monoclinic
_symmetry_space_group_name_H-M 'P 21/c'
_symmetry_Int_Tables_number 14
loop_
_symmetry_equiv_pos_site_id
_symmetry_equiv_pos_as_xyz
1 x,y,z
2 -x,1/2+y,1/2-z
3 -x,-y,-z
4 x,-1/2-y,-1/2+z
_cell_length_a 3.7376(6)
_cell_length_b 11.0011(18)
_cell_length_c 5.7184(9)
_cell_angle_alpha 90
_cell_angle_beta 96.778(19)
_cell_angle_gamma 90
_cell_formula_units_Z 2
loop_
_atom_type_symbol
_atom_type_radius_bond
C 0.68
H 0.23
N 0.68
O 0.68
loop_
_atom_site_label
_atom_site_type_symbol
_atom_site_fract_x
_atom_site_fract_y
_atom_site_fract_z
N1 N 0.2159(3) 0.42985(10) 0.6583(2)
O1 O 0.4230(3) 0.36378(9) 0.8052(2)
C1 C 0.0743(4) 0.38407(12) 0.4468(2)
H1 H 0.12420 0.30420 0.40820
C2 C 0.1397(4) 0.54639(12) 0.7094(2)
H2 H 0.23480 0.57950 0.85310
N1B N -0.2159(3) 0.57015(10) 0.3417(2)
O1B O -0.4230(3) 0.63622(9) 0.1948(2)
C1B C -0.0743(4) 0.61593(12) 0.5532(2)
H1B H -0.12420 0.69580 0.59180
C2B C -0.1397(4) 0.45361(12) 0.2906(2)
H2B H -0.23480 0.42050 0.14690
#END
