
#######################################################################
#
#                 Cambridge Crystallographic Data Centre
#                                CCDC
#
#######################################################################
#
# If this CIF has been generated from an entry in the Cambridge
# Structural Database, then it will include bibliographic, chemical,
# crystal, experimental, refinement or atomic coordinate data resulting
# from the CCDC's data processing and validation procedures.
#
#######################################################################

data_CSD_CIF_AHEQUZ
_audit_creation_date 2003-02-06
_audit_creation_method CSD-ConQuest-V1
_database_code_CSD AHEQUZ
_database_code_depnum_ccdc_archive 'CCDC 200787'
_chemical_formula_sum 'C27 H27 N3 O2'
_chemical_formula_moiety
;
C27 H27 N3 O2
;
_journal_coeditor_code "IUCr DN6040"
_journal_coden_Cambridge 1370
_journal_volume 58
_journal_year 2002
_journal_page_first o1304
_journal_name_full 'Acta Crystallogr.,Sect.E:Struct.Rep.Online '
loop_
_publ_author_name
"J.N.T.Ghomsi"
"N.H.Ahabchane"
"E.M.Essassi"
"M.Pierrot"
_chemical_name_systematic
;
N-Ethyl-N-(2-(3-phenylisoxazol-5-ylmethylamino)phenyl)benzylacetamide
;
_chemical_melting_point 408
_cell_volume   1150.604
_exptl_crystal_colour 'colorless'
_exptl_crystal_density_diffrn 1.231
_exptl_special_details
;
Melting point range 408-409K

;
_exptl_crystal_description 'cube'
_diffrn_ambient_temperature 293
#These two values have been output from a single CSD field.
_refine_ls_R_factor_gt 0.0717
_refine_ls_wR_factor_gt 0.0717
_symmetry_cell_setting triclinic
_symmetry_space_group_name_H-M 'P -1'
_symmetry_Int_Tables_number 2
loop_
_symmetry_equiv_pos_site_id
_symmetry_equiv_pos_as_xyz
1 x,y,z
2 -x,-y,-z
_cell_length_a 9.825(1)
_cell_length_b 10.999(1)
_cell_length_c 12.095(1)
_cell_angle_alpha 91.56(1)
_cell_angle_beta 109.22(1)
_cell_angle_gamma 109.37(1)
_cell_formula_units_Z 2
loop_
_atom_type_symbol
_atom_type_radius_bond
C 0.68
H 0.23
N 0.68
O 0.68
loop_
_atom_site_label
_atom_site_type_symbol
_atom_site_fract_x
_atom_site_fract_y
_atom_site_fract_z
O1 O -0.55000(18) 0.00136(16) -0.16947(15)
O2 O 0.14554(17) 0.22760(16) 0.40361(15)
N1 N -0.29506(18) 0.08889(16) -0.06184(14)
N2 N -0.17828(19) 0.21900(17) 0.16974(14)
H1 H -0.27280 0.13850 0.13850
N3 N 0.2166(2) 0.1347(2) 0.43665(19)
C1 C -0.1526(2) 0.19972(19) -0.02051(18)
C2 C -0.0749(3) 0.2447(2) -0.0964(2)
H2 H -0.12110 0.20530 -0.17820
C3 C 0.0645(3) 0.3464(3) -0.0566(3)
H3 H 0.11840 0.37780 -0.10940
C4 C 0.1283(3) 0.4002(3) 0.0591(3)
H4 H 0.22740 0.46930 0.08840
C5 C 0.0528(2) 0.3578(2) 0.1368(2)
H5 H 0.10140 0.39750 0.21840
C6 C -0.0920(2) 0.25758(19) 0.09785(17)
C7 C -0.2822(3) -0.0389(2) -0.0441(2)
H6 H -0.21630 -0.03380 0.03600
H7 H -0.38340 -0.10170 -0.05800
C8 C -0.2177(4) -0.0854(3) -0.1262(3)
H8 H -0.21250 -0.16920 -0.11080
H9 H -0.11580 -0.02430 -0.11290
H10 H -0.28280 -0.09220 -0.20690
C9 C -0.4311(2) 0.0987(2) -0.12721(18)
C10 C -0.4284(3) 0.2332(2) -0.1447(2)
H11 H -0.35180 0.27070 -0.17920
H12 H -0.39770 0.28150 -0.06780
C11 C -0.5747(3) 0.2415(3) -0.2222(3)
H13 H -0.60770 0.19030 -0.29810
H14 H -0.65060 0.20710 -0.18620
C12 C -0.5665(3) 0.3777(3) -0.2396(2)
C13 C -0.6035(3) 0.4479(4) -0.1687(3)
H15 H -0.62880 0.40980 -0.10420
C14 C -0.6013(4) 0.5707(4) -0.1836(3)
H16 H -0.63750 0.61070 -0.13320
C15 C -0.5572(4) 0.6297(3) -0.2670(3)
H17 H -0.55720 0.71660 -0.27360
C16 C -0.5134(4) 0.5650(4) -0.3387(3)
H18 H -0.47650 0.60830 -0.39670
C17 C -0.5196(4) 0.4392(4) -0.3260(3)
H19 H -0.49230 0.39200 -0.37790
C18 C -0.1054(3) 0.2411(2) 0.29777(19)
H20 H -0.18480 0.21940 0.33140
H21 H -0.04370 0.33220 0.32120
C19 C -0.0054(2) 0.1636(2) 0.34253(17)
C20 C 0.1070(2) 0.0214(2) 0.39363(16)
C21 C -0.0356(2) 0.0358(2) 0.33372(19)
H22 H -0.13910 -0.02410 0.29210
C22 C 0.1382(2) -0.0998(2) 0.40833(18)
C23 C 0.2871(3) -0.1006(3) 0.4452(3)
H23 H 0.37170 -0.01870 0.46430
C24 C 0.3139(4) -0.2151(4) 0.4571(3)
H24 H 0.41850 -0.21250 0.48190
C25 C 0.1952(4) -0.3314(3) 0.4316(3)
H25 H 0.21580 -0.41080 0.43920
C26 C 0.0467(3) -0.3330(3) 0.3948(2)
H26 H -0.04000 -0.41330 0.37710
C27 C 0.0183(3) -0.2189(2) 0.38347(19)
H27 H -0.08630 -0.22190 0.35820
#END
