
#######################################################################
#
#                 Cambridge Crystallographic Data Centre
#                                CCDC
#
#######################################################################
#
# If this CIF has been generated from an entry in the Cambridge
# Structural Database, then it will include bibliographic, chemical,
# crystal, experimental, refinement or atomic coordinate data resulting
# from the CCDC's data processing and validation procedures.
#
#######################################################################

data_CSD_CIF_AHETUD
_audit_creation_date 2010-03-08
_audit_creation_method CSD-ConQuest-V1
_database_code_CSD AHETUD
_database_code_depnum_ccdc_archive 'CCDC 686247'
_chemical_formula_sum 'C14 H16 N2 O1'
_chemical_formula_moiety
;
C14 H16 N2 O1
;
_journal_coden_Cambridge 1090
_journal_volume 20
_journal_year 2009
_journal_page_first 1197
_journal_name_full 'Tetrahedron:Asymm. '
loop_
_publ_author_name
"D.Carmona"
"M.P.Lamata"
"F.Viguri"
"R.Rodriguez"
"F.J.Lahoz"
"M.J.Fabra"
"L.A.Oro"
_chemical_name_systematic
;
2-Ethyl-1,5,6,10b-tetrahydro-2H-[1,2]oxazolo[3,2-a]isoquinoline-1-carbonitrile
;
_cell_volume   1189.800
_exptl_crystal_colour 'colorless'
_exptl_crystal_density_diffrn 1.274
_exptl_crystal_description 'rhombohedral'
_diffrn_ambient_temperature 100
#These two values have been output from a single CSD field.
_refine_ls_R_factor_gt 0.0467
_refine_ls_wR_factor_gt 0.0467
_symmetry_cell_setting monoclinic
_symmetry_space_group_name_H-M 'P 21/c'
_symmetry_Int_Tables_number 14
loop_
_symmetry_equiv_pos_site_id
_symmetry_equiv_pos_as_xyz
1 x,y,z
2 -x,1/2+y,1/2-z
3 -x,-y,-z
4 x,-1/2-y,-1/2+z
_cell_length_a 9.576(1)
_cell_length_b 16.8999(17)
_cell_length_c 7.3904(7)
_cell_angle_alpha 90
_cell_angle_beta 95.843(2)
_cell_angle_gamma 90
_cell_formula_units_Z 4
loop_
_atom_type_symbol
_atom_type_radius_bond
C 0.68
H 0.23
N 0.68
O 0.68
loop_
_atom_site_label
_atom_site_type_symbol
_atom_site_fract_x
_atom_site_fract_y
_atom_site_fract_z
N1 N 0.05784(12) 0.29676(7) 0.10294(16)
N2 N 0.34754(13) 0.46059(8) -0.20677(18)
O1 O 0.19601(10) 0.29220(6) 0.19892(13)
C1 C -0.04075(14) 0.33336(8) 0.21883(19)
H1 H -0.0375(17) 0.3027(10) 0.331(2)
H2 H -0.0143(16) 0.3903(10) 0.252(2)
C2 C -0.18444(15) 0.33105(9) 0.1115(2)
H3 H -0.2527(18) 0.3573(10) 0.177(2)
H4 H -0.2146(19) 0.2742(11) 0.099(2)
C3 C -0.18164(14) 0.36920(8) -0.07326(18)
C4 C -0.05420(14) 0.37746(8) -0.14957(18)
C5 C 0.08164(14) 0.34769(8) -0.05083(18)
H5 H 0.1336(17) 0.3164(10) -0.135(2)
C6 C 0.18449(14) 0.41313(8) 0.03414(18)
H6 H 0.1334(17) 0.4591(9) 0.072(2)
C7 C 0.25828(14) 0.37075(8) 0.20461(19)
H7 H 0.2320(16) 0.3983(9) 0.312(2)
C8 C 0.27862(14) 0.44015(8) -0.09838(19)
C9 C 0.41574(15) 0.36039(9) 0.2153(2)
H8 H 0.4590(17) 0.4134(10) 0.228(2)
H9 H 0.4385(17) 0.3386(10) 0.098(2)
C10 C 0.46950(18) 0.30666(10) 0.3735(2)
H10 H 0.4370(18) 0.3264(11) 0.486(3)
H11 H 0.573(2) 0.3041(12) 0.385(3)
H12 H 0.431(2) 0.2509(13) 0.354(3)
C11 C -0.30449(15) 0.39652(8) -0.1710(2)
H13 H -0.3941(18) 0.3922(10) -0.120(2)
C12 C -0.30214(15) 0.43110(9) -0.3403(2)
H14 H -0.387(2) 0.4501(10) -0.405(2)
C13 C -0.17580(16) 0.43888(9) -0.4161(2)
H15 H -0.1751(18) 0.4615(10) -0.535(2)
C14 C -0.05280(15) 0.41150(8) -0.32140(19)
H16 H 0.0367(18) 0.4154(10) -0.378(2)
#END
