
#######################################################################
#
#                 Cambridge Crystallographic Data Centre
#                                CCDC
#
#######################################################################
#
# If this CIF has been generated from an entry in the Cambridge
# Structural Database, then it will include bibliographic, chemical,
# crystal, experimental, refinement or atomic coordinate data resulting
# from the CCDC's data processing and validation procedures.
#
#######################################################################

data_CSD_CIF_AHETOX
_audit_creation_date 2010-03-08
_audit_creation_method CSD-ConQuest-V1
_database_code_CSD AHETOX
_database_code_depnum_ccdc_archive 'CCDC 686246'
_chemical_formula_sum 'C9 H14 N2 O1'
_chemical_formula_moiety
;
C9 H14 N2 O1
;
_journal_coden_Cambridge 1090
_journal_volume 20
_journal_year 2009
_journal_page_first 1197
_journal_name_full 'Tetrahedron:Asymm. '
loop_
_publ_author_name
"D.Carmona"
"M.P.Lamata"
"F.Viguri"
"R.Rodriguez"
"F.J.Lahoz"
"M.J.Fabra"
"L.A.Oro"
_chemical_name_systematic
;
2-Methylhexahydro-2H-[1,2]oxazolo[2,3-a]pyridine-2-carbonitrile
;
_cell_volume    449.763
_exptl_crystal_colour 'colorless'
_exptl_crystal_density_diffrn 1.227
_exptl_crystal_description 'irregular block'
_diffrn_ambient_temperature 100
#These two values have been output from a single CSD field.
_refine_ls_R_factor_gt 0.0387
_refine_ls_wR_factor_gt 0.0387
_symmetry_cell_setting triclinic
_symmetry_space_group_name_H-M 'P -1'
_symmetry_Int_Tables_number 2
loop_
_symmetry_equiv_pos_site_id
_symmetry_equiv_pos_as_xyz
1 x,y,z
2 -x,-y,-z
_cell_length_a 6.4996(6)
_cell_length_b 8.2657(8)
_cell_length_c 9.4090(9)
_cell_angle_alpha 113.980(2)
_cell_angle_beta 90.386(2)
_cell_angle_gamma 101.823(2)
_cell_formula_units_Z 2
loop_
_atom_type_symbol
_atom_type_radius_bond
C 0.68
H 0.23
N 0.68
O 0.68
loop_
_atom_site_label
_atom_site_type_symbol
_atom_site_fract_x
_atom_site_fract_y
_atom_site_fract_z
N1 N 0.32110(13) 0.52591(11) 0.84515(10)
N2 N 0.18919(16) -0.00091(13) 0.67007(12)
O1 O 0.43727(11) 0.42238(10) 0.71842(8)
C1 C 0.46924(16) 0.69206(14) 0.94979(12)
H1 H 0.534(2) 0.7593(17) 0.8873(15)
H2 H 0.578(2) 0.6604(17) 1.0004(15)
C2 C 0.33942(18) 0.80361(15) 1.07068(13)
H3 H 0.288(2) 0.7378(18) 1.1367(16)
H4 H 0.434(2) 0.9175(17) 1.1402(15)
C3 C 0.15544(18) 0.83991(15) 0.99449(13)
H5 H 0.070(2) 0.8994(19) 1.0748(17)
H6 H 0.213(2) 0.9219(18) 0.9433(16)
C4 C 0.02121(17) 0.66365(15) 0.86832(13)
H7 H -0.087(2) 0.6904(17) 0.8103(15)
H8 H -0.055(2) 0.5825(19) 0.9153(17)
C5 C 0.16636(16) 0.56500(14) 0.75598(12)
H9 H 0.243(2) 0.6471(17) 0.7103(15)
C6 C 0.07583(17) 0.37505(15) 0.62925(13)
H10 H -0.038(2) 0.3094(18) 0.6639(16)
H11 H 0.031(2) 0.3732(18) 0.5310(17)
C7 C 0.27031(16) 0.28729(14) 0.60694(12)
C8 C 0.22394(17) 0.12553(14) 0.64451(12)
C9 C 0.3488(2) 0.23506(16) 0.44590(13)
H12 H 0.373(2) 0.339(2) 0.4218(17)
H13 H 0.242(2) 0.1374(18) 0.3658(16)
H14 H 0.482(3) 0.194(2) 0.4443(18)
#END
