
#######################################################################
#
#                 Cambridge Crystallographic Data Centre
#                                CCDC
#
#######################################################################
#
# If this CIF has been generated from an entry in the Cambridge
# Structural Database, then it will include bibliographic, chemical,
# crystal, experimental, refinement or atomic coordinate data resulting
# from the CCDC's data processing and validation procedures.
#
#######################################################################

data_CSD_CIF_AHIDEC
_audit_creation_date 2015-07-24
_audit_creation_method CSD-ConQuest-V1
_database_code_CSD AHIDEC
_database_code_depnum_ccdc_archive 'CCDC 1415149'
_chemical_formula_sum 'C19 H15 N3 O2'
_chemical_formula_moiety
;
C19 H15 N3 O2
;
_journal_coden_Cambridge 1078
_journal_year 2015
_journal_name_full 'CSD Communication(Private Communication) '
loop_
_publ_author_name
"J.Poisson"
"I.S.Butler"
"D.Scott Bohle"
_chemical_name_systematic
;
(E)-2-benzylidene-1-(2-nitrophenyl)-1-phenylhydrazine
;
_chemical_melting_point 383
_cell_volume   1627.297
_exptl_crystal_colour 'yellow'
_exptl_crystal_density_diffrn 1.295
_exptl_crystal_description 'prism'
_diffrn_ambient_temperature 100
#These two values have been output from a single CSD field.
_refine_ls_R_factor_gt 0.0451
_refine_ls_wR_factor_gt 0.0451
_symmetry_cell_setting triclinic
_symmetry_space_group_name_H-M 'P -1'
_symmetry_Int_Tables_number 2
loop_
_symmetry_equiv_pos_site_id
_symmetry_equiv_pos_as_xyz
1 x,y,z
2 -x,-y,-z
_cell_length_a 10.372(4)
_cell_length_b 11.700(5)
_cell_length_c 14.688(6)
_cell_angle_alpha 93.534(5)
_cell_angle_beta 102.257(5)
_cell_angle_gamma 109.276(5)
_cell_formula_units_Z 4
loop_
_atom_type_symbol
_atom_type_radius_bond
C 0.68
H 0.23
N 0.68
O 0.68
loop_
_atom_site_label
_atom_site_type_symbol
_atom_site_fract_x
_atom_site_fract_y
_atom_site_fract_z
N1 N 0.56207(12) 0.90932(11) 0.13829(8)
O1 O 0.56700(15) 0.67773(12) 0.16014(9)
N2 N 0.60937(16) 0.70852(12) 0.09143(10)
N3 N 0.43097(12) 0.86013(12) 0.07839(9)
O2 O 0.73120(14) 0.73744(15) 0.08709(10)
C1 C 0.71997(14) 1.03079(12) 0.27753(10)
C2 C 0.31441(14) 0.89340(14) 0.09156(10)
C3 C 0.58313(15) 0.98441(13) 0.2108(1)
H1 H 0.50910 1.01030 0.22140
C4 C 0.41478(15) 0.77138(14) 0.00531(10)
C5 C 0.50424(15) 0.70550(13) 0.00642(10)
C6 C 0.82795(15) 0.99050(14) 0.26801(12)
H2 H 0.81530 0.93450 0.21440
C7 C 0.29868(17) 0.99673(16) 0.06082(11)
H3 H 0.36490 1.04620 0.03060
C8 C 0.22013(17) 0.82237(16) 0.13587(11)
H4 H 0.23110 0.75090 0.15830
C9 C 0.74289(18) 1.11290(16) 0.35566(11)
H5 H 0.67050 1.14290 0.36330
C10 C 0.49125(19) 0.62477(14) -0.07026(11)
H6 H 0.55750 0.58450 -0.06860
C11 C 0.1878(2) 1.02959(19) 0.07331(13)
H7 H 0.17720 1.10160 0.05170
C12 C 0.10791(19) 0.8569(2) 0.14741(12)
H8 H 0.04070 0.80810 0.17730
C13 C 0.97333(18) 1.11056(16) 0.41259(13)
H9 H 1.06020 1.13710 0.45910
C14 C 0.95278(17) 1.03017(17) 0.33485(13)
H10 H 1.02610 1.00160 0.32720
C15 C 0.09401(19) 0.9600(2) 0.11615(12)
H11 H 0.01730 0.98310 0.12460
C16 C 0.8689(2) 1.15237(17) 0.42299(12)
H12 H 0.88280 1.20880 0.47670
C17 C 0.3841(2) 0.60258(17) -0.14819(12)
H13 H 0.37300 0.54510 -0.20040
C18 C 0.30844(19) 0.74875(18) -0.07581(12)
H14 H 0.24530 0.79250 -0.08000
C19 C 0.2926(2) 0.6644(2) -0.15018(13)
H15 H 0.21670 0.64850 -0.20410
N4 N 0.31105(13) 0.54785(11) 0.40826(8)
O3 O 0.26984(14) 0.77046(12) 0.39316(9)
N5 N 0.39416(16) 0.78667(12) 0.40336(10)
N6 N 0.33649(15) 0.57299(11) 0.50401(8)
O4 O 0.45674(16) 0.80886(14) 0.34172(10)
C20 C 0.26690(16) 0.48828(14) 0.5589(1)
C21 C 0.18580(16) 0.42289(13) 0.26255(10)
C22 C 0.47566(15) 0.78445(14) 0.49709(11)
C23 C 0.43914(15) 0.68548(13) 0.54526(10)
C24 C 0.21601(16) 0.44860(13) 0.3643(1)
H16 H 0.16460 0.39110 0.39820
C25 C 0.08735(17) 0.31220(15) 0.21618(12)
H17 H 0.04110 0.25320 0.25120
C26 C 0.15448(17) 0.50138(16) 0.58746(11)
H18 H 0.12390 0.56750 0.57200
C27 C 0.31087(18) 0.39304(16) 0.58131(11)
H19 H 0.38900 0.38460 0.56140
C28 C 0.58555(17) 0.89202(15) 0.53723(14)
H20 H 0.61190 0.95660 0.50100
C29 C 0.25211(19) 0.50607(15) 0.20955(11)
H21 H 0.32210 0.58190 0.24010
C30 C 0.05563(18) 0.28665(17) 0.11955(13)
H22 H -0.01100 0.20960 0.08860
C31 C 0.51418(18) 0.70074(17) 0.63797(12)
H23 H 0.49270 0.63490 0.67360
C32 C 0.2423(2) 0.31007(17) 0.63232(12)
H24 H 0.27280 0.24390 0.64780
C33 C 0.08619(19) 0.4171(2) 0.63907(13)
H25 H 0.00820 0.42510 0.65950
C34 C 0.1190(2) 0.37092(19) 0.06819(13)
H26 H 0.09480 0.35390 0.00140
C35 C 0.61934(19) 0.8099(2) 0.67903(14)
H27 H 0.66730 0.81930 0.74330
C36 C 0.1309(2) 0.32233(19) 0.66072(12)
H28 H 0.08340 0.26440 0.69600
C37 C 0.2181(2) 0.48046(18) 0.11338(12)
H29 H 0.26350 0.53910 0.07780
C38 C 0.65592(18) 0.90512(18) 0.62888(16)
H30 H 0.72970 0.97970 0.65770
#END
