
#######################################################################
#
#                 Cambridge Crystallographic Data Centre
#                                CCDC
#
#######################################################################
#
# If this CIF has been generated from an entry in the Cambridge
# Structural Database, then it will include bibliographic, chemical,
# crystal, experimental, refinement or atomic coordinate data resulting
# from the CCDC's data processing and validation procedures.
#
#######################################################################

data_CSD_CIF_AHIDAY
_audit_creation_date 2015-07-24
_audit_creation_method CSD-ConQuest-V1
_database_code_CSD AHIDAY
_database_code_depnum_ccdc_archive 'CCDC 1415148'
_chemical_formula_sum 'C19 H15 N3 O3'
_chemical_formula_moiety
;
C19 H15 N3 O3
;
_journal_coden_Cambridge 1078
_journal_year 2015
_journal_name_full 'CSD Communication(Private Communication) '
loop_
_publ_author_name
"J.Poisson"
"I.S.Butler"
"D.Scott Bohle"
_chemical_name_systematic
;
2-((2-nitrophenyl)(phenyl)carbonohydrazonoyl)phenol
;
_chemical_name_common
;
(E)-2-((2-(2-nitrophenyl)-2-phenylhydrazono)methyl)phenol
;
_chemical_melting_point 398
_cell_volume   1650.356
_exptl_crystal_colour 'red'
_exptl_crystal_density_diffrn 1.342
_exptl_crystal_description 'prism'
_diffrn_ambient_temperature 296
#These two values have been output from a single CSD field.
_refine_ls_R_factor_gt 0.0397
_refine_ls_wR_factor_gt 0.0397
_symmetry_cell_setting monoclinic
_symmetry_space_group_name_H-M 'P 21/n'
_symmetry_Int_Tables_number 14
loop_
_symmetry_equiv_pos_site_id
_symmetry_equiv_pos_as_xyz
1 x,y,z
2 1/2-x,1/2+y,1/2-z
3 -x,-y,-z
4 -1/2+x,-1/2-y,-1/2+z
_cell_length_a 9.9767(16)
_cell_length_b 14.657(2)
_cell_length_c 12.178(2)
_cell_angle_alpha 90
_cell_angle_beta 112.064(2)
_cell_angle_gamma 90
_cell_formula_units_Z 4
loop_
_atom_type_symbol
_atom_type_radius_bond
C 0.68
H 0.23
N 0.68
O 0.68
loop_
_atom_site_label
_atom_site_type_symbol
_atom_site_fract_x
_atom_site_fract_y
_atom_site_fract_z
O1 O 0.86176(15) 0.33384(8) 0.11742(12)
N1 N 0.68033(10) 0.10292(7) 0.04801(9)
N2 N 0.86956(12) 0.25551(9) 0.08582(12)
N3 N 0.56272(9) 0.15811(6) 0.03079(8)
C1 C 0.67492(12) 0.04353(8) -0.04427(10)
C2 C 0.55561(13) 0.04110(8) -0.14997(11)
H1 H 0.47780 0.07990 -0.16110
C3 C 0.55187(15) -0.01871(9) -0.23881(12)
H2 H 0.47120 -0.01970 -0.30920
C4 C 0.66494(16) -0.07667(9) -0.22508(12)
H3 H 0.66130 -0.11700 -0.28510
C5 C 0.78371(16) -0.0739(1) -0.12078(13)
H4 H 0.86120 -0.11280 -0.11050
C6 C 0.79027(14) -0.01465(9) -0.03110(12)
H5 H 0.87210 -0.01350 0.03850
C7 C 0.80634(12) 0.10954(9) 0.15363(10)
C8 C 0.89915(13) 0.18354(9) 0.17460(11)
C9 C 1.02018(14) 0.19234(11) 0.27800(13)
H6 H 1.07920 0.24360 0.29130
C10 C 1.05073(17) 0.12364(13) 0.36020(13)
H7 H 1.13280 0.12740 0.42940
C11 C 0.96068(18) 0.04897(13) 0.34105(12)
H8 H 0.98310 0.00250 0.39710
C12 C 0.83768(16) 0.04245(11) 0.23952(12)
H9 H 0.77580 -0.00710 0.22880
C13 C 0.55881(12) 0.21020(8) 0.11435(10)
H10 H 0.63800 0.21200 0.18580
C14 C 0.43325(12) 0.26627(8) 0.09947(10)
C15 C 0.30947(12) 0.26727(9) -0.00493(11)
C16 C 0.19141(15) 0.32033(11) -0.01224(13)
H11 H 0.11000 0.32150 -0.08210
C17 C 0.19420(17) 0.37113(11) 0.08329(15)
H12 H 0.11420 0.40630 0.07760
C18 C 0.31405(17) 0.37071(11) 0.18751(15)
H13 H 0.31500 0.40490 0.25210
C19 C 0.43252(15) 0.31893(9) 0.19479(12)
H14 H 0.51380 0.31910 0.26480
O2 O 0.85298(16) 0.23441(9) -0.01473(11)
O3 O 0.29996(11) 0.21658(8) -0.10102(8)
H15 H 0.380(2) 0.1871(13) -0.0835(15)
#END
