
#######################################################################
#
#                 Cambridge Crystallographic Data Centre
#                                CCDC
#
#######################################################################
#
# If this CIF has been generated from an entry in the Cambridge
# Structural Database, then it will include bibliographic, chemical,
# crystal, experimental, refinement or atomic coordinate data resulting
# from the CCDC's data processing and validation procedures.
#
#######################################################################

data_CSD_CIF_AHIJEH
_audit_creation_date 2010-03-08
_audit_creation_method CSD-ConQuest-V1
_database_code_CSD AHIJEH
_database_code_depnum_ccdc_archive 'CCDC 661142'
_chemical_formula_sum 'C17 H16 N2 O2'
_chemical_formula_moiety
;
C17 H16 N2 O2
;
_journal_coden_Cambridge 34
_journal_volume 46
_journal_year 2009
_journal_page_first 432
_journal_name_full 'J.Heterocycl.Chem. '
loop_
_publ_author_name
"Ny Sin"
"B.L.Venables"
"Xiaohong Liu"
"S.Huang"
"Qi Gao"
"A.Ng"
"R.Dalterio"
"R.Rajamani"
"N.A.Meanwell"
_chemical_name_systematic
;
(E)-3-(Isopropoxyimino)-1-phenyl-1,3-dihydro-2H-indol-2-one
;
_chemical_name_common
;
(E)-1-phenyl-2-oxo-1,3-dihydro-2H-indol-3-one O-isopropyloxime
;
_cell_volume    748.287
_exptl_crystal_colour 'yellow'
_exptl_crystal_density_diffrn 1.244
_exptl_crystal_description 'thick long plate'
_diffrn_ambient_temperature 293
#These two values have been output from a single CSD field.
_refine_ls_R_factor_gt 0.0625
_refine_ls_wR_factor_gt 0.0625
_symmetry_cell_setting triclinic
_symmetry_space_group_name_H-M 'P -1'
_symmetry_Int_Tables_number 2
loop_
_symmetry_equiv_pos_site_id
_symmetry_equiv_pos_as_xyz
1 x,y,z
2 -x,-y,-z
_cell_length_a 8.7349(2)
_cell_length_b 9.1451(3)
_cell_length_c 10.7927(3)
_cell_angle_alpha 74.9305(13)
_cell_angle_beta 71.3666(14)
_cell_angle_gamma 68.1172(13)
_cell_formula_units_Z 2
loop_
_atom_type_symbol
_atom_type_radius_bond
C 0.68
H 0.23
N 0.68
O 0.68
loop_
_atom_site_label
_atom_site_type_symbol
_atom_site_fract_x
_atom_site_fract_y
_atom_site_fract_z
C1 C 0.6984(4) 0.6334(4) 0.0142(3)
H1 H 0.78460 0.67230 0.02240
C2 C 0.4315(3) 0.7151(3) 0.3220(2)
C3 C 0.3659(3) 0.8450(2) 0.4046(2)
C4 C 0.1726(3) 0.8816(2) 0.6275(2)
C5 C 0.2495(3) 0.6444(2) 0.5153(2)
C6 C 0.2648(3) 0.9371(3) 0.6776(2)
H2 H 0.38160 0.91570 0.64240
C7 C -0.0012(3) 0.9121(3) 0.6791(2)
H3 H -0.06230 0.87570 0.64420
C8 C 0.3538(3) 0.5919(2) 0.3961(2)
C9 C 0.1816(4) 1.0244(3) 0.7803(3)
H4 H 0.24220 1.06270 0.81410
C10 C 0.3670(3) 0.4453(3) 0.3714(3)
H5 H 0.43680 0.40880 0.29300
C11 C 0.1586(3) 0.5539(3) 0.6099(2)
H6 H 0.09050 0.58860 0.68940
C12 C -0.0823(4) 0.9974(3) 0.7832(3)
H7 H -0.19850 1.01640 0.82010
C13 C 0.0080(4) 1.0549(3) 0.8330(3)
H8 H -0.04800 1.11410 0.90200
C14 C 0.2745(4) 0.3549(3) 0.4656(3)
H9 H 0.28120 0.25700 0.45030
C15 C 0.1724(4) 0.4086(3) 0.5822(3)
H10 H 0.11090 0.34580 0.64410
C16 C 0.7840(5) 0.4708(5) -0.0289(4)
H11 H 0.84280 0.39780 0.03530
H12 H 0.86390 0.47950 -0.11340
H13 H 0.69940 0.43210 -0.03600
C17 C 0.5966(6) 0.7557(5) -0.0770(3)
H14 H 0.51050 0.71870 -0.08350
H15 H 0.67060 0.77220 -0.16320
H16 H 0.54350 0.85450 -0.04250
O1 O 0.3937(2) 0.97149(19) 0.37710(16)
O2 O 0.5868(2) 0.6041(2) 0.14466(16)
N1 N 0.2592(2) 0.7940(2) 0.51981(17)
N2 N 0.5361(2) 0.7341(2) 0.20833(19)
#END
