
#######################################################################
#
#                 Cambridge Crystallographic Data Centre
#                                CCDC
#
#######################################################################
#
# If this CIF has been generated from an entry in the Cambridge
# Structural Database, then it will include bibliographic, chemical,
# crystal, experimental, refinement or atomic coordinate data resulting
# from the CCDC's data processing and validation procedures.
#
#######################################################################

data_CSD_CIF_AHIJIL
_audit_creation_date 2010-03-08
_audit_creation_method CSD-ConQuest-V1
_database_code_CSD AHIJIL
_database_code_depnum_ccdc_archive 'CCDC 661143'
_chemical_formula_sum 'C12 H14 N2 O2'
_chemical_formula_moiety
;
C12 H14 N2 O2
;
_journal_coden_Cambridge 34
_journal_volume 46
_journal_year 2009
_journal_page_first 432
_journal_name_full 'J.Heterocycl.Chem. '
loop_
_publ_author_name
"Ny Sin"
"B.L.Venables"
"Xiaohong Liu"
"S.Huang"
"Qi Gao"
"A.Ng"
"R.Dalterio"
"R.Rajamani"
"N.A.Meanwell"
_chemical_name_systematic
;
(E)-N-(1-Methyl-2-oxoindolin-3-ylidene)propan-2-amine oxide
;
_chemical_melting_point 386.15
_cell_volume   2244.340
_exptl_crystal_colour 'orange'
_exptl_crystal_density_diffrn 1.292
_exptl_special_details
;
Melting point range 386.15-387.65K

;
_diffrn_ambient_temperature 293
#These two values have been output from a single CSD field.
_refine_ls_R_factor_gt 0.0542
_refine_ls_wR_factor_gt 0.0542
_symmetry_cell_setting orthorhombic
_symmetry_space_group_name_H-M 'P m c n'
_symmetry_Int_Tables_number 62
loop_
_symmetry_equiv_pos_site_id
_symmetry_equiv_pos_as_xyz
1 x,y,z
2 1/2-x,1/2-y,1/2+z
3 1/2+x,-y,-z
4 -x,1/2+y,1/2-z
5 -x,-y,-z
6 -1/2+x,-1/2+y,-1/2-z
7 -1/2-x,y,z
8 x,-1/2-y,-1/2+z
_cell_length_a 6.9084(2)
_cell_length_b 11.1191(3)
_cell_length_c 29.2174(11)
_cell_angle_alpha 90
_cell_angle_beta 90
_cell_angle_gamma 90
_cell_formula_units_Z 8
loop_
_atom_type_symbol
_atom_type_radius_bond
C 0.68
H 0.23
N 0.68
O 0.68
loop_
_atom_site_label
_atom_site_type_symbol
_atom_site_fract_x
_atom_site_fract_y
_atom_site_fract_z
N1 N 0.25000 0.2318(2) 0.64782(8)
C1 C 0.25000 0.2934(3) 0.60715(10)
O1 O 0.25000 0.4025(2) 0.60392(8)
C2 C 0.25000 0.1969(3) 0.57116(10)
C3 C 0.25000 0.0823(3) 0.5942(1)
C4 C 0.25000 -0.0365(3) 0.57901(11)
H1 H 0.25000 -0.05440 0.54790
C5 C 0.25000 -0.1279(3) 0.61169(13)
H2 H 0.25000 -0.214(4) 0.6014(11)
C6 C 0.25000 -0.1012(3) 0.65776(13)
H3 H 0.25000 -0.16370 0.67890
C7 C 0.25000 0.0169(3) 0.67345(11)
H4 H 0.25000 0.03430 0.70460
C8 C 0.25000 0.1075(3) 0.64105(10)
C9 C 0.25000 0.2920(4) 0.69164(11)
H5 H 0.25000 0.37750 0.68700
H6 H 0.36350 0.26920 0.70850
N2 N 0.25000 0.2141(2) 0.52638(8)
O2 O 0.25000 0.1248(2) 0.49936(8)
C10 C 0.25000 0.3361(3) 0.50366(12)
H7 H 0.25000 0.390(4) 0.5297(13)
C11 C 0.0678(4) 0.3471(3) 0.47527(12)
H8 H 0.069(4) 0.280(3) 0.4544(10)
H9 H 0.069(4) 0.424(3) 0.4596(10)
H10 H -0.045(4) 0.340(2) 0.4967(10)
N3 N 0.75000 0.1747(2) 0.59570(8)
C12 C 0.75000 0.2972(3) 0.60119(9)
O3 O 0.75000 0.3689(2) 0.56966(7)
C13 C 0.75000 0.3171(2) 0.65153(9)
C14 C 0.75000 0.2005(2) 0.67343(10)
C15 C 0.75000 0.1623(3) 0.71856(12)
H11 H 0.75000 0.21770 0.74240
C16 C 0.75000 0.0395(3) 0.72748(15)
H12 H 0.75000 0.01240 0.75760
C17 C 0.75000 -0.0431(3) 0.69180(15)
H13 H 0.75000 -0.12490 0.69850
C18 C 0.75000 -0.0069(3) 0.64656(13)
H14 H 0.75000 -0.06270 0.62280
C19 C 0.75000 0.1156(3) 0.63782(10)
C20 C 0.75000 0.1146(3) 0.55161(11)
H15 H 0.75000 0.17370 0.52760
H16 H 0.63650 0.06530 0.54900
N4 N 0.75000 0.4214(2) 0.67315(8)
O4 O 0.75000 0.4264(2) 0.71666(7)
C21 C 0.75000 0.5403(3) 0.64838(11)
H17 H 0.75000 0.521(3) 0.6161(12)
C22 C 0.9331(4) 0.6072(3) 0.66094(15)
H18 H 0.931(3) 0.687(2) 0.6446(9)
H19 H 0.935(4) 0.618(3) 0.6920(11)
H20 H 1.051(4) 0.561(2) 0.6513(9)
H6F H 0.13650 0.26920 0.70850
C11F C 0.4322(4) 0.3471(3) 0.47527(12)
H8F H 0.431(4) 0.280(3) 0.4544(10)
H9F H 0.431(4) 0.424(3) 0.4596(10)
H10F H 0.545(4) 0.340(2) 0.4967(10)
H16F H 0.86350 0.06530 0.54900
C22F C 0.5669(4) 0.6072(3) 0.66094(15)
H18F H 0.569(3) 0.687(2) 0.6446(9)
H19F H 0.565(4) 0.618(3) 0.6920(11)
H20F H 0.449(4) 0.561(2) 0.6513(9)
#END
