
#######################################################################
#
#                 Cambridge Crystallographic Data Centre
#                                CCDC
#
#######################################################################
#
# If this CIF has been generated from an entry in the Cambridge
# Structural Database, then it will include bibliographic, chemical,
# crystal, experimental, refinement or atomic coordinate data resulting
# from the CCDC's data processing and validation procedures.
#
#######################################################################

data_CSD_CIF_AHIVEU
_audit_creation_date 2015-07-27
_audit_creation_method CSD-ConQuest-V1
_database_code_CSD AHIVEU
_database_code_depnum_ccdc_archive 'CCDC 1415251'
_chemical_formula_sum 'C12 H11 N1 O4'
_chemical_formula_moiety
;
C12 H11 N1 O4
;
_journal_coden_Cambridge 1078
_journal_year 2015
_journal_name_full 'CSD Communication(Private Communication) '
loop_
_publ_author_name
"Florke"
"Ulrich"
_chemical_name_systematic
;
1,5-dimethoxy-4-nitronaphthalene
;
_cell_volume   1047.808
_exptl_crystal_colour 'pale yellow'
_exptl_crystal_density_diffrn 1.478
_exptl_crystal_description 'plate'
_diffrn_ambient_temperature 120
#These two values have been output from a single CSD field.
_refine_ls_R_factor_gt 0.066
_refine_ls_wR_factor_gt 0.066
_symmetry_cell_setting monoclinic
_symmetry_space_group_name_H-M 'P 21/n'
_symmetry_Int_Tables_number 14
loop_
_symmetry_equiv_pos_site_id
_symmetry_equiv_pos_as_xyz
1 x,y,z
2 1/2-x,1/2+y,1/2-z
3 -x,-y,-z
4 -1/2+x,-1/2-y,-1/2+z
_cell_length_a 9.711(4)
_cell_length_b 10.839(4)
_cell_length_c 10.383(4)
_cell_angle_alpha 90
_cell_angle_beta 106.514(9)
_cell_angle_gamma 90
_cell_formula_units_Z 4
loop_
_atom_type_symbol
_atom_type_radius_bond
C 0.68
H 0.23
N 0.68
O 0.68
loop_
_atom_site_label
_atom_site_type_symbol
_atom_site_fract_x
_atom_site_fract_y
_atom_site_fract_z
O1 O 0.57763(19) 0.65413(19) 0.63661(19)
O2 O 0.5995(2) 0.45514(19) 0.63885(19)
O3 O 0.05240(18) 0.54196(18) 0.8382(2)
O4 O 0.67230(17) 0.64439(17) 0.90327(18)
N1 N 0.5447(2) 0.5503(2) 0.6651(2)
C1 C 0.4258(3) 0.5389(2) 0.7244(2)
C2 C 0.3127(3) 0.4709(2) 0.6523(3)
H1 H 0.32080 0.42530 0.57660
C3 C 0.1841(3) 0.4672(2) 0.6884(3)
H2 H 0.10560 0.41850 0.63850
C4 C 0.1731(3) 0.5348(2) 0.7966(3)
C5 C 0.2932(3) 0.6027(2) 0.8785(3)
C6 C 0.4240(3) 0.6028(2) 0.8438(2)
C7 C 0.2837(3) 0.6640(3) 0.9956(3)
H3 H 0.19530 0.66560 1.01780
C8 C 0.4022(3) 0.7211(3) 1.0770(3)
H4 H 0.39520 0.76290 1.15530
C9 C 0.5333(3) 0.7189(2) 1.0467(3)
H5 H 0.61430 0.75930 1.10450
C10 C 0.5465(3) 0.6594(2) 0.9348(3)
C11 C -0.0716(3) 0.4739(3) 0.7638(3)
H6 H -0.09710 0.49870 0.66920
H7 H -0.15230 0.49130 0.80030
H8 H -0.05020 0.38540 0.77110
C12 C 0.7945(3) 0.7136(3) 0.9789(3)
H9 H 0.87760 0.69400 0.94670
H10 H 0.81600 0.69200 1.07420
H11 H 0.77350 0.80200 0.96730
#END
