
#######################################################################
#
#                 Cambridge Crystallographic Data Centre
#                                CCDC
#
#######################################################################
#
# If this CIF has been generated from an entry in the Cambridge
# Structural Database, then it will include bibliographic, chemical,
# crystal, experimental, refinement or atomic coordinate data resulting
# from the CCDC's data processing and validation procedures.
#
#######################################################################

data_CSD_CIF_AHUHEQ
_audit_creation_date 2003-11-05
_audit_creation_method CSD-ConQuest-V1
_database_code_CSD AHUHEQ
_database_code_depnum_ccdc_archive 'CCDC 192215'
_chemical_formula_sum 'C24 H41 N3 O4'
_chemical_formula_moiety
;
C24 H41 N3 O4
;
_journal_coden_Cambridge 1353
_journal_volume 4
_journal_year 2003
_journal_page_first 67
_journal_name_full 'ChemPhysChem '
loop_
_publ_author_name
"S.Sharma"
"T.P.Radhakrishnan"
_chemical_name_systematic
;
N-(2,4-Dinitrophenyl)-n-octadecylamine
;
_chemical_melting_point 342.15
_cell_volume   5061.536
_exptl_crystal_colour 'yellow'
_exptl_crystal_density_diffrn 1.143
_exptl_special_details
;
Melting point range 342.15-345.15K

;
_exptl_crystal_description 'Plate'
_exptl_crystal_preparation 'methanol/dichloromethane'
_diffrn_ambient_temperature 293
#These two values have been output from a single CSD field.
_refine_ls_R_factor_gt 0.0555
_refine_ls_wR_factor_gt 0.0555
_symmetry_cell_setting monoclinic
_symmetry_space_group_name_H-M 'C 2/c'
_symmetry_Int_Tables_number 15
loop_
_symmetry_equiv_pos_site_id
_symmetry_equiv_pos_as_xyz
1 x,y,z
2 1/2+x,1/2+y,z
3 x,-y,1/2+z
4 1/2+x,1/2-y,1/2+z
5 -x,-y,-z
6 -1/2-x,-1/2-y,-z
7 -x,y,-1/2-z
8 -1/2-x,-1/2+y,-1/2-z
_cell_length_a 43.818(5)
_cell_length_b 7.056(2)
_cell_length_c 16.826(2)
_cell_angle_alpha 90
_cell_angle_beta 103.357(10)
_cell_angle_gamma 90
_cell_formula_units_Z 8
loop_
_atom_type_symbol
_atom_type_radius_bond
C 0.68
H 0.23
N 0.68
O 0.68
loop_
_atom_site_label
_atom_site_type_symbol
_atom_site_fract_x
_atom_site_fract_y
_atom_site_fract_z
N1 N 0.21884(9) 0.5261(5) 0.5361(2)
H1 H 0.22730 0.42240 0.52500
C1 C 0.21237(11) 0.6566(6) 0.4772(3)
C2 C 0.21910(11) 0.6380(6) 0.3995(3)
C3 C 0.21189(10) 0.7779(6) 0.3402(3)
H2 H 0.21650 0.76130 0.28940
C4 C 0.19792(11) 0.9398(7) 0.3577(3)
C5 C 0.19103(12) 0.9673(7) 0.4326(3)
H3 H 0.18150 1.07940 0.44310
C6 C 0.19801(12) 0.8317(7) 0.4913(3)
H4 H 0.19340 0.85310 0.54170
N2 N 0.23411(9) 0.4712(6) 0.3767(2)
O1 O 0.24049(9) 0.3383(5) 0.4258(2)
O2 O 0.24069(9) 0.4655(5) 0.3099(2)
N3 N 0.18983(11) 1.0872(6) 0.2952(3)
O3 O 0.19857(10) 1.0667(5) 0.2313(3)
O4 O 0.17505(10) 1.2245(6) 0.3098(3)
C7 C 0.21285(12) 0.5431(7) 0.6179(3)
H5 H 0.21800 0.67100 0.63760
H6 H 0.22680 0.45740 0.65430
C8 C 0.17929(12) 0.5001(7) 0.6220(3)
H7 H 0.17720 0.51830 0.67760
H8 H 0.16540 0.58930 0.58750
C9 C 0.16907(12) 0.2996(7) 0.5950(3)
H9 H 0.16780 0.28770 0.53690
H10 H 0.18490 0.21110 0.62310
C10 C 0.13775(13) 0.2471(7) 0.6121(3)
H11 H 0.13870 0.26840 0.66960
H12 H 0.12180 0.33080 0.58110
C11 C 0.12787(12) 0.0446(7) 0.5915(3)
H13 H 0.12650 0.02380 0.53380
H14 H 0.14400 -0.03920 0.62180
C12 C 0.09692(13) -0.0078(7) 0.6102(4)
H15 H 0.08050 0.06680 0.57560
H16 H 0.09750 0.02560 0.66640
C13 C 0.08866(13) -0.2152(7) 0.5978(3)
H17 H 0.08860 -0.24900 0.54190
H18 H 0.10490 -0.28930 0.63340
C14 C 0.05748(13) -0.2686(7) 0.6142(3)
H19 H 0.04110 -0.19890 0.57690
H20 H 0.05710 -0.22940 0.66930
C15 C 0.04989(12) -0.4776(7) 0.6055(3)
H21 H 0.06620 -0.54740 0.64290
H22 H 0.05020 -0.51690 0.55050
C16 C 0.01841(13) -0.5304(7) 0.6222(3)
H23 H 0.00200 -0.46340 0.58380
H24 H 0.01780 -0.48790 0.67670
C17 C 0.01134(13) -0.7408(7) 0.6157(3)
H25 H 0.02740 -0.80760 0.65510
H26 H 0.01240 -0.78410 0.56160
C18 C -0.02067(13) -0.7917(7) 0.6304(3)
H27 H -0.02170 -0.74820 0.68440
H28 H -0.03670 -0.72490 0.59090
C19 C -0.02773(13) -1.0015(8) 0.6240(4)
H29 H -0.01180 -1.06810 0.66390
H30 H -0.02650 -1.04530 0.57020
C20 C -0.05972(13) -1.0515(8) 0.6378(4)
H31 H -0.07560 -0.98310 0.59850
H32 H -0.06090 -1.00950 0.69190
C21 C -0.06717(16) -1.2617(8) 0.6301(4)
H33 H -0.06560 -1.30340 0.57620
H34 H -0.05130 -1.32930 0.66980
C22 C -0.09864(16) -1.3168(9) 0.6421(4)
H35 H -0.11470 -1.25400 0.60130
H36 H -0.10060 -1.27360 0.69540
C23 C -0.1041(2) -1.5312(12) 0.6360(7)
H37 H -0.10470 -1.56680 0.57990
H38 H -0.08560 -1.59050 0.66960
C24 C -0.1273(2) -1.6062(13) 0.6544(6)
H39 H -0.12650 -1.74100 0.64750
H40 H -0.14620 -1.55740 0.61960
H41 H -0.12720 -1.57780 0.71030
#END
