
#######################################################################
#
#                 Cambridge Crystallographic Data Centre
#                                CCDC
#
#######################################################################
#
# If this CIF has been generated from an entry in the Cambridge
# Structural Database, then it will include bibliographic, chemical,
# crystal, experimental, refinement or atomic coordinate data resulting
# from the CCDC's data processing and validation procedures.
#
#######################################################################

data_CSD_CIF_AJAPUY
_audit_creation_date 2015-07-29
_audit_creation_method CSD-ConQuest-V1
_database_code_CSD AJAPUY
_database_code_depnum_ccdc_archive 'CCDC 1059087'
_chemical_formula_sum 'C23 H16 N2 O2'
_chemical_formula_moiety
;
C23 H16 N2 O2
;
_journal_coden_Cambridge 1500
_journal_volume 5
_journal_year 2015
_journal_page_first 64354
_journal_name_full 'RSC Advances '
loop_
_publ_author_name
"Lijun Wu"
"Hui Huang"
"Pan Dang"
"Yun Liang"
"Shaofeng Pi"
_chemical_name_systematic
;
11-benzyl-5-nitro-11H-benzo[a]carbazole
;
_cell_volume    870.324
_exptl_crystal_colour 'yellow'
_exptl_crystal_density_diffrn 1.345
_exptl_crystal_description 'block'
_diffrn_ambient_temperature 180.0
#These two values have been output from a single CSD field.
_refine_ls_R_factor_gt 0.0846
_refine_ls_wR_factor_gt 0.0846
_symmetry_cell_setting monoclinic
_symmetry_space_group_name_H-M 'P 21'
_symmetry_Int_Tables_number 4
loop_
_symmetry_equiv_pos_site_id
_symmetry_equiv_pos_as_xyz
1 x,y,z
2 -x,1/2+y,-z
_cell_length_a 5.7929(3)
_cell_length_b 14.5941(5)
_cell_length_c 10.6740(5)
_cell_angle_alpha 90
_cell_angle_beta 105.323(5)
_cell_angle_gamma 90
_cell_formula_units_Z 2
loop_
_atom_type_symbol
_atom_type_radius_bond
C 0.68
H 0.23
N 0.68
O 0.68
loop_
_atom_site_label
_atom_site_type_symbol
_atom_site_fract_x
_atom_site_fract_y
_atom_site_fract_z
O1 O 1.0128(15) 0.4339(8) 1.4438(6)
O2 O 0.6402(16) 0.4067(6) 1.4281(7)
N1 N 0.6863(11) 0.4055(4) 0.8446(6)
N2 N 0.8121(17) 0.4099(7) 1.3814(8)
C1 C 0.8802(13) 0.4635(5) 0.8393(7)
C2 C 0.9435(15) 0.4970(5) 0.7325(8)
H1 H 0.85820 0.48180 0.64840
C3 C 1.1414(16) 0.5547(6) 0.7568(9)
H2 H 1.18770 0.57930 0.68680
C4 C 1.2706(17) 0.5767(6) 0.8803(10)
H3 H 1.40140 0.61570 0.89170
C5 C 1.2100(14) 0.5416(5) 0.9904(8)
H4 H 1.29960 0.55530 1.07430
C6 C 1.0086(13) 0.4851(5) 0.9672(7)
C7 C 0.8862(13) 0.4387(5) 1.0512(7)
C8 C 0.9287(15) 0.4415(6) 1.1868(8)
H5 H 1.06020 0.47240 1.23830
C9 C 0.7698(16) 0.3971(6) 1.2412(7)
C10 C 0.5747(16) 0.3427(6) 1.1680(8)
C11 C 0.4190(18) 0.2906(7) 1.2239(10)
H6 H 0.43770 0.29270 1.31310
C12 C 0.2411(17) 0.2372(6) 1.1471(10)
H7 H 0.13760 0.20560 1.18520
C13 C 0.2127(16) 0.2293(6) 1.016(1)
H8 H 0.09550 0.19080 0.96670
C14 C 0.3575(14) 0.2782(6) 0.9579(9)
H9 H 0.33620 0.27280 0.86880
C15 C 0.5368(13) 0.3362(5) 1.0294(8)
C16 C 0.6901(12) 0.3907(5) 0.9728(7)
C17 C 0.5052(14) 0.3786(6) 0.7265(8)
H10 H 0.50300 0.42380 0.65950
H11 H 0.34940 0.37970 0.74420
C18 C 0.5432(15) 0.2858(6) 0.6754(7)
C19 C 0.7655(16) 0.2451(6) 0.7011(9)
H12 H 0.89860 0.27470 0.75330
C20 C 0.790(2) 0.1583(8) 0.6480(13)
H13 H 0.94040 0.13080 0.66720
C21 C 0.601(2) 0.1143(8) 0.5697(11)
H14 H 0.61930 0.05710 0.53500
C22 C 0.377(2) 0.1567(9) 0.5424(11)
H15 H 0.24500 0.12760 0.48860
C23 C 0.3497(18) 0.2412(8) 0.5941(10)
H16 H 0.19940 0.26850 0.57430
#END
