
#######################################################################
#
#                 Cambridge Crystallographic Data Centre
#                                CCDC
#
#######################################################################
#
# If this CIF has been generated from an entry in the Cambridge
# Structural Database, then it will include bibliographic, chemical,
# crystal, experimental, refinement or atomic coordinate data resulting
# from the CCDC's data processing and validation procedures.
#
#######################################################################

data_CSD_CIF_AJAWEN
_audit_creation_date 2003-11-05
_audit_creation_method CSD-ConQuest-V1
_database_code_CSD AJAWEN
_database_code_depnum_ccdc_archive 'CCDC 214086'
_chemical_formula_sum 'C39 H48 N10 O12'
_chemical_formula_moiety
;
C39 H48 N10 O12
;
_journal_coden_Cambridge 1078
_journal_year 2003
_journal_name_full 'CSD Communication(Private Communication) '
loop_
_publ_author_name
"U.Herr"
"W.Steglich"
"K.Polborn"
_chemical_name_systematic
;
tris(1-Benzoyl-3,6-dioxo-7-methoxy-1,4,7-triaza-2-octyl)amine
;
_chemical_name_common
;
tris(N-Benzoyl(alpha-ylglycyl)glycine methoxy(methyl)amide)amine; PEPSEQ A=3 
GLY*!,GLY*-GLY* A=2 GLY*!-GLY*
;
_cell_volume   4323.419
_exptl_crystal_colour 'colorless'
_exptl_crystal_density_diffrn 1.304
_exptl_special_details
;
contribution from Department Chemie, Universitat Munchen, Butenandtstr. 5-13, 
81377 Munchen, Germany
;
_exptl_crystal_description 'plate'
_diffrn_ambient_temperature 295
#These two values have been output from a single CSD field.
_refine_ls_R_factor_gt 0.0626
_refine_ls_wR_factor_gt 0.0626
_symmetry_cell_setting monoclinic
_symmetry_space_group_name_H-M 'P 21/c'
_symmetry_Int_Tables_number 14
loop_
_symmetry_equiv_pos_site_id
_symmetry_equiv_pos_as_xyz
1 x,y,z
2 x,1/2-y,1/2+z
3 -x,-y,-z
4 -x,-1/2+y,-1/2-z
_cell_length_a 13.632(4)
_cell_length_b 16.400(5)
_cell_length_c 19.346(6)
_cell_angle_alpha 90
_cell_angle_beta 91.59(2)
_cell_angle_gamma 90
_cell_formula_units_Z 4
loop_
_atom_type_symbol
_atom_type_radius_bond
C 0.68
H 0.23
N 0.68
O 0.68
loop_
_atom_site_label
_atom_site_type_symbol
_atom_site_fract_x
_atom_site_fract_y
_atom_site_fract_z
O1 O 0.3066(3) 0.1490(3) 0.3728(2)
O2 O 0.3661(3) 0.0414(3) 0.1596(2)
O3 O 0.5719(4) 0.1610(3) 0.0725(2)
O4 O 0.6871(3) -0.0259(3) 0.0623(2)
O5 O 0.1298(3) 0.1249(3) 0.1440(2)
O6 O 0.2807(3) 0.3504(3) 0.0638(2)
O7 O 0.5626(3) 0.3756(3) 0.1002(2)
O8 O 0.5989(4) 0.3839(3) -0.0751(3)
O9 O 0.1920(3) 0.4105(3) 0.2380(2)
O10 O 0.4627(3) 0.3140(3) 0.3399(2)
O11 O 0.6467(3) 0.1991(3) 0.2613(3)
O12 O 0.7889(3) 0.3461(4) 0.3428(2)
N1 N 0.3535(3) 0.2321(2) 0.1991(2)
N2 N 0.2716(3) 0.1216(2) 0.2617(2)
H1 H 0.2303(3) 0.1012(2) 0.2321(2)
N3 N 0.5101(4) 0.0977(3) 0.1918(2)
H2 H 0.5386(4) 0.1336(3) 0.2178(2)
N4 N 0.6507(4) 0.0489(4) 0.0398(3)
N5 N 0.1871(3) 0.2533(3) 0.1474(2)
H3 H 0.1730(3) 0.3034(3) 0.1557(2)
N6 N 0.4160(3) 0.2719(3) 0.0602(2)
H4 H 0.4448(3) 0.2296(3) 0.0775(2)
N7 N 0.6012(4) 0.4111(3) -0.0056(3)
N8 N 0.2790(3) 0.3114(3) 0.2919(2)
H5 H 0.2808(3) 0.2772(3) 0.3256(2)
N9 N 0.5283(3) 0.3319(3) 0.2369(2)
H6 H 0.5182(3) 0.3343(3) 0.1929(2)
N10 N 0.7644(4) 0.2712(4) 0.3143(3)
C1 C 0.3621(4) 0.1552(3) 0.2373(2)
H7 H 0.4049(4) 0.1652(3) 0.2780(2)
C2 C 0.2494(4) 0.1212(3) 0.3290(3)
C3 C 0.1516(4) 0.0889(3) 0.3488(3)
C4 C 0.1275(5) 0.0948(3) 0.4173(3)
H8 H 0.1730(5) 0.1155(3) 0.4494(3)
C5 C 0.0370(5) 0.0706(4) 0.4384(3)
H9 H 0.0211(5) 0.0763(4) 0.4846(3)
C6 C -0.0301(5) 0.0383(4) 0.3927(4)
H10 H -0.0911(5) 0.0214(4) 0.4076(4)
C7 C -0.0072(5) 0.0309(4) 0.3248(4)
H11 H -0.0523(5) 0.0082(4) 0.2934(4)
C8 C 0.0824(5) 0.0570(4) 0.3029(3)
H12 H 0.0967(5) 0.0531(4) 0.2563(3)
C9 C 0.4130(4) 0.0921(4) 0.1926(3)
C10 C 0.5703(4) 0.0466(4) 0.1497(3)
H13 H 0.5350(4) -0.0031(4) 0.1379(3)
H14 H 0.6296(4) 0.0317(4) 0.1755(3)
C11 C 0.5974(4) 0.0910(5) 0.0837(3)
C12 C 0.6964(6) 0.0844(5) -0.0199(4)
H15 H 0.6862(36) 0.0493(18) -0.0591(8)
H16 H 0.7655(9) 0.0906(32) -0.0105(12)
H17 H 0.6678(29) 0.1368(16) -0.0295(18)
C13 C 0.6401(7) -0.0907(5) 0.0240(4)
H18 H 0.5708(8) -0.0895(22) 0.0316(24)
H19 H 0.6665(30) -0.1421(5) 0.0393(21)
H20 H 0.6516(36) -0.0838(20) -0.0243(5)
C14 C 0.2885(4) 0.2322(3) 0.1378(2)
H21 H 0.2900(4) 0.1774(3) 0.1178(2)
C15 C 0.1135(4) 0.1988(4) 0.1439(3)
C16 C 0.0110(4) 0.2304(4) 0.1384(3)
C17 C -0.0656(5) 0.1777(4) 0.1479(3)
H22 H -0.0521(5) 0.1241(4) 0.1607(3)
C18 C -0.1613(5) 0.2015(5) 0.1390(4)
H23 H -0.2117(5) 0.1644(5) 0.1458(4)
C19 C -0.1827(5) 0.2799(6) 0.1202(3)
H24 H -0.2475(5) 0.2963(6) 0.1132(3)
C20 C -0.1085(5) 0.3337(5) 0.1117(4)
H25 H -0.1227(5) 0.3874(5) 0.0998(4)
C21 C -0.0118(4) 0.3095(4) 0.1208(3)
H26 H 0.0383(4) 0.3471(4) 0.1149(3)
C22 C 0.3292(4) 0.2919(4) 0.0838(3)
C23 C 0.4654(4) 0.3162(4) 0.0075(3)
H27 H 0.4185(4) 0.3504(4) -0.0176(3)
H28 H 0.4929(4) 0.2781(4) -0.0251(3)
C24 C 0.5465(4) 0.3688(4) 0.0385(3)
C25 C 0.6877(5) 0.4589(5) 0.0130(4)
H29 H 0.6918(21) 0.5049(18) -0.0174(18)
H30 H 0.7452(6) 0.4257(10) 0.0089(25)
H31 H 0.6832(18) 0.4776(26) 0.0599(10)
C26 C 0.5585(6) 0.4438(5) -0.1186(4)
H32 H 0.5371(40) 0.4194(8) -0.1616(12)
H33 H 0.6072(14) 0.4846(20) -0.1274(25)
H34 H 0.5036(28) 0.4686(25) -0.0969(14)
C27 C 0.3536(4) 0.3065(3) 0.2402(3)
H35 H 0.3438(4) 0.3526(3) 0.2084(3)
C28 C 0.2068(4) 0.3676(4) 0.2889(3)
C29 C 0.1417(4) 0.3718(4) 0.3498(3)
C30 C 0.1293(5) 0.3075(5) 0.3933(4)
H36 H 0.1631(5) 0.2592(5) 0.3860(4)
C31 C 0.0672(7) 0.3133(5) 0.4478(4)
H37 H 0.0594(7) 0.2686(5) 0.4767(4)
C32 C 0.0176(6) 0.3823(6) 0.4601(4)
H38 H -0.0250(6) 0.3853(6) 0.4967(4)
C33 C 0.0309(6) 0.4481(6) 0.4177(4)
H39 H -0.0019(6) 0.4966(6) 0.4262(4)
C34 C 0.0930(5) 0.4428(4) 0.3622(3)
H40 H 0.1013(5) 0.4876(4) 0.3334(3)
C35 C 0.4540(4) 0.3174(3) 0.2770(3)
C36 C 0.6261(4) 0.3438(4) 0.2651(3)
H41 H 0.6227(4) 0.3755(4) 0.3072(3)
H42 H 0.6637(4) 0.3749(4) 0.2323(3)
C37 C 0.6779(4) 0.2652(5) 0.2805(3)
C38 C 0.8219(6) 0.2030(5) 0.3405(5)
H43 H 0.8207(44) 0.2024(27) 0.3901(6)
H44 H 0.8884(14) 0.2084(24) 0.3261(32)
H45 H 0.7947(33) 0.1530(6) 0.3226(31)
C39 C 0.8545(6) 0.3867(7) 0.3009(5)
H46 H 0.8751(45) 0.4365(24) 0.3229(20)
H47 H 0.8230(19) 0.3988(44) 0.2572(16)
H48 H 0.9107(28) 0.3527(20) 0.2938(34)
#END
