
#######################################################################
#
#                 Cambridge Crystallographic Data Centre
#                                CCDC
#
#######################################################################
#
# If this CIF has been generated from an entry in the Cambridge
# Structural Database, then it will include bibliographic, chemical,
# crystal, experimental, refinement or atomic coordinate data resulting
# from the CCDC's data processing and validation procedures.
#
#######################################################################

data_CSD_CIF_AJAXAK
_audit_creation_date 2004-11-16
_audit_creation_method CSD-ConQuest-V1
_database_code_CSD AJAXAK
_database_code_depnum_ccdc_archive 'CCDC 204892'
_chemical_formula_sum 'C27 H23 N3 O8'
_chemical_formula_moiety
;
C27 H23 N3 O8
;
_journal_coden_Cambridge 154
_journal_volume 57
_journal_year 2004
_journal_page_first 625
_journal_name_full 'Aust.J.Chem. '
loop_
_publ_author_name
"G.Mayer"
"C.Hinze"
"K.Polborn"
"W.Steglich"
_chemical_name_systematic
;
9-t-Butyl 4-methyl 
2-methyl-5-nitro-1,3-dioxo-1,2,3,4-tetrahydro-9H-benzo(6,7)pyrrolo(3',4':3,4)c
yclohepta(1,2-b)indole-4,9-dicarboxylate
;
_cell_volume   1226.270
_exptl_crystal_colour 'yellow'
_exptl_crystal_density_diffrn 1.402
_exptl_crystal_description 'plate'
_diffrn_ambient_temperature 295
#These two values have been output from a single CSD field.
_refine_ls_R_factor_gt 0.043
_refine_ls_wR_factor_gt 0.043
_symmetry_cell_setting triclinic
_symmetry_space_group_name_H-M 'P -1'
_symmetry_Int_Tables_number 2
loop_
_symmetry_equiv_pos_site_id
_symmetry_equiv_pos_as_xyz
1 x,y,z
2 -x,-y,-z
_cell_length_a 9.239(2)
_cell_length_b 9.546(3)
_cell_length_c 14.391(5)
_cell_angle_alpha 82.31(2)
_cell_angle_beta 86.13(2)
_cell_angle_gamma 77.34(2)
_cell_formula_units_Z 2
loop_
_atom_type_symbol
_atom_type_radius_bond
C 0.68
H 0.23
N 0.68
O 0.68
loop_
_atom_site_label
_atom_site_type_symbol
_atom_site_fract_x
_atom_site_fract_y
_atom_site_fract_z
O1 O 0.1590(2) 0.1651(2) 0.96761(13)
O2 O -0.0185(2) 0.1874(2) 0.67811(15)
O3 O 0.4741(2) 0.7182(2) 0.68814(12)
O4 O 0.4912(2) 0.7980(2) 0.82563(11)
O5 O 0.1875(3) 0.3920(3) 0.4490(2)
O6 O 0.2948(3) 0.1706(3) 0.4877(2)
O7 O 0.1319(2) 0.6841(2) 0.59971(14)
O8 O -0.0026(2) 0.6421(2) 0.73103(14)
N1 N 0.0531(2) 0.1447(2) 0.83148(15)
N2 N 0.4027(2) 0.5984(2) 0.82563(13)
N3 N 0.2766(3) 0.2993(3) 0.4931(2)
C1 C 0.1296(3) 0.2086(3) 0.8875(2)
C2 C 0.1723(3) 0.3351(3) 0.8260(2)
C3 C 0.1198(3) 0.3392(3) 0.7409(2)
C4 C 0.0426(3) 0.2183(3) 0.7415(2)
C5 C -0.0009(4) 0.0139(4) 0.8628(2)
H1 H -0.0788(19) 0.0333(8) 0.9099(13)
H2 H 0.0789(7) -0.0602(9) 0.8887(16)
H3 H -0.0386(26) -0.0179(16) 0.8105(4)
C6 C 0.2584(3) 0.4325(2) 0.8499(2)
C7 C 0.2595(3) 0.4932(3) 0.9365(2)
C8 C 0.1930(3) 0.4661(3) 1.0257(2)
H4 H 0.1350(3) 0.3970(3) 1.0376(2)
C9 C 0.2154(3) 0.5436(3) 1.0947(2)
H5 H 0.1731(3) 0.5259(3) 1.1544(2)
C10 C 0.2997(3) 0.6474(3) 1.0771(2)
H6 H 0.3112(3) 0.6995(3) 1.1253(2)
C11 C 0.3679(3) 0.6770(3) 0.9900(2)
H7 H 0.4249(3) 0.7470(3) 0.9789(2)
C12 C 0.3467(3) 0.5969(3) 0.9203(2)
C13 C 0.3485(3) 0.4954(2) 0.7847(2)
C14 C 0.4599(3) 0.7095(3) 0.7715(2)
C15 C 0.5437(3) 0.9305(3) 0.7852(2)
C16 C 0.5443(4) 1.0061(3) 0.8710(2)
H8 H 0.4459(6) 1.0259(22) 0.8991(9)
H9 H 0.5763(25) 1.0953(12) 0.8529(3)
H10 H 0.6109(19) 0.9451(11) 0.9153(7)
C17 C 0.6969(3) 0.8870(4) 0.7434(2)
H11 H 0.7353(10) 0.9718(4) 0.7221(15)
H12 H 0.6940(5) 0.8344(22) 0.6914(10)
H13 H 0.7599(7) 0.8267(20) 0.7900(5)
C18 C 0.4350(4) 1.0193(3) 0.7161(2)
H14 H 0.4561(17) 1.1140(9) 0.7010(13)
H15 H 0.3360(5) 1.0274(21) 0.7430(7)
H16 H 0.4433(18) 0.9733(14) 0.6600(7)
C19 C 0.4047(3) 0.4444(2) 0.6939(2)
C20 C 0.5577(3) 0.4128(3) 0.6734(2)
H17 H 0.6214(3) 0.4369(3) 0.7131(2)
C21 C 0.6160(3) 0.3466(3) 0.5957(2)
H18 H 0.7180(3) 0.3271(3) 0.5831(2)
C22 C 0.5231(3) 0.3094(3) 0.5368(2)
H19 H 0.5612(3) 0.2624(3) 0.4850(2)
C23 C 0.3733(3) 0.3432(3) 0.5563(2)
C24 C 0.3089(3) 0.4115(2) 0.6329(2)
C25 C 0.1423(3) 0.4420(3) 0.6563(2)
H20 H 0.0923(3) 0.4191(3) 0.6042(2)
C26 C 0.0810(3) 0.5998(3) 0.6692(2)
C27 C 0.0789(4) 0.8386(3) 0.5988(3)
H21 H 0.1194(24) 0.8880(3) 0.544(1)
H22 H 0.1097(25) 0.8686(5) 0.654(1)
H23 H -0.0275(5) 0.8617(5) 0.5977(19)
#END
