
#######################################################################
#
#                 Cambridge Crystallographic Data Centre
#                                CCDC
#
#######################################################################
#
# If this CIF has been generated from an entry in the Cambridge
# Structural Database, then it will include bibliographic, chemical,
# crystal, experimental, refinement or atomic coordinate data resulting
# from the CCDC's data processing and validation procedures.
#
#######################################################################

data_CSD_CIF_AJEQIQ
_audit_creation_date 2010-03-08
_audit_creation_method CSD-ConQuest-V1
_database_code_CSD AJEQIQ
_database_code_depnum_ccdc_archive 'CCDC'
_chemical_formula_sum 'C16 H18 N3 O3'
_chemical_formula_moiety
;
C16 H18 N3 O3
;
_journal_coden_Cambridge 95
_journal_year 2008
_journal_page_first 2165
_journal_name_full 'Izv.Akad.Nauk SSSR,Ser.Khim.(Russ.)(Russ.Chem.Bull.) '
loop_
_publ_author_name
"V.I.Ovcharenko"
"O.N.Chupakhin"
"I.S.Kovalev"
"E.V.Tret'yakov"
"G.V.Romanenko"
"D.V.Stas'"
_chemical_name_systematic
;
4,4,5,5-Tetramethyl-2-(1-oxidoquinolin-2-yl)-4,5-dihydro-1H-imidazole-1-oxyl 
3-oxide
;
_chemical_melting_point 220
_cell_volume   1516.800
_exptl_crystal_density_diffrn 1.315
_exptl_special_details
;
Melting point range 220-222K

;
_exptl_crystal_preparation 'dichloromethane/heptane'
_diffrn_ambient_temperature 240
#These two values have been output from a single CSD field.
_refine_ls_R_factor_gt 0.0493
_refine_ls_wR_factor_gt 0.0493
_symmetry_cell_setting monoclinic
_symmetry_space_group_name_H-M 'P 21/c'
_symmetry_Int_Tables_number 14
loop_
_symmetry_equiv_pos_site_id
_symmetry_equiv_pos_as_xyz
1 x,y,z
2 -x,1/2+y,1/2-z
3 -x,-y,-z
4 x,-1/2-y,-1/2+z
_cell_length_a 12.438(6)
_cell_length_b 11.654(6)
_cell_length_c 11.115(6)
_cell_angle_alpha 90
_cell_angle_beta 109.705(9)
_cell_angle_gamma 90
_cell_formula_units_Z 4
loop_
_atom_type_symbol
_atom_type_radius_bond
C 0.68
H 0.23
N 0.68
O 0.68
loop_
_atom_site_label
_atom_site_type_symbol
_atom_site_fract_x
_atom_site_fract_y
_atom_site_fract_z
N1 N 0.89078 0.78147 0.23686
O1 O 0.95282 0.69352 0.27971
C1 C 0.83229 0.97346 0.18388
C2 C 0.81398 1.04291 0.06403
H1 H 0.74180 1.07852 0.04373
H2 H 0.81887 0.99201 -0.00171
H3 H 0.88023 1.10518 0.08158
C3 C 0.82275 1.05109 0.28864
H4 H 0.74940 1.08496 0.25619
H5 H 0.88736 1.10770 0.31300
H6 H 0.82636 1.00778 0.36953
C4 C 0.93994 0.89507 0.22442
C5 C 0.99586 0.88180 0.12465
H7 H 1.06504 0.83674 0.15919
H8 H 1.01476 0.95691 0.09989
H9 H 0.94388 0.84319 0.05047
C6 C 1.02722 0.92330 0.35280
H10 H 1.09242 0.87256 0.36911
H11 H 0.99342 0.91324 0.41902
H12 H 1.05193 1.00224 0.35276
N2 N 0.73783 0.88665 0.15852
O2 O 0.63218 0.91438 0.11263
C7 C 0.77734 0.78161 0.19478
C8 C 0.70941 0.67867 0.19275
C9 C 0.65845 0.65727 0.28398
H13 H 0.66833 0.71068 0.34864
C10 C 0.60230 0.55662 0.28245
H14 H 0.56644 0.54136 0.34534
C11 C 0.59856 0.47455 0.18913
C12 C 0.54464 0.36639 0.18165
H15 H 0.50769 0.35373 0.23888
C13 C 0.54568 0.28880 0.09202
H16 H 0.51145 0.21699 0.08949
C14 C 0.59898 0.31350 0.00375
H17 H 0.60291 0.25944 -0.06015
C15 C 0.65051 0.41701 0.00489
H18 H 0.68362 0.43559 -0.05741
C16 C 0.65092 0.49711 0.09813
N3 N 0.70490 0.60342 0.10024
O3 O 0.74990 0.62614 0.01424
#END
