
#######################################################################
#
#                 Cambridge Crystallographic Data Centre
#                                CCDC
#
#######################################################################
#
# If this CIF has been generated from an entry in the Cambridge
# Structural Database, then it will include bibliographic, chemical,
# crystal, experimental, refinement or atomic coordinate data resulting
# from the CCDC's data processing and validation procedures.
#
#######################################################################

data_CSD_CIF_AJERUE
_audit_creation_date 2015-07-29
_audit_creation_method CSD-ConQuest-V1
_database_code_CSD AJERUE
_database_code_depnum_ccdc_archive 'CCDC 1401280'
_chemical_formula_sum 'C17 H22 N3 O2'
_chemical_formula_moiety
;
C17 H22 N3 O2
;
_journal_coden_Cambridge 580
_journal_volume 100
_journal_year 2015
_journal_page_first 132
_journal_name_full 'Polyhedron '
loop_
_publ_author_name
"S.E.Tolstikov"
"N.A.Artiukhova"
"G.V.Romanenko"
"A.S.Bogomyakov"
"E.M.Zueva"
"I.Yu.Barskaya"
"M.V.Fedin"
"K.Yu.Maryunina"
"E.V.Tretyakov"
"R.Z.Sagdeev"
"V.I.Ovcharenko"
_chemical_name_systematic
;
12-(4-methylpyridin-3-yl)-11\l^5^,13-diazadispiro[4.0.4.3]tridec-11-ene-11,13-
diol
;
_cell_volume   1594.473
_exptl_crystal_density_diffrn 1.251
_exptl_crystal_description 'plate'
_diffrn_ambient_temperature 296
_refine_special_details
;
C10,C11 and C101,C111 disordered over two sites with occupancies 0.50:0.50.

;
#These two values have been output from a single CSD field.
_refine_ls_R_factor_gt 0.0536
_refine_ls_wR_factor_gt 0.0536
_symmetry_cell_setting monoclinic
_symmetry_space_group_name_H-M 'P 21/n'
_symmetry_Int_Tables_number 14
loop_
_symmetry_equiv_pos_site_id
_symmetry_equiv_pos_as_xyz
1 x,y,z
2 1/2-x,1/2+y,1/2-z
3 -x,-y,-z
4 -1/2+x,-1/2-y,-1/2+z
_cell_length_a 10.5487(3)
_cell_length_b 14.5584(4)
_cell_length_c 10.8474(3)
_cell_angle_alpha 90
_cell_angle_beta 106.834(2)
_cell_angle_gamma 90
_cell_formula_units_Z 4
loop_
_atom_type_symbol
_atom_type_radius_bond
C 0.68
H 0.23
N 0.68
O 0.68
loop_
_atom_site_label
_atom_site_type_symbol
_atom_site_fract_x
_atom_site_fract_y
_atom_site_fract_z
O1 O 0.84694(19) 0.45631(11) 0.24558(16)
N1 N 0.83036(17) 0.38047(12) 0.18474(16)
C1 C 0.82537(19) 0.28976(14) 0.24871(19)
C2 C 0.6863(2) 0.28408(19) 0.2710(3)
H1 H 0.63400 0.33790 0.23600
H2 H 0.63930 0.22980 0.22980
C3 C 0.7101(4) 0.2794(3) 0.4109(4)
H3 H 0.70290 0.21640 0.43710
H4 H 0.64490 0.31600 0.43600
C4 C 0.8452(4) 0.3151(3) 0.4738(3)
H5 H 0.88150 0.28860 0.55880
H6 H 0.84470 0.38150 0.48150
C5 C 0.9238(3) 0.28497(19) 0.3832(2)
H7 H 0.99820 0.32580 0.38990
H8 H 0.95690 0.22290 0.40300
C6 C 0.84934(19) 0.22397(14) 0.14740(19)
C7 C 0.9957(2) 0.20298(19) 0.1585(2)
H9 H 1.04710 0.19430 0.24760
H10 H 1.03500 0.25190 0.12110
C8 C 0.886(2) 0.0587(11) 0.0878(13)
H11 H 0.91650 0.00980 0.15010
H12 H 0.84170 0.03160 0.00460
C9 C 0.9864(10) 0.1126(5) 0.0806(8)
H13 H 0.97570 0.12760 -0.00900
H14 H 1.06870 0.07890 0.11260
C10 C 0.7835(3) 0.12934(16) 0.1346(3)
H15 H 0.69710 0.13080 0.07110
H16 H 0.77270 0.10970 0.21640
N2 N 0.79608(15) 0.28066(11) 0.02741(15)
O2 O 0.76370(15) 0.24617(10) -0.08583(13)
C11 C 0.79969(19) 0.37086(13) 0.05613(18)
C12 C 0.7688(2) 0.44710(14) -0.0341(2)
C13 C 0.6715(3) 0.50852(17) -0.0232(3)
H17 H 0.63140 0.49790 0.04140
N3 N 0.6318(3) 0.58090(15) -0.0982(3)
C14 C 0.6950(4) 0.5952(2) -0.1874(3)
H18 H 0.67100 0.64620 -0.24070
C15 C 0.7918(3) 0.5398(2) -0.2047(3)
H19 H 0.83130 0.55380 -0.26870
C16 C 0.8330(2) 0.46239(16) -0.1286(2)
C17 C 0.9411(3) 0.40018(19) -0.1439(3)
H20 H 0.90280 0.34480 -0.18680
H21 H 0.99970 0.38540 -0.06060
H22 H 0.99000 0.43060 -0.19420
C18? C 0.8718(18) 0.0659(7) 0.1172(14)
H23? H 0.85070 0.04920 0.02690
H24? H 0.86780 0.01080 0.16630
C19? C 1.0131(10) 0.1088(7) 0.1635(12)
H25? H 1.05810 0.08930 0.25080
H26? H 1.06550 0.08990 0.10770
#END
