
#######################################################################
#
#                 Cambridge Crystallographic Data Centre
#                                CCDC
#
#######################################################################
#
# If this CIF has been generated from an entry in the Cambridge
# Structural Database, then it will include bibliographic, chemical,
# crystal, experimental, refinement or atomic coordinate data resulting
# from the CCDC's data processing and validation procedures.
#
#######################################################################

data_CSD_CIF_AJEROY
_audit_creation_date 2015-07-29
_audit_creation_method CSD-ConQuest-V1
_database_code_CSD AJEROY
_database_code_depnum_ccdc_archive 'CCDC 1401279'
_chemical_formula_sum 'C13 H18 N3 O2'
_chemical_formula_moiety
;
C13 H18 N3 O2
;
_journal_coden_Cambridge 580
_journal_volume 100
_journal_year 2015
_journal_page_first 132
_journal_name_full 'Polyhedron '
loop_
_publ_author_name
"S.E.Tolstikov"
"N.A.Artiukhova"
"G.V.Romanenko"
"A.S.Bogomyakov"
"E.M.Zueva"
"I.Yu.Barskaya"
"M.V.Fedin"
"K.Yu.Maryunina"
"E.V.Tretyakov"
"R.Z.Sagdeev"
"V.I.Ovcharenko"
_chemical_name_systematic
;
4,4,5,5-tetramethyl-2-(4-methylpyridin-3-yl)-4,5-dihydro-1H-3\l^5^-imidazole-1
,3-diol
;
_cell_volume    670.709
_exptl_crystal_colour 'dark red'
_exptl_crystal_density_diffrn 1.229
_exptl_crystal_description 'bulk'
_diffrn_ambient_temperature 296
#These two values have been output from a single CSD field.
_refine_ls_R_factor_gt 0.046
_refine_ls_wR_factor_gt 0.046
_symmetry_cell_setting triclinic
_symmetry_space_group_name_H-M 'P -1'
_symmetry_Int_Tables_number 2
loop_
_symmetry_equiv_pos_site_id
_symmetry_equiv_pos_as_xyz
1 x,y,z
2 -x,-y,-z
_cell_length_a 7.1744(8)
_cell_length_b 10.3105(10)
_cell_length_c 10.5472(18)
_cell_angle_alpha 110.127(9)
_cell_angle_beta 101.225(10)
_cell_angle_gamma 105.272(7)
_cell_formula_units_Z 2
loop_
_atom_type_symbol
_atom_type_radius_bond
C 0.68
H 0.23
N 0.68
O 0.68
loop_
_atom_site_label
_atom_site_type_symbol
_atom_site_fract_x
_atom_site_fract_y
_atom_site_fract_z
N1 N 0.27167(19) 1.03571(14) 0.88605(14)
O1 O 0.26526(19) 1.03531(12) 1.00627(12)
N2 N 0.25407(19) 0.96010(14) 0.66152(14)
O2 O 0.20685(19) 0.87664(12) 0.52866(12)
N3 N -0.1480(2) 0.58990(17) 0.76928(18)
C1 C 0.4917(3) 1.29998(19) 0.99053(19)
H1 H 0.52360 1.38830 0.97450
H2 H 0.44790 1.31690 1.07330
H3 H 0.61060 1.27380 1.00500
C2 C 0.1289(3) 1.2104(2) 0.8414(2)
H4 H 0.15410 1.29900 0.82580
H5 H 0.02340 1.12980 0.76040
H6 H 0.08690 1.22470 0.92460
C3 C 0.3232(2) 1.17511(16) 0.86242(17)
C4 C 0.3814(2) 1.12174(16) 0.72487(17)
C5 C 0.3290(3) 1.19065(19) 0.62314(19)
H7 H 0.41200 1.29380 0.66560
H8 H 0.35390 1.14180 0.53610
H9 H 0.18800 1.17990 0.60340
C6 C 0.6018(3) 1.13021(19) 0.7532(2)
H10 H 0.69070 1.23190 0.79410
H11 H 0.63150 1.08650 0.81800
H12 H 0.62190 1.07760 0.66530
C7 C 0.2167(2) 0.91567(16) 0.76285(17)
C8 C 0.1239(2) 0.76232(16) 0.74243(16)
C9 C 0.2030(2) 0.65452(17) 0.68464(16)
C10 C 0.3954(3) 0.6877(2) 0.6469(2)
H13 H 0.42290 0.59830 0.60870
H14 H 0.38060 0.72750 0.57710
H15 H 0.50620 0.75850 0.73060
C11 C -0.0472(3) 0.72462(19) 0.78378(19)
H16 H -0.09480 0.79940 0.82470
C12 C 0.0958(3) 0.51301(18) 0.66744(18)
H17 H 0.13920 0.43560 0.62670
C13 C -0.0726(3) 0.4868(2) 0.7100(2)
H18 H -0.13990 0.39050 0.69690
#END
