
#######################################################################
#
#                 Cambridge Crystallographic Data Centre
#                                CCDC
#
#######################################################################
#
# If this CIF has been generated from an entry in the Cambridge
# Structural Database, then it will include bibliographic, chemical,
# crystal, experimental, refinement or atomic coordinate data resulting
# from the CCDC's data processing and validation procedures.
#
#######################################################################

data_CSD_CIF_AJESAK
_audit_creation_date 2010-03-08
_audit_creation_method CSD-ConQuest-V1
_database_code_CSD AJESAK
_database_code_depnum_ccdc_archive 'CCDC 758231'
_chemical_formula_sum 'C11 H9 N1 O3'
_chemical_formula_moiety
;
C11 H9 N1 O3
;
_journal_coeditor_code "IUCr CV2639"
_journal_coden_Cambridge 1370
_journal_volume 65
_journal_year 2009
_journal_page_first o3012
_journal_name_full 'Acta Crystallogr.,Sect.E:Struct.Rep.Online '
loop_
_publ_author_name
"Qingfang Cheng"
"Xing-you Xu"
"Li-sha Liu"
"Li Zhang"
_chemical_name_systematic
;
4-(2-Hydroxybenzylidene)-3-methylisoxazol-5(4H)-one
;
_cell_volume    950.126
_exptl_crystal_colour 'yellow'
_exptl_crystal_density_diffrn 1.42
_exptl_crystal_description 'prism'
_exptl_crystal_preparation 'ethanol'
_diffrn_ambient_temperature 298
#These two values have been output from a single CSD field.
_refine_ls_R_factor_gt 0.0433
_refine_ls_wR_factor_gt 0.0433
_symmetry_cell_setting monoclinic
_symmetry_space_group_name_H-M 'P 21/c'
_symmetry_Int_Tables_number 14
loop_
_symmetry_equiv_pos_site_id
_symmetry_equiv_pos_as_xyz
1 x,y,z
2 -x,1/2+y,1/2-z
3 -x,-y,-z
4 x,-1/2-y,-1/2+z
_cell_length_a 8.0172(12)
_cell_length_b 6.8620(9)
_cell_length_c 17.535(2)
_cell_angle_alpha 90
_cell_angle_beta 99.962(2)
_cell_angle_gamma 90
_cell_formula_units_Z 4
loop_
_atom_type_symbol
_atom_type_radius_bond
C 0.68
H 0.23
N 0.68
O 0.68
loop_
_atom_site_label
_atom_site_type_symbol
_atom_site_fract_x
_atom_site_fract_y
_atom_site_fract_z
N1 N 0.1424(3) 0.7335(3) 0.29966(10)
O1 O 0.2203(2) 0.5472(2) 0.29343(8)
O2 O 0.3282(3) 0.3078(3) 0.37132(10)
O3 O 0.1516(2) 0.6467(2) 0.64469(8)
H1 H 0.14160 0.65050 0.69040
C1 C 0.2599(3) 0.4642(4) 0.36509(12)
C2 C 0.2013(3) 0.5995(3) 0.41967(12)
C3 C 0.1320(3) 0.7584(3) 0.37120(12)
C4 C 0.0543(3) 0.9391(3) 0.39499(13)
H2 H 0.01850 1.01950 0.35040
H3 H 0.13580 1.00850 0.43160
H4 H -0.04180 0.90650 0.41840
C5 C 0.2050(3) 0.5923(3) 0.49738(12)
H5 H 0.15410 0.69920 0.51650
C6 C 0.2713(3) 0.4536(3) 0.55603(11)
C7 C 0.2432(3) 0.4893(3) 0.63213(12)
C8 C 0.3061(3) 0.3630(4) 0.69154(13)
H6 H 0.28660 0.38710 0.74140
C9 C 0.3967(3) 0.2032(4) 0.67709(14)
H7 H 0.43940 0.11940 0.71750
C10 C 0.4262(3) 0.1639(4) 0.60287(15)
H8 H 0.48760 0.05430 0.59340
C11 C 0.3640(3) 0.2882(3) 0.54405(13)
H9 H 0.38410 0.26150 0.49440
#END
