
#######################################################################
#
#                 Cambridge Crystallographic Data Centre
#                                CCDC
#
#######################################################################
#
# If this CIF has been generated from an entry in the Cambridge
# Structural Database, then it will include bibliographic, chemical,
# crystal, experimental, refinement or atomic coordinate data resulting
# from the CCDC's data processing and validation procedures.
#
#######################################################################

data_CSD_CIF_AJIMAJ
_audit_creation_date 2015-07-29
_audit_creation_method CSD-ConQuest-V1
_database_code_CSD AJIMAJ
_database_code_depnum_ccdc_archive 'CCDC 1044272'
_chemical_formula_sum 'C21 H28 N2 O8'
_chemical_formula_moiety
;
C21 H28 N2 O8
;
_journal_coden_Cambridge 24
_journal_volume 56
_journal_year 2015
_journal_page_first 5172
_journal_name_full 'Tetrahedron Lett. '
loop_
_publ_author_name
"S.K.Das"
"N.Bhatt"
"M.Mujahid"
"P.I.Arvidsson"
"H.G.Kruger"
"T.Naicker"
"T.Govender"
_chemical_name_systematic
;
1-t-butyl 2-ethyl 
2-(1-(4-methoxyphenyl)-2-nitroethyl)-3-oxopyrrolidine-1,2-dicarboxylate
;
_cell_volume   2203.057
_exptl_crystal_colour 'colorless'
_exptl_crystal_density_diffrn 1.316
_exptl_special_details
;
Absolute configuration

;
_exptl_crystal_description 'Plate'
_diffrn_ambient_temperature 100
_diffrn_ambient_pressure 101.3
#These two values have been output from a single CSD field.
_refine_ls_R_factor_gt 0.0274
_refine_ls_wR_factor_gt 0.0274
_symmetry_cell_setting orthorhombic
_symmetry_space_group_name_H-M 'P 21 21 21'
_symmetry_Int_Tables_number 19
loop_
_symmetry_equiv_pos_site_id
_symmetry_equiv_pos_as_xyz
1 x,y,z
2 1/2-x,-y,1/2+z
3 1/2+x,1/2-y,-z
4 -x,1/2+y,1/2-z
_cell_length_a 8.9828(4)
_cell_length_b 14.8284(6)
_cell_length_c 16.5394(7)
_cell_angle_alpha 90
_cell_angle_beta 90
_cell_angle_gamma 90
_cell_formula_units_Z 4
loop_
_atom_type_symbol
_atom_type_radius_bond
C 0.68
H 0.23
N 0.68
O 0.68
loop_
_atom_site_label
_atom_site_type_symbol
_atom_site_fract_x
_atom_site_fract_y
_atom_site_fract_z
O1 O 0.83275(11) 0.58161(6) 0.04001(5)
O2 O 0.8318(1) 0.38102(6) 0.11125(5)
O3 O 1.09162(12) 0.39563(6) 0.50188(6)
O4 O 1.0261(1) 0.49526(6) 0.00076(5)
O5 O 1.00786(10) 0.27747(6) 0.14769(6)
O6 O 1.15488(10) 0.65584(6) 0.14556(6)
C1 C 0.96701(13) 0.35455(8) 0.13727(7)
O7 O 0.65013(13) 0.74501(7) 0.21967(8)
O8 O 0.61274(13) 0.60677(7) 0.25466(8)
C2 C 1.14838(13) 0.57483(8) 0.15106(7)
N1 N 1.05294(11) 0.42830(7) 0.15028(6)
N2 N 0.69243(13) 0.66755(7) 0.22959(7)
C3 C 1.00185(13) 0.52090(8) 0.14100(7)
C4 C 0.93231(14) 0.51015(8) 0.28871(7)
C5 C 0.94032(14) 0.53691(8) 0.05504(7)
C6 C 0.87635(13) 0.42766(9) 0.31465(7)
H1 H 0.80200 0.39860 0.28320
C7 C 1.20411(13) 0.41923(8) 0.18328(8)
H2 H 1.25970 0.37080 0.15520
H3 H 1.20120 0.40570 0.24190
C8 C 1.27485(14) 0.51093(9) 0.16769(8)
H4 H 1.33230 0.53100 0.21550
H5 H 1.34280 0.50790 0.12060
C9 C 0.92580(15) 0.38617(9) 0.38534(7)
H6 H 0.88580 0.32980 0.40180
C10 C 0.88443(13) 0.54755(8) 0.20706(7)
H7 H 0.78930 0.51660 0.19240
C11 C 1.04059(14) 0.55168(8) 0.33607(7)
H8 H 1.07980 0.60840 0.31990
C12 C 1.09215(15) 0.51150(9) 0.40648(8)
H9 H 1.16680 0.54050 0.43780
C13 C 1.02309(17) 0.58388(10) -0.12452(8)
H10 H 0.96970 0.63510 -0.10080
H11 H 1.00010 0.58000 -0.18230
H12 H 1.13050 0.59240 -0.11730
C14 C 1.03453(14) 0.42870(8) 0.43124(7)
C15 C 1.03176(18) 0.31249(9) 0.53114(9)
H13 H 0.92430 0.31900 0.53940
H14 H 1.07950 0.29680 0.58250
H15 H 1.05050 0.26470 0.49150
C16 C 0.97544(16) 0.49815(9) -0.08320(7)
H16 H 0.86550 0.49360 -0.08460
H17 H 1.01670 0.44580 -0.11280
C17 C 0.85198(14) 0.64887(8) 0.20784(8)
H18 H 0.91820 0.67880 0.24750
H19 H 0.87350 0.67450 0.15380
C18 C 0.71234(15) 0.31658(9) 0.09066(9)
C19 C 0.5891(2) 0.37996(12) 0.06535(16)
H20 H 0.57210 0.42450 0.10810
H21 H 0.49760 0.34550 0.05610
H22 H 0.61780 0.41100 0.01540
C20 C 0.66732(19) 0.26373(11) 0.16550(12)
H23 H 0.75410 0.23160 0.18690
H24 H 0.58960 0.22020 0.15120
H25 H 0.62920 0.30530 0.20660
C21 C 0.7636(2) 0.25467(12) 0.02340(11)
H26 H 0.79360 0.29080 -0.02350
H27 H 0.68190 0.21440 0.00800
H28 H 0.84840 0.21880 0.04210
#END
