
#######################################################################
#
#                 Cambridge Crystallographic Data Centre
#                                CCDC
#
#######################################################################
#
# If this CIF has been generated from an entry in the Cambridge
# Structural Database, then it will include bibliographic, chemical,
# crystal, experimental, refinement or atomic coordinate data resulting
# from the CCDC's data processing and validation procedures.
#
#######################################################################

data_CSD_CIF_AJIYAT01
_audit_creation_date 2007-03-09
_audit_creation_method CSD-ConQuest-V1
_database_code_CSD AJIYAT01
_database_code_depnum_ccdc_archive 'CCDC 630520'
_chemical_formula_sum 'C12 H16 N3 O2'
_chemical_formula_moiety
;
C12 H16 N3 O2
;
_journal_coeditor_code "IUCr XU2158"
_journal_coden_Cambridge 1370
_journal_volume 62
_journal_year 2006
_journal_page_first o5666
_journal_name_full 'Acta Crystallogr.,Sect.E:Struct.Rep.Online '
loop_
_publ_author_name
"Chen-Xi Zhang"
"Dong-Lan Sun"
"Xiao-Cong Wang"
_chemical_name_systematic
;
4,4,5,5-tetramethyl-2-(4-pyridyl)imidazoline-1-oxyl-3-oxide
;
_cell_volume   1228.306
_exptl_crystal_colour 'blue'
_exptl_crystal_density_diffrn 1.267
_exptl_crystal_description 'block'
_diffrn_ambient_temperature 293
#These two values have been output from a single CSD field.
_refine_ls_R_factor_gt 0.079
_refine_ls_wR_factor_gt 0.079
_symmetry_cell_setting monoclinic
_symmetry_space_group_name_H-M 'C 2/c'
_symmetry_Int_Tables_number 15
loop_
_symmetry_equiv_pos_site_id
_symmetry_equiv_pos_as_xyz
1 x,y,z
2 1/2+x,1/2+y,z
3 -x,y,1/2-z
4 1/2-x,1/2+y,1/2-z
5 -x,-y,-z
6 -1/2-x,-1/2-y,-z
7 x,-y,-1/2+z
8 -1/2+x,-1/2-y,-1/2+z
_cell_length_a 11.205(7)
_cell_length_b 10.452(7)
_cell_length_c 11.031(8)
_cell_angle_alpha 90
_cell_angle_beta 108.051(11)
_cell_angle_gamma 90
_cell_formula_units_Z 4
loop_
_atom_type_symbol
_atom_type_radius_bond
C 0.68
H 0.23
N 0.68
O 0.68
loop_
_atom_site_label
_atom_site_type_symbol
_atom_site_fract_x
_atom_site_fract_y
_atom_site_fract_z
O1 O 0.1847(2) 0.0863(2) 0.4167(3)
N1 N 0.00000 0.5342(3) 0.25000
N2 N 0.0872(2) 0.0490(2) 0.3291(3)
C1 C 0.0601(3) 0.4654(3) 0.3534(3)
H1 H 0.10150 0.50990 0.42750
C2 C 0.0652(3) 0.3338(3) 0.3582(3)
H2 H 0.11130 0.29200 0.43240
C3 C 0.00000 0.2642(4) 0.25000
C4 C 0.00000 0.1231(4) 0.25000
C5 C 0.0664(3) -0.0921(3) 0.3004(3)
C6 C 0.1721(3) -0.1362(4) 0.2510(4)
H3 H 0.16840 -0.08980 0.17490
H4 H 0.16320 -0.22610 0.23240
H5 H 0.25130 -0.12060 0.31470
C7 C 0.0752(3) -0.1602(3) 0.4247(3)
H6 H 0.15810 -0.14970 0.48340
H7 H 0.05820 -0.24970 0.40840
H8 H 0.01490 -0.12430 0.46070
O1B O -0.1847(2) 0.0863(2) 0.0833(3)
N2B N -0.0872(2) 0.0490(2) 0.1709(3)
C1B C -0.0601(3) 0.4654(3) 0.1466(3)
H1B H -0.10150 0.50990 0.07250
C2B C -0.0652(3) 0.3338(3) 0.1418(3)
H2B H -0.11130 0.29200 0.06760
C5B C -0.0664(3) -0.0921(3) 0.1996(3)
C6B C -0.1721(3) -0.1362(4) 0.2490(4)
H3B H -0.16840 -0.08980 0.32510
H4B H -0.16320 -0.22610 0.26760
H5B H -0.25130 -0.12060 0.18530
C7B C -0.0752(3) -0.1602(3) 0.0753(3)
H6B H -0.15810 -0.14970 0.01660
H7B H -0.05820 -0.24970 0.09160
H8B H -0.01490 -0.12430 0.03930
#END
