
#######################################################################
#
#                 Cambridge Crystallographic Data Centre
#                                CCDC
#
#######################################################################
#
# If this CIF has been generated from an entry in the Cambridge
# Structural Database, then it will include bibliographic, chemical,
# crystal, experimental, refinement or atomic coordinate data resulting
# from the CCDC's data processing and validation procedures.
#
#######################################################################

data_CSD_CIF_AJOJEQ
_audit_creation_date 2015-07-30
_audit_creation_method CSD-ConQuest-V1
_database_code_CSD AJOJEQ
_database_code_depnum_ccdc_archive 'CCDC 1031243'
_chemical_formula_sum 'C10 H8 N4 O1'
_chemical_formula_moiety
;
C10 H8 N4 O1
;
_journal_coden_Cambridge 1748
_journal_volume 2
_journal_year 2015
_journal_page_first 1313
_journal_name_full 'Org.Chem.Front. '
loop_
_publ_author_name
"Pan Li"
"Jingjing Zhao"
"Chungu Xia"
"Fuwei Li"
_chemical_name_systematic
;
2-Azido-3-methylquinoline 1-oxide
;
_cell_volume   1843.780
_exptl_crystal_colour 'yellow'
_exptl_crystal_density_diffrn 1.442
_exptl_crystal_description 'block'
_diffrn_ambient_temperature 296
#These two values have been output from a single CSD field.
_refine_ls_R_factor_gt 0.0571
_refine_ls_wR_factor_gt 0.0571
_symmetry_cell_setting orthorhombic
_symmetry_space_group_name_H-M 'P b c a'
_symmetry_Int_Tables_number 61
loop_
_symmetry_equiv_pos_site_id
_symmetry_equiv_pos_as_xyz
1 x,y,z
2 1/2-x,-y,1/2+z
3 -x,1/2+y,1/2-z
4 1/2+x,1/2-y,-z
5 -x,-y,-z
6 -1/2+x,y,-1/2-z
7 x,-1/2-y,-1/2+z
8 -1/2-x,-1/2+y,z
_cell_length_a 7.008(2)
_cell_length_b 13.515(4)
_cell_length_c 19.467(6)
_cell_angle_alpha 90
_cell_angle_beta 90
_cell_angle_gamma 90
_cell_formula_units_Z 8
loop_
_atom_type_symbol
_atom_type_radius_bond
C 0.68
H 0.23
N 0.68
O 0.68
loop_
_atom_site_label
_atom_site_type_symbol
_atom_site_fract_x
_atom_site_fract_y
_atom_site_fract_z
O1 O 0.0683(3) 0.78158(12) 0.19251(10)
C1 C 0.1284(3) 1.04104(18) 0.15404(14)
C2 C 0.1438(4) 1.07924(18) 0.21831(14)
H1 H 0.16480 1.14670 0.22390
C3 C 0.1284(3) 1.01817(18) 0.27677(13)
C4 C 0.1368(4) 1.0548(2) 0.34461(15)
H2 H 0.15500 1.12210 0.35200
C5 C 0.1187(4) 0.9932(2) 0.39918(15)
H3 H 0.12430 1.01870 0.44350
C6 C 0.0918(4) 0.8918(2) 0.38948(15)
H4 H 0.07890 0.85060 0.42750
C7 C 0.0841(4) 0.8520(2) 0.32491(14)
H5 H 0.06830 0.78430 0.31870
C8 C 0.1005(3) 0.91550(18) 0.26823(13)
C9 C 0.1004(3) 0.93783(18) 0.14685(13)
C10 C 0.1353(5) 1.1043(2) 0.09031(15)
H6 H 0.16710 1.17100 0.10270
H7 H 0.01300 1.10330 0.06810
H8 H 0.23030 1.07880 0.05950
N1 N 0.0897(3) 0.87714(14) 0.20150(11)
N2 N 0.0890(3) 0.90011(17) 0.08055(12)
N3 N 0.0239(4) 0.81593(19) 0.06942(12)
N4 N -0.0332(5) 0.7464(2) 0.04487(14)
#END
