
#######################################################################
#
#                 Cambridge Crystallographic Data Centre
#                                CCDC
#
#######################################################################
#
# If this CIF has been generated from an entry in the Cambridge
# Structural Database, then it will include bibliographic, chemical,
# crystal, experimental, refinement or atomic coordinate data resulting
# from the CCDC's data processing and validation procedures.
#
#######################################################################

data_CSD_CIF_AJONUI
_audit_creation_date 2003-12-16
_audit_creation_method CSD-ConQuest-V1
_database_code_CSD AJONUI
_database_code_depnum_ccdc_archive 'CCDC 1101999'
_chemical_formula_sum 'C11 H18 N5 O2'
_chemical_formula_moiety
;
C11 H18 N5 O2
;
_journal_coden_Cambridge 556
_journal_volume 171
_journal_year 1997
_journal_page_first 147
_journal_name_full 'J.Magn.Magn.Mater. '
loop_
_publ_author_name
"J.P.Sutter"
"A.Lang"
"O.Kahn"
"C.Paulsen"
"L.Ouahab"
"Yu Pei"
_chemical_name_systematic
;
2-(4,5-Dimethyl-1,2,4-triazol-3-yl)-4,4,5,5-tetramethyl-4,5-dihydro-1H-imidzol
yl-1-oxy-3-oxide
;
_cell_volume   1305.647
_exptl_crystal_colour 'dark red'
_exptl_crystal_description 'parallelepiped'
_exptl_crystal_preparation 'hexane/dichloromethane'
_diffrn_ambient_temperature ?
_diffrn_special_details
;
The study was carried out at room temperature,in the range 283-303K

;
#These two values have been output from a single CSD field.
_refine_ls_R_factor_gt 0.026
_refine_ls_wR_factor_gt 0.026
_symmetry_cell_setting orthorhombic
_symmetry_space_group_name_H-M 'P 21 21 21'
_symmetry_Int_Tables_number 19
loop_
_symmetry_equiv_pos_site_id
_symmetry_equiv_pos_as_xyz
1 x,y,z
2 1/2-x,-y,1/2+z
3 1/2+x,1/2-y,-z
4 -x,1/2+y,1/2-z
_cell_length_a 9.723(1)
_cell_length_b 10.013(1)
_cell_length_c 13.411(1)
_cell_angle_alpha 90
_cell_angle_beta 90
_cell_angle_gamma 90
_cell_formula_units_Z 4
loop_
_atom_type_symbol
_atom_type_radius_bond
C 0.68
N 0.68
O 0.68
loop_
_atom_site_label
_atom_site_type_symbol
_atom_site_fract_x
_atom_site_fract_y
_atom_site_fract_z
O1 O 0.0544(2) 0.0876(2) 0.2946(1)
O2 O 0.4422(2) 0.1629(2) 0.4805(1)
N1 N 0.2643(2) 0.3673(2) 0.2910(1)
N2 N 0.4142(2) 0.3361(3) 0.1729(2)
N3 N 0.4003(3) 0.2169(2) 0.2252(2)
N4 N 0.1456(2) 0.0733(2) 0.3625(1)
N5 N 0.3309(2) 0.1088(2) 0.4511(1)
C1 C 0.3094(3) 0.2399(2) 0.2949(2)
C2 C 0.3317(3) 0.4232(3) 0.2132(2)
C3 C 0.2627(3) 0.1425(3) 0.3678(2)
C4 C 0.1378(3) -0.0346(3) 0.4396(2)
C5 C 0.1713(4) -0.1649(3) 0.3856(2)
C6 C -0.0060(3) -0.0391(3) 0.4835(3)
C7 C 0.2525(3) 0.0116(3) 0.5140(2)
C8 C 0.3500(3) -0.0986(3) 0.5474(2)
C9 C 0.1998(3) 0.0897(3) 0.6033(2)
C10 C 0.1644(3) 0.4302(3) 0.3567(2)
C11 C 0.3141(3) 0.5640(3) 0.1814(2)
#END
