
#######################################################################
#
#                 Cambridge Crystallographic Data Centre
#                                CCDC
#
#######################################################################
#
# If this CIF has been generated from an entry in the Cambridge
# Structural Database, then it will include bibliographic, chemical,
# crystal, experimental, refinement or atomic coordinate data resulting
# from the CCDC's data processing and validation procedures.
#
#######################################################################

data_CSD_CIF_AJUNIE
_audit_creation_date 2016-04-12
_audit_creation_method CSD-ConQuest-V1
_database_code_CSD AJUNIE
_database_code_depnum_ccdc_archive 'CCDC 938838'
_chemical_formula_sum 'C26 H41 N2 O2'
_chemical_formula_moiety
;
C26 H41 N2 O2
;
_journal_coden_Cambridge 388
_journal_volume 50
_journal_year 2014
_journal_page_first 78
_journal_name_full 'Zh.Org.Khim.(Russ.)(Russ.J.Org.Chem.) '
loop_
_publ_author_name
"E.V.Zaitseva"
"Yu.V.Gatilov"
"S.A.Amitina"
"R.Tamura"
"I.A.Grigor'ev"
"D.G.Mazhukin"
_chemical_name_systematic
;
2,2-Dimethyl-3-(4-(decyloxy)phenyl)-1,4-diazaspiro[4.5]dec-3-ene 1-oxyl
;
_chemical_melting_point 361
_cell_volume   4861.633
_exptl_crystal_colour 'light yellow'
_exptl_crystal_density_diffrn 1.13
_exptl_crystal_description 'needle'
_exptl_crystal_preparation 'ethanol'
_diffrn_ambient_temperature 150
#These two values have been output from a single CSD field.
_refine_ls_R_factor_gt 0.0471
_refine_ls_wR_factor_gt 0.0471
_symmetry_cell_setting monoclinic
_symmetry_space_group_name_H-M 'C 2/c'
_symmetry_Int_Tables_number 15
loop_
_symmetry_equiv_pos_site_id
_symmetry_equiv_pos_as_xyz
1 x,y,z
2 -x,y,1/2-z
3 1/2+x,1/2+y,z
4 1/2-x,1/2+y,1/2-z
5 -x,-y,-z
6 x,-y,-1/2+z
7 -1/2-x,-1/2-y,-z
8 -1/2+x,-1/2-y,-1/2+z
_cell_length_a 44.254(3)
_cell_length_b 6.0278(4)
_cell_length_c 18.3143(12)
_cell_angle_alpha 90
_cell_angle_beta 95.656(3)
_cell_angle_gamma 90
_cell_formula_units_Z 8
loop_
_atom_type_symbol
_atom_type_radius_bond
C 0.68
H 0.23
N 0.68
O 0.68
loop_
_atom_site_label
_atom_site_type_symbol
_atom_site_fract_x
_atom_site_fract_y
_atom_site_fract_z
O1 O 0.24269(3) -0.8056(3) 0.37934(8)
N1 N 0.21716(4) -0.7101(3) 0.36300(9)
C1 C 0.20101(4) -0.5859(3) 0.41659(10)
O2 O 0.08582(3) 0.1018(3) 0.43613(8)
N2 N 0.17187(4) -0.6054(3) 0.30059(9)
C2 C 0.17283(4) -0.5259(3) 0.36588(10)
C3 C 0.19915(4) -0.7338(3) 0.29098(10)
C4 C 0.19186(5) -0.9777(4) 0.27626(12)
H1 H 0.17900 -1.03310 0.31360
H2 H 0.21100 -1.06430 0.28090
C5 C 0.17539(5) -1.0134(4) 0.19981(12)
H3 H 0.17250 -1.17440 0.19100
H4 H 0.15510 -0.94310 0.19730
C6 C 0.19311(5) -0.9160(4) 0.14035(12)
H5 H 0.18130 -0.93460 0.09190
H6 H 0.21250 -0.99690 0.13930
C7 C 0.19953(5) -0.6705(4) 0.15432(12)
H7 H 0.18010 -0.58750 0.15020
H8 H 0.21200 -0.61270 0.11660
C8 C 0.21618(5) -0.6330(4) 0.23034(11)
H9 H 0.21870 -0.47160 0.23910
H10 H 0.23670 -0.69990 0.23220
C9 C 0.19466(5) -0.7441(4) 0.47889(11)
H11 H 0.18160 -0.86560 0.45910
H12 H 0.18440 -0.66300 0.51580
H13 H 0.21390 -0.80470 0.50170
C10 C 0.22046(5) -0.3887(4) 0.44468(12)
H14 H 0.24000 -0.44230 0.46800
H15 H 0.20990 -0.30580 0.48060
H16 H 0.22400 -0.29130 0.40350
C11 C 0.14866(4) -0.3749(3) 0.38614(11)
C12 C 0.12822(4) -0.2886(4) 0.33078(11)
H17 H 0.12900 -0.33940 0.28190
C13 C 0.10691(5) -0.1319(4) 0.34475(11)
H18 H 0.09330 -0.07520 0.30580
C14 C 0.10540(5) -0.0569(4) 0.41610(12)
C15 C 0.12488(5) -0.1464(4) 0.47241(11)
H19 H 0.12350 -0.09980 0.52150
C16 C 0.14621(5) -0.3026(4) 0.45756(11)
H20 H 0.15950 -0.36180 0.49670
C17 C 0.06891(5) 0.2253(4) 0.37919(12)
H21 H 0.05410 0.12790 0.35050
H22 H 0.08270 0.29030 0.34550
C18 C 0.05263(5) 0.4057(4) 0.41640(12)
H23 H 0.06790 0.50630 0.44200
H24 H 0.04090 0.33780 0.45390
C19 C 0.03115(5) 0.5416(4) 0.36362(12)
H25 H 0.04300 0.61510 0.32730
H26 H 0.01630 0.44090 0.33660
C20 C 0.01414(5) 0.7166(4) 0.40318(12)
H27 H 0.02910 0.81870 0.42910
H28 H 0.00300 0.64240 0.44070
C21 C -0.00832(5) 0.8523(4) 0.35317(12)
H29 H 0.00280 0.92940 0.31630
H30 H -0.02310 0.75050 0.32660
C22 C -0.02547(5) 1.0234(4) 0.39409(12)
H31 H -0.01060 1.12670 0.41980
H32 H -0.03610 0.94630 0.43180
C23 C -0.04858(5) 1.1577(4) 0.34530(12)
H33 H -0.03810 1.23240 0.30680
H34 H -0.06380 1.05540 0.32060
C24 C -0.06474(5) 1.3308(4) 0.38713(12)
H35 H -0.04940 1.43420 0.41090
H36 H -0.07470 1.25570 0.42650
C25 C -0.08858(5) 1.4651(4) 0.34058(13)
H37 H -0.10420 1.36300 0.31740
H38 H -0.07880 1.54020 0.30090
C26 C -0.10391(6) 1.6385(5) 0.38491(14)
H39 H -0.11450 1.56460 0.42260
H40 H -0.11850 1.72300 0.35220
H41 H -0.08850 1.73950 0.40840
#END
