
#######################################################################
#
#                 Cambridge Crystallographic Data Centre
#                                CCDC
#
#######################################################################
#
# If this CIF has been generated from an entry in the Cambridge
# Structural Database, then it will include bibliographic, chemical,
# crystal, experimental, refinement or atomic coordinate data resulting
# from the CCDC's data processing and validation procedures.
#
#######################################################################

data_CSD_CIF_AJUQUS
_audit_creation_date 2011-05-03
_audit_creation_method CSD-ConQuest-V1
_database_code_CSD AJUQUS
_database_code_depnum_ccdc_archive 'CCDC 760010'
_chemical_formula_sum 'C16 H21 N1 O6'
_chemical_formula_moiety
;
C16 H21 N1 O6
;
_journal_coden_Cambridge 35
_journal_volume 75
_journal_year 2010
_journal_page_first 5065
_journal_name_full 'J.Org.Chem. '
loop_
_publ_author_name
"A.O.Terent'ev"
"D.A.Borisov"
"I.A.Yaremenko"
"V.V.Chernyshev"
"G.I.Nikishin"
_chemical_name_systematic
;
3-(t-Butylperoxy)-3-(4-nitrobenzyl)pentane-2,4-dione
;
_chemical_melting_point 382.15
_cell_volume   3519.742
_exptl_crystal_colour 'colorless'
_exptl_crystal_density_diffrn 1.22
_exptl_special_details
;
Melts with decomposition.

;
_exptl_crystal_description 'prism'
_diffrn_ambient_temperature 293
#These two values have been output from a single CSD field.
_refine_ls_R_factor_gt 0.0702
_refine_ls_wR_factor_gt 0.0702
_symmetry_cell_setting orthorhombic
_symmetry_space_group_name_H-M 'P b c a'
_symmetry_Int_Tables_number 61
loop_
_symmetry_equiv_pos_site_id
_symmetry_equiv_pos_as_xyz
1 x,y,z
2 1/2-x,-y,1/2+z
3 1/2+x,1/2-y,-z
4 -x,1/2+y,1/2-z
5 -x,-y,-z
6 -1/2+x,y,-1/2-z
7 -1/2-x,-1/2+y,z
8 x,-1/2-y,-1/2+z
_cell_length_a 7.2714(16)
_cell_length_b 18.978(3)
_cell_length_c 25.506(3)
_cell_angle_alpha 90
_cell_angle_beta 90
_cell_angle_gamma 90
_cell_formula_units_Z 8
loop_
_atom_type_symbol
_atom_type_radius_bond
C 0.68
H 0.23
N 0.68
O 0.68
loop_
_atom_site_label
_atom_site_type_symbol
_atom_site_fract_x
_atom_site_fract_y
_atom_site_fract_z
O1 O 0.2173(3) 0.85619(9) 0.10464(7)
O2 O 0.2760(3) 0.78215(9) 0.10129(7)
C1 C 0.2844(4) 0.88830(12) 0.05827(9)
C2 C 0.2005(4) 0.96300(14) 0.05751(11)
O3 O 0.2298(4) 0.99910(11) 0.01942(9)
C3 C 0.5709(4) 0.93503(14) 0.10293(11)
C4 C 0.4955(4) 0.89345(14) 0.05772(11)
H1 H 0.54690 0.84630 0.05870
H2 H 0.53430 0.91540 0.02520
O4 O 0.3110(4) 0.83898(13) -0.02730(9)
C5 C 0.5969(4) 1.00738(15) 0.09919(11)
H3 H 0.56890 1.03020 0.06790
C6 C 0.2118(5) 0.84965(14) 0.00906(11)
C7 C 0.6809(5) 0.9410(2) 0.19210(13)
H4 H 0.70930 0.91910 0.22370
C8 C 0.6153(5) 0.90240(17) 0.14991(13)
H5 H 0.60090 0.85390 0.15320
C9 C 0.6633(4) 1.04585(17) 0.14061(13)
H6 H 0.68080 1.09420 0.13740
C10 C 0.2017(5) 0.74500(16) 0.14605(12)
C11 C 0.7029(4) 1.0125(2) 0.18623(12)
N1 N 0.7733(5) 1.0538(3) 0.23091(14)
O5 O 0.7810(6) 1.0245(3) 0.27340(13)
C12 C 0.0924(5) 0.98733(17) 0.10280(14)
H7 H 0.04660 1.03390 0.09610
H8 H 0.16900 0.98810 0.13340
H9 H -0.00910 0.95590 0.10850
C13 C 0.0120(5) 0.8314(2) 0.00880(14)
H10 H -0.05730 0.87040 -0.00470
H11 H -0.02750 0.82120 0.04390
H12 H -0.00750 0.79070 -0.01290
O6 O 0.8162(6) 1.1151(2) 0.22293(15)
C14 C -0.0078(6) 0.7487(2) 0.14535(16)
H13 H -0.04620 0.79670 0.14970
H14 H -0.05640 0.72070 0.17350
H15 H -0.05260 0.73100 0.11250
C15 C 0.2770(8) 0.7737(3) 0.19651(14)
H16 H 0.40710 0.76540 0.19800
H17 H 0.21830 0.75060 0.22550
H18 H 0.25370 0.82340 0.19830
C16 C 0.2617(7) 0.67014(19) 0.13419(18)
H19 H 0.21670 0.65660 0.10030
H20 H 0.21270 0.63890 0.16030
H21 H 0.39350 0.66760 0.13450
#END
