
#######################################################################
#
#                 Cambridge Crystallographic Data Centre
#                                CCDC
#
#######################################################################
#
# If this CIF has been generated from an entry in the Cambridge
# Structural Database, then it will include bibliographic, chemical,
# crystal, experimental, refinement or atomic coordinate data resulting
# from the CCDC's data processing and validation procedures.
#
#######################################################################

data_CSD_CIF_AKAWAK
_audit_creation_date 2003-12-16
_audit_creation_method CSD-ConQuest-V1
_database_code_CSD AKAWAK
_database_code_depnum_ccdc_archive 'CCDC 209719'
_chemical_formula_sum 'C10 H15 N4 O1'
_chemical_formula_moiety
;
C10 H15 N4 O1
;
_journal_coden_Cambridge 24
_journal_volume 44
_journal_year 2003
_journal_page_first 6397
_journal_name_full 'Tetrahedron Lett. '
loop_
_publ_author_name
"E.Yu.Fursova"
"V.I.Ovcharenko"
"G.V.Romanenko"
"E.V.Tretyakov"
_chemical_name_systematic
;
2-(imidazol-4-yl)-4,4,5,5-tetramethyl-4,5-dihydro-1H-imidazole 1-oxyl
;
_chemical_melting_point 447.15
_cell_volume   2340.615
_exptl_crystal_density_diffrn 1.176
_exptl_special_details
;
Melting point range 447.15-448.15K

;
_diffrn_ambient_temperature 273
#These two values have been output from a single CSD field.
_refine_ls_R_factor_gt 0.0642
_refine_ls_wR_factor_gt 0.0642
_symmetry_cell_setting triclinic
_symmetry_space_group_name_H-M 'P -1'
_symmetry_Int_Tables_number 2
loop_
_symmetry_equiv_pos_site_id
_symmetry_equiv_pos_as_xyz
1 x,y,z
2 -x,-y,-z
_cell_length_a 13.972(3)
_cell_length_b 14.044(3)
_cell_length_c 14.484(3)
_cell_angle_alpha 111.036(5)
_cell_angle_beta 95.644(5)
_cell_angle_gamma 113.217(5)
_cell_formula_units_Z 8
loop_
_atom_type_symbol
_atom_type_radius_bond
C 0.68
H 0.23
N 0.68
O 0.68
loop_
_atom_site_label
_atom_site_type_symbol
_atom_site_fract_x
_atom_site_fract_y
_atom_site_fract_z
O1 O 0.4388(3) 0.2938(4) 0.5770(4)
N1 N 0.5212(4) 0.3922(4) 0.6080(4)
C1 C 0.5367(5) 0.4954(5) 0.6967(5)
C2 C 0.5514(9) 0.4753(11) 0.7926(8)
H1 H 0.600(5) 0.456(6) 0.807(6)
H2 H 0.483(6) 0.393(7) 0.770(6)
H3 H 0.558(6) 0.543(7) 0.857(6)
C3 C 0.4384(7) 0.5132(8) 0.6827(9)
H4 H 0.449(4) 0.581(5) 0.732(4)
H5 H 0.374(5) 0.443(5) 0.674(4)
H6 H 0.413(7) 0.525(7) 0.614(6)
C4 C 0.6427(4) 0.5859(5) 0.6893(5)
C5 C 0.6250(9) 0.6686(8) 0.6524(8)
H7 H 0.566(5) 0.623(6) 0.585(5)
H8 H 0.696(5) 0.713(5) 0.653(5)
H9 H 0.610(5) 0.715(5) 0.707(5)
C6 C 0.7353(6) 0.6559(7) 0.7910(6)
H10 H 0.794(4) 0.707(4) 0.773(4)
H11 H 0.756(4) 0.592(5) 0.804(4)
H12 H 0.710(4) 0.714(5) 0.843(4)
N2 N 0.6787(3) 0.5172(4) 0.6095(4)
C7 C 0.6073(4) 0.4120(5) 0.5656(4)
C8 C 0.6124(5) 0.3227(5) 0.4809(4)
C9 C 0.5423(6) 0.2110(6) 0.4232(5)
H13 H 0.478(3) 0.177(3) 0.422(3)
N3 N 0.5854(4) 0.1670(4) 0.3485(4)
H14 H 0.559(4) 0.088(5) 0.293(4)
C10 C 0.6815(5) 0.2531(6) 0.3672(5)
H15 H 0.72990 0.24560 0.32890
N4 N 0.7024(4) 0.3498(4) 0.4447(4)
O2 O 0.9628(3) 0.0268(3) 0.3538(3)
N5 N 0.9005(3) 0.0448(4) 0.4102(3)
C11 C 0.7975(4) -0.0494(4) 0.4049(4)
C12 C 0.8192(6) -0.1438(6) 0.4124(6)
H16 H 0.874(3) -0.123(4) 0.479(3)
H17 H 0.845(4) -0.184(4) 0.344(4)
H18 H 0.745(5) -0.215(6) 0.396(5)
C13 C 0.7220(5) -0.0930(6) 0.2996(4)
H19 H 0.65560 -0.15840 0.28840
H20 H 0.75620 -0.11490 0.24710
H21 H 0.70640 -0.03310 0.29690
C14 C 0.7686(4) 0.0207(5) 0.4952(5)
C15 C 0.6484(6) -0.0067(7) 0.4721(7)
H22 H 0.638(4) 0.039(5) 0.534(4)
H23 H 0.598(4) -0.097(5) 0.456(4)
H24 H 0.625(3) 0.001(4) 0.412(3)
C16 C 0.7977(7) 0.0092(7) 0.5939(6)
H25 H 0.882(5) 0.021(6) 0.615(5)
H26 H 0.755(4) -0.069(5) 0.588(4)
H27 H 0.783(3) 0.071(4) 0.641(3)
N6 N 0.8339(4) 0.1448(3) 0.5187(3)
C17 C 0.9083(4) 0.1508(5) 0.4708(4)
C18 C 0.9923(4) 0.2570(5) 0.4776(4)
C19 C 1.0757(5) 0.2725(5) 0.4319(5)
H28 H 1.097(3) 0.216(4) 0.391(3)
N7 N 1.1313(4) 0.3897(4) 0.4634(4)
H29 H 1.196(4) 0.433(5) 0.438(4)
C20 C 1.0823(6) 0.4360(6) 0.5244(6)
H30 H 1.097(3) 0.503(3) 0.550(3)
N8 N 0.9971(4) 0.3610(4) 0.5358(4)
O3 O 1.0049(4) -0.2978(4) -0.0312(4)
N9 N 0.9264(4) -0.3554(4) -0.0043(4)
C21 C 0.9137(5) -0.3099(5) 0.0993(5)
C22 C 1.0125(7) -0.2881(10) 0.1747(9)
H31 H 1.01310 -0.35980 0.16200
H32 H 1.00940 -0.25300 0.24400
H33 H 1.07740 -0.23770 0.16570
C23 C 0.9110(14) -0.1988(10) 0.1214(16)
H34 H 0.988(4) -0.144(4) 0.123(4)
H35 H 0.886(6) -0.150(7) 0.186(6)
H36 H 0.878(9) -0.211(9) 0.064(7)
C24 C 0.8036(5) -0.4130(5) 0.0846(4)
C25 C 0.7099(7) -0.3840(8) 0.0875(8)
H37 H 0.716(11) -0.320(12) 0.064(11)
H38 H 0.724(4) -0.337(4) 0.162(4)
H39 H 0.647(4) -0.451(5) 0.062(4)
C26 C 0.8113(8) -0.4634(9) 0.1609(8)
H40 H 0.734(4) -0.538(5) 0.139(4)
H41 H 0.815(6) -0.411(6) 0.242(6)
H42 H 0.860(4) -0.500(4) 0.144(4)
N10 N 0.7771(4) -0.5014(4) -0.0207(3)
C27 C 0.8475(5) -0.4659(5) -0.0668(5)
C28 C 0.8450(4) -0.5299(5) -0.1706(4)
C29 C 0.9186(5) -0.5039(6) -0.2248(5)
H43 H 0.986(4) -0.435(4) -0.201(4)
N11 N 0.8771(4) -0.5961(4) -0.3189(4)
H44 H 0.918(5) -0.615(6) -0.381(5)
C30 C 0.7823(5) -0.6710(5) -0.3175(5)
H45 H 0.739(4) -0.744(4) -0.374(4)
N12 N 0.7589(3) -0.6368(4) -0.2292(4)
O4 O 0.3674(4) -0.8158(4) 0.0476(4)
N13 N 0.3332(4) -0.9205(4) -0.0151(4)
C31 C 0.2441(6) -1.0147(5) -0.0061(5)
C32 C 0.2870(11) -1.0139(9) 0.0947(6)
H46 H 0.29220 -0.94800 0.15130
H47 H 0.35740 -1.01020 0.09870
H48 H 0.23840 -1.08280 0.09800
C33 C 0.1485(9) -0.9932(10) -0.0056(15)
H49 H 0.162(6) -0.932(6) 0.032(5)
H50 H 0.090(5) -1.058(6) -0.024(5)
H51 H 0.133(8) -0.974(11) -0.082(9)
C34 C 0.2333(5) -1.1181(5) -0.1035(5)
C35 C 0.1304(7) -1.1710(12) -0.1890(8)
H52 H 0.121(6) -1.232(7) -0.254(6)
H53 H 0.113(9) -1.105(12) -0.206(10)
H54 H 0.068(4) -1.201(4) -0.161(4)
C36 C 0.2508(10) -1.2088(8) -0.0803(9)
H55 H 0.210(4) -1.282(4) -0.170(4)
H56 H 0.188(4) -1.235(4) -0.060(4)
H57 H 0.322(6) -1.166(7) -0.020(6)
N14 N 0.3223(4) -1.0701(4) -0.1477(3)
C37 C 0.3737(4) -0.9590(5) -0.0948(4)
C38 C 0.4669(4) -0.8844(5) -0.1149(4)
C39 C 0.5251(5) -0.7682(6) -0.0639(5)
H58 H 0.517(4) -0.708(4) 0.006(4)
N15 N 0.6002(4) -0.7400(5) -0.1168(4)
H59 H 0.649(4) -0.657(5) -0.097(4)
C40 C 0.5850(5) -0.8374(6) -0.1944(6)
H60 H 0.630(4) -0.832(5) -0.252(4)
N16 N 0.5025(4) -0.9285(4) -0.1975(4)
#END
