
#######################################################################
#
#                 Cambridge Crystallographic Data Centre
#                                CCDC
#
#######################################################################
#
# If this CIF has been generated from an entry in the Cambridge
# Structural Database, then it will include bibliographic, chemical,
# crystal, experimental, refinement or atomic coordinate data resulting
# from the CCDC's data processing and validation procedures.
#
#######################################################################

data_CSD_CIF_AKEDUR
_audit_creation_date 2016-04-13
_audit_creation_method CSD-ConQuest-V1
_database_code_CSD AKEDUR
_database_code_depnum_ccdc_archive 'CCDC 1471050'
_chemical_formula_sum 'C13 H10 N2 O5'
_chemical_formula_moiety
;
C13 H10 N2 O5
;
_journal_coeditor_code "ff4005"
_journal_coden_Cambridge 1959
_journal_volume 1
_journal_year 2016
_journal_page_first x160527
_journal_name_full 'IUCrData '
loop_
_publ_author_name
"G.Vimala"
"N.Poomathi"
"P.T.Perumal"
"A.SubbiahPandi"
_chemical_name_systematic
;
5-(2-Hydroxybenzoyl)-1-methyl-3-nitropyridin-2(1H)-one
;
_cell_volume   1210.660
_exptl_crystal_colour 'colorless'
_exptl_crystal_density_diffrn 1.505
_exptl_crystal_description 'block'
_exptl_crystal_preparation 'perdeuterodimethyl sulfoxide/ethanol'
_diffrn_ambient_temperature 293
#These two values have been output from a single CSD field.
_refine_ls_R_factor_gt 0.0557
_refine_ls_wR_factor_gt 0.0557
_symmetry_cell_setting monoclinic
_symmetry_space_group_name_H-M 'P 21/n'
_symmetry_Int_Tables_number 14
loop_
_symmetry_equiv_pos_site_id
_symmetry_equiv_pos_as_xyz
1 x,y,z
2 1/2-x,1/2+y,1/2-z
3 -x,-y,-z
4 -1/2+x,-1/2-y,-1/2+z
_cell_length_a 7.4998(8)
_cell_length_b 13.8350(14)
_cell_length_c 12.2324(12)
_cell_angle_alpha 90
_cell_angle_beta 107.474(4)
_cell_angle_gamma 90
_cell_formula_units_Z 4
loop_
_atom_type_symbol
_atom_type_radius_bond
C 0.68
H 0.23
N 0.68
O 0.68
loop_
_atom_site_label
_atom_site_type_symbol
_atom_site_fract_x
_atom_site_fract_y
_atom_site_fract_z
O1 O 0.8511(3) -0.05625(17) 1.07410(18)
N1 N 0.4933(3) 0.21890(17) 0.95459(19)
O2 O 0.2617(3) 0.22615(17) 0.78498(18)
O3 O 1.0686(4) -0.0637(2) 1.2845(2)
H1 H 0.98080 -0.08230 1.23070
C1 C 0.7065(4) 0.0878(2) 1.0007(2)
C2 C 0.6121(4) 0.0460(2) 0.8948(2)
H2 H 0.64690 -0.01480 0.87590
N2 N 0.3812(4) 0.0517(2) 0.7088(2)
C3 C 0.6406(4) 0.1738(2) 1.0272(2)
H3 H 0.69930 0.20220 1.09780
C4 C 0.4714(4) 0.0938(2) 0.8206(2)
C5 C 1.0100(4) 0.0801(2) 1.1684(2)
O4 O 0.3589(5) 0.1021(2) 0.6255(2)
C6 C 0.8572(4) 0.0327(2) 1.0816(2)
C7 C 0.3981(4) 0.1837(2) 0.8458(2)
O5 O 0.3364(4) -0.0328(2) 0.7060(2)
C8 C 1.0684(4) 0.1731(3) 1.1538(3)
H4 H 1.00480 0.20800 1.08880
C9 C 1.1098(4) 0.0286(3) 1.2664(3)
C10 C 0.4218(5) 0.3087(2) 0.9891(3)
H5 H 0.31730 0.33120 0.92770
H6 H 0.51850 0.35680 1.00630
H7 H 0.38270 0.29700 1.05580
C11 C 1.2540(5) 0.0719(4) 1.3476(3)
H8 H 1.31500 0.03880 1.41450
C12 C 1.2182(5) 0.2144(3) 1.2333(3)
H9 H 1.25820 0.27610 1.22160
C13 C 1.3088(5) 0.1631(4) 1.3310(4)
H10 H 1.40860 0.19130 1.38630
#END
