
#######################################################################
#
#                 Cambridge Crystallographic Data Centre
#                                CCDC
#
#######################################################################
#
# If this CIF has been generated from an entry in the Cambridge
# Structural Database, then it will include bibliographic, chemical,
# crystal, experimental, refinement or atomic coordinate data resulting
# from the CCDC's data processing and validation procedures.
#
#######################################################################

data_CSD_CIF_AKENIO
_audit_creation_date 2011-03-15
_audit_creation_method CSD-ConQuest-V1
_database_code_CSD AKENIO
_database_code_depnum_ccdc_archive 'CCDC 813501'
_chemical_formula_sum 'C17 H20 N4 O5'
_chemical_formula_moiety
;
C17 H20 N4 O5
;
_journal_coeditor_code "IUCr SK3396"
_journal_coden_Cambridge 591
_journal_volume 67
_journal_year 2011
_journal_page_first o26
_journal_name_full 'Acta Crystallogr.,Sect.C:Cryst.Struct.Commun. '
loop_
_publ_author_name
"E.Cortes"
"R.Abonia"
"J.Cobo"
"C.Glidewell"
_chemical_name_systematic
;
Methyl 4-((1-acetyl-3-t-butyl-1H-pyrazol-5-yl)amino)-3-nitrobenzoate
;
_cell_volume   1723.437
_exptl_crystal_colour 'orange'
_exptl_crystal_density_diffrn 1.389
_exptl_crystal_description 'plate'
_diffrn_ambient_temperature 120
#These two values have been output from a single CSD field.
_refine_ls_R_factor_gt 0.049
_refine_ls_wR_factor_gt 0.049
_symmetry_cell_setting monoclinic
_symmetry_space_group_name_H-M 'P 21/c'
_symmetry_Int_Tables_number 14
loop_
_symmetry_equiv_pos_site_id
_symmetry_equiv_pos_as_xyz
1 x,y,z
2 -x,1/2+y,1/2-z
3 -x,-y,-z
4 x,-1/2-y,-1/2+z
_cell_length_a 11.9079(15)
_cell_length_b 15.6452(13)
_cell_length_c 9.255(1)
_cell_angle_alpha 90
_cell_angle_beta 91.727(11)
_cell_angle_gamma 90
_cell_formula_units_Z 4
loop_
_atom_type_symbol
_atom_type_radius_bond
C 0.68
H 0.23
N 0.68
O 0.68
loop_
_atom_site_label
_atom_site_type_symbol
_atom_site_fract_x
_atom_site_fract_y
_atom_site_fract_z
N1 N 0.24201(13) 0.41106(10) 0.39672(17)
N2 N 0.17858(13) 0.4768(1) 0.33613(18)
C1 C 0.19966(16) 0.54255(12) 0.4195(2)
C2 C 0.27613(16) 0.52293(12) 0.5338(2)
H1 H 0.30350 0.56050 0.60740
C3 C 0.30256(16) 0.43934(12) 0.5171(2)
C4 C 0.22648(16) 0.32802(12) 0.3461(2)
O1 O 0.26893(12) 0.26889(8) 0.41225(15)
C5 C 0.15868(18) 0.31848(13) 0.2111(2)
H2 H 0.14710 0.25760 0.19060
H3 H 0.19810 0.34500 0.13130
H4 H 0.08580 0.34640 0.22180
C6 C 0.14041(16) 0.62649(12) 0.3951(2)
C7 C 0.2194(2) 0.69988(14) 0.4319(3)
H5 H 0.28550 0.69640 0.37160
H6 H 0.24310 0.69640 0.53410
H7 H 0.18060 0.75430 0.41390
C8 C 0.0413(2) 0.62931(16) 0.4936(3)
H8 H 0.06770 0.62050 0.59380
H9 H -0.01210 0.58410 0.46580
H10 H 0.00430 0.68510 0.48480
C9 C 0.1002(2) 0.63483(15) 0.2388(3)
H11 H 0.05260 0.58580 0.21250
H12 H 0.16520 0.63630 0.17630
H13 H 0.05690 0.68770 0.22660
N3 N 0.37010(14) 0.38238(10) 0.59221(17)
H14 H 0.36090 0.32810 0.57010
C10 C 0.45152(16) 0.40100(12) 0.6940(2)
C11 C 0.50298(16) 0.33741(11) 0.7819(2)
C12 C 0.57975(16) 0.35787(12) 0.8904(2)
H15 H 0.61040 0.31390 0.95020
C13 C 0.61272(16) 0.44094(12) 0.9135(2)
C14 C 0.56732(16) 0.50417(12) 0.8235(2)
H16 H 0.59120 0.56170 0.83580
C15 C 0.48952(16) 0.48483(12) 0.7185(2)
H17 H 0.45970 0.52960 0.65940
N4 N 0.48079(14) 0.24731(10) 0.76104(18)
O2 O 0.52136(12) 0.19654(9) 0.84859(16)
O3 O 0.42288(12) 0.22442(8) 0.65621(15)
C16 C 0.69856(17) 0.45835(12) 1.0271(2)
O4 O 0.73884(13) 0.40563(9) 1.10730(16)
O5 O 0.72868(12) 0.54046(8) 1.02999(15)
C17 C 0.82269(19) 0.56068(14) 1.1244(2)
H18 H 0.89120 0.53600 1.08560
H19 H 0.81030 0.53700 1.22060
H20 H 0.83090 0.62290 1.13140
#END
