
#######################################################################
#
#                 Cambridge Crystallographic Data Centre
#                                CCDC
#
#######################################################################
#
# If this CIF has been generated from an entry in the Cambridge
# Structural Database, then it will include bibliographic, chemical,
# crystal, experimental, refinement or atomic coordinate data resulting
# from the CCDC's data processing and validation procedures.
#
#######################################################################

data_CSD_CIF_AKOGEO
_audit_creation_date 2016-04-16
_audit_creation_method CSD-ConQuest-V1
_database_code_CSD AKOGEO
_database_code_depnum_ccdc_archive 'CCDC 1473664'
_chemical_formula_sum 'C23 H20 N2 O3'
_chemical_formula_moiety
;
C23 H20 N2 O3
;
_journal_coeditor_code "pk2578"
_journal_coden_Cambridge 1828
_journal_volume 72
_journal_year 2016
_journal_page_first 699
_journal_name_full 'Acta Crystallogr.,Sect.E:Cryst.Commun. '
loop_
_publ_author_name
"J.R.Kerr"
"L.Trembleau"
"J.M.D.Storey"
"J.L.Wardell"
"W.T.A.Harrison"
_chemical_name_systematic
;
2-(4-Methoxyphenyl)-3-(2-nitro-1-phenylethyl)-1H-indole
;
_cell_volume   1833.742
_exptl_crystal_colour 'colorless'
_exptl_crystal_density_diffrn 1.349
_exptl_crystal_description 'plate'
_diffrn_ambient_temperature 100
#These two values have been output from a single CSD field.
_refine_ls_R_factor_gt 0.0457
_refine_ls_wR_factor_gt 0.0457
_symmetry_cell_setting triclinic
_symmetry_space_group_name_H-M 'P -1'
_symmetry_Int_Tables_number 2
loop_
_symmetry_equiv_pos_site_id
_symmetry_equiv_pos_as_xyz
1 x,y,z
2 -x,-y,-z
_cell_length_a 9.2014(5)
_cell_length_b 9.4543(7)
_cell_length_c 21.6201(14)
_cell_angle_alpha 98.563(4)
_cell_angle_beta 93.416(4)
_cell_angle_gamma 98.354(4)
_cell_formula_units_Z 4
loop_
_atom_type_symbol
_atom_type_radius_bond
C 0.68
H 0.23
N 0.68
O 0.68
loop_
_atom_site_label
_atom_site_type_symbol
_atom_site_fract_x
_atom_site_fract_y
_atom_site_fract_z
C1 C 0.49618(16) 0.34164(15) 0.06414(6)
C2 C 0.38705(17) 0.42054(15) 0.08413(7)
H1 H 0.32010 0.44950 0.05510
C3 C 0.38042(17) 0.45411(16) 0.14638(7)
H2 H 0.30870 0.50940 0.16240
C4 C 0.47956(18) 0.40736(16) 0.18735(7)
H3 H 0.47370 0.43290 0.23120
C5 C 0.58536(17) 0.32607(16) 0.16733(7)
H4 H 0.64970 0.29500 0.19680
C6 C 0.59606(16) 0.29082(15) 0.10432(7)
C7 C 0.68766(16) 0.21018(15) 0.06651(7)
C8 C 0.64249(16) 0.21756(15) 0.00713(7)
C9 C 0.81582(17) 0.13561(16) 0.08290(7)
H5 H 0.87200 0.12490 0.04470
C10 C 0.92103(18) 0.22377(17) 0.13441(8)
H6 H 1.00270 0.16980 0.14280
H7 H 0.86950 0.23890 0.17320
C11 C 0.77242(16) -0.01722(16) 0.09801(7)
C12 C 0.84562(17) -0.12686(16) 0.07252(7)
H8 H 0.92150 -0.10600 0.04580
C13 C 0.81037(18) -0.26753(17) 0.08526(8)
H9 H 0.86200 -0.34140 0.06720
C14 C 0.70126(18) -0.29942(17) 0.12382(7)
H10 H 0.67750 -0.39490 0.13290
C15 C 0.62638(18) -0.19130(17) 0.14925(7)
H11 H 0.55020 -0.21270 0.17580
C16 C 0.66181(17) -0.05090(16) 0.13627(7)
H12 H 0.60920 0.02250 0.15400
C17 C 0.70037(16) 0.15610(15) -0.04944(7)
C18 C 0.77075(17) 0.24493(16) -0.08755(7)
H13 H 0.78000 0.34710 -0.07640
C19 C 0.82656(17) 0.18773(16) -0.14060(7)
H14 H 0.87350 0.24870 -0.16710
C20 C 0.81369(16) 0.03855(16) -0.15535(7)
C21 C 0.74181(17) -0.05225(16) -0.11828(7)
H15 H 0.73160 -0.15440 -0.12970
C22 C 0.68649(17) 0.00643(16) -0.06567(7)
H16 H 0.63790 -0.05470 -0.03960
C23 C 0.9661(2) 0.06002(19) -0.23777(7)
H17 H 1.01460 -0.00090 -0.26820
H18 H 1.04090 0.12330 -0.20790
H19 H 0.90830 0.11920 -0.25990
N1 N 0.52777(14) 0.29681(13) 0.00553(6)
H20 H 0.471(2) 0.3091(19) -0.0271(9)
N2 N 0.98391(15) 0.36924(15) 0.11821(7)
O1 O 1.01892(15) 0.37644(15) 0.06681(6)
O2 O 1.00019(16) 0.47097(14) 0.15869(7)
O3 O 0.87109(12) -0.02940(12) -0.20477(5)
C24 C 1.07078(17) 0.27498(15) 0.60018(7)
C25 C 1.19481(18) 0.23268(16) 0.62786(7)
H21 H 1.25100 0.17000 0.60460
C26 C 1.23137(18) 0.28475(17) 0.68904(7)
H22 H 1.31420 0.25800 0.71020
C27 C 1.14771(19) 0.37763(17) 0.72123(7)
H23 H 1.17560 0.41360 0.76430
C28 C 1.02574(18) 0.42001(17) 0.69332(7)
H24 H 0.97150 0.48420 0.71690
C29 C 0.98380(16) 0.36824(15) 0.63114(7)
C30 C 0.86833(17) 0.38853(16) 0.58743(7)
C31 C 0.88891(16) 0.30774(15) 0.53304(6)
C32 C 0.73865(18) 0.46891(17) 0.59473(7)
H25 H 0.66270 0.42160 0.56000
C33 C 0.6680(2) 0.45620(18) 0.65431(8)
H26 H 0.58170 0.50770 0.65510
H27 H 0.73890 0.50430 0.69010
C34 C 0.76883(17) 0.62946(16) 0.58830(7)
C35 C 0.89706(19) 0.72001(17) 0.61460(7)
H28 H 0.97190 0.68180 0.63600
C36 C 0.9164(2) 0.86699(18) 0.60972(7)
H29 H 1.00450 0.92800 0.62780
C37 C 0.8086(2) 0.92481(18) 0.57886(8)
H30 H 0.82140 1.02540 0.57670
C38 C 0.6826(2) 0.83509(19) 0.55131(8)
H31 H 0.60910 0.87330 0.52910
C39 C 0.66297(18) 0.68832(18) 0.55610(7)
H32 H 0.57570 0.62730 0.53700
C40 C 0.80143(17) 0.28679(16) 0.47391(7)
C41 C 0.78144(17) 0.40508(16) 0.44448(7)
H33 H 0.82570 0.49980 0.46370
C42 C 0.69952(17) 0.38631(17) 0.38876(7)
H34 H 0.68800 0.46690 0.36840
C43 C 0.63290(17) 0.24818(17) 0.36192(7)
C44 C 0.65272(18) 0.12873(17) 0.39006(7)
H35 H 0.60820 0.03410 0.37090
C45 C 0.73698(18) 0.14931(16) 0.44560(7)
H36 H 0.75160 0.06830 0.46510
C46 C 0.4670(2) 0.1044(2) 0.28258(8)
H37 H 0.40590 0.11350 0.24510
H38 H 0.40350 0.06960 0.31380
H39 H 0.53450 0.03550 0.27120
N3 N 1.01008(14) 0.23898(13) 0.54058(6)
H40 H 1.050(2) 0.193(2) 0.5094(9)
N4 N 0.61859(17) 0.30122(17) 0.66247(8)
O4 O 0.55989(17) 0.21888(16) 0.61780(8)
O5 O 0.6370(2) 0.26938(18) 0.71306(8)
O6 O 0.54974(13) 0.24217(13) 0.30834(5)
#END
