
#######################################################################
#
#                 Cambridge Crystallographic Data Centre
#                                CCDC
#
#######################################################################
#
# If this CIF has been generated from an entry in the Cambridge
# Structural Database, then it will include bibliographic, chemical,
# crystal, experimental, refinement or atomic coordinate data resulting
# from the CCDC's data processing and validation procedures.
#
#######################################################################

data_CSD_CIF_AKOGAK
_audit_creation_date 2016-04-16
_audit_creation_method CSD-ConQuest-V1
_database_code_CSD AKOGAK
_database_code_depnum_ccdc_archive 'CCDC 1473663'
_chemical_formula_sum 'C19 H20 N2 O2'
_chemical_formula_moiety
;
C19 H20 N2 O2
;
_journal_coeditor_code "pk2578"
_journal_coden_Cambridge 1828
_journal_volume 72
_journal_year 2016
_journal_page_first 699
_journal_name_full 'Acta Crystallogr.,Sect.E:Cryst.Commun. '
loop_
_publ_author_name
"J.R.Kerr"
"L.Trembleau"
"J.M.D.Storey"
"J.L.Wardell"
"W.T.A.Harrison"
_chemical_name_systematic
;
6-Isopropyl-3-(2-nitro-1-phenylethyl)-1H-indole
;
_cell_volume    807.677
_exptl_crystal_colour 'light red'
_exptl_crystal_density_diffrn 1.268
_exptl_crystal_description 'blade'
_diffrn_ambient_temperature 100
#These two values have been output from a single CSD field.
_refine_ls_R_factor_gt 0.0813
_refine_ls_wR_factor_gt 0.0813
_symmetry_cell_setting monoclinic
_symmetry_space_group_name_H-M 'P 21'
_symmetry_Int_Tables_number 4
loop_
_symmetry_equiv_pos_site_id
_symmetry_equiv_pos_as_xyz
1 x,y,z
2 -x,1/2+y,-z
_cell_length_a 12.4525(9)
_cell_length_b 5.7360(4)
_cell_length_c 12.5896(9)
_cell_angle_alpha 90
_cell_angle_beta 116.081(6)
_cell_angle_gamma 90
_cell_formula_units_Z 2
loop_
_atom_type_symbol
_atom_type_radius_bond
C 0.68
H 0.23
N 0.68
O 0.68
loop_
_atom_site_label
_atom_site_type_symbol
_atom_site_fract_x
_atom_site_fract_y
_atom_site_fract_z
C1 C 0.5003(5) 0.1427(9) 0.3881(4)
C2 C 0.3850(5) 0.0617(12) 0.3609(4)
H1 H 0.37370 -0.07520 0.39720
C3 C 0.2883(5) 0.1850(11) 0.2804(5)
C4 C 0.3092(5) 0.3871(10) 0.2291(4)
H2 H 0.24220 0.47260 0.17470
C5 C 0.4222(5) 0.4675(10) 0.2538(4)
H3 H 0.43290 0.60610 0.21830
C6 C 0.5208(5) 0.3389(10) 0.3329(4)
C7 C 0.6491(5) 0.3646(10) 0.3796(4)
C8 C 0.6977(5) 0.1894(10) 0.4586(5)
H4 H 0.78110 0.16420 0.50380
C9 C 0.7126(5) 0.5512(11) 0.3434(4)
H5 H 0.68480 0.70630 0.35770
C10 C 0.8468(5) 0.5371(11) 0.4194(4)
H6 H 0.86430 0.54840 0.50400
H7 H 0.87710 0.38510 0.40670
C11 C 0.6842(4) 0.5377(10) 0.2123(4)
C12 C 0.7189(5) 0.3446(10) 0.1683(4)
H8 H 0.75580 0.21600 0.21870
C13 C 0.6998(5) 0.3383(11) 0.0510(5)
H9 H 0.72450 0.20660 0.02160
C14 C 0.6451(5) 0.5229(11) -0.0224(5)
H10 H 0.63230 0.51900 -0.10250
C15 C 0.6086(5) 0.7141(11) 0.0200(5)
H11 H 0.56920 0.84000 -0.03150
C16 C 0.6298(5) 0.7225(11) 0.1384(5)
H12 H 0.60650 0.85580 0.16800
C17 C 0.1618(5) 0.0955(10) 0.2462(5)
H13 H 0.16810 -0.03830 0.29950
C18 C 0.1043(5) 0.0033(12) 0.1182(5)
H14 H 0.15320 -0.12370 0.11060
H15 H 0.09940 0.12980 0.06390
H16 H 0.02380 -0.05470 0.09860
C19 C 0.0831(6) 0.2786(12) 0.2629(6)
H17 H 0.00470 0.21090 0.24490
H18 H 0.07320 0.41000 0.20960
H19 H 0.12050 0.33340 0.34500
N1 N 0.6094(4) 0.0531(9) 0.4643(4)
N2 N 0.9084(4) 0.7309(9) 0.3883(4)
H20 H 0.625(5) -0.056(11) 0.514(5)
O1 O 0.9829(4) 0.6817(8) 0.3538(4)
O2 O 0.8825(4) 0.9308(7) 0.4015(4)
#END
