
#######################################################################
#
#                 Cambridge Crystallographic Data Centre
#                                CCDC
#
#######################################################################
#
# If this CIF has been generated from an entry in the Cambridge
# Structural Database, then it will include bibliographic, chemical,
# crystal, experimental, refinement or atomic coordinate data resulting
# from the CCDC's data processing and validation procedures.
#
#######################################################################

data_CSD_CIF_AKUFOD
_audit_creation_date 2016-04-18
_audit_creation_method CSD-ConQuest-V1
_database_code_CSD AKUFOD
_database_code_depnum_ccdc_archive 'CCDC 1450021'
_chemical_formula_sum 'C26 H19 N3 O8'
_chemical_formula_moiety
;
C26 H19 N3 O8
;
_journal_coden_Cambridge 35
_journal_volume 81
_journal_year 2016
_journal_page_first 3313
_journal_name_full 'J.Org.Chem. '
loop_
_publ_author_name
"K.Ramig"
"G.Subramaniam"
"S.Karimi"
"D.J.Szalda"
"A.Ko"
"A.Lam"
"Jeffrey Li"
"A.Coaderaj"
"L.Cavdar"
"L.Bogdan"
"K.Kwon"
"E.M.Greer"
_chemical_name_systematic
;
bis(4-nitrobenzyl) 1H-1-benzazepine-2,4-dicarboxylate
;
_cell_volume   1161.764
_exptl_crystal_colour 'black'
_exptl_crystal_density_diffrn 1.433
_exptl_crystal_description 'needle'
_diffrn_ambient_temperature 250
_refine_special_details
;
C5,N1 and C1A,N5A disordered over two sites with occupancies 0.678:0.322.

;
#These two values have been output from a single CSD field.
_refine_ls_R_factor_gt 0.058
_refine_ls_wR_factor_gt 0.058
_symmetry_cell_setting monoclinic
_symmetry_space_group_name_H-M 'P 21'
_symmetry_Int_Tables_number 4
loop_
_symmetry_equiv_pos_site_id
_symmetry_equiv_pos_as_xyz
1 x,y,z
2 -x,1/2+y,-z
_cell_length_a 7.5084(7)
_cell_length_b 13.2750(11)
_cell_length_c 11.7594(11)
_cell_angle_alpha 90
_cell_angle_beta 97.617(3)
_cell_angle_gamma 90
_cell_formula_units_Z 2
loop_
_atom_type_symbol
_atom_type_radius_bond
C 0.68
H 0.23
N 0.68
O 0.68
loop_
_atom_site_label
_atom_site_type_symbol
_atom_site_fract_x
_atom_site_fract_y
_atom_site_fract_z
O1 O 0.6791(5) 0.6829(3) 0.6890(3)
O2 O 0.0351(4) 0.49268(19) 0.2779(2)
O3 O 0.0917(3) 0.79400(19) 0.1222(2)
O4 O 1.0082(5) 0.8196(3) 0.3991(3)
O5 O 0.8772(4) 0.6916(3) 0.4634(3)
O6 O -0.0581(4) 0.8450(2) -0.0460(3)
O7 O 0.8425(5) 0.5496(3) 0.6782(3)
O8 O -0.2101(4) 0.3944(2) 0.2685(3)
C1 C 0.3939(5) 0.8403(3) 0.1928(3)
N1 N 0.8772(6) 0.7658(3) 0.4028(3)
C2 C 0.4064(6) 0.7518(3) 0.2551(3)
H1 H 0.30800 0.70750 0.25030
N2 N 0.7047(6) 0.5975(4) 0.6528(4)
C3 C 0.5602(7) 0.5527(4) 0.5716(4)
C4 C 0.5938(6) 0.4670(4) 0.5136(4)
H2 H 0.70840 0.43720 0.52420
C5 C 0.4549(7) 0.4248(3) 0.4385(4)
H3 H 0.47680 0.36660 0.39690
C6 C 0.2846(6) 0.4673(3) 0.4240(4)
C7 C 0.1355(6) 0.4162(3) 0.3472(4)
H4 H 0.18550 0.36720 0.29770
H5 H 0.05640 0.38040 0.39340
C8 C -0.1369(7) 0.4702(4) 0.2408(4)
C9 C -0.2246(6) 0.5473(4) 0.1618(3)
C10 C -0.1277(5) 0.6348(3) 0.1374(3)
H6 H -0.02430 0.64840 0.18940
C11 C -0.1628(5) 0.7016(3) 0.0497(3)
C12 C -0.0443(5) 0.7879(3) 0.0347(4)
C13 C 0.2266(6) 0.8697(3) 0.1140(4)
H7 H 0.18330 0.93550 0.13650
H8 H 0.25310 0.87450 0.03480
C14 C 0.5411(6) 0.9048(3) 0.2008(3)
H9 H 0.53220 0.96540 0.15910
C15 C 0.7001(6) 0.8814(3) 0.2686(3)
H10 H 0.79980 0.92480 0.27290
C16 C 0.7083(5) 0.7931(3) 0.3296(3)
C17 C 0.5652(6) 0.7286(3) 0.3247(3)
H11 H 0.57450 0.66890 0.36820
C18 C -0.3983(12) 0.5194(8) 0.1143(9)
H12 H -0.43850 0.45570 0.13450
C19 C -0.5229(6) 0.5794(3) 0.0366(4)
C20 C -0.6989(6) 0.5460(3) 0.0238(4)
H13 H -0.73190 0.49570 0.07330
C21 C -0.8282(6) 0.5847(4) -0.0603(4)
H14 H -0.94650 0.55980 -0.06790
C22 C -0.7836(6) 0.6587(4) -0.1317(4)
H15 H -0.87010 0.68500 -0.18920
C23 C -0.6080(6) 0.6948(3) -0.1183(4)
H16 H -0.57750 0.74740 -0.16570
C24 C -0.4781(6) 0.6549(3) -0.0368(4)
N3 N -0.2875(9) 0.6731(7) -0.0448(6)
H17 H -0.28360 0.72220 -0.09890
C25 C 0.3922(6) 0.5983(3) 0.5594(3)
H18 H 0.37190 0.65720 0.60010
C26 C 0.2556(6) 0.5539(3) 0.4853(4)
H19 H 0.14050 0.58310 0.47630
N4? N -0.398(3) 0.5524(14) 0.1382(17)
H20? H -0.42240 0.48090 0.13920
C27? C -0.3280(19) 0.7322(16) -0.0191(12)
H21? H -0.34180 0.79690 -0.05130
#END
