
#######################################################################
#
#                 Cambridge Crystallographic Data Centre
#                                CCDC
#
#######################################################################
#
# If this CIF has been generated from an entry in the Cambridge
# Structural Database, then it will include bibliographic, chemical,
# crystal, experimental, refinement or atomic coordinate data resulting
# from the CCDC's data processing and validation procedures.
#
#######################################################################

data_CSD_CIF_AKUHUL
_audit_creation_date 2016-04-18
_audit_creation_method CSD-ConQuest-V1
_database_code_CSD AKUHUL
_database_code_depnum_ccdc_archive 'CCDC 1443149'
_chemical_formula_sum 'C17 H19 N1 O5'
_chemical_formula_moiety
;
C17 H19 N1 O5
;
_journal_coden_Cambridge 1336
_journal_volume 18
_journal_year 2016
_journal_page_first 1760
_journal_name_full 'Org.Lett. '
loop_
_publ_author_name
"Arun Raja"
"Bor-Cherng Hong"
"Ju-Hsiou Liao"
"Gene-Hsiang Lee"
_chemical_name_systematic
;
7a-hydroxy-3a-methyl-7-nitro-3-oxo-6-phenyloctahydro-1H-indene-5-carbaldehyde
;
_cell_volume   1606.626
_exptl_crystal_colour 'colorless'
_exptl_crystal_density_diffrn 1.312
_exptl_special_details
;
Absolute configuration

;
_exptl_crystal_description 'plate'
_diffrn_ambient_temperature 200
#These two values have been output from a single CSD field.
_refine_ls_R_factor_gt 0.0475
_refine_ls_wR_factor_gt 0.0475
_symmetry_cell_setting orthorhombic
_symmetry_space_group_name_H-M 'P 21 21 21'
_symmetry_Int_Tables_number 19
loop_
_symmetry_equiv_pos_site_id
_symmetry_equiv_pos_as_xyz
1 x,y,z
2 1/2-x,-y,1/2+z
3 -x,1/2+y,1/2-z
4 1/2+x,1/2-y,-z
_cell_length_a 7.7825(4)
_cell_length_b 12.1682(7)
_cell_length_c 16.9656(9)
_cell_angle_alpha 90
_cell_angle_beta 90
_cell_angle_gamma 90
_cell_formula_units_Z 4
loop_
_atom_type_symbol
_atom_type_radius_bond
C 0.68
H 0.23
N 0.68
O 0.68
loop_
_atom_site_label
_atom_site_type_symbol
_atom_site_fract_x
_atom_site_fract_y
_atom_site_fract_z
O1 O 0.7250(2) 0.79907(12) 0.95977(9)
O2 O 0.6878(2) 0.48096(12) 0.79642(7)
H1 H 0.67890 0.49850 0.74870
O3 O 0.8602(2) 0.48637(14) 1.13653(8)
O4 O 0.2473(2) 0.48517(16) 0.85089(11)
O5 O 0.4153(2) 0.34433(13) 0.85996(10)
N1 N 0.3826(2) 0.44130(17) 0.87058(10)
C1 C 0.6813(3) 0.73958(15) 0.90657(12)
C2 C 0.5275(4) 0.75574(17) 0.85361(14)
H2 H 0.54080 0.82360 0.82200
H3 H 0.42120 0.76180 0.88530
C3 C 0.5191(4) 0.65498(17) 0.79968(12)
H4 H 0.56980 0.67120 0.74750
H5 H 0.39890 0.63040 0.79240
C4 C 0.6255(3) 0.56700(15) 0.84383(10)
C5 C 0.7726(3) 0.63480(15) 0.88195(11)
C6 C 0.8671(3) 0.57710(17) 0.94855(10)
H6 H 0.94290 0.63070 0.97530
H7 H 0.94060 0.51860 0.92610
C7 C 0.7459(2) 0.52620(15) 1.00931(10)
H8 H 0.68040 0.58570 1.03670
C8 C 0.6186(2) 0.44648(14) 0.96876(10)
H9 H 0.68610 0.38980 0.93940
C9 C 0.5157(2) 0.51361(15) 0.90949(10)
H10 H 0.45460 0.57340 0.93870
C10 C 0.9050(3) 0.6703(2) 0.81877(14)
H11 H 0.99590 0.71390 0.84370
H12 H 0.84750 0.71460 0.77840
H13 H 0.95550 0.60490 0.79430
C11 C 0.8512(3) 0.46431(18) 1.06815(11)
H14 H 0.91550 0.40310 1.04980
C12 C 0.5092(2) 0.38890(14) 1.03002(10)
C13 C 0.5558(3) 0.28403(15) 1.05555(11)
H15 H 0.64910 0.24710 1.03100
C14 C 0.4678(3) 0.23342(15) 1.11609(12)
H16 H 0.50320 0.16290 1.13380
C15 C 0.3295(3) 0.28384(17) 1.15106(11)
H17 H 0.26750 0.24790 1.19180
C16 C 0.2823(3) 0.38703(18) 1.12619(12)
H18 H 0.18740 0.42270 1.15040
C17 C 0.3712(2) 0.43972(16) 1.06639(11)
H19 H 0.33710 0.51120 1.05020
#END
