
#######################################################################
#
#                 Cambridge Crystallographic Data Centre
#                                CCDC
#
#######################################################################
#
# If this CIF has been generated from an entry in the Cambridge
# Structural Database, then it will include bibliographic, chemical,
# crystal, experimental, refinement or atomic coordinate data resulting
# from the CCDC's data processing and validation procedures.
#
#######################################################################

data_CSD_CIF_AKUJEX
_audit_creation_date 2016-04-18
_audit_creation_method CSD-ConQuest-V1
_database_code_CSD AKUJEX
_database_code_depnum_ccdc_archive 'CCDC 1443143'
_chemical_formula_sum 'C23 H23 N1 O5'
_chemical_formula_moiety
;
C23 H23 N1 O5
;
_journal_coden_Cambridge 1336
_journal_volume 18
_journal_year 2016
_journal_page_first 1760
_journal_name_full 'Org.Lett. '
loop_
_publ_author_name
"Arun Raja"
"Bor-Cherng Hong"
"Ju-Hsiou Liao"
"Gene-Hsiang Lee"
_chemical_name_systematic
;
3a-hydroxy-7a-methyl-6-nitro-1-oxo-5,7-diphenyloctahydro-1H-indene-4-carbaldeh
yde
;
_cell_volume   1948.609
_exptl_crystal_colour 'colorless'
_exptl_crystal_density_diffrn 1.341
_exptl_crystal_description 'Irregular'
_diffrn_ambient_temperature 173
#These two values have been output from a single CSD field.
_refine_ls_R_factor_gt 0.0595
_refine_ls_wR_factor_gt 0.0595
_symmetry_cell_setting monoclinic
_symmetry_space_group_name_H-M 'P 21/n'
_symmetry_Int_Tables_number 14
loop_
_symmetry_equiv_pos_site_id
_symmetry_equiv_pos_as_xyz
1 x,y,z
2 1/2-x,1/2+y,1/2-z
3 -x,-y,-z
4 -1/2+x,-1/2-y,-1/2+z
_cell_length_a 16.5186(17)
_cell_length_b 6.7973(7)
_cell_length_c 17.4934(18)
_cell_angle_alpha 90
_cell_angle_beta 97.222(2)
_cell_angle_gamma 90
_cell_formula_units_Z 4
loop_
_atom_type_symbol
_atom_type_radius_bond
C 0.68
H 0.23
N 0.68
O 0.68
loop_
_atom_site_label
_atom_site_type_symbol
_atom_site_fract_x
_atom_site_fract_y
_atom_site_fract_z
O1 O 0.94999(11) -0.2366(3) -0.00037(11)
O2 O 0.80106(10) -0.1391(2) 0.12543(9)
H1 H 0.836(2) -0.250(5) 0.1414(19)
O3 O 0.89518(11) 0.5238(2) 0.15860(11)
O4 O 0.69779(11) 0.5975(3) -0.04434(10)
O5 O 0.65244(10) 0.3107(3) -0.08297(10)
N1 N 0.70189(11) 0.4170(3) -0.04529(10)
C1 C 0.78162(15) -0.0058(4) -0.16024(13)
H2 H 0.74310 -0.09940 -0.14680
C2 C 0.80555(16) -0.0090(4) -0.23367(14)
H3 H 0.78440 -0.10650 -0.26960
C3 C 0.85982(14) 0.1287(4) -0.25428(13)
H4 H 0.87570 0.12680 -0.30460
C4 C 0.89143(13) 0.2703(4) -0.20178(13)
H5 H 0.92820 0.36680 -0.21630
C5 C 0.86899(13) 0.2705(3) -0.12785(12)
H6 H 0.89170 0.36560 -0.09150
C6 C 0.81353(12) 0.1329(3) -0.10640(12)
C7 C 0.79195(12) 0.1230(3) -0.02410(12)
H7 H 0.74410 0.03360 -0.02270
C8 C 0.86597(12) 0.0391(3) 0.02876(12)
H8 H 0.91440 0.12490 0.02450
C9 C 0.88351(14) -0.1652(3) -0.00025(12)
H9 H 0.83790 -0.24320 -0.02000
C10 C 0.85306(13) 0.0233(3) 0.11508(12)
C11 C 0.93679(14) 0.0050(3) 0.16430(13)
H10 H 0.93120 -0.05650 0.21470
H11 H 0.97440 -0.07560 0.13750
C12 C 0.96855(14) 0.2173(4) 0.17526(14)
H12 H 0.99480 0.23810 0.22870
H13 H 1.00880 0.24630 0.13930
C13 C 0.89415(13) 0.3463(3) 0.15817(12)
C14 C 0.81716(13) 0.2180(3) 0.14320(11)
C15 C 0.79110(15) 0.1915(4) 0.22437(13)
H14 H 0.83590 0.13130 0.25850
H15 H 0.74300 0.10620 0.22110
H16 H 0.77800 0.32010 0.24490
C16 C 0.74883(12) 0.3231(3) 0.08964(12)
H17 H 0.75130 0.46390 0.10630
C17 C 0.77184(12) 0.3236(3) 0.00643(12)
H18 H 0.82090 0.40950 0.00580
C18 C 0.66087(13) 0.2581(3) 0.09398(12)
C19 C 0.60345(14) 0.4065(4) 0.09757(13)
H19 H 0.62040 0.54010 0.09880
C20 C 0.52149(15) 0.3620(4) 0.09936(15)
H20 H 0.48300 0.46500 0.10160
C21 C 0.49617(15) 0.1705(5) 0.09791(16)
H21 H 0.44020 0.14040 0.09930
C22 C 0.55211(16) 0.0211(4) 0.09449(16)
H22 H 0.53450 -0.11200 0.09390
C23 C 0.63405(14) 0.0638(4) 0.09193(14)
H23 H 0.67190 -0.04010 0.08880
#END
