
#######################################################################
#
#                 Cambridge Crystallographic Data Centre
#                                CCDC
#
#######################################################################
#
# If this CIF has been generated from an entry in the Cambridge
# Structural Database, then it will include bibliographic, chemical,
# crystal, experimental, refinement or atomic coordinate data resulting
# from the CCDC's data processing and validation procedures.
#
#######################################################################

data_CSD_CIF_AKUREE
_audit_creation_date 2011-04-26
_audit_creation_method CSD-ConQuest-V1
_database_code_CSD AKUREE
_database_code_depnum_ccdc_archive 'CCDC 778488'
_chemical_formula_sum 'C21 H20 N4 O6'
_chemical_formula_moiety
;
C21 H20 N4 O6
;
_journal_coden_Cambridge 35
_journal_volume 75
_journal_year 2010
_journal_page_first 5941
_journal_name_full 'J.Org.Chem. '
loop_
_publ_author_name
"D.S.Radchenko"
"S.O.Pavlenko"
"O.O.Grygorenko"
"D.M.Volochnyuk"
"S.V.Shishkina"
"O.V.Shishkin"
"I.V.Komarov"
_chemical_name_systematic
;
N,N'-Spiro[3.3]heptane-2,6-diylbis(4-nitrobenzamide)
;
_cell_volume   1984.821
_exptl_crystal_colour 'colorless'
_exptl_crystal_density_diffrn 1.42
_exptl_crystal_description 'plate'
_diffrn_ambient_temperature 293
#These two values have been output from a single CSD field.
_refine_ls_R_factor_gt 0.037
_refine_ls_wR_factor_gt 0.037
_symmetry_cell_setting monoclinic
_symmetry_space_group_name_H-M 'P 21/n'
_symmetry_Int_Tables_number 14
loop_
_symmetry_equiv_pos_site_id
_symmetry_equiv_pos_as_xyz
1 x,y,z
2 1/2-x,1/2+y,1/2-z
3 -x,-y,-z
4 -1/2+x,-1/2-y,-1/2+z
_cell_length_a 9.9288(10)
_cell_length_b 12.6735(13)
_cell_length_c 15.7735(15)
_cell_angle_alpha 90
_cell_angle_beta 90
_cell_angle_gamma 90
_cell_formula_units_Z 4
loop_
_atom_type_symbol
_atom_type_radius_bond
C 0.68
H 0.23
N 0.68
O 0.68
loop_
_atom_site_label
_atom_site_type_symbol
_atom_site_fract_x
_atom_site_fract_y
_atom_site_fract_z
O1 O 0.07420(9) 0.17583(7) 0.65719(6)
O2 O 0.24491(13) -0.25155(10) 0.37624(10)
O3 O 0.13110(14) -0.31775(10) 0.47907(9)
O4 O 0.51329(9) 0.81258(7) 0.54166(6)
O5 O 0.69676(16) 1.1804(1) 0.8628(1)
O6 O 0.56622(13) 1.26931(10) 0.78410(9)
N1 N 0.22872(14) 0.23681(9) 0.56586(8)
H1 H 0.2919(12) 0.2201(11) 0.5220(9)
N2 N 0.18448(15) -0.24392(13) 0.44266(11)
N3 N 0.44948(12) 0.73121(10) 0.66232(8)
H2 H 0.4368(11) 0.7303(10) 0.7214(9)
N4 N 0.61752(16) 1.18638(13) 0.80537(11)
C1 C 0.33853(14) 0.47600(11) 0.63585(9)
C2 C 0.47541(15) 0.5292(1) 0.64801(10)
H3 H 0.50840 0.52740 0.70590
H4 H 0.54390 0.50590 0.60840
C3 C 0.40750(14) 0.63272(10) 0.62349(9)
H5 H 0.40710 0.64020 0.56170
C4 C 0.27371(13) 0.58361(11) 0.65313(9)
H6 H 0.25280 0.59640 0.71230
H7 H 0.19750 0.59970 0.61690
C5 C 0.30623(16) 0.42520(12) 0.55041(10)
H8 H 0.25660 0.47080 0.51210
H9 H 0.38380 0.39440 0.52240
C6 C 0.21882(16) 0.34548(11) 0.59664(9)
H10 H 0.12470 0.36880 0.59780
C7 C 0.29033(14) 0.37400(11) 0.67999(9)
H11 H 0.36250 0.32610 0.69540
H12 H 0.22980 0.38590 0.72730
C8 C 0.15073(14) 0.16168(11) 0.59678(9)
C9 C 0.16035(12) 0.05576(11) 0.55480(9)
C10 C 0.18574(12) 0.04693(11) 0.46904(9)
H13 H 0.19880 0.10710 0.43630
C11 C 0.19155(12) -0.05222(12) 0.43214(9)
H14 H 0.20630 -0.05940 0.37420
C12 C 0.17538(13) -0.13899(12) 0.48204(10)
C13 C 0.14879(13) -0.13195(12) 0.56721(10)
H15 H 0.13630 -0.19220 0.59990
C14 C 0.14119(13) -0.03315(11) 0.60279(9)
H16 H 0.12270 -0.02650 0.66030
C15 C 0.49696(13) 0.81360(11) 0.6188(1)
C16 C 0.52745(12) 0.90932(11) 0.66946(9)
C17 C 0.58734(14) 0.90404(12) 0.74791(10)
H17 H 0.60690 0.83850 0.77130
C18 C 0.61888(14) 0.99422(13) 0.79242(10)
H18 H 0.66330 0.99000 0.84420
C19 C 0.58389(13) 1.08977(12) 0.75933(10)
C20 C 0.52132(13) 1.09837(12) 0.68204(10)
H19 H 0.49700 1.16410 0.66070
C21 C 0.49542(12) 1.00808(11) 0.63690(9)
H20 H 0.45580 1.01310 0.58360
#END
