
#######################################################################
#
#                 Cambridge Crystallographic Data Centre
#                                CCDC
#
#######################################################################
#
# If this CIF has been generated from an entry in the Cambridge
# Structural Database, then it will include bibliographic, chemical,
# crystal, experimental, refinement or atomic coordinate data resulting
# from the CCDC's data processing and validation procedures.
#
#######################################################################

data_CSD_CIF_AKUZAI
_audit_creation_date 2011-05-03
_audit_creation_method CSD-ConQuest-V1
_database_code_CSD AKUZAI
_database_code_depnum_ccdc_archive 'CCDC 784199'
_chemical_formula_sum 'C21 H31 N3 O7'
_chemical_formula_moiety
;
C21 H31 N3 O7
;
_journal_coden_Cambridge 177
_journal_volume 9
_journal_year 2011
_journal_page_first 994
_journal_name_full 'Org.Biomol.Chem. '
loop_
_publ_author_name
"A.Desmarchelier"
"J.Marrot"
"X.Moreau"
"C.Greck"
_chemical_name_systematic
;
Di-t-butyl 
1-(2-methyl-4-nitro-1-oxo-3-phenylbutan-2-yl)hydrazine-1,2-dicarboxylate
;
_cell_volume   2482.552
_exptl_crystal_colour 'colorless'
_exptl_crystal_density_diffrn 1.171
_exptl_crystal_description 'parallelepiped'
_diffrn_ambient_temperature 296
#These two values have been output from a single CSD field.
_refine_ls_R_factor_gt 0.0659
_refine_ls_wR_factor_gt 0.0659
_symmetry_cell_setting monoclinic
_symmetry_space_group_name_H-M 'P 21/c'
_symmetry_Int_Tables_number 14
loop_
_symmetry_equiv_pos_site_id
_symmetry_equiv_pos_as_xyz
1 x,y,z
2 -x,1/2+y,1/2-z
3 -x,-y,-z
4 x,-1/2-y,-1/2+z
_cell_length_a 10.158(3)
_cell_length_b 14.069(4)
_cell_length_c 17.637(4)
_cell_angle_alpha 90
_cell_angle_beta 99.962(11)
_cell_angle_gamma 90
_cell_formula_units_Z 4
loop_
_atom_type_symbol
_atom_type_radius_bond
C 0.68
H 0.23
N 0.68
O 0.68
loop_
_atom_site_label
_atom_site_type_symbol
_atom_site_fract_x
_atom_site_fract_y
_atom_site_fract_z
O1 O 0.19153(18) 0.98375(13) 0.91710(11)
O2 O 0.16713(19) 0.64792(13) 0.93447(12)
O3 O 0.31797(19) 0.53198(12) 0.92052(13)
O4 O 0.14542(16) 0.83731(11) 0.76766(9)
O5 O 0.19078(16) 0.67953(12) 0.75785(9)
O6 O 0.4922(3) 1.0448(2) 0.71269(16)
O7 O 0.4962(3) 1.10323(17) 0.82345(16)
N1 N 0.30356(16) 0.76347(11) 0.85427(9)
N2 N 0.35419(17) 0.67678(12) 0.88311(10)
H1 H 0.43490 0.65960 0.88140
N3 N 0.4617(2) 1.04362(17) 0.77545(14)
C1 C 0.6743(2) 0.89025(16) 0.92799(14)
H2 H 0.66360 0.93290 0.96670
C2 C 0.7966(3) 0.8468(2) 0.92967(19)
H3 H 0.86710 0.86020 0.96940
C3 C 0.8144(3) 0.7840(2) 0.8728(2)
H4 H 0.89650 0.75430 0.87400
C4 C 0.7097(3) 0.7651(2) 0.8140(2)
H5 H 0.72170 0.72290 0.77520
C5 C 0.5871(3) 0.8083(2) 0.81198(15)
H6 H 0.51750 0.79500 0.77180
C6 C 0.5667(2) 0.87160(14) 0.86958(12)
C7 C 0.4325(2) 0.91841(14) 0.87031(11)
H7 H 0.44950 0.97080 0.90730
C8 C 0.33316(19) 0.85006(13) 0.90150(11)
C9 C 0.3916(2) 0.82283(16) 0.98498(11)
H8 H 0.47410 0.78910 0.98600
H9 H 0.32930 0.78310 1.00540
H10 H 0.40800 0.87940 1.01560
C10 C 0.2019(2) 0.89963(17) 0.90861(13)
H11 H 0.12570 0.86240 0.90620
C11 C 0.3731(2) 0.96347(17) 0.79322(14)
H12 H 0.36540 0.91600 0.75280
H13 H 0.28440 0.98760 0.79540
C12 C 0.2673(2) 0.61938(15) 0.91486(14)
C13 C 0.2552(4) 0.4554(2) 0.9595(3)
C14 C 0.1150(5) 0.4391(3) 0.9176(4)
H14 H 0.11590 0.43200 0.86350
H15 H 0.06010 0.49240 0.92560
H16 H 0.07970 0.38240 0.93680
C15 C 0.3440(5) 0.3718(3) 0.9491(4)
H17 H 0.43170 0.38230 0.97840
H18 H 0.34990 0.36530 0.89560
H19 H 0.30690 0.31490 0.96680
C16 C 0.2634(7) 0.4826(4) 1.0434(3)
H20 H 0.21400 0.54020 1.04690
H21 H 0.35520 0.49240 1.06640
H22 H 0.22630 0.43260 1.07010
C17 C 0.2049(2) 0.76493(15) 0.78969(12)
C18 C 0.0973(2) 0.6618(2) 0.68498(16)
C19 C 0.1372(4) 0.7258(4) 0.62271(19)
H23 H 0.08340 0.71070 0.57390
H24 H 0.22970 0.71580 0.62000
H25 H 0.12350 0.79110 0.63510
C20 C 0.1204(4) 0.5571(3) 0.6723(3)
H26 H 0.10270 0.52160 0.71600
H27 H 0.21140 0.54730 0.66610
H28 H 0.06150 0.53610 0.62690
C21 C -0.0440(3) 0.6794(2) 0.6960(2)
H29 H -0.06310 0.64160 0.73810
H30 H -0.10430 0.66250 0.64990
H31 H -0.05500 0.74550 0.70710
#END
