
#######################################################################
#
#                 Cambridge Crystallographic Data Centre
#                                CCDC
#
#######################################################################
#
# If this CIF has been generated from an entry in the Cambridge
# Structural Database, then it will include bibliographic, chemical,
# crystal, experimental, refinement or atomic coordinate data resulting
# from the CCDC's data processing and validation procedures.
#
#######################################################################

data_CSD_CIF_ALADAT
_audit_creation_date 2011-05-03
_audit_creation_method CSD-ConQuest-V1
_database_code_CSD ALADAT
_database_code_depnum_ccdc_archive 'CCDC 781919'
_chemical_formula_sum 'C96 H96 N16 O24'
_chemical_formula_moiety
;
C96 H96 N16 O24
;
_journal_coden_Cambridge 177
_journal_volume 9
_journal_year 2011
_journal_page_first 906
_journal_name_full 'Org.Biomol.Chem. '
loop_
_publ_author_name
"K.Helttunen"
"E.Nauha"
"A.Kurronen"
"P.Shahgaldian"
"M.Nissinen"
_chemical_name_systematic
;
N,N',N'',N''',N'''',N''''',N'''''',N'''''''-((2,8,14,20-Tetramethylpentacyclo[
19.3.1.1^3,7^.1^9,13^.1^15,19^]octacosa-1(25),3(28),4,6,9(27),10,12,15(26),16,
18,21,23-dodecaene-4,6,10,12,16,18,22,24-octayl)octakis(oxyethane-2,1-diyl))oc
takis(2-nitroaniline)
;
_chemical_name_common
;
2,8,14,20-Tetramethyl-4,6,10,12,16,18,22,24-octakis(2-[(2-nitrophenyl)amino]et
hoxy)-calix(4)arene
;
_cell_volume   4457.295
_exptl_crystal_colour 'yellow'
_exptl_crystal_density_diffrn 1.384
_exptl_crystal_description 'block'
_exptl_crystal_preparation 'nitromethane/dichloromethane'
_diffrn_ambient_temperature 173
#These two values have been output from a single CSD field.
_refine_ls_R_factor_gt 0.0748
_refine_ls_wR_factor_gt 0.0748
_symmetry_cell_setting triclinic
_symmetry_space_group_name_H-M 'P -1'
_symmetry_Int_Tables_number 2
loop_
_symmetry_equiv_pos_site_id
_symmetry_equiv_pos_as_xyz
1 x,y,z
2 -x,-y,-z
_cell_length_a 12.2700(3)
_cell_length_b 19.6334(7)
_cell_length_c 20.4221(6)
_cell_angle_alpha 75.230(2)
_cell_angle_beta 72.675(2)
_cell_angle_gamma 75.364(2)
_cell_formula_units_Z 2
loop_
_atom_type_symbol
_atom_type_radius_bond
C 0.68
H 0.23
N 0.68
O 0.68
loop_
_atom_site_label
_atom_site_type_symbol
_atom_site_fract_x
_atom_site_fract_y
_atom_site_fract_z
O1 O 0.3185(2) 1.14058(12) 0.11940(12)
O2 O 0.6088(2) 0.92650(13) 0.15237(12)
O3 O -0.14331(18) 1.18981(11) 0.29006(12)
O4 O 0.1781(2) 1.31373(12) 0.19177(18)
O5 O 0.2876(2) 0.80333(11) 0.25010(12)
O6 O 0.0164(2) 1.02792(11) 0.20939(12)
O7 O 0.77887(17) 0.81988(10) 0.29852(11)
O8 O 0.45198(18) 0.69677(10) 0.39022(12)
C1 C 0.5563(2) 1.00715(15) 0.22777(15)
C2 C 0.4923(3) 1.07180(15) 0.24621(17)
H1 H 0.50320 1.08540 0.28490
C3 C 0.4124(3) 1.11777(16) 0.21026(17)
C4 C 0.3978(3) 1.09559(17) 0.15415(17)
C5 C 0.4603(3) 1.03242(18) 0.13394(16)
H2 H 0.44940 1.01840 0.09550
C6 C 0.5397(3) 0.98950(16) 0.17076(16)
C7 C 0.3410(3) 1.18892(16) 0.22946(19)
H3 H 0.35940 1.22710 0.18710
C8 C 0.2109(3) 1.19021(16) 0.24610(17)
C9 C 0.1648(3) 1.12900(15) 0.27950(15)
H4 H 0.21650 1.08600 0.29250
C10 C 0.0475(3) 1.12707(15) 0.29495(15)
C11 C -0.0274(3) 1.19162(17) 0.27555(17)
C12 C 0.0149(3) 1.25403(17) 0.24358(19)
H5 H -0.03700 1.29760 0.23230
C13 C 0.1331(3) 1.25304(17) 0.22806(19)
C14 C 0.0011(3) 1.05940(15) 0.33523(16)
H6 H -0.07490 1.06340 0.32450
C15 C 0.0812(2) 0.99204(15) 0.31166(15)
C16 C 0.2204(2) 0.87920(15) 0.33183(15)
C17 C 0.2196(3) 0.86725(15) 0.26724(16)
C18 C 0.1526(3) 0.91582(16) 0.22565(16)
H7 H 0.15320 0.90710 0.18190
C19 C 0.0850(3) 0.97697(15) 0.24836(16)
C20 C 0.2911(3) 0.82216(16) 0.37653(15)
H8 H 0.28010 0.77460 0.37290
C21 C 0.4217(2) 0.82195(15) 0.35143(14)
C22 C 0.4683(2) 0.88334(15) 0.32162(14)
H9 H 0.41620 0.92770 0.31380
C23 C 0.5873(2) 0.88394(15) 0.30233(14)
C24 C 0.6624(2) 0.81780(15) 0.31526(15)
C25 C 0.1508(2) 0.94188(15) 0.35206(15)
H10 H 0.15040 0.95120 0.39560
C26 C 0.6196(3) 0.75449(15) 0.34313(15)
H11 H 0.67160 0.70980 0.34980
C27 C 0.5005(3) 0.75700(15) 0.36111(15)
C28 C 0.6375(3) 0.95235(15) 0.26805(15)
H12 H 0.71190 0.93860 0.23310
C29 C 0.3693(3) 1.2091(2) 0.2881(2)
H13 H 0.32100 1.25550 0.29690
H14 H 0.45160 1.21250 0.27510
H15 H 0.35360 1.17230 0.33060
C30 C -0.0242(3) 1.05755(18) 0.41325(17)
H16 H 0.04750 1.05760 0.42510
H17 H -0.05410 1.01400 0.43960
H18 H -0.08240 1.09990 0.42520
C31 C 0.2495(3) 0.82666(18) 0.45447(16)
H19 H 0.26290 0.87150 0.46060
H20 H 0.29280 0.78580 0.48140
H21 H 0.16620 0.82550 0.47110
C32 C 0.6679(3) 0.98200(18) 0.32126(18)
H22 H 0.72010 0.94440 0.34530
H23 H 0.59650 0.99780 0.35550
H24 H 0.70650 1.02280 0.29710
O9 O 0.3095(3) 1.31458(17) -0.03029(17)
O10 O 0.2396(3) 1.42416(19) -0.0736(2)
N1 N 0.1705(3) 1.22654(17) 0.04326(15)
H25 H 0.241(4) 1.244(2) 0.026(2)
N2 N 0.2243(3) 1.36481(19) -0.03728(19)
C33 C 0.2576(3) 1.1074(2) 0.09086(19)
H26 H 0.24140 1.06150 0.12210
H27 H 0.30470 1.09730 0.04450
C34 C 0.1466(3) 1.15817(19) 0.08400(19)
H28 H 0.10420 1.13840 0.06110
H29 H 0.09680 1.16420 0.13100
C35 C 0.0869(3) 1.2847(2) 0.03264(17)
C36 C -0.0309(3) 1.2801(2) 0.0577(2)
H30 H -0.05070 1.23460 0.08050
C37 C -0.1179(4) 1.3377(3) 0.0507(2)
H31 H -0.19660 1.33190 0.06870
C38 C -0.0926(4) 1.4052(3) 0.0173(3)
H32 H -0.15340 1.44610 0.01560
C39 C 0.0198(4) 1.4120(2) -0.0127(2)
H33 H 0.03710 1.45720 -0.03890
C40 C 0.1105(4) 1.3529(2) -0.0055(2)
O11 O 0.9362(3) 0.8683(2) 0.0760(2)
O12 O 1.0985(3) 0.8094(3) 0.0949(2)
N3 N 0.7521(3) 0.80793(18) 0.11857(17)
H34 H 0.793(4) 0.848(2) 0.096(2)
N4 N 0.9977(3) 0.8121(3) 0.09777(19)
C41 C 0.5657(3) 0.8873(2) 0.1200(2)
H35 H 0.58250 0.90510 0.06880
H36 H 0.48060 0.89090 0.13890
C42 C 0.6284(3) 0.8110(2) 0.1371(2)
H37 H 0.60180 0.79170 0.18770
H38 H 0.61000 0.78100 0.11100
C43 C 0.8284(3) 0.7497(2) 0.13946(19)
C44 C 0.7911(4) 0.6835(2) 0.1740(2)
H39 H 0.71170 0.68140 0.18150
C45 C 0.8636(5) 0.6238(3) 0.1965(3)
H40 H 0.83380 0.58130 0.21940
C46 C 0.9804(5) 0.6232(3) 0.1870(3)
H41 H 1.03040 0.58070 0.20320
C47 C 1.0238(4) 0.6861(3) 0.1531(2)
H42 H 1.10380 0.68670 0.14570
O13 O -0.5956(3) 1.31488(17) 0.42168(19)
O14 O -0.6996(2) 1.25710(18) 0.51211(15)
N5 N -0.4111(3) 1.24602(16) 0.34446(15)
H43 H -0.472(4) 1.290(2) 0.3508(19)
N6 N -0.6101(3) 1.25917(19) 0.46523(17)
C48 C 0.9484(3) 0.7480(2) 0.1303(2)
C49 C -0.2171(3) 1.25243(18) 0.26223(19)
H44 H -0.18490 1.26630 0.21120
H45 H -0.22100 1.29270 0.28420
C50 C -0.3353(3) 1.23762(19) 0.27601(18)
H46 H -0.37330 1.27010 0.24000
H47 H -0.32770 1.18780 0.27050
C51 C -0.4267(3) 1.19101(17) 0.40066(17)
C52 C -0.3472(3) 1.12588(17) 0.40158(17)
H48 H -0.28150 1.12080 0.36290
C53 C -0.3613(3) 1.06908(19) 0.45656(19)
H49 H -0.30600 1.02540 0.45520
C54 C -0.4550(4) 1.0748(2) 0.5139(2)
H50 H -0.46320 1.03560 0.55230
C55 C -0.5362(3) 1.1372(2) 0.51491(19)
H51 H -0.60250 1.14070 0.55340
C56 C -0.5219(3) 1.19504(18) 0.45988(18)
O15 O 0.4695(3) 1.35470(16) 0.1790(2)
O16 O 0.6287(3) 1.39287(17) 0.13351(18)
N7 N 0.2738(3) 1.43258(17) 0.15290(19)
H52 H 0.315(4) 1.397(3) 0.174(2)
N8 N 0.5230(3) 1.40246(19) 0.14294(19)
C57 C 0.1032(4) 1.3795(2) 0.1857(4)
H53 H 0.06640 1.39110 0.23280
H54 H 0.04080 1.37670 0.16550
C58 C 0.1642(4) 1.4361(2) 0.1416(4)
H55 H 0.17520 1.43400 0.09210
H56 H 0.11460 1.48300 0.14960
C59 C 0.3421(3) 1.48202(18) 0.11953(18)
C60 C 0.2933(4) 1.5514(2) 0.0876(2)
H57 H 0.21240 1.56270 0.09000
C61 C 0.3585(4) 1.6022(2) 0.0538(2)
H58 H 0.32220 1.64830 0.03350
C62 C 0.4756(4) 1.5885(2) 0.0482(2)
H59 H 0.52050 1.62450 0.02390
C63 C 0.5266(4) 1.5231(2) 0.0777(2)
H60 H 0.60800 1.51300 0.07370
C64 C 0.4614(3) 1.47063(19) 0.11369(19)
O17 O 0.1469(3) 0.60277(17) 0.29498(18)
O18 O 0.1650(3) 0.48782(19) 0.3274(2)
N9 N 0.3279(3) 0.65976(15) 0.22229(16)
H61 H 0.247(4) 0.661(2) 0.249(2)
N10 N 0.2081(3) 0.54185(18) 0.30201(19)
C65 C 0.2988(4) 0.78914(18) 0.18411(18)
H62 H 0.32910 0.82780 0.14650
H63 H 0.22250 0.78560 0.17930
C66 C 0.3832(4) 0.71844(19) 0.1799(2)
H64 H 0.41100 0.71210 0.13070
H65 H 0.45140 0.71870 0.19620
C67 C 0.3872(3) 0.59202(18) 0.24205(18)
C68 C 0.5105(3) 0.5760(2) 0.2227(2)
H66 H 0.55180 0.61250 0.19440
C69 C 0.5713(4) 0.5093(2) 0.2436(2)
H67 H 0.65390 0.50060 0.22920
C70 C 0.5162(4) 0.4544(2) 0.2849(2)
H68 H 0.56010 0.40940 0.30150
C71 C 0.3960(4) 0.4659(2) 0.3019(2)
H69 H 0.35660 0.42780 0.32770
C72 C 0.3329(3) 0.53377(18) 0.28107(19)
O19 O -0.2083(3) 0.99709(18) 0.00497(16)
O20 O -0.3485(4) 1.0485(2) -0.0447(2)
N11 N -0.1726(3) 1.06151(19) 0.09371(16)
H70 H -0.14490 1.02370 0.07390
N12 N -0.2883(4) 1.04770(19) -0.00581(17)
C73 C -0.0315(3) 1.00664(19) 0.16418(19)
H71 H -0.06430 0.96290 0.18760
H72 H 0.02820 0.99730 0.12090
C74 C -0.1251(4) 1.0694(2) 0.1482(2)
H73 H -0.18840 1.07380 0.19120
H74 H -0.09290 1.11390 0.13300
C75 C -0.2589(3) 1.1124(2) 0.07404(18)
C76 C -0.3030(4) 1.1780(2) 0.1031(2)
H75 H -0.26880 1.18690 0.13540
C77 C -0.3925(4) 1.2250(2) 0.0831(2)
H76 H -0.41880 1.26680 0.10310
C78 C -0.4481(4) 1.2204(2) 0.0394(2)
H77 H -0.51250 1.25590 0.02870
C79 C -0.4076(4) 1.1620(2) 0.0108(2)
H78 H -0.44390 1.15690 -0.02230
C80 C -0.3145(3) 1.1077(2) 0.02663(18)
O21 O 0.8512(3) 0.91476(14) 0.43551(17)
O22 O 0.7924(3) 0.89387(19) 0.54705(18)
N13 N 0.9610(2) 0.80893(16) 0.36902(15)
H79 H 0.942(3) 0.853(2) 0.3673(19)
N14 N 0.8500(3) 0.87442(19) 0.4924(2)
C81 C 0.8582(3) 0.75519(16) 0.31587(16)
H80 H 0.87150 0.72320 0.28270
H81 H 0.82690 0.72950 0.36370
C82 C 0.9701(3) 0.77678(18) 0.31134(17)
H82 H 1.03330 0.73390 0.31070
H83 H 0.99090 0.81130 0.26700
C83 C 0.9638(3) 0.77169(18) 0.43447(19)
C84 C 1.0138(4) 0.6976(2) 0.4463(2)
H84 H 1.04500 0.67400 0.40750
C85 C 1.0187(5) 0.6589(3) 0.5114(2)
H85 H 1.05200 0.60920 0.51720
C86 C 0.9754(5) 0.6915(3) 0.5698(3)
H86 H 0.98230 0.66460 0.61470
C87 C 0.9238(4) 0.7613(3) 0.5619(2)
H87 H 0.89260 0.78340 0.60160
C88 C 0.9157(3) 0.80173(19) 0.4956(2)
O23 O 0.3035(3) 0.62682(19) 0.60510(17)
O24 O 0.1788(3) 0.57987(18) 0.69338(16)
N15 N 0.3816(3) 0.57466(14) 0.48953(15)
H88 H 0.377(3) 0.6079(16) 0.5097(18)
N16 N 0.2377(3) 0.58345(19) 0.63254(18)
C89 C 0.5258(3) 0.62849(16) 0.39422(19)
H89 H 0.57310 0.62210 0.42780
H90 H 0.57900 0.62340 0.34780
C90 C 0.4486(3) 0.57368(17) 0.41825(18)
H91 H 0.39530 0.58420 0.38730
H92 H 0.49690 0.52530 0.41510
C91 C 0.3002(3) 0.53365(16) 0.52269(18)
C92 C 0.2842(3) 0.48326(17) 0.49020(19)
H93 H 0.33200 0.47820 0.44490
C93 C 0.2017(4) 0.44086(19) 0.5216(2)
H94 H 0.19350 0.40740 0.49780
C94 C 0.1306(4) 0.4467(2) 0.5877(2)
H95 H 0.07260 0.41810 0.60860
C95 C 0.1436(4) 0.4929(2) 0.6225(2)
H96 H 0.09550 0.49630 0.66810
C96 C 0.2282(3) 0.53587(18) 0.59146(19)
#END
