
#######################################################################
#
#                 Cambridge Crystallographic Data Centre
#                                CCDC
#
#######################################################################
#
# If this CIF has been generated from an entry in the Cambridge
# Structural Database, then it will include bibliographic, chemical,
# crystal, experimental, refinement or atomic coordinate data resulting
# from the CCDC's data processing and validation procedures.
#
#######################################################################

data_CSD_CIF_ALEFON
_audit_creation_date 2011-05-12
_audit_creation_method CSD-ConQuest-V1
_database_code_CSD ALEFON
_database_code_depnum_ccdc_archive 'CCDC 812955'
_chemical_formula_sum 'C12 H20 N1 O3'
_chemical_formula_moiety
;
C12 H20 N1 O3
;
_journal_coden_Cambridge 35
_journal_volume 75
_journal_year 2010
_journal_page_first 4737
_journal_name_full 'J.Org.Chem. '
loop_
_publ_author_name
"S.R.Burks"
"M.A.Makowsky"
"Z.A.Yaffe"
"C.Hoggle"
"P.Tsai"
"S.Muralidharan"
"M.K.Bowman"
"J.P.Y.Kao"
"G.M.Rosen"
_chemical_name_systematic
;
Methyl (1-oxyl-2,2,6,6-tetramethylpiperidin-4-ylidene)acetate
;
_cell_volume   1280.506
_exptl_crystal_colour 'orange'
_exptl_crystal_density_diffrn 1.174
_diffrn_ambient_temperature 250
#These two values have been output from a single CSD field.
_refine_ls_R_factor_gt 0.0488
_refine_ls_wR_factor_gt 0.0488
_symmetry_cell_setting monoclinic
_symmetry_space_group_name_H-M 'P 21/c'
_symmetry_Int_Tables_number 14
loop_
_symmetry_equiv_pos_site_id
_symmetry_equiv_pos_as_xyz
1 x,y,z
2 -x,1/2+y,1/2-z
3 -x,-y,-z
4 x,-1/2-y,-1/2+z
_cell_length_a 7.7657(7)
_cell_length_b 15.5387(14)
_cell_length_c 11.2639(10)
_cell_angle_alpha 90
_cell_angle_beta 109.5925(10)
_cell_angle_gamma 90
_cell_formula_units_Z 4
loop_
_atom_type_symbol
_atom_type_radius_bond
C 0.68
H 0.23
N 0.68
O 0.68
loop_
_atom_site_label
_atom_site_type_symbol
_atom_site_fract_x
_atom_site_fract_y
_atom_site_fract_z
O1 O 0.6610(2) 0.38706(11) 0.89383(14)
N1 N 0.5555(2) 0.35818(10) 0.78880(14)
C1 C 0.3837(2) 0.40869(12) 0.72710(19)
C2 C 0.4312(3) 0.49318(14) 0.6750(2)
H1 H 0.51930 0.52500 0.74250
H2 H 0.32130 0.52740 0.63990
H3 H 0.48320 0.48070 0.60970
C3 C 0.2963(3) 0.42736(15) 0.8258(2)
H4 H 0.27180 0.37360 0.86100
H5 H 0.18260 0.45820 0.78740
H6 H 0.37850 0.46220 0.89230
C4 C 0.2518(2) 0.35544(12) 0.61889(18)
H7 H 0.19010 0.31270 0.65450
H8 H 0.15810 0.39370 0.56430
C5 C 0.3469(2) 0.31039(12) 0.54149(18)
C6 C 0.4927(3) 0.25126(12) 0.61718(18)
H9 H 0.54740 0.22200 0.56150
H10 H 0.43870 0.20730 0.65640
C7 C 0.6412(2) 0.29927(13) 0.71939(18)
C8 C 0.7623(3) 0.35100(16) 0.6627(2)
H11 H 0.68620 0.38690 0.59490
H12 H 0.83270 0.31180 0.62990
H13 H 0.84480 0.38700 0.72730
C9 C 0.7577(3) 0.23421(15) 0.8149(2)
H14 H 0.85810 0.26390 0.87670
H15 H 0.80590 0.19160 0.77150
H16 H 0.68300 0.20600 0.85720
C10 C 0.3122(3) 0.32013(12) 0.41688(18)
H17 H 0.38220 0.28610 0.38110
C11 C 0.1776(2) 0.37773(12) 0.33009(17)
O2 O 0.0882(2) 0.43324(10) 0.35579(13)
O3 O 0.1677(2) 0.35998(9) 0.21150(13)
C12 C 0.0499(3) 0.41343(16) 0.11337(19)
H18 H -0.07520 0.40740 0.11170
H19 H 0.05800 0.39590 0.03270
H20 H 0.08750 0.47300 0.12950
H21? H 0.36330 0.49700 0.58560
H22? H 0.56120 0.49460 0.68820
H23? H 0.39930 0.54130 0.71840
H24? H 0.28340 0.48910 0.83280
H25? H 0.37270 0.40450 0.90640
H26? H 0.17670 0.40050 0.80150
H27? H 0.12210 0.44350 0.07090
H28? H -0.01110 0.45500 0.14990
H29? H -0.04070 0.37780 0.05310
#END
