
#######################################################################
#
#                 Cambridge Crystallographic Data Centre
#                                CCDC
#
#######################################################################
#
# If this CIF has been generated from an entry in the Cambridge
# Structural Database, then it will include bibliographic, chemical,
# crystal, experimental, refinement or atomic coordinate data resulting
# from the CCDC's data processing and validation procedures.
#
#######################################################################

data_CSD_CIF_ALENUC
_audit_creation_date 2016-04-19
_audit_creation_method CSD-ConQuest-V1
_database_code_CSD ALENUC
_database_code_depnum_ccdc_archive 'CCDC 1441956'
_chemical_formula_sum 'C78 H66 N6 O16'
_chemical_formula_moiety
;
C78 H66 N6 O16
;
_journal_coden_Cambridge 179
_journal_volume 55
_journal_year 2016
_journal_page_first 3977
_journal_name_full 'Angew.Chem.,Int.Ed. '
loop_
_publ_author_name
"Gang Zhang"
"V.Lami"
"F.Rominger"
"Yana Vaynzof"
"M.Mastalerz"
_chemical_name_systematic
;
3,8,13-Tri-t-butyl-2,7,12-trinitro-15-(3,8,13-tri-t-butyl-2,7,12-trinitro-10,1
5-dioxo-10,15-dihydro-5H-di-indeno[1,2-a:1',2'-c]fluoren-5-ylidene)-5H-diinden
o[1,2-a:1',2'-c]fluorene-5,10(15H)-dione
;
_cell_volume   3400.309
_exptl_crystal_colour 'red'
_exptl_crystal_density_diffrn 1.312
_exptl_crystal_description 'plate'
_diffrn_ambient_temperature 200
_refine_special_details
;
C391,C392,C393,N34,O15,O16 and C394,C395,C396,N34B,O15B,O16B disordered over 
two sites with occupancies 0.731:0.269.
;
#These two values have been output from a single CSD field.
_refine_ls_R_factor_gt 0.0546
_refine_ls_wR_factor_gt 0.0546
_symmetry_cell_setting triclinic
_symmetry_space_group_name_H-M 'P -1'
_symmetry_Int_Tables_number 2
loop_
_symmetry_equiv_pos_site_id
_symmetry_equiv_pos_as_xyz
1 x,y,z
2 -x,-y,-z
_cell_length_a 10.4203(5)
_cell_length_b 17.8167(9)
_cell_length_c 20.5187(11)
_cell_angle_alpha 66.236(4)
_cell_angle_beta 83.916(4)
_cell_angle_gamma 77.287(4)
_cell_formula_units_Z 2
loop_
_atom_type_symbol
_atom_type_radius_bond
C 0.68
H 0.23
N 0.68
O 0.68
loop_
_atom_site_label
_atom_site_type_symbol
_atom_site_fract_x
_atom_site_fract_y
_atom_site_fract_z
C1 C 0.5369(3) 0.5400(2) 0.26540(18)
C2 C 0.5731(3) 0.4537(2) 0.28865(18)
C3 C 0.5781(3) 0.6041(2) 0.20108(19)
C4 C 0.6297(3) 0.6041(2) 0.13510(18)
C5 C 0.6512(3) 0.5398(2) 0.10364(19)
C6 C 0.6085(3) 0.4646(2) 0.12523(19)
H1 H 0.55490 0.44730 0.16700
C7 C 0.6432(3) 0.4137(2) 0.08622(19)
C8 C 0.7172(3) 0.4465(2) 0.0237(2)
N1 N 0.7616(3) 0.3993(2) -0.0228(2)
O1 O 0.7101(3) 0.42941(18) -0.08156(16)
O2 O 0.8493(3) 0.33739(17) -0.00201(16)
C9 C 0.7559(3) 0.5218(2) -0.0010(2)
H2 H 0.80420 0.54100 -0.04450
C10 C 0.7219(3) 0.5691(2) 0.03985(19)
C11 C 0.7412(3) 0.6548(2) 0.0230(2)
O3 O 0.7964(2) 0.69799(16) -0.02896(14)
C12 C 0.6736(3) 0.6761(2) 0.08422(19)
C13 C 0.6555(3) 0.7493(2) 0.09545(18)
C14 C 0.6919(3) 0.8313(2) 0.05265(19)
C15 C 0.7630(3) 0.8599(2) -0.0101(2)
H3 H 0.79850 0.82240 -0.03270
C16 C 0.7850(3) 0.9425(2) -0.0419(2)
C17 C 0.7270(3) 0.9936(2) -0.0051(2)
N2 N 0.7313(3) 1.0835(2) -0.03333(19)
O4 O 0.6700(3) 1.12929(18) -0.0858(2)
O5 O 0.7906(5) 1.1075(2) -0.0016(2)
C18 C 0.6580(3) 0.9664(2) 0.0593(2)
H4 H 0.62370 1.00300 0.08280
C19 C 0.6408(3) 0.8843(2) 0.0880(2)
C20 C 0.5732(3) 0.8396(2) 0.1553(2)
O6 O 0.5241(2) 0.86865(15) 0.19902(14)
C21 C 0.5846(3) 0.7533(2) 0.15803(19)
C22 C 0.5455(3) 0.6839(2) 0.20868(18)
C23 C 0.4709(3) 0.6692(2) 0.27594(18)
C24 C 0.4068(3) 0.7250(2) 0.30672(19)
H5 H 0.41010 0.78260 0.28270
C25 C 0.3388(3) 0.6986(2) 0.37115(19)
C26 C 0.3489(3) 0.6122(2) 0.40611(19)
N3 N 0.2773(8) 0.5735(5) 0.4726(4)
O7 O 0.1577(5) 0.5764(4) 0.4690(3)
O8 O 0.3372(6) 0.5397(4) 0.5281(3)
C27 C 0.4115(3) 0.5544(2) 0.37834(19)
H6 H 0.41720 0.49610 0.40510
C28 C 0.4653(3) 0.5840(2) 0.31038(18)
C29 C 0.6026(3) 0.3275(2) 0.1156(2)
C30 C 0.5665(4) 0.3030(3) 0.0567(2)
H7 H 0.64080 0.30400 0.02300
H8 H 0.54650 0.24670 0.07820
H9 H 0.48930 0.34300 0.03150
C31 C 0.7187(4) 0.2611(2) 0.1575(2)
H10 H 0.79600 0.26140 0.12590
H11 H 0.73870 0.27380 0.19710
H12 H 0.69510 0.20580 0.17630
C32 C 0.4843(4) 0.3251(2) 0.1665(2)
H13 H 0.40900 0.36690 0.14100
H14 H 0.46210 0.26940 0.18520
H15 H 0.50570 0.33750 0.20600
C33 C 0.8686(4) 0.9676(2) -0.1110(2)
C34 C 0.9784(4) 0.8930(3) -0.1096(2)
H16 H 1.03780 0.87800 -0.07040
H17 H 0.93900 0.84510 -0.10260
H18 H 1.02800 0.90860 -0.15480
C35 C 0.7796(5) 0.9882(4) -0.1726(2)
H19 H 0.73570 0.94140 -0.16300
H20 H 0.71330 1.03870 -0.17790
H21 H 0.83250 0.99790 -0.21670
C36 C 0.9420(6) 1.0372(3) -0.1209(4)
H22 H 0.99720 1.02010 -0.07960
H23 H 0.99740 1.04770 -0.16410
H24 H 0.87820 1.08840 -0.12530
C37 C 0.2535(3) 0.7642(2) 0.39762(19)
C38 C 0.2441(7) 0.7335(4) 0.4798(3)
H25 H 0.33260 0.71830 0.49900
H26 H 0.19140 0.77820 0.49310
H27 H 0.20220 0.68450 0.49940
C39 C 0.3139(5) 0.8441(3) 0.3695(3)
H28 H 0.40250 0.83020 0.38830
H29 H 0.31890 0.86640 0.31730
H30 H 0.25850 0.88620 0.38500
C40 C 0.1169(5) 0.7879(4) 0.3676(4)
H31 H 0.12340 0.80720 0.31560
H32 H 0.07490 0.73900 0.38700
H33 H 0.06420 0.83270 0.38070
C41 C 0.5044(3) 0.3883(2) 0.33806(18)
C42 C 0.3739(3) 0.3889(2) 0.36241(18)
C43 C 0.2497(3) 0.4544(2) 0.34236(19)
C44 C 0.2197(3) 0.5305(2) 0.28417(19)
H34 H 0.28570 0.54840 0.24890
C45 C 0.0926(3) 0.5813(2) 0.27683(19)
C46 C 0.0026(3) 0.5488(2) 0.33222(19)
N4 N -0.1321(3) 0.5960(2) 0.33484(18)
O9 O -0.2168(2) 0.59006(16) 0.30081(15)
O10 O -0.1563(3) 0.63361(19) 0.37529(17)
C47 C 0.0279(3) 0.4726(2) 0.38810(19)
H35 H -0.03800 0.45350 0.42300
C48 C 0.1520(3) 0.4248(2) 0.39179(19)
C49 C 0.2004(3) 0.3384(2) 0.4420(2)
O11 O 0.1385(2) 0.29416(15) 0.48978(14)
C50 C 0.3413(3) 0.3172(2) 0.41900(18)
C51 C 0.4317(3) 0.2428(2) 0.44445(18)
C52 C 0.4282(3) 0.1630(2) 0.50584(19)
C53 C 0.3412(3) 0.1406(2) 0.5632(2)
H36 H 0.26020 0.17790 0.56250
C54 C 0.3692(3) 0.0644(2) 0.62218(19)
C55 C 0.4856(3) 0.0100(2) 0.61680(19)
N5 N 0.5274(3) -0.0722(2) 0.67364(17)
O12 O 0.4787(3) -0.13026(17) 0.67705(15)
O13 O 0.6139(3) -0.07943(16) 0.71362(15)
C56 C 0.5746(3) 0.0303(2) 0.55966(19)
H37 H 0.65320 -0.00820 0.55870
C57 C 0.5460(3) 0.1073(2) 0.50466(19)
C58 C 0.6315(3) 0.1489(2) 0.44503(19)
O14 O 0.7405(2) 0.11739(15) 0.42993(13)
C59 C 0.5576(3) 0.2375(2) 0.40986(19)
C60 C 0.5939(3) 0.3086(2) 0.35948(19)
C61 C 0.7183(3) 0.3234(2) 0.32014(18)
C62 C 0.8377(3) 0.2682(2) 0.32129(19)
H38 H 0.84420 0.21040 0.35050
C63 C 0.9472(3) 0.2955(2) 0.28089(18)
C64 C 0.9297(3) 0.3822(2) 0.24037(18)
N6 N 1.0347(3) 0.42206(18) 0.19464(19)
O15 O 1.0119(2) 0.46052(16) 0.13093(15)
O16 O 1.1358(2) 0.41911(15) 0.22202(14)
C65 C 0.8133(3) 0.4383(2) 0.23793(18)
H39 H 0.80790 0.49640 0.21020
C66 C 0.7050(3) 0.4090(2) 0.27626(18)
C67 C 0.0596(3) 0.6621(2) 0.21077(19)
C68 C 0.1818(3) 0.6966(2) 0.1744(2)
H40 H 0.15580 0.74820 0.13250
H41 H 0.22670 0.70840 0.20770
H42 H 0.24130 0.65520 0.15950
C69 C -0.0098(4) 0.6424(2) 0.1581(2)
H43 H -0.08840 0.62030 0.18130
H44 H -0.03540 0.69360 0.11590
H45 H 0.05060 0.60080 0.14390
C70 C -0.0352(4) 0.7343(2) 0.2257(2)
H46 H -0.11580 0.71520 0.24930
H47 H 0.00770 0.75080 0.25670
H48 H -0.05740 0.78230 0.18070
C71 C 0.2725(3) 0.0465(2) 0.6863(2)
C72 C 0.2079(4) 0.1277(2) 0.6947(2)
H49 H 0.27540 0.15230 0.70430
H50 H 0.16280 0.16700 0.65070
H51 H 0.14400 0.11610 0.73440
C73 C 0.1686(4) 0.0082(3) 0.6715(2)
H52 H 0.21050 -0.04400 0.66620
H53 H 0.10470 -0.00350 0.71120
H54 H 0.12350 0.04730 0.62750
C74 C 0.3372(4) -0.0108(3) 0.7590(2)
H55 H 0.40400 0.01490 0.76780
H56 H 0.26980 -0.01810 0.79700
H57 H 0.37850 -0.06540 0.75810
C75 C 1.0733(3) 0.2311(2) 0.2811(2)
C76 C 1.1361(3) 0.2508(2) 0.2059(2)
H58 H 1.15610 0.30710 0.18720
H59 H 1.21740 0.20990 0.20850
H60 H 1.07450 0.24810 0.17440
C77 C 1.1708(3) 0.2312(2) 0.3326(2)
H61 H 1.19180 0.28700 0.31620
H62 H 1.13100 0.21630 0.38050
H63 H 1.25170 0.19040 0.33370
C78 C 1.0434(3) 0.1428(2) 0.3086(2)
H64 H 1.12460 0.10280 0.30830
H65 H 1.00740 0.12780 0.35730
H66 H 0.97910 0.14140 0.27780
N7? N 0.315(2) 0.5706(14) 0.4877(11)
O17? O 0.2407(11) 0.5223(7) 0.4992(6)
O18? O 0.3630(11) 0.5908(8) 0.5279(6)
C79? C 0.1936(17) 0.8413(9) 0.3311(7)
H67? H 0.14200 0.82350 0.30470
H68? H 0.13640 0.88300 0.34660
H69? H 0.26460 0.86600 0.30040
C80? C 0.1321(12) 0.7318(8) 0.4435(9)
H70? H 0.08020 0.71570 0.41590
H71? H 0.16270 0.68330 0.48690
H72? H 0.07750 0.77630 0.45640
C81? C 0.3326(15) 0.7888(12) 0.4392(10)
H73? H 0.27640 0.83020 0.45520
H74? H 0.36900 0.73940 0.48060
H75? H 0.40470 0.81300 0.40910
#END
