
#######################################################################
#
#                 Cambridge Crystallographic Data Centre
#                                CCDC
#
#######################################################################
#
# If this CIF has been generated from an entry in the Cambridge
# Structural Database, then it will include bibliographic, chemical,
# crystal, experimental, refinement or atomic coordinate data resulting
# from the CCDC's data processing and validation procedures.
#
#######################################################################

data_CSD_CIF_ALICUV
_audit_creation_date 2016-04-19
_audit_creation_method CSD-ConQuest-V1
_database_code_CSD ALICUV
_database_code_depnum_ccdc_archive 'CCDC 1452740'
_chemical_formula_sum 'C10 H15 N4 O2'
_chemical_formula_moiety
;
C10 H15 N4 O2
;
_journal_coden_Cambridge 24
_journal_volume 57
_journal_year 2016
_journal_page_first 2327
_journal_name_full 'Tetrahedron Lett. '
loop_
_publ_author_name
"E.V.Tretyakov"
"R.Yu.Peshkov"
"E.V.Panteleeva"
"A.S.Scrypnik"
"D.V.Stass"
"G.V.Romanenko"
"V.I.Ovcharenko"
_chemical_name_systematic
;
(Z)-3-amino-3-(4,4,5,5-tetramethyl-4,5-dihydro-1H-imidazol-3-oxide-1-oxyl-2-yl
)acrylonitrile radical
;
_cell_volume   1171.237
_exptl_crystal_colour 'green'
_exptl_crystal_density_diffrn 1.266
_exptl_special_details
;
alpha polymorph

;
_exptl_crystal_description 'prism'
_diffrn_ambient_temperature 296
#These two values have been output from a single CSD field.
_refine_ls_R_factor_gt 0.069
_refine_ls_wR_factor_gt 0.069
_symmetry_cell_setting triclinic
_symmetry_space_group_name_H-M 'P -1'
_symmetry_Int_Tables_number 2
loop_
_symmetry_equiv_pos_site_id
_symmetry_equiv_pos_as_xyz
1 x,y,z
2 -x,-y,-z
_cell_length_a 7.0770(3)
_cell_length_b 10.5767(4)
_cell_length_c 15.8943(7)
_cell_angle_alpha 88.195(2)
_cell_angle_beta 84.276(3)
_cell_angle_gamma 81.712(2)
_cell_formula_units_Z 4
loop_
_atom_type_symbol
_atom_type_radius_bond
C 0.68
H 0.23
N 0.68
O 0.68
loop_
_atom_site_label
_atom_site_type_symbol
_atom_site_fract_x
_atom_site_fract_y
_atom_site_fract_z
O1 O 0.4111(3) 0.5119(2) 0.39684(15)
N1 N 0.5921(3) 0.4968(2) 0.37586(14)
C1 C 0.6829(4) 0.5905(3) 0.31754(17)
C2 C 0.6494(5) 0.5539(3) 0.2278(2)
H1 H 0.70450 0.61070 0.18730
H2 H 0.70870 0.46770 0.21710
H3 H 0.51410 0.56050 0.22320
C3 C 0.5881(5) 0.7252(3) 0.3364(2)
H4 H 0.64730 0.78400 0.29870
H5 H 0.45410 0.73270 0.32850
H6 H 0.60250 0.74470 0.39380
C4 C 0.8937(4) 0.5578(2) 0.33718(17)
C5 C 1.0427(4) 0.5674(3) 0.2633(2)
H7 H 1.03950 0.65510 0.24540
H8 H 1.16750 0.53520 0.28010
H9 H 1.01590 0.51780 0.21740
C6 C 0.9408(5) 0.6284(3) 0.4136(2)
H10 H 0.84460 0.62130 0.45990
H11 H 1.06400 0.59120 0.42990
H12 H 0.94310 0.71690 0.39890
N2 N 0.8975(3) 0.4201(2) 0.36598(13)
O2 O 1.0551(3) 0.34520(18) 0.36860(12)
C7 C 0.7199(4) 0.3939(2) 0.39224(16)
C8 C 0.6695(4) 0.2723(2) 0.42793(15)
N3 N 0.4851(4) 0.2543(3) 0.42218(18)
H13 H 0.448(5) 0.183(3) 0.440(2)
H14 H 0.398(5) 0.326(3) 0.4053(19)
C9 C 0.8053(4) 0.1848(3) 0.45892(18)
H15 H 0.927(5) 0.201(3) 0.460(2)
C10 C 0.7620(4) 0.0656(3) 0.4911(2)
N4 N 0.7296(4) -0.0318(3) 0.5168(2)
O3 O -0.1319(3) 1.0048(2) 0.10388(16)
N5 N 0.0400(3) 0.9892(2) 0.12533(15)
C11 C 0.1030(4) 1.0783(3) 0.18497(18)
C12 C 0.0114(5) 1.2139(3) 0.1687(2)
H16 H 0.05280 1.27000 0.20720
H17 H 0.04890 1.23910 0.11160
H18 H -0.12570 1.21860 0.17690
C13 C 0.0363(5) 1.0328(4) 0.2738(2)
H19 H 0.07310 1.08680 0.31490
H20 H -0.10070 1.03670 0.27940
H21 H 0.09460 0.94640 0.28280
C14 C 0.3227(4) 1.0505(2) 0.16392(17)
C15 C 0.4402(5) 1.0588(3) 0.2376(2)
H22 H 0.42590 1.14580 0.25550
H23 H 0.39620 1.00600 0.28360
H24 H 0.57280 1.02970 0.22040
C16 C 0.3984(5) 1.1268(3) 0.0881(2)
H25 H 0.38930 1.21490 0.10290
H26 H 0.53000 1.09350 0.07180
H27 H 0.32350 1.12000 0.04170
N6 N 0.3428(3) 0.9146(2) 0.13465(13)
O4 O 0.5030(3) 0.84220(18) 0.13056(13)
C17 C 0.1766(4) 0.8880(2) 0.10864(16)
C18 C 0.1438(4) 0.7674(2) 0.07338(16)
N7 N -0.0431(4) 0.7541(3) 0.07049(17)
H28 H -0.073(4) 0.689(3) 0.051(2)
H29 H -0.139(5) 0.830(3) 0.079(2)
C19 C 0.2937(4) 0.6759(3) 0.05102(19)
H30 H 0.428(4) 0.685(3) 0.0599(18)
C20 C 0.2614(4) 0.5568(3) 0.0212(2)
N8 N 0.2336(4) 0.4607(3) -0.0020(2)
#END
