
#######################################################################
#
#                 Cambridge Crystallographic Data Centre
#                                CCDC
#
#######################################################################
#
# If this CIF has been generated from an entry in the Cambridge
# Structural Database, then it will include bibliographic, chemical,
# crystal, experimental, refinement or atomic coordinate data resulting
# from the CCDC's data processing and validation procedures.
#
#######################################################################

data_CSD_CIF_ALINEQ
_audit_creation_date 2016-04-19
_audit_creation_method CSD-ConQuest-V1
_database_code_CSD ALINEQ
_database_code_depnum_ccdc_archive 'CCDC 1018376'
_chemical_formula_sum 'C17 H14 N4 O6'
_chemical_formula_moiety
;
C17 H14 N4 O6
;
_journal_coden_Cambridge 119
_journal_volume 1118
_journal_year 2016
_journal_page_first 344
_journal_name_full 'J.Mol.Struct. '
loop_
_publ_author_name
"S.Sharma"
"G.Brahmachari"
"B.Banerjee"
"K.Nurjamal"
"A.Kumar"
"A.K.Srivastava"
"N.Misra"
"S.K.Pandey"
"Rajnikant"
"V.K.Gupta"
_chemical_name_systematic
;
ethyl 
6'-amino-5'-cyano-2'-methyl-5-nitro-2-oxo-1,2-dihydrospiro[indole-3,4'-pyran]-
3'-carboxylate
;
_cell_volume   1672.839
_exptl_crystal_colour 'white'
_exptl_crystal_density_diffrn 1.47
_exptl_crystal_description 'block'
_diffrn_ambient_temperature 293
#These two values have been output from a single CSD field.
_refine_ls_R_factor_gt 0.0527
_refine_ls_wR_factor_gt 0.0527
_symmetry_cell_setting monoclinic
_symmetry_space_group_name_H-M 'P 21/c'
_symmetry_Int_Tables_number 14
loop_
_symmetry_equiv_pos_site_id
_symmetry_equiv_pos_as_xyz
1 x,y,z
2 -x,1/2+y,1/2-z
3 -x,-y,-z
4 x,-1/2-y,-1/2+z
_cell_length_a 14.9385(8)
_cell_length_b 9.3436(6)
_cell_length_c 12.0269(7)
_cell_angle_alpha 90
_cell_angle_beta 94.792(6)
_cell_angle_gamma 90
_cell_formula_units_Z 4
loop_
_atom_type_symbol
_atom_type_radius_bond
C 0.68
H 0.23
N 0.68
O 0.68
loop_
_atom_site_label
_atom_site_type_symbol
_atom_site_fract_x
_atom_site_fract_y
_atom_site_fract_z
N1 N 0.67218(15) -0.1126(2) 0.27001(18)
H1 H 0.65200 -0.16820 0.21670
C1 C 0.62973(17) 0.0066(3) 0.3002(2)
C2 C 0.68439(15) 0.0721(2) 0.4042(2)
C3 C 0.83595(16) -0.0356(3) 0.4951(2)
H2 H 0.84350 0.03170 0.55210
N2 N 0.97253(17) -0.1572(3) 0.5705(3)
O1 O 1.03125(15) -0.2451(3) 0.5584(2)
C4 C 0.89637(18) -0.1474(3) 0.4869(3)
O2 O 0.97476(16) -0.0752(3) 0.6498(2)
C5 C 0.8873(2) -0.2493(3) 0.4042(3)
H3 H 0.93070 -0.32000 0.40020
C6 C 0.81346(19) -0.2464(3) 0.3270(2)
H4 H 0.80500 -0.31590 0.27190
C7 C 0.75235(17) -0.1359(3) 0.3348(2)
C8 C 0.76483(16) -0.0288(3) 0.4157(2)
O3 O 0.55854(12) 0.05191(19) 0.25767(15)
C9 C 0.63119(16) 0.0594(3) 0.5051(2)
C10 C 0.59550(17) 0.1723(3) 0.5548(2)
O4 O 0.60411(12) 0.30765(18) 0.51587(16)
C11 C 0.65937(17) 0.3343(3) 0.4317(2)
C12 C 0.70192(16) 0.2308(3) 0.3815(2)
C13 C 0.62380(17) -0.0773(3) 0.5552(2)
N3 N 0.61748(18) -0.1866(3) 0.5958(2)
N4 N 0.54903(15) 0.1724(2) 0.64459(19)
H5 H 0.53890 0.09320 0.67770
H6 H 0.52920 0.25160 0.66940
C14 C 0.6584(2) 0.4916(3) 0.4116(3)
H7 H 0.62110 0.53720 0.46240
H8 H 0.63490 0.51060 0.33630
H9 H 0.71840 0.52840 0.42310
C15 C 0.76107(17) 0.2679(3) 0.2923(2)
O5 O 0.78524(14) 0.3866(2) 0.2685(2)
O6 O 0.78464(12) 0.15177(19) 0.23847(16)
C16 C 0.8479(2) 0.1692(3) 0.1540(2)
H10 H 0.89950 0.22450 0.18360
H11 H 0.81960 0.21900 0.08960
C17 C 0.8767(2) 0.0233(3) 0.1216(3)
H12 H 0.91880 0.03110 0.06590
H13 H 0.82520 -0.03010 0.09210
H14 H 0.90450 -0.02490 0.18600
#END
