
#######################################################################
#
#                 Cambridge Crystallographic Data Centre
#                                CCDC
#
#######################################################################
#
# If this CIF has been generated from an entry in the Cambridge
# Structural Database, then it will include bibliographic, chemical,
# crystal, experimental, refinement or atomic coordinate data resulting
# from the CCDC's data processing and validation procedures.
#
#######################################################################

data_CSD_CIF_ALOFUE
_audit_creation_date 2016-04-20
_audit_creation_method CSD-ConQuest-V1
_database_code_CSD ALOFUE
_database_code_depnum_ccdc_archive 'CCDC 1413357'
_chemical_formula_sum 'C18 H15 N1 O6'
_chemical_formula_moiety
;
C18 H15 N1 O6
;
_journal_coden_Cambridge 16
_journal_volume 72
_journal_year 2016
_journal_page_first 3198
_journal_name_full 'Tetrahedron '
loop_
_publ_author_name
"R.G.Soengas"
"V.L.M.Silva"
"D.Ide"
"A.Kato"
"S.M.Cardoso"
"F.A.A.Paz"
"A.M.S.Silva"
_chemical_name_systematic
;
7-(benzyloxy)-3-(1-hydroxy-2-nitroethyl)-4H-chromen-4-one
;
_cell_volume   1588.992
_exptl_crystal_colour 'colorless'
_exptl_crystal_density_diffrn 1.427
_exptl_crystal_description 'Plate'
_diffrn_ambient_temperature 180
#These two values have been output from a single CSD field.
_refine_ls_R_factor_gt 0.0627
_refine_ls_wR_factor_gt 0.0627
_symmetry_cell_setting monoclinic
_symmetry_space_group_name_H-M 'P 21/c'
_symmetry_Int_Tables_number 14
loop_
_symmetry_equiv_pos_site_id
_symmetry_equiv_pos_as_xyz
1 x,y,z
2 -x,1/2+y,1/2-z
3 -x,-y,-z
4 x,-1/2-y,-1/2+z
_cell_length_a 16.702(3)
_cell_length_b 11.122(2)
_cell_length_c 8.7263(16)
_cell_angle_alpha 90
_cell_angle_beta 101.404(5)
_cell_angle_gamma 90
_cell_formula_units_Z 4
loop_
_atom_type_symbol
_atom_type_radius_bond
C 0.68
H 0.23
N 0.68
O 0.68
loop_
_atom_site_label
_atom_site_type_symbol
_atom_site_fract_x
_atom_site_fract_y
_atom_site_fract_z
O1 O 0.73539(11) 0.63777(18) 0.3019(3)
O2 O 0.68865(12) 0.8097(2) 0.2191(3)
O3 O 0.54195(9) 0.61098(13) 0.09022(16)
H1 H 0.55000 0.54200 0.12950
O4 O 0.43436(8) 0.89349(12) 0.25898(17)
O5 O 0.35963(9) 0.55977(11) 0.36739(18)
O6 O 0.14197(7) 0.72161(11) 0.58079(16)
N1 N 0.68306(10) 0.71544(16) 0.2870(2)
C1 C 0.60610(11) 0.69189(18) 0.3454(2)
H2 H 0.59880 0.75400 0.42280
H3 H 0.60940 0.61240 0.39740
C2 C 0.53378(10) 0.69432(15) 0.2080(2)
H4 H 0.53310 0.77610 0.16000
C3 C 0.42672(12) 0.57598(16) 0.3053(3)
H5 H 0.45520 0.50630 0.28280
C4 C 0.45627(10) 0.68354(15) 0.2727(2)
C5 C 0.41352(10) 0.79330(14) 0.30071(19)
C6 C 0.3441(1) 0.77550(14) 0.37638(19)
C7 C 0.31906(10) 0.65933(14) 0.4051(2)
C8 C 0.25175(10) 0.63523(15) 0.4725(2)
H6 H 0.23610 0.55490 0.48930
C9 C 0.20861(10) 0.73170(16) 0.5142(2)
C10 C 0.23297(11) 0.85103(16) 0.4901(2)
H7 H 0.20360 0.91680 0.52130
C11 C 0.29901(11) 0.87191(15) 0.4216(2)
H8 H 0.31450 0.95220 0.40460
C12 C 0.11268(11) 0.60151(16) 0.5977(2)
H9 H 0.15360 0.55580 0.67290
H10 H 0.10390 0.55940 0.49570
C13 C 0.03372(10) 0.60816(16) 0.6554(2)
C14 C 0.01783(11) 0.5232(2) 0.7620(2)
H11 H 0.05860 0.46610 0.80390
C15 C -0.05752(12) 0.5209(2) 0.8083(2)
H12 H -0.06820 0.46140 0.87970
C16 C -0.11614(12) 0.6048(2) 0.7506(3)
H13 H -0.16700 0.60410 0.78360
C17 C -0.10114(12) 0.6905(2) 0.6441(3)
H14 H -0.14180 0.74850 0.60450
C18 C -0.02666(12) 0.69172(19) 0.5953(3)
H15 H -0.01690 0.74950 0.52100
#END
