
#######################################################################
#
#                 Cambridge Crystallographic Data Centre
#                                CCDC
#
#######################################################################
#
# If this CIF has been generated from an entry in the Cambridge
# Structural Database, then it will include bibliographic, chemical,
# crystal, experimental, refinement or atomic coordinate data resulting
# from the CCDC's data processing and validation procedures.
#
#######################################################################

data_CSD_CIF_ALONAQ
_audit_creation_date 2004-02-17
_audit_creation_method CSD-ConQuest-V1
_database_code_CSD ALONAQ
_database_code_depnum_ccdc_archive 'CCDC 223710'
_chemical_formula_sum 'C16 H19 N1 O1'
_chemical_formula_moiety
;
C16 H19 N1 O1
;
_journal_coden_Cambridge 4
_journal_volume 125
_journal_year 2003
_journal_page_first 12080
_journal_name_full 'J.Am.Chem.Soc. '
loop_
_publ_author_name
"A.G.Myers"
"S.B.Herzon"
_chemical_name_systematic
;
9-Oxy-1,1,3,3-tetramethyl-2,3-dihydro-1H-carbazole
;
_cell_volume   1334.038
_exptl_crystal_colour 'colorless'
_exptl_crystal_density_diffrn 1.202
_exptl_crystal_description 'block'
_diffrn_ambient_temperature 193
#These two values have been output from a single CSD field.
_refine_ls_R_factor_gt 0.0559
_refine_ls_wR_factor_gt 0.0559
_symmetry_cell_setting orthorhombic
_symmetry_space_group_name_H-M 'P 21 21 21'
_symmetry_Int_Tables_number 19
loop_
_symmetry_equiv_pos_site_id
_symmetry_equiv_pos_as_xyz
1 x,y,z
2 1/2-x,-y,1/2+z
3 -x,1/2+y,1/2-z
4 1/2+x,1/2-y,-z
_cell_length_a 9.477(5)
_cell_length_b 9.789(5)
_cell_length_c 14.380(8)
_cell_angle_alpha 90
_cell_angle_beta 90
_cell_angle_gamma 90
_cell_formula_units_Z 4
loop_
_atom_type_symbol
_atom_type_radius_bond
C 0.68
H 0.23
N 0.68
O 0.68
loop_
_atom_site_label
_atom_site_type_symbol
_atom_site_fract_x
_atom_site_fract_y
_atom_site_fract_z
C1 C 0.2355(3) 0.4599(4) 0.5468(2)
C2 C 0.3693(3) 0.5344(3) 0.55657(19)
N1 N 0.3484(3) 0.4718(3) 0.40705(17)
O1 O 0.3667(3) 0.4465(3) 0.31880(14)
C3 C 0.4306(3) 0.5391(3) 0.4647(2)
C4 C 0.2245(4) 0.4222(4) 0.4556(2)
C5 C 0.1166(4) 0.3500(4) 0.4186(2)
H1 H 0.11430 0.32530 0.35470
C6 C 0.0096(4) 0.3142(4) 0.4795(3)
H2 H -0.06930 0.26430 0.45700
C7 C 0.4343(3) 0.5856(3) 0.6306(2)
H3 H 0.38890 0.58010 0.68940
C8 C 0.1291(4) 0.4212(4) 0.6078(2)
H4 H 0.13430 0.44320 0.67200
C9 C 0.0158(4) 0.3498(4) 0.5722(2)
H5 H -0.05940 0.32470 0.61240
C10 C 0.5683(4) 0.6052(4) 0.4418(2)
C11 C 0.5776(4) 0.6520(4) 0.6248(2)
C12 C 0.6092(4) 0.6984(4) 0.5256(2)
H6 H 0.71200 0.71550 0.52160
H7 H 0.56170 0.78750 0.51640
C13 C 0.6794(4) 0.4963(4) 0.4229(3)
H8 H 0.68780 0.43630 0.47720
H9 H 0.77050 0.54030 0.41080
H10 H 0.65160 0.44230 0.36860
C14 C 0.5611(4) 0.6968(4) 0.3569(2)
H11 H 0.52790 0.64380 0.30340
H12 H 0.65510 0.73360 0.34360
H13 H 0.49550 0.77220 0.36880
C15 C 0.5829(5) 0.7790(4) 0.6862(3)
H14 H 0.67570 0.82240 0.68040
H15 H 0.56690 0.75290 0.75110
H16 H 0.50960 0.84340 0.66650
C16 C 0.6840(4) 0.5481(5) 0.6635(3)
H17 H 0.68510 0.46670 0.62380
H18 H 0.65650 0.52220 0.72680
H19 H 0.77830 0.58910 0.66460
#END
