
#######################################################################
#
#                 Cambridge Crystallographic Data Centre
#                                CCDC
#
#######################################################################
#
# If this CIF has been generated from an entry in the Cambridge
# Structural Database, then it will include bibliographic, chemical,
# crystal, experimental, refinement or atomic coordinate data resulting
# from the CCDC's data processing and validation procedures.
#
#######################################################################

data_CSD_CIF_ALOPAU
_audit_creation_date 2016-05-17
_audit_creation_method CSD-ConQuest-V1
_database_code_CSD ALOPAU
_database_code_depnum_ccdc_archive 'CCDC 1480178'
_chemical_formula_sum 'C29 H27 N1 O4'
_chemical_formula_moiety
;
C29 H27 N1 O4
;
_journal_coden_Cambridge 1078
_journal_year 2016
_journal_name_full 'CSD Communication(Private Communication) '
loop_
_publ_author_name
"M.Nieger"
"F.Vogtle"
"M.Horn"
_chemical_name_systematic
;
1-((Tetracyclo[14.2.2.2^4,7^.2^10,13^]tetracosa-1(18),4,6,10,12,16,19,21,23-no
naen-5-ylcarbonyl)oxy)pyrrolidine-2,5-dione
;
_chemical_name_common
;
2,5-Dioxopyrrolidin-1-yl 1,4,7(1,4)-tribenzenacyclononaphane-1$2!-carboxylate
;
_cell_volume   2401.808
_exptl_crystal_colour 'colorless'
_exptl_crystal_density_diffrn 1.254
_exptl_crystal_description 'blocks'
_diffrn_ambient_temperature 123
#These two values have been output from a single CSD field.
_refine_ls_R_factor_gt 0.0567
_refine_ls_wR_factor_gt 0.0567
_symmetry_cell_setting monoclinic
_symmetry_space_group_name_H-M 'P 21/c'
_symmetry_Int_Tables_number 14
loop_
_symmetry_equiv_pos_site_id
_symmetry_equiv_pos_as_xyz
1 x,y,z
2 -x,1/2+y,1/2-z
3 -x,-y,-z
4 x,-1/2-y,-1/2+z
_cell_length_a 20.9360(5)
_cell_length_b 9.4680(3)
_cell_length_c 12.3350(4)
_cell_angle_alpha 90
_cell_angle_beta 100.794(4)
_cell_angle_gamma 90
_cell_formula_units_Z 4
loop_
_atom_type_symbol
_atom_type_radius_bond
C 0.68
H 0.23
N 0.68
O 0.68
loop_
_atom_site_label
_atom_site_type_symbol
_atom_site_fract_x
_atom_site_fract_y
_atom_site_fract_z
C1 C 0.14575(10) 0.2570(2) 0.51037(18)
H1 H 0.12610 0.16210 0.49600
H2 H 0.13140 0.31500 0.44340
C2 C 0.11992(9) 0.3245(2) 0.60712(18)
H3 H 0.07350 0.34920 0.58210
H4 H 0.12250 0.25420 0.66720
C3 C 0.15690(9) 0.4563(2) 0.65272(16)
C4 C 0.16069(8) 0.5790(2) 0.59093(15)
C5 C 0.20148(9) 0.6915(2) 0.63340(16)
H5 H 0.20480 0.77130 0.58810
C6 C 0.23702(9) 0.6883(2) 0.74015(16)
C7 C 0.23131(10) 0.5680(2) 0.80236(17)
H6 H 0.25420 0.56330 0.87640
C8 C 0.19319(10) 0.4555(2) 0.75903(17)
H7 H 0.19170 0.37430 0.80370
C9 C 0.27864(10) 0.8141(2) 0.78494(19)
H8 H 0.25460 0.87130 0.83120
H9 H 0.28540 0.87370 0.72220
C10 C 0.34541(10) 0.7750(3) 0.85382(18)
H10 H 0.37170 0.86190 0.87080
H11 H 0.33920 0.73300 0.92460
C11 C 0.38201(9) 0.6717(3) 0.79451(18)
C12 C 0.39928(11) 0.7074(3) 0.69582(19)
H12 H 0.39200 0.80090 0.66840
C13 C 0.4271(1) 0.6089(3) 0.63603(19)
H13 H 0.43860 0.63630 0.56810
C14 C 0.43869(9) 0.4703(3) 0.67282(19)
C15 C 0.42471(11) 0.4378(3) 0.7747(2)
H14 H 0.43440 0.34600 0.80440
C16 C 0.39668(11) 0.5362(3) 0.83493(19)
H15 H 0.38740 0.51060 0.90480
C17 C 0.46397(11) 0.3616(3) 0.6014(2)
H16 H 0.51110 0.34860 0.62930
H17 H 0.45870 0.39920 0.52540
C18 C 0.43081(11) 0.2173(3) 0.5969(2)
H18 H 0.44470 0.16950 0.66890
H19 H 0.44580 0.15910 0.54000
C19 C 0.35642(10) 0.2239(2) 0.57111(19)
C20 C 0.32335(11) 0.3052(3) 0.48547(19)
H20 H 0.34720 0.35540 0.43940
C21 C 0.25554(11) 0.3151(2) 0.46540(18)
H21 H 0.23410 0.37240 0.40650
C22 C 0.21909(10) 0.2427(2) 0.52987(17)
C23 C 0.25240(11) 0.1596(3) 0.6148(2)
H22 H 0.22870 0.10730 0.65990
C24 C 0.31985(11) 0.1519(3) 0.6347(2)
H23 H 0.34140 0.09520 0.69400
C25 C 0.11760(9) 0.5964(2) 0.48220(15)
O1 O 0.06351(6) 0.55400(16) 0.45382(11)
O2 O 0.14778(6) 0.67823(14) 0.4120(1)
N1 N 0.10534(7) 0.70476(18) 0.31401(12)
C26 C 0.06163(9) 0.8164(2) 0.30550(17)
O3 O 0.06058(8) 0.90093(18) 0.37801(13)
C27 C 0.01988(10) 0.8036(3) 0.19292(17)
H24 H 0.02690 0.88500 0.14620
H25 H -0.02670 0.79990 0.19820
C28 C 0.04081(10) 0.6655(2) 0.14440(17)
H26 H 0.00390 0.59850 0.12910
H27 H 0.05630 0.68410 0.07470
C29 C 0.09485(10) 0.6058(2) 0.22994(16)
O4 O 0.12505(8) 0.49721(17) 0.23118(13)
#END
