
#######################################################################
#
#                 Cambridge Crystallographic Data Centre
#                                CCDC
#
#######################################################################
#
# If this CIF has been generated from an entry in the Cambridge
# Structural Database, then it will include bibliographic, chemical,
# crystal, experimental, refinement or atomic coordinate data resulting
# from the CCDC's data processing and validation procedures.
#
#######################################################################

data_CSD_CIF_ALOTUS
_audit_creation_date 2016-05-17
_audit_creation_method CSD-ConQuest-V1
_database_code_CSD ALOTUS
_database_code_depnum_ccdc_archive 'CCDC 1475898'
_chemical_formula_sum 'C17 H19 N1 O5'
_chemical_formula_moiety
;
C17 H19 N1 O5
;
_journal_coden_Cambridge 1078
_journal_year 2016
_journal_name_full 'CSD Communication(Private Communication) '
loop_
_publ_author_name
"M.E.Light"
"A.Saint-Dizier"
"J.Kilburn"
_chemical_name_systematic
;
Ethyl 2-allyl-2-(4-nitrobenzoyl)pent-4-enoate
;
_cell_volume    813.464
_exptl_crystal_colour 'pale yellow'
_exptl_crystal_density_diffrn 1.296
_exptl_crystal_description 'Plate'
_diffrn_ambient_temperature 120
#These two values have been output from a single CSD field.
_refine_ls_R_factor_gt 0.0471
_refine_ls_wR_factor_gt 0.0471
_symmetry_cell_setting triclinic
_symmetry_space_group_name_H-M 'P -1'
_symmetry_Int_Tables_number 2
loop_
_symmetry_equiv_pos_site_id
_symmetry_equiv_pos_as_xyz
1 x,y,z
2 -x,-y,-z
_cell_length_a 6.8087(2)
_cell_length_b 8.5425(2)
_cell_length_c 14.0803(3)
_cell_angle_alpha 85.780(5)
_cell_angle_beta 87.850(3)
_cell_angle_gamma 85.197(4)
_cell_formula_units_Z 2
loop_
_atom_type_symbol
_atom_type_radius_bond
C 0.68
H 0.23
N 0.68
O 0.68
loop_
_atom_site_label
_atom_site_type_symbol
_atom_site_fract_x
_atom_site_fract_y
_atom_site_fract_z
N1 N 0.1255(2) 0.86097(17) -0.06228(11)
O1 O 0.2007(2) 0.93801(17) -0.12878(10)
O2 O -0.05317(19) 0.85418(15) -0.04908(10)
O3 O 0.80849(17) 0.44850(14) 0.15729(9)
O4 O 0.28538(17) 0.41170(14) 0.37397(9)
O5 O 0.41472(16) 0.25326(13) 0.26253(8)
C1 C 0.5797(3) 0.6680(2) 0.04825(13)
C2 C 0.4576(3) 0.7587(2) -0.01429(14)
C3 C 0.2577(3) 0.76991(19) 0.00614(12)
C4 C 0.1762(3) 0.6975(2) 0.08696(13)
C5 C 0.3007(3) 0.6101(2) 0.15059(14)
C6 C 0.5037(2) 0.59280(19) 0.13094(12)
C7 C 0.6492(2) 0.49248(19) 0.19257(12)
C8 C 0.6050(2) 0.45699(19) 0.29945(12)
C9 C 0.4148(2) 0.37533(18) 0.31718(12)
C10 C 0.2453(3) 0.1579(2) 0.27373(15)
C11 C 0.3117(3) -0.0023(2) 0.24366(17)
C12 C 0.5864(3) 0.6144(2) 0.34849(14)
C13 C 0.7557(3) 0.7129(2) 0.32689(14)
C14 C 0.8817(3) 0.7416(3) 0.39067(18)
C15 C 0.7743(3) 0.3421(2) 0.34065(13)
C16 C 0.7373(2) 0.2840(2) 0.44204(14)
C17 C 0.6993(3) 0.1385(2) 0.46889(18)
H1 H 0.723(3) 0.653(2) 0.0343(15)
H2 H 0.512(3) 0.809(2) -0.0717(16)
H3 H 0.040(3) 0.709(2) 0.1007(15)
H4 H 0.240(3) 0.567(2) 0.2076(16)
H5 H 0.137(3) 0.214(2) 0.2325(15)
H6 H 0.201(3) 0.156(2) 0.3377(15)
H7 H 0.198(3) -0.069(3) 0.2553(16)
H8 H 0.361(3) -0.001(2) 0.1800(18)
H9 H 0.423(4) -0.053(3) 0.2791(17)
H10 H 0.463(3) 0.6736(19) 0.3276(12)
H11 H 0.572(2) 0.5886(19) 0.4162(14)
H12 H 0.774(3) 0.757(2) 0.2611(17)
H13 H 0.993(3) 0.807(3) 0.3743(16)
H14 H 0.865(4) 0.701(3) 0.459(2)
H15 H 0.896(3) 0.399(2) 0.3340(14)
H16 H 0.794(3) 0.252(2) 0.3018(14)
H17 H 0.741(3) 0.360(2) 0.4899(14)
H18 H 0.672(3) 0.103(3) 0.5339(19)
H19 H 0.705(3) 0.057(3) 0.4216(17)
#END
