
#######################################################################
#
#                 Cambridge Crystallographic Data Centre
#                                CCDC
#
#######################################################################
#
# If this CIF has been generated from an entry in the Cambridge
# Structural Database, then it will include bibliographic, chemical,
# crystal, experimental, refinement or atomic coordinate data resulting
# from the CCDC's data processing and validation procedures.
#
#######################################################################

data_CSD_CIF_ALUJUO
_audit_creation_date 2016-05-18
_audit_creation_method CSD-ConQuest-V1
_database_code_CSD ALUJUO
_database_code_depnum_ccdc_archive 'CCDC 1475694'
_chemical_formula_sum 'C34 H39 N7 O2'
_chemical_formula_moiety
;
C34 H39 N7 O2
;
_journal_coden_Cambridge 1078
_journal_year 2016
_journal_name_full 'CSD Communication(Private Communication) '
loop_
_publ_author_name
"M.E.Light"
"M.Kostermans"
"Wim Dehean"
"P.A.Gale"
_chemical_name_systematic
;
2,2,7,7,12,12,17,17-octamethyl-5-((4-nitrophenyl)diazenyl)-4,21,22,23-tetraaza
pentacyclo[16.2.1.1^3,6^.1^8,11^.1^13,16^]tetracosa-1(20),3(24),5,8,10,13,15,1
8-octaene
;
_cell_volume   1581.590
_exptl_crystal_colour 'orange'
_exptl_crystal_density_diffrn 1.213
_exptl_special_details
;
Chemistry Faculty of Natural & Environmental Sciences, University of 
Southampton, Highfield, Southampton, SO17 1BJ
;
_exptl_crystal_description 'Slab'
_diffrn_ambient_temperature 120
#These two values have been output from a single CSD field.
_refine_ls_R_factor_gt 0.1232
_refine_ls_wR_factor_gt 0.1232
_symmetry_cell_setting triclinic
_symmetry_space_group_name_H-M 'P -1'
_symmetry_Int_Tables_number 2
loop_
_symmetry_equiv_pos_site_id
_symmetry_equiv_pos_as_xyz
1 x,y,z
2 -x,-y,-z
_cell_length_a 10.0903(4)
_cell_length_b 11.6041(8)
_cell_length_c 14.4733(9)
_cell_angle_alpha 83.719(2)
_cell_angle_beta 76.782(4)
_cell_angle_gamma 73.699(4)
_cell_formula_units_Z 2
loop_
_atom_type_symbol
_atom_type_radius_bond
C 0.68
H 0.23
N 0.68
O 0.68
loop_
_atom_site_label
_atom_site_type_symbol
_atom_site_fract_x
_atom_site_fract_y
_atom_site_fract_z
C1 C 0.8661(5) 0.7063(4) -0.4203(3)
C2 C 0.9260(5) 0.7107(5) -0.5153(4)
H1 H 0.89530 0.68540 -0.56520
C3 C 1.0426(5) 0.7601(4) -0.5250(4)
H2 H 1.10450 0.77270 -0.58310
C4 C 1.0508(5) 0.7862(4) -0.4386(3)
C5 C 1.2865(5) 0.7218(5) -0.3969(4)
H3 H 1.35750 0.74760 -0.37420
H4 H 1.32850 0.68650 -0.45890
H5 H 1.25350 0.66170 -0.35140
C6 C 1.1609(5) 0.8310(5) -0.4067(4)
C7 C 1.2131(5) 0.9198(5) -0.4815(4)
H6 H 1.13560 0.99190 -0.48590
H7 H 1.24700 0.88270 -0.54320
H8 H 1.29040 0.94190 -0.46370
C8 C 1.0985(5) 0.8859(4) -0.3107(3)
C9 C 1.1125(5) 0.8415(4) -0.2213(4)
H9 H 1.17240 0.76630 -0.20550
C10 C 1.0227(5) 0.9266(5) -0.1560(4)
H10 H 1.01180 0.91870 -0.08890
C11 C 0.9540(5) 1.0227(4) -0.2069(3)
C12 C 0.9237(5) 1.2423(4) -0.2022(4)
H11 H 0.95910 1.24640 -0.27110
H12 H 1.00270 1.22670 -0.16980
H13 H 0.85610 1.31890 -0.18270
C13 C 0.8503(5) 1.1408(4) -0.1757(3)
C14 C 0.8024(5) 1.1327(5) -0.0669(3)
H14 H 0.73680 1.20930 -0.04530
H15 H 0.88480 1.11570 -0.03760
H16 H 0.75510 1.06810 -0.04840
C15 C 0.7245(5) 1.1655(4) -0.2214(3)
C16 C 0.6663(5) 1.2607(4) -0.2776(3)
H17 H 0.70060 1.32940 -0.29870
C17 C 0.5452(5) 1.2377(4) -0.2986(3)
H18 H 0.48360 1.28830 -0.33590
C18 C 0.5341(5) 1.1295(4) -0.2553(3)
C19 C 0.3208(5) 1.0842(4) -0.1479(4)
H19 H 0.37360 1.04820 -0.09820
H20 H 0.24380 1.04660 -0.14380
H21 H 0.28170 1.17060 -0.13940
C20 C 0.4210(5) 1.0637(4) -0.2466(3)
C21 C 0.3343(5) 1.1122(5) -0.3239(4)
H22 H 0.28490 1.19700 -0.31430
H23 H 0.26520 1.06600 -0.31990
H24 H 0.39750 1.10430 -0.38660
C22 C 0.4896(5) 0.9306(4) -0.2591(4)
C23 C 0.6099(5) 0.8733(4) -0.3232(3)
H25 H 0.66760 0.91250 -0.36980
C24 C 0.6320(5) 0.7498(4) -0.3079(3)
C25 C 0.5213(5) 0.7329(4) -0.2341(3)
C26 C 0.8109(5) 0.5484(5) -0.3000(4)
H26 H 0.88370 0.48740 -0.33870
H27 H 0.73600 0.51290 -0.26400
H28 H 0.85290 0.57800 -0.25590
C27 C 0.7480(5) 0.6539(4) -0.3655(4)
C28 C 0.6851(5) 0.6053(5) -0.4355(4)
H29 H 0.64570 0.67130 -0.47790
H30 H 0.61020 0.56940 -0.39990
H31 H 0.75930 0.54410 -0.47310
C29 C 0.3572(5) 0.5364(4) -0.0802(3)
C30 C 0.2276(5) 0.5474(5) -0.0170(4)
H32 H 0.15960 0.62320 -0.01150
C31 C 0.1969(5) 0.4490(5) 0.0378(4)
H33 H 0.10950 0.45670 0.08190
C32 C 0.2967(5) 0.3390(5) 0.0269(3)
C33 C 0.4235(5) 0.3251(5) -0.0371(3)
H34 H 0.48910 0.24820 -0.04460
C34 C 0.4541(5) 0.4240(4) -0.0900(4)
H35 H 0.54200 0.41540 -0.13360
N1 N 0.9431(4) 0.7524(4) -0.3741(3)
H36 H 0.92620 0.75950 -0.31230
N2 N 1.0020(4) 0.9969(4) -0.3013(3)
H37 H 0.97480 1.04460 -0.34890
N3 N 0.6426(4) 1.0863(3) -0.2079(3)
H38 H 0.65740 1.01800 -0.17390
N4 N 0.4368(4) 0.8443(3) -0.2067(3)
H39 H 0.35980 0.85720 -0.16170
N5 N 0.4945(4) 0.6278(4) -0.1925(3)
N6 N 0.3807(4) 0.6439(4) -0.1269(3)
N7 N 0.2692(5) 0.2361(4) 0.0878(3)
O1 O 0.3557(4) 0.1372(3) 0.0756(3)
O2 O 0.1609(4) 0.2531(3) 0.1508(3)
#END
