
#######################################################################
#
#                 Cambridge Crystallographic Data Centre
#                                CCDC
#
#######################################################################
#
# If this CIF has been generated from an entry in the Cambridge
# Structural Database, then it will include bibliographic, chemical,
# crystal, experimental, refinement or atomic coordinate data resulting
# from the CCDC's data processing and validation procedures.
#
#######################################################################

data_CSD_CIF_ALUKOJ
_audit_creation_date 2016-05-18
_audit_creation_method CSD-ConQuest-V1
_database_code_CSD ALUKOJ
_database_code_depnum_ccdc_archive 'CCDC 1475699'
_chemical_formula_sum 'C15 H11 N3 O3'
_chemical_formula_moiety
;
C15 H11 N3 O3
;
_journal_coden_Cambridge 1078
_journal_year 2016
_journal_name_full 'CSD Communication(Private Communication) '
loop_
_publ_author_name
"M.E.Light"
"G.Bates"
"P.A.Gale"
_chemical_name_systematic
;
7-nitro-N-phenyl-1H-indole-2-carboxamide
;
_cell_volume   1250.609
_exptl_crystal_colour 'yellow'
_exptl_crystal_density_diffrn 1.494
_exptl_special_details
;
Chemistry Faculty of Natural & Environmental Sciences, University of 
Southampton, Highfield, Southampton, SO17 1BJ
;
_exptl_crystal_description 'Plate'
_diffrn_ambient_temperature 120
#These two values have been output from a single CSD field.
_refine_ls_R_factor_gt 0.1593
_refine_ls_wR_factor_gt 0.1593
_symmetry_cell_setting triclinic
_symmetry_space_group_name_H-M 'P -1'
_symmetry_Int_Tables_number 2
loop_
_symmetry_equiv_pos_site_id
_symmetry_equiv_pos_as_xyz
1 x,y,z
2 -x,-y,-z
_cell_length_a 9.0421(9)
_cell_length_b 11.8022(14)
_cell_length_c 12.7011(10)
_cell_angle_alpha 67.323(3)
_cell_angle_beta 89.630(4)
_cell_angle_gamma 89.925(4)
_cell_formula_units_Z 4
loop_
_atom_type_symbol
_atom_type_radius_bond
C 0.68
H 0.23
N 0.68
O 0.68
loop_
_atom_site_label
_atom_site_type_symbol
_atom_site_fract_x
_atom_site_fract_y
_atom_site_fract_z
O1 O 0.4383(7) 0.2660(6) -0.3965(5)
O2 O 0.6001(7) 0.1241(6) -0.3145(5)
O3 O 0.9327(6) -0.1753(5) -0.3066(4)
N1 N 0.5279(7) 0.1917(6) -0.3998(5)
N2 N 0.7467(7) 0.0059(6) -0.4345(5)
H1 H 0.75580 -0.00170 -0.36310
N3 N 0.9897(7) -0.2290(5) -0.4576(5)
H2 H 0.96890 -0.20990 -0.53000
C1 C 0.5545(8) 0.1752(7) -0.5056(6)
C2 C 0.4738(8) 0.2440(7) -0.5992(6)
H3 H 0.40770 0.30530 -0.59610
C3 C 0.4901(8) 0.2226(7) -0.7000(6)
H4 H 0.43300 0.27030 -0.76440
C4 C 0.5847(9) 0.1358(7) -0.7098(6)
H5 H 0.59080 0.12210 -0.77870
C5 C 0.6719(8) 0.0681(6) -0.6155(6)
C6 C 0.6566(8) 0.0869(6) -0.5108(6)
C7 C 0.7770(8) -0.0291(7) -0.5939(6)
H6 H 0.80940 -0.06350 -0.64640
C8 C 0.8226(8) -0.0635(7) -0.4822(6)
C9 C 0.9198(8) -0.1611(7) -0.4074(6)
C10 C 1.0916(8) -0.3263(6) -0.4096(6)
C11 C 1.1345(10) -0.3898(7) -0.4765(7)
H7 H 1.09440 -0.36810 -0.55070
C12 C 1.2364(10) -0.4855(8) -0.4353(7)
H8 H 1.26630 -0.52850 -0.48150
C13 C 1.2941(9) -0.5178(8) -0.3266(7)
H9 H 1.36290 -0.58340 -0.29800
C14 C 1.2512(9) -0.4543(8) -0.2604(7)
H10 H 1.29060 -0.47700 -0.18590
C15 C 1.1514(8) -0.3577(7) -0.3007(7)
H11 H 1.12420 -0.31360 -0.25490
O4 O 1.0723(6) 0.2394(5) -0.2870(5)
O5 O 0.9168(7) 0.0939(6) -0.2645(5)
O6 O 0.5964(6) -0.2074(6) -0.0567(5)
N4 N 0.9796(7) 0.1676(6) -0.2293(5)
N5 N 0.7565(7) -0.0107(5) -0.0686(5)
H12 H 0.75550 -0.02430 -0.13200
N6 N 0.4914(7) -0.2308(6) 0.1145(5)
H13 H 0.48850 -0.19890 0.16670
C16 C 0.9421(8) 0.1604(6) -0.1168(5)
C17 C 1.0134(8) 0.2392(7) -0.0771(6)
H14 H 1.08090 0.29900 -0.12450
C18 C 0.9845(9) 0.2292(7) 0.0340(6)
H15 H 1.03600 0.28120 0.06280
C19 C 0.8829(9) 0.1460(7) 0.1036(7)
H16 H 0.86430 0.14190 0.17870
C20 C 0.8074(8) 0.0676(7) 0.0622(6)
C21 C 0.8389(8) 0.0746(6) -0.0500(6)
C22 C 0.7016(8) -0.0277(7) 0.1091(6)
H17 H 0.65840 -0.05440 0.18300
C23 C 0.6739(8) -0.0733(6) 0.0285(6)
C24 C 0.5850(8) -0.1771(7) 0.0252(6)
C25 C 0.3969(8) -0.3337(6) 0.1329(6)
C26 C 0.3123(9) -0.3757(7) 0.2333(7)
H18 H 0.32010 -0.33560 0.28510
C27 C 0.2182(9) -0.4743(7) 0.2581(7)
H19 H 0.16120 -0.50130 0.32640
C28 C 0.2061(9) -0.5341(7) 0.1845(7)
H20 H 0.14060 -0.60180 0.20150
C29 C 0.2896(10) -0.4948(8) 0.0859(8)
H21 H 0.28230 -0.53650 0.03540
C30 C 0.3847(10) -0.3948(8) 0.0594(7)
H22 H 0.44140 -0.36840 -0.00910
#END
