
#######################################################################
#
#                 Cambridge Crystallographic Data Centre
#                                CCDC
#
#######################################################################
#
# If this CIF has been generated from an entry in the Cambridge
# Structural Database, then it will include bibliographic, chemical,
# crystal, experimental, refinement or atomic coordinate data resulting
# from the CCDC's data processing and validation procedures.
#
#######################################################################

data_CSD_CIF_ALULEY
_audit_creation_date 2004-04-01
_audit_creation_method CSD-ConQuest-V1
_database_code_CSD ALULEY
_database_code_depnum_ccdc_archive 'CCDC 209316'
_chemical_formula_sum 'C20 H25 N1 O8'
_chemical_formula_moiety
;
C20 H25 N1 O8
;
_journal_coden_Cambridge 1291
_journal_year 2003
_journal_page_first 4152
_journal_name_full 'Eur.J.Org.Chem. '
loop_
_publ_author_name
"S.Cicchi"
"M.Marradi"
"M.Corsi"
"C.Faggi"
"A.Goti"
_chemical_name_systematic
;
Dimethyl 
(3R,4S,5R)-3-phenyl-2-((3aR,4R,6aR)-tetrahydro-2,2-dimethylfuro(3,4-d)-1,3-dio
xol-4-yl)-4,5-isoxazolidinedicarboxylate
;
_chemical_melting_point 343.15
_cell_volume    521.752
_exptl_crystal_colour 'colorless'
_exptl_crystal_density_diffrn 1.297
_exptl_special_details
;
Melting point range 343.15-344.15K

;
_diffrn_ambient_temperature 293
#These two values have been output from a single CSD field.
_refine_ls_R_factor_gt 0.035
_refine_ls_wR_factor_gt 0.035
_symmetry_cell_setting triclinic
_symmetry_space_group_name_H-M 'P 1'
_symmetry_Int_Tables_number 1
loop_
_symmetry_equiv_pos_site_id
_symmetry_equiv_pos_as_xyz
1 x,y,z
_cell_length_a 6.247(1)
_cell_length_b 9.807(1)
_cell_length_c 9.346(1)
_cell_angle_alpha 106.48(1)
_cell_angle_beta 105.14(2)
_cell_angle_gamma 95.08(1)
_cell_formula_units_Z 1
loop_
_atom_type_symbol
_atom_type_radius_bond
C 0.68
H 0.23
N 0.68
O 0.68
loop_
_atom_site_label
_atom_site_type_symbol
_atom_site_fract_x
_atom_site_fract_y
_atom_site_fract_z
N1 N -0.1689(5) -0.4894(3) -0.1503(3)
O1 O -0.0208(5) -0.4695(3) 0.1133(3)
O2 O -0.3190(6) -0.2888(3) 0.2895(3)
O3 O -0.1296(5) -0.1678(3) 0.1761(3)
O4 O -0.1975(5) -0.3919(3) -0.2467(3)
O5 O 0.2378(6) -0.2723(3) -0.2234(4)
O6 O 0.1542(5) -0.3742(3) -0.4837(3)
O7 O 0.2688(6) -0.6591(4) -0.4028(4)
O8 O -0.0274(6) -0.7127(3) -0.6171(3)
C1 C -0.0655(7) -0.3868(4) 0.0109(4)
H1 H 0.083(7) -0.331(4) 0.025(4)
C2 C -0.2390(7) -0.3006(4) 0.0547(4)
H2 H -0.341(6) -0.282(4) -0.029(4)
C3 C -0.3561(9) -0.3867(4) 0.1355(5)
H3 H -0.495(10) -0.411(5) 0.093(6)
C4 C -0.2284(8) -0.5086(5) 0.1411(5)
H4 H -0.20020 -0.52260 0.24260
H5 H -0.31380 -0.59760 0.06150
C5 C -0.2535(8) -0.1466(4) 0.2879(5)
C6 C -0.0921(12) -0.0624(6) 0.4456(6)
H6 H -0.17110 -0.04620 0.52260
H7 H -0.02700 0.02880 0.44260
H8 H 0.02510 -0.11590 0.47240
C7 C -0.4515(10) -0.0772(6) 0.2407(7)
H9 H -0.52980 -0.06340 0.31810
H10 H -0.55110 -0.13810 0.14160
H11 H -0.40100 0.01470 0.23200
C8 C -0.1046(9) -0.4423(4) -0.3695(5)
H12 H -0.200(6) -0.439(4) -0.446(5)
C9 C 0.1153(7) -0.3514(4) -0.3463(5)
C10 C 0.3650(9) -0.3051(7) -0.4861(8)
H13 H 0.37140 -0.33090 -0.59180
H14 H 0.48660 -0.33600 -0.42340
H15 H 0.37800 -0.20220 -0.44480
C11 C -0.0865(8) -0.5989(4) -0.3794(4)
H16 H -0.215(6) -0.657(4) -0.421(4)
C12 C 0.0761(9) -0.6600(4) -0.4625(4)
C13 C 0.1175(13) -0.7605(8) -0.7146(7)
H17 H 0.02870 -0.79580 -0.82260
H18 H 0.18750 -0.83640 -0.68650
H19 H 0.23160 -0.68080 -0.69880
C14 C -0.0228(8) -0.5871(4) -0.2058(4)
H20 H 0.114(7) -0.552(4) -0.164(4)
C15 C -0.0632(7) -0.7302(4) -0.1790(4)
C16 C -0.2804(9) -0.8005(4) -0.2099(5)
H21 H -0.40320 -0.75860 -0.24450
C17 C -0.3127(11) -0.9338(5) -0.1887(6)
H22 H -0.45850 -0.98040 -0.20790
C18 C -0.1365(14) -0.9979(5) -0.1405(6)
H23 H -0.16250 -1.08770 -0.12700
C19 C 0.0791(11) -0.9318(5) -0.1115(5)
H24 H 0.19980 -0.97670 -0.08020
C20 C 0.1162(8) -0.7965(4) -0.1294(4)
H25 H 0.26280 -0.75010 -0.10790
#END
