
#######################################################################
#
#                 Cambridge Crystallographic Data Centre
#                                CCDC
#
#######################################################################
#
# If this CIF has been generated from an entry in the Cambridge
# Structural Database, then it will include bibliographic, chemical,
# crystal, experimental, refinement or atomic coordinate data resulting
# from the CCDC's data processing and validation procedures.
#
#######################################################################

data_CSD_CIF_ALUNOL
_audit_creation_date 2011-05-25
_audit_creation_method CSD-ConQuest-V1
_database_code_CSD ALUNOL
_database_code_depnum_ccdc_archive 'CCDC 700852'
_chemical_formula_sum 'C14 H14 N4 O7'
_chemical_formula_moiety
;
C14 H14 N4 O7
;
_journal_coden_Cambridge 1003
_journal_volume 41
_journal_year 2011
_journal_page_first 204
_journal_name_full 'J.Chem.Cryst. '
loop_
_publ_author_name
"O.Renaudet"
"C.Philouze"
"C.Bailly"
"A.Durif"
"P.Dumy"
_chemical_name_systematic
;
2-((3-Azido-4,5-dihydroxy-6-(hydroxymethyl)tetrahydro-2H-pyran-2-yl)oxy)-1H-is
oindole-1,3(2H)-dione
;
_chemical_name_common
;
2-azido-2-deoxy-alpha-D-galactopyranosyl-N-oxyphthalimide
;
_cell_volume   1504.177
_exptl_crystal_colour 'colorless'
_exptl_crystal_density_diffrn 1.547
_exptl_crystal_description 'prism'
_diffrn_ambient_temperature 293
#These two values have been output from a single CSD field.
_refine_ls_R_factor_gt 0.031
_refine_ls_wR_factor_gt 0.031
_symmetry_cell_setting orthorhombic
_symmetry_space_group_name_H-M 'P 21 21 21'
_symmetry_Int_Tables_number 19
loop_
_symmetry_equiv_pos_site_id
_symmetry_equiv_pos_as_xyz
1 x,y,z
2 1/2-x,-y,1/2+z
3 1/2+x,1/2-y,-z
4 -x,1/2+y,1/2-z
_cell_length_a 4.927(3)
_cell_length_b 13.423(2)
_cell_length_c 22.744(3)
_cell_angle_alpha 90
_cell_angle_beta 90
_cell_angle_gamma 90
_cell_formula_units_Z 4
loop_
_atom_type_symbol
_atom_type_radius_bond
C 0.68
H 0.23
N 0.68
O 0.68
loop_
_atom_site_label
_atom_site_type_symbol
_atom_site_fract_x
_atom_site_fract_y
_atom_site_fract_z
O1 O 0.7199(2) 0.36064(7) 0.61766(5)
O2 O 0.7984(2) 0.64643(8) 0.68886(6)
O3 O 0.6178(3) 0.53649(8) 0.78456(5)
O4 O 0.5139(2) 0.36046(7) 0.71102(4)
O5 O 0.7160(3) 0.22593(8) 0.79344(6)
O6 O 0.3344(3) 0.28040(8) 0.53961(5)
O7 O 1.0475(3) 0.20018(8) 0.65954(5)
N1 N 0.6820(3) 0.26052(8) 0.60636(5)
N2 N 0.5286(4) 0.5448(1) 0.59258(6)
N3 N 0.4521(5) 0.6291(1) 0.58371(6)
N4 N 0.3809(9) 0.7032(1) 0.56771(9)
C1 C 0.5030(3) 0.3984(1) 0.65444(7)
C2 C 0.5376(3) 0.5112(1) 0.65436(7)
C3 C 0.7982(3) 0.5407(1) 0.68525(7)
C4 C 0.8111(3) 0.4933(1) 0.74652(7)
C5 C 0.7633(3) 0.3819(1) 0.74179(6)
C6 C 0.7351(4) 0.3307(1) 0.80054(7)
C7 C 0.4967(3) 0.2277(1) 0.56363(6)
C8 C 0.5520(4) 0.1197(1) 0.55853(6)
C9 C 0.4295(4) 0.0490(1) 0.52333(7)
C10 C 0.5308(5) -0.0477(1) 0.52735(8)
C11 C 0.7458(5) -0.0716(1) 0.56393(8)
C12 C 0.8702(4) 0.0011(1) 0.59856(7)
C13 C 0.7667(4) 0.0960(1) 0.59520(6)
C14 C 0.8595(3) 0.1873(1) 0.62583(6)
H1 H 0.96930 0.67080 0.69760
H2 H 0.68920 0.60490 0.79550
H3 H 0.52150 0.20340 0.78820
H4 H 0.33310 0.38190 0.63730
H5 H 0.38910 0.54010 0.67480
H6 H 0.94930 0.51920 0.66260
H7 H 0.98700 0.50420 0.76240
H8 H 0.91020 0.35260 0.72090
H9 H 0.57590 0.35430 0.81960
H10 H 0.88920 0.34570 0.82400
H11 H 0.28380 0.06540 0.49770
H12 H 0.45000 -0.09880 0.50430
H13 H 0.80950 -0.13830 0.56550
H14 H 1.01960 -0.01440 0.62330
#END
