
#######################################################################
#
#                 Cambridge Crystallographic Data Centre
#                                CCDC
#
#######################################################################
#
# If this CIF has been generated from an entry in the Cambridge
# Structural Database, then it will include bibliographic, chemical,
# crystal, experimental, refinement or atomic coordinate data resulting
# from the CCDC's data processing and validation procedures.
#
#######################################################################

data_CSD_CIF_AMATAL
_audit_creation_date 2016-05-18
_audit_creation_method CSD-ConQuest-V1
_database_code_CSD AMATAL
_database_code_depnum_ccdc_archive 'CCDC 1449575'
_chemical_formula_sum 'C31 H31 N3 O7'
_chemical_formula_moiety
;
C31 H31 N3 O7
;
_journal_coden_Cambridge 16
_journal_volume 72
_journal_year 2016
_journal_page_first 4007
_journal_name_full 'Tetrahedron '
loop_
_publ_author_name
"Ajesh Vijayan"
"T.V.Baiju"
"E.Jijy"
"P.Prakash"
"M.Shimi"
"N.Joseph"
"P.M.Pihko"
"S.Varughese"
"K.V.Radhakrishnan"
_chemical_name_systematic
;
t-butyl 
13,15-bis(benzyloxy)-10,14-dioxo-3-oxa-13,15,16-triazatetracyclo[10.3.1.0^2,11
^.0^4,9^]hexadeca-4,6,8-triene-16-carboxylate
;
_cell_volume   1468.347
_exptl_crystal_colour 'colorless'
_exptl_crystal_density_diffrn 1.261
_exptl_crystal_description 'Prism'
_diffrn_ambient_temperature 298
#These two values have been output from a single CSD field.
_refine_ls_R_factor_gt 0.0678
_refine_ls_wR_factor_gt 0.0678
_symmetry_cell_setting triclinic
_symmetry_space_group_name_H-M 'P -1'
_symmetry_Int_Tables_number 2
loop_
_symmetry_equiv_pos_site_id
_symmetry_equiv_pos_as_xyz
1 x,y,z
2 -x,-y,-z
_cell_length_a 10.659(15)
_cell_length_b 11.119(17)
_cell_length_c 13.505(17)
_cell_angle_alpha 95.306(11)
_cell_angle_beta 102.175(15)
_cell_angle_gamma 107.80(3)
_cell_formula_units_Z 2
loop_
_atom_type_symbol
_atom_type_radius_bond
C 0.68
H 0.23
N 0.68
O 0.68
loop_
_atom_site_label
_atom_site_type_symbol
_atom_site_fract_x
_atom_site_fract_y
_atom_site_fract_z
O1 O 0.0385(2) 0.8063(3) 0.61705(19)
O2 O 0.1822(3) 1.0112(3) 0.5475(2)
O3 O 0.1472(3) 1.0030(2) 0.3450(2)
O4 O -0.1900(3) 0.7874(3) 0.1306(3)
O5 O -0.2702(3) 0.5973(3) 0.3632(2)
O6 O 0.1615(3) 0.5663(3) 0.4571(2)
O7 O 0.2026(2) 0.6288(2) 0.3079(2)
N1 N 0.0325(3) 0.6664(3) 0.3636(2)
N2 N 0.0689(3) 0.7940(3) 0.5213(3)
N3 N 0.1430(3) 0.8895(3) 0.3884(2)
C1 C 0.3267(4) 0.5894(4) 0.3153(4)
C2 C 0.1412(3) 0.6172(3) 0.3833(3)
C3 C -0.0287(3) 0.6843(4) 0.4467(3)
H1 H -0.05410 0.60700 0.47780
C4 C 0.1319(4) 0.9089(4) 0.4911(3)
C5 C 0.3579(4) 0.6140(4) 0.2128(4)
H2 H 0.38190 0.70400 0.21040
H3 H 0.27900 0.56770 0.15800
H4 H 0.43240 0.58570 0.20530
C6 C 0.4365(4) 0.6751(4) 0.4038(4)
H5 H 0.45500 0.76250 0.39380
H6 H 0.51760 0.65290 0.40850
H7 H 0.40770 0.66490 0.46620
C7 C 0.0385(3) 0.7795(3) 0.3159(3)
H8 H 0.05970 0.77020 0.24910
C8 C -0.1090(3) 0.7831(3) 0.3042(3)
H9 H -0.10520 0.87260 0.31660
C9 C -0.1933(4) 0.7234(4) 0.2003(3)
C10 C 0.2903(4) 0.4467(4) 0.3222(4)
H10 H 0.27310 0.43340 0.38800
H11 H 0.36460 0.41840 0.31400
H12 H 0.21030 0.39870 0.26890
C11 C -0.2780(4) 0.5888(4) 0.1813(4)
C12 C -0.3308(5) 0.5169(6) 0.0824(4)
H13 H -0.31230 0.55490 0.02620
C13 C -0.4104(6) 0.3891(6) 0.0677(5)
H14 H -0.44620 0.34120 0.00190
C14 C -0.4363(6) 0.3334(6) 0.1529(6)
H15 H -0.48960 0.24750 0.14310
C15 C -0.3862(5) 0.4006(5) 0.2486(5)
H16 H -0.40330 0.36140 0.30460
C16 C -0.3079(4) 0.5303(4) 0.2633(4)
C17 C -0.1536(4) 0.7159(4) 0.3937(3)
H17 H -0.17170 0.77630 0.44160
C18 C 0.1255(4) 0.7559(4) 0.6866(3)
H18 H 0.22000 0.80920 0.69860
H19 H 0.11580 0.66960 0.65730
C19 C 0.0828(3) 0.7556(4) 0.7853(3)
C20 C 0.0810(4) 0.6562(4) 0.8367(4)
H20 H 0.10390 0.58880 0.80840
C21 C 0.0472(6) 0.6515(7) 0.9274(5)
H21 H 0.05320 0.58510 0.96330
C22 C 0.0043(6) 0.745(1) 0.9656(5)
H22 H -0.02650 0.73940 1.02510
C23 C 0.0065(7) 0.8456(8) 0.9169(5)
H23 H -0.01840 0.91190 0.94470
C24 C 0.0455(6) 0.8507(5) 0.8259(4)
H24 H 0.04610 0.92020 0.79230
C25 C 0.2869(5) 1.0820(4) 0.3530(4)
H25 H 0.34010 1.09160 0.42290
H26 H 0.28800 1.16650 0.33990
C26 C 0.3552(5) 1.0283(4) 0.2792(5)
C27 C 0.4837(6) 1.0182(5) 0.3161(4)
H27 H 0.52580 1.03960 0.38610
C28 C 0.5470(6) 0.9770(6) 0.2494(7)
H28 H 0.63240 0.97040 0.27460
C29 C 0.4886(8) 0.9452(6) 0.1468(7)
H29 H 0.53460 0.91880 0.10240
C30 C 0.3605(7) 0.9522(5) 0.1085(5)
H30 H 0.31860 0.92960 0.03850
C31 C 0.2959(5) 0.9937(5) 0.1770(5)
H31 H 0.20940 0.99800 0.15210
#END
