
#######################################################################
#
#                 Cambridge Crystallographic Data Centre
#                                CCDC
#
#######################################################################
#
# If this CIF has been generated from an entry in the Cambridge
# Structural Database, then it will include bibliographic, chemical,
# crystal, experimental, refinement or atomic coordinate data resulting
# from the CCDC's data processing and validation procedures.
#
#######################################################################

data_CSD_CIF_AMEOIN
_audit_creation_date 1981-05-19
_audit_creation_method CSD-ConQuest-V1
_database_code_CSD AMEOIN
_database_code_depnum_ccdc_archive 'CCDC 1102575'
_chemical_formula_sum 'C11 H11 N1 O2'
_chemical_formula_moiety
;
C11 H11 N1 O2
;
_journal_coeditor_code "IUCr A19377"
_journal_coden_Cambridge 107
_journal_volume 36
_journal_year 1980
_journal_page_first 3125
_journal_name_full 'Acta Crystallogr.,Sect.B:Struct.Crystallogr.Cryst.Chem. '
loop_
_publ_author_name
"R.M.Acheson"
"J.D.Wallis"
"D.J.Watkin"
_chemical_name_systematic
;
3-Acetyl-1-methoxy-indole
;
_cell_volume    983.449
_diffrn_ambient_temperature ?
_diffrn_special_details
;
The study was carried out at room temperature,in the range 283-303K

;
#These two values have been output from a single CSD field.
_refine_ls_R_factor_gt 0.054
_refine_ls_wR_factor_gt 0.054
_symmetry_cell_setting triclinic
_symmetry_space_group_name_H-M 'P -1'
_symmetry_Int_Tables_number 2
loop_
_symmetry_equiv_pos_site_id
_symmetry_equiv_pos_as_xyz
1 x,y,z
2 -x,-y,-z
_cell_length_a 8.35(1)
_cell_length_b 10.39(1)
_cell_length_c 11.58(1)
_cell_angle_alpha 98.50(8)
_cell_angle_beta 97.68(6)
_cell_angle_gamma 91.69(10)
_cell_formula_units_Z 4
loop_
_atom_type_symbol
_atom_type_radius_bond
C 0.68
H 0.23
N 0.68
O 0.68
loop_
_atom_site_label
_atom_site_type_symbol
_atom_site_fract_x
_atom_site_fract_y
_atom_site_fract_z
O1 O 0.87270 0.86580 0.62060
O2 O 1.25420 0.40980 0.69330
N1 N 0.97800 0.76280 0.61720
C1 C 0.98090 0.67300 0.69120
C2 C 1.09800 0.58810 0.66380
C3 C 1.16920 0.63410 0.56950
C4 C 1.29500 0.59300 0.50540
C5 C 1.33600 0.66490 0.42180
C6 C 1.25500 0.77570 0.39980
C7 C 1.13200 0.81910 0.45880
C8 C 1.09200 0.74350 0.54120
C9 C 0.71980 0.82850 0.54200
C10 C 1.14600 0.47850 0.72350
C11 C 1.05500 0.45170 0.82310
H1 H 0.91220 0.67210 0.75490
H2 H 1.35410 0.51430 0.52050
H3 H 1.42920 0.63790 0.37610
H4 H 1.28330 0.82230 0.33650
H5 H 1.07400 0.89730 0.44380
H6 H 0.67400 0.76140 0.56870
H7 H 0.64700 0.90330 0.54450
H8 H 0.74150 0.80140 0.45930
H9 H 1.12100 0.40400 0.86910
H10 H 1.03250 0.53540 0.86870
H11 H 0.95340 0.40040 0.78830
O3 O 0.23900 1.05590 0.72260
O4 O 0.78170 0.76800 0.91440
N2 N 0.37900 1.01480 0.78100
C12 C 0.41000 0.88650 0.78260
C13 C 0.56400 0.88220 0.84200
C14 C 0.62690 1.01420 0.87730
C15 C 0.77300 1.07380 0.93890
C16 C 0.79400 1.20860 0.95820
C17 C 0.66900 1.28420 0.91910
C18 C 0.52300 1.23160 0.85650
C19 C 0.50600 1.09490 0.83810
C20 C 0.11900 1.07690 0.80280
C21 C 0.64300 0.76470 0.86360
C22 C 0.55500 0.63500 0.82000
H12 H 0.33640 0.81180 0.74520
H13 H 0.86170 1.02030 0.96860
H14 H 0.89910 1.25060 0.99940
H15 H 0.68770 1.38200 0.93860
H16 H 0.43810 1.28750 0.82540
H17 H 0.06150 0.98310 0.81190
H18 H 0.06130 1.11830 0.88320
H19 H 0.03440 1.13340 0.77300
H20 H 0.62870 0.56120 0.83460
H21 H 0.45280 0.62390 0.84310
H22 H 0.53750 0.62400 0.72380
#END
