
#######################################################################
#
#                 Cambridge Crystallographic Data Centre
#                                CCDC
#
#######################################################################
#
# If this CIF has been generated from an entry in the Cambridge
# Structural Database, then it will include bibliographic, chemical,
# crystal, experimental, refinement or atomic coordinate data resulting
# from the CCDC's data processing and validation procedures.
#
#######################################################################

data_CSD_CIF_AMFURZ
_audit_creation_date 1979-02-14
_audit_creation_method CSD-ConQuest-V1
_database_code_CSD AMFURZ
_chemical_formula_sum 'C3 H5 N3 O1'
_chemical_formula_moiety
;
C3 H5 N3 O1
;
_journal_coeditor_code "IUCr A16586"
_journal_coden_Cambridge 107
_journal_volume 34
_journal_year 1978
_journal_page_first 3444
_journal_name_full 'Acta Crystallogr.,Sect.B:Struct.Crystallogr.Cryst.Chem. '
loop_
_publ_author_name
"D.Viterbo"
"A.Serafino"
_chemical_name_systematic
;
3-Amino-4-methylfurazan
;
_chemical_melting_point 345.15
_cell_volume    958.443
_exptl_crystal_density_diffrn 1.37
_exptl_special_details
;
Melting point range 345.15-346.15K
x-Coordinate of C3' should be .9209 not .0209
;
_diffrn_ambient_temperature ?
_diffrn_special_details
;
The study was carried out at room temperature,in the range 283-303K

;
#These two values have been output from a single CSD field.
_refine_ls_R_factor_gt 0.053
_refine_ls_wR_factor_gt 0.053
_symmetry_cell_setting monoclinic
_symmetry_space_group_name_H-M 'P 21/c'
_symmetry_Int_Tables_number 14
loop_
_symmetry_equiv_pos_site_id
_symmetry_equiv_pos_as_xyz
1 x,y,z
2 -x,1/2+y,1/2-z
3 -x,-y,-z
4 x,-1/2-y,-1/2+z
_cell_length_a 10.968(2)
_cell_length_b 10.648(2)
_cell_length_c 8.216(1)
_cell_angle_alpha 90
_cell_angle_beta 92.72(1)
_cell_angle_gamma 90
_cell_formula_units_Z 8
loop_
_atom_type_symbol
_atom_type_radius_bond
C 0.68
H 0.23
N 0.68
O 0.68
loop_
_atom_site_label
_atom_site_type_symbol
_atom_site_fract_x
_atom_site_fract_y
_atom_site_fract_z
C1 C 0.69550 0.52980 0.95370
C2 C 0.60420 0.60410 0.87060
C3 C 0.79680 0.57450 1.06590
N1 N 0.67730 0.41400 0.91710
N2 N 0.53110 0.53230 0.78320
N3 N 0.59080 0.72880 0.87980
O1 O 0.57620 0.41040 0.81060
H1 H 0.84900 0.51200 1.11300
H2 H 0.84200 0.64400 1.02000
H3 H 0.76400 0.61300 1.16300
H4 H 0.65000 0.77800 0.92200
H5 H 0.53000 0.77000 0.83400
C4 C 0.87920 0.08860 0.11870
C5 C 0.77700 0.04520 0.01880
C6 C 0.92090 0.22020 0.14300
N4 N 0.93410 -0.00690 0.18630
N5 N 0.77120 -0.07620 0.02740
N6 N 0.70130 0.11680 -0.07520
O2 O 0.86910 -0.11170 0.13420
H6 H 0.99100 0.22600 0.21500
H7 H 0.93600 0.25200 0.03000
H8 H 0.86200 0.27600 0.19400
H9 H 0.70200 0.19600 -0.05000
H10 H 0.63500 0.07800 -0.11300
#END
