
#######################################################################
#
#                 Cambridge Crystallographic Data Centre
#                                CCDC
#
#######################################################################
#
# If this CIF has been generated from an entry in the Cambridge
# Structural Database, then it will include bibliographic, chemical,
# crystal, experimental, refinement or atomic coordinate data resulting
# from the CCDC's data processing and validation procedures.
#
#######################################################################

data_CSD_CIF_AMNBOZ
_audit_creation_date 1975-04-17
_audit_creation_method CSD-ConQuest-V1
_database_code_CSD AMNBOZ
_chemical_formula_sum 'C12 H14 N2 O4'
_chemical_formula_moiety
;
C12 H14 N2 O4
;
_journal_coden_Cambridge 189
_journal_volume 3
_journal_year 1974
_journal_page_first 673
_journal_name_full 'Cryst.Struct.Commun. '
loop_
_publ_author_name
"A.Mangia"
"G.Pelizzi"
_chemical_name_systematic
;
2-Acetyl-1-methyl-8-nitro-1,2,4,5-tetrahydro-3,2-benzoxazepine
;
_chemical_melting_point 469.15
_cell_volume   1186.195
_diffrn_ambient_temperature ?
_diffrn_special_details
;
The study was carried out at room temperature,in the range 283-303K

;
#These two values have been output from a single CSD field.
_refine_ls_R_factor_gt 0.05
_refine_ls_wR_factor_gt 0.05
_symmetry_cell_setting monoclinic
_symmetry_space_group_name_H-M 'C c'
_symmetry_Int_Tables_number 9
loop_
_symmetry_equiv_pos_site_id
_symmetry_equiv_pos_as_xyz
1 x,y,z
2 1/2+x,1/2+y,z
3 x,-y,1/2+z
4 1/2+x,1/2-y,1/2+z
_cell_length_a 9.305(6)
_cell_length_b 20.218(8)
_cell_length_c 7.435(7)
_cell_angle_alpha 90
_cell_angle_beta 122.0(2)
_cell_angle_gamma 90
_cell_formula_units_Z 4
loop_
_atom_type_symbol
_atom_type_radius_bond
C 0.68
H 0.20
N 0.68
O 0.68
loop_
_atom_site_label
_atom_site_type_symbol
_atom_site_fract_x
_atom_site_fract_y
_atom_site_fract_z
C1 C -0.01930 -0.47040 0.17620
C2 C 0.45740 -0.63330 0.15330
C3 C 0.48840 -0.69710 0.07760
C4 C 0.44320 -0.59800 0.60950
C5 C 0.14260 -0.49430 0.25450
C6 C 0.17120 -0.56130 0.27420
C7 C 0.03790 -0.60520 0.21770
C8 C -0.12490 -0.57870 0.13810
C9 C -0.15530 -0.51160 0.11870
C10 C 0.35460 -0.58240 0.37040
C11 C 0.16110 -0.71420 0.17230
C12 C 0.05830 -0.67990 0.24400
H1 H 0.60100 -0.71700 0.20000
H2 H 0.40300 -0.73300 0.04800
H3 H 0.56300 -0.69200 0.00100
H4 H 0.43000 -0.55600 0.69300
H5 H 0.56700 -0.58700 0.66000
H6 H 0.40000 -0.64100 0.63800
H7 H 0.23200 -0.46400 0.28600
H8 H -0.23500 -0.61900 0.09800
H9 H -0.27900 -0.49300 0.07200
H10 H 0.45100 -0.54100 0.39900
H11 H 0.15200 -0.77500 0.17900
H12 H 0.12800 -0.71200 -0.00400
H13 H -0.08100 -0.69800 0.16900
H14 H 0.10400 -0.69400 0.38800
N1 N 0.37290 -0.63770 0.25830
N2 N -0.04600 -0.39920 0.15820
O1 O 0.33950 -0.70080 0.30060
O2 O 0.50260 -0.57900 0.12480
O3 O 0.07520 -0.36270 0.19740
O4 O -0.18550 -0.37680 0.10790
#END
