
#######################################################################
#
#                 Cambridge Crystallographic Data Centre
#                                CCDC
#
#######################################################################
#
# If this CIF has been generated from an entry in the Cambridge
# Structural Database, then it will include bibliographic, chemical,
# crystal, experimental, refinement or atomic coordinate data resulting
# from the CCDC's data processing and validation procedures.
#
#######################################################################

data_CSD_CIF_AMOLIZ
_audit_creation_date 2016-05-18
_audit_creation_method CSD-ConQuest-V1
_database_code_CSD AMOLIZ
_database_code_depnum_ccdc_archive 'CCDC 1449143'
_chemical_formula_sum 'C16 H21 N1 O4'
_chemical_formula_moiety
;
C16 H21 N1 O4
;
_journal_coden_Cambridge 1220
_journal_volume 22
_journal_year 2016
_journal_page_first 6258
_journal_name_full 'Chem.-Eur.J. '
loop_
_publ_author_name
"Jie Liu"
"Lijun Zhou"
"Chao Wang"
"Demin Liang"
"Zhiming Li"
"Yue Zou"
"Quanrui Wang"
"A.Goeke"
_chemical_name_systematic
;
3,3,7,7-tetramethyl-5-(4-nitrophenyl)-2,6-dioxabicyclo[2.2.2]octane
;
_cell_volume   1488.624
_exptl_crystal_colour 'colorless'
_exptl_crystal_density_diffrn 1.3
_exptl_crystal_description 'block'
_diffrn_ambient_temperature 293
#These two values have been output from a single CSD field.
_refine_ls_R_factor_gt 0.0537
_refine_ls_wR_factor_gt 0.0537
_symmetry_cell_setting monoclinic
_symmetry_space_group_name_H-M 'P 21/n'
_symmetry_Int_Tables_number 14
loop_
_symmetry_equiv_pos_site_id
_symmetry_equiv_pos_as_xyz
1 x,y,z
2 1/2-x,1/2+y,1/2-z
3 -x,-y,-z
4 -1/2+x,-1/2-y,-1/2+z
_cell_length_a 7.230(4)
_cell_length_b 17.846(9)
_cell_length_c 11.959(6)
_cell_angle_alpha 90
_cell_angle_beta 105.260(6)
_cell_angle_gamma 90
_cell_formula_units_Z 4
loop_
_atom_type_symbol
_atom_type_radius_bond
C 0.68
H 0.23
N 0.68
O 0.68
loop_
_atom_site_label
_atom_site_type_symbol
_atom_site_fract_x
_atom_site_fract_y
_atom_site_fract_z
N1 N 0.8065(2) 0.57002(9) 1.02329(16)
O1 O 0.53270(19) 0.23523(7) 0.86576(11)
O2 O 0.56725(19) 0.10970(7) 0.92162(11)
O3 O 0.8010(3) 0.60535(8) 0.93613(15)
O4 O 0.8510(3) 0.59795(9) 1.11874(16)
C1 C 0.6261(3) 0.16610(9) 0.85532(15)
H1 H 0.58510 0.15080 0.77380
C2 C 0.5771(3) 0.26091(10) 0.98379(15)
H2 H 0.45810 0.25950 1.00840
C3 C 0.6180(3) 0.12763(10) 1.04534(16)
C4 C 0.8428(3) 0.17501(9) 0.88734(15)
C5 C 0.8974(2) 0.20211(10) 1.01547(14)
H3 H 0.98990 0.16800 1.06310
H4 H 0.95510 0.25150 1.02080
C6 C 0.7161(2) 0.20483(9) 1.05873(14)
H5 H 0.74840 0.22050 1.14010
C7 C 0.6467(2) 0.34158(9) 0.99350(15)
C8 C 0.7076(3) 0.37512(10) 1.10115(16)
H6 H 0.71160 0.34720 1.16740
C9 C 0.7627(3) 0.44951(11) 1.11187(16)
H7 H 0.80530 0.47160 1.18460
C10 C 0.7534(3) 0.49011(9) 1.01318(16)
C11 C 0.6928(3) 0.45902(11) 0.90532(17)
H8 H 0.68830 0.48740 0.83940
C12 C 0.6383(3) 0.38439(10) 0.89612(17)
H9 H 0.59540 0.36280 0.82310
C13 C 0.7477(3) 0.06584(10) 1.11148(17)
H10 H 0.68500 0.01830 1.09340
H11 H 0.77360 0.07500 1.19330
H12 H 0.86600 0.06540 1.08930
C14 C 0.4331(3) 0.12667(13) 1.0837(2)
H13 H 0.34090 0.15940 1.03490
H14 H 0.45900 0.14340 1.16260
H15 H 0.38300 0.07660 1.07790
C15 C 0.9350(3) 0.09981(11) 0.87000(19)
H16 H 0.89330 0.06170 0.91460
H17 H 1.07200 0.10430 0.89520
H18 H 0.89720 0.08650 0.78940
C16 C 0.9016(4) 0.23273(12) 0.80831(19)
H19 H 0.85100 0.21820 0.72880
H20 H 1.03900 0.23520 0.82600
H21 H 0.85190 0.28100 0.82060
#END
