
#######################################################################
#
#                 Cambridge Crystallographic Data Centre
#                                CCDC
#
#######################################################################
#
# If this CIF has been generated from an entry in the Cambridge
# Structural Database, then it will include bibliographic, chemical,
# crystal, experimental, refinement or atomic coordinate data resulting
# from the CCDC's data processing and validation procedures.
#
#######################################################################

data_CSD_CIF_AMUZIS
_audit_creation_date 2011-06-07
_audit_creation_method CSD-ConQuest-V1
_database_code_CSD AMUZIS
_database_code_depnum_ccdc_archive 'CCDC 791759'
_chemical_formula_sum 'C14 H11 N1 O2'
_chemical_formula_moiety
;
C14 H11 N1 O2
;
_journal_coden_Cambridge 1350
_journal_volume 13
_journal_year 2011
_journal_page_first 1931
_journal_name_full 'CrystEngComm '
loop_
_publ_author_name
"C.Klein"
"C.Fischer"
"W.Seichter"
"A.Schwarzer"
"E.Weber"
_chemical_name_systematic
;
(E)-2-(Hydroxyimino)-1,2-diphenylethanone
;
_cell_volume   1118.990
_exptl_crystal_colour 'colorless'
_exptl_crystal_density_diffrn 1.337
_exptl_crystal_description 'block'
_diffrn_ambient_temperature 153
#These two values have been output from a single CSD field.
_refine_ls_R_factor_gt 0.0603
_refine_ls_wR_factor_gt 0.0603
loop_
_citation_database_id_CSD
_citation_special_details
AMUZEO "is a stereoisomer of this entry"
_symmetry_cell_setting monoclinic
_symmetry_space_group_name_H-M 'P 21/n'
_symmetry_Int_Tables_number 14
loop_
_symmetry_equiv_pos_site_id
_symmetry_equiv_pos_as_xyz
1 x,y,z
2 1/2-x,1/2+y,1/2-z
3 -x,-y,-z
4 -1/2+x,-1/2-y,-1/2+z
_cell_length_a 6.9211(3)
_cell_length_b 7.0512(2)
_cell_length_c 22.9837(7)
_cell_angle_alpha 90
_cell_angle_beta 93.948(2)
_cell_angle_gamma 90
_cell_formula_units_Z 4
loop_
_atom_type_symbol
_atom_type_radius_bond
C 0.68
H 0.23
N 0.68
O 0.68
loop_
_atom_site_label
_atom_site_type_symbol
_atom_site_fract_x
_atom_site_fract_y
_atom_site_fract_z
O1 O 0.2795(3) 0.9752(2) 0.99634(7)
O2 O 0.2553(3) 0.3408(2) 1.03123(7)
H1 H 0.26810 0.23710 1.01390
N1 N 0.2634(3) 0.4880(3) 0.99186(8)
C1 C 0.2622(3) 0.7876(3) 0.91120(9)
C2 C 0.1323(3) 0.6662(3) 0.88065(10)
H2 H 0.04160 0.59470 0.90080
C3 C 0.1367(4) 0.6509(4) 0.8204(1)
H3 H 0.04680 0.57070 0.79920
C4 C 0.2713(4) 0.7519(4) 0.79144(10)
H4 H 0.27530 0.73910 0.75040
C5 C 0.4007(4) 0.8719(4) 0.82184(10)
H5 H 0.49360 0.94040 0.80160
C6 C 0.3948(3) 0.8921(3) 0.88154(10)
H6 H 0.48100 0.97710 0.90220
C7 C 0.2630(3) 0.8161(3) 0.97555(9)
C8 C 0.2517(3) 0.6519(3) 1.01609(9)
C9 C 0.2402(3) 0.6905(3) 1.07965(9)
C10 C 0.0982(3) 0.8104(3) 1.09864(10)
H7 H 0.00790 0.86820 1.07110
C11 C 0.0878(4) 0.8460(4) 1.15796(10)
H8 H -0.00980 0.92750 1.17090
C12 C 0.2206(4) 0.7622(4) 1.19806(10)
H9 H 0.21360 0.78620 1.23850
C13 C 0.3627(4) 0.6442(4) 1.17929(10)
H10 H 0.45350 0.58740 1.20690
C14 C 0.3736(3) 0.6080(3) 1.12008(9)
H11 H 0.47190 0.52710 1.10730
#END
