
#######################################################################
#
#                 Cambridge Crystallographic Data Centre
#                                CCDC
#
#######################################################################
#
# If this CIF has been generated from an entry in the Cambridge
# Structural Database, then it will include bibliographic, chemical,
# crystal, experimental, refinement or atomic coordinate data resulting
# from the CCDC's data processing and validation procedures.
#
#######################################################################

data_CSD_CIF_AMUZEO
_audit_creation_date 2011-06-07
_audit_creation_method CSD-ConQuest-V1
_database_code_CSD AMUZEO
_database_code_depnum_ccdc_archive 'CCDC 791758'
_chemical_formula_sum 'C14 H11 N1 O2'
_chemical_formula_moiety
;
C14 H11 N1 O2
;
_journal_coden_Cambridge 1350
_journal_volume 13
_journal_year 2011
_journal_page_first 1931
_journal_name_full 'CrystEngComm '
loop_
_publ_author_name
"C.Klein"
"C.Fischer"
"W.Seichter"
"A.Schwarzer"
"E.Weber"
_chemical_name_systematic
;
(Z)-2-(Hydroxyimino)-1,2-diphenylethanone
;
_cell_volume   2421.550
_exptl_crystal_colour 'colorless'
_exptl_crystal_density_diffrn 1.236
_exptl_crystal_description 'splitter'
_diffrn_ambient_temperature 298
#These two values have been output from a single CSD field.
_refine_ls_R_factor_gt 0.0494
_refine_ls_wR_factor_gt 0.0494
loop_
_citation_database_id_CSD
_citation_special_details
AMUZIS "is a stereoisomer of this entry"
_symmetry_cell_setting monoclinic
_symmetry_space_group_name_H-M 'P 21/c'
_symmetry_Int_Tables_number 14
loop_
_symmetry_equiv_pos_site_id
_symmetry_equiv_pos_as_xyz
1 x,y,z
2 -x,1/2+y,1/2-z
3 -x,-y,-z
4 x,-1/2-y,-1/2+z
_cell_length_a 8.7957(3)
_cell_length_b 26.8487(8)
_cell_length_c 10.6539(4)
_cell_angle_alpha 90
_cell_angle_beta 105.745(2)
_cell_angle_gamma 90
_cell_formula_units_Z 8
loop_
_atom_type_symbol
_atom_type_radius_bond
C 0.68
H 0.23
N 0.68
O 0.68
loop_
_atom_site_label
_atom_site_type_symbol
_atom_site_fract_x
_atom_site_fract_y
_atom_site_fract_z
O1 O 1.09096(18) 0.79914(5) 0.89926(13)
O2 O 1.28189(13) 0.71991(5) 0.76516(13)
H1 H 1.329(3) 0.6909(10) 0.753(2)
N1 N 1.12136(15) 0.70955(5) 0.70867(13)
C1 C 1.19067(18) 0.82812(6) 0.72725(15)
C2 C 1.1965(2) 0.82188(7) 0.59975(16)
H2 H 1.14360 0.79540 0.55040
C3 C 1.2810(3) 0.85499(9) 0.5461(2)
H3 H 1.28400 0.85110 0.46000
C4 C 1.3610(3) 0.89381(9) 0.6196(3)
H4 H 1.41890 0.91580 0.58330
C5 C 1.3559(3) 0.90019(8) 0.7457(3)
H5 H 1.41040 0.92640 0.79490
C6 C 1.2704(2) 0.86788(7) 0.79973(19)
H6 H 1.26580 0.87260 0.88510
C7 C 1.10490(19) 0.79296(6) 0.79001(15)
C8 C 1.03389(18) 0.74656(6) 0.71703(14)
C9 C 0.86221(19) 0.74203(7) 0.66034(16)
C10 C 0.7578(3) 0.77104(10) 0.7026(3)
H7 H 0.79590 0.79510 0.76600
C11 C 0.5969(3) 0.76506(12) 0.6523(4)
H8 H 0.52800 0.78420 0.68480
C12 C 0.5389(3) 0.73214(14) 0.5576(3)
H9 H 0.43050 0.73000 0.52020
C13 C 0.6392(3) 0.70164(15) 0.5157(3)
H10 H 0.59900 0.67770 0.45240
C14 C 0.8013(3) 0.70638(11) 0.5676(2)
H11 H 0.86930 0.68530 0.53940
O3 O 0.33252(19) 0.96589(5) 0.00261(13)
O4 O 0.16176(16) 0.88814(5) 0.13857(15)
H12 H 0.108(3) 0.8587(10) 0.152(2)
N2 N 0.32235(17) 0.87794(5) 0.19528(15)
C15 C 0.2689(2) 0.99932(6) 0.18712(16)
C16 C 0.2902(2) 0.99649(7) 0.31904(18)
H13 H 0.34760 0.97030 0.36610
C17 C 0.2265(3) 1.03246(10) 0.3825(2)
H14 H 0.24390 1.03110 0.47250
C18 C 0.1378(3) 1.07009(10) 0.3122(3)
H15 H 0.09270 1.09380 0.35460
C19 C 0.1149(4) 1.07308(9) 0.1817(3)
H16 H 0.05460 1.09890 0.13500
C20 C 0.1802(3) 1.03828(8) 0.1184(2)
H17 H 0.16530 1.04070 0.02870
C21 C 0.3355(2) 0.96183(6) 0.11630(16)
C22 C 0.4096(2) 0.91510(5) 0.18773(15)
C23 C 0.5813(2) 0.91141(6) 0.24274(15)
C24 C 0.6788(2) 0.94772(8) 0.2165(2)
H18 H 0.63540 0.97500 0.16570
C25 C 0.8407(3) 0.94385(12) 0.2650(2)
H19 H 0.90550 0.96840 0.24570
C26 C 0.9057(3) 0.90464(13) 0.3404(3)
H20 H 1.01480 0.90250 0.37330
C27 C 0.8111(3) 0.86820(9) 0.3685(2)
H21 H 0.85630 0.84120 0.41970
C28 C 0.6501(3) 0.87140(7) 0.3213(2)
H22 H 0.58650 0.84680 0.34180
#END
