
#######################################################################
#
#                 Cambridge Crystallographic Data Centre
#                                CCDC
#
#######################################################################
#
# If this CIF has been generated from an entry in the Cambridge
# Structural Database, then it will include bibliographic, chemical,
# crystal, experimental, refinement or atomic coordinate data resulting
# from the CCDC's data processing and validation procedures.
#
#######################################################################

data_CSD_CIF_ANADON
_audit_creation_date 1971-12-31
_audit_creation_method CSD-ConQuest-V1
_database_code_CSD ANADON
_chemical_formula_sum 'C12 H8 N2 O6'
_chemical_formula_moiety
;
C12 H8 N2 O6
;
_journal_coeditor_code "IUCr A04128"
_journal_coden_Cambridge 1
_journal_volume 17
_journal_year 1964
_journal_page_first 367
_journal_name_full 'Acta Crystallogr. '
loop_
_publ_author_name
"T.C.W.Mak"
"J.Trotter"
_chemical_name_systematic
;
cis-1,2-Acenaphthenediol dinitrate
;
_cell_volume   1177.294
_diffrn_ambient_temperature ?
_diffrn_special_details
;
The study was carried out at room temperature,in the range 283-303K

;
#These two values have been output from a single CSD field.
_refine_ls_R_factor_gt 0.15
_refine_ls_wR_factor_gt 0.15
loop_
_citation_database_id_CSD
_citation_special_details
ZZZIWC "is a stereoisomer of this entry"
_symmetry_cell_setting monoclinic
_symmetry_space_group_name_H-M 'P 21/c'
_symmetry_Int_Tables_number 14
loop_
_symmetry_equiv_pos_site_id
_symmetry_equiv_pos_as_xyz
1 x,y,z
2 -x,1/2+y,1/2-z
3 -x,-y,-z
4 x,-1/2-y,-1/2+z
_cell_length_a 17.1
_cell_length_b 4.242
_cell_length_c 19.18
_cell_angle_alpha 90
_cell_angle_beta 122.2
_cell_angle_gamma 90
_cell_formula_units_Z 4
loop_
_atom_type_symbol
_atom_type_radius_bond
C 0.68
N 0.68
O 0.68
loop_
_atom_site_label
_atom_site_type_symbol
_atom_site_fract_x
_atom_site_fract_y
_atom_site_fract_z
C1 C 0.32340 0.45500 0.22890
C2 C 0.21870 0.38700 0.15640
C3 C 0.17460 0.19300 0.19410
C4 C 0.08710 0.08000 0.16170
C5 C 0.06810 -0.08100 0.21810
C6 C 0.13360 -0.11600 0.30150
C7 C 0.22300 0.02400 0.33410
C8 C 0.29430 0.00800 0.41720
C9 C 0.37800 0.14000 0.44000
C10 C 0.39820 0.30600 0.38520
C11 C 0.32680 0.29800 0.30190
C12 C 0.24090 0.17100 0.27860
N1 N 0.40700 0.39800 0.15920
N2 N 0.15300 0.25700 0.01200
O1 O 0.38820 0.27300 0.21680
O2 O 0.22160 0.19100 0.09470
O3 O 0.36600 0.63100 0.12300
O4 O 0.09150 0.42400 0.00090
O5 O 0.46750 0.26200 0.16050
O6 O 0.16360 0.08200 -0.03330
#END
