
#######################################################################
#
#                 Cambridge Crystallographic Data Centre
#                                CCDC
#
#######################################################################
#
# If this CIF has been generated from an entry in the Cambridge
# Structural Database, then it will include bibliographic, chemical,
# crystal, experimental, refinement or atomic coordinate data resulting
# from the CCDC's data processing and validation procedures.
#
#######################################################################

data_CSD_CIF_ANOQUR
_audit_creation_date 2016-06-16
_audit_creation_method CSD-ConQuest-V1
_database_code_CSD ANOQUR
_database_code_depnum_ccdc_archive 'CCDC 873381'
_chemical_formula_sum 'C15 H14 N2 O3'
_chemical_formula_moiety
;
C15 H14 N2 O3
;
_journal_coden_Cambridge 177
_journal_volume 10
_journal_year 2012
_journal_page_first 8774
_journal_name_full 'Org.Biomol.Chem. '
loop_
_publ_author_name
"D.Basavaiah"
"D.M.Reddy"
_chemical_name_systematic
;
2-(2-nitrophenyl)-3-(6-oxocyclohex-1-en-1-yl)propanenitrile
;
_chemical_name_common
;
2-(2-Cyano-2-(2-nitrophenyl))ethylcyclohex-2-en-1-one
;
_chemical_melting_point 351.15
_cell_volume   1337.674
_exptl_crystal_colour 'colorless'
_exptl_crystal_density_diffrn 1.342
_exptl_special_details
;
Melting point range 351.15-353.15K

;
_exptl_crystal_description 'rectangular'
_diffrn_ambient_temperature 298
#These two values have been output from a single CSD field.
_refine_ls_R_factor_gt 0.0585
_refine_ls_wR_factor_gt 0.0585
_symmetry_cell_setting monoclinic
_symmetry_space_group_name_H-M 'P 21/c'
_symmetry_Int_Tables_number 14
loop_
_symmetry_equiv_pos_site_id
_symmetry_equiv_pos_as_xyz
1 x,y,z
2 -x,1/2+y,1/2-z
3 -x,-y,-z
4 x,-1/2-y,-1/2+z
_cell_length_a 7.9981(14)
_cell_length_b 10.3530(18)
_cell_length_c 16.174(3)
_cell_angle_alpha 90
_cell_angle_beta 92.804(3)
_cell_angle_gamma 90
_cell_formula_units_Z 4
loop_
_atom_type_symbol
_atom_type_radius_bond
C 0.68
H 0.23
N 0.68
O 0.68
loop_
_atom_site_label
_atom_site_type_symbol
_atom_site_fract_x
_atom_site_fract_y
_atom_site_fract_z
O1 O 0.2003(2) 0.2807(2) 0.58808(11)
N1 N 0.8780(3) 0.2706(2) 0.43990(16)
C1 C 0.3660(3) 0.4421(2) 0.31092(12)
O2 O 0.2673(2) 0.41727(15) 0.4951(1)
N2 N 0.2571(2) 0.30746(18) 0.52152(11)
C2 C 0.3205(3) 0.5695(2) 0.34426(14)
O3 O 0.4235(2) 0.63907(17) 0.37880(13)
H1 H 0.08650 0.58440 0.38530
H2 H 0.13470 0.70110 0.32990
C3 C 0.1402(4) 0.6078(3) 0.3349(2)
H3 H 0.06770 0.60220 0.21690
H4 H -0.07250 0.56200 0.27570
C4 C 0.0455(4) 0.5522(4) 0.2658(3)
H5 H 0.04830 0.40020 0.18960
H6 H 0.00340 0.36320 0.27980
C5 C 0.0767(3) 0.4160(3) 0.24773(19)
H7 H 0.28660 0.29600 0.24510
C6 C 0.2532(3) 0.3748(2) 0.26634(15)
H8 H 0.61780 0.46640 0.32750
H9 H 0.56960 0.33220 0.28840
C7 C 0.5407(3) 0.3944(2) 0.33018(13)
H10 H 0.53130 0.39280 0.45870
C8 C 0.5626(2) 0.33032(19) 0.41669(13)
C9 C 0.4548(2) 0.21015(19) 0.42385(12)
C10 C 0.3145(2) 0.19970(19) 0.47113(12)
H11 H 0.13090 0.08320 0.50790
C11 C 0.2236(3) 0.0870(2) 0.47544(15)
H12 H 0.20780 -0.09520 0.43340
C12 C 0.2702(3) -0.0196(2) 0.43173(15)
H13 H 0.44320 -0.08650 0.35690
C13 C 0.4095(3) -0.0139(2) 0.38556(15)
H14 H 0.59310 0.10120 0.34980
C14 C 0.4995(3) 0.0990(2) 0.38164(14)
C15 C 0.7404(3) 0.2966(2) 0.43138(14)
#END
