
#######################################################################
#
#                 Cambridge Crystallographic Data Centre
#                                CCDC
#
#######################################################################
#
# If this CIF has been generated from an entry in the Cambridge
# Structural Database, then it will include bibliographic, chemical,
# crystal, experimental, refinement or atomic coordinate data resulting
# from the CCDC's data processing and validation procedures.
#
#######################################################################

data_CSD_CIF_ANOSAY
_audit_creation_date 2011-06-30
_audit_creation_method CSD-ConQuest-V1
_database_code_CSD ANOSAY
_database_code_depnum_ccdc_archive 'CCDC 782682'
_chemical_formula_sum 'C23 H19 N3 O4'
_chemical_formula_moiety
;
C23 H19 N3 O4
;
_journal_coden_Cambridge 177
_journal_volume 9
_journal_year 2011
_journal_page_first 2925
_journal_name_full 'Org.Biomol.Chem. '
loop_
_publ_author_name
"Po-Tsung Lin"
"D.B.Salunke"
"Li-Hsun Chen"
"Chung-Ming Sun"
_chemical_name_systematic
;
Methyl 
6-(3-nitrophenyl)-1,2,6,7-tetrahydroindolo[1,7-ab][1,5]benzodiazepine-9-carbox
ylate
;
_cell_volume    953.044
_exptl_crystal_colour 'yellow'
_exptl_crystal_density_diffrn 1.399
_diffrn_ambient_temperature 100
#These two values have been output from a single CSD field.
_refine_ls_R_factor_gt 0.044
_refine_ls_wR_factor_gt 0.044
_symmetry_cell_setting triclinic
_symmetry_space_group_name_H-M 'P -1'
_symmetry_Int_Tables_number 2
loop_
_symmetry_equiv_pos_site_id
_symmetry_equiv_pos_as_xyz
1 x,y,z
2 -x,-y,-z
_cell_length_a 6.7967(2)
_cell_length_b 12.1325(3)
_cell_length_c 12.4682(3)
_cell_angle_alpha 69.546(1)
_cell_angle_beta 81.774(1)
_cell_angle_gamma 85.665(1)
_cell_formula_units_Z 2
loop_
_atom_type_symbol
_atom_type_radius_bond
C 0.68
H 0.23
N 0.68
O 0.68
loop_
_atom_site_label
_atom_site_type_symbol
_atom_site_fract_x
_atom_site_fract_y
_atom_site_fract_z
C1 C 0.2217(2) 0.68765(14) 0.23577(13)
H1 H 0.08610 0.72560 0.23810
C2 C 0.1895(2) 0.55826(14) 0.26813(13)
C3 C 0.0167(3) 0.51070(17) 0.33930(16)
H2 H -0.07310 0.56060 0.36830
C4 C -0.0290(3) 0.39385(18) 0.36926(17)
H3 H -0.14780 0.36450 0.41830
C5 C 0.0988(3) 0.31992(17) 0.32764(16)
H4 H 0.06730 0.23990 0.34630
C6 C 0.2728(3) 0.36356(14) 0.25872(14)
C7 C 0.4332(3) 0.30171(16) 0.20433(15)
H5 H 0.38540 0.28020 0.14310
H6 H 0.48140 0.22960 0.26250
C8 C 0.5965(3) 0.39181(15) 0.15392(16)
H7 H 0.71030 0.36850 0.19950
H8 H 0.64450 0.39900 0.07300
C9 C 0.6097(2) 0.60734(14) 0.10899(13)
C10 C 0.8127(2) 0.59996(15) 0.07012(15)
H9 H 0.87710 0.52460 0.08690
C11 C 0.9219(2) 0.69861(16) 0.00830(15)
H10 H 1.05840 0.69030 -0.01830
C12 C 0.8330(2) 0.81008(15) -0.01516(13)
C13 C 0.6347(2) 0.81908(14) 0.02778(13)
H11 H 0.57500 0.89520 0.01520
C14 C 0.5203(2) 0.72161(14) 0.08825(12)
C15 C 0.3191(2) 0.48221(14) 0.22862(12)
C16 C 0.3264(2) 0.71785(14) 0.32169(13)
C17 C 0.4826(3) 0.64961(16) 0.37479(15)
H12 H 0.52710 0.58080 0.35760
C18 C 0.5744(3) 0.68020(19) 0.45238(16)
H13 H 0.68210 0.63290 0.48680
C19 C 0.5109(3) 0.77876(17) 0.48008(15)
H14 H 0.57200 0.80000 0.53380
C20 C 0.3562(3) 0.84512(15) 0.42733(15)
C21 C 0.2645(3) 0.81802(14) 0.34813(14)
H15 H 0.16010 0.86740 0.31210
C22 C 0.9400(3) 0.91895(15) -0.08487(14)
C23 C 1.2409(3) 0.99701(19) -0.19618(18)
H16 H 1.19140 1.03130 -0.27130
H17 H 1.38070 0.97220 -0.20730
H18 H 1.22950 1.05590 -0.15800
N1 N 0.31603(19) 0.73889(12) 0.11619(11)
H19 H 0.24380 0.78070 0.06180
N2 N 0.5042(2) 0.50438(11) 0.15980(12)
N3 N 0.2809(3) 0.94756(17) 0.45863(18)
O1 O 0.3048(3) 0.94876(18) 0.55306(18)
O2 O 0.2003(4) 1.02668(17) 0.3886(2)
O3 O 0.8687(2) 1.01712(11) -0.10340(12)
O4 O 1.12547(19) 0.89683(11) -0.12566(12)
#END
