
#######################################################################
#
#                 Cambridge Crystallographic Data Centre
#                                CCDC
#
#######################################################################
#
# If this CIF has been generated from an entry in the Cambridge
# Structural Database, then it will include bibliographic, chemical,
# crystal, experimental, refinement or atomic coordinate data resulting
# from the CCDC's data processing and validation procedures.
#
#######################################################################

data_CSD_CIF_ANQDAZ
_audit_creation_date 1973-04-16
_audit_creation_method CSD-ConQuest-V1
_database_code_CSD ANQDAZ
_chemical_formula_sum 'C14 H6 N2 O3'
_chemical_formula_moiety
;
C14 H6 N2 O3
;
_journal_coden_Cambridge 82
_journal_volume 13
_journal_year 1972
_journal_page_first 91
_journal_name_full 'Zh.Strukt.Khim.(Russ.)(J.Struct.Chem.) '
loop_
_publ_author_name
"L.A.Chetkina"
"S.L.Ginzburg"
"M.G.Neigauz"
"G.A.Gol'der"
_chemical_name_systematic
;
Anthraquinoneoxadiazole
;
_chemical_name_common
;
Anthra(1,2-c)(1,2,5)oxadiazole-6,11-dione
;
_cell_volume   1079.902
_exptl_crystal_density_diffrn 1.54
_diffrn_ambient_temperature ?
_diffrn_special_details
;
The study was carried out at room temperature,in the range 283-303K

;
#These two values have been output from a single CSD field.
_refine_ls_R_factor_gt 0.198
_refine_ls_wR_factor_gt 0.198
_symmetry_cell_setting monoclinic
_symmetry_space_group_name_H-M 'P 21/a'
_symmetry_Int_Tables_number 14
loop_
_symmetry_equiv_pos_site_id
_symmetry_equiv_pos_as_xyz
1 x,y,z
2 1/2-x,1/2+y,-z
3 -x,-y,-z
4 -1/2+x,-1/2-y,z
_cell_length_a 20.53(6)
_cell_length_b 7.19(1)
_cell_length_c 7.56(2)
_cell_angle_alpha 90
_cell_angle_beta 104.6(1)
_cell_angle_gamma 90
_cell_formula_units_Z 4
loop_
_atom_type_symbol
_atom_type_radius_bond
C 0.68
H 0.20
N 0.68
O 0.68
loop_
_atom_site_label
_atom_site_type_symbol
_atom_site_fract_x
_atom_site_fract_y
_atom_site_fract_z
C1 C 0.35520 -0.14400 -0.40000
C10 C 0.45620 -0.65100 -0.18900
C11 C 0.63480 -0.55300 -0.22600
C12 C 0.66600 -0.72500 -0.15500
C13 C 0.62630 -0.88000 -0.11400
C14 C 0.56290 -0.84300 -0.11800
C2 C 0.42310 -0.16700 -0.39300
C3 C 0.45620 -0.32900 -0.32400
C4 C 0.42110 -0.47800 -0.27000
C5 C 0.35340 -0.45600 -0.27800
C6 C 0.31960 -0.29500 -0.34900
C7 C 0.53040 -0.34900 -0.32000
C8 C 0.56370 -0.52200 -0.23900
C9 C 0.53040 -0.67200 -0.18800
H1 H 0.33000 -0.01300 -0.44300
H13 H 0.64800 -1.02300 -0.08100
H14 H 0.53800 -0.93300 -0.07200
H2 H 0.45000 -0.05600 -0.44200
H5 H 0.32700 -0.56700 -0.23000
H6 H 0.26500 -0.28400 -0.36500
N1 N 0.72830 -0.72100 -0.15700
N2 N 0.68160 -0.44200 -0.25500
O1 O 0.73840 -0.54600 -0.21200
O2 O 0.42950 -0.77300 -0.12700
O3 O 0.55910 -0.22900 -0.38100
#END
