
#######################################################################
#
#                 Cambridge Crystallographic Data Centre
#                                CCDC
#
#######################################################################
#
# If this CIF has been generated from an entry in the Cambridge
# Structural Database, then it will include bibliographic, chemical,
# crystal, experimental, refinement or atomic coordinate data resulting
# from the CCDC's data processing and validation procedures.
#
#######################################################################

data_CSD_CIF_ANUDEU
_audit_creation_date 2016-06-17
_audit_creation_method CSD-ConQuest-V1
_database_code_CSD ANUDEU
_database_code_depnum_ccdc_archive 'CCDC 1486138'
_chemical_formula_sum 'C26 H25 N3 O3'
_chemical_formula_moiety
;
C26 H25 N3 O3
;
_journal_coden_Cambridge 1078
_journal_year 2016
_journal_name_full 'CSD Communication(Private Communication) '
loop_
_publ_author_name
"Gaobin Zhang"
_chemical_name_systematic
;
3-(2-(benzyloxy)-4-(diethylamino)phenyl)-2-(4-nitrophenyl)acrylonitrile
;
_cell_volume   2239.295
_exptl_crystal_colour 'red'
_exptl_crystal_density_diffrn 1.268
_exptl_crystal_description 'rodlike'
_diffrn_ambient_temperature 296
#These two values have been output from a single CSD field.
_refine_ls_R_factor_gt 0.0401
_refine_ls_wR_factor_gt 0.0401
_symmetry_cell_setting orthorhombic
_symmetry_space_group_name_H-M 'P 21 21 21'
_symmetry_Int_Tables_number 19
loop_
_symmetry_equiv_pos_site_id
_symmetry_equiv_pos_as_xyz
1 x,y,z
2 1/2-x,-y,1/2+z
3 -x,1/2+y,1/2-z
4 1/2+x,1/2-y,-z
_cell_length_a 4.7847(6)
_cell_length_b 18.296(2)
_cell_length_c 25.580(3)
_cell_angle_alpha 90
_cell_angle_beta 90
_cell_angle_gamma 90
_cell_formula_units_Z 4
loop_
_atom_type_symbol
_atom_type_radius_bond
C 0.68
H 0.23
N 0.68
O 0.68
loop_
_atom_site_label
_atom_site_type_symbol
_atom_site_fract_x
_atom_site_fract_y
_atom_site_fract_z
C1 C 0.1591(4) 1.06025(9) 0.24244(5)
C2 C 0.5143(4) 1.13126(8) 0.18699(6)
C3 C 0.9704(5) 1.06118(11) 0.07687(7)
H1 H 1.01280 1.01700 0.06070
C4 C 1.0890(4) 1.12493(11) 0.05990(6)
C5 C 0.7146(4) 1.12870(9) 0.14284(6)
C6 C 0.3620(3) 1.07233(9) 0.20201(5)
H2 H 0.39640 1.03100 0.18180
C7 C -0.2369(4) 1.02431(10) 0.32228(6)
C8 C -0.1586(4) 0.97288(10) 0.28425(6)
H3 H -0.23490 0.92620 0.28520
C9 C 0.7864(4) 1.0635(1) 0.11849(6)
H4 H 0.70830 1.02010 0.13060
C10 C 0.0302(4) 0.9908(1) 0.24550(6)
C11 C -0.1161(4) 1.09439(11) 0.31859(7)
H5 H -0.16590 1.13010 0.34270
C12 C 0.8436(4) 1.19179(10) 0.12430(7)
H6 H 0.80380 1.23620 0.14030
C13 C 0.4879(5) 1.20104(11) 0.21210(8)
C14 C -0.5421(4) 0.93342(14) 0.36547(8)
H7 H -0.59200 0.91620 0.33080
H8 H -0.71260 0.93630 0.38590
C15 C 0.0346(5) 0.84227(10) 0.15035(6)
C16 C 0.0727(4) 1.11097(10) 0.28027(6)
H9 H 0.14710 1.15790 0.27920
C17 C 1.0285(5) 1.19044(12) 0.08298(8)
H10 H 1.11070 1.23340 0.07100
C18 C -0.0340(5) 0.87511(10) 0.20295(7)
H11 H -0.23420 0.88230 0.20610
H12 H 0.02630 0.84260 0.23070
C19 C -0.5124(5) 1.05982(14) 0.39945(7)
H13 H -0.69980 1.04730 0.41090
H14 H -0.52140 1.10750 0.38290
C20 C -0.3524(6) 0.87846(14) 0.39030(9)
H15 H -0.19370 0.87030 0.36810
H16 H -0.45150 0.83330 0.39520
H17 H -0.29020 0.89650 0.42360
C21 C -0.1086(6) 0.78038(11) 0.13485(8)
H18 H -0.24250 0.76000 0.15680
C22 C 0.2267(6) 0.87215(14) 0.11663(9)
H19 H 0.32270 0.91430 0.12620
C23 C 0.1410(6) 0.77779(13) 0.05432(9)
H20 H 0.18040 0.75540 0.02250
C24 C -0.3264(6) 1.06518(15) 0.44697(8)
H21 H -0.31740 1.01850 0.46400
H22 H -0.40140 1.10070 0.47070
H23 H -0.14210 1.07970 0.43640
C25 C -0.0546(7) 0.74854(12) 0.08705(9)
H24 H -0.15210 0.70690 0.07700
C26 C 0.2790(6) 0.84032(16) 0.06850(9)
H25 H 0.40780 0.86140 0.04580
N1 N 1.2875(4) 1.12188(13) 0.01591(7)
N2 N -0.4238(4) 1.00682(10) 0.36082(5)
N3 N 0.4719(6) 1.25777(11) 0.23059(9)
O1 O 0.1058(3) 0.94288(7) 0.20708(5)
O2 O 1.3355(4) 1.06289(12) -0.00397(6)
O3 O 1.3984(5) 1.17820(12) 0.00224(7)
#END
