
#######################################################################
#
#                 Cambridge Crystallographic Data Centre
#                                CCDC
#
#######################################################################
#
# If this CIF has been generated from an entry in the Cambridge
# Structural Database, then it will include bibliographic, chemical,
# crystal, experimental, refinement or atomic coordinate data resulting
# from the CCDC's data processing and validation procedures.
#
#######################################################################

data_CSD_CIF_AOMOQU
_audit_creation_date 1971-12-31
_audit_creation_method CSD-ConQuest-V1
_database_code_CSD AOMOQU
_chemical_formula_sum 'C12 H10 N2 O5'
_chemical_formula_moiety
;
C12 H10 N2 O5
;
_journal_coeditor_code "IUCr A05660"
_journal_coden_Cambridge 1
_journal_volume 23
_journal_year 1967
_journal_page_first 319
_journal_name_full 'Acta Crystallogr. '
loop_
_publ_author_name
"M.Sax"
"R.Desiderato"
_chemical_name_systematic
;
5-Acetoxy-6-methoxy-8-nitroquinoline
;
_cell_volume   1187.830
_exptl_crystal_density_diffrn 1.466
_diffrn_ambient_temperature ?
_diffrn_special_details
;
The study was carried out at room temperature,in the range 283-303K

;
#These two values have been output from a single CSD field.
_refine_ls_R_factor_gt 0.088
_refine_ls_wR_factor_gt 0.088
_symmetry_cell_setting monoclinic
_symmetry_space_group_name_H-M 'P 21/c'
_symmetry_Int_Tables_number 14
loop_
_symmetry_equiv_pos_site_id
_symmetry_equiv_pos_as_xyz
1 x,y,z
2 -x,1/2+y,1/2-z
3 -x,-y,-z
4 x,-1/2-y,-1/2+z
_cell_length_a 7.923(3)
_cell_length_b 9.056(3)
_cell_length_c 16.694(6)
_cell_angle_alpha 90
_cell_angle_beta 97.4
_cell_angle_gamma 90
_cell_formula_units_Z 4
loop_
_atom_type_symbol
_atom_type_radius_bond
C 0.68
H 0.20
N 0.68
O 0.68
loop_
_atom_site_label
_atom_site_type_symbol
_atom_site_fract_x
_atom_site_fract_y
_atom_site_fract_z
C1 C 0.31540 -0.26830 0.43850
C2 C 0.14850 -0.57040 0.65410
C3 C 0.10130 -0.11460 0.57540
C4 C 0.11320 0.00430 0.63780
C5 C 0.41250 -0.25360 0.28720
C6 C 0.40610 -0.12300 0.33240
C7 C 0.35830 -0.12910 0.40800
C8 C 0.26610 -0.28820 0.51670
C9 C 0.23240 -0.42610 0.54590
C10 C 0.24360 -0.55100 0.49640
C11 C 0.28560 -0.53190 0.42000
C12 C 0.32640 -0.39350 0.38790
H1 H 0.44700 -0.24400 0.23300
H2 H 0.06500 -0.63400 0.62200
H3 H 0.13100 -0.55200 0.71100
H4 H 0.24000 -0.63300 0.65200
H5 H 0.00600 0.07000 0.64100
H6 H 0.14500 -0.04800 0.70300
H7 H 0.20100 0.06900 0.62200
H8 H 0.44000 -0.02400 0.30800
H9 H 0.35200 -0.03600 0.44100
H10 H 0.21600 -0.65400 0.50700
N1 N 0.37530 -0.38570 0.31230
N2 N 0.28370 -0.66400 0.36890
O1 O 0.18800 -0.66520 0.30590
O2 O 0.37690 -0.76700 0.39380
O3 O 0.18680 -0.43000 0.62150
O4 O 0.25910 -0.16510 0.56550
O5 O -0.02510 -0.16130 0.53730
#END
