
#######################################################################
#
#                 Cambridge Crystallographic Data Centre
#                                CCDC
#
#######################################################################
#
# If this CIF has been generated from an entry in the Cambridge
# Structural Database, then it will include bibliographic, chemical,
# crystal, experimental, refinement or atomic coordinate data resulting
# from the CCDC's data processing and validation procedures.
#
#######################################################################

data_CSD_CIF_AOXLPY
_audit_creation_date 1980-09-10
_audit_creation_method CSD-ConQuest-V1
_database_code_CSD AOXLPY
_chemical_formula_sum 'C11 H17 N1 O8'
_chemical_formula_moiety
;
C11 H17 N1 O8
;
_journal_coden_Cambridge 207
_journal_year 1980
_journal_page_first 995
_journal_name_full 'J.Chem.Soc.,Perkin Trans.1 '
loop_
_publ_author_name
"M.M.Abuaan"
"J.S.Brimacombe"
"J.N.Low"
_chemical_name_systematic
;
Methyl 2,4-di-O-acetyl-3-deoxy-3-C-methyl-3-nitro-\b-D-xylopyranoside
;
_chemical_melting_point 370.15
_cell_volume   2860.615
_exptl_crystal_density_diffrn 1.419
_exptl_special_details
;
Melting point range 370.15-371.15K

;
_diffrn_ambient_temperature ?
_diffrn_special_details
;
The study was carried out at room temperature,in the range 283-303K

;
#These two values have been output from a single CSD field.
_refine_ls_R_factor_gt 0.068
_refine_ls_wR_factor_gt 0.068
_symmetry_cell_setting orthorhombic
_symmetry_space_group_name_H-M 'P 21 21 21'
_symmetry_Int_Tables_number 19
loop_
_symmetry_equiv_pos_site_id
_symmetry_equiv_pos_as_xyz
1 x,y,z
2 1/2+x,1/2-y,-z
3 -x,1/2+y,1/2-z
4 1/2-x,-y,1/2+z
_cell_length_a 15.054(10)
_cell_length_b 22.536(15)
_cell_length_c 8.432(8)
_cell_angle_alpha 90
_cell_angle_beta 90
_cell_angle_gamma 90
_cell_formula_units_Z 8
loop_
_atom_type_symbol
_atom_type_radius_bond
C 0.68
N 0.68
O 0.68
loop_
_atom_site_label
_atom_site_type_symbol
_atom_site_fract_x
_atom_site_fract_y
_atom_site_fract_z
C1 C 0.42270 0.48920 0.42790
C2 C 0.48310 0.43950 0.47600
C3 C 0.43730 0.39740 0.59320
C4 C 0.39540 0.43360 0.72230
C5 C 0.33390 0.48250 0.65900
C6 C 0.42180 0.57240 0.25350
C7 C 0.58820 0.38690 0.31220
C8 C 0.59430 0.35930 0.14750
C9 C 0.37440 0.35520 0.51320
C10 C 0.32710 0.40640 0.97340
C11 C 0.27880 0.36110 1.05860
N1 N 0.50790 0.36190 0.67290
O1 O 0.47410 0.53050 0.34390
O2 O 0.50480 0.40940 0.33230
O3 O 0.34290 0.39330 0.81850
O4 O 0.38890 0.52020 0.56020
O5 O 0.64310 0.38840 0.41080
O6 O 0.51700 0.30980 0.63470
O7 O 0.55710 0.38560 0.76770
O8 O 0.35330 0.45310 1.02570
C12 C 0.34180 0.06990 0.84860
C13 C 0.38310 0.11970 0.94220
C14 C 0.42500 0.16530 0.82840
C15 C 0.49170 0.13010 0.72660
C16 C 0.44810 0.07680 0.64630
C17 C 0.25110 -0.01380 0.87620
C18 C 0.31960 0.16230 1.17630
C19 C 0.24680 0.19670 1.25330
C20 C 0.36050 0.20090 0.73230
C21 C 0.60810 0.16440 0.55280
C22 C 0.63130 0.20960 0.42610
N2 N 0.47910 0.20900 0.92740
O9 O 0.30480 0.03020 0.95010
O10 O 0.31170 0.14970 1.02490
O11 O 0.52250 0.17070 0.60600
O12 O 0.40820 0.04010 0.76380
O13 O 0.38660 0.14800 1.24670
O14 O 0.44080 0.25360 0.96740
O15 O 0.55260 0.19610 0.97120
O16 O 0.65830 0.12620 0.60200
#END
