
#######################################################################
#
#                 Cambridge Crystallographic Data Centre
#                                CCDC
#
#######################################################################
#
# If this CIF has been generated from an entry in the Cambridge
# Structural Database, then it will include bibliographic, chemical,
# crystal, experimental, refinement or atomic coordinate data resulting
# from the CCDC's data processing and validation procedures.
#
#######################################################################

data_CSD_CIF_APAKUZ
_audit_creation_date 2016-06-18
_audit_creation_method CSD-ConQuest-V1
_database_code_CSD APAKUZ
_database_code_depnum_ccdc_archive 'CCDC 1483502'
_chemical_formula_sum 'C14 H6 N2 O8'
_chemical_formula_moiety
;
C14 H6 N2 O8
;
_journal_coeditor_code "sj4045"
_journal_coden_Cambridge 1959
_journal_volume 1
_journal_year 2016
_journal_page_first x160906
_journal_name_full 'IUCrData '
loop_
_publ_author_name
"W.Furukawa"
"M.Takehara"
"Y.Inoue"
"C.Kitamura"
_chemical_name_systematic
;
1,4-dihydroxy-2,3-dinitro-9,10-anthraquinone
;
_cell_volume   1318.601
_exptl_crystal_colour 'red'
_exptl_crystal_density_diffrn 1.663
_exptl_crystal_description 'prism'
_diffrn_ambient_temperature 200
#These two values have been output from a single CSD field.
_refine_ls_R_factor_gt 0.0388
_refine_ls_wR_factor_gt 0.0388
_symmetry_cell_setting monoclinic
_symmetry_space_group_name_H-M 'P 21/c'
_symmetry_Int_Tables_number 14
loop_
_symmetry_equiv_pos_site_id
_symmetry_equiv_pos_as_xyz
1 x,y,z
2 -x,1/2+y,1/2-z
3 -x,-y,-z
4 x,-1/2-y,-1/2+z
_cell_length_a 11.7590(11)
_cell_length_b 7.2852(6)
_cell_length_c 15.9670(16)
_cell_angle_alpha 90
_cell_angle_beta 105.420(3)
_cell_angle_gamma 90
_cell_formula_units_Z 4
loop_
_atom_type_symbol
_atom_type_radius_bond
C 0.68
H 0.23
N 0.68
O 0.68
loop_
_atom_site_label
_atom_site_type_symbol
_atom_site_fract_x
_atom_site_fract_y
_atom_site_fract_z
C1 C 0.43626(9) 0.09726(13) 0.18654(6)
C2 C 0.55559(8) 0.11243(13) 0.18766(6)
C3 C 0.59008(8) 0.17506(13) 0.11682(6)
C4 C 0.50778(9) 0.23341(13) 0.04100(6)
C5 C 0.38757(8) 0.22601(13) 0.03995(6)
C6 C 0.29867(9) 0.29396(14) -0.03798(6)
C7 C 0.17279(9) 0.28732(14) -0.03954(7)
C8 C 0.08861(10) 0.34966(17) -0.11327(7)
H1 H 0.11230 0.39430 -0.16200
C9 C -0.03031(10) 0.34580(17) -0.11475(8)
H2 H -0.08790 0.38760 -0.16480
C10 C -0.0652(1) 0.28146(16) -0.04380(8)
H3 H -0.14650 0.28140 -0.04520
C11 C 0.01757(9) 0.21716(14) 0.02919(8)
H4 H -0.00700 0.17190 0.07740
C12 C 0.13735(9) 0.21906(13) 0.03167(7)
C13 C 0.22486(9) 0.14497(13) 0.10835(6)
C14 C 0.35224(8) 0.15643(12) 0.11118(6)
N1 N 0.64537(7) 0.05360(13) 0.26604(6)
N2 N 0.71694(7) 0.19212(11) 0.12268(5)
O1 O 0.40976(7) 0.02703(11) 0.25620(5)
O2 O 0.54693(7) 0.29723(12) -0.02477(5)
O3 O 0.33025(7) 0.35632(13) -0.09998(5)
O4 O 0.19430(6) 0.07395(11) 0.16893(5)
O5 O 0.64416(8) 0.12276(16) 0.33468(5)
O6 O 0.71535(7) -0.06315(12) 0.25598(6)
O7 O 0.77730(7) 0.27811(11) 0.18428(5)
O8 O 0.75222(7) 0.11905(13) 0.06575(6)
H5 H 0.4783(17) 0.333(3) -0.0697(12)
H6 H 0.3344(17) 0.027(3) 0.2432(11)
#END
