
#######################################################################
#
#                 Cambridge Crystallographic Data Centre
#                                CCDC
#
#######################################################################
#
# If this CIF has been generated from an entry in the Cambridge
# Structural Database, then it will include bibliographic, chemical,
# crystal, experimental, refinement or atomic coordinate data resulting
# from the CCDC's data processing and validation procedures.
#
#######################################################################

data_CSD_CIF_APALOU
_audit_creation_date 2016-06-18
_audit_creation_method CSD-ConQuest-V1
_database_code_CSD APALOU
_database_code_depnum_ccdc_archive 'CCDC 1484397'
_chemical_formula_sum 'C9 H7 N3 O3'
_chemical_formula_moiety
;
C9 H7 N3 O3
;
_journal_coeditor_code "zq4008"
_journal_coden_Cambridge 1959
_journal_volume 1
_journal_year 2016
_journal_page_first x160939
_journal_name_full 'IUCrData '
loop_
_publ_author_name
"M.Boulhaoua"
"A.Essaghouani"
"M.Benchidmi"
"E.M.Essassi"
"J.T.Mague"
_chemical_name_systematic
;
1-(5-nitro-1H-indazol-1-yl)ethanone
;
_chemical_melting_point 429
_cell_volume    440.830
_exptl_crystal_colour 'colorless'
_exptl_crystal_density_diffrn 1.546
_exptl_special_details
;
Melting point range 429-431K

;
_exptl_crystal_description 'thick plate'
_exptl_crystal_preparation 'ethanol'
_diffrn_ambient_temperature 150
#These two values have been output from a single CSD field.
_refine_ls_R_factor_gt 0.0381
_refine_ls_wR_factor_gt 0.0381
_symmetry_cell_setting triclinic
_symmetry_space_group_name_H-M 'P -1'
_symmetry_Int_Tables_number 2
loop_
_symmetry_equiv_pos_site_id
_symmetry_equiv_pos_as_xyz
1 x,y,z
2 -x,-y,-z
_cell_length_a 7.6004(3)
_cell_length_b 7.9200(3)
_cell_length_c 9.3621(3)
_cell_angle_alpha 113.020(1)
_cell_angle_beta 91.404(2)
_cell_angle_gamma 118.350(2)
_cell_formula_units_Z 2
loop_
_atom_type_symbol
_atom_type_radius_bond
C 0.68
H 0.23
N 0.68
O 0.68
loop_
_atom_site_label
_atom_site_type_symbol
_atom_site_fract_x
_atom_site_fract_y
_atom_site_fract_z
O1 O 0.31174(15) 0.75516(16) 0.38055(12)
O2 O 0.94598(19) 0.7555(2) 0.94836(13)
O3 O 1.17589(18) 0.7624(2) 0.81538(15)
N1 N 0.59744(16) 0.74735(18) 0.33098(13)
N2 N 0.71515(18) 0.72440(19) 0.22162(13)
N3 N 1.01405(19) 0.75853(19) 0.83144(14)
C1 C 0.8605(2) 0.7163(2) 0.28973(16)
H1 H 0.957(3) 0.697(3) 0.231(2)
C2 C 0.8463(2) 0.7338(2) 0.44671(15)
C3 C 0.9618(2) 0.7351(2) 0.56515(16)
H2 H 1.085(3) 0.724(3) 0.549(2)
C4 C 0.8964(2) 0.7563(2) 0.70377(16)
C5 C 0.7242(2) 0.7752(2) 0.72875(16)
H3 H 0.684(3) 0.786(3) 0.829(2)
C6 C 0.6096(2) 0.7744(2) 0.61171(16)
H4 H 0.485(3) 0.784(3) 0.6265(19)
C7 C 0.6741(2) 0.75373(19) 0.47014(15)
C8 C 0.4213(2) 0.7508(2) 0.28895(16)
C9 C 0.3841(2) 0.7473(3) 0.12989(17)
H5 H 0.366(3) 0.618(3) 0.043(2)
H6 H 0.499(3) 0.865(3) 0.126(2)
H7 H 0.258(3) 0.750(3) 0.113(2)
#END
