
#######################################################################
#
#                 Cambridge Crystallographic Data Centre
#                                CCDC
#
#######################################################################
#
# If this CIF has been generated from an entry in the Cambridge
# Structural Database, then it will include bibliographic, chemical,
# crystal, experimental, refinement or atomic coordinate data resulting
# from the CCDC's data processing and validation procedures.
#
#######################################################################

data_CSD_CIF_APEMIT
_audit_creation_date 2016-06-20
_audit_creation_method CSD-ConQuest-V1
_database_code_CSD APEMIT
_database_code_depnum_ccdc_archive 'CCDC 958066'
_chemical_formula_sum 'C19 H16 N2 O3'
_chemical_formula_moiety
;
C19 H16 N2 O3
;
_journal_coden_Cambridge 1336
_journal_volume 15
_journal_year 2013
_journal_page_first 6302
_journal_name_full 'Org.Lett. '
loop_
_publ_author_name
"Bing Zhou"
"Juanjuan Du"
"Yaxi Yang"
"Huijin Feng"
"Yuanchao Li"
_chemical_name_systematic
;
methyl 4-(hydroxy(2-(pyridin-2-yl)phenyl)amino)benzoate
;
_cell_volume    797.467
_exptl_crystal_colour 'colorless'
_exptl_crystal_density_diffrn 1.334
_exptl_crystal_description 'needle'
_diffrn_ambient_temperature 296
#These two values have been output from a single CSD field.
_refine_ls_R_factor_gt 0.0419
_refine_ls_wR_factor_gt 0.0419
_symmetry_cell_setting triclinic
_symmetry_space_group_name_H-M 'P -1'
_symmetry_Int_Tables_number 2
loop_
_symmetry_equiv_pos_site_id
_symmetry_equiv_pos_as_xyz
1 x,y,z
2 -x,-y,-z
_cell_length_a 6.2622(10)
_cell_length_b 10.5075(16)
_cell_length_c 12.874(2)
_cell_angle_alpha 82.787(12)
_cell_angle_beta 80.414(12)
_cell_angle_gamma 73.332(11)
_cell_formula_units_Z 2
loop_
_atom_type_symbol
_atom_type_radius_bond
C 0.68
H 0.23
N 0.68
O 0.68
loop_
_atom_site_label
_atom_site_type_symbol
_atom_site_fract_x
_atom_site_fract_y
_atom_site_fract_z
O1 O 0.4661(2) 1.23146(13) 0.52357(11)
O2 O 0.7690(3) 1.30582(14) 0.51676(12)
O3 O 1.2837(2) 0.71047(14) 0.77671(12)
H1 H 1.324(4) 0.726(2) 0.8464(18)
N1 N 0.4491(3) 0.75938(17) 0.94753(13)
N2 N 1.0432(3) 0.74525(16) 0.79297(12)
C1 C 0.4458(5) 0.8724(2) 1.09807(18)
H2 H 0.36500 0.93070 1.14850
C2 C 0.3427(4) 0.8421(2) 1.02277(19)
H3 H 0.18920 0.88130 1.02360
C3 C 0.6705(3) 0.70508(19) 0.94606(15)
C4 C 0.7835(3) 0.61109(18) 0.86347(14)
C5 C 0.9687(3) 0.62767(19) 0.79206(14)
C6 C 0.9512(3) 0.85965(19) 0.72816(14)
C7 C 0.7436(3) 0.88092(19) 0.69397(15)
H4 H 0.66480 0.81670 0.71140
C8 C 0.6540(3) 0.99668(19) 0.63443(15)
H5 H 0.51540 1.00910 0.61180
C9 C 0.7659(3) 1.09487(19) 0.60763(14)
C10 C 0.6735(4) 1.2204(2) 0.54500(16)
C11 C 0.3606(4) 1.3509(2) 0.46207(17)
H6 H 0.35620 1.42780 0.49650
H7 H 0.21000 1.35060 0.45600
H8 H 0.44540 1.35380 0.39290
C12 C 0.6711(5) 0.8145(2) 1.09711(18)
H9 H 0.74630 0.83180 1.14800
C13 C 0.7861(4) 0.7305(2) 1.02049(17)
H10 H 0.93980 0.69110 1.01860
C14 C 0.7016(3) 0.50324(19) 0.85524(15)
H11 H 0.57530 0.49180 0.90070
C15 C 0.8042(4) 0.4133(2) 0.78103(16)
H12 H 0.74660 0.34230 0.77630
C16 C 0.9922(4) 0.4285(2) 0.71377(17)
H13 H 1.06420 0.36630 0.66500
C17 C 1.0732(4) 0.5356(2) 0.71873(16)
H14 H 1.19910 0.54640 0.67260
C18 C 1.0657(3) 0.9575(2) 0.70110(16)
H15 H 1.20470 0.94500 0.72330
C19 C 0.9738(4) 1.0727(2) 0.64158(16)
H16 H 1.05240 1.13690 0.62380
#END
