
#######################################################################
#
#                 Cambridge Crystallographic Data Centre
#                                CCDC
#
#######################################################################
#
# If this CIF has been generated from an entry in the Cambridge
# Structural Database, then it will include bibliographic, chemical,
# crystal, experimental, refinement or atomic coordinate data resulting
# from the CCDC's data processing and validation procedures.
#
#######################################################################

data_CSD_CIF_APENIU
_audit_creation_date 2016-06-20
_audit_creation_method CSD-ConQuest-V1
_database_code_CSD APENIU
_database_code_depnum_ccdc_archive 'CCDC 971907'
_chemical_formula_sum 'C5 H3 N11 O2'
_chemical_formula_moiety
;
C5 H3 N11 O2
;
_journal_coden_Cambridge 1336
_journal_volume 16
_journal_year 2014
_journal_page_first 406
_journal_name_full 'Org.Lett. '
loop_
_publ_author_name
"N.V.Palysaeva"
"K.P.Kumpan"
"M.I.Struchkova"
"I.L.Dalinger"
"A.V.Kormanov"
"N.S.Aleksandrova"
"V.M.Chernyshev"
"D.F.Pyreu"
"K.Yu.Suponitsky"
"A.B.Sheremetev"
_chemical_name_systematic
;
N-(3-nitro-1H-1,2,4-triazol-1-yl)[1,2,4]triazolo[4,3-b][1,2,4,5]tetrazin-6-ami
ne
;
_cell_volume   1852.695
_exptl_crystal_colour 'yellow'
_exptl_crystal_density_diffrn 1.787
_exptl_crystal_description 'plate'
_diffrn_ambient_temperature 100
#These two values have been output from a single CSD field.
_refine_ls_R_factor_gt 0.0522
_refine_ls_wR_factor_gt 0.0522
_symmetry_cell_setting monoclinic
_symmetry_space_group_name_H-M 'C c'
_symmetry_Int_Tables_number 9
loop_
_symmetry_equiv_pos_site_id
_symmetry_equiv_pos_as_xyz
1 x,y,z
2 x,-y,1/2+z
3 1/2+x,1/2+y,z
4 1/2+x,1/2-y,1/2+z
_cell_length_a 19.461(3)
_cell_length_b 8.7866(12)
_cell_length_c 11.3296(16)
_cell_angle_alpha 90
_cell_angle_beta 106.997(2)
_cell_angle_gamma 90
_cell_formula_units_Z 8
loop_
_atom_type_symbol
_atom_type_radius_bond
C 0.68
H 0.23
N 0.68
O 0.68
loop_
_atom_site_label
_atom_site_type_symbol
_atom_site_fract_x
_atom_site_fract_y
_atom_site_fract_z
O1 O -0.15451(16) 0.3883(4) 0.6949(3)
O2 O -0.10003(17) 0.5614(4) 0.8233(3)
N1 N 0.07289(18) -0.2331(4) 0.3944(3)
N2 N 0.0395(2) -0.2999(4) 0.4741(3)
N3 N 0.03825(17) -0.0547(3) 0.5027(3)
N4 N 0.02841(16) 0.0891(3) 0.5408(3)
N5 N 0.09036(16) 0.1652(4) 0.3913(3)
N6 N 0.09759(17) 0.0269(4) 0.3569(3)
N7 N 0.05368(16) 0.3423(3) 0.5055(3)
H1 H 0.04750 0.42040 0.45210
N8 N 0.02770(16) 0.3900(3) 0.6004(3)
N9 N -0.04141(16) 0.3722(4) 0.6011(3)
N10 N 0.02256(16) 0.5222(4) 0.7599(3)
N11 N -0.10253(18) 0.4689(4) 0.7424(3)
C1 C 0.0710(2) -0.0860(4) 0.4127(3)
C2 C 0.0187(2) -0.1903(5) 0.5366(4)
H2 H -0.00620 -0.20560 0.59630
C3 C 0.05549(18) 0.1887(4) 0.4822(3)
C4 C 0.0646(2) 0.4809(4) 0.6940(3)
H3 H 0.11340 0.51010 0.70950
C5 C -0.03968(19) 0.4543(4) 0.6994(3)
O3 O 0.44201(16) 0.3825(4) 0.7435(3)
O4 O 0.38792(17) 0.5579(4) 0.8174(3)
N12 N 0.21538(19) -0.2313(4) 0.2147(3)
N13 N 0.2487(2) -0.2976(4) 0.3277(3)
N14 N 0.24942(16) -0.0527(3) 0.3579(3)
N15 N 0.25958(17) 0.0913(3) 0.4037(3)
N16 N 0.19708(16) 0.1660(4) 0.1926(3)
N17 N 0.18986(17) 0.0280(4) 0.1515(3)
N18 N 0.23380(16) 0.3450(4) 0.3431(3)
H4 H 0.24780 0.41270 0.29520
N19 N 0.25971(16) 0.3920(3) 0.4643(3)
N20 N 0.32882(17) 0.3715(4) 0.5353(3)
N21 N 0.26637(16) 0.5245(4) 0.6295(3)
N22 N 0.39071(19) 0.4661(4) 0.7386(3)
C6 C 0.2167(2) -0.0837(4) 0.2346(3)
C7 C 0.2691(2) -0.1876(4) 0.4111(4)
H5 H 0.29390 -0.20270 0.49580
C8 C 0.23240(18) 0.1905(4) 0.3184(3)
C9 C 0.22338(19) 0.4851(4) 0.5208(3)
H6 H 0.17490 0.51670 0.48740
C10 C 0.3276(2) 0.4536(4) 0.6321(4)
#END
