
#######################################################################
#
#                 Cambridge Crystallographic Data Centre
#                                CCDC
#
#######################################################################
#
# If this CIF has been generated from an entry in the Cambridge
# Structural Database, then it will include bibliographic, chemical,
# crystal, experimental, refinement or atomic coordinate data resulting
# from the CCDC's data processing and validation procedures.
#
#######################################################################

data_CSD_CIF_APERUK
_audit_creation_date 2016-06-20
_audit_creation_method CSD-ConQuest-V1
_database_code_CSD APERUK
_database_code_depnum_ccdc_archive 'CCDC 1486709'
_chemical_formula_sum 'C17 H17 N1 O3'
_chemical_formula_moiety
;
C17 H17 N1 O3
;
_journal_coden_Cambridge 1500
_journal_volume 6
_journal_year 2016
_journal_page_first 78875
_journal_name_full 'RSC Advances '
loop_
_publ_author_name
"Ling-Yan Shao"
"Chao Li"
"Ying Guo"
"Kun-Kun Yu"
"Fei-Yi Zhao"
"Wen-Li Qiao"
"Hong-Wei Liu"
"Dao-Hua Liao"
"Ya-Fei Ji"
_chemical_name_systematic
;
2-(((isopropylideneamino)oxy)methyl)phenyl benzoate
;
_chemical_melting_point 345
_cell_volume   3035.464
_exptl_crystal_colour 'white'
_exptl_crystal_density_diffrn 1.24
_exptl_special_details
;
Moisture-sensitive

;
_exptl_crystal_description 'prismatic'
_diffrn_ambient_temperature 293
#These two values have been output from a single CSD field.
_refine_ls_R_factor_gt 0.0553
_refine_ls_wR_factor_gt 0.0553
_symmetry_cell_setting orthorhombic
_symmetry_space_group_name_H-M 'P b c a'
_symmetry_Int_Tables_number 61
loop_
_symmetry_equiv_pos_site_id
_symmetry_equiv_pos_as_xyz
1 x,y,z
2 1/2-x,-y,1/2+z
3 -x,1/2+y,1/2-z
4 1/2+x,1/2-y,-z
5 -x,-y,-z
6 -1/2+x,y,-1/2-z
7 x,-1/2-y,-1/2+z
8 -1/2-x,-1/2+y,z
_cell_length_a 12.049(3)
_cell_length_b 7.1678(19)
_cell_length_c 35.147(9)
_cell_angle_alpha 90
_cell_angle_beta 90
_cell_angle_gamma 90
_cell_formula_units_Z 8
loop_
_atom_type_symbol
_atom_type_radius_bond
C 0.68
H 0.23
N 0.68
O 0.68
loop_
_atom_site_label
_atom_site_type_symbol
_atom_site_fract_x
_atom_site_fract_y
_atom_site_fract_z
N1 N 0.15668(16) 1.1464(3) 0.41713(5)
O1 O 0.09298(13) 1.1366(3) 0.38295(5)
O2 O -0.08599(12) 0.8213(3) 0.35668(4)
O3 O -0.26550(14) 0.8826(3) 0.34589(4)
C1 C -0.0214(2) 1.1599(4) 0.39309(8)
H1 H -0.06450 1.17900 0.37010
H2 H -0.02880 1.27100 0.40860
C2 C -0.06831(17) 0.9971(4) 0.41434(7)
C3 C -0.07784(19) 1.0009(5) 0.45384(7)
H3 H -0.05700 1.10770 0.46710
C4 C -0.1175(2) 0.8495(7) 0.47359(8)
H4 H -0.12250 0.85410 0.50000
C5 C -0.1497(2) 0.6921(6) 0.45463(8)
H5 H -0.17640 0.58990 0.46810
C6 C -0.1427(2) 0.6847(5) 0.41554(8)
H6 H -0.16580 0.57870 0.40250
C7 C -0.10135(17) 0.8346(4) 0.39617(6)
C8 C -0.17583(18) 0.8428(3) 0.33396(6)
C9 C -0.14818(18) 0.8115(3) 0.29348(6)
C10 C -0.22587(19) 0.8606(3) 0.26616(6)
H7 H -0.29330 0.91220 0.27360
C11 C -0.2040(2) 0.8335(4) 0.22834(7)
H8 H -0.25660 0.86700 0.21020
C12 C -0.1043(2) 0.7567(4) 0.21704(7)
H9 H -0.08960 0.73810 0.19130
C13 C -0.0269(2) 0.7080(4) 0.24387(7)
H10 H 0.04030 0.65620 0.23630
C14 C -0.04792(18) 0.7349(3) 0.28198(6)
H11 H 0.00510 0.70180 0.30000
C15 C 0.2601(2) 1.1369(3) 0.41027(6)
C16 C 0.3352(2) 1.1466(5) 0.44394(8)
H12 H 0.29160 1.15790 0.46670
H13 H 0.38310 1.25290 0.44160
H14 H 0.37910 1.03500 0.44520
C17 C 0.3130(2) 1.1184(4) 0.37207(7)
H15 H 0.25640 1.11150 0.35290
H16 H 0.35710 1.00700 0.37140
H17 H 0.35940 1.22480 0.36740
#END
