
#######################################################################
#
#                 Cambridge Crystallographic Data Centre
#                                CCDC
#
#######################################################################
#
# If this CIF has been generated from an entry in the Cambridge
# Structural Database, then it will include bibliographic, chemical,
# crystal, experimental, refinement or atomic coordinate data resulting
# from the CCDC's data processing and validation procedures.
#
#######################################################################

data_CSD_CIF_APESIZ
_audit_creation_date 2016-06-20
_audit_creation_method CSD-ConQuest-V1
_database_code_CSD APESIZ
_database_code_depnum_ccdc_archive 'CCDC 708232'
_chemical_formula_sum 'C10 H15 N5 O3'
_chemical_formula_moiety
;
C10 H15 N5 O3
;
_journal_coden_Cambridge 1336
_journal_volume 11
_journal_year 2009
_journal_page_first 2523
_journal_name_full 'Org.Lett. '
loop_
_publ_author_name
"S.Picon"
"E.T.H.Dau"
"M.-T.Martin"
"P.Retailleau"
"A.Zaparucha"
"A.Al-Mourabit"
_chemical_name_systematic
;
N-((4E,5Z)-5-amino-4,5-bis(hydroxyimino)pentyl)-3H-pyrrole-5-carboxamide
;
_cell_volume   2476.256
_exptl_crystal_colour 'colorless'
_exptl_crystal_density_diffrn 1.359
_exptl_crystal_description 'parallelepipedic prism'
_diffrn_ambient_temperature 293
#These two values have been output from a single CSD field.
_refine_ls_R_factor_gt 0.0428
_refine_ls_wR_factor_gt 0.0428
_symmetry_cell_setting orthorhombic
_symmetry_space_group_name_H-M 'P b c a'
_symmetry_Int_Tables_number 61
loop_
_symmetry_equiv_pos_site_id
_symmetry_equiv_pos_as_xyz
1 x,y,z
2 1/2-x,-y,1/2+z
3 1/2+x,1/2-y,-z
4 -x,1/2+y,1/2-z
5 -x,-y,-z
6 -1/2+x,y,-1/2-z
7 -1/2-x,-1/2+y,z
8 x,-1/2-y,-1/2+z
_cell_length_a 6.936(2)
_cell_length_b 17.283(4)
_cell_length_c 20.657(5)
_cell_angle_alpha 90
_cell_angle_beta 90
_cell_angle_gamma 90
_cell_formula_units_Z 8
loop_
_atom_type_symbol
_atom_type_radius_bond
C 0.68
H 0.23
N 0.68
O 0.68
loop_
_atom_site_label
_atom_site_type_symbol
_atom_site_fract_x
_atom_site_fract_y
_atom_site_fract_z
O1 O 0.83661(17) 0.31791(7) 0.65193(7)
N1 N 0.3792(2) 0.66347(8) 0.65474(8)
N2 N 0.5252(2) 0.35239(9) 0.65046(9)
H1 H 0.40930 0.34020 0.63960
N3 N 0.7433(2) 0.18110(8) 0.58169(8)
H2 H 0.85370 0.17590 0.60010
C1 C 0.2480(2) 0.53871(10) 0.64159(8)
O2 O 0.12233(19) 0.42142(8) 0.62926(8)
H3 H 0.02430 0.39650 0.63680
O3 O 0.35260(18) 0.73534(7) 0.68700(7)
H4 H 0.44400 0.76390 0.67920
C2 C 0.6190(2) 0.24146(10) 0.59071(9)
C3 C 0.4605(3) 0.22826(12) 0.55237(10)
H5 H 0.35270 0.26000 0.54880
C4 C 0.4906(3) 0.15874(12) 0.51987(10)
H6 H 0.40710 0.13560 0.49050
C5 C 0.6645(3) 0.13103(12) 0.53909(10)
H7 H 0.72020 0.08500 0.52520
C6 C 0.2409(2) 0.61723(10) 0.66990(8)
N4 N 0.1047(2) 0.49552(9) 0.65618(8)
C7 C 0.6673(2) 0.30562(10) 0.63316(9)
C8 C 0.4189(2) 0.51542(11) 0.60173(10)
H8 H 0.45540 0.55810 0.57380
H9 H 0.38380 0.47200 0.57440
N5 N 0.0969(2) 0.63408(10) 0.71121(9)
H10 H 0.09280 0.67860 0.72970
H11 H 0.00900 0.60030 0.71910
C9 C 0.5555(3) 0.42306(12) 0.68679(10)
H12 H 0.66500 0.41610 0.71540
H13 H 0.44310 0.43290 0.71340
C10 C 0.5916(3) 0.49266(12) 0.64385(11)
H14 H 0.70060 0.48160 0.61590
H15 H 0.62630 0.53640 0.67090
#END
