
#######################################################################
#
#                 Cambridge Crystallographic Data Centre
#                                CCDC
#
#######################################################################
#
# If this CIF has been generated from an entry in the Cambridge
# Structural Database, then it will include bibliographic, chemical,
# crystal, experimental, refinement or atomic coordinate data resulting
# from the CCDC's data processing and validation procedures.
#
#######################################################################

data_CSD_CIF_APILUI
_audit_creation_date 2016-06-21
_audit_creation_method CSD-ConQuest-V1
_database_code_CSD APILUI
_database_code_depnum_ccdc_archive 'CCDC 1013077'
_chemical_formula_sum 'C41 H39 N7 O5'
_chemical_formula_moiety
;
C41 H39 N7 O5
;
_journal_coden_Cambridge 91
_journal_volume 140
_journal_year 2015
_journal_page_first 1229
_journal_name_full 'The Analyst '
loop_
_publ_author_name
"A.Mahapatra"
"S.Manna"
"K.Maiti"
"S.Mondal"
"R.Maji"
"D.Mandal"
"S.Mandal"
"Md R.Uddin"
"S.Goswami"
"Ching Kheng Quah"
"Hoong Fun"
_chemical_name_systematic
;
3',6'-bis(diethylamino)-2-((2-hydroxy-5-((4-nitrophenyl)diazenyl)benzylidene)a
mino)spiro[isoindole-1,9'-xanthen]-3(2H)-one
;
_cell_volume   1826.726
_exptl_crystal_colour 'red'
_exptl_crystal_density_diffrn 1.29
_exptl_crystal_description 'needle'
_diffrn_ambient_temperature 294
_refine_special_details
;
C41A and C41B disordered over two sites with occupancies 0.550:0.450.

;
#These two values have been output from a single CSD field.
_refine_ls_R_factor_gt 0.0869
_refine_ls_wR_factor_gt 0.0869
_symmetry_cell_setting triclinic
_symmetry_space_group_name_H-M 'P -1'
_symmetry_Int_Tables_number 2
loop_
_symmetry_equiv_pos_site_id
_symmetry_equiv_pos_as_xyz
1 x,y,z
2 -x,-y,-z
_cell_length_a 10.244(1)
_cell_length_b 13.8307(14)
_cell_length_c 14.5665(14)
_cell_angle_alpha 72.3415(18)
_cell_angle_beta 70.1280(18)
_cell_angle_gamma 75.9246(18)
_cell_formula_units_Z 2
loop_
_atom_type_symbol
_atom_type_radius_bond
C 0.68
H 0.23
N 0.68
O 0.68
loop_
_atom_site_label
_atom_site_type_symbol
_atom_site_fract_x
_atom_site_fract_y
_atom_site_fract_z
O1 O 0.5762(3) 0.6884(2) 0.26741(19)
O2 O 1.0134(3) 0.9960(2) 0.1305(2)
O3 O 1.2222(3) 0.7281(2) 0.2185(2)
H1 H 1.14430 0.76990 0.20680
N1 N 0.8612(3) 0.8781(2) 0.1892(2)
N2 N 0.9588(3) 0.7999(2) 0.2203(2)
N3 N 1.0175(4) 0.3578(2) 0.4517(2)
N4 N 1.1086(4) 0.2864(3) 0.4629(3)
N5 N 0.3688(5) 0.7536(3) 0.5924(3)
N6 N 0.7603(6) 0.5878(3) -0.0420(3)
C1 C 0.6216(3) 0.8401(2) 0.2932(2)
C2 C 0.5951(4) 0.8965(3) 0.3631(3)
H2 H 0.63380 0.95650 0.34270
C3 C 0.5150(5) 0.8688(3) 0.4606(3)
H3 H 0.50280 0.90880 0.50480
C4 C 0.4520(4) 0.7816(3) 0.4941(3)
C5 C 0.4740(4) 0.7248(3) 0.4247(3)
H4 H 0.43230 0.66630 0.44400
C6 C 0.5577(4) 0.7548(3) 0.3267(3)
C7 C 0.6592(4) 0.7113(3) 0.1686(3)
C8 C 0.6689(5) 0.6425(3) 0.1135(3)
H5 H 0.61950 0.58730 0.14370
C9 C 0.7511(5) 0.6546(3) 0.0142(3)
C10 C 0.8222(4) 0.7393(3) -0.0273(3)
H6 H 0.87890 0.74990 -0.09350
C11 C 0.8094(4) 0.8071(3) 0.0285(3)
H7 H 0.85640 0.86350 -0.00180
C12 C 0.7290(3) 0.7946(2) 0.1284(2)
C13 C 0.7185(3) 0.8696(2) 0.1878(2)
C14 C 0.6756(4) 0.9792(2) 0.1336(2)
C15 C 0.5518(4) 1.0207(3) 0.1084(3)
H8 H 0.47970 0.98230 0.12850
C16 C 0.5383(5) 1.1219(3) 0.0521(3)
H9 H 0.45650 1.15150 0.03340
C17 C 0.6447(6) 1.1781(3) 0.0239(3)
H10 H 0.63360 1.24540 -0.01410
C18 C 0.7668(5) 1.1384(3) 0.0500(3)
H11 H 0.83770 1.17770 0.03090
C19 C 0.7812(4) 1.0372(2) 0.1059(2)
C20 C 0.9014(4) 0.9740(3) 0.1402(2)
C21 C 0.9270(4) 0.7111(3) 0.2690(3)
H12 H 0.83560 0.69930 0.28400
C22 C 1.0315(4) 0.6287(3) 0.3013(2)
C23 C 1.1730(4) 0.6399(3) 0.2759(3)
C24 C 1.2669(5) 0.5574(3) 0.3110(3)
H13 H 1.36060 0.56430 0.29560
C25 C 1.2224(5) 0.4654(3) 0.3685(3)
H14 H 1.28650 0.41110 0.39170
C26 C 1.0838(5) 0.4528(3) 0.3922(3)
C27 C 0.9909(4) 0.5347(3) 0.3599(3)
H15 H 0.89700 0.52740 0.37760
C28 C 1.0457(5) 0.1936(4) 0.5234(4)
C29 C 1.1352(5) 0.1037(4) 0.5260(3)
H16 H 1.22910 0.10270 0.48840
C30 C 1.0879(5) 0.0162(4) 0.5829(4)
H17 H 1.14970 -0.04560 0.58540
C31 C 0.9492(5) 0.0165(3) 0.6376(3)
C32 C 0.8534(5) 0.1044(3) 0.6347(3)
H18 H 0.75910 0.10360 0.67040
C33 C 0.9031(6) 0.1957(3) 0.5758(3)
H19 H 0.84170 0.25750 0.57150
N7 N 0.9025(5) -0.0805(3) 0.6987(3)
O4 O 0.7790(5) -0.0811(3) 0.7397(4)
O5 O 0.9901(5) -0.1566(3) 0.7071(3)
C34 C 0.3634(5) 0.8030(4) 0.6691(3)
H20 H 0.28220 0.78620 0.72600
H21 H 0.34830 0.87680 0.64210
C35 C 0.4897(7) 0.7757(5) 0.7068(4)
H22 H 0.47670 0.81470 0.75450
H23 H 0.57150 0.79110 0.65140
H24 H 0.50200 0.70370 0.73870
C36 C 0.2853(6) 0.6686(5) 0.6233(4)
H25 H 0.20440 0.67670 0.68090
H26 H 0.25300 0.66690 0.56860
C37 C 0.3790(8) 0.5784(5) 0.6484(4)
H27 H 0.33260 0.51970 0.66790
H28 H 0.40870 0.58130 0.70310
H29 H 0.45940 0.57290 0.59110
C38 C 0.8429(8) 0.6007(5) -0.1454(4)
H30 H 0.83960 0.67260 -0.17740
H31 H 0.80560 0.57000 -0.18010
C39 C 0.6899(10) 0.4984(6) 0.0024(5)
H32 H 0.60050 0.51740 0.04930
H33 H 0.66940 0.48150 -0.05070
C40 C 0.7597(16) 0.4103(7) 0.0525(9)
H34 H 0.70100 0.35770 0.08050
H35 H 0.78110 0.42510 0.10560
H36 H 0.84530 0.38690 0.00610
C41 C 0.9858(14) 0.5546(12) -0.1498(10)
H37 H 1.04310 0.56790 -0.21850
H38 H 0.99050 0.48180 -0.12230
H39 H 1.01950 0.58340 -0.11150
H40? H 0.87460 0.53680 -0.16520
H41? H 0.92220 0.63350 -0.15910
C42? C 0.745(2) 0.6657(12) -0.1904(10)
H42? H 0.67330 0.62840 -0.18450
H43? H 0.78980 0.69270 -0.26020
H44? H 0.70270 0.72120 -0.15780
#END
