
#######################################################################
#
#                 Cambridge Crystallographic Data Centre
#                                CCDC
#
#######################################################################
#
# If this CIF has been generated from an entry in the Cambridge
# Structural Database, then it will include bibliographic, chemical,
# crystal, experimental, refinement or atomic coordinate data resulting
# from the CCDC's data processing and validation procedures.
#
#######################################################################

data_CSD_CIF_APOXAG
_audit_creation_date 2016-06-21
_audit_creation_method CSD-ConQuest-V1
_database_code_CSD APOXAG
_database_code_depnum_ccdc_archive 'CCDC 1447730'
_chemical_formula_sum 'C16 H11 N1 O4'
_chemical_formula_moiety
;
C16 H11 N1 O4
;
_journal_coden_Cambridge 1500
_journal_volume 6
_journal_year 2016
_journal_page_first 58613
_journal_name_full 'RSC Advances '
loop_
_publ_author_name
"Xiao-Hui Hu"
"Xiao-Qiu Pu"
"Rui Liu"
"Chun-Xiao Cui"
"Jun Yang"
"Xian-Jin Yang"
_chemical_name_systematic
;
7-nitro-3-phenyl-3a,8b-dihydrofuro[3,2-b][1]benzofuran
;
_cell_volume   1289.496
_exptl_crystal_colour 'yellow'
_exptl_crystal_density_diffrn 1.441
_exptl_crystal_description 'block'
_diffrn_ambient_temperature 296
#These two values have been output from a single CSD field.
_refine_ls_R_factor_gt 0.0406
_refine_ls_wR_factor_gt 0.0406
_symmetry_cell_setting triclinic
_symmetry_space_group_name_H-M 'P -1'
_symmetry_Int_Tables_number 2
loop_
_symmetry_equiv_pos_site_id
_symmetry_equiv_pos_as_xyz
1 x,y,z
2 -x,-y,-z
_cell_length_a 10.6863(5)
_cell_length_b 11.6232(6)
_cell_length_c 11.9288(6)
_cell_angle_alpha 76.255(1)
_cell_angle_beta 64.109(1)
_cell_angle_gamma 88.571(1)
_cell_formula_units_Z 4
loop_
_atom_type_symbol
_atom_type_radius_bond
C 0.68
H 0.23
N 0.68
O 0.68
loop_
_atom_site_label
_atom_site_type_symbol
_atom_site_fract_x
_atom_site_fract_y
_atom_site_fract_z
O1 O 0.22867(17) 0.50043(15) 0.36442(17)
O2 O 0.39217(19) 0.45449(16) 0.42155(18)
O3 O 0.88808(14) 0.74092(12) 0.06149(14)
O4 O 0.66685(13) 0.93191(11) 0.02118(12)
N1 N 0.34601(19) 0.51929(16) 0.35430(18)
C1 C 0.93404(19) 1.13678(17) -0.19088(19)
H1 H 0.85670 1.14800 -0.11890
C2 C 0.9972(2) 1.23121(19) -0.2985(2)
H2 H 0.96160 1.30500 -0.29810
C3 C 1.1118(2) 1.2172(2) -0.4058(2)
H3 H 1.15420 1.28100 -0.47750
C4 C 1.1633(2) 1.1071(2) -0.4057(2)
H4 H 1.24120 1.09680 -0.47770
C5 C 1.1002(2) 1.0126(2) -0.3001(2)
H5 H 1.13490 0.93860 -0.30260
C6 C 0.98492(18) 1.02521(17) -0.18911(18)
C7 C 0.92099(18) 0.92556(17) -0.07487(18)
C8 C 0.9634(2) 0.81737(18) -0.0552(2)
H6 H 1.04130 0.79500 -0.11860
C9 C 0.77879(19) 0.80710(17) 0.13621(19)
H7 H 0.78710 0.81500 0.21270
C10 C 0.63719(19) 0.75457(16) 0.16924(17)
C11 C 0.5616(2) 0.65075(17) 0.25442(18)
H8 H 0.59610 0.59950 0.30490
C12 C 0.43220(19) 0.62611(17) 0.26159(18)
C13 C 0.3793(2) 0.70055(19) 0.18660(19)
H9 H 0.29230 0.68000 0.19330
C14 C 0.45486(19) 0.80479(19) 0.10229(19)
H10 H 0.42070 0.85580 0.05140
C15 C 0.58326(18) 0.83081(16) 0.09620(16)
C16 C 0.79169(19) 0.92839(17) 0.04428(18)
H11 H 0.79990 0.99400 0.07990
O5 O 0.43935(16) 0.61467(15) -0.14616(16)
O6 O 0.26928(17) 0.72422(15) -0.08809(16)
O7 O -0.22892(15) 0.42228(14) 0.28126(15)
O8 O -0.00022(15) 0.27141(12) 0.35294(14)
N2 N 0.32025(18) 0.62920(17) -0.07436(17)
C17 C -0.4500(2) 0.0974(2) 0.5802(2)
H12 H -0.50260 0.13460 0.53950
C18 C -0.5040(2) -0.0084(2) 0.6739(2)
H13 H -0.59170 -0.04230 0.69460
C19 C -0.4289(3) -0.0638(2) 0.7368(2)
H14 H -0.46560 -0.13480 0.79990
C20 C -0.3001(3) -0.0137(2) 0.7060(2)
H15 H -0.24970 -0.05010 0.74930
C21 C -0.2442(2) 0.09082(19) 0.6108(2)
H16 H -0.15560 0.12300 0.58980
C22 C -0.3180(2) 0.14864(17) 0.54598(18)
C23 C -0.2576(2) 0.25975(18) 0.44574(19)
C24 C -0.1271(2) 0.32862(17) 0.41814(19)
H17 H -0.13120 0.34520 0.49640
C25 C 0.0842(2) 0.35179(17) 0.24353(19)
C26 C 0.2210(2) 0.33666(19) 0.1642(2)
H18 H 0.26040 0.26660 0.18210
C27 C 0.2967(2) 0.42781(19) 0.0587(2)
H19 H 0.38910 0.42050 0.00420
C28 C 0.2350(2) 0.53091(18) 0.03347(18)
C29 C 0.0979(2) 0.54562(17) 0.11052(18)
H20 H 0.05790 0.61500 0.09140
C30 C 0.0226(2) 0.45444(17) 0.21631(18)
C31 C -0.1229(2) 0.44307(18) 0.3214(2)
H21 H -0.14040 0.51140 0.35940
C32 C -0.3037(2) 0.3184(2) 0.3631(2)
H22 H -0.38320 0.28990 0.36130
#END
