
#######################################################################
#
#                 Cambridge Crystallographic Data Centre
#                                CCDC
#
#######################################################################
#
# If this CIF has been generated from an entry in the Cambridge
# Structural Database, then it will include bibliographic, chemical,
# crystal, experimental, refinement or atomic coordinate data resulting
# from the CCDC's data processing and validation procedures.
#
#######################################################################

data_CSD_CIF_APOYUA
_audit_creation_date 2011-07-11
_audit_creation_method CSD-ConQuest-V1
_database_code_CSD APOYUA
_database_code_depnum_ccdc_archive 'CCDC 765271'
_chemical_formula_sum 'C11 H14 N2 O4'
_chemical_formula_moiety
;
C11 H14 N2 O4
;
_journal_coden_Cambridge 1291
_journal_year 2010
_journal_page_first 5263
_journal_name_full 'Eur.J.Org.Chem. '
loop_
_publ_author_name
"R.F.Martinez"
"M.Avalos"
"R.Babiano"
"P.Cintas"
"J.L.Jimenez"
"M.E.Light"
"J.C.Palacios"
"E.M.S.Perez"
_chemical_name_systematic
;
2-Methyl-2-((3-nitrobenzylidene)amino)propane-1,3-diol
;
_chemical_melting_point 389.15
_cell_volume   2222.828
_exptl_crystal_colour 'colorless'
_exptl_crystal_density_diffrn 1.424
_exptl_special_details
;
Melting point range 389.15-390.15K

;
_exptl_crystal_description 'block'
_diffrn_ambient_temperature 120
#These two values have been output from a single CSD field.
_refine_ls_R_factor_gt 0.054
_refine_ls_wR_factor_gt 0.054
_symmetry_cell_setting monoclinic
_symmetry_space_group_name_H-M 'P 21/n'
_symmetry_Int_Tables_number 14
loop_
_symmetry_equiv_pos_site_id
_symmetry_equiv_pos_as_xyz
1 x,y,z
2 1/2-x,1/2+y,1/2-z
3 -x,-y,-z
4 -1/2+x,-1/2-y,-1/2+z
_cell_length_a 10.9105(2)
_cell_length_b 18.3136(4)
_cell_length_c 11.3030(2)
_cell_angle_alpha 90
_cell_angle_beta 100.191(1)
_cell_angle_gamma 90
_cell_formula_units_Z 8
loop_
_atom_type_symbol
_atom_type_radius_bond
C 0.68
H 0.23
N 0.68
O 0.68
loop_
_atom_site_label
_atom_site_type_symbol
_atom_site_fract_x
_atom_site_fract_y
_atom_site_fract_z
O1 O 0.75904(12) 0.25203(7) 0.44616(12)
H1 H 0.80590 0.27430 0.40690
O2 O 0.37881(12) 0.29445(7) 0.15975(12)
H2 H 0.34000 0.27860 0.09390
O3 O 0.91785(15) 0.38068(8) -0.06860(13)
O4 O 0.92819(15) 0.49003(8) -0.13824(14)
N1 N 0.63749(14) 0.32630(8) 0.23328(13)
N2 N 0.88527(16) 0.44465(9) -0.07628(14)
C1 C 0.65692(17) 0.2211(1) 0.36527(16)
H3 H 0.61150 0.18690 0.40990
H4 H 0.68920 0.19280 0.30280
C2 C 0.46626(18) 0.24103(10) 0.21305(17)
H5 H 0.50500 0.21690 0.15040
H6 H 0.42370 0.20330 0.25370
C3 C 0.50700(18) 0.31914(10) 0.39989(17)
H7 H 0.57180 0.34400 0.45670
H8 H 0.46430 0.28360 0.44320
H9 H 0.44680 0.35510 0.36050
C4 C 0.56665(16) 0.27943(9) 0.30474(16)
C5 C 0.60370(17) 0.39211(10) 0.21394(16)
H10 H 0.54010 0.41060 0.25330
C6 C 0.65761(17) 0.44175(10) 0.13359(16)
C7 C 0.61348(18) 0.51357(10) 0.12104(17)
H11 H 0.55290 0.52950 0.16620
C8 C 0.65725(19) 0.56213(10) 0.04311(18)
H12 H 0.62560 0.61050 0.03510
C9 C 0.74672(18) 0.54026(10) -0.02280(17)
H13 H 0.77720 0.57280 -0.07620
C10 C 0.78999(17) 0.46887(10) -0.00760(16)
C11 C 0.74752(17) 0.41893(10) 0.06733(16)
H14 H 0.77850 0.37040 0.07370
O5 O 0.32780(13) 0.25693(7) 0.63683(12)
H15 H 0.27690 0.23430 0.67100
O6 O 0.68556(14) 0.14989(8) 0.75260(15)
H16 H 0.75270 0.16270 0.73200
O7 O 0.21493(16) 0.10231(9) 1.18257(14)
O8 O 0.12238(19) -0.00231(9) 1.16933(17)
N3 N 0.44206(14) 0.17766(8) 0.84753(13)
N4 N 0.19448(17) 0.04157(9) 1.13729(15)
C12 C 0.42382(18) 0.28693(10) 0.72501(17)
H17 H 0.38520 0.31270 0.78600
H18 H 0.47030 0.32350 0.68600
C13 C 0.58741(18) 0.19663(11) 0.69696(17)
H19 H 0.52880 0.16830 0.63730
H20 H 0.62270 0.23620 0.65370
C14 C 0.60576(19) 0.26853(11) 0.88888(18)
H21 H 0.55910 0.28760 0.94870
H22 H 0.64700 0.30890 0.85470
H23 H 0.66860 0.23370 0.92740
C15 C 0.51642(17) 0.23013(10) 0.78892(16)
C16 C 0.45497(17) 0.10927(10) 0.83482(16)
H24 H 0.51110 0.09240 0.78550
C17 C 0.38521(17) 0.05497(10) 0.89447(16)
C18 C 0.38084(18) -0.01736(10) 0.85537(17)
H25 H 0.42320 -0.03090 0.79210
C19 C 0.31520(19) -0.0701(1) 0.90775(18)
H26 H 0.31320 -0.11910 0.88000
C20 C 0.25311(19) -0.05135(10) 0.99990(18)
H27 H 0.20740 -0.08670 1.03570
C21 C 0.25959(18) 0.02089(10) 1.03870(17)
C22 C 0.32457(17) 0.0741(1) 0.98938(16)
H28 H 0.32810 0.12270 1.01920
#END
