
#######################################################################
#
#                 Cambridge Crystallographic Data Centre
#                                CCDC
#
#######################################################################
#
# If this CIF has been generated from an entry in the Cambridge
# Structural Database, then it will include bibliographic, chemical,
# crystal, experimental, refinement or atomic coordinate data resulting
# from the CCDC's data processing and validation procedures.
#
#######################################################################

data_CSD_CIF_APOZAH
_audit_creation_date 2011-07-11
_audit_creation_method CSD-ConQuest-V1
_database_code_CSD APOZAH
_database_code_depnum_ccdc_archive 'CCDC 765272'
_chemical_formula_sum 'C17 H20 N2 O8'
_chemical_formula_moiety
;
C17 H20 N2 O8
;
_journal_coden_Cambridge 1291
_journal_year 2010
_journal_page_first 5263
_journal_name_full 'Eur.J.Org.Chem. '
loop_
_publ_author_name
"R.F.Martinez"
"M.Avalos"
"R.Babiano"
"P.Cintas"
"J.L.Jimenez"
"M.E.Light"
"J.C.Palacios"
"E.M.S.Perez"
_chemical_name_systematic
;
3-Acetoxy-2-(acetoxymethyl)-2-((4-nitrobenzylidene)amino)propyl acetate
;
_chemical_name_common
;
1,3-Diacetoxy-2-acetoxymethyl-2-(4-nitrobenzylideneamino)propane
;
_chemical_melting_point 358.15
_cell_volume   1837.289
_exptl_crystal_colour 'colorless'
_exptl_crystal_density_diffrn 1.375
_exptl_special_details
;
Melting point range 358.15-359.15K

;
_exptl_crystal_description 'block'
_diffrn_ambient_temperature 120
#These two values have been output from a single CSD field.
_refine_ls_R_factor_gt 0.0404
_refine_ls_wR_factor_gt 0.0404
_symmetry_cell_setting monoclinic
_symmetry_space_group_name_H-M 'P 21/c'
_symmetry_Int_Tables_number 14
loop_
_symmetry_equiv_pos_site_id
_symmetry_equiv_pos_as_xyz
1 x,y,z
2 -x,1/2+y,1/2-z
3 -x,-y,-z
4 x,-1/2-y,-1/2+z
_cell_length_a 21.8720(3)
_cell_length_b 10.6435(2)
_cell_length_c 7.9620(1)
_cell_angle_alpha 90
_cell_angle_beta 97.586(1)
_cell_angle_gamma 90
_cell_formula_units_Z 4
loop_
_atom_type_symbol
_atom_type_radius_bond
C 0.68
H 0.23
N 0.68
O 0.68
loop_
_atom_site_label
_atom_site_type_symbol
_atom_site_fract_x
_atom_site_fract_y
_atom_site_fract_z
C1 C 0.15282(6) 0.63829(12) 0.09203(15)
C2 C 0.13949(6) 0.76605(12) 0.10482(17)
H1 H 0.16780 0.81960 0.17150
C3 C 0.08532(6) 0.81502(13) 0.02095(17)
H2 H 0.07620 0.90200 0.02760
C4 C 0.04458(6) 0.73393(14) -0.07307(16)
C5 C 0.05580(6) 0.60739(14) -0.08634(18)
H3 H 0.02670 0.55400 -0.15040
C6 C 0.11071(7) 0.55989(13) -0.00371(18)
H4 H 0.11970 0.47300 -0.01250
C7 C 0.20985(6) 0.58173(12) 0.18156(16)
H5 H 0.21810 0.49560 0.16280
C8 C 0.29992(6) 0.57844(12) 0.38314(15)
C9 C 0.35157(6) 0.67602(12) 0.40752(16)
H6 H 0.36370 0.70020 0.29650
H7 H 0.33740 0.75230 0.46230
C10 C 0.45301(6) 0.69447(13) 0.55255(18)
C11 C 0.50529(7) 0.62803(15) 0.6553(2)
H8 H 0.53410 0.59690 0.58050
H9 H 0.48930 0.55720 0.71490
H10 H 0.52680 0.68640 0.73810
C12 C 0.32135(6) 0.45577(12) 0.30941(16)
H11 H 0.35270 0.41450 0.39230
H12 H 0.28600 0.39760 0.28340
C13 C 0.35940(6) 0.38557(12) 0.06137(16)
C14 C 0.39246(6) 0.42308(13) -0.08299(16)
H13 H 0.43680 0.40890 -0.05260
H14 H 0.38500 0.51230 -0.10840
H15 H 0.37730 0.37270 -0.18290
C15 C 0.27989(6) 0.55028(12) 0.55605(16)
H16 H 0.31540 0.51960 0.63560
H17 H 0.26350 0.62710 0.60410
C16 C 0.21767(6) 0.39701(13) 0.66879(17)
C17 C 0.17607(7) 0.28804(14) 0.61939(19)
H18 H 0.16490 0.24750 0.72160
H19 H 0.19740 0.22740 0.55500
H20 H 0.13870 0.31770 0.54920
N1 N -0.01278(5) 0.78493(14) -0.16552(15)
N2 N 0.24788(5) 0.64398(10) 0.28197(13)
O1 O -0.02628(6) 0.89416(12) -0.13837(18)
O2 O -0.04436(5) 0.71661(15) -0.26553(15)
O3 O 0.40341(4) 0.62034(9) 0.51353(12)
O4 O 0.45397(5) 0.80095(11) 0.5066(2)
O5 O 0.34734(4) 0.48548(8) 0.15650(11)
O6 O 0.34643(5) 0.27941(9) 0.09624(12)
O7 O 0.23260(4) 0.45504(9) 0.52957(11)
O8 O 0.23633(5) 0.43059(11) 0.81071(12)
#END
