
#######################################################################
#
#                 Cambridge Crystallographic Data Centre
#                                CCDC
#
#######################################################################
#
# If this CIF has been generated from an entry in the Cambridge
# Structural Database, then it will include bibliographic, chemical,
# crystal, experimental, refinement or atomic coordinate data resulting
# from the CCDC's data processing and validation procedures.
#
#######################################################################

data_CSD_CIF_APPXDZ
_audit_creation_date 1979-02-14
_audit_creation_method CSD-ConQuest-V1
_database_code_CSD APPXDZ
_chemical_formula_sum 'C14 H11 N3 O1'
_chemical_formula_moiety
;
C14 H11 N3 O1
;
_journal_coeditor_code "IUCr A16566"
_journal_coden_Cambridge 107
_journal_volume 34
_journal_year 1978
_journal_page_first 3390
_journal_name_full 'Acta Crystallogr.,Sect.B:Struct.Crystallogr.Cryst.Chem. '
loop_
_publ_author_name
"A.Albinati"
"S.Bruckner"
_chemical_name_systematic
;
3-(p-Aminophenyl)-5-phenyl-1,2,4-oxa-diazole
;
_cell_volume   1201.893
_exptl_crystal_density_diffrn 1.32
_diffrn_ambient_temperature ?
_diffrn_special_details
;
The study was carried out at room temperature,in the range 283-303K

;
#These two values have been output from a single CSD field.
_refine_ls_R_factor_gt 0.039
_refine_ls_wR_factor_gt 0.039
_symmetry_cell_setting monoclinic
_symmetry_space_group_name_H-M 'P 21/c'
_symmetry_Int_Tables_number 14
loop_
_symmetry_equiv_pos_site_id
_symmetry_equiv_pos_as_xyz
1 x,y,z
2 -x,1/2+y,1/2-z
3 -x,-y,-z
4 x,-1/2-y,-1/2+z
_cell_length_a 7.348(2)
_cell_length_b 12.687(3)
_cell_length_c 13.383(3)
_cell_angle_alpha 90
_cell_angle_beta 105.56(6)
_cell_angle_gamma 90
_cell_formula_units_Z 4
loop_
_atom_type_symbol
_atom_type_radius_bond
C 0.68
H 0.23
N 0.68
O 0.68
loop_
_atom_site_label
_atom_site_type_symbol
_atom_site_fract_x
_atom_site_fract_y
_atom_site_fract_z
C1 C 0.41410 0.89140 0.85170
C2 C 0.44010 0.86570 0.95640
C3 C 0.52440 0.77230 0.99560
C4 C 0.58770 0.70140 0.93330
C5 C 0.56380 0.72800 0.82920
C6 C 0.48030 0.82140 0.78940
C7 C 0.67540 0.60190 0.97720
C8 C 0.78440 0.48500 1.08750
C9 C 0.85250 0.42040 1.18090
C10 C 0.82620 0.45680 1.27350
C11 C 0.89050 0.39690 1.36310
C12 C 0.97840 0.30160 1.35920
C13 C 1.00460 0.26590 1.26760
C14 C 0.94060 0.32490 1.17770
N1 N 0.70800 0.57770 1.08110
N2 N 0.72770 0.52850 0.92240
N3 N 0.32900 0.98440 0.81180
O1 O 0.80200 0.44850 0.99680
H1 H 0.39600 0.91400 1.00100
H2 H 0.53400 0.75700 1.06400
H3 H 0.60700 0.67900 0.78600
H4 H 0.47000 0.83800 0.71800
H5 H 0.76200 0.52200 1.27500
H6 H 0.87800 0.42600 1.42800
H7 H 1.03100 0.26000 1.42400
H8 H 1.06500 0.19800 1.26400
H9 H 0.95100 0.30000 1.10900
H10 H 0.30000 0.99400 0.74200
H11 H 0.27800 1.02500 0.85100
#END
