
#######################################################################
#
#                 Cambridge Crystallographic Data Centre
#                                CCDC
#
#######################################################################
#
# If this CIF has been generated from an entry in the Cambridge
# Structural Database, then it will include bibliographic, chemical,
# crystal, experimental, refinement or atomic coordinate data resulting
# from the CCDC's data processing and validation procedures.
#
#######################################################################

data_CSD_CIF_APUCOE
_audit_creation_date 2011-06-30
_audit_creation_method CSD-ConQuest-V1
_database_code_CSD APUCOE
_database_code_depnum_ccdc_archive 'CCDC 756959'
_chemical_formula_sum 'C15 H17 N1 O4'
_chemical_formula_moiety
;
C15 H17 N1 O4
;
_journal_coden_Cambridge 1336
_journal_volume 12
_journal_year 2010
_journal_page_first 4768
_journal_name_full 'Org.Lett. '
loop_
_publ_author_name
"E.Seraya"
"E.Slack"
"A.Ariafard"
"B.F.Yates"
"C.J.T.Hyland"
_chemical_name_systematic
;
(Z)-3,4-dimethyl-1-(4-nitrophenyl)penta-1,3-dien-2-yl acetate
;
_cell_volume   1427.893
_exptl_crystal_colour 'yellow'
_exptl_crystal_density_diffrn 1.28
_diffrn_ambient_temperature 213
#These two values have been output from a single CSD field.
_refine_ls_R_factor_gt 0.0748
_refine_ls_wR_factor_gt 0.0748
_symmetry_cell_setting triclinic
_symmetry_space_group_name_H-M 'P -1'
_symmetry_Int_Tables_number 2
loop_
_symmetry_equiv_pos_site_id
_symmetry_equiv_pos_as_xyz
1 x,y,z
2 -x,-y,-z
_cell_length_a 6.999(9)
_cell_length_b 12.277(15)
_cell_length_c 17.34(2)
_cell_angle_alpha 93.43(2)
_cell_angle_beta 91.45(2)
_cell_angle_gamma 106.06(2)
_cell_formula_units_Z 4
loop_
_atom_type_symbol
_atom_type_radius_bond
C 0.68
H 0.23
N 0.68
O 0.68
loop_
_atom_site_label
_atom_site_type_symbol
_atom_site_fract_x
_atom_site_fract_y
_atom_site_fract_z
O1 O 0.3704(3) 0.63491(15) 0.63408(10)
O2 O 0.7380(4) 1.0151(2) 1.00015(12)
O3 O 0.6373(3) 0.62128(18) 0.57153(12)
O4 O 0.6125(4) 0.8387(2) 1.01960(12)
C1 C 0.5830(4) 0.8927(2) 0.89621(13)
N1 N 0.6498(4) 0.9182(2) 0.97773(13)
C2 C 0.4776(3) 0.8483(2) 0.74088(13)
C3 C 0.5523(4) 0.9589(2) 0.77300(14)
H1 H 0.56570 1.01930 0.74080
C4 C 0.4278(4) 0.8330(2) 0.65753(14)
H2 H 0.42290 0.90010 0.63520
C5 C 0.6070(4) 0.9834(2) 0.84975(14)
H3 H 0.65880 1.05880 0.87030
C6 C 0.3885(4) 0.7431(2) 0.60783(14)
C7 C 0.5051(4) 0.7829(2) 0.86779(14)
H4 H 0.48660 0.72320 0.90090
C8 C 0.4984(4) 0.5781(2) 0.60731(15)
C9 C 0.4489(4) 0.8107(2) 0.47765(15)
C10 C 0.3328(4) 0.7434(2) 0.52490(15)
C11 C 0.4535(4) 0.7600(2) 0.78957(14)
H5 H 0.40190 0.68440 0.76940
C12 C 0.6573(5) 0.8836(3) 0.49831(16)
H6 H 0.69250 0.87390 0.55140
H7 H 0.66420 0.96270 0.49260
H8 H 0.74950 0.86110 0.46420
C13 C 0.3866(6) 0.8180(3) 0.39473(17)
H9 H 0.26480 0.75850 0.38100
H10 H 0.49070 0.80870 0.36130
H11 H 0.36400 0.89160 0.38860
C14 C 0.4410(5) 0.4588(3) 0.63099(18)
H12 H 0.53310 0.41930 0.61050
H13 H 0.30720 0.42020 0.61090
H14 H 0.44530 0.45940 0.68700
C15 C 0.1303(5) 0.6617(3) 0.5008(2)
H15 H 0.05240 0.70110 0.47200
H16 H 0.06110 0.63360 0.54640
H17 H 0.14840 0.59840 0.46840
O5 O 0.1076(3) 0.33537(16) 0.11112(11)
N2 N -0.1145(3) -0.1654(2) 0.25774(16)
C16 C 0.0254(3) 0.1888(2) 0.24234(14)
O6 O -0.1366(4) -0.22553(19) 0.19819(14)
C17 C -0.0711(4) -0.0434(2) 0.25316(15)
C18 C -0.0866(4) -0.0013(2) 0.18195(15)
H18 H -0.12960 -0.05080 0.13760
C19 C -0.0381(4) 0.1144(2) 0.17724(15)
H19 H -0.04810 0.14390 0.12900
O7 O -0.1314(3) 0.41303(19) 0.07353(12)
C20 C 0.0351(4) 0.1418(2) 0.31345(15)
H20 H 0.07560 0.19070 0.35830
C21 C -0.0125(4) 0.0272(2) 0.31969(15)
H21 H -0.00570 -0.00290 0.36790
O8 O -0.1258(4) -0.20369(19) 0.32157(14)
C22 C 0.0804(4) 0.3125(2) 0.24318(16)
H22 H 0.09730 0.34930 0.29300
C23 C 0.1586(4) 0.5084(3) 0.20130(16)
C24 C 0.1108(4) 0.3821(2) 0.18698(15)
C25 C -0.0157(5) 0.3615(3) 0.05613(16)
C26 C 0.4514(5) 0.5388(3) 0.1168(2)
H23 H 0.43900 0.45900 0.12220
H24 H 0.58670 0.58320 0.13090
H25 H 0.41960 0.54980 0.06360
C27 C 0.3097(5) 0.5767(3) 0.16900(17)
C28 C 0.3544(5) 0.7038(3) 0.18253(19)
H26 H 0.23440 0.72330 0.19700
H27 H 0.40170 0.73940 0.13550
H28 H 0.45600 0.73060 0.22370
C29 C 0.0233(5) 0.5476(3) 0.25458(18)
H29 H 0.07930 0.62780 0.26950
H30 H 0.00840 0.50480 0.30030
H31 H -0.10590 0.53580 0.22850
C30 C 0.0119(6) 0.3141(3) -0.02046(19)
H32 H -0.06370 0.23470 -0.02640
H33 H 0.15200 0.32060 -0.02640
H34 H -0.03410 0.35550 -0.05950
#END
