
#######################################################################
#
#                 Cambridge Crystallographic Data Centre
#                                CCDC
#
#######################################################################
#
# If this CIF has been generated from an entry in the Cambridge
# Structural Database, then it will include bibliographic, chemical,
# crystal, experimental, refinement or atomic coordinate data resulting
# from the CCDC's data processing and validation procedures.
#
#######################################################################

data_CSD_CIF_APUHAV
_audit_creation_date 2011-05-12
_audit_creation_method CSD-ConQuest-V1
_database_code_CSD APUHAV
_database_code_depnum_ccdc_archive 'CCDC 824028'
_chemical_formula_sum 'C20 H17 N3 O8'
_chemical_formula_moiety
;
C20 H17 N3 O8
;
_journal_coden_Cambridge 177
_journal_volume 9
_journal_year 2011
_journal_page_first 358
_journal_name_full 'Org.Biomol.Chem. '
loop_
_publ_author_name
"S.Sen"
"V.R.Potti"
"R.Surakanti"
"Y.L.N.Murthy"
"R.Pallepogu"
_chemical_name_systematic
;
Methyl 
6-(2,4-dinitrophenyl)-5-oxo-3-phenyltetrahydro-1H-pyrrolo[1,2-c][1,3]oxazole-6
-carboxylate
;
_cell_volume    967.401
_exptl_crystal_density_diffrn 1.467
_diffrn_ambient_temperature 293
#These two values have been output from a single CSD field.
_refine_ls_R_factor_gt 0.0446
_refine_ls_wR_factor_gt 0.0446
_symmetry_cell_setting monoclinic
_symmetry_space_group_name_H-M 'P 21'
_symmetry_Int_Tables_number 4
loop_
_symmetry_equiv_pos_site_id
_symmetry_equiv_pos_as_xyz
1 x,y,z
2 -x,1/2+y,-z
_cell_length_a 6.8966(12)
_cell_length_b 11.252(2)
_cell_length_c 12.799(4)
_cell_angle_alpha 90
_cell_angle_beta 103.09(2)
_cell_angle_gamma 90
_cell_formula_units_Z 2
loop_
_atom_type_symbol
_atom_type_radius_bond
C 0.68
H 0.23
N 0.68
O 0.68
loop_
_atom_site_label
_atom_site_type_symbol
_atom_site_fract_x
_atom_site_fract_y
_atom_site_fract_z
C1 C 0.1729(5) 1.0335(3) 0.4806(3)
C2 C -0.0443(4) 0.9277(3) 0.3351(3)
C3 C -0.1106(5) 1.0552(3) 0.3448(3)
C4 C 0.3034(5) 0.9035(3) 0.3548(3)
C5 C 0.2075(4) 0.8425(3) 0.2469(3)
C6 C -0.0122(4) 0.8855(3) 0.2269(3)
C7 C 0.3306(5) 0.8918(3) 0.1725(3)
C8 C 0.4162(6) 1.0688(4) 0.0942(3)
C9 C 0.2216(4) 0.7088(3) 0.2554(3)
C10 C 0.1897(5) 0.6302(3) 0.1679(3)
C11 C 0.2021(4) 0.5097(3) 0.1798(3)
C12 C 0.2464(5) 0.4630(3) 0.2817(4)
C13 C 0.2794(5) 0.5325(3) 0.3703(3)
C14 C 0.2666(4) 0.6552(3) 0.3560(3)
C15 C 0.2144(4) 0.9995(3) 0.5961(3)
C16 C 0.2057(5) 0.8835(3) 0.6307(3)
C17 C 0.2463(5) 0.8569(3) 0.7390(3)
C18 C 0.2922(5) 0.9446(4) 0.8149(3)
C19 C 0.3002(5) 1.0608(4) 0.7811(3)
C20 C 0.2628(4) 1.0880(3) 0.6732(3)
N1 N 0.1562(3) 0.9353(2) 0.4040(2)
N2 N 0.1392(5) 0.6739(3) 0.0567(3)
N3 N 0.2567(5) 0.3323(3) 0.2943(4)
O1 O -0.0211(3) 1.0874(2) 0.4530(2)
O2 O 0.4800(3) 0.9205(2) 0.3890(2)
O3 O 0.4603(4) 0.8379(2) 0.1438(2)
O4 O 0.2877(3) 1.0045(2) 0.1493(2)
O5 O 0.1911(4) 0.6145(3) -0.0120(2)
O6 O 0.0457(4) 0.7670(3) 0.0374(2)
O7 O 0.2237(5) 0.2725(3) 0.2142(3)
O8 O 0.2987(5) 0.2941(3) 0.3851(4)
H1 H 0.27340 1.09020 0.46870
H2 H -0.12740 0.87170 0.36420
H3 H -0.06430 1.10640 0.29450
H4 H -0.25460 1.06030 0.33140
H5 H -0.03540 0.95010 0.17530
H6 H -0.10270 0.82100 0.19930
H7 H 0.47430 1.01430 0.05230
H8 H 0.51970 1.10740 0.14570
H9 H 0.33970 1.12730 0.04780
H10 H 0.18100 0.46020 0.12010
H11 H 0.30970 0.49930 0.43870
H12 H 0.28920 0.70350 0.41650
H13 H 0.17210 0.82280 0.58060
H14 H 0.24240 0.77820 0.76060
H15 H 0.31750 0.92630 0.88760
H16 H 0.33100 1.12140 0.83160
H17 H 0.27010 1.16660 0.65200
#END
