
#######################################################################
#
#                 Cambridge Crystallographic Data Centre
#                                CCDC
#
#######################################################################
#
# If this CIF has been generated from an entry in the Cambridge
# Structural Database, then it will include bibliographic, chemical,
# crystal, experimental, refinement or atomic coordinate data resulting
# from the CCDC's data processing and validation procedures.
#
#######################################################################

data_CSD_CIF_APUHOK
_audit_creation_date 2016-06-21
_audit_creation_method CSD-ConQuest-V1
_database_code_CSD APUHOK
_database_code_depnum_ccdc_archive 'CCDC 930241'
_chemical_formula_sum 'C35 H34 N3 O5'
_chemical_formula_moiety
;
C35 H34 N3 O5
;
_journal_coden_Cambridge 1478
_journal_volume 4
_journal_year 2013
_journal_page_first 3694
_journal_name_full 'Polym.Chem. '
loop_
_publ_author_name
"P.Astolfi"
"L.Greci"
"P.Stipa"
"C.Rizzoli"
"C.Ysacco"
"M.Rollet"
"L.Autissier"
"A.Tardy"
"Y.Guillaneuf"
"D.Gigmes"
_chemical_name_systematic
;
4-nitrophenyl 
2-(2-(2,2-dimethylpropyl)-1-hydroxy-2-phenyl-3-(phenylimino)-2,3-dihydro-1H-in
dol-5-yl)-2-methylpropanoate
;
_cell_volume   1531.520
_exptl_crystal_colour 'colorless'
_exptl_crystal_density_diffrn 1.25
_exptl_crystal_description 'plate'
_diffrn_ambient_temperature 294
#These two values have been output from a single CSD field.
_refine_ls_R_factor_gt 0.0508
_refine_ls_wR_factor_gt 0.0508
_symmetry_cell_setting triclinic
_symmetry_space_group_name_H-M 'P -1'
_symmetry_Int_Tables_number 2
loop_
_symmetry_equiv_pos_site_id
_symmetry_equiv_pos_as_xyz
1 x,y,z
2 -x,-y,-z
_cell_length_a 9.1861(12)
_cell_length_b 13.0550(17)
_cell_length_c 13.3338(17)
_cell_angle_alpha 75.872(3)
_cell_angle_beta 81.166(3)
_cell_angle_gamma 89.590(3)
_cell_formula_units_Z 2
loop_
_atom_type_symbol
_atom_type_radius_bond
C 0.68
H 0.23
N 0.68
O 0.68
loop_
_atom_site_label
_atom_site_type_symbol
_atom_site_fract_x
_atom_site_fract_y
_atom_site_fract_z
O1 O 0.0570(2) 0.08882(17) 1.14548(16)
O2 O -0.0186(3) 0.17167(19) 0.5698(2)
O3 O 0.2156(3) 0.1757(2) 0.58794(19)
O4 O 0.4025(4) -0.1806(3) 0.3610(3)
O5 O 0.3239(4) -0.2724(2) 0.5126(2)
N1 N 0.1345(3) 0.1558(2) 1.0705(2)
N2 N 0.4090(3) 0.3587(2) 0.95922(19)
N3 N 0.3514(4) -0.1898(3) 0.4495(3)
C1 C 0.1080(3) 0.1855(2) 0.9686(2)
C2 C -0.0022(3) 0.1432(2) 0.9288(2)
H1 H -0.06770 0.09030 0.97070
C3 C -0.0094(3) 0.1836(2) 0.8243(2)
H2 H -0.08050 0.15570 0.79490
C4 C 0.0856(3) 0.2646(2) 0.7605(2)
C5 C 0.1915(3) 0.3056(2) 0.8044(2)
H3 H 0.25400 0.36090 0.76360
C6 C 0.2054(3) 0.2656(2) 0.9079(2)
C7 C 0.3053(3) 0.2911(2) 0.9755(2)
C8 C 0.2640(3) 0.2154(2) 1.0849(2)
C9 C 0.3900(4) 0.1391(3) 1.1071(2)
C10 C 0.3737(4) 0.0307(3) 1.1196(2)
H4 H 0.28350 0.00200 1.11450
C11 C 0.4903(6) -0.0352(3) 1.1394(3)
H5 H 0.47890 -0.10750 1.14660
C12 C 0.6233(5) 0.0072(4) 1.1484(3)
H6 H 0.70130 -0.03700 1.16270
C13 C 0.6417(4) 0.1124(4) 1.1365(3)
H7 H 0.73150 0.14050 1.14320
C14 C 0.5268(4) 0.1774(3) 1.1146(3)
H8 H 0.54140 0.24980 1.10440
C15 C 0.2218(3) 0.2662(2) 1.1777(2)
H9 H 0.19130 0.20850 1.23870
H10 H 0.31230 0.29630 1.18890
C16 C 0.1053(4) 0.3509(3) 1.1812(3)
C17 C -0.0410(3) 0.3197(3) 1.1549(3)
H11 H -0.11450 0.36840 1.17080
H12 H -0.07070 0.24960 1.19550
H13 H -0.02990 0.32130 1.08170
C18 C 0.0787(4) 0.3628(3) 1.2939(3)
H14 H 0.16920 0.38430 1.31160
H15 H 0.04380 0.29640 1.34060
H16 H 0.00630 0.41520 1.30010
C19 C 0.1553(4) 0.4569(3) 1.1086(3)
H17 H 0.15910 0.45300 1.03730
H18 H 0.25150 0.47570 1.11950
H19 H 0.08710 0.50950 1.12280
C20 C 0.4491(3) 0.4249(3) 0.8565(3)
C21 C 0.4114(3) 0.5289(3) 0.8359(3)
H20 H 0.36490 0.55620 0.89030
C22 C 0.4410(4) 0.5941(3) 0.7360(3)
H21 H 0.41110 0.66370 0.72320
C23 C 0.5140(4) 0.5564(3) 0.6564(3)
H22 H 0.53320 0.59950 0.58880
C24 C 0.5587(3) 0.4542(3) 0.6771(3)
H23 H 0.61060 0.42870 0.62320
C25 C 0.5285(3) 0.3884(3) 0.7765(3)
H24 H 0.56160 0.31960 0.78940
C26 C 0.0679(3) 0.3047(2) 0.6464(2)
C27 C -0.0822(3) 0.3521(2) 0.6366(2)
H25 H -0.15800 0.29930 0.67030
H26 H -0.09110 0.37700 0.56390
H27 H -0.09250 0.41010 0.66940
C28 C 0.1860(4) 0.3882(2) 0.5839(2)
H28 H 0.17700 0.44970 0.61140
H29 H 0.17300 0.40710 0.51160
H30 H 0.28200 0.35990 0.58940
C29 C 0.0777(4) 0.2106(3) 0.5971(3)
C30 C 0.2402(4) 0.0840(3) 0.5518(3)
C31 C 0.3182(4) 0.0932(3) 0.4538(3)
H31 H 0.34790 0.15950 0.41080
C32 C 0.3526(4) 0.0026(3) 0.4192(3)
H32 H 0.40370 0.00720 0.35230
C33 C 0.3100(4) -0.0929(3) 0.4850(3)
C34 C 0.2339(4) -0.1032(3) 0.5828(3)
H33 H 0.20720 -0.16960 0.62650
C35 C 0.1966(4) -0.0121(4) 0.6163(3)
H34 H 0.14220 -0.01690 0.68230
#END
