
#######################################################################
#
#                 Cambridge Crystallographic Data Centre
#                                CCDC
#
#######################################################################
#
# If this CIF has been generated from an entry in the Cambridge
# Structural Database, then it will include bibliographic, chemical,
# crystal, experimental, refinement or atomic coordinate data resulting
# from the CCDC's data processing and validation procedures.
#
#######################################################################

data_CSD_CIF_APUMIJ
_audit_creation_date 2016-06-21
_audit_creation_method CSD-ConQuest-V1
_database_code_CSD APUMIJ
_database_code_depnum_ccdc_archive 'CCDC 863885'
_chemical_formula_sum 'C10 H15 N3 O3'
_chemical_formula_moiety
;
C10 H15 N3 O3
;
_journal_coden_Cambridge 1326
_journal_volume 14
_journal_year 2012
_journal_page_first 8147
_journal_name_full 'Phys.Chem.Chem.Phys.(PCCP) '
loop_
_publ_author_name
"A.Szemik-Hojniak"
"L.Wisniewski"
"I.Deperasinska"
"A.Makarewicz"
"L.Jerzykiewicz"
"A.Puszko"
"Y.Erez"
"D.Huppert"
_chemical_name_systematic
;
N-butyl-5-methyl-4-nitropyridin-2-amine 1-oxide
;
_cell_volume   1127.988
_exptl_crystal_colour 'yellowish golden'
_exptl_crystal_density_diffrn 1.326
_exptl_crystal_description 'plate'
_diffrn_ambient_temperature 100
#These two values have been output from a single CSD field.
_refine_ls_R_factor_gt 0.057
_refine_ls_wR_factor_gt 0.057
_symmetry_cell_setting monoclinic
_symmetry_space_group_name_H-M 'P 21/c'
_symmetry_Int_Tables_number 14
loop_
_symmetry_equiv_pos_site_id
_symmetry_equiv_pos_as_xyz
1 x,y,z
2 -x,1/2+y,1/2-z
3 -x,-y,-z
4 x,-1/2-y,-1/2+z
_cell_length_a 5.728(3)
_cell_length_b 8.033(3)
_cell_length_c 24.575(6)
_cell_angle_alpha 90
_cell_angle_beta 94.02(3)
_cell_angle_gamma 90
_cell_formula_units_Z 4
loop_
_atom_type_symbol
_atom_type_radius_bond
C 0.68
H 0.23
N 0.68
O 0.68
loop_
_atom_site_label
_atom_site_type_symbol
_atom_site_fract_x
_atom_site_fract_y
_atom_site_fract_z
O1 O 0.1550(3) 0.3846(2) 0.06949(8)
O2 O 0.7259(4) 0.1849(3) -0.12756(8)
O3 O 0.9290(3) 0.0815(3) -0.05857(8)
N1 N 0.2965(4) 0.3326(3) 0.03300(9)
N2 N 0.7609(4) 0.1597(3) -0.07829(10)
N3 N 0.5032(4) 0.2037(3) 0.10518(10)
C1 C 0.4865(4) 0.2374(3) 0.05159(11)
C2 C 0.6392(4) 0.1860(3) 0.01367(11)
H1 H 0.77170 0.12480 0.02490
C3 C 0.5946(4) 0.2258(3) -0.04100(11)
C4 C 0.4026(4) 0.3218(3) -0.05984(11)
C5 C 0.2595(5) 0.3716(3) -0.02025(11)
H2 H 0.12940 0.43620 -0.03080
C6 C 0.3362(5) 0.3766(4) -0.11756(11)
H3 H 0.46390 0.43710 -0.13140
H4 H 0.20070 0.44700 -0.11800
H5 H 0.30190 0.28070 -0.14000
C7 C 0.7078(4) 0.1255(3) 0.13273(11)
H6 H 0.84410 0.19470 0.12850
H7 H 0.73470 0.01860 0.11590
C8 C 0.6764(5) 0.1007(3) 0.19285(11)
H8 H 0.53780 0.03360 0.19690
H9 H 0.65170 0.20800 0.20960
C9 C 0.8857(5) 0.0162(4) 0.22260(11)
H10 H 1.02150 0.08780 0.22110
H11 H 0.91850 -0.08670 0.20400
C10 C 0.8473(6) -0.0221(4) 0.28194(12)
H12 H 0.98400 -0.07550 0.29870
H13 H 0.71480 -0.09460 0.28370
H14 H 0.81890 0.07970 0.30090
H15 H 0.406(5) 0.246(3) 0.1209(11)
#END
