
#######################################################################
#
#                 Cambridge Crystallographic Data Centre
#                                CCDC
#
#######################################################################
#
# If this CIF has been generated from an entry in the Cambridge
# Structural Database, then it will include bibliographic, chemical,
# crystal, experimental, refinement or atomic coordinate data resulting
# from the CCDC's data processing and validation procedures.
#
#######################################################################

data_CSD_CIF_APUTUA
_audit_creation_date 2004-04-27
_audit_creation_method CSD-ConQuest-V1
_database_code_CSD APUTUA
_database_code_depnum_ccdc_archive 'CCDC 220604'
_chemical_formula_sum 'C15 H24 N2 O8'
_chemical_formula_moiety
;
C15 H24 N2 O8
;
_journal_coden_Cambridge 4
_journal_volume 125
_journal_year 2003
_journal_page_first 15284
_journal_name_full 'J.Am.Chem.Soc. '
loop_
_publ_author_name
"M.Bruggemann"
"A.I.McDonald"
"L.E.Overman"
"M.D.Rosen"
"L.Schwink"
"J.P.Scott"
_chemical_name_systematic
;
7-t-Butyl 2-methyl 
1-(hydroxymethyl)-6-methoxy-3-nitro-7-azabicyclo(2.2.1)cycloheptane-2,7-dioate

;
_cell_volume   1719.593
_exptl_crystal_colour 'colorless'
_exptl_crystal_density_diffrn 1.392
_exptl_crystal_description 'parallelepiped'
_diffrn_ambient_temperature 158
#These two values have been output from a single CSD field.
_refine_ls_R_factor_gt 0.0378
_refine_ls_wR_factor_gt 0.0378
_symmetry_cell_setting monoclinic
_symmetry_space_group_name_H-M 'P 21/c'
_symmetry_Int_Tables_number 14
loop_
_symmetry_equiv_pos_site_id
_symmetry_equiv_pos_as_xyz
1 x,y,z
2 x,1/2-y,1/2+z
3 -x,-y,-z
4 -x,-1/2+y,-1/2-z
_cell_length_a 9.8001(5)
_cell_length_b 11.7508(6)
_cell_length_c 14.9782(7)
_cell_angle_alpha 90
_cell_angle_beta 94.485(1)
_cell_angle_gamma 90
_cell_formula_units_Z 4
loop_
_atom_type_symbol
_atom_type_radius_bond
C 0.68
H 0.23
N 0.68
O 0.68
loop_
_atom_site_label
_atom_site_type_symbol
_atom_site_fract_x
_atom_site_fract_y
_atom_site_fract_z
C1 C -0.04835(11) 0.24027(9) -0.01045(7)
C2 C -0.10276(12) 0.34402(10) -0.06946(8)
H1 H -0.1294(15) 0.4013(13) -0.0302(10)
C3 C -0.22830(12) 0.29401(11) -0.12371(8)
H2 H -0.2242(16) 0.3035(13) -0.1869(11)
C4 C -0.23026(12) 0.17005(11) -0.09263(8)
H3 H -0.3171(16) 0.1325(13) -0.1021(10)
C5 C -0.10997(13) 0.10916(11) -0.13217(8)
H4 H -0.1234(16) 0.0266(15) -0.1282(11)
H5 H -0.1024(15) 0.1326(13) -0.1946(11)
C6 C 0.01487(12) 0.15143(10) -0.07101(8)
H6 H 0.0537(15) 0.0895(13) -0.0354(10)
C7 C -0.00283(13) 0.39989(10) -0.12824(8)
C8 C 0.22256(15) 0.46899(13) -0.13117(10)
H7 H 0.208(2) 0.5437(19) -0.1566(14)
H8 H 0.3023(18) 0.4701(15) -0.0894(12)
H9 H 0.2361(18) 0.4138(16) -0.1772(12)
C9 C 0.04035(12) 0.27437(10) 0.07336(8)
H10 H -0.0066(14) 0.3341(12) 0.1062(10)
H11 H 0.1263(15) 0.3038(12) 0.0543(10)
C10 C 0.18847(14) 0.12538(12) -0.16984(10)
H12 H 0.2170(18) 0.0601(17) -0.1333(12)
H13 H 0.1316(19) 0.1001(16) -0.2215(13)
H14 H 0.2653(19) 0.1647(16) -0.1885(12)
C11 C -0.25892(11) 0.19425(10) 0.07259(8)
C12 C -0.49904(12) 0.16575(11) 0.10795(8)
C13 C -0.51192(16) 0.28368(13) 0.14840(11)
H15 H -0.516(2) 0.3407(18) 0.1014(14)
H16 H -0.597(2) 0.2864(16) 0.1791(13)
H17 H -0.4381(18) 0.3022(14) 0.1933(12)
C14 C -0.62338(13) 0.13771(15) 0.04477(10)
H18 H -0.7034(19) 0.1344(15) 0.0780(12)
H19 H -0.6114(18) 0.0632(16) 0.0144(12)
H20 H -0.6356(19) 0.1997(16) -0.0009(13)
C15 C -0.47305(13) 0.07243(12) 0.17733(9)
H21 H -0.5485(19) 0.0724(16) 0.2169(12)
H22 H -0.4735(17) -0.0025(15) 0.1472(11)
H23 H -0.3864(17) 0.0820(14) 0.2121(11)
N1 N -0.1783(1) 0.17983(9) 0.00258(6)
N2 N -0.36154(12) 0.35283(11) -0.10486(8)
O1 O -0.21698(9) 0.22482(8) 0.14728(6)
O2 O -0.38770(8) 0.16393(8) 0.04613(6)
O3 O -0.46753(10) 0.30298(11) -0.12824(8)
O4 O -0.35704(14) 0.44645(13) -0.07148(11)
O5 O -0.02404(10) 0.41487(8) -0.20777(6)
O6 O 0.10941(9) 0.43589(7) -0.07976(6)
O7 O 0.07401(9) 0.18105(8) 0.13076(6)
H24 H 0.0091(19) 0.1721(15) 0.1650(13)
O8 O 0.11902(8) 0.20351(7) -0.11669(6)
#END
