
#######################################################################
#
#                 Cambridge Crystallographic Data Centre
#                                CCDC
#
#######################################################################
#
# If this CIF has been generated from an entry in the Cambridge
# Structural Database, then it will include bibliographic, chemical,
# crystal, experimental, refinement or atomic coordinate data resulting
# from the CCDC's data processing and validation procedures.
#
#######################################################################

data_CSD_CIF_APUXUE
_audit_creation_date 2004-04-27
_audit_creation_method CSD-ConQuest-V1
_database_code_CSD APUXUE
_database_code_depnum_ccdc_archive 'CCDC 227947'
_chemical_formula_sum 'C32 H44 N2 O2'
_chemical_formula_moiety
;
C32 H44 N2 O2
;
_journal_coden_Cambridge 4
_journal_volume 125
_journal_year 2003
_journal_page_first 15426
_journal_name_full 'J.Am.Chem.Soc. '
loop_
_publ_author_name
"D.A.Shultz"
"R.M.Fico Junior"
"Hyoyoung Lee"
"J.W.Kampf"
"K.Kirschbaum"
"A.A.Pinkerton"
"P.D.Boyle"
_chemical_name_systematic
;
11-(bis(4-(N-t-butylaminoxyl)phenyl)methylene)bicyclo(4.4.1)undecane
;
_cell_volume   2807.817
_exptl_crystal_colour 'orange'
_exptl_crystal_density_diffrn 1.149
_exptl_crystal_description 'plate'
_diffrn_ambient_temperature 118
_refine_special_details
;
A portion of one of the molecules is equally disordered over two sites.

;
#These two values have been output from a single CSD field.
_refine_ls_R_factor_gt 0.0742
_refine_ls_wR_factor_gt 0.0742
_symmetry_cell_setting triclinic
_symmetry_space_group_name_H-M 'P -1'
_symmetry_Int_Tables_number 2
loop_
_symmetry_equiv_pos_site_id
_symmetry_equiv_pos_as_xyz
1 x,y,z
2 -x,-y,-z
_cell_length_a 12.865(3)
_cell_length_b 14.483(3)
_cell_length_c 16.875(4)
_cell_angle_alpha 108.424(3)
_cell_angle_beta 91.425(4)
_cell_angle_gamma 108.159(3)
_cell_formula_units_Z 4
loop_
_atom_type_symbol
_atom_type_radius_bond
C 0.68
H 0.23
N 0.68
O 0.68
loop_
_atom_site_label
_atom_site_type_symbol
_atom_site_fract_x
_atom_site_fract_y
_atom_site_fract_z
C1 C 0.31763(16) 0.18094(15) 0.42958(12)
C2 C 0.43702(16) 0.19054(15) 0.43953(12)
C3 C 0.51754(17) 0.25808(15) 0.41141(12)
H1 H 0.49650 0.29990 0.38510
C4 C 0.62784(17) 0.26583(16) 0.42091(13)
H2 H 0.68130 0.31220 0.40100
C5 C 0.65983(18) 0.20509(16) 0.45992(13)
C6 C 0.58082(19) 0.13837(17) 0.48938(13)
H3 H 0.60210 0.09720 0.51620
C7 C 0.47113(18) 0.13159(16) 0.47978(13)
H4 H 0.41810 0.08630 0.50080
C8 C 0.87251(18) 0.29144(19) 0.46968(15)
C9 C 0.8636(2) 0.3943(2) 0.52485(17)
H5 H 0.81020 0.41210 0.49530
H6 H 0.93600 0.44860 0.53660
H7 H 0.83900 0.38830 0.57800
C10 C 0.9682(2) 0.2735(2) 0.51068(18)
H8 H 0.95560 0.27420 0.56790
H9 H 1.03730 0.32840 0.51330
H10 H 0.97310 0.20640 0.47720
C11 C 0.8913(2) 0.2886(3) 0.38030(17)
H11 H 0.89420 0.22070 0.34710
H12 H 0.96120 0.34220 0.38200
H13 H 0.83050 0.30130 0.35430
C12 C 0.29148(17) 0.26239(15) 0.49828(13)
C13 C 0.3250(2) 0.36449(17) 0.49942(14)
H14 H 0.35920 0.38040 0.45390
C14 C 0.3096(2) 0.44292(17) 0.56513(14)
H15 H 0.33390 0.51170 0.56440
C15 C 0.25850(18) 0.42154(16) 0.63278(13)
C16 C 0.22249(17) 0.31940(16) 0.63130(13)
H16 H 0.18610 0.30290 0.67580
C17 C 0.23951(17) 0.24194(15) 0.56531(12)
H17 H 0.21510 0.17310 0.56580
C18 C 0.19380(18) 0.49956(16) 0.77629(13)
C19 C 0.2034(2) 0.60908(19) 0.82936(16)
H18 H 0.28140 0.65280 0.84300
H19 H 0.17200 0.60870 0.88160
H20 H 0.16310 0.63650 0.79770
C20 C 0.2550(2) 0.45823(19) 0.82837(15)
H21 H 0.25200 0.38840 0.79460
H22 H 0.21990 0.45620 0.87900
H23 H 0.33220 0.50370 0.84490
C21 C 0.0722(2) 0.4342(2) 0.74975(16)
H24 H 0.03790 0.46140 0.71390
H25 H 0.03500 0.43670 0.80000
H26 H 0.06540 0.36260 0.71830
C22 C 0.24341(16) 0.10653(15) 0.36602(13)
C23 C 0.12253(17) 0.09714(17) 0.36077(14)
H27 H 0.11980 0.16420 0.40000
C24 C 0.0702(2) 0.0851(2) 0.27352(16)
H28 H 0.04510 0.01100 0.23840
H29 H 0.00400 0.10640 0.28060
C25 C 0.1456(2) 0.1467(2) 0.22611(17)
H30 H 0.19290 0.21370 0.26720
H31 H 0.09940 0.16140 0.18710
C26 C 0.2197(2) 0.0920(2) 0.17548(16)
H32 H 0.17240 0.02190 0.13930
H33 H 0.25290 0.13000 0.13770
C27 C 0.31260(19) 0.08162(18) 0.22581(14)
H34 H 0.38670 0.10350 0.21480
C28 C 0.28163(17) 0.03407(15) 0.29551(13)
H35 H 0.35210 0.03270 0.32070
C29 C 0.2047(2) -0.07904(17) 0.26035(14)
H36 H 0.14760 -0.08530 0.21670
H37 H 0.24840 -0.12250 0.23240
C30 C 0.1468(2) -0.12217(18) 0.32564(17)
H38 H 0.12950 -0.19800 0.30520
H39 H 0.19830 -0.09300 0.37890
C31 C 0.0405(2) -0.0987(2) 0.34400(18)
H40 H -0.03010 -0.15090 0.32510
C32 C 0.0537(2) 0.0134(2) 0.39448(17)
H41 H 0.02090 0.03070 0.44450
C33 C 0.49408(16) 0.79996(15) 1.06497(13)
C34 C 0.37194(17) 0.77848(16) 1.06247(12)
C35 C 0.32282(17) 0.83943(16) 1.03665(13)
H42 H 0.36790 0.89550 1.02170
C36 C 0.21030(18) 0.82040(18) 1.03219(13)
H43 H 0.17890 0.86270 1.01390
C37 C 0.14337(18) 0.7396(2) 1.05441(14)
C38 C 0.19118(19) 0.6777(2) 1.08029(15)
H44 H 0.14600 0.62210 1.09580
C39 C 0.30358(19) 0.69663(18) 1.08357(15)
H45 H 0.33470 0.65320 1.10050
C40 C -0.0467(2) 0.7368(2) 0.99690(16)
C41 C -0.0336(3) 0.8543(3) 1.0256(2)
H46 H -0.03270 0.88080 1.08680
H47 H -0.09570 0.86290 0.99740
H48 H 0.03580 0.89260 1.01060
C42 C -0.1644(2) 0.6781(3) 1.0028(2)
H49 H -0.17460 0.60440 0.98700
H50 H -0.21500 0.68820 0.96450
H51 H -0.17990 0.70380 1.06070
C43 C -0.0208(2) 0.7027(2) 0.90792(16)
H52 H 0.05350 0.74630 0.90500
H53 H -0.07480 0.70930 0.86990
H54 H -0.02420 0.63050 0.89100
C44 C 0.5258(12) 0.7249(11) 0.9991(8)
C45 C 0.5226(5) 0.7258(4) 0.9164(4)
H55 H 0.50940 0.78210 0.90590
C46 C 0.5380(6) 0.6474(5) 0.8481(4)
H56 H 0.53370 0.65010 0.79270
C47 C 0.5595(5) 0.5663(5) 0.8636(4)
C48 C 0.5646(4) 0.5629(3) 0.9461(3)
H57 H 0.57950 0.50750 0.95700
C49 C 0.5479(4) 0.6406(4) 1.0103(4)
H58 H 0.55140 0.63720 1.06560
C50 C 0.6337(7) 0.4755(5) 0.7283(5)
C51 C 0.7295(12) 0.4484(14) 0.7591(11)
H59 H 0.70090 0.38030 0.76540
H60 H 0.76700 0.50050 0.81360
H61 H 0.78190 0.44690 0.71790
C52 C 0.6949(9) 0.5803(5) 0.7217(5)
H62? H 0.64190 0.60770 0.70280
H63 H 0.74740 0.57300 0.68090
H64 H 0.73500 0.62800 0.77700
C53 C 0.5710(8) 0.3930(8) 0.6461(5)
H65 H 0.51070 0.41190 0.62670
H66 H 0.54050 0.32650 0.65490
H67 H 0.62120 0.38720 0.60350
O1 O 0.5265(5) 0.3899(3) 0.8113(3)
N1 N 0.5666(4) 0.4775(3) 0.7983(3)
C54? C 0.5192(11) 0.7357(10) 0.9795(6)
C55? C 0.5540(4) 0.6550(4) 0.9738(3)
H68? H 0.56350 0.63780 1.02270
C56? C 0.5760(5) 0.5968(4) 0.8971(4)
H69? H 0.59960 0.53990 0.89390
C57? C 0.5635(4) 0.6219(4) 0.8254(3)
C58? C 0.5238(4) 0.7035(3) 0.8310(3)
H70? H 0.51190 0.72020 0.78220
C59? C 0.5023(4) 0.7589(4) 0.9074(3)
H71? H 0.47540 0.81400 0.91110
C60? C 0.6096(6) 0.4724(6) 0.7170(4)
C61? C 0.6170(5) 0.4395(4) 0.6230(3)
H72? H 0.67680 0.49270 0.61130
H73? H 0.54700 0.43030 0.59210
H74? H 0.63190 0.37410 0.60500
C62? C 0.5178(4) 0.3901(3) 0.7373(3)
H75? H 0.44660 0.38170 0.70850
H76? H 0.51620 0.41140 0.79830
H77? H 0.53180 0.32420 0.71800
C63? C 0.7215(7) 0.4849(6) 0.7609(5)
H78? H 0.78010 0.53830 0.74830
H79? H 0.73560 0.41910 0.74050
H80? H 0.72050 0.50510 0.82200
N2? N 0.5897(3) 0.5725(3) 0.7451(2)
O2? O 0.5963(4) 0.6181(3) 0.6907(2)
C64 C 0.56850(16) 0.87357(15) 1.12908(12)
C65 C 0.52971(18) 0.93123(17) 1.20805(13)
H81 H 0.45240 0.92510 1.19040
C66 C 0.52157(19) 0.8760(2) 1.27304(14)
H82 H 0.45260 0.84350 1.28830
C67 C 0.6304(2) 0.8757(2) 1.31209(15)
H83 H 0.65010 0.89820 1.37140
C68 C 0.7051(2) 0.8376(2) 1.25093(16)
H84 H 0.66090 0.77000 1.20890
H85 H 0.76320 0.82650 1.28260
C69 C 0.76050(18) 0.91066(18) 1.20421(14)
H86 H 0.83050 0.89950 1.18900
H87 H 0.77940 0.98270 1.24320
C70 C 0.69115(17) 0.89847(16) 1.12393(13)
H88 H 0.69890 0.83760 1.07890
C71 C 0.73576(19) 0.99143(17) 1.09315(14)
H89 H 0.76020 0.98340 1.03950
C72 C 0.7389(2) 1.09671(18) 1.15271(15)
H90 H 0.80470 1.15500 1.16930
C73 C 0.6298(2) 1.10314(18) 1.18423(16)
H91 H 0.63750 1.17680 1.21120
H92 H 0.57120 1.07330 1.13520
C74 C 0.59368(19) 1.04742(18) 1.24689(14)
H93 H 0.54690 1.08060 1.28310
H94 H 0.66020 1.05720 1.28370
N3 N 0.76981(16) 0.20391(15) 0.46621(13)
N4 N 0.24847(18) 0.50581(14) 0.69930(12)
N5 N 0.02825(17) 0.7207(2) 1.05610(14)
O3 O 0.78198(17) 0.11951(15) 0.46869(14)
O4 O 0.2902(3) 0.59555(15) 0.69366(14)
O5 O -0.0151(2) 0.6794(3) 1.1082(2)
#END
