
#######################################################################
#
#                 Cambridge Crystallographic Data Centre
#                                CCDC
#
#######################################################################
#
# If this CIF has been generated from an entry in the Cambridge
# Structural Database, then it will include bibliographic, chemical,
# crystal, experimental, refinement or atomic coordinate data resulting
# from the CCDC's data processing and validation procedures.
#
#######################################################################

data_CSD_CIF_APUYIT
_audit_creation_date 2004-04-27
_audit_creation_method CSD-ConQuest-V1
_database_code_CSD APUYIT
_database_code_depnum_ccdc_archive 'CCDC 227950'
_chemical_formula_sum 'C33 H34 N2 O2'
_chemical_formula_moiety
;
C33 H34 N2 O2
;
_journal_coden_Cambridge 4
_journal_volume 125
_journal_year 2003
_journal_page_first 15426
_journal_name_full 'J.Am.Chem.Soc. '
loop_
_publ_author_name
"D.A.Shultz"
"R.M.Fico Junior"
"Hyoyoung Lee"
"J.W.Kampf"
"K.Kirschbaum"
"A.A.Pinkerton"
"P.D.Boyle"
_chemical_name_systematic
;
9,9-bis(4-(N-t-butylaminoxyl)phenyl)fluorene
;
_cell_volume   5644.021
_exptl_crystal_colour 'orange'
_exptl_crystal_density_diffrn 1.155
_exptl_crystal_description 'plate'
_diffrn_ambient_temperature 158
#These two values have been output from a single CSD field.
_refine_ls_R_factor_gt 0.0718
_refine_ls_wR_factor_gt 0.0718
_symmetry_cell_setting orthorhombic
_symmetry_space_group_name_H-M 'P b c a'
_symmetry_Int_Tables_number 61
loop_
_symmetry_equiv_pos_site_id
_symmetry_equiv_pos_as_xyz
1 x,y,z
2 1/2+x,y,1/2-z
3 x,1/2-y,1/2+z
4 1/2-x,1/2+y,z
5 -x,-y,-z
6 -1/2-x,-y,-1/2+z
7 -x,-1/2+y,-1/2-z
8 -1/2+x,-1/2-y,-z
_cell_length_a 12.087(5)
_cell_length_b 19.740(9)
_cell_length_c 23.655(10)
_cell_angle_alpha 90
_cell_angle_beta 90
_cell_angle_gamma 90
_cell_formula_units_Z 8
loop_
_atom_type_symbol
_atom_type_radius_bond
C 0.68
H 0.23
N 0.68
O 0.68
loop_
_atom_site_label
_atom_site_type_symbol
_atom_site_fract_x
_atom_site_fract_y
_atom_site_fract_z
N1 N 0.5492(3) 0.18845(16) 0.72260(16)
N2 N 0.7992(3) 0.06900(16) 0.35020(16)
O1 O 0.6286(3) 0.14693(17) 0.73821(15)
O2 O 0.8813(3) 0.11153(15) 0.35397(16)
C1 C 0.5333(4) 0.2512(2) 0.76038(18)
C2 C 0.4091(4) 0.2612(3) 0.7730(2)
H1 H 0.37280 0.28130 0.74000
H2 H 0.40050 0.29140 0.80560
H3 H 0.37520 0.21720 0.78150
C3 C 0.5848(4) 0.3133(2) 0.7299(2)
H4 H 0.66240 0.30380 0.72090
H5 H 0.58050 0.35310 0.75460
H6 H 0.54400 0.32230 0.69490
C4 C 0.5954(4) 0.2386(2) 0.8161(2)
H7 H 0.56590 0.19780 0.83430
H8 H 0.58550 0.27760 0.84120
H9 H 0.67430 0.23230 0.80820
C5 C 0.5040(3) 0.17716(19) 0.66774(18)
C6 C 0.5347(3) 0.11659(18) 0.63867(19)
H10 H 0.57380 0.08200 0.65810
C7 C 0.5074(3) 0.10816(19) 0.58187(19)
H11 H 0.53070 0.06820 0.56290
C8 C 0.4459(3) 0.15737(19) 0.55133(18)
C9 C 0.4078(3) 0.2138(2) 0.58351(19)
H12 H 0.36160 0.24620 0.56550
C10 C 0.4347(3) 0.22348(19) 0.63951(19)
H13 H 0.40640 0.26170 0.65920
C11 C 0.4216(3) 0.15031(19) 0.48775(17)
C12 C 0.5207(3) 0.12128(19) 0.45377(18)
C13 C 0.6303(4) 0.14322(19) 0.46604(18)
H14 H 0.64290 0.17120 0.49810
C14 C 0.7195(3) 0.12459(19) 0.43210(19)
H15 H 0.79180 0.13950 0.44160
C15 C 0.7037(3) 0.0839(2) 0.38392(18)
C16 C 0.5962(3) 0.06127(19) 0.37107(19)
H16 H 0.58430 0.03290 0.33920
C17 C 0.5066(3) 0.0806(2) 0.40524(18)
H17 H 0.43430 0.06580 0.39540
C18 C 0.8171(4) 0.0056(2) 0.31443(19)
C19 C 0.7604(4) 0.0135(2) 0.2575(2)
H18 H 0.68030 0.01690 0.26310
H19 H 0.77700 -0.02590 0.23380
H20 H 0.78740 0.05460 0.23890
C20 C 0.7758(4) -0.0575(2) 0.3478(2)
H21 H 0.81140 -0.05870 0.38500
H22 H 0.79460 -0.09870 0.32680
H23 H 0.69540 -0.05480 0.35250
C21 C 0.9432(4) -0.0021(2) 0.3048(2)
H24 H 0.97120 0.03760 0.28450
H25 H 0.95740 -0.04300 0.28240
H26 H 0.98070 -0.00600 0.34140
C22 C 0.3912(4) 0.2198(2) 0.45969(17)
C23 C 0.4561(4) 0.2781(2) 0.45643(19)
H27 H 0.52810 0.27930 0.47250
C24 C 0.4119(4) 0.3355(2) 0.4287(2)
H28 H 0.45390 0.37610 0.42680
C25 C 0.3074(4) 0.3329(2) 0.40419(19)
H29 H 0.27980 0.37160 0.38500
C26 C 0.2422(4) 0.2745(2) 0.40725(18)
H30 H 0.17050 0.27330 0.39080
C27 C 0.2854(3) 0.2172(2) 0.43545(18)
C28 C 0.2350(3) 0.1495(2) 0.44777(17)
C29 C 0.1308(4) 0.1230(2) 0.43400(19)
H31 H 0.07870 0.14920 0.41340
C30 C 0.1050(4) 0.0569(2) 0.4513(2)
H32 H 0.03410 0.03860 0.44310
C31 C 0.1828(4) 0.0175(2) 0.48062(19)
H33 H 0.16460 -0.02760 0.49120
C32 C 0.2871(3) 0.0440(2) 0.49444(18)
H34 H 0.33890 0.01750 0.51500
C33 C 0.3138(3) 0.11010(19) 0.47753(16)
#END
