
#######################################################################
#
#                 Cambridge Crystallographic Data Centre
#                                CCDC
#
#######################################################################
#
# If this CIF has been generated from an entry in the Cambridge
# Structural Database, then it will include bibliographic, chemical,
# crystal, experimental, refinement or atomic coordinate data resulting
# from the CCDC's data processing and validation procedures.
#
#######################################################################

data_CSD_CIF_APUYAL
_audit_creation_date 2004-04-27
_audit_creation_method CSD-ConQuest-V1
_database_code_CSD APUYAL
_database_code_depnum_ccdc_archive 'CCDC 227948'
_chemical_formula_sum 'C30 H44 N2 O2'
_chemical_formula_moiety
;
C30 H44 N2 O2
;
_journal_coden_Cambridge 4
_journal_volume 125
_journal_year 2003
_journal_page_first 15426
_journal_name_full 'J.Am.Chem.Soc. '
loop_
_publ_author_name
"D.A.Shultz"
"R.M.Fico Junior"
"Hyoyoung Lee"
"J.W.Kampf"
"K.Kirschbaum"
"A.A.Pinkerton"
"P.D.Boyle"
_chemical_name_systematic
;
1,1-bis(4-(N-t-butylaminoxyl)phenyl)-2,2-di-t-butylethylene
;
_cell_volume   1350.043
_exptl_crystal_colour 'brown'
_exptl_crystal_density_diffrn 1.143
_exptl_crystal_description 'needle'
_diffrn_ambient_temperature 158
#These two values have been output from a single CSD field.
_refine_ls_R_factor_gt 0.0544
_refine_ls_wR_factor_gt 0.0544
_symmetry_cell_setting triclinic
_symmetry_space_group_name_H-M 'P -1'
_symmetry_Int_Tables_number 2
loop_
_symmetry_equiv_pos_site_id
_symmetry_equiv_pos_as_xyz
1 x,y,z
2 -x,-y,-z
_cell_length_a 6.1904(11)
_cell_length_b 12.730(3)
_cell_length_c 17.528(4)
_cell_angle_alpha 85.858(8)
_cell_angle_beta 80.307(8)
_cell_angle_gamma 83.199(9)
_cell_formula_units_Z 2
loop_
_atom_type_symbol
_atom_type_radius_bond
C 0.68
H 0.23
N 0.68
O 0.68
loop_
_atom_site_label
_atom_site_type_symbol
_atom_site_fract_x
_atom_site_fract_y
_atom_site_fract_z
O1 O 0.7482(4) 0.42061(17) 0.38301(12)
O2 O -0.2024(4) 0.68574(19) -0.06713(12)
N1 N 0.5397(4) 0.4279(2) 0.38140(14)
N2 N 0.0053(4) 0.6719(2) -0.06436(14)
C1 C 0.4118(5) 0.3426(2) 0.42596(17)
C2 C 0.2091(5) 0.3934(3) 0.47658(17)
H1 H 0.25130 0.44810 0.50600
H2 H 0.14220 0.33930 0.51260
H3 H 0.10260 0.42560 0.44390
C3 C 0.5626(6) 0.2797(3) 0.47693(19)
H4 H 0.69290 0.24610 0.44420
H5 H 0.48350 0.22510 0.50830
H6 H 0.60860 0.32740 0.51110
C4 C 0.3563(6) 0.2691(3) 0.36904(19)
H7 H 0.26370 0.30950 0.33450
H8 H 0.27680 0.21260 0.39770
H9 H 0.49280 0.23790 0.33830
C5 C 0.4485(5) 0.5199(2) 0.34229(16)
C6 C 0.5742(5) 0.6054(2) 0.32672(16)
H10 H 0.71400 0.60110 0.34290
C7 C 0.4952(5) 0.6961(2) 0.28777(16)
H11 H 0.58280 0.75350 0.27760
C8 C 0.2924(5) 0.7063(2) 0.26297(16)
C9 C 0.1751(5) 0.6179(3) 0.27545(17)
H12 H 0.04120 0.62030 0.25530
C10 C 0.2470(5) 0.5267(2) 0.31611(16)
H13 H 0.15940 0.46930 0.32610
C11 C 0.2151(5) 0.8036(2) 0.21684(16)
C12 C 0.1711(5) 0.7728(2) 0.14103(16)
C13 C -0.0357(5) 0.7996(2) 0.11939(17)
H14 H -0.14580 0.84090 0.15240
C14 C -0.0848(5) 0.7679(2) 0.05173(17)
H15 H -0.22710 0.78810 0.03850
C15 C 0.0725(5) 0.7061(2) 0.00207(16)
C16 C 0.2790(5) 0.6767(2) 0.02350(17)
H16 H 0.38810 0.63420 -0.00910
C17 C 0.3253(5) 0.7089(2) 0.09168(17)
H17 H 0.46610 0.68710 0.10570
C18 C 0.1516(5) 0.6167(2) -0.13046(17)
C19 C 0.2140(6) 0.5019(3) -0.1055(2)
H18 H 0.29520 0.49910 -0.06180
H19 H 0.30710 0.46590 -0.14890
H20 H 0.08010 0.46650 -0.08960
C20 C 0.0176(5) 0.6200(3) -0.19609(18)
H21 H -0.10730 0.57840 -0.18000
H22 H 0.11120 0.59030 -0.24200
H23 H -0.03730 0.69360 -0.20850
C21 C 0.3549(5) 0.6749(3) -0.15977(18)
H24 H 0.30820 0.74980 -0.17130
H25 H 0.43680 0.64330 -0.20690
H26 H 0.44970 0.66900 -0.11980
C22 C 0.1897(5) 0.9044(3) 0.24079(17)
C23 C 0.2111(5) 1.0001(2) 0.17973(17)
C24 C 0.3507(5) 0.9696(3) 0.10093(17)
H27 H 0.26730 0.92790 0.07370
H28 H 0.48810 0.92750 0.10990
H29 H 0.38480 1.03400 0.06940
C25 C -0.0066(5) 1.0575(3) 0.16070(19)
H30 H -0.08630 1.00800 0.13880
H31 H 0.02380 1.11680 0.12300
H32 H -0.09670 1.08450 0.20810
C26 C 0.3434(5) 1.0839(2) 0.20527(19)
H33 H 0.35350 1.14280 0.16610
H34 H 0.49190 1.05130 0.21080
H35 H 0.26820 1.11040 0.25510
C27 C 0.1351(5) 0.9264(2) 0.32902(17)
C28 C 0.0320(5) 0.8336(3) 0.37899(17)
H36 H 0.14620 0.77410 0.38310
H37 H -0.08480 0.81100 0.35460
H38 H -0.03040 0.85720 0.43090
C29 C -0.0464(5) 1.0206(3) 0.34482(18)
H39 H -0.08060 1.03060 0.40070
H40 H -0.17950 1.00570 0.32600
H41 H 0.00600 1.08520 0.31780
C30 C 0.3351(5) 0.9468(3) 0.36564(18)
H42 H 0.28850 0.95640 0.42120
H43 H 0.39560 1.01070 0.34070
H44 H 0.44830 0.88610 0.35830
#END
