
#######################################################################
#
#                 Cambridge Crystallographic Data Centre
#                                CCDC
#
#######################################################################
#
# If this CIF has been generated from an entry in the Cambridge
# Structural Database, then it will include bibliographic, chemical,
# crystal, experimental, refinement or atomic coordinate data resulting
# from the CCDC's data processing and validation procedures.
#
#######################################################################

data_CSD_CIF_APUYEP
_audit_creation_date 2004-04-27
_audit_creation_method CSD-ConQuest-V1
_database_code_CSD APUYEP
_database_code_depnum_ccdc_archive 'CCDC 227949'
_chemical_formula_sum 'C28 H36 N2 O2'
_chemical_formula_moiety
;
C28 H36 N2 O2
;
_journal_coden_Cambridge 4
_journal_volume 125
_journal_year 2003
_journal_page_first 15426
_journal_name_full 'J.Am.Chem.Soc. '
loop_
_publ_author_name
"D.A.Shultz"
"R.M.Fico Junior"
"Hyoyoung Lee"
"J.W.Kampf"
"K.Kirschbaum"
"A.A.Pinkerton"
"P.D.Boyle"
_chemical_name_systematic
;
3,8-bis(t-Butylaminoxyl)-5,5,6,6-tetramethyl-5,6-dihydroindeno(1,2-a)indene
;
_cell_volume   2447.097
_exptl_crystal_colour 'brown'
_exptl_crystal_density_diffrn 1.174
_exptl_crystal_description 'plate'
_diffrn_ambient_temperature 158
#These two values have been output from a single CSD field.
_refine_ls_R_factor_gt 0.0584
_refine_ls_wR_factor_gt 0.0584
_symmetry_cell_setting monoclinic
_symmetry_space_group_name_H-M 'P 2/c'
_symmetry_Int_Tables_number 13
loop_
_symmetry_equiv_pos_site_id
_symmetry_equiv_pos_as_xyz
1 x,y,z
2 x,-y,1/2+z
3 -x,-y,-z
4 -x,y,-1/2-z
_cell_length_a 15.034(2)
_cell_length_b 8.4086(11)
_cell_length_c 19.420(3)
_cell_angle_alpha 90
_cell_angle_beta 94.592(5)
_cell_angle_gamma 90
_cell_formula_units_Z 4
loop_
_atom_type_symbol
_atom_type_radius_bond
C 0.68
H 0.23
N 0.68
O 0.68
loop_
_atom_site_label
_atom_site_type_symbol
_atom_site_fract_x
_atom_site_fract_y
_atom_site_fract_z
O1 O 0.55509(14) 0.5053(3) 0.55790(13)
O2 O 0.06664(16) 1.4226(3) 0.84788(14)
N1 N 0.47149(17) 0.4640(3) 0.56314(14)
N2 N 0.14800(17) 1.4381(3) 0.83201(15)
C1 C 0.4549(2) 0.2926(4) 0.58079(19)
C2 C 0.3597(2) 0.2475(5) 0.5558(2)
H1 H 0.31780 0.31310 0.57960
H2 H 0.34960 0.13510 0.56600
H3 H 0.35030 0.26530 0.50590
C3 C 0.5200(3) 0.1889(4) 0.5456(2)
H4 H 0.50990 0.20140 0.49540
H5 H 0.51100 0.07740 0.55800
H6 H 0.58120 0.22070 0.56060
C4 C 0.4699(3) 0.2747(5) 0.65913(19)
H7 H 0.52930 0.31480 0.67480
H8 H 0.46540 0.16220 0.67160
H9 H 0.42450 0.33570 0.68130
C5 C 0.4180(2) 0.5865(4) 0.59171(17)
C6 C 0.4531(2) 0.6729(4) 0.64860(17)
H10 H 0.51130 0.64930 0.66860
C7 C 0.4041(2) 0.7925(4) 0.67620(17)
H11 H 0.42810 0.85090 0.71530
C8 C 0.3188(2) 0.8266(4) 0.64585(17)
C9 C 0.2527(2) 0.9444(4) 0.66177(16)
C10 C 0.2410(2) 1.0695(4) 0.71146(16)
C11 C 0.2933(2) 1.1211(4) 0.77004(17)
H12 H 0.34910 1.07200 0.78290
C12 C 0.2629(2) 1.2442(4) 0.80884(17)
H13 H 0.29790 1.28000 0.84870
C13 C 0.1810(2) 1.3163(4) 0.79000(17)
C14 C 0.1273(2) 1.2644(4) 0.73200(17)
H14 H 0.07110 1.31280 0.71970
C15 C 0.1577(2) 1.1422(4) 0.69341(17)
C16 C 0.1119(2) 1.0625(4) 0.62805(16)
C17 C 0.1803(2) 0.9355(4) 0.61457(17)
C18 C 0.1912(2) 0.8051(4) 0.56208(17)
C19 C 0.2840(2) 0.7400(4) 0.58758(17)
C20 C 0.3324(2) 0.6214(4) 0.56032(17)
H15 H 0.30890 0.56350 0.52100
C21 C 0.0972(2) 1.1836(4) 0.56914(17)
H16 H 0.15450 1.23050 0.55950
H17 H 0.05690 1.26770 0.58270
H18 H 0.07070 1.13010 0.52760
C22 C 0.0214(2) 0.9918(4) 0.64515(18)
H19 H -0.00600 0.93540 0.60460
H20 H -0.01830 1.07770 0.65780
H21 H 0.03090 0.91740 0.68390
C23 C 0.1936(2) 0.8672(4) 0.48814(17)
H22 H 0.13540 0.91300 0.47270
H23 H 0.20700 0.77920 0.45750
H24 H 0.23980 0.94900 0.48680
C24 C 0.1199(2) 0.6736(4) 0.56408(18)
H25 H 0.11860 0.63400 0.61140
H26 H 0.13450 0.58610 0.53360
H27 H 0.06130 0.71730 0.54840
C25 C 0.1832(2) 1.6056(4) 0.83514(18)
C26 C 0.1288(3) 1.6992(5) 0.77991(19)
H28 H 0.13890 1.65600 0.73430
H29 H 0.14710 1.81110 0.78220
H30 H 0.06530 1.69110 0.78750
C27 C 0.1696(3) 1.6713(5) 0.90625(18)
H31 H 0.10620 1.66580 0.91440
H32 H 0.18950 1.78230 0.90900
H33 H 0.20440 1.60830 0.94130
C28 C 0.2815(2) 1.6122(5) 0.8210(2)
H34 H 0.31710 1.55400 0.85720
H35 H 0.30120 1.72330 0.82060
H36 H 0.28930 1.56360 0.77600
#END
