
#######################################################################
#
#                 Cambridge Crystallographic Data Centre
#                                CCDC
#
#######################################################################
#
# If this CIF has been generated from an entry in the Cambridge
# Structural Database, then it will include bibliographic, chemical,
# crystal, experimental, refinement or atomic coordinate data resulting
# from the CCDC's data processing and validation procedures.
#
#######################################################################

data_CSD_CIF_APUZUH
_audit_creation_date 2011-07-11
_audit_creation_method CSD-ConQuest-V1
_database_code_CSD APUZUH
_database_code_depnum_ccdc_archive 'CCDC 809265'
_chemical_formula_sum 'C11 H16 N2 O5'
_chemical_formula_moiety
;
C11 H16 N2 O5
;
_journal_coden_Cambridge 16
_journal_volume 67
_journal_year 2011
_journal_page_first 2530
_journal_name_full 'Tetrahedron '
loop_
_publ_author_name
"S.N.Dmitrieva"
"M.V.Churakova"
"A.I.Vedernikov"
"L.G.Kuz'mina"
"S.P.Gromov"
_chemical_name_systematic
;
2-(2-(2-(Methylamino)-5-nitrophenoxy)ethoxy)ethanol
;
_cell_volume   1204.966
_exptl_crystal_colour 'orange'
_exptl_crystal_density_diffrn 1.413
_exptl_crystal_description 'plate'
_diffrn_ambient_temperature 173
#These two values have been output from a single CSD field.
_refine_ls_R_factor_gt 0.1118
_refine_ls_wR_factor_gt 0.1118
_symmetry_cell_setting monoclinic
_symmetry_space_group_name_H-M 'P 21/c'
_symmetry_Int_Tables_number 14
loop_
_symmetry_equiv_pos_site_id
_symmetry_equiv_pos_as_xyz
1 x,y,z
2 -x,1/2+y,1/2-z
3 -x,-y,-z
4 x,-1/2-y,-1/2+z
_cell_length_a 13.830(13)
_cell_length_b 13.313(12)
_cell_length_c 6.731(6)
_cell_angle_alpha 90
_cell_angle_beta 103.519(16)
_cell_angle_gamma 90
_cell_formula_units_Z 4
loop_
_atom_type_symbol
_atom_type_radius_bond
C 0.68
H 0.23
N 0.68
O 0.68
loop_
_atom_site_label
_atom_site_type_symbol
_atom_site_fract_x
_atom_site_fract_y
_atom_site_fract_z
O1 O 0.7723(3) 0.5680(3) 0.2612(8)
O2 O 0.6179(3) 0.4313(3) 0.1079(9)
O3 O 0.4455(4) 0.3774(4) -0.1799(13)
H1 H 0.409(6) 0.417(6) -0.237(12)
O4 O 1.1733(3) 0.7161(3) 0.2403(11)
O5 O 1.1308(3) 0.5619(3) 0.2192(9)
N1 N 0.7256(4) 0.7556(4) 0.2538(10)
H2 H 0.686(5) 0.703(6) 0.262(11)
N2 N 1.1109(4) 0.6502(4) 0.2376(10)
C1 C 0.6876(5) 0.8569(4) 0.2420(14)
H3 H 0.61720 0.85560 0.24580
H4 H 0.69460 0.88800 0.11410
H5 H 0.72510 0.89600 0.35800
C2 C 0.8200(4) 0.7339(4) 0.2527(10)
C3 C 0.8923(5) 0.8056(4) 0.2518(11)
H6 H 0.87550 0.87470 0.25340
C4 C 0.9879(4) 0.7791(4) 0.2485(10)
H7 H 1.03660 0.82930 0.24770
C5 C 1.0120(4) 0.6788(4) 0.2463(11)
C6 C 0.9426(4) 0.6033(4) 0.2487(11)
H8 H 0.96050 0.53450 0.24760
C7 C 0.8479(4) 0.6310(4) 0.2526(10)
C8 C 0.7913(4) 0.4628(4) 0.2643(12)
H9 H 0.84570 0.44500 0.38300
H10 H 0.81050 0.44190 0.13770
C9 C 0.6963(5) 0.4125(4) 0.2800(14)
H11 H 0.70750 0.33910 0.29430
H12 H 0.67690 0.43670 0.40420
C10 C 0.6210(5) 0.3668(5) -0.0564(16)
H13 H 0.61510 0.29610 -0.01550
H14 H 0.68500 0.37480 -0.09660
C11 C 0.5371(5) 0.3930(6) -0.2308(16)
H15 H 0.54270 0.46430 -0.26840
H16 H 0.54060 0.35110 -0.35050
#END
