
#######################################################################
#
#                 Cambridge Crystallographic Data Centre
#                                CCDC
#
#######################################################################
#
# If this CIF has been generated from an entry in the Cambridge
# Structural Database, then it will include bibliographic, chemical,
# crystal, experimental, refinement or atomic coordinate data resulting
# from the CCDC's data processing and validation procedures.
#
#######################################################################

data_CSD_CIF_AQAFEF
_audit_creation_date 2016-06-22
_audit_creation_method CSD-ConQuest-V1
_database_code_CSD AQAFEF
_database_code_depnum_ccdc_archive 'CCDC 1482409'
_chemical_formula_sum 'C19 H15 N3 O5'
_chemical_formula_moiety
;
C19 H15 N3 O5
;
_journal_coden_Cambridge 24
_journal_volume 57
_journal_year 2016
_journal_page_first 3146
_journal_name_full 'Tetrahedron Lett. '
loop_
_publ_author_name
"D.Nair"
"P.Pavashe"
"S.Katiyar"
"I.N.N.Namboothiri"
_chemical_name_systematic
;
Ethyl 3-benzoyl-4-(3-nitrophenyl)-1H-pyrazole-5-carboxylate
;
_chemical_melting_point 403
_cell_volume   3342.140
_exptl_crystal_colour 'colorless'
_exptl_crystal_density_diffrn 1.452
_exptl_special_details
;
Melting point range 403-405K
Heat-sensitive

;
_exptl_crystal_description 'prism'
_diffrn_ambient_temperature 273
#These two values have been output from a single CSD field.
_refine_ls_R_factor_gt 0.0499
_refine_ls_wR_factor_gt 0.0499
_symmetry_cell_setting monoclinic
_symmetry_space_group_name_H-M 'P 21/n'
_symmetry_Int_Tables_number 14
loop_
_symmetry_equiv_pos_site_id
_symmetry_equiv_pos_as_xyz
1 x,y,z
2 1/2-x,1/2+y,1/2-z
3 -x,-y,-z
4 -1/2+x,-1/2-y,-1/2+z
_cell_length_a 12.6224(13)
_cell_length_b 21.0884(17)
_cell_length_c 13.2451(15)
_cell_angle_alpha 90
_cell_angle_beta 108.568(12)
_cell_angle_gamma 90
_cell_formula_units_Z 8
loop_
_atom_type_symbol
_atom_type_radius_bond
C 0.68
H 0.23
N 0.68
O 0.68
loop_
_atom_site_label
_atom_site_type_symbol
_atom_site_fract_x
_atom_site_fract_y
_atom_site_fract_z
O1 O 1.11861(10) 0.42514(6) 0.40323(11)
O2 O 0.71852(11) 0.62077(6) 0.18353(11)
O3 O 0.85389(12) 0.60815(7) 0.11040(12)
N1 N 0.85628(12) 0.48512(7) 0.39585(13)
O4 O 1.30367(14) 0.59182(8) 0.10247(14)
N2 N 0.80520(12) 0.53142(7) 0.33118(13)
H1 H 0.74630 0.55020 0.33550
O5 O 1.23486(15) 0.64393(8) 0.20503(16)
N3 N 1.23876(14) 0.59746(9) 0.15309(15)
C1 C 0.94283(15) 0.46940(9) 0.36309(15)
C2 C 1.02148(15) 0.50167(9) 0.21237(15)
C3 C 0.94461(15) 0.50627(9) 0.27555(15)
C4 C 0.81128(16) 0.59469(9) 0.17634(16)
C5 C 1.02913(15) 0.42343(9) 0.42021(15)
C6 C 0.85463(15) 0.54611(9) 0.25814(15)
C7 C 1.02327(16) 0.44771(9) 0.15396(16)
H2 H 0.97610 0.41400 0.15510
C8 C 1.01263(16) 0.37625(9) 0.49724(15)
C9 C 1.09196(15) 0.55104(9) 0.21082(15)
H3 H 1.09170 0.58790 0.24930
C10 C 1.16278(16) 0.54503(9) 0.15144(16)
C11 C 1.16531(17) 0.49207(10) 0.09216(16)
H4 H 1.21370 0.48940 0.05210
C12 C 1.09444(18) 0.44326(10) 0.09383(17)
H5 H 1.09420 0.40680 0.05420
C13 C 0.91339(18) 0.36667(10) 0.51903(17)
H6 H 0.85060 0.39080 0.48470
C14 C 1.10421(18) 0.33932(10) 0.54952(17)
H7 H 1.17100 0.34510 0.53510
C15 C 0.9084(2) 0.32099(11) 0.59207(18)
H8 H 0.84190 0.31460 0.60670
C16 C 0.9999(2) 0.28501(10) 0.64318(19)
H9 H 0.99540 0.25430 0.69210
C17 C 0.66605(18) 0.66771(10) 0.10255(19)
H10 H 0.64360 0.64840 0.03240
H11 H 0.71790 0.70190 0.10380
C18 C 1.0985(2) 0.29439(10) 0.62207(19)
H12 H 1.16110 0.27030 0.65700
C19 C 0.56667(19) 0.69259(12) 0.1270(2)
H13 H 0.52990 0.72380 0.07490
H14 H 0.59000 0.71160 0.19650
H15 H 0.51590 0.65840 0.12540
O6 O 0.61458(11) 0.58230(7) 0.36941(12)
O7 O 0.26018(11) 0.35334(6) 0.29127(12)
O8 O 0.37576(13) 0.35482(8) 0.19432(14)
O9 O 0.74156(13) 0.31036(8) 0.30754(14)
N4 N 0.36555(13) 0.52525(7) 0.40381(13)
N5 N 0.32276(13) 0.46902(7) 0.36997(13)
H16 H 0.26680 0.45290 0.38480
O10 O 0.81790(15) 0.33734(9) 0.19151(18)
N6 N 0.75082(14) 0.34577(8) 0.23864(16)
C20 C 0.45121(15) 0.53201(9) 0.36546(15)
C21 C 0.52775(15) 0.58693(9) 0.39079(15)
C22 C 0.46086(15) 0.47879(9) 0.30530(15)
C23 C 0.53915(15) 0.46560(9) 0.24535(16)
C24 C 0.50582(16) 0.64659(9) 0.43993(16)
C25 C 0.37605(15) 0.43951(9) 0.30979(16)
C26 C 0.60772(16) 0.41304(9) 0.27038(17)
H17 H 0.60700 0.38650 0.32620
C27 C 0.54182(16) 0.50387(10) 0.16165(16)
H18 H 0.49610 0.53950 0.14460
C28 C 0.68013(17) 0.43788(10) 0.12719(17)
H19 H 0.72720 0.42810 0.08780
C29 C 0.33931(16) 0.37819(9) 0.25852(17)
C30 C 0.61148(17) 0.48982(11) 0.10315(17)
H20 H 0.61190 0.51590 0.04670
C31 C 0.67714(16) 0.40083(9) 0.21098(17)
C32 C 0.41531(19) 0.65714(10) 0.47461(19)
H21 H 0.36050 0.62620 0.46520
C33 C 0.12380(19) 0.27520(11) 0.2858(2)
H22 H 0.09200 0.23560 0.25470
H23 H 0.06700 0.30730 0.26880
H24 H 0.15380 0.27060 0.36170
C34 C 0.4839(2) 0.76017(10) 0.53632(19)
H25 H 0.47700 0.79790 0.56990
C35 C 0.21446(18) 0.29376(10) 0.2428(2)
H26 H 0.27220 0.26150 0.25940
H27 H 0.18510 0.29830 0.16610
C36 C 0.58295(18) 0.69476(11) 0.4516(2)
H28 H 0.64310 0.68890 0.42630
C37 C 0.4063(2) 0.71368(11) 0.5232(2)
H29 H 0.34570 0.72020 0.54750
C38 C 0.5728(2) 0.75087(11) 0.4995(2)
H30 H 0.62590 0.78260 0.50710
#END
