
#######################################################################
#
#                 Cambridge Crystallographic Data Centre
#                                CCDC
#
#######################################################################
#
# If this CIF has been generated from an entry in the Cambridge
# Structural Database, then it will include bibliographic, chemical,
# crystal, experimental, refinement or atomic coordinate data resulting
# from the CCDC's data processing and validation procedures.
#
#######################################################################

data_CSD_CIF_AQAGOO
_audit_creation_date 2004-04-27
_audit_creation_method CSD-ConQuest-V1
_database_code_CSD AQAGOO
_database_code_depnum_ccdc_archive 'CCDC 226444'
_chemical_formula_sum 'C12 H22 N2 O1'
_chemical_formula_moiety
;
C12 H22 N2 O1
;
_journal_coden_Cambridge 35
_journal_volume 68
_journal_year 2003
_journal_page_first 9113
_journal_name_full 'J.Org.Chem. '
loop_
_publ_author_name
"Young-Dae Park"
"Ho-Kyun Kim"
"Jeum-Jong Kim"
"Su-Dong Cho"
"Sung-Kyu Kim"
"M.Shiro"
"Yong-Jin Yoon"
_chemical_name_systematic
;
N-Nitrosodicyclohexylamine
;
_cell_volume   1216.253
_exptl_crystal_colour 'colorless'
_exptl_crystal_density_diffrn 1.149
_exptl_crystal_description 'block'
_diffrn_ambient_temperature 93
#These two values have been output from a single CSD field.
_refine_ls_R_factor_gt 0.068
_refine_ls_wR_factor_gt 0.068
_symmetry_cell_setting monoclinic
_symmetry_space_group_name_H-M 'P 21/n'
_symmetry_Int_Tables_number 14
loop_
_symmetry_equiv_pos_site_id
_symmetry_equiv_pos_as_xyz
1 x,y,z
2 1/2-x,1/2+y,1/2-z
3 -x,-y,-z
4 -1/2+x,-1/2-y,-1/2+z
_cell_length_a 5.762(4)
_cell_length_b 19.53(2)
_cell_length_c 10.835(9)
_cell_angle_alpha 90
_cell_angle_beta 94.04(3)
_cell_angle_gamma 90
_cell_formula_units_Z 4
loop_
_atom_type_symbol
_atom_type_radius_bond
C 0.68
H 0.23
N 0.68
O 0.68
loop_
_atom_site_label
_atom_site_type_symbol
_atom_site_fract_x
_atom_site_fract_y
_atom_site_fract_z
O1 O 0.1315(3) 0.71326(8) 0.9304(1)
N1 N 0.2735(3) 0.75341(9) 0.7633(1)
N2 N 0.1661(3) 0.76487(10) 0.8661(2)
C1 C 0.3256(3) 0.8158(1) 0.6927(2)
C2 C 0.1050(4) 0.8513(1) 0.6412(2)
C3 C 0.1644(4) 0.9147(1) 0.5669(2)
C4 C 0.3188(4) 0.9637(1) 0.6434(2)
C5 C 0.5390(4) 0.9280(1) 0.6940(2)
C6 C 0.4837(4) 0.8644(1) 0.7689(2)
C7 C 0.3525(3) 0.6851(1) 0.7262(2)
C8 C 0.2688(4) 0.6681(1) 0.5922(2)
C9 C 0.3473(4) 0.5958(1) 0.5603(2)
C10 C 0.6093(4) 0.5871(1) 0.5834(2)
C11 C 0.6918(4) 0.6059(1) 0.7162(2)
C12 C 0.6167(3) 0.6784(1) 0.7475(2)
H1 H 0.40760 0.80160 0.62400
H2 H 0.01670 0.82050 0.58880
H3 H 0.01620 0.86470 0.70770
H4 H 0.24280 0.90070 0.49680
H5 H 0.02420 0.93760 0.54000
H6 H 0.35940 1.00110 0.59300
H7 H 0.23700 0.98030 0.71040
H8 H 0.62670 0.91470 0.62690
H9 H 0.62830 0.95880 0.74590
H10 H 0.40860 0.87810 0.84020
H11 H 0.62480 0.84140 0.79360
H12 H 0.28480 0.65250 0.77790
H13 H 0.10370 0.67060 0.58310
H14 H 0.33290 0.70010 0.53790
H15 H 0.27160 0.56380 0.61000
H16 H 0.30480 0.58700 0.47550
H17 H 0.64890 0.54070 0.56860
H18 H 0.68510 0.61590 0.52810
H19 H 0.62690 0.57450 0.77120
H20 H 0.85680 0.60310 0.72530
H21 H 0.68950 0.71010 0.69620
H22 H 0.66200 0.68780 0.83180
#END
