
#######################################################################
#
#                 Cambridge Crystallographic Data Centre
#                                CCDC
#
#######################################################################
#
# If this CIF has been generated from an entry in the Cambridge
# Structural Database, then it will include bibliographic, chemical,
# crystal, experimental, refinement or atomic coordinate data resulting
# from the CCDC's data processing and validation procedures.
#
#######################################################################

data_CSD_CIF_AQEKOY
_audit_creation_date 2016-06-22
_audit_creation_method CSD-ConQuest-V1
_database_code_CSD AQEKOY
_database_code_depnum_ccdc_archive 'CCDC 1436046'
_chemical_formula_sum 'C22 H24 N6 O9'
_chemical_formula_moiety
;
C22 H24 N6 O9
;
_journal_coden_Cambridge 119
_journal_volume 1123
_journal_year 2016
_journal_page_first 305
_journal_name_full 'J.Mol.Struct. '
loop_
_publ_author_name
"Hui-Fen Qian"
"Tao Tao"
"Ya-Nan Feng"
"Yin-Ge Wang"
"Wei Huang"
_chemical_name_systematic
;
dimethyl 
3,3'-((3-acetamido-4-((2,4-dinitrophenyl)diazenyl)phenyl)imino)dipropanoate
;
_cell_volume   2442.392
_exptl_crystal_colour 'red'
_exptl_crystal_density_diffrn 1.405
_exptl_crystal_description 'block'
_diffrn_ambient_temperature 296
_refine_special_details
;
O8,O9 and O8',O9' disordered over two sites with occupancies 0.531:0.469.

;
#These two values have been output from a single CSD field.
_refine_ls_R_factor_gt 0.0593
_refine_ls_wR_factor_gt 0.0593
_symmetry_cell_setting monoclinic
_symmetry_space_group_name_H-M 'P 21/c'
_symmetry_Int_Tables_number 14
loop_
_symmetry_equiv_pos_site_id
_symmetry_equiv_pos_as_xyz
1 x,y,z
2 -x,1/2+y,1/2-z
3 -x,-y,-z
4 x,-1/2-y,-1/2+z
_cell_length_a 18.940(3)
_cell_length_b 8.5392(14)
_cell_length_c 15.646(3)
_cell_angle_alpha 90
_cell_angle_beta 105.161(3)
_cell_angle_gamma 90
_cell_formula_units_Z 4
loop_
_atom_type_symbol
_atom_type_radius_bond
C 0.68
H 0.23
N 0.68
O 0.68
loop_
_atom_site_label
_atom_site_type_symbol
_atom_site_fract_x
_atom_site_fract_y
_atom_site_fract_z
C1 C -0.11353(15) 1.3933(4) -0.09683(18)
C2 C -0.09585(15) 1.3735(4) -0.00705(18)
H1 H -0.12510 1.41440 0.02690
C3 C -0.03327(15) 1.2908(4) 0.03115(16)
C4 C 0.01272(14) 1.2286(3) -0.01698(16)
C5 C -0.00947(15) 1.2513(4) -0.10875(17)
H2 H 0.01890 1.21020 -0.14370
C6 C -0.07136(16) 1.3319(4) -0.14820(18)
H3 H -0.08510 1.34530 -0.20930
C7 C 0.17488(14) 1.0112(3) 0.01311(16)
C8 C 0.20684(14) 0.9718(3) 0.10386(16)
C9 C 0.26740(15) 0.8756(4) 0.12503(17)
H4 H 0.28840 0.85130 0.18420
C10 C 0.29842(15) 0.8132(4) 0.06028(18)
C11 C 0.26768(16) 0.8554(4) -0.02922(18)
H5 H 0.28810 0.81840 -0.07330
C12 C 0.20845(16) 0.9499(4) -0.05009(18)
H6 H 0.18880 0.97590 -0.10930
C13 C 0.19270(17) 1.0011(4) 0.25692(18)
C14 C 0.15429(19) 1.1027(5) 0.30787(19)
H7 H 0.10410 1.07050 0.29660
H8 H 0.15640 1.20970 0.28980
H9 H 0.17760 1.09340 0.37000
C15 C 0.38940(17) 0.6452(5) 0.0167(2)
H10 H 0.43970 0.61560 0.04380
H11 H 0.38920 0.72120 -0.02940
C16 C 0.3461(2) 0.5032(4) -0.0228(2)
H12 H 0.34850 0.42640 0.02360
H13 H 0.29520 0.53290 -0.04600
C17 C 0.37266(19) 0.4288(5) -0.0957(2)
C18 C 0.3468(2) 0.2354(6) -0.2059(3)
H14 H 0.34310 0.31080 -0.25240
H15 H 0.31240 0.15240 -0.22640
H16 H 0.39550 0.19320 -0.18910
C19 C 0.38389(19) 0.6494(4) 0.1752(2)
H17 H 0.34390 0.64700 0.20330
H18 H 0.40050 0.54280 0.17180
C20 C 0.4442(2) 0.7439(5) 0.2293(2)
H19 H 0.42660 0.84860 0.23610
H20 H 0.48270 0.75240 0.19910
C21 C 0.4744(2) 0.6731(6) 0.3181(3)
C22 C 0.5685(4) 0.6223(8) 0.4427(4)
H21 H 0.55650 0.68610 0.48740
H22 H 0.62060 0.60810 0.45660
H23 H 0.54510 0.52220 0.44070
N1 N -0.17916(15) 1.4850(4) -0.1390(2)
N2 N 0.07655(12) 1.1504(3) 0.02864(13)
N3 N 0.11319(12) 1.0968(3) -0.02291(14)
N4 N 0.17632(12) 1.0342(3) 0.16787(13)
H24 H 0.14260 1.10280 0.14940
N5 N 0.35719(14) 0.7152(4) 0.08369(15)
N6 N -0.01672(18) 1.2664(5) 0.12739(18)
O1 O -0.19519(15) 1.4991(4) -0.21896(17)
O2 O -0.21505(14) 1.5394(3) -0.09230(18)
O3 O 0.23505(15) 0.8990(3) 0.29042(14)
O4 O 0.42480(14) 0.4729(3) -0.11968(17)
O5 O 0.33102(14) 0.3103(3) -0.13055(19)
O6 O 0.4397(2) 0.5983(5) 0.3583(2)
O7 O 0.54201(16) 0.7034(4) 0.3521(2)
O8 O -0.0624(5) 1.2643(17) 0.1601(5)
O9 O 0.0474(3) 1.3122(7) 0.1693(3)
O10? O -0.0239(7) 1.3614(9) 0.1750(5)
O11? O -0.0051(3) 1.1203(6) 0.1554(3)
#END
