
#######################################################################
#
#                 Cambridge Crystallographic Data Centre
#                                CCDC
#
#######################################################################
#
# If this CIF has been generated from an entry in the Cambridge
# Structural Database, then it will include bibliographic, chemical,
# crystal, experimental, refinement or atomic coordinate data resulting
# from the CCDC's data processing and validation procedures.
#
#######################################################################

data_CSD_CIF_AQETIZ
_audit_creation_date 2004-04-26
_audit_creation_method CSD-ConQuest-V1
_database_code_CSD AQETIZ
_database_code_depnum_ccdc_archive 'CCDC 207046'
_chemical_formula_sum 'C7 H10 N4 O3'
_chemical_formula_moiety
;
C7 H10 N4 O3
;
_journal_coden_Cambridge 423
_journal_year 2003
_journal_page_first 655
_journal_name_full 'J.Chem.Res. '
loop_
_publ_author_name
"L.Greci"
"P.Carloni"
"O.Mandrioli"
"L.Righi"
"C.Rizzoli"
"P.Sgarabotto"
_chemical_name_systematic
;
E-1-(2-cyano-2-methoxyiminoacetyl)-3-ethylurea
;
_chemical_name_common
;
E-cymoxanil
;
_chemical_melting_point 433.15
_cell_volume    996.101
_exptl_crystal_colour 'colorless'
_exptl_crystal_density_diffrn 1.322
_exptl_special_details
;
Melting point range 433.15-434.15K
fungicide

;
_exptl_crystal_description 'prism'
_exptl_crystal_preparation 'acetone'
_diffrn_ambient_temperature 296
_refine_special_details
;
The terminal methyl group is disordered over two sites with occupancies 
0.6618:0.3382.
;
#These two values have been output from a single CSD field.
_refine_ls_R_factor_gt 0.0697
_refine_ls_wR_factor_gt 0.0697
_symmetry_cell_setting monoclinic
_symmetry_space_group_name_H-M 'P 21/n'
_symmetry_Int_Tables_number 14
loop_
_symmetry_equiv_pos_site_id
_symmetry_equiv_pos_as_xyz
1 x,y,z
2 1/2-x,1/2+y,1/2-z
3 -x,-y,-z
4 -1/2+x,-1/2-y,-1/2+z
_cell_length_a 14.587(2)
_cell_length_b 15.100(2)
_cell_length_c 4.544(1)
_cell_angle_alpha 90
_cell_angle_beta 95.6(1)
_cell_angle_gamma 90
_cell_formula_units_Z 4
loop_
_atom_type_symbol
_atom_type_radius_bond
C 0.68
H 0.23
N 0.68
O 0.68
loop_
_atom_site_label
_atom_site_type_symbol
_atom_site_fract_x
_atom_site_fract_y
_atom_site_fract_z
O1 O 0.1078(2) 0.0313(2) 0.5760(5)
O2 O 0.1723(1) -0.1510(2) -0.0504(5)
O3 O -0.1289(2) -0.2333(2) -0.1417(6)
N1 N 0.2260(2) -0.0266(2) 0.3502(6)
N2 N 0.0746(2) -0.0746(2) 0.2266(5)
N3 N -0.0626(2) -0.1780(2) -0.0163(6)
N4 N 0.0528(2) -0.3109(2) -0.4803(8)
C1 C 0.3920(7) -0.0097(10) 0.4847(37)
C2 C 0.2986(2) 0.0215(3) 0.5302(10)
C3 C 0.1380(2) -0.0178(2) 0.3966(7)
C4 C 0.0957(2) -0.1361(2) 0.0238(6)
C5 C 0.0173(2) -0.1905(2) -0.1042(6)
C6 C -0.2138(3) -0.2182(3) -0.0122(11)
C7 C 0.0363(2) -0.2581(2) -0.3157(8)
H1 H 0.24150 -0.05920 0.17830
H2 H 0.00560 -0.05880 0.26930
H3 H 0.32510 0.06560 0.40430
H4 H 0.27360 0.05010 0.69130
H5 H 0.42820 0.02690 0.61070
H6 H 0.39420 0.00050 0.28460
H7 H 0.38920 -0.06830 0.54080
H8 H -0.26020 -0.25730 -0.10280
H9 H -0.23290 -0.15790 -0.04690
H10 H -0.20470 -0.22940 0.19550
C8? C 0.3754(4) -0.0397(4) 0.6463(18)
H11? H 0.42260 -0.00680 0.76140
H12? H 0.40200 -0.06800 0.48400
H13? H 0.35150 -0.08450 0.76810
H14? H 0.29540 0.08340 0.47490
H15? H 0.29020 0.01430 0.73480
#END
