
#######################################################################
#
#                 Cambridge Crystallographic Data Centre
#                                CCDC
#
#######################################################################
#
# If this CIF has been generated from an entry in the Cambridge
# Structural Database, then it will include bibliographic, chemical,
# crystal, experimental, refinement or atomic coordinate data resulting
# from the CCDC's data processing and validation procedures.
#
#######################################################################

data_CSD_CIF_AQEYUS
_audit_creation_date 2016-06-22
_audit_creation_method CSD-ConQuest-V1
_database_code_CSD AQEYUS
_database_code_depnum_ccdc_archive 'CCDC 1437376'
_chemical_formula_sum 'C36 H23 N5 O4'
_chemical_formula_moiety
;
C36 H23 N5 O4
;
_journal_coden_Cambridge 1500
_journal_volume 6
_journal_year 2016
_journal_page_first 60022
_journal_name_full 'RSC Advances '
loop_
_publ_author_name
"Xin Zhang"
"Xiaoping Gan"
"Shun Yao"
"Weiju Zhu"
"Jianhua Yu"
"Zhichao Wu"
"Hongping Zhou"
"Yupeng Tian"
"Jieying Wu"
_chemical_name_systematic
;
3,3'-((phenylimino)di-4,1-phenylene)bis(2-(4-nitrophenyl)acrylonitrile)
;
_cell_volume   8872.109
_exptl_crystal_colour 'red'
_exptl_crystal_density_diffrn 1.324
_exptl_crystal_description 'block'
_diffrn_ambient_temperature 296
#These two values have been output from a single CSD field.
_refine_ls_R_factor_gt 0.0515
_refine_ls_wR_factor_gt 0.0515
_symmetry_cell_setting monoclinic
_symmetry_space_group_name_H-M 'C 2/c'
_symmetry_Int_Tables_number 15
loop_
_symmetry_equiv_pos_site_id
_symmetry_equiv_pos_as_xyz
1 x,y,z
2 -x,y,1/2-z
3 1/2+x,1/2+y,z
4 1/2-x,1/2+y,1/2-z
5 -x,-y,-z
6 x,-y,-1/2+z
7 -1/2-x,-1/2-y,-z
8 -1/2+x,-1/2-y,-1/2+z
_cell_length_a 34.868(3)
_cell_length_b 9.7729(9)
_cell_length_c 29.980(3)
_cell_angle_alpha 90
_cell_angle_beta 119.721(3)
_cell_angle_gamma 90
_cell_formula_units_Z 12
loop_
_atom_type_symbol
_atom_type_radius_bond
C 0.68
H 0.23
N 0.68
O 0.68
loop_
_atom_site_label
_atom_site_type_symbol
_atom_site_fract_x
_atom_site_fract_y
_atom_site_fract_z
N1 N 0.17093(7) 0.65235(19) 0.26985(7)
C1 C 0.15070(8) 0.4828(2) 0.12985(9)
C2 C 0.17362(9) 0.5788(2) 0.31166(9)
C3 C 0.18252(9) 0.3616(3) 0.44015(10)
H1 H 0.16570 0.28200 0.42980
C4 C 0.17972(9) 0.4416(2) 0.39786(9)
C5 C 0.15529(9) 0.3887(3) 0.34822(10)
H2 H 0.14080 0.30550 0.34360
C6 C 0.17093(8) 0.4078(2) 0.17536(9)
H3 H 0.18010 0.31890 0.17470
C7 C 0.20249(9) 0.1026(3) 0.59905(10)
C8 C 0.20068(10) 0.5674(3) 0.40279(10)
H4 H 0.21720 0.60620 0.43520
C9 C 0.17780(8) 0.4609(2) 0.22114(9)
H5 H 0.19180 0.40810 0.25080
C10 C 0.19749(9) 0.6342(3) 0.36109(10)
H6 H 0.21150 0.71830 0.36560
C11 C 0.14493(9) 0.4175(3) 0.08355(9)
H7 H 0.15860 0.33250 0.08910
C12 C 0.12103(9) 0.3723(3) -0.00857(10)
C13 C 0.16414(8) 0.5922(2) 0.22356(9)
C14 C 0.20350(8) 0.2833(3) 0.52868(9)
O1 O 0.08171(8) 0.1220(3) -0.16890(9)
C15 C 0.17485(9) 0.7984(2) 0.27449(9)
C16 C 0.15182(9) 0.4549(3) 0.30597(10)
H8 H 0.13490 0.41700 0.27350
C17 C 0.12353(9) 0.4566(3) 0.03389(9)
C18 C 0.13775(10) 0.6151(3) 0.1333(1)
H9 H 0.12440 0.66900 0.10390
C19 C 0.20471(8) 0.3798(2) 0.49156(10)
C20 C 0.11442(10) 0.2021(3) -0.08544(10)
C21 C 0.23263(10) 0.4967(3) 0.51470(11)
C22 C 0.09989(11) 0.5823(4) 0.01884(10)
C23 C 0.14398(9) 0.6687(3) 0.17856(10)
H10 H 0.13460 0.75730 0.17920
N2 N 0.20330(9) 0.0034(3) 0.63593(11)
C24 C 0.21035(10) 0.8630(3) 0.27596(10)
H11 H 0.23200 0.81210 0.27400
C25 C 0.08688(10) 0.3862(3) -0.05879(10)
H12 H 0.06600 0.45480 -0.06660
N3 N 0.10973(10) 0.1020(4) -0.12476(11)
C26 C 0.22713(11) 0.2156(3) 0.61551(11)
H13 H 0.24380 0.23350 0.65050
C27 C 0.14307(10) 0.8729(3) 0.27771(11)
H14 H 0.11900 0.82870 0.27660
O2 O 0.13362(10) 0.0009(3) -0.11109(10)
C28 C 0.15309(10) 0.2765(3) 0.00091(10)
H15 H 0.17740 0.26960 0.03370
C29 C 0.21387(11) 1.0044(3) 0.28039(12)
H16 H 0.23780 1.04870 0.28120
O3 O 0.18328(12) -0.0993(3) 0.62099(10)
C30 C 0.17732(12) 0.0772(3) 0.54855(12)
H17 H 0.15950 -0.00030 0.53740
C31 C 0.08306(10) 0.3008(3) -0.0974(1)
H18 H 0.05970 0.31030 -0.13080
O4 O 0.22581(10) 0.0249(3) 0.68067(10)
C32 C 0.22771(11) 0.3054(3) 0.58053(11)
H19 H 0.24510 0.38360 0.59250
C33 C 0.18218(12) 1.0780(3) 0.28358(12)
H20 H 0.18450 1.17280 0.28650
C34 C 0.17806(12) 0.1665(4) 0.51347(11)
H21 H 0.16090 0.14750 0.47860
C35 C 0.14666(11) 1.0133(3) 0.28256(12)
H22 H 0.12520 1.06400 0.28510
C36 C 0.14995(10) 0.1905(3) -0.03723(11)
H23 H 0.17170 0.12570 -0.03020
N4 N 0.08122(11) 0.6827(4) 0.00655(10)
N5 N 0.25482(10) 0.5877(3) 0.53570(11)
N6 N 0.00000 0.7196(3) 0.75000
C37 C -0.00390(9) 0.9777(3) 0.83766(10)
H24 H -0.01880 1.05860 0.83540
C38 C 0.02247(9) 1.0983(3) 0.94775(9)
C39 C 0.00000 0.5733(4) 0.75000
C40 C 0.02662(9) 0.9256(3) 0.88605(9)
C41 C -0.01203(9) 0.9101(3) 0.79348(9)
H25 H -0.03250 0.94620 0.76180
C42 C 0.00957(9) 0.7897(3) 0.79528(9)
C43 C 0.04798(9) 0.8043(3) 0.88699(9)
H26 H 0.06850 0.76770 0.91860
C44 C 0.03988(9) 0.7370(3) 0.84307(9)
H27 H 0.05470 0.65590 0.84520
C45 C 0.03738(9) 0.9871(3) 0.93544(10)
H28 H 0.05870 0.93930 0.96370
C46 C 0.06157(11) 1.2347(4) 1.09873(11)
C47 C 0.03693(9) 1.1449(3) 1.00093(10)
C48 C 0.0647(1) 1.0682(3) 1.04365(10)
H29 H 0.07530 0.98470 1.03940
C49 C 0.02210(11) 1.2670(3) 1.00948(12)
H30 H 0.00320 1.32080 0.98150
O5 O 0.09770(11) 1.2103(3) 1.18716(10)
N7 N 0.07417(11) 1.2827(4) 1.15138(12)
C50 C -0.01007(11) 1.1836(4) 0.90862(12)
C51 C -0.02380(11) 0.5021(3) 0.76773(11)
H31 H -0.04010 0.54900 0.77970
C52 C 0.07702(11) 1.1139(4) 1.09278(11)
H32 H 0.09580 1.06160 1.12130
C53 C 0.03438(12) 1.3124(4) 1.05855(13)
H33 H 0.02400 1.39540 1.06350
O6 O 0.06040(11) 1.3925(4) 1.15525(11)
C54 C -0.02345(14) 0.3604(4) 0.76767(13)
H34 H -0.03940 0.31240 0.77980
N8 N -0.03588(12) 1.2536(4) 0.87846(12)
C55 C 0.00000 0.2911(6) 0.75000
H35 H 0.00000 0.19590 0.75000
C37A C 0.00390(9) 0.9777(3) 0.66234(10)
H24A H 0.01880 1.05860 0.66460
C38A C -0.02247(9) 1.0983(3) 0.55225(9)
C40A C -0.02662(9) 0.9256(3) 0.61395(9)
C41A C 0.01203(9) 0.9101(3) 0.70652(9)
H25A H 0.03250 0.94620 0.73820
C42A C -0.00957(9) 0.7897(3) 0.70472(9)
C43A C -0.04798(9) 0.8043(3) 0.61301(9)
H26A H -0.06850 0.76770 0.58140
C44A C -0.03988(9) 0.7370(3) 0.65693(9)
H27A H -0.05470 0.65590 0.65480
C45A C -0.03738(9) 0.9871(3) 0.56456(10)
H28A H -0.05870 0.93930 0.53630
C46A C -0.06157(11) 1.2347(4) 0.40127(11)
C47A C -0.03693(9) 1.1449(3) 0.49907(10)
C48A C -0.0647(1) 1.0682(3) 0.45635(10)
H29A H -0.07530 0.98470 0.46060
C49A C -0.02210(11) 1.2670(3) 0.49052(12)
H30A H -0.00320 1.32080 0.51850
O5A O -0.09770(11) 1.2103(3) 0.31284(10)
N7A N -0.07417(11) 1.2827(4) 0.34862(12)
C50A C 0.01007(11) 1.1836(4) 0.59138(12)
C51A C 0.02380(11) 0.5021(3) 0.73227(11)
H31A H 0.04010 0.54900 0.72030
C52A C -0.07702(11) 1.1139(4) 0.40722(11)
H32A H -0.09580 1.06160 0.37870
C53A C -0.03438(12) 1.3124(4) 0.44145(13)
H33A H -0.02400 1.39540 0.43650
O6A O -0.06040(11) 1.3925(4) 0.34475(11)
C54A C 0.02345(14) 0.3604(4) 0.73233(13)
H34A H 0.03940 0.31240 0.72020
N8A N 0.03588(12) 1.2536(4) 0.62154(12)
#END
