
#######################################################################
#
#                 Cambridge Crystallographic Data Centre
#                                CCDC
#
#######################################################################
#
# If this CIF has been generated from an entry in the Cambridge
# Structural Database, then it will include bibliographic, chemical,
# crystal, experimental, refinement or atomic coordinate data resulting
# from the CCDC's data processing and validation procedures.
#
#######################################################################

data_CSD_CIF_AQIJUF
_audit_creation_date 2004-04-27
_audit_creation_method CSD-ConQuest-V1
_database_code_CSD AQIJUF
_database_code_depnum_ccdc_archive 'CCDC 217332'
_chemical_formula_sum 'C9 H14 N5 O2'
_chemical_formula_moiety
;
C9 H14 N5 O2
;
_journal_coden_Cambridge 16
_journal_volume 60
_journal_year 2004
_journal_page_first 99
_journal_name_full 'Tetrahedron '
loop_
_publ_author_name
"E.V.Tretyakov"
"G.V.Romanenko"
"V.I.Ovcharenko"
_chemical_name_systematic
;
4,4,5,5-tetramethyl-2-([1,2,4]triazol-1-yl)-4,5-dihydro-1H-imidazole-3-oxide-1
-oxyl
;
_chemical_melting_point 386.15
_cell_volume   2245.548
_exptl_crystal_colour 'violet'
_exptl_crystal_density_diffrn 1.327
_exptl_special_details
;
Melting point range 386.15-387.15K

;
_diffrn_ambient_temperature 273
#These two values have been output from a single CSD field.
_refine_ls_R_factor_gt 0.0477
_refine_ls_wR_factor_gt 0.0477
_symmetry_cell_setting monoclinic
_symmetry_space_group_name_H-M 'P 21/n'
_symmetry_Int_Tables_number 14
loop_
_symmetry_equiv_pos_site_id
_symmetry_equiv_pos_as_xyz
1 x,y,z
2 1/2+x,1/2-y,1/2+z
3 -x,-y,-z
4 -1/2-x,-1/2+y,-1/2-z
_cell_length_a 9.9623(9)
_cell_length_b 9.9073(9)
_cell_length_c 23.111(2)
_cell_angle_alpha 90
_cell_angle_beta 100.121(2)
_cell_angle_gamma 90
_cell_formula_units_Z 8
loop_
_atom_type_symbol
_atom_type_radius_bond
C 0.68
H 0.23
N 0.68
O 0.68
loop_
_atom_site_label
_atom_site_type_symbol
_atom_site_fract_x
_atom_site_fract_y
_atom_site_fract_z
O1 O 0.4593(3) 0.9986(2) 0.07251(10)
N1 N 0.5662(3) 0.9898(3) 0.11285(12)
C1 C 0.6244(4) 1.1064(3) 0.15072(14)
C2 C 0.7026(6) 1.1898(5) 0.1124(2)
H1 H 0.782(5) 1.135(4) 0.1001(18)
H2 H 0.763(4) 1.263(4) 0.1353(17)
H3 H 0.640(4) 1.213(4) 0.0781(19)
C3 C 0.5102(5) 1.1865(5) 0.1697(2)
H4 H 0.461(4) 1.227(4) 0.1372(18)
H5 H 0.549(4) 1.255(4) 0.1938(17)
H6 H 0.443(4) 1.129(3) 0.1912(15)
C4 C 0.7179(3) 1.0305(3) 0.20115(14)
C5 C 0.8516(5) 1.0979(5) 0.2257(2)
H7 H 0.911(4) 1.114(4) 0.1953(17)
H8 H 0.912(4) 1.038(4) 0.2537(17)
H9 H 0.835(4) 1.179(4) 0.2438(15)
C6 C 0.6457(5) 0.9862(4) 0.25083(17)
H10 H 0.707(3) 0.930(3) 0.2720(14)
H11 H 0.551(4) 0.947(3) 0.2339(14)
H12 H 0.623(4) 1.064(4) 0.2711(15)
N2 N 0.7464(3) 0.9034(3) 0.16942(12)
O2 O 0.8443(3) 0.8246(3) 0.18854(11)
C7 C 0.6506(4) 0.8836(3) 0.12233(14)
N3 N 0.6385(3) 0.7721(3) 0.08631(12)
C8 C 0.6093(4) 0.7700(4) 0.02671(17)
H13 H 0.608(4) 0.843(4) 0.0028(16)
N4 N 0.5994(3) 0.6453(3) 0.00809(14)
C9 C 0.6229(4) 0.5733(4) 0.05924(19)
H14 H 0.618(3) 0.479(3) 0.0599(14)
N5 N 0.6473(3) 0.6425(3) 0.10772(13)
O3 O 0.3430(3) 0.8617(3) 0.18756(11)
N6 N 0.2398(3) 0.8333(3) 0.14873(12)
C10 C 0.1960(3) 0.6910(3) 0.13300(15)
C11 C 0.3192(5) 0.6051(6) 0.1299(3)
H15 H 0.373(5) 0.647(4) 0.1093(17)
H16 H 0.291(5) 0.518(5) 0.125(2)
H17 H 0.369(4) 0.594(4) 0.1717(19)
C12 C 0.1213(5) 0.6405(5) 0.18055(19)
H18 H 0.180(5) 0.627(4) 0.2180(19)
H19 H 0.086(3) 0.550(4) 0.1719(14)
H20 H 0.047(4) 0.699(3) 0.1844(14)
C13 C 0.1000(4) 0.7149(3) 0.07345(15)
C14 C 0.1708(7) 0.7190(6) 0.0204(2)
H21 H 0.249(5) 0.763(4) 0.0302(18)
H22 H 0.099(5) 0.756(4) -0.017(2)
H23 H 0.204(4) 0.625(4) 0.0177(16)
C15 C -0.0229(5) 0.6237(5) 0.0615(2)
H24 H -0.077(3) 0.625(3) 0.0919(14)
H25 H 0.009(4) 0.535(4) 0.0632(15)
H26 H -0.073(4) 0.640(3) 0.0222(16)
N7 N 0.0558(3) 0.8576(3) 0.08206(12)
O4 O -0.0514(3) 0.9123(3) 0.05153(11)
C16 C 0.1491(4) 0.9198(4) 0.12090(14)
N8 N 0.1497(3) 1.0579(3) 0.12987(12)
C17 C 0.1330(5) 1.1582(5) 0.0893(2)
H27 H 0.126(4) 1.142(4) 0.0526(17)
N9 N 0.1342(4) 1.2750(3) 0.11408(16)
C18 C 0.1530(4) 1.2443(4) 0.1715(2)
H28 H 0.162(4) 1.313(4) 0.2018(15)
N10 N 0.1632(3) 1.1145(3) 0.18421(13)
#END
