
#######################################################################
#
#                 Cambridge Crystallographic Data Centre
#                                CCDC
#
#######################################################################
#
# If this CIF has been generated from an entry in the Cambridge
# Structural Database, then it will include bibliographic, chemical,
# crystal, experimental, refinement or atomic coordinate data resulting
# from the CCDC's data processing and validation procedures.
#
#######################################################################

data_CSD_CIF_AQIKIU
_audit_creation_date 2004-04-27
_audit_creation_method CSD-ConQuest-V1
_database_code_CSD AQIKIU
_database_code_depnum_ccdc_archive 'CCDC 217335'
_chemical_formula_sum 'C9 H14 N5 O1'
_chemical_formula_moiety
;
C9 H14 N5 O1
;
_journal_coden_Cambridge 16
_journal_volume 60
_journal_year 2004
_journal_page_first 99
_journal_name_full 'Tetrahedron '
loop_
_publ_author_name
"E.V.Tretyakov"
"G.V.Romanenko"
"V.I.Ovcharenko"
_chemical_name_systematic
;
4,4,5,5-tetramethyl-2-([1,2,4]triazol-1-yl)-4,5-dihydro-1H-imidazole-1-oxyl
;
_chemical_melting_point 348.15
_cell_volume   1113.035
_exptl_crystal_colour 'red'
_exptl_crystal_density_diffrn 1.243
_exptl_special_details
;
Melting point range 348.15-349.15K

;
_diffrn_ambient_temperature 295
#These two values have been output from a single CSD field.
_refine_ls_R_factor_gt 0.0574
_refine_ls_wR_factor_gt 0.0574
_symmetry_cell_setting monoclinic
_symmetry_space_group_name_H-M 'P 21/n'
_symmetry_Int_Tables_number 14
loop_
_symmetry_equiv_pos_site_id
_symmetry_equiv_pos_as_xyz
1 x,y,z
2 1/2+x,1/2-y,1/2+z
3 -x,-y,-z
4 -1/2-x,-1/2+y,-1/2-z
_cell_length_a 6.866(2)
_cell_length_b 7.147(3)
_cell_length_c 22.836(8)
_cell_angle_alpha 90
_cell_angle_beta 96.658(7)
_cell_angle_gamma 90
_cell_formula_units_Z 4
loop_
_atom_type_symbol
_atom_type_radius_bond
C 0.68
H 0.23
N 0.68
O 0.68
loop_
_atom_site_label
_atom_site_type_symbol
_atom_site_fract_x
_atom_site_fract_y
_atom_site_fract_z
O1 O 0.5246(4) 0.6858(4) 0.03990(11)
N1 N 0.4322(4) 0.7031(4) 0.08495(12)
C1 C 0.2477(5) 0.8128(5) 0.08662(14)
C2 C 0.0845(8) 0.6907(10) 0.0548(3)
H1 H 0.077(7) 0.578(7) 0.073(2)
H2 H 0.095(6) 0.667(6) 0.013(2)
H3 H -0.042(5) 0.765(5) 0.0591(14)
C3 C 0.2617(11) 0.9941(8) 0.0542(3)
H4 H 0.254(6) 0.974(7) 0.012(2)
H5 H 0.371(6) 1.063(6) 0.0781(17)
H6 H 0.155(6) 1.066(6) 0.0585(17)
C4 C 0.2459(5) 0.8205(5) 0.15454(14)
C5 C 0.3423(10) 0.9977(8) 0.1811(3)
H7 H 0.345(6) 0.992(6) 0.222(2)
H8 H 0.251(5) 1.124(5) 0.1664(15)
H9 H 0.468(6) 1.009(5) 0.1707(16)
C6 C 0.0430(6) 0.7992(7) 0.1740(2)
H10 H 0.05200 0.80700 0.21620
H11 H -0.01070 0.68000 0.16130
H12 H -0.04070 0.89720 0.15690
N2 N 0.3716(4) 0.6594(4) 0.17819(12)
C7 C 0.4727(5) 0.6097(5) 0.13800(14)
N3 N 0.6166(4) 0.4709(4) 0.14431(12)
C8 C 0.6902(6) 0.3641(6) 0.10290(18)
H13 H 0.647(4) 0.388(4) 0.0643(14)
N4 N 0.8173(5) 0.2434(4) 0.12765(14)
C9 C 0.8174(6) 0.2814(6) 0.18604(18)
H14 H 0.886(4) 0.208(5) 0.2162(13)
N5 N 0.6999(4) 0.4153(4) 0.19917(11)
#END
