
#######################################################################
#
#                 Cambridge Crystallographic Data Centre
#                                CCDC
#
#######################################################################
#
# If this CIF has been generated from an entry in the Cambridge
# Structural Database, then it will include bibliographic, chemical,
# crystal, experimental, refinement or atomic coordinate data resulting
# from the CCDC's data processing and validation procedures.
#
#######################################################################

data_CSD_CIF_AQIKUG
_audit_creation_date 2004-04-27
_audit_creation_method CSD-ConQuest-V1
_database_code_CSD AQIKUG
_database_code_depnum_ccdc_archive 'CCDC 217337'
_chemical_formula_sum 'C7 H12 N2 O3'
_chemical_formula_moiety
;
C7 H12 N2 O3
;
_journal_coden_Cambridge 16
_journal_volume 60
_journal_year 2004
_journal_page_first 99
_journal_name_full 'Tetrahedron '
loop_
_publ_author_name
"E.V.Tretyakov"
"G.V.Romanenko"
"V.I.Ovcharenko"
_chemical_name_systematic
;
4,4,5,5-tetramethyl-1,2-dioxoimidazolidin-1-ium-3-olate
;
_cell_volume    860.949
_exptl_crystal_density_diffrn 1.328
_diffrn_ambient_temperature 293
#These two values have been output from a single CSD field.
_refine_ls_R_factor_gt 0.0561
_refine_ls_wR_factor_gt 0.0561
_symmetry_cell_setting orthorhombic
_symmetry_space_group_name_H-M 'P b a 2'
_symmetry_Int_Tables_number 32
loop_
_symmetry_equiv_pos_site_id
_symmetry_equiv_pos_as_xyz
1 x,y,z
2 -x,-y,z
3 1/2+x,1/2-y,z
4 1/2-x,1/2+y,z
_cell_length_a 10.724(2)
_cell_length_b 10.795(5)
_cell_length_c 7.437(2)
_cell_angle_alpha 90
_cell_angle_beta 90
_cell_angle_gamma 90
_cell_formula_units_Z 4
loop_
_atom_type_symbol
_atom_type_radius_bond
C 0.68
H 0.23
N 0.68
O 0.68
loop_
_atom_site_label
_atom_site_type_symbol
_atom_site_fract_x
_atom_site_fract_y
_atom_site_fract_z
C1 C 0.00000 0.50000 -0.0708(6)
O1 O 0.00000 0.50000 -0.2331(5)
N1 N 0.0961(2) 0.5267(3) 0.0440(3)
O2 O 0.1987(3) 0.5638(4) -0.0123(7)
C2 C 0.0715(2) 0.5104(2) 0.2395(3)
C3 C 0.1131(5) 0.6254(3) 0.3393(7)
H1 H 0.087(4) 0.688(6) 0.244(8)
H2 H 0.098(4) 0.601(5) 0.466(11)
H3 H 0.180(5) 0.632(4) 0.301(9)
C4 C 0.1481(4) 0.4002(4) 0.3019(7)
H4 H 0.120(4) 0.332(5) 0.256(7)
H5 H 0.240(5) 0.424(4) 0.295(7)
H6 H 0.121(4) 0.382(4) 0.429(8)
C5 C 0.00000 0.00000 1.0668(6)
O3 O 0.00000 0.00000 1.2283(5)
N2 N 0.0098(2) 0.0985(3) 0.9519(4)
O4 O 0.0280(5) 0.2062(4) 1.0078(9)
C6 C -0.0028(2) 0.0711(2) 0.7579(4)
C7 C 0.1021(4) 0.1362(4) 0.6575(7)
H7 H 0.183(4) 0.115(3) 0.694(6)
H8 H 0.100(4) 0.131(5) 0.539(9)
H9 H 0.088(4) 0.251(5) 0.679(7)
C8 C -0.1267(4) 0.1266(4) 0.6980(9)
H10 H -0.187(5) 0.101(5) 0.779(9)
H11 H -0.110(4) 0.243(4) 0.712(6)
H12 H -0.131(6) 0.141(6) 0.582(10)
C2A C -0.0715(2) 0.4896(2) 0.2395(3)
N1A N -0.0961(2) 0.4733(3) 0.0440(3)
O2A O -0.1987(3) 0.4362(4) -0.0123(7)
C3A C -0.1131(5) 0.3746(3) 0.3393(7)
H1A H -0.087(4) 0.312(6) 0.244(8)
H2A H -0.098(4) 0.399(5) 0.466(11)
H3A H -0.180(5) 0.368(4) 0.301(9)
C4A C -0.1481(4) 0.5998(4) 0.3019(7)
H4A H -0.120(4) 0.668(5) 0.256(7)
H5A H -0.240(5) 0.576(4) 0.295(7)
H6A H -0.121(4) 0.618(4) 0.429(8)
C6A C 0.0028(2) -0.0711(2) 0.7579(4)
N2A N -0.0098(2) -0.0985(3) 0.9519(4)
O4A O -0.0280(5) -0.2062(4) 1.0078(9)
C7A C -0.1021(4) -0.1362(4) 0.6575(7)
H7A H -0.183(4) -0.115(3) 0.694(6)
H8A H -0.100(4) -0.131(5) 0.539(9)
H9A H -0.088(4) -0.251(5) 0.679(7)
C8A C 0.1267(4) -0.1266(4) 0.6980(9)
H10A H 0.187(5) -0.101(5) 0.779(9)
H11A H 0.110(4) -0.243(4) 0.712(6)
H12A H 0.131(6) -0.141(6) 0.582(10)
#END
