
#######################################################################
#
#                 Cambridge Crystallographic Data Centre
#                                CCDC
#
#######################################################################
#
# If this CIF has been generated from an entry in the Cambridge
# Structural Database, then it will include bibliographic, chemical,
# crystal, experimental, refinement or atomic coordinate data resulting
# from the CCDC's data processing and validation procedures.
#
#######################################################################

data_CSD_CIF_AQILES
_audit_creation_date 2011-07-21
_audit_creation_method CSD-ConQuest-V1
_database_code_CSD AQILES
_database_code_depnum_ccdc_archive 'CCDC 815054'
_chemical_formula_sum 'C11 H8 N4 O4'
_chemical_formula_moiety
;
C11 H8 N4 O4
;
_journal_coden_Cambridge 1037
_journal_volume 12
_journal_year 2011
_journal_page_first 238-2
_journal_name_full 'ARKIVOC '
loop_
_publ_author_name
"A.V.Gulevskaya"
"I.N.Tyaglivaya"
"S.Verbeeck"
"B.U.W.Maes"
"A.V.Tkachuk"
_chemical_name_systematic
;
N-(2,4-Dinitrophenyl)pyridin-2-amine
;
_cell_volume   1086.652
_exptl_crystal_colour 'yellow'
_exptl_crystal_density_diffrn 1.591
_exptl_crystal_description 'plate'
_diffrn_ambient_temperature 120
#These two values have been output from a single CSD field.
_refine_ls_R_factor_gt 0.0492
_refine_ls_wR_factor_gt 0.0492
_symmetry_cell_setting triclinic
_symmetry_space_group_name_H-M 'P -1'
_symmetry_Int_Tables_number 2
loop_
_symmetry_equiv_pos_site_id
_symmetry_equiv_pos_as_xyz
1 x,y,z
2 -x,-y,-z
_cell_length_a 9.8392(16)
_cell_length_b 10.1624(16)
_cell_length_c 10.9012(18)
_cell_angle_alpha 88.602(4)
_cell_angle_beta 86.340(4)
_cell_angle_gamma 87.703(4)
_cell_formula_units_Z 4
loop_
_atom_type_symbol
_atom_type_radius_bond
C 0.68
H 0.23
N 0.68
O 0.68
loop_
_atom_site_label
_atom_site_type_symbol
_atom_site_fract_x
_atom_site_fract_y
_atom_site_fract_z
N1 N 0.30818(17) 0.59387(16) 0.19977(16)
N2 N -0.12863(18) 0.79269(16) 0.33489(16)
N3 N 0.21705(16) 0.58078(15) -0.04904(14)
H1 H 0.29890 0.55600 -0.02190
N4 N 0.08644(17) 0.61068(16) -0.22275(15)
O1 O 0.33035(15) 0.58547(15) 0.30939(13)
O2 O 0.39684(14) 0.56453(15) 0.11751(13)
O3 O -0.24474(15) 0.82990(15) 0.31176(14)
O4 O -0.08335(16) 0.79921(15) 0.43757(13)
C1 C 0.1735(2) 0.64067(18) 0.16505(18)
C2 C 0.08865(19) 0.69165(18) 0.25930(18)
H2 H 0.11810 0.69410 0.33860
C3 C -0.0397(2) 0.73874(19) 0.23493(18)
C4 C -0.0856(2) 0.73483(19) 0.11694(18)
H3 H -0.17300 0.76660 0.10160
C5 C -0.0013(2) 0.68397(19) 0.02355(18)
H4 H -0.03280 0.68200 -0.05500
C6 C 0.1322(2) 0.63424(18) 0.04280(18)
C7 C 0.1989(2) 0.56438(19) -0.17448(17)
C8 C 0.3063(2) 0.4998(2) -0.24234(18)
H5 H 0.38290 0.46670 -0.20450
C9 C 0.2951(2) 0.4867(2) -0.36628(19)
H6 H 0.36550 0.44650 -0.41460
C10 C 0.1780(2) 0.5342(2) -0.41828(19)
H7 H 0.16730 0.52540 -0.50180
C11 C 0.0775(2) 0.5947(2) -0.34372(18)
H8 H -0.00120 0.62650 -0.37920
O5 O 0.11095(14) 0.91620(14) 0.67377(13)
O6 O 0.18016(15) 0.90372(15) 0.85781(13)
O7 O 0.60795(15) 0.72438(15) 0.94995(13)
O8 O 0.76275(14) 0.67840(14) 0.80493(13)
N5 N 0.20105(17) 0.89307(16) 0.74618(15)
N6 N 0.64752(18) 0.71892(16) 0.84073(16)
N7 N 0.28971(16) 0.90139(16) 0.48567(14)
H9 H 0.20800 0.92800 0.52050
N8 N 0.42223(17) 0.87995(17) 0.29787(15)
C12 C 0.33688(19) 0.84929(18) 0.69814(18)
C13 C 0.42446(19) 0.80525(18) 0.78576(18)
H10 H 0.39570 0.80390 0.86870
C14 C 0.55455(19) 0.76350(19) 0.74839(18)
C15 C 0.5991(2) 0.76604(19) 0.62424(18)
H11 H 0.68760 0.73780 0.60020
C16 C 0.5118(2) 0.81020(19) 0.53780(18)
H12 H 0.54240 0.81100 0.45530
C17 C 0.37740(19) 0.85429(18) 0.57040(17)
C18 C 0.3081(2) 0.92163(19) 0.35816(18)
C19 C 0.1996(2) 0.9846(2) 0.30090(19)
H13 H 0.12200 1.01430 0.34690
C20 C 0.2096(2) 1.0019(2) 0.17547(19)
H14 H 0.13840 1.04230 0.13470
C21 C 0.3278(2) 0.9582(2) 0.1106(2)
H15 H 0.33740 0.96800 0.02550
C22 C 0.4305(2) 0.8999(2) 0.17510(19)
H16 H 0.51050 0.87270 0.13130
#END
