
#######################################################################
#
#                 Cambridge Crystallographic Data Centre
#                                CCDC
#
#######################################################################
#
# If this CIF has been generated from an entry in the Cambridge
# Structural Database, then it will include bibliographic, chemical,
# crystal, experimental, refinement or atomic coordinate data resulting
# from the CCDC's data processing and validation procedures.
#
#######################################################################

data_CSD_CIF_AQILIW
_audit_creation_date 2011-07-21
_audit_creation_method CSD-ConQuest-V1
_database_code_CSD AQILIW
_database_code_depnum_ccdc_archive 'CCDC 815055'
_chemical_formula_sum 'C18 H13 N5 O4'
_chemical_formula_moiety
;
C18 H13 N5 O4
;
_journal_coden_Cambridge 1037
_journal_volume 12
_journal_year 2011
_journal_page_first 238-2
_journal_name_full 'ARKIVOC '
loop_
_publ_author_name
"A.V.Gulevskaya"
"I.N.Tyaglivaya"
"S.Verbeeck"
"B.U.W.Maes"
"A.V.Tkachuk"
_chemical_name_systematic
;
2,4-Dinitro-N-(4-(phenyldiazenyl)phenyl)aniline
;
_cell_volume   1612.833
_exptl_crystal_colour 'red'
_exptl_crystal_density_diffrn 1.496
_exptl_crystal_description 'prism'
_diffrn_ambient_temperature 120
#These two values have been output from a single CSD field.
_refine_ls_R_factor_gt 0.0509
_refine_ls_wR_factor_gt 0.0509
_symmetry_cell_setting monoclinic
_symmetry_space_group_name_H-M 'P 21/n'
_symmetry_Int_Tables_number 14
loop_
_symmetry_equiv_pos_site_id
_symmetry_equiv_pos_as_xyz
1 x,y,z
2 1/2-x,1/2+y,1/2-z
3 -x,-y,-z
4 -1/2+x,-1/2-y,-1/2+z
_cell_length_a 8.5347(9)
_cell_length_b 16.2980(17)
_cell_length_c 11.6632(13)
_cell_angle_alpha 90
_cell_angle_beta 96.204(2)
_cell_angle_gamma 90
_cell_formula_units_Z 4
loop_
_atom_type_symbol
_atom_type_radius_bond
C 0.68
H 0.23
N 0.68
O 0.68
loop_
_atom_site_label
_atom_site_type_symbol
_atom_site_fract_x
_atom_site_fract_y
_atom_site_fract_z
O1 O 0.27422(15) 0.19410(8) 0.36382(11)
O2 O 0.24170(16) 0.32205(8) 0.40599(11)
O3 O 0.42473(17) 0.54004(8) 0.19565(12)
O4 O 0.62286(17) 0.52002(9) 0.09725(12)
N1 N 0.30024(16) 0.26810(9) 0.34976(12)
N2 N 0.51716(18) 0.49464(9) 0.15158(13)
N3 N 0.46993(17) 0.15346(9) 0.21463(12)
H1 H 0.396(3) 0.1387(14) 0.261(2)
N4 N 0.80685(17) -0.10614(9) 0.03949(12)
N5 N 0.75295(17) -0.17746(9) 0.04992(12)
C1 C 0.47909(19) 0.23592(10) 0.19746(14)
C2 C 0.40023(18) 0.29342(10) 0.26280(14)
C3 C 0.41214(19) 0.37748(11) 0.24743(14)
H2 H 0.35890 0.41440 0.29290
C4 C 0.5022(2) 0.40643(10) 0.16530(14)
C5 C 0.57630(19) 0.35320(11) 0.09506(14)
H3 H 0.63530 0.37430 0.03710
C6 C 0.5635(2) 0.27000(11) 0.11017(14)
H4 H 0.61260 0.23410 0.06080
C7 C 0.5590(2) 0.08973(10) 0.17202(14)
C8 C 0.4893(2) 0.01172(11) 0.16358(14)
H5 H 0.38630 0.00440 0.18570
C9 C 0.5681(2) -0.05441(11) 0.12372(14)
H6 H 0.52040 -0.10710 0.11950
C10 C 0.7193(2) -0.04344(10) 0.08934(14)
C11 C 0.7893(2) 0.03347(11) 0.09915(14)
H7 H 0.89140 0.04100 0.07540
C12 C 0.7125(2) 0.09945(11) 0.14305(14)
H8 H 0.76390 0.15100 0.15340
C13 C 0.83761(19) -0.23935(11) -0.00470(14)
C14 C 0.9311(2) -0.22335(11) -0.09382(15)
H9 H 0.94230 -0.16900 -0.12110
C15 C 1.0070(2) -0.28805(12) -0.14155(15)
H10 H 1.07020 -0.27790 -0.20230
C16 C 0.9915(2) -0.36781(12) -0.10135(16)
H11 H 1.04680 -0.41150 -0.13290
C17 C 0.8952(2) -0.38354(11) -0.01530(16)
H12 H 0.88310 -0.43810 0.01110
C18 C 0.8167(2) -0.31940(11) 0.03212(15)
H13 H 0.74870 -0.33020 0.08970
#END
