
#######################################################################
#
#                 Cambridge Crystallographic Data Centre
#                                CCDC
#
#######################################################################
#
# If this CIF has been generated from an entry in the Cambridge
# Structural Database, then it will include bibliographic, chemical,
# crystal, experimental, refinement or atomic coordinate data resulting
# from the CCDC's data processing and validation procedures.
#
#######################################################################

data_CSD_CIF_AQIWOO
_audit_creation_date 2016-07-20
_audit_creation_method CSD-ConQuest-V1
_database_code_CSD AQIWOO
_database_code_depnum_ccdc_archive 'CCDC 1406923'
_chemical_formula_sum 'C31 H47 N1 O9'
_chemical_formula_moiety
;
C31 H47 N1 O9
;
_journal_coden_Cambridge 1540
_journal_volume 6
_journal_year 2016
_journal_page_first 29155
_journal_name_full 'Scientific Reports '
loop_
_publ_author_name
"Hong-Jin Tang"
"Li-Jun Ruan"
"Hai-Yan Tian"
"Guang-Ping Liang"
"Wen-Cai Ye"
"E.Hughes"
"M.Esmann"
"N.U.Fedosova"
"Tse-Yu Chung"
"J.T.C.Tzen"
"Ren-Wang Jiang"
"D.A.Middleton"
_chemical_name_systematic
;
bufalin-3\b-N-glucose
;
_cell_volume   1513.220
_exptl_crystal_colour 'colorless'
_exptl_crystal_density_diffrn 1.268
_exptl_crystal_description 'Block'
_exptl_crystal_preparation 'methanol'
_diffrn_ambient_temperature 173
_refine_special_details
;
O9A and O9B disordered over two sites with occupancies 0.70:0.30. The 
SQUEEZE/PLATON program may have been used.
;
#These two values have been output from a single CSD field.
_refine_ls_R_factor_gt 0.1248
_refine_ls_wR_factor_gt 0.1248
_symmetry_cell_setting triclinic
_symmetry_space_group_name_H-M 'P 1'
_symmetry_Int_Tables_number 1
loop_
_symmetry_equiv_pos_site_id
_symmetry_equiv_pos_as_xyz
1 x,y,z
_cell_length_a 10.4551(7)
_cell_length_b 10.4670(6)
_cell_length_c 15.8564(10)
_cell_angle_alpha 80.728(5)
_cell_angle_beta 73.259(6)
_cell_angle_gamma 65.749(6)
_cell_formula_units_Z 2
loop_
_atom_type_symbol
_atom_type_radius_bond
C 0.68
H 0.23
N 0.68
O 0.68
loop_
_atom_site_label
_atom_site_type_symbol
_atom_site_fract_x
_atom_site_fract_y
_atom_site_fract_z
N1 N -0.0440(7) -0.0056(9) -0.0289(5)
O1 O -0.9289(10) -0.5768(12) 0.1262(7)
O2 O -1.0707(9) -0.5792(10) 0.0453(7)
O3 O -0.6462(7) -0.2894(7) -0.0569(4)
H1 H -0.61190 -0.27920 -0.10980
O4 O 0.0650(7) -0.0377(7) 0.0196(5)
O5 O 0.1391(6) -0.0713(6) -0.1589(4)
O6 O -0.0766(6) 0.2887(7) -0.0920(5)
H2 H -0.07080 0.32470 -0.05170
O7 O 0.1916(9) 0.2998(8) -0.2029(6)
H3 H 0.23520 0.31840 -0.25200
O8 O 0.3027(8) 0.1045(8) -0.3466(5)
H4 H 0.33600 0.16490 -0.35270
O9 O 0.4229(8) -0.2436(8) -0.2486(5)
H5 H 0.39020 -0.25080 -0.19530
C1 C -0.2872(10) -0.076(1) 0.1041(7)
H6 H -0.28850 0.01640 0.10690
H7 H -0.32320 -0.10780 0.16370
C2 C -0.1281(11) -0.1782(11) 0.0683(7)
H8 H -0.06900 -0.17710 0.10520
H9 H -0.12480 -0.27280 0.07150
C3 C -0.0664(10) -0.1394(10) -0.0251(6)
H10 H 0.02740 -0.21440 -0.04740
C4 C -0.1663(11) -0.1218(12) -0.0832(7)
H11 H -0.12870 -0.08640 -0.14120
H12 H -0.16350 -0.21360 -0.08970
C5 C -0.3224(10) -0.0253(9) -0.0501(6)
H13 H -0.32320 0.06860 -0.04980
C6 C -0.4162(11) -0.014(1) -0.1110(7)
H14 H -0.36980 0.00590 -0.17120
H15 H -0.50920 0.06290 -0.09420
C7 C -0.4393(10) -0.1504(10) -0.1061(7)
H16 H -0.34690 -0.22530 -0.12800
H17 H -0.50150 -0.13950 -0.14410
C8 C -0.5084(10) -0.1924(9) -0.0112(6)
H18 H -0.60110 -0.11560 0.01020
C9 C -0.4069(9) -0.2087(9) 0.0480(6)
H19 H -0.31100 -0.27800 0.02230
C10 C -0.3915(9) -0.0642(9) 0.0465(7)
C11 C -0.4601(10) -0.2633(11) 0.1419(6)
H20 H -0.39150 -0.27890 0.17630
H21 H -0.55270 -0.19440 0.17040
C12 C -0.4758(10) -0.3994(10) 0.1373(6)
H22 H -0.50690 -0.43440 0.19680
H23 H -0.38170 -0.46810 0.11060
C13 C -0.5846(9) -0.386(1) 0.0842(6)
C14 C -0.5370(9) -0.3226(9) -0.0099(6)
C15 C -0.4102(10) -0.4501(11) -0.0562(7)
H24 H -0.31910 -0.45400 -0.04980
H25 H -0.40630 -0.44330 -0.11850
C16 C -0.4369(10) -0.5829(10) -0.0118(9)
H26 H -0.35220 -0.64990 0.00720
H27 H -0.45720 -0.62720 -0.05280
C17 C -0.5708(9) -0.5339(10) 0.0701(7)
H28 H -0.54410 -0.59460 0.12130
C18 C -0.5357(12) 0.052(1) 0.0887(9)
H29 H -0.52140 0.13770 0.08600
H30 H -0.56880 0.02480 0.14910
H31 H -0.60660 0.06610 0.05720
C19 C -0.7365(9) -0.2949(10) 0.1345(7)
H32 H -0.76000 -0.33850 0.19170
H33 H -0.80540 -0.28510 0.10240
H34 H -0.73950 -0.20400 0.14100
C20 C -0.7044(11) -0.5451(10) 0.0583(7)
C21 C -0.8052(12) -0.5664(13) 0.1323(7)
H35 H -0.78830 -0.57380 0.18770
C22 C -0.7402(12) -0.5286(12) -0.0195(7)
H36 H -0.68020 -0.50700 -0.07050
C23 C -0.8643(12) -0.5430(11) -0.0255(7)
H37 H -0.88400 -0.53460 -0.08020
C24 C -0.9586(12) -0.5702(12) 0.0509(8)
C25 C 0.0073(14) 0.0509(12) 0.0913(7)
H38 H 0.07950 0.02990 0.12320
H39 H -0.07530 0.03580 0.12980
H40 H -0.02140 0.14700 0.06950
C26 C 0.0127(9) 0.0436(10) -0.1164(6)
H41 H -0.06080 0.07180 -0.15000
C27 C 0.0540(9) 0.1651(9) -0.1173(6)
H42 H 0.11500 0.14480 -0.07620
C28 C 0.1328(11) 0.1985(11) -0.2095(7)
H43 H 0.06200 0.24230 -0.24530
C29 C 0.2556(9) 0.0741(10) -0.2573(6)
H44 H 0.33690 0.04040 -0.22950
C30 C 0.1938(11) -0.0436(10) -0.2475(6)
H45 H 0.11340 -0.00710 -0.27620
C31 C 0.3049(12) -0.1767(11) -0.2914(8)
H46 H 0.25860 -0.24110 -0.28930
H47 H 0.34280 -0.15440 -0.35290
N2 N -0.3100(8) -0.4390(8) -0.5279(5)
O10 O 0.3618(9) 0.3592(8) -0.6843(5)
O11 O 0.318(1) 0.5536(8) -0.6239(6)
O12 O -0.0355(7) 0.1702(7) -0.4837(5)
H48 H -0.06720 0.15260 -0.43140
O13 O -0.2576(7) -0.5660(7) -0.5787(5)
O14 O -0.2900(6) -0.5800(6) -0.3957(4)
O15 O -0.6215(7) -0.3903(6) -0.4712(5)
H49 H -0.63760 -0.40800 -0.51470
O16 O -0.6704(7) -0.6229(8) -0.3627(5)
H50 H -0.72890 -0.56830 -0.38990
O17 O -0.5358(8) -0.6748(8) -0.2119(5)
H51 H -0.59650 -0.70780 -0.20720
O18 O -0.1577(10) -0.8278(10) -0.2978(7)
H52 H -0.12670 -0.81840 -0.35120
C32 C -0.1917(11) -0.2380(11) -0.6519(7)
H53 H -0.14040 -0.21920 -0.71100
H54 H -0.28280 -0.23740 -0.65590
C33 C -0.1011(10) -0.3870(11) -0.6193(6)
H55 H -0.08790 -0.45530 -0.65900
H56 H -0.00630 -0.39160 -0.61980
C34 C -0.1752(10) -0.4228(10) -0.5268(6)
H57 H -0.10960 -0.51120 -0.50480
C35 C -0.2135(10) -0.3044(10) -0.4647(7)
H58 H -0.27020 -0.32340 -0.40760
H59 H -0.12450 -0.30590 -0.45630
C36 C -0.2985(10) -0.1571(10) -0.4999(7)
H60 H -0.39220 -0.15530 -0.50160
C37 C -0.3292(12) -0.0485(12) -0.4350(8)
H61 H -0.36550 -0.08090 -0.37560
H62 H -0.40370 0.03920 -0.44850
C38 C -0.1919(12) -0.0227(12) -0.4387(8)
H63 H -0.21800 0.05340 -0.40130
H64 H -0.12330 -0.10630 -0.41610
C39 C -0.1216(10) 0.0135(9) -0.5310(7)
H65 H -0.19220 0.10000 -0.55120
C40 C -0.0811(10) -0.1015(9) -0.5963(6)
H66 H -0.01820 -0.19000 -0.57270
C41 C -0.2240(9) -0.1198(10) -0.5952(7)
C42 C -0.0001(11) -0.0749(10) -0.6853(7)
H67 H -0.06030 0.01050 -0.71170
H68 H 0.02530 -0.15170 -0.72190
C43 C 0.1385(10) -0.0602(10) -0.6810(6)
H69 H 0.19880 -0.14600 -0.65490
H70 H 0.19260 -0.04660 -0.74030
C44 C 0.1034(10) 0.0636(9) -0.6265(7)
C45 C 0.0151(9) 0.0445(8) -0.5338(6)
C46 C 0.1249(10) -0.069(1) -0.4893(7)
H71 H 0.13830 -0.16120 -0.50330
H72 H 0.09290 -0.06180 -0.42580
C47 C 0.2697(11) -0.0442(11) -0.5261(8)
H73 H 0.28520 0.00110 -0.48330
H74 H 0.35150 -0.13240 -0.53980
C48 C 0.2507(10) 0.052(1) -0.6108(7)
H75 H 0.32840 0.00110 -0.65980
C49 C -0.3336(12) 0.0124(12) -0.6316(10)
H76 H -0.41840 -0.00400 -0.62930
H77 H -0.29050 0.03320 -0.69160
H78 H -0.36010 0.09030 -0.59660
C50 C 0.0359(11) 0.2010(11) -0.6774(7)
H79 H -0.05350 0.20660 -0.68590
H80 H 0.10130 0.20390 -0.73370
H81 H 0.01780 0.27870 -0.64460
C51 C 0.2661(9) 0.1872(10) -0.6080(6)
C52 C 0.3435(11) 0.2372(11) -0.6803(7)
H82 H 0.38660 0.18400 -0.73000
C53 C 0.2060(11) 0.2727(12) -0.5332(6)
H83 H 0.15460 0.24350 -0.48100
C54 C 0.2221(10) 0.3917(10) -0.5372(7)
H84 H 0.18110 0.44330 -0.48680
C55 C 0.2981(11) 0.4471(11) -0.6134(7)
C56 C -0.3174(14) -0.5293(15) -0.6519(8)
H85 H -0.28350 -0.61060 -0.68550
H86 H -0.28850 -0.45830 -0.68820
H87 H -0.42100 -0.49410 -0.63230
C57 C -0.3872(9) -0.4695(9) -0.4417(6)
H88 H -0.42910 -0.38480 -0.40810
C58 C -0.5112(9) -0.5116(9) -0.4429(7)
H89 H -0.47570 -0.58720 -0.48330
C59 C -0.5776(9) -0.5568(9) -0.3521(6)
H90 H -0.63770 -0.47340 -0.31760
C60 C -0.4696(9) -0.6585(9) -0.3026(6)
H91 H -0.42210 -0.74970 -0.32960
C61 C -0.3567(9) -0.5974(9) -0.3066(6)
H92 H -0.40550 -0.50590 -0.28000
C62 C -0.2368(10) -0.6923(10) -0.2613(7)
H93 H -0.28930 -0.71180 -0.20200
O19? O -0.177(3) -0.603(3) -0.2482(14)
H94? H -0.11130 -0.64750 -0.22400
#END
