
#######################################################################
#
#                 Cambridge Crystallographic Data Centre
#                                CCDC
#
#######################################################################
#
# If this CIF has been generated from an entry in the Cambridge
# Structural Database, then it will include bibliographic, chemical,
# crystal, experimental, refinement or atomic coordinate data resulting
# from the CCDC's data processing and validation procedures.
#
#######################################################################

data_CSD_CIF_AQOZUD
_audit_creation_date 2016-07-21
_audit_creation_method CSD-ConQuest-V1
_database_code_CSD AQOZUD
_database_code_depnum_ccdc_archive 'CCDC 1474206'
_chemical_formula_sum 'C11 H9 N1 O1'
_chemical_formula_moiety
;
C11 H9 N1 O1
;
_journal_coden_Cambridge 182
_journal_volume 52
_journal_year 2016
_journal_page_first 9945
_journal_name_full 'Chem.Commun. '
loop_
_publ_author_name
"D.E.Stephens"
"J.Lakey-Beitia"
"J.E.Burch"
"H.D.Arman"
"O.V.Larionov"
_chemical_name_systematic
;
2-phenylpyridine 1-oxide
;
_cell_volume    855.510
_exptl_crystal_colour 'colorless'
_exptl_crystal_density_diffrn 1.329
_exptl_crystal_description 'plate'
_diffrn_ambient_temperature 293
#These two values have been output from a single CSD field.
_refine_ls_R_factor_gt 0.0493
_refine_ls_wR_factor_gt 0.0493
_symmetry_cell_setting monoclinic
_symmetry_space_group_name_H-M 'P 21/c'
_symmetry_Int_Tables_number 14
loop_
_symmetry_equiv_pos_site_id
_symmetry_equiv_pos_as_xyz
1 x,y,z
2 -x,1/2+y,1/2-z
3 -x,-y,-z
4 x,-1/2-y,-1/2+z
_cell_length_a 5.8141(14)
_cell_length_b 23.591(5)
_cell_length_c 6.8413(16)
_cell_angle_alpha 90
_cell_angle_beta 114.257(3)
_cell_angle_gamma 90
_cell_formula_units_Z 4
loop_
_atom_type_symbol
_atom_type_radius_bond
C 0.68
H 0.23
N 0.68
O 0.68
loop_
_atom_site_label
_atom_site_type_symbol
_atom_site_fract_x
_atom_site_fract_y
_atom_site_fract_z
O1 O 0.2073(2) 0.56429(6) 0.6716(2)
N1 N 0.3024(3) 0.56749(6) 0.5285(2)
C1 C 0.4994(3) 0.60382(7) 0.5595(3)
C2 C 0.5962(3) 0.63972(7) 0.7524(3)
C3 C 0.4392(4) 0.67626(8) 0.8023(3)
H1 H 0.26670 0.67640 0.71730
C4 C 0.6010(3) 0.60459(8) 0.4081(3)
H2 H 0.73600 0.62860 0.42860
C5 C 0.8536(3) 0.63982(8) 0.8834(3)
H3 H 0.96150 0.61610 0.85190
C6 C 0.5075(4) 0.57093(9) 0.2289(3)
H4 H 0.57550 0.57230 0.12730
C7 C 0.2104(3) 0.53375(8) 0.3532(3)
H5 H 0.07730 0.50940 0.33430
C8 C 0.3096(4) 0.53483(9) 0.2031(3)
H6 H 0.24390 0.51130 0.08370
C9 C 0.7922(4) 0.71121(9) 1.1069(3)
H7 H 0.85720 0.73500 1.22570
C10 C 0.5365(4) 0.71178(9) 0.9752(4)
H8 H 0.43030 0.73650 1.00470
C11 C 0.9493(4) 0.67506(9) 1.0602(3)
H9 H 1.12090 0.67440 1.14830
#END
