
#######################################################################
#
#                 Cambridge Crystallographic Data Centre
#                                CCDC
#
#######################################################################
#
# If this CIF has been generated from an entry in the Cambridge
# Structural Database, then it will include bibliographic, chemical,
# crystal, experimental, refinement or atomic coordinate data resulting
# from the CCDC's data processing and validation procedures.
#
#######################################################################

data_CSD_CIF_AQOZUD01
_audit_creation_date 2016-04-06
_audit_creation_method CSD-ConQuest-V1
_database_code_CSD AQOZUD01
_database_code_depnum_ccdc_archive 'CCDC 1465257'
_chemical_formula_sum 'C11 H9 N1 O1'
_chemical_formula_moiety
;
C11 H9 N1 O1
;
_journal_coden_Cambridge 1078
_journal_year 2016
_journal_name_full 'CSD Communication(Private Communication) '
loop_
_publ_author_name
"wei zhang"
_chemical_name_systematic
;
2-phenylpyridine 1-oxide
;
_cell_volume    854.461
_exptl_crystal_colour 'colorless'
_exptl_crystal_density_diffrn 1.331
_diffrn_ambient_temperature ?
_diffrn_special_details
;
The study was carried out at room temperature,in the range 283-303K

;
#These two values have been output from a single CSD field.
_refine_ls_R_factor_gt 0.0355
_refine_ls_wR_factor_gt 0.0355
_symmetry_cell_setting monoclinic
_symmetry_space_group_name_H-M 'P 21/c'
_symmetry_Int_Tables_number 14
loop_
_symmetry_equiv_pos_site_id
_symmetry_equiv_pos_as_xyz
1 x,y,z
2 -x,1/2+y,1/2-z
3 -x,-y,-z
4 x,-1/2-y,-1/2+z
_cell_length_a 5.8126(7)
_cell_length_b 23.578(3)
_cell_length_c 6.8356(8)
_cell_angle_alpha 90
_cell_angle_beta 114.204(3)
_cell_angle_gamma 90
_cell_formula_units_Z 4
loop_
_atom_type_symbol
_atom_type_radius_bond
C 0.68
H 0.23
N 0.68
O 0.68
loop_
_atom_site_label
_atom_site_type_symbol
_atom_site_fract_x
_atom_site_fract_y
_atom_site_fract_z
O1 O 0.79260(11) 0.56430(3) 0.32841(9)
N1 N 0.69750(11) 0.56766(3) 0.47101(10)
C1 C 0.79016(15) 0.53352(4) 0.64746(13)
H1 H 0.9290(17) 0.5095(4) 0.6541(15)
C2 C 0.69058(16) 0.53489(4) 0.79690(13)
H2 H 0.75820 0.51090 0.91920
C3 C 0.49318(17) 0.57061(4) 0.77207(13)
H3 H 0.4227(18) 0.5724(4) 0.8774(16)
C4 C 0.39958(15) 0.60462(4) 0.59215(12)
H4 H 0.26210 0.62920 0.57140
C5 C 0.50132(13) 0.60372(3) 0.44128(11)
C6 C 0.40374(13) 0.63984(3) 0.24728(11)
C7 C 0.14701(15) 0.63974(4) 0.11741(13)
H5 H 0.03730 0.61540 0.15030
C8 C 0.05052(18) 0.67506(4) -0.06020(14)
H6 H -0.12460 0.67430 -0.15060
C9 C 0.20865(19) 0.71126(4) -0.10569(15)
H7 H 0.14220 0.73570 -0.22670
C10 C 0.46403(18) 0.71197(4) 0.02503(15)
H8 H 0.57220 0.73730 -0.00530
C11 C 0.56194(15) 0.67613(3) 0.19870(13)
H9 H 0.73810 0.67610 0.28570
#END
