
#######################################################################
#
#                 Cambridge Crystallographic Data Centre
#                                CCDC
#
#######################################################################
#
# If this CIF has been generated from an entry in the Cambridge
# Structural Database, then it will include bibliographic, chemical,
# crystal, experimental, refinement or atomic coordinate data resulting
# from the CCDC's data processing and validation procedures.
#
#######################################################################

data_CSD_CIF_AQUGUQ
_audit_creation_date 2016-07-21
_audit_creation_method CSD-ConQuest-V1
_database_code_CSD AQUGUQ
_database_code_depnum_ccdc_archive 'CCDC 1482531'
_chemical_formula_sum 'C6 H11 N7 O3'
_chemical_formula_moiety
;
C6 H11 N7 O3
;
_journal_coden_Cambridge 179
_journal_volume 55
_journal_year 2016
_journal_page_first 11472
_journal_name_full 'Angew.Chem.,Int.Ed. '
loop_
_publ_author_name
"M.S.Klenov"
"A.A.Guskov"
"O.V.Anikin"
"A.M.Churakov"
"Y.A.Strelenko"
"I.V.Fedyanin"
"K.A.Lyssenko"
"V.A.Tartakovsky"
_chemical_name_systematic
;
6-(t-butyl-NNO-azoxy)-1,2,3,4-tetrazin-5-amine 1,3-dioxide
;
_cell_volume   2092.763
_exptl_crystal_colour 'colorless'
_exptl_crystal_density_diffrn 1.455
_exptl_crystal_description 'plate'
_diffrn_ambient_temperature 120
#These two values have been output from a single CSD field.
_refine_ls_R_factor_gt 0.0323
_refine_ls_wR_factor_gt 0.0323
_symmetry_cell_setting monoclinic
_symmetry_space_group_name_H-M 'P 21/n'
_symmetry_Int_Tables_number 14
loop_
_symmetry_equiv_pos_site_id
_symmetry_equiv_pos_as_xyz
1 x,y,z
2 1/2-x,1/2+y,1/2-z
3 -x,-y,-z
4 -1/2+x,-1/2-y,-1/2+z
_cell_length_a 18.7877(3)
_cell_length_b 5.3303(1)
_cell_length_c 21.9727(3)
_cell_angle_alpha 90
_cell_angle_beta 107.998(1)
_cell_angle_gamma 90
_cell_formula_units_Z 8
loop_
_atom_type_symbol
_atom_type_radius_bond
C 0.68
H 0.23
N 0.68
O 0.68
loop_
_atom_site_label
_atom_site_type_symbol
_atom_site_fract_x
_atom_site_fract_y
_atom_site_fract_z
O1 O 0.67974(5) 0.22251(19) 0.44115(5)
O2 O 0.53285(5) 0.77821(19) 0.48754(5)
O3 O 0.58544(6) -0.15851(17) 0.35890(5)
N1 N 0.61650(6) 0.3198(2) 0.42709(5)
N2 N 0.60826(6) 0.4999(2) 0.46870(5)
N3 N 0.54056(6) 0.6036(2) 0.45220(5)
N4 N 0.48066(6) 0.5463(2) 0.40355(5)
N5 N 0.43065(7) 0.3019(3) 0.31603(6)
H1 H 0.4344(11) 0.212(4) 0.2854(10)
H2 H 0.3882(11) 0.362(3) 0.3151(8)
N6 N 0.57603(6) 0.05867(19) 0.33533(5)
N7 N 0.57697(6) 0.1345(2) 0.28110(5)
C1 C 0.49021(7) 0.3655(2) 0.36408(6)
C2 C 0.56046(7) 0.2544(2) 0.37481(6)
C3 C 0.58911(7) -0.0587(2) 0.23613(6)
C4 C 0.66469(8) -0.1897(3) 0.26427(8)
H3 H 0.70370 -0.06380 0.28160
H4 H 0.67660 -0.28560 0.23060
H5 H 0.66210 -0.30360 0.29850
C5 C 0.58868(9) 0.0936(3) 0.17715(7)
H6 H 0.54060 0.18020 0.16030
H7 H 0.59600 -0.01910 0.14430
H8 H 0.62920 0.21730 0.18890
C6 C 0.52392(8) -0.2446(3) 0.21824(7)
H9 H 0.47660 -0.15250 0.20270
H10 H 0.52440 -0.34330 0.25600
H11 H 0.52900 -0.35710 0.18460
O4 O 0.90413(5) 0.20202(18) 0.66447(4)
O5 O 0.74672(5) 0.70119(19) 0.71556(4)
O6 O 0.77015(5) -0.25317(17) 0.57467(4)
N8 N 0.83716(6) 0.2613(2) 0.65563(5)
N9 N 0.82768(6) 0.4508(2) 0.69425(5)
N10 N 0.75627(6) 0.5156(2) 0.68481(5)
N11 N 0.69531(6) 0.4014(2) 0.64835(5)
N12 N 0.64655(6) 0.0880(2) 0.57722(5)
H12 H 0.6509(9) -0.049(3) 0.5556(8)
H13 H 0.6030(11) 0.150(3) 0.5757(8)
N13 N 0.79508(5) -0.03433(19) 0.57052(5)
N14 N 0.83062(5) 0.04952(19) 0.53478(5)
C7 C 0.70624(7) 0.2102(2) 0.61221(6)
C8 C 0.77933(7) 0.1507(2) 0.61230(6)
C9 C 0.85285(7) -0.1309(2) 0.49225(6)
C10 C 0.91316(7) -0.3039(3) 0.53439(7)
H14 H 0.95210 -0.20260 0.56420
H15 H 0.93540 -0.40320 0.50740
H16 H 0.89060 -0.41650 0.55850
C11 C 0.88632(9) 0.0384(3) 0.45242(7)
H17 H 0.84730 0.14890 0.42580
H18 H 0.90680 -0.06470 0.42490
H19 H 0.92640 0.14020 0.48090
C12 C 0.78723(7) -0.2798(3) 0.44879(7)
H20 H 0.74520 -0.16620 0.42990
H21 H 0.77190 -0.40880 0.47390
H22 H 0.80260 -0.35980 0.41470
#END
