
#######################################################################
#
#                 Cambridge Crystallographic Data Centre
#                                CCDC
#
#######################################################################
#
# If this CIF has been generated from an entry in the Cambridge
# Structural Database, then it will include bibliographic, chemical,
# crystal, experimental, refinement or atomic coordinate data resulting
# from the CCDC's data processing and validation procedures.
#
#######################################################################

data_CSD_CIF_ARAHAD
_audit_creation_date 2011-08-01
_audit_creation_method CSD-ConQuest-V1
_database_code_CSD ARAHAD
_database_code_depnum_ccdc_archive 'CCDC 741978'
_chemical_formula_sum 'C34 H31 N1 O4'
_chemical_formula_moiety
;
C34 H31 N1 O4
;
_journal_coden_Cambridge 1220
_journal_volume 16
_journal_year 2010
_journal_page_first 6146
_journal_name_full 'Chem.-Eur.J. '
loop_
_publ_author_name
"Yanqing Zhang"
"Feng Liu"
"Junliang Zhang"
_chemical_name_systematic
;
1-(6-(4-Methoxyphenyl)-4-((4-methoxyphenyl)ethynyl)-2,3-diphenyl-1,2-oxazinan-
4-yl)ethanone
;
_cell_volume   1371.554
_exptl_crystal_colour 'colorless'
_exptl_crystal_density_diffrn 1.253
_exptl_crystal_description 'block'
_diffrn_ambient_temperature 173
#These two values have been output from a single CSD field.
_refine_ls_R_factor_gt 0.0617
_refine_ls_wR_factor_gt 0.0617
_symmetry_cell_setting monoclinic
_symmetry_space_group_name_H-M 'P 21'
_symmetry_Int_Tables_number 4
loop_
_symmetry_equiv_pos_site_id
_symmetry_equiv_pos_as_xyz
1 x,y,z
2 -x,1/2+y,-z
_cell_length_a 10.433(2)
_cell_length_b 13.814(3)
_cell_length_c 10.471(2)
_cell_angle_alpha 90
_cell_angle_beta 114.652(6)
_cell_angle_gamma 90
_cell_formula_units_Z 2
loop_
_atom_type_symbol
_atom_type_radius_bond
C 0.68
H 0.23
N 0.68
O 0.68
loop_
_atom_site_label
_atom_site_type_symbol
_atom_site_fract_x
_atom_site_fract_y
_atom_site_fract_z
N1 N 0.2027(3) 0.4439(2) 0.0828(3)
O1 O -0.3730(3) 0.3602(2) 0.3454(3)
O2 O 0.6148(3) -0.1082(2) 0.3982(3)
O3 O -0.0843(3) 0.2723(3) -0.3143(3)
O4 O 0.0765(2) 0.45392(16) 0.1063(3)
C1 C 0.4167(4) 0.5301(3) 0.1211(5)
H1 H 0.44020 0.48000 0.07250
C2 C 0.5076(4) 0.6059(3) 0.1774(5)
H2 H 0.59220 0.60900 0.16410
C3 C 0.4790(4) 0.6774(3) 0.2527(5)
H3 H 0.54430 0.72840 0.29400
C4 C 0.3527(4) 0.6739(3) 0.2673(5)
H4 H 0.33110 0.72310 0.31860
C5 C 0.2586(4) 0.5995(3) 0.2080(4)
H5 H 0.17190 0.59850 0.21750
C6 C 0.2888(4) 0.5266(3) 0.1352(4)
C7 C -0.0482(4) 0.5357(3) -0.1840(5)
H6 H -0.08950 0.51320 -0.12410
C8 C -0.1156(5) 0.6055(3) -0.2828(5)
H7 H -0.20300 0.63070 -0.29010
C9 C -0.0595(6) 0.6389(3) -0.3702(6)
H8 H -0.091(6) 0.689(4) -0.439(7)
C10 C 0.0696(5) 0.6036(3) -0.3581(5)
H9 H 0.11030 0.62750 -0.41780
C11 C 0.1382(4) 0.5342(3) -0.2599(4)
H10 H 0.22650 0.51050 -0.25240
C12 C 0.0814(4) 0.4975(2) -0.1710(4)
C13 C 0.4732(4) 0.1342(3) 0.2792(4)
H11 H 0.48230 0.19890 0.31280
C14 C 0.5550(4) 0.0624(3) 0.3666(5)
H12 H 0.62090 0.07810 0.45910
C15 C 0.5415(4) -0.0321(3) 0.3202(4)
C16 C 0.4489(4) -0.0534(3) 0.1829(4)
H13 H 0.44180 -0.11790 0.14910
C17 C 0.3680(4) 0.0179(3) 0.0958(4)
H14 H 0.30450 0.00230 0.00240
C18 C 0.3776(4) 0.1134(3) 0.1426(4)
C19 C -0.2019(4) 0.3004(3) 0.1185(4)
H15 H -0.21480 0.25500 0.04590
C20 C -0.2948(4) 0.3023(3) 0.1815(5)
H16 H -0.37070 0.25740 0.15200
C21 C -0.2800(4) 0.3671(3) 0.2850(4)
C22 C -0.1733(4) 0.4354(3) 0.3240(4)
H17 H -0.16440 0.48290 0.39270
C23 C -0.0794(4) 0.4335(3) 0.2614(4)
H18 H -0.00640 0.48050 0.28800
C24 C -0.0890(4) 0.3651(3) 0.1615(4)
C25 C 0.0232(4) 0.3577(3) 0.1055(4)
H19 H 0.10190 0.31650 0.17130
C26 C -0.0272(4) 0.3154(3) -0.0403(4)
H20 H -0.10890 0.35300 -0.10600
H21 H -0.05810 0.24770 -0.03970
C27 C 0.0927(4) 0.3180(2) -0.0906(4)
C28 C 0.1626(4) 0.4209(2) -0.0658(4)
H22 H 0.25320 0.41250 -0.07570
C29 C -0.3506(5) 0.4189(4) 0.4635(5)
H23 H -0.42490 0.40650 0.49570
H24 H -0.35290 0.48730 0.43760
H25 H -0.25850 0.40370 0.53930
C30 C 0.7136(5) -0.0897(4) 0.5385(5)
H26 H 0.75900 -0.15050 0.58270
H27 H 0.66460 -0.06170 0.59170
H28 H 0.78530 -0.04420 0.53760
C31 C 0.0385(5) 0.2904(3) -0.2455(4)
C32 C 0.1441(3) 0.28290(17) -0.3075(3)
H29 H 0.22590 0.32360 -0.25370
H30 H 0.10100 0.30480 -0.40540
H31 H 0.17450 0.21540 -0.30390
C33 C 0.2849(3) 0.18615(17) 0.0559(3)
C34 C 0.2011(3) 0.24649(17) -0.0105(3)
#END
