
#######################################################################
#
#                 Cambridge Crystallographic Data Centre
#                                CCDC
#
#######################################################################
#
# If this CIF has been generated from an entry in the Cambridge
# Structural Database, then it will include bibliographic, chemical,
# crystal, experimental, refinement or atomic coordinate data resulting
# from the CCDC's data processing and validation procedures.
#
#######################################################################

data_CSD_CIF_AREFOU
_audit_creation_date 2016-07-25
_audit_creation_method CSD-ConQuest-V1
_database_code_CSD AREFOU
_database_code_depnum_ccdc_archive 'CCDC 1455127'
_chemical_formula_sum 'C14 H11 N1 O3'
_chemical_formula_moiety
;
C14 H11 N1 O3
;
_journal_coden_Cambridge 182
_journal_volume 52
_journal_year 2016
_journal_page_first 10060
_journal_name_full 'Chem.Commun. '
loop_
_publ_author_name
"A.Vidal-Albalat"
"K.Swiderek"
"J.Izquierdo"
"S.Rodriguez"
"V.Moliner"
"F.V.Gonzalez"
_chemical_name_systematic
;
(2S,3R)-2-nitro-2,3-diphenyloxirane
;
_cell_volume    613.697
_exptl_crystal_colour 'colorless'
_exptl_crystal_density_diffrn 1.305
_exptl_crystal_description 'needle'
_diffrn_ambient_temperature 200
#These two values have been output from a single CSD field.
_refine_ls_R_factor_gt 0.0541
_refine_ls_wR_factor_gt 0.0541
_symmetry_cell_setting monoclinic
_symmetry_space_group_name_H-M 'P 21'
_symmetry_Int_Tables_number 4
loop_
_symmetry_equiv_pos_site_id
_symmetry_equiv_pos_as_xyz
1 x,y,z
2 -x,1/2+y,-z
_cell_length_a 8.6028(3)
_cell_length_b 6.2292(3)
_cell_length_c 11.4861(4)
_cell_angle_alpha 90
_cell_angle_beta 94.415(3)
_cell_angle_gamma 90
_cell_formula_units_Z 2
loop_
_atom_type_symbol
_atom_type_radius_bond
C 0.68
H 0.23
N 0.68
O 0.68
loop_
_atom_site_label
_atom_site_type_symbol
_atom_site_fract_x
_atom_site_fract_y
_atom_site_fract_z
O1 O -0.94886(19) -0.4701(3) -0.78273(16)
O2 O -0.84012(19) -0.5662(4) -1.06363(13)
O3 O -1.06991(18) -0.5621(4) -0.99943(16)
N1 N -0.9281(2) -0.5648(4) -0.98430(15)
C1 C -0.6280(3) -0.3294(5) -0.81490(19)
H1 H -0.69840 -0.21930 -0.79630
C2 C -0.9423(3) -0.7029(4) -0.7802(2)
C3 C -0.6839(2) -0.5298(4) -0.85075(18)
C4 C -0.8712(3) -0.8135(5) -0.67362(19)
C5 C -0.4690(3) -0.2910(5) -0.8065(2)
H2 H -0.43020 -0.15410 -0.78210
C6 C -0.3665(3) -0.4513(6) -0.8334(2)
H3 H -0.25740 -0.42450 -0.82700
C7 C -0.5811(3) -0.6901(5) -0.8782(2)
H4 H -0.61900 -0.82720 -0.90300
C8 C -0.8537(2) -0.5714(5) -0.85874(17)
C9 C -0.9275(4) -1.0135(5) -0.6487(2)
H5 H -1.00810 -1.07610 -0.69870
C10 C -0.4217(3) -0.6481(5) -0.8690(2)
H6 H -0.35070 -0.75730 -0.88770
C11 C -0.7532(4) -0.7210(6) -0.6007(2)
H7 H -0.71440 -0.58240 -0.61740
C12 C -0.8667(4) -1.1246(6) -0.5503(3)
H8 H -0.90640 -1.26210 -0.53260
C13 C -0.6926(4) -0.8342(8) -0.5030(3)
H9 H -0.61180 -0.77280 -0.45270
C14 C -0.7492(5) -1.0346(8) -0.4789(3)
H10 H -0.70660 -1.11120 -0.41240
H11 H -1.044(3) -0.765(4) -0.8180(19)
#END
