
#######################################################################
#
#                 Cambridge Crystallographic Data Centre
#                                CCDC
#
#######################################################################
#
# If this CIF has been generated from an entry in the Cambridge
# Structural Database, then it will include bibliographic, chemical,
# crystal, experimental, refinement or atomic coordinate data resulting
# from the CCDC's data processing and validation procedures.
#
#######################################################################

data_CSD_CIF_AREJIS
_audit_creation_date 2016-07-25
_audit_creation_method CSD-ConQuest-V1
_database_code_CSD AREJIS
_database_code_depnum_ccdc_archive 'CCDC 969421'
_chemical_formula_sum 'C16 H16 N2 O2'
_chemical_formula_moiety
;
C16 H16 N2 O2
;
_journal_coden_Cambridge 34
_journal_volume 53
_journal_year 2016
_journal_page_first 1094
_journal_name_full 'J.Heterocycl.Chem. '
loop_
_publ_author_name
"R.Matsubara"
"A.Ando"
"Y.Saeki"
"K.Eda"
"N.Asada"
"T.Tsutsumi"
"Yong Soon Shin"
"M.Hayashi"
_chemical_name_systematic
;
4-t-butyl-3-(2-naphthyl)-1,2,5-oxadiazole 2-oxide
;
_cell_volume   1395.745
_exptl_crystal_colour 'colorless'
_exptl_crystal_density_diffrn 1.277
_diffrn_ambient_temperature 296
#These two values have been output from a single CSD field.
_refine_ls_R_factor_gt 0.0334
_refine_ls_wR_factor_gt 0.0334
_symmetry_cell_setting orthorhombic
_symmetry_space_group_name_H-M 'P 21 21 21'
_symmetry_Int_Tables_number 19
loop_
_symmetry_equiv_pos_site_id
_symmetry_equiv_pos_as_xyz
1 x,y,z
2 1/2+x,1/2-y,-z
3 -x,1/2+y,1/2-z
4 1/2-x,-y,1/2+z
_cell_length_a 6.0747(12)
_cell_length_b 10.596(3)
_cell_length_c 21.684(5)
_cell_angle_alpha 90
_cell_angle_beta 90
_cell_angle_gamma 90
_cell_formula_units_Z 4
loop_
_atom_type_symbol
_atom_type_radius_bond
C 0.68
H 0.23
N 0.68
O 0.68
loop_
_atom_site_label
_atom_site_type_symbol
_atom_site_fract_x
_atom_site_fract_y
_atom_site_fract_z
O1 O 1.03542(18) 0.81394(9) 0.41818(5)
O2 O 0.98413(19) 0.6649(1) 0.49232(4)
N1 N 0.93500(19) 0.69978(11) 0.43995(5)
N2 N 0.9571(3) 0.83503(12) 0.35902(6)
C1 C 0.6259(3) 0.31337(12) 0.40147(6)
C2 C 0.6744(3) 0.54046(13) 0.40593(6)
C3 C 0.8240(3) 0.74263(12) 0.34555(7)
C4 C 0.3399(3) 0.44879(14) 0.44506(6)
C5 C 0.2887(3) 0.21707(16) 0.44127(7)
C6 C 0.4651(3) 0.55317(14) 0.43431(6)
C7 C 0.7034(3) 0.19076(14) 0.38778(7)
C8 C 0.7523(3) 0.42389(13) 0.39033(6)
C9 C 0.8068(3) 0.65625(12) 0.39550(6)
C10 C 0.4154(3) 0.32694(13) 0.42928(6)
C11 C 0.3700(4) 0.10031(16) 0.42801(8)
C12 C 0.5781(4) 0.08803(15) 0.40124(8)
C13 C 0.7100(3) 0.73796(15) 0.28337(7)
C14 C 0.7838(4) 0.6183(2) 0.24991(9)
C15 C 0.4610(4) 0.7380(3) 0.29281(9)
C16 C 0.7749(4) 0.8538(2) 0.24537(9)
H1 H 0.20200 0.45800 0.46310
H2 H 0.14890 0.22480 0.45830
H3 H 0.41350 0.63250 0.44550
H4 H 0.84070 0.18030 0.36950
H5 H 0.89030 0.41670 0.37210
H6 H 0.28690 0.02880 0.43680
H7 H 0.63210 0.00790 0.39250
H8 H 0.71550 0.61470 0.21000
H9 H 0.74150 0.54560 0.27350
H10 H 0.94090 0.61940 0.24510
H11 H 0.41870 0.66400 0.31540
H12 H 0.38870 0.73820 0.25340
H13 H 0.41880 0.81190 0.31560
H14 H 0.70620 0.84940 0.20560
H15 H 0.93190 0.85570 0.24050
H16 H 0.72740 0.92890 0.26630
#END
