
#######################################################################
#
#                 Cambridge Crystallographic Data Centre
#                                CCDC
#
#######################################################################
#
# If this CIF has been generated from an entry in the Cambridge
# Structural Database, then it will include bibliographic, chemical,
# crystal, experimental, refinement or atomic coordinate data resulting
# from the CCDC's data processing and validation procedures.
#
#######################################################################

data_CSD_CIF_AREJEO
_audit_creation_date 2016-07-25
_audit_creation_method CSD-ConQuest-V1
_database_code_CSD AREJEO
_database_code_depnum_ccdc_archive 'CCDC 922873'
_chemical_formula_sum 'C10 H10 N2 O3'
_chemical_formula_moiety
;
C10 H10 N2 O3
;
_journal_coden_Cambridge 34
_journal_volume 53
_journal_year 2016
_journal_page_first 1094
_journal_name_full 'J.Heterocycl.Chem. '
loop_
_publ_author_name
"R.Matsubara"
"A.Ando"
"Y.Saeki"
"K.Eda"
"N.Asada"
"T.Tsutsumi"
"Yong Soon Shin"
"M.Hayashi"
_chemical_name_systematic
;
N-Hydroxy-2-nitro-3,4-dihydronaphthalen-1(2H)-imine
;
_chemical_name_common
;
2-Nitro-1-tetralone oxime
;
_cell_volume   1927.377
_exptl_crystal_density_diffrn 1.421
_exptl_crystal_preparation 'ethyl acetate/hexane'
_diffrn_ambient_temperature 296
#These two values have been output from a single CSD field.
_refine_ls_R_factor_gt 0.0398
_refine_ls_wR_factor_gt 0.0398
_symmetry_cell_setting monoclinic
_symmetry_space_group_name_H-M 'P 21/c'
_symmetry_Int_Tables_number 14
loop_
_symmetry_equiv_pos_site_id
_symmetry_equiv_pos_as_xyz
1 x,y,z
2 -x,1/2+y,1/2-z
3 -x,-y,-z
4 x,-1/2-y,-1/2+z
_cell_length_a 9.338(2)
_cell_length_b 24.443(6)
_cell_length_c 9.8453(15)
_cell_angle_alpha 90
_cell_angle_beta 120.942(14)
_cell_angle_gamma 90
_cell_formula_units_Z 8
loop_
_atom_type_symbol
_atom_type_radius_bond
C 0.68
H 0.23
N 0.68
O 0.68
loop_
_atom_site_label
_atom_site_type_symbol
_atom_site_fract_x
_atom_site_fract_y
_atom_site_fract_z
O1 O 0.36957(16) 0.39495(5) 0.58470(13)
H1 H 0.38810 0.42580 0.62180
N1 N 0.25941(17) 0.39784(6) 0.42098(15)
O2 O 0.40867(19) 0.27687(7) 0.71694(17)
C1 C -0.0709(2) 0.31070(7) 0.13916(19)
C2 C 0.05660(19) 0.34989(6) 0.19414(18)
C3 C 0.18150(19) 0.35254(6) 0.36516(18)
O3 O 0.46902(17) 0.28699(6) 0.53505(18)
N2 N 0.3728(2) 0.28939(6) 0.58408(19)
C4 C 0.0573(2) 0.38743(7) 0.0879(2)
H2 H 0.14330 0.41280 0.12320
C5 C -0.1963(2) 0.31168(8) -0.0189(2)
H3 H -0.28200 0.28610 -0.05620
C6 C -0.0684(2) 0.38719(8) -0.0688(2)
H4 H -0.06710 0.41230 -0.13910
C7 C 0.1952(2) 0.30540(7) 0.4703(2)
H5 H 0.14500 0.31680 0.53200
C8 C 0.1048(2) 0.25405(7) 0.3780(2)
H6 H 0.16350 0.23830 0.32990
H7 H 0.10210 0.22720 0.44910
C9 C -0.1964(2) 0.34962(8) -0.1213(2)
H8 H -0.28300 0.35010 -0.22640
C10 C -0.0713(2) 0.26895(8) 0.2510(2)
H9 H -0.12940 0.23640 0.19230
H10 H -0.13050 0.28350 0.30010
O4 O 0.73638(17) 0.01648(5) 1.07478(14)
H11 H 0.77090 -0.01240 1.11990
N3 N 0.62010(19) 0.00684(6) 0.91454(17)
C11 C 0.4527(2) 0.04683(7) 0.6615(2)
O5 O 0.88526(19) 0.08092(8) 0.9020(2)
C12 C 0.3206(3) 0.08620(9) 0.4013(2)
H12 H 0.30740 0.11530 0.33480
C13 C 0.5753(2) 0.05093(7) 0.8319(2)
C14 C 0.4347(2) 0.09069(7) 0.5623(2)
O6 O 0.9113(2) 0.14132(7) 1.0704(2)
N4 N 0.8291(2) 0.10868(7) 0.96512(19)
C15 C 0.3539(2) 0.00032(7) 0.5960(2)
H13 H 0.36350 -0.02860 0.66150
C16 C 0.6440(2) 0.10587(7) 0.9064(2)
H14 H 0.62860 0.11050 0.99690
C17 C 0.2426(3) -0.00328(9) 0.4360(2)
H15 H 0.17830 -0.03460 0.39370
C18 C 0.5591(3) 0.15327(7) 0.7921(2)
H16 H 0.45050 0.15980 0.77970
H17 H 0.62560 0.18610 0.83580
C19 C 0.5379(3) 0.14147(8) 0.6321(2)
H18 H 0.48350 0.17220 0.56180
H19 H 0.64650 0.13650 0.64330
C20 C 0.2263(3) 0.03959(10) 0.3377(2)
H20 H 0.15200 0.03700 0.22920
#END
