
#######################################################################
#
#                 Cambridge Crystallographic Data Centre
#                                CCDC
#
#######################################################################
#
# If this CIF has been generated from an entry in the Cambridge
# Structural Database, then it will include bibliographic, chemical,
# crystal, experimental, refinement or atomic coordinate data resulting
# from the CCDC's data processing and validation procedures.
#
#######################################################################

data_CSD_CIF_AREWUR
_audit_creation_date 2016-07-25
_audit_creation_method CSD-ConQuest-V1
_database_code_CSD AREWUR
_database_code_depnum_ccdc_archive 'CCDC 1438540'
_chemical_formula_sum 'C25 H22 N2 O4'
_chemical_formula_moiety
;
C25 H22 N2 O4
;
_journal_coden_Cambridge 1540
_journal_volume 6
_journal_year 2016
_journal_page_first 28801
_journal_name_full 'Scientific Reports '
loop_
_publ_author_name
"Pei-Qiang Huang"
"Ying-Hong Huang"
"Hui Geng"
"Jian-Liang Ye"
_chemical_name_systematic
;
4-(3-((2,6-dimethylphenyl)imino)-3-(2-nitrophenyl)prop-1-en-1-yl)phenyl 
acetate
;
_cell_volume   4282.909
_exptl_crystal_colour 'yellow'
_exptl_crystal_density_diffrn 1.285
_exptl_crystal_description 'block'
_diffrn_ambient_temperature 187
#These two values have been output from a single CSD field.
_refine_ls_R_factor_gt 0.0637
_refine_ls_wR_factor_gt 0.0637
_symmetry_cell_setting monoclinic
_symmetry_space_group_name_H-M 'C 2/c'
_symmetry_Int_Tables_number 15
loop_
_symmetry_equiv_pos_site_id
_symmetry_equiv_pos_as_xyz
1 x,y,z
2 -x,y,1/2-z
3 1/2+x,1/2+y,z
4 1/2-x,1/2+y,1/2-z
5 -x,-y,-z
6 x,-y,-1/2+z
7 -1/2-x,-1/2-y,-z
8 -1/2+x,-1/2-y,-1/2+z
_cell_length_a 25.692(3)
_cell_length_b 11.5912(11)
_cell_length_c 18.7420(19)
_cell_angle_alpha 90
_cell_angle_beta 129.883(10)
_cell_angle_gamma 90
_cell_formula_units_Z 8
loop_
_atom_type_symbol
_atom_type_radius_bond
C 0.68
H 0.23
N 0.68
O 0.68
loop_
_atom_site_label
_atom_site_type_symbol
_atom_site_fract_x
_atom_site_fract_y
_atom_site_fract_z
O1 O 1.17478(7) 0.16366(12) 0.39410(9)
C1 C 1.01212(10) 0.51644(16) 0.36640(12)
H1 H 1.03430 0.58590 0.39460
N1 N 0.84479(8) 0.62415(14) 0.27069(11)
C2 C 1.05437(9) 0.42144(16) 0.37807(11)
C3 C 0.90804(10) 0.61638(16) 0.31226(12)
C4 C 0.94895(10) 0.72368(16) 0.36199(13)
C5 C 0.9454(1) 0.51528(16) 0.32003(12)
H2 H 0.92160 0.44710 0.29140
C6 C 1.13428(10) 0.24956(17) 0.38940(12)
O2 O 0.91013(10) 0.72021(14) 0.18323(11)
C7 C 1.11809(10) 0.44576(17) 0.40618(13)
H3 H 1.13420 0.52110 0.42180
C8 C 0.79958(10) 0.52953(17) 0.22382(13)
C9 C 1.07286(11) 0.22152(17) 0.36517(13)
H4 H 1.05820 0.14530 0.35250
C10 C 1.15817(10) 0.36019(18) 0.41141(14)
H5 H 1.20050 0.37780 0.42960
C11 C 1.03295(10) 0.30689(17) 0.35966(13)
H6 H 0.99140 0.28780 0.34350
C12 C 0.95483(11) 0.81536(18) 0.32023(15)
O3 O 1.11245(10) 0.17188(18) 0.23997(11)
C13 C 0.80185(11) 0.43405(18) 0.27134(15)
C14 C 0.98356(12) 0.73255(19) 0.45632(14)
H7 H 0.97970 0.67360 0.48630
C15 C 0.74664(11) 0.5421(2) 0.12721(14)
N2 N 0.92070(11) 0.81259(17) 0.22043(14)
C16 C 1.15942(12) 0.1326(2) 0.31284(17)
C17 C 0.85464(13) 0.4240(2) 0.37544(16)
H8 H 0.84840 0.35280 0.39530
H9 H 0.85010 0.48750 0.40400
H10 H 0.89900 0.42540 0.39340
C18 C 0.75176(13) 0.3509(2) 0.22060(19)
H11 H 0.75250 0.28710 0.25130
C19 C 1.02387(13) 0.8271(2) 0.50713(17)
H12 H 1.04740 0.83070 0.57080
C20 C 0.69875(12) 0.4558(3) 0.08029(17)
H13 H 0.66420 0.46220 0.01640
C21 C 0.70087(13) 0.3603(3) 0.1258(2)
H14 H 0.66830 0.30270 0.09290
C22 C 0.74315(13) 0.6466(2) 0.07701(16)
H15 H 0.70400 0.64130 0.01230
H16 H 0.78330 0.65070 0.08350
H17 H 0.73990 0.71470 0.10310
O4 O 0.90515(13) 0.90469(16) 0.17928(14)
C23 C 0.99303(14) 0.9114(2) 0.36908(19)
H18 H 0.99450 0.97300 0.33860
C24 C 1.02885(14) 0.9155(2) 0.46293(19)
H19 H 1.05670 0.97830 0.49700
C25 C 1.20898(14) 0.0478(2) 0.32829(19)
H20 H 1.19720 0.02790 0.26980
H21 H 1.20820 -0.02040 0.35670
H22 H 1.25360 0.08080 0.36840
#END
