
#######################################################################
#
#                 Cambridge Crystallographic Data Centre
#                                CCDC
#
#######################################################################
#
# If this CIF has been generated from an entry in the Cambridge
# Structural Database, then it will include bibliographic, chemical,
# crystal, experimental, refinement or atomic coordinate data resulting
# from the CCDC's data processing and validation procedures.
#
#######################################################################

data_CSD_CIF_ARIFUD
_audit_creation_date 2011-07-11
_audit_creation_method CSD-ConQuest-V1
_database_code_CSD ARIFUD
_database_code_depnum_ccdc_archive 'CCDC 794650'
_chemical_formula_sum 'C7 H11 N3 O3'
_chemical_formula_moiety
;
C7 H11 N3 O3
;
_journal_coden_Cambridge 83
_journal_volume 100
_journal_year 2011
_journal_page_first 2258
_journal_name_full 'J.Pharm.Sci. '
loop_
_publ_author_name
"N.Mahe"
"M.-A.Perrin"
"M.Barrio"
"B.Nicolai"
"I.B.Rietveld"
"J.-L.Tamarit"
"R.Ceolin"
_chemical_name_systematic
;
3-(2-Methyl-5-nitro-1H-imidazol-1-yl)propan-1-ol
;
_chemical_name_common
;
Ternidazole
;
_chemical_melting_point 333
_cell_volume    875.917
_exptl_crystal_colour 'colorless'
_exptl_crystal_density_diffrn 1.404
_exptl_special_details
;
Antiprotozoal activity; effective against chronic alcohol intoxication

;
_exptl_crystal_description 'prism'
_exptl_crystal_preparation 'sublimation'
_diffrn_ambient_temperature 294
#These two values have been output from a single CSD field.
_refine_ls_R_factor_gt 0.057
_refine_ls_wR_factor_gt 0.057
_symmetry_cell_setting triclinic
_symmetry_space_group_name_H-M 'P -1'
_symmetry_Int_Tables_number 2
loop_
_symmetry_equiv_pos_site_id
_symmetry_equiv_pos_as_xyz
1 x,y,z
2 -x,-y,-z
_cell_length_a 7.7589(8)
_cell_length_b 11.0864(11)
_cell_length_c 11.9817(16)
_cell_angle_alpha 63.600(1)
_cell_angle_beta 89.582(2)
_cell_angle_gamma 73.379(2)
_cell_formula_units_Z 4
loop_
_atom_type_symbol
_atom_type_radius_bond
C 0.68
H 0.23
N 0.68
O 0.68
loop_
_atom_site_label
_atom_site_type_symbol
_atom_site_fract_x
_atom_site_fract_y
_atom_site_fract_z
N1 N 0.4120(3) 0.8214(2) 0.4454(2)
N2 N 0.2194(3) 0.8842(3) 0.5633(2)
N3 N 0.4248(3) 1.0599(3) 0.2936(2)
N4 N 0.0693(3) 0.1458(2) 0.09723(19)
N5 N 0.2062(3) -0.0575(2) 0.0935(2)
N6 N 0.2055(4) 0.3026(3) -0.0746(2)
O1 O 0.5302(3) 1.0120(2) 0.2360(2)
O2 O 0.3653(3) 1.1869(2) 0.2635(2)
O3 O 0.7767(3) 0.4667(2) 0.6064(2)
H1 H 0.791(5) 0.420(4) 0.691(4)
O4 O 0.1319(4) 0.4062(3) -0.0606(3)
O5 O 0.3066(4) 0.3036(3) -0.1531(3)
O6 O -0.2019(3) 0.3274(2) -0.1388(2)
H2 H -0.221(5) 0.251(4) -0.124(4)
C1 C 0.3194(4) 0.7771(3) 0.5451(3)
C2 C 0.2460(4) 1.0018(3) 0.4725(3)
H3 H 0.19140 1.09340 0.46140
C3 C 0.3640(4) 0.9668(3) 0.3994(3)
C4 C 0.3249(5) 0.6279(3) 0.6218(3)
H4 H 0.25070 0.62160 0.68740
H5 H 0.44780 0.56960 0.65850
H6 H 0.27970 0.59560 0.56930
C5 C 0.5304(4) 0.7296(3) 0.3978(3)
H7 H 0.50470 0.77600 0.30670
H8 H 0.50210 0.64130 0.42940
C6 C 0.7304(4) 0.6965(3) 0.4359(3)
H9 H 0.79930 0.65240 0.38850
H10 H 0.75500 0.78500 0.41240
C7 C 0.7971(4) 0.6011(3) 0.5733(3)
H11 H 0.92400 0.59040 0.59090
H12 H 0.72800 0.64240 0.62260
C8 C 0.0912(3) 0.0062(3) 0.1483(2)
C9 C 0.2599(4) 0.0458(3) 0.0033(3)
H13 H 0.34080 0.03260 -0.05100
C10 C 0.1795(4) 0.1707(3) 0.0034(2)
C11 C -0.0011(4) -0.0694(3) 0.2538(3)
H14 H -0.12680 -0.04500 0.22380
H15 H 0.00830 -0.04220 0.31870
H16 H 0.05560 -0.17000 0.28720
C12 C -0.0588(4) 0.2458(3) 0.1323(3)
H17 H -0.02090 0.32930 0.10690
H18 H -0.05340 0.20160 0.22310
C13 C -0.2532(4) 0.2911(3) 0.0733(3)
H19 H -0.28350 0.20640 0.08930
H20 H -0.33150 0.33700 0.11600
C14 C -0.2974(5) 0.3891(3) -0.0652(3)
H21 H -0.42690 0.41630 -0.09020
H22 H -0.26790 0.47450 -0.08260
#END
