
#######################################################################
#
#                 Cambridge Crystallographic Data Centre
#                                CCDC
#
#######################################################################
#
# If this CIF has been generated from an entry in the Cambridge
# Structural Database, then it will include bibliographic, chemical,
# crystal, experimental, refinement or atomic coordinate data resulting
# from the CCDC's data processing and validation procedures.
#
#######################################################################

data_CSD_CIF_ARIXIK
_audit_creation_date 2016-07-26
_audit_creation_method CSD-ConQuest-V1
_database_code_CSD ARIXIK
_database_code_depnum_ccdc_archive 'CCDC 1478570'
_chemical_formula_sum 'C17 H16 N2 O2'
_chemical_formula_moiety
;
C17 H16 N2 O2
;
_journal_coden_Cambridge 1291
_journal_year 2016
_journal_page_first 3509
_journal_name_full 'Eur.J.Org.Chem. '
loop_
_publ_author_name
"Shanshan Liu"
"C.Christoph Tzschucke"
_chemical_name_systematic
;
2-(1-benzyl-1H-pyrrol-2-yl)-4-methoxypyridine 1-oxide
;
_cell_volume    708.017
_exptl_crystal_colour 'colorless'
_exptl_crystal_density_diffrn 1.315
_exptl_crystal_description 'plate'
_diffrn_ambient_temperature 100
#These two values have been output from a single CSD field.
_refine_ls_R_factor_gt 0.0452
_refine_ls_wR_factor_gt 0.0452
_symmetry_cell_setting triclinic
_symmetry_space_group_name_H-M 'P -1'
_symmetry_Int_Tables_number 2
loop_
_symmetry_equiv_pos_site_id
_symmetry_equiv_pos_as_xyz
1 x,y,z
2 -x,-y,-z
_cell_length_a 5.9622(1)
_cell_length_b 8.7942(1)
_cell_length_c 14.4090(2)
_cell_angle_alpha 107.424(1)
_cell_angle_beta 97.165(1)
_cell_angle_gamma 95.541(1)
_cell_formula_units_Z 2
loop_
_atom_type_symbol
_atom_type_radius_bond
C 0.68
H 0.23
N 0.68
O 0.68
loop_
_atom_site_label
_atom_site_type_symbol
_atom_site_fract_x
_atom_site_fract_y
_atom_site_fract_z
C1 C -0.2602(2) 0.35477(16) 0.98034(10)
H1 H -0.37350 0.39300 1.01880
C2 C -0.0924(2) 0.28216(16) 1.01835(9)
H2 H -0.08990 0.27140 1.08210
C3 C 0.0737(2) 0.22466(15) 0.96183(10)
C4 C 0.0643(2) 0.24625(15) 0.86982(9)
H3 H 0.17770 0.20970 0.83090
C5 C -0.1056(2) 0.31947(14) 0.83331(9)
C6 C 0.2905(3) 0.15318(18) 1.08919(10)
H4 H 0.42290 0.09860 1.09920
H5 H 0.15760 0.10010 1.10690
H6 H 0.32350 0.26610 1.13090
C7 C -0.1014(2) 0.35009(15) 0.73872(9)
C8 C 0.0818(2) 0.42317(15) 0.71055(9)
H7 H 0.22370 0.47330 0.75110
C9 C 0.0190(2) 0.40956(16) 0.60991(10)
H8 H 0.11050 0.44990 0.57070
C10 C -0.1985(2) 0.32730(16) 0.57971(9)
H9 H -0.28320 0.29920 0.51520
C11 C -0.4853(2) 0.19065(15) 0.65271(10)
H10 H -0.58790 0.18160 0.59120
H11 H -0.56150 0.24300 0.70880
C12 C -0.4513(2) 0.02321(15) 0.65485(9)
C13 C -0.6153(2) -0.06275(16) 0.68760(9)
H12 H -0.74480 -0.01530 0.70810
C14 C -0.5925(2) -0.21684(17) 0.69078(10)
H13 H -0.70610 -0.27410 0.71320
C15 C -0.4035(2) -0.28745(17) 0.66115(10)
H14 H -0.38680 -0.39260 0.66360
C16 C -0.2397(2) -0.20306(17) 0.62792(10)
H15 H -0.11060 -0.25100 0.60740
C17 C -0.2626(2) -0.04874(16) 0.6244(1)
H16 H -0.14970 0.00780 0.60130
N1 N -0.26900(17) 0.37345(13) 0.89003(8)
N2 N -0.27303(18) 0.29240(13) 0.65819(8)
O1 O 0.24296(17) 0.14546(12) 0.98765(7)
O2 O -0.42998(15) 0.44750(11) 0.85815(7)
#END
