
#######################################################################
#
#                 Cambridge Crystallographic Data Centre
#                                CCDC
#
#######################################################################
#
# If this CIF has been generated from an entry in the Cambridge
# Structural Database, then it will include bibliographic, chemical,
# crystal, experimental, refinement or atomic coordinate data resulting
# from the CCDC's data processing and validation procedures.
#
#######################################################################

data_CSD_CIF_AROFOC
_audit_creation_date 2004-05-11
_audit_creation_method CSD-ConQuest-V1
_database_code_CSD AROFOC
_database_code_depnum_ccdc_archive 'CCDC 185560'
_chemical_formula_sum 'C12 H9 N5 O1'
_chemical_formula_moiety
;
C12 H9 N5 O1
;
_journal_coden_Cambridge 34
_journal_volume 40
_journal_year 2003
_journal_page_first 523
_journal_name_full 'J.Heterocycl.Chem. '
loop_
_publ_author_name
"J.Suwinski"
"K.Swierczek"
"P.Wagner"
"M.Kubicki"
"T.Borowiak"
"J.Slowikowska"
_chemical_name_systematic
;
(E)-1-((1',2',4'-Triazol-4'-yl)imino)-1-(4H)naphthalenone (E)-oxime
;
_chemical_melting_point 549.15
_cell_volume   4401.026
_exptl_crystal_colour 'pale red'
_exptl_special_details
;
Melts with decomposition.

;
_exptl_crystal_description 'needles'
_diffrn_ambient_temperature 295
#These two values have been output from a single CSD field.
_refine_ls_R_factor_gt 0.0489
_refine_ls_wR_factor_gt 0.0489
_symmetry_cell_setting monoclinic
_symmetry_space_group_name_H-M 'C 2/c'
_symmetry_Int_Tables_number 15
loop_
_symmetry_equiv_pos_site_id
_symmetry_equiv_pos_as_xyz
1 x,y,z
2 1/2+x,1/2+y,z
3 -x,y,1/2-z
4 1/2-x,1/2+y,1/2-z
5 -x,-y,-z
6 -1/2-x,-1/2-y,-z
7 x,-y,-1/2+z
8 -1/2+x,-1/2-y,-1/2+z
_cell_length_a 21.329(4)
_cell_length_b 7.666(2)
_cell_length_c 27.958(6)
_cell_angle_alpha 90
_cell_angle_beta 105.69(3)
_cell_angle_gamma 90
_cell_formula_units_Z 16
loop_
_atom_type_symbol
_atom_type_radius_bond
C 0.68
H 0.23
N 0.68
O 0.68
loop_
_atom_site_label
_atom_site_type_symbol
_atom_site_fract_x
_atom_site_fract_y
_atom_site_fract_z
C1 C 0.22083(7) 0.0740(2) 0.20338(6)
C2 C 0.09322(7) -0.0719(2) 0.18881(6)
O1 O 0.00916(6) -0.2099(2) 0.13839(5)
N1 N 0.28022(7) 0.1329(2) 0.21475(5)
C3 C 0.18910(8) 0.0765(2) 0.24410(6)
C4 C 0.12507(8) -0.0663(2) 0.14930(6)
N2 N 0.31098(6) 0.14459(19) 0.17633(5)
C5 C 0.12645(8) 0.0072(2) 0.23713(6)
N3 N 0.03699(7) -0.1445(2) 0.18525(5)
C6 C 0.18432(8) 0.0033(2) 0.15563(6)
C7 C 0.22098(9) 0.1516(2) 0.29011(6)
C8 C 0.29274(9) 0.2268(2) 0.13162(7)
C9 C 0.09691(9) 0.0160(3) 0.27631(6)
N4 N 0.39355(7) 0.1531(2) 0.14429(6)
N5 N 0.34094(7) 0.2334(2) 0.11147(6)
C10 C 0.37434(9) 0.1051(3) 0.18270(8)
C11 C 0.19102(10) 0.1599(3) 0.32785(7)
C12 C 0.12894(10) 0.0923(3) 0.32076(7)
H1 H 0.2661(9) 0.200(2) 0.2937(6)
H2 H 0.0528(10) -0.040(2) 0.2717(7)
H3 H 0.2031(9) 0.000(2) 0.1292(7)
H4 H 0.1007(10) -0.115(3) 0.1171(8)
H5 H 0.1101(9) 0.093(2) 0.3465(7)
H6 H 0.2486(10) 0.274(3) 0.1180(7)
H7 H 0.2119(11) 0.209(3) 0.3582(8)
H8 H 0.4002(9) 0.047(3) 0.2120(7)
H9 H -0.0293(12) -0.259(3) 0.1418(8)
O2 O 0.08906(6) 0.86705(19) 0.03100(5)
N6 N -0.18324(7) 0.5303(2) -0.04708(5)
C13 C -0.12494(8) 0.5959(2) -0.03619(6)
N7 N -0.21111(6) 0.50137(18) -0.00744(5)
N8 N 0.05888(7) 0.8170(2) -0.01733(5)
C14 C -0.09606(8) 0.6136(2) -0.07844(6)
C15 C 0.00101(8) 0.7530(2) -0.02201(6)
C16 C -0.02908(8) 0.7348(2) 0.01820(7)
C17 C -0.03554(8) 0.6933(2) -0.07200(6)
C18 C -0.08753(8) 0.6594(2) 0.01187(6)
C19 C -0.12964(9) 0.5504(2) -0.12585(7)
N9 N -0.29011(7) 0.4698(2) 0.02733(6)
C20 C -0.27416(8) 0.5357(3) -0.01076(7)
C21 C -0.01028(9) 0.7133(3) -0.11311(7)
C22 C -0.18979(9) 0.4035(2) 0.03451(7)
N10 N -0.23588(7) 0.3824(2) 0.05631(6)
C23 C -0.04438(10) 0.6530(3) -0.15920(7)
C24 C -0.10391(10) 0.5704(3) -0.16553(7)
H10 H -0.1068(8) 0.650(2) 0.0388(6)
H11 H -0.1706(9) 0.486(2) -0.1283(6)
H12 H -0.0056(9) 0.781(2) 0.0507(7)
H13 H -0.1457(10) 0.358(3) 0.0455(7)
H14 H 0.0333(10) 0.776(3) -0.1082(7)
H15 H 0.1320(12) 0.912(3) 0.0278(9)
H16 H -0.3019(9) 0.604(2) -0.0379(7)
H17 H -0.0283(10) 0.668(3) -0.1885(8)
H18 H -0.128(1) 0.531(3) -0.1976(8)
#END
