
#######################################################################
#
#                 Cambridge Crystallographic Data Centre
#                                CCDC
#
#######################################################################
#
# If this CIF has been generated from an entry in the Cambridge
# Structural Database, then it will include bibliographic, chemical,
# crystal, experimental, refinement or atomic coordinate data resulting
# from the CCDC's data processing and validation procedures.
#
#######################################################################

data_CSD_CIF_AROFUI
_audit_creation_date 2004-05-11
_audit_creation_method CSD-ConQuest-V1
_database_code_CSD AROFUI
_database_code_depnum_ccdc_archive 'CCDC 185561'
_chemical_formula_sum 'C7 H9 N7 O1'
_chemical_formula_moiety
;
C7 H9 N7 O1
;
_journal_coden_Cambridge 34
_journal_volume 40
_journal_year 2003
_journal_page_first 523
_journal_name_full 'J.Heterocycl.Chem. '
loop_
_publ_author_name
"J.Suwinski"
"K.Swierczek"
"P.Wagner"
"M.Kubicki"
"T.Borowiak"
"J.Slowikowska"
_chemical_name_systematic
;
N^1^-Methyl-N^2^-(1,2,4-triazol-4-yl)-5-methyl-1,2,4-oxadiazole-3-carboxamidin
e
;
_chemical_melting_point 459.15
_cell_volume   3944.516
_exptl_crystal_colour 'colorless'
_exptl_special_details
;
Melting point range 459.15-461.15K

;
_exptl_crystal_description 'irregular'
_diffrn_ambient_temperature 295
#These two values have been output from a single CSD field.
_refine_ls_R_factor_gt 0.0336
_refine_ls_wR_factor_gt 0.0336
_symmetry_cell_setting orthorhombic
_symmetry_space_group_name_H-M 'F d d 2'
_symmetry_Int_Tables_number 43
loop_
_symmetry_equiv_pos_site_id
_symmetry_equiv_pos_as_xyz
1 x,y,z
2 -x,-y,z
3 1/4+x,1/4-y,1/4+z
4 1/4-x,1/4+y,1/4+z
5 x,1/2+y,1/2+z
6 -x,1/2-y,1/2+z
7 1/4+x,3/4-y,3/4+z
8 1/4-x,3/4+y,3/4+z
9 1/2+x,y,1/2+z
10 1/2-x,-y,1/2+z
11 3/4+x,1/4-y,3/4+z
12 3/4-x,1/4+y,3/4+z
13 1/2+x,1/2+y,z
14 1/2-x,1/2-y,z
15 3/4+x,3/4-y,1/4+z
16 3/4-x,3/4+y,1/4+z
_cell_length_a 21.564(4)
_cell_length_b 25.840(5)
_cell_length_c 7.0790(14)
_cell_angle_alpha 90
_cell_angle_beta 90
_cell_angle_gamma 90
_cell_formula_units_Z 16
loop_
_atom_type_symbol
_atom_type_radius_bond
C 0.68
H 0.23
N 0.68
O 0.68
loop_
_atom_site_label
_atom_site_type_symbol
_atom_site_fract_x
_atom_site_fract_y
_atom_site_fract_z
N1 N 0.07599(10) 0.19076(8) 0.7762(4)
N2 N 0.16518(10) 0.18722(8) 0.6063(3)
N3 N 0.26645(10) 0.10458(9) 0.3571(3)
N4 N 0.09125(10) 0.07389(8) 0.7771(3)
C1 C 0.12621(10) 0.16550(9) 0.7217(4)
O1 O 0.16443(9) 0.05114(8) 0.9737(4)
N5 N 0.30531(12) 0.12345(12) 0.4959(4)
N6 N 0.21283(9) 0.15409(8) 0.5435(3)
N7 N 0.17722(12) 0.10247(11) 0.9202(5)
C2 C 0.11294(12) 0.03751(10) 0.8819(4)
C3 C 0.21177(13) 0.12418(9) 0.3898(4)
C4 C 0.06088(13) 0.24113(10) 0.7019(5)
H1 H 0.02300 0.25320 0.75820
H2 H 0.05570 0.23890 0.56740
H3 H 0.09380 0.26490 0.73050
C5 C 0.13298(11) 0.11289(9) 0.8058(4)
C6 C 0.27187(13) 0.15291(14) 0.6033(5)
H4 H 0.28680 0.17080 0.70780
C7 C 0.08835(17) -0.01504(11) 0.9175(6)
H5 H 0.05180 -0.02040 0.84260
H6 H 0.07820 -0.01850 1.04890
H7 H 0.11910 -0.04030 0.88410
H8 H 0.0513(11) 0.1756(11) 0.872(5)
H9 H 0.1780(15) 0.1178(11) 0.321(6)
#END
