
#######################################################################
#
#                 Cambridge Crystallographic Data Centre
#                                CCDC
#
#######################################################################
#
# If this CIF has been generated from an entry in the Cambridge
# Structural Database, then it will include bibliographic, chemical,
# crystal, experimental, refinement or atomic coordinate data resulting
# from the CCDC's data processing and validation procedures.
#
#######################################################################

data_CSD_CIF_ARUBEU
_audit_creation_date 2004-05-12
_audit_creation_method CSD-ConQuest-V1
_database_code_CSD ARUBEU
_database_code_depnum_ccdc_archive 'CCDC 235342'
_chemical_formula_sum 'C13 H16 N4 O2'
_chemical_formula_moiety
;
C13 H16 N4 O2
;
_journal_coeditor_code "IUCr SK1695"
_journal_coden_Cambridge 591
_journal_volume 60
_journal_year 2004
_journal_page_first o194
_journal_name_full 'Acta Crystallogr.,Sect.C:Cryst.Struct.Commun. '
loop_
_publ_author_name
"J.N.Low"
"J.Cobo"
"R.Abonia"
"J.Quiroga"
"C.Glidewell"
_chemical_name_systematic
;
5-Amino-3-t-butyl-1-(4-nitrophenyl)-1H-pyrazole
;
_chemical_melting_point 445
_cell_volume   1314.981
_exptl_crystal_colour 'yellow'
_exptl_crystal_density_diffrn 1.315
_exptl_crystal_description 'lath'
_exptl_crystal_preparation 'water'
_diffrn_ambient_temperature 120
#These two values have been output from a single CSD field.
_refine_ls_R_factor_gt 0.0515
_refine_ls_wR_factor_gt 0.0515
_symmetry_cell_setting monoclinic
_symmetry_space_group_name_H-M 'P 21/c'
_symmetry_Int_Tables_number 14
loop_
_symmetry_equiv_pos_site_id
_symmetry_equiv_pos_as_xyz
1 x,y,z
2 x,1/2-y,1/2+z
3 -x,-y,-z
4 -x,-1/2+y,-1/2-z
_cell_length_a 5.9581(2)
_cell_length_b 18.3064(11)
_cell_length_c 12.0776(7)
_cell_angle_alpha 90
_cell_angle_beta 93.4150(12)
_cell_angle_gamma 90
_cell_formula_units_Z 4
loop_
_atom_type_symbol
_atom_type_radius_bond
C 0.68
H 0.23
N 0.68
O 0.68
loop_
_atom_site_label
_atom_site_type_symbol
_atom_site_fract_x
_atom_site_fract_y
_atom_site_fract_z
N1 N 0.1283(2) 0.28405(8) 0.47981(12)
N2 N -0.0010(2) 0.24448(9) 0.55116(12)
C1 C -0.1270(3) 0.20118(10) 0.48495(16)
C2 C -0.0870(3) 0.21303(11) 0.37242(16)
C3 C 0.0753(3) 0.26618(11) 0.37125(15)
N3 N 0.1812(3) 0.29677(10) 0.28533(13)
C4 C 0.2811(3) 0.33687(10) 0.52501(15)
C5 C 0.4827(3) 0.35070(11) 0.47563(16)
C6 C 0.6273(3) 0.40335(10) 0.51985(16)
C7 C 0.5694(3) 0.44051(10) 0.61374(16)
N4 N 0.7185(3) 0.49841(9) 0.65867(15)
O1 O 0.8857(2) 0.51414(8) 0.60916(13)
O2 O 0.6673(3) 0.52972(9) 0.74362(14)
C8 C 0.3728(3) 0.42629(11) 0.66465(17)
C9 C 0.2286(3) 0.37361(11) 0.62040(15)
C10 C -0.2820(3) 0.14534(10) 0.53212(16)
C11 C -0.1497(4) 0.07485(12) 0.5542(2)
C12 C -0.3742(4) 0.17272(13) 0.63963(18)
C13 C -0.4792(4) 0.12980(13) 0.44822(19)
H1 H -0.15810 0.18910 0.31000
H2 H 0.11820 0.28430 0.22030
H3 H 0.21770 0.34330 0.29100
H4 H 0.52010 0.32400 0.41190
H5 H 0.76410 0.41390 0.48650
H6 H 0.33730 0.45240 0.72930
H7 H 0.09380 0.36250 0.65510
H8 H -0.09370 0.05680 0.48460
H9 H -0.24800 0.03800 0.58480
H10 H -0.02240 0.08450 0.60730
H11 H -0.25010 0.17910 0.69580
H12 H -0.48120 0.13700 0.66610
H13 H -0.45050 0.21960 0.62610
H14 H -0.55870 0.17550 0.42970
H15 H -0.58280 0.09530 0.48050
H16 H -0.42230 0.10870 0.38080
#END
