
#######################################################################
#
#                 Cambridge Crystallographic Data Centre
#                                CCDC
#
#######################################################################
#
# If this CIF has been generated from an entry in the Cambridge
# Structural Database, then it will include bibliographic, chemical,
# crystal, experimental, refinement or atomic coordinate data resulting
# from the CCDC's data processing and validation procedures.
#
#######################################################################

data_CSD_CIF_ARUBNT10
_audit_creation_date 1983-06-14
_audit_creation_method CSD-ConQuest-V1
_database_code_CSD ARUBNT10
_chemical_formula_sum 'C10 H17 N1 O6'
_chemical_formula_moiety
;
C10 H17 N1 O6
;
_journal_coden_Cambridge 4
_journal_volume 104
_journal_year 1982
_journal_page_first 5173
_journal_name_full 'J.Am.Chem.Soc. '
loop_
_publ_author_name
"H.Hoeksema"
"S.A.Mizsak"
"L.Baczynskyj"
"L.M.Pschigoda"
_chemical_name_systematic
;
1-Acetyl-rubranitrose
;
_chemical_melting_point 347.15
_cell_volume   1215.926
_exptl_crystal_colour 'colorless'
_exptl_special_details
;
Melting point range 347.15-349.15K

;
_diffrn_ambient_temperature 118.15
#These two values have been output from a single CSD field.
_refine_ls_R_factor_gt 0.033
_refine_ls_wR_factor_gt 0.033
_symmetry_cell_setting monoclinic
_symmetry_space_group_name_H-M 'P 21'
_symmetry_Int_Tables_number 4
loop_
_symmetry_equiv_pos_site_id
_symmetry_equiv_pos_as_xyz
1 x,y,z
2 -x,1/2+y,-z
_cell_length_a 8.528(1)
_cell_length_b 13.133(1)
_cell_length_c 11.741(1)
_cell_angle_alpha 90
_cell_angle_beta 112.38(1)
_cell_angle_gamma 90
_cell_formula_units_Z 4
loop_
_atom_type_symbol
_atom_type_radius_bond
C 0.68
H 0.23
N 0.68
O 0.68
loop_
_atom_site_label
_atom_site_type_symbol
_atom_site_fract_x
_atom_site_fract_y
_atom_site_fract_z
C1 C 0.44700 -0.27980 0.83770
C2 C 0.19920 -0.37700 0.72880
C3 C 0.01190 -0.38090 0.69840
C4 C 0.47750 -0.16870 0.87490
C5 C 0.66530 -0.14350 0.93980
C6 C 0.69100 -0.03500 0.98970
C7 C 0.75200 -0.22340 1.04070
C8 C 0.81400 -0.18440 1.25340
C9 C 0.70870 -0.33140 0.98920
C10 C 0.78330 -0.41210 1.08660
N1 N 0.75210 -0.14680 0.84680
O1 O 0.52800 -0.34520 0.93930
O2 O 0.26890 -0.29510 0.80360
O3 O 0.27910 -0.43440 0.69280
O4 O 0.66550 -0.14660 0.73660
O5 O 0.90660 -0.14340 0.88770
O6 O 0.68780 -0.20720 1.13430
C11 C 0.26190 -0.17560 0.47790
C12 C 0.12330 -0.07580 0.58100
C13 C -0.03900 -0.06520 0.60090
C14 C 0.26120 -0.28670 0.44460
C15 C 0.39180 -0.30820 0.38730
C16 C 0.38360 -0.41770 0.34370
C17 C 0.37230 -0.23010 0.28460
C18 C 0.23120 -0.26610 0.06890
C19 C 0.36380 -0.12090 0.32740
C20 C 0.32440 -0.04370 0.22490
N2 N 0.56990 -0.29740 0.48870
O7 O 0.23160 -0.11190 0.37500
O8 O 0.12100 -0.16090 0.51380
O9 O 0.24110 -0.01780 0.61700
O10 O 0.59240 -0.33280 0.59000
O11 O 0.68200 -0.25860 0.46270
O12 O 0.21650 -0.25580 0.18540
H1 H 0.48300 -0.29600 0.76800
H2 H 0.43100 -0.16000 0.93600
H3 H 0.43100 -0.12000 0.80500
H4 H 0.63700 0.02300 0.92300
H5 H 0.79800 -0.02200 1.02200
H6 H 0.63600 -0.02900 1.05600
H7 H 0.87400 -0.21900 1.07300
H8 H 0.75200 -0.34400 0.91800
H9 H 0.75300 -0.48200 1.05200
H10 H 0.73600 -0.40500 1.14800
H11 H 0.90400 -0.40800 1.12100
H12 H 0.37200 -0.15300 0.55000
H13 H 0.15700 -0.30700 0.38600
H14 H 0.28400 -0.33300 0.51700
H15 H 0.40000 -0.46700 0.41100
H16 H 0.46900 -0.43300 0.30900
H17 H 0.27800 -0.42900 0.27500
H18 H 0.46900 -0.24100 0.25600
H19 H 0.46800 -0.10600 0.39200
H20 H 0.89700 -0.14500 1.24100
H21 H 0.75800 -0.14900 1.30800
H22 H 0.85500 -0.26000 1.29300
H23 H -0.03200 -0.02200 0.65900
H24 H -0.09700 -0.13500 0.60800
H25 H -0.01500 -0.34600 0.76300
H26 H -0.02200 -0.45100 0.68300
H27 H 0.33300 -0.30600 0.07300
H28 H 0.23500 -0.20100 0.03500
H29 H 0.12400 -0.31600 0.01400
H30 H -0.13100 -0.02800 0.52100
H31 H 0.32000 0.02300 0.25600
H32 H 0.21700 -0.05800 0.16100
H33 H 0.41000 -0.04500 0.19400
H34 H -0.04400 -0.34400 0.63400
#END
