
#######################################################################
#
#                 Cambridge Crystallographic Data Centre
#                                CCDC
#
#######################################################################
#
# If this CIF has been generated from an entry in the Cambridge
# Structural Database, then it will include bibliographic, chemical,
# crystal, experimental, refinement or atomic coordinate data resulting
# from the CCDC's data processing and validation procedures.
#
#######################################################################

data_CSD_CIF_ARUVEO
_audit_creation_date 2004-06-10
_audit_creation_method CSD-ConQuest-V1
_database_code_CSD ARUVEO
_database_code_depnum_ccdc_archive 'CCDC 214684'
_chemical_formula_sum 'C18 H20 N4 O4'
_chemical_formula_moiety
;
C18 H20 N4 O4
;
_journal_coden_Cambridge 1294
_journal_volume 6
_journal_year 2003
_journal_page_first 87
_journal_name_full 'Crystal Engineering '
loop_
_publ_author_name
"R.Centore"
"A.Tuzi"
_chemical_name_systematic
;
4-(4-(N-Methyl-N-4-carboxybutyl)aminophenylazo)nitrobenzene
;
_chemical_melting_point 448.15
_cell_volume   3623.473
_exptl_crystal_colour 'orange-brown'
_exptl_crystal_density_diffrn 1.307
_exptl_crystal_description 'plate'
_exptl_crystal_preparation 'dmf/water'
_diffrn_ambient_temperature 293
#These two values have been output from a single CSD field.
_refine_ls_R_factor_gt 0.0612
_refine_ls_wR_factor_gt 0.0612
_symmetry_cell_setting monoclinic
_symmetry_space_group_name_H-M 'P 21/n'
_symmetry_Int_Tables_number 14
loop_
_symmetry_equiv_pos_site_id
_symmetry_equiv_pos_as_xyz
1 x,y,z
2 1/2+x,1/2-y,1/2+z
3 -x,-y,-z
4 -1/2-x,-1/2+y,-1/2-z
_cell_length_a 7.550(1)
_cell_length_b 10.758(2)
_cell_length_c 44.62(2)
_cell_angle_alpha 90
_cell_angle_beta 91.12(2)
_cell_angle_gamma 90
_cell_formula_units_Z 8
loop_
_atom_type_symbol
_atom_type_radius_bond
C 0.68
H 0.23
N 0.68
O 0.68
loop_
_atom_site_label
_atom_site_type_symbol
_atom_site_fract_x
_atom_site_fract_y
_atom_site_fract_z
C1 C 1.1662(8) -0.1969(7) 0.51337(14)
C2 C 1.0960(7) -0.1043(6) 0.53458(13)
H1 H 1.09440 -0.02320 0.52510
H2 H 1.17450 -0.09960 0.55200
C3 C 0.9100(7) -0.1360(6) 0.54465(14)
H3 H 0.83500 -0.15120 0.52710
H4 H 0.91420 -0.21170 0.55640
C4 C 0.8307(7) -0.0345(6) 0.56289(13)
H5 H 0.82150 0.04020 0.55080
H6 H 0.90870 -0.01660 0.57990
C5 C 0.6485(7) -0.0681(6) 0.57422(13)
H7 H 0.57420 -0.09480 0.55750
H8 H 0.65960 -0.13720 0.58810
C6 C 0.4640(8) 0.1205(6) 0.57012(14)
H9 H 0.46420 0.09100 0.54980
H10 H 0.51760 0.20140 0.57110
H11 H 0.34430 0.12560 0.57690
C7 C 0.5840(6) 0.0562(5) 0.61892(12)
C8 C 0.4950(6) 0.1543(5) 0.63352(13)
H12 H 0.42560 0.20890 0.62220
C9 C 0.5089(6) 0.1705(5) 0.66371(13)
H13 H 0.44800 0.23600 0.67240
C10 C 0.6097(6) 0.0935(5) 0.68193(12)
C11 C 0.7044(6) -0.0034(5) 0.66804(12)
H14 H 0.77530 -0.05610 0.67960
C12 C 0.6922(6) -0.0201(5) 0.63776(12)
H15 H 0.75720 -0.08370 0.62910
C13 C 0.7039(6) 0.0697(5) 0.75957(12)
C14 C 0.6018(6) 0.1626(5) 0.77261(12)
H16 H 0.53310 0.21520 0.76060
C15 C 0.6030(7) 0.1760(5) 0.80298(13)
H17 H 0.53380 0.23710 0.81170
C16 C 0.7063(6) 0.0994(5) 0.82083(12)
C17 C 0.8064(7) 0.0060(5) 0.80825(13)
H18 H 0.87420 -0.04680 0.82030
C18 C 0.8041(7) -0.0077(5) 0.77769(14)
H19 H 0.87130 -0.07020 0.76910
N1 N 0.5639(6) 0.0354(4) 0.58916(10)
N2 N 0.6118(5) 0.1167(4) 0.71269(10)
N3 N 0.7089(5) 0.0455(4) 0.72844(9)
N4 N 0.7069(7) 0.1158(5) 0.85322(12)
O1 O 1.3365(5) -0.1865(4) 0.50873(9)
H20 H 1.36420 -0.25290 0.49750
O2 O 1.0758(6) -0.2753(6) 0.50126(12)
O3 O 0.8048(7) 0.0501(6) 0.86856(10)
O4 O 0.6093(6) 0.1924(4) 0.86434(10)
C19 C 0.6398(8) 0.4631(6) 0.53363(12)
C20 C 0.5727(8) 0.5693(6) 0.55162(12)
H21 H 0.59850 0.64570 0.54110
H22 H 0.63810 0.57140 0.57050
C21 C 0.3779(8) 0.5671(5) 0.55817(12)
H23 H 0.34500 0.64680 0.56650
H24 H 0.31220 0.55680 0.53940
C22 C 0.3232(7) 0.4662(5) 0.57945(11)
H25 H 0.40220 0.46650 0.59680
H26 H 0.33390 0.38610 0.56970
C23 C 0.1345(7) 0.4836(5) 0.58951(11)
H27 H 0.12810 0.55850 0.60150
H28 H 0.05820 0.49510 0.57200
C24 C -0.0316(9) 0.2856(6) 0.59012(14)
H29 H -0.02940 0.30580 0.56920
H30 H -0.15190 0.28450 0.59670
H31 H 0.02080 0.20530 0.59330
C25 C 0.0847(6) 0.3719(4) 0.63687(11)
C26 C 0.1927(6) 0.4553(5) 0.65385(11)
H32 H 0.25390 0.51760 0.64390
C27 C 0.2090(6) 0.4466(5) 0.68393(11)
H33 H 0.28080 0.50270 0.69440
C28 C 0.1186(6) 0.3538(5) 0.69975(11)
C29 C 0.0114(7) 0.2734(5) 0.68374(12)
H34 H -0.05120 0.21240 0.69380
C30 C -0.0044(6) 0.2814(5) 0.65386(12)
H35 H -0.07730 0.22470 0.64380
C31 C 0.2147(7) 0.3853(5) 0.77737(12)
C32 C 0.3118(7) 0.4673(5) 0.79451(13)
H36 H 0.37430 0.53040 0.78520
C33 C 0.3187(6) 0.4584(5) 0.82470(11)
H37 H 0.38260 0.51630 0.83600
C34 C 0.2304(6) 0.3630(5) 0.83871(11)
C35 C 0.1324(6) 0.2776(5) 0.82219(13)
H38 H 0.07310 0.21330 0.83160
C36 C 0.1244(7) 0.2898(6) 0.79157(13)
H39 H 0.05800 0.23360 0.78020
N5 N 0.0680(6) 0.3783(4) 0.60706(10)
N6 N 0.1220(5) 0.3325(4) 0.73143(11)
N7 N 0.2161(5) 0.4062(4) 0.74461(10)
N8 N 0.2436(6) 0.3549(6) 0.87114(11)
O5 O 0.5496(5) 0.3776(4) 0.52373(9)
O6 O 0.8108(6) 0.4726(5) 0.52814(11)
H40 H 0.850(8) 0.396(6) 0.5190(14)
O7 O 0.1647(7) 0.2697(5) 0.88339(10)
O8 O 0.3317(6) 0.4327(5) 0.88510(9)
#END
