
#######################################################################
#
#                 Cambridge Crystallographic Data Centre
#                                CCDC
#
#######################################################################
#
# If this CIF has been generated from an entry in the Cambridge
# Structural Database, then it will include bibliographic, chemical,
# crystal, experimental, refinement or atomic coordinate data resulting
# from the CCDC's data processing and validation procedures.
#
#######################################################################

data_CSD_CIF_ASAXIC
_audit_creation_date 2011-08-04
_audit_creation_method CSD-ConQuest-V1
_database_code_CSD ASAXIC
_database_code_depnum_ccdc_archive 'CCDC 783668'
_chemical_formula_sum 'C7 H4 N4 O4'
_chemical_formula_moiety
;
C7 H4 N4 O4
;
_journal_coden_Cambridge 644
_journal_volume 66
_journal_year 2011
_journal_page_first 479
_journal_name_full 'Z.Naturforsch.,B:Chem.Sci. '
loop_
_publ_author_name
"G.Laus"
"V.Kahlenberg"
"K.Wurst"
"S.Nerdinger"
"H.Schottenberger"
_chemical_name_systematic
;
2-Hydroxy-3-nitrobenzoyl azide
;
_cell_volume    816.311
_exptl_crystal_colour 'yellow'
_exptl_crystal_density_diffrn 1.694
_exptl_crystal_description 'rhombohedral'
_diffrn_ambient_temperature 173
#These two values have been output from a single CSD field.
_refine_ls_R_factor_gt 0.0312
_refine_ls_wR_factor_gt 0.0312
_symmetry_cell_setting monoclinic
_symmetry_space_group_name_H-M 'P 21/n'
_symmetry_Int_Tables_number 14
loop_
_symmetry_equiv_pos_site_id
_symmetry_equiv_pos_as_xyz
1 x,y,z
2 1/2-x,1/2+y,1/2-z
3 -x,-y,-z
4 -1/2+x,-1/2-y,-1/2+z
_cell_length_a 7.5244(8)
_cell_length_b 11.6472(13)
_cell_length_c 9.3965(12)
_cell_angle_alpha 90
_cell_angle_beta 97.572(10)
_cell_angle_gamma 90
_cell_formula_units_Z 4
loop_
_atom_type_symbol
_atom_type_radius_bond
C 0.68
H 0.23
N 0.68
O 0.68
loop_
_atom_site_label
_atom_site_type_symbol
_atom_site_fract_x
_atom_site_fract_y
_atom_site_fract_z
O1 O 0.65170(13) -0.06401(10) 0.40300(12)
H1 H 0.650(2) -0.1402(13) 0.395(2)
O2 O 0.58866(14) -0.27120(9) 0.32029(13)
O3 O 0.53265(18) 0.27436(10) 0.33139(17)
N1 N 0.39015(16) -0.30705(11) 0.11716(15)
C1 C 0.53342(17) -0.03124(13) 0.29150(17)
C2 C 0.49662(17) 0.08517(12) 0.26323(17)
O4 O 0.70507(16) 0.15218(10) 0.44946(15)
C3 C 0.44027(18) -0.11211(13) 0.19703(17)
N2 N 0.58509(16) 0.17590(11) 0.35428(15)
C4 C 0.28155(19) 0.03966(13) 0.05909(18)
H2 H 0.19530 0.06350 -0.01830
C5 C 0.31561(18) -0.07563(13) 0.08358(17)
H3 H 0.25280 -0.13100 0.02190
C6 C 0.37388(18) 0.11994(14) 0.14807(18)
H4 H 0.35330 0.19950 0.13040
C7 C 0.48209(18) -0.23469(13) 0.22039(17)
N3 N 0.43004(15) -0.41187(12) 0.14342(14)
N4 N 0.45342(18) -0.50573(13) 0.15680(16)
#END
