
#######################################################################
#
#                 Cambridge Crystallographic Data Centre
#                                CCDC
#
#######################################################################
#
# If this CIF has been generated from an entry in the Cambridge
# Structural Database, then it will include bibliographic, chemical,
# crystal, experimental, refinement or atomic coordinate data resulting
# from the CCDC's data processing and validation procedures.
#
#######################################################################

data_CSD_CIF_ASAYID
_audit_creation_date 2011-08-04
_audit_creation_method CSD-ConQuest-V1
_database_code_CSD ASAYID
_database_code_depnum_ccdc_archive 'CCDC 783673'
_chemical_formula_sum 'C13 H9 N3 O7'
_chemical_formula_moiety
;
C13 H9 N3 O7
;
_journal_coden_Cambridge 644
_journal_volume 66
_journal_year 2011
_journal_page_first 479
_journal_name_full 'Z.Naturforsch.,B:Chem.Sci. '
loop_
_publ_author_name
"G.Laus"
"V.Kahlenberg"
"K.Wurst"
"S.Nerdinger"
"H.Schottenberger"
_chemical_name_systematic
;
2-Hydroxy-N-(2-hydroxy-3-nitrophenyl)-3-nitrobenzamide
;
_cell_volume   1260.138
_exptl_crystal_colour 'yellow'
_exptl_crystal_density_diffrn 1.683
_exptl_crystal_description 'plate'
_diffrn_ambient_temperature 173
#These two values have been output from a single CSD field.
_refine_ls_R_factor_gt 0.037
_refine_ls_wR_factor_gt 0.037
_symmetry_cell_setting monoclinic
_symmetry_space_group_name_H-M 'P 21/n'
_symmetry_Int_Tables_number 14
loop_
_symmetry_equiv_pos_site_id
_symmetry_equiv_pos_as_xyz
1 x,y,z
2 1/2-x,1/2+y,1/2-z
3 -x,-y,-z
4 -1/2+x,-1/2-y,-1/2+z
_cell_length_a 12.1497(13)
_cell_length_b 7.9237(10)
_cell_length_c 14.0805(15)
_cell_angle_alpha 90
_cell_angle_beta 111.624(8)
_cell_angle_gamma 90
_cell_formula_units_Z 4
loop_
_atom_type_symbol
_atom_type_radius_bond
C 0.68
H 0.23
N 0.68
O 0.68
loop_
_atom_site_label
_atom_site_type_symbol
_atom_site_fract_x
_atom_site_fract_y
_atom_site_fract_z
O1 O -0.11661(14) 0.6274(2) 0.27710(11)
O2 O -0.28386(15) 0.7568(2) 0.23642(12)
O3 O -0.06919(13) 0.4440(2) 0.14524(11)
H1 H -0.053(2) 0.494(4) 0.203(2)
O4 O 0.15991(14) 0.2090(2) 0.13751(11)
H2 H 0.233(3) 0.180(5) 0.186(3)
O5 O 0.36580(13) 0.0599(2) 0.19158(11)
O6 O 0.41148(14) -0.0965(2) 0.08652(13)
O7 O -0.19735(13) 0.2743(2) -0.15478(11)
N1 N -0.03548(15) 0.2862(2) -0.00813(14)
H3 H -0.012(2) 0.320(3) 0.056(2)
N2 N -0.21621(16) 0.6644(2) 0.21430(14)
N3 N 0.34308(15) -0.0019(2) 0.10589(13)
C1 C -0.21670(18) 0.4377(3) -0.02027(15)
C2 C -0.17676(17) 0.4927(3) 0.08212(15)
C3 C -0.25272(18) 0.5977(3) 0.11101(16)
C4 C -0.36347(19) 0.6469(3) 0.04246(17)
H4 H -0.41260 0.71820 0.06410
C5 C -0.40110(19) 0.5911(3) -0.05712(18)
H5 H -0.47640 0.62390 -0.10490
C6 C -0.32828(18) 0.4870(3) -0.08704(16)
H6 H -0.35550 0.44770 -0.15560
C7 C -0.14906(18) 0.3262(3) -0.06707(15)
C8 C 0.04159(18) 0.1810(3) -0.03493(16)
C9 C 0.14877(18) 0.1426(3) 0.04660(15)
C10 C 0.23077(18) 0.0402(3) 0.02552(15)
C11 C 0.20922(19) -0.0255(3) -0.07147(16)
H7 H 0.26630 -0.09500 -0.08380
C12 C 0.10373(19) 0.0122(3) -0.14916(16)
H8 H 0.08740 -0.03310 -0.21540
C13 C 0.02065(19) 0.1159(3) -0.13163(16)
H9 H -0.05110 0.14240 -0.18640
#END
