
#######################################################################
#
#                 Cambridge Crystallographic Data Centre
#                                CCDC
#
#######################################################################
#
# If this CIF has been generated from an entry in the Cambridge
# Structural Database, then it will include bibliographic, chemical,
# crystal, experimental, refinement or atomic coordinate data resulting
# from the CCDC's data processing and validation procedures.
#
#######################################################################

data_CSD_CIF_ASEYEC
_audit_creation_date 2004-06-10
_audit_creation_method CSD-ConQuest-V1
_database_code_CSD ASEYEC
_database_code_depnum_ccdc_archive 'CCDC 215104'
_chemical_formula_sum 'C13 H17 N3 O4'
_chemical_formula_moiety
;
C13 H17 N3 O4
;
_journal_coden_Cambridge 1078
_journal_year 2003
_journal_name_full 'CSD Communication(Private Communication) '
loop_
_publ_author_name
"M.B.Hursthouse"
"A.Karaulov"
_chemical_name_systematic
;
N-(2-(2-(Hydroxymethyl)pyrazolidinyl)-5-nitrophenyl)acetamide
;
_cell_volume   1344.879
_exptl_crystal_density_diffrn 1.379
_exptl_special_details
;
contribution from Queen Mary College, University of London, UK

;
_diffrn_ambient_temperature 295
#These two values have been output from a single CSD field.
_refine_ls_R_factor_gt 0.05
_refine_ls_wR_factor_gt 0.05
_symmetry_cell_setting orthorhombic
_symmetry_space_group_name_H-M 'P 21 21 21'
_symmetry_Int_Tables_number 19
loop_
_symmetry_equiv_pos_site_id
_symmetry_equiv_pos_as_xyz
1 x,y,z
2 1/2-x,-y,1/2+z
3 1/2+x,1/2-y,-z
4 -x,1/2+y,1/2-z
_cell_length_a 7.717
_cell_length_b 20.462
_cell_length_c 8.517
_cell_angle_alpha 90
_cell_angle_beta 90
_cell_angle_gamma 90
_cell_formula_units_Z 4
loop_
_atom_type_symbol
_atom_type_radius_bond
C 0.68
N 0.68
O 0.68
loop_
_atom_site_label
_atom_site_type_symbol
_atom_site_fract_x
_atom_site_fract_y
_atom_site_fract_z
O1 O -0.39340 0.42020 0.66760
O2 O -0.23290 0.35160 0.78970
O3 O 0.50910 0.62950 0.73670
O4 O 0.18070 0.64240 0.55550
N1 N -0.26290 0.40670 0.73790
N2 N 0.18040 0.61350 0.89450
N3 N -0.08780 0.63160 0.66240
C1 C -0.13750 0.45940 0.76770
C2 C 0.01000 0.44680 0.86100
C3 C 0.12020 0.49820 0.89330
C4 C 0.08350 0.56190 0.84310
C5 C -0.05550 0.57040 0.74020
C6 C -0.16340 0.51910 0.70440
C7 C 0.10300 0.67860 0.93370
C8 C 0.19880 0.69720 1.08000
C9 C 0.38050 0.67250 1.04760
C10 C 0.34670 0.60540 0.97510
C11 C 0.48480 0.58430 0.86010
C12 C 0.03300 0.66430 0.57770
C13 C -0.02170 0.72840 0.50730
#END
