
#######################################################################
#
#                 Cambridge Crystallographic Data Centre
#                                CCDC
#
#######################################################################
#
# If this CIF has been generated from an entry in the Cambridge
# Structural Database, then it will include bibliographic, chemical,
# crystal, experimental, refinement or atomic coordinate data resulting
# from the CCDC's data processing and validation procedures.
#
#######################################################################

data_CSD_CIF_ASEYIG
_audit_creation_date 2004-06-10
_audit_creation_method CSD-ConQuest-V1
_database_code_CSD ASEYIG
_database_code_depnum_ccdc_archive 'CCDC 215105'
_chemical_formula_sum 'C10 H11 N3 O4'
_chemical_formula_moiety
;
C10 H11 N3 O4
;
_journal_coden_Cambridge 1078
_journal_year 2003
_journal_name_full 'CSD Communication(Private Communication) '
loop_
_publ_author_name
"M.B.Hursthouse"
"A.Karaulov"
_chemical_name_systematic
;
1-(5-Nitropyridin-2-yl)pyrazolidin-2-carboxylic acid
;
_cell_volume   1114.486
_exptl_special_details
;
contribution from Queen Mary College, University of London, UK

;
_diffrn_ambient_temperature ?
_diffrn_special_details
;
The study was carried out at room temperature,in the range 283-303K

;
#These two values have been output from a single CSD field.
_refine_ls_R_factor_gt 0.073
_refine_ls_wR_factor_gt 0.073
_symmetry_cell_setting orthorhombic
_symmetry_space_group_name_H-M 'P 21 21 2'
_symmetry_Int_Tables_number 18
loop_
_symmetry_equiv_pos_site_id
_symmetry_equiv_pos_as_xyz
1 x,y,z
2 -x,-y,z
3 1/2+x,1/2-y,-z
4 1/2-x,1/2+y,-z
_cell_length_a 6.948
_cell_length_b 20.591
_cell_length_c 7.79
_cell_angle_alpha 90
_cell_angle_beta 90
_cell_angle_gamma 90
_cell_formula_units_Z 4
loop_
_atom_type_symbol
_atom_type_radius_bond
C 0.68
N 0.68
O 0.68
loop_
_atom_site_label
_atom_site_type_symbol
_atom_site_fract_x
_atom_site_fract_y
_atom_site_fract_z
O1 O 0.21110 0.56690 0.58670
O2 O 0.16340 0.63460 0.78030
O3 O 0.04780 0.30520 1.15130
O4 O 0.25170 0.25580 0.97580
N1 N 0.20090 0.58020 0.73890
N2 N 0.29730 0.43010 0.95540
N3 N 0.32280 0.39560 1.25030
C1 C 0.22760 0.53560 0.88800
C2 C 0.25400 0.46990 0.82610
C3 C 0.28960 0.43870 1.13810
C4 C 0.24290 0.50810 1.18080
C5 C 0.21370 0.55530 1.06190
C6 C 0.31180 0.40180 1.43060
C7 C 0.33410 0.33320 1.49350
C8 C 0.45600 0.29940 1.35850
C9 C 0.40080 0.32740 1.18810
C10 C 0.23120 0.29710 1.10050
#END
