
#######################################################################
#
#                 Cambridge Crystallographic Data Centre
#                                CCDC
#
#######################################################################
#
# If this CIF has been generated from an entry in the Cambridge
# Structural Database, then it will include bibliographic, chemical,
# crystal, experimental, refinement or atomic coordinate data resulting
# from the CCDC's data processing and validation procedures.
#
#######################################################################

data_CSD_CIF_ASEZED
_audit_creation_date 2004-06-10
_audit_creation_method CSD-ConQuest-V1
_database_code_CSD ASEZED
_database_code_depnum_ccdc_archive 'CCDC 215109'
_chemical_formula_sum 'C18 H23 N1 O6'
_chemical_formula_moiety
;
C18 H23 N1 O6
;
_journal_coden_Cambridge 1078
_journal_year 2003
_journal_name_full 'CSD Communication(Private Communication) '
loop_
_publ_author_name
"M.B.Hursthouse"
"P.M.Collins"
"N.P.C.Walker"
_chemical_name_systematic
;
2-Methoxy-11-methyl-7-phenyl-3,6,8,12,16-pentaoxa-11-azatetracyclo[8.6.0.0^4,9
^.0^10,14^]hexadecane
;
_cell_volume    431.725
_exptl_crystal_density_diffrn 1.344
_exptl_special_details
;
contribution from Queen Mary College, University of London, UK

;
_diffrn_ambient_temperature ?
_diffrn_special_details
;
The study was carried out at room temperature,in the range 283-303K

;
#These two values have been output from a single CSD field.
_refine_ls_R_factor_gt 0.06
_refine_ls_wR_factor_gt 0.06
_symmetry_cell_setting triclinic
_symmetry_space_group_name_H-M 'P 1'
_symmetry_Int_Tables_number 1
loop_
_symmetry_equiv_pos_site_id
_symmetry_equiv_pos_as_xyz
1 x,y,z
_cell_length_a 5.849
_cell_length_b 8.233
_cell_length_c 9.252
_cell_angle_alpha 82.09
_cell_angle_beta 82.85
_cell_angle_gamma 79.57
_cell_formula_units_Z 1
loop_
_atom_type_symbol
_atom_type_radius_bond
C 0.84
H 0.32
N 0.68
O 0.68
loop_
_atom_site_label
_atom_site_type_symbol
_atom_site_fract_x
_atom_site_fract_y
_atom_site_fract_z
C1 C 0.028(1) 0.6777(7) 0.5498(7)
O1 O 0.0005(7) 0.8216(5) 0.7721(5)
O2 O 0.2839(7) 0.3943(5) 0.8659(4)
C2 C 0.461(1) 0.2739(8) 1.0820(6)
C3 C -0.092(1) 0.8200(7) 0.6371(7)
C4 C 0.1078(9) 0.5092(7) 0.6390(6)
C5 C 0.20700 0.54300 0.77400
C6 C 0.027(1) 0.6638(7) 0.8597(6)
C7 C 0.380(1) 0.4306(7) 0.9868(6)
O3 O -0.3299(7) 0.8082(5) 0.6586(5)
N1 N -0.0891(8) 0.4153(6) 0.6612(5)
O4 O -0.0856(7) 0.3639(6) 0.5152(5)
C8 C 0.296(1) 0.4245(8) 0.5260(6)
O5 O 0.2390(8) 0.7213(6) 0.4720(5)
C9 C 0.649(1) 0.2675(9) 1.1627(7)
C10 C 0.130(1) 0.6906(9) 0.9975(7)
C11 C 0.374(1) 0.5727(9) 0.4230(7)
C12 C 0.160(1) 0.3173(8) 0.4609(8)
C13 C -0.071(1) 0.2647(8) 0.7652(7)
O6 O 0.2042(9) 0.5289(6) 1.0764(5)
C14 C 0.346(1) 0.1360(9) 1.0954(7)
C15 C 0.413(1) -0.0028(9) 1.1913(8)
C16 C -0.474(1) 0.953(1) 0.7035(9)
C17 C 0.720(1) 0.125(1) 1.2562(9)
C18 C 0.603(1) -0.013(1) 1.2724(8)
H1 H 0.54(1) 0.54(1) 0.936(9)
H2 H 0.39(1) 0.628(9) 0.728(8)
H3 H -0.12(2) 0.74(1) 0.44(1)
H4 H -0.02(1) 0.925(8) 0.561(7)
H5? H -0.23(2) 0.64(2) 0.97(1)
H6 H 0.01(1) 0.768(9) 1.083(8)
H7 H 0.28(2) 0.79(1) 0.99(1)
H8 H 0.54(1) 0.59(1) 0.447(8)
H9 H 0.33(1) 0.555(8) 0.310(7)
H10 H 0.43(1) 0.373(7) 0.566(6)
H11 H 0.209(9) 0.226(6) 0.484(6)
H12 H 0.10(1) 0.37(1) 0.32(1)
H13 H -0.11(1) 0.302(8) 0.887(7)
H14 H -0.32(2) 0.25(1) 0.80(1)
H15 H 0.07(2) 0.17(1) 0.79(1)
H16? H -0.55(2) 0.83(1) 0.688(9)
H17? H -0.463(7) 0.953(5) 0.764(4)
H18? H -0.58(3) 1.06(2) 0.50(2)
H19 H 0.76(1) 0.39(1) 1.146(9)
H20 H 0.95(2) 0.12(1) 1.32(1)
H21 H 0.65(2) -0.17(1) 1.38(1)
H22 H 0.35(1) -0.099(9) 1.184(8)
H23 H 0.10(2) 0.15(1) 1.08(1)
#END
