
#######################################################################
#
#                 Cambridge Crystallographic Data Centre
#                                CCDC
#
#######################################################################
#
# If this CIF has been generated from an entry in the Cambridge
# Structural Database, then it will include bibliographic, chemical,
# crystal, experimental, refinement or atomic coordinate data resulting
# from the CCDC's data processing and validation procedures.
#
#######################################################################

data_CSD_CIF_ASIXAC
_audit_creation_date 2011-08-22
_audit_creation_method CSD-ConQuest-V1
_database_code_CSD ASIXAC
_database_code_depnum_ccdc_archive 'CCDC 809903'
_chemical_formula_sum 'C16 H12 N2 O4'
_chemical_formula_moiety
;
C16 H12 N2 O4
;
_journal_coden_Cambridge 24
_journal_volume 52
_journal_year 2011
_journal_page_first 3243
_journal_name_full 'Tetrahedron Lett. '
loop_
_publ_author_name
"S.Das"
"P.Koley"
"A.Pramanik"
_chemical_name_systematic
;
4-((Hydroxyimino)(2-hydroxy-5-methylphenyl)methyl)-1H-2,3-benzoxazin-1-one
;
_cell_volume   2826.072
_exptl_crystal_colour 'white'
_exptl_crystal_density_diffrn 1.397
_exptl_crystal_description 'needle'
_diffrn_ambient_temperature 296
#These two values have been output from a single CSD field.
_refine_ls_R_factor_gt 0.0635
_refine_ls_wR_factor_gt 0.0635
_symmetry_cell_setting monoclinic
_symmetry_space_group_name_H-M 'P 21/c'
_symmetry_Int_Tables_number 14
loop_
_symmetry_equiv_pos_site_id
_symmetry_equiv_pos_as_xyz
1 x,y,z
2 -x,1/2+y,1/2-z
3 -x,-y,-z
4 x,-1/2-y,-1/2+z
_cell_length_a 11.911(2)
_cell_length_b 16.176(3)
_cell_length_c 14.687(3)
_cell_angle_alpha 90
_cell_angle_beta 92.933(6)
_cell_angle_gamma 90
_cell_formula_units_Z 8
loop_
_atom_type_symbol
_atom_type_radius_bond
C 0.68
H 0.23
N 0.68
O 0.68
loop_
_atom_site_label
_atom_site_type_symbol
_atom_site_fract_x
_atom_site_fract_y
_atom_site_fract_z
O1 O 1.1021(4) 0.2916(3) 0.0540(3)
O2 O 0.9297(4) 0.2661(2) 0.0060(3)
O3 O 0.7206(3) 0.4370(3) -0.1354(3)
H1 H 0.69640 0.45850 -0.18300
O4 O 0.4240(3) 0.4057(3) -0.0453(3)
H2 H 0.41130 0.45490 -0.03710
O5 O 0.3786(4) 0.4842(2) 0.2827(3)
O6 O 0.5455(4) 0.5281(2) 0.2517(3)
O7 O 0.7719(4) 0.6496(3) 0.4148(3)
H3 H 0.79820 0.69530 0.42710
O8 O 1.0666(4) 0.5513(4) 0.4026(4)
H4 H 1.01410 0.58300 0.41010
N1 N 0.8128(4) 0.2879(4) -0.0118(3)
N2 N 0.6325(4) 0.4190(3) -0.0816(4)
N3 N 0.6632(4) 0.5400(3) 0.2717(4)
N4 N 0.8587(4) 0.5952(4) 0.3964(4)
C1 C 1.0075(6) 0.3184(4) 0.0467(4)
C2 C 0.7843(5) 0.3599(5) 0.0137(4)
C3 C 0.6628(5) 0.3802(4) -0.0079(5)
C4 C 0.5769(5) 0.3572(3) 0.0546(4)
C5 C 0.4631(6) 0.3705(4) 0.0353(5)
C6 C 0.3841(6) 0.3450(4) 0.0952(6)
H5 H 0.30800 0.35400 0.08110
C7 C 0.4177(7) 0.3063(4) 0.1755(5)
H6 H 0.36380 0.28930 0.21510
C8 C 0.8571(5) 0.4195(4) 0.0594(3)
C9 C 0.8190(5) 0.4954(5) 0.0870(4)
H7 H 0.74370 0.50970 0.07700
C10 C 0.8935(6) 0.5503(4) 0.1299(4)
H8 H 0.86850 0.60180 0.14850
C11 C 1.0053(6) 0.5284(5) 0.1450(4)
H9 H 1.05490 0.56550 0.17420
C12 C 1.0436(5) 0.4542(5) 0.1181(4)
H10 H 1.11900 0.44050 0.12830
C13 C 0.9694(6) 0.3983(4) 0.0749(4)
C14 C 0.6076(5) 0.3189(4) 0.1381(5)
H11 H 0.68360 0.31130 0.15350
C15 C 0.5303(7) 0.2922(4) 0.1983(4)
C16 C 0.5662(6) 0.2455(4) 0.2840(5)
H12 H 0.59430 0.19210 0.26800
H13 H 0.50290 0.23880 0.32130
H14 H 0.62430 0.27580 0.31720
C17 C 0.9207(6) 0.2426(4) 0.2585(5)
H15 H 0.87800 0.21400 0.30250
H16 H 0.98540 0.21020 0.24510
H17 H 0.87470 0.25090 0.20370
C18 C 0.9579(7) 0.3244(5) 0.2964(4)
C19 C 0.8818(5) 0.3861(5) 0.3129(4)
H18 H 0.80610 0.37540 0.29930
C20 C 0.9104(5) 0.4629(5) 0.3484(4)
C21 C 0.8261(5) 0.5245(5) 0.3646(4)
C22 C 0.7049(5) 0.5067(4) 0.3460(5)
C23 C 0.6440(5) 0.4570(3) 0.4079(4)
C24 C 0.5293(6) 0.4457(4) 0.3869(4)
C25 C 0.4635(5) 0.3987(4) 0.4420(5)
H19 H 0.38760 0.39080 0.42650
C26 C 0.5113(6) 0.3638(4) 0.5198(4)
H20 H 0.46780 0.33290 0.55810
C27 C 0.4787(7) 0.4848(4) 0.3059(4)
C28 C 1.0263(7) 0.4787(6) 0.3696(4)
C29 C 1.1018(7) 0.4183(8) 0.3534(5)
H21 H 1.17770 0.42920 0.36570
C30 C 1.0714(7) 0.3422(7) 0.3198(5)
H22 H 1.12600 0.30200 0.31240
C31 C 0.6915(5) 0.4205(4) 0.4870(4)
H23 H 0.76760 0.42720 0.50290
C32 C 0.6248(6) 0.3749(4) 0.5406(4)
H24 H 0.65680 0.35040 0.59310
#END
