
#######################################################################
#
#                 Cambridge Crystallographic Data Centre
#                                CCDC
#
#######################################################################
#
# If this CIF has been generated from an entry in the Cambridge
# Structural Database, then it will include bibliographic, chemical,
# crystal, experimental, refinement or atomic coordinate data resulting
# from the CCDC's data processing and validation procedures.
#
#######################################################################

data_CSD_CIF_ASOREG
_audit_creation_date 2011-08-21
_audit_creation_method CSD-ConQuest-V1
_database_code_CSD ASOREG
_database_code_depnum_ccdc_archive 'CCDC 772896'
_chemical_formula_sum 'C14 H15 N1 O5'
_chemical_formula_moiety
;
C14 H15 N1 O5
;
_journal_coden_Cambridge 1088
_journal_year 2011
_journal_page_first 712
_journal_name_full 'Synlett '
loop_
_publ_author_name
"D.J.Aitken"
"F.Capitta"
"A.Frongia"
"D.Gori"
"R.Guillot"
"J.Ollivier"
"P.P.Piras"
"F.Secci"
"M.Spiga"
_chemical_name_systematic
;
6,6-Dimethyl-8-(4-nitrophenyl)-5,7-dioxaspiro[3.4]octan-1-one
;
_cell_volume   1329.207
_exptl_crystal_density_diffrn 1.386
_diffrn_ambient_temperature 100
#These two values have been output from a single CSD field.
_refine_ls_R_factor_gt 0.0549
_refine_ls_wR_factor_gt 0.0549
_symmetry_cell_setting triclinic
_symmetry_space_group_name_H-M 'P -1'
_symmetry_Int_Tables_number 2
loop_
_symmetry_equiv_pos_site_id
_symmetry_equiv_pos_as_xyz
1 x,y,z
2 -x,-y,-z
_cell_length_a 9.0874(11)
_cell_length_b 12.3595(13)
_cell_length_c 12.8263(15)
_cell_angle_alpha 78.707(2)
_cell_angle_beta 83.273(3)
_cell_angle_gamma 70.453(2)
_cell_formula_units_Z 4
loop_
_atom_type_symbol
_atom_type_radius_bond
C 0.68
H 0.23
N 0.68
O 0.68
loop_
_atom_site_label
_atom_site_type_symbol
_atom_site_fract_x
_atom_site_fract_y
_atom_site_fract_z
O1 O 0.07720(11) 0.97734(7) 0.64302(7)
O2 O -0.00787(10) 0.83867(8) 0.62430(7)
N1 N 0.08262(11) 0.89583(8) 0.59999(7)
C1 C 0.41857(12) 0.81692(9) 0.34645(8)
C2 C 0.20207(13) 0.86596(9) 0.51319(8)
C3 C 0.41647(13) 0.90189(9) 0.40417(9)
H1 H 0.48910 0.94160 0.38640
C4 C 0.49419(12) 0.88362(8) 0.14869(8)
C5 C 0.53262(12) 0.79176(9) 0.25238(8)
H2 H 0.54320 0.71480 0.23710
C6 C 0.20180(13) 0.78048(9) 0.45838(9)
H3 H 0.12980 0.74040 0.47730
C7 C 0.30690(14) 0.92754(9) 0.48779(9)
H4 H 0.30390 0.98490 0.52600
C8 C 0.31197(13) 0.75587(9) 0.37412(9)
H5 H 0.31440 0.69840 0.33610
C9 C 0.36641(14) 1.00008(9) 0.15952(8)
C10 C 0.38448(14) 0.86439(9) 0.07561(9)
H6 H 0.37110 0.78810 0.09360
H7 H 0.41220 0.88180 0.00030
C11 C 0.24603(14) 0.96233(10) 0.1167(1)
H8 H 0.18650 1.01930 0.06080
H9 H 0.17790 0.93440 0.17130
O3 O 0.37003(13) 1.09066(7) 0.17778(7)
O4 O 0.68125(9) 0.79417(6) 0.27431(6)
O5 O 0.63977(9) 0.89326(7) 0.10679(7)
C12 C 0.76053(13) 0.81472(9) 0.17360(8)
C13 C 0.83456(15) 0.70418(10) 0.12737(10)
H10 H 0.91480 0.65110 0.17210
H11 H 0.87970 0.72220 0.05730
H12 H 0.75630 0.66900 0.12330
C14 C 0.87484(16) 0.87436(12) 0.18708(10)
H13 H 0.82070 0.94340 0.21700
H14 H 0.92360 0.89510 0.11900
H15 H 0.95340 0.82270 0.23380
O6 O 0.0026(1) 0.37726(8) 0.61255(7)
O7 O 0.13290(12) 0.48570(8) 0.64075(7)
N2 N 0.11386(12) 0.41505(8) 0.59301(7)
C15 C 0.43612(12) 0.30866(8) 0.33954(8)
C16 C 0.54022(12) 0.28185(9) 0.24153(8)
H16 H 0.54370 0.20640 0.22620
C17 C 0.22882(13) 0.37518(9) 0.50673(8)
C18 C 0.49542(12) 0.37623(8) 0.14178(8)
C19 C 0.45414(14) 0.38719(9) 0.39772(9)
H17 H 0.53700 0.41680 0.37990
C20 C 0.31507(13) 0.26162(9) 0.36791(9)
H18 H 0.30450 0.20770 0.33030
C21 C 0.39622(14) 0.49848(9) 0.16377(8)
C22 C 0.34938(14) 0.42128(10) 0.48174(9)
H19 H 0.36020 0.47420 0.52040
C23 C 0.20977(13) 0.29519(10) 0.45251(9)
H20 H 0.12820 0.26440 0.47210
C24 C 0.35568(14) 0.37822(10) 0.08307(9)
H21 H 0.32510 0.30870 0.10450
H22 H 0.36920 0.39600 0.00620
C25 C 0.24875(14) 0.48364(10) 0.13455(10)
H23 H 0.18840 0.54810 0.08420
H24 H 0.18320 0.46310 0.19530
O8 O 0.43051(12) 0.57886(7) 0.18148(7)
O9 O 0.69347(9) 0.28038(7) 0.25590(6)
O10 O 0.63857(9) 0.36682(7) 0.08394(6)
C26 C 0.76549(13) 0.30511(9) 0.15294(8)
C27 C 0.85874(15) 0.19439(10) 0.11165(10)
H25 H 0.94490 0.15210 0.15580
H26 H 0.89770 0.21320 0.03990
H27 H 0.79290 0.14740 0.11300
C28 C 0.86062(17) 0.38177(12) 0.16103(10)
H28 H 0.79440 0.45040 0.18760
H29 H 0.90550 0.40370 0.09190
H30 H 0.94260 0.34010 0.20870
#END
