
#######################################################################
#
#                 Cambridge Crystallographic Data Centre
#                                CCDC
#
#######################################################################
#
# If this CIF has been generated from an entry in the Cambridge
# Structural Database, then it will include bibliographic, chemical,
# crystal, experimental, refinement or atomic coordinate data resulting
# from the CCDC's data processing and validation procedures.
#
#######################################################################

data_CSD_CIF_ASOVOU
_audit_creation_date 2011-08-22
_audit_creation_method CSD-ConQuest-V1
_database_code_CSD ASOVOU
_database_code_depnum_ccdc_archive 'CCDC 810815'
_chemical_formula_sum 'C26 H28 N4 O6'
_chemical_formula_moiety
;
C26 H28 N4 O6
;
_journal_coden_Cambridge 24
_journal_volume 52
_journal_year 2011
_journal_page_first 2972
_journal_name_full 'Tetrahedron Lett. '
loop_
_publ_author_name
"K.C.Idahosa"
"Yi-Chen Lee"
"D.Nyoni"
"P.T.Kaye"
"M.R.Caira"
_chemical_name_systematic
;
(E,E)-3,3'-(Piperazine-1,4-diylbis(methylene))bis(4-(2-nitrophenyl)but-3-en-2-
one)
;
_chemical_name_common
;
N,N'-bis((E)-2-Acetyl-3-(2-nitrophenyl)-2-propenyl)piperazine
;
_chemical_melting_point 447.15
_cell_volume   1256.873
_exptl_crystal_colour 'colorless'
_exptl_crystal_density_diffrn 1.301
_exptl_special_details
;
Melting point range 447.15-449.15K

;
_exptl_crystal_description 'prism'
_diffrn_ambient_temperature 173
#These two values have been output from a single CSD field.
_refine_ls_R_factor_gt 0.0402
_refine_ls_wR_factor_gt 0.0402
_symmetry_cell_setting monoclinic
_symmetry_space_group_name_H-M 'P 21/n'
_symmetry_Int_Tables_number 14
loop_
_symmetry_equiv_pos_site_id
_symmetry_equiv_pos_as_xyz
1 x,y,z
2 1/2-x,1/2+y,1/2-z
3 -x,-y,-z
4 -1/2+x,-1/2-y,-1/2+z
_cell_length_a 9.1228(2)
_cell_length_b 14.5994(4)
_cell_length_c 9.7531(2)
_cell_angle_alpha 90
_cell_angle_beta 104.630(2)
_cell_angle_gamma 90
_cell_formula_units_Z 2
loop_
_atom_type_symbol
_atom_type_radius_bond
C 0.68
H 0.23
N 0.68
O 0.68
loop_
_atom_site_label
_atom_site_type_symbol
_atom_site_fract_x
_atom_site_fract_y
_atom_site_fract_z
C1 C 0.83931(14) 0.40399(9) 0.85137(12)
C2 C 0.95964(15) 0.35279(10) 0.82725(13)
H1 H 0.95650 0.28790 0.83220
C3 C 1.08388(16) 0.39502(12) 0.79612(15)
H2 H 1.16500 0.35880 0.78120
C4 C 1.09012(17) 0.48909(12) 0.78672(16)
H3 H 1.17560 0.51770 0.76620
C5 C 0.97193(17) 0.54129(10) 0.80724(15)
H4 H 0.97450 0.60610 0.79960
C6 C 0.84935(14) 0.49851(9) 0.83903(13)
N1 N 0.72586(14) 0.55749(7) 0.85817(13)
O1 O 0.71952(14) 0.63611(7) 0.81155(13)
O2 O 0.63477(12) 0.52652(7) 0.91888(11)
C7 C 0.71079(14) 0.35464(8) 0.88576(12)
H5 H 0.70900 0.34950 0.98240
C8 C 0.59763(13) 0.31714(8) 0.78779(12)
C9 C 0.47490(14) 0.26596(8) 0.82937(14)
O3 O 0.36259(11) 0.24140(7) 0.73984(11)
C10 C 0.48984(19) 0.24420(11) 0.98257(16)
H6 H 0.48090 0.30070 1.03400
H7 H 0.58890 0.21610 1.02310
H8 H 0.40950 0.20150 0.99070
C11 C 0.58835(14) 0.32964(8) 0.63182(12)
H9 H 0.68250 0.30640 0.61120
H10 H 0.50240 0.29350 0.57520
N2 N 0.56773(11) 0.42644(7) 0.59073(10)
C12 C 0.41314(14) 0.45665(9) 0.58212(14)
H11 H 0.38910 0.44620 0.67440
H12 H 0.34130 0.42030 0.50940
C13 C 0.39479(15) 0.55717(9) 0.54437(14)
H13 H 0.28900 0.57630 0.53730
H14 H 0.46230 0.59400 0.61970
C1B C 0.16069(14) 0.59601(9) 0.14863(12)
C2B C 0.04036(15) 0.64721(10) 0.17275(13)
H1B H 0.04350 0.71210 0.16780
C3B C -0.08388(16) 0.60498(12) 0.20388(15)
H2B H -0.16500 0.64120 0.21880
C4B C -0.09012(17) 0.51091(12) 0.21328(16)
H3B H -0.17560 0.48230 0.23380
C5B C 0.02807(17) 0.45871(10) 0.19276(15)
H4B H 0.02550 0.39390 0.20040
C6B C 0.15065(14) 0.50149(9) 0.16097(13)
N1B N 0.27414(14) 0.44251(7) 0.14183(13)
O1B O 0.28048(14) 0.36389(7) 0.18845(13)
O2B O 0.36523(12) 0.47348(7) 0.08112(11)
C7B C 0.28921(14) 0.64536(8) 0.11424(12)
H5B H 0.29100 0.65050 0.01760
C8B C 0.40237(13) 0.68286(8) 0.21221(12)
C9B C 0.52510(14) 0.73404(8) 0.17063(14)
O3B O 0.63741(11) 0.75860(7) 0.26016(11)
C10B C 0.51016(19) 0.75580(11) 0.01743(16)
H6B H 0.51910 0.69930 -0.03400
H7B H 0.41110 0.78390 -0.02310
H8B H 0.59050 0.79850 0.00930
C11B C 0.41165(14) 0.67036(8) 0.36818(12)
H9B H 0.31750 0.69360 0.38880
H10B H 0.49760 0.70650 0.42480
N2B N 0.43227(11) 0.57356(7) 0.40927(10)
C12B C 0.58686(14) 0.54335(9) 0.41788(14)
H11B H 0.61090 0.55380 0.32560
H12B H 0.65870 0.57970 0.49060
C13B C 0.60521(15) 0.44283(9) 0.45563(14)
H13B H 0.71100 0.42370 0.46270
H14B H 0.53770 0.40600 0.38030
#END
