
#######################################################################
#
#                 Cambridge Crystallographic Data Centre
#                                CCDC
#
#######################################################################
#
# If this CIF has been generated from an entry in the Cambridge
# Structural Database, then it will include bibliographic, chemical,
# crystal, experimental, refinement or atomic coordinate data resulting
# from the CCDC's data processing and validation procedures.
#
#######################################################################

data_CSD_CIF_ASUJII
_audit_creation_date 2011-08-22
_audit_creation_method CSD-ConQuest-V1
_database_code_CSD ASUJII
_database_code_depnum_ccdc_archive 'CCDC 835858'
_chemical_formula_sum 'C36 H30 N2 O8'
_chemical_formula_moiety
;
C36 H30 N2 O8
;
_journal_coden_Cambridge 1336
_journal_volume 13
_journal_year 2011
_journal_page_first 580
_journal_name_full 'Org.Lett. '
loop_
_publ_author_name
"Rong Zhou"
"Jianfang Wang"
"Haibin Song"
"Zhengjie He"
_chemical_name_systematic
;
Ethyl 2-(2,4-bis(4-nitrobenzoyl)-3,5-diphenylcyclopentyl)acrylate
;
_chemical_melting_point 434.15
_cell_volume   3041.881
_exptl_crystal_colour 'colorless'
_exptl_crystal_density_diffrn 1.351
_exptl_special_details
;
Melting point range 434.15-435.15K

;
_exptl_crystal_description 'prism'
_diffrn_ambient_temperature 113
#These two values have been output from a single CSD field.
_refine_ls_R_factor_gt 0.0381
_refine_ls_wR_factor_gt 0.0381
_symmetry_cell_setting monoclinic
_symmetry_space_group_name_H-M 'P 21/c'
_symmetry_Int_Tables_number 14
loop_
_symmetry_equiv_pos_site_id
_symmetry_equiv_pos_as_xyz
1 x,y,z
2 -x,1/2+y,1/2-z
3 -x,-y,-z
4 x,-1/2-y,-1/2+z
_cell_length_a 11.6425(19)
_cell_length_b 22.489(4)
_cell_length_c 11.6436(18)
_cell_angle_alpha 90
_cell_angle_beta 93.811(4)
_cell_angle_gamma 90
_cell_formula_units_Z 4
loop_
_atom_type_symbol
_atom_type_radius_bond
C 0.68
H 0.23
N 0.68
O 0.68
loop_
_atom_site_label
_atom_site_type_symbol
_atom_site_fract_x
_atom_site_fract_y
_atom_site_fract_z
O1 O 0.92132(12) -0.21384(5) 0.33405(9)
O2 O 0.85835(10) -0.26464(5) 0.47381(9)
O3 O 0.89696(8) 0.04348(4) 0.64666(8)
O4 O 0.89477(9) 0.12090(4) 1.07729(8)
O5 O 0.81323(11) 0.42022(5) 0.88632(9)
O6 O 0.69625(9) 0.40864(5) 1.02184(9)
O7 O 0.62130(9) 0.17985(5) 0.77729(9)
O8 O 0.53238(9) 0.18475(4) 0.94182(8)
N1 N 0.88774(11) -0.21772(5) 0.43125(10)
N2 N 0.76649(11) 0.38963(5) 0.95649(10)
C1 C 0.88817(12) -0.05801(6) 0.51268(11)
H1 H 0.88850 -0.02020 0.47620
C2 C 0.88917(12) -0.10899(6) 0.44670(12)
H2 H 0.89330 -0.10670 0.36560
C3 C 0.88409(12) -0.16331(6) 0.50125(11)
C4 C 0.87874(12) -0.16846(6) 0.61945(11)
H3 H 0.87280 -0.20630 0.65480
C5 C 0.88236(12) -0.11700(6) 0.68434(11)
H4 H 0.88190 -0.11960 0.76570
C6 C 0.88673(11) -0.06123(6) 0.63208(11)
C7 C 0.89157(11) -0.00338(6) 0.69806(11)
C8 C 0.88704(11) -0.00361(6) 0.82810(11)
H5 H 0.91660 -0.04220 0.86100
C9 C 0.76184(12) 0.00783(6) 0.86218(11)
H6 H 0.76080 -0.00040 0.94650
C10 C 0.74530(11) 0.07516(6) 0.84618(11)
H7 H 0.72490 0.08220 0.76250
C11 C 0.86934(11) 0.10293(6) 0.87432(11)
H8 H 0.89090 0.12760 0.80760
C12 C 0.95110(11) 0.04914(6) 0.88791(11)
H9 H 0.95610 0.03940 0.97190
C13 C 1.07389(12) 0.06039(6) 0.85783(11)
C14 C 1.12516(12) 0.11559(7) 0.88031(12)
H10 H 1.08150 0.14650 0.91180
C15 C 1.23886(13) 0.12611(7) 0.85750(13)
H11 H 1.27230 0.16390 0.87400
C16 C 1.30377(13) 0.08174(7) 0.81087(12)
H12 H 1.38150 0.08900 0.79480
C17 C 1.25417(12) 0.02676(7) 0.78797(12)
H13 H 1.29800 -0.00390 0.75570
C18 C 1.14071(12) 0.01601(6) 0.81179(11)
H14 H 1.10820 -0.02210 0.79650
C19 C 0.87263(12) 0.14148(6) 0.98174(11)
C20 C 0.84376(12) 0.20642(6) 0.97020(11)
C21 C 0.79030(12) 0.23376(6) 1.06002(12)
H15 H 0.77170 0.21080 1.12480
C22 C 0.76393(12) 0.29373(7) 1.05629(12)
H16 H 0.72620 0.31220 1.11680
C23 C 0.79417(12) 0.32591(6) 0.96198(12)
C24 C 0.84761(12) 0.30063(6) 0.87159(12)
H17 H 0.86800 0.32410 0.80830
C25 C 0.87082(12) 0.24032(6) 0.87517(12)
H18 H 0.90530 0.22180 0.81270
C26 C 0.64796(12) 0.10035(6) 0.91155(12)
C27 C 0.60055(14) 0.07337(7) 0.99751(13)
H19 H 0.53680 0.09100 1.03140
H20 H 0.63020 0.03630 1.02540
C28 C 0.60070(12) 0.15829(6) 0.86878(12)
C29 C 0.48856(14) 0.24262(7) 0.90727(14)
H21 H 0.43100 0.23870 0.84120
H22 H 0.55210 0.26820 0.88380
C30 C 0.43374(15) 0.26966(8) 1.00846(15)
H23 H 0.37120 0.24390 1.03110
H24 H 0.40280 0.30890 0.98710
H25 H 0.49160 0.27370 1.07310
C31 C 0.67031(12) -0.03112(6) 0.80203(11)
C32 C 0.65758(12) -0.08923(7) 0.83944(12)
H26 H 0.70460 -0.10330 0.90350
C33 C 0.57694(13) -0.12721(7) 0.78455(13)
H27 H 0.57000 -0.16700 0.81050
C34 C 0.50742(13) -0.10690(7) 0.69266(13)
H28 H 0.45180 -0.13260 0.65550
C35 C 0.51859(14) -0.04924(7) 0.65461(14)
H29 H 0.47070 -0.03530 0.59100
C36 C 0.59951(13) -0.01161(7) 0.70886(13)
H30 H 0.60660 0.02800 0.68200
#END
