
#######################################################################
#
#                 Cambridge Crystallographic Data Centre
#                                CCDC
#
#######################################################################
#
# If this CIF has been generated from an entry in the Cambridge
# Structural Database, then it will include bibliographic, chemical,
# crystal, experimental, refinement or atomic coordinate data resulting
# from the CCDC's data processing and validation procedures.
#
#######################################################################

data_CSD_CIF_ASUYUI
_audit_creation_date 2004-07-02
_audit_creation_method CSD-ConQuest-V1
_database_code_CSD ASUYUI
_database_code_depnum_ccdc_archive 'CCDC 220642'
_chemical_formula_sum 'C20 H25 N1 O4'
_chemical_formula_moiety
;
C20 H25 N1 O4
;
_journal_coden_Cambridge 24
_journal_volume 45
_journal_year 2004
_journal_page_first 1113
_journal_name_full 'Tetrahedron Lett. '
loop_
_publ_author_name
"G.Mehta"
"M.K.Bera"
_chemical_name_systematic
;
(1S,5S)-6,6-Dimethyl-5-(3-methyl-2-butenyl)-2-cyclohexenyl 4-nitrobenzoate
;
_cell_volume    944.615
_exptl_crystal_density_diffrn 1.207
_diffrn_ambient_temperature 293
#These two values have been output from a single CSD field.
_refine_ls_R_factor_gt 0.05
_refine_ls_wR_factor_gt 0.05
_symmetry_cell_setting triclinic
_symmetry_space_group_name_H-M 'P -1'
_symmetry_Int_Tables_number 2
loop_
_symmetry_equiv_pos_site_id
_symmetry_equiv_pos_as_xyz
1 x,y,z
2 -x,-y,-z
_cell_length_a 6.169(4)
_cell_length_b 11.196(6)
_cell_length_c 14.154(8)
_cell_angle_alpha 89.277(9)
_cell_angle_beta 82.668(10)
_cell_angle_gamma 77.000(9)
_cell_formula_units_Z 2
loop_
_atom_type_symbol
_atom_type_radius_bond
C 0.68
H 0.23
N 0.68
O 0.68
loop_
_atom_site_label
_atom_site_type_symbol
_atom_site_fract_x
_atom_site_fract_y
_atom_site_fract_z
H1 H 0.600(4) 0.406(2) 0.6651(17)
O1 O 1.1734(2) 0.28959(10) 0.62348(8)
C1 C 1.1378(3) 0.19662(14) 0.57402(11)
O2 O 0.9869(2) 0.14605(12) 0.59428(10)
C2 C 1.3109(3) 0.16388(13) 0.48874(11)
C3 C 1.4994(3) 0.21366(16) 0.47486(13)
C4 C 1.2832(3) 0.07875(15) 0.42360(12)
C5 C 1.4412(3) 0.04411(17) 0.34488(13)
C6 C 1.6260(3) 0.09445(15) 0.33344(12)
C7 C 1.6581(3) 0.17905(17) 0.39709(14)
C8 C 0.8871(3) 0.46152(15) 0.69914(11)
C9 C 1.0267(3) 0.33192(16) 0.71257(12)
N1 N 1.7992(3) 0.05667(18) 0.25082(13)
C10 C 0.4664(3) 0.67080(19) 0.89484(16)
C11 C 0.7710(3) 0.50833(15) 0.79951(12)
O3 O 1.7779(3) -0.02449(18) 0.19888(14)
C12 C 0.6024(4) 0.6330(2) 0.80019(15)
C13 C 0.4723(3) 0.76223(17) 0.95132(14)
O4 O 1.9541(3) 0.1082(2) 0.23944(13)
C14 C 1.0368(4) 0.5454(2) 0.65513(17)
C15 C 0.7118(4) 0.4516(2) 0.63276(15)
C16 C 1.1780(3) 0.32593(18) 0.78888(13)
C17 C 0.9429(4) 0.5133(2) 0.86822(15)
C18 C 1.1392(3) 0.40574(19) 0.85798(14)
C19 C 0.6346(6) 0.8428(3) 0.9336(3)
C20 C 0.3110(5) 0.7940(3) 1.0407(2)
H2 H 0.621(3) 0.5304(17) 0.6236(12)
H3 H 0.689(3) 0.4489(15) 0.8246(12)
H4 H 0.925(3) 0.2758(16) 0.7237(12)
H5 H 1.159(3) 0.0440(16) 0.4335(12)
H6 H 0.789(3) 0.4072(17) 0.5771(14)
H7 H 1.783(3) 0.2085(17) 0.3876(14)
H8 H 1.149(3) 0.5497(18) 0.6907(14)
H9 H 1.519(4) 0.272(2) 0.5186(15)
H10 H 0.948(4) 0.627(2) 0.6507(15)
H11 H 1.422(3) -0.0147(18) 0.3010(14)
H12 H 0.746(5) 0.818(3) 0.881(2)
H13 H 0.859(3) 0.5279(18) 0.9343(15)
H14 H 1.109(4) 0.512(2) 0.5939(17)
H15 H 1.314(4) 0.259(2) 0.7820(14)
H16 H 0.709(6) 0.850(4) 0.989(3)
H17 H 0.997(4) 0.593(2) 0.8586(16)
H18 H 1.242(3) 0.3947(19) 0.9090(15)
H19 H 0.691(4) 0.697(2) 0.7773(15)
H20 H 0.516(4) 0.622(2) 0.7509(17)
H21 H 0.217(4) 0.873(3) 1.0341(19)
H22 H 0.357(4) 0.623(2) 0.9193(17)
H23 H 0.205(6) 0.738(3) 1.043(2)
H24 H 0.376(6) 0.805(3) 1.097(3)
H25 H 0.553(5) 0.921(3) 0.918(2)
#END
