
#######################################################################
#
#                 Cambridge Crystallographic Data Centre
#                                CCDC
#
#######################################################################
#
# If this CIF has been generated from an entry in the Cambridge
# Structural Database, then it will include bibliographic, chemical,
# crystal, experimental, refinement or atomic coordinate data resulting
# from the CCDC's data processing and validation procedures.
#
#######################################################################

data_CSD_CIF_ATAVAT
_audit_creation_date 2011-08-22
_audit_creation_method CSD-ConQuest-V1
_database_code_CSD ATAVAT
_database_code_depnum_ccdc_archive 'CCDC 807947'
_chemical_formula_sum 'C29 H29 N1 O5'
_chemical_formula_moiety
;
C29 H29 N1 O5
;
_journal_coden_Cambridge 16
_journal_volume 67
_journal_year 2011
_journal_page_first 4442
_journal_name_full 'Tetrahedron '
loop_
_publ_author_name
"A.E.Hurtley"
"M.A.Cismesia"
"M.A.Ischay"
"T.P.Yoon"
_chemical_name_systematic
;
Phenyl(3-phenyloctahydro-1H-isochromen-1-yl)methyl 4-nitrobenzoate
;
_cell_volume   2410.628
_exptl_crystal_colour 'colorless'
_exptl_crystal_density_diffrn 1.299
_exptl_crystal_description 'block'
_diffrn_ambient_temperature 100
#These two values have been output from a single CSD field.
_refine_ls_R_factor_gt 0.0284
_refine_ls_wR_factor_gt 0.0284
_symmetry_cell_setting monoclinic
_symmetry_space_group_name_H-M 'I a'
_symmetry_Int_Tables_number 9
loop_
_symmetry_equiv_pos_site_id
_symmetry_equiv_pos_as_xyz
1 x,y,z
2 1/2+x,-y,z
3 1/2+x,1/2+y,1/2+z
4 x,1/2-y,1/2+z
_cell_length_a 8.7727(2)
_cell_length_b 27.9624(7)
_cell_length_c 9.8321(4)
_cell_angle_alpha 90
_cell_angle_beta 91.839(1)
_cell_angle_gamma 90
_cell_formula_units_Z 4
loop_
_atom_type_symbol
_atom_type_radius_bond
C 0.68
H 0.23
N 0.68
O 0.68
loop_
_atom_site_label
_atom_site_type_symbol
_atom_site_fract_x
_atom_site_fract_y
_atom_site_fract_z
O1 O 0.81317(10) 0.36439(3) 0.55025(9)
O2 O 0.54622(11) 0.37166(3) 0.68591(10)
O3 O 0.37631(18) 0.33523(4) 0.81601(15)
O4 O 0.32203(18) 0.59172(4) 0.89090(13)
O5 O 0.18426(14) 0.56079(4) 1.04634(12)
N1 N 0.27160(15) 0.55770(4) 0.95199(13)
C1 C 0.75926(16) 0.32409(4) 0.62343(13)
H1 H 0.79620 0.32670 0.72040
C2 C 0.81806(15) 0.27712(4) 0.56463(13)
H2 H 0.77780 0.27450 0.46860
C3 C 0.76599(16) 0.23266(5) 0.64179(14)
H3 H 0.80540 0.23420 0.73720
H4 H 0.65320 0.23200 0.64280
C4 C 0.82348(16) 0.18698(5) 0.57504(15)
H5 H 0.79300 0.15900 0.62940
H6 H 0.77550 0.18380 0.48300
C5 C 0.99675(17) 0.18740(5) 0.56409(15)
H7 H 1.02880 0.15910 0.51180
H8 H 1.04480 0.18520 0.65640
C6 C 1.05214(15) 0.23273(5) 0.49425(14)
H9 H 1.01730 0.23230 0.39750
H10 H 1.16500 0.23310 0.49730
C7 C 0.99341(15) 0.27819(5) 0.56155(13)
H11 H 1.03420 0.27890 0.65770
C8 C 1.04611(15) 0.32351(5) 0.49111(14)
H12 H 1.01620 0.32200 0.39320
H13 H 1.15870 0.32570 0.49880
C9 C 0.97605(14) 0.36792(5) 0.55446(13)
H14 H 1.01310 0.37060 0.65140
C10 C 1.01760(15) 0.41302(5) 0.47977(13)
C11 C 1.13267(17) 0.44272(5) 0.53180(14)
H15 H 1.18170 0.43510 0.61660
C12 C 1.17707(18) 0.48331(6) 0.46186(15)
H16 H 1.25660 0.50300 0.49830
C13 C 1.10489(17) 0.49496(5) 0.33869(15)
H17 H 1.13400 0.52280 0.29050
C14 C 0.99025(17) 0.46571(5) 0.28678(15)
H18 H 0.94050 0.47370 0.20260
C15 C 0.94660(15) 0.42482(5) 0.35584(14)
H19 H 0.86820 0.40490 0.31830
C16 C 0.58530(15) 0.32702(4) 0.61824(14)
H20 H 0.54320 0.29960 0.67030
C17 C 0.51334(14) 0.32741(4) 0.47666(15)
C18 C 0.50992(17) 0.36912(5) 0.39799(16)
H21 H 0.55140 0.39790 0.43460
C19 C 0.44668(18) 0.36871(5) 0.26742(17)
H22 H 0.44610 0.39720 0.21460
C20 C 0.38405(16) 0.32705(5) 0.21295(16)
H23 H 0.34080 0.32700 0.12310
C21 C 0.38491(16) 0.28562(5) 0.29017(15)
H24 H 0.34110 0.25710 0.25380
C22 C 0.44997(15) 0.28583(5) 0.42103(14)
H25 H 0.45120 0.25720 0.47320
C23 C 0.43854(16) 0.37053(5) 0.77683(14)
C24 C 0.40070(15) 0.42006(5) 0.82398(13)
C25 C 0.45576(16) 0.46027(5) 0.75822(13)
H26 H 0.52260 0.45670 0.68480
C26 C 0.41303(16) 0.50552(5) 0.79994(15)
H27 H 0.44850 0.53330 0.75510
C27 C 0.31753(16) 0.50921(5) 0.90831(14)
C28 C 0.26184(15) 0.46997(5) 0.97641(14)
H28 H 0.19690 0.47380 1.05110
C29 C 0.30349(16) 0.42494(5) 0.93247(14)
H29 H 0.26570 0.39730 0.97640
#END
