
#######################################################################
#
#                 Cambridge Crystallographic Data Centre
#                                CCDC
#
#######################################################################
#
# If this CIF has been generated from an entry in the Cambridge
# Structural Database, then it will include bibliographic, chemical,
# crystal, experimental, refinement or atomic coordinate data resulting
# from the CCDC's data processing and validation procedures.
#
#######################################################################

data_CSD_CIF_ATAWIC
_audit_creation_date 2011-08-22
_audit_creation_method CSD-ConQuest-V1
_database_code_CSD ATAWIC
_database_code_depnum_ccdc_archive 'CCDC 794925'
_chemical_formula_sum 'C8 H13 N1 O4'
_chemical_formula_moiety
;
C8 H13 N1 O4
;
_journal_coden_Cambridge 24
_journal_volume 52
_journal_year 2011
_journal_page_first 2910
_journal_name_full 'Tetrahedron Lett. '
loop_
_publ_author_name
"Y.A.Volkova"
"E.B.Averina"
"Y.K.Grishin"
"V.B.Rybakov"
"T.S.Kuznetsova"
"N.S.Zefirov"
_chemical_name_systematic
;
1-((1R,2S)-1-Hydroxy-2-nitrocyclohexyl)ethanone
;
_chemical_melting_point 349
_cell_volume    927.589
_exptl_crystal_colour 'colorless'
_exptl_crystal_density_diffrn 1.34
_exptl_special_details
;
Melting point range 349-350K
polymorph 1

;
_exptl_crystal_description 'prism'
_exptl_crystal_preparation 'dichloromethane'
_diffrn_ambient_temperature 295
#These two values have been output from a single CSD field.
_refine_ls_R_factor_gt 0.0444
_refine_ls_wR_factor_gt 0.0444
_symmetry_cell_setting monoclinic
_symmetry_space_group_name_H-M 'P 21/n'
_symmetry_Int_Tables_number 14
loop_
_symmetry_equiv_pos_site_id
_symmetry_equiv_pos_as_xyz
1 x,y,z
2 1/2-x,1/2+y,1/2-z
3 -x,-y,-z
4 -1/2+x,-1/2-y,-1/2+z
_cell_length_a 12.3220(12)
_cell_length_b 5.7927(5)
_cell_length_c 13.6791(13)
_cell_angle_alpha 90
_cell_angle_beta 108.19(1)
_cell_angle_gamma 90
_cell_formula_units_Z 4
loop_
_atom_type_symbol
_atom_type_radius_bond
C 0.68
H 0.23
N 0.68
O 0.68
loop_
_atom_site_label
_atom_site_type_symbol
_atom_site_fract_x
_atom_site_fract_y
_atom_site_fract_z
C1 C 0.56784(17) 0.2552(3) 0.23490(15)
H1 H 0.61570 0.39180 0.23770
N1 N 0.64631(17) 0.0450(3) 0.26744(17)
O1 O 0.64003(17) -0.1073(4) 0.20635(16)
O2 O 0.71200(15) 0.0424(3) 0.35376(15)
C2 C 0.50438(16) 0.2858(3) 0.31426(15)
O3 O 0.44385(12) 0.0786(2) 0.31482(11)
H2 H 0.40700 0.09090 0.35520
C3 C 0.58385(18) 0.3311(3) 0.42395(16)
O4 O 0.57020(16) 0.2183(3) 0.49356(12)
C4 C 0.6678(2) 0.5252(4) 0.44409(17)
H3 H 0.62810 0.66930 0.43980
H4 H 0.70740 0.52240 0.39380
H5 H 0.72180 0.50850 0.51160
C5 C 0.4227(2) 0.4896(4) 0.28176(18)
H6 H 0.37750 0.50150 0.32820
H7 H 0.46680 0.63060 0.28780
C6 C 0.3435(2) 0.4682(5) 0.1729(2)
H8 H 0.29640 0.60550 0.15490
H9 H 0.29360 0.33640 0.16800
C7 C 0.4110(3) 0.4386(5) 0.0987(2)
H10 H 0.45630 0.57610 0.09970
H11 H 0.35890 0.41950 0.02960
C8 C 0.4895(2) 0.2298(4) 0.12701(17)
H12 H 0.44430 0.09040 0.12140
H13 H 0.53390 0.21690 0.07990
#END
