
#######################################################################
#
#                 Cambridge Crystallographic Data Centre
#                                CCDC
#
#######################################################################
#
# If this CIF has been generated from an entry in the Cambridge
# Structural Database, then it will include bibliographic, chemical,
# crystal, experimental, refinement or atomic coordinate data resulting
# from the CCDC's data processing and validation procedures.
#
#######################################################################

data_CSD_CIF_ATAWIC01
_audit_creation_date 2011-08-22
_audit_creation_method CSD-ConQuest-V1
_database_code_CSD ATAWIC01
_database_code_depnum_ccdc_archive 'CCDC 794926'
_chemical_formula_sum 'C8 H13 N1 O4'
_chemical_formula_moiety
;
C8 H13 N1 O4
;
_journal_coden_Cambridge 24
_journal_volume 52
_journal_year 2011
_journal_page_first 2910
_journal_name_full 'Tetrahedron Lett. '
loop_
_publ_author_name
"Y.A.Volkova"
"E.B.Averina"
"Y.K.Grishin"
"V.B.Rybakov"
"T.S.Kuznetsova"
"N.S.Zefirov"
_chemical_name_systematic
;
1-((1R,2S)-1-Hydroxy-2-nitrocyclohexyl)ethanone
;
_chemical_melting_point 351
_cell_volume    910.503
_exptl_crystal_colour 'colorless'
_exptl_crystal_density_diffrn 1.366
_exptl_special_details
;
Melting point range 351-352K
polymorph 2

;
_exptl_crystal_description 'prism'
_diffrn_ambient_temperature 295
#These two values have been output from a single CSD field.
_refine_ls_R_factor_gt 0.0502
_refine_ls_wR_factor_gt 0.0502
_symmetry_cell_setting triclinic
_symmetry_space_group_name_H-M 'P -1'
_symmetry_Int_Tables_number 2
loop_
_symmetry_equiv_pos_site_id
_symmetry_equiv_pos_as_xyz
1 x,y,z
2 -x,-y,-z
_cell_length_a 8.263(3)
_cell_length_b 10.893(3)
_cell_length_c 11.262(4)
_cell_angle_alpha 101.04(2)
_cell_angle_beta 110.34(2)
_cell_angle_gamma 97.69(2)
_cell_formula_units_Z 4
loop_
_atom_type_symbol
_atom_type_radius_bond
C 0.68
H 0.23
N 0.68
O 0.68
loop_
_atom_site_label
_atom_site_type_symbol
_atom_site_fract_x
_atom_site_fract_y
_atom_site_fract_z
C1 C 0.2919(3) 0.83587(19) 1.0326(2)
H1 H 0.40310 0.88050 1.10570
N1 N 0.2805(3) 0.8889(2) 0.9171(2)
O1 O 0.1526(3) 0.9322(2) 0.8658(2)
O2 O 0.4026(3) 0.88487(19) 0.88024(19)
C2 C 0.2951(3) 0.6927(2) 0.9944(2)
O3 O 0.1393(2) 0.63119(15) 0.88526(15)
H2 H 0.13510 0.55390 0.86680
C3 C 0.4538(3) 0.6688(2) 0.9614(2)
O4 O 0.4285(2) 0.58980(18) 0.86259(17)
C4 C 0.6393(3) 0.7306(3) 1.0551(2)
H3 H 0.66500 0.69900 1.13210
H4 H 0.65150 0.82180 1.07910
H5 H 0.72020 0.71050 1.01420
C5 C 0.3045(4) 0.6348(3) 1.1106(2)
H6 H 0.29770 0.54350 1.08440
H7 H 0.41750 0.67300 1.18240
C6 C 0.1564(4) 0.6564(3) 1.1578(3)
H8 H 0.04380 0.60890 1.09020
H9 H 0.17310 0.62460 1.23510
C7 C 0.1539(4) 0.7969(3) 1.1900(3)
H10 H 0.26130 0.84270 1.26420
H11 H 0.05440 0.80770 1.21470
C8 C 0.1398(3) 0.8539(2) 1.0753(2)
H12 H 0.14180 0.94460 1.10030
H13 H 0.02850 0.81270 1.00280
C9 C 0.2104(3) 0.1678(2) 0.4670(2)
H14 H 0.10040 0.12210 0.39320
N2 N 0.2215(3) 0.1131(2) 0.5835(2)
O5 O 0.3470(3) 0.0681(2) 0.6343(2)
O6 O 0.1008(3) 0.11735(18) 0.62135(18)
C10 C 0.2022(3) 0.3089(2) 0.5050(2)
O7 O 0.3599(2) 0.36634(15) 0.61516(15)
H15 H 0.36330 0.44290 0.63980
C11 C 0.0445(3) 0.3331(2) 0.5417(3)
O8 O 0.0738(3) 0.41044(17) 0.64258(18)
C12 C -0.1384(3) 0.2705(3) 0.4443(3)
H16 H -0.20870 0.23840 0.48860
H17 H -0.13320 0.20080 0.38010
H18 H -0.19070 0.33200 0.40190
C13 C 0.1962(3) 0.3636(2) 0.3887(2)
H19 H 0.08600 0.32250 0.31500
H20 H 0.19880 0.45450 0.41170
C14 C 0.3504(4) 0.3440(3) 0.3481(3)
H21 H 0.34240 0.38040 0.27460
H22 H 0.46100 0.38780 0.42020
C15 C 0.3482(4) 0.2046(3) 0.3102(3)
H23 H 0.44580 0.19280 0.28340
H24 H 0.23870 0.16060 0.23710
C16 C 0.3644(4) 0.1490(3) 0.4270(3)
H25 H 0.36360 0.05840 0.40370
H26 H 0.47500 0.19170 0.49950
#END
