
#######################################################################
#
#                 Cambridge Crystallographic Data Centre
#                                CCDC
#
#######################################################################
#
# If this CIF has been generated from an entry in the Cambridge
# Structural Database, then it will include bibliographic, chemical,
# crystal, experimental, refinement or atomic coordinate data resulting
# from the CCDC's data processing and validation procedures.
#
#######################################################################

data_CSD_CIF_ATIYUZ
_audit_creation_date 2016-08-24
_audit_creation_method CSD-ConQuest-V1
_database_code_CSD ATIYUZ
_database_code_depnum_ccdc_archive 'CCDC 1484697'
_chemical_formula_sum 'C12 H15 N3 O6'
_chemical_formula_moiety
;
C12 H15 N3 O6
;
_journal_coden_Cambridge 16
_journal_volume 72
_journal_year 2016
_journal_page_first 6455
_journal_name_full 'Tetrahedron '
loop_
_publ_author_name
"N.T.Tzvetkov"
"B.Neumann"
"H.-G.Stammler"
"L.Antonov"
_chemical_name_systematic
;
diethyl (2-amino-3-nitropyridin-4-yl)malonate
;
_cell_volume   1353.032
_exptl_crystal_colour 'yellow'
_exptl_crystal_density_diffrn 1.459
_exptl_crystal_description 'plate'
_diffrn_ambient_temperature 100
#These two values have been output from a single CSD field.
_refine_ls_R_factor_gt 0.0346
_refine_ls_wR_factor_gt 0.0346
_symmetry_cell_setting triclinic
_symmetry_space_group_name_H-M 'P -1'
_symmetry_Int_Tables_number 2
loop_
_symmetry_equiv_pos_site_id
_symmetry_equiv_pos_as_xyz
1 x,y,z
2 -x,-y,-z
_cell_length_a 7.75374(12)
_cell_length_b 13.44109(19)
_cell_length_c 13.9783(3)
_cell_angle_alpha 111.1077(15)
_cell_angle_beta 94.1585(14)
_cell_angle_gamma 91.7057(12)
_cell_formula_units_Z 4
loop_
_atom_type_symbol
_atom_type_radius_bond
C 0.68
H 0.23
N 0.68
O 0.68
loop_
_atom_site_label
_atom_site_type_symbol
_atom_site_fract_x
_atom_site_fract_y
_atom_site_fract_z
O1 O 0.26287(10) 0.54824(6) 0.90970(6)
O2 O 0.34151(10) 0.70471(6) 0.91089(6)
O3 O 0.45861(10) 0.89190(6) 0.80503(6)
O4 O 0.16848(10) 0.87685(6) 0.80629(7)
O5 O 0.33402(10) 0.77910(6) 0.58098(6)
O6 O 0.44387(11) 0.62120(7) 0.56374(7)
N1 N -0.14832(12) 0.53040(8) 0.69628(7)
N2 N -0.06536(13) 0.48408(8) 0.83299(8)
H1 H 0.003(2) 0.4866(12) 0.8860(13)
H2 H -0.175(2) 0.4567(13) 0.8233(12)
N3 N 0.25192(11) 0.61984(7) 0.87412(7)
C1 C -0.02587(13) 0.53891(8) 0.77350(8)
C2 C 0.12839(13) 0.60415(8) 0.78641(8)
C3 C 0.15977(13) 0.65384(8) 0.71617(8)
C4 C 0.03371(14) 0.63867(9) 0.63594(9)
H3 H 0.0463(19) 0.6702(12) 0.5845(12)
C5 C -0.11754(15) 0.57835(9) 0.63088(9)
H4 H -0.206(2) 0.5687(12) 0.5771(12)
C6 C 0.32519(13) 0.72010(8) 0.72196(8)
H5 H 0.4205(18) 0.6966(11) 0.7563(10)
C7 C 0.30398(13) 0.83829(8) 0.78270(8)
C8 C 0.45583(17) 1.00757(9) 0.85211(12)
H6 H 0.378(3) 1.0254(15) 0.9037(15)
H7 H 0.420(3) 1.0308(16) 0.7951(17)
C9 C 0.63398(18) 1.05335(10) 0.89303(12)
H8 H 0.638(2) 1.1310(14) 0.9221(13)
H9 H 0.707(3) 1.0341(16) 0.8404(16)
H10 H 0.669(3) 1.024(2) 0.949(2)
C10 C 0.37605(13) 0.70041(8) 0.61319(8)
C11 C 0.37616(15) 0.76405(9) 0.47636(9)
H11 H 0.4973(19) 0.7455(11) 0.4717(11)
H12 H 0.2987(19) 0.7037(12) 0.4263(11)
C12 C 0.34919(18) 0.86679(10) 0.45974(10)
H13 H 0.386(2) 0.8586(13) 0.3920(13)
H14 H 0.425(2) 0.9243(14) 0.5117(14)
H15 H 0.224(2) 0.8845(13) 0.4636(13)
O7 O 0.82227(11) 0.61090(7) 0.41753(6)
O8 O 0.95237(10) 0.74695(7) 0.40112(6)
O9 O 1.06112(10) 0.94998(6) 0.30791(6)
O10 O 0.78504(11) 0.92807(7) 0.33924(7)
O11 O 0.90607(10) 0.84939(6) 0.08893(6)
O12 O 1.03931(10) 0.69590(6) 0.06007(6)
N4 N 0.43169(12) 0.60425(7) 0.19856(7)
N5 N 0.51893(12) 0.53546(7) 0.31862(7)
H16 H 0.409(2) 0.5135(12) 0.3093(11)
H17 H 0.589(2) 0.5360(12) 0.3692(12)
N6 N 0.83827(11) 0.67398(7) 0.37193(7)
C13 C 0.55908(13) 0.60040(8) 0.26932(8)
C14 C 0.71770(13) 0.66311(8) 0.28471(8)
C15 C 0.75232(13) 0.71615(8) 0.21693(8)
C16 C 0.62316(14) 0.71024(9) 0.14129(9)
H18 H 0.6392(18) 0.7434(11) 0.0921(11)
C17 C 0.46463(14) 0.65744(9) 0.13831(9)
H19 H 0.3745(19) 0.6576(11) 0.0895(12)
C18 C 0.92202(13) 0.77880(8) 0.22250(8)
H20 H 1.0173(18) 0.7481(11) 0.2485(10)
C19 C 0.91108(14) 0.89427(9) 0.29644(8)
C20 C 1.06697(15) 1.06060(9) 0.38052(9)
H21 H 1.085(2) 1.0590(12) 0.4503(13)
H22 H 0.957(2) 1.0901(12) 0.3764(11)
C21 C 1.21544(17) 1.12033(10) 0.35871(11)
H23 H 1.325(2) 1.0893(14) 0.3633(13)
H24 H 1.193(2) 1.1240(15) 0.2860(15)
H25 H 1.227(2) 1.1955(14) 0.4085(13)
C22 C 0.96456(13) 0.76928(8) 0.11475(8)
C23 C 0.93200(15) 0.84446(9) -0.01524(9)
H26 H 1.0484(19) 0.8182(11) -0.0324(11)
H27 H 0.9307(18) 0.9197(12) -0.0105(11)
C24 C 0.78897(16) 0.77622(10) -0.09129(10)
H28 H 0.784(2) 0.7007(13) -0.0924(12)
H29 H 0.674(2) 0.8061(13) -0.0736(13)
H30 H 0.810(2) 0.7732(13) -0.1597(13)
#END
