
#######################################################################
#
#                 Cambridge Crystallographic Data Centre
#                                CCDC
#
#######################################################################
#
# If this CIF has been generated from an entry in the Cambridge
# Structural Database, then it will include bibliographic, chemical,
# crystal, experimental, refinement or atomic coordinate data resulting
# from the CCDC's data processing and validation procedures.
#
#######################################################################

data_CSD_CIF_ATIZAG
_audit_creation_date 2016-08-24
_audit_creation_method CSD-ConQuest-V1
_database_code_CSD ATIZAG
_database_code_depnum_ccdc_archive 'CCDC 1484698'
_chemical_formula_sum 'C12 H15 N3 O6'
_chemical_formula_moiety
;
C12 H15 N3 O6
;
_journal_coden_Cambridge 16
_journal_volume 72
_journal_year 2016
_journal_page_first 6455
_journal_name_full 'Tetrahedron '
loop_
_publ_author_name
"N.T.Tzvetkov"
"B.Neumann"
"H.-G.Stammler"
"L.Antonov"
_chemical_name_systematic
;
diethyl (2-amino-5-nitropyridin-4-yl)malonate
;
_cell_volume    685.015
_exptl_crystal_colour 'yellow'
_exptl_crystal_density_diffrn 1.441
_diffrn_ambient_temperature 100.0
#These two values have been output from a single CSD field.
_refine_ls_R_factor_gt 0.0323
_refine_ls_wR_factor_gt 0.0323
_symmetry_cell_setting triclinic
_symmetry_space_group_name_H-M 'P -1'
_symmetry_Int_Tables_number 2
loop_
_symmetry_equiv_pos_site_id
_symmetry_equiv_pos_as_xyz
1 x,y,z
2 -x,-y,-z
_cell_length_a 8.8532(6)
_cell_length_b 8.8545(6)
_cell_length_c 9.8806(6)
_cell_angle_alpha 69.317(6)
_cell_angle_beta 71.292(6)
_cell_angle_gamma 80.308(6)
_cell_formula_units_Z 2
loop_
_atom_type_symbol
_atom_type_radius_bond
C 0.68
H 0.23
N 0.68
O 0.68
loop_
_atom_site_label
_atom_site_type_symbol
_atom_site_fract_x
_atom_site_fract_y
_atom_site_fract_z
O1 O 0.61862(12) 0.32313(12) 1.08047(10)
O2 O 0.70214(11) 0.07263(11) 1.10791(9)
O3 O 1.13479(10) 0.13051(10) 0.67149(9)
O4 O 1.08334(11) -0.11287(10) 0.67694(9)
O5 O 0.92947(10) -0.23367(10) 1.02927(9)
O6 O 0.71741(11) -0.19277(11) 0.9380(1)
N1 N 0.56047(12) 0.38632(12) 0.67310(11)
N2 N 0.64530(13) 0.32554(13) 0.45138(12)
H1 H 0.583(2) 0.407(2) 0.418(2)
H2 H 0.706(2) 0.273(2) 0.3937(19)
N3 N 0.66341(12) 0.20851(12) 1.03147(11)
C1 C 0.65758(14) 0.29560(14) 0.59063(13)
C2 C 0.76902(14) 0.17427(14) 0.64723(13)
H3 H 0.8365(19) 0.1159(18) 0.5849(17)
C3 C 0.77697(14) 0.14098(13) 0.79100(13)
C4 C 0.67087(14) 0.23380(14) 0.87649(12)
C5 C 0.56945(15) 0.35480(14) 0.81270(13)
H4 H 0.5046(19) 0.4188(19) 0.8689(17)
C6 C 0.90206(14) 0.01821(14) 0.84935(12)
H5 H 0.9392(18) 0.0566(18) 0.9110(16)
C7 C 1.05001(14) 0.00211(14) 0.72218(12)
C8 C 1.28655(16) 0.13314(17) 0.55470(15)
H6 H 1.324(2) 0.020(2) 0.5556(18)
H7 H 1.361(2) 0.187(2) 0.582(2)
C9 C 1.2646(2) 0.23252(19) 0.40327(16)
H8 H 1.187(3) 0.184(3) 0.378(2)
H9 H 1.368(3) 0.235(3) 0.328(2)
H10 H 1.223(3) 0.344(3) 0.407(2)
C10 C 0.83518(14) -0.14692(14) 0.94216(12)
C11 C 0.87376(16) -0.39024(15) 1.13497(14)
H11 H 0.859(2) -0.456(2) 1.0756(18)
H12 H 0.770(2) -0.370(2) 1.2048(19)
C12 C 0.99846(17) -0.46949(15) 1.21638(15)
H13 H 1.005(2) -0.405(2) 1.2766(19)
H14 H 1.102(2) -0.480(2) 1.143(2)
H15 H 0.969(2) -0.582(3) 1.283(2)
#END
