
#######################################################################
#
#                 Cambridge Crystallographic Data Centre
#                                CCDC
#
#######################################################################
#
# If this CIF has been generated from an entry in the Cambridge
# Structural Database, then it will include bibliographic, chemical,
# crystal, experimental, refinement or atomic coordinate data resulting
# from the CCDC's data processing and validation procedures.
#
#######################################################################

data_CSD_CIF_ATOJUQ
_audit_creation_date 2016-08-24
_audit_creation_method CSD-ConQuest-V1
_database_code_CSD ATOJUQ
_database_code_depnum_ccdc_archive 'CCDC 1410509'
_chemical_formula_sum 'C12 H10 N2 O2'
_chemical_formula_moiety
;
C12 H10 N2 O2
;
_journal_coden_Cambridge 24
_journal_volume 57
_journal_year 2016
_journal_page_first 4401
_journal_name_full 'Tetrahedron Lett. '
loop_
_publ_author_name
"E.Csimbok"
"D.Takacs"
"J.A.Balog"
"O.Egyed"
"N.V.May-Nagy"
"G.M.Keseru"
_chemical_name_systematic
;
3-phenyl-5,6-dihydro[1,2]oxazolo[3,4-c]pyridin-7(4H)-one
;
_chemical_name_common
;
3-phenyl-5,6-dihydroisoxazolo[3,4-c]pyridin-7(4H)-one
;
_chemical_melting_point 557.15
_cell_volume   2036.676
_exptl_crystal_colour 'colorless'
_exptl_crystal_density_diffrn 1.397
_exptl_crystal_description 'Prism'
_exptl_crystal_preparation 'ethanol'
_diffrn_ambient_temperature 103
#These two values have been output from a single CSD field.
_refine_ls_R_factor_gt 0.0877
_refine_ls_wR_factor_gt 0.0877
_symmetry_cell_setting monoclinic
_symmetry_space_group_name_H-M 'C 2/c'
_symmetry_Int_Tables_number 15
loop_
_symmetry_equiv_pos_site_id
_symmetry_equiv_pos_as_xyz
1 x,y,z
2 -x,y,1/2-z
3 1/2+x,1/2+y,z
4 1/2-x,1/2+y,1/2-z
5 -x,-y,-z
6 x,-y,-1/2+z
7 -1/2-x,-1/2-y,-z
8 -1/2+x,-1/2-y,-1/2+z
_cell_length_a 12.5507(17)
_cell_length_b 4.9516(9)
_cell_length_c 32.779(6)
_cell_angle_alpha 90
_cell_angle_beta 91.149(3)
_cell_angle_gamma 90
_cell_formula_units_Z 8
loop_
_atom_type_symbol
_atom_type_radius_bond
C 0.68
H 0.23
N 0.68
O 0.68
loop_
_atom_site_label
_atom_site_type_symbol
_atom_site_fract_x
_atom_site_fract_y
_atom_site_fract_z
N1 N 0.3759(2) 0.1848(7) 0.09537(9)
O1 O 0.35074(19) -0.0116(6) 0.12522(7)
C1 C 0.2424(3) -0.0442(8) 0.12653(11)
C2 C 0.0814(3) 0.1937(9) 0.08549(11)
H1 H 0.05220 0.32700 0.10480
H2 H 0.03640 0.02960 0.08620
C3 C 0.0793(3) 0.3139(9) 0.04149(11)
H3 H 0.08180 0.16350 0.02160
H4 H 0.01100 0.41020 0.03700
N2 N 0.1684(2) 0.5034(7) 0.03320(9)
H5 H 0.15420 0.64430 0.01770
C4 C 0.2688(3) 0.4760(9) 0.04759(11)
O2 O 0.3454(2) 0.6168(6) 0.03613(8)
C5 C 0.2038(3) -0.2438(8) 0.15732(10)
C6 C 0.2767(3) -0.4123(9) 0.17876(11)
H6 H 0.35080 -0.39970 0.17370
C7 C 0.2391(3) -0.5994(9) 0.20770(11)
H7 H 0.28820 -0.71410 0.22170
C8 C 0.1308(3) -0.6174(9) 0.21590(11)
H8 H 0.10630 -0.74310 0.23550
C9 C 0.0588(3) -0.4500(9) 0.19515(11)
H9 H -0.01510 -0.46260 0.20060
C10 C 0.0948(3) -0.2618(9) 0.16613(11)
H10 H 0.04510 -0.14670 0.15250
C11 C 0.1942(3) 0.1237(8) 0.0980(1)
C12 C 0.2818(3) 0.2589(9) 0.07989(11)
#END
