
#######################################################################
#
#                 Cambridge Crystallographic Data Centre
#                                CCDC
#
#######################################################################
#
# If this CIF has been generated from an entry in the Cambridge
# Structural Database, then it will include bibliographic, chemical,
# crystal, experimental, refinement or atomic coordinate data resulting
# from the CCDC's data processing and validation procedures.
#
#######################################################################

data_CSD_CIF_ATOJEY
_audit_creation_date 2004-07-02
_audit_creation_method CSD-ConQuest-V1
_database_code_CSD ATOJEY
_database_code_depnum_ccdc_archive 'CCDC 233703'
_database_code_depnum_ccdc_journal 1267/1133
_chemical_formula_sum 'C10 H12 N4 O2'
_chemical_formula_moiety
;
C10 H12 N4 O2
;
_journal_coden_Cambridge 1267
_journal_volume 218
_journal_year 2003
_journal_page_first 525
_journal_name_full 'Z.Kristallogr.-New Cryst.Struct. '
loop_
_publ_author_name
"Hong Ling"
"Wen-Shi Wu"
_chemical_name_systematic
;
Dimethylglyoxime 2-picoloylhydrazone
;
_cell_volume   1062.789
_exptl_crystal_colour 'colorless'
_exptl_crystal_density_diffrn 1.376
_exptl_crystal_description 'prism'
_exptl_crystal_preparation 'ethanol'
_diffrn_ambient_temperature 293
#These two values have been output from a single CSD field.
_refine_ls_R_factor_gt 0.0512
_refine_ls_wR_factor_gt 0.0512
_symmetry_cell_setting monoclinic
_symmetry_space_group_name_H-M 'P 21/c'
_symmetry_Int_Tables_number 14
loop_
_symmetry_equiv_pos_site_id
_symmetry_equiv_pos_as_xyz
1 x,y,z
2 -x,1/2+y,1/2-z
3 -x,-y,-z
4 x,-1/2-y,-1/2+z
_cell_length_a 5.7138(3)
_cell_length_b 25.7705(12)
_cell_length_c 7.3379(4)
_cell_angle_alpha 90
_cell_angle_beta 100.3846(19)
_cell_angle_gamma 90
_cell_formula_units_Z 4
loop_
_atom_type_symbol
_atom_type_radius_bond
C 0.68
H 0.23
N 0.68
O 0.68
loop_
_atom_site_label
_atom_site_type_symbol
_atom_site_fract_x
_atom_site_fract_y
_atom_site_fract_z
O1 O 0.2129(3) 0.39569(6) 0.1815(2)
O2 O 0.8762(3) 0.16875(5) 0.5057(2)
H1 H 1.01330 0.15640 0.55890
N1 N 0.6922(3) 0.48113(6) 0.3326(2)
N2 N 0.5909(3) 0.38082(5) 0.3317(2)
H2 H 0.73070 0.39550 0.38140
N3 N 0.5650(3) 0.32793(5) 0.3422(2)
N4 N 0.9104(3) 0.22237(6) 0.5103(2)
C1 C 0.4719(3) 0.46765(6) 0.2527(2)
C2 C 0.3017(4) 0.50259(7) 0.1735(3)
H3 H 0.14460 0.49110 0.11980
C3 C 0.3612(4) 0.55454(8) 0.1736(3)
H4 H 0.24720 0.57990 0.11790
C4 C 0.5871(4) 0.56897(7) 0.2536(3)
H5 H 0.63450 0.60470 0.25540
C5 C 0.7449(4) 0.53154(8) 0.3330(3)
H6 H 0.90180 0.54210 0.39110
C6 C 0.4109(3) 0.41094(7) 0.2506(2)
C7 C 0.9755(3) 0.32766(8) 0.5208(3)
H7 H 0.96500 0.36460 0.50560
H8 H 1.00450 0.31930 0.65040
H9 H 1.10360 0.31470 0.46530
C8 C 0.7470(3) 0.30332(6) 0.4283(2)
C9 C 0.7212(3) 0.24647(6) 0.4335(2)
C10 C 0.4917(3) 0.22092(7) 0.3537(3)
H10 H 0.50730 0.18400 0.36950
H11 H 0.36840 0.23330 0.41580
H12 H 0.45150 0.22900 0.22410
#END
