
#######################################################################
#
#                 Cambridge Crystallographic Data Centre
#                                CCDC
#
#######################################################################
#
# If this CIF has been generated from an entry in the Cambridge
# Structural Database, then it will include bibliographic, chemical,
# crystal, experimental, refinement or atomic coordinate data resulting
# from the CCDC's data processing and validation procedures.
#
#######################################################################

data_CSD_CIF_ATOKAX
_audit_creation_date 2016-08-24
_audit_creation_method CSD-ConQuest-V1
_database_code_CSD ATOKAX
_database_code_depnum_ccdc_archive 'CCDC 1410510'
_chemical_formula_sum 'C12 H8 N2 O2'
_chemical_formula_moiety
;
C12 H8 N2 O2
;
_journal_coden_Cambridge 24
_journal_volume 57
_journal_year 2016
_journal_page_first 4401
_journal_name_full 'Tetrahedron Lett. '
loop_
_publ_author_name
"E.Csimbok"
"D.Takacs"
"J.A.Balog"
"O.Egyed"
"N.V.May-Nagy"
"G.M.Keseru"
_chemical_name_systematic
;
3-phenyl[1,2]oxazolo[3,4-c]pyridin-7(6H)-one
;
_chemical_name_common
;
3-phenylisoxazolo[3,4-c]pyridin-7(6H)-one
;
_chemical_melting_point 515.15
_cell_volume    470.606
_exptl_crystal_colour 'yellow'
_exptl_crystal_density_diffrn 1.498
_exptl_crystal_description 'needle'
_exptl_crystal_preparation 'methanol/toluene/acetone'
_diffrn_ambient_temperature 103
#These two values have been output from a single CSD field.
_refine_ls_R_factor_gt 0.0901
_refine_ls_wR_factor_gt 0.0901
_symmetry_cell_setting triclinic
_symmetry_space_group_name_H-M 'P -1'
_symmetry_Int_Tables_number 2
loop_
_symmetry_equiv_pos_site_id
_symmetry_equiv_pos_as_xyz
1 x,y,z
2 -x,-y,-z
_cell_length_a 3.9010(5)
_cell_length_b 6.0336(7)
_cell_length_c 20.2341(17)
_cell_angle_alpha 89.215(5)
_cell_angle_beta 84.651(6)
_cell_angle_gamma 82.965(6)
_cell_formula_units_Z 2
loop_
_atom_type_symbol
_atom_type_radius_bond
C 0.68
H 0.23
N 0.68
O 0.68
loop_
_atom_site_label
_atom_site_type_symbol
_atom_site_fract_x
_atom_site_fract_y
_atom_site_fract_z
N1 N -0.1804(9) 0.7436(5) 0.29996(14)
O1 O 0.0207(7) 0.6804(4) 0.24051(11)
C1 C 0.1981(11) 0.4701(6) 0.24616(17)
C2 C 0.2145(11) 0.1980(7) 0.34758(17)
H1 H 0.37300 0.07810 0.32900
C3 C 0.0741(11) 0.1914(7) 0.41020(18)
H2 H 0.13510 0.06310 0.43630
N2 N -0.1577(9) 0.3647(5) 0.43877(14)
H3 H -0.23690 0.34790 0.48050
C4 C -0.2739(12) 0.5591(7) 0.40789(18)
O2 O -0.4865(8) 0.7054(5) 0.43546(12)
C5 C 0.4129(10) 0.3874(6) 0.18757(16)
C6 C 0.4834(10) 0.5303(7) 0.13411(17)
H4 H 0.39250 0.68370 0.13680
C7 C 0.6830(11) 0.4506(7) 0.07784(18)
H5 H 0.72330 0.54860 0.04160
C8 C 0.8262(11) 0.2281(7) 0.07346(18)
H6 H 0.96580 0.17360 0.03470
C9 C 0.7614(11) 0.0871(7) 0.12677(18)
H7 H 0.85840 -0.06520 0.12440
C10 C 0.5580(11) 0.1648(6) 0.18324(18)
H8 H 0.51690 0.06590 0.21930
C11 C 0.1157(11) 0.3938(7) 0.30966(17)
C12 C -0.1160(11) 0.5688(7) 0.33952(17)
#END
