
#######################################################################
#
#                 Cambridge Crystallographic Data Centre
#                                CCDC
#
#######################################################################
#
# If this CIF has been generated from an entry in the Cambridge
# Structural Database, then it will include bibliographic, chemical,
# crystal, experimental, refinement or atomic coordinate data resulting
# from the CCDC's data processing and validation procedures.
#
#######################################################################

data_CSD_CIF_ATOPOP
_audit_creation_date 2011-09-07
_audit_creation_method CSD-ConQuest-V1
_database_code_CSD ATOPOP
_database_code_depnum_ccdc_archive 'CCDC 743289'
_chemical_formula_sum 'C15 H14 N2 O2'
_chemical_formula_moiety
;
C15 H14 N2 O2
;
_journal_coden_Cambridge 315
_journal_volume 75
_journal_year 2010
_journal_page_first 1492
_journal_name_full 'Spectrochim.Acta,Part A '
loop_
_publ_author_name
"A.Karakas"
"H.Unver"
_chemical_name_systematic
;
(E)-2,6-Dimethyl-N-(4-nitrobenzylidene)aniline
;
_cell_volume   1380.662
_exptl_crystal_density_diffrn 1.223
_diffrn_ambient_temperature 305
#These two values have been output from a single CSD field.
_refine_ls_R_factor_gt 0.0589
_refine_ls_wR_factor_gt 0.0589
_symmetry_cell_setting monoclinic
_symmetry_space_group_name_H-M 'P 21/c'
_symmetry_Int_Tables_number 14
loop_
_symmetry_equiv_pos_site_id
_symmetry_equiv_pos_as_xyz
1 x,y,z
2 -x,1/2+y,1/2-z
3 -x,-y,-z
4 x,-1/2-y,-1/2+z
_cell_length_a 7.434(3)
_cell_length_b 27.521(7)
_cell_length_c 7.500(3)
_cell_angle_alpha 90
_cell_angle_beta 115.87(5)
_cell_angle_gamma 90
_cell_formula_units_Z 4
loop_
_atom_type_symbol
_atom_type_radius_bond
C 0.68
H 0.23
N 0.68
O 0.68
loop_
_atom_site_label
_atom_site_type_symbol
_atom_site_fract_x
_atom_site_fract_y
_atom_site_fract_z
C1 C 0.75312(4) 0.013030(9) 0.66009(4)
C2 C 0.76257(5) 0.003096(12) 0.48416(6)
H1 H 0.80237(5) -0.027412(12) 0.46158(6)
C3 C 0.71242(5) 0.038858(13) 0.34258(5)
H2 H 0.72293(5) 0.032969(13) 0.22538(5)
C4 C 0.64541(4) 0.084236(10) 0.37454(4)
C5 C 0.63919(5) 0.091476(12) 0.55207(5)
H3 H 0.59560(5) 0.121433(12) 0.57542(5)
C6 C 0.69400(6) 0.056791(13) 0.69729(5)
H4 H 0.69065(6) 0.063134(13) 0.81760(5)
C7 C 0.58873(5) 0.121970(12) 0.22199(6)
H5 H 0.5271(8) 0.1517(2) 0.2500(8)
C8 C 0.54341(5) 0.156068(11) -0.07878(4)
C9 C 0.34893(5) 0.159618(14) -0.22137(5)
C10 C 0.30526(8) 0.19496(2) -0.36663(7)
H6 H 0.17510(8) 0.19768(2) -0.46534(7)
C11 C 0.44716(10) 0.22555(2) -0.36832(7)
H7 H 0.41358(10) 0.24956(2) -0.46478(7)
C12 C 0.63677(8) 0.22098(2) -0.22972(7)
H8 H 0.73372(8) 0.24165(2) -0.23411(7)
C13 C 0.69255(7) 0.186654(13) -0.08106(6)
C14 C 0.90362(8) 0.18044(2) 0.07051(11)
H9 H 0.91032(8) 0.15478(2) 0.15993(11)
H10 H 0.95008(8) 0.21016(2) 0.14328(11)
H11 H 0.98622(8) 0.17238(2) 0.00584(11)
C15 C 0.19235(9) 0.12551(3) -0.22334(11)
H12 H 0.06661(9) 0.13332(3) -0.33238(11)
H13 H 0.18057(9) 0.12844(3) -0.10132(11)
H14 H 0.22901(9) 0.09280(3) -0.23760(11)
N1 N 0.80447(4) -0.025966(14) 0.80997(5)
N2 N 0.59997(5) 0.117459(10) 0.06170(4)
O1 O 0.78889(6) -0.018238(15) 0.96174(5)
O2 O 0.86303(7) -0.064508(14) 0.77501(8)
#END
