
#######################################################################
#
#                 Cambridge Crystallographic Data Centre
#                                CCDC
#
#######################################################################
#
# If this CIF has been generated from an entry in the Cambridge
# Structural Database, then it will include bibliographic, chemical,
# crystal, experimental, refinement or atomic coordinate data resulting
# from the CCDC's data processing and validation procedures.
#
#######################################################################

data_CSD_CIF_ATUHAA
_audit_creation_date 2016-08-25
_audit_creation_method CSD-ConQuest-V1
_database_code_CSD ATUHAA
_database_code_depnum_ccdc_archive 'CCDC 1419792'
_chemical_formula_sum 'C5 H11 N3 O2'
_chemical_formula_moiety
;
C5 H11 N3 O2
;
_journal_coden_Cambridge 1564
_journal_volume 80
_journal_year 2015
_journal_page_first 1607
_journal_name_full 'ChemPlusChem '
loop_
_publ_author_name
"M.Ya Demakova"
"D.S.Bolotin"
"N.A.Bokach"
"R.M.Islamova"
"G.L.Starova"
"V.Yu.Kukushkin"
_chemical_name_systematic
;
N'-hydroxymorpholine-4-carboximidamide
;
_cell_volume    690.947
_exptl_crystal_colour 'colorless'
_exptl_crystal_density_diffrn 1.396
_exptl_crystal_description 'prism'
_diffrn_ambient_temperature 100
#These two values have been output from a single CSD field.
_refine_ls_R_factor_gt 0.0347
_refine_ls_wR_factor_gt 0.0347
_symmetry_cell_setting monoclinic
_symmetry_space_group_name_H-M 'P 21/c'
_symmetry_Int_Tables_number 14
loop_
_symmetry_equiv_pos_site_id
_symmetry_equiv_pos_as_xyz
1 x,y,z
2 -x,1/2+y,1/2-z
3 -x,-y,-z
4 x,-1/2-y,-1/2+z
_cell_length_a 14.2173(19)
_cell_length_b 4.7886(5)
_cell_length_c 10.1522(9)
_cell_angle_alpha 90
_cell_angle_beta 91.459(9)
_cell_angle_gamma 90
_cell_formula_units_Z 4
loop_
_atom_type_symbol
_atom_type_radius_bond
C 0.68
H 0.23
N 0.68
O 0.68
loop_
_atom_site_label
_atom_site_type_symbol
_atom_site_fract_x
_atom_site_fract_y
_atom_site_fract_z
N1 N 0.24972(6) 0.6583(2) 0.42106(8)
O1 O 0.42024(6) 0.35063(18) 0.38703(8)
N2 N 0.12820(6) 0.8624(2) 0.29802(9)
O2 O 0.02933(5) 0.94032(19) 0.31036(8)
N3 N 0.09924(7) 0.6867(2) 0.51040(9)
C1 C 0.26508(8) 0.3822(2) 0.48311(11)
H1 H 0.23930 0.23710 0.42610
H2 H 0.23300 0.37450 0.56620
C2 C 0.30544(8) 0.6892(3) 0.30163(11)
H3 H 0.29950 0.87840 0.26830
H4 H 0.28190 0.56250 0.23390
C3 C 0.15554(7) 0.7410(2) 0.40771(10)
C4 C 0.36973(8) 0.3331(3) 0.50684(11)
H5 H 0.39420 0.47110 0.56870
H6 H 0.37930 0.15000 0.54570
C5 C 0.40843(8) 0.6251(3) 0.33336(11)
H7 H 0.44430 0.64100 0.25370
H8 H 0.43290 0.76130 0.39610
H9 H 0.0239(13) 1.099(4) 0.2678(18)
H10 H 0.0430(12) 0.765(4) 0.5040(16)
H11 H 0.1245(11) 0.674(3) 0.5904(16)
#END
