
#######################################################################
#
#                 Cambridge Crystallographic Data Centre
#                                CCDC
#
#######################################################################
#
# If this CIF has been generated from an entry in the Cambridge
# Structural Database, then it will include bibliographic, chemical,
# crystal, experimental, refinement or atomic coordinate data resulting
# from the CCDC's data processing and validation procedures.
#
#######################################################################

data_CSD_CIF_ATUJIK
_audit_creation_date 2016-08-25
_audit_creation_method CSD-ConQuest-V1
_database_code_CSD ATUJIK
_database_code_depnum_ccdc_archive 'CCDC 1434598'
_chemical_formula_sum 'C12 H15 N5 O4'
_chemical_formula_moiety
;
C12 H15 N5 O4
;
_journal_coden_Cambridge 187
_journal_volume 920
_journal_year 2016
_journal_page_first 86
_journal_name_full 'Anal.Chim.Acta '
loop_
_publ_author_name
"Xiang-Jian Cao"
"Li-Na Chen"
"Xuan Zhang"
"Jin-Ting Liu"
"Ming-Yu Chen"
"Qiu-Rong Wu"
"Jun-Ying Miao"
"Bao-Xiang Zhao"
_chemical_name_systematic
;
N-(2-(morpholin-4-yl)ethyl)-7-nitro-2,1,3-benzoxadiazol-4-amine
;
_cell_volume   2692.761
_exptl_crystal_density_diffrn 1.457
_diffrn_ambient_temperature 298.1
#These two values have been output from a single CSD field.
_refine_ls_R_factor_gt 0.0358
_refine_ls_wR_factor_gt 0.0358
_symmetry_cell_setting orthorhombic
_symmetry_space_group_name_H-M 'P c a b'
_symmetry_Int_Tables_number 61
loop_
_symmetry_equiv_pos_site_id
_symmetry_equiv_pos_as_xyz
1 x,y,z
2 -x,1/2-y,1/2+z
3 1/2+x,-y,1/2-z
4 1/2-x,1/2+y,-z
5 -x,-y,-z
6 x,-1/2+y,-1/2-z
7 -1/2-x,y,-1/2+z
8 -1/2+x,-1/2-y,z
_cell_length_a 9.5339(10)
_cell_length_b 11.8548(13)
_cell_length_c 23.825(3)
_cell_angle_alpha 90
_cell_angle_beta 90
_cell_angle_gamma 90
_cell_formula_units_Z 8
loop_
_atom_type_symbol
_atom_type_radius_bond
C 0.68
H 0.23
N 0.68
O 0.68
loop_
_atom_site_label
_atom_site_type_symbol
_atom_site_fract_x
_atom_site_fract_y
_atom_site_fract_z
C1 C 1.0924(2) 0.10046(14) 0.30603(7)
H1 H 1.04070 0.09630 0.34100
H2 H 1.18220 0.06360 0.31160
C2 C 1.0123(2) 0.03998(15) 0.26105(7)
H3 H 0.99870 -0.03810 0.27200
H4 H 0.92060 0.07440 0.25690
C3 C 1.1056(2) 0.15897(15) 0.19345(8)
H5 H 1.01540 0.19530 0.18830
H6 H 1.15560 0.16200 0.15800
C4 C 1.1874(2) 0.22147(15) 0.23717(7)
H7 H 1.27960 0.18770 0.24100
H8 H 1.19980 0.29920 0.22540
C5 C 1.20112(18) 0.27631(14) 0.33347(7)
H9 H 1.23030 0.34880 0.31860
H10 H 1.28500 0.23210 0.34020
C6 C 1.12719(18) 0.29529(14) 0.38873(7)
H11 H 1.07860 0.22680 0.39950
H12 H 1.19620 0.31210 0.41750
C7 C 0.93855(17) 0.41196(12) 0.42707(6)
C8 C 0.92786(18) 0.35282(14) 0.47737(7)
H13 H 0.98680 0.29160 0.48360
C9 C 0.83098(19) 0.38306(14) 0.51866(7)
H14 H 0.82930 0.34090 0.55160
C10 C 0.73872(18) 0.47036(13) 0.51392(7)
C11 C 0.74263(17) 0.53439(13) 0.46364(7)
C12 C 0.84232(17) 0.50514(13) 0.42165(6)
N1 N 0.64328(16) 0.49653(14) 0.55822(6)
N2 N 0.66853(18) 0.62134(13) 0.44610(7)
N3 N 0.82977(17) 0.57347(12) 0.37870(6)
N4 N 1.02698(14) 0.38739(11) 0.38547(5)
H15 H 1.02460 0.42770 0.35550
N5 N 1.11565(14) 0.21875(10) 0.29131(5)
O1 O 1.08432(14) 0.04399(10) 0.20895(5)
O2 O 0.64534(17) 0.44011(15) 0.60129(6)
O3 O 0.56226(15) 0.57628(12) 0.55140(6)
O4 O 0.72302(16) 0.64500(11) 0.39337(6)
#END
