
#######################################################################
#
#                 Cambridge Crystallographic Data Centre
#                                CCDC
#
#######################################################################
#
# If this CIF has been generated from an entry in the Cambridge
# Structural Database, then it will include bibliographic, chemical,
# crystal, experimental, refinement or atomic coordinate data resulting
# from the CCDC's data processing and validation procedures.
#
#######################################################################

data_CSD_CIF_ATUSEP
_audit_creation_date 2016-08-25
_audit_creation_method CSD-ConQuest-V1
_database_code_CSD ATUSEP
_database_code_depnum_ccdc_archive 'CCDC 886825'
_chemical_formula_sum 'C35 H27 N5 O3'
_chemical_formula_moiety
;
C35 H27 N5 O3
;
_journal_coden_Cambridge 574
_journal_volume 128
_journal_year 2016
_journal_page_first 149
_journal_name_full 'Dyes Pigm. '
loop_
_publ_author_name
"Jie Liu"
"Yingzhong Zhu"
"Xiaohe Tian"
"Fei Li"
"Wentao Xu"
"Yujin Zhang"
"Chuankui Wang"
"Jun Zhang"
"Hongping Zhou"
"Jieying Wu"
"Yupeng Tian"
_chemical_name_systematic
;
4-ethoxy-N-(4-nitrophenyl)-N-(4-(2,2':6',2''-terpyridin-4'-yl)phenyl)aniline
;
_cell_volume   2906.854
_exptl_crystal_density_diffrn 1.292
_diffrn_ambient_temperature 298
#These two values have been output from a single CSD field.
_refine_ls_R_factor_gt 0.0622
_refine_ls_wR_factor_gt 0.0622
_symmetry_cell_setting monoclinic
_symmetry_space_group_name_H-M 'P 21/c'
_symmetry_Int_Tables_number 14
loop_
_symmetry_equiv_pos_site_id
_symmetry_equiv_pos_as_xyz
1 x,y,z
2 -x,1/2+y,1/2-z
3 -x,-y,-z
4 x,-1/2-y,-1/2+z
_cell_length_a 15.012(5)
_cell_length_b 9.772(5)
_cell_length_c 20.117(5)
_cell_angle_alpha 90
_cell_angle_beta 99.935(5)
_cell_angle_gamma 90
_cell_formula_units_Z 4
loop_
_atom_type_symbol
_atom_type_radius_bond
C 0.68
H 0.23
N 0.68
O 0.68
loop_
_atom_site_label
_atom_site_type_symbol
_atom_site_fract_x
_atom_site_fract_y
_atom_site_fract_z
N1 N 0.50089(14) 0.0031(2) 0.68181(11)
C1 C 0.80180(18) 0.2645(3) 0.91733(13)
H1 H 0.74620 0.30720 0.91600
N2 N 0.95590(15) 0.2415(3) 0.97111(11)
C2 C 0.57931(17) 0.0410(3) 0.72793(13)
C3 C 0.73260(16) 0.1208(3) 0.82013(13)
C4 C 0.87464(18) 0.3003(3) 0.96654(13)
C5 C 0.73715(17) 0.1001(3) 0.75231(13)
H2 H 0.79210 0.11120 0.73760
C6 C 0.8653(2) 0.4066(3) 1.01753(14)
C7 C 0.50103(17) -0.2565(3) 0.51740(13)
C8 C 0.64960(17) 0.1018(3) 0.84032(13)
H3 H 0.64460 0.11720 0.88520
C9 C 0.50219(16) -0.0842(3) 0.62702(13)
C10 C 0.57450(17) 0.0607(3) 0.79548(13)
H4 H 0.52010 0.04600 0.81060
N3 N 0.50195(17) -0.3441(3) 0.45933(12)
C11 C 0.81200(16) 0.1651(3) 0.87015(13)
C12 C 0.66159(17) 0.0634(3) 0.70665(13)
H5 H 0.66560 0.05360 0.66130
C13 C 0.3572(2) -0.0395(3) 0.71781(16)
H6 H 0.37560 -0.12920 0.72750
O1 O 0.43917(16) -0.3360(3) 0.41137(11)
C14 C 0.41420(17) 0.0507(3) 0.69410(14)
O2 O 0.56598(15) -0.4227(3) 0.45960(12)
C15 C 0.43271(18) -0.1621(3) 0.51636(13)
H7 H 0.38660 -0.15610 0.47910
C16 C 0.56893(17) -0.1847(3) 0.62777(14)
H8 H 0.61400 -0.19400 0.66550
C17 C 0.56845(18) -0.2695(3) 0.57320(14)
H9 H 0.61330 -0.33530 0.57380
C18 C 0.89712(17) 0.1065(3) 0.87386(13)
H10 H 0.90740 0.04140 0.84230
N4 N 1.07153(17) -0.0067(3) 0.88574(16)
C19 C 0.96692(17) 0.1463(3) 0.92530(14)
C20 C 0.43314(17) -0.0769(3) 0.57068(13)
H11 H 0.38690 -0.01340 0.57000
C21 C 1.05823(18) 0.0827(3) 0.93319(15)
N5 N 0.78474(18) 0.4648(3) 1.01347(15)
C22 C 0.0183(2) 0.2393(5) 0.7308(2)
H12 H -0.02680 0.18320 0.70410
H13 H 0.00750 0.33360 0.71860
H14 H 0.01530 0.22730 0.77770
C23 C 0.2451(2) 0.1336(5) 0.71386(19)
C24 C 0.9376(2) 0.4439(4) 1.06647(16)
H15 H 0.99400 0.40300 1.06830
C25 C 0.3876(2) 0.1837(3) 0.68125(16)
H16 H 0.42660 0.24570 0.66600
C26 C 1.1253(2) 0.1163(4) 0.98663(18)
H17 H 1.11390 0.17840 1.01920
C27 C 0.1054(3) 0.2004(13) 0.7189(3)
H18 H 0.08310 0.13750 0.68260
H19 H 0.11590 0.28400 0.69540
C28 C 0.3028(3) 0.2256(4) 0.69100(18)
H20 H 0.28470 0.31570 0.68220
C29 C 0.2728(2) 0.0022(4) 0.7273(2)
H21 H 0.23430 -0.05990 0.74310
O3 O 0.1620(3) 0.1720(6) 0.7240(2)
C30 C 1.2240(2) -0.0329(5) 0.9436(2)
H22 H 1.28060 -0.07300 0.94550
C31 C 0.8414(3) 0.6025(4) 1.1090(2)
H23 H 0.83100 0.66900 1.13980
C32 C 1.2088(2) 0.0572(5) 0.9912(2)
H24 H 1.25470 0.07890 1.02690
C33 C 0.9243(3) 0.5431(4) 1.11236(19)
H25 H 0.97200 0.56970 1.14580
C34 C 1.1541(2) -0.0641(5) 0.8922(2)
H26 H 1.16430 -0.12830 0.86030
C35 C 0.7750(3) 0.5607(4) 1.0589(2)
H27 H 0.71850 0.60160 1.05600
#END
