
#######################################################################
#
#                 Cambridge Crystallographic Data Centre
#                                CCDC
#
#######################################################################
#
# If this CIF has been generated from an entry in the Cambridge
# Structural Database, then it will include bibliographic, chemical,
# crystal, experimental, refinement or atomic coordinate data resulting
# from the CCDC's data processing and validation procedures.
#
#######################################################################

data_CSD_CIF_ATUSAL
_audit_creation_date 2016-08-25
_audit_creation_method CSD-ConQuest-V1
_database_code_CSD ATUSAL
_database_code_depnum_ccdc_archive 'CCDC 886826'
_chemical_formula_sum 'C33 H23 N5 O2'
_chemical_formula_moiety
;
C33 H23 N5 O2
;
_journal_coden_Cambridge 574
_journal_volume 128
_journal_year 2016
_journal_page_first 149
_journal_name_full 'Dyes Pigm. '
loop_
_publ_author_name
"Jie Liu"
"Yingzhong Zhu"
"Xiaohe Tian"
"Fei Li"
"Wentao Xu"
"Yujin Zhang"
"Chuankui Wang"
"Jun Zhang"
"Hongping Zhou"
"Jieying Wu"
"Yupeng Tian"
_chemical_name_systematic
;
4-nitro-N-phenyl-N-(4-(2,2':6',2''-terpyridin-4'-yl)phenyl)aniline
;
_cell_volume   2670.794
_exptl_crystal_density_diffrn 1.297
_diffrn_ambient_temperature 298
#These two values have been output from a single CSD field.
_refine_ls_R_factor_gt 0.0449
_refine_ls_wR_factor_gt 0.0449
_symmetry_cell_setting monoclinic
_symmetry_space_group_name_H-M 'P 21/c'
_symmetry_Int_Tables_number 14
loop_
_symmetry_equiv_pos_site_id
_symmetry_equiv_pos_as_xyz
1 x,y,z
2 -x,1/2+y,1/2-z
3 -x,-y,-z
4 x,-1/2-y,-1/2+z
_cell_length_a 15.407(5)
_cell_length_b 9.437(5)
_cell_length_c 19.042(5)
_cell_angle_alpha 90
_cell_angle_beta 105.277(5)
_cell_angle_gamma 90
_cell_formula_units_Z 4
loop_
_atom_type_symbol
_atom_type_radius_bond
C 0.68
H 0.23
N 0.68
O 0.68
loop_
_atom_site_label
_atom_site_type_symbol
_atom_site_fract_x
_atom_site_fract_y
_atom_site_fract_z
N1 N 1.00597(10) 0.03954(18) 0.81886(8)
N2 N 1.01463(12) -0.34304(19) 1.04687(9)
C1 C 0.92518(12) 0.0788(2) 0.7668(1)
C2 C 1.08059(13) -0.0570(2) 0.93729(10)
H1 H 1.12770 0.00650 0.94070
O1 O 1.08272(11) -0.34870(18) 1.09786(8)
C3 C 0.76834(13) 0.1405(2) 0.73727(11)
H2 H 0.71620 0.15470 0.75220
O2 O 0.94796(11) -0.41688(18) 1.04363(8)
C4 C 1.00700(12) -0.0553(2) 0.87545(9)
C5 C 0.76548(12) 0.1557(2) 0.66386(11)
N3 N 0.52086(12) 0.2587(2) 0.50461(10)
C6 C 1.01307(13) -0.2437(2) 0.98816(10)
C7 C 0.68079(13) 0.1929(2) 0.60925(11)
C8 C 1.09075(12) 0.0849(2) 0.80783(10)
C9 C 0.93987(13) -0.2458(2) 0.92757(10)
H3 H 0.89300 -0.30960 0.92470
C10 C 0.84497(12) 0.1333(2) 0.64368(11)
H4 H 0.84510 0.14450 0.59520
C11 C 0.93749(13) -0.1523(2) 0.87175(10)
H5 H 0.88870 -0.15370 0.83080
C12 C 0.92351(12) 0.0946(2) 0.69393(10)
H6 H 0.97550 0.07910 0.67900
C13 C 0.59974(14) 0.3121(3) 0.50041(12)
C14 C 0.59867(14) 0.1376(3) 0.61353(12)
H7 H 0.59580 0.07770 0.65170
C15 C 0.84660(13) 0.1050(2) 0.7878(1)
H8 H 0.84720 0.09830 0.83670
C16 C 1.08368(13) -0.1516(2) 0.99294(10)
H9 H 1.13310 -0.15320 1.03340
C17 C 0.52100(13) 0.1726(3) 0.56043(12)
C18 C 1.12052(14) 0.2209(2) 0.82479(11)
H10 H 1.08510 0.28530 0.84180
N4 N 0.67389(15) 0.4647(3) 0.43271(12)
C19 C 1.14163(15) -0.0089(2) 0.78079(13)
H11 H 1.12070 -0.10030 0.76830
C20 C 0.67992(13) 0.2829(2) 0.55115(11)
H12 H 0.73320 0.32320 0.54650
C21 C 1.20317(15) 0.2616(3) 0.81646(12)
H13 H 1.22390 0.35330 0.82860
C22 C 0.43225(15) 0.1140(3) 0.56278(13)
N5 N 0.43299(14) 0.0211(3) 0.61612(13)
C23 C 0.59709(17) 0.4070(3) 0.43680(13)
C24 C 0.35388(15) 0.1533(4) 0.51262(15)
H14 H 0.35560 0.21780 0.47600
C25 C 1.25492(15) 0.1675(3) 0.79043(14)
H15 H 1.31080 0.19500 0.78510
C26 C 1.22382(17) 0.0325(3) 0.77219(17)
H16 H 1.25850 -0.03130 0.75400
C27 C 0.27298(19) 0.0022(4) 0.5700(2)
H17 H 0.21930 -0.03820 0.57360
C28 C 0.3534(2) -0.0333(4) 0.61846(19)
H18 H 0.35240 -0.09870 0.65480
C29 C 0.27382(19) 0.0973(5) 0.51691(19)
H19 H 0.22040 0.12400 0.48380
C30 C 0.6710(2) 0.5479(3) 0.37497(18)
H20 H 0.72450 0.58960 0.37170
C31 C 0.5172(2) 0.4315(4) 0.38499(17)
H21 H 0.46370 0.39160 0.38950
C32 C 0.5961(3) 0.5753(4) 0.32135(19)
H22 H 0.59800 0.63300 0.28220
C33 C 0.5186(3) 0.5164(5) 0.3265(2)
H23 H 0.46570 0.53300 0.29040
#END
