
#######################################################################
#
#                 Cambridge Crystallographic Data Centre
#                                CCDC
#
#######################################################################
#
# If this CIF has been generated from an entry in the Cambridge
# Structural Database, then it will include bibliographic, chemical,
# crystal, experimental, refinement or atomic coordinate data resulting
# from the CCDC's data processing and validation procedures.
#
#######################################################################

data_CSD_CIF_ATYRAN
_audit_creation_date 1976-09-20
_audit_creation_method CSD-ConQuest-V1
_database_code_CSD ATYRAN
_chemical_formula_sum 'C17 H17 N3 O5'
_chemical_formula_moiety
;
C17 H17 N3 O5
;
_journal_coeditor_code "IUCr A13397"
_journal_coden_Cambridge 107
_journal_volume 32
_journal_year 1976
_journal_page_first 1574
_journal_name_full 'Acta Crystallogr.,Sect.B:Struct.Crystallogr.Cryst.Chem. '
loop_
_publ_author_name
"A.G.Michel"
"F.Durant"
_chemical_name_systematic
;
N-Acetyl-L-tyrosine-p-nitroanilide
;
_cell_volume   1636.301
_exptl_crystal_density_diffrn 1.393
_diffrn_ambient_temperature ?
_diffrn_special_details
;
The study was carried out at room temperature,in the range 283-303K

;
#These two values have been output from a single CSD field.
_refine_ls_R_factor_gt 0.058
_refine_ls_wR_factor_gt 0.058
_symmetry_cell_setting orthorhombic
_symmetry_space_group_name_H-M 'P 21 21 21'
_symmetry_Int_Tables_number 19
loop_
_symmetry_equiv_pos_site_id
_symmetry_equiv_pos_as_xyz
1 x,y,z
2 1/2+x,1/2-y,-z
3 -x,1/2+y,1/2-z
4 1/2-x,-y,1/2+z
_cell_length_a 15.621
_cell_length_b 19.941
_cell_length_c 5.253
_cell_angle_alpha 90
_cell_angle_beta 90
_cell_angle_gamma 90
_cell_formula_units_Z 4
loop_
_atom_type_symbol
_atom_type_radius_bond
C 0.68
H 0.23
N 0.68
O 0.68
loop_
_atom_site_label
_atom_site_type_symbol
_atom_site_fract_x
_atom_site_fract_y
_atom_site_fract_z
C1 C 0.12080 0.47000 0.01730
C2 C 0.40230 0.69930 -0.02360
C3 C 0.14310 0.79830 0.13230
C4 C 0.12910 0.90990 -0.06090
C5 C 0.16720 0.94580 -0.25890
C6 C 0.16720 1.01540 -0.25770
C7 C 0.12630 1.04740 -0.05830
C8 C 0.08510 1.01330 0.13500
C9 C 0.08650 0.94340 0.13490
C10 C 0.07600 0.51570 -0.13020
C11 C 0.07400 0.58250 -0.06070
C12 C 0.11630 0.60530 0.15580
C13 C 0.16240 0.55900 0.29760
C14 C 0.16480 0.49140 0.23100
C15 C 0.10980 0.67790 0.23440
C16 C 0.16280 0.72530 0.06570
C17 C 0.30830 0.70040 -0.08750
H1 H 0.15300 0.37490 0.06550
H2 H 0.43030 0.65410 -0.04160
H3 H 0.19570 0.92370 -0.36770
H4 H 0.19010 1.04160 -0.40520
H5 H 0.05060 1.04040 0.27160
H6 H 0.05840 0.91760 0.27920
H7 H 0.04060 0.49610 -0.28460
H8 H 0.27730 0.72560 0.25810
H9 H 0.13700 0.81630 -0.25770
H10 H 0.45650 0.72600 -0.14270
H11 H 0.03590 0.61810 -0.14900
H12 H 0.42460 0.70640 0.16670
H13 H 0.18640 0.57520 0.45950
H14 H 0.19360 0.46100 0.34200
H15 H 0.04470 0.69450 0.21320
H16 H 0.12460 0.68160 0.41370
H17 H 0.15290 0.71500 -0.11070
N1 N 0.25480 0.71620 0.09980
N2 N 0.13480 0.83950 -0.07140
N3 N 0.12790 1.12120 -0.04780
O1 O 0.11770 0.40440 -0.05880
O2 O 0.28240 0.68600 -0.30370
O3 O 0.13660 0.81680 0.35280
O4 O 0.09830 1.14900 0.13290
O5 O 0.15790 1.15020 -0.22790
#END
