
#######################################################################
#
#                 Cambridge Crystallographic Data Centre
#                                CCDC
#
#######################################################################
#
# If this CIF has been generated from an entry in the Cambridge
# Structural Database, then it will include bibliographic, chemical,
# crystal, experimental, refinement or atomic coordinate data resulting
# from the CCDC's data processing and validation procedures.
#
#######################################################################

data_CSD_CIF_AVAGOT
_audit_creation_date 2004-07-21
_audit_creation_method CSD-ConQuest-V1
_database_code_CSD AVAGOT
_database_code_depnum_ccdc_archive 'CCDC 214519 (not 214520 as published)'
_chemical_formula_sum 'C15 H20 N2 O2'
_chemical_formula_moiety
;
C15 H20 N2 O2
;
_journal_coden_Cambridge 1291
_journal_year 2004
_journal_page_first 749
_journal_name_full 'Eur.J.Org.Chem. '
loop_
_publ_author_name
"V.A.Reznikov"
"G.I.Roshchupkina"
"D.G.Mazhukin"
"P.A.Petrov"
"S.A.Popov"
"S.V.Fokin"
"G.V.Romanenko"
"T.V.Rybalova"
"Y.V.Gatilov"
"Y.G.Shvedenkov"
"I.G.Irtegova"
"L.A.Shundrin"
"V.I.Ovcharenko"
_chemical_name_systematic
;
2-(1-Hydroxy-4,4,5,5-tetramethylimidazolidin-2-ylidene)-1-phenylethanone
;
_chemical_melting_point 458
_cell_volume   2946.853
_exptl_crystal_colour 'light yellow'
_exptl_crystal_density_diffrn 1.174
_exptl_special_details
;
Melting point range 458-461K

;
_exptl_crystal_description 'prism'
_diffrn_ambient_temperature 298
#These two values have been output from a single CSD field.
_refine_ls_R_factor_gt 0.0512
_refine_ls_wR_factor_gt 0.0512
_symmetry_cell_setting monoclinic
_symmetry_space_group_name_H-M 'P 21/n'
_symmetry_Int_Tables_number 14
loop_
_symmetry_equiv_pos_site_id
_symmetry_equiv_pos_as_xyz
1 x,y,z
2 1/2+x,1/2-y,1/2+z
3 -x,-y,-z
4 -1/2-x,-1/2+y,-1/2-z
_cell_length_a 6.979(1)
_cell_length_b 13.429(2)
_cell_length_c 31.532(5)
_cell_angle_alpha 90
_cell_angle_beta 94.31(1)
_cell_angle_gamma 90
_cell_formula_units_Z 8
loop_
_atom_type_symbol
_atom_type_radius_bond
C 0.68
H 0.23
N 0.68
O 0.68
loop_
_atom_site_label
_atom_site_type_symbol
_atom_site_fract_x
_atom_site_fract_y
_atom_site_fract_z
N1 N 0.8758(4) 0.5946(2) 0.09964(9)
O1 O 0.7568(4) 0.67120(19) 0.08248(8)
H1 H 0.634(8) 0.631(4) 0.0675(16)
C1 C 1.0563(5) 0.5931(2) 0.08619(10)
N2 N 1.1726(4) 0.5526(2) 0.11719(9)
H2 H 1.291(5) 0.539(2) 0.1111(10)
C2 C 1.0637(5) 0.5134(3) 0.15206(10)
C3 C 0.8866(5) 0.5831(3) 0.14665(11)
C4 C 1.1101(5) 0.6256(3) 0.04709(11)
H3 H 1.008(4) 0.650(2) 0.0279(10)
O2 O 1.4313(3) 0.58644(17) 0.06201(7)
C5 C 1.2986(5) 0.6210(2) 0.0366(1)
C6 C 1.3546(5) 0.6575(2) -0.00575(10)
C7 C 1.2370(7) 0.7168(3) -0.03241(13)
H4 H 1.113(5) 0.735(3) -0.0258(11)
C8 C 1.2996(11) 0.7494(4) -0.07098(15)
H5 H 1.199(7) 0.790(4) -0.0865(15)
C9 C 1.4737(12) 0.7213(4) -0.08272(16)
H6 H 1.526(6) 0.743(3) -0.1078(14)
C10 C 1.5936(9) 0.6632(4) -0.05714(16)
H7 H 1.731(6) 0.644(3) -0.0630(12)
C11 C 1.5329(7) 0.6311(3) -0.01840(13)
H8 H 1.617(5) 0.591(3) 0.0001(12)
C12 C 1.0152(8) 0.4044(3) 0.14312(18)
H9 H 0.927(6) 0.395(3) 0.1121(15)
H10 H 0.944(5) 0.380(2) 0.1652(10)
H11 H 1.152(6) 0.366(3) 0.1414(13)
C13 C 1.1829(8) 0.5224(5) 0.19415(14)
H12 H 1.227(6) 0.590(3) 0.1985(13)
H13 H 1.307(7) 0.483(3) 0.1979(13)
H14 H 1.100(6) 0.514(3) 0.2166(13)
C14 C 0.9206(9) 0.6848(4) 0.16781(17)
H15 H 1.049(6) 0.712(3) 0.1609(13)
H16 H 0.926(6) 0.679(3) 0.1993(15)
H17 H 0.811(6) 0.727(3) 0.1581(13)
C15 C 0.6994(7) 0.5390(4) 0.15984(17)
H18 H 0.663(5) 0.478(3) 0.1425(12)
H19 H 0.595(7) 0.583(4) 0.1534(14)
H20 H 0.714(5) 0.528(3) 0.1904(12)
O3 O 0.0981(4) 0.12301(18) 0.13379(8)
H21 H -0.009(5) 0.101(3) 0.1497(11)
N3 N 0.2150(4) 0.0390(2) 0.12965(8)
C16 C 0.4039(5) 0.0512(2) 0.1433(1)
N4 N 0.5067(4) -0.0120(2) 0.12146(8)
H22 H 0.635(5) -0.022(2) 0.1314(10)
C17 C 0.3832(5) -0.0786(2) 0.09431(10)
C18 C 0.1999(5) -0.0125(2) 0.08769(10)
C19 C 0.4746(5) 0.1174(3) 0.17457(10)
H23 H 0.388(4) 0.156(2) 0.1854(9)
O4 O 0.7928(3) 0.06638(16) 0.17213(7)
C20 C 0.6687(5) 0.1252(2) 0.18598(9)
C21 C 0.7432(5) 0.2066(2) 0.21591(10)
C22 C 0.6321(6) 0.2882(3) 0.22517(11)
H24 H 0.499(4) 0.294(2) 0.2119(9)
C23 C 0.7059(8) 0.3623(3) 0.25254(13)
H25 H 0.619(6) 0.417(3) 0.2582(12)
C24 C 0.8886(9) 0.3548(4) 0.27031(13)
H26 H 0.941(5) 0.408(3) 0.2884(12)
C25 C 1.0013(8) 0.2751(4) 0.26127(12)
H27 H 1.135(6) 0.268(3) 0.2736(12)
C26 C 0.9286(6) 0.2011(3) 0.23432(11)
H28 H 1.010(5) 0.141(3) 0.2268(11)
C27 C 0.3496(7) -0.1741(3) 0.11910(16)
H29 H 0.280(5) -0.158(3) 0.1463(13)
H30 H 0.479(6) -0.206(3) 0.1281(11)
H31 H 0.269(5) -0.221(3) 0.1031(11)
C28 C 0.4779(7) -0.1041(4) 0.05395(14)
H32 H 0.513(5) -0.048(3) 0.0393(10)
H33 H 0.381(5) -0.137(2) 0.0335(11)
H34 H 0.581(6) -0.152(3) 0.0615(12)
C29 C 0.2137(8) 0.0644(4) 0.05217(15)
H35 H 0.344(6) 0.102(3) 0.0550(13)
H36 H 0.104(6) 0.109(3) 0.0543(12)
H37 H 0.183(6) 0.031(3) 0.0255(13)
C30 C 0.0127(6) -0.0698(4) 0.08207(18)
H38 H -0.088(5) -0.025(3) 0.0770(11)
H39 H -0.008(6) -0.111(3) 0.1069(14)
H40 H 0.008(6) -0.109(3) 0.0544(15)
#END
