
#######################################################################
#
#                 Cambridge Crystallographic Data Centre
#                                CCDC
#
#######################################################################
#
# If this CIF has been generated from an entry in the Cambridge
# Structural Database, then it will include bibliographic, chemical,
# crystal, experimental, refinement or atomic coordinate data resulting
# from the CCDC's data processing and validation procedures.
#
#######################################################################

data_CSD_CIF_AVAGUZ
_audit_creation_date 2004-07-21
_audit_creation_method CSD-ConQuest-V1
_database_code_CSD AVAGUZ
_database_code_depnum_ccdc_archive 'CCDC 214520 (not 214521 as published)'
_chemical_formula_sum 'C13 H20 N2 O6'
_chemical_formula_moiety
;
C13 H20 N2 O6
;
_journal_coden_Cambridge 1291
_journal_year 2004
_journal_page_first 749
_journal_name_full 'Eur.J.Org.Chem. '
loop_
_publ_author_name
"V.A.Reznikov"
"G.I.Roshchupkina"
"D.G.Mazhukin"
"P.A.Petrov"
"S.A.Popov"
"S.V.Fokin"
"G.V.Romanenko"
"T.V.Rybalova"
"Y.V.Gatilov"
"Y.G.Shvedenkov"
"I.G.Irtegova"
"L.A.Shundrin"
"V.I.Ovcharenko"
_chemical_name_systematic
;
Dimethyl 
2-(1-hydroxy-4,4,5,5-tetramethyl-imidazolidin-2-ylidene)-3-oxo-succinate
;
_chemical_melting_point 398
_cell_volume   3012.470
_exptl_crystal_colour 'colorless'
_exptl_crystal_density_diffrn 1.324
_exptl_special_details
;
Melting point range 398-399K

;
_exptl_crystal_description 'plate'
_diffrn_ambient_temperature 296
#These two values have been output from a single CSD field.
_refine_ls_R_factor_gt 0.0456
_refine_ls_wR_factor_gt 0.0456
_symmetry_cell_setting orthorhombic
_symmetry_space_group_name_H-M 'P b c a'
_symmetry_Int_Tables_number 61
loop_
_symmetry_equiv_pos_site_id
_symmetry_equiv_pos_as_xyz
1 x,y,z
2 1/2+x,y,1/2-z
3 x,1/2-y,1/2+z
4 1/2-x,1/2+y,z
5 -x,-y,-z
6 -1/2-x,-y,-1/2+z
7 -x,-1/2+y,-1/2-z
8 -1/2+x,-1/2-y,-z
_cell_length_a 14.7171(12)
_cell_length_b 12.6034(5)
_cell_length_c 16.2410(7)
_cell_angle_alpha 90
_cell_angle_beta 90
_cell_angle_gamma 90
_cell_formula_units_Z 8
loop_
_atom_type_symbol
_atom_type_radius_bond
C 0.68
H 0.23
N 0.68
O 0.68
loop_
_atom_site_label
_atom_site_type_symbol
_atom_site_fract_x
_atom_site_fract_y
_atom_site_fract_z
O1 O 0.22684(14) 0.40478(16) -0.20274(12)
O2 O 0.06090(14) 0.43367(16) -0.22235(10)
O3 O -0.12619(11) 0.39760(13) -0.14462(10)
O4 O -0.05727(11) 0.25045(13) -0.19044(11)
O5 O -0.02642(12) 0.29033(16) -0.01332(11)
O6 O 0.07786(11) 0.36886(13) 0.06307(9)
N1 N 0.22450(12) 0.47158(15) -0.13401(12)
C1 C 0.16815(13) 0.45170(14) -0.07113(12)
N2 N 0.20265(13) 0.49474(14) -0.00365(13)
C2 C 0.28239(14) 0.56200(17) -0.02295(15)
C3 C 0.31305(14) 0.51278(16) -0.10577(16)
C4 C 0.08289(13) 0.39718(14) -0.07936(12)
C5 C 0.03663(15) 0.39397(17) -0.15460(13)
C6 C -0.05832(16) 0.34802(18) -0.15932(13)
C7 C -0.1443(2) 0.2004(3) -0.2008(2)
C8 C 0.03859(13) 0.34789(15) -0.00855(12)
C9 C 0.0366(3) 0.3227(3) 0.13546(17)
C10 C 0.3510(2) 0.5599(3) 0.0456(3)
C11 C 0.2466(2) 0.6761(2) -0.0345(2)
C12 C 0.3776(2) 0.4186(3) -0.0956(3)
C13 C 0.3528(2) 0.5889(3) -0.1688(3)
H1 H 0.3653(17) 0.480(2) 0.0535(16)
H2 H 0.308(2) 0.646(2) -0.1745(16)
H3 H 0.296(2) 0.724(2) -0.0475(17)
H4 H 0.1716(17) 0.5073(17) 0.0377(16)
H5 H 0.354(2) 0.365(3) -0.052(2)
H6 H 0.437(2) 0.447(3) -0.083(2)
H7 H -0.174(2) 0.188(3) -0.145(2)
H8 H 0.199(2) 0.674(2) -0.086(2)
H9 H -0.133(2) 0.131(3) -0.222(2)
H10 H 0.330(3) 0.597(3) 0.097(3)
H11 H 0.402(2) 0.604(3) 0.029(2)
H12 H 0.412(2) 0.620(3) -0.143(2)
H13 H -0.185(3) 0.244(3) -0.234(3)
H14 H 0.029(2) 0.246(3) 0.133(2)
H15 H 0.220(2) 0.706(3) 0.018(2)
H16 H 0.073(3) 0.344(3) 0.178(3)
H17 H 0.370(3) 0.545(3) -0.221(3)
H18 H 0.382(3) 0.383(4) -0.143(3)
H19? H 0.138(4) 0.416(4) -0.226(3)
H20 H -0.022(4) 0.346(4) 0.143(3)
#END
