
#######################################################################
#
#                 Cambridge Crystallographic Data Centre
#                                CCDC
#
#######################################################################
#
# If this CIF has been generated from an entry in the Cambridge
# Structural Database, then it will include bibliographic, chemical,
# crystal, experimental, refinement or atomic coordinate data resulting
# from the CCDC's data processing and validation procedures.
#
#######################################################################

data_CSD_CIF_AVAHEK
_audit_creation_date 2004-07-21
_audit_creation_method CSD-ConQuest-V1
_database_code_CSD AVAHEK
_database_code_depnum_ccdc_archive 'CCDC 215673'
_chemical_formula_sum 'C28 H45 N6 O4'
_chemical_formula_moiety
;
C28 H45 N6 O4
;
_journal_coden_Cambridge 1291
_journal_year 2004
_journal_page_first 749
_journal_name_full 'Eur.J.Org.Chem. '
loop_
_publ_author_name
"V.A.Reznikov"
"G.I.Roshchupkina"
"D.G.Mazhukin"
"P.A.Petrov"
"S.A.Popov"
"S.V.Fokin"
"G.V.Romanenko"
"T.V.Rybalova"
"Y.V.Gatilov"
"Y.G.Shvedenkov"
"I.G.Irtegova"
"L.A.Shundrin"
"V.I.Ovcharenko"
_chemical_name_systematic
;
2-t-Butyl-3-(1-(2-cyano-2-hydroxy-1-(1-oxyl-4,4,5,5-tetramethyl-4,5-dihydro-1H
-imidazol-2-yl)-3,3-dimethylbutoxy)-4,4,5,5-tetramethyl-4,5-dihydro-1H-imidazo
l-2-yl)oxirane-2-carbonitrile
;
_cell_volume   6428.898
_exptl_crystal_colour 'dark red'
_exptl_crystal_density_diffrn 1.095
_diffrn_ambient_temperature 295
#These two values have been output from a single CSD field.
_refine_ls_R_factor_gt 0.0484
_refine_ls_wR_factor_gt 0.0484
_symmetry_cell_setting monoclinic
_symmetry_space_group_name_H-M 'P 21/c'
_symmetry_Int_Tables_number 14
loop_
_symmetry_equiv_pos_site_id
_symmetry_equiv_pos_as_xyz
1 x,y,z
2 x,1/2-y,1/2+z
3 -x,-y,-z
4 -x,-1/2+y,-1/2-z
_cell_length_a 19.5487(10)
_cell_length_b 18.2587(10)
_cell_length_c 20.3345(10)
_cell_angle_alpha 90
_cell_angle_beta 117.655(1)
_cell_angle_gamma 90
_cell_formula_units_Z 8
loop_
_atom_type_symbol
_atom_type_radius_bond
C 0.68
H 0.23
N 0.68
O 0.68
loop_
_atom_site_label
_atom_site_type_symbol
_atom_site_fract_x
_atom_site_fract_y
_atom_site_fract_z
O1 O 0.16182(13) 0.38181(14) 0.41645(10)
N1 N 0.09035(14) 0.37222(12) 0.39239(11)
C1 C 0.05468(16) 0.35396(14) 0.44064(13)
C2 C 0.0861(4) 0.2795(2) 0.4748(3)
H1 H 0.138(2) 0.283(2) 0.504(2)
H2 H 0.0704(14) 0.2404(14) 0.4362(14)
H3 H 0.060(2) 0.2653(19) 0.502(2)
C3 C 0.0778(3) 0.4120(2) 0.5006(2)
H4 H 0.1270(19) 0.4099(17) 0.5294(18)
H5 H 0.0517(17) 0.4050(15) 0.5300(16)
H6 H 0.0625(18) 0.4666(19) 0.4775(17)
C4 C -0.03238(16) 0.35378(14) 0.38133(14)
C5 C -0.0786(3) 0.2885(2) 0.3844(3)
H7 H -0.127(2) 0.289(2) 0.346(2)
H8 H -0.071(2) 0.279(2) 0.437(2)
H9 H -0.0503(15) 0.2402(16) 0.3791(14)
C6 C -0.0746(2) 0.4241(2) 0.3814(2)
H10 H -0.1248(17) 0.4216(14) 0.3374(16)
H11 H -0.041(2) 0.4659(18) 0.3810(18)
H12 H -0.0788(18) 0.4243(16) 0.4281(17)
N2 N -0.03146(13) 0.35327(10) 0.30809(10)
C7 C 0.03642(16) 0.36645(11) 0.31852(12)
C8 C 0.06147(16) 0.37461(12) 0.25983(13)
H13 H 0.1177(12) 0.3828(10) 0.2857(10)
C9 C 0.02602(16) 0.44398(13) 0.21210(13)
O2 O 0.03788(11) 0.4958(1) 0.26706(9)
H14 H 0.0116(16) 0.5329(15) 0.2512(15)
C10 C -0.0568(2) 0.43284(14) 0.16409(16)
N3 N -0.12113(19) 0.42877(14) 0.12453(16)
C11 C 0.0649(3) 0.46822(16) 0.16293(19)
C12 C 0.0494(5) 0.4128(2) 0.1017(3)
H15 H 0.07830 0.36890 0.12310
H16 H 0.06490 0.43300 0.06710
H17 H -0.00470 0.40150 0.07640
C13 C 0.1512(3) 0.4803(3) 0.2140(4)
H18 H 0.17690 0.43380 0.22800
H19 H 0.15800 0.50630 0.25770
H20 H 0.17290 0.50850 0.18830
C14 C 0.0291(3) 0.54108(18) 0.1257(2)
H21 H 0.04770 0.55400 0.09110
H22 H 0.04320 0.57860 0.16280
H23 H -0.02610 0.53640 0.09990
O3 O 0.04047(9) 0.31100(8) 0.21267(8)
N4 N 0.07167(11) 0.24804(10) 0.25923(10)
C15 C 0.13899(14) 0.21279(13) 0.25623(15)
C16 C 0.12421(19) 0.20640(18) 0.17596(17)
H24 H 0.11930 0.25450 0.15510
H25 H 0.07740 0.17940 0.14780
H26 H 0.16660 0.18130 0.17450
C17 C 0.21287(16) 0.25498(19) 0.3015(2)
H27 H 0.21100 0.30070 0.27740
H28 H 0.25610 0.22680 0.30550
H29 H 0.21830 0.26420 0.35020
C18 C 0.13268(15) 0.13722(14) 0.28916(15)
C19 C 0.1642(2) 0.07299(16) 0.2638(2)
H30 H 0.15840 0.02870 0.28610
H31 H 0.21790 0.08100 0.27850
H32 H 0.13620 0.06880 0.21070
C20 C 0.16909(18) 0.1378(2) 0.37353(16)
H33 H 0.15370 0.09460 0.39020
H34 H 0.15230 0.18040 0.38960
H35 H 0.22430 0.13860 0.39410
N5 N 0.04717(11) 0.12812(10) 0.26081(10)
C21 C 0.01814(13) 0.19181(13) 0.24346(12)
C22 C -0.06521(14) 0.20836(14) 0.21101(12)
H36 H -0.0773(11) 0.2533(11) 0.2237(10)
O4 O -0.11217(9) 0.14836(9) 0.20949(9)
C23 C -0.12089(13) 0.17530(13) 0.14032(13)
C24 C -0.08819(15) 0.12699(14) 0.10479(14)
N6 N -0.06435(16) 0.09259(15) 0.07350(14)
C25 C -0.19846(14) 0.20805(14) 0.08702(14)
C26 C -0.22628(18) 0.2608(2) 0.12699(18)
H37 H -0.19460 0.30400 0.14060
H38 H -0.22290 0.23790 0.17090
H39 H -0.27900 0.27410 0.09480
C27 C -0.19033(17) 0.24852(18) 0.02557(15)
H40 H -0.17220 0.21520 0.00050
H41 H -0.15410 0.28790 0.04670
H42 H -0.23960 0.26790 -0.00920
C28 C -0.25512(18) 0.1437(2) 0.0547(2)
H43 H -0.23360 0.10770 0.03520
H44 H -0.30310 0.16120 0.01560
H45 H -0.26400 0.12210 0.09300
O5 O -0.47997(13) 0.53346(12) 0.09463(10)
N7 N -0.53461(13) 0.51769(11) 0.10875(11)
C29 C -0.61245(15) 0.49313(15) 0.05243(13)
C30 C -0.6428(2) 0.5441(2) -0.01371(17)
H46 H -0.64650 0.59280 0.00200
H47 H -0.69290 0.52790 -0.05000
H48 H -0.60820 0.54390 -0.03510
C31 C -0.5997(2) 0.41703(19) 0.0287(2)
H49 H -0.56530 0.42060 0.00710
H50 H -0.64830 0.39720 -0.00720
H51 H -0.57750 0.38540 0.07130
C32 C -0.65355(15) 0.49296(14) 0.10156(14)
C33 C -0.7068(2) 0.4295(2) 0.0901(2)
H52 H -0.67880 0.38450 0.09740
H53 H -0.74870 0.43100 0.04050
H54 H -0.72690 0.43250 0.12510
C34 C -0.6974(2) 0.5648(2) 0.09452(19)
H55 H -0.71160 0.56760 0.13370
H56 H -0.74300 0.56600 0.04740
H57 H -0.66480 0.60550 0.09810
N8 N -0.59058(12) 0.4921(1) 0.17938(10)
C35 C -0.52782(15) 0.50947(12) 0.17925(12)
C36 C -0.45051(14) 0.51995(12) 0.24593(12)
H58 H -0.4124(12) 0.5281(10) 0.2262(10)
C37 C -0.44974(13) 0.58824(12) 0.29110(12)
O6 O -0.47822(10) 0.64149(9) 0.23476(9)
H59 H -0.4957(18) 0.6835(18) 0.2456(17)
C38 C -0.50469(16) 0.57823(13) 0.32166(13)
N9 N -0.54546(16) 0.57447(13) 0.34753(13)
C39 C -0.36946(15) 0.60990(13) 0.35592(13)
C40 C -0.37517(19) 0.68647(15) 0.38327(16)
H60 H -0.32670 0.69920 0.42480
H61 H -0.41510 0.68710 0.39820
H62 H -0.38720 0.72120 0.34400
C41 C -0.3439(2) 0.55713(16) 0.42230(15)
H63 H -0.29310 0.57020 0.45970
H64 H -0.34340 0.50790 0.40600
H65 H -0.37940 0.56040 0.44260
C42 C -0.31031(18) 0.6116(2) 0.32779(19)
H66 H -0.26360 0.63360 0.36450
H67 H -0.33000 0.63970 0.28280
H68 H -0.29980 0.56250 0.31810
O7 O -0.42912(8) 0.45677(7) 0.29329(7)
N10 N -0.43384(11) 0.39375(10) 0.24929(9)
C43 C -0.35798(14) 0.36229(12) 0.26135(13)
C44 C -0.30163(15) 0.36248(16) 0.34413(14)
H69 H -0.28950 0.41210 0.36130
H70 H -0.25520 0.33730 0.35250
H71 H -0.32470 0.33810 0.37070
C45 C -0.32479(17) 0.40429(15) 0.21847(17)
H72 H -0.30480 0.45040 0.24250
H73 H -0.36460 0.41280 0.16880
H74 H -0.28390 0.37630 0.21700
C46 C -0.38798(14) 0.28361(13) 0.23140(13)
C47 C -0.42248(18) 0.27831(16) 0.14712(14)
H75 H -0.44910 0.23250 0.13060
H76 H -0.38190 0.28130 0.13320
H77 H -0.45820 0.31790 0.12460
C48 C -0.32850(17) 0.22271(15) 0.26727(17)
H78 H -0.35070 0.17670 0.24450
H79 H -0.31340 0.22050 0.31940
H80 H -0.28400 0.23270 0.26040
N11 N -0.45239(11) 0.2722(1) 0.25067(10)
C49 C -0.47267(13) 0.33547(13) 0.26197(11)
C50 C -0.53164(14) 0.35049(14) 0.28605(13)
H81 H -0.5580(11) 0.3945(11) 0.2699(10)
O8 O -0.57864(9) 0.28941(8) 0.28421(8)
C51 C -0.52579(14) 0.31831(12) 0.35542(12)
C52 C -0.45987(16) 0.26971(15) 0.39599(14)
N12 N -0.40836(15) 0.23365(14) 0.43074(14)
C53 C -0.55751(16) 0.35290(15) 0.40306(14)
C54 C -0.4935(2) 0.4004(2) 0.4618(2)
H82 H -0.45420 0.36940 0.49760
H83 H -0.51500 0.43050 0.48640
H84 H -0.47140 0.43100 0.43820
C55 C -0.62749(17) 0.40007(18) 0.35621(17)
H85 H -0.66370 0.37220 0.31450
H86 H -0.61140 0.44230 0.33880
H87 H -0.65150 0.41550 0.38570
C56 C -0.5805(2) 0.2914(2) 0.4402(2)
H88 H -0.61360 0.25730 0.40310
H89 H -0.60740 0.31190 0.46510
H90 H -0.53500 0.26650 0.47550
#END
