
#######################################################################
#
#                 Cambridge Crystallographic Data Centre
#                                CCDC
#
#######################################################################
#
# If this CIF has been generated from an entry in the Cambridge
# Structural Database, then it will include bibliographic, chemical,
# crystal, experimental, refinement or atomic coordinate data resulting
# from the CCDC's data processing and validation procedures.
#
#######################################################################

data_CSD_CIF_AVOJUR02
_audit_creation_date 2011-09-15
_audit_creation_method CSD-ConQuest-V1
_database_code_CSD AVOJUR02
_database_code_depnum_ccdc_archive 'CCDC 774487'
_chemical_formula_sum 'C8 H9 N3 O3'
_chemical_formula_moiety
;
C8 H9 N3 O3
;
_journal_coden_Cambridge 1147
_journal_volume 11
_journal_year 2011
_journal_page_first 2074
_journal_name_full 'Cryst.Growth Des. '
loop_
_publ_author_name
"E.Pindelska"
"L.Dobrzycki"
"K.Wozniak"
"W.Kolodziejski"
_chemical_name_systematic
;
N-(4-Amino-2-nitrophenyl)acetamide
;
_cell_volume    841.684
_exptl_crystal_colour 'red'
_exptl_crystal_density_diffrn 1.54
_exptl_special_details
;
polymorph II

;
_exptl_crystal_description 'prismatic'
_exptl_crystal_preparation 'aqueous ethanol'
_diffrn_ambient_temperature 100
#These two values have been output from a single CSD field.
_refine_ls_R_factor_gt 0.0448
_refine_ls_wR_factor_gt 0.0448
_symmetry_cell_setting monoclinic
_symmetry_space_group_name_H-M 'P 21/n'
_symmetry_Int_Tables_number 14
loop_
_symmetry_equiv_pos_site_id
_symmetry_equiv_pos_as_xyz
1 x,y,z
2 1/2-x,1/2+y,1/2-z
3 -x,-y,-z
4 -1/2+x,-1/2-y,-1/2+z
_cell_length_a 12.7022(11)
_cell_length_b 3.8175(2)
_cell_length_c 17.3647(16)
_cell_angle_alpha 90
_cell_angle_beta 91.632(7)
_cell_angle_gamma 90
_cell_formula_units_Z 4
loop_
_atom_type_symbol
_atom_type_radius_bond
C 0.68
H 0.23
N 0.68
O 0.68
loop_
_atom_site_label
_atom_site_type_symbol
_atom_site_fract_x
_atom_site_fract_y
_atom_site_fract_z
C1 C 0.99564(19) 0.0524(7) 0.26420(14)
C2 C 1.02344(18) 0.1856(7) 0.33755(14)
C3 C 0.95664(19) 0.1689(7) 0.39910(15)
C4 C 0.85732(19) 0.0180(7) 0.38961(14)
C5 C 0.82993(19) -0.1257(7) 0.31736(15)
C6 C 0.89704(19) -0.1088(7) 0.25676(15)
C7 C 1.02071(19) 0.2025(7) 0.12832(14)
C8 C 1.1036(2) 0.2506(8) 0.06892(16)
H1 H 1.17280 0.19050 0.09160
H2 H 1.10400 0.49510 0.05180
H3 H 1.08810 0.09740 0.02480
N1 N 1.05866(16) 0.0919(6) 0.19841(12)
N2 N 1.12590(16) 0.3481(6) 0.35297(13)
N3 N 0.78937(19) -0.0064(8) 0.44998(14)
O1 O 0.92743(14) 0.2604(5) 0.1142(1)
O2 O 1.19962(14) 0.2816(6) 0.31015(11)
O3 O 1.13580(14) 0.5430(6) 0.40876(11)
H4 H 1.130(2) 0.110(8) 0.2021(16)
H5 H 0.978(2) 0.262(9) 0.4468(19)
H6 H 0.764(3) -0.228(9) 0.3103(18)
H7 H 0.877(2) -0.226(8) 0.2106(18)
H8 H 0.799(3) 0.142(10) 0.486(2)
H9 H 0.721(3) -0.076(9) 0.4349(18)
H10? H 1.07040 0.33150 0.02050
H11? H 1.13930 0.02690 0.06030
H12? H 1.15520 0.42460 0.08730
#END
