
#######################################################################
#
#                 Cambridge Crystallographic Data Centre
#                                CCDC
#
#######################################################################
#
# If this CIF has been generated from an entry in the Cambridge
# Structural Database, then it will include bibliographic, chemical,
# crystal, experimental, refinement or atomic coordinate data resulting
# from the CCDC's data processing and validation procedures.
#
#######################################################################

data_CSD_CIF_AVOJUR01
_audit_creation_date 2011-09-15
_audit_creation_method CSD-ConQuest-V1
_database_code_CSD AVOJUR01
_database_code_depnum_ccdc_archive 'CCDC 774486'
_chemical_formula_sum 'C8 H9 N3 O3'
_chemical_formula_moiety
;
C8 H9 N3 O3
;
_journal_coden_Cambridge 1147
_journal_volume 11
_journal_year 2011
_journal_page_first 2074
_journal_name_full 'Cryst.Growth Des. '
loop_
_publ_author_name
"E.Pindelska"
"L.Dobrzycki"
"K.Wozniak"
"W.Kolodziejski"
_chemical_name_systematic
;
N-(4-Amino-2-nitrophenyl)acetamide
;
_cell_volume    908.407
_exptl_crystal_colour 'orange'
_exptl_crystal_density_diffrn 1.427
_exptl_special_details
;
polymorph I
Study temperature given as 100 K in the cif

;
_exptl_crystal_description 'prismatic'
_exptl_crystal_preparation 'aqueous ethanol'
_diffrn_ambient_temperature 293
#These two values have been output from a single CSD field.
_refine_ls_R_factor_gt 0.0361
_refine_ls_wR_factor_gt 0.0361
_symmetry_cell_setting monoclinic
_symmetry_space_group_name_H-M 'P 21/c'
_symmetry_Int_Tables_number 14
loop_
_symmetry_equiv_pos_site_id
_symmetry_equiv_pos_as_xyz
1 x,y,z
2 -x,1/2+y,1/2-z
3 -x,-y,-z
4 x,-1/2-y,-1/2+z
_cell_length_a 7.962(3)
_cell_length_b 24.157(9)
_cell_length_c 4.8805(18)
_cell_angle_alpha 90
_cell_angle_beta 104.597(9)
_cell_angle_gamma 90
_cell_formula_units_Z 4
loop_
_atom_type_symbol
_atom_type_radius_bond
C 0.68
H 0.23
N 0.68
O 0.68
loop_
_atom_site_label
_atom_site_type_symbol
_atom_site_fract_x
_atom_site_fract_y
_atom_site_fract_z
C1 C 0.6307(2) 0.38352(7) 0.7145(3)
C2 C 0.63383(19) 0.33977(6) 0.5301(3)
C3 C 0.7835(2) 0.31063(7) 0.5319(3)
C4 C 0.93826(19) 0.32300(7) 0.7293(3)
C5 C 0.9360(2) 0.36603(8) 0.9194(4)
C6 C 0.7868(2) 0.39557(8) 0.9086(4)
C7 C 0.3781(2) 0.43985(7) 0.4903(3)
C8 C 0.2255(3) 0.47052(9) 0.5434(4)
H1 H 0.25320 0.48340 0.74020
H2 H 0.12470 0.44580 0.50890
H3 H 0.19890 0.50240 0.41580
N1 N 0.48211(19) 0.41539(6) 0.7177(3)
N2 N 0.47533(17) 0.32010(6) 0.3277(3)
N3 N 1.0835(2) 0.29083(8) 0.7456(4)
O1 O 0.40353(19) 0.43709(6) 0.2534(3)
O2 O 0.33779(15) 0.32251(6) 0.3946(3)
O3 O 0.48921(17) 0.30087(6) 0.1030(3)
H4 H 0.461(2) 0.4209(7) 0.874(4)
H5 H 0.776(2) 0.2816(8) 0.398(4)
H6 H 1.039(3) 0.3746(8) 1.055(4)
H7 H 0.791(3) 0.4256(9) 1.039(4)
H8 H 1.087(2) 0.2721(9) 0.585(4)
H9 H 1.177(3) 0.3056(9) 0.833(5)
H10? H 0.13140 0.47110 0.36970
H11? H 0.25990 0.50860 0.60100
H12? H 0.18560 0.45200 0.69410
#END
