
#######################################################################
#
#                 Cambridge Crystallographic Data Centre
#                                CCDC
#
#######################################################################
#
# If this CIF has been generated from an entry in the Cambridge
# Structural Database, then it will include bibliographic, chemical,
# crystal, experimental, refinement or atomic coordinate data resulting
# from the CCDC's data processing and validation procedures.
#
#######################################################################

data_CSD_CIF_AVUSAN
_audit_creation_date 2016-09-22
_audit_creation_method CSD-ConQuest-V1
_database_code_CSD AVUSAN
_database_code_depnum_ccdc_archive 'CCDC 891048'
_chemical_formula_sum 'C12 H13 N1 O5'
_chemical_formula_moiety
;
C12 H13 N1 O5
;
_journal_coden_Cambridge 1287
_journal_volume 28
_journal_year 2016
_journal_page_first 18
_journal_name_full 'Asian J.Chem. '
loop_
_publ_author_name
"S.M.Fan"
"J.R.Han"
"L.Y.Jin"
"S.X.Liu"
_chemical_name_systematic
;
ethyl 2-(hydroxyimino)-3-(4-methoxyphenyl)-3-oxopropanoate
;
_cell_volume   1157.207
_exptl_crystal_colour 'colorless'
_exptl_crystal_density_diffrn 1.442
_exptl_crystal_description 'Prism'
_diffrn_ambient_temperature 113
#These two values have been output from a single CSD field.
_refine_ls_R_factor_gt 0.0321
_refine_ls_wR_factor_gt 0.0321
_symmetry_cell_setting monoclinic
_symmetry_space_group_name_H-M 'P 21/c'
_symmetry_Int_Tables_number 14
loop_
_symmetry_equiv_pos_site_id
_symmetry_equiv_pos_as_xyz
1 x,y,z
2 -x,1/2+y,1/2-z
3 -x,-y,-z
4 x,-1/2-y,-1/2+z
_cell_length_a 11.524(3)
_cell_length_b 7.2367(16)
_cell_length_c 14.866(4)
_cell_angle_alpha 90
_cell_angle_beta 111.027(4)
_cell_angle_gamma 90
_cell_formula_units_Z 4
loop_
_atom_type_symbol
_atom_type_radius_bond
C 0.68
H 0.23
N 0.68
O 0.68
loop_
_atom_site_label
_atom_site_type_symbol
_atom_site_fract_x
_atom_site_fract_y
_atom_site_fract_z
O1 O -0.08284(6) 0.41117(10) 0.37742(6)
O2 O 0.33041(7) 0.3123(1) 0.19067(6)
O3 O 0.47447(7) 0.04035(10) 0.37584(6)
O4 O 0.64489(7) 0.21274(10) 0.45365(6)
O5 O 0.44529(7) 0.66066(10) 0.32866(6)
H1 H 0.48520 0.76030 0.34240
N1 N 0.52167(8) 0.51550(13) 0.37608(7)
C1 C -0.20516(9) 0.37569(16) 0.30835(9)
H2 H -0.22110 0.45770 0.25270
H3 H -0.26710 0.39840 0.33820
H4 H -0.21060 0.24680 0.28710
C2 C 0.01496(9) 0.39048(14) 0.34813(8)
C3 C 0.00405(10) 0.33529(14) 0.25567(8)
H5 H -0.07520 0.30740 0.20890
C4 C 0.10990(9) 0.32163(14) 0.23271(8)
H6 H 0.10260 0.28550 0.16950
C5 C 0.22726(9) 0.36005(14) 0.30089(8)
C6 C 0.23686(9) 0.41286(14) 0.39399(8)
H7 H 0.31620 0.43830 0.44130
C7 C 0.13168(10) 0.42812(15) 0.41740(8)
H8 H 0.13870 0.46420 0.48060
C8 C 0.33665(10) 0.34258(14) 0.27307(8)
C9 C 0.46520(9) 0.36172(15) 0.35042(8)
C10 C 0.52885(9) 0.18656(15) 0.39449(8)
C11 C 0.71462(10) 0.05329(16) 0.50630(9)
H9 H 0.67270 -0.06260 0.47650
H10 H 0.71910 0.05670 0.57400
C12 C 0.84313(10) 0.06025(16) 0.50284(9)
H11 H 0.83870 0.03920 0.43660
H12 H 0.89470 -0.03570 0.54500
H13 H 0.87990 0.18180 0.52470
#END
