
#######################################################################
#
#                 Cambridge Crystallographic Data Centre
#                                CCDC
#
#######################################################################
#
# If this CIF has been generated from an entry in the Cambridge
# Structural Database, then it will include bibliographic, chemical,
# crystal, experimental, refinement or atomic coordinate data resulting
# from the CCDC's data processing and validation procedures.
#
#######################################################################

data_CSD_CIF_AWALOB
_audit_creation_date 2016-09-23
_audit_creation_method CSD-ConQuest-V1
_database_code_CSD AWALOB
_database_code_depnum_ccdc_archive 'CCDC 1475593'
_chemical_formula_sum 'C55 H48 N6 O6'
_chemical_formula_moiety
;
C55 H48 N6 O6
;
_journal_coden_Cambridge 1290
_journal_year 2016
_journal_page_first 5222
_journal_name_full 'Eur.J.Inorg.Chem. '
loop_
_publ_author_name
"Zaichun Zhou"
"Qiuhua Liu"
"Min Tang"
"Wennan Zeng"
"Xi Zhang"
"Jianxiu Wang"
_chemical_name_systematic
;
5,15-(2,2'-(propane-1,3-diylbis(oxy))bis(5-t-butylphenyl))-10,20-bis(4-nitroph
enyl)porphyrin unknown solvate
;
_chemical_name_common
;
4,16-di-t-butyl-24,33-bis(4-nitrophenyl)-8,12-dioxa-38,39,40,41-tetraazaoctacy
clo[17.9.9.1$20,23!.1$25,28!.1$29,32!.1$34,37!.0$2,7!.0$13,18!]hentetraconta-1
(28),2,4,6,13,15,17,19,21,23,25(40),26,29,31,33,35,37-heptadecaene unknown 
solvate
;
_cell_volume  10149.365
_exptl_crystal_colour 'light purple'
_exptl_crystal_density_diffrn 1.164
_exptl_special_details
;
Luminescent
Photo-sensitive

;
_exptl_crystal_description 'needle'
_exptl_crystal_preparation 'chloroform/methanol'
_diffrn_ambient_temperature 100.0
_refine_special_details
;
N6,O5,O6 and N6',O5',O6' disordered over two sites with occupancies 
0.670:0.330; The SQUEEZE/PLATON program has been used to model some disorder.
;
#These two values have been output from a single CSD field.
_refine_ls_R_factor_gt 0.07
_refine_ls_wR_factor_gt 0.07
_symmetry_cell_setting monoclinic
_symmetry_space_group_name_H-M 'C 2/c'
_symmetry_Int_Tables_number 15
loop_
_symmetry_equiv_pos_site_id
_symmetry_equiv_pos_as_xyz
1 x,y,z
2 -x,y,1/2-z
3 1/2+x,1/2+y,z
4 1/2-x,1/2+y,1/2-z
5 -x,-y,-z
6 x,-y,-1/2+z
7 -1/2-x,-1/2-y,-z
8 -1/2+x,-1/2-y,-1/2+z
_cell_length_a 32.7660(9)
_cell_length_b 20.1360(6)
_cell_length_c 15.4351(3)
_cell_angle_alpha 90
_cell_angle_beta 94.707(2)
_cell_angle_gamma 90
_cell_formula_units_Z 8
loop_
_atom_type_symbol
_atom_type_radius_bond
C 0.68
H 0.23
N 0.68
O 0.68
loop_
_atom_site_label
_atom_site_type_symbol
_atom_site_fract_x
_atom_site_fract_y
_atom_site_fract_z
C1 C 0.29128(8) 0.12690(13) 0.51670(17)
C2 C 0.27298(8) 0.13621(13) 0.59514(17)
H1 H 0.25580 0.17240 0.60080
C3 C 0.28011(8) 0.09203(14) 0.66509(17)
C4 C 0.30624(9) 0.03874(13) 0.65485(19)
H2 H 0.31220 0.00980 0.70110
C5 C 0.32383(9) 0.02754(14) 0.57609(19)
H3 H 0.34100 -0.00870 0.57040
C6 C 0.31563(8) 0.07012(13) 0.50770(18)
C7 C 0.25893(9) 0.10421(14) 0.74821(18)
C8 C 0.21239(9) 0.10038(17) 0.72793(18)
H4 H 0.19910 0.10770 0.78030
H5 H 0.20510 0.05730 0.70490
H6 H 0.20380 0.13380 0.68590
C9 C 0.27129(9) 0.05207(14) 0.81956(18)
H7 H 0.30040 0.05320 0.83290
H8 H 0.26320 0.00860 0.79900
H9 H 0.25790 0.06210 0.87100
C10 C 0.27001(12) 0.17377(15) 0.78438(19)
H10 H 0.25940 0.20690 0.74380
H11 H 0.29920 0.17800 0.79300
H12 H 0.25830 0.17980 0.83880
C11 C 0.36827(9) 0.08429(14) 0.40638(18)
H13 H 0.39110 0.06470 0.44150
H14 H 0.36830 0.13180 0.41660
C12 C 0.37160(9) 0.06970(15) 0.31095(18)
H15 H 0.34790 0.08820 0.27780
H16 H 0.37100 0.02200 0.30250
C13 C 0.41009(9) 0.09728(14) 0.27509(19)
H17 H 0.41150 0.14510 0.28270
H18 H 0.43440 0.07750 0.30470
C14 C 0.43504(9) 0.10823(14) 0.13242(18)
C15 C 0.46641(10) 0.06893(15) 0.1060(2)
H19 H 0.46990 0.02600 0.12770
C16 C 0.49271(10) 0.09298(16) 0.0474(2)
H20 H 0.51330 0.06550 0.02970
C17 C 0.48914(9) 0.15775(15) 0.01407(19)
C18 C 0.45754(9) 0.19761(14) 0.04334(18)
H21 H 0.45440 0.24090 0.02270
C19 C 0.43107(8) 0.17422(13) 0.10182(18)
C20 C 0.51902(10) 0.18451(16) -0.0480(2)
C21 C 0.53621(15) 0.1292(2) -0.1018(3)
H22 H 0.55050 0.09770 -0.06380
H23 H 0.55480 0.14780 -0.14030
H24 H 0.51420 0.10730 -0.13530
C22 C 0.55465(11) 0.2170(2) 0.0074(3)
H25 H 0.54520 0.25690 0.03330
H26 H 0.57620 0.22760 -0.02880
H27 H 0.56480 0.18680 0.05220
C23 C 0.49906(12) 0.2388(2) -0.1089(2)
H28 H 0.47550 0.22060 -0.14180
H29 H 0.51850 0.25380 -0.14780
H30 H 0.49080 0.27540 -0.07470
C24 C 0.39700(8) 0.21394(13) 0.13370(17)
C25 C 0.40644(8) 0.26296(13) 0.19660(17)
C26 C 0.44439(9) 0.29772(14) 0.21474(18)
H31 H 0.46810 0.29140 0.18660
C27 C 0.43953(8) 0.34175(14) 0.28062(18)
H32 H 0.45870 0.37250 0.30310
C28 C 0.39934(9) 0.33170(12) 0.30859(18)
C29 C 0.38461(8) 0.35122(13) 0.38818(17)
C30 C 0.40679(8) 0.40775(14) 0.43405(18)
C31 C 0.40660(9) 0.46978(15) 0.3936(2)
H33 H 0.39300 0.47510 0.33870
C32 C 0.42651(10) 0.52354(16) 0.4343(2)
H34 H 0.42650 0.56480 0.40720
C33 C 0.44632(10) 0.51457(17) 0.5159(2)
C34 C 0.44805(10) 0.45376(17) 0.5565(2)
H35 H 0.46230 0.44870 0.61070
C35 C 0.42821(9) 0.39978(16) 0.5151(2)
H36 H 0.42930 0.35830 0.54170
C36 C 0.35474(8) 0.31515(13) 0.42808(18)
C37 C 0.34697(8) 0.31989(14) 0.51873(19)
H37 H 0.35570 0.35350 0.55720
C38 C 0.32421(8) 0.26542(14) 0.53698(17)
H38 H 0.31630 0.25250 0.59100
C39 C 0.31501(8) 0.23194(14) 0.45439(17)
C40 C 0.28933(8) 0.17570(13) 0.44330(17)
C41 C 0.26827(8) 0.15648(13) 0.36508(17)
C42 C 0.23296(8) 0.11508(13) 0.35413(17)
H39 H 0.22100 0.09240 0.39800
C43 C 0.21985(8) 0.11465(13) 0.26763(17)
H40 H 0.19640 0.09370 0.24280
C44 C 0.24844(8) 0.15203(13) 0.22213(17)
C45 C 0.25394(9) 0.15365(13) 0.13356(18)
C46 C 0.22340(8) 0.12074(14) 0.07053(16)
C47 C 0.20139(9) 0.15880(14) 0.00671(18)
H41 H 0.20560 0.20440 0.00460
C48 C 0.17339(8) 0.12891(14) -0.05350(17)
H42 H 0.15830 0.15420 -0.09510
C49 C 0.16842(8) 0.06111(14) -0.05052(16)
C50 C 0.18964(8) 0.02197(13) 0.01224(16)
H43 H 0.18560 -0.02370 0.01370
C51 C 0.21670(8) 0.05258(13) 0.07206(16)
H44 H 0.23090 0.02710 0.11470
C52 C 0.29152(8) 0.17252(13) 0.10172(17)
C53 C 0.30547(9) 0.14796(14) 0.02135(18)
H45 H 0.28940 0.12900 -0.02470
C54 C 0.34672(9) 0.15792(14) 0.02618(18)
H46 H 0.36470 0.14460 -0.01400
C55 C 0.35669(8) 0.19324(14) 0.10617(18)
N1 N 0.32287(7) 0.20343(11) 0.15143(14)
H47 H 0.32150 0.22430 0.19970
N2 N 0.27578(7) 0.17876(11) 0.28437(14)
N3 N 0.33295(7) 0.26341(11) 0.38942(15)
H48 H 0.33100 0.25300 0.33520
N4 N 0.38000(7) 0.28639(11) 0.25340(14)
N5 N 0.14109(7) 0.02863(12) -0.11742(14)
O1 O 0.32981(6) 0.05507(10) 0.42760(12)
O2 O 0.40699(6) 0.08038(10) 0.18419(13)
O3 O 0.14530(7) -0.03115(10) -0.12923(13)
O4 O 0.11578(6) 0.06299(11) -0.15933(13)
N6 N 0.46584(17) 0.5754(3) 0.5547(4)
O5 O 0.48538(12) 0.5652(3) 0.6226(4)
O6 O 0.4612(2) 0.6281(3) 0.5167(4)
H49? H 0.29510 0.20590 0.27400
H50? H 0.35480 0.27440 0.25430
O7? O 0.4881(3) 0.5487(6) 0.6491(8)
O8? O 0.4700(4) 0.6194(6) 0.5384(8)
N7? N 0.4711(4) 0.5612(6) 0.5742(9)
#END
