
#######################################################################
#
#                 Cambridge Crystallographic Data Centre
#                                CCDC
#
#######################################################################
#
# If this CIF has been generated from an entry in the Cambridge
# Structural Database, then it will include bibliographic, chemical,
# crystal, experimental, refinement or atomic coordinate data resulting
# from the CCDC's data processing and validation procedures.
#
#######################################################################

data_CSD_CIF_AWAMIW
_audit_creation_date 2016-09-23
_audit_creation_method CSD-ConQuest-V1
_database_code_CSD AWAMIW
_database_code_depnum_ccdc_archive 'CCDC 1475596'
_chemical_formula_sum 'C59 H56 N6 O6'
_chemical_formula_moiety
;
C59 H56 N6 O6
;
_journal_coden_Cambridge 1290
_journal_year 2016
_journal_page_first 5222
_journal_name_full 'Eur.J.Inorg.Chem. '
loop_
_publ_author_name
"Zaichun Zhou"
"Qiuhua Liu"
"Min Tang"
"Wennan Zeng"
"Xi Zhang"
"Jianxiu Wang"
_chemical_name_systematic
;
5,15-(2,2'-(heptane-1,7-diylbis(oxy))bis(5-t-butylphenyl))-10,20-bis(4-nitroph
enyl)porphyrin unknown solvate
;
_chemical_name_common
;
4,20-di-t-butyl-28,37-bis(4-nitrophenyl)-8,16-dioxa-42,43,44,45-tetraazaoctacy
clo[21.9.9.1$24,27!.1$29,32!.1$33,36!.1$38,41!.0$2,7!.0$17,22!]pentatetraconta
-1(33),2,4,6,17,19,21,23,25,27,29,31,34,36,38,40-hexadecaene unknown solvate
;
_cell_volume  12136.294
_exptl_crystal_colour 'light purple'
_exptl_crystal_density_diffrn 1.037
_exptl_special_details
;
Luminescent
Photo-sensitive

;
_exptl_crystal_description 'block'
_exptl_crystal_preparation 'chloroform/methanol'
_diffrn_ambient_temperature 113.7
_refine_special_details
;
The SQUEEZE/PLATON program has been used to model some disorder.

;
#These two values have been output from a single CSD field.
_refine_ls_R_factor_gt 0.0809
_refine_ls_wR_factor_gt 0.0809
_symmetry_cell_setting monoclinic
_symmetry_space_group_name_H-M 'C 2/c'
_symmetry_Int_Tables_number 15
loop_
_symmetry_equiv_pos_site_id
_symmetry_equiv_pos_as_xyz
1 x,y,z
2 -x,y,1/2-z
3 1/2+x,1/2+y,z
4 1/2-x,1/2+y,1/2-z
5 -x,-y,-z
6 x,-y,-1/2+z
7 -1/2-x,-1/2-y,-z
8 -1/2+x,-1/2-y,-1/2+z
_cell_length_a 24.4349(12)
_cell_length_b 30.6621(11)
_cell_length_c 16.7802(12)
_cell_angle_alpha 90
_cell_angle_beta 105.131(6)
_cell_angle_gamma 90
_cell_formula_units_Z 8
loop_
_atom_type_symbol
_atom_type_radius_bond
C 0.68
H 0.23
N 0.68
O 0.68
loop_
_atom_site_label
_atom_site_type_symbol
_atom_site_fract_x
_atom_site_fract_y
_atom_site_fract_z
N1 N 0.89329(12) 0.73666(9) 0.69147(18)
N2 N 0.86583(12) 0.64789(9) 0.6476(2)
H1 H 0.85480 0.66720 0.67720
N3 N 0.77148(12) 0.65225(9) 0.7304(2)
N4 N 0.79843(12) 0.74006(9) 0.77332(19)
H2 H 0.81260 0.71930 0.75080
N5 N 1.1329(3) 0.6868(2) 0.4764(7)
N6 N 0.53065(18) 0.70226(11) 0.9445(3)
O1 O 1.1760(2) 0.69375(18) 0.5066(5)
O2 O 1.1220(2) 0.68371(14) 0.3987(5)
O3 O 0.48448(15) 0.71137(13) 0.8978(3)
O4 O 0.53744(15) 0.69275(11) 1.0163(3)
O5 O 0.69737(10) 0.60399(7) 0.52948(19)
O6 O 0.78125(11) 0.84417(8) 0.63687(17)
C1 C 0.89359(15) 0.78002(11) 0.7084(2)
C2 C 0.93628(15) 0.80092(12) 0.6770(2)
H3 H 0.94480 0.83050 0.67950
C3 C 0.96185(15) 0.76936(12) 0.6429(2)
H4 H 0.99180 0.77310 0.61890
C4 C 0.93408(14) 0.72941(11) 0.6511(2)
C5 C 0.94453(14) 0.68890(12) 0.6173(2)
C6 C 0.91110(15) 0.65154(11) 0.6151(2)
C7 C 0.91626(15) 0.61173(11) 0.5722(3)
H5 H 0.94460 0.60510 0.54640
C8 C 0.87282(16) 0.58601(11) 0.5762(3)
H6 H 0.86470 0.55870 0.55200
C9 C 0.84093(15) 0.60850(11) 0.6251(2)
C10 C 0.79266(15) 0.59189(11) 0.6446(2)
C11 C 0.76382(15) 0.61119(11) 0.6981(3)
C12 C 0.71915(16) 0.59053(12) 0.7252(3)
H7 H 0.70590 0.56220 0.71300
C13 C 0.69980(16) 0.61982(12) 0.7717(2)
H8 H 0.67080 0.61520 0.79730
C14 C 0.73187(15) 0.65911(11) 0.7742(2)
C15 C 0.72300(15) 0.69869(11) 0.8102(2)
C16 C 0.75429(14) 0.73659(11) 0.8088(2)
C17 C 0.74443(16) 0.77791(12) 0.8414(2)
H9 H 0.71730 0.78430 0.86960
C18 C 0.78184(16) 0.80596(11) 0.8236(2)
H10 H 0.78500 0.83540 0.83720
C19 C 0.81602(15) 0.78260(11) 0.7801(2)
C20 C 0.85866(14) 0.80186(11) 0.7494(2)
C21 C 0.99323(16) 0.68718(12) 0.5788(3)
C22 C 1.0471(2) 0.6881(3) 0.6261(4)
H11 H 1.05420 0.68880 0.68330
C23 C 1.0929(2) 0.6879(3) 0.5886(5)
H12 H 1.13010 0.68870 0.62120
C24 C 1.0827(2) 0.68673(16) 0.5080(5)
C25 C 1.0312(2) 0.68506(17) 0.4598(4)
H13 H 1.02520 0.68360 0.40280
C26 C 0.9857(2) 0.68555(17) 0.4951(4)
H14 H 0.94900 0.68480 0.46080
C27 C 0.76359(16) 0.55331(11) 0.5976(2)
C28 C 0.78473(18) 0.51104(11) 0.6104(3)
H15 H 0.81860 0.50600 0.65030
C29 C 0.75639(18) 0.47610(12) 0.5650(3)
C30 C 0.7066(2) 0.48500(12) 0.5069(3)
H16 H 0.68740 0.46210 0.47530
C31 C 0.68350(17) 0.52682(12) 0.4931(3)
H17 H 0.64910 0.53140 0.45420
C32 C 0.71263(16) 0.56145(11) 0.5384(3)
C33 C 0.63908(15) 0.61656(12) 0.4999(3)
H18 H 0.61480 0.59460 0.51460
H19 H 0.62900 0.61940 0.44030
C34 C 0.63167(16) 0.65976(12) 0.5393(3)
H20 H 0.63800 0.65510 0.59820
H21 H 0.59260 0.66900 0.51800
C35 C 0.67011(15) 0.69690(11) 0.5266(3)
H22 H 0.70930 0.68820 0.54840
H23 H 0.66390 0.70200 0.46780
C36 C 0.66010(15) 0.73909(11) 0.5677(2)
H24 H 0.66620 0.73380 0.62630
H25 H 0.62080 0.74750 0.54590
C37 C 0.69769(15) 0.77720(11) 0.5563(2)
H26 H 0.73710 0.76910 0.57840
H27 H 0.69170 0.78280 0.49770
C38 C 0.68605(17) 0.81854(12) 0.5982(3)
H28 H 0.68890 0.81190 0.65560
H29 H 0.64720 0.82730 0.57310
C39 C 0.72427(16) 0.85697(12) 0.5952(3)
H30 H 0.72190 0.86480 0.53840
H31 H 0.71290 0.88200 0.62250
C40 C 0.81687(16) 0.87116(11) 0.6909(2)
C41 C 0.85970(15) 0.85048(11) 0.7499(2)
C42 C 0.89855(16) 0.87501(11) 0.8069(2)
H32 H 0.92710 0.86070 0.84570
C43 C 0.89646(17) 0.92080(12) 0.8083(3)
C44 C 0.85458(18) 0.94032(12) 0.7480(3)
H33 H 0.85280 0.97060 0.74640
C45 C 0.81445(18) 0.91678(12) 0.6888(3)
H34 H 0.78670 0.93120 0.64890
C46 C 0.7819(2) 0.43037(13) 0.5821(3)
C47 C 0.8412(2) 0.42975(15) 0.5668(4)
H35 H 0.83820 0.43650 0.50990
H36 H 0.85760 0.40130 0.57930
H37 H 0.86480 0.45100 0.60150
C48 C 0.7438(3) 0.39562(14) 0.5293(4)
H38 H 0.70750 0.39570 0.54130
H39 H 0.76100 0.36740 0.54170
H40 H 0.73900 0.40200 0.47190
C49 C 0.7886(3) 0.41828(15) 0.6738(4)
H41 H 0.81260 0.43930 0.70860
H42 H 0.80540 0.38980 0.68450
H43 H 0.75210 0.41820 0.68500
C50 C 0.9393(2) 0.94591(13) 0.8759(3)
C51 C 0.9997(2) 0.9365(2) 0.8713(4)
H44 H 1.00500 0.94770 0.82030
H45 H 1.00610 0.90560 0.87380
H46 H 1.02610 0.95040 0.91680
C52 C 0.9285(3) 0.99546(17) 0.8688(5)
H47 H 0.95350 1.00990 0.91480
H48 H 0.88990 1.00130 0.86870
H49 H 0.93530 1.00600 0.81830
C53 C 0.9319(3) 0.93256(17) 0.9595(3)
H50 H 0.95520 0.95070 1.00160
H51 H 0.94300 0.90260 0.97010
H52 H 0.89290 0.93590 0.95980
C54 C 0.67302(15) 0.70056(11) 0.8461(2)
C55 C 0.68035(19) 0.69890(16) 0.9299(3)
H53 H 0.71670 0.69740 0.96500
C56 C 0.6330(2) 0.69943(16) 0.9628(3)
H54 H 0.63760 0.69770 1.01950
C57 C 0.58079(17) 0.70242(12) 0.9104(3)
C58 C 0.5732(2) 0.7059(2) 0.8290(4)
H55 H 0.53700 0.70960 0.79420
C59 C 0.6199(2) 0.7040(2) 0.7975(3)
H56 H 0.61450 0.70520 0.74060
H57? H 0.87140 0.71740 0.70400
H58? H 0.79670 0.67070 0.72440
#END
