
#######################################################################
#
#                 Cambridge Crystallographic Data Centre
#                                CCDC
#
#######################################################################
#
# If this CIF has been generated from an entry in the Cambridge
# Structural Database, then it will include bibliographic, chemical,
# crystal, experimental, refinement or atomic coordinate data resulting
# from the CCDC's data processing and validation procedures.
#
#######################################################################

data_CSD_CIF_AWAMAO
_audit_creation_date 2016-09-23
_audit_creation_method CSD-ConQuest-V1
_database_code_CSD AWAMAO
_database_code_depnum_ccdc_archive 'CCDC 930181'
_chemical_formula_sum 'C57 H52 N6 O6'
_chemical_formula_moiety
;
C57 H52 N6 O6
;
_journal_coden_Cambridge 1290
_journal_year 2016
_journal_page_first 5222
_journal_name_full 'Eur.J.Inorg.Chem. '
loop_
_publ_author_name
"Zaichun Zhou"
"Qiuhua Liu"
"Min Tang"
"Wennan Zeng"
"Xi Zhang"
"Jianxiu Wang"
_chemical_name_systematic
;
5,15-(2,2'-(pentane-1,5-diylbis(oxy))bis(5-t-butylphenyl))-10,20-bis(4-nitroph
enyl)porphyrin unknown solvate
;
_chemical_name_common
;
4,18-di-t-butyl-26,35-bis(4-nitrophenyl)-8,14-dioxa-40,41,42,43-tetraazaoctacy
clo[19.9.9.1$22,25!.1$27,30!.1$31,34!.1$36,39!.0$2,7!.0$15,20!]tritetraconta-1
(30),2,4,6,15,17,19,21,23,25,27(42),28,31,33,35,37,39-heptadecaene unknown 
solvate
;
_cell_volume   3025.631
_exptl_crystal_colour 'light purple'
_exptl_crystal_density_diffrn 1.007
_exptl_special_details
;
Luminescent
Photo-sensitive

;
_exptl_crystal_description 'prism'
_exptl_crystal_preparation 'chloroform/methanol'
_diffrn_ambient_temperature 113
_refine_special_details
;
C43,C44,C45 and C43',C44',C45' disordered over two sites with occupancies 
0.514:0.486; The SQUEEZE/PLATON program has been used to model some disorder.
;
#These two values have been output from a single CSD field.
_refine_ls_R_factor_gt 0.1183
_refine_ls_wR_factor_gt 0.1183
_symmetry_cell_setting triclinic
_symmetry_space_group_name_H-M 'P -1'
_symmetry_Int_Tables_number 2
loop_
_symmetry_equiv_pos_site_id
_symmetry_equiv_pos_as_xyz
1 x,y,z
2 -x,-y,-z
_cell_length_a 13.7346(10)
_cell_length_b 16.385(9)
_cell_length_c 16.825(8)
_cell_angle_alpha 103.443(9)
_cell_angle_beta 107.063(16)
_cell_angle_gamma 114.025(19)
_cell_formula_units_Z 2
loop_
_atom_type_symbol
_atom_type_radius_bond
C 0.68
H 0.23
N 0.68
O 0.68
loop_
_atom_site_label
_atom_site_type_symbol
_atom_site_fract_x
_atom_site_fract_y
_atom_site_fract_z
O1 O 0.7224(2) 0.76061(16) 1.00436(18)
O2 O 0.2309(3) 0.2788(2) 0.6914(2)
O3 O 0.4028(3) 0.7568(2) 0.38992(17)
O4 O 0.2173(4) 0.7093(2) 0.33876(18)
O5 O 0.1701(3) 0.4428(2) 1.40658(15)
O6 O 0.0005(2) 0.4288(2) 1.34271(17)
N1 N 0.3908(2) 0.69512(17) 0.87155(15)
H1 H 0.33700 0.64640 0.87640
N2 N 0.1965(2) 0.50923(17) 0.75408(15)
N3 N 0.1607(2) 0.46389(17) 0.90505(14)
H2 H 0.20200 0.51690 0.89810
N4 N 0.3577(2) 0.65174(17) 1.02438(14)
N5 N 0.3099(3) 0.72473(19) 0.39576(17)
N6 N 0.0973(3) 0.44617(18) 1.34674(16)
C1 C 0.4966(3) 0.7704(2) 0.94210(19)
C2 C 0.5570(3) 0.8356(2) 0.9064(2)
H3 H 0.63270 0.89350 0.93980
C3 C 0.4857(3) 0.7991(2) 0.81558(19)
H4 H 0.50180 0.82880 0.77520
C4 C 0.3822(3) 0.7078(2) 0.79178(18)
C5 C 0.2967(3) 0.6372(2) 0.70490(18)
C6 C 0.2140(3) 0.5423(2) 0.68850(18)
C7 C 0.1480(3) 0.4604(2) 0.59954(17)
H5 H 0.14160 0.46420 0.54290
C8 C 0.0980(3) 0.3787(2) 0.61372(19)
H6 H 0.05300 0.31340 0.56940
C9 C 0.1260(3) 0.4095(2) 0.70958(18)
C10 C 0.0845(3) 0.3440(2) 0.74974(18)
C11 C 0.0955(3) 0.3705(2) 0.83855(18)
C12 C 0.0396(3) 0.3061(2) 0.87711(19)
H7 H -0.01110 0.23720 0.84720
C13 C 0.0735(3) 0.3633(2) 0.96552(19)
H8 H 0.04880 0.34050 1.00710
C14 C 0.1517(3) 0.4619(2) 0.98411(18)
C15 C 0.2202(3) 0.5415(2) 1.06943(17)
C16 C 0.3191(3) 0.6295(2) 1.08807(17)
C17 C 0.4035(3) 0.7042(2) 1.17865(17)
H9 H 0.39500 0.70780 1.23320
C18 C 0.4978(3) 0.7683(2) 1.17029(17)
H10 H 0.56930 0.82340 1.21800
C19 C 0.4663(3) 0.7347(2) 1.07229(17)
C20 C 0.5372(3) 0.7856(2) 1.03437(18)
C21 C 0.6649(3) 0.8586(2) 1.09260(19)
C22 C 0.7511(3) 0.8402(2) 1.0781(2)
C23 C 0.8697(3) 0.9089(3) 1.1321(3)
H11 H 0.92790 0.89650 1.12230
C24 C 0.9054(3) 0.9960(3) 1.2005(2)
H12 H 0.98760 1.04140 1.23690
C25 C 0.8242(3) 1.0180(2) 1.2168(2)
C26 C 0.7035(3) 0.9470(2) 1.16204(18)
H13 H 0.64580 0.95960 1.17260
C27 C 0.8590(4) 1.1138(3) 1.2888(2)
C28 C 0.8058(6) 1.1671(4) 1.2417(3)
H14 H 0.71950 1.12460 1.20810
H15 H 0.83930 1.18280 1.19950
H16 H 0.82510 1.22750 1.28780
C29 C 0.9962(5) 1.1839(4) 1.3413(4)
H17 H 1.01420 1.24490 1.38570
H18 H 1.02860 1.19810 1.29830
H19 H 1.03180 1.15280 1.37300
C30 C 0.8129(5) 1.0955(4) 1.3591(3)
H20 H 0.72690 1.05040 1.32820
H21 H 0.83080 1.15740 1.40190
H22 H 0.85130 1.06680 1.39230
C31 C 0.6524(4) 0.6631(3) 0.9978(3)
H23 H 0.59910 0.66210 1.02690
H24 H 0.70500 0.64240 1.02940
C32 C 0.5812(4) 0.5951(2) 0.8999(4)
H25 H 0.63470 0.58980 0.87310
H26 H 0.53730 0.62120 0.86690
C33 C 0.4936(4) 0.4940(3) 0.8895(4)
H27 H 0.53860 0.46560 0.91720
H28 H 0.44730 0.50110 0.92320
C34 C 0.4117(4) 0.4266(3) 0.7949(4)
H29 H 0.45690 0.41120 0.76380
H30 H 0.37660 0.45950 0.76450
C35 C 0.3106(5) 0.3302(3) 0.7840(3)
H31 H 0.34280 0.29100 0.80530
H32 H 0.26980 0.34410 0.82040
C36 C 0.0397(3) 0.2398(2) 0.69604(18)
C37 C 0.1177(3) 0.2130(2) 0.6764(2)
C38 C 0.0776(4) 0.1153(3) 0.6266(3)
H33 H 0.13040 0.09720 0.61350
C39 C -0.0383(3) 0.0460(2) 0.5968(2)
H34 H -0.06450 -0.02010 0.56320
C40 C -0.1194(3) 0.0690(3) 0.6141(2)
C41 C -0.0787(3) 0.1659(2) 0.6636(2)
H35 H -0.13250 0.18310 0.67590
C42 C -0.2493(3) -0.0094(3) 0.5810(3)
C43 C -0.3067(10) -0.0740(7) 0.4829(5)
H36 H -0.26610 -0.10980 0.47230
H37 H -0.30180 -0.03440 0.44700
H38 H -0.39010 -0.12060 0.46460
C44 C -0.2522(8) -0.0661(7) 0.6411(6)
H39 H -0.33460 -0.11480 0.62320
H40 H -0.21640 -0.02090 0.70470
H41 H -0.20770 -0.09900 0.63400
C45 C -0.3240(9) 0.0404(7) 0.5971(8)
H42 H -0.30970 0.09050 0.57240
H43 H -0.29970 0.07050 0.66240
H44 H -0.40850 -0.00930 0.56640
C46 C 0.3012(3) 0.6601(2) 0.62390(18)
C47 C 0.4030(3) 0.6882(3) 0.61073(19)
H45 H 0.47050 0.69240 0.65260
C48 C 0.4065(3) 0.7106(3) 0.5355(2)
H46 H 0.47640 0.73150 0.52670
C49 C 0.3070(3) 0.7018(2) 0.47533(17)
C50 C 0.2042(3) 0.6736(2) 0.48610(18)
H47 H 0.13660 0.66830 0.44320
C51 C 0.2021(3) 0.6529(2) 0.56146(18)
H48 H 0.13230 0.63380 0.57050
C52 C 0.1908(3) 0.5227(2) 1.14487(17)
C53 C 0.2710(3) 0.5174(2) 1.21571(18)
H49 H 0.34620 0.53100 1.21810
C54 C 0.2405(3) 0.4924(2) 1.28164(18)
H50 H 0.29380 0.48810 1.32910
C55 C 0.1303(3) 0.4736(2) 1.27693(18)
C56 C 0.0514(3) 0.4797(3) 1.2098(2)
H51 H -0.02330 0.46700 1.20810
C57 C 0.0836(3) 0.5050(3) 1.1440(2)
H52 H 0.03020 0.51020 1.09740
C58? C -0.2728(12) -0.1120(7) 0.5216(9)
H53? H -0.35420 -0.16270 0.50360
H54? H -0.21720 -0.12710 0.55730
H55? H -0.26140 -0.10940 0.46720
C59? C -0.2773(12) -0.0214(10) 0.6599(7)
H56? H -0.35130 -0.08320 0.63740
H57? H -0.28600 0.03290 0.68880
H58? H -0.21270 -0.02150 0.70440
C60? C -0.3337(10) 0.0118(9) 0.5206(8)
H59? H -0.30950 0.02510 0.47360
H60? H -0.33200 0.06880 0.55730
H61? H -0.41430 -0.04480 0.49180
#END
