
#######################################################################
#
#                 Cambridge Crystallographic Data Centre
#                                CCDC
#
#######################################################################
#
# If this CIF has been generated from an entry in the Cambridge
# Structural Database, then it will include bibliographic, chemical,
# crystal, experimental, refinement or atomic coordinate data resulting
# from the CCDC's data processing and validation procedures.
#
#######################################################################

data_CSD_CIF_AWAXON
_audit_creation_date 2016-09-23
_audit_creation_method CSD-ConQuest-V1
_database_code_CSD AWAXON
_database_code_depnum_ccdc_archive 'CCDC 717690'
_chemical_formula_sum 'C24 H19 N3 O3'
_chemical_formula_moiety
;
C24 H19 N3 O3
;
_journal_coden_Cambridge 248
_journal_volume 30
_journal_year 2015
_journal_page_first 826
_journal_name_full 'J.Enzyme Inhib.Med.Chem. '
loop_
_publ_author_name
"Y.M.Shaker"
"M.A.Omar"
"K.Mahmoud"
"S.M.Elhallouty"
"W.M.El-Senousy"
"M.M.Ali"
"A.E.Mahmoud"
"A.H.Abdel-Halim"
"S.M.Soliman"
"H.I.El Diwani"
_chemical_name_systematic
;
2-(2-methyl-5-nitro-1H-benzimidazol-1-yl)-3-(4-methylphenyl)-1-phenylprop-2-en
-1-one
;
_cell_volume   2052.070
_exptl_crystal_colour 'brown'
_exptl_crystal_density_diffrn 1.287
_exptl_crystal_description 'prism'
_diffrn_ambient_temperature 298
#These two values have been output from a single CSD field.
_refine_ls_R_factor_gt 0.064
_refine_ls_wR_factor_gt 0.064
_symmetry_cell_setting monoclinic
_symmetry_space_group_name_H-M 'P 21/c'
_symmetry_Int_Tables_number 14
loop_
_symmetry_equiv_pos_site_id
_symmetry_equiv_pos_as_xyz
1 x,y,z
2 -x,1/2+y,1/2-z
3 -x,-y,-z
4 x,-1/2-y,-1/2+z
_cell_length_a 6.3134(3)
_cell_length_b 19.9288(9)
_cell_length_c 16.3925(10)
_cell_angle_alpha 90
_cell_angle_beta 95.7589(14)
_cell_angle_gamma 90
_cell_formula_units_Z 4
loop_
_atom_type_symbol
_atom_type_radius_bond
C 0.68
H 0.23
N 0.68
O 0.68
loop_
_atom_site_label
_atom_site_type_symbol
_atom_site_fract_x
_atom_site_fract_y
_atom_site_fract_z
O1 O 0.8184(7) 0.2845(2) -0.0035(3)
N1 N 0.6921(8) 0.0612(3) -0.0238(4)
O2 O -0.1454(8) 0.1612(3) -0.1835(3)
N2 N 0.7087(7) 0.1599(3) 0.0441(3)
N3 N -0.0082(9) 0.1175(4) -0.1720(4)
C1 C 0.5114(9) 0.0995(3) -0.0485(4)
C2 C 0.3362(10) 0.0839(3) -0.1034(4)
C3 C 0.8824(10) 0.2686(4) 0.0673(5)
C4 C 0.3647(10) 0.2097(3) -0.0209(4)
C5 C 0.1797(10) 0.1321(4) -0.1149(4)
O3 O -0.0219(8) 0.0622(3) -0.2054(4)
C6 C 0.8011(10) 0.0982(4) 0.0316(4)
C7 C 0.7606(10) 0.2032(3) 0.1822(5)
C8 C 0.5245(10) 0.1016(4) 0.1962(4)
C9 C 0.192(1) 0.1941(4) -0.0764(4)
C10 C 1.0060(9) 0.0790(4) 0.0790(4)
C11 C 0.4055(10) 0.0624(3) 0.2440(5)
C12 C 1.2018(10) 0.2805(3) 0.1731(4)
C13 C 0.7868(9) 0.2087(3) 0.1033(4)
C14 C 0.6439(10) 0.1558(3) 0.2289(4)
C15 C 0.5206(9) 0.1612(3) -0.0078(4)
C16 C 0.4008(12) 0.0752(4) 0.3272(5)
C17 C 0.2593(14) 0.0352(5) 0.3783(6)
C18 C 0.6430(12) 0.1673(4) 0.3125(5)
C19 C 1.0568(10) 0.3083(4) 0.1133(4)
C20 C 1.3926(12) 0.3841(5) 0.1852(6)
C21 C 1.3677(10) 0.3190(4) 0.2085(5)
C22 C 0.5244(14) 0.1273(4) 0.3598(5)
C23 C 1.2481(14) 0.4129(4) 0.1268(6)
C24 C 1.0806(12) 0.3748(4) 0.0905(5)
H1 H 0.36996 0.25228 0.00647
H2 H 0.52612 0.09100 0.13919
H3 H 0.08002 0.22621 -0.08881
H4 H 1.05098 0.11468 0.11603
H5 H 1.11221 0.07149 0.04199
H6 H 0.98681 0.03873 0.10961
H7 H 0.32196 0.02563 0.22049
H8 H 1.18483 0.23460 0.18885
H9 H 0.27587 0.05056 0.43409
H10 H 0.29976 -0.01120 0.37648
H11 H 0.11323 0.03998 0.35641
H12 H 0.72805 0.20322 0.33709
H13 H 1.51130 0.40971 0.20951
H14 H 1.46833 0.29950 0.24950
H15 H 0.52636 0.13658 0.41739
H16 H 1.26107 0.45932 0.11238
H17 H 0.98044 0.39311 0.04839
H18 H 0.32790 0.04135 -0.13105
H19 H 0.82660 0.23493 0.22085
#END
