
#######################################################################
#
#                 Cambridge Crystallographic Data Centre
#                                CCDC
#
#######################################################################
#
# If this CIF has been generated from an entry in the Cambridge
# Structural Database, then it will include bibliographic, chemical,
# crystal, experimental, refinement or atomic coordinate data resulting
# from the CCDC's data processing and validation procedures.
#
#######################################################################

data_CSD_CIF_AWEFIR
_audit_creation_date 2004-08-19
_audit_creation_method CSD-ConQuest-V1
_database_code_CSD AWEFIR
_database_code_depnum_ccdc_archive 'CCDC 205467'
_chemical_formula_sum 'C25 H25 N3 O3'
_chemical_formula_moiety
;
C25 H25 N3 O3
;
_journal_coden_Cambridge 1037
_journal_volume 4
_journal_year 2003
_journal_page_first 77-5
_journal_name_full 'ARKIVOC '
loop_
_publ_author_name
"U.Bratusek"
"A.Meden"
"J.Svete"
"B.Stanovnik"
_chemical_name_systematic
;
5-(5-Methyl-3-(2,4,6-trimethylphenyl)-1,4,2-dioxazol-5-yl)-3-(2,4,6-trimethylp
henyl)isoxazole-4-carbonitrile
;
_chemical_melting_point 386.15
_cell_volume   2215.398
_exptl_crystal_colour 'colorless'
_exptl_crystal_density_diffrn 1.246
_exptl_special_details
;
Melting point range 386.15-387.15K

;
_exptl_crystal_description 'prism'
_exptl_crystal_preparation 'ethanol'
_diffrn_ambient_temperature 293
#These two values have been output from a single CSD field.
_refine_ls_R_factor_gt 0.04
_refine_ls_wR_factor_gt 0.04
_symmetry_cell_setting monoclinic
_symmetry_space_group_name_H-M 'P 21/c'
_symmetry_Int_Tables_number 14
loop_
_symmetry_equiv_pos_site_id
_symmetry_equiv_pos_as_xyz
1 x,y,z
2 x,1/2-y,1/2+z
3 -x,-y,-z
4 -x,-1/2+y,-1/2-z
_cell_length_a 12.1920(2)
_cell_length_b 13.4453(2)
_cell_length_c 13.5785(2)
_cell_angle_alpha 90
_cell_angle_beta 95.5564(9)
_cell_angle_gamma 90
_cell_formula_units_Z 4
loop_
_atom_type_symbol
_atom_type_radius_bond
C 0.68
H 0.23
N 0.68
O 0.68
loop_
_atom_site_label
_atom_site_type_symbol
_atom_site_fract_x
_atom_site_fract_y
_atom_site_fract_z
O1 O 0.30519(10) 0.58607(8) 0.19482(8)
O2 O 0.38803(11) 0.57611(8) 0.05303(8)
O3 O 0.39839(10) 0.37627(8) 0.22627(8)
N1 N 0.31053(12) 0.65582(10) 0.04746(10)
N2 N 0.37222(14) 0.27581(10) 0.2066(1)
N3 N 0.23885(17) 0.41440(15) -0.10162(14)
C1 C 0.26787(14) 0.65618(11) 0.12894(11)
C2 C 0.39463(15) 0.53800(12) 0.15172(12)
C3 C 0.36911(13) 0.42914(12) 0.14493(11)
C4 C 0.32438(12) 0.36922(12) 0.07256(10)
C5 C 0.32886(13) 0.27208(11) 0.11502(11)
C6 C 0.18092(14) 0.72452(11) 0.15641(11)
C7 C 0.20915(14) 0.79820(12) 0.22663(11)
C8 C 0.12597(15) 0.86138(13) 0.25026(12)
C9 C 0.01874(15) 0.85340(13) 0.20800(11)
C10 C -0.00557(16) 0.77985(14) 0.13823(12)
C11 C 0.07399(14) 0.71487(13) 0.11121(11)
C12 C 0.32531(17) 0.81200(15) 0.27127(15)
C13 C -0.0690(2) 0.92303(17) 0.23670(17)
C14 C 0.04398(19) 0.6351(2) 0.03499(15)
C15 C 0.5027(2) 0.56039(17) 0.2087(2)
C16 C 0.29569(13) 0.17612(11) 0.06879(10)
C17 C 0.20069(14) 0.12873(12) 0.09283(10)
C18 C 0.17498(14) 0.03672(12) 0.05082(12)
C19 C 0.24108(16) -0.00872(12) -0.01333(12)
C20 C 0.33455(15) 0.04108(12) -0.03615(12)
C21 C 0.36389(13) 0.13316(12) 0.00321(11)
C22 C 0.12580(17) 0.17300(16) 0.16279(14)
C23 C 0.2118(2) -0.10874(14) -0.05693(14)
C24 C 0.46663(17) 0.18309(15) -0.02422(15)
C25 C 0.27893(15) 0.39569(12) -0.02455(14)
H1 H 0.1442(8) 0.9189(11) 0.2997(12)
H2 H -0.0845(8) 0.7691(10) 0.1092(10)
H3 H 0.1088(11) -0.0021(9) 0.0726(11)
H4 H 0.3873(11) 0.0080(9) -0.0814(14)
H5 H 0.3730(8) 0.8369(16) 0.2178(8)
H6 H 0.3273(7) 0.8632(13) 0.3283(12)
H7 H 0.3558(9) 0.7448(8) 0.2985(15)
H8 H -0.0744(15) 0.9184(15) 0.3123(8)
H9 H -0.0489(13) 0.9954(8) 0.2185(18)
H10 H -0.1454(9) 0.9037(13) 0.1988(15)
H11 H 0.0683(15) 0.6572(9) -0.0329(8)
H12 H -0.0409(8) 0.6242(12) 0.0282(11)
H13 H 0.0832(14) 0.5693(8) 0.0565(9)
H14 H 0.513(2) 0.633(3) 0.2069(15)
H15 H 0.504(2) 0.534(2) 0.274(2)
H16 H 0.563(2) 0.526(2) 0.1771(19)
H17 H 0.0586(13) 0.1264(12) 0.1676(15)
H18 H 0.1680(9) 0.1808(18) 0.2323(8)
H19 H 0.0987(18) 0.2426(11) 0.1368(12)
H20 H 0.2624(12) -0.1624(7) -0.0215(11)
H21 H 0.1297(9) -0.1250(8) -0.0483(12)
H22 H 0.2231(15) -0.1084(7) -0.1313(8)
H23 H 0.5157(9) 0.1319(7) -0.0558(12)
H24 H 0.5091(10) 0.2123(12) 0.0380(7)
H25 H 0.4461(7) 0.2396(10) -0.0743(11)
#END
