
#######################################################################
#
#                 Cambridge Crystallographic Data Centre
#                                CCDC
#
#######################################################################
#
# If this CIF has been generated from an entry in the Cambridge
# Structural Database, then it will include bibliographic, chemical,
# crystal, experimental, refinement or atomic coordinate data resulting
# from the CCDC's data processing and validation procedures.
#
#######################################################################

data_CSD_CIF_AWELUL
_audit_creation_date 2016-09-23
_audit_creation_method CSD-ConQuest-V1
_database_code_CSD AWELUL
_database_code_depnum_ccdc_archive 'CCDC 1473225'
_chemical_formula_sum 'C6 H2 N10 O10'
_chemical_formula_moiety
;
C6 H2 N10 O10
;
_journal_coden_Cambridge 1500
_journal_volume 6
_journal_year 2016
_journal_page_first 91477
_journal_name_full 'RSC Advances '
loop_
_publ_author_name
"Yongxing Tang"
"Haixiang Gao"
"G.H.Imler"
"D.A.Parrish"
"J.M.Shreeve"
_chemical_name_systematic
;
3-(dinitromethyl)-4-((4-(dinitromethyl)-1,2,5-oxadiazol-3-yl)diazenyl)-1,2,5-o
xadiazole
;
_cell_volume    662.970
_exptl_crystal_colour 'white'
_exptl_crystal_density_diffrn 1.874
_exptl_crystal_description 'plate'
_diffrn_ambient_temperature 150
#These two values have been output from a single CSD field.
_refine_ls_R_factor_gt 0.0418
_refine_ls_wR_factor_gt 0.0418
_symmetry_cell_setting monoclinic
_symmetry_space_group_name_H-M 'P 21/n'
_symmetry_Int_Tables_number 14
loop_
_symmetry_equiv_pos_site_id
_symmetry_equiv_pos_as_xyz
1 x,y,z
2 1/2-x,1/2+y,1/2-z
3 -x,-y,-z
4 -1/2+x,-1/2-y,-1/2+z
_cell_length_a 7.3983(9)
_cell_length_b 7.6242(9)
_cell_length_c 11.7823(14)
_cell_angle_alpha 90
_cell_angle_beta 94.006(2)
_cell_angle_gamma 90
_cell_formula_units_Z 2
loop_
_atom_type_symbol
_atom_type_radius_bond
C 0.68
H 0.23
N 0.68
O 0.68
loop_
_atom_site_label
_atom_site_type_symbol
_atom_site_fract_x
_atom_site_fract_y
_atom_site_fract_z
O1 O 0.43792(17) 0.96566(15) 0.83336(11)
O2 O 0.38958(17) 0.76890(18) 0.7011(1)
N1 N 0.38072(17) 0.82537(17) 0.79691(11)
C1 C 0.2804(2) 0.71000(18) 0.87652(12)
H1 H 0.30890 0.58380 0.86320
N2 N 0.34394(18) 0.76180(17) 0.99687(11)
O3 O 0.49067(16) 0.70402(17) 1.03152(10)
O4 O 0.24400(17) 0.85528(16) 1.04851(10)
O5 O -0.16518(15) 0.84913(14) 0.77932(9)
C2 C 0.0824(2) 0.74193(18) 0.85362(12)
N3 N 0.02139(17) 0.86022(16) 0.78152(11)
N4 N -0.21861(18) 0.72189(17) 0.85165(11)
C3 C -0.0692(2) 0.65579(18) 0.89841(12)
N5 N -0.07810(16) 0.52153(16) 0.97975(10)
O1B O -0.43792(17) 0.03434(15) 1.16664(11)
O2B O -0.38958(17) 0.23110(18) 1.2989(1)
N1B N -0.38072(17) 0.17463(17) 1.20309(11)
C1B C -0.2804(2) 0.29000(18) 1.12348(12)
H1B H -0.30890 0.41620 1.13680
N2B N -0.34394(18) 0.23820(17) 1.00313(11)
O3B O -0.49067(16) 0.29598(17) 0.96848(10)
O4B O -0.24400(17) 0.14472(16) 0.95149(10)
O5B O 0.16518(15) 0.15087(14) 1.22068(9)
C2B C -0.0824(2) 0.25807(18) 1.14638(12)
N3B N -0.02139(17) 0.13978(16) 1.21848(11)
N4B N 0.21861(18) 0.27811(17) 1.14835(11)
C3B C 0.0692(2) 0.34421(18) 1.10159(12)
N5B N 0.07810(16) 0.47847(16) 1.02025(10)
#END
