
#######################################################################
#
#                 Cambridge Crystallographic Data Centre
#                                CCDC
#
#######################################################################
#
# If this CIF has been generated from an entry in the Cambridge
# Structural Database, then it will include bibliographic, chemical,
# crystal, experimental, refinement or atomic coordinate data resulting
# from the CCDC's data processing and validation procedures.
#
#######################################################################

data_CSD_CIF_AWENUM
_audit_creation_date 2011-10-27
_audit_creation_method CSD-ConQuest-V1
_database_code_CSD AWENUM
_database_code_depnum_ccdc_archive 'CCDC 751826'
_chemical_formula_sum 'C16 H12 N2 O8'
_chemical_formula_moiety
;
C16 H12 N2 O8
;
_journal_coden_Cambridge 1003
_journal_volume 41
_journal_year 2011
_journal_page_first 1180
_journal_name_full 'J.Chem.Cryst. '
loop_
_publ_author_name
"M.S.U.Khan"
"M.Bolte"
"Z.Akhter"
"H.M.Siddiqi"
_chemical_name_systematic
;
Ethane-1,2-diyl bis(4-nitrobenzoate)
;
_cell_volume   3225.313
_exptl_crystal_colour 'light brown'
_exptl_crystal_density_diffrn 1.484
_exptl_crystal_description 'block'
_diffrn_ambient_temperature 173
#These two values have been output from a single CSD field.
_refine_ls_R_factor_gt 0.032
_refine_ls_wR_factor_gt 0.032
_symmetry_cell_setting orthorhombic
_symmetry_space_group_name_H-M 'A b a 2'
_symmetry_Int_Tables_number 41
loop_
_symmetry_equiv_pos_site_id
_symmetry_equiv_pos_as_xyz
1 x,y,z
2 -x,-y,z
3 1/2+x,1/2-y,z
4 1/2-x,1/2+y,z
5 x,1/2+y,1/2+z
6 -x,1/2-y,1/2+z
7 1/2+x,-y,1/2+z
8 1/2-x,y,1/2+z
_cell_length_a 33.119(2)
_cell_length_b 8.1301(5)
_cell_length_c 11.9784(8)
_cell_angle_alpha 90
_cell_angle_beta 90
_cell_angle_gamma 90
_cell_formula_units_Z 8
loop_
_atom_type_symbol
_atom_type_radius_bond
C 0.68
H 0.23
N 0.68
O 0.68
loop_
_atom_site_label
_atom_site_type_symbol
_atom_site_fract_x
_atom_site_fract_y
_atom_site_fract_z
N1 N 0.41962(7) 0.5001(3) 0.33223(19)
N2 N 0.18591(5) 0.7455(2) 0.75907(17)
O1 O 0.47500(5) 0.6831(2) 0.83407(17)
O2 O 0.42378(5) 0.50861(19) 0.86152(14)
O3 O 0.35416(4) 0.54579(18) 0.97783(14)
O4 O 0.31280(5) 0.4215(2) 1.09974(16)
O5 O 0.44012(8) 0.5762(3) 0.26509(18)
O6 O 0.39404(7) 0.3964(3) 0.30590(16)
O7 O 0.19237(5) 0.8099(2) 0.66778(15)
O8 O 0.15205(5) 0.7290(3) 0.79866(19)
C1 C 0.44886(6) 0.5952(3) 0.7979(2)
C2 C 0.42559(7) 0.5372(3) 0.9813(2)
H1 H 0.42680 0.65660 0.99720
H2 H 0.44990 0.48430 1.01350
C3 C 0.38815(7) 0.4639(3) 1.0298(2)
H3 H 0.38720 0.34430 1.01440
H4 H 0.38760 0.48060 1.11160
C4 C 0.31792(7) 0.5063(2) 1.01807(18)
C5 C 0.44024(6) 0.5731(3) 0.6765(2)
C6 C 0.46544(6) 0.6471(2) 0.5985(2)
H5 H 0.48740 0.71300 0.62290
C7 C 0.45869(6) 0.6254(3) 0.4847(2)
H6 H 0.47600 0.67420 0.43080
C8 C 0.42605(7) 0.5306(3) 0.45265(19)
C9 C 0.39978(7) 0.4589(3) 0.5280(2)
H7 H 0.37730 0.39630 0.50290
C10 C 0.40701(7) 0.4805(3) 0.6412(2)
H8 H 0.38940 0.43240 0.69470
C11 C 0.28439(6) 0.5750(2) 0.94942(17)
C12 C 0.29129(7) 0.6582(2) 0.84856(19)
H9 H 0.31820 0.67650 0.82370
C13 C 0.25932(6) 0.7135(2) 0.78538(18)
H10 H 0.26370 0.76910 0.71670
C14 C 0.22049(6) 0.6861(2) 0.82459(18)
C15 C 0.21269(7) 0.6056(3) 0.9249(2)
H11 H 0.18580 0.58960 0.95000
C16 C 0.24488(6) 0.5499(2) 0.98674(18)
H12 H 0.24020 0.49400 1.05520
#END
