
#######################################################################
#
#                 Cambridge Crystallographic Data Centre
#                                CCDC
#
#######################################################################
#
# If this CIF has been generated from an entry in the Cambridge
# Structural Database, then it will include bibliographic, chemical,
# crystal, experimental, refinement or atomic coordinate data resulting
# from the CCDC's data processing and validation procedures.
#
#######################################################################

data_CSD_CIF_AWIXOV
_audit_creation_date 2016-09-26
_audit_creation_method CSD-ConQuest-V1
_database_code_CSD AWIXOV
_database_code_depnum_ccdc_archive 'CCDC 1496577'
_chemical_formula_sum 'C13 H21 N1 O3'
_chemical_formula_moiety
;
C13 H21 N1 O3
;
_journal_coden_Cambridge 1748
_journal_volume 3
_journal_year 2016
_journal_page_first 1651
_journal_name_full 'Org.Chem.Front. '
loop_
_publ_author_name
"F.M.Cordero"
"C.Vurchio"
"C.Faggi"
"A.Brandi"
_chemical_name_systematic
;
9'-t-butoxy-2',6'-dioxa-7'-azaspiro[cyclopropane-1,5'-tricyclo[5.2.1.0^4,8^]de
cane]
;
_chemical_name_common
;
(3aS,6R,7S,7aR)-7-(tert-butoxy)tetrahydro-3aH-spiro[1,6-methanopyrano[4,3-c]is
oxazole-3,1'-cyclopropane]
;
_cell_volume   2574.659
_exptl_crystal_colour 'white'
_exptl_crystal_density_diffrn 1.235
_exptl_crystal_description 'needle'
_diffrn_ambient_temperature 150
#These two values have been output from a single CSD field.
_refine_ls_R_factor_gt 0.045
_refine_ls_wR_factor_gt 0.045
_symmetry_cell_setting monoclinic
_symmetry_space_group_name_H-M 'P 21'
_symmetry_Int_Tables_number 4
loop_
_symmetry_equiv_pos_site_id
_symmetry_equiv_pos_as_xyz
1 x,y,z
2 -x,1/2+y,-z
_cell_length_a 10.178(1)
_cell_length_b 21.780(1)
_cell_length_c 11.615(1)
_cell_angle_alpha 90
_cell_angle_beta 90.547(1)
_cell_angle_gamma 90
_cell_formula_units_Z 8
loop_
_atom_type_symbol
_atom_type_radius_bond
C 0.68
H 0.23
N 0.68
O 0.68
loop_
_atom_site_label
_atom_site_type_symbol
_atom_site_fract_x
_atom_site_fract_y
_atom_site_fract_z
N1 N 0.2573(3) 0.91091(16) 0.3962(3)
O1 O 0.2572(3) 0.84889(14) 0.4384(3)
O2 O 0.0392(3) 0.89214(13) 0.2066(2)
O3 O 0.1899(3) 1.02950(13) 0.3395(3)
C1 C 0.1247(4) 0.9349(2) 0.4254(3)
H1 H 0.12320 0.95400 0.50180
C2 C 0.0976(4) 0.98046(18) 0.3305(4)
H2 H 0.00620 0.99460 0.32850
C3 C 0.1331(4) 0.94056(19) 0.2269(3)
H3 H 0.14520 0.96560 0.15770
C4 C 0.2626(4) 0.9125(2) 0.2673(4)
H4 H 0.27260 0.87140 0.23660
H5 H 0.33610 0.93730 0.24200
C5 C 0.0317(4) 0.87903(18) 0.4169(3)
H6 H -0.03040 0.87980 0.48090
C6 C 0.1262(4) 0.82502(19) 0.4320(3)
C7 C 0.1059(4) 0.7719(2) 0.5090(4)
H7 H 0.02120 0.76780 0.54580
H8 H 0.18020 0.75770 0.55470
C8 C 0.1115(5) 0.7635(2) 0.3802(4)
H9 H 0.18910 0.74420 0.34850
H10 H 0.03010 0.75430 0.33960
C9 C -0.0434(4) 0.88005(19) 0.3029(3)
H11 H -0.08650 0.84070 0.29170
H12 H -0.11110 0.91130 0.30630
C10 C 0.1470(4) 1.09132(18) 0.3147(4)
C11 C 0.0750(5) 1.1161(2) 0.4184(4)
H13 H 0.04600 1.15730 0.40280
H14 H 0.00040 1.09060 0.43400
H15 H 0.13310 1.11630 0.48400
C12 C 0.0610(6) 1.0943(3) 0.2072(5)
H16 H 0.03450 1.13600 0.19370
H17 H 0.10960 1.07960 0.14230
H18 H -0.01550 1.06920 0.21760
C13 C 0.2738(4) 1.1268(2) 0.2975(5)
H19 H 0.25370 1.16890 0.28040
H20 H 0.32630 1.12470 0.36640
H21 H 0.32150 1.10920 0.23470
N2 N 0.7770(3) 0.97577(15) 0.4803(3)
O4 O 0.7922(3) 1.04027(13) 0.4500(3)
O5 O 0.5301(3) 0.99183(14) 0.6416(2)
O6 O 0.6829(2) 0.85731(13) 0.5040(3)
C14 C 0.6472(3) 0.95955(17) 0.4287(3)
H22 H 0.65420 0.94520 0.34900
C15 C 0.5990(4) 0.90983(17) 0.5097(3)
H23 H 0.50630 0.89950 0.49680
C16 C 0.6227(4) 0.9426(2) 0.6245(3)
H24 H 0.62140 0.91350 0.68890
C17 C 0.7609(4) 0.9686(2) 0.6066(3)
H25 H 0.77010 1.00790 0.64500
H26 H 0.82670 0.94070 0.63750
C18 C 0.5626(4) 1.01837(17) 0.4392(3)
H27 H 0.51490 1.02580 0.36680
C19 C 0.6663(4) 1.06803(18) 0.4575(3)
C20 C 0.6606(5) 1.13177(19) 0.4099(4)
H28 H 0.58070 1.14430 0.37030
H29 H 0.74080 1.14910 0.37920
C21 C 0.6541(5) 1.1212(2) 0.5391(4)
H30 H 0.73040 1.13210 0.58530
H31 H 0.57030 1.12740 0.57640
C22 C 0.4658(4) 1.01202(19) 0.5374(3)
H32 H 0.42370 1.05130 0.55090
H33 H 0.39810 0.98270 0.51600
C23 C 0.6232(4) 0.79956(18) 0.4717(4)
C24 C 0.5635(4) 0.8037(2) 0.3523(4)
H34 H 0.52430 0.76500 0.33220
H35 H 0.49740 0.83520 0.35090
H36 H 0.63070 0.81350 0.29800
C25 C 0.5222(4) 0.7809(2) 0.5613(4)
H37 H 0.48300 0.74250 0.53940
H38 H 0.56470 0.77660 0.63490
H39 H 0.45540 0.81190 0.56580
C26 C 0.7388(4) 0.7554(2) 0.4734(4)
H40 H 0.70890 0.71500 0.45280
H41 H 0.80340 0.76880 0.41930
H42 H 0.77710 0.75440 0.54930
N3 N 0.0445(3) 1.07321(16) 0.8594(3)
O7 O 0.0348(2) 1.13098(13) 0.9197(2)
O8 O 0.2803(3) 1.10842(13) 0.6959(2)
O9 O 0.1316(3) 0.96125(13) 0.7690(2)
C27 C 0.1765(4) 1.04987(18) 0.8938(4)
H43 H 0.17390 1.02550 0.96470
C28 C 0.2166(4) 1.01167(18) 0.7898(3)
H44 H 0.30940 0.99970 0.79250
C29 C 0.1874(4) 1.05869(19) 0.6965(3)
H45 H 0.18260 1.03900 0.62080
C30 C 0.0523(4) 1.0822(2) 0.7320(3)
H46 H 0.04280 1.12530 0.71270
H47 H -0.01660 1.05930 0.69300
C31 C 0.2638(4) 1.10806(18) 0.9069(3)
H48 H 0.31770 1.10500 0.97710
C32 C 0.1625(4) 1.15854(18) 0.9203(3)
C33 C 0.1721(4) 1.22130(19) 0.8693(4)
H49 H 0.09360 1.23870 0.83420
H50 H 0.25380 1.23260 0.83270
C34 C 0.1736(4) 1.21265(19) 0.9980(4)
H51 H 0.25630 1.21890 1.03860
H52 H 0.09610 1.22490 1.04020
C35 C 0.3521(4) 1.1149(2) 0.8024(3)
H53 H 0.39370 1.15500 0.80450
H54 H 0.42070 1.08410 0.80590
C36 C 0.1739(4) 0.90062(18) 0.8051(3)
C37 C 0.2011(4) 0.8978(2) 0.9337(3)
H55 H 0.22880 0.85700 0.95430
H56 H 0.26920 0.92650 0.95340
H57 H 0.12260 0.90790 0.97460
C38 C 0.2933(4) 0.8803(2) 0.7372(4)
H58 H 0.32000 0.84010 0.76220
H59 H 0.27140 0.87910 0.65670
H60 H 0.36400 0.90880 0.74990
C39 C 0.0564(4) 0.8611(2) 0.7740(4)
H61 H 0.07410 0.81920 0.79470
H62 H -0.01920 0.87540 0.81500
H63 H 0.03970 0.86370 0.69270
N4 N 0.5338(3) 1.00679(16) 0.9759(3)
O10 O 0.5272(3) 0.94321(13) 0.9419(2)
O11 O 0.7878(3) 0.99634(13) 1.1382(2)
O12 O 0.6158(3) 1.12776(13) 1.0084(3)
C40 C 0.6600(3) 1.02849(18) 0.9267(3)
H64 H 0.64980 1.04390 0.84790
C41 C 0.7047(4) 1.07745(18) 1.0096(3)
H65 H 0.79590 1.09010 0.99720
C42 C 0.6871(4) 1.04154(19) 1.1227(3)
H66 H 0.68530 1.06970 1.18850
C43 C 0.5530(4) 1.0127(2) 1.1034(3)
H67 H 0.54920 0.97260 1.13970
H68 H 0.48500 1.03840 1.13590
C44 C 0.7532(3) 0.97153(17) 0.9341(3)
H69 H 0.80020 0.96650 0.86140
C45 C 0.6577(4) 0.91885(19) 0.9504(3)
C46 C 0.6779(5) 0.8658(2) 1.0313(4)
H70 H 0.60370 0.85260 1.07690
H71 H 0.76290 0.86180 1.06890
C47 C 0.6708(4) 0.8557(2) 0.9028(4)
H72 H 0.75150 0.84550 0.86350
H73 H 0.59240 0.83630 0.87150
C48 C 0.8508(4) 0.97904(19) 1.0328(3)
H74 H 0.89740 0.94070 1.04440
H75 H 0.91470 1.01020 1.01260
C49 C 0.6707(4) 1.1887(2) 0.9975(4)
C50 C 0.7270(5) 1.1972(3) 0.8786(4)
H76 H 0.76330 1.23770 0.87210
H77 H 0.79490 1.16730 0.86620
H78 H 0.65870 1.19190 0.82190
C51 C 0.7743(5) 1.2009(2) 1.0895(5)
H79 H 0.80890 1.24160 1.08010
H80 H 0.73550 1.19730 1.16430
H81 H 0.84410 1.17150 1.08250
C52 C 0.5535(4) 1.2308(2) 1.0141(5)
H82 H 0.58140 1.27280 1.00820
H83 H 0.48840 1.22240 0.95590
H84 H 0.51670 1.22390 1.08880
#END
