
#######################################################################
#
#                 Cambridge Crystallographic Data Centre
#                                CCDC
#
#######################################################################
#
# If this CIF has been generated from an entry in the Cambridge
# Structural Database, then it will include bibliographic, chemical,
# crystal, experimental, refinement or atomic coordinate data resulting
# from the CCDC's data processing and validation procedures.
#
#######################################################################

data_CSD_CIF_AWOBAR
_audit_creation_date 2016-09-27
_audit_creation_method CSD-ConQuest-V1
_database_code_CSD AWOBAR
_database_code_depnum_ccdc_archive 'CCDC 1451589'
_chemical_formula_sum 'C26 H16 N4 O8'
_chemical_formula_moiety
;
C26 H16 N4 O8
;
_journal_coden_Cambridge 1475
_journal_volume 8
_journal_year 2017
_journal_page_first 1163
_journal_name_full 'Chemical Science '
loop_
_publ_author_name
"Tao Yu"
"Depei Ou"
"Zhiyong Yang"
"Qiuyi Huang"
"Zhu Mao"
"Junru Chen"
"Yi Zhang"
"Siwei Liu"
"Jiarui Xu"
"M.R.Bryce"
"Zhenguo Chi"
_chemical_name_systematic
;
1-nitro-4-(tris(4-nitrophenyl)vinyl)benzene
;
_chemical_name_common
;
HOFTPE4N
;
_cell_volume   5326.147
_exptl_crystal_colour 'yellow'
_exptl_crystal_density_diffrn 1.278
_exptl_special_details
;
There are some void spaces in the structure

;
_exptl_crystal_description 'block'
_diffrn_ambient_temperature 173
#These two values have been output from a single CSD field.
_refine_ls_R_factor_gt 0.0528
_refine_ls_wR_factor_gt 0.0528
_symmetry_cell_setting tetragonal
_symmetry_space_group_name_H-M 'P 42/n'
_symmetry_Int_Tables_number 86
loop_
_symmetry_equiv_pos_site_id
_symmetry_equiv_pos_as_xyz
1 x,y,z
2 -y,1/2+x,1/2+z
3 1/2-x,1/2-y,z
4 1/2+y,-x,1/2+z
5 -x,-y,-z
6 y,-1/2-x,-1/2-z
7 -1/2+x,-1/2+y,-z
8 -1/2-y,x,-1/2-z
_cell_length_a 19.9155(2)
_cell_length_b 19.9155(2)
_cell_length_c 13.4286(2)
_cell_angle_alpha 90
_cell_angle_beta 90
_cell_angle_gamma 90
_cell_formula_units_Z 8
loop_
_atom_type_symbol
_atom_type_radius_bond
C 0.68
H 0.23
N 0.68
O 0.68
loop_
_atom_site_label
_atom_site_type_symbol
_atom_site_fract_x
_atom_site_fract_y
_atom_site_fract_z
C1 C 1.00113(10) 0.44919(9) 0.12090(13)
C2 C 0.89471(10) 0.13021(10) -0.08196(14)
H1 H 0.88410 0.16930 -0.11940
C3 C 0.8821(1) 0.06774(10) -0.12158(13)
H2 H 0.86340 0.06340 -0.18640
C4 C 0.93821(10) 0.42151(10) 0.12922(13)
H3 H 0.90260 0.44580 0.15950
C5 C 0.92300(9) 0.13687(9) 0.01281(13)
C6 C 0.93952(10) 0.20371(9) 0.05612(12)
C7 C 0.89695(10) 0.01171(10) -0.06596(14)
C8 C 1.04239(10) 0.35323(10) 0.03737(15)
H4 H 1.07790 0.33030 0.00440
C9 C 0.98019(10) 0.32216(9) 0.04729(12)
N1 N 0.88606(10) -0.05402(10) -0.11086(14)
C10 C 0.93415(10) 0.07935(10) 0.06847(13)
H5 H 0.95030 0.08340 0.13480
C11 C 0.92807(10) 0.35719(10) 0.09231(13)
H6 H 0.88510 0.33690 0.09790
N2 N 1.01355(9) 0.51524(9) 0.16510(13)
O1 O 1.06498(9) 0.54475(9) 0.14326(16)
C12 C 0.92141(11) 0.21000(9) 0.16380(13)
C13 C 0.9953(1) 0.24556(9) -0.09899(13)
C14 C 0.97716(12) 0.29238(10) -0.17072(14)
H7 H 0.94930 0.32910 -0.15260
O2 O 0.97277(10) 0.53752(10) 0.22416(15)
C15 C 1.03747(12) 0.19301(10) -0.12574(15)
H8 H 1.05160 0.16160 -0.07680
C16 C 0.96993(10) 0.25379(9) 0.00488(13)
C17 C 0.92222(10) 0.01628(10) 0.02947(15)
H9 H 0.93120 -0.02300 0.06740
C18 C 0.85508(12) 0.20187(12) 0.19290(16)
H10 H 0.82140 0.19400 0.14430
C19 C 1.05328(10) 0.41675(11) 0.07467(15)
H11 H 1.09600 0.43760 0.06850
C20 C 1.05911(13) 0.18619(11) -0.22336(16)
H12 H 1.08730 0.14990 -0.24230
O3 O 0.90441(11) -0.10362(9) -0.06548(16)
C21 C 0.99894(14) 0.28642(12) -0.26797(15)
H13 H 0.98650 0.31860 -0.31690
C22 C 0.97080(13) 0.21956(11) 0.23557(14)
H14 H 1.01630 0.22460 0.21590
O4 O 1.05813(14) 0.27467(13) -0.45059(14)
C23 C 0.88812(16) 0.21471(11) 0.36176(15)
C24 C 0.95388(16) 0.22177(11) 0.33577(15)
H15 H 0.98740 0.22810 0.38520
C25 C 1.03900(13) 0.23296(11) -0.29201(14)
N3 N 0.8690(2) 0.21879(12) 0.46808(18)
O5 O 0.81069(17) 0.21207(17) 0.48882(18)
C26 C 0.83791(14) 0.20526(12) 0.29262(18)
H16 H 0.79240 0.20120 0.31300
O6 O 1.08264(17) 0.17209(12) -0.42234(16)
N4 N 1.06141(14) 0.22594(13) -0.39611(15)
O7 O 0.9131(2) 0.22611(14) 0.52939(15)
O8 O 0.85954(13) -0.0565(1) -0.19314(14)
#END
