
#######################################################################
#
#                 Cambridge Crystallographic Data Centre
#                                CCDC
#
#######################################################################
#
# If this CIF has been generated from an entry in the Cambridge
# Structural Database, then it will include bibliographic, chemical,
# crystal, experimental, refinement or atomic coordinate data resulting
# from the CCDC's data processing and validation procedures.
#
#######################################################################

data_CSD_CIF_AWOJOL
_audit_creation_date 2004-08-19
_audit_creation_method CSD-ConQuest-V1
_database_code_CSD AWOJOL
_database_code_depnum_ccdc_archive 'CCDC 191967'
_chemical_formula_sum 'C19 H9 N3 O5'
_chemical_formula_moiety
;
C19 H9 N3 O5
;
_journal_coden_Cambridge 16
_journal_volume 58
_journal_year 2002
_journal_page_first 10437
_journal_name_full 'Tetrahedron '
loop_
_publ_author_name
"Mei-Hsiu Shih"
_chemical_name_systematic
;
3-(3-Phenylsydnon-4-yl)-naphtho(2,3-d)isoxazole-4,9-dione
;
_chemical_melting_point 476.15
_cell_volume   1573.884
_exptl_crystal_colour 'yellow'
_exptl_crystal_density_diffrn 1.516
_exptl_special_details
;
Melting point range 476.15-477.15K

;
_exptl_crystal_description 'prism'
_exptl_crystal_preparation 'dichloromethane/ethanol'
_diffrn_ambient_temperature 298
#These two values have been output from a single CSD field.
_refine_ls_R_factor_gt 0.048
_refine_ls_wR_factor_gt 0.048
_symmetry_cell_setting monoclinic
_symmetry_space_group_name_H-M 'P 21/n'
_symmetry_Int_Tables_number 14
loop_
_symmetry_equiv_pos_site_id
_symmetry_equiv_pos_as_xyz
1 x,y,z
2 1/2-x,1/2+y,1/2-z
3 -x,-y,-z
4 -1/2+x,-1/2-y,-1/2+z
_cell_length_a 14.417(2)
_cell_length_b 6.991(2)
_cell_length_c 17.152(2)
_cell_angle_alpha 90
_cell_angle_beta 114.436(9)
_cell_angle_gamma 90
_cell_formula_units_Z 4
loop_
_atom_type_symbol
_atom_type_radius_bond
C 0.68
N 0.68
O 0.68
loop_
_atom_site_label
_atom_site_type_symbol
_atom_site_fract_x
_atom_site_fract_y
_atom_site_fract_z
O1 O 0.1604(1) -0.0656(3) 0.6701(1)
O2 O 0.3232(2) -0.1703(3) 0.7412(1)
O3 O 0.5245(1) 0.2272(3) 0.6676(1)
O4 O 0.6241(1) 0.2989(3) 0.5575(1)
O5 O 0.2304(1) 0.0839(3) 0.4375(1)
N1 N 0.1801(1) 0.1644(3) 0.5985(1)
N2 N 0.1089(2) 0.0747(3) 0.6122(1)
N3 N 0.4502(2) 0.1854(3) 0.6989(1)
C1 C 0.2659(2) -0.0562(4) 0.6922(2)
C2 C 0.2750(2) 0.0968(3) 0.6427(1)
C3 C 0.1509(2) 0.3287(3) 0.5425(1)
C4 C 0.2066(2) 0.4941(3) 0.5696(1)
C5 C 0.1805(2) 0.6492(4) 0.5144(2)
C6 C 0.1003(2) 0.6392(5) 0.4361(2)
C7 C 0.0438(2) 0.4728(5) 0.4104(2)
C8 C 0.0689(2) 0.3150(4) 0.4631(2)
C9 C 0.3645(2) 0.1569(3) 0.6306(1)
C10 C 0.4786(2) 0.2250(3) 0.5820(2)
C11 C 0.3794(2) 0.1811(3) 0.5540(1)
C12 C 0.5340(2) 0.2620(4) 0.5279(2)
C13 C 0.3150(2) 0.1518(3) 0.4625(2)
C14 C 0.4680(2) 0.2527(3) 0.4349(2)
C15 C 0.3644(2) 0.2028(3) 0.4035(2)
C16 C 0.3059(2) 0.1996(4) 0.3161(2)
C17 C 0.3502(3) 0.2429(5) 0.2601(2)
C18 C 0.4518(3) 0.2884(5) 0.2909(2)
C19 C 0.5108(2) 0.2931(4) 0.3775(2)
#END
