
#######################################################################
#
#                 Cambridge Crystallographic Data Centre
#                                CCDC
#
#######################################################################
#
# If this CIF has been generated from an entry in the Cambridge
# Structural Database, then it will include bibliographic, chemical,
# crystal, experimental, refinement or atomic coordinate data resulting
# from the CCDC's data processing and validation procedures.
#
#######################################################################

data_CSD_CIF_AWUJIM
_audit_creation_date 2011-09-23
_audit_creation_method CSD-ConQuest-V1
_database_code_CSD AWUJIM
_database_code_depnum_ccdc_archive 'CCDC 841101'
_chemical_formula_sum 'C15 H13 N3 O4'
_chemical_formula_moiety
;
C15 H13 N3 O4
;
_journal_coeditor_code "IUCr RZ2619"
_journal_coden_Cambridge 1370
_journal_volume 67
_journal_year 2011
_journal_page_first o1886
_journal_name_full 'Acta Crystallogr.,Sect.E:Struct.Rep.Online '
loop_
_publ_author_name
"Jin-Wu Guo"
"Jun-Ying Ma"
"Chao-Wei Sun"
_chemical_name_systematic
;
(E)-N'-(4-Methoxybenzylidene)-3-nitrobenzohydrazide
;
_cell_volume   1459.452
_exptl_crystal_colour 'pale yellow'
_exptl_crystal_density_diffrn 1.362
_exptl_crystal_description 'needle'
_diffrn_ambient_temperature 298
#These two values have been output from a single CSD field.
_refine_ls_R_factor_gt 0.0631
_refine_ls_wR_factor_gt 0.0631
_symmetry_cell_setting monoclinic
_symmetry_space_group_name_H-M 'P 21/c'
_symmetry_Int_Tables_number 14
loop_
_symmetry_equiv_pos_site_id
_symmetry_equiv_pos_as_xyz
1 x,y,z
2 -x,1/2+y,1/2-z
3 -x,-y,-z
4 x,-1/2-y,-1/2+z
_cell_length_a 13.667(4)
_cell_length_b 4.889(3)
_cell_length_c 22.522(4)
_cell_angle_alpha 90
_cell_angle_beta 104.113(3)
_cell_angle_gamma 90
_cell_formula_units_Z 4
loop_
_atom_type_symbol
_atom_type_radius_bond
C 0.68
H 0.23
N 0.68
O 0.68
loop_
_atom_site_label
_atom_site_type_symbol
_atom_site_fract_x
_atom_site_fract_y
_atom_site_fract_z
N1 N 0.26856(19) 0.4077(5) 0.12291(10)
N2 N 0.22236(19) 0.4793(4) 0.06262(10)
H1 H 0.20220 0.64430 0.05370
N3 N -0.03766(19) 0.8680(5) -0.13175(12)
O1 O 0.44934(18) 0.4662(5) 0.41484(9)
O2 O 0.23532(17) 0.0453(4) 0.02765(9)
O3 O -0.05412(17) 0.9975(4) -0.08818(10)
O4 O -0.08122(19) 0.9108(5) -0.18561(10)
C1 C 0.3188(2) 0.5554(6) 0.22758(11)
C2 C 0.3912(2) 0.3558(6) 0.24755(12)
H2 H 0.40920 0.24230 0.21880
C3 C 0.4377(2) 0.3199(6) 0.30896(12)
H3 H 0.48700 0.18620 0.32100
C4 C 0.4100(2) 0.4862(6) 0.35258(12)
C5 C 0.3381(3) 0.6875(6) 0.33375(13)
H4 H 0.31970 0.79900 0.36270
C6 C 0.2933(2) 0.7246(6) 0.27212(12)
H5 H 0.24590 0.86280 0.26000
C7 C 0.2695(2) 0.5983(6) 0.16229(12)
H6 H 0.23880 0.76510 0.14950
C8 C 0.2095(2) 0.2863(6) 0.01832(12)
C9 C 0.1590(2) 0.3825(5) -0.04553(11)
C10 C 0.0857(2) 0.5890(5) -0.05782(12)
H7 H 0.06810 0.68320 -0.02610
C11 C 0.0400(2) 0.6497(6) -0.11841(12)
C12 C 0.0651(3) 0.5157(6) -0.16723(13)
H8 H 0.03310 0.56080 -0.20740
C13 C 0.1384(2) 0.3145(6) -0.15503(12)
H9 H 0.15690 0.22470 -0.18700
C14 C 0.1841(2) 0.2474(6) -0.09470(12)
H10 H 0.23240 0.10960 -0.08680
C15 C 0.5296(3) 0.2752(9) 0.43634(14)
H11 H 0.50630 0.09350 0.42430
H12 H 0.55120 0.28490 0.48020
H13 H 0.58520 0.31900 0.41890
#END
