
#######################################################################
#
#                 Cambridge Crystallographic Data Centre
#                                CCDC
#
#######################################################################
#
# If this CIF has been generated from an entry in the Cambridge
# Structural Database, then it will include bibliographic, chemical,
# crystal, experimental, refinement or atomic coordinate data resulting
# from the CCDC's data processing and validation procedures.
#
#######################################################################

data_CSD_CIF_AWULAG
_audit_creation_date 2011-09-23
_audit_creation_method CSD-ConQuest-V1
_database_code_CSD AWULAG
_database_code_depnum_ccdc_archive 'CCDC 841109'
_chemical_formula_sum 'C15 H13 N3 O4'
_chemical_formula_moiety
;
C15 H13 N3 O4
;
_journal_coeditor_code "IUCr RZ2618"
_journal_coden_Cambridge 1370
_journal_volume 67
_journal_year 2011
_journal_page_first o1895
_journal_name_full 'Acta Crystallogr.,Sect.E:Struct.Rep.Online '
loop_
_publ_author_name
"Jin-Wu Guo"
"Jun-Ying Ma"
"Chao-Wei Sun"
_chemical_name_systematic
;
(E)-N'-(2-Methoxybenzylidene)-3-nitrobenzohydrazide
;
_cell_volume   1445.775
_exptl_crystal_colour 'pale yellow'
_exptl_crystal_density_diffrn 1.375
_exptl_crystal_description 'needle'
_diffrn_ambient_temperature 298
#These two values have been output from a single CSD field.
_refine_ls_R_factor_gt 0.0665
_refine_ls_wR_factor_gt 0.0665
_symmetry_cell_setting monoclinic
_symmetry_space_group_name_H-M 'P 21/n'
_symmetry_Int_Tables_number 14
loop_
_symmetry_equiv_pos_site_id
_symmetry_equiv_pos_as_xyz
1 x,y,z
2 1/2-x,1/2+y,1/2-z
3 -x,-y,-z
4 -1/2+x,-1/2-y,-1/2+z
_cell_length_a 6.9886(13)
_cell_length_b 29.543(3)
_cell_length_c 7.4163(14)
_cell_angle_alpha 90
_cell_angle_beta 109.229(2)
_cell_angle_gamma 90
_cell_formula_units_Z 4
loop_
_atom_type_symbol
_atom_type_radius_bond
C 0.68
H 0.23
N 0.68
O 0.68
loop_
_atom_site_label
_atom_site_type_symbol
_atom_site_fract_x
_atom_site_fract_y
_atom_site_fract_z
N1 N 0.1106(3) 0.28532(7) 0.7046(3)
N2 N 0.1501(3) 0.25598(7) 0.8592(3)
H1 H 0.23050 0.26390 0.96980
N3 N 0.1869(5) 0.0622(1) 1.1044(6)
O1 O 0.2305(4) 0.41464(7) 0.8421(3)
O2 O -0.0564(3) 0.20220(6) 0.6790(3)
O3 O 0.1521(5) 0.04907(9) 0.9404(5)
O4 O 0.2330(5) 0.03803(9) 1.2447(5)
C1 C 0.1507(4) 0.35973(8) 0.6012(4)
C2 C 0.1822(4) 0.40543(9) 0.6509(5)
C3 C 0.1630(5) 0.43806(11) 0.5128(6)
H2 H 0.18130 0.46850 0.54630
C4 C 0.1166(5) 0.42509(13) 0.3260(6)
H3 H 0.10300 0.44710 0.23290
C5 C 0.0895(5) 0.38036(13) 0.2730(5)
H4 H 0.06130 0.37200 0.14600
C6 C 0.1050(4) 0.34806(10) 0.4110(4)
H5 H 0.08430 0.31780 0.37560
C7 C 0.2868(6) 0.45963(11) 0.9068(6)
H6 H 0.38850 0.47030 0.85610
H7 H 0.33990 0.46000 1.04380
H8 H 0.17010 0.47900 0.86410
C8 C 0.1739(4) 0.32553(9) 0.7488(4)
H9 H 0.23560 0.33320 0.87650
C9 C 0.0617(4) 0.21543(9) 0.8337(4)
C10 C 0.1119(4) 0.18579(9) 1.0065(4)
C11 C 0.1229(4) 0.13972(9) 0.9798(4)
H10 H 0.10080 0.12810 0.85800
C12 C 0.1664(4) 0.11134(10) 1.1332(5)
C13 C 0.1935(5) 0.12710(13) 1.3129(5)
H11 H 0.22240 0.10710 1.41520
C14 C 0.1779(5) 0.17262(13) 1.3418(4)
H12 H 0.19270 0.18360 1.46320
C15 C 0.1397(4) 0.20246(10) 1.1875(4)
H13 H 0.13310 0.23350 1.20660
#END
