
#######################################################################
#
#                 Cambridge Crystallographic Data Centre
#                                CCDC
#
#######################################################################
#
# If this CIF has been generated from an entry in the Cambridge
# Structural Database, then it will include bibliographic, chemical,
# crystal, experimental, refinement or atomic coordinate data resulting
# from the CCDC's data processing and validation procedures.
#
#######################################################################

data_CSD_CIF_AWUXOF
_audit_creation_date 2004-08-19
_audit_creation_method CSD-ConQuest-V1
_database_code_CSD AWUXOF
_database_code_depnum_ccdc_archive 'CCDC 217741'
_chemical_formula_sum 'C18 H28 N2 O6'
_chemical_formula_moiety
;
C18 H28 N2 O6
;
_journal_coden_Cambridge 64
_journal_volume 85
_journal_year 2003
_journal_page_first 1002
_journal_name_full 'Curr.Sci. '
loop_
_publ_author_name
"K.Ananda"
"S.Aravinda"
"P.G.Vasudev"
"K.M.P.Raja"
"H.Sivaramakrishnan"
"K.Nagarajan"
"N.Shamala"
"P.Balaram"
_chemical_name_systematic
;
(1-(N-(t-Butoxycarbonyl)aminomethyl)cyclohexane)acetic acid succinimidyl ester
;
_chemical_name_common
;
N-(t-Butyloxycarbonyl)gabapentin succinimidyl ester
;
_chemical_melting_point 444.15
_cell_volume   1967.230
_exptl_crystal_density_diffrn 1.244
_exptl_special_details
;
Melting point range 444.15-445.15K
paper gives study temperature as 21deg.C

;
_exptl_crystal_description 'cubic'
_exptl_crystal_preparation 'ethyl acetate'
_diffrn_ambient_temperature 273
#These two values have been output from a single CSD field.
_refine_ls_R_factor_gt 0.0732
_refine_ls_wR_factor_gt 0.0732
_symmetry_cell_setting monoclinic
_symmetry_space_group_name_H-M 'P 21/c'
_symmetry_Int_Tables_number 14
loop_
_symmetry_equiv_pos_site_id
_symmetry_equiv_pos_as_xyz
1 x,y,z
2 x,1/2-y,1/2+z
3 -x,-y,-z
4 -x,-1/2+y,-1/2-z
_cell_length_a 15.068(14)
_cell_length_b 12.396(12)
_cell_length_c 11.373(11)
_cell_angle_alpha 90
_cell_angle_beta 112.17
_cell_angle_gamma 90
_cell_formula_units_Z 4
loop_
_atom_type_symbol
_atom_type_radius_bond
C 0.68
H 0.23
N 0.68
O 0.68
loop_
_atom_site_label
_atom_site_type_symbol
_atom_site_fract_x
_atom_site_fract_y
_atom_site_fract_z
C1 C 0.5329(4) 0.9209(3) 0.7008(5)
C2 C 0.3901(4) 0.8466(4) 0.5223(5)
C3 C 0.4491(4) 0.7594(4) 0.7395(5)
C4 C 0.4755(3) 0.8197(3) 0.6414(3)
O1 O 0.54646(17) 0.75689(16) 0.6094(2)
C5 C 0.5256(2) 0.6569(2) 0.5611(3)
O2 O 0.44627(17) 0.61504(17) 0.5288(2)
N1 N 0.6015(2) 0.6088(2) 0.5504(3)
C6 C 0.6986(2) 0.6508(3) 0.5923(3)
C7 C 0.7693(2) 0.6018(2) 0.7174(3)
C8 C 0.7785(3) 0.4776(3) 0.7017(3)
C9 C 0.8270(3) 0.4482(2) 0.6135(3)
O3 O 0.9105(2) 0.4380(2) 0.6382(3)
C10 C 0.7327(3) 0.6203(3) 0.8257(3)
C11 C 0.8053(3) 0.5920(3) 0.9567(4)
C12 C 0.8998(4) 0.6496(4) 0.9859(4)
C13 C 0.9395(3) 0.6294(4) 0.8835(4)
C14 C 0.8664(3) 0.6594(3) 0.7521(4)
O4 O 0.75984(17) 0.43028(18) 0.4927(2)
N2 N 0.8017(2) 0.4072(2) 0.4049(3)
C15 C 0.8309(3) 0.3042(3) 0.3891(3)
O5 O 0.8222(2) 0.2261(2) 0.4460(3)
C16 C 0.8712(4) 0.3150(4) 0.2871(5)
C17 C 0.8690(4) 0.4334(4) 0.2566(5)
C18 C 0.8236(3) 0.4880(3) 0.3388(4)
O6 O 0.8087(3) 0.5816(2) 0.3501(4)
H1 H 0.697(2) 0.728(3) 0.607(3)
H2 H 0.946(3) 0.630(3) 1.068(4)
H3 H 0.721(2) 0.636(2) 0.523(3)
H4 H 0.719(2) 0.696(3) 0.827(3)
H5 H 0.716(3) 0.446(3) 0.665(3)
H6 H 0.816(2) 0.448(2) 0.783(3)
H7 H 0.681(3) 0.582(3) 0.811(4)
H8 H 0.412(3) 0.879(3) 0.455(4)
H9 H 0.993(3) 0.672(3) 0.897(4)
H10 H 0.587(2) 0.547(3) 0.517(3)
H11 H 0.412(3) 0.804(3) 0.773(4)
H12 H 0.961(3) 0.554(3) 0.886(3)
H13 H 0.784(3) 0.608(3) 1.026(4)
H14 H 0.594(3) 0.900(3) 0.769(4)
H15 H 0.507(3) 0.735(3) 0.820(5)
H16 H 0.411(3) 0.695(4) 0.701(4)
H17 H 0.892(3) 0.645(3) 0.683(4)
H18 H 0.892(3) 0.725(3) 0.992(3)
H19 H 0.817(3) 0.513(3) 0.962(3)
H20 H 0.855(3) 0.737(3) 0.755(4)
H21 H 0.932(3) 0.459(3) 0.286(4)
H22 H 0.935(4) 0.288(4) 0.327(5)
H23 H 0.551(3) 0.958(3) 0.631(4)
H24 H 0.350(3) 0.900(4) 0.542(4)
H25 H 0.491(3) 0.968(4) 0.724(4)
H26 H 0.827(4) 0.446(4) 0.172(6)
H27 H 0.353(3) 0.790(3) 0.485(4)
H28 H 0.839(4) 0.271(4) 0.213(5)
#END
