
#######################################################################
#
#                 Cambridge Crystallographic Data Centre
#                                CCDC
#
#######################################################################
#
# If this CIF has been generated from an entry in the Cambridge
# Structural Database, then it will include bibliographic, chemical,
# crystal, experimental, refinement or atomic coordinate data resulting
# from the CCDC's data processing and validation procedures.
#
#######################################################################

data_CSD_CIF_AWUYUN
_audit_creation_date 2011-10-18
_audit_creation_method CSD-ConQuest-V1
_database_code_CSD AWUYUN
_database_code_depnum_ccdc_archive 'CCDC 841169'
_chemical_formula_sum 'C17 H17 N1 O3'
_chemical_formula_moiety
;
C17 H17 N1 O3
;
_journal_coeditor_code "IUCr IM2301"
_journal_coden_Cambridge 1370
_journal_volume 67
_journal_year 2011
_journal_page_first o1975
_journal_name_full 'Acta Crystallogr.,Sect.E:Struct.Rep.Online '
loop_
_publ_author_name
"S.Samshuddin"
"R.J.Butcher"
"M.Akkurt"
"B.Narayana"
"H.S.Yathirajan"
_chemical_name_systematic
;
3,5-bis(4-methoxyphenyl)-4,5-dihydro-1,2-oxazole
;
_chemical_melting_point 407
_cell_volume   2883.896
_exptl_crystal_colour 'colorless'
_exptl_crystal_density_diffrn 1.305
_exptl_crystal_description 'triangular plate'
_exptl_crystal_preparation 'ethanol'
_diffrn_ambient_temperature 295
#These two values have been output from a single CSD field.
_refine_ls_R_factor_gt 0.0745
_refine_ls_wR_factor_gt 0.0745
_symmetry_cell_setting orthorhombic
_symmetry_space_group_name_H-M 'P b c a'
_symmetry_Int_Tables_number 61
loop_
_symmetry_equiv_pos_site_id
_symmetry_equiv_pos_as_xyz
1 x,y,z
2 1/2-x,-y,1/2+z
3 1/2+x,1/2-y,-z
4 -x,1/2+y,1/2-z
5 -x,-y,-z
6 -1/2+x,y,-1/2-z
7 -1/2-x,-1/2+y,z
8 x,-1/2-y,-1/2+z
_cell_length_a 10.5071(7)
_cell_length_b 8.4023(5)
_cell_length_c 32.6662(19)
_cell_angle_alpha 90
_cell_angle_beta 90
_cell_angle_gamma 90
_cell_formula_units_Z 8
loop_
_atom_type_symbol
_atom_type_radius_bond
C 0.68
H 0.23
N 0.68
O 0.68
loop_
_atom_site_label
_atom_site_type_symbol
_atom_site_fract_x
_atom_site_fract_y
_atom_site_fract_z
O1 O 0.70804(13) 0.51832(16) 0.43065(4)
O2 O 0.63367(15) 0.77980(18) 0.25241(4)
O3 O 0.62961(12) 0.83077(16) 0.65053(4)
N1 N 0.72185(15) 0.54460(19) 0.47317(4)
C1 C 0.58593(17) 0.5848(2) 0.41763(5)
C2 C 0.59901(16) 0.6424(2) 0.37429(5)
C3 C 0.63231(14) 0.69607(18) 0.52798(5)
C4 C 0.55553(17) 0.7045(2) 0.45099(5)
C5 C 0.51887(17) 0.5861(2) 0.34384(6)
C6 C 0.53722(15) 0.7969(2) 0.54218(5)
C7 C 0.63763(14) 0.64427(19) 0.48509(5)
C8 C 0.53294(18) 0.6342(2) 0.30376(6)
C9 C 0.53190(15) 0.8445(2) 0.58282(5)
C10 C 0.62771(17) 0.7403(2) 0.29317(5)
C11 C 0.62455(15) 0.7929(2) 0.60983(5)
C12 C 0.70837(17) 0.7983(2) 0.32303(5)
C13 C 0.71995(16) 0.6916(2) 0.59621(5)
C14 C 0.69329(16) 0.7490(2) 0.36319(5)
C15 C 0.72320(15) 0.6433(2) 0.55609(5)
C16 C 0.7369(2) 0.8744(3) 0.23880(6)
C17 C 0.53076(19) 0.9273(3) 0.66684(6)
H1 H 0.45450 0.51470 0.35060
H2 H 0.52180 0.50020 0.41830
H3 H 0.47830 0.59510 0.28370
H4 H 0.57900 0.81170 0.44300
H5 H 0.46610 0.70220 0.45830
H6 H 0.77240 0.87000 0.31620
H7 H 0.74780 0.78840 0.38320
H8 H 0.73380 0.88390 0.20950
H9 H 0.81560 0.82520 0.24670
H10 H 0.73120 0.97830 0.25090
H11 H 0.47560 0.83330 0.52400
H12 H 0.46660 0.91050 0.59180
H13 H 0.78200 0.65630 0.61440
H14 H 0.78700 0.57420 0.54750
H15 H 0.54280 0.93930 0.69580
H16 H 0.45000 0.87780 0.66170
H17 H 0.53280 1.03010 0.65400
#END
