
#######################################################################
#
#                 Cambridge Crystallographic Data Centre
#                                CCDC
#
#######################################################################
#
# If this CIF has been generated from an entry in the Cambridge
# Structural Database, then it will include bibliographic, chemical,
# crystal, experimental, refinement or atomic coordinate data resulting
# from the CCDC's data processing and validation procedures.
#
#######################################################################

data_CSD_CIF_AWUYEX
_audit_creation_date 2011-10-18
_audit_creation_method CSD-ConQuest-V1
_database_code_CSD AWUYEX
_database_code_depnum_ccdc_archive 'CCDC 841166'
_chemical_formula_sum 'C16 H16 N4 O6'
_chemical_formula_moiety
;
C16 H16 N4 O6
;
_journal_coeditor_code "IUCr EZ2248"
_journal_coden_Cambridge 1370
_journal_volume 67
_journal_year 2011
_journal_page_first o1970
_journal_name_full 'Acta Crystallogr.,Sect.E:Struct.Rep.Online '
loop_
_publ_author_name
"N.-N.Du"
"H.-J.Xu"
"L.-Q.Sheng"
_chemical_name_systematic
;
N-(2,4-Dinitrophenyl)-1,3-dimethoxy-1,3-dihydro-2H-isoindol-2-amine
;
_cell_volume    827.197
_exptl_crystal_colour 'colorless'
_exptl_crystal_density_diffrn 1.447
_exptl_crystal_description 'block'
_diffrn_ambient_temperature 296
#These two values have been output from a single CSD field.
_refine_ls_R_factor_gt 0.0669
_refine_ls_wR_factor_gt 0.0669
_symmetry_cell_setting triclinic
_symmetry_space_group_name_H-M 'P -1'
_symmetry_Int_Tables_number 2
loop_
_symmetry_equiv_pos_site_id
_symmetry_equiv_pos_as_xyz
1 x,y,z
2 -x,-y,-z
_cell_length_a 7.727(4)
_cell_length_b 10.244(5)
_cell_length_c 11.326(6)
_cell_angle_alpha 86.076(9)
_cell_angle_beta 77.705(8)
_cell_angle_gamma 70.794(8)
_cell_formula_units_Z 2
loop_
_atom_type_symbol
_atom_type_radius_bond
C 0.68
H 0.23
N 0.68
O 0.68
loop_
_atom_site_label
_atom_site_type_symbol
_atom_site_fract_x
_atom_site_fract_y
_atom_site_fract_z
C1 C 0.1312(5) 0.1163(3) 0.6041(3)
H1 H 0.10320 0.04000 0.64170
C2 C 0.1069(5) 0.1515(4) 0.4885(3)
H2 H 0.06230 0.09830 0.44710
C3 C 0.1476(5) 0.2646(4) 0.4328(3)
H3 H 0.12970 0.28690 0.35430
C4 C 0.2142(4) 0.3446(3) 0.4915(3)
H4 H 0.24140 0.42120 0.45390
C5 C 0.2401(4) 0.3088(3) 0.6080(2)
C6 C 0.1985(4) 0.1974(3) 0.6640(2)
C7 C 0.2308(4) 0.1839(3) 0.7897(2)
H5 H 0.10960 0.22050 0.84500
C8 C 0.3055(4) 0.3813(3) 0.6914(2)
H6 H 0.20130 0.46330 0.72410
C9 C 0.4404(3) 0.3127(2) 0.9664(2)
C10 C 0.4134(3) 0.3760(2) 1.0796(2)
C11 C 0.5561(4) 0.3448(2) 1.1440(2)
H7 H 0.53670 0.38730 1.21790
C12 C 0.7242(4) 0.2512(3) 1.0975(2)
C13 C 0.7560(4) 0.1846(3) 0.9883(2)
H8 H 0.87140 0.11930 0.95890
C14 C 0.6169(4) 0.2160(3) 0.9250(2)
H9 H 0.63950 0.17170 0.85160
C15 C 0.4939(5) -0.0207(3) 0.7495(4)
H10 H 0.46770 -0.06810 0.68870
H11 H 0.57440 -0.08660 0.79500
H12 H 0.55460 0.04390 0.71160
C16 C 0.6218(5) 0.3179(3) 0.5833(3)
H13 H 0.67440 0.25300 0.64170
H14 H 0.71280 0.35900 0.54130
H15 H 0.58690 0.27080 0.52650
N1 N 0.3375(3) 0.2795(2) 0.78934(18)
N2 N 0.3060(3) 0.3424(2) 0.90125(19)
H16 H 0.19820 0.40130 0.92890
N3 N 0.2382(3) 0.4743(2) 1.13435(19)
N4 N 0.8726(4) 0.2154(3) 1.1652(3)
O1 O 0.1085(3) 0.5064(3) 1.0803(2)
O2 O 0.2215(3) 0.5263(2) 1.23014(19)
O3 O 1.0248(4) 0.1387(4) 1.1204(3)
O4 O 0.8371(4) 0.2619(3) 1.2668(3)
O5 O 0.3227(3) 0.0518(2) 0.8286(2)
O6 O 0.4614(3) 0.42259(18) 0.64289(17)
#END
