
#######################################################################
#
#                 Cambridge Crystallographic Data Centre
#                                CCDC
#
#######################################################################
#
# If this CIF has been generated from an entry in the Cambridge
# Structural Database, then it will include bibliographic, chemical,
# crystal, experimental, refinement or atomic coordinate data resulting
# from the CCDC's data processing and validation procedures.
#
#######################################################################

data_CSD_CIF_AXAFOU
_audit_creation_date 2004-08-19
_audit_creation_method CSD-ConQuest-V1
_database_code_CSD AXAFOU
_database_code_depnum_ccdc_archive 'CCDC 237735'
_chemical_formula_sum 'C15 H14 N2 O2'
_chemical_formula_moiety
;
C15 H14 N2 O2
;
_journal_coden_Cambridge 471
_journal_volume 19
_journal_year 2003
_journal_page_first x61
_journal_name_full 'Anal.Sci.:X-Ray Struct.Anal.Online '
loop_
_publ_author_name
"U.Sari"
"H.Bati"
"K.Guven"
"M.Tas"
"I.Aksoy"
_chemical_name_systematic
;
1-(4-Methylphenylamino)-2-phenyl-1,2-ethanedione-1-oxime
;
_cell_volume   2758.930
_exptl_crystal_colour 'colorless'
_exptl_crystal_density_diffrn 1.224
_exptl_crystal_description 'prism'
_diffrn_ambient_temperature 293
#These two values have been output from a single CSD field.
_refine_ls_R_factor_gt 0.041
_refine_ls_wR_factor_gt 0.041
_symmetry_cell_setting orthorhombic
_symmetry_space_group_name_H-M 'P n a 21'
_symmetry_Int_Tables_number 33
loop_
_symmetry_equiv_pos_site_id
_symmetry_equiv_pos_as_xyz
1 x,y,z
2 -x,-y,1/2+z
3 1/2-x,1/2+y,1/2+z
4 1/2+x,1/2-y,z
_cell_length_a 23.516(3)
_cell_length_b 5.364(3)
_cell_length_c 21.872(3)
_cell_angle_alpha 90
_cell_angle_beta 90
_cell_angle_gamma 90
_cell_formula_units_Z 8
loop_
_atom_type_symbol
_atom_type_radius_bond
C 0.68
H 0.23
N 0.68
O 0.68
loop_
_atom_site_label
_atom_site_type_symbol
_atom_site_fract_x
_atom_site_fract_y
_atom_site_fract_z
O1 O 0.25055(11) 0.5564(6) 0.01283(12)
C1 C 0.21688(13) 0.4511(6) 0.04509(15)
O2 O 0.50733(12) 0.0098(6) 0.34315(13)
C2 C 0.42786(13) -0.2205(7) 0.24837(16)
N1 N 0.27948(13) 0.4394(7) 0.13684(16)
C3 C 0.32428(13) 0.3004(6) 0.11052(15)
O3 O 0.56201(13) -0.0232(8) 0.15092(15)
C4 C 0.58322(15) -0.2791(7) 0.33679(15)
N2 N 0.18075(12) 0.5129(7) 0.14344(15)
C5 C 0.38025(14) 0.3795(7) 0.11828(17)
H1 H 0.38800 0.52510 0.13980
N3 N 0.57461(13) -0.0659(7) 0.21313(15)
N4 N 0.47571(13) -0.1125(8) 0.21945(16)
C6 C 0.42380(13) 0.2419(7) 0.09408(18)
H2 H 0.46100 0.29460 0.10060
C7 C 0.35813(16) -0.0477(7) 0.05268(19)
H3 H 0.35030 -0.18960 0.02970
C8 C 0.53751(13) -0.1204(7) 0.31181(15)
C9 C 0.16478(14) 0.3293(6) 0.02095(15)
C10 C 0.31410(15) 0.0837(6) 0.07842(18)
H4 H 0.27700 0.02590 0.07420
C11 C 0.52884(14) -0.1097(7) 0.24253(16)
C12 C 0.32818(17) -0.2143(9) 0.2703(2)
H5 H 0.29270 -0.14040 0.26510
O4 O 0.19397(13) 0.5545(8) 0.20609(13)
C13 C 0.37508(15) -0.1122(8) 0.24145(19)
H6 H 0.37100 0.02950 0.21740
C14 C 0.3863(2) -0.5344(8) 0.3109(2)
H7 H 0.39020 -0.67920 0.33390
C15 C 0.41475(15) 0.0289(7) 0.06052(17)
C16 C 0.46256(18) -0.1215(9) 0.0330(2)
H8 H 0.49120 -0.01080 0.01750
H9 H 0.44810 -0.22190 0.00020
H10 H 0.47880 -0.22750 0.06380
C17 C 0.22621(13) 0.4562(7) 0.11378(15)
C18 C 0.43308(17) -0.4363(7) 0.28210(19)
H11 H 0.46820 -0.51510 0.28540
C19 C 0.14249(18) 0.4162(9) -0.0337(2)
H12 H 0.15960 0.54890 -0.05390
C20 C 0.13919(17) 0.1279(8) 0.0501(2)
H13 H 0.15400 0.06850 0.08670
C21 C 0.60634(16) -0.4774(8) 0.30472(19)
H14 H 0.59410 -0.51120 0.26510
C22 C 0.60155(17) -0.2383(8) 0.39641(17)
H15 H 0.58560 -0.10950 0.41910
C23 C 0.64256(19) -0.3848(9) 0.4219(2)
H16 H 0.65470 -0.35260 0.46160
C24 C 0.0694(2) 0.1057(12) -0.0281(3)
H17 H 0.03690 0.03210 -0.04430
C25 C 0.6473(2) -0.6241(10) 0.3314(2)
H18 H 0.66260 -0.75680 0.30950
C26 C 0.33297(19) -0.4223(9) 0.3064(2)
C27 C 0.6660(2) -0.5776(9) 0.3902(2)
H19 H 0.69420 -0.67610 0.40770
C28 C 0.0923(2) 0.0171(10) 0.0251(3)
H20 H 0.07590 -0.11950 0.04440
C29 C 0.0945(2) 0.3040(11) -0.0578(2)
H21 H 0.07910 0.36270 -0.09420
C30 C 0.2828(3) -0.5272(14) 0.3416(3)
H22 H 0.25020 -0.42220 0.33560
H23 H 0.29200 -0.53360 0.38440
H24 H 0.27450 -0.69230 0.32720
H25 H 0.286(2) 0.493(8) 0.172(3)
H26 H 0.4732(17) -0.055(7) 0.187(2)
H27 H 0.591(2) -0.018(9) 0.135(2)
H28 H 0.158(2) 0.607(9) 0.222(2)
#END
