
#######################################################################
#
#                 Cambridge Crystallographic Data Centre
#                                CCDC
#
#######################################################################
#
# If this CIF has been generated from an entry in the Cambridge
# Structural Database, then it will include bibliographic, chemical,
# crystal, experimental, refinement or atomic coordinate data resulting
# from the CCDC's data processing and validation procedures.
#
#######################################################################

data_CSD_CIF_AXAFIP
_audit_creation_date 2011-09-15
_audit_creation_method CSD-ConQuest-V1
_database_code_CSD AXAFIP
_database_code_depnum_ccdc_archive 'CCDC 841192'
_chemical_formula_sum 'C12 H11 N3 O4'
_chemical_formula_moiety
;
C12 H11 N3 O4
;
_journal_coeditor_code "IUCr VM2102"
_journal_coden_Cambridge 1370
_journal_volume 67
_journal_year 2011
_journal_page_first o2003
_journal_name_full 'Acta Crystallogr.,Sect.E:Struct.Rep.Online '
loop_
_publ_author_name
"A.Jebani"
"H.Zouihri"
"A.El Hakmaoui"
"S.Lazar"
"M.Akssira"
_chemical_name_systematic
;
6-Nitro-2,3-dihydro-1H-pyrrolo[2,1-c][1,4]benzodiazepine-5,11(10H,11aH)-dione
;
_cell_volume   1186.943
_exptl_crystal_colour 'colorless'
_exptl_crystal_density_diffrn 1.462
_exptl_crystal_description 'prism'
_diffrn_ambient_temperature 296
#These two values have been output from a single CSD field.
_refine_ls_R_factor_gt 0.0298
_refine_ls_wR_factor_gt 0.0298
_symmetry_cell_setting monoclinic
_symmetry_space_group_name_H-M 'P 21'
_symmetry_Int_Tables_number 4
loop_
_symmetry_equiv_pos_site_id
_symmetry_equiv_pos_as_xyz
1 x,y,z
2 -x,1/2+y,-z
_cell_length_a 10.7364(2)
_cell_length_b 6.8925(1)
_cell_length_c 16.3901(3)
_cell_angle_alpha 90
_cell_angle_beta 101.870(1)
_cell_angle_gamma 90
_cell_formula_units_Z 4
loop_
_atom_type_symbol
_atom_type_radius_bond
C 0.68
H 0.23
N 0.68
O 0.68
loop_
_atom_site_label
_atom_site_type_symbol
_atom_site_fract_x
_atom_site_fract_y
_atom_site_fract_z
C1 C 0.4871(2) 0.4617(3) 1.03240(11)
C2 C 0.3608(2) 0.4649(3) 0.99613(13)
C3 C 0.32175(19) 0.4505(3) 0.91009(14)
C4 C 0.41314(17) 0.4215(3) 0.86410(11)
C5 C 0.54297(16) 0.4047(3) 0.89854(10)
C6 C 0.58012(18) 0.4374(3) 0.98486(10)
C7 C 0.8095(2) 0.5177(3) 1.00041(13)
C8 C 0.63255(16) 0.3127(3) 0.85085(10)
C9 C 0.84963(18) 0.3029(4) 0.82441(13)
C10 C 0.9600(2) 0.4396(6) 0.8535(2)
C11 C 0.9040(3) 0.6286(5) 0.8754(2)
C12 C 0.7860(2) 0.5679(4) 0.90711(14)
C13 C 0.44163(18) 0.4931(3) 0.38760(12)
C14 C 0.40473(19) 0.4968(3) 0.46329(13)
C15 C 0.4948(2) 0.5030(3) 0.53689(12)
C16 C 0.62060(19) 0.5134(3) 0.53182(11)
C17 C 0.66333(16) 0.5194(3) 0.45691(10)
C18 C 0.57090(16) 0.4986(3) 0.38404(10)
C19 C 0.70022(18) 0.4042(3) 0.28050(11)
C20 C 0.79608(17) 0.5876(3) 0.45641(11)
C21 C 0.98134(19) 0.5664(4) 0.39103(15)
C22 C 1.0011(2) 0.4484(5) 0.31649(15)
C23 C 0.9243(2) 0.2650(4) 0.32000(15)
C24 C 0.80720(17) 0.3350(3) 0.35062(11)
H1 H 0.51180 0.47600 1.08990
H2 H 0.30040 0.47670 1.02920
H3 H 0.23620 0.46030 0.88450
H4 H 0.82580 0.29950 0.76400
H5 H 0.87000 0.17240 0.84510
H6 H 0.539(3) 0.528(5) 0.2657(18)
H7 H 0.71920 0.66650 0.89320
H8 H 0.88150 0.71150 0.82670
H9 H 0.96360 0.69720 0.91820
H10 H 1.01740 0.38670 0.90190
H11 H 1.00700 0.45950 0.80960
H12 H 0.38030 0.48700 0.33850
H13 H 0.31870 0.49500 0.46490
H14 H 0.47090 0.50020 0.58830
H15 H 1.04690 0.53880 0.43990
H16 H 0.98120 0.70430 0.37930
H17 H 0.716(2) 0.416(5) 1.0780(17)
H18 H 0.77650 0.23410 0.38370
H19 H 0.97220 0.17180 0.35840
H20 H 0.90050 0.20580 0.26530
H21 H 0.97030 0.51830 0.26490
H22 H 1.09050 0.41830 0.32080
N1 N 0.60011(15) 0.4905(3) 0.30409(9)
N2 N 0.71691(17) 0.5079(3) 0.61116(9)
N3 N 0.85585(14) 0.5013(3) 0.40290(9)
N4 N 0.70780(16) 0.4399(3) 1.02707(10)
N5 N 0.36959(16) 0.4213(3) 0.77185(11)
N6 N 0.74763(15) 0.3889(3) 0.86106(10)
O1 O 0.60185(13) 0.1634(2) 0.81012(8)
O2 O 0.91105(16) 0.5401(4) 1.04775(12)
O3 O 0.26234(16) 0.3669(4) 0.74408(12)
O4 O 0.44340(18) 0.4853(4) 0.7323(1)
O5 O 0.84147(15) 0.7225(3) 0.50119(10)
O6 O 0.70331(15) 0.3858(3) 0.20681(8)
O7 O 0.6951(2) 0.5986(4) 0.66967(9)
O8 O 0.80876(17) 0.4033(4) 0.61259(10)
#END
