
#######################################################################
#
#                 Cambridge Crystallographic Data Centre
#                                CCDC
#
#######################################################################
#
# If this CIF has been generated from an entry in the Cambridge
# Structural Database, then it will include bibliographic, chemical,
# crystal, experimental, refinement or atomic coordinate data resulting
# from the CCDC's data processing and validation procedures.
#
#######################################################################

data_CSD_CIF_AXAMES
_audit_creation_date 2011-09-23
_audit_creation_method CSD-ConQuest-V1
_database_code_CSD AXAMES
_database_code_depnum_ccdc_archive 'CCDC 841221'
_chemical_formula_sum 'C25 H16 N2 O8'
_chemical_formula_moiety
;
C25 H16 N2 O8
;
_journal_coeditor_code "IUCr IS2749"
_journal_coden_Cambridge 1370
_journal_volume 67
_journal_year 2011
_journal_page_first o2040
_journal_name_full 'Acta Crystallogr.,Sect.E:Struct.Rep.Online '
loop_
_publ_author_name
"T.Muto"
"D.Hijikata"
"A.Okamoto"
"H.Oike"
"N.Yonezawa"
_chemical_name_systematic
;
7-Methoxy-1-(4-nitrobenzoyl)naphthalen-2-yl 4-nitrobenzoate
;
_chemical_name_common
;
7-Methoxy-1-(4-nitrobenzoyl)-2-naphthyl 4-nitrobenzoate
;
_chemical_melting_point 452.0
_cell_volume   1058.573
_exptl_crystal_colour 'yellow'
_exptl_crystal_density_diffrn 1.482
_exptl_special_details
;
Melting point range 452.0-454.0K

;
_exptl_crystal_description 'platelet'
_exptl_crystal_preparation 'ethanol'
_diffrn_ambient_temperature 193
#These two values have been output from a single CSD field.
_refine_ls_R_factor_gt 0.0412
_refine_ls_wR_factor_gt 0.0412
_symmetry_cell_setting triclinic
_symmetry_space_group_name_H-M 'P -1'
_symmetry_Int_Tables_number 2
loop_
_symmetry_equiv_pos_site_id
_symmetry_equiv_pos_as_xyz
1 x,y,z
2 -x,-y,-z
_cell_length_a 7.30691(15)
_cell_length_b 10.2555(2)
_cell_length_c 14.7645(3)
_cell_angle_alpha 84.750(1)
_cell_angle_beta 86.278(1)
_cell_angle_gamma 74.079(1)
_cell_formula_units_Z 2
loop_
_atom_type_symbol
_atom_type_radius_bond
C 0.68
H 0.23
N 0.68
O 0.68
loop_
_atom_site_label
_atom_site_type_symbol
_atom_site_fract_x
_atom_site_fract_y
_atom_site_fract_z
O1 O 0.72939(15) 0.14056(11) 0.14376(8)
O2 O 0.81352(16) 0.41705(10) 0.13883(8)
O3 O 0.7430(2) -0.05991(14) 0.52467(9)
O4 O 1.72999(17) -0.14620(12) 0.21963(9)
O5 O 1.69619(17) -0.13852(12) 0.07413(10)
O6 O 0.57830(17) 0.61275(11) 0.12164(8)
O7 O 0.8971(2) 0.37502(16) -0.32155(10)
O8 O 0.7462(2) 0.58713(17) -0.34326(9)
N1 N 1.6332(2) -0.11728(13) 0.15166(11)
N2 N 0.8126(2) 0.48522(19) -0.29361(11)
C1 C 0.7879(2) 0.26316(16) 0.26282(11)
C2 C 0.7743(2) 0.39621(16) 0.23280(12)
C3 C 0.7412(2) 0.50013(18) 0.29209(13)
H1 H 0.73550 0.59100 0.26980
C4 C 0.7176(3) 0.46701(19) 0.38256(14)
H2 H 0.69690 0.53620 0.42370
C5 C 0.7230(2) 0.33340(18) 0.41736(12)
C6 C 0.6962(3) 0.2986(2) 0.51139(13)
H3 H 0.67120 0.36760 0.55280
C7 C 0.7053(3) 0.1694(2) 0.54338(13)
H4 H 0.68820 0.14870 0.60690
C8 C 0.7402(3) 0.0650(2) 0.48347(12)
C9 C 0.7681(2) 0.09310(17) 0.39186(12)
H5 H 0.79330 0.02230 0.35180
C10 C 0.7594(2) 0.22823(17) 0.35694(12)
C11 C 0.8441(2) 0.15771(15) 0.19458(11)
C12 C 1.0499(2) 0.07968(15) 0.18749(11)
C13 C 1.1798(2) 0.09503(16) 0.24817(11)
H6 H 1.13720 0.15200 0.29680
C14 C 1.3706(2) 0.02737(16) 0.23747(11)
H7 H 1.45970 0.03510 0.27930
C15 C 1.4283(2) -0.05105(15) 0.16524(12)
C16 C 1.3033(2) -0.06977(17) 0.10467(12)
H8 H 1.34750 -0.12550 0.05550
C17 C 1.1129(2) -0.00550(16) 0.11758(12)
H9 H 1.02360 -0.01960 0.07820
C18 C 0.6997(2) 0.52340(16) 0.08865(12)
C19 C 0.7424(2) 0.51149(16) -0.01015(12)
C20 C 0.6551(2) 0.62210(17) -0.06911(13)
H10 H 0.57850 0.70310 -0.04510
C21 C 0.6792(2) 0.61456(17) -0.16166(13)
H11 H 0.62100 0.68980 -0.20220
C22 C 0.7898(2) 0.49528(18) -0.19427(12)
C23 C 0.8803(2) 0.38428(18) -0.13809(13)
H12 H 0.95700 0.30380 -0.16270
C24 C 0.8563(2) 0.39339(17) -0.04519(12)
H13 H 0.91770 0.31870 -0.00500
C25 C 0.7807(3) -0.1711(2) 0.46867(14)
H14 H 0.77730 -0.25420 0.50640
H15 H 0.90690 -0.18310 0.43830
H16 H 0.68380 -0.15250 0.42280
#END
