
#######################################################################
#
#                 Cambridge Crystallographic Data Centre
#                                CCDC
#
#######################################################################
#
# If this CIF has been generated from an entry in the Cambridge
# Structural Database, then it will include bibliographic, chemical,
# crystal, experimental, refinement or atomic coordinate data resulting
# from the CCDC's data processing and validation procedures.
#
#######################################################################

data_CSD_CIF_AXEFAM
_audit_creation_date 2016-10-21
_audit_creation_method CSD-ConQuest-V1
_database_code_CSD AXEFAM
_database_code_depnum_ccdc_archive 'CCDC 990592'
_chemical_formula_sum 'C17 H24 N1 O2'
_chemical_formula_moiety
;
C17 H24 N1 O2
;
_journal_coden_Cambridge 1037
_journal_volume 16
_journal_year 2015
_journal_page_first 330-7
_journal_name_full 'ARKIVOC '
loop_
_publ_author_name
"L.A.Oparina"
"A.V.Artemev"
"O.V.Vysotskaya"
"I.V.Sterkhova"
"S.S.Khutsishvili"
"V.I.Smirnov"
"B.A.Trofimov"
_chemical_name_systematic
;
2,2,6,6-tetramethyl-4-((2-phenylvinyl)oxy)piperidin-1-oxyl radical
;
_cell_volume   1575.612
_exptl_crystal_colour 'bronze'
_exptl_crystal_density_diffrn 1.157
_exptl_crystal_description 'needle'
_diffrn_ambient_temperature 100
#These two values have been output from a single CSD field.
_refine_ls_R_factor_gt 0.0437
_refine_ls_wR_factor_gt 0.0437
_symmetry_cell_setting monoclinic
_symmetry_space_group_name_H-M 'P 21/c'
_symmetry_Int_Tables_number 14
loop_
_symmetry_equiv_pos_site_id
_symmetry_equiv_pos_as_xyz
1 x,y,z
2 -x,1/2+y,1/2-z
3 -x,-y,-z
4 x,-1/2-y,-1/2+z
_cell_length_a 14.5414(11)
_cell_length_b 10.1248(7)
_cell_length_c 11.1582(8)
_cell_angle_alpha 90
_cell_angle_beta 106.444(2)
_cell_angle_gamma 90
_cell_formula_units_Z 4
loop_
_atom_type_symbol
_atom_type_radius_bond
C 0.68
H 0.23
N 0.68
O 0.68
loop_
_atom_site_label
_atom_site_type_symbol
_atom_site_fract_x
_atom_site_fract_y
_atom_site_fract_z
O1 O 0.26258(5) 1.06654(7) 0.20115(7)
O2 O 0.10588(6) 0.64706(8) 0.38551(8)
N1 N 0.14218(6) 0.74619(8) 0.34202(8)
C1 C 0.49700(8) 1.48088(12) 0.29073(12)
H1 H 0.54590 1.53350 0.33920
C2 C 0.46877(9) 1.49310(11) 0.16206(12)
H2 H 0.49870 1.55440 0.12370
C3 C 0.39593(8) 1.41422(11) 0.09001(11)
H3 H 0.37770 1.42340 0.00360
C4 C 0.34918(7) 1.32099(9) 0.14488(10)
C5 C 0.27108(8) 1.24278(10) 0.06417(10)
H4 H 0.24500 1.27580 -0.01610
C6 C 0.23214(8) 1.13058(10) 0.08995(10)
H5 H 0.18140 1.09430 0.02830
C7 C 0.21112(7) 0.94620(9) 0.20981(9)
H6 H 0.18660 0.90570 0.12710
C8 C 0.28158(7) 0.85462(10) 0.29674(10)
H7 H 0.30700 0.89800 0.37680
H8 H 0.33470 0.83780 0.26240
C9 C 0.23679(7) 0.72274(9) 0.31712(9)
C10 C 0.30340(8) 0.65621(11) 0.43250(11)
H9 H 0.30650 0.70880 0.50510
H10 H 0.36640 0.64810 0.42190
H11 H 0.27910 0.57010 0.44280
C11 C 0.07338(7) 0.8528(1) 0.28085(9)
C12 C 0.01070(8) 0.88517(12) 0.36592(11)
H12 H -0.02710 0.80930 0.37270
H13 H -0.03090 0.95760 0.33130
H14 H 0.05070 0.90890 0.44730
C13 C 0.00959(8) 0.80437(11) 0.15469(10)
H15 H 0.04730 0.79550 0.09710
H16 H -0.04100 0.86690 0.12250
H17 H -0.01750 0.72030 0.16540
C14 C 0.12931(7) 0.97674(10) 0.26457(9)
H18 H 0.08580 1.03840 0.21020
H19 H 0.15480 1.01900 0.34520
C15 C 0.45143(8) 1.38913(11) 0.34681(11)
H20 H 0.47000 1.38070 0.43330
C16 C 0.37857(8) 1.30982(10) 0.27543(10)
H21 H 0.34900 1.24870 0.31450
C17 C 0.22301(8) 0.63123(10) 0.20399(11)
H22 H 0.18950 0.55300 0.21640
H23 H 0.28450 0.60720 0.19470
H24 H 0.18640 0.67610 0.13000
#END
