
#######################################################################
#
#                 Cambridge Crystallographic Data Centre
#                                CCDC
#
#######################################################################
#
# If this CIF has been generated from an entry in the Cambridge
# Structural Database, then it will include bibliographic, chemical,
# crystal, experimental, refinement or atomic coordinate data resulting
# from the CCDC's data processing and validation procedures.
#
#######################################################################

data_CSD_CIF_AXEGAM
_audit_creation_date 2011-10-27
_audit_creation_method CSD-ConQuest-V1
_database_code_CSD AXEGAM
_database_code_depnum_ccdc_archive 'CCDC 817516'
_chemical_formula_sum 'C15 H13 N3 O6'
_chemical_formula_moiety
;
C15 H13 N3 O6
;
_journal_coden_Cambridge 1291
_journal_year 2011
_journal_page_first 4318
_journal_name_full 'Eur.J.Org.Chem. '
loop_
_publ_author_name
"F.Palacios"
"C.Alonso"
"M.Fuertes"
"J.M.Ezpeleta"
"G.Rubiales"
_chemical_name_systematic
;
3-(2,4-dinitrophenylamino)-4,7-methylene-3a,4,7,7a-tetrahydrobenzofuran-2(3H)-
one
;
_chemical_name_common
;
5-((2,4-Dinitrophenyl)amino)-3-oxatricyclo[5.2.1.0$2,6!]dec-8-en-4-one
;
_cell_volume    700.154
_exptl_crystal_colour 'yellow'
_exptl_crystal_density_diffrn 1.571
_exptl_crystal_description 'cut prism'
_diffrn_ambient_temperature 100
#These two values have been output from a single CSD field.
_refine_ls_R_factor_gt 0.0476
_refine_ls_wR_factor_gt 0.0476
_symmetry_cell_setting triclinic
_symmetry_space_group_name_H-M 'P -1'
_symmetry_Int_Tables_number 2
loop_
_symmetry_equiv_pos_site_id
_symmetry_equiv_pos_as_xyz
1 x,y,z
2 -x,-y,-z
_cell_length_a 7.6077(3)
_cell_length_b 9.5119(4)
_cell_length_c 9.9423(5)
_cell_angle_alpha 92.050(4)
_cell_angle_beta 96.345(3)
_cell_angle_gamma 101.229(3)
_cell_formula_units_Z 2
loop_
_atom_type_symbol
_atom_type_radius_bond
C 0.68
H 0.23
N 0.68
O 0.68
loop_
_atom_site_label
_atom_site_type_symbol
_atom_site_fract_x
_atom_site_fract_y
_atom_site_fract_z
C1 C 0.66922(17) 1.01608(13) 0.33924(13)
H1 H 0.61990 1.10620 0.33840
C2 C 0.82616(16) 1.01179(13) 0.25510(12)
H2 H 0.94280 1.06780 0.30260
C3 C 0.79039(16) 0.95811(13) 0.02188(12)
C4 C 0.79356(15) 0.81328(12) 0.08424(12)
H3 H 0.67190 0.74940 0.06250
C5 C 0.83027(16) 0.84870(12) 0.23761(11)
H4 H 0.94880 0.82780 0.27650
C6 C 0.67423(17) 0.78024(13) 0.31818(13)
H5 H 0.62790 0.67470 0.30010
C7 C 0.73830(18) 0.83074(15) 0.46477(13)
H6 H 0.77360 0.77320 0.53500
C8 C 0.73622(17) 0.97020(15) 0.47746(13)
H7 H 0.77040 1.03020 0.55830
C9 C 0.53725(17) 0.87724(14) 0.28283(14)
H8 H 0.49990 0.87680 0.18420
H9 H 0.42990 0.85510 0.33210
C10 C 0.90470(14) 0.66668(12) -0.08623(11)
C11 C 1.04073(14) 0.60055(12) -0.13413(11)
C12 C 1.00907(15) 0.51272(12) -0.25225(11)
H10 H 1.10160 0.46880 -0.28110
C13 C 0.84189(15) 0.49021(12) -0.32680(11)
C14 C 0.70541(15) 0.55653(12) -0.28805(12)
H11 H 0.59180 0.54190 -0.34230
C15 C 0.73688(15) 0.64277(12) -0.17119(12)
H12 H 0.64370 0.68820 -0.14590
N1 N 0.92765(13) 0.74352(11) 0.03305(10)
H13 H 1.0346(18) 0.7704(16) 0.0692(15)
N2 N 1.22135(13) 0.61929(10) -0.0616(1)
N3 N 0.80952(14) 0.39852(11) -0.45052(10)
O1 O 0.79058(12) 0.98298(10) -0.09601(9)
O2 O 0.78825(12) 1.05981(9) 0.11908(9)
O3 O 1.25554(11) 0.68722(9) 0.04955(9)
O4 O 1.33344(12) 0.56388(11) -0.11239(9)
O5 O 0.92370(12) 0.32852(10) -0.47455(9)
O6 O 0.66967(13) 0.39505(11) -0.52656(9)
#END
