
#######################################################################
#
#                 Cambridge Crystallographic Data Centre
#                                CCDC
#
#######################################################################
#
# If this CIF has been generated from an entry in the Cambridge
# Structural Database, then it will include bibliographic, chemical,
# crystal, experimental, refinement or atomic coordinate data resulting
# from the CCDC's data processing and validation procedures.
#
#######################################################################

data_CSD_CIF_AXELUL
_audit_creation_date 2011-10-27
_audit_creation_method CSD-ConQuest-V1
_database_code_CSD AXELUL
_database_code_depnum_ccdc_archive 'CCDC 803458'
_chemical_formula_sum 'C13 H26 N2 O3'
_chemical_formula_moiety
;
C13 H26 N2 O3
;
_journal_coden_Cambridge 920
_journal_volume 6
_journal_year 2011
_journal_page_first 1791
_journal_name_full 'Chem.Asian J. '
loop_
_publ_author_name
"Zhi-Gang Jiao"
"Xiao-Wei Chang"
"Wei Ding"
"Guo-Jun Liu"
"Ke-Sheng Song"
"Nian-Yong Zhu"
"Dan-Wei Zhang"
"Dan Yang"
_chemical_name_systematic
;
N-(3-(Isobutylamino)-2-methyl-3-oxopropoxy)-2,2-dimethylpropanamide
;
_cell_volume   1591.945
_exptl_crystal_colour 'colorless'
_exptl_crystal_density_diffrn 1.078
_exptl_crystal_description 'block'
_diffrn_ambient_temperature 301
_refine_special_details
;
C20,C21,C22 and C20',C21',C22' disordered over two sites with occupancies 
0.504:0.496.
;
#These two values have been output from a single CSD field.
_refine_ls_R_factor_gt 0.0593
_refine_ls_wR_factor_gt 0.0593
_symmetry_cell_setting monoclinic
_symmetry_space_group_name_H-M 'P 21'
_symmetry_Int_Tables_number 4
loop_
_symmetry_equiv_pos_site_id
_symmetry_equiv_pos_as_xyz
1 x,y,z
2 -x,1/2+y,-z
_cell_length_a 9.644(4)
_cell_length_b 14.916(6)
_cell_length_c 11.475(5)
_cell_angle_alpha 90
_cell_angle_beta 105.33(6)
_cell_angle_gamma 90
_cell_formula_units_Z 4
loop_
_atom_type_symbol
_atom_type_radius_bond
C 0.68
H 0.23
N 0.68
O 0.68
loop_
_atom_site_label
_atom_site_type_symbol
_atom_site_fract_x
_atom_site_fract_y
_atom_site_fract_z
C1 C 0.5904(4) 0.5569(3) 0.4456(4)
H1 H 0.59080 0.58040 0.36690
H2 H 0.67010 0.51540 0.47140
C2 C 0.6054(5) 0.6321(3) 0.5348(4)
H3 H 0.70110 0.65760 0.54300
C3 C 0.4988(5) 0.7100(2) 0.4959(4)
C4 C 0.6048(7) 0.5989(3) 0.6596(4)
H4 H 0.51050 0.57780 0.65840
H5 H 0.63100 0.64710 0.71660
H6 H 0.67270 0.55080 0.68280
C5 C 0.3535(5) 0.4771(3) 0.2361(4)
C6 C 0.3171(5) 0.4043(3) 0.1386(4)
C7 C 0.1971(6) 0.3472(4) 0.1657(5)
H7 H 0.16380 0.30430 0.10210
H8 H 0.11880 0.38530 0.17120
H9 H 0.23360 0.31620 0.24100
C8 C 0.4483(6) 0.3450(3) 0.1416(5)
H10 H 0.42700 0.30620 0.07230
H11 H 0.47080 0.30950 0.21390
H12 H 0.52910 0.38220 0.14030
C9 C 0.2657(7) 0.4491(4) 0.0130(4)
H13 H 0.34210 0.48480 -0.00190
H14 H 0.18440 0.48680 0.01110
H15 H 0.23860 0.40370 -0.04810
C10 C 0.2914(7) 0.7743(4) 0.3530(5)
H16 H 0.32150 0.82780 0.40110
H17 H 0.20110 0.75460 0.36680
C11 C 0.2671(6) 0.7974(5) 0.2238(7)
H18 H 0.21560 0.74370 0.18610
C12 C 0.1458(6) 0.8669(5) 0.1917(7)
H19 H 0.17190 0.91830 0.24320
H20 H 0.05910 0.84110 0.20300
H21 H 0.13060 0.88480 0.10890
C13 C 0.3665(9) 0.8039(6) 0.1632(7)
H22 H 0.32090 0.80400 0.07800
H23 H 0.43100 0.75380 0.18270
H24 H 0.41950 0.85860 0.18500
C14 C 0.0836(4) 0.4700(2) 0.4594(4)
H25 H 0.15320 0.51730 0.48820
H26 H 0.09750 0.44670 0.38440
C15 C 0.1034(4) 0.3956(3) 0.5528(4)
H27 H 0.06320 0.41780 0.61740
C16 C 0.0263(5) 0.3091(3) 0.5085(4)
C17 C 0.2632(5) 0.3792(4) 0.6099(5)
H28 H 0.30840 0.36090 0.54860
H29 H 0.27450 0.33300 0.66990
H30 H 0.30730 0.43340 0.64720
C18 C -0.1576(4) 0.5274(3) 0.2330(3)
C19 C -0.1983(4) 0.5935(3) 0.1282(3)
C20 C -0.2280(14) 0.5423(8) 0.0153(8)
H31 H -0.30520 0.50100 0.01250
H32 H -0.14350 0.50980 0.01160
H33 H -0.25500 0.58270 -0.05210
C21 C -0.3224(11) 0.6480(8) 0.1467(8)
H34 H -0.29310 0.67910 0.22250
H35 H -0.40140 0.60900 0.14710
H36 H -0.35180 0.69080 0.08230
C22 C -0.0727(10) 0.6574(7) 0.1348(8)
H37 H -0.05200 0.68980 0.20970
H38 H -0.09770 0.69890 0.06860
H39 H 0.01050 0.62370 0.13020
C23 C -0.1691(6) 0.2319(3) 0.3591(4)
H40 H -0.26910 0.24730 0.34980
H41 H -0.14520 0.18300 0.41670
C24 C -0.1525(7) 0.2004(5) 0.2415(6)
H42 H -0.15760 0.25270 0.18880
C25 C -0.2720(11) 0.1402(7) 0.1852(11)
H43 H -0.25480 0.08210 0.22220
H44 H -0.27920 0.13500 0.10040
H45 H -0.36000 0.16410 0.19610
C26 C -0.0091(9) 0.1584(6) 0.2584(8)
H46 H 0.06440 0.20130 0.29310
H47 H 0.00190 0.13890 0.18160
H48 H -0.00090 0.10770 0.31140
N1 N 0.4279(4) 0.4493(2) 0.3430(3)
N2 N 0.3989(4) 0.7045(2) 0.3944(3)
N3 N -0.0920(4) 0.5622(2) 0.3414(3)
N4 N -0.0799(4) 0.3095(2) 0.4085(4)
O1 O 0.3226(4) 0.55606(19) 0.2161(3)
O2 O 0.4560(3) 0.51161(17) 0.4390(2)
O3 O 0.5130(4) 0.7760(2) 0.5613(3)
O4 O -0.1775(4) 0.44760(19) 0.2196(3)
O5 O -0.0592(3) 0.50434(17) 0.4400(2)
O6 O 0.0630(4) 0.2397(2) 0.5691(3)
H49 H -0.091(4) 0.6177(14) 0.360(3)
H50 H 0.454(4) 0.3964(16) 0.372(3)
H51 H 0.385(4) 0.6564(17) 0.358(3)
H52 H -0.100(6) 0.354(3) 0.357(5)
C27? C -0.3434(13) 0.5623(8) 0.0455(11)
C28? C -0.2109(19) 0.6897(6) 0.1618(9)
C29? C -0.0869(11) 0.5854(10) 0.0574(11)
H53? H -0.33650 0.50050 0.02440
H54? H -0.36720 0.59810 -0.02660
H55? H -0.41700 0.56880 0.08720
H56? H -0.28230 0.69500 0.20600
H57? H -0.23860 0.72550 0.08990
H58? H -0.11990 0.71020 0.21120
H59? H -0.07830 0.52380 0.03620
H60? H 0.00420 0.60650 0.10590
H61? H -0.11590 0.62090 -0.01480
#END
