
#######################################################################
#
#                 Cambridge Crystallographic Data Centre
#                                CCDC
#
#######################################################################
#
# If this CIF has been generated from an entry in the Cambridge
# Structural Database, then it will include bibliographic, chemical,
# crystal, experimental, refinement or atomic coordinate data resulting
# from the CCDC's data processing and validation procedures.
#
#######################################################################

data_CSD_CIF_AXENIB
_audit_creation_date 2011-10-27
_audit_creation_method CSD-ConQuest-V1
_database_code_CSD AXENIB
_database_code_depnum_ccdc_archive 'CCDC 799007'
_chemical_formula_sum 'C28 H30 N2 O7'
_chemical_formula_moiety
;
C28 H30 N2 O7
;
_journal_coden_Cambridge 920
_journal_volume 6
_journal_year 2011
_journal_page_first 1977
_journal_name_full 'Chem.Asian J. '
loop_
_publ_author_name
"Jaewon Jeong"
"Hyun Suk Yeom"
"Ohyun Kwon"
"Seunghoon Shin"
_chemical_name_systematic
;
Diethyl 
15-(1-(4-nitrophenyl)ethyl)-2-oxo-15-azatetracyclo[7.5.1.0^1,11^.0^3,8^]pentad
eca-3,5,7-triene-13,13-dicarboxylate
;
_cell_volume   2520.631
_exptl_crystal_colour 'colorless'
_exptl_crystal_density_diffrn 1.335
_diffrn_ambient_temperature 173
#These two values have been output from a single CSD field.
_refine_ls_R_factor_gt 0.051
_refine_ls_wR_factor_gt 0.051
_symmetry_cell_setting orthorhombic
_symmetry_space_group_name_H-M 'P 21 21 21'
_symmetry_Int_Tables_number 19
loop_
_symmetry_equiv_pos_site_id
_symmetry_equiv_pos_as_xyz
1 x,y,z
2 1/2-x,-y,1/2+z
3 -x,1/2+y,1/2-z
4 1/2+x,1/2-y,-z
_cell_length_a 9.4136(8)
_cell_length_b 14.3529(10)
_cell_length_c 18.6558(14)
_cell_angle_alpha 90
_cell_angle_beta 90
_cell_angle_gamma 90
_cell_formula_units_Z 4
loop_
_atom_type_symbol
_atom_type_radius_bond
C 0.68
H 0.23
N 0.68
O 0.68
loop_
_atom_site_label
_atom_site_type_symbol
_atom_site_fract_x
_atom_site_fract_y
_atom_site_fract_z
O1 O 1.01840(18) 0.62869(9) 0.19408(8)
O2 O 0.41851(19) 0.79347(11) 0.11157(11)
O3 O 0.52648(18) 0.65987(10) 0.13863(9)
O4 O 0.61794(19) 0.96481(10) 0.16917(9)
O5 O 0.67482(18) 0.90089(9) 0.06302(8)
O6 O 1.0918(3) 1.30198(12) 0.02612(11)
O7 O 1.3121(3) 1.28875(13) 0.05748(13)
N1 N 0.97077(19) 0.87119(10) 0.17936(9)
N2 N 1.1924(3) 1.25714(14) 0.04959(12)
C1 C 1.0175(2) 0.70894(13) 0.21521(11)
C2 C 1.1250(3) 0.74536(14) 0.26667(11)
C3 C 1.2243(3) 0.68558(15) 0.29707(13)
H1 H 1.22550 0.62160 0.28390
C4 C 1.3214(3) 0.71892(17) 0.34644(14)
H2 H 1.38930 0.67810 0.36730
C5 C 1.3188(3) 0.81269(18) 0.36531(14)
H3 H 1.38440 0.83580 0.39970
C6 C 1.2213(3) 0.87254(16) 0.33440(13)
H4 H 1.22180 0.93650 0.34740
C7 C 1.1230(3) 0.84075(15) 0.28488(12)
C8 C 1.0117(2) 0.90390(13) 0.25162(12)
H5 H 1.04480 0.97010 0.25040
C9 C 0.8701(3) 0.89525(14) 0.29038(12)
H6 H 0.80440 0.94590 0.27640
H7 H 0.88310 0.89630 0.34300
C10 C 0.8152(2) 0.80034(14) 0.26506(11)
H8 H 0.83640 0.75200 0.30220
C11 C 0.9036(2) 0.77918(12) 0.19485(11)
C12 C 0.7942(2) 0.74717(14) 0.14044(12)
H9 H 0.78110 0.67880 0.14290
H10 H 0.82390 0.76420 0.09130
C13 C 0.6555(2) 0.79821(14) 0.16109(12)
C14 C 0.6581(2) 0.79409(16) 0.24318(12)
H11 H 0.61590 0.73500 0.26040
H12 H 0.60370 0.84670 0.26380
C15 C 0.5202(3) 0.75182(15) 0.13327(13)
C16 C 0.3986(3) 0.60829(15) 0.12021(14)
H13 H 0.36180 0.62850 0.07300
H14 H 0.32390 0.61830 0.15670
C17 C 0.4417(3) 0.50784(15) 0.11798(16)
H15 H 0.35880 0.46940 0.10630
H16 H 0.47930 0.48940 0.16480
H17 H 0.51500 0.49910 0.08130
C18 C 0.6484(3) 0.89820(14) 0.13359(13)
C19 C 0.6365(3) 0.98624(14) 0.02514(14)
H18 H 0.72170 1.01330 0.00200
H19 H 0.59830 1.03250 0.05940
C20 C 0.5279(3) 0.96416(17) -0.02983(14)
H20 H 0.50250 1.02110 -0.05590
H21 H 0.44320 0.93860 -0.00650
H22 H 0.56630 0.91820 -0.06350
C21 C 1.0926(2) 0.87605(13) 0.12944(11)
H23 H 1.17860 0.85090 0.15430
C22 C 1.0716(3) 0.82255(15) 0.05994(13)
H24 H 1.05610 0.75650 0.07070
H25 H 1.15620 0.82930 0.02980
H26 H 0.98880 0.84740 0.03450
C23 C 1.1184(2) 0.97811(14) 0.11182(12)
C24 C 1.2554(3) 1.01370(16) 0.11072(16)
H27 H 1.33270 0.97520 0.12460
C25 C 1.2806(3) 1.10480(16) 0.08960(17)
H28 H 1.37460 1.12880 0.08810
C26 C 1.1672(3) 1.15969(15) 0.07098(12)
C27 C 1.0310(3) 1.12764(15) 0.07240(13)
H29 H 0.95420 1.16700 0.05900
C28 C 1.0066(3) 1.03627(14) 0.09381(13)
H30 H 0.91190 1.01340 0.09610
#END
