
#######################################################################
#
#                 Cambridge Crystallographic Data Centre
#                                CCDC
#
#######################################################################
#
# If this CIF has been generated from an entry in the Cambridge
# Structural Database, then it will include bibliographic, chemical,
# crystal, experimental, refinement or atomic coordinate data resulting
# from the CCDC's data processing and validation procedures.
#
#######################################################################

data_CSD_CIF_AXEPUQ
_audit_creation_date 2016-10-21
_audit_creation_method CSD-ConQuest-V1
_database_code_CSD AXEPUQ
_database_code_depnum_ccdc_archive 'CCDC 1029748'
_chemical_formula_sum 'C13 H13 N3 O1'
_chemical_formula_moiety
;
C13 H13 N3 O1
;
_journal_coden_Cambridge 231
_journal_volume 60
_journal_year 2015
_journal_page_first 75
_journal_name_full 'Rev.Roum.Chim. '
loop_
_publ_author_name
"C.V.Maftei"
"E.Fodor"
"P.G.Jones"
"C.G.Daniluc"
"M.Heiko Franz"
"G.Kelter"
"H.H.Fiebig"
"M.Tamm"
"Ion Neda"
_chemical_name_systematic
;
4-(3-t-butyl-1,2,4-oxadiazol-5-yl)benzonitrile
;
_cell_volume    575.750
_exptl_crystal_colour 'colorless'
_exptl_crystal_density_diffrn 1.311
_exptl_crystal_description 'prism'
_diffrn_ambient_temperature 100
#These two values have been output from a single CSD field.
_refine_ls_R_factor_gt 0.0379
_refine_ls_wR_factor_gt 0.0379
_symmetry_cell_setting monoclinic
_symmetry_space_group_name_H-M 'P 21/m'
_symmetry_Int_Tables_number 11
loop_
_symmetry_equiv_pos_site_id
_symmetry_equiv_pos_as_xyz
1 x,y,z
2 -x,1/2+y,-z
3 -x,-y,-z
4 x,-1/2-y,z
_cell_length_a 9.1200(4)
_cell_length_b 6.7180(4)
_cell_length_c 9.4957(4)
_cell_angle_alpha 90
_cell_angle_beta 98.259(4)
_cell_angle_gamma 90
_cell_formula_units_Z 2
loop_
_atom_type_symbol
_atom_type_radius_bond
C 0.68
H 0.23
N 0.68
O 0.68
loop_
_atom_site_label
_atom_site_type_symbol
_atom_site_fract_x
_atom_site_fract_y
_atom_site_fract_z
O1 O 0.28954(9) 0.25000 0.56751(9)
N1 N 0.19122(11) 0.25000 0.67019(11)
N2 N 0.42899(11) 0.25000 0.77896(11)
N3 N 1.02087(14) 0.25000 0.27948(13)
C1 C 0.27935(13) 0.25000 0.79163(13)
C2 C 0.22224(13) 0.25000 0.93265(13)
C3 C 0.05301(13) 0.25000 0.90945(14)
H1 H 0.0142(12) 0.1305(16) 0.8572(13)
H2 H 0.0190(19) 0.25000 1.0026(16)
C4 C 0.27964(10) 0.06410(16) 1.01669(10)
H3 H 0.24350 -0.05530 0.96340
H4 H 0.24390 0.06430 1.10920
H5 H 0.38820 0.06450 1.03120
C5 C 0.42664(13) 0.25000 0.64161(13)
C6 C 0.55214(13) 0.25000 0.56103(13)
C7 C 0.52881(13) 0.25000 0.41219(13)
H6 H 0.43080 0.25000 0.36210
C8 C 0.64881(14) 0.25000 0.33798(13)
H7 H 0.63360 0.25000 0.23690
C9 C 0.79272(14) 0.25000 0.41297(13)
C10 C 0.81632(14) 0.25000 0.56175(14)
H8 H 0.91420 0.25000 0.61200
C11 C 0.69579(13) 0.25000 0.63499(13)
H9 H 0.71090 0.25000 0.73610
C12 C 0.91938(14) 0.25000 0.33762(14)
H1C H 0.0142(12) 0.3695(16) 0.8572(13)
C4C C 0.27964(10) 0.43590(16) 1.01669(10)
H3C H 0.24350 0.55530 0.96340
H4C H 0.24390 0.43570 1.10920
H5C H 0.38820 0.43550 1.03120
#END
