
#######################################################################
#
#                 Cambridge Crystallographic Data Centre
#                                CCDC
#
#######################################################################
#
# If this CIF has been generated from an entry in the Cambridge
# Structural Database, then it will include bibliographic, chemical,
# crystal, experimental, refinement or atomic coordinate data resulting
# from the CCDC's data processing and validation procedures.
#
#######################################################################

data_CSD_CIF_AXESED
_audit_creation_date 2016-10-21
_audit_creation_method CSD-ConQuest-V1
_database_code_CSD AXESED
_database_code_depnum_ccdc_archive 'CCDC 1029750'
_chemical_formula_sum 'C17 H21 N3 O2'
_chemical_formula_moiety
;
C17 H21 N3 O2
;
_journal_coden_Cambridge 231
_journal_volume 60
_journal_year 2015
_journal_page_first 75
_journal_name_full 'Rev.Roum.Chim. '
loop_
_publ_author_name
"C.V.Maftei"
"E.Fodor"
"P.G.Jones"
"C.G.Daniluc"
"M.Heiko Franz"
"G.Kelter"
"H.H.Fiebig"
"M.Tamm"
"Ion Neda"
_chemical_name_systematic
;
3-t-butyl-5-(4-(4,4-dimethyl-4,5-dihydro-1,3-oxazol-2-yl)phenyl)-1,2,4-oxadiaz
ole
;
_cell_volume   1571.926
_exptl_crystal_colour 'colorless'
_exptl_crystal_density_diffrn 1.265
_exptl_crystal_description 'plate'
_diffrn_ambient_temperature 100
#These two values have been output from a single CSD field.
_refine_ls_R_factor_gt 0.0339
_refine_ls_wR_factor_gt 0.0339
_symmetry_cell_setting monoclinic
_symmetry_space_group_name_H-M 'P 21/c'
_symmetry_Int_Tables_number 14
loop_
_symmetry_equiv_pos_site_id
_symmetry_equiv_pos_as_xyz
1 x,y,z
2 -x,1/2+y,1/2-z
3 -x,-y,-z
4 x,-1/2-y,-1/2+z
_cell_length_a 5.4582(4)
_cell_length_b 11.0023(6)
_cell_length_c 26.3293(16)
_cell_angle_alpha 90
_cell_angle_beta 96.191(6)
_cell_angle_gamma 90
_cell_formula_units_Z 4
loop_
_atom_type_symbol
_atom_type_radius_bond
C 0.68
H 0.23
N 0.68
O 0.68
loop_
_atom_site_label
_atom_site_type_symbol
_atom_site_fract_x
_atom_site_fract_y
_atom_site_fract_z
O1 O 0.35731(13) 0.20100(7) 0.33717(3)
O2 O 1.45687(14) 0.15976(7) 0.52472(3)
N1 N 0.18744(16) 0.14464(8) 0.29981(4)
N2 N 0.46807(15) 0.00818(8) 0.33379(3)
N3 N 1.29497(15) 0.34682(8) 0.53406(3)
C1 C 0.26243(17) 0.03215(9) 0.29951(4)
C2 C 0.13195(17) -0.06378(9) 0.26567(4)
C3 C -0.05909(19) -0.00481(10) 0.22620(4)
H1 H -0.18250 0.03800 0.24390
H2 H -0.14020 -0.06790 0.20410
H3 H 0.02340 0.05310 0.20540
C4 C 0.00309(18) -0.15081(9) 0.29983(4)
H4 H 0.12520 -0.18590 0.32570
H5 H -0.07750 -0.21600 0.27890
H6 H -0.12070 -0.10600 0.31670
C5 C 0.31965(19) -0.13475(11) 0.23819(4)
H7 H 0.40020 -0.07960 0.21590
H8 H 0.23510 -0.19950 0.21760
H9 H 0.44380 -0.17060 0.26350
C6 C 0.51653(17) 0.11348(9) 0.35475(4)
C7 C 0.71833(18) 0.14786(9) 0.39342(4)
C8 C 0.74283(18) 0.26822(9) 0.40999(4)
H10 H 0.63050 0.32810 0.39570
C9 C 0.93046(18) 0.30052(9) 0.44718(4)
H11 H 0.94540 0.38230 0.45870
C10 C 1.09808(17) 0.21282(9) 0.46786(4)
C11 C 1.07788(19) 0.09317(10) 0.45035(4)
H12 H 1.19440 0.03400 0.46360
C12 C 0.88727(19) 0.06042(9) 0.41351(4)
H13 H 0.87200 -0.02140 0.40200
C13 C 1.28644(17) 0.24682(9) 0.50999(4)
C14 C 1.61441(19) 0.21214(9) 0.56696(4)
H14 H 1.78590 0.21970 0.55830
H15 H 1.61400 0.16140 0.59800
C15 C 1.50213(18) 0.33887(9) 0.57530(4)
C16 C 1.6850(2) 0.44076(10) 0.56946(4)
H16 H 1.74790 0.43420 0.53610
H17 H 1.82230 0.43450 0.59660
H18 H 1.60270 0.51940 0.57200
C17 C 1.3972(2) 0.34872(11) 0.62658(4)
H19 H 1.31110 0.42650 0.62840
H20 H 1.53180 0.34410 0.65430
H21 H 1.28140 0.28190 0.62990
#END
