
#######################################################################
#
#                 Cambridge Crystallographic Data Centre
#                                CCDC
#
#######################################################################
#
# If this CIF has been generated from an entry in the Cambridge
# Structural Database, then it will include bibliographic, chemical,
# crystal, experimental, refinement or atomic coordinate data resulting
# from the CCDC's data processing and validation procedures.
#
#######################################################################

data_CSD_CIF_AXIWAG
_audit_creation_date 2011-10-27
_audit_creation_method CSD-ConQuest-V1
_database_code_CSD AXIWAG
_database_code_depnum_ccdc_archive 'CCDC 822851'
_chemical_formula_sum 'C32 H43 N1 O8'
_chemical_formula_moiety
;
C32 H43 N1 O8
;
_journal_coden_Cambridge 1291
_journal_year 2011
_journal_page_first 3317
_journal_name_full 'Eur.J.Org.Chem. '
loop_
_publ_author_name
"M.Turks"
"K.A.Fairweather"
"R.Scopelliti"
"P.Vogel"
_chemical_name_systematic
;
4-Hydroxy-8-(isobutyryloxy)-3,5,7-trimethyl-6-(1-phenylethoxy)dec-8-en-2-yl 
4-nitrobenzoate
;
_cell_volume   1580.548
_exptl_crystal_colour 'colorless'
_exptl_crystal_density_diffrn 1.197
_exptl_crystal_description 'prismatic'
_diffrn_ambient_temperature 100
#These two values have been output from a single CSD field.
_refine_ls_R_factor_gt 0.1037
_refine_ls_wR_factor_gt 0.1037
_symmetry_cell_setting monoclinic
_symmetry_space_group_name_H-M 'P 21'
_symmetry_Int_Tables_number 4
loop_
_symmetry_equiv_pos_site_id
_symmetry_equiv_pos_as_xyz
1 x,y,z
2 -x,1/2+y,-z
_cell_length_a 13.05(3)
_cell_length_b 7.639(6)
_cell_length_c 16.372(12)
_cell_angle_alpha 90
_cell_angle_beta 104.44(9)
_cell_angle_gamma 90
_cell_formula_units_Z 2
loop_
_atom_type_symbol
_atom_type_radius_bond
C 0.68
H 0.23
N 0.68
O 0.68
loop_
_atom_site_label
_atom_site_type_symbol
_atom_site_fract_x
_atom_site_fract_y
_atom_site_fract_z
O1 O 0.3916(5) 1.0979(8) 0.3143(4)
O2 O 0.2868(5) 1.2113(9) 0.3941(4)
O3 O 0.6547(5) 1.0974(8) 0.2813(4)
O4 O 0.6679(5) 0.6390(8) 0.2985(4)
H1 H 0.64280 0.65630 0.24670
O5 O 0.8909(5) 0.6694(8) 0.2300(4)
O6 O 0.8697(6) 0.4467(9) 0.1344(4)
O7 O 0.8572(6) 1.2803(10) -0.0847(4)
O8 O 0.8753(5) 1.0728(9) -0.1739(4)
N1 N 0.8698(6) 1.1223(12) -0.1033(5)
C1 C 0.4782(8) 1.2142(14) 0.3500(6)
C2 C 0.5745(8) 1.1170(13) 0.4015(6)
H2 H 0.62960 1.20600 0.42660
C3 C 0.6213(8) 0.9957(12) 0.3433(6)
H3 H 0.56480 0.91280 0.31370
C4 C 0.7172(8) 0.8894(12) 0.3902(6)
H4 H 0.69480 0.81850 0.43410
C5 C 0.7512(7) 0.7621(12) 0.3303(6)
H5 H 0.76260 0.83090 0.28140
C6 C 0.8522(8) 0.6550(13) 0.3667(6)
H6 H 0.91100 0.73980 0.38890
C7 C 0.8843(8) 0.5424(12) 0.2980(6)
H7 H 0.82860 0.45270 0.27560
C8 C 0.4696(8) 1.3804(13) 0.3270(6)
H8 H 0.52950 1.45180 0.34980
C9 C 0.3763(8) 1.4717(13) 0.2687(6)
H9 H 0.34000 1.39000 0.22480
H10 H 0.40160 1.57270 0.24230
H11 H 0.32700 1.51160 0.30120
C10 C 0.3021(8) 1.1010(13) 0.3449(6)
C11 C 0.2287(9) 0.9519(12) 0.3101(6)
H12 H 0.24630 0.90760 0.25780
C12 C 0.2483(9) 0.8051(13) 0.3756(6)
H13 H 0.32280 0.76960 0.38800
H14 H 0.20310 0.70470 0.35330
H15 H 0.23150 0.84680 0.42740
C13 C 0.1131(9) 1.0064(14) 0.2884(7)
H16 H 0.09610 1.05840 0.33810
H17 H 0.06830 0.90350 0.27040
H18 H 0.10030 1.09250 0.24260
C14 C 0.5464(8) 1.0198(13) 0.4732(6)
H19 H 0.50700 1.09770 0.50200
H20 H 0.61130 0.98050 0.51320
H21 H 0.50250 0.91810 0.45090
C15 C 0.5809(8) 1.1251(12) 0.2009(5)
H22 H 0.51570 1.18120 0.21080
C16 C 0.6364(9) 1.2571(13) 0.1563(5)
H23 H 0.65370 1.36260 0.19100
H24 H 0.58950 1.28790 0.10150
H25 H 0.70160 1.20520 0.14770
C17 C 0.5491(8) 0.9565(12) 0.1518(5)
C18 C 0.6234(8) 0.8576(11) 0.1235(6)
H26 H 0.69490 0.89570 0.13480
C19 C 0.5926(8) 0.7014(13) 0.0781(6)
H27 H 0.64360 0.63200 0.06050
C20 C 0.4874(9) 0.6498(13) 0.0595(6)
H28 H 0.46650 0.54470 0.02880
C21 C 0.4137(9) 0.7481(14) 0.0847(6)
H29 H 0.34160 0.71270 0.07050
C22 C 0.4444(8) 0.9030(14) 0.1320(6)
H30 H 0.39300 0.97030 0.15010
C23 C 0.8072(8) 1.0079(13) 0.4354(6)
H31 H 0.86330 0.93690 0.47140
H32 H 0.78070 1.09230 0.47030
H33 H 0.83570 1.07070 0.39370
C24 C 0.8415(8) 0.5401(14) 0.4399(6)
H34 H 0.82210 0.61260 0.48310
H35 H 0.90910 0.48150 0.46420
H36 H 0.78650 0.45190 0.41960
C25 C 0.9910(8) 0.4545(13) 0.3291(6)
H37 H 1.01340 0.40520 0.28100
H38 H 0.98550 0.36070 0.36860
H39 H 1.04320 0.54090 0.35780
C26 C 0.8797(8) 0.6033(15) 0.1522(6)
C27 C 0.8797(8) 0.7422(13) 0.0873(6)
C28 C 0.8877(8) 0.9223(12) 0.1083(6)
H40 H 0.89510 0.95770 0.16510
C29 C 0.8850(7) 1.0481(13) 0.0459(6)
H41 H 0.89020 1.16930 0.05930
C30 C 0.8744(8) 0.9912(13) -0.0358(6)
C31 C 0.8669(8) 0.8154(14) -0.0585(7)
H42 H 0.85930 0.78060 -0.11540
C32 C 0.8709(7) 0.6928(13) 0.0045(6)
H43 H 0.86750 0.57190 -0.00950
#END
