
#######################################################################
#
#                 Cambridge Crystallographic Data Centre
#                                CCDC
#
#######################################################################
#
# If this CIF has been generated from an entry in the Cambridge
# Structural Database, then it will include bibliographic, chemical,
# crystal, experimental, refinement or atomic coordinate data resulting
# from the CCDC's data processing and validation procedures.
#
#######################################################################

data_CSD_CIF_AXOKAA
_audit_creation_date 2011-10-26
_audit_creation_method CSD-ConQuest-V1
_database_code_CSD AXOKAA
_database_code_depnum_ccdc_archive 'CCDC 844134'
_chemical_formula_sum 'C16 H19 N1 O4'
_chemical_formula_moiety
;
C16 H19 N1 O4
;
_journal_coden_Cambridge 35
_journal_volume 76
_journal_year 2011
_journal_page_first 164
_journal_name_full 'J.Org.Chem. '
loop_
_publ_author_name
"A.Drouin"
"D.K.Winter"
"S.Pichette"
"S.Aubert-Nicol"
"J.Lessard"
"C.Spino"
_chemical_name_systematic
;
2'-Hydroxy-2,2-dimethyl-1',2',3a,4,6,6a-hexahydro-3'H-spiro[cyclopenta[d][1,3]
dioxole-5,4'-isoquinolin]-3'-one
;
_cell_volume   1436.261
_exptl_crystal_colour 'yellow'
_exptl_crystal_density_diffrn 1.338
_exptl_crystal_description 'needle'
_diffrn_ambient_temperature 293
#These two values have been output from a single CSD field.
_refine_ls_R_factor_gt 0.1037
_refine_ls_wR_factor_gt 0.1037
_symmetry_cell_setting monoclinic
_symmetry_space_group_name_H-M 'P 21/c'
_symmetry_Int_Tables_number 14
loop_
_symmetry_equiv_pos_site_id
_symmetry_equiv_pos_as_xyz
1 x,y,z
2 -x,1/2+y,1/2-z
3 -x,-y,-z
4 x,-1/2-y,-1/2+z
_cell_length_a 10.449(2)
_cell_length_b 5.8194(7)
_cell_length_c 23.624(11)
_cell_angle_alpha 90
_cell_angle_beta 91.05(3)
_cell_angle_gamma 90
_cell_formula_units_Z 4
loop_
_atom_type_symbol
_atom_type_radius_bond
C 0.68
H 0.23
N 0.68
O 0.68
loop_
_atom_site_label
_atom_site_type_symbol
_atom_site_fract_x
_atom_site_fract_y
_atom_site_fract_z
C1 C 0.3467(6) 0.0546(12) 0.1792(3)
H1 H 0.29220 0.11700 0.14990
H2 H 0.38720 -0.08230 0.16570
H3 H 0.41090 0.16560 0.18970
C2 C 0.2695(6) -0.0407(11) 0.4995(2)
H4 H 0.23090 -0.05730 0.53640
H5 H 0.33720 -0.15400 0.49670
C3 C 0.1709(5) -0.0821(9) 0.4542(2)
C4 C 0.0706(7) -0.2363(12) 0.4637(3)
H6 H 0.06660 -0.31570 0.49780
C5 C -0.0216(7) -0.2696(12) 0.4227(3)
H7 H -0.08820 -0.37170 0.42910
C6 C -0.0169(5) -0.1558(10) 0.3729(3)
H8 H -0.07940 -0.18260 0.34520
C7 C 0.0809(5) 0.0019(9) 0.3627(2)
H9 H 0.08130 0.08410 0.32890
C8 C 0.1779(5) 0.0355(8) 0.4032(2)
C9 C 0.2908(4) 0.1919(8) 0.39212(18)
C10 C 0.3415(5) 0.3007(9) 0.4470(2)
C11 C 0.4062(4) 0.0555(8) 0.36732(19)
H10 H 0.48630 0.11260 0.38330
H11 H 0.39890 -0.10650 0.37630
C12 C 0.4026(5) 0.0898(8) 0.30416(19)
H12 H 0.48870 0.11780 0.28990
C13 C 0.3150(4) 0.2938(8) 0.2915(2)
H13 H 0.36190 0.41570 0.27220
C14 C 0.2653(5) 0.3794(8) 0.3474(2)
H14 H 0.17430 0.41060 0.34420
H15 H 0.30870 0.52040 0.35830
C15 C 0.2672(5) -0.0030(8) 0.2305(2)
C16 C 0.1573(6) -0.1651(11) 0.2174(3)
H16 H 0.10610 -0.10390 0.18680
H17 H 0.10560 -0.18190 0.25030
H18 H 0.19060 -0.31240 0.20680
N1 N 0.3227(5) 0.1863(8) 0.49437(18)
O1 O 0.4059(4) 0.4812(7) 0.44708(17)
O2 O 0.3795(4) 0.2563(9) 0.54503(16)
H19 H 0.42170 0.37290 0.53970
O3 O 0.3437(4) -0.0973(6) 0.27528(15)
O4 O 0.2163(3) 0.2020(6) 0.25505(13)
#END
