
#######################################################################
#
#                 Cambridge Crystallographic Data Centre
#                                CCDC
#
#######################################################################
#
# If this CIF has been generated from an entry in the Cambridge
# Structural Database, then it will include bibliographic, chemical,
# crystal, experimental, refinement or atomic coordinate data resulting
# from the CCDC's data processing and validation procedures.
#
#######################################################################

data_CSD_CIF_AXOXUG
_audit_creation_date 2004-09-23
_audit_creation_method CSD-ConQuest-V1
_database_code_CSD AXOXUG
_database_code_depnum_ccdc_archive 'CCDC 240463'
_chemical_formula_sum 'C26 H33 N1 O5'
_chemical_formula_moiety
;
C26 H33 N1 O5
;
_journal_coden_Cambridge 35
_journal_volume 69
_journal_year 2004
_journal_page_first 2844
_journal_name_full 'J.Org.Chem. '
loop_
_publ_author_name
"I.Kudyba"
"J.Raczko"
"J.Jurczak"
_chemical_name_systematic
;
anti-O-((2S)-Hydroxy-(3S)-nitro-4-phenylbutanoyl)-(1'R,2'S,5'R)-8'-phenylmenth
ol
;
_cell_volume   1212.107
_exptl_crystal_density_diffrn 1.204
_exptl_crystal_description 'prismatic'
_diffrn_ambient_temperature 293
#These two values have been output from a single CSD field.
_refine_ls_R_factor_gt 0.0343
_refine_ls_wR_factor_gt 0.0343
_symmetry_cell_setting monoclinic
_symmetry_space_group_name_H-M 'P 21'
_symmetry_Int_Tables_number 4
loop_
_symmetry_equiv_pos_site_id
_symmetry_equiv_pos_as_xyz
1 x,y,z
2 -x,1/2+y,-z
_cell_length_a 9.5610(19)
_cell_length_b 11.203(2)
_cell_length_c 11.353(2)
_cell_angle_alpha 90
_cell_angle_beta 94.61(3)
_cell_angle_gamma 90
_cell_formula_units_Z 2
loop_
_atom_type_symbol
_atom_type_radius_bond
C 0.68
H 0.23
N 0.68
O 0.68
loop_
_atom_site_label
_atom_site_type_symbol
_atom_site_fract_x
_atom_site_fract_y
_atom_site_fract_z
O1 O 0.26645(18) 0.87409(14) 0.19851(14)
N1 N -0.0572(3) 0.9226(2) 0.02023(17)
O2 O 0.08956(19) 0.93989(19) 0.29878(16)
C1 C 0.5028(3) 0.9148(3) 0.2880(2)
C2 C 0.0477(3) 0.7784(3) 0.1656(2)
O3 O -0.0769(2) 0.7641(3) 0.2211(2)
C3 C 0.1358(3) 0.8737(3) 0.2276(2)
C4 C 0.3723(4) 1.0549(3) 0.1425(3)
C5 C 0.0121(3) 0.8023(2) 0.0337(2)
C6 C 0.4155(3) 0.7130(2) 0.3524(2)
C7 C 0.3622(3) 0.9693(2) 0.2437(2)
C8 C 0.4967(3) 0.8252(3) 0.3920(2)
C9 C 0.1338(3) 0.7958(3) -0.0427(2)
C10 C 0.6133(4) 1.1069(3) 0.2167(4)
C11 C 0.0963(3) 0.8139(3) -0.1721(2)
C12 C 0.4351(4) 0.8852(4) 0.4977(3)
O4 O 0.0178(3) 1.0093(2) 0.0266(2)
C13 C 0.6022(4) 1.0202(3) 0.3174(3)
C14 C 0.4594(5) 0.6444(3) 0.2636(3)
C15 C 0.4724(3) 1.1575(3) 0.1721(3)
C16 C 0.0219(3) 0.7297(3) -0.2383(3)
C17 C 0.1395(4) 0.9138(4) -0.2280(4)
O5 O -0.1819(3) 0.9277(3) 0.0047(2)
C18 C 0.6460(3) 0.7844(4) 0.4338(4)
C19 C 0.2637(5) 0.5093(4) 0.2838(5)
C20 C 0.2239(5) 0.5754(4) 0.3722(4)
C21 C 0.3777(6) 0.5401(4) 0.2276(4)
C22 C -0.0081(3) 0.7449(4) -0.3578(3)
H1 H -0.05900 0.68710 -0.40170
C23 C 0.4829(5) 1.2403(4) 0.0676(5)
C24 C 0.0371(5) 0.8448(5) -0.4117(4)
C25 C 0.1116(5) 0.9282(5) -0.3478(4)
H2 H 0.442(3) 0.513(3) 0.182(2)
H3 H 0.393(4) 1.255(4) 0.032(3)
C26 C 0.2968(3) 0.6775(3) 0.4065(3)
H4 H 0.203(3) 0.855(2) -0.014(2)
H5 H 0.532(2) 0.874(2) 0.215(2)
H6 H 0.170(3) 0.722(3) -0.030(2)
H7 H -0.008(3) 0.661(3) -0.198(3)
H8 H 0.279(3) 1.081(2) 0.122(2)
H9 H 0.545(3) 1.306(3) 0.092(3)
H10 H 0.534(5) 1.198(4) 0.001(4)
H11 H 0.692(3) 0.991(2) 0.351(2)
H12 H 0.697(3) 0.747(3) 0.364(3)
H13 H 0.336(4) 0.910(3) 0.475(2)
H14 H 0.654(3) 1.063(3) 0.145(3)
H15 H 0.437(3) 0.834(3) 0.559(3)
H16 H 0.678(3) 1.175(3) 0.248(3)
H17 H 0.644(3) 0.724(3) 0.490(3)
H18 H 0.320(2) 1.0051(18) 0.3086(18)
H19 H 0.438(2) 1.198(2) 0.240(2)
H20 H -0.059(2) 0.749(2) 0.004(2)
H21 H 0.407(2) 1.012(2) 0.079(2)
H22 H 0.101(3) 0.699(3) 0.159(2)
H23 H 0.272(3) 0.730(3) 0.476(3)
H24 H 0.180(3) 0.971(3) -0.184(3)
H25 H 0.547(3) 0.669(2) 0.228(2)
H26 H 0.190(5) 0.425(5) 0.263(4)
H27 H 0.510(3) 0.957(3) 0.528(3)
H28 H 0.136(5) 0.547(4) 0.422(4)
H29 H 0.013(3) 0.845(3) -0.499(3)
H30 H 0.708(3) 0.863(3) 0.475(2)
H31 H 0.565(3) 1.058(3) 0.386(3)
H32 H 0.147(4) 1.006(4) -0.375(3)
H33 H -0.074(5) 0.828(5) 0.265(4)
#END
