
#######################################################################
#
#                 Cambridge Crystallographic Data Centre
#                                CCDC
#
#######################################################################
#
# If this CIF has been generated from an entry in the Cambridge
# Structural Database, then it will include bibliographic, chemical,
# crystal, experimental, refinement or atomic coordinate data resulting
# from the CCDC's data processing and validation procedures.
#
#######################################################################

data_CSD_CIF_AXOYER
_audit_creation_date 2004-09-23
_audit_creation_method CSD-ConQuest-V1
_database_code_CSD AXOYER
_database_code_depnum_ccdc_archive 'CCDC 240465'
_chemical_formula_sum 'C25 H31 N1 O5'
_chemical_formula_moiety
;
C25 H31 N1 O5
;
_journal_coden_Cambridge 35
_journal_volume 69
_journal_year 2004
_journal_page_first 2844
_journal_name_full 'J.Org.Chem. '
loop_
_publ_author_name
"I.Kudyba"
"J.Raczko"
"J.Jurczak"
_chemical_name_systematic
;
syn-O-((2S)-Hydroxy-(3R)-nitro-3-phenylpropanoyl)-(11'R,2'S,5'R)-8'-phenylment
hol
;
_chemical_melting_point 452.15
_cell_volume   2256.179
_exptl_crystal_density_diffrn 1.253
_exptl_special_details
;
Melting point range 452.15-453.15K

;
_diffrn_ambient_temperature 293
#These two values have been output from a single CSD field.
_refine_ls_R_factor_gt 0.0649
_refine_ls_wR_factor_gt 0.0649
_symmetry_cell_setting orthorhombic
_symmetry_space_group_name_H-M 'P 21 21 21'
_symmetry_Int_Tables_number 19
loop_
_symmetry_equiv_pos_site_id
_symmetry_equiv_pos_as_xyz
1 x,y,z
2 1/2-x,-y,1/2+z
3 -x,1/2+y,1/2-z
4 1/2+x,1/2-y,-z
_cell_length_a 10.363(2)
_cell_length_b 14.057(3)
_cell_length_c 15.488(3)
_cell_angle_alpha 90
_cell_angle_beta 90
_cell_angle_gamma 90
_cell_formula_units_Z 4
loop_
_atom_type_symbol
_atom_type_radius_bond
C 0.68
H 0.23
N 0.68
O 0.68
loop_
_atom_site_label
_atom_site_type_symbol
_atom_site_fract_x
_atom_site_fract_y
_atom_site_fract_z
C1 C 0.9161(3) 0.49208(19) 0.54936(18)
H1 H 0.88720 0.50650 0.49060
C2 C 0.8546(3) 0.56185(19) 0.61195(19)
H2 H 0.89190 0.54930 0.66900
C3 C 0.9010(4) 0.6613(2) 0.5839(2)
H3 H 0.87050 0.67430 0.52590
H4 H 0.86430 0.70880 0.62220
C4 C 1.0480(4) 0.6687(2) 0.5860(3)
H5 H 1.07330 0.73160 0.56640
H6 H 1.07750 0.66140 0.64500
C5 C 1.1133(3) 0.5948(2) 0.5300(2)
H7 H 1.09160 0.60800 0.46960
C6 C 1.0625(3) 0.4955(2) 0.5527(2)
H8 H 1.09760 0.44940 0.51250
H9 H 1.09140 0.47840 0.61020
C7 C 0.7044(3) 0.5530(2) 0.6214(2)
C8 C 0.6501(4) 0.6389(3) 0.6713(3)
H10 H 0.68970 0.64210 0.72730
H11 H 0.55850 0.63180 0.67780
H12 H 0.66820 0.69630 0.64000
C9 C 0.6403(4) 0.5492(3) 0.5329(3)
H13 H 0.67340 0.49590 0.50110
H14 H 0.65840 0.60690 0.50200
H15 H 0.54870 0.54240 0.53980
C10 C 0.6704(3) 0.4651(2) 0.67644(18)
C11 C 0.7211(4) 0.4565(3) 0.7592(2)
H16 H 0.77740 0.50280 0.77960
C12 C 0.6897(4) 0.3806(3) 0.8117(2)
H17 H 0.72690 0.37550 0.86620
C13 C 0.6033(4) 0.3121(3) 0.7838(3)
H18 H 0.58190 0.26100 0.81920
C14 C 0.5502(3) 0.3209(2) 0.7039(2)
H19 H 0.49110 0.27580 0.68480
C15 C 0.5833(3) 0.3963(2) 0.6506(2)
H20 H 0.54600 0.40070 0.59610
C16 C 1.2601(4) 0.5968(3) 0.5391(3)
H21 H 1.29740 0.54890 0.50260
H22 H 1.28330 0.58450 0.59800
H23 H 1.29190 0.65820 0.52230
O1 O 0.87515(19) 0.39544(12) 0.57265(12)
C17 C 0.8646(3) 0.3322(2) 0.50941(18)
O2 O 0.8848(3) 0.34620(17) 0.43431(14)
C18 C 0.8155(3) 0.23678(19) 0.54427(17)
H24 H 0.72220 0.24380 0.55240
O3 O 0.8328(3) 0.16432(15) 0.48317(15)
H25 H 0.78180 0.17180 0.44320
C19 C 0.8710(3) 0.2097(2) 0.63169(19)
H26 H 0.83120 0.25130 0.67490
N1 N 1.0152(3) 0.22618(19) 0.6351(2)
O4 O 1.0626(3) 0.2359(3) 0.7050(2)
O5 O 1.0744(3) 0.2289(3) 0.5681(2)
C20 C 0.8416(3) 0.1080(2) 0.65729(18)
C21 C 0.7151(4) 0.0861(2) 0.6785(3)
H27 H 0.65220 0.13320 0.67660
C22 C 0.6816(4) -0.0057(3) 0.7025(3)
H28 H 0.59620 -0.02010 0.71550
C23 C 0.7742(5) -0.0753(2) 0.7072(2)
H29 H 0.75230 -0.13620 0.72550
C24 C 0.8997(4) -0.0547(2) 0.6848(3)
H30 H 0.96230 -0.10200 0.68680
C25 C 0.9323(3) 0.0363(2) 0.6594(2)
H31 H 1.01690 0.04940 0.64350
#END
