
#######################################################################
#
#                 Cambridge Crystallographic Data Centre
#                                CCDC
#
#######################################################################
#
# If this CIF has been generated from an entry in the Cambridge
# Structural Database, then it will include bibliographic, chemical,
# crystal, experimental, refinement or atomic coordinate data resulting
# from the CCDC's data processing and validation procedures.
#
#######################################################################

data_CSD_CIF_AXTMHP
_audit_creation_date 1980-01-28
_audit_creation_method CSD-ConQuest-V1
_database_code_CSD AXTMHP
_database_code_depnum_ccdc_archive 'CCDC 1104030'
_chemical_formula_sum 'C11 H21 N2 O2'
_chemical_formula_moiety
;
C11 H21 N2 O2
;
_journal_coden_Cambridge 189
_journal_volume 8
_journal_year 1979
_journal_page_first 663
_journal_name_full 'Cryst.Struct.Commun. '
loop_
_publ_author_name
"J.L.Laugier"
"A.Grand"
"P.Rey"
_chemical_name_systematic
;
4-Acetyl-1-oxyl-2,2,7,7-tetramethyl-homopiperazine
;
_cell_volume   1220.839
_exptl_crystal_density_diffrn 1.16
_diffrn_ambient_temperature ?
_diffrn_special_details
;
The study was carried out at room temperature,in the range 283-303K

;
#These two values have been output from a single CSD field.
_refine_ls_R_factor_gt 0.036
_refine_ls_wR_factor_gt 0.036
_symmetry_cell_setting monoclinic
_symmetry_space_group_name_H-M 'P 21/n'
_symmetry_Int_Tables_number 14
loop_
_symmetry_equiv_pos_site_id
_symmetry_equiv_pos_as_xyz
1 x,y,z
2 1/2-x,1/2+y,1/2-z
3 -x,-y,-z
4 -1/2+x,-1/2-y,-1/2+z
_cell_length_a 8.758(2)
_cell_length_b 10.044(2)
_cell_length_c 14.014(3)
_cell_angle_alpha 90
_cell_angle_beta 97.97(1)
_cell_angle_gamma 90
_cell_formula_units_Z 4
loop_
_atom_type_symbol
_atom_type_radius_bond
C 0.68
H 0.23
N 0.68
O 0.68
loop_
_atom_site_label
_atom_site_type_symbol
_atom_site_fract_x
_atom_site_fract_y
_atom_site_fract_z
N1 N -0.16680 0.40750 0.20150
C1 C -0.25850 0.34400 0.11600
C2 C -0.20300 0.20580 0.09340
N2 N -0.04580 0.19800 0.07110
C3 C 0.07430 0.17460 0.15260
C4 C 0.03320 0.23140 0.24600
C5 C -0.00590 0.37870 0.24770
C6 C -0.42340 0.32980 0.13920
C7 C -0.25590 0.43710 0.03020
C8 C 0.10440 0.46280 0.19840
C9 C 0.00310 0.42290 0.35300
C10 C -0.02220 0.18370 -0.02210
C11 C 0.14130 0.16360 -0.04230
O1 O -0.12760 0.18690 -0.08880
O2 O -0.21930 0.52160 0.22250
H1 H -0.21100 0.14300 0.14600
H2 H -0.26700 0.17500 0.03500
H3 H 0.09000 0.07800 0.16000
H4 H 0.16900 0.22500 0.13500
H5 H 0.12600 0.22000 0.29600
H6 H -0.05500 0.18300 0.27300
H7 H -0.48400 0.29000 0.08600
H8 H -0.46100 0.41600 0.15200
H9 H -0.41700 0.26800 0.19800
H10 H -0.29100 0.51800 0.04800
H11 H -0.14600 0.44800 0.01500
H12 H -0.32000 0.40200 -0.02300
H13 H 0.21600 0.44500 0.23200
H14 H 0.07800 0.55200 0.20600
H15 H 0.09500 0.43200 0.12600
H16 H 0.11700 0.40900 0.38600
H17 H -0.05700 0.35300 0.38100
H18 H -0.02600 0.52300 0.34900
H19 H 0.19000 0.23900 -0.00900
H20 H 0.20900 0.11000 0.00600
H21 H 0.13800 0.11700 -0.10100
#END
