
#######################################################################
#
#                 Cambridge Crystallographic Data Centre
#                                CCDC
#
#######################################################################
#
# If this CIF has been generated from an entry in the Cambridge
# Structural Database, then it will include bibliographic, chemical,
# crystal, experimental, refinement or atomic coordinate data resulting
# from the CCDC's data processing and validation procedures.
#
#######################################################################

data_CSD_CIF_AXUHAE
_audit_creation_date 2016-10-24
_audit_creation_method CSD-ConQuest-V1
_database_code_CSD AXUHAE
_database_code_depnum_ccdc_archive 'CCDC 1060111'
_chemical_formula_sum 'C20 H22 N6 O6'
_chemical_formula_moiety
;
C20 H22 N6 O6
;
_journal_coden_Cambridge 1500
_journal_volume 6
_journal_year 2016
_journal_page_first 101115
_journal_name_full 'RSC Advances '
loop_
_publ_author_name
"Jiao Geng"
"Dan Xu"
"Xiao-Lei Zhao"
"Ya-Nan Feng"
"Hui-Fen Qian"
"Yuan Dai"
"Wei Huang"
_chemical_name_systematic
;
N-(2-(5-cyano-3-((4-methoxy-2-nitrophenyl)hydrazono)-4-methyl-2,6-dioxo-3,6-di
hydropyridin-1(2H)-yl)ethyl)-N-ethylacetamide
;
_cell_volume   2064.776
_exptl_crystal_colour 'orange'
_exptl_crystal_density_diffrn 1.423
_exptl_crystal_description 'needle'
_diffrn_ambient_temperature 291
#These two values have been output from a single CSD field.
_refine_ls_R_factor_gt 0.0461
_refine_ls_wR_factor_gt 0.0461
_symmetry_cell_setting orthorhombic
_symmetry_space_group_name_H-M 'P n a 21'
_symmetry_Int_Tables_number 33
loop_
_symmetry_equiv_pos_site_id
_symmetry_equiv_pos_as_xyz
1 x,y,z
2 -x,-y,1/2+z
3 1/2+x,1/2-y,z
4 1/2-x,1/2+y,1/2+z
_cell_length_a 17.441(5)
_cell_length_b 24.502(7)
_cell_length_c 4.8317(15)
_cell_angle_alpha 90
_cell_angle_beta 90
_cell_angle_gamma 90
_cell_formula_units_Z 4
loop_
_atom_type_symbol
_atom_type_radius_bond
C 0.68
H 0.23
N 0.68
O 0.68
loop_
_atom_site_label
_atom_site_type_symbol
_atom_site_fract_x
_atom_site_fract_y
_atom_site_fract_z
C1 C 0.6654(2) 0.47208(18) 0.6988(9)
C2 C 0.6131(3) 0.46165(19) 0.9136(9)
C3 C 0.5804(3) 0.50346(18) 1.0646(10)
H1 H 0.54660 0.49550 1.20770
C4 C 0.5977(2) 0.5570(2) 1.0037(11)
C5 C 0.6483(3) 0.56830(19) 0.7906(10)
H2 H 0.66020 0.60430 0.74780
C6 C 0.6816(2) 0.52614(19) 0.6401(10)
H3 H 0.71530 0.53440 0.49720
C7 C 0.5790(3) 0.65138(19) 1.1148(14)
H4 H 0.56470 0.66050 0.92850
H5 H 0.63280 0.65800 1.14010
H6 H 0.55030 0.67350 1.24190
C8 C 0.7865(2) 0.40222(17) 0.2226(10)
C9 C 0.7664(2) 0.34494(19) 0.2512(10)
C10 C 0.8545(2) 0.3221(2) -0.1288(11)
C11 C 0.8757(2) 0.3797(2) -0.1377(10)
C12 C 0.8441(2) 0.41866(17) 0.0228(10)
C13 C 0.9335(3) 0.3926(2) -0.3351(11)
C14 C 0.8682(3) 0.47709(18) 0.0050(12)
H7 H 0.90220 0.48180 -0.14940
H8 H 0.89410 0.48730 0.17250
H9 H 0.82380 0.49970 -0.01940
C15 C 0.7799(3) 0.25073(18) 0.1095(10)
H10 H 0.77190 0.24210 0.30330
H11 H 0.82060 0.22740 0.04020
C16 C 0.7064(3) 0.23988(19) -0.0519(11)
H12 H 0.67380 0.27190 -0.04300
H13 H 0.71910 0.23350 -0.24470
C17 C 0.6812(3) 0.1432(2) -0.0384(11)
C18 C 0.6350(3) 0.09655(19) 0.0735(14)
H14 H 0.64880 0.06360 -0.02190
H15 H 0.58140 0.10380 0.04650
H16 H 0.64520 0.09240 0.26760
C19 C 0.6057(3) 0.2052(2) 0.2716(12)
H17 H 0.59610 0.17250 0.37930
H18 H 0.62500 0.23300 0.39610
C20 C 0.5326(3) 0.2242(3) 0.1455(16)
H19 H 0.51490 0.19750 0.01470
H20 H 0.54100 0.25830 0.05260
H21 H 0.49480 0.22900 0.28780
N1 N 0.5904(2) 0.40633(16) 0.9911(9)
N2 N 0.7010(2) 0.43021(15) 0.5486(8)
H22 H 0.68820 0.39680 0.57630
N3 N 0.7540(2) 0.44220(14) 0.3656(8)
N4 N 0.8026(2) 0.30783(14) 0.0820(8)
N5 N 0.9792(3) 0.40476(19) -0.4938(10)
N6 N 0.6648(2) 0.19324(16) 0.0552(9)
O1 O 0.56268(18) 0.59471(13) 1.1656(7)
O2 O 0.5495(2) 0.40026(14) 1.1940(9)
O3 O 0.61463(18) 0.36734(14) 0.8559(8)
O4 O 0.71947(18) 0.32940(12) 0.4260(7)
O5 O 0.87860(17) 0.28799(13) -0.2887(7)
O6 O 0.7324(2) 0.13583(15) -0.2071(9)
#END
