
#######################################################################
#
#                 Cambridge Crystallographic Data Centre
#                                CCDC
#
#######################################################################
#
# If this CIF has been generated from an entry in the Cambridge
# Structural Database, then it will include bibliographic, chemical,
# crystal, experimental, refinement or atomic coordinate data resulting
# from the CCDC's data processing and validation procedures.
#
#######################################################################

data_CSD_CIF_AXUKOU
_audit_creation_date 2011-09-22
_audit_creation_method CSD-ConQuest-V1
_database_code_CSD AXUKOU
_database_code_depnum_ccdc_archive 'CCDC 834274'
_chemical_formula_sum 'C19 H18 N2 O2'
_chemical_formula_moiety
;
C19 H18 N2 O2
;
_journal_coeditor_code "IUCr DN2687"
_journal_coden_Cambridge 1370
_journal_volume 67
_journal_year 2011
_journal_page_first o1573
_journal_name_full 'Acta Crystallogr.,Sect.E:Struct.Rep.Online '
loop_
_publ_author_name
"Hua Zhou"
"Shi-Yi Ou"
"Ri-An Yan"
"Xiao-Jian Liao"
_chemical_name_systematic
;
(+-)-4a-(4-Nitrobenzyl)-2,3,4,4a-tetrahydro-1H-carbazole
;
_cell_volume   1553.821
_exptl_crystal_colour 'colorless'
_exptl_crystal_density_diffrn 1.31
_exptl_crystal_description 'block'
_diffrn_ambient_temperature 295.0
#These two values have been output from a single CSD field.
_refine_ls_R_factor_gt 0.0424
_refine_ls_wR_factor_gt 0.0424
_symmetry_cell_setting monoclinic
_symmetry_space_group_name_H-M 'P 21/c'
_symmetry_Int_Tables_number 14
loop_
_symmetry_equiv_pos_site_id
_symmetry_equiv_pos_as_xyz
1 x,y,z
2 -x,1/2+y,1/2-z
3 -x,-y,-z
4 x,-1/2-y,-1/2+z
_cell_length_a 8.7266(3)
_cell_length_b 16.6916(6)
_cell_length_c 11.0857(4)
_cell_angle_alpha 90
_cell_angle_beta 105.790(4)
_cell_angle_gamma 90
_cell_formula_units_Z 4
loop_
_atom_type_symbol
_atom_type_radius_bond
C 0.68
H 0.23
N 0.68
O 0.68
loop_
_atom_site_label
_atom_site_type_symbol
_atom_site_fract_x
_atom_site_fract_y
_atom_site_fract_z
N1 N -0.00300(17) 0.11252(9) 0.00877(13)
N2 N -0.40823(18) -0.06469(10) 0.32518(16)
O1 O -0.45120(19) -0.11644(11) 0.24495(19)
O2 O -0.4868(2) -0.04523(13) 0.39422(19)
C1 C -0.26031(19) -0.02163(10) 0.33128(15)
C2 C -0.0688(2) 0.26406(11) 0.22420(17)
H1 H -0.01330 0.28420 0.30200
C3 C -0.1638(2) -0.04885(11) 0.26058(16)
H2 H -0.19060 -0.09460 0.21150
C4 C 0.01239(19) 0.06249(10) 0.33455(14)
C5 C -0.0266(2) -0.00705(11) 0.26372(16)
H3 H 0.04090 -0.02560 0.21780
C6 C -0.0060(2) 0.20306(10) 0.16888(15)
C7 C 0.14637(19) 0.15610(11) 0.21010(15)
C8 C -0.2232(2) 0.04547(11) 0.40556(16)
H4 H -0.28830 0.06210 0.45470
C9 C -0.0874(2) 0.08749(11) 0.40559(15)
H5 H -0.06200 0.13350 0.45420
C10 C 0.2623(2) 0.05042(12) 0.08696(19)
H6 H 0.23640 0.02370 0.00630
H7 H 0.28320 0.00990 0.15210
C11 C -0.09041(19) 0.17322(10) 0.05232(15)
C12 C 0.1591(2) 0.10996(11) 0.33379(15)
H8 H 0.24920 0.07370 0.34870
H9 H 0.18030 0.14800 0.40240
C13 C 0.1269(2) 0.10175(10) 0.09656(15)
C14 C 0.2976(2) 0.20659(12) 0.22068(19)
H10 H 0.27770 0.24420 0.15150
H11 H 0.32140 0.23720 0.29800
C15 C -0.2169(2) 0.29487(12) 0.1613(2)
H12 H -0.25970 0.33700 0.19650
C16 C -0.3009(2) 0.26371(13) 0.04740(19)
H13 H -0.40110 0.28420 0.00790
C17 C 0.4094(2) 0.10320(15) 0.1016(2)
H14 H 0.50130 0.06950 0.10600
H15 H 0.39410 0.13750 0.02860
C18 C -0.2390(2) 0.20246(13) -0.00932(17)
H16 H -0.29570 0.18170 -0.08640
C19 C 0.4413(2) 0.15502(15) 0.2191(2)
H17 H 0.46750 0.12080 0.29260
H18 H 0.53210 0.18940 0.22300
#END
