
#######################################################################
#
#                 Cambridge Crystallographic Data Centre
#                                CCDC
#
#######################################################################
#
# If this CIF has been generated from an entry in the Cambridge
# Structural Database, then it will include bibliographic, chemical,
# crystal, experimental, refinement or atomic coordinate data resulting
# from the CCDC's data processing and validation procedures.
#
#######################################################################

data_CSD_CIF_AYAMOD
_audit_creation_date 2011-10-03
_audit_creation_method CSD-ConQuest-V1
_database_code_CSD AYAMOD
_database_code_depnum_ccdc_archive 'CCDC 226856'
_chemical_formula_sum 'C38 H38 N4 O14'
_chemical_formula_moiety
;
C38 H38 N4 O14
;
_journal_coden_Cambridge 95
_journal_year 2010
_journal_page_first 992
_journal_name_full 'Izv.Akad.Nauk SSSR,Ser.Khim.(Russ.)(Russ.Chem.Bull.) '
loop_
_publ_author_name
"A.V.Varlamov"
"A.I.Komarova"
"A.N.Levov"
"E.V.Savitkina"
"A.P.Krapivko"
"V.N.Khrustalev"
"E.A.Sorokina"
"L.N.Kulikova"
"E.V.Nikitina"
"V.P.Zaitsev"
"F.I.Zubkov"
_chemical_name_systematic
;
Tetramethyl 
5-benzyl-4a-((1E,3Z,5E)-6-(dimethylamino)-4,5-bis(methoxycarbonyl)hexa-1,3,5-t
rien-1-yl)-7-nitro-4a,5-dihydropyrido[1,2-a]benzimidazole-1,2,3,4-tetracarboxy
late
;
_chemical_melting_point 454.15
_cell_volume   2004.736
_exptl_crystal_colour 'orange'
_exptl_crystal_density_diffrn 1.283
_exptl_special_details
;
Melting point range 454.15-456.15K

;
_exptl_crystal_description 'prism'
_exptl_crystal_preparation 'ethyl acetate/hexane'
_diffrn_ambient_temperature 295
#These two values have been output from a single CSD field.
_refine_ls_R_factor_gt 0.0827
_refine_ls_wR_factor_gt 0.0827
_symmetry_cell_setting triclinic
_symmetry_space_group_name_H-M 'P -1'
_symmetry_Int_Tables_number 2
loop_
_symmetry_equiv_pos_site_id
_symmetry_equiv_pos_as_xyz
1 x,y,z
2 -x,-y,-z
_cell_length_a 8.9655(18)
_cell_length_b 13.950(3)
_cell_length_c 16.451(3)
_cell_angle_alpha 83.41(3)
_cell_angle_beta 79.87(3)
_cell_angle_gamma 84.06(3)
_cell_formula_units_Z 2
loop_
_atom_type_symbol
_atom_type_radius_bond
C 0.68
H 0.23
N 0.68
O 0.68
loop_
_atom_site_label
_atom_site_type_symbol
_atom_site_fract_x
_atom_site_fract_y
_atom_site_fract_z
N1 N 0.4241(4) 0.6605(3) 0.0905(2)
C1 C 0.4702(5) 0.7115(3) 0.1565(3)
N2 N 0.5717(4) 0.7804(3) 0.1041(2)
C2 C 0.5471(5) 0.7864(3) 0.0227(3)
C3 C 0.5986(6) 0.8503(4) -0.0431(3)
H1 H 0.65550 0.90050 -0.03730
C4 C 0.5610(6) 0.8363(4) -0.1197(3)
C5 C 0.4800(6) 0.7632(4) -0.1311(3)
H2 H 0.45960 0.75640 -0.18350
C6 C 0.4279(6) 0.6987(4) -0.0637(3)
H3 H 0.37300 0.64780 -0.07020
C7 C 0.4596(5) 0.7121(3) 0.0126(3)
C8 C 0.3562(5) 0.5761(3) 0.1127(3)
C9 C 0.3815(5) 0.5211(3) 0.1828(3)
C10 C 0.5022(6) 0.5459(4) 0.2234(3)
C11 C 0.5516(5) 0.6350(4) 0.2092(3)
C12 C 0.2486(6) 0.5527(4) 0.0578(3)
O1 O 0.1302(4) 0.6002(3) 0.0542(2)
O2 O 0.3037(4) 0.4787(2) 0.0155(2)
C13 C 0.1973(6) 0.4449(4) -0.0299(4)
H4 H 0.24240 0.38770 -0.05500
H5 H 0.17330 0.49450 -0.07230
H6 H 0.10590 0.43020 0.00760
C14 C 0.2829(6) 0.4412(4) 0.2153(3)
O3 O 0.1807(5) 0.4221(3) 0.1837(2)
O4 O 0.3195(5) 0.3948(3) 0.2843(2)
C15 C 0.2218(9) 0.3199(5) 0.3253(4)
H7 H 0.26200 0.28830 0.37280
H8 H 0.21820 0.27320 0.28730
H9 H 0.12110 0.34890 0.34280
C16 C 0.5811(6) 0.4701(4) 0.2783(4)
O5 O 0.5816(5) 0.4765(3) 0.3506(3)
O6 O 0.6546(5) 0.4005(3) 0.2348(3)
C17 C 0.7476(10) 0.3305(6) 0.2801(6)
H10 H 0.82160 0.29640 0.24170
H11 H 0.68450 0.28530 0.31480
H12 H 0.79880 0.36340 0.31400
C18 C 0.6811(6) 0.6625(4) 0.2448(3)
O7 O 0.6738(5) 0.7331(3) 0.2816(3)
O8 O 0.8009(4) 0.5999(3) 0.2311(2)
C19 C 0.9323(7) 0.6174(6) 0.2677(4)
H13 H 1.01210 0.56690 0.25610
H14 H 0.90290 0.61780 0.32670
H15 H 0.96800 0.67880 0.24440
C20 C 0.3304(5) 0.7625(3) 0.2021(3)
H16 H 0.27910 0.81130 0.17160
C21 C 0.2730(6) 0.7448(4) 0.2816(3)
H17 H 0.32520 0.69950 0.31470
C22 C 0.1314(6) 0.7939(4) 0.3184(3)
H18 H 0.08970 0.84350 0.28430
C23 C 0.0518(6) 0.7777(4) 0.3951(3)
C24 C 0.1036(6) 0.7027(4) 0.4592(4)
O9 O 0.0987(5) 0.7176(3) 0.5301(3)
O10 O 0.1590(5) 0.6200(3) 0.4282(2)
C25 C 0.2158(9) 0.5432(5) 0.4851(4)
H19 H 0.25860 0.48890 0.45530
H20 H 0.13370 0.52380 0.52760
H21 H 0.29260 0.56630 0.51000
C26 C -0.0935(7) 0.8360(4) 0.4200(3)
C27 C -0.2203(7) 0.7751(7) 0.4532(4)
O11 O -0.2083(5) 0.6897(4) 0.4650(3)
O12 O -0.3560(6) 0.8290(5) 0.4688(4)
C28 C -0.4877(9) 0.7707(8) 0.4907(6)
H22 H -0.57450 0.80640 0.47160
H23 H -0.50940 0.75630 0.54980
H24 H -0.46500 0.71140 0.46480
C29 C -0.1207(13) 0.9326(5) 0.4027(5)
H25 H -0.22260 0.95420 0.40390
N3 N -0.0245(11) 1.0021(4) 0.3842(4)
C30 C 0.1322(12) 0.9858(5) 0.3956(5)
H26 H 0.14090 0.93780 0.44170
H27 H 0.16670 1.04520 0.40660
H28 H 0.19320 0.96360 0.34630
C31 C -0.0751(11) 1.0982(5) 0.3526(4)
H29 H -0.18400 1.10440 0.35850
H30 H -0.03200 1.10950 0.29500
H31 H -0.04310 1.14480 0.38310
C32 C 0.6029(6) 0.8683(4) 0.1370(3)
H32 H 0.57000 0.86240 0.19660
H33 H 0.54360 0.92330 0.11350
C33 C 0.7678(6) 0.8876(4) 0.1187(3)
C34 C 0.8089(8) 0.9714(4) 0.1426(4)
H34 H 0.73470 1.01380 0.16960
C35 C 0.9598(9) 0.9935(5) 0.1267(5)
H35 H 0.98600 1.05020 0.14310
C36 C 1.0684(8) 0.9321(5) 0.0871(5)
H36 H 1.16890 0.94760 0.07610
C37 C 1.0332(7) 0.8485(5) 0.0634(5)
H37 H 1.10810 0.80680 0.03600
C38 C 0.8808(7) 0.8265(4) 0.0811(4)
H38 H 0.85620 0.76820 0.06670
N4 N 0.6164(6) 0.9038(4) -0.1914(3)
O13 O 0.5694(6) 0.9002(4) -0.2559(3)
O14 O 0.7018(6) 0.9629(3) -0.1837(3)
#END
