
#######################################################################
#
#                 Cambridge Crystallographic Data Centre
#                                CCDC
#
#######################################################################
#
# If this CIF has been generated from an entry in the Cambridge
# Structural Database, then it will include bibliographic, chemical,
# crystal, experimental, refinement or atomic coordinate data resulting
# from the CCDC's data processing and validation procedures.
#
#######################################################################

data_CSD_CIF_AYAQAU
_audit_creation_date 2016-10-25
_audit_creation_method CSD-ConQuest-V1
_database_code_CSD AYAQAU
_database_code_depnum_ccdc_archive 'CCDC 1405500'
_chemical_formula_sum 'C28 H24 N2 O4'
_chemical_formula_moiety
;
C28 H24 N2 O4
;
_journal_coden_Cambridge 1268
_journal_volume 21
_journal_year 2016
_journal_page_first 307
_journal_name_full 'Molecules '
loop_
_publ_author_name
"M.M.Rammah"
"Wafa Gati"
"H.Mtiraoui"
"M.El B.Rammah"
"K.Ciamala"
"M.Knorr"
"Y.Rousselin"
"M.M.Kubicki"
_chemical_name_systematic
;
ethyl 
2-benzyl-3-oxo-1-((3-phenyl-1,2-oxazol-5-yl)methyl)isoindoline-1-carboxylate
;
_cell_volume   4568.613
_exptl_crystal_colour 'colorless'
_exptl_crystal_density_diffrn 1.316
_exptl_crystal_description 'prism'
_diffrn_ambient_temperature 115.2
#These two values have been output from a single CSD field.
_refine_ls_R_factor_gt 0.0551
_refine_ls_wR_factor_gt 0.0551
_symmetry_cell_setting monoclinic
_symmetry_space_group_name_H-M 'P 21/c'
_symmetry_Int_Tables_number 14
loop_
_symmetry_equiv_pos_site_id
_symmetry_equiv_pos_as_xyz
1 x,y,z
2 -x,1/2+y,1/2-z
3 -x,-y,-z
4 x,-1/2-y,-1/2+z
_cell_length_a 14.149(4)
_cell_length_b 17.091(3)
_cell_length_c 23.576(8)
_cell_angle_alpha 90
_cell_angle_beta 126.741(18)
_cell_angle_gamma 90
_cell_formula_units_Z 8
loop_
_atom_type_symbol
_atom_type_radius_bond
C 0.68
H 0.23
N 0.68
O 0.68
loop_
_atom_site_label
_atom_site_type_symbol
_atom_site_fract_x
_atom_site_fract_y
_atom_site_fract_z
C1 C 0.62688(18) 0.92826(13) 0.68018(12)
H1 H 0.57080 0.92670 0.62840
H2 H 0.67820 0.88220 0.69690
H3 H 0.67500 0.97580 0.69470
C2 C 0.5611(2) 0.92844(13) 0.71117(13)
H4 H 0.61660 0.92580 0.76350
H5 H 0.51350 0.97680 0.69760
C3 C 0.41338(15) 0.85059(10) 0.70215(9)
C4 C 0.34007(14) 0.77382(10) 0.67225(9)
C5 C 0.34958(15) 0.73528(10) 0.61677(9)
H6 H 0.31110 0.76980 0.57470
H7 H 0.43400 0.73120 0.63670
C6 C 0.29539(15) 0.65607(10) 0.59365(9)
C7 C 0.34126(15) 0.58330(11) 0.61303(9)
H8 H 0.42100 0.56920 0.64850
C8 C 0.24431(15) 0.53254(11) 0.56880(9)
C9 C 0.24422(16) 0.44616(11) 0.56641(9)
C10 C 0.34981(17) 0.40650(11) 0.59445(10)
H9 H 0.42120 0.43510 0.61620
C11 C 0.35116(18) 0.32565(11) 0.59083(10)
H10 H 0.42320 0.29910 0.60950
C12 C 0.24800(19) 0.28351(12) 0.56014(10)
H11 H 0.24910 0.22810 0.55780
C13 C 0.14261(18) 0.32237(12) 0.53273(10)
H12 H 0.07180 0.29330 0.51160
C14 C 0.14004(17) 0.40352(11) 0.53597(10)
H13 H 0.06790 0.42980 0.51760
C15 C 0.19082(16) 0.7620(1) 0.68848(10)
C16 C 0.13440(15) 0.83624(11) 0.58258(9)
H14 H 0.05350 0.82290 0.56610
H15 H 0.14150 0.82090 0.54480
C17 C 0.15029(15) 0.92415(10) 0.59261(9)
C18 C 0.16364(18) 0.96862(12) 0.54887(10)
H16 H 0.16650 0.94370 0.51390
C19 C 0.1728(2) 1.04945(12) 0.55557(12)
H17 H 0.18110 1.07950 0.52490
C20 C 0.17000(19) 1.08630(12) 0.60659(11)
H18 H 0.17650 1.14160 0.61120
C21 C 0.15763(17) 1.04211(11) 0.65113(10)
H19 H 0.15630 1.06720 0.68660
C22 C 0.14716(16) 0.96166(11) 0.64407(10)
H20 H 0.13780 0.93180 0.67440
C23 C 0.38199(15) 0.72169(10) 0.73555(9)
C24 C 0.48850(16) 0.6827(1) 0.78045(9)
H21 H 0.54740 0.68400 0.77290
C25 C 0.50572(18) 0.64169(11) 0.83685(10)
H22 H 0.57770 0.61440 0.86830
C26 C 0.41956(19) 0.63971(11) 0.84835(10)
H23 H 0.43460 0.61230 0.88810
C27 C 0.31257(18) 0.67727(11) 0.80244(10)
H24 H 0.25300 0.67530 0.80940
C28 C 0.29514(16) 0.71808(10) 0.74580(9)
N1 N 0.21808(12) 0.79017(9) 0.64575(8)
N2 N 0.14622(14) 0.57205(9) 0.52521(9)
O1 O 0.17845(11) 0.65187(8) 0.54111(7)
O2 O 0.09617(12) 0.77159(8) 0.67879(8)
O3 O 0.40962(11) 0.89434(8) 0.74028(7)
O4 O 0.48410(13) 0.85930(8) 0.68296(8)
C29 C 0.10146(18) 0.52550(12) 0.65670(11)
H25 H 0.14320 0.57480 0.66490
H26 H 0.03780 0.51970 0.60600
H27 H 0.15670 0.48170 0.67280
C30 C 0.05054(19) 0.52586(12) 0.69701(12)
H28 H 0.00630 0.47690 0.68830
H29 H 0.11410 0.53040 0.74840
C31 C -0.09443(15) 0.59863(10) 0.69472(9)
C32 C -0.16920(14) 0.67513(10) 0.66799(9)
C33 C -0.11514(14) 0.72835(10) 0.73210(9)
C34 C -0.18957(15) 0.73142(10) 0.75214(9)
C35 C -0.29727(15) 0.68587(11) 0.70097(10)
C36 C -0.37753(15) 0.61328(11) 0.58972(9)
H30 H -0.38540 0.63250 0.54740
H31 H -0.45330 0.62320 0.58210
C37 C -0.35613(14) 0.52610(11) 0.59589(9)
C38 C -0.33856(16) 0.48751(12) 0.55099(9)
H32 H -0.33710 0.51660 0.51720
C39 C -0.32307(17) 0.40687(13) 0.55506(10)
H33 H -0.31110 0.38120 0.52410
C40 C -0.32507(17) 0.36394(12) 0.60406(10)
H34 H -0.31550 0.30870 0.60640
C41 C -0.34106(17) 0.40185(12) 0.64982(10)
H35 H -0.34170 0.37260 0.68390
C42 C -0.35611(16) 0.48244(11) 0.64593(10)
H36 H -0.36650 0.50810 0.67760
C43 C -0.01007(15) 0.76966(10) 0.76880(9)
H37 H 0.04040 0.76850 0.75480
C44 C 0.01845(16) 0.81292(11) 0.82706(10)
H38 H 0.08980 0.84210 0.85310
C45 C -0.05461(17) 0.81483(11) 0.84849(10)
H39 H -0.03180 0.84410 0.88910
C46 C -0.16034(17) 0.77419(11) 0.81064(10)
H40 H -0.21130 0.77560 0.82430
C47 C -0.17594(16) 0.71215(11) 0.60621(9)
H41 H -0.09570 0.71300 0.61840
H42 H -0.22570 0.67860 0.56390
C48 C -0.22420(15) 0.79289(11) 0.58791(9)
C49 C -0.17068(16) 0.86254(11) 0.60174(10)
H43 H -0.08850 0.87250 0.62790
C50 C -0.26416(15) 0.91816(11) 0.56863(9)
C51 C -0.25530(16) 1.00420(11) 0.56672(9)
C52 C -0.14588(17) 1.04011(11) 0.60928(10)
H44 H -0.07750 1.00940 0.64050
C53 C -0.13537(17) 1.12035(12) 0.60666(10)
H45 H -0.05990 1.14430 0.63580
C54 C -0.23483(17) 1.16573(12) 0.56155(10)
H46 H -0.22770 1.22070 0.55950
C55 C -0.34438(18) 1.13041(12) 0.51956(11)
H47 H -0.41270 1.16150 0.48900
C56 C -0.35531(16) 1.05026(12) 0.52169(10)
H48 H -0.43090 1.02650 0.49250
N3 N -0.28484(12) 0.65833(9) 0.65138(8)
N4 N -0.36664(14) 0.88362(10) 0.53698(9)
O5 O -0.38310(11) 0.67500(8) 0.70086(8)
O6 O -0.34215(11) 0.80249(8) 0.54902(7)
O7 O -0.09429(11) 0.55290(8) 0.73311(7)
O8 O -0.02836(12) 0.59330(8) 0.67198(8)
#END
