
#######################################################################
#
#                 Cambridge Crystallographic Data Centre
#                                CCDC
#
#######################################################################
#
# If this CIF has been generated from an entry in the Cambridge
# Structural Database, then it will include bibliographic, chemical,
# crystal, experimental, refinement or atomic coordinate data resulting
# from the CCDC's data processing and validation procedures.
#
#######################################################################

data_CSD_CIF_AYASIC
_audit_creation_date 2004-09-24
_audit_creation_method CSD-ConQuest-V1
_database_code_CSD AYASIC
_database_code_depnum_ccdc_archive 'CCDC 240445'
_chemical_formula_sum 'C23 H18 N2 O5'
_chemical_formula_moiety
;
C23 H18 N2 O5
;
_journal_coden_Cambridge 35
_journal_volume 69
_journal_year 2004
_journal_page_first 2332
_journal_name_full 'J.Org.Chem. '
loop_
_publ_author_name
"Yun Li"
"Hua-You Hu"
"Jian-Ping Ye"
"Hoong-Kun Fun"
"Hong-Wen Hu"
"Jian-Hua Xu"
_chemical_name_systematic
;
(Z)-3-(6-methyl-2-pyridyl)-3-(p-nitrobenzoyl)-2-phenylpropenoic acid methyl 
ester
;
_chemical_melting_point 379.15
_cell_volume   1010.728
_exptl_crystal_colour 'colorless'
_exptl_crystal_density_diffrn 1.322
_exptl_special_details
;
Melting point range 379.15-381.15K

;
_exptl_crystal_description 'block'
_exptl_crystal_preparation 'petroleum ether/ethyl acetate'
_diffrn_ambient_temperature 293
#These two values have been output from a single CSD field.
_refine_ls_R_factor_gt 0.0869
_refine_ls_wR_factor_gt 0.0869
_symmetry_cell_setting triclinic
_symmetry_space_group_name_H-M 'P -1'
_symmetry_Int_Tables_number 2
loop_
_symmetry_equiv_pos_site_id
_symmetry_equiv_pos_as_xyz
1 x,y,z
2 -x,-y,-z
_cell_length_a 9.2096(15)
_cell_length_b 9.6929(15)
_cell_length_c 11.8722(19)
_cell_angle_alpha 87.161(3)
_cell_angle_beta 72.734(3)
_cell_angle_gamma 88.484(3)
_cell_formula_units_Z 2
loop_
_atom_type_symbol
_atom_type_radius_bond
C 0.68
H 0.23
N 0.68
O 0.68
loop_
_atom_site_label
_atom_site_type_symbol
_atom_site_fract_x
_atom_site_fract_y
_atom_site_fract_z
O1 O -0.0737(4) 0.0364(3) 0.2601(3)
O2 O 0.3234(8) -0.3230(5) 0.5897(4)
O3 O 0.5148(8) -0.1840(6) 0.5142(5)
O4 O 0.1343(4) -0.1308(3) 0.0554(3)
O5 O 0.3194(4) -0.0735(3) -0.1073(3)
N1 N 0.1646(4) 0.2941(3) 0.2755(3)
N2 N 0.3894(10) -0.2299(6) 0.5209(5)
C1 C 0.1624(5) 0.4190(4) 0.3182(4)
C2 C 0.1261(6) 0.5359(5) 0.2616(5)
C3 C 0.0908(6) 0.5256(5) 0.1583(5)
C4 C 0.0945(5) 0.3976(4) 0.1111(4)
C5 C 0.1340(5) 0.2840(4) 0.1723(3)
C6 C 0.1444(5) 0.1402(4) 0.1315(3)
C7 C 0.0646(6) 0.0406(4) 0.2306(4)
C8 C 0.1534(6) -0.0374(4) 0.3002(3)
C9 C 0.0756(7) -0.1147(4) 0.3997(4)
H1 H -0.02920 -0.12410 0.41800
C10 C 0.1527(9) -0.1784(5) 0.4723(4)
H2 H 0.10090 -0.23080 0.53920
C11 C 0.3058(9) -0.1627(5) 0.4435(5)
C12 C 0.3862(7) -0.0878(5) 0.3458(5)
H3 H 0.49090 -0.07890 0.32840
C13 C 0.3088(6) -0.0251(4) 0.2731(4)
H4 H 0.36190 0.02560 0.20560
C14 C 0.2144(5) 0.1044(4) 0.0206(3)
C15 C 0.2947(5) 0.2062(4) -0.0734(3)
C16 C 0.2432(6) 0.2354(5) -0.1711(4)
C17 C 0.3078(7) 0.3416(6) -0.2512(5)
C18 C 0.4221(8) 0.4186(6) -0.2355(5)
C19 C 0.4758(7) 0.3869(5) -0.1416(5)
H5 H 0.55570 0.43700 -0.13180
C20 C 0.4133(6) 0.2826(5) -0.0622(5)
C21 C 0.2029(6) 0.4233(5) 0.4334(4)
H6 H 0.27780 0.35310 0.43520
H7 H 0.11330 0.40720 0.49880
H8 H 0.24300 0.51230 0.43890
C22 C 0.2154(6) -0.0452(4) -0.0063(4)
C23 C 0.3223(6) -0.2126(5) -0.1458(4)
H9 H 0.40630 -0.22350 -0.21570
H10 H 0.22900 -0.23000 -0.16290
H11 H 0.33340 -0.27670 -0.08460
H12 H 0.131(4) 0.619(4) 0.289(3)
H13 H 0.160(5) 0.181(4) -0.180(3)
H14 H 0.070(4) 0.388(4) 0.039(3)
H15 H 0.443(5) 0.266(4) 0.001(4)
H16 H 0.270(5) 0.357(5) -0.317(4)
H17 H 0.454(6) 0.497(5) -0.285(4)
H18 H 0.069(5) 0.594(4) 0.111(4)
#END
