
#######################################################################
#
#                 Cambridge Crystallographic Data Centre
#                                CCDC
#
#######################################################################
#
# If this CIF has been generated from an entry in the Cambridge
# Structural Database, then it will include bibliographic, chemical,
# crystal, experimental, refinement or atomic coordinate data resulting
# from the CCDC's data processing and validation procedures.
#
#######################################################################

data_CSD_CIF_AYOYAP
_audit_creation_date 2011-10-18
_audit_creation_method CSD-ConQuest-V1
_database_code_CSD AYOYAP
_database_code_depnum_ccdc_archive 'CCDC 845337'
_chemical_formula_sum 'C8 H8 N2 O4'
_chemical_formula_moiety
;
C8 H8 N2 O4
;
_journal_coeditor_code "IUCr ZL2394"
_journal_coden_Cambridge 1370
_journal_volume 67
_journal_year 2011
_journal_page_first o2276
_journal_name_full 'Acta Crystallogr.,Sect.E:Struct.Rep.Online '
loop_
_publ_author_name
"D.H.Johnston"
"H.M.Crather"
_chemical_name_systematic
;
2,5-Dimethyl-1,3-dinitrobenzene
;
_chemical_melting_point 398.4
_cell_volume    868.327
_exptl_crystal_colour 'colorless'
_exptl_crystal_density_diffrn 1.501
_exptl_crystal_description 'block'
_diffrn_ambient_temperature 200
#These two values have been output from a single CSD field.
_refine_ls_R_factor_gt 0.0385
_refine_ls_wR_factor_gt 0.0385
_symmetry_cell_setting monoclinic
_symmetry_space_group_name_H-M 'P 21/c'
_symmetry_Int_Tables_number 14
loop_
_symmetry_equiv_pos_site_id
_symmetry_equiv_pos_as_xyz
1 x,y,z
2 -x,1/2+y,1/2-z
3 -x,-y,-z
4 x,-1/2-y,-1/2+z
_cell_length_a 12.582(3)
_cell_length_b 9.3868(17)
_cell_length_c 7.3565(14)
_cell_angle_alpha 90
_cell_angle_beta 91.963(6)
_cell_angle_gamma 90
_cell_formula_units_Z 4
loop_
_atom_type_symbol
_atom_type_radius_bond
C 0.68
H 0.23
N 0.68
O 0.68
loop_
_atom_site_label
_atom_site_type_symbol
_atom_site_fract_x
_atom_site_fract_y
_atom_site_fract_z
C1 C 0.26217(13) 0.14793(18) 0.1233(2)
C2 C 0.16617(13) 0.22131(17) 0.1367(2)
C3 C 0.15567(13) 0.36737(19) 0.1375(2)
H1 H 0.08730 0.40900 0.14720
C4 C 0.24416(13) 0.45384(18) 0.1243(2)
C5 C 0.34132(13) 0.38694(17) 0.1104(2)
H2 H 0.40380 0.44260 0.09950
C6 C 0.34884(11) 0.2402(2) 0.1123(2)
C7 C 0.26878(16) -0.01147(18) 0.1075(2)
H3 H 0.28460 -0.05270 0.22780
H4 H 0.32530 -0.03690 0.02510
H5 H 0.20070 -0.04880 0.05940
C8 C 0.23407(16) 0.61384(19) 0.1237(3)
H6 H 0.19990 0.64490 0.00870
H7 H 0.30490 0.65680 0.13690
H8 H 0.19080 0.64390 0.22520
N1 N 0.06685(12) 0.14007(19) 0.1519(2)
N2 N 0.45679(12) 0.18168(17) 0.1043(2)
O1 O 0.06653(12) 0.03920(18) 0.25790(19)
O2 O -0.00966(11) 0.17884(17) 0.0609(2)
O3 O 0.47671(12) 0.07044(16) 0.18286(19)
O4 O 0.52229(10) 0.2493(2) 0.0219(3)
H9? H 0.26390 0.65210 0.23850
H10? H 0.15890 0.64030 0.11030
H11? H 0.27300 0.65320 0.02200
#END
