
#######################################################################
#
#                 Cambridge Crystallographic Data Centre
#                                CCDC
#
#######################################################################
#
# If this CIF has been generated from an entry in the Cambridge
# Structural Database, then it will include bibliographic, chemical,
# crystal, experimental, refinement or atomic coordinate data resulting
# from the CCDC's data processing and validation procedures.
#
#######################################################################

data_CSD_CIF_AYUDUU
_audit_creation_date 2011-10-27
_audit_creation_method CSD-ConQuest-V1
_database_code_CSD AYUDUU
_database_code_depnum_ccdc_archive 'CCDC 845361'
_chemical_formula_sum 'C13 H12 N2 O3'
_chemical_formula_moiety
;
C13 H12 N2 O3
;
_journal_coeditor_code "IUCr HB6330"
_journal_coden_Cambridge 1370
_journal_volume 67
_journal_year 2011
_journal_page_first o2305
_journal_name_full 'Acta Crystallogr.,Sect.E:Struct.Rep.Online '
loop_
_publ_author_name
"A.M.Asiri"
"S.A.Khan"
"M.N.Tahir"
_chemical_name_systematic
;
N-((E)-1,3-Benzodioxol-5-ylmethylidene)-3,4-dimethyl-1,2-oxazol-5-amine
;
_chemical_melting_point 504
_cell_volume   1157.185
_exptl_crystal_colour 'yellow'
_exptl_crystal_density_diffrn 1.402
_exptl_special_details
;
Melting point range 504-505K

;
_exptl_crystal_description 'prism'
_exptl_crystal_preparation 'chloroform/methanol'
_diffrn_ambient_temperature 296
#These two values have been output from a single CSD field.
_refine_ls_R_factor_gt 0.0448
_refine_ls_wR_factor_gt 0.0448
_symmetry_cell_setting monoclinic
_symmetry_space_group_name_H-M 'P 21/n'
_symmetry_Int_Tables_number 14
loop_
_symmetry_equiv_pos_site_id
_symmetry_equiv_pos_as_xyz
1 x,y,z
2 1/2-x,1/2+y,1/2-z
3 -x,-y,-z
4 -1/2+x,-1/2-y,-1/2+z
_cell_length_a 7.5759(5)
_cell_length_b 10.6980(9)
_cell_length_c 14.6307(12)
_cell_angle_alpha 90
_cell_angle_beta 102.607(2)
_cell_angle_gamma 90
_cell_formula_units_Z 4
loop_
_atom_type_symbol
_atom_type_radius_bond
C 0.68
H 0.23
N 0.68
O 0.68
loop_
_atom_site_label
_atom_site_type_symbol
_atom_site_fract_x
_atom_site_fract_y
_atom_site_fract_z
O1 O 0.6073(2) 0.09898(13) 0.08565(10)
O2 O 0.6345(2) 0.27941(14) 0.00426(10)
O3 O 0.6207(2) 0.38037(12) 0.55753(10)
N1 N 0.6338(2) 0.23824(15) 0.43533(11)
N2 N 0.6192(3) 0.37712(18) 0.65383(13)
C1 C 0.6183(2) 0.31798(17) 0.28025(13)
C2 C 0.6088(3) 0.20099(17) 0.23618(13)
C3 C 0.6150(3) 0.19982(17) 0.14411(14)
C4 C 0.6313(3) 0.30805(19) 0.09481(13)
C5 C 0.6386(3) 0.42247(19) 0.13520(15)
C6 C 0.6302(3) 0.42546(18) 0.22912(14)
C7 C 0.6271(3) 0.1475(2) -0.00210(15)
C8 C 0.6190(2) 0.33074(18) 0.37881(13)
C9 C 0.6331(3) 0.26031(18) 0.52782(13)
C10 C 0.6405(2) 0.18039(18) 0.60027(13)
C11 C 0.6292(3) 0.2593(2) 0.67649(14)
C12 C 0.6270(3) 0.2203(2) 0.77363(15)
C13 C 0.6585(3) 0.0425(2) 0.60257(15)
H1 H 0.59873 0.12747 0.26857
H2 H 0.64865 0.49515 0.10183
H3 H 0.63264 0.50254 0.25877
H4 H 0.73721 0.11561 -0.01717
H5 H 0.52555 0.12203 -0.05118
H6 H 0.60811 0.41048 0.40229
H7 H 0.51285 0.18213 0.77471
H8 H 0.64420 0.29227 0.81383
H9 H 0.72268 0.16145 0.79518
H10 H 0.69485 0.01447 0.54709
H11 H 0.54443 0.00536 0.60531
H12 H 0.74801 0.01816 0.65679
#END
