
#######################################################################
#
#                 Cambridge Crystallographic Data Centre
#                                CCDC
#
#######################################################################
#
# If this CIF has been generated from an entry in the Cambridge
# Structural Database, then it will include bibliographic, chemical,
# crystal, experimental, refinement or atomic coordinate data resulting
# from the CCDC's data processing and validation procedures.
#
#######################################################################

data_CSD_CIF_AYUGUX01
_audit_creation_date 2016-05-20
_audit_creation_method CSD-ConQuest-V1
_database_code_CSD AYUGUX01
_database_code_depnum_ccdc_archive 'CCDC 1060167'
_chemical_formula_sum 'C14 H12 N2 O3'
_chemical_formula_moiety
;
C14 H12 N2 O3
;
_journal_coden_Cambridge 885
_journal_volume 61
_journal_year 2016
_journal_page_first 239
_journal_name_full 'Crystallogr.Rep. '
loop_
_publ_author_name
"N.K.Kaynar"
"H.Tanak"
"Songul Sahin"
"N.Dege"
"E.Agar"
"M.Yavuz"
_chemical_name_systematic
;
2-(((4-Methylphenyl)imino)methyl)-4-nitrophenol
;
_cell_volume   1240.853
_exptl_crystal_density_diffrn 1.372
_diffrn_ambient_temperature 293
#These two values have been output from a single CSD field.
_refine_ls_R_factor_gt 0.0407
_refine_ls_wR_factor_gt 0.0407
_symmetry_cell_setting monoclinic
_symmetry_space_group_name_H-M 'P 21/c'
_symmetry_Int_Tables_number 14
loop_
_symmetry_equiv_pos_site_id
_symmetry_equiv_pos_as_xyz
1 x,y,z
2 -x,1/2+y,1/2-z
3 -x,-y,-z
4 x,-1/2-y,-1/2+z
_cell_length_a 14.0721(6)
_cell_length_b 14.2048(5)
_cell_length_c 6.2356(2)
_cell_angle_alpha 90
_cell_angle_beta 95.428(3)
_cell_angle_gamma 90
_cell_formula_units_Z 4
loop_
_atom_type_symbol
_atom_type_radius_bond
C 0.68
H 0.23
N 0.68
O 0.68
loop_
_atom_site_label
_atom_site_type_symbol
_atom_site_fract_x
_atom_site_fract_y
_atom_site_fract_z
H1 H 0.750(2) 0.851(2) -0.053(5)
C1 C 0.61699(10) 0.88560(9) 0.1279(2)
N1 N 0.78614(8) 0.87950(8) 0.1649(2)
C2 C 0.87636(10) 0.87797(10) 0.2880(2)
C3 C 0.53368(9) 0.90615(9) 0.2228(2)
H2 H 0.53720 0.92920 0.36300
C4 C 0.44653(10) 0.89238(10) 0.1094(2)
C5 C 0.88792(10) 0.84361(11) 0.4965(2)
H3 H 0.83510 0.82450 0.56430
O1 O 0.68755(8) 0.83369(9) -0.18548(19)
C6 C 0.51948(11) 0.83777(10) -0.1970(2)
H4 H 0.51440 0.81430 -0.33680
C7 C 0.97804(11) 0.83782(11) 0.6034(3)
H5 H 0.98530 0.81400 0.74290
C8 C 0.70828(10) 0.8951(1) 0.2512(2)
H6 H 0.71090 0.91280 0.39530
C9 C 0.95575(11) 0.90673(11) 0.1894(3)
H7 H 0.94860 0.92950 0.04900
N2 N 0.36069(9) 0.91451(10) 0.2115(2)
C10 C 1.05805(11) 0.86659(11) 0.5079(3)
C11 C 0.43850(11) 0.85782(10) -0.1015(2)
H8 H 0.37870 0.84860 -0.17580
C12 C 0.61025(10) 0.85188(10) -0.0879(2)
C13 C 1.04529(11) 0.90150(12) 0.2999(3)
H9 H 1.09810 0.92180 0.23340
O2 O 0.28388(8) 0.90440(14) 0.1085(2)
O3 O 0.36856(8) 0.94402(11) 0.3964(2)
C14 C 1.15608(12) 0.85736(16) 0.6262(4)
H10 H 1.20290 0.88050 0.53690
H11 H 1.16880 0.79240 0.65990
H12 H 1.15900 0.89330 0.75700
#END
