
#######################################################################
#
#                 Cambridge Crystallographic Data Centre
#                                CCDC
#
#######################################################################
#
# If this CIF has been generated from an entry in the Cambridge
# Structural Database, then it will include bibliographic, chemical,
# crystal, experimental, refinement or atomic coordinate data resulting
# from the CCDC's data processing and validation procedures.
#
#######################################################################

data_CSD_CIF_AYUGIL
_audit_creation_date 2011-10-27
_audit_creation_method CSD-ConQuest-V1
_database_code_CSD AYUGIL
_database_code_depnum_ccdc_archive 'CCDC 845369'
_chemical_formula_sum 'C18 H22 N4 O6'
_chemical_formula_moiety
;
C18 H22 N4 O6
;
_journal_coeditor_code "IUCr HG5078"
_journal_coden_Cambridge 1370
_journal_volume 67
_journal_year 2011
_journal_page_first o2316
_journal_name_full 'Acta Crystallogr.,Sect.E:Struct.Rep.Online '
loop_
_publ_author_name
"A.M.Asiri"
"A.O.Al-Youbi"
"H.M.Faidallah"
"S.W.Ng"
"E.R.T.Tiekink"
_chemical_name_systematic
;
Ethyl 
5-((1E)-1-((E)-2-(1-(4-ethoxycarbonyl-3-methyl-1,2-oxazol-5-yl)ethylidene)hydr
azin-1-ylidene)ethyl)-3-methyl-1,2-oxazole-4-carboxylate
;
_chemical_name_common
;
Diethyl 
(E,E)-5,5'-(hydrazine-1,2-diylidenedieth-1-yl-1-ylidene)bis(3-methyl-1,2-oxazo
le-4-carboxylate)
;
_chemical_melting_point 448
_cell_volume    938.831
_exptl_crystal_colour 'colorless'
_exptl_crystal_density_diffrn 1.381
_exptl_crystal_description 'plate'
_exptl_crystal_preparation 'ethanol'
_diffrn_ambient_temperature 100
#These two values have been output from a single CSD field.
_refine_ls_R_factor_gt 0.0488
_refine_ls_wR_factor_gt 0.0488
_symmetry_cell_setting monoclinic
_symmetry_space_group_name_H-M 'P 2/n'
_symmetry_Int_Tables_number 13
loop_
_symmetry_equiv_pos_site_id
_symmetry_equiv_pos_as_xyz
1 x,y,z
2 1/2-x,y,1/2-z
3 -x,-y,-z
4 -1/2+x,-y,-1/2+z
_cell_length_a 9.4509(5)
_cell_length_b 8.5456(4)
_cell_length_c 11.9859(5)
_cell_angle_alpha 90
_cell_angle_beta 104.107(5)
_cell_angle_gamma 90
_cell_formula_units_Z 2
loop_
_atom_type_symbol
_atom_type_radius_bond
C 0.68
H 0.23
N 0.68
O 0.68
loop_
_atom_site_label
_atom_site_type_symbol
_atom_site_fract_x
_atom_site_fract_y
_atom_site_fract_z
O1 O 0.54005(15) 0.52943(17) 0.63908(12)
O2 O 0.67094(17) 0.02949(18) 0.57529(14)
O3 O 0.51960(17) 0.05289(17) 0.69403(12)
N1 N 0.67630(19) 0.5276(2) 0.60982(14)
N2 N 0.32058(18) 0.45172(19) 0.74369(14)
C1 C 0.4715(3) -0.1526(3) 0.8137(2)
H1 H 0.46620 -0.26620 0.82310
H2 H 0.37560 -0.10620 0.81010
H3 H 0.54340 -0.10850 0.87920
C2 C 0.5158(3) -0.1174(3) 0.7054(2)
H4 H 0.61330 -0.16230 0.70860
H5 H 0.44500 -0.16320 0.63870
C3 C 0.5997(2) 0.1086(3) 0.62488(16)
C4 C 0.8420(2) 0.3360(3) 0.56290(18)
H6 H 0.89560 0.43090 0.55260
H7 H 0.81610 0.27770 0.49040
H8 H 0.90330 0.27050 0.62270
C5 C 0.7064(2) 0.3801(2) 0.59804(16)
C6 C 0.5953(2) 0.2805(2) 0.62067(15)
C7 C 0.4951(2) 0.3805(2) 0.64479(16)
C8 C 0.3485(2) 0.3616(2) 0.66646(16)
C9 C 0.2435(2) 0.2483(3) 0.59511(18)
H9 H 0.15560 0.30420 0.55420
H10 H 0.21700 0.16850 0.64510
H11 H 0.28920 0.19800 0.53930
O1A O -0.04005(15) 0.52943(17) 0.86092(12)
O2A O -0.17094(17) 0.02949(18) 0.92471(14)
O3A O -0.01960(17) 0.05289(17) 0.80597(12)
N1A N -0.17630(19) 0.5276(2) 0.89018(14)
N2A N 0.17942(18) 0.45172(19) 0.75631(14)
C1A C 0.0285(3) -0.1526(3) 0.6863(2)
H1A H 0.03380 -0.26620 0.67690
H2A H 0.12440 -0.10620 0.68990
H3A H -0.04340 -0.10850 0.62080
C2A C -0.0158(3) -0.1174(3) 0.7946(2)
H4A H -0.11330 -0.16230 0.79140
H5A H 0.05500 -0.16320 0.86130
C3A C -0.0997(2) 0.1086(3) 0.87512(16)
C4A C -0.3420(2) 0.3360(3) 0.93710(18)
H6A H -0.39560 0.43090 0.94740
H7A H -0.31610 0.27770 1.00960
H8A H -0.40330 0.27050 0.87730
C5A C -0.2064(2) 0.3801(2) 0.90196(16)
C6A C -0.0953(2) 0.2805(2) 0.87933(15)
C7A C 0.0049(2) 0.3805(2) 0.85521(16)
C8A C 0.1515(2) 0.3616(2) 0.83354(16)
C9A C 0.2565(2) 0.2483(3) 0.90489(18)
H9A H 0.34440 0.30420 0.94580
H10A H 0.28300 0.16850 0.85490
H11A H 0.21080 0.19800 0.96070
#END
