
#######################################################################
#
#                 Cambridge Crystallographic Data Centre
#                                CCDC
#
#######################################################################
#
# If this CIF has been generated from an entry in the Cambridge
# Structural Database, then it will include bibliographic, chemical,
# crystal, experimental, refinement or atomic coordinate data resulting
# from the CCDC's data processing and validation procedures.
#
#######################################################################

data_CSD_CIF_AYUKEL
_audit_creation_date 2011-10-27
_audit_creation_method CSD-ConQuest-V1
_database_code_CSD AYUKEL
_database_code_depnum_ccdc_archive 'CCDC 845383'
_chemical_formula_sum 'C10 H13 N1 O1'
_chemical_formula_moiety
;
C10 H13 N1 O1
;
_journal_coeditor_code "IUCr TK2777"
_journal_coden_Cambridge 1370
_journal_volume 67
_journal_year 2011
_journal_page_first o2332
_journal_name_full 'Acta Crystallogr.,Sect.E:Struct.Rep.Online '
loop_
_publ_author_name
"H.-K.Fun"
"W.-S.Loh"
"R.Kayarmar"
"Dinesha"
"G.K.Nagaraja"
_chemical_name_systematic
;
(E)-N-Hydroxy-4-phenylbutan-2-imine
;
_chemical_name_common
;
(E)-4-Phenylbutan-2-one oxime
;
_cell_volume    973.177
_exptl_crystal_colour 'colorless'
_exptl_crystal_density_diffrn 1.114
_exptl_crystal_description 'needle'
_exptl_crystal_preparation 'acetone'
_diffrn_ambient_temperature 297
#These two values have been output from a single CSD field.
_refine_ls_R_factor_gt 0.0528
_refine_ls_wR_factor_gt 0.0528
_symmetry_cell_setting monoclinic
_symmetry_space_group_name_H-M 'P 21/c'
_symmetry_Int_Tables_number 14
loop_
_symmetry_equiv_pos_site_id
_symmetry_equiv_pos_as_xyz
1 x,y,z
2 -x,1/2+y,1/2-z
3 -x,-y,-z
4 x,-1/2-y,-1/2+z
_cell_length_a 5.450(3)
_cell_length_b 9.698(6)
_cell_length_c 18.455(12)
_cell_angle_alpha 90
_cell_angle_beta 93.888(13)
_cell_angle_gamma 90
_cell_formula_units_Z 4
loop_
_atom_type_symbol
_atom_type_radius_bond
C 0.68
H 0.23
N 0.68
O 0.68
loop_
_atom_site_label
_atom_site_type_symbol
_atom_site_fract_x
_atom_site_fract_y
_atom_site_fract_z
O1 O 0.0482(2) 0.64909(13) 0.46391(6)
H1 H -0.03820 0.57640 0.45640
N1 N 0.1886(2) 0.60421(14) 0.52725(7)
C1 C 0.8076(3) 0.3977(2) 0.72018(9)
H2 H 0.81500 0.34230 0.67930
C2 C 0.9742(4) 0.3766(3) 0.77902(11)
H3 H 1.08960 0.30620 0.77750
C3 C 0.9709(4) 0.4577(3) 0.83903(11)
H4 H 1.08440 0.44330 0.87830
C4 C 0.8004(4) 0.5602(3) 0.84143(10)
H5 H 0.79890 0.61690 0.88210
C5 C 0.6284(4) 0.5800(2) 0.78301(10)
H6 H 0.51000 0.64860 0.78560
C6 C 0.6307(3) 0.49911(17) 0.72088(8)
C7 C 0.4539(3) 0.52421(19) 0.65522(9)
H7 H 0.28880 0.53510 0.67100
H8 H 0.45420 0.44470 0.62330
C8 C 0.5231(3) 0.65179(17) 0.61365(9)
H9 H 0.52230 0.73000 0.64640
H10 H 0.69040 0.64040 0.59970
C9 C 0.3630(3) 0.68632(15) 0.54665(8)
C10 C 0.4212(4) 0.8158(2) 0.50706(11)
H11 H 0.40400 0.79930 0.45570
H12 H 0.58700 0.84350 0.52070
H13 H 0.30980 0.88740 0.51940
#END
