
#######################################################################
#
#                 Cambridge Crystallographic Data Centre
#                                CCDC
#
#######################################################################
#
# If this CIF has been generated from an entry in the Cambridge
# Structural Database, then it will include bibliographic, chemical,
# crystal, experimental, refinement or atomic coordinate data resulting
# from the CCDC's data processing and validation procedures.
#
#######################################################################

data_CSD_CIF_AYUPUF
_audit_creation_date 2004-10-19
_audit_creation_method CSD-ConQuest-V1
_database_code_CSD AYUPUF
_database_code_depnum_ccdc_archive 'CCDC 192377'
_chemical_formula_sum 'C11 H10 N4 O3'
_chemical_formula_moiety
;
C11 H10 N4 O3
;
_journal_coden_Cambridge 1003
_journal_volume 34
_journal_year 2004
_journal_page_first 317
_journal_name_full 'J.Chem.Cryst. '
loop_
_publ_author_name
"C.Zalaru"
"M.R.Caira"
"M.Iovu"
"E.Cristea"
_chemical_name_systematic
;
2-(Pyrazol-1-yl)-2'-nitroacetanilide
;
_chemical_melting_point 366
_cell_volume   1643.494
_exptl_crystal_colour 'orange-yellow'
_exptl_crystal_density_diffrn 1.493
_exptl_special_details
;
Melting point range 366-367K
anaesthetic and antiarrhythmic activity

;
_exptl_crystal_description 'prism'
_exptl_crystal_preparation 'diethyl ether'
_diffrn_ambient_temperature 173
#These two values have been output from a single CSD field.
_refine_ls_R_factor_gt 0.0657
_refine_ls_wR_factor_gt 0.0657
_symmetry_cell_setting monoclinic
_symmetry_space_group_name_H-M 'P n'
_symmetry_Int_Tables_number 7
loop_
_symmetry_equiv_pos_site_id
_symmetry_equiv_pos_as_xyz
1 x,y,z
2 1/2+x,-y,1/2+z
_cell_length_a 4.6944(1)
_cell_length_b 22.3890(3)
_cell_length_c 15.7481(2)
_cell_angle_alpha 90
_cell_angle_beta 96.810(1)
_cell_angle_gamma 90
_cell_formula_units_Z 6
loop_
_atom_type_symbol
_atom_type_radius_bond
C 0.68
H 0.23
N 0.68
O 0.68
loop_
_atom_site_label
_atom_site_type_symbol
_atom_site_fract_x
_atom_site_fract_y
_atom_site_fract_z
C1 C 0.1826(10) 0.38107(19) 0.4759(3)
C2 C 0.0450(9) 0.43340(19) 0.4436(3)
C3 C -0.1834(10) 0.4320(2) 0.3803(3)
H1 H -0.27280 0.46830 0.36040
C4 C -0.2846(11) 0.3781(2) 0.3449(3)
H2 H -0.44220 0.37700 0.30110
C5 C -0.1490(11) 0.3258(2) 0.3753(3)
H3 H -0.21520 0.28860 0.35160
C6 C 0.0784(11) 0.3266(2) 0.4389(3)
H4 H 0.16680 0.29010 0.45820
N1 N 0.1393(9) 0.49279(17) 0.4741(2)
O1 O 0.3736(8) 0.49877(15) 0.5158(2)
O2 O -0.0253(8) 0.53536(15) 0.4565(3)
N2 N 0.4096(8) 0.38240(16) 0.5427(2)
H5 H 0.50750 0.41590 0.54960
C7 C 0.4924(10) 0.33760(19) 0.5973(3)
O3 O 0.4017(10) 0.28668(16) 0.5930(3)
C8 C 0.7236(10) 0.3539(2) 0.6710(3)
H6 H 0.67180 0.33530 0.72400
H7 H 0.90790 0.33620 0.65900
N3 N 0.7667(8) 0.41670(17) 0.6862(2)
N4 N 0.9547(8) 0.44782(19) 0.6439(3)
C9 C 0.9355(11) 0.5030(2) 0.6719(3)
H8 H 1.04200 0.53550 0.65330
C10 C 0.7387(11) 0.5082(2) 0.7328(3)
H9 H 0.69020 0.54300 0.76240
C11 C 0.6357(11) 0.4525(2) 0.7394(3)
H10 H 0.49620 0.44040 0.77490
C12 C 0.5873(9) 0.12287(19) 0.4352(3)
C13 C 0.7174(10) 0.06976(19) 0.4674(3)
C14 C 0.9482(10) 0.0704(2) 0.5325(3)
H11 H 1.03710 0.03400 0.55230
C15 C 1.0461(12) 0.1245(2) 0.5677(3)
H12 H 1.20160 0.12560 0.61220
C16 C 0.9160(11) 0.1765(2) 0.5376(3)
H13 H 0.98200 0.21350 0.56210
C17 C 0.6893(11) 0.1762(2) 0.4720(3)
H14 H 0.60380 0.21280 0.45220
N5 N 0.6247(9) 0.01024(17) 0.4372(2)
O4 O 0.3885(8) 0.00521(14) 0.3927(2)
O5 O 0.7761(9) -0.03215(15) 0.4579(3)
N6 N 0.3600(8) 0.12237(16) 0.3684(2)
H15 H 0.25370 0.08990 0.36330
C18 C 0.2872(10) 0.1664(2) 0.3113(3)
O6 O 0.3881(10) 0.21583(16) 0.3141(3)
C19 C 0.0561(11) 0.1512(2) 0.2392(3)
H16 H -0.12610 0.16940 0.25210
H17 H 0.10710 0.17000 0.18610
N7 N 0.0058(8) 0.08777(18) 0.2226(2)
N8 N -0.1646(9) 0.05649(19) 0.2694(3)
C20 C -0.1576(12) 0.0014(2) 0.2406(3)
H18 H -0.26270 -0.03090 0.26060
C21 C 0.0239(11) -0.0033(2) 0.1772(3)
H19 H 0.06790 -0.03840 0.14730
C22 C 0.1248(11) 0.0529(2) 0.1671(3)
H20 H 0.25420 0.06500 0.12850
C23 C 0.3481(9) 0.22157(19) 0.8701(3)
C24 C 0.4847(10) 0.1753(2) 0.9222(3)
C25 C 0.6707(10) 0.1355(2) 0.8902(3)
H21 H 0.76090 0.10520 0.92610
C26 C 0.7243(13) 0.1397(2) 0.8076(4)
H22 H 0.85130 0.11210 0.78580
C27 C 0.5941(12) 0.1843(2) 0.7545(3)
H23 H 0.63530 0.18720 0.69700
C28 C 0.4063(11) 0.2241(2) 0.7847(3)
H24 H 0.31530 0.25360 0.74750
N9 N 0.4367(9) 0.16763(18) 1.0106(3)
O7 O 0.2198(9) 0.19038(17) 1.0364(2)
O8 O 0.6043(9) 0.13972(18) 1.0594(3)
N10 N 0.1636(8) 0.26281(16) 0.9021(2)
H25 H 0.05690 0.25000 0.94070
C29 C 0.1368(9) 0.32067(19) 0.8785(3)
O9 O 0.2484(8) 0.34424(16) 0.8207(2)
C30 C -0.0552(11) 0.3590(2) 0.9285(3)
H26 H 0.01930 0.40040 0.93060
H27 H -0.25010 0.35990 0.89670
N11 N -0.0782(9) 0.33950(17) 1.0155(3)
N12 N -0.2735(11) 0.2990(2) 1.0298(3)
C31 C -0.2262(14) 0.2897(3) 1.1140(3)
H28 H -0.33580 0.26300 1.14400
C32 C 0.0003(16) 0.3233(3) 1.1527(4)
H29 H 0.07760 0.32360 1.21130
C33 C 0.0850(14) 0.3552(3) 1.0885(4)
H30 H 0.23470 0.38400 1.09330
#END
