
#######################################################################
#
#                 Cambridge Crystallographic Data Centre
#                                CCDC
#
#######################################################################
#
# If this CIF has been generated from an entry in the Cambridge
# Structural Database, then it will include bibliographic, chemical,
# crystal, experimental, refinement or atomic coordinate data resulting
# from the CCDC's data processing and validation procedures.
#
#######################################################################

data_CSD_CIF_AYUQAM
_audit_creation_date 2004-10-19
_audit_creation_method CSD-ConQuest-V1
_database_code_CSD AYUQAM
_database_code_depnum_ccdc_archive 'CCDC 192378'
_chemical_formula_sum 'C13 H14 N4 O3'
_chemical_formula_moiety
;
C13 H14 N4 O3
;
_journal_coden_Cambridge 1003
_journal_volume 34
_journal_year 2004
_journal_page_first 317
_journal_name_full 'J.Chem.Cryst. '
loop_
_publ_author_name
"C.Zalaru"
"M.R.Caira"
"M.Iovu"
"E.Cristea"
_chemical_name_systematic
;
2-(3,5-Dimethylpyrazol-1-yl)-2'-nitroacetanilide
;
_chemical_melting_point 403
_cell_volume    660.529
_exptl_crystal_colour 'yellow'
_exptl_crystal_density_diffrn 1.379
_exptl_special_details
;
Melting point range 403-404K
anaesthetic and antiarrhythmic activity

;
_exptl_crystal_description 'prism'
_exptl_crystal_preparation 'pyridine/methyl ethyl ketone'
_diffrn_ambient_temperature 173
#These two values have been output from a single CSD field.
_refine_ls_R_factor_gt 0.0458
_refine_ls_wR_factor_gt 0.0458
_symmetry_cell_setting triclinic
_symmetry_space_group_name_H-M 'P -1'
_symmetry_Int_Tables_number 2
loop_
_symmetry_equiv_pos_site_id
_symmetry_equiv_pos_as_xyz
1 x,y,z
2 -x,-y,-z
_cell_length_a 4.7277(2)
_cell_length_b 11.6878(5)
_cell_length_c 12.0355(6)
_cell_angle_alpha 87.689(2)
_cell_angle_beta 85.048(2)
_cell_angle_gamma 85.975(2)
_cell_formula_units_Z 2
loop_
_atom_type_symbol
_atom_type_radius_bond
C 0.68
H 0.23
N 0.68
O 0.68
loop_
_atom_site_label
_atom_site_type_symbol
_atom_site_fract_x
_atom_site_fract_y
_atom_site_fract_z
O1 O 0.6912(2) 0.59538(9) 0.33399(10)
N1 N 0.6609(3) 0.32128(11) 0.42673(11)
N2 N 0.2490(2) 0.66327(10) 0.29035(10)
N3 N 0.5186(3) 0.37493(10) 0.34322(10)
C1 C 0.3156(3) 0.77483(12) 0.25398(12)
C2 C 0.2108(3) 0.83035(13) 0.15946(13)
C3 C 0.4382(3) 0.58253(12) 0.32968(12)
N4 N 0.0275(3) 0.77511(12) 0.08817(11)
C4 C 0.8441(3) 0.24517(13) 0.37494(14)
O2 O -0.0436(4) 0.67952(14) 0.11150(12)
C5 C 0.3130(3) 0.46978(12) 0.36793(13)
H1 H 0.25870 0.47030 0.44920
H2 H 0.13950 0.46070 0.32940
O3 O -0.0503(4) 0.82803(13) 0.00639(13)
C6 C 0.4897(3) 0.83521(14) 0.31510(14)
H3 H 0.56350 0.80010 0.38010
C7 C 1.0405(4) 0.16795(14) 0.44075(16)
H4 H 1.01610 0.18840 0.51930
H5 H 1.23790 0.17710 0.41150
H6 H 0.99560 0.08800 0.43440
C8 C 0.6125(3) 0.33573(14) 0.24119(14)
C9 C 0.5564(4) 0.94541(15) 0.28236(16)
H7 H 0.67620 0.98490 0.32490
C10 C 0.4513(4) 0.99878(15) 0.18884(17)
H8 H 0.49880 1.07450 0.16700
C11 C 0.2772(4) 0.94168(15) 0.12725(15)
H9 H 0.20270 0.97810 0.06300
C12 C 0.8222(3) 0.25090(14) 0.25992(14)
H10 H 0.93000 0.20550 0.20550
C13 C 0.4972(4) 0.38474(18) 0.13661(15)
H11 H 0.28940 0.39510 0.14790
H12 H 0.55090 0.33220 0.07570
H13 H 0.57570 0.45910 0.11750
H14 H 0.0552(19) 0.6389(16) 0.2826(16)
#END
