
#######################################################################
#
#                 Cambridge Crystallographic Data Centre
#                                CCDC
#
#######################################################################
#
# If this CIF has been generated from an entry in the Cambridge
# Structural Database, then it will include bibliographic, chemical,
# crystal, experimental, refinement or atomic coordinate data resulting
# from the CCDC's data processing and validation procedures.
#
#######################################################################

data_CSD_CIF_AZAFIQ
_audit_creation_date 2011-11-07
_audit_creation_method CSD-ConQuest-V1
_database_code_CSD AZAFIQ
_database_code_depnum_ccdc_archive 'CCDC 240701'
_chemical_formula_sum 'C22 H21 N3 O6'
_chemical_formula_moiety
;
C22 H21 N3 O6
;
_journal_coden_Cambridge 16
_journal_volume 67
_journal_year 2011
_journal_page_first 7162
_journal_name_full 'Tetrahedron '
loop_
_publ_author_name
"X.Garcia-Mera"
"J.E.Rodriguez-Borges"
"M.L.C.Vale"
"M.J.Alves"
_chemical_name_systematic
;
(2-(1-Phenylethyl)-2-azabicyclo[2.2.1]hept-5-en-3-yl)methyl 
3,5-dinitrobenzoate
;
_cell_volume   2083.470
_exptl_crystal_colour 'colorless'
_exptl_crystal_description 'prism'
_diffrn_ambient_temperature 293
#These two values have been output from a single CSD field.
_refine_ls_R_factor_gt 0.0652
_refine_ls_wR_factor_gt 0.0652
_symmetry_cell_setting orthorhombic
_symmetry_space_group_name_H-M 'P 21 21 21'
_symmetry_Int_Tables_number 19
loop_
_symmetry_equiv_pos_site_id
_symmetry_equiv_pos_as_xyz
1 x,y,z
2 1/2-x,-y,1/2+z
3 1/2+x,1/2-y,-z
4 -x,1/2+y,1/2-z
_cell_length_a 5.8224(8)
_cell_length_b 10.2137(11)
_cell_length_c 35.035(3)
_cell_angle_alpha 90
_cell_angle_beta 90
_cell_angle_gamma 90
_cell_formula_units_Z 4
loop_
_atom_type_symbol
_atom_type_radius_bond
C 0.68
H 0.23
N 0.68
O 0.68
loop_
_atom_site_label
_atom_site_type_symbol
_atom_site_fract_x
_atom_site_fract_y
_atom_site_fract_z
C1 C 0.8010(18) 0.9912(9) 0.4259(2)
N1 N 0.886(2) 0.9825(10) 0.3866(3)
O1 O 1.085(2) 0.9501(12) 0.3829(2)
O2 O 0.757(2) 1.0121(10) 0.3611(2)
C2 C 0.6042(18) 1.0607(9) 0.4329(2)
H1 H 0.52200 1.09980 0.41320
C3 C 0.5340(15) 1.0703(8) 0.4700(3)
N2 N 0.3233(13) 1.1492(7) 0.4781(2)
O3 O 0.2339(12) 1.2080(7) 0.4514(2)
O4 O 0.2536(11) 1.1523(6) 0.51080(19)
C4 C 0.6457(15) 1.0107(7) 0.5001(2)
H2 H 0.59030 1.01660 0.52490
C5 C 0.8428(16) 0.9423(8) 0.4916(2)
C6 C 0.9213(18) 0.9323(8) 0.4550(2)
H3 H 1.05530 0.88600 0.44980
C7 C 0.9838(16) 0.8813(9) 0.5226(3)
O5 O 1.1716(12) 0.8371(7) 0.51668(17)
O6 O 0.8851(12) 0.8844(6) 0.55606(15)
C8 C 1.0148(19) 0.8456(11) 0.5892(2)
H4 H 1.17520 0.83470 0.58240
H5 H 0.95780 0.76270 0.59880
C9 C 0.9915(16) 0.9492(8) 0.6194(2)
H6 H 0.82910 0.95880 0.62620
N3 N 1.1234(13) 0.9135(7) 0.65386(17)
C10 C 1.2706(19) 1.0316(10) 0.6612(3)
H7 H 1.39840 1.01790 0.67890
C11 C 1.111(2) 1.1470(11) 0.6708(3)
C12 C 1.004(3) 1.1757(12) 0.6390(4)
C13 C 1.0885(19) 1.0834(11) 0.6081(3)
H8 H 1.06250 1.11100 0.58170
C14 C 1.3396(19) 1.0653(13) 0.6203(3)
H9 H 1.41590 0.99390 0.60720
H10 H 1.42960 1.14500 0.61840
C15 C 0.9823(17) 0.8731(10) 0.6863(3)
C16 C 1.1275(18) 0.8511(10) 0.7218(2)
C17 C 1.101(2) 0.9259(11) 0.7531(2)
H11 H 0.99190 0.99240 0.75280
C18 C 1.229(2) 0.9072(11) 0.7855(3)
H12 H 1.20380 0.95910 0.80690
C19 C 1.393(2) 0.8129(14) 0.7863(3)
H13 H 1.48530 0.80200 0.80780
C20 C 1.423(2) 0.7330(13) 0.7547(3)
H14 H 1.53320 0.66730 0.75500
C21 C 1.2880(18) 0.7514(11) 0.7229(3)
H15 H 1.30500 0.69630 0.70200
C22 C 0.848(2) 0.7493(12) 0.6763(3)
H16 H 0.95300 0.68140 0.66890
H17 H 0.74510 0.76740 0.65560
H18 H 0.76140 0.72120 0.69810
H19 H 0.849(15) 0.927(8) 0.690(2)
H20 H 0.901(17) 1.228(10) 0.633(2)
H21 H 1.102(17) 1.174(9) 0.696(2)
#END
