
#######################################################################
#
#                 Cambridge Crystallographic Data Centre
#                                CCDC
#
#######################################################################
#
# If this CIF has been generated from an entry in the Cambridge
# Structural Database, then it will include bibliographic, chemical,
# crystal, experimental, refinement or atomic coordinate data resulting
# from the CCDC's data processing and validation procedures.
#
#######################################################################

data_CSD_CIF_AZAGAJ
_audit_creation_date 2004-10-19
_audit_creation_method CSD-ConQuest-V1
_database_code_CSD AZAGAJ
_database_code_depnum_ccdc_archive 'CCDC 240703'
_chemical_formula_sum 'C17 H14 N4 O4'
_chemical_formula_moiety
;
C17 H14 N4 O4
;
_journal_coden_Cambridge 1078
_journal_year 2004
_journal_name_full 'CSD Communication(Private Communication) '
loop_
_publ_author_name
"X.Garcia-Mera"
"F.Fernandez"
_chemical_name_systematic
;
9-(2,4-Dinitrophenylhydrazono)bicyclo(6.2.1)undeca-2,4,6-triene
;
_cell_volume    808.481
_exptl_crystal_colour 'orange'
_exptl_special_details
;
contribution from Dept. de Quimica Organica, Facultade de Farmacia, Campus 
Sur s/n, 15782 Santiago de Compostela, Galiza, Spain
;
_exptl_crystal_description 'prism'
_diffrn_ambient_temperature 293
#These two values have been output from a single CSD field.
_refine_ls_R_factor_gt 0.0776
_refine_ls_wR_factor_gt 0.0776
_symmetry_cell_setting triclinic
_symmetry_space_group_name_H-M 'P 1'
_symmetry_Int_Tables_number 1
loop_
_symmetry_equiv_pos_site_id
_symmetry_equiv_pos_as_xyz
1 x,y,z
_cell_length_a 8.615(3)
_cell_length_b 9.5106(14)
_cell_length_c 11.562(3)
_cell_angle_alpha 64.659(12)
_cell_angle_beta 72.90(2)
_cell_angle_gamma 74.967(17)
_cell_formula_units_Z 2
loop_
_atom_type_symbol
_atom_type_radius_bond
C 0.68
H 0.23
N 0.68
O 0.68
loop_
_atom_site_label
_atom_site_type_symbol
_atom_site_fract_x
_atom_site_fract_y
_atom_site_fract_z
C1 C 0.7649(13) 0.8600(14) -0.0807(11)
C2 C 0.7354(15) 0.7356(14) -0.1163(11)
H1 H 0.77110 0.62600 -0.06230
C3 C 0.5576(15) 0.7785(13) -0.1281(11)
C4 C 0.419(2) 0.7146(18) -0.0545(14)
H2 H 0.42310 0.62450 0.02140
C5 C 0.271(2) 0.786(2) -0.094(2)
H3 H 0.17620 0.74280 -0.04460
C6 C 0.2639(19) 0.920(2) -0.208(2)
H4 H 0.16440 0.96600 -0.23410
C7 C 0.4025(18) 0.9854(16) -0.2799(14)
H5 H 0.39670 1.07790 -0.35380
C8 C 0.5505(15) 0.9145(14) -0.2436(11)
C9 C 0.7193(16) 0.9594(14) -0.2954(11)
H6 H 0.74230 1.03060 -0.38760
C10 C 0.7530(16) 1.0129(14) -0.1987(11)
H7 H 0.85480 1.05630 -0.23240
H8 H 0.66360 1.09050 -0.17820
C11 C 0.8231(17) 0.7942(17) -0.2620(13)
H9 H 0.93910 0.79600 -0.27470
H10 H 0.80770 0.73610 -0.30830
N1 N 0.7980(12) 0.8289(11) 0.0283(9)
N2 N 0.8176(12) 0.9587(12) 0.0453(9)
H11 H 0.79170 1.05210 -0.00950
C12 C 0.8777(14) 0.9379(14) 0.1488(11)
C13 C 0.8900(14) 1.0602(14) 0.1798(11)
C14 C 0.9616(14) 1.0325(14) 0.2835(10)
H12 H 0.97040 1.11540 0.30250
C15 C 1.0175(15) 0.8817(15) 0.3552(10)
C16 C 1.0066(15) 0.7550(15) 0.3297(11)
H13 H 1.04670 0.65300 0.38090
C17 C 0.9371(17) 0.7810(15) 0.2295(12)
H14 H 0.92800 0.69620 0.21320
N3 N 0.8265(14) 1.2241(14) 0.1091(12)
O1 O 0.7543(13) 1.2522(12) 0.0227(10)
O2 O 0.8461(16) 1.3263(12) 0.1381(11)
N4 N 1.0985(13) 0.8529(17) 0.4593(10)
O3 O 1.1189(14) 0.9673(14) 0.4741(9)
O4 O 1.1429(12) 0.7167(14) 0.5273(9)
C18 C 0.5343(14) 0.6535(15) 0.4501(11)
C19 C 0.5533(17) 0.4782(15) 0.4921(12)
H15 H 0.51650 0.44000 0.43970
C20 C 0.7294(16) 0.4209(13) 0.5080(12)
C21 C 0.868(2) 0.3602(17) 0.4392(16)
H16 H 0.86420 0.34610 0.36540
C22 C 1.014(2) 0.3205(19) 0.480(2)
H17 H 1.10830 0.27760 0.43440
C23 C 1.020(2) 0.3439(18) 0.588(2)
H18 H 1.11920 0.31570 0.61490
C24 C 0.8860(18) 0.4068(15) 0.6549(15)
H19 H 0.89330 0.42590 0.72540
C25 C 0.7382(15) 0.4426(13) 0.6184(12)
C26 C 0.5697(16) 0.5157(15) 0.6670(11)
H20 H 0.54680 0.50580 0.75820
C27 C 0.5419(16) 0.6860(13) 0.5659(11)
H21 H 0.44000 0.74560 0.59560
H22 H 0.63260 0.74130 0.54580
C28 C 0.4615(17) 0.4356(16) 0.6379(13)
H23 H 0.34700 0.48380 0.64770
H24 H 0.47140 0.32300 0.68820
N5 N 0.5108(12) 0.7505(12) 0.3381(9)
N6 N 0.4933(12) 0.9082(12) 0.3175(9)
H25 H 0.52580 0.93500 0.36770
C29 C 0.4246(13) 1.0193(14) 0.2175(10)
C30 C 0.3885(15) 1.1806(15) 0.1948(11)
C31 C 0.3065(15) 1.2902(15) 0.0975(12)
H26 H 0.27920 1.39570 0.08650
C32 C 0.2675(15) 1.2368(15) 0.0186(11)
C33 C 0.3092(15) 1.0811(15) 0.0303(10)
H27 H 0.28520 1.04920 -0.02740
C34 C 0.3866(15) 0.9754(16) 0.1292(11)
H28 H 0.41500 0.87060 0.13780
N7 N 0.4263(14) 1.2426(15) 0.277(1)
O5 O 0.4994(15) 1.1512(12) 0.3662(9)
O6 O 0.3883(17) 1.3831(12) 0.2569(10)
N8 N 0.1750(16) 1.3510(18) -0.0814(11)
O7 O 0.1523(17) 1.4899(15) -0.0998(12)
O8 O 0.1228(15) 1.2972(15) -0.1371(11)
#END
