
#######################################################################
#
#                 Cambridge Crystallographic Data Centre
#                                CCDC
#
#######################################################################
#
# If this CIF has been generated from an entry in the Cambridge
# Structural Database, then it will include bibliographic, chemical,
# crystal, experimental, refinement or atomic coordinate data resulting
# from the CCDC's data processing and validation procedures.
#
#######################################################################

data_CSD_CIF_AZAPIA
_audit_creation_date 2005-05-12
_audit_creation_method CSD-ConQuest-V1
_database_code_CSD AZAPIA
_database_code_depnum_ccdc_archive 'CCDC 238142'
_chemical_formula_sum 'C19 H21 N1 O1'
_chemical_formula_moiety
;
C19 H21 N1 O1
;
_journal_coden_Cambridge 1291
_journal_year 2005
_journal_page_first 68
_journal_name_full 'Eur.J.Org.Chem. '
loop_
_publ_author_name
"H.Hopf"
"A.A.Aly"
"V.N.Swaminathan"
"L.Ernst"
"I.Dix"
"P.G.Jones"
_chemical_name_systematic
;
(E)-N,\a-Dimethyl-\a-(4'-(2.2)paracyclophanyl)nitrone
;
_chemical_melting_point 455.15
_cell_volume   1430.354
_exptl_crystal_colour 'colorless'
_exptl_crystal_density_diffrn 1.297
_exptl_crystal_description 'tablet'
_exptl_crystal_preparation 'toluene'
_diffrn_ambient_temperature 143
#These two values have been output from a single CSD field.
_refine_ls_R_factor_gt 0.0475
_refine_ls_wR_factor_gt 0.0475
_symmetry_cell_setting monoclinic
_symmetry_space_group_name_H-M 'P 21/c'
_symmetry_Int_Tables_number 14
loop_
_symmetry_equiv_pos_site_id
_symmetry_equiv_pos_as_xyz
1 x,y,z
2 -x,1/2+y,1/2-z
3 -x,-y,-z
4 x,-1/2-y,-1/2+z
_cell_length_a 15.736(3)
_cell_length_b 7.3166(14)
_cell_length_c 12.540(4)
_cell_angle_alpha 90
_cell_angle_beta 97.82(2)
_cell_angle_gamma 90
_cell_formula_units_Z 4
loop_
_atom_type_symbol
_atom_type_radius_bond
C 0.68
H 0.23
N 0.68
O 0.68
loop_
_atom_site_label
_atom_site_type_symbol
_atom_site_fract_x
_atom_site_fract_y
_atom_site_fract_z
O1 O 0.55415(7) 0.58775(19) 0.86833(10)
N1 N 0.47370(9) 0.6359(2) 0.86360(11)
C1 C 0.28538(13) 0.4934(3) 0.57077(16)
H1 H 0.26270 0.54440 0.49940
H2 H 0.32950 0.40130 0.55970
C2 C 0.32925(12) 0.6524(3) 0.64410(14)
H3 H 0.39110 0.62500 0.66260
H4 H 0.32400 0.76800 0.60270
C3 C 0.29037(10) 0.6783(2) 0.74664(14)
C4 C 0.3213(1) 0.5863(2) 0.84320(13)
C5 C 0.2645(1) 0.5437(2) 0.91593(13)
H5 H 0.28430 0.47390 0.97830
C6 C 0.17924(11) 0.6018(2) 0.89876(14)
C7 C 0.15784(11) 0.7316(2) 0.81861(15)
H6 H 0.10530 0.79660 0.81570
C8 C 0.21189(11) 0.7674(2) 0.74317(15)
H7 H 0.19520 0.85430 0.68800
C9 C 0.10942(12) 0.5049(3) 0.94747(15)
H8 H 0.06830 0.59660 0.96810
H9 H 0.13510 0.44120 1.01380
C10 C 0.05944(14) 0.3620(3) 0.86860(17)
H10 H 0.05710 0.24400 0.90670
H11 H -0.00020 0.40510 0.84850
C11 C 0.09976(12) 0.3316(3) 0.76717(15)
C12 C 0.07375(11) 0.4310(3) 0.67411(16)
H12 H 0.01670 0.47610 0.66080
C13 C 0.12987(11) 0.4655(3) 0.60036(15)
H13 H 0.11100 0.53480 0.53750
C14 C 0.21343(12) 0.3998(3) 0.61720(14)
C15 C 0.23177(13) 0.2665(2) 0.69643(16)
H14 H 0.28310 0.19730 0.69950
C16 C 0.17597(13) 0.2340(3) 0.77061(16)
H15 H 0.18990 0.14370 0.82460
C17 C 0.41061(11) 0.5194(2) 0.86172(13)
C18 C 0.45983(12) 0.8361(2) 0.86415(15)
H16 H 0.45310 0.88220 0.79010
H17 H 0.50930 0.89540 0.90620
H18 H 0.40800 0.86320 0.89650
C19 C 0.43147(11) 0.3210(2) 0.87442(14)
H19 H 0.42860 0.26420 0.80330
H20 H 0.39010 0.26180 0.91490
H21 H 0.48940 0.30670 0.91340
#END
