
#######################################################################
#
#                 Cambridge Crystallographic Data Centre
#                                CCDC
#
#######################################################################
#
# If this CIF has been generated from an entry in the Cambridge
# Structural Database, then it will include bibliographic, chemical,
# crystal, experimental, refinement or atomic coordinate data resulting
# from the CCDC's data processing and validation procedures.
#
#######################################################################

data_CSD_CIF_AZEHET
_audit_creation_date 2011-12-12
_audit_creation_method CSD-ConQuest-V1
_database_code_CSD AZEHET
_database_code_depnum_ccdc_archive 'CCDC 819649'
_chemical_formula_sum 'C8 H14 N2 O2'
_chemical_formula_moiety
;
C8 H14 N2 O2
;
_journal_coden_Cambridge 1090
_journal_volume 22
_journal_year 2011
_journal_page_first 1266
_journal_name_full 'Tetrahedron:Asymm. '
loop_
_publ_author_name
"M.Thiverny"
"E.Demory"
"B.Baptiste"
"C.Philouze"
"P.Y.Chavant"
"V.Blandin"
_chemical_name_systematic
;
(R)-2-Isopropyl-2,3-dimethyl-1-oxy-2,3-dihydro-imidazol-4-one
;
_cell_volume    949.841
_exptl_crystal_colour 'colorless'
_exptl_crystal_density_diffrn 1.191
_exptl_crystal_description 'prism'
_diffrn_ambient_temperature 296
#These two values have been output from a single CSD field.
_refine_ls_R_factor_gt 0.0615
_refine_ls_wR_factor_gt 0.0615
loop_
_citation_database_id_CSD
_citation_special_details
SULZUV "is a racemate of this entry"
_symmetry_cell_setting monoclinic
_symmetry_space_group_name_H-M 'P 21'
_symmetry_Int_Tables_number 4
loop_
_symmetry_equiv_pos_site_id
_symmetry_equiv_pos_as_xyz
1 x,y,z
2 -x,1/2+y,-z
_cell_length_a 6.803(2)
_cell_length_b 11.399(4)
_cell_length_c 12.260(3)
_cell_angle_alpha 90
_cell_angle_beta 92.48(2)
_cell_angle_gamma 90
_cell_formula_units_Z 4
loop_
_atom_type_symbol
_atom_type_radius_bond
C 0.68
H 0.23
N 0.68
O 0.68
loop_
_atom_site_label
_atom_site_type_symbol
_atom_site_fract_x
_atom_site_fract_y
_atom_site_fract_z
O1 O 0.1994(4) 0.3831(8) 0.5229(2)
O2 O -0.0406(4) 0.5157(8) 0.8494(2)
O3 O 1.0042(3) 0.1665(8) 0.8148(2)
O4 O 0.6138(5) 0.2697(8) 1.0994(2)
N1 N 0.1320(3) 0.4444(8) 0.5988(2)
N2 N 0.0326(3) 0.6068(8) 0.6895(1)
N3 N 0.8708(3) 0.1732(8) 0.8832(2)
N4 N 0.5906(3) 0.1259(8) 0.9670(1)
C1 C 0.1085(3) 0.5757(8) 0.5844(1)
C2 C 0.0150(3) 0.5135(8) 0.7557(2)
C3 C 0.0778(4) 0.4110(8) 0.6957(2)
C4 C -0.0275(4) 0.7231(8) 0.7210(2)
C5 C 0.3128(4) 0.6254(8) 0.5631(2)
C6 C 0.3056(6) 0.7548(9) 0.5360(4)
C7 C 0.4618(4) 0.5996(9) 0.6567(3)
C8 C -0.0415(4) 0.5938(8) 0.4906(2)
C9 C 0.7023(3) 0.0885(8) 0.8755(1)
C10 C 0.6738(4) 0.2187(8) 1.0200(2)
C11 C 0.8529(5) 0.2457(8) 0.9616(3)
C12 C 0.4170(5) 0.0680(9) 1.0041(3)
C13 C 0.5980(4) 0.1073(8) 0.7622(2)
C14 C 0.5147(5) 0.2289(8) 0.7505(3)
C15 C 0.4437(6) 0.0151(9) 0.7341(3)
C16 C 0.7900(5) -0.0325(8) 0.8933(2)
H1 H 0.07940 0.33200 0.72230
H2 H 0.04700 0.74620 0.78450
H3 H -0.00570 0.77570 0.66320
H4 H -0.16340 0.72170 0.73590
H5 H 0.35780 0.58550 0.50050
H6 H 0.58530 0.63220 0.64080
H7 H 0.41710 0.63190 0.72230
H8 H 0.47570 0.51640 0.66520
H9 H 0.43500 0.78170 0.52480
H10 H 0.22560 0.76590 0.47150
H11 H 0.25180 0.79580 0.59480
H12 H 0.00550 0.55860 0.42620
H13 H -0.06170 0.67460 0.47920
H14 H -0.16240 0.55710 0.50790
H15 H 0.94200 0.30690 0.97960
H16 H 0.31250 0.12220 1.00710
H17 H 0.38020 0.00580 0.95490
H18 H 0.44400 0.03540 1.07480
H19 H 0.69610 0.09950 0.70970
H20 H 0.42050 0.24050 0.80440
H21 H 0.61770 0.28400 0.75980
H22 H 0.45310 0.23690 0.67990
H23 H 0.34520 0.01600 0.78670
H24 H 0.38540 0.03000 0.66380
H25 H 0.50360 -0.06090 0.73420
H26 H 0.87580 -0.03240 0.95660
H27 H 0.86170 -0.05470 0.83160
H28 H 0.68750 -0.08840 0.90300
#END
