
#######################################################################
#
#                 Cambridge Crystallographic Data Centre
#                                CCDC
#
#######################################################################
#
# If this CIF has been generated from an entry in the Cambridge
# Structural Database, then it will include bibliographic, chemical,
# crystal, experimental, refinement or atomic coordinate data resulting
# from the CCDC's data processing and validation procedures.
#
#######################################################################

data_CSD_CIF_AZEHIX
_audit_creation_date 2011-12-12
_audit_creation_method CSD-ConQuest-V1
_database_code_CSD AZEHIX
_database_code_depnum_ccdc_archive 'CCDC 819651'
_chemical_formula_sum 'C26 H28 N2 O9'
_chemical_formula_moiety
;
C26 H28 N2 O9
;
_journal_coden_Cambridge 1090
_journal_volume 22
_journal_year 2011
_journal_page_first 1266
_journal_name_full 'Tetrahedron:Asymm. '
loop_
_publ_author_name
"M.Thiverny"
"E.Demory"
"B.Baptiste"
"C.Philouze"
"P.Y.Chavant"
"V.Blandin"
_chemical_name_systematic
;
(2R,3R)-2,3-bis(benzoyloxy)succinic acid 
mono-((R)-2-isopropyl-2,3-dimethyl-4-oxo-imidazolidin-1-yl) ester
;
_cell_volume   1989.349
_exptl_crystal_colour 'colorless'
_exptl_crystal_density_diffrn 1.283
_exptl_crystal_description 'prism'
_diffrn_ambient_temperature 199.8
#These two values have been output from a single CSD field.
_refine_ls_R_factor_gt 0.0368
_refine_ls_wR_factor_gt 0.0368
_symmetry_cell_setting hexagonal
_symmetry_space_group_name_H-M 'P 32'
_symmetry_Int_Tables_number 145
loop_
_symmetry_equiv_pos_site_id
_symmetry_equiv_pos_as_xyz
1 x,y,z
2 -y,x-y,2/3+z
3 -x+y,-x,1/3+z
_cell_length_a 12.439(1)
_cell_length_b 12.439(1)
_cell_length_c 14.846(4)
_cell_angle_alpha 90
_cell_angle_beta 90
_cell_angle_gamma 120
_cell_formula_units_Z 3
loop_
_atom_type_symbol
_atom_type_radius_bond
C 0.68
H 0.23
N 0.68
O 0.68
loop_
_atom_site_label
_atom_site_type_symbol
_atom_site_fract_x
_atom_site_fract_y
_atom_site_fract_z
O1 O -0.3122(2) -0.5112(2) -0.49105(17)
O2 O -0.2398(2) -0.4139(2) -0.22438(15)
O3 O -0.3028(2) -0.2889(2) -0.16296(18)
O4 O -0.3937(2) -0.4357(2) -0.01773(15)
O5 O -0.5749(2) -0.5371(3) -0.08950(18)
O6 O -0.3686(2) -0.6642(2) 0.03484(17)
H1 H -0.38130 -0.70690 0.08160
O7 O -0.2388(3) -0.5047(3) 0.12203(17)
O8 O -0.13325(19) -0.3566(2) -0.02471(16)
O9 O -0.0097(3) -0.4336(3) 0.0107(2)
N1 N -0.1840(2) -0.3203(2) -0.29669(19)
N2 N -0.1361(3) -0.4263(3) -0.40369(19)
C1 C -0.0791(3) -0.3332(3) -0.3320(2)
C2 C -0.2470(3) -0.4445(3) -0.4295(2)
C3 C -0.2781(3) -0.3670(3) -0.3686(2)
H2 H -0.27530 -0.29710 -0.40250
H3 H -0.36230 -0.41790 -0.34290
C4 C -0.0713(4) -0.4792(5) -0.4509(3)
H4 H 0.01800 -0.41930 -0.45130
H5 H -0.10170 -0.49870 -0.51300
H6 H -0.08630 -0.55530 -0.42030
C5 C -0.0202(4) -0.3758(4) -0.2613(2)
H7 H -0.07870 -0.46200 -0.24460
H8 H 0.00040 -0.32280 -0.20790
H9 H 0.05560 -0.37020 -0.28580
C6 C 0.0205(3) -0.2050(4) -0.3719(3)
H10 H 0.09140 -0.21510 -0.39280
C7 C 0.0719(4) -0.1040(4) -0.3005(3)
H11 H 0.10080 -0.13160 -0.24880
H12 H 0.00650 -0.08710 -0.28090
H13 H 0.14140 -0.02820 -0.32560
C8 C -0.0235(4) -0.1626(5) -0.4537(3)
H14 H 0.04690 -0.08840 -0.47980
H15 H -0.08750 -0.14320 -0.43500
H16 H -0.05820 -0.22900 -0.49880
C9 C -0.2911(3) -0.3781(3) -0.1604(2)
C10 C -0.3362(3) -0.4724(3) -0.0851(2)
H17 H -0.39810 -0.55580 -0.10930
C11 C -0.5150(3) -0.4747(3) -0.0280(2)
C12 C -0.5619(3) -0.4293(3) 0.0456(2)
C13 C -0.6898(3) -0.4783(4) 0.0532(3)
H18 H -0.74470 -0.54010 0.01220
C14 C -0.7360(4) -0.4368(5) 0.1201(4)
H19 H -0.82310 -0.47060 0.12600
C15 C -0.6565(5) -0.3465(4) 0.1788(3)
H20 H -0.68920 -0.31760 0.22460
C16 C -0.5306(4) -0.2976(4) 0.1719(3)
H21 H -0.47640 -0.23510 0.21280
C17 C -0.4831(3) -0.3394(3) 0.1057(2)
H22 H -0.39600 -0.30640 0.10120
C18 C -0.2316(3) -0.4802(3) -0.0393(2)
H23 H -0.20220 -0.52510 -0.07910
C19 C -0.2789(3) -0.5503(3) 0.0497(2)
C20 C -0.0234(3) -0.3458(4) -0.0002(3)
C21 C 0.0771(3) -0.2151(4) 0.0073(3)
C22 C 0.1794(4) -0.1891(5) 0.0613(3)
H24 H 0.18050 -0.25320 0.09540
C23 C 0.2790(4) -0.0695(6) 0.0646(4)
H25 H 0.34710 -0.05040 0.10320
C24 C 0.2798(5) 0.0216(5) 0.0123(4)
H26 H 0.35010 0.10280 0.01310
C25 C 0.1796(5) -0.0035(5) -0.0413(4)
H27 H 0.18080 0.06040 -0.07710
C26 C 0.0765(4) -0.1223(4) -0.0430(3)
H28 H 0.00630 -0.13930 -0.07860
#END
