
#######################################################################
#
#                 Cambridge Crystallographic Data Centre
#                                CCDC
#
#######################################################################
#
# If this CIF has been generated from an entry in the Cambridge
# Structural Database, then it will include bibliographic, chemical,
# crystal, experimental, refinement or atomic coordinate data resulting
# from the CCDC's data processing and validation procedures.
#
#######################################################################

data_CSD_CIF_AZEHUJ
_audit_creation_date 2011-12-12
_audit_creation_method CSD-ConQuest-V1
_database_code_CSD AZEHUJ
_database_code_depnum_ccdc_archive 'CCDC 819593'
_chemical_formula_sum 'C15 H22 N2 O3'
_chemical_formula_moiety
;
C15 H22 N2 O3
;
_journal_coden_Cambridge 1090
_journal_volume 22
_journal_year 2011
_journal_page_first 1274
_journal_name_full 'Tetrahedron:Asymm. '
loop_
_publ_author_name
"M.Thiverny"
"D.Farran"
"C.Philouze"
"V.Blandin"
"P.Y.Chavant"
_chemical_name_systematic
;
(2R,5R)-1-Hydroxy-2-isopropyl-5-(4-methoxyphenyl)-2,3-dimethylimidazolidin-4-o
ne
;
_cell_volume   1577.280
_exptl_crystal_colour 'colorless'
_exptl_crystal_density_diffrn 1.172
_exptl_crystal_description 'prism'
_diffrn_ambient_temperature 296
#These two values have been output from a single CSD field.
_refine_ls_R_factor_gt 0.0643
_refine_ls_wR_factor_gt 0.0643
_symmetry_cell_setting monoclinic
_symmetry_space_group_name_H-M 'P 21'
_symmetry_Int_Tables_number 4
loop_
_symmetry_equiv_pos_site_id
_symmetry_equiv_pos_as_xyz
1 x,y,z
2 -x,1/2+y,-z
_cell_length_a 10.448(4)
_cell_length_b 7.451(2)
_cell_length_c 20.442(6)
_cell_angle_alpha 90
_cell_angle_beta 97.63(4)
_cell_angle_gamma 90
_cell_formula_units_Z 4
loop_
_atom_type_symbol
_atom_type_radius_bond
C 0.68
H 0.23
N 0.68
O 0.68
loop_
_atom_site_label
_atom_site_type_symbol
_atom_site_fract_x
_atom_site_fract_y
_atom_site_fract_z
O1 O 0.7466(1) 0.6735(3) 0.28043(8)
O2 O 1.1449(2) 0.7408(4) 0.20362(9)
O3 O 0.8792(2) 0.1359(3) 0.02078(9)
O4 O 0.3857(2) -0.1377(2) 0.19652(8)
O5 O 0.6194(2) 0.3599(3) 0.28237(7)
O6 O 0.3275(2) 0.0966(3) 0.51536(7)
N1 N 0.8784(2) 0.6177(3) 0.27918(7)
N2 N 1.0829(2) 0.7139(3) 0.30620(9)
N3 N 0.3948(2) 0.0494(3) 0.21178(8)
N4 N 0.4949(2) 0.3021(3) 0.18403(8)
C1 C 0.9645(2) 0.6904(3) 0.33687(9)
C2 C 1.0642(2) 0.7168(4) 0.2402(1)
C3 C 0.9215(2) 0.6756(3) 0.21786(9)
C4 C 1.2119(3) 0.7278(6) 0.3417(1)
C5 C 0.9151(3) 0.8675(4) 0.3646(1)
C6 C 0.9071(4) 1.0213(4) 0.3154(2)
C7 C 0.9911(5) 0.9257(7) 0.4305(2)
C8 C 0.9800(3) 0.5424(4) 0.3890(1)
C9 C 0.9043(2) 0.5329(3) 0.16465(8)
C10 C 0.8580(3) 0.5776(4) 0.1005(1)
C11 C 0.9398(3) 0.3573(4) 0.1794(1)
C12 C 0.8476(3) 0.4479(5) 0.0506(1)
C13 C 0.9311(3) 0.2265(4) 0.1307(1)
C14 C 0.8842(2) 0.2746(4) 0.0654(1)
C15 C 0.8472(3) 0.1831(6) -0.0466(1)
C16 C 0.4167(2) 0.1545(3) 0.15191(9)
C17 C 0.5485(2) 0.2636(3) 0.24621(8)
C18 C 0.4986(2) 0.0806(3) 0.26454(9)
C19 C 0.5171(3) 0.4746(4) 0.1543(1)
C20 C 0.4864(2) 0.0510(3) 0.1014(1)
C21 C 0.5025(3) 0.1581(5) 0.0393(1)
C22 C 0.6167(3) -0.0223(5) 0.1308(1)
C23 C 0.2840(3) 0.2198(5) 0.1216(1)
C24 C 0.4567(2) 0.0812(3) 0.33161(9)
C25 C 0.3537(2) 0.1905(3) 0.3451(1)
C26 C 0.5151(2) -0.0230(4) 0.3823(1)
C27 C 0.3134(2) 0.1920(4) 0.4061(1)
C28 C 0.4777(2) -0.0233(4) 0.4441(1)
C29 C 0.3727(2) 0.0855(4) 0.45686(9)
C30 C 0.3874(4) -0.0077(7) 0.5690(1)
H1 H 0.69640 0.57060 0.28130
H2 H 0.87740 0.78610 0.20260
H3 H 1.24650 0.84670 0.33400
H4 H 1.26510 0.64150 0.32670
H5 H 1.20860 0.71680 0.38750
H6 H 0.82950 0.84800 0.37290
H7 H 0.85490 0.98940 0.27580
H8 H 0.86800 1.12570 0.33370
H9 H 0.99050 1.05560 0.30660
H10 H 1.07690 0.95670 0.42430
H11 H 0.95110 1.03500 0.44540
H12 H 0.98920 0.83710 0.46170
H13 H 0.99370 0.43430 0.36820
H14 H 0.90450 0.53900 0.40970
H15 H 1.05250 0.57190 0.42070
H16 H 0.83290 0.70120 0.08980
H17 H 0.97010 0.32940 0.22380
H18 H 0.81520 0.48370 0.00660
H19 H 0.95680 0.11010 0.14120
H20 H 0.88440 0.29950 -0.05460
H21 H 0.87900 0.09780 -0.07360
H22 H 0.75570 0.19430 -0.05700
H23 H 0.30750 -0.15220 0.22330
H24 H 0.56400 -0.00340 0.26290
H25 H 0.55070 0.45890 0.11350
H26 H 0.43830 0.54200 0.14590
H27 H 0.57780 0.54540 0.18300
H28 H 0.43400 -0.04580 0.08760
H29 H 0.54230 0.08860 0.00960
H30 H 0.42040 0.20000 0.01840
H31 H 0.55540 0.26410 0.05070
H32 H 0.64880 -0.09590 0.09980
H33 H 0.67520 0.07770 0.14130
H34 H 0.60740 -0.08420 0.16980
H35 H 0.29180 0.28950 0.08240
H36 H 0.24880 0.29930 0.15210
H37 H 0.22860 0.12390 0.11110
H38 H 0.31100 0.26840 0.31120
H39 H 0.58460 -0.09450 0.37430
H40 H 0.24330 0.27070 0.41360
H41 H 0.52220 -0.09190 0.47800
H42 H 0.46960 0.04650 0.58490
H43 H 0.39820 -0.12350 0.55520
H44 H 0.33490 -0.00270 0.60380
#END
