
#######################################################################
#
#                 Cambridge Crystallographic Data Centre
#                                CCDC
#
#######################################################################
#
# If this CIF has been generated from an entry in the Cambridge
# Structural Database, then it will include bibliographic, chemical,
# crystal, experimental, refinement or atomic coordinate data resulting
# from the CCDC's data processing and validation procedures.
#
#######################################################################

data_CSD_CIF_AZFOXM
_audit_creation_date 1980-12-11
_audit_creation_method CSD-ConQuest-V1
_database_code_CSD AZFOXM
_chemical_formula_sum 'C2 H4 N4 O2'
_chemical_formula_moiety
;
C2 H4 N4 O2
;
_journal_coeditor_code "IUCr A18988"
_journal_coden_Cambridge 107
_journal_volume 36
_journal_year 1980
_journal_page_first 1731
_journal_name_full 'Acta Crystallogr.,Sect.B:Struct.Crystallogr.Cryst.Chem. '
loop_
_publ_author_name
"C.Bois"
"J.Armand"
"P.Bassinet"
_chemical_name_systematic
;
Azo-diformaldehyde-dioxime
;
_cell_volume    241.951
_exptl_crystal_density_diffrn 1.59
_diffrn_ambient_temperature ?
_diffrn_special_details
;
The study was carried out at room temperature,in the range 283-303K

;
#These two values have been output from a single CSD field.
_refine_ls_R_factor_gt 0.043
_refine_ls_wR_factor_gt 0.043
_symmetry_cell_setting monoclinic
_symmetry_space_group_name_H-M 'P 21/c'
_symmetry_Int_Tables_number 14
loop_
_symmetry_equiv_pos_site_id
_symmetry_equiv_pos_as_xyz
1 x,y,z
2 -x,1/2+y,1/2-z
3 -x,-y,-z
4 x,-1/2-y,-1/2+z
_cell_length_a 4.451(4)
_cell_length_b 9.520(6)
_cell_length_c 6.340(5)
_cell_angle_alpha 90
_cell_angle_beta 115.76(6)
_cell_angle_gamma 90
_cell_formula_units_Z 2
loop_
_atom_type_symbol
_atom_type_radius_bond
C 0.68
H 0.23
N 0.68
O 0.68
loop_
_atom_site_label
_atom_site_type_symbol
_atom_site_fract_x
_atom_site_fract_y
_atom_site_fract_z
N1 N 0.93420 0.44080 0.46040
N2 N 0.47110 0.32980 0.21360
C1 C 0.60830 0.45000 0.28770
O1 O 0.15190 0.34380 0.04350
H1 H 0.50000 0.53400 0.23800
H2 H 0.08100 0.26400 0.01500
N1B N 1.06580 0.55920 0.53960
C1B C 1.39170 0.55000 0.71230
N2B N 1.52890 0.67020 0.78640
H1B H 1.50000 0.46600 0.76200
O1B O 1.84810 0.65620 0.95650
H2B H 1.91900 0.73600 0.98500
#END
