
#######################################################################
#
#                 Cambridge Crystallographic Data Centre
#                                CCDC
#
#######################################################################
#
# If this CIF has been generated from an entry in the Cambridge
# Structural Database, then it will include bibliographic, chemical,
# crystal, experimental, refinement or atomic coordinate data resulting
# from the CCDC's data processing and validation procedures.
#
#######################################################################

data_CSD_CIF_AZILOM01
_audit_creation_date 2017-10-04
_audit_creation_method CSD-ConQuest-V1
_database_code_CSD AZILOM01
_database_code_depnum_ccdc_archive 'CCDC 1416586'
_chemical_formula_sum 'C12 H9 N3 O4'
_chemical_formula_moiety
;
C12 H9 N3 O4
;
_journal_coden_Cambridge 211
_journal_volume 69
_journal_year 2016
_journal_page_first 3545
_journal_name_full 'J.Coord.Chem. '
loop_
_publ_author_name
"M.Mohanraj"
"Ganesan Ayyannan"
"G.Raja"
"C.Jayabalakrishnan"
_chemical_name_systematic
;
N'-(2-nitrobenzylidene)-2-furohydrazide
;
_cell_volume   2385.000
_exptl_crystal_colour 'light yellow'
_exptl_crystal_density_diffrn 1.444
_exptl_crystal_description 'plate'
_diffrn_ambient_temperature 293
#These two values have been output from a single CSD field.
_refine_ls_R_factor_gt 0.0603
_refine_ls_wR_factor_gt 0.0603
_symmetry_cell_setting monoclinic
_symmetry_space_group_name_H-M 'P 21/c'
_symmetry_Int_Tables_number 14
loop_
_symmetry_equiv_pos_site_id
_symmetry_equiv_pos_as_xyz
1 x,y,z
2 -x,1/2+y,1/2-z
3 -x,-y,-z
4 x,-1/2-y,-1/2+z
_cell_length_a 17.3441(17)
_cell_length_b 9.1287(9)
_cell_length_c 15.5631(11)
_cell_angle_alpha 90
_cell_angle_beta 104.556(8)
_cell_angle_gamma 90
_cell_formula_units_Z 8
loop_
_atom_type_symbol
_atom_type_radius_bond
C 0.68
H 0.23
N 0.68
O 0.68
loop_
_atom_site_label
_atom_site_type_symbol
_atom_site_fract_x
_atom_site_fract_y
_atom_site_fract_z
O1 O 0.42364(12) 0.1018(3) 0.72986(12)
O2 O 0.39978(12) -0.0913(2) 0.91876(12)
N1 N 0.31615(13) -0.0629(3) 0.78188(15)
N2 N 0.25722(13) -0.1488(3) 0.80181(13)
O3 O 0.06737(16) -0.3774(3) 0.52568(15)
C1 C 0.13302(15) -0.2659(3) 0.74622(16)
O4 O 0.08284(17) -0.1519(4) 0.56836(15)
C2 C 0.38496(16) -0.0422(3) 0.84299(17)
C3 C 0.07876(17) -0.3283(4) 0.67371(17)
C4 C 0.44423(16) 0.0450(3) 0.81308(16)
C5 C 0.51866(17) 0.0820(3) 0.85261(18)
H1 H 0.54660 0.05610 0.90970
N3 N 0.07679(16) -0.2833(4) 0.58273(17)
C6 C 0.19841(16) -0.1722(3) 0.73630(17)
H2 H 0.19690 -0.12960 0.68160
C7 C 0.12485(18) -0.3052(4) 0.82975(18)
H3 H 0.15900 -0.26450 0.87980
C8 C 0.54770(19) 0.1680(4) 0.7921(2)
H4 H 0.59810 0.20950 0.80120
C9 C 0.02390(19) -0.4311(4) 0.6834(2)
H5 H -0.00900 -0.47570 0.63380
C10 C 0.4884(2) 0.1775(4) 0.7194(2)
H6 H 0.49060 0.22880 0.66850
C11 C 0.0679(2) -0.4021(4) 0.8402(2)
H7 H 0.06260 -0.42430 0.89680
C12 C 0.0181(2) -0.4670(4) 0.7670(2)
H8 H -0.01940 -0.53540 0.77440
H9 H 0.3092(16) -0.033(3) 0.7260(19)
O5 O 0.28145(13) -0.0390(2) 0.59436(13)
N4 N 0.26949(14) -0.3308(3) 0.56558(14)
N5 N 0.30437(15) -0.2376(3) 0.51678(15)
O6 O 0.36483(18) 0.1353(3) 0.50939(15)
C13 C 0.30902(17) -0.0938(4) 0.53677(17)
C14 C 0.35100(18) -0.0063(4) 0.48444(17)
C15 C 0.1837(2) -0.6878(4) 0.5581(2)
C16 C 0.26488(17) -0.4629(4) 0.54203(18)
H10 H 0.28240 -0.49260 0.49300
C17 C 0.3825(2) -0.0329(4) 0.4171(2)
H11 H 0.38150 -0.12170 0.38760
C18 C 0.23128(17) -0.5693(3) 0.59336(19)
N6 N 0.1629(2) -0.7134(4) 0.4621(2)
C19 C 0.2468(2) -0.5527(4) 0.6846(2)
H12 H 0.27950 -0.47620 0.71150
C20 C 0.4178(3) 0.0978(5) 0.3984(3)
H13 H 0.44390 0.11210 0.35370
C21 C 0.1521(2) -0.7820(4) 0.6093(3)
H14 H 0.11990 -0.85960 0.58330
C22 C 0.2157(3) -0.6451(4) 0.7364(2)
H15 H 0.22660 -0.62980 0.79730
C23 C 0.4070(3) 0.1946(5) 0.4551(2)
H16 H 0.42540 0.29060 0.45830
C24 C 0.1686(3) -0.7598(5) 0.6988(3)
H17 H 0.14790 -0.82290 0.73420
O7 O 0.1181(4) -0.8062(5) 0.4337(3)
O8 O 0.1821(3) -0.6305(6) 0.4133(2)
H18 H 0.3257(17) -0.279(3) 0.4777(19)
#END
