
#######################################################################
#
#                 Cambridge Crystallographic Data Centre
#                                CCDC
#
#######################################################################
#
# If this CIF has been generated from an entry in the Cambridge
# Structural Database, then it will include bibliographic, chemical,
# crystal, experimental, refinement or atomic coordinate data resulting
# from the CCDC's data processing and validation procedures.
#
#######################################################################

data_CSD_CIF_AZILOM
_audit_creation_date 2016-11-21
_audit_creation_method CSD-ConQuest-V1
_database_code_CSD AZILOM
_database_code_depnum_ccdc_archive 'CCDC 1469125'
_chemical_formula_sum 'C12 H9 N3 O4'
_chemical_formula_moiety
;
C12 H9 N3 O4
;
_journal_coden_Cambridge 1546
_journal_volume 6
_journal_year 2016
_journal_page_first 57
_journal_name_full 'Crystals '
loop_
_publ_author_name
"Li-Hua Wang"
"Xi-Shi Tai"
_chemical_name_systematic
;
N'-(2-nitrobenzylidene)-2-furohydrazide
;
_cell_volume   2396.036
_exptl_crystal_colour 'yellow'
_exptl_crystal_density_diffrn 1.437
_exptl_crystal_description 'block'
_diffrn_ambient_temperature 293
#These two values have been output from a single CSD field.
_refine_ls_R_factor_gt 0.0633
_refine_ls_wR_factor_gt 0.0633
_symmetry_cell_setting monoclinic
_symmetry_space_group_name_H-M 'P 21/c'
_symmetry_Int_Tables_number 14
loop_
_symmetry_equiv_pos_site_id
_symmetry_equiv_pos_as_xyz
1 x,y,z
2 -x,1/2+y,1/2-z
3 -x,-y,-z
4 x,-1/2-y,-1/2+z
_cell_length_a 17.3618(9)
_cell_length_b 9.1506(4)
_cell_length_c 15.5801(7)
_cell_angle_alpha 90
_cell_angle_beta 104.532(5)
_cell_angle_gamma 90
_cell_formula_units_Z 8
loop_
_atom_type_symbol
_atom_type_radius_bond
C 0.68
H 0.23
N 0.68
O 0.68
loop_
_atom_site_label
_atom_site_type_symbol
_atom_site_fract_x
_atom_site_fract_y
_atom_site_fract_z
O1 O 0.07642(14) 0.6020(3) 0.27017(15)
O2 O 0.10014(13) 0.4091(2) 0.08119(14)
O3 O 0.43296(19) 0.1228(4) 0.47437(19)
O4 O 0.41732(18) 0.3485(3) 0.43150(18)
N1 N 0.18352(15) 0.4365(3) 0.21838(17)
H1 H 0.19070 0.47510 0.27010
N2 N 0.24289(14) 0.3515(3) 0.19838(16)
N3 N 0.42318(17) 0.2173(4) 0.41756(19)
C1 C -0.01895(19) 0.5824(3) 0.1471(2)
H2 H -0.04690 0.55670 0.09000
C2 C -0.0475(2) 0.6679(4) 0.2081(2)
H3 H -0.09780 0.70940 0.19910
C3 C 0.0118(2) 0.6773(4) 0.2808(2)
H4 H 0.00950 0.72810 0.33180
C4 C 0.05543(18) 0.5456(3) 0.18694(19)
C5 C 0.11517(18) 0.4583(3) 0.1573(2)
C6 C 0.30159(18) 0.3276(3) 0.2638(2)
H5 H 0.30290 0.36960 0.31850
C7 C 0.36715(18) 0.2346(3) 0.25394(19)
C8 C 0.3752(2) 0.1945(4) 0.1704(2)
H6 H 0.34080 0.23440 0.12030
C9 C 0.4324(2) 0.0978(4) 0.1601(3)
H7 H 0.43780 0.07580 0.10360
C10 C 0.4818(2) 0.0333(4) 0.2330(3)
H8 H 0.51900 -0.03530 0.22550
C11 C 0.4766(2) 0.0693(4) 0.3170(3)
H9 H 0.50960 0.02490 0.36640
C12 C 0.42167(19) 0.1721(3) 0.3265(2)
O5 O 0.8646(2) 0.3647(3) 0.50945(19)
O6 O 0.78170(15) 0.5392(2) 0.59432(15)
O7 O 0.6812(3) 1.1293(6) 0.4129(3)
O8 O 0.6182(4) 1.3063(5) 0.4333(3)
N4 N 0.80462(15) 0.7378(3) 0.51706(16)
H10 H 0.82350 0.77100 0.47490
N5 N 0.76967(14) 0.8306(3) 0.56567(16)
N6 N 0.6622(3) 1.2128(4) 0.4621(3)
C13 C 0.9067(3) 0.3058(5) 0.4552(3)
H11 H 0.92490 0.20980 0.45830
C14 C 0.9181(3) 0.4026(5) 0.3982(3)
H12 H 0.94450 0.38840 0.35380
C15 C 0.8823(3) 0.5334(4) 0.4170(3)
H13 H 0.88100 0.62200 0.38750
C16 C 0.8510(2) 0.5061(3) 0.4845(2)
C17 C 0.80883(18) 0.5936(3) 0.53661(19)
C18 C 0.76489(18) 0.9629(3) 0.5417(2)
H14 H 0.78220 0.99240 0.49250
C19 C 0.73131(19) 1.0697(3) 0.5933(2)
C20 C 0.7468(2) 1.0531(4) 0.6845(2)
H15 H 0.77960 0.97710 0.71160
C21 C 0.7153(3) 1.1457(4) 0.7362(3)
H16 H 0.72580 1.13030 0.79710
C22 C 0.6686(3) 1.2601(5) 0.6984(3)
H17 H 0.64790 1.32360 0.73360
C23 C 0.6521(3) 1.2816(4) 0.6087(3)
H18 H 0.62010 1.35930 0.58260
C24 C 0.6833(2) 1.1870(4) 0.5574(3)
#END
