
#######################################################################
#
#                 Cambridge Crystallographic Data Centre
#                                CCDC
#
#######################################################################
#
# If this CIF has been generated from an entry in the Cambridge
# Structural Database, then it will include bibliographic, chemical,
# crystal, experimental, refinement or atomic coordinate data resulting
# from the CCDC's data processing and validation procedures.
#
#######################################################################

data_CSD_CIF_AZIWUD
_audit_creation_date 2016-11-22
_audit_creation_method CSD-ConQuest-V1
_database_code_CSD AZIWUD
_database_code_depnum_ccdc_archive 'CCDC 1036098'
_chemical_formula_sum 'C16 H15 N5 O3'
_chemical_formula_moiety
;
C16 H15 N5 O3
;
_journal_coden_Cambridge 248
_journal_volume 31
_journal_year 2016
_journal_page_first 608
_journal_name_full 'J.Enzyme Inhib.Med.Chem. '
loop_
_publ_author_name
"T.M.Wrobel"
"M.Kielbus"
"A.A.Kaczor"
"V.Krystof"
"Z.Karczmarzyk"
"W.Wysocki"
"A.Fruzinski"
"D.Matosiuk"
_chemical_name_systematic
;
1-(1-(4-nitrophenyl)imidazolidin-2-ylidene)-3-phenylurea
;
_cell_volume    754.363
_exptl_crystal_colour 'colorless'
_exptl_crystal_density_diffrn 1.432
_exptl_special_details
;
antiproliferative activity

;
_exptl_crystal_description 'prism'
_exptl_crystal_preparation 'ethanol'
_diffrn_ambient_temperature 293
#These two values have been output from a single CSD field.
_refine_ls_R_factor_gt 0.0295
_refine_ls_wR_factor_gt 0.0295
_symmetry_cell_setting monoclinic
_symmetry_space_group_name_H-M 'P 21'
_symmetry_Int_Tables_number 4
loop_
_symmetry_equiv_pos_site_id
_symmetry_equiv_pos_as_xyz
1 x,y,z
2 -x,1/2+y,-z
_cell_length_a 5.2582(1)
_cell_length_b 9.7217(1)
_cell_length_c 14.7605(1)
_cell_angle_alpha 90
_cell_angle_beta 91.229(1)
_cell_angle_gamma 90
_cell_formula_units_Z 2
loop_
_atom_type_symbol
_atom_type_radius_bond
C 0.68
H 0.23
N 0.68
O 0.68
loop_
_atom_site_label
_atom_site_type_symbol
_atom_site_fract_x
_atom_site_fract_y
_atom_site_fract_z
O1 O 0.3847(3) 0.55628(15) 0.15435(9)
O2 O -0.5987(2) 0.88394(16) 0.66961(8)
O3 O -0.7162(2) 0.68436(13) 0.61986(9)
N1 N 0.1179(2) 0.83991(12) 0.33620(8)
N2 N 0.3742(3) 0.80395(16) 0.22206(9)
H1 H 0.445(5) 0.759(3) 0.1808(17)
N3 N 0.1025(2) 0.62060(13) 0.26690(8)
N4 N 0.0675(2) 0.41394(14) 0.19796(8)
H2 H -0.075(4) 0.411(2) 0.2308(15)
N5 N -0.5803(2) 0.78718(13) 0.61656(8)
C1 C 0.1955(2) 0.74463(15) 0.27192(9)
C2 C 0.4303(3) 0.94443(18) 0.24653(12)
H3 H 0.37440 1.00760 0.19930
H4 H 0.61080 0.95740 0.25840
C3 C 0.2782(3) 0.96408(16) 0.33243(11)
H5 H 0.39000 0.97030 0.38540
H6 H 0.17460 1.04650 0.32860
C4 C 0.2005(3) 0.53387(16) 0.20185(8)
C5 C -0.0531(2) 0.82015(13) 0.40566(9)
C6 C -0.2406(2) 0.71692(14) 0.40313(9)
H7 H -0.25010 0.65590 0.35460
C7 C -0.4102(3) 0.70644(13) 0.47270(9)
H8 H -0.53490 0.63860 0.47100
C8 C -0.3953(2) 0.79682(15) 0.54517(9)
C9 C -0.2109(2) 0.89822(15) 0.55006(9)
H9 H -0.20070 0.95740 0.59950
C10 C -0.0427(2) 0.90965(15) 0.48013(9)
H10 H 0.08040 0.97830 0.48240
C11 C 0.1026(3) 0.30085(17) 0.13967(9)
C12 C -0.0714(3) 0.1940(2) 0.14405(14)
H11 H -0.20250 0.19860 0.18520
C13 C -0.0524(4) 0.0810(3) 0.08817(18)
H12 H -0.17060 0.01020 0.09220
C14 C 0.1397(4) 0.0716(3) 0.02635(14)
H13 H 0.15000 -0.00350 -0.01240
C15 C 0.3141(4) 0.1751(3) 0.02344(12)
H14 H 0.44710 0.16860 -0.01690
C16 C 0.2991(4) 0.2902(2) 0.07901(12)
H15 H 0.42030 0.35960 0.07550
#END
