
#######################################################################
#
#                 Cambridge Crystallographic Data Centre
#                                CCDC
#
#######################################################################
#
# If this CIF has been generated from an entry in the Cambridge
# Structural Database, then it will include bibliographic, chemical,
# crystal, experimental, refinement or atomic coordinate data resulting
# from the CCDC's data processing and validation procedures.
#
#######################################################################

data_CSD_CIF_AZOMAD01
_audit_creation_date 2007-01-19
_audit_creation_method CSD-ConQuest-V1
_database_code_CSD AZOMAD01
_database_code_depnum_ccdc_archive 'CCDC 625434'
_chemical_formula_sum 'C20 H26 N2 O2'
_chemical_formula_moiety
;
C20 H26 N2 O2
;
_journal_coden_Cambridge 1096
_journal_volume 18
_journal_year 2006
_journal_page_first 3602
_journal_name_full 'Chem.Mater. '
loop_
_publ_author_name
"H.Nishimaki"
"S.Mashiyama"
"M.Yasui"
"T.Nogami"
"T.Ishida"
_chemical_name_systematic
;
Biphenyl-3,5-diyl bis(t-butyl nitroxide)
;
_chemical_melting_point 407.15
_cell_volume   3612.254
_exptl_crystal_colour 'brown'
_exptl_crystal_density_diffrn 1.2
_exptl_special_details
;
Melts with decomposition.
beta polymorph

;
_exptl_crystal_description 'block'
_exptl_crystal_preparation 'hexane'
_diffrn_ambient_temperature 100
_refine_special_details
;
One oxygen atom is disordered with occupancies 0.944:0.056.

;
#These two values have been output from a single CSD field.
_refine_ls_R_factor_gt 0.0358
_refine_ls_wR_factor_gt 0.0358
_symmetry_cell_setting monoclinic
_symmetry_space_group_name_H-M 'C 2/c'
_symmetry_Int_Tables_number 15
loop_
_symmetry_equiv_pos_site_id
_symmetry_equiv_pos_as_xyz
1 x,y,z
2 1/2+x,1/2+y,z
3 -x,y,1/2-z
4 1/2-x,1/2+y,1/2-z
5 -x,-y,-z
6 -1/2-x,-1/2-y,-z
7 x,-y,-1/2+z
8 -1/2+x,-1/2-y,-1/2+z
_cell_length_a 29.2720(19)
_cell_length_b 11.7396(7)
_cell_length_c 11.2259(7)
_cell_angle_alpha 90
_cell_angle_beta 110.548(3)
_cell_angle_gamma 90
_cell_formula_units_Z 8
loop_
_atom_type_symbol
_atom_type_radius_bond
C 0.68
H 0.23
N 0.68
O 0.68
loop_
_atom_site_label
_atom_site_type_symbol
_atom_site_fract_x
_atom_site_fract_y
_atom_site_fract_z
O1 O 0.18375(3) 0.46854(6) 0.57979(7)
N1 N 0.16138(3) 0.05350(7) 0.51334(8)
H1? H 0.14690 -0.01140 0.48300
O2 O 0.14075(3) -0.04154(7) 0.46630(7)
N2 N 0.14714(3) 0.46581(7) 0.47478(8)
C1 C 0.14105(4) 0.15333(8) 0.44468(9)
C2 C 0.15455(4) 0.26268(8) 0.49214(9)
C3 C 0.13183(3) 0.35769(8) 0.41980(9)
C4 C 0.09614(4) 0.34271(8) 0.29881(9)
C5 C 0.08268(4) 0.23273(9) 0.25176(9)
C6 C 0.10476(4) 0.13838(9) 0.32436(9)
H2 H 0.09530 0.06380 0.29250
O3? O 0.0936(7) 0.0366(16) 0.3126(17)
C7 C 0.04423(4) 0.21580(8) 0.12366(9)
C8 C 0.04985(4) 0.13081(9) 0.04259(10)
C9 C 0.01405(4) 0.11386(10) -0.07598(10)
C10 C -0.02772(4) 0.18067(10) -0.11491(10)
C11 C -0.03331(4) 0.26582(11) -0.03509(10)
C12 C 0.00271(4) 0.28357(10) 0.08341(10)
C13 C 0.20581(4) 0.04783(9) 0.63452(9)
C14 C 0.21777(4) -0.07839(10) 0.66253(11)
C15 C 0.19408(5) 0.09964(11) 0.74565(11)
C16 C 0.24921(4) 0.10641(10) 0.61398(11)
C17 C 0.12475(4) 0.57934(8) 0.42025(10)
C18 C 0.13666(4) 0.60442(10) 0.30038(11)
C19 C 0.14883(4) 0.67041(9) 0.51952(12)
C20 C 0.06988(4) 0.57873(10) 0.39625(11)
H3 H 0.1781(4) 0.2765(10) 0.5727(11)
H4 H 0.0815(4) 0.4062(11) 0.2464(11)
H5 H 0.0789(5) 0.0835(11) 0.0681(11)
H6 H 0.0184(5) 0.0531(11) -0.1306(13)
H7 H -0.0535(5) 0.1718(11) -0.1980(12)
H8 H -0.0630(5) 0.3127(12) -0.0595(12)
H9 H -0.0025(5) 0.3410(12) 0.1404(13)
H10 H 0.1908(6) -0.1161(13) 0.6772(13)
H11 H 0.2477(5) -0.0821(11) 0.7383(13)
H12 H 0.2238(5) -0.1171(13) 0.5913(14)
H13 H 0.1649(6) 0.0680(13) 0.7496(14)
H14 H 0.1893(5) 0.1829(13) 0.7384(13)
H15 H 0.2211(5) 0.0838(11) 0.8234(13)
H16 H 0.2783(5) 0.0923(12) 0.6888(13)
H17 H 0.2545(5) 0.0732(12) 0.5394(13)
H18 H 0.2441(5) 0.1881(13) 0.5999(13)
H19 H 0.1212(5) 0.5501(12) 0.2304(13)
H20 H 0.1252(5) 0.6817(13) 0.2689(13)
H21 H 0.1726(5) 0.6042(13) 0.3219(13)
H22 H 0.1352(5) 0.7432(12) 0.4839(12)
H23 H 0.1420(5) 0.6562(12) 0.6000(14)
H24 H 0.1844(6) 0.6733(12) 0.5385(13)
H25 H 0.0580(5) 0.6556(13) 0.3800(13)
H26 H 0.0637(5) 0.5508(13) 0.4707(14)
H27 H 0.0497(5) 0.5308(12) 0.3232(13)
#END
