
#######################################################################
#
#                 Cambridge Crystallographic Data Centre
#                                CCDC
#
#######################################################################
#
# If this CIF has been generated from an entry in the Cambridge
# Structural Database, then it will include bibliographic, chemical,
# crystal, experimental, refinement or atomic coordinate data resulting
# from the CCDC's data processing and validation procedures.
#
#######################################################################

data_CSD_CIF_AZONIN
_audit_creation_date 2011-12-21
_audit_creation_method CSD-ConQuest-V1
_database_code_CSD AZONIN
_database_code_depnum_ccdc_archive 'CCDC 850487'
_chemical_formula_sum 'C15 H14 N2 O6'
_chemical_formula_moiety
;
C15 H14 N2 O6
;
_journal_coeditor_code "IUCr HB6392"
_journal_coden_Cambridge 1370
_journal_volume 67
_journal_year 2011
_journal_page_first o2556
_journal_name_full 'Acta Crystallogr.,Sect.E:Struct.Rep.Online '
loop_
_publ_author_name
"S.Babu"
"C.Pathak"
"S.Uppu"
"C.Jones"
"F.R.Fronczek"
"R.M.Uppu"
_chemical_name_systematic
;
2,2'-dinitro-4,4'-(propane-2,2-diyl)diphenol
;
_chemical_name_common
;
Dinitrobisphenol A
;
_cell_volume   1440.338
_exptl_crystal_colour 'yellow'
_exptl_crystal_density_diffrn 1.468
_exptl_crystal_description 'needle'
_exptl_crystal_preparation 'ethanol'
_diffrn_ambient_temperature 90
#These two values have been output from a single CSD field.
_refine_ls_R_factor_gt 0.034
_refine_ls_wR_factor_gt 0.034
_symmetry_cell_setting triclinic
_symmetry_space_group_name_H-M 'P -1'
_symmetry_Int_Tables_number 2
loop_
_symmetry_equiv_pos_site_id
_symmetry_equiv_pos_as_xyz
1 x,y,z
2 -x,-y,-z
_cell_length_a 8.3989(5)
_cell_length_b 12.5738(7)
_cell_length_c 15.3757(9)
_cell_angle_alpha 66.967(2)
_cell_angle_beta 76.565(2)
_cell_angle_gamma 77.833(2)
_cell_formula_units_Z 4
loop_
_atom_type_symbol
_atom_type_radius_bond
C 0.68
H 0.23
N 0.68
O 0.68
loop_
_atom_site_label
_atom_site_type_symbol
_atom_site_fract_x
_atom_site_fract_y
_atom_site_fract_z
O1 O 0.22904(13) 0.58866(9) 0.48806(7)
H1 H 0.123(3) 0.5893(17) 0.4943(14)
O2 O 0.73621(11) 0.03318(7) 0.95361(6)
H2 H 0.829(2) 0.0338(15) 0.9658(12)
O3 O -0.07766(12) 0.57717(8) 0.56906(7)
O4 O -0.15232(11) 0.55090(9) 0.71963(7)
O5 O 0.97246(11) 0.12665(8) 0.96739(7)
O6 O 0.93932(12) 0.30789(8) 0.95141(9)
N1 N -0.04492(13) 0.55927(9) 0.64899(8)
N2 N 0.88736(13) 0.22431(9) 0.95078(8)
C1 C 0.25048(16) 0.56709(11) 0.57760(9)
C2 C 0.12602(15) 0.54936(10) 0.65832(9)
C3 C 0.16117(15) 0.52384(10) 0.74984(9)
H3 H 0.07430 0.51100 0.80340
C4 C 0.32013(14) 0.51728(10) 0.76286(8)
C5 C 0.44549(15) 0.53631(10) 0.68122(9)
H4 H 0.55620 0.53180 0.68860
C6 C 0.41164(16) 0.56111(11) 0.59161(9)
H5 H 0.49880 0.57440 0.53830
C7 C 0.36794(14) 0.48809(10) 0.86086(8)
C8 C 0.47801(14) 0.36988(10) 0.88453(8)
C9 C 0.63366(14) 0.35074(10) 0.90618(8)
H6 H 0.68050 0.41370 0.90540
C10 C 0.72413(14) 0.23857(10) 0.92944(8)
C11 C 0.66033(15) 0.14318(10) 0.93106(8)
C12 C 0.50322(15) 0.16441(10) 0.90675(8)
H7 H 0.45690 0.10230 0.90560
C13 C 0.41528(14) 0.2740(1) 0.88453(8)
H8 H 0.30860 0.28590 0.86860
C14 C 0.45545(14) 0.58693(10) 0.85565(9)
H9 H 0.55570 0.59330 0.80720
H10 H 0.48510 0.56970 0.91820
H11 H 0.38120 0.66070 0.83820
C15 C 0.21674(14) 0.47754(11) 0.94100(9)
H12 H 0.14250 0.55150 0.92600
H13 H 0.25310 0.45930 1.00200
H14 H 0.15820 0.41510 0.94610
O7 O 0.02131(15) -0.30550(9) 0.30590(8)
H15 H -0.080(3) -0.2877(18) 0.2880(15)
O8 O 0.33303(13) 0.14153(10) 0.57674(7)
H16 H 0.435(3) 0.1460(17) 0.5692(14)
O9 O -0.24524(14) -0.19241(10) 0.24194(8)
O10 O -0.28330(13) -0.00440(11) 0.18519(9)
O11 O 0.63606(12) 0.15267(9) 0.49364(7)
O12 O 0.71117(11) 0.15854(9) 0.34782(7)
N3 N -0.20026(14) -0.09626(11) 0.22333(9)
N4 N 0.60419(13) 0.15289(9) 0.41816(8)
C16 C 0.05818(17) -0.19784(11) 0.28560(9)
C17 C -0.04478(15) -0.09397(12) 0.24732(9)
C18 C -0.00188(15) 0.01496(11) 0.23027(8)
H17 H -0.07540 0.08380 0.20530
C19 C 0.14606(14) 0.02296(10) 0.24948(8)
C20 C 0.25088(15) -0.08150(11) 0.28611(8)
H18 H 0.35410 -0.07780 0.29940
C21 C 0.20879(17) -0.18877(11) 0.30335(9)
H19 H 0.28330 -0.25730 0.32760
C22 C 0.20487(14) 0.13939(10) 0.22818(8)
C23 C 0.24781(15) 0.13806(10) 0.32030(8)
C24 C 0.40497(15) 0.14409(10) 0.32903(9)
H20 H 0.49280 0.14740 0.27680
C25 C 0.43654(15) 0.14534(10) 0.41427(9)
C26 C 0.31108(16) 0.14011(11) 0.49325(9)
C27 C 0.15235(16) 0.13151(11) 0.48457(9)
H21 H 0.06460 0.12640 0.53710
C28 C 0.12238(15) 0.13041(11) 0.40085(9)
H22 H 0.01360 0.12430 0.39700
C29 C 0.07223(16) 0.24398(11) 0.19345(9)
H23 H -0.02810 0.23480 0.24190
H24 H 0.04690 0.24770 0.13320
H25 H 0.11330 0.31610 0.18320
C30 C 0.35372(16) 0.15349(11) 0.14636(9)
H26 H 0.39340 0.22790 0.13050
H27 H 0.32030 0.15230 0.08980
H28 H 0.44230 0.08930 0.16660
#END
