
#######################################################################
#
#                 Cambridge Crystallographic Data Centre
#                                CCDC
#
#######################################################################
#
# If this CIF has been generated from an entry in the Cambridge
# Structural Database, then it will include bibliographic, chemical,
# crystal, experimental, refinement or atomic coordinate data resulting
# from the CCDC's data processing and validation procedures.
#
#######################################################################

data_CSD_CIF_AZOXPH04
_audit_creation_date 1989-07-10
_audit_creation_method CSD-ConQuest-V1
_database_code_CSD AZOXPH04
_chemical_formula_sum 'C16 H18 N2 O3'
_chemical_formula_moiety
;
C16 H18 N2 O3
;
_journal_coeditor_code "IUCr HP0476"
_journal_coden_Cambridge 591
_journal_volume 44
_journal_year 1988
_journal_page_first 1089
_journal_name_full 'Acta Crystallogr.,Sect.C:Cryst.Struct.Commun. '
loop_
_publ_author_name
"Ph.Sciau"
"J.Lapasset"
"J.Moret"
_chemical_name_systematic
;
4,4'-Diethoxyazoxybenzene
;
_chemical_name_common
;
4,4'-Azoxydiphenetole
;
_cell_volume    751.388
_exptl_crystal_density_diffrn 1.265
_exptl_special_details
;
triclinic polymorph
An irreversible phase transition occurs at about 365K

;
_diffrn_ambient_temperature ?
_diffrn_special_details
;
The study was carried out at room temperature,in the range 283-303K

;
_refine_special_details
;
The azoxy O atom is disordered over two positions of equal occupancy.

;
#These two values have been output from a single CSD field.
_refine_ls_R_factor_gt 0.07
_refine_ls_wR_factor_gt 0.07
_symmetry_cell_setting triclinic
_symmetry_space_group_name_H-M 'P -1'
_symmetry_Int_Tables_number 2
loop_
_symmetry_equiv_pos_site_id
_symmetry_equiv_pos_as_xyz
1 x,y,z
2 -x,-y,-z
_cell_length_a 9.014(4)
_cell_length_b 9.557(4)
_cell_length_c 9.861(6)
_cell_angle_alpha 117.46(8)
_cell_angle_beta 86.78(5)
_cell_angle_gamma 94.36(8)
_cell_formula_units_Z 2
loop_
_atom_type_symbol
_atom_type_radius_bond
C 0.68
H 0.23
N 0.68
O 0.68
loop_
_atom_site_label
_atom_site_type_symbol
_atom_site_fract_x
_atom_site_fract_y
_atom_site_fract_z
N1 N -0.0510(3) 0.0488(3) 0.0285(3)
C1 C -0.1205(3) 0.0666(3) 0.1698(3)
C2 C -0.2170(3) 0.1877(4) 0.2354(3)
C3 C -0.2892(3) 0.2186(3) 0.3698(3)
C4 C -0.2697(3) 0.1286(3) 0.4441(3)
C5 C -0.1743(3) 0.0047(3) 0.3777(3)
C6 C -0.1022(3) -0.0257(3) 0.2412(3)
O1 O -0.3452(2) 0.1706(3) 0.5774(2)
C7 C -0.3290(4) 0.0815(5) 0.6595(4)
C8 C -0.4208(6) 0.1592(6) 0.8062(5)
H1 H -0.23510 0.25870 0.17820
H2 H -0.36300 0.31500 0.42070
H3 H -0.15720 -0.06650 0.43410
H4 H -0.03130 -0.12400 0.18860
H5 H -0.36920 -0.03870 0.59230
H6 H -0.41240 0.09480 0.87180
H7 H -0.53610 0.15490 0.77890
H8 H -0.38050 0.27940 0.87210
N2 N -0.0664(4) 0.5118(3) 0.0154(3)
C9 C -0.1190(4) 0.5563(3) 0.1707(3)
C10 C -0.2709(4) 0.5608(4) 0.1908(3)
C11 C -0.3360(3) 0.5992(4) 0.3300(3)
C12 C -0.2502(3) 0.6360(3) 0.4559(3)
C13 C -0.0958(3) 0.6371(3) 0.4388(3)
C14 C -0.0317(4) 0.5981(4) 0.2965(4)
O2 O -0.3267(2) 0.6692(3) 0.5883(2)
C15 C -0.2464(4) 0.7145(5) 0.7238(4)
C16 C -0.3568(6) 0.7429(6) 0.8518(4)
H9 H -0.33990 0.53410 0.09470
H10 H -0.45560 0.60110 0.34260
H11 H -0.02730 0.66800 0.53660
H12 H 0.08810 0.60150 0.28330
H13 H -0.17720 0.62140 0.70980
H14 H -0.29930 0.77840 0.95650
H15 H -0.42570 0.63700 0.82600
H16 H -0.42640 0.83650 0.86520
O3? O -0.1108(6) 0.1499(6) -0.0332(5)
O4? O -0.1903(5) 0.4973(8) -0.0935(5)
H17? H -0.21370 -0.08580 0.68550
H18? H -0.17790 0.82090 0.07490
N1A N 0.0510(3) -0.0488(3) -0.0285(3)
C1A C 0.1205(3) -0.0666(3) -0.1698(3)
C2A C 0.2170(3) -0.1877(4) -0.2354(3)
C3A C 0.2892(3) -0.2186(3) -0.3698(3)
C4A C 0.2697(3) -0.1286(3) -0.4441(3)
C5A C 0.1743(3) -0.0047(3) -0.3777(3)
C6A C 0.1022(3) 0.0257(3) -0.2412(3)
H4A H 0.03130 0.12400 -0.18860
H3A H 0.15720 0.06650 -0.43410
O1A O 0.3452(2) -0.1706(3) -0.5774(2)
C7A C 0.3290(4) -0.0815(5) -0.6595(4)
C8A C 0.4208(6) -0.1592(6) -0.8062(5)
H6A H 0.41240 -0.09480 -0.87180
H7A H 0.53610 -0.15490 -0.77890
H8A H 0.38050 -0.27940 -0.87210
H5A H 0.36920 0.03870 -0.59230
H2A H 0.36300 -0.31500 -0.42070
H1A H 0.23510 -0.25870 -0.17820
N2A N 0.0664(4) 0.4882(3) -0.0154(3)
C9A C 0.1190(4) 0.4437(3) -0.1707(3)
C10A C 0.2709(4) 0.4392(4) -0.1908(3)
C11A C 0.3360(3) 0.4008(4) -0.3300(3)
C12A C 0.2502(3) 0.3640(3) -0.4559(3)
C13A C 0.0958(3) 0.3629(3) -0.4388(3)
C14A C 0.0317(4) 0.4019(4) -0.2965(4)
H12A H -0.08810 0.39850 -0.28330
H11A H 0.02730 0.33200 -0.53660
O2A O 0.3267(2) 0.3308(3) -0.5883(2)
C15A C 0.2464(4) 0.2855(5) -0.7238(4)
C16A C 0.3568(6) 0.2571(6) -0.8518(4)
H14A H 0.29930 0.22160 -0.95650
H15A H 0.42570 0.36300 -0.82600
H16A H 0.42640 0.16350 -0.86520
H13A H 0.17720 0.37860 -0.70980
H10A H 0.45560 0.39890 -0.34260
H9A H 0.33990 0.46590 -0.09470
#END
