
#######################################################################
#
#                 Cambridge Crystallographic Data Centre
#                                CCDC
#
#######################################################################
#
# If this CIF has been generated from an entry in the Cambridge
# Structural Database, then it will include bibliographic, chemical,
# crystal, experimental, refinement or atomic coordinate data resulting
# from the CCDC's data processing and validation procedures.
#
#######################################################################

data_CSD_CIF_AZPYRO
_audit_creation_date 1971-12-31
_audit_creation_method CSD-ConQuest-V1
_database_code_CSD AZPYRO
_chemical_formula_sum 'C10 H8 N4 O2'
_chemical_formula_moiety
;
C10 H8 N4 O2
;
_journal_coeditor_code "IUCr A02640"
_journal_coden_Cambridge 1
_journal_volume 12
_journal_year 1959
_journal_page_first 746
_journal_name_full 'Acta Crystallogr. '
loop_
_publ_author_name
"E.L.Eichhorn"
_chemical_name_systematic
;
trans-4,4'-Azopyridine N-oxide
;
_cell_volume    476.795
_exptl_crystal_density_diffrn 1.504
_diffrn_ambient_temperature 263.15
#These two values have been output from a single CSD field.
_refine_ls_R_factor_gt 0.152
_refine_ls_wR_factor_gt 0.152
loop_
_citation_database_id_CSD
_citation_special_details
ZZZGBQ "is a stereoisomer of this entry"
_symmetry_cell_setting monoclinic
_symmetry_space_group_name_H-M 'P 21/c'
_symmetry_Int_Tables_number 14
loop_
_symmetry_equiv_pos_site_id
_symmetry_equiv_pos_as_xyz
1 x,y,z
2 -x,1/2+y,1/2-z
3 -x,-y,-z
4 x,-1/2-y,-1/2+z
_cell_length_a 4.56(2)
_cell_length_b 11.75(2)
_cell_length_c 9.75(2)
_cell_angle_alpha 90
_cell_angle_beta 114.12(5)
_cell_angle_gamma 90
_cell_formula_units_Z 2
loop_
_atom_type_symbol
_atom_type_radius_bond
C 0.68
N 0.68
O 0.68
loop_
_atom_site_label
_atom_site_type_symbol
_atom_site_fract_x
_atom_site_fract_y
_atom_site_fract_z
O1 O -0.46420 0.15030 0.43730
N1 N -0.36120 0.10740 0.34400
C1 C -0.30970 -0.00580 0.34140
C2 C -0.19390 -0.04940 0.24330
C3 C -0.13780 0.01950 0.14170
C4 C -0.20320 0.13440 0.14280
C5 C -0.30850 0.17630 0.24370
N2 N -0.01720 -0.03270 0.04540
N2B N 0.01720 0.03270 -0.04540
C3B C 0.13780 -0.01950 -0.14170
C2B C 0.19390 0.04940 -0.24330
C4B C 0.20320 -0.13440 -0.14280
C1B C 0.30970 0.00580 -0.34140
C5B C 0.30850 -0.17630 -0.24370
N1B N 0.36120 -0.10740 -0.34400
O1B O 0.46420 -0.15030 -0.43730
#END
