
#######################################################################
#
#                 Cambridge Crystallographic Data Centre
#                                CCDC
#
#######################################################################
#
# If this CIF has been generated from an entry in the Cambridge
# Structural Database, then it will include bibliographic, chemical,
# crystal, experimental, refinement or atomic coordinate data resulting
# from the CCDC's data processing and validation procedures.
#
#######################################################################

data_CSD_CIF_AZUCOO
_audit_creation_date 2011-11-29
_audit_creation_method CSD-ConQuest-V1
_database_code_CSD AZUCOO
_database_code_depnum_ccdc_archive 'CCDC 850549'
_chemical_formula_sum 'C24 H18 N2 O6'
_chemical_formula_moiety
;
C24 H18 N2 O6
;
_journal_coeditor_code "IUCr BT5623"
_journal_coden_Cambridge 1370
_journal_volume 67
_journal_year 2011
_journal_page_first o2630
_journal_name_full 'Acta Crystallogr.,Sect.E:Struct.Rep.Online '
loop_
_publ_author_name
"P.Prabhakaran"
"V.G.Puranik"
"G.J.Sanjayan"
_chemical_name_systematic
;
1,8-bis(4-Methoxy-3-nitrophenyl)naphthalene
;
_chemical_melting_point 494
_cell_volume   4033.061
_exptl_crystal_colour 'yellow'
_exptl_crystal_density_diffrn 1.418
_exptl_crystal_description 'needle'
_exptl_crystal_preparation 'ethyl acetate/light petroleum ether'
_diffrn_ambient_temperature 293
#These two values have been output from a single CSD field.
_refine_ls_R_factor_gt 0.0348
_refine_ls_wR_factor_gt 0.0348
_symmetry_cell_setting tetragonal
_symmetry_space_group_name_H-M 'I 41 c d'
_symmetry_Int_Tables_number 110
loop_
_symmetry_equiv_pos_site_id
_symmetry_equiv_pos_as_xyz
1 x,y,z
2 1/2-x,1/2-y,1/2+z
3 -y,1/2+x,1/4+z
4 1/2+y,-x,3/4+z
5 x,-y,1/2+z
6 1/2-x,1/2+y,z
7 -y,1/2-x,3/4+z
8 1/2+y,x,1/4+z
9 1/2+x,1/2+y,1/2+z
10 -x,-y,z
11 1/2-y,x,3/4+z
12 y,1/2-x,1/4+z
13 1/2+x,1/2-y,z
14 -x,y,1/2+z
15 1/2-y,-x,1/4+z
16 y,1/2+x,3/4+z
_cell_length_a 13.3038(9)
_cell_length_b 13.3038(9)
_cell_length_c 22.7868(11)
_cell_angle_alpha 90
_cell_angle_beta 90
_cell_angle_gamma 90
_cell_formula_units_Z 8
loop_
_atom_type_symbol
_atom_type_radius_bond
C 0.68
H 0.23
N 0.68
O 0.68
loop_
_atom_site_label
_atom_site_type_symbol
_atom_site_fract_x
_atom_site_fract_y
_atom_site_fract_z
N1 N 0.82311(12) 0.58354(11) 0.35152(7)
O1 O 0.76244(14) 0.63612(12) 0.32705(7)
O2 O 0.85433(18) 0.60222(14) 0.40005(7)
O3 O 0.86899(11) 0.40341(10) 0.40686(6)
C1 C 0.92726(13) 0.43673(14) 0.16094(8)
C2 C 0.86451(15) 0.37792(16) 0.12783(10)
H1 H 0.81880 0.33650 0.14700
C3 C 0.86637(18) 0.37761(19) 0.0663(1)
H2 H 0.82320 0.33620 0.04520
C4 C 1.06781(17) 0.56135(18) 0.03803(9)
H3 H 1.06750 0.56000 -0.00280
C5 C 1.00000 0.50000 0.06919(11)
C6 C 1.00000 0.50000 0.13242(11)
C7 C 0.91362(12) 0.42884(13) 0.22606(7)
C8 C 0.87701(11) 0.50813(12) 0.25959(7)
H4 H 0.86170 0.56890 0.24160
C9 C 0.86311(12) 0.49760(12) 0.31946(7)
C10 C 0.88427(12) 0.40744(13) 0.34828(8)
C11 C 0.91814(14) 0.32758(13) 0.31419(9)
H5 H 0.93170 0.26600 0.33180
C12 C 0.93181(13) 0.33873(14) 0.25471(8)
H6 H 0.95400 0.28390 0.23300
C13 C 0.89059(19) 0.31077(18) 0.43594(9)
H7 H 0.84900 0.25850 0.42000
H8 H 0.87720 0.31770 0.47710
H9 H 0.96010 0.29380 0.43020
N1I N 1.17689(12) 0.41646(11) 0.35152(7)
O1I O 1.23756(14) 0.36388(12) 0.32705(7)
O2I O 1.14567(18) 0.39778(14) 0.40005(7)
O3I O 1.13101(11) 0.59659(10) 0.40686(6)
C1I C 1.07274(13) 0.56327(14) 0.16094(8)
C2I C 1.13549(15) 0.62208(16) 0.12783(10)
H1I H 1.18120 0.66350 0.14700
C3I C 1.13363(18) 0.62239(19) 0.0663(1)
H2I H 1.17680 0.66380 0.04520
C4I C 0.93219(17) 0.43865(18) 0.03803(9)
H3I H 0.93250 0.44000 -0.00280
C7I C 1.08638(12) 0.57116(13) 0.22606(7)
C8I C 1.12299(11) 0.49187(12) 0.25959(7)
H4I H 1.13830 0.43110 0.24160
C9I C 1.13689(12) 0.50240(12) 0.31946(7)
C10I C 1.11573(12) 0.59256(13) 0.34828(8)
C11I C 1.08186(14) 0.67242(13) 0.31419(9)
H5I H 1.06830 0.73400 0.33180
C12I C 1.06819(13) 0.66127(14) 0.25471(8)
H6I H 1.04600 0.71610 0.23300
C13I C 1.10941(19) 0.68923(18) 0.43594(9)
H7I H 1.15100 0.74150 0.42000
H8I H 1.12280 0.68230 0.47710
H9I H 1.03990 0.70620 0.43020
#END
