
#######################################################################
#
#                 Cambridge Crystallographic Data Centre
#                                CCDC
#
#######################################################################
#
# If this CIF has been generated from an entry in the Cambridge
# Structural Database, then it will include bibliographic, chemical,
# crystal, experimental, refinement or atomic coordinate data resulting
# from the CCDC's data processing and validation procedures.
#
#######################################################################

data_CSD_CIF_AZUVEX
_audit_creation_date 2011-11-21
_audit_creation_method CSD-ConQuest-V1
_database_code_CSD AZUVEX
_database_code_depnum_ccdc_archive 'CCDC 850622'
_chemical_formula_sum 'C10 H17 N1 O1'
_chemical_formula_moiety
;
C10 H17 N1 O1
;
_journal_coeditor_code "IUCr ZS2144"
_journal_coden_Cambridge 1370
_journal_volume 67
_journal_year 2011
_journal_page_first o2732
_journal_name_full 'Acta Crystallogr.,Sect.E:Struct.Rep.Online '
loop_
_publ_author_name
"R.Parthasarathy"
"S.J.Jenniefer"
"P.T.Muthiah"
"N.Sulochana"
_chemical_name_systematic
;
N-Hydroxy-1-(2,6,6-trimethylcyclohex-1-en-1-yl)methanimine
;
_chemical_name_common
;
2,6,6-Trimethylcyclohexene-1-carbaldehyde oxime
;
_cell_volume    499.429
_exptl_crystal_colour 'colorless'
_exptl_crystal_density_diffrn 1.112
_exptl_crystal_description 'prism'
_diffrn_ambient_temperature 296
#These two values have been output from a single CSD field.
_refine_ls_R_factor_gt 0.0533
_refine_ls_wR_factor_gt 0.0533
_symmetry_cell_setting triclinic
_symmetry_space_group_name_H-M 'P -1'
_symmetry_Int_Tables_number 2
loop_
_symmetry_equiv_pos_site_id
_symmetry_equiv_pos_as_xyz
1 x,y,z
2 -x,-y,-z
_cell_length_a 7.5670(3)
_cell_length_b 7.7208(3)
_cell_length_c 9.3072(4)
_cell_angle_alpha 81.212(3)
_cell_angle_beta 76.590(3)
_cell_angle_gamma 71.385(3)
_cell_formula_units_Z 2
loop_
_atom_type_symbol
_atom_type_radius_bond
C 0.68
H 0.23
N 0.68
O 0.68
loop_
_atom_site_label
_atom_site_type_symbol
_atom_site_fract_x
_atom_site_fract_y
_atom_site_fract_z
O1 O 0.60371(16) -0.14350(15) 0.37650(16)
N1 N 0.67895(14) 0.00174(14) 0.37695(13)
C1 C 0.94463(15) 0.11492(15) 0.25083(13)
C2 C 1.12581(16) 0.05523(17) 0.17581(14)
C3 C 1.26022(18) 0.1703(2) 0.1444(2)
C4 C 1.1923(2) 0.3358(2) 0.2335(2)
C5 C 0.9848(2) 0.42925(19) 0.2342(2)
C6 C 0.85762(15) 0.30698(15) 0.30624(14)
C7 C 0.83019(17) -0.01188(16) 0.27932(16)
C8 C 1.2169(2) -0.1322(2) 0.11773(18)
C9 C 0.8338(2) 0.2967(2) 0.47500(17)
C10 C 0.66297(19) 0.40088(18) 0.26268(19)
H1 H 0.509(3) -0.126(3) 0.450(3)
H2 H 1.27880 0.21180 0.03980
H3 H 1.38250 0.09430 0.16530
H4 H 1.21150 0.29760 0.33440
H5 H 1.26500 0.42070 0.19030
H6 H 0.96760 0.46760 0.13290
H7 H 0.94450 0.53850 0.28720
H8 H 0.866(2) -0.116(2) 0.2260(19)
H9 H 1.29070 -0.21220 0.18590
H10 H 1.29810 -0.12140 0.02290
H11 H 1.11960 -0.18180 0.10750
H12 H 0.75450 0.22010 0.52080
H13 H 0.77580 0.41760 0.50780
H14 H 0.95610 0.24580 0.50220
H15 H 0.57850 0.32850 0.30550
H16 H 0.67810 0.41230 0.15670
H17 H 0.61080 0.52050 0.29870
#END
