
#######################################################################
#
#                 Cambridge Crystallographic Data Centre
#                                CCDC
#
#######################################################################
#
# If this CIF has been generated from an entry in the Cambridge
# Structural Database, then it will include bibliographic, chemical,
# crystal, experimental, refinement or atomic coordinate data resulting
# from the CCDC's data processing and validation procedures.
#
#######################################################################

data_CSD_CIF_AZUYOJ
_audit_creation_date 2004-11-10
_audit_creation_method CSD-ConQuest-V1
_database_code_CSD AZUYOJ
_database_code_depnum_ccdc_archive 'CCDC 226044'
_chemical_formula_sum 'C18 H17 N1 O5'
_chemical_formula_moiety
;
C18 H17 N1 O5
;
_journal_coden_Cambridge 35
_journal_volume 69
_journal_year 2004
_journal_page_first 4477
_journal_name_full 'J.Org.Chem. '
loop_
_publ_author_name
"G.F.Busscher"
"S.Groothuys"
"R.de Gelder"
"F.P.J.T.Rutjes"
"F.L.van Delft"
_chemical_name_systematic
;
(+-)-2-Oxo-2-((1R*,2R*,3R*,4S*,6R*,7R*,8R*)-tetracyclo(4.3.0.0^2,4^.0^3,8^)non
-7-yl)ethyl 4-nitrobenzoate
;
_cell_volume   3082.015
_exptl_crystal_colour 'colorless'
_exptl_crystal_density_diffrn 1.411
_exptl_crystal_description 'regular platelet'
_diffrn_ambient_temperature 208
#These two values have been output from a single CSD field.
_refine_ls_R_factor_gt 0.0685
_refine_ls_wR_factor_gt 0.0685
_symmetry_cell_setting monoclinic
_symmetry_space_group_name_H-M 'C 2/c'
_symmetry_Int_Tables_number 15
loop_
_symmetry_equiv_pos_site_id
_symmetry_equiv_pos_as_xyz
1 x,y,z
2 1/2+x,1/2+y,z
3 x,-y,1/2+z
4 1/2+x,1/2-y,1/2+z
5 -x,-y,-z
6 -1/2-x,-1/2-y,-z
7 -x,y,-1/2-z
8 -1/2-x,-1/2+y,-1/2-z
_cell_length_a 41.943(3)
_cell_length_b 7.1885(6)
_cell_length_c 10.2993(8)
_cell_angle_alpha 90
_cell_angle_beta 97.023(7)
_cell_angle_gamma 90
_cell_formula_units_Z 8
loop_
_atom_type_symbol
_atom_type_radius_bond
C 0.68
H 0.23
N 0.68
O 0.68
loop_
_atom_site_label
_atom_site_type_symbol
_atom_site_fract_x
_atom_site_fract_y
_atom_site_fract_z
O1 O 0.14901(4) 0.2205(3) 0.63547(18)
O2 O 0.08886(5) 0.1461(3) 0.6757(2)
O3 O 0.16060(5) -0.0220(3) 0.7689(2)
O4 O 0.24884(6) 0.5861(3) 1.1899(2)
O5 O 0.22349(5) 0.8169(3) 1.0919(2)
N1 N 0.22914(6) 0.6508(3) 1.1051(2)
C1 C 0.13054(8) 0.0972(6) 0.5464(3)
H1 H 0.1427(8) -0.030(5) 0.541(3)
H2 H 0.1293(8) 0.162(5) 0.465(3)
C2 C 0.09771(7) 0.0629(4) 0.5855(3)
C3 C 0.16228(6) 0.1413(4) 0.7472(3)
C4 C 0.17900(6) 0.2791(4) 0.8388(2)
C5 C 0.17676(7) 0.4706(4) 0.8172(3)
H3 H 0.1642(7) 0.518(4) 0.745(3)
C6 C 0.19300(7) 0.5924(4) 0.9041(3)
H4 H 0.1910(7) 0.724(5) 0.887(3)
C7 C 0.21142(6) 0.5209(4) 1.0125(2)
C8 C 0.21385(7) 0.3328(4) 1.0384(3)
H5 H 0.2262(6) 0.294(4) 1.113(3)
C9 C 0.19755(7) 0.2125(4) 0.9510(3)
H6 H 0.1987(8) 0.080(5) 0.964(3)
C10 C 0.05127(11) -0.3775(7) 0.4968(5)
H7 H 0.0529(12) -0.483(8) 0.464(5)
C11 C 0.03705(15) -0.3658(7) 0.6235(5)
H8 H 0.0186(13) -0.442(8) 0.646(5)
C12 C 0.03661(12) -0.1532(7) 0.6367(4)
H9 H 0.0194(12) -0.076(7) 0.688(5)
C13 C 0.05859(16) -0.2652(7) 0.7188(5)
H10 H 0.0530(15) -0.241(9) 0.817(7)
C14 C 0.09156(15) -0.3102(7) 0.6782(5)
H11 H 0.09810 -0.43800 0.70150
H12 H 0.10800 -0.22370 0.71780
C15 C 0.08515(11) -0.2844(6) 0.5288(5)
H13 H 0.0958(10) -0.304(6) 0.470(4)
C16 C 0.07745(8) -0.0731(5) 0.5018(3)
H14 H 0.0792(9) -0.044(5) 0.414(4)
C17 C 0.04259(9) -0.0746(6) 0.5121(4)
H15 H 0.0275(13) 0.064(8) 0.488(5)
C18 C 0.03163(11) -0.2301(7) 0.4152(5)
H16 H 0.0353(14) -0.183(8) 0.320(6)
H17 H 0.0073(11) -0.249(6) 0.419(4)
#END
