
#######################################################################
#
#                 Cambridge Crystallographic Data Centre
#                                CCDC
#
#######################################################################
#
# If this CIF has been generated from an entry in the Cambridge
# Structural Database, then it will include bibliographic, chemical,
# crystal, experimental, refinement or atomic coordinate data resulting
# from the CCDC's data processing and validation procedures.
#
#######################################################################

data_CSD_CIF_AZUYUP
_audit_creation_date 2004-11-10
_audit_creation_method CSD-ConQuest-V1
_database_code_CSD AZUYUP
_database_code_depnum_ccdc_archive 'CCDC 226045'
_chemical_formula_sum 'C18 H17 N1 O5'
_chemical_formula_moiety
;
C18 H17 N1 O5
;
_journal_coden_Cambridge 35
_journal_volume 69
_journal_year 2004
_journal_page_first 4477
_journal_name_full 'J.Org.Chem. '
loop_
_publ_author_name
"G.F.Busscher"
"S.Groothuys"
"R.de Gelder"
"F.P.J.T.Rutjes"
"F.L.van Delft"
_chemical_name_systematic
;
(+-)-(1S*,2R*,4R*,6R*,7R*,8S*,9R*)-10-Oxotetracyclo(5.3.1.0^2,6^.0^4,8^)undec-
9-yl 4-nitrobenzoate
;
_cell_volume   1532.273
_exptl_crystal_colour 'colorless'
_exptl_crystal_density_diffrn 1.419
_exptl_crystal_description 'regular platelet'
_diffrn_ambient_temperature 208
#These two values have been output from a single CSD field.
_refine_ls_R_factor_gt 0.0608
_refine_ls_wR_factor_gt 0.0608
_symmetry_cell_setting triclinic
_symmetry_space_group_name_H-M 'P -1'
_symmetry_Int_Tables_number 2
loop_
_symmetry_equiv_pos_site_id
_symmetry_equiv_pos_as_xyz
1 x,y,z
2 -x,-y,-z
_cell_length_a 7.0838(4)
_cell_length_b 14.5357(7)
_cell_length_c 16.0758(9)
_cell_angle_alpha 71.249(5)
_cell_angle_beta 78.019(5)
_cell_angle_gamma 84.231(5)
_cell_formula_units_Z 4
loop_
_atom_type_symbol
_atom_type_radius_bond
C 0.68
H 0.23
N 0.68
O 0.68
loop_
_atom_site_label
_atom_site_type_symbol
_atom_site_fract_x
_atom_site_fract_y
_atom_site_fract_z
O1 O -0.1862(2) 0.18563(12) 0.01705(11)
O2 O 0.0832(2) 0.26711(11) 0.06705(10)
O3 O 0.0418(2) 0.34676(12) 0.16845(11)
O4 O 0.4936(3) 0.73132(14) -0.17030(14)
O5 O 0.5443(3) 0.64339(15) -0.25833(13)
N1 N 0.4801(3) 0.65528(16) -0.18559(15)
C1 C -0.1415(3) 0.03181(18) 0.12798(16)
H1 H -0.235(3) 0.0087(15) 0.1025(14)
C2 C 0.0618(3) -0.02181(17) 0.11699(16)
H2 H 0.061(3) -0.0706(17) 0.0917(14)
C3 C 0.2229(4) 0.04873(19) 0.06015(16)
H3 H 0.335(4) 0.0151(18) 0.0295(16)
H4 H 0.178(3) 0.1081(18) 0.0139(15)
C4 C 0.2894(4) 0.07662(18) 0.13277(16)
H5 H 0.392(3) 0.1177(16) 0.1105(14)
C5 C 0.3258(4) -0.02416(19) 0.19603(19)
H6 H 0.356(3) -0.0236(17) 0.2544(16)
H7 H 0.419(3) -0.0640(18) 0.1678(15)
C6 C 0.1193(3) -0.05502(18) 0.21100(16)
H8 H 0.090(3) -0.1232(18) 0.2472(15)
C7 C 0.0023(4) 0.02106(17) 0.24908(16)
H9 H 0.008(3) 0.0081(16) 0.3080(16)
C8 C 0.1130(3) 0.11551(17) 0.18881(15)
H10 H 0.157(3) 0.1488(17) 0.2237(15)
C9 C -0.0194(3) 0.18655(16) 0.13266(15)
H11 H -0.118(3) 0.2128(15) 0.1707(13)
C10 C -0.1223(3) 0.13874(17) 0.08321(15)
C11 C -0.1960(4) 0.0183(2) 0.22865(17)
H12 H -0.294(3) 0.0656(18) 0.2455(15)
H13 H -0.251(4) -0.046(2) 0.2613(16)
C12 C 0.1032(3) 0.34350(16) 0.09372(15)
C13 C 0.2054(3) 0.42296(16) 0.02011(14)
C14 C 0.2222(3) 0.50993(17) 0.03630(16)
H14 H 0.167(4) 0.5146(19) 0.0961(18)
C15 C 0.3119(3) 0.58718(18) -0.03096(16)
H15 H 0.323(4) 0.647(2) -0.0201(16)
C16 C 0.3844(3) 0.57441(16) -0.11315(15)
C17 C 0.3700(3) 0.48944(18) -0.13132(16)
H16 H 0.420(3) 0.4848(16) -0.1897(15)
C18 C 0.2786(3) 0.41343(18) -0.06378(16)
H17 H 0.262(3) 0.3577(18) -0.0755(15)
O6 O -0.3425(3) 0.43852(14) 0.45352(12)
O7 O 0.0283(2) 0.43884(11) 0.35441(10)
O8 O -0.1094(2) 0.54374(12) 0.24520(11)
O9 O 0.7245(3) 0.80001(15) 0.15141(13)
O10 O 0.7259(3) 0.75650(15) 0.29207(13)
N2 N 0.6582(3) 0.75514(15) 0.22867(15)
C19 C -0.3362(4) 0.2634(2) 0.49825(17)
H18 H -0.457(4) 0.2673(18) 0.5361(17)
C20 C -0.1795(4) 0.20985(19) 0.55615(17)
H19 H -0.243(3) 0.1834(18) 0.6201(17)
C21 C -0.0108(4) 0.2747(2) 0.54277(18)
H20 H -0.047(3) 0.341(2) 0.5332(16)
H21 H 0.050(3) 0.2540(18) 0.5953(17)
C22 C 0.1263(4) 0.25098(19) 0.46581(17)
H22 H 0.248(4) 0.2825(17) 0.4458(15)
C23 C 0.1371(4) 0.1405(2) 0.5032(2)
H23 H 0.186(4) 0.119(2) 0.563(2)
H24 H 0.207(4) 0.106(2) 0.461(2)
C24 C -0.0807(4) 0.1306(2) 0.51382(18)
H25 H -0.126(4) 0.064(2) 0.5422(17)
C25 C -0.1157(4) 0.17770(19) 0.41863(18)
H26 H -0.076(4) 0.1354(19) 0.3799(17)
C26 C 0.0176(3) 0.26730(18) 0.38713(16)
H27 H 0.108(3) 0.2699(16) 0.3322(15)
C27 C -0.0999(3) 0.36234(17) 0.36718(16)
H28 H -0.154(3) 0.3755(15) 0.3145(14)
C28 C -0.2708(3) 0.36349(19) 0.44266(15)
C29 C -0.3292(4) 0.2060(2) 0.4331(2)
H29 H -0.398(4) 0.148(2) 0.4606(17)
H30 H -0.381(4) 0.2470(19) 0.3776(18)
C30 C 0.0146(3) 0.52305(17) 0.28951(14)
C31 C 0.1784(3) 0.58540(16) 0.27739(15)
C32 C 0.2107(4) 0.66534(17) 0.20115(16)
H31 H 0.132(3) 0.6821(17) 0.1589(16)
C33 C 0.3695(4) 0.72086(18) 0.18376(16)
H32 H 0.400(3) 0.7729(18) 0.1317(16)
C34 C 0.4885(3) 0.69704(16) 0.24603(15)
C35 C 0.4576(4) 0.62047(17) 0.32342(16)
H33 H 0.540(3) 0.6061(16) 0.3641(15)
C36 C 0.3013(3) 0.56331(18) 0.33886(16)
H34 H 0.283(3) 0.5086(17) 0.3915(15)
#END
