
#######################################################################
#
#                 Cambridge Crystallographic Data Centre
#                                CCDC
#
#######################################################################
#
# If this CIF has been generated from an entry in the Cambridge
# Structural Database, then it will include bibliographic, chemical,
# crystal, experimental, refinement or atomic coordinate data resulting
# from the CCDC's data processing and validation procedures.
#
#######################################################################

data_CSD_CIF_BABRIF
_audit_creation_date 1982-02-03
_audit_creation_method CSD-ConQuest-V1
_database_code_CSD BABRIF
_chemical_formula_sum 'C8 H5 N3 O4'
_chemical_formula_moiety
;
C8 H5 N3 O4
;
_journal_coden_Cambridge 188
_journal_year 1981
_journal_page_first 1240
_journal_name_full 'J.Chem.Soc.,Perkin Trans.2 '
loop_
_publ_author_name
"R.Calvino"
"A.Gasco"
"A.Serafino"
"D.Viterbo"
_chemical_name_systematic
;
3-Nitro-4-phenylfuroxan
;
_cell_volume   1783.418
_exptl_crystal_density_diffrn 1.543
_diffrn_ambient_temperature ?
_diffrn_special_details
;
The study was carried out at room temperature,in the range 283-303K

;
#These two values have been output from a single CSD field.
_refine_ls_R_factor_gt 0.067
_refine_ls_wR_factor_gt 0.067
_symmetry_cell_setting orthorhombic
_symmetry_space_group_name_H-M 'P b c a'
_symmetry_Int_Tables_number 61
loop_
_symmetry_equiv_pos_site_id
_symmetry_equiv_pos_as_xyz
1 x,y,z
2 1/2-x,1/2+y,z
3 x,1/2-y,1/2+z
4 1/2-x,-y,1/2+z
5 -x,-y,-z
6 -1/2+x,-1/2-y,-z
7 -x,-1/2+y,-1/2-z
8 -1/2+x,y,-1/2-z
_cell_length_a 19.142(2)
_cell_length_b 15.301(2)
_cell_length_c 6.089(1)
_cell_angle_alpha 90
_cell_angle_beta 90
_cell_angle_gamma 90
_cell_formula_units_Z 8
loop_
_atom_type_symbol
_atom_type_radius_bond
C 0.68
H 0.23
N 0.68
O 0.68
loop_
_atom_site_label
_atom_site_type_symbol
_atom_site_fract_x
_atom_site_fract_y
_atom_site_fract_z
C1 C 0.32300 0.35700 0.41650
C2 C 0.26880 0.37860 0.56360
C3 C 0.39860 0.36980 0.43470
C4 C 0.43500 0.40550 0.26150
C5 C 0.50650 0.41200 0.26840
C6 C 0.54250 0.38050 0.44670
C7 C 0.50700 0.34470 0.62270
C8 C 0.43520 0.33900 0.61680
N1 N 0.29620 0.31600 0.24650
N2 N 0.20830 0.35140 0.48710
N3 N 0.27050 0.43030 0.76380
O1 O 0.22470 0.31040 0.28050
O2 O 0.14800 0.35270 0.54270
O3 O 0.32500 0.46560 0.80610
O4 O 0.21740 0.43590 0.86790
H1 H 0.40800 0.43000 0.13800
H2 H 0.53500 0.43900 0.15000
H3 H 0.59400 0.38500 0.47400
H4 H 0.53200 0.31600 0.74100
H5 H 0.40800 0.31300 0.73400
#END
