
#######################################################################
#
#                 Cambridge Crystallographic Data Centre
#                                CCDC
#
#######################################################################
#
# If this CIF has been generated from an entry in the Cambridge
# Structural Database, then it will include bibliographic, chemical,
# crystal, experimental, refinement or atomic coordinate data resulting
# from the CCDC's data processing and validation procedures.
#
#######################################################################

data_CSD_CIF_BABSUT
_audit_creation_date 2002-04-24
_audit_creation_method CSD-ConQuest-V1
_database_code_CSD BABSUT
_chemical_formula_sum 'C14 H13 N1 O2'
_chemical_formula_moiety
;
C14 H13 N1 O2
;
_journal_coden_Cambridge 35
_journal_volume 66
_journal_year 2001
_journal_page_first 1252
_journal_name_full 'J.Org.Chem. '
loop_
_publ_author_name
"R.Herrera"
"A.Nagarajan"
"M.A.Morales"
"F.Mendez"
"H.A.Jimenez-Vazquez"
"L.G.Zepeda"
"J.Tamariz"
_chemical_name_systematic
;
N-(4-Methoxybenzylidene)aniline N-oxide
;
_chemical_name_common
;
C-(4-Methoxyphenyl)-N-phenylnitrone
;
_cell_volume   1163.877
_exptl_crystal_density_diffrn 1.297
_diffrn_ambient_temperature 293
#These two values have been output from a single CSD field.
_refine_ls_R_factor_gt 0.0484
_refine_ls_wR_factor_gt 0.0484
_symmetry_cell_setting monoclinic
_symmetry_space_group_name_H-M 'P 21/n'
_symmetry_Int_Tables_number 14
loop_
_symmetry_equiv_pos_site_id
_symmetry_equiv_pos_as_xyz
1 x,y,z
2 1/2-x,1/2+y,1/2-z
3 -x,-y,-z
4 -1/2+x,-1/2-y,-1/2+z
_cell_length_a 5.5538(3)
_cell_length_b 16.9464(9)
_cell_length_c 12.3822(8)
_cell_angle_alpha 90
_cell_angle_beta 92.905(5)
_cell_angle_gamma 90
_cell_formula_units_Z 4
loop_
_atom_type_symbol
_atom_type_radius_bond
C 0.68
N 0.68
O 0.68
loop_
_atom_site_label
_atom_site_type_symbol
_atom_site_fract_x
_atom_site_fract_y
_atom_site_fract_z
C1 C 0.3054(3) 0.9156(1) 0.0721(1)
C2 C 0.2980(2) 0.9603(1) 0.1712(1)
C3 C 0.1106(3) 0.9578(1) 0.2429(1)
C4 C 0.1271(3) 0.9997(1) 0.3377(1)
C5 C 0.3253(3) 1.0466(1) 0.3638(1)
C6 C 0.5109(3) 1.0512(1) 0.2937(1)
C7 C 0.4969(3) 1.0074(1) 0.1996(1)
C8 C 0.1662(2) 0.8314(1) -0.0732(1)
C9 C -0.0111(3) 0.8309(1) -0.1548(1)
C10 C 0.0191(3) 0.7844(1) -0.2449(1)
C11 C 0.2219(3) 0.7388(1) -0.2524(1)
C12 C 0.3977(3) 0.7402(1) -0.1702(1)
C13 C 0.3717(3) 0.7867(1) -0.0800(1)
C14 C 0.5233(4) 1.1334(1) 0.4913(2)
N1 N 0.1268(2) 0.8787(1) 0.0225(1)
O1 O -0.0952(2) 0.8807(1) 0.0517(1)
O2 O 0.3214(2) 1.0858(1) 0.4601(1)
#END
