
#######################################################################
#
#                 Cambridge Crystallographic Data Centre
#                                CCDC
#
#######################################################################
#
# If this CIF has been generated from an entry in the Cambridge
# Structural Database, then it will include bibliographic, chemical,
# crystal, experimental, refinement or atomic coordinate data resulting
# from the CCDC's data processing and validation procedures.
#
#######################################################################

data_CSD_CIF_BABTAA
_audit_creation_date 2002-04-24
_audit_creation_method CSD-ConQuest-V1
_database_code_CSD BABTAA
_chemical_formula_sum 'C14 H13 N1 O1'
_chemical_formula_moiety
;
C14 H13 N1 O1
;
_journal_coden_Cambridge 35
_journal_volume 66
_journal_year 2001
_journal_page_first 1252
_journal_name_full 'J.Org.Chem. '
loop_
_publ_author_name
"R.Herrera"
"A.Nagarajan"
"M.A.Morales"
"F.Mendez"
"H.A.Jimenez-Vazquez"
"L.G.Zepeda"
"J.Tamariz"
_chemical_name_systematic
;
N-(Benzylidene)benzylamine N-oxide
;
_chemical_name_common
;
C-Phenyl-N-benzylnitrone
;
_cell_volume   2307.575
_exptl_crystal_density_diffrn 1.216
_diffrn_ambient_temperature 293
#These two values have been output from a single CSD field.
_refine_ls_R_factor_gt 0.0369
_refine_ls_wR_factor_gt 0.0369
_symmetry_cell_setting orthorhombic
_symmetry_space_group_name_H-M 'P b c a'
_symmetry_Int_Tables_number 61
loop_
_symmetry_equiv_pos_site_id
_symmetry_equiv_pos_as_xyz
1 x,y,z
2 1/2-x,-y,1/2+z
3 1/2+x,1/2-y,-z
4 -x,1/2+y,1/2-z
5 -x,-y,-z
6 -1/2+x,y,-1/2-z
7 -1/2-x,-1/2+y,z
8 x,-1/2-y,-1/2+z
_cell_length_a 10.7417(9)
_cell_length_b 9.9148(7)
_cell_length_c 21.667(2)
_cell_angle_alpha 90
_cell_angle_beta 90
_cell_angle_gamma 90
_cell_formula_units_Z 8
loop_
_atom_type_symbol
_atom_type_radius_bond
C 0.68
N 0.68
O 0.68
loop_
_atom_site_label
_atom_site_type_symbol
_atom_site_fract_x
_atom_site_fract_y
_atom_site_fract_z
O1 O -0.0040(1) 0.1892(2) 0.4920(1)
N1 N 0.1165(2) 0.1822(2) 0.4926(1)
C1 C 0.1537(2) 0.3693(2) 0.5648(1)
C2 C 0.1529(2) 0.1060(2) 0.3859(1)
C3 C 0.1688(2) 0.0743(2) 0.4531(1)
C4 C 0.1895(2) 0.2602(2) 0.5246(1)
C5 C 0.2481(2) 0.4338(2) 0.5970(1)
C6 C 0.0329(2) 0.4162(3) 0.5726(1)
C7 C 0.0684(2) 0.0358(3) 0.3505(1)
C8 C 0.1026(3) 0.5879(3) 0.6408(1)
C9 C 0.2222(2) 0.2066(2) 0.3580(1)
C10 C 0.2225(2) 0.5417(3) 0.6348(1)
C11 C 0.1222(3) 0.1660(3) 0.2620(1)
C12 C 0.0526(3) 0.0667(3) 0.2887(1)
C13 C 0.0091(3) 0.5247(3) 0.6101(1)
C14 C 0.2062(3) 0.2365(3) 0.2964(1)
#END
