
#######################################################################
#
#                 Cambridge Crystallographic Data Centre
#                                CCDC
#
#######################################################################
#
# If this CIF has been generated from an entry in the Cambridge
# Structural Database, then it will include bibliographic, chemical,
# crystal, experimental, refinement or atomic coordinate data resulting
# from the CCDC's data processing and validation procedures.
#
#######################################################################

data_CSD_CIF_BABTII
_audit_creation_date 2002-04-24
_audit_creation_method CSD-ConQuest-V1
_database_code_CSD BABTII
_chemical_formula_sum 'C26 H24 N2 O6'
_chemical_formula_moiety
;
C26 H24 N2 O6
;
_journal_coden_Cambridge 35
_journal_volume 66
_journal_year 2001
_journal_page_first 1252
_journal_name_full 'J.Org.Chem. '
loop_
_publ_author_name
"R.Herrera"
"A.Nagarajan"
"M.A.Morales"
"F.Mendez"
"H.A.Jimenez-Vazquez"
"L.G.Zepeda"
"J.Tamariz"
_chemical_name_systematic
;
(3R*,5S*)-5-Acetyl-2-benzyl-5-((p-nitrobenzoyl)oxy)-3-(p-tolyl)isoxazolidine
;
_cell_volume   1190.089
_exptl_crystal_colour 'colorless'
_exptl_crystal_density_diffrn 1.285
_exptl_special_details
;
The space group is P-1 as given in the supplementary data, not P1 as given in 
the paper
;
_diffrn_ambient_temperature 293
#These two values have been output from a single CSD field.
_refine_ls_R_factor_gt 0.0391
_refine_ls_wR_factor_gt 0.0391
_symmetry_cell_setting triclinic
_symmetry_space_group_name_H-M 'P -1'
_symmetry_Int_Tables_number 2
loop_
_symmetry_equiv_pos_site_id
_symmetry_equiv_pos_as_xyz
1 x,y,z
2 -x,-y,-z
_cell_length_a 6.778
_cell_length_b 10.139(1)
_cell_length_c 18.013(2)
_cell_angle_alpha 79.61(1)
_cell_angle_beta 79.33(1)
_cell_angle_gamma 82.32(1)
_cell_formula_units_Z 2
loop_
_atom_type_symbol
_atom_type_radius_bond
C 0.68
N 0.68
O 0.68
loop_
_atom_site_label
_atom_site_type_symbol
_atom_site_fract_x
_atom_site_fract_y
_atom_site_fract_z
O1 O 0.3783(2) 0.1129(1) 0.3056(1)
O2 O 0.6416(2) -0.0595(1) 0.2933(1)
O3 O 0.5074(2) 0.1399(1) 0.4390(1)
O4 O 0.6457(2) 0.2319(1) 0.2680(1)
C1 C 0.3394(3) 0.3160(2) 0.2205(1)
N1 N 0.5627(2) -0.1859(1) 0.2850(1)
C2 C 0.5009(3) 0.0048(2) 0.3455(1)
C3 C 0.3479(3) -0.1703(2) 0.3193(1)
C4 C 0.4734(3) 0.2193(2) 0.2663(1)
C5 C 0.3588(3) -0.0980(2) 0.3851(1)
C6 C 0.2622(3) -0.3044(2) 0.3425(1)
C7 C 0.0770(3) -0.3191(2) 0.3254(1)
C8 C 0.6036(3) 0.0593(2) 0.4012(1)
C9 C 0.1121(3) 0.4936(2) 0.1291(1)
N2 N -0.0114(3) 0.5899(2) 0.0808(1)
C10 C 0.0338(3) 0.3784(2) 0.1680(1)
C11 C 0.3593(3) -0.4133(2) 0.3849(1)
C12 C 0.4131(3) 0.4338(2) 0.1809(1)
C13 C 0.0848(4) -0.5463(2) 0.3941(1)
C14 C 0.6020(3) -0.1911(2) 0.2023(1)
O5 O -0.1725(3) 0.5612(2) 0.0733(1)
C15 C 0.2999(4) 0.5236(2) 0.1344(1)
C16 C 0.1498(3) 0.2893(2) 0.2142(1)
C17 C 0.5145(3) -0.0740(2) 0.1501(1)
C18 C -0.0095(3) -0.4385(2) 0.3509(2)
C19 C 0.6215(5) 0.0363(3) 0.1217(1)
O6 O 0.0511(3) 0.6960(2) 0.0511(2)
C20 C 0.2713(4) -0.5321(2) 0.4097(1)
C21 C 0.3304(4) -0.0742(3) 0.1287(1)
C22 C 0.8123(3) 0.0008(2) 0.4093(1)
C23 C 0.3649(8) 0.1428(5) 0.0520(2)
C24 C -0.0131(5) -0.6751(2) 0.4234(2)
C25 C 0.5458(7) 0.1446(3) 0.0724(2)
C26 C 0.2540(6) 0.0364(5) 0.0790(2)
#END
