
#######################################################################
#
#                 Cambridge Crystallographic Data Centre
#                                CCDC
#
#######################################################################
#
# If this CIF has been generated from an entry in the Cambridge
# Structural Database, then it will include bibliographic, chemical,
# crystal, experimental, refinement or atomic coordinate data resulting
# from the CCDC's data processing and validation procedures.
#
#######################################################################

data_CSD_CIF_BABTEE
_audit_creation_date 2002-04-24
_audit_creation_method CSD-ConQuest-V1
_database_code_CSD BABTEE
_chemical_formula_sum 'C22 H24 N2 O6'
_chemical_formula_moiety
;
C22 H24 N2 O6
;
_journal_coden_Cambridge 35
_journal_volume 66
_journal_year 2001
_journal_page_first 1252
_journal_name_full 'J.Org.Chem. '
loop_
_publ_author_name
"R.Herrera"
"A.Nagarajan"
"M.A.Morales"
"F.Mendez"
"H.A.Jimenez-Vazquez"
"L.G.Zepeda"
"J.Tamariz"
_chemical_name_systematic
;
(3R*,5R*)-5-Acetyl-2-t-butyl-5-((p-nitrobenzoyl)oxy)-3-phenylisoxazolidine
;
_chemical_melting_point 402.15
_cell_volume   1094.183
_exptl_crystal_colour 'pale yellow'
_exptl_crystal_density_diffrn 1.252
_exptl_special_details
;
Melting point range 402.15-403.15K
The space group is P-1 as given in the supplementary data, not P1 as given in 
the paper
;
_exptl_crystal_description 'needle'
_exptl_crystal_preparation 'ethanol/dichloromethane'
_diffrn_ambient_temperature 293
#These two values have been output from a single CSD field.
_refine_ls_R_factor_gt 0.0421
_refine_ls_wR_factor_gt 0.0421
_symmetry_cell_setting triclinic
_symmetry_space_group_name_H-M 'P -1'
_symmetry_Int_Tables_number 2
loop_
_symmetry_equiv_pos_site_id
_symmetry_equiv_pos_as_xyz
1 x,y,z
2 -x,-y,-z
_cell_length_a 9.1316(6)
_cell_length_b 11.266(2)
_cell_length_c 11.7911(8)
_cell_angle_alpha 82.150(7)
_cell_angle_beta 68.905(4)
_cell_angle_gamma 75.488(6)
_cell_formula_units_Z 2
loop_
_atom_type_symbol
_atom_type_radius_bond
C 0.68
N 0.68
O 0.68
loop_
_atom_site_label
_atom_site_type_symbol
_atom_site_fract_x
_atom_site_fract_y
_atom_site_fract_z
C1 C 0.2197(3) 1.0664(2) 0.1269(2)
C2 C 0.0960(3) 1.1682(2) 0.1594(2)
C3 C 0.0220(3) 1.1907(2) 0.2794(2)
C4 C 0.0673(3) 1.1167(2) 0.3682(2)
C5 C 0.1904(3) 1.0152(2) 0.3351(2)
C6 C 0.2669(2) 0.9887(2) 0.2146(2)
C7 C 0.3978(3) 0.8784(2) 0.1747(2)
C8 C 0.5517(2) 0.6968(2) 0.2398(2)
C9 C 0.5480(2) 0.6254(2) 0.3590(2)
C10 C 0.6767(2) 0.6611(2) 0.3939(2)
C11 C 0.5264(3) 0.6223(2) 0.1514(2)
C12 C 0.6698(3) 0.5617(2) 0.0529(2)
C13 C 0.9171(3) 0.7407(3) 0.2484(2)
C14 C 0.9499(4) 0.8474(4) 0.1550(3)
C15 C 1.0096(3) 0.6185(4) 0.1920(4)
C16 C 0.9650(3) 0.7570(3) 0.3556(3)
C17 C 0.6124(3) 0.7141(2) 0.5181(2)
C18 C 0.6488(4) 0.6472(3) 0.6148(3)
C19 C 0.5856(7) 0.6931(5) 0.7294(3)
C20 C 0.4857(6) 0.8063(5) 0.7487(3)
C21 C 0.4481(4) 0.8740(3) 0.6543(3)
C22 C 0.5109(3) 0.8281(3) 0.5390(2)
N1 N -0.1106(3) 1.2994(2) 0.3151(2)
N2 N 0.7388(2) 0.7534(2) 0.2965(2)
O1 O 0.7011(2) 0.7266(1) 0.1911(1)
O2 O 0.3928(2) 0.6099(2) 0.1702(2)
O3 O 0.4250(2) 0.8070(1) 0.2695(1)
O4 O 0.4698(2) 0.8546(2) 0.0698(1)
O5 O -0.1598(3) 1.3580(2) 0.2369(2)
O6 O -0.1643(3) 1.3257(2) 0.4207(2)
#END
