
#######################################################################
#
#                 Cambridge Crystallographic Data Centre
#                                CCDC
#
#######################################################################
#
# If this CIF has been generated from an entry in the Cambridge
# Structural Database, then it will include bibliographic, chemical,
# crystal, experimental, refinement or atomic coordinate data resulting
# from the CCDC's data processing and validation procedures.
#
#######################################################################

data_CSD_CIF_BABZOU
_audit_creation_date 2002-04-24
_audit_creation_method CSD-ConQuest-V1
_database_code_CSD BABZOU
_database_code_depnum_ccdc_archive 'CCDC 159014'
_chemical_formula_sum 'C26 H30 N1 O1'
_chemical_formula_moiety
;
C26 H30 N1 O1
;
_journal_coden_Cambridge 182
_journal_year 2001
_journal_page_first 627
_journal_name_full 'Chem.Commun. '
loop_
_publ_author_name
"Y.Miura"
"T.Tomimura"
_chemical_name_systematic
;
N-(t-Butoxy)-N-(2,4-diphenyl-6-t-butylphenyl)aminyl
;
_chemical_melting_point 387.65
_cell_volume   4552.522
_exptl_crystal_colour 'red'
_exptl_crystal_density_diffrn 1.087
_exptl_special_details
;
Melting point range 387.65-389.15K

;
_exptl_crystal_description 'platelet'
_exptl_crystal_preparation 'methanol'
_diffrn_ambient_temperature ?
_diffrn_special_details
;
The study was carried out at room temperature,in the range 283-303K

;
#These two values have been output from a single CSD field.
_refine_ls_R_factor_gt 0.047
_refine_ls_wR_factor_gt 0.047
_symmetry_cell_setting orthorhombic
_symmetry_space_group_name_H-M 'P b c a'
_symmetry_Int_Tables_number 61
loop_
_symmetry_equiv_pos_site_id
_symmetry_equiv_pos_as_xyz
1 x,y,z
2 1/2-x,1/2+y,z
3 x,1/2-y,1/2+z
4 1/2+x,y,1/2-z
5 -x,-y,-z
6 -1/2+x,-1/2-y,-z
7 -x,-1/2+y,-1/2-z
8 -1/2-x,-y,-1/2+z
_cell_length_a 36.9243(9)
_cell_length_b 11.2495(3)
_cell_length_c 10.9599(3)
_cell_angle_alpha 90
_cell_angle_beta 90
_cell_angle_gamma 90
_cell_formula_units_Z 8
loop_
_atom_type_symbol
_atom_type_radius_bond
C 0.68
H 0.23
N 0.68
O 0.68
loop_
_atom_site_label
_atom_site_type_symbol
_atom_site_fract_x
_atom_site_fract_y
_atom_site_fract_z
O1 O 0.09253(4) 0.2799(1) 0.5630(2)
N1 N 0.08312(5) 0.1638(2) 0.5752(2)
C1 C 0.11041(5) 0.0997(2) 0.6282(2)
C2 C 0.14315(6) 0.1482(2) 0.6783(2)
C3 C 0.16754(6) 0.0725(2) 0.7331(2)
C4 C 0.16142(6) -0.0494(2) 0.7455(2)
C5 C 0.12957(6) -0.0950(2) 0.6955(2)
C6 C 0.10386(6) -0.0268(2) 0.6362(2)
C7 C 0.15320(6) 0.2773(2) 0.6822(2)
C8 C 0.17310(7) 0.3299(2) 0.5894(2)
C9 C 0.18457(7) 0.4465(2) 0.5990(3)
C10 C 0.17664(7) 0.5118(2) 0.7012(3)
C11 C 0.15728(8) 0.4605(2) 0.7944(3)
C12 C 0.14567(6) 0.3440(2) 0.7849(2)
C13 C 0.18732(6) -0.1257(2) 0.8122(2)
C14 C 0.22443(7) -0.1107(2) 0.8010(3)
C15 C 0.24819(8) -0.1796(3) 0.8678(4)
C16 C 0.23523(9) -0.2639(3) 0.9480(4)
C17 C 0.19885(9) -0.2800(2) 0.9600(3)
C18 C 0.17508(6) -0.2127(2) 0.8923(2)
C19 C 0.06975(6) -0.0862(2) 0.5816(2)
C20 C 0.03535(7) -0.0374(2) 0.6430(3)
C21 C 0.07012(8) -0.2210(2) 0.6005(4)
C22 C 0.06810(8) -0.0646(3) 0.4434(3)
C23 C 0.06274(7) 0.3546(2) 0.5186(2)
C24 C 0.04782(8) 0.3027(3) 0.4023(3)
C25 C 0.0827(1) 0.4704(3) 0.4896(4)
C26 C 0.0350(1) 0.3625(4) 0.6155(3)
H1 H 0.18930 0.09870 0.76810
H2 H 0.12430 -0.18270 0.70400
H3 H 0.17810 0.28040 0.50970
H4 H 0.19850 0.47790 0.53350
H5 H 0.18500 0.59110 0.70410
H6 H 0.15130 0.50790 0.86620
H7 H 0.13150 0.30640 0.85380
H8 H 0.23260 -0.05000 0.74660
H9 H 0.27410 -0.17050 0.85500
H10 H 0.25220 -0.30270 1.00330
H11 H 0.18850 -0.34170 1.01040
H12 H 0.15030 -0.22250 0.89820
H13 H 0.03190 0.04780 0.62860
H14 H 0.01590 -0.07850 0.60490
H15 H 0.03670 -0.05280 0.73580
H16 H 0.05050 -0.25050 0.56700
H17 H 0.09300 -0.25820 0.55710
H18 H 0.06970 -0.23890 0.68400
H19 H 0.06740 0.02190 0.42350
H20 H 0.09030 -0.09730 0.39980
H21 H 0.04700 -0.09830 0.41210
H22 H 0.03010 0.35510 0.37010
H23 H 0.07310 0.30160 0.34340
H24 H 0.03920 0.21310 0.41420
H25 H 0.08740 0.49960 0.58270
H26 H 0.10140 0.43630 0.41230
H27 H 0.06670 0.52790 0.45300
H28 H 0.05280 0.43120 0.67140
H29 H 0.01560 0.41710 0.59130
H30 H 0.02290 0.28440 0.63110
#END
