
#######################################################################
#
#                 Cambridge Crystallographic Data Centre
#                                CCDC
#
#######################################################################
#
# If this CIF has been generated from an entry in the Cambridge
# Structural Database, then it will include bibliographic, chemical,
# crystal, experimental, refinement or atomic coordinate data resulting
# from the CCDC's data processing and validation procedures.
#
#######################################################################

data_CSD_CIF_BACCEN
_audit_creation_date 1982-02-03
_audit_creation_method CSD-ConQuest-V1
_database_code_CSD BACCEN
_database_code_depnum_ccdc_archive 'CCDC 1104623'
_chemical_formula_sum 'C18 H18 N2 O8'
_chemical_formula_moiety
;
C18 H18 N2 O8
;
_journal_coden_Cambridge 182
_journal_year 1981
_journal_page_first 929
_journal_name_full 'Chem.Commun. '
loop_
_publ_author_name
"M.L.Gilpin"
"J.B.Harbridge"
"T.T.Howarth"
"T.J.King"
_chemical_name_systematic
;
p-Nitrobenzyl-(2R,5R)-(Z)-7-methoxycarbonylmethylene-(Z)-3-(2-hydroxy-ethylide
ne)-4-oxa-1-azabicyclo(3.2.0)heptane-2-carboxylate
;
_chemical_melting_point 361.15
_cell_volume   1834.050
_exptl_crystal_density_diffrn 1.41
_exptl_special_details
;
Melting point range 361.15-362.15K

;
_diffrn_ambient_temperature ?
_diffrn_special_details
;
The study was carried out at room temperature,in the range 283-303K

;
#These two values have been output from a single CSD field.
_refine_ls_R_factor_gt 0.037
_refine_ls_wR_factor_gt 0.037
_symmetry_cell_setting monoclinic
_symmetry_space_group_name_H-M 'P 21'
_symmetry_Int_Tables_number 4
loop_
_symmetry_equiv_pos_site_id
_symmetry_equiv_pos_as_xyz
1 x,y,z
2 -x,1/2+y,-z
_cell_length_a 8.068(1)
_cell_length_b 47.721(6)
_cell_length_c 4.825(1)
_cell_angle_alpha 90
_cell_angle_beta 99.15(1)
_cell_angle_gamma 90
_cell_formula_units_Z 4
loop_
_atom_type_symbol
_atom_type_radius_bond
C 0.68
N 0.68
O 0.68
loop_
_atom_site_label
_atom_site_type_symbol
_atom_site_fract_x
_atom_site_fract_y
_atom_site_fract_z
O1 O 0.70845 0.41510 1.44967
C1 C 0.58657 0.40302 1.25586
C2 C 0.59838 0.37115 1.28221
N1 N 0.76537 0.36761 1.45556
C3 C 0.81182 0.39439 1.60003
C4 C 0.98838 0.39159 1.52456
C5 C 0.91633 0.36716 1.34381
C6 C 0.46965 0.35803 1.44393
C7 C 0.48485 0.41807 1.07188
C8 C 0.49334 0.44935 1.05117
C9 C 0.97580 0.35119 1.15421
C10 C 0.88602 0.32797 1.00141
C11 C 0.90392 0.29133 0.68198
C12 C 0.35819 0.31551 1.57515
C13 C 0.37497 0.28520 1.50981
C14 C 0.49062 0.26879 1.68446
C15 C 0.51131 0.24112 1.62637
C16 C 0.41556 0.22949 1.39251
C17 C 0.29879 0.24487 1.21606
C18 C 0.28034 0.27299 1.27930
N2 N 0.43978 0.19989 1.32738
O2 O 0.33176 0.46248 1.00829
O3 O 0.45774 0.33095 1.39928
O4 O 0.39333 0.37037 1.59933
O5 O 0.98361 0.31474 0.84267
O6 O 0.74337 0.32099 1.01212
O7 O 0.53486 0.18576 1.49416
O8 O 0.36524 0.19086 1.10783
O9 O 0.25100 -0.00274 0.32131
C19 C 0.13120 0.01154 0.44186
C20 C 0.16194 0.04281 0.42665
N3 N 0.32827 0.04387 0.33864
C21 C 0.36182 0.01630 0.22136
C22 C 0.53974 0.01719 0.39467
C23 C 0.47969 0.04297 0.53240
C24 C 0.04045 0.05813 0.20169
C25 C 0.01770 -0.00151 0.56292
C26 C 0.00567 -0.03264 0.58535
C27 C 0.54377 0.05873 0.75108
C28 C 0.45943 0.08294 0.84968
C29 C 0.48697 0.11942 1.18414
C30 C -0.03664 0.10297 0.02153
C31 C -0.04054 0.13236 0.12916
C32 C 0.06471 0.14202 0.36958
C33 C 0.05573 0.16918 0.45726
C34 C -0.05912 0.18705 0.30645
C35 C -0.16332 0.17806 0.07048
C36 C -0.15449 0.15087 -0.01760
N4 N -0.07058 0.21605 0.40155
O10 O -0.16553 -0.04218 0.53850
O11 O 0.04937 0.08544 0.24261
O12 O -0.04191 0.04758 0.00482
O13 O 0.32138 0.09143 0.75848
O14 O 0.55975 0.09573 1.06267
O15 O -0.16542 0.23195 0.25568
O16 O 0.01474 0.22298 0.62350
#END
