
#######################################################################
#
#                 Cambridge Crystallographic Data Centre
#                                CCDC
#
#######################################################################
#
# If this CIF has been generated from an entry in the Cambridge
# Structural Database, then it will include bibliographic, chemical,
# crystal, experimental, refinement or atomic coordinate data resulting
# from the CCDC's data processing and validation procedures.
#
#######################################################################

data_CSD_CIF_BACTEF
_audit_creation_date 2002-04-24
_audit_creation_method CSD-ConQuest-V1
_database_code_CSD BACTEF
_database_code_depnum_ccdc_archive 'CCDC 168712'
_chemical_formula_sum 'C8 H7 N3 O2'
_chemical_formula_moiety
;
C8 H7 N3 O2
;
_journal_coden_Cambridge 24
_journal_volume 42
_journal_year 2001
_journal_page_first 8415
_journal_name_full 'Tetrahedron Lett. '
loop_
_publ_author_name
"D.J.Burkhart"
"B.Twamley"
"N.R.Natale"
_chemical_name_systematic
;
5-Cyano-3-methyl-4,5,6,7-tetrahydroisoxazolo(3,4-c)pyridin-7-one
;
_cell_volume   1596.603
_exptl_crystal_colour 'colorless'
_exptl_crystal_density_diffrn 1.474
_exptl_crystal_description 'plate'
_diffrn_ambient_temperature 203
#These two values have been output from a single CSD field.
_refine_ls_R_factor_gt 0.038
_refine_ls_wR_factor_gt 0.038
_symmetry_cell_setting orthorhombic
_symmetry_space_group_name_H-M 'P b c a'
_symmetry_Int_Tables_number 61
loop_
_symmetry_equiv_pos_site_id
_symmetry_equiv_pos_as_xyz
1 x,y,z
2 1/2+x,y,1/2-z
3 x,1/2-y,1/2+z
4 1/2-x,1/2+y,z
5 -x,-y,-z
6 -1/2-x,-y,-1/2+z
7 -x,-1/2+y,-1/2-z
8 -1/2+x,-1/2-y,-z
_cell_length_a 7.1142(2)
_cell_length_b 8.0205(2)
_cell_length_c 27.9814(7)
_cell_angle_alpha 90
_cell_angle_beta 90
_cell_angle_gamma 90
_cell_formula_units_Z 8
loop_
_atom_type_symbol
_atom_type_radius_bond
C 0.68
H 0.23
N 0.68
O 0.68
loop_
_atom_site_label
_atom_site_type_symbol
_atom_site_fract_x
_atom_site_fract_y
_atom_site_fract_z
N1 N 1.2059(2) 0.35360(17) 0.07704(5)
N2 N 1.17935(17) 0.62578(16) 0.17919(4)
H1 H 1.243(3) 0.671(2) 0.2032(6)
N3 N 0.8545(2) 0.3678(2) 0.23066(5)
O1 O 1.04525(18) 0.32923(14) 0.04833(4)
O2 O 1.44685(15) 0.51856(15) 0.14754(5)
C1 C 0.7224(3) 0.4215(2) 0.03673(6)
H2 H 0.62670 0.48430 0.05360
H3 H 0.68290 0.30620 0.03380
H4 H 0.74030 0.46880 0.00520
C2 C 0.9020(2) 0.42945(19) 0.06374(5)
C3 C 0.9632(2) 0.51757(17) 0.10212(5)
C4 C 0.8783(2) 0.64588(19) 0.13437(5)
H5 H 0.744(3) 0.634(2) 0.1375(5)
H6 H 0.904(2) 0.757(2) 0.1219(6)
C5 C 0.9742(2) 0.63177(19) 0.18335(5)
H7 H 0.942(2) 0.731(2) 0.2023(5)
C6 C 1.2761(2) 0.53544(18) 0.14633(5)
C7 C 1.1521(2) 0.46620(18) 0.10823(5)
C8 C 0.9058(2) 0.4821(2) 0.20995(5)
#END
