
#######################################################################
#
#                 Cambridge Crystallographic Data Centre
#                                CCDC
#
#######################################################################
#
# If this CIF has been generated from an entry in the Cambridge
# Structural Database, then it will include bibliographic, chemical,
# crystal, experimental, refinement or atomic coordinate data resulting
# from the CCDC's data processing and validation procedures.
#
#######################################################################

data_CSD_CIF_BADMOJ
_audit_creation_date 2002-04-24
_audit_creation_method CSD-ConQuest-V1
_database_code_CSD BADMOJ
_database_code_depnum_ccdc_archive 'CCDC 177628'
_chemical_formula_sum 'C19 H13 N1 O4'
_chemical_formula_moiety
;
C19 H13 N1 O4
;
_journal_coden_Cambridge 1078
_journal_year 2002
_journal_name_full 'CSD Communication(Private Communication) '
loop_
_publ_author_name
"M.Nieger"
"E.Weber"
"D.Klomfass"
_chemical_name_systematic
;
Biphenyl-2-carboxylic acid 2-nitrophenyl ester
;
_cell_volume   1550.209
_exptl_crystal_colour 'yellow'
_exptl_crystal_density_diffrn 1.368
_exptl_special_details
;
contribution from Department of Inorganic Chemistry, University of Bonn, 
Gerhard-Domagk-Str. 1, D-53121 Bonn, Germany
;
_exptl_crystal_description 'prisms'
_diffrn_ambient_temperature 293
#These two values have been output from a single CSD field.
_refine_ls_R_factor_gt 0.0492
_refine_ls_wR_factor_gt 0.0492
_symmetry_cell_setting monoclinic
_symmetry_space_group_name_H-M 'P 21/c'
_symmetry_Int_Tables_number 14
loop_
_symmetry_equiv_pos_site_id
_symmetry_equiv_pos_as_xyz
1 x,y,z
2 x,1/2-y,1/2+z
3 -x,-y,-z
4 -x,-1/2+y,-1/2-z
_cell_length_a 15.256(1)
_cell_length_b 14.190(1)
_cell_length_c 7.201(1)
_cell_angle_alpha 90
_cell_angle_beta 96.05(1)
_cell_angle_gamma 90
_cell_formula_units_Z 4
loop_
_atom_type_symbol
_atom_type_radius_bond
C 0.68
H 0.23
N 0.68
O 0.68
loop_
_atom_site_label
_atom_site_type_symbol
_atom_site_fract_x
_atom_site_fract_y
_atom_site_fract_z
O1 O 0.34280(11) 0.17739(11) 0.2488(3)
C1 C 0.30090(14) 0.10880(14) 0.2870(3)
O2 O 0.33277(11) 0.01903(12) 0.3058(3)
C2 C 0.41767(13) -0.01409(15) 0.2838(3)
C3 C 0.48526(14) 0.04511(17) 0.2392(3)
H1 H 0.47460 0.10940 0.22510
C4 C 0.56786(15) 0.01019(19) 0.2154(3)
H2 H 0.61170 0.05120 0.18480
C5 C 0.58628(16) -0.08422(19) 0.2362(4)
H3 H 0.64200 -0.10700 0.21940
C6 C 0.52183(16) -0.14439(18) 0.2821(4)
H4 H 0.53390 -0.20840 0.29640
C7 C 0.43861(14) -0.11050(16) 0.3072(3)
N1 N 0.37557(15) -0.17975(14) 0.3621(3)
O3 O 0.30265(13) -0.15462(13) 0.3998(3)
O4 O 0.39697(17) -0.26130(15) 0.3721(5)
C8 C 0.20684(13) 0.11730(14) 0.3315(3)
C9 C 0.19028(15) 0.18198(15) 0.4676(3)
H5 H 0.23580 0.21990 0.52140
C10 C 0.10709(16) 0.19083(17) 0.5241(3)
H6 H 0.09650 0.23430 0.61570
C11 C 0.03961(16) 0.13455(18) 0.4434(4)
H7 H -0.01630 0.13930 0.48300
C12 C 0.05458(14) 0.07170(17) 0.3053(3)
H8 H 0.00820 0.03510 0.25090
C13 C 0.13783(13) 0.06180(14) 0.2451(3)
C14 C 0.15117(13) -0.00332(15) 0.0877(3)
C15 C 0.13244(18) -0.09849(17) 0.0978(3)
H9 H 0.10840 -0.12230 0.20160
C16 C 0.1493(2) -0.15861(18) -0.0465(4)
H10 H 0.13790 -0.22270 -0.03740
C17 C 0.18292(17) -0.1239(2) -0.2025(4)
H11 H 0.19550 -0.16450 -0.29750
C18 C 0.19751(16) -0.02994(19) -0.2165(3)
H12 H 0.21780 -0.00590 -0.32430
C19 C 0.18265(15) 0.03013(17) -0.0731(3)
H13 H 0.19390 0.09420 -0.08450
#END
