
#######################################################################
#
#                 Cambridge Crystallographic Data Centre
#                                CCDC
#
#######################################################################
#
# If this CIF has been generated from an entry in the Cambridge
# Structural Database, then it will include bibliographic, chemical,
# crystal, experimental, refinement or atomic coordinate data resulting
# from the CCDC's data processing and validation procedures.
#
#######################################################################

data_CSD_CIF_BADRAC01
_audit_creation_date 2016-01-07
_audit_creation_method CSD-ConQuest-V1
_database_code_CSD BADRAC01
_database_code_depnum_ccdc_archive 'CCDC 1058145'
_chemical_formula_sum 'C4 H4 N10 O4'
_chemical_formula_moiety
;
C4 H4 N10 O4
;
_journal_coden_Cambridge 179
_journal_volume 54
_journal_year 2015
_journal_page_first 14513
_journal_name_full 'Angew.Chem.,Int.Ed. '
loop_
_publ_author_name
"Ping Yin"
"J.M.Shreeve"
_chemical_name_systematic
;
5,5'-dinitro-2H,2'H-3,3'-bi-1,2,4-triazole-2,2'-diamine
;
_cell_volume   1370.713
_exptl_crystal_colour 'colorless'
_exptl_crystal_density_diffrn 1.862
_exptl_crystal_description 'plate'
_diffrn_ambient_temperature 150
#These two values have been output from a single CSD field.
_refine_ls_R_factor_gt 0.0522
_refine_ls_wR_factor_gt 0.0522
_symmetry_cell_setting monoclinic
_symmetry_space_group_name_H-M 'P 21/n'
_symmetry_Int_Tables_number 14
loop_
_symmetry_equiv_pos_site_id
_symmetry_equiv_pos_as_xyz
1 x,y,z
2 1/2-x,1/2+y,1/2-z
3 -x,-y,-z
4 -1/2+x,-1/2-y,-1/2+z
_cell_length_a 7.9524(8)
_cell_length_b 12.9729(12)
_cell_length_c 13.5927(13)
_cell_angle_alpha 90
_cell_angle_beta 102.184(4)
_cell_angle_gamma 90
_cell_formula_units_Z 6
loop_
_atom_type_symbol
_atom_type_radius_bond
C 0.68
H 0.23
N 0.68
O 0.68
loop_
_atom_site_label
_atom_site_type_symbol
_atom_site_fract_x
_atom_site_fract_y
_atom_site_fract_z
N1 N 0.5062(3) 0.08290(18) 0.10277(18)
N2 N 0.4297(3) 0.12832(19) 0.01636(18)
C1 C 0.5651(4) 0.1584(2) -0.0180(2)
N3 N 0.7210(3) 0.13700(19) 0.03759(17)
C2 C 0.6782(4) 0.0881(2) 0.1158(2)
C3 C 0.7978(4) 0.0473(2) 0.2017(2)
N4 N 0.9691(3) 0.06577(18) 0.22031(17)
N5 N 1.0494(3) 0.01570(19) 0.30301(18)
C4 C 0.9175(4) -0.0292(2) 0.3303(2)
N6 N 0.7615(3) -0.01467(19) 0.27253(18)
N7 N 0.4096(3) 0.0340(2) 0.1639(2)
H1 H 0.460(4) 0.059(3) 0.224(3)
H2 H 0.300(5) 0.060(3) 0.143(2)
N8 N 0.5432(3) 0.21619(19) -0.11141(18)
O1 O 0.3966(3) 0.23488(18) -0.15618(16)
O2 O 0.6735(3) 0.24279(17) -0.13911(15)
N9 N 1.0662(3) 0.1242(2) 0.1659(2)
H3 H 1.090(4) 0.182(3) 0.199(3)
H4 H 0.998(4) 0.134(3) 0.106(3)
N10 N 0.9431(3) -0.0928(2) 0.41970(19)
O3 O 0.8146(3) -0.13057(18) 0.44134(17)
O4 O 1.0892(3) -0.10268(18) 0.46887(16)
N11 N 0.5526(3) 0.12813(18) 0.55955(17)
N12 N 0.5656(3) 0.22023(18) 0.51728(19)
C5 C 0.5322(4) 0.1950(2) 0.4216(2)
N13 N 0.4985(3) 0.09503(18) 0.39773(18)
C6 C 0.5123(4) 0.0537(2) 0.4888(2)
N14 N 0.5804(4) 0.1235(2) 0.66460(19)
H5 H 0.482(4) 0.091(3) 0.681(2)
H6 H 0.674(5) 0.085(3) 0.684(3)
N15 N 0.5267(3) 0.27404(19) 0.34533(19)
O5 O 0.5361(3) 0.36353(16) 0.37410(17)
O6 O 0.5124(3) 0.24563(18) 0.25810(16)
N11B N 0.4474(3) -0.12813(18) 0.44045(17)
N12B N 0.4344(3) -0.22023(18) 0.48272(19)
C5B C 0.4678(4) -0.1950(2) 0.5784(2)
N13B N 0.5015(3) -0.09503(18) 0.60227(18)
C6B C 0.4877(4) -0.0537(2) 0.5112(2)
N14B N 0.4196(4) -0.1235(2) 0.33540(19)
H5B H 0.518(4) -0.091(3) 0.319(2)
H6B H 0.326(5) -0.085(3) 0.316(3)
N15B N 0.4733(3) -0.27404(19) 0.65467(19)
O5B O 0.4639(3) -0.36353(16) 0.62590(17)
O6B O 0.4876(3) -0.24563(18) 0.74190(16)
#END
