
#######################################################################
#
#                 Cambridge Crystallographic Data Centre
#                                CCDC
#
#######################################################################
#
# If this CIF has been generated from an entry in the Cambridge
# Structural Database, then it will include bibliographic, chemical,
# crystal, experimental, refinement or atomic coordinate data resulting
# from the CCDC's data processing and validation procedures.
#
#######################################################################

data_CSD_CIF_BAFGUL01
_audit_creation_date 2007-08-13
_audit_creation_method CSD-ConQuest-V1
_database_code_CSD BAFGUL01
_database_code_depnum_ccdc_archive 'CCDC 631452'
_chemical_formula_sum 'C13 H10 N4 O5'
_chemical_formula_moiety
;
C13 H10 N4 O5
;
_journal_coden_Cambridge 644
_journal_volume 62
_journal_year 2007
_journal_page_first 717
_journal_name_full 'Z.Naturforsch.,B:Chem.Sci. '
loop_
_publ_author_name
"H.H.Monfared"
"O.Pouralimardan"
"C.Janiak"
_chemical_name_systematic
;
Salicylaldehyde 2,4-dinitrophenylhydrazone
;
_chemical_melting_point 528.15
_cell_volume   1268.769
_exptl_crystal_colour 'orange'
_exptl_crystal_density_diffrn 1.582
_exptl_crystal_description 'plate'
_diffrn_ambient_temperature 293
#These two values have been output from a single CSD field.
_refine_ls_R_factor_gt 0.0456
_refine_ls_wR_factor_gt 0.0456
_symmetry_cell_setting monoclinic
_symmetry_space_group_name_H-M 'P 21/c'
_symmetry_Int_Tables_number 14
loop_
_symmetry_equiv_pos_site_id
_symmetry_equiv_pos_as_xyz
1 x,y,z
2 -x,1/2+y,1/2-z
3 -x,-y,-z
4 x,-1/2-y,-1/2+z
_cell_length_a 13.820(3)
_cell_length_b 4.3515(9)
_cell_length_c 25.159(7)
_cell_angle_alpha 90
_cell_angle_beta 123.01(2)
_cell_angle_gamma 90
_cell_formula_units_Z 4
loop_
_atom_type_symbol
_atom_type_radius_bond
C 0.68
H 0.23
N 0.68
O 0.68
loop_
_atom_site_label
_atom_site_type_symbol
_atom_site_fract_x
_atom_site_fract_y
_atom_site_fract_z
O1 O 0.55911(15) 0.8994(5) 0.40299(8)
O2 O 0.50602(14) 0.6082(5) 0.45195(7)
O3 O 0.38599(17) 0.8688(5) 0.18238(9)
O4 O 0.23708(16) 0.5847(5) 0.12341(8)
O5 O 0.05882(15) -0.3296(5) 0.31878(8)
H1 H 0.110(3) -0.175(8) 0.3225(14)
N1 N 0.49582(15) 0.7022(5) 0.40246(8)
N2 N 0.31304(17) 0.6840(5) 0.17503(9)
N3 N 0.24747(15) 0.0283(4) 0.38099(8)
N4 N 0.32773(16) 0.2431(5) 0.38897(9)
H2 H 0.383(2) 0.307(6) 0.4271(13)
C1 C 0.26111(17) -0.0720(6) 0.43285(10)
H3 H 0.32290 0.00050 0.47130
C2 C 0.32315(18) 0.3619(6) 0.33778(10)
C3 C 0.40439(17) 0.5762(6) 0.34246(10)
C4 C 0.40129(18) 0.6815(6) 0.28925(10)
H4 H 0.45580 0.82120 0.29330
C5 C 0.31644(18) 0.5751(6) 0.23101(10)
C6 C 0.23206(18) 0.3747(6) 0.22368(10)
H5 H 0.17410 0.30930 0.18340
C7 C 0.23386(19) 0.2728(6) 0.27567(10)
H6 H 0.17560 0.14300 0.27020
C8 C 0.18369(18) -0.2928(6) 0.43312(10)
C9 C 0.08609(18) -0.4122(6) 0.37765(10)
C10 C 0.01470(19) -0.6175(6) 0.38195(12)
H7 H -0.04920 -0.69660 0.34520
C11 C 0.0370(2) -0.7070(6) 0.44018(13)
H8 H -0.01220 -0.84490 0.44230
C12 C 0.1320(2) -0.5933(6) 0.49538(12)
H9 H 0.14700 -0.65460 0.53460
C13 C 0.2043(2) -0.3887(6) 0.49181(10)
H10 H 0.26800 -0.31210 0.52900
#END
