
#######################################################################
#
#                 Cambridge Crystallographic Data Centre
#                                CCDC
#
#######################################################################
#
# If this CIF has been generated from an entry in the Cambridge
# Structural Database, then it will include bibliographic, chemical,
# crystal, experimental, refinement or atomic coordinate data resulting
# from the CCDC's data processing and validation procedures.
#
#######################################################################

data_CSD_CIF_BAFNUT
_audit_creation_date 2012-01-16
_audit_creation_method CSD-ConQuest-V1
_database_code_CSD BAFNUT
_database_code_depnum_ccdc_archive 'CCDC 782876'
_chemical_formula_sum 'C20 H16 N2 O7'
_chemical_formula_moiety
;
C20 H16 N2 O7
;
_journal_coden_Cambridge 41
_journal_volume 56
_journal_year 2011
_journal_page_first 294
_journal_name_full 'Kristallografiya(Russ.)(Crystallogr.Rep.) '
loop_
_publ_author_name
"I.N.Polyakova"
"O.A.Egorova"
"V.S.Sergienko"
"L.Yu.Tarasova"
"V.V.Davydov"
_chemical_name_systematic
;
2-(4-Nitrobenzoyl)cyclohex-1-en-1-yl 4-nitrobenzoate
;
_cell_volume   1796.275
_exptl_crystal_colour 'colorless'
_exptl_crystal_density_diffrn 1.466
_exptl_crystal_description 'prism'
_diffrn_ambient_temperature 173
_refine_special_details
;
The structure is disordered.

;
#These two values have been output from a single CSD field.
_refine_ls_R_factor_gt 0.0354
_refine_ls_wR_factor_gt 0.0354
_symmetry_cell_setting orthorhombic
_symmetry_space_group_name_H-M 'P 21 21 21'
_symmetry_Int_Tables_number 19
loop_
_symmetry_equiv_pos_site_id
_symmetry_equiv_pos_as_xyz
1 x,y,z
2 1/2-x,-y,1/2+z
3 -x,1/2+y,1/2-z
4 1/2+x,1/2-y,-z
_cell_length_a 7.8367(8)
_cell_length_b 9.6082(10)
_cell_length_c 23.856(3)
_cell_angle_alpha 90
_cell_angle_beta 90
_cell_angle_gamma 90
_cell_formula_units_Z 4
loop_
_atom_type_symbol
_atom_type_radius_bond
C 0.68
H 0.23
N 0.68
O 0.68
loop_
_atom_site_label
_atom_site_type_symbol
_atom_site_fract_x
_atom_site_fract_y
_atom_site_fract_z
O1 O 0.80462(17) 0.53662(13) 0.01262(5)
O2 O 0.6769(2) 0.73403(15) -0.01678(6)
O3 O 0.6477(2) 0.17330(15) 0.05612(7)
O4 O 1.0163(3) 0.8536(2) 0.26041(8)
O5 O 0.8301(3) 1.0123(2) 0.24390(9)
O6 O 0.5181(3) 0.6857(2) 0.25520(9)
O7 O 0.3553(2) 0.79015(18) 0.19659(7)
N1 N 0.9103(3) 0.9074(2) 0.23072(9)
N2 N 0.4505(3) 0.6952(2) 0.20978(8)
C1 C 0.8115(2) 0.73142(19) 0.07255(8)
C2 C 0.7437(3) 0.8607(2) 0.08673(10)
C3 C 0.7724(3) 0.9175(2) 0.13875(10)
C4 C 0.8753(3) 0.8458(2) 0.17526(9)
C5 C 0.9489(3) 0.7186(2) 0.16245(9)
C6 C 0.9143(3) 0.6613(2) 0.11059(9)
C7 C 0.7588(2) 0.6727(2) 0.01781(8)
C8 C 0.7335(3) 0.4560(2) -0.03100(8)
C9 C 0.6540(2) 0.3389(2) -0.01628(8)
C10 C 0.5987(3) 0.2347(2) -0.05998(10)
C11 C 0.5924(5) 0.2972(3) -0.11787(11)
C12 C 0.7464(4) 0.3824(3) -0.13114(11)
C13 C 0.7699(3) 0.5007(3) -0.08953(9)
C14 C 0.6298(2) 0.2955(2) 0.04311(9)
C15 C 0.5783(2) 0.3995(2) 0.08636(9)
C16 C 0.4666(2) 0.5081(2) 0.07367(9)
C17 C 0.4199(3) 0.6024(2) 0.11445(9)
C18 C 0.4887(3) 0.5877(2) 0.16740(9)
C19 C 0.5948(3) 0.4798(2) 0.18184(9)
C20 C 0.6388(3) 0.3843(2) 0.14104(9)
H1 H 0.678(3) 0.905(2) 0.0596(9)
H2 H 0.718(3) 1.009(3) 0.1496(11)
H3 H 1.021(3) 0.671(3) 0.1893(10)
H4 H 0.958(3) 0.577(2) 0.1011(8)
H5 H 0.478(3) 0.197(3) -0.0493(10)
H6 H 0.678(3) 0.153(3) -0.0569(10)
H7 H 0.590(4) 0.215(3) -0.1474(13)
H8 H 0.487(4) 0.365(3) -0.1188(12)
H9 H 0.744(3) 0.421(2) -0.1711(11)
H10 H 0.856(4) 0.314(3) -0.1276(12)
H11 H 0.884(3) 0.544(3) -0.0940(9)
H12 H 0.692(3) 0.575(2) -0.1004(9)
H13 H 0.424(2) 0.5132(19) 0.0360(8)
H14 H 0.344(3) 0.678(2) 0.1051(8)
H15 H 0.643(3) 0.471(2) 0.2185(9)
H16 H 0.716(3) 0.304(2) 0.1482(9)
C21? C 0.678(6) 0.243(3) -0.1187(10)
H17? H 0.47350 0.24300 -0.06430
H18? H 0.62190 0.14050 -0.04490
H19? H 0.77180 0.17400 -0.12160
H20? H 0.59090 0.21870 -0.14700
H21? H 0.67320 0.42020 -0.16130
H22? H 0.86000 0.36690 -0.14810
#END
