
#######################################################################
#
#                 Cambridge Crystallographic Data Centre
#                                CCDC
#
#######################################################################
#
# If this CIF has been generated from an entry in the Cambridge
# Structural Database, then it will include bibliographic, chemical,
# crystal, experimental, refinement or atomic coordinate data resulting
# from the CCDC's data processing and validation procedures.
#
#######################################################################

data_CSD_CIF_BAGMEC
_audit_creation_date 2002-04-24
_audit_creation_method CSD-ConQuest-V1
_database_code_CSD BAGMEC
_database_code_depnum_ccdc_archive 'CCDC 174902'
_chemical_formula_sum 'C6 H12 N6 O3'
_chemical_formula_moiety
;
C6 H12 N6 O3
;
_journal_coden_Cambridge 24
_journal_volume 43
_journal_year 2002
_journal_page_first 771
_journal_name_full 'Tetrahedron Lett. '
loop_
_publ_author_name
"M.Pacchioni"
"A.Bega"
"A.C.Fabretti"
"D.Rovai"
"A.Cornia"
_chemical_name_systematic
;
1,4,7-Trinitroso-1,4,7-triazacyclononane
;
_chemical_melting_point 461.15
_cell_volume    977.386
_exptl_crystal_colour 'colorless'
_exptl_crystal_density_diffrn 1.469
_exptl_crystal_description 'needles'
_exptl_crystal_preparation 'dichloromethane'
_diffrn_ambient_temperature 298
#These two values have been output from a single CSD field.
_refine_ls_R_factor_gt 0.0388
_refine_ls_wR_factor_gt 0.0388
_symmetry_cell_setting monoclinic
_symmetry_space_group_name_H-M 'P 21/c'
_symmetry_Int_Tables_number 14
loop_
_symmetry_equiv_pos_site_id
_symmetry_equiv_pos_as_xyz
1 x,y,z
2 x,1/2-y,1/2+z
3 -x,-y,-z
4 -x,-1/2+y,-1/2-z
_cell_length_a 12.3314(13)
_cell_length_b 5.7996(3)
_cell_length_c 13.7077(14)
_cell_angle_alpha 90
_cell_angle_beta 94.446(12)
_cell_angle_gamma 90
_cell_formula_units_Z 4
loop_
_atom_type_symbol
_atom_type_radius_bond
C 0.68
H 0.23
N 0.68
O 0.68
loop_
_atom_site_label
_atom_site_type_symbol
_atom_site_fract_x
_atom_site_fract_y
_atom_site_fract_z
C1 C 0.65372(16) -0.1197(3) 0.92124(13)
C2 C 0.59326(14) -0.1884(4) 0.82551(13)
C3 C 0.70495(16) -0.0357(3) 0.69057(14)
C4 C 0.82765(18) -0.0305(5) 0.69620(16)
C5 C 0.88402(17) 0.1625(4) 0.85955(17)
C6 C 0.81858(16) 0.1474(4) 0.94795(15)
N1 N 0.70236(11) 0.1108(3) 0.92466(10)
N2 N 0.66193(11) -0.2269(2) 0.74507(10)
N3 N 0.87721(12) -0.0394(3) 0.79591(12)
N4 N 0.64154(14) 0.2966(3) 0.93033(12)
N5 N 0.67088(14) -0.4431(3) 0.71727(12)
N6 N 0.92377(15) -0.2366(4) 0.82161(15)
O1 O 0.54235(12) 0.2618(3) 0.91939(12)
O2 O 0.72261(12) -0.4719(3) 0.64416(10)
O3 O 0.96825(15) -0.2405(3) 0.90590(15)
H1 H 0.7101(14) -0.227(3) 0.9364(13)
H2 H 0.6021(16) -0.124(3) 0.9707(15)
H3 H 0.5415(16) -0.079(3) 0.8052(14)
H4 H 0.5560(15) -0.336(4) 0.8367(13)
H5 H 0.6777(16) -0.046(3) 0.6237(16)
H6 H 0.6759(15) 0.101(4) 0.7177(14)
H7 H 0.8508(17) 0.102(4) 0.6695(16)
H8 H 0.8557(18) -0.162(4) 0.6643(17)
H9 H 0.9581(19) 0.179(4) 0.8831(16)
H10 H 0.8604(18) 0.291(4) 0.8181(15)
H11 H 0.8426(16) 0.022(4) 0.9901(15)
H12 H 0.8247(17) 0.288(4) 0.9846(16)
#END
