
#######################################################################
#
#                 Cambridge Crystallographic Data Centre
#                                CCDC
#
#######################################################################
#
# If this CIF has been generated from an entry in the Cambridge
# Structural Database, then it will include bibliographic, chemical,
# crystal, experimental, refinement or atomic coordinate data resulting
# from the CCDC's data processing and validation procedures.
#
#######################################################################

data_CSD_CIF_BAGQEF
_audit_creation_date 1999-11-09
_audit_creation_method CSD-ConQuest-V1
_database_code_CSD BAGQEF
_chemical_formula_sum 'C14 H12 N4 O3'
_chemical_formula_moiety
;
C14 H12 N4 O3
;
_journal_coden_Cambridge 35
_journal_volume 63
_journal_year 1998
_journal_page_first 10027
_journal_name_full 'J.Org.Chem. '
loop_
_publ_author_name
"J.S.Daniels"
"T.Chatterji"
"L.R.MacGillivray"
"K.S.Gates"
_chemical_name_systematic
;
3-(4-Methoxyanilino)-1,2,4-benzotriazine 1,4-dioxide
;
_chemical_melting_point 483.15
_cell_volume   2600.407
_exptl_crystal_colour 'red'
_exptl_crystal_density_diffrn 1.45
_exptl_special_details
;
Melting point range 483.15-486.15K

;
_exptl_crystal_preparation 'chloroform'
_diffrn_ambient_temperature ?
_diffrn_special_details
;
The study was carried out at room temperature,in the range 283-303K

;
#These two values have been output from a single CSD field.
_refine_ls_R_factor_gt 0.0498
_refine_ls_wR_factor_gt 0.0498
_symmetry_cell_setting monoclinic
_symmetry_space_group_name_H-M 'P 21/n'
_symmetry_Int_Tables_number 14
loop_
_symmetry_equiv_pos_site_id
_symmetry_equiv_pos_as_xyz
1 x,y,z
2 1/2-x,1/2+y,1/2-z
3 -x,-y,-z
4 -1/2+x,-1/2-y,-1/2+z
_cell_length_a 9.976(1)
_cell_length_b 11.353(1)
_cell_length_c 23.319(2)
_cell_angle_alpha 90
_cell_angle_beta 100.065(1)
_cell_angle_gamma 90
_cell_formula_units_Z 8
loop_
_atom_type_symbol
_atom_type_radius_bond
C 0.68
H 0.23
N 0.68
O 0.68
loop_
_atom_site_label
_atom_site_type_symbol
_atom_site_fract_x
_atom_site_fract_y
_atom_site_fract_z
O1 O -0.2329(2) 0.8537(2) -0.0521(1)
O2 O 0.2300(2) 0.6350(2) 0.0293(1)
O3 O -0.1310(2) 0.4079(2) -0.2916(1)
N1 N -0.1198(2) 0.8057(2) -0.0320(1)
N2 N -0.0772(2) 0.7212(2) -0.0633(1)
N3 N 0.1176(2) 0.6939(2) 0.0108(1)
N4 N 0.0876(2) 0.5785(2) -0.0707(1)
C1 C -0.0441(3) 0.8436(2) 0.0208(1)
C2 C -0.0892(3) 0.9369(3) 0.0520(1)
C3 C -0.0106(3) 0.9713(3) 0.1028(1)
C4 C 0.1124(3) 0.9144(3) 0.1239(1)
C5 C 0.1571(3) 0.8220(2) 0.0949(1)
C6 C 0.0777(3) 0.7860(2) 0.0420(1)
C7 C 0.0408(3) 0.6669(2) -0.0415(1)
C8 C 0.0273(3) 0.5370(2) -0.1270(1)
C9 C -0.0161(3) 0.6113(3) -0.1734(1)
C10 C -0.0674(3) 0.5648(3) -0.2276(1)
C11 C -0.0748(3) 0.4451(3) -0.2366(1)
C12 C -0.0285(3) 0.3703(2) -0.1908(1)
C13 C 0.0217(3) 0.4171(2) -0.1363(1)
C14 C -0.1384(4) 0.2844(3) -0.3033(1)
O4 O 0.7031(2) 0.1469(2) 0.0533(1)
O5 O 0.2607(2) 0.3906(2) -0.0319(1)
O6 O 0.6122(2) 0.6346(2) 0.2856(1)
N5 N 0.5977(2) 0.2031(2) 0.0317(1)
N6 N 0.5593(2) 0.2903(2) 0.0625(1)
N7 N 0.3735(2) 0.3304(2) -0.0138(1)
N8 N 0.4041(2) 0.4417(2) 0.0689(1)
C15 C 0.5257(3) 0.1728(2) -0.0234(1)
C16 C 0.5660(3) 0.0776(3) -0.0544(1)
C17 C 0.4937(3) 0.0530(3) -0.1080(1)
C18 C 0.3823(4) 0.1222(3) -0.1319(1)
C19 C 0.3405(3) 0.2142(3) -0.1020(1)
C20 C 0.4126(3) 0.2400(2) -0.0466(1)
C21 C 0.4488(3) 0.3526(2) 0.0393(1)
C22 C 0.4642(3) 0.4844(2) 0.1249(1)
C23 C 0.6030(3) 0.4892(3) 0.1442(1)
C24 C 0.6557(3) 0.5378(3) 0.1977(1)
C25 C 0.5697(3) 0.5832(3) 0.2321(1)
C26 C 0.4309(3) 0.5770(3) 0.2135(1)
C27 C 0.3783(3) 0.5282(3) 0.1600(1)
C28 C 0.7466(3) 0.6788(3) 0.2981(1)
H1 H 0.16790 0.51940 -0.04850
H2 H -0.1730(3) 0.9754(3) 0.0378(1)
H3 H -0.0397(3) 1.0346(3) 0.1243(1)
H4 H 0.1662(3) 0.9408(3) 0.1592(1)
H5 H 0.2400(3) 0.7829(2) 0.1100(1)
H6 H -0.0107(3) 0.6943(3) -0.1681(1)
H7 H -0.0982(3) 0.6165(3) -0.2592(1)
H8 H -0.0310(3) 0.2874(2) -0.1965(1)
H9 H 0.0529(3) 0.3654(2) -0.1048(1)
H10 H -0.1825(4) 0.2713(3) -0.3438(1)
H11 H -0.1915(4) 0.2460(3) -0.2770(1)
H12 H -0.0463(4) 0.2513(3) -0.2972(1)
H13 H 0.32050 0.48060 0.04790
H14 H 0.6426(3) 0.0311(3) -0.0383(1)
H15 H 0.5192(3) -0.0120(3) -0.1293(1)
H16 H 0.3346(4) 0.1047(3) -0.1699(1)
H17 H 0.2637(3) 0.2600(3) -0.1185(1)
H18 H 0.6630(3) 0.4586(3) 0.1204(1)
H19 H 0.7514(3) 0.5399(3) 0.2106(1)
H20 H 0.3711(3) 0.6066(3) 0.2376(1)
H21 H 0.2825(3) 0.5247(3) 0.1475(1)
H22 H 0.7634(3) 0.7127(3) 0.3374(1)
H23 H 0.7584(3) 0.7398(3) 0.2697(1)
H24 H 0.8112(3) 0.6146(3) 0.2960(1)
#END
