
#######################################################################
#
#                 Cambridge Crystallographic Data Centre
#                                CCDC
#
#######################################################################
#
# If this CIF has been generated from an entry in the Cambridge
# Structural Database, then it will include bibliographic, chemical,
# crystal, experimental, refinement or atomic coordinate data resulting
# from the CCDC's data processing and validation procedures.
#
#######################################################################

data_CSD_CIF_BAGVIP
_audit_creation_date 2002-04-24
_audit_creation_method CSD-ConQuest-V1
_database_code_CSD BAGVIP
_database_code_depnum_ccdc_archive 'CCDC 181383'
_database_code_depnum_ccdc_journal 1267/670
_chemical_formula_sum 'C25 H25 N1 O3'
_chemical_formula_moiety
;
C25 H25 N1 O3
;
_journal_coden_Cambridge 1267
_journal_volume 216
_journal_year 2001
_journal_page_first 591
_journal_name_full 'Z.Kristallogr.-New Cryst.Struct. '
loop_
_publ_author_name
"H.Hartl"
"I.Brudgam"
"H.-U.Reissig"
"M.Buchholz"
_chemical_name_systematic
;
(4R*,5S*,6R*)-6-Ethoxy-4-((1S*)-(1-hydroxy-1-phenyl)methyl)-3,5-diphenyl-5,6-d
ihydro-4H-1,2-oxazine
;
_cell_volume   1047.396
_exptl_crystal_colour 'colorless'
_exptl_crystal_density_diffrn 1.229
_exptl_crystal_description 'small rod'
_exptl_crystal_preparation 'hexane/ethyl acetate'
_diffrn_ambient_temperature 223
#These two values have been output from a single CSD field.
_refine_ls_R_factor_gt 0.0419
_refine_ls_wR_factor_gt 0.0419
_symmetry_cell_setting triclinic
_symmetry_space_group_name_H-M 'P -1'
_symmetry_Int_Tables_number 2
loop_
_symmetry_equiv_pos_site_id
_symmetry_equiv_pos_as_xyz
1 x,y,z
2 -x,-y,-z
_cell_length_a 7.8805(5)
_cell_length_b 9.5857(6)
_cell_length_c 14.4571(9)
_cell_angle_alpha 75.401(1)
_cell_angle_beta 89.526(1)
_cell_angle_gamma 82.481(1)
_cell_formula_units_Z 2
loop_
_atom_type_symbol
_atom_type_radius_bond
C 0.68
H 0.23
N 0.68
O 0.68
loop_
_atom_site_label
_atom_site_type_symbol
_atom_site_fract_x
_atom_site_fract_y
_atom_site_fract_z
C1 C 0.63107(18) -0.06455(15) 0.36107(11)
H1 H 0.72470 -0.01920 0.37860
H2 H 0.66510 -0.10320 0.30680
C2 C 0.5915(2) -0.18441(15) 0.44323(11)
H3 H 0.55940 -0.14560 0.49690
H4 H 0.69080 -0.25600 0.46030
H5 H 0.49880 -0.22880 0.42530
C3 C 0.30821(12) 0.19225(10) 0.12405(6)
C4 C 0.22030(11) 0.25545(10) 0.20025(6)
H6 H 0.16040 0.35090 0.16690
C5 C 0.35004(11) 0.28465(10) 0.27063(6)
H7 H 0.29770 0.26810 0.33350
C6 C 0.51359(12) 0.17796(11) 0.28049(7)
H8 H 0.59910 0.21200 0.31530
C7 C 0.20535(12) 0.17969(10) 0.04100(6)
C8 C 0.06464(14) 0.28243(12) 0.00378(8)
H9 H 0.02920 0.35630 0.03360
C9 C -0.02317(16) 0.27516(14) -0.07769(9)
H10 H -0.11670 0.34420 -0.10220
C10 C 0.02875(15) 0.16503(15) -0.12233(8)
H11 H -0.02900 0.16070 -0.17720
C11 C 0.16615(14) 0.06208(13) -0.08518(8)
H12 H 0.20030 -0.01230 -0.11480
C12 C 0.25392(12) 0.06857(11) -0.00388(7)
H13 H 0.34600 -0.00190 0.02090
C13 C 0.07983(12) 0.16514(11) 0.24953(7)
C14 C -0.01475(12) 0.24142(11) 0.31915(7)
C15 C -0.11222(13) 0.37639(13) 0.28494(8)
H14 H -0.12150 0.41820 0.21940
C16 C -0.19577(16) 0.44942(15) 0.34729(10)
H15 H -0.26030 0.53980 0.32360
C17 C -0.18296(19) 0.38767(18) 0.44462(11)
H16 H -0.23930 0.43630 0.48650
C18 C -0.0870(2) 0.25443(18) 0.47950(9)
H17 H -0.07820 0.21310 0.54510
C19 C -0.00275(16) 0.18092(14) 0.41711(8)
H18 H 0.06190 0.09070 0.44120
C20 C 0.38486(12) 0.44123(10) 0.24278(7)
C21 C 0.31582(14) 0.53443(12) 0.29737(8)
H19 H 0.25190 0.49880 0.35040
C22 C 0.34092(18) 0.67960(13) 0.27381(10)
H20 H 0.29340 0.74040 0.31090
C23 C 0.43521(19) 0.73405(13) 0.1962(1)
H21 H 0.45360 0.83100 0.18120
C24 C 0.50306(18) 0.64343(15) 0.14024(10)
H22 H 0.56620 0.68020 0.08710
C25 C 0.47749(15) 0.49783(13) 0.16292(8)
H23 H 0.52250 0.43820 0.12450
O1 O 0.58257(9) 0.16712(9) 0.19114(5)
O2 O 0.47979(10) 0.04162(8) 0.33595(5)
O3 O 0.14485(11) 0.01797(8) 0.29283(6)
N1 N 0.46951(11) 0.15349(10) 0.11843(6)
H24 H -0.0037(15) 0.1618(13) 0.2001(8)
H25 H 0.251(2) 0.011(2) 0.3164(12)
#END
