
#######################################################################
#
#                 Cambridge Crystallographic Data Centre
#                                CCDC
#
#######################################################################
#
# If this CIF has been generated from an entry in the Cambridge
# Structural Database, then it will include bibliographic, chemical,
# crystal, experimental, refinement or atomic coordinate data resulting
# from the CCDC's data processing and validation procedures.
#
#######################################################################

data_CSD_CIF_BAHDIY
_audit_creation_date 2002-04-24
_audit_creation_method CSD-ConQuest-V1
_database_code_CSD BAHDIY
_database_code_depnum_ccdc_archive 'CCDC 178242'
_chemical_formula_sum 'C14 H16 N3 O1'
_chemical_formula_moiety
;
C14 H16 N3 O1
;
_journal_coden_Cambridge 182
_journal_year 2002
_journal_page_first 636
_journal_name_full 'Chem.Commun. '
loop_
_publ_author_name
"L.M.Field"
"P.M.Lahti"
"F.Palacio"
_chemical_name_systematic
;
5-(4-(N-t-Butyl-N-aminoxyl)phenyl)pyrimidine
;
_chemical_melting_point 376
_cell_volume   1293.194
_exptl_crystal_density_diffrn 1.245
_exptl_special_details
;
Melting point range 376-378K

;
_diffrn_ambient_temperature 293
#These two values have been output from a single CSD field.
_refine_ls_R_factor_gt 0.0466
_refine_ls_wR_factor_gt 0.0466
_symmetry_cell_setting triclinic
_symmetry_space_group_name_H-M 'P -1'
_symmetry_Int_Tables_number 2
loop_
_symmetry_equiv_pos_site_id
_symmetry_equiv_pos_as_xyz
1 x,y,z
2 -x,-y,-z
_cell_length_a 8.6102(2)
_cell_length_b 12.2878(3)
_cell_length_c 12.5928(3)
_cell_angle_alpha 82.9002(12)
_cell_angle_beta 82.7916(11)
_cell_angle_gamma 79.6236(12)
_cell_formula_units_Z 4
loop_
_atom_type_symbol
_atom_type_radius_bond
C 0.68
H 0.23
N 0.68
O 0.68
loop_
_atom_site_label
_atom_site_type_symbol
_atom_site_fract_x
_atom_site_fract_y
_atom_site_fract_z
O1 O 0.4914(2) 0.29661(13) 0.68338(11)
O2 O 0.1966(2) 0.85586(11) 0.74349(11)
N1 N 0.1646(2) -0.08234(13) 0.24731(13)
N2 N 0.2030(2) 0.09003(13) 0.14866(12)
N3 N 0.40194(16) 0.22203(11) 0.70409(11)
N4 N 0.2112(2) 0.39428(13) 0.27817(14)
N5 N 0.21671(19) 0.57383(13) 0.18533(12)
N6 N 0.21639(18) 0.74961(11) 0.76053(11)
C1 C 0.1613(3) -0.01002(16) 0.16059(15)
H1 H 0.12560 -0.03160 0.10100
C2 C 0.2145(2) -0.04954(14) 0.33213(14)
H2 H 0.22070 -0.09870 0.39450
C3 C 0.25751(19) 0.05334(12) 0.33278(12)
C4 C 0.2494(2) 0.12069(14) 0.23612(13)
H3 H 0.27770 0.19080 0.23200
C5 C 0.30178(18) 0.09103(12) 0.43020(12)
C6 C 0.2246(2) 0.06369(14) 0.53115(13)
H4 H 0.14950 0.01690 0.53740
C7 C 0.2560(2) 0.10370(14) 0.62195(13)
H5 H 0.20210 0.08390 0.68830
C8 C 0.36783(18) 0.17354(12) 0.61531(12)
C9 C 0.4494(2) 0.19920(14) 0.51532(13)
H6 H 0.52670 0.24430 0.50940
C10 C 0.4167(2) 0.15835(14) 0.42504(13)
H7 H 0.47280 0.17620 0.35900
C11 C 0.3340(2) 0.19975(15) 0.81935(14)
C12 C 0.3673(3) 0.07606(18) 0.85564(16)
H8 H 0.47980 0.05040 0.84850
H9 H 0.31770 0.03660 0.81180
H10 H 0.32530 0.06300 0.92950
C13 C 0.4187(3) 0.2601(2) 0.88744(17)
H11 H 0.52980 0.22950 0.88190
H12 H 0.37460 0.25090 0.96120
H13 H 0.40510 0.33780 0.86210
C14 C 0.1583(3) 0.2487(2) 0.8289(2)
H14 H 0.10390 0.21030 0.78710
H15 H 0.14490 0.32620 0.80270
H16 H 0.11510 0.24050 0.90300
C15 C 0.2168(2) 0.46573(16) 0.19115(15)
H17 H 0.22150 0.43650 0.12590
C16 C 0.2041(2) 0.43745(14) 0.37102(15)
H18 H 0.19880 0.39020 0.43460
C17 C 0.20427(19) 0.54889(13) 0.37760(13)
C18 C 0.2110(2) 0.61399(14) 0.27958(13)
H19 H 0.21150 0.68960 0.27960
C19 C 0.20042(19) 0.59590(13) 0.48082(13)
C20 C 0.2817(2) 0.53797(14) 0.56445(14)
H20 H 0.33500 0.46600 0.55720
C21 C 0.2852(2) 0.58478(15) 0.65810(14)
H21 H 0.33980 0.54400 0.71320
C22 C 0.2076(2) 0.69253(13) 0.67039(12)
C23 C 0.1227(2) 0.74971(14) 0.58856(13)
H22 H 0.06760 0.82110 0.59640
C24 C 0.1187(2) 0.70239(13) 0.49578(13)
H23 H 0.06040 0.74220 0.44200
C25 C 0.2312(2) 0.69711(14) 0.87391(12)
C26 C 0.1115(3) 0.61839(18) 0.90277(15)
H24 H 0.00670 0.65870 0.89430
H25 H 0.11660 0.58670 0.97610
H26 H 0.13560 0.56000 0.85610
C27 C 0.1918(3) 0.78882(17) 0.94828(15)
H27 H 0.08540 0.82710 0.94150
H28 H 0.26470 0.84040 0.92910
H29 H 0.20020 0.75690 1.02130
C28 C 0.4006(3) 0.6389(2) 0.88581(19)
H30 H 0.42840 0.58100 0.83880
H31 H 0.40860 0.60720 0.95890
H32 H 0.47170 0.69180 0.86720
#END
