
#######################################################################
#
#                 Cambridge Crystallographic Data Centre
#                                CCDC
#
#######################################################################
#
# If this CIF has been generated from an entry in the Cambridge
# Structural Database, then it will include bibliographic, chemical,
# crystal, experimental, refinement or atomic coordinate data resulting
# from the CCDC's data processing and validation procedures.
#
#######################################################################

data_CSD_CIF_BAHMUS
_audit_creation_date 1982-03-29
_audit_creation_method CSD-ConQuest-V1
_database_code_CSD BAHMUS
_chemical_formula_sum 'C15 H24 N2 O2'
_chemical_formula_moiety
;
C15 H24 N2 O2
;
_journal_coden_Cambridge 16
_journal_volume 37
_journal_year 1981
_journal_page_first 3615
_journal_name_full 'Tetrahedron '
loop_
_publ_author_name
"R.Brambilla"
"R.Friary"
"A.Ganguly"
"M.S.Puar"
"B.R.Sunday"
"J.J.Wright"
"K.D.Onan"
"A.T.McPhail"
_chemical_name_systematic
;
1,11\b-Dimethyl-2a\b,3,4,5,5a\b,8,9,10,11a\a,11b,11c\b-dodecahydro-2H-isoxazol
o(5,4,3-kl)benzo(b)quinolizin-6-one
;
_chemical_melting_point 383.15
_cell_volume   1397.188
_exptl_crystal_colour 'colorless'
_exptl_crystal_density_diffrn 1.257
_exptl_special_details
;
Melting point range 383.15-385.15K

;
_diffrn_ambient_temperature ?
_diffrn_special_details
;
The study was carried out at room temperature,in the range 283-303K

;
#These two values have been output from a single CSD field.
_refine_ls_R_factor_gt 0.05
_refine_ls_wR_factor_gt 0.05
_symmetry_cell_setting orthorhombic
_symmetry_space_group_name_H-M 'P 21 21 21'
_symmetry_Int_Tables_number 19
loop_
_symmetry_equiv_pos_site_id
_symmetry_equiv_pos_as_xyz
1 x,y,z
2 1/2+x,1/2-y,-z
3 -x,1/2+y,1/2-z
4 1/2-x,-y,1/2+z
_cell_length_a 10.094(5)
_cell_length_b 12.845(6)
_cell_length_c 10.776(5)
_cell_angle_alpha 90
_cell_angle_beta 90
_cell_angle_gamma 90
_cell_formula_units_Z 4
loop_
_atom_type_symbol
_atom_type_radius_bond
C 0.68
H 0.23
N 0.68
O 0.68
loop_
_atom_site_label
_atom_site_type_symbol
_atom_site_fract_x
_atom_site_fract_y
_atom_site_fract_z
N1 N 0.75450 0.59100 0.30540
O1 O 0.84690 0.50530 0.29700
C1 C 0.86360 0.46810 0.42190
C2 C 0.93610 0.36540 0.41910
C3 C 0.85180 0.27780 0.37160
C4 C 0.72570 0.27080 0.44540
C5 C 0.64330 0.37070 0.43500
C6 C 0.57030 0.37680 0.31260
N2 N 0.51840 0.46960 0.28140
C7 C 0.40310 0.47240 0.19980
C8 C 0.27770 0.47340 0.27840
C9 C 0.28170 0.56140 0.37380
C10 C 0.40730 0.56090 0.45030
C11 C 0.52770 0.56110 0.36310
C12 C 0.66810 0.57020 0.41700
C13 C 0.72330 0.46800 0.47240
C14 C 0.83350 0.68660 0.30990
C15 C 0.67020 0.65710 0.51440
O2 O 0.55040 0.29860 0.24870
H1 H 0.91200 0.52100 0.47500
H2 H 1.02500 0.37000 0.38600
H3 H 0.95800 0.35200 0.52000
H4 H 0.83000 0.28500 0.28500
H5 H 0.89900 0.20900 0.38000
H6 H 0.67300 0.21800 0.42400
H7 H 0.75700 0.27000 0.53900
H8 H 0.56500 0.36000 0.49300
H9 H 0.40900 0.53500 0.15300
H10 H 0.41100 0.41400 0.14500
H11 H 0.19300 0.48400 0.22500
H12 H 0.26400 0.40100 0.31200
H13 H 0.26800 0.62900 0.32900
H14 H 0.20500 0.56100 0.42600
H15 H 0.40900 0.62100 0.50300
H16 H 0.41600 0.49900 0.50500
H17 H 0.51300 0.62600 0.31000
H18 H 0.71600 0.47600 0.55600
H19 H 0.88400 0.68800 0.23600
H20 H 0.76900 0.74600 0.30500
H21 H 0.89700 0.68900 0.38700
H22 H 0.76200 0.66600 0.54400
H23 H 0.61800 0.63900 0.57900
H24 H 0.62900 0.72900 0.47700
#END
