
#######################################################################
#
#                 Cambridge Crystallographic Data Centre
#                                CCDC
#
#######################################################################
#
# If this CIF has been generated from an entry in the Cambridge
# Structural Database, then it will include bibliographic, chemical,
# crystal, experimental, refinement or atomic coordinate data resulting
# from the CCDC's data processing and validation procedures.
#
#######################################################################

data_CSD_CIF_BAHPOP
_audit_creation_date 1982-03-29
_audit_creation_method CSD-ConQuest-V1
_database_code_CSD BAHPOP
_database_code_depnum_ccdc_archive 'CCDC 1105286'
_chemical_formula_sum 'C29 H40 N4 O5'
_chemical_formula_moiety
;
C29 H40 N4 O5
;
_journal_coden_Cambridge 24
_journal_volume 22
_journal_year 1981
_journal_page_first 4173
_journal_name_full 'Tetrahedron Lett. '
loop_
_publ_author_name
"J.Hellou"
"R.J.Andersen"
"S.Rafii"
"E.Arnold"
"J.Clardy"
_chemical_name_systematic
;
Luteone-2,4-dinitrophenylhydrazone
;
_chemical_melting_point 357.15
_cell_volume   2817.254
_exptl_crystal_density_diffrn 1.24
_exptl_special_details
;
Melting point range 357.15-359.15K

;
_diffrn_ambient_temperature ?
_diffrn_special_details
;
The study was carried out at room temperature,in the range 283-303K

;
#These two values have been output from a single CSD field.
_refine_ls_R_factor_gt 0.059
_refine_ls_wR_factor_gt 0.059
_chemical_compound_source
;
Cadlina luteomarginata
;
_symmetry_cell_setting orthorhombic
_symmetry_space_group_name_H-M 'P 21 21 21'
_symmetry_Int_Tables_number 19
loop_
_symmetry_equiv_pos_site_id
_symmetry_equiv_pos_as_xyz
1 x,y,z
2 1/2+x,1/2-y,-z
3 -x,1/2+y,1/2-z
4 1/2-x,-y,1/2+z
_cell_length_a 7.243(2)
_cell_length_b 18.471(3)
_cell_length_c 21.058(4)
_cell_angle_alpha 90
_cell_angle_beta 90
_cell_angle_gamma 90
_cell_formula_units_Z 4
loop_
_atom_type_symbol
_atom_type_radius_bond
C 0.68
H 0.23
N 0.68
O 0.68
loop_
_atom_site_label
_atom_site_type_symbol
_atom_site_fract_x
_atom_site_fract_y
_atom_site_fract_z
C1 C 0.12870 -0.11970 0.52670
C2 C 0.11840 -0.14440 0.59600
C3 C 0.23350 -0.09780 0.63770
C4 C 0.43630 -0.09330 0.61910
C5 C 0.44990 -0.06970 0.54750
C6 C 0.64410 -0.06080 0.52230
C7 C 0.64350 -0.02310 0.45730
C8 C 0.52450 -0.06000 0.40690
C9 C 0.33080 -0.07690 0.43480
C10 C 0.32800 -0.11590 0.50200
C11 C 0.20190 -0.11120 0.38560
C12 C 0.18470 -0.06360 0.32620
C13 C 0.36810 -0.04150 0.30040
C14 C 0.49050 -0.00450 0.35140
C15 C 0.66260 0.02950 0.32320
C16 C 0.61830 0.09730 0.27960
C17 C 0.58830 0.16760 0.31460
C18 C 0.55620 0.23090 0.27030
C19 C 0.41840 -0.05810 0.24190
C20 C 0.62740 -0.12640 0.38140
C21 C 0.40240 -0.19260 0.49350
C22 C 0.53420 -0.16290 0.63380
C23 C 0.52660 -0.03340 0.65890
O1 O 0.30750 -0.24300 0.47850
N1 N 0.59330 0.16990 0.37560
N2 N 0.57180 0.23900 0.40090
C24 C 0.57240 0.24410 0.46790
C25 C 0.55670 0.31260 0.49790
C26 C 0.55450 0.31740 0.56360
C27 C 0.55730 0.25570 0.59830
C28 C 0.56980 0.18710 0.56920
C29 C 0.57450 0.18190 0.50550
N3 N 0.54610 0.37930 0.46250
O2 O 0.54520 0.37770 0.40530
O3 O 0.54130 0.43440 0.49300
N4 N 0.55730 0.26230 0.66810
O4 O 0.57010 0.32170 0.69130
O5 O 0.55420 0.20690 0.69730
H1 H 0.05200 -0.06800 0.51700
H2 H 0.04500 -0.15100 0.49700
H3 H -0.02400 -0.17000 0.61200
H4 H 0.16400 -0.19800 0.59400
H5 H 0.21500 -0.10300 0.69100
H6 H 0.16000 -0.04800 0.63100
H7 H 0.37500 -0.01500 0.54500
H8 H 0.71200 -0.11300 0.51900
H9 H 0.75000 -0.03200 0.55300
H10 H 0.58600 0.01900 0.46300
H11 H 0.78300 -0.00600 0.44600
H12 H 0.28300 -0.01800 0.44400
H13 H 0.06000 -0.11700 0.40400
H14 H 0.24300 -0.16400 0.37900
H15 H 0.13400 -0.01600 0.34100
H16 H 0.08100 -0.08000 0.29600
H17 H 0.41600 0.03800 0.37300
H18 H 0.54200 -0.03500 0.22500
H19 H 0.29600 -0.08400 0.21400
H20 H 0.57700 -0.19700 0.49400
H21 H 0.66500 -0.18100 0.60900
H22 H 0.45900 -0.20400 0.61400
H23 H 0.53400 -0.18700 0.67200
H24 H 0.50500 0.01800 0.64600
H25 H 0.50500 -0.04700 0.70300
H26 H 0.68000 -0.04100 0.65900
H27 H 0.70600 -0.11300 0.35100
H28 H 0.70200 -0.16100 0.41100
H29 H 0.74900 0.11500 0.25000
H30 H 0.44200 0.27300 0.28400
H31 H 0.65100 0.26500 0.28400
H32 H 0.54200 0.23100 0.22700
H33 H 0.58300 0.36300 0.59900
H34 H 0.62400 0.15000 0.60800
H35 H 0.54300 0.12600 0.47700
#END
