
#######################################################################
#
#                 Cambridge Crystallographic Data Centre
#                                CCDC
#
#######################################################################
#
# If this CIF has been generated from an entry in the Cambridge
# Structural Database, then it will include bibliographic, chemical,
# crystal, experimental, refinement or atomic coordinate data resulting
# from the CCDC's data processing and validation procedures.
#
#######################################################################

data_CSD_CIF_BAHQUW
_audit_creation_date 1999-11-09
_audit_creation_method CSD-ConQuest-V1
_database_code_CSD BAHQUW
_chemical_formula_sum 'C17 H18 N2 O6'
_chemical_formula_moiety
;
C17 H18 N2 O6
;
_journal_coden_Cambridge 35
_journal_volume 63
_journal_year 1998
_journal_page_first 9414
_journal_name_full 'J.Org.Chem. '
loop_
_publ_author_name
"G.J.Atwell"
"M.Tercel"
"M.Boyd"
"W.R.Wilson"
"W.A.Denny"
_chemical_name_systematic
;
Diethyl 2-(4-amino-2-nitro-1-naphthyl)malonate
;
_cell_volume    857.437
_exptl_crystal_colour 'red'
_exptl_crystal_density_diffrn 1.341
_exptl_crystal_preparation 'ethanol'
_diffrn_ambient_temperature ?
_diffrn_special_details
;
The study was carried out at room temperature,in the range 283-303K

;
_refine_special_details
;
One ethyl group is disordered.

;
#These two values have been output from a single CSD field.
_refine_ls_R_factor_gt 0.0546
_refine_ls_wR_factor_gt 0.0546
_symmetry_cell_setting triclinic
_symmetry_space_group_name_H-M 'P -1'
_symmetry_Int_Tables_number 2
loop_
_symmetry_equiv_pos_site_id
_symmetry_equiv_pos_as_xyz
1 x,y,z
2 -x,-y,-z
_cell_length_a 10.0519(3)
_cell_length_b 10.2242(3)
_cell_length_c 10.2630(3)
_cell_angle_alpha 105.382(1)
_cell_angle_beta 97.990(1)
_cell_angle_gamma 117.643(1)
_cell_formula_units_Z 2
loop_
_atom_type_symbol
_atom_type_radius_bond
C 0.68
H 0.23
N 0.68
O 0.68
loop_
_atom_site_label
_atom_site_type_symbol
_atom_site_fract_x
_atom_site_fract_y
_atom_site_fract_z
N1 N 0.4978(3) 0.1964(2) 0.4498(2)
N2 N 0.7369(2) -0.0356(2) 0.1752(2)
O1 O 0.3785(2) 0.2048(2) 0.4332(2)
O2 O 0.5577(3) 0.1852(2) 0.5556(2)
O3 O 0.5899(2) 0.6337(2) 0.2279(2)
O4 O 0.2816(2) 0.2439(2) 0.1066(2)
O5 O 0.7828(2) 0.6238(2) 0.3532(2)
O6 O 0.2969(2) 0.4152(2) 0.3042(2)
C1 C 0.5731(2) 0.2849(2) 0.2551(2)
C2 C 0.5694(2) 0.1942(2) 0.3341(2)
C3 C 0.6238(3) 0.0895(2) 0.3099(2)
C4 C 0.6827(2) 0.0676(2) 0.1992(2)
C5 C 0.6883(2) 0.1552(2) 0.1092(2)
C6 C 0.7472(2) 0.1370(3) -0.0070(2)
C7 C 0.7450(3) 0.2141(3) -0.0961(2)
C8 C 0.6833(3) 0.3126(3) -0.0737(2)
C9 C 0.6288(3) 0.3359(3) 0.0387(2)
C10 C 0.6306(2) 0.2610(2) 0.1366(2)
C11 C 0.5269(2) 0.4090(2) 0.2984(2)
C12 C 0.6338(2) 0.5673(2) 0.2860(2)
C13 C 0.3552(2) 0.3455(2) 0.2227(2)
C14? C 0.8976(14) 0.7858(14) 0.3882(17)
C15? C 0.9666(15) 0.7865(14) 0.2804(13)
C16 C 0.8983(19) 0.7726(17) 0.3290(12)
C17 C 1.0519(6) 0.8279(6) 0.4182(5)
C18 C 0.1301(3) 0.3581(3) 0.2456(3)
C19 C 0.0913(3) 0.4583(4) 0.3444(4)
H1 H 0.7338(2) -0.0868(2) 0.2301(2)
H2 H 0.7738(2) -0.0487(2) 0.1052(2)
H3 H 0.6199(3) 0.0342(2) 0.3695(2)
H4 H 0.7881(2) 0.0713(3) -0.0231(2)
H5 H 0.7847(3) 0.2012(3) -0.1721(2)
H6 H 0.6795(3) 0.3627(3) -0.1364(2)
H7 H 0.5891(3) 0.4028(3) 0.0519(2)
H8 H 0.5362(2) 0.4334(2) 0.3994(2)
H9 H 0.8489(14) 0.8487(14) 0.3922(17)
H10? H 0.9755(14) 0.8285(14) 0.4794(17)
H11? H 1.0467(15) 0.8939(14) 0.2976(13)
H12? H 0.8877(15) 0.7433(14) 0.1912(13)
H13? H 1.0133(15) 0.7229(14) 0.2777(13)
H14 H 0.8951(19) 0.7459(17) 0.2301(12)
H15? H 0.8717(19) 0.8538(17) 0.3549(12)
H16 H 1.1292(6) 0.9217(6) 0.4077(5)
H17 H 1.0765(6) 0.7463(6) 0.3911(5)
H18 H 1.0528(6) 0.8527(6) 0.5155(5)
H19 H 0.0651(3) 0.2477(3) 0.2345(3)
H20 H 0.1106(3) 0.3652(3) 0.1532(3)
H21 H -0.0179(3) 0.4230(4) 0.3082(4)
H22 H 0.1558(3) 0.5671(4) 0.3543(4)
H23 H 0.1107(3) 0.4501(4) 0.4354(4)
#END
