
#######################################################################
#
#                 Cambridge Crystallographic Data Centre
#                                CCDC
#
#######################################################################
#
# If this CIF has been generated from an entry in the Cambridge
# Structural Database, then it will include bibliographic, chemical,
# crystal, experimental, refinement or atomic coordinate data resulting
# from the CCDC's data processing and validation procedures.
#
#######################################################################

data_CSD_CIF_BAJBUJ
_audit_creation_date 1999-11-09
_audit_creation_method CSD-ConQuest-V1
_database_code_CSD BAJBUJ
_chemical_formula_sum 'C16 H12 N2 O7'
_chemical_formula_moiety
;
C16 H12 N2 O7
;
_journal_coden_Cambridge 35
_journal_volume 63
_journal_year 1998
_journal_page_first 9414
_journal_name_full 'J.Org.Chem. '
loop_
_publ_author_name
"G.J.Atwell"
"M.Tercel"
"M.Boyd"
"W.R.Wilson"
"W.A.Denny"
_chemical_name_systematic
;
1,1-bis(Methoxycarbonyl)-5-nitro-1,2-dihydro-3H-benz(e)isoindol-3-one
;
_chemical_melting_point 465.15
_cell_volume   3075.583
_exptl_crystal_colour 'yellow'
_exptl_crystal_density_diffrn 1.487
_exptl_special_details
;
Melting point range 465.15-467.15K

;
_exptl_crystal_preparation 'dichloromethane/di-isopropyl ether'
_diffrn_ambient_temperature ?
_diffrn_special_details
;
The study was carried out at room temperature,in the range 283-303K

;
#These two values have been output from a single CSD field.
_refine_ls_R_factor_gt 0.044
_refine_ls_wR_factor_gt 0.044
_symmetry_cell_setting orthorhombic
_symmetry_space_group_name_H-M 'P n a 21'
_symmetry_Int_Tables_number 33
loop_
_symmetry_equiv_pos_site_id
_symmetry_equiv_pos_as_xyz
1 x,y,z
2 -x,-y,1/2+z
3 1/2-x,1/2+y,1/2+z
4 1/2+x,1/2-y,z
_cell_length_a 15.0614(9)
_cell_length_b 8.4425(4)
_cell_length_c 24.1875(11)
_cell_angle_alpha 90
_cell_angle_beta 90
_cell_angle_gamma 90
_cell_formula_units_Z 8
loop_
_atom_type_symbol
_atom_type_radius_bond
C 0.68
H 0.23
N 0.68
O 0.68
loop_
_atom_site_label
_atom_site_type_symbol
_atom_site_fract_x
_atom_site_fract_y
_atom_site_fract_z
C1 C 0.6113(3) 0.3636(5) 0.5286(2)
C2 C 0.5813(3) 0.4414(5) 0.5797(2)
C3 C 0.4999(3) 0.4219(5) 0.6068(2)
C4 C 0.4881(3) 0.5028(5) 0.6546(2)
C5 C 0.5537(3) 0.6045(5) 0.6788(2)
C6 C 0.5421(3) 0.6880(5) 0.7288(2)
C7 C 0.6059(3) 0.7842(5) 0.7485(2)
C8 C 0.6862(3) 0.8034(5) 0.7204(2)
C9 C 0.7004(3) 0.7259(5) 0.6719(2)
C10 C 0.6352(2) 0.6260(4) 0.6489(2)
C11 C 0.6452(2) 0.5420(4) 0.5985(2)
C12 C 0.7221(3) 0.5410(5) 0.5563(2)
C13 C 0.7358(3) 0.6973(5) 0.5248(2)
C14 C 0.7341(5) 0.9770(6) 0.5292(3)
C15 C 0.8113(3) 0.4861(5) 0.5822(2)
C16 C 0.9602(3) 0.5597(7) 0.5987(2)
N1 N 0.6924(2) 0.4211(4) 0.5181(1)
N2 N 0.4014(2) 0.4798(5) 0.6819(2)
O1 O 0.5719(2) 0.2622(4) 0.5015(1)
O2 O 0.3354(2) 0.4822(5) 0.6516(2)
O3 O 0.3968(3) 0.4572(7) 0.7306(2)
O4 O 0.7640(3) 0.6997(4) 0.4783(2)
O5 O 0.7149(2) 0.8226(4) 0.5540(2)
O6 O 0.8224(2) 0.3578(4) 0.6004(2)
O7 O 0.8714(2) 0.5990(4) 0.5801(1)
C17 C 0.8530(3) 0.1661(5) 0.4238(2)
C18 C 0.8202(2) 0.0731(5) 0.3760(2)
C19 C 0.7380(3) 0.0872(5) 0.3491(2)
C20 C 0.7263(3) 0.0011(5) 0.3028(2)
C21 C 0.7916(3) -0.1012(5) 0.2795(2)
C22 C 0.7805(3) -0.1874(5) 0.2302(2)
C23 C 0.8455(3) -0.2848(5) 0.2108(2)
C24 C 0.9248(3) -0.3018(5) 0.2398(2)
C25 C 0.9393(3) -0.2233(5) 0.2879(2)
C26 C 0.8737(2) -0.1198(4) 0.3097(2)
C27 C 0.8850(2) -0.0307(4) 0.3588(2)
C28 C 0.9618(2) -0.0208(5) 0.3999(2)
C29 C 1.0515(3) 0.0260(5) 0.3723(2)
C30 C 1.1990(3) -0.0561(7) 0.3559(2)
C31 C 0.9759(3) -0.1702(5) 0.4360(2)
C32 C 0.9813(4) -0.4494(6) 0.4363(3)
N3 N 0.9342(2) 0.1082(4) 0.4356(1)
N4 N 0.6388(2) 0.0170(5) 0.2765(2)
O8 O 0.8159(2) 0.2757(4) 0.4474(1)
O9 O 0.6334(3) 0.0411(6) 0.2278(2)
O10 O 0.5738(2) 0.0098(5) 0.3070(2)
O11 O 1.0633(2) 0.1510(4) 0.3515(2)
O12 O 1.1102(2) -0.0889(4) 0.3769(1)
O13 O 0.9982(3) -0.1624(4) 0.4832(1)
O14 O 0.9619(2) -0.3011(3) 0.4082(1)
H1 H 0.4559(3) 0.3562(5) 0.5926(2)
H2 H 0.4894(3) 0.6765(5) 0.7485(2)
H3 H 0.5964(3) 0.8388(5) 0.7813(2)
H4 H 0.7299(3) 0.8691(5) 0.7349(2)
H5 H 0.7542(3) 0.7391(5) 0.6536(2)
H6 H 0.7162(5) 1.0595(6) 0.5541(3)
H7 H 0.7021(5) 0.9872(6) 0.4950(3)
H8 H 0.7967(5) 0.9855(6) 0.5221(3)
H9 H 0.9978(3) 0.6510(7) 0.5952(2)
H10 H 0.9834(3) 0.4751(7) 0.5765(2)
H11 H 0.9581(3) 0.5270(7) 0.6367(2)
H12 H 0.7242(2) 0.3890(4) 0.4908(1)
H13 H 0.6936(3) 0.1531(5) 0.3626(2)
H14 H 0.7278(3) -0.1778(5) 0.2104(2)
H15 H 0.8369(3) -0.3402(5) 0.1781(2)
H16 H 0.9687(3) -0.3683(5) 0.2260(2)
H17 H 0.9925(3) -0.2374(5) 0.3067(2)
H18 H 1.2361(3) -0.1472(7) 0.3614(2)
H19 H 1.2237(3) 0.0328(7) 0.3753(2)
H20 H 1.1957(3) -0.0322(7) 0.3171(2)
H21 H 0.9686(4) -0.5365(6) 0.4121(3)
H22 H 0.9452(4) -0.4577(6) 0.4689(3)
H23 H 1.0429(4) -0.4519(6) 0.4466(3)
H24 H 0.9668(2) 0.1445(4) 0.4619(1)
#END
