
#######################################################################
#
#                 Cambridge Crystallographic Data Centre
#                                CCDC
#
#######################################################################
#
# If this CIF has been generated from an entry in the Cambridge
# Structural Database, then it will include bibliographic, chemical,
# crystal, experimental, refinement or atomic coordinate data resulting
# from the CCDC's data processing and validation procedures.
#
#######################################################################

data_CSD_CIF_BAJCIY02
_audit_creation_date 2007-06-20
_audit_creation_method CSD-ConQuest-V1
_database_code_CSD BAJCIY02
_database_code_depnum_ccdc_archive 'CCDC 643907'
_chemical_formula_sum 'C7 H8 N2 O2'
_chemical_formula_moiety
;
C7 H8 N2 O2
;
_journal_coden_Cambridge 1489
_journal_volume 456
_journal_year 2006
_journal_page_first 95
_journal_name_full 'Mol.Cryst.Liq.Cryst. '
loop_
_publ_author_name
"R.Hiremath"
"J.A.Swift"
_chemical_name_systematic
;
2-Methyl-4-nitroaniline
;
_cell_volume    705.471
_exptl_crystal_colour 'yellow'
_exptl_crystal_density_diffrn 1.433
_exptl_crystal_description 'rod'
_exptl_crystal_preparation 'ethanol'
_diffrn_ambient_temperature 173
#These two values have been output from a single CSD field.
_refine_ls_R_factor_gt 0.0331
_refine_ls_wR_factor_gt 0.0331
_symmetry_cell_setting monoclinic
_symmetry_space_group_name_H-M 'C c'
_symmetry_Int_Tables_number 9
loop_
_symmetry_equiv_pos_site_id
_symmetry_equiv_pos_as_xyz
1 x,y,z
2 x,-y,1/2+z
3 1/2+x,1/2+y,z
4 1/2+x,1/2-y,1/2+z
_cell_length_a 10.7232(15)
_cell_length_b 11.5744(16)
_cell_length_c 7.4661(10)
_cell_angle_alpha 90
_cell_angle_beta 130.420(2)
_cell_angle_gamma 90
_cell_formula_units_Z 4
loop_
_atom_type_symbol
_atom_type_radius_bond
C 0.68
H 0.23
N 0.68
O 0.68
loop_
_atom_site_label
_atom_site_type_symbol
_atom_site_fract_x
_atom_site_fract_y
_atom_site_fract_z
O1 O 0.8931(2) 0.34931(15) 0.7030(3)
O2 O 0.9769(2) 0.52532(16) 0.7618(4)
N1 N 0.2763(2) 0.61418(16) 0.4129(4)
H1 H 0.26070 0.68920 0.40790
H2 H 0.19810 0.56590 0.37110
N2 N 0.8704(2) 0.45383(18) 0.7010(3)
C1 C 0.4209(3) 0.57314(19) 0.4849(4)
C2 C 0.4473(2) 0.45322(18) 0.4893(3)
C3 C 0.5958(3) 0.41511(19) 0.5600(4)
H3 H 0.61500 0.33470 0.56270
C4 C 0.7173(2) 0.4947(2) 0.6273(4)
C5 C 0.6926(3) 0.61306(19) 0.6215(4)
H4 H 0.77570 0.66620 0.66500
C6 C 0.5452(2) 0.6518(2) 0.5513(4)
H5 H 0.52700 0.73240 0.54750
C7 C 0.3142(3) 0.3696(2) 0.4172(4)
H6 H 0.35440 0.29030 0.44090
H7 H 0.21880 0.38130 0.25080
H8 H 0.28280 0.38290 0.51290
#END
