
#######################################################################
#
#                 Cambridge Crystallographic Data Centre
#                                CCDC
#
#######################################################################
#
# If this CIF has been generated from an entry in the Cambridge
# Structural Database, then it will include bibliographic, chemical,
# crystal, experimental, refinement or atomic coordinate data resulting
# from the CCDC's data processing and validation procedures.
#
#######################################################################

data_CSD_CIF_BAJCIY01
_audit_creation_date 2001-06-05
_audit_creation_method CSD-ConQuest-V1
_database_code_CSD BAJCIY01
_database_code_depnum_ccdc_archive 'CCDC 162581'
_chemical_formula_sum 'C7 H8 N2 O2'
_chemical_formula_moiety
;
C7 H8 N2 O2
;
_journal_coeditor_code "IUCr SK1442"
_journal_coden_Cambridge 591
_journal_volume 57
_journal_year 2001
_journal_page_first 315
_journal_name_full 'Acta Crystallogr.,Sect.C:Cryst.Struct.Commun. '
loop_
_publ_author_name
"G.Ferguson"
"C.Glidewell"
"J.N.Low"
"J.M.S.Skakle"
"J.L.Wardell"
_chemical_name_systematic
;
2-Methyl-4-nitroaniline
;
_cell_volume    726.597
_exptl_crystal_colour 'orange'
_exptl_crystal_density_diffrn 1.391
_exptl_special_details
;
Described as the same polymorph as BAJCIY

;
_exptl_crystal_description 'block'
_exptl_crystal_preparation 'ethanol'
_diffrn_ambient_temperature 150
#These two values have been output from a single CSD field.
_refine_ls_R_factor_gt 0.043
_refine_ls_wR_factor_gt 0.043
_symmetry_cell_setting monoclinic
_symmetry_space_group_name_H-M 'I a'
_symmetry_Int_Tables_number 9
loop_
_symmetry_equiv_pos_site_id
_symmetry_equiv_pos_as_xyz
1 x,y,z
2 1/2+x,-y,z
3 1/2+x,1/2+y,1/2+z
4 x,1/2-y,1/2+z
_cell_length_a 7.6113(5)
_cell_length_b 11.6304(7)
_cell_length_c 8.2286(5)
_cell_angle_alpha 90
_cell_angle_beta 94.050(2)
_cell_angle_gamma 90
_cell_formula_units_Z 4
loop_
_atom_type_symbol
_atom_type_radius_bond
C 0.68
H 0.23
N 0.68
O 0.68
loop_
_atom_site_label
_atom_site_type_symbol
_atom_site_fract_x
_atom_site_fract_y
_atom_site_fract_z
C1 C 0.9082(2) 0.07296(16) 0.7383(2)
C2 C 0.8859(2) -0.04640(14) 0.71078(18)
C3 C 0.8083(3) -0.08360(15) 0.5633(2)
C4 C 0.7538(2) -0.00392(17) 0.44279(18)
C5 C 0.7736(3) 0.11337(16) 0.4687(2)
C6 C 0.8508(3) 0.15102(16) 0.6156(2)
N1 N 0.9814(3) 0.11329(15) 0.8825(2)
C7 C 0.9475(3) -0.13003(19) 0.8422(3)
N2 N 0.6745(2) -0.04422(15) 0.29017(18)
O1 O 0.6538(3) -0.14825(15) 0.2675(2)
O2 O 0.6279(4) 0.02700(18) 0.1852(2)
H1 H 0.79220 -0.16180 0.54400
H2 H 0.73540 0.16570 0.38830
H3 H 0.86520 0.22950 0.63380
H4 H 0.99230 0.18610 0.89810
H5 H 1.01680 0.06600 0.95820
H6 H 0.93440 -0.20710 0.80150
H7 H 0.87820 -0.12060 0.93440
H8 H 1.06920 -0.11570 0.87470
#END
