
#######################################################################
#
#                 Cambridge Crystallographic Data Centre
#                                CCDC
#
#######################################################################
#
# If this CIF has been generated from an entry in the Cambridge
# Structural Database, then it will include bibliographic, chemical,
# crystal, experimental, refinement or atomic coordinate data resulting
# from the CCDC's data processing and validation procedures.
#
#######################################################################

data_CSD_CIF_BAJCOH
_audit_creation_date 2017-01-20
_audit_creation_method CSD-ConQuest-V1
_database_code_CSD BAJCOH
_database_code_depnum_ccdc_archive 'CCDC 1528755'
_chemical_formula_sum 'C19 H15 N1 O5'
_chemical_formula_moiety
;
C19 H15 N1 O5
;
_journal_coden_Cambridge 1078
_journal_year 2017
_journal_name_full 'CSD Communication(Private Communication) '
loop_
_publ_author_name
"Tadeusz Lis"
_chemical_name_systematic
;
1-({[(9H-fluoren-9-yl)methoxy]carbonyl}oxy)pyrrolidine-2,5-dione
;
_cell_volume   1591.526
_exptl_crystal_colour 'colorless'
_exptl_crystal_density_diffrn 1.408
_exptl_crystal_description 'plate'
_diffrn_ambient_temperature 100
#These two values have been output from a single CSD field.
_refine_ls_R_factor_gt 0.0744
_refine_ls_wR_factor_gt 0.0744
_symmetry_cell_setting monoclinic
_symmetry_space_group_name_H-M 'P 21'
_symmetry_Int_Tables_number 4
loop_
_symmetry_equiv_pos_site_id
_symmetry_equiv_pos_as_xyz
1 x,y,z
2 -x,1/2+y,-z
_cell_length_a 9.977(3)
_cell_length_b 8.265(3)
_cell_length_c 19.366(6)
_cell_angle_alpha 90
_cell_angle_beta 94.71(3)
_cell_angle_gamma 90
_cell_formula_units_Z 4
loop_
_atom_type_symbol
_atom_type_radius_bond
C 0.68
H 0.23
N 0.68
O 0.68
loop_
_atom_site_label
_atom_site_type_symbol
_atom_site_fract_x
_atom_site_fract_y
_atom_site_fract_z
O1 O 0.8876(4) 0.5183(5) 0.53315(18)
O2 O 0.5429(4) 0.7115(5) 0.65000(18)
O3 O 0.6085(3) 0.5513(4) 0.53001(16)
O4 O 0.6687(4) 0.7919(4) 0.48439(17)
O5 O 0.5244(3) 0.6175(4) 0.42761(16)
N1 N 0.6980(4) 0.5926(5) 0.58506(19)
C1 C 0.8366(5) 0.5788(6) 0.5817(3)
C2 C 0.8999(5) 0.6513(6) 0.6472(2)
H1 H 0.95690 0.74490 0.63690
H2 H 0.95620 0.57040 0.67380
C3 C 0.7830(5) 0.7056(7) 0.6884(2)
H3 H 0.78150 0.64190 0.73170
H4 H 0.79200 0.82160 0.70070
C4 C 0.6575(5) 0.6771(6) 0.6425(2)
C5 C 0.6061(5) 0.6688(6) 0.4789(2)
C6 C 0.5095(5) 0.7250(6) 0.3675(2)
H5 H 0.59630 0.73590 0.34660
H6 H 0.48040 0.83380 0.38160
C7 C 0.4050(4) 0.6515(6) 0.3160(2)
H7 H 0.43310 0.53980 0.30350
C8 C 0.3840(5) 0.7546(6) 0.2507(2)
C9 C 0.4782(6) 0.8035(7) 0.2065(2)
H8 H 0.56980 0.77250 0.21450
C10 C 0.4346(7) 0.8999(7) 0.1498(3)
H9 H 0.49800 0.93560 0.11900
C11 C 0.3033(6) 0.9437(6) 0.1376(3)
H10 H 0.27630 1.00920 0.09860
C12 C 0.2082(6) 0.8937(6) 0.1816(3)
H11 H 0.11660 0.92430 0.17300
C13 C 0.2498(5) 0.7978(6) 0.2386(2)
C14 C 0.1740(5) 0.7324(6) 0.2937(2)
C15 C 0.0396(5) 0.7416(6) 0.3056(3)
H12 H -0.02180 0.79790 0.27410
C16 C -0.0051(5) 0.6678(7) 0.3639(3)
H13 H -0.09740 0.67300 0.37230
C17 C 0.0844(5) 0.5876(7) 0.4094(3)
H14 H 0.05280 0.53970 0.44960
C18 C 0.2191(5) 0.5743(6) 0.3984(2)
H15 H 0.27900 0.51640 0.43010
C19 C 0.2651(5) 0.6474(6) 0.3402(2)
O6 O 0.7515(3) -0.0709(4) 0.29928(18)
O7 O 0.7063(4) 0.4774(4) 0.29789(18)
O8 O 0.7071(3) 0.2002(4) 0.21521(15)
O9 O 0.9331(3) 0.1556(4) 0.21418(16)
O10 O 0.7907(3) 0.1710(4) 0.11730(16)
N2 N 0.7316(4) 0.2039(5) 0.28674(18)
C20 C 0.7466(4) 0.0611(6) 0.3253(3)
C21 C 0.7564(5) 0.1134(6) 0.3998(2)
H16 H 0.84360 0.07980 0.42350
H17 H 0.68290 0.06480 0.42420
C22 C 0.7443(5) 0.2984(6) 0.3987(2)
H18 H 0.66710 0.33360 0.42410
H19 H 0.82720 0.34850 0.42070
C23 C 0.7235(5) 0.3467(6) 0.3239(3)
C24 C 0.8258(5) 0.1727(6) 0.1845(2)
C25 C 0.9028(5) 0.1386(6) 0.0748(2)
H20 H 0.92580 0.02210 0.07670
H21 H 0.98300 0.20100 0.09260
C26 C 0.8612(5) 0.1871(7) 0.0020(2)
H22 H 0.83630 0.30440 0.00080
C27 C 0.9751(5) 0.1590(6) -0.0436(2)
C28 C 1.1070(5) 0.2086(6) -0.0354(2)
H23 H 1.13910 0.26660 0.00500
C29 C 1.1932(5) 0.1739(7) -0.0861(3)
H24 H 1.28380 0.21040 -0.08110
C30 C 1.1465(6) 0.0855(7) -0.1444(3)
H25 H 1.20560 0.06260 -0.17920
C31 C 1.0162(6) 0.0310(6) -0.1523(3)
H26 H 0.98520 -0.02950 -0.19220
C32 C 0.9298(5) 0.0650(6) -0.1014(2)
C33 C 0.7887(5) 0.0208(6) -0.0952(2)
C34 C 0.7004(6) -0.0761(7) -0.1364(3)
H27 H 0.72830 -0.12400 -0.17740
C35 C 0.5735(6) -0.1014(7) -0.1173(3)
H28 H 0.51310 -0.16690 -0.14560
C36 C 0.5311(6) -0.0338(7) -0.0575(3)
H29 H 0.44250 -0.05420 -0.04500
C37 C 0.6172(5) 0.0640(7) -0.0154(3)
H30 H 0.58720 0.11270 0.02500
C38 C 0.7475(5) 0.0893(6) -0.0334(2)
#END
