
#######################################################################
#
#                 Cambridge Crystallographic Data Centre
#                                CCDC
#
#######################################################################
#
# If this CIF has been generated from an entry in the Cambridge
# Structural Database, then it will include bibliographic, chemical,
# crystal, experimental, refinement or atomic coordinate data resulting
# from the CCDC's data processing and validation procedures.
#
#######################################################################

data_CSD_CIF_BAJGIF
_audit_creation_date 2017-01-20
_audit_creation_method CSD-ConQuest-V1
_database_code_CSD BAJGIF
_database_code_depnum_ccdc_archive 'CCDC 1424719'
_chemical_formula_sum 'C18 H25 N1 O2'
_chemical_formula_moiety
;
C18 H25 N1 O2
;
_journal_coden_Cambridge 584
_journal_volume 36
_journal_year 2016
_journal_page_first 399
_journal_name_full 'Youji Huaxue(Chin.)(Chin.J.Org.Chem.) '
loop_
_publ_author_name
"Mingyan Yang"
"Daoquan Wang"
"Mingan Wang"
_chemical_name_systematic
;
2-(hydroxyimino)-12-phenylcyclododecanone
;
_cell_volume    786.456
_exptl_crystal_density_diffrn 1.214
_diffrn_ambient_temperature 100.2
_refine_special_details
;
C18,C21,C22 and C18A,C21A,C22A disordered over two sites with occupancies 
0.754:0.246.
;
#These two values have been output from a single CSD field.
_refine_ls_R_factor_gt 0.2001
_refine_ls_wR_factor_gt 0.2001
_symmetry_cell_setting triclinic
_symmetry_space_group_name_H-M 'P -1'
_symmetry_Int_Tables_number 2
loop_
_symmetry_equiv_pos_site_id
_symmetry_equiv_pos_as_xyz
1 x,y,z
2 -x,-y,-z
_cell_length_a 5.6782(11)
_cell_length_b 11.973(2)
_cell_length_c 12.148(2)
_cell_angle_alpha 99.556(15)
_cell_angle_beta 99.960(15)
_cell_angle_gamma 99.350(16)
_cell_formula_units_Z 2
loop_
_atom_type_symbol
_atom_type_radius_bond
C 0.68
H 0.23
N 0.68
O 0.68
loop_
_atom_site_label
_atom_site_type_symbol
_atom_site_fract_x
_atom_site_fract_y
_atom_site_fract_z
O1 O 0.0382(9) 0.7457(4) 0.3686(5)
C1 C -0.2683(10) 0.6993(5) 0.5495(5)
C2 C -0.3472(10) 0.6976(5) 0.4229(5)
H1 H -0.50150 0.72810 0.41070
O2 O -0.3408(11) 1.0528(4) 0.4192(6)
H2 H -0.20560 1.08570 0.40950
C3 C -0.4081(11) 0.7423(5) 0.6260(5)
H3 H -0.55510 0.76560 0.59750
C4 C -0.0602(11) 0.6598(6) 0.5943(5)
H4 H 0.03480 0.62900 0.54410
C5 C -0.3955(11) 0.5728(5) 0.3512(5)
H5 H -0.25000 0.53840 0.36980
H6 H -0.53410 0.52510 0.37210
C6 C -0.1490(12) 0.7778(6) 0.3871(6)
C7 C -0.0263(14) 0.9612(6) 0.3069(6)
H7 H -0.05030 1.04210 0.31680
H8 H 0.14730 0.96300 0.33870
C8 C -0.4533(12) 0.5703(7) 0.2229(5)
H9 H -0.31750 0.62100 0.20330
H10 H -0.46280 0.49070 0.18150
N1 N -0.3321(11) 0.9381(5) 0.4279(6)
C9 C -0.3338(13) 0.7505(6) 0.7406(6)
H11 H -0.42610 0.78270 0.79140
C10 C 0.0096(13) 0.6647(7) 0.7097(6)
H12 H 0.14880 0.63540 0.73810
C11 C -0.1790(13) 0.8985(5) 0.3737(6)
C12 C -0.6905(16) 0.6090(11) 0.1821(6)
H13 H -0.69140 0.68340 0.23160
H14 H -0.82850 0.55150 0.19120
C13 C -0.1230(14) 0.7123(8) 0.7842(6)
H15 H -0.07170 0.71890 0.86410
C14 C -0.7323(17) 0.6241(12) 0.0567(6)
H16 H -0.74890 0.54760 0.00720
H17 H -0.88940 0.64970 0.03870
C15 C -0.077(2) 0.9118(16) 0.1856(9)
H18 H -0.06230 0.82990 0.17980
H19 H 0.05940 0.94960 0.15560
C16 C -0.537(2) 0.7085(9) 0.0258(7)
H20 H -0.37890 0.68240 0.03660
H21 H -0.58320 0.71590 -0.05470
C17 C -0.518(2) 0.8211(13) 0.1047(13)
H22 H -0.50930 0.80730 0.18340
H23 H -0.66850 0.85130 0.08340
C18 C -0.300(2) 0.9114(13) 0.1034(11)
H24 H -0.26470 0.89930 0.02580
H25 H -0.34370 0.98840 0.11890
H26? H 0.09750 0.91600 0.28760
H27? H 0.06140 1.03640 0.35520
H28? H -0.54330 0.67770 -0.05580
H29? H -0.38200 0.69390 0.06720
C19? C -0.487(5) 0.8448(15) 0.0356(16)
H30? H -0.35730 0.86780 -0.00570
H31? H -0.63720 0.86800 -0.00010
C20? C -0.412(4) 0.9047(16) 0.1578(15)
H32? H -0.53780 0.94910 0.17560
H33? H -0.41250 0.84490 0.20510
C21? C -0.174(4) 0.9837(19) 0.1939(14)
H34? H -0.19850 1.06440 0.20590
H35? H -0.07950 0.97300 0.13290
#END
