
#######################################################################
#
#                 Cambridge Crystallographic Data Centre
#                                CCDC
#
#######################################################################
#
# If this CIF has been generated from an entry in the Cambridge
# Structural Database, then it will include bibliographic, chemical,
# crystal, experimental, refinement or atomic coordinate data resulting
# from the CCDC's data processing and validation procedures.
#
#######################################################################

data_CSD_CIF_BAJGEB
_audit_creation_date 2017-01-20
_audit_creation_method CSD-ConQuest-V1
_database_code_CSD BAJGEB
_database_code_depnum_ccdc_archive 'CCDC 1424718'
_chemical_formula_sum 'C18 H33 N1 O1'
_chemical_formula_moiety
;
C18 H33 N1 O1
;
_journal_coden_Cambridge 584
_journal_volume 36
_journal_year 2016
_journal_page_first 399
_journal_name_full 'Youji Huaxue(Chin.)(Chin.J.Org.Chem.) '
loop_
_publ_author_name
"Mingyan Yang"
"Daoquan Wang"
"Mingan Wang"
_chemical_name_systematic
;
2-cyclohexyl-N-hydroxycyclododecanimine
;
_cell_volume    859.854
_exptl_crystal_density_diffrn 1.079
_diffrn_ambient_temperature 103.6
#These two values have been output from a single CSD field.
_refine_ls_R_factor_gt 0.0467
_refine_ls_wR_factor_gt 0.0467
_symmetry_cell_setting triclinic
_symmetry_space_group_name_H-M 'P -1'
_symmetry_Int_Tables_number 2
loop_
_symmetry_equiv_pos_site_id
_symmetry_equiv_pos_as_xyz
1 x,y,z
2 -x,-y,-z
_cell_length_a 6.1733(10)
_cell_length_b 11.5835(18)
_cell_length_c 12.4643(19)
_cell_angle_alpha 76.118(13)
_cell_angle_beta 86.959(13)
_cell_angle_gamma 83.791(13)
_cell_formula_units_Z 2
loop_
_atom_type_symbol
_atom_type_radius_bond
C 0.68
H 0.23
N 0.68
O 0.68
loop_
_atom_site_label
_atom_site_type_symbol
_atom_site_fract_x
_atom_site_fract_y
_atom_site_fract_z
O1 O 0.83307(16) 0.89828(9) 0.04486(7)
H1 H 0.92550 0.92080 0.07790
C1 C 1.0819(2) 0.87866(12) -0.29181(11)
H2 H 1.23120 0.89480 -0.31260
H3 H 1.08040 0.83260 -0.21580
C2 C 0.6477(2) 1.20821(11) -0.24245(11)
H4 H 0.77940 1.22840 -0.28580
H5 H 0.68500 1.18420 -0.16510
C3 C 0.5570(2) 1.10462(11) -0.27628(11)
H6 H 0.42150 1.08960 -0.23290
C4 C 0.4790(2) 1.31780(12) -0.26084(12)
H7 H 0.34980 1.29850 -0.21500
H8 H 0.53860 1.38270 -0.23910
N1 N 0.84996(18) 0.95302(9) -0.06935(9)
C5 C 0.7090(2) 0.98579(11) -0.24993(11)
H9 H 0.64660 0.93080 -0.28570
C6 C 1.0066(2) 0.80375(12) -0.36515(11)
H10 H 1.02130 0.84670 -0.44180
H11 H 0.85320 0.79410 -0.34920
C7 C 1.1328(2) 0.67967(13) -0.35059(12)
H12 H 1.28750 0.68870 -0.35890
H13 H 1.09400 0.64390 -0.40890
C8 C 0.4173(2) 1.35733(12) -0.38169(12)
H14 H 0.54380 1.38390 -0.42670
H15 H 0.30540 1.42420 -0.39090
C9 C 0.4952(2) 1.14264(12) -0.39794(11)
H16 H 0.43050 1.07820 -0.41760
H17 H 0.62580 1.15760 -0.44380
C10 C 0.9421(2) 0.99793(11) -0.29841(11)
H18 H 0.93390 1.04110 -0.37530
H19 H 1.01430 1.04540 -0.25940
C11 C 0.7017(2) 0.92949(11) -0.12644(11)
C12 C 0.5377(2) 0.73259(11) -0.11028(12)
H20 H 0.40430 0.69530 -0.08700
H21 H 0.55180 0.74560 -0.19010
C13 C 1.0887(2) 0.59481(12) -0.23839(12)
H22 H 1.11320 0.63410 -0.18020
H23 H 1.19250 0.52430 -0.22990
C14 C 0.8572(2) 0.55546(13) -0.22349(12)
H24 H 0.76030 0.61640 -0.27000
H25 H 0.85710 0.48250 -0.24870
C15 C 0.7676(2) 0.53373(12) -0.10416(12)
H26 H 0.86870 0.47600 -0.05710
H27 H 0.63050 0.49890 -0.10010
C16 C 0.5182(2) 0.85455(12) -0.07972(11)
H28 H 0.38130 0.89870 -0.10630
H29 H 0.51440 0.84130 0.00020
C17 C 0.3335(2) 1.25572(12) -0.42087(12)
H30 H 0.30880 1.28120 -0.49960
H31 H 0.19520 1.23730 -0.38350
C18 C 0.7300(2) 0.64691(12) -0.05873(11)
H32 H 0.70460 0.62360 0.02060
H33 H 0.86080 0.68820 -0.07240
#END
