
#######################################################################
#
#                 Cambridge Crystallographic Data Centre
#                                CCDC
#
#######################################################################
#
# If this CIF has been generated from an entry in the Cambridge
# Structural Database, then it will include bibliographic, chemical,
# crystal, experimental, refinement or atomic coordinate data resulting
# from the CCDC's data processing and validation procedures.
#
#######################################################################

data_CSD_CIF_BAKLII
_audit_creation_date 1982-03-29
_audit_creation_method CSD-ConQuest-V1
_database_code_CSD BAKLII
_chemical_formula_sum 'C6 H5 N5 O7'
_chemical_formula_moiety
;
C6 H5 N5 O7
;
_journal_coeditor_code "IUCr A20389"
_journal_coden_Cambridge 107
_journal_volume 37
_journal_year 1981
_journal_page_first 2082
_journal_name_full 'Acta Crystallogr.,Sect.B:Struct.Crystallogr.Cryst.Chem. '
loop_
_publ_author_name
"S.K.Bhattacharjee"
"H.L.Ammon"
_chemical_name_systematic
;
3,5-Diamino-2,4,6-trinitrophenol
;
_cell_volume    910.484
_exptl_crystal_colour 'yellow'
_exptl_crystal_density_diffrn 1.89
_diffrn_ambient_temperature ?
_diffrn_special_details
;
The study was carried out at room temperature,in the range 283-303K

;
#These two values have been output from a single CSD field.
_refine_ls_R_factor_gt 0.042
_refine_ls_wR_factor_gt 0.042
_symmetry_cell_setting orthorhombic
_symmetry_space_group_name_H-M 'P 21 21 21'
_symmetry_Int_Tables_number 19
loop_
_symmetry_equiv_pos_site_id
_symmetry_equiv_pos_as_xyz
1 x,y,z
2 1/2+x,1/2-y,-z
3 -x,1/2+y,1/2-z
4 1/2-x,-y,1/2+z
_cell_length_a 4.9653(5)
_cell_length_b 8.8984(5)
_cell_length_c 20.607(3)
_cell_angle_alpha 90
_cell_angle_beta 90
_cell_angle_gamma 90
_cell_formula_units_Z 4
loop_
_atom_type_symbol
_atom_type_radius_bond
C 0.68
H 0.23
N 0.68
O 0.68
loop_
_atom_site_label
_atom_site_type_symbol
_atom_site_fract_x
_atom_site_fract_y
_atom_site_fract_z
C1 C 0.76900 0.17230 0.41580
C2 C 0.61400 0.24930 0.36880
C3 C 0.40800 0.17140 0.33270
C4 C 0.39400 0.01120 0.33980
C5 C 0.57300 -0.06970 0.38200
C6 C 0.73800 0.01990 0.42290
O1 O 0.95620 0.23910 0.45200
N1 N 0.65620 0.40420 0.35900
N2 N 0.24200 0.24320 0.29340
N3 N 0.20000 -0.07120 0.30350
N4 N 0.58500 -0.21700 0.38490
N5 N 0.88940 -0.05180 0.47530
O2 O 0.85290 0.46830 0.38770
O3 O 0.51420 0.48160 0.32250
O4 O 0.01290 -0.00400 0.27540
O5 O 0.21690 -0.21080 0.29970
O6 O 1.02850 -0.16250 0.46140
O7 O 0.86350 -0.00310 0.52970
H1 H 0.92000 0.35000 0.44400
H2 H 0.28000 0.33400 0.28100
H3 H 0.13000 0.17800 0.25700
H4 H 0.52000 -0.28400 0.35900
H5 H 0.65000 -0.25800 0.41400
#END
