
#######################################################################
#
#                 Cambridge Crystallographic Data Centre
#                                CCDC
#
#######################################################################
#
# If this CIF has been generated from an entry in the Cambridge
# Structural Database, then it will include bibliographic, chemical,
# crystal, experimental, refinement or atomic coordinate data resulting
# from the CCDC's data processing and validation procedures.
#
#######################################################################

data_CSD_CIF_BAKLUX
_audit_creation_date 2017-01-20
_audit_creation_method CSD-ConQuest-V1
_database_code_CSD BAKLUX
_database_code_depnum_ccdc_archive 'CCDC 1528792'
_chemical_formula_sum 'C17 H16 N2 O3'
_chemical_formula_moiety
;
C17 H16 N2 O3
;
_journal_coden_Cambridge 35
_journal_volume 82
_journal_year 2017
_journal_page_first 737
_journal_name_full 'J.Org.Chem. '
loop_
_publ_author_name
"M.W.Majewski"
"P.A.Miller"
"A.G.Oliver"
"M.J.Miller"
_chemical_name_systematic
;
N-(benzyloxy)-N-(4-oxoazetidin-2-yl)benzamide
;
_cell_volume   1493.647
_exptl_crystal_colour 'colorless'
_exptl_crystal_density_diffrn 1.318
_exptl_crystal_description 'rod'
_diffrn_ambient_temperature 120
_diffrn_special_details
;
twin

;
#These two values have been output from a single CSD field.
_refine_ls_R_factor_gt 0.0401
_refine_ls_wR_factor_gt 0.0401
_symmetry_cell_setting orthorhombic
_symmetry_space_group_name_H-M 'P 21 21 21'
_symmetry_Int_Tables_number 19
loop_
_symmetry_equiv_pos_site_id
_symmetry_equiv_pos_as_xyz
1 x,y,z
2 1/2-x,-y,1/2+z
3 -x,1/2+y,1/2-z
4 1/2+x,1/2-y,-z
_cell_length_a 7.445(4)
_cell_length_b 12.465(5)
_cell_length_c 16.095(6)
_cell_angle_alpha 90
_cell_angle_beta 90
_cell_angle_gamma 90
_cell_formula_units_Z 4
loop_
_atom_type_symbol
_atom_type_radius_bond
C 0.68
H 0.23
N 0.68
O 0.68
loop_
_atom_site_label
_atom_site_type_symbol
_atom_site_fract_x
_atom_site_fract_y
_atom_site_fract_z
O1 O 0.8825(4) 0.45072(18) 0.36113(13)
O2 O 0.7125(3) 0.81076(15) 0.62025(11)
O3 O 0.5929(2) 0.65523(13) 0.52949(9)
N1 N 0.9203(3) 0.58451(16) 0.46096(12)
H1 H 1.009(4) 0.635(2) 0.4418(17)
N2 N 0.7398(3) 0.63575(16) 0.58309(11)
C1 C 0.8672(4) 0.4891(2) 0.43002(16)
C2 C 0.7924(4) 0.45331(19) 0.51394(16)
H2 H 0.85110 0.38880 0.53750
H3 H 0.65990 0.44750 0.51600
C3 C 0.8677(3) 0.56074(18) 0.54650(14)
H4 H 0.97460 0.54970 0.58310
C4 C 0.7942(3) 0.72623(19) 0.62553(13)
C5 C 0.9508(3) 0.7162(2) 0.68332(14)
C6 C 1.0675(4) 0.8028(2) 0.68758(16)
H5 H 1.04980 0.86310 0.65240
C7 C 1.2100(4) 0.8017(3) 0.74303(18)
H6 H 1.29050 0.86080 0.74550
C8 C 1.2343(4) 0.7146(3) 0.79460(18)
H7 H 1.33170 0.71360 0.83270
C9 C 1.1176(5) 0.6289(3) 0.79099(17)
H8 H 1.13530 0.56920 0.82680
C10 C 0.9738(4) 0.6289(2) 0.73539(16)
H9 H 0.89310 0.56990 0.73330
C11 C 0.4243(3) 0.6418(2) 0.57488(15)
H10 H 0.32710 0.67880 0.54420
H11 H 0.43560 0.67650 0.63000
C12 C 0.3733(3) 0.5267(2) 0.58680(14)
C13 C 0.3938(4) 0.4771(2) 0.66346(15)
H12 H 0.44190 0.51580 0.70920
C14 C 0.3436(4) 0.3704(3) 0.67290(19)
H13 H 0.35610 0.33660 0.72550
C15 C 0.2759(5) 0.3130(3) 0.6067(2)
H14 H 0.24260 0.24000 0.61370
C16 C 0.2566(4) 0.3617(2) 0.53066(19)
H15 H 0.20980 0.32250 0.48490
C17 C 0.3055(3) 0.4679(2) 0.52075(15)
H16 H 0.29240 0.50110 0.46800
#END
