
#######################################################################
#
#                 Cambridge Crystallographic Data Centre
#                                CCDC
#
#######################################################################
#
# If this CIF has been generated from an entry in the Cambridge
# Structural Database, then it will include bibliographic, chemical,
# crystal, experimental, refinement or atomic coordinate data resulting
# from the CCDC's data processing and validation procedures.
#
#######################################################################

data_CSD_CIF_BAKXOB
_audit_creation_date 2003-03-06
_audit_creation_method CSD-ConQuest-V1
_database_code_CSD BAKXOB
_database_code_depnum_ccdc_archive 'CCDC 201147'
_database_code_depnum_ccdc_journal 1267/891
_chemical_formula_sum 'C13 H6 N4 O8'
_chemical_formula_moiety
;
C13 H6 N4 O8
;
_journal_coden_Cambridge 1267
_journal_volume 217
_journal_year 2002
_journal_page_first 439
_journal_name_full 'Z.Kristallogr.-New Cryst.Struct. '
loop_
_publ_author_name
"J.M.Rubin"
"R.Mazor"
"J.Bernstein"
"V.Khodorkovsky"
_chemical_name_systematic
;
2,4,5,7-Tetranitrofluorene
;
_chemical_melting_point 535
_cell_volume   2712.812
_exptl_crystal_colour 'red'
_exptl_crystal_density_diffrn 1.695
_exptl_crystal_description 'needle'
_exptl_crystal_preparation 'acetic acid'
_diffrn_ambient_temperature 295
_diffrn_special_details
;
The crystal was twinned but resolved using the RLATT programme

;
#These two values have been output from a single CSD field.
_refine_ls_R_factor_gt 0.1045
_refine_ls_wR_factor_gt 0.1045
_symmetry_cell_setting monoclinic
_symmetry_space_group_name_H-M 'C 2/c'
_symmetry_Int_Tables_number 15
loop_
_symmetry_equiv_pos_site_id
_symmetry_equiv_pos_as_xyz
1 x,y,z
2 1/2+x,1/2+y,z
3 -x,y,1/2-z
4 1/2-x,1/2+y,1/2-z
5 -x,-y,-z
6 -1/2-x,-1/2-y,-z
7 x,-y,-1/2+z
8 -1/2+x,-1/2-y,-1/2+z
_cell_length_a 12.2952(18)
_cell_length_b 10.6567(18)
_cell_length_c 20.763(3)
_cell_angle_alpha 90
_cell_angle_beta 94.308(7)
_cell_angle_gamma 90
_cell_formula_units_Z 8
loop_
_atom_type_symbol
_atom_type_radius_bond
C 0.68
H 0.23
N 0.68
O 0.68
loop_
_atom_site_label
_atom_site_type_symbol
_atom_site_fract_x
_atom_site_fract_y
_atom_site_fract_z
C1 C 0.6631(6) 0.1986(6) 0.6084(3)
C2 C 0.6263(6) 0.1610(6) 0.5412(3)
O1 O 0.4861(5) 0.4183(6) 0.6737(3)
C3 C 0.7045(6) 0.0781(6) 0.5204(3)
C4 C 0.7909(6) 0.0506(7) 0.5726(3)
H1 H 0.86260 0.07290 0.55970
H2 H 0.79070 -0.03730 0.58470
C5 C 0.5365(6) 0.1874(6) 0.4973(4)
C6 C 0.7707(6) 0.2277(7) 0.7294(4)
N1 N 0.8260(6) 0.2458(8) 0.7935(3)
C7 C 0.7581(6) 0.1329(7) 0.6265(3)
C8 C 0.6073(7) 0.0637(7) 0.4184(3)
C9 C 0.8122(6) 0.1474(7) 0.6862(4)
H3 H 0.87620 0.10330 0.69700
C10 C 0.5286(7) 0.1395(7) 0.4370(4)
H4 H 0.46900 0.15890 0.40850
O2 O 0.7919(6) 0.3229(7) 0.8294(3)
C11 C 0.6958(7) 0.0303(7) 0.4573(4)
H5 H 0.74900 -0.02250 0.44280
C12 C 0.6773(6) 0.2988(8) 0.7126(4)
H6 H 0.65020 0.35440 0.74200
O3 O 0.4134(6) 0.2298(6) 0.5768(5)
O4 O 0.5520(6) 0.4322(6) 0.5773(4)
N2 N 0.4420(8) 0.2562(9) 0.5158(4)
N3 N 0.5482(7) 0.3889(8) 0.6338(5)
C13 C 0.6277(6) 0.2854(7) 0.6536(4)
O5 O 0.3803(6) 0.3079(7) 0.4817(3)
N4 N 0.6018(9) 0.0136(8) 0.3520(4)
O6 O 0.6797(7) -0.0305(7) 0.3304(3)
O7 O 0.9026(6) 0.1810(8) 0.8084(3)
O8 O 0.5115(10) 0.0174(12) 0.3234(4)
#END
