
#######################################################################
#
#                 Cambridge Crystallographic Data Centre
#                                CCDC
#
#######################################################################
#
# If this CIF has been generated from an entry in the Cambridge
# Structural Database, then it will include bibliographic, chemical,
# crystal, experimental, refinement or atomic coordinate data resulting
# from the CCDC's data processing and validation procedures.
#
#######################################################################

data_CSD_CIF_BAKYIW
_audit_creation_date 2003-03-06
_audit_creation_method CSD-ConQuest-V1
_database_code_CSD BAKYIW
_database_code_depnum_ccdc_archive 'CCDC 201152'
_chemical_formula_sum 'C34 H43 N1 O8'
_chemical_formula_moiety
;
C34 H43 N1 O8
;
_journal_coden_Cambridge 35
_journal_volume 67
_journal_year 2002
_journal_page_first 8151
_journal_name_full 'J.Org.Chem. '
loop_
_publ_author_name
"K.Tsubaki"
"T.Otsubo"
"T.Morimoto"
"H.Maruoka"
"M.Furukawa"
"Y.Momose"
"M.Shang"
"K.Fuji"
_chemical_name_systematic
;
7,15-Di-t-butyl-25-hydroxy-26,27-bis(methoxy)-23-nitro-2,11,19-trioxahexahomoc
alix(3)arene
;
_chemical_name_common
;
Nitrohomooxacalix(4)arene
;
_cell_volume   3317.757
_exptl_crystal_colour 'colorless'
_exptl_crystal_density_diffrn 1.189
_exptl_special_details
;
partial cone conformer

;
_exptl_crystal_description 'prismatic'
_diffrn_ambient_temperature 293.2
#These two values have been output from a single CSD field.
_refine_ls_R_factor_gt 0.1217
_refine_ls_wR_factor_gt 0.1217
_symmetry_cell_setting monoclinic
_symmetry_space_group_name_H-M 'C c'
_symmetry_Int_Tables_number 9
loop_
_symmetry_equiv_pos_site_id
_symmetry_equiv_pos_as_xyz
1 x,y,z
2 x,-y,1/2+z
3 1/2+x,1/2+y,z
4 1/2+x,1/2-y,1/2+z
_cell_length_a 9.6035(8)
_cell_length_b 19.580(3)
_cell_length_c 17.734(3)
_cell_angle_alpha 90
_cell_angle_beta 95.768(8)
_cell_angle_gamma 90
_cell_formula_units_Z 4
loop_
_atom_type_symbol
_atom_type_radius_bond
C 0.68
H 0.23
N 0.68
O 0.68
loop_
_atom_site_label
_atom_site_type_symbol
_atom_site_fract_x
_atom_site_fract_y
_atom_site_fract_z
O1 O 0.49250 0.3020(3) -0.01260
O2 O 0.53650 0.2086(3) 0.09750
O3 O 0.8103(7) 0.1427(3) 0.1650(4)
O4 O 0.8508(8) 0.2963(4) 0.2390(4)
O5 O 0.5525(9) 0.4278(3) 0.3105(4)
O6 O 0.3498(9) 0.3344(4) 0.1252(5)
O7 O 0.612(1) 0.0423(5) -0.1936(5)
O8 O 0.743(1) -0.0151(4) -0.1132(5)
N1 N 0.6640(9) 0.0326(4) -0.1299(5)
C1 C 0.4516(10) 0.4093(4) 0.0401(5)
C2 C 0.407(1) 0.3611(5) -0.0233(6)
C3 C 0.437(1) 0.2464(4) -0.0573(5)
C4 C 0.5270(9) 0.1848(3) -0.0355(5)
C5 C 0.5593(9) 0.1393(4) -0.0914(5)
C6 C 0.6350(9) 0.0816(4) -0.0708(5)
C7 C 0.6827(9) 0.0678(4) 0.0042(5)
C8 C 0.6511(9) 0.1115(4) 0.0592(4)
C9 C 0.5722(9) 0.1714(4) 0.0408(5)
C10 C 0.698(1) 0.0973(4) 0.1419(5)
C11 C 0.833(1) 0.1490(5) 0.2457(5)
C12 C 0.7283(10) 0.1971(5) 0.2765(4)
C13 C 0.617(1) 0.1699(5) 0.3136(5)
C14 C 0.523(1) 0.2123(5) 0.3458(5)
C15 C 0.541(1) 0.2819(5) 0.3406(5)
C16 C 0.6491(10) 0.3122(5) 0.3031(5)
C17 C 0.7415(9) 0.2678(5) 0.2704(4)
C18 C 0.673(1) 0.3882(5) 0.2991(6)
C19 C 0.438(1) 0.4211(6) 0.2552(6)
C20 C 0.4681(9) 0.4366(4) 0.1746(5)
C21 C 0.5459(10) 0.4929(4) 0.1596(5)
C22 C 0.5794(10) 0.5093(4) 0.0882(5)
C23 C 0.531(1) 0.4664(5) 0.0295(5)
C24 C 0.4236(10) 0.3941(4) 0.1140(6)
C25 C 0.827(1) 0.3066(6) 0.1586(7)
C26 C 0.208(2) 0.3408(8) 0.137(1)
C27 C 0.398(1) 0.1831(6) 0.3823(7)
C28 C 0.262(2) 0.2064(9) 0.3337(9)
C29 C 0.401(3) 0.106(1) 0.388(2)
C30 C 0.384(2) 0.216(1) 0.4592(9)
C31 C 0.670(1) 0.5706(5) 0.0728(7)
C32 C 0.779(3) 0.552(2) 0.025(2)
C33 C 0.580(3) 0.6196(10) 0.019(1)
C34 C 0.713(4) 0.613(2) 0.140(1)
H1 H 0.44(1) 0.369(6) -0.085(7)
H2 H 0.310(9) 0.342(4) -0.009(4)
H3 H 0.44(2) 0.256(7) -0.121(8)
H4 H 0.334(8) 0.243(3) -0.048(4)
H5 H 0.531(7) 0.147(3) -0.139(5)
H6 H 0.73(1) 0.034(6) 0.015(6)
H7 H 0.52740 0.24270 0.07740
H8 H 0.619(7) 0.113(3) 0.167(4)
H9 H 0.72800 0.05150 0.14820
H10 H 0.824(8) 0.101(4) 0.269(4)
H11 H 0.92500 0.16650 0.25900
H12 H 0.612(9) 0.124(5) 0.322(5)
H13 H 0.500(8) 0.322(4) 0.359(4)
H14 H 0.75(1) 0.393(6) 0.344(7)
H15 H 0.72(1) 0.405(5) 0.253(6)
H16 H 0.433(10) 0.383(5) 0.244(5)
H17 H 0.36(2) 0.463(8) 0.262(9)
H18 H 0.581(10) 0.516(4) 0.206(5)
H19 H 0.56(1) 0.478(5) -0.011(7)
H20 H 0.15970 0.36480 0.09520
H21 H 0.20210 0.36940 0.18180
H22 H 0.16770 0.29900 0.14420
H23 H 0.90670 0.32690 0.14080
H24 H 0.74790 0.33530 0.14780
H25 H 0.80910 0.26350 0.13450
H26 H 0.37890 0.26440 0.45350
H27 H 0.30270 0.19980 0.47920
H28 H 0.46440 0.20500 0.49320
H29 H 0.41070 0.08690 0.33960
H30 H 0.31740 0.08990 0.40600
H31 H 0.47910 0.09230 0.42240
H32 H 0.25800 0.25470 0.33200
H33 H 0.26200 0.18890 0.28360
H34 H 0.18230 0.18930 0.35550
H35 H 0.63370 0.65750 0.00750
H36 H 0.50240 0.63500 0.04550
H37 H 0.54480 0.59600 -0.02480
H38 H 0.81860 0.59260 0.00590
H39 H 0.73780 0.52610 -0.01770
H40 H 0.84850 0.52610 0.05230
H41 H 0.77420 0.58580 0.17440
H42 H 0.63500 0.62640 0.16300
H43 H 0.76430 0.65120 0.12470
#END
