
#######################################################################
#
#                 Cambridge Crystallographic Data Centre
#                                CCDC
#
#######################################################################
#
# If this CIF has been generated from an entry in the Cambridge
# Structural Database, then it will include bibliographic, chemical,
# crystal, experimental, refinement or atomic coordinate data resulting
# from the CCDC's data processing and validation procedures.
#
#######################################################################

data_CSD_CIF_BALGEA
_audit_creation_date 1999-11-09
_audit_creation_method CSD-ConQuest-V1
_database_code_CSD BALGEA
_chemical_formula_sum 'C22 H28 N4 O7'
_chemical_formula_moiety
;
C22 H28 N4 O7
;
_journal_coden_Cambridge 24
_journal_volume 39
_journal_year 1998
_journal_page_first 9229
_journal_name_full 'Tetrahedron Lett. '
loop_
_publ_author_name
"P.Chiu"
"Bin Chen"
"Kin Fai Cheng"
_chemical_name_systematic
;
cis-1-Ethoxycarbonyl-7-hydroxy-4-methylbicyclo(5.3.0)dec-3-ene-8-carbaldehyde 
2,4-dinitrophenylhydrazone
;
_cell_volume   1144.795
_exptl_crystal_colour 'yellow'
_exptl_crystal_density_diffrn 1.34
_exptl_crystal_description 'block'
_diffrn_ambient_temperature ?
_diffrn_special_details
;
The study was carried out at room temperature,in the range 283-303K

;
#These two values have been output from a single CSD field.
_refine_ls_R_factor_gt 0.059
_refine_ls_wR_factor_gt 0.059
loop_
_citation_database_id_CSD
_citation_special_details
BALGIE "is a stereoisomer of this entry"
_symmetry_cell_setting triclinic
_symmetry_space_group_name_H-M 'P -1'
_symmetry_Int_Tables_number 2
loop_
_symmetry_equiv_pos_site_id
_symmetry_equiv_pos_as_xyz
1 x,y,z
2 -x,-y,-z
_cell_length_a 8.746(1)
_cell_length_b 10.082(1)
_cell_length_c 13.547(1)
_cell_angle_alpha 102.59(1)
_cell_angle_beta 98.40(1)
_cell_angle_gamma 94.89(1)
_cell_formula_units_Z 2
loop_
_atom_type_symbol
_atom_type_radius_bond
C 0.68
H 0.23
N 0.68
O 0.68
loop_
_atom_site_label
_atom_site_type_symbol
_atom_site_fract_x
_atom_site_fract_y
_atom_site_fract_z
O1 O 0.4712(4) 0.2540(4) 0.9128(3)
O2 O 0.5761(3) 0.4035(3) 1.0494(3)
O3 O 0.9592(3) 0.7513(3) 1.0233(2)
O4 O 1.0995(3) 0.7216(3) 0.9041(2)
O5 O 1.2744(3) 0.4422(2) 0.4617(2)
O6 O 1.2512(3) 0.3110(3) 0.2618(2)
O7 O 1.3784(3) 0.1286(3) 0.2442(2)
N1 N 0.5707(4) 0.3457(4) 0.9593(3)
N2 N 0.9917(4) 0.6827(3) 0.9446(3)
N3 N 1.0666(3) 0.4876(3) 0.7691(2)
N4 N 1.1042(3) 0.3851(3) 0.6940(2)
C1 C 0.6928(4) 0.3900(4) 0.9065(3)
C2 C 0.7817(4) 0.5119(4) 0.9469(3)
C3 C 0.9034(4) 0.5496(4) 0.8987(3)
C4 C 0.9401(4) 0.4614(4) 0.8123(3)
C5 C 0.8397(4) 0.3386(4) 0.7711(3)
C6 C 0.7182(4) 0.3027(4) 0.8168(3)
C7 C 1.2287(4) 0.4102(4) 0.6580(3)
C8 C 1.3350(5) 0.5427(5) 0.6911(3)
C9 C 1.2607(4) 0.2943(4) 0.5766(3)
C10 C 1.2078(4) 0.3074(4) 0.4653(3)
C11 C 1.2934(4) 0.1979(4) 0.4021(3)
C12 C 1.4567(4) 0.2220(4) 0.4700(3)
C13 C 1.4301(4) 0.2636(4) 0.5803(3)
C14 C 1.0309(4) 0.2997(4) 0.4349(3)
C15 C 0.9326(4) 0.1660(4) 0.4293(3)
C16 C 0.9374(5) 0.0584(4) 0.3341(3)
C17 C 1.0684(5) 0.0074(4) 0.3171(3)
C18 C 1.2197(4) 0.0492(4) 0.3897(3)
C19 C 0.7882(5) 0.0160(5) 0.2564(4)
C20 C 1.3043(4) 0.2206(4) 0.2957(3)
C21 C 1.3910(6) 0.1350(6) 0.1389(3)
C22 C 1.2807(9) 0.0343(6) 0.0676(4)
H1 H 0.76140 0.57100 1.00720
H2 H 0.85690 0.27920 0.70990
H3 H 0.65190 0.21930 0.78780
H4 H 1.12200 0.56630 0.78810
H5 H 1.37240 0.56070 0.76270
H6 H 1.42050 0.53620 0.65500
H7 H 1.27950 0.61490 0.67630
H8 H 1.20230 0.21420 0.58390
H9 H 1.50500 0.14030 0.45960
H10 H 1.52050 0.29280 0.45400
H11 H 1.49910 0.34290 0.61620
H12 H 1.44680 0.19110 0.61370
H13 H 0.99660 0.36870 0.48360
H14 H 1.01130 0.31920 0.36900
H15 H 0.96980 0.13230 0.48750
H16 H 0.82780 0.18340 0.43050
H17 H 1.06610 -0.05940 0.25530
H18 H 1.29180 -0.01030 0.36570
H19 H 1.20250 0.03840 0.45530
H20 H 1.37200 0.22320 0.12970
H21 H 1.49300 0.11910 0.12700
H22 H 0.70780 0.06440 0.28140
H23 H 0.80450 0.03680 0.19330
H24 H 0.75880 -0.07960 0.24570
H25 H 1.17840 0.05130 0.07790
H26 H 1.29240 0.03840 -0.00040
H27 H 1.29790 -0.05400 0.07750
H28 H 1.38340 0.45180 0.45000
#END
