
#######################################################################
#
#                 Cambridge Crystallographic Data Centre
#                                CCDC
#
#######################################################################
#
# If this CIF has been generated from an entry in the Cambridge
# Structural Database, then it will include bibliographic, chemical,
# crystal, experimental, refinement or atomic coordinate data resulting
# from the CCDC's data processing and validation procedures.
#
#######################################################################

data_CSD_CIF_BALGIE
_audit_creation_date 1999-11-09
_audit_creation_method CSD-ConQuest-V1
_database_code_CSD BALGIE
_chemical_formula_sum 'C22 H28 N4 O7'
_chemical_formula_moiety
;
C22 H28 N4 O7
;
_journal_coden_Cambridge 24
_journal_volume 39
_journal_year 1998
_journal_page_first 9229
_journal_name_full 'Tetrahedron Lett. '
loop_
_publ_author_name
"P.Chiu"
"Bin Chen"
"Kin Fai Cheng"
_chemical_name_systematic
;
trans-1-Ethoxycarbonyl-7-hydroxy-4-methylbicyclo(5.3.0)dec-3-ene-8-carbaldehyd
e 2,4-dinitrophenylhydrazone
;
_cell_volume   2220.104
_exptl_crystal_colour 'yellow'
_exptl_crystal_density_diffrn 1.38
_exptl_crystal_description 'block'
_diffrn_ambient_temperature ?
_diffrn_special_details
;
The study was carried out at room temperature,in the range 283-303K

;
#These two values have been output from a single CSD field.
_refine_ls_R_factor_gt 0.044
_refine_ls_wR_factor_gt 0.044
loop_
_citation_database_id_CSD
_citation_special_details
BALGEA "is a stereoisomer of this entry"
_symmetry_cell_setting monoclinic
_symmetry_space_group_name_H-M 'P 21/c'
_symmetry_Int_Tables_number 14
loop_
_symmetry_equiv_pos_site_id
_symmetry_equiv_pos_as_xyz
1 x,y,z
2 -x,1/2+y,1/2-z
3 -x,-y,-z
4 x,-1/2-y,-1/2+z
_cell_length_a 8.000(7)
_cell_length_b 34.700(5)
_cell_length_c 8.777(4)
_cell_angle_alpha 90
_cell_angle_beta 114.33(5)
_cell_angle_gamma 90
_cell_formula_units_Z 4
loop_
_atom_type_symbol
_atom_type_radius_bond
C 0.68
H 0.23
N 0.68
O 0.68
loop_
_atom_site_label
_atom_site_type_symbol
_atom_site_fract_x
_atom_site_fract_y
_atom_site_fract_z
O1 O 0.2987(6) 0.5871(1) 1.0463(5)
O2 O 0.5751(6) 0.6035(1) 1.0910(5)
O3 O 0.9142(5) 0.5304(1) 0.8701(5)
O4 O 0.8068(5) 0.4798(1) 0.7161(5)
O5 O 0.2893(4) 0.34268(9) 0.6243(4)
O6 O -0.2560(5) 0.3652(1) 0.2638(4)
O7 O -0.2852(4) 0.30194(10) 0.2180(4)
N1 N 0.4373(7) 0.5837(1) 1.0215(5)
N2 N 0.7882(6) 0.5081(1) 0.7944(6)
N3 N 0.4577(5) 0.4627(1) 0.6108(5)
N4 N 0.2978(5) 0.4414(1) 0.5280(5)
C1 C 0.4414(7) 0.5539(1) 0.9044(6)
C2 C 0.6043(7) 0.5454(1) 0.8976(6)
C3 C 0.6102(6) 0.5159(1) 0.7950(6)
C4 C 0.4525(6) 0.4936(1) 0.7022(6)
C5 C 0.2880(6) 0.5047(1) 0.7106(6)
C6 C 0.2828(7) 0.5340(1) 0.8109(6)
C7 C 0.3176(6) 0.4088(1) 0.4694(6)
C8 C 0.4996(7) 0.3929(1) 0.4841(7)
C9 C 0.1438(6) 0.3857(1) 0.3873(5)
C10 C 0.1138(6) 0.3583(1) 0.5149(5)
C11 C 0.0093(6) 0.3232(1) 0.4055(6)
C12 C 0.1118(6) 0.3184(1) 0.2915(6)
C13 C 0.1309(7) 0.3598(2) 0.2396(6)
C14 C 0.0225(6) 0.3774(1) 0.6161(6)
C15 C 0.0088(7) 0.3524(2) 0.7554(6)
C16 C -0.1090(7) 0.3168(1) 0.7073(6)
C17 C -0.1023(7) 0.2894(1) 0.6036(7)
C18 C 0.0159(7) 0.2874(1) 0.5092(6)
C19 C -0.2357(8) 0.3125(2) 0.7947(7)
C20 C -0.1900(7) 0.3336(2) 0.2915(6)
C21 C -0.4767(7) 0.3087(2) 0.1050(8)
C22 C -0.5661(9) 0.2739(2) 0.033(1)
H1 H 0.71210 0.55950 0.96250
H2 H 0.17750 0.49140 0.64460
H3 H 0.16990 0.54080 0.81630
H4 H 0.55320 0.45660 0.60390
H5 H 0.48090 0.36830 0.43120
H6 H 0.55220 0.40990 0.43170
H7 H 0.57980 0.39010 0.59900
H8 H 0.04390 0.40340 0.34690
H9 H 0.22920 0.30710 0.35100
H10 H 0.04320 0.30320 0.19670
H11 H 0.02700 0.36670 0.14120
H12 H 0.23880 0.36240 0.22010
H13 H 0.09080 0.39990 0.66630
H14 H -0.09820 0.38460 0.54150
H15 H 0.12970 0.34450 0.82560
H16 H -0.03730 0.36850 0.81690
H17 H -0.02260 0.26590 0.43580
H18 H 0.13900 0.28370 0.58750
H19 H -0.53870 0.31990 0.16580
H20 H -0.48160 0.32560 0.01850
H21 H -0.18420 0.26840 0.58740
H22 H -0.22520 0.33430 0.86330
H23 H -0.35950 0.31050 0.71330
H24 H -0.20490 0.28990 0.86140
H25 H -0.68980 0.27890 -0.04020
H26 H -0.50510 0.26240 -0.02950
H27 H -0.56180 0.25660 0.11810
H28 H 0.34640 0.36180 0.72760
#END
