
#######################################################################
#
#                 Cambridge Crystallographic Data Centre
#                                CCDC
#
#######################################################################
#
# If this CIF has been generated from an entry in the Cambridge
# Structural Database, then it will include bibliographic, chemical,
# crystal, experimental, refinement or atomic coordinate data resulting
# from the CCDC's data processing and validation procedures.
#
#######################################################################

data_CSD_CIF_BALYAR
_audit_creation_date 2017-01-21
_audit_creation_method CSD-ConQuest-V1
_database_code_CSD BALYAR
_database_code_depnum_ccdc_archive 'CCDC 1515036'
_chemical_formula_sum 'C14 H13 N3 O5'
_chemical_formula_moiety
;
C14 H13 N3 O5
;
_journal_coeditor_code "lh5834"
_journal_coden_Cambridge 1828
_journal_volume 73
_journal_year 2017
_journal_page_first 223
_journal_name_full 'Acta Crystallogr.,Sect.E:Cryst.Commun. '
loop_
_publ_author_name
"Kirandeep"
"A.Husain"
"P.Negi"
"G.Kumar"
"R.Kataria"
_chemical_name_systematic
;
(E)-4-hydroxy-6-methyl-3-(N-(4-nitrophenyl)ethanehydrazonoyl)-2H-pyran-2-one
;
_cell_volume   1379.785
_exptl_crystal_colour 'colorless'
_exptl_crystal_density_diffrn 1.46
_exptl_crystal_description 'block'
_diffrn_ambient_temperature 297
_diffrn_special_details
;
twin

;
#These two values have been output from a single CSD field.
_refine_ls_R_factor_gt 0.0433
_refine_ls_wR_factor_gt 0.0433
_symmetry_cell_setting monoclinic
_symmetry_space_group_name_H-M 'P 21/n'
_symmetry_Int_Tables_number 14
loop_
_symmetry_equiv_pos_site_id
_symmetry_equiv_pos_as_xyz
1 x,y,z
2 1/2-x,1/2+y,1/2-z
3 -x,-y,-z
4 -1/2+x,-1/2-y,-1/2+z
_cell_length_a 6.9633(3)
_cell_length_b 19.5008(9)
_cell_length_c 10.2031(5)
_cell_angle_alpha 90
_cell_angle_beta 95.196(2)
_cell_angle_gamma 90
_cell_formula_units_Z 4
loop_
_atom_type_symbol
_atom_type_radius_bond
C 0.68
H 0.23
N 0.68
O 0.68
loop_
_atom_site_label
_atom_site_type_symbol
_atom_site_fract_x
_atom_site_fract_y
_atom_site_fract_z
O1 O 0.3744(2) 0.45226(6) 0.80648(13)
H1 H 0.344(4) 0.4379(12) 0.7235(19)
O2 O 0.6082(2) 0.28918(6) 1.00744(12)
O3 O 0.6119(3) 0.22490(6) 0.83226(13)
O4 O 0.0188(3) 0.67218(8) 0.2507(2)
O5 O -0.0004(3) 0.61297(9) 0.07175(19)
N1 N 0.0349(3) 0.61838(9) 0.1917(2)
N2 N 0.3120(2) 0.38498(7) 0.46572(14)
H2 H 0.268(3) 0.3474(11) 0.432(2)
N3 N 0.3581(2) 0.38475(6) 0.60024(13)
C1 C 0.1015(3) 0.55793(9) 0.2667(2)
C2 C 0.1693(3) 0.56440(9) 0.3967(2)
H3 H 0.16734 0.60693 0.43783
C3 C 0.2406(3) 0.50781(8) 0.46645(17)
H4 H 0.28986 0.51237 0.55381
C4 C 0.2383(2) 0.44367(8) 0.40531(16)
C5 C 0.1636(3) 0.43827(9) 0.27327(18)
H5 H 0.15898 0.39566 0.23216
C6 C 0.0978(3) 0.49483(10) 0.20466(19)
H6 H 0.05075 0.49100 0.11672
C7 C 0.5379(3) 0.27794(9) 0.57620(17)
H7 H 0.45488 0.23862 0.57564
H8 H 0.66412 0.26576 0.61488
H9 H 0.54633 0.29341 0.48758
C8 C 0.4574(2) 0.33419(8) 0.65505(16)
C9 C 0.5723(3) 0.28148(8) 0.87201(16)
C10 C 0.4942(2) 0.33851(8) 0.79792(15)
C11 C 0.4516(3) 0.39848(8) 0.86652(17)
C12 C 0.4968(3) 0.40211(10) 1.00539(19)
H10 H 0.47231 0.44221 1.05029
C13 C 0.5736(3) 0.34866(9) 1.07078(17)
C14 C 0.6316(4) 0.34367(13) 1.21487(19)
H11 H 0.56487 0.30610 1.25124
H12 H 0.59905 0.38554 1.25714
H13 H 0.76815 0.33617 1.22895
#END
