
#######################################################################
#
#                 Cambridge Crystallographic Data Centre
#                                CCDC
#
#######################################################################
#
# If this CIF has been generated from an entry in the Cambridge
# Structural Database, then it will include bibliographic, chemical,
# crystal, experimental, refinement or atomic coordinate data resulting
# from the CCDC's data processing and validation procedures.
#
#######################################################################

data_CSD_CIF_BAMQAJ01
_audit_creation_date 2012-04-10
_audit_creation_method CSD-ConQuest-V1
_database_code_CSD BAMQAJ01
_database_code_depnum_ccdc_archive 'CCDC 789525'
_chemical_formula_sum 'C18 H24 N4 O4'
_chemical_formula_moiety
;
C18 H24 N4 O4
;
_journal_coden_Cambridge 580
_journal_volume 30
_journal_year 2011
_journal_page_first 3232
_journal_name_full 'Polyhedron '
loop_
_publ_author_name
"E.V.Tretyakov"
"S.E.Tolstikov"
"G.V.Romanenko"
"A.S.Bogomyakov"
"D.V.Stass"
"M.K.Kadirov"
"K.V.Holin"
"O.G.Sinyashin"
"V.I.Ovcharenko"
_chemical_name_systematic
;
2,2'-(Buta-1,3-diyne-1,4-diyl)-bis(4,4,5,5-tetramethyl-4,5-dihydro-1H-imidazol
e-3-oxide-1-oxyl)
;
_cell_volume    925.978
_exptl_crystal_colour 'dark green'
_exptl_crystal_density_diffrn 1.293
_exptl_crystal_description 'needle'
_diffrn_ambient_temperature 35
#These two values have been output from a single CSD field.
_refine_ls_R_factor_gt 0.0543
_refine_ls_wR_factor_gt 0.0543
_symmetry_cell_setting monoclinic
_symmetry_space_group_name_H-M 'P 21/n'
_symmetry_Int_Tables_number 14
loop_
_symmetry_equiv_pos_site_id
_symmetry_equiv_pos_as_xyz
1 x,y,z
2 1/2-x,1/2+y,1/2-z
3 -x,-y,-z
4 -1/2+x,-1/2-y,-1/2+z
_cell_length_a 6.1384(13)
_cell_length_b 13.179(3)
_cell_length_c 11.578(2)
_cell_angle_alpha 90
_cell_angle_beta 98.652(15)
_cell_angle_gamma 90
_cell_formula_units_Z 2
loop_
_atom_type_symbol
_atom_type_radius_bond
C 0.68
H 0.23
N 0.68
O 0.68
loop_
_atom_site_label
_atom_site_type_symbol
_atom_site_fract_x
_atom_site_fract_y
_atom_site_fract_z
O1 O -0.1883(3) 0.02614(14) 0.84806(16)
N1 N -0.0723(4) 0.08673(18) 0.7964(2)
C1 C 0.1241(4) 0.1424(2) 0.8591(2)
O2 O 0.0829(3) 0.19804(15) 0.55180(15)
N2 N 0.0583(4) 0.16898(18) 0.65506(19)
C2 C 0.3102(5) 0.0651(3) 0.8831(3)
H1 H 0.262(4) 0.0065(19) 0.931(2)
H2 H 0.444(4) 0.098(2) 0.931(2)
H3 H 0.347(5) 0.037(2) 0.809(2)
C3 C 0.0697(6) 0.1868(3) 0.9728(3)
H4 H 0.063(4) 0.128(2) 1.029(2)
H5 H 0.205(5) 0.233(2) 1.005(2)
H6 H -0.068(5) 0.220(2) 0.960(2)
C4 C 0.1608(5) 0.2228(2) 0.7639(2)
C5 C 0.3992(5) 0.2474(3) 0.7583(3)
H7 H 0.489(4) 0.182(2) 0.742(2)
H8 H 0.467(4) 0.2732(18) 0.839(2)
H9 H 0.400(4) 0.298(2) 0.695(2)
C6 C 0.0267(6) 0.3195(2) 0.7700(3)
H10 H 0.030(4) 0.3616(18) 0.694(2)
H11 H 0.102(4) 0.3643(19) 0.842(2)
H12 H -0.137(5) 0.307(2) 0.777(2)
C7 C -0.0936(5) 0.0997(2) 0.6794(2)
C8 C -0.2563(5) 0.0546(2) 0.5990(2)
C9 C -0.4119(5) 0.0197(2) 0.5361(2)
O1B O -0.8117(3) -0.02614(14) 0.15194(16)
N1B N -0.9277(4) -0.08673(18) 0.2036(2)
C1B C -1.1241(4) -0.1424(2) 0.1409(2)
O2B O -1.0829(3) -0.19804(15) 0.44820(15)
N2B N -1.0583(4) -0.16898(18) 0.34494(19)
C2B C -1.3102(5) -0.0651(3) 0.1169(3)
H1B H -1.262(4) -0.0065(19) 0.069(2)
H2B H -1.444(4) -0.098(2) 0.069(2)
H3B H -1.347(5) -0.037(2) 0.191(2)
C3B C -1.0697(6) -0.1868(3) 0.0272(3)
H4B H -1.063(4) -0.128(2) -0.029(2)
H5B H -1.205(5) -0.233(2) -0.005(2)
H6B H -0.932(5) -0.220(2) 0.040(2)
C4B C -1.1608(5) -0.2228(2) 0.2361(2)
C5B C -1.3992(5) -0.2474(3) 0.2417(3)
H7B H -1.489(4) -0.182(2) 0.258(2)
H8B H -1.467(4) -0.2732(18) 0.161(2)
H9B H -1.400(4) -0.298(2) 0.305(2)
C6B C -1.0267(6) -0.3195(2) 0.2300(3)
H10B H -1.030(4) -0.3616(18) 0.306(2)
H11B H -1.102(4) -0.3643(19) 0.158(2)
H12B H -0.863(5) -0.307(2) 0.223(2)
C7B C -0.9064(5) -0.0997(2) 0.3206(2)
C8B C -0.7437(5) -0.0546(2) 0.4010(2)
C9B C -0.5881(5) -0.0197(2) 0.4639(2)
#END
