
#######################################################################
#
#                 Cambridge Crystallographic Data Centre
#                                CCDC
#
#######################################################################
#
# If this CIF has been generated from an entry in the Cambridge
# Structural Database, then it will include bibliographic, chemical,
# crystal, experimental, refinement or atomic coordinate data resulting
# from the CCDC's data processing and validation procedures.
#
#######################################################################

data_CSD_CIF_BANBUP
_audit_creation_date 2012-04-10
_audit_creation_method CSD-ConQuest-V1
_database_code_CSD BANBUP
_database_code_depnum_ccdc_archive 'CCDC 853455'
_chemical_formula_sum 'C18 H26 N2 O3'
_chemical_formula_moiety
;
C18 H26 N2 O3
;
_journal_coden_Cambridge 1336
_journal_volume 13
_journal_year 2011
_journal_page_first 6406
_journal_name_full 'Org.Lett. '
loop_
_publ_author_name
"S.M.-C.Pelletier"
"P.C.Ray"
"D.J.Dixon"
_chemical_name_systematic
;
3-Benzyl-1-butyl-5-isopropyl-4-nitropyrrolidin-2-one
;
_cell_volume   1723.169
_exptl_crystal_colour 'colorless'
_exptl_crystal_density_diffrn 1.227
_exptl_crystal_description 'block'
_diffrn_ambient_temperature 100
#These two values have been output from a single CSD field.
_refine_ls_R_factor_gt 0.0366
_refine_ls_wR_factor_gt 0.0366
_symmetry_cell_setting monoclinic
_symmetry_space_group_name_H-M 'P 21/c'
_symmetry_Int_Tables_number 14
loop_
_symmetry_equiv_pos_site_id
_symmetry_equiv_pos_as_xyz
1 x,y,z
2 -x,1/2+y,1/2-z
3 -x,-y,-z
4 x,-1/2-y,-1/2+z
_cell_length_a 8.3457(13)
_cell_length_b 18.861(3)
_cell_length_c 11.0182(17)
_cell_angle_alpha 90
_cell_angle_beta 96.511(7)
_cell_angle_gamma 90
_cell_formula_units_Z 4
loop_
_atom_type_symbol
_atom_type_radius_bond
C 0.68
H 0.23
N 0.68
O 0.68
loop_
_atom_site_label
_atom_site_type_symbol
_atom_site_fract_x
_atom_site_fract_y
_atom_site_fract_z
C1 C 0.32143(9) 0.31941(4) 0.18995(7)
O1 O 0.28184(8) 0.29063(3) 0.28207(6)
C2 C 0.46546(9) 0.29778(4) 0.12485(7)
H1 H 0.56500 0.31620 0.17380
C3 C 0.44163(9) 0.33958(4) 0.00502(7)
H2 H 0.39440 0.30810 -0.06280
N1 N 0.60087(8) 0.36965(4) -0.02486(6)
O2 O 0.67613(8) 0.40870(4) 0.05088(6)
O3 O 0.64732(8) 0.35354(4) -0.12228(6)
C4 C 0.32193(9) 0.40082(4) 0.02503(7)
H3 H 0.38440 0.44530 0.04520
N2 N 0.25017(8) 0.37693(4) 0.13347(6)
C5 C 0.12249(10) 0.41704(5) 0.18361(8)
H4 H 0.08890 0.39110 0.25470
H5 H 0.02780 0.42030 0.12100
C6 C 0.17593(11) 0.49207(5) 0.22375(8)
H6 H 0.20550 0.51820 0.15160
H7 H 0.08310 0.51690 0.25290
C7 C 0.31809(11) 0.49527(5) 0.32418(9)
H8 H 0.40920 0.46790 0.29760
H9 H 0.35350 0.54520 0.33550
C8 C 0.27826(13) 0.46611(6) 0.44618(9)
H10 H 0.18340 0.49070 0.47040
H11 H 0.37020 0.47370 0.50840
H12 H 0.25560 0.41520 0.43820
C9 C 0.48562(10) 0.21740(4) 0.11073(8)
H13 H 0.48280 0.19430 0.19110
H14 H 0.39460 0.19870 0.05440
C10 C 0.64312(10) 0.19936(4) 0.06148(8)
C11 C 0.79054(10) 0.21836(5) 0.12680(8)
H15 H 0.79170 0.24020 0.20460
C12 C 0.93562(11) 0.20568(5) 0.07935(9)
H16 H 1.03460 0.21940 0.12450
C13 C 0.93621(12) 0.17311(5) -0.03365(9)
H17 H 1.03490 0.16550 -0.06700
C14 C 0.79100(12) 0.15172(5) -0.09752(9)
H18 H 0.79080 0.12790 -0.17350
C15 C 0.64519(11) 0.16510(5) -0.05039(8)
H19 H 0.54660 0.15070 -0.09510
C16 C 0.19428(10) 0.41486(4) -0.08442(7)
H20 H 0.12810 0.45620 -0.06280
C17 C 0.07941(11) 0.35210(5) -0.11153(9)
H21 H -0.00330 0.36460 -0.17850
H22 H 0.02770 0.34070 -0.03840
H23 H 0.14030 0.31090 -0.13500
C18 C 0.27729(11) 0.43609(5) -0.19605(8)
H24 H 0.33610 0.39530 -0.22380
H25 H 0.35300 0.47500 -0.17390
H26 H 0.19590 0.45160 -0.26180
#END
