
#######################################################################
#
#                 Cambridge Crystallographic Data Centre
#                                CCDC
#
#######################################################################
#
# If this CIF has been generated from an entry in the Cambridge
# Structural Database, then it will include bibliographic, chemical,
# crystal, experimental, refinement or atomic coordinate data resulting
# from the CCDC's data processing and validation procedures.
#
#######################################################################

data_CSD_CIF_BANCEA
_audit_creation_date 2012-04-10
_audit_creation_method CSD-ConQuest-V1
_database_code_CSD BANCEA
_database_code_depnum_ccdc_archive 'CCDC 853457'
_chemical_formula_sum 'C21 H24 N2 O3'
_chemical_formula_moiety
;
C21 H24 N2 O3
;
_journal_coden_Cambridge 1336
_journal_volume 13
_journal_year 2011
_journal_page_first 6406
_journal_name_full 'Org.Lett. '
loop_
_publ_author_name
"S.M.-C.Pelletier"
"P.C.Ray"
"D.J.Dixon"
_chemical_name_systematic
;
1,3-Dibenzyl-5-isopropyl-4-nitropyrrolidin-2-one
;
_cell_volume   1866.191
_exptl_crystal_colour 'colorless'
_exptl_crystal_density_diffrn 1.254
_exptl_crystal_description 'plate'
_diffrn_ambient_temperature 150
#These two values have been output from a single CSD field.
_refine_ls_R_factor_gt 0.0482
_refine_ls_wR_factor_gt 0.0482
_symmetry_cell_setting monoclinic
_symmetry_space_group_name_H-M 'P 21/n'
_symmetry_Int_Tables_number 14
loop_
_symmetry_equiv_pos_site_id
_symmetry_equiv_pos_as_xyz
1 x,y,z
2 1/2-x,1/2+y,1/2-z
3 -x,-y,-z
4 -1/2+x,-1/2-y,-1/2+z
_cell_length_a 12.6960(4)
_cell_length_b 8.2166(2)
_cell_length_c 18.0143(6)
_cell_angle_alpha 90
_cell_angle_beta 96.7494(13)
_cell_angle_gamma 90
_cell_formula_units_Z 4
loop_
_atom_type_symbol
_atom_type_radius_bond
C 0.68
H 0.23
N 0.68
O 0.68
loop_
_atom_site_label
_atom_site_type_symbol
_atom_site_fract_x
_atom_site_fract_y
_atom_site_fract_z
O1 O 0.91609(10) 0.62826(17) 0.44800(7)
C1 C 0.85298(12) 0.5265(2) 0.46498(9)
N1 N 0.78876(11) 0.43303(18) 0.41668(8)
C2 C 0.79318(14) 0.4339(2) 0.33633(9)
C3 C 0.68967(13) 0.4817(2) 0.29118(9)
C4 C 0.62312(14) 0.5979(2) 0.31642(10)
C5 C 0.52970(15) 0.6418(3) 0.27373(11)
C6 C 0.50181(16) 0.5701(3) 0.20501(11)
C7 C 0.56756(16) 0.4553(3) 0.17823(11)
C8 C 0.66129(15) 0.4106(2) 0.22149(10)
C9 C 0.71318(14) 0.3328(2) 0.45183(9)
C10 C 0.72657(13) 0.3950(2) 0.53341(9)
C11 C 0.83636(13) 0.4745(2) 0.54386(9)
C12 C 0.85998(15) 0.6030(2) 0.60441(10)
C13 C 0.86403(13) 0.5347(2) 0.68274(9)
C14 C 0.79589(15) 0.5896(2) 0.73233(11)
C15 C 0.80340(15) 0.5313(3) 0.80506(11)
C16 C 0.87882(16) 0.4165(2) 0.82969(10)
C17 C 0.94634(15) 0.3579(2) 0.78068(10)
C18 C 0.93858(13) 0.4164(2) 0.70794(10)
N2 N 0.64145(11) 0.5189(2) 0.54227(8)
O2 O 0.64361(11) 0.64677(17) 0.50767(8)
O3 O 0.57485(12) 0.4857(2) 0.58281(10)
C19 C 0.73090(17) 0.1492(2) 0.44480(11)
C20 C 0.8347(2) 0.0884(3) 0.48734(12)
C21 C 0.6351(2) 0.0582(3) 0.46824(13)
H1 H 0.84780 0.51230 0.32620
H2 H 0.81540 0.32460 0.32010
H3 H 0.64260 0.64480 0.36450
H4 H 0.48360 0.72150 0.29180
H5 H 0.43530 0.59890 0.17580
H6 H 0.54990 0.40640 0.13020
H7 H 0.70750 0.33240 0.20310
H8 H 0.64020 0.35940 0.42880
H9 H 0.71900 0.30800 0.56950
H10 H 0.88820 0.38500 0.55580
H11 H 0.93010 0.64710 0.59710
H12 H 0.80540 0.69020 0.59730
H13 H 0.74380 0.66720 0.71520
H14 H 0.75540 0.57090 0.83840
H15 H 0.88310 0.37730 0.88020
H16 H 0.99830 0.27740 0.79630
H17 H 0.98700 0.37550 0.67490
H18 H 0.73510 0.12680 0.39140
H19 H 0.84210 -0.02670 0.47660
H20 H 0.83290 0.10090 0.54250
H21 H 0.89510 0.14950 0.47130
H22 H 0.64490 -0.05750 0.46090
H23 H 0.62700 0.07800 0.52180
H24 H 0.56800 0.09210 0.43920
#END
