
#######################################################################
#
#                 Cambridge Crystallographic Data Centre
#                                CCDC
#
#######################################################################
#
# If this CIF has been generated from an entry in the Cambridge
# Structural Database, then it will include bibliographic, chemical,
# crystal, experimental, refinement or atomic coordinate data resulting
# from the CCDC's data processing and validation procedures.
#
#######################################################################

data_CSD_CIF_BANCAW
_audit_creation_date 2012-04-10
_audit_creation_method CSD-ConQuest-V1
_database_code_CSD BANCAW
_database_code_depnum_ccdc_archive 'CCDC 853456'
_chemical_formula_sum 'C21 H23 N3 O5'
_chemical_formula_moiety
;
C21 H23 N3 O5
;
_journal_coden_Cambridge 1336
_journal_volume 13
_journal_year 2011
_journal_page_first 6406
_journal_name_full 'Org.Lett. '
loop_
_publ_author_name
"S.M.-C.Pelletier"
"P.C.Ray"
"D.J.Dixon"
_chemical_name_systematic
;
3-Benzyl-1-butyl-4-nitro-5-(4-nitrophenyl)pyrrolidin-2-one
;
_cell_volume   1999.355
_exptl_crystal_colour 'colorless'
_exptl_crystal_density_diffrn 1.32
_exptl_crystal_description 'plate'
_diffrn_ambient_temperature 100
_refine_special_details
;
A nitro group is disordered.

;
#These two values have been output from a single CSD field.
_refine_ls_R_factor_gt 0.0498
_refine_ls_wR_factor_gt 0.0498
_symmetry_cell_setting triclinic
_symmetry_space_group_name_H-M 'P -1'
_symmetry_Int_Tables_number 2
loop_
_symmetry_equiv_pos_site_id
_symmetry_equiv_pos_as_xyz
1 x,y,z
2 -x,-y,-z
_cell_length_a 9.1434(15)
_cell_length_b 13.852(2)
_cell_length_c 16.964(3)
_cell_angle_alpha 94.441(9)
_cell_angle_beta 102.125(8)
_cell_angle_gamma 105.899(8)
_cell_formula_units_Z 4
loop_
_atom_type_symbol
_atom_type_radius_bond
C 0.68
H 0.23
N 0.68
O 0.63
loop_
_atom_site_label
_atom_site_type_symbol
_atom_site_fract_x
_atom_site_fract_y
_atom_site_fract_z
O1 O 0.45688(12) 0.27522(9) 0.11110(6)
C1 C 0.35319(15) 0.2895(1) 0.05881(8)
C2 C 0.28161(16) 0.37649(10) 0.06609(9)
H1 H 0.36330 0.44140 0.06590
N1 N 0.1617(2) 0.44849(11) -0.05566(13)
C3 C 0.15300(17) 0.3559(1) -0.01256(9)
H2 H 0.04810 0.33200 0.00010
C4 C 0.17525(15) 0.27045(9) -0.07021(8)
H3 H 0.22630 0.30110 -0.11280
N2 N 0.28449(13) 0.23137(8) -0.01508(6)
C5 C 0.34266(16) 0.15063(10) -0.04545(8)
H4 H 0.25280 0.08950 -0.06910
H5 H 0.41160 0.13280 0.00070
C6 C 0.43408(17) 0.1819(1) -0.11026(8)
H6 H 0.47140 0.12510 -0.12820
H7 H 0.36250 0.19450 -0.15820
C7 C 0.57417(17) 0.27654(11) -0.07980(8)
H8 H 0.64740 0.26320 -0.03300
H9 H 0.53730 0.33280 -0.06030
C8 C 0.6621(2) 0.30944(12) -0.14522(10)
H10 H 0.69890 0.25410 -0.16490
H11 H 0.75210 0.36940 -0.12200
H12 H 0.59170 0.32590 -0.19070
C9 C 0.22526(17) 0.38472(11) 0.14572(9)
H13 H 0.31450 0.39250 0.19280
H14 H 0.19120 0.44650 0.15010
C10 C 0.09148(16) 0.2937(1) 0.15028(8)
C11 C -0.06303(16) 0.29836(10) 0.13336(8)
H15 H -0.08330 0.35950 0.11980
C12 C -0.18758(16) 0.21473(10) 0.13602(8)
H16 H -0.29160 0.21910 0.12460
C13 C -0.15840(17) 0.12471(10) 0.15561(8)
H17 H -0.24280 0.06730 0.15710
C14 C -0.00508(18) 0.11896(11) 0.17302(9)
H18 H 0.01470 0.05770 0.18660
C15 C 0.11893(17) 0.20260(11) 0.17055(8)
H19 H 0.22290 0.19810 0.18270
C16 C 0.02297(14) 0.18915(9) -0.11111(7)
C17 C -0.02758(15) 0.17186(10) -0.19601(7)
H20 H 0.03660 0.20830 -0.22780
C18 C -0.17132(16) 0.10161(10) -0.23449(8)
H21 H -0.20670 0.08970 -0.29220
N3 N -0.41753(15) -0.02004(9) -0.22618(9)
C19 C -0.26127(15) 0.04959(10) -0.18589(8)
O2 O -0.47371(14) -0.01358(10) -0.29787(8)
C20 C -0.21226(16) 0.06195(10) -0.10141(9)
H22 H -0.27510 0.02310 -0.07020
O3 O -0.48556(14) -0.07959(9) -0.18663(9)
C21 C -0.06888(16) 0.13258(10) -0.06384(8)
H23 H -0.03280 0.14270 -0.00620
O4? O 0.0674(2) 0.43739(17) -0.12705(14)
O5 O 0.0473(4) 0.4857(3) -0.0368(3)
O6 O 0.2848(2) 0.50834(14) -0.05517(10)
O7 O 0.11974(13) 0.80758(8) 0.39102(6)
C22 C 0.21740(16) 0.79585(10) 0.44809(8)
C23 C 0.38935(16) 0.80961(10) 0.44928(8)
H24 H 0.44300 0.88360 0.45210
N4 N 0.60793(14) 0.84773(10) 0.57983(8)
C24 C 0.45415(15) 0.77573(10) 0.52960(8)
H25 H 0.46930 0.70780 0.51730
C25 C 0.32779(14) 0.76426(9) 0.58060(7)
H26 H 0.36110 0.82310 0.62520
N5 N 0.19049(13) 0.76951(8) 0.52072(6)
C26 C 0.04479(15) 0.76779(10) 0.54477(8)
H27 H 0.00260 0.70190 0.56310
H28 H -0.03370 0.77370 0.49680
C27 C 0.06928(16) 0.85394(10) 0.61330(8)
H29 H -0.03290 0.85120 0.62550
H30 H 0.13870 0.84360 0.66310
C28 C 0.14133(19) 0.95876(11) 0.59167(9)
H31 H 0.07820 0.96650 0.53880
H32 H 0.24850 0.96440 0.58550
C29 C 0.1488(2) 1.04413(13) 0.65678(13)
H33 H 0.04300 1.03840 0.66360
H34 H 0.19250 1.10990 0.63990
H35 H 0.21560 1.03880 0.70860
C30 C 0.41057(18) 0.75237(11) 0.37230(8)
H36 H 0.36120 0.77730 0.32350
H37 H 0.52390 0.76820 0.37460
C31 C 0.34024(17) 0.63824(11) 0.36314(8)
C32 C 0.43315(17) 0.57694(11) 0.39232(8)
H38 H 0.54110 0.60760 0.41750
C33 C 0.37007(18) 0.47179(11) 0.38514(9)
H39 H 0.43480 0.43160 0.40530
C34 C 0.21211(19) 0.42614(11) 0.34840(9)
H40 H 0.16860 0.35460 0.34320
C35 C 0.11780(18) 0.48605(12) 0.31924(9)
H41 H 0.00980 0.45510 0.29440
C36 C 0.18132(18) 0.59110(12) 0.32640(8)
H42 H 0.11610 0.63100 0.30620
C37 C 0.29876(14) 0.66551(9) 0.61677(7)
C38 C 0.35101(15) 0.66754(10) 0.70058(8)
H43 H 0.39580 0.73070 0.73530
C39 C 0.33770(16) 0.57698(11) 0.73368(8)
H44 H 0.37260 0.57760 0.79060
N6 N 0.27140(16) 0.39078(10) 0.71446(10)
C40 C 0.27215(16) 0.4864(1) 0.68109(9)
O8 O 0.22993(17) 0.31181(9) 0.66699(11)
C41 C 0.21279(16) 0.4817(1) 0.59791(9)
H45 H 0.16450 0.41820 0.56390
O9 O 0.3210(2) 0.39619(12) 0.78877(9)
C42 C 0.22579(15) 0.57228(10) 0.56568(8)
H46 H 0.18530 0.57110 0.50910
O10 O 0.66422(17) 0.92884(11) 0.55801(9)
O11 O 0.66674(13) 0.82015(10) 0.64267(8)
#END
