
#######################################################################
#
#                 Cambridge Crystallographic Data Centre
#                                CCDC
#
#######################################################################
#
# If this CIF has been generated from an entry in the Cambridge
# Structural Database, then it will include bibliographic, chemical,
# crystal, experimental, refinement or atomic coordinate data resulting
# from the CCDC's data processing and validation procedures.
#
#######################################################################

data_CSD_CIF_BANFAY
_audit_creation_date 2003-03-06
_audit_creation_method CSD-ConQuest-V1
_database_code_CSD BANFAY
_database_code_depnum_ccdc_archive 'CCDC 171354'
_chemical_formula_sum 'C9 H5 N1 O3'
_chemical_formula_moiety
;
C9 H5 N1 O3
;
_journal_coden_Cambridge 119
_journal_volume 608
_journal_year 2002
_journal_page_first 193
_journal_name_full 'J.Mol.Struct. '
loop_
_publ_author_name
"G.Ivanova"
"I.Abrahams"
"V.Enchev"
_chemical_name_systematic
;
sym-1,2,3-Indantrionemono-oxime
;
_cell_volume    749.483
_exptl_crystal_colour 'brown'
_exptl_crystal_density_diffrn 1.552
_exptl_crystal_description 'plates'
_diffrn_ambient_temperature 180
_refine_special_details
;
The oxime group is disordered over two positions with occupancies 
;
#These two values have been output from a single CSD field.
_refine_ls_R_factor_gt 0.0403
_refine_ls_wR_factor_gt 0.0403
_symmetry_cell_setting orthorhombic
_symmetry_space_group_name_H-M 'P 21 21 21'
_symmetry_Int_Tables_number 19
loop_
_symmetry_equiv_pos_site_id
_symmetry_equiv_pos_as_xyz
1 x,y,z
2 1/2-x,-y,1/2+z
3 -x,1/2+y,1/2-z
4 1/2+x,1/2-y,-z
_cell_length_a 5.564(5)
_cell_length_b 6.442(6)
_cell_length_c 20.91(2)
_cell_angle_alpha 90
_cell_angle_beta 90
_cell_angle_gamma 90
_cell_formula_units_Z 4
loop_
_atom_type_symbol
_atom_type_radius_bond
C 0.68
H 0.23
N 0.68
O 0.68
loop_
_atom_site_label
_atom_site_type_symbol
_atom_site_fract_x
_atom_site_fract_y
_atom_site_fract_z
O1 O 0.3851(4) 0.8918(3) 0.97527(10)
O2 O 1.0518(4) 0.9069(4) 0.83443(10)
O3 O 0.7269(5) 1.2318(6) 0.97913(16)
H1 H 0.844(9) 1.351(7) 0.995(2)
N1 N 0.8605(7) 1.1440(8) 0.93308(18)
O4? O 0.917(2) 1.2579(18) 0.9396(5)
H2? H 0.933(16) 1.418(8) 0.950(4)
N2? N 0.731(3) 1.1162(19) 0.9550(5)
C1 C 0.5255(5) 0.6652(4) 0.89099(12)
C2 C 0.7221(5) 0.6697(4) 0.85015(11)
C3 C 0.7579(5) 0.5167(4) 0.80462(12)
H3 H 0.896(5) 0.520(5) 0.7791(13)
C4 C 0.5916(5) 0.3598(4) 0.80079(14)
H4 H 0.612(5) 0.255(5) 0.7691(14)
C5 C 0.3936(5) 0.3550(5) 0.84174(16)
H5 H 0.287(6) 0.243(5) 0.8378(14)
C6 C 0.3585(5) 0.5069(5) 0.88723(15)
H6 H 0.226(6) 0.515(5) 0.9151(14)
C7 C 0.5307(5) 0.8500(5) 0.93363(13)
C8 C 0.7500(6) 0.9683(4) 0.91543(14)
C9 C 0.8702(5) 0.8568(4) 0.86271(12)
#END
