
#######################################################################
#
#                 Cambridge Crystallographic Data Centre
#                                CCDC
#
#######################################################################
#
# If this CIF has been generated from an entry in the Cambridge
# Structural Database, then it will include bibliographic, chemical,
# crystal, experimental, refinement or atomic coordinate data resulting
# from the CCDC's data processing and validation procedures.
#
#######################################################################

data_CSD_CIF_BANMOS10
_audit_creation_date 1982-09-17
_audit_creation_method CSD-ConQuest-V1
_database_code_CSD BANMOS10
_chemical_formula_sum 'C17 H19 N5 O2'
_chemical_formula_moiety
;
C17 H19 N5 O2
;
_journal_coeditor_code "IUCr A20913"
_journal_coden_Cambridge 107
_journal_volume 38
_journal_year 1982
_journal_page_first 535
_journal_name_full 'Acta Crystallogr.,Sect.B:Struct.Crystallogr.Cryst.Chem. '
loop_
_publ_author_name
"E.Dijkstra"
"A.T.Hutton"
"H.M.N.H.Irving"
"L.R.Nassimbeni"
_chemical_name_systematic
;
1,5-bis(2,6-Dimethylphenyl)-3-nitroformazan
;
_chemical_melting_point 663.15
_cell_volume   1654.622
_exptl_crystal_colour 'dark red'
_exptl_crystal_density_diffrn 1.31
_exptl_special_details
;
Melting point range 663.15-666.15K
H183 has been removed because of suspected error
;
_diffrn_ambient_temperature ?
_diffrn_special_details
;
The study was carried out at room temperature,in the range 283-303K

;
_refine_special_details
;
The imino H atom is disordered over 2 sites N1 and N5 of occpancies 0.50 and 
0.45 respectively H(N5) has not been retained.
;
#These two values have been output from a single CSD field.
_refine_ls_R_factor_gt 0.048
_refine_ls_wR_factor_gt 0.048
_symmetry_cell_setting monoclinic
_symmetry_space_group_name_H-M 'P 21/n'
_symmetry_Int_Tables_number 14
loop_
_symmetry_equiv_pos_site_id
_symmetry_equiv_pos_as_xyz
1 x,y,z
2 1/2-x,1/2+y,1/2-z
3 -x,-y,-z
4 -1/2+x,-1/2-y,-1/2+z
_cell_length_a 16.419(8)
_cell_length_b 7.497(4)
_cell_length_c 13.443(6)
_cell_angle_alpha 90
_cell_angle_beta 90.69(5)
_cell_angle_gamma 90
_cell_formula_units_Z 4
loop_
_atom_type_symbol
_atom_type_radius_bond
C 0.68
H 0.23
N 0.68
O 0.68
loop_
_atom_site_label
_atom_site_type_symbol
_atom_site_fract_x
_atom_site_fract_y
_atom_site_fract_z
N1 N 0.19220 0.61020 0.68600
N2 N 0.12410 0.67310 0.65070
N3 N 0.03340 0.74430 0.52190
N4 N 0.15860 0.62690 0.47360
N5 N 0.23140 0.56530 0.49160
O1 O 0.00640 0.69950 0.43960
O2 O -0.00220 0.84110 0.58070
C1 C 0.11490 0.67510 0.55110
C2 C 0.19960 0.60420 0.79140
C3 C 0.13180 0.59320 0.85460
C4 C 0.14710 0.59280 0.95640
C5 C 0.22500 0.59840 0.99430
C6 C 0.29130 0.60370 0.93210
C7 C 0.27970 0.60420 0.82960
C8 C 0.04450 0.57060 0.81850
C9 C 0.35200 0.61350 0.76310
C10 C 0.27810 0.51190 0.40700
C11 C 0.24120 0.43680 0.32240
C12 C 0.29390 0.38500 0.24580
C13 C 0.37680 0.40890 0.25190
C14 C 0.41080 0.48320 0.33650
C15 C 0.36190 0.53730 0.41550
C16 C 0.15230 0.39810 0.31060
C17 C 0.39980 0.61920 0.50670
H1 H 0.09700 0.58800 1.00700
H2 H 0.23500 0.59900 1.07400
H3 H 0.35200 0.60800 0.96300
H4 H 0.04200 0.48100 0.75600
H5 H 0.02000 0.69900 0.79600
H6 H 0.00800 0.51700 0.87800
H7 H 0.34600 0.72100 0.71000
H8 H 0.36700 0.49000 0.72400
H9 H 0.26800 0.32600 0.17900
H10 H 0.41500 0.36800 0.19200
H11 H 0.47600 0.50100 0.34200
H12 H 0.12900 0.33300 0.37600
H13 H 0.14500 0.31100 0.24700
H14 H 0.11900 0.52000 0.29700
H15 H 0.46200 0.65800 0.49200
H16 H 0.39900 0.52200 0.56600
H17 H 0.36600 0.73500 0.53000
H18 H 0.24000 0.56500 0.63800
#END
