
#######################################################################
#
#                 Cambridge Crystallographic Data Centre
#                                CCDC
#
#######################################################################
#
# If this CIF has been generated from an entry in the Cambridge
# Structural Database, then it will include bibliographic, chemical,
# crystal, experimental, refinement or atomic coordinate data resulting
# from the CCDC's data processing and validation procedures.
#
#######################################################################

data_CSD_CIF_BANTOA
_audit_creation_date 2003-03-06
_audit_creation_method CSD-ConQuest-V1
_database_code_CSD BANTOA
_database_code_depnum_ccdc_archive 'CCDC 203013'
_chemical_formula_sum 'C13 H11 N1 O6'
_chemical_formula_moiety
;
C13 H11 N1 O6
;
_journal_coeditor_code "IUCr CI6183"
_journal_coden_Cambridge 1370
_journal_volume 59
_journal_year 2003
_journal_page_first o80
_journal_name_full 'Acta Crystallogr.,Sect.E:Struct.Rep.Online '
loop_
_publ_author_name
"Wuxin Zou"
"Yu Gao"
"T.Sugiyama"
"T.Matsuura"
"Jiben Meng"
_chemical_name_systematic
;
Succinimido 2-acetoxybenzoate
;
_chemical_melting_point 360
_cell_volume   1277.403
_exptl_crystal_colour 'colorless'
_exptl_crystal_density_diffrn 1.442
_exptl_special_details
;
Melting point range 360-362K

;
_exptl_crystal_description 'plate'
_diffrn_ambient_temperature 293
#These two values have been output from a single CSD field.
_refine_ls_R_factor_gt 0.0689
_refine_ls_wR_factor_gt 0.0689
_symmetry_cell_setting monoclinic
_symmetry_space_group_name_H-M 'P 21/n'
_symmetry_Int_Tables_number 14
loop_
_symmetry_equiv_pos_site_id
_symmetry_equiv_pos_as_xyz
1 x,y,z
2 1/2+x,1/2-y,1/2+z
3 -x,-y,-z
4 -1/2-x,-1/2+y,-1/2-z
_cell_length_a 5.930(3)
_cell_length_b 9.647(6)
_cell_length_c 22.331(9)
_cell_angle_alpha 90
_cell_angle_beta 90.64(5)
_cell_angle_gamma 90
_cell_formula_units_Z 4
loop_
_atom_type_symbol
_atom_type_radius_bond
C 0.68
H 0.23
N 0.68
O 0.68
loop_
_atom_site_label
_atom_site_type_symbol
_atom_site_fract_x
_atom_site_fract_y
_atom_site_fract_z
N1 N 0.0941(5) 0.0810(4) 0.18393(14)
O1 O 0.1122(6) 0.2980(3) 0.22042(15)
O2 O 0.0027(6) -0.1385(4) 0.15973(15)
O3 O 0.1812(4) 0.1152(3) 0.12741(11)
O4 O 0.5246(5) 0.0962(4) 0.16843(12)
O5 O 0.1794(4) 0.3149(3) 0.04471(12)
O6 O 0.3693(6) 0.4527(3) 0.10617(14)
C1 C 0.0564(7) 0.1812(5) 0.22595(18)
C2 C -0.0632(8) 0.1107(4) 0.27604(18)
H1 H -0.20660 0.15550 0.28360
H2 H 0.02740 0.11330 0.31250
C3 C -0.0985(7) -0.0355(4) 0.25577(17)
H3 H -0.25810 -0.05750 0.25430
H4 H -0.02390 -0.09950 0.28300
C4 C 0.0029(7) -0.0454(5) 0.19346(19)
C5 C 0.4124(6) 0.1221(4) 0.12646(16)
C6 C 0.4904(6) 0.1611(4) 0.06587(15)
C7 C 0.6890(6) 0.1026(4) 0.04634(17)
H5 H 0.76910 0.04330 0.07160
C8 C 0.7709(7) 0.1308(4) -0.01013(18)
H6 H 0.90450 0.09010 -0.02270
C9 C 0.6569(8) 0.2172(4) -0.0468(2)
H7 H 0.71040 0.23520 -0.08500
C10 C 0.4612(7) 0.2788(4) -0.02782(19)
H8 H 0.38390 0.33970 -0.05300
C11 C 0.3794(6) 0.2507(4) 0.02833(16)
C12 C 0.1955(8) 0.4177(4) 0.08515(19)
C13 C -0.0314(8) 0.4751(5) 0.0983(2)
H9 H -0.12550 0.40300 0.11390
H10 H -0.09800 0.51120 0.06220
H11 H -0.01710 0.54810 0.12730
#END
