
#######################################################################
#
#                 Cambridge Crystallographic Data Centre
#                                CCDC
#
#######################################################################
#
# If this CIF has been generated from an entry in the Cambridge
# Structural Database, then it will include bibliographic, chemical,
# crystal, experimental, refinement or atomic coordinate data resulting
# from the CCDC's data processing and validation procedures.
#
#######################################################################

data_CSD_CIF_BANYOG
_audit_creation_date 2012-02-24
_audit_creation_method CSD-ConQuest-V1
_database_code_CSD BANYOG
_database_code_depnum_ccdc_archive 'CCDC 804444'
_chemical_formula_sum 'C12 H17 N1 O6'
_chemical_formula_moiety
;
C12 H17 N1 O6
;
_journal_coden_Cambridge 16
_journal_volume 67
_journal_year 2011
_journal_page_first 10203
_journal_name_full 'Tetrahedron '
loop_
_publ_author_name
"J.R.Sacher"
"S.M.Weinreb"
_chemical_name_systematic
;
7-(Hydroxymethyl)-3,3-dimethoxy-5-methyl-7-nitrobicyclo[2.2.2]oct-5-en-2-one
;
_cell_volume   1312.958
_exptl_crystal_colour 'colorless'
_exptl_crystal_density_diffrn 1.372
_exptl_crystal_description 'block'
_exptl_crystal_preparation 'dichloromethane/hexanes'
_diffrn_ambient_temperature 298
#These two values have been output from a single CSD field.
_refine_ls_R_factor_gt 0.0451
_refine_ls_wR_factor_gt 0.0451
_symmetry_cell_setting orthorhombic
_symmetry_space_group_name_H-M 'P 21 21 21'
_symmetry_Int_Tables_number 19
loop_
_symmetry_equiv_pos_site_id
_symmetry_equiv_pos_as_xyz
1 x,y,z
2 1/2-x,-y,1/2+z
3 -x,1/2+y,1/2-z
4 1/2+x,1/2-y,-z
_cell_length_a 7.5460(8)
_cell_length_b 12.3795(12)
_cell_length_c 14.0550(14)
_cell_angle_alpha 90
_cell_angle_beta 90
_cell_angle_gamma 90
_cell_formula_units_Z 4
loop_
_atom_type_symbol
_atom_type_radius_bond
C 0.68
H 0.23
N 0.68
O 0.68
loop_
_atom_site_label
_atom_site_type_symbol
_atom_site_fract_x
_atom_site_fract_y
_atom_site_fract_z
C1 C 0.8900(2) 0.37984(16) 0.49179(11)
H1 H 0.96000 0.32480 0.46010
H2 H 0.76600 0.35990 0.48660
C2 C 0.94306(18) 0.38626(12) 0.59721(10)
C3 C 0.9565(2) 0.27442(11) 0.6435(1)
H3 H 1.08000 0.25610 0.65390
H4 H 0.90510 0.22040 0.60180
C4 C 0.85692(19) 0.27547(11) 0.73928(10)
H5 H 0.86630 0.20540 0.77140
C5 C 0.6654(2) 0.30303(14) 0.71805(11)
C6 C 0.6463(2) 0.39566(15) 0.67107(12)
H6 H 0.53630 0.42010 0.65040
C7 C 0.8159(2) 0.45894(12) 0.65331(12)
H7 H 0.79360 0.52780 0.62100
C8 C 0.8762(2) 0.47446(12) 0.75543(11)
C9 C 0.5217(3) 0.22732(19) 0.74684(14)
H8 H 0.40930 0.25590 0.72720
H9 H 0.52280 0.21870 0.81470
H10 H 0.54050 0.15840 0.71710
C10 C 0.92965(19) 0.36662(12) 0.80231(9)
C11 C 0.8868(3) 0.27843(19) 0.95336(13)
H11 H 0.80770 0.22060 0.93710
H12 H 0.86900 0.29840 1.01870
H13 H 1.00710 0.25520 0.94450
C12 C 1.2091(3) 0.4360(2) 0.85952(16)
H14 H 1.19990 0.50470 0.82810
H15 H 1.33160 0.41560 0.86410
H16 H 1.15930 0.44130 0.92220
N1 N 1.12826(16) 0.43666(11) 0.59512(9)
O1 O 1.11410(14) 0.35585(10) 0.80580(8)
O2 O 0.85204(17) 0.36939(10) 0.89357(8)
O3 O 0.8686(2) 0.55861(10) 0.7979(1)
O4 O 1.24365(16) 0.38847(12) 0.55249(10)
O5 O 1.15337(19) 0.52278(11) 0.63437(11)
O6 O 0.9178(2) 0.48007(14) 0.44760(11)
H17 H 0.82460 0.50130 0.42420
#END
