
#######################################################################
#
#                 Cambridge Crystallographic Data Centre
#                                CCDC
#
#######################################################################
#
# If this CIF has been generated from an entry in the Cambridge
# Structural Database, then it will include bibliographic, chemical,
# crystal, experimental, refinement or atomic coordinate data resulting
# from the CCDC's data processing and validation procedures.
#
#######################################################################

data_CSD_CIF_BANYOF
_audit_creation_date 2003-09-24
_audit_creation_method CSD-ConQuest-V1
_database_code_CSD BANYOF
_database_code_depnum_ccdc_archive 'CCDC 192454'
_chemical_formula_sum 'C20 H24 N4 O5'
_chemical_formula_moiety
;
C20 H24 N4 O5
;
_journal_coden_Cambridge 214
_journal_volume 134
_journal_year 2003
_journal_page_first 419
_journal_name_full 'Monatsh.Chem. '
loop_
_publ_author_name
"U.Siemeling"
"T.Turk"
"U.Vorfeld"
"H.Fink"
_chemical_name_systematic
;
2,2'-bis(2-Nitro-2-methylpropyl)azoxybenzene
;
_cell_volume   2960.664
_exptl_crystal_colour 'yellow'
_exptl_crystal_density_diffrn 1.348
_exptl_crystal_description 'plate'
_exptl_crystal_preparation 'methanol'
_diffrn_ambient_temperature 100
_refine_special_details
;
Azoxy O8 is disordered over two sites with equal occupancy.

;
#These two values have been output from a single CSD field.
_refine_ls_R_factor_gt 0.0431
_refine_ls_wR_factor_gt 0.0431
_symmetry_cell_setting monoclinic
_symmetry_space_group_name_H-M 'P 21/n'
_symmetry_Int_Tables_number 14
loop_
_symmetry_equiv_pos_site_id
_symmetry_equiv_pos_as_xyz
1 x,y,z
2 1/2-x,1/2+y,1/2-z
3 -x,-y,-z
4 -1/2+x,-1/2-y,-1/2+z
_cell_length_a 15.5325(14)
_cell_length_b 12.4842(7)
_cell_length_c 16.3609(15)
_cell_angle_alpha 90
_cell_angle_beta 111.059(6)
_cell_angle_gamma 90
_cell_formula_units_Z 6
loop_
_atom_type_symbol
_atom_type_radius_bond
C 0.68
H 0.23
N 0.68
O 0.68
loop_
_atom_site_label
_atom_site_type_symbol
_atom_site_fract_x
_atom_site_fract_y
_atom_site_fract_z
C1 C 0.05066(10) 0.20077(13) 0.50650(9)
H1 H 0.09540 0.17560 0.55770
C2 C -0.02414(10) 0.13678(12) 0.46113(9)
C3 C -0.09504(10) 0.17320(13) 0.38536(10)
C4 C 0.05885(11) 0.30158(14) 0.47594(11)
H2 H 0.10900 0.34470 0.50640
C5 C -0.08391(11) 0.27480(13) 0.35613(11)
H3 H -0.12890 0.30120 0.30560
C6 C -0.17671(11) 0.10457(14) 0.33426(10)
H4 H -0.23120 0.14950 0.31320
H5 H -0.18660 0.05170 0.37350
C7 C -0.16594(11) 0.04646(14) 0.2561(1)
C8 C -0.00780(12) 0.33834(14) 0.39975(11)
H6 H -0.00170 0.40540 0.37770
C9 C -0.24540(13) -0.03005(16) 0.21454(11)
H7 H -0.30230 0.00920 0.19440
H8 H -0.24710 -0.08230 0.25700
H9 H -0.23710 -0.06560 0.16590
C10 C -0.07353(12) -0.01066(15) 0.27868(11)
H10 H -0.06720 -0.06310 0.32340
H11 H -0.02440 0.04060 0.29950
H12 H -0.07080 -0.04550 0.22730
N1 N -0.17293(10) 0.13178(12) 0.18559(9)
O1 O -0.11034(9) 0.13918(11) 0.15709(8)
O2 O -0.24144(9) 0.18852(12) 0.16151(9)
N2 N -0.03371(9) 0.03224(10) 0.49494(8)
O3 O -0.10558(15) 0.01718(19) 0.51268(14)
C11 C 0.2108(1) 1.02952(13) 0.02604(9)
C12 C 0.07493(11) 1.12441(14) -0.06482(10)
H13 H 0.01150 1.12670 -0.09470
C13 C 0.11497(11) 1.03373(14) -0.01804(10)
H14 H 0.07840 0.97560 -0.01580
C14 C 0.22354(11) 1.20745(13) -0.02393(9)
H15 H 0.25940 1.26620 -0.02640
C15 C 0.12868(11) 1.21164(14) -0.06748(10)
H16 H 0.10140 1.27290 -0.09830
C16 C 0.26615(10) 1.11708(12) 0.02337(9)
C17 C 0.37015(10) 1.11659(13) 0.06939(9)
H17 H 0.39800 1.15640 0.03430
H18 H 0.39220 1.04340 0.07380
C18 C 0.4017(1) 1.16630(13) 0.16253(9)
C19 C 0.37798(12) 1.28417(14) 0.16175(11)
H19 H 0.31240 1.29320 0.13520
H20 H 0.40780 1.32320 0.12880
H21 H 0.39880 1.31070 0.22070
C20 C 0.36969(12) 1.10223(15) 0.22499(10)
H22 H 0.39460 1.03110 0.23060
H23 H 0.30350 1.09860 0.20260
H24 H 0.39060 1.13640 0.28130
N3 N 0.50780(9) 1.15579(11) 0.19666(8)
O4 O 0.55505(9) 1.23463(12) 0.20627(11)
O5 O 0.54102(9) 1.06663(12) 0.21390(12)
C21 C 0.27547(10) 0.78930(12) 0.16179(10)
C22 C 0.31592(11) 0.80128(14) 0.25222(10)
H25 H 0.30960 0.86510 0.27890
C23 C 0.36539(11) 0.71728(15) 0.30155(11)
H26 H 0.39320 0.72420 0.36200
C24 C 0.37366(11) 0.62272(15) 0.26119(11)
H27 H 0.40730 0.56610 0.29450
C25 C 0.33197(10) 0.61194(14) 0.17123(10)
H28 H 0.33830 0.54770 0.14510
C26 C 0.28055(10) 0.69497(13) 0.11839(9)
C27 C 0.23488(10) 0.67621(13) 0.02062(9)
H29 H 0.27500 0.63080 0.00190
H30 H 0.23010 0.74450 -0.00900
C28 C 0.1382(1) 0.62451(12) -0.01010(9)
C29 C 0.06819(10) 0.69294(13) 0.00987(10)
H31 H 0.06320 0.76100 -0.01880
H32 H 0.08750 0.70370 0.07200
H33 H 0.00930 0.65770 -0.01080
C30 C 0.10615(12) 0.59562(15) -0.10719(10)
H34 H 0.14890 0.54600 -0.11660
H35 H 0.10330 0.65930 -0.14100
H36 H 0.04610 0.56340 -0.12500
N4 N 0.25833(9) 0.93428(11) 0.06806(8)
O6 O 0.19883(9) 0.4500(1) 0.02605(10)
O7 O 0.10611(9) 0.50389(10) 0.08876(7)
N5 N 0.22366(9) 0.88399(11) 0.11625(8)
N6 N 0.14809(9) 0.51756(11) 0.03895(8)
O8 O 0.15464(8) 0.90995(10) 0.13520(8)
N2B N 0.03371(9) -0.03224(10) 0.50506(8)
C2B C 0.02414(10) -0.13678(12) 0.53887(9)
C1B C -0.05066(10) -0.20077(13) 0.49350(9)
H1B H -0.09540 -0.17560 0.44230
C4B C -0.05885(11) -0.30158(14) 0.52406(11)
H2B H -0.10900 -0.34470 0.49360
C8B C 0.00780(12) -0.33834(14) 0.60025(11)
C5B C 0.08391(11) -0.27480(13) 0.64387(11)
C3B C 0.09504(10) -0.17320(13) 0.61464(10)
C6B C 0.17671(11) -0.10457(14) 0.66574(10)
H4B H 0.23120 -0.14950 0.68680
H5B H 0.18660 -0.05170 0.62650
C7B C 0.16594(11) -0.04646(14) 0.7439(1)
C9B C 0.24540(13) 0.03005(16) 0.78546(11)
H7B H 0.30230 -0.00920 0.80560
H8B H 0.24710 0.08230 0.74300
H9B H 0.23710 0.06560 0.83410
C10B C 0.07353(12) 0.01066(15) 0.72132(11)
H10B H 0.06720 0.06310 0.67660
H11B H 0.02440 -0.04060 0.70050
H12B H 0.07080 0.04550 0.77270
N1B N 0.17293(10) -0.13178(12) 0.81441(9)
O1B O 0.11034(9) -0.13918(11) 0.84291(8)
O2B O 0.24144(9) -0.18852(12) 0.83849(9)
H3B H 0.12890 -0.30120 0.69440
H6B H 0.00170 -0.40540 0.62230
O3B O 0.10558(15) -0.01718(19) 0.48732(14)
#END
