
#######################################################################
#
#                 Cambridge Crystallographic Data Centre
#                                CCDC
#
#######################################################################
#
# If this CIF has been generated from an entry in the Cambridge
# Structural Database, then it will include bibliographic, chemical,
# crystal, experimental, refinement or atomic coordinate data resulting
# from the CCDC's data processing and validation procedures.
#
#######################################################################

data_CSD_CIF_BANZAT
_audit_creation_date 2012-02-24
_audit_creation_method CSD-ConQuest-V1
_database_code_CSD BANZAT
_database_code_depnum_ccdc_archive 'CCDC 804446'
_chemical_formula_sum 'C12 H20 N1 O6'
_chemical_formula_moiety
;
C12 H20 N1 O6
;
_journal_coden_Cambridge 16
_journal_volume 67
_journal_year 2011
_journal_page_first 10203
_journal_name_full 'Tetrahedron '
loop_
_publ_author_name
"J.R.Sacher"
"S.M.Weinreb"
_chemical_name_systematic
;
6-(Hydroxymethyl)-3,3-dimethoxy-7-methyl-6-nitrobicyclo[2.2.2]octan-2-one
;
_cell_volume   5457.792
_exptl_crystal_colour 'colorless'
_exptl_crystal_density_diffrn 1.335
_exptl_crystal_description 'plate'
_exptl_crystal_preparation 'diethyl ether'
_diffrn_ambient_temperature 298
#These two values have been output from a single CSD field.
_refine_ls_R_factor_gt 0.0697
_refine_ls_wR_factor_gt 0.0697
_symmetry_cell_setting orthorhombic
_symmetry_space_group_name_H-M 'P b c a'
_symmetry_Int_Tables_number 61
loop_
_symmetry_equiv_pos_site_id
_symmetry_equiv_pos_as_xyz
1 x,y,z
2 1/2-x,-y,1/2+z
3 -x,1/2+y,1/2-z
4 1/2+x,1/2-y,-z
5 -x,-y,-z
6 -1/2+x,y,-1/2-z
7 x,-1/2-y,-1/2+z
8 -1/2-x,-1/2+y,z
_cell_length_a 13.021(4)
_cell_length_b 15.052(4)
_cell_length_c 27.847(8)
_cell_angle_alpha 90
_cell_angle_beta 90
_cell_angle_gamma 90
_cell_formula_units_Z 16
loop_
_atom_type_symbol
_atom_type_radius_bond
C 0.68
H 0.23
N 0.68
O 0.68
loop_
_atom_site_label
_atom_site_type_symbol
_atom_site_fract_x
_atom_site_fract_y
_atom_site_fract_z
C1 C 0.97142(16) 0.08984(14) 0.74520(8)
C2 C 0.87114(16) 0.08530(14) 0.71624(8)
C3 C 0.78881(16) 0.13239(15) 0.74605(9)
H1 H 0.72090 0.12190 0.73200
C4 C 0.7926(2) 0.09460(18) 0.79664(10)
H2 H 0.78830 0.03030 0.79530
H3 H 0.73440 0.11630 0.81490
C5 C 0.8934(2) 0.12227(16) 0.82172(9)
H4 H 0.87700 0.16980 0.84450
C6 C 0.96776(17) 0.16112(14) 0.78344(8)
H5 H 1.03610 0.17120 0.79720
C7 C 0.92231(17) 0.24797(15) 0.76380(9)
C8 C 0.81090(17) 0.23195(15) 0.7476(1)
H6 H 0.76400 0.26070 0.76980
H7 H 0.80040 0.25750 0.71600
C9 C 0.9281(2) 0.32641(16) 0.79911(11)
H8 H 0.89940 0.37880 0.78390
H9 H 0.88660 0.31290 0.82710
C10 C 0.9419(3) 0.04676(19) 0.84981(11)
H10 H 0.89530 0.02710 0.87430
H11 H 1.00450 0.06700 0.86440
H12 H 0.95670 -0.00170 0.82850
C11 C 0.7586(2) -0.0251(2) 0.68266(12)
H13 H 0.70110 -0.01650 0.70370
H14 H 0.76000 -0.08570 0.67190
H15 H 0.75240 0.01370 0.65550
C12 C 0.9585(2) 0.1019(2) 0.64039(10)
H16 H 1.02540 0.11500 0.65300
H17 H 0.95020 0.13100 0.61000
H18 H 0.95150 0.03890 0.63630
C13 C 0.77412(16) 0.73154(14) 0.50198(8)
C14 C 0.87706(17) 0.71354(15) 0.47647(9)
C15 C 0.95815(17) 0.76775(16) 0.50281(10)
H19 H 1.02690 0.75090 0.49170
C16 C 0.9477(2) 0.74878(19) 0.55624(10)
H20 H 1.00580 0.77390 0.57330
H21 H 0.94750 0.68510 0.56160
C17 C 0.8473(2) 0.78944(17) 0.57547(9)
H22 H 0.86480 0.84440 0.59250
C18 C 0.7919(3) 0.7286(2) 0.61067(11)
H23 H 0.83570 0.71680 0.63760
H24 H 0.77490 0.67370 0.59500
H25 H 0.73010 0.75690 0.62160
C19 C 0.77771(16) 0.81429(15) 0.53214(8)
H26 H 0.70870 0.83080 0.54300
C20 C 0.82825(18) 0.89116(15) 0.50469(9)
C21 C 0.94018(18) 0.86653(17) 0.49417(11)
H27 H 0.95630 0.88090 0.46110
H28 H 0.98530 0.90090 0.51470
C22 C 0.8191(2) 0.98010(16) 0.53098(11)
H29 H 0.85720 0.97680 0.56080
H30 H 0.84990 1.02630 0.51140
C23 C 0.8015(3) 0.7005(2) 0.39767(11)
H31 H 0.73380 0.72310 0.40380
H32 H 0.80280 0.63780 0.40370
H33 H 0.81960 0.71160 0.36480
C24 C 0.9860(2) 0.5893(2) 0.45776(12)
H34 H 1.04190 0.60110 0.47930
H35 H 0.99790 0.61920 0.42780
H36 H 0.98100 0.52650 0.45220
N1 N 0.98592(16) 0.27890(14) 0.72088(8)
N2 N 0.7703(2) 0.90679(15) 0.45754(9)
O1 O 1.04079(13) 0.03781(11) 0.74000(7)
O2 O 0.85192(13) -0.00550(11) 0.70797(7)
O3 O 0.88172(13) 0.13309(12) 0.67312(6)
O4 O 0.95305(17) 0.33954(14) 0.69635(9)
O5 O 1.06879(14) 0.24327(15) 0.71464(8)
H37 H 1.08180 0.24200 0.68580
O6 O 1.02799(17) 0.34500(13) 0.81384(9)
H38 H 1.05040 0.38710 0.79840
O7 O 0.70282(12) 0.68096(11) 0.50033(7)
O8 O 0.8081(2) 0.95803(16) 0.42897(9)
O9 O 0.68809(18) 0.86961(16) 0.45207(9)
H39 H 0.65130 0.89970 0.43460
O10 O 0.89191(12) 0.62098(11) 0.47862(7)
O11 O 0.87408(14) 0.74426(13) 0.42871(6)
O12 O 0.71694(15) 1.00351(12) 0.54112(8)
H40 H 0.69110 0.96580 0.55860
#END
