
#######################################################################
#
#                 Cambridge Crystallographic Data Centre
#                                CCDC
#
#######################################################################
#
# If this CIF has been generated from an entry in the Cambridge
# Structural Database, then it will include bibliographic, chemical,
# crystal, experimental, refinement or atomic coordinate data resulting
# from the CCDC's data processing and validation procedures.
#
#######################################################################

data_CSD_CIF_BAPHEH
_audit_creation_date 2012-02-24
_audit_creation_method CSD-ConQuest-V1
_database_code_CSD BAPHEH
_database_code_depnum_ccdc_archive 'CCDC 831713'
_chemical_formula_sum 'C15 H14 N2 O2'
_chemical_formula_moiety
;
C15 H14 N2 O2
;
_journal_coden_Cambridge 177
_journal_volume 10
_journal_year 2012
_journal_page_first 431
_journal_name_full 'Org.Biomol.Chem. '
loop_
_publ_author_name
"X.Companyo"
"G.Valero"
"O.Pineda"
"T.Calvet"
"M.Font-Bardia"
"A.Moyano"
"R.Rios"
_chemical_name_systematic
;
rac-3-(Hydroxy(phenyl)amino)-3-methyl-1,3-dihydro-2H-indol-2-one
;
_cell_volume    663.126
_exptl_crystal_colour 'colorless'
_exptl_crystal_density_diffrn 1.273
_exptl_crystal_description 'prism'
_diffrn_ambient_temperature 293
#These two values have been output from a single CSD field.
_refine_ls_R_factor_gt 0.0634
_refine_ls_wR_factor_gt 0.0634
loop_
_citation_database_id_CSD
_citation_special_details
BAPHAD "is a stereoisomer of this entry"
_symmetry_cell_setting triclinic
_symmetry_space_group_name_H-M 'P -1'
_symmetry_Int_Tables_number 2
loop_
_symmetry_equiv_pos_site_id
_symmetry_equiv_pos_as_xyz
1 x,y,z
2 -x,-y,-z
_cell_length_a 7.891(7)
_cell_length_b 8.626(4)
_cell_length_c 10.666(8)
_cell_angle_alpha 71.25(5)
_cell_angle_beta 83.35(5)
_cell_angle_gamma 74.83(4)
_cell_formula_units_Z 2
loop_
_atom_type_symbol
_atom_type_radius_bond
C 0.68
H 0.23
N 0.68
O 0.68
loop_
_atom_site_label
_atom_site_type_symbol
_atom_site_fract_x
_atom_site_fract_y
_atom_site_fract_z
O1 O 0.5762(2) -0.0086(2) 0.83082(16)
O2 O 0.2818(2) 0.0763(2) 0.48734(15)
H1 H 0.3875(17) 0.056(4) 0.451(3)
N1 N 0.2947(2) 0.0803(2) 0.90986(17)
H2 H 0.31530 0.04930 0.99290
N2 N 0.3642(2) -0.0007(2) 0.61522(17)
C1 C 0.1262(3) 0.1634(3) 0.8557(2)
C2 C -0.0321(3) 0.2072(3) 0.9240(2)
H3 H -0.03920 0.18020 1.01590
C3 C -0.1777(4) 0.2927(3) 0.8477(3)
H4 H -0.28580 0.32440 0.88890
C4 C -0.1653(4) 0.3313(4) 0.7126(3)
H5 H -0.26610 0.38770 0.66440
C5 C -0.0076(3) 0.2893(3) 0.6453(3)
H6 H -0.00100 0.32010 0.55320
C6 C 0.1403(3) 0.2000(3) 0.7191(2)
C7 C 0.3286(3) 0.1375(3) 0.6781(2)
C8 C 0.4174(3) 0.0567(3) 0.8152(2)
C9 C 0.4145(4) 0.2780(4) 0.5941(3)
H7 H 0.53350 0.23010 0.57110
H8 H 0.41370 0.35360 0.64350
H9 H 0.35030 0.33860 0.51480
C10 C 0.2885(3) -0.1422(3) 0.6888(2)
C11 C 0.3956(3) -0.2808(3) 0.7747(2)
H10 H 0.51080 -0.28040 0.78530
C12 C 0.3300(4) -0.4199(4) 0.8446(3)
H11 H 0.40100 -0.51310 0.90220
C13 C 0.1585(4) -0.4196(4) 0.8281(3)
H12 H 0.11390 -0.51200 0.87630
C14 C 0.0544(4) -0.2850(4) 0.7421(3)
H13 H -0.05970 -0.28740 0.73020
C15 C 0.1175(3) -0.1447(3) 0.6722(3)
H14 H 0.04550 -0.05250 0.61430
#END
