
#######################################################################
#
#                 Cambridge Crystallographic Data Centre
#                                CCDC
#
#######################################################################
#
# If this CIF has been generated from an entry in the Cambridge
# Structural Database, then it will include bibliographic, chemical,
# crystal, experimental, refinement or atomic coordinate data resulting
# from the CCDC's data processing and validation procedures.
#
#######################################################################

data_CSD_CIF_BAPNAH
_audit_creation_date 1999-11-09
_audit_creation_method CSD-ConQuest-V1
_database_code_CSD BAPNAH
_database_code_depnum_ccdc_archive 'CCDC 111968'
_database_code_depnum_ccdc_journal 1326/4
_chemical_formula_sum 'C19 H17 N3 O5'
_chemical_formula_moiety
;
C19 H17 N3 O5
;
_journal_coden_Cambridge 1326
_journal_volume 1
_journal_year 1999
_journal_page_first 3259
_journal_name_full 'Phys.Chem.Chem.Phys.(PCCP) '
loop_
_publ_author_name
"J.Hobley"
"V.Malatesta"
"R.Millini"
"L.Montanari"
"W.O.N.Parker Junior"
_chemical_name_systematic
;
2-(2-(1,5-Dinitro-2-oxyphenyl)ethenyl)-1,3,3-trimethyl-1,2-didehydro-indoliniu
m
;
_chemical_name_common
;
2,4-Dinitro-6-[2-(1,3,3-trimethyl-2-indolinidene)ethylidene]-2,4-cyclohexadien
e-1-one
;
_cell_volume    851.134
_exptl_crystal_colour 'dark red'
_exptl_crystal_density_diffrn 1.433
_exptl_crystal_description 'rod'
_exptl_crystal_preparation 'acetone'
_diffrn_ambient_temperature ?
_diffrn_special_details
;
The study was carried out at room temperature,in the range 283-303K

;
#These two values have been output from a single CSD field.
_refine_ls_R_factor_gt 0.0518
_refine_ls_wR_factor_gt 0.0518
_symmetry_cell_setting triclinic
_symmetry_space_group_name_H-M 'P -1'
_symmetry_Int_Tables_number 2
loop_
_symmetry_equiv_pos_site_id
_symmetry_equiv_pos_as_xyz
1 x,y,z
2 -x,-y,-z
_cell_length_a 12.812(2)
_cell_length_b 9.449(1)
_cell_length_c 8.199(1)
_cell_angle_alpha 111.55(1)
_cell_angle_beta 74.84(1)
_cell_angle_gamma 111.21(1)
_cell_formula_units_Z 2
loop_
_atom_type_symbol
_atom_type_radius_bond
C 0.68
H 0.23
N 0.68
O 0.68
loop_
_atom_site_label
_atom_site_type_symbol
_atom_site_fract_x
_atom_site_fract_y
_atom_site_fract_z
N1 N 0.7856(2) -0.3969(3) -0.5259(4)
C1 C 0.7257(3) -0.5478(4) -0.6278(5)
C2 C 0.7426(3) -0.6158(4) -0.8067(5)
C3 C 0.6726(3) -0.7672(4) -0.8717(5)
C4 C 0.5893(3) -0.8440(4) -0.7610(5)
C5 C 0.5722(3) -0.7712(4) -0.5804(5)
C6 C 0.6427(3) -0.6210(4) -0.5139(5)
C7 C 0.6475(3) -0.5119(4) -0.3267(5)
C8 C 0.7458(3) -0.3710(4) -0.3545(5)
C9 C 0.7925(3) -0.2282(4) -0.2270(5)
C10 C 0.7581(3) -0.2004(4) -0.0509(5)
C11 C 0.8034(3) -0.0621(4) 0.0866(5)
C12 C 0.7560(3) -0.0696(4) 0.2661(5)
C13 C 0.8060(3) 0.0675(4) 0.4026(5)
C14 C 0.8869(3) 0.1973(4) 0.3703(5)
C15 C 0.9259(3) 0.2001(4) 0.1965(5)
C16 C 0.8847(3) 0.0720(4) 0.0575(5)
C17 C 0.8787(3) -0.2911(4) -0.6098(5)
C18 C 0.5380(4) -0.4649(5) -0.2554(6)
C19 C 0.6675(4) -0.5913(5) -0.2093(6)
O1 O 0.6825(2) -0.1904(3) 0.2966(3)
N2 N 0.7705(2) 0.0677(3) 0.5852(4)
O2 O 0.6730(2) 0.0110(3) 0.6360(3)
O3 O 0.8422(2) 0.1283(3) 0.6826(3)
N3 N 1.0070(2) 0.3419(3) 0.1644(4)
O4 O 1.0394(2) 0.4560(3) 0.2920(3)
O5 O 1.0435(2) 0.3432(3) 0.0125(3)
H1 H 0.8005(3) -0.5629(4) -0.8841(5)
H2 H 0.6820(3) -0.8195(4) -0.9972(5)
H3 H 0.5409(3) -0.9492(4) -0.8090(5)
H4 H 0.5143(3) -0.8242(4) -0.5030(5)
H5 H 0.8532(3) -0.1455(4) -0.2646(5)
H6 H 0.6952(3) -0.2826(4) -0.0164(5)
H7 H 0.9164(3) 0.2821(4) 0.4661(5)
H8 H 0.9144(3) 0.0751(4) -0.0618(5)
H9 H 0.9464(3) -0.2714(4) -0.5651(5)
H10 H 0.8622(3) -0.1925(4) -0.5805(5)
H11 H 0.8893(3) -0.3376(4) -0.7362(5)
H12 H 0.5245(4) -0.4279(5) -0.3402(6)
H13 H 0.4753(4) -0.5544(5) -0.2372(6)
H14 H 0.5463(4) -0.3809(5) -0.1450(6)
H15 H 0.7328(4) -0.6285(5) -0.2617(6)
H16 H 0.6022(4) -0.6797(5) -0.1963(6)
H17 H 0.6793(4) -0.5149(5) -0.0949(6)
#END
