
#######################################################################
#
#                 Cambridge Crystallographic Data Centre
#                                CCDC
#
#######################################################################
#
# If this CIF has been generated from an entry in the Cambridge
# Structural Database, then it will include bibliographic, chemical,
# crystal, experimental, refinement or atomic coordinate data resulting
# from the CCDC's data processing and validation procedures.
#
#######################################################################

data_CSD_CIF_BAPSUJ
_audit_creation_date 2017-01-24
_audit_creation_method CSD-ConQuest-V1
_database_code_CSD BAPSUJ
_database_code_depnum_ccdc_archive 'CCDC 1008887'
_chemical_formula_sum 'C12 H16 N3 O2'
_chemical_formula_moiety
;
C12 H16 N3 O2
;
_journal_coden_Cambridge 95
_journal_volume 65
_journal_year 2016
_journal_page_first 666
_journal_name_full 'Izv.Akad.Nauk SSSR,Ser.Khim.(Russ.)(Russ.Chem.Bull.) '
loop_
_publ_author_name
"E.M.Zueva"
"E.V.Tretyakov"
"S.V.Fokin"
"G.V.Romanenko"
"A.O.Tkacheva"
"A.S.Bogomyakov"
"O.V.Petrova"
"B.A.Trofimov"
"R.Z.Sagdeev"
"V.I.Ovcharenko"
_chemical_name_systematic
;
5-(1-oxy-4,4,5,5-tetramethyl-4,5-dihydro-1H-imidazol-2-yl)-1H-pyrrole-2-carbal
dehyde radical
;
_cell_volume   2536.200
_exptl_crystal_colour 'red'
_exptl_crystal_density_diffrn 1.227
_exptl_crystal_description 'plate'
_diffrn_ambient_temperature 296
#These two values have been output from a single CSD field.
_refine_ls_R_factor_gt 0.0595
_refine_ls_wR_factor_gt 0.0595
_symmetry_cell_setting monoclinic
_symmetry_space_group_name_H-M 'P 21/n'
_symmetry_Int_Tables_number 14
loop_
_symmetry_equiv_pos_site_id
_symmetry_equiv_pos_as_xyz
1 x,y,z
2 1/2-x,1/2+y,1/2-z
3 -x,-y,-z
4 -1/2+x,-1/2-y,-1/2+z
_cell_length_a 10.7652(17)
_cell_length_b 9.3815(16)
_cell_length_c 25.511(5)
_cell_angle_alpha 90
_cell_angle_beta 100.141(13)
_cell_angle_gamma 90
_cell_formula_units_Z 8
loop_
_atom_type_symbol
_atom_type_radius_bond
C 0.68
H 0.23
N 0.68
O 0.68
loop_
_atom_site_label
_atom_site_type_symbol
_atom_site_fract_x
_atom_site_fract_y
_atom_site_fract_z
N1 N 0.7003(2) 0.8527(2) 0.07139(10)
N2 N 0.8448(2) 0.6804(2) 0.08286(10)
N3 N 0.8918(2) 0.7123(2) 0.19545(9)
H1 H 0.94770 0.66050 0.18430
O1 O 0.6260(2) 0.9465(2) 0.08431(9)
O2 O 1.0454(3) 0.5804(3) 0.28553(11)
C1 C 0.6868(4) 0.9218(4) -0.02304(16)
H2 H 0.76260 0.97760 -0.01550
H3 H 0.61550 0.98060 -0.01980
H4 H 0.67710 0.88500 -0.05860
C2 C 0.5737(3) 0.7088(4) 0.00334(15)
H5 H 0.57770 0.63200 0.02850
H6 H 0.56610 0.67060 -0.03200
H7 H 0.50180 0.76760 0.00560
C3 C 0.6949(3) 0.7989(3) 0.01614(13)
C4 C 0.9313(3) 0.7933(5) 0.01186(16)
H8 H 0.93760 0.88230 0.03070
H9 H 0.92030 0.81130 -0.02570
H10 H 1.00690 0.73900 0.02280
C5 C 0.8065(4) 0.5689(4) -0.00561(14)
H11 H 0.73580 0.51560 0.00220
H12 H 0.88250 0.51490 0.00510
H13 H 0.79490 0.58750 -0.04320
C6 C 0.8163(3) 0.7082(3) 0.02435(12)
C7 C 0.7839(2) 0.7699(3) 0.10654(12)
C8 C 0.7978(2) 0.7846(3) 0.16392(12)
C9 C 0.7288(3) 0.8558(3) 0.19652(14)
H14 H 0.65900 0.91370 0.18560
C10 C 0.7833(3) 0.8246(4) 0.24877(15)
H15 H 0.75630 0.85870 0.27910
C11 C 0.8835(3) 0.7349(3) 0.24801(13)
C12 C 0.9680(4) 0.6664(4) 0.29078(15)
H16 H 0.96110 0.69190 0.32540
N4 N 1.2883(2) 0.4761(2) 0.15212(9)
N5 N 1.12730(19) 0.6204(2) 0.15714(9)
N6 N 0.94753(19) 0.4029(2) 0.12268(8)
H17 H 0.91510 0.48670 0.11800
O3 O 1.3435(2) 0.3607(3) 0.14381(11)
O4 O 0.6801(2) 0.3798(4) 0.09482(13)
C13 C 1.4360(5) 0.5965(5) 0.2211(2)
H18 H 1.50530 0.53370 0.21880
H19 H 1.38570 0.55700 0.24510
H20 H 1.46790 0.68780 0.23400
C14 C 1.4373(5) 0.6403(6) 0.1258(3)
H21 H 1.38650 0.65290 0.09120
H22 H 1.49270 0.56050 0.12510
H23 H 1.48640 0.72480 0.13550
C15 C 1.3543(3) 0.6139(3) 0.16547(13)
C16 C 1.2419(4) 0.7915(6) 0.2171(2)
H24 H 1.25450 0.72530 0.24630
H25 H 1.16240 0.83920 0.21580
H26 H 1.30880 0.86050 0.22210
C17 C 1.2237(4) 0.8207(5) 0.1212(3)
H27 H 1.15270 0.88050 0.12390
H28 H 1.20890 0.77160 0.08770
H29 H 1.29820 0.87830 0.12370
C18 C 1.2417(3) 0.7130(3) 0.16619(13)
C19 C 1.1598(2) 0.4924(3) 0.14894(10)
C20 C 1.0724(2) 0.3739(3) 0.13732(10)
C21 C 1.0876(3) 0.2285(3) 0.14050(12)
H30 H 1.16330 0.17920 0.14960
C22 C 0.9683(4) 0.1700(3) 0.12753(13)
H31 H 0.94970 0.07320 0.12650
C23 C 0.8819(3) 0.2780(3) 0.11649(12)
C24 C 0.7460(4) 0.2753(5) 0.10129(16)
H32 H 0.70680 0.18680 0.09620
#END
