
#######################################################################
#
#                 Cambridge Crystallographic Data Centre
#                                CCDC
#
#######################################################################
#
# If this CIF has been generated from an entry in the Cambridge
# Structural Database, then it will include bibliographic, chemical,
# crystal, experimental, refinement or atomic coordinate data resulting
# from the CCDC's data processing and validation procedures.
#
#######################################################################

data_CSD_CIF_BAPWUM
_audit_creation_date 2012-02-16
_audit_creation_method CSD-ConQuest-V1
_database_code_CSD BAPWUM
_database_code_depnum_ccdc_archive 'CCDC 830578'
_chemical_formula_sum 'C25 H20 N2 O8'
_chemical_formula_moiety
;
C25 H20 N2 O8
;
_journal_coden_Cambridge 177
_journal_volume 10
_journal_year 2012
_journal_page_first 536
_journal_name_full 'Org.Biomol.Chem. '
loop_
_publ_author_name
"R.Bhuniya"
"S.Nanda"
_chemical_name_systematic
;
(S,R)-(2-Methyl-1-((4-nitrobenzoyl)oxy)-2,3-dihydro-1H-inden-2-yl)methyl 
4-nitrobenzoate
;
_cell_volume    569.529
_exptl_crystal_colour 'colorless'
_exptl_crystal_density_diffrn 1.389
_exptl_special_details
;
Absolute configuration

;
_exptl_crystal_description 'prism'
_diffrn_ambient_temperature 293
#These two values have been output from a single CSD field.
_refine_ls_R_factor_gt 0.0769
_refine_ls_wR_factor_gt 0.0769
_symmetry_cell_setting triclinic
_symmetry_space_group_name_H-M 'P 1'
_symmetry_Int_Tables_number 1
loop_
_symmetry_equiv_pos_site_id
_symmetry_equiv_pos_as_xyz
1 x,y,z
_cell_length_a 6.717(3)
_cell_length_b 7.176(3)
_cell_length_c 12.147(4)
_cell_angle_alpha 99.024(11)
_cell_angle_beta 99.364(12)
_cell_angle_gamma 91.872(11)
_cell_formula_units_Z 1
loop_
_atom_type_symbol
_atom_type_radius_bond
C 0.68
H 0.23
N 0.68
O 0.68
loop_
_atom_site_label
_atom_site_type_symbol
_atom_site_fract_x
_atom_site_fract_y
_atom_site_fract_z
C1 C 0.5977(17) 0.6646(13) 0.5011(9)
H1 H 0.65670 0.68660 0.57710
C2 C 0.422(2) 0.6099(17) 0.2756(10)
H2 H 0.36130 0.59450 0.20010
C3 C 0.2792(17) 0.1248(13) 0.4194(8)
H3 H 0.41040 0.15990 0.40490
H4 H 0.20740 0.04010 0.35510
H5 H 0.29390 0.06310 0.48470
C4 C 0.601(2) 0.7153(17) 0.3096(10)
H6 H 0.66330 0.76780 0.25760
C5 C 0.1388(19) 0.4008(16) 0.3353(9)
H7 H 0.12660 0.30820 0.26680
H8 H 0.02070 0.47530 0.33070
O1 O -0.0321(10) 0.1590(9) 0.5630(6)
O2 O 0.3931(9) 0.3733(9) 0.6210(5)
C6 C 0.4517(14) 0.4829(15) 0.7234(8)
C7 C 0.5640(15) 0.4714(14) 0.9242(8)
H9 H 0.56940 0.60280 0.93740
C8 C 0.5103(13) 0.3751(13) 0.8150(7)
C9 C 0.5976(14) 0.1836(13) 0.9935(8)
C10 C 0.0395(14) 0.2427(13) 0.8673(9)
H10 H 0.04420 0.37410 0.88100
C11 C 0.5073(14) 0.1776(13) 0.7954(9)
H11 H 0.47590 0.11330 0.72150
C12 C -0.0357(15) 0.2650(19) 0.6664(8)
C13 C 0.0669(15) -0.0460(15) 0.9365(8)
C14 C 0.0729(13) 0.1507(16) 0.9574(8)
H12 H 0.09910 0.21700 1.03090
C15 C 0.0023(16) -0.0507(14) 0.7400(9)
H13 H -0.01440 -0.11600 0.66640
C16 C 0.5501(13) 0.0760(13) 0.8831(7)
H14 H 0.54780 -0.05530 0.87060
C17 C 0.0004(14) 0.1559(16) 0.7607(9)
C18 C 0.6096(14) 0.3745(16) 1.0137(8)
H15 H 0.64800 0.43970 1.08700
C19 C 0.2870(14) 0.4614(12) 0.5277(7)
H16 H 0.19620 0.55300 0.55770
C20 C -0.0450(17) 0.2555(14) 0.4676(8)
H17 H -0.11340 0.37130 0.48300
H18 H -0.12500 0.17660 0.40220
C21 C 0.1607(18) 0.3025(14) 0.4411(7)
C22 C 0.4197(18) 0.5547(13) 0.4651(7)
C23 C 0.0287(16) -0.1462(16) 0.8286(9)
H19 H 0.02090 -0.27770 0.81640
N1 N 0.1037(16) -0.1490(16) 1.0336(9)
N2 N 0.6429(15) 0.0812(14) 1.0888(8)
O3 O -0.0588(12) 0.4313(11) 0.6811(6)
O4 O 0.4335(11) 0.6544(10) 0.7369(5)
O5 O 0.6921(16) 0.1682(13) 1.1819(7)
O6 O 0.6307(16) -0.0918(12) 1.0666(7)
O7 O 0.1465(19) -0.0573(13) 1.1250(8)
O8 O 0.0922(16) -0.3162(14) 1.0152(7)
C24 C 0.687(2) 0.7420(16) 0.4218(10)
H20 H 0.80900 0.81380 0.44540
C25 C 0.3279(17) 0.5248(14) 0.3508(8)
#END
