
#######################################################################
#
#                 Cambridge Crystallographic Data Centre
#                                CCDC
#
#######################################################################
#
# If this CIF has been generated from an entry in the Cambridge
# Structural Database, then it will include bibliographic, chemical,
# crystal, experimental, refinement or atomic coordinate data resulting
# from the CCDC's data processing and validation procedures.
#
#######################################################################

data_CSD_CIF_BAPWOG
_audit_creation_date 2012-02-16
_audit_creation_method CSD-ConQuest-V1
_database_code_CSD BAPWOG
_database_code_depnum_ccdc_archive 'CCDC 830577'
_chemical_formula_sum 'C26 H22 N2 O8'
_chemical_formula_moiety
;
C26 H22 N2 O8
;
_journal_coden_Cambridge 177
_journal_volume 10
_journal_year 2012
_journal_page_first 536
_journal_name_full 'Org.Biomol.Chem. '
loop_
_publ_author_name
"R.Bhuniya"
"S.Nanda"
_chemical_name_systematic
;
2-Methyl-2-(((4-nitrobenzoyl)oxy)methyl)-1,2,3,4-tetrahydronaphthalen-1-yl 
4-nitrobenzoate
;
_cell_volume   1191.163
_exptl_crystal_colour 'colorless'
_exptl_crystal_density_diffrn 1.367
_exptl_crystal_description 'prism'
_diffrn_ambient_temperature 293
#These two values have been output from a single CSD field.
_refine_ls_R_factor_gt 0.0459
_refine_ls_wR_factor_gt 0.0459
_symmetry_cell_setting monoclinic
_symmetry_space_group_name_H-M 'P 21'
_symmetry_Int_Tables_number 4
loop_
_symmetry_equiv_pos_site_id
_symmetry_equiv_pos_as_xyz
1 x,y,z
2 -x,1/2+y,-z
_cell_length_a 6.805(5)
_cell_length_b 13.163(5)
_cell_length_c 13.478(5)
_cell_angle_alpha 90
_cell_angle_beta 99.373(5)
_cell_angle_gamma 90
_cell_formula_units_Z 2
loop_
_atom_type_symbol
_atom_type_radius_bond
C 0.68
H 0.23
N 0.68
O 0.68
loop_
_atom_site_label
_atom_site_type_symbol
_atom_site_fract_x
_atom_site_fract_y
_atom_site_fract_z
C1 C 0.3688(6) 0.7038(3) 0.1811(3)
H1 H 0.27010 0.75580 0.18670
H2 H 0.29990 0.64120 0.15930
C2 C 0.5005(6) 0.7364(3) 0.1056(3)
C3 C 0.3632(6) 0.7408(4) 0.0019(3)
H3 H 0.29940 0.67530 -0.01210
H4 H 0.25970 0.79090 0.00450
C4 C 0.4753(8) 0.7677(4) -0.0824(3)
H5 H 0.53500 0.70630 -0.10400
H6 H 0.38100 0.79270 -0.13890
C5 C 0.6357(7) 0.8458(3) -0.0555(3)
C6 C 0.7402(8) 0.8821(4) -0.1298(3)
H7 H 0.70470 0.85960 -0.19570
C7 C 0.8913(8) 0.9491(4) -0.1075(4)
H8 H 0.96000 0.97120 -0.15770
C8 C 0.9442(7) 0.9848(4) -0.0111(4)
H9 H 1.04770 1.03120 0.00440
C9 C 0.8408(6) 0.9506(3) 0.0627(3)
H10 H 0.87550 0.97480 0.12800
C10 C 0.6886(6) 0.8820(3) 0.0418(3)
C11 C 0.5784(6) 0.8439(3) 0.1235(3)
C12 C 0.6681(6) 0.6593(4) 0.1056(3)
H11 H 0.61240 0.59260 0.09320
H12 H 0.75350 0.66030 0.16970
H13 H 0.74390 0.67650 0.05380
C13 C 0.4112(6) 0.6667(3) 0.3572(3)
C14 C 0.5636(5) 0.6601(3) 0.4503(3)
C15 C 0.5007(6) 0.6576(3) 0.5427(3)
H14 H 0.36500 0.65800 0.54550
C16 C 0.6355(6) 0.6545(3) 0.6308(3)
H15 H 0.59300 0.65310 0.69300
C17 C 0.8332(6) 0.6535(3) 0.6239(3)
C18 C 0.8992(6) 0.6551(3) 0.5335(3)
H16 H 1.03500 0.65400 0.53120
C19 C 0.7641(5) 0.6584(3) 0.4460(3)
H17 H 0.80790 0.65960 0.38420
C20 C 0.6546(6) 0.8938(3) 0.2972(3)
C21 C 0.8186(5) 0.9007(3) 0.3847(3)
C22 C 0.7710(5) 0.9249(3) 0.4785(3)
H18 H 0.63960 0.93920 0.48440
C23 C 0.9146(5) 0.9278(3) 0.5617(3)
H19 H 0.88190 0.94270 0.62450
C24 C 1.1089(5) 0.9084(3) 0.5512(3)
C25 C 1.1615(5) 0.8864(3) 0.4599(3)
H20 H 1.29410 0.87460 0.45450
C26 C 1.0158(5) 0.8822(3) 0.3762(3)
H21 H 1.04970 0.86690 0.31380
N1 N 0.9801(7) 0.6508(3) 0.7176(3)
N2 N 1.2660(6) 0.9150(3) 0.6393(3)
O1 O 0.4961(4) 0.6888(2) 0.2779(2)
O2 O 0.2345(4) 0.6547(3) 0.3538(2)
O3 O 1.1553(5) 0.6495(4) 0.7105(3)
O4 O 0.9193(6) 0.6467(3) 0.7973(3)
O5 O 0.7171(3) 0.85218(17) 0.21755(16)
O6 O 0.4864(4) 0.9216(2) 0.29940(18)
O7 O 1.4368(5) 0.9034(3) 0.6289(2)
O8 O 1.2181(5) 0.9336(3) 0.7194(2)
H22 H 0.466(4) 0.888(2) 0.130(2)
#END
