
#######################################################################
#
#                 Cambridge Crystallographic Data Centre
#                                CCDC
#
#######################################################################
#
# If this CIF has been generated from an entry in the Cambridge
# Structural Database, then it will include bibliographic, chemical,
# crystal, experimental, refinement or atomic coordinate data resulting
# from the CCDC's data processing and validation procedures.
#
#######################################################################

data_CSD_CIF_BAPYAU
_audit_creation_date 2012-02-16
_audit_creation_method CSD-ConQuest-V1
_database_code_CSD BAPYAU
_database_code_depnum_ccdc_archive 'CCDC 836898'
_chemical_formula_sum 'C17 H21 N1 O8'
_chemical_formula_moiety
;
C17 H21 N1 O8
;
_journal_coden_Cambridge 1291
_journal_year 2011
_journal_page_first 6567
_journal_name_full 'Eur.J.Org.Chem. '
loop_
_publ_author_name
"P.Merino"
"T.Tejero"
"A.Diez-Martinez"
"Z.Gultekin"
_chemical_name_systematic
;
(2S*,3S*,4S*,5R*)-trimethyl 
1-hydroxy-5-(4-methoxyphenyl)pyrrolidine-2,3,4-tricarboxylate
;
_chemical_melting_point 366
_cell_volume   1737.610
_exptl_crystal_colour 'colorless'
_exptl_crystal_density_diffrn 1.404
_exptl_crystal_description 'block'
_diffrn_ambient_temperature 150
#These two values have been output from a single CSD field.
_refine_ls_R_factor_gt 0.036
_refine_ls_wR_factor_gt 0.036
_symmetry_cell_setting triclinic
_symmetry_space_group_name_H-M 'P -1'
_symmetry_Int_Tables_number 2
loop_
_symmetry_equiv_pos_site_id
_symmetry_equiv_pos_as_xyz
1 x,y,z
2 -x,-y,-z
_cell_length_a 8.1401(3)
_cell_length_b 13.3726(5)
_cell_length_c 16.6620(6)
_cell_angle_alpha 75.727(3)
_cell_angle_beta 89.635(3)
_cell_angle_gamma 81.506(3)
_cell_formula_units_Z 4
loop_
_atom_type_symbol
_atom_type_radius_bond
C 0.68
H 0.23
N 0.68
O 0.68
loop_
_atom_site_label
_atom_site_type_symbol
_atom_site_fract_x
_atom_site_fract_y
_atom_site_fract_z
O1 O 0.51429(11) 0.73254(7) 0.50498(6)
H1 H 0.60260 0.75380 0.51440
O2 O 0.26793(14) 0.99793(7) 0.45253(6)
O3 O 0.29937(12) 0.91139(7) 0.35410(5)
O4 O -0.17286(11) 0.77668(7) 0.53719(6)
O5 O -0.08814(10) 0.89755(7) 0.43267(5)
O6 O 0.12328(13) 0.85923(7) 0.70987(5)
O7 O 0.09018(12) 0.69309(7) 0.76471(5)
O8 O 0.74461(14) 0.59008(9) 0.90129(6)
N1 N 0.38064(12) 0.77819(8) 0.54751(6)
C1 C 0.44046(15) 0.66516(9) 0.68832(7)
C2 C 0.44285(17) 0.56974(10) 0.74483(8)
H2 H 0.37470 0.52230 0.73420
C3 C 0.54237(18) 0.54145(11) 0.81679(8)
H3 H 0.54200 0.47550 0.85470
C4 C 0.64128(17) 0.60968(11) 0.83264(8)
C5 C 0.6425(2) 0.70513(11) 0.77611(9)
H4 H 0.71210 0.75200 0.78640
C6 C 0.54278(18) 0.73216(10) 0.70499(8)
H5 H 0.54440 0.79780 0.66690
C7 C 0.32694(15) 0.69379(9) 0.61216(7)
H6 H 0.32960 0.63090 0.58960
C8 C 0.14146(15) 0.73781(9) 0.62322(7)
H7 H 0.07100 0.68260 0.62320
C9 C 0.09623(14) 0.82804(9) 0.54590(7)
H8 H 0.09500 0.89530 0.56220
C10 C 0.24068(14) 0.81630(9) 0.48794(7)
H9 H 0.22610 0.76400 0.45580
C11 C 0.26888(15) 0.91928(9) 0.43086(7)
C12 C -0.07055(15) 0.82958(9) 0.50648(7)
C13 C 0.11704(15) 0.77276(9) 0.70259(7)
C14 C 0.0870(2) 0.71154(12) 0.84661(8)
H10 H 0.06650 0.64830 0.88730
H11 H -0.00180 0.76900 0.84830
H12 H 0.19410 0.72990 0.85980
C15 C -0.24980(16) 0.91624(11) 0.39126(8)
H13 H -0.24840 0.96730 0.33790
H14 H -0.33420 0.94340 0.42580
H15 H -0.27610 0.85070 0.38200
C16 C 0.33376(19) 1.00657(10) 0.29816(8)
H16 H 0.35480 0.99460 0.24310
H17 H 0.43180 1.02830 0.31880
H18 H 0.23800 1.06150 0.29470
C17 C 0.7500(2) 0.49268(14) 0.95974(10)
H19 H 0.82790 0.48870 1.00540
H20 H 0.78690 0.43620 0.93280
H21 H 0.63900 0.48570 0.98140
O9 O 0.93696(12) 0.23444(8) 0.96108(6)
H22 H 0.87400 0.19100 0.95810
O10 O 1.20420(12) -0.02128(7) 1.01985(6)
O11 O 1.12163(12) 0.05058(7) 1.12401(5)
O12 O 1.60146(13) 0.23770(8) 1.01709(6)
O13 O 1.52158(11) 0.09066(7) 1.09251(5)
O14 O 1.46204(13) 0.15634(7) 0.80208(6)
O15 O 1.45409(12) 0.32899(7) 0.76197(5)
O16 O 0.85240(13) 0.42421(8) 0.56493(6)
N2 N 1.09852(13) 0.20178(8) 0.93285(6)
C18 C 1.07895(15) 0.33484(10) 0.79999(7)
C19 C 1.07565(16) 0.2661(1) 0.74956(8)
H23 H 1.12610 0.19550 0.76910
C20 C 1.00062(17) 0.29877(10) 0.67203(8)
H24 H 0.99990 0.25070 0.63850
C21 C 0.92553(16) 0.40185(10) 0.64214(8)
C22 C 0.92768(18) 0.47156(10) 0.69083(8)
H25 H 0.87750 0.54220 0.67100
C23 C 1.00440(17) 0.43706(10) 0.76938(8)
H26 H 1.00550 0.48510 0.80280
C24 C 1.15893(15) 0.29740(9) 0.88547(7)
H27 H 1.12960 0.35330 0.91560
C25 C 1.35137(15) 0.26342(9) 0.89276(7)
H28 H 1.40360 0.32010 0.90710
C26 C 1.38040(15) 0.16667(10) 0.96602(7)
H29 H 1.41190 0.10330 0.94440
C27 C 1.21067(15) 0.16208(10) 1.00573(7)
H30 H 1.19330 0.20930 1.04410
C28 C 1.18141(15) 0.05277(10) 1.04940(7)
C29 C 1.51400(16) 0.17155(10) 1.02649(8)
C30 C 1.42841(15) 0.24116(10) 0.81494(7)
C31 C 1.5186(2) 0.31840(12) 0.68293(9)
H31 H 1.53330 0.38720 0.64860
H32 H 1.44020 0.28830 0.65480
H33 H 1.62590 0.27250 0.69180
C32 C 1.65346(18) 0.08199(12) 1.15277(8)
H34 H 1.64860 0.02070 1.19880
H35 H 1.64000 0.14490 1.17380
H36 H 1.76110 0.07450 1.12650
C33 C 1.08008(19) -0.04896(11) 1.16935(8)
H37 H 1.03710 -0.04300 1.22330
H38 H 1.17980 -0.10180 1.17760
H39 H 0.99520 -0.06960 1.13790
C34 C 0.7675(2) 0.52758(12) 0.53276(10)
H40 H 0.72080 0.53380 0.47740
H41 H 0.84570 0.57750 0.52930
H42 H 0.67760 0.54250 0.56950
#END
