
#######################################################################
#
#                 Cambridge Crystallographic Data Centre
#                                CCDC
#
#######################################################################
#
# If this CIF has been generated from an entry in the Cambridge
# Structural Database, then it will include bibliographic, chemical,
# crystal, experimental, refinement or atomic coordinate data resulting
# from the CCDC's data processing and validation procedures.
#
#######################################################################

data_CSD_CIF_BAPYAV
_audit_creation_date 2017-01-24
_audit_creation_method CSD-ConQuest-V1
_database_code_CSD BAPYAV
_database_code_depnum_ccdc_archive 'CCDC 1508863'
_chemical_formula_sum 'C11 H11 N1 O5'
_chemical_formula_moiety
;
C11 H11 N1 O5
;
_journal_coden_Cambridge 177
_journal_volume 15
_journal_year 2017
_journal_page_first 1530
_journal_name_full 'Org.Biomol.Chem. '
loop_
_publ_author_name
"Wei Chen"
"Zhao-Hui Zhou"
"Hong-Bin Chen"
_chemical_name_systematic
;
(S)-1-(6-Methoxybenzofuran-2-yl)-2-nitroethanol
;
_cell_volume   1036.651
_exptl_crystal_colour 'colorless'
_exptl_crystal_density_diffrn 1.52
_exptl_special_details
;
Heat-sensitive

;
_exptl_crystal_preparation 'ethyl acetate/hexane'
_diffrn_ambient_temperature 173
#These two values have been output from a single CSD field.
_refine_ls_R_factor_gt 0.0657
_refine_ls_wR_factor_gt 0.0657
_symmetry_cell_setting monoclinic
_symmetry_space_group_name_H-M 'P 21'
_symmetry_Int_Tables_number 4
loop_
_symmetry_equiv_pos_site_id
_symmetry_equiv_pos_as_xyz
1 x,y,z
2 -x,1/2+y,-z
_cell_length_a 7.993(4)
_cell_length_b 12.540(5)
_cell_length_c 10.604(4)
_cell_angle_alpha 90
_cell_angle_beta 102.751(8)
_cell_angle_gamma 90
_cell_formula_units_Z 4
loop_
_atom_type_symbol
_atom_type_radius_bond
C 0.68
H 0.23
N 0.68
O 0.68
loop_
_atom_site_label
_atom_site_type_symbol
_atom_site_fract_x
_atom_site_fract_y
_atom_site_fract_z
O1 O 0.3277(3) 0.7181(2) 0.5477(3)
H1 H 0.294(5) 0.7776(17) 0.513(3)
O2 O -0.0159(6) 0.8482(3) 0.5092(3)
O3 O -0.0562(4) 0.7435(3) 0.3520(3)
O4 O 0.4118(3) 0.63350(17) 0.8164(2)
O5 O 0.7038(4) 0.4254(2) 1.1746(2)
N1 N -0.0163(5) 0.7619(3) 0.4639(4)
C1 C 0.2169(5) 0.6951(3) 0.6309(3)
H2 H 0.21010 0.75870 0.68330
C2 C 0.0404(5) 0.6714(3) 0.5532(4)
H3 H 0.04170 0.60620 0.50430
H4 H -0.03810 0.66210 0.61020
C3 C 0.8190(5) 0.5075(4) 1.2227(4)
H5 H 0.88220 0.52670 1.15890
H6 H 0.89710 0.48370 1.29980
H7 H 0.75670 0.56850 1.24240
C4 C 0.2787(5) 0.6070(3) 0.7181(3)
C5 C 0.2334(5) 0.5056(3) 0.7260(3)
H8 H 0.14690 0.46930 0.66910
C6 C 0.3442(5) 0.4641(3) 0.8392(3)
C7 C 0.3656(5) 0.3678(3) 0.9031(4)
H9 H 0.29720 0.30960 0.87100
C8 C 0.4879(6) 0.3591(3) 1.0137(4)
H10 H 0.50300 0.29430 1.05740
C9 C 0.5895(5) 0.4438(3) 1.0623(3)
C10 C 0.5738(5) 0.5397(3) 1.0009(3)
H11 H 0.64340 0.59760 1.03240
C11 C 0.4493(5) 0.5454(3) 0.8900(3)
O6 O 0.2682(3) 0.5674(2) 0.3525(2)
H12 H 0.235(5) 0.606(3) 0.287(3)
O7 O 0.6692(6) 0.5248(3) 0.6192(4)
O8 O 0.6368(4) 0.6137(3) 0.4473(3)
O9 O 0.1704(3) 0.43049(18) 0.1432(2)
O10 O -0.2267(3) 0.2221(2) -0.1606(2)
N2 N 0.6101(4) 0.5377(3) 0.5074(4)
C12 C 0.3797(5) 0.4890(3) 0.3222(4)
H13 H 0.45150 0.52100 0.26840
C13 C 0.4896(5) 0.4527(3) 0.4450(4)
H14 H 0.55490 0.39100 0.42880
H15 H 0.41800 0.43130 0.50340
C14 C -0.2884(6) 0.3122(3) -0.2373(4)
H16 H -0.38170 0.29120 -0.30640
H17 H -0.19770 0.34150 -0.27270
H18 H -0.32750 0.36490 -0.18480
C15 C 0.2824(5) 0.3998(3) 0.2518(4)
C16 C 0.2774(5) 0.2962(3) 0.2713(3)
H19 H 0.34390 0.25770 0.33920
C17 C 0.1491(5) 0.2552(3) 0.1671(3)
C18 C 0.0790(5) 0.1571(3) 0.1288(4)
H20 H 0.11860 0.09600 0.17570
C19 C -0.0492(5) 0.1511(3) 0.0211(3)
H21 H -0.10150 0.08570 -0.00280
C20 C -0.1035(5) 0.2396(3) -0.0538(3)
C21 C -0.0351(5) 0.3374(3) -0.0187(4)
H22 H -0.07110 0.39830 -0.06730
C22 C 0.0892(5) 0.3407(3) 0.0921(3)
#END
