
#######################################################################
#
#                 Cambridge Crystallographic Data Centre
#                                CCDC
#
#######################################################################
#
# If this CIF has been generated from an entry in the Cambridge
# Structural Database, then it will include bibliographic, chemical,
# crystal, experimental, refinement or atomic coordinate data resulting
# from the CCDC's data processing and validation procedures.
#
#######################################################################

data_CSD_CIF_BAQCON
_audit_creation_date 2012-02-16
_audit_creation_method CSD-ConQuest-V1
_database_code_CSD BAQCON
_database_code_depnum_ccdc_archive 'CCDC 835395 (not 85395 as published)'
_chemical_formula_sum 'C33 H27 N3 O4'
_chemical_formula_moiety
;
C33 H27 N3 O4
;
_journal_coden_Cambridge 1291
_journal_year 2011
_journal_page_first 7194
_journal_name_full 'Eur.J.Org.Chem. '
loop_
_publ_author_name
"Li Hui"
"Yu-Xiu Jin"
"Jin-Xiu Wang"
"Chao-Guo Yan"
_chemical_name_systematic
;
Ethyl 
4-benzyl-3-(4-methylphenyl)-1-(4-nitrophenyl)-4H-pyrrolo[1,2-a]benzimidazole-2
-carboxylate
;
_cell_volume   2716.780
_exptl_crystal_density_diffrn 1.295
_diffrn_ambient_temperature 296
#These two values have been output from a single CSD field.
_refine_ls_R_factor_gt 0.0575
_refine_ls_wR_factor_gt 0.0575
_symmetry_cell_setting monoclinic
_symmetry_space_group_name_H-M 'P 21/c'
_symmetry_Int_Tables_number 14
loop_
_symmetry_equiv_pos_site_id
_symmetry_equiv_pos_as_xyz
1 x,y,z
2 -x,1/2+y,1/2-z
3 -x,-y,-z
4 x,-1/2-y,-1/2+z
_cell_length_a 9.1854(13)
_cell_length_b 15.138(2)
_cell_length_c 19.954(3)
_cell_angle_alpha 90
_cell_angle_beta 101.715(2)
_cell_angle_gamma 90
_cell_formula_units_Z 4
loop_
_atom_type_symbol
_atom_type_radius_bond
C 0.68
H 0.23
N 0.68
O 0.68
loop_
_atom_site_label
_atom_site_type_symbol
_atom_site_fract_x
_atom_site_fract_y
_atom_site_fract_z
N1 N 0.39881(18) 1.02992(11) 0.32677(8)
N2 N 0.25610(19) 1.11220(12) 0.24587(9)
C1 C 0.2582(2) 1.03735(13) 0.28592(10)
O1 O 0.33319(17) 0.7778(1) 0.39589(9)
C2 C 0.4854(2) 1.10365(13) 0.31579(10)
C3 C 0.4060(2) 0.95370(13) 0.36641(10)
C4 C 0.5443(2) 0.92725(13) 0.41296(10)
C5 C 0.2650(2) 0.91558(13) 0.34886(10)
C6 C 0.1696(2) 0.96826(14) 0.29812(11)
C7 C 0.1557(2) 1.10491(14) 0.12039(11)
C8 C 0.3953(2) 1.15168(14) 0.26255(11)
C9 C 0.6257(2) 1.13249(15) 0.34637(12)
H1 H 0.68300 1.10220 0.38300
C10 C 0.0161(2) 0.94961(15) 0.26155(11)
C11 C 0.1381(2) 1.14015(15) 0.1890(1)
H2 H 0.13630 1.20420 0.18710
H3 H 0.04320 1.12060 0.19780
C12 C 0.5444(3) 0.90100(14) 0.48001(11)
H4 H 0.45520 0.89830 0.49510
O2 O 0.09279(19) 0.81115(12) 0.37571(10)
C13 C 0.1230(3) 1.15801(17) 0.06318(12)
H5 H 0.09350 1.21620 0.06730
C14 C 0.2182(2) 0.83179(15) 0.37513(11)
C15 C 0.6779(3) 1.20850(16) 0.32021(13)
H6 H 0.77200 1.22970 0.33970
C16 C 0.4504(3) 1.22664(15) 0.23607(12)
H7 H 0.39360 1.25770 0.19980
C17 C -0.0968(2) 1.01096(16) 0.25980(11)
H8 H -0.07750 1.06280 0.28500
C18 C -0.2725(3) 0.9189(2) 0.18446(13)
C19 C -0.0198(3) 0.87131(16) 0.22561(12)
H9 H 0.05290 0.82830 0.22670
C20 C 0.8059(3) 0.88412(16) 0.50109(13)
C21 C 0.6784(2) 0.92780(14) 0.39081(12)
H10 H 0.67910 0.94200 0.34550
C22 C 0.5922(3) 1.25310(16) 0.26568(13)
H11 H 0.63180 1.30270 0.24840
C23 C -0.2379(3) 0.9961(2) 0.22102(13)
H12 H -0.31080 1.03910 0.21960
C24 C 0.8108(3) 0.90768(15) 0.43496(14)
H13 H 0.90060 0.91000 0.42040
C25 C 0.1990(3) 1.01885(16) 0.11229(13)
H14 H 0.22080 0.98190 0.15030
C26 C 0.6748(3) 0.87919(16) 0.52384(12)
H15 H 0.67440 0.86130 0.56840
C27 C -0.1624(3) 0.85623(19) 0.18806(13)
H16 H -0.18390 0.80290 0.16500
N3 N 0.9471(4) 0.86431(18) 0.54881(17)
C28 C 0.3034(3) 0.69369(17) 0.42486(18)
H17 H 0.23130 0.66050 0.39220
H18 H 0.26370 0.70280 0.46580
O3 O 0.9391(3) 0.83520(17) 0.60589(14)
C29 C 0.1778(3) 1.0405(2) -0.00767(14)
H19 H 0.18560 1.01920 -0.05050
C30 C 0.1340(3) 1.1254(2) -0.00049(13)
H20 H 0.11120 1.16180 -0.03870
C31 C 0.2103(3) 0.98673(19) 0.04891(15)
H21 H 0.23990 0.92870 0.04440
C32 C -0.4257(3) 0.9039(3) 0.14040(17)
H22 H -0.43430 0.93600 0.09830
H23 H -0.50000 0.92420 0.16440
H24 H -0.43960 0.84200 0.13070
C33 C 0.4443(3) 0.6455(2) 0.44152(19)
H25 H 0.48290 0.63720 0.40070
H26 H 0.42810 0.58890 0.46050
H27 H 0.51440 0.67860 0.47420
O4 O 1.0630(3) 0.8783(2) 0.52962(16)
#END
