
#######################################################################
#
#                 Cambridge Crystallographic Data Centre
#                                CCDC
#
#######################################################################
#
# If this CIF has been generated from an entry in the Cambridge
# Structural Database, then it will include bibliographic, chemical,
# crystal, experimental, refinement or atomic coordinate data resulting
# from the CCDC's data processing and validation procedures.
#
#######################################################################

data_CSD_CIF_BAQDAA
_audit_creation_date 2012-02-16
_audit_creation_method CSD-ConQuest-V1
_database_code_CSD BAQDAA
_database_code_depnum_ccdc_archive 'CCDC 824789'
_chemical_formula_sum 'C25 H26 N2 O2'
_chemical_formula_moiety
;
C25 H26 N2 O2
;
_journal_coden_Cambridge 1291
_journal_year 2011
_journal_page_first 6923
_journal_name_full 'Eur.J.Org.Chem. '
loop_
_publ_author_name
"T.Naicker"
"P.I.Arvidsson"
"H.G.Kruger"
"G.E.M.Maguire"
"T.Govender"
_chemical_name_systematic
;
(3S)-3-(benzylcarbamoyl)-2-methyl-1,2,3,4-tetrahydroisoquinoline 2-oxide
;
_chemical_melting_point 437
_cell_volume   2074.375
_exptl_crystal_colour 'colorless'
_exptl_crystal_density_diffrn 1.238
_exptl_crystal_description 'block'
_diffrn_ambient_temperature 173
#These two values have been output from a single CSD field.
_refine_ls_R_factor_gt 0.0358
_refine_ls_wR_factor_gt 0.0358
_symmetry_cell_setting orthorhombic
_symmetry_space_group_name_H-M 'P 21 21 21'
_symmetry_Int_Tables_number 19
loop_
_symmetry_equiv_pos_site_id
_symmetry_equiv_pos_as_xyz
1 x,y,z
2 1/2-x,-y,1/2+z
3 1/2+x,1/2-y,-z
4 -x,1/2+y,1/2-z
_cell_length_a 9.6422(2)
_cell_length_b 10.6512(3)
_cell_length_c 20.1982(6)
_cell_angle_alpha 90
_cell_angle_beta 90
_cell_angle_gamma 90
_cell_formula_units_Z 4
loop_
_atom_type_symbol
_atom_type_radius_bond
C 0.68
H 0.23
N 0.68
O 0.68
loop_
_atom_site_label
_atom_site_type_symbol
_atom_site_fract_x
_atom_site_fract_y
_atom_site_fract_z
O1 O 0.53556(11) 0.27256(12) 0.02736(6)
O2 O 0.82147(13) 0.51459(14) 0.12007(6)
N1 N 0.67948(14) 0.26212(14) 0.02414(7)
N2 N 0.59519(15) 0.45127(15) 0.11598(7)
H1 H 0.53240 0.41710 0.09000
C1 C 0.71772(17) 0.19940(18) -0.03972(8)
H2 H 0.66370 0.12080 -0.04420
H3 H 0.81730 0.17670 -0.03850
C2 C 0.69111(17) 0.28104(19) -0.09893(8)
C3 C 0.6784(2) 0.2231(2) -0.16086(9)
H4 H 0.68080 0.13410 -0.16400
C4 C 0.6622(2) 0.2949(2) -0.21771(10)
H5 H 0.65530 0.25520 -0.25970
C5 C 0.6563(2) 0.4245(2) -0.21323(10)
H6 H 0.64490 0.47380 -0.25210
C6 C 0.66687(19) 0.4821(2) -0.15196(9)
H7 H 0.66150 0.57100 -0.14900
C7 C 0.68523(17) 0.41145(18) -0.09454(8)
C8 C 0.69127(19) 0.47375(18) -0.02774(8)
H8 H 0.59660 0.50080 -0.01530
H9 H 0.74950 0.55000 -0.03120
C9 C 0.74861(17) 0.39126(17) 0.02705(8)
H10 H 0.85050 0.38040 0.01980
C10 C 0.72641(17) 0.45669(17) 0.09404(9)
C11 C 0.55061(18) 0.49863(19) 0.18019(9)
H11 H 0.61480 0.56780 0.19370
C12 C 0.5617(2) 0.3929(2) 0.2312(1)
H12 H 0.65740 0.36190 0.23260
H13 H 0.49940 0.32420 0.21870
H14 H 0.53560 0.42480 0.27500
C13 C 0.40415(17) 0.55217(17) 0.17527(9)
C14 C 0.34440(18) 0.58335(19) 0.11468(9)
H15 H 0.39670 0.57350 0.07520
C15 C 0.2096(2) 0.6285(2) 0.11115(11)
H16 H 0.17020 0.64830 0.06930
C16 C 0.1325(2) 0.6448(2) 0.16813(11)
H17 H 0.03990 0.67480 0.16570
C17 C 0.1915(2) 0.6171(2) 0.22884(11)
H18 H 0.13970 0.62960 0.26830
C18 C 0.3259(2) 0.5713(2) 0.23235(9)
H19 H 0.36530 0.55260 0.27430
C19 C 0.73570(18) 0.18506(17) 0.08166(9)
H20 H 0.83800 0.19310 0.08230
H21 H 0.70000 0.22110 0.12350
C20 C 0.69905(18) 0.04782(18) 0.07966(8)
C21 C 0.56306(18) 0.00567(19) 0.08617(9)
H22 H 0.48940 0.06450 0.09000
C22 C 0.5347(2) -0.1223(2) 0.08712(10)
H23 H 0.44160 -0.15040 0.09110
C23 C 0.6404(2) -0.2083(2) 0.08232(10)
H24 H 0.62030 -0.29560 0.08290
C24 C 0.7756(2) -0.1677(2) 0.07671(11)
H25 H 0.84890 -0.22700 0.07380
C25 C 0.8047(2) -0.0401(2) 0.07534(10)
H26 H 0.89810 -0.01270 0.07140
#END
