
#######################################################################
#
#                 Cambridge Crystallographic Data Centre
#                                CCDC
#
#######################################################################
#
# If this CIF has been generated from an entry in the Cambridge
# Structural Database, then it will include bibliographic, chemical,
# crystal, experimental, refinement or atomic coordinate data resulting
# from the CCDC's data processing and validation procedures.
#
#######################################################################

data_CSD_CIF_BAQHUW
_audit_creation_date 1999-11-09
_audit_creation_method CSD-ConQuest-V1
_database_code_CSD BAQHUW
_database_code_depnum_ccdc_archive 'CCDC 122167'
_chemical_formula_sum 'C16 H14 N2 O6'
_chemical_formula_moiety
;
C16 H14 N2 O6
;
_journal_coden_Cambridge 1078
_journal_year 1999
_journal_name_full 'CSD Communication(Private Communication) '
loop_
_publ_author_name
"K.Peseke"
"L.Goetze"
"H.Reinke"
_chemical_name_systematic
;
(5E,4RS)-(+-)-4-(2-Furyl)-5-nitro-6-(2-nitrophenyl)-5-hexen-2-one
;
_chemical_melting_point 357
_cell_volume   1612.950
_exptl_crystal_colour 'yellow'
_exptl_crystal_density_diffrn 1.36
_exptl_special_details
;
contribution from Fachbereich Chemie, Universitat Rostock,Germany

;
_exptl_crystal_description 'part of plate'
_diffrn_ambient_temperature ?
_diffrn_special_details
;
The study was carried out at room temperature,in the range 283-303K

;
_refine_special_details
;
The O atom of the furan ring is disordered.

;
#These two values have been output from a single CSD field.
_refine_ls_R_factor_gt 0.0454
_refine_ls_wR_factor_gt 0.0454
_symmetry_cell_setting monoclinic
_symmetry_space_group_name_H-M 'P 21/c'
_symmetry_Int_Tables_number 14
loop_
_symmetry_equiv_pos_site_id
_symmetry_equiv_pos_as_xyz
1 x,y,z
2 x,1/2-y,1/2+z
3 -x,-y,-z
4 -x,-1/2+y,-1/2-z
_cell_length_a 12.709(3)
_cell_length_b 7.983(1)
_cell_length_c 16.628(2)
_cell_angle_alpha 90
_cell_angle_beta 107.04(1)
_cell_angle_gamma 90
_cell_formula_units_Z 4
loop_
_atom_type_symbol
_atom_type_radius_bond
C 0.68
H 0.23
N 0.68
O 0.68
loop_
_atom_site_label
_atom_site_type_symbol
_atom_site_fract_x
_atom_site_fract_y
_atom_site_fract_z
O1 O 0.30290(16) 0.2399(3) 0.47746(13)
O2 O 0.11051(17) 0.5085(3) 0.63481(14)
O3 O 0.24584(17) 0.4824(3) 0.74491(15)
O4 O 0.60587(19) 0.2337(3) 0.5956(2)
O5 O 0.49225(18) 0.3655(3) 0.64311(17)
N1 N 0.19222(17) 0.4346(3) 0.67550(14)
N2 N 0.52707(17) 0.2365(3) 0.62268(14)
C1 C 0.2076(3) 0.4206(5) 0.36885(19)
H1 H 0.17970 0.52940 0.37640
H2 H 0.15690 0.36580 0.32190
H3 H 0.27760 0.43230 0.35830
C2 C 0.2210(2) 0.3182(4) 0.44673(15)
C3 C 0.12522(19) 0.3145(4) 0.48212(15)
H4 H 0.06200 0.26910 0.43980
H5 H 0.10750 0.42860 0.49350
C4 C 0.14409(17) 0.2117(3) 0.56279(14)
H6 H 0.17400 0.10380 0.55180
C5 C 0.0375(2) 0.1732(4) 0.57987(18)
O6 O 0.0477(12) 0.131(6) 0.6629(12)
O7? O 0.0489(9) 0.080(5) 0.6516(14)
C6 C -0.0689(2) 0.1909(4) 0.5386(2)
H7 H -0.09830 0.23620 0.48510
C7 C -0.1287(3) 0.1272(5) 0.5920(3)
H8 H -0.20480 0.12230 0.58020
C8 C -0.0569(3) 0.0777(7) 0.6599(3)
H9 H -0.07320 0.01400 0.70150
C9 C 0.22659(18) 0.2828(3) 0.63919(14)
C10 C 0.32704(19) 0.2280(3) 0.67811(15)
H10 H 0.36890 0.28980 0.72370
C11 C 0.37754(18) 0.0768(3) 0.65480(14)
C12 C 0.47283(18) 0.0779(3) 0.62939(15)
C13 C 0.5179(2) -0.0655(4) 0.60760(17)
H11 H 0.58110 -0.05920 0.59030
C14 C 0.4702(3) -0.2163(4) 0.6114(2)
H12 H 0.49990 -0.31360 0.59620
C15 C 0.3777(3) -0.2238(4) 0.6380(2)
H13 H 0.34580 -0.32710 0.64190
C16 C 0.3314(2) -0.0799(4) 0.65914(19)
H14 H 0.26830 -0.08790 0.67650
#END
