
#######################################################################
#
#                 Cambridge Crystallographic Data Centre
#                                CCDC
#
#######################################################################
#
# If this CIF has been generated from an entry in the Cambridge
# Structural Database, then it will include bibliographic, chemical,
# crystal, experimental, refinement or atomic coordinate data resulting
# from the CCDC's data processing and validation procedures.
#
#######################################################################

data_CSD_CIF_BAQJEI
_audit_creation_date 1999-11-09
_audit_creation_method CSD-ConQuest-V1
_database_code_CSD BAQJEI
_database_code_depnum_ccdc_archive 'CCDC 123400'
_chemical_formula_sum 'C18 H16 N2 O5'
_chemical_formula_moiety
;
C18 H16 N2 O5
;
_journal_coden_Cambridge 1078
_journal_year 1999
_journal_name_full 'CSD Communication(Private Communication) '
loop_
_publ_author_name
"K.Peseke"
"L.Goetze"
"H.Reinke"
_chemical_name_systematic
;
(5E,4RS)-(+-)-5-Nitro-6-(2-nitrophenyl)-4-phenyl-5-hexen-2-one
;
_chemical_melting_point 375
_cell_volume    834.406
_exptl_crystal_colour 'colorless'
_exptl_crystal_density_diffrn 1.355
_exptl_special_details
;
contribution from Fachbereich Chemie, Universitat Rostock,Germany

;
_exptl_crystal_description 'prism'
_diffrn_ambient_temperature ?
_diffrn_special_details
;
The study was carried out at room temperature,in the range 283-303K

;
#These two values have been output from a single CSD field.
_refine_ls_R_factor_gt 0.0398
_refine_ls_wR_factor_gt 0.0398
_symmetry_cell_setting triclinic
_symmetry_space_group_name_H-M 'P -1'
_symmetry_Int_Tables_number 2
loop_
_symmetry_equiv_pos_site_id
_symmetry_equiv_pos_as_xyz
1 x,y,z
2 -x,-y,-z
_cell_length_a 8.160(1)
_cell_length_b 10.043(1)
_cell_length_c 10.353(2)
_cell_angle_alpha 92.08(1)
_cell_angle_beta 97.73(1)
_cell_angle_gamma 96.37(1)
_cell_formula_units_Z 2
loop_
_atom_type_symbol
_atom_type_radius_bond
C 0.68
H 0.23
N 0.68
O 0.68
loop_
_atom_site_label
_atom_site_type_symbol
_atom_site_fract_x
_atom_site_fract_y
_atom_site_fract_z
O1 O 0.2226(2) 0.49991(18) 0.56837(19)
O2 O 0.2935(3) 0.87519(19) 0.9378(2)
O3 O 0.2266(2) 0.92958(16) 0.7415(2)
O4 O 0.5270(2) 0.3212(2) 0.8433(2)
O5 O 0.4926(2) 0.5271(2) 0.8447(2)
N1 N 0.2290(2) 0.84787(19) 0.8259(2)
N2 N 0.4376(2) 0.4106(2) 0.84257(19)
C1 C 0.3852(4) 0.6584(4) 0.4650(4)
H1 H 0.45710 0.58900 0.46430
H2 H 0.44500 0.73710 0.51170
H3 H 0.34780 0.67920 0.37690
C2 C 0.2398(3) 0.6117(3) 0.5297(2)
C3 C 0.1128(3) 0.7076(2) 0.5403(2)
H4 H 0.02770 0.69220 0.46460
H5 H 0.16660 0.79860 0.53890
C4 C 0.0288(3) 0.6947(2) 0.6644(2)
H6 H -0.02630 0.60250 0.66000
C5 C -0.1087(3) 0.7852(2) 0.6739(2)
C6 C -0.1654(3) 0.8633(2) 0.5733(3)
H7 H -0.12010 0.86090 0.49560
C7 C -0.2885(3) 0.9445(3) 0.5875(3)
H8 H -0.32610 0.99550 0.51880
C8 C -0.3560(3) 0.9508(3) 0.7019(3)
H9 H -0.43740 1.00700 0.71120
C9 C -0.3027(3) 0.8739(3) 0.8020(3)
H10 H -0.34830 0.87700 0.87960
C10 C -0.1807(3) 0.7918(2) 0.7872(3)
H11 H -0.14600 0.73930 0.85560
C11 C 0.1514(3) 0.70859(19) 0.7875(2)
C12 C 0.2061(3) 0.6156(2) 0.8644(2)
H12 H 0.28710 0.64460 0.93480
C13 C 0.1501(2) 0.46984(19) 0.84862(19)
C14 C -0.0173(3) 0.4224(2) 0.8457(2)
H13 H -0.09420 0.48360 0.84970
C15 C -0.0723(3) 0.2871(2) 0.8368(2)
H14 H -0.18490 0.25850 0.83540
C16 C 0.0380(3) 0.1943(2) 0.8302(2)
H15 H 0.00010 0.10320 0.82400
C17 C 0.2046(3) 0.2364(2) 0.8327(2)
H16 H 0.28020 0.17410 0.82790
C18 C 0.2585(2) 0.3722(2) 0.8424(2)
#END
