
#######################################################################
#
#                 Cambridge Crystallographic Data Centre
#                                CCDC
#
#######################################################################
#
# If this CIF has been generated from an entry in the Cambridge
# Structural Database, then it will include bibliographic, chemical,
# crystal, experimental, refinement or atomic coordinate data resulting
# from the CCDC's data processing and validation procedures.
#
#######################################################################

data_CSD_CIF_BAQJAE
_audit_creation_date 1999-11-09
_audit_creation_method CSD-ConQuest-V1
_database_code_CSD BAQJAE
_database_code_depnum_ccdc_archive 'CCDC 122345'
_chemical_formula_sum 'C17 H18 N2 O7'
_chemical_formula_moiety
;
C17 H18 N2 O7
;
_journal_coden_Cambridge 1078
_journal_year 1999
_journal_name_full 'CSD Communication(Private Communication) '
loop_
_publ_author_name
"K.Peseke"
"L.Goetze"
"H.Reinke"
_chemical_name_systematic
;
(2RS)-(+-)-4\b-(2-Furyl)-3,4,5,6-tetrahydro-2\b-methyl-5\a-nitro-6\b-(2-nitro-
phenyl)-2H-pyran-2\a-yl methyl ether
;
_chemical_melting_point 397
_cell_volume   1789.440
_exptl_crystal_colour 'yellow'
_exptl_crystal_density_diffrn 1.345
_exptl_special_details
;
contribution from Fachbereich Chemie, Universitat Rostock,Germany

;
_exptl_crystal_description 'prism'
_diffrn_ambient_temperature ?
_diffrn_special_details
;
The study was carried out at room temperature,in the range 283-303K

;
#These two values have been output from a single CSD field.
_refine_ls_R_factor_gt 0.0483
_refine_ls_wR_factor_gt 0.0483
_symmetry_cell_setting monoclinic
_symmetry_space_group_name_H-M 'P 21/c'
_symmetry_Int_Tables_number 14
loop_
_symmetry_equiv_pos_site_id
_symmetry_equiv_pos_as_xyz
1 x,y,z
2 x,1/2-y,1/2+z
3 -x,-y,-z
4 -x,-1/2+y,-1/2-z
_cell_length_a 7.365
_cell_length_b 16.787(1)
_cell_length_c 14.600(1)
_cell_angle_alpha 90
_cell_angle_beta 97.55(1)
_cell_angle_gamma 90
_cell_formula_units_Z 4
loop_
_atom_type_symbol
_atom_type_radius_bond
C 0.68
H 0.23
N 0.68
O 0.68
loop_
_atom_site_label
_atom_site_type_symbol
_atom_site_fract_x
_atom_site_fract_y
_atom_site_fract_z
O1 O 0.2320(3) 0.46484(10) 0.79299(11)
O2 O 0.0807(3) 0.43086(12) 0.64731(13)
O3 O 0.0579(3) 0.68894(14) 0.69487(19)
O4 O 0.3064(3) 0.73380(13) 0.76424(19)
O5 O 0.3723(4) 0.67176(15) 0.53521(18)
O6 O -0.2211(3) 0.54071(17) 0.81976(18)
O7 O -0.2783(4) 0.6538(2) 0.8775(2)
N1 N 0.2126(3) 0.67988(14) 0.73217(15)
N2 N -0.1760(4) 0.59844(18) 0.8684(2)
C1 C 0.2491(4) 0.42928(16) 0.70424(18)
C2 C 0.3750(4) 0.47942(16) 0.65415(19)
H1 H 0.38280 0.45620 0.59400
H2 H 0.49680 0.47880 0.68870
C3 C 0.3100(4) 0.56517(15) 0.64160(16)
H3 H 0.18960 0.56560 0.60400
C4 C 0.2897(3) 0.59703(14) 0.73851(16)
H4 H 0.41090 0.59850 0.77530
C5 C 0.1634(3) 0.54419(14) 0.78795(16)
H5 H 0.03920 0.54500 0.75420
C6 C 0.3210(6) 0.34647(18) 0.7276(2)
H6 H 0.23480 0.31790 0.75900
H7 H 0.43610 0.35000 0.76680
H8 H 0.33790 0.31890 0.67170
C7 C -0.0638(6) 0.3839(3) 0.6742(3)
H9 H -0.17110 0.39010 0.62970
H10 H -0.09030 0.40100 0.73380
H11 H -0.02780 0.32890 0.67720
C8 C 0.4386(5) 0.61470(17) 0.59495(17)
C9 C 0.6150(5) 0.6152(2) 0.6031(2)
H12 H 0.69240 0.58150 0.64080
C10 C 0.6706(6) 0.6751(3) 0.5456(3)
H13 H 0.79040 0.68780 0.53760
C11 C 0.5253(7) 0.7086(2) 0.5065(3)
H14 H 0.52180 0.75100 0.46530
C12 C 0.1592(3) 0.57119(14) 0.88659(16)
C13 C 0.0073(4) 0.59968(15) 0.92259(18)
C14 C 0.0165(5) 0.62924(19) 1.0118(2)
H15 H -0.08790 0.64890 1.03340
C15 C 0.1802(6) 0.6291(2) 1.0673(2)
H16 H 0.18780 0.64900 1.12720
C16 C 0.3343(5) 0.5996(2) 1.0354(2)
H17 H 0.44550 0.59850 1.07380
C17 C 0.3227(4) 0.57171(17) 0.94627(17)
H18 H 0.42800 0.55250 0.92510
#END
