
#######################################################################
#
#                 Cambridge Crystallographic Data Centre
#                                CCDC
#
#######################################################################
#
# If this CIF has been generated from an entry in the Cambridge
# Structural Database, then it will include bibliographic, chemical,
# crystal, experimental, refinement or atomic coordinate data resulting
# from the CCDC's data processing and validation procedures.
#
#######################################################################

data_CSD_CIF_BAQLOU
_audit_creation_date 1999-11-09
_audit_creation_method CSD-ConQuest-V1
_database_code_CSD BAQLOU
_database_code_depnum_ccdc_archive 'CCDC 129621'
_chemical_formula_sum 'C24 H31 N1 O13'
_chemical_formula_moiety
;
C24 H31 N1 O13
;
_journal_coden_Cambridge 1078
_journal_year 1999
_journal_name_full 'CSD Communication(Private Communication) '
loop_
_publ_author_name
"K.Peseke"
"L.Goetze"
"H.Reinke"
_chemical_name_systematic
;
7,8,9,11-Tetra-O-acetyl-6,10-anhydro-1,3,4,5-tetradeoxy-4-C-(5-methyl-2-furyl)
-5-C-nitro-D-lyxo-D-gluco-2-undecanulose
;
_chemical_melting_point 395
_cell_volume   1401.895
_exptl_crystal_colour 'colorless'
_exptl_crystal_density_diffrn 1.283
_exptl_special_details
;
contribution from Fachbereich Chemie, Universitat Rostock,Germ any

;
_exptl_crystal_description 'part of prism'
_diffrn_ambient_temperature ?
_diffrn_special_details
;
The study was carried out at room temperature,in the range 283-303K

;
#These two values have been output from a single CSD field.
_refine_ls_R_factor_gt 0.0484
_refine_ls_wR_factor_gt 0.0484
_symmetry_cell_setting monoclinic
_symmetry_space_group_name_H-M 'P 21'
_symmetry_Int_Tables_number 4
loop_
_symmetry_equiv_pos_site_id
_symmetry_equiv_pos_as_xyz
1 x,y,z
2 -x,1/2+y,-z
_cell_length_a 11.596(3)
_cell_length_b 10.246(3)
_cell_length_c 12.934(3)
_cell_angle_alpha 90
_cell_angle_beta 114.18
_cell_angle_gamma 90
_cell_formula_units_Z 2
loop_
_atom_type_symbol
_atom_type_radius_bond
C 0.68
H 0.23
N 0.68
O 0.68
loop_
_atom_site_label
_atom_site_type_symbol
_atom_site_fract_x
_atom_site_fract_y
_atom_site_fract_z
O1 O -0.5561(2) -0.1477(3) -0.8850(2)
O2 O -0.3153(4) -0.0373(4) -1.0148(3)
O3 O -0.4861(3) -0.3052(3) -0.6142(2)
O4 O -0.5457(4) -0.1731(4) -0.5061(3)
O5 O -0.7585(3) -0.3180(3) -0.7213(2)
O6 O -0.8309(7) -0.5099(5) -0.7964(6)
O7 O -0.8006(2) -0.1205(3) -0.8817(2)
O8 O -0.9887(3) -0.2091(5) -0.9154(4)
O9 O -0.6494(3) -0.1584(3) -1.1270(2)
O10 O -0.7437(5) 0.0106(5) -1.2351(4)
O11 O -0.0758(3) -0.0959(4) -0.6647(3)
O12 O -0.3240(5) -0.0414(6) -0.5524(4)
O13 O -0.4373(4) 0.0598(4) -0.7064(4)
N1 N -0.3755(5) -0.0339(6) -0.6540(4)
C1 C -0.2846(6) -0.2505(6) -1.0677(4)
H1 H -0.29520 -0.21000 -1.13790
H2 H -0.34890 -0.31550 -1.08170
H3 H -0.20280 -0.29090 -1.03420
C2 C -0.2954(4) -0.1497(5) -0.9887(4)
C3 C -0.2818(4) -0.1969(5) -0.8757(4)
H4 H -0.19870 -0.23580 -0.83750
H5 H -0.34390 -0.26480 -0.88650
C4 C -0.2979(4) -0.0915(4) -0.7986(3)
H6 H -0.35600 -0.02590 -0.84790
C5 C -0.3586(4) -0.1461(4) -0.7219(3)
H7 H -0.29930 -0.20820 -0.66910
C6 C -0.4845(4) -0.2154(4) -0.7836(3)
H8 H -0.46630 -0.30240 -0.80460
C7 C -0.5637(4) -0.2334(4) -0.7151(3)
H9 H -0.58660 -0.14820 -0.69440
C8 C -0.6815(4) -0.3100(4) -0.7847(3)
H10 H -0.65710 -0.39840 -0.79680
C9 C -0.7524(4) -0.2455(4) -0.8986(4)
H11 H -0.82260 -0.30140 -0.94650
C10 C -0.6641(4) -0.2202(5) -0.9567(3)
H12 H -0.63630 -0.30400 -0.97510
C11 C -0.7257(4) -0.1416(6) -1.0637(3)
H13 H -0.81110 -0.17240 -1.10730
H14 H -0.72940 -0.05020 -1.04580
C12 C -0.4807(5) -0.2606(5) -0.5132(4)
C13 C -0.3843(5) -0.3328(6) -0.4181(4)
H15 H -0.38170 -0.30000 -0.34770
H16 H -0.30300 -0.32150 -0.42000
H17 H -0.40540 -0.42390 -0.42480
C14 C -0.8326(5) -0.4246(6) -0.7373(5)
C15 C -0.9138(5) -0.4144(7) -0.6728(5)
H18 H -0.96480 -0.49150 -0.68540
H19 H -0.96750 -0.33930 -0.69830
H20 H -0.86110 -0.40600 -0.59340
C16 C -0.9212(5) -0.1155(6) -0.8940(4)
C17 C -0.9568(6) 0.0191(7) -0.8761(6)
H21 H -1.04350 0.02020 -0.88580
H22 H -0.94650 0.07690 -0.93010
H23 H -0.90360 0.04730 -0.80070
C18 C -0.6663(5) -0.0757(6) -1.2095(4)
C19 C -0.5843(5) -0.1034(6) -1.2699(4)
H24 H -0.60090 -0.04080 -1.32950
H25 H -0.60170 -0.18960 -1.30160
H26 H -0.49720 -0.09770 -1.21760
C20 C -0.1781(4) -0.0224(5) -0.7272(4)
C21 C -0.1491(4) 0.1013(5) -0.7079(5)
H27 H -0.20220 0.17110 -0.74240
C22 C -0.0241(6) 0.1109(7) -0.6261(5)
H28 H 0.02020 0.18720 -0.59550
C23 C 0.0187(5) -0.0113(8) -0.6010(5)
C24 C 0.1418(6) -0.0723(10) -0.5283(7)
H29 H 0.20080 -0.00550 -0.48690
H30 H 0.17430 -0.11900 -0.57500
H31 H 0.13000 -0.13160 -0.47610
#END
