
#######################################################################
#
#                 Cambridge Crystallographic Data Centre
#                                CCDC
#
#######################################################################
#
# If this CIF has been generated from an entry in the Cambridge
# Structural Database, then it will include bibliographic, chemical,
# crystal, experimental, refinement or atomic coordinate data resulting
# from the CCDC's data processing and validation procedures.
#
#######################################################################

data_CSD_CIF_BAQLEK
_audit_creation_date 1999-11-09
_audit_creation_method CSD-ConQuest-V1
_database_code_CSD BAQLEK
_database_code_depnum_ccdc_archive 'CCDC 127321'
_chemical_formula_sum 'C19 H25 N3 O10'
_chemical_formula_moiety
;
C19 H25 N3 O10
;
_journal_coden_Cambridge 1078
_journal_year 1999
_journal_name_full 'CSD Communication(Private Communication) '
loop_
_publ_author_name
"K.Peseke"
"L.Goetze"
"H.Reinke"
_chemical_name_systematic
;
2,3,4-Tri-O-acetyl-6-(2-cyanoethyl)-6-nitro-(methyl-\a-D-gluco-nonapyranoside)
 urononitrile
;
_chemical_melting_point 426
_cell_volume   2262.150
_exptl_crystal_colour 'colorless'
_exptl_crystal_density_diffrn 1.337
_exptl_special_details
;
contribution from Fachbereich Chemie, Universitat Rostock,Germany

;
_exptl_crystal_description 'rod'
_diffrn_ambient_temperature ?
_diffrn_special_details
;
The study was carried out at room temperature,in the range 283-303K

;
#These two values have been output from a single CSD field.
_refine_ls_R_factor_gt 0.0556
_refine_ls_wR_factor_gt 0.0556
_symmetry_cell_setting orthorhombic
_symmetry_space_group_name_H-M 'P 21 21 21'
_symmetry_Int_Tables_number 19
loop_
_symmetry_equiv_pos_site_id
_symmetry_equiv_pos_as_xyz
1 x,y,z
2 1/2-x,-y,1/2+z
3 -x,1/2+y,1/2-z
4 1/2+x,1/2-y,-z
_cell_length_a 7.883(1)
_cell_length_b 14.284(1)
_cell_length_c 20.090(2)
_cell_angle_alpha 90
_cell_angle_beta 90
_cell_angle_gamma 90
_cell_formula_units_Z 4
loop_
_atom_type_symbol
_atom_type_radius_bond
C 0.68
H 0.23
N 0.68
O 0.68
loop_
_atom_site_label
_atom_site_type_symbol
_atom_site_fract_x
_atom_site_fract_y
_atom_site_fract_z
O1 O 0.0121(4) 0.3809(2) 0.92349(15)
O2 O 0.1670(4) 0.2619(2) 0.87163(16)
O3 O -0.1143(4) 0.1519(2) 0.85952(16)
O4 O -0.3295(6) 0.1112(3) 0.9267(2)
O5 O -0.3308(4) 0.2779(2) 0.78974(17)
O6 O -0.2597(6) 0.2973(3) 0.6820(2)
O7 O -0.1681(4) 0.4610(2) 0.76679(15)
O8 O -0.4391(6) 0.4987(4) 0.7823(3)
O9 O -0.0716(5) 0.6567(3) 0.81102(19)
O10 O 0.1588(6) 0.5820(3) 0.78776(19)
N1 N -0.3930(8) 0.4083(5) 0.9950(3)
N2 N 0.5283(9) 0.6751(5) 0.9899(4)
N3 N 0.0364(6) 0.5979(3) 0.8224(2)
C1 C -0.2879(9) 0.4621(5) 0.9961(3)
C2 C -0.1559(7) 0.5331(4) 0.9961(3)
H1 H -0.05040 0.50520 1.01100
H2 H -0.18610 0.58200 1.02740
C3 C -0.1288(7) 0.5770(4) 0.9269(2)
H3 H -0.23130 0.56790 0.90090
H4 H -0.11300 0.64380 0.93240
C4 C 0.3938(10) 0.6635(4) 0.9703(4)
C5 C 0.2263(8) 0.6496(4) 0.9460(3)
H5 H 0.20670 0.69200 0.90900
H6 H 0.14610 0.66530 0.98080
C6 C 0.1929(6) 0.5490(3) 0.9227(2)
H7 H 0.19590 0.50740 0.96080
H8 H 0.28250 0.53000 0.89240
C7 C 0.0203(6) 0.5386(3) 0.8873(2)
C8 C 0.0016(6) 0.4345(3) 0.8639(2)
H9 H 0.09790 0.41850 0.83520
C9 C -0.1626(6) 0.4088(3) 0.8281(2)
H10 H -0.26050 0.42490 0.85600
C10 C -0.1633(6) 0.3044(3) 0.8128(2)
H11 H -0.07760 0.28940 0.77920
C11 C -0.1313(6) 0.2491(3) 0.8763(2)
H12 H -0.22820 0.25690 0.90630
C12 C 0.0268(6) 0.2825(3) 0.9107(2)
H13 H 0.03770 0.24950 0.95320
C13 C 0.3251(8) 0.2763(5) 0.9057(3)
H14 H 0.41740 0.26160 0.87640
H15 H 0.33010 0.23630 0.94410
H16 H 0.33350 0.34040 0.91950
C14 C -0.3170(9) 0.5001(4) 0.7484(3)
C15 C -0.2997(9) 0.5459(4) 0.6815(3)
H17 H -0.40580 0.57410 0.66920
H18 H -0.26900 0.49970 0.64890
H19 H -0.21330 0.59320 0.68350
C16 C -0.3617(7) 0.2770(4) 0.7237(3)
C17 C -0.5437(9) 0.2502(6) 0.7100(4)
H20 H -0.56330 0.25000 0.66280
H21 H -0.61810 0.29470 0.73070
H22 H -0.56550 0.18900 0.72760
C18 C -0.2212(8) 0.0905(4) 0.8881(3)
C19 C -0.1845(10) -0.0068(4) 0.8643(3)
H23 H -0.26180 -0.04980 0.88500
H24 H -0.07020 -0.02340 0.87580
H25 H -0.19800 -0.00950 0.81690
#END
