
#######################################################################
#
#                 Cambridge Crystallographic Data Centre
#                                CCDC
#
#######################################################################
#
# If this CIF has been generated from an entry in the Cambridge
# Structural Database, then it will include bibliographic, chemical,
# crystal, experimental, refinement or atomic coordinate data resulting
# from the CCDC's data processing and validation procedures.
#
#######################################################################

data_CSD_CIF_BAQMUB
_audit_creation_date 1999-11-09
_audit_creation_method CSD-ConQuest-V1
_database_code_CSD BAQMUB
_database_code_depnum_ccdc_archive 'CCDC 130647'
_chemical_formula_sum 'C16 H15 N1 O5'
_chemical_formula_moiety
;
C16 H15 N1 O5
;
_journal_coden_Cambridge 1078
_journal_year 1999
_journal_name_full 'CSD Communication(Private Communication) '
loop_
_publ_author_name
"K.Peseke"
"L.Goetze"
"H.Reinke"
_chemical_name_systematic
;
(5E,4RS)-(+-)-4-(2-Furyl)-6-(2-hydroxyphenyl)-5-nitro-5-hexen-2-one
;
_chemical_melting_point 407
_cell_volume   1491.809
_exptl_crystal_colour 'yellow'
_exptl_crystal_density_diffrn 1.341
_exptl_special_details
;
contribution from Fachbereich Chemie, Universitat Rostock,Germany

;
_exptl_crystal_description 'prism'
_diffrn_ambient_temperature ?
_diffrn_special_details
;
The study was carried out at room temperature,in the range 283-303K

;
#These two values have been output from a single CSD field.
_refine_ls_R_factor_gt 0.0572
_refine_ls_wR_factor_gt 0.0572
_symmetry_cell_setting triclinic
_symmetry_space_group_name_H-M 'P -1'
_symmetry_Int_Tables_number 2
loop_
_symmetry_equiv_pos_site_id
_symmetry_equiv_pos_as_xyz
1 x,y,z
2 -x,-y,-z
_cell_length_a 9.654(1)
_cell_length_b 12.635(1)
_cell_length_c 13.557(1)
_cell_angle_alpha 102.15(1)
_cell_angle_beta 98.83(1)
_cell_angle_gamma 108.25(1)
_cell_formula_units_Z 4
loop_
_atom_type_symbol
_atom_type_radius_bond
C 0.68
H 0.23
N 0.68
O 0.68
loop_
_atom_site_label
_atom_site_type_symbol
_atom_site_fract_x
_atom_site_fract_y
_atom_site_fract_z
O1 O 0.5177(2) 0.39415(19) 0.91114(17)
O2 O 0.9204(3) 0.3825(2) 1.1662(2)
O3 O 0.9068(3) 0.2700(2) 0.8980(2)
O4 O 0.7566(3) 0.1098(2) 0.7922(2)
O5 O 0.2697(3) 0.1154(2) 0.73519(18)
N1 N 0.7831(3) 0.1949(2) 0.8648(2)
C1 C 0.6974(4) 0.5735(3) 0.9152(3)
H1 H 0.61250 0.58390 0.87720
H2 H 0.77130 0.57680 0.87470
H3 H 0.74010 0.63370 0.97940
C2 C 0.6484(4) 0.4588(3) 0.9373(2)
C3 C 0.7668(3) 0.4274(2) 0.9964(2)
H4 H 0.81030 0.48410 1.06370
H5 H 0.84600 0.43190 0.95940
C4 C 0.7095(3) 0.3057(2) 1.0129(2)
H6 H 0.61850 0.30020 1.03830
C5 C 0.6616(3) 0.2071(2) 0.9150(2)
C6 C 0.5244(3) 0.1331(3) 0.8673(2)
H7 H 0.51400 0.08100 0.80440
C7 C 0.8145(3) 0.2882(2) 1.0957(2)
C8 C 0.8142(5) 0.1924(3) 1.1190(3)
H8 H 0.74860 0.11720 1.08510
C9 C 0.9387(7) 0.2294(5) 1.2093(4)
H9 H 0.97240 0.18170 1.24260
C10 C 0.9922(6) 0.3389(6) 1.2337(4)
H10 H 1.07090 0.38450 1.29080
C11 C 0.3873(3) 0.1254(2) 0.9039(2)
C12 C 0.2593(3) 0.1172(2) 0.8344(2)
C13 C 0.1296(4) 0.1140(3) 0.8674(3)
H11 H 0.04620 0.11210 0.82140
C14 C 0.1240(4) 0.1137(3) 0.9672(3)
H12 H 0.03690 0.11220 0.98910
C15 C 0.2465(4) 0.1156(3) 1.0361(3)
H13 H 0.24070 0.11210 1.10330
C16 C 0.3774(4) 0.1225(3) 1.0047(2)
H14 H 0.46050 0.12540 1.05160
O6 O 0.0059(3) 0.0993(2) 0.60438(17)
O7 O -0.2629(3) 0.3143(2) 0.4138(2)
O8 O -0.3884(3) 0.2145(2) 0.6224(2)
O9 O -0.2429(3) 0.3743(2) 0.7307(2)
O10 O 0.2502(3) 0.3711(2) 0.78567(17)
N2 N -0.2661(3) 0.2914(2) 0.6569(2)
C17 C -0.1749(5) -0.0803(3) 0.5983(3)
H15 H -0.09060 -0.09090 0.63700
H16 H -0.21670 -0.14040 0.53390
H17 H -0.24970 -0.08380 0.63800
C18 C -0.1249(4) 0.0345(3) 0.5766(2)
C19 C -0.2420(3) 0.0658(2) 0.5167(2)
H18 H -0.32520 0.05590 0.55030
H19 H -0.27960 0.01230 0.44770
C20 C -0.1877(3) 0.1900(2) 0.5065(2)
H20 H -0.09630 0.19940 0.48080
C21 C -0.1423(3) 0.2837(2) 0.6074(2)
C22 C -0.0064(3) 0.3568(2) 0.6572(2)
H21 H 0.00290 0.40480 0.72200
C23 C -0.2962(3) 0.2064(3) 0.4252(2)
C24 C -0.4192(4) 0.1326(3) 0.3580(2)
H22 H -0.46210 0.05340 0.35000
C25 C -0.4735(5) 0.1998(6) 0.2994(3)
H23 H -0.56060 0.17300 0.24690
C26 C -0.3777(6) 0.3046(5) 0.3339(4)
H24 H -0.38510 0.36580 0.30820
C27 C 0.1319(3) 0.3699(2) 0.6204(2)
C28 C 0.2606(3) 0.3753(2) 0.6875(2)
C29 C 0.3901(3) 0.3811(3) 0.6531(3)
H25 H 0.47380 0.38080 0.69720
C30 C 0.3944(4) 0.3873(3) 0.5536(3)
H26 H 0.48110 0.39070 0.53040
C31 C 0.2709(4) 0.3884(3) 0.4877(3)
H27 H 0.27570 0.39540 0.42130
C32 C 0.1413(4) 0.3793(3) 0.5206(2)
H28 H 0.05810 0.37930 0.47570
H29 H 0.190(4) 0.119(3) 0.700(3)
H30 H 0.332(4) 0.374(3) 0.818(3)
#END
