
#######################################################################
#
#                 Cambridge Crystallographic Data Centre
#                                CCDC
#
#######################################################################
#
# If this CIF has been generated from an entry in the Cambridge
# Structural Database, then it will include bibliographic, chemical,
# crystal, experimental, refinement or atomic coordinate data resulting
# from the CCDC's data processing and validation procedures.
#
#######################################################################

data_CSD_CIF_BAQMAH
_audit_creation_date 1999-11-09
_audit_creation_method CSD-ConQuest-V1
_database_code_CSD BAQMAH
_database_code_depnum_ccdc_archive 'CCDC 129623'
_chemical_formula_sum 'C23 H29 N1 O13'
_chemical_formula_moiety
;
C23 H29 N1 O13
;
_journal_coden_Cambridge 1078
_journal_year 1999
_journal_name_full 'CSD Communication(Private Communication) '
loop_
_publ_author_name
"K.Peseke"
"L.Goetze"
"H.Reinke"
_chemical_name_systematic
;
7,8,9,11-Tetra-O-acetyl-6,10-anhydro-1,3,4,5-tetradesoxy-4-C-(2-furyl)-5-C-nit
ro-D-lyxo-D-talo-2-undecanulose
;
_chemical_melting_point 392
_cell_volume   1345.896
_exptl_crystal_colour 'colorless'
_exptl_crystal_density_diffrn 1.302
_exptl_special_details
;
contribution from Fachbereich Chemie, Universitat Rostock,Germany

;
_exptl_crystal_description 'part of flat needle'
_diffrn_ambient_temperature ?
_diffrn_special_details
;
The study was carried out at room temperature,in the range 283-303K

;
#These two values have been output from a single CSD field.
_refine_ls_R_factor_gt 0.0459
_refine_ls_wR_factor_gt 0.0459
_symmetry_cell_setting monoclinic
_symmetry_space_group_name_H-M 'P 21'
_symmetry_Int_Tables_number 4
loop_
_symmetry_equiv_pos_site_id
_symmetry_equiv_pos_as_xyz
1 x,y,z
2 -x,1/2+y,-z
_cell_length_a 11.719(2)
_cell_length_b 10.323(4)
_cell_length_c 12.538(2)
_cell_angle_alpha 90
_cell_angle_beta 117.46(1)
_cell_angle_gamma 90
_cell_formula_units_Z 2
loop_
_atom_type_symbol
_atom_type_radius_bond
C 0.68
H 0.23
N 0.68
O 0.68
loop_
_atom_site_label
_atom_site_type_symbol
_atom_site_fract_x
_atom_site_fract_y
_atom_site_fract_z
O1 O 0.4337(3) 0.4403(2) 0.6067(2)
O2 O 0.6566(5) 0.3265(4) 0.4699(3)
O3 O 0.5162(2) 0.6174(3) 0.8830(2)
O4 O 0.4784(4) 0.4951(3) 1.0117(3)
O5 O 0.2400(3) 0.6076(3) 0.7754(3)
O6 O 0.1416(4) 0.7892(4) 0.6817(4)
O7 O 0.1919(2) 0.4057(3) 0.6121(2)
O8 O 0.0018(3) 0.4922(4) 0.5776(3)
O9 O 0.3188(3) 0.4442(3) 0.3472(3)
O10 O 0.2331(4) 0.2699(4) 0.2383(3)
O11 O 0.9218(4) 0.4145(6) 0.8428(5)
O12 O 0.5782(5) 0.2510(5) 0.8124(5)
O13 O 0.6923(6) 0.3685(5) 0.9651(4)
N1 N 0.6362(5) 0.3485(6) 0.8584(5)
C1 C 0.6945(5) 0.5296(6) 0.4075(4)
H1 H 0.67950 0.48390 0.33560
H2 H 0.77920 0.56660 0.44300
H3 H 0.63190 0.59740 0.38820
C2 C 0.6833(4) 0.4378(5) 0.4944(4)
C3 C 0.7037(4) 0.4928(4) 0.6109(4)
H4 H 0.63960 0.55930 0.59560
H5 H 0.78740 0.53420 0.64880
C4 C 0.6966(4) 0.3941(4) 0.6992(4)
H6 H 0.63760 0.32540 0.65120
C5 C 0.8211(5) 0.3322(5) 0.7771(4)
C6 C 0.8558(6) 0.2096(7) 0.8011(6)
H7 H 0.80730 0.13630 0.76480
C7 C 0.9928(9) 0.2154(12) 0.9014(9)
H8 H 1.04530 0.14740 0.94570
C8 C 1.0187(10) 0.3371(16) 0.9105(9)
H9 H 1.10020 0.36890 0.96140
C9 C 0.6408(4) 0.4541(4) 0.7776(4)
H10 H 0.70100 0.52060 0.82850
C10 C 0.5095(4) 0.5166(4) 0.7096(3)
H11 H 0.52150 0.60190 0.68180
C11 C 0.4371(4) 0.5363(4) 0.7835(3)
H12 H 0.42270 0.45270 0.81240
C12 C 0.3097(4) 0.6021(4) 0.7062(3)
H13 H 0.32580 0.69050 0.68790
C13 C 0.2341(4) 0.5290(4) 0.5895(3)
H14 H 0.15880 0.58030 0.53650
C14 C 0.3163(4) 0.5049(4) 0.5274(3)
H15 H 0.33750 0.58840 0.50390
C15 C 0.2514(4) 0.4209(4) 0.4173(3)
H16 H 0.25730 0.33030 0.43970
H17 H 0.16140 0.44400 0.37170
C16 C 0.5323(5) 0.5835(5) 0.9940(4)
C17 C 0.6288(5) 0.6709(5) 1.0861(4)
H18 H 0.64010 0.64690 1.16440
H19 H 0.59900 0.75880 1.06940
H20 H 0.70930 0.66340 1.08400
C18 C 0.1579(5) 0.7077(6) 0.7538(5)
C19 C 0.0897(5) 0.6948(6) 0.8294(5)
H21 H 0.03140 0.76600 0.81330
H22 H 0.15160 0.69510 0.91290
H23 H 0.04250 0.61490 0.81030
C20 C 0.0723(4) 0.4000(6) 0.6030(4)
C21 C 0.0432(5) 0.2651(5) 0.6269(5)
H24 H -0.04180 0.26230 0.62000
H25 H 0.10460 0.23960 0.70650
H26 H 0.04820 0.20700 0.56940
C22 C 0.2988(5) 0.3640(5) 0.2579(4)
C23 C 0.3664(5) 0.3999(6) 0.1876(4)
H27 H 0.34680 0.33780 0.12460
H28 H 0.45740 0.40090 0.23940
H29 H 0.33880 0.48430 0.15320
#END
