
#######################################################################
#
#                 Cambridge Crystallographic Data Centre
#                                CCDC
#
#######################################################################
#
# If this CIF has been generated from an entry in the Cambridge
# Structural Database, then it will include bibliographic, chemical,
# crystal, experimental, refinement or atomic coordinate data resulting
# from the CCDC's data processing and validation procedures.
#
#######################################################################

data_CSD_CIF_BAQMIP
_audit_creation_date 1999-11-09
_audit_creation_method CSD-ConQuest-V1
_database_code_CSD BAQMIP
_database_code_depnum_ccdc_archive 'CCDC 127526'
_chemical_formula_sum 'C21 H29 N1 O12'
_chemical_formula_moiety
;
C21 H29 N1 O12
;
_journal_coden_Cambridge 1078
_journal_year 1999
_journal_name_full 'CSD Communication(Private Communication) '
loop_
_publ_author_name
"K.Peseke"
"L.Goetze"
"H.Reinke"
_chemical_name_systematic
;
3,4,5,7-Tetra-O-acetyl-2,6-anhydro-1-deoxy-1-(3-oxocyclohexyl)-1-C-nitro-D-gly
cero-D-manno-heptiol
;
_chemical_melting_point 409
_cell_volume   2479.353
_exptl_crystal_colour 'colorless'
_exptl_crystal_density_diffrn 1.306
_exptl_special_details
;
contribution from Fachbereich Chemie, Universitat Rostock,Germany

;
_exptl_crystal_description 'rod'
_diffrn_ambient_temperature ?
_diffrn_special_details
;
The study was carried out at room temperature,in the range 283-303K

;
#These two values have been output from a single CSD field.
_refine_ls_R_factor_gt 0.0499
_refine_ls_wR_factor_gt 0.0499
_symmetry_cell_setting orthorhombic
_symmetry_space_group_name_H-M 'P 21 21 21'
_symmetry_Int_Tables_number 19
loop_
_symmetry_equiv_pos_site_id
_symmetry_equiv_pos_as_xyz
1 x,y,z
2 1/2-x,-y,1/2+z
3 -x,1/2+y,1/2-z
4 1/2+x,1/2-y,-z
_cell_length_a 11.138(2)
_cell_length_b 11.547(1)
_cell_length_c 19.278(2)
_cell_angle_alpha 90
_cell_angle_beta 90
_cell_angle_gamma 90
_cell_formula_units_Z 4
loop_
_atom_type_symbol
_atom_type_radius_bond
C 0.68
H 0.23
N 0.68
O 0.68
loop_
_atom_site_label
_atom_site_type_symbol
_atom_site_fract_x
_atom_site_fract_y
_atom_site_fract_z
O1 O 0.2133(2) 0.4989(2) 0.42940(13)
O2 O 0.2370(3) 0.5278(3) 0.64242(15)
O3 O 0.2447(4) 0.3406(3) 0.64590(17)
O4 O 0.4568(3) 0.4564(2) 0.55298(13)
O5 O 0.5129(5) 0.2729(4) 0.5504(2)
O6 O 0.5808(3) 0.4657(3) 0.42103(14)
O7 O 0.6573(3) 0.6355(3) 0.3866(2)
O8 O 0.3908(3) 0.4218(2) 0.33271(14)
O9 O 0.5232(4) 0.4802(4) 0.25229(19)
O10 O 0.0770(3) 0.6247(3) 0.32944(16)
O11 O 0.1500(4) 0.7994(4) 0.3063(2)
O12 O -0.1367(4) 0.7051(4) 0.5153(2)
N1 N 0.2286(3) 0.4326(3) 0.61559(18)
C1 C 0.1878(3) 0.4262(3) 0.54076(18)
H1 H 0.19480 0.34540 0.52580
C2 C 0.2710(4) 0.4987(3) 0.49476(18)
H2 H 0.27550 0.57790 0.51270
C3 C 0.3984(4) 0.4495(3) 0.48590(18)
H3 H 0.39460 0.36880 0.47030
C4 C 0.4667(4) 0.5217(3) 0.4340(2)
H4 H 0.48120 0.59870 0.45370
C5 C 0.3960(4) 0.5347(3) 0.3664(2)
H5 H 0.43640 0.59040 0.33600
C6 C 0.2697(4) 0.5741(4) 0.3805(2)
H6 H 0.27220 0.65250 0.39990
C7 C 0.1914(5) 0.5752(4) 0.3159(2)
H7 H 0.23120 0.61930 0.27970
H8 H 0.18110 0.49660 0.29920
C8 C 0.0554(4) 0.4600(3) 0.5362(2)
H9 H 0.02900 0.43880 0.48940
C9 C 0.0307(4) 0.5900(4) 0.5438(3)
H10 H 0.06450 0.61730 0.58720
H11 H 0.06970 0.63150 0.50630
C10 C -0.1020(5) 0.6155(5) 0.5426(3)
C11 C -0.1835(5) 0.5385(5) 0.5806(3)
H12 H -0.26490 0.55230 0.56480
H13 H -0.18020 0.55820 0.62950
C12 C -0.1547(5) 0.4087(5) 0.5723(3)
H14 H -0.20200 0.36370 0.60480
H15 H -0.17480 0.38350 0.52570
C13 C -0.0206(4) 0.3891(4) 0.5860(2)
H16 H -0.00180 0.41100 0.63330
H17 H -0.00180 0.30760 0.58040
C14 C 0.5056(4) 0.3608(5) 0.5803(2)
C15 C 0.5481(5) 0.3803(5) 0.6532(2)
H18 H 0.53240 0.45900 0.66640
H19 H 0.63280 0.36550 0.65590
H20 H 0.50630 0.32880 0.68400
C16 C 0.6685(4) 0.5324(5) 0.3930(2)
C17 C 0.7735(5) 0.4617(5) 0.3721(3)
H21 H 0.75870 0.38190 0.38320
H22 H 0.84350 0.48800 0.39640
H23 H 0.78610 0.46930 0.32300
C18 C 0.4610(5) 0.4056(5) 0.2765(2)
C19 C 0.4478(7) 0.2878(4) 0.2482(3)
H24 H 0.39320 0.24450 0.27670
H25 H 0.52460 0.25010 0.24770
H26 H 0.41700 0.29210 0.20180
C20 C 0.0682(5) 0.7399(5) 0.3222(3)
C21 C -0.0572(5) 0.7817(5) 0.3369(4)
H27 H -0.10720 0.71690 0.34880
H28 H -0.08890 0.81940 0.29650
H29 H -0.05560 0.83550 0.37490
#END
