
#######################################################################
#
#                 Cambridge Crystallographic Data Centre
#                                CCDC
#
#######################################################################
#
# If this CIF has been generated from an entry in the Cambridge
# Structural Database, then it will include bibliographic, chemical,
# crystal, experimental, refinement or atomic coordinate data resulting
# from the CCDC's data processing and validation procedures.
#
#######################################################################

data_CSD_CIF_BAQNAI
_audit_creation_date 1999-11-09
_audit_creation_method CSD-ConQuest-V1
_database_code_CSD BAQNAI
_database_code_depnum_ccdc_archive 'CCDC 130648'
_chemical_formula_sum 'C13 H13 N1 O5'
_chemical_formula_moiety
;
C13 H13 N1 O5
;
_journal_coden_Cambridge 1078
_journal_year 1999
_journal_name_full 'CSD Communication(Private Communication) '
loop_
_publ_author_name
"K.Peseke"
"L.Goetze"
"H.Reinke"
_chemical_name_systematic
;
2-(2-Nitrobenzylidene)-acetoacetic acid ethyl ester
;
_chemical_melting_point 346
_cell_volume   1308.081
_exptl_crystal_colour 'yellowish'
_exptl_crystal_density_diffrn 1.337
_exptl_special_details
;
contribution from Fachbereich Chemie, Universitat Rostock,Germany

;
_exptl_crystal_description 'part of prism'
_diffrn_ambient_temperature ?
_diffrn_special_details
;
The study was carried out at room temperature,in the range 283-303K

;
#These two values have been output from a single CSD field.
_refine_ls_R_factor_gt 0.0319
_refine_ls_wR_factor_gt 0.0319
_symmetry_cell_setting monoclinic
_symmetry_space_group_name_H-M 'P 21/c'
_symmetry_Int_Tables_number 14
loop_
_symmetry_equiv_pos_site_id
_symmetry_equiv_pos_as_xyz
1 x,y,z
2 x,1/2-y,1/2+z
3 -x,-y,-z
4 -x,-1/2+y,-1/2-z
_cell_length_a 7.856(2)
_cell_length_b 18.940(3)
_cell_length_c 8.801(1)
_cell_angle_alpha 90
_cell_angle_beta 92.69(1)
_cell_angle_gamma 90
_cell_formula_units_Z 4
loop_
_atom_type_symbol
_atom_type_radius_bond
C 0.68
H 0.23
N 0.68
O 0.68
loop_
_atom_site_label
_atom_site_type_symbol
_atom_site_fract_x
_atom_site_fract_y
_atom_site_fract_z
O1 O 0.48358(16) 0.16453(7) 0.21176(14)
O2 O 0.55718(19) 0.06268(8) 0.32594(16)
O3 O 0.0843(2) 0.15457(9) 0.20004(18)
O4 O 0.3368(2) 0.04587(11) 0.96220(18)
N1 N 0.3158(2) 0.07812(10) 0.84289(19)
C1 C 0.2948(2) 0.11857(9) 0.38170(19)
O5 O 0.42661(19) 0.11336(9) 0.78631(18)
C2 C 0.6581(3) 0.23239(17) 0.0552(4)
H1 H 0.76490 0.23400 0.00650
H2 H 0.65140 0.27140 0.12440
H3 H 0.56620 0.23530 -0.02040
C3 C 0.6457(3) 0.16578(13) 0.1394(3)
H4 H 0.65310 0.12610 0.07030
H5 H 0.73850 0.16230 0.21560
C4 C 0.4578(2) 0.11017(10) 0.3041(2)
C5 C 0.2770(2) 0.08255(9) 0.5097(2)
H6 H 0.36810 0.05400 0.54140
C6 C 0.1675(2) 0.17014(10) 0.3134(2)
C7 C 0.1514(3) 0.23929(12) 0.3894(3)
H7 H 0.06650 0.26710 0.33500
H8 H 0.25880 0.26350 0.39060
H9 H 0.11820 0.23220 0.49180
C8 C 0.1294(2) 0.08276(9) 0.60702(19)
C9 C 0.1464(2) 0.07597(9) 0.7652(2)
C10 C 0.0090(3) 0.07029(10) 0.8564(2)
H10 H 0.02570 0.06560 0.96130
C11 C -0.1522(3) 0.07161(11) 0.7906(2)
H11 H -0.24600 0.06770 0.85070
C12 C -0.1754(2) 0.07872(10) 0.6358(2)
H12 H -0.28510 0.08050 0.59150
C13 C -0.0370(2) 0.0833(1) 0.5455(2)
H13 H -0.05540 0.08680 0.44060
#END
