
#######################################################################
#
#                 Cambridge Crystallographic Data Centre
#                                CCDC
#
#######################################################################
#
# If this CIF has been generated from an entry in the Cambridge
# Structural Database, then it will include bibliographic, chemical,
# crystal, experimental, refinement or atomic coordinate data resulting
# from the CCDC's data processing and validation procedures.
#
#######################################################################

data_CSD_CIF_BAQSIW
_audit_creation_date 2003-09-24
_audit_creation_method CSD-ConQuest-V1
_database_code_CSD BAQSIW
_database_code_depnum_ccdc_archive 'CCDC 212302'
_chemical_formula_sum 'C16 H25 N1 O6'
_chemical_formula_moiety
;
C16 H25 N1 O6
;
_journal_coden_Cambridge 1336
_journal_volume 5
_journal_year 2003
_journal_page_first 1475
_journal_name_full 'Org.Lett. '
loop_
_publ_author_name
"F.Cardona"
"A.Goti"
"A.Brandi"
_chemical_name_systematic
;
7-t-Butoxy-3,13,14-trioxa-4-azatricyclo(9.2.1.0^2,9^.0^4,8^)tetradec-10-yl 
acetate
;
_cell_volume   1703.507
_exptl_crystal_colour 'white'
_exptl_crystal_density_diffrn 1.276
_exptl_crystal_description 'prismatic'
_diffrn_ambient_temperature 293
#These two values have been output from a single CSD field.
_refine_ls_R_factor_gt 0.0408
_refine_ls_wR_factor_gt 0.0408
_symmetry_cell_setting orthorhombic
_symmetry_space_group_name_H-M 'P 21 21 21'
_symmetry_Int_Tables_number 19
loop_
_symmetry_equiv_pos_site_id
_symmetry_equiv_pos_as_xyz
1 x,y,z
2 1/2-x,-y,1/2+z
3 1/2+x,1/2-y,-z
4 -x,1/2+y,1/2-z
_cell_length_a 5.593
_cell_length_b 8.325
_cell_length_c 36.586(1)
_cell_angle_alpha 90
_cell_angle_beta 90
_cell_angle_gamma 90
_cell_formula_units_Z 4
loop_
_atom_type_symbol
_atom_type_radius_bond
C 0.68
H 0.23
N 0.68
O 0.68
loop_
_atom_site_label
_atom_site_type_symbol
_atom_site_fract_x
_atom_site_fract_y
_atom_site_fract_z
N1 N 0.4997(5) 0.2799(3) 0.88001(5)
O1 O 0.7475(4) -0.2365(3) 0.83466(9)
O2 O 0.5585(3) -0.0150(2) 0.81691(5)
O3 O 0.9257(4) 0.3958(3) 0.77337(5)
O4 O 0.5884(3) 0.2499(2) 0.77030(5)
O5 O 0.4739(3) 0.3530(2) 0.84409(5)
O6 O 0.7931(4) 0.1209(3) 0.94117(5)
C1 C 0.3222(5) -0.2384(4) 0.83124(9)
H1 H 0.20560 -0.16090 0.82350
H2 H 0.29270 -0.26750 0.85620
H3 H 0.31110 -0.33230 0.81610
C2 C 0.5641(5) -0.1685(3) 0.82799(7)
C3 C 0.7835(5) 0.0672(3) 0.81133(7)
H4 H 0.919(6) -0.006(4) 0.8101(8)
C4 C 0.7764(5) 0.1345(4) 0.77282(7)
H5 H 0.757(6) 0.042(4) 0.7550(9)
C5 C 0.9968(6) 0.2337(4) 0.76440(8)
H6 H 1.037(6) 0.227(4) 0.7391(9)
H7 H 1.149(6) 0.200(4) 0.7790(8)
C6 C 0.6902(5) 0.3842(3) 0.78742(7)
H8 H 0.592(5) 0.485(3) 0.7802(7)
C7 C 0.7083(5) 0.3599(3) 0.82848(6)
H9 H 0.793(6) 0.452(3) 0.8399(7)
C8 C 0.8226(5) 0.2015(3) 0.83956(6)
H10 H 0.984(5) 0.217(3) 0.8421(6)
C9 C 0.7092(5) 0.1692(3) 0.87732(7)
H11 H 0.645(5) 0.061(3) 0.8789(7)
C10 C 0.5720(11) 0.4049(4) 0.90722(9)
H12 H 0.546(8) 0.500(5) 0.8972(10)
H13 H 0.474(8) 0.396(6) 0.9281(13)
C11 C 0.8313(10) 0.3842(5) 0.91598(10)
H14 H 0.859(8) 0.417(5) 0.9409(12)
H15 H 0.930(8) 0.460(5) 0.8989(12)
C12 C 0.8719(6) 0.2097(4) 0.90986(7)
H16 H 1.053(6) 0.175(4) 0.9035(8)
C13 C 0.9536(6) 0.0043(4) 0.95645(8)
C14 C 0.8114(9) -0.0685(6) 0.98758(12)
H17 H 0.67570 -0.12490 0.97790
H18 H 0.75760 0.01530 1.00360
H19 H 0.91070 -0.14200 1.00090
C15 C 1.1612(8) 0.0902(7) 0.97385(12)
H20 H 1.10250 0.16770 0.99110
H21 H 1.25260 0.14400 0.95530
H22 H 1.26090 0.01380 0.98630
C16 C 1.0358(16) -0.1160(6) 0.92929(14)
H23 H 0.89980 -0.16850 0.91870
H24 H 1.13510 -0.19420 0.94120
H25 H 1.12580 -0.06310 0.91050
#END
