
#######################################################################
#
#                 Cambridge Crystallographic Data Centre
#                                CCDC
#
#######################################################################
#
# If this CIF has been generated from an entry in the Cambridge
# Structural Database, then it will include bibliographic, chemical,
# crystal, experimental, refinement or atomic coordinate data resulting
# from the CCDC's data processing and validation procedures.
#
#######################################################################

data_CSD_CIF_BARPEP
_audit_creation_date 1982-05-11
_audit_creation_method CSD-ConQuest-V1
_database_code_CSD BARPEP
_database_code_depnum_ccdc_archive 'CCDC 1106198'
_chemical_formula_sum 'C21 H26 N2 O6'
_chemical_formula_moiety
;
C21 H26 N2 O6
;
_journal_coden_Cambridge 188
_journal_year 1981
_journal_page_first 1473
_journal_name_full 'J.Chem.Soc.,Perkin Trans.2 '
loop_
_publ_author_name
"K.D.Croft"
"E.L.Ghisalberti"
"P.R.Jefferies"
"A.D.Stuart"
"C.L.Raston"
"A.H.White"
_chemical_name_systematic
;
2,6,6-Trimethyl-8-(3,5-dinitrobenzoato)-tricyclo(5.3.1.0^5,11^)undecane
;
_chemical_melting_point 427.15
_cell_volume   2032.856
_exptl_crystal_density_diffrn 1.32
_exptl_special_details
;
Melting point range 427.15-428.15K

;
_diffrn_ambient_temperature ?
_diffrn_special_details
;
The study was carried out at room temperature,in the range 283-303K

;
#These two values have been output from a single CSD field.
_refine_ls_R_factor_gt 0.046
_refine_ls_wR_factor_gt 0.046
_symmetry_cell_setting orthorhombic
_symmetry_space_group_name_H-M 'P 21 21 21'
_symmetry_Int_Tables_number 19
loop_
_symmetry_equiv_pos_site_id
_symmetry_equiv_pos_as_xyz
1 x,y,z
2 1/2+x,1/2-y,-z
3 -x,1/2+y,1/2-z
4 1/2-x,-y,1/2+z
_cell_length_a 36.17(1)
_cell_length_b 9.112(3)
_cell_length_c 6.168(2)
_cell_angle_alpha 90
_cell_angle_beta 90
_cell_angle_gamma 90
_cell_formula_units_Z 4
loop_
_atom_type_symbol
_atom_type_radius_bond
C 0.68
H 0.23
N 0.68
O 0.68
loop_
_atom_site_label
_atom_site_type_symbol
_atom_site_fract_x
_atom_site_fract_y
_atom_site_fract_z
C1 C 0.09520 -0.49660 0.66000
C2 C 0.11860 -0.35650 0.63130
C3 C 0.08140 -0.26170 0.63370
C4 C 0.06640 -0.20870 0.42030
C5 C 0.08420 -0.13700 0.79660
C6 C 0.06200 -0.40580 0.73140
C7 C 0.02550 -0.46810 0.65170
C8 C 0.02880 -0.63860 0.65130
C9 C 0.05900 -0.69650 0.49500
C10 C 0.04320 -0.76310 0.28870
C11 C 0.08580 -0.57190 0.44500
C12 C 0.12120 -0.60430 0.31670
C13 C 0.13780 -0.45430 0.25140
C14 C 0.14730 -0.36360 0.45260
H1 H 0.10500 -0.56700 0.78600
H2 H 0.13300 -0.33300 0.77300
H3 H 0.06600 -0.27200 0.27800
H4 H 0.04400 -0.15600 0.44500
H5 H 0.07800 -0.13300 0.35200
H6 H 0.06100 -0.10200 0.79900
H7 H 0.09900 -0.13900 0.95300
H8 H 0.09900 -0.05900 0.75300
H9 H 0.06300 -0.38700 0.89400
H10 H 0.00600 -0.42100 0.74100
H11 H 0.02000 -0.43300 0.49800
H12 H 0.03300 -0.66800 0.83300
H13 H 0.00400 -0.67900 0.60200
H14 H 0.07400 -0.77500 0.56700
H15 H 0.03100 -0.81400 0.32100
H16 H 0.02600 -0.68700 0.15100
H17 H 0.06300 -0.81200 0.20100
H18 H 0.07100 -0.51200 0.36700
H19 H 0.14200 -0.65200 0.41200
H20 H 0.11700 -0.66300 0.17000
H21 H 0.16500 -0.47000 0.17900
H22 H 0.11900 -0.40100 0.15700
H23 H 0.16900 -0.40400 0.53300
O1 O 0.15670 -0.21670 0.37000
C15 C 0.18190 -0.14070 0.48060
O2 O 0.19511 -0.17630 0.65090
C16 C 0.19250 -0.00140 0.36710
C17 C 0.17710 0.04050 0.17020
C18 C 0.18820 0.17260 0.07950
N1 N 0.17150 0.21900 -0.12630
O3 O 0.18220 0.33010 -0.21150
O4 O 0.14620 0.14350 -0.20220
C19 C 0.21370 0.26330 0.17250
C20 C 0.22840 0.21770 0.37040
N2 N 0.25530 0.31360 0.47730
O5 O 0.26140 0.43210 0.39740
O6 O 0.26930 0.27160 0.64470
C21 C 0.21870 0.08760 0.46840
H24 H 0.16100 -0.00800 0.10800
H25 H 0.21900 0.36100 0.11000
H26 H 0.22900 0.05800 0.62700
#END
