
#######################################################################
#
#                 Cambridge Crystallographic Data Centre
#                                CCDC
#
#######################################################################
#
# If this CIF has been generated from an entry in the Cambridge
# Structural Database, then it will include bibliographic, chemical,
# crystal, experimental, refinement or atomic coordinate data resulting
# from the CCDC's data processing and validation procedures.
#
#######################################################################

data_CSD_CIF_BARTAQ
_audit_creation_date 2003-09-24
_audit_creation_method CSD-ConQuest-V1
_database_code_CSD BARTAQ
_database_code_depnum_ccdc_archive 'CCDC 212104'
_chemical_formula_sum 'C34 H37 N3 O7'
_chemical_formula_moiety
;
C34 H37 N3 O7
;
_journal_coden_Cambridge 1336
_journal_volume 5
_journal_year 2003
_journal_page_first 665
_journal_name_full 'Org.Lett. '
loop_
_publ_author_name
"V.Nair"
"S.Bindu"
"V.Sreekumar"
"N.P.Rath"
_chemical_name_systematic
;
Dimethyl 
2-((1,3-dimesitylimidazolidin-2-ylidene)(3-nitrophenyl)methoxy)but-2-enedioate

;
_chemical_melting_point 422.15
_cell_volume   3132.627
_exptl_crystal_density_diffrn 1.271
_exptl_special_details
;
Melting point range 422.15-423.15K

;
_diffrn_ambient_temperature 170
#These two values have been output from a single CSD field.
_refine_ls_R_factor_gt 0.049
_refine_ls_wR_factor_gt 0.049
_symmetry_cell_setting monoclinic
_symmetry_space_group_name_H-M 'P 21/c'
_symmetry_Int_Tables_number 14
loop_
_symmetry_equiv_pos_site_id
_symmetry_equiv_pos_as_xyz
1 x,y,z
2 -x,1/2+y,1/2-z
3 -x,-y,-z
4 x,-1/2-y,-1/2+z
_cell_length_a 8.3507(2)
_cell_length_b 16.5312(3)
_cell_length_c 22.7552(5)
_cell_angle_alpha 90
_cell_angle_beta 94.256(1)
_cell_angle_gamma 90
_cell_formula_units_Z 4
loop_
_atom_type_symbol
_atom_type_radius_bond
C 0.68
H 0.23
N 0.68
O 0.68
loop_
_atom_site_label
_atom_site_type_symbol
_atom_site_fract_x
_atom_site_fract_y
_atom_site_fract_z
C1 C 0.3136(3) 0.1949(2) 0.0647(1)
C2 C 0.4240(3) 0.1669(2) 0.0309(1)
C3 C 0.3800(4) 0.1137(2) -0.0194(1)
O1 O 0.2461(2) 0.0990(1) -0.0401(1)
O2 O 0.5129(2) 0.0817(1) -0.0408(1)
C4 C 0.4825(4) 0.0250(2) -0.0888(1)
C5 C 0.1382(4) 0.1731(2) 0.0593(1)
O3 O 0.0313(2) 0.2190(1) 0.0449(1)
O4 O 0.1198(2) 0.0962(1) 0.0752(1)
C6 C -0.0438(4) 0.0659(2) 0.0686(2)
O5 O 0.3398(2) 0.2485(1) 0.1105(1)
C7 C 0.5016(3) 0.2639(2) 0.1320(1)
C8 C 0.5488(3) 0.3424(2) 0.1273(1)
N1 N 0.4769(3) 0.3968(1) 0.0870(1)
C9 C 0.5353(3) 0.4795(2) 0.1006(1)
C10 C 0.6907(3) 0.4647(2) 0.1384(1)
N2 N 0.6664(3) 0.3825(1) 0.1619(1)
C11 C 0.7147(3) 0.3650(2) 0.2222(1)
C12 C 0.8800(3) 0.3638(2) 0.2385(1)
C13 C 0.9295(3) 0.3504(2) 0.2972(1)
C14 C 0.8219(3) 0.3362(2) 0.3396(1)
C15 C 0.6601(3) 0.3367(2) 0.3217(1)
C16 C 0.6026(3) 0.3521(2) 0.2639(1)
C17 C 0.4234(3) 0.3570(2) 0.2488(1)
C18 C 1.0006(3) 0.3769(2) 0.1933(1)
C19 C 0.8804(4) 0.3207(2) 0.4032(1)
C20 C 0.4262(3) 0.3744(2) 0.0276(1)
C21 C 0.5381(3) 0.3458(2) -0.0101(1)
C22 C 0.4826(3) 0.3228(2) -0.0669(1)
C23 C 0.3213(4) 0.3288(2) -0.0868(1)
C24 C 0.2147(3) 0.3604(2) -0.0488(1)
C25 C 0.2646(3) 0.3842(2) 0.0085(1)
C26 C 0.1470(3) 0.4172(2) 0.0492(1)
C27 C 0.2648(4) 0.3015(2) -0.1482(1)
C28 C 0.7147(3) 0.3420(2) 0.0084(1)
C29 C 0.5766(3) 0.1996(2) 0.1681(1)
C30 C 0.7435(3) 0.1939(2) 0.1783(1)
C31 C 0.8081(3) 0.1322(2) 0.2138(1)
C32 C 0.7168(4) 0.0740(2) 0.2387(1)
C33 C 0.5523(4) 0.0786(2) 0.2274(1)
C34 C 0.4819(3) 0.1400(2) 0.1928(1)
N3 N 0.9847(3) 0.1280(2) 0.2236(1)
O6 O 1.0433(3) 0.0719(2) 0.2537(1)
O7 O 1.0667(2) 0.1795(2) 0.2017(1)
H1 H 0.53330 0.18140 0.03940
H2 H 0.41910 -0.02050 -0.07560
H3 H 0.58480 0.00490 -0.10150
H4 H 0.42300 0.05220 -0.12190
H5 H -0.11410 0.10190 0.08920
H6 H -0.04760 0.01140 0.08540
H7 H -0.08010 0.06390 0.02670
H8 H 0.45740 0.51020 0.12250
H9 H 0.55560 0.50930 0.06410
H10 H 0.78490 0.46650 0.11440
H11 H 0.70530 0.50500 0.17050
H12 H 1.04110 0.35100 0.30880
H13 H 0.58500 0.32610 0.35010
H14 H 0.38280 0.30360 0.23620
H15 H 0.40120 0.39600 0.21670
H16 H 0.37010 0.37460 0.28350
H17 H 1.01130 0.43500 0.18590
H18 H 0.96420 0.34940 0.15660
H19 H 1.10490 0.35490 0.20810
H20 H 0.79470 0.33370 0.42880
H21 H 0.97420 0.35480 0.41370
H22 H 0.91030 0.26370 0.40810
H23 H 0.55710 0.30240 -0.09280
H24 H 0.10480 0.36600 -0.06220
H25 H 0.03900 0.41670 0.02920
H26 H 0.17670 0.47280 0.06020
H27 H 0.14860 0.38360 0.08470
H28 H 0.15770 0.32360 -0.15880
H29 H 0.26050 0.24230 -0.14940
H30 H 0.33970 0.32100 -0.17620
H31 H 0.73410 0.30000 0.03850
H32 H 0.75050 0.39440 0.02460
H33 H 0.77450 0.32910 -0.02590
H34 H 0.81170 0.23170 0.16100
H35 H 0.76500 0.03230 0.26270
H36 H 0.48600 0.03900 0.24370
H37 H 0.36840 0.14180 0.18570
#END
