
#######################################################################
#
#                 Cambridge Crystallographic Data Centre
#                                CCDC
#
#######################################################################
#
# If this CIF has been generated from an entry in the Cambridge
# Structural Database, then it will include bibliographic, chemical,
# crystal, experimental, refinement or atomic coordinate data resulting
# from the CCDC's data processing and validation procedures.
#
#######################################################################

data_CSD_CIF_BASBAY
_audit_creation_date 1982-05-11
_audit_creation_method CSD-ConQuest-V1
_database_code_CSD BASBAY
_database_code_depnum_ccdc_archive 'CCDC 1106245'
_chemical_formula_sum 'C12 H11 N3 O6'
_chemical_formula_moiety
;
C12 H11 N3 O6
;
_journal_coden_Cambridge 188
_journal_year 1981
_journal_page_first 1454
_journal_name_full 'J.Chem.Soc.,Perkin Trans.2 '
loop_
_publ_author_name
"B.Vickery"
"G.R.Willey"
"M.G.B.Drew"
_chemical_name_systematic
;
2,2-Dimethyl-1,3-dioxan-4,5,6-trione-5-(2-nitrophenylhydrazone)
;
_chemical_melting_point 437.15
_cell_volume   1276.360
_exptl_crystal_colour 'amber'
_exptl_crystal_density_diffrn 1.52
_exptl_special_details
;
Melting point range 437.15-438.15K

;
_diffrn_ambient_temperature ?
_diffrn_special_details
;
The study was carried out at room temperature,in the range 283-303K

;
#These two values have been output from a single CSD field.
_refine_ls_R_factor_gt 0.069
_refine_ls_wR_factor_gt 0.069
_symmetry_cell_setting monoclinic
_symmetry_space_group_name_H-M 'P 21/a'
_symmetry_Int_Tables_number 14
loop_
_symmetry_equiv_pos_site_id
_symmetry_equiv_pos_as_xyz
1 x,y,z
2 1/2-x,1/2+y,-z
3 -x,-y,-z
4 -1/2+x,-1/2-y,z
_cell_length_a 7.178(7)
_cell_length_b 13.976(12)
_cell_length_c 13.042(11)
_cell_angle_alpha 90
_cell_angle_beta 102.7(1)
_cell_angle_gamma 90
_cell_formula_units_Z 4
loop_
_atom_type_symbol
_atom_type_radius_bond
C 0.68
N 0.68
O 0.68
loop_
_atom_site_label
_atom_site_type_symbol
_atom_site_fract_x
_atom_site_fract_y
_atom_site_fract_z
C1 C 0.46550 0.23630 0.59290
C2 C 0.38170 0.30150 0.51780
C3 C 0.27570 0.26860 0.42190
C4 C 0.25050 0.17040 0.40050
C5 C 0.33770 0.10640 0.47880
C6 C 0.43950 0.13970 0.57330
N1 N 0.14370 0.13480 0.30420
N2 N 0.15480 0.04320 0.28400
C7 C 0.04280 0.00570 0.19980
C8 C 0.07710 -0.09610 0.17960
O1 O -0.05220 -0.13850 0.10350
C9 C -0.23870 -0.09610 0.07460
O2 O -0.22070 0.00520 0.05230
C10 C -0.10150 0.05810 0.12700
O3 O 0.21820 -0.14030 0.21990
C11 C -0.33360 -0.14180 -0.02720
C12 C -0.33860 -0.10860 0.16250
O4 O -0.12130 0.14440 0.12710
N3 N 0.19010 0.34210 0.34560
O5 O 0.06770 0.31820 0.26860
O6 O 0.24460 0.42460 0.36030
#END
