
#######################################################################
#
#                 Cambridge Crystallographic Data Centre
#                                CCDC
#
#######################################################################
#
# If this CIF has been generated from an entry in the Cambridge
# Structural Database, then it will include bibliographic, chemical,
# crystal, experimental, refinement or atomic coordinate data resulting
# from the CCDC's data processing and validation procedures.
#
#######################################################################

data_CSD_CIF_BASCAC
_audit_creation_date 2017-06-05
_audit_creation_method CSD-ConQuest-V1
_database_code_CSD BASCAC
_database_code_depnum_ccdc_archive 'CCDC 1535095'
_chemical_formula_sum 'C14 H9 N3 O3'
_chemical_formula_moiety
;
C14 H9 N3 O3
;
_journal_coden_Cambridge 1127
_journal_volume 27
_journal_year 2017
_journal_page_first 3003
_journal_name_full 'Bioorg.Med.Chem.Lett. '
loop_
_publ_author_name
"E.V.Verbitskiy"
"S.A.Baskakova"
"N.A.Gerasimova"
"N.P.Evstigneeva"
"N.V.Zil'berberg"
"N.V.Kungurov"
"M.A.Kravchenko"
"S.N.Skornyakov"
"M.G.Pervova"
"G.L.Rusinov"
"O.N.Chupakhin"
"V.N.Charushin"
_chemical_name_systematic
;
4-(5-nitrofuran-2-yl)-5-phenylpyrimidine
;
_cell_volume   2465.659
_exptl_crystal_colour 'light yellow'
_exptl_crystal_density_diffrn 1.44
_exptl_crystal_description 'prism'
_diffrn_ambient_temperature 295
#These two values have been output from a single CSD field.
_refine_ls_R_factor_gt 0.037
_refine_ls_wR_factor_gt 0.037
_symmetry_cell_setting monoclinic
_symmetry_space_group_name_H-M 'C 2/c'
_symmetry_Int_Tables_number 15
loop_
_symmetry_equiv_pos_site_id
_symmetry_equiv_pos_as_xyz
1 x,y,z
2 -x,y,1/2-z
3 1/2+x,1/2+y,z
4 1/2-x,1/2+y,1/2-z
5 -x,-y,-z
6 x,-y,-1/2+z
7 -1/2-x,-1/2-y,-z
8 -1/2+x,-1/2-y,-1/2+z
_cell_length_a 23.460(14)
_cell_length_b 6.450(9)
_cell_length_c 19.405(16)
_cell_angle_alpha 90
_cell_angle_beta 122.89(8)
_cell_angle_gamma 90
_cell_formula_units_Z 8
loop_
_atom_type_symbol
_atom_type_radius_bond
C 0.68
H 0.23
N 0.68
O 0.68
loop_
_atom_site_label
_atom_site_type_symbol
_atom_site_fract_x
_atom_site_fract_y
_atom_site_fract_z
O1 O 0.21551(4) 0.96812(12) 0.38811(5)
N1 N 0.24116(5) 0.99316(14) 0.53639(6)
C1 C 0.28187(6) 1.00008(16) 0.44857(7)
O2 O 0.10123(5) 0.90104(19) 0.25153(6)
N2 N 0.15041(6) 0.91688(17) 0.24641(7)
C2 C 0.25183(8) 1.01127(18) 0.61038(9)
H1 H 0.21410 0.99500 0.61390
O3 O 0.14860(5) 0.90124(18) 0.18250(5)
N3 N 0.31007(6) 1.04986(18) 0.68002(7)
C3 C 0.31996(6) 1.00484(19) 0.41565(7)
H2 H 0.36660 1.02570 0.44400
C4 C 0.36253(7) 1.0783(2) 0.67284(8)
H3 H 0.40450 1.10620 0.72020
C5 C 0.35876(6) 1.06907(18) 0.59923(7)
C6 C 0.29513(6) 1.02085(16) 0.53097(7)
C7 C 0.41942(6) 1.11623(19) 0.59711(6)
C8 C 0.46743(7) 0.9659(2) 0.61382(8)
H4 H 0.46220 0.83230 0.62760
C9 C 0.52259(7) 1.0132(3) 0.61008(9)
H5 H 0.55410 0.91080 0.62010
C10 C 0.53150(6) 1.2098(3) 0.59179(9)
H6 H 0.56910 1.24140 0.58940
C11 C 0.48534(7) 1.3599(2) 0.57697(10)
H7 H 0.49190 1.49430 0.56540
C12 C 0.42892(6) 1.3139(2) 0.57904(8)
H8 H 0.39730 1.41670 0.56820
C13 C 0.27635(6) 0.97255(19) 0.33093(8)
H9 H 0.28770 0.96640 0.29190
C14 C 0.21473(6) 0.95264(18) 0.31875(7)
#END
