
#######################################################################
#
#                 Cambridge Crystallographic Data Centre
#                                CCDC
#
#######################################################################
#
# If this CIF has been generated from an entry in the Cambridge
# Structural Database, then it will include bibliographic, chemical,
# crystal, experimental, refinement or atomic coordinate data resulting
# from the CCDC's data processing and validation procedures.
#
#######################################################################

data_CSD_CIF_BASKAI
_audit_creation_date 2003-09-24
_audit_creation_method CSD-ConQuest-V1
_database_code_CSD BASKAI
_database_code_depnum_ccdc_archive 'CCDC 202379'
_chemical_formula_sum 'C14 H17 N4 O2'
_chemical_formula_moiety
;
C14 H17 N4 O2
;
_journal_coden_Cambridge 440
_journal_volume 27
_journal_year 2003
_journal_page_first 805
_journal_name_full 'New J.Chem. '
loop_
_publ_author_name
"H.Nagashima"
"N.Hashimoto"
"H.Inoue"
"N.Yoshioka"
_chemical_name_systematic
;
2-(4-Azaindol-2-yl)-4,4,5,5-tetramethyl-4,5-dihydro-1H-imidazoline-1-oxyl-3-ox
ide radical
;
_chemical_melting_point 464.15
_cell_volume   5627.208
_exptl_crystal_colour 'dark blue'
_exptl_crystal_density_diffrn 1.29
_exptl_special_details
;
Melts with decomposition.

;
_exptl_crystal_description 'needle'
_exptl_crystal_preparation 'methanol'
_diffrn_ambient_temperature 297.2
#These two values have been output from a single CSD field.
_refine_ls_R_factor_gt 0.0492
_refine_ls_wR_factor_gt 0.0492
_symmetry_cell_setting monoclinic
_symmetry_space_group_name_H-M 'C 2/c'
_symmetry_Int_Tables_number 15
loop_
_symmetry_equiv_pos_site_id
_symmetry_equiv_pos_as_xyz
1 x,y,z
2 x,-y,1/2+z
3 1/2+x,1/2+y,z
4 1/2+x,1/2-y,1/2+z
5 -x,-y,-z
6 -x,y,-1/2-z
7 -1/2-x,-1/2-y,-z
8 -1/2-x,-1/2+y,-1/2-z
_cell_length_a 19.426(2)
_cell_length_b 14.881(3)
_cell_length_c 21.824(2)
_cell_angle_alpha 90
_cell_angle_beta 116.880(7)
_cell_angle_gamma 90
_cell_formula_units_Z 16
loop_
_atom_type_symbol
_atom_type_radius_bond
C 0.68
H 0.23
N 0.68
O 0.68
loop_
_atom_site_label
_atom_site_type_symbol
_atom_site_fract_x
_atom_site_fract_y
_atom_site_fract_z
O1 O 0.98722(9) -0.1229(1) 0.1606(1)
O2 O 0.77211(8) 0.0332(1) 0.13737(9)
O3 O 0.5531(1) 0.0552(2) 0.1333(1)
O4 O 0.77027(7) 0.22556(9) 0.18392(7)
N1 N 0.92065(9) -0.1058(1) 0.15604(9)
N2 N 0.81801(9) -0.0317(1) 0.14415(8)
N3 N 0.89189(9) 0.1411(1) 0.15262(8)
N4 N 1.0735(1) 0.2214(1) 0.17528(9)
N5 N 0.5993(1) 0.1113(1) 0.1276(1)
N6 N 0.70168(8) 0.1931(1) 0.15187(8)
N7 N 0.7792(1) 0.1207(1) 0.29220(8)
N8 N 0.7277(2) -0.0178(1) 0.3974(1)
C1 C 0.8905(1) -0.0233(1) 0.15193(9)
C2 C 0.8622(1) -0.1788(1) 0.1445(1)
C3 C 0.7994(1) -0.1260(1) 0.1551(1)
C4 C 0.8997(2) -0.2548(2) 0.1951(2)
C5 C 0.8360(2) -0.2118(2) 0.0712(2)
C6 C 0.8090(2) -0.1287(2) 0.2282(1)
C7 C 0.7166(1) -0.1474(2) 0.1041(2)
C8 C 0.9286(1) 0.0607(1) 0.15518(9)
C9 C 1.0019(1) 0.0767(1) 0.1628(1)
C10 C 0.9417(1) 0.2097(1) 0.15966(9)
C11 C 1.0110(1) 0.1717(1) 0.16622(9)
C12 C 1.0638(1) 0.3101(2) 0.1763(1)
C13 C 0.9960(1) 0.3524(2) 0.1681(1)
C14 C 0.9326(1) 0.3027(1) 0.1598(1)
C15 C 0.6702(1) 0.1320(1) 0.1768(1)
C16 C 0.5833(1) 0.1514(2) 0.0593(1)
C17 C 0.6454(1) 0.2270(1) 0.0823(1)
C18 C 0.5002(2) 0.1845(3) 0.0229(2)
C19 C 0.5969(2) 0.0769(2) 0.0180(2)
C20 C 0.6169(2) 0.3176(2) 0.0946(1)
C21 C 0.6867(2) 0.2385(2) 0.0381(1)
C22 C 0.7059(1) 0.0953(1) 0.2453(1)
C23 C 0.6752(2) 0.0379(1) 0.2759(1)
C24 C 0.7960(1) 0.0799(1) 0.3537(1)
C25 C 0.7315(2) 0.0286(1) 0.3451(1)
C26 C 0.7909(2) -0.0117(2) 0.4574(2)
C27 C 0.8571(2) 0.0362(2) 0.4690(1)
C28 C 0.8612(2) 0.0839(2) 0.4169(1)
H1 H 0.846(1) 0.148(2) 0.150(1)
H2 H 0.932(2) -0.285(2) 0.179(1)
H3 H 0.859(2) -0.298(2) 0.189(1)
H4 H 0.922(2) -0.229(2) 0.248(2)
H5 H 0.882(2) -0.235(3) 0.067(2)
H6 H 0.810(2) -0.163(2) 0.035(2)
H7 H 0.803(2) -0.262(2) 0.064(2)
H8 H 0.859(2) -0.110(2) 0.260(2)
H9 H 0.791(2) -0.195(2) 0.237(2)
H10 H 0.773(2) -0.083(2) 0.229(1)
H11 H 0.709(2) -0.136(2) 0.056(2)
H12 H 0.680(2) -0.105(2) 0.113(1)
H13 H 0.705(2) -0.218(2) 0.109(2)
H14 H 1.039(1) 0.032(2) 0.164(1)
H15 H 1.111(1) 0.348(2) 0.189(1)
H16 H 0.996(1) 0.416(2) 0.169(1)
H17 H 0.885(2) 0.331(2) 0.156(1)
H18 H 0.810(1) 0.155(2) 0.285(1)
H19 H 0.465(2) 0.136(2) 0.014(2)
H20 H 0.493(2) 0.217(2) -0.018(2)
H21 H 0.491(2) 0.233(2) 0.053(2)
H22 H 0.563(2) 0.026(2) 0.017(2)
H23 H 0.652(2) 0.055(2) 0.041(1)
H24 H 0.582(2) 0.095(3) -0.025(2)
H25 H 0.588(1) 0.311(2) 0.123(1)
H26 H 0.585(2) 0.345(2) 0.049(1)
H27 H 0.663(2) 0.355(2) 0.119(1)
H28 H 0.647(2) 0.257(2) -0.007(2)
H29 H 0.713(1) 0.182(2) 0.037(1)
H30 H 0.725(2) 0.289(2) 0.056(1)
H31 H 0.623(2) 0.016(2) 0.252(1)
H32 H 0.786(2) -0.044(2) 0.497(2)
H33 H 0.901(2) 0.035(2) 0.515(2)
H34 H 0.908(2) 0.116(2) 0.425(1)
#END
