
#######################################################################
#
#                 Cambridge Crystallographic Data Centre
#                                CCDC
#
#######################################################################
#
# If this CIF has been generated from an entry in the Cambridge
# Structural Database, then it will include bibliographic, chemical,
# crystal, experimental, refinement or atomic coordinate data resulting
# from the CCDC's data processing and validation procedures.
#
#######################################################################

data_CSD_CIF_BASQAN
_audit_creation_date 1999-11-09
_audit_creation_method CSD-ConQuest-V1
_database_code_CSD BASQAN
_database_code_depnum_ccdc_archive 'CCDC 104999'
_chemical_formula_sum 'C15 H14 N2 O1'
_chemical_formula_moiety
;
C15 H14 N2 O1
;
_journal_coden_Cambridge 16
_journal_volume 55
_journal_year 1999
_journal_page_first 7835
_journal_name_full 'Tetrahedron '
loop_
_publ_author_name
"M.Mazik"
"D.Blaser"
"R.Boese"
_chemical_name_systematic
;
3-Phenyl-4-(pyridin-4'-yl)-3-buten-2-one oxime
;
_chemical_melting_point 445.15
_cell_volume   2588.080
_exptl_crystal_colour 'colorless'
_exptl_crystal_density_diffrn 1.223
_exptl_special_details
;
Melting point range 445.15-447.15K

;
_exptl_crystal_description 'rod'
_diffrn_ambient_temperature ?
_diffrn_special_details
;
The study was carried out at room temperature,in the range 283-303K

;
#These two values have been output from a single CSD field.
_refine_ls_R_factor_gt 0.0543
_refine_ls_wR_factor_gt 0.0543
_symmetry_cell_setting monoclinic
_symmetry_space_group_name_H-M 'P 21/c'
_symmetry_Int_Tables_number 14
loop_
_symmetry_equiv_pos_site_id
_symmetry_equiv_pos_as_xyz
1 x,y,z
2 x,1/2-y,1/2+z
3 -x,-y,-z
4 -x,-1/2+y,-1/2-z
_cell_length_a 10.0401(1)
_cell_length_b 9.7623(1)
_cell_length_c 26.4632(4)
_cell_angle_alpha 90
_cell_angle_beta 93.798(1)
_cell_angle_gamma 90
_cell_formula_units_Z 8
loop_
_atom_type_symbol
_atom_type_radius_bond
C 0.68
H 0.23
N 0.68
O 0.68
loop_
_atom_site_label
_atom_site_type_symbol
_atom_site_fract_x
_atom_site_fract_y
_atom_site_fract_z
C1 C 0.15640(16) 0.12551(19) 0.09918(7)
C2 C 0.04831(16) 0.03962(19) 0.11834(7)
C3 C 0.07752(17) -0.0590(2) 0.15249(7)
H1 H 0.16980 -0.06360 0.16440
C4 C -0.00877(17) -0.16117(19) 0.17458(7)
C5 C -0.13245(17) -0.2043(2) 0.15355(7)
H2 H -0.17080 -0.16130 0.12340
C6 C -0.19998(17) -0.3086(2) 0.17620(7)
H3 H -0.28440 -0.33720 0.16050
N1 N -0.15546(16) -0.37214(19) 0.21832(6)
C7 C -0.0359(2) -0.3320(3) 0.23794(9)
H4 H -0.00020 -0.37720 0.26810
C8 C 0.0382(2) -0.2296(3) 0.21819(9)
H5 H 0.12350 -0.20600 0.23440
N2 N 0.12233(14) 0.19827(17) 0.06039(6)
O1 O 0.22785(12) 0.27354(15) 0.04267(5)
H6 H 0.19960 0.31960 0.01690
C9 C 0.2953(2) 0.1246(3) 0.12413(10)
H7 H 0.35050 0.18610 0.10640
H8 H 0.29270 0.15370 0.15870
H9 H 0.33140 0.03370 0.12310
C10 C -0.09136(16) 0.07597(19) 0.09817(7)
C11 C -0.1402(2) 0.0395(2) 0.04989(8)
H10 H -0.08690 -0.01590 0.02910
C12 C -0.2658(2) 0.0842(3) 0.03134(9)
H11 H -0.29830 0.05880 -0.00230
C13 C -0.3437(2) 0.1629(3) 0.06089(11)
H12 H -0.42980 0.19330 0.04740
C14 C -0.2972(2) 0.1969(3) 0.10895(11)
H13 H -0.35150 0.25140 0.12970
C15 C -0.17132(19) 0.1535(2) 0.12763(9)
H14 H -0.13950 0.17660 0.16160
C16 C 0.5707(2) -0.0147(3) 0.29300(8)
C17 C 0.65098(18) 0.0333(2) 0.33830(7)
C18 C 0.78198(19) 0.0050(2) 0.34590(8)
H15 H 0.81850 -0.04960 0.32000
C19 C 0.87802(17) 0.04414(19) 0.38730(7)
C20 C 0.85920(18) 0.1436(2) 0.42410(8)
H16 H 0.77630 0.19280 0.42350
C21 C 0.95974(19) 0.1722(2) 0.46031(8)
H17 H 0.94320 0.24060 0.48520
N3 N 1.07903(15) 0.11031(19) 0.46329(7)
C22 C 1.09681(19) 0.0143(2) 0.42842(8)
H18 H 1.18140 -0.03180 0.42930
C23 C 1.00218(18) -0.0200(2) 0.39072(8)
H19 H 1.02080 -0.09040 0.36690
N4 N 0.44605(16) 0.01316(19) 0.29364(7)
O2 O 0.36877(15) -0.0304(2) 0.25050(6)
H20 H 0.28770 -0.00860 0.25340
C24 C 0.6302(3) -0.0890(5) 0.25026(12)
H21 H 0.56100 -0.11170 0.22490
H22 H 0.67260 -0.17150 0.26290
H23 H 0.69510 -0.03150 0.23570
C25 C 0.57508(16) 0.1131(2) 0.37511(7)
C26 C 0.54999(17) 0.2516(2) 0.36746(8)
H24 H 0.58340 0.29700 0.33870
C27 C 0.47679(19) 0.3243(2) 0.40104(8)
H25 H 0.46070 0.42040 0.39580
C28 C 0.42748(19) 0.2601(3) 0.44200(8)
H26 H 0.37650 0.31060 0.46510
C29 C 0.4512(2) 0.1229(3) 0.44968(8)
H27 H 0.41550 0.07740 0.47800
C30 C 0.5251(2) 0.0490(2) 0.41658(8)
H28 H 0.54310 -0.04640 0.42260
#END
