
#######################################################################
#
#                 Cambridge Crystallographic Data Centre
#                                CCDC
#
#######################################################################
#
# If this CIF has been generated from an entry in the Cambridge
# Structural Database, then it will include bibliographic, chemical,
# crystal, experimental, refinement or atomic coordinate data resulting
# from the CCDC's data processing and validation procedures.
#
#######################################################################

data_CSD_CIF_BASWOH
_audit_creation_date 1999-11-09
_audit_creation_method CSD-ConQuest-V1
_database_code_CSD BASWOH
_database_code_depnum_ccdc_archive 'CCDC 134659'
_chemical_formula_sum 'C11 H17 N1 O5'
_chemical_formula_moiety
;
C11 H17 N1 O5
;
_journal_coden_Cambridge 1090
_journal_volume 10
_journal_year 1999
_journal_page_first 2015
_journal_name_full 'Tetrahedron:Asymm. '
loop_
_publ_author_name
"C.Thominiaux"
"S.Rousse"
"D.Desmaele"
"J.d'Angelo"
"C.Riche"
_chemical_name_systematic
;
Ethyl (1S,2'S)-1-((1-methyl-2-nitro)ethyl)-2-oxo-cyclopentanecarboxylate
;
_chemical_melting_point 326.15
_cell_volume    651.639
_exptl_crystal_colour 'colorless'
_exptl_crystal_density_diffrn 1.24
_exptl_special_details
;
Melting point range 326.15-327.15K

;
_exptl_crystal_description 'prism'
_diffrn_ambient_temperature ?
_diffrn_special_details
;
The study was carried out at room temperature,in the range 283-303K

;
_refine_special_details
;
The ethyl ester is disordered over two sites with occupancies 0.778:0.222.

;
#These two values have been output from a single CSD field.
_refine_ls_R_factor_gt 0.0437
_refine_ls_wR_factor_gt 0.0437
_symmetry_cell_setting monoclinic
_symmetry_space_group_name_H-M 'P 21'
_symmetry_Int_Tables_number 4
loop_
_symmetry_equiv_pos_site_id
_symmetry_equiv_pos_as_xyz
1 x,y,z
2 -x,1/2+y,-z
_cell_length_a 6.407(2)
_cell_length_b 10.707(4)
_cell_length_c 9.930(2)
_cell_angle_alpha 90
_cell_angle_beta 106.94(3)
_cell_angle_gamma 90
_cell_formula_units_Z 2
loop_
_atom_type_symbol
_atom_type_radius_bond
C 0.68
H 0.23
N 0.68
O 0.68
loop_
_atom_site_label
_atom_site_type_symbol
_atom_site_fract_x
_atom_site_fract_y
_atom_site_fract_z
C1 C 0.5141(3) 0.7137(2) 0.1046(2)
C2 C 0.7254(3) 0.7136(2) 0.0592(2)
C3 C 0.8314(3) 0.8403(2) 0.1131(2)
H1 H 0.9885(3) 0.8314(2) 0.1498(2)
H2 H 0.7994(3) 0.9011(2) 0.0374(2)
C4 C 0.7353(4) 0.8825(2) 0.2294(3)
H3 H 0.8214(4) 0.8509(2) 0.3201(3)
H4 H 0.7309(4) 0.9729(2) 0.2339(3)
C5 C 0.5068(4) 0.8285(2) 0.1897(3)
H5 H 0.4653(4) 0.8073(2) 0.2733(3)
H6 H 0.4024(4) 0.8881(2) 0.1346(3)
O1 O 0.3761(2) 0.6340(2) 0.0724(2)
C6 C 0.6691(3) 0.6927(2) -0.1009(2)
H7 H 0.6079(3) 0.6085(2) -0.1211(2)
C7 C 0.4990(4) 0.7852(2) -0.1856(3)
H8 H 0.3698(4) 0.7801(2) -0.1555(3)
H9 H 0.4635(4) 0.7650(2) -0.2839(3)
H10 H 0.5570(4) 0.8684(2) -0.1705(3)
C8 C 0.8774(3) 0.6975(2) -0.1452(2)
H11 H 0.9312(3) 0.7826(2) -0.1382(2)
H12 H 0.9883(3) 0.6459(2) -0.0823(2)
N1 N 0.8360(3) 0.6523(2) -0.2922(2)
O2 O 0.8736(7) 0.7183(3) -0.3777(3)
O3 O 0.7677(4) 0.5478(2) -0.3220(2)
C9 C 0.8540(3) 0.6019(2) 0.1375(2)
O4 O 0.8773(2) 0.50420(12) 0.0874(2)
O5 O 0.9100(9) 0.6221(3) 0.2782(2)
C10 C 1.0280(9) 0.5248(4) 0.3734(4)
H13 H 0.9684(9) 0.5162(4) 0.4522(4)
H14 H 1.0117(9) 0.4455(4) 0.3242(4)
C11 C 1.2555(13) 0.5577(10) 0.4239(10)
H15 H 1.3332(13) 0.4938(10) 0.4865(10)
H16 H 1.2708(13) 0.6358(10) 0.4733(10)
H17 H 1.3140(13) 0.5653(10) 0.3456(10)
O6? O 1.0011(12) 0.6426(7) 0.2494(9)
C12? C 1.1385(20) 0.5437(11) 0.3327(15)
H18? H 1.0473(20) 0.4885(11) 0.3687(15)
H19? H 1.200(2) 0.4950(11) 0.2712(15)
C13? C 1.3055(56) 0.5864(41) 0.4437(41)
H20? H 1.3876(56) 0.5168(41) 0.4929(41)
H21? H 1.2465(56) 0.6331(41) 0.5067(41)
H22? H 1.3995(56) 0.6394(41) 0.4091(41)
#END
