
#######################################################################
#
#                 Cambridge Crystallographic Data Centre
#                                CCDC
#
#######################################################################
#
# If this CIF has been generated from an entry in the Cambridge
# Structural Database, then it will include bibliographic, chemical,
# crystal, experimental, refinement or atomic coordinate data resulting
# from the CCDC's data processing and validation procedures.
#
#######################################################################

data_CSD_CIF_BAVTUQ
_audit_creation_date 2017-06-06
_audit_creation_method CSD-ConQuest-V1
_database_code_CSD BAVTUQ
_database_code_depnum_ccdc_archive 'CCDC 1525759'
_chemical_formula_sum 'C56 H84 N12 O8'
_chemical_formula_moiety
;
C56 H84 N12 O8
;
_journal_coden_Cambridge 440
_journal_volume 41
_journal_year 2017
_journal_page_first 5284
_journal_name_full 'New J.Chem. '
loop_
_publ_author_name
"Zhongrui Chen"
"G.Canard"
"C.Azarias"
"D.Jacquemin"
"O.Siri"
_chemical_name_systematic
;
10,12,22,24-tetranitro-N^4^,N^6^,N^16^,N^18^-tetraoctyl-2,8,14,20-tetraazapent
acyclo[19.3.1.1^3,7^.1^9,13^.1^15,19^]octacosa-1(25),3(28),4,6,9(27),10,12,15(
26),16,18,21,23-dodecaene-4,6,16,18-tetramine
;
_cell_volume   5922.286
_exptl_crystal_colour 'orange'
_exptl_crystal_density_diffrn 1.181
_exptl_crystal_description 'prism'
_exptl_crystal_preparation 'chloroform/n-Heptane'
_diffrn_ambient_temperature 293
_refine_special_details
;
C51B,C52B,C53A and C51A,C52A,C53B disordered over two sites with occupancies 
0.53,0.53,0.47:0.47,0.47,0.53.
;
#These two values have been output from a single CSD field.
_refine_ls_R_factor_gt 0.1173
_refine_ls_wR_factor_gt 0.1173
_symmetry_cell_setting monoclinic
_symmetry_space_group_name_H-M 'P 21/c'
_symmetry_Int_Tables_number 14
loop_
_symmetry_equiv_pos_site_id
_symmetry_equiv_pos_as_xyz
1 x,y,z
2 -x,1/2+y,1/2-z
3 -x,-y,-z
4 x,-1/2-y,-1/2+z
_cell_length_a 9.0220(5)
_cell_length_b 30.897(2)
_cell_length_c 22.709(2)
_cell_angle_alpha 90
_cell_angle_beta 110.681(3)
_cell_angle_gamma 90
_cell_formula_units_Z 4
loop_
_atom_type_symbol
_atom_type_radius_bond
C 0.68
H 0.23
N 0.68
O 0.68
loop_
_atom_site_label
_atom_site_type_symbol
_atom_site_fract_x
_atom_site_fract_y
_atom_site_fract_z
C1 C 0.7061(6) 0.74622(16) 0.5725(2)
H1 H 0.70321 0.72964 0.60629
C2 C 0.8532(6) 0.75700(16) 0.5701(2)
C3 C 0.8517(6) 0.78358(16) 0.5184(2)
C4 C 0.7143(6) 0.79631(16) 0.4730(2)
H2 H 0.71742 0.81357 0.43993
C5 C 0.5686(6) 0.78359(16) 0.4759(2)
C6 C 0.5616(6) 0.75885(16) 0.5271(2)
C7 C 0.4135(6) 0.72229(18) 0.5853(2)
C8 C 0.3922(6) 0.67711(19) 0.5813(2)
C9 C 0.3779(6) 0.65489(18) 0.6326(2)
H3 H 0.36303 0.62506 0.63008
C10 C 0.3853(6) 0.67635(19) 0.6870(2)
C11 C 0.4055(6) 0.72199(18) 0.6901(2)
C12 C 0.4183(5) 0.74327(18) 0.6386(2)
H4 H 0.43060 0.77318 0.64049
C13 C 0.5457(6) 0.75638(16) 0.7913(2)
C14 C 0.5528(6) 0.78119(17) 0.8448(2)
C15 C 0.6961(6) 0.79116(16) 0.8904(2)
H5 H 0.69694 0.80756 0.92485
C16 C 0.8366(6) 0.77798(16) 0.8870(2)
C17 C 0.8389(6) 0.75358(16) 0.8336(2)
C18 C 0.6922(6) 0.74343(16) 0.7887(2)
H6 H 0.69125 0.72681 0.75444
C19 C 0.9728(5) 0.71648(18) 0.7723(2)
C20 C 0.9413(6) 0.67235(18) 0.7669(2)
C21 C 0.9279(6) 0.65135(18) 0.7118(2)
H7 H 0.90524 0.62189 0.70808
C22 C 0.9474(6) 0.67316(18) 0.6618(2)
C23 C 0.9808(5) 0.71765(18) 0.6674(2)
C24 C 0.9906(5) 0.73836(17) 0.7227(2)
H8 H 1.00985 0.76799 0.72628
C25 C 0.3403(9) 0.6109(2) 0.5170(3)
H9 H 0.24868 0.60603 0.52901
H10 H 0.42662 0.59362 0.54461
C26 C 0.3027(10) 0.5953(2) 0.4511(3)
H11 H 0.29163 0.56409 0.45053
H12 H 0.39126 0.60207 0.43788
C27 C 0.1522(10) 0.6147(3) 0.4033(3)
H13 H 0.06492 0.60767 0.41718
H14 H 0.16375 0.64594 0.40541
C28 C 0.1057(15) 0.6022(4) 0.3374(4)
H15 H 0.08734 0.57117 0.33398
H16 H 0.19237 0.60840 0.32282
C29 C -0.0445(15) 0.6255(4) 0.2943(6)
H17 H -0.03181 0.65611 0.30447
H18 H -0.04803 0.62245 0.25135
C30 C -0.2034(14) 0.6118(3) 0.2959(5)
H19 H -0.20960 0.61952 0.33635
H20 H -0.21233 0.58052 0.29183
C31 C -0.3474(13) 0.6333(3) 0.2417(5)
H21 H -0.33615 0.66447 0.24607
H22 H -0.33860 0.62566 0.20164
C32 C -0.5105(15) 0.6216(4) 0.2391(7)
H23 H -0.58729 0.63655 0.20458
H24 H -0.52576 0.59097 0.23315
H25 H -0.52331 0.62992 0.27774
C33 C 0.3307(7) 0.60943(19) 0.7351(2)
H26 H 0.41279 0.59240 0.72767
H27 H 0.23310 0.60503 0.69963
C34 C 0.3085(7) 0.59340(19) 0.7944(2)
H28 H 0.40832 0.59553 0.82940
H29 H 0.23215 0.61171 0.80371
C35 C 0.2515(8) 0.54715(19) 0.7880(3)
H30 H 0.15025 0.54569 0.75367
H31 H 0.32570 0.52953 0.77626
C36 C 0.2323(8) 0.5276(2) 0.8453(3)
H32 H 0.33448 0.52760 0.87926
H33 H 0.16142 0.54567 0.85825
C37 C 0.1697(9) 0.4828(2) 0.8364(3)
H34 H 0.24071 0.46487 0.82324
H35 H 0.06783 0.48292 0.80231
C38 C 0.1491(10) 0.4622(2) 0.8934(4)
H36 H 0.08055 0.48019 0.90768
H37 H 0.25132 0.46042 0.92712
C39 C 0.0781(15) 0.4169(3) 0.8788(5)
H38 H -0.02674 0.41899 0.84685
H39 H 0.14314 0.39956 0.86184
C40 C 0.0659(15) 0.3945(4) 0.9357(5)
H40 H 0.02058 0.36627 0.92402
H41 H 0.16955 0.39175 0.96724
H42 H -0.00036 0.41118 0.95225
C41 C 0.8509(7) 0.6077(2) 0.8089(2)
H43 H 0.91823 0.58789 0.79664
H44 H 0.74803 0.60816 0.77548
C42 C 0.8321(8) 0.59136(19) 0.8692(3)
H45 H 0.93454 0.59136 0.90298
H46 H 0.76266 0.61070 0.88106
C43 C 0.7643(8) 0.5463(2) 0.8607(3)
H47 H 0.66053 0.54719 0.82778
H48 H 0.83105 0.52797 0.84581
C44 C 0.7475(9) 0.5254(2) 0.9174(3)
H49 H 0.67716 0.54289 0.93153
H50 H 0.85032 0.52503 0.95093
C45 C 0.6842(11) 0.4799(2) 0.9061(4)
H51 H 0.75165 0.46316 0.88956
H52 H 0.57953 0.48081 0.87376
C46 C 0.6723(11) 0.4565(3) 0.9624(4)
H53 H 0.60111 0.47225 0.97815
H54 H 0.77588 0.45590 0.99537
C47 C 0.6116(13) 0.4098(3) 0.9467(5)
H55 H 0.50554 0.41052 0.91538
H56 H 0.67923 0.39459 0.92853
C48 C 0.6080(15) 0.3851(4) 1.0034(5)
H57 H 0.56936 0.35633 0.99098
H58 H 0.71300 0.38366 1.03421
H59 H 0.53927 0.39959 1.02106
C49 C 0.8709(9) 0.6085(2) 0.5914(3)
H60 H 0.77142 0.60630 0.59858
H61 H 0.94516 0.58853 0.61988
C50 C 0.8451(10) 0.5954(3) 0.5256(3)
H62 H 0.94589 0.59294 0.51956
H63 H 0.78163 0.61700 0.49660
C51 C 0.760(4) 0.5520(7) 0.5132(17)
H64 H 0.66567 0.55250 0.52444
H65 H 0.82879 0.52867 0.53548
C52 C 0.719(4) 0.5486(9) 0.4415(17)
H66 H 0.61711 0.56231 0.41973
H67 H 0.79846 0.56332 0.42937
C53 C 0.4400(18) 0.5073(6) 0.3138(8)
H68 H 0.43831 0.50171 0.27156
H69 H 0.42659 0.53822 0.31759
C54 C 0.303(2) 0.4841(5) 0.3229(6)
H70 H 0.20558 0.49388 0.29202
H71 H 0.31396 0.45347 0.31823
H72 H 0.30223 0.49001 0.36430
N1 N 0.9868(5) 0.74227(14) 0.61546(18)
H73 H 1.07733 0.74799 0.61266
N2 N 0.4241(5) 0.74571(13) 0.53257(18)
H74 H 0.33733 0.75184 0.50239
N3 N 0.4108(5) 0.74496(14) 0.74566(19)
H75 H 0.32262 0.75175 0.74986
N4 N 0.9738(5) 0.73973(13) 0.82731(18)
H76 H 1.06278 0.74490 0.85685
N5 N 0.3836(5) 0.65562(15) 0.52699(19)
H77 H 0.40500 0.66954 0.49817
N6 N 0.3738(5) 0.65481(15) 0.7383(2)
H78 H 0.39253 0.66861 0.77305
N7 N 0.9188(5) 0.65039(15) 0.81641(19)
H79 H 0.94636 0.66267 0.85268
N8 N 0.9321(5) 0.65255(16) 0.6056(2)
H80 H 0.95962 0.66624 0.57816
N9 N 0.9973(6) 0.79899(15) 0.5109(2)
N10 N 0.4319(6) 0.79728(15) 0.4243(2)
N11 N 0.4143(6) 0.79636(16) 0.8555(2)
N12 N 0.9765(6) 0.79054(15) 0.9378(2)
O1 O 0.9883(5) 0.81861(14) 0.4628(2)
O2 O 1.1280(5) 0.79145(14) 0.5536(2)
O3 O 0.4507(4) 0.81673(14) 0.37980(18)
O4 O 0.2990(5) 0.78797(14) 0.42416(17)
O5 O 0.2830(5) 0.78998(15) 0.81552(19)
O6 O 0.4274(5) 0.81626(16) 0.9038(2)
O7 O 0.9655(4) 0.81162(14) 0.98178(17)
O8 O 1.1064(5) 0.77912(13) 0.93664(17)
C55 C 0.711(4) 0.5009(8) 0.4232(12)
H81 H 0.81518 0.49134 0.42499
H82 H 0.68087 0.48376 0.45287
C56 C 0.597(2) 0.4942(5) 0.3597(7)
H83 H 0.58395 0.46306 0.35966
H84 H 0.66368 0.49895 0.33492
H85? H 0.93355 0.60584 0.51479
H86? H 0.75047 0.60982 0.49808
C57? C 0.616(4) 0.5115(9) 0.4211(11)
H87? H 0.61221 0.48861 0.44979
H88? H 0.53336 0.53246 0.41830
C58? C 0.827(5) 0.5471(7) 0.512(2)
H89? H 0.74760 0.53602 0.52795
H90? H 0.92662 0.53314 0.53596
C59? C 0.781(5) 0.5333(13) 0.443(2)
H91? H 0.85855 0.51319 0.43830
H92? H 0.77786 0.55844 0.41686
H93? H 0.60439 0.46291 0.36184
H94? H 0.68060 0.50510 0.34620
#END
