
#######################################################################
#
#                 Cambridge Crystallographic Data Centre
#                                CCDC
#
#######################################################################
#
# If this CIF has been generated from an entry in the Cambridge
# Structural Database, then it will include bibliographic, chemical,
# crystal, experimental, refinement or atomic coordinate data resulting
# from the CCDC's data processing and validation procedures.
#
#######################################################################

data_CSD_CIF_BAWCEI
_audit_creation_date 2004-05-12
_audit_creation_method CSD-ConQuest-V1
_database_code_CSD BAWCEI
_database_code_depnum_ccdc_archive 'CCDC 217340'
_chemical_formula_sum 'C17 H27 N1 O3'
_chemical_formula_moiety
;
C17 H27 N1 O3
;
_journal_coden_Cambridge 4
_journal_volume 125
_journal_year 2003
_journal_page_first 16327
_journal_name_full 'J.Am.Chem.Soc. '
loop_
_publ_author_name
"C.A.Knoop"
"A.Studer"
_chemical_name_systematic
;
(2,6-Dimethyl-1-(1-phenylethoxy)piperidine-2,6-diyl)dimethanol
;
_cell_volume   1638.935
_exptl_crystal_colour 'colorless'
_exptl_crystal_density_diffrn 1.189
_exptl_crystal_description 'needle'
_diffrn_ambient_temperature 193
#These two values have been output from a single CSD field.
_refine_ls_R_factor_gt 0.0393
_refine_ls_wR_factor_gt 0.0393
_symmetry_cell_setting triclinic
_symmetry_space_group_name_H-M 'P -1'
_symmetry_Int_Tables_number 2
loop_
_symmetry_equiv_pos_site_id
_symmetry_equiv_pos_as_xyz
1 x,y,z
2 -x,-y,-z
_cell_length_a 8.175(1)
_cell_length_b 11.9156(15)
_cell_length_c 17.913(2)
_cell_angle_alpha 109.257(10)
_cell_angle_beta 94.031(10)
_cell_angle_gamma 92.558(10)
_cell_formula_units_Z 4
loop_
_atom_type_symbol
_atom_type_radius_bond
C 0.68
H 0.23
N 0.68
O 0.68
loop_
_atom_site_label
_atom_site_type_symbol
_atom_site_fract_x
_atom_site_fract_y
_atom_site_fract_z
C1 C 0.2540(2) 0.74894(15) 0.25374(11)
C2 C 0.3150(3) 0.7179(2) 0.17082(12)
C3 C 0.4908(3) 0.7667(2) 0.17335(14)
C4 C 0.5996(3) 0.7150(2) 0.22363(14)
C5 C 0.5490(2) 0.74106(16) 0.30806(11)
C6 C 0.0861(2) 0.68263(17) 0.24677(13)
C7 C 0.2250(3) 0.88229(18) 0.28781(15)
C8 C 0.6458(2) 0.66459(17) 0.34614(14)
C9 C 0.5976(3) 0.87203(19) 0.35945(16)
C10 C 0.2397(3) 0.65750(17) 0.40807(12)
C11 C 0.1164(2) 0.71975(16) 0.46413(10)
C12 C 0.1284(3) 0.84248(17) 0.50272(12)
C13 C 0.0163(3) 0.89578(19) 0.55585(13)
C14 C -0.1088(3) 0.82768(19) 0.57166(13)
C15 C -0.1211(3) 0.70546(19) 0.53354(12)
C16 C -0.0115(2) 0.65232(19) 0.48036(12)
C17 C 0.3578(3) 0.5947(2) 0.44742(16)
C18 C 0.4481(2) 0.22813(15) 0.19505(11)
C19 C 0.4023(3) 0.24700(19) 0.27957(13)
C20 C 0.5224(3) 0.2003(2) 0.32769(14)
C21 C 0.6920(3) 0.26011(19) 0.33063(12)
C22 C 0.7496(2) 0.23646(15) 0.24729(11)
C23 C 0.3385(2) 0.29933(17) 0.15751(13)
C24 C 0.4137(3) 0.09668(18) 0.14182(15)
C25 C 0.9108(2) 0.31091(16) 0.25485(13)
C26 C 0.7898(3) 0.10602(18) 0.21032(15)
C27 C 0.7399(2) 0.33716(16) 0.09682(12)
C28 C 0.8705(2) 0.28557(16) 0.04239(11)
C29 C 0.8693(3) 0.16464(18) 0.00079(12)
C30 C 0.9862(3) 0.1200(2) -0.05141(14)
C31 C 1.1076(3) 0.1954(2) -0.06272(14)
C32 C 1.1104(3) 0.3153(2) -0.02156(13)
C33 C 0.9944(3) 0.36065(19) 0.03066(12)
C34 C 0.6113(3) 0.3909(2) 0.05580(15)
N1 N 0.37049(17) 0.70368(12) 0.30326(8)
N2 N 0.62194(17) 0.27770(12) 0.19967(8)
O1 O 0.32339(15) 0.74801(10) 0.38399(7)
O2 O 0.08471(16) 0.55597(11) 0.21813(8)
O3 O 0.60636(17) 0.54024(12) 0.30621(9)
O4 O 0.66766(15) 0.24032(10) 0.11859(7)
O5 O 0.34714(18) 0.42420(12) 0.19966(9)
O6 O 0.89524(16) 0.43608(11) 0.28975(8)
H1 H 0.310(2) 0.6301(18) 0.1463(12)
H2 H 0.239(2) 0.7503(16) 0.1388(12)
H3 H 0.535(2) 0.7478(18) 0.1231(13)
H4 H 0.501(2) 0.857(2) 0.1976(13)
H5 H 0.716(3) 0.7477(18) 0.2293(12)
H6 H 0.602(2) 0.630(2) 0.1981(13)
H7 H 0.193(3) 0.529(2) 0.2177(15)
H8 H 0.041(2) 0.7094(17) 0.2988(12)
H9 H 0.012(2) 0.7061(16) 0.2093(11)
H10 H 0.207(3) 0.904(2) 0.3430(15)
H11 H 0.129(3) 0.899(2) 0.2585(15)
H12 H 0.317(3) 0.936(2) 0.2785(13)
H13 H 0.710(4) 0.501(2) 0.2978(17)
H14 H 0.776(2) 0.6812(17) 0.3432(12)
H15 H 0.620(2) 0.6846(19) 0.4030(14)
H16 H 0.571(3) 0.933(2) 0.3309(14)
H17 H 0.724(3) 0.876(2) 0.3672(16)
H18 H 0.542(3) 0.894(2) 0.4080(18)
H19 H 0.394(2) 0.3383(19) 0.3058(12)
H20 H 0.291(3) 0.2072(19) 0.2730(13)
H21 H 0.524(2) 0.111(2) 0.3039(13)
H22 H 0.485(2) 0.2157(19) 0.3808(14)
H23 H 0.776(2) 0.2302(17) 0.3607(12)
H24 H 0.682(2) 0.3489(18) 0.3563(11)
H25 H 0.366(2) 0.2834(17) 0.1003(12)
H26 H 0.217(3) 0.2696(17) 0.1575(12)
H27 H 0.707(3) 0.047(2) 0.2196(13)
H28 H 0.896(3) 0.094(2) 0.2328(14)
H29 H 0.810(3) 0.090(2) 0.1544(16)
H30 H 0.180(3) 0.597(2) 0.3604(14)
H31 H 0.553(3) 0.325(2) 0.0086(16)
H32 H 0.672(3) 0.448(2) 0.0349(14)
H33 H 0.529(3) 0.4305(19) 0.0914(14)
H34 H 0.221(3) 0.8936(19) 0.4954(13)
H35 H 0.020(3) 0.982(2) 0.5795(14)
H36 H -0.189(3) 0.8630(19) 0.6077(13)
H37 H -0.211(3) 0.6563(19) 0.5430(12)
H38 H -0.020(2) 0.5707(19) 0.4540(13)
H39 H 0.434(3) 0.5457(19) 0.4078(13)
H40 H 0.290(3) 0.539(2) 0.4678(14)
H41 H 0.428(3) 0.660(3) 0.4908(18)
H42 H 0.288(3) 0.077(2) 0.1326(16)
H43 H 0.461(3) 0.041(2) 0.1694(15)
H44 H 0.457(3) 0.082(2) 0.0888(15)
H45 H 0.993(2) 0.2850(16) 0.2871(11)
H46 H 0.9552(19) 0.2940(14) 0.2029(11)
H47 H 0.444(3) 0.449(2) 0.2253(16)
H48 H 0.968(3) 0.472(2) 0.2628(17)
H49 H 0.795(2) 0.3986(17) 0.1454(12)
H50 H 0.782(3) 0.108(2) 0.0079(14)
H51 H 0.989(3) 0.037(2) -0.0770(16)
H52 H 1.186(3) 0.163(2) -0.0978(14)
H53 H 1.197(3) 0.370(2) -0.0273(13)
H54 H 1.000(3) 0.443(2) 0.0611(14)
#END
