
#######################################################################
#
#                 Cambridge Crystallographic Data Centre
#                                CCDC
#
#######################################################################
#
# If this CIF has been generated from an entry in the Cambridge
# Structural Database, then it will include bibliographic, chemical,
# crystal, experimental, refinement or atomic coordinate data resulting
# from the CCDC's data processing and validation procedures.
#
#######################################################################

data_CSD_CIF_BAWCIM
_audit_creation_date 2004-05-12
_audit_creation_method CSD-ConQuest-V1
_database_code_CSD BAWCIM
_database_code_depnum_ccdc_archive 'CCDC 217341'
_chemical_formula_sum 'C19 H31 N1 O3'
_chemical_formula_moiety
;
C19 H31 N1 O3
;
_journal_coden_Cambridge 4
_journal_volume 125
_journal_year 2003
_journal_page_first 16327
_journal_name_full 'J.Am.Chem.Soc. '
loop_
_publ_author_name
"C.A.Knoop"
"A.Studer"
_chemical_name_systematic
;
(2,6-Diethyl-1-(1-phenylethoxy)piperidine-2,6-diyl)dimethanol
;
_cell_volume   7369.684
_exptl_crystal_colour 'colorless'
_exptl_crystal_density_diffrn 1.159
_exptl_crystal_description 'needle'
_diffrn_ambient_temperature 193
#These two values have been output from a single CSD field.
_refine_ls_R_factor_gt 0.0473
_refine_ls_wR_factor_gt 0.0473
_symmetry_cell_setting orthorhombic
_symmetry_space_group_name_H-M 'P b c a'
_symmetry_Int_Tables_number 61
loop_
_symmetry_equiv_pos_site_id
_symmetry_equiv_pos_as_xyz
1 x,y,z
2 1/2+x,y,1/2-z
3 1/2-x,1/2+y,z
4 x,1/2-y,1/2+z
5 -x,-y,-z
6 -1/2-x,-y,-1/2+z
7 -1/2+x,-1/2-y,-z
8 -x,-1/2+y,-1/2-z
_cell_length_a 20.796(1)
_cell_length_b 14.3802(7)
_cell_length_c 24.6436(16)
_cell_angle_alpha 90
_cell_angle_beta 90
_cell_angle_gamma 90
_cell_formula_units_Z 16
loop_
_atom_type_symbol
_atom_type_radius_bond
C 0.68
H 0.23
N 0.68
O 0.68
loop_
_atom_site_label
_atom_site_type_symbol
_atom_site_fract_x
_atom_site_fract_y
_atom_site_fract_z
C1 C 0.16488(16) 0.90036(19) 0.54305(11)
C2 C 0.23451(17) 0.8779(2) 0.55788(13)
H1 H 0.26290 0.89760 0.52780
H2 H 0.24670 0.91410 0.59050
C3 C 0.24537(17) 0.7747(2) 0.56912(12)
H3 H 0.29100 0.76320 0.57850
H4 H 0.21820 0.75410 0.59980
C4 C 0.22749(16) 0.7224(2) 0.51807(11)
H5 H 0.23550 0.65530 0.52400
H6 H 0.25590 0.74310 0.48820
C5 C 0.15811(15) 0.73532(17) 0.50063(11)
C6 C 0.06084(16) 0.8667(2) 0.43166(12)
H7 H 0.09940 0.85550 0.40830
C7 C 0.00822(16) 0.7988(2) 0.41698(12)
C8 C 0.0018(2) 0.7639(3) 0.36473(13)
H8 H 0.03070 0.78410 0.33730
C9 C -0.0459(2) 0.7001(3) 0.35166(14)
H9 H -0.05000 0.67840 0.31540
C10 C -0.08668(19) 0.6687(3) 0.39027(15)
H10 H -0.11840 0.62350 0.38170
C11 C -0.08170(19) 0.7027(3) 0.44155(14)
H11 H -0.11100 0.68200 0.46860
C12 C -0.03476(17) 0.7667(2) 0.45511(12)
H12 H -0.03220 0.78900 0.49130
C13 C 0.16243(17) 1.0000(2) 0.51961(11)
H13 H 0.11700 1.01690 0.51270
H14 H 0.17950 1.04380 0.54700
C14 C 0.12071(17) 0.8955(2) 0.59263(11)
H15 H 0.12910 0.83620 0.61180
H16 H 0.07560 0.89380 0.57980
C15 C 0.12737(18) 0.9757(2) 0.63383(12)
H17 H 0.17280 0.98380 0.64340
H18 H 0.10260 0.96100 0.66660
H19 H 0.11090 1.03330 0.61770
C16 C 0.15062(16) 0.69306(19) 0.44363(10)
H20 H 0.16440 0.62720 0.44510
H21 H 0.10450 0.69390 0.43380
C17 C 0.11117(16) 0.68520(18) 0.53979(12)
H22 H 0.12450 0.69920 0.57750
H23 H 0.06770 0.71190 0.53460
C18 C 0.1063(2) 0.5793(2) 0.53369(13)
H24 H 0.08700 0.56430 0.49850
H25 H 0.07950 0.55410 0.56280
H26 H 0.14940 0.55200 0.53580
C19 C 0.0373(2) 0.9663(2) 0.42405(15)
H27 H 0.00090 0.97790 0.44830
H28 H 0.02380 0.97530 0.38630
H29 H 0.07220 1.00960 0.43260
C20 C 0.37868(15) 0.7436(2) 0.34816(11)
C21 C 0.40454(17) 0.7712(2) 0.40373(11)
H30 H 0.37210 0.75530 0.43160
H31 H 0.44370 0.73440 0.41140
C22 C 0.42074(19) 0.8742(2) 0.40823(13)
H32 H 0.43640 0.88880 0.44520
H33 H 0.45470 0.89090 0.38190
C23 C 0.35999(18) 0.9278(2) 0.39631(12)
H34 H 0.36880 0.99500 0.40080
H35 H 0.32680 0.91020 0.42320
C24 C 0.33358(17) 0.91140(19) 0.33983(11)
C25 C 0.25008(16) 0.74736(19) 0.26507(11)
H36 H 0.23320 0.71950 0.29940
C26 C 0.20165(17) 0.81514(19) 0.24243(11)
C27 C 0.14147(19) 0.8231(2) 0.26451(14)
H37 H 0.13070 0.78720 0.29550
C28 C 0.0960(2) 0.8827(3) 0.24247(16)
H38 H 0.05410 0.88580 0.25770
C29 C 0.1115(2) 0.9369(2) 0.19881(16)
H39 H 0.08070 0.97840 0.18400
C30 C 0.1716(2) 0.9311(2) 0.17666(13)
H40 H 0.18250 0.96860 0.14630
C31 C 0.21695(18) 0.8707(2) 0.19827(12)
H41 H 0.25870 0.86740 0.18270
C32 C 0.34789(16) 0.6469(2) 0.35438(11)
H42 H 0.33070 0.62670 0.31880
H43 H 0.38130 0.60170 0.36550
C33 C 0.43295(17) 0.7393(2) 0.30597(12)
H44 H 0.41290 0.73350 0.26970
H45 H 0.45590 0.79960 0.30680
C34 C 0.4822(2) 0.6636(3) 0.31119(17)
H46 H 0.49830 0.66180 0.34860
H47 H 0.51800 0.67600 0.28630
H48 H 0.46250 0.60370 0.30210
C35 C 0.26663(17) 0.9549(2) 0.33584(12)
H49 H 0.27080 1.02310 0.34000
H50 H 0.24930 0.94280 0.29910
C36 C 0.37576(18) 0.9564(2) 0.29515(12)
H51 H 0.41660 0.92130 0.29290
H52 H 0.35340 0.94920 0.25990
C37 C 0.3916(2) 1.0582(2) 0.30274(17)
H53 H 0.35250 1.09230 0.31240
H54 H 0.40930 1.08340 0.26890
H55 H 0.42340 1.06500 0.33180
C38 C 0.26274(19) 0.6708(2) 0.22367(12)
H56 H 0.28050 0.69820 0.19050
H57 H 0.22230 0.63890 0.21520
H58 H 0.29350 0.62610 0.23870
N1 N 0.14639(12) 0.83855(15) 0.49620(9)
N2 N 0.32377(12) 0.80828(14) 0.33289(8)
O1 O 0.0777(1) 0.85332(12) 0.48821(7)
O2 O 0.19786(12) 1.01075(14) 0.47091(8)
O3 O 0.18580(12) 0.73850(15) 0.40171(8)
O4 O 0.3115(1) 0.79158(12) 0.27532(7)
O5 O 0.29752(11) 0.64625(13) 0.39324(8)
O6 O 0.22139(12) 0.92190(15) 0.37478(9)
H59 H 0.229(2) 0.8624(18) 0.3669(15)
H60 H 0.194(2) 0.963(2) 0.4471(13)
H61 H 0.2251(15) 0.711(3) 0.4025(17)
H62 H 0.303(2) 0.604(2) 0.4204(13)
#END
