
#######################################################################
#
#                 Cambridge Crystallographic Data Centre
#                                CCDC
#
#######################################################################
#
# If this CIF has been generated from an entry in the Cambridge
# Structural Database, then it will include bibliographic, chemical,
# crystal, experimental, refinement or atomic coordinate data resulting
# from the CCDC's data processing and validation procedures.
#
#######################################################################

data_CSD_CIF_BAWTEY
_audit_creation_date 1982-07-04
_audit_creation_method CSD-ConQuest-V1
_database_code_CSD BAWTEY
_database_code_depnum_ccdc_archive 'CCDC 1106699'
_chemical_formula_sum 'C7 H10 N2 O5'
_chemical_formula_moiety
;
C7 H10 N2 O5
;
_journal_coden_Cambridge 15
_journal_volume 59
_journal_year 1981
_journal_page_first 2891
_journal_name_full 'Can.J.Chem. '
loop_
_publ_author_name
"C.Bennouna"
"F.Petrus"
"J.Verducci"
"C.Hauw"
"J.Gaultier"
_chemical_name_systematic
;
3-Methyl-5-methoxycarbonylmethyl-6-oxa-dihydro-uracil
;
_chemical_melting_point 339.15
_cell_volume    903.589
_exptl_crystal_density_diffrn 1.481
_exptl_special_details
;
Melting point range 339.15-341.15K

;
_diffrn_ambient_temperature ?
_diffrn_special_details
;
The study was carried out at room temperature,in the range 283-303K

;
#These two values have been output from a single CSD field.
_refine_ls_R_factor_gt 0.058
_refine_ls_wR_factor_gt 0.058
_symmetry_cell_setting monoclinic
_symmetry_space_group_name_H-M 'P 21/c'
_symmetry_Int_Tables_number 14
loop_
_symmetry_equiv_pos_site_id
_symmetry_equiv_pos_as_xyz
1 x,y,z
2 -x,1/2+y,1/2-z
3 -x,-y,-z
4 x,-1/2-y,-1/2+z
_cell_length_a 9.943(4)
_cell_length_b 10.447(4)
_cell_length_c 8.886(3)
_cell_angle_alpha 90
_cell_angle_beta 101.78(8)
_cell_angle_gamma 90
_cell_formula_units_Z 4
loop_
_atom_type_symbol
_atom_type_radius_bond
C 0.68
H 0.23
N 0.68
O 0.68
loop_
_atom_site_label
_atom_site_type_symbol
_atom_site_fract_x
_atom_site_fract_y
_atom_site_fract_z
O1 O 0.93690 0.78670 0.41830
N1 N 0.94640 0.65330 0.39560
C1 C 0.82920 0.58630 0.38690
N2 N 0.70800 0.65180 0.33650
C2 C 0.70710 0.77190 0.27160
C3 C 0.84530 0.83510 0.28780
C4 C 0.83780 0.97790 0.30460
O2 O 0.60380 0.82130 0.20380
C5 C 0.57910 0.58220 0.32100
O3 O 0.83060 0.47190 0.41440
C6 C 0.76930 1.01900 0.43290
O4 O 0.73700 0.94980 0.52520
O5 O 0.74950 1.14350 0.42820
C7 C 0.68830 1.19690 0.54780
H1 H 1.01200 0.61900 0.49000
H2 H 0.88200 0.81700 0.19300
H3 H 0.93400 1.01500 0.32500
H4 H 0.78600 1.01700 0.20600
H5 H 0.50000 0.64700 0.30000
H6 H 0.55700 0.53100 0.21000
H7 H 0.57500 0.50000 0.39000
H8 H 0.60000 1.14700 0.56000
H9 H 0.65800 1.28800 0.52200
H10 H 0.76000 1.19500 0.64500
#END
