
#######################################################################
#
#                 Cambridge Crystallographic Data Centre
#                                CCDC
#
#######################################################################
#
# If this CIF has been generated from an entry in the Cambridge
# Structural Database, then it will include bibliographic, chemical,
# crystal, experimental, refinement or atomic coordinate data resulting
# from the CCDC's data processing and validation procedures.
#
#######################################################################

data_CSD_CIF_BAWTEB
_audit_creation_date 2017-06-07
_audit_creation_method CSD-ConQuest-V1
_database_code_CSD BAWTEB
_database_code_depnum_ccdc_archive 'CCDC 1542995'
_chemical_formula_sum 'C21 H19 N1 O4'
_chemical_formula_moiety
;
C21 H19 N1 O4
;
_journal_coden_Cambridge 1336
_journal_volume 19
_journal_year 2017
_journal_page_first 3025
_journal_name_full 'Org.Lett. '
loop_
_publ_author_name
"M.Kumar"
"Pankaj Chauhan"
"A.Valkonen"
"K.Rissanen"
"D.Enders"
_chemical_name_systematic
;
(6aS,7S,10R,10aR)-10-methyl-6a-nitro-7-phenyl-6a,7,10,10a-tetrahydro-6H-dibenz
o[b,d]pyran-8-carbaldehyde
;
_chemical_melting_point 445.15
_cell_volume    858.776
_exptl_crystal_colour 'colorless'
_exptl_crystal_density_diffrn 1.351
_exptl_special_details
;
Melting point range 445.15-448.15K
Absolute configuration

;
_exptl_crystal_description 'prism'
_diffrn_ambient_temperature 123
#These two values have been output from a single CSD field.
_refine_ls_R_factor_gt 0.031
_refine_ls_wR_factor_gt 0.031
_symmetry_cell_setting monoclinic
_symmetry_space_group_name_H-M 'P 21'
_symmetry_Int_Tables_number 4
loop_
_symmetry_equiv_pos_site_id
_symmetry_equiv_pos_as_xyz
1 x,y,z
2 -x,1/2+y,-z
_cell_length_a 8.3201(2)
_cell_length_b 7.3604(2)
_cell_length_c 14.5839(3)
_cell_angle_alpha 90
_cell_angle_beta 105.938(2)
_cell_angle_gamma 90
_cell_formula_units_Z 2
loop_
_atom_type_symbol
_atom_type_radius_bond
C 0.68
H 0.23
N 0.68
O 0.68
loop_
_atom_site_label
_atom_site_type_symbol
_atom_site_fract_x
_atom_site_fract_y
_atom_site_fract_z
O1 O 0.46365(16) 0.53568(19) 0.79308(9)
O2 O 1.13402(19) 1.0230(3) 0.79664(12)
O3 O 0.63755(18) 0.6271(2) 0.60872(9)
O4 O 0.79083(17) 0.4975(2) 0.7356(1)
N1 N 0.69547(19) 0.6180(2) 0.69513(11)
C1 C 0.5945(2) 0.6605(3) 0.83530(13)
H1 H 0.69090 0.59320 0.87600
H2 H 0.55480 0.74700 0.87630
C2 C 0.6501(2) 0.7655(3) 0.75900(13)
C3 C 0.8114(2) 0.8772(3) 0.80040(13)
H3 H 0.90650 0.78950 0.81950
C4 C 0.8418(2) 0.9958(3) 0.72226(13)
C5 C 0.7216(3) 1.0456(3) 0.64506(14)
H4 H 0.75540 1.11270 0.59790
C6 C 0.5389(2) 1.0058(3) 0.62568(12)
H5 H 0.50040 0.94310 0.56260
C7 C 0.5022(2) 0.8806(3) 0.70268(13)
H6 H 0.47740 0.96520 0.75070
C8 C 0.3478(2) 0.7615(3) 0.67008(13)
C9 C 0.2120(3) 0.8073(3) 0.59311(15)
H7 H 0.21810 0.91280 0.55670
C10 C 0.0674(3) 0.7009(3) 0.56884(16)
H8 H -0.02380 0.73440 0.51640
C11 C 0.0571(3) 0.5468(3) 0.62107(15)
H9 H -0.04230 0.47610 0.60560
C12 C 0.1919(2) 0.4953(3) 0.69615(14)
H10 H 0.18670 0.38760 0.73110
C13 C 0.3347(2) 0.6027(3) 0.71967(14)
C14 C 0.8023(2) 0.9791(3) 0.88982(13)
C15 C 0.8746(2) 0.9002(3) 0.97887(15)
H11 H 0.93520 0.78980 0.98260
C16 C 0.8588(3) 0.9812(3) 1.06182(14)
H12 H 0.90850 0.92620 1.12180
C17 C 0.7708(3) 1.1422(3) 1.05747(14)
H13 H 0.75900 1.19690 1.11420
C18 C 0.6999(3) 1.2232(3) 0.96955(15)
H14 H 0.63900 1.33330 0.96630
C19 C 0.7178(3) 1.1437(3) 0.88620(14)
H15 H 0.67220 1.20190 0.82660
C20 C 1.0141(3) 1.0545(3) 0.73029(16)
H16 H 1.024(3) 1.123(4) 0.6746(17)
C21 C 0.4452(3) 1.1877(3) 0.61932(15)
H17 H 0.32510 1.16450 0.60660
H18 H 0.48530 1.25340 0.67980
H19 H 0.46560 1.26100 0.56750
#END
