
#######################################################################
#
#                 Cambridge Crystallographic Data Centre
#                                CCDC
#
#######################################################################
#
# If this CIF has been generated from an entry in the Cambridge
# Structural Database, then it will include bibliographic, chemical,
# crystal, experimental, refinement or atomic coordinate data resulting
# from the CCDC's data processing and validation procedures.
#
#######################################################################

data_CSD_CIF_BAXIFL
_audit_creation_date 1979-09-10
_audit_creation_method CSD-ConQuest-V1
_database_code_CSD BAXIFL
_chemical_formula_sum 'C20 H24 N2 O2'
_chemical_formula_moiety
;
C20 H24 N2 O2
;
_journal_coeditor_code "IUCr A17486"
_journal_coden_Cambridge 107
_journal_volume 35
_journal_year 1979
_journal_page_first 1144
_journal_name_full 'Acta Crystallogr.,Sect.B:Struct.Crystallogr.Cryst.Chem. '
loop_
_publ_author_name
"A.Carpy"
"M.Gadret"
"J.M.Leger"
"C.G.Wermuth"
"G.Leclerc"
_chemical_name_systematic
;
9-(3-t-Butylamino-2-hydroxy-propoxyimino)-fluorene
;
_cell_volume   1810.840
_exptl_crystal_density_diffrn 1.19
_diffrn_ambient_temperature ?
_diffrn_special_details
;
The study was carried out at room temperature,in the range 283-303K

;
#These two values have been output from a single CSD field.
_refine_ls_R_factor_gt 0.068
_refine_ls_wR_factor_gt 0.068
_symmetry_cell_setting monoclinic
_symmetry_space_group_name_H-M 'P 21/c'
_symmetry_Int_Tables_number 14
loop_
_symmetry_equiv_pos_site_id
_symmetry_equiv_pos_as_xyz
1 x,y,z
2 -x,1/2+y,1/2-z
3 -x,-y,-z
4 x,-1/2-y,-1/2+z
_cell_length_a 15.882(3)
_cell_length_b 5.873(1)
_cell_length_c 19.969(2)
_cell_angle_alpha 90
_cell_angle_beta 103.54
_cell_angle_gamma 90
_cell_formula_units_Z 4
loop_
_atom_type_symbol
_atom_type_radius_bond
C 0.68
H 0.23
N 0.68
O 0.68
loop_
_atom_site_label
_atom_site_type_symbol
_atom_site_fract_x
_atom_site_fract_y
_atom_site_fract_z
C1 C 0.19240 0.73770 0.26140
C2 C 0.17230 0.86350 0.32000
C3 C 0.19450 0.82030 0.38980
C4 C 0.16540 0.97420 0.43210
C5 C 0.11490 1.16510 0.40410
C6 C 0.09410 1.21150 0.33400
C7 C 0.12250 1.05220 0.29210
C8 C 0.10890 1.05400 0.21630
C9 C 0.06400 1.20220 0.16690
C10 C 0.06280 1.15230 0.09780
C11 C 0.10070 0.95580 0.07900
C12 C 0.14470 0.80800 0.12940
C13 C 0.14910 0.85690 0.19890
N1 N 0.24030 0.55690 0.25650
O1 O 0.27660 0.47260 0.32060
C14 C 0.33450 0.28730 0.31150
C15 C 0.41950 0.38340 0.30090
O2 O 0.46910 0.19050 0.28770
C16 C 0.46780 0.50830 0.36520
N2 N 0.55120 0.58720 0.35320
C17 C 0.61270 0.68260 0.41230
C18 C 0.56800 0.87060 0.44790
C19 C 0.64750 0.50310 0.46810
C20 C 0.68590 0.79590 0.38400
H1 H 0.23360 0.68480 0.41000
H2 H 0.17900 0.95400 0.48370
H3 H 0.09440 1.28340 0.43480
H4 H 0.06710 1.35170 0.31410
H5 H 0.03600 1.33760 0.18050
H6 H 0.03180 1.26630 0.06090
H7 H 0.09710 0.92390 0.02830
H8 H 0.17640 0.65640 0.12000
H9 H 0.34770 0.18930 0.35500
H10 H 0.30510 0.19170 0.26840
H11 H 0.40720 0.49050 0.25710
H12 H 0.42970 0.64740 0.37250
H13 H 0.47800 0.40430 0.40800
H14 H 0.56640 0.56530 0.30520
#END
