
#######################################################################
#
#                 Cambridge Crystallographic Data Centre
#                                CCDC
#
#######################################################################
#
# If this CIF has been generated from an entry in the Cambridge
# Structural Database, then it will include bibliographic, chemical,
# crystal, experimental, refinement or atomic coordinate data resulting
# from the CCDC's data processing and validation procedures.
#
#######################################################################

data_CSD_CIF_BAXSEY01
_audit_creation_date 1983-09-01
_audit_creation_method CSD-ConQuest-V1
_database_code_CSD BAXSEY01
_chemical_formula_sum 'C12 H15 N1 O8'
_chemical_formula_moiety
;
C12 H15 N1 O8
;
_journal_coden_Cambridge 5
_journal_volume 161
_journal_year 1982
_journal_page_first 69
_journal_name_full 'Z.Kristallogr.,Kristallgeom.,Kristallphys.,Kristallchem. '
loop_
_publ_author_name
"P.G.Jones"
"G.M.Sheldrick"
"A.J.Kirby"
"W.B.T.Cruse"
_chemical_name_systematic
;
4-Nitrophenyl \a-D-glucopyranoside
;
_cell_volume   1275.118
_exptl_crystal_colour 'pale yellow'
_exptl_crystal_density_diffrn 1.57
_diffrn_ambient_temperature ?
_diffrn_special_details
;
The study was carried out at room temperature,in the range 283-303K

;
#These two values have been output from a single CSD field.
_refine_ls_R_factor_gt 0.032
_refine_ls_wR_factor_gt 0.032
_symmetry_cell_setting monoclinic
_symmetry_space_group_name_H-M 'P 21'
_symmetry_Int_Tables_number 4
loop_
_symmetry_equiv_pos_site_id
_symmetry_equiv_pos_as_xyz
1 x,y,z
2 -x,1/2+y,-z
_cell_length_a 28.045(6)
_cell_length_b 6.767(2)
_cell_length_c 6.719(2)
_cell_angle_alpha 90
_cell_angle_beta 90.30(2)
_cell_angle_gamma 90
_cell_formula_units_Z 4
loop_
_atom_type_symbol
_atom_type_radius_bond
C 0.68
H 0.23
N 0.68
O 0.68
loop_
_atom_site_label
_atom_site_type_symbol
_atom_site_fract_x
_atom_site_fract_y
_atom_site_fract_z
O1 O 0.40800 0.74880 0.05280
C1 C 0.44380 0.72890 0.19110
C2 C 0.48930 0.75330 0.11560
H1 H 0.49350 0.78340 -0.02290
C3 C 0.52870 0.73450 0.23810
H2 H 0.56040 0.74500 0.18590
C4 C 0.52110 0.69980 0.43930
C5 C 0.47600 0.68140 0.51840
H3 H 0.47200 0.66060 0.65860
C6 C 0.43670 0.69320 0.39300
H4 H 0.40510 0.67700 0.44440
N1 N 0.56290 0.68940 0.57050
O2 O 0.60180 0.66530 0.49600
O3 O 0.55700 0.70420 0.75000
C7 C 0.36210 0.67300 0.09460
H5 H 0.36450 0.55690 0.17630
C8 C 0.33890 0.62750 -0.10710
H6 H 0.30840 0.56790 -0.08500
O4 O 0.36760 0.49440 -0.21410
H7 H 0.35350 0.38840 -0.23690
C9 C 0.33140 0.81690 -0.22550
H8 H 0.36170 0.86950 -0.26400
O5 O 0.30220 0.76930 -0.39420
H9 H 0.31290 0.78610 -0.48550
C10 C 0.30570 0.97050 -0.10260
H10 H 0.27370 0.92380 -0.08390
O6 O 0.30580 1.15450 -0.20560
H11 H 0.27760 1.20360 -0.18460
C11 C 0.32790 0.99890 0.10470
H12 H 0.35780 1.06490 0.08390
C12 C 0.29640 1.12010 0.23930
H13 H 0.29370 1.25150 0.18640
H14 H 0.30150 1.12550 0.36960
O7 O 0.24990 1.03610 0.25400
H15 H 0.23390 1.09300 0.18720
O8 O 0.33430 0.81000 0.20260
O9 O 0.09780 0.22740 0.53460
C13 C 0.06200 0.21240 0.39520
C14 C 0.01670 0.24960 0.46980
H16 H 0.01280 0.28640 0.60670
C15 C -0.02240 0.23350 0.34680
H17 H -0.05390 0.25730 0.39680
C16 C -0.01560 0.18210 0.14870
C17 C 0.02920 0.15080 0.07170
H18 H 0.03300 0.11940 -0.06670
C18 C 0.06880 0.16480 0.19480
H19 H 0.10020 0.14240 0.14360
N2 N -0.05760 0.16340 0.01970
O10 O -0.09760 0.15790 0.09760
O11 O -0.05160 0.15320 -0.16100
C19 C 0.14450 0.17180 0.47650
H20 H 0.14320 0.04800 0.40680
C20 C 0.17530 0.14890 0.66320
H21 H 0.20480 0.09080 0.62190
O12 O 0.15380 0.02250 0.80320
H22 H 0.16350 -0.09260 0.78350
C21 C 0.18570 0.34720 0.75850
H23 H 0.15720 0.40040 0.81620
O13 O 0.22150 0.31790 0.90890
H24 H 0.22190 0.41140 0.97220
C22 C 0.20330 0.49230 0.60380
H25 H 0.23340 0.44700 0.55420
O14 O 0.20920 0.68240 0.69320
H26 H 0.23530 0.71430 0.65560
C23 C 0.16880 0.50480 0.42900
H27 H 0.13930 0.55500 0.48070
C24 C 0.18450 0.64310 0.26700
H28 H 0.18360 0.77600 0.31680
H29 H 0.16290 0.63090 0.15630
O15 O 0.23150 0.60080 0.20070
H30 H 0.24420 0.69350 0.20110
O16 O 0.16420 0.31070 0.34320
#END
