
#######################################################################
#
#                 Cambridge Crystallographic Data Centre
#                                CCDC
#
#######################################################################
#
# If this CIF has been generated from an entry in the Cambridge
# Structural Database, then it will include bibliographic, chemical,
# crystal, experimental, refinement or atomic coordinate data resulting
# from the CCDC's data processing and validation procedures.
#
#######################################################################

data_CSD_CIF_BAXSEY
_audit_creation_date 1982-07-05
_audit_creation_method CSD-ConQuest-V1
_database_code_CSD BAXSEY
_chemical_formula_sum 'C12 H15 N1 O8'
_chemical_formula_moiety
;
C12 H15 N1 O8
;
_journal_coeditor_code "IUCr A20813"
_journal_coden_Cambridge 107
_journal_volume 38
_journal_year 1982
_journal_page_first 184
_journal_name_full 'Acta Crystallogr.,Sect.B:Struct.Crystallogr.Cryst.Chem. '
loop_
_publ_author_name
"P.Swaminathan"
_chemical_name_systematic
;
p-Nitrophenyl \a-D-glucopyranoside
;
_cell_volume   1270.885
_exptl_crystal_density_diffrn 1.574
_diffrn_ambient_temperature ?
_diffrn_special_details
;
The study was carried out at room temperature,in the range 283-303K

;
#These two values have been output from a single CSD field.
_refine_ls_R_factor_gt 0.039
_refine_ls_wR_factor_gt 0.039
_symmetry_cell_setting monoclinic
_symmetry_space_group_name_H-M 'P 21'
_symmetry_Int_Tables_number 4
loop_
_symmetry_equiv_pos_site_id
_symmetry_equiv_pos_as_xyz
1 x,y,z
2 -x,1/2+y,-z
_cell_length_a 28.81(1)
_cell_length_b 6.747(3)
_cell_length_c 6.729(5)
_cell_angle_alpha 90
_cell_angle_beta 103.68(5)
_cell_angle_gamma 90
_cell_formula_units_Z 4
loop_
_atom_type_symbol
_atom_type_radius_bond
C 0.68
H 0.23
N 0.68
O 0.68
loop_
_atom_site_label
_atom_site_type_symbol
_atom_site_fract_x
_atom_site_fract_y
_atom_site_fract_z
O1 O -0.09680 -0.24980 -0.50000
O2 O -0.05180 -0.25330 -0.71490
N1 N -0.05750 -0.24330 -0.54050
C1 C 0.06200 -0.19570 -0.04490
C2 C 0.01660 -0.15840 -0.01670
C3 C -0.02250 -0.17450 -0.17850
C4 C -0.01560 -0.22340 -0.36850
C5 C 0.02930 -0.25620 -0.40140
C6 C 0.06860 -0.24130 -0.23590
C7 C 0.14460 -0.23610 0.11870
C8 C 0.17520 -0.25800 0.33960
C9 C 0.18550 -0.06130 0.44270
C10 C 0.20330 0.08330 0.30770
C11 C 0.16870 0.09980 0.09790
C12 C 0.18470 0.23700 -0.04800
O3 O 0.09770 -0.17990 0.13050
O4 O 0.15340 -0.38500 0.45540
O5 O 0.22130 -0.08990 0.62970
O6 O 0.20900 0.27370 0.40160
O7 O 0.16420 -0.09620 0.00640
O8 O 0.23160 0.19380 -0.06840
O9 O -0.60200 -0.24140 -0.59810
O10 O -0.55680 -0.20440 -0.80470
N2 N -0.56290 -0.21800 -0.63280
C13 C -0.44380 -0.17740 -0.13390
C14 C -0.48880 -0.15510 -0.10350
C15 C -0.52860 -0.17280 -0.26740
C16 C -0.52090 -0.20800 -0.45840
C17 C -0.47600 -0.22640 -0.49370
C18 C -0.43670 -0.21450 -0.32730
C19 C -0.36200 -0.23440 0.04500
C20 C -0.33900 -0.27720 0.26830
C21 C -0.33160 -0.08860 0.39420
C22 C -0.30540 0.06240 0.29630
C23 C -0.32790 0.09130 0.06800
C24 C -0.29670 0.21460 -0.03570
O11 O -0.40820 -0.15960 0.03900
O12 O -0.36750 -0.41300 0.34730
O13 O -0.30220 -0.13840 0.59200
O14 O -0.30560 0.24730 0.39930
O15 O -0.33420 -0.09790 -0.03580
O16 O -0.24990 0.12910 -0.00500
H1 H 0.03300 -0.28600 -0.53800
H2 H 0.10300 -0.25700 -0.26600
H3 H 0.01200 -0.12800 0.12300
H4 H -0.05300 -0.14700 -0.17500
H5 H 0.14400 -0.37500 0.03900
H6 H 0.20900 -0.31500 0.31500
H7 H 0.16200 -0.47800 0.44500
H8 H 0.15600 -0.01000 0.47900
H9 H 0.22100 -0.01400 0.71600
H10 H 0.23400 0.02500 0.27300
H11 H 0.23400 0.30800 0.40600
H12 H 0.13600 0.13900 0.11000
H13 H 0.18400 0.38200 0.02000
H14 H 0.16600 0.21700 -0.19600
H15 H 0.25600 0.28800 -0.09500
H16 H -0.47100 -0.25100 -0.62800
H17 H -0.40600 -0.24300 -0.35200
H18 H -0.49200 -0.13000 0.04500
H19 H -0.55900 -0.15000 -0.25400
H20 H -0.36200 -0.35000 -0.02900
H21 H -0.31000 -0.33700 0.27300
H22 H -0.35600 -0.51500 0.38100
H23 H -0.36300 -0.04000 0.41800
H24 H -0.31300 -0.12300 0.69100
H25 H -0.27300 0.01400 0.30900
H26 H -0.27800 0.30600 0.39600
H27 H -0.36200 0.15300 0.05500
H28 H -0.29600 0.35100 0.03200
H29 H -0.31100 0.21700 -0.18100
H30 H -0.23100 0.18900 0.06300
#END
