
#######################################################################
#
#                 Cambridge Crystallographic Data Centre
#                                CCDC
#
#######################################################################
#
# If this CIF has been generated from an entry in the Cambridge
# Structural Database, then it will include bibliographic, chemical,
# crystal, experimental, refinement or atomic coordinate data resulting
# from the CCDC's data processing and validation procedures.
#
#######################################################################

data_CSD_CIF_BAXYEH
_audit_creation_date 2017-06-07
_audit_creation_method CSD-ConQuest-V1
_database_code_CSD BAXYEH
_database_code_depnum_ccdc_archive 'CCDC 1510902'
_chemical_formula_sum 'C26 H28 N2 O3'
_chemical_formula_moiety
;
C26 H28 N2 O3
;
_journal_coden_Cambridge 1475
_journal_volume 8
_journal_year 2017
_journal_page_first 5482
_journal_name_full 'Chemical Science '
loop_
_publ_author_name
"Jinxian Liu"
"M.Skaria"
"P.Sharma"
"Yun-Wei Chiang"
"Rai-Shung Liu"
_chemical_name_systematic
;
4-(oxy(4-methylphenyl)iminio)-5-(4-methoxyphenyl)-3,3-dimethyl-2-(4-methylphen
yl)-1,2-oxazolidine
;
_cell_volume   1168.249
_exptl_crystal_colour 'colorless'
_exptl_crystal_density_diffrn 1.184
_exptl_crystal_description 'prism'
_diffrn_ambient_temperature 296
#These two values have been output from a single CSD field.
_refine_ls_R_factor_gt 0.0641
_refine_ls_wR_factor_gt 0.0641
_symmetry_cell_setting triclinic
_symmetry_space_group_name_H-M 'P -1'
_symmetry_Int_Tables_number 2
loop_
_symmetry_equiv_pos_site_id
_symmetry_equiv_pos_as_xyz
1 x,y,z
2 -x,-y,-z
_cell_length_a 10.294(2)
_cell_length_b 10.7033(19)
_cell_length_c 12.376(2)
_cell_angle_alpha 69.312(6)
_cell_angle_beta 79.586(8)
_cell_angle_gamma 66.460(6)
_cell_formula_units_Z 2
loop_
_atom_type_symbol
_atom_type_radius_bond
C 0.68
H 0.23
N 0.68
O 0.68
loop_
_atom_site_label
_atom_site_type_symbol
_atom_site_fract_x
_atom_site_fract_y
_atom_site_fract_z
C1 C 1.1657(3) 0.6495(3) 1.1398(2)
C2 C 1.0710(3) 0.7375(3) 1.2007(2)
H1 H 0.97900 0.79250 1.17640
C3 C 1.1140(3) 0.7435(3) 1.2983(3)
H2 H 1.04910 0.80250 1.33900
C4 C 1.2499(4) 0.6646(3) 1.3372(3)
C5 C 1.2965(4) 0.6745(4) 1.4421(3)
H3 H 1.39370 0.61210 1.45530
H4 H 1.23800 0.64620 1.50850
H5 H 1.28750 0.77140 1.42900
C6 C 1.3422(3) 0.5761(3) 1.2760(3)
H6 H 1.43430 0.52150 1.30000
C7 C 1.3010(3) 0.5666(3) 1.1797(2)
H7 H 1.36470 0.50410 1.14140
C8 C 1.1834(3) 0.7152(3) 0.9237(2)
C9 C 1.1764(3) 0.8625(3) 0.9182(3)
H8 H 1.24650 0.85100 0.96620
H9 H 1.08380 0.91460 0.94510
H10 H 1.19440 0.91460 0.83980
C10 C 1.3332(3) 0.6211(3) 0.8961(3)
H11 H 1.39780 0.61560 0.94620
H12 H 1.36030 0.66170 0.81710
H13 H 1.33580 0.52650 0.90770
C11 C 1.0752(3) 0.7297(3) 0.8492(2)
C12 C 0.9853(3) 0.7694(3) 0.6691(2)
C13 C 0.9003(4) 0.8963(4) 0.5980(3)
H14 H 0.90650 0.98240 0.59330
C14 C 0.8057(4) 0.8948(4) 0.5335(3)
H15 H 0.74690 0.98100 0.48560
C15 C 0.7963(5) 0.7673(5) 0.5385(3)
C16 C 0.6887(6) 0.7670(6) 0.4690(4)
H16 H 0.63490 0.86380 0.42600
H17 H 0.62590 0.72370 0.52050
H18 H 0.73750 0.71320 0.41640
C17 C 0.8854(4) 0.6420(4) 0.6083(3)
H19 H 0.88180 0.55540 0.61120
C18 C 0.9805(4) 0.6410(4) 0.6743(3)
H20 H 1.04030 0.55500 0.72150
C19 C 0.9499(3) 0.6992(3) 0.9210(2)
H21 H 0.95430 0.60430 0.92580
C20 C 0.8041(3) 0.8091(3) 0.8895(2)
C21 C 0.7015(3) 0.7727(3) 0.8637(3)
H22 H 0.72350 0.67930 0.86450
C22 C 0.5671(4) 0.8727(4) 0.8368(3)
H23 H 0.49950 0.84670 0.81880
C23 C 0.5331(3) 1.0111(4) 0.8366(2)
C24 C 0.3548(4) 1.2439(4) 0.8136(3)
H24 H 0.25710 1.29610 0.79490
H25 H 0.41290 1.28990 0.75780
H26 H 0.36700 1.24210 0.88930
C25 C 0.6336(3) 1.0495(3) 0.8612(2)
H27 H 0.61150 1.14280 0.86090
C26 C 0.7682(3) 0.9485(3) 0.8865(2)
H28 H 0.83650 0.97560 0.90200
N1 N 1.1315(2) 0.6334(2) 1.03888(19)
N2 N 1.0865(3) 0.7705(3) 0.7364(2)
O1 O 0.97615(19) 0.69869(19) 1.03223(15)
O2 O 1.1881(2) 0.8120(3) 0.67603(18)
O3 O 0.3953(2) 1.1017(3) 0.81162(19)
#END
