
#######################################################################
#
#                 Cambridge Crystallographic Data Centre
#                                CCDC
#
#######################################################################
#
# If this CIF has been generated from an entry in the Cambridge
# Structural Database, then it will include bibliographic, chemical,
# crystal, experimental, refinement or atomic coordinate data resulting
# from the CCDC's data processing and validation procedures.
#
#######################################################################

data_CSD_CIF_BAYDUA
_audit_creation_date 1982-07-05
_audit_creation_method CSD-ConQuest-V1
_database_code_CSD BAYDUA
_database_code_depnum_ccdc_archive 'CCDC 1106868'
_chemical_formula_sum 'C11 H11 N1 O1'
_chemical_formula_moiety
;
C11 H11 N1 O1
;
_journal_coden_Cambridge 189
_journal_volume 10
_journal_year 1981
_journal_page_first 1221
_journal_name_full 'Cryst.Struct.Commun. '
loop_
_publ_author_name
"R.Roques"
"J.P.Declercq"
"G.Germain"
"R.Escale"
"J.P.Girard"
"J.C.Rossi"
"J.P.Vidal"
_chemical_name_systematic
;
1-Oximino-benzobicyclo(3.1.1)heptene
;
_cell_volume   5523.975
_exptl_crystal_density_diffrn 1.25
_diffrn_ambient_temperature ?
_diffrn_special_details
;
The study was carried out at room temperature,in the range 283-303K

;
#These two values have been output from a single CSD field.
_refine_ls_R_factor_gt 0.09
_refine_ls_wR_factor_gt 0.09
_symmetry_cell_setting orthorhombic
_symmetry_space_group_name_H-M 'P c a b'
_symmetry_Int_Tables_number 61
loop_
_symmetry_equiv_pos_site_id
_symmetry_equiv_pos_as_xyz
1 x,y,z
2 -x,1/2-y,1/2+z
3 1/2+x,-y,1/2-z
4 1/2-x,1/2+y,-z
5 -x,-y,-z
6 x,-1/2+y,-1/2-z
7 -1/2-x,y,-1/2+z
8 -1/2+x,-1/2-y,z
_cell_length_a 37.021(13)
_cell_length_b 12.501(5)
_cell_length_c 11.936(5)
_cell_angle_alpha 90
_cell_angle_beta 90
_cell_angle_gamma 90
_cell_formula_units_Z 24
loop_
_atom_type_symbol
_atom_type_radius_bond
C 0.68
N 0.68
O 0.68
loop_
_atom_site_label
_atom_site_type_symbol
_atom_site_fract_x
_atom_site_fract_y
_atom_site_fract_z
C1 C 0.45140 0.31100 0.02530
C2 C 0.48370 0.34620 -0.03800
C3 C 0.51810 0.33090 0.04390
C4 C 0.51680 0.20830 0.01070
C5 C 0.48690 0.15710 0.07840
C6 C 0.49370 0.05850 0.13890
C7 C 0.46570 0.01480 0.20640
C8 C 0.43280 0.06720 0.20700
C9 C 0.42550 0.16420 0.14710
C10 C 0.45350 0.20660 0.08290
C11 C 0.49860 0.24460 -0.10540
N1 N 0.42230 0.36260 0.03420
O1 O 0.42310 0.46420 -0.02410
C12 C 0.29620 0.26150 0.05180
C13 C 0.29310 0.16220 -0.02400
C14 C 0.27700 0.07140 0.06210
C15 C 0.23930 0.11990 0.04220
C16 C 0.23610 0.21920 0.11400
C17 C 0.20420 0.23840 0.17830
C18 C 0.20020 0.33110 0.24140
C19 C 0.22890 0.40920 0.23970
C20 C 0.26050 0.39020 0.17960
C21 C 0.26340 0.29470 0.11530
C22 C 0.25350 0.16270 -0.07980
N2 N 0.32510 0.32060 0.05660
O2 O 0.35380 0.27830 -0.00870
C23 C 0.36430 0.67750 0.05010
C24 C 0.35150 0.74310 0.15000
C25 C 0.38390 0.82740 0.17570
C26 C 0.36670 0.89670 0.07800
C27 C 0.37980 0.84840 -0.03080
C28 C 0.39290 0.91350 -0.11770
C29 C 0.40660 0.86360 -0.22220
C30 C 0.40510 0.75800 -0.23500
C31 C 0.39050 0.68900 -0.14410
C32 C 0.37810 0.73830 -0.04670
C33 C 0.32990 0.84110 0.10190
N3 N 0.35970 0.57550 0.03920
O3 O 0.34430 0.52730 0.13270
#END
