
#######################################################################
#
#                 Cambridge Crystallographic Data Centre
#                                CCDC
#
#######################################################################
#
# If this CIF has been generated from an entry in the Cambridge
# Structural Database, then it will include bibliographic, chemical,
# crystal, experimental, refinement or atomic coordinate data resulting
# from the CCDC's data processing and validation procedures.
#
#######################################################################

data_CSD_CIF_BAYFIT
_audit_creation_date 2017-06-07
_audit_creation_method CSD-ConQuest-V1
_database_code_CSD BAYFIT
_database_code_depnum_ccdc_archive 'CCDC 1499047'
_chemical_formula_sum 'C26 H37 N3 O5'
_chemical_formula_moiety
;
C26 H37 N3 O5
;
_journal_coden_Cambridge 179
_journal_volume 56
_journal_year 2017
_journal_page_first 324
_journal_name_full 'Angew.Chem.,Int.Ed. '
loop_
_publ_author_name
"S.R.McCabe"
"P.Wipf"
_chemical_name_systematic
;
5-((2-furyl(((2,2,6,6-tetramethylpiperidin-1-yl)oxy)carbonyl)amino)methyl)-5-h
ydroxy-1a,3-dimethyl-1,1a,3,3a,4,5-hexahydro-2H-cyclopropa[c]indol-2-one
;
_cell_volume   2604.767
_exptl_crystal_density_diffrn 1.203
_diffrn_ambient_temperature 229
#These two values have been output from a single CSD field.
_refine_ls_R_factor_gt 0.0922
_refine_ls_wR_factor_gt 0.0922
_symmetry_cell_setting monoclinic
_symmetry_space_group_name_H-M 'P 21/c'
_symmetry_Int_Tables_number 14
loop_
_symmetry_equiv_pos_site_id
_symmetry_equiv_pos_as_xyz
1 x,y,z
2 -x,1/2+y,1/2-z
3 -x,-y,-z
4 x,-1/2-y,-1/2+z
_cell_length_a 9.0643(13)
_cell_length_b 19.525(3)
_cell_length_c 15.1889(18)
_cell_angle_alpha 90
_cell_angle_beta 104.307(11)
_cell_angle_gamma 90
_cell_formula_units_Z 4
loop_
_atom_type_symbol
_atom_type_radius_bond
C 0.68
H 0.23
N 0.68
O 0.68
loop_
_atom_site_label
_atom_site_type_symbol
_atom_site_fract_x
_atom_site_fract_y
_atom_site_fract_z
O1 O 0.3718(3) 0.71375(13) 0.52526(16)
N1 N 0.5116(3) 0.64695(15) 0.63095(19)
C1 C 0.2265(5) 0.81229(19) 0.4733(3)
O2 O 0.2715(3) 0.67526(13) 0.64034(17)
N2 N 0.1017(3) 0.51393(16) 0.7153(2)
C2 C 0.0738(5) 0.8347(2) 0.4110(3)
H1 H -0.00810 0.82280 0.44000
H2 H 0.07400 0.88460 0.40420
O3 O 0.6186(3) 0.50353(15) 0.67015(19)
H3 H 0.715(6) 0.498(3) 0.694(3)
C3 C 0.0408(5) 0.8023(2) 0.3182(3)
H4 H 0.11810 0.81620 0.28670
H5 H -0.05880 0.81750 0.28210
O4 O -0.0840(3) 0.48706(15) 0.78893(18)
C4 C 0.0416(5) 0.7250(2) 0.3283(3)
H6 H 0.02190 0.70400 0.26790
H7 H -0.04120 0.71150 0.35580
O5 O 0.7218(4) 0.7042(2) 0.6037(3)
C5 C 0.1922(4) 0.69733(19) 0.3868(3)
N3 N 0.2205(3) 0.73570(14) 0.47447(19)
C6 C 0.3604(5) 0.8431(2) 0.4429(3)
H8 H 0.36420 0.89210 0.45400
H9 H 0.34790 0.83460 0.37860
H10 H 0.45440 0.82230 0.47690
C7 C 0.2333(6) 0.8356(2) 0.5698(3)
H11 H 0.22180 0.88490 0.57080
H12 H 0.33070 0.82270 0.60940
H13 H 0.15190 0.81390 0.59080
C8 C 0.3164(5) 0.7003(2) 0.3358(3)
H14 H 0.30260 0.66300 0.29220
H15 H 0.41510 0.69590 0.37850
H16 H 0.31100 0.74370 0.30410
C9 C 0.1692(5) 0.6225(2) 0.4119(3)
H17 H 0.12550 0.59660 0.35710
H18 H 0.10090 0.62090 0.45200
H19 H 0.26660 0.60270 0.44240
C10 C 0.3728(4) 0.67788(17) 0.6028(2)
C11 C 0.5498(4) 0.61392(19) 0.7211(2)
H20 H 0.48790 0.63500 0.75840
H21 H 0.65680 0.62360 0.75040
C12 C 0.5255(4) 0.53573(18) 0.7206(2)
C13 C 0.3612(4) 0.51508(18) 0.6747(2)
H22 H 0.32200 0.54350 0.62090
H23 H 0.35810 0.46710 0.65540
C14 C 0.2649(4) 0.52448(17) 0.7410(2)
H24 H 0.28330 0.57150 0.76580
C15 C 0.0485(4) 0.48754(19) 0.7840(2)
C16 C 0.1795(4) 0.45581(19) 0.8527(2)
C17 C 0.2570(5) 0.40365(19) 0.8060(3)
H25 H 0.31610 0.36740 0.84350
H26 H 0.20430 0.38950 0.74440
C18 C 0.3184(4) 0.47538(17) 0.8191(2)
C19 C 0.4791(4) 0.48566(19) 0.8650(2)
H27 H 0.51590 0.47330 0.92630
C20 C 0.5722(4) 0.51259(19) 0.8194(2)
H28 H 0.67500 0.51780 0.85040
C21 C 0.0055(4) 0.5512(2) 0.6400(3)
H29 H 0.01360 0.53090 0.58310
H30 H 0.03810 0.59870 0.64220
H31 H -0.09940 0.54910 0.64430
C22 C 0.1694(5) 0.4478(2) 0.9491(3)
H32 H 0.26530 0.43040 0.98560
H33 H 0.08830 0.41600 0.95150
H34 H 0.14810 0.49200 0.97260
C23 C 0.6214(4) 0.6528(2) 0.5824(3)
C24 C 0.6469(5) 0.6171(3) 0.5111(3)
H35 H 0.59160 0.57860 0.48430
C25 C 0.7654(6) 0.6461(4) 0.4848(4)
H36 H 0.80550 0.63220 0.43620
C26 C 0.8131(5) 0.6977(4) 0.5412(4)
H37 H 0.89630 0.72610 0.53980
#END
