
#######################################################################
#
#                 Cambridge Crystallographic Data Centre
#                                CCDC
#
#######################################################################
#
# If this CIF has been generated from an entry in the Cambridge
# Structural Database, then it will include bibliographic, chemical,
# crystal, experimental, refinement or atomic coordinate data resulting
# from the CCDC's data processing and validation procedures.
#
#######################################################################

data_CSD_CIF_BAYLAP
_audit_creation_date 2004-01-20
_audit_creation_method CSD-ConQuest-V1
_database_code_CSD BAYLAP
_database_code_depnum_ccdc_archive 'CCDC 219373'
_chemical_formula_sum 'C17 H22 N2 O6'
_chemical_formula_moiety
;
C17 H22 N2 O6
;
_journal_coden_Cambridge 1336
_journal_volume 5
_journal_year 2003
_journal_page_first 3155
_journal_name_full 'Org.Lett. '
loop_
_publ_author_name
"J.Singh"
"D.R.Kronenthal"
"M.Schwinden"
"J.D.Godfrey"
"R.Fox"
"E.J.Vawter"
"Bo Zhang"
"T.P.Kissick"
"B.Patel"
"O.Mneimne"
"M.Humora"
"C.G.Papaioannou"
"W.Szymanski"
"M.K.Y.Wong"
"C.K.Chen"
"J.E.Heikes"
"J.D.DiMarco"
"Jun Qiu"
"R.P.Deshpande"
"J.Z.Gougoutas"
"R.H.Mueller"
_chemical_name_systematic
;
(Z)-6-Methyl-6-nitro-2-(((phenylmethoxy)carbonyl)amino)-2-heptenoic acid 
methyl ester
;
_cell_volume   1787.878
_exptl_crystal_colour 'colorless'
_exptl_crystal_density_diffrn 1.302
_exptl_crystal_description 'rods'
_diffrn_ambient_temperature 295
#These two values have been output from a single CSD field.
_refine_ls_R_factor_gt 0.062
_refine_ls_wR_factor_gt 0.062
_symmetry_cell_setting monoclinic
_symmetry_space_group_name_H-M 'P 21/n'
_symmetry_Int_Tables_number 14
loop_
_symmetry_equiv_pos_site_id
_symmetry_equiv_pos_as_xyz
1 x,y,z
2 1/2-x,1/2+y,1/2-z
3 -x,-y,-z
4 -1/2+x,-1/2-y,-1/2+z
_cell_length_a 16.539(2)
_cell_length_b 6.287(1)
_cell_length_c 17.498(2)
_cell_angle_alpha 90
_cell_angle_beta 100.69(1)
_cell_angle_gamma 90
_cell_formula_units_Z 4
loop_
_atom_type_symbol
_atom_type_radius_bond
C 0.68
H 0.23
N 0.68
O 0.68
loop_
_atom_site_label
_atom_site_type_symbol
_atom_site_fract_x
_atom_site_fract_y
_atom_site_fract_z
O1 O 1.1637(3) 0.1868(6) 0.2567(2)
O2 O 1.1238(2) -0.1101(5) 0.2074(2)
O3 O 0.7388(1) 0.5726(4) 0.0427(2)
O4 O 0.7331(1) 0.2160(4) 0.0595(2)
O5 O 0.9005(1) 0.9315(3) 0.1409(2)
O6 O 0.8176(1) 0.7279(3) 0.1969(1)
N1 N 1.1470(2) 0.0696(6) 0.2018(2)
N2 N 0.8466(1) 0.3839(4) 0.1092(2)
C1 C 0.9014(2) 0.5573(4) 0.1237(2)
C2 C 0.9807(2) 0.5386(5) 0.1201(2)
C3 C 1.0212(2) 0.3374(5) 0.1016(2)
C4 C 1.1140(2) 0.3597(5) 0.1085(2)
C5 C 1.1608(2) 0.1521(5) 0.1234(2)
C6 C 1.2533(2) 0.1876(6) 0.1316(2)
C7 C 1.1306(2) -0.0160(6) 0.0627(2)
C8 C 0.7694(2) 0.4075(6) 0.0678(2)
C9 C 0.6492(2) 0.2040(8) 0.0150(2)
C10 C 0.5912(2) 0.1574(6) 0.0690(2)
C11 C 0.5865(2) -0.0428(7) 0.0989(3)
C12 C 0.5319(3) -0.0845(8) 0.1492(3)
C13 C 0.4823(2) 0.0729(9) 0.1674(3)
C14 C 0.4865(3) 0.2701(9) 0.1384(3)
C15 C 0.5408(2) 0.3151(7) 0.0883(2)
C16 C 0.8730(2) 0.7582(5) 0.1524(2)
C17 C 0.7890(2) 0.9152(5) 0.2328(2)
H1 H 0.86520 0.23900 0.12970
H2 H 1.00970 0.21490 0.14140
H3 H 0.99480 0.29050 0.04270
H4 H 1.12600 0.42830 0.05400
H5 H 1.13660 0.46950 0.15510
H6 H 1.26840 0.24450 0.07760
H7 H 1.27450 0.30130 0.17720
H8 H 1.28600 0.03740 0.14670
H9 H 1.13940 0.04030 0.00580
H10 H 1.16450 -0.16100 0.07640
H11 H 1.06560 -0.04530 0.06010
H12 H 0.63140 0.35700 -0.01520
H13 H 0.64320 0.08210 -0.03000
H14 H 0.62410 -0.16940 0.08180
H15 H 0.53020 -0.24870 0.17360
H16 H 0.44140 0.02780 0.20610
H17 H 0.44660 0.39220 0.15390
H18 H 0.54500 0.47430 0.06330
H19 H 0.74360 0.86980 0.26730
H20 H 0.83980 0.99310 0.26930
H21 H 0.76020 1.02560 0.18780
H22 H 1.01920 0.68230 0.13260
#END
