
#######################################################################
#
#                 Cambridge Crystallographic Data Centre
#                                CCDC
#
#######################################################################
#
# If this CIF has been generated from an entry in the Cambridge
# Structural Database, then it will include bibliographic, chemical,
# crystal, experimental, refinement or atomic coordinate data resulting
# from the CCDC's data processing and validation procedures.
#
#######################################################################

data_CSD_CIF_BAZKES
_audit_creation_date 1982-07-05
_audit_creation_method CSD-ConQuest-V1
_database_code_CSD BAZKES
_database_code_depnum_ccdc_archive 'CCDC 1107021'
_chemical_formula_sum 'C11 H14 N2 O1'
_chemical_formula_moiety
;
C11 H14 N2 O1
;
_journal_coeditor_code "IUCr A20908"
_journal_coden_Cambridge 107
_journal_volume 38
_journal_year 1982
_journal_page_first 502
_journal_name_full 'Acta Crystallogr.,Sect.B:Struct.Crystallogr.Cryst.Chem. '
loop_
_publ_author_name
"V.Bertolasi"
"G.Gilli"
"A.C.Veronese"
_chemical_name_systematic
;
(E),(E)-3-(p-Tolylimino)-butan-2-one-oxime
;
_cell_volume   4316.162
_exptl_crystal_density_diffrn 1.17
_diffrn_ambient_temperature ?
_diffrn_special_details
;
The study was carried out at room temperature,in the range 283-303K

;
#These two values have been output from a single CSD field.
_refine_ls_R_factor_gt 0.045
_refine_ls_wR_factor_gt 0.045
_symmetry_cell_setting monoclinic
_symmetry_space_group_name_H-M 'B 21/c'
_symmetry_Int_Tables_number 14
loop_
_symmetry_equiv_pos_site_id
_symmetry_equiv_pos_as_xyz
1 x,y,z
2 1/2+x,y,1/2+z
3 -x,1/2+y,1/2-z
4 1/2-x,1/2+y,-z
5 -x,-y,-z
6 -1/2-x,-y,-1/2-z
7 x,-1/2-y,-1/2+z
8 -1/2+x,-1/2-y,z
_cell_length_a 19.539(4)
_cell_length_b 19.673(4)
_cell_length_c 11.242(3)
_cell_angle_alpha 90
_cell_angle_beta 92.80(3)
_cell_angle_gamma 90
_cell_formula_units_Z 16
loop_
_atom_type_symbol
_atom_type_radius_bond
C 0.68
H 0.23
N 0.68
O 0.68
loop_
_atom_site_label
_atom_site_type_symbol
_atom_site_fract_x
_atom_site_fract_y
_atom_site_fract_z
C1 C 0.44040 0.41140 0.27370
C2 C 0.42300 0.47380 0.32080
C3 C 0.45440 0.53230 0.28190
C4 C 0.50310 0.53050 0.19680
C5 C 0.51920 0.46770 0.15010
C6 C 0.48810 0.40890 0.18660
C7 C 0.53670 0.59420 0.15390
C8 C 0.41840 0.32490 0.41100
C9 C 0.46830 0.35420 0.50280
C10 C 0.37980 0.26340 0.44290
C11 C 0.32960 0.23080 0.35660
N1 N 0.40690 0.35000 0.30660
N2 N 0.39220 0.24290 0.54960
O1 O 0.35330 0.18660 0.57810
H1 H 0.36580 0.17690 0.65280
H2 H 0.38770 0.47420 0.37850
H3 H 0.44150 0.57410 0.31760
H4 H 0.55670 0.46450 0.09010
H5 H 0.50330 0.36290 0.15340
H6 H 0.50940 0.61570 0.09180
H7 H 0.54050 0.62560 0.21110
H8 H 0.57520 0.58920 0.11080
H9 H 0.49380 0.31820 0.54840
H10 H 0.50260 0.38580 0.46760
H11 H 0.44320 0.37500 0.55890
H12 H 0.35180 0.21660 0.27320
H13 H 0.31420 0.19060 0.38000
H14 H 0.30490 0.26090 0.31960
C12 C 0.29210 -0.09210 0.52240
C13 C 0.23630 -0.10580 0.44650
C14 C 0.20010 -0.05260 0.39330
C15 C 0.21880 0.01420 0.41160
C16 C 0.27610 0.02670 0.48390
C17 C 0.31240 -0.02560 0.53930
C18 C 0.17800 0.07270 0.35550
C19 C 0.32570 -0.16070 0.68700
C20 C 0.28200 -0.12140 0.76940
C21 C 0.36540 -0.21950 0.73460
C22 C 0.41790 -0.25380 0.66410
N3 N 0.33010 -0.14760 0.57540
N4 N 0.34980 -0.23920 0.83860
O2 O 0.38730 -0.29590 0.87590
H15 H 0.36900 -0.30880 0.94490
H16 H 0.22340 -0.15280 0.43220
H17 H 0.16190 -0.06150 0.34920
H18 H 0.29020 0.07640 0.50010
H19 H 0.35190 -0.01510 0.59030
H20 H 0.13190 0.06130 0.35840
H21 H 0.17810 0.07140 0.26990
H22 H 0.19280 0.11460 0.37780
H23 H 0.26780 -0.15280 0.82890
H24 H 0.30640 -0.08870 0.80730
H25 H 0.24000 -0.10240 0.72940
H26 H 0.46020 -0.26840 0.72420
H27 H 0.39780 -0.29230 0.62850
H28 H 0.43850 -0.22560 0.60930
#END
