
#######################################################################
#
#                 Cambridge Crystallographic Data Centre
#                                CCDC
#
#######################################################################
#
# If this CIF has been generated from an entry in the Cambridge
# Structural Database, then it will include bibliographic, chemical,
# crystal, experimental, refinement or atomic coordinate data resulting
# from the CCDC's data processing and validation procedures.
#
#######################################################################

data_CSD_CIF_BAZKIW
_audit_creation_date 1982-07-05
_audit_creation_method CSD-ConQuest-V1
_database_code_CSD BAZKIW
_database_code_depnum_ccdc_archive 'CCDC 1107022'
_chemical_formula_sum 'C12 H14 N2 O2'
_chemical_formula_moiety
;
C12 H14 N2 O2
;
_journal_coeditor_code "IUCr A20908"
_journal_coden_Cambridge 107
_journal_volume 38
_journal_year 1982
_journal_page_first 502
_journal_name_full 'Acta Crystallogr.,Sect.B:Struct.Crystallogr.Cryst.Chem. '
loop_
_publ_author_name
"V.Bertolasi"
"G.Gilli"
"A.C.Veronese"
_chemical_name_systematic
;
(E),(Z)-4-(p-Tolylimino)-pentane-2,3-dione-3-oxime
;
_cell_volume   1202.579
_exptl_crystal_density_diffrn 1.2
_diffrn_ambient_temperature ?
_diffrn_special_details
;
The study was carried out at room temperature,in the range 283-303K

;
#These two values have been output from a single CSD field.
_refine_ls_R_factor_gt 0.047
_refine_ls_wR_factor_gt 0.047
_symmetry_cell_setting orthorhombic
_symmetry_space_group_name_H-M 'P 21 21 21'
_symmetry_Int_Tables_number 19
loop_
_symmetry_equiv_pos_site_id
_symmetry_equiv_pos_as_xyz
1 x,y,z
2 1/2+x,1/2-y,-z
3 -x,1/2+y,1/2-z
4 1/2-x,-y,1/2+z
_cell_length_a 7.296(2)
_cell_length_b 14.747(3)
_cell_length_c 11.177(3)
_cell_angle_alpha 90
_cell_angle_beta 90
_cell_angle_gamma 90
_cell_formula_units_Z 4
loop_
_atom_type_symbol
_atom_type_radius_bond
C 0.68
H 0.23
N 0.68
O 0.68
loop_
_atom_site_label
_atom_site_type_symbol
_atom_site_fract_x
_atom_site_fract_y
_atom_site_fract_z
C1 C 0.55130 -0.05240 0.73600
C2 C 0.70790 -0.06280 0.66790
C3 C 0.86310 -0.10100 0.71720
C4 C 0.86690 -0.13070 0.83590
C5 C 0.70810 -0.12260 0.90130
C6 C 0.55060 -0.08440 0.85270
C7 C 1.03780 -0.16810 0.89100
C8 C 0.32300 0.05860 0.72980
C9 C 0.15390 0.10140 0.67950
C10 C 0.40770 0.10830 0.83230
C11 C 0.56790 0.16780 0.80520
C12 C 0.64850 0.22410 0.90200
N1 N 0.39110 -0.01310 0.68410
N2 N 0.34890 0.10680 0.94090
O1 O 0.19880 0.04980 0.95170
O2 O 0.62610 0.16940 0.70380
H1 H 0.16190 0.04670 1.02100
H2 H 0.70450 -0.04330 0.59150
H3 H 0.97500 -0.10790 0.67070
H4 H 0.70740 -0.14670 0.98020
H5 H 0.43370 -0.07520 0.90030
H6 H 1.11060 -0.20810 0.84390
H7 H 0.99200 -0.21080 0.97210
H8 H 1.12080 -0.13190 0.90560
H9 H 0.06390 0.11020 0.74170
H10 H 0.11150 0.06980 0.60890
H11 H 0.19170 0.15830 0.65330
H12 H 0.70150 0.19420 0.95380
H13 H 0.53640 0.25870 0.94560
H14 H 0.73080 0.26440 0.86850
#END
