
#######################################################################
#
#                 Cambridge Crystallographic Data Centre
#                                CCDC
#
#######################################################################
#
# If this CIF has been generated from an entry in the Cambridge
# Structural Database, then it will include bibliographic, chemical,
# crystal, experimental, refinement or atomic coordinate data resulting
# from the CCDC's data processing and validation procedures.
#
#######################################################################

data_CSD_CIF_BAZPOI
_audit_creation_date 2004-01-20
_audit_creation_method CSD-ConQuest-V1
_database_code_CSD BAZPOI
_database_code_depnum_ccdc_archive 'CCDC 220701'
_chemical_formula_sum 'C8 H11 N3 O2'
_chemical_formula_moiety
;
C8 H11 N3 O2
;
_journal_coden_Cambridge 119
_journal_volume 604
_journal_year 2002
_journal_page_first 73
_journal_name_full 'J.Mol.Struct. '
loop_
_publ_author_name
"O.Ya.Borbulevych"
"R.D.Clark"
"A.Romero"
"Li Tan"
"M.Yu.Antipin"
"V.N.Nesterov"
"B.H.Cardelino"
"C.E.Moore"
"M.Sanghadasa"
"T.V.Timofeeva"
_chemical_name_systematic
;
3-amino-N,N-dimethyl-4-nitroaniline
;
_cell_volume    885.889
_exptl_crystal_density_diffrn 1.359
_diffrn_ambient_temperature 293
#These two values have been output from a single CSD field.
_refine_ls_R_factor_gt 0.0945
_refine_ls_wR_factor_gt 0.0945
_symmetry_cell_setting monoclinic
_symmetry_space_group_name_H-M 'P 21/c'
_symmetry_Int_Tables_number 14
loop_
_symmetry_equiv_pos_site_id
_symmetry_equiv_pos_as_xyz
1 x,y,z
2 x,1/2-y,1/2+z
3 -x,-y,-z
4 -x,-1/2+y,-1/2-z
_cell_length_a 8.048(2)
_cell_length_b 9.378(2)
_cell_length_c 11.797(3)
_cell_angle_alpha 90
_cell_angle_beta 95.75(2)
_cell_angle_gamma 90
_cell_formula_units_Z 4
loop_
_atom_type_symbol
_atom_type_radius_bond
C 0.68
H 0.23
N 0.68
O 0.68
loop_
_atom_site_label
_atom_site_type_symbol
_atom_site_fract_x
_atom_site_fract_y
_atom_site_fract_z
N1 N 1.1726(3) 0.1675(3) 0.0346(2)
N2 N 0.6474(4) 0.1370(4) 0.3073(2)
N3 N 0.6477(3) 0.3454(3) 0.1231(2)
H1 H 0.6520(3) 0.4058(3) 0.0686(2)
H2 H 0.5643(3) 0.3461(3) 0.1633(2)
O1 O 0.6545(3) 0.0388(3) 0.3786(2)
O2 O 0.5342(3) 0.2261(4) 0.3020(2)
C1 C 1.0393(4) 0.1572(3) 0.0960(2)
C2 C 0.9060(3) 0.2504(3) 0.0789(2)
H3 H 0.9059(3) 0.3168(3) 0.0203(2)
C3 C 0.7708(3) 0.2502(3) 0.1452(2)
C4 C 0.7718(4) 0.1453(3) 0.2317(2)
C5 C 0.9013(4) 0.0458(4) 0.2448(3)
H4 H 0.8978(4) -0.0259(4) 0.2989(3)
C6 C 1.0320(4) 0.0506(4) 0.1808(3)
H5 H 1.1173(4) -0.0162(4) 0.1926(3)
C7 C 1.1775(4) 0.2730(4) -0.0547(3)
H6 H 1.2806(4) 0.2644(4) -0.0886(3)
H7 H 1.1695(4) 0.3666(4) -0.0229(3)
H8 H 1.0855(4) 0.2577(4) -0.1117(3)
C8 C 1.3145(4) 0.0702(4) 0.0534(3)
H9 H 1.3960(4) 0.0938(4) 0.0023(3)
H10 H 1.2769(4) -0.0260(4) 0.0395(3)
H11 H 1.3637(4) 0.0788(4) 0.1306(3)
#END
