
#######################################################################
#
#                 Cambridge Crystallographic Data Centre
#                                CCDC
#
#######################################################################
#
# If this CIF has been generated from an entry in the Cambridge
# Structural Database, then it will include bibliographic, chemical,
# crystal, experimental, refinement or atomic coordinate data resulting
# from the CCDC's data processing and validation procedures.
#
#######################################################################

data_CSD_CIF_BAZPUO
_audit_creation_date 2004-01-20
_audit_creation_method CSD-ConQuest-V1
_database_code_CSD BAZPUO
_database_code_depnum_ccdc_archive 'CCDC 220702'
_chemical_formula_sum 'C9 H12 N2 O3'
_chemical_formula_moiety
;
C9 H12 N2 O3
;
_journal_coden_Cambridge 119
_journal_volume 604
_journal_year 2002
_journal_page_first 73
_journal_name_full 'J.Mol.Struct. '
loop_
_publ_author_name
"O.Ya.Borbulevych"
"R.D.Clark"
"A.Romero"
"Li Tan"
"M.Yu.Antipin"
"V.N.Nesterov"
"B.H.Cardelino"
"C.E.Moore"
"M.Sanghadasa"
"T.V.Timofeeva"
_chemical_name_systematic
;
N,N-dimethyl-3-methoxy-4-nitroaniline
;
_cell_volume    478.537
_exptl_crystal_density_diffrn 1.362
_diffrn_ambient_temperature 293
#These two values have been output from a single CSD field.
_refine_ls_R_factor_gt 0.0905
_refine_ls_wR_factor_gt 0.0905
_symmetry_cell_setting triclinic
_symmetry_space_group_name_H-M 'P -1'
_symmetry_Int_Tables_number 2
loop_
_symmetry_equiv_pos_site_id
_symmetry_equiv_pos_as_xyz
1 x,y,z
2 -x,-y,-z
_cell_length_a 7.017(3)
_cell_length_b 8.180(2)
_cell_length_c 9.323(3)
_cell_angle_alpha 72.96(2)
_cell_angle_beta 71.05(3)
_cell_angle_gamma 76.73(3)
_cell_formula_units_Z 2
loop_
_atom_type_symbol
_atom_type_radius_bond
C 0.68
H 0.23
N 0.68
O 0.68
loop_
_atom_site_label
_atom_site_type_symbol
_atom_site_fract_x
_atom_site_fract_y
_atom_site_fract_z
N1 N 0.2866(5) 0.2292(4) -0.2653(3)
N2 N 0.2670(4) -0.3447(4) 0.2431(3)
O1 O 0.3305(5) -0.4859(3) 0.2108(3)
O2 O 0.2072(6) -0.3317(4) 0.3770(3)
O3 O 0.1163(4) -0.0028(3) 0.2878(2)
C1 C 0.2820(5) 0.0905(4) -0.1415(4)
C2 C 0.2026(5) 0.1131(4) 0.0112(4)
H1 H 0.1547(5) 0.2245(4) 0.0260(4)
C3 C 0.1930(5) -0.0246(4) 0.1409(4)
C4 C 0.2665(5) -0.1928(4) 0.1179(4)
C5 C 0.3457(5) -0.2155(4) -0.0339(4)
H2 H 0.3931(5) -0.3269(4) -0.0488(4)
C6 C 0.3558(5) -0.0792(4) -0.1617(4)
H3 H 0.4112(5) -0.0983(4) -0.2615(4)
C7 C 0.2141(6) 0.4037(5) -0.2454(5)
H4 H 0.2139(40) 0.4816(7) -0.3450(6)
H5 H 0.3022(24) 0.4356(13) -0.2012(30)
H6 H 0.0783(17) 0.4097(9) -0.1768(26)
C8 C 0.3693(7) 0.2076(6) -0.4240(4)
H7 H 0.3538(45) 0.3177(8) -0.4960(4)
H8 H 0.2976(33) 0.1301(33) -0.4394(12)
H9 H 0.5113(13) 0.1606(40) -0.4417(12)
C9 C 0.0415(6) 0.1687(4) 0.3097(4)
H10 H -0.0113(36) 0.1644(5) 0.4193(4)
H11 H -0.0649(27) 0.2201(13) 0.2595(25)
H12 H 0.1506(10) 0.2368(10) 0.2651(27)
#END
