
#######################################################################
#
#                 Cambridge Crystallographic Data Centre
#                                CCDC
#
#######################################################################
#
# If this CIF has been generated from an entry in the Cambridge
# Structural Database, then it will include bibliographic, chemical,
# crystal, experimental, refinement or atomic coordinate data resulting
# from the CCDC's data processing and validation procedures.
#
#######################################################################

data_CSD_CIF_BAZQAV
_audit_creation_date 2004-01-20
_audit_creation_method CSD-ConQuest-V1
_database_code_CSD BAZQAV
_database_code_depnum_ccdc_archive 'CCDC 220703'
_chemical_formula_sum 'C9 H12 N2 O2'
_chemical_formula_moiety
;
C9 H12 N2 O2
;
_journal_coden_Cambridge 119
_journal_volume 604
_journal_year 2002
_journal_page_first 73
_journal_name_full 'J.Mol.Struct. '
loop_
_publ_author_name
"O.Ya.Borbulevych"
"R.D.Clark"
"A.Romero"
"Li Tan"
"M.Yu.Antipin"
"V.N.Nesterov"
"B.H.Cardelino"
"C.E.Moore"
"M.Sanghadasa"
"T.V.Timofeeva"
_chemical_name_systematic
;
N,N,3-trimethyl-4-nitroaniline
;
_cell_volume    442.659
_exptl_crystal_density_diffrn 1.352
_diffrn_ambient_temperature 163
#These two values have been output from a single CSD field.
_refine_ls_R_factor_gt 0.0564
_refine_ls_wR_factor_gt 0.0564
_symmetry_cell_setting triclinic
_symmetry_space_group_name_H-M 'P -1'
_symmetry_Int_Tables_number 2
loop_
_symmetry_equiv_pos_site_id
_symmetry_equiv_pos_as_xyz
1 x,y,z
2 -x,-y,-z
_cell_length_a 6.339(2)
_cell_length_b 8.465(3)
_cell_length_c 8.888(3)
_cell_angle_alpha 74.42(2)
_cell_angle_beta 74.82(2)
_cell_angle_gamma 82.93(2)
_cell_formula_units_Z 2
loop_
_atom_type_symbol
_atom_type_radius_bond
C 0.68
H 0.23
N 0.68
O 0.68
loop_
_atom_site_label
_atom_site_type_symbol
_atom_site_fract_x
_atom_site_fract_y
_atom_site_fract_z
N1 N -0.0558(2) -0.4289(2) 0.7198(2)
N2 N -0.0438(2) 0.0843(2) 0.1667(2)
O1 O -0.2183(2) 0.1686(2) 0.1633(2)
O2 O 0.1236(2) 0.1187(2) 0.05716(15)
C1 C -0.0519(3) -0.3077(2) 0.5836(2)
C2 C 0.1440(3) -0.2756(2) 0.4602(2)
H1 H 0.2741(32) -0.3432(23) 0.4722(22)
C3 C 0.1566(3) -0.1514(2) 0.3197(2)
C4 C -0.0353(3) -0.0537(2) 0.3020(2)
C5 C -0.2311(3) -0.0845(2) 0.4207(2)
H2 H -0.3486(36) -0.0148(26) 0.4059(26)
C6 C -0.2419(3) -0.2084(2) 0.5578(2)
H3 H -0.3850(38) -0.2277(27) 0.6387(27)
C7 C 0.1412(3) -0.5277(2) 0.7462(2)
H4 H 0.2592(35) -0.4588(27) 0.7522(25)
H5 H 0.2032(39) -0.5925(30) 0.6624(30)
H6 H 0.1022(41) -0.6093(33) 0.8430(33)
C8 C -0.2587(3) -0.4604(3) 0.8446(2)
H7 H -0.3158(38) -0.3617(30) 0.8902(28)
H8 H -0.2346(44) -0.5467(36) 0.9240(35)
H9 H -0.3753(40) -0.4944(30) 0.8036(29)
C9 C 0.3749(3) -0.1314(3) 0.1982(2)
H10 H 0.4329(33) -0.0322(27) 0.1798(24)
H11 H 0.3631(30) -0.1383(23) 0.0945(24)
H12 H 0.4774(38) -0.2200(29) 0.2378(28)
#END
