
#######################################################################
#
#                 Cambridge Crystallographic Data Centre
#                                CCDC
#
#######################################################################
#
# If this CIF has been generated from an entry in the Cambridge
# Structural Database, then it will include bibliographic, chemical,
# crystal, experimental, refinement or atomic coordinate data resulting
# from the CCDC's data processing and validation procedures.
#
#######################################################################

data_CSD_CIF_BAZXAD
_audit_creation_date 2012-08-21
_audit_creation_method CSD-ConQuest-V1
_database_code_CSD BAZXAD
_database_code_depnum_ccdc_archive 'CCDC 854352'
_chemical_formula_sum 'C18 H20 N2 O6'
_chemical_formula_moiety
;
C18 H20 N2 O6
;
_journal_coden_Cambridge 177
_journal_volume 10
_journal_year 2012
_journal_page_first 3859
_journal_name_full 'Org.Biomol.Chem. '
loop_
_publ_author_name
"N.J.Bennett"
"M.C.Elliott"
"N.L.Hewitt"
"B.M.Kariuki"
"C.A.Morton"
"S.A.Raw"
"S.Tomasi"
_chemical_name_systematic
;
(4-Isopropyl-1-methylcyclohexa-2,5-dien-1-yl)methyl 2,4-dinitrobenzoate
;
_cell_volume   1808.282
_exptl_crystal_colour 'colorless'
_exptl_crystal_density_diffrn 1.324
_exptl_crystal_description 'block'
_exptl_crystal_preparation 'ethyl acetate/hexane'
_diffrn_ambient_temperature 150
#These two values have been output from a single CSD field.
_refine_ls_R_factor_gt 0.0706
_refine_ls_wR_factor_gt 0.0706
_symmetry_cell_setting triclinic
_symmetry_space_group_name_H-M 'P -1'
_symmetry_Int_Tables_number 2
loop_
_symmetry_equiv_pos_site_id
_symmetry_equiv_pos_as_xyz
1 x,y,z
2 -x,-y,-z
_cell_length_a 7.6377(3)
_cell_length_b 7.8225(3)
_cell_length_c 32.1299(10)
_cell_angle_alpha 93.748(2)
_cell_angle_beta 91.221(2)
_cell_angle_gamma 109.094(2)
_cell_formula_units_Z 4
loop_
_atom_type_symbol
_atom_type_radius_bond
C 0.68
H 0.23
N 0.68
O 0.68
loop_
_atom_site_label
_atom_site_type_symbol
_atom_site_fract_x
_atom_site_fract_y
_atom_site_fract_z
C1 C 0.3771(4) 0.3548(4) 0.19520(9)
C2 C 0.3785(4) 0.5187(4) 0.22238(9)
C3 C 0.4049(4) 0.6877(4) 0.20703(9)
C4 C 0.3818(4) 0.8320(4) 0.23074(9)
H1 H 0.39740 0.94540 0.21960
C5 C 0.3347(4) 0.8019(4) 0.27154(9)
C6 C 0.3156(4) 0.6412(4) 0.28931(9)
H2 H 0.28910 0.62850 0.31790
C7 C 0.3362(4) 0.4984(4) 0.26404(9)
H3 H 0.32120 0.38560 0.27540
C8 C 0.2501(4) 0.1841(4) 0.13174(9)
H4 H 0.21310 0.06370 0.14330
H5 H 0.37590 0.20980 0.12100
C9 C 0.1129(4) 0.1852(4) 0.09669(9)
C10 C 0.1587(4) 0.3734(4) 0.08190(9)
H6 H 0.28150 0.43160 0.07380
C11 C 0.0395(4) 0.4623(4) 0.07951(9)
H7 H 0.08350 0.58100 0.07010
C12 C -0.1598(4) 0.3913(4) 0.09042(9)
H8 H -0.17770 0.47660 0.11320
C13 C -0.2015(4) 0.2093(4) 0.10787(9)
H9 H -0.32230 0.15480 0.11760
C14 C -0.0830(4) 0.1195(4) 0.11077(9)
H10 H -0.12430 0.00560 0.12260
C15 C 0.1346(5) 0.0520(5) 0.06119(10)
H11 H 0.04360 0.04150 0.03840
H12 H 0.11380 -0.06750 0.07180
H13 H 0.26000 0.09720 0.05090
C16 C -0.2959(4) 0.3871(5) 0.05375(9)
H14 H -0.42410 0.33810 0.06400
C17 C -0.2834(5) 0.2612(5) 0.01675(10)
H15 H -0.15770 0.30230 0.00640
H16 H -0.37260 0.26230 -0.00550
H17 H -0.31190 0.13760 0.02540
C18 C -0.2703(5) 0.5785(5) 0.04074(11)
H18 H -0.27900 0.65640 0.06520
H19 H -0.36730 0.57310 0.01970
H20 H -0.14830 0.62840 0.02900
C19 C 0.8217(4) 1.1834(4) 0.30108(9)
C20 C 0.8325(4) 1.3322(4) 0.27284(9)
C21 C 0.8072(4) 1.4947(4) 0.28700(9)
C22 C 0.8360(4) 1.6385(4) 0.26223(9)
H21 H 0.81710 1.74830 0.27190
C23 C 0.8939(4) 1.6134(4) 0.22242(9)
C24 C 0.9179(4) 1.4553(4) 0.20683(9)
H22 H 0.95580 1.44300 0.17910
C25 C 0.9341(5) 1.1207(4) 0.36568(9)
H23 H 0.99250 1.03310 0.35410
H24 H 0.80660 1.05260 0.37330
C26 C 1.0476(4) 1.2317(4) 0.40407(9)
C27 C 1.2390(4) 1.3389(4) 0.39116(9)
H25 H 1.31140 1.27370 0.37830
C28 C 1.3126(4) 1.5179(4) 0.39658(9)
H26 H 1.43390 1.57260 0.38710
C29 C 1.2174(4) 1.6402(4) 0.41662(9)
H27 H 1.20350 1.72250 0.39520
C30 C 1.0261(5) 1.5338(5) 0.42868(10)
H28 H 0.95310 1.59880 0.44130
C31 C 0.9523(5) 1.3549(5) 0.4229(1)
H29 H 0.82920 1.30100 0.43140
C32 C 1.0625(5) 1.0936(5) 0.43479(11)
H30 H 1.12350 1.01310 0.42150
H31 H 0.93800 1.02150 0.44250
H32 H 1.13550 1.15810 0.45990
C33 C 1.3340(5) 1.7617(5) 0.45399(10)
H33 H 1.25710 1.82930 0.46770
C34 C 1.3825(6) 1.6482(5) 0.48627(10)
H34 H 1.26880 1.55660 0.49430
H35 H 1.44390 1.72700 0.51100
H36 H 1.46590 1.58790 0.47430
C35 C 1.5089(5) 1.9012(5) 0.43944(12)
H37 H 1.58720 1.83840 0.42610
H38 H 1.57750 1.97970 0.46350
H39 H 1.47420 1.97510 0.41940
C36 C 0.8852(4) 1.3140(4) 0.23271(9)
H40 H 0.89950 1.20290 0.22250
N1 N 0.4686(4) 0.7197(4) 0.16439(8)
N2 N 0.3020(4) 0.9493(4) 0.29780(9)
N3 N 0.7377(4) 1.5141(4) 0.32878(8)
N4 N 0.9328(4) 1.7664(4) 0.19538(8)
O1 O 0.2496(3) 0.3231(3) 0.16405(6)
O2 O 0.4731(3) 0.2641(3) 0.20186(7)
O3 O 0.5584(3) 0.6278(3) 0.14948(7)
O4 O 0.4310(4) 0.8368(3) 0.14640(7)
O5 O 0.2605(5) 1.0648(4) 0.27952(8)
O6 O 0.3098(4) 0.9456(3) 0.33536(7)
O7 O 0.9302(3) 1.2496(3) 0.33508(6)
O8 O 0.7348(3) 1.0253(3) 0.29225(7)
O9 O 0.6266(3) 1.3798(4) 0.34182(8)
O10 O 0.7907(4) 1.6645(3) 0.34754(8)
O11 O 1.0077(3) 1.7547(3) 0.16288(7)
O12 O 0.8839(4) 1.8950(3) 0.20728(8)
#END
