
#######################################################################
#
#                 Cambridge Crystallographic Data Centre
#                                CCDC
#
#######################################################################
#
# If this CIF has been generated from an entry in the Cambridge
# Structural Database, then it will include bibliographic, chemical,
# crystal, experimental, refinement or atomic coordinate data resulting
# from the CCDC's data processing and validation procedures.
#
#######################################################################

data_CSD_CIF_BCAROX
_audit_creation_date 1972-08-10
_audit_creation_method CSD-ConQuest-V1
_database_code_CSD BCAROX
_chemical_formula_sum 'C17 H19 N1 O2'
_chemical_formula_moiety
;
C17 H19 N1 O2
;
_journal_coden_Cambridge 97
_journal_volume 273
_journal_year 1971
_journal_page_first 231
_journal_name_full 'C.R.Acad.Sci.,Ser.C (Chim) '
loop_
_publ_author_name
"F.Baert"
"J.-P.Mornon"
"P.Herpin"
_chemical_name_systematic
;
Benzoyl-carvoxime
;
_cell_volume    744.556
_exptl_crystal_density_diffrn 1.19
_diffrn_ambient_temperature ?
_diffrn_special_details
;
The study was carried out at room temperature,in the range 283-303K

;
#These two values have been output from a single CSD field.
_refine_ls_R_factor_gt 0.14
_refine_ls_wR_factor_gt 0.14
_symmetry_cell_setting triclinic
_symmetry_space_group_name_H-M 'P -1'
_symmetry_Int_Tables_number 2
loop_
_symmetry_equiv_pos_site_id
_symmetry_equiv_pos_as_xyz
1 x,y,z
2 -x,-y,-z
_cell_length_a 9.45
_cell_length_b 9.85
_cell_length_c 8.11
_cell_angle_alpha 94.62
_cell_angle_beta 97.75
_cell_angle_gamma 86.42
_cell_formula_units_Z 2
loop_
_atom_type_symbol
_atom_type_radius_bond
C 0.68
N 0.68
O 0.68
loop_
_atom_site_label
_atom_site_type_symbol
_atom_site_fract_x
_atom_site_fract_y
_atom_site_fract_z
C1 C 0.40730 0.66430 0.53300
C10 C 0.18820 0.09650 0.20290
C11 C -0.08800 0.16550 0.18660
C12 C 0.40040 0.64870 0.22450
C13 C 0.43280 0.69520 0.07680
C14 C 0.50720 0.81350 0.08120
C15 C 0.54920 0.88530 0.23320
C16 C 0.51680 0.83870 0.38090
C17 C 0.44240 0.72040 0.37660
C2 C 0.19560 0.41390 0.62860
C3 C 0.11460 0.37250 0.75930
C4 C 0.02040 0.27350 0.72630
C5 C -0.02400 0.21140 0.55690
C6 C 0.16000 0.35510 0.45270
C7 C 0.16430 0.43010 0.93300
C8 C 0.09860 0.21360 0.45750
C9 C 0.05930 0.14950 0.26940
N1 N 0.27580 0.51440 0.66220
O1 O 0.32640 0.55930 0.51660
O2 O 0.44550 0.71690 0.66840
#END
