
#######################################################################
#
#                 Cambridge Crystallographic Data Centre
#                                CCDC
#
#######################################################################
#
# If this CIF has been generated from an entry in the Cambridge
# Structural Database, then it will include bibliographic, chemical,
# crystal, experimental, refinement or atomic coordinate data resulting
# from the CCDC's data processing and validation procedures.
#
#######################################################################

data_CSD_CIF_BEBBIT
_audit_creation_date 1986-07-24
_audit_creation_method CSD-ConQuest-V1
_database_code_CSD BEBBIT
_database_code_depnum_ccdc_archive 'CCDC 1107432'
_chemical_formula_sum 'C14 H21 N1 O6'
_chemical_formula_moiety
;
C14 H21 N1 O6
;
_journal_coden_Cambridge 10
_journal_volume 68
_journal_year 1985
_journal_page_first 1033
_journal_name_full 'Helv.Chim.Acta '
loop_
_publ_author_name
"T.Aono"
"J.H.Bieri"
"M.Hesse"
"K.Kostova"
"A.Lorenzi-Riatsch"
"Y.Nakashita"
"R.Prewo"
_chemical_name_systematic
;
Methyl 5-nitro-12-oxo-2-hydroxy-cyclododec-1-ene-1-carboxylate
;
_cell_volume   1464.544
_exptl_crystal_density_diffrn 1.36
_diffrn_ambient_temperature 130
#These two values have been output from a single CSD field.
_refine_ls_R_factor_gt 0.044
_refine_ls_wR_factor_gt 0.044
_symmetry_cell_setting monoclinic
_symmetry_space_group_name_H-M 'P 21/a'
_symmetry_Int_Tables_number 14
loop_
_symmetry_equiv_pos_site_id
_symmetry_equiv_pos_as_xyz
1 x,y,z
2 1/2-x,1/2+y,-z
3 -x,-y,-z
4 -1/2+x,-1/2-y,z
_cell_length_a 10.984(2)
_cell_length_b 12.647(2)
_cell_length_c 11.395(1)
_cell_angle_alpha 90
_cell_angle_beta 112.30(1)
_cell_angle_gamma 90
_cell_formula_units_Z 4
loop_
_atom_type_symbol
_atom_type_radius_bond
C 0.68
H 0.23
N 0.68
O 0.68
loop_
_atom_site_label
_atom_site_type_symbol
_atom_site_fract_x
_atom_site_fract_y
_atom_site_fract_z
C1 C 0.3751(1) 0.3955(1) 0.2201(1)
O1 O 0.2772(1) 0.3972(1) 0.1064(1)
C2 C 0.4599(1) 0.3118(1) 0.2608(1)
C3 C 0.5738(2) 0.3143(1) 0.3858(1)
O2 O 0.5582(1) 0.3409(1) 0.4821(1)
C4 C 0.7108(2) 0.2888(1) 0.3890(1)
C5 C 0.8172(2) 0.3626(1) 0.4786(2)
C6 C 0.7927(1) 0.4807(1) 0.4480(1)
C7 C 0.7791(2) 0.5113(1) 0.3145(1)
C8 C 0.7419(2) 0.6273(1) 0.2822(2)
C9 C 0.6072(2) 0.6568(1) 0.2824(1)
C10 C 0.4891(1) 0.6084(1) 0.1754(1)
N1 N 0.4499(1) 0.6796(1) 0.0594(1)
O3 O 0.4372(1) 0.7743(1) 0.0739(1)
O4 O 0.4273(1) 0.6381(1) -0.0436(1)
C11 C 0.3673(2) 0.5948(1) 0.2087(1)
C12 C 0.3803(1) 0.4965(1) 0.2912(1)
C13 C 0.4386(1) 0.2203(1) 0.1764(1)
O5 O 0.3523(1) 0.2151(1) 0.0695(1)
O6 O 0.5193(1) 0.1391(1) 0.2283(1)
C14 C 0.5012(2) 0.0472(1) 0.1464(2)
H1 H 0.2780(18) 0.3321(16) 0.0741(18)
H2 H 0.7105(15) 0.2943(11) 0.3014(14)
H3 H 0.7295(15) 0.2193(12) 0.4155(15)
H4 H 0.9045(17) 0.3423(14) 0.4763(16)
H5 H 0.8240(17) 0.3497(14) 0.5668(17)
H6 H 0.8696(16) 0.5216(13) 0.5108(15)
H7 H 0.7115(14) 0.5030(12) 0.4613(13)
H8 H 0.7121(16) 0.4679(13) 0.2531(15)
H9 H 0.8616(16) 0.4958(13) 0.3046(16)
H10 H 0.7449(16) 0.6440(14) 0.1961(17)
H11 H 0.8105(18) 0.6705(15) 0.3458(17)
H12 H 0.5985(15) 0.6359(13) 0.3655(16)
H13 H 0.5936(17) 0.7341(13) 0.2762(15)
H14 H 0.5116(13) 0.5403(11) 0.1472(13)
H15 H 0.3579(15) 0.6569(12) 0.2552(14)
H16 H 0.2889(16) 0.5884(13) 0.1307(16)
H17 H 0.4608(13) 0.4989(11) 0.3669(13)
H18 H 0.3085(15) 0.4949(13) 0.3199(15)
H19 H 0.4055(15) 0.0267(13) 0.1103(15)
H20 H 0.5588(18) -0.0079(14) 0.2024(17)
H21 H 0.5302(17) 0.0656(14) 0.0814(16)
#END
