
#######################################################################
#
#                 Cambridge Crystallographic Data Centre
#                                CCDC
#
#######################################################################
#
# If this CIF has been generated from an entry in the Cambridge
# Structural Database, then it will include bibliographic, chemical,
# crystal, experimental, refinement or atomic coordinate data resulting
# from the CCDC's data processing and validation procedures.
#
#######################################################################

data_CSD_CIF_BEBKOJ
_audit_creation_date 2004-01-20
_audit_creation_method CSD-ConQuest-V1
_database_code_CSD BEBKOJ
_database_code_depnum_ccdc_archive 'CCDC 226127'
_chemical_formula_sum 'C17 H17 N3 O2'
_chemical_formula_moiety
;
C17 H17 N3 O2
;
_journal_coeditor_code "IUCr FR1427"
_journal_coden_Cambridge 591
_journal_volume 59
_journal_year 2003
_journal_page_first o625
_journal_name_full 'Acta Crystallogr.,Sect.C:Cryst.Struct.Commun. '
loop_
_publ_author_name
"V.V.Nesterov"
"A.Suina"
"M.Yu.Antipin"
"T.V.Timofeeva"
"S.Barlow"
"S.R.Marder"
_chemical_name_systematic
;
N,N-Dimethyl-N'-((1E,2E)-3-(4-nitrophenyl)prop-2-enylidene)benzene-1,4-diamine
;
_chemical_melting_point 503
_cell_volume   1466.687
_exptl_crystal_colour 'dark red'
_exptl_crystal_density_diffrn 1.337
_exptl_crystal_description 'plate'
_exptl_crystal_preparation 'ethanol'
_diffrn_ambient_temperature 110
#These two values have been output from a single CSD field.
_refine_ls_R_factor_gt 0.0585
_refine_ls_wR_factor_gt 0.0585
_symmetry_cell_setting monoclinic
_symmetry_space_group_name_H-M 'P 21/n'
_symmetry_Int_Tables_number 14
loop_
_symmetry_equiv_pos_site_id
_symmetry_equiv_pos_as_xyz
1 x,y,z
2 1/2+x,1/2-y,1/2+z
3 -x,-y,-z
4 -1/2-x,-1/2+y,-1/2-z
_cell_length_a 6.1191(18)
_cell_length_b 7.168(2)
_cell_length_c 33.449(10)
_cell_angle_alpha 90
_cell_angle_beta 91.408(9)
_cell_angle_gamma 90
_cell_formula_units_Z 4
loop_
_atom_type_symbol
_atom_type_radius_bond
C 0.68
H 0.23
N 0.68
O 0.68
loop_
_atom_site_label
_atom_site_type_symbol
_atom_site_fract_x
_atom_site_fract_y
_atom_site_fract_z
O1 O 0.9852(2) 0.6619(2) 0.03712(4)
O2 O 1.2663(2) 0.8130(2) 0.06083(4)
N1 N 0.2472(2) 0.7139(2) 0.28042(4)
N2 N -0.0505(2) 0.7440(2) 0.43912(4)
N3 N 1.0874(3) 0.7372(2) 0.06480(5)
C1 C 0.1806(3) 0.7337(2) 0.32052(5)
C2 C 0.3038(3) 0.8147(3) 0.35208(6)
H1 H 0.44120 0.86980 0.34670
C3 C 0.2288(3) 0.8155(3) 0.39082(5)
H2 H 0.31680 0.87010 0.41150
C4 C 0.0250(3) 0.7372(2) 0.40036(5)
C5 C -0.0990(3) 0.6572(3) 0.36844(5)
H3 H -0.23680 0.60220 0.37360
C6 C -0.0220(3) 0.6580(3) 0.32987(5)
H4 H -0.11010 0.60520 0.30900
C7 C 0.4461(3) 0.7428(3) 0.27092(6)
H5 H 0.54730 0.78580 0.29090
C8 C 0.5208(3) 0.7121(3) 0.23098(6)
H6 H 0.41990 0.66700 0.21120
C9 C 0.7277(3) 0.7450(3) 0.22069(5)
H7 H 0.82690 0.78010 0.24170
C10 C 0.8170(3) 0.7326(2) 0.18055(5)
C11 C 0.7044(3) 0.6488(3) 0.14781(5)
H8 H 0.56740 0.59030 0.15180
C12 C 0.7912(3) 0.6508(3) 0.10997(5)
H9 H 0.71500 0.59490 0.08800
C13 C 0.9922(3) 0.7365(2) 0.10488(5)
C14 C 1.1098(3) 0.8190(3) 0.13617(6)
H10 H 1.24690 0.87680 0.13180
C15 C 1.0213(3) 0.8145(3) 0.17396(5)
H11 H 1.10080 0.86810 0.19580
C16 C 0.1044(3) 0.7830(3) 0.47203(6)
H12 H 0.16580 0.90810 0.46870
H13 H 0.22250 0.69060 0.47200
H14 H 0.02880 0.77640 0.49750
C17 C -0.2394(3) 0.6308(3) 0.44919(6)
H15 H -0.36240 0.66150 0.43100
H16 H -0.27990 0.65660 0.47680
H17 H -0.20290 0.49840 0.44650
#END
