
#######################################################################
#
#                 Cambridge Crystallographic Data Centre
#                                CCDC
#
#######################################################################
#
# If this CIF has been generated from an entry in the Cambridge
# Structural Database, then it will include bibliographic, chemical,
# crystal, experimental, refinement or atomic coordinate data resulting
# from the CCDC's data processing and validation procedures.
#
#######################################################################

data_CSD_CIF_BEBVUZ
_audit_creation_date 1982-09-17
_audit_creation_method CSD-ConQuest-V1
_database_code_CSD BEBVUZ
_chemical_formula_sum 'C14 H14 N2 O2'
_chemical_formula_moiety
;
C14 H14 N2 O2
;
_journal_coden_Cambridge 35
_journal_volume 46
_journal_year 1981
_journal_page_first 5019
_journal_name_full 'J.Org.Chem. '
loop_
_publ_author_name
"H.Maehr"
"J.Smallheer"
"J.F.Blount"
"L.J.Todaro"
_chemical_name_systematic
;
1-((4-Nitro-1H-inden-1-ylidene)-methyl)-pyrrolidine
;
_chemical_melting_point 424.15
_cell_volume   1201.584
_exptl_crystal_colour 'dark magenta'
_exptl_crystal_density_diffrn 1.339
_exptl_special_details
;
Melting point range 424.15-425.15K

;
_diffrn_ambient_temperature ?
_diffrn_special_details
;
The study was carried out at room temperature,in the range 283-303K

;
#These two values have been output from a single CSD field.
_refine_ls_R_factor_gt 0.047
_refine_ls_wR_factor_gt 0.047
_symmetry_cell_setting triclinic
_symmetry_space_group_name_H-M 'P -1'
_symmetry_Int_Tables_number 2
loop_
_symmetry_equiv_pos_site_id
_symmetry_equiv_pos_as_xyz
1 x,y,z
2 -x,-y,-z
_cell_length_a 9.262(2)
_cell_length_b 11.056(3)
_cell_length_c 12.980(3)
_cell_angle_alpha 66.66(2)
_cell_angle_beta 80.73(2)
_cell_angle_gamma 82.74(2)
_cell_formula_units_Z 4
loop_
_atom_type_symbol
_atom_type_radius_bond
C 0.68
H 0.23
N 0.68
O 0.68
loop_
_atom_site_label
_atom_site_type_symbol
_atom_site_fract_x
_atom_site_fract_y
_atom_site_fract_z
O1 O 0.00300 0.83900 0.00730
O2 O 0.00700 0.62860 0.07350
O3 O 0.25850 1.05930 0.41220
O4 O 0.44410 0.91940 0.43140
N1 N 0.25850 0.32220 0.62800
N2 N 0.03200 0.73210 0.07970
N3 N 0.38920 0.37070 0.97940
N4 N 0.32370 0.95700 0.46800
C1 C 0.18340 0.47090 0.44470
C2 C 0.12080 0.39410 0.39830
C3 C 0.08060 0.47130 0.29490
C4 C 0.11430 0.60440 0.26760
C5 C 0.09790 0.72470 0.17680
C6 C 0.14100 0.84120 0.17570
C7 C 0.20270 0.83790 0.26660
C8 C 0.22180 0.72120 0.35880
C9 C 0.17770 0.60460 0.36050
C10 C 0.24170 0.43710 0.54430
C11 C 0.32650 0.30630 0.72750
C12 C 0.35710 0.16440 0.78470
C13 C 0.25640 0.09720 0.74810
C14 C 0.21250 0.19700 0.63630
C15 C 0.35790 0.57380 0.81250
C16 C 0.48850 0.58590 0.73330
C17 C 0.47440 0.69430 0.63720
C18 C 0.33330 0.76170 0.64800
C19 C 0.25870 0.87550 0.58030
C20 C 0.11910 0.91640 0.61650
C21 C 0.05110 0.84230 0.72240
C22 C 0.12080 0.72840 0.79240
C23 C 0.26030 0.68740 0.75640
C24 C 0.31720 0.48090 0.91700
C25 C 0.32310 0.27880 1.08920
C26 C 0.42820 0.16510 1.11760
C27 C 0.56540 0.19580 1.04600
C28 C 0.53740 0.32380 0.94800
H1 H 0.10900 0.29700 0.43700
H2 H 0.03600 0.44000 0.24500
H3 H 0.12800 0.92600 0.10900
H4 H 0.23400 0.92200 0.26600
H5 H 0.26700 0.72100 0.42400
H6 H 0.27700 0.51300 0.55500
H7 H 0.42000 0.35200 0.70400
H8 H 0.25800 0.34300 0.77800
H9 H 0.33700 0.13900 0.86900
H10 H 0.46100 0.13900 0.76400
H11 H 0.16800 0.07100 0.80500
H12 H 0.30900 0.01700 0.73800
H13 H 0.26400 0.17300 0.57200
H14 H 0.10400 0.20200 0.63600
H15 H 0.57700 0.52300 0.74700
H16 H 0.55000 0.72300 0.56900
H17 H 0.06800 0.99900 0.56600
H18 H -0.05000 0.87200 0.74900
H19 H 0.07100 0.67500 0.86900
H20 H 0.21700 0.49900 0.95300
H21 H 0.30900 0.31900 1.14700
H22 H 0.22600 0.25300 1.08200
H23 H 0.44700 0.13800 1.19800
H24 H 0.38900 0.09100 1.10900
H25 H 0.60000 0.12400 1.01800
H26 H 0.64100 0.20600 1.08800
H27 H 0.60900 0.38900 0.93800
H28 H 0.54300 0.30800 0.87700
#END
