
#######################################################################
#
#                 Cambridge Crystallographic Data Centre
#                                CCDC
#
#######################################################################
#
# If this CIF has been generated from an entry in the Cambridge
# Structural Database, then it will include bibliographic, chemical,
# crystal, experimental, refinement or atomic coordinate data resulting
# from the CCDC's data processing and validation procedures.
#
#######################################################################

data_CSD_CIF_BECJIC
_audit_creation_date 1982-09-17
_audit_creation_method CSD-ConQuest-V1
_database_code_CSD BECJIC
_chemical_formula_sum 'C6 H8 N2 O4'
_chemical_formula_moiety
;
C6 H8 N2 O4
;
_journal_coden_Cambridge 10
_journal_volume 65
_journal_year 1982
_journal_page_first 137
_journal_name_full 'Helv.Chim.Acta '
loop_
_publ_author_name
"Y.Kai"
"P.Knochel"
"S.Kwiatkowski"
"J.D.Dunitz"
"J.F.M.Oth"
"D.Seebach"
"H.-O.Kalinowski"
_chemical_name_systematic
;
1,1'-Dinitro-bicyclopropyl
;
_chemical_melting_point 400.15
_cell_volume    747.173
_exptl_crystal_colour 'colorless'
_exptl_crystal_density_diffrn 1.529
_exptl_special_details
;
Melting point range 400.15-401.15K
Isomorphous with the nitro-nitroso cpd

;
_diffrn_ambient_temperature 95
#These two values have been output from a single CSD field.
_refine_ls_R_factor_gt 0.035
_refine_ls_wR_factor_gt 0.035
_symmetry_cell_setting monoclinic
_symmetry_space_group_name_H-M 'C 2/c'
_symmetry_Int_Tables_number 15
loop_
_symmetry_equiv_pos_site_id
_symmetry_equiv_pos_as_xyz
1 x,y,z
2 1/2+x,1/2+y,z
3 -x,y,1/2-z
4 1/2-x,1/2+y,1/2-z
5 -x,-y,-z
6 -1/2-x,-1/2-y,-z
7 x,-y,-1/2+z
8 -1/2+x,-1/2-y,-1/2+z
_cell_length_a 10.855(3)
_cell_length_b 6.129(3)
_cell_length_c 11.328(4)
_cell_angle_alpha 90
_cell_angle_beta 97.52(3)
_cell_angle_gamma 90
_cell_formula_units_Z 4
loop_
_atom_type_symbol
_atom_type_radius_bond
C 0.68
H 0.23
N 0.68
O 0.68
loop_
_atom_site_label
_atom_site_type_symbol
_atom_site_fract_x
_atom_site_fract_y
_atom_site_fract_z
O1 O 0.37056 0.61320 0.27667
O2 O 0.29032 0.51283 0.10018
N1 N 0.36488 0.49119 0.19028
C1 C 0.45475 0.30772 0.19538
C2 C 0.40239 0.09981 0.13712
C3 C 0.48966 0.23476 0.07691
H1 H 0.43200 -0.03800 0.17400
H2 H 0.31700 0.10500 0.10700
H3 H 0.57500 0.18700 0.07900
H4 H 0.45500 0.34100 0.00900
C1B C 0.54525 0.30772 0.30462
N1B N 0.63512 0.49119 0.30972
C2B C 0.59761 0.09981 0.36288
C3B C 0.51034 0.23476 0.42309
O1B O 0.62944 0.61320 0.22333
O2B O 0.70968 0.51283 0.39982
H1B H 0.56800 -0.03800 0.32600
H2B H 0.68300 0.10500 0.39300
H3B H 0.42500 0.18700 0.42100
H4B H 0.54500 0.34100 0.49100
#END
