
#######################################################################
#
#                 Cambridge Crystallographic Data Centre
#                                CCDC
#
#######################################################################
#
# If this CIF has been generated from an entry in the Cambridge
# Structural Database, then it will include bibliographic, chemical,
# crystal, experimental, refinement or atomic coordinate data resulting
# from the CCDC's data processing and validation procedures.
#
#######################################################################

data_CSD_CIF_BECJUO
_audit_creation_date 1982-09-17
_audit_creation_method CSD-ConQuest-V1
_database_code_CSD BECJUO
_chemical_formula_sum 'C8 H12 N2 O4'
_chemical_formula_moiety
;
C8 H12 N2 O4
;
_journal_coden_Cambridge 10
_journal_volume 65
_journal_year 1982
_journal_page_first 137
_journal_name_full 'Helv.Chim.Acta '
loop_
_publ_author_name
"Y.Kai"
"P.Knochel"
"S.Kwiatkowski"
"J.D.Dunitz"
"J.F.M.Oth"
"D.Seebach"
"H.-O.Kalinowski"
_chemical_name_systematic
;
1,1'-Binitrobicyclobutyl
;
_chemical_melting_point 346.15
_cell_volume   1926.612
_exptl_crystal_density_diffrn 1.38
_diffrn_ambient_temperature 173
#These two values have been output from a single CSD field.
_refine_ls_R_factor_gt 0.035
_refine_ls_wR_factor_gt 0.035
_symmetry_cell_setting orthorhombic
_symmetry_space_group_name_H-M 'P b c a'
_symmetry_Int_Tables_number 61
loop_
_symmetry_equiv_pos_site_id
_symmetry_equiv_pos_as_xyz
1 x,y,z
2 1/2-x,1/2+y,z
3 x,1/2-y,1/2+z
4 1/2-x,-y,1/2+z
5 -x,-y,-z
6 -1/2+x,-1/2-y,-z
7 -x,-1/2+y,-1/2-z
8 -1/2+x,y,-1/2-z
_cell_length_a 11.385(3)
_cell_length_b 13.624(3)
_cell_length_c 12.421(3)
_cell_angle_alpha 90
_cell_angle_beta 90
_cell_angle_gamma 90
_cell_formula_units_Z 8
loop_
_atom_type_symbol
_atom_type_radius_bond
C 0.68
H 0.23
N 0.68
O 0.68
loop_
_atom_site_label
_atom_site_type_symbol
_atom_site_fract_x
_atom_site_fract_y
_atom_site_fract_z
O1 O 0.23730 0.20390 0.32530
O2 O 0.23080 0.05390 0.27500
O3 O -0.04060 0.33340 0.32990
O4 O -0.02270 0.17690 0.32660
N1 N 0.20370 0.13940 0.26460
N2 N -0.00160 0.25810 0.29310
C1 C 0.12910 0.16800 0.16770
C2 C 0.07230 0.26610 0.18900
C3 C 0.20540 0.15810 0.06440
C4 C 0.13570 0.06640 0.03260
C5 C 0.05250 0.08180 0.12750
C6 C 0.14840 0.36020 0.18690
C7 C 0.07260 0.40190 0.09500
C8 C -0.00490 0.31030 0.09700
H1 H 0.28400 0.15200 0.07800
H2 H 0.19300 0.21600 0.01600
H3 H 0.18200 0.00600 0.03800
H4 H 0.10200 0.06900 -0.03300
H5 H 0.04700 0.02800 0.17600
H6 H -0.02800 0.10400 0.10500
H7 H 0.22700 0.34400 0.16500
H8 H 0.15100 0.39500 0.25500
H9 H 0.12100 0.40700 0.03100
H10 H 0.03200 0.46300 0.12900
H11 H -0.08500 0.32300 0.11900
H12 H 0.00800 0.26900 0.03700
#END
