
#######################################################################
#
#                 Cambridge Crystallographic Data Centre
#                                CCDC
#
#######################################################################
#
# If this CIF has been generated from an entry in the Cambridge
# Structural Database, then it will include bibliographic, chemical,
# crystal, experimental, refinement or atomic coordinate data resulting
# from the CCDC's data processing and validation procedures.
#
#######################################################################

data_CSD_CIF_BEDNIJ
_audit_creation_date 2013-02-01
_audit_creation_method CSD-ConQuest-V1
_database_code_CSD BEDNIJ
_database_code_depnum_ccdc_archive 'CCDC 781857'
_chemical_formula_sum 'C21 H17 N3 O5'
_chemical_formula_moiety
;
C21 H17 N3 O5
;
_journal_coden_Cambridge 231
_journal_volume 56
_journal_year 2012
_journal_page_first 771
_journal_name_full 'Rev.Roum.Chim. '
loop_
_publ_author_name
"M.R.Caira"
"F.Dumitrascu"
"E.Georgescu"
"F.Georgescu"
"M.M.Popa"
_chemical_name_systematic
;
4-Acetyl-1-(2-methylaminocarbonylphenyl)-2-(4-nitrobenzoyl)pyrrole
;
_chemical_melting_point 474
_cell_volume    954.294
_exptl_crystal_colour 'yellow'
_exptl_crystal_density_diffrn 1.362
_exptl_crystal_description 'prism'
_diffrn_ambient_temperature 173
#These two values have been output from a single CSD field.
_refine_ls_R_factor_gt 0.0534
_refine_ls_wR_factor_gt 0.0534
_symmetry_cell_setting triclinic
_symmetry_space_group_name_H-M 'P -1'
_symmetry_Int_Tables_number 2
loop_
_symmetry_equiv_pos_site_id
_symmetry_equiv_pos_as_xyz
1 x,y,z
2 -x,-y,-z
_cell_length_a 9.1765(9)
_cell_length_b 10.3279(10)
_cell_length_c 11.2474(9)
_cell_angle_alpha 66.166(5)
_cell_angle_beta 89.352(6)
_cell_angle_gamma 78.928(4)
_cell_formula_units_Z 2
loop_
_atom_type_symbol
_atom_type_radius_bond
C 0.68
H 0.23
N 0.68
O 0.68
loop_
_atom_site_label
_atom_site_type_symbol
_atom_site_fract_x
_atom_site_fract_y
_atom_site_fract_z
N1 N 1.36432(18) 1.34069(18) -0.35818(16)
C1 C 1.4908(2) 1.2654(2) -0.38937(19)
C2 C 1.4838(2) 1.3108(2) -0.52280(19)
H1 H 1.55560 1.27800 -0.57130
C3 C 1.3506(2) 1.4147(2) -0.57451(19)
C4 C 1.2801(2) 1.4289(2) -0.4698(2)
H2 H 1.18700 1.49090 -0.47530
C5 C 1.6113(2) 1.1720(2) -0.29248(19)
O1 O 1.62598(16) 1.17870(16) -0.18670(14)
C6 C 1.7212(2) 1.0663(2) -0.32486(19)
C7 C 1.6756(2) 0.9838(2) -0.3835(2)
H3 H 1.57280 0.99660 -0.40610
C8 C 1.7785(2) 0.8834(2) -0.40941(19)
H4 H 1.74810 0.82630 -0.44900
C9 C 1.9273(2) 0.8688(2) -0.37565(19)
C10 C 1.9768(2) 0.9496(2) -0.3181(2)
H5 H 2.08000 0.93830 -0.29770
C11 C 1.8721(2) 1.0471(2) -0.2911(2)
H6 H 1.90290 1.10180 -0.24910
N2 N 2.03871(19) 0.76528(19) -0.40559(18)
O2 O 2.17061(17) 0.76213(17) -0.38508(17)
O3 O 1.99514(19) 0.68789(18) -0.44985(19)
C12 C 1.3137(2) 1.3151(2) -0.23034(19)
C13 C 1.2982(2) 1.4268(2) -0.1905(2)
H7 H 1.32350 1.51580 -0.24570
C14 C 1.2455(3) 1.4091(3) -0.0695(2)
H8 H 1.23420 1.48620 -0.04230
C15 C 1.2100(3) 1.2798(3) 0.0105(2)
H9 H 1.17260 1.26780 0.09270
C16 C 1.2286(3) 1.1671(3) -0.0287(2)
H10 H 1.20530 1.07770 0.02780
C17 C 1.2811(2) 1.1821(2) -0.1499(2)
C18 C 1.3005(2) 1.0576(2) -0.1900(2)
O4 O 1.26961(19) 1.07547(17) -0.30213(15)
N3 N 1.3542(2) 0.9270(2) -0.09589(19)
H11 H 1.37520 0.92050 -0.01730
C19 C 1.3793(3) 0.7951(3) -0.1176(3)
H12 H 1.41890 0.71210 -0.03610
H13 H 1.45100 0.80160 -0.18410
H14 H 1.28510 0.78270 -0.14740
C20 C 1.2955(3) 1.4846(2) -0.7127(2)
O5 O 1.3674(2) 1.4549(2) -0.79415(16)
C21 C 1.1485(3) 1.5898(3) -0.7520(2)
H15 H 1.15520 1.67130 -0.83450
H16 H 1.12330 1.62560 -0.68430
H17 H 1.07090 1.54130 -0.76270
H18? H 1.35110 0.81880 -0.20900
H19? H 1.31900 0.72940 -0.06100
H20? H 1.48490 0.74820 -0.09760
#END
