
#######################################################################
#
#                 Cambridge Crystallographic Data Centre
#                                CCDC
#
#######################################################################
#
# If this CIF has been generated from an entry in the Cambridge
# Structural Database, then it will include bibliographic, chemical,
# crystal, experimental, refinement or atomic coordinate data resulting
# from the CCDC's data processing and validation procedures.
#
#######################################################################

data_CSD_CIF_BEDTEK
_audit_creation_date 2004-03-11
_audit_creation_method CSD-ConQuest-V1
_database_code_CSD BEDTEK
_database_code_depnum_ccdc_archive 'CCDC 223719'
_chemical_formula_sum 'C14 H11 N3 O2'
_chemical_formula_moiety
;
C14 H11 N3 O2
;
_journal_coden_Cambridge 639
_journal_volume 42
_journal_year 2003
_journal_page_first 661
_journal_name_full 'Indian J.Chem.,Sect.B:Org.Chem.Incl.Med.Chem. '
loop_
_publ_author_name
"T.M.Das"
"C.P.Rao"
"N.Kalle"
"K.Rissanen"
_chemical_name_systematic
;
N-Methyl-2-(o-nitrophenyl)benzimidazole
;
_cell_volume   4735.233
_exptl_crystal_colour 'colorless'
_exptl_crystal_description 'rods'
_exptl_crystal_preparation 'diethyl ether/dichloromethane(3'
_diffrn_ambient_temperature 173
#These two values have been output from a single CSD field.
_refine_ls_R_factor_gt 0.058
_refine_ls_wR_factor_gt 0.058
_symmetry_cell_setting orthorhombic
_symmetry_space_group_name_H-M 'P c a b'
_symmetry_Int_Tables_number 61
loop_
_symmetry_equiv_pos_site_id
_symmetry_equiv_pos_as_xyz
1 x,y,z
2 -x,1/2-y,1/2+z
3 1/2+x,-y,1/2-z
4 1/2-x,1/2+y,-z
5 -x,-y,-z
6 x,-1/2+y,-1/2-z
7 -1/2-x,y,-1/2+z
8 -1/2+x,-1/2-y,z
_cell_length_a 7.2111(2)
_cell_length_b 21.3672(5)
_cell_length_c 30.7321(8)
_cell_angle_alpha 90
_cell_angle_beta 90
_cell_angle_gamma 90
_cell_formula_units_Z 16
loop_
_atom_type_symbol
_atom_type_radius_bond
C 0.68
H 0.23
N 0.68
O 0.68
loop_
_atom_site_label
_atom_site_type_symbol
_atom_site_fract_x
_atom_site_fract_y
_atom_site_fract_z
O1 O 0.1156(3) 0.15394(9) 0.12111(6)
N1 N 0.0232(3) 0.06081(10) 0.05410(7)
N2 N 0.0472(4) 0.20062(11) 0.10425(8)
C1 C 0.0835(4) 0.21343(12) 0.05808(9)
O2 O -0.0511(4) 0.2376(1) 0.12409(7)
C2 C 0.1368(4) 0.16586(12) 0.02954(9)
N3 N 0.3298(3) 0.07236(10) 0.04131(8)
C3 C 0.1042(4) 0.00396(12) 0.06375(9)
C4 C 0.1084(4) 0.29116(13) 0.00283(10)
H1 H 0.10070 0.33360 -0.00630
C5 C 0.0287(4) -0.05157(12) 0.07945(9)
H2 H -0.10030 -0.05600 0.08490
C6 C 0.1649(4) 0.09936(12) 0.04184(9)
C7 C 0.1736(4) 0.18325(13) -0.01325(9)
H3 H 0.20820 0.15210 -0.03380
C8 C 0.2934(4) 0.01117(12) 0.05531(9)
C9 C 0.0673(4) 0.27530(13) 0.04538(10)
H4 H 0.02850 0.30640 0.06550
C10 C 0.1530(5) -0.10004(13) 0.08666(10)
H5 H 0.10760 -0.13880 0.09740
C11 C 0.3413(5) -0.09361(13) 0.0787(1)
H6 H 0.42180 -0.12790 0.08440
C12 C 0.1608(4) 0.24534(14) -0.02646(9)
H7 H 0.18810 0.25630 -0.05570
C13 C 0.4148(4) -0.03823(13) 0.06264(10)
H8 H 0.54370 -0.03420 0.05690
C14 C -0.1747(5) 0.07376(16) 0.05391(12)
H9 H -0.236(4) 0.0586(13) 0.0809(10)
H10 H -0.200(4) 0.1191(15) 0.0531(10)
H11 H -0.226(4) 0.0542(13) 0.0274(10)
O3 O 0.2551(3) 0.15578(9) 0.37576(6)
O4 O 0.0758(3) 0.23699(9) 0.37779(7)
N4 N 0.1791(3) 0.20055(11) 0.35839(8)
N5 N 0.0287(3) 0.07608(10) 0.31052(8)
N6 N 0.3278(3) 0.0524(1) 0.29642(8)
C15 C 0.2472(4) -0.00209(12) 0.31190(9)
C16 C 0.2142(4) 0.21235(12) 0.31212(9)
C17 C 0.2266(4) 0.16234(12) 0.28341(9)
C18 C 0.1964(5) -0.10567(14) 0.33513(10)
H12 H 0.23920 -0.14710 0.34010
C19 C 0.1913(4) 0.09682(12) 0.29719(9)
C20 C 0.0617(4) 0.01326(13) 0.32069(9)
C21 C 0.2378(4) 0.27368(12) 0.29947(10)
H13 H 0.22490 0.30680 0.31990
C22 C 0.3181(5) -0.06157(13) 0.31913(9)
H14 H 0.44420 -0.07140 0.31330
C23 C 0.2804(4) 0.28603(14) 0.25666(10)
H15 H 0.30090 0.32790 0.24740
C24 C 0.5251(5) 0.06106(16) 0.28780(13)
H16 H 0.554(5) 0.0926(15) 0.2698(11)
H17 H 0.576(5) 0.0225(14) 0.2736(10)
H18 H 0.601(5) 0.0662(14) 0.3163(11)
C25 C -0.0578(5) -0.03211(13) 0.33704(10)
H19 H -0.18400 -0.02280 0.34310
C26 C 0.2648(4) 0.17654(14) 0.2403(1)
H20 H 0.27150 0.14380 0.21940
C27 C 0.2932(5) 0.23769(14) 0.22727(10)
H21 H 0.32190 0.24640 0.19770
C28 C 0.0137(5) -0.09105(13) 0.34411(10)
H22 H -0.06510 -0.12270 0.35550
#END
