
#######################################################################
#
#                 Cambridge Crystallographic Data Centre
#                                CCDC
#
#######################################################################
#
# If this CIF has been generated from an entry in the Cambridge
# Structural Database, then it will include bibliographic, chemical,
# crystal, experimental, refinement or atomic coordinate data resulting
# from the CCDC's data processing and validation procedures.
#
#######################################################################

data_CSD_CIF_BEFQOT
_audit_creation_date 2004-03-11
_audit_creation_method CSD-ConQuest-V1
_database_code_CSD BEFQOT
_database_code_depnum_ccdc_archive 'CCDC 224738'
_chemical_formula_sum 'C16 H23 N1 O4'
_chemical_formula_moiety
;
C16 H23 N1 O4
;
_journal_coden_Cambridge 1336
_journal_volume 5
_journal_year 2003
_journal_page_first 3991
_journal_name_full 'Org.Lett. '
loop_
_publ_author_name
"Y.Hirasawa"
"H.Morita"
"M.Shiro"
"J.Kobayashi"
_chemical_name_systematic
;
sieboldine A
;
_chemical_melting_point 433.15
_cell_volume   1444.218
_exptl_crystal_colour 'colorless'
_exptl_crystal_density_diffrn 1.349
_exptl_special_details
;
potent acetylcholinesterase inhibitor and cytotoxic agent

;
_exptl_crystal_description 'needles'
_diffrn_ambient_temperature 93.2
#These two values have been output from a single CSD field.
_refine_ls_R_factor_gt 0.0316
_refine_ls_wR_factor_gt 0.0316
_chemical_compound_source
;
club moss Lycopodium sieboldii
;
_symmetry_cell_setting orthorhombic
_symmetry_space_group_name_H-M 'P 21 21 21'
_symmetry_Int_Tables_number 19
loop_
_symmetry_equiv_pos_site_id
_symmetry_equiv_pos_as_xyz
1 x,y,z
2 1/2-x,-y,1/2+z
3 1/2+x,1/2-y,-z
4 -x,1/2+y,1/2-z
_cell_length_a 7.8245(7)
_cell_length_b 10.4867(9)
_cell_length_c 17.601(1)
_cell_angle_alpha 90
_cell_angle_beta 90
_cell_angle_gamma 90
_cell_formula_units_Z 4
loop_
_atom_type_symbol
_atom_type_radius_bond
C 0.68
H 0.23
N 0.68
O 0.68
loop_
_atom_site_label
_atom_site_type_symbol
_atom_site_fract_x
_atom_site_fract_y
_atom_site_fract_z
O1 O 0.1365(1) 0.1213(1) 0.11153(6)
O2 O 0.2606(1) 0.12857(10) 0.26232(5)
O3 O 0.4771(1) 0.1997(1) 0.40030(6)
O4 O 0.3264(1) -0.0955(1) 0.45451(5)
N1 N 0.2621(2) 0.0298(1) 0.13872(6)
C1 C 0.3600(2) 0.0951(1) 0.19651(7)
C2 C 0.5115(2) 0.0173(2) 0.22595(8)
C3 C 0.4523(2) -0.0368(1) 0.30306(8)
C4 C 0.3048(2) 0.0486(1) 0.32719(7)
C5 C 0.3399(2) 0.1522(1) 0.38731(8)
C6 C 0.1697(2) 0.1873(1) 0.42309(8)
C7 C 0.0337(2) 0.1046(1) 0.38274(7)
C8 C -0.1224(2) 0.0710(1) 0.43079(8)
C9 C 0.1665(2) -0.0834(1) 0.16361(8)
C10 C 0.0166(2) -0.0651(1) 0.21972(7)
C11 C 0.0483(2) -0.1067(1) 0.30240(7)
C12 C 0.1400(2) -0.0143(1) 0.35692(7)
C13 C 0.1792(2) -0.0845(1) 0.43128(7)
C14 C 0.0275(2) -0.1270(1) 0.47672(7)
C15 C -0.0828(2) -0.0121(1) 0.50027(8)
C16 C -0.2454(2) -0.0582(2) 0.53879(9)
H1 H 0.40340 0.17160 0.17500
H2 H 0.151(2) 0.118(2) 0.061(1)
H3 H 0.53820 -0.04990 0.19170
H4 H 0.60900 0.07030 0.23240
H5 H 0.41500 -0.12250 0.29760
H6 H 0.54230 -0.03310 0.33920
H7 H 0.17130 0.16920 0.47600
H8 H 0.14620 0.27520 0.41550
H9 H -0.00400 0.14870 0.33870
H10 H -0.17300 0.14810 0.44800
H11 H -0.20140 0.02640 0.39960
H12 H 0.12130 -0.12270 0.11930
H13 H 0.24600 -0.13930 0.18710
H14 H -0.07780 -0.11270 0.20100
H15 H -0.01160 0.02300 0.22030
H16 H 0.11470 -0.18250 0.30060
H17 H -0.06010 -0.12500 0.32410
H18 H 0.06600 -0.17000 0.52100
H19 H -0.03950 -0.18360 0.44690
H20 H -0.01990 0.03770 0.53570
H21 H -0.30920 -0.10900 0.50430
H22 H -0.21650 -0.10750 0.58220
H23 H -0.31190 0.01320 0.55390
#END
