
#######################################################################
#
#                 Cambridge Crystallographic Data Centre
#                                CCDC
#
#######################################################################
#
# If this CIF has been generated from an entry in the Cambridge
# Structural Database, then it will include bibliographic, chemical,
# crystal, experimental, refinement or atomic coordinate data resulting
# from the CCDC's data processing and validation procedures.
#
#######################################################################

data_CSD_CIF_BEFXIU
_audit_creation_date 2004-03-11
_audit_creation_method CSD-ConQuest-V1
_database_code_CSD BEFXIU
_database_code_depnum_ccdc_archive 'CCDC 203432'
_chemical_formula_sum 'C17 H11 N3 O3'
_chemical_formula_moiety
;
C17 H11 N3 O3
;
_journal_coden_Cambridge 16
_journal_volume 59
_journal_year 2003
_journal_page_first 4103
_journal_name_full 'Tetrahedron '
loop_
_publ_author_name
"Mei-Hsiu Shih"
"Mou-Yung Yeh"
_chemical_name_systematic
;
3-(3-Phenylsydnon-4-ylmethylene)-1,3-dihydroindol-2-one
;
_chemical_melting_point 504
_cell_volume   8653.448
_exptl_crystal_colour 'red'
_exptl_crystal_density_diffrn 1.406
_exptl_special_details
;
Melting point range 504-506K
57% void space in the structure. Coordinates have been deposited for only one 
molecule
;
_exptl_crystal_description 'plate'
_exptl_crystal_preparation 'dichloromethane/ethanol'
_diffrn_ambient_temperature 298
_refine_special_details
;
Large void space, due to missing coordinates.

;
#These two values have been output from a single CSD field.
_refine_ls_R_factor_gt 0.043
_refine_ls_wR_factor_gt 0.043
_symmetry_cell_setting orthorhombic
_symmetry_space_group_name_H-M 'P b c a'
_symmetry_Int_Tables_number 61
loop_
_symmetry_equiv_pos_site_id
_symmetry_equiv_pos_as_xyz
1 x,y,z
2 1/2-x,-y,1/2+z
3 1/2+x,1/2-y,-z
4 -x,1/2+y,1/2-z
5 -x,-y,-z
6 -1/2+x,y,-1/2-z
7 -1/2-x,-1/2+y,z
8 x,-1/2-y,-1/2+z
_cell_length_a 24.043(4)
_cell_length_b 19.550(4)
_cell_length_c 18.410(5)
_cell_angle_alpha 90
_cell_angle_beta 90
_cell_angle_gamma 90
_cell_formula_units_Z 24
loop_
_atom_type_symbol
_atom_type_radius_bond
C 0.68
N 0.68
O 0.68
loop_
_atom_site_label
_atom_site_type_symbol
_atom_site_fract_x
_atom_site_fract_y
_atom_site_fract_z
O1 O 0.4343(2) 0.1240(2) 0.5952(2)
O2 O 0.4287(2) 0.1942(2) 0.6933(2)
O3 O 0.5051(1) -0.0151(1) 0.8998(1)
N1 N 0.4558(2) 0.0302(2) 0.6444(2)
N2 N 0.4470(2) 0.0570(2) 0.5802(2)
N3 N 0.4463(1) 0.0550(2) 0.9649(2)
C1 C 0.4358(2) 0.1373(3) 0.6710(3)
C2 C 0.4487(2) 0.0724(2) 0.7024(2)
C3 C 0.4742(2) -0.0409(2) 0.6460(2)
C4 C 0.4450(2) -0.0868(2) 0.6882(2)
C5 C 0.4640(3) -0.1542(2) 0.6893(3)
C6 C 0.5097(3) -0.1724(3) 0.6496(3)
C7 C 0.5372(3) -0.1261(3) 0.6071(3)
C8 C 0.5193(2) -0.0590(2) 0.6049(3)
C9 C 0.4620(2) 0.0506(2) 0.7742(2)
C10 C 0.4709(2) 0.0318(2) 0.9035(2)
C11 C 0.4482(2) 0.0730(2) 0.8410(2)
C12 C 0.4132(2) 0.1251(2) 0.8748(2)
C13 C 0.3829(2) 0.1809(2) 0.8493(2)
C14 C 0.3541(2) 0.2206(2) 0.8983(3)
C15 C 0.3533(2) 0.2053(2) 0.9711(3)
C16 C 0.3822(2) 0.1493(2) 0.9977(2)
C17 C 0.4128(2) 0.1116(2) 0.9494(2)
#END
