
#######################################################################
#
#                 Cambridge Crystallographic Data Centre
#                                CCDC
#
#######################################################################
#
# If this CIF has been generated from an entry in the Cambridge
# Structural Database, then it will include bibliographic, chemical,
# crystal, experimental, refinement or atomic coordinate data resulting
# from the CCDC's data processing and validation procedures.
#
#######################################################################

data_CSD_CIF_BEGGAV
_audit_creation_date 1999-11-19
_audit_creation_method CSD-ConQuest-V1
_database_code_CSD BEGGAV
_database_code_depnum_ccdc_archive 'CCDC 104937'
_chemical_formula_sum 'C22 H20 N4 O1'
_chemical_formula_moiety
;
C22 H20 N4 O1
;
_journal_coden_Cambridge 10
_journal_volume 81
_journal_year 1998
_journal_page_first 2388
_journal_name_full 'Helv.Chim.Acta '
loop_
_publ_author_name
"D.M.Argilagos"
"R.W.Kunz"
"A.Linden"
"H.Heimgartner"
_chemical_name_systematic
;
4,5-Dihydro-N^1^,N^2^,5-triphenyl-1,2,4-oxadiazole-3-carbamidine
;
_chemical_melting_point 442
_cell_volume   1955.390
_exptl_crystal_colour 'colorless'
_exptl_crystal_density_diffrn 1.211
_exptl_special_details
;
Melting point range 442-443K

;
_exptl_crystal_description 'Prism'
_diffrn_ambient_temperature 173
#These two values have been output from a single CSD field.
_refine_ls_R_factor_gt 0.0516
_refine_ls_wR_factor_gt 0.0516
_symmetry_cell_setting monoclinic
_symmetry_space_group_name_H-M 'P 21'
_symmetry_Int_Tables_number 4
loop_
_symmetry_equiv_pos_site_id
_symmetry_equiv_pos_as_xyz
1 x,y,z
2 -x,1/2+y,-z
_cell_length_a 7.336(5)
_cell_length_b 20.981(3)
_cell_length_c 12.706(5)
_cell_angle_alpha 90
_cell_angle_beta 90.96(4)
_cell_angle_gamma 90
_cell_formula_units_Z 4
loop_
_atom_type_symbol
_atom_type_radius_bond
C 0.68
H 0.23
N 0.68
O 0.68
loop_
_atom_site_label
_atom_site_type_symbol
_atom_site_fract_x
_atom_site_fract_y
_atom_site_fract_z
O1 O 0.5698(5) 0.49324 0.6855(3)
N1 N 0.9682(6) 0.3436(3) 0.6482(3)
N2 N 0.7801(5) 0.3289(3) 0.4996(3)
N3 N 0.7650(5) 0.4767(3) 0.5513(3)
N4 N 0.6369(6) 0.4277(3) 0.6888(3)
C1 C 0.6705(7) 0.5276(3) 0.6065(4)
C2 C 0.7459(7) 0.4235(3) 0.6108(4)
C3 C 0.5411(7) 0.5650(3) 0.5369(4)
C4 C 0.5165(7) 0.6305(3) 0.5529(4)
C5 C 0.3981(8) 0.6632(3) 0.4849(5)
C6 C 0.3073(9) 0.6324(4) 0.4046(5)
C7 C 0.3295(8) 0.5676(4) 0.3899(5)
C8 C 0.4457(7) 0.5343(3) 0.4571(4)
C9 C 0.9139(7) 0.4910(3) 0.4819(4)
C10 C 0.8312(6) 0.3607(3) 0.5815(4)
C11 C 1.0638(6) 0.2844(3) 0.6565(4)
C12 C 1.1715(8) 0.2755(3) 0.7458(5)
C13 C 1.2658(8) 0.2186(4) 0.7610(5)
C14 C 1.2491(8) 0.1706(3) 0.6870(6)
C15 C 1.1421(8) 0.1799(3) 0.5980(5)
C16 C 1.0477(7) 0.2369(3) 0.5816(4)
C17 C 0.6210(7) 0.3488(3) 0.4418(4)
C18 C 0.4488(7) 0.3403(3) 0.4809(4)
C19 C 0.2943(7) 0.3567(3) 0.4206(5)
C20 C 0.3106(8) 0.3822(3) 0.3220(4)
C21 C 0.4830(8) 0.3910(3) 0.2818(4)
C22 C 0.6386(7) 0.3729(3) 0.3402(4)
O2 O 0.0582(5) 0.5027(2) 0.7259(3)
N5 N 0.4611(6) 0.3842(3) 0.8848(3)
N6 N 0.2825(6) 0.4201(3) 1.0249(3)
N7 N 0.2572(6) 0.5306(3) 0.8562(3)
N8 N 0.1295(6) 0.4455(3) 0.7777(3)
C23 C 0.1709(7) 0.5556(3) 0.7607(4)
C24 C 0.2399(7) 0.4659(3) 0.8492(4)
C25 C 0.0509(7) 0.6134(3) 0.7774(4)
C26 C 0.0670(8) 0.6661(3) 0.7141(4)
C27 C -0.0434(9) 0.7192(4) 0.7282(5)
C28 C -0.1697(8) 0.7191(3) 0.8065(5)
C29 C -0.1885(8) 0.6666(4) 0.8715(5)
C30 C -0.0767(7) 0.6136(3) 0.8574(4)
C31 C 0.4184(7) 0.5630(3) 0.8982(4)
C32 C 0.3271(7) 0.4207(3) 0.9275(4)
C33 C 0.5556(7) 0.3323(3) 0.9301(4)
C34 C 0.6758(8) 0.3004(3) 0.8656(5)
C35 C 0.7771(8) 0.2486(4) 0.9023(5)
C36 C 0.7558(8) 0.2287(4) 1.0046(5)
C37 C 0.6354(8) 0.2587(4) 1.0681(5)
C38 C 0.5332(7) 0.3108(3) 1.0324(4)
C39 C 0.1263(7) 0.4553(3) 1.0565(4)
C40 C -0.0486(8) 0.4337(3) 1.0331(4)
C41 C -0.1990(7) 0.4671(4) 1.0706(4)
C42 C -0.1766(8) 0.5211(4) 1.1298(4)
C43 C -0.0029(8) 0.5432(4) 1.1536(5)
C44 C 0.1482(7) 0.5094(4) 1.1183(4)
H1 H 0.987(6) 0.369(2) 0.698(3)
H2 H 0.75600 0.55500 0.63900
H3 H 0.57900 0.65200 0.60800
H4 H 0.38000 0.70800 0.49400
H5 H 0.22900 0.65600 0.35900
H6 H 0.26600 0.54600 0.33400
H7 H 0.46000 0.49000 0.44800
H8 H 1.18100 0.30800 0.79700
H9 H 1.34100 0.21300 0.82200
H10 H 1.31100 0.13100 0.69700
H11 H 1.13300 0.14700 0.54700
H12 H 0.97400 0.24300 0.52000
H13 H 0.43500 0.32300 0.54900
H14 H 0.17600 0.35000 0.44800
H15 H 0.20500 0.39400 0.28200
H16 H 0.49600 0.40900 0.21400
H17 H 0.75600 0.37700 0.31100
H18 H 0.86800 0.51100 0.42000
H19 H 0.99800 0.51800 0.51700
H20 H 0.97400 0.45300 0.46300
H21 H 0.484(8) 0.393(3) 0.818(5)
H22 H 0.26000 0.56500 0.71000
H23 H 0.15500 0.66600 0.66000
H24 H -0.03100 0.75500 0.68400
H25 H -0.24500 0.75500 0.81600
H26 H -0.27700 0.66700 0.92500
H27 H -0.08800 0.57800 0.90200
H28 H 0.68900 0.31400 0.79500
H29 H 0.86000 0.22700 0.85800
H30 H 0.82500 0.19400 1.03100
H31 H 0.62100 0.24400 1.13800
H32 H 0.44900 0.33100 1.07700
H33 H -0.06600 0.39600 0.99200
H34 H -0.31900 0.45200 1.05500
H35 H -0.28000 0.54300 1.15500
H36 H 0.01300 0.58100 1.19400
H37 H 0.26700 0.52400 1.13700
H38 H 0.52000 0.55400 0.85500
H39 H 0.44300 0.54900 0.96800
H40 H 0.39800 0.60800 0.89900
#END
