
#######################################################################
#
#                 Cambridge Crystallographic Data Centre
#                                CCDC
#
#######################################################################
#
# If this CIF has been generated from an entry in the Cambridge
# Structural Database, then it will include bibliographic, chemical,
# crystal, experimental, refinement or atomic coordinate data resulting
# from the CCDC's data processing and validation procedures.
#
#######################################################################

data_CSD_CIF_BEGKAB
_audit_creation_date 2013-02-22
_audit_creation_method CSD-ConQuest-V1
_database_code_CSD BEGKAB
_database_code_depnum_ccdc_archive 'CCDC 908815'
_chemical_formula_sum 'C16 H19 N1 O5'
_chemical_formula_moiety
;
C16 H19 N1 O5
;
_journal_coden_Cambridge 1336
_journal_volume 14
_journal_year 2012
_journal_page_first 4082
_journal_name_full 'Org.Lett. '
loop_
_publ_author_name
"J.Ciesielski"
"K.Cariou"
"A.J.Frontier"
_chemical_name_systematic
;
2-(4-Methyl-4-vinyltetrahydrofuran-3-yl)ethyl 4-nitrobenzoate
;
_chemical_name_common
;
frojc01
;
_cell_volume   1560.902
_exptl_crystal_colour 'colorless'
_exptl_crystal_density_diffrn 1.299
_exptl_crystal_description 'plate'
_diffrn_ambient_temperature 100
_refine_special_details
;
C17,C18,C19,C20,C21,C30,C31,C32,O6 and C17',C18',C19', 
C20',C21',C30',C31',C32',O6' disordered over two sites with occupancies 
0.722:0.278.
;
#These two values have been output from a single CSD field.
_refine_ls_R_factor_gt 0.0858
_refine_ls_wR_factor_gt 0.0858
_symmetry_cell_setting monoclinic
_symmetry_space_group_name_H-M 'P 21'
_symmetry_Int_Tables_number 4
loop_
_symmetry_equiv_pos_site_id
_symmetry_equiv_pos_as_xyz
1 x,y,z
2 -x,1/2+y,-z
_cell_length_a 6.9621(12)
_cell_length_b 36.328(6)
_cell_length_c 6.9667(12)
_cell_angle_alpha 90
_cell_angle_beta 117.642(2)
_cell_angle_gamma 90
_cell_formula_units_Z 4
loop_
_atom_type_symbol
_atom_type_radius_bond
C 0.68
H 0.23
N 0.68
O 0.68
loop_
_atom_site_label
_atom_site_type_symbol
_atom_site_fract_x
_atom_site_fract_y
_atom_site_fract_z
O1 O 0.6564(10) 0.3086(2) 1.2197(10)
O2 O 0.1091(7) 0.41035(13) 1.1038(6)
O3 O 0.1408(6) 0.44350(15) 1.3898(6)
O4 O 0.2140(6) 0.56207(14) 0.5872(6)
O5 O 0.2115(7) 0.59752(14) 0.8350(7)
N1 N 0.2053(7) 0.56684(16) 0.7582(7)
C1 C 0.3280(12) 0.3421(2) 1.0859(13)
H1 H 0.36740 0.36690 1.05310
C2 C 0.5624(13) 0.3096(3) 0.9986(15)
H2 H 0.58840 0.28620 0.94220
H3 H 0.62500 0.32990 0.95060
C3 C 0.3219(10) 0.3156(2) 0.915(1)
C4 C 0.5133(14) 0.3285(3) 1.2841(13)
H4 H 0.59170 0.34940 1.37990
H5 H 0.46240 0.31190 1.36390
C5 C 0.1094(10) 0.3457(2) 1.0881(11)
H6 H -0.00650 0.34830 0.93700
H7 H 0.08140 0.32280 1.14760
C6 C 0.0962(11) 0.3767(2) 1.2141(10)
H8 H 0.21740 0.37590 1.36340
H9 H -0.04220 0.37600 1.22180
C7 C 0.1312(6) 0.44153(18) 1.2118(7)
C8 C 0.1485(7) 0.47372(17) 1.0890(7)
C9 C 0.1762(7) 0.46884(18) 0.9019(7)
H10 H 0.18140 0.44480 0.85030
C10 C 0.1956(6) 0.49980(17) 0.7950(7)
H11 H 0.21400 0.49720 0.66880
C11 C 0.1880(7) 0.53450(17) 0.8737(7)
C12 C 0.1581(7) 0.53963(18) 1.0576(7)
H12 H 0.14970 0.56370 1.10670
C13 C 0.1412(7) 0.50902(18) 1.1653(7)
H13 H 0.12450 0.51190 1.29220
C14 C 0.2177(17) 0.3320(3) 0.6860(13)
H14 H 0.06550 0.33790 0.64170
H15 H 0.22570 0.31410 0.58480
H16 H 0.29510 0.35450 0.68520
C15 C 0.2079(14) 0.2798(2) 0.9182(13)
H17 H 0.27620 0.26580 1.04770
C16 C 0.0260(16) 0.2659(3) 0.7631(17)
H18 H -0.05010 0.27860 0.62960
H19 H -0.02840 0.24320 0.78540
O6 O 0.7278(6) 0.58512(13) 0.3652(6)
O7 O 0.6929(6) 0.55068(13) 0.0819(6)
O8 O 0.6369(8) 0.39851(14) 0.6542(7)
O9 O 0.6194(6) 0.43431(13) 0.8930(6)
N2 N 0.6350(6) 0.42891(15) 0.7252(6)
C17 C 0.8041(16) 0.6488(2) 0.4118(14)
H20 H 0.84130 0.67070 0.35130
H21 H 0.93340 0.64190 0.54790
C18 C 0.607(2) 0.6586(4) 0.463(2)
H22 H 0.46580 0.65610 0.32800
C19 C 0.611(3) 0.6321(4) 0.646(2)
H23 H 0.49820 0.61280 0.58230
H24 H 0.75400 0.62010 0.72620
O10 O 0.566(2) 0.6559(3) 0.7904(17)
C20 C 0.514(3) 0.6890(4) 0.706(2)
H25 H 0.56850 0.70780 0.82200
H26 H 0.35500 0.69150 0.62180
C21 C 0.618(3) 0.6938(4) 0.561(3)
C22 C 0.546(3) 0.7247(4) 0.411(3)
H27 H 0.56030 0.74760 0.49130
H28 H 0.39370 0.72110 0.30460
H29 H 0.63490 0.72630 0.33600
C23 C 0.872(3) 0.7027(4) 0.740(3)
H30 H 0.93890 0.68670 0.86100
C24 C 0.988(3) 0.7299(5) 0.727(3)
H31 H 0.92670 0.74650 0.60870
H32 H 1.13280 0.73310 0.83700
C25 C 0.7441(12) 0.6177(2) 0.2538(11)
H33 H 0.60380 0.62280 0.12500
H34 H 0.85630 0.61430 0.20590
C26 C 0.7032(7) 0.55381(17) 0.2615(8)
C27 C 0.6872(6) 0.52152(17) 0.3873(7)
C28 C 0.6968(6) 0.48656(16) 0.3135(7)
H35 H 0.71410 0.48340 0.18700
C29 C 0.6809(7) 0.45608(16) 0.4253(7)
H36 H 0.68940 0.43190 0.37850
C30 C 0.6523(7) 0.46190(16) 0.6070(8)
C31 C 0.6407(6) 0.49609(16) 0.6824(7)
H37 H 0.62010 0.49900 0.80720
C32 C 0.6598(7) 0.52645(17) 0.5719(7)
H38 H 0.65430 0.55060 0.62170
C33? C 0.682(3) 0.6575(6) 0.554(3)
C34? C 0.798(3) 0.6905(7) 0.718(4)
C35? C 0.435(4) 0.6964(6) 0.596(4)
C36? C 0.467(3) 0.6726(6) 0.437(3)
C37? C 0.8041(16) 0.6488(2) 0.4118(14)
C38? C 0.299(4) 0.6458(7) 0.315(4)
C39? C 0.464(4) 0.7034(7) 0.261(4)
C40? C 0.352(7) 0.7005(10) 0.052(4)
H39? H 0.67920 0.63500 0.63540
H40? H 0.88980 0.68100 0.86590
H41? H 0.88900 0.70500 0.67120
H42? H 0.31880 0.71460 0.51830
H43? H 0.39440 0.68120 0.68920
H44? H 0.79480 0.67150 0.32940
H45? H 0.95930 0.64540 0.51570
H46? H 0.33600 0.63300 0.21190
H47? H 0.16010 0.65840 0.23510
H48? H 0.28890 0.62790 0.41440
H49? H 0.55040 0.72490 0.31710
H50? H 0.26440 0.67940 -0.01020
H51? H 0.35880 0.71940 -0.03930
O11? O 0.621(4) 0.7130(5) 0.712(4)
#END
