
#######################################################################
#
#                 Cambridge Crystallographic Data Centre
#                                CCDC
#
#######################################################################
#
# If this CIF has been generated from an entry in the Cambridge
# Structural Database, then it will include bibliographic, chemical,
# crystal, experimental, refinement or atomic coordinate data resulting
# from the CCDC's data processing and validation procedures.
#
#######################################################################

data_CSD_CIF_BEGLAA
_audit_creation_date 1999-11-19
_audit_creation_method CSD-ConQuest-V1
_database_code_CSD BEGLAA
_database_code_depnum_ccdc_archive 'CCDC 112574'
_chemical_formula_sum 'C16 H11 N5 O1'
_chemical_formula_moiety
;
C16 H11 N5 O1
;
_journal_coden_Cambridge 1291
_journal_year 1999
_journal_page_first 2119
_journal_name_full 'Eur.J.Org.Chem. '
loop_
_publ_author_name
"E.Csikos"
"G.G.Ferenczy"
"J.G.Angyan"
"Z.Bocskei"
"K.Simon"
"C.Gonczi"
"I.Hermecz"
_chemical_name_systematic
;
2(1H)-Quinoxalone O-(2'-quinoxalinyl)oxime
;
_chemical_name_common
;
N-(2-Quinoxalinyl)-O-(2'-quinoxalinyl)hydoxylamine
;
_chemical_melting_point 423.15
_cell_volume   2772.570
_exptl_crystal_colour 'light yellow'
_exptl_crystal_density_diffrn 1.408
_exptl_special_details
;
polymorph A

;
_exptl_crystal_description 'needle'
_exptl_crystal_preparation 'ethanol'
_diffrn_ambient_temperature ?
_diffrn_special_details
;
The study was carried out at room temperature,in the range 283-303K

;
#These two values have been output from a single CSD field.
_refine_ls_R_factor_gt 0.05
_refine_ls_wR_factor_gt 0.05
_symmetry_cell_setting monoclinic
_symmetry_space_group_name_H-M 'P 21/n'
_symmetry_Int_Tables_number 14
loop_
_symmetry_equiv_pos_site_id
_symmetry_equiv_pos_as_xyz
1 x,y,z
2 1/2+x,1/2-y,1/2+z
3 -x,-y,-z
4 -1/2-x,-1/2+y,-1/2-z
_cell_length_a 11.9880(16)
_cell_length_b 11.178(6)
_cell_length_c 20.7084(16)
_cell_angle_alpha 90
_cell_angle_beta 92.380(8)
_cell_angle_gamma 90
_cell_formula_units_Z 8
loop_
_atom_type_symbol
_atom_type_radius_bond
C 0.68
H 0.23
N 0.68
O 0.68
loop_
_atom_site_label
_atom_site_type_symbol
_atom_site_fract_x
_atom_site_fract_y
_atom_site_fract_z
N1 N 0.5377(3) 0.4085(4) 0.31439(19)
C1 C 0.6102(4) 0.3255(5) 0.3246(2)
C2 C 0.6004(5) 0.2077(5) 0.3006(3)
H1 H 0.65690 0.15310 0.31080
N2 N 0.5153(4) 0.1731(4) 0.2649(2)
C3 C 0.4346(4) 0.2585(5) 0.2518(2)
C4 C 0.3400(5) 0.2263(5) 0.2131(3)
H2 H 0.33220 0.14870 0.19740
C5 C 0.2606(5) 0.3091(6) 0.1991(3)
H3 H 0.19870 0.28850 0.17290
C6 C 0.2702(5) 0.4251(6) 0.2235(3)
H4 H 0.21420 0.48050 0.21360
C7 C 0.3606(5) 0.4585(5) 0.2614(3)
H5 H 0.36640 0.53640 0.27700
C8 C 0.4450(4) 0.3745(5) 0.2770(2)
O1 O 0.7090(3) 0.3451(3) 0.35804(17)
N3 N 0.9120(3) 0.4013(4) 0.3838(2)
H6 H 0.89440 0.33090 0.37020
C9 C 0.8301(4) 0.4836(5) 0.3912(2)
C10 C 0.8660(5) 0.5985(5) 0.4155(3)
H7 H 0.81100 0.65590 0.42090
N4 N 0.9670(4) 0.6291(4) 0.4303(2)
C11 C 1.0495(5) 0.5418(5) 0.4215(2)
C12 C 1.1609(5) 0.5692(5) 0.4367(3)
H8 H 1.17950 0.64420 0.45330
C13 C 1.2435(5) 0.4869(6) 0.4276(3)
H9 H 1.31750 0.50590 0.43820
C14 C 1.2162(5) 0.3750(6) 0.4025(3)
H10 H 1.27240 0.31970 0.39520
C15 C 1.1064(4) 0.3456(5) 0.3882(3)
H11 H 1.08820 0.27010 0.37200
C16 C 1.0234(4) 0.4284(5) 0.3978(2)
N5 N 0.7235(4) 0.4681(4) 0.3790(2)
N6 N 0.8882(3) 0.1227(4) 0.3786(2)
C17 C 0.8576(4) 0.0620(5) 0.3279(3)
C18 C 0.8062(5) -0.0521(5) 0.3294(3)
H12 H 0.78830 -0.09060 0.29050
N7 N 0.7831(4) -0.1051(4) 0.3832(2)
C19 C 0.8130(4) -0.0428(5) 0.4389(3)
C20 C 0.7899(5) -0.0946(5) 0.4992(3)
H13 H 0.75350 -0.16790 0.50110
C21 C 0.8218(5) -0.0352(6) 0.5546(3)
H14 H 0.80470 -0.06750 0.59430
C22 C 0.8795(5) 0.0728(6) 0.5527(3)
H15 H 0.90310 0.10980 0.59110
C23 C 0.9018(4) 0.1248(5) 0.4951(3)
H16 H 0.93910 0.19770 0.49430
C24 C 0.8679(4) 0.0676(5) 0.4369(3)
O2 O 0.8693(3) 0.1068(3) 0.26735(17)
N8 N 0.9306(3) 0.1839(4) 0.15778(19)
H17 H 0.90600 0.11210 0.16120
C25 C 0.9325(4) 0.2578(5) 0.2099(3)
C26 C 0.9706(4) 0.3784(5) 0.1994(3)
H18 H 0.96860 0.43130 0.23400
N9 N 1.0069(4) 0.4188(4) 0.1464(2)
C27 C 1.0083(4) 0.3387(5) 0.0944(3)
C28 C 1.0530(5) 0.3776(5) 0.0373(3)
H19 H 1.08320 0.45400 0.03470
C29 C 1.0526(5) 0.3035(6) -0.0150(3)
H20 H 1.08280 0.33000 -0.05310
C30 C 1.0087(6) 0.1918(5) -0.0123(3)
H21 H 1.00650 0.14380 -0.04900
C31 C 0.9673(4) 0.1489(5) 0.0443(3)
H22 H 0.93930 0.07150 0.04640
C32 C 0.9681(4) 0.2237(5) 0.0990(3)
N10 N 0.9045(4) 0.2295(4) 0.2682(2)
#END
