
#######################################################################
#
#                 Cambridge Crystallographic Data Centre
#                                CCDC
#
#######################################################################
#
# If this CIF has been generated from an entry in the Cambridge
# Structural Database, then it will include bibliographic, chemical,
# crystal, experimental, refinement or atomic coordinate data resulting
# from the CCDC's data processing and validation procedures.
#
#######################################################################

data_CSD_CIF_BEGQAH
_audit_creation_date 2013-02-22
_audit_creation_method CSD-ConQuest-V1
_database_code_CSD BEGQAH
_database_code_depnum_ccdc_archive 'CCDC 895298'
_chemical_formula_sum 'C28 H30 N2 O5'
_chemical_formula_moiety
;
C28 H30 N2 O5
;
_journal_coden_Cambridge 1336
_journal_volume 14
_journal_year 2012
_journal_page_first 4410
_journal_name_full 'Org.Lett. '
loop_
_publ_author_name
"K.Imae"
"T.Konno"
"K.Ogata"
"S.Fukuzawa"
_chemical_name_systematic
;
t-Butyl 3-(4-methoxyphenyl)-4-nitro-5,5-diphenylprolinate
;
_cell_volume   2540.478
_exptl_crystal_colour 'colorless'
_exptl_crystal_density_diffrn 1.241
_exptl_crystal_description 'block'
_diffrn_ambient_temperature 198
#These two values have been output from a single CSD field.
_refine_ls_R_factor_gt 0.0611
_refine_ls_wR_factor_gt 0.0611
_symmetry_cell_setting orthorhombic
_symmetry_space_group_name_H-M 'P 21 21 21'
_symmetry_Int_Tables_number 19
loop_
_symmetry_equiv_pos_site_id
_symmetry_equiv_pos_as_xyz
1 x,y,z
2 1/2+x,1/2-y,-z
3 -x,1/2+y,1/2-z
4 1/2-x,-y,1/2+z
_cell_length_a 8.53926(15)
_cell_length_b 10.9997(2)
_cell_length_c 27.0467(5)
_cell_angle_alpha 90
_cell_angle_beta 90
_cell_angle_gamma 90
_cell_formula_units_Z 4
loop_
_atom_type_symbol
_atom_type_radius_bond
C 0.68
H 0.23
N 0.68
O 0.68
loop_
_atom_site_label
_atom_site_type_symbol
_atom_site_fract_x
_atom_site_fract_y
_atom_site_fract_z
O1 O 0.5426(3) 0.9376(3) 0.42643(9)
O2 O 0.7169(4) 0.8057(3) 0.45921(9)
O3 O -0.0806(4) 0.9552(3) 0.3149(1)
O4 O 0.3840(4) 0.3833(3) 0.40875(11)
O5 O 0.5606(4) 0.4905(3) 0.44752(10)
N1 N 0.7152(4) 0.6732(3) 0.37373(10)
N2 N 0.4741(5) 0.4703(4) 0.41262(14)
C1 C 0.5926(5) 0.7619(4) 0.38204(13)
C2 C 0.4359(6) 0.6878(4) 0.38990(12)
C3 C 0.4760(5) 0.5595(4) 0.36999(13)
C4 C 0.6445(5) 0.5698(4) 0.34769(14)
C5 C 0.6285(6) 0.8374(5) 0.42738(17)
C6 C 0.5307(7) 1.0175(5) 0.47070(16)
C7 C 0.6882(6) 1.0758(4) 0.47991(15)
C8 C 0.4748(5) 0.9457(4) 0.51394(13)
C9 C 0.4142(7) 1.1098(4) 0.45425(14)
C10 C 0.2936(6) 0.7494(4) 0.36809(16)
C11 C 0.1794(6) 0.7990(4) 0.39887(15)
C12 C 0.0563(6) 0.8650(4) 0.38020(16)
C13 C 0.0446(6) 0.8846(4) 0.33004(18)
C14 C 0.1523(5) 0.8345(4) 0.29865(14)
C15 C 0.2766(5) 0.7669(4) 0.31769(15)
C16 C -0.0758(4) 1.0028(3) 0.26600(13)
C17 C 0.7501(6) 0.4580(4) 0.35208(13)
C18 C 0.6924(5) 0.3408(5) 0.34531(13)
C19 C 0.7874(7) 0.2407(4) 0.34915(14)
C20 C 0.9435(7) 0.2542(5) 0.35997(14)
C21 C 1.0043(5) 0.3698(5) 0.36525(13)
C22 C 0.9097(6) 0.4711(4) 0.36119(12)
C23 C 0.6301(5) 0.6007(4) 0.29216(15)
C24 C 0.5396(5) 0.5282(4) 0.26096(16)
C25 C 0.5361(6) 0.5486(4) 0.21053(17)
C26 C 0.6194(6) 0.6422(5) 0.19035(16)
C27 C 0.7081(5) 0.7154(4) 0.22084(17)
C28 C 0.7147(5) 0.6946(4) 0.27150(15)
H1 H 0.75790 0.64770 0.40530
H2 H 0.58080 0.81310 0.35260
H3 H 0.41960 0.68010 0.42560
H4 H 0.39900 0.53510 0.34500
H5 H 0.70750 1.07970 0.51480
H6 H 0.76620 1.02550 0.46450
H7 H 0.69290 1.15610 0.46610
H8 H 0.56160 0.90490 0.52920
H9 H 0.42290 0.99570 0.53800
H10 H 0.40250 0.88650 0.50130
H11 H 0.42710 1.18500 0.47180
H12 H 0.31280 1.07640 0.46140
H13 H 0.42300 1.12420 0.41940
H14 H 0.18610 0.78730 0.43290
H15 H -0.02090 0.89710 0.40060
H16 H 0.14480 0.84750 0.26480
H17 H 0.35040 0.73160 0.29690
H18 H 0.01670 1.05140 0.26170
H19 H -0.16680 1.05150 0.25940
H20 H -0.07310 0.93540 0.24350
H21 H 0.58690 0.33240 0.33750
H22 H 0.74390 0.16400 0.34470
H23 H 1.00550 0.18510 0.36320
H24 H 1.11030 0.37790 0.37230
H25 H 0.95360 0.54810 0.36410
H26 H 0.48220 0.46410 0.27410
H27 H 0.47680 0.49850 0.19010
H28 H 0.61500 0.65760 0.15660
H29 H 0.76410 0.77990 0.20740
H30 H 0.77770 0.74180 0.29190
#END
