
#######################################################################
#
#                 Cambridge Crystallographic Data Centre
#                                CCDC
#
#######################################################################
#
# If this CIF has been generated from an entry in the Cambridge
# Structural Database, then it will include bibliographic, chemical,
# crystal, experimental, refinement or atomic coordinate data resulting
# from the CCDC's data processing and validation procedures.
#
#######################################################################

data_CSD_CIF_BEGWIT
_audit_creation_date 1999-11-19
_audit_creation_method CSD-ConQuest-V1
_database_code_CSD BEGWIT
_database_code_depnum_ccdc_archive 'CCDC 119474'
_database_code_depnum_ccdc_journal 1003/5505
_chemical_formula_sum 'C19 H22 N10 O4'
_chemical_formula_moiety
;
C19 H22 N10 O4
;
_journal_coden_Cambridge 1003
_journal_volume 29
_journal_year 1999
_journal_page_first 145
_journal_name_full 'J.Chem.Cryst. '
loop_
_publ_author_name
"K.Biradha"
"M.B.Peori"
"K.Vaughan"
"M.J.Zaworotko"
_chemical_name_systematic
;
3,8-bis(2-o-Nitrophenyl-1-azenyl)-1,3,6,8-tetra-azabicyclo(4.4.1)undecane
;
_cell_volume   2043.982
_exptl_crystal_density_diffrn 1.477
_diffrn_ambient_temperature 213
#These two values have been output from a single CSD field.
_refine_ls_R_factor_gt 0.0785
_refine_ls_wR_factor_gt 0.0785
_symmetry_cell_setting monoclinic
_symmetry_space_group_name_H-M 'P 21/c'
_symmetry_Int_Tables_number 14
loop_
_symmetry_equiv_pos_site_id
_symmetry_equiv_pos_as_xyz
1 x,y,z
2 -x,1/2+y,1/2-z
3 -x,-y,-z
4 x,-1/2-y,-1/2+z
_cell_length_a 14.2371(16)
_cell_length_b 13.5200(15)
_cell_length_c 11.5805(12)
_cell_angle_alpha 90
_cell_angle_beta 113.514(2)
_cell_angle_gamma 90
_cell_formula_units_Z 4
loop_
_atom_type_symbol
_atom_type_radius_bond
C 0.68
H 0.23
N 0.68
O 0.68
loop_
_atom_site_label
_atom_site_type_symbol
_atom_site_fract_x
_atom_site_fract_y
_atom_site_fract_z
N1 N 0.3507(3) 0.5101(3) 0.4310(4)
N2 N 0.3866(3) 0.4914(3) 0.3481(4)
N3 N 0.4504(4) 0.4680(3) 0.1494(4)
N4 N 0.1337(3) 0.4317(3) 0.1510(4)
N5 N 0.1297(3) 0.5246(3) 0.1262(4)
N6 N 0.0988(3) 0.7211(3) 0.0232(4)
N7 N 0.3558(3) 0.4346(3) 0.5058(4)
N8 N 0.2116(3) 0.2696(3) 0.3927(4)
N9 N 0.2031(3) 0.3956(3) 0.5477(3)
N10 N 0.1257(3) 0.4102(3) 0.2574(4)
O1 O 0.3950(3) 0.3970(3) 0.1378(4)
O2 O 0.5336(3) 0.4650(3) 0.1398(4)
O3 O 0.1251(4) 0.8040(3) 0.0063(4)
O4 O 0.0468(3) 0.7055(3) 0.0827(4)
C1 C 0.3915(4) 0.3366(4) 0.4887(5)
H1 H 0.41310 0.30030 0.56840
H2 H 0.45160 0.34420 0.46830
C2 C 0.3117(4) 0.2765(3) 0.3865(5)
H3 H 0.30240 0.30520 0.30490
H4 H 0.33840 0.20930 0.38920
C3 C 0.1258(4) 0.3038(3) 0.2854(4)
H5 H 0.06320 0.28870 0.29800
H6 H 0.12300 0.26640 0.21160
C4 C 0.1120(4) 0.4879(3) 0.3372(4)
H7 H 0.04660 0.52140 0.29110
H8 H 0.16670 0.53700 0.35500
C5 C 0.1133(4) 0.4490(3) 0.4620(5)
H9 H 0.10270 0.50570 0.50810
H10 H 0.05400 0.40540 0.44210
C6 C 0.3012(4) 0.4442(4) 0.5895(5)
H11 H 0.34510 0.41760 0.67230
H12 H 0.29120 0.51470 0.60040
C7 C 0.2045(4) 0.2916(3) 0.5124(4)
H13 H 0.26260 0.25960 0.57930
H14 H 0.14210 0.26030 0.51130
C8 C 0.3834(3) 0.5764(3) 0.2735(5)
C9 C 0.4185(4) 0.5652(3) 0.1795(5)
C10 C 0.4274(4) 0.6450(4) 0.1081(4)
H15 H 0.45240 0.63570 0.04500
C11 C 0.3989(4) 0.7381(4) 0.1319(5)
H16 H 0.40540 0.79320 0.08620
C12 C 0.3606(4) 0.7488(4) 0.2237(5)
H17 H 0.34000 0.81180 0.23900
C13 C 0.3521(3) 0.6702(3) 0.2927(5)
H18 H 0.32480 0.67940 0.35370
C14 C 0.1419(3) 0.5431(3) 0.0128(4)
C15 C 0.1301(3) 0.6387(3) -0.0357(4)
C16 C 0.1449(4) 0.6624(4) -0.1433(5)
H19 H 0.13780 0.72810 -0.17200
C17 C 0.1704(4) 0.5885(4) -0.2082(5)
H20 H 0.18040 0.60330 -0.28180
C18 C 0.1809(4) 0.4932(4) -0.1637(5)
H21 H 0.19670 0.44250 -0.20860
C19 C 0.1688(4) 0.4704(3) -0.0547(5)
H22 H 0.17870 0.40490 -0.02510
#END
