
#######################################################################
#
#                 Cambridge Crystallographic Data Centre
#                                CCDC
#
#######################################################################
#
# If this CIF has been generated from an entry in the Cambridge
# Structural Database, then it will include bibliographic, chemical,
# crystal, experimental, refinement or atomic coordinate data resulting
# from the CCDC's data processing and validation procedures.
#
#######################################################################

data_CSD_CIF_BEGYUH
_audit_creation_date 1999-11-19
_audit_creation_method CSD-ConQuest-V1
_database_code_CSD BEGYUH
_database_code_depnum_ccdc_archive 'CCDC 119478'
_database_code_depnum_ccdc_journal 1003/5505
_chemical_formula_sum 'C19 H22 N10 O4'
_chemical_formula_moiety
;
C19 H22 N10 O4
;
_journal_coden_Cambridge 1003
_journal_volume 29
_journal_year 1999
_journal_page_first 145
_journal_name_full 'J.Chem.Cryst. '
loop_
_publ_author_name
"K.Biradha"
"M.B.Peori"
"K.Vaughan"
"M.J.Zaworotko"
_chemical_name_systematic
;
3,8-bis(2-p-Nitrophenyl-1-azenyl)-1,3,6,8-tetra-azabicyclo(4.4.1)undecane
;
_cell_volume   2086.480
_exptl_crystal_density_diffrn 1.447
_diffrn_ambient_temperature ?
_diffrn_special_details
;
The study was carried out at room temperature,in the range 283-303K

;
#These two values have been output from a single CSD field.
_refine_ls_R_factor_gt 0.0715
_refine_ls_wR_factor_gt 0.0715
_symmetry_cell_setting monoclinic
_symmetry_space_group_name_H-M 'P 21/c'
_symmetry_Int_Tables_number 14
loop_
_symmetry_equiv_pos_site_id
_symmetry_equiv_pos_as_xyz
1 x,y,z
2 -x,1/2+y,1/2-z
3 -x,-y,-z
4 x,-1/2-y,-1/2+z
_cell_length_a 10.1846(7)
_cell_length_b 9.9556(7)
_cell_length_c 20.8189(15)
_cell_angle_alpha 90
_cell_angle_beta 98.725(1)
_cell_angle_gamma 90
_cell_formula_units_Z 4
loop_
_atom_type_symbol
_atom_type_radius_bond
C 0.68
H 0.23
N 0.68
O 0.68
loop_
_atom_site_label
_atom_site_type_symbol
_atom_site_fract_x
_atom_site_fract_y
_atom_site_fract_z
N1 N 0.3925(2) 0.5983(2) 0.25056(10)
N2 N 0.2672(2) 0.8484(2) 0.28727(10)
N3 N 0.2050(2) 0.7153(2) 0.18547(10)
N4 N 0.1290(2) 0.6653(2) 0.31966(10)
O1 O 0.2551(3) -0.0504(2) 0.46812(12)
O2 O 0.3791(2) 0.0413(2) 0.54916(11)
O3 O 0.2059(2) 0.3136(3) 0.67442(11)
O4 O 0.1058(2) 0.1382(2) 0.62960(11)
N5 N 0.3701(2) 0.4872(2) 0.28163(11)
N6 N 0.4321(2) 0.4822(2) 0.34012(11)
N7 N 0.3285(3) 0.0394(3) 0.49189(13)
N8 N 0.1382(2) 0.6121(2) 0.37852(10)
N9 N 0.0944(2) 0.4919(2) 0.3790(1)
N10 N 0.1527(2) 0.2511(3) 0.62659(13)
C1 C 0.4722(3) 0.7091(3) 0.28088(14)
H1 H 0.5054(3) 0.7609(3) 0.24729(14)
H2 H 0.5482(3) 0.6728(3) 0.30927(14)
C2 C 0.3968(3) 0.8022(3) 0.32001(14)
H3 H 0.3838(3) 0.7563(3) 0.35966(14)
H4 H 0.4517(3) 0.8804(3) 0.33241(14)
C3 C 0.1564(3) 0.8099(3) 0.31805(13)
H5 H 0.0777(3) 0.8544(3) 0.29581(13)
H6 H 0.1714(3) 0.8429(3) 0.36240(13)
C4 C 0.0730(3) 0.5893(3) 0.26207(12)
H7 H -0.0190(3) 0.5682(3) 0.26494(12)
H8 H 0.1207(3) 0.5051(3) 0.26155(12)
C5 C 0.0786(3) 0.6630(3) 0.19870(12)
H9 H 0.0450(3) 0.6025(3) 0.16351(12)
H10 H 0.0172(3) 0.7379(3) 0.19662(12)
C6 C 0.3119(3) 0.6210(3) 0.18619(12)
H11 H 0.3701(3) 0.6525(3) 0.15656(12)
H12 H 0.2750(3) 0.5356(3) 0.16980(12)
C7 C 0.2419(3) 0.8443(3) 0.21640(13)
H13 H 0.3212(3) 0.8759(3) 0.20052(13)
H14 H 0.1716(3) 0.9079(3) 0.20181(13)
C8 C 0.4050(2) 0.3629(3) 0.37245(12)
C9 C 0.4675(3) 0.3544(3) 0.43676(13)
H15 H 0.5260(3) 0.4218(3) 0.45362(13)
C10 C 0.4442(3) 0.2482(3) 0.47563(13)
H16 H 0.4854(3) 0.2437(3) 0.51861(13)
C11 C 0.3587(3) 0.1486(3) 0.44967(13)
C12 C 0.2987(3) 0.1520(3) 0.38532(13)
H17 H 0.2438(3) 0.0821(3) 0.36816(13)
C13 C 0.3213(3) 0.2595(3) 0.34718(13)
H18 H 0.2802(3) 0.2630(3) 0.30415(13)
C14 C 0.1128(2) 0.4378(2) 0.44298(12)
C15 C 0.1968(3) 0.4915(3) 0.49586(13)
H19 H 0.2447(3) 0.5692(3) 0.49054(13)
C16 C 0.2097(3) 0.4306(3) 0.55589(13)
H20 H 0.2645(3) 0.4676(3) 0.59128(13)
C17 C 0.1408(3) 0.3148(3) 0.56268(12)
C18 C 0.0431(3) 0.3217(3) 0.45178(13)
H21 H -0.0137(3) 0.2854(3) 0.41692(13)
C19 C 0.0566(3) 0.2587(3) 0.51145(14)
H22 H 0.0101(3) 0.1803(3) 0.51705(14)
#END
