
#######################################################################
#
#                 Cambridge Crystallographic Data Centre
#                                CCDC
#
#######################################################################
#
# If this CIF has been generated from an entry in the Cambridge
# Structural Database, then it will include bibliographic, chemical,
# crystal, experimental, refinement or atomic coordinate data resulting
# from the CCDC's data processing and validation procedures.
#
#######################################################################

data_CSD_CIF_BEHDAW
_audit_creation_date 2017-10-17
_audit_creation_method CSD-ConQuest-V1
_database_code_CSD BEHDAW
_database_code_depnum_ccdc_archive 'CCDC 967904'
_chemical_formula_sum 'C23 H19 N1 O4'
_chemical_formula_moiety
;
C23 H19 N1 O4
;
_journal_coden_Cambridge 279
_journal_volume 580
_journal_year 2014
_journal_page_first 46
_journal_name_full 'Thermochim.Acta '
loop_
_publ_author_name
"K.Gonczi"
"V.Kudar"
"Z.Jaszay"
"P.Bombicz"
"F.Faigl"
"J.Madarasz"
_chemical_name_systematic
;
(S)-2-(2-nitro-1-phenylethyl)-1,3-diphenylpropane-1,3-dione
;
_cell_volume   3813.936
_exptl_crystal_colour 'colorless'
_exptl_crystal_density_diffrn 1.301
_exptl_special_details
;
Absolute configuration

;
_exptl_crystal_description 'Block'
_diffrn_ambient_temperature 93
#These two values have been output from a single CSD field.
_refine_ls_R_factor_gt 0.0377
_refine_ls_wR_factor_gt 0.0377
_symmetry_cell_setting orthorhombic
_symmetry_space_group_name_H-M 'P 21 21 21'
_symmetry_Int_Tables_number 19
loop_
_symmetry_equiv_pos_site_id
_symmetry_equiv_pos_as_xyz
1 x,y,z
2 1/2-x,-y,1/2+z
3 1/2+x,1/2-y,-z
4 -x,1/2+y,1/2-z
_cell_length_a 10.6377(2)
_cell_length_b 11.4348(2)
_cell_length_c 31.3543(6)
_cell_angle_alpha 90
_cell_angle_beta 90
_cell_angle_gamma 90
_cell_formula_units_Z 8
loop_
_atom_type_symbol
_atom_type_radius_bond
C 0.68
H 0.23
N 0.68
O 0.68
loop_
_atom_site_label
_atom_site_type_symbol
_atom_site_fract_x
_atom_site_fract_y
_atom_site_fract_z
O1 O 0.95548(15) 0.26130(12) -0.09465(4)
O2 O 0.75880(14) 0.25620(13) -0.00415(4)
O3 O 0.94695(15) -0.10032(13) -0.09342(5)
O4 O 0.75015(16) -0.12769(13) -0.07951(5)
N1 N 0.84687(18) -0.06913(15) -0.07815(5)
C1 C 0.9675(2) 0.29484(18) -0.05813(6)
C2 C 0.9695(2) 0.20843(16) -0.02073(6)
H1 H 1.05130 0.21860 -0.00540
C3 C 0.8642(2) 0.23799(17) 0.01058(6)
C4 C 0.9619(2) 0.07913(17) -0.03599(6)
H2 H 1.02980 0.06860 -0.05770
C5 C 0.8388(2) 0.04988(17) -0.05799(6)
H3 H 0.76950 0.05120 -0.03690
H4 H 0.82060 0.10920 -0.08010
C6 C 0.9860(2) 0.42191(17) -0.04864(6)
C7 C 0.9674(2) 0.50185(18) -0.08164(7)
H5 H 0.94030 0.47490 -0.10880
C8 C 0.9879(2) 0.62008(19) -0.07525(7)
H6 H 0.97510 0.67380 -0.09800
C9 C 1.0270(2) 0.66016(18) -0.03567(7)
H7 H 1.04080 0.74130 -0.03130
C10 C 1.0461(2) 0.58173(19) -0.00241(7)
H8 H 1.07340 0.60920 0.02460
C11 C 1.0251(2) 0.46277(18) -0.00880(7)
H9 H 1.03740 0.40930 0.01400
C12 C 0.8876(2) 0.24120(17) 0.05730(6)
C13 C 0.7895(2) 0.27669(18) 0.08380(7)
H10 H 0.71130 0.29930 0.07170
C14 C 0.8052(2) 0.2791(2) 0.12763(7)
H11 H 0.73800 0.30410 0.14540
C15 C 0.9181(2) 0.2455(2) 0.14555(7)
H12 H 0.92830 0.24630 0.17570
C16 C 1.0166(2) 0.2106(2) 0.11958(7)
H13 H 1.09430 0.18770 0.13190
C17 C 1.0020(2) 0.20908(19) 0.07555(7)
H14 H 1.07020 0.18610 0.05780
C18 C 0.9919(2) -0.00427(16) 0.00058(6)
C19 C 0.8993(2) -0.04767(19) 0.02752(7)
H15 H 0.81390 -0.02760 0.02260
C20 C 0.9300(3) -0.1201(2) 0.06159(7)
H16 H 0.86590 -0.14920 0.07980
C21 C 1.0546(3) -0.1497(2) 0.06891(8)
H17 H 1.07590 -0.19890 0.09220
C22 C 1.1476(3) -0.1075(2) 0.04230(8)
H18 H 1.23290 -0.12780 0.04720
C23 C 1.1163(2) -0.03527(19) 0.00834(7)
H19 H 1.18070 -0.00660 -0.00990
O5 O 0.24166(17) 0.04594(13) 0.16541(4)
O6 O 0.04642(16) 0.09132(15) 0.24507(5)
O7 O 0.29684(17) 0.40808(13) 0.16064(5)
O8 O 0.49406(19) 0.42090(16) 0.17713(6)
N2 N 0.3936(2) 0.36841(16) 0.17602(6)
C24 C 0.2584(2) 0.01363(18) 0.20208(6)
C25 C 0.2669(2) 0.10249(17) 0.23863(6)
H20 H 0.34130 0.08480 0.25700
C26 C 0.1450(2) 0.09090(18) 0.26470(7)
C27 C 0.2745(2) 0.23055(17) 0.22190(6)
H21 H 0.19840 0.24550 0.20400
C28 C 0.3901(2) 0.24638(18) 0.19382(7)
H22 H 0.46690 0.23170 0.21080
H23 H 0.38780 0.18910 0.17010
C29 C 0.2705(2) -0.11360(18) 0.21212(6)
C30 C 0.2744(2) -0.19243(19) 0.17823(7)
H24 H 0.26860 -0.16450 0.14980
C31 C 0.2867(3) -0.3109(2) 0.18576(7)
H25 H 0.29120 -0.36400 0.16250
C32 C 0.2924(2) -0.35240(19) 0.22732(7)
H26 H 0.30010 -0.43390 0.23250
C33 C 0.2868(2) -0.27524(18) 0.26117(7)
H27 H 0.28910 -0.30400 0.28960
C34 C 0.2779(2) -0.15561(18) 0.25378(6)
H28 H 0.27680 -0.10260 0.27710
C35 C 0.1470(2) 0.08307(18) 0.31217(7)
C36 C 0.0334(2) 0.0606(2) 0.33283(7)
H29 H -0.04090 0.04890 0.31660
C37 C 0.0283(3) 0.0554(2) 0.37701(8)
H30 H -0.04890 0.03840 0.39100
C38 C 0.1357(3) 0.0748(2) 0.40061(7)
H31 H 0.13160 0.07310 0.43090
C39 C 0.2490(2) 0.09677(19) 0.38078(7)
H32 H 0.32270 0.10960 0.39730
C40 C 0.2547(2) 0.10003(18) 0.33656(7)
H33 H 0.33290 0.11400 0.32280
C41 C 0.2722(2) 0.31620(17) 0.25925(6)
C42 C 0.3803(2) 0.34118(19) 0.28240(7)
H34 H 0.45820 0.30770 0.27400
C43 C 0.3758(2) 0.4145(2) 0.31762(7)
H35 H 0.45080 0.43190 0.33280
C44 C 0.2632(3) 0.4621(2) 0.33079(7)
H36 H 0.25990 0.51030 0.35540
C45 C 0.1551(3) 0.4392(2) 0.30781(7)
H37 H 0.07730 0.47250 0.31640
C46 C 0.1602(2) 0.36707(19) 0.27197(7)
H38 H 0.08580 0.35270 0.25610
#END
