
#######################################################################
#
#                 Cambridge Crystallographic Data Centre
#                                CCDC
#
#######################################################################
#
# If this CIF has been generated from an entry in the Cambridge
# Structural Database, then it will include bibliographic, chemical,
# crystal, experimental, refinement or atomic coordinate data resulting
# from the CCDC's data processing and validation procedures.
#
#######################################################################

data_CSD_CIF_BEHDUN
_audit_creation_date 1982-09-17
_audit_creation_method CSD-ConQuest-V1
_database_code_CSD BEHDUN
_chemical_formula_sum 'C19 H17 N1 O5'
_chemical_formula_moiety
;
C19 H17 N1 O5
;
_journal_coden_Cambridge 188
_journal_year 1982
_journal_page_first 361
_journal_name_full 'J.Chem.Soc.,Perkin Trans.2 '
loop_
_publ_author_name
"R.Cernik"
"G.-A.Craze"
"O.S.Mills"
"I.Watt"
_chemical_name_systematic
;
exo-9-p-Nitrobenzoyl-pentacyclo(6.2.1.1^3,6^.0^2,7^.0^4,10^)dodecan-5-one
;
_chemical_melting_point 463.15
_cell_volume   1549.901
_exptl_crystal_density_diffrn 1.46
_exptl_special_details
;
Melting point range 463.15-468.15K

;
_diffrn_ambient_temperature ?
_diffrn_special_details
;
The study was carried out at room temperature,in the range 283-303K

;
#These two values have been output from a single CSD field.
_refine_ls_R_factor_gt 0.048
_refine_ls_wR_factor_gt 0.048
_symmetry_cell_setting monoclinic
_symmetry_space_group_name_H-M 'P 21/c'
_symmetry_Int_Tables_number 14
loop_
_symmetry_equiv_pos_site_id
_symmetry_equiv_pos_as_xyz
1 x,y,z
2 -x,1/2+y,1/2-z
3 -x,-y,-z
4 x,-1/2-y,-1/2+z
_cell_length_a 7.321(2)
_cell_length_b 17.942(4)
_cell_length_c 11.866(5)
_cell_angle_alpha 90
_cell_angle_beta 96.07(2)
_cell_angle_gamma 90
_cell_formula_units_Z 4
loop_
_atom_type_symbol
_atom_type_radius_bond
C 0.68
H 0.23
N 0.68
O 0.68
loop_
_atom_site_label
_atom_site_type_symbol
_atom_site_fract_x
_atom_site_fract_y
_atom_site_fract_z
O1 O -0.31430 0.52450 0.28370
O2 O -0.26780 0.60570 0.15750
O3 O 0.53560 0.41380 0.08190
O4 O 0.36170 0.31200 0.09250
O5 O 0.89860 0.21810 0.22270
N1 N -0.23020 0.54880 0.20850
C1 C -0.06890 0.50590 0.17930
C2 C 0.06920 0.54330 0.13360
C3 C 0.22050 0.50270 0.10880
C4 C 0.22680 0.42660 0.12600
C5 C 0.08250 0.39060 0.16940
C6 C -0.06690 0.43070 0.19840
C7 C 0.39250 0.38490 0.09710
C8 C 0.51900 0.26460 0.07530
C9 C 0.54830 0.25760 -0.04960
C10 C 0.36310 0.21950 -0.09240
C11 C 0.39550 0.15300 -0.01340
C12 C 0.46650 0.18500 0.10240
C13 C 0.64630 0.13830 0.14500
C14 C 0.68040 0.08380 0.05070
C15 C 0.57310 0.12170 -0.05050
C16 C 0.68830 0.19380 -0.06330
C17 C 0.85900 0.18370 0.02300
C18 C 0.81090 0.18930 0.14290
C19 C 0.87770 0.09840 0.02560
H1 H 0.06870 0.59560 0.12070
H2 H 0.32400 0.52490 0.07760
H3 H 0.08240 0.33890 0.17950
H4 H -0.16700 0.41030 0.22730
H5 H 0.62230 0.28380 0.12460
H6 H 0.58110 0.30390 -0.07540
H7 H 0.25140 0.24790 -0.08300
H8 H 0.35710 0.20460 -0.17780
H9 H 0.28400 0.11680 -0.01440
H10 H 0.37510 0.18170 0.15750
H11 H 0.64150 0.11570 0.22530
H12 H 0.64500 0.02630 0.06500
H13 H 0.55330 0.09240 -0.11640
H14 H 0.73780 0.19420 -0.12890
H15 H 0.96230 0.21540 0.01220
H16 H 0.96940 0.07860 0.08280
H17 H 0.90120 0.07800 -0.04540
#END
