
#######################################################################
#
#                 Cambridge Crystallographic Data Centre
#                                CCDC
#
#######################################################################
#
# If this CIF has been generated from an entry in the Cambridge
# Structural Database, then it will include bibliographic, chemical,
# crystal, experimental, refinement or atomic coordinate data resulting
# from the CCDC's data processing and validation procedures.
#
#######################################################################

data_CSD_CIF_BEHFEC
_audit_creation_date 2017-10-17
_audit_creation_method CSD-ConQuest-V1
_database_code_CSD BEHFEC
_database_code_depnum_ccdc_archive 'CCDC 1472068'
_chemical_formula_sum 'C14 H20 N2 O4'
_chemical_formula_moiety
;
C14 H20 N2 O4
;
_journal_coden_Cambridge 1078
_journal_year 2017
_journal_name_full 'CSD Communication(Private Communication) '
loop_
_publ_author_name
"D.J.Tindall"
"H.Krause"
"A.FArstner"
_chemical_name_systematic
;
N-(1-hydroxy-3,3-dimethylbutan-2-yl)-3-methyl-2-nitrobenzamide
;
_cell_volume   1439.171
_exptl_crystal_colour 'colorless'
_exptl_crystal_density_diffrn 1.294
_exptl_crystal_description 'plate'
_exptl_crystal_preparation 'ethyl acetate, methyl-t-butyl ether'
_diffrn_ambient_temperature 200
#These two values have been output from a single CSD field.
_refine_ls_R_factor_gt 0.0418
_refine_ls_wR_factor_gt 0.0418
_symmetry_cell_setting orthorhombic
_symmetry_space_group_name_H-M 'P 21 21 21'
_symmetry_Int_Tables_number 19
loop_
_symmetry_equiv_pos_site_id
_symmetry_equiv_pos_as_xyz
1 x,y,z
2 1/2-x,-y,1/2+z
3 -x,1/2+y,1/2-z
4 1/2+x,1/2-y,-z
_cell_length_a 6.8091(11)
_cell_length_b 11.2312(17)
_cell_length_c 18.819(3)
_cell_angle_alpha 90
_cell_angle_beta 90
_cell_angle_gamma 90
_cell_formula_units_Z 4
loop_
_atom_type_symbol
_atom_type_radius_bond
C 0.68
H 0.23
N 0.68
O 0.68
loop_
_atom_site_label
_atom_site_type_symbol
_atom_site_fract_x
_atom_site_fract_y
_atom_site_fract_z
O1 O 0.1965(2) 0.55664(13) 0.54372(8)
O2 O -0.1781(2) 0.37655(15) 0.64135(10)
O3 O 0.7985(2) 0.59519(15) 0.52247(8)
O4 O 0.0575(2) 0.47328(15) 0.69167(9)
N1 N -0.0040(2) 0.39454(14) 0.65291(9)
N2 N 0.4803(2) 0.55159(14) 0.60673(8)
C1 C 0.3213(2) 0.50237(16) 0.57807(9)
C2 C 0.1119(3) 0.19347(17) 0.62147(9)
C3 C 0.5422(2) 0.67535(16) 0.59584(10)
H1 H 0.47150 0.70660 0.55320
C4 C 0.1402(2) 0.31597(16) 0.61876(9)
C5 C 0.2580(3) 0.12367(17) 0.59055(10)
H2 H 0.24460 0.03950 0.59110
C6 C 0.4456(3) 0.29586(18) 0.55785(10)
H3 H 0.55910 0.32950 0.53640
C7 C 0.3042(2) 0.36952(16) 0.58770(9)
C8 C 0.4212(3) 0.17343(18) 0.55922(11)
H4 H 0.51790 0.12340 0.53840
C9 C 0.4867(3) 0.75473(17) 0.66006(10)
C10 C 0.7617(3) 0.67495(17) 0.57920(11)
H5 H 0.80480 0.75610 0.56590
H6 H 0.83660 0.65000 0.62170
C11 C 0.5858(3) 0.87710(18) 0.65242(13)
H7 H 0.56620 0.90700 0.60400
H8 H 0.72680 0.86930 0.66190
H9 H 0.52770 0.93290 0.68650
C12 C 0.2634(3) 0.7728(2) 0.66057(13)
H10 H 0.19800 0.69550 0.66540
H11 H 0.22250 0.81050 0.61600
H12 H 0.22700 0.82400 0.70060
C13 C 0.5495(4) 0.6982(2) 0.73053(12)
H13 H 0.69170 0.68440 0.73000
H14 H 0.48110 0.62220 0.73680
H15 H 0.51610 0.75180 0.76980
C14 C -0.0612(3) 0.13385(19) 0.65613(13)
H16 H -0.17670 0.14170 0.62540
H17 H -0.08760 0.17170 0.70210
H18 H -0.03190 0.04930 0.66350
H19 H 0.567(3) 0.503(2) 0.6258(12)
H20 H 0.916(5) 0.581(3) 0.5242(17)
#END
