
#######################################################################
#
#                 Cambridge Crystallographic Data Centre
#                                CCDC
#
#######################################################################
#
# If this CIF has been generated from an entry in the Cambridge
# Structural Database, then it will include bibliographic, chemical,
# crystal, experimental, refinement or atomic coordinate data resulting
# from the CCDC's data processing and validation procedures.
#
#######################################################################

data_CSD_CIF_BEHNUY
_audit_creation_date 2004-03-11
_audit_creation_method CSD-ConQuest-V1
_database_code_CSD BEHNUY
_database_code_depnum_ccdc_archive 'CCDC 226333'
_chemical_formula_sum 'C19 H22 N2 O5'
_chemical_formula_moiety
;
C19 H22 N2 O5
;
_journal_coden_Cambridge 35
_journal_volume 68
_journal_year 2003
_journal_page_first 8798
_journal_name_full 'J.Org.Chem. '
loop_
_publ_author_name
"P.Wipf"
"T.H.Graham"
_chemical_name_systematic
;
(5S*)-5-((2R*,4S*)-2-Isobutyl-3,4-dihydro-2H-pyran-4-yl)-4-methylene-3-(4-nitr
ophenyl)oxazolidin-2-one
;
_chemical_melting_point 394.95
_cell_volume   1814.305
_exptl_crystal_colour 'pale yellow'
_exptl_crystal_density_diffrn 1.312
_exptl_special_details
;
Melting point range 394.95-395.65K

;
_exptl_crystal_preparation 'pentane/dichloromethane'
_diffrn_ambient_temperature 150
#These two values have been output from a single CSD field.
_refine_ls_R_factor_gt 0.0563
_refine_ls_wR_factor_gt 0.0563
_symmetry_cell_setting monoclinic
_symmetry_space_group_name_H-M 'P 21/c'
_symmetry_Int_Tables_number 14
loop_
_symmetry_equiv_pos_site_id
_symmetry_equiv_pos_as_xyz
1 x,y,z
2 x,1/2-y,1/2+z
3 -x,-y,-z
4 -x,-1/2+y,-1/2-z
_cell_length_a 7.4362(4)
_cell_length_b 12.0213(6)
_cell_length_c 20.2975(10)
_cell_angle_alpha 90
_cell_angle_beta 90.725(1)
_cell_angle_gamma 90
_cell_formula_units_Z 4
loop_
_atom_type_symbol
_atom_type_radius_bond
C 0.68
H 0.23
N 0.68
O 0.68
loop_
_atom_site_label
_atom_site_type_symbol
_atom_site_fract_x
_atom_site_fract_y
_atom_site_fract_z
C1 C 0.29908(14) 0.85863(9) -0.06802(5)
N1 N 0.46904(15) 0.96905(10) -0.25310(5)
O1 O 0.52062(19) 0.89917(10) -0.29253(5)
N2 N 0.23258(12) 0.81947(8) -0.00679(4)
C2 C 0.38382(16) 0.78474(10) -0.11020(6)
H1 H 0.399(2) 0.7108(14) -0.0964(8)
O2 O 0.46374(13) 1.06902(9) -0.26464(5)
O3 O 0.02620(11) 0.77201(7) 0.06619(4)
C3 C 0.44016(17) 0.82057(10) -0.17117(6)
H2 H 0.504(2) 0.7693(14) -0.2010(9)
O4 O -0.06926(11) 0.85370(8) -0.02744(4)
C4 C 0.41164(15) 0.93056(10) -0.18795(6)
O5 O 0.02420(11) 0.98356(6) 0.23582(4)
C5 C 0.33174(16) 1.00576(10) -0.14633(6)
H3 H 0.315(2) 1.0791(14) -0.1595(8)
C6 C 0.27489(15) 0.96912(10) -0.08524(6)
H4 H 0.2159(19) 1.0196(12) -0.0547(7)
C7 C 0.33479(16) 0.77120(9) 0.04451(5)
C8 C 0.19923(16) 0.7474(1) 0.09735(5)
H5 H 0.2010(18) 0.6706(12) 0.1071(7)
C9 C 0.05082(15) 0.81960(9) 0.00693(5)
C10 C 0.51040(18) 0.75441(12) 0.04649(7)
H6 H 0.560(2) 0.7178(14) 0.0889(9)
H7 H 0.590(2) 0.7776(13) 0.0096(8)
C11 C 0.08490(16) 0.78896(9) 0.21154(5)
H8 H 0.114(2) 0.7129(13) 0.2313(7)
H9 H -0.0345(18) 0.7830(11) 0.1911(7)
C12 C 0.08015(15) 0.87864(8) 0.26446(5)
H10 H 0.2023(18) 0.8897(10) 0.2814(6)
C13 C 0.10867(16) 1.00989(9) 0.17861(6)
H11 H 0.0861(18) 1.0888(12) 0.1670(7)
C14 C 0.20538(15) 0.94080(9) 0.14257(5)
H12 H 0.2586(18) 0.9662(11) 0.1034(7)
C15 C 0.22274(15) 0.81941(9) 0.15901(5)
H13 H 0.3465(19) 0.8055(12) 0.1758(7)
C16 C -0.04950(16) 0.85341(9) 0.31963(5)
H14 H -0.0018(19) 0.7885(12) 0.3433(7)
H15 H -0.1663(19) 0.8324(11) 0.2980(7)
C17 C -0.07590(16) 0.94924(9) 0.36828(5)
H16 H -0.1121(19) 1.0144(12) 0.3426(7)
C18 C -0.2277(2) 0.92283(13) 0.41539(7)
H17 H -0.243(2) 0.9881(14) 0.4472(8)
H18 H -0.199(2) 0.8549(16) 0.4388(9)
H19 H -0.337(3) 0.9115(15) 0.3920(8)
C19 C 0.0959(2) 0.97776(12) 0.40611(7)
H20 H 0.195(2) 0.9939(13) 0.3781(9)
H21 H 0.076(2) 1.0426(14) 0.4344(9)
H22 H 0.138(2) 0.9107(13) 0.4349(8)
#END
