
#######################################################################
#
#                 Cambridge Crystallographic Data Centre
#                                CCDC
#
#######################################################################
#
# If this CIF has been generated from an entry in the Cambridge
# Structural Database, then it will include bibliographic, chemical,
# crystal, experimental, refinement or atomic coordinate data resulting
# from the CCDC's data processing and validation procedures.
#
#######################################################################

data_CSD_CIF_BEHRIR
_audit_creation_date 2013-04-23
_audit_creation_method CSD-ConQuest-V1
_database_code_CSD BEHRIR
_database_code_depnum_ccdc_archive 'CCDC 879022'
_chemical_formula_sum 'C25 H27 N1 O3'
_chemical_formula_moiety
;
C25 H27 N1 O3
;
_journal_coden_Cambridge 1220
_journal_volume 18
_journal_year 2012
_journal_page_first 13638
_journal_name_full 'Chem.-Eur.J. '
loop_
_publ_author_name
"Dhananjayan Vasu"
"Rai-Shung Liu"
_chemical_name_systematic
;
4-Isopropylidene-5-methoxy-2,3-diphenyl-3,3a,4,6,8,9-hexahydro-2H-pyrano[4',3'
:2,3]cyclopenta[1,2-d][1,2]oxazole
;
_cell_volume   3956.371
_exptl_crystal_colour 'colorless'
_exptl_crystal_density_diffrn 1.308
_exptl_crystal_description 'tabular'
_diffrn_ambient_temperature 100
#These two values have been output from a single CSD field.
_refine_ls_R_factor_gt 0.0731
_refine_ls_wR_factor_gt 0.0731
_symmetry_cell_setting monoclinic
_symmetry_space_group_name_H-M 'C 2/c'
_symmetry_Int_Tables_number 15
loop_
_symmetry_equiv_pos_site_id
_symmetry_equiv_pos_as_xyz
1 x,y,z
2 -x,y,1/2-z
3 1/2+x,1/2+y,z
4 1/2-x,1/2+y,1/2-z
5 -x,-y,-z
6 x,-y,-1/2+z
7 -1/2-x,-1/2-y,-z
8 -1/2+x,-1/2-y,-1/2+z
_cell_length_a 17.4493(5)
_cell_length_b 10.5092(3)
_cell_length_c 23.1318(7)
_cell_angle_alpha 90
_cell_angle_beta 111.141(2)
_cell_angle_gamma 90
_cell_formula_units_Z 8
loop_
_atom_type_symbol
_atom_type_radius_bond
C 0.68
H 0.23
N 0.68
O 0.68
loop_
_atom_site_label
_atom_site_type_symbol
_atom_site_fract_x
_atom_site_fract_y
_atom_site_fract_z
O1 O 0.93682(13) 0.6375(2) 0.46279(8)
O2 O 0.80275(10) 0.44165(16) 0.27833(8)
O3 O 0.95705(11) 0.26349(19) 0.39589(8)
N1 N 0.75731(13) 0.5589(2) 0.26594(10)
C1 C 0.8881(2) 0.5889(4) 0.49482(14)
H1 H 0.83270 0.57090 0.46530
H2 H 0.88490 0.65170 0.52520
H3 H 0.91280 0.51020 0.51630
C2 C 0.92143(15) 0.5955(3) 0.40400(12)
C3 C 0.90471(15) 0.4771(3) 0.38191(12)
C4 C 0.88913(15) 0.4745(3) 0.31428(12)
C5 C 0.72746(15) 0.5898(3) 0.31397(11)
C6 C 0.70192(15) 0.4907(3) 0.34286(12)
H4 H 0.71020 0.40500 0.33350
C7 C 0.66469(16) 0.5165(3) 0.38504(12)
H5 H 0.64770 0.44800 0.40440
C8 C 0.65174(17) 0.6404(3) 0.39959(13)
H6 H 0.62620 0.65760 0.42880
C9 C 0.92348(15) 0.6878(3) 0.35685(11)
C10 C 0.94463(15) 0.8118(3) 0.36290(12)
C11 C 0.94494(16) 0.8896(3) 0.30856(13)
H7 H 0.93610 0.83380 0.27280
H8 H 0.99800 0.93280 0.31910
H9 H 0.90090 0.95310 0.29830
C12 C 0.97191(17) 0.8860(3) 0.42288(13)
H10 H 0.94990 0.84580 0.45180
H11 H 0.95150 0.97350 0.41460
H12 H 1.03210 0.88680 0.44110
C13 C 0.89878(15) 0.6129(2) 0.29621(12)
H13 H 0.94140 0.62000 0.27680
C14 C 0.71405(16) 0.7143(3) 0.32841(12)
H14 H 0.73070 0.78310 0.30900
C15 C 0.67663(17) 0.7386(3) 0.37087(13)
H15 H 0.66800 0.82410 0.38030
C16 C 0.81190(15) 0.6456(3) 0.24911(11)
H16 H 0.79790 0.73570 0.25500
C17 C 0.80220(15) 0.6237(3) 0.18169(12)
C18 C 0.86043(16) 0.6694(3) 0.15851(12)
H17 H 0.90920 0.70790 0.18600
C19 C 0.84847(17) 0.6596(3) 0.09659(13)
H18 H 0.88900 0.69100 0.08180
C20 C 0.77763(17) 0.6043(3) 0.05570(13)
H19 H 0.76880 0.59920 0.01280
C21 C 0.72035(17) 0.5569(3) 0.07804(13)
H20 H 0.67210 0.51730 0.05040
C22 C 0.73231(17) 0.5663(3) 0.14031(12)
H21 H 0.69210 0.53290 0.15500
C23 C 0.90495(17) 0.3501(3) 0.41176(13)
H22 H 0.92460 0.36040 0.45730
H23 H 0.84830 0.31580 0.39770
C24 C 0.93380(17) 0.2489(3) 0.33079(13)
H24 H 0.87640 0.21790 0.31320
H25 H 0.96950 0.18420 0.32210
C25 C 0.94076(16) 0.3733(3) 0.29965(13)
H26 H 0.99890 0.40100 0.31440
H27 H 0.92200 0.36080 0.25420
#END
