
#######################################################################
#
#                 Cambridge Crystallographic Data Centre
#                                CCDC
#
#######################################################################
#
# If this CIF has been generated from an entry in the Cambridge
# Structural Database, then it will include bibliographic, chemical,
# crystal, experimental, refinement or atomic coordinate data resulting
# from the CCDC's data processing and validation procedures.
#
#######################################################################

data_CSD_CIF_BEHROX
_audit_creation_date 2013-04-24
_audit_creation_method CSD-ConQuest-V1
_database_code_CSD BEHROX
_database_code_depnum_ccdc_archive 'CCDC 879023'
_chemical_formula_sum 'C25 H27 N1 O2'
_chemical_formula_moiety
;
C25 H27 N1 O2
;
_journal_coden_Cambridge 1220
_journal_volume 18
_journal_year 2012
_journal_page_first 13638
_journal_name_full 'Chem.-Eur.J. '
loop_
_publ_author_name
"D.Vasu"
"Rai-Shung Liu"
_chemical_name_systematic
;
4-Isopropylidene-2,3-diphenyloctahydroindeno[1,7a-d][1,2]oxazol-5(5aH)-one
;
_cell_volume   4002.145
_exptl_crystal_colour 'pale yellow'
_exptl_crystal_density_diffrn 1.24
_diffrn_ambient_temperature 296
#These two values have been output from a single CSD field.
_refine_ls_R_factor_gt 0.0467
_refine_ls_wR_factor_gt 0.0467
_symmetry_cell_setting monoclinic
_symmetry_space_group_name_H-M 'C 2/c'
_symmetry_Int_Tables_number 15
loop_
_symmetry_equiv_pos_site_id
_symmetry_equiv_pos_as_xyz
1 x,y,z
2 -x,y,1/2-z
3 1/2+x,1/2+y,z
4 1/2-x,1/2+y,1/2-z
5 -x,-y,-z
6 x,-y,-1/2+z
7 -1/2-x,-1/2-y,-z
8 -1/2+x,-1/2-y,-1/2+z
_cell_length_a 28.526(2)
_cell_length_b 9.7997(7)
_cell_length_c 19.407(3)
_cell_angle_alpha 90
_cell_angle_beta 132.464(1)
_cell_angle_gamma 90
_cell_formula_units_Z 8
loop_
_atom_type_symbol
_atom_type_radius_bond
C 0.68
H 0.23
N 0.68
O 0.68
loop_
_atom_site_label
_atom_site_type_symbol
_atom_site_fract_x
_atom_site_fract_y
_atom_site_fract_z
O1 O 0.18253(6) 0.63003(13) 0.38452(8)
O2 O 0.01869(6) 0.42408(14) 0.35795(10)
N1 N 0.16070(7) 0.56829(15) 0.29975(11)
C1 C 0.03379(11) 0.8103(2) 0.06079(17)
H1 H 0.00580 0.86360 0.00750
C2 C 0.04331(10) 0.6753(2) 0.05353(15)
H2 H 0.02200 0.63770 -0.00500
C3 C 0.08405(9) 0.5954(2) 0.13220(13)
H3 H 0.08990 0.50430 0.12630
C4 C 0.11650(9) 0.65037(19) 0.22056(13)
C5 C 0.14454(9) 0.42325(18) 0.29757(13)
H4 H 0.09910 0.40930 0.24380
C6 C 0.18251(9) 0.32838(19) 0.28915(13)
C7 C 0.15431(11) 0.2155(2) 0.23199(16)
H5 H 0.11110 0.20000 0.19560
C8 C 0.18997(12) 0.1246(2) 0.22826(17)
H6 H 0.17060 0.04790 0.19020
C9 C 0.25286(12) 0.1470(2) 0.27980(17)
H7 H 0.27650 0.08610 0.27700
C10 C 0.15716(8) 0.54954(19) 0.41525(13)
C11 C 0.19978(9) 0.5739(2) 0.51974(13)
H8 H 0.19480 0.49840 0.54670
H9 H 0.24370 0.57510 0.54820
C12 C 0.18551(10) 0.7062(2) 0.54313(16)
H10 H 0.21280 0.71400 0.61030
H11 H 0.19420 0.78290 0.52160
C13 C 0.11657(11) 0.7099(3) 0.49708(16)
H12 H 0.10830 0.79460 0.51320
H13 H 0.10840 0.63500 0.52040
C14 C 0.07216(10) 0.6990(2) 0.39158(15)
H14 H 0.07550 0.78140 0.36740
H15 H 0.02870 0.69210 0.36480
C15 C 0.08725(8) 0.57628(18) 0.36165(13)
H16 H 0.06600 0.59130 0.29630
C16 C 0.06471(9) 0.43875(19) 0.36590(12)
C17 C 0.10666(9) 0.33104(19) 0.37882(13)
C18 C 0.1012(1) 0.1963(2) 0.38449(14)
C19 C 0.14582(11) 0.0951(2) 0.39698(17)
H17 H 0.12290 0.03820 0.34250
H18 H 0.16430 0.03950 0.45080
H19 H 0.17890 0.14270 0.40560
C20 C 0.05082(12) 0.1337(2) 0.37945(18)
H20 H 0.06820 0.11510 0.44150
H21 H 0.03630 0.05010 0.34460
H22 H 0.01580 0.19580 0.34910
C21 C 0.15776(8) 0.40322(19) 0.38868(12)
H23 H 0.19930 0.36050 0.43730
C22 C 0.24645(9) 0.3499(2) 0.34056(15)
H24 H 0.26620 0.42630 0.37890
C23 C 0.28128(11) 0.2601(2) 0.33598(17)
H25 H 0.32430 0.27620 0.37110
C24 C 0.10801(10) 0.7868(2) 0.22762(15)
H26 H 0.13050 0.82630 0.28610
C25 C 0.06596(11) 0.8649(2) 0.14743(17)
H27 H 0.05950 0.95600 0.15270
#END
