
#######################################################################
#
#                 Cambridge Crystallographic Data Centre
#                                CCDC
#
#######################################################################
#
# If this CIF has been generated from an entry in the Cambridge
# Structural Database, then it will include bibliographic, chemical,
# crystal, experimental, refinement or atomic coordinate data resulting
# from the CCDC's data processing and validation procedures.
#
#######################################################################

data_CSD_CIF_BEHVOB
_audit_creation_date 2013-04-24
_audit_creation_method CSD-ConQuest-V1
_database_code_CSD BEHVOB
_database_code_depnum_ccdc_archive 'CCDC 881618'
_chemical_formula_sum 'C21 H20 N4 O4'
_chemical_formula_moiety
;
C21 H20 N4 O4
;
_journal_coden_Cambridge 1220
_journal_volume 18
_journal_year 2012
_journal_page_first 13686
_journal_name_full 'Chem.-Eur.J. '
loop_
_publ_author_name
"P.Dydio"
"D.Lichosyt"
"T.Zielinski"
"J.Jurczak"
_chemical_name_systematic
;
2,2'-Propane-1,1-diylbis(3-methyl-7-nitro-1H-indole)
;
_cell_volume    932.874
_exptl_crystal_colour 'red'
_exptl_crystal_density_diffrn 1.397
_exptl_crystal_description 'prismatic'
_diffrn_ambient_temperature 100
#These two values have been output from a single CSD field.
_refine_ls_R_factor_gt 0.033
_refine_ls_wR_factor_gt 0.033
_symmetry_cell_setting triclinic
_symmetry_space_group_name_H-M 'P -1'
_symmetry_Int_Tables_number 2
loop_
_symmetry_equiv_pos_site_id
_symmetry_equiv_pos_as_xyz
1 x,y,z
2 -x,-y,-z
_cell_length_a 8.2185(3)
_cell_length_b 9.7308(3)
_cell_length_c 12.8238(4)
_cell_angle_alpha 70.194(3)
_cell_angle_beta 84.509(3)
_cell_angle_gamma 75.211(3)
_cell_formula_units_Z 2
loop_
_atom_type_symbol
_atom_type_radius_bond
C 0.68
H 0.23
N 0.68
O 0.68
loop_
_atom_site_label
_atom_site_type_symbol
_atom_site_fract_x
_atom_site_fract_y
_atom_site_fract_z
C1 C -0.14255(16) 1.03982(15) 0.35918(11)
H1 H -0.08130 0.99170 0.42920
H2 H -0.26390 1.06080 0.37460
H3 H -0.11030 1.13420 0.31830
H4 H 0.0973(18) 0.6665(16) 0.4455(11)
H5 H 0.0408(18) 0.6410(16) 0.2458(12)
O1 O 0.27748(11) 0.3332(1) 0.73945(7)
O2 O 0.11781(10) 0.45416(9) 0.59543(7)
O3 O 0.03131(11) 0.40968(10) 0.24355(7)
O4 O 0.10041(12) 0.27602(10) 0.13389(8)
N1 N 0.24351(12) 0.43520(11) 0.65045(8)
N2 N 0.18075(12) 0.70897(11) 0.43752(8)
N3 N 0.10419(12) 0.68696(11) 0.19048(8)
N4 N 0.09658(12) 0.38959(11) 0.15729(8)
C2 C 0.35080(14) 0.53852(13) 0.60758(9)
C3 C 0.49804(14) 0.51402(13) 0.66368(9)
H6 H 0.52680 0.42980 0.72900
C4 C 0.60273(14) 0.61271(13) 0.62409(9)
H7 H 0.70240 0.59590 0.66310
C5 C 0.56361(14) 0.73577(13) 0.52817(9)
H8 H 0.63570 0.80300 0.50230
C6 C 0.41878(14) 0.76029(12) 0.47019(9)
C7 C 0.30949(13) 0.66062(12) 0.51023(9)
C8 C 0.20459(14) 0.83585(12) 0.35107(9)
C9 C 0.34781(14) 0.87095(13) 0.36884(9)
C10 C 0.42353(15) 0.99627(13) 0.29731(10)
H9 H 0.52470 0.95520 0.26030
H10 H 0.45360 1.04840 0.34330
H11 H 0.34190 1.06730 0.24150
C11 C 0.08699(14) 0.91039(12) 0.25406(9)
H12 H 0.10800 1.01280 0.21700
C12 C -0.09936(14) 0.93507(13) 0.28981(9)
H13 H -0.17090 0.97870 0.22310
H14 H -0.12390 0.83700 0.33350
C13 C 0.13229(13) 0.82936(12) 0.16987(9)
C14 C 0.21295(14) 0.87194(13) 0.07007(9)
C15 C 0.26195(16) 1.01786(14) 0.01249(10)
H15 H 0.16230 1.09570 -0.02120
H16 H 0.34600 1.00560 -0.04530
H17 H 0.30960 1.04770 0.06640
C16 C 0.23836(14) 0.74943(13) 0.02658(9)
C17 C 0.31660(15) 0.72547(14) -0.06929(10)
H18 H 0.36700 0.79940 -0.12080
C18 C 0.32040(16) 0.59302(15) -0.08904(10)
H19 H 0.37340 0.57730 -0.15460
C19 C 0.24873(16) 0.48385(14) -0.01537(10)
H20 H 0.25190 0.39430 -0.03070
C20 C 0.17177(14) 0.50474(13) 0.08131(10)
C21 C 0.16648(14) 0.63728(13) 0.10386(9)
#END
