
#######################################################################
#
#                 Cambridge Crystallographic Data Centre
#                                CCDC
#
#######################################################################
#
# If this CIF has been generated from an entry in the Cambridge
# Structural Database, then it will include bibliographic, chemical,
# crystal, experimental, refinement or atomic coordinate data resulting
# from the CCDC's data processing and validation procedures.
#
#######################################################################

data_CSD_CIF_BEJBUN
_audit_creation_date 1982-11-15
_audit_creation_method CSD-ConQuest-V1
_database_code_CSD BEJBUN
_chemical_formula_sum 'C18 H15 N1 O4'
_chemical_formula_moiety
;
C18 H15 N1 O4
;
_journal_coden_Cambridge 93
_journal_volume 260
_journal_year 1981
_journal_page_first 1121
_journal_name_full 'Dokl.Akad.Nauk SSSR(Russ.)(Proc.Nat.Acad.Sci.USSR) '
loop_
_publ_author_name
"K.Sh.Karaev"
"N.G.Furmanova"
"N.V.Belov"
_chemical_name_systematic
;
(3,4-Benzo-5,5-dimethyldihydrofuran)-2-spiro-2'-((5,6-c)-nitrobenzo-2H-pyran)
;
_cell_volume   3160.108
_exptl_crystal_colour 'bright yellow'
_exptl_crystal_density_diffrn 1.299
_diffrn_ambient_temperature ?
_diffrn_special_details
;
The study was carried out at room temperature,in the range 283-303K

;
#These two values have been output from a single CSD field.
_refine_ls_R_factor_gt 0.042
_refine_ls_wR_factor_gt 0.042
_symmetry_cell_setting monoclinic
_symmetry_space_group_name_H-M 'P 1 1 21/b'
_symmetry_Int_Tables_number 14
loop_
_symmetry_equiv_pos_site_id
_symmetry_equiv_pos_as_xyz
1 x,y,z
2 -x,1/2-y,1/2+z
3 -x,-y,-z
4 x,-1/2+y,-1/2-z
_cell_length_a 10.857(1)
_cell_length_b 24.481(2)
_cell_length_c 11.978(1)
_cell_angle_alpha 90
_cell_angle_beta 90
_cell_angle_gamma 96.97(1)
_cell_formula_units_Z 8
loop_
_atom_type_symbol
_atom_type_radius_bond
C 0.68
H 0.23
N 0.68
O 0.68
loop_
_atom_site_label
_atom_site_type_symbol
_atom_site_fract_x
_atom_site_fract_y
_atom_site_fract_z
O1 O 0.92500 0.57980 0.77960
O2 O 0.72780 0.57440 0.85880
O3 O 0.58330 0.36600 1.14950
O4 O 0.62320 0.32740 0.99400
N1 N 0.61340 0.36820 1.05130
C1 C 0.89900 0.66960 0.73250
C2 C 0.78810 0.63760 0.71450
C3 C 0.68630 0.65830 0.66730
C4 C 0.70150 0.71380 0.63670
C5 C 0.81200 0.74610 0.65380
C6 C 0.91360 0.72520 0.70260
C7 C 0.99050 0.63580 0.78560
C8 C 0.79810 0.58010 0.75530
C9 C 0.75850 0.53350 0.67770
C10 C 0.71060 0.48460 0.71670
C11 C 0.68960 0.47650 0.83480
C12 C 0.69940 0.52310 0.90330
C13 C 0.67660 0.52000 1.01700
C14 C 0.64610 0.46860 1.06600
C15 C 0.63920 0.42220 0.99840
C16 C 0.65810 0.42530 0.88510
C17 C 1.01870 0.65120 0.90560
C18 C 1.10890 0.63530 0.71900
H1 H 0.60600 0.63300 0.65500
H2 H 0.62800 0.72800 0.59700
H3 H 0.82000 0.78600 0.63300
H4 H 0.99500 0.74800 0.72000
H5 H 0.77600 0.54000 0.59300
H6 H 0.69100 0.45500 0.66300
H7 H 0.68300 0.55300 1.06800
H8 H 0.62900 0.46700 1.14900
H9 H 0.65300 0.39300 0.84600
H10 H 1.06200 0.68800 0.91000
H11 H 1.07500 0.62500 0.93800
H12 H 0.94900 0.65000 0.94700
H13 H 1.14600 0.67300 0.71400
H14 H 1.16700 0.61400 0.75400
H15 H 1.08800 0.62800 0.64100
O5 O 0.11230 0.34510 0.72830
O6 O 0.28920 0.35810 0.83950
O7 O 0.37190 0.16650 1.15990
O8 O 0.41990 0.13040 1.00500
N2 N 0.38640 0.16830 1.05920
C19 C 0.15790 0.43580 0.67310
C20 C 0.26820 0.41410 0.68200
C21 C 0.38010 0.44370 0.65500
C22 C 0.37860 0.49790 0.61850
C23 C 0.26760 0.52020 0.61080
C24 C 0.15700 0.49010 0.63780
C25 C 0.05140 0.39430 0.70670
C26 C 0.24300 0.35620 0.72580
C27 C 0.29360 0.31240 0.65930
C28 C 0.33720 0.26960 0.70740
C29 C 0.33970 0.26540 0.82790
C30 C 0.31190 0.31040 0.89060
C31 C 0.31240 0.31020 1.00580
C32 C 0.33710 0.26310 1.06200
C33 C 0.36300 0.21830 0.99980
C34 C 0.36650 0.21890 0.88520
C35 C -0.00910 0.41090 0.81360
C36 C -0.04060 0.37950 0.61450
H16 H 0.45700 0.42600 0.66000
H17 H 0.46000 0.52100 0.59400
H18 H 0.27400 0.55700 0.58000
H19 H 0.07900 0.50400 0.63200
H20 H 0.28400 0.31600 0.57300
H21 H 0.37100 0.24200 0.66500
H22 H 0.29500 0.34300 1.05100
H23 H 0.33200 0.26100 1.14900
H24 H 0.37900 0.18600 0.84600
H25 H -0.04600 0.44500 0.80000
H26 H -0.07000 0.38200 0.83200
H27 H 0.06900 0.42100 0.86800
H28 H -0.07600 0.40900 0.59900
H29 H -0.10900 0.34700 0.64500
H30 H 0.00100 0.36600 0.54700
#END
