
#######################################################################
#
#                 Cambridge Crystallographic Data Centre
#                                CCDC
#
#######################################################################
#
# If this CIF has been generated from an entry in the Cambridge
# Structural Database, then it will include bibliographic, chemical,
# crystal, experimental, refinement or atomic coordinate data resulting
# from the CCDC's data processing and validation procedures.
#
#######################################################################

data_CSD_CIF_BEJLIO
_audit_creation_date 2017-10-18
_audit_creation_method CSD-ConQuest-V1
_database_code_CSD BEJLIO
_database_code_depnum_ccdc_archive 'CCDC 1471924'
_chemical_formula_sum 'C13 H10 N2 O6'
_chemical_formula_moiety
;
C13 H10 N2 O6
;
_journal_coden_Cambridge 1078
_journal_year 2017
_journal_name_full 'CSD Communication(Private Communication) '
loop_
_publ_author_name
"B.Iftikhar"
"K.Javed"
"M.Saifullah Khan"
"Z.Akhter"
"B.Mirza"
"V.Mckee"
_chemical_name_systematic
;
1,1'-(methylenebis(oxy))bis(4-nitrobenzene)
;
_cell_volume   1259.635
_exptl_crystal_colour 'pale brown'
_exptl_crystal_density_diffrn 1.53
_exptl_crystal_description 'block'
_diffrn_ambient_temperature 150
#These two values have been output from a single CSD field.
_refine_ls_R_factor_gt 0.045
_refine_ls_wR_factor_gt 0.045
_symmetry_cell_setting monoclinic
_symmetry_space_group_name_H-M 'P 2/n'
_symmetry_Int_Tables_number 13
loop_
_symmetry_equiv_pos_site_id
_symmetry_equiv_pos_as_xyz
1 x,y,z
2 1/2-x,y,1/2-z
3 -x,-y,-z
4 -1/2+x,-y,-1/2+z
_cell_length_a 16.9956(12)
_cell_length_b 4.0184(3)
_cell_length_c 18.4820(12)
_cell_angle_alpha 90
_cell_angle_beta 93.675(1)
_cell_angle_gamma 90
_cell_formula_units_Z 4
loop_
_atom_type_symbol
_atom_type_radius_bond
C 0.68
H 0.23
N 0.68
O 0.68
loop_
_atom_site_label
_atom_site_type_symbol
_atom_site_fract_x
_atom_site_fract_y
_atom_site_fract_z
C1 C 0.75000 1.2890(6) 0.75000
H1 H 0.72720 1.43380 0.71070
O1 O 0.81008(6) 1.0911(3) 0.72317(6)
C2 C 0.86721(8) 0.9667(4) 0.77123(8)
C3 C 0.86708(9) 0.9910(4) 0.84638(8)
H2 H 0.82420 1.09370 0.86830
C4 C 0.93017(9) 0.8637(4) 0.88878(9)
H3 H 0.93170 0.88270 0.94010
C5 C 0.99065(9) 0.7091(4) 0.85562(9)
N1 N 1.05770(8) 0.5763(4) 0.90016(9)
O2 O 1.06714(8) 0.6651(4) 0.96350(8)
O3 O 1.10258(7) 0.3842(4) 0.87157(9)
C6 C 0.99028(9) 0.6723(4) 0.78137(9)
H4 H 1.03190 0.55870 0.75990
C7 C 0.92827(9) 0.8037(4) 0.73894(9)
H5 H 0.92710 0.78310 0.68770
H6? H 0.72720 1.43380 0.71070
C8 C 0.75000 1.3872(6) 0.25000
H7 H 0.73600 1.53230 0.29050
O4 O 0.81634(6) 1.1926(3) 0.27283(6)
C9 C 0.81967(9) 1.0596(4) 0.34171(8)
C10 C 0.75588(9) 1.0478(4) 0.38484(8)
H8 H 0.70660 1.14030 0.36810
C11 C 0.76464(9) 0.9000(4) 0.45259(8)
H9 H 0.72140 0.88990 0.48270
C12 C 0.83665(9) 0.7679(4) 0.47583(8)
N2 N 0.84440(9) 0.5984(4) 0.54608(7)
O5 O 0.78596(8) 0.5726(4) 0.58083(7)
O6 O 0.90923(8) 0.4848(4) 0.56676(7)
C13 C 0.90126(9) 0.7794(4) 0.43350(8)
H10 H 0.95050 0.68780 0.45060
C14 C 0.89217(9) 0.9269(4) 0.36602(8)
H11 H 0.93550 0.93780 0.33610
H12? H 0.73600 1.53240 0.29050
H1A H 0.77280 1.43380 0.78930
O1A O 0.68992(6) 1.0911(3) 0.77683(6)
C2A C 0.63279(8) 0.9667(4) 0.72877(8)
C3A C 0.63292(9) 0.9910(4) 0.65362(8)
H2A H 0.67580 1.09370 0.63170
C4A C 0.56983(9) 0.8637(4) 0.61122(9)
H3A H 0.56830 0.88270 0.55990
C5A C 0.50935(9) 0.7091(4) 0.64438(9)
N1A N 0.44230(8) 0.5763(4) 0.59984(9)
O2A O 0.43286(8) 0.6651(4) 0.53650(8)
O3A O 0.39742(7) 0.3842(4) 0.62843(9)
C6A C 0.50972(9) 0.6723(4) 0.71863(9)
H4A H 0.46810 0.55870 0.74010
C7A C 0.57173(9) 0.8037(4) 0.76106(9)
H5A H 0.57290 0.78310 0.81230
H7A H 0.76400 1.53230 0.20950
O4A O 0.68366(6) 1.1926(3) 0.22717(6)
C9A C 0.68033(9) 1.0596(4) 0.15829(8)
C10A C 0.74412(9) 1.0478(4) 0.11516(8)
H8A H 0.79340 1.14030 0.13190
C11A C 0.73536(9) 0.9000(4) 0.04741(8)
H9A H 0.77860 0.88990 0.01730
C12A C 0.66335(9) 0.7679(4) 0.02417(8)
N2A N 0.65560(9) 0.5984(4) -0.04608(7)
O5A O 0.71404(8) 0.5726(4) -0.08083(7)
O6A O 0.59077(8) 0.4848(4) -0.06676(7)
C13A C 0.59874(9) 0.7794(4) 0.06650(8)
H10A H 0.54950 0.68780 0.04940
C14A C 0.60783(9) 0.9269(4) 0.13398(8)
H11A H 0.56450 0.93780 0.16390
#END
