
#######################################################################
#
#                 Cambridge Crystallographic Data Centre
#                                CCDC
#
#######################################################################
#
# If this CIF has been generated from an entry in the Cambridge
# Structural Database, then it will include bibliographic, chemical,
# crystal, experimental, refinement or atomic coordinate data resulting
# from the CCDC's data processing and validation procedures.
#
#######################################################################

data_CSD_CIF_BEJTEP
_audit_creation_date 1982-11-15
_audit_creation_method CSD-ConQuest-V1
_database_code_CSD BEJTEP
_chemical_formula_sum 'C24 H25 N3 O10'
_chemical_formula_moiety
;
C24 H25 N3 O10
;
_journal_coeditor_code "IUCr A21156"
_journal_coden_Cambridge 107
_journal_volume 38
_journal_year 1982
_journal_page_first 1345
_journal_name_full 'Acta Crystallogr.,Sect.B:Struct.Crystallogr.Cryst.Chem. '
loop_
_publ_author_name
"R.Roques"
"J.L.Montero"
"M.Rodriguez"
"J.L.Imbach"
"J.P.Declercq"
"G.Germain"
_chemical_name_systematic
;
1-Deoxy-(2,3-O-isopropylidene)-1-(3-(2-methoxycarbonyl-phenyl)-ureido)-5-O-(p-
nitrobenzoyl)-\a-D-ribofuranose
;
_cell_volume   2443.832
_diffrn_ambient_temperature ?
_diffrn_special_details
;
The study was carried out at room temperature,in the range 283-303K

;
#These two values have been output from a single CSD field.
_refine_ls_R_factor_gt 0.045
_refine_ls_wR_factor_gt 0.045
_symmetry_cell_setting orthorhombic
_symmetry_space_group_name_H-M 'P 21 21 21'
_symmetry_Int_Tables_number 19
loop_
_symmetry_equiv_pos_site_id
_symmetry_equiv_pos_as_xyz
1 x,y,z
2 1/2+x,1/2-y,-z
3 -x,1/2+y,1/2-z
4 1/2-x,-y,1/2+z
_cell_length_a 7.578(3)
_cell_length_b 10.294(7)
_cell_length_c 31.328(17)
_cell_angle_alpha 90
_cell_angle_beta 90
_cell_angle_gamma 90
_cell_formula_units_Z 4
loop_
_atom_type_symbol
_atom_type_radius_bond
C 0.68
H 0.23
N 0.68
O 0.68
loop_
_atom_site_label
_atom_site_type_symbol
_atom_site_fract_x
_atom_site_fract_y
_atom_site_fract_z
C1 C 0.83110 -0.01650 0.87050
C2 C 0.78640 0.07380 0.83290
C3 C 0.92110 0.18200 0.83510
C4 C 1.04980 0.13770 0.87050
C5 C 1.03050 0.20740 0.91260
O1 O 1.01760 0.00260 0.87740
O2 O 0.99600 0.18950 0.79410
O3 O 0.81520 0.01300 0.79290
C6 C 0.96680 0.06850 0.77260
C7 C 1.12340 -0.02070 0.77700
C8 C 0.92290 0.09500 0.72620
N1 N 0.79940 -0.14970 0.85950
C9 C 0.75260 -0.23910 0.89100
N2 N 0.70680 -0.35670 0.87330
O4 O 0.75120 -0.21220 0.92820
C10 C 0.65530 -0.46960 0.89570
C11 C 0.68730 -0.48400 0.93970
C12 C 0.63650 -0.59520 0.96040
C13 C 0.55390 -0.69580 0.93920
C14 C 0.52410 -0.68420 0.89590
C15 C 0.57540 -0.57170 0.87360
C16 C 0.54230 -0.56470 0.82730
O5 O 0.57000 -0.47180 0.80430
O6 O 0.47710 -0.67500 0.81140
C17 C 0.44430 -0.68440 0.76650
O7 O 1.07950 0.34160 0.90590
C18 C 1.11490 0.40900 0.94200
O8 O 1.10240 0.36390 0.97650
C19 C 1.17340 0.54430 0.93290
C20 C 1.18440 0.59240 0.89150
C21 C 1.24640 0.71570 0.88450
C22 C 1.29620 0.78990 0.91910
C23 C 1.28710 0.74490 0.96060
C24 C 1.22460 0.62030 0.96720
N3 N 1.36400 0.92060 0.91210
O9 O 1.37440 0.99570 0.94230
O10 O 1.40700 0.95130 0.87580
H1 H 0.75400 0.00100 0.89900
H2 H 0.65000 0.10400 0.83400
H3 H 0.87300 0.27700 0.84300
H4 H 1.18100 0.16000 0.85900
H5 H 1.11600 0.16400 0.93600
H6 H 0.89500 0.20100 0.92300
H7 H 1.23700 0.02200 0.76100
H8 H 1.09200 -0.11200 0.76100
H9 H 1.15100 -0.03600 0.81000
H10 H 0.90000 0.00400 0.70900
H11 H 1.03100 0.14600 0.71100
H12 H 0.80500 0.15400 0.72400
H13 H 0.75000 -0.40500 0.95600
H14 H 0.66000 -0.60400 0.99400
H15 H 0.51400 -0.78300 0.95500
H16 H 0.46000 -0.76200 0.87800
H17 H 0.39000 -0.77800 0.75900
H18 H 0.56700 -0.67100 0.74900
H19 H 0.35100 -0.61000 0.75600
H20 H 1.14400 0.53200 0.86400
H21 H 1.25400 0.75300 0.85200
H22 H 1.32700 0.80400 0.98700
H23 H 1.21600 0.58200 0.99900
H24 H 0.80300 -0.17100 0.82700
H25 H 0.65100 -0.35700 0.84600
#END
