
#######################################################################
#
#                 Cambridge Crystallographic Data Centre
#                                CCDC
#
#######################################################################
#
# If this CIF has been generated from an entry in the Cambridge
# Structural Database, then it will include bibliographic, chemical,
# crystal, experimental, refinement or atomic coordinate data resulting
# from the CCDC's data processing and validation procedures.
#
#######################################################################

data_CSD_CIF_BEKBUO
_audit_creation_date 1999-11-19
_audit_creation_method CSD-ConQuest-V1
_database_code_CSD BEKBUO
_database_code_depnum_ccdc_archive 'CCDC 134479'
_chemical_formula_sum 'C13 H13 N3 O7'
_chemical_formula_moiety
;
C13 H13 N3 O7
;
_journal_coden_Cambridge 3
_journal_volume 53
_journal_year 1999
_journal_page_first 521
_journal_name_full 'Acta Chem.Scand. '
loop_
_publ_author_name
"A.Damsgaard"
"R.Hazell"
"M.Bols"
_chemical_name_systematic
;
(3RS,4RS,5SR)-N-(2,4-Dinitrophenyl)-5-hydroxy-4-(hydroxymethyl)-3-piperidineca
rboxylic acid 3,4'-lactone
;
_cell_volume   1328.243
_exptl_crystal_colour 'yellow'
_exptl_crystal_density_diffrn 1.62
_exptl_crystal_description 'plate'
_diffrn_ambient_temperature 120
_refine_special_details
;
Pseudosymmetry (nearly space group P21/a) was found between the two molecules 
in the asymmetric unit. The two molecules are disordered over two sets of 
positions with occupancies 0.772:0.228 and 0.764:0.236, respectively.
;
#These two values have been output from a single CSD field.
_refine_ls_R_factor_gt 0.077
_refine_ls_wR_factor_gt 0.077
_symmetry_cell_setting monoclinic
_symmetry_space_group_name_H-M 'P 21'
_symmetry_Int_Tables_number 4
loop_
_symmetry_equiv_pos_site_id
_symmetry_equiv_pos_as_xyz
1 x,y,z
2 -x,1/2+y,-z
_cell_length_a 10.827(5)
_cell_length_b 12.828(6)
_cell_length_c 10.889(5)
_cell_angle_alpha 90
_cell_angle_beta 118.567(9)
_cell_angle_gamma 90
_cell_formula_units_Z 4
loop_
_atom_type_symbol
_atom_type_radius_bond
C 0.68
H 0.23
N 0.68
O 0.68
loop_
_atom_site_label
_atom_site_type_symbol
_atom_site_fract_x
_atom_site_fract_y
_atom_site_fract_z
N1 N 0.3340(8) -0.0131(15) 0.3173(10)
C1 C 0.3959(11) 0.0969(10) 0.3347(10)
C2 C 0.3995(9) 0.1432(7) 0.4649(9)
O1 O 0.2568(7) 0.1549(6) 0.4399(7)
C3 C 0.4832(8) 0.0762(7) 0.5921(8)
C4 C 0.4522(9) -0.0383(7) 0.5651(9)
C5 C 0.4191(11) -0.0797(9) 0.4214(11)
C6 C 0.4464(8) 0.0964(8) 0.7096(7)
O2 O 0.3376(7) 0.0192(6) 0.6872(6)
C7 C 0.3405(9) -0.0564(8) 0.6075(9)
O3 O 0.2599(7) -0.1312(6) 0.5748(7)
C8 C 0.2011(6) -0.0353(7) 0.2108(6)
C9 C 0.1637(6) -0.1361(7) 0.1494(6)
C10 C 0.0250(6) -0.1638(7) 0.0582(6)
C11 C -0.0761(7) -0.0896(7) 0.0215(6)
C12 C -0.0438(7) 0.0132(7) 0.0680(7)
C13 C 0.0931(7) 0.0404(7) 0.1603(7)
N2 N 0.2693(6) -0.2137(7) 0.1641(6)
O4 O 0.2349(5) -0.3057(7) 0.1527(6)
O5 O 0.3842(5) -0.1840(7) 0.1819(6)
N3 N -0.2212(6) -0.1167(7) -0.0711(6)
O6 O -0.2475(5) -0.2004(7) -0.1358(5)
O7 O -0.3151(5) -0.0567(7) -0.0810(6)
H1 H 0.48800 0.09400 0.34600
H2 H 0.33800 0.13800 0.25500
H3 H 0.44200 0.21000 0.48100
H4 H 0.25800 0.21600 0.48000
H5 H 0.58100 0.08800 0.62600
H6 H 0.53400 -0.07400 0.63100
H7 H 0.37300 -0.14500 0.40700
H8 H 0.50500 -0.08800 0.41800
H9 H 0.52700 0.08700 0.79900
H10 H 0.00200 -0.23300 0.02300
H11 H -0.11600 0.06400 0.03600
H12 H 0.11500 0.11100 0.19000
N4 N -0.1462(8) 0.0893(13) 0.3245(9)
C14 C -0.0719(11) 0.1708(9) 0.4264(10)
C15 C -0.0779(9) 0.1533(8) 0.5616(8)
O8 O -0.2231(6) 0.1568(7) 0.5308(7)
C16 C -0.0116(8) 0.0508(7) 0.6291(8)
C17 C -0.0530(9) -0.0381(8) 0.5270(9)
C18 C -0.0758(11) -0.0142(10) 0.3806(10)
C19 C -0.0612(8) 0.0118(9) 0.7314(7)
O9 O -0.1805(7) -0.0570(7) 0.6477(6)
C20 C -0.1764(9) -0.0857(8) 0.5342(10)
O10 O -0.2649(7) -0.1447(7) 0.4476(7)
C21 C -0.2785(6) 0.1050(7) 0.2182(6)
C22 C -0.3206(6) 0.2029(7) 0.1490(6)
C23 C -0.4607(7) 0.2263(7) 0.0571(6)
C24 C -0.5586(6) 0.1505(7) 0.0276(6)
C25 C -0.5216(7) 0.0501(7) 0.0822(7)
C26 C -0.3833(7) 0.0271(7) 0.1751(7)
N5 N -0.2187(6) 0.2811(7) 0.1559(5)
O11 O -0.2568(5) 0.3724(7) 0.1376(6)
O12 O -0.1032(5) 0.2524(7) 0.1746(6)
N6 N -0.7050(6) 0.1734(7) -0.0656(6)
O13 O -0.7354(5) 0.2540(7) -0.1369(6)
O14 O -0.7959(5) 0.1129(7) -0.0693(6)
H13 H 0.02400 0.17100 0.44700
H14 H -0.11400 0.23600 0.38800
H15 H -0.02800 0.20800 0.62500
H16 H -0.23500 0.22600 0.49800
H17 H 0.08800 0.05800 0.67700
H18 H 0.02100 -0.08800 0.56600
H19 H -0.13300 -0.06800 0.31900
H20 H 0.01300 -0.01400 0.38300
H21 H 0.01200 -0.02600 0.80600
H22 H -0.09000 0.06800 0.76800
H23 H -0.48700 0.29400 0.01600
H24 H -0.59200 -0.00300 0.05500
H25 H -0.35800 -0.04200 0.21000
N7? N 0.3337(9) -0.0096(18) 0.3160(11)
C27? C 0.4128(15) -0.1019(10) 0.4109(17)
C28? C 0.4186(13) -0.0820(8) 0.5512(13)
O15? O 0.2771(13) -0.0846(8) 0.5317(12)
C29? C 0.4879(8) 0.0209(9) 0.6133(8)
C30? C 0.4398(11) 0.1085(7) 0.5088(11)
C31? C 0.4054(15) 0.0823(12) 0.3593(12)
C32? C 0.4493(8) 0.0622(12) 0.7227(8)
O16? O 0.3281(8) 0.1307(9) 0.6444(9)
C33? C 0.3224(13) 0.1574(8) 0.5256(12)
O17? O 0.2304(16) 0.2158(8) 0.4419(15)
N8? N -0.1471(8) 0.0740(18) 0.3191(11)
C34? C -0.0836(16) -0.0291(14) 0.3565(13)
C35? C -0.0911(13) -0.0732(8) 0.4824(13)
O18? O -0.2372(12) -0.0841(8) 0.4466(11)
C36? C -0.0149(8) -0.0048(9) 0.6096(9)
C37? C -0.0444(11) 0.1095(9) 0.5786(11)
C38? C -0.0663(14) 0.1488(11) 0.4376(15)
C39? C -0.0632(8) -0.0226(13) 0.7194(9)
O19? O -0.1740(9) 0.0551(11) 0.6870(7)
C40? C -0.1639(13) 0.1293(10) 0.6094(11)
O20? O -0.2446(17) 0.2043(9) 0.5697(16)
H26? H 0.41100 0.16500 0.70300
H27? H 0.36400 -0.16500 0.37100
H28? H 0.50500 -0.10600 0.42200
H29? H 0.47100 -0.13600 0.61400
H30? H 0.21700 -0.13100 0.52200
H31? H 0.58700 0.01400 0.65400
H32? H 0.51400 0.15800 0.54200
H33? H 0.49100 0.07700 0.35500
H34? H 0.34900 0.13700 0.29900
H35? H 0.42500 0.00600 0.76400
H36? H 0.52600 0.10000 0.79300
H37? H -0.13200 -0.07500 0.27900
H38? H 0.01200 -0.02400 0.37800
H39? H -0.04900 -0.14000 0.50300
H40? H -0.23500 -0.15500 0.46300
H41? H 0.08300 -0.01700 0.65100
H42? H 0.03500 0.14600 0.64800
H43? H 0.02300 0.16000 0.44400
H44? H -0.11700 0.21300 0.41700
H45? H -0.09900 -0.09100 0.71200
H46? H 0.01200 -0.01200 0.81100
#END
