
#######################################################################
#
#                 Cambridge Crystallographic Data Centre
#                                CCDC
#
#######################################################################
#
# If this CIF has been generated from an entry in the Cambridge
# Structural Database, then it will include bibliographic, chemical,
# crystal, experimental, refinement or atomic coordinate data resulting
# from the CCDC's data processing and validation procedures.
#
#######################################################################

data_CSD_CIF_BEKKIO
_audit_creation_date 2017-10-18
_audit_creation_method CSD-ConQuest-V1
_database_code_CSD BEKKIO
_database_code_depnum_ccdc_archive 'CCDC 1569239'
_chemical_formula_sum 'C7 H4 N16 O6'
_chemical_formula_moiety
;
C7 H4 N16 O6
;
_journal_coden_Cambridge 1147
_journal_volume 17
_journal_year 2017
_journal_page_first 6105
_journal_name_full 'Cryst.Growth Des. '
loop_
_publ_author_name
"Qi Sun"
"Cheng Shen"
"Xin Li"
"Qiuhan Lin"
"Ming Lu"
_chemical_name_systematic
;
N,N'-dinitro-N,N'-bis[4-(2H-tetrazol-5-yl)-1,2,5-oxadiazol-3-yl]methanediamine
;
_cell_volume    729.846
_exptl_crystal_density_diffrn 1.858
_exptl_crystal_description 'plate'
_diffrn_ambient_temperature 173
#These two values have been output from a single CSD field.
_refine_ls_R_factor_gt 0.053
_refine_ls_wR_factor_gt 0.053
_symmetry_cell_setting triclinic
_symmetry_space_group_name_H-M 'P -1'
_symmetry_Int_Tables_number 2
loop_
_symmetry_equiv_pos_site_id
_symmetry_equiv_pos_as_xyz
1 x,y,z
2 -x,-y,-z
_cell_length_a 6.7001(7)
_cell_length_b 8.2569(7)
_cell_length_c 13.7630(14)
_cell_angle_alpha 81.597(3)
_cell_angle_beta 83.572(4)
_cell_angle_gamma 76.444(4)
_cell_formula_units_Z 2
loop_
_atom_type_symbol
_atom_type_radius_bond
C 0.68
H 0.23
N 0.68
O 0.68
loop_
_atom_site_label
_atom_site_type_symbol
_atom_site_fract_x
_atom_site_fract_y
_atom_site_fract_z
C1 C 0.7525(5) 0.7478(4) 0.8959(2)
H1 H 0.73690 0.67180 0.95750
H2 H 0.83650 0.82550 0.90820
C2 C 0.5023(5) 1.0187(3) 0.8466(2)
C3 C 0.4288(5) 1.1156(3) 0.7587(2)
C4 C 0.3732(5) 1.0583(4) 0.6730(2)
C5 C 0.9092(5) 0.4734(4) 0.8302(2)
C6 C 0.8898(5) 0.3630(3) 0.7627(2)
C7 C 0.8252(5) 0.4004(4) 0.6631(2)
N1 N 0.5510(4) 0.8441(3) 0.87069(18)
N2 N 0.8603(4) 0.6487(3) 0.81889(18)
N3 N 0.3878(4) 0.7642(3) 0.88655(18)
N4 N 0.5307(4) 1.1168(3) 0.90676(19)
N5 N 0.4123(4) 1.2728(3) 0.7656(2)
N6 N 0.3706(4) 0.8992(3) 0.66961(18)
N7 N 0.3011(5) 0.9091(3) 0.5823(2)
H3 H 0.281(5) 0.824(3) 0.557(2)
N8 N 0.2630(5) 1.0612(3) 0.5327(2)
N9 N 0.3095(4) 1.1592(3) 0.59061(19)
N10 N 0.9667(4) 0.7305(3) 0.74071(19)
N11 N 0.9689(4) 0.3870(3) 0.91300(19)
N12 N 0.9410(4) 0.2099(3) 0.80532(19)
N13 N 0.7890(4) 0.5538(3) 0.6139(2)
N14 N 0.7378(5) 0.5247(3) 0.5295(2)
H4 H 0.710(5) 0.603(4) 0.480(2)
N15 N 0.7389(4) 0.3655(3) 0.5250(2)
N16 N 0.7942(4) 0.2838(3) 0.61058(19)
O1 O 0.2160(3) 0.8527(3) 0.87952(16)
O2 O 0.4329(4) 0.6119(2) 0.90382(17)
O3 O 0.4771(4) 1.2763(2) 0.85742(16)
O4 O 1.1062(3) 0.6414(3) 0.69499(16)
O5 O 0.9062(4) 0.8821(2) 0.72598(16)
O6 O 0.9869(3) 0.2224(2) 0.89874(15)
#END
