
#######################################################################
#
#                 Cambridge Crystallographic Data Centre
#                                CCDC
#
#######################################################################
#
# If this CIF has been generated from an entry in the Cambridge
# Structural Database, then it will include bibliographic, chemical,
# crystal, experimental, refinement or atomic coordinate data resulting
# from the CCDC's data processing and validation procedures.
#
#######################################################################

data_CSD_CIF_BEKVOC
_audit_creation_date 1982-11-15
_audit_creation_method CSD-ConQuest-V1
_database_code_CSD BEKVOC
_chemical_formula_sum 'C15 H13 N1 O2'
_chemical_formula_moiety
;
C15 H13 N1 O2
;
_journal_coden_Cambridge 557
_journal_volume 2
_journal_year 1981
_journal_page_first 901
_journal_name_full 'Carcinogenesis '
loop_
_publ_author_name
"S.Neidle"
"A.Subbiah"
"A.Mason"
"S.A.Islam"
_chemical_name_systematic
;
2-(N-Hydroxy-acetylamino)-fluorene
;
_cell_volume    579.794
_exptl_crystal_colour 'colorless'
_diffrn_ambient_temperature ?
_diffrn_special_details
;
The study was carried out at room temperature,in the range 283-303K

;
#These two values have been output from a single CSD field.
_refine_ls_R_factor_gt 0.032
_refine_ls_wR_factor_gt 0.032
_symmetry_cell_setting monoclinic
_symmetry_space_group_name_H-M 'P 21'
_symmetry_Int_Tables_number 4
loop_
_symmetry_equiv_pos_site_id
_symmetry_equiv_pos_as_xyz
1 x,y,z
2 -x,1/2+y,-z
_cell_length_a 5.535(1)
_cell_length_b 6.588(1)
_cell_length_c 15.982(1)
_cell_angle_alpha 90
_cell_angle_beta 95.80(1)
_cell_angle_gamma 90
_cell_formula_units_Z 2
loop_
_atom_type_symbol
_atom_type_radius_bond
C 0.68
H 0.23
N 0.68
O 0.68
loop_
_atom_site_label
_atom_site_type_symbol
_atom_site_fract_x
_atom_site_fract_y
_atom_site_fract_z
C1 C 0.15330 1.28040 0.73360
C2 C 0.29480 1.33010 0.66890
C3 C 0.48250 1.20120 0.65030
C4 C 0.53200 1.02570 0.69570
C5 C 0.39400 0.97550 0.76060
C6 C 0.40650 0.80480 0.81950
C7 C 0.56620 0.64040 0.82960
C8 C 0.53840 0.50180 0.89280
C9 C 0.35630 0.52490 0.94520
C10 C 0.19770 0.68600 0.93580
C11 C 0.22340 0.82830 0.87260
C12 C 0.08340 1.02000 0.85160
C13 C 0.20220 1.10320 0.77750
C14 C 0.05640 1.63090 0.61180
C15 C 0.05420 1.80490 0.55250
N1 N 0.25900 1.51460 0.62260
O1 O 0.43210 1.55780 0.56710
O2 O -0.12140 1.59270 0.64960
H1 H 0.03000 1.37000 0.75400
H2 H 0.59500 1.23500 0.61400
H3 H 0.67900 0.94300 0.67900
H4 H 0.69800 0.61700 0.79600
H5 H 0.63200 0.37900 0.89900
H6 H 0.33300 0.43500 0.98500
H7 H 0.07800 0.70900 0.97300
H8 H 0.10100 1.10900 0.89600
H9 H -0.10000 0.99300 0.83900
H10 H 0.54800 1.57600 0.59600
H11 H -0.10300 1.87400 0.55100
H12 H 0.18300 1.89300 0.55900
H13 H 0.09600 1.77300 0.49400
#END
