
#######################################################################
#
#                 Cambridge Crystallographic Data Centre
#                                CCDC
#
#######################################################################
#
# If this CIF has been generated from an entry in the Cambridge
# Structural Database, then it will include bibliographic, chemical,
# crystal, experimental, refinement or atomic coordinate data resulting
# from the CCDC's data processing and validation procedures.
#
#######################################################################

data_CSD_CIF_BEKVOC01
_audit_creation_date 1983-05-14
_audit_creation_method CSD-ConQuest-V1
_database_code_CSD BEKVOC01
_database_code_depnum_ccdc_archive 'CCDC 1108343'
_chemical_formula_sum 'C15 H13 N1 O2'
_chemical_formula_moiety
;
C15 H13 N1 O2
;
_journal_coden_Cambridge 54
_journal_volume 91
_journal_year 1982
_journal_page_first 341
_journal_name_full 'Bull.Soc.Chim.Belg. '
loop_
_publ_author_name
"A.Michel"
"G.Evrard"
"F.Durant"
_chemical_name_systematic
;
2-(N-Hydroxy-acetylamino)-fluorene
;
_cell_volume    583.232
_exptl_crystal_density_diffrn 1.36
_diffrn_ambient_temperature ?
_diffrn_special_details
;
The study was carried out at room temperature,in the range 283-303K

;
#These two values have been output from a single CSD field.
_refine_ls_R_factor_gt 0.049
_refine_ls_wR_factor_gt 0.049
_symmetry_cell_setting monoclinic
_symmetry_space_group_name_H-M 'P 21'
_symmetry_Int_Tables_number 4
loop_
_symmetry_equiv_pos_site_id
_symmetry_equiv_pos_as_xyz
1 x,y,z
2 -x,1/2+y,-z
_cell_length_a 15.998(5)
_cell_length_b 6.611(4)
_cell_length_c 5.543(4)
_cell_angle_alpha 90
_cell_angle_beta 95.81(5)
_cell_angle_gamma 90
_cell_formula_units_Z 2
loop_
_atom_type_symbol
_atom_type_radius_bond
C 0.68
H 0.23
N 0.68
O 0.68
loop_
_atom_site_label
_atom_site_type_symbol
_atom_site_fract_x
_atom_site_fract_y
_atom_site_fract_z
O1 O 0.85020 -0.15110 1.12210
O2 O 0.93290 -0.11570 0.56590
N1 N 0.87730 -0.07250 0.74130
C1 C 0.76640 0.16000 0.84740
C2 C 0.83140 0.11160 0.70600
C3 C 0.85000 0.24010 0.51830
C4 C 0.80470 0.41680 0.46780
C5 C 0.73970 0.46690 0.60620
C6 C 0.68070 0.63710 0.59350
C7 C 0.67150 0.80050 0.43370
C8 C 0.60760 0.94080 0.46110
C9 C 0.55400 0.91590 0.64320
C10 C 0.56420 0.75410 0.80340
C11 C 0.62730 0.61450 0.77740
C12 C 0.64860 0.41980 0.91660
C13 C 0.72230 0.33870 0.79630
C14 C 0.88880 -0.19030 0.94580
C15 C 0.94960 -0.36510 0.94690
H1 H 0.75200 0.06730 0.97050
H2 H 0.89410 0.21390 0.41890
H3 H 0.81760 0.50070 0.33660
H4 H 0.70830 0.82390 0.30660
H5 H 0.60210 1.06870 0.35420
H6 H 0.50600 1.02450 0.66130
H7 H 0.52310 0.73140 0.93330
H8 H 0.66450 0.44570 1.09570
H9 H 0.59960 0.32260 0.90070
#END
