
#######################################################################
#
#                 Cambridge Crystallographic Data Centre
#                                CCDC
#
#######################################################################
#
# If this CIF has been generated from an entry in the Cambridge
# Structural Database, then it will include bibliographic, chemical,
# crystal, experimental, refinement or atomic coordinate data resulting
# from the CCDC's data processing and validation procedures.
#
#######################################################################

data_CSD_CIF_BELBUP01
_audit_creation_date 2006-10-06
_audit_creation_method CSD-ConQuest-V1
_database_code_CSD BELBUP01
_database_code_depnum_ccdc_archive 'CCDC 618461'
_chemical_formula_sum 'C5 H4 N4 O1'
_chemical_formula_moiety
;
C5 H4 N4 O1
;
_journal_coeditor_code "IUCr BK5029"
_journal_coden_Cambridge 622
_journal_volume 62
_journal_year 2006
_journal_page_first 642
_journal_name_full 'Acta Crystallogr.,Sect.B:Struct.Sci. '
loop_
_publ_author_name
"H.Nowell"
"C.S.Frampton"
"J.Waite"
"S.L.Price"
_chemical_name_systematic
;
1-Hydroxy-7-azabenzotriazole
;
_cell_volume   1118.889
_exptl_crystal_colour 'colorless'
_exptl_crystal_density_diffrn 1.616
_exptl_special_details
;
C2/c polymorph

;
_exptl_crystal_description 'Prism'
_exptl_crystal_preparation '1'
_diffrn_ambient_temperature 123.0
#These two values have been output from a single CSD field.
_refine_ls_R_factor_gt 0.0296
_refine_ls_wR_factor_gt 0.0296
_symmetry_cell_setting monoclinic
_symmetry_space_group_name_H-M 'C 2/c'
_symmetry_Int_Tables_number 15
loop_
_symmetry_equiv_pos_site_id
_symmetry_equiv_pos_as_xyz
1 x,y,z
2 1/2+x,1/2+y,z
3 -x,y,1/2-z
4 1/2-x,1/2+y,1/2-z
5 -x,-y,-z
6 -1/2-x,-1/2-y,-z
7 x,-y,-1/2+z
8 -1/2+x,-1/2-y,-1/2+z
_cell_length_a 22.0427(6)
_cell_length_b 3.9311(1)
_cell_length_c 14.2340(4)
_cell_angle_alpha 90
_cell_angle_beta 114.885(1)
_cell_angle_gamma 90
_cell_formula_units_Z 8
loop_
_atom_type_symbol
_atom_type_radius_bond
C 0.68
H 0.23
N 0.68
O 0.68
loop_
_atom_site_label
_atom_site_type_symbol
_atom_site_fract_x
_atom_site_fract_y
_atom_site_fract_z
O1 O 0.46605(4) 0.1279(2) 0.61816(7)
H1 H 0.5071(9) 0.007(5) 0.6564(13)
N1 N 0.41612(5) -0.1002(2) 0.60172(7)
N2 N 0.37483(5) -0.1896(3) 0.50479(7)
N3 N 0.32647(5) -0.3768(3) 0.50801(8)
N4 N 0.42240(5) -0.1969(2) 0.77470(7)
C1 C 0.39497(5) -0.2276(3) 0.67120(8)
C2 C 0.33697(5) -0.4055(3) 0.61006(8)
C3 C 0.30089(6) -0.5644(3) 0.65879(9)
H2 H 0.2588(7) -0.687(4) 0.6195(11)
C4 C 0.32743(6) -0.5308(3) 0.76496(9)
H3 H 0.3064(7) -0.639(4) 0.8035(11)
C5 C 0.38750(6) -0.3508(3) 0.81958(9)
H4 H 0.4066(7) -0.336(3) 0.8921(11)
#END
