
#######################################################################
#
#                 Cambridge Crystallographic Data Centre
#                                CCDC
#
#######################################################################
#
# If this CIF has been generated from an entry in the Cambridge
# Structural Database, then it will include bibliographic, chemical,
# crystal, experimental, refinement or atomic coordinate data resulting
# from the CCDC's data processing and validation procedures.
#
#######################################################################

data_CSD_CIF_BELHAB
_audit_creation_date 1982-11-15
_audit_creation_method CSD-ConQuest-V1
_database_code_CSD BELHAB
_database_code_depnum_ccdc_archive 'CCDC 1108391'
_chemical_formula_sum 'C17 H18 N2 O6'
_chemical_formula_moiety
;
C17 H18 N2 O6
;
_journal_coden_Cambridge 151
_journal_volume 25
_journal_year 1982
_journal_page_first 126
_journal_name_full 'J.Med.Chem. '
loop_
_publ_author_name
"R.Fossheim"
"K.Svarteng"
"A.Mostad"
"C.Romming"
"E.Shefter"
"D.J.Triggle"
_chemical_name_systematic
;
dimethyl 2,6-dimethyl-4-(3-nitrophenyl)-1,4-dihydropyridine-3,5-dicarboxylate
;
_cell_volume   1616.456
_diffrn_ambient_temperature 123.15
#These two values have been output from a single CSD field.
_refine_ls_R_factor_gt 0.107
_refine_ls_wR_factor_gt 0.107
_symmetry_cell_setting monoclinic
_symmetry_space_group_name_H-M 'P 21/n'
_symmetry_Int_Tables_number 14
loop_
_symmetry_equiv_pos_site_id
_symmetry_equiv_pos_as_xyz
1 x,y,z
2 1/2-x,1/2+y,1/2-z
3 -x,-y,-z
4 -1/2+x,-1/2-y,-1/2+z
_cell_length_a 14.833(4)
_cell_length_b 7.390(2)
_cell_length_c 15.685(2)
_cell_angle_alpha 90
_cell_angle_beta 109.92(2)
_cell_angle_gamma 90
_cell_formula_units_Z 4
loop_
_atom_type_symbol
_atom_type_radius_bond
C 0.68
H 0.23
N 0.68
O 0.68
loop_
_atom_site_label
_atom_site_type_symbol
_atom_site_fract_x
_atom_site_fract_y
_atom_site_fract_z
O1 O 0.73830 0.51710 -0.00720
O2 O 0.84210 0.71010 0.08490
O3 O 0.36340 0.98690 -0.17170
O4 O 0.41900 0.70280 -0.15710
O5 O 0.54560 0.25890 -0.31620
O6 O 0.58140 0.34860 -0.43190
N1 N 0.65640 1.13970 -0.03510
N2 N 0.57680 0.37450 -0.35570
C1 C 0.72430 1.00460 0.00260
C2 C 0.70200 0.83080 -0.02070
C3 C 0.60740 0.78190 -0.09550
C4 C 0.53360 0.93020 -0.10560
C5 C 0.56040 1.10160 -0.08020
C6 C 0.62070 0.74540 -0.18610
C7 C 0.66010 0.87670 -0.22730
C8 C 0.66700 0.84750 -0.31320
C9 C 0.64040 0.68340 -0.35620
C10 C 0.60260 0.55180 -0.31390
C11 C 0.59550 0.57950 -0.22840
C12 C 0.81690 1.07560 0.06870
C13 C 0.49660 1.26490 -0.09200
C14 C 0.76010 0.67180 0.01780
C15 C 0.90810 0.55830 0.11990
C16 C 0.43010 0.88390 -0.14840
C17 C 0.32050 0.64290 -0.20040
H1 H 0.67700 1.24700 -0.02200
H2 H 0.66200 1.00700 -0.20400
H3 H 0.62900 0.66200 -0.42500
H4 H 0.82300 1.20900 0.06900
H5 H 0.82200 1.04000 0.13700
H6 H 0.90600 0.50700 0.05900
H7 H 0.31700 0.48900 -0.19900
H8 H 0.28800 0.70100 -0.15600
H9 H 0.42700 1.24100 -0.07900
H10 H 0.57600 0.66500 -0.08400
H11 H 0.68600 0.95500 -0.34600
H12 H 0.57500 0.46400 -0.20100
H13 H 0.87000 1.02700 0.06500
H14 H 0.95900 0.59200 0.17000
H15 H 0.87100 0.46300 0.14500
H16 H 0.29200 0.67700 -0.26600
H17 H 0.53100 1.35900 -0.05900
H18 H 0.45900 1.27800 -0.15800
#END
