
#######################################################################
#
#                 Cambridge Crystallographic Data Centre
#                                CCDC
#
#######################################################################
#
# If this CIF has been generated from an entry in the Cambridge
# Structural Database, then it will include bibliographic, chemical,
# crystal, experimental, refinement or atomic coordinate data resulting
# from the CCDC's data processing and validation procedures.
#
#######################################################################

data_CSD_CIF_BELHIJ
_audit_creation_date 1982-11-15
_audit_creation_method CSD-ConQuest-V1
_database_code_CSD BELHIJ
_database_code_depnum_ccdc_archive 'CCDC 1108394'
_chemical_formula_sum 'C17 H17 N3 O8'
_chemical_formula_moiety
;
C17 H17 N3 O8
;
_journal_coden_Cambridge 151
_journal_volume 25
_journal_year 1982
_journal_page_first 126
_journal_name_full 'J.Med.Chem. '
loop_
_publ_author_name
"R.Fossheim"
"K.Svarteng"
"A.Mostad"
"C.Romming"
"E.Shefter"
"D.J.Triggle"
_chemical_name_systematic
;
dimethyl 
4-(2,4-dinitrophenyl)-2,6-dimethyl-1,4-dihydropyridine-3,5-dicarboxylate
;
_cell_volume   1699.202
_diffrn_ambient_temperature 123.15
#These two values have been output from a single CSD field.
_refine_ls_R_factor_gt 0.041
_refine_ls_wR_factor_gt 0.041
_symmetry_cell_setting monoclinic
_symmetry_space_group_name_H-M 'P 21/c'
_symmetry_Int_Tables_number 14
loop_
_symmetry_equiv_pos_site_id
_symmetry_equiv_pos_as_xyz
1 x,y,z
2 -x,1/2+y,1/2-z
3 -x,-y,-z
4 x,-1/2-y,-1/2+z
_cell_length_a 11.800(2)
_cell_length_b 10.136(2)
_cell_length_c 15.050(2)
_cell_angle_alpha 90
_cell_angle_beta 109.27
_cell_angle_gamma 90
_cell_formula_units_Z 4
loop_
_atom_type_symbol
_atom_type_radius_bond
C 0.68
H 0.23
N 0.68
O 0.68
loop_
_atom_site_label
_atom_site_type_symbol
_atom_site_fract_x
_atom_site_fract_y
_atom_site_fract_z
O1 O 0.70953 0.53866 1.01832
O2 O 0.65581 0.34646 0.94206
O3 O 1.12813 0.74827 0.87017
O4 O 1.04268 0.79008 0.98042
O5 O 0.51018 1.06741 0.68725
O6 O 0.47918 1.08806 0.82049
O7 O 0.87062 0.77161 1.09272
O8 O 0.68815 0.82079 1.08253
N1 N 0.87554 0.43554 0.78018
N2 N 0.52846 1.03611 0.76939
N3 N 0.76626 0.79704 1.04744
C1 C 0.79130 0.41120 0.82400
C2 C 0.78950 0.48740 0.89800
C3 C 0.86600 0.61210 0.92460
C4 C 0.96540 0.61360 0.88090
C5 C 0.96570 0.52670 0.81130
C6 C 0.78270 0.73170 0.88990
C7 C 0.74650 0.76090 0.79360
C8 C 0.66520 0.86100 0.75270
C9 C 0.61560 0.93050 0.80990
C10 C 0.64520 0.90490 0.90520
C11 C 0.73110 0.80810 0.94410
C12 C 0.71020 0.29830 0.77860
C13 C 0.71480 0.46220 0.95750
C14 C 0.58330 0.32080 1.00140
C15 C 1.05400 0.71950 0.90790
C16 C 1.12490 0.89830 1.00990
C17 C 1.05820 0.51960 0.76260
H1 H 0.87900 0.39100 0.72800
H2 H 0.77400 0.71300 0.76200
H3 H 0.61500 0.94300 0.94000
H4 H 0.74200 0.23100 0.78400
H5 H 0.55800 0.24000 0.98200
H6 H 0.63200 0.32800 1.06900
H7 H 1.10900 0.96300 0.96400
H8 H 1.12500 0.52500 0.80800
H9 H 1.05000 0.44700 0.72900
H10 H 0.89400 0.61200 0.98000
H11 H 0.65300 0.87500 0.70200
H12 H 0.65300 0.30000 0.78500
H13 H 0.69500 0.28300 0.72800
H14 H 0.52600 0.36800 0.98900
H15 H 1.11400 0.92800 1.05800
H16 H 1.19100 0.87900 1.02600
H17 H 1.04900 0.58400 0.72800
#END
