
#######################################################################
#
#                 Cambridge Crystallographic Data Centre
#                                CCDC
#
#######################################################################
#
# If this CIF has been generated from an entry in the Cambridge
# Structural Database, then it will include bibliographic, chemical,
# crystal, experimental, refinement or atomic coordinate data resulting
# from the CCDC's data processing and validation procedures.
#
#######################################################################

data_CSD_CIF_BEMBIG01
_audit_creation_date 2013-05-19
_audit_creation_method CSD-ConQuest-V1
_database_code_CSD BEMBIG01
_database_code_depnum_ccdc_archive 'CCDC 908704'
_chemical_formula_sum 'C8 H6 N8 O8'
_chemical_formula_moiety
;
C8 H6 N8 O8
;
_journal_coden_Cambridge 1088
_journal_volume 24
_journal_year 2013
_journal_page_first 519
_journal_name_full 'Synlett '
loop_
_publ_author_name
"M.M.Breiner"
"D.E.Chavez"
"D.A.Parrish"
_chemical_name_systematic
;
1,1'-Dimethyl-4,4',5,5'-tetranitro-1H,1'H-2,2'-biimidazole
;
_cell_volume   1325.158
_exptl_crystal_colour 'yellow'
_exptl_crystal_density_diffrn 1.715
_exptl_crystal_description 'plate'
_diffrn_ambient_temperature 150
#These two values have been output from a single CSD field.
_refine_ls_R_factor_gt 0.0638
_refine_ls_wR_factor_gt 0.0638
_symmetry_cell_setting triclinic
_symmetry_space_group_name_H-M 'P -1'
_symmetry_Int_Tables_number 2
loop_
_symmetry_equiv_pos_site_id
_symmetry_equiv_pos_as_xyz
1 x,y,z
2 -x,-y,-z
_cell_length_a 8.0029(18)
_cell_length_b 11.806(3)
_cell_length_c 14.429(3)
_cell_angle_alpha 90.743(3)
_cell_angle_beta 103.557(3)
_cell_angle_gamma 90.199(3)
_cell_formula_units_Z 4
loop_
_atom_type_symbol
_atom_type_radius_bond
C 0.68
H 0.23
N 0.68
O 0.68
loop_
_atom_site_label
_atom_site_type_symbol
_atom_site_fract_x
_atom_site_fract_y
_atom_site_fract_z
N1 N 0.7563(4) 0.4812(2) 0.1639(2)
C1 C 0.8582(5) 0.5621(3) 0.2188(2)
C2 C 1.0075(5) 0.5659(3) 0.1880(2)
N2 N 1.0040(4) 0.4922(3) 0.1159(2)
C3 C 0.8513(5) 0.4420(3) 0.1032(2)
C4 C 0.7900(5) 0.3515(3) 0.0330(2)
N3 N 0.8928(4) 0.2665(2) 0.0141(2)
C5 C 0.7865(5) 0.1967(3) -0.0509(2)
C6 C 0.6261(5) 0.2446(3) -0.0675(2)
N4 N 0.6284(4) 0.3401(3) -0.0159(2)
C7 C 0.5903(5) 0.4365(3) 0.1760(3)
H1 H 0.56850 0.36180 0.14510
H2 H 0.49790 0.48830 0.14690
H3 H 0.59440 0.42980 0.24420
N5 N 0.8167(4) 0.6172(3) 0.2993(2)
O1 O 0.6650(4) 0.6294(3) 0.2995(2)
O2 O 0.9377(4) 0.6498(3) 0.3626(2)
N6 N 1.1557(4) 0.6399(3) 0.2206(2)
O3 O 1.1278(4) 0.7378(2) 0.2415(2)
O4 O 1.2966(4) 0.6015(3) 0.2225(2)
C8 C 1.0751(5) 0.2475(4) 0.0618(3)
H4 H 1.10740 0.29670 0.11840
H5 H 1.14770 0.26510 0.01770
H6 H 1.09100 0.16820 0.08070
N7 N 0.8428(4) 0.0910(3) -0.0840(2)
O5 O 0.9934(4) 0.0828(3) -0.0872(2)
O6 O 0.7328(4) 0.0155(2) -0.1054(2)
N8 N 0.4700(4) 0.2087(3) -0.1344(2)
O7 O 0.4847(4) 0.1571(2) -0.2065(2)
O8 O 0.3329(4) 0.2342(3) -0.1162(2)
N9 N 0.2186(4) 0.0119(2) 0.6688(2)
C9 C 0.3197(5) -0.0644(3) 0.7254(3)
C10 C 0.4672(5) -0.0726(3) 0.6940(3)
N10 N 0.4635(4) -0.0046(3) 0.6195(2)
C11 C 0.3122(5) 0.0470(3) 0.6066(2)
C12 C 0.2553(5) 0.1382(3) 0.5396(2)
N11 N 0.3638(4) 0.2209(3) 0.5223(2)
C13 C 0.2607(5) 0.2954(3) 0.4650(3)
C14 C 0.0980(5) 0.2545(3) 0.4499(3)
N12 N 0.0933(4) 0.1555(3) 0.4958(2)
C15 C 0.0540(5) 0.0556(3) 0.6826(3)
H7 H 0.06330 0.07020 0.75070
H8 H -0.03700 -0.00060 0.65900
H9 H 0.02610 0.12610 0.64740
N13 N 0.2654(4) -0.1168(3) 0.8041(2)
O9 O 0.1350(4) -0.1734(3) 0.7857(2)
O10 O 0.3535(6) -0.1004(4) 0.8831(2)
N14 N 0.6107(4) -0.1465(3) 0.7299(2)
O11 O 0.5907(4) -0.2165(3) 0.7891(2)
O12 O 0.7406(4) -0.1350(3) 0.7010(2)
C16 C 0.5500(5) 0.2341(3) 0.5639(3)
H10 H 0.58290 0.31390 0.56190
H11 H 0.61420 0.18810 0.52730
H12 H 0.57660 0.20910 0.63030
N15 N 0.3308(5) 0.3968(3) 0.4313(3)
O13 O 0.4446(5) 0.3827(3) 0.3889(3)
O14 O 0.2727(5) 0.4873(3) 0.4484(3)
N16 N -0.0569(5) 0.3035(3) 0.3942(2)
O15 O -0.0374(5) 0.3806(3) 0.3411(3)
O16 O -0.1959(4) 0.2670(3) 0.4026(2)
#END
