
#######################################################################
#
#                 Cambridge Crystallographic Data Centre
#                                CCDC
#
#######################################################################
#
# If this CIF has been generated from an entry in the Cambridge
# Structural Database, then it will include bibliographic, chemical,
# crystal, experimental, refinement or atomic coordinate data resulting
# from the CCDC's data processing and validation procedures.
#
#######################################################################

data_CSD_CIF_BEMBIG
_audit_creation_date 2013-02-22
_audit_creation_method CSD-ConQuest-V1
_database_code_CSD BEMBIG
_database_code_depnum_ccdc_archive 'CCDC 876138'
_chemical_formula_sum 'C8 H6 N8 O8'
_chemical_formula_moiety
;
C8 H6 N8 O8
;
_journal_coden_Cambridge 29
_journal_volume 638
_journal_year 2012
_journal_page_first 1278
_journal_name_full 'Z.Anorg.Allg.Chem. '
loop_
_publ_author_name
"T.M.Klapotke"
"A.Preimesser"
"J.Stierstorfer"
_chemical_name_systematic
;
1,1'-Dimethyl-4,4',5,5'-tetranitro-1H,1'H-2,2'-biimidazole
;
_cell_volume   1334.937
_exptl_crystal_colour 'colorless'
_exptl_crystal_density_diffrn 1.703
_exptl_crystal_description 'rod'
_diffrn_ambient_temperature 173
#These two values have been output from a single CSD field.
_refine_ls_R_factor_gt 0.0594
_refine_ls_wR_factor_gt 0.0594
_symmetry_cell_setting triclinic
_symmetry_space_group_name_H-M 'P -1'
_symmetry_Int_Tables_number 2
loop_
_symmetry_equiv_pos_site_id
_symmetry_equiv_pos_as_xyz
1 x,y,z
2 -x,-y,-z
_cell_length_a 8.0210(6)
_cell_length_b 11.8452(7)
_cell_length_c 14.4535(9)
_cell_angle_alpha 90.653(5)
_cell_angle_beta 103.543(6)
_cell_angle_gamma 90.188(5)
_cell_formula_units_Z 4
loop_
_atom_type_symbol
_atom_type_radius_bond
C 0.68
H 0.23
N 0.68
O 0.68
loop_
_atom_site_label
_atom_site_type_symbol
_atom_site_fract_x
_atom_site_fract_y
_atom_site_fract_z
O1 O 0.3629(3) 0.6714(3) 0.2132(2)
O2 O 0.1447(5) 0.5995(4) 0.1171(2)
O3 O -0.0906(3) 0.7150(2) 0.2113(2)
O4 O -0.2413(3) 0.6335(2) 0.29776(18)
O5 O 0.0530(4) 0.1176(3) 0.6103(2)
O6 O 0.2278(4) 0.0141(2) 0.5535(3)
O7 O 0.5353(4) 0.1219(2) 0.6605(2)
O8 O 0.6936(3) 0.2334(2) 0.59794(19)
N1 N 0.2801(3) 0.4876(2) 0.33120(17)
N2 N 0.0353(3) 0.5035(2) 0.38022(17)
N3 N 0.2340(4) 0.6155(2) 0.19567(19)
N4 N -0.1107(3) 0.6453(2) 0.26957(19)
N5 N 0.1345(3) 0.2794(2) 0.47800(17)
N6 N 0.4046(3) 0.3441(2) 0.50417(17)
N7 N 0.1692(4) 0.1037(2) 0.5694(2)
N8 N 0.5551(4) 0.1976(2) 0.6067(2)
C1 C 0.1858(4) 0.4525(2) 0.3932(2)
C2 C 0.1787(4) 0.5633(2) 0.2745(2)
C3 C 0.0319(4) 0.5719(2) 0.3056(2)
C4 C 0.4445(4) 0.4439(3) 0.3175(3)
C5 C 0.2429(4) 0.3613(2) 0.4602(2)
C6 C 0.2383(4) 0.2049(2) 0.5357(2)
C7 C 0.4005(4) 0.2464(2) 0.5506(2)
C8 C -0.0513(4) 0.2653(3) 0.4364(3)
H1 H 0.457(5) 0.371(4) 0.339(3)
H2 H -0.081(5) 0.181(4) 0.435(3)
H3 H -0.083(5) 0.293(3) 0.372(3)
H4 H -0.117(6) 0.313(4) 0.470(4)
H5 H 0.434(8) 0.445(5) 0.254(5)
H6 H 0.531(8) 0.480(5) 0.362(5)
O9 O 0.4917(3) 0.5838(2) -0.08783(18)
O10 O 0.2332(3) 0.5164(2) -0.1038(2)
O11 O -0.0147(3) 0.6574(2) -0.20544(17)
O12 O -0.1665(3) 0.7348(2) -0.11542(19)
O13 O 0.1645(3) 1.1296(2) 0.29917(19)
O14 O 0.4367(3) 1.1483(2) 0.36297(17)
O15 O 0.6273(3) 1.23616(19) 0.24250(19)
O16 O 0.7944(3) 1.1006(2) 0.22148(19)
N9 N 0.3916(3) 0.7666(2) 0.01438(17)
N10 N 0.1279(3) 0.8402(2) -0.01525(17)
N11 N 0.3421(4) 0.5919(2) -0.08296(18)
N12 N -0.0298(3) 0.7091(2) -0.13313(19)
N13 N 0.2558(3) 0.9809(2) 0.16407(16)
N14 N 0.5030(3) 0.9918(2) 0.11605(17)
N15 N 0.3153(3) 1.1164(2) 0.29996(18)
N16 N 0.6540(3) 1.1389(2) 0.22091(17)
C9 C 0.2897(4) 0.8512(2) 0.0338(2)
C10 C 0.2863(4) 0.6973(2) -0.0501(2)
C11 C 0.1262(4) 0.7450(2) -0.0669(2)
C12 C 0.5742(4) 0.7477(3) 0.0620(3)
C13 C 0.3504(4) 0.9416(2) 0.1036(2)
C14 C 0.3576(4) 1.0611(2) 0.2192(2)
C15 C 0.5060(4) 1.0653(2) 0.1884(2)
C16 C 0.0906(4) 0.9362(3) 0.1763(2)
H7 H 0.003(5) 0.988(3) 0.152(3)
H8 H 0.587(5) 0.667(4) 0.080(3)
H9 H 0.596(5) 0.795(3) 0.116(3)
H10 H 0.098(5) 0.927(3) 0.247(3)
H11 H 0.063(5) 0.860(3) 0.146(3)
H12 H 0.642(6) 0.765(4) 0.012(3)
#END
