
#######################################################################
#
#                 Cambridge Crystallographic Data Centre
#                                CCDC
#
#######################################################################
#
# If this CIF has been generated from an entry in the Cambridge
# Structural Database, then it will include bibliographic, chemical,
# crystal, experimental, refinement or atomic coordinate data resulting
# from the CCDC's data processing and validation procedures.
#
#######################################################################

data_CSD_CIF_BEMJOS01
_audit_creation_date 2013-04-04
_audit_creation_method CSD-ConQuest-V1
_database_code_CSD BEMJOS01
_database_code_depnum_ccdc_archive 'CCDC 871698'
_chemical_formula_sum 'C9 H9 N1 O3'
_chemical_formula_moiety
;
C9 H9 N1 O3
;
_journal_coden_Cambridge 24
_journal_volume 53
_journal_year 2012
_journal_page_first 5903
_journal_name_full 'Tetrahedron Lett. '
loop_
_publ_author_name
"Y.Mizutani"
"H.Tanimoto"
"T.Morimoto"
"Y.Nishiyama"
"K.Kakiuchi"
_chemical_name_systematic
;
Methyl (hydroxyimino)(phenyl)acetate
;
_cell_volume    843.627
_exptl_crystal_colour 'colorless'
_exptl_crystal_density_diffrn 1.411
_exptl_crystal_description 'block'
_diffrn_ambient_temperature 123
#These two values have been output from a single CSD field.
_refine_ls_R_factor_gt 0.0404
_refine_ls_wR_factor_gt 0.0404
_symmetry_cell_setting triclinic
_symmetry_space_group_name_H-M 'P -1'
_symmetry_Int_Tables_number 2
loop_
_symmetry_equiv_pos_site_id
_symmetry_equiv_pos_as_xyz
1 x,y,z
2 -x,-y,-z
_cell_length_a 9.3771(3)
_cell_length_b 9.5577(3)
_cell_length_c 10.1760(4)
_cell_angle_alpha 92.3863(8)
_cell_angle_beta 94.6892(8)
_cell_angle_gamma 111.4252(8)
_cell_formula_units_Z 4
loop_
_atom_type_symbol
_atom_type_radius_bond
C 0.68
H 0.23
N 0.68
O 0.68
loop_
_atom_site_label
_atom_site_type_symbol
_atom_site_fract_x
_atom_site_fract_y
_atom_site_fract_z
O1 O 0.46621(11) 0.68465(11) 0.33148(9)
O2 O 0.11608(11) 0.92183(11) 0.33593(9)
O3 O 0.26164(11) 0.91186(11) 0.51972(9)
O4 O 0.48965(11) 0.20767(11) 0.34324(9)
O5 O 0.10268(11) 0.40033(11) 0.35106(9)
O6 O 0.25505(11) 0.39895(11) 0.53243(9)
N1 N 0.38788(12) 0.76088(12) 0.3957(1)
N2 N 0.40390(12) 0.27703(12) 0.40604(10)
C1 C 0.27657(13) 0.78395(14) 0.17185(11)
C2 C 0.21167(14) 0.63937(14) 0.10802(12)
C3 C 0.19038(15) 0.62179(14) -0.02927(12)
C4 C 0.23561(15) 0.74666(15) -0.10275(12)
C5 C 0.30082(15) 0.89023(15) -0.03908(12)
C6 C 0.32036(14) 0.90940(14) 0.09813(12)
C7 C 0.30046(13) 0.80536(13) 0.31866(11)
C8 C 0.21527(14) 0.88667(14) 0.38984(12)
C9 C 0.18071(18) 0.98417(17) 0.59604(13)
C10 C 0.27725(14) 0.28072(13) 0.18264(11)
C11 C 0.40245(14) 0.32651(14) 0.10718(12)
C12 C 0.37821(16) 0.30505(14) -0.02967(12)
C13 C 0.22950(16) 0.23937(15) -0.09229(12)
C14 C 0.10462(15) 0.19304(14) -0.01839(12)
C15 C 0.12838(14) 0.21369(14) 0.11874(12)
C16 C 0.30436(13) 0.30611(13) 0.32898(11)
C17 C 0.20871(14) 0.37344(14) 0.40248(12)
C18 C 0.16808(17) 0.46470(17) 0.60901(13)
H1 H 0.52900 0.68050 0.40050
H2 H 0.18220 0.55350 0.15820
H3 H 0.14460 0.52360 -0.07300
H4 H 0.22200 0.73400 -0.19660
H5 H 0.33220 0.97580 -0.08950
H6 H 0.36350 1.00790 0.14150
H7 H 0.07110 0.92020 0.58880
H8 H 0.19280 1.08190 0.56210
H9 H 0.22340 0.99950 0.68900
H10 H 0.54800 0.19900 0.41360
H11 H 0.50430 0.37240 0.14980
H12 H 0.46350 0.33530 -0.08060
H13 H 0.21320 0.22610 -0.18610
H14 H 0.00300 0.14730 -0.06150
H15 H 0.04280 0.18200 0.16920
H16 H 0.06020 0.39560 0.60220
H17 H 0.17390 0.56070 0.57470
H18 H 0.21140 0.48220 0.70190
#END
