
#######################################################################
#
#                 Cambridge Crystallographic Data Centre
#                                CCDC
#
#######################################################################
#
# If this CIF has been generated from an entry in the Cambridge
# Structural Database, then it will include bibliographic, chemical,
# crystal, experimental, refinement or atomic coordinate data resulting
# from the CCDC's data processing and validation procedures.
#
#######################################################################

data_CSD_CIF_BEMJOS
_audit_creation_date 1999-11-19
_audit_creation_method CSD-ConQuest-V1
_database_code_CSD BEMJOS
_database_code_depnum_ccdc_archive 'CCDC 118769'
_chemical_formula_sum 'C9 H9 N1 O3'
_chemical_formula_moiety
;
C9 H9 N1 O3
;
_journal_coden_Cambridge 10
_journal_volume 82
_journal_year 1999
_journal_page_first 1289
_journal_name_full 'Helv.Chim.Acta '
loop_
_publ_author_name
"Z.Hamersak"
"B.Peric"
"B.Kojic-Prodic"
"L.Cotarca"
"P.Delogu"
"V.Sunjic"
_chemical_name_systematic
;
(E)-Methyl \a-(hydroxyimino)benzeneacetate
;
_chemical_name_common
;
(E)-Methyl benzoylformatoxime
;
_chemical_melting_point 415.15
_cell_volume    871.861
_exptl_crystal_colour 'colorless'
_exptl_crystal_density_diffrn 1.365
_exptl_special_details
;
Melting point range 415.15-416.15K

;
_exptl_crystal_description 'plate'
_exptl_crystal_preparation 'di-isopropyl ether'
_diffrn_ambient_temperature ?
_diffrn_special_details
;
The study was carried out at room temperature,in the range 283-303K

;
#These two values have been output from a single CSD field.
_refine_ls_R_factor_gt 0.0521
_refine_ls_wR_factor_gt 0.0521
_symmetry_cell_setting triclinic
_symmetry_space_group_name_H-M 'P -1'
_symmetry_Int_Tables_number 2
loop_
_symmetry_equiv_pos_site_id
_symmetry_equiv_pos_as_xyz
1 x,y,z
2 -x,-y,-z
_cell_length_a 9.4681(5)
_cell_length_b 9.6809(6)
_cell_length_c 10.2338(3)
_cell_angle_alpha 93.087(4)
_cell_angle_beta 94.942(3)
_cell_angle_gamma 110.490(4)
_cell_formula_units_Z 4
loop_
_atom_type_symbol
_atom_type_radius_bond
C 0.68
H 0.23
N 0.68
O 0.68
loop_
_atom_site_label
_atom_site_type_symbol
_atom_site_fract_x
_atom_site_fract_y
_atom_site_fract_z
O1 O 1.03203(14) 0.31219(14) 0.66926(10)
O2 O 1.38261(14) 0.08134(16) 0.66236(10)
O3 O 1.23791(14) 0.08984(14) 0.48033(10)
N1 N 1.11018(14) 0.23743(14) 0.6047(1)
C1 C 1.19863(14) 0.19465(15) 0.68046(10)
C2 C 1.28426(16) 0.11566(16) 0.60916(10)
C3 C 1.22277(14) 0.21620(14) 0.82656(10)
C4 C 1.28612(17) 0.35755(16) 0.89088(10)
C5 C 1.30824(18) 0.37616(17) 1.02736(10)
C6 C 1.26492(18) 0.25493(18) 1.09922(10)
C7 C 1.20085(18) 0.11408(18) 1.03555(10)
C8 C 1.18092(16) 0.09439(15) 0.89928(10)
C9 C 1.3168(3) 0.0178(3) 0.40307(10)
O4 O 0.98846(12) 0.20865(13) 0.34387(10)
O5 O 0.60711(13) 0.40243(15) 0.35197(10)
O6 O 0.75273(14) 0.39492(15) 0.53261(10)
N2 N 0.90340(13) 0.27688(13) 0.40658(10)
C10 C 0.80456(14) 0.30604(14) 0.33021(10)
C11 C 0.70957(16) 0.37258(15) 0.40335(10)
C12 C 0.77820(14) 0.28158(14) 0.18454(10)
C13 C 0.90002(16) 0.32633(16) 0.11037(10)
C14 C 0.8764(2) 0.30504(18) -0.02539(10)
C15 C 0.7306(2) 0.23851(18) -0.0884(1)
C16 C 0.60909(19) 0.19290(18) -0.01608(10)
C17 C 0.63200(16) 0.21433(17) 0.11996(10)
C18 C 0.6688(3) 0.4611(3) 0.6102(2)
H1 H 0.962(2) 0.318(2) 0.603(2)
H2 H 1.3165(19) 0.443(2) 0.8422(16)
H3 H 1.353(2) 0.476(2) 1.0703(16)
H4 H 1.281(2) 0.270(2) 1.197(2)
H5 H 1.169(2) 0.026(2) 1.0833(19)
H6 H 1.136(2) -0.003(2) 0.8561(17)
H7 H 1.310(3) -0.080(3) 0.430(2)
H8 H 1.279(3) 0.008(3) 0.322(3)
H9 H 1.427(4) 0.071(4) 0.399(4)
H10 H 1.050(2) 0.201(2) 0.4101(19)
H11 H 1.000(2) 0.377(2) 0.1561(16)
H12 H 0.960(2) 0.338(2) -0.0769(18)
H13 H 0.714(2) 0.225(2) -0.186(2)
H14 H 0.506(2) 0.139(2) -0.0605(18)
H15 H 0.5433(19) 0.1777(18) 0.1719(15)
H16 H 0.562(3) 0.400(3) 0.603(3)
H17 H 0.678(3) 0.556(3) 0.585(3)
H18 H 0.711(3) 0.463(3) 0.695(3)
#END
