
#######################################################################
#
#                 Cambridge Crystallographic Data Centre
#                                CCDC
#
#######################################################################
#
# If this CIF has been generated from an entry in the Cambridge
# Structural Database, then it will include bibliographic, chemical,
# crystal, experimental, refinement or atomic coordinate data resulting
# from the CCDC's data processing and validation procedures.
#
#######################################################################

data_CSD_CIF_BEMKUC
_audit_creation_date 2017-10-18
_audit_creation_method CSD-ConQuest-V1
_database_code_CSD BEMKUC
_database_code_depnum_ccdc_archive 'CCDC 1497138'
_chemical_formula_sum 'C21 H17 N1 O1'
_chemical_formula_moiety
;
C21 H17 N1 O1
;
_journal_coden_Cambridge 34
_journal_volume 54
_journal_year 2017
_journal_page_first 3235
_journal_name_full 'J.Heterocycl.Chem. '
loop_
_publ_author_name
"N.C.Tice"
"E.M.Collins"
"D.L.Smith"
"C.A.Snyder"
"Bangbo Yan"
"E.D.Stevens"
_chemical_name_systematic
;
1,4-bis(4-methylphenyl)cyclopenta[d][1,2]oxazine
;
_chemical_name_common
;
1,4-dip-tolylcyclopenta[d][1,2]oxazine; 1,4-ditolyloxirane
;
_chemical_melting_point 443
_cell_volume    751.492
_exptl_crystal_colour 'orange'
_exptl_crystal_density_diffrn 1.323
_exptl_crystal_description 'plate'
_diffrn_ambient_temperature 120
_refine_special_details
;
N1,O1 and N1B,O1B disordered over two sites with occupancies 0.642:0.358.

;
#These two values have been output from a single CSD field.
_refine_ls_R_factor_gt 0.0401
_refine_ls_wR_factor_gt 0.0401
_symmetry_cell_setting triclinic
_symmetry_space_group_name_H-M 'P -1'
_symmetry_Int_Tables_number 2
loop_
_symmetry_equiv_pos_site_id
_symmetry_equiv_pos_as_xyz
1 x,y,z
2 -x,-y,-z
_cell_length_a 9.1308(3)
_cell_length_b 9.8513(3)
_cell_length_c 9.9497(3)
_cell_angle_alpha 105.3736(10)
_cell_angle_beta 105.3139(11)
_cell_angle_gamma 109.2532(11)
_cell_formula_units_Z 2
loop_
_atom_type_symbol
_atom_type_radius_bond
C 0.68
H 0.23
N 0.68
O 0.68
loop_
_atom_site_label
_atom_site_type_symbol
_atom_site_fract_x
_atom_site_fract_y
_atom_site_fract_z
O1 O 0.8271(5) 0.7918(5) 0.1680(5)
N1 N 0.9903(5) 0.8771(3) 0.1755(5)
C1 C 0.76625(9) 0.86523(8) 0.25808(8)
C2 C 0.85837(8) 1.01967(8) 0.35742(8)
C3 C 0.83041(9) 1.12102(9) 0.46706(8)
H1 H 0.7340(16) 1.0980(16) 0.4989(15)
C4 C 0.96974(10) 1.26562(9) 0.52932(9)
H2 H 0.9810(17) 1.3550(16) 0.6075(15)
C5 C 1.08677(9) 1.25882(9) 0.46187(9)
H3 H 1.1983(18) 1.3468(17) 0.4874(16)
C6 C 1.02128(8) 1.10623(8) 0.35661(8)
C7 C 1.07975(9) 1.02519(8) 0.26153(8)
C8 C 1.24213(9) 1.09314(8) 0.24692(8)
C9 C 1.25220(9) 1.04658(8) 0.10532(8)
H4 H 1.1500(16) 0.9731(15) 0.0160(15)
C10 C 1.40399(9) 1.11043(8) 0.09005(8)
H5 H 1.4084(16) 1.0801(15) -0.0094(15)
C11 C 1.54980(9) 1.22118(8) 0.21448(9)
C12 C 1.53888(9) 1.26582(9) 0.35574(9)
H6 H 1.6417(16) 1.3391(15) 0.4441(15)
C13 C 1.38745(9) 1.20300(9) 0.37253(8)
H7 H 1.3845(16) 1.2314(15) 0.4723(15)
C14 C 0.59520(8) 0.76158(8) 0.23446(8)
C15 C 0.54800(9) 0.60177(8) 0.19735(9)
H8 H 0.6333(17) 0.5621(16) 0.1910(15)
C16 C 0.38626(10) 0.50343(8) 0.17338(9)
H9 H 0.3554(16) 0.3919(16) 0.1483(15)
C17 C 0.26666(9) 0.56063(8) 0.18380(8)
C18 C 0.31381(9) 0.71956(9) 0.21914(8)
H10 H 0.2307(16) 0.7636(15) 0.2219(15)
C19 C 0.47619(9) 0.81965(8) 0.24486(8)
H11 H 0.5038(16) 0.9289(15) 0.2631(14)
C20 C 0.09196(10) 0.45158(10) 0.15641(10)
H12 H 0.0152(17) 0.5024(15) 0.1436(15)
H13 H 0.0927(18) 0.4222(17) 0.2425(16)
H14 H 0.044(2) 0.3558(19) 0.0617(19)
C21 C 1.71308(10) 1.2888(1) 0.19629(10)
H15 H 1.775(2) 1.2251(19) 0.2049(19)
H16 H 1.793(2) 1.393(2) 0.278(2)
H17 H 1.698(2) 1.307(2) 0.102(2)
N2? N 0.8303(9) 0.8009(10) 0.1711(9)
O2? O 0.9921(8) 0.8730(4) 0.1695(8)
#END
