
#######################################################################
#
#                 Cambridge Crystallographic Data Centre
#                                CCDC
#
#######################################################################
#
# If this CIF has been generated from an entry in the Cambridge
# Structural Database, then it will include bibliographic, chemical,
# crystal, experimental, refinement or atomic coordinate data resulting
# from the CCDC's data processing and validation procedures.
#
#######################################################################

data_CSD_CIF_BEMPUE
_audit_creation_date 1982-11-15
_audit_creation_method CSD-ConQuest-V1
_database_code_CSD BEMPUE
_database_code_depnum_ccdc_archive 'CCDC 1108542'
_chemical_formula_sum 'C21 H25 N1 O6'
_chemical_formula_moiety
;
C21 H25 N1 O6
;
_journal_coden_Cambridge 10
_journal_volume 65
_journal_year 1982
_journal_page_first 595
_journal_name_full 'Helv.Chim.Acta '
loop_
_publ_author_name
"K.Ishii"
"T.A.Lyle"
"W.B.Schweizer"
"B.Frei"
_chemical_name_systematic
;
(4-Acetoxy-3,8,8-trimethyltricyclo(4.2.0.0^1,3^)oct-2-yl)-methyl-p-nitrobenzoa
te
;
_chemical_melting_point 406.15
_cell_volume   2006.261
_exptl_crystal_density_diffrn 1.28
_exptl_special_details
;
Melting point range 406.15-407.15K

;
_diffrn_ambient_temperature ?
_diffrn_special_details
;
The study was carried out at room temperature,in the range 283-303K

;
#These two values have been output from a single CSD field.
_refine_ls_R_factor_gt 0.039
_refine_ls_wR_factor_gt 0.039
_symmetry_cell_setting monoclinic
_symmetry_space_group_name_H-M 'P 21/a'
_symmetry_Int_Tables_number 14
loop_
_symmetry_equiv_pos_site_id
_symmetry_equiv_pos_as_xyz
1 x,y,z
2 1/2-x,1/2+y,-z
3 -x,-y,-z
4 -1/2+x,-1/2-y,z
_cell_length_a 13.787
_cell_length_b 7.204
_cell_length_c 20.638
_cell_angle_alpha 90
_cell_angle_beta 101.83
_cell_angle_gamma 90
_cell_formula_units_Z 4
loop_
_atom_type_symbol
_atom_type_radius_bond
C 0.68
H 0.23
N 0.68
O 0.68
loop_
_atom_site_label
_atom_site_type_symbol
_atom_site_fract_x
_atom_site_fract_y
_atom_site_fract_z
C1 C 0.56170 0.53200 0.70890
C2 C 0.59470 0.34440 0.73330
C3 C 0.52520 0.36670 0.66620
C4 C 0.56420 0.38490 0.60390
C5 C 0.63320 0.55040 0.60950
C6 C 0.62320 0.65140 0.67270
C7 C 0.54640 0.80520 0.67320
C8 C 0.50830 0.70270 0.72930
C9 C 0.42310 0.28310 0.65930
C10 C 0.70190 0.29070 0.74270
C11 C 0.39640 0.69440 0.72280
C12 C 0.55730 0.77260 0.79720
C13 C 0.62510 0.18400 0.52970
C14 C 0.67460 0.00530 0.52260
C15 C 0.77520 0.31330 0.85840
C16 C 0.81810 0.44520 0.91200
C17 C 0.82940 0.63140 0.89990
C18 C 0.86760 0.75090 0.95070
C19 C 0.89490 0.67880 1.01340
C20 C 0.88420 0.49560 1.02700
C21 C 0.84540 0.37840 0.97590
N1 N 0.93800 0.80550 1.06800
O1 O 0.61280 0.21230 0.59120
O2 O 0.60190 0.29810 0.48640
O3 O 0.75770 0.39430 0.79900
O4 O 0.75690 0.15470 0.86720
O5 O 0.92980 0.97070 1.05820
O6 O 0.98040 0.73690 1.12060
H1 H 0.56230 0.29140 0.76410
H2 H 0.50570 0.40130 0.56530
H3 H 0.70240 0.50610 0.61330
H4 H 0.62230 0.62980 0.57330
H5 H 0.68650 0.68230 0.69960
H6 H 0.56900 0.93230 0.68560
H7 H 0.49390 0.80480 0.63200
H8 H 0.40300 0.28210 0.70290
H9 H 0.42360 0.15470 0.64450
H10 H 0.37990 0.34710 0.62100
H11 H 0.73390 0.33300 0.70280
H12 H 0.71140 0.16140 0.75270
H13 H 0.36120 0.65320 0.67770
H14 H 0.37210 0.81720 0.73110
H15 H 0.38230 0.60440 0.75860
H16 H 0.63330 0.77940 0.80250
H17 H 0.54880 0.69700 0.83160
H18 H 0.53220 0.89950 0.80270
H19 H 0.71000 -0.04670 0.56040
H20 H 0.63110 -0.05560 0.49580
H21 H 0.70520 0.00570 0.48890
H22 H 0.81050 0.67420 0.85630
H23 H 0.87390 0.88100 0.94220
H24 H 0.90420 0.45410 1.06910
H25 H 0.83630 0.25210 0.98310
#END
