
#######################################################################
#
#                 Cambridge Crystallographic Data Centre
#                                CCDC
#
#######################################################################
#
# If this CIF has been generated from an entry in the Cambridge
# Structural Database, then it will include bibliographic, chemical,
# crystal, experimental, refinement or atomic coordinate data resulting
# from the CCDC's data processing and validation procedures.
#
#######################################################################

data_CSD_CIF_BEMWEV
_audit_creation_date 1982-11-15
_audit_creation_method CSD-ConQuest-V1
_database_code_CSD BEMWEV
_database_code_depnum_ccdc_archive 'CCDC 1108567'
_chemical_formula_sum 'C23 H34 N4 O4'
_chemical_formula_moiety
;
C23 H34 N4 O4
;
_journal_coden_Cambridge 10
_journal_volume 65
_journal_year 1982
_journal_page_first 558
_journal_name_full 'Helv.Chim.Acta '
loop_
_publ_author_name
"G.Bernardinelli"
"R.Gerdil"
_chemical_name_systematic
;
1-(2,4-Dinitrophenylhydrazone)-cis-cycloheptadec-9-ene
;
_chemical_name_common
;
cis-Civetone 2,4-dinitrophenylhydrazone
;
_chemical_melting_point 382.15
_cell_volume   1141.534
_exptl_crystal_colour 'yellow-orange'
_exptl_crystal_density_diffrn 1.25
_exptl_special_details
;
alpha polymorph
dxis given as 1.21,dcalc is 1.24

;
_diffrn_ambient_temperature 173.15
_refine_special_details
;
Long C=N bond at N1.

;
#These two values have been output from a single CSD field.
_refine_ls_R_factor_gt 0.039
_refine_ls_wR_factor_gt 0.039
loop_
_citation_database_id_CSD
_citation_special_details
BEPKEM "is a stereoisomer of this entry"
_symmetry_cell_setting triclinic
_symmetry_space_group_name_H-M 'P -1'
_symmetry_Int_Tables_number 2
loop_
_symmetry_equiv_pos_site_id
_symmetry_equiv_pos_as_xyz
1 x,y,z
2 -x,-y,-z
_cell_length_a 6.279(5)
_cell_length_b 12.605(8)
_cell_length_c 15.253(10)
_cell_angle_alpha 105.49(7)
_cell_angle_beta 100.31(6)
_cell_angle_gamma 91.23(7)
_cell_formula_units_Z 2
loop_
_atom_type_symbol
_atom_type_radius_bond
C 0.68
H 0.23
N 0.68
O 0.68
loop_
_atom_site_label
_atom_site_type_symbol
_atom_site_fract_x
_atom_site_fract_y
_atom_site_fract_z
O1 O 0.78060 0.44860 0.45840
O2 O 0.55660 0.36730 0.51580
O3 O -0.12620 0.20940 0.35030
O4 O -0.22360 0.19440 0.20120
N1 N 0.72510 0.47410 0.20560
N2 N 0.69100 0.45110 0.28560
N3 N 0.60360 0.39580 0.45140
N4 N -0.10000 0.22480 0.27690
C1 C 0.89120 0.58350 0.21230
C2 C 0.92280 0.55270 0.11850
C3 C 0.87170 0.66230 0.10190
C4 C 0.63490 0.67250 0.08280
C5 C 0.57060 0.78620 0.06600
C6 C 0.34180 0.79630 0.03960
C7 C 0.26950 0.90460 0.02220
C8 C 0.29110 1.00340 0.10640
C9 C 0.14060 0.98850 0.16720
C10 C 0.17970 0.99850 0.25330
C11 C 0.39800 1.02350 0.31540
C12 C 0.49150 0.91910 0.34290
C13 C 0.69040 0.94830 0.40540
C14 C 0.78060 0.84360 0.44330
C15 C 0.85130 0.78230 0.35010
C16 C 0.97720 0.69320 0.36710
C17 C 1.05340 0.59480 0.29900
C18 C 0.50850 0.39560 0.28330
C19 C 0.45740 0.36700 0.36230
C20 C 0.26100 0.31200 0.36050
C21 C 0.11160 0.28150 0.27940
C22 C 0.15410 0.30060 0.19670
C23 C 0.34500 0.35680 0.20120
H1 H 1.10190 0.54210 0.11370
H2 H 0.83300 0.48570 0.06030
H3 H 0.94730 0.72730 0.16100
H4 H 0.93490 0.67090 0.03990
H5 H 0.55500 0.60650 0.02170
H6 H 0.56780 0.66420 0.14260
H7 H 0.63740 0.85290 0.12840
H8 H 0.65280 0.79910 0.00950
H9 H 0.27720 0.72620 -0.02410
H10 H 0.26200 0.78050 0.09480
H11 H 0.37730 0.92680 -0.02330
H12 H 0.10420 0.89500 -0.01660
H13 H 0.45630 1.01240 0.14940
H14 H 0.25970 1.08000 0.08870
H15 H -0.03230 0.96200 0.13250
H16 H 0.04690 0.99220 0.29100
H17 H 0.51200 1.05560 0.27830
H18 H 0.39400 1.09060 0.37910
H19 H 0.37050 0.88520 0.37410
H20 H 0.51000 0.85710 0.27950
H21 H 0.81510 0.97720 0.37270
H22 H 0.67470 1.01630 0.46670
H23 H 0.92130 0.87060 0.49660
H24 H 0.64930 0.81180 0.46940
H25 H 0.70840 0.74970 0.29630
H26 H 0.94920 0.83920 0.32820
H27 H 1.12730 0.73430 0.41230
H28 H 0.88450 0.65480 0.40590
H29 H 1.19550 0.62050 0.27480
H30 H 1.09850 0.52910 0.33230
H31 H 0.22280 0.29850 0.42570
H32 H 0.03290 0.26960 0.13160
H33 H 0.37630 0.37480 0.13590
H34 H 0.81450 0.47980 0.35060
#END
