
#######################################################################
#
#                 Cambridge Crystallographic Data Centre
#                                CCDC
#
#######################################################################
#
# If this CIF has been generated from an entry in the Cambridge
# Structural Database, then it will include bibliographic, chemical,
# crystal, experimental, refinement or atomic coordinate data resulting
# from the CCDC's data processing and validation procedures.
#
#######################################################################

data_CSD_CIF_BEMZID
_audit_creation_date 2004-06-01
_audit_creation_method CSD-ConQuest-V1
_database_code_CSD BEMZID
_database_code_depnum_ccdc_archive 'CCDC 231850'
_chemical_formula_sum 'C30 H27 N1 O8'
_chemical_formula_moiety
;
C30 H27 N1 O8
;
_journal_coden_Cambridge 1336
_journal_volume 6
_journal_year 2004
_journal_page_first 397
_journal_name_full 'Org.Lett. '
loop_
_publ_author_name
"O.Renaudet"
"J.-L.Reymond"
_chemical_name_systematic
;
3-(3-(3-(Benzyloxy)-4-methoxybenzyloxy)-6-nitrobenzyloxy)-4-methoxybenzaldehyd
e
;
_cell_volume   1272.513
_exptl_crystal_colour 'pale yellow'
_exptl_crystal_density_diffrn 1.382
_exptl_special_details
;
low protease inhibition

;
_exptl_crystal_description 'plate'
_diffrn_ambient_temperature 153
#These two values have been output from a single CSD field.
_refine_ls_R_factor_gt 0.0357
_refine_ls_wR_factor_gt 0.0357
_symmetry_cell_setting triclinic
_symmetry_space_group_name_H-M 'P -1'
_symmetry_Int_Tables_number 2
loop_
_symmetry_equiv_pos_site_id
_symmetry_equiv_pos_as_xyz
1 x,y,z
2 -x,-y,-z
_cell_length_a 8.7426(8)
_cell_length_b 10.6484(9)
_cell_length_c 14.4952(13)
_cell_angle_alpha 96.122(7)
_cell_angle_beta 99.555(7)
_cell_angle_gamma 104.529(7)
_cell_formula_units_Z 2
loop_
_atom_type_symbol
_atom_type_radius_bond
C 0.68
H 0.23
N 0.68
O 0.68
loop_
_atom_site_label
_atom_site_type_symbol
_atom_site_fract_x
_atom_site_fract_y
_atom_site_fract_z
O1 O -0.32838(10) -0.26425(8) 0.12855(6)
O2 O -0.00143(9) 0.29765(7) 0.37190(6)
O3 O 0.06503(9) 0.08287(7) 0.39597(5)
O4 O 0.16778(11) -0.26165(8) 0.41770(6)
O5 O 0.32534(11) -0.30503(8) 0.53344(7)
O6 O 0.49084(9) 0.29372(7) 0.66580(5)
O7 O 0.66787(10) 0.85348(7) 0.90214(6)
O8 O 0.42262(8) 0.67200(7) 0.92088(5)
N1 N 0.26628(11) -0.22763(9) 0.49324(7)
C1 C -0.34935(13) -0.15793(11) 0.11881(8)
H1 H -0.4339(17) -0.1481(14) 0.067(1)
C2 C -0.25534(12) -0.03549(10) 0.18068(7)
C3 C -0.13623(11) -0.03918(10) 0.25776(7)
H2 H -0.1164(15) -0.1233(13) 0.2674(9)
C4 C -0.05281(11) 0.07364(10) 0.31894(7)
C5 C -0.08769(12) 0.19392(10) 0.30557(7)
C6 C -0.20373(13) 0.19712(10) 0.22896(8)
H3 H -0.2307(17) 0.2793(14) 0.2206(10)
C7 C -0.28769(13) 0.08257(11) 0.16656(8)
H4 H -0.3719(17) 0.0820(14) 0.1122(10)
C8 C -0.02241(18) 0.42384(11) 0.35810(11)
H5 H 0.0060(19) 0.4448(16) 0.2968(12)
H6 H 0.0533(19) 0.4852(16) 0.4125(12)
H7 H -0.131(2) 0.4274(15) 0.3615(11)
C9 C 0.11346(12) -0.03283(10) 0.40903(7)
H8 H 0.1509(15) -0.0640(13) 0.3535(9)
H9 H 0.0213(15) -0.1041(13) 0.4168(9)
C10 C 0.24827(11) 0.00176(10) 0.49507(7)
C11 C 0.31696(12) -0.08995(10) 0.53540(7)
C12 C 0.43752(12) -0.05360(11) 0.61697(7)
H10 H 0.4804(16) -0.1224(14) 0.6425(10)
C13 C 0.49356(12) 0.07524(11) 0.65944(7)
H11 H 0.5766(16) 0.1035(13) 0.7169(10)
C14 C 0.42914(12) 0.16939(10) 0.61959(7)
C15 C 0.30860(11) 0.1326(1) 0.53817(7)
H12 H 0.2620(15) 0.1962(13) 0.5103(9)
C16 C 0.43308(14) 0.39653(11) 0.62726(8)
H13 H 0.3138(17) 0.3706(13) 0.6181(10)
H14 H 0.4684(16) 0.4081(13) 0.5663(10)
C17 C 0.50133(12) 0.51919(10) 0.69848(7)
C18 C 0.43200(12) 0.53313(10) 0.77808(7)
H15 H 0.3450(16) 0.4632(13) 0.7869(10)
C19 C 0.48834(11) 0.64580(9) 0.84440(7)
C20 C 0.62027(12) 0.74662(10) 0.83278(7)
C21 C 0.68905(13) 0.73195(11) 0.75450(8)
H16 H 0.7792(18) 0.8020(15) 0.7471(11)
C22 C 0.62921(13) 0.61879(12) 0.68737(8)
H17 H 0.6787(17) 0.6097(14) 0.6315(10)
C23 C 0.7959(2) 0.96013(14) 0.89194(12)
H18 H 0.808(2) 1.0267(19) 0.9463(13)
H19 H 0.898(2) 0.9324(18) 0.8910(13)
H20 H 0.768(2) 0.9936(17) 0.8315(13)
C24 C 0.29098(14) 0.56889(10) 0.93556(9)
H21 H 0.3362(17) 0.4987(14) 0.9562(10)
H22 H 0.2097(18) 0.5358(15) 0.8730(11)
C25 C 0.21148(12) 0.62224(10) 1.00868(8)
C26 C 0.26247(13) 0.61967(12) 1.10432(8)
H23 H 0.3532(18) 0.5875(15) 1.1240(11)
C27 C 0.17935(14) 0.65991(13) 1.17039(9)
H24 H 0.2138(19) 0.6535(16) 1.2371(12)
C28 C 0.04560(14) 0.70262(11) 1.14085(10)
H25 H -0.0138(19) 0.7288(16) 1.1863(12)
C29 C -0.00506(14) 0.70739(11) 1.04603(10)
H26 H -0.1030(19) 0.7355(16) 1.0245(11)
C30 C 0.07795(13) 0.66721(11) 0.98031(9)
H27 H 0.0378(18) 0.6677(15) 0.9104(11)
#END
