
#######################################################################
#
#                 Cambridge Crystallographic Data Centre
#                                CCDC
#
#######################################################################
#
# If this CIF has been generated from an entry in the Cambridge
# Structural Database, then it will include bibliographic, chemical,
# crystal, experimental, refinement or atomic coordinate data resulting
# from the CCDC's data processing and validation procedures.
#
#######################################################################

data_CSD_CIF_BEMZEZ
_audit_creation_date 2004-06-01
_audit_creation_method CSD-ConQuest-V1
_database_code_CSD BEMZEZ
_database_code_depnum_ccdc_archive 'CCDC 231849'
_chemical_formula_sum 'C31 H29 N1 O7'
_chemical_formula_moiety
;
C31 H29 N1 O7
;
_journal_coden_Cambridge 1336
_journal_volume 6
_journal_year 2004
_journal_page_first 397
_journal_name_full 'Org.Lett. '
loop_
_publ_author_name
"O.Renaudet"
"J.-L.Reymond"
_chemical_name_systematic
;
4-(4-(4-(Benzyloxy)-3-nitrobenzyloxy)-3-methylbenzyloxy)-3-ethoxybenzaldehyde
;
_cell_volume   1272.242
_exptl_crystal_colour 'colorless'
_exptl_crystal_density_diffrn 1.377
_exptl_special_details
;
low protease inhibition

;
_exptl_crystal_description 'plate'
_diffrn_ambient_temperature 153
#These two values have been output from a single CSD field.
_refine_ls_R_factor_gt 0.0375
_refine_ls_wR_factor_gt 0.0375
_symmetry_cell_setting triclinic
_symmetry_space_group_name_H-M 'P -1'
_symmetry_Int_Tables_number 2
loop_
_symmetry_equiv_pos_site_id
_symmetry_equiv_pos_as_xyz
1 x,y,z
2 -x,-y,-z
_cell_length_a 9.5168(14)
_cell_length_b 10.0609(14)
_cell_length_c 14.103(2)
_cell_angle_alpha 77.431(12)
_cell_angle_beta 77.178(12)
_cell_angle_gamma 79.479(12)
_cell_formula_units_Z 2
loop_
_atom_type_symbol
_atom_type_radius_bond
C 0.68
H 0.23
N 0.68
O 0.68
loop_
_atom_site_label
_atom_site_type_symbol
_atom_site_fract_x
_atom_site_fract_y
_atom_site_fract_z
O1 O 0.97350(13) -0.30530(13) 1.0205(1)
O2 O 0.48420(12) 0.08510(11) 0.80559(8)
O3 O 0.63831(12) 0.15214(11) 0.91217(9)
O4 O 0.12170(11) 0.56169(11) 0.56331(8)
O5 O -0.18110(12) 1.11788(11) 0.35079(9)
O6 O -0.31132(14) 0.84301(14) 0.59501(10)
O7 O -0.35632(16) 1.03995(15) 0.50809(12)
N1 N -0.27613(14) 0.93369(13) 0.52567(10)
C1 C 0.89094(17) -0.32285(18) 0.97143(13)
H1 H 0.8919(19) -0.417(2) 0.9587(14)
C2 C 0.78454(16) -0.21674(16) 0.92834(12)
C3 C 0.76591(17) -0.08098(16) 0.94407(12)
H2 H 0.828(2) -0.0573(19) 0.9833(14)
C4 C 0.66472(16) 0.01758(16) 0.90281(11)
C5 C 0.57925(16) -0.01897(15) 0.84426(11)
C6 C 0.59806(17) -0.15345(16) 0.82946(12)
H3 H 0.539(2) -0.1802(19) 0.7907(14)
C7 C 0.70059(17) -0.25171(16) 0.87130(12)
H4 H 0.716(2) -0.347(2) 0.8591(15)
C8 C 0.39687(18) 0.05284(16) 0.74319(12)
H5 H 0.323(2) -0.0083(19) 0.7863(14)
H6 H 0.4590(19) 0.0060(19) 0.6932(14)
C9 C 0.32239(16) 0.18583(15) 0.69452(11)
C10 C 0.17917(17) 0.23777(16) 0.73044(12)
H7 H 0.127(2) 0.1846(19) 0.7877(14)
C11 C 0.11199(16) 0.36320(16) 0.68619(12)
C12 C 0.19306(16) 0.43823(15) 0.60372(11)
C13 C 0.33585(17) 0.38835(17) 0.56617(12)
H8 H 0.390(2) 0.4388(19) 0.5097(15)
C14 C 0.39857(17) 0.26203(16) 0.61142(12)
H9 H 0.4958(18) 0.2245(17) 0.5871(12)
C15 C -0.04219(19) 0.4190(2) 0.72686(15)
H10 H -0.100(3) 0.446(3) 0.675(2)
H11 H -0.047(3) 0.505(3) 0.7464(19)
H12 H -0.087(3) 0.351(3) 0.778(2)
C16 C 0.20307(18) 0.64685(17) 0.48392(12)
H13 H 0.285(2) 0.6746(19) 0.5077(14)
H14 H 0.250(2) 0.596(2) 0.4280(15)
C17 C 0.10110(16) 0.77063(16) 0.44735(11)
C18 C -0.03973(16) 0.79690(16) 0.49795(12)
H15 H -0.0767(19) 0.7362(19) 0.5577(14)
C19 C -0.13144(15) 0.91342(15) 0.46481(11)
C20 C -0.08550(16) 1.00735(15) 0.37884(11)
C21 C 0.05639(17) 0.97899(16) 0.32797(12)
H16 H 0.090(2) 1.046(2) 0.2699(15)
C22 C 0.14760(17) 0.86286(16) 0.36175(12)
H17 H 0.245(2) 0.8476(19) 0.3250(14)
C23 C -0.13726(18) 1.21842(17) 0.26624(12)
H18 H -0.052(2) 1.257(2) 0.2760(15)
H19 H -0.110(2) 1.174(2) 0.2071(16)
C24 C -0.26582(16) 1.33027(16) 0.25649(11)
C25 C -0.40466(17) 1.31110(17) 0.30825(13)
H20 H -0.420(2) 1.224(2) 0.3524(15)
C26 C -0.52055(18) 1.41603(17) 0.29655(13)
H21 H -0.614(2) 1.400(2) 0.3320(15)
C27 C -0.49817(19) 1.54017(17) 0.23500(13)
H22 H -0.578(2) 1.614(2) 0.2289(15)
C28 C -0.3599(2) 1.55975(17) 0.18329(12)
H23 H -0.346(2) 1.648(2) 0.1383(15)
C29 C -0.24455(19) 1.45510(16) 0.19363(12)
H24 H -0.152(2) 1.4677(19) 0.1602(14)
C30 C 0.71792(19) 0.19225(17) 0.97429(13)
H25 H 0.824(2) 0.1760(18) 0.9485(13)
H26 H 0.7020(19) 0.1297(19) 1.0419(14)
C31 C 0.6646(2) 0.34104(19) 0.97912(15)
H27 H 0.686(2) 0.404(2) 0.9121(18)
H28 H 0.555(2) 0.357(2) 1.0012(16)
H29 H 0.713(2) 0.369(2) 1.0234(17)
#END
