
#######################################################################
#
#                 Cambridge Crystallographic Data Centre
#                                CCDC
#
#######################################################################
#
# If this CIF has been generated from an entry in the Cambridge
# Structural Database, then it will include bibliographic, chemical,
# crystal, experimental, refinement or atomic coordinate data resulting
# from the CCDC's data processing and validation procedures.
#
#######################################################################

data_CSD_CIF_BENHEK
_audit_creation_date 2017-10-18
_audit_creation_method CSD-ConQuest-V1
_database_code_CSD BENHEK
_database_code_depnum_ccdc_archive 'CCDC 1414575'
_chemical_formula_sum 'C15 H11 N1 O3'
_chemical_formula_moiety
;
C15 H11 N1 O3
;
_journal_coden_Cambridge 1268
_journal_volume 21
_journal_year 2016
_journal_page_first 455
_journal_name_full 'Molecules '
loop_
_publ_author_name
"M.Kasprzak"
"M.Fabijanska"
"Lilianna Checinska"
"L.Szmigiero"
"J.Ochocki"
_chemical_name_systematic
;
3-(hydroxyimino)-2-phenyl-2,3-dihydro-4H-chromen-4-one
;
_cell_volume   1164.382
_exptl_crystal_colour 'colorless'
_exptl_crystal_density_diffrn 1.445
_exptl_crystal_description 'plate'
_diffrn_ambient_temperature 100
#These two values have been output from a single CSD field.
_refine_ls_R_factor_gt 0.0452
_refine_ls_wR_factor_gt 0.0452
_symmetry_cell_setting monoclinic
_symmetry_space_group_name_H-M 'P 21/n'
_symmetry_Int_Tables_number 14
loop_
_symmetry_equiv_pos_site_id
_symmetry_equiv_pos_as_xyz
1 x,y,z
2 1/2-x,1/2+y,1/2-z
3 -x,-y,-z
4 -1/2+x,-1/2-y,-1/2+z
_cell_length_a 8.6182(17)
_cell_length_b 5.7715(12)
_cell_length_c 23.4684(47)
_cell_angle_alpha 90
_cell_angle_beta 94.064(30)
_cell_angle_gamma 90
_cell_formula_units_Z 4
loop_
_atom_type_symbol
_atom_type_radius_bond
C 0.68
H 0.23
N 0.68
O 0.68
loop_
_atom_site_label
_atom_site_type_symbol
_atom_site_fract_x
_atom_site_fract_y
_atom_site_fract_z
O1 O 0.07285(12) 0.22877(19) 0.11868(5)
O2 O 0.18496(13) 0.7915(2) 0.02073(4)
O3 O 0.48309(13) 0.2590(2) 0.04320(5)
N1 N 0.38333(14) 0.4433(2) 0.03378(5)
C1 C -0.28063(17) 0.5577(3) 0.12519(6)
H1 H -0.37580 0.54180 0.14120
C2 C -0.25170(18) 0.7558(3) 0.09335(6)
H2 H -0.32700 0.87070 0.08810
C3 C -0.11032(17) 0.7793(3) 0.06981(6)
H3 H -0.09070 0.91060 0.04850
C4 C -0.17050(17) 0.3860(3) 0.13328(6)
H4 H -0.19150 0.25470 0.15440
C5 C -0.02693(16) 0.4097(3) 0.10962(6)
C6 C 0.00402(17) 0.6071(3) 0.07765(6)
C7 C 0.15190(17) 0.6288(3) 0.05096(6)
C8 C 0.26196(16) 0.4339(3) 0.06250(6)
C9 C 0.23320(16) 0.2450(3) 0.10456(6)
H5 H 0.26060 0.09740 0.08720
C10 C 0.33590(15) 0.2728(2) 0.15918(6)
C11 C 0.32392(16) 0.4693(2) 0.19326(6)
H6 H 0.25340 0.58540 0.18210
C12 C 0.41688(17) 0.4919(3) 0.24370(6)
H7 H 0.40820 0.62290 0.26640
C13 C 0.52263(17) 0.3195(3) 0.26033(6)
H8 H 0.58490 0.33470 0.29410
C14 C 0.53540(18) 0.1243(3) 0.22648(7)
H9 H 0.60650 0.00880 0.23750
C15 C 0.44204(17) 0.1012(3) 0.17609(6)
H10 H 0.45070 -0.03010 0.15360
H11 H 0.561(3) 0.305(4) 0.0179(10)
#END
