
#######################################################################
#
#                 Cambridge Crystallographic Data Centre
#                                CCDC
#
#######################################################################
#
# If this CIF has been generated from an entry in the Cambridge
# Structural Database, then it will include bibliographic, chemical,
# crystal, experimental, refinement or atomic coordinate data resulting
# from the CCDC's data processing and validation procedures.
#
#######################################################################

data_CSD_CIF_BENJEM
_audit_creation_date 2017-10-18
_audit_creation_method CSD-ConQuest-V1
_database_code_CSD BENJEM
_database_code_depnum_ccdc_archive 'CCDC 1448658'
_chemical_formula_sum 'C23 H36 N4 O4'
_chemical_formula_moiety
;
C23 H36 N4 O4
;
_journal_coden_Cambridge 1220
_journal_volume 22
_journal_year 2016
_journal_page_first 8137
_journal_name_full 'Chem.-Eur.J. '
loop_
_publ_author_name
"R.Callejo"
"M.J.Corr"
"Mingyan Yang"
"Mingan Wang"
"D.B.Cordes"
"A.M.Z.Slawin"
"D.O'Hagan"
_chemical_name_systematic
;
1-cycloheptadecylidene-2-(2,4-dinitrophenyl)hydrazine
;
_cell_volume   2324.430
_exptl_crystal_colour 'yellow'
_exptl_crystal_density_diffrn 1.236
_exptl_crystal_description 'platelet'
_diffrn_ambient_temperature 125
#These two values have been output from a single CSD field.
_refine_ls_R_factor_gt 0.0527
_refine_ls_wR_factor_gt 0.0527
_symmetry_cell_setting triclinic
_symmetry_space_group_name_H-M 'P -1'
_symmetry_Int_Tables_number 2
loop_
_symmetry_equiv_pos_site_id
_symmetry_equiv_pos_as_xyz
1 x,y,z
2 -x,-y,-z
_cell_length_a 11.0454(18)
_cell_length_b 11.673(2)
_cell_length_c 18.277(3)
_cell_angle_alpha 94.338(8)
_cell_angle_beta 98.091(6)
_cell_angle_gamma 91.698(7)
_cell_formula_units_Z 4
loop_
_atom_type_symbol
_atom_type_radius_bond
C 0.68
H 0.23
N 0.68
O 0.68
loop_
_atom_site_label
_atom_site_type_symbol
_atom_site_fract_x
_atom_site_fract_y
_atom_site_fract_z
O1 O 0.25625(11) 1.10236(9) 0.51431(6)
O2 O 0.23139(13) 1.02724(11) 0.61569(7)
O3 O 0.38209(15) 0.66882(13) 0.67684(8)
O4 O 0.44541(13) 0.55437(12) 0.59222(9)
N1 N 0.41683(11) 0.97112(11) 0.34928(7)
N2 N 0.36553(11) 0.99005(11) 0.41437(7)
N3 N 0.26963(12) 1.02326(11) 0.55579(7)
N4 N 0.41184(13) 0.64803(14) 0.61486(10)
C1 C 0.39337(13) 1.04432(14) 0.30081(8)
C2 C 0.31127(14) 1.14377(14) 0.30724(9)
H1 H 0.32820 1.20020 0.27180
H2 H 0.32870 1.18250 0.35790
C3 C 0.17564(14) 1.10313(13) 0.29110(9)
H3 H 0.15850 1.06580 0.24010
H4 H 0.16000 1.04490 0.32570
C4 C 0.08929(15) 1.19990(14) 0.29878(10)
H5 H 0.10140 1.25580 0.26200
H6 H 0.10970 1.24030 0.34880
C5 C -0.04503(15) 1.15853(15) 0.28733(9)
H7 H -0.05620 1.10220 0.32390
H8 H -0.09540 1.22490 0.29780
C6 C -0.09320(15) 1.10330(14) 0.21034(9)
H9 H -0.07220 1.15430 0.17270
H10 H -0.05320 1.02950 0.20230
C7 C -0.23078(15) 1.08158(16) 0.20048(9)
H11 H -0.26880 1.15530 0.21200
H12 H -0.24980 1.02860 0.23750
C8 C -0.29117(15) 1.03122(16) 0.12399(9)
H13 H -0.37330 1.06320 0.11380
H14 H -0.24240 1.05780 0.08660
C9 C -0.30538(17) 0.90210(17) 0.11336(10)
H15 H -0.36150 0.88140 0.06670
H16 H -0.34560 0.87520 0.15440
C10 C -0.18925(16) 0.83633(15) 0.11023(9)
H17 H -0.21020 0.75290 0.10750
H18 H -0.13250 0.85620 0.15670
C11 C -0.12379(16) 0.86101(15) 0.04462(9)
H19 H -0.08570 0.93960 0.05340
H20 H -0.18500 0.85900 -0.00060
C12 C -0.02537(17) 0.77616(16) 0.03129(10)
H21 H 0.00410 0.79080 -0.01600
H22 H -0.06290 0.69730 0.02560
C13 C 0.08483(16) 0.78145(15) 0.09266(10)
H23 H 0.05460 0.77660 0.14090
H24 H 0.13420 0.71340 0.08460
C14 C 0.16701(15) 0.88861(14) 0.09718(8)
H25 H 0.11790 0.95670 0.10550
H26 H 0.19720 0.89370 0.04900
C15 C 0.27655(15) 0.89274(14) 0.15825(8)
H27 H 0.32630 0.82510 0.15000
H28 H 0.24690 0.88810 0.20660
C16 C 0.35705(15) 1.00202(15) 0.16106(9)
H29 H 0.30370 1.06860 0.15720
H30 H 0.40100 0.99770 0.11740
C17 C 0.45125(15) 1.02364(16) 0.23131(9)
H31 H 0.50350 0.95640 0.23620
H32 H 0.50460 1.09130 0.22610
C18 C 0.37814(13) 0.90989(13) 0.46418(8)
C19 C 0.33317(13) 0.92298(13) 0.53338(8)
C20 C 0.34642(14) 0.83787(14) 0.58314(9)
H33 H 0.31640 0.84790 0.62930
C21 C 0.40348(14) 0.73950(14) 0.56434(10)
C22 C 0.44929(14) 0.72284(14) 0.49702(10)
H34 H 0.48890 0.65410 0.48520
C23 C 0.43657(14) 0.80638(14) 0.44840(9)
H35 H 0.46780 0.79470 0.40270
H36 H 0.3258(15) 1.0622(9) 0.4230(11)
O5 O 0.25805(11) 0.36182(10) 0.47027(6)
O6 O 0.26852(13) 0.44345(11) 0.36917(7)
O7 O 0.10814(15) 0.80665(12) 0.32558(7)
O8 O 0.05901(12) 0.91509(11) 0.41766(8)
N5 N 0.12168(11) 0.48193(11) 0.64725(6)
N6 N 0.15823(11) 0.46484(11) 0.57779(6)
N7 N 0.23858(12) 0.44339(12) 0.43141(7)
N8 N 0.08907(13) 0.82312(13) 0.39031(8)
C24 C 0.14319(13) 0.40082(13) 0.69028(8)
C25 C 0.20390(14) 0.29019(13) 0.67314(8)
H37 H 0.16560 0.25580 0.62380
H38 H 0.18840 0.23590 0.71020
C26 C 0.34302(14) 0.30397(14) 0.67319(8)
H39 H 0.37620 0.22650 0.66730
H40 H 0.35750 0.34480 0.62950
C27 C 0.41434(14) 0.36845(13) 0.74220(8)
H41 H 0.38660 0.44820 0.74640
H42 H 0.39650 0.33100 0.78660
C28 C 0.55193(15) 0.37133(15) 0.74068(9)
H43 H 0.56890 0.40550 0.69510
H44 H 0.57970 0.29140 0.73830
C29 C 0.62604(16) 0.43942(15) 0.80769(10)
H45 H 0.59440 0.41820 0.85310
H46 H 0.71220 0.41680 0.81140
C30 C 0.62284(16) 0.56919(15) 0.80497(9)
H47 H 0.53660 0.59110 0.79450
H48 H 0.66520 0.59190 0.76370
C31 C 0.68344(16) 0.63574(16) 0.87753(11)
H49 H 0.75960 0.59800 0.89600
H50 H 0.70630 0.71480 0.86690
C32 C 0.60136(16) 0.64253(16) 0.93838(9)
H51 H 0.55870 0.56680 0.93850
H52 H 0.65360 0.65820 0.98700
C33 C 0.50684(16) 0.73342(15) 0.93029(10)
H53 H 0.45550 0.71920 0.88130
H54 H 0.54910 0.80980 0.93190
C34 C 0.42422(17) 0.73511(17) 0.99094(10)
H55 H 0.47630 0.73380 1.03960
H56 H 0.38110 0.80830 0.99120
C35 C 0.32982(17) 0.63622(16) 0.98252(9)
H57 H 0.37180 0.56360 0.97420
H58 H 0.29620 0.63330 1.02980
C36 C 0.22387(16) 0.64141(14) 0.92038(9)
H59 H 0.25500 0.63350 0.87210
H60 H 0.18670 0.71730 0.92490
C37 C 0.12657(16) 0.54726(14) 0.92205(8)
H61 H 0.09770 0.55480 0.97100
H62 H 0.16470 0.47190 0.91740
C38 C 0.01601(15) 0.54763(15) 0.86187(9)
H63 H -0.02510 0.62120 0.86830
H64 H -0.04260 0.48500 0.86890
C39 C 0.04568(15) 0.53259(14) 0.78242(8)
H65 H -0.03070 0.53690 0.74740
H66 H 0.10200 0.59650 0.77440
C40 C 0.10402(15) 0.41915(13) 0.76575(8)
H67 H 0.17660 0.41310 0.80350
H68 H 0.04510 0.35590 0.77130
C41 C 0.14014(13) 0.54870(13) 0.53100(8)
C42 C 0.17745(13) 0.54211(13) 0.45946(8)
C43 C 0.15917(14) 0.63123(14) 0.41336(8)
H69 H 0.18460 0.62530 0.36570
C44 C 0.10409(14) 0.72763(14) 0.43748(9)
C45 C 0.06351(14) 0.73792(14) 0.50693(9)
H70 H 0.02450 0.80520 0.52240
C46 C 0.08084(13) 0.65000(13) 0.55214(8)
H71 H 0.05250 0.65670 0.59890
H72 H 0.1990(16) 0.3955(10) 0.5638(11)
#END
