
#######################################################################
#
#                 Cambridge Crystallographic Data Centre
#                                CCDC
#
#######################################################################
#
# If this CIF has been generated from an entry in the Cambridge
# Structural Database, then it will include bibliographic, chemical,
# crystal, experimental, refinement or atomic coordinate data resulting
# from the CCDC's data processing and validation procedures.
#
#######################################################################

data_CSD_CIF_BENVIA
_audit_creation_date 2004-06-01
_audit_creation_method CSD-ConQuest-V1
_database_code_CSD BENVIA
_database_code_depnum_ccdc_archive 'CCDC 232083'
_chemical_formula_sum 'C16 H24 N2 O8'
_chemical_formula_moiety
;
C16 H24 N2 O8
;
_journal_coden_Cambridge 35
_journal_volume 69
_journal_year 2004
_journal_page_first 475
_journal_name_full 'J.Org.Chem. '
loop_
_publ_author_name
"S.Shimono"
"R.Tamura"
"N.Ikuma"
"T.Takimoto"
"N.Kawame"
"O.Tamada"
"N.Sakai"
"H.Matsuura"
"J.Yamauchi"
_chemical_name_systematic
;
2,3-Dimethyl-2,3-dinitro-n-butyl 
4,7,7-trimethyl-3-oxo-2-oxabicyclo(2.2.1)heptane-1-carboxylate
;
_chemical_melting_point 438.25
_cell_volume    922.268
_exptl_crystal_colour 'yellow'
_exptl_crystal_density_diffrn 1.341
_exptl_crystal_description 'prism'
_diffrn_ambient_temperature 298
#These two values have been output from a single CSD field.
_refine_ls_R_factor_gt 0.0631
_refine_ls_wR_factor_gt 0.0631
_symmetry_cell_setting monoclinic
_symmetry_space_group_name_H-M 'P 21'
_symmetry_Int_Tables_number 4
loop_
_symmetry_equiv_pos_site_id
_symmetry_equiv_pos_as_xyz
1 x,y,z
2 -x,1/2+y,-z
_cell_length_a 6.3253(4)
_cell_length_b 13.884(1)
_cell_length_c 10.506(1)
_cell_angle_alpha 90
_cell_angle_beta 91.630(5)
_cell_angle_gamma 90
_cell_formula_units_Z 2
loop_
_atom_type_symbol
_atom_type_radius_bond
C 0.68
H 0.23
N 0.68
O 0.68
loop_
_atom_site_label
_atom_site_type_symbol
_atom_site_fract_x
_atom_site_fract_y
_atom_site_fract_z
O1 O -0.0706(5) -0.0380(3) 0.0918(4)
O2 O 0.1798(5) 0.1563(3) 0.2549(4)
O3 O -0.1037(7) 0.3708(4) 0.5035(5)
O4 O -0.0633(7) 0.2788(4) 0.6641(5)
O5 O -0.1301(7) -0.1509(4) -0.0559(5)
O6 O -0.1626(6) 0.1332(5) 0.2025(5)
O7 O 0.3357(10) 0.0887(5) 0.5791(7)
O8 O 0.0196(8) 0.1134(4) 0.5154(7)
N1 N 0.2052(8) 0.1356(4) 0.5213(5)
N2 N 0.0062(7) 0.3223(4) 0.5747(5)
C1 C 0.1041(7) 0.0288(4) 0.1182(5)
C2 C 0.2424(7) 0.3136(4) 0.5485(5)
C3 C 0.5025(8) 0.2179(6) 0.4189(7)
C4 C 0.3465(10) -0.0928(5) 0.0625(6)
C5 C 0.3861(9) 0.1082(5) -0.0211(6)
C6 C 0.2007(8) -0.0566(4) -0.0481(5)
C7 C 0.1795(8) 0.0518(5) -0.0180(5)
C8 C 0.2832(9) -0.0314(5) 0.1760(5)
C9 C 0.0101(10) 0.1031(5) -0.1001(6)
C10 C -0.0137(10) -0.0907(5) -0.0114(7)
C11 C 0.0192(8) 0.1094(5) 0.1940(5)
C12 C 0.2732(8) 0.2279(4) 0.4540(5)
C13 C 0.3561(9) 0.2979(6) 0.6773(6)
C14 C 0.1314(10) 0.2373(5) 0.3348(6)
C15 C 0.3100(11) 0.4092(5) 0.4894(8)
C16 C 0.2669(11) -0.0875(6) -0.1783(6)
H1 H 0.58870 0.21040 0.49500
H2 H 0.54590 0.27450 0.37420
H3 H 0.51850 0.16250 0.36540
H4 H 0.32290 -0.16070 0.07890
H5 H 0.49420 -0.08310 0.04360
H6 H 0.48930 0.07840 0.03490
H7 H 0.36210 0.17320 0.00600
H8 H 0.43710 0.10850 -0.10630
H9 H 0.23490 -0.07110 0.24540
H10 H 0.39950 0.00870 0.20650
H11 H -0.00130 0.16890 -0.07310
H12 H -0.12340 0.07130 -0.09080
H13 H 0.04890 0.10110 -0.18770
H14 H 0.30880 0.23870 0.71400
H15 H 0.32510 0.35040 0.73320
H16 H 0.50590 0.29480 0.66550
H17 H -0.01640 0.23620 0.35700
H18 H 0.15980 0.29730 0.29110
H19 H 0.22950 0.42010 0.41190
H20 H 0.45780 0.40670 0.47130
H21 H 0.28510 0.46080 0.54800
H22 H 0.41140 -0.06930 -0.19010
H23 H 0.17810 -0.05690 -0.24190
H24 H 0.25350 -0.15620 -0.18590
#END
