
#######################################################################
#
#                 Cambridge Crystallographic Data Centre
#                                CCDC
#
#######################################################################
#
# If this CIF has been generated from an entry in the Cambridge
# Structural Database, then it will include bibliographic, chemical,
# crystal, experimental, refinement or atomic coordinate data resulting
# from the CCDC's data processing and validation procedures.
#
#######################################################################

data_CSD_CIF_BENVEW
_audit_creation_date 2004-06-01
_audit_creation_method CSD-ConQuest-V1
_database_code_CSD BENVEW
_database_code_depnum_ccdc_archive 'CCDC 232082'
_chemical_formula_sum 'C6 H12 N2 O5'
_chemical_formula_moiety
;
C6 H12 N2 O5
;
_journal_coden_Cambridge 35
_journal_volume 69
_journal_year 2004
_journal_page_first 475
_journal_name_full 'J.Org.Chem. '
loop_
_publ_author_name
"S.Shimono"
"R.Tamura"
"N.Ikuma"
"T.Takimoto"
"N.Kawame"
"O.Tamada"
"N.Sakai"
"H.Matsuura"
"J.Yamauchi"
_chemical_name_systematic
;
(+-)-2,3-Dimethyl-2,3-dinitrobutanol
;
_cell_volume   2693.283
_exptl_crystal_colour 'yellow'
_exptl_crystal_density_diffrn 1.422
_exptl_crystal_description 'prism'
_diffrn_ambient_temperature 298
#These two values have been output from a single CSD field.
_refine_ls_R_factor_gt 0.0789
_refine_ls_wR_factor_gt 0.0789
_symmetry_cell_setting monoclinic
_symmetry_space_group_name_H-M 'P 21/n'
_symmetry_Int_Tables_number 14
loop_
_symmetry_equiv_pos_site_id
_symmetry_equiv_pos_as_xyz
1 x,y,z
2 1/2+x,1/2-y,1/2+z
3 -x,-y,-z
4 -1/2-x,-1/2+y,-1/2-z
_cell_length_a 6.3512(2)
_cell_length_b 19.182(1)
_cell_length_c 22.1160(9)
_cell_angle_alpha 90
_cell_angle_beta 91.623(3)
_cell_angle_gamma 90
_cell_formula_units_Z 12
loop_
_atom_type_symbol
_atom_type_radius_bond
C 0.68
H 0.23
N 0.68
O 0.68
loop_
_atom_site_label
_atom_site_type_symbol
_atom_site_fract_x
_atom_site_fract_y
_atom_site_fract_z
N1 N 0.9891(4) 0.18012(14) 0.38432(11)
N2 N 0.8794(4) 0.04973(12) 0.43881(10)
O1 O 0.6166(4) 0.19148(14) 0.30559(11)
O2 O 1.0685(4) 0.04189(13) 0.44461(11)
N3 N 0.3969(4) 0.28297(13) 0.59292(12)
O3 O 1.0547(4) 0.13830(15) 0.34775(12)
O4 O 0.7534(4) 0.75595(12) 0.74376(13)
O5 O 0.7631(4) 0.00595(12) 0.41644(12)
O6 O 0.3933(4) 0.32525(15) 0.71652(11)
C1 C 0.2831(4) 0.34935(14) 0.61320(12)
O7 O 1.0939(4) 0.22768(16) 0.40491(13)
O8 O 0.6024(4) 0.46438(18) 0.57285(15)
N4 N 1.0345(4) 0.64604(15) 0.73346(17)
C2 C 0.7634(4) 0.16972(13) 0.40665(11)
O9 O 0.5848(4) 0.28010(14) 0.59820(14)
C3 C 0.7810(4) 0.11830(13) 0.46168(11)
C4 C 0.7982(4) 0.63073(14) 0.73852(12)
N5 N 0.8880(4) 0.50388(13) 0.74360(13)
N6 N 0.5138(4) 0.41928(17) 0.54545(14)
O10 O 1.0750(4) 0.49996(15) 0.74888(16)
O11 O 1.1155(5) 0.6326(2) 0.68593(18)
O12 O 0.5953(5) 0.38509(19) 0.50602(16)
C5 C 0.4043(5) 0.37485(16) 0.66980(13)
C6 C 0.2808(4) 0.40228(16) 0.55964(13)
C7 C 0.7742(4) 0.56255(15) 0.77655(13)
C8 C 0.9237(5) 0.14440(18) 0.51325(14)
C9 C 0.5640(5) 0.10042(19) 0.48522(15)
C10 C 0.6314(5) 0.14152(16) 0.35276(13)
O13 O 1.1284(4) 0.66941(16) 0.77734(19)
C11 C 0.0598(5) 0.3290(2) 0.62915(17)
O14 O 0.2947(5) 0.23614(16) 0.5715(2)
C12 C 0.7051(5) 0.69258(16) 0.77158(15)
C13 C 0.1792(6) 0.47104(18) 0.57733(18)
C14 C 0.8728(8) 0.5644(2) 0.83981(16)
C15 C 0.6818(6) 0.24032(17) 0.42620(17)
O15 O 0.7921(6) 0.4646(2) 0.7129(3)
C16 C 0.7018(7) 0.6253(2) 0.67505(15)
C17 C 0.1782(7) 0.3745(3) 0.50197(16)
C18 C 0.5423(5) 0.5424(2) 0.7798(2)
H1 H 0.70840 0.18400 0.28110
H2 H 0.65770 0.76670 0.71990
H3 H 0.50990 0.30790 0.72270
H4 H 0.55040 0.38290 0.66020
H5 H 0.34510 0.41870 0.68310
H6 H 1.05720 0.15790 0.49770
H7 H 0.94440 0.10790 0.54250
H8 H 0.85950 0.18380 0.53210
H9 H 0.57860 0.06660 0.51700
H10 H 0.47750 0.08160 0.45290
H11 H 0.49950 0.14180 0.50060
H12 H 0.69560 0.09930 0.33780
H13 H 0.49120 0.12990 0.36590
H14 H -0.01460 0.31270 0.59350
H15 H -0.01150 0.36880 0.64510
H16 H 0.06470 0.29260 0.65900
H17 H 0.55330 0.68740 0.77250
H18 H 0.75940 0.69310 0.81300
H19 H 0.03420 0.46320 0.58650
H20 H 0.18710 0.50340 0.54440
H21 H 0.25210 0.48980 0.61230
H22 H 1.01690 0.57910 0.83780
H23 H 0.86720 0.51870 0.85740
H24 H 0.79660 0.59660 0.86430
H25 H 0.54030 0.23550 0.43980
H26 H 0.68340 0.27200 0.39260
H27 H 0.77010 0.25810 0.45860
H28 H 0.75790 0.58510 0.65520
H29 H 0.73490 0.66650 0.65260
H30 H 0.55170 0.62080 0.67730
H31 H 0.24420 0.33140 0.49110
H32 H 0.19420 0.40780 0.47000
H33 H 0.03110 0.36660 0.50810
H34 H 0.47080 0.57540 0.80470
H35 H 0.53090 0.49670 0.79710
H36 H 0.47930 0.54260 0.73990
#END
