
#######################################################################
#
#                 Cambridge Crystallographic Data Centre
#                                CCDC
#
#######################################################################
#
# If this CIF has been generated from an entry in the Cambridge
# Structural Database, then it will include bibliographic, chemical,
# crystal, experimental, refinement or atomic coordinate data resulting
# from the CCDC's data processing and validation procedures.
#
#######################################################################

data_CSD_CIF_BENZEB
_audit_creation_date 2013-05-17
_audit_creation_method CSD-ConQuest-V1
_database_code_CSD BENZEB
_database_code_depnum_ccdc_archive 'CCDC 918701'
_chemical_formula_sum 'C17 H19 N1 O6'
_chemical_formula_moiety
;
C17 H19 N1 O6
;
_journal_coden_Cambridge 1220
_journal_volume 19
_journal_year 2013
_journal_page_first 6766
_journal_name_full 'Chem.-Eur.J. '
loop_
_publ_author_name
"Peng Wang"
"Lin Ling"
"Sai-Hu Liao"
"Jian-Bo Zhu"
"S.R.Wang"
"Yu-Xue Li"
"Yong Tang"
_chemical_name_systematic
;
4-Isopropyl 1-methyl 2-(3-(4-nitrophenyl)prop-2-en-1-ylidene)succinate
;
_cell_volume    871.426
_exptl_crystal_colour 'green'
_exptl_crystal_density_diffrn 1.27
_exptl_crystal_description 'prismatic'
_diffrn_ambient_temperature 293
#These two values have been output from a single CSD field.
_refine_ls_R_factor_gt 0.0536
_refine_ls_wR_factor_gt 0.0536
_symmetry_cell_setting triclinic
_symmetry_space_group_name_H-M 'P -1'
_symmetry_Int_Tables_number 2
loop_
_symmetry_equiv_pos_site_id
_symmetry_equiv_pos_as_xyz
1 x,y,z
2 -x,-y,-z
_cell_length_a 7.9346(11)
_cell_length_b 8.2991(12)
_cell_length_c 14.449(2)
_cell_angle_alpha 90.787(3)
_cell_angle_beta 97.943(3)
_cell_angle_gamma 112.011(2)
_cell_formula_units_Z 2
loop_
_atom_type_symbol
_atom_type_radius_bond
C 0.68
H 0.23
N 0.68
O 0.68
loop_
_atom_site_label
_atom_site_type_symbol
_atom_site_fract_x
_atom_site_fract_y
_atom_site_fract_z
N1 N -0.1043(3) 0.0086(3) 0.71133(16)
O1 O 1.0592(2) 0.4269(2) 0.35265(12)
O2 O 0.9545(2) 0.5108(2) 0.21912(11)
O3 O 0.5801(2) 0.1649(2) 0.16977(11)
O4 O 0.4329(2) 0.32653(17) 0.10296(9)
O5 O -0.1056(3) -0.0789(3) 0.77792(17)
O6 O -0.2329(3) 0.0479(3) 0.68193(16)
C1 C 0.5265(3) 0.2389(3) 0.53033(15)
H1 H 0.63000 0.22840 0.56420
C2 C 0.5470(3) 0.3031(3) 0.44742(15)
H2 H 0.44710 0.31780 0.41220
C3 C 0.7156(3) 0.3515(3) 0.40888(15)
H3 H 0.81490 0.34320 0.44800
C4 C 0.7481(3) 0.4065(3) 0.32474(14)
C5 C 0.6060(3) 0.4282(3) 0.25109(13)
H4 H 0.50110 0.42430 0.27980
H5 H 0.65750 0.54180 0.22670
C6 C 0.3624(3) 0.1825(3) 0.57530(14)
C7 C 0.2082(3) 0.2190(3) 0.54291(15)
H6 H 0.20790 0.28210 0.49020
C8 C 0.0576(3) 0.1640(3) 0.58699(16)
H7 H -0.04490 0.18920 0.56480
C9 C 0.0592(3) 0.0703(3) 0.66507(15)
C10 C 0.2065(3) 0.0298(3) 0.69899(15)
H8 H 0.20420 -0.03550 0.75090
C11 C 0.3581(3) 0.0877(3) 0.65459(15)
H9 H 0.46060 0.06330 0.67790
C12 C 0.9360(4) 0.4473(3) 0.30295(16)
C13 C 1.1304(4) 0.5500(4) 0.1889(2)
H10 H 1.22520 0.63180 0.23400
H11 H 1.12970 0.59950 0.12930
H12 H 1.15330 0.44490 0.18330
C14 C 0.5415(3) 0.2904(3) 0.17137(14)
C15 C 0.3546(4) 0.2002(3) 0.02144(18)
H13 H 0.31950 0.08170 0.04220
C16 C 0.4964(4) 0.2308(4) -0.04246(19)
H14 H 0.52870 0.34600 -0.06370
H15 H 0.44690 0.14680 -0.09540
H16 H 0.60400 0.21900 -0.00910
C17 C 0.1843(4) 0.2290(4) -0.0219(2)
H17 H 0.10280 0.21310 0.02350
H18 H 0.12300 0.14700 -0.07500
H19 H 0.21890 0.34540 -0.04190
#END
