
#######################################################################
#
#                 Cambridge Crystallographic Data Centre
#                                CCDC
#
#######################################################################
#
# If this CIF has been generated from an entry in the Cambridge
# Structural Database, then it will include bibliographic, chemical,
# crystal, experimental, refinement or atomic coordinate data resulting
# from the CCDC's data processing and validation procedures.
#
#######################################################################

data_CSD_CIF_BENZOK
_audit_creation_date 2004-06-01
_audit_creation_method CSD-ConQuest-V1
_database_code_CSD BENZOK
_database_code_depnum_ccdc_archive 'CCDC 185047'
_chemical_formula_sum 'C6 H7 N3 O2'
_chemical_formula_moiety
;
C6 H7 N3 O2
;
_journal_coden_Cambridge 731
_journal_volume 41
_journal_year 2003
_journal_page_first 721
_journal_name_full 'Magn.Reson.Chem. '
loop_
_publ_author_name
"K.Laihia"
"E.Kolehmainen"
"E.Virtanen"
"M.Nissinen"
"A.Puszko"
"Z.Talik"
_chemical_name_systematic
;
4-Methyl-2-nitriminopyridine
;
_cell_volume    334.113
_exptl_crystal_colour 'colorless'
_exptl_crystal_density_diffrn 1.522
_exptl_special_details
;
Only the imino tautomer exists in the crystalline state

;
_exptl_crystal_description 'plate'
_exptl_crystal_preparation 'deutero DMSO'
_diffrn_ambient_temperature 173.0
#These two values have been output from a single CSD field.
_refine_ls_R_factor_gt 0.0484
_refine_ls_wR_factor_gt 0.0484
_symmetry_cell_setting triclinic
_symmetry_space_group_name_H-M 'P -1'
_symmetry_Int_Tables_number 2
loop_
_symmetry_equiv_pos_site_id
_symmetry_equiv_pos_as_xyz
1 x,y,z
2 -x,-y,-z
_cell_length_a 7.0275(4)
_cell_length_b 6.8034(3)
_cell_length_c 8.6086(5)
_cell_angle_alpha 103.620(2)
_cell_angle_beta 90.309(2)
_cell_angle_gamma 122.215(3)
_cell_formula_units_Z 2
loop_
_atom_type_symbol
_atom_type_radius_bond
C 0.68
H 0.23
N 0.68
O 0.68
loop_
_atom_site_label
_atom_site_type_symbol
_atom_site_fract_x
_atom_site_fract_y
_atom_site_fract_z
C1 C 0.1807(3) 0.3087(4) 0.4530(3)
C2 C 0.2922(3) 0.1871(4) 0.4177(3)
H1 H 0.330(4) 0.140(4) 0.504(3)
C3 C 0.3376(4) 0.1307(4) 0.2635(3)
C4 C 0.2731(4) 0.1983(4) 0.1416(3)
H2 H 0.305(4) 0.165(5) 0.042(3)
C5 C 0.1640(4) 0.3147(4) 0.1778(3)
H3 H 0.111(4) 0.360(4) 0.097(3)
C6 C 0.4564(5) -0.0008(5) 0.2269(4)
H4 H 0.471(5) -0.058(5) 0.318(4)
H5 H 0.372(5) -0.143(6) 0.138(4)
H6 H 0.600(5) 0.100(6) 0.198(4)
N1 N 0.1199(3) 0.3661(3) 0.3284(2)
H7 H 0.044(4) 0.443(5) 0.348(3)
N2 N 0.1189(3) 0.3901(3) 0.5922(2)
N3 N 0.1660(3) 0.3545(3) 0.7302(2)
O1 O 0.1127(3) 0.4462(3) 0.85091(19)
O2 O 0.2532(3) 0.2393(3) 0.74065(19)
#END
