
#######################################################################
#
#                 Cambridge Crystallographic Data Centre
#                                CCDC
#
#######################################################################
#
# If this CIF has been generated from an entry in the Cambridge
# Structural Database, then it will include bibliographic, chemical,
# crystal, experimental, refinement or atomic coordinate data resulting
# from the CCDC's data processing and validation procedures.
#
#######################################################################

data_CSD_CIF_BEOXAZ
_audit_creation_date 1971-12-31
_audit_creation_method CSD-ConQuest-V1
_database_code_CSD BEOXAZ
_chemical_formula_sum 'C6 H4 N2 O1'
_chemical_formula_moiety
;
C6 H4 N2 O1
;
_journal_coeditor_code "IUCr A00415"
_journal_coden_Cambridge 1
_journal_volume 4
_journal_year 1951
_journal_page_first 193
_journal_name_full 'Acta Crystallogr. '
loop_
_publ_author_name
"V.Luzzati"
_chemical_name_systematic
;
Benzo-2,1,3-oxadiazole
;
_chemical_name_common
;
Benzofurazan
;
_cell_volume    276.595
_exptl_crystal_density_diffrn 1.43
_exptl_special_details
;
Average bond lengths given in paper. Bond angle beta should be 64.25 not 
115.75
;
_diffrn_ambient_temperature ?
_diffrn_special_details
;
The study was carried out at room temperature,in the range 283-303K

;
#These two values have been output from a single CSD field.
_refine_ls_R_factor_gt 0.22
_refine_ls_wR_factor_gt 0.22
_symmetry_cell_setting monoclinic
_symmetry_space_group_name_H-M 'P a'
_symmetry_Int_Tables_number 7
loop_
_symmetry_equiv_pos_site_id
_symmetry_equiv_pos_as_xyz
1 x,y,z
2 1/2+x,-y,z
_cell_length_a 13.46(3)
_cell_length_b 5.85(2)
_cell_length_c 3.90(2)
_cell_angle_alpha 90
_cell_angle_beta 64.25(8)
_cell_angle_gamma 90
_cell_formula_units_Z 2
loop_
_atom_type_symbol
_atom_type_radius_bond
C 0.72
N 0.68
O 0.68
loop_
_atom_site_label
_atom_site_type_symbol
_atom_site_fract_x
_atom_site_fract_y
_atom_site_fract_z
O1 O 0.00200 0.39000 -0.00300
N1 N 0.00700 0.21100 0.13500
N2 N 0.08900 0.48700 -0.14200
C1 C 0.10800 0.16200 0.09500
C2 C 0.16100 -0.01700 0.20900
C3 C 0.27400 0.00600 0.10200
C4 C 0.33300 0.20500 -0.09300
C5 C 0.28100 0.38500 -0.19500
C6 C 0.16600 0.36500 -0.09900
#END
