
#######################################################################
#
#                 Cambridge Crystallographic Data Centre
#                                CCDC
#
#######################################################################
#
# If this CIF has been generated from an entry in the Cambridge
# Structural Database, then it will include bibliographic, chemical,
# crystal, experimental, refinement or atomic coordinate data resulting
# from the CCDC's data processing and validation procedures.
#
#######################################################################

data_CSD_CIF_BEQCUW
_audit_creation_date 2004-09-14
_audit_creation_method CSD-ConQuest-V1
_database_code_CSD BEQCUW
_database_code_depnum_ccdc_archive 'CCDC 230718'
_chemical_formula_sum 'C13 H17 N3 O1'
_chemical_formula_moiety
;
C13 H17 N3 O1
;
_journal_coden_Cambridge 177
_journal_volume 2
_journal_year 2004
_journal_page_first 1258
_journal_name_full 'Org.Biomol.Chem. '
loop_
_publ_author_name
"H.T.Horsley"
"A.B.Holmes"
"J.E.Davies"
"J.M.Goodman"
"M.A.Silva"
"S.I.Pascu"
"I.Collins"
_chemical_name_systematic
;
(1S,5S,6R,9S)/(1R,5R,6S,9R)-9-Cyanomethyl-6-cyano-8-aza-7-oxatricyclo(6.4.0.0^
1,5^)dodecane
;
_chemical_melting_point 349.15
_cell_volume   1196.893
_exptl_crystal_colour 'colorless'
_exptl_crystal_density_diffrn 1.284
_exptl_special_details
;
Melting point range 349.15-350.15K

;
_exptl_crystal_description 'plates'
_exptl_crystal_preparation 'hexane/ether'
_diffrn_ambient_temperature 180
#These two values have been output from a single CSD field.
_refine_ls_R_factor_gt 0.0603
_refine_ls_wR_factor_gt 0.0603
loop_
_citation_database_id_CSD
_citation_special_details
EVAZEG "is a stereoisomer of this entry"
_symmetry_cell_setting triclinic
_symmetry_space_group_name_H-M 'P -1'
_symmetry_Int_Tables_number 2
loop_
_symmetry_equiv_pos_site_id
_symmetry_equiv_pos_as_xyz
1 x,y,z
2 -x,-y,-z
_cell_length_a 5.8416(1)
_cell_length_b 6.9482(2)
_cell_length_c 31.7123(12)
_cell_angle_alpha 86.981(1)
_cell_angle_beta 89.733(1)
_cell_angle_gamma 68.635(1)
_cell_formula_units_Z 4
loop_
_atom_type_symbol
_atom_type_radius_bond
C 0.68
H 0.23
N 0.68
O 0.68
loop_
_atom_site_label
_atom_site_type_symbol
_atom_site_fract_x
_atom_site_fract_y
_atom_site_fract_z
O1 O -1.3146(3) 0.8322(3) 0.36056(6)
N1 N -1.3602(4) 0.6485(3) 0.37801(7)
N2 N -1.6891(5) 0.8311(4) 0.51482(8)
N3 N -1.7444(5) 0.8932(4) 0.28544(9)
C1 C -1.5853(5) 0.8544(4) 0.43500(8)
H1 H -1.53830 0.97610 0.42880
H2 H -1.73090 0.87080 0.41730
C2 C -1.3727(5) 0.6574(4) 0.42409(8)
H3 H -1.41790 0.53830 0.43490
C3 C -1.1316(5) 0.6328(5) 0.44596(9)
H4 H -1.15210 0.63060 0.47700
H5 H -1.08230 0.75110 0.43740
C4 C -0.9329(5) 0.4304(5) 0.43360(9)
H6 H -0.77480 0.41250 0.44760
H7 H -0.98000 0.31170 0.44280
C5 C -0.9049(5) 0.4377(5) 0.38593(8)
H8 H -0.78020 0.30510 0.37780
H9 H -0.84390 0.54940 0.37750
C6 C -1.1456(5) 0.4751(4) 0.36187(8)
C7 C -1.2235(5) 0.2887(4) 0.35882(9)
H10 H -1.07850 0.15940 0.35680
H11 H -1.32080 0.27430 0.38360
C8 C -1.3798(5) 0.3385(4) 0.31833(9)
H12 H -1.54590 0.44180 0.32290
H13 H -1.39550 0.21230 0.30780
C9 C -1.2337(5) 0.4264(4) 0.28777(9)
H14 H -1.09550 0.31390 0.27560
H15 H -1.34060 0.51310 0.26450
C10 C -1.1392(5) 0.5565(4) 0.31550(8)
H16 H -0.96670 0.53850 0.30780
C11 C -1.2971(5) 0.7897(4) 0.31690(8)
H17 H -1.21130 0.87310 0.30170
C12 C -1.6479(5) 0.8455(5) 0.47979(10)
C13 C -1.5492(6) 0.8471(4) 0.29902(9)
O2 O -0.7931(3) 0.7882(3) 0.13649(6)
N4 N -0.8432(4) 0.6079(3) 0.12262(7)
N5 N -1.1917(5) 0.8326(4) -0.01616(8)
N6 N -1.2097(5) 0.8352(4) 0.21286(8)
C14 C -1.0783(5) 0.8271(4) 0.06368(9)
H18 H -1.22240 0.83820 0.08130
H19 H -1.03050 0.94690 0.06870
C15 C -0.8642(5) 0.6257(4) 0.07657(8)
H20 H -0.91340 0.50960 0.06800
C16 C -0.6274(5) 0.6044(5) 0.05330(9)
H21 H -0.65520 0.60800 0.02240
H22 H -0.57520 0.72060 0.05950
C17 C -0.4283(5) 0.3991(5) 0.06794(9)
H23 H -0.47850 0.28280 0.06100
H24 H -0.27280 0.38290 0.05330
C18 C -0.3899(5) 0.3962(5) 0.11553(8)
H25 H -0.32420 0.50450 0.12180
H26 H -0.26570 0.26070 0.12520
C19 C -0.6271(5) 0.4327(4) 0.14053(8)
C20 C -0.7042(5) 0.2445(4) 0.14742(9)
H27 H -0.55850 0.11450 0.15040
H28 H -0.80860 0.23550 0.12370
C21 C -0.8494(5) 0.2857(5) 0.18868(9)
H29 H -1.01750 0.38920 0.18380
H30 H -0.86020 0.15680 0.20180
C22 C -0.6954(5) 0.3694(5) 0.21615(9)
H31 H -0.55360 0.25490 0.22930
H32 H -0.79590 0.45200 0.23870
C23 C -0.6090(5) 0.5051(4) 0.18524(8)
H33 H -0.43470 0.48640 0.19190
C24 C -0.7676(5) 0.7372(4) 0.18084(8)
H34 H -0.67980 0.81830 0.19430
C25 C -1.1456(5) 0.8328(5) 0.01907(10)
C26 C -1.0171(5) 0.7905(4) 0.19910(9)
#END
