
#######################################################################
#
#                 Cambridge Crystallographic Data Centre
#                                CCDC
#
#######################################################################
#
# If this CIF has been generated from an entry in the Cambridge
# Structural Database, then it will include bibliographic, chemical,
# crystal, experimental, refinement or atomic coordinate data resulting
# from the CCDC's data processing and validation procedures.
#
#######################################################################

data_CSD_CIF_BEQWAY
_audit_creation_date 2018-02-24
_audit_creation_method CSD-ConQuest-V1
_database_code_CSD BEQWAY
_database_code_depnum_ccdc_archive 'CCDC 1486987'
_chemical_formula_sum 'C12 H12 N4 O3'
_chemical_formula_moiety
;
C12 H12 N4 O3
;
_journal_coeditor_code "mw2136"
_journal_coden_Cambridge 1828
_journal_volume 74
_journal_year 2018
_journal_page_first 380
_journal_name_full 'Acta Crystallogr.,Sect.E:Cryst.Commun. '
loop_
_publ_author_name
"L.F.B.Osorio"
"S.A.Carvalho"
"E.F.da Silva"
"C.A.M.Fraga"
"S.M.S.V.Wardell"
"B.F.Milne"
"J.L.Wardell"
"W.T.A.Harrison"
_chemical_name_systematic
;
N-(benzyloxy)-1-(1-methyl-5-nitro-1H-imidazol-2-yl)methanimine
;
_cell_volume   1186.530
_exptl_crystal_colour 'colorless'
_exptl_crystal_density_diffrn 1.457
_exptl_crystal_description 'plate'
_diffrn_ambient_temperature 100
#These two values have been output from a single CSD field.
_refine_ls_R_factor_gt 0.047
_refine_ls_wR_factor_gt 0.047
_symmetry_cell_setting monoclinic
_symmetry_space_group_name_H-M 'P 21/c'
_symmetry_Int_Tables_number 14
loop_
_symmetry_equiv_pos_site_id
_symmetry_equiv_pos_as_xyz
1 x,y,z
2 -x,1/2+y,1/2-z
3 -x,-y,-z
4 x,-1/2-y,-1/2+z
_cell_length_a 7.6399(5)
_cell_length_b 10.5071(7)
_cell_length_c 14.9243(11)
_cell_angle_alpha 90
_cell_angle_beta 97.942(3)
_cell_angle_gamma 90
_cell_formula_units_Z 4
loop_
_atom_type_symbol
_atom_type_radius_bond
C 0.68
H 0.23
N 0.68
O 0.68
loop_
_atom_site_label
_atom_site_type_symbol
_atom_site_fract_x
_atom_site_fract_y
_atom_site_fract_z
C1 C -0.2026(2) 0.18424(17) 0.08287(11)
C2 C -0.1242(2) 0.06989(17) 0.10516(11)
H1 H -0.11770 0.00100 0.06460
C3 C -0.0953(2) 0.18453(17) 0.22478(11)
C4 C -0.2593(2) 0.38590(16) 0.17211(11)
H2 H -0.37800 0.39180 0.13780
H3 H -0.18320 0.45120 0.15080
H4 H -0.26610 0.39910 0.23650
C5 C -0.0422(2) 0.23260(16) 0.31595(11)
H5 H -0.06100 0.31930 0.33000
C6 C 0.1846(3) 0.13647(17) 0.51983(12)
H6 H 0.27940 0.09690 0.49030
H7 H 0.10690 0.06800 0.53720
C7 C 0.2641(2) 0.20824(16) 0.60261(11)
C8 C 0.2637(2) 0.15343(17) 0.68727(11)
H8 H 0.20390 0.07510 0.69270
C9 C 0.3508(2) 0.21295(18) 0.76444(12)
H9 H 0.35220 0.17390 0.82200
C10 C 0.4346(2) 0.32796(18) 0.75770(12)
H10 H 0.49430 0.36800 0.81030
C11 C 0.4313(2) 0.38490(17) 0.67342(12)
H11 H 0.48650 0.46520 0.66860
C12 C 0.3475(2) 0.32503(17) 0.59602(11)
H12 H 0.34710 0.36390 0.53850
N1 N -0.05705(18) 0.06958(14) 0.19410(9)
N2 N -0.18520(17) 0.25946(13) 0.15896(9)
N3 N 0.03028(18) 0.15619(14) 0.37682(9)
N4 N -0.28663(19) 0.22404(14) -0.00435(9)
O1 O 0.08352(16) 0.22291(11) 0.45775(7)
O2 O -0.33264(17) 0.33549(12) -0.01644(8)
O3 O -0.30669(18) 0.14106(13) -0.06357(8)
#END
