
#######################################################################
#
#                 Cambridge Crystallographic Data Centre
#                                CCDC
#
#######################################################################
#
# If this CIF has been generated from an entry in the Cambridge
# Structural Database, then it will include bibliographic, chemical,
# crystal, experimental, refinement or atomic coordinate data resulting
# from the CCDC's data processing and validation procedures.
#
#######################################################################

data_CSD_CIF_BEQYIF
_audit_creation_date 1999-11-19
_audit_creation_method CSD-ConQuest-V1
_database_code_CSD BEQYIF
_database_code_depnum_ccdc_archive 'CCDC 135810'
_chemical_formula_sum 'C23 H25 N1 O5'
_chemical_formula_moiety
;
C23 H25 N1 O5
;
_journal_coeditor_code "IUCr FR1174"
_journal_coden_Cambridge 591
_journal_volume 55
_journal_year 1999
_journal_page_first 1515
_journal_name_full 'Acta Crystallogr.,Sect.C:Cryst.Struct.Commun. '
loop_
_publ_author_name
"J.Jeyakanthan"
"S.S.S.Raj"
"D.Velmurugan"
"H.-K.Fun"
"P.Murugan"
_chemical_name_systematic
;
1,2,3,4,5,6,7,8-Octahydro-3,3,6,6-tetramethyl-9-(2-nitrophenyl)xanthen-1,8-dio
ne
;
_cell_volume   4106.317
_exptl_crystal_colour 'yellow'
_exptl_crystal_density_diffrn 1.279
_exptl_crystal_description 'Rectangular block'
_exptl_crystal_preparation 'ethanol'
_diffrn_ambient_temperature ?
_diffrn_special_details
;
The study was carried out at room temperature,in the range 283-303K

;
#These two values have been output from a single CSD field.
_refine_ls_R_factor_gt 0.043
_refine_ls_wR_factor_gt 0.043
_symmetry_cell_setting monoclinic
_symmetry_space_group_name_H-M 'C 2/c'
_symmetry_Int_Tables_number 15
loop_
_symmetry_equiv_pos_site_id
_symmetry_equiv_pos_as_xyz
1 x,y,z
2 1/2+x,1/2+y,z
3 -x,y,1/2-z
4 1/2-x,1/2+y,1/2-z
5 -x,-y,-z
6 -1/2-x,-1/2-y,-z
7 x,-y,-1/2+z
8 -1/2+x,-1/2-y,-1/2+z
_cell_length_a 26.581(2)
_cell_length_b 10.094(1)
_cell_length_c 19.624(2)
_cell_angle_alpha 90
_cell_angle_beta 128.75(1)
_cell_angle_gamma 90
_cell_formula_units_Z 8
loop_
_atom_type_symbol
_atom_type_radius_bond
C 0.68
H 0.23
N 0.68
O 0.68
loop_
_atom_site_label
_atom_site_type_symbol
_atom_site_fract_x
_atom_site_fract_y
_atom_site_fract_z
N1 N 0.15248(12) 0.7927(2) 0.71129(13)
O1 O 0.15315(8) 1.0426(2) 0.63069(9)
O2 O -0.01496(8) 0.6548(2) 0.5193(1)
O3 O 0.09978(10) 0.8157(2) 0.69135(11)
O4 O 0.20298(9) 0.8129(2) 0.78490(11)
C1 C 0.06057(11) 1.1187(2) 0.37043(14)
H1 H 0.03395(11) 1.1949(2) 0.35851(14)
H2 H 0.05147(11) 1.0927(2) 0.31610(14)
C2 C 0.04329(10) 1.0078(2) 0.40221(13)
C3 C 0.13161(11) 1.1575(2) 0.43656(14)
C4 C 0.14672(11) 1.1759(2) 0.52517(14)
H3 H 0.19283(11) 1.1889(2) 0.56933(14)
H4 H 0.12555(11) 1.2560(2) 0.52295(14)
C5 C 0.12645(11) 1.0632(2) 0.55307(14)
C6 C 0.0731(1) 0.9780(2) 0.48595(13)
C7 C -0.03564(11) 0.6871(2) 0.44587(15)
C8 C -0.00483(10) 0.7953(2) 0.43365(13)
C9 C -0.09496(11) 0.6232(3) 0.36593(14)
H5 H -0.13265(11) 0.6646(3) 0.35404(14)
H6 H -0.09535(11) 0.5306(3) 0.37887(14)
C10 C -0.10101(11) 0.6309(2) 0.28318(14)
C11 C -0.09134(11) 0.7762(2) 0.27112(14)
H7 H -0.08840(11) 0.7824(2) 0.22439(14)
H8 H -0.12854(11) 0.8272(2) 0.25405(14)
C12 C -0.03172(11) 0.8343(2) 0.35276(14)
C13 C 0.0563(1) 0.8573(2) 0.51305(13)
H9 H 0.04914(10) 0.8838(2) 0.55442(13)
O5 O -0.00831(7) 0.9361(2) 0.33343(9)
C14 C 0.14251(13) 1.2869(3) 0.4076(2)
H10 H 0.11588(13) 1.3550(3) 0.4044(2)
H11 H 0.13150(13) 1.2751(3) 0.3511(2)
H12 H 0.18703(13) 1.3121(3) 0.4490(2)
C15 C 0.17369(13) 1.0481(3) 0.4420(2)
H13 H 0.16648(13) 0.9671(3) 0.4603(2)
H14 H 0.21828(13) 1.0727(3) 0.4835(2)
H15 H 0.16276(13) 1.0357(3) 0.3856(2)
C16 C -0.16842(12) 0.5864(3) 0.20350(15)
H16 H -0.20032(12) 0.6422(3) 0.19732(15)
H17 H -0.17534(12) 0.4963(3) 0.21133(15)
H18 H -0.17180(12) 0.5930(3) 0.15196(15)
C17 C -0.05050(12) 0.5420(3) 0.2927(2)
H19 H -0.05454(12) 0.5473(3) 0.2406(2)
H20 H -0.05700(12) 0.4521(3) 0.3016(2)
H21 H -0.00818(12) 0.5707(3) 0.3419(2)
C18 C 0.11258(10) 0.7594(2) 0.55799(14)
C19 C 0.12472(12) 0.6981(3) 0.5056(2)
H22 H 0.09680(12) 0.7141(3) 0.4458(2)
C20 C 0.17653(13) 0.6147(3) 0.5395(2)
H23 H 0.18277(13) 0.5749(3) 0.5025(2)
C21 C 0.21880(13) 0.5903(3) 0.6274(2)
H24 H 0.25327(13) 0.5327(3) 0.6501(2)
C22 C 0.21019(12) 0.6509(3) 0.6817(2)
H25 H 0.23944(12) 0.6367(3) 0.7417(2)
C23 C 0.15758(11) 0.7339(2) 0.64700(15)
#END
