
#######################################################################
#
#                 Cambridge Crystallographic Data Centre
#                                CCDC
#
#######################################################################
#
# If this CIF has been generated from an entry in the Cambridge
# Structural Database, then it will include bibliographic, chemical,
# crystal, experimental, refinement or atomic coordinate data resulting
# from the CCDC's data processing and validation procedures.
#
#######################################################################

data_CSD_CIF_BERCUZ
_audit_creation_date 2018-02-25
_audit_creation_method CSD-ConQuest-V1
_database_code_CSD BERCUZ
_database_code_depnum_ccdc_archive 'CCDC 1825618'
_chemical_formula_sum 'C12 H12 N2 O5'
_chemical_formula_moiety
;
C12 H12 N2 O5
;
_journal_coden_Cambridge 1078
_journal_year 2018
_journal_name_full 'CSD Communication(Private Communication) '
loop_
_publ_author_name
"B.W.Skelton"
"M.J.Piggott"
"M.R.Buccini"
_chemical_name_systematic
;
5,8-dimethoxy-2-methyl-4-nitroisoquinolin-1(2H)-one
;
_cell_volume   1130.554
_exptl_crystal_colour 'orange'
_exptl_crystal_density_diffrn 1.552
_exptl_crystal_description 'rod'
_diffrn_ambient_temperature 100
#These two values have been output from a single CSD field.
_refine_ls_R_factor_gt 0.0482
_refine_ls_wR_factor_gt 0.0482
_symmetry_cell_setting monoclinic
_symmetry_space_group_name_H-M 'P 21/c'
_symmetry_Int_Tables_number 14
loop_
_symmetry_equiv_pos_site_id
_symmetry_equiv_pos_as_xyz
1 x,y,z
2 -x,1/2+y,1/2-z
3 -x,-y,-z
4 x,-1/2-y,-1/2+z
_cell_length_a 9.8063(3)
_cell_length_b 15.7583(3)
_cell_length_c 7.4795(2)
_cell_angle_alpha 90
_cell_angle_beta 102.000(3)
_cell_angle_gamma 90
_cell_formula_units_Z 4
loop_
_atom_type_symbol
_atom_type_radius_bond
C 0.68
H 0.23
N 0.68
O 0.68
loop_
_atom_site_label
_atom_site_type_symbol
_atom_site_fract_x
_atom_site_fract_y
_atom_site_fract_z
C1 C 0.17418(13) 0.16879(7) 0.30483(15)
O1 O 0.09791(10) 0.11089(6) 0.33055(13)
N1 N 0.29904(11) 0.14869(6) 0.24981(14)
C2 C 0.33227(15) 0.05827(8) 0.23492(18)
H1 H 0.40983 0.05247 0.17164
H2 H 0.25036 0.02851 0.16568
H3 H 0.35878 0.03359 0.35751
C3 C 0.39366(13) 0.20801(7) 0.22482(16)
H4 H 0.47926 0.19051 0.19599
C4 C 0.36776(13) 0.29174(7) 0.24041(16)
N2 N 0.48861(11) 0.34662(6) 0.24905(14)
O2 O 0.55254(10) 0.34259(6) 0.12312(13)
O3 O 0.52576(10) 0.39052(6) 0.38612(13)
C5 C 0.23853(12) 0.32208(7) 0.27799(15)
C6 C 0.19886(13) 0.40840(7) 0.25990(16)
O4 O 0.28871(10) 0.46119(5) 0.19655(13)
C7 C 0.24349(16) 0.54640(8) 0.1563(2)
H5 H 0.15270 0.54613 0.07144
H6 H 0.31160 0.57630 0.10022
H7 H 0.23510 0.57531 0.26950
C8 C 0.07390(14) 0.43367(8) 0.29974(17)
H8 H 0.04716 0.49168 0.28819
C9 C -0.01353(13) 0.37406(8) 0.35710(17)
H9 H -0.09718 0.39268 0.38983
C10 C 0.01923(13) 0.28830(8) 0.36727(16)
O5 O -0.06518(10) 0.22848(6) 0.41904(12)
C11 C -0.18769(14) 0.25895(9) 0.47348(18)
H10 H -0.16142 0.30085 0.57141
H11 H -0.23602 0.21141 0.51768
H12 H -0.24963 0.28549 0.36866
C12 C 0.14507(12) 0.26043(7) 0.32052(15)
#END
