
#######################################################################
#
#                 Cambridge Crystallographic Data Centre
#                                CCDC
#
#######################################################################
#
# If this CIF has been generated from an entry in the Cambridge
# Structural Database, then it will include bibliographic, chemical,
# crystal, experimental, refinement or atomic coordinate data resulting
# from the CCDC's data processing and validation procedures.
#
#######################################################################

data_CSD_CIF_BERPAP
_audit_creation_date 1983-01-18
_audit_creation_method CSD-ConQuest-V1
_database_code_CSD BERPAP
_chemical_formula_sum 'C15 H17 N3 O7'
_chemical_formula_moiety
;
C15 H17 N3 O7
;
_journal_coeditor_code "IUCr A21208"
_journal_coden_Cambridge 107
_journal_volume 38
_journal_year 1982
_journal_page_first 1530
_journal_name_full 'Acta Crystallogr.,Sect.B:Struct.Crystallogr.Cryst.Chem. '
loop_
_publ_author_name
"M.G.B.Drew"
"B.Vickery"
"G.R.Willey"
_chemical_name_systematic
;
Diethyl 2-(p-nitrophenylhydrazono)-3-oxopentanedioate
;
_chemical_melting_point 382
_cell_volume    844.494
_exptl_crystal_colour 'yellow'
_exptl_crystal_density_diffrn 1.38
_exptl_special_details
;
Melting point range 382-383K
monoclinic polymorph
Bond lengths for compounds 2a and 2b have been interchanged in Table 6 of the 
paper
;
_exptl_crystal_preparation 'ethanol'
_diffrn_ambient_temperature ?
_diffrn_special_details
;
The study was carried out at room temperature,in the range 283-303K

;
#These two values have been output from a single CSD field.
_refine_ls_R_factor_gt 0.062
_refine_ls_wR_factor_gt 0.062
_symmetry_cell_setting monoclinic
_symmetry_space_group_name_H-M 'P 21'
_symmetry_Int_Tables_number 4
loop_
_symmetry_equiv_pos_site_id
_symmetry_equiv_pos_as_xyz
1 x,y,z
2 -x,1/2+y,-z
_cell_length_a 4.895(8)
_cell_length_b 12.934(13)
_cell_length_c 13.365(11)
_cell_angle_alpha 90
_cell_angle_beta 93.6(1)
_cell_angle_gamma 90
_cell_formula_units_Z 2
loop_
_atom_type_symbol
_atom_type_radius_bond
C 0.68
H 0.23
N 0.68
O 0.68
loop_
_atom_site_label
_atom_site_type_symbol
_atom_site_fract_x
_atom_site_fract_y
_atom_site_fract_z
C1 C 0.14580 0.26210 0.67860
C2 C 0.35060 0.18450 0.67790
C3 C 0.50580 0.16690 0.76640
C4 C 0.45150 0.22300 0.85250
C5 C 0.25610 0.30000 0.84720
C6 C 0.09610 0.31830 0.76140
N1 N -0.02070 0.27610 0.58670
O1 O -0.17550 0.35110 0.58120
O2 O -0.01400 0.21660 0.51860
N2 N 0.59190 0.20050 0.94360
N3 N 0.78380 0.13030 0.94930
C7 C 0.90040 0.09780 1.03700
C8 C 1.11630 0.01900 1.02510
O3 O 1.26200 -0.00880 1.09600
C9 C 1.16750 -0.01810 0.92250
C10 C 0.92800 -0.07910 0.87520
O4 O 0.78440 -0.13220 0.92050
O5 O 0.91690 -0.06650 0.77670
C11 C 0.70110 -0.12830 0.72060
C12 C 0.68840 -0.09580 0.61600
C13 C 0.81280 0.13950 1.13300
O6 O 0.69520 0.21870 1.13910
O7 O 0.88460 0.07990 1.21090
C14 C 0.80510 0.11300 1.30990
C15 C 0.58200 0.06210 1.33870
H1 H -0.06330 0.37620 0.75940
H2 H 0.22730 0.34640 0.91290
H3 H 0.66860 0.11040 0.76940
H4 H 0.38350 0.14010 0.61130
H5 H 0.57440 0.23010 0.99720
H6 H 1.20300 0.04790 0.87550
H7 H 1.34710 -0.06680 0.92700
H8 H 0.50570 -0.11450 0.75150
H9 H 0.75010 -0.20960 0.72610
H10 H 0.51960 -0.13570 0.57690
H11 H 0.87910 -0.12420 0.59000
H12 H 0.67140 -0.01390 0.60140
H13 H 0.75460 0.19420 1.30630
H14 H 0.97540 0.10100 1.36410
H15 H 0.49840 0.08820 1.40720
H16 H 0.61240 -0.02060 1.34210
H17 H 0.44140 0.08080 1.27580
#END
