
#######################################################################
#
#                 Cambridge Crystallographic Data Centre
#                                CCDC
#
#######################################################################
#
# If this CIF has been generated from an entry in the Cambridge
# Structural Database, then it will include bibliographic, chemical,
# crystal, experimental, refinement or atomic coordinate data resulting
# from the CCDC's data processing and validation procedures.
#
#######################################################################

data_CSD_CIF_BERPAP01
_audit_creation_date 1983-01-18
_audit_creation_method CSD-ConQuest-V1
_database_code_CSD BERPAP01
_chemical_formula_sum 'C15 H17 N3 O7'
_chemical_formula_moiety
;
C15 H17 N3 O7
;
_journal_coeditor_code "IUCr A21208"
_journal_coden_Cambridge 107
_journal_volume 38
_journal_year 1982
_journal_page_first 1530
_journal_name_full 'Acta Crystallogr.,Sect.B:Struct.Crystallogr.Cryst.Chem. '
loop_
_publ_author_name
"M.G.B.Drew"
"B.Vickery"
"G.R.Willey"
_chemical_name_systematic
;
Diethyl 2-(p-nitrophenylhydrazono)-3-oxopentanedioate
;
_chemical_melting_point 382
_cell_volume   1701.816
_exptl_crystal_colour 'yellow'
_exptl_crystal_density_diffrn 1.38
_exptl_special_details
;
Melting point range 382-383K
orthorhombic polymorph
Bond lengths for compounds 2a and 2b have been interchanged in Table 6 of the 
paper
;
_exptl_crystal_preparation 'ethanol'
_diffrn_ambient_temperature ?
_diffrn_special_details
;
The study was carried out at room temperature,in the range 283-303K

;
#These two values have been output from a single CSD field.
_refine_ls_R_factor_gt 0.065
_refine_ls_wR_factor_gt 0.065
_symmetry_cell_setting orthorhombic
_symmetry_space_group_name_H-M 'P 2 21 21'
_symmetry_Int_Tables_number 18
loop_
_symmetry_equiv_pos_site_id
_symmetry_equiv_pos_as_xyz
1 x,y,z
2 x,-y,-z
3 -x,1/2+y,1/2-z
4 -x,1/2-y,1/2+z
_cell_length_a 4.88(1)
_cell_length_b 13.13(1)
_cell_length_c 26.56(1)
_cell_angle_alpha 90
_cell_angle_beta 90
_cell_angle_gamma 90
_cell_formula_units_Z 4
loop_
_atom_type_symbol
_atom_type_radius_bond
C 0.68
H 0.23
N 0.68
O 0.68
loop_
_atom_site_label
_atom_site_type_symbol
_atom_site_fract_x
_atom_site_fract_y
_atom_site_fract_z
C1 C 0.23030 0.27170 0.58660
C2 C 0.43160 0.19720 0.58770
C3 C 0.55630 0.17540 0.63210
C4 C 0.48590 0.22760 0.67590
C5 C 0.28030 0.30180 0.67360
C6 C 0.14920 0.32310 0.62920
N1 N 0.59920 0.20440 0.72190
N2 N 0.78770 0.13230 0.72610
C7 C 0.88430 0.10050 0.76860
C8 C 0.78350 0.14130 0.81770
O1 O 0.66400 0.21970 0.82020
O2 O 0.84240 0.08100 0.85550
C9 C 0.75290 0.11510 0.90640
C10 C 0.51930 0.05960 0.92130
C11 C 1.11150 0.02240 0.76310
O3 O 1.23610 -0.00840 0.79910
C12 C 1.17230 -0.01320 0.71060
C13 C 0.95440 -0.07550 0.68710
O4 O 0.80710 -0.13110 0.71030
O5 O 0.95160 -0.06470 0.63790
C14 C 0.74910 -0.13050 0.61010
C15 C 0.70240 -0.08860 0.56310
N3 N 0.09130 0.29390 0.53890
O6 O -0.07610 0.36270 0.53700
O7 O 0.15520 0.24150 0.50310
H1 H 0.48860 0.15720 0.55370
H2 H 0.71300 0.11740 0.63340
H3 H 0.22090 0.34180 0.70740
H4 H -0.01060 0.37990 0.62740
H5 H 0.59090 0.22840 0.75190
H6 H 0.91560 0.09960 0.93280
H7 H 0.71080 0.19580 0.90580
H8 H 0.42390 0.07810 0.95680
H9 H 0.40880 0.09640 0.89110
H10 H 0.51540 -0.02190 0.91580
H11 H 1.20530 0.05300 0.68720
H12 H 1.35720 -0.05830 0.71180
H13 H 0.82930 -0.20670 0.60620
H14 H 0.55850 -0.13290 0.63070
H15 H 0.60620 -0.14930 0.54210
H16 H 0.57850 -0.02070 0.56050
H17 H 0.90320 -0.07360 0.54760
#END
