
#######################################################################
#
#                 Cambridge Crystallographic Data Centre
#                                CCDC
#
#######################################################################
#
# If this CIF has been generated from an entry in the Cambridge
# Structural Database, then it will include bibliographic, chemical,
# crystal, experimental, refinement or atomic coordinate data resulting
# from the CCDC's data processing and validation procedures.
#
#######################################################################

data_CSD_CIF_BERYIJ
_audit_creation_date 2018-02-26
_audit_creation_method CSD-ConQuest-V1
_database_code_CSD BERYIJ
_database_code_depnum_ccdc_archive 'CCDC 1575807'
_chemical_formula_sum 'C28 H24 N6 O6'
_chemical_formula_moiety
;
C28 H24 N6 O6
;
_journal_coden_Cambridge 2020
_journal_volume 3
_journal_year 2018
_journal_page_first 1983
_journal_name_full 'Chem. Sel. '
loop_
_publ_author_name
"N.E.Borisova"
"A.V.Ivanov"
"P.I.Matveev"
"A.A.Smirnova"
"E.V.Belova"
"S.N.Kalmykov"
"B.F.Myasoedov"
_chemical_name_systematic
;
N^6^,N^6'^-diethyl-4,4'-dinitro-N^6^,N^6'^-diphenyl[2,2'-bipyridine]-6,6'-dica
rboxamide
;
_cell_volume   1266.748
_exptl_crystal_colour 'colorless'
_exptl_crystal_density_diffrn 1.417
_exptl_crystal_description 'prism'
_diffrn_ambient_temperature 100
#These two values have been output from a single CSD field.
_refine_ls_R_factor_gt 0.0397
_refine_ls_wR_factor_gt 0.0397
_symmetry_cell_setting monoclinic
_symmetry_space_group_name_H-M 'P 21/c'
_symmetry_Int_Tables_number 14
loop_
_symmetry_equiv_pos_site_id
_symmetry_equiv_pos_as_xyz
1 x,y,z
2 -x,1/2+y,1/2-z
3 -x,-y,-z
4 x,-1/2-y,-1/2+z
_cell_length_a 8.8007(5)
_cell_length_b 11.2600(6)
_cell_length_c 13.0799(7)
_cell_angle_alpha 90
_cell_angle_beta 102.230(1)
_cell_angle_gamma 90
_cell_formula_units_Z 2
loop_
_atom_type_symbol
_atom_type_radius_bond
C 0.68
H 0.23
N 0.68
O 0.68
loop_
_atom_site_label
_atom_site_type_symbol
_atom_site_fract_x
_atom_site_fract_y
_atom_site_fract_z
O1 O 0.49546(10) 0.22489(9) -0.04789(8)
O2 O 0.6647(1) 0.20569(8) -0.14579(7)
O3 O 0.55332(9) 0.56485(8) 0.20133(7)
N1 N 0.61551(11) 0.25309(9) -0.07513(8)
N2 N 0.80082(10) 0.58715(9) 0.29418(7)
N3 N 0.88177(10) 0.53034(8) 0.09398(7)
C1 C 0.69420(12) 0.55140(9) 0.20918(8)
C2 C 0.75016(11) 0.49264(9) 0.11968(8)
C3 C 0.70737(11) 0.35126(9) -0.01709(8)
C4 C 0.96256(12) 0.55483(10) 0.31330(8)
C5 C 0.65615(11) 0.40364(10) 0.06489(8)
H1 H 0.56160 0.38030 0.08310
C6 C 0.92656(11) 0.47787(9) 0.01299(8)
C7 C 0.84326(11) 0.38606(9) -0.04560(8)
H2 H 0.87820 0.34960 -0.10200
C8 C 1.07559(12) 0.64201(10) 0.31609(9)
H3 H 1.04670 0.72330 0.30740
C9 C 1.00500(13) 0.43632(10) 0.33082(8)
H4 H 0.92800 0.37760 0.33220
C10 C 1.16119(13) 0.40435(11) 0.34631(9)
H5 H 1.19050 0.32340 0.35720
C11 C 0.74401(14) 0.64219(12) 0.38172(9)
H6 H 0.81930 0.62580 0.44790
H7 H 0.64380 0.60520 0.38660
C12 C 1.23149(13) 0.60905(11) 0.33174(9)
H8 H 1.30890 0.66810 0.33270
C13 C 1.27429(13) 0.49056(11) 0.34586(9)
H9 H 1.38050 0.46840 0.35520
C14 C 0.72164(16) 0.77538(12) 0.36927(11)
H10 H 0.69250 0.80810 0.43180
H11 H 0.63910 0.79200 0.30780
H12 H 0.81880 0.81210 0.36010
O1B O 1.50454(10) 0.77511(9) 0.04789(8)
O2B O 1.3353(1) 0.79431(8) 0.14579(7)
O3B O 1.44668(9) 0.43515(8) -0.20133(7)
N1B N 1.38449(11) 0.74691(9) 0.07513(8)
N2B N 1.19918(10) 0.41285(9) -0.29418(7)
N3B N 1.11823(10) 0.46966(8) -0.09398(7)
C1B C 1.30580(12) 0.44860(9) -0.20918(8)
C2B C 1.24984(11) 0.50736(9) -0.11968(8)
C3B C 1.29263(11) 0.64874(9) 0.01709(8)
C4B C 1.03744(12) 0.44517(10) -0.31330(8)
C5B C 1.34385(11) 0.59636(10) -0.06489(8)
H1B H 1.43840 0.61970 -0.08310
C6B C 1.07344(11) 0.52213(9) -0.01299(8)
C7B C 1.15674(11) 0.61394(9) 0.04560(8)
H2B H 1.12180 0.65040 0.10200
C8B C 0.92441(12) 0.35799(10) -0.31609(9)
H3B H 0.95330 0.27670 -0.30740
C9B C 0.99500(13) 0.56368(10) -0.33082(8)
H4B H 1.07200 0.62240 -0.33220
C10B C 0.83881(13) 0.59565(11) -0.34631(9)
H5B H 0.80950 0.67660 -0.35720
C11B C 1.25599(14) 0.35781(12) -0.38172(9)
H6B H 1.18070 0.37420 -0.44790
H7B H 1.35620 0.39480 -0.38660
C12B C 0.76851(13) 0.39095(11) -0.33174(9)
H8B H 0.69110 0.33190 -0.33270
C13B C 0.72571(13) 0.50944(11) -0.34586(9)
H9B H 0.61950 0.53160 -0.35520
C14B C 1.27836(16) 0.22462(12) -0.36927(11)
H10B H 1.30750 0.19190 -0.43180
H11B H 1.36090 0.20800 -0.30780
H12B H 1.18120 0.18790 -0.36010
#END
