
#######################################################################
#
#                 Cambridge Crystallographic Data Centre
#                                CCDC
#
#######################################################################
#
# If this CIF has been generated from an entry in the Cambridge
# Structural Database, then it will include bibliographic, chemical,
# crystal, experimental, refinement or atomic coordinate data resulting
# from the CCDC's data processing and validation procedures.
#
#######################################################################

data_CSD_CIF_BESKAN
_audit_creation_date 2013-05-17
_audit_creation_method CSD-ConQuest-V1
_database_code_CSD BESKAN
_database_code_depnum_ccdc_archive 'CCDC 916773'
_chemical_formula_sum 'C17 H17 N1 O3'
_chemical_formula_moiety
;
C17 H17 N1 O3
;
_journal_coden_Cambridge 179
_journal_volume 52
_journal_year 2013
_journal_page_first 4229
_journal_name_full 'Angew.Chem.,Int.Ed. '
loop_
_publ_author_name
"S.Ghorpade"
"Ming-Der Su"
"Rai-Shung Liu"
_chemical_name_systematic
;
3'-(4-Nitrophenyl)-5',6',7',7a'-tetrahydrospiro[cyclopropane-1,1'-inden]-2'(4'
H)-one
;
_cell_volume   1369.805
_exptl_crystal_colour 'colorless'
_exptl_crystal_density_diffrn 1.374
_diffrn_ambient_temperature 100
#These two values have been output from a single CSD field.
_refine_ls_R_factor_gt 0.0645
_refine_ls_wR_factor_gt 0.0645
_symmetry_cell_setting triclinic
_symmetry_space_group_name_H-M 'P -1'
_symmetry_Int_Tables_number 2
loop_
_symmetry_equiv_pos_site_id
_symmetry_equiv_pos_as_xyz
1 x,y,z
2 -x,-y,-z
_cell_length_a 10.2546(6)
_cell_length_b 11.5365(8)
_cell_length_c 11.6499(8)
_cell_angle_alpha 95.066(3)
_cell_angle_beta 90.201(2)
_cell_angle_gamma 93.763(3)
_cell_formula_units_Z 4
loop_
_atom_type_symbol
_atom_type_radius_bond
C 0.68
H 0.23
N 0.68
O 0.68
loop_
_atom_site_label
_atom_site_type_symbol
_atom_site_fract_x
_atom_site_fract_y
_atom_site_fract_z
O1 O 1.2259(3) 0.0598(2) 0.4651(2)
O2 O 1.1289(2) -0.06011(19) 0.5750(2)
O3 O 0.7987(2) 0.30580(19) 0.9312(2)
N1 N 1.1600(2) 0.0389(2) 0.5485(2)
C1 C 1.1126(3) 0.1375(3) 0.6214(2)
C2 C 1.0588(3) 0.1195(3) 0.7282(3)
H1 H 1.05420 0.04400 0.75520
C3 C 1.0122(3) 0.2130(3) 0.7948(3)
H2 H 0.97910 0.20220 0.86940
C4 C 1.0132(3) 0.3235(3) 0.7533(3)
C5 C 0.9506(3) 0.4198(3) 0.8200(3)
C6 C 0.9776(3) 0.5371(3) 0.8226(3)
C7 C 1.0816(3) 0.6075(3) 0.7646(3)
H3 H 1.13810 0.55490 0.71880
H4 H 1.13670 0.65520 0.82330
C8 C 1.0173(3) 0.6866(3) 0.6860(3)
H5 H 0.96930 0.63830 0.62300
H6 H 1.08550 0.73670 0.65100
C9 C 0.9230(3) 0.7630(3) 0.7536(3)
H7 H 0.88020 0.81150 0.70040
H8 H 0.97250 0.81600 0.81210
C10 C 0.8394(3) 0.3990(3) 0.8990(2)
C11 C 0.7870(3) 0.5131(3) 0.9353(3)
C12 C 0.8799(3) 0.6075(3) 0.8904(3)
H9 H 0.92550 0.65410 0.95690
C13 C 0.8182(3) 0.6897(3) 0.8135(3)
H10 H 0.76270 0.74200 0.86070
H11 H 0.76180 0.64360 0.75470
C14 C 0.6392(3) 0.5153(3) 0.9409(3)
H12 H 0.59910 0.58510 0.91670
H13 H 0.58680 0.44080 0.92240
C15 C 0.7166(3) 0.5285(3) 1.0483(3)
H14 H 0.71230 0.46240 1.09710
H15 H 0.72470 0.60660 1.09140
C16 C 1.0705(3) 0.3389(3) 0.6471(3)
H16 H 1.07380 0.41370 0.61880
C17 C 1.1228(3) 0.2474(3) 0.5821(3)
H17 H 1.16510 0.25980 0.51140
O4 O 0.6523(3) 0.54513(19) 0.5603(2)
O5 O 0.8112(3) 0.4335(2) 0.5188(2)
O6 O 0.3463(2) 0.19690(18) 0.94274(17)
N2 N 0.7037(3) 0.4519(2) 0.5616(2)
C18 C 0.4391(3) -0.2772(3) 0.7333(3)
H18 H 0.35920 -0.30750 0.68980
H19 H 0.48720 -0.34460 0.75280
C19 C 0.4008(3) -0.2070(3) 0.8446(3)
H20 H 0.34450 -0.25730 0.89130
H21 H 0.48040 -0.18030 0.89040
C20 C 0.3275(3) -0.1013(3) 0.8167(3)
H22 H 0.24280 -0.12940 0.77770
C21 C 0.4085(3) -0.0297(3) 0.7364(3)
C22 C 0.4267(3) 0.0838(3) 0.7760(3)
C23 C 0.5010(3) 0.1789(2) 0.7224(2)
C24 C 0.4431(3) 0.2846(3) 0.7120(2)
H23 H 0.35760 0.29450 0.74100
C25 C 0.5084(3) 0.3739(3) 0.6606(2)
H24 H 0.46870 0.44510 0.65350
C26 C 0.6345(3) 0.3580(3) 0.6188(2)
C27 C 0.3568(3) 0.1035(3) 0.8866(2)
C28 C 0.3007(3) -0.0125(3) 0.9172(3)
C29 C 0.2997(3) -0.0336(3) 1.0438(3)
H25 H 0.31480 -0.11310 1.06420
H26 H 0.33580 0.03030 1.09960
C30 C 0.1764(3) -0.0165(3) 0.9843(3)
H27 H 0.13520 0.05800 1.00340
H28 H 0.11420 -0.08530 0.96810
C31 C 0.5253(3) -0.2011(3) 0.6579(3)
H29 H 0.60830 -0.17600 0.69910
H30 H 0.54650 -0.24770 0.58570
C32 C 0.4565(3) -0.0936(3) 0.6287(3)
H31 H 0.51810 -0.04120 0.58890
H32 H 0.38190 -0.11790 0.57600
C33 C 0.6276(3) 0.1668(3) 0.6812(2)
H33 H 0.66830 0.09630 0.68950
C34 C 0.6951(3) 0.2553(3) 0.6287(3)
H34 H 0.78080 0.24600 0.60010
#END
