
#######################################################################
#
#                 Cambridge Crystallographic Data Centre
#                                CCDC
#
#######################################################################
#
# If this CIF has been generated from an entry in the Cambridge
# Structural Database, then it will include bibliographic, chemical,
# crystal, experimental, refinement or atomic coordinate data resulting
# from the CCDC's data processing and validation procedures.
#
#######################################################################

data_CSD_CIF_BESNAO
_audit_creation_date 1983-01-18
_audit_creation_method CSD-ConQuest-V1
_database_code_CSD BESNAO
_chemical_formula_sum 'C10 H9 N1 O4'
_chemical_formula_moiety
;
C10 H9 N1 O4
;
_journal_coden_Cambridge 189
_journal_volume 11
_journal_year 1982
_journal_page_first 31
_journal_name_full 'Cryst.Struct.Commun. '
loop_
_publ_author_name
"V.G.Andrianov"
"Yu.T.Struchkov"
"K.K.Babievsky"
_chemical_name_systematic
;
Methyl \b-nitro-cinnamate
;
_cell_volume    978.386
_exptl_crystal_density_diffrn 1.31
_exptl_special_details
;
Average bond lengths are reported

;
_diffrn_ambient_temperature 153.15
#These two values have been output from a single CSD field.
_refine_ls_R_factor_gt 0.042
_refine_ls_wR_factor_gt 0.042
_symmetry_cell_setting triclinic
_symmetry_space_group_name_H-M 'P -1'
_symmetry_Int_Tables_number 2
loop_
_symmetry_equiv_pos_site_id
_symmetry_equiv_pos_as_xyz
1 x,y,z
2 -x,-y,-z
_cell_length_a 9.828(7)
_cell_length_b 10.297(6)
_cell_length_c 11.607(8)
_cell_angle_alpha 67.71(5)
_cell_angle_beta 67.29(5)
_cell_angle_gamma 70.56(5)
_cell_formula_units_Z 4
loop_
_atom_type_symbol
_atom_type_radius_bond
C 0.68
N 0.68
O 0.68
loop_
_atom_site_label
_atom_site_type_symbol
_atom_site_fract_x
_atom_site_fract_y
_atom_site_fract_z
O1 O 0.60380 0.13200 0.38870
O2 O 0.78110 -0.07370 0.41790
O3 O 0.51450 0.10670 0.15360
O4 O 0.66400 0.25030 0.09010
N1 N 0.62830 0.13430 0.14830
C1 C 0.72900 0.01940 0.21970
C2 C 0.82920 -0.08500 0.17080
C3 C 0.69690 0.03420 0.35070
C4 C 0.75560 -0.07150 0.54910
C5 C 0.86620 -0.11010 0.04480
C6 C 0.83770 -0.00390 -0.06690
C7 C 0.88030 -0.03770 -0.18260
C8 C 0.95160 -0.17660 -0.18910
C9 C 0.98100 -0.28250 -0.07960
C10 C 0.94020 -0.24940 0.03610
O5 O 0.12910 0.65620 0.27010
O6 O 0.29110 0.44060 0.27450
O7 O 0.02060 0.61490 0.59710
O8 O 0.16210 0.76240 0.46460
N2 N 0.13140 0.64630 0.50640
C11 C 0.23440 0.53280 0.44580
C12 C 0.33240 0.42920 0.50140
C13 C 0.21090 0.55220 0.32090
C14 C 0.27430 0.44650 0.15400
C15 C 0.36780 0.40320 0.62030
C16 C 0.32680 0.50630 0.68680
C17 C 0.36850 0.47250 0.79760
C18 C 0.45040 0.33640 0.84480
C19 C 0.49310 0.23470 0.77990
C20 C 0.45380 0.26810 0.66800
#END
