
#######################################################################
#
#                 Cambridge Crystallographic Data Centre
#                                CCDC
#
#######################################################################
#
# If this CIF has been generated from an entry in the Cambridge
# Structural Database, then it will include bibliographic, chemical,
# crystal, experimental, refinement or atomic coordinate data resulting
# from the CCDC's data processing and validation procedures.
#
#######################################################################

data_CSD_CIF_BESNES
_audit_creation_date 1983-01-18
_audit_creation_method CSD-ConQuest-V1
_database_code_CSD BESNES
_chemical_formula_sum 'C12 H10 N2 O4'
_chemical_formula_moiety
;
C12 H10 N2 O4
;
_journal_coden_Cambridge 189
_journal_volume 11
_journal_year 1982
_journal_page_first 31
_journal_name_full 'Cryst.Struct.Commun. '
loop_
_publ_author_name
"V.G.Andrianov"
"Yu.T.Struchkov"
"K.K.Babievsky"
_chemical_name_systematic
;
Methyl \a-(3-indolyl)-nitro-acrylate
;
_cell_volume    559.937
_exptl_crystal_density_diffrn 1.46
_diffrn_ambient_temperature ?
_diffrn_special_details
;
The study was carried out at room temperature,in the range 283-303K

;
#These two values have been output from a single CSD field.
_refine_ls_R_factor_gt 0.057
_refine_ls_wR_factor_gt 0.057
_symmetry_cell_setting monoclinic
_symmetry_space_group_name_H-M 'P 21/m'
_symmetry_Int_Tables_number 11
loop_
_symmetry_equiv_pos_site_id
_symmetry_equiv_pos_as_xyz
1 x,y,z
2 -x,1/2+y,-z
3 -x,-y,-z
4 x,-1/2-y,z
_cell_length_a 7.951(3)
_cell_length_b 6.679(3)
_cell_length_c 10.572(4)
_cell_angle_alpha 90
_cell_angle_beta 94.17(2)
_cell_angle_gamma 90
_cell_formula_units_Z 2
loop_
_atom_type_symbol
_atom_type_radius_bond
C 0.68
N 0.68
O 0.68
loop_
_atom_site_label
_atom_site_type_symbol
_atom_site_fract_x
_atom_site_fract_y
_atom_site_fract_z
O1 O 0.76210 0.25000 -0.07270
O2 O 0.62110 0.25000 -0.26570
O3 O 0.26520 0.08790 -0.22260
N1 N 0.32240 0.25000 -0.18540
N2 N 0.00900 0.25000 0.13010
C1 C 0.46460 0.25000 -0.08940
C2 C 0.43790 0.25000 0.03400
C3 C 0.63350 0.25000 -0.13890
C4 C 0.77990 0.25000 -0.32580
C5 C 0.28260 0.25000 0.09390
C6 C 0.26840 0.25000 0.23010
C7 C 0.38300 0.25000 0.33640
C8 C 0.32190 0.25000 0.45530
C9 C 0.14770 0.25000 0.47040
C10 C 0.03200 0.25000 0.36810
C11 C 0.09410 0.25000 0.24820
C12 C 0.11960 0.25000 0.03890
O3C O 0.26520 0.41210 -0.22260
#END
