
#######################################################################
#
#                 Cambridge Crystallographic Data Centre
#                                CCDC
#
#######################################################################
#
# If this CIF has been generated from an entry in the Cambridge
# Structural Database, then it will include bibliographic, chemical,
# crystal, experimental, refinement or atomic coordinate data resulting
# from the CCDC's data processing and validation procedures.
#
#######################################################################

data_CSD_CIF_BESNAO01
_audit_creation_date 2006-01-24
_audit_creation_method CSD-ConQuest-V1
_database_code_CSD BESNAO01
_database_code_depnum_ccdc_archive 'CCDC 276456'
_chemical_formula_sum 'C10 H9 N1 O4'
_chemical_formula_moiety
;
C10 H9 N1 O4
;
_journal_coden_Cambridge 35
_journal_volume 70
_journal_year 2005
_journal_page_first 8140
_journal_name_full 'J.Org.Chem. '
loop_
_publ_author_name
"Liwen He"
"G.S.C.Srikanth"
"S.L.Castle"
_chemical_name_systematic
;
(Z)-Methyl 2-nitro-3-phenylacrylate
;
_cell_volume   1016.997
_exptl_crystal_colour 'colorless'
_exptl_crystal_density_diffrn 1.353
_exptl_crystal_description 'plate'
_diffrn_ambient_temperature 296
#These two values have been output from a single CSD field.
_refine_ls_R_factor_gt 0.0493
_refine_ls_wR_factor_gt 0.0493
_symmetry_cell_setting triclinic
_symmetry_space_group_name_H-M 'P -1'
_symmetry_Int_Tables_number 2
loop_
_symmetry_equiv_pos_site_id
_symmetry_equiv_pos_as_xyz
1 x,y,z
2 -x,-y,-z
_cell_length_a 10.0106(14)
_cell_length_b 10.4397(16)
_cell_length_c 11.6615(15)
_cell_angle_alpha 68.051(11)
_cell_angle_beta 67.541(10)
_cell_angle_gamma 70.203(11)
_cell_formula_units_Z 4
loop_
_atom_type_symbol
_atom_type_radius_bond
C 0.68
H 0.23
N 0.68
O 0.68
loop_
_atom_site_label
_atom_site_type_symbol
_atom_site_fract_x
_atom_site_fract_y
_atom_site_fract_z
C1 C 0.7733(2) -0.0228(2) 0.28058(19)
C2 C 0.6754(2) 0.0802(2) 0.32959(19)
H1 H 0.62160 0.14780 0.27480
C3 C 0.6373(2) 0.1062(2) 0.45383(19)
C4 C 0.5650(3) 0.2428(2) 0.4632(2)
H2 H 0.54360 0.31320 0.39090
C5 C 0.5246(3) 0.2760(3) 0.5764(3)
H3 H 0.47730 0.36860 0.58010
C6 C 0.5535(3) 0.1736(3) 0.6847(2)
H4 H 0.52660 0.19640 0.76160
C7 C 0.6225(3) 0.0373(3) 0.6784(2)
H5 H 0.64160 -0.03260 0.75180
C8 C 0.6634(3) 0.0030(2) 0.5656(2)
H6 H 0.70930 -0.09010 0.56330
C9 C 0.8047(2) -0.0382(2) 0.1517(2)
C10 C 0.7444(3) 0.0671(3) -0.0450(2)
H7 H 0.84550 0.06980 -0.09530
H8 H 0.67900 0.14850 -0.08420
H9 H 0.72360 -0.01770 -0.04160
C11 C 0.2691(2) 0.46393(19) 1.05367(18)
C12 C 0.1718(2) 0.56723(19) 0.99844(18)
H10 H 0.11720 0.63480 1.04310
C13 C 0.1354(2) 0.59362(19) 0.88060(18)
C14 C 0.0523(2) 0.7277(2) 0.8339(2)
H11 H 0.02270 0.79510 0.87830
C15 C 0.0135(3) 0.7621(2) 0.7232(2)
H12 H -0.04060 0.85280 0.69260
C16 C 0.0541(3) 0.6636(3) 0.6582(2)
H13 H 0.02890 0.68760 0.58260
C17 C 0.1320(3) 0.5291(3) 0.7043(2)
H14 H 0.15720 0.46160 0.66090
C18 C 0.1732(3) 0.4934(2) 0.8141(2)
H15 H 0.22640 0.40210 0.84430
C19 C 0.2933(2) 0.4455(2) 1.1762(2)
C20 C 0.2271(3) 0.5472(3) 1.3446(2)
H16 H 0.19410 0.46680 1.41110
H17 H 0.16770 0.63250 1.36830
H18 H 0.32920 0.53870 1.33440
N1 N 0.8723(2) -0.13690(18) 0.35164(17)
N2 N 0.3697(2) 0.35179(19) 0.99263(18)
O1 O 0.9840(2) -0.11110(19) 0.34668(19)
O2 O 0.8378(2) -0.24944(17) 0.41009(19)
O3 O 0.89559(19) -0.13352(17) 0.11331(16)
O4 O 0.72216(17) 0.06827(16) 0.08444(14)
O5 O 0.3391(2) 0.23771(17) 1.03160(18)
O6 O 0.4789(2) 0.3803(2) 0.9055(2)
O7 O 0.3768(2) 0.34395(17) 1.22439(16)
O8 O 0.21251(16) 0.55269(15) 1.22500(13)
#END
