
#######################################################################
#
#                 Cambridge Crystallographic Data Centre
#                                CCDC
#
#######################################################################
#
# If this CIF has been generated from an entry in the Cambridge
# Structural Database, then it will include bibliographic, chemical,
# crystal, experimental, refinement or atomic coordinate data resulting
# from the CCDC's data processing and validation procedures.
#
#######################################################################

data_CSD_CIF_BESWED
_audit_creation_date 2013-05-17
_audit_creation_method CSD-ConQuest-V1
_database_code_CSD BESWED
_database_code_depnum_ccdc_archive 'CCDC 916417'
_chemical_formula_sum 'C16 H18 N2 O6'
_chemical_formula_moiety
;
C16 H18 N2 O6
;
_journal_coden_Cambridge 35
_journal_volume 78
_journal_year 2013
_journal_page_first 311
_journal_name_full 'J.Org.Chem. '
loop_
_publ_author_name
"Shinn Dee Yeoh"
"C.E.Skene"
"J.M.White"
_chemical_name_systematic
;
6,6-Dimethylbicyclo[3.1.1]hept-2-yl 3,5-dinitrobenzoate
;
_chemical_name_common
;
alpha-Nopinyl 3,5-dinitrobenzoate
;
_chemical_melting_point 373.15
_cell_volume   3305.562
_exptl_crystal_colour 'colorless'
_exptl_crystal_density_diffrn 1.344
_exptl_special_details
;
Melting point range 373.15-374.95K

;
_exptl_crystal_description 'plate'
_diffrn_ambient_temperature 130
#These two values have been output from a single CSD field.
_refine_ls_R_factor_gt 0.0438
_refine_ls_wR_factor_gt 0.0438
_symmetry_cell_setting orthorhombic
_symmetry_space_group_name_H-M 'P 21 21 21'
_symmetry_Int_Tables_number 19
loop_
_symmetry_equiv_pos_site_id
_symmetry_equiv_pos_as_xyz
1 x,y,z
2 1/2-x,-y,1/2+z
3 -x,1/2+y,1/2-z
4 1/2+x,1/2-y,-z
_cell_length_a 9.7057(8)
_cell_length_b 11.5435(9)
_cell_length_c 29.504(2)
_cell_angle_alpha 90
_cell_angle_beta 90
_cell_angle_gamma 90
_cell_formula_units_Z 8
loop_
_atom_type_symbol
_atom_type_radius_bond
C 0.68
H 0.23
N 0.68
O 0.68
loop_
_atom_site_label
_atom_site_type_symbol
_atom_site_fract_x
_atom_site_fract_y
_atom_site_fract_z
C1 C 0.5673(3) 0.6588(3) 0.88861(11)
H1 H 0.52400 0.58240 0.89600
C2 C 0.4696(3) 0.7273(3) 0.86020(11)
H2 H 0.37880 0.74370 0.87480
C3 C 0.5368(4) 0.8333(3) 0.83569(11)
C4 C 0.5855(4) 0.7413(3) 0.80057(11)
H3 H 0.58640 0.76850 0.76840
C5 C 0.7170(4) 0.6818(3) 0.81611(11)
H4 H 0.79460 0.73710 0.81400
H5 H 0.73700 0.61590 0.79570
C6 C 0.7056(3) 0.6370(3) 0.86539(10)
H6 H 0.72350 0.55260 0.86540
H7 H 0.77890 0.67410 0.88370
C7 C 0.4603(4) 0.6662(3) 0.81358(11)
H8 H 0.47920 0.58200 0.81440
H9 H 0.37540 0.68370 0.79630
C8 C 0.4283(4) 0.9142(3) 0.81634(12)
H10 H 0.35790 0.86880 0.80050
H11 H 0.47170 0.96810 0.79500
H12 H 0.38530 0.95800 0.84100
C9 C 0.6439(3) 0.9065(3) 0.85989(11)
H13 H 0.71520 0.85600 0.87270
H14 H 0.59970 0.95030 0.88430
H15 H 0.68610 0.96030 0.83830
C10 C 0.5361(3) 0.6815(3) 0.96901(11)
C11 C 0.5750(3) 0.7555(3) 1.00853(10)
C12 C 0.5497(3) 0.7162(3) 1.05202(11)
H16 H 0.50810 0.64270 1.05690
C13 C 0.5859(3) 0.7855(3) 1.08791(10)
C14 C 0.6435(3) 0.8937(3) 1.08303(10)
H17 H 0.66620 0.94040 1.10850
C15 C 0.6666(3) 0.9309(3) 1.03915(11)
C16 C 0.6357(3) 0.8638(3) 1.00203(10)
H18 H 0.65550 0.89080 0.97230
N1 N 0.7254(3) 1.0471(3) 1.03178(11)
N2 N 0.5642(3) 0.7427(3) 1.1347(1)
O1 O 0.5938(2) 0.72131(18) 0.93107(7)
O2 O 0.4643(2) 0.59723(19) 0.97211(7)
O3 O 0.7436(2) 1.07892(19) 0.99271(8)
O4 O 0.7498(2) 1.1064(2) 1.06544(8)
O5 O 0.6045(3) 0.8041(2) 1.16622(7)
O6 O 0.5090(3) 0.6487(2) 1.13932(7)
C17 C 0.9881(3) 0.1379(3) 0.86775(10)
H19 H 0.96580 0.05500 0.87430
C18 C 0.8886(3) 0.1813(3) 0.83198(10)
H20 H 0.78900 0.17780 0.84060
C19 C 0.9351(3) 0.2955(3) 0.80905(10)
C20 C 1.0295(4) 0.2180(4) 0.78016(11)
H21 H 1.04050 0.24280 0.74790
C21 C 1.1382(3) 0.1453(3) 0.8537(1)
H22 H 1.17990 0.06740 0.85650
H23 H 1.18690 0.19730 0.87510
C22 C 0.9265(4) 0.1174(3) 0.78793(10)
H24 H 0.85110 0.11330 0.76540
H25 H 0.97020 0.04090 0.79260
C23 C 0.8173(3) 0.3466(3) 0.78059(10)
H26 H 0.77620 0.28550 0.76190
H27 H 0.85360 0.40790 0.76090
H28 H 0.74700 0.37910 0.80080
C24 C 0.9967(3) 0.3922(3) 0.8376(1)
H29 H 1.07220 0.36120 0.85600
H30 H 0.92550 0.42440 0.85750
H31 H 1.03200 0.45320 0.81770
C25 C 1.0193(3) 0.1634(3) 0.94678(10)
C26 C 0.9887(3) 0.2384(3) 0.9870(1)
C27 C 1.0323(3) 0.1998(3) 1.02893(10)
H32 H 1.08090 0.12870 1.03180
C28 C 1.0037(3) 0.2666(3) 1.06639(10)
C29 C 0.9380(3) 0.3718(3) 1.06392(10)
H33 H 0.92080 0.41680 1.09030
C30 C 0.8983(3) 0.4094(3) 1.02154(11)
C31 C 0.9209(3) 0.3438(3) 0.98285(10)
H34 H 0.89050 0.37040 0.95410
C32 C 1.1625(4) 0.1901(4) 0.80468(11)
H35 H 1.22050 0.26060 0.80590
H36 H 1.21350 0.13050 0.78730
N3 N 1.0447(3) 0.2240(3) 1.11157(10)
N4 N 0.8359(3) 0.5242(2) 1.01703(10)
O7 O 0.9624(2) 0.20609(18) 0.90910(6)
O8 O 1.0861(2) 0.07618(19) 0.94918(6)
O9 O 1.1172(3) 0.1374(2) 1.11322(7)
O10 O 1.0039(2) 0.2762(2) 1.14506(7)
O11 O 0.8360(2) 0.58698(19) 1.05065(7)
O12 O 0.7905(2) 0.55282(19) 0.97992(8)
#END
