
#######################################################################
#
#                 Cambridge Crystallographic Data Centre
#                                CCDC
#
#######################################################################
#
# If this CIF has been generated from an entry in the Cambridge
# Structural Database, then it will include bibliographic, chemical,
# crystal, experimental, refinement or atomic coordinate data resulting
# from the CCDC's data processing and validation procedures.
#
#######################################################################

data_CSD_CIF_BESWAZ
_audit_creation_date 2013-05-17
_audit_creation_method CSD-ConQuest-V1
_database_code_CSD BESWAZ
_database_code_depnum_ccdc_archive 'CCDC 916418'
_chemical_formula_sum 'C16 H18 N2 O6'
_chemical_formula_moiety
;
C16 H18 N2 O6
;
_journal_coden_Cambridge 35
_journal_volume 78
_journal_year 2013
_journal_page_first 311
_journal_name_full 'J.Org.Chem. '
loop_
_publ_author_name
"Shinn Dee Yeoh"
"C.E.Skene"
"J.M.White"
_chemical_name_systematic
;
6,6-Dimethylbicyclo[3.1.1]hept-2-yl 3,4-dinitrobenzoate
;
_chemical_name_common
;
alpha-Nopinyl 3,4-dinitrobenzoate
;
_chemical_melting_point 395.15
_cell_volume   1597.275
_exptl_crystal_colour 'colorless'
_exptl_crystal_density_diffrn 1.39
_exptl_special_details
;
Melting point range 395.15-396.45K

;
_exptl_crystal_description 'block'
_diffrn_ambient_temperature 130
#These two values have been output from a single CSD field.
_refine_ls_R_factor_gt 0.0353
_refine_ls_wR_factor_gt 0.0353
_symmetry_cell_setting monoclinic
_symmetry_space_group_name_H-M 'P 21'
_symmetry_Int_Tables_number 4
loop_
_symmetry_equiv_pos_site_id
_symmetry_equiv_pos_as_xyz
1 x,y,z
2 -x,1/2+y,-z
_cell_length_a 7.0798(2)
_cell_length_b 32.9160(6)
_cell_length_c 7.4809(2)
_cell_angle_alpha 90
_cell_angle_beta 113.621(3)
_cell_angle_gamma 90
_cell_formula_units_Z 4
loop_
_atom_type_symbol
_atom_type_radius_bond
C 0.68
H 0.23
N 0.68
O 0.68
loop_
_atom_site_label
_atom_site_type_symbol
_atom_site_fract_x
_atom_site_fract_y
_atom_site_fract_z
C1 C 0.4652(4) 0.41170(7) 0.8561(3)
H1 H 0.52700 0.40010 0.77140
C2 C 0.2754(4) 0.43533(7) 0.7322(3)
H2 H 0.16790 0.41970 0.63010
C3 C 0.3538(4) 0.47346(8) 0.6611(4)
H3 H 0.48480 0.46970 0.65050
H4 H 0.25250 0.48580 0.54430
C4 C 0.3706(4) 0.49367(7) 0.8535(4)
H5 H 0.33460 0.52260 0.84340
C5 C 0.5774(4) 0.48293(8) 1.0143(4)
H6 H 0.57600 0.49030 1.13930
H7 H 0.68450 0.49870 0.99690
C6 C 0.6293(4) 0.43728(8) 1.0163(4)
H8 H 0.75910 0.43460 1.00230
H9 H 0.64860 0.42610 1.14250
C7 C 0.1981(4) 0.46410(7) 0.8548(4)
C8 C 0.2001(4) 0.45041(8) 1.0497(4)
H10 H 0.33480 0.44040 1.13090
H11 H 0.10050 0.42920 1.02850
H12 H 0.16640 0.47300 1.11270
C9 C -0.0190(4) 0.47986(9) 0.7277(5)
H13 H -0.02290 0.48870 0.60410
H14 H -0.05220 0.50220 0.79230
H15 H -0.11760 0.45850 0.70750
C10 C 0.3638(3) 0.34259(7) 0.8674(3)
C11 C 0.3244(3) 0.31149(7) 0.9943(3)
C12 C 0.3139(3) 0.27079(6) 0.9372(3)
H16 H 0.32320 0.26390 0.82050
C13 C 0.2897(3) 0.24120(7) 1.0557(3)
C14 C 0.2733(3) 0.25133(7) 1.2303(3)
C15 C 0.2829(3) 0.29165(7) 1.2873(3)
H17 H 0.27300 0.29850 1.40380
C16 C 0.3075(3) 0.32164(7) 1.1680(3)
H18 H 0.31280 0.34880 1.20450
N1 N 0.3009(3) 0.19846(6) 1.0020(3)
N2 N 0.2335(3) 0.22011(6) 1.3526(3)
O1 O 0.4090(2) 0.37835(5) 0.9564(2)
O2 O 0.3593(3) 0.33493(5) 0.7078(2)
O3 O 0.1904(3) 0.18836(5) 0.8363(2)
O4 O 0.4269(3) 0.17684(5) 1.1247(2)
O5 O 0.1274(3) 0.19133(6) 1.2700(3)
O6 O 0.3024(3) 0.22652(6) 1.5277(2)
C17 C 0.6560(4) 0.14701(7) 0.7969(4)
H19 H 0.60290 0.15970 0.88590
C18 C 0.4858(4) 0.12258(7) 0.6483(4)
H20 H 0.36070 0.13790 0.57130
C19 C 0.4531(5) 0.08516(8) 0.7597(5)
H21 H 0.49060 0.08970 0.89780
H22 H 0.31830 0.07270 0.69840
C20 C 0.6237(4) 0.06435(8) 0.7109(4)
H23 H 0.60310 0.03530 0.68130
C21 C 0.8334(5) 0.07572(8) 0.8657(4)
H24 H 0.93910 0.06910 0.81890
H25 H 0.85950 0.05980 0.98240
C22 C 0.8473(5) 0.12163(9) 0.9180(4)
H26 H 0.87180 0.12420 1.05470
H27 H 0.96570 0.13310 0.90170
C23 C 0.5628(4) 0.09273(7) 0.5297(4)
C24 C 0.7317(4) 0.10533(8) 0.4627(4)
H28 H 0.67400 0.12270 0.35050
H29 H 0.78930 0.08160 0.42940
H30 H 0.83800 0.11970 0.56610
C25 C 0.3782(5) 0.07661(9) 0.3519(5)
H31 H 0.27010 0.06870 0.39140
H32 H 0.42050 0.05350 0.29880
H33 H 0.32880 0.09750 0.25470
C26 C 0.7422(3) 0.21615(7) 0.7666(3)
C27 C 0.7760(3) 0.24668(6) 0.6335(3)
C28 C 0.7830(3) 0.28766(7) 0.6857(3)
H34 H 0.77180 0.29510 0.80100
C29 C 0.8065(3) 0.31667(6) 0.5646(3)
C30 C 0.8229(3) 0.30583(7) 0.3911(3)
C31 C 0.8148(3) 0.26516(7) 0.3378(3)
H35 H 0.82460 0.25780 0.22170
C32 C 0.7922(3) 0.23575(7) 0.4600(3)
H36 H 0.78770 0.20850 0.42620
N3 N 0.8639(3) 0.33644(6) 0.2671(2)
N4 N 0.7937(3) 0.35982(5) 0.6143(3)
O7 O 0.7116(3) 0.17933(5) 0.6903(2)
O8 O 0.7390(3) 0.22536(5) 0.9216(2)
O9 O 0.9080(3) 0.37047(5) 0.7775(2)
O10 O 0.6648(3) 0.38087(5) 0.4925(2)
O11 O 0.9670(3) 0.36584(5) 0.3477(2)
O12 O 0.7985(3) 0.32919(5) 0.0928(2)
#END
