
#######################################################################
#
#                 Cambridge Crystallographic Data Centre
#                                CCDC
#
#######################################################################
#
# If this CIF has been generated from an entry in the Cambridge
# Structural Database, then it will include bibliographic, chemical,
# crystal, experimental, refinement or atomic coordinate data resulting
# from the CCDC's data processing and validation procedures.
#
#######################################################################

data_CSD_CIF_BETBAF
_audit_creation_date 2013-05-17
_audit_creation_method CSD-ConQuest-V1
_database_code_CSD BETBAF
_database_code_depnum_ccdc_archive 'CCDC 916313'
_chemical_formula_sum 'C16 H17 N1 O4'
_chemical_formula_moiety
;
C16 H17 N1 O4
;
_journal_coden_Cambridge 182
_journal_volume 49
_journal_year 2013
_journal_page_first 2219
_journal_name_full 'Chem.Commun. '
loop_
_publ_author_name
"M.Tsakos"
"M.R.J.Elsegood"
"C.G.Kokotos"
_chemical_name_systematic
;
(1S,5S,6R,7S,E)-5-Hydroxy-6-nitro-7-(2-phenylvinyl)bicyclo[3.2.1]octan-2-one
;
_chemical_melting_point 415.15
_cell_volume   1455.708
_exptl_crystal_colour 'colorless'
_exptl_crystal_density_diffrn 1.311
_exptl_special_details
;
Melting point range 415.15-417.15K
Absolute configuration

;
_exptl_crystal_description 'block'
_diffrn_ambient_temperature 150
#These two values have been output from a single CSD field.
_refine_ls_R_factor_gt 0.0412
_refine_ls_wR_factor_gt 0.0412
_symmetry_cell_setting orthorhombic
_symmetry_space_group_name_H-M 'P 21 21 2'
_symmetry_Int_Tables_number 18
loop_
_symmetry_equiv_pos_site_id
_symmetry_equiv_pos_as_xyz
1 x,y,z
2 -x,-y,z
3 1/2-x,1/2+y,-z
4 1/2+x,1/2-y,-z
_cell_length_a 10.3329(10)
_cell_length_b 19.6202(19)
_cell_length_c 7.1804(7)
_cell_angle_alpha 90
_cell_angle_beta 90
_cell_angle_gamma 90
_cell_formula_units_Z 4
loop_
_atom_type_symbol
_atom_type_radius_bond
C 0.68
H 0.23
N 0.68
O 0.68
loop_
_atom_site_label
_atom_site_type_symbol
_atom_site_fract_x
_atom_site_fract_y
_atom_site_fract_z
C1 C 0.68101(16) 0.69495(8) 0.3963(2)
H1 H 0.591(2) 0.6966(11) 0.437(3)
C2 C 0.70054(16) 0.66993(8) 0.1957(2)
H2 H 0.7675(19) 0.6372(11) 0.191(3)
C3 C 0.75866(15) 0.73238(9) 0.0906(2)
H3 H 0.805(2) 0.7188(10) -0.018(3)
C4 C 0.65653(15) 0.78368(8) 0.0352(2)
O1 O 0.64093(13) 0.80169(7) -0.12638(17)
C5 C 0.57270(18) 0.81037(10) 0.1909(3)
H4 H 0.534(2) 0.8523(12) 0.151(3)
H5 H 0.503(2) 0.7765(11) 0.209(3)
C6 C 0.64812(17) 0.82148(9) 0.3739(2)
H6 H 0.689(2) 0.8670(11) 0.369(3)
H7 H 0.591(2) 0.8227(11) 0.483(3)
C7 C 0.74992(15) 0.76609(8) 0.4082(2)
O2 O 0.81770(13) 0.77705(7) 0.57636(17)
H8 H 0.763(2) 0.7844(13) 0.661(4)
C8 C 0.84433(16) 0.76412(9) 0.2437(2)
H9 H 0.922(2) 0.7340(11) 0.270(3)
H10 H 0.876(2) 0.8118(12) 0.211(3)
N1 N 0.74299(18) 0.64776(8) 0.5359(2)
O3 O 0.6862(3) 0.64078(9) 0.6833(2)
O4 O 0.84749(16) 0.62182(8) 0.5007(2)
C9 C 0.58685(17) 0.63541(8) 0.1059(3)
H11 H 0.593(2) 0.6295(10) -0.018(3)
C10 C 0.48719(17) 0.60781(9) 0.1943(3)
H12 H 0.482(2) 0.6118(11) 0.321(4)
C11 C 0.38010(16) 0.56865(8) 0.1112(3)
C12 C 0.3751(2) 0.55292(9) -0.0796(3)
H13 H 0.448(3) 0.5686(13) -0.161(4)
C13 C 0.2727(2) 0.51428(10) -0.1501(4)
H14 H 0.26970 0.50390 -0.27930
C14 C 0.1760(2) 0.49101(11) -0.0342(5)
H15 H 0.106(3) 0.4647(16) -0.089(5)
C15 C 0.1798(2) 0.50631(11) 0.1536(5)
H16 H 0.120(3) 0.493(2) 0.236(5)
C16 C 0.2814(2) 0.54497(10) 0.2264(4)
H17 H 0.281(3) 0.5595(14) 0.361(4)
#END
