
#######################################################################
#
#                 Cambridge Crystallographic Data Centre
#                                CCDC
#
#######################################################################
#
# If this CIF has been generated from an entry in the Cambridge
# Structural Database, then it will include bibliographic, chemical,
# crystal, experimental, refinement or atomic coordinate data resulting
# from the CCDC's data processing and validation procedures.
#
#######################################################################

data_CSD_CIF_BETDIN
_audit_creation_date 1983-01-18
_audit_creation_method CSD-ConQuest-V1
_database_code_CSD BETDIN
_database_code_depnum_ccdc_archive 'CCDC 1109146'
_chemical_formula_sum 'C12 H13 N1 O5'
_chemical_formula_moiety
;
C12 H13 N1 O5
;
_journal_coden_Cambridge 35
_journal_volume 47
_journal_year 1982
_journal_page_first 517
_journal_name_full 'J.Org.Chem. '
loop_
_publ_author_name
"N.Amlaiky"
"G.Leclerc"
"A.Carpy"
_chemical_name_systematic
;
methyl 2-[5-(hydroxymethyl)-5,6-dihydro-1,4,2-dioxazin-3-yl]benzoate
;
_chemical_name_common
;
3-(o-(Carbomethoxy)phenyl)-5-(hydroxymethyl)-6H-1,4,2-dioxazine
;
_chemical_melting_point 368.15
_cell_volume    587.115
_exptl_crystal_density_diffrn 1.42
_exptl_special_details
;
Melting point range 368.15-370.15K
Coords of atom C(18) are missing from reprint, but have been provided by 
authors
;
_diffrn_ambient_temperature ?
_diffrn_special_details
;
The study was carried out at room temperature,in the range 283-303K

;
#These two values have been output from a single CSD field.
_refine_ls_R_factor_gt 0.079
_refine_ls_wR_factor_gt 0.079
_symmetry_cell_setting triclinic
_symmetry_space_group_name_H-M 'P -1'
_symmetry_Int_Tables_number 2
loop_
_symmetry_equiv_pos_site_id
_symmetry_equiv_pos_as_xyz
1 x,y,z
2 -x,-y,-z
_cell_length_a 7.638(1)
_cell_length_b 9.151(1)
_cell_length_c 9.624(1)
_cell_angle_alpha 84.68(1)
_cell_angle_beta 70.35(1)
_cell_angle_gamma 68.04(1)
_cell_formula_units_Z 2
loop_
_atom_type_symbol
_atom_type_radius_bond
C 0.68
H 0.23
N 0.68
O 0.68
loop_
_atom_site_label
_atom_site_type_symbol
_atom_site_fract_x
_atom_site_fract_y
_atom_site_fract_z
C1 C -0.19620 0.90430 0.79010
C2 C -0.30520 0.49580 1.13170
C3 C -0.23930 0.84520 0.93340
C4 C -0.27270 0.94010 1.05160
C5 C -0.26200 1.08840 1.03150
C6 C -0.21750 1.14440 0.89030
C7 C -0.18410 1.05200 0.77100
C8 C -0.16830 0.81530 0.65780
O1 O -0.33820 0.81960 0.64380
C9 C -0.31170 0.71250 0.53070
C10 C -0.13820 0.71010 0.40280
O2 O 0.03500 0.67480 0.43830
N1 N 0.00940 0.75340 0.56840
C11 C -0.50400 0.76520 0.49810
O3 O -0.65590 0.76160 0.62250
C12 C -0.24700 0.68410 0.95530
O4 O -0.21660 0.59460 0.86040
O5 O -0.29220 0.64940 1.09810
H1 H -0.29800 0.90000 1.14900
H2 H -0.28600 1.15000 1.11500
H3 H -0.20900 1.25100 0.87500
H4 H -0.14900 1.08900 0.66800
H5 H -0.27400 0.59600 0.57200
H6 H -0.10500 0.62800 0.33400
H7 H -0.17900 0.82500 0.36500
H8 H -0.54400 0.87600 0.46800
H9 H -0.50100 0.69100 0.42800
#END
