
#######################################################################
#
#                 Cambridge Crystallographic Data Centre
#                                CCDC
#
#######################################################################
#
# If this CIF has been generated from an entry in the Cambridge
# Structural Database, then it will include bibliographic, chemical,
# crystal, experimental, refinement or atomic coordinate data resulting
# from the CCDC's data processing and validation procedures.
#
#######################################################################

data_CSD_CIF_BETTEZ
_audit_creation_date 1983-01-18
_audit_creation_method CSD-ConQuest-V1
_database_code_CSD BETTEZ
_database_code_depnum_ccdc_archive 'CCDC 1109218'
_chemical_formula_sum 'C42 H54 N2 O9'
_chemical_formula_moiety
;
C42 H54 N2 O9
;
_journal_coden_Cambridge 24
_journal_volume 23
_journal_year 1982
_journal_page_first 1299
_journal_name_full 'Tetrahedron Lett. '
loop_
_publ_author_name
"I.Brondz"
"T.Greibrokk"
"P.A.Groth"
"A.J.Aasen"
_chemical_name_systematic
;
Hyperforin 3,5-dinitrobenzoate ester
;
_cell_volume   1998.571
_exptl_crystal_density_diffrn 1.21
_diffrn_ambient_temperature 123.15
_refine_special_details
;
The vinylic-CH2-Ch=C(CH3) chain is disordered, one set of positions retained.

;
#These two values have been output from a single CSD field.
_refine_ls_R_factor_gt 0.043
_refine_ls_wR_factor_gt 0.043
_chemical_compound_source
;
Hypercum perforatum L
;
_symmetry_cell_setting monoclinic
_symmetry_space_group_name_H-M 'P 21'
_symmetry_Int_Tables_number 4
loop_
_symmetry_equiv_pos_site_id
_symmetry_equiv_pos_as_xyz
1 x,y,z
2 -x,1/2+y,-z
_cell_length_a 10.450(4)
_cell_length_b 12.613(5)
_cell_length_c 17.295(6)
_cell_angle_alpha 90
_cell_angle_beta 118.75(3)
_cell_angle_gamma 90
_cell_formula_units_Z 2
loop_
_atom_type_symbol
_atom_type_radius_bond
C 0.68
H 0.23
N 0.68
O 0.68
loop_
_atom_site_label
_atom_site_type_symbol
_atom_site_fract_x
_atom_site_fract_y
_atom_site_fract_z
O1 O 1.05770 0.07820 0.06030
O2 O 1.41970 0.20580 0.31630
O3 O 1.33970 0.25480 0.10050
O4 O 1.01830 0.01830 0.30490
O5 O 0.96340 0.15210 0.36980
O6 O 0.70300 0.03940 0.53500
O7 O 0.71900 -0.12530 0.57540
O8 O 0.85810 -0.38880 0.43180
O9 O 0.98780 -0.34250 0.36900
N1 N 0.73820 -0.05220 0.53430
N2 N 0.91130 -0.32230 0.40470
C1 C 1.08390 0.12080 0.12950
C2 C 1.20670 0.20090 0.17570
C3 C 1.13220 0.31370 0.16000
C4 C 1.02770 0.30920 0.20170
C5 C 0.91700 0.21930 0.16410
C6 C 0.98680 0.10670 0.17240
C7 C 1.08460 0.08150 0.26860
C8 C 1.22750 0.11110 0.31880
C9 C 1.29380 0.17500 0.27470
C10 C 1.31870 0.18480 0.14120
C11 C 1.39380 0.07750 0.15570
C12 C 1.56150 0.09500 0.21420
C13 C 1.36360 0.03010 0.06660
C14 C 1.04470 0.33450 0.06070
C15 C 1.25210 0.39830 0.20920
C16 C 1.23060 0.50650 0.16380
C17 C 1.35080 0.58110 0.22190
C18 C 1.39960 0.66170 0.19510
C19 C 1.53100 0.72710 0.26060
C20 C 1.34100 0.69530 0.10230
C21 C 0.94660 0.41530 0.19530
C22 C 0.87570 0.40770 0.25250
C23 C 0.73670 0.41700 0.23000
C24 C 0.61580 0.43980 0.14080
C25 C 0.68870 0.40500 0.29840
C26 C 0.87470 0.02060 0.12680
C27 C 0.93770 -0.08880 0.14040
C28 C 0.87270 -0.17810 0.13350
C29 C 0.71500 -0.18870 0.11160
C30 C 0.95080 -0.28100 0.14820
C31 C 1.32210 0.08000 0.41180
C32 C 1.37580 -0.03010 0.39760
C33 C 1.35020 -0.11620 0.44120
C34 C 1.35650 -0.11160 0.52410
C35 C 1.40610 -0.22670 0.42420
C36 C 0.96750 0.06120 0.35700
C37 C 0.91470 -0.02690 0.39230
C38 C 0.84660 0.00130 0.44220
C39 C 0.80620 -0.07980 0.47990
C40 C 0.82750 -0.18610 0.47000
C41 C 0.89000 -0.20880 0.41670
C42 C 0.93590 -0.13400 0.38020
H1 H 1.09400 0.29100 0.26300
H2 H 0.84500 0.23700 0.10400
H3 H 0.87100 0.28400 0.20000
H4 H 1.37400 0.04600 0.20000
H5 H 1.59100 0.13000 0.26800
H6 H 1.60000 0.14100 0.18200
H7 H 1.61500 0.02400 0.21700
H8 H 1.41500 -0.03600 0.08100
H9 H 1.40200 0.08400 0.04400
H10 H 1.25800 0.01200 0.03100
H11 H 1.00100 0.39300 0.05000
H12 H 0.97600 0.27600 0.03300
H13 H 1.10900 0.33700 0.03100
H14 H 1.34000 0.37000 0.21400
H15 H 1.26600 0.40000 0.27000
H16 H 1.14000 0.53700 0.15400
H17 H 1.23000 0.49800 0.10000
H18 H 1.39700 0.56200 0.28300
H19 H 1.56500 0.69400 0.32100
H20 H 1.49800 0.79800 0.25200
H21 H 1.60400 0.71900 0.24800
H22 H 1.37300 0.77400 0.09100
H23 H 1.25300 0.68800 0.07800
H24 H 1.38400 0.66300 0.07800
H25 H 0.87100 0.42600 0.13600
H26 H 1.02200 0.46900 0.21600
H27 H 0.94100 0.39500 0.31500
H28 H 0.52100 0.42100 0.13500
H29 H 0.61600 0.38000 0.09800
H30 H 0.63300 0.48100 0.11500
H31 H 0.75700 0.38500 0.35200
H32 H 0.61100 0.35000 0.27600
H33 H 0.64400 0.47500 0.30700
H34 H 0.81900 0.03800 0.05900
H35 H 0.79600 0.02300 0.14700
H36 H 1.04400 -0.08900 0.15500
H37 H 0.67200 -0.11900 0.10200
H38 H 0.72000 -0.23100 0.16600
H39 H 0.65700 -0.23600 0.05600
H40 H 0.89100 -0.33600 0.13000
H41 H 1.02800 -0.29200 0.20500
H42 H 0.96600 -0.29500 0.10300
H43 H 1.28700 0.08800 0.43800
H44 H 1.43300 0.12900 0.44500
H45 H 1.37700 -0.03800 0.33100
H46 H 1.28600 -0.04900 0.52300
H47 H 1.47300 -0.10700 0.57600
H48 H 1.33400 -0.16300 0.54500
H49 H 1.38900 -0.29300 0.44500
H50 H 1.54100 -0.21900 0.46200
H51 H 1.37400 -0.23600 0.36900
H52 H 0.83300 0.08200 0.44900
H53 H 0.80600 -0.24300 0.49700
H54 H 0.98700 -0.15300 0.34600
#END
