
#######################################################################
#
#                 Cambridge Crystallographic Data Centre
#                                CCDC
#
#######################################################################
#
# If this CIF has been generated from an entry in the Cambridge
# Structural Database, then it will include bibliographic, chemical,
# crystal, experimental, refinement or atomic coordinate data resulting
# from the CCDC's data processing and validation procedures.
#
#######################################################################

data_CSD_CIF_BETVUR
_audit_creation_date 1983-01-18
_audit_creation_method CSD-ConQuest-V1
_database_code_CSD BETVUR
_database_code_depnum_ccdc_archive 'CCDC 1109229'
_chemical_formula_sum 'C14 H18 N2 O3'
_chemical_formula_moiety
;
C14 H18 N2 O3
;
_journal_coden_Cambridge 103
_journal_volume 109
_journal_year 1982
_journal_page_first 39
_journal_name_full 'Acta Chim.Acad.Sci.Hung. '
loop_
_publ_author_name
"G.Argay"
"A.Kalman"
"F.Fulop"
"G.Bernath"
_chemical_name_systematic
;
2-(p-Nitrophenyl)-cis-5,6-tetramethylene-2,3,5,6-tetrahydro-1,3-oxazine
;
_cell_volume   1334.515
_exptl_crystal_density_diffrn 1.305
_diffrn_ambient_temperature ?
_diffrn_special_details
;
The study was carried out at room temperature,in the range 283-303K

;
#These two values have been output from a single CSD field.
_refine_ls_R_factor_gt 0.033
_refine_ls_wR_factor_gt 0.033
_symmetry_cell_setting monoclinic
_symmetry_space_group_name_H-M 'P 21/c'
_symmetry_Int_Tables_number 14
loop_
_symmetry_equiv_pos_site_id
_symmetry_equiv_pos_as_xyz
1 x,y,z
2 -x,1/2+y,1/2-z
3 -x,-y,-z
4 x,-1/2-y,-1/2+z
_cell_length_a 6.856(1)
_cell_length_b 21.063(1)
_cell_length_c 10.449(1)
_cell_angle_alpha 90
_cell_angle_beta 117.82(1)
_cell_angle_gamma 90
_cell_formula_units_Z 4
loop_
_atom_type_symbol
_atom_type_radius_bond
C 0.68
H 0.23
N 0.68
O 0.68
loop_
_atom_site_label
_atom_site_type_symbol
_atom_site_fract_x
_atom_site_fract_y
_atom_site_fract_z
O1 O 0.30860 0.11420 0.48860
C1 C 0.13700 0.06810 0.42760
N1 N -0.08160 0.09460 0.35780
C2 C -0.11850 0.13940 0.45190
C3 C 0.06680 0.18810 0.52360
C4 C 0.28710 0.15280 0.59460
C5 C 0.06620 0.23880 0.41970
C6 C 0.26410 0.28310 0.48940
C7 C 0.47730 0.24600 0.55200
C8 C 0.48490 0.19660 0.65840
C9 C 0.17880 0.02840 0.32300
C10 C 0.02870 -0.01840 0.24200
C11 C 0.06390 -0.05630 0.14800
C12 C 0.25240 -0.04680 0.13480
C13 C 0.40220 -0.00050 0.21030
C14 C 0.36570 0.03650 0.30560
N2 N 0.29280 -0.08710 0.03520
O2 O 0.46250 -0.07950 0.02620
O3 O 0.15320 -0.12720 -0.03560
H1 H 0.14800 0.04000 0.51100
H2 H -0.10500 0.11500 0.27600
H3 H -0.25500 0.16200 0.39200
H4 H -0.13600 0.11400 0.52500
H5 H 0.04600 0.20900 0.59900
H6 H 0.28600 0.12400 0.67000
H7 H 0.06900 0.21500 0.33600
H8 H -0.06800 0.26100 0.39000
H9 H 0.24800 0.30800 0.56400
H10 H 0.26600 0.31800 0.42700
H11 H 0.61100 0.27400 0.59800
H12 H 0.49200 0.22600 0.47300
H13 H 0.62200 0.17100 0.68800
H14 H 0.48400 0.21900 0.74400
H15 H -0.10500 -0.02500 0.25400
H16 H -0.04100 -0.08700 0.08700
H17 H 0.53400 0.00700 0.19600
H18 H 0.46200 0.06800 0.35500
#END
