
#######################################################################
#
#                 Cambridge Crystallographic Data Centre
#                                CCDC
#
#######################################################################
#
# If this CIF has been generated from an entry in the Cambridge
# Structural Database, then it will include bibliographic, chemical,
# crystal, experimental, refinement or atomic coordinate data resulting
# from the CCDC's data processing and validation procedures.
#
#######################################################################

data_CSD_CIF_BETWAY
_audit_creation_date 1983-01-18
_audit_creation_method CSD-ConQuest-V1
_database_code_CSD BETWAY
_database_code_depnum_ccdc_archive 'CCDC 1109230'
_chemical_formula_sum 'C14 H18 N2 O3'
_chemical_formula_moiety
;
C14 H18 N2 O3
;
_journal_coden_Cambridge 103
_journal_volume 109
_journal_year 1982
_journal_page_first 39
_journal_name_full 'Acta Chim.Acad.Sci.Hung. '
loop_
_publ_author_name
"G.Argay"
"A.Kalman"
"F.Fulop"
"G.Bernath"
_chemical_name_systematic
;
2-(p-Nitrophenyl)-cis-4,5-tetramethylene-2,3,4,5-tetrahydro-1,3-oxazine
;
_cell_volume   1321.663
_exptl_crystal_density_diffrn 1.317
_diffrn_ambient_temperature ?
_diffrn_special_details
;
The study was carried out at room temperature,in the range 283-303K

;
#These two values have been output from a single CSD field.
_refine_ls_R_factor_gt 0.076
_refine_ls_wR_factor_gt 0.076
_symmetry_cell_setting monoclinic
_symmetry_space_group_name_H-M 'P 21/c'
_symmetry_Int_Tables_number 14
loop_
_symmetry_equiv_pos_site_id
_symmetry_equiv_pos_as_xyz
1 x,y,z
2 -x,1/2+y,1/2-z
3 -x,-y,-z
4 x,-1/2-y,-1/2+z
_cell_length_a 6.585(4)
_cell_length_b 12.507(6)
_cell_length_c 16.054(6)
_cell_angle_alpha 90
_cell_angle_beta 91.61(2)
_cell_angle_gamma 90
_cell_formula_units_Z 4
loop_
_atom_type_symbol
_atom_type_radius_bond
C 0.68
H 0.23
N 0.68
O 0.68
loop_
_atom_site_label
_atom_site_type_symbol
_atom_site_fract_x
_atom_site_fract_y
_atom_site_fract_z
O1 O -0.03340 0.38160 0.17590
C1 C 0.16270 0.33430 0.18150
N1 N 0.28930 0.37750 0.24950
C2 C 0.19340 0.36640 0.33060
C3 C -0.02480 0.41390 0.32690
C4 C -0.14120 0.36700 0.25170
C5 C -0.02210 0.53580 0.32440
C6 C 0.11240 0.58350 0.39500
C7 C 0.32890 0.53730 0.39470
C8 C 0.32490 0.41600 0.39850
C9 C 0.26410 0.34540 0.09930
C10 C 0.46470 0.31130 0.09300
C11 C 0.56350 0.32160 0.01920
C12 C 0.45980 0.36420 -0.04850
C13 C 0.26180 0.39750 -0.04440
C14 C 0.16220 0.38720 0.03040
N2 N 0.56480 0.37550 -0.12690
O2 O 0.74660 0.35790 -0.12740
O3 O 0.46780 0.40300 -0.18870
H1 H 0.14310 0.25080 0.19660
H2 H 0.43590 0.41410 0.24110
H3 H 0.17930 0.28230 0.34490
H4 H -0.10200 0.39280 0.38310
H5 H -0.28740 0.40570 0.24550
H6 H -0.16260 0.28240 0.26190
H7 H 0.03610 0.56120 0.26530
H8 H -0.17530 0.56520 0.33040
H9 H 0.04540 0.56530 0.45400
H10 H 0.12010 0.66910 0.38710
H11 H 0.41380 0.56740 0.44820
H12 H 0.40180 0.56200 0.33840
H13 H 0.26650 0.39230 0.45790
H14 H 0.47820 0.38660 0.39320
H15 H 0.54370 0.27780 0.14680
H16 H 0.71930 0.29580 0.01470
H17 H 0.18280 0.43100 -0.09820
H18 H 0.00630 0.41340 0.03490
#END
