
#######################################################################
#
#                 Cambridge Crystallographic Data Centre
#                                CCDC
#
#######################################################################
#
# If this CIF has been generated from an entry in the Cambridge
# Structural Database, then it will include bibliographic, chemical,
# crystal, experimental, refinement or atomic coordinate data resulting
# from the CCDC's data processing and validation procedures.
#
#######################################################################

data_CSD_CIF_BEVPEX
_audit_creation_date 1983-01-18
_audit_creation_method CSD-ConQuest-V1
_database_code_CSD BEVPEX
_chemical_formula_sum 'C18 H13 N1 O3'
_chemical_formula_moiety
;
C18 H13 N1 O3
;
_journal_coden_Cambridge 24
_journal_volume 23
_journal_year 1982
_journal_page_first 1173
_journal_name_full 'Tetrahedron Lett. '
loop_
_publ_author_name
"S.Ueji"
"K.Nakatsu"
"H.Yoshioka"
"K.Kinoshita"
_chemical_name_systematic
;
4-Nitro-2,6-diphenylphenol
;
_chemical_melting_point 408.15
_cell_volume   2879.448
_diffrn_ambient_temperature ?
_diffrn_special_details
;
The study was carried out at room temperature,in the range 283-303K

;
#These two values have been output from a single CSD field.
_refine_ls_R_factor_gt 0.047
_refine_ls_wR_factor_gt 0.047
_symmetry_cell_setting monoclinic
_symmetry_space_group_name_H-M 'C 2/c'
_symmetry_Int_Tables_number 15
loop_
_symmetry_equiv_pos_site_id
_symmetry_equiv_pos_as_xyz
1 x,y,z
2 1/2+x,1/2+y,z
3 -x,y,1/2-z
4 1/2-x,1/2+y,1/2-z
5 -x,-y,-z
6 -1/2-x,-1/2-y,-z
7 x,-y,-1/2+z
8 -1/2+x,-1/2-y,-1/2+z
_cell_length_a 21.983(3)
_cell_length_b 9.259(1)
_cell_length_c 14.208(2)
_cell_angle_alpha 90
_cell_angle_beta 95.32(2)
_cell_angle_gamma 90
_cell_formula_units_Z 8
loop_
_atom_type_symbol
_atom_type_radius_bond
C 0.68
H 0.23
N 0.68
O 0.68
loop_
_atom_site_label
_atom_site_type_symbol
_atom_site_fract_x
_atom_site_fract_y
_atom_site_fract_z
C1 C 0.13033 0.30068 0.54353
C2 C 0.08041 0.24171 0.58512
C3 C 0.02261 0.25716 0.53866
C4 C 0.01507 0.33102 0.45393
C5 C 0.06413 0.38969 0.41307
C6 C 0.12280 0.37490 0.45702
C7 C 0.08937 0.16363 0.67734
C8 C 0.06959 0.02256 0.68424
C9 C 0.07782 -0.05060 0.76882
C10 C 0.10542 0.01585 0.84801
C11 C 0.12474 0.15616 0.84276
C12 C 0.11678 0.23005 0.75764
C13 C 0.17565 0.43417 0.41115
C14 C 0.18256 0.40170 0.31749
C15 C 0.22981 0.45990 0.27222
C16 C 0.27050 0.55155 0.31981
C17 C 0.26493 0.58500 0.41336
C18 C 0.21787 0.52614 0.45887
N1 N -0.04645 0.34936 0.40674
O1 O 0.18853 0.28651 0.58334
O2 O -0.08949 0.29378 0.44177
O3 O -0.05228 0.41992 0.33360
H1 H 0.18933 0.23535 0.62426
H2 H -0.01294 0.21544 0.56527
H3 H 0.05696 0.43822 0.35535
H4 H 0.04952 -0.02443 0.62551
H5 H 0.06336 -0.14945 0.77279
H6 H 0.11170 -0.03591 0.90881
H7 H 0.14442 0.21039 0.89602
H8 H 0.12913 0.32495 0.75313
H9 H 0.15374 0.33684 0.28284
H10 H 0.23361 0.43338 0.20449
H11 H 0.30291 0.59495 0.29013
H12 H 0.29435 0.64682 0.44939
H13 H 0.21308 0.55022 0.52468
#END
