
#######################################################################
#
#                 Cambridge Crystallographic Data Centre
#                                CCDC
#
#######################################################################
#
# If this CIF has been generated from an entry in the Cambridge
# Structural Database, then it will include bibliographic, chemical,
# crystal, experimental, refinement or atomic coordinate data resulting
# from the CCDC's data processing and validation procedures.
#
#######################################################################

data_CSD_CIF_BEWQEZ
_audit_creation_date 1999-12-03
_audit_creation_method CSD-ConQuest-V1
_database_code_CSD BEWQEZ
_chemical_formula_sum 'C27 H39 N1 O14'
_chemical_formula_moiety
;
C27 H39 N1 O14
;
_journal_coden_Cambridge 24
_journal_volume 39
_journal_year 1998
_journal_page_first 8557
_journal_name_full 'Tetrahedron Lett. '
loop_
_publ_author_name
"P.Areces"
"M.V.Gil"
"F.J.Higes"
"E.Roman"
"J.A.Serrano"
_chemical_name_systematic
;
5-(1,2,3,4,5-Penta-O-acetyl-D-galacto-pentitolyl)-1,2-dimethyl-4-(2'-(methoxyc
arbonyl)ethyl)-4-nitrocyclohexene
;
_cell_volume   1590.545
_exptl_crystal_colour 'colorless'
_exptl_crystal_density_diffrn 1.256
_exptl_crystal_description 'pyramid'
_diffrn_ambient_temperature ?
_diffrn_special_details
;
The study was carried out at room temperature,in the range 283-303K

;
#These two values have been output from a single CSD field.
_refine_ls_R_factor_gt 0.061
_refine_ls_wR_factor_gt 0.061
_symmetry_cell_setting monoclinic
_symmetry_space_group_name_H-M 'P 21'
_symmetry_Int_Tables_number 4
loop_
_symmetry_equiv_pos_site_id
_symmetry_equiv_pos_as_xyz
1 x,y,z
2 -x,1/2+y,-z
_cell_length_a 9.880(1)
_cell_length_b 16.916(1)
_cell_length_c 10.006(1)
_cell_angle_alpha 90
_cell_angle_beta 107.99(1)
_cell_angle_gamma 90
_cell_formula_units_Z 2
loop_
_atom_type_symbol
_atom_type_radius_bond
C 0.68
H 0.23
N 0.68
O 0.68
loop_
_atom_site_label
_atom_site_type_symbol
_atom_site_fract_x
_atom_site_fract_y
_atom_site_fract_z
O1 O 0.8021(4) 0.66040 0.2438(3)
O2 O 0.4483(4) 0.6842(3) 0.1968(4)
O3 O 0.6053(4) 0.7003(3) 0.4871(3)
O4 O 0.9592(3) 0.6826(3) 0.5243(3)
C1 C 0.7456(5) 0.7091(4) 0.3345(5)
C2 C 0.8701(5) 0.7459(4) 0.4479(5)
C3 C 0.9765(6) 0.6780(5) 0.6657(6)
C4 C 0.9504(6) 0.8050(4) 0.3794(6)
C5 C 0.5297(6) 0.6188(4) 0.2751(6)
N1 N 1.1730(6) 0.7280(4) 0.4231(6)
O5 O 0.9336(5) 0.7272(4) 0.7294(4)
C6 C 0.6544(6) 0.6535(4) 0.3907(5)
C7 C 1.1106(6) 0.8103(4) 0.4384(6)
O6 O 0.4235(7) 0.6220(4) -0.0064(5)
C8 C 0.6210(7) 0.6682(6) 0.6170(6)
C9 C 0.4346(7) 0.5703(5) 0.3343(6)
O7 O 0.7143(6) 0.7439(4) 0.0634(4)
O8 O 1.1327(5) 0.6972(4) 0.3072(5)
C10 C 1.1600(7) 0.8372(4) 0.5905(6)
C11 C 0.7796(7) 0.6855(5) 0.1088(6)
O9 O 0.3255(5) 0.5315(3) 0.2219(5)
O10 O 1.2617(5) 0.7000(4) 0.5244(6)
C12 C 1.1667(7) 0.8655(4) 0.3414(7)
C13 C 0.9486(8) 0.9263(4) 0.5278(7)
C14 C 0.8879(7) 0.8868(4) 0.3862(6)
C15 C 1.3544(9) 0.9187(5) 0.2471(9)
O11 O 0.6619(8) 0.6034(4) 0.6478(5)
C16 C 1.0702(8) 0.9039(5) 0.6175(7)
C17 C 0.8521(9) 0.6317(5) 0.0339(7)
C18 C 1.3228(7) 0.8669(5) 0.3609(8)
O12 O 1.4887(6) 0.9332(5) 0.2791(8)
C19 C 1.0556(10) 0.6048(6) 0.7276(8)
C20 C 0.4033(8) 0.6784(5) 0.0552(6)
C21 C 0.3615(10) 0.4622(5) 0.1755(9)
C22 C 0.5822(8) 0.7274(6) 0.7090(7)
O13 O 1.2657(8) 0.9419(5) 0.1472(7)
C23 C 1.1368(11) 0.9403(6) 0.7622(9)
O14 O 0.4758(8) 0.4331(4) 0.2225(8)
C24 C 0.2383(11) 0.4307(7) 0.0610(11)
C25 C 0.8562(11) 0.9914(5) 0.5583(11)
C26 C 0.3294(12) 0.7510(6) -0.0103(9)
C27 C 1.5190(12) 0.9840(8) 0.1751(13)
H1 H 0.68650 0.75000 0.28000
H2 H 0.83340 0.77470 0.51180
H3 H 0.92780 0.79090 0.28200
H4 H 0.56500 0.58720 0.21350
H5 H 0.71320 0.61140 0.44170
H6 H 0.39260 0.60240 0.39000
H7 H 0.49030 0.52980 0.39360
H8 H 1.25740 0.85390 0.61450
H9 H 1.15540 0.79290 0.64890
H10 H 1.13870 0.91870 0.35330
H11 H 1.12020 0.85070 0.24550
H12 H 0.78710 0.88110 0.36800
H13 H 0.90270 0.92050 0.31490
H14 H 0.83450 0.64980 -0.06100
H15 H 0.95260 0.63190 0.08150
H16 H 0.81590 0.57900 0.03300
H17 H 1.35530 0.81380 0.35570
H18 H 1.37210 0.88810 0.45190
H19 H 1.06900 0.60090 0.82660
H20 H 1.00400 0.55940 0.68070
H21 H 1.14660 0.60690 0.71200
H22 H 0.59080 0.70580 0.80000
H23 H 0.64420 0.77220 0.71930
H24 H 0.48570 0.74370 0.66450
H25 H 1.07550 0.98210 0.77340
H26 H 1.14450 0.90090 0.83320
H27 H 1.22940 0.96140 0.77110
H28 H 0.26360 0.38130 0.02810
H29 H 0.15880 0.42290 0.09570
H30 H 0.21290 0.46800 -0.01500
H31 H 0.90050 1.01420 0.64920
H32 H 0.84440 1.03140 0.48740
H33 H 0.76480 0.97050 0.55450
H34 H 0.29690 0.74650 -0.11090
H35 H 0.24930 0.75860 0.02340
H36 H 0.39260 0.79540 0.01650
H37 H 1.61980 0.99280 0.19970
H38 H 1.48600 0.95900 0.08480
H39 H 1.47120 1.03370 0.17180
#END
