
#######################################################################
#
#                 Cambridge Crystallographic Data Centre
#                                CCDC
#
#######################################################################
#
# If this CIF has been generated from an entry in the Cambridge
# Structural Database, then it will include bibliographic, chemical,
# crystal, experimental, refinement or atomic coordinate data resulting
# from the CCDC's data processing and validation procedures.
#
#######################################################################

data_CSD_CIF_BEWRAZ
_audit_creation_date 2018-02-28
_audit_creation_method CSD-ConQuest-V1
_database_code_CSD BEWRAZ
_database_code_depnum_ccdc_archive 'CCDC 1578489'
_chemical_formula_sum 'C14 H15 N1 O4'
_chemical_formula_moiety
;
C14 H15 N1 O4
;
_journal_coden_Cambridge 1748
_journal_volume 5
_journal_year 2018
_journal_page_first 1320
_journal_name_full 'Org.Chem.Front. '
loop_
_publ_author_name
"B.Someswarao"
"R.Khan P."
"B.Jagan Mohan Reddy"
"Sridhar B."
"V.Subba Reddy B."
_chemical_name_systematic
;
8-(4-nitrophenyl)-2,3,5,6,8,8a-hexahydropyrano[3,4-b]pyran
;
_cell_volume   1270.069
_exptl_crystal_colour 'colorless'
_exptl_crystal_density_diffrn 1.366
_exptl_crystal_description 'block'
_diffrn_ambient_temperature 294
#These two values have been output from a single CSD field.
_refine_ls_R_factor_gt 0.067
_refine_ls_wR_factor_gt 0.067
_symmetry_cell_setting monoclinic
_symmetry_space_group_name_H-M 'P 21/c'
_symmetry_Int_Tables_number 14
loop_
_symmetry_equiv_pos_site_id
_symmetry_equiv_pos_as_xyz
1 x,y,z
2 -x,1/2+y,1/2-z
3 -x,-y,-z
4 x,-1/2-y,-1/2+z
_cell_length_a 13.13(4)
_cell_length_b 12.87(4)
_cell_length_c 7.80(2)
_cell_angle_alpha 90
_cell_angle_beta 105.51(2)
_cell_angle_gamma 90
_cell_formula_units_Z 4
loop_
_atom_type_symbol
_atom_type_radius_bond
C 0.68
H 0.23
N 0.68
O 0.68
loop_
_atom_site_label
_atom_site_type_symbol
_atom_site_fract_x
_atom_site_fract_y
_atom_site_fract_z
C1 C 0.53955(14) 0.21455(17) 0.6334(3)
C2 C 0.53564(14) 0.32034(17) 0.6377(3)
H1 H 0.59130 0.35840 0.70890
C3 C 0.44787(14) 0.36945(15) 0.5347(3)
H2 H 0.44350 0.44160 0.53740
C4 C 0.36621(12) 0.31349(13) 0.4277(2)
C5 C 0.37209(14) 0.20695(15) 0.4290(3)
H3 H 0.31640 0.16850 0.35890
C6 C 0.45869(16) 0.15649(16) 0.5320(3)
H4 H 0.46240 0.08430 0.53290
C7 C 0.27231(13) 0.36846(13) 0.3139(2)
H5 H 0.23900 0.32400 0.21240
C8 C 0.19093(13) 0.39420(14) 0.4155(2)
H6 H 0.22580 0.43200 0.52450
C9 C 0.10481(15) 0.46034(15) 0.3038(2)
C10 C 0.00468(16) 0.43529(18) 0.2836(3)
H7 H -0.04710 0.47570 0.20830
C11 C -0.02879(16) 0.3466(2) 0.3743(3)
H8 H -0.05380 0.29090 0.28970
H9 H -0.08650 0.36750 0.42260
C12 C 0.06176(16) 0.3087(2) 0.5213(3)
H10 H 0.07500 0.35740 0.61980
H11 H 0.04400 0.24200 0.56360
C13 C 0.22452(17) 0.51251(18) 0.1264(3)
H12 H 0.19150 0.46550 0.03040
H13 H 0.25240 0.57140 0.07570
C14 C 0.14389(18) 0.54948(17) 0.2176(3)
H14 H 0.17540 0.60110 0.30660
H15 H 0.08520 0.58170 0.13140
N1 N 0.63329(15) 0.16142(19) 0.7412(3)
O1 O 0.64112(16) 0.06883(17) 0.7243(3)
O2 O 0.69922(15) 0.21349(19) 0.8450(3)
O3 O 0.15410(9) 0.29832(11) 0.46103(19)
O4 O 0.30778(10) 0.46084(11) 0.24975(16)
#END
