
#######################################################################
#
#                 Cambridge Crystallographic Data Centre
#                                CCDC
#
#######################################################################
#
# If this CIF has been generated from an entry in the Cambridge
# Structural Database, then it will include bibliographic, chemical,
# crystal, experimental, refinement or atomic coordinate data resulting
# from the CCDC's data processing and validation procedures.
#
#######################################################################

data_CSD_CIF_BEXGOB
_audit_creation_date 2004-11-11
_audit_creation_method CSD-ConQuest-V1
_database_code_CSD BEXGOB
_database_code_depnum_ccdc_archive 'CCDC 243306'
_chemical_formula_sum 'C22 H17 N1 O4'
_chemical_formula_moiety
;
C22 H17 N1 O4
;
_journal_coden_Cambridge 579
_journal_volume 23
_journal_year 2004
_journal_page_first 3276
_journal_name_full 'Organometallics '
loop_
_publ_author_name
"A.S.Ionkin"
"W.J.Marshall"
_chemical_name_systematic
;
2,6-bis(5-methyl-2-furanyl)-4-phenyl-1-nitrobenzene
;
_chemical_melting_point 380.15
_cell_volume   3413.100
_exptl_crystal_colour 'colorless'
_exptl_crystal_density_diffrn 1.399
_exptl_crystal_description 'needle'
_diffrn_ambient_temperature 293
#These two values have been output from a single CSD field.
_refine_ls_R_factor_gt 0.0525
_refine_ls_wR_factor_gt 0.0525
_symmetry_cell_setting monoclinic
_symmetry_space_group_name_H-M 'P 21/n'
_symmetry_Int_Tables_number 14
loop_
_symmetry_equiv_pos_site_id
_symmetry_equiv_pos_as_xyz
1 x,y,z
2 1/2+x,1/2-y,1/2+z
3 -x,-y,-z
4 -1/2-x,-1/2+y,-1/2-z
_cell_length_a 7.270(3)
_cell_length_b 23.042(5)
_cell_length_c 20.403(4)
_cell_angle_alpha 90
_cell_angle_beta 93.01(3)
_cell_angle_gamma 90
_cell_formula_units_Z 8
loop_
_atom_type_symbol
_atom_type_radius_bond
C 0.68
H 0.23
N 0.68
O 0.68
loop_
_atom_site_label
_atom_site_type_symbol
_atom_site_fract_x
_atom_site_fract_y
_atom_site_fract_z
O1 O 0.59946(16) 0.50968(5) 0.14757(6)
N1 N 0.73931(18) 0.49064(5) 0.17356(6)
C1 C 0.7227(2) 0.44590(6) 0.22304(7)
O2 O 0.89245(16) 0.50558(5) 0.16093(6)
C2 C 0.68547(19) 0.46312(6) 0.28532(7)
C3 C 0.6702(2) 0.42025(6) 0.33179(8)
H1 H 0.64690 0.43060 0.37460
C4 C 0.6884(2) 0.36270(6) 0.31651(7)
C5 C 0.7233(2) 0.34748(6) 0.25318(7)
H2 H 0.73540 0.30840 0.24270
C6 C 0.74079(19) 0.38865(6) 0.20498(7)
O3 O 0.74282(15) 0.56504(4) 0.27325(5)
C7 C 0.6580(2) 0.52229(6) 0.30549(8)
C8 C 0.5618(2) 0.54471(7) 0.35307(8)
H3 H 0.49180 0.52440 0.38230
C9 C 0.5868(2) 0.60503(7) 0.35053(8)
H4 H 0.53590 0.63240 0.37780
C10 C 0.6968(2) 0.61577(6) 0.30196(8)
C11 C 0.7753(2) 0.66820(7) 0.27471(9)
H5 H 0.73310 0.70150 0.29780
H6 H 0.73720 0.67130 0.22910
H7 H 0.90730 0.66630 0.27930
O4 O 0.72736(15) 0.31332(5) 0.12752(5)
C12 C 0.7698(2) 0.36984(6) 0.13906(7)
C13 C 0.8241(2) 0.39408(7) 0.08390(8)
H8 H 0.86270 0.43220 0.07870
C14 C 0.8120(2) 0.35121(7) 0.03536(8)
H9 H 0.83950 0.35550 -0.00840
C15 C 0.7537(2) 0.30315(7) 0.06379(8)
C16 C 0.7178(3) 0.24391(8) 0.04082(9)
H10 H 0.72700 0.24230 -0.00590
H11 H 0.59610 0.23250 0.05170
H12 H 0.80650 0.21810 0.06150
C17 C 0.6730(2) 0.31846(6) 0.36726(8)
C18 C 0.7339(2) 0.32927(7) 0.43107(8)
H13 H 0.78980 0.36460 0.44170
C19 C 0.7135(2) 0.28888(8) 0.47906(9)
H14 H 0.75370 0.29700 0.52210
C20 C 0.6338(2) 0.23655(8) 0.46375(9)
H15 H 0.62040 0.20890 0.49630
C21 C 0.5743(2) 0.22507(7) 0.40072(9)
H16 H 0.52010 0.18950 0.39030
C22 C 0.5938(2) 0.26570(7) 0.35252(8)
H17 H 0.55300 0.25750 0.30960
O5 O 0.07877(16) 0.24364(5) 0.15308(6)
N2 N 0.22224(18) 0.26092(5) 0.17840(6)
C23 C 0.21269(19) 0.30702(6) 0.22676(7)
O6 O 0.37241(16) 0.24349(5) 0.16568(6)
C24 C 0.23668(19) 0.36341(6) 0.20652(7)
C25 C 0.2246(2) 0.40612(6) 0.25310(7)
H18 H 0.24040 0.44460 0.24100
C26 C 0.18965(19) 0.39355(6) 0.31718(7)
C27 C 0.1659(2) 0.33675(6) 0.33477(8)
H19 H 0.14260 0.32800 0.37810
C28 C 0.1756(2) 0.29230(6) 0.29000(7)
O7 O 0.24228(15) 0.43683(4) 0.12682(5)
C29 C 0.2709(2) 0.37985(6) 0.14000(8)
C30 C 0.3247(2) 0.35328(7) 0.08614(8)
H20 H 0.35440 0.31420 0.08210
C31 C 0.3280(2) 0.39548(7) 0.03702(8)
H21 H 0.35920 0.38980 -0.00610
C32 C 0.2781(2) 0.44501(7) 0.06348(8)
C33 C 0.2567(3) 0.50423(8) 0.03841(9)
H22 H 0.28010 0.50480 -0.00750
H23 H 0.34250 0.52930 0.06190
H24 H 0.13340 0.51740 0.04440
O8 O 0.22818(14) 0.19006(4) 0.28056(5)
C34 C 0.1459(2) 0.23386(6) 0.31250(8)
C35 C 0.0538(2) 0.21265(7) 0.36161(8)
H25 H -0.01350 0.23370 0.39100
C36 C 0.0779(2) 0.15211(7) 0.36034(8)
H26 H 0.02860 0.12540 0.38870
C37 C 0.1843(2) 0.14009(6) 0.31099(8)
C38 C 0.2610(2) 0.08689(7) 0.28445(9)
H27 H 0.21750 0.05400 0.30810
H28 H 0.39300 0.08840 0.28890
H29 H 0.22260 0.08330 0.23890
C39 C 0.1825(2) 0.43985(7) 0.36582(8)
C40 C 0.1059(2) 0.49270(7) 0.34906(9)
H30 H 0.05880 0.49890 0.30640
C41 C 0.0980(2) 0.53630(8) 0.39452(10)
H31 H 0.04430 0.57170 0.38290
C42 C 0.1687(3) 0.52761(9) 0.45654(10)
H32 H 0.16410 0.55720 0.48740
C43 C 0.2465(3) 0.47570(9) 0.47398(9)
H33 H 0.29520 0.47020 0.51660
C44 C 0.2535(2) 0.43179(8) 0.42927(8)
H34 H 0.30610 0.39640 0.44160
#END
