
#######################################################################
#
#                 Cambridge Crystallographic Data Centre
#                                CCDC
#
#######################################################################
#
# If this CIF has been generated from an entry in the Cambridge
# Structural Database, then it will include bibliographic, chemical,
# crystal, experimental, refinement or atomic coordinate data resulting
# from the CCDC's data processing and validation procedures.
#
#######################################################################

data_CSD_CIF_BEXLUL01
_audit_creation_date 1991-09-26
_audit_creation_method CSD-ConQuest-V1
_database_code_CSD BEXLUL01
_chemical_formula_sum 'C19 H18 N2 O3'
_chemical_formula_moiety
;
C19 H18 N2 O3
;
_journal_coeditor_code "IUCr HA0011"
_journal_coden_Cambridge 591
_journal_volume 47
_journal_year 1991
_journal_page_first 817
_journal_name_full 'Acta Crystallogr.,Sect.C:Cryst.Struct.Commun. '
loop_
_publ_author_name
"W.Clegg"
"N.C.Norman"
"T.Flood"
"L.Sallans"
"Won Suk Kwak"
"P.L.Kwiatkowski"
"J.G.Lasch"
_chemical_name_systematic
;
1',3',3'-Trimethyl-6-nitrospiro(benzopyran-2(2H),2'-indoline)
;
_cell_volume   3364.561
_exptl_crystal_density_diffrn 1.273
_diffrn_ambient_temperature ?
_diffrn_special_details
;
The study was carried out at room temperature,in the range 283-303K

;
#These two values have been output from a single CSD field.
_refine_ls_R_factor_gt 0.054
_refine_ls_wR_factor_gt 0.054
_symmetry_cell_setting monoclinic
_symmetry_space_group_name_H-M 'P 21/n'
_symmetry_Int_Tables_number 14
loop_
_symmetry_equiv_pos_site_id
_symmetry_equiv_pos_as_xyz
1 x,y,z
2 1/2-x,1/2+y,1/2-z
3 -x,-y,-z
4 -1/2+x,-1/2-y,-1/2+z
_cell_length_a 16.146(1)
_cell_length_b 10.979(1)
_cell_length_c 19.728(1)
_cell_angle_alpha 90
_cell_angle_beta 105.826(5)
_cell_angle_gamma 90
_cell_formula_units_Z 8
loop_
_atom_type_symbol
_atom_type_radius_bond
C 0.68
H 0.23
N 0.68
O 0.68
loop_
_atom_site_label
_atom_site_type_symbol
_atom_site_fract_x
_atom_site_fract_y
_atom_site_fract_z
O1 O 0.2973(1) 0.3353(1) 0.4548(1)
C1 C 0.3354(1) 0.3153(2) 0.4027(1)
C2 C 0.3446(2) 0.1947(2) 0.3843(1)
C3 C 0.3841(1) 0.1687(2) 0.3321(1)
C4 C 0.4143(1) 0.2639(2) 0.2995(1)
C5 C 0.4046(1) 0.3835(2) 0.3167(1)
C6 C 0.3650(1) 0.4115(2) 0.3687(1)
C7 C 0.3510(2) 0.5339(2) 0.3889(1)
C8 C 0.3149(2) 0.5556(2) 0.4406(1)
C9 C 0.2845(1) 0.4587(2) 0.4804(1)
N1 N 0.1939(1) 0.4689(2) 0.4750(1)
C10 C 0.1782(1) 0.4243(2) 0.5366(1)
C11 C 0.0998(1) 0.3947(2) 0.5488(1)
C12 C 0.1003(2) 0.3603(2) 0.6161(1)
C13 C 0.1735(2) 0.3547(2) 0.6687(1)
C14 C 0.2520(2) 0.3818(2) 0.6565(2)
C15 C 0.2540(1) 0.4163(2) 0.5891(1)
C16 C 0.3275(1) 0.4594(2) 0.5618(1)
N2 N 0.4588(1) 0.2371(2) 0.2466(1)
O2 O 0.4918(1) 0.3205(2) 0.2225(1)
O3 O 0.4632(1) 0.1320(2) 0.2284(1)
C17 C 0.1312(2) 0.4542(3) 0.4074(1)
C18 C 0.4070(2) 0.3760(3) 0.5831(2)
C19 C 0.3533(2) 0.5890(3) 0.5896(2)
H1 H 0.32350 0.13000 0.40780
H2 H 0.39060 0.08590 0.31870
H3 H 0.42540 0.44760 0.29260
H4 H 0.36810 0.60110 0.36460
H5 H 0.30800 0.63890 0.45300
H6 H 0.04710 0.39810 0.51170
H7 H 0.04690 0.33980 0.62570
H8 H 0.17130 0.33170 0.71510
H9 H 0.30430 0.37690 0.69400
H10 H 0.15290 0.49250 0.37190
H11 H 0.07600 0.48790 0.40620
H12 H 0.12550 0.36820 0.39840
H13 H 0.39090 0.29270 0.57200
H14 H 0.43870 0.38210 0.63180
H15 H 0.44210 0.40390 0.55410
H16 H 0.40030 0.61590 0.57230
H17 H 0.36980 0.59310 0.64010
H18 H 0.30430 0.64060 0.57120
O4 O 0.2918(1) 0.3369(1) 0.9036(1)
C20 C 0.3502(1) 0.3162(2) 0.8672(1)
C21 C 0.3652(1) 0.1965(2) 0.8517(1)
C22 C 0.4242(1) 0.1707(2) 0.8147(1)
C23 C 0.4683(1) 0.2667(2) 0.7939(1)
C24 C 0.4519(1) 0.3860(2) 0.8075(1)
C25 C 0.3925(1) 0.4128(2) 0.8437(1)
C26 C 0.3671(2) 0.5349(2) 0.8554(1)
C27 C 0.3142(2) 0.5563(2) 0.8953(1)
C28 C 0.2823(1) 0.4588(2) 0.9340(1)
N3 N 0.1923(1) 0.4708(2) 0.9294(1)
C29 C 0.1767(1) 0.4255(2) 0.9912(1)
C30 C 0.0989(2) 0.3993(2) 1.0056(1)
C31 C 0.1025(2) 0.3645(2) 1.0749(2)
C32 C 0.1772(2) 0.3559(2) 1.1258(1)
C33 C 0.2541(2) 0.3799(2) 1.1108(1)
C34 C 0.2535(1) 0.4141(2) 1.0434(1)
C35 C 0.3264(1) 0.4554(2) 1.0148(1)
N4 N 0.5320(1) 0.2399(2) 0.7562(1)
O5 O 0.5764(1) 0.3236(2) 0.7450(1)
O6 O 0.5395(1) 0.1354(2) 0.7379(1)
C36 C 0.1284(2) 0.4623(4) 0.8625(1)
C37 C 0.4046(2) 0.3712(3) 1.0341(1)
C38 C 0.3539(2) 0.5837(2) 1.0433(1)
H19 H 0.33450 0.13160 0.86670
H20 H 0.43490 0.08810 0.80340
H21 H 0.48210 0.45060 0.79170
H22 H 0.38870 0.60200 0.83420
H23 H 0.29580 0.63850 0.89920
H24 H 0.04510 0.40490 0.96980
H25 H 0.04980 0.34620 1.08640
H26 H 0.17690 0.33690 1.17270
H27 H 0.30750 0.37310 1.14690
H28 H 0.15290 0.51170 0.83280
H29 H 0.07430 0.49650 0.86430
H30 H 0.11940 0.38120 0.84380
H31 H 0.38700 0.29040 1.01760
H32 H 0.42940 0.36960 1.08420
H33 H 0.44650 0.40040 1.01160
H34 H 0.39910 0.61100 1.02390
H35 H 0.37330 0.58700 1.09380
H36 H 0.30450 0.63530 1.02690
#END
