
#######################################################################
#
#                 Cambridge Crystallographic Data Centre
#                                CCDC
#
#######################################################################
#
# If this CIF has been generated from an entry in the Cambridge
# Structural Database, then it will include bibliographic, chemical,
# crystal, experimental, refinement or atomic coordinate data resulting
# from the CCDC's data processing and validation procedures.
#
#######################################################################

data_CSD_CIF_BEXLUL
_audit_creation_date 1983-02-19
_audit_creation_method CSD-ConQuest-V1
_database_code_CSD BEXLUL
_chemical_formula_sum 'C19 H18 N2 O3'
_chemical_formula_moiety
;
C19 H18 N2 O3
;
_journal_coden_Cambridge 93
_journal_volume 262
_journal_year 1982
_journal_page_first 877
_journal_name_full 'Dokl.Akad.Nauk SSSR(Russ.)(Proc.Nat.Acad.Sci.USSR) '
loop_
_publ_author_name
"K.Sh.Karaev"
"N.G.Furmanova"
"N.V.Belov"
_chemical_name_systematic
;
4,5-Benzo-1,3,3-trimethyl-2,3-dihydro-pyrrole-2-spiro-2'-1-nitrobenzo(3,4-e)-2
H-pyran
;
_cell_volume   3372.584
_exptl_crystal_colour 'orange'
_exptl_crystal_density_diffrn 1.268
_diffrn_ambient_temperature ?
_diffrn_special_details
;
The study was carried out at room temperature,in the range 283-303K

;
#These two values have been output from a single CSD field.
_refine_ls_R_factor_gt 0.055
_refine_ls_wR_factor_gt 0.055
_symmetry_cell_setting monoclinic
_symmetry_space_group_name_H-M 'P 1 1 21/n'
_symmetry_Int_Tables_number 14
loop_
_symmetry_equiv_pos_site_id
_symmetry_equiv_pos_as_xyz
1 x,y,z
2 1/2-x,1/2-y,1/2+z
3 -x,-y,-z
4 -1/2+x,-1/2+y,-1/2-z
_cell_length_a 16.176(3)
_cell_length_b 19.719(3)
_cell_length_c 10.990(1)
_cell_angle_alpha 90
_cell_angle_beta 90
_cell_angle_gamma 105.83(1)
_cell_formula_units_Z 8
loop_
_atom_type_symbol
_atom_type_radius_bond
C 0.68
H 0.23
N 0.68
O 0.68
loop_
_atom_site_label
_atom_site_type_symbol
_atom_site_fract_x
_atom_site_fract_y
_atom_site_fract_z
O1 O 0.70780 0.59570 0.16290
O2 O 0.46160 0.76260 0.36460
O3 O 0.42410 0.75550 0.17630
N1 N 0.80780 0.57060 0.02970
N2 N 0.46830 0.74410 0.26010
C1 C 0.74660 0.45640 0.08630
C2 C 0.82270 0.50810 0.07440
C3 C 0.90090 0.49380 0.10080
C4 C 0.89740 0.42490 0.13560
C5 C 0.82280 0.37400 0.14400
C6 C 0.74590 0.38930 0.11950
C7 C 0.67410 0.48540 0.04470
C8 C 0.71790 0.56550 0.04160
C9 C 0.68490 0.60480 -0.05650
C10 C 0.63310 0.64380 -0.03520
C11 C 0.60760 0.65610 0.08680
C12 C 0.64950 0.63240 0.18310
C13 C 0.63430 0.64790 0.30310
C14 C 0.57550 0.68470 0.32930
C15 C 0.53230 0.70580 0.23400
C16 C 0.54800 0.69260 0.11460
C17 C 0.59440 0.46570 0.12770
C18 C 0.64590 0.45630 -0.08430
C19 C 0.87120 0.63770 0.03790
H1 H 0.95300 0.53500 0.09100
H2 H 0.95500 0.42400 0.15000
H3 H 0.81700 0.32600 0.15600
H4 H 0.69100 0.35500 0.12400
H5 H 0.70500 0.59500 -0.12900
H6 H 0.61100 0.66300 -0.09700
H7 H 0.66100 0.63200 0.36500
H8 H 0.56600 0.69900 0.41700
H9 H 0.51600 0.70500 0.05300
H10 H 0.57200 0.41300 0.11000
H11 H 0.54600 0.48300 0.10100
H12 H 0.61700 0.48000 0.21800
H13 H 0.62600 0.40000 -0.08100
H14 H 0.59100 0.47300 -0.11200
H15 H 0.70300 0.48000 -0.14100
H16 H 0.85100 0.67100 -0.01500
H17 H 0.88000 0.65000 0.12100
H18 H 0.92400 0.63600 -0.00500
O4 O 0.70260 0.04530 0.16420
O5 O 0.53700 0.27190 0.36800
O6 O 0.50810 0.27740 0.17920
N3 N 0.80620 0.02540 0.03010
N4 N 0.54100 0.25370 0.26300
C20 C 0.74620 -0.08850 0.08280
C21 C 0.82180 -0.03670 0.07550
C22 C 0.89920 -0.04930 0.10560
C23 C 0.89900 -0.11630 0.13930
C24 C 0.82630 -0.16840 0.14610
C25 C 0.74800 -0.15580 0.11840
C26 C 0.67270 -0.06170 0.03970
C27 C 0.71500 0.01920 0.04070
C28 C 0.68650 0.06070 -0.05660
C29 C 0.64900 0.11120 -0.03430
C30 C 0.63520 0.13180 0.08860
C31 C 0.66400 0.09750 0.18430
C32 C 0.65490 0.11640 0.30490
C33 C 0.61540 0.16770 0.33100
C34 C 0.58580 0.20040 0.23640
C35 C 0.59490 0.18380 0.11630
C36 C 0.59210 -0.08390 0.12200
C37 C 0.64640 -0.08990 -0.08880
C38 C 0.86710 0.09280 0.04600
H19 H 0.94600 -0.01400 0.10600
H20 H 0.95100 -0.12800 0.15600
H21 H 0.82300 -0.21500 0.15800
H22 H 0.69300 -0.19000 0.11600
H23 H 0.69500 0.04000 -0.13900
H24 H 0.62800 0.13400 -0.09500
H25 H 0.67600 0.09100 0.35900
H26 H 0.60900 0.18100 0.41200
H27 H 0.57300 0.20800 0.04700
H28 H 0.57400 -0.13400 0.11000
H29 H 0.55000 -0.05500 0.09100
H30 H 0.60800 -0.07100 0.20100
H31 H 0.61700 -0.14600 -0.08700
H32 H 0.59400 -0.06700 -0.11900
H33 H 0.69800 -0.06800 -0.14000
H34 H 0.84600 0.12900 0.00300
H35 H 0.87600 0.11000 0.13700
H36 H 0.92000 0.09400 0.02600
#END
