
#######################################################################
#
#                 Cambridge Crystallographic Data Centre
#                                CCDC
#
#######################################################################
#
# If this CIF has been generated from an entry in the Cambridge
# Structural Database, then it will include bibliographic, chemical,
# crystal, experimental, refinement or atomic coordinate data resulting
# from the CCDC's data processing and validation procedures.
#
#######################################################################

data_CSD_CIF_BEXLUL02
_audit_creation_date 2015-02-02
_audit_creation_method CSD-ConQuest-V1
_database_code_CSD BEXLUL02
_database_code_depnum_ccdc_archive 'CCDC 1046663'
_chemical_formula_sum 'C19 H18 N2 O3'
_chemical_formula_moiety
;
C19 H18 N2 O3
;
_journal_coden_Cambridge 1078
_journal_year 2015
_journal_name_full 'CSD Communication(Private Communication) '
loop_
_publ_author_name
"xiao meng"
"guangyu qi"
"chen zhang"
"kai wang"
"bo zou"
"yuguo ma"
_chemical_name_systematic
;
1',3',3'-trimethyl-6-nitro-1',3'-dihydrospiro[chromene-2,2'-indole]
;
_cell_volume   3298.037
_exptl_special_details
;
No R-factor or study temperature given in the deposited CIF

;
_diffrn_ambient_temperature ?
_diffrn_special_details
;
The study was carried out at room temperature,in the range 283-303K

;
_symmetry_cell_setting monoclinic
_symmetry_space_group_name_H-M 'P 21/n'
_symmetry_Int_Tables_number 14
loop_
_symmetry_equiv_pos_site_id
_symmetry_equiv_pos_as_xyz
1 x,y,z
2 1/2-x,1/2+y,1/2-z
3 -x,-y,-z
4 -1/2+x,-1/2-y,-1/2+z
_cell_length_a 16.076(3)
_cell_length_b 10.906(6)
_cell_length_c 19.607(4)
_cell_angle_alpha 90
_cell_angle_beta 106.382(4)
_cell_angle_gamma 90
_cell_formula_units_Z 8
loop_
_atom_type_symbol
_atom_type_radius_bond
C 0.68
H 0.23
N 0.68
O 0.68
loop_
_atom_site_label
_atom_site_type_symbol
_atom_site_fract_x
_atom_site_fract_y
_atom_site_fract_z
O1 O 0.79119(11) 0.66301(15) 0.40370(9)
O2 O 1.03962(14) 0.86452(18) 0.23677(11)
O3 O 1.07966(13) 0.67467(18) 0.24708(11)
N1 N 0.69088(14) 0.5285(2) 0.42962(11)
N2 N 1.03357(14) 0.7592(2) 0.25656(11)
C1 C 0.78132(16) 0.5404(2) 0.43379(13)
C2 C 0.82728(16) 0.5427(2) 0.51556(13)
C3 C 0.75465(16) 0.5853(2) 0.54471(13)
C4 C 0.75629(19) 0.6193(2) 0.61299(14)
H1 H 0.80870 0.62510 0.64830
C5 C 0.6785(2) 0.6448(2) 0.62832(16)
H2 H 0.67880 0.66750 0.67410
C6 C 0.6017(2) 0.6363(2) 0.57569(17)
H3 H 0.55030 0.65390 0.58660
C7 C 0.59821(17) 0.6022(2) 0.50612(16)
H4 H 0.54570 0.59780 0.47070
C8 C 0.67629(16) 0.5750(2) 0.49199(13)
C9 C 0.90737(18) 0.6249(3) 0.53562(15)
H5 H 0.94780 0.59810 0.51090
H6 H 0.93400 0.62030 0.58600
H7 H 0.89060 0.70810 0.52260
C10 C 0.85357(19) 0.4120(3) 0.54341(16)
H8 H 0.80450 0.35830 0.52810
H9 H 0.87320 0.41310 0.59440
H10 H 0.89940 0.38300 0.52500
C11 C 0.6260(2) 0.5409(4) 0.36155(16)
H11 H 0.61720 0.62620 0.34960
H12 H 0.57250 0.50520 0.36430
H13 H 0.64540 0.49950 0.32560
C12 C 0.81218(17) 0.4411(2) 0.39404(13)
H14 H 0.79280 0.36140 0.39690
C13 C 0.86604(17) 0.4622(2) 0.35495(13)
H15 H 0.88730 0.39670 0.33460
C14 C 0.89204(15) 0.5857(2) 0.34366(12)
C15 C 0.95310(15) 0.6123(2) 0.30765(12)
H16 H 0.98300 0.54940 0.29280
C16 C 0.96880(15) 0.7334(2) 0.29421(12)
C17 C 0.92532(16) 0.8298(2) 0.31507(13)
H17 H 0.93590 0.91020 0.30420
C18 C 0.86595(17) 0.8045(2) 0.35232(13)
H18 H 0.83670 0.86800 0.36730
C19 C 0.85017(15) 0.6831(2) 0.36723(12)
O4 O 0.69929(13) 0.16489(16) 0.54249(10)
O5 O 0.50668(14) 0.17958(18) 0.77745(11)
O6 O 0.53728(14) 0.37102(18) 0.77261(11)
N3 N 0.80581(14) 0.0300(2) 0.52554(11)
N4 N 0.54039(14) 0.2650(2) 0.75393(11)
C20 C 0.71389(17) 0.0409(2) 0.51768(14)
C21 C 0.67217(16) 0.0395(2) 0.43524(14)
C22 C 0.74703(16) 0.0819(2) 0.40896(13)
C23 C 0.75065(19) 0.1160(2) 0.34208(14)
H19 H 0.70020 0.12020 0.30460
C24 C 0.8304(2) 0.1442(3) 0.33119(15)
H20 H 0.83330 0.16610 0.28610
C25 C 0.9048(2) 0.1399(2) 0.38672(17)
H21 H 0.95750 0.16040 0.37880
C26 C 0.90287(17) 0.1055(2) 0.45455(15)
H22 H 0.95330 0.10320 0.49220
C27 C 0.82326(16) 0.0747(2) 0.46434(13)
C28 C 0.6467(2) -0.0911(3) 0.40777(16)
H23 H 0.59910 -0.11880 0.42420
H24 H 0.69530 -0.14500 0.42520
H25 H 0.62980 -0.09100 0.35670
C29 C 0.59180(19) 0.1221(3) 0.41175(18)
H26 H 0.60890 0.20620 0.42070
H27 H 0.55170 0.10080 0.43800
H28 H 0.56460 0.11080 0.36190
C30 C 0.8664(2) 0.0488(3) 0.59493(15)
H29 H 0.84440 0.01090 0.63050
H30 H 0.87380 0.13510 0.60440
H31 H 0.92130 0.01280 0.59600
C31 C 0.68311(19) -0.0575(2) 0.55785(15)
H32 H 0.69010 -0.13870 0.54600
C32 C 0.64626(19) -0.0358(2) 0.60951(15)
H33 H 0.62870 -0.10110 0.63260
C33 C 0.63317(16) 0.0889(2) 0.63011(13)
C34 C 0.59386(16) 0.1166(2) 0.68311(13)
H34 H 0.57410 0.05420 0.70680
C35 C 0.58463(15) 0.2376(2) 0.70003(12)
C36 C 0.61464(17) 0.3336(2) 0.66701(13)
H35 H 0.60870 0.41440 0.68010
C37 C 0.65364(17) 0.3066(2) 0.61425(14)
H36 H 0.67400 0.36960 0.59130
C38 C 0.66242(16) 0.1850(2) 0.59545(13)
#END
