
#######################################################################
#
#                 Cambridge Crystallographic Data Centre
#                                CCDC
#
#######################################################################
#
# If this CIF has been generated from an entry in the Cambridge
# Structural Database, then it will include bibliographic, chemical,
# crystal, experimental, refinement or atomic coordinate data resulting
# from the CCDC's data processing and validation procedures.
#
#######################################################################

data_CSD_CIF_BEXSAZ
_audit_creation_date 2004-11-11
_audit_creation_method CSD-ConQuest-V1
_database_code_CSD BEXSAZ
_database_code_depnum_ccdc_archive 'CCDC 233191'
_chemical_formula_sum 'C29 H43 N1 O5'
_chemical_formula_moiety
;
C29 H43 N1 O5
;
_journal_coden_Cambridge 24
_journal_volume 45
_journal_year 2004
_journal_page_first 4921
_journal_name_full 'Tetrahedron Lett. '
loop_
_publ_author_name
"M.A.Iglesias-Arteaga"
"J.Sandoval-Ramirez"
"M.Y.Mata-Esma"
"O.Vinas-Bravo"
"S.Bernes"
_chemical_name_systematic
;
anti-23-Hydroxyiminodiosgenin acetate
;
_chemical_melting_point 481.5
_cell_volume   1485.800
_exptl_crystal_colour 'colorless'
_exptl_crystal_density_diffrn 1.086
_exptl_special_details
;
Melting point range 481.5-484K

;
_exptl_crystal_description 'irregular'
_exptl_crystal_preparation 'ethyl acetate'
_diffrn_ambient_temperature 296
#These two values have been output from a single CSD field.
_refine_ls_R_factor_gt 0.067
_refine_ls_wR_factor_gt 0.067
_symmetry_cell_setting triclinic
_symmetry_space_group_name_H-M 'P 1'
_symmetry_Int_Tables_number 1
loop_
_symmetry_equiv_pos_site_id
_symmetry_equiv_pos_as_xyz
1 x,y,z
_cell_length_a 7.5300(13)
_cell_length_b 11.9912(16)
_cell_length_c 16.494(2)
_cell_angle_alpha 90.037(8)
_cell_angle_beta 93.560(12)
_cell_angle_gamma 91.664(13)
_cell_formula_units_Z 2
loop_
_atom_type_symbol
_atom_type_radius_bond
C 0.68
H 0.23
N 0.68
O 0.68
loop_
_atom_site_label
_atom_site_type_symbol
_atom_site_fract_x
_atom_site_fract_y
_atom_site_fract_z
C1 C 0.6460(8) 0.8802(5) -0.0373(4)
H1 H 0.76350 0.85370 -0.02120
H2 H 0.60400 0.84090 -0.08650
C2 C 0.6616(8) 1.0045(5) -0.0559(4)
H3 H 0.70820 1.04480 -0.00790
H4 H 0.74290 1.01700 -0.09860
C3 C 0.4812(7) 1.0458(4) -0.0825(3)
H5 H 0.43860 1.00810 -0.13310
C4 C 0.3487(8) 1.0255(5) -0.0191(3)
H6 H 0.23150 1.04530 -0.04140
H7 H 0.37950 1.07400 0.02700
C5 C 0.3411(7) 0.9056(4) 0.0098(3)
C6 C 0.1889(7) 0.8523(5) 0.0183(3)
H8 H 0.08640 0.89010 0.00230
C7 C 0.1631(7) 0.7369(5) 0.0512(3)
H9 H 0.11420 0.68830 0.00780
H10 H 0.07750 0.73850 0.09270
C8 C 0.3361(6) 0.6891(4) 0.0873(3)
H11 H 0.36070 0.72060 0.14180
C9 C 0.4908(6) 0.7232(4) 0.0352(3)
H12 H 0.45130 0.70020 -0.02020
C10 C 0.5190(7) 0.8510(4) 0.0306(3)
C11 C 0.6620(7) 0.6603(5) 0.0547(4)
H13 H 0.74110 0.67310 0.01120
H14 H 0.72060 0.69110 0.10410
C12 C 0.6341(8) 0.5345(5) 0.0657(4)
H15 H 0.74600 0.50230 0.08450
H16 H 0.59680 0.50080 0.01370
C13 C 0.4938(6) 0.5078(4) 0.1268(3)
C14 C 0.3213(6) 0.5628(5) 0.0947(3)
H17 H 0.29770 0.53480 0.03910
C15 C 0.1791(7) 0.5064(5) 0.1448(4)
H18 H 0.18570 0.53420 0.20020
H19 H 0.06030 0.51680 0.12030
C16 C 0.2315(7) 0.3844(4) 0.1413(3)
H20 H 0.16460 0.34620 0.09600
C17 C 0.4337(6) 0.3833(4) 0.1288(3)
H21 H 0.45100 0.34980 0.07570
C18 C 0.5613(9) 0.5490(5) 0.2110(4)
H22 H 0.59760 0.62620 0.20810
H23 H 0.66090 0.50600 0.23010
H24 H 0.46780 0.54060 0.24770
C19 C 0.5998(10) 0.8989(5) 0.1118(4)
H25 H 0.61580 0.97840 0.10720
H26 H 0.71280 0.86620 0.12480
H27 H 0.52100 0.88220 0.15400
C20 C 0.5116(7) 0.3058(4) 0.1958(4)
H28 H 0.55700 0.35290 0.24150
C21 C 0.6628(9) 0.2353(6) 0.1710(5)
H29 H 0.70320 0.18990 0.21590
H30 H 0.75920 0.28310 0.15520
H31 H 0.62200 0.18830 0.12610
C22 C 0.3466(7) 0.2431(4) 0.2215(3)
O1 O 0.2099(5) 0.3236(3) 0.2167(2)
C23 C 0.3507(7) 0.1945(4) 0.3064(3)
C24 C 0.2051(9) 0.1124(5) 0.3252(4)
H32 H 0.09770 0.15210 0.33420
H33 H 0.23940 0.07280 0.37470
C25 C 0.1672(8) 0.0294(5) 0.2570(4)
H34 H 0.26960 -0.01880 0.25460
C26 C 0.1461(8) 0.0923(5) 0.1784(3)
H35 H 0.11990 0.04000 0.13410
H36 H 0.04670 0.14170 0.18040
O2 O 0.3041(5) 0.1566(3) 0.1634(2)
C27 C 0.0018(12) -0.0441(7) 0.2719(5)
H37 H -0.01960 -0.09630 0.22800
H38 H -0.09960 0.00210 0.27520
H39 H 0.02120 -0.08400 0.32200
O3 O 0.4853(6) 1.1663(3) -0.0955(2)
C28 C 0.5510(8) 1.2045(6) -0.1643(4)
O4 O 0.6112(7) 1.1444(4) -0.2135(3)
C29 C 0.5375(11) 1.3260(6) -0.1729(5)
H40 H 0.58670 1.34930 -0.22270
H41 H 0.60230 1.36240 -0.12800
H42 H 0.41470 1.34560 -0.17380
N1 N 0.4775(7) 0.2292(4) 0.3543(3)
O5 O 0.4743(6) 0.1814(4) 0.4324(3)
H43 H 0.347(3) 0.181(5) 0.433(4)
C30 C 0.2404(9) -0.2801(5) 0.7902(4)
H44 H 0.35420 -0.25120 0.77370
H45 H 0.21320 -0.24030 0.83890
C31 C 0.2572(9) -0.4028(5) 0.8103(4)
H46 H 0.29340 -0.44290 0.76320
H47 H 0.34720 -0.41190 0.85430
C32 C 0.0827(10) -0.4491(5) 0.8347(4)
H48 H 0.05170 -0.41280 0.88500
C33 C -0.0645(8) -0.4326(5) 0.7694(4)
H49 H -0.17730 -0.45680 0.78980
H50 H -0.04350 -0.47880 0.72280
C34 C -0.0757(7) -0.3118(4) 0.7426(3)
C35 C -0.2289(9) -0.2640(5) 0.7353(4)
H51 H -0.32790 -0.30590 0.74980
C36 C -0.2605(8) -0.1467(5) 0.7055(4)
H52 H -0.28830 -0.10010 0.75090
H53 H -0.36190 -0.14750 0.66630
C37 C -0.0973(6) -0.0973(4) 0.6662(3)
H54 H -0.09160 -0.13060 0.61220
C38 C 0.0719(6) -0.1273(4) 0.7183(3)
H55 H 0.05220 -0.10340 0.77370
C39 C 0.0967(7) -0.2561(4) 0.7228(3)
C40 C 0.2395(7) -0.0620(5) 0.6938(4)
H56 H 0.33510 -0.07340 0.73490
H57 H 0.27600 -0.09220 0.64310
C41 C 0.2140(7) 0.0628(5) 0.6836(4)
H58 H 0.19490 0.09580 0.73590
H59 H 0.32100 0.09720 0.66360
C42 C 0.0570(6) 0.0858(4) 0.6248(3)
C43 C -0.1071(6) 0.0299(4) 0.6568(3)
H60 H -0.11450 0.05910 0.71190
C44 C -0.2629(7) 0.0803(4) 0.6065(4)
H61 H -0.27260 0.05130 0.55140
H62 H -0.37490 0.06740 0.63150
C45 C -0.2055(7) 0.2031(4) 0.6089(3)
H63 H -0.25910 0.24040 0.65380
C46 C 0.0000(6) 0.2097(4) 0.6219(3)
H64 H 0.03170 0.24400 0.67500
C47 C 0.0960(8) 0.0452(5) 0.5402(3)
H65 H 0.13080 -0.03120 0.54310
H66 H 0.19070 0.09030 0.51980
H67 H -0.00890 0.05080 0.50440
C48 C 0.1538(9) -0.3013(5) 0.6417(4)
H68 H 0.16780 -0.38050 0.64580
H69 H 0.26480 -0.26610 0.62910
H70 H 0.06450 -0.28580 0.59950
C49 C 0.0607(7) 0.2889(4) 0.5555(3)
H71 H 0.09420 0.24330 0.50990
C50 C 0.2197(9) 0.3653(6) 0.5813(6)
H72 H 0.24900 0.41210 0.53650
H73 H 0.31980 0.32090 0.59750
H74 H 0.19030 0.41090 0.62610
C51 C -0.1090(7) 0.3476(4) 0.5289(3)
O6 O -0.2454(4) 0.2633(3) 0.5332(2)
C52 C -0.1247(7) 0.3951(4) 0.4428(3)
C53 C -0.2682(9) 0.4750(5) 0.4226(3)
H75 H -0.38000 0.43390 0.41180
H76 H -0.24150 0.51540 0.37370
C54 C -0.2879(8) 0.5584(5) 0.4918(4)
H77 H -0.18280 0.60870 0.49560
C55 C -0.2937(8) 0.4930(5) 0.5701(3)
H78 H -0.30890 0.54380 0.61480
H79 H -0.39500 0.44100 0.56650
O7 O -0.1333(5) 0.4328(3) 0.5858(2)
C56 C -0.4524(11) 0.6275(7) 0.4774(5)
H80 H -0.45990 0.67890 0.52170
H81 H -0.55640 0.57920 0.47380
H82 H -0.44490 0.66830 0.42760
O8 O 0.1006(7) -0.5703(3) 0.8490(3)
C57 C 0.0138(9) -0.6187(5) 0.9075(4)
O9 O -0.0721(10) -0.5668(5) 0.9506(4)
C58 C 0.0389(11) -0.7412(6) 0.9101(5)
H83 H -0.02510 -0.77310 0.95340
H84 H 0.16330 -0.75570 0.91920
H85 H -0.00520 -0.77390 0.85940
N2 N -0.0119(7) 0.3605(4) 0.3958(3)
O10 O -0.0385(7) 0.4074(4) 0.3164(3)
H86 H 0.077(4) 0.441(5) 0.325(4)
#END
