
#######################################################################
#
#                 Cambridge Crystallographic Data Centre
#                                CCDC
#
#######################################################################
#
# If this CIF has been generated from an entry in the Cambridge
# Structural Database, then it will include bibliographic, chemical,
# crystal, experimental, refinement or atomic coordinate data resulting
# from the CCDC's data processing and validation procedures.
#
#######################################################################

data_CSD_CIF_BEXWEI
_audit_creation_date 2013-05-19
_audit_creation_method CSD-ConQuest-V1
_database_code_CSD BEXWEI
_database_code_depnum_ccdc_archive 'CCDC 915023'
_chemical_formula_sum 'C14 H15 N5 O3'
_chemical_formula_moiety
;
C14 H15 N5 O3
;
_journal_coden_Cambridge 1488
_journal_volume 29
_journal_year 2013
_journal_page_first 9
_journal_name_full 'X-ray.Str.Anal.Online. '
loop_
_publ_author_name
"N.Vinutha"
"P.V.Frank"
"B.Kalluraya"
"S.Anthal"
"Rajnikant"
"V.K.Gupta"
"D.Revannasiddaiah"
_chemical_name_systematic
;
2-(2-Methyl-4-nitro-1H-imidazol-1-yl)-N'-[(1E)-1-phenylethylidene]acetohydrazi
de
;
_cell_volume   1483.397
_exptl_crystal_colour 'light yellow'
_exptl_crystal_density_diffrn 1.349
_exptl_crystal_description 'plate'
_diffrn_ambient_temperature 293
#These two values have been output from a single CSD field.
_refine_ls_R_factor_gt 0.0474
_refine_ls_wR_factor_gt 0.0474
_symmetry_cell_setting monoclinic
_symmetry_space_group_name_H-M 'P 21/n'
_symmetry_Int_Tables_number 14
loop_
_symmetry_equiv_pos_site_id
_symmetry_equiv_pos_as_xyz
1 x,y,z
2 1/2-x,1/2+y,1/2-z
3 -x,-y,-z
4 -1/2+x,-1/2-y,-1/2+z
_cell_length_a 10.8689(4)
_cell_length_b 10.5644(3)
_cell_length_c 12.9608(4)
_cell_angle_alpha 90
_cell_angle_beta 94.606(3)
_cell_angle_gamma 90
_cell_formula_units_Z 4
loop_
_atom_type_symbol
_atom_type_radius_bond
C 0.68
H 0.23
N 0.68
O 0.68
loop_
_atom_site_label
_atom_site_type_symbol
_atom_site_fract_x
_atom_site_fract_y
_atom_site_fract_z
N1 N 0.05298(14) 0.23619(13) 0.13192(11)
N2 N 0.02955(15) 0.35407(13) 0.08988(11)
H1 H 0.04960 0.37120 0.02860
N3 N -0.09860(15) 0.51046(14) 0.30843(11)
O1 O -0.04622(15) 0.54869(12) 0.11336(10)
N4 N -0.20622(15) 0.67808(15) 0.35012(12)
C1 C 0.11224(16) 0.15640(17) 0.08051(13)
C2 C -0.02472(18) 0.44177(17) 0.14520(13)
C3 C 0.13582(15) 0.03273(17) 0.13210(14)
C4 C -0.02578(18) 0.57446(18) 0.38010(13)
H2 H 0.05370 0.55380 0.40670
C5 C -0.09449(18) 0.67536(17) 0.40440(13)
C6 C -0.20710(18) 0.57622(18) 0.29178(14)
N5 N -0.0581(2) 0.76976(18) 0.48003(13)
C7 C 0.13268(18) 0.02188(18) 0.23914(15)
H3 H 0.11940 0.09370 0.27830
C8 C -0.0607(2) 0.40045(17) 0.25098(14)
H4 H -0.12800 0.34010 0.24290
H5 H 0.00890 0.35950 0.28890
O2 O -0.12642(19) 0.85927(16) 0.49189(13)
C9 C 0.15868(18) -0.07583(19) 0.07640(17)
H6 H 0.16380 -0.07070 0.00520
C10 C 0.1573(2) 0.1803(2) -0.02438(16)
H7 H 0.08910 0.17540 -0.07610
H8 H 0.21790 0.11780 -0.03840
H9 H 0.19360 0.26310 -0.02570
C11 C 0.1489(2) -0.0933(2) 0.28759(19)
H10 H 0.14720 -0.09900 0.35910
O3 O 0.0415(2) 0.75392(18) 0.53038(14)
C12 C 0.1738(2) -0.1914(2) 0.1256(2)
H11 H 0.18830 -0.26360 0.08730
C13 C 0.1677(2) -0.2003(2) 0.2303(2)
H12 H 0.17630 -0.27870 0.26290
C14 C -0.3106(2) 0.5350(2) 0.21855(18)
H13 H -0.38350 0.58190 0.23130
H14 H -0.32550 0.44630 0.22790
H15 H -0.29020 0.55000 0.14890
#END
