
#######################################################################
#
#                 Cambridge Crystallographic Data Centre
#                                CCDC
#
#######################################################################
#
# If this CIF has been generated from an entry in the Cambridge
# Structural Database, then it will include bibliographic, chemical,
# crystal, experimental, refinement or atomic coordinate data resulting
# from the CCDC's data processing and validation procedures.
#
#######################################################################

data_CSD_CIF_BEXYIO
_audit_creation_date 2013-05-19
_audit_creation_method CSD-ConQuest-V1
_database_code_CSD BEXYIO
_database_code_depnum_ccdc_archive 'CCDC 914970'
_chemical_formula_sum 'C28 H21 N3 O3'
_chemical_formula_moiety
;
C28 H21 N3 O3
;
_journal_coden_Cambridge 182
_journal_volume 49
_journal_year 2013
_journal_page_first 2667
_journal_name_full 'Chem.Commun. '
loop_
_publ_author_name
"S.Kumar"
"P.Singh"
"G.Hundal"
"M.S.Hundal"
"S.Kumar"
_chemical_name_systematic
;
N-(9-Anthrylmethyl)-N-(2-((4-nitrophenyl)amino)phenyl)formamide
;
_cell_volume   1148.951
_exptl_crystal_density_diffrn 1.293
_diffrn_ambient_temperature 296
#These two values have been output from a single CSD field.
_refine_ls_R_factor_gt 0.145
_refine_ls_wR_factor_gt 0.145
_symmetry_cell_setting triclinic
_symmetry_space_group_name_H-M 'P -1'
_symmetry_Int_Tables_number 2
loop_
_symmetry_equiv_pos_site_id
_symmetry_equiv_pos_as_xyz
1 x,y,z
2 -x,-y,-z
_cell_length_a 8.718(3)
_cell_length_b 12.036(4)
_cell_length_c 12.296(4)
_cell_angle_alpha 65.498(16)
_cell_angle_beta 86.432(17)
_cell_angle_gamma 78.223(15)
_cell_formula_units_Z 2
loop_
_atom_type_symbol
_atom_type_radius_bond
C 0.68
H 0.23
N 0.68
O 0.68
loop_
_atom_site_label
_atom_site_type_symbol
_atom_site_fract_x
_atom_site_fract_y
_atom_site_fract_z
C1 C 0.2504(8) -0.0236(6) 1.0037(7)
C2 C 0.1769(8) 0.0698(6) 0.9069(7)
H1 H 0.12100 0.05270 0.85560
C3 C 0.1831(7) 0.1900(5) 0.8826(6)
H2 H 0.13310 0.25410 0.81400
C4 C 0.2638(6) 0.2181(5) 0.9599(5)
C5 C 0.3423(7) 0.1203(5) 1.0594(5)
H3 H 0.39880 0.13640 1.11120
C6 C 0.3358(8) -0.0015(6) 1.0812(6)
H4 H 0.38830 -0.06760 1.14740
C7 C 0.1509(5) 0.4437(4) 0.8841(4)
C8 C -0.0052(5) 0.4339(5) 0.8903(4)
H5 H -0.03160 0.35570 0.92590
C9 C -0.1213(6) 0.5384(5) 0.8446(5)
H6 H -0.22500 0.52970 0.84490
C10 C -0.0867(6) 0.6553(5) 0.7985(5)
H7 H -0.16660 0.72550 0.77270
C11 C 0.0667(6) 0.6676(5) 0.7908(4)
H8 H 0.09110 0.74650 0.75660
C12 C 0.1851(5) 0.5640(4) 0.8333(4)
C13 C 0.4468(6) 0.5587(5) 0.7360(5)
H9 H 0.49020 0.47050 0.76220
H10 H 0.53300 0.60180 0.72500
C14 C 0.3561(6) 0.6071(4) 0.6157(4)
C15 C 0.3202(6) 0.5211(5) 0.5767(4)
C16 C 0.3584(7) 0.3918(5) 0.6291(5)
H11 H 0.41740 0.35090 0.70010
C17 C 0.3083(8) 0.3236(7) 0.5754(6)
H12 H 0.33380 0.23710 0.61040
C18 C 0.2201(8) 0.3848(9) 0.4693(6)
H13 H 0.18660 0.33910 0.43330
C19 C 0.1820(7) 0.5141(9) 0.4169(5)
H14 H 0.12300 0.55500 0.34590
C20 C 0.2321(7) 0.5823(7) 0.4706(5)
C21 C 0.1766(14) 0.7087(7) 0.4034(8)
H15 H 0.11620 0.73980 0.33350
C22 C 0.2212(9) 0.7836(8) 0.4520(5)
C23 C 0.1712(10) 0.9114(8) 0.3901(6)
H16 H 0.10890 0.94270 0.32110
C24 C 0.2144(12) 0.9925(5) 0.4312(8)
H17 H 0.18090 1.07800 0.38980
C25 C 0.3075(11) 0.9457(5) 0.5343(8)
H18 H 0.33630 0.99990 0.56180
C26 C 0.3575(8) 0.8179(5) 0.5962(5)
H19 H 0.41980 0.78660 0.66520
C27 C 0.3144(7) 0.7369(4) 0.5550(4)
C28 C 0.3932(6) 0.6256(4) 0.8956(5)
H20 H 0.32340 0.64070 0.95050
N1 N 0.2452(9) -0.1542(7) 1.0316(9)
N2 N 0.2710(4) 0.3392(3) 0.9367(4)
H21 H 0.35690 0.35190 0.95620
N3 N 0.3441(4) 0.5785(3) 0.8269(3)
O1 O 0.3141(10) -0.2379(5) 1.1169(7)
O2 O 0.1658(8) -0.1695(5) 0.9581(8)
O3 O 0.5236(4) 0.6509(4) 0.8926(4)
#END
