
#######################################################################
#
#                 Cambridge Crystallographic Data Centre
#                                CCDC
#
#######################################################################
#
# If this CIF has been generated from an entry in the Cambridge
# Structural Database, then it will include bibliographic, chemical,
# crystal, experimental, refinement or atomic coordinate data resulting
# from the CCDC's data processing and validation procedures.
#
#######################################################################

data_CSD_CIF_BEYLOJ
_audit_creation_date 2018-03-01
_audit_creation_method CSD-ConQuest-V1
_database_code_CSD BEYLOJ
_database_code_depnum_ccdc_archive 'CCDC 1523281'
_chemical_formula_sum 'C4 H7 N7 O6'
_chemical_formula_moiety
;
C4 H7 N7 O6
;
_journal_coden_Cambridge 1277
_journal_volume 121
_journal_year 2017
_journal_page_first 3567
_journal_name_full 'J.Phys.Chem.A '
loop_
_publ_author_name
"Q.J.Axthammer"
"B.Krumm"
"T.M.Klapotke"
_chemical_name_systematic
;
2-(1-(carbamoylamino)-2,2-dinitroethylidene)hydrazinecarboxamide
;
_cell_volume    955.665
_exptl_crystal_colour 'colorless'
_exptl_crystal_density_diffrn 1.732
_exptl_crystal_description 'plate'
_diffrn_ambient_temperature 173
#These two values have been output from a single CSD field.
_refine_ls_R_factor_gt 0.0436
_refine_ls_wR_factor_gt 0.0436
_symmetry_cell_setting triclinic
_symmetry_space_group_name_H-M 'P -1'
_symmetry_Int_Tables_number 2
loop_
_symmetry_equiv_pos_site_id
_symmetry_equiv_pos_as_xyz
1 x,y,z
2 -x,-y,-z
_cell_length_a 8.4279(7)
_cell_length_b 9.5361(6)
_cell_length_c 13.4489(11)
_cell_angle_alpha 102.602(6)
_cell_angle_beta 102.644(7)
_cell_angle_gamma 107.809(6)
_cell_formula_units_Z 4
loop_
_atom_type_symbol
_atom_type_radius_bond
C 0.68
H 0.23
N 0.68
O 0.68
loop_
_atom_site_label
_atom_site_type_symbol
_atom_site_fract_x
_atom_site_fract_y
_atom_site_fract_z
C1 C 0.1300(3) 0.6932(2) 0.43892(14)
C2 C 0.2700(2) 0.7822(2) 0.40014(13)
C3 C 0.4015(3) 0.5831(2) 0.38852(14)
C4 C 0.3891(3) 1.1350(2) 0.34239(14)
N1 N -0.0151(2) 0.56144(19) 0.34804(12)
N2 N 0.0423(2) 0.7954(2) 0.48624(13)
N3 N 0.5309(3) 0.5525(3) 0.35868(15)
N4 N 0.3894(3) 0.7196(2) 0.37635(15)
N5 N 0.2675(2) 0.91187(18) 0.39160(11)
N6 N 0.3948(2) 0.99919(19) 0.35777(13)
N7 N 0.2633(3) 1.1766(3) 0.36746(17)
O1 O -0.0344(2) 0.57342(18) 0.25892(11)
O2 O -0.1055(2) 0.45585(18) 0.37112(11)
O3 O -0.0934(2) 0.79320(19) 0.43092(13)
O4 O 0.1165(2) 0.87312(19) 0.57873(11)
O5 O 0.2996(2) 0.49988(17) 0.42297(12)
O6 O 0.50154(19) 1.21095(16) 0.30849(11)
H1 H 0.164(2) 0.653(2) 0.4875(14)
H2 H 0.544(3) 0.471(3) 0.3662(18)
H3 H 0.597(4) 0.620(3) 0.339(2)
H4 H 0.443(3) 0.753(3) 0.3464(17)
H5 H 0.453(3) 0.963(3) 0.3335(17)
H6 H 0.196(4) 1.120(3) 0.3925(19)
H7 H 0.261(4) 1.260(3) 0.366(2)
C5 C 0.8896(3) 0.2856(3) 0.05854(15)
C6 C 0.7625(3) 0.2059(2) 0.11027(14)
C7 C 0.7033(3) -0.1057(3) 0.21571(15)
C8 C 0.5852(3) 0.3605(3) 0.07534(16)
N8 N 1.0585(2) 0.2614(2) 0.09512(14)
N9 N 0.8266(2) 0.2194(2) -0.06195(13)
N10 N 0.4805(3) 0.4212(3) 0.11242(18)
N11 N 0.6319(2) 0.2597(2) 0.12518(15)
N12 N 0.7899(2) 0.0940(2) 0.13858(12)
N13 N 0.6794(3) 0.0161(2) 0.18629(15)
N14 N 0.8276(3) -0.1484(3) 0.18896(18)
O7 O 1.0920(2) 0.1675(2) 0.03499(13)
O8 O 1.1522(2) 0.3432(2) 0.18468(12)
O9 O 0.7148(2) 0.0896(2) -0.10207(11)
O10 O 0.8975(2) 0.3005(2) -0.11035(12)
O11 O 0.6410(2) 0.3884(2) 0.00167(12)
O12 O 0.6102(2) -0.16865(18) 0.26451(12)
H8 H 0.916(3) 0.391(3) 0.0750(15)
H9 H 0.437(4) 0.487(3) 0.079(2)
H10 H 0.440(4) 0.387(4) 0.159(2)
H11 H 0.591(3) 0.237(3) 0.1677(18)
H12 H 0.620(4) 0.056(4) 0.212(2)
H13 H 0.895(4) -0.094(4) 0.158(2)
H14 H 0.844(4) -0.221(4) 0.203(2)
#END
