
#######################################################################
#
#                 Cambridge Crystallographic Data Centre
#                                CCDC
#
#######################################################################
#
# If this CIF has been generated from an entry in the Cambridge
# Structural Database, then it will include bibliographic, chemical,
# crystal, experimental, refinement or atomic coordinate data resulting
# from the CCDC's data processing and validation procedures.
#
#######################################################################

data_CSD_CIF_BEYMOK
_audit_creation_date 2018-03-01
_audit_creation_method CSD-ConQuest-V1
_database_code_CSD BEYMOK
_database_code_depnum_ccdc_archive 'CCDC 1523286'
_chemical_formula_sum 'C3 H5 N5 O5'
_chemical_formula_moiety
;
C3 H5 N5 O5
;
_journal_coden_Cambridge 1277
_journal_volume 121
_journal_year 2017
_journal_page_first 3567
_journal_name_full 'J.Phys.Chem.A '
loop_
_publ_author_name
"Q.J.Axthammer"
"B.Krumm"
"T.M.Klapotke"
_chemical_name_systematic
;
1-(1-amino-2,2-dinitrovinyl)urea
;
_cell_volume   1003.481
_exptl_crystal_colour 'yellow'
_exptl_crystal_density_diffrn 1.898
_exptl_crystal_description 'block'
_diffrn_ambient_temperature 173
#These two values have been output from a single CSD field.
_refine_ls_R_factor_gt 0.0517
_refine_ls_wR_factor_gt 0.0517
_symmetry_cell_setting triclinic
_symmetry_space_group_name_H-M 'P -1'
_symmetry_Int_Tables_number 2
loop_
_symmetry_equiv_pos_site_id
_symmetry_equiv_pos_as_xyz
1 x,y,z
2 -x,-y,-z
_cell_length_a 9.5204(8)
_cell_length_b 9.7709(7)
_cell_length_c 10.9656(8)
_cell_angle_alpha 97.989(6)
_cell_angle_beta 96.485(7)
_cell_angle_gamma 90.246(6)
_cell_formula_units_Z 6
loop_
_atom_type_symbol
_atom_type_radius_bond
C 0.68
H 0.23
N 0.68
O 0.68
loop_
_atom_site_label
_atom_site_type_symbol
_atom_site_fract_x
_atom_site_fract_y
_atom_site_fract_z
O1 O -0.1239(2) 0.42641(18) 0.54785(16)
O2 O -0.1759(2) 0.40416(16) 0.34981(15)
O3 O -0.1987(2) 0.15032(17) 0.26280(17)
O4 O 0.0007(2) 0.04952(17) 0.29232(16)
O5 O 0.2880(2) 0.19007(16) 0.72132(16)
N1 N -0.1206(2) 0.36061(19) 0.44370(19)
N2 N -0.0823(2) 0.1428(2) 0.32367(18)
N3 N 0.1546(3) 0.1061(2) 0.5020(2)
N4 N 0.0859(2) 0.2882(2) 0.63702(18)
N5 N 0.1973(3) 0.3767(2) 0.8280(2)
C1 C -0.0457(3) 0.2352(2) 0.4328(2)
C2 C 0.0678(3) 0.2077(2) 0.5244(2)
C3 C 0.1983(3) 0.2796(2) 0.7306(2)
H1 H 0.261(3) 0.373(3) 0.892(2)
H2 H 0.134(3) 0.443(3) 0.837(2)
H3 H 0.150(4) 0.056(3) 0.427(3)
H4 H 0.020(3) 0.353(3) 0.647(2)
H5 H 0.224(4) 0.091(3) 0.571(3)
O6 O 0.2017(2) 0.32952(18) 0.27311(16)
O7 O 0.0710(2) 0.47156(16) 0.17973(16)
O8 O -0.1317(2) 0.33939(18) 0.04348(16)
O9 O -0.0552(2) 0.19664(17) -0.10162(15)
O10 O 0.3775(2) -0.08463(16) 0.03804(16)
N6 N 0.1196(2) 0.3550(2) 0.18274(18)
N7 N -0.0380(2) 0.2641(2) 0.00433(19)
N8 N 0.1619(3) 0.0507(2) -0.0476(2)
N9 N 0.2897(2) 0.1123(2) 0.14270(19)
N10 N 0.4880(3) 0.0089(2) 0.2242(2)
C4 C 0.0882(3) 0.2487(2) 0.0822(2)
C5 C 0.1799(3) 0.1346(2) 0.0566(2)
C6 C 0.3870(3) 0.0045(2) 0.1292(2)
H6 H 0.301(3) 0.177(2) 0.212(2)
H7 H 0.219(3) -0.015(3) -0.057(2)
H8 H 0.097(3) 0.070(3) -0.106(3)
H9 H 0.554(3) -0.057(3) 0.214(3)
H10 H 0.500(3) 0.077(3) 0.289(3)
O11 O 0.6207(2) 0.59666(19) 0.46984(17)
O12 O 0.5110(3) 0.7244(2) 0.60271(17)
O13 O 0.3800(3) 0.9130(2) 0.5172(2)
O14 O 0.2446(2) 0.85358(18) 0.34980(17)
O15 O 0.3823(2) 0.42503(17) 0.06107(15)
N11 N 0.5261(3) 0.6787(2) 0.49402(19)
N12 N 0.3478(2) 0.8307(2) 0.42430(19)
N13 N 0.3192(3) 0.6623(2) 0.1873(2)
N14 N 0.4971(2) 0.52234(19) 0.24943(19)
N15 N 0.5802(3) 0.3278(2) 0.1419(2)
C7 C 0.4304(3) 0.7132(2) 0.3959(2)
C8 C 0.4132(3) 0.6323(2) 0.2750(2)
C9 C 0.4808(3) 0.4230(2) 0.1435(2)
H11 H 0.563(3) 0.514(3) 0.305(3)
H12 H 0.573(4) 0.267(3) 0.077(3)
H13 H 0.313(3) 0.606(3) 0.118(3)
H14 H 0.262(4) 0.729(3) 0.209(3)
H15 H 0.647(4) 0.329(3) 0.206(3)
#END
