
#######################################################################
#
#                 Cambridge Crystallographic Data Centre
#                                CCDC
#
#######################################################################
#
# If this CIF has been generated from an entry in the Cambridge
# Structural Database, then it will include bibliographic, chemical,
# crystal, experimental, refinement or atomic coordinate data resulting
# from the CCDC's data processing and validation procedures.
#
#######################################################################

data_CSD_CIF_BEYVUY
_audit_creation_date 2013-05-19
_audit_creation_method CSD-ConQuest-V1
_database_code_CSD BEYVUY
_database_code_depnum_ccdc_archive 'CCDC 914582'
_chemical_formula_sum 'C25 H28 N4 O9'
_chemical_formula_moiety
;
C25 H28 N4 O9
;
_journal_coden_Cambridge 38
_journal_volume 340
_journal_year 2013
_journal_page_first 180
_journal_name_full 'Science '
loop_
_publ_author_name
"J.T.Malinowski"
"R.J.Sharpe"
"J.S.Johnson"
_chemical_name_systematic
;
4-Acetyl-3-(((benzyloxy)carbonyl)amino)-4-((dimethylcarbamoyl)amino)-5-methylt
etrahydrofuran-2-yl 4-nitrobenzoate
;
_cell_volume   1280.075
_exptl_crystal_colour 'colorless'
_exptl_crystal_density_diffrn 1.371
_exptl_special_details
;
Absolute configuration

;
_exptl_crystal_description 'block'
_diffrn_ambient_temperature 100
#These two values have been output from a single CSD field.
_refine_ls_R_factor_gt 0.0258
_refine_ls_wR_factor_gt 0.0258
_symmetry_cell_setting monoclinic
_symmetry_space_group_name_H-M 'P 21'
_symmetry_Int_Tables_number 4
loop_
_symmetry_equiv_pos_site_id
_symmetry_equiv_pos_as_xyz
1 x,y,z
2 -x,1/2+y,-z
_cell_length_a 10.8826(2)
_cell_length_b 10.0476(2)
_cell_length_c 12.7530(2)
_cell_angle_alpha 90
_cell_angle_beta 113.369(1)
_cell_angle_gamma 90
_cell_formula_units_Z 2
loop_
_atom_type_symbol
_atom_type_radius_bond
C 0.68
H 0.23
N 0.68
O 0.68
loop_
_atom_site_label
_atom_site_type_symbol
_atom_site_fract_x
_atom_site_fract_y
_atom_site_fract_z
O1 O 0.15240(9) 0.61042(9) 0.35255(7)
O2 O 0.22596(9) 0.88157(9) 0.28810(8)
O3 O 0.56570(9) 0.86318(9) 0.44206(8)
O4 O 0.17653(9) 0.61511(9) 0.53847(7)
O5 O 0.19966(10) 0.80489(10) 0.63728(8)
O6 O 0.02387(11) 0.27843(10) 0.93977(9)
O7 O -0.04745(10) 0.46371(11) 0.98126(8)
O8 O 0.52093(9) 0.84782(9) 0.68389(7)
O9 O 0.58853(10) 0.63944(10) 0.75175(8)
N1 N 0.49591(11) 0.65336(10) 0.38497(8)
H1 H 0.51360 0.57340 0.36640
N2 N 0.72374(11) 0.70538(10) 0.46206(9)
N3 N 0.00810(11) 0.39929(12) 0.93112(9)
N4 N 0.43486(11) 0.6605(1) 0.57788(9)
H2 H 0.43880 0.57310 0.57690
C1 C 0.36156(13) 0.69149(12) 0.36754(10)
C2 C 0.26560(13) 0.57089(13) 0.32732(11)
H3 H 0.30930 0.49150 0.37470
C3 C 0.19470(13) 0.69170(12) 0.44867(10)
H4 H 0.13830 0.77390 0.43220
C4 C 0.34285(12) 0.72996(12) 0.47932(10)
H5 H 0.35440 0.82820 0.49200
C5 C 0.59539(13) 0.74624(13) 0.43156(10)
C6 C 0.83024(13) 0.79011(14) 0.53827(12)
H6 H 0.80170 0.88340 0.52570
H7 H 0.91080 0.77830 0.52270
H8 H 0.84990 0.76570 0.61770
C7 C 0.76086(14) 0.56588(13) 0.46119(13)
H9 H 0.76520 0.52250 0.53140
H10 H 0.84850 0.56040 0.45670
H11 H 0.69370 0.52110 0.39490
C8 C 0.30886(13) 0.80612(12) 0.28038(10)
C9 C 0.35784(14) 0.81627(13) 0.18581(11)
H12 H 0.28820 0.85690 0.11860
H13 H 0.37850 0.72710 0.16620
H14 H 0.43870 0.87140 0.21100
C10 C 0.21141(14) 0.53282(13) 0.20257(10)
H15 H 0.15460 0.45380 0.19020
H16 H 0.28600 0.51340 0.18030
H17 H 0.15840 0.60660 0.15630
C11 C 0.17789(13) 0.68730(13) 0.62776(11)
C12 C 0.14274(13) 0.60704(14) 0.71034(11)
C13 C 0.13689(15) 0.46847(14) 0.70674(12)
H18 H 0.16140 0.42150 0.65330
C14 C 0.09538(15) 0.39894(14) 0.78079(12)
H19 H 0.09210 0.30440 0.77990
C15 C 0.05891(13) 0.47169(14) 0.85617(10)
C16 C 0.06675(14) 0.60889(14) 0.86387(11)
H20 H 0.04260 0.65530 0.91780
C17 C 0.11067(14) 0.67668(14) 0.79085(11)
H21 H 0.11900 0.77080 0.79550
C18 C 0.51531(13) 0.72762(13) 0.67203(10)
C19 C 0.67216(15) 0.68908(15) 0.86422(11)
H22 H 0.66460 0.78720 0.86580
H23 H 0.76690 0.66620 0.88230
C20 C 0.62841(14) 0.62792(14) 0.95162(11)
C21 C 0.49454(17) 0.6137(2) 0.93019(13)
H24 H 0.42860 0.64420 0.85990
C22 C 0.45555(19) 0.5556(2) 1.01018(16)
H25 H 0.36300 0.54560 0.99420
C23 C 0.5499(2) 0.51175(19) 1.11325(15)
H26 H 0.52270 0.47110 1.16780
C24 C 0.68420(17) 0.52749(16) 1.13645(13)
H27 H 0.74970 0.49920 1.20780
C25 C 0.72349(15) 0.58472(15) 1.05557(12)
H28 H 0.81600 0.59440 1.07140
#END
