
#######################################################################
#
#                 Cambridge Crystallographic Data Centre
#                                CCDC
#
#######################################################################
#
# If this CIF has been generated from an entry in the Cambridge
# Structural Database, then it will include bibliographic, chemical,
# crystal, experimental, refinement or atomic coordinate data resulting
# from the CCDC's data processing and validation procedures.
#
#######################################################################

data_CSD_CIF_BEYZEK
_audit_creation_date 1983-02-19
_audit_creation_method CSD-ConQuest-V1
_database_code_CSD BEYZEK
_database_code_depnum_ccdc_archive 'CCDC 1109761'
_chemical_formula_sum 'C13 H6 N2 O5'
_chemical_formula_moiety
;
C13 H6 N2 O5
;
_journal_coden_Cambridge 189
_journal_volume 11
_journal_year 1982
_journal_page_first 479
_journal_name_full 'Cryst.Struct.Commun. '
loop_
_publ_author_name
"R.G.Baughman"
_chemical_name_systematic
;
2,7-Dinitrofluorenone
;
_cell_volume   1135.106
_exptl_crystal_density_diffrn 1.581
_diffrn_ambient_temperature ?
_diffrn_special_details
;
The study was carried out at room temperature,in the range 283-303K

;
#These two values have been output from a single CSD field.
_refine_ls_R_factor_gt 0.068
_refine_ls_wR_factor_gt 0.068
_symmetry_cell_setting orthorhombic
_symmetry_space_group_name_H-M 'P c a 21'
_symmetry_Int_Tables_number 29
loop_
_symmetry_equiv_pos_site_id
_symmetry_equiv_pos_as_xyz
1 x,y,z
2 1/2-x,y,1/2+z
3 1/2+x,-y,z
4 -x,-y,1/2+z
_cell_length_a 20.998(5)
_cell_length_b 3.793(1)
_cell_length_c 14.252(5)
_cell_angle_alpha 90
_cell_angle_beta 90
_cell_angle_gamma 90
_cell_formula_units_Z 4
loop_
_atom_type_symbol
_atom_type_radius_bond
C 0.68
H 0.23
N 0.68
O 0.68
loop_
_atom_site_label
_atom_site_type_symbol
_atom_site_fract_x
_atom_site_fract_y
_atom_site_fract_z
O1 O 0.53920 -0.09800 1.11800
O2 O 0.38810 0.61300 0.75730
O3 O 0.35870 0.28700 0.87110
O4 O 0.85450 0.01000 1.11200
O5 O 0.78710 -0.21000 1.20750
N1 N 0.39980 0.43000 0.82620
N2 N 0.80040 -0.06300 1.13740
C1 C 0.47790 0.23000 0.94050
C2 C 0.46520 0.38300 0.85510
C3 C 0.51350 0.49900 0.79550
C4 C 0.57670 0.45600 0.82120
C5 C 0.71350 0.28300 0.92650
C6 C 0.76210 0.18800 0.98900
C7 C 0.74730 0.04000 1.07300
C8 C 0.68550 -0.02900 1.10280
C9 C 0.56760 0.03000 1.05470
C10 C 0.54000 0.19600 0.96660
C11 C 0.58970 0.30500 0.90720
C12 C 0.65100 0.22100 0.95510
C13 C 0.63880 0.07200 1.04000
H1 H 0.44440 0.15140 0.98010
H2 H 0.50310 0.60830 0.73740
H3 H 0.61010 0.52790 0.78070
H4 H 0.72270 0.39330 0.86780
H5 H 0.80540 0.22360 0.97180
H6 H 0.67620 -0.13660 1.16150
#END
