
#######################################################################
#
#                 Cambridge Crystallographic Data Centre
#                                CCDC
#
#######################################################################
#
# If this CIF has been generated from an entry in the Cambridge
# Structural Database, then it will include bibliographic, chemical,
# crystal, experimental, refinement or atomic coordinate data resulting
# from the CCDC's data processing and validation procedures.
#
#######################################################################

data_CSD_CIF_BEZREF
_audit_creation_date 2013-07-07
_audit_creation_method CSD-ConQuest-V1
_database_code_CSD BEZREF
_database_code_depnum_ccdc_archive 'CCDC 823580'
_chemical_formula_sum 'C16 H19 N1 O4'
_chemical_formula_moiety
;
C16 H19 N1 O4
;
_journal_coden_Cambridge 917
_journal_volume 8
_journal_year 2012
_journal_page_first 1393
_journal_name_full 'Beilstein J.Org.Chem. '
loop_
_publ_author_name
"S.Chandrasekhar"
"V.Mohana Rao"
_chemical_name_systematic
;
N-Hydroxy-1-phenyl-2-(2,4,10-trioxatricyclo[3.3.1.1^3,7^]dec-3-yl)propan-1-imi
ne
;
_cell_volume   2851.296
_exptl_crystal_colour 'colorless'
_exptl_crystal_density_diffrn 1.348
_exptl_crystal_description 'block'
_diffrn_ambient_temperature 293
#These two values have been output from a single CSD field.
_refine_ls_R_factor_gt 0.0479
_refine_ls_wR_factor_gt 0.0479
_symmetry_cell_setting orthorhombic
_symmetry_space_group_name_H-M 'P b c a'
_symmetry_Int_Tables_number 61
loop_
_symmetry_equiv_pos_site_id
_symmetry_equiv_pos_as_xyz
1 x,y,z
2 1/2-x,-y,1/2+z
3 1/2+x,1/2-y,-z
4 -x,1/2+y,1/2-z
5 -x,-y,-z
6 -1/2+x,y,-1/2-z
7 -1/2-x,-1/2+y,z
8 x,-1/2-y,-1/2+z
_cell_length_a 12.5090(5)
_cell_length_b 12.0716(4)
_cell_length_c 18.8823(6)
_cell_angle_alpha 90
_cell_angle_beta 90
_cell_angle_gamma 90
_cell_formula_units_Z 8
loop_
_atom_type_symbol
_atom_type_radius_bond
C 0.68
H 0.23
N 0.68
O 0.68
loop_
_atom_site_label
_atom_site_type_symbol
_atom_site_fract_x
_atom_site_fract_y
_atom_site_fract_z
O1 O 0.01837(11) 0.34049(12) 0.32206(7)
O2 O 0.10529(12) 0.17844(11) 0.34944(7)
O3 O 0.17241(12) 0.29246(12) 0.26291(7)
O4 O 0.03143(13) 0.38895(14) 0.54612(7)
N1 N 0.07208(14) 0.40755(14) 0.47763(8)
C1 C 0.11754(16) 0.28786(16) 0.32774(10)
C2 C 0.16609(15) 0.23300(17) 0.4992(1)
C3 C 0.27043(18) 0.2188(2) 0.52253(12)
C4 C 0.13609(16) 0.33161(17) 0.45670(11)
C5 C 0.18443(18) 0.34696(18) 0.38362(11)
C6 C 0.1012(3) 0.1161(2) 0.22864(13)
C7 C 0.09187(19) 0.15184(18) 0.51577(12)
C8 C 0.1214(2) 0.0589(2) 0.55337(13)
C9 C -0.0493(2) 0.2858(2) 0.26982(13)
C10 C 0.0435(2) 0.1152(2) 0.29872(13)
C11 C 0.1131(2) 0.2350(2) 0.20706(12)
C12 C -0.0655(2) 0.1680(3) 0.29334(17)
C13 C 0.0064(3) 0.2905(3) 0.19914(14)
C14 C 0.2245(2) 0.0461(2) 0.57642(14)
C15 C 0.2987(2) 0.1262(2) 0.56210(13)
C16 C 0.2052(3) 0.4670(3) 0.36378(18)
H1 H 0.2750(15) 0.3306(14) 0.3791(9)
H2 H 0.3215(16) 0.2799(17) 0.5111(11)
H3 H 0.058(2) 0.072(2) 0.1920(16)
H4 H -0.034(2) 0.255(2) 0.1656(14)
H5 H -0.1022(18) 0.1688(17) 0.3391(14)
H6 H 0.1532(16) 0.2406(18) 0.1641(12)
H7 H 0.0223(17) 0.1654(17) 0.5007(11)
H8 H -0.012(2) 0.452(2) 0.5492(13)
H9 H 0.0701(19) 0.002(2) 0.5656(12)
H10 H 0.0398(17) 0.043(2) 0.3180(13)
H11 H 0.0216(19) 0.362(2) 0.1866(13)
H12 H 0.369(2) 0.124(2) 0.5769(12)
H13 H 0.174(2) 0.077(2) 0.2350(12)
H14 H -0.109(2) 0.127(2) 0.2561(14)
H15 H -0.1143(18) 0.3300(17) 0.2691(10)
H16 H 0.2497(19) -0.019(2) 0.6055(14)
H17 H 0.258(3) 0.501(3) 0.406(2)
H18 H 0.249(2) 0.471(2) 0.3128(19)
H19 H 0.129(4) 0.508(4) 0.364(2)
#END
