
#######################################################################
#
#                 Cambridge Crystallographic Data Centre
#                                CCDC
#
#######################################################################
#
# If this CIF has been generated from an entry in the Cambridge
# Structural Database, then it will include bibliographic, chemical,
# crystal, experimental, refinement or atomic coordinate data resulting
# from the CCDC's data processing and validation procedures.
#
#######################################################################

data_CSD_CIF_BEZYEM
_audit_creation_date 2013-07-07
_audit_creation_method CSD-ConQuest-V1
_database_code_CSD BEZYEM
_database_code_depnum_ccdc_archive 'CCDC 787238'
_chemical_formula_sum 'C28 H22 N2 O4'
_chemical_formula_moiety
;
C28 H22 N2 O4
;
_journal_coden_Cambridge 214
_journal_volume 143
_journal_year 2012
_journal_page_first 1687
_journal_name_full 'Monatsh.Chem. '
loop_
_publ_author_name
"N.Acharjee"
"A.Banerji"
"T.Prange"
_chemical_name_systematic
;
(3-(2-Nitrophenyl)-2,5-diphenyl-1,2-oxazolidin-4-yl)(phenyl)methanone
;
_cell_volume   2299.164
_exptl_crystal_colour 'yellowish'
_exptl_crystal_density_diffrn 1.301
_exptl_crystal_description 'needle'
_diffrn_ambient_temperature 110
_diffrn_radiation_probe x-ray
_diffrn_source synchrotron
#These two values have been output from a single CSD field.
_refine_ls_R_factor_gt 0.0684
_refine_ls_wR_factor_gt 0.0684
_symmetry_cell_setting monoclinic
_symmetry_space_group_name_H-M 'P 21/n'
_symmetry_Int_Tables_number 14
loop_
_symmetry_equiv_pos_site_id
_symmetry_equiv_pos_as_xyz
1 x,y,z
2 1/2-x,1/2+y,1/2-z
3 -x,-y,-z
4 -1/2+x,-1/2-y,-1/2+z
_cell_length_a 10.304(1)
_cell_length_b 17.286(1)
_cell_length_c 13.027(1)
_cell_angle_alpha 90
_cell_angle_beta 97.74(6)
_cell_angle_gamma 90
_cell_formula_units_Z 4
loop_
_atom_type_symbol
_atom_type_radius_bond
C 0.68
H 0.23
N 0.68
O 0.68
loop_
_atom_site_label
_atom_site_type_symbol
_atom_site_fract_x
_atom_site_fract_y
_atom_site_fract_z
O1 O 0.23126(16) 0.30123(9) 0.87343(12)
N1 N 0.26549(19) 0.33359(11) 0.78025(14)
C1 C 0.2843(2) 0.26763(14) 0.71290(19)
H1 H 0.2544(8) 0.2829(4) 0.636(2)
C2 C 0.1933(2) 0.20268(14) 0.74533(17)
H2 H 0.2411(15) 0.1564(15) 0.7607(5)
C3 C 0.1447(2) 0.23583(14) 0.84417(18)
H3 H 0.047(3) 0.2553(5) 0.8264(5)
C4 C 0.1800(2) 0.39528(14) 0.74115(18)
C5 C 0.0949(2) 0.42942(15) 0.8022(2)
H4 H 0.0854(4) 0.4086(8) 0.866(2)
C6 C 0.0240(3) 0.49530(16) 0.7670(2)
H5 H -0.040(2) 0.5203(8) 0.8128(15)
C7 C 0.0379(3) 0.52760(16) 0.6723(2)
H6 H -0.0103(18) 0.5731(17) 0.6490(9)
C8 C 0.1221(3) 0.49373(16) 0.6111(2)
H7 H 0.1317(4) 0.5166(8) 0.542(2)
C9 C 0.1934(3) 0.42802(15) 0.6451(2)
H8 H 0.254(2) 0.4044(8) 0.6011(15)
C10 C 0.4290(2) 0.24393(14) 0.72645(19)
C11 C 0.4864(3) 0.20301(15) 0.65156(19)
C12 C 0.6193(3) 0.18663(16) 0.6615(2)
H9 H 0.6561(13) 0.1604(9) 0.6057(19)
C13 C 0.6993(3) 0.20762(17) 0.7508(2)
H10 H 0.797(3) 0.1947(5) 0.7600(4)
C14 C 0.6452(3) 0.24648(16) 0.8279(2)
H11 H 0.699(2) 0.2605(5) 0.889(2)
C15 C 0.5134(2) 0.26496(15) 0.8158(2)
H12 H 0.4793(13) 0.2925(10) 0.8692(19)
N2 N 0.4068(2) 0.17593(13) 0.55641(17)
O2 O 0.28999(19) 0.16276(12) 0.55674(14)
O3 O 0.4585(2) 0.16784(15) 0.47766(17)
C16 C 0.0782(2) 0.18897(14) 0.65969(18)
O4 O 0.03682(18) 0.24332(10) 0.60473(14)
C17 C 0.0146(2) 0.11137(14) 0.64631(17)
C18 C 0.0591(2) 0.04753(15) 0.70632(19)
H13 H 0.134(2) 0.0526(2) 0.7601(18)
C19 C -0.0035(2) -0.02329(15) 0.68903(19)
H14 H 0.0273(11) -0.0673(16) 0.7304(15)
C20 C -0.1107(2) -0.03108(16) 0.61212(19)
H15 H -0.1576(15) -0.0841(17) 0.6000(4)
C21 C -0.1547(2) 0.03256(16) 0.5516(2)
H16 H -0.226(2) 0.0274(2) 0.4992(18)
C22 C -0.0936(2) 0.10306(15) 0.56880(18)
H17 H -0.1234(12) 0.1446(16) 0.5297(15)
C23 C 0.1561(2) 0.18292(14) 0.93671(18)
C24 C 0.2764(3) 0.17341(15) 0.99981(19)
H18 H 0.353(3) 0.2007(10) 0.9829(7)
C25 C 0.2872(3) 0.12581(15) 1.0858(2)
H19 H 0.369(3) 0.1211(2) 1.1290(16)
C26 C 0.1793(3) 0.08505(17) 1.1093(2)
H20 H 0.1873(4) 0.0499(12) 1.171(2)
C27 C 0.0600(3) 0.09313(18) 1.0465(2)
H21 H -0.014(3) 0.0648(11) 1.0620(6)
C28 C 0.0473(3) 0.14235(17) 0.9610(2)
H22 H -0.044(3) 0.1488(3) 0.9151(15)
#END
