
#######################################################################
#
#                 Cambridge Crystallographic Data Centre
#                                CCDC
#
#######################################################################
#
# If this CIF has been generated from an entry in the Cambridge
# Structural Database, then it will include bibliographic, chemical,
# crystal, experimental, refinement or atomic coordinate data resulting
# from the CCDC's data processing and validation procedures.
#
#######################################################################

data_CSD_CIF_BHPNPH
_audit_creation_date 1980-01-28
_audit_creation_method CSD-ConQuest-V1
_database_code_CSD BHPNPH
_chemical_formula_sum 'C13 H13 N3 O2'
_chemical_formula_moiety
;
C13 H13 N3 O2
;
_journal_coeditor_code "IUCr A17721"
_journal_coden_Cambridge 107
_journal_volume 35
_journal_year 1979
_journal_page_first 1915
_journal_name_full 'Acta Crystallogr.,Sect.B:Struct.Crystallogr.Cryst.Chem. '
loop_
_publ_author_name
"P.Murray-Rust"
"J.Murray-Rust"
"A.Brown"
"R.F.Newton"
_chemical_name_systematic
;
cis-Bicyclo(3.2.0)hept-2-ene-6-one-p-nitrophenylhydrazone
;
_cell_volume   4880.524
_exptl_crystal_density_diffrn 1.32
_diffrn_ambient_temperature ?
_diffrn_special_details
;
The study was carried out at room temperature,in the range 283-303K

;
#These two values have been output from a single CSD field.
_refine_ls_R_factor_gt 0.047
_refine_ls_wR_factor_gt 0.047
_symmetry_cell_setting monoclinic
_symmetry_space_group_name_H-M 'C 2/c'
_symmetry_Int_Tables_number 15
loop_
_symmetry_equiv_pos_site_id
_symmetry_equiv_pos_as_xyz
1 x,y,z
2 1/2+x,1/2+y,z
3 -x,y,1/2-z
4 1/2-x,1/2+y,1/2-z
5 -x,-y,-z
6 -1/2-x,-1/2-y,-z
7 x,-y,-1/2+z
8 -1/2+x,-1/2-y,-1/2+z
_cell_length_a 33.55(5)
_cell_length_b 4.72(5)
_cell_length_c 31.11(5)
_cell_angle_alpha 90
_cell_angle_beta 97.83(2)
_cell_angle_gamma 90
_cell_formula_units_Z 16
loop_
_atom_type_symbol
_atom_type_radius_bond
C 0.68
H 0.23
N 0.68
O 0.68
loop_
_atom_site_label
_atom_site_type_symbol
_atom_site_fract_x
_atom_site_fract_y
_atom_site_fract_z
C1 C 0.20730 -0.27120 0.17330
C2 C -0.11020 1.45070 0.20780
C3 C 0.22970 -0.06530 0.20450
C4 C -0.12540 1.28000 0.24340
C5 C 0.26450 0.01420 0.19250
C6 C -0.09640 1.17640 0.27140
C7 C 0.27340 -0.11920 0.15210
C8 C -0.05540 1.25450 0.26170
C9 C 0.23320 -0.26910 0.13520
C10 C -0.06380 1.40720 0.21790
C11 C 0.20140 -0.08180 0.11090
C12 C -0.06630 1.22390 0.17870
C13 C 0.17200 -0.13300 0.14310
C14 C -0.11030 1.28620 0.16410
C15 C 0.16840 0.42760 0.03280
C16 C -0.02450 0.73470 0.11340
C17 C 0.20170 0.46620 0.01050
C18 C 0.01490 0.70420 0.13520
C19 C 0.20010 0.65800 -0.02310
C20 C 0.04050 0.51650 0.11920
C21 C 0.16490 0.81530 -0.03350
C22 C 0.02810 0.36230 0.08210
C23 C 0.13150 0.78080 -0.01170
C24 C -0.01040 0.39680 0.05940
C25 C 0.13340 0.58910 0.02100
C26 C -0.03650 0.58560 0.07520
N1 N 0.20350 0.08130 0.07910
N2 N -0.03990 1.06530 0.16610
N3 N 0.16940 0.24370 0.06670
N4 N -0.05150 0.91270 0.12870
N5 N 0.16300 1.01990 -0.06820
N6 N 0.05570 0.16170 0.06640
O1 O 0.19310 1.06200 -0.08650
O2 O 0.08860 0.12080 0.08980
O3 O 0.13190 1.16180 -0.07870
O4 O 0.04610 0.04730 0.03150
H1 H 0.20070 -0.43780 0.19410
H2 H -0.12660 1.64560 0.20690
H3 H 0.22890 0.34640 0.01960
H4 H 0.02510 0.82710 0.16410
H5 H 0.22520 0.68360 -0.04110
H6 H 0.07050 0.48090 0.13520
H7 H 0.10540 0.90750 -0.02080
H8 H -0.01900 0.28160 0.02990
H9 H 0.10720 0.54960 0.03700
H10 H -0.06640 0.60580 0.05920
H11 H 0.22090 0.00760 0.23410
H12 H -0.15740 1.24160 0.24370
H13 H 0.28450 0.17800 0.20930
H14 H -0.10240 1.05400 0.29850
H15 H 0.28070 0.03320 0.12840
H16 H 0.29790 -0.27000 0.15850
H17 H -0.04070 1.39090 0.28640
H18 H -0.03730 1.06510 0.25930
H19 H 0.24230 -0.45640 0.11930
H20 H -0.04200 1.57370 0.22030
H21 H 0.15900 0.05640 0.15500
H22 H 0.14840 -0.28060 0.13160
H23 H -0.11640 1.42230 0.13520
H24 H -0.12970 1.10450 0.15950
H25 H 0.14360 0.22210 0.08320
H26 H -0.08170 0.93210 0.11170
#END
