
#######################################################################
#
#                 Cambridge Crystallographic Data Centre
#                                CCDC
#
#######################################################################
#
# If this CIF has been generated from an entry in the Cambridge
# Structural Database, then it will include bibliographic, chemical,
# crystal, experimental, refinement or atomic coordinate data resulting
# from the CCDC's data processing and validation procedures.
#
#######################################################################

data_CSD_CIF_BIBQAE
_audit_creation_date 1999-12-03
_audit_creation_method CSD-ConQuest-V1
_database_code_CSD BIBQAE
_chemical_formula_sum 'C18 H22 N2 O3'
_chemical_formula_moiety
;
C18 H22 N2 O3
;
_journal_coden_Cambridge 15
_journal_volume 76
_journal_year 1998
_journal_page_first 1082
_journal_name_full 'Can.J.Chem. '
loop_
_publ_author_name
"W.Kliegel"
"J.Metge"
"S.J.Rettig"
"J.Trotter"
_chemical_name_systematic
;
C-(4-Diethylamino-2-hydroxyphenyl)-N-(2-hydroxyphenylmethyl)nitrone
;
_chemical_name_common
;
5-Diethylamino-2-((2-hydroxyphenylmethyliminio)methyl)phenol N-oxide
;
_chemical_melting_point 416.15
_cell_volume   1677.483
_exptl_crystal_colour 'pale yellow'
_exptl_crystal_density_diffrn 1.245
_exptl_crystal_preparation 'abs.ethanol'
_diffrn_ambient_temperature ?
_diffrn_special_details
;
The study was carried out at room temperature,in the range 283-303K

;
#These two values have been output from a single CSD field.
_refine_ls_R_factor_gt 0.031
_refine_ls_wR_factor_gt 0.031
_symmetry_cell_setting monoclinic
_symmetry_space_group_name_H-M 'P 21/n'
_symmetry_Int_Tables_number 14
loop_
_symmetry_equiv_pos_site_id
_symmetry_equiv_pos_as_xyz
1 x,y,z
2 1/2-x,1/2+y,1/2-z
3 -x,-y,-z
4 -1/2+x,-1/2-y,-1/2+z
_cell_length_a 6.911(2)
_cell_length_b 10.663(2)
_cell_length_c 22.951(1)
_cell_angle_alpha 90
_cell_angle_beta 97.33(1)
_cell_angle_gamma 90
_cell_formula_units_Z 4
loop_
_atom_type_symbol
_atom_type_radius_bond
C 0.68
H 0.23
N 0.68
O 0.68
loop_
_atom_site_label
_atom_site_type_symbol
_atom_site_fract_x
_atom_site_fract_y
_atom_site_fract_z
O1 O 0.6883(2) 0.61576(10) 0.18943(5)
O2 O 0.5615(2) 0.5089(1) 0.09552(5)
O3 O 0.7123(2) 0.3572(1) 0.29706(5)
N1 N 0.5682(2) 0.5791(1) 0.22783(5)
N2 N -0.0276(2) 0.3268(1) 0.00847(5)
C1 C 0.4044(2) 0.5209(1) 0.21374(7)
C2 C 0.3085(2) 0.4779(1) 0.15854(6)
C3 C 0.3823(2) 0.4702(1) 0.10360(6)
C4 C 0.2706(2) 0.4195(1) 0.05530(6)
C5 C 0.0812(2) 0.3742(1) 0.05729(6)
C6 C 0.0069(2) 0.3815(1) 0.11185(7)
C7 C 0.1177(2) 0.4313(1) 0.15955(7)
C8 C 0.6379(2) 0.6134(2) 0.28919(7)
C9 C 0.8357(2) 0.5615(1) 0.31104(6)
C10 C 0.8661(2) 0.4327(1) 0.31571(6)
C11 C 1.0470(2) 0.3871(2) 0.33939(7)
C12 C 1.1955(3) 0.4682(2) 0.35928(8)
C13 C 1.1667(3) 0.5956(2) 0.35530(9)
C14 C 0.9880(3) 0.6415(2) 0.33072(8)
C15 C 0.0566(3) 0.3112(2) -0.04597(7)
C16 C 0.1908(4) 0.1996(2) -0.0466(1)
C17 C -0.2257(2) 0.2804(2) 0.01012(8)
C18 C -0.2347(4) 0.1447(2) 0.0293(1)
H1 H 0.622(2) 0.553(2) 0.1298(8)
H2 H 0.753(3) 0.275(2) 0.3048(9)
H3 H 0.338(2) 0.502(1) 0.2479(7)
H4 H 0.330(2) 0.420(1) 0.0206(6)
H5 H -0.125(2) 0.351(1) 0.1159(6)
H6 H 0.063(2) 0.434(1) 0.1974(6)
H7 H 0.538(2) 0.581(1) 0.3137(7)
H8 H 0.641(2) 0.710(2) 0.2910(7)
H9 H 1.068(2) 0.302(2) 0.3433(8)
H10 H 1.322(2) 0.436(2) 0.3757(7)
H11 H 1.271(3) 0.651(2) 0.3693(8)
H12 H 0.962(3) 0.733(2) 0.3269(8)
H13 H 0.130(2) 0.388(2) -0.0528(7)
H14 H -0.053(2) 0.304(1) -0.0775(7)
H15 H 0.118(3) 0.127(2) -0.0449(9)
H16 H 0.239(3) 0.189(2) -0.087(1)
H17 H 0.294(3) 0.200(2) -0.0108(9)
H18 H -0.295(2) 0.334(2) 0.0383(7)
H19 H -0.295(2) 0.290(2) -0.0317(7)
H20 H -0.162(3) 0.133(2) 0.0696(9)
H21 H -0.178(3) 0.088(2) 0.0029(10)
H22 H -0.375(3) 0.124(2) 0.0330(8)
#END
