
#######################################################################
#
#                 Cambridge Crystallographic Data Centre
#                                CCDC
#
#######################################################################
#
# If this CIF has been generated from an entry in the Cambridge
# Structural Database, then it will include bibliographic, chemical,
# crystal, experimental, refinement or atomic coordinate data resulting
# from the CCDC's data processing and validation procedures.
#
#######################################################################

data_CSD_CIF_BIBWAK
_audit_creation_date 1983-02-19
_audit_creation_method CSD-ConQuest-V1
_database_code_CSD BIBWAK
_chemical_formula_sum 'C21 H15 N1 O2'
_chemical_formula_moiety
;
C21 H15 N1 O2
;
_journal_coden_Cambridge 189
_journal_volume 11
_journal_year 1982
_journal_page_first 533
_journal_name_full 'Cryst.Struct.Commun. '
loop_
_publ_author_name
"S.Bruckner"
"L.Malpezzi"
_chemical_name_systematic
;
2-Hydroxyimino-3,3-diphenyl-indan-1-one
;
_cell_volume   3289.966
_exptl_crystal_density_diffrn 1.26
_exptl_special_details
;
z=8, not 4. H(O2) of molecule B removed for suspected coord. error

;
_diffrn_ambient_temperature ?
_diffrn_special_details
;
The study was carried out at room temperature,in the range 283-303K

;
#These two values have been output from a single CSD field.
_refine_ls_R_factor_gt 0.046
_refine_ls_wR_factor_gt 0.046
_symmetry_cell_setting monoclinic
_symmetry_space_group_name_H-M 'P 21/c'
_symmetry_Int_Tables_number 14
loop_
_symmetry_equiv_pos_site_id
_symmetry_equiv_pos_as_xyz
1 x,y,z
2 -x,1/2+y,1/2-z
3 -x,-y,-z
4 x,-1/2-y,-1/2+z
_cell_length_a 12.779(7)
_cell_length_b 10.069(7)
_cell_length_c 26.340(9)
_cell_angle_alpha 90
_cell_angle_beta 103.9(1)
_cell_angle_gamma 90
_cell_formula_units_Z 8
loop_
_atom_type_symbol
_atom_type_radius_bond
C 0.68
H 0.23
N 0.68
O 0.68
loop_
_atom_site_label
_atom_site_type_symbol
_atom_site_fract_x
_atom_site_fract_y
_atom_site_fract_z
O1 O -0.06990 0.56850 0.23840
O2 O 0.07100 0.89110 0.18340
N1 N 0.02550 0.78770 0.20480
C1 C -0.04360 0.56990 0.19700
C2 C 0.00370 0.68620 0.17500
C3 C 0.01630 0.65550 0.12010
C4 C -0.01190 0.50780 0.11700
C5 C -0.04770 0.46220 0.15930
C6 C -0.07960 0.33020 0.16320
C7 C -0.07330 0.24590 0.12330
C8 C -0.03640 0.28960 0.08070
C9 C -0.00540 0.41940 0.07690
C10 C -0.06660 0.73580 0.07980
C11 C -0.16570 0.68360 0.05620
C12 C -0.24250 0.75590 0.02000
C13 C -0.22030 0.88340 0.00630
C14 C -0.12120 0.93480 0.02880
C15 C -0.04430 0.86480 0.06560
C16 C 0.13260 0.66940 0.11370
C17 C 0.15090 0.67890 0.06390
C18 C 0.25450 0.67960 0.05690
C19 C 0.34050 0.67330 0.09890
C20 C 0.32560 0.66120 0.14910
C21 C 0.22000 0.66050 0.15590
H1 H -0.10800 0.29700 0.19600
H2 H -0.09700 0.14400 0.12500
H3 H -0.03200 0.22100 0.05000
H4 H 0.02300 0.45200 0.04400
H5 H -0.18500 0.58500 0.06600
H6 H -0.31900 0.71200 0.00300
H7 H -0.27900 0.94000 -0.02100
O3 O 0.44100 0.84570 0.48680
O4 O 0.50010 0.46360 0.43910
N2 N 0.48130 0.58830 0.45820
C22 C 0.43740 0.81470 0.44100
C23 C 0.46150 0.67990 0.42390
C24 C 0.45750 0.68110 0.36620
C25 C 0.41610 0.81990 0.35060
C26 C 0.40850 0.89550 0.39430
C27 C 0.37780 1.02920 0.38990
C28 C 0.35230 1.08150 0.34040
C29 C 0.35620 1.00920 0.29550
C30 C 0.38910 0.87670 0.30110
C31 C 0.57450 0.66430 0.36140
C32 C 0.64140 0.77350 0.36440
C33 C 0.74970 0.75830 0.36370
C34 C 0.79020 0.63320 0.35950
C35 C 0.72510 0.52440 0.35730
C36 C 0.61930 0.53880 0.35860
C37 C 0.37860 0.57760 0.33520
C38 C 0.38940 0.52890 0.28740
C39 C 0.31290 0.44070 0.25910
C40 C 0.22610 0.40160 0.27770
C41 C 0.21590 0.44890 0.32500
C42 C 0.29180 0.53670 0.35330
H8 H 0.37400 1.08700 0.42300
H9 H 0.32800 1.18300 0.33600
H10 H 0.33400 1.05500 0.25800
H11 H 0.39300 0.81900 0.26700
H12 H 0.61000 0.87100 0.36700
H13 H 0.80100 0.84300 0.36600
H14 H 0.87200 0.62100 0.35800
H15 H -0.10200 1.03200 0.01800
H16 H 0.03200 0.91000 0.08300
H17 H 0.08400 0.68600 0.03100
H18 H 0.26700 0.68500 0.01800
H19 H 0.42000 0.67800 0.09300
H20 H 0.39300 0.65200 0.18200
H21 H 0.20700 0.65300 0.19400
H22 H 0.08300 0.94700 0.21100
H23 H 0.75700 0.42700 0.35500
H24 H 0.57000 0.45200 0.35700
H25 H 0.45600 0.55900 0.27200
H26 H 0.32200 0.40300 0.22200
H27 H 0.16700 0.33500 0.25500
H28 H 0.14900 0.41800 0.34000
H29 H 0.28200 0.57300 0.39000
#END
