
#######################################################################
#
#                 Cambridge Crystallographic Data Centre
#                                CCDC
#
#######################################################################
#
# If this CIF has been generated from an entry in the Cambridge
# Structural Database, then it will include bibliographic, chemical,
# crystal, experimental, refinement or atomic coordinate data resulting
# from the CCDC's data processing and validation procedures.
#
#######################################################################

data_CSD_CIF_BICCIZ03
_audit_creation_date 2012-09-04
_audit_creation_method CSD-ConQuest-V1
_database_code_CSD BICCIZ03
_database_code_depnum_ccdc_archive 'CCDC 884371'
_chemical_formula_sum 'C17 H18 N2 O6'
_chemical_formula_moiety
;
C17 H18 N2 O6
;
_journal_coden_Cambridge 1147
_journal_volume 12
_journal_year 2012
_journal_page_first 2037
_journal_name_full 'Cryst.Growth Des. '
loop_
_publ_author_name
"E.Gunn"
"I.A.Guzei"
"Ting Cai"
"Lian Yu"
_chemical_name_systematic
;
Dimethyl 2,6-dimethyl-4-(2-nitrophenyl)-1,4-dihydropyridine-3,5-dicarboxylate
;
_chemical_name_common
;
Nifedipine; DrugBank: DB01115
;
_cell_volume   1664.105
_exptl_crystal_colour 'yellow'
_exptl_crystal_density_diffrn 1.382
_exptl_special_details
;
beta- polymorph

;
_exptl_crystal_description 'block'
_diffrn_ambient_temperature 296
#These two values have been output from a single CSD field.
_refine_ls_R_factor_gt 0.0547
_refine_ls_wR_factor_gt 0.0547
_symmetry_cell_setting triclinic
_symmetry_space_group_name_H-M 'P -1'
_symmetry_Int_Tables_number 2
loop_
_symmetry_equiv_pos_site_id
_symmetry_equiv_pos_as_xyz
1 x,y,z
2 -x,-y,-z
_cell_length_a 9.840(3)
_cell_length_b 13.807(4)
_cell_length_c 14.206(4)
_cell_angle_alpha 61.390(19)
_cell_angle_beta 79.76(2)
_cell_angle_gamma 81.99(2)
_cell_formula_units_Z 4
loop_
_atom_type_symbol
_atom_type_radius_bond
C 0.68
H 0.23
N 0.68
O 0.68
loop_
_atom_site_label
_atom_site_type_symbol
_atom_site_fract_x
_atom_site_fract_y
_atom_site_fract_z
O1 O -0.2431(2) 0.0912(2) 0.7559(2)
O2 O -0.16539(19) 0.21821(17) 0.59024(18)
O3 O 0.2950(2) 0.15748(17) 0.39378(17)
O4 O 0.3300(2) -0.01392(16) 0.42025(16)
O5 O 0.0269(2) 0.31009(19) 0.36014(17)
O6 O -0.0421(3) 0.44044(19) 0.4011(2)
N1 N 0.1051(3) -0.1139(2) 0.7274(2)
H1 H 0.119(3) -0.178(2) 0.775(2)
N2 N 0.0269(3) 0.3556(2) 0.4147(2)
C1 C -0.0054(3) -0.0496(2) 0.7431(2)
C2 C -0.0901(3) -0.1073(2) 0.8526(2)
H2 H -0.09780 -0.06340 0.88930
H3 H -0.04560 -0.17830 0.89460
H4 H -0.18080 -0.11690 0.84330
C3 C -0.0298(3) 0.0535(2) 0.6649(2)
C4 C -0.1547(3) 0.1182(3) 0.6788(3)
C5 C -0.2871(4) 0.2877(3) 0.5975(4)
H5 H -0.28350 0.35800 0.53360
H6 H -0.28990 0.29840 0.65980
H7 H -0.36850 0.25280 0.60400
C6 C 0.0718(3) 0.1057(2) 0.5624(2)
H8 H 0.01970 0.13930 0.50030
C7 C 0.1779(3) 0.0203(2) 0.5503(2)
C8 C 0.2720(3) 0.0617(2) 0.4490(2)
C9 C 0.4329(3) 0.0211(3) 0.3270(3)
H9 H 0.50860 0.04850 0.33980
H10 H 0.39300 0.07870 0.26540
H11 H 0.46610 -0.04030 0.31340
C10 C 0.1918(3) -0.0842(2) 0.6316(2)
C11 C 0.2937(3) -0.1761(2) 0.6331(2)
H12 H 0.37710 -0.14570 0.58690
H13 H 0.25480 -0.21800 0.60770
H14 H 0.31430 -0.22340 0.70550
C12 C 0.1422(3) 0.1968(2) 0.5632(2)
C13 C 0.2334(3) 0.1656(2) 0.6390(2)
H15 H 0.25160 0.09080 0.68410
C14 C 0.2971(3) 0.2418(3) 0.6491(3)
H16 H 0.35850 0.21810 0.69980
C15 C 0.2708(3) 0.3530(3) 0.5848(3)
H17 H 0.31430 0.40450 0.59170
C16 C 0.1804(3) 0.3874(2) 0.5107(3)
H18 H 0.15970 0.46250 0.46820
C17 C 0.1202(3) 0.3098(2) 0.4995(2)
O7 O 0.4261(3) 0.3636(2) 0.7682(2)
O8 O 0.4798(2) 0.25159(17) 0.93395(17)
O9 O 0.8153(3) 0.34326(17) 1.09890(18)
O10 O 0.7898(2) 0.51584(16) 1.06806(16)
O11 O 0.6380(3) 0.16394(18) 1.13366(18)
O12 O 0.6730(3) 0.03107(19) 1.0960(2)
N3 N 0.6427(3) 0.6031(2) 0.7780(2)
H19 H 0.651(3) 0.668(3) 0.728(2)
N4 N 0.6903(3) 0.1246(2) 1.0754(2)
C18 C 0.5702(3) 0.5310(2) 0.7694(2)
C19 C 0.5004(3) 0.5830(3) 0.6687(2)
H20 H 0.52580 0.54020 0.63060
H21 H 0.52900 0.65690 0.62320
H22 H 0.40190 0.58510 0.68810
C20 C 0.5658(3) 0.4255(2) 0.8476(2)
C21 C 0.4839(3) 0.3494(2) 0.8420(3)
C22 C 0.4097(4) 0.1668(3) 0.9344(3)
H23 H 0.46060 0.14430 0.88310
H24 H 0.31850 0.19500 0.91510
H25 H 0.40330 0.10450 1.00530
C23 C 0.6536(2) 0.38004(19) 0.9404(2)
H26 H 0.59570 0.33660 1.00830
C24 C 0.7082(3) 0.4727(2) 0.9478(2)
C25 C 0.7757(3) 0.4371(2) 1.0441(2)
C26 C 0.8674(3) 0.4878(3) 1.1556(3)
H27 H 0.96460 0.48800 1.13020
H28 H 0.84570 0.41570 1.21290
H29 H 0.84350 0.54120 1.18190
C27 C 0.7034(3) 0.5779(2) 0.8681(2)
C28 C 0.7576(3) 0.6766(2) 0.8623(2)
H30 H 0.77310 0.73200 0.78810
H31 H 0.84310 0.65560 0.89280
H32 H 0.69140 0.70580 0.90210
C29 C 0.7704(3) 0.3035(2) 0.9213(2)
C30 C 0.8695(3) 0.3518(2) 0.8329(2)
H33 H 0.86490 0.42840 0.79260
C31 C 0.9739(3) 0.2921(3) 0.8021(2)
H34 H 1.03890 0.32820 0.74260
C32 C 0.9820(3) 0.1787(3) 0.8595(3)
H35 H 1.05260 0.13740 0.83950
C33 C 0.8855(3) 0.1276(2) 0.9461(3)
H36 H 0.88870 0.05080 0.98430
C34 C 0.7837(3) 0.1890(2) 0.9773(2)
#END
