
#######################################################################
#
#                 Cambridge Crystallographic Data Centre
#                                CCDC
#
#######################################################################
#
# If this CIF has been generated from an entry in the Cambridge
# Structural Database, then it will include bibliographic, chemical,
# crystal, experimental, refinement or atomic coordinate data resulting
# from the CCDC's data processing and validation procedures.
#
#######################################################################

data_CSD_CIF_BICCIZ02
_audit_creation_date 2012-09-04
_audit_creation_method CSD-ConQuest-V1
_database_code_CSD BICCIZ02
_database_code_depnum_ccdc_archive 'CCDC 884370'
_chemical_formula_sum 'C17 H18 N2 O6'
_chemical_formula_moiety
;
C17 H18 N2 O6
;
_journal_coden_Cambridge 1147
_journal_volume 12
_journal_year 2012
_journal_page_first 2037
_journal_name_full 'Cryst.Growth Des. '
loop_
_publ_author_name
"E.Gunn"
"I.A.Guzei"
"Ting Cai"
"Lian Yu"
_chemical_name_systematic
;
Dimethyl 2,6-dimethyl-4-(2-nitrophenyl)-1,4-dihydropyridine-3,5-dicarboxylate
;
_chemical_name_common
;
Nifedipine; DrugBank: DB01115
;
_cell_volume   1605.893
_exptl_crystal_colour 'yellow'
_exptl_crystal_density_diffrn 1.432
_exptl_special_details
;
beta- polymorph

;
_exptl_crystal_description 'block'
_diffrn_ambient_temperature 100
#These two values have been output from a single CSD field.
_refine_ls_R_factor_gt 0.0439
_refine_ls_wR_factor_gt 0.0439
_symmetry_cell_setting triclinic
_symmetry_space_group_name_H-M 'P -1'
_symmetry_Int_Tables_number 2
loop_
_symmetry_equiv_pos_site_id
_symmetry_equiv_pos_as_xyz
1 x,y,z
2 -x,-y,-z
_cell_length_a 9.6661(6)
_cell_length_b 13.7006(8)
_cell_length_c 14.1184(9)
_cell_angle_alpha 61.028(3)
_cell_angle_beta 79.631(4)
_cell_angle_gamma 81.904(4)
_cell_formula_units_Z 4
loop_
_atom_type_symbol
_atom_type_radius_bond
C 0.68
H 0.23
N 0.68
O 0.68
loop_
_atom_site_label
_atom_site_type_symbol
_atom_site_fract_x
_atom_site_fract_y
_atom_site_fract_z
O1 O -0.25505(15) 0.09695(12) 0.75762(12)
O2 O -0.17006(14) 0.22315(11) 0.58909(11)
O3 O 0.30413(15) 0.15234(11) 0.39957(11)
O4 O 0.32964(14) -0.02300(11) 0.42578(11)
O5 O 0.02774(15) 0.30798(12) 0.35773(11)
O6 O -0.04516(15) 0.44336(11) 0.39555(12)
N1 N 0.09697(17) -0.11887(14) 0.73576(13)
H1 H 0.110(2) -0.190(2) 0.7896(19)
N2 N 0.02668(17) 0.35633(13) 0.41156(13)
C1 C -0.0148(2) -0.05106(16) 0.74945(16)
C2 C -0.1033(2) -0.10502(16) 0.85874(16)
H2 H -0.19690 -0.11570 0.84900
H3 H -0.11270 -0.05690 0.89330
H4 H -0.05800 -0.17760 0.90520
C3 C -0.0366(2) 0.05388(15) 0.66847(15)
C4 C -0.1634(2) 0.12220(16) 0.68018(17)
C5 C -0.2928(2) 0.29480(19) 0.5935(2)
H5 H -0.28770 0.36650 0.52630
H6 H -0.29640 0.30750 0.65650
H7 H -0.37780 0.25910 0.60060
C6 C 0.0683(2) 0.10468(15) 0.56480(15)
H8 H 0.01510 0.13880 0.50030
C7 C 0.1754(2) 0.01554(15) 0.55622(15)
C8 C 0.2739(2) 0.05547(15) 0.45448(16)
C9 C 0.4358(2) 0.01282(17) 0.33154(16)
H9 H 0.39590 0.07470 0.26850
H10 H 0.46760 -0.04970 0.31590
H11 H 0.51590 0.03780 0.34620
C10 C 0.1866(2) -0.08925(15) 0.63932(15)
C11 C 0.2884(2) -0.18402(16) 0.64221(16)
H12 H 0.30200 -0.23680 0.71800
H13 H 0.37900 -0.15460 0.60040
H14 H 0.25060 -0.22240 0.61010
C12 C 0.14173(19) 0.19719(15) 0.56418(15)
C13 C 0.23364(19) 0.16663(16) 0.64122(15)
H15 H 0.25170 0.08950 0.68900
C14 C 0.2993(2) 0.24426(17) 0.65065(16)
H16 H 0.36250 0.22010 0.70330
C15 C 0.2729(2) 0.35754(17) 0.58328(16)
H17 H 0.31750 0.41130 0.58960
C16 C 0.1814(2) 0.39136(16) 0.50714(16)
H18 H 0.16080 0.46870 0.46160
C17 C 0.1198(2) 0.31224(15) 0.49732(15)
O7 O 0.42200(15) 0.36294(12) 0.76654(12)
O8 O 0.47927(14) 0.24937(11) 0.93490(11)
O9 O 0.83353(16) 0.35001(11) 1.09086(11)
O10 O 0.78536(15) 0.52432(11) 1.06711(11)
O11 O 0.63732(15) 0.16948(11) 1.13954(11)
O12 O 0.66626(16) 0.02982(11) 1.10562(12)
N3 N 0.64074(18) 0.60924(14) 0.77277(14)
H19 H 0.647(2) 0.6755(19) 0.7181(19)
N4 N 0.68757(17) 0.12597(13) 1.08202(13)
C18 C 0.56695(19) 0.53472(16) 0.76564(15)
C19 C 0.4966(2) 0.58356(17) 0.66406(16)
H20 H 0.39410 0.58280 0.68400
H21 H 0.52690 0.53900 0.62590
H22 H 0.52290 0.66070 0.61610
C20 C 0.56273(19) 0.42793(15) 0.84649(15)
C21 C 0.4815(2) 0.34819(16) 0.84153(16)
C22 C 0.4155(2) 0.16116(17) 0.93335(18)
H23 H 0.47050 0.14260 0.87810
H24 H 0.31900 0.18610 0.91560
H25 H 0.41350 0.09490 1.00530
C23 C 0.65125(19) 0.38315(15) 0.93986(15)
H26 H 0.59100 0.33930 1.01030
C24 C 0.70886(19) 0.47849(15) 0.94442(15)
C25 C 0.7811(2) 0.44413(15) 1.04000(15)
C26 C 0.8663(2) 0.49713(18) 1.15437(17)
H27 H 0.96700 0.49350 1.12840
H28 H 0.84080 0.42460 1.21610
H29 H 0.84600 0.55490 1.17780
C27 C 0.7039(2) 0.58416(16) 0.86291(15)
C28 C 0.7612(2) 0.68413(15) 0.85602(16)
H30 H 0.77550 0.74190 0.77960
H31 H 0.85140 0.66210 0.88570
H32 H 0.69420 0.71360 0.89830
C29 C 0.7700(2) 0.30479(15) 0.92166(15)
C30 C 0.8691(2) 0.35180(16) 0.82970(15)
H33 H 0.86390 0.43070 0.78550
C31 C 0.9748(2) 0.28914(17) 0.79954(17)
H34 H 1.04180 0.32510 0.73710
C32 C 0.9825(2) 0.17380(17) 0.86077(17)
H35 H 1.05430 0.12980 0.84060
C33 C 0.8848(2) 0.12368(16) 0.95120(16)
H36 H 0.88730 0.04450 0.99280
C34 C 0.7830(2) 0.18828(15) 0.98156(15)
#END
