
#######################################################################
#
#                 Cambridge Crystallographic Data Centre
#                                CCDC
#
#######################################################################
#
# If this CIF has been generated from an entry in the Cambridge
# Structural Database, then it will include bibliographic, chemical,
# crystal, experimental, refinement or atomic coordinate data resulting
# from the CCDC's data processing and validation procedures.
#
#######################################################################

data_CSD_CIF_BICNUW
_audit_creation_date 1983-02-19
_audit_creation_method CSD-ConQuest-V1
_database_code_CSD BICNUW
_database_code_depnum_ccdc_archive 'CCDC 1110229'
_chemical_formula_sum 'C11 H10 N2 O6'
_chemical_formula_moiety
;
C11 H10 N2 O6
;
_journal_coeditor_code "IUCr A21374"
_journal_coden_Cambridge 107
_journal_volume 38
_journal_year 1982
_journal_page_first 2057
_journal_name_full 'Acta Crystallogr.,Sect.B:Struct.Crystallogr.Cryst.Chem. '
loop_
_publ_author_name
"J.D.Wallis"
"D.J.Watkin"
_chemical_name_systematic
;
Ethyl (Z)-2-nitro-3-(4-nitrophenyl)-acrylate
;
_cell_volume    610.349
_exptl_crystal_density_diffrn 1.45
_diffrn_ambient_temperature ?
_diffrn_special_details
;
The study was carried out at room temperature,in the range 283-303K

;
#These two values have been output from a single CSD field.
_refine_ls_R_factor_gt 0.049
_refine_ls_wR_factor_gt 0.049
_symmetry_cell_setting triclinic
_symmetry_space_group_name_H-M 'P -1'
_symmetry_Int_Tables_number 2
loop_
_symmetry_equiv_pos_site_id
_symmetry_equiv_pos_as_xyz
1 x,y,z
2 -x,-y,-z
_cell_length_a 7.803(4)
_cell_length_b 7.860(5)
_cell_length_c 10.961(5)
_cell_angle_alpha 77.19(4)
_cell_angle_beta 82.16(4)
_cell_angle_gamma 68.89(5)
_cell_formula_units_Z 2
loop_
_atom_type_symbol
_atom_type_radius_bond
C 0.68
H 0.23
N 0.68
O 0.68
loop_
_atom_site_label
_atom_site_type_symbol
_atom_site_fract_x
_atom_site_fract_y
_atom_site_fract_z
O1 O 1.15830 0.04540 0.41260
O2 O 1.35330 0.02980 0.25310
O3 O 0.72050 0.56870 -0.21090
O4 O 0.82680 0.32190 -0.29270
O5 O 0.30190 0.30990 -0.14970
O6 O 0.42380 0.45190 -0.32100
N1 N 1.19660 0.06070 0.30060
N2 N 0.72260 0.41630 -0.22110
C1 C 0.76930 0.21860 0.05600
C2 C 0.93840 0.24080 0.01250
C3 C 1.07640 0.19080 0.09270
C4 C 1.04540 0.12100 0.21690
C5 C 0.88020 0.09920 0.26480
C6 C 0.74340 0.14720 0.18320
C7 C 0.61590 0.25955 -0.02260
C8 C 0.58890 0.34140 -0.14130
C9 C 0.42190 0.36460 -0.20360
C10 C 0.26700 0.48100 -0.39340
C11 C 0.29950 0.31650 -0.44940
H1 H 0.95870 0.29310 -0.07880
H2 H 1.20120 0.20010 0.05990
H3 H 0.85860 0.05270 0.35700
H4 H 0.62390 0.12740 0.21540
H5 H 0.51280 0.21740 0.02180
H6 H 0.24890 0.59650 -0.46140
H7 H 0.14950 0.50590 -0.33630
H8 H 0.19210 0.33390 -0.49950
H9 H 0.41340 0.29370 -0.50690
H10 H 0.31390 0.20300 -0.38180
#END
