
#######################################################################
#
#                 Cambridge Crystallographic Data Centre
#                                CCDC
#
#######################################################################
#
# If this CIF has been generated from an entry in the Cambridge
# Structural Database, then it will include bibliographic, chemical,
# crystal, experimental, refinement or atomic coordinate data resulting
# from the CCDC's data processing and validation procedures.
#
#######################################################################

data_CSD_CIF_BICTUF
_audit_creation_date 2018-07-10
_audit_creation_method CSD-ConQuest-V1
_database_code_CSD BICTUF
_database_code_depnum_ccdc_archive 'CCDC 1525169'
_chemical_formula_sum 'C39 H44 N6 O5'
_chemical_formula_moiety
;
C39 H44 N6 O5
;
_journal_coden_Cambridge 35
_journal_volume 83
_journal_year 2017
_journal_page_first 6936
_journal_name_full 'J.Org.Chem. '
loop_
_publ_author_name
"J.Park"
"A.Jean"
"D.Y.-K Chen"
_chemical_name_systematic
;
N,N-diisopropyl-N'-(2-(6-methyl-1'-(4-nitrobenzyl)-2'-oxospiro[indolo[2,3-b]qu
inoline-11,3'-pyrrolidin]-10b(6H)-yl)ethyl)-N'-(prop-1-en-2-yl)ethanediamide 
unknown solvate
;
_cell_volume   2086.321
_exptl_crystal_colour 'dark yellow'
_exptl_crystal_density_diffrn 1.077
_exptl_crystal_description 'plate'
_diffrn_ambient_temperature 305.3
_refine_special_details
;
The MASK/OLEX2 program has been used to model some disorder.

;
#These two values have been output from a single CSD field.
_refine_ls_R_factor_gt 0.0627
_refine_ls_wR_factor_gt 0.0627
_symmetry_cell_setting triclinic
_symmetry_space_group_name_H-M 'P -1'
_symmetry_Int_Tables_number 2
loop_
_symmetry_equiv_pos_site_id
_symmetry_equiv_pos_as_xyz
1 x,y,z
2 -x,-y,-z
_cell_length_a 11.4742(10)
_cell_length_b 13.6344(14)
_cell_length_c 14.6597(15)
_cell_angle_alpha 76.458(4)
_cell_angle_beta 72.862(4)
_cell_angle_gamma 75.076(4)
_cell_formula_units_Z 2
loop_
_atom_type_symbol
_atom_type_radius_bond
C 0.68
H 0.23
N 0.68
O 0.68
loop_
_atom_site_label
_atom_site_type_symbol
_atom_site_fract_x
_atom_site_fract_y
_atom_site_fract_z
O1 O 1.20598(18) 0.5832(2) 0.47427(16)
O2 O 1.17159(19) 0.4598(2) 0.59190(18)
O3 O 0.45916(15) 0.65221(13) 0.81000(12)
O4 O 0.33317(17) 0.19404(15) 0.67511(15)
O5 O 0.03756(16) 0.21731(12) 0.71933(13)
N1 N 0.36799(17) 0.43519(15) 0.95404(13)
N2 N 0.20229(17) 0.55192(16) 0.90322(14)
N3 N 0.53685(16) 0.66793(15) 0.64573(14)
N4 N 1.1367(2) 0.5400(2) 0.54160(17)
N5 N 0.21793(18) 0.24413(15) 0.81664(14)
N6 N 0.14534(19) 0.05184(14) 0.74472(17)
C1 C 0.3076(2) 0.49123(18) 0.88580(16)
C2 C 0.1657(2) 0.61480(18) 0.82022(18)
C3 C 0.0414(2) 0.6660(2) 0.8338(2)
H1 H -0.01410 0.65450 0.89400
C4 C 0.0003(3) 0.7342(2) 0.7577(3)
H2 H -0.08270 0.76800 0.76700
C5 C 0.0817(3) 0.7516(2) 0.6691(2)
H3 H 0.05470 0.79840 0.61850
C6 C 0.2053(2) 0.69860(17) 0.65499(19)
H4 H 0.25990 0.71010 0.59440
C7 C 0.24841(19) 0.62948(17) 0.72897(16)
C8 C 0.38390(19) 0.56838(16) 0.71328(15)
C9 C 0.38565(18) 0.46725(16) 0.78567(15)
C10 C 0.50795(19) 0.40879(16) 0.80987(16)
C11 C 0.6230(2) 0.37153(18) 0.75248(19)
H5 H 0.63690 0.38310 0.68540
C12 C 0.7179(3) 0.3163(2) 0.7969(2)
H6 H 0.79660 0.29260 0.75920
C13 C 0.6958(3) 0.2968(2) 0.8962(2)
H7 H 0.75990 0.25850 0.92440
C14 C 0.5824(3) 0.3319(2) 0.9549(2)
H8 H 0.56850 0.31790 1.02200
C15 C 0.4897(2) 0.38874(18) 0.91046(16)
C16 C 0.46360(19) 0.63338(16) 0.73222(17)
C17 C 0.5236(2) 0.6366(2) 0.56290(18)
H9 H 0.60410 0.60920 0.52310
H10 H 0.48060 0.69380 0.52370
C18 C 0.4467(2) 0.55360(18) 0.60744(15)
H11 H 0.49980 0.48570 0.60530
H12 H 0.38440 0.56090 0.57240
C19 C 0.6220(2) 0.73513(19) 0.6357(2)
H13 H 0.60440 0.75990 0.69620
H14 H 0.60760 0.79440 0.58580
C20 C 0.7562(2) 0.68147(18) 0.60996(17)
C21 C 0.8369(2) 0.7198(2) 0.52707(19)
H15 H 0.80730 0.77810 0.48610
C22 C 0.9616(2) 0.6727(2) 0.50410(19)
H16 H 1.01610 0.69900 0.44830
C23 C 1.0027(2) 0.58752(19) 0.56463(16)
C24 C 0.9247(2) 0.5450(2) 0.64697(18)
H17 H 0.95440 0.48570 0.68680
C25 C 0.8004(2) 0.5938(2) 0.66839(19)
H18 H 0.74580 0.56660 0.72350
C26 C 0.3169(3) 0.4340(3) 1.05764(18)
H19 H 0.31290 0.50010 1.07230
H20 H 0.36950 0.38190 1.09250
H21 H 0.23480 0.41950 1.07640
C27 C 0.3217(2) 0.39560(17) 0.75615(16)
H22 H 0.23810 0.43200 0.75270
H23 H 0.36740 0.38170 0.69180
C28 C 0.3139(2) 0.29412(19) 0.82427(19)
H24 H 0.39430 0.24770 0.81080
H25 H 0.29600 0.30570 0.89030
C29 C 0.2382(2) 0.19739(17) 0.74112(18)
C30 C 0.1297(2) 0.15505(17) 0.73550(17)
C31 C 0.1038(3) 0.2511(2) 0.8920(2)
C32 C 0.0800(4) 0.1719(3) 0.9549(3)
H26 H 0.13650 0.10940 0.95220
H27 H 0.00630 0.17680 1.00340
C33 C 0.0193(3) 0.3540(3) 0.8897(3)
H28 H -0.05330 0.35090 0.94270
H29 H -0.00500 0.37390 0.82970
H30 H 0.06180 0.40360 0.89540
C34 C -0.0719(3) 0.0272(3) 0.8089(3)
H31 H -0.10710 0.09960 0.80360
H32 H -0.05370 0.00150 0.87110
H33 H -0.13040 -0.00830 0.80220
C35 C 0.0471(3) 0.0094(2) 0.7297(3)
H34 H 0.07720 -0.06540 0.73680
C36 C 0.0267(4) 0.0444(3) 0.6288(3)
H35 H -0.01010 0.11660 0.62000
H36 H -0.02790 0.00630 0.62030
H37 H 0.10510 0.03250 0.58190
C37 C 0.2283(4) -0.1036(3) 0.8513(4)
H38 H 0.16800 -0.13610 0.84320
H39 H 0.19530 -0.07390 0.90930
H40 H 0.30310 -0.15380 0.85630
C38 C 0.2576(3) -0.0195(2) 0.7647(3)
H41 H 0.30760 0.02000 0.77990
C39 C 0.3341(4) -0.0638(3) 0.6740(4)
H42 H 0.40630 -0.11270 0.68770
H43 H 0.35980 -0.00910 0.62310
H44 H 0.28450 -0.09760 0.65380
#END
