
#######################################################################
#
#                 Cambridge Crystallographic Data Centre
#                                CCDC
#
#######################################################################
#
# If this CIF has been generated from an entry in the Cambridge
# Structural Database, then it will include bibliographic, chemical,
# crystal, experimental, refinement or atomic coordinate data resulting
# from the CCDC's data processing and validation procedures.
#
#######################################################################

data_CSD_CIF_BIDJUT
_audit_creation_date 1983-02-19
_audit_creation_method CSD-ConQuest-V1
_database_code_CSD BIDJUT
_chemical_formula_sum 'C7 H10 N2 O2'
_chemical_formula_moiety
;
C7 H10 N2 O2
;
_journal_coeditor_code "IUCr A21407"
_journal_coden_Cambridge 107
_journal_volume 38
_journal_year 1982
_journal_page_first 2176
_journal_name_full 'Acta Crystallogr.,Sect.B:Struct.Crystallogr.Cryst.Chem. '
loop_
_publ_author_name
"K.Prout"
"J.Fail"
"S.Hernandez-Cassou"
"F.M.Miao"
_chemical_name_systematic
;
2-Nitroso-2-azabicyclo(2.2.2)octan-3-one
;
_cell_volume    729.455
_exptl_crystal_density_diffrn 1.4
_diffrn_ambient_temperature ?
_diffrn_special_details
;
The study was carried out at room temperature,in the range 283-303K

;
#These two values have been output from a single CSD field.
_refine_ls_R_factor_gt 0.064
_refine_ls_wR_factor_gt 0.064
_symmetry_cell_setting orthorhombic
_symmetry_space_group_name_H-M 'P n a m'
_symmetry_Int_Tables_number 62
loop_
_symmetry_equiv_pos_site_id
_symmetry_equiv_pos_as_xyz
1 x,y,z
2 1/2-x,1/2+y,1/2+z
3 1/2+x,1/2-y,z
4 -x,-y,1/2+z
5 -x,-y,-z
6 -1/2+x,-1/2-y,-1/2-z
7 -1/2-x,-1/2+y,-z
8 x,y,-1/2-z
_cell_length_a 15.634(2)
_cell_length_b 6.966(2)
_cell_length_c 6.698(6)
_cell_angle_alpha 90
_cell_angle_beta 90
_cell_angle_gamma 90
_cell_formula_units_Z 4
loop_
_atom_type_symbol
_atom_type_radius_bond
C 0.68
H 0.23
N 0.68
O 0.68
loop_
_atom_site_label
_atom_site_type_symbol
_atom_site_fract_x
_atom_site_fract_y
_atom_site_fract_z
C1 C 0.40490 0.01480 0.25000
C2 C 0.31740 -0.07640 0.25000
C3 C 0.31070 -0.20620 0.06370
C4 C 0.38350 -0.35350 0.06190
C5 C 0.43730 -0.33020 0.25000
N1 N 0.46780 -0.12840 0.25000
N2 N 0.55080 -0.07370 0.25000
O1 O 0.42130 0.18330 0.25000
O2 O 0.60100 -0.20900 0.25000
H1 H 0.27190 0.03220 0.25000
H2 H 0.25440 -0.27220 0.06700
H3 H 0.31360 -0.13030 -0.05140
H4 H 0.35910 -0.48560 0.05740
H5 H 0.42030 -0.33070 -0.05550
H6 H 0.48840 -0.41970 0.25000
C3G C 0.31070 -0.20620 0.43630
C4G C 0.38350 -0.35350 0.43810
H2G H 0.25440 -0.27220 0.43300
H3G H 0.31360 -0.13030 0.55140
H4G H 0.35910 -0.48560 0.44260
H5G H 0.42030 -0.33070 0.55550
#END
