
#######################################################################
#
#                 Cambridge Crystallographic Data Centre
#                                CCDC
#
#######################################################################
#
# If this CIF has been generated from an entry in the Cambridge
# Structural Database, then it will include bibliographic, chemical,
# crystal, experimental, refinement or atomic coordinate data resulting
# from the CCDC's data processing and validation procedures.
#
#######################################################################

data_CSD_CIF_BIDKEE
_audit_creation_date 1999-12-03
_audit_creation_method CSD-ConQuest-V1
_database_code_CSD BIDKEE
_chemical_formula_sum 'C35 H27 N1 O3'
_chemical_formula_moiety
;
C35 H27 N1 O3
;
_journal_coden_Cambridge 35
_journal_volume 64
_journal_year 1999
_journal_page_first 338
_journal_name_full 'J.Org.Chem. '
loop_
_publ_author_name
"N.Murase"
"Y.Hoshino"
"M.Oishi"
"H.Yamamoto"
_chemical_name_systematic
;
2'-Methoxy-(2-(N-diphenylmethyl-N-hydroxy)amido)-1,1'-binaphthyl
;
_cell_volume   1364.409
_exptl_crystal_colour 'colorless'
_exptl_crystal_density_diffrn 1.24
_exptl_crystal_description 'plate'
_diffrn_ambient_temperature ?
_diffrn_special_details
;
The study was carried out at room temperature,in the range 283-303K

;
#These two values have been output from a single CSD field.
_refine_ls_R_factor_gt 0.036
_refine_ls_wR_factor_gt 0.036
_symmetry_cell_setting monoclinic
_symmetry_space_group_name_H-M 'P 21'
_symmetry_Int_Tables_number 4
loop_
_symmetry_equiv_pos_site_id
_symmetry_equiv_pos_as_xyz
1 x,y,z
2 -x,1/2+y,-z
_cell_length_a 12.4420(13)
_cell_length_b 8.2220(4)
_cell_length_c 13.6680(14)
_cell_angle_alpha 90
_cell_angle_beta 102.624(4)
_cell_angle_gamma 90
_cell_formula_units_Z 2
loop_
_atom_type_symbol
_atom_type_radius_bond
C 0.68
H 0.23
N 0.68
O 0.68
loop_
_atom_site_label
_atom_site_type_symbol
_atom_site_fract_x
_atom_site_fract_y
_atom_site_fract_z
O1 O 0.89530(7) 0.48000 0.03780(7)
O2 O 0.71340(7) 0.1762(2) 0.08160(7)
O3 O 0.82570(9) 0.6592(2) 0.19330(8)
N1 N 0.80070(8) 0.3804(2) 0.02070(8)
C1 C 0.87060(9) 0.3510(2) 0.27240(9)
C2 C 0.6790(1) 0.5826(2) -0.08230(9)
C3 C 0.7646(1) 0.4383(2) 0.27600(9)
C4 C 0.8829(1) 0.2724(2) 0.18580(9)
C5 C 0.6830(1) 0.3637(2) 0.32070(9)
C6 C 0.7918(1) 0.2707(2) 0.09250(9)
C7 C 0.9599(1) 0.3477(2) 0.35950(9)
C8 C 0.7475(1) 0.7090(2) -0.0998(1)
C9 C 0.9824(1) 0.1884(2) 0.1823(1)
C10 C 0.7592(1) 0.3486(2) -0.16600(9)
C11 C 1.06010(9) 0.2663(2) 0.35490(9)
C12 C 0.9538(1) 0.4232(1) 0.4517(1)
C13 C 0.5734(2) 0.6115(3) 0.2904(1)
C14 C 0.6934(1) 0.2021(2) 0.3571(1)
C15 C 1.0681(1) 0.1858(2) 0.2651(1)
C16 C 1.1493(1) 0.2679(2) 0.4406(1)
C17 C 0.5722(1) 0.6216(2) -0.0748(1)
C18 C 0.7189(1) 0.4069(2) -0.07340(9)
C19 C 0.7455(1) 0.5942(2) 0.2378(1)
C20 C 0.6963(1) 0.3818(2) -0.2615(1)
C21 C 0.5867(1) 0.4523(2) 0.3290(1)
C22 C 0.6489(2) 0.6821(2) 0.2452(1)
C23 C 1.0412(1) 0.4198(2) 0.5339(1)
C24 C 0.7261(2) 0.3208(3) -0.3467(1)
C25 C 0.6052(2) 0.9050(3) -0.0976(1)
C26 C 0.7103(2) 0.8696(2) -0.1062(1)
C27 C 0.8539(1) 0.2538(2) -0.1582(1)
C28 C 1.1402(1) 0.3419(2) 0.5281(1)
C29 C 0.5367(2) 0.7837(3) -0.0830(1)
C30 C 0.5057(1) 0.3721(3) 0.3728(1)
C31 C 0.6137(1) 0.1310(3) 0.3992(1)
C32 C 0.5184(2) 0.2168(4) 0.4062(2)
C33 C 0.8827(2) 0.1923(3) -0.2439(2)
C34 C 0.8193(2) 0.2254(3) -0.3382(2)
C35 C 0.8185(3) 0.8303(2) 0.1678(2)
H1 H 0.653(1) 0.331(2) -0.064(1)
H2 H 0.630(1) 0.449(2) -0.2700(9)
H3 H 0.887(1) 0.465(2) 0.4620(9)
H4 H 0.764(1) 0.139(2) 0.351(1)
H5 H 0.828(1) 0.674(2) -0.108(1)
H6 H 0.991(1) 0.139(2) 0.116(1)
H7 H 1.028(1) 0.470(2) 0.601(1)
H8 H 1.206(1) 0.337(2) 0.592(1)
H9 H 0.805(1) 0.888(2) 0.234(2)
H10 H 0.844(1) 0.181(3) -0.409(2)
H11 H 0.437(1) 0.430(2) 0.378(1)
H12 H 1.214(1) 0.203(2) 0.433(1)
H13 H 0.888(2) 0.852(2) 0.142(1)
H14 H 0.523(1) 0.534(2) -0.069(1)
H15 H 0.676(1) 0.332(2) -0.415(1)
H16 H 1.140(1) 0.124(2) 0.264(1)
H17 H 0.960(2) 0.120(3) -0.229(1)
H18 H 0.497(1) 0.684(2) 0.295(1)
H19 H 0.899(1) 0.229(2) -0.086(1)
H20 H 0.648(1) 0.789(3) 0.210(1)
H21 H 0.628(1) 0.012(3) 0.429(1)
H22 H 0.454(2) 0.168(3) 0.437(1)
H23 H 0.576(1) 1.039(3) -0.106(1)
H24 H 0.763(2) 0.951(3) -0.120(1)
H25 H 0.756(2) 0.848(3) 0.109(2)
H26 H 0.462(1) 0.807(2) -0.079(1)
H27 H 0.878(2) 0.559(3) 0.092(2)
#END
