
#######################################################################
#
#                 Cambridge Crystallographic Data Centre
#                                CCDC
#
#######################################################################
#
# If this CIF has been generated from an entry in the Cambridge
# Structural Database, then it will include bibliographic, chemical,
# crystal, experimental, refinement or atomic coordinate data resulting
# from the CCDC's data processing and validation procedures.
#
#######################################################################

data_CSD_CIF_BIDTOY
_audit_creation_date 2005-01-20
_audit_creation_method CSD-ConQuest-V1
_database_code_CSD BIDTOY
_database_code_depnum_ccdc_archive 'CCDC 251097'
_database_code_depnum_ccdc_journal 1267/1244
_chemical_formula_sum 'C11 H11 N1 O4'
_chemical_formula_moiety
;
C11 H11 N1 O4
;
_journal_coden_Cambridge 1267
_journal_volume 219
_journal_year 2004
_journal_page_first 145
_journal_name_full 'Z.Kristallogr.-New Cryst.Struct. '
loop_
_publ_author_name
"M.Ramos Silva"
"A.Matos Beja"
"J.A.Paixao"
"S.H.Lopes"
"A.M.T.D.P.V.Cabral"
"A.M.d'A.Rocha Gonsalves"
"A.J.F.N.Sobral"
_chemical_name_systematic
;
2-(Hydroxyimino)-3-oxo-3-phenylpropionic acid ethyl ester
;
_cell_volume   2202.375
_exptl_crystal_colour 'colorless'
_exptl_crystal_density_diffrn 1.334
_exptl_crystal_description 'prism'
_diffrn_ambient_temperature 293
#These two values have been output from a single CSD field.
_refine_ls_R_factor_gt 0.0824
_refine_ls_wR_factor_gt 0.0824
_symmetry_cell_setting orthorhombic
_symmetry_space_group_name_H-M 'P n a 21'
_symmetry_Int_Tables_number 33
loop_
_symmetry_equiv_pos_site_id
_symmetry_equiv_pos_as_xyz
1 x,y,z
2 -x,-y,1/2+z
3 1/2-x,1/2+y,1/2+z
4 1/2+x,1/2-y,z
_cell_length_a 18.370(4)
_cell_length_b 4.8704(13)
_cell_length_c 24.616(2)
_cell_angle_alpha 90
_cell_angle_beta 90
_cell_angle_gamma 90
_cell_formula_units_Z 8
loop_
_atom_type_symbol
_atom_type_radius_bond
C 0.68
H 0.23
N 0.68
O 0.68
loop_
_atom_site_label
_atom_site_type_symbol
_atom_site_fract_x
_atom_site_fract_y
_atom_site_fract_z
O1 O 0.33557(19) 0.8713(9) 0.38308(16)
O2 O 0.2682(2) 0.7442(9) 0.45520(17)
O3 O 0.1202(3) 1.2995(13) 0.4020(2)
H1 H 0.10300 1.39630 0.42600
O4 O 0.2685(2) 1.3711(9) 0.32664(17)
N1 N 0.1702(3) 1.1259(12) 0.42385(19)
C1 C 0.4575(3) 0.728(2) 0.3672(3)
H2 H 0.44610 0.67140 0.33070
H3 H 0.49680 0.61830 0.38090
H4 H 0.47150 0.91770 0.36710
C2 C 0.3932(3) 0.6913(16) 0.4019(3)
H5 H 0.37710 0.50180 0.40050
H6 H 0.40540 0.73490 0.43940
C3 C 0.2759(3) 0.8744(11) 0.4128(2)
C4 C 0.2200(3) 1.0593(11) 0.3909(2)
C5 C 0.2279(3) 1.1828(14) 0.3327(2)
C6 C 0.1822(3) 1.0653(11) 0.2902(2)
C7 C 0.1338(3) 0.8507(13) 0.2996(3)
H7 H 0.13000 0.77330 0.33400
C8 C 0.0915(3) 0.7534(16) 0.2574(3)
H8 H 0.05890 0.61120 0.26390
C9 C 0.0965(4) 0.8605(17) 0.2066(3)
H9 H 0.06810 0.79010 0.17860
C10 C 0.1428(4) 1.0701(16) 0.1970(3)
H10 H 0.14560 1.14520 0.16230
C11 C 0.1859(4) 1.1740(16) 0.2379(2)
H11 H 0.21780 1.31770 0.23050
O5 O 0.57620(18) 0.8897(9) 0.04674(16)
O6 O 0.5110(2) 0.7488(11) -0.02491(19)
O7 O 0.3553(2) 1.2746(11) 0.0271(2)
H12 H 0.32130 1.28900 0.00570
O8 O 0.5035(3) 1.3866(10) 0.09917(18)
N2 N 0.4084(3) 1.1115(14) 0.0047(2)
C12 C 0.7007(4) 0.796(2) 0.0636(4)
H13 H 0.71480 0.97970 0.05450
H14 H 0.74000 0.67240 0.05570
H15 H 0.68900 0.78580 0.10160
C13 C 0.6361(3) 0.7167(15) 0.0311(3)
H16 H 0.64620 0.73890 -0.00730
H17 H 0.62400 0.52570 0.03780
C14 C 0.5179(3) 0.8812(13) 0.0155(2)
C15 C 0.4595(3) 1.0623(12) 0.0378(2)
C16 C 0.4665(3) 1.1881(13) 0.0944(2)
C17 C 0.4252(3) 1.0562(11) 0.1398(2)
C18 C 0.3788(3) 0.8365(14) 0.1301(3)
H18 H 0.37380 0.76260 0.09540
C19 C 0.3405(4) 0.7317(14) 0.1736(3)
H19 H 0.30730 0.59110 0.16720
C20 C 0.3487(4) 0.8225(18) 0.2242(3)
H20 H 0.32340 0.73980 0.25250
C21 C 0.3950(4) 1.0400(16) 0.2347(3)
H21 H 0.40040 1.10420 0.27010
C22 C 0.4342(3) 1.1649(16) 0.1920(2)
H22 H 0.46480 1.31360 0.19830
#END
