
#######################################################################
#
#                 Cambridge Crystallographic Data Centre
#                                CCDC
#
#######################################################################
#
# If this CIF has been generated from an entry in the Cambridge
# Structural Database, then it will include bibliographic, chemical,
# crystal, experimental, refinement or atomic coordinate data resulting
# from the CCDC's data processing and validation procedures.
#
#######################################################################

data_CSD_CIF_BIDVER
_audit_creation_date 2013-07-07
_audit_creation_method CSD-ConQuest-V1
_database_code_CSD BIDVER
_database_code_depnum_ccdc_archive 'CCDC 946989'
_chemical_formula_sum 'C21 H19 N3 O4'
_chemical_formula_moiety
;
C21 H19 N3 O4
;
_journal_coden_Cambridge 4
_journal_volume 134
_journal_year 2012
_journal_page_first 18193
_journal_name_full 'J.Am.Chem.Soc. '
loop_
_publ_author_name
"D.Best"
"S.Kujawa"
"Hon Wai Lam"
_chemical_name_systematic
;
5-Nitro-2-(4-nitro-1,3-diphenylbutan-2-yl)pyridine
;
_cell_volume   1885.548
_exptl_crystal_colour 'colorless'
_exptl_crystal_density_diffrn 1.329
_exptl_special_details
;
Absolute configuration

;
_exptl_crystal_description 'plate'
_diffrn_ambient_temperature 200
#These two values have been output from a single CSD field.
_refine_ls_R_factor_gt 0.0574
_refine_ls_wR_factor_gt 0.0574
_symmetry_cell_setting monoclinic
_symmetry_space_group_name_H-M 'P 21'
_symmetry_Int_Tables_number 4
loop_
_symmetry_equiv_pos_site_id
_symmetry_equiv_pos_as_xyz
1 x,y,z
2 -x,1/2+y,-z
_cell_length_a 5.94049(7)
_cell_length_b 31.6895(3)
_cell_length_c 10.02062(7)
_cell_angle_alpha 90
_cell_angle_beta 91.7156(8)
_cell_angle_gamma 90
_cell_formula_units_Z 4
loop_
_atom_type_symbol
_atom_type_radius_bond
C 0.68
H 0.23
N 0.68
O 0.68
loop_
_atom_site_label
_atom_site_type_symbol
_atom_site_fract_x
_atom_site_fract_y
_atom_site_fract_z
O1 O 0.2313(12) 0.54376(18) 0.1808(5)
O2 O 0.5232(13) 0.50372(15) 0.1762(5)
O3 O 0.1605(7) 0.56822(13) -0.3386(3)
O4 O 0.4538(8) 0.52853(13) -0.3518(4)
N1 N 0.4199(12) 0.53427(16) 0.2168(4)
N2 N 0.3804(6) 0.61980(11) 0.0110(3)
N3 N 0.3441(7) 0.55571(12) -0.2962(4)
C1 C 0.6483(7) 0.62697(13) 0.1956(4)
H1 H 0.80930 0.61980 0.21690
C2 C 0.5009(8) 0.60786(14) 0.3065(4)
H2 H 0.34000 0.61280 0.27880
C3 C 0.5311(10) 0.56034(15) 0.3238(4)
H3 H 0.69430 0.55390 0.32680
H4 H 0.47020 0.55200 0.41080
C4 C 0.5849(7) 0.60826(12) 0.0608(4)
C5 C 0.7221(7) 0.57988(14) -0.0048(4)
H5 H 0.86660 0.57290 0.03180
C6 C 0.6459(8) 0.56192(14) -0.1243(4)
H6 H 0.73490 0.54220 -0.17100
C7 C 0.4362(8) 0.57388(13) -0.1719(4)
C8 C 0.3089(8) 0.60281(14) -0.1040(4)
H7 H 0.16590 0.61080 -0.14050
C9 C 0.5401(8) 0.62954(14) 0.4398(4)
C10 C 0.7413(9) 0.62520(16) 0.5115(5)
H8 H 0.85670 0.60790 0.47750
C11 C 0.7772(10) 0.64592(18) 0.6331(5)
H9 H 0.91680 0.64280 0.68080
C12 C 0.6103(11) 0.67087(17) 0.6839(5)
H10 H 0.63490 0.68520 0.76640
C13 C 0.4078(10) 0.67501(16) 0.6149(5)
H11 H 0.29220 0.69200 0.65030
C14 C 0.3713(9) 0.65428(16) 0.4926(5)
H12 H 0.23080 0.65720 0.44560
C15 C 0.6253(8) 0.67524(13) 0.1941(4)
H13 H 0.46290 0.68220 0.18770
H14 H 0.68430 0.68620 0.28080
C16 C 0.7422(8) 0.69857(13) 0.0841(4)
C17 C 0.6433(8) 0.73452(14) 0.0299(5)
H15 H 0.50100 0.74350 0.06000
C18 C 0.7498(10) 0.75766(15) -0.0682(5)
H16 H 0.67980 0.78220 -0.10450
C19 C 0.9556(10) 0.74504(16) -0.1127(5)
H17 H 1.02810 0.76080 -0.17960
C20 C 1.0564(9) 0.70937(16) -0.0597(5)
H18 H 1.19870 0.70050 -0.09030
C21 C 0.9502(8) 0.68615(15) 0.0386(4)
H19 H 1.02100 0.66160 0.07480
O5 O 1.3533(6) 0.45916(12) 0.9422(4)
O6 O 1.0992(7) 0.50522(12) 0.8925(4)
O7 O 1.3004(8) 0.45874(16) 0.4114(4)
O8 O 0.9951(9) 0.49420(17) 0.3962(4)
N4 N 1.1669(7) 0.47419(12) 0.9538(4)
N5 N 1.1070(6) 0.39847(12) 0.7465(3)
N6 N 1.1151(9) 0.46824(15) 0.4505(4)
C22 C 0.8547(7) 0.38877(13) 0.9291(4)
H20 H 0.69530 0.39580 0.94970
C23 C 1.0113(7) 0.40640(13) 1.0440(4)
H21 H 1.16840 0.39710 1.02600
C24 C 1.0126(8) 0.45460(14) 1.0526(4)
H22 H 0.85780 0.46530 1.03580
H23 H 1.06130 0.46320 1.14400
C25 C 0.9098(7) 0.40923(12) 0.7965(4)
C26 C 0.7647(8) 0.43839(14) 0.7353(4)
H24 H 0.62320 0.44460 0.77240
C27 C 0.8306(8) 0.45818(15) 0.6188(4)
H25 H 0.73630 0.47820 0.57400
C28 C 1.0366(9) 0.44768(14) 0.5716(4)
C29 C 1.1690(8) 0.41769(15) 0.6349(4)
H26 H 1.30920 0.41040 0.59790
C30 C 0.9484(8) 0.38799(13) 1.1781(4)
C31 C 0.7442(9) 0.39759(16) 1.2362(5)
H27 H 0.64240 0.41650 1.19240
C32 C 0.6882(10) 0.37982(19) 1.3573(5)
H28 H 0.54900 0.38660 1.39640
C33 C 0.8380(11) 0.35196(18) 1.4212(5)
H29 H 0.80060 0.33950 1.50390
C34 C 1.0370(12) 0.34261(18) 1.3653(5)
H30 H 1.13800 0.32360 1.40920
C35 C 1.0954(9) 0.36057(16) 1.2442(5)
H31 H 1.23620 0.35400 1.20680
C36 C 0.8782(8) 0.34060(13) 0.9235(4)
H32 H 1.03970 0.33380 0.91500
H33 H 0.83060 0.32900 1.00990
C37 C 0.7484(7) 0.31818(13) 0.8136(4)
C38 C 0.5340(8) 0.33077(15) 0.7714(4)
H34 H 0.46760 0.35490 0.81030
C39 C 0.4148(9) 0.30830(16) 0.6723(5)
H35 H 0.26810 0.31720 0.64430
C40 C 0.5107(9) 0.27311(17) 0.6149(5)
H36 H 0.43050 0.25790 0.54710
C41 C 0.7213(10) 0.26034(15) 0.6564(5)
H37 H 0.78560 0.23600 0.61730
C42 C 0.8439(8) 0.28246(14) 0.7552(4)
H38 H 0.99050 0.27330 0.78250
#END
