
#######################################################################
#
#                 Cambridge Crystallographic Data Centre
#                                CCDC
#
#######################################################################
#
# If this CIF has been generated from an entry in the Cambridge
# Structural Database, then it will include bibliographic, chemical,
# crystal, experimental, refinement or atomic coordinate data resulting
# from the CCDC's data processing and validation procedures.
#
#######################################################################

data_CSD_CIF_BIDYUI
_audit_creation_date 1983-03-10
_audit_creation_method CSD-ConQuest-V1
_database_code_CSD BIDYUI
_database_code_depnum_ccdc_archive 'CCDC 1110405'
_chemical_formula_sum 'C33 H37 N1 O8'
_chemical_formula_moiety
;
C33 H37 N1 O8
;
_journal_coeditor_code "IUCr A21404"
_journal_coden_Cambridge 107
_journal_volume 38
_journal_year 1982
_journal_page_first 2163
_journal_name_full 'Acta Crystallogr.,Sect.B:Struct.Crystallogr.Cryst.Chem. '
loop_
_publ_author_name
"L.R.Nassimbeni"
"M.L.Niven"
"G.R.Pettit"
"Y.Kamano"
"M.Inoue"
"J.J.Einck"
_chemical_name_systematic
;
3\b-Acetoxy-15\a-(o-nitrobenzoyloxy)-5\b,14\b-bufa-8,20,22-trienolide
;
_chemical_melting_point 450
_cell_volume   2989.447
_exptl_crystal_colour 'colorless'
_exptl_crystal_density_diffrn 1.28
_exptl_special_details
;
Melting point range 450-452K

;
_diffrn_ambient_temperature ?
_diffrn_special_details
;
The study was carried out at room temperature,in the range 283-303K

;
#These two values have been output from a single CSD field.
_refine_ls_R_factor_gt 0.095
_refine_ls_wR_factor_gt 0.095
_symmetry_cell_setting orthorhombic
_symmetry_space_group_name_H-M 'P 21 21 21'
_symmetry_Int_Tables_number 19
loop_
_symmetry_equiv_pos_site_id
_symmetry_equiv_pos_as_xyz
1 x,y,z
2 1/2+x,1/2-y,-z
3 -x,1/2+y,1/2-z
4 1/2-x,-y,1/2+z
_cell_length_a 31.53(2)
_cell_length_b 11.533(6)
_cell_length_c 8.221(4)
_cell_angle_alpha 90
_cell_angle_beta 90
_cell_angle_gamma 90
_cell_formula_units_Z 4
loop_
_atom_type_symbol
_atom_type_radius_bond
C 0.68
H 0.23
N 0.68
O 0.68
loop_
_atom_site_label
_atom_site_type_symbol
_atom_site_fract_x
_atom_site_fract_y
_atom_site_fract_z
C1 C 0.06450 0.77770 0.99750
C2 C 0.10560 0.84260 1.01690
C3 C 0.10420 0.96460 0.95720
C4 C 0.08840 0.96610 0.78050
C5 C 0.04580 0.90430 0.75220
C6 C 0.03570 0.90120 0.56730
C7 C 0.06870 0.83310 0.47480
C8 C 0.08090 0.72200 0.55110
C9 C 0.07210 0.69550 0.71070
C10 C 0.04650 0.77620 0.81650
C11 C 0.08470 0.57730 0.77590
C12 C 0.07700 0.48560 0.64720
C13 C 0.10280 0.50750 0.49130
C14 C 0.10760 0.64020 0.44990
C15 C 0.15490 0.66830 0.44360
C16 C 0.17570 0.55210 0.40510
C17 C 0.15030 0.46780 0.51240
C18 C 0.08200 0.44650 0.34360
C19 C 0.00070 0.72990 0.82920
C20 C 0.15850 0.33820 0.48360
C21 C 0.15910 0.26900 0.61150
C22 C 0.16480 0.28950 0.32750
C23 C 0.16960 0.17210 0.30900
C24 C 0.16660 0.10470 0.44670
C25 C 0.07090 1.13850 1.06440
C26 C 0.03460 1.17400 1.17520
C27 C 0.20610 0.75660 0.61840
C28 C 0.21420 0.79030 0.79580
C29 C 0.21810 0.70840 0.91960
C30 C 0.22450 0.74070 1.08100
C31 C 0.22600 0.85650 1.11680
C32 C 0.22250 0.93770 0.99720
C33 C 0.21660 0.90710 0.83380
O1 O 0.07120 1.02050 1.06180
O2 O 0.16810 0.70430 0.60690
O3 O 0.16370 0.14910 0.60110
O4 O 0.17040 -0.00510 0.44780
O5 O 0.09450 1.19840 0.99030
O6 O 0.22950 0.77830 0.50870
N1 N 0.21680 0.58100 0.88100
O7 O 0.23160 0.55060 0.75370
O8 O 0.19840 0.51970 0.97830
H1 H 0.06960 0.68920 1.03560
H2 H 0.04100 0.81760 1.07520
H3 H 0.12990 0.79670 0.95070
H4 H 0.11350 0.84440 1.14460
H5 H 0.13480 1.00670 0.96140
H6 H 0.08490 1.05550 0.74370
H7 H 0.11200 0.92450 0.70540
H8 H 0.02170 0.95210 0.81740
H9 H 0.03510 0.98890 0.52130
H10 H 0.00500 0.86160 0.54910
H11 H 0.09680 0.88600 0.46400
H12 H 0.05630 0.81460 0.35510
H13 H 0.06600 0.55760 0.88250
H14 H 0.11790 0.57810 0.80800
H15 H 0.08570 0.40210 0.69620
H16 H 0.04370 0.48550 0.61640
H17 H 0.09370 0.65530 0.33170
H18 H 0.16280 0.73560 0.35740
H19 H 0.17250 0.53070 0.27770
H20 H 0.20880 0.55230 0.43800
H21 H 0.16050 0.47300 0.63760
H22 H 0.08390 0.35390 0.36240
H23 H 0.09800 0.46900 0.23180
H24 H 0.04910 0.47210 0.33600
H25 H -0.01930 0.78660 0.90000
H26 H 0.00190 0.64550 0.88580
H27 H -0.01200 0.72180 0.70770
H28 H 0.15580 0.30750 0.73060
H29 H 0.16520 0.34510 0.22180
H30 H 0.17610 0.13440 0.19140
H31 H 0.03440 1.26740 1.18500
H32 H 0.03400 1.13630 1.29550
H33 H 0.00710 1.14580 1.10780
H34 H 0.22790 0.67610 1.17520
H35 H 0.23040 0.88380 1.24130
H36 H 0.22420 1.02840 1.02930
H37 H 0.21400 0.97250 0.74030
#END
