
#######################################################################
#
#                 Cambridge Crystallographic Data Centre
#                                CCDC
#
#######################################################################
#
# If this CIF has been generated from an entry in the Cambridge
# Structural Database, then it will include bibliographic, chemical,
# crystal, experimental, refinement or atomic coordinate data resulting
# from the CCDC's data processing and validation procedures.
#
#######################################################################

data_CSD_CIF_BIFNIP
_audit_creation_date 2013-07-07
_audit_creation_method CSD-ConQuest-V1
_database_code_CSD BIFNIP
_database_code_depnum_ccdc_archive 'CCDC 947387'
_chemical_formula_sum 'C17 H18 N2 O7'
_chemical_formula_moiety
;
C17 H18 N2 O7
;
_journal_coden_Cambridge 35
_journal_volume 78
_journal_year 2013
_journal_page_first 5160
_journal_name_full 'J.Org.Chem. '
loop_
_publ_author_name
"B.Gerard"
"M.D.Lee"
"IV"
"S.Dandapani"
"J.R.Duvall"
"M.E.Fitzgerald"
"S.Kesavan"
"J.T.Lowe"
"J.-C.Marie"
"B.A.Pandya"
"Byung-Chul Suh"
"M.W.OShea"
"M.Dombrowski"
"D.Hamann"
"B.Lemercier"
"T.Murillo"
"L.B.Akella"
"M.A.Foley"
"L.A.Marcaurelle"
_chemical_name_systematic
;
Methyl 
(5-methyl-8-nitro-6-oxo-2,4a,5,6,12,12a-hexahydropyrano[2,3-c][1,5]benzoxazoci
n-2-yl)acetate
;
_cell_volume   1635.508
_exptl_crystal_colour 'colorless'
_exptl_crystal_density_diffrn 1.472
_exptl_special_details
;
Absolute configuration

;
_exptl_crystal_description 'plate'
_diffrn_ambient_temperature 100
#These two values have been output from a single CSD field.
_refine_ls_R_factor_gt 0.0263
_refine_ls_wR_factor_gt 0.0263
_symmetry_cell_setting orthorhombic
_symmetry_space_group_name_H-M 'P 21 21 21'
_symmetry_Int_Tables_number 19
loop_
_symmetry_equiv_pos_site_id
_symmetry_equiv_pos_as_xyz
1 x,y,z
2 1/2-x,-y,1/2+z
3 -x,1/2+y,1/2-z
4 1/2+x,1/2-y,-z
_cell_length_a 6.8352(1)
_cell_length_b 9.3359(2)
_cell_length_c 25.6298(5)
_cell_angle_alpha 90
_cell_angle_beta 90
_cell_angle_gamma 90
_cell_formula_units_Z 4
loop_
_atom_type_symbol
_atom_type_radius_bond
C 0.68
H 0.23
N 0.68
O 0.68
loop_
_atom_site_label
_atom_site_type_symbol
_atom_site_fract_x
_atom_site_fract_y
_atom_site_fract_z
O1 O 0.27678(14) 0.6173(1) 0.18524(3)
O2 O 0.43598(14) 0.32256(10) 0.10300(3)
O3 O 0.63762(15) 0.67069(11) 0.02199(4)
O4 O 0.4112(2) 0.42088(12) -0.13902(4)
O5 O 0.36597(15) 0.19257(12) -0.13453(4)
O6 O -0.23579(16) 0.7502(1) 0.26607(4)
O7 O -0.32264(14) 0.51888(10) 0.27336(4)
N1 N 0.36014(16) 0.67580(12) 0.07068(4)
N2 N 0.39406(17) 0.30957(14) -0.11424(4)
C1 C 0.0899(2) 0.67415(15) 0.20045(5)
H1 H 0.11430 0.76070 0.22250
C2 C -0.0281(2) 0.72067(14) 0.15394(5)
H2 H -0.14270 0.77600 0.15970
C3 C 0.0202(2) 0.68805(14) 0.10516(5)
H3 H -0.05680 0.72360 0.07710
C4 C 0.19565(19) 0.59543(14) 0.09371(5)
H4 H 0.15430 0.52130 0.06780
C5 C 0.2591(2) 0.51708(14) 0.14339(5)
H5 H 0.15750 0.44430 0.15270
C6 C 0.4557(2) 0.44284(14) 0.13824(5)
H6 H 0.55420 0.51090 0.12450
H7 H 0.50010 0.40890 0.17290
C7 C 0.42794(18) 0.33569(14) 0.05017(5)
C8 C 0.40142(19) 0.20275(14) 0.02545(5)
H8 H 0.39090 0.11860 0.04610
C9 C 0.39027(19) 0.19180(15) -0.02816(5)
H9 H 0.37140 0.10170 -0.04470
C10 C 0.40764(19) 0.31693(15) -0.05729(5)
C11 C 0.43632(19) 0.44809(14) -0.03414(5)
H10 H 0.45000 0.53110 -0.05530
C12 C 0.44556(18) 0.46076(14) 0.02027(5)
C13 C 0.4894(2) 0.61168(14) 0.03884(5)
C14 C 0.4075(2) 0.81970(15) 0.08953(6)
H11 H 0.30200 0.85400 0.11220
H12 H 0.42170 0.88470 0.05980
H13 H 0.53030 0.81670 0.10920
C15 C -0.0204(2) 0.56474(14) 0.23398(5)
H14 H -0.05740 0.48210 0.21190
H15 H 0.06830 0.52910 0.26160
C16 C -0.2021(2) 0.62473(15) 0.25912(5)
C17 C -0.5011(2) 0.56276(16) 0.29926(5)
H16 H -0.46980 0.60060 0.33390
H17 H -0.58850 0.48010 0.30280
H18 H -0.56590 0.63730 0.27860
H19? H 0.53400 0.84960 0.07520
H20? H 0.41430 0.81890 0.12770
H21? H 0.30570 0.88690 0.07830
#END
