
#######################################################################
#
#                 Cambridge Crystallographic Data Centre
#                                CCDC
#
#######################################################################
#
# If this CIF has been generated from an entry in the Cambridge
# Structural Database, then it will include bibliographic, chemical,
# crystal, experimental, refinement or atomic coordinate data resulting
# from the CCDC's data processing and validation procedures.
#
#######################################################################

data_CSD_CIF_BIFSEO
_audit_creation_date 1983-03-10
_audit_creation_method CSD-ConQuest-V1
_database_code_CSD BIFSEO
_chemical_formula_sum 'C22 H24 N2 O8'
_chemical_formula_moiety
;
C22 H24 N2 O8
;
_journal_coden_Cambridge 156
_journal_volume 104
_journal_year 1982
_journal_page_first 33
_journal_name_full 'Carbohydr.Res. '
loop_
_publ_author_name
"T.E.Conturo"
"G.A.Jeffrey"
_chemical_name_systematic
;
Methyl 
4,6-O-benzylidene-2,3-dideoxy-2-(2-(methoxycarbonyl)phenylamino)-3-nitro-\b-D-
mannopyranose
;
_chemical_melting_point 440.15
_cell_volume   1084.449
_exptl_crystal_colour 'yellow'
_exptl_crystal_density_diffrn 1.361
_diffrn_ambient_temperature ?
_diffrn_special_details
;
The study was carried out at room temperature,in the range 283-303K

;
#These two values have been output from a single CSD field.
_refine_ls_R_factor_gt 0.041
_refine_ls_wR_factor_gt 0.041
_symmetry_cell_setting monoclinic
_symmetry_space_group_name_H-M 'P 21'
_symmetry_Int_Tables_number 4
loop_
_symmetry_equiv_pos_site_id
_symmetry_equiv_pos_as_xyz
1 x,y,z
2 -x,1/2+y,-z
_cell_length_a 13.267(4)
_cell_length_b 9.633(4)
_cell_length_c 8.839(3)
_cell_angle_alpha 90
_cell_angle_beta 106.26(2)
_cell_angle_gamma 90
_cell_formula_units_Z 2
loop_
_atom_type_symbol
_atom_type_radius_bond
C 0.68
H 0.23
N 0.68
O 0.68
loop_
_atom_site_label
_atom_site_type_symbol
_atom_site_fract_x
_atom_site_fract_y
_atom_site_fract_z
C1 C 0.00720 -0.17460 1.01260
C2 C -0.00500 -0.20900 0.83920
C3 C 0.10690 -0.21260 0.81570
C4 C 0.16970 -0.08500 0.88190
C5 C 0.16980 -0.06790 1.05160
C6 C 0.24080 0.05070 1.12460
C7 C -0.08740 -0.16290 1.20020
C8 C 0.34040 0.00710 0.94970
C9 C 0.44990 -0.01870 0.93760
C10 C 0.53300 0.04200 1.04070
C11 C 0.63440 0.02170 1.02930
C12 C 0.65160 -0.05830 0.91430
C13 C 0.56980 -0.12030 0.81190
C14 C 0.46760 -0.10170 0.82210
C15 C -0.16190 -0.15780 0.61630
C16 C -0.16590 -0.29130 0.55200
C17 C -0.25290 -0.33700 0.43720
C18 C -0.33720 -0.25230 0.37950
C19 C -0.33530 -0.11880 0.43640
C20 C -0.24820 -0.06970 0.55530
C21 C -0.25240 0.07160 0.61730
C22 C -0.35530 0.27440 0.60240
N1 N -0.07520 -0.11410 0.73400
N2 N 0.10030 -0.23340 0.64490
O1 O -0.09020 -0.15890 1.03630
O2 O 0.27490 -0.10460 0.87440
O3 O 0.06440 -0.04610 1.05720
O4 O 0.34300 0.01900 1.10880
O5 O -0.18780 0.12330 0.72750
O6 O -0.33970 0.13970 0.54030
O7 O 0.10300 -0.13300 0.56420
O8 O 0.08960 -0.35200 0.59580
H1 H 0.04600 -0.24700 1.08100
H2 H -0.03500 -0.30100 0.81800
H3 H 0.14100 -0.28900 0.86600
H4 H 0.14000 0.00100 0.82500
H5 H 0.19800 -0.14300 1.11100
H6 H 0.24700 0.06200 1.23600
H7 H 0.21300 0.13700 1.07200
H8 H -0.15200 -0.15600 1.20900
H9 H -0.04200 -0.09700 1.25100
H10 H -0.05400 -0.25300 1.25100
H11 H 0.31000 0.09000 0.89700
H12 H 0.52500 0.08300 1.12200
H13 H 0.69700 0.06100 1.11300
H14 H 0.72100 -0.06800 0.90700
H15 H 0.57900 -0.17800 0.73300
H16 H 0.40800 -0.13300 0.74100
H17 H -0.10700 -0.34300 0.58600
H18 H -0.25300 -0.42100 0.40100
H19 H -0.39500 -0.27800 0.30400
H20 H -0.39500 -0.05200 0.39400
H21 H -0.29100 0.33700 0.58900
H22 H -0.42100 0.31300 0.53000
H23 H -0.35900 0.25600 0.71900
H24 H -0.07900 -0.04700 0.77100
#END
