
#######################################################################
#
#                 Cambridge Crystallographic Data Centre
#                                CCDC
#
#######################################################################
#
# If this CIF has been generated from an entry in the Cambridge
# Structural Database, then it will include bibliographic, chemical,
# crystal, experimental, refinement or atomic coordinate data resulting
# from the CCDC's data processing and validation procedures.
#
#######################################################################

data_CSD_CIF_BIFSAM
_audit_creation_date 2013-07-07
_audit_creation_method CSD-ConQuest-V1
_database_code_CSD BIFSAM
_database_code_depnum_ccdc_archive 'CCDC 947405'
_chemical_formula_sum 'C26 H29 N1 O7'
_chemical_formula_moiety
;
C26 H29 N1 O7
;
_journal_coden_Cambridge 35
_journal_volume 78
_journal_year 2013
_journal_page_first 5492
_journal_name_full 'J.Org.Chem. '
loop_
_publ_author_name
"Jing-Chun Han"
"Lian-Zhu Liu"
"Yuan-Yuan Chang"
"Guo-Zong Yue"
"Jie Guo"
"Li-Yan Zhou"
"Chuang-Chuang Li"
"Zhen Yang"
_chemical_name_systematic
;
Ethyl 
3a,6-dimethyl-2-((4-nitrobenzoyl)oxy)-4-oxo-2,3,3a,4,6,7,8,8a,9,10-decahydrobe
nzo[f]azulene-5-carboxylate
;
_cell_volume   1207.696
_exptl_crystal_colour 'colorless'
_exptl_crystal_density_diffrn 1.286
_exptl_crystal_description 'prism'
_diffrn_ambient_temperature 298
_refine_special_details
;
C(26a) and C(26b) disordered over two sites with occupancies 0.56:0.44.

;
#These two values have been output from a single CSD field.
_refine_ls_R_factor_gt 0.0477
_refine_ls_wR_factor_gt 0.0477
loop_
_citation_database_id_CSD
_citation_special_details
BIFRUF "is a stereoisomer of this entry"
_symmetry_cell_setting triclinic
_symmetry_space_group_name_H-M 'P -1'
_symmetry_Int_Tables_number 2
loop_
_symmetry_equiv_pos_site_id
_symmetry_equiv_pos_as_xyz
1 x,y,z
2 -x,-y,-z
_cell_length_a 8.9470(1)
_cell_length_b 10.2863(1)
_cell_length_c 14.9572(10)
_cell_angle_alpha 70.258(5)
_cell_angle_beta 79.287(6)
_cell_angle_gamma 69.189(5)
_cell_formula_units_Z 2
loop_
_atom_type_symbol
_atom_type_radius_bond
C 0.68
H 0.23
N 0.68
O 0.68
loop_
_atom_site_label
_atom_site_type_symbol
_atom_site_fract_x
_atom_site_fract_y
_atom_site_fract_z
O1 O 0.1036(3) 1.1451(2) 0.07686(17)
O2 O 0.0818(2) 1.11304(19) -0.05410(16)
O3 O 0.68286(17) 0.45246(15) 0.09054(11)
O4 O 0.81584(15) 0.58178(13) 0.11783(9)
O5 O 0.8897(2) 0.43145(15) 0.44045(10)
O6 O 0.59632(19) 0.63854(19) 0.34600(11)
N1 N 0.1467(2) 1.0784(2) 0.01896(16)
C1 C 0.2884(2) 0.9464(2) 0.03919(14)
C2 C 0.3914(3) 0.9290(2) 0.10304(14)
H1 H 0.37120 0.99810 0.13460
C3 C 0.5256(3) 0.8071(2) 0.11935(13)
H2 H 0.602(3) 0.793(2) 0.1601(14)
C4 C 0.5518(2) 0.70326(19) 0.07351(12)
C5 C 0.4438(2) 0.7230(2) 0.01052(14)
H3 H 0.462(3) 0.653(3) -0.0202(16)
C6 C 0.3120(3) 0.8459(2) -0.00800(15)
H4 H 0.234(3) 0.864(2) -0.0505(17)
C7 C 0.6888(2) 0.56548(19) 0.09423(12)
C8 C 0.9528(2) 0.4482(2) 0.14474(13)
H5 H 0.96870 0.38720 0.10350
C9 C 1.0980(2) 0.4898(2) 0.13897(14)
H6 H 1.143(3) 0.542(3) 0.0780(17)
C10 C 1.1555(2) 0.4496(2) 0.22311(13)
C11 C 1.0513(2) 0.38121(18) 0.30347(12)
C12 C 0.9306(3) 0.3639(2) 0.24918(15)
H7 H 0.824(3) 0.394(2) 0.2767(14)
H8 H 0.956(3) 0.259(3) 0.2560(18)
C13 C 0.9573(2) 0.48119(19) 0.36518(12)
C14 C 0.9423(2) 0.64075(18) 0.33308(11)
C15 C 1.0893(2) 0.6885(2) 0.29220(13)
H9 H 1.08660 0.72240 0.22270
C16 C 1.2466(2) 0.5654(3) 0.31552(14)
H10 H 1.23480 0.50190 0.37940
H11 H 1.33020 0.60590 0.31380
C17 C 1.2961(2) 0.4764(3) 0.24479(17)
C18 C 0.8006(2) 0.73522(19) 0.35018(12)
C19 C 0.7724(3) 0.8953(2) 0.33605(14)
H12 H 0.74840 0.90900 0.39950
C20 C 0.9208(3) 0.9395(3) 0.29273(18)
H13 H 0.92210 0.96810 0.22390
H14 H 0.91550 1.02330 0.31070
C21 C 1.0742(3) 0.8191(3) 0.32401(16)
H15 H 1.07440 0.79020 0.39280
H16 H 1.16510 0.85390 0.29650
C22 C 1.1468(3) 0.2338(2) 0.36819(17)
H17 H 1.07520 0.19480 0.41750
H18 H 1.22630 0.24690 0.39640
H19 H 1.19840 0.16750 0.33110
C23 C 0.6272(4) 0.9945(2) 0.27950(19)
H20 H 0.61320 1.09410 0.27310
H21 H 0.53310 0.97060 0.31240
H22 H 0.64390 0.98120 0.21750
C24 C 0.6538(2) 0.68933(19) 0.38683(12)
O7 O 0.58850(16) 0.72205(15) 0.4674(1)
C25 C 0.4344(3) 0.7008(3) 0.5050(2)
C26 C 0.3406(17) 0.8139(15) 0.5470(12)
H23 H 1.382(3) 0.387(3) 0.2678(19)
H24 H 1.344(3) 0.524(3) 0.1889(18)
H25 H 0.37890 0.70370 0.45420
H26 H 0.45000 0.60650 0.55260
H27 H 0.39110 0.80470 0.60110
H28 H 0.23520 0.80570 0.56700
H29 H 0.33280 0.90710 0.50100
C27? C 0.3140(13) 0.8360(12) 0.5051(16)
H30? H 0.44290 0.63550 0.56950
H31? H 0.40410 0.65620 0.46650
H32? H 0.21800 0.81830 0.53970
H33? H 0.29180 0.89390 0.44070
H34? H 0.35120 0.88700 0.53490
#END
