
#######################################################################
#
#                 Cambridge Crystallographic Data Centre
#                                CCDC
#
#######################################################################
#
# If this CIF has been generated from an entry in the Cambridge
# Structural Database, then it will include bibliographic, chemical,
# crystal, experimental, refinement or atomic coordinate data resulting
# from the CCDC's data processing and validation procedures.
#
#######################################################################

data_CSD_CIF_BIGBAX
_audit_creation_date 2018-07-11
_audit_creation_method CSD-ConQuest-V1
_database_code_CSD BIGBAX
_database_code_depnum_ccdc_archive 'CCDC 1853501'
_chemical_formula_sum 'C25 H20 N2 O5'
_chemical_formula_moiety
;
C25 H20 N2 O5
;
_journal_coeditor_code "hb4244"
_journal_coden_Cambridge 1959
_journal_volume 3
_journal_year 2018
_journal_page_first x180962
_journal_name_full 'IUCrData '
loop_
_publ_author_name
"A.Mahfoud"
"G.Al Houari"
"M.El Yazidi"
"M.Saadi"
"L.El Ammari"
_chemical_name_systematic
;
2-methyl-3'-(4-methylphenyl)-4'-(4-nitrophenyl)-2H,4H,4'H-spiro[1-benzopyran-3
,5'-[1,2]oxazol]-4-one
;
_cell_volume   2150.180
_exptl_crystal_colour 'colorless'
_exptl_crystal_density_diffrn 1.323
_exptl_crystal_description 'block'
_diffrn_ambient_temperature 296
#These two values have been output from a single CSD field.
_refine_ls_R_factor_gt 0.0439
_refine_ls_wR_factor_gt 0.0439
_symmetry_cell_setting triclinic
_symmetry_space_group_name_H-M 'P -1'
_symmetry_Int_Tables_number 2
loop_
_symmetry_equiv_pos_site_id
_symmetry_equiv_pos_as_xyz
1 x,y,z
2 -x,-y,-z
_cell_length_a 11.5219(6)
_cell_length_b 14.2321(7)
_cell_length_c 14.7033(7)
_cell_angle_alpha 72.201(2)
_cell_angle_beta 73.469(2)
_cell_angle_gamma 73.647(2)
_cell_formula_units_Z 4
loop_
_atom_type_symbol
_atom_type_radius_bond
C 0.68
H 0.23
N 0.68
O 0.68
loop_
_atom_site_label
_atom_site_type_symbol
_atom_site_fract_x
_atom_site_fract_y
_atom_site_fract_z
C1 C 0.71087(13) 0.49608(11) 0.37433(10)
C2 C 0.79239(13) 0.45907(11) 0.29001(10)
C3 C 0.75481(16) 0.48309(12) 0.20169(11)
H1 H 0.67659 0.52271 0.19605
C4 C 0.83235(19) 0.44868(15) 0.12350(13)
H2 H 0.80625 0.46397 0.06533
C5 C 0.9494(2) 0.39122(16) 0.13101(14)
H3 H 1.00224 0.36921 0.07720
C6 C 0.98877(17) 0.36613(15) 0.21703(13)
H4 H 1.06748 0.32692 0.22155
C7 C 0.91024(14) 0.39975(12) 0.29698(11)
C8 C 0.86434(14) 0.37965(12) 0.47069(11)
H5 H 0.91490 0.37305 0.51787
C9 C 0.77534(12) 0.48180(11) 0.45741(10)
C10 C 0.68255(12) 0.51028(10) 0.5480(1)
H6 H 0.60256 0.49463 0.55453
C11 C 0.72823(12) 0.46262(10) 0.64259(10)
C12 C 0.82793(14) 0.48833(12) 0.65780(11)
H7 H 0.86262 0.54015 0.61215
C13 C 0.87597(15) 0.43763(14) 0.74007(12)
H8 H 0.94249 0.45500 0.75020
C14 C 0.82365(15) 0.36116(13) 0.80655(11)
C15 C 0.72337(15) 0.33473(12) 0.79497(11)
H9 H 0.68900 0.28300 0.84111
C16 C 0.67506(14) 0.38710(11) 0.71294(11)
H10 H 0.60606 0.37150 0.70484
C17 C 0.79860(17) 0.29277(12) 0.50363(13)
H11 H 0.75255 0.29844 0.45640
H12 H 0.74297 0.29472 0.56591
H13 H 0.85858 0.23003 0.50948
C18 C 0.67423(14) 0.62358(11) 0.51415(10)
C19 C 0.56998(15) 0.69988(11) 0.54889(11)
C20 C 0.48044(16) 0.67386(13) 0.63232(12)
H14 H 0.48805 0.60711 0.66863
C21 C 0.37977(18) 0.74655(15) 0.66194(14)
H15 H 0.32072 0.72789 0.71821
C22 C 0.3655(2) 0.84620(14) 0.60948(15)
C23 C 0.4534(2) 0.87148(14) 0.52541(16)
H16 H 0.44418 0.93803 0.48849
C24 C 0.55390(19) 0.80070(13) 0.49508(13)
H17 H 0.61193 0.81984 0.43826
C25 C 0.2545(3) 0.9249(2) 0.6427(2)
H18 H 0.21301 0.95996 0.58985
H19 H 0.28192 0.97220 0.66203
H20 H 0.19846 0.89233 0.69721
N1 N 0.76748(13) 0.64877(10) 0.44746(10)
N2 N 0.87729(15) 0.30507(15) 0.89270(11)
O1 O 0.60250(9) 0.53733(9) 0.37823(8)
O2 O 0.95481(9) 0.37380(9) 0.37996(8)
O3 O 0.84776(9) 0.56013(8) 0.42149(8)
O4 O 0.85062(15) 0.22382(14) 0.93883(11)
O5 O 0.94819(19) 0.34191(16) 0.91234(13)
C26 C 0.52270(13) 0.81733(11) 0.02227(10)
C27 C 0.53883(15) 0.73810(11) -0.02741(11)
C28 C 0.44133(18) 0.72885(14) -0.06096(12)
H21 H 0.36604 0.77509 -0.05423
C29 C 0.4568(2) 0.65138(17) -0.10395(15)
H22 H 0.39131 0.64423 -0.12470
C30 C 0.5697(2) 0.58434(17) -0.11614(16)
H23 H 0.57971 0.53260 -0.14575
C31 C 0.6673(2) 0.59255(14) -0.08550(14)
H24 H 0.74329 0.54774 -0.09550
C32 C 0.65154(16) 0.66868(12) -0.03921(11)
C33 C 0.74921(14) 0.76072(12) 0.01846(11)
H25 H 0.81106 0.73854 0.05844
C34 C 0.62391(13) 0.80089(10) 0.07759(10)
C35 C 0.61372(13) 0.89159(10) 0.11657(10)
H26 H 0.58630 0.95502 0.07054
C36 C 0.72907(13) 0.89408(10) 0.14622(10)
C37 C 0.76963(14) 0.82115(11) 0.22526(11)
H27 H 0.72795 0.76900 0.25827
C38 C 0.87077(14) 0.82544(12) 0.25505(11)
H28 H 0.89762 0.77703 0.30796
C39 C 0.93090(14) 0.90306(12) 0.20459(11)
C40 C 0.89462(15) 0.97603(12) 0.12563(12)
H29 H 0.93766 1.02731 0.09244
C41 C 0.79271(14) 0.97113(11) 0.09698(11)
H30 H 0.76637 1.01998 0.04410
C42 C 0.78724(17) 0.83952(14) -0.07436(13)
H31 H 0.86791 0.81280 -0.10934
H32 H 0.78942 0.89895 -0.05748
H33 H 0.72840 0.85654 -0.11484
C43 C 0.51140(13) 0.87094(10) 0.20643(10)
C44 C 0.43061(13) 0.94700(11) 0.25823(11)
C45 C 0.46515(16) 1.03638(12) 0.24885(13)
H34 H 0.54117 1.04807 0.20943
C46 C 0.38805(18) 1.10767(13) 0.29729(14)
H35 H 0.41352 1.16634 0.29070
C47 C 0.27383(17) 1.09373(14) 0.35538(14)
C48 C 0.23854(17) 1.00576(16) 0.36250(15)
H36 H 0.16126 0.99538 0.40016
C49 C 0.31503(15) 0.93341(14) 0.31522(13)
H37 H 0.28901 0.87507 0.32157
C50 C 0.1902(2) 1.17146(19) 0.40908(19)
H38 H 0.20451 1.15443 0.47396
H39 H 0.10526 1.17256 0.41287
H40 H 0.20756 1.23683 0.37459
N3 N 0.50112(11) 0.77822(9) 0.23520(9)
N4 N 1.03716(16) 0.90838(14) 0.23749(13)
O6 O 0.43257(10) 0.88679(8) 0.02632(9)
O7 O 0.74976(11) 0.66992(8) -0.00674(9)
O8 O 0.58807(10) 0.72448(7) 0.16663(7)
O9 O 1.06326(16) 0.84887(14) 0.31079(13)
O10 O 1.0951(2) 0.97103(19) 0.18936(18)
#END
