
#######################################################################
#
#                 Cambridge Crystallographic Data Centre
#                                CCDC
#
#######################################################################
#
# If this CIF has been generated from an entry in the Cambridge
# Structural Database, then it will include bibliographic, chemical,
# crystal, experimental, refinement or atomic coordinate data resulting
# from the CCDC's data processing and validation procedures.
#
#######################################################################

data_CSD_CIF_BIGCEZ
_audit_creation_date 1999-12-03
_audit_creation_method CSD-ConQuest-V1
_database_code_CSD BIGCEZ
_database_code_depnum_ccdc_archive 'CCDC 114177'
_chemical_formula_sum 'C8 H14 N4 O4'
_chemical_formula_moiety
;
C8 H14 N4 O4
;
_journal_coden_Cambridge 644
_journal_volume 54
_journal_year 1999
_journal_page_first 456
_journal_name_full 'Z.Naturforsch.,B:Chem.Sci. '
loop_
_publ_author_name
"I.O.Fritsky"
"A.Karaczyn"
"H.Kozlowski"
"T.Glowiak"
"E.V.Prisyazhnaya"
_chemical_name_systematic
;
N,N'-bis(2-Hydroxyiminopropionyl)-1,2-diaminoethane
;
_cell_volume    550.307
_exptl_crystal_colour 'colorless'
_exptl_crystal_density_diffrn 1.389
_exptl_crystal_description 'block'
_exptl_crystal_preparation 'water'
_diffrn_ambient_temperature ?
_diffrn_special_details
;
The study was carried out at room temperature,in the range 283-303K

;
#These two values have been output from a single CSD field.
_refine_ls_R_factor_gt 0.0361
_refine_ls_wR_factor_gt 0.0361
_symmetry_cell_setting monoclinic
_symmetry_space_group_name_H-M 'P 21/c'
_symmetry_Int_Tables_number 14
loop_
_symmetry_equiv_pos_site_id
_symmetry_equiv_pos_as_xyz
1 x,y,z
2 x,1/2-y,1/2+z
3 -x,-y,-z
4 -x,-1/2+y,-1/2-z
_cell_length_a 4.403(1)
_cell_length_b 10.857(2)
_cell_length_c 11.545(2)
_cell_angle_alpha 90
_cell_angle_beta 94.34(3)
_cell_angle_gamma 90
_cell_formula_units_Z 2
loop_
_atom_type_symbol
_atom_type_radius_bond
C 0.68
H 0.23
N 0.68
O 0.68
loop_
_atom_site_label
_atom_site_type_symbol
_atom_site_fract_x
_atom_site_fract_y
_atom_site_fract_z
O1 O -0.1583(3) 0.33521(10) 0.18572(9)
O2 O 0.5407(3) 0.27777(9) 0.49572(9)
N1 N 0.0328(2) 0.25666(10) 0.25284(9)
N2 N 0.3990(3) 0.11463(10) 0.38310(9)
C1 C 0.1657(4) 0.44752(14) 0.36121(13)
C2 C 0.1817(3) 0.31366(11) 0.33529(10)
C3 C 0.3901(3) 0.23329(11) 0.41221(10)
C4 C 0.5831(3) 0.02535(12) 0.45000(11)
H1 H -0.2375(56) 0.2884(28) 0.1292(22)
H2 H 0.2290(59) 0.5043(24) 0.2963(23)
H3 H -0.0511(85) 0.4720(29) 0.3753(26)
H4 H 0.2641(59) 0.4662(23) 0.4319(21)
H5 H 0.2791(43) 0.0930(19) 0.3240(17)
H6 H 0.6355(36) -0.0406(15) 0.4002(14)
H7 H 0.7682(37) 0.0620(16) 0.4788(14)
C4B C 0.4169(3) -0.02535(12) 0.55000(11)
N2B N 0.6010(3) -0.11463(10) 0.61690(9)
C3B C 0.6099(3) -0.23329(11) 0.58779(10)
O2B O 0.4593(3) -0.27777(9) 0.50428(9)
C2B C 0.8183(3) -0.31366(11) 0.66471(10)
N1B N 0.9672(2) -0.25666(10) 0.74716(9)
O1B O 1.1583(3) -0.33521(10) 0.81428(9)
H1B H 1.2375(56) -0.2884(28) 0.8708(22)
C1B C 0.8343(4) -0.44752(14) 0.63879(13)
H2B H 0.7710(59) -0.5043(24) 0.7037(23)
H3B H 1.0511(85) -0.4720(29) 0.6247(26)
H4B H 0.7359(59) -0.4662(23) 0.5681(21)
H5B H 0.7209(43) -0.0930(19) 0.6760(17)
H6B H 0.3645(36) 0.0406(15) 0.5998(14)
H7B H 0.2318(37) -0.0620(16) 0.5212(14)
#END
