
#######################################################################
#
#                 Cambridge Crystallographic Data Centre
#                                CCDC
#
#######################################################################
#
# If this CIF has been generated from an entry in the Cambridge
# Structural Database, then it will include bibliographic, chemical,
# crystal, experimental, refinement or atomic coordinate data resulting
# from the CCDC's data processing and validation procedures.
#
#######################################################################

data_CSD_CIF_BIGNIR
_audit_creation_date 2018-07-11
_audit_creation_method CSD-ConQuest-V1
_database_code_CSD BIGNIR
_database_code_depnum_ccdc_archive 'CCDC 1575706'
_chemical_formula_sum 'C21 H25 N1 O6'
_chemical_formula_moiety
;
C21 H25 N1 O6
;
_journal_coden_Cambridge 35
_journal_volume 83
_journal_year 2018
_journal_page_first 6958
_journal_name_full 'J.Org.Chem. '
loop_
_publ_author_name
"M.R.Garnsey"
"Y.Slutskyy"
"C.R.Jamison"
"Peng Zhao"
"J.Lee"
"Young Ho Rhee"
"L.E.Overman"
_chemical_name_systematic
;
6,6,8a-trimethyl-2-oxooctahydro-2H-azuleno[1,8-bc]furan-2a(3H)-yl 
4-nitrobenzoate
;
_cell_volume   1941.467
_exptl_crystal_colour 'colorless'
_exptl_crystal_density_diffrn 1.325
_exptl_crystal_description 'prism'
_diffrn_ambient_temperature 88
_refine_special_details
;
C3A and C3B disordered over two sites with occupancies 0.75:0.25; 
C59A,C80A,C81A and C59B,C80B,C81B disordered over two sites with occupancies 
0.6:0.4; C87A and C87B disordered over two sites with occupancies 0.6:0.4; 
H2AA,H2AB and H2BC,H2BD disordered over two sites with occupancies 0.75:0.25; 
H58A,H58B and H58C,H58D disordered over two sites with occupancies 0.6:0.4; 
H86A,H86B and H86C,H86D disordered over two sites with occupancies 0.6:0.4.
;
#These two values have been output from a single CSD field.
_refine_ls_R_factor_gt 0.0741
_refine_ls_wR_factor_gt 0.0741
_symmetry_cell_setting triclinic
_symmetry_space_group_name_H-M 'P 1'
_symmetry_Int_Tables_number 1
loop_
_symmetry_equiv_pos_site_id
_symmetry_equiv_pos_as_xyz
1 x,y,z
_cell_length_a 7.9748(9)
_cell_length_b 14.1924(17)
_cell_length_c 17.903(2)
_cell_angle_alpha 89.1869(16)
_cell_angle_beta 83.5067(16)
_cell_angle_gamma 74.6777(16)
_cell_formula_units_Z 4
loop_
_atom_type_symbol
_atom_type_radius_bond
C 0.68
H 0.23
N 0.68
O 0.68
loop_
_atom_site_label
_atom_site_type_symbol
_atom_site_fract_x
_atom_site_fract_y
_atom_site_fract_z
C1 C -1.7468(8) -0.8691(5) 0.0077(3)
H1 H -1.61940 -0.88790 0.01150
H2 H -1.79400 -0.92290 0.02890
C2 C -1.8308(9) -0.7769(5) 0.0564(4)
H3 H -1.74240 -0.73950 0.05720
H4 H -1.85580 -0.79800 0.10840
C3 C -2.0035(11) -0.7047(7) 0.0339(5)
H5 H -2.04240 -0.65050 0.07140
H6 H -1.97680 -0.67630 -0.01540
C4 C -2.1559(8) -0.7520(5) 0.0289(4)
C5 C -2.1006(8) -0.8407(5) -0.0261(3)
H7 H -2.04530 -0.89860 0.00350
C6 C -2.2405(8) -0.8695(5) -0.0665(4)
H8 H -2.32180 -0.89440 -0.03050
H9 H -2.30850 -0.81330 -0.09330
C7 C -2.1329(8) -0.9501(5) -0.1220(4)
H10 H -2.20020 -0.95850 -0.16350
H11 H -2.09510 -1.01320 -0.09640
C8 C -1.9723(7) -0.9102(4) -0.1516(3)
C9 C -1.9641(7) -0.8338(4) -0.0935(3)
H12 H -1.99500 -0.76700 -0.11540
C10 C -1.7740(7) -0.8604(4) -0.0749(3)
C11 C -1.6912(7) -0.9601(5) -0.1144(3)
O1 O -1.8101(5) -0.9890(3) -0.1505(2)
O2 O -1.6878(5) -0.7846(3) -0.1009(2)
C12 C -1.6195(7) -0.7840(5) -0.1734(3)
C13 C -1.5550(7) -0.6955(4) -0.1899(3)
C14 C -1.4538(8) -0.6941(5) -0.2590(4)
H13 H -1.42600 -0.74870 -0.29250
C15 C -1.3944(8) -0.6121(5) -0.2782(4)
H14 H -1.32470 -0.61000 -0.32450
C16 C -1.4389(8) -0.5345(5) -0.2284(4)
N1 N -1.3844(8) -0.4446(5) -0.2513(4)
O3 O -1.2874(7) -0.4483(4) -0.3099(3)
O4 O -1.4453(9) -0.3708(4) -0.2104(3)
C17 C -1.539(1) -0.5337(5) -0.1607(4)
H15 H -1.56880 -0.47780 -0.12850
C18 C -1.5959(9) -0.6153(5) -0.1400(4)
H16 H -1.66200 -0.61700 -0.09270
C19 C -2.2941(19) -0.6658(7) -0.0046(6)
H17 H -2.40580 -0.68280 -0.00330
H18 H -2.25170 -0.65490 -0.05670
H19 H -2.31080 -0.60610 0.02540
C20 C -2.2424(18) -0.7791(8) 0.1004(6)
H20 H -2.26430 -0.72550 0.13710
H21 H -2.16640 -0.83810 0.11980
H22 H -2.35370 -0.79160 0.09160
C21 C -1.9849(9) -0.8757(5) -0.2323(4)
H23 H -1.97110 -0.93200 -0.26570
H24 H -1.89230 -0.84330 -0.24750
H25 H -2.09940 -0.82960 -0.23560
O5 O -1.5477(6) -1.0112(3) -0.1083(3)
O6 O -1.6106(6) -0.8478(3) -0.2192(3)
H26? H -1.75950 -0.77540 0.09790
H27? H -1.83200 -0.71840 0.02550
C22? C -2.010(3) -0.7738(17) 0.0878(12)
H28? H -2.04760 -0.72290 0.12790
H29? H -2.00940 -0.83730 0.11160
C23 C -0.6243(9) -0.1014(5) -0.4251(4)
H30 H -0.74670 -0.09570 -0.43410
H31 H -0.58090 -0.05440 -0.45820
C24 C -0.6225(9) -0.0722(5) -0.3425(4)
H32 H -0.65110 0.00000 -0.33960
H33 H -0.71910 -0.09190 -0.31220
C25 C -0.4580(12) -0.1119(7) -0.3045(5)
H34 H -0.44330 -0.18280 -0.29730
H35 H -0.47770 -0.08110 -0.25390
C26 C -0.2850(8) -0.0981(5) -0.3437(4)
C27 C -0.2522(8) -0.1366(4) -0.4260(3)
H36 H -0.31920 -0.08270 -0.45620
C28 C -0.0659(9) -0.1669(5) -0.4661(4)
H37 H -0.01630 -0.11000 -0.47400
H38 H 0.01190 -0.21700 -0.43750
C29 C -0.0925(10) -0.2085(6) -0.5407(4)
H39 H 0.01880 -0.25030 -0.56570
H40 H -0.14150 -0.15570 -0.57510
C30 C -0.2232(9) -0.2687(5) -0.5169(4)
C31 C -0.3200(8) -0.2266(4) -0.4395(4)
H41 H -0.28870 -0.27570 -0.39940
C32 C -0.5148(8) -0.2041(4) -0.4471(3)
C33 C -0.5235(9) -0.2204(5) -0.5320(4)
O7 O -0.3599(6) -0.2489(3) -0.5688(3)
O8 O -0.6027(5) -0.2673(3) -0.4015(2)
C34 C -0.5979(9) -0.3559(5) -0.4275(4)
C35 C -0.6993(8) -0.4081(4) -0.3736(4)
C36 C -0.7024(9) -0.5020(5) -0.3939(4)
H42 H -0.64270 -0.52980 -0.44070
C37 C -0.7906(8) -0.5545(5) -0.3473(4)
H43 H -0.79050 -0.61920 -0.36030
C38 C -0.8794(9) -0.5109(5) -0.2810(4)
N2 N -0.9728(8) -0.5655(5) -0.2287(4)
O9 O -0.9718(7) -0.6502(4) -0.2478(4)
O10 O -1.0490(8) -0.5273(5) -0.1701(4)
C39 C -0.8805(10) -0.4192(5) -0.2597(5)
H44 H -0.94430 -0.39140 -0.21360
C40 C -0.7870(9) -0.3666(5) -0.3061(4)
H45 H -0.78350 -0.30310 -0.29150
C41 C -0.1439(19) -0.1602(9) -0.2959(6)
H46 H -0.04000 -0.13510 -0.30190
H47 H -0.11170 -0.22860 -0.31310
H48 H -0.19180 -0.15590 -0.24280
C42 C -0.2673(17) 0.0037(7) -0.3405(5)
H49 H -0.34960 0.04590 -0.37140
H50 H -0.14760 0.00440 -0.35960
H51 H -0.29320 0.02780 -0.28830
C43 C -0.1366(11) -0.3777(6) -0.5178(5)
H52 H -0.09790 -0.40080 -0.56980
H53 H -0.22070 -0.41210 -0.49490
H54 H -0.03550 -0.39060 -0.48910
O11 O -0.6526(7) -0.2038(4) -0.5624(3)
O12 O -0.5232(8) -0.3899(4) -0.4872(3)
C44 C 0.7488(8) -0.9234(4) -0.5707(3)
H55 H 0.63050 -0.93420 -0.56230
H56 H 0.82150 -0.96540 -0.53540
C45 C 0.8280(9) -0.9564(5) -0.6517(4)
H57 H 0.72980 -0.95150 -0.68200
H58 H 0.89120 -1.02650 -0.65040
C46 C 0.9546(13) -0.9023(7) -0.6942(6)
H59 H 0.89150 -0.83270 -0.69870
H60 H 0.98980 -0.93040 -0.74570
C47 C 1.1270(8) -0.9089(5) -0.6542(4)
C48 C 1.0755(7) -0.8743(4) -0.5724(4)
H61 H 1.04900 -0.93080 -0.54400
C49 C 1.2037(8) -0.8397(5) -0.5296(4)
H62 H 1.24220 -0.78580 -0.55580
H63 H 1.30750 -0.89380 -0.52200
C50 C 1.0901(8) -0.8042(5) -0.4542(4)
H64 H 1.07320 -0.85990 -0.42310
H65 H 1.14280 -0.76280 -0.42520
C51 C 0.9165(8) -0.7447(5) -0.4808(3)
C52 C 0.9085(8) -0.7880(4) -0.5582(3)
H66 H 0.90930 -0.73780 -0.59790
C53 C 0.7344(8) -0.8175(4) -0.5520(3)
C54 C 0.6562(8) -0.7919(4) -0.4701(4)
O13 O 0.7675(6) -0.7613(3) -0.4318(2)
O14 O 0.6189(5) -0.7648(3) -0.6061(2)
C55 C 0.5264(8) -0.6723(4) -0.5918(4)
C56 C 0.4202(7) -0.6320(4) -0.6535(4)
C57 C 0.2929(8) -0.5425(5) -0.6403(4)
H67 H 0.27380 -0.51070 -0.59250
C58 C 0.1951(8) -0.5009(5) -0.6975(4)
H68 H 0.10580 -0.44150 -0.68920
C59 C 0.2304(8) -0.5473(5) -0.7659(4)
N3 N 0.1338(8) -0.4988(5) -0.8280(3)
O15 O 0.0122(6) -0.4249(4) -0.8119(3)
O16 O 0.1786(8) -0.5333(4) -0.8916(3)
C60 C 0.3536(9) -0.6337(5) -0.7809(4)
H69 H 0.37370 -0.66320 -0.82960
C61 C 0.4497(8) -0.6778(5) -0.7236(4)
H70 H 0.53470 -0.73880 -0.73230
C62 C 1.2156(15) -0.8365(8) -0.7013(7)
H71 H 1.14090 -0.76960 -0.69380
H72 H 1.23090 -0.85450 -0.75470
H73 H 1.33000 -0.84030 -0.68460
C63 C 1.2448(15) -1.0113(8) -0.6632(7)
H74 H 1.27800 -1.02750 -0.71680
H75 H 1.18270 -1.05730 -0.64010
H76 H 1.35010 -1.01560 -0.63850
C64 C 0.9017(9) -0.6362(5) -0.4794(4)
H77 H 0.89830 -0.61420 -0.42750
H78 H 0.79420 -0.60090 -0.50000
H79 H 1.00300 -0.62330 -0.50990
O17 O 0.5189(6) -0.8020(4) -0.4422(3)
O18 O 0.5318(6) -0.6271(3) -0.5356(3)
H80? H 0.78880 -0.90190 -0.68620
H81? H 0.78370 -1.01150 -0.66650
C65? C 1.032(2) -0.9889(12) -0.6603(10)
H82? H 1.06910 -1.03800 -0.62150
H83? H 1.07270 -1.02210 -0.70990
C66? C 1.107(3) -0.8369(14) -0.711(1)
H84? H 0.98250 -0.80480 -0.71210
H85? H 1.15660 -0.86810 -0.75990
H86? H 1.16840 -0.78820 -0.70000
C67? C 1.330(2) -0.9656(13) -0.657(1)
H87? H 1.37410 -0.99240 -0.70780
H88? H 1.34450 -1.01900 -0.62100
H89? H 1.39640 -0.92010 -0.64410
C68 C -0.8580(8) -0.1594(5) -0.9931(4)
H90 H -0.74590 -0.14240 -0.99100
H91 H -0.93760 -0.10420 -1.01640
C69 C -0.8229(9) -0.2520(6) -1.0449(4)
H92 H -0.83080 -0.22980 -1.09740
H93 H -0.70100 -0.29090 -1.04200
C70 C -0.9445(15) -0.3209(9) -1.0284(7)
H94 H -0.90610 -0.37550 -1.06560
H95 H -0.92580 -0.34930 -0.97820
C71 C -1.1439(9) -0.2763(6) -1.0297(4)
C72 C -1.2051(8) -0.1871(5) -0.9766(4)
H96 H -1.17750 -0.13100 -1.00520
C73 C -1.3978(8) -0.1540(5) -0.9458(4)
H97 H -1.43820 -0.20830 -0.92130
H98 H -1.47190 -0.12710 -0.98590
C74 C -1.3988(8) -0.0746(5) -0.8885(4)
H99 H -1.39120 -0.01320 -0.91390
H100 H -1.50620 -0.06120 -0.85240
C75 C -1.2362(8) -0.1180(5) -0.8488(4)
C76 C -1.1135(7) -0.1953(4) -0.9038(3)
H101 H -1.09980 -0.26200 -0.88240
C77 C -0.9370(7) -0.1702(5) -0.9133(3)
C78 C -0.9724(8) -0.0724(4) -0.8702(4)
O19 O -1.1411(5) -0.0433(3) -0.8409(2)
O20 O -0.7962(5) -0.2452(3) -0.8831(2)
C79 C -0.7829(8) -0.2455(4) -0.8092(3)
C80 C -0.6268(8) -0.3238(4) -0.7900(3)
C81 C -0.5859(8) -0.3231(4) -0.7161(3)
H102 H -0.65200 -0.27300 -0.68170
C82 C -0.4477(8) -0.3961(4) -0.6932(4)
H103 H -0.41820 -0.39740 -0.64320
C83 C -0.3553(8) -0.4665(4) -0.7458(4)
N4 N -0.2131(7) -0.5473(4) -0.7218(3)
O21 O -0.1840(6) -0.5484(4) -0.6557(3)
O22 O -0.1299(7) -0.6090(4) -0.7697(3)
C84 C -0.3902(8) -0.4679(5) -0.8193(3)
H104 H -0.32250 -0.51740 -0.85370
C85 C -0.5282(8) -0.3940(5) -0.8415(4)
H105 H -0.55440 -0.39200 -0.89200
C86 C -1.2131(17) -0.3627(9) -0.9958(7)
H106 H -1.20100 -0.36690 -0.94190
H107 H -1.14500 -0.42400 -1.02100
H108 H -1.33660 -0.35160 -1.00320
C87 C -1.2205(16) -0.2550(9) -1.1001(7)
H109 H -1.19630 -0.31540 -1.13010
H110 H -1.16950 -0.20760 -1.12820
H111 H -1.34730 -0.22770 -1.08950
C88 C -1.2829(9) -0.1561(6) -0.7714(4)
H112 H -1.35510 -0.10180 -0.73920
H113 H -1.17550 -0.18630 -0.74880
H114 H -1.34830 -0.20480 -0.77630
O23 O -0.8728(6) -0.0237(3) -0.8683(3)
O24 O -0.8814(6) -0.1909(3) -0.7634(3)
H115? H -0.72070 -0.25300 -1.08220
H116? H -0.79080 -0.31070 -1.01360
C89? C -0.967(2) -0.2594(14) -1.0852(11)
H117? H -0.92460 -0.31460 -1.12180
H118? H -1.00470 -0.19890 -1.11410
#END
