
#######################################################################
#
#                 Cambridge Crystallographic Data Centre
#                                CCDC
#
#######################################################################
#
# If this CIF has been generated from an entry in the Cambridge
# Structural Database, then it will include bibliographic, chemical,
# crystal, experimental, refinement or atomic coordinate data resulting
# from the CCDC's data processing and validation procedures.
#
#######################################################################

data_CSD_CIF_BIGQAJ
_audit_creation_date 1999-12-03
_audit_creation_method CSD-ConQuest-V1
_database_code_CSD BIGQAJ
_database_code_depnum_ccdc_archive 'CCDC 121466'
_database_code_depnum_ccdc_journal 182/1211
_chemical_formula_sum 'C8 H9 N1 O3'
_chemical_formula_moiety
;
C8 H9 N1 O3
;
_journal_coden_Cambridge 182
_journal_year 1999
_journal_page_first 805
_journal_name_full 'Chem.Commun. '
loop_
_publ_author_name
"Ming-Chang P.Yeh"
"Li-Wen Chuang"
"Ya-Sheng Hsieh"
"Ming-Shan Tsai"
_chemical_name_systematic
;
8-Oxo-7-oxabicyclo(4.3.0)non-4-ene-2-oxime
;
_cell_volume    791.215
_exptl_crystal_colour 'colorless'
_exptl_crystal_density_diffrn 1.403
_exptl_crystal_description 'prism'
_exptl_crystal_preparation 'hexane/ethyl acetate'
_diffrn_ambient_temperature ?
_diffrn_special_details
;
The study was carried out at room temperature,in the range 283-303K

;
#These two values have been output from a single CSD field.
_refine_ls_R_factor_gt 0.039
_refine_ls_wR_factor_gt 0.039
_symmetry_cell_setting monoclinic
_symmetry_space_group_name_H-M 'P 21/c'
_symmetry_Int_Tables_number 14
loop_
_symmetry_equiv_pos_site_id
_symmetry_equiv_pos_as_xyz
1 x,y,z
2 x,1/2-y,1/2+z
3 -x,-y,-z
4 -x,-1/2+y,-1/2-z
_cell_length_a 9.535(2)
_cell_length_b 7.052(1)
_cell_length_c 12.691(3)
_cell_angle_alpha 90
_cell_angle_beta 112.0(2)
_cell_angle_gamma 90
_cell_formula_units_Z 4
loop_
_atom_type_symbol
_atom_type_radius_bond
C 0.68
H 0.23
N 0.68
O 0.68
loop_
_atom_site_label
_atom_site_type_symbol
_atom_site_fract_x
_atom_site_fract_y
_atom_site_fract_z
O1 O 0.1940(2) 0.4190(2) 0.4207(1)
O2 O -0.5143(2) 0.2348(2) -0.0118(1)
O3 O -0.4827(1) 0.2560(3) 0.1698(1)
N1 N 0.1104(2) 0.2562(3) 0.4196(1)
C1 C -0.0332(2) 0.2876(3) 0.3734(2)
C2 C -0.1048(2) 0.4733(3) 0.3271(2)
C3 C -0.2663(2) 0.4511(3) 0.2404(2)
C4 C -0.2811(2) 0.3679(3) 0.1259(2)
C5 C -0.4348(2) 0.2804(3) 0.0837(2)
C6 C -0.3613(2) 0.3135(4) 0.2774(2)
C7 C -0.2774(3) 0.1389(4) 0.3317(2)
C8 C -0.1286(3) 0.1281(3) 0.3724(2)
H1 H -0.10800 0.56000 0.39600
H2 H -0.03900 0.54300 0.28500
H3 H -0.32000 0.58800 0.22600
H4 H -0.19500 0.26200 0.13600
H5 H -0.27400 0.47800 0.06900
H6 H -0.40900 0.38400 0.33200
H7 H -0.34300 0.01700 0.33500
H8 H -0.07800 -0.00600 0.40600
H9 H 0.29500 0.37500 0.45900
#END
