
#######################################################################
#
#                 Cambridge Crystallographic Data Centre
#                                CCDC
#
#######################################################################
#
# If this CIF has been generated from an entry in the Cambridge
# Structural Database, then it will include bibliographic, chemical,
# crystal, experimental, refinement or atomic coordinate data resulting
# from the CCDC's data processing and validation procedures.
#
#######################################################################

data_CSD_CIF_BIGQUD
_audit_creation_date 1999-12-03
_audit_creation_method CSD-ConQuest-V1
_database_code_CSD BIGQUD
_database_code_depnum_ccdc_archive 'CCDC 121473'
_database_code_depnum_ccdc_journal 182/1202
_chemical_formula_sum 'C26 H26 N2 O6'
_chemical_formula_moiety
;
C26 H26 N2 O6
;
_journal_coden_Cambridge 182
_journal_year 1999
_journal_page_first 855
_journal_name_full 'Chem.Commun. '
loop_
_publ_author_name
"G.J.Kuster"
"F.Kalmoua"
"R.de Gelder"
"H.W.Scheeren"
_chemical_name_systematic
;
(2R,3S,3aS,4S,6S)-6-((4-Methoxybenzyl)oxy)-3-nitro-2,4-diphenylperhydroisoxazo
lo(2,3-b)(1,2)oxazine
;
_cell_volume   1182.988
_exptl_crystal_colour 'colorless'
_exptl_crystal_density_diffrn 1.298
_exptl_crystal_description 'regular fragment'
_diffrn_ambient_temperature ?
_diffrn_special_details
;
The study was carried out at room temperature,in the range 283-303K

;
#These two values have been output from a single CSD field.
_refine_ls_R_factor_gt 0.0422
_refine_ls_wR_factor_gt 0.0422
_symmetry_cell_setting triclinic
_symmetry_space_group_name_H-M 'P -1'
_symmetry_Int_Tables_number 2
loop_
_symmetry_equiv_pos_site_id
_symmetry_equiv_pos_as_xyz
1 x,y,z
2 -x,-y,-z
_cell_length_a 8.9646(6)
_cell_length_b 9.4791(8)
_cell_length_c 14.7752(4)
_cell_angle_alpha 95.628(5)
_cell_angle_beta 100.851(5)
_cell_angle_gamma 103.968(6)
_cell_formula_units_Z 2
loop_
_atom_type_symbol
_atom_type_radius_bond
C 0.68
H 0.23
N 0.68
O 0.68
loop_
_atom_site_label
_atom_site_type_symbol
_atom_site_fract_x
_atom_site_fract_y
_atom_site_fract_z
O1 O 0.65849(12) 0.0516(1) 0.36818(7)
O2 O 0.74255(12) -0.12340(13) 0.60038(7)
O3 O 1.03427(18) 0.24607(16) 0.99161(9)
O4 O 0.5549(3) -0.32831(15) 0.21719(12)
O5 O 0.3275(3) -0.3179(2) 0.14467(11)
O6 O 0.72078(11) -0.13657(12) 0.43835(7)
N1 N 0.4472(2) -0.27031(16) 0.20459(10)
N2 N 0.60521(13) -0.04867(12) 0.42586(8)
C1 C 0.61888(17) -0.02163(15) 0.27257(10)
H1 H 0.6988(19) -0.0729(18) 0.2641(11)
C2 C 0.46009(18) -0.13212(15) 0.26669(10)
H2 H 0.369(2) -0.0998(19) 0.2353(12)
C3 C 0.45623(16) -0.14996(14) 0.36892(9)
H3 H 0.3723(18) -0.1071(17) 0.3831(10)
C4 C 0.43176(17) -0.30361(15) 0.39873(10)
H4 H 0.4842(18) -0.3587(18) 0.3640(11)
C5 C 0.51367(19) -0.28172(18) 0.50193(10)
H5 H 0.474(2) -0.212(2) 0.5394(12)
H6 H 0.497(2) -0.378(2) 0.5264(12)
C6 C 0.68925(19) -0.21371(18) 0.5140(1)
H7 H 0.7486(19) -0.2905(19) 0.5112(11)
C7 C 0.9100(2) -0.0648(3) 0.62805(13)
H8 H 0.949(3) -0.007(2) 0.5839(16)
H9 H 0.955(3) -0.147(3) 0.6239(15)
C8 C 0.94706(18) 0.0197(2) 0.72395(11)
C9 C 0.8858(2) -0.0431(2) 0.79507(12)
H10 H 0.820(2) -0.139(2) 0.7825(13)
C10 C 0.9162(2) 0.0352(2) 0.88265(12)
H11 H 0.875(2) -0.008(2) 0.9337(16)
C11 C 1.0113(2) 0.1774(2) 0.90220(12)
C12 C 1.0758(2) 0.2408(2) 0.83383(14)
H12 H 1.144(3) 0.347(3) 0.8469(16)
C13 C 1.0412(2) 0.1613(2) 0.74493(13)
H13 H 1.079(2) 0.201(2) 0.6973(14)
C14 C 1.1450(5) 0.3846(4) 1.0193(3)
H14 H 1.141(4) 0.415(4) 1.083(3)
H15 H 1.115(4) 0.447(4) 0.972(2)
H16 H 1.250(5) 0.374(4) 1.004(3)
C15 C 0.61481(16) 0.09085(15) 0.20838(10)
C16 C 0.5346(2) 0.19711(18) 0.22109(13)
H17 H 0.486(2) 0.197(2) 0.2769(15)
C17 C 0.5268(3) 0.2966(2) 0.15979(17)
H18 H 0.464(3) 0.373(3) 0.1687(18)
C18 C 0.5966(3) 0.2905(3) 0.08483(19)
H19 H 0.589(3) 0.359(3) 0.0423(18)
C19 C 0.6779(3) 0.1882(3) 0.07269(18)
H20 H 0.729(3) 0.184(3) 0.018(2)
C20 C 0.6877(2) 0.0883(2) 0.13444(14)
H21 H 0.748(3) 0.019(2) 0.1280(15)
C21 C 0.25980(19) -0.38590(15) 0.37825(10)
C22 C 0.2000(3) -0.5077(2) 0.30976(14)
H22 H 0.271(3) -0.539(3) 0.2762(17)
C23 C 0.0427(3) -0.5813(3) 0.28929(19)
H23 H -0.001(3) -0.666(3) 0.238(2)
C24 C -0.0573(3) -0.5369(3) 0.3371(2)
H24 H -0.163(4) -0.586(3) 0.326(2)
C25 C -0.0003(3) -0.4177(3) 0.4064(2)
H25 H -0.062(3) -0.382(3) 0.4454(18)
C26 C 0.1571(2) -0.3416(2) 0.42713(14)
H26 H 0.204(2) -0.253(2) 0.4778(15)
#END
