
#######################################################################
#
#                 Cambridge Crystallographic Data Centre
#                                CCDC
#
#######################################################################
#
# If this CIF has been generated from an entry in the Cambridge
# Structural Database, then it will include bibliographic, chemical,
# crystal, experimental, refinement or atomic coordinate data resulting
# from the CCDC's data processing and validation procedures.
#
#######################################################################

data_CSD_CIF_BIGWUK
_audit_creation_date 2005-01-20
_audit_creation_method CSD-ConQuest-V1
_database_code_CSD BIGWUK
_database_code_depnum_ccdc_archive 'CCDC 230790'
_chemical_formula_sum 'C15 H15 N1 O4'
_chemical_formula_moiety
;
C15 H15 N1 O4
;
_journal_coden_Cambridge 182
_journal_year 2004
_journal_page_first 1932
_journal_name_full 'Chem.Commun. '
loop_
_publ_author_name
"C.S.Penkett"
"R.O.Sims"
"R.French"
"L.Dray"
"S.J.Roome"
"P.B.Hitchcock"
_chemical_name_systematic
;
7-(Hydroxymethyl)-4-(2-nitrophenyl)bicyclo(3.2.1)oct-2-en-8-one
;
_cell_volume   2700.503
_exptl_crystal_colour 'colorless'
_exptl_crystal_density_diffrn 1.344
_exptl_crystal_description 'prism'
_diffrn_ambient_temperature 173
#These two values have been output from a single CSD field.
_refine_ls_R_factor_gt 0.038
_refine_ls_wR_factor_gt 0.038
_symmetry_cell_setting monoclinic
_symmetry_space_group_name_H-M 'C c'
_symmetry_Int_Tables_number 9
loop_
_symmetry_equiv_pos_site_id
_symmetry_equiv_pos_as_xyz
1 x,y,z
2 x,-y,1/2+z
3 1/2+x,1/2+y,z
4 1/2+x,1/2-y,1/2+z
_cell_length_a 25.7419(4)
_cell_length_b 7.9982(2)
_cell_length_c 14.0165(3)
_cell_angle_alpha 90
_cell_angle_beta 110.646(1)
_cell_angle_gamma 90
_cell_formula_units_Z 8
loop_
_atom_type_symbol
_atom_type_radius_bond
C 0.68
H 0.23
N 0.68
O 0.68
loop_
_atom_site_label
_atom_site_type_symbol
_atom_site_fract_x
_atom_site_fract_y
_atom_site_fract_z
O1 O 0.13322(6) 0.20726(16) 0.08854(11)
O2 O 0.12113(6) -0.4454(2) 0.09641(13)
H1 H 0.1162(11) -0.554(4) 0.093(2)
O3 O -0.13478(6) 0.34105(19) -0.00141(12)
O4 O -0.05715(7) 0.2601(2) 0.11073(12)
N1 N -0.08462(7) 0.3174(2) 0.02693(13)
C1 C 0.06334(8) -0.1129(2) -0.04629(15)
H2 H 0.06960 -0.18750 -0.09380
C2 C 0.01500(8) -0.0331(2) -0.07199(15)
H3 H -0.01190 -0.05390 -0.13750
C3 C 0.00049(7) 0.0890(2) -0.00261(14)
H4 H -0.03340 0.04550 0.00810
C4 C 0.04820(7) 0.0944(2) 0.10410(13)
H5 H 0.04540 0.19390 0.14520
C5 C 0.05037(9) -0.0714(3) 0.16144(16)
H6 H 0.01380 -0.12770 0.13600
H7 H 0.06040 -0.05040 0.23540
C6 C 0.09531(8) -0.1822(2) 0.14130(15)
H8 H 0.12930 -0.18210 0.20430
C7 C 0.10873(8) -0.0879(2) 0.05687(15)
H9 H 0.14670 -0.11300 0.05630
C8 C 0.10208(7) 0.0910(2) 0.08421(13)
C9 C 0.07711(8) -0.3614(2) 0.11529(17)
H10 H 0.06950 -0.41490 0.17270
H11 H 0.04290 -0.36570 0.05410
C10 C -0.01403(7) 0.2595(2) -0.05318(13)
C11 C 0.01111(8) 0.3171(2) -0.12017(14)
H12 H 0.04010 0.25290 -0.12930
C12 C -0.00489(8) 0.4654(3) -0.17400(15)
H13 H 0.01350 0.50160 -0.21830
C13 C -0.04723(8) 0.5608(2) -0.16383(15)
H14 H -0.05860 0.66090 -0.20210
C14 C -0.07297(8) 0.5094(2) -0.09755(15)
H15 H -0.10220 0.57370 -0.08940
C15 C -0.05558(7) 0.3630(2) -0.04318(14)
O5 O 0.37676(6) 0.4067(2) 0.87126(12)
O6 O 0.39953(8) 0.7269(3) 0.56438(15)
H16 H 0.3891(12) 0.661(4) 0.512(2)
O7 O 0.12469(7) 0.5879(2) 0.83899(17)
O8 O 0.20416(7) 0.7007(2) 0.86351(15)
N2 N 0.17405(7) 0.5786(2) 0.85063(13)
C16 C 0.30249(8) 0.4339(3) 0.62201(16)
H17 H 0.30360 0.38520 0.56100
C17 C 0.25449(8) 0.4357(3) 0.63728(14)
H18 H 0.22300 0.38690 0.58710
C18 C 0.24772(7) 0.5118(2) 0.73098(13)
H19 H 0.21680 0.59510 0.70780
C19 C 0.30184(7) 0.6069(2) 0.79370(13)
H20 H 0.30240 0.64130 0.86260
C20 C 0.31135(8) 0.7561(2) 0.73088(16)
H21 H 0.32330 0.85660 0.77440
H22 H 0.27680 0.78280 0.67340
C21 C 0.35755(8) 0.6985(2) 0.69079(14)
H23 H 0.39400 0.73720 0.74030
C22 C 0.35567(8) 0.5059(3) 0.69752(15)
H24 H 0.38990 0.45000 0.69510
C23 C 0.34893(7) 0.4915(3) 0.79896(15)
C24 C 0.35147(10) 0.7669(4) 0.58777(18)
H25 H 0.31820 0.71830 0.53550
H26 H 0.34670 0.88970 0.58740
C25 C 0.23247(7) 0.3805(2) 0.79568(13)
C26 C 0.25195(8) 0.2166(2) 0.80083(16)
H27 H 0.27550 0.18790 0.76430
C27 C 0.23791(9) 0.0947(3) 0.85760(18)
H28 H 0.25200 -0.01560 0.85970
C28 C 0.20348(10) 0.1330(3) 0.91119(18)
H29 H 0.19400 0.04920 0.95020
C29 C 0.18319(9) 0.2909(3) 0.90788(16)
H30 H 0.15930 0.31780 0.94410
C30 C 0.19777(8) 0.4124(2) 0.85106(15)
#END
