
#######################################################################
#
#                 Cambridge Crystallographic Data Centre
#                                CCDC
#
#######################################################################
#
# If this CIF has been generated from an entry in the Cambridge
# Structural Database, then it will include bibliographic, chemical,
# crystal, experimental, refinement or atomic coordinate data resulting
# from the CCDC's data processing and validation procedures.
#
#######################################################################

data_CSD_CIF_BIGZOH
_audit_creation_date 2005-01-20
_audit_creation_method CSD-ConQuest-V1
_database_code_CSD BIGZOH
_database_code_depnum_ccdc_archive 'CCDC 236553'
_chemical_formula_sum 'C23 H41 N1 O8'
_chemical_formula_moiety
;
C23 H41 N1 O8
;
_journal_coden_Cambridge 182
_journal_year 2004
_journal_page_first 1962
_journal_name_full 'Chem.Commun. '
loop_
_publ_author_name
"S.A.Johannesen"
"S.Albu"
"R.G.Hazell"
"T.Skrydstrup"
_chemical_name_systematic
;
(R)-N-(3-n-Butoxycarbonyl-1-isopropylpropyl)-2,3:5,6-bis(O-isopropylidene)-D-m
annose-imine N-oxide
;
_cell_volume   2612.076
_exptl_crystal_colour 'colorless'
_exptl_crystal_density_diffrn 1.169
_exptl_crystal_description 'needle'
_diffrn_ambient_temperature 120
#These two values have been output from a single CSD field.
_refine_ls_R_factor_gt 0.047
_refine_ls_wR_factor_gt 0.047
_symmetry_cell_setting orthorhombic
_symmetry_space_group_name_H-M 'P 21 21 21'
_symmetry_Int_Tables_number 19
loop_
_symmetry_equiv_pos_site_id
_symmetry_equiv_pos_as_xyz
1 x,y,z
2 1/2-x,-y,1/2+z
3 -x,1/2+y,1/2-z
4 1/2+x,1/2-y,-z
_cell_length_a 6.540(7)
_cell_length_b 19.97(2)
_cell_length_c 20.00(2)
_cell_angle_alpha 90
_cell_angle_beta 90
_cell_angle_gamma 90
_cell_formula_units_Z 4
loop_
_atom_type_symbol
_atom_type_radius_bond
C 0.68
H 0.23
N 0.68
O 0.68
loop_
_atom_site_label
_atom_site_type_symbol
_atom_site_fract_x
_atom_site_fract_y
_atom_site_fract_z
O1 O 0.4986(4) 0.0818(1) 0.1601(1)
O2 O 0.9671(4) 0.1636(1) 0.2658(1)
O3 O 1.1061(4) 0.1993(1) 0.1695(1)
O4 O 1.0997(4) 0.0594(1) 0.1357(1)
O5 O 0.9746(4) 0.1819(1) 0.0058(1)
O6 O 0.9389(4) 0.0820(1) -0.0486(1)
O7 O 0.0130(5) -0.0303(2) 0.3311(1)
O8 O 0.1472(4) 0.0421(1) 0.4049(1)
N1 N 0.6175(5) 0.0466(2) 0.1993(2)
C1 C 0.7796(6) 0.0727(2) 0.2258(2)
C2 C 0.8228(5) 0.1441(2) 0.2152(2)
C3 C 0.9252(6) 0.1654(2) 0.1488(2)
C4 C 0.9822(6) 0.1089(2) 0.1026(2)
C5 C 1.0954(6) 0.1336(2) 0.0411(2)
C6 C 1.1240(7) 0.0783(2) -0.0107(2)
C7 C 0.5587(6) -0.0243(2) 0.2121(2)
C8 C 0.3542(6) -0.0273(2) 0.2486(2)
C9 C 0.3522(6) 0.0120(2) 0.3139(2)
C10 C 0.1528(7) 0.0048(2) 0.3498(2)
C11 C -0.0390(7) 0.0392(2) 0.4448(2)
C12 C -0.1820(7) 0.0940(3) 0.4254(2)
C13 C -0.1047(9) 0.1634(3) 0.4389(2)
C14 C -0.2557(12) 0.2178(3) 0.4216(3)
C15 C 0.5622(6) -0.0616(2) 0.1453(2)
C16 C 0.7811(7) -0.0716(2) 0.1209(2)
C17 C 0.4497(8) -0.1266(2) 0.1475(3)
C18 C 0.8902(6) 0.1517(2) -0.0529(2)
C19 C 0.6604(6) 0.1581(2) -0.0511(2)
C20 C 0.9847(7) 0.1829(2) -0.1136(2)
C21 C 1.0862(7) 0.2170(2) 0.2376(2)
C22 C 1.2915(7) 0.2152(2) 0.2701(2)
C23 C 0.9770(7) 0.2832(2) 0.2455(2)
H1 H 1.20890 0.07890 0.15320
H2 H 0.87010 0.04590 0.25150
H3 H 0.70020 0.16900 0.22120
H4 H 0.83830 0.19580 0.12590
H5 H 0.85900 0.08850 0.08800
H6 H 1.22390 0.15220 0.05320
H7 H 1.23980 0.08690 -0.03810
H8 H 1.13830 0.03590 0.01000
H9 H 0.65990 -0.04370 0.24020
H10 H 0.32430 -0.07280 0.25850
H11 H 0.25150 -0.00960 0.22020
H12 H 0.37430 0.05800 0.30430
H13 H 0.45860 -0.00410 0.34190
H14 H -0.00460 0.04370 0.49080
H15 H -0.10400 -0.00280 0.43780
H16 H -0.30590 0.08810 0.44970
H17 H -0.20880 0.09030 0.37890
H18 H 0.01570 0.17010 0.41330
H19 H -0.07320 0.16680 0.48510
H20 H -0.20620 0.26170 0.43000
H21 H -0.37590 0.21100 0.44710
H22 H -0.28700 0.21430 0.37530
H23 H 0.49540 -0.03380 0.11360
H24 H 0.78320 -0.09470 0.07950
H25 H 0.85440 -0.09690 0.15320
H26 H 0.84410 -0.02910 0.11550
H27 H 0.45180 -0.14970 0.10580
H28 H 0.31120 -0.11790 0.15900
H29 H 0.51030 -0.15430 0.18040
H30 H 0.60430 0.13800 -0.09010
H31 H 0.62380 0.20410 -0.04990
H32 H 0.60860 0.13620 -0.01250
H33 H 0.92840 0.16270 -0.15270
H34 H 1.12820 0.17600 -0.11300
H35 H 0.95630 0.22950 -0.11410
H36 H 1.37050 0.25030 0.25140
H37 H 1.35590 0.17320 0.26170
H38 H 1.27790 0.22140 0.31690
H39 H 1.05550 0.31840 0.22690
H40 H 0.95580 0.29170 0.29190
H41 H 0.84820 0.28110 0.22360
#END
