
#######################################################################
#
#                 Cambridge Crystallographic Data Centre
#                                CCDC
#
#######################################################################
#
# If this CIF has been generated from an entry in the Cambridge
# Structural Database, then it will include bibliographic, chemical,
# crystal, experimental, refinement or atomic coordinate data resulting
# from the CCDC's data processing and validation procedures.
#
#######################################################################

data_CSD_CIF_BIHDIH
_audit_creation_date 2013-07-08
_audit_creation_method CSD-ConQuest-V1
_database_code_CSD BIHDIH
_database_code_depnum_ccdc_archive 'CCDC 917941'
_chemical_formula_sum 'C26 H20 N2 O1'
_chemical_formula_moiety
;
C26 H20 N2 O1
;
_journal_coden_Cambridge 35
_journal_volume 78
_journal_year 2013
_journal_page_first 4297
_journal_name_full 'J.Org.Chem. '
loop_
_publ_author_name
"Na An"
"Bo-Xue Tian"
"Hong-Jun Pi"
"L.A.Eriksson"
"Wei-Ping Deng"
_chemical_name_systematic
;
N-((((Diphenylmethylene)amino)oxy)(phenyl)methylene)aniline
;
_cell_volume    984.654
_exptl_crystal_colour 'colorless'
_exptl_crystal_density_diffrn 1.27
_exptl_crystal_description 'needle'
_diffrn_ambient_temperature 293
#These two values have been output from a single CSD field.
_refine_ls_R_factor_gt 0.0691
_refine_ls_wR_factor_gt 0.0691
_symmetry_cell_setting triclinic
_symmetry_space_group_name_H-M 'P -1'
_symmetry_Int_Tables_number 2
loop_
_symmetry_equiv_pos_site_id
_symmetry_equiv_pos_as_xyz
1 x,y,z
2 -x,-y,-z
_cell_length_a 10.010(3)
_cell_length_b 10.641(5)
_cell_length_c 10.743(3)
_cell_angle_alpha 83.155(7)
_cell_angle_beta 75.634(5)
_cell_angle_gamma 62.657(4)
_cell_formula_units_Z 2
loop_
_atom_type_symbol
_atom_type_radius_bond
C 0.68
H 0.23
N 0.68
O 0.68
loop_
_atom_site_label
_atom_site_type_symbol
_atom_site_fract_x
_atom_site_fract_y
_atom_site_fract_z
O1 O 0.0971(3) 0.1523(2) 0.3767(2)
N1 N 0.0161(3) 0.2571(3) 0.4757(3)
N2 N 0.2640(3) -0.0031(3) 0.5113(3)
C1 C -0.1917(4) 0.4770(3) 0.5348(3)
C2 C -0.1523(4) 0.4731(3) 0.6485(3)
H1 H -0.06550 0.39570 0.66730
C3 C -0.2383(5) 0.5810(4) 0.7357(4)
H2 H -0.20940 0.57530 0.81280
C4 C -0.3658(5) 0.6963(4) 0.7105(4)
H3 H -0.42170 0.77060 0.76850
C5 C -0.4100(5) 0.7010(4) 0.5991(4)
H4 H -0.49820 0.77800 0.58190
C6 C -0.3245(4) 0.5920(3) 0.5117(3)
H5 H -0.35640 0.59570 0.43640
C7 C -0.0980(4) 0.3618(3) 0.4385(3)
C8 C -0.1425(4) 0.3706(3) 0.3141(3)
C9 C -0.1338(4) 0.4729(3) 0.2232(3)
H6 H -0.10220 0.53720 0.24120
C10 C -0.1711(5) 0.4795(4) 0.1081(3)
H7 H -0.16190 0.54660 0.04720
C11 C -0.2224(4) 0.3881(4) 0.0810(3)
H8 H -0.24930 0.39400 0.00290
C12 C -0.2332(4) 0.2883(4) 0.1709(4)
H9 H -0.26800 0.22600 0.15400
C13 C -0.1924(4) 0.2801(4) 0.2862(3)
H10 H -0.19920 0.21140 0.34610
C14 C 0.2135(4) 0.0307(3) 0.4105(3)
C15 C 0.2901(4) -0.0665(3) 0.2988(3)
C16 C 0.2950(5) -0.0190(4) 0.1739(4)
H11 H 0.25020 0.07770 0.15680
C17 C 0.3660(5) -0.1136(4) 0.0737(4)
H12 H 0.36970 -0.08050 -0.01060
C18 C 0.4307(4) -0.2551(4) 0.0975(4)
H13 H 0.47940 -0.31850 0.02950
C19 C 0.4241(4) -0.3044(4) 0.2221(4)
H14 H 0.46590 -0.40110 0.23870
C20 C 0.3560(4) -0.2106(4) 0.3214(3)
H15 H 0.35410 -0.24430 0.40550
C21 C 0.2114(4) 0.0640(3) 0.6316(3)
C22 C 0.3093(4) 0.0967(3) 0.6739(3)
H16 H 0.40290 0.08350 0.61970
C23 C 0.2717(5) 0.1493(4) 0.7967(4)
H17 H 0.33830 0.17310 0.82400
C24 C 0.1343(5) 0.1656(4) 0.8775(4)
H18 H 0.10690 0.20160 0.95970
C25 C 0.0395(5) 0.1292(4) 0.8367(4)
H19 H -0.05140 0.13760 0.89280
C26 C 0.0737(4) 0.0798(3) 0.7144(4)
H20 H 0.00570 0.05740 0.68760
#END
