
#######################################################################
#
#                 Cambridge Crystallographic Data Centre
#                                CCDC
#
#######################################################################
#
# If this CIF has been generated from an entry in the Cambridge
# Structural Database, then it will include bibliographic, chemical,
# crystal, experimental, refinement or atomic coordinate data resulting
# from the CCDC's data processing and validation procedures.
#
#######################################################################

data_CSD_CIF_BIHGUV
_audit_creation_date 2005-01-20
_audit_creation_method CSD-ConQuest-V1
_database_code_CSD BIHGUV
_database_code_depnum_ccdc_archive 'CCDC 252571'
_chemical_formula_sum 'C8 H15 N3 O7'
_chemical_formula_moiety
;
C8 H15 N3 O7
;
_journal_coden_Cambridge 471
_journal_volume 19
_journal_year 2003
_journal_page_first x77
_journal_name_full 'Anal.Sci.:X-Ray Struct.Anal.Online '
loop_
_publ_author_name
"M.Haramura"
"A.Tanaka"
"T.Akimoto"
"N.Hirayama"
_chemical_name_systematic
;
Streptozocin
;
_chemical_name_common
;
2-Deoxy-2-(((methylnitrosamino)carbonyl)amino)-D-glucopyranose; Zanosar; 
DrugBank: DB00428
;
_cell_volume   2333.920
_exptl_crystal_colour 'colorless'
_exptl_crystal_density_diffrn 1.51
_exptl_special_details
;
used in the treatment of human pancreatic islet cell carcinoma and malignant 
carcinoid tumors
;
_exptl_crystal_preparation 'acetone'
_diffrn_ambient_temperature 293.1
#These two values have been output from a single CSD field.
_refine_ls_R_factor_gt 0.047
_refine_ls_wR_factor_gt 0.047
_symmetry_cell_setting orthorhombic
_symmetry_space_group_name_H-M 'P 21 21 21'
_symmetry_Int_Tables_number 19
loop_
_symmetry_equiv_pos_site_id
_symmetry_equiv_pos_as_xyz
1 x,y,z
2 1/2+x,1/2-y,-z
3 -x,1/2+y,1/2-z
4 1/2-x,-y,1/2+z
_cell_length_a 8.5300(5)
_cell_length_b 11.4516(9)
_cell_length_c 23.893(1)
_cell_angle_alpha 90
_cell_angle_beta 90
_cell_angle_gamma 90
_cell_formula_units_Z 8
loop_
_atom_type_symbol
_atom_type_radius_bond
C 0.68
H 0.23
N 0.68
O 0.68
loop_
_atom_site_label
_atom_site_type_symbol
_atom_site_fract_x
_atom_site_fract_y
_atom_site_fract_z
O1 O 0.6670(6) -0.2927(4) 1.0764(2)
O2 O 0.3909(6) -0.2309(4) 1.2169(2)
O3 O 0.5814(7) -0.4331(4) 1.2444(2)
O4 O 0.5201(5) -0.4616(4) 1.0934(2)
O5 O 0.4737(7) -0.6629(4) 1.1782(2)
O6 O 0.2753(6) -0.1728(4) 1.0274(2)
O7 O 0.3442(8) 0.1795(4) 1.0980(3)
N1 N 0.4102(7) -0.1500(5) 1.1074(2)
N2 N 0.3136(6) 0.0126(5) 1.0598(2)
N3 N 0.3673(8) 0.0729(5) 1.1025(3)
C1 C 0.517(1) -0.3415(6) 1.0785(3)
C2 C 0.4204(9) -0.2735(6) 1.1207(2)
C3 C 0.4909(9) -0.2895(6) 1.1784(3)
C4 C 0.5070(9) -0.4182(5) 1.1916(3)
C5 C 0.596(1) -0.4819(6) 1.1453(3)
C6 C 0.611(1) -0.6112(6) 1.1551(3)
C7 C 0.3328(8) -0.1119(6) 1.0638(3)
C8 C 0.232(1) 0.0662(7) 1.0134(3)
H1 H 0.42(1) -0.716(7) 1.154(4)
H2 H 0.323(6) -0.308(4) 1.118(2)
H3 H 0.404(7) -0.448(4) 1.194(2)
H4 H 0.691(8) -0.446(5) 1.143(2)
H5 H 0.588(7) -0.256(4) 1.177(2)
H6 H 0.457(7) -0.107(5) 1.131(2)
H7 H 0.712(8) -0.300(5) 1.045(3)
H8 H 0.475(7) -0.336(5) 1.047(3)
H9 H 0.694(1) -0.6226(6) 1.1811(3)
H10 H 0.435(8) -0.225(6) 1.242(3)
H11 H 0.299(1) 0.1212(7) 0.9958(3)
H12 H 0.203(1) 0.0076(7) 0.9872(3)
H13 H 0.141(1) 0.1047(7) 1.0266(3)
H14 H 0.66(1) -0.419(7) 1.242(3)
H15 H 0.636(1) -0.6490(6) 1.1209(3)
O8 O 0.6205(6) -0.0308(4) 1.1829(2)
O9 O 1.0330(7) -0.1500(6) 1.1057(3)
O10 O 1.0694(7) -0.1840(5) 1.2257(3)
O11 O 0.8305(5) 0.0786(3) 1.2168(2)
O12 O 1.1088(6) 0.1146(5) 1.2744(2)
O13 O 0.7940(8) 0.1538(5) 1.0378(2)
O14 O 0.5451(6) -0.1092(5) 0.9365(2)
N4 N 0.7543(7) -0.0273(5) 1.0734(2)
N5 N 0.6619(7) 0.0222(5) 0.9839(2)
N6 N 0.6091(8) -0.0868(5) 0.9806(2)
C9 C 0.7383(8) 0.0495(5) 1.1698(3)
C10 C 0.8407(8) -0.0020(5) 1.1247(3)
C11 C 0.9220(8) -0.1105(6) 1.1465(3)
C12 C 1.0111(8) -0.0808(6) 1.1992(3)
C13 C 0.9074(8) -0.0182(6) 1.2410(3)
C14 C 0.9970(9) 0.0281(6) 1.2903(3)
C15 C 0.743(1) 0.0550(7) 1.0340(3)
C16 C 0.646(1) 0.1032(7) 0.9379(3)
H16 H 0.8304(8) -0.0717(6) 1.2539(3)
H17 H 0.9195(8) 0.0537(5) 1.1160(3)
H18 H 0.8474(8) -0.1700(6) 1.1540(3)
H19 H 1.0972(8) -0.0319(6) 1.1900(3)
H20 H 0.699(8) -0.108(6) 1.071(3)
H21 H 0.6912(8) 0.1187(5) 1.1557(3)
H22 H 1.0507(9) -0.0348(6) 1.3078(3)
H23 H 1.16(1) -0.199(8) 1.218(4)
H24 H 1.01(1) -0.203(8) 1.089(4)
H25 H 0.9250(9) 0.0616(6) 1.3160(3)
H26 H 0.692(1) 0.1758(7) 0.9482(3)
H27 H 0.699(1) 0.0734(7) 0.9058(3)
H28 H 0.538(1) 0.1142(7) 0.9296(3)
H29 H 0.543(7) -0.002(5) 1.204(2)
H30 H 1.060(8) 0.170(6) 1.259(3)
#END
