
#######################################################################
#
#                 Cambridge Crystallographic Data Centre
#                                CCDC
#
#######################################################################
#
# If this CIF has been generated from an entry in the Cambridge
# Structural Database, then it will include bibliographic, chemical,
# crystal, experimental, refinement or atomic coordinate data resulting
# from the CCDC's data processing and validation procedures.
#
#######################################################################

data_CSD_CIF_BIHLIP
_audit_creation_date 2013-07-08
_audit_creation_method CSD-ConQuest-V1
_database_code_CSD BIHLIP
_database_code_depnum_ccdc_archive 'CCDC 905532'
_chemical_formula_sum 'C15 H21 N1 O3'
_chemical_formula_moiety
;
C15 H21 N1 O3
;
_journal_coden_Cambridge 35
_journal_volume 78
_journal_year 2013
_journal_page_first 516
_journal_name_full 'J.Org.Chem. '
loop_
_publ_author_name
"P.Quadrelli"
"M.Mella"
"S.Carosso"
"B.Bovio"
_chemical_name_systematic
;
(5-Hydroxy-3,3-dimethyl-1,2-oxazolidin-2-yl)(mesityl)methanone
;
_cell_volume   3054.029
_exptl_crystal_colour 'orange'
_exptl_crystal_density_diffrn 1.145
_exptl_crystal_description 'Prism'
_diffrn_ambient_temperature 293
#These two values have been output from a single CSD field.
_refine_ls_R_factor_gt 0.0482
_refine_ls_wR_factor_gt 0.0482
_symmetry_cell_setting monoclinic
_symmetry_space_group_name_H-M 'P 21/c'
_symmetry_Int_Tables_number 14
loop_
_symmetry_equiv_pos_site_id
_symmetry_equiv_pos_as_xyz
1 x,y,z
2 -x,1/2+y,1/2-z
3 -x,-y,-z
4 x,-1/2-y,-1/2+z
_cell_length_a 8.551(1)
_cell_length_b 21.374(4)
_cell_length_c 17.241(2)
_cell_angle_alpha 90
_cell_angle_beta 104.26(1)
_cell_angle_gamma 90
_cell_formula_units_Z 8
loop_
_atom_type_symbol
_atom_type_radius_bond
C 0.68
H 0.23
N 0.68
O 0.68
loop_
_atom_site_label
_atom_site_type_symbol
_atom_site_fract_x
_atom_site_fract_y
_atom_site_fract_z
O1 O 0.80486(14) 0.49510(5) 0.81499(7)
N1 N 0.68425(16) 0.44954(6) 0.81340(8)
C1 C 0.52578(24) 0.46968(10) 0.76439(14)
C2 C 0.56884(29) 0.53427(11) 0.73707(19)
C3 C 0.74657(25) 0.53201(8) 0.74435(11)
C4 C 0.40574(52) 0.47439(23) 0.81606(42)
C5 C 0.47478(59) 0.42485(18) 0.69338(26)
O2 O 0.78270(23) 0.50488(7) 0.67823(8)
C6 C 0.72719(20) 0.39696(7) 0.85431(10)
O3 O 0.62444(15) 0.35644(6) 0.85632(9)
C7 C 0.89981(19) 0.38952(6) 0.89740(9)
C8 C 1.00679(23) 0.36294(8) 0.85749(10)
C9 C 1.16572(25) 0.35413(10) 0.89856(14)
C10 C 1.22230(24) 0.3714(1) 0.97691(13)
C11 C 1.11575(27) 0.39678(11) 1.01529(12)
C12 C 0.95221(23) 0.40680(8) 0.97741(10)
C13 C 0.95116(47) 0.34427(16) 0.77119(15)
C14 C 1.39889(37) 0.36274(32) 1.01742(31)
C15 C 0.84156(40) 0.43553(15) 1.02159(16)
H1 H 0.506(3) 0.546(1) 0.685(2)
H2 H 0.535(2) 0.568(2) 0.771(2)
H3 H 0.805(2) 0.5717(9) 0.760(1)
H4 H 0.314(3) 0.490(2) 0.784(2)
H5 H 0.381(4) 0.434(2) 0.833(2)
H6 H 0.450(4) 0.500(2) 0.863(3)
H7 H 0.384(3) 0.440(2) 0.660(2)
H8 H 0.579(3) 0.420(2) 0.668(2)
H9 H 0.449(3) 0.388(2) 0.716(2)
H10 H 0.888(3) 0.529(2) 0.663(2)
H11 H 1.239(2) 0.334(1) 0.872(1)
H12 H 1.154(2) 0.408(1) 1.068(1)
H13 H 1.041(2) 0.329(1) 0.750(1)
H14 H 0.872(3) 0.313(1) 0.766(1)
H15 H 0.895(3) 0.376(1) 0.739(1)
H16 H 1.436(2) 0.324(1) 1.004(1)
H17 H 1.464(3) 0.395(1) 1.003(3)
H18 H 1.402(4) 0.369(3) 1.073(3)
H19 H 0.796(2) 0.470(1) 0.988(1)
H20 H 0.892(3) 0.450(1) 1.079(2)
H21 H 0.762(3) 0.408(1) 1.028(1)
O4 O 0.94582(13) 0.21577(4) 0.94093(6)
N2 N 0.92425(16) 0.15000(5) 0.93471(7)
C16 C 0.86375(20) 0.12478(7) 1.00188(9)
C17 C 0.81435(29) 0.18572(8) 1.03755(11)
C18 C 0.82081(20) 0.23652(7) 0.97684(9)
C19 C 0.72209(30) 0.08200(12) 0.97081(16)
C20 C 0.99908(35) 0.09122(11) 1.06048(14)
O5 O 0.67550(14) 0.24195(6) 0.92213(8)
C21 C 0.98227(19) 0.12023(7) 0.88061(9)
O6 O 0.97644(18) 0.06222(5) 0.87547(8)
C22 C 1.05710(19) 0.15787(7) 0.82644(9)
C23 C 1.21686(21) 0.17764(8) 0.85332(11)
C24 C 1.28953(27) 0.20603(9) 0.79863(14)
C25 C 1.20792(28) 0.21436(8) 0.71896(13)
C26 C 1.05186(28) 0.19476(8) 0.69541(12)
C27 C 0.97234(22) 0.16711(7) 0.74746(10)
C28 C 1.30647(32) 0.16921(19) 0.93892(15)
C29 C 1.28886(64) 0.24636(16) 0.66102(27)
C30 C 0.79666(33) 0.14895(16) 0.71997(17)
H22 H 0.900(2) 0.195(1) 1.089(1)
H23 H 0.706(2) 0.183(1) 1.049(1)
H24 H 0.845(2) 0.278(9) 1.008(1)
H25 H 0.749(2) 0.042(1) 0.943(1)
H26 H 0.675(3) 0.067(1) 1.018(1)
H27 H 0.639(2) 0.105(1) 0.927(1)
H28 H 1.039(2) 0.058(1) 1.036(1)
H29 H 1.092(3) 0.121(1) 1.083(1)
H30 H 0.956(2) 0.080(1) 1.111(1)
H31 H 0.661(2) 0.280(1) 0.893(1)
H32 H 1.399(2) 0.2210(9) 0.817(1)
H33 H 0.991(3) 0.203(2) 0.642(1)
H34 H 1.409(3) 0.184(2) 0.949(2)
H35 H 1.247(3) 0.190(1) 0.976(2)
H36 H 1.287(3) 0.130(1) 0.983(1)
H37 H 1.392(2) 0.251(1) 0.686(2)
H38 H 1.249(3) 0.287(2) 0.647(2)
H39 H 1.279(4) 0.222(2) 0.616(3)
H40 H 0.731(2) 0.160(1) 0.758(2)
H41 H 0.792(2) 0.104(2) 0.711(2)
H42 H 0.752(2) 0.170(2) 0.669(2)
#END
