
#######################################################################
#
#                 Cambridge Crystallographic Data Centre
#                                CCDC
#
#######################################################################
#
# If this CIF has been generated from an entry in the Cambridge
# Structural Database, then it will include bibliographic, chemical,
# crystal, experimental, refinement or atomic coordinate data resulting
# from the CCDC's data processing and validation procedures.
#
#######################################################################

data_CSD_CIF_BIHLAI
_audit_creation_date 2018-07-11
_audit_creation_method CSD-ConQuest-V1
_database_code_CSD BIHLAI
_database_code_depnum_ccdc_archive 'CCDC 1812840'
_chemical_formula_sum 'C12 H9 N3 O1'
_chemical_formula_moiety
;
C12 H9 N3 O1
;
_journal_coden_Cambridge 1366
_journal_volume 360
_journal_year 2018
_journal_page_first 2503
_journal_name_full 'Adv.Synth.Catal. '
loop_
_publ_author_name
"M.R.Andrzejewska"
"P.K.Vuram"
"N.Pottabathini"
"V.Gurram"
"S.S.Relangi"
"K.A.Korvinson"
"R.Doddipalla"
"L.Stahl"
"M.C.Neary"
"P.Pradhan"
"S.Sharma"
"M.K.Lakshman"
_chemical_name_systematic
;
3-oxo-1-phenyl-1H-1\l^5^,2,3-benzotriazole
;
_cell_volume   1951.711
_exptl_crystal_colour 'colorless'
_exptl_crystal_density_diffrn 1.438
_exptl_crystal_description 'irregular'
_diffrn_ambient_temperature 100.0
#These two values have been output from a single CSD field.
_refine_ls_R_factor_gt 0.0475
_refine_ls_wR_factor_gt 0.0475
_symmetry_cell_setting orthorhombic
_symmetry_space_group_name_H-M 'P b c a'
_symmetry_Int_Tables_number 61
loop_
_symmetry_equiv_pos_site_id
_symmetry_equiv_pos_as_xyz
1 x,y,z
2 1/2-x,-y,1/2+z
3 -x,1/2+y,1/2-z
4 1/2+x,1/2-y,-z
5 -x,-y,-z
6 -1/2+x,y,-1/2-z
7 x,-1/2-y,-1/2+z
8 -1/2-x,-1/2+y,z
_cell_length_a 13.0944(4)
_cell_length_b 7.8740(2)
_cell_length_c 18.9293(6)
_cell_angle_alpha 90
_cell_angle_beta 90
_cell_angle_gamma 90
_cell_formula_units_Z 8
loop_
_atom_type_symbol
_atom_type_radius_bond
C 0.68
H 0.23
N 0.68
O 0.68
loop_
_atom_site_label
_atom_site_type_symbol
_atom_site_fract_x
_atom_site_fract_y
_atom_site_fract_z
N1 N 0.12246(6) 0.04222(10) 0.40450(4)
N2 N 0.11871(7) -0.06825(11) 0.45997(4)
N3 N 0.12233(6) 0.02677(11) 0.51722(5)
O1 O 0.12028(6) -0.0368(1) 0.57944(4)
C1 C 0.12349(7) -0.02436(12) 0.33483(5)
C2 C 0.05707(8) -0.15569(12) 0.31764(6)
H1 H 0.00910 -0.19630 0.35130
C3 C 0.06192(9) -0.22688(14) 0.25046(6)
H2 H 0.01770 -0.31810 0.23840
C4 C 0.13078(9) -0.16565(14) 0.20084(6)
H3 H 0.13350 -0.21470 0.15500
C5 C 0.19590(9) -0.03219(14) 0.21830(6)
H4 H 0.24260 0.01030 0.18420
C6 C 0.19277(8) 0.03913(12) 0.28557(5)
H5 H 0.23730 0.12980 0.29770
C7 C 0.12700(7) 0.20692(12) 0.42728(5)
C8 C 0.12828(7) 0.19875(13) 0.50075(5)
C9 C 0.13328(8) 0.34208(13) 0.54396(6)
H6 H 0.13580 0.33380 0.59400
C10 C 0.13438(8) 0.49619(13) 0.50964(6)
H7 H 0.13760 0.59790 0.53650
C11 C 0.13077(8) 0.50588(13) 0.43507(6)
H8 H 0.13090 0.61480 0.41340
C12 C 0.12708(7) 0.36395(12) 0.39238(6)
H9 H 0.12470 0.37220 0.34230
#END
