
#######################################################################
#
#                 Cambridge Crystallographic Data Centre
#                                CCDC
#
#######################################################################
#
# If this CIF has been generated from an entry in the Cambridge
# Structural Database, then it will include bibliographic, chemical,
# crystal, experimental, refinement or atomic coordinate data resulting
# from the CCDC's data processing and validation procedures.
#
#######################################################################

data_CSD_CIF_BIHMEK
_audit_creation_date 1983-12-16
_audit_creation_method CSD-ConQuest-V1
_database_code_CSD BIHMEK
_database_code_depnum_ccdc_archive 'CCDC 1110677'
_chemical_formula_sum 'C33 H35 N1 O9'
_chemical_formula_moiety
;
C33 H35 N1 O9
;
_journal_coeditor_code "IUCr A22510"
_journal_coden_Cambridge 591
_journal_volume 39
_journal_year 1983
_journal_page_first 801
_journal_name_full 'Acta Crystallogr.,Sect.C:Cryst.Struct.Commun. '
loop_
_publ_author_name
"L.R.Nassimbeni"
"M.L.Niven"
"G.M.Sheldrick"
"G.R.Pettit"
"M.Inoue"
"Y.Kamano"
_chemical_name_systematic
;
3\b-Acetoxy-15\a-(o-nitrobenzoyloxy)-7-oxo-5\b,14\b-bufa-8,20,22-trienolide
;
_cell_volume   3317.111
_exptl_special_details
;
H11' is suspect and has been deleted

;
_diffrn_ambient_temperature ?
_diffrn_special_details
;
The study was carried out at room temperature,in the range 283-303K

;
#These two values have been output from a single CSD field.
_refine_ls_R_factor_gt 0.128
_refine_ls_wR_factor_gt 0.128
_symmetry_cell_setting monoclinic
_symmetry_space_group_name_H-M 'P 21'
_symmetry_Int_Tables_number 4
loop_
_symmetry_equiv_pos_site_id
_symmetry_equiv_pos_as_xyz
1 x,y,z
2 -x,1/2+y,-z
_cell_length_a 11.301(6)
_cell_length_b 39.53(2)
_cell_length_c 7.650(4)
_cell_angle_alpha 90
_cell_angle_beta 103.92(2)
_cell_angle_gamma 90
_cell_formula_units_Z 4
loop_
_atom_type_symbol
_atom_type_radius_bond
C 0.68
H 0.23
N 0.68
O 0.68
loop_
_atom_site_label
_atom_site_type_symbol
_atom_site_fract_x
_atom_site_fract_y
_atom_site_fract_z
C1 C 0.44920 0.99660 0.12800
C2 C 0.32080 0.99740 0.02320
C3 C 0.23550 1.00960 0.14170
C4 C 0.25040 0.99110 0.30760
C5 C 0.38950 0.98560 0.41260
C6 C 0.39070 0.96410 0.56860
C7 C 0.36060 0.92850 0.51260
C8 C 0.39450 0.91640 0.35150
C9 C 0.44540 0.93710 0.24730
C10 C 0.46740 0.97450 0.29130
C11 C 0.48130 0.92310 0.08760
C12 C 0.52930 0.88690 0.12760
C13 C 0.43650 0.86260 0.17380
C14 C 0.36120 0.88000 0.29540
C15 C 0.22750 0.87400 0.20850
C16 C 0.22600 0.84340 0.08930
C17 C 0.33690 0.85060 0.00440
C18 C 0.50490 0.83170 0.27160
C19 C 0.60720 0.97880 0.39410
C20 C 0.37490 0.82100 -0.09420
C21 C 0.41610 0.82740 -0.23590
C22 C 0.35640 0.78680 -0.05660
C23 C 0.39000 0.76420 -0.15450
C24 C 0.43320 0.77130 -0.29330
C25 C 0.17140 1.06750 0.16540
C26 C 0.23300 1.10420 0.20740
C27 C 0.06320 0.90770 0.05240
C28 C 0.02480 0.93520 -0.08840
C29 C -0.06490 0.95870 -0.08120
C30 C -0.10130 0.98230 -0.22690
C31 C -0.04680 0.97850 -0.36860
C32 C 0.03870 0.95670 -0.37330
C33 C 0.07250 0.93470 -0.22870
O1 O 0.26930 1.04500 0.18120
O2 O 0.31430 0.90970 0.60470
O3 O 0.18180 0.90410 0.09970
O4 O 0.44970 0.80490 -0.34360
O5 O 0.46410 0.75060 -0.41230
O6 O 0.07340 1.05950 0.13640
O7 O -0.01110 0.88790 0.09680
O8 O -0.04750 0.95450 0.21400
O9 O -0.21420 0.97480 0.05880
N1 N -0.11400 0.96110 0.07680
H1 H 0.50050 0.98790 0.04790
H2 H 0.47500 1.02010 0.16740
H3 H 0.31290 1.01300 -0.08150
H4 H 0.29550 0.97410 -0.02150
H5 H 0.14860 1.00610 0.07570
H6 H 0.20800 1.00390 0.38730
H7 H 0.21140 0.96840 0.27990
H8 H 0.42840 1.00760 0.45900
H9 H 0.47380 0.96490 0.65180
H10 H 0.32930 0.97270 0.63260
H11 H 0.40860 0.92310 -0.01730
H12 H 0.54680 0.93760 0.05890
H13 H 0.60290 0.88740 0.23090
H14 H 0.55260 0.87810 0.01800
H15 H 0.38390 0.86900 0.41660
H16 H 0.17620 0.87030 0.29680
H17 H 0.23770 0.82200 0.16140
H18 H 0.14179 0.84210 -0.00550
H19 H 0.31930 0.86750 -0.09570
H20 H 0.45200 0.81340 0.30170
H21 H 0.54310 0.84470 0.38310
H22 H 0.57030 0.82140 0.22090
H23 H 0.61430 0.97190 0.52210
H24 H 0.62230 1.00360 0.38840
H25 H 0.66880 0.96610 0.34520
H26 H 0.42460 0.85180 -0.26630
H27 H 0.31790 0.78030 0.04350
H28 H 0.38390 0.73990 -0.12130
H29 H 0.16440 1.12080 0.17530
H30 H 0.30080 1.11160 0.15280
H31 H 0.26330 1.10310 0.34130
H32 H -0.16140 1.00070 -0.23360
H33 H -0.07610 0.99340 -0.47600
H34 H 0.07810 0.95570 -0.47710
H35 H 0.13740 0.91770 -0.23110
C34 C 0.97830 0.66830 0.59370
C35 C 0.86510 0.66730 0.45140
C36 C 0.88950 0.65130 0.27900
C37 C 0.99340 0.67040 0.22430
C38 C 1.10460 0.67520 0.37080
C39 C 1.18910 0.69830 0.29840
C40 C 1.14110 0.73500 0.26530
C41 C 1.07010 0.74670 0.38840
C42 C 1.04160 0.72790 0.51770
C43 C 1.07760 0.69070 0.54210
C44 C 0.97860 0.74350 0.64830
C45 C 1.02130 0.78150 0.68680
C46 C 1.00000 0.80240 0.52040
C47 C 1.02900 0.78280 0.35570
C48 C 0.91480 0.78690 0.20310
C49 C 0.84460 0.81760 0.24710
C50 C 0.86310 0.81280 0.44800
C51 C 1.08050 0.83340 0.56450
C52 C 1.19340 0.68900 0.69300
C53 C 0.81870 0.84120 0.54710
C54 C 0.76550 0.83560 0.67740
C55 C 0.82690 0.87480 0.50130
C56 C 0.77390 0.89980 0.58000
C57 C 0.71970 0.89370 0.70930
C58 C 0.85330 0.59160 0.30410
C59 C 0.92530 0.55840 0.36730
C60 C 0.74310 0.75150 0.06230
C61 C 0.65970 0.72440 0.09210
C62 C 0.62400 0.69810 -0.02560
C63 C 0.53580 0.67540 0.00550
C64 C 0.49160 0.67900 0.15200
C65 C 0.52500 0.70560 0.26560
C66 C 0.60940 0.72840 0.23260
O10 O 0.93490 0.61690 0.32120
O11 O 1.15850 0.75070 0.13990
O12 O 0.83650 0.75670 0.19940
O13 O 0.71160 0.85980 0.76150
O14 O 0.67400 0.91420 0.78470
O15 O 0.74770 0.59860 0.25740
O16 O 0.72360 0.76920 -0.07790
O17 O 0.77640 0.70100 -0.16230
O18 O 0.61830 0.67810 -0.30910
N2 N 0.67540 0.69190 -0.16630
H36 H 1.01000 0.64470 0.61640
H37 H 0.80250 0.65360 0.49290
H38 H 0.83450 0.69090 0.42440
H39 H 0.81190 0.65200 0.18280
H40 H 0.96250 0.69330 0.17980
H41 H 1.01580 0.65750 0.12450
H42 H 1.14270 0.65260 0.40650
H43 H 1.26990 0.69890 0.38770
H44 H 1.19960 0.68880 0.18190
H45 H 0.88840 0.74290 0.59720
H46 H 0.99940 0.73040 0.76350
H47 H 1.11040 0.78160 0.74570
H48 H 0.97510 0.79160 0.77010
H49 H 1.10300 0.79290 0.32650
H50 H 0.93680 0.78960 0.08480
H51 H 0.75650 0.81690 0.18200
H52 H 0.88170 0.83930 0.21880
H53 H 0.80790 0.79450 0.47250
H54 H 1.10940 0.85250 0.49960
H55 H 1.14460 0.81550 0.59200
H56 H 1.06410 0.84200 0.67940
H57 H 1.23390 0.66630 0.70990
H58 H 1.17820 0.69680 0.80990
H59 H 1.24750 0.70560 0.65110
H60 H 0.76420 0.81170 0.72010
H61 H 0.87140 0.88090 0.40760
H62 H 0.77780 0.92360 0.53770
H63 H 0.86930 0.53910 0.37390
H64 H 0.97280 0.56440 0.49140
H65 H 0.98260 0.55170 0.29210
H66 H 0.50540 0.65660 -0.08160
H67 H 0.43320 0.66190 0.17820
H68 H 0.48910 0.70840 0.37210
H69 H 0.63360 0.74820 0.31500
#END
