
#######################################################################
#
#                 Cambridge Crystallographic Data Centre
#                                CCDC
#
#######################################################################
#
# If this CIF has been generated from an entry in the Cambridge
# Structural Database, then it will include bibliographic, chemical,
# crystal, experimental, refinement or atomic coordinate data resulting
# from the CCDC's data processing and validation procedures.
#
#######################################################################

data_CSD_CIF_BIHVUK
_audit_creation_date 2005-01-20
_audit_creation_method CSD-ConQuest-V1
_database_code_CSD BIHVUK
_database_code_depnum_ccdc_archive 'CCDC 255914'
_chemical_formula_sum 'C15 H15 N3 O4'
_chemical_formula_moiety
;
C15 H15 N3 O4
;
_journal_coeditor_code "IUCr CV6396"
_journal_coden_Cambridge 1370
_journal_volume 60
_journal_year 2004
_journal_page_first o2059
_journal_name_full 'Acta Crystallogr.,Sect.E:Struct.Rep.Online '
loop_
_publ_author_name
"Shang Shan"
"Wei-Xiao Hu"
"Duan-Jun Xu"
_chemical_name_systematic
;
3,4-Dimethoxybenzaldehyde 4-nitrophenylhydrazone
;
_cell_volume   1466.979
_exptl_crystal_colour 'yellow'
_exptl_crystal_density_diffrn 1.364
_exptl_crystal_description 'prism'
_exptl_crystal_preparation 'chloroform'
_diffrn_ambient_temperature 295
#These two values have been output from a single CSD field.
_refine_ls_R_factor_gt 0.041
_refine_ls_wR_factor_gt 0.041
_symmetry_cell_setting tetragonal
_symmetry_space_group_name_H-M 'P 41'
_symmetry_Int_Tables_number 76
loop_
_symmetry_equiv_pos_site_id
_symmetry_equiv_pos_as_xyz
1 x,y,z
2 -x,-y,1/2+z
3 -y,x,1/4+z
4 y,-x,-1/4+z
_cell_length_a 7.7618(12)
_cell_length_b 7.7618(12)
_cell_length_c 24.3500(17)
_cell_angle_alpha 90
_cell_angle_beta 90
_cell_angle_gamma 90
_cell_formula_units_Z 4
loop_
_atom_type_symbol
_atom_type_radius_bond
C 0.68
H 0.23
N 0.68
O 0.68
loop_
_atom_site_label
_atom_site_type_symbol
_atom_site_fract_x
_atom_site_fract_y
_atom_site_fract_z
O1 O 1.1219(4) 1.3403(3) 0.49443(12)
O2 O 1.0046(4) 1.2624(3) 0.57067(11)
O3 O 0.4702(3) 0.1171(2) 0.59674(7)
O4 O 0.3739(3) -0.1545(2) 0.54727(8)
N1 N 1.0434(4) 1.2361(4) 0.52231(12)
N2 N 0.8234(3) 0.6292(3) 0.42289(9)
H1 H 0.84370 0.61480 0.38850
N3 N 0.7335(3) 0.5088(3) 0.45134(8)
C1 C 0.9926(3) 1.0748(4) 0.49763(11)
C2 C 0.9004(3) 0.9568(4) 0.52814(11)
H2 H 0.87530 0.97950 0.56480
C3 C 0.8461(3) 0.8065(4) 0.50455(10)
H3 H 0.78560 0.72630 0.52540
C4 C 0.8812(3) 0.7726(3) 0.44891(10)
C5 C 0.9784(3) 0.8928(3) 0.41938(11)
H4 H 1.00630 0.87040 0.38290
C6 C 1.0329(4) 1.0421(4) 0.44305(12)
H5 H 1.09650 1.12150 0.42290
C7 C 0.6882(3) 0.3720(4) 0.42631(10)
H6 H 0.71410 0.35840 0.38930
C8 C 0.5960(3) 0.2367(3) 0.45544(10)
C9 C 0.5706(3) 0.2494(3) 0.51243(10)
H7 H 0.60580 0.34820 0.53090
C10 C 0.4948(3) 0.1185(3) 0.54094(9)
C11 C 0.4413(3) -0.0304(3) 0.51354(10)
C12 C 0.4615(3) -0.0433(3) 0.45761(10)
H8 H 0.42300 -0.14080 0.43910
C13 C 0.5398(3) 0.0898(4) 0.42889(10)
H9 H 0.55460 0.08000 0.39110
C14 C 0.5109(5) 0.2697(4) 0.62573(12)
H10 H 0.48820 0.25310 0.66410
H11 H 0.44160 0.36280 0.61210
H12 H 0.63050 0.29660 0.62060
C15 C 0.3152(4) -0.3117(4) 0.52277(13)
H13 H 0.27100 -0.38660 0.55080
H14 H 0.40950 -0.36700 0.50440
H15 H 0.22580 -0.28670 0.49670
#END
