
#######################################################################
#
#                 Cambridge Crystallographic Data Centre
#                                CCDC
#
#######################################################################
#
# If this CIF has been generated from an entry in the Cambridge
# Structural Database, then it will include bibliographic, chemical,
# crystal, experimental, refinement or atomic coordinate data resulting
# from the CCDC's data processing and validation procedures.
#
#######################################################################

data_CSD_CIF_BIHVOE
_audit_creation_date 2005-01-20
_audit_creation_method CSD-ConQuest-V1
_database_code_CSD BIHVOE
_database_code_depnum_ccdc_archive 'CCDC 255913'
_chemical_formula_sum 'C14 H10 N4 O10'
_chemical_formula_moiety
;
C14 H10 N4 O10
;
_journal_coeditor_code "IUCr CI6466"
_journal_coden_Cambridge 1370
_journal_volume 60
_journal_year 2004
_journal_page_first o2056
_journal_name_full 'Acta Crystallogr.,Sect.E:Struct.Rep.Online '
loop_
_publ_author_name
"P.G.Aravindan"
"S.Selvanayagam"
"D.Velmurugan"
"K.Ravikumar"
"S.Saravanan"
"P.C.Srinivasan"
_chemical_name_systematic
;
1,2-bis(2,4-Dinitrophenoxy)ethane
;
_cell_volume   1580.359
_exptl_crystal_colour 'yellow'
_exptl_crystal_density_diffrn 1.657
_exptl_crystal_description 'block'
_exptl_crystal_preparation 'acetone'
_diffrn_ambient_temperature 293
#These two values have been output from a single CSD field.
_refine_ls_R_factor_gt 0.0482
_refine_ls_wR_factor_gt 0.0482
_symmetry_cell_setting monoclinic
_symmetry_space_group_name_H-M 'C 2/c'
_symmetry_Int_Tables_number 15
loop_
_symmetry_equiv_pos_site_id
_symmetry_equiv_pos_as_xyz
1 x,y,z
2 1/2+x,1/2+y,z
3 x,-y,1/2+z
4 1/2+x,1/2-y,1/2+z
5 -x,-y,-z
6 -1/2-x,-1/2-y,-z
7 -x,y,-1/2-z
8 -1/2-x,-1/2+y,-1/2-z
_cell_length_a 6.8876(1)
_cell_length_b 13.9289(1)
_cell_length_c 16.5396(5)
_cell_angle_alpha 90
_cell_angle_beta 95.146(3)
_cell_angle_gamma 90
_cell_formula_units_Z 4
loop_
_atom_type_symbol
_atom_type_radius_bond
C 0.68
H 0.23
N 0.68
O 0.68
loop_
_atom_site_label
_atom_site_type_symbol
_atom_site_fract_x
_atom_site_fract_y
_atom_site_fract_z
O1 O 0.3837(2) 0.23623(9) -0.07525(7)
O2 O 0.4657(3) 0.09374(9) -0.04384(9)
O3 O 0.7403(3) 0.00324(11) 0.21380(11)
O4 O 0.8188(3) 0.10809(13) 0.30593(8)
O5 O 0.51519(19) 0.37389(7) 0.01678(7)
N1 N 0.45934(19) 0.17840(9) -0.02822(7)
N2 N 0.7527(3) 0.08578(12) 0.23784(9)
C1 C 0.5714(2) 0.30735(10) 0.07237(8)
C2 C 0.5481(2) 0.20956(9) 0.05134(8)
C3 C 0.6079(2) 0.13769(10) 0.10523(9)
H1 H 0.59270 0.07350 0.09060
C4 C 0.6908(2) 0.16298(11) 0.18121(9)
C5 C 0.7149(2) 0.25779(12) 0.20481(9)
H2 H 0.77040 0.27310 0.25650
C6 C 0.6556(3) 0.32923(11) 0.15056(9)
H3 H 0.67170 0.39310 0.16600
C7 C 0.5376(3) 0.47355(10) 0.03792(9)
H4 H 0.67340 0.48900 0.05290
H5 H 0.46210 0.48960 0.08280
C7D C 0.4624(3) 0.52645(10) -0.03792(9)
O5D O 0.48481(19) 0.62611(7) -0.01678(7)
C1D C 0.4286(2) 0.69265(10) -0.07237(8)
C2D C 0.4519(2) 0.79044(9) -0.05134(8)
N1D N 0.54066(19) 0.82160(9) 0.02822(7)
O1D O 0.6163(2) 0.76377(9) 0.07525(7)
O2D O 0.5343(3) 0.90626(9) 0.04384(9)
C3D C 0.3921(2) 0.86231(10) -0.10523(9)
H1D H 0.40730 0.92650 -0.09060
C4D C 0.3092(2) 0.83702(11) -0.18121(9)
N2D N 0.2473(3) 0.91422(12) -0.23784(9)
O3D O 0.2597(3) 0.99676(11) -0.21380(11)
O4D O 0.1812(3) 0.89191(13) -0.30593(8)
C5D C 0.2851(2) 0.74221(12) -0.20481(9)
H2D H 0.22960 0.72690 -0.25650
C6D C 0.3444(3) 0.67077(11) -0.15056(9)
H3D H 0.32830 0.60690 -0.16600
H4D H 0.32660 0.51100 -0.05290
H5D H 0.53790 0.51040 -0.08280
#END
