
#######################################################################
#
#                 Cambridge Crystallographic Data Centre
#                                CCDC
#
#######################################################################
#
# If this CIF has been generated from an entry in the Cambridge
# Structural Database, then it will include bibliographic, chemical,
# crystal, experimental, refinement or atomic coordinate data resulting
# from the CCDC's data processing and validation procedures.
#
#######################################################################

data_CSD_CIF_BIHVIY
_audit_creation_date 2005-01-20
_audit_creation_method CSD-ConQuest-V1
_database_code_CSD BIHVIY
_database_code_depnum_ccdc_archive 'CCDC 255912'
_chemical_formula_sum 'C17 H14 N2 O7'
_chemical_formula_moiety
;
C17 H14 N2 O7
;
_journal_coeditor_code "IUCr BT6541"
_journal_coden_Cambridge 1370
_journal_volume 60
_journal_year 2004
_journal_page_first o2053
_journal_name_full 'Acta Crystallogr.,Sect.E:Struct.Rep.Online '
loop_
_publ_author_name
"P.G.Aravindan"
"S.Selvanayagam"
"D.Velmurugan"
"K.Ravikumar"
"S.Saravanan"
"P.C.Srinivasan"
_chemical_name_systematic
;
Methyl 4-(4-methoxybenzylidenemethyl)-3,5-dinitrobenzoate
;
_cell_volume   1649.561
_exptl_crystal_colour 'pale yellow'
_exptl_crystal_density_diffrn 1.443
_exptl_crystal_description 'block'
_exptl_crystal_preparation 'acetone'
_diffrn_ambient_temperature 293
#These two values have been output from a single CSD field.
_refine_ls_R_factor_gt 0.0463
_refine_ls_wR_factor_gt 0.0463
_symmetry_cell_setting monoclinic
_symmetry_space_group_name_H-M 'P 21/c'
_symmetry_Int_Tables_number 14
loop_
_symmetry_equiv_pos_site_id
_symmetry_equiv_pos_as_xyz
1 x,y,z
2 x,1/2-y,1/2+z
3 -x,-y,-z
4 -x,-1/2+y,-1/2-z
_cell_length_a 12.0496(8)
_cell_length_b 7.0295(5)
_cell_length_c 19.8296(13)
_cell_angle_alpha 90
_cell_angle_beta 100.856(1)
_cell_angle_gamma 90
_cell_formula_units_Z 4
loop_
_atom_type_symbol
_atom_type_radius_bond
C 0.68
H 0.23
N 0.68
O 0.68
loop_
_atom_site_label
_atom_site_type_symbol
_atom_site_fract_x
_atom_site_fract_y
_atom_site_fract_z
O1 O 0.06847(10) -0.1636(2) -0.03636(7)
O2 O 0.20174(11) -0.30039(19) 0.03466(6)
O3 O 0.56287(10) 0.33777(18) 0.03366(7)
O4 O 0.43519(17) 0.3772(3) 0.09286(9)
O5 O 0.45347(10) 0.1100(2) -0.20066(6)
O6 O 0.28578(11) -0.03416(17) -0.22970(5)
O7 O 0.14191(12) 0.0517(2) 0.39076(6)
N1 N 0.16656(11) -0.1796(2) -0.00728(6)
N2 N 0.46960(13) 0.3058(2) 0.04615(7)
C1 C 0.31297(12) 0.0692(2) 0.02363(7)
C2 C 0.24788(12) -0.0431(2) -0.02679(7)
C3 C 0.25820(12) -0.0464(2) -0.09501(7)
H1 H 0.20920 -0.11900 -0.12670
C4 C 0.34281(13) 0.0604(2) -0.11537(7)
C5 C 0.41168(13) 0.1722(2) -0.06768(7)
H2 H 0.46940 0.24330 -0.08050
C6 C 0.39447(13) 0.1780(2) -0.00076(7)
C7 C 0.30000(13) 0.0657(2) 0.09607(7)
H3 H 0.36490 0.04980 0.12930
C8 C 0.20325(13) 0.0834(2) 0.11704(7)
H4 H 0.13920 0.10320 0.08340
C9 C 0.18682(13) 0.0750(2) 0.18830(7)
C10 C 0.27274(13) 0.0222(2) 0.24260(7)
H5 H 0.34370 -0.00820 0.23380
C11 C 0.25443(14) 0.0144(2) 0.30867(8)
H6 H 0.31260 -0.02280 0.34400
C12 C 0.14951(15) 0.0617(2) 0.32326(8)
C13 C 0.06376(15) 0.1169(3) 0.27093(9)
H7 H -0.00630 0.15150 0.28020
C14 C 0.08290(14) 0.1205(3) 0.20423(8)
H8 H 0.02400 0.15470 0.16890
C15 C 0.0416(2) 0.1174(3) 0.41066(10)
H9 H 0.02890 0.24790 0.39720
H10 H 0.04910 0.10690 0.45960
H11 H -0.02120 0.04170 0.38870
C16 C 0.36763(14) 0.0499(2) -0.18629(7)
C17 C 0.30492(19) -0.0551(3) -0.29944(8)
H12 H 0.30960 0.06840 -0.31940
H13 H 0.24350 -0.12480 -0.32620
H14 H 0.37430 -0.12270 -0.29890
#END
