
#######################################################################
#
#                 Cambridge Crystallographic Data Centre
#                                CCDC
#
#######################################################################
#
# If this CIF has been generated from an entry in the Cambridge
# Structural Database, then it will include bibliographic, chemical,
# crystal, experimental, refinement or atomic coordinate data resulting
# from the CCDC's data processing and validation procedures.
#
#######################################################################

data_CSD_CIF_BIHWIZ
_audit_creation_date 2005-01-20
_audit_creation_method CSD-ConQuest-V1
_database_code_CSD BIHWIZ
_database_code_depnum_ccdc_archive 'CCDC 255917'
_chemical_formula_sum 'C31 H35 N1 O6'
_chemical_formula_moiety
;
C31 H35 N1 O6
;
_journal_coeditor_code "IUCr KP6007"
_journal_coden_Cambridge 1370
_journal_volume 60
_journal_year 2004
_journal_page_first o2068
_journal_name_full 'Acta Crystallogr.,Sect.E:Struct.Rep.Online '
loop_
_publ_author_name
"V.Sridharan"
"P.Kalanidhi"
"K.Karthikeyan"
"S.Muthusubramanian"
"K.Anitha"
"R.K.Rajaram"
_chemical_name_systematic
;
Diethyl 
3-(2-methoxy-5-(1-methyl-1-phenylethyl)phenyl)-2-phenyl-2,3,4,5-tetrahydroisox
azole-4,5-dicarboxylate
;
_cell_volume   1395.815
_exptl_crystal_colour 'colorless'
_exptl_crystal_density_diffrn 1.232
_exptl_crystal_description 'block'
_exptl_crystal_preparation 'petroleum ether-ethyl acetate'
_diffrn_ambient_temperature 293
#These two values have been output from a single CSD field.
_refine_ls_R_factor_gt 0.0455
_refine_ls_wR_factor_gt 0.0455
_symmetry_cell_setting triclinic
_symmetry_space_group_name_H-M 'P -1'
_symmetry_Int_Tables_number 2
loop_
_symmetry_equiv_pos_site_id
_symmetry_equiv_pos_as_xyz
1 x,y,z
2 -x,-y,-z
_cell_length_a 10.8029(14)
_cell_length_b 10.9431(9)
_cell_length_c 12.376(2)
_cell_angle_alpha 105.92(1)
_cell_angle_beta 93.838(12)
_cell_angle_gamma 94.804(9)
_cell_formula_units_Z 2
loop_
_atom_type_symbol
_atom_type_radius_bond
C 0.68
H 0.23
N 0.68
O 0.68
loop_
_atom_site_label
_atom_site_type_symbol
_atom_site_fract_x
_atom_site_fract_y
_atom_site_fract_z
O1 O 0.96470(15) 0.13978(19) 0.11147(15)
O2 O 1.04595(18) 0.1870(2) -0.07236(16)
O3 O 0.87163(16) 0.08174(18) -0.17750(15)
O4 O 0.80064(18) 0.34524(18) -0.04367(17)
O5 O 0.8271(3) 0.4186(2) 0.1430(2)
O6 O 0.52278(15) 0.22292(17) 0.15305(15)
N1 N 0.89031(17) 0.1418(2) 0.20564(17)
C1 C 0.8768(2) 0.1097(3) 0.0158(2)
H1 H 0.84390 0.01950 -0.00260
C2 C 0.9439(3) 0.1323(3) -0.0808(2)
C3 C 0.9232(3) 0.0969(3) -0.2789(2)
H2 H 0.99440 0.04850 -0.29380
H3 H 0.95060 0.18620 -0.26950
C4 C 0.8243(3) 0.0495(4) -0.3743(3)
H4 H 0.85650 0.05900 -0.44240
H5 H 0.75430 0.09800 -0.35890
H6 H 0.79830 -0.03910 -0.38340
C5 C 0.8537(4) 0.4636(4) -0.1716(4)
H7 H 0.87110 0.54770 -0.18030
H8 H 0.78310 0.41920 -0.22270
H9 H 0.92500 0.41720 -0.18790
C6 C 0.8258(3) 0.4737(3) -0.0546(3)
H10 H 0.89630 0.51930 -0.00220
H11 H 0.75370 0.52040 -0.03730
C7 C 0.8041(2) 0.3318(3) 0.0597(3)
C8 C 0.7728(2) 0.1937(2) 0.0566(2)
H12 H 0.69410 0.15850 0.01000
C9 C 0.7654(2) 0.1782(2) 0.1754(2)
H13 H 0.75310 0.26070 0.22760
C10 C 0.6613(2) 0.0785(2) 0.18125(19)
C11 C 0.5385(2) 0.1061(2) 0.16917(19)
C12 C 0.3994(3) 0.2571(3) 0.1461(3)
H14 H 0.40110 0.34060 0.13480
H15 H 0.36300 0.25790 0.21500
H16 H 0.35050 0.19610 0.08400
C13 C 0.4412(2) 0.0179(3) 0.1751(2)
H17 H 0.35900 0.03550 0.16600
C14 C 0.4666(2) -0.0957(3) 0.1944(2)
H18 H 0.40040 -0.15400 0.19810
C15 C 0.5871(2) -0.1261(2) 0.20857(19)
C16 C 0.6097(2) -0.2543(2) 0.2301(2)
C17 C 0.5588(3) -0.3610(3) 0.1224(2)
H19 H 0.60050 -0.34870 0.05940
H20 H 0.47080 -0.35820 0.10810
H21 H 0.57350 -0.44260 0.13260
C18 C 0.5453(2) -0.2692(2) 0.3330(2)
C19 C 0.4843(5) -0.3806(4) 0.3371(3)
H22 H 0.47630 -0.45110 0.27380
C20 C 0.4331(5) -0.3913(5) 0.4354(4)
H23 H 0.39190 -0.46910 0.43620
C21 C 0.4420(4) -0.2924(5) 0.5281(4)
H24 H 0.40740 -0.30010 0.59310
C22 C 0.5012(4) -0.1836(4) 0.5245(3)
H25 H 0.50950 -0.11380 0.58840
C23 C 0.5511(3) -0.1710(3) 0.4287(3)
H26 H 0.59050 -0.09200 0.42930
C24 C 0.7483(3) -0.2672(3) 0.2529(3)
H27 H 0.79150 -0.25830 0.18970
H28 H 0.75760 -0.34960 0.26370
H29 H 0.78280 -0.20170 0.31950
C25 C 0.6834(2) -0.0367(2) 0.20085(19)
H30 H 0.76540 -0.05500 0.20920
C26 C 0.9583(2) 0.2192(3) 0.3063(2)
C27 C 1.0847(3) 0.2548(3) 0.3123(3)
H31 H 1.12740 0.23230 0.24820
C28 C 1.1470(4) 0.3240(4) 0.4143(5)
H32 H 1.23230 0.34740 0.41810
C29 C 1.0870(6) 0.3595(4) 0.5105(4)
H33 H 1.13040 0.40780 0.57820
C30 C 0.9620(5) 0.3222(4) 0.5049(3)
H34 H 0.92010 0.34460 0.56960
C31 C 0.8974(3) 0.2516(3) 0.4036(3)
H35 H 0.81270 0.22580 0.40080
#END
