
#######################################################################
#
#                 Cambridge Crystallographic Data Centre
#                                CCDC
#
#######################################################################
#
# If this CIF has been generated from an entry in the Cambridge
# Structural Database, then it will include bibliographic, chemical,
# crystal, experimental, refinement or atomic coordinate data resulting
# from the CCDC's data processing and validation procedures.
#
#######################################################################

data_CSD_CIF_BIJKEN
_audit_creation_date 2018-07-11
_audit_creation_method CSD-ConQuest-V1
_database_code_CSD BIJKEN
_database_code_depnum_ccdc_archive 'CCDC 1844074'
_chemical_formula_sum 'C12 H8 N2 O5'
_chemical_formula_moiety
;
C12 H8 N2 O5
;
_journal_coden_Cambridge 1336
_journal_volume 20
_journal_year 2018
_journal_page_first 4213
_journal_name_full 'Org.Lett. '
loop_
_publ_author_name
"C.Favre"
"F.Friscourt"
_chemical_name_systematic
;
3-(7-methoxy-2-oxo-2H-1-benzopyran-3-yl)-1,2,3-oxadiazol-3-ium-5-olate
;
_cell_volume    527.067
_exptl_crystal_colour 'colorless'
_exptl_crystal_density_diffrn 1.64
_exptl_crystal_description 'prism'
_exptl_crystal_preparation 'ether'
_diffrn_ambient_temperature 150
#These two values have been output from a single CSD field.
_refine_ls_R_factor_gt 0.0623
_refine_ls_wR_factor_gt 0.0623
_symmetry_cell_setting triclinic
_symmetry_space_group_name_H-M 'P -1'
_symmetry_Int_Tables_number 2
loop_
_symmetry_equiv_pos_site_id
_symmetry_equiv_pos_as_xyz
1 x,y,z
2 -x,-y,-z
_cell_length_a 3.7520(3)
_cell_length_b 11.4439(9)
_cell_length_c 13.1850(12)
_cell_angle_alpha 111.089(8)
_cell_angle_beta 93.305(7)
_cell_angle_gamma 90.512(7)
_cell_formula_units_Z 2
loop_
_atom_type_symbol
_atom_type_radius_bond
C 0.68
H 0.23
N 0.68
O 0.68
loop_
_atom_site_label
_atom_site_type_symbol
_atom_site_fract_x
_atom_site_fract_y
_atom_site_fract_z
O1 O 0.8009(5) 0.49531(17) 0.62196(14)
O2 O 0.3052(5) 0.08550(17) 0.42424(15)
O3 O 1.0767(6) 0.67932(18) 0.71116(15)
O4 O 1.0263(6) 0.7895(2) 1.07698(16)
O5 O 0.8162(7) 0.9847(2) 1.10422(17)
N1 N 0.8349(7) 0.6914(2) 0.91355(18)
N2 N 1.0175(7) 0.6730(2) 0.99482(19)
C1 C 0.5588(7) 0.2947(2) 0.5193(2)
H1 H 0.62808 0.30450 0.45620
C2 C 0.6231(7) 0.3886(2) 0.6209(2)
C3 C 0.7669(8) 0.5842(3) 0.8154(2)
C4 C 0.3861(7) 0.1851(2) 0.5163(2)
C5 C 0.2807(8) 0.1705(3) 0.6123(2)
H2 H 0.16564 0.09651 0.60833
C6 C 0.5974(7) 0.4804(3) 0.8167(2)
H3 H 0.52829 0.47657 0.88212
C7 C 0.5247(8) 0.3769(3) 0.7178(2)
C8 C 0.8938(8) 0.5944(3) 0.7166(2)
C9 C 0.3474(8) 0.2644(3) 0.7105(2)
H4 H 0.27569 0.25445 0.77338
C10 C 0.8417(8) 0.8789(3) 1.0425(2)
C11 C 0.7258(8) 0.8072(3) 0.9336(2)
H5 H 0.59753 0.83579 0.88507
C12 C 0.4263(8) 0.0885(3) 0.3228(2)
H6 H 0.35429 0.01163 0.26461
H7 H 0.68191 0.09804 0.32847
H8 H 0.32287 0.15767 0.30824
#END
