
#######################################################################
#
#                 Cambridge Crystallographic Data Centre
#                                CCDC
#
#######################################################################
#
# If this CIF has been generated from an entry in the Cambridge
# Structural Database, then it will include bibliographic, chemical,
# crystal, experimental, refinement or atomic coordinate data resulting
# from the CCDC's data processing and validation procedures.
#
#######################################################################

data_CSD_CIF_BIJLAJ
_audit_creation_date 2013-07-08
_audit_creation_method CSD-ConQuest-V1
_database_code_CSD BIJLAJ
_database_code_depnum_ccdc_archive 'CCDC 918760'
_chemical_formula_sum 'C15 H20 N2 O4'
_chemical_formula_moiety
;
C15 H20 N2 O4
;
_journal_coden_Cambridge 1336
_journal_volume 15
_journal_year 2013
_journal_page_first 1440
_journal_name_full 'Org.Lett. '
loop_
_publ_author_name
"Shujie Zhu"
"Xiaoxia Lu"
"Yueting Luo"
"Wei Zhang"
"Huanfeng Jiang"
"Ming Yan"
"Wei Zeng"
_chemical_name_systematic
;
Ethyl 4-methylene-N-(4-nitrophenyl)isoleucinate
;
_cell_volume   1539.092
_exptl_crystal_colour 'yellow'
_exptl_crystal_density_diffrn 1.262
_exptl_crystal_description 'block'
_diffrn_ambient_temperature 293
#These two values have been output from a single CSD field.
_refine_ls_R_factor_gt 0.0447
_refine_ls_wR_factor_gt 0.0447
_symmetry_cell_setting monoclinic
_symmetry_space_group_name_H-M 'P 21/c'
_symmetry_Int_Tables_number 14
loop_
_symmetry_equiv_pos_site_id
_symmetry_equiv_pos_as_xyz
1 x,y,z
2 -x,1/2+y,1/2-z
3 -x,-y,-z
4 x,-1/2-y,-1/2+z
_cell_length_a 11.861(2)
_cell_length_b 11.981(2)
_cell_length_c 12.370(6)
_cell_angle_alpha 90
_cell_angle_beta 118.89(2)
_cell_angle_gamma 90
_cell_formula_units_Z 4
loop_
_atom_type_symbol
_atom_type_radius_bond
C 0.68
H 0.23
N 0.68
O 0.68
loop_
_atom_site_label
_atom_site_type_symbol
_atom_site_fract_x
_atom_site_fract_y
_atom_site_fract_z
O1 O 0.27602(10) 0.49913(10) 0.84499(9)
O2 O 0.09740(11) 0.42847(11) 0.6885(1)
N1 N 0.16520(12) 0.56728(12) 0.53593(11)
H1 H 0.09650 0.59090 0.47280
C1 C 0.18569(14) 0.59929(14) 0.65650(13)
H2 H 0.26950 0.63610 0.70230
C2 C 0.21568(16) 0.47526(15) 0.39300(14)
H3 H 0.13900 0.50170 0.32820
C3 C 0.07824(15) 0.68048(14) 0.64159(14)
H4 H -0.00390 0.64150 0.59370
C4 C 0.18055(14) 0.49852(14) 0.72909(13)
C5 C 0.07392(16) 0.78400(14) 0.57032(14)
C6 C 0.36243(15) 0.45936(16) 0.61065(14)
H5 H 0.38540 0.47540 0.69230
C7 C 0.24735(14) 0.50204(13) 0.51493(13)
N2 N 0.49377(15) 0.30221(14) 0.43751(17)
C8 C 0.40861(15) 0.37034(14) 0.46448(15)
C9 C 0.44134(15) 0.39422(16) 0.58478(16)
H6 H 0.51740 0.36600 0.64890
O3 O 0.59543(14) 0.27073(16) 0.52371(16)
C10 C 0.29538(16) 0.41115(16) 0.36779(15)
H7 H 0.27390 0.39500 0.28650
O4 O 0.45965(17) 0.27831(16) 0.33004(16)
C11 C 0.08824(19) 0.71148(17) 0.76584(16)
H8 H 0.01960 0.76160 0.75260
H9 H 0.16950 0.74720 0.81670
H10 H 0.08190 0.64520 0.80620
C12 C 0.27057(17) 0.41393(17) 0.92629(16)
H11 H 0.27220 0.34020 0.89470
H12 H 0.19170 0.42140 0.93110
C13 C -0.0375(2) 0.8166(2) 0.47551(17)
H13 H -0.02260 0.88320 0.44110
H14 H -0.06960 0.75900 0.41400
C14 C 0.3843(2) 0.4291(2) 1.05084(16)
H15 H 0.38270 0.37380 1.10620
H16 H 0.38170 0.50220 1.08140
H17 H 0.46180 0.42120 1.04520
C15 C 0.1951(2) 0.84880(18) 0.6137(2)
H18 H 0.17970 0.91200 0.56060
H19 H 0.26000 0.80210 0.61180
H20 H 0.22400 0.87410 0.69660
#END
