
#######################################################################
#
#                 Cambridge Crystallographic Data Centre
#                                CCDC
#
#######################################################################
#
# If this CIF has been generated from an entry in the Cambridge
# Structural Database, then it will include bibliographic, chemical,
# crystal, experimental, refinement or atomic coordinate data resulting
# from the CCDC's data processing and validation procedures.
#
#######################################################################

data_CSD_CIF_BIKGEI
_audit_creation_date 2005-03-03
_audit_creation_method CSD-ConQuest-V1
_database_code_CSD BIKGEI
_database_code_depnum_ccdc_archive 'CCDC 238146'
_chemical_formula_sum 'C15 H21 N1 O4'
_chemical_formula_moiety
;
C15 H21 N1 O4
;
_journal_coden_Cambridge 177
_journal_volume 2
_journal_year 2004
_journal_page_first 2932
_journal_name_full 'Org.Biomol.Chem. '
loop_
_publ_author_name
"D.J.Buchanan"
"D.J.Dixon"
"F.A.Hernandez-Juan"
_chemical_name_systematic
;
syn-2-Methyl-6-(2-nitro-1-phenylpropoxy)tetrahydropyran
;
_chemical_melting_point 387.15
_cell_volume   1485.651
_exptl_crystal_colour 'colorless'
_exptl_crystal_density_diffrn 1.249
_exptl_special_details
;
Melting point range 387.15-389.15K

;
_exptl_crystal_description 'needles'
_diffrn_ambient_temperature 180
#These two values have been output from a single CSD field.
_refine_ls_R_factor_gt 0.0475
_refine_ls_wR_factor_gt 0.0475
_symmetry_cell_setting monoclinic
_symmetry_space_group_name_H-M 'C 2'
_symmetry_Int_Tables_number 5
loop_
_symmetry_equiv_pos_site_id
_symmetry_equiv_pos_as_xyz
1 x,y,z
2 -x,y,-z
3 1/2+x,1/2+y,z
4 1/2-x,1/2+y,-z
_cell_length_a 19.5297(6)
_cell_length_b 5.7494(2)
_cell_length_c 13.7124(6)
_cell_angle_alpha 90
_cell_angle_beta 105.224(2)
_cell_angle_gamma 90
_cell_formula_units_Z 4
loop_
_atom_type_symbol
_atom_type_radius_bond
C 0.68
H 0.23
N 0.68
O 0.68
loop_
_atom_site_label
_atom_site_type_symbol
_atom_site_fract_x
_atom_site_fract_y
_atom_site_fract_z
O1 O 0.33582(7) 1.0577(2) 0.78864(11)
O2 O 0.44042(8) 0.9831(2) 0.74990(11)
O3 O 0.55136(10) 1.3264(3) 0.87124(14)
O4 O 0.61777(10) 1.0958(4) 0.81428(15)
N1 N 0.56603(10) 1.2201(3) 0.80263(15)
C1 C 0.22599(12) 1.1726(4) 0.81384(18)
H1 H 0.23000 1.32590 0.78450
H2 H 0.19770 1.18560 0.86300
H3 H 0.20280 1.06440 0.76010
C2 C 0.29912(11) 1.0832(4) 0.86608(16)
H4 H 0.32430 1.20170 0.91620
C3 C 0.29804(13) 0.8532(4) 0.91996(18)
H5 H 0.26910 0.73940 0.87240
H6 H 0.27590 0.87550 0.97650
C4 C 0.37306(13) 0.7584(4) 0.96087(17)
H7 H 0.39970 0.85830 1.01680
H8 H 0.37090 0.59960 0.98780
C5 C 0.41133(12) 0.7519(4) 0.87739(17)
H9 H 0.46160 0.70730 0.90590
H10 H 0.38890 0.63500 0.82590
C6 C 0.40726(11) 0.9887(4) 0.82955(16)
H11 H 0.43180 1.10470 0.88130
C7 C 0.4417(1) 1.2044(3) 0.70140(16)
H12 H 0.42700 1.32940 0.74240
C8 C 0.51815(10) 1.2470(4) 0.69749(16)
H13 H 0.53130 1.12750 0.65260
C9 C 0.53016(12) 1.4872(4) 0.6590(2)
H14 H 0.58010 1.50370 0.65880
H15 H 0.51820 1.60570 0.70310
H16 H 0.50000 1.50720 0.59010
C10 C 0.39261(10) 1.2050(4) 0.59603(15)
C11 C 0.34655(11) 1.3893(4) 0.56202(17)
H17 H 0.34520 1.51600 0.60590
C12 C 0.30245(11) 1.3900(4) 0.46430(18)
H18 H 0.27110 1.51670 0.44180
C13 C 0.30416(12) 1.2071(4) 0.40002(17)
H19 H 0.27410 1.20800 0.33320
C14 C 0.34972(12) 1.0223(4) 0.43300(17)
H20 H 0.35080 0.89590 0.38880
C15 C 0.39387(11) 1.0213(4) 0.53043(17)
H21 H 0.42520 0.89420 0.55250
#END
