
#######################################################################
#
#                 Cambridge Crystallographic Data Centre
#                                CCDC
#
#######################################################################
#
# If this CIF has been generated from an entry in the Cambridge
# Structural Database, then it will include bibliographic, chemical,
# crystal, experimental, refinement or atomic coordinate data resulting
# from the CCDC's data processing and validation procedures.
#
#######################################################################

data_CSD_CIF_BIKJIQ
_audit_creation_date 2013-07-09
_audit_creation_method CSD-ConQuest-V1
_database_code_CSD BIKJIQ
_database_code_depnum_ccdc_archive 'CCDC 854580'
_chemical_formula_sum 'C20 H23 N3 O5'
_chemical_formula_moiety
;
C20 H23 N3 O5
;
_journal_coden_Cambridge 917
_journal_volume 8
_journal_year 2012
_journal_page_first 1710
_journal_name_full 'Beilstein J.Org.Chem. '
loop_
_publ_author_name
"Zhi-Cong Geng"
"Jian Chen"
"Ning Li"
"Xiao-Fei Huang"
"Yong Zhang"
"Ya-Wen Zhang"
"Xing-Wang Wang"
_chemical_name_systematic
;
t-Butyl 3-hydroxy-5-(4-nitrophenyl)-2-phenylpyrazolidine-1-carboxylate
;
_cell_volume   1015.098
_exptl_crystal_colour 'yellow'
_exptl_crystal_density_diffrn 1.261
_exptl_crystal_description 'block'
_diffrn_ambient_temperature 293
_refine_special_details
;
N3,O2,O3 and N3A,O2A,O3A disordered over two sites with occupancies 
;
#These two values have been output from a single CSD field.
_refine_ls_R_factor_gt 0.0758
_refine_ls_wR_factor_gt 0.0758
_symmetry_cell_setting triclinic
_symmetry_space_group_name_H-M 'P -1'
_symmetry_Int_Tables_number 2
loop_
_symmetry_equiv_pos_site_id
_symmetry_equiv_pos_as_xyz
1 x,y,z
2 -x,-y,-z
_cell_length_a 7.7399(14)
_cell_length_b 9.2877(17)
_cell_length_c 14.911(3)
_cell_angle_alpha 98.408(4)
_cell_angle_beta 103.948(4)
_cell_angle_gamma 97.043(4)
_cell_formula_units_Z 2
loop_
_atom_type_symbol
_atom_type_radius_bond
C 0.68
H 0.23
N 0.68
O 0.68
loop_
_atom_site_label
_atom_site_type_symbol
_atom_site_fract_x
_atom_site_fract_y
_atom_site_fract_z
O1 O 0.7909(3) 0.4761(2) 1.03429(15)
H1 H 0.73290 0.50190 1.07140
O2 O 0.6094(3) 0.5597(2) 0.75087(14)
O3 O 0.3772(3) 0.5394(2) 0.81893(13)
N1 N 0.5373(3) 0.3439(2) 0.91599(14)
N2 N 0.5878(3) 0.3874(2) 0.83644(14)
C1 C 0.7795(4) 0.3740(3) 0.84066(18)
H2 H 0.85340 0.47230 0.86060
C2 C 0.8252(4) 0.2859(3) 0.91849(19)
H3 H 0.95260 0.30880 0.95100
H4 H 0.79300 0.18070 0.89430
C3 C 0.7105(4) 0.3364(3) 0.98242(19)
H5 H 0.69410 0.26570 1.02370
C4 C 0.3980(3) 0.2192(3) 0.89562(18)
C5 C 0.2980(4) 0.1546(3) 0.8053(2)
H6 H 0.32350 0.19050 0.75400
C6 C 0.1608(4) 0.0369(4) 0.7911(2)
H7 H 0.09510 -0.00620 0.73020
C7 C 0.1200(5) -0.0173(4) 0.8657(3)
H8 H 0.03000 -0.09850 0.85570
C8 C 0.2144(4) 0.0503(4) 0.9557(2)
H9 H 0.18550 0.01590 1.00670
C9 C 0.3506(4) 0.1678(3) 0.9711(2)
H10 H 0.41160 0.21350 1.03230
C10 C 0.8020(4) 0.3045(3) 0.74678(19)
C11 C 0.6879(5) 0.1821(3) 0.6930(2)
H11 H 0.59460 0.13990 0.71500
C12 C 0.7067(5) 0.1190(4) 0.6069(2)
H12 H 0.62710 0.03580 0.57120
C13 C 0.8436(4) 0.1806(4) 0.5752(2)
C14 C 0.9627(5) 0.3005(5) 0.6279(3)
H13 H 1.05770 0.34020 0.60610
C15 C 0.9421(4) 0.3634(4) 0.7142(2)
H14 H 1.02310 0.44560 0.75010
C16 C 0.5128(4) 0.5023(3) 0.80433(17)
C17 C 0.5426(5) 0.6628(3) 0.6902(2)
C18 C 0.5254(7) 0.8042(4) 0.7487(3)
H15 H 0.43060 0.78560 0.77890
H16 H 0.49760 0.87540 0.70900
H17 H 0.63720 0.84190 0.79560
C19 C 0.3667(6) 0.5876(6) 0.6213(3)
H18 H 0.37960 0.49050 0.59420
H19 H 0.33540 0.64400 0.57250
H20 H 0.27330 0.58030 0.65340
C20 C 0.6902(7) 0.6876(5) 0.6410(3)
H21 H 0.80240 0.72830 0.68670
H22 H 0.66050 0.75500 0.59870
H23 H 0.70130 0.59530 0.60620
O4 O 0.9758(9) 0.1434(7) 0.4539(4)
O5 O 0.7314(11) -0.0082(9) 0.4375(6)
N3 N 0.8446(11) 0.0889(10) 0.4753(6)
O6? O 0.9963(10) 0.2047(9) 0.4594(5)
O7? O 0.7621(13) 0.034(1) 0.4335(7)
N4? N 0.8730(9) 0.1378(8) 0.4866(5)
#END
