
#######################################################################
#
#                 Cambridge Crystallographic Data Centre
#                                CCDC
#
#######################################################################
#
# If this CIF has been generated from an entry in the Cambridge
# Structural Database, then it will include bibliographic, chemical,
# crystal, experimental, refinement or atomic coordinate data resulting
# from the CCDC's data processing and validation procedures.
#
#######################################################################

data_CSD_CIF_BIKRUI
_audit_creation_date 1983-03-10
_audit_creation_method CSD-ConQuest-V1
_database_code_CSD BIKRUI
_database_code_depnum_ccdc_archive 'CCDC 1110921'
_chemical_formula_sum 'C19 H23 N1 O7'
_chemical_formula_moiety
;
C19 H23 N1 O7
;
_journal_coden_Cambridge 167
_journal_year 1982
_journal_page_first 1091
_journal_name_full 'Liebigs Ann. '
loop_
_publ_author_name
"H.Gnichtel"
"L.Autenrieth"
"P.Luger"
"K.Vangehr"
_chemical_name_systematic
;
Ethyl 
4,6-di-O-acetyl-2,3-dideoxy-4',5'-dihydro-3'-phenyl-\a-D-mannohexopyranosido(2
,3-d)isoxazole
;
_chemical_melting_point 389.15
_cell_volume   2027.621
_exptl_crystal_density_diffrn 1.24
_exptl_special_details
;
Coordinates of C35' and C36' have been received from authors

;
_diffrn_ambient_temperature ?
_diffrn_special_details
;
The study was carried out at room temperature,in the range 283-303K

;
#These two values have been output from a single CSD field.
_refine_ls_R_factor_gt 0.049
_refine_ls_wR_factor_gt 0.049
_symmetry_cell_setting orthorhombic
_symmetry_space_group_name_H-M 'P 21 21 21'
_symmetry_Int_Tables_number 19
loop_
_symmetry_equiv_pos_site_id
_symmetry_equiv_pos_as_xyz
1 x,y,z
2 1/2+x,1/2-y,-z
3 -x,1/2+y,1/2-z
4 1/2-x,-y,1/2+z
_cell_length_a 19.246(3)
_cell_length_b 9.803(2)
_cell_length_c 10.747(2)
_cell_angle_alpha 90
_cell_angle_beta 90
_cell_angle_gamma 90
_cell_formula_units_Z 4
loop_
_atom_type_symbol
_atom_type_radius_bond
C 0.68
H 0.23
N 0.68
O 0.68
loop_
_atom_site_label
_atom_site_type_symbol
_atom_site_fract_x
_atom_site_fract_y
_atom_site_fract_z
C1 C 0.74940 -0.62360 0.52870
C2 C 0.68510 -0.59260 0.45470
C3 C 0.68340 -0.45380 0.38900
C4 C 0.72180 -0.34280 0.46160
C5 C 0.79160 -0.39510 0.50810
O1 O 0.77570 -0.50590 0.59120
O2 O 0.79900 -0.67380 0.44760
C6 C 0.85970 -0.72610 0.51320
C7 C 0.90790 -0.77800 0.43230
O3 O 0.61110 -0.41850 0.38480
N1 N 0.57820 -0.48430 0.48750
C8 C 0.61870 -0.57880 0.52800
O4 O 0.73140 -0.23250 0.37350
C9 C 0.71670 -0.10370 0.41450
O5 O 0.70720 -0.07940 0.51780
C10 C 0.72330 -0.00310 0.31000
C11 C 0.83040 -0.29270 0.58540
O6 O 0.89720 -0.35430 0.61260
C12 C 0.93730 -0.29420 0.69410
O7 O 0.91800 -0.19800 0.75330
C13 C 1.00520 -0.36310 0.70840
C14 C 0.59790 -0.66660 0.63280
C15 C 0.61180 -0.80530 0.62870
C16 C 0.58930 -0.88620 0.72640
C17 C 0.55430 -0.83150 0.82500
C18 C 0.54170 -0.69510 0.83020
C19 C 0.56360 -0.61100 0.73440
H1 H 0.73200 -0.69300 0.61200
H2 H 0.68300 -0.66500 0.40200
H3 H 0.69600 -0.46200 0.30200
H4 H 0.68700 -0.31900 0.54500
H5 H 0.82500 -0.42300 0.43200
H6 H 0.87900 -0.65000 0.55900
H7 H 0.84400 -0.82900 0.56700
H8 H 0.95300 -0.73700 0.46800
H9 H 0.90900 -0.88000 0.46700
H10 H 0.90200 -0.77400 0.34800
H11 H 0.74200 -0.03800 0.24900
H12 H 0.67300 0.02100 0.28000
H13 H 0.78100 0.05900 0.33100
H14 H 0.81200 -0.27300 0.65700
H15 H 0.84000 -0.19200 0.52400
H16 H 1.00500 -0.44600 0.77900
H17 H 1.02800 -0.36900 0.64500
H18 H 1.03700 -0.31100 0.74500
H19 H 0.64200 -0.84700 0.55500
H20 H 0.60600 -0.96600 0.72400
H21 H 0.52600 -0.90000 0.90900
H22 H 0.51600 -0.65900 0.89200
H23 H 0.55100 -0.52000 0.72900
#END
