
#######################################################################
#
#                 Cambridge Crystallographic Data Centre
#                                CCDC
#
#######################################################################
#
# If this CIF has been generated from an entry in the Cambridge
# Structural Database, then it will include bibliographic, chemical,
# crystal, experimental, refinement or atomic coordinate data resulting
# from the CCDC's data processing and validation procedures.
#
#######################################################################

data_CSD_CIF_BIKZED
_audit_creation_date 2018-07-13
_audit_creation_method CSD-ConQuest-V1
_database_code_CSD BIKZED
_database_code_depnum_ccdc_archive 'CCDC 1524107'
_chemical_formula_sum 'C23 H28 N4 O1'
_chemical_formula_moiety
;
C23 H28 N4 O1
;
_journal_coden_Cambridge 1220
_journal_volume 24
_journal_year 2018
_journal_page_first 7939
_journal_name_full 'Chem.-Eur.J. '
loop_
_publ_author_name
"Y.Takahashi"
"R.Matsuhashi"
"Y.Miura"
"N.Yoshioka"
_chemical_name_systematic
;
3-t-butyl-6,6,8,8-tetramethyl-1-phenyl-6,8-dihydro-7H-[1,2,4]triazino[5,6-f]is
oindol-1-ium-7-olate
;
_chemical_melting_point 441
_cell_volume   2125.752
_exptl_crystal_colour 'black'
_exptl_crystal_density_diffrn 1.176
_exptl_special_details
;
Melting point range 441-443K

;
_exptl_crystal_description 'prism'
_diffrn_ambient_temperature 296
#These two values have been output from a single CSD field.
_refine_ls_R_factor_gt 0.0521
_refine_ls_wR_factor_gt 0.0521
_symmetry_cell_setting monoclinic
_symmetry_space_group_name_H-M 'P 21/c'
_symmetry_Int_Tables_number 14
loop_
_symmetry_equiv_pos_site_id
_symmetry_equiv_pos_as_xyz
1 x,y,z
2 -x,1/2+y,1/2-z
3 -x,-y,-z
4 x,-1/2-y,-1/2+z
_cell_length_a 15.4810(11)
_cell_length_b 5.9080(5)
_cell_length_c 23.3520(16)
_cell_angle_alpha 90
_cell_angle_beta 95.564(2)
_cell_angle_gamma 90
_cell_formula_units_Z 4
loop_
_atom_type_symbol
_atom_type_radius_bond
C 0.68
H 0.23
N 0.68
O 0.68
loop_
_atom_site_label
_atom_site_type_symbol
_atom_site_fract_x
_atom_site_fract_y
_atom_site_fract_z
N1 N 0.32888(10) 0.2441(3) 0.30510(7)
N2 N 0.15990(11) 0.1209(3) 0.27756(7)
N3 N 0.2840(1) 0.3346(3) 0.25703(7)
N4 N 0.24692(11) -0.3164(3) 0.50415(7)
C1 C 0.29035(12) -0.1002(3) 0.43129(8)
C2 C 0.33395(12) 0.0351(3) 0.39541(8)
H1 H 0.39110 0.07810 0.40580
C3 C 0.41799(12) 0.3122(3) 0.31506(8)
C4 C 0.20425(13) 0.0423(4) 0.32724(8)
C5 C 0.32323(13) -0.1875(4) 0.48977(8)
C6 C 0.29126(12) 0.1058(3) 0.34359(8)
C7 C 0.16210(13) -0.0984(4) 0.36400(9)
H2 H 0.10550 -0.14580 0.35360
C8 C 0.20233(12) 0.2674(4) 0.24687(8)
C9 C 0.20492(13) -0.1662(3) 0.41554(8)
C10 C 0.48198(13) 0.1651(4) 0.30255(9)
H3 H 0.46750 0.02420 0.28660
C11 C 0.43851(15) 0.5217(4) 0.33809(9)
H4 H 0.39500 0.62250 0.34590
C12 C 0.16970(13) -0.3090(3) 0.46143(9)
C13 C 0.14976(14) 0.3725(4) 0.19499(9)
C14 C 0.34303(18) 0.0024(4) 0.5333(1)
H5 H 0.29430 0.10340 0.53220
H6 H 0.39330 0.08430 0.52390
H7 H 0.35390 -0.06090 0.57120
C15 C 0.56755(14) 0.2263(5) 0.31357(9)
H8 H 0.61110 0.12690 0.30510
C16 C 0.52515(17) 0.5803(4) 0.3495(1)
H9 H 0.54010 0.72050 0.36570
C17 C 0.58868(16) 0.4330(5) 0.33702(10)
H10 H 0.64670 0.47370 0.34460
C18 C 0.09480(15) -0.1977(4) 0.48840(11)
H11 H 0.08000 -0.28700 0.52040
H12 H 0.04540 -0.18700 0.46030
H13 H 0.11170 -0.04880 0.50160
C19 C 0.40040(16) -0.3471(5) 0.48925(11)
H14 H 0.41450 -0.40800 0.52710
H15 H 0.44940 -0.26550 0.47760
H16 H 0.38590 -0.46850 0.46270
C20 C 0.14553(19) -0.5488(4) 0.44117(12)
H17 H 0.19460 -0.61880 0.42620
H18 H 0.09800 -0.54240 0.41160
H19 H 0.12890 -0.63590 0.47300
C21 C 0.07873(18) 0.5152(5) 0.21735(13)
H20 H 0.04340 0.42170 0.23930
H21 H 0.04350 0.58060 0.18550
H22 H 0.10450 0.63370 0.24140
C22 C 0.1075(2) 0.1843(6) 0.15744(12)
H23 H 0.15170 0.09190 0.14320
H24 H 0.07210 0.24960 0.12560
H25 H 0.07200 0.09300 0.17980
C23 C 0.20542(18) 0.5196(7) 0.16053(15)
H26 H 0.23380 0.63280 0.18510
H27 H 0.16960 0.59170 0.13000
H28 H 0.24830 0.42780 0.14460
O1 O 0.24719(11) -0.4295(3) 0.55057(7)
#END
