
#######################################################################
#
#                 Cambridge Crystallographic Data Centre
#                                CCDC
#
#######################################################################
#
# If this CIF has been generated from an entry in the Cambridge
# Structural Database, then it will include bibliographic, chemical,
# crystal, experimental, refinement or atomic coordinate data resulting
# from the CCDC's data processing and validation procedures.
#
#######################################################################

data_CSD_CIF_BILFAG
_audit_creation_date 2018-07-13
_audit_creation_method CSD-ConQuest-V1
_database_code_CSD BILFAG
_database_code_depnum_ccdc_archive 'CCDC 1816500'
_chemical_formula_sum 'C27 H36 N4 O1'
_chemical_formula_moiety
;
C27 H36 N4 O1
;
_journal_coden_Cambridge 1220
_journal_volume 24
_journal_year 2018
_journal_page_first 7939
_journal_name_full 'Chem.-Eur.J. '
loop_
_publ_author_name
"Y.Takahashi"
"R.Matsuhashi"
"Y.Miura"
"N.Yoshioka"
_chemical_name_systematic
;
3-t-butyl-1-phenyl-1,4,6,8-tetrahydro-6,6,8,8-tetraethylpyrrolo[4,5-g]-1,2,4-b
enzotriazin-4-yl-7-oxyl diradical
;
_chemical_melting_point 433
_cell_volume   2516.207
_exptl_crystal_colour 'black red'
_exptl_crystal_density_diffrn 1.142
_exptl_special_details
;
Melting point range 433-434K

;
_exptl_crystal_description 'plate'
_diffrn_ambient_temperature 300
#These two values have been output from a single CSD field.
_refine_ls_R_factor_gt 0.0756
_refine_ls_wR_factor_gt 0.0756
_symmetry_cell_setting monoclinic
_symmetry_space_group_name_H-M 'P 21/n'
_symmetry_Int_Tables_number 14
loop_
_symmetry_equiv_pos_site_id
_symmetry_equiv_pos_as_xyz
1 x,y,z
2 1/2-x,1/2+y,1/2-z
3 -x,-y,-z
4 -1/2+x,-1/2-y,-1/2+z
_cell_length_a 11.5027(8)
_cell_length_b 8.6352(6)
_cell_length_c 25.4247(19)
_cell_angle_alpha 90
_cell_angle_beta 94.887(2)
_cell_angle_gamma 90
_cell_formula_units_Z 4
loop_
_atom_type_symbol
_atom_type_radius_bond
C 0.68
H 0.23
N 0.68
O 0.68
loop_
_atom_site_label
_atom_site_type_symbol
_atom_site_fract_x
_atom_site_fract_y
_atom_site_fract_z
N1 N 0.77873(16) 0.6362(2) 0.14842(7)
N2 N 0.84139(17) 0.7597(2) 0.13263(8)
N3 N 0.67068(17) 0.8552(2) 0.08370(8)
N4 N 0.29258(18) 0.4012(3) 0.10731(10)
C1 C 0.6008(2) 0.4794(3) 0.14333(9)
H1 H 0.63740 0.40020 0.16320
C2 C 0.66289(19) 0.6110(3) 0.13057(8)
C3 C 0.6098(2) 0.7278(3) 0.09795(9)
C4 C 0.4842(2) 0.4687(3) 0.12596(9)
C5 C 0.7827(2) 0.8607(3) 0.10112(9)
C6 C 0.4920(2) 0.7113(3) 0.07997(9)
H2 H 0.45550 0.78680 0.05830
C7 C 0.43032(19) 0.5847(3) 0.09410(9)
C8 C 0.84185(19) 0.5376(3) 0.18627(9)
C9 C 0.3041(2) 0.5482(3) 0.07781(11)
C10 C 0.8506(2) 1.0024(3) 0.08513(11)
C11 C 0.4010(2) 0.3412(3) 0.13679(11)
C12 C 0.9451(2) 0.4729(3) 0.17451(11)
H3 H 0.97450 0.49190 0.14220
C13 C 0.8604(3) 0.4200(4) 0.27117(12)
H4 H 0.83190 0.40280 0.30380
C14 C 0.2865(2) 0.5221(4) 0.01727(11)
H5 H 0.30520 0.61810 0.00000
H6 H 0.34260 0.44510 0.00790
C15 C 0.9622(3) 0.3526(4) 0.25986(15)
H7 H 1.00270 0.28910 0.28460
C16 C 1.0052(3) 0.3784(4) 0.21177(14)
H8 H 1.07490 0.33230 0.20420
C17 C 0.4346(3) 0.1825(3) 0.11436(15)
H9 H 0.50400 0.14550 0.13490
H10 H 0.37230 0.10980 0.11950
C18 C 0.7993(2) 0.5136(3) 0.23466(11)
H11 H 0.72990 0.56000 0.24260
C19 C 0.4574(4) 0.1803(4) 0.05687(17)
H12 H 0.38450 0.18350 0.03550
H13 H 0.49850 0.08730 0.04930
H14 H 0.50360 0.26870 0.04920
C20 C 0.2182(2) 0.6714(4) 0.09422(13)
H15 H 0.22580 0.76240 0.07240
H16 H 0.13960 0.63200 0.08670
C21 C 0.9787(3) 0.9934(5) 0.1034(2)
H17 H 0.98810 0.99130 0.14130
H18 H 1.01820 1.08230 0.09080
H19 H 1.01140 0.90100 0.08970
C22 C 0.1667(3) 0.4708(5) -0.00512(15)
H20 H 0.14740 0.37420 0.01070
H21 H 0.16640 0.45790 -0.04260
H22 H 0.11010 0.54770 0.00240
C23 C 0.3800(3) 0.3275(6) 0.19593(15)
H23 H 0.33990 0.42110 0.20510
H24 H 0.32550 0.24290 0.19880
C24 C 0.8344(4) 1.0195(5) 0.02545(15)
H25 H 0.86650 0.93060 0.00920
H26 H 0.87380 1.11110 0.01510
H27 H 0.75270 1.02740 0.01440
C25 C 0.2329(4) 0.7192(6) 0.15024(16)
H28 H 0.21230 0.63480 0.17220
H29 H 0.18330 0.80620 0.15550
H30 H 0.31280 0.74770 0.15940
C26 C 0.7958(4) 1.1455(4) 0.10827(19)
H31 H 0.71390 1.14810 0.09720
H32 H 0.83240 1.23700 0.09600
H33 H 0.80660 1.14140 0.14610
C27 C 0.4680(6) 0.3052(11) 0.2344(3)
H34 H 0.51580 0.22030 0.22480
H35 H 0.43580 0.28220 0.26710
H36 H 0.51460 0.39730 0.23840
O1 O 0.19474(18) 0.3368(3) 0.11065(11)
#END
