
#######################################################################
#
#                 Cambridge Crystallographic Data Centre
#                                CCDC
#
#######################################################################
#
# If this CIF has been generated from an entry in the Cambridge
# Structural Database, then it will include bibliographic, chemical,
# crystal, experimental, refinement or atomic coordinate data resulting
# from the CCDC's data processing and validation procedures.
#
#######################################################################

data_CSD_CIF_BILJIP
_audit_creation_date 1983-04-12
_audit_creation_method CSD-ConQuest-V1
_database_code_CSD BILJIP
_chemical_formula_sum 'C18 H27 N1 O1'
_chemical_formula_moiety
;
C18 H27 N1 O1
;
_journal_coden_Cambridge 4
_journal_volume 104
_journal_year 1982
_journal_page_first 3929
_journal_name_full 'J.Am.Chem.Soc. '
loop_
_publ_author_name
"A.Lattes"
"E.Oliveros"
"M.Riviere"
"C.Belzecki"
"D.Mostowicz"
"W.Abramskj"
"C.Piccinni-Leopardi"
"G.Germain"
"M.van Meerssche"
_chemical_name_systematic
;
(2R,\aS)-6(e)-t-Butyl-2-(\a-methylbenzyl)-1,2-oxazaspiro(2.5)octane
;
_chemical_melting_point 368.15
_cell_volume   1691.969
_exptl_crystal_density_diffrn 1.07
_exptl_special_details
;
Melting point range 368.15-370.15K
Absolute configuration

;
_diffrn_ambient_temperature ?
_diffrn_special_details
;
The study was carried out at room temperature,in the range 283-303K

;
#These two values have been output from a single CSD field.
_refine_ls_R_factor_gt 0.061
_refine_ls_wR_factor_gt 0.061
_symmetry_cell_setting orthorhombic
_symmetry_space_group_name_H-M 'P 21 21 21'
_symmetry_Int_Tables_number 19
loop_
_symmetry_equiv_pos_site_id
_symmetry_equiv_pos_as_xyz
1 x,y,z
2 1/2+x,1/2-y,-z
3 -x,1/2+y,1/2-z
4 1/2-x,-y,1/2+z
_cell_length_a 17.741(6)
_cell_length_b 6.130(2)
_cell_length_c 15.558(6)
_cell_angle_alpha 90
_cell_angle_beta 90
_cell_angle_gamma 90
_cell_formula_units_Z 4
loop_
_atom_type_symbol
_atom_type_radius_bond
C 0.68
N 0.68
O 0.68
loop_
_atom_site_label
_atom_site_type_symbol
_atom_site_fract_x
_atom_site_fract_y
_atom_site_fract_z
O1 O 0.40320 -0.12710 0.23800
N1 N 0.36240 -0.23190 0.31460
C1 C 0.42300 -0.07400 0.32450
C2 C 0.49420 -0.18290 0.35790
C3 C 0.49100 -0.17230 0.45810
C4 C 0.48630 0.06820 0.48900
C5 C 0.41520 0.17280 0.45170
C6 C 0.41310 0.16440 0.35110
C7 C 0.28360 -0.15060 0.31480
C8 C 0.25550 -0.16860 0.40630
C9 C 0.26930 -0.35730 0.45280
C10 C 0.24280 -0.36800 0.53810
C11 C 0.20290 -0.20030 0.57330
C12 C 0.18770 -0.02380 0.52640
C13 C 0.21490 0.00190 0.44100
C14 C 0.23920 -0.29650 0.25240
C15 C 0.48830 0.08150 0.58880
C16 C 0.56400 -0.00330 0.62200
C17 C 0.48450 0.32280 0.61630
C18 C 0.42440 -0.03830 0.63230
#END
