
#######################################################################
#
#                 Cambridge Crystallographic Data Centre
#                                CCDC
#
#######################################################################
#
# If this CIF has been generated from an entry in the Cambridge
# Structural Database, then it will include bibliographic, chemical,
# crystal, experimental, refinement or atomic coordinate data resulting
# from the CCDC's data processing and validation procedures.
#
#######################################################################

data_CSD_CIF_BIMPOD
_audit_creation_date 2005-03-03
_audit_creation_method CSD-ConQuest-V1
_database_code_CSD BIMPOD
_database_code_depnum_ccdc_archive 'CCDC 256397'
_chemical_formula_sum 'C26 H26 N6 O4'
_chemical_formula_moiety
;
C26 H26 N6 O4
;
_journal_coden_Cambridge 1088
_journal_volume 2004
_journal_year 2004
_journal_page_first 2000
_journal_name_full 'Synlett '
loop_
_publ_author_name
"I.-C.Grig-Alexa"
"E.Garnier"
"A.-L.Finaru"
"L.Ivan"
"C.Jarry"
"J.-M.Leger"
"P.Caubere"
"G.Guillaumet"
_chemical_name_systematic
;
6,13-Dibutyl-3,14-dinitro-6,13-dihydroquino(2',3':5,6)pyrazino(2,3-b)quinoline
;
_cell_volume   1234.310
_diffrn_ambient_temperature 296
#These two values have been output from a single CSD field.
_refine_ls_R_factor_gt 0.0564
_refine_ls_wR_factor_gt 0.0564
_symmetry_cell_setting triclinic
_symmetry_space_group_name_H-M 'P -1'
_symmetry_Int_Tables_number 2
loop_
_symmetry_equiv_pos_site_id
_symmetry_equiv_pos_as_xyz
1 x,y,z
2 -x,-y,-z
_cell_length_a 9.160(2)
_cell_length_b 10.958(4)
_cell_length_c 13.579(6)
_cell_angle_alpha 103.61(3)
_cell_angle_beta 98.03(3)
_cell_angle_gamma 107.03(2)
_cell_formula_units_Z 2
loop_
_atom_type_symbol
_atom_type_radius_bond
C 0.68
H 0.23
N 0.68
O 0.68
loop_
_atom_site_label
_atom_site_type_symbol
_atom_site_fract_x
_atom_site_fract_y
_atom_site_fract_z
C1 C 0.2223(3) -0.0476(3) 0.01553(17)
C2 C 0.1995(3) -0.1816(3) 0.0016(2)
H1 H 0.24510 -0.22630 -0.04520
C3 C 0.1089(3) -0.2474(3) 0.0575(2)
H2 H 0.09280 -0.33740 0.04870
C4 C 0.0394(3) -0.1798(2) 0.12850(17)
C5 C 0.0650(2) -0.0437(2) 0.14120(16)
C6 C 0.1579(3) 0.0219(3) 0.08327(17)
H3 H 0.17550 0.11190 0.09080
C7 C -0.0535(3) -0.2373(2) 0.19337(17)
C8 C -0.1211(2) -0.1677(2) 0.25895(16)
C9 C -0.0792(2) -0.0271(2) 0.26720(15)
N1 N 0.0078(2) 0.03073(17) 0.21149(13)
N2 N -0.2288(2) -0.22107(17) 0.31280(14)
C10 C -0.2535(2) -0.1367(2) 0.39948(16)
C11 C -0.2014(2) 0.0034(2) 0.41330(16)
N3 N -0.1353(2) 0.05080(16) 0.33693(13)
N4 N -0.3269(2) -0.19302(18) 0.46165(14)
C12 C -0.3547(2) -0.1138(2) 0.54578(16)
C13 C -0.3073(2) 0.0253(2) 0.56681(16)
C14 C -0.2275(2) 0.0827(2) 0.49780(16)
H4 H -0.19280 0.17470 0.51020
C15 C -0.4322(3) -0.1742(3) 0.61419(18)
H5 H -0.46250 -0.26620 0.60160
C16 C -0.4627(3) -0.0983(3) 0.69817(19)
H6 H -0.51240 -0.13890 0.74310
C17 C -0.4206(3) 0.0385(3) 0.71762(19)
H7 H -0.44490 0.08870 0.77430
C18 C -0.3435(3) 0.1008(3) 0.65395(18)
H8 H -0.31480 0.19300 0.66800
N5 N 0.3200(3) 0.0228(3) -0.04462(16)
O1 O 0.3402(3) 0.1408(3) -0.03214(19)
O2 O 0.3750(3) -0.0411(3) -0.10597(15)
C19 C -0.3319(3) -0.3616(2) 0.2772(2)
H9 H -0.27200 -0.41720 0.25170
H10 H -0.36740 -0.38670 0.33590
C20 C -0.4657(6) -0.3874(4) 0.1968(5)
H11 H -0.43070 -0.36360 0.13750
H12 H -0.52570 -0.33170 0.22190
C21 C -0.5710(7) -0.5336(5) 0.1622(7)
H13 H -0.53870 -0.58040 0.10390
H14 H -0.55260 -0.57140 0.21860
C22 C -0.7176(11) -0.5572(8) 0.1356(8)
H15 H -0.77180 -0.65170 0.11610
H16 H -0.73900 -0.52410 0.07770
H17 H -0.75260 -0.51370 0.19300
C23 C -0.1031(3) 0.1912(2) 0.33906(17)
H18 H -0.18480 0.22070 0.36410
H19 H -0.10740 0.19730 0.26870
C24 C 0.0540(3) 0.2837(2) 0.40677(19)
H20 H 0.05150 0.29170 0.47910
H21 H 0.13400 0.24560 0.39070
C25 C 0.0963(4) 0.4196(3) 0.3916(3)
H22 H 0.01530 0.45690 0.40670
H23 H 0.09930 0.41130 0.31920
C26 C 0.2530(4) 0.5152(3) 0.4595(3)
H24 H 0.27400 0.60000 0.44580
H25 H 0.33410 0.47970 0.44420
H26 H 0.24990 0.52640 0.53130
N6 N -0.0599(3) -0.3717(2) 0.1940(2)
O3 O -0.1155(4) -0.4620(2) 0.1144(2)
O4 O -0.0066(3) -0.3838(2) 0.2783(3)
#END
