
#######################################################################
#
#                 Cambridge Crystallographic Data Centre
#                                CCDC
#
#######################################################################
#
# If this CIF has been generated from an entry in the Cambridge
# Structural Database, then it will include bibliographic, chemical,
# crystal, experimental, refinement or atomic coordinate data resulting
# from the CCDC's data processing and validation procedures.
#
#######################################################################

data_CSD_CIF_BIMQAQ
_audit_creation_date 2005-03-03
_audit_creation_method CSD-ConQuest-V1
_database_code_CSD BIMQAQ
_database_code_depnum_ccdc_archive 'CCDC 256399'
_chemical_formula_sum 'C26 H26 N6 O4'
_chemical_formula_moiety
;
C26 H26 N6 O4
;
_journal_coden_Cambridge 1088
_journal_volume 2004
_journal_year 2004
_journal_page_first 2000
_journal_name_full 'Synlett '
loop_
_publ_author_name
"I.-C.Grig-Alexa"
"E.Garnier"
"A.-L.Finaru"
"L.Ivan"
"C.Jarry"
"J.-M.Leger"
"P.Caubere"
"G.Guillaumet"
_chemical_name_systematic
;
6,13-Dibutyl-3,12-dinitro-6,13-dihydroquino(3',2':5,6)pyrazino(2,3-b)quinoline
;
_cell_volume   2393.836
_exptl_crystal_density_diffrn 1.35
_diffrn_ambient_temperature 296
#These two values have been output from a single CSD field.
_refine_ls_R_factor_gt 0.0599
_refine_ls_wR_factor_gt 0.0599
_symmetry_cell_setting monoclinic
_symmetry_space_group_name_H-M 'P 21/c'
_symmetry_Int_Tables_number 14
loop_
_symmetry_equiv_pos_site_id
_symmetry_equiv_pos_as_xyz
1 x,y,z
2 -x,1/2+y,1/2-z
3 -x,-y,-z
4 x,-1/2-y,-1/2+z
_cell_length_a 12.852(1)
_cell_length_b 8.782(1)
_cell_length_c 21.644(3)
_cell_angle_alpha 90
_cell_angle_beta 101.50(1)
_cell_angle_gamma 90
_cell_formula_units_Z 4
loop_
_atom_type_symbol
_atom_type_radius_bond
C 0.68
H 0.23
N 0.68
O 0.68
loop_
_atom_site_label
_atom_site_type_symbol
_atom_site_fract_x
_atom_site_fract_y
_atom_site_fract_z
C1 C -0.1198(3) 0.9142(5) -0.06283(19)
C2 C -0.1787(3) 0.9224(5) -0.0159(2)
H1 H -0.23930 0.98260 -0.02090
C3 C -0.1454(3) 0.8401(5) 0.03794(19)
H2 H -0.18490 0.84240 0.06960
C4 C -0.0519(3) 0.7511(4) 0.04627(17)
C5 C 0.0051(3) 0.7438(4) -0.00242(19)
C6 C -0.0306(3) 0.8269(4) -0.05827(18)
H3 H 0.00580 0.82250 -0.09130
C7 C -0.0088(3) 0.6761(4) 0.10367(18)
H4 H -0.04460 0.67840 0.13700
C8 C 0.0847(3) 0.6010(4) 0.10978(17)
C9 C 0.1340(3) 0.5929(4) 0.05635(17)
N1 N 0.0972(2) 0.6595(4) 0.00258(14)
N2 N 0.1381(2) 0.5403(4) 0.16712(14)
C10 C 0.2120(3) 0.4244(4) 0.16532(17)
C11 C 0.2637(3) 0.4166(4) 0.11199(17)
N3 N 0.2283(2) 0.5114(4) 0.06118(13)
C12 C 0.2467(3) 0.3211(5) 0.21268(18)
C13 C 0.3312(3) 0.2158(5) 0.21117(18)
C14 C 0.3759(3) 0.2242(5) 0.15693(19)
N4 N 0.3419(2) 0.3238(4) 0.10847(15)
C15 C 0.3688(3) 0.1053(5) 0.2578(2)
H5 H 0.33970 0.09830 0.29370
C16 C 0.4487(3) 0.0083(6) 0.2493(2)
H6 H 0.47370 -0.06390 0.28010
C17 C 0.4927(3) 0.0154(6) 0.1965(2)
H7 H 0.54600 -0.05240 0.19160
C18 C 0.4580(3) 0.1223(5) 0.1512(2)
H8 H 0.48920 0.12790 0.11600
N5 N -0.1512(3) 1.0092(4) -0.11898(18)
O1 O -0.2267(3) 1.0977(4) -0.12113(15)
O2 O -0.1015(3) 1.0006(4) -0.16160(15)
C19 C 0.1286(3) 0.6169(5) 0.22659(18)
H9 H 0.09910 0.54560 0.25280
H10 H 0.07950 0.70140 0.21700
C20 C 0.2341(4) 0.6761(6) 0.2634(2)
H11 H 0.25920 0.75670 0.23950
H12 H 0.28590 0.59440 0.26840
C21 C 0.2266(4) 0.7370(7) 0.3285(2)
H13 H 0.20390 0.65470 0.35260
H14 H 0.29690 0.76790 0.35000
C22 C 0.1528(5) 0.8678(7) 0.3283(3)
H15 H 0.15160 0.89660 0.37090
H16 H 0.08270 0.83880 0.30720
H17 H 0.17670 0.95230 0.30670
C23 C 0.2830(3) 0.5120(6) 0.0071(2)
H18 H 0.23010 0.50620 -0.03170
H19 H 0.32710 0.42170 0.00940
C24 C 0.3505(4) 0.6484(7) 0.0044(2)
H20 H 0.37910 0.64340 -0.03380
H21 H 0.30620 0.73850 0.00160
C25 C 0.4378(5) 0.6647(7) 0.0578(3)
H22 H 0.47520 0.56840 0.06540
H23 H 0.40970 0.68910 0.09500
C26 C 0.5189(5) 0.7929(7) 0.0474(3)
H24 H 0.57560 0.79840 0.08360
H25 H 0.48290 0.88920 0.04130
H26 H 0.54740 0.76900 0.01080
N6 N 0.1928(3) 0.3063(4) 0.26547(18)
O3 O 0.0982(3) 0.2765(4) 0.25414(17)
O4 O 0.2451(3) 0.3216(5) 0.31922(15)
#END
