
#######################################################################
#
#                 Cambridge Crystallographic Data Centre
#                                CCDC
#
#######################################################################
#
# If this CIF has been generated from an entry in the Cambridge
# Structural Database, then it will include bibliographic, chemical,
# crystal, experimental, refinement or atomic coordinate data resulting
# from the CCDC's data processing and validation procedures.
#
#######################################################################

data_CSD_CIF_BIMYOM
_audit_creation_date 2005-03-03
_audit_creation_method CSD-ConQuest-V1
_database_code_CSD BIMYOM
_database_code_depnum_ccdc_archive 'CCDC 211232'
_chemical_formula_sum 'C23 H22 N2 O6'
_chemical_formula_moiety
;
C23 H22 N2 O6
;
_journal_coden_Cambridge 182
_journal_year 2004
_journal_page_first 2486
_journal_name_full 'Chem.Commun. '
loop_
_publ_author_name
"Yuanhua Wang"
"Zhiyong Chen"
"Aiqiao Mi"
"Wenhao Hu"
_chemical_name_systematic
;
erthyro-Methyl 
3-hydroxy-2-(2-methoxyphenylamino)-3-(2-nitrophenyl)-2-phenylpropanoate
;
_chemical_melting_point 411.95
_cell_volume   4161.041
_exptl_crystal_density_diffrn 1.349
_exptl_special_details
;
Melting point range 411.95-412.35K

;
_diffrn_ambient_temperature 291
#These two values have been output from a single CSD field.
_refine_ls_R_factor_gt 0.047
_refine_ls_wR_factor_gt 0.047
_symmetry_cell_setting orthorhombic
_symmetry_space_group_name_H-M 'P b c a'
_symmetry_Int_Tables_number 61
loop_
_symmetry_equiv_pos_site_id
_symmetry_equiv_pos_as_xyz
1 x,y,z
2 1/2+x,y,1/2-z
3 x,1/2-y,1/2+z
4 1/2-x,1/2+y,z
5 -x,-y,-z
6 -1/2-x,-y,-1/2+z
7 -x,-1/2+y,-1/2-z
8 -1/2+x,-1/2-y,-z
_cell_length_a 9.919(2)
_cell_length_b 16.766(4)
_cell_length_c 25.021(5)
_cell_angle_alpha 90
_cell_angle_beta 90
_cell_angle_gamma 90
_cell_formula_units_Z 8
loop_
_atom_type_symbol
_atom_type_radius_bond
C 0.68
H 0.23
N 0.68
O 0.68
loop_
_atom_site_label
_atom_site_type_symbol
_atom_site_fract_x
_atom_site_fract_y
_atom_site_fract_z
O1 O 0.3241(2) 0.84198(11) 0.44856(8)
O2 O 0.48680(18) 0.81338(10) 0.29449(7)
O3 O 0.66633(19) 0.73399(11) 0.28927(8)
O4 O 0.38303(18) 0.64378(11) 0.25676(7)
H1 H 0.33350 0.65930 0.23270
O5 O 0.1431(2) 0.77378(12) 0.36164(9)
O6 O -0.0588(2) 0.73285(14) 0.3505(1)
N1 N 0.4261(2) 0.73221(13) 0.38858(9)
N2 N 0.0616(3) 0.72023(16) 0.35469(10)
C1 C 0.4591(3) 0.83105(16) 0.45614(11)
C2 C 0.5382(4) 0.87102(18) 0.49283(12)
H2 H 0.50000 0.90900 0.51530
C3 C 0.6740(4) 0.8544(2) 0.49600(13)
H3 H 0.72670 0.87950 0.52170
C4 C 0.7316(3) 0.80099(18) 0.46139(12)
H4 H 0.82400 0.79180 0.46270
C5 C 0.6523(3) 0.76037(15) 0.42424(11)
H5 H 0.69240 0.72410 0.40110
C6 C 0.5150(3) 0.77347(15) 0.42149(10)
C7 C 0.4669(2) 0.69050(14) 0.34046(10)
C8 C 0.5398(2) 0.61221(15) 0.35297(11)
C9 C 0.6087(3) 0.57019(16) 0.31384(12)
H6 H 0.61600 0.59140 0.27960
C10 C 0.6667(3) 0.49712(17) 0.32506(14)
H7 H 0.71430 0.47030 0.29860
C11 C 0.6546(3) 0.46378(18) 0.37491(16)
H8 H 0.69210 0.41410 0.38200
C12 C 0.5871(3) 0.50425(17) 0.41408(13)
H9 H 0.58000 0.48240 0.44810
C13 C 0.5286(3) 0.57830(16) 0.40324(11)
H10 H 0.48180 0.60500 0.43000
C14 C 0.3376(2) 0.67517(15) 0.30624(10)
H11 H 0.29220 0.72620 0.29970
C15 C 0.2364(3) 0.61677(15) 0.33102(10)
C16 C 0.2648(3) 0.53526(16) 0.32884(11)
H12 H 0.34660 0.51850 0.31450
C17 C 0.1746(3) 0.47866(18) 0.34735(13)
H13 H 0.19820 0.42500 0.34650
C18 C 0.0514(4) 0.5004(2) 0.36689(13)
H14 H -0.00790 0.46180 0.37960
C19 C 0.0153(3) 0.5799(2) 0.36776(11)
H15 H -0.07000 0.59540 0.37930
C20 C 0.1090(3) 0.63640(17) 0.35106(10)
C21 C 0.2568(3) 0.89896(18) 0.48105(13)
H16 H 0.27280 0.88700 0.51800
H17 H 0.16170 0.89700 0.47400
H18 H 0.29040 0.95130 0.47310
C22 C 0.5537(3) 0.74592(15) 0.30504(11)
C23 C 0.5521(3) 0.86863(15) 0.25846(12)
H19 H 0.64740 0.86860 0.26500
H20 H 0.51690 0.92130 0.26420
H21 H 0.53520 0.85280 0.22220
H22 H 0.349(2) 0.7584(12) 0.3872(9)
#END
