
#######################################################################
#
#                 Cambridge Crystallographic Data Centre
#                                CCDC
#
#######################################################################
#
# If this CIF has been generated from an entry in the Cambridge
# Structural Database, then it will include bibliographic, chemical,
# crystal, experimental, refinement or atomic coordinate data resulting
# from the CCDC's data processing and validation procedures.
#
#######################################################################

data_CSD_CIF_BINSAS
_audit_creation_date 1983-04-12
_audit_creation_method CSD-ConQuest-V1
_database_code_CSD BINSAS
_chemical_formula_sum 'C6 H2 N6 O6'
_chemical_formula_moiety
;
C6 H2 N6 O6
;
_journal_coeditor_code "IUCr A21498"
_journal_coden_Cambridge 107
_journal_volume 38
_journal_year 1982
_journal_page_first 2498
_journal_name_full 'Acta Crystallogr.,Sect.B:Struct.Crystallogr.Cryst.Chem. '
loop_
_publ_author_name
"H.L.Ammon"
"S.K.Bhattacharjee"
_chemical_name_systematic
;
4-Amino-5-nitrobenzo(1,2-c:3,4-c')bis(1,2,5)oxadiazole-3,8-dioxide
;
_cell_volume    873.564
_exptl_crystal_colour 'yellow'
_exptl_crystal_density_diffrn 1.93
_diffrn_ambient_temperature ?
_diffrn_special_details
;
The study was carried out at room temperature,in the range 283-303K

;
#These two values have been output from a single CSD field.
_refine_ls_R_factor_gt 0.029
_refine_ls_wR_factor_gt 0.029
_symmetry_cell_setting orthorhombic
_symmetry_space_group_name_H-M 'P 21 21 21'
_symmetry_Int_Tables_number 19
loop_
_symmetry_equiv_pos_site_id
_symmetry_equiv_pos_as_xyz
1 x,y,z
2 1/2+x,1/2-y,-z
3 -x,1/2+y,1/2-z
4 1/2-x,-y,1/2+z
_cell_length_a 13.6644(6)
_cell_length_b 6.6969(5)
_cell_length_c 9.5462(8)
_cell_angle_alpha 90
_cell_angle_beta 90
_cell_angle_gamma 90
_cell_formula_units_Z 4
loop_
_atom_type_symbol
_atom_type_radius_bond
C 0.68
H 0.23
N 0.68
O 0.68
loop_
_atom_site_label
_atom_site_type_symbol
_atom_site_fract_x
_atom_site_fract_y
_atom_site_fract_z
C1 C -0.01350 -0.15400 0.54250
C2 C 0.00480 0.03910 0.48340
C3 C -0.05910 0.12110 0.38080
C4 C -0.14550 0.01440 0.33760
C5 C -0.16690 -0.17640 0.39050
C6 C -0.09880 -0.24930 0.49630
N1 N 0.07720 0.16360 0.50590
N2 N -0.02670 0.29630 0.33740
N3 N -0.20570 0.09940 0.23260
N4 N -0.23890 -0.29540 0.35560
N5 N -0.10420 -0.42120 0.56610
N6 N 0.03590 -0.25460 0.63730
O1 O 0.14910 0.16830 0.58250
O2 O 0.06000 0.33100 0.41400
O3 O -0.27900 0.00580 0.19200
O4 O -0.18260 0.26560 0.18500
O5 O -0.16080 -0.56300 0.57100
O6 O -0.01760 -0.42830 0.65720
H1 H -0.25000 -0.41100 0.39800
H2 H -0.28000 -0.24900 0.29300
#END
