
#######################################################################
#
#                 Cambridge Crystallographic Data Centre
#                                CCDC
#
#######################################################################
#
# If this CIF has been generated from an entry in the Cambridge
# Structural Database, then it will include bibliographic, chemical,
# crystal, experimental, refinement or atomic coordinate data resulting
# from the CCDC's data processing and validation procedures.
#
#######################################################################

data_CSD_CIF_BIOXZL
_audit_creation_date 1971-12-31
_audit_creation_method CSD-ConQuest-V1
_database_code_CSD BIOXZL
_chemical_formula_sum 'C6 H4 N2 O2'
_chemical_formula_moiety
;
C6 H4 N2 O2
;
_journal_coden_Cambridge 5
_journal_volume 124
_journal_year 1967
_journal_page_first 143
_journal_name_full 'Z.Kristallogr.,Kristallgeom.,Kristallphys.,Kristallchem. '
loop_
_publ_author_name
"M.Cannas"
"G.Marongiu"
_chemical_name_systematic
;
3,3'-Bi-isoxazole
;
_chemical_melting_point 346.15
_cell_volume    620.506
_exptl_crystal_density_diffrn 1.454
_diffrn_ambient_temperature ?
_diffrn_special_details
;
The study was carried out at room temperature,in the range 283-303K

;
#These two values have been output from a single CSD field.
_refine_ls_R_factor_gt 0.11
_refine_ls_wR_factor_gt 0.11
_symmetry_cell_setting monoclinic
_symmetry_space_group_name_H-M 'P 21/c'
_symmetry_Int_Tables_number 14
loop_
_symmetry_equiv_pos_site_id
_symmetry_equiv_pos_as_xyz
1 x,y,z
2 -x,1/2+y,1/2-z
3 -x,-y,-z
4 x,-1/2-y,-1/2+z
_cell_length_a 11.11(2)
_cell_length_b 4.66(1)
_cell_length_c 13.73(2)
_cell_angle_alpha 90
_cell_angle_beta 119.20(33)
_cell_angle_gamma 90
_cell_formula_units_Z 4
loop_
_atom_type_symbol
_atom_type_radius_bond
C 0.68
H 0.20
N 0.68
O 0.68
loop_
_atom_site_label
_atom_site_type_symbol
_atom_site_fract_x
_atom_site_fract_y
_atom_site_fract_z
C1 C 0.00700 0.10000 0.04250
C2 C 0.12750 0.17500 0.14600
C3 C 0.08450 0.37850 0.19100
C4 C 0.49350 0.10250 0.03600
C5 C 0.37500 0.27100 0.01600
C6 C 0.41150 0.41600 0.10800
H1 H 0.23400 0.08600 0.18100
H2 H 0.14650 0.47700 0.27450
H3 H 0.27550 0.28300 -0.06100
H4 H 0.34900 0.57900 0.12300
N1 N -0.10100 0.24400 0.02950
N2 N 0.59550 0.14750 0.13700
O1 O -0.05500 0.41850 0.12350
O2 O 0.54600 0.36000 0.18300
C1B C -0.00700 -0.10000 -0.04250
C2B C -0.12750 -0.17500 -0.14600
N1B N 0.10100 -0.24400 -0.02950
C3B C -0.08450 -0.37850 -0.19100
H1B H -0.23400 -0.08600 -0.18100
O1B O 0.05500 -0.41850 -0.12350
H2B H -0.14650 -0.47700 -0.27450
C4B C 0.50650 -0.10250 -0.03600
C5B C 0.62500 -0.27100 -0.01600
N2B N 0.40450 -0.14750 -0.13700
C6B C 0.58850 -0.41600 -0.10800
H3B H 0.72450 -0.28300 0.06100
O2B O 0.45400 -0.36000 -0.18300
H4B H 0.65100 -0.57900 -0.12300
#END
