
#######################################################################
#
#                 Cambridge Crystallographic Data Centre
#                                CCDC
#
#######################################################################
#
# If this CIF has been generated from an entry in the Cambridge
# Structural Database, then it will include bibliographic, chemical,
# crystal, experimental, refinement or atomic coordinate data resulting
# from the CCDC's data processing and validation procedures.
#
#######################################################################

data_CSD_CIF_BIPCUY
_audit_creation_date 1983-04-12
_audit_creation_method CSD-ConQuest-V1
_database_code_CSD BIPCUY
_chemical_formula_sum 'C21 H17 N1 O2'
_chemical_formula_moiety
;
C21 H17 N1 O2
;
_journal_coden_Cambridge 188
_journal_year 1982
_journal_page_first 929
_journal_name_full 'J.Chem.Soc.,Perkin Trans.2 '
loop_
_publ_author_name
"G.Bartoli"
"M.Bosco"
"R.Dal Pozzo"
"P.Sgarabotto"
_chemical_name_systematic
;
cis-9-Benzyl-10-nitro-9,10-dihydroanthracene
;
_cell_volume   1632.940
_exptl_crystal_density_diffrn 1.28
_diffrn_ambient_temperature ?
_diffrn_special_details
;
The study was carried out at room temperature,in the range 283-303K

;
#These two values have been output from a single CSD field.
_refine_ls_R_factor_gt 0.036
_refine_ls_wR_factor_gt 0.036
_symmetry_cell_setting orthorhombic
_symmetry_space_group_name_H-M 'P c a 21'
_symmetry_Int_Tables_number 29
loop_
_symmetry_equiv_pos_site_id
_symmetry_equiv_pos_as_xyz
1 x,y,z
2 1/2-x,y,1/2+z
3 1/2+x,-y,z
4 -x,-y,1/2+z
_cell_length_a 14.650(4)
_cell_length_b 14.622(4)
_cell_length_c 7.623(2)
_cell_angle_alpha 90
_cell_angle_beta 90
_cell_angle_gamma 90
_cell_formula_units_Z 4
loop_
_atom_type_symbol
_atom_type_radius_bond
C 0.68
H 0.23
N 0.68
O 0.68
loop_
_atom_site_label
_atom_site_type_symbol
_atom_site_fract_x
_atom_site_fract_y
_atom_site_fract_z
O1 O 0.40740 -0.14440 -0.17450
O2 O 0.50100 -0.24830 -0.13710
N1 N 0.46780 -0.17800 -0.09520
C1 C 0.64460 -0.21720 0.16250
C2 C 0.68610 -0.27730 0.27600
C3 C 0.63720 -0.31320 0.41290
C4 C 0.54770 -0.28800 0.44000
C5 C 0.31610 -0.05530 0.35790
C6 C 0.29840 0.03130 0.29790
C7 C 0.35090 0.06870 0.16570
C8 C 0.41930 0.01830 0.09220
C9 C 0.50900 -0.12580 0.06430
C10 C 0.40620 -0.20260 0.35120
C11 C 0.55430 -0.19180 0.18500
C12 C 0.50460 -0.22760 0.32580
C13 C 0.38580 -0.10720 0.28630
C14 C 0.43590 -0.07040 0.14760
C15 C 0.34070 -0.27050 0.25970
C16 C 0.35470 -0.36850 0.31740
C17 C 0.31580 -0.40010 0.46870
C18 C 0.33010 -0.48830 0.52310
C19 C 0.38400 -0.54620 0.42990
C20 C 0.42270 -0.51600 0.28100
C21 C 0.40790 -0.42720 0.22110
H1 H 0.67200 -0.19100 0.06900
H2 H 0.75500 -0.29200 0.23400
H3 H 0.65900 -0.36400 0.48400
H4 H 0.51000 -0.31500 0.54500
H5 H 0.28400 -0.07900 0.46300
H6 H 0.24900 0.06300 0.35000
H7 H 0.34200 0.12700 0.13500
H8 H 0.45600 0.04000 0.00300
H9 H 0.55300 -0.09100 0.00700
H10 H 0.39300 -0.20500 0.47500
H11 H 0.34400 -0.27100 0.12600
H12 H 0.28000 -0.24600 0.29900
H13 H 0.27800 -0.36000 0.54400
H14 H 0.30400 -0.50600 0.64100
H15 H 0.40700 -0.61300 0.47600
H16 H 0.46700 -0.55200 0.19700
H17 H 0.43600 -0.39600 0.11800
#END
