
#######################################################################
#
#                 Cambridge Crystallographic Data Centre
#                                CCDC
#
#######################################################################
#
# If this CIF has been generated from an entry in the Cambridge
# Structural Database, then it will include bibliographic, chemical,
# crystal, experimental, refinement or atomic coordinate data resulting
# from the CCDC's data processing and validation procedures.
#
#######################################################################

data_CSD_CIF_BIRDEL
_audit_creation_date 1983-04-12
_audit_creation_method CSD-ConQuest-V1
_database_code_CSD BIRDEL
_chemical_formula_sum 'C14 H16 N2 O6'
_chemical_formula_moiety
;
C14 H16 N2 O6
;
_journal_coden_Cambridge 5
_journal_volume 160
_journal_year 1982
_journal_page_first 45
_journal_name_full 'Z.Kristallogr.,Kristallgeom.,Kristallphys.,Kristallchem. '
loop_
_publ_author_name
"P.G.Jones"
"G.M.Sheldrick"
"A.J.Kirby"
"C.M.Evans"
"R.Glenn"
"J.Stegemann"
_chemical_name_systematic
;
1-(2',4'-Dinitrophenoxy)-9-oxabicyclo(3.3.1)nonane
;
_chemical_melting_point 419.15
_cell_volume   2850.348
_exptl_crystal_colour 'colorless'
_exptl_crystal_density_diffrn 1.44
_exptl_special_details
;
Melting point range 419.15-420.15K

;
_diffrn_ambient_temperature ?
_diffrn_special_details
;
The study was carried out at room temperature,in the range 283-303K

;
_refine_special_details
;
O2b of the 2'-nitro group is disordered over 2 sites, each of equal 
occupancy. One position has been retained.
;
#These two values have been output from a single CSD field.
_refine_ls_R_factor_gt 0.065
_refine_ls_wR_factor_gt 0.065
_symmetry_cell_setting orthorhombic
_symmetry_space_group_name_H-M 'P b c a'
_symmetry_Int_Tables_number 61
loop_
_symmetry_equiv_pos_site_id
_symmetry_equiv_pos_as_xyz
1 x,y,z
2 1/2-x,1/2+y,z
3 x,1/2-y,1/2+z
4 1/2-x,-y,1/2+z
5 -x,-y,-z
6 -1/2+x,-1/2-y,-z
7 -x,-1/2+y,-1/2-z
8 -1/2+x,y,-1/2-z
_cell_length_a 10.293(4)
_cell_length_b 22.665(8)
_cell_length_c 12.218(4)
_cell_angle_alpha 90
_cell_angle_beta 90
_cell_angle_gamma 90
_cell_formula_units_Z 8
loop_
_atom_type_symbol
_atom_type_radius_bond
C 0.68
H 0.23
N 0.68
O 0.68
loop_
_atom_site_label
_atom_site_type_symbol
_atom_site_fract_x
_atom_site_fract_y
_atom_site_fract_z
C1 C 0.25540 0.11280 0.05480
C2 C 0.18330 0.14300 -0.03790
H1 H 0.22740 0.13470 -0.10540
H2 H 0.09650 0.12760 -0.04110
C3 C 0.17610 0.21000 -0.02260
H3 H 0.11080 0.21890 0.03100
H4 H 0.15320 0.22790 -0.09110
C4 C 0.30480 0.23500 0.01550
H5 H 0.36350 0.23590 -0.04550
H6 H 0.29070 0.27450 0.04150
C5 C 0.36590 0.19920 0.10680
H7 H 0.44780 0.21800 0.12050
C6 C 0.30060 0.20040 0.21690
H8 H 0.35810 0.18280 0.26940
H9 H 0.28500 0.24080 0.23640
C7 C 0.17310 0.16780 0.22060
H10 H 0.14950 0.16110 0.29560
H11 H 0.10750 0.19140 0.18580
C8 C 0.18270 0.10840 0.16160
H12 H 0.09650 0.09420 0.14710
H13 H 0.22710 0.08090 0.20830
O1 O 0.37880 0.13870 0.06980
O2 O 0.28010 0.05460 0.01060
C9 C 0.33580 0.01080 0.06880
C10 C 0.29480 -0.04650 0.04620
C11 C 0.35090 -0.09500 0.09410
H14 H 0.32260 -0.13410 0.07570
C12 C 0.44780 -0.08630 0.16840
C13 C 0.49120 -0.03050 0.19380
H15 H 0.56020 -0.02500 0.24570
C14 C 0.43410 0.01740 0.14380
H16 H 0.46390 0.05640 0.16170
N1 N 0.50810 -0.13780 0.22000
O3 O 0.59750 -0.12990 0.28190
O4 O 0.46250 -0.18660 0.19940
N2 N 0.19120 -0.05790 -0.03030
O5 O 0.15800 -0.10050 -0.06020
O6 O 0.08190 -0.02430 -0.00130
#END
