
#######################################################################
#
#                 Cambridge Crystallographic Data Centre
#                                CCDC
#
#######################################################################
#
# If this CIF has been generated from an entry in the Cambridge
# Structural Database, then it will include bibliographic, chemical,
# crystal, experimental, refinement or atomic coordinate data resulting
# from the CCDC's data processing and validation procedures.
#
#######################################################################

data_CSD_CIF_BIRFUD
_audit_creation_date 1983-04-12
_audit_creation_method CSD-ConQuest-V1
_database_code_CSD BIRFUD
_chemical_formula_sum 'C24 H38 N2 O12'
_chemical_formula_moiety
;
C24 H38 N2 O12
;
_journal_coden_Cambridge 207
_journal_year 1982
_journal_page_first 2139
_journal_name_full 'J.Chem.Soc.,Perkin Trans.1 '
loop_
_publ_author_name
"B.M.Aebischer"
"H.W.Hanssen"
"A.T.Vasella"
"W.B.Schweizer"
_chemical_name_systematic
;
(Z)-2,3:5,6-bis(O-Isopropylidene)-\a-D-mannofuranosyl-O,N,N-azoxy-2,3:5,6-bis(
O-isopropylidene)-\a-D-mannofuranoside
;
_chemical_melting_point 420.15
_cell_volume   2748.021
_diffrn_ambient_temperature ?
_diffrn_special_details
;
The study was carried out at room temperature,in the range 283-303K

;
#These two values have been output from a single CSD field.
_refine_ls_R_factor_gt 0.037
_refine_ls_wR_factor_gt 0.037
_symmetry_cell_setting monoclinic
_symmetry_space_group_name_H-M 'I 2'
_symmetry_Int_Tables_number 5
loop_
_symmetry_equiv_pos_site_id
_symmetry_equiv_pos_as_xyz
1 x,y,z
2 1/2+x,1/2+y,1/2+z
3 -x,y,-z
4 1/2-x,1/2+y,1/2-z
_cell_length_a 19.144
_cell_length_b 5.547
_cell_length_c 25.888
_cell_angle_alpha 90
_cell_angle_beta 88.4
_cell_angle_gamma 90
_cell_formula_units_Z 4
loop_
_atom_type_symbol
_atom_type_radius_bond
C 0.68
H 0.23
N 0.68
O 0.68
loop_
_atom_site_label
_atom_site_type_symbol
_atom_site_fract_x
_atom_site_fract_y
_atom_site_fract_z
C1 C 0.39570 0.07510 0.79210
C2 C 0.34710 0.17710 0.75190
C3 C 0.32630 0.07590 0.66800
C4 C 0.39670 0.32360 0.71570
C5 C 0.47000 0.27850 0.73560
C6 C 0.52640 0.22670 0.69550
C7 C 0.52380 -0.01260 0.66770
C8 C 0.63100 0.02080 0.70280
C9 C 0.26300 0.23140 0.65810
C10 C 0.33450 -0.13320 0.63160
C11 C 0.62940 -0.16550 0.74730
C12 C 0.70200 0.09620 0.68400
C13 C 0.38560 0.22390 0.96920
C14 C 0.40630 0.42430 1.00500
C15 C 0.40740 0.46110 1.09270
C16 C 0.33670 0.53190 1.02400
C17 C 0.28170 0.36930 1.00000
C18 C 0.22070 0.30230 1.03440
C19 C 0.23220 0.09300 1.07200
C20 C 0.13900 0.00010 1.02250
C21 C 0.44770 0.69350 1.09960
C22 C 0.40610 0.30760 1.14020
C23 C 0.12350 -0.16220 0.97750
C24 C 0.07700 0.03780 1.05810
O1 O 0.32340 -0.01460 0.72020
O2 O 0.38840 0.21610 0.66600
O3 O 0.46240 0.07470 0.77040
O4 O 0.59190 0.22340 0.72000
O5 O 0.59540 -0.07610 0.66070
O6 O 0.39850 0.46720 0.82850
O7 O 0.38920 0.32920 0.91790
O8 O 0.43600 0.32690 1.04980
O9 O 0.33750 0.50680 1.07900
O10 O 0.31900 0.15520 0.98300
O11 O 0.16490 0.21990 1.00310
O12 O 0.19580 -0.10210 1.04930
N1 N 0.39230 0.24550 0.83760
N2 N 0.38890 0.14680 0.88240
H1 H 0.38170 -0.06910 0.80610
H2 H 0.30830 0.26910 0.76660
H3 H 0.38230 0.49540 0.71860
H4 H 0.48710 0.42590 0.75560
H5 H 0.52700 0.35340 0.66970
H6 H 0.49780 -0.00040 0.63310
H7 H 0.50040 -0.14020 0.69080
H8 H 0.22250 0.12150 0.66040
H9 H 0.26450 0.31120 0.62180
H10 H 0.25490 0.36400 0.68590
H11 H 0.29320 -0.22730 0.63440
H12 H 0.37890 -0.21280 0.63970
H13 H 0.33910 -0.07000 0.59530
H14 H 0.67130 -0.28140 0.72080
H15 H 0.57190 -0.14530 0.75680
H16 H 0.66070 -0.09330 0.76290
H17 H 0.73070 -0.05140 0.67040
H18 H 0.72560 0.14690 0.70740
H19 H 0.68320 0.20010 0.65560
H20 H 0.41650 0.09190 0.96710
H21 H 0.44110 0.53720 0.98800
H22 H 0.32820 0.70480 1.01410
H23 H 0.26520 0.44630 0.97340
H24 H 0.20540 0.43850 1.05350
H25 H 0.21100 0.13300 1.10990
H26 H 0.28670 0.05090 1.07350
H27 H 0.42340 0.77970 1.12850
H28 H 0.44370 0.78860 1.06650
H29 H 0.49370 0.67140 1.10550
H30 H 0.44870 0.28980 1.14690
H31 H 0.37030 0.17200 1.13890
H32 H 0.38170 0.38790 1.17410
H33 H 0.09410 -0.29550 0.99430
H34 H 0.16700 -0.19440 0.95520
H35 H 0.09230 -0.07770 0.95230
H36 H 0.04560 0.14740 1.03740
H37 H 0.09090 0.11930 1.08900
H38 H 0.05410 -0.04710 1.06890
#END
