
#######################################################################
#
#                 Cambridge Crystallographic Data Centre
#                                CCDC
#
#######################################################################
#
# If this CIF has been generated from an entry in the Cambridge
# Structural Database, then it will include bibliographic, chemical,
# crystal, experimental, refinement or atomic coordinate data resulting
# from the CCDC's data processing and validation procedures.
#
#######################################################################

data_CSD_CIF_BIRXOP
_audit_creation_date 1983-04-12
_audit_creation_method CSD-ConQuest-V1
_database_code_CSD BIRXOP
_chemical_formula_sum 'C8 H7 N1 O4'
_chemical_formula_moiety
;
C8 H7 N1 O4
;
_journal_coden_Cambridge 189
_journal_volume 11
_journal_year 1982
_journal_page_first 841
_journal_name_full 'Cryst.Struct.Commun. '
loop_
_publ_author_name
"L.Kutschabsky"
"W.Dathe"
"G.Schneider"
_chemical_name_systematic
;
2,4-Dihydroxy-2H-1,4-benzoxazin-3-one
;
_cell_volume    794.825
_exptl_crystal_density_diffrn 1.512
_diffrn_ambient_temperature ?
_diffrn_special_details
;
The study was carried out at room temperature,in the range 283-303K

;
#These two values have been output from a single CSD field.
_refine_ls_R_factor_gt 0.086
_refine_ls_wR_factor_gt 0.086
_symmetry_cell_setting triclinic
_symmetry_space_group_name_H-M 'P -1'
_symmetry_Int_Tables_number 2
loop_
_symmetry_equiv_pos_site_id
_symmetry_equiv_pos_as_xyz
1 x,y,z
2 -x,-y,-z
_cell_length_a 10.415(8)
_cell_length_b 10.512(8)
_cell_length_c 7.352(6)
_cell_angle_alpha 90.19(5)
_cell_angle_beta 99.03(5)
_cell_angle_gamma 90.91(5)
_cell_formula_units_Z 4
loop_
_atom_type_symbol
_atom_type_radius_bond
C 0.68
N 0.68
O 0.68
loop_
_atom_site_label
_atom_site_type_symbol
_atom_site_fract_x
_atom_site_fract_y
_atom_site_fract_z
O1 O 0.51810 0.12960 0.74000
C2 C 0.47940 0.25080 0.79480
C3 C 0.47170 0.25790 0.99890
N4 N 0.55620 0.18840 1.10350
C40 C 0.64350 0.10440 1.03890
C5 C 0.74270 0.04640 1.15470
C6 C 0.82030 -0.03800 1.08060
C7 C 0.79740 -0.06610 0.89450
C8 C 0.69830 -0.00930 0.77950
C80 C 0.62020 0.07650 0.85290
O9 O 0.56700 0.34620 0.76730
O10 O 0.39440 0.33080 1.05760
O110 O 0.56120 0.19600 1.29490
O11 O 0.11130 0.38990 0.36240
C21 C 0.24570 0.42210 0.39070
C31 C 0.28810 0.50060 0.56400
N41 N 0.22770 0.47190 0.70700
C42 C 0.11450 0.39510 0.69060
C51 C 0.05390 0.36440 0.84150
C61 C -0.05910 0.29330 0.81340
C71 C -0.11380 0.25290 0.64090
C81 C -0.05320 0.28240 0.48910
C82 C 0.05910 0.35320 0.51600
O91 O 0.32140 0.31510 0.40570
O101 O 0.37780 0.57770 0.57110
O111 O 0.26780 0.53570 0.87200
#END
