
#######################################################################
#
#                 Cambridge Crystallographic Data Centre
#                                CCDC
#
#######################################################################
#
# If this CIF has been generated from an entry in the Cambridge
# Structural Database, then it will include bibliographic, chemical,
# crystal, experimental, refinement or atomic coordinate data resulting
# from the CCDC's data processing and validation procedures.
#
#######################################################################

data_CSD_CIF_BISKET
_audit_creation_date 1983-05-14
_audit_creation_method CSD-ConQuest-V1
_database_code_CSD BISKET
_chemical_formula_sum 'C12 H10 N2 O1'
_chemical_formula_moiety
;
C12 H10 N2 O1
;
_journal_coeditor_code "IUCr A21563"
_journal_coden_Cambridge 107
_journal_volume 38
_journal_year 1982
_journal_page_first 2744
_journal_name_full 'Acta Crystallogr.,Sect.B:Struct.Crystallogr.Cryst.Chem. '
loop_
_publ_author_name
"A.Banerjee"
"C.J.Brown"
"J.F.P.Lewis"
_chemical_name_systematic
;
N-Nitrosodiphenylamine
;
_cell_volume   2104.033
_exptl_crystal_colour 'brown'
_exptl_crystal_density_diffrn 1.251
_diffrn_ambient_temperature ?
_diffrn_special_details
;
The study was carried out at room temperature,in the range 283-303K

;
#These two values have been output from a single CSD field.
_refine_ls_R_factor_gt 0.067
_refine_ls_wR_factor_gt 0.067
_symmetry_cell_setting monoclinic
_symmetry_space_group_name_H-M 'C 2/c'
_symmetry_Int_Tables_number 15
loop_
_symmetry_equiv_pos_site_id
_symmetry_equiv_pos_as_xyz
1 x,y,z
2 1/2+x,1/2+y,z
3 -x,y,1/2-z
4 1/2-x,1/2+y,1/2-z
5 -x,-y,-z
6 -1/2-x,-1/2-y,-z
7 x,-y,-1/2+z
8 -1/2+x,-1/2-y,-1/2+z
_cell_length_a 16.283(20)
_cell_length_b 8.827(10)
_cell_length_c 16.508(20)
_cell_angle_alpha 90
_cell_angle_beta 117.53(15)
_cell_angle_gamma 90
_cell_formula_units_Z 8
loop_
_atom_type_symbol
_atom_type_radius_bond
C 0.68
H 0.23
N 0.68
O 0.68
loop_
_atom_site_label
_atom_site_type_symbol
_atom_site_fract_x
_atom_site_fract_y
_atom_site_fract_z
C1 C 0.29860 0.19770 0.34240
C2 C 0.23660 0.13770 0.37180
C3 C 0.14930 0.10370 0.30710
C4 C 0.12330 0.11210 0.21330
C5 C 0.18140 0.17540 0.17880
C6 C 0.27240 0.21140 0.25290
C7 C 0.47200 0.17690 0.40700
C8 C 0.54330 0.27250 0.41590
C9 C 0.62060 0.20280 0.41530
C10 C 0.61990 0.05730 0.39020
C11 C 0.54490 -0.04050 0.37420
C12 C 0.46650 0.03290 0.37740
N1 N 0.39200 0.24010 0.41080
N2 N 0.41100 0.34420 0.47650
O1 O 0.34410 0.39730 0.47930
H1 H 0.25780 0.11930 0.44350
H2 H 0.09850 0.06940 0.32830
H3 H 0.05640 0.06850 0.16530
H4 H 0.16070 0.19410 0.10730
H5 H 0.32360 0.25310 0.23400
H6 H 0.53960 0.39360 0.42300
H7 H 0.68300 0.26850 0.43570
H8 H 0.67780 0.01430 0.38210
H9 H 0.54580 -0.16000 0.36070
H10 H 0.40250 -0.02900 0.35570
#END
