
#######################################################################
#
#                 Cambridge Crystallographic Data Centre
#                                CCDC
#
#######################################################################
#
# If this CIF has been generated from an entry in the Cambridge
# Structural Database, then it will include bibliographic, chemical,
# crystal, experimental, refinement or atomic coordinate data resulting
# from the CCDC's data processing and validation procedures.
#
#######################################################################

data_CSD_CIF_BITSAA
_audit_creation_date 2013-11-28
_audit_creation_method CSD-ConQuest-V1
_database_code_CSD BITSAA
_database_code_depnum_ccdc_archive 'CCDC 870440'
_chemical_formula_sum 'C22 H14 N4 O2'
_chemical_formula_moiety
;
C22 H14 N4 O2
;
_journal_coden_Cambridge 574
_journal_volume 95
_journal_year 2012
_journal_page_first 644
_journal_name_full 'Dyes Pigm. '
loop_
_publ_author_name
"M.Hranjec"
"E.Horak"
"M.Tireli"
"G.Pavlovic"
"G.Karminski-Zamola"
_chemical_name_systematic
;
(Z)-3-(4-Nitrophenyl)-2-(1-phenyl-1H-benzimidazol-2-yl)acrylonitrile
;
_chemical_melting_point 452
_cell_volume   1783.617
_exptl_crystal_colour 'yellow'
_exptl_crystal_density_diffrn 1.364
_exptl_crystal_description 'prism'
_diffrn_ambient_temperature 296
#These two values have been output from a single CSD field.
_refine_ls_R_factor_gt 0.0505
_refine_ls_wR_factor_gt 0.0505
_symmetry_cell_setting monoclinic
_symmetry_space_group_name_H-M 'P 21/n'
_symmetry_Int_Tables_number 14
loop_
_symmetry_equiv_pos_site_id
_symmetry_equiv_pos_as_xyz
1 x,y,z
2 1/2-x,1/2+y,1/2-z
3 -x,-y,-z
4 -1/2+x,-1/2-y,-1/2+z
_cell_length_a 5.4466(7)
_cell_length_b 26.373(3)
_cell_length_c 12.6600(16)
_cell_angle_alpha 90
_cell_angle_beta 101.244(13)
_cell_angle_gamma 90
_cell_formula_units_Z 4
loop_
_atom_type_symbol
_atom_type_radius_bond
C 0.68
H 0.23
N 0.68
O 0.68
loop_
_atom_site_label
_atom_site_type_symbol
_atom_site_fract_x
_atom_site_fract_y
_atom_site_fract_z
C1 C 0.0311(4) 0.13040(9) 0.70905(17)
C2 C -0.1255(5) 0.14451(10) 0.84844(18)
C3 C -0.2580(5) 0.16274(11) 0.9237(2)
H1 H -0.34460 0.19330 0.91270
C4 C -0.2576(5) 0.13438(12) 1.0149(2)
H2 H -0.34600 0.14590 1.06600
C5 C -0.1277(5) 0.08883(12) 1.03224(19)
H3 H -0.12960 0.07080 1.09520
C6 C 0.0032(4) 0.06982(10) 0.95878(18)
H4 H 0.09050 0.03940 0.97040
C7 C -0.0016(4) 0.09829(10) 0.86652(17)
C8 C 0.1037(5) 0.13535(9) 0.60344(18)
C9 C -0.0347(4) 0.16457(8) 0.52710(17)
H5 H -0.17850 0.17800 0.54560
C10 C 0.0038(4) 0.17877(8) 0.41964(17)
C11 C -0.1565(4) 0.21487(9) 0.36407(18)
H6 H -0.28570 0.22760 0.39480
C12 C -0.1288(5) 0.23239(9) 0.26427(18)
H7 H -0.23760 0.25650 0.22760
C13 C 0.0622(4) 0.21332(9) 0.22097(17)
C14 C 0.2189(5) 0.17697(10) 0.2715(2)
H8 H 0.34490 0.16390 0.23930
C15 C 0.1895(5) 0.15961(10) 0.37090(19)
H9 H 0.29620 0.13460 0.40560
C16 C 0.3268(5) 0.11051(11) 0.58899(18)
C17 C 0.0492(5) 0.01329(10) 0.66652(19)
H10 H -0.10360 0.02560 0.62960
C18 C 0.1893(4) 0.04101(9) 0.74849(18)
C19 C 0.1365(6) -0.03266(11) 0.6397(2)
H11 H 0.04350 -0.05130 0.58340
C20 C 0.3564(7) -0.05125(12) 0.6940(3)
H12 H 0.41360 -0.08260 0.67520
C21 C 0.4121(5) 0.02271(11) 0.8046(2)
H13 H 0.50630 0.04140 0.86040
C22 C 0.4947(6) -0.02410(14) 0.7767(3)
H14 H 0.64510 -0.03720 0.81440
N1 N 0.0979(3) 0.08912(7) 0.77582(14)
N2 N -0.0975(4) 0.16474(8) 0.74989(15)
N3 N 0.5055(4) 0.0904(1) 0.57751(18)
N4 N 0.1041(5) 0.23282(9) 0.11729(16)
O1 O -0.0432(3) 0.26405(7) 0.06983(14)
O2 O 0.2834(4) 0.21698(8) 0.08307(13)
#END
