
#######################################################################
#
#                 Cambridge Crystallographic Data Centre
#                                CCDC
#
#######################################################################
#
# If this CIF has been generated from an entry in the Cambridge
# Structural Database, then it will include bibliographic, chemical,
# crystal, experimental, refinement or atomic coordinate data resulting
# from the CCDC's data processing and validation procedures.
#
#######################################################################

data_CSD_CIF_BIVJEW
_audit_creation_date 2008-07-15
_audit_creation_method CSD-ConQuest-V1
_database_code_CSD BIVJEW
_database_code_depnum_ccdc_archive 'CCDC 282843'
_chemical_formula_sum 'C14 H21 N1 O1'
_chemical_formula_moiety
;
C14 H21 N1 O1
;
_journal_coden_Cambridge 15
_journal_volume 84
_journal_year 2006
_journal_page_first 1456
_journal_name_full 'Can.J.Chem. '
loop_
_publ_author_name
"M.Harmata"
"P.Rashatasakhon"
"C.L.Barnes"
_chemical_name_systematic
;
10-methyl-7-methylenetricyclo[7.2.1.0^1,5^]dodecan-12-one oxime
;
_cell_volume   2547.719
_exptl_crystal_colour 'colorless'
_exptl_crystal_density_diffrn 1.144
_exptl_special_details
;
Not CCDC 282839-282845 and 282856 as published

;
_exptl_crystal_description 'prism'
_diffrn_ambient_temperature 173
#These two values have been output from a single CSD field.
_refine_ls_R_factor_gt 0.0611
_refine_ls_wR_factor_gt 0.0611
loop_
_citation_database_id_CSD
_citation_special_details
WIYSED "is a stereoisomer of this entry"
BIVJIA "is a stereoisomer of this entry"
_symmetry_cell_setting orthorhombic
_symmetry_space_group_name_H-M 'P 21 21 21'
_symmetry_Int_Tables_number 19
loop_
_symmetry_equiv_pos_site_id
_symmetry_equiv_pos_as_xyz
1 x,y,z
2 1/2-x,-y,1/2+z
3 1/2+x,1/2-y,-z
4 -x,1/2+y,1/2-z
_cell_length_a 9.193(3)
_cell_length_b 12.856(4)
_cell_length_c 21.557(6)
_cell_angle_alpha 90
_cell_angle_beta 90
_cell_angle_gamma 90
_cell_formula_units_Z 8
loop_
_atom_type_symbol
_atom_type_radius_bond
C 0.68
H 0.23
N 0.68
O 0.68
loop_
_atom_site_label
_atom_site_type_symbol
_atom_site_fract_x
_atom_site_fract_y
_atom_site_fract_z
O1 O 1.0321(4) 0.1079(2) 0.86217(12)
N1 N 0.9748(4) 0.1506(3) 0.80671(15)
C1 C 1.0381(5) 0.2176(3) 0.70372(17)
C2 C 1.0729(4) 0.1696(3) 0.76678(17)
C3 C 1.2331(5) 0.1500(3) 0.77079(19)
H1 H 1.25200 0.09080 0.79980
C4 C 1.3129(6) 0.2464(4) 0.7934(2)
H2 H 1.28720 0.25770 0.83740
H3 H 1.41870 0.23220 0.79160
C5 C 1.2843(7) 0.3451(5) 0.7588(2)
C6 C 1.1296(8) 0.3848(4) 0.7590(2)
H4 H 1.13200 0.46070 0.75130
H5 H 1.08890 0.37420 0.80110
C7 C 1.0258(5) 0.3357(3) 0.7123(2)
H6 H 1.04450 0.36880 0.67110
C8 C 1.1693(6) 0.1850(4) 0.66373(19)
H7 H 1.13590 0.14610 0.62670
H8 H 1.22340 0.24730 0.64970
C9 C 1.2670(7) 0.1162(5) 0.7038(2)
H9 H 1.23380 0.04260 0.69880
C10 C 0.8909(7) 0.1887(5) 0.6760(3)
H10 H 0.86490 0.11640 0.68740
H11 H 0.89430 0.19390 0.63020
C11 C 0.7789(8) 0.2649(9) 0.7023(4)
H12 H 0.71270 0.28970 0.66920
H13 H 0.72020 0.23140 0.73520
C12 C 0.8648(8) 0.3521(6) 0.7279(4)
H14 H 0.85180 0.35550 0.77340
H15 H 0.83060 0.41860 0.70980
C13 C 1.3902(9) 0.4002(6) 0.7340(3)
H16 H 1.48820 0.37760 0.73770
H17 H 1.36860 0.46270 0.71230
C14 C 1.4237(9) 0.1214(8) 0.6853(3)
H18 H 1.43690 0.08640 0.64530
H19 H 1.48340 0.08690 0.71690
H20 H 1.45350 0.19430 0.68160
O2 O 0.6837(4) 0.1391(3) 0.84552(13)
N2 N 0.7367(4) 0.0757(3) 0.89479(14)
C15 C 0.6632(4) -0.0313(3) 0.98220(17)
C16 C 0.6346(4) 0.0348(3) 0.92571(16)
C17 C 0.4740(4) 0.0408(3) 0.91440(16)
H21 H 0.45600 0.05200 0.86910
C18 C 0.4063(5) 0.1305(4) 0.95114(19)
H22 H 0.43810 0.19660 0.93190
H23 H 0.29930 0.12640 0.94630
C19 C 0.4399(6) 0.1361(4) 1.0191(2)
C20 C 0.5980(6) 0.1436(4) 1.0365(2)
H24 H 0.60520 0.17820 1.07740
H25 H 0.64750 0.18880 1.00590
C21 C 0.6792(5) 0.0406(4) 1.03986(19)
H26 H 0.63950 0.00160 1.07630
C22 C 0.5246(5) -0.0994(4) 0.9864(2)
H27 H 0.55080 -0.17390 0.98380
H28 H 0.47420 -0.08700 1.02630
C23 C 0.4256(4) -0.0698(4) 0.93234(19)
H29 H 0.44920 -0.11690 0.89680
C24 C 0.8097(5) -0.0914(4) 0.9795(2)
H30 H 0.79180 -0.16730 0.97920
H31 H 0.86380 -0.07260 0.94140
C25 C 0.8942(6) -0.0621(7) 1.0349(3)
H32 H 0.99990 -0.06380 1.02620
H33 H 0.87270 -0.10930 1.07000
C26 C 0.8433(6) 0.0480(5) 1.0487(3)
H34 H 0.88690 0.09850 1.01940
H35 H 0.86810 0.06860 1.09170
C27 C 0.3346(7) 0.1382(5) 1.0612(2)
H36 H 0.23570 0.13630 1.04840
H37 H 0.35800 0.14170 1.10400
C28 C 0.2639(5) -0.0826(5) 0.9470(2)
H38 H 0.24300 -0.15590 0.95570
H39 H 0.20600 -0.05970 0.91130
H40 H 0.23890 -0.04040 0.98330
H41 H 0.772(6) 0.163(4) 0.828(2)
H42 H 0.927(10) 0.094(7) 0.879(4)
#END
