
#######################################################################
#
#                 Cambridge Crystallographic Data Centre
#                                CCDC
#
#######################################################################
#
# If this CIF has been generated from an entry in the Cambridge
# Structural Database, then it will include bibliographic, chemical,
# crystal, experimental, refinement or atomic coordinate data resulting
# from the CCDC's data processing and validation procedures.
#
#######################################################################

data_CSD_CIF_BIVJIA
_audit_creation_date 2008-07-15
_audit_creation_method CSD-ConQuest-V1
_database_code_CSD BIVJIA
_database_code_depnum_ccdc_archive 'CCDC 282844'
_chemical_formula_sum 'C14 H21 N1 O1'
_chemical_formula_moiety
;
C14 H21 N1 O1
;
_journal_coden_Cambridge 15
_journal_volume 84
_journal_year 2006
_journal_page_first 1456
_journal_name_full 'Can.J.Chem. '
loop_
_publ_author_name
"M.Harmata"
"P.Rashatasakhon"
"C.L.Barnes"
_chemical_name_systematic
;
10-methyl-7-methylenetricyclo[7.2.1.0^1,5^]dodecan-12-one oxime
;
_cell_volume   5125.188
_exptl_crystal_colour 'colorless'
_exptl_crystal_density_diffrn 1.137
_exptl_special_details
;
Not CCDC 282839-282845 and 282856 as published

;
_exptl_crystal_description 'needle'
_diffrn_ambient_temperature 173
#These two values have been output from a single CSD field.
_refine_ls_R_factor_gt 0.0564
_refine_ls_wR_factor_gt 0.0564
loop_
_citation_database_id_CSD
_citation_special_details
WIYSED "is a stereoisomer of this entry"
BIVJEW "is a stereoisomer of this entry"
_symmetry_cell_setting monoclinic
_symmetry_space_group_name_H-M 'P 21'
_symmetry_Int_Tables_number 4
loop_
_symmetry_equiv_pos_site_id
_symmetry_equiv_pos_as_xyz
1 x,y,z
2 -x,1/2+y,-z
_cell_length_a 15.4603(9)
_cell_length_b 7.2021(4)
_cell_length_c 46.294(3)
_cell_angle_alpha 90
_cell_angle_beta 96.132(1)
_cell_angle_gamma 90
_cell_formula_units_Z 16
loop_
_atom_type_symbol
_atom_type_radius_bond
C 0.68
H 0.23
N 0.68
O 0.68
loop_
_atom_site_label
_atom_site_type_symbol
_atom_site_fract_x
_atom_site_fract_y
_atom_site_fract_z
O1 O 0.71347(19) 0.7456(5) 0.04028(7)
N1 N 0.7777(2) 0.6155(5) 0.03390(7)
C1 C 0.8792(3) 0.3825(7) 0.05506(9)
H1 H 0.710(3) 0.810(9) 0.0209(12)
C2 C 0.8111(3) 0.5286(6) 0.05664(9)
C3 C 0.7950(3) 0.5576(7) 0.08778(9)
H2 H 0.78120 0.69150 0.09070
C4 C 0.7186(3) 0.4381(7) 0.09637(9)
H3 H 0.72160 0.43620 0.11780
H4 H 0.66360 0.50070 0.08900
C5 C 0.7141(3) 0.2409(7) 0.08575(9)
C6 C 0.7962(3) 0.1316(7) 0.08332(10)
H5 H 0.78220 -0.00250 0.08250
H6 H 0.83750 0.15370 0.10090
C7 C 0.8398(3) 0.1852(7) 0.05629(9)
H7 H 0.79400 0.17530 0.03940
C8 C 0.9411(3) 0.4297(8) 0.08266(10)
H8 H 0.97100 0.31620 0.09060
H9 H 0.98560 0.52060 0.07800
C9 C 0.8839(3) 0.5127(7) 0.10495(9)
H10 H 0.87530 0.41690 0.12000
C10 C 0.9256(3) 0.3714(8) 0.02772(10)
H11 H 0.97450 0.46090 0.02870
H12 H 0.88490 0.39950 0.01030
C11 C 0.9599(3) 0.1689(9) 0.02653(11)
H13 H 0.94470 0.11500 0.00700
H14 H 1.02390 0.16540 0.03110
C12 C 0.9154(3) 0.0618(8) 0.04924(11)
H15 H 0.95640 0.03970 0.06680
H16 H 0.89370 -0.05940 0.04140
C13 C 0.6374(3) 0.1636(10) 0.07802(12)
H17 H 0.58560 0.23290 0.07920
H18 H 0.63410 0.03890 0.07130
C14 C 0.9262(3) 0.6836(9) 0.11980(11)
H19 H 0.93070 0.78170 0.10540
H20 H 0.98440 0.65150 0.12890
H21 H 0.89060 0.72760 0.13470
O2 O 0.18770(19) 0.2753(5) 0.01861(7)
N2 N 0.2562(2) 0.4002(6) 0.01347(8)
C15 C 0.3370(3) 0.6696(7) 0.03352(9)
H22 H 0.198(3) 0.196(8) 0.0006(11)
C16 C 0.2668(3) 0.5244(6) 0.03312(9)
C17 C 0.2175(3) 0.5511(7) 0.05896(9)
H23 H 0.15470 0.52260 0.05320
C18 C 0.2519(3) 0.4226(8) 0.08437(9)
H24 H 0.22840 0.46760 0.10220
H25 H 0.22800 0.29670 0.08020
C19 C 0.3501(4) 0.4058(9) 0.09086(10)
C20 C 0.4087(3) 0.5664(9) 0.08526(10)
H26 H 0.46700 0.54350 0.09570
H27 H 0.38530 0.68060 0.09340
C21 C 0.4187(3) 0.5995(8) 0.05314(9)
H28 H 0.43670 0.47910 0.04480
C22 C 0.2926(3) 0.8395(7) 0.04608(11)
H29 H 0.33630 0.91880 0.05740
H30 H 0.26200 0.91470 0.03020
C23 C 0.2272(3) 0.7609(7) 0.06596(10)
H31 H 0.25310 0.77410 0.08660
C24 C 0.3771(3) 0.7137(7) 0.00551(10)
H32 H 0.33880 0.79690 -0.00720
H33 H 0.38740 0.59870 -0.00530
C25 C 0.4636(3) 0.8105(8) 0.01606(12)
H34 H 0.50940 0.77490 0.00370
H35 H 0.45650 0.94710 0.01530
C26 C 0.4876(3) 0.7460(9) 0.04733(12)
H36 H 0.48640 0.85150 0.06100
H37 H 0.54660 0.69070 0.04960
C27 C 0.3824(4) 0.2470(11) 0.10168(12)
H38 H 0.44350 0.23270 0.10610
H39 H 0.34450 0.14730 0.10510
C28 C 0.1402(3) 0.8645(8) 0.06249(10)
H40 H 0.15060 0.99750 0.06570
H41 H 0.10290 0.81740 0.07670
H42 H 0.11150 0.84500 0.04280
O3 O 0.7835(2) -0.2992(5) 0.22410(7)
N3 N 0.7194(2) -0.1638(5) 0.23001(8)
C29 C 0.6421(3) 0.1099(7) 0.21015(9)
H43 H 0.781(3) -0.362(8) 0.2395(10)
C30 C 0.7076(3) -0.0455(7) 0.21013(9)
C31 C 0.7527(3) -0.0303(7) 0.18271(9)
H44 H 0.81500 -0.06760 0.18720
C32 C 0.7094(3) -0.1575(8) 0.15836(10)
H45 H 0.72750 -0.11470 0.13960
H46 H 0.73220 -0.28500 0.16180
C33 C 0.6102(3) -0.1664(8) 0.15551(10)
C34 C 0.5583(3) 0.0056(8) 0.16019(10)
H47 H 0.49810 -0.01130 0.15090
H48 H 0.58410 0.11210 0.15060
C35 C 0.5558(3) 0.0504(7) 0.19272(9)
H49 H 0.53590 -0.06460 0.20210
C36 C 0.6884(3) 0.2701(7) 0.19569(10)
H50 H 0.72300 0.34540 0.21060
H51 H 0.64500 0.35180 0.18470
C37 C 0.7486(3) 0.1802(7) 0.17483(10)
H52 H 0.72170 0.19510 0.15430
C38 C 0.6101(3) 0.1709(8) 0.23877(10)
H53 H 0.65430 0.24780 0.25030
H54 H 0.59620 0.06220 0.25050
C39 C 0.5281(3) 0.2844(8) 0.22925(10)
H55 H 0.54250 0.41790 0.22790
H56 H 0.48460 0.26920 0.24330
C40 C 0.4929(3) 0.2073(8) 0.19914(10)
H57 H 0.43310 0.15840 0.19950
H58 H 0.49190 0.30560 0.18420
C41 C 0.5710(3) -0.3264(9) 0.14879(10)
H59 H 0.50930 -0.33370 0.14690
H60 H 0.60450 -0.43400 0.14590
C42 C 0.8376(3) 0.2706(8) 0.1781(1)
H61 H 0.86600 0.24840 0.19780
H62 H 0.83140 0.40460 0.17480
H63 H 0.87320 0.21740 0.16390
O4 O 0.14496(19) 1.1757(5) 0.24182(7)
N4 N 0.2092(2) 1.0553(6) 0.23209(8)
C43 C 0.2294(3) 0.7863(7) 0.20171(9)
H64 H 0.184(3) 1.263(9) 0.2584(11)
C44 C 0.1752(3) 0.9288(7) 0.21516(9)
C45 C 0.0810(3) 0.8954(7) 0.20560(9)
H65 H 0.04600 0.92460 0.22200
C46 C 0.0494(3) 1.0169(7) 0.17929(10)
H66 H -0.00610 0.96450 0.17020
H67 H 0.03650 1.14220 0.18650
C47 C 0.1099(3) 1.0392(8) 0.1559(1)
C48 C 0.1675(3) 0.8819(9) 0.14861(9)
H68 H 0.18800 0.90660 0.12940
H69 H 0.13250 0.76650 0.14690
C49 C 0.2462(3) 0.8509(8) 0.17081(9)
H70 H 0.27740 0.97250 0.17320
C50 C 0.1701(3) 0.6142(7) 0.20158(10)
H71 H 0.18350 0.54250 0.21970
H72 H 0.17920 0.53280 0.18490
C51 C 0.0751(3) 0.6842(7) 0.19902(10)
H73 H 0.04840 0.66610 0.17860
C52 C 0.3218(3) 0.7471(8) 0.21532(10)
H74 H 0.32160 0.66830 0.23280
H75 H 0.35320 0.86400 0.22070
C53 C 0.3633(3) 0.6449(9) 0.19120(11)
H76 H 0.35840 0.50880 0.19360
H77 H 0.42570 0.67770 0.19170
C54 C 0.3124(3) 0.7087(10) 0.16212(11)
H78 H 0.35220 0.76610 0.14930
H79 H 0.28260 0.60220 0.15190
C55 C 0.1130(4) 1.1988(11) 0.14177(13)
H80 H 0.15140 1.21270 0.12720
H81 H 0.07690 1.29920 0.14620
C56 C 0.0204(3) 0.5820(8) 0.21936(11)
H82 H 0.04610 0.59870 0.23950
H83 H 0.01870 0.44940 0.21460
H84 H -0.03890 0.63210 0.21720
O5 O 0.6992(2) 0.6786(5) 0.28627(7)
N5 N 0.7596(2) 0.5437(5) 0.27819(8)
C57 C 0.8621(3) 0.3061(7) 0.29636(9)
H85 H 0.687(3) 0.755(9) 0.2693(12)
C58 C 0.7965(3) 0.4540(6) 0.29966(9)
C59 C 0.7899(3) 0.4851(7) 0.33183(9)
H86 H 0.77870 0.61990 0.33510
C60 C 0.7169(3) 0.3712(7) 0.34332(10)
H87 H 0.72640 0.37210 0.36480
H88 H 0.66110 0.43570 0.33760
C61 C 0.7068(3) 0.1714(7) 0.33348(9)
C62 C 0.7870(3) 0.0585(7) 0.32781(10)
H89 H 0.77190 -0.07510 0.32760
H90 H 0.83330 0.07930 0.34400
C63 C 0.8228(3) 0.1076(6) 0.29913(9)
H91 H 0.77310 0.09680 0.28350
C64 C 0.9307(3) 0.3551(7) 0.32173(9)
H92 H 0.97220 0.44760 0.31540
H93 H 0.96370 0.24260 0.32860
C65 C 0.8820(3) 0.4360(7) 0.34649(9)
H94 H 0.87650 0.33690 0.36130
C66 C 0.8990(3) 0.2885(8) 0.26724(10)
H95 H 0.94650 0.37940 0.26590
H96 H 0.85310 0.31060 0.25100
C67 C 0.9337(3) 0.0900(8) 0.26621(11)
H97 H 0.91570 0.03310 0.24700
H98 H 0.99800 0.08930 0.26960
C68 C 0.8948(3) -0.0172(8) 0.29024(11)
H99 H 0.87100 -0.13790 0.28290
H100 H 0.93940 -0.03980 0.30690
C69 C 0.6300(3) 0.0929(9) 0.32908(11)
H101 H 0.57930 0.16170 0.33210
H102 H 0.62510 -0.03280 0.32290
C70 C 0.9289(3) 0.6001(9) 0.36118(11)
H103 H 0.93060 0.70190 0.34720
H104 H 0.98840 0.56380 0.36840
H105 H 0.89820 0.64100 0.37750
O6 O 0.3479(2) 0.2146(5) 0.26704(7)
N6 N 0.2841(2) 0.3399(5) 0.27569(8)
C71 C 0.2559(3) 0.5686(7) 0.31150(9)
C72 C 0.3116(3) 0.4289(7) 0.29909(9)
C73 C 0.3969(3) 0.4066(7) 0.31820(9)
H106 H 0.41690 0.27470 0.31750
C74 C 0.4681(3) 0.5356(7) 0.30928(11)
H107 H 0.51300 0.54810 0.32610
H108 H 0.49590 0.47390 0.29350
C75 C 0.4416(3) 0.7283(7) 0.29906(10)
C76 C 0.3732(3) 0.8327(7) 0.31413(10)
H109 H 0.38470 0.81410 0.33540
H110 H 0.37800 0.96720 0.31020
C77 C 0.2814(3) 0.7680(7) 0.30393(9)
H111 H 0.27530 0.77550 0.28220
C78 C 0.2758(3) 0.5237(7) 0.34459(9)
H112 H 0.27020 0.63690 0.35640
H113 H 0.23480 0.42880 0.35050
C79 C 0.3696(3) 0.4503(7) 0.34878(9)
H114 H 0.40840 0.55000 0.35790
C80 C 0.1588(3) 0.5691(8) 0.30142(10)
H115 H 0.12860 0.47030 0.31130
H116 H 0.14830 0.54970 0.28020
C81 C 0.1268(3) 0.7617(8) 0.30972(11)
H117 H 0.08440 0.81160 0.29410
H118 H 0.09860 0.75490 0.32790
C82 C 0.2078(3) 0.8848(7) 0.31385(10)
H119 H 0.19920 0.99900 0.30200
H120 H 0.22100 0.92050 0.33450
C83 C 0.4770(3) 0.8056(8) 0.27758(11)
H121 H 0.51970 0.74030 0.26830
H122 H 0.46000 0.92700 0.27130
C84 C 0.3771(4) 0.2779(8) 0.3687(1)
H123 H 0.33740 0.18110 0.36040
H124 H 0.36180 0.31190 0.38800
H125 H 0.43700 0.23110 0.37030
O7 O 0.8049(2) -0.3063(5) 0.47519(7)
N7 N 0.7405(2) -0.1721(5) 0.48007(8)
C85 C 0.6640(3) 0.1024(7) 0.45982(9)
H126 H 0.801(4) -0.385(12) 0.4899(15)
C86 C 0.7298(3) -0.0535(7) 0.46004(9)
C87 C 0.7767(3) -0.0368(7) 0.43293(9)
H127 H 0.83870 -0.07550 0.43790
C88 C 0.7347(3) -0.1632(8) 0.4080(1)
H128 H 0.75530 -0.12110 0.38960
H129 H 0.75630 -0.29130 0.41160
C89 C 0.6357(3) -0.1691(9) 0.40383(10)
C90 C 0.5844(3) 0.0027(8) 0.40893(10)
H130 H 0.52470 -0.01180 0.39900
H131 H 0.61140 0.10990 0.40000
C91 C 0.5786(3) 0.0452(7) 0.44109(10)
H132 H 0.55690 -0.07000 0.45000
C92 C 0.7125(3) 0.2615(8) 0.44654(11)
H133 H 0.74610 0.33430 0.46200
H134 H 0.67060 0.34560 0.43540
C93 C 0.7745(3) 0.1730(8) 0.42621(11)
H135 H 0.74900 0.19120 0.40560
C94 C 0.6282(3) 0.1528(8) 0.48806(10)
H136 H 0.67020 0.22960 0.50050
H137 H 0.61470 0.03990 0.49890
C95 C 0.5445(3) 0.2637(8) 0.47843(11)
H138 H 0.49880 0.23550 0.49120
H139 H 0.55640 0.39880 0.47930
C96 C 0.5159(3) 0.2031(8) 0.44726(10)
H140 H 0.52030 0.30760 0.43360
H141 H 0.45500 0.15830 0.44540
C97 C 0.5959(4) -0.3281(9) 0.39629(11)
H142 H 0.53420 -0.33420 0.39410
H143 H 0.62920 -0.43570 0.39310
C98 C 0.8639(3) 0.2634(9) 0.43015(12)
H144 H 0.85760 0.39840 0.42840
H145 H 0.89880 0.21780 0.41520
H146 H 0.89300 0.23210 0.44940
O8 O 0.2902(2) 1.1840(5) 0.46547(7)
N8 N 0.2233(2) 1.0543(5) 0.47021(7)
C99 C 0.1255(3) 0.8223(6) 0.44716(9)
H147 H 0.295(3) 1.263(7) 0.4823(10)
C100 C 0.1934(3) 0.9713(6) 0.44744(9)
C101 C 0.2167(3) 1.0003(7) 0.41671(9)
H148 H 0.22930 1.13480 0.41390
C102 C 0.2963(3) 0.8852(7) 0.4106(1)
H149 H 0.29730 0.87750 0.38930
H150 H 0.34930 0.95310 0.41850
C103 C 0.3016(3) 0.6914(7) 0.42262(9)
C104 C 0.2194(3) 0.5761(7) 0.42278(10)
H151 H 0.23540 0.44310 0.42430
H152 H 0.18260 0.59440 0.40410
C105 C 0.1669(3) 0.6263(7) 0.44778(9)
H153 H 0.20770 0.61870 0.46600
C106 C 0.0703(3) 0.8674(8) 0.41860(9)
H154 H 0.02500 0.95950 0.42200
H155 H 0.04140 0.75360 0.41030
C107 C 0.1320(3) 0.9474(7) 0.39733(9)
H156 H 0.14560 0.84750 0.38350
C108 C 0.0723(3) 0.8101(8) 0.47314(11)
H157 H 0.02330 0.89930 0.47100
H158 H 0.10920 0.83650 0.49150
C109 C 0.0385(4) 0.6091(9) 0.47272(13)
H159 H 0.04730 0.55480 0.49250
H160 H -0.02430 0.60570 0.46590
C110 C 0.0899(3) 0.5002(7) 0.45209(11)
H161 H 0.05430 0.47640 0.43340
H162 H 0.11010 0.38010 0.46080
C111 C 0.3764(3) 0.6233(8) 0.43454(10)
H163 H 0.42750 0.69720 0.43560
H164 H 0.37900 0.50060 0.44210
C112 C 0.0904(4) 1.1109(8) 0.38005(11)
H165 H 0.07900 1.21130 0.39340
H166 H 0.03550 1.07090 0.36930
H167 H 0.12990 1.15530 0.36640
H168 H 0.316(3) 0.127(9) 0.2546(12)
#END
