
#######################################################################
#
#                 Cambridge Crystallographic Data Centre
#                                CCDC
#
#######################################################################
#
# If this CIF has been generated from an entry in the Cambridge
# Structural Database, then it will include bibliographic, chemical,
# crystal, experimental, refinement or atomic coordinate data resulting
# from the CCDC's data processing and validation procedures.
#
#######################################################################

data_CSD_CIF_BIVJAS
_audit_creation_date 2008-07-15
_audit_creation_method CSD-ConQuest-V1
_database_code_CSD BIVJAS
_database_code_depnum_ccdc_archive 'CCDC 282841'
_chemical_formula_sum 'C14 H21 N1 O1'
_chemical_formula_moiety
;
C14 H21 N1 O1
;
_journal_coden_Cambridge 15
_journal_volume 84
_journal_year 2006
_journal_page_first 1456
_journal_name_full 'Can.J.Chem. '
loop_
_publ_author_name
"M.Harmata"
"P.Rashatasakhon"
"C.L.Barnes"
_chemical_name_systematic
;
rac-4-methyl-7-methylenetricyclo[7.2.1.0^1,5^]dodecan-12-one oxime
;
_cell_volume   2543.396
_exptl_crystal_colour 'colorless'
_exptl_crystal_density_diffrn 1.145
_exptl_special_details
;
Not CCDC 282839-282845 and 282856 as published

;
_exptl_crystal_description 'prism'
_diffrn_ambient_temperature 173
#These two values have been output from a single CSD field.
_refine_ls_R_factor_gt 0.1068
_refine_ls_wR_factor_gt 0.1068
loop_
_citation_database_id_CSD
_citation_special_details
WIYSAZ "is a stereoisomer of this entry"
_symmetry_cell_setting monoclinic
_symmetry_space_group_name_H-M 'P 21/n'
_symmetry_Int_Tables_number 14
loop_
_symmetry_equiv_pos_site_id
_symmetry_equiv_pos_as_xyz
1 x,y,z
2 1/2-x,1/2+y,1/2-z
3 -x,-y,-z
4 -1/2+x,-1/2-y,-1/2+z
_cell_length_a 8.0579(8)
_cell_length_b 24.150(3)
_cell_length_c 13.5856(14)
_cell_angle_alpha 90
_cell_angle_beta 105.836(2)
_cell_angle_gamma 90
_cell_formula_units_Z 8
loop_
_atom_type_symbol
_atom_type_radius_bond
C 0.68
H 0.23
N 0.68
O 0.68
loop_
_atom_site_label
_atom_site_type_symbol
_atom_site_fract_x
_atom_site_fract_y
_atom_site_fract_z
O1 O 0.2196(4) 0.16208(16) 0.4548(3)
H1 H 0.14360 0.14030 0.42150
N1 N 0.1792(6) 0.1780(2) 0.5457(4)
C1 C 0.2727(7) 0.2317(3) 0.7013(5)
C2 C 0.2889(7) 0.2106(3) 0.6019(5)
C3 C 0.4489(7) 0.2353(3) 0.5790(5)
H2 H 0.42600 0.24130 0.50370
C4 C 0.6052(7) 0.1969(3) 0.6168(6)
H3 H 0.59420 0.16680 0.56610
H4 H 0.70950 0.21840 0.61610
C5 C 0.6368(8) 0.1706(3) 0.7211(6)
C6 C 0.5832(8) 0.1999(3) 0.8050(5)
H5 H 0.61820 0.23930 0.80650
H6 H 0.64370 0.18320 0.87170
C7 C 0.3847(8) 0.1966(3) 0.7901(5)
H7 H 0.34990 0.15700 0.77560
C8 C 0.3386(9) 0.2905(3) 0.7020(6)
H8 H 0.39970 0.30190 0.77260
H9 H 0.24120 0.31630 0.67510
C9 C 0.4628(9) 0.2917(3) 0.6336(7)
H10 H 0.43080 0.32200 0.58270
H11 H 0.58260 0.29800 0.67570
C10 C 0.0969(7) 0.2271(3) 0.7235(5)
H12 H 0.04470 0.19020 0.70390
H13 H 0.01670 0.25600 0.68650
C11 C 0.1402(9) 0.2357(4) 0.8402(5)
H14 H 0.13250 0.27550 0.85650
H15 H 0.05910 0.21470 0.86920
C12 C 0.3247(10) 0.2145(4) 0.8839(6)
H16 H 0.39410 0.24840 0.91030
C13 C 0.7166(9) 0.1232(3) 0.7355(6)
H17 H 0.74290 0.10600 0.80080
H18 H 0.74860 0.10580 0.68070
C14 C 0.3563(15) 0.1788(5) 0.9674(7)
H19 H 0.31800 0.19620 1.02260
H20 H 0.48020 0.17100 0.99130
H21 H 0.29300 0.14420 0.94690
O2 O -0.1268(4) 0.11966(17) 0.5118(3)
H22 H -0.06040 0.14620 0.53490
N2 N -0.0770(6) 0.0945(2) 0.4283(4)
C15 C -0.1534(7) 0.0223(3) 0.2991(5)
C16 C -0.1723(7) 0.0542(3) 0.3906(5)
C17 C -0.3182(8) 0.0287(3) 0.4256(5)
H23 H -0.28800 0.03070 0.50200
C18 C -0.4869(7) 0.0589(3) 0.3825(5)
H24 H -0.58170 0.03440 0.38930
H25 H -0.48770 0.09200 0.42540
C19 C -0.5258(7) 0.0773(3) 0.2732(5)
C20 C -0.4740(8) 0.0436(3) 0.1930(5)
H26 H -0.54120 0.05620 0.12430
H27 H -0.50290 0.00420 0.20020
C21 C -0.2787(7) 0.0484(3) 0.2011(4)
H28 H -0.25030 0.08870 0.20050
C22 C -0.2048(10) -0.0360(3) 0.3198(6)
H29 H -0.10080 -0.05840 0.35050
H30 H -0.26960 -0.05380 0.25510
C23 C -0.3188(10) -0.0321(3) 0.3941(6)
H31 H -0.43780 -0.04440 0.36000
H32 H -0.27160 -0.05570 0.45490
C24 C 0.0198(8) 0.0264(3) 0.2722(5)
H33 H 0.06650 0.06460 0.28200
H34 H 0.10610 0.00050 0.31400
C25 C -0.0304(9) 0.0100(4) 0.1596(5)
H35 H 0.03660 0.03200 0.12230
H36 H -0.00480 -0.02970 0.15270
C26 C -0.2209(9) 0.0206(4) 0.1154(6)
H37 H -0.28020 -0.01600 0.10140
C27 C -0.6085(9) 0.1249(4) 0.2461(6)
H38 H -0.64200 0.14670 0.29570
H39 H -0.63420 0.13710 0.17710
C28 C -0.2672(9) 0.0531(4) 0.0182(6)
H40 H -0.39000 0.04800 -0.01630
H41 H -0.19820 0.04020 -0.02650
H42 H -0.24390 0.09240 0.03360
#END
