
#######################################################################
#
#                 Cambridge Crystallographic Data Centre
#                                CCDC
#
#######################################################################
#
# If this CIF has been generated from an entry in the Cambridge
# Structural Database, then it will include bibliographic, chemical,
# crystal, experimental, refinement or atomic coordinate data resulting
# from the CCDC's data processing and validation procedures.
#
#######################################################################

data_CSD_CIF_BIVWAF
_audit_creation_date 2008-07-22
_audit_creation_method CSD-ConQuest-V1
_database_code_CSD BIVWAF
_database_code_depnum_ccdc_archive 'CCDC 256621'
_chemical_formula_sum 'C32 H46 N6 O3'
_chemical_formula_moiety
;
C32 H46 N6 O3
;
_journal_coden_Cambridge 661
_journal_volume 54
_journal_year 2007
_journal_page_first 1639
_journal_name_full 'J.Chin.Chem.Soc.(Taipei) '
loop_
_publ_author_name
"Long-Li Lai"
"Yi-Ging Chang"
"Hui-Chu Hsu"
"Shun-Ju Hsu"
"Dao-Wen Luo"
_chemical_name_systematic
;
1-Hexanoyl-4-(4-((4-(4-hexanoylpiperazin-1-yl)phenyl)-NNO-azoxy)phenyl)piperaz
ine
;
_chemical_melting_point 524.15
_cell_volume   6134.787
_exptl_crystal_colour 'yellow'
_exptl_crystal_density_diffrn 1.219
_exptl_special_details
;
Melting point range 524.15-526.15K

;
_exptl_crystal_preparation 'dichloromethane/hexane'
_diffrn_ambient_temperature 293
_refine_special_details
;
A pentyl chain and piperazine group are disordered over two sites with 
occupancies of 0.7:0.3.
;
#These two values have been output from a single CSD field.
_refine_ls_R_factor_gt 0.0743
_refine_ls_wR_factor_gt 0.0743
_symmetry_cell_setting orthorhombic
_symmetry_space_group_name_H-M 'P b c a'
_symmetry_Int_Tables_number 61
loop_
_symmetry_equiv_pos_site_id
_symmetry_equiv_pos_as_xyz
1 x,y,z
2 1/2-x,-y,1/2+z
3 -x,1/2+y,1/2-z
4 1/2+x,1/2-y,-z
5 -x,-y,-z
6 -1/2+x,y,-1/2-z
7 x,-1/2-y,-1/2+z
8 -1/2-x,-1/2+y,z
_cell_length_a 8.3046(14)
_cell_length_b 11.0597(17)
_cell_length_c 66.794(11)
_cell_angle_alpha 90
_cell_angle_beta 90
_cell_angle_gamma 90
_cell_formula_units_Z 8
loop_
_atom_type_symbol
_atom_type_radius_bond
C 0.70
H 0.29
N 0.68
O 0.68
loop_
_atom_site_label
_atom_site_type_symbol
_atom_site_fract_x
_atom_site_fract_y
_atom_site_fract_z
O1 O 0.3650(4) 0.3533(2) 0.14288(4)
O2 O 0.4207(4) 0.3372(2) 0.30737(4)
O3 O 0.3069(4) 0.8504(3) 0.44999(4)
N1 N 0.3809(5) 0.4643(3) 0.17100(6)
N2 N 0.3859(4) 0.4766(2) 0.21370(5)
N3 N 0.3650(4) 0.5284(3) 0.29722(5)
N4 N 0.3918(4) 0.4492(3) 0.31037(5)
N5 N 0.4183(4) 0.6135(2) 0.39015(5)
N6 N 0.3786(4) 0.6957(3) 0.43043(5)
C1 C 0.4042(6) 0.7521(4) 0.06931(7)
H1 H 0.40880 0.73130 0.05540
H2 H 0.49930 0.79630 0.07290
H3 H 0.31090 0.80110 0.07180
C2 C 0.3941(5) 0.6385(4) 0.08163(6)
H4 H 0.48750 0.58880 0.07870
H5 H 0.29930 0.59350 0.07750
C3 C 0.3858(5) 0.6588(3) 0.10396(6)
H6 H 0.29130 0.70720 0.10690
H7 H 0.47960 0.70510 0.10800
C4 C 0.3787(5) 0.5449(3) 0.11636(6)
H8 H 0.28460 0.49870 0.11240
H9 H 0.47300 0.49610 0.11350
C5 C 0.3715(5) 0.5678(3) 0.13851(6)
H10 H 0.27420 0.61290 0.14150
H11 H 0.46260 0.61760 0.14230
C6 C 0.3730(5) 0.4535(3) 0.15103(7)
C7 C 0.3511(16) 0.3550(12) 0.1835(3)
H12 H 0.402(7) 0.287(5) 0.1750(8)
H13 H 0.232(8) 0.348(5) 0.1892(8)
C8 C 0.409(3) 0.3710(14) 0.2037(3)
H14 H 0.379(13) 0.300(11) 0.2123(14)
H15 H 0.524(13) 0.365(8) 0.1967(18)
C9 C 0.4102(16) 0.5818(9) 0.2013(2)
H16 H 0.522(7) 0.592(5) 0.1995(9)
H17 H 0.355(9) 0.657(7) 0.2094(10)
C10 C 0.392(3) 0.5817(14) 0.1808(3)
H18 H 0.256(13) 0.564(10) 0.190(2)
H19 H 0.365(16) 0.63(1) 0.1727(17)
C11 C 0.3822(4) 0.4833(3) 0.23429(6)
C12 C 0.4356(5) 0.3886(3) 0.24640(7)
H20 H 0.47550 0.31880 0.24040
C13 C 0.4307(5) 0.3960(3) 0.26709(7)
H21 H 0.46680 0.33110 0.27470
C14 C 0.3722(5) 0.4995(3) 0.27670(6)
C15 C 0.3188(5) 0.5936(3) 0.26444(7)
H22 H 0.28010 0.66390 0.27040
C16 C 0.3215(5) 0.5857(3) 0.24415(6)
H23 H 0.28210 0.64980 0.23660
C17 C 0.3899(4) 0.4927(3) 0.33088(6)
C18 C 0.4422(5) 0.4170(3) 0.34570(7)
H24 H 0.47240 0.33820 0.34260
C19 C 0.4502(5) 0.4573(3) 0.36522(7)
H25 H 0.48950 0.40570 0.37510
C20 C 0.4008(4) 0.5739(3) 0.37058(6)
C21 C 0.3457(5) 0.6467(3) 0.35520(6)
H26 H 0.31140 0.72470 0.35820
C22 C 0.3398(4) 0.6079(3) 0.33563(6)
H27 H 0.30200 0.65920 0.32570
C23 C 0.3596(5) 0.5338(3) 0.40608(6)
H28 H 0.39590 0.45210 0.40340
H29 H 0.24280 0.53340 0.40580
C24 C 0.4146(6) 0.5699(3) 0.42663(6)
H30 H 0.36120 0.51990 0.43650
H31 H 0.52970 0.55670 0.42780
C25 C 0.4381(5) 0.7758(3) 0.41495(6)
H32 H 0.55490 0.77450 0.41500
H33 H 0.40360 0.85770 0.41780
C26 C 0.3787(5) 0.7400(3) 0.39454(6)
H34 H 0.26300 0.75100 0.39390
H35 H 0.42760 0.79180 0.38450
C27 C 0.3237(6) 0.7414(5) 0.44775(7)
C28 C 0.287(3) 0.6526(14) 0.4638(3)
H36 H 0.361(14) 0.637(9) 0.476(2)
H37 H 0.17(7) 0.58(5) 0.461(7)
C29 C 0.232(3) 0.7043(13) 0.4840(2)
H38 H 0.151(13) 0.717(10) 0.475(2)
H39 H 0.348(11) 0.789(8) 0.4865(12)
C30 C 0.233(4) 0.5885(17) 0.4989(3)
H40 H 0.156(15) 0.525(12) 0.4980(16)
C31 C 0.203(4) 0.632(2) 0.5187(3)
H41 H 0.117(16) 0.694(11) 0.5171(19)
H42 H 0.32(3) 0.58(2) 0.506(4)
C32 C 0.201(3) 0.524(2) 0.5331(4)
H43 H 0.18740 0.55500 0.54650
H44 H 0.11170 0.47260 0.52980
H45 H 0.29920 0.47900 0.53230
C33? C 0.437(4) 0.360(3) 0.1827(7)
H46? H 0.54(2) 0.359(15) 0.181(3)
H47? H 0.33(2) 0.43(2) 0.181(3)
C34? C 0.438(4) 0.355(3) 0.2025(8)
H48? H 0.44(2) 0.280(16) 0.208(2)
H49? H 0.607(16) 0.320(11) 0.2093(19)
C35? C 0.327(3) 0.578(2) 0.2017(4)
H50? H 0.422(15) 0.656(16) 0.208(2)
H51? H 0.212(15) 0.581(10) 0.2056(17)
C36? C 0.322(3) 0.569(2) 0.1827(6)
H52? H 0.182(15) 0.573(11) 0.1851(19)
H53? H 0.381(17) 0.653(12) 0.172(2)
H54? H 0.25(3) 0.66(2) 0.464(3)
C37? C 0.284(10) 0.609(6) 0.4626(6)
H55? H 0.46(10) 0.74(8) 0.474(12)
C38? C 0.282(11) 0.696(12) 0.4787(14)
H56? H 0.62(17) 0.51(10) 0.518(14)
H57? H 0.07(6) 0.82(4) 0.467(7)
H58? H 0.324(16) 0.513(13) 0.502(2)
C39? C 0.160(6) 0.645(3) 0.4985(6)
H59? H 0.05(3) 0.59(2) 0.510(4)
H60? H 0.26(3) 0.72(2) 0.508(4)
C40? C 0.301(4) 0.574(5) 0.5118(8)
H61? H 0.42(3) 0.61(2) 0.510(4)
H62? H 0.26(3) 0.48(2) 0.491(3)
C41? C 0.216(8) 0.506(6) 0.5292(11)
H63? H 0.29360 0.46100 0.53680
H64? H 0.16230 0.56260 0.53780
H65? H 0.13770 0.45090 0.52360
#END
