
#######################################################################
#
#                 Cambridge Crystallographic Data Centre
#                                CCDC
#
#######################################################################
#
# If this CIF has been generated from an entry in the Cambridge
# Structural Database, then it will include bibliographic, chemical,
# crystal, experimental, refinement or atomic coordinate data resulting
# from the CCDC's data processing and validation procedures.
#
#######################################################################

data_CSD_CIF_BIWZOX
_audit_creation_date 2008-07-22
_audit_creation_method CSD-ConQuest-V1
_database_code_CSD BIWZOX
_database_code_depnum_ccdc_archive 'CCDC 683490'
_chemical_formula_sum 'C19 H23 N5 O2'
_chemical_formula_moiety
;
C19 H23 N5 O2
;
_journal_coden_Cambridge 9
_journal_volume 47
_journal_year 2008
_journal_page_first 1279
_journal_name_full 'Inorg.Chem. '
loop_
_publ_author_name
"J.B.Gilroy"
"P.O.Otieno"
"M.J.Ferguson"
"R.McDonald"
"R.G.Hicks"
_chemical_name_systematic
;
trans-syn,s-cis-1,5-Dimesityl-3-nitroformazan
;
_chemical_melting_point 409.15
_cell_volume    934.872
_exptl_crystal_colour 'dark red'
_exptl_crystal_density_diffrn 1.256
_exptl_special_details
;
Melting point range 409.15-411.15K

;
_exptl_crystal_description 'prism'
_diffrn_ambient_temperature 193
#These two values have been output from a single CSD field.
_refine_ls_R_factor_gt 0.0496
_refine_ls_wR_factor_gt 0.0496
_symmetry_cell_setting triclinic
_symmetry_space_group_name_H-M 'P -1'
_symmetry_Int_Tables_number 2
loop_
_symmetry_equiv_pos_site_id
_symmetry_equiv_pos_as_xyz
1 x,y,z
2 -x,-y,-z
_cell_length_a 8.9215(13)
_cell_length_b 9.2825(14)
_cell_length_c 12.9559(19)
_cell_angle_alpha 77.929(2)
_cell_angle_beta 78.539(2)
_cell_angle_gamma 63.853(2)
_cell_formula_units_Z 2
loop_
_atom_type_symbol
_atom_type_radius_bond
C 0.68
H 0.23
N 0.68
O 0.68
loop_
_atom_site_label
_atom_site_type_symbol
_atom_site_fract_x
_atom_site_fract_y
_atom_site_fract_z
O1 O 0.92788(18) -0.32622(19) 0.20065(12)
O2 O 0.80414(19) -0.42609(18) 0.33755(13)
N1 N 0.65832(19) -0.06044(19) 0.17851(12)
N2 N 0.5288(2) 0.07819(19) 0.16810(12)
H1 H 0.44580 0.10560 0.22010
N3 N 0.55063(18) -0.15047(18) 0.35905(12)
N4 N 0.41857(19) -0.01653(18) 0.36076(11)
N5 N 0.8079(2) -0.3145(2) 0.26880(13)
C1 C 0.6587(2) -0.1593(2) 0.26826(14)
C2 C 0.5238(2) 0.1851(2) 0.07101(13)
C3 C 0.6637(2) 0.2178(2) 0.02530(14)
C4 C 0.6489(3) 0.3227(2) -0.06957(14)
H2 H 0.74250 0.34600 -0.10220
C5 C 0.5045(3) 0.3945(2) -0.11844(14)
C6 C 0.3668(3) 0.3635(3) -0.06890(15)
H3 H 0.26510 0.41530 -0.10040
C7 C 0.3739(3) 0.2584(2) 0.02578(15)
C8 C 0.8214(3) 0.1506(3) 0.07738(18)
H4 H 0.79200 0.16370 0.15290
H5 H 0.89090 0.20880 0.04290
H6 H 0.88440 0.03520 0.07040
C9 C 0.4949(3) 0.5064(3) -0.22205(16)
H7 H 0.42540 0.49290 -0.26580
H8 H 0.60840 0.48020 -0.26000
H9 H 0.44480 0.61880 -0.20770
C10 C 0.2229(3) 0.2243(3) 0.07490(18)
H10 H 0.17020 0.27900 0.13810
H11 H 0.25850 0.10720 0.09520
H12 H 0.14180 0.26450 0.02330
C11 C 0.2997(2) 0.0010(2) 0.45298(13)
C12 C 0.2757(2) -0.1291(2) 0.52147(13)
C13 C 0.1477(2) -0.0913(2) 0.60578(13)
H13 H 0.12980 -0.17750 0.65250
C14 C 0.0451(2) 0.0662(2) 0.62472(13)
C15 C 0.0718(2) 0.1908(2) 0.55553(14)
H14 H 0.00250 0.29950 0.56760
C16 C 0.1959(2) 0.1620(2) 0.46967(14)
C17 C 0.3723(3) -0.3037(2) 0.50491(15)
H15 H 0.38130 -0.31290 0.42970
H16 H 0.31340 -0.36750 0.54840
H17 H 0.48520 -0.34470 0.52580
C18 C -0.0929(3) 0.1011(3) 0.71669(15)
H18 H -0.11680 0.00540 0.74240
H19 H -0.19460 0.19290 0.69330
H20 H -0.05710 0.12780 0.77420
C19 C 0.2200(3) 0.3021(2) 0.39718(17)
H21 H 0.17480 0.31950 0.33040
H22 H 0.34020 0.27770 0.38230
H23 H 0.16050 0.40020 0.43170
#END
