
#######################################################################
#
#                 Cambridge Crystallographic Data Centre
#                                CCDC
#
#######################################################################
#
# If this CIF has been generated from an entry in the Cambridge
# Structural Database, then it will include bibliographic, chemical,
# crystal, experimental, refinement or atomic coordinate data resulting
# from the CCDC's data processing and validation procedures.
#
#######################################################################

data_CSD_CIF_BIWZIR
_audit_creation_date 2008-07-22
_audit_creation_method CSD-ConQuest-V1
_database_code_CSD BIWZIR
_database_code_depnum_ccdc_archive 'CCDC 683489'
_chemical_formula_sum 'C15 H15 N5 O2'
_chemical_formula_moiety
;
C15 H15 N5 O2
;
_journal_coden_Cambridge 9
_journal_volume 47
_journal_year 2008
_journal_page_first 1279
_journal_name_full 'Inorg.Chem. '
loop_
_publ_author_name
"J.B.Gilroy"
"P.O.Otieno"
"M.J.Ferguson"
"R.McDonald"
"R.G.Hicks"
_chemical_name_systematic
;
trans-syn,s-cis-1,5-bis(p-Tolyl)-3-nitroformazan
;
_chemical_melting_point 397.15
_cell_volume    733.015
_exptl_crystal_colour 'orange-red'
_exptl_crystal_density_diffrn 1.347
_exptl_special_details
;
Melts with decomposition.

;
_exptl_crystal_preparation 'methanol'
_diffrn_ambient_temperature 193
#These two values have been output from a single CSD field.
_refine_ls_R_factor_gt 0.0474
_refine_ls_wR_factor_gt 0.0474
_symmetry_cell_setting triclinic
_symmetry_space_group_name_H-M 'P -1'
_symmetry_Int_Tables_number 2
loop_
_symmetry_equiv_pos_site_id
_symmetry_equiv_pos_as_xyz
1 x,y,z
2 -x,-y,-z
_cell_length_a 7.2118(10)
_cell_length_b 9.8215(14)
_cell_length_c 11.7772(16)
_cell_angle_alpha 110.419(2)
_cell_angle_beta 96.245(2)
_cell_angle_gamma 105.752(2)
_cell_formula_units_Z 2
loop_
_atom_type_symbol
_atom_type_radius_bond
C 0.68
H 0.23
N 0.68
O 0.68
loop_
_atom_site_label
_atom_site_type_symbol
_atom_site_fract_x
_atom_site_fract_y
_atom_site_fract_z
O1 O 0.5527(2) 0.83659(16) 0.39211(14)
O2 O 0.5843(2) 0.85695(16) 0.58224(14)
N1 N 0.4022(2) 0.53722(18) 0.31300(15)
N2 N 0.3212(2) 0.38812(17) 0.27329(14)
H1 H 0.26930 0.34770 0.32330
N3 N 0.3247(2) 0.58752(17) 0.51958(14)
N4 N 0.2316(2) 0.44365(17) 0.48975(14)
N5 N 0.5193(2) 0.78300(18) 0.46970(16)
C1 C 0.4031(3) 0.6203(2) 0.42868(17)
C2 C 0.3157(3) 0.2916(2) 0.15187(17)
C3 C 0.2675(4) 0.1362(2) 0.1242(2)
H2 H 0.24270 0.09850 0.18710
C4 C 0.2550(4) 0.0350(2) 0.00564(19)
H3 H 0.22270 -0.07170 -0.01180
C5 C 0.2887(3) 0.0859(2) -0.08876(18)
C6 C 0.3392(3) 0.2421(2) -0.05904(19)
H4 H 0.36460 0.27980 -0.12190
C7 C 0.3541(3) 0.3460(2) 0.05996(19)
H5 H 0.39010 0.45310 0.07820
C8 C 0.2684(4) -0.0257(3) -0.2184(2)
H6 H 0.14960 -0.11560 -0.24100
H7 H 0.38500 -0.05880 -0.22240
H8 H 0.25750 0.02430 -0.27660
C9 C 0.1427(2) 0.4085(2) 0.58168(17)
C10 C 0.0349(3) 0.2542(2) 0.54985(18)
H9 H 0.02530 0.17970 0.47010
C11 C -0.0576(3) 0.2094(2) 0.63323(19)
H10 H -0.13120 0.10390 0.61000
C12 C -0.0454(3) 0.3155(2) 0.75081(19)
C13 C 0.0652(3) 0.4692(2) 0.78141(19)
H11 H 0.07650 0.54350 0.86170
C14 C 0.1582(3) 0.5163(2) 0.69936(18)
H12 H 0.23250 0.62170 0.72270
C15 C -0.1498(3) 0.2655(3) 0.8404(2)
H13 H -0.26460 0.17260 0.79390
H14 H -0.19390 0.34790 0.89150
H15 H -0.05910 0.24330 0.89420
#END
