
#######################################################################
#
#                 Cambridge Crystallographic Data Centre
#                                CCDC
#
#######################################################################
#
# If this CIF has been generated from an entry in the Cambridge
# Structural Database, then it will include bibliographic, chemical,
# crystal, experimental, refinement or atomic coordinate data resulting
# from the CCDC's data processing and validation procedures.
#
#######################################################################

data_CSD_CIF_BIXGOE
_audit_creation_date 1983-05-14
_audit_creation_method CSD-ConQuest-V1
_database_code_CSD BIXGOE
_chemical_formula_sum 'C25 H30 N2 O3'
_chemical_formula_moiety
;
C25 H30 N2 O3
;
_journal_coden_Cambridge 10
_journal_volume 65
_journal_year 1982
_journal_page_first 1637
_journal_name_full 'Helv.Chim.Acta '
loop_
_publ_author_name
"S.J.Blarer"
"W.B.Schweizer"
"D.Seebach"
_chemical_name_systematic
;
(-)-(2R,3S,6'R,1''S)-3-Methyl-N-(6'-(2''-nitro-1''-phenylethyl)-1'-cyclohexeny
l)-2-phenylmorpholine
;
_chemical_melting_point 381.15
_cell_volume   2217.999
_exptl_crystal_density_diffrn 1.217
_exptl_special_details
;
Melting point range 381.15-382.15K

;
_diffrn_ambient_temperature ?
_diffrn_special_details
;
The study was carried out at room temperature,in the range 283-303K

;
#These two values have been output from a single CSD field.
_refine_ls_R_factor_gt 0.026
_refine_ls_wR_factor_gt 0.026
_symmetry_cell_setting orthorhombic
_symmetry_space_group_name_H-M 'P 21 21 21'
_symmetry_Int_Tables_number 19
loop_
_symmetry_equiv_pos_site_id
_symmetry_equiv_pos_as_xyz
1 x,y,z
2 1/2+x,1/2-y,-z
3 -x,1/2+y,1/2-z
4 1/2-x,-y,1/2+z
_cell_length_a 6.152
_cell_length_b 15.158
_cell_length_c 23.785
_cell_angle_alpha 90
_cell_angle_beta 90
_cell_angle_gamma 90
_cell_formula_units_Z 4
loop_
_atom_type_symbol
_atom_type_radius_bond
C 0.68
H 0.23
N 0.68
O 0.68
loop_
_atom_site_label
_atom_site_type_symbol
_atom_site_fract_x
_atom_site_fract_y
_atom_site_fract_z
C1 C 0.06240 0.87070 0.14400
C2 C 0.01620 0.94190 0.10080
C3 C -0.03840 0.89820 0.04450
C4 C 0.14120 0.83580 0.02650
C5 C 0.15420 0.75940 0.06840
C6 C 0.12390 0.79030 0.12820
C7 C -0.14060 0.94400 0.22090
C8 C -0.10010 0.97740 0.28130
C9 C 0.13500 0.86060 0.30020
C10 C 0.11290 0.82540 0.24190
C11 C 0.20890 1.00970 0.09520
C12 C 0.21520 1.06820 0.14770
C13 C -0.34800 0.88910 0.21630
C14 C -0.28910 1.02840 0.30480
C15 C -0.37290 1.09960 0.27610
C16 C -0.55030 1.14620 0.29630
C17 C -0.64500 1.12370 0.34700
C18 C -0.55990 1.05370 0.37650
C19 C -0.38520 1.00620 0.35550
C20 C 0.19450 1.06610 0.04270
C21 C 0.01360 1.11840 0.03180
C22 C 0.00140 1.16880 -0.01650
C23 C 0.16960 1.16750 -0.05430
C24 C 0.35070 1.11790 -0.04390
C25 C 0.36280 1.06640 0.00430
N1 N 0.05700 0.89600 0.20260
N2 N 0.40390 1.13220 0.14500
O1 O -0.05670 0.90580 0.31810
O2 O 0.36710 1.20840 0.15640
O3 O 0.58310 1.10230 0.13290
H1 H -0.12080 0.97760 0.11480
H2 H -0.18320 0.86070 0.04900
H3 H -0.06050 0.94460 0.01620
H4 H 0.10140 0.80970 -0.01130
H5 H 0.27930 0.86850 0.02390
H6 H 0.31940 0.73120 0.06520
H7 H 0.04470 0.71530 0.05890
H8 H 0.15050 0.73930 0.15770
H9 H -0.16130 1.00000 0.19480
H10 H 0.03050 1.02310 0.27910
H11 H 0.15580 0.80780 0.32980
H12 H 0.26920 0.90710 0.30320
H13 H 0.25510 0.79560 0.22730
H14 H -0.01120 0.77480 0.24160
H15 H 0.35310 0.97290 0.09270
H16 H -0.47170 0.92850 0.22090
H17 H -0.35510 0.85950 0.17820
H18 H -0.34570 0.84380 0.24680
H19 H 0.08020 1.10850 0.14950
H20 H 0.23950 1.03350 0.18380
H21 H -0.30220 1.11670 0.23720
H22 H -0.58980 1.19700 0.27390
H23 H -0.75880 1.16270 0.36450
H24 H -0.63350 1.03520 0.41530
H25 H -0.31810 0.95390 0.37670
H26 H -0.11430 1.12100 0.05860
H27 H -0.13380 1.20720 -0.02370
H28 H 0.15190 1.20860 -0.09070
H29 H 0.47310 1.11760 -0.06990
H30 H 0.49390 1.02760 0.01070
#END
