
#######################################################################
#
#                 Cambridge Crystallographic Data Centre
#                                CCDC
#
#######################################################################
#
# If this CIF has been generated from an entry in the Cambridge
# Structural Database, then it will include bibliographic, chemical,
# crystal, experimental, refinement or atomic coordinate data resulting
# from the CCDC's data processing and validation procedures.
#
#######################################################################

data_CSD_CIF_BIYHAS
_audit_creation_date 1983-05-14
_audit_creation_method CSD-ConQuest-V1
_database_code_CSD BIYHAS
_chemical_formula_sum 'C5 H7 N1 O3'
_chemical_formula_moiety
;
C5 H7 N1 O3
;
_journal_coden_Cambridge 277
_journal_volume 78
_journal_year 1982
_journal_page_first 185
_journal_name_full 'An.Quim. '
loop_
_publ_author_name
"S.Martinez-Carrera"
"S.Garcia-Blanco"
_chemical_name_systematic
;
N-Hydroxyglutarimide
;
_cell_volume    578.865
_exptl_crystal_density_diffrn 1.48
_diffrn_ambient_temperature ?
_diffrn_special_details
;
The study was carried out at room temperature,in the range 283-303K

;
#These two values have been output from a single CSD field.
_refine_ls_R_factor_gt 0.049
_refine_ls_wR_factor_gt 0.049
_symmetry_cell_setting orthorhombic
_symmetry_space_group_name_H-M 'P 21 21 21'
_symmetry_Int_Tables_number 19
loop_
_symmetry_equiv_pos_site_id
_symmetry_equiv_pos_as_xyz
1 x,y,z
2 1/2+x,1/2-y,-z
3 -x,1/2+y,1/2-z
4 1/2-x,-y,1/2+z
_cell_length_a 11.112(1)
_cell_length_b 9.842(1)
_cell_length_c 5.293(3)
_cell_angle_alpha 90
_cell_angle_beta 90
_cell_angle_gamma 90
_cell_formula_units_Z 4
loop_
_atom_type_symbol
_atom_type_radius_bond
C 0.68
H 0.23
N 0.68
O 0.68
loop_
_atom_site_label
_atom_site_type_symbol
_atom_site_fract_x
_atom_site_fract_y
_atom_site_fract_z
C1 C 0.89850 0.20040 -0.22850
C2 C 1.02760 0.23370 -0.28570
C3 C 1.11350 0.11960 -0.22600
C4 C 1.09690 0.07510 0.04700
C5 C 0.96820 0.04580 0.11590
N1 N 0.88140 0.10470 -0.03530
O1 O 0.76380 0.08280 0.04490
O2 O 0.81240 0.24970 -0.33090
O3 O 0.93990 -0.02430 0.29500
H1 H 0.72800 0.07000 -0.07600
H21 H 1.04700 0.31700 -0.19300
H22 H 1.03200 0.26900 -0.46200
H31 H 1.19600 0.15600 -0.24300
H32 H 1.10000 0.03700 -0.33400
H41 H 1.12500 0.15200 0.15300
H42 H 1.14000 -0.01200 0.08900
#END
