
#######################################################################
#
#                 Cambridge Crystallographic Data Centre
#                                CCDC
#
#######################################################################
#
# If this CIF has been generated from an entry in the Cambridge
# Structural Database, then it will include bibliographic, chemical,
# crystal, experimental, refinement or atomic coordinate data resulting
# from the CCDC's data processing and validation procedures.
#
#######################################################################

data_CSD_CIF_BIYKOJ
_audit_creation_date 1983-05-13
_audit_creation_method CSD-ConQuest-V1
_database_code_CSD BIYKOJ
_database_code_depnum_ccdc_archive 'CCDC 1112286'
_chemical_formula_sum 'C12 H22 N1 O3'
_chemical_formula_moiety
;
C12 H22 N1 O3
;
_journal_coden_Cambridge 15
_journal_volume 60
_journal_year 1982
_journal_page_first 2392
_journal_name_full 'Can.J.Chem. '
loop_
_publ_author_name
"M.Cygler"
_chemical_name_systematic
;
4,7-Oxido-7-methyl-7-hydroxymethyl-2,2,6,6-tetramethylpiperidin-1-oxyl
;
_chemical_melting_point 369.15
_cell_volume    634.704
_exptl_crystal_colour 'dark red'
_exptl_crystal_density_diffrn 1.195
_diffrn_ambient_temperature ?
_diffrn_special_details
;
The study was carried out at room temperature,in the range 283-303K

;
_refine_special_details
;
There are 2 possible positions for the hydroxyl group O3 on either side of 
the mirror plane. A -CH3 group and the CH2OH group are crystallographically 
related by the mirror plane.
;
#These two values have been output from a single CSD field.
_refine_ls_R_factor_gt 0.039
_refine_ls_wR_factor_gt 0.039
_symmetry_cell_setting monoclinic
_symmetry_space_group_name_H-M 'P 21/m'
_symmetry_Int_Tables_number 11
loop_
_symmetry_equiv_pos_site_id
_symmetry_equiv_pos_as_xyz
1 x,y,z
2 -x,1/2+y,-z
3 -x,-y,-z
4 x,-1/2-y,z
_cell_length_a 8.041(1)
_cell_length_b 13.348(1)
_cell_length_c 5.945(1)
_cell_angle_alpha 90
_cell_angle_beta 95.90(1)
_cell_angle_gamma 90
_cell_formula_units_Z 2
loop_
_atom_type_symbol
_atom_type_radius_bond
C 0.68
H 0.23
N 0.68
O 0.68
loop_
_atom_site_label
_atom_site_type_symbol
_atom_site_fract_x
_atom_site_fract_y
_atom_site_fract_z
O1 O 0.43550 0.25000 0.68410
N1 N 0.30220 0.25000 0.54550
C1 C 0.25000 0.34860 0.44400
C2 C 0.36710 0.37670 0.26610
C3 C 0.26320 0.42640 0.63320
C4 C 0.06730 0.34270 0.34110
C5 C 0.02470 0.25000 0.20260
C6 C -0.10910 0.25000 0.01160
C7 C -0.20310 0.34480 -0.05890
O2 O 0.06610 0.25000 -0.02960
O3 O -0.25550 0.34270 -0.29170
H1 H 0.35000 0.33400 0.12400
H2 H 0.34500 0.44500 0.21400
H3 H 0.48500 0.37300 0.33800
H4 H 0.19500 0.40700 0.76000
H5 H 0.22100 0.49000 0.56500
H6 H 0.37600 0.43300 0.70400
H7 H -0.00600 0.34300 0.47200
H8 H 0.04500 0.40400 0.25000
H9 H -0.30300 0.35000 0.02600
H10 H -0.13400 0.40300 -0.03100
H11 H -0.32600 0.32500 -0.29700
C1C C 0.25000 0.15140 0.44400
C4C C 0.06730 0.15730 0.34110
C7C C -0.20310 0.15520 -0.05890
C2C C 0.36710 0.12330 0.26610
C3C C 0.26320 0.07360 0.63320
H7C H -0.00600 0.15700 0.47200
H8C H 0.04500 0.09600 0.25000
O3C O -0.25550 0.15730 -0.29170
H9C H -0.30300 0.15000 0.02600
H10C H -0.13400 0.09700 -0.03100
H1C H 0.35000 0.16600 0.12400
H2C H 0.34500 0.05500 0.21400
H3C H 0.48500 0.12700 0.33800
H4C H 0.19500 0.09300 0.76000
H5C H 0.22100 0.01000 0.56500
H6C H 0.37600 0.06700 0.70400
H11C H -0.32600 0.17500 -0.29700
#END
