
#######################################################################
#
#                 Cambridge Crystallographic Data Centre
#                                CCDC
#
#######################################################################
#
# If this CIF has been generated from an entry in the Cambridge
# Structural Database, then it will include bibliographic, chemical,
# crystal, experimental, refinement or atomic coordinate data resulting
# from the CCDC's data processing and validation procedures.
#
#######################################################################

data_CSD_CIF_BIYNOM
_audit_creation_date 1983-05-14
_audit_creation_method CSD-ConQuest-V1
_database_code_CSD BIYNOM
_database_code_depnum_ccdc_archive 'CCDC 1112301'
_chemical_formula_sum 'C21 H24 N2 O6'
_chemical_formula_moiety
;
C21 H24 N2 O6
;
_journal_coeditor_code "IUCr A21610"
_journal_coden_Cambridge 107
_journal_volume 38
_journal_year 1982
_journal_page_first 2910
_journal_name_full 'Acta Crystallogr.,Sect.B:Struct.Crystallogr.Cryst.Chem. '
loop_
_publ_author_name
"A.de Andres"
"J.L.Balcazar"
"J.Fayos"
_chemical_name_systematic
;
(2R,4R-2S,4S)-5,5-Dimethyl-4-phenyl-2-hexyl-3,5-dinitrobenzoate
;
_cell_volume   2093.909
_exptl_crystal_density_diffrn 1.269
_diffrn_ambient_temperature ?
_diffrn_special_details
;
The study was carried out at room temperature,in the range 283-303K

;
#These two values have been output from a single CSD field.
_refine_ls_R_factor_gt 0.059
_refine_ls_wR_factor_gt 0.059
_symmetry_cell_setting monoclinic
_symmetry_space_group_name_H-M 'P 21/c'
_symmetry_Int_Tables_number 14
loop_
_symmetry_equiv_pos_site_id
_symmetry_equiv_pos_as_xyz
1 x,y,z
2 -x,1/2+y,1/2-z
3 -x,-y,-z
4 x,-1/2-y,-1/2+z
_cell_length_a 14.549(1)
_cell_length_b 11.195(1)
_cell_length_c 13.694(1)
_cell_angle_alpha 90
_cell_angle_beta 110.15(2)
_cell_angle_gamma 90
_cell_formula_units_Z 4
loop_
_atom_type_symbol
_atom_type_radius_bond
C 0.68
H 0.23
N 0.68
O 0.68
loop_
_atom_site_label
_atom_site_type_symbol
_atom_site_fract_x
_atom_site_fract_y
_atom_site_fract_z
C1 C 0.47840 0.13360 0.87540
C2 C 0.44530 0.09950 0.77200
C3 C 0.50070 0.12790 0.71160
C4 C 0.58760 0.19010 0.74910
C5 C 0.61910 0.22020 0.85230
C6 C 0.56750 0.19250 0.91730
C7 C 0.41900 0.10940 0.94300
C8 C 0.25820 0.05290 0.94000
C9 C 0.21540 0.17290 0.95380
C10 C 0.14060 0.16390 1.01000
C11 C 0.18450 0.10750 1.11640
C12 C 0.27460 0.14310 1.18870
C13 C 0.30960 0.09270 1.28680
C14 C 0.25880 0.00550 1.31590
C15 C 0.17130 -0.03280 1.24590
C16 C 0.13510 0.01780 1.14690
C17 C 0.18550 -0.03310 0.87050
C18 C 0.08720 0.28590 1.01080
C19 C 0.01340 0.26320 1.06630
C20 C 0.15860 0.38520 1.06470
C21 C 0.03120 0.32380 0.89820
N1 N 0.71270 0.28530 0.89640
N2 N 0.46500 0.09100 0.60180
O1 O 0.39080 0.03130 0.57170
O2 O 0.51180 0.11940 0.54790
O3 O 0.74870 0.32660 0.83530
O4 O 0.74750 0.29670 0.99020
O5 O 0.32880 0.07470 0.88700
O6 O 0.44950 0.12170 1.03650
H1 H 0.38300 0.06000 0.74000
H2 H 0.62500 0.20800 0.70600
H3 H 0.59400 0.21300 0.99300
H4 H 0.29300 0.01700 1.01100
H5 H 0.18600 0.20700 0.88600
H6 H 0.27400 0.21900 0.99100
H7 H 0.08900 0.10800 0.97000
H8 H 0.31800 0.19700 1.16500
H9 H 0.36500 0.11500 1.33300
H10 H 0.28100 -0.02800 1.38700
H11 H 0.13200 -0.09300 1.26100
H12 H 0.07200 -0.00100 1.10500
H13 H 0.13700 -0.05600 0.90000
H14 H 0.14800 0.00800 0.80600
H15 H 0.21600 -0.10600 0.85500
H16 H -0.03400 0.20400 1.03000
H17 H 0.04300 0.24600 1.14100
H18 H -0.02600 0.34800 1.06400
H19 H 0.19200 0.36200 1.14100
H20 H 0.21200 0.39500 1.02900
H21 H 0.12000 0.45900 1.06300
H22 H 0.07700 0.34400 0.86000
H23 H 0.00400 0.26200 0.86100
H24 H -0.01100 0.38800 0.89900
#END
