
#######################################################################
#
#                 Cambridge Crystallographic Data Centre
#                                CCDC
#
#######################################################################
#
# If this CIF has been generated from an entry in the Cambridge
# Structural Database, then it will include bibliographic, chemical,
# crystal, experimental, refinement or atomic coordinate data resulting
# from the CCDC's data processing and validation procedures.
#
#######################################################################

data_CSD_CIF_BIZGUM
_audit_creation_date 1983-06-14
_audit_creation_method CSD-ConQuest-V1
_database_code_CSD BIZGUM
_chemical_formula_sum 'C15 H24 N2 O3'
_chemical_formula_moiety
;
C15 H24 N2 O3
;
_journal_coden_Cambridge 207
_journal_year 1982
_journal_page_first 1385
_journal_name_full 'J.Chem.Soc.,Perkin Trans.1 '
loop_
_publ_author_name
"D.K.MacAlpine"
"A.L.Porte"
"G.A.Sim"
_chemical_name_systematic
;
2,6,6,9-Tetramethyl-1-nitro-2-nitroso-cycloundeca-4,8-diene
;
_chemical_name_common
;
Humulene nitrosite
;
_cell_volume   1648.402
_exptl_crystal_density_diffrn 1.13
_exptl_special_details
;
conformational isomer i

;
_exptl_crystal_description 'needle'
_diffrn_ambient_temperature ?
_diffrn_special_details
;
The study was carried out at room temperature,in the range 283-303K

;
_refine_special_details
;
NO group is slightly disordered.

;
#These two values have been output from a single CSD field.
_refine_ls_R_factor_gt 0.071
_refine_ls_wR_factor_gt 0.071
loop_
_citation_database_id_CSD
_citation_special_details
BIZGUN "is a stereoisomer of this entry"
_symmetry_cell_setting monoclinic
_symmetry_space_group_name_H-M 'P 21/n'
_symmetry_Int_Tables_number 14
loop_
_symmetry_equiv_pos_site_id
_symmetry_equiv_pos_as_xyz
1 x,y,z
2 1/2-x,1/2+y,1/2-z
3 -x,-y,-z
4 -1/2+x,-1/2-y,-1/2+z
_cell_length_a 6.484(2)
_cell_length_b 18.139(8)
_cell_length_c 14.294(3)
_cell_angle_alpha 90
_cell_angle_beta 101.33(2)
_cell_angle_gamma 90
_cell_formula_units_Z 4
loop_
_atom_type_symbol
_atom_type_radius_bond
C 0.68
H 0.23
N 0.68
O 0.68
loop_
_atom_site_label
_atom_site_type_symbol
_atom_site_fract_x
_atom_site_fract_y
_atom_site_fract_z
C1 C 0.77590 0.35540 0.57590
C2 C 0.67010 0.40160 0.49020
C3 C 0.74800 0.38280 0.40020
C4 C 0.59560 0.39800 0.30530
C5 C 0.43250 0.33380 0.28490
C6 C 0.52740 0.25920 0.29900
C7 C 0.48130 0.21110 0.36180
C8 C 0.66980 0.14950 0.50600
C9 C 0.76750 0.22320 0.53370
C10 C 0.68230 0.27920 0.57140
C11 C 0.59440 0.14090 0.39520
C12 C 0.44640 0.07510 0.37740
C13 C 0.78670 0.12700 0.35100
C14 C 0.48230 0.47090 0.29850
C15 C 0.48190 0.27380 0.60680
N1 N 0.72660 0.39030 0.22950
N2 N 0.95200 0.42570 0.40630
O1 O 0.94770 0.48840 0.37990
O2 O 1.10880 0.39500 0.43930
O3 O 0.66920 0.41580 0.15670
H1 H 0.75430 0.38200 0.64090
H2 H 0.94190 0.35100 0.57560
H3 H 0.70200 0.45910 0.50660
H4 H 0.50250 0.39210 0.47810
H5 H 0.76740 0.32380 0.39780
H6 H 0.34970 0.33820 0.21180
H7 H 0.32240 0.33970 0.33210
H8 H 0.63950 0.24320 0.25600
H9 H 0.34640 0.22410 0.39260
H10 H 0.78450 0.10710 0.53090
H11 H 0.53580 0.14260 0.53980
H12 H 0.92500 0.23140 0.52150
H13 H 0.53210 0.02550 0.40220
H14 H 0.38250 0.07040 0.30200
H15 H 0.31970 0.08250 0.41560
H16 H 0.89060 0.17400 0.36380
H17 H 0.73700 0.11880 0.27500
H18 H 0.86850 0.07850 0.38260
H19 H 0.39010 0.47420 0.35360
H20 H 0.37990 0.47570 0.22940
H21 H 0.59590 0.51520 0.30760
H22 H 0.48940 0.29790 0.66210
H23 H 0.45280 0.22460 0.60600
H24 H 0.37860 0.30950 0.57390
#END
