
#######################################################################
#
#                 Cambridge Crystallographic Data Centre
#                                CCDC
#
#######################################################################
#
# If this CIF has been generated from an entry in the Cambridge
# Structural Database, then it will include bibliographic, chemical,
# crystal, experimental, refinement or atomic coordinate data resulting
# from the CCDC's data processing and validation procedures.
#
#######################################################################

data_CSD_CIF_BIZHAT
_audit_creation_date 1983-06-14
_audit_creation_method CSD-ConQuest-V1
_database_code_CSD BIZHAT
_chemical_formula_sum 'C15 H24 N2 O4'
_chemical_formula_moiety
;
C15 H24 N2 O4
;
_journal_coden_Cambridge 207
_journal_year 1982
_journal_page_first 1385
_journal_name_full 'J.Chem.Soc.,Perkin Trans.1 '
loop_
_publ_author_name
"D.K.MacAlpine"
"A.L.Porte"
"G.A.Sim"
_chemical_name_systematic
;
Dinitrohumulene
;
_cell_volume   1630.902
_exptl_crystal_density_diffrn 1.207
_exptl_special_details
;
z(C7)=.3598, not .3958

;
_diffrn_ambient_temperature ?
_diffrn_special_details
;
The study was carried out at room temperature,in the range 283-303K

;
#These two values have been output from a single CSD field.
_refine_ls_R_factor_gt 0.042
_refine_ls_wR_factor_gt 0.042
_symmetry_cell_setting monoclinic
_symmetry_space_group_name_H-M 'P 21/n'
_symmetry_Int_Tables_number 14
loop_
_symmetry_equiv_pos_site_id
_symmetry_equiv_pos_as_xyz
1 x,y,z
2 1/2-x,1/2+y,1/2-z
3 -x,-y,-z
4 -1/2+x,-1/2-y,-1/2+z
_cell_length_a 6.422(2)
_cell_length_b 18.177(2)
_cell_length_c 14.218(2)
_cell_angle_alpha 90
_cell_angle_beta 100.69(2)
_cell_angle_gamma 90
_cell_formula_units_Z 4
loop_
_atom_type_symbol
_atom_type_radius_bond
C 0.68
H 0.23
N 0.68
O 0.68
loop_
_atom_site_label
_atom_site_type_symbol
_atom_site_fract_x
_atom_site_fract_y
_atom_site_fract_z
C1 C 0.77320 0.35500 0.57530
C2 C 0.66780 0.40160 0.48890
C3 C 0.75500 0.38500 0.39870
C4 C 0.59940 0.39900 0.30440
C5 C 0.44000 0.33400 0.28380
C6 C 0.53720 0.25950 0.29900
C7 C 0.48870 0.21070 0.35980
C8 C 0.67010 0.14960 0.50560
C9 C 0.76790 0.22300 0.53370
C10 C 0.67770 0.27920 0.56970
C11 C 0.60040 0.14090 0.39490
C12 C 0.45130 0.07430 0.37410
C13 C 0.79380 0.12750 0.34910
C14 C 0.47970 0.47140 0.29730
C15 C 0.46760 0.27540 0.60070
N1 N 0.72560 0.39560 0.22220
N2 N 0.95490 0.43050 0.40560
O1 O 0.94590 0.49270 0.37520
O2 O 1.11900 0.40150 0.44670
O3 O 0.89980 0.36630 0.23730
O4 O 0.64360 0.42040 0.14520
H1 H 0.74900 0.37900 0.63800
H2 H 0.93440 0.35140 0.57710
H3 H 0.68250 0.45270 0.50070
H4 H 0.52260 0.39050 0.47510
H5 H 0.80230 0.33460 0.39840
H6 H 0.34160 0.34030 0.32920
H7 H 0.37070 0.34240 0.21880
H8 H 0.65530 0.24790 0.26510
H9 H 0.37060 0.22300 0.39350
H10 H 0.76600 0.10970 0.52670
H11 H 0.54640 0.13950 0.53750
H12 H 0.90790 0.23280 0.51750
H13 H 0.41480 0.06780 0.29950
H14 H 0.52140 0.03080 0.40550
H15 H 0.32280 0.08440 0.40120
H16 H 0.86830 0.08290 0.37800
H17 H 0.90410 0.16950 0.36060
H18 H 0.75900 0.12300 0.27640
H19 H 0.57610 0.51450 0.30590
H20 H 0.38460 0.47130 0.34710
H21 H 0.38540 0.47370 0.23710
H22 H 0.41000 0.22940 0.59590
H23 H 0.38020 0.31370 0.57000
H24 H 0.47410 0.29040 0.66040
#END
