
#######################################################################
#
#                 Cambridge Crystallographic Data Centre
#                                CCDC
#
#######################################################################
#
# If this CIF has been generated from an entry in the Cambridge
# Structural Database, then it will include bibliographic, chemical,
# crystal, experimental, refinement or atomic coordinate data resulting
# from the CCDC's data processing and validation procedures.
#
#######################################################################

data_CSD_CIF_BIZLEC
_audit_creation_date 2008-07-22
_audit_creation_method CSD-ConQuest-V1
_database_code_CSD BIZLEC
_database_code_depnum_ccdc_archive 'CCDC 690184'
_chemical_formula_sum 'C22 H39 N3 O2'
_chemical_formula_moiety
;
C22 H39 N3 O2
;
_journal_coeditor_code "IUCr SK3210"
_journal_coden_Cambridge 591
_journal_volume 64
_journal_year 2008
_journal_page_first o248
_journal_name_full 'Acta Crystallogr.,Sect.C:Cryst.Struct.Commun. '
loop_
_publ_author_name
"C.P.Walczak"
"M.M.Yonkey"
"P.J.Squattrito"
"D.K.Mohanty"
"K.Kirschbaum"
_chemical_name_systematic
;
1,3-bis(n-octylamino)-2-nitrobenzene
;
_chemical_melting_point 343
_cell_volume   2121.005
_exptl_crystal_colour 'red'
_exptl_crystal_density_diffrn 1.182
_exptl_special_details
;
Melting point range 343-345K

;
_exptl_crystal_description 'plate'
_diffrn_ambient_temperature 140.0
#These two values have been output from a single CSD field.
_refine_ls_R_factor_gt 0.0538
_refine_ls_wR_factor_gt 0.0538
_symmetry_cell_setting monoclinic
_symmetry_space_group_name_H-M 'C 2/c'
_symmetry_Int_Tables_number 15
loop_
_symmetry_equiv_pos_site_id
_symmetry_equiv_pos_as_xyz
1 x,y,z
2 1/2+x,1/2+y,z
3 -x,y,1/2-z
4 1/2-x,1/2+y,1/2-z
5 -x,-y,-z
6 -1/2-x,-1/2-y,-z
7 x,-y,-1/2+z
8 -1/2+x,-1/2-y,-1/2+z
_cell_length_a 21.5603(16)
_cell_length_b 9.1066(7)
_cell_length_c 12.6778(10)
_cell_angle_alpha 90
_cell_angle_beta 121.560(2)
_cell_angle_gamma 90
_cell_formula_units_Z 4
loop_
_atom_type_symbol
_atom_type_radius_bond
C 0.68
H 0.23
N 0.68
O 0.68
loop_
_atom_site_label
_atom_site_type_symbol
_atom_site_fract_x
_atom_site_fract_y
_atom_site_fract_z
O1 O 0.03356(5) 0.24375(10) 0.34884(7)
N1 N 0.00000 0.31326(15) 0.25000
N2 N 0.07516(5) 0.48067(12) 0.47798(8)
H1 H 0.0744(9) 0.388(2) 0.4771(15)
C1 C 0.00000 0.46890(17) 0.25000
C2 C 0.03837(6) 0.54746(13) 0.36629(10)
C3 C 0.03701(6) 0.70176(13) 0.36179(10)
C4 C 0.00000 0.77460(18) 0.25000
C5 C 0.11256(7) 0.56209(13) 0.59375(10)
C6 C 0.15100(7) 0.45987(13) 0.70473(10)
C7 C 0.19201(7) 0.54834(13) 0.82471(10)
C8 C 0.23421(7) 0.45336(13) 0.94019(10)
C9 C 0.27633(7) 0.54404(13) 1.05862(10)
C10 C 0.31773(7) 0.44949(13) 1.1750(1)
C11 C 0.36251(8) 0.53845(14) 1.29341(11)
C12 C 0.39927(8) 0.44240(15) 1.40876(11)
H2 H 0.0606(9) 0.7560(17) 0.4368(15)
H3 H 0.00000 0.878(2) 0.25000
H4 H 0.1500(7) 0.6286(15) 0.5940(11)
H5 H 0.0762(7) 0.6235(15) 0.6010(12)
H6 H 0.1867(7) 0.3979(15) 0.6959(12)
H7 H 0.1143(8) 0.3944(16) 0.7064(13)
H8 H 0.2281(8) 0.6181(16) 0.8201(12)
H9 H 0.1563(8) 0.6107(15) 0.8325(12)
H10 H 0.1997(8) 0.3874(17) 0.9455(13)
H11 H 0.2701(8) 0.3910(16) 0.9317(13)
H12 H 0.2414(8) 0.6069(16) 1.0651(13)
H13 H 0.3133(8) 0.6065(16) 1.0526(13)
H14 H 0.2827(8) 0.3886(17) 1.1826(13)
H15 H 0.3510(8) 0.3825(16) 1.1654(13)
H16 H 0.3313(8) 0.6086(19) 1.3004(14)
H17 H 0.4004(8) 0.5952(17) 1.2868(13)
H18 H 0.3631(9) 0.3891(19) 1.4164(14)
H19 H 0.4281(9) 0.4950(18) 1.4860(16)
H20 H 0.4332(8) 0.3747(18) 1.4050(14)
O1B O -0.03356(5) 0.24375(10) 0.15116(7)
N2B N -0.07516(5) 0.48067(12) 0.02202(8)
H1B H -0.0744(9) 0.388(2) 0.0229(15)
C2B C -0.03837(6) 0.54746(13) 0.13371(10)
C3B C -0.03701(6) 0.70176(13) 0.13821(10)
C5B C -0.11256(7) 0.56209(13) -0.09375(10)
C6B C -0.15100(7) 0.45987(13) -0.20473(10)
C7B C -0.19201(7) 0.54834(13) -0.32471(10)
C8B C -0.23421(7) 0.45336(13) -0.44019(10)
C9B C -0.27633(7) 0.54404(13) -0.55862(10)
C10B C -0.31773(7) 0.44949(13) -0.6750(1)
C11B C -0.36251(8) 0.53845(14) -0.79341(11)
C12B C -0.39927(8) 0.44240(15) -0.90876(11)
H2B H -0.0606(9) 0.7560(17) 0.0632(15)
H4B H -0.1500(7) 0.6286(15) -0.0940(11)
H5B H -0.0762(7) 0.6235(15) -0.1010(12)
H6B H -0.1867(7) 0.3979(15) -0.1959(12)
H7B H -0.1143(8) 0.3944(16) -0.2064(13)
H8B H -0.2281(8) 0.6181(16) -0.3201(12)
H9B H -0.1563(8) 0.6107(15) -0.3325(12)
H10B H -0.1997(8) 0.3874(17) -0.4455(13)
H11B H -0.2701(8) 0.3910(16) -0.4317(13)
H12B H -0.2414(8) 0.6069(16) -0.5651(13)
H13B H -0.3133(8) 0.6065(16) -0.5526(13)
H14B H -0.2827(8) 0.3886(17) -0.6826(13)
H15B H -0.3510(8) 0.3825(16) -0.6654(13)
H16B H -0.3313(8) 0.6086(19) -0.8004(14)
H17B H -0.4004(8) 0.5952(17) -0.7868(13)
H18B H -0.3631(9) 0.3891(19) -0.9164(14)
H19B H -0.4281(9) 0.4950(18) -0.9860(16)
H20B H -0.4332(8) 0.3747(18) -0.9050(14)
#END
