
#######################################################################
#
#                 Cambridge Crystallographic Data Centre
#                                CCDC
#
#######################################################################
#
# If this CIF has been generated from an entry in the Cambridge
# Structural Database, then it will include bibliographic, chemical,
# crystal, experimental, refinement or atomic coordinate data resulting
# from the CCDC's data processing and validation procedures.
#
#######################################################################

data_CSD_CIF_BIZNOP
_audit_creation_date 2014-05-08
_audit_creation_method CSD-ConQuest-V1
_database_code_CSD BIZNOP
_database_code_depnum_ccdc_archive 'CCDC 963151'
_chemical_formula_sum 'C6 H6 N4 O2'
_chemical_formula_moiety
;
C6 H6 N4 O2
;
_journal_coden_Cambridge 1220
_journal_volume 20
_journal_year 2014
_journal_page_first 7622
_journal_name_full 'Chem.-Eur.J. '
loop_
_publ_author_name
"M.A.Kettner"
"K.Karaghiosoff"
"T.M.Klapotke"
"M.Su ceska"
"S.Wunder"
_chemical_name_systematic
;
5,5'-Dimethyl-3,3'-bi-1,2,4-oxadiazole
;
_cell_volume    179.597
_exptl_crystal_colour 'colorless'
_exptl_crystal_density_diffrn 1.536
_exptl_crystal_description 'block'
_diffrn_ambient_temperature 100
#These two values have been output from a single CSD field.
_refine_ls_R_factor_gt 0.0351
_refine_ls_wR_factor_gt 0.0351
_symmetry_cell_setting triclinic
_symmetry_space_group_name_H-M 'P -1'
_symmetry_Int_Tables_number 2
loop_
_symmetry_equiv_pos_site_id
_symmetry_equiv_pos_as_xyz
1 x,y,z
2 -x,-y,-z
_cell_length_a 4.7223(8)
_cell_length_b 5.8901(8)
_cell_length_c 6.9990(15)
_cell_angle_alpha 73.771(15)
_cell_angle_beta 85.568(16)
_cell_angle_gamma 73.911(14)
_cell_formula_units_Z 1
loop_
_atom_type_symbol
_atom_type_radius_bond
C 0.68
H 0.23
N 0.68
O 0.68
loop_
_atom_site_label
_atom_site_type_symbol
_atom_site_fract_x
_atom_site_fract_y
_atom_site_fract_z
O1 O 0.3246(2) 0.82720(18) 0.52739(14)
N1 N 0.2103(3) 0.7194(2) 0.40420(18)
N2 N 0.0899(3) 0.5759(2) 0.72861(17)
C1 C 0.2436(3) 0.7314(3) 0.7158(2)
C2 C 0.3397(4) 0.8143(3) 0.8763(2)
C3 C 0.0763(3) 0.5760(3) 0.5322(2)
H1 H 0.239(3) 0.752(3) 1.005(2)
H2 H 0.280(4) 1.004(4) 0.836(3)
H3 H 0.560(4) 0.747(3) 0.892(2)
O1A O -0.3246(2) 0.17280(18) 0.47261(14)
N1A N -0.2103(3) 0.2806(2) 0.59580(18)
N2A N -0.0899(3) 0.4241(2) 0.27139(17)
C1A C -0.2436(3) 0.2686(3) 0.2842(2)
C2A C -0.3397(4) 0.1857(3) 0.1237(2)
C3A C -0.0763(3) 0.4240(3) 0.4678(2)
H1A H -0.239(3) 0.248(3) -0.005(2)
H2A H -0.280(4) -0.004(4) 0.164(3)
H3A H -0.560(4) 0.253(3) 0.108(2)
#END
