
#######################################################################
#
#                 Cambridge Crystallographic Data Centre
#                                CCDC
#
#######################################################################
#
# If this CIF has been generated from an entry in the Cambridge
# Structural Database, then it will include bibliographic, chemical,
# crystal, experimental, refinement or atomic coordinate data resulting
# from the CCDC's data processing and validation procedures.
#
#######################################################################

data_CSD_CIF_BNPQOX
_audit_creation_date 1977-06-01
_audit_creation_method CSD-ConQuest-V1
_database_code_CSD BNPQOX
_chemical_formula_sum 'C14 H15 N1 O2'
_chemical_formula_moiety
;
C14 H15 N1 O2
;
_journal_coden_Cambridge 195
_journal_volume 6
_journal_year 1976
_journal_page_first 217
_journal_name_full 'J.Cryst.Mol.Struct. '
loop_
_publ_author_name
"J.C.A.Boeyens"
_chemical_name_systematic
;
6-t-Butyl-1,2-naphthoquinone-1-oxime
;
_chemical_melting_point 410.15
_cell_volume    609.579
_exptl_crystal_density_diffrn 1.25
_exptl_special_details
;
Melting point range 410.15-411.15K
z(C7) is -0.7627, not -0.7607 and z(C10) is -0.5824, not -0.5854
;
_diffrn_ambient_temperature ?
_diffrn_special_details
;
The study was carried out at room temperature,in the range 283-303K

;
#These two values have been output from a single CSD field.
_refine_ls_R_factor_gt 0.12
_refine_ls_wR_factor_gt 0.12
_symmetry_cell_setting monoclinic
_symmetry_space_group_name_H-M 'P 21/m'
_symmetry_Int_Tables_number 11
loop_
_symmetry_equiv_pos_site_id
_symmetry_equiv_pos_as_xyz
1 x,y,z
2 -x,1/2+y,-z
3 -x,-y,-z
4 x,-1/2-y,z
_cell_length_a 8.32(1)
_cell_length_b 6.70(1)
_cell_length_c 11.14(1)
_cell_angle_alpha 90
_cell_angle_beta 101(1)
_cell_angle_gamma 90
_cell_formula_units_Z 2
loop_
_atom_type_symbol
_atom_type_radius_bond
C 0.68
H 0.23
N 0.68
O 0.68
loop_
_atom_site_label
_atom_site_type_symbol
_atom_site_fract_x
_atom_site_fract_y
_atom_site_fract_z
C1 C 0.39170 0.25000 -0.48600
C2 C 0.47670 0.25000 -0.35460
C3 C 0.65370 0.25000 -0.32940
H1 H 0.71660 0.25000 -0.23510
C4 C 0.73970 0.25000 -0.41940
H2 H 0.87180 0.25000 -0.39600
C5 C 0.66240 0.25000 -0.54920
C6 C 0.76190 0.25000 -0.63830
H3 H 0.89370 0.25000 -0.61170
C7 C 0.68810 0.25000 -0.76270
C8 C 0.52280 0.25000 -0.79500
H4 H 0.46780 0.25000 -0.89110
C9 C 0.42310 0.25000 -0.70860
H5 H 0.29160 0.25000 -0.73780
C10 C 0.49130 0.25000 -0.58240
C11 C 0.80540 0.25000 -0.85740
C12 C 0.92810 0.43090 -0.82660
C13 C 0.71710 0.25000 -0.97510
N1 N 0.23320 0.25000 -0.52470
O1 O 0.39350 0.25000 -0.27410
O2 O 0.14510 0.25000 -0.43370
C12C C 0.92810 0.06910 -0.82660
#END
