
#######################################################################
#
#                 Cambridge Crystallographic Data Centre
#                                CCDC
#
#######################################################################
#
# If this CIF has been generated from an entry in the Cambridge
# Structural Database, then it will include bibliographic, chemical,
# crystal, experimental, refinement or atomic coordinate data resulting
# from the CCDC's data processing and validation procedures.
#
#######################################################################

data_CSD_CIF_BOBLEK
_audit_creation_date 2008-11-25
_audit_creation_method CSD-ConQuest-V1
_database_code_CSD BOBLEK
_database_code_depnum_ccdc_archive 'CCDC 680572'
_chemical_formula_sum 'C30 H39 N1 O8'
_chemical_formula_moiety
;
C30 H39 N1 O8
;
_journal_coden_Cambridge 1336
_journal_volume 10
_journal_year 2008
_journal_page_first 1787
_journal_name_full 'Org.Lett. '
loop_
_publ_author_name
"A.Corbu"
"M.Aquino"
"T.V.Pratap"
"P.Retailleau"
"S.Arseniyadis"
_chemical_name_systematic
;
(2-(2-(Benzyloxy)ethyl)-6-hydroxy-3-(methoxymethoxy)-2,3-dimethyl-6-(prop-1-en
-2-yl)cyclohexyl)methyl 4-nitrobenzoate
;
_chemical_melting_point 377.15
_cell_volume   2923.055
_exptl_crystal_colour 'colorless'
_exptl_crystal_density_diffrn 1.231
_exptl_special_details
;
Melting point range 377.15-379.15K

;
_exptl_crystal_description 'stick'
_exptl_crystal_preparation 'hexane/chloroform'
_diffrn_ambient_temperature 293
#These two values have been output from a single CSD field.
_refine_ls_R_factor_gt 0.0406
_refine_ls_wR_factor_gt 0.0406
_symmetry_cell_setting orthorhombic
_symmetry_space_group_name_H-M 'P 21 21 21'
_symmetry_Int_Tables_number 19
loop_
_symmetry_equiv_pos_site_id
_symmetry_equiv_pos_as_xyz
1 x,y,z
2 1/2-x,-y,1/2+z
3 1/2+x,1/2-y,-z
4 -x,1/2+y,1/2-z
_cell_length_a 7.302(2)
_cell_length_b 11.179(3)
_cell_length_c 35.809(6)
_cell_angle_alpha 90
_cell_angle_beta 90
_cell_angle_gamma 90
_cell_formula_units_Z 4
loop_
_atom_type_symbol
_atom_type_radius_bond
C 0.68
H 0.23
N 0.68
O 0.68
loop_
_atom_site_label
_atom_site_type_symbol
_atom_site_fract_x
_atom_site_fract_y
_atom_site_fract_z
O1 O 0.4352(5) 0.7652(3) 0.72198(8)
H1 H 0.41670 0.78470 0.74370
O2 O 0.3699(4) 0.8110(2) 0.60708(7)
O3 O 0.5292(6) 0.9813(3) 0.60178(9)
O4 O 0.2880(6) 0.7613(4) 0.41848(9)
O5 O 0.4307(6) 0.9274(4) 0.41118(10)
O6 O 0.4153(5) 0.3743(3) 0.67983(10)
O7 O 0.4964(7) 0.1950(3) 0.7038(1)
O8 O 0.5064(5) 0.4461(3) 0.56263(9)
N1 N 0.3654(6) 0.8495(4) 0.43063(11)
C1 C 0.1817(10) 0.9425(6) 0.72466(19)
H2 H 0.10220 1.00750 0.72540
H3 H 0.29160 0.94500 0.73780
C2 C 0.1382(8) 0.8462(5) 0.70492(14)
C3 C 0.4118(6) 0.8891(3) 0.54711(11)
C4 C 0.4437(7) 0.9012(4) 0.58781(12)
C5 C 0.4172(7) 0.8037(4) 0.64644(10)
H4 H 0.38340 0.87740 0.65900
H5 H 0.54820 0.79230 0.64920
C6 C 0.3153(6) 0.6993(4) 0.66367(11)
H6 H 0.19890 0.69350 0.65020
C7 C 0.2653(7) 0.7367(5) 0.70450(12)
C8 C 0.1720(8) 0.6347(5) 0.72484(14)
H7 H 0.15890 0.65580 0.75100
H8 H 0.05030 0.62370 0.71460
C9 C 0.2754(8) 0.5192(5) 0.72195(13)
H9 H 0.21020 0.45770 0.73570
H10 H 0.39500 0.52880 0.73340
C10 C 0.2997(7) 0.4785(5) 0.68125(13)
C11 C 0.4111(6) 0.5754(4) 0.65892(11)
C12 C 0.4133(7) 0.5486(4) 0.61646(11)
H11 H 0.28720 0.54740 0.60800
H12 H 0.47260 0.61550 0.60420
C13 C 0.5048(7) 0.4343(4) 0.60246(13)
H13 H 0.62850 0.42760 0.61210
H14 H 0.43560 0.36430 0.61000
C14 C 0.5928(7) 0.3499(4) 0.54472(13)
H15 H 0.53800 0.27530 0.55280
H16 H 0.72160 0.34840 0.55140
C15 C 0.5733(6) 0.3624(4) 0.50317(13)
C16 C 0.6405(7) 0.2736(4) 0.48008(17)
H17 H 0.70030 0.20830 0.49060
C17 C 0.6210(9) 0.2795(6) 0.4420(2)
H18 H 0.66680 0.21830 0.42710
C18 C 0.5336(9) 0.3761(6) 0.42571(16)
H19 H 0.51970 0.38030 0.39990
C19 C 0.4679(8) 0.4653(5) 0.44821(17)
H20 H 0.40950 0.53080 0.43750
C20 C 0.4871(7) 0.4596(4) 0.48671(15)
H21 H 0.44180 0.52110 0.50160
C21 C 0.4795(7) 0.9766(4) 0.52361(13)
H22 H 0.53490 1.04440 0.53360
C22 C 0.4652(7) 0.9638(4) 0.48554(12)
H23 H 0.51330 1.02150 0.46960
C23 C 0.3793(6) 0.8652(4) 0.47147(11)
C24 C 0.3085(6) 0.7773(4) 0.49382(12)
H24 H 0.24980 0.71120 0.48360
C25 C -0.0352(9) 0.8381(6) 0.68364(18)
H25 H -0.10860 0.90760 0.68860
H26 H -0.10090 0.76770 0.69110
H27 H -0.00860 0.83380 0.65740
C26 C 0.6135(6) 0.5766(5) 0.67281(13)
H28 H 0.65960 0.49620 0.67350
H29 H 0.61870 0.61070 0.69740
H30 H 0.68670 0.62360 0.65610
C27 C 0.1143(7) 0.4501(5) 0.66370(13)
H31 H 0.13250 0.40690 0.64080
H32 H 0.05030 0.52330 0.65860
H33 H 0.04350 0.40230 0.68070
C28 C 0.3271(6) 0.7899(4) 0.53202(12)
H34 H 0.28190 0.73070 0.54780
C29 C 0.3477(10) 0.2639(5) 0.69327(18)
H35 H 0.26760 0.27710 0.71450
H36 H 0.27850 0.22350 0.67390
C30 C 0.6041(15) 0.1552(6) 0.67425(19)
H37 H 0.52670 0.13150 0.65390
H38 H 0.67620 0.08810 0.68220
H39 H 0.68380 0.21850 0.66620
#END
