
#######################################################################
#
#                 Cambridge Crystallographic Data Centre
#                                CCDC
#
#######################################################################
#
# If this CIF has been generated from an entry in the Cambridge
# Structural Database, then it will include bibliographic, chemical,
# crystal, experimental, refinement or atomic coordinate data resulting
# from the CCDC's data processing and validation procedures.
#
#######################################################################

data_CSD_CIF_BOBMUB
_audit_creation_date 2008-11-25
_audit_creation_method CSD-ConQuest-V1
_database_code_CSD BOBMUB
_database_code_depnum_ccdc_archive 'CCDC 693749'
_chemical_formula_sum 'C21 H20 N2 O4'
_chemical_formula_moiety
;
C21 H20 N2 O4
;
_journal_coden_Cambridge 1336
_journal_volume 10
_journal_year 2008
_journal_page_first 2043
_journal_name_full 'Org.Lett. '
loop_
_publ_author_name
"T.Ueda"
"M.Inada"
"I.Okamoto"
"N.Morita"
"O.Tamura"
_chemical_name_systematic
;
(3S,3'R,3a'S,7'S)-1,3'-Dimethyl-7'-phenyl-6',7'-dihydro-3'H-spiro(indole-3,2'-
isoxazolo(3,2-c)(1,4)oxazine)-2,4'(1H,3a'H)-dione
;
_chemical_melting_point 415.65
_cell_volume   1756.724
_exptl_crystal_colour 'colorless'
_exptl_crystal_density_diffrn 1.378
_exptl_special_details
;
Melting point range 415.65-416.65K

;
_exptl_crystal_description 'prismatic'
_exptl_crystal_preparation 'hexane/ethyl acetate'
_diffrn_ambient_temperature 90
#These two values have been output from a single CSD field.
_refine_ls_R_factor_gt 0.0295
_refine_ls_wR_factor_gt 0.0295
_symmetry_cell_setting orthorhombic
_symmetry_space_group_name_H-M 'P 21 21 21'
_symmetry_Int_Tables_number 19
loop_
_symmetry_equiv_pos_site_id
_symmetry_equiv_pos_as_xyz
1 x,y,z
2 1/2-x,-y,1/2+z
3 -x,1/2+y,1/2-z
4 1/2+x,1/2-y,-z
_cell_length_a 7.6455(13)
_cell_length_b 10.2121(17)
_cell_length_c 22.500(4)
_cell_angle_alpha 90
_cell_angle_beta 90
_cell_angle_gamma 90
_cell_formula_units_Z 4
loop_
_atom_type_symbol
_atom_type_radius_bond
C 0.68
H 0.23
N 0.68
O 0.68
loop_
_atom_site_label
_atom_site_type_symbol
_atom_site_fract_x
_atom_site_fract_y
_atom_site_fract_z
O1 O 0.84079(12) 0.23637(9) 0.09169(4)
O2 O 0.51332(11) 0.56719(8) 0.17910(4)
O3 O 0.62447(12) 0.31475(9) 0.03882(4)
O4 O 0.21477(11) 0.39194(9) 0.21222(4)
N1 N 0.33383(13) 0.43059(11) 0.30452(4)
N2 N 0.56417(12) 0.51724(10) 0.12134(4)
C1 C 0.75566(16) 0.58250(12) 0.29025(6)
H1 H 0.83430 0.60090 0.25860
C2 C 0.60165(15) 0.51596(11) 0.27976(5)
C3 C 0.48872(16) 0.41344(12) 0.03145(5)
H2 H 0.39350 0.37680 0.00670
H3 H 0.53830 0.48970 0.01010
C4 C 0.33553(15) 0.42437(11) 0.24383(5)
C5 C 0.61561(15) 0.34636(11) 0.19314(5)
H4 H 0.52520 0.28130 0.18050
C6 C 0.26866(15) 0.55628(12) 0.07758(5)
C7 C 0.41311(15) 0.45909(12) 0.09034(5)
H5 H 0.36640 0.38290 0.11330
C8 C 0.11308(16) 0.50666(13) 0.05366(5)
H6 H 0.09950 0.41490 0.04860
C9 C -0.00317(16) 0.72459(13) 0.04553(5)
H7 H -0.09460 0.78220 0.03400
C10 C 0.52054(18) 0.52830(12) 0.38422(5)
H8 H 0.44140 0.50970 0.41560
C11 C 0.14900(17) 0.77396(12) 0.07058(5)
H9 H 0.16020 0.86550 0.07710
C12 C 0.72520(16) 0.31597(12) 0.08758(5)
C13 C 0.48623(16) 0.49082(12) 0.32642(5)
C14 C 0.75263(16) 0.27614(12) 0.23061(5)
H10 H 0.79400 0.19830 0.20930
H11 H 0.70070 0.24970 0.26860
H12 H 0.85130 0.33520 0.23800
C15 C 0.79384(17) 0.62231(12) 0.34836(6)
H13 H 0.89940 0.66800 0.35640
C16 C 0.67803(18) 0.59526(13) 0.39426(6)
H14 H 0.70610 0.62280 0.43340
C17 C 0.28546(16) 0.69040(12) 0.08618(5)
H15 H 0.39000 0.72510 0.10270
C18 C -0.02110(16) 0.59046(13) 0.03735(5)
H16 H -0.12550 0.55610 0.02060
C19 C 0.52203(15) 0.46414(11) 0.22332(5)
C20 C 0.69021(15) 0.41433(12) 0.13698(5)
H17 H 0.80350 0.45710 0.14790
C21 C 0.18691(18) 0.39082(15) 0.34111(6)
H18 H 0.09190 0.35940 0.31560
H19 H 0.14600 0.46570 0.36450
H20 H 0.22360 0.32040 0.36790
#END
