
#######################################################################
#
#                 Cambridge Crystallographic Data Centre
#                                CCDC
#
#######################################################################
#
# If this CIF has been generated from an entry in the Cambridge
# Structural Database, then it will include bibliographic, chemical,
# crystal, experimental, refinement or atomic coordinate data resulting
# from the CCDC's data processing and validation procedures.
#
#######################################################################

data_CSD_CIF_BOCBIE
_audit_creation_date 1983-06-14
_audit_creation_method CSD-ConQuest-V1
_database_code_CSD BOCBIE
_database_code_depnum_ccdc_archive 'CCDC 1112841'
_chemical_formula_sum 'C11 H15 N1 O1'
_chemical_formula_moiety
;
C11 H15 N1 O1
;
_journal_coden_Cambridge 182
_journal_year 1982
_journal_page_first 1375
_journal_name_full 'Chem.Commun. '
loop_
_publ_author_name
"J.Zizuashvili"
"S.Abramson"
"U.Shmueli"
"B.Fuchs"
_chemical_name_systematic
;
trans-Tricyclo(5.4.0.0^7,11^)undec-9-en-2-one oxime
;
_cell_volume    956.130
_diffrn_ambient_temperature ?
_diffrn_special_details
;
The study was carried out at room temperature,in the range 283-303K

;
#These two values have been output from a single CSD field.
_refine_ls_R_factor_gt 0.036
_refine_ls_wR_factor_gt 0.036
_symmetry_cell_setting monoclinic
_symmetry_space_group_name_H-M 'P 21/n'
_symmetry_Int_Tables_number 14
loop_
_symmetry_equiv_pos_site_id
_symmetry_equiv_pos_as_xyz
1 x,y,z
2 1/2-x,1/2+y,1/2-z
3 -x,-y,-z
4 -1/2+x,-1/2-y,-1/2+z
_cell_length_a 6.902(3)
_cell_length_b 13.182(2)
_cell_length_c 10.722(2)
_cell_angle_alpha 90
_cell_angle_beta 101.44(2)
_cell_angle_gamma 90
_cell_formula_units_Z 4
loop_
_atom_type_symbol
_atom_type_radius_bond
C 0.68
H 0.23
N 0.68
O 0.68
loop_
_atom_site_label
_atom_site_type_symbol
_atom_site_fract_x
_atom_site_fract_y
_atom_site_fract_z
C1 C 0.84214 0.19145 0.24708
C2 C 0.85515 0.17750 0.38435
C3 C 0.82296 0.27449 0.45200
C4 C 0.76276 0.36906 0.36919
C5 C 0.91019 0.41695 0.29619
C6 C 0.94387 0.36161 0.17600
C7 C 1.00661 0.25496 0.21390
C8 C 1.20971 0.24144 0.29934
C9 C 1.26667 0.13419 0.28055
C10 C 1.12997 0.08558 0.20007
C11 C 0.95766 0.15096 0.15266
N1 N 0.90226 0.09235 0.43729
O1 O 0.91784 0.09775 0.57105
H1 H 0.71511 0.21536 0.20575
H2 H 0.95236 0.28966 0.51265
H3 H 0.72550 0.26300 0.50192
H4 H 0.73279 0.42182 0.42926
H5 H 0.64201 0.35442 0.30650
H6 H 0.86588 0.48333 0.27155
H7 H 1.03611 0.42386 0.35566
H8 H 0.81182 0.36111 0.10846
H9 H 1.04930 0.39610 0.14092
H10 H 1.30346 0.28913 0.27171
H11 H 1.21143 0.25359 0.39185
H12 H 1.38995 0.10335 0.32693
H13 H 1.13814 0.01404 0.17461
H14 H 0.87976 0.14187 0.06489
H15 H 0.96835 0.03381 0.59621
#END
