
#######################################################################
#
#                 Cambridge Crystallographic Data Centre
#                                CCDC
#
#######################################################################
#
# If this CIF has been generated from an entry in the Cambridge
# Structural Database, then it will include bibliographic, chemical,
# crystal, experimental, refinement or atomic coordinate data resulting
# from the CCDC's data processing and validation procedures.
#
#######################################################################

data_CSD_CIF_BOCPIS
_audit_creation_date 1983-06-14
_audit_creation_method CSD-ConQuest-V1
_database_code_CSD BOCPIS
_chemical_formula_sum 'C11 H14 N2 O5'
_chemical_formula_moiety
;
C11 H14 N2 O5
;
_journal_coeditor_code "IUCr A21683"
_journal_coden_Cambridge 107
_journal_volume 38
_journal_year 1982
_journal_page_first 3119
_journal_name_full 'Acta Crystallogr.,Sect.B:Struct.Crystallogr.Cryst.Chem. '
loop_
_publ_author_name
"W.van Havere"
"A.T.H.Lenstra"
"H.J.Geise"
_chemical_name_systematic
;
4-t-Butyl-3,5-dinitroanisole
;
_cell_volume    621.324
_exptl_crystal_density_diffrn 1.359
_diffrn_ambient_temperature ?
_diffrn_special_details
;
The study was carried out at room temperature,in the range 283-303K

;
#These two values have been output from a single CSD field.
_refine_ls_R_factor_gt 0.029
_refine_ls_wR_factor_gt 0.029
_symmetry_cell_setting triclinic
_symmetry_space_group_name_H-M 'P -1'
_symmetry_Int_Tables_number 2
loop_
_symmetry_equiv_pos_site_id
_symmetry_equiv_pos_as_xyz
1 x,y,z
2 -x,-y,-z
_cell_length_a 8.887(3)
_cell_length_b 10.148(3)
_cell_length_c 8.024(4)
_cell_angle_alpha 110.49(4)
_cell_angle_beta 112.15(5)
_cell_angle_gamma 89.58(3)
_cell_formula_units_Z 2
loop_
_atom_type_symbol
_atom_type_radius_bond
C 0.68
H 0.23
N 0.68
O 0.68
loop_
_atom_site_label
_atom_site_type_symbol
_atom_site_fract_x
_atom_site_fract_y
_atom_site_fract_z
O1 O 0.33689 1.00030 0.32280
O2 O 0.16740 0.82690 0.16200
O3 O 0.45690 0.65610 -0.49430
O4 O 0.23240 0.54930 -0.52570
O5 O 0.74650 0.64000 0.18620
N1 N 0.30030 0.88660 0.19400
N2 N 0.36240 0.62850 -0.42950
C1 C 0.61080 0.67890 0.07620
C2 C 0.52310 0.76180 0.17190
C3 C 0.38590 0.80830 0.07070
C4 C 0.32260 0.78090 -0.12890
C5 C 0.41350 0.69010 -0.21510
C6 C 0.55320 0.64090 -0.12100
C7 C 0.17990 0.85000 -0.23280
C8 C 0.19930 0.86910 -0.40600
C9 C 0.18130 1.00110 -0.09820
C10 C 0.01470 0.76080 -0.30320
C11 C 0.84570 0.56210 0.09440
H1 H 0.55700 0.78800 0.30400
H2 H 0.60000 0.58700 -0.18900
H3 H 0.31300 0.91100 -0.37000
H4 H 0.17100 0.78500 -0.51700
H5 H 0.12200 0.92800 -0.44500
H6 H 0.29200 1.05400 -0.03600
H7 H 0.10500 1.04800 -0.17500
H8 H 0.14500 1.00400 0.00400
H9 H 0.01200 0.66600 -0.39000
H10 H -0.00100 0.75100 -0.19300
H11 H -0.06900 0.80600 -0.36300
H12 H 0.87500 0.61200 0.03000
H13 H 0.78500 0.47800 -0.01200
H14 H 0.93200 0.54900 0.19800
#END
