
#######################################################################
#
#                 Cambridge Crystallographic Data Centre
#                                CCDC
#
#######################################################################
#
# If this CIF has been generated from an entry in the Cambridge
# Structural Database, then it will include bibliographic, chemical,
# crystal, experimental, refinement or atomic coordinate data resulting
# from the CCDC's data processing and validation procedures.
#
#######################################################################

data_CSD_CIF_BOCPUE
_audit_creation_date 1983-06-14
_audit_creation_method CSD-ConQuest-V1
_database_code_CSD BOCPUE
_chemical_formula_sum 'C7 H11 N3 O3'
_chemical_formula_moiety
;
C7 H11 N3 O3
;
_journal_coeditor_code "IUCr A21682"
_journal_coden_Cambridge 107
_journal_volume 38
_journal_year 1982
_journal_page_first 3116
_journal_name_full 'Acta Crystallogr.,Sect.B:Struct.Crystallogr.Cryst.Chem. '
loop_
_publ_author_name
"M.Calleri"
"G.Chiari"
"A.G.Manfredotti"
"D.Viterbo"
_chemical_name_systematic
;
Isopropyl 4-methyl-3-furazancarbamate
;
_chemical_melting_point 385
_cell_volume    970.758
_exptl_crystal_density_diffrn 1.27
_exptl_special_details
;
Melting point range 385-6K

;
_diffrn_ambient_temperature ?
_diffrn_special_details
;
The study was carried out at room temperature,in the range 283-303K

;
#These two values have been output from a single CSD field.
_refine_ls_R_factor_gt 0.048
_refine_ls_wR_factor_gt 0.048
_symmetry_cell_setting monoclinic
_symmetry_space_group_name_H-M 'P 21/c'
_symmetry_Int_Tables_number 14
loop_
_symmetry_equiv_pos_site_id
_symmetry_equiv_pos_as_xyz
1 x,y,z
2 -x,1/2+y,1/2-z
3 -x,-y,-z
4 x,-1/2-y,-1/2+z
_cell_length_a 9.14(4)
_cell_length_b 11.91(2)
_cell_length_c 8.92(3)
_cell_angle_alpha 90
_cell_angle_beta 91.3(1)
_cell_angle_gamma 90
_cell_formula_units_Z 4
loop_
_atom_type_symbol
_atom_type_radius_bond
C 0.68
H 0.23
N 0.68
O 0.68
loop_
_atom_site_label
_atom_site_type_symbol
_atom_site_fract_x
_atom_site_fract_y
_atom_site_fract_z
C1 C -0.04520 0.09390 0.66060
C2 C -0.02830 0.03030 0.80120
C3 C 0.48730 0.39550 0.66050
C4 C 0.52580 0.46650 0.79490
N1 N -0.00370 0.21270 0.47140
O1 O -0.12950 0.14890 0.44640
O2 O 0.37300 0.31760 0.70830
H1 H -0.10300 -0.00400 0.82600
H2 H -0.03100 0.07300 0.89100
H3 H 0.64300 0.27800 0.67300
H4 H 0.69300 0.38900 0.57500
H5 H 0.60600 0.52300 0.75700
C5 C 0.04730 0.17910 0.60150
C6 C 0.26820 0.29300 0.60830
C7 C 0.61190 0.33080 0.60610
N2 N -0.15170 0.07700 0.56460
N3 N 0.17260 0.21900 0.67130
O3 O 0.25690 0.33060 0.48350
H6 H 0.18900 0.20300 0.77200
H7 H 0.05100 -0.00600 0.79900
H8 H 0.44300 0.44500 0.58100
H9 H 0.57800 0.30900 0.52200
H10 H 0.55000 0.42100 0.87700
H11 H 0.42700 0.50100 0.84200
#END
