
#######################################################################
#
#                 Cambridge Crystallographic Data Centre
#                                CCDC
#
#######################################################################
#
# If this CIF has been generated from an entry in the Cambridge
# Structural Database, then it will include bibliographic, chemical,
# crystal, experimental, refinement or atomic coordinate data resulting
# from the CCDC's data processing and validation procedures.
#
#######################################################################

data_CSD_CIF_BOCROA
_audit_creation_date 1983-06-14
_audit_creation_method CSD-ConQuest-V1
_database_code_CSD BOCROA
_chemical_formula_sum 'C14 H15 N3 O4'
_chemical_formula_moiety
;
C14 H15 N3 O4
;
_journal_coden_Cambridge 188
_journal_year 1982
_journal_page_first 1297
_journal_name_full 'J.Chem.Soc.,Perkin Trans.2 '
loop_
_publ_author_name
"M.G.B.Drew"
"B.Vickery"
"G.R.Willey"
_chemical_name_systematic
;
5,5-Dimethylcyclohexane-1,2,3-trione-2-(4-nitrophenylhydrazone)
;
_chemical_melting_point 472
_cell_volume    703.769
_exptl_special_details
;
Melting point range 472-4K

;
_diffrn_ambient_temperature ?
_diffrn_special_details
;
The study was carried out at room temperature,in the range 283-303K

;
#These two values have been output from a single CSD field.
_refine_ls_R_factor_gt 0.078
_refine_ls_wR_factor_gt 0.078
_symmetry_cell_setting triclinic
_symmetry_space_group_name_H-M 'P -1'
_symmetry_Int_Tables_number 2
loop_
_symmetry_equiv_pos_site_id
_symmetry_equiv_pos_as_xyz
1 x,y,z
2 -x,-y,-z
_cell_length_a 7.20(1)
_cell_length_b 13.45(1)
_cell_length_c 7.45(1)
_cell_angle_alpha 97.97(5)
_cell_angle_beta 94.24(5)
_cell_angle_gamma 98.29(5)
_cell_formula_units_Z 2
loop_
_atom_type_symbol
_atom_type_radius_bond
C 0.68
H 0.23
N 0.68
O 0.68
loop_
_atom_site_label
_atom_site_type_symbol
_atom_site_fract_x
_atom_site_fract_y
_atom_site_fract_z
N1 N 0.31490 0.30630 -0.37780
O1 O 0.26520 0.21520 -0.38000
O2 O 0.38290 0.34280 -0.50550
C1 C 0.28770 0.37560 -0.21520
C2 C 0.22910 0.33670 -0.06370
C3 C 0.19930 0.40220 0.08670
C4 C 0.22730 0.50640 0.08300
C5 C 0.28750 0.54480 -0.06990
C6 C 0.31710 0.47890 -0.21970
N2 N 0.19420 0.57080 0.23870
N3 N 0.23570 0.66950 0.24250
C7 C 0.20760 0.73370 0.38300
C8 C 0.26340 0.84280 0.36440
C9 C 0.22410 0.92030 0.51660
C10 C 0.23990 0.88890 0.70540
C11 C 0.10480 0.78810 0.69970
C12 C 0.12730 0.70530 0.54750
O3 O 0.33520 0.86720 0.23290
C13 C 0.44130 0.87420 0.76120
C14 C 0.17950 0.97070 0.84350
O4 O 0.07580 0.61560 0.56110
H1 H 0.20930 0.26540 -0.06310
H2 H 0.15990 0.37660 0.19260
H3 H 0.30830 0.61600 -0.07100
H4 H 0.35730 0.50420 -0.32570
H5 H 0.15970 0.54580 0.33770
H6 H 0.31090 0.98090 0.51860
H7 H 0.09940 0.93340 0.49130
H8 H -0.02100 0.80160 0.68570
H9 H 0.12600 0.76380 0.81210
H10 H 0.48610 0.82630 0.67550
H11 H 0.44290 0.85140 0.87630
H12 H 0.52030 0.93810 0.77180
H13 H 0.19270 0.95430 0.96340
H14 H 0.05100 0.97460 0.81050
H15 H 0.25470 1.03430 0.83950
#END
