
#######################################################################
#
#                 Cambridge Crystallographic Data Centre
#                                CCDC
#
#######################################################################
#
# If this CIF has been generated from an entry in the Cambridge
# Structural Database, then it will include bibliographic, chemical,
# crystal, experimental, refinement or atomic coordinate data resulting
# from the CCDC's data processing and validation procedures.
#
#######################################################################

data_CSD_CIF_BOCYOI
_audit_creation_date 2008-11-25
_audit_creation_method CSD-ConQuest-V1
_database_code_CSD BOCYOI
_database_code_depnum_ccdc_archive 'CCDC 677132'
_chemical_formula_sum 'C12 H9 N3 O3'
_chemical_formula_moiety
;
C12 H9 N3 O3
;
_journal_coden_Cambridge 1291
_journal_year 2008
_journal_page_first 3279
_journal_name_full 'Eur.J.Org.Chem. '
loop_
_publ_author_name
"P.Astolfi"
"P.Carloni"
"E.Damiani"
"L.Greci"
"M.Marini"
"C.Rizzoli"
"P.Stipa"
_chemical_name_systematic
;
4-nitro-N-nitroso-N-phenylaniline
;
_chemical_melting_point 402.15
_cell_volume   1143.034
_exptl_crystal_colour 'yellow'
_exptl_crystal_density_diffrn 1.413
_exptl_special_details
;
Melting point range 402.15-404.15K

;
_exptl_crystal_description 'plate'
_diffrn_ambient_temperature 295
#These two values have been output from a single CSD field.
_refine_ls_R_factor_gt 0.0652
_refine_ls_wR_factor_gt 0.0652
_symmetry_cell_setting monoclinic
_symmetry_space_group_name_H-M 'P 21/c'
_symmetry_Int_Tables_number 14
loop_
_symmetry_equiv_pos_site_id
_symmetry_equiv_pos_as_xyz
1 x,y,z
2 -x,1/2+y,1/2-z
3 -x,-y,-z
4 x,-1/2-y,-1/2+z
_cell_length_a 8.125(2)
_cell_length_b 6.0212(9)
_cell_length_c 23.490(15)
_cell_angle_alpha 90
_cell_angle_beta 95.93(3)
_cell_angle_gamma 90
_cell_formula_units_Z 4
loop_
_atom_type_symbol
_atom_type_radius_bond
C 0.68
H 0.23
N 0.68
O 0.68
loop_
_atom_site_label
_atom_site_type_symbol
_atom_site_fract_x
_atom_site_fract_y
_atom_site_fract_z
O1 O -0.0063(3) 0.0213(4) 0.12754(11)
O2 O 0.4214(3) -0.9125(4) -0.07423(11)
O3 O 0.3262(4) -0.6534(5) -0.13135(11)
N1 N 0.1472(3) -0.2503(4) 0.10213(11)
N2 N 0.0408(4) -0.0827(5) 0.08717(13)
N3 N 0.3532(4) -0.7310(5) -0.08312(13)
C1 C 0.2014(3) -0.3704(5) 0.05563(13)
C2 C 0.1724(4) -0.2910(5) 0.00034(14)
H1 H 0.11800 -0.15610 -0.00620
C3 C 0.2223(4) -0.4075(5) -0.04524(14)
H2 H 0.20490 -0.35080 -0.08220
C4 C 0.2990(4) -0.6110(5) -0.03492(13)
C5 C 0.3310(4) -0.6920(5) 0.01965(14)
H3 H 0.38600 -0.82650 0.02590
C6 C 0.2815(4) -0.5739(5) 0.06531(14)
H4 H 0.30150 -0.62960 0.10230
C7 C 0.1948(4) -0.2978(5) 0.16191(13)
C8 C 0.1161(4) -0.4671(5) 0.18836(15)
H5 H 0.03670 -0.55490 0.16780
C9 C 0.1586(5) -0.5018(7) 0.24596(16)
H6 H 0.10770 -0.61590 0.26430
C10 C 0.2738(5) -0.3726(8) 0.27678(15)
H7 H 0.30020 -0.39800 0.31570
C11 C 0.3500(5) -0.2060(7) 0.25007(16)
H8 H 0.42740 -0.11600 0.27090
C12 C 0.3123(4) -0.1713(6) 0.19207(15)
H9 H 0.36720 -0.06140 0.17360
#END
