
#######################################################################
#
#                 Cambridge Crystallographic Data Centre
#                                CCDC
#
#######################################################################
#
# If this CIF has been generated from an entry in the Cambridge
# Structural Database, then it will include bibliographic, chemical,
# crystal, experimental, refinement or atomic coordinate data resulting
# from the CCDC's data processing and validation procedures.
#
#######################################################################

data_CSD_CIF_BOCYID
_audit_creation_date 2014-05-09
_audit_creation_method CSD-ConQuest-V1
_database_code_CSD BOCYID
_database_code_depnum_ccdc_archive 'CCDC 1000268'
_chemical_formula_sum 'C19 H18 N4 O4'
_chemical_formula_moiety
;
C19 H18 N4 O4
;
_journal_coeditor_code "IUCr hg5393"
_journal_coden_Cambridge 1370
_journal_volume 70
_journal_year 2014
_journal_page_first o636
_journal_name_full 'Acta Crystallogr.,Sect.E:Struct.Rep.Online '
loop_
_publ_author_name
"M.Kaur"
"J.P.Jasinski"
"H.S.Yathirajan"
"B.Narayana"
"K.Byrappa"
_chemical_name_systematic
;
N-(1,5-Dimethyl-3-oxo-2-phenyl-2,3-dihydro-1H-pyrazol-4-yl)-2-(4-nitrophenyl)a
cetamide
;
_cell_volume    869.318
_exptl_crystal_colour 'colorless'
_exptl_crystal_density_diffrn 1.4
_exptl_crystal_description 'block'
_diffrn_ambient_temperature 173
#These two values have been output from a single CSD field.
_refine_ls_R_factor_gt 0.0457
_refine_ls_wR_factor_gt 0.0457
_symmetry_cell_setting triclinic
_symmetry_space_group_name_H-M 'P -1'
_symmetry_Int_Tables_number 2
loop_
_symmetry_equiv_pos_site_id
_symmetry_equiv_pos_as_xyz
1 x,y,z
2 -x,-y,-z
_cell_length_a 6.7023(6)
_cell_length_b 8.6335(8)
_cell_length_c 15.8720(13)
_cell_angle_alpha 76.305(7)
_cell_angle_beta 84.399(7)
_cell_angle_gamma 77.252(7)
_cell_formula_units_Z 2
loop_
_atom_type_symbol
_atom_type_radius_bond
C 0.68
H 0.23
N 0.68
O 0.68
loop_
_atom_site_label
_atom_site_type_symbol
_atom_site_fract_x
_atom_site_fract_y
_atom_site_fract_z
O1 O 0.1021(2) 0.22514(15) 0.69436(8)
O2 O 0.42534(16) 0.19900(14) 0.42650(7)
O3 O 0.5894(2) 0.31428(19) 1.03446(9)
O4 O 0.8856(2) 0.18161(18) 1.00103(10)
N1 N 0.2446(2) 0.05926(16) 0.60349(8)
H1 H 0.32710 -0.03000 0.59830
N2 N -0.10661(19) 0.30173(16) 0.44159(8)
N3 N 0.08379(19) 0.31651(16) 0.39847(8)
N4 N 0.6997(2) 0.22341(17) 0.99332(9)
C1 C 0.2184(2) 0.10192(19) 0.68181(10)
C2 C 0.3372(3) -0.02284(19) 0.75387(10)
H2 H 0.24560 -0.08930 0.78780
H3 H 0.44530 -0.09400 0.72770
C3 C 0.4314(2) 0.04908(18) 0.81419(9)
C4 C 0.3122(3) 0.1581(2) 0.86039(11)
H4 H 0.17270 0.19240 0.85160
C5 C 0.3993(3) 0.2157(2) 0.91904(11)
H5 H 0.31960 0.28790 0.95020
C6 C 0.6072(2) 0.16397(18) 0.93061(9)
C7 C 0.7300(3) 0.0574(2) 0.88551(11)
H6 H 0.86980 0.02470 0.89400
C8 C 0.6403(3) 0.0001(2) 0.82728(10)
H7 H 0.72080 -0.07210 0.79640
C9 C 0.1396(2) 0.15810(18) 0.53105(9)
C10 C -0.0656(2) 0.20985(19) 0.52365(10)
C11 C 0.2410(2) 0.22118(18) 0.45045(9)
C12 C 0.0955(2) 0.35883(18) 0.30627(10)
C13 C -0.0571(3) 0.33649(19) 0.25914(10)
H8 H -0.16760 0.29410 0.28780
C14 C -0.0426(3) 0.3779(2) 0.16951(11)
H9 H -0.14570 0.36600 0.13780
C15 C 0.1246(3) 0.4370(2) 0.12657(11)
H10 H 0.13500 0.46290 0.06620
C16 C 0.2765(3) 0.4574(2) 0.17385(11)
H11 H 0.38960 0.49550 0.14490
C17 C 0.2615(2) 0.42151(19) 0.26367(10)
H12 H 0.36120 0.43910 0.29510
C18 C -0.2656(2) 0.4522(2) 0.42912(11)
H13 H -0.24600 0.51740 0.46770
H14 H -0.39830 0.42480 0.44140
H15 H -0.25610 0.51220 0.37020
C19 C -0.2353(3) 0.1816(2) 0.58962(11)
H16 H -0.26640 0.26760 0.62060
H17 H -0.19430 0.07920 0.62960
H18 H -0.35450 0.17990 0.56120
#END
