
#######################################################################
#
#                 Cambridge Crystallographic Data Centre
#                                CCDC
#
#######################################################################
#
# If this CIF has been generated from an entry in the Cambridge
# Structural Database, then it will include bibliographic, chemical,
# crystal, experimental, refinement or atomic coordinate data resulting
# from the CCDC's data processing and validation procedures.
#
#######################################################################

data_CSD_CIF_BODMEM
_audit_creation_date 1983-06-14
_audit_creation_method CSD-ConQuest-V1
_database_code_CSD BODMEM
_database_code_depnum_ccdc_archive 'CCDC 1112984'
_chemical_formula_sum 'C14 H17 N1 O4'
_chemical_formula_moiety
;
C14 H17 N1 O4
;
_journal_coden_Cambridge 82
_journal_volume 23
_journal_year 1982
_journal_page_first 166-4
_journal_name_full 'Zh.Strukt.Khim.(Russ.)(J.Struct.Chem.) '
loop_
_publ_author_name
"T.Atabaev"
"Yu.V.Gatilov"
"N.V.Podberezskaya"
"S.V.Borisov"
"A.Ashirov"
_chemical_name_systematic
;
2-Hydroxy-4-methyl-5-nitrophenyl cyclohexyl ketone
;
_cell_volume    660.787
_exptl_crystal_colour 'yellow'
_exptl_crystal_density_diffrn 1.32
_diffrn_ambient_temperature ?
_diffrn_special_details
;
The study was carried out at room temperature,in the range 283-303K

;
#These two values have been output from a single CSD field.
_refine_ls_R_factor_gt 0.129
_refine_ls_wR_factor_gt 0.129
_symmetry_cell_setting monoclinic
_symmetry_space_group_name_H-M 'P 21'
_symmetry_Int_Tables_number 4
loop_
_symmetry_equiv_pos_site_id
_symmetry_equiv_pos_as_xyz
1 x,y,z
2 -x,1/2+y,-z
_cell_length_a 13.243(5)
_cell_length_b 6.900(2)
_cell_length_c 7.577(3)
_cell_angle_alpha 90
_cell_angle_beta 107.37(3)
_cell_angle_gamma 90
_cell_formula_units_Z 2
loop_
_atom_type_symbol
_atom_type_radius_bond
C 0.68
H 0.23
N 0.68
O 0.68
loop_
_atom_site_label
_atom_site_type_symbol
_atom_site_fract_x
_atom_site_fract_y
_atom_site_fract_z
O1 O 0.80700 0.10900 0.12900
O2 O 0.65700 0.11600 0.26700
O3 O 0.41800 0.00400 -0.56600
O4 O 0.29300 0.10200 -0.48200
N1 N 0.38400 0.10300 -0.45000
C1 C 0.63100 0.11800 -0.06300
C2 C 0.59000 0.10800 0.09300
C3 C 0.48200 0.12200 0.06400
C4 C 0.41100 0.11800 -0.10800
C5 C 0.45200 0.10500 -0.25600
C6 C 0.56100 0.10900 -0.23600
C7 C 0.29100 0.10300 -0.12400
C8 C 0.74700 0.11700 -0.03100
C9 C 0.79600 0.09600 -0.18800
C10 C 0.84700 0.30400 -0.19100
C11 C 0.90700 0.29200 -0.34700
C12 C 0.98100 0.13800 -0.31900
C13 C 0.92400 -0.06700 -0.32300
C14 C 0.87000 -0.06400 -0.15900
H1 H 0.73000 0.10000 -0.29000
H2 H 0.84000 0.43000 -0.15000
H3 H 0.89000 0.30000 -0.06000
H4 H 0.86000 0.29000 -0.36000
H5 H 0.91000 0.42000 -0.38000
H6 H 0.89000 -0.20000 -0.35000
H7 H 0.87000 -0.07000 -0.44000
H8 H 0.99000 0.13000 -0.45000
H9 H 1.05000 0.13000 -0.19000
H10 H 0.90000 0.07000 -0.14000
H11 H 0.92000 -0.06000 -0.03000
H12 H 0.59000 0.11000 -0.34000
H13 H 0.24000 0.07000 -0.25000
H14 H 0.27000 0.22000 -0.13000
H15 H 0.27000 0.07000 -0.02000
#END
