
#######################################################################
#
#                 Cambridge Crystallographic Data Centre
#                                CCDC
#
#######################################################################
#
# If this CIF has been generated from an entry in the Cambridge
# Structural Database, then it will include bibliographic, chemical,
# crystal, experimental, refinement or atomic coordinate data resulting
# from the CCDC's data processing and validation procedures.
#
#######################################################################

data_CSD_CIF_BODMAI
_audit_creation_date 1983-06-14
_audit_creation_method CSD-ConQuest-V1
_database_code_CSD BODMAI
_database_code_depnum_ccdc_archive 'CCDC 1112983'
_chemical_formula_sum 'C13 H15 N3 O3'
_chemical_formula_moiety
;
C13 H15 N3 O3
;
_journal_coden_Cambridge 82
_journal_volume 23
_journal_year 1982
_journal_page_first 163-4
_journal_name_full 'Zh.Strukt.Khim.(Russ.)(J.Struct.Chem.) '
loop_
_publ_author_name
"V.B.Ribakov"
"V.M.Ionov"
"K.A.Paseshnichenko"
"K.D.Atanasov"
_chemical_name_systematic
;
5-Nitro-2-cyclohexylamino-benzo-oxazole
;
_cell_volume   1274.192
_diffrn_ambient_temperature ?
_diffrn_special_details
;
The study was carried out at room temperature,in the range 283-303K

;
#These two values have been output from a single CSD field.
_refine_ls_R_factor_gt 0.053
_refine_ls_wR_factor_gt 0.053
_symmetry_cell_setting monoclinic
_symmetry_space_group_name_H-M 'P 1 1 21/b'
_symmetry_Int_Tables_number 14
loop_
_symmetry_equiv_pos_site_id
_symmetry_equiv_pos_as_xyz
1 x,y,z
2 -x,1/2-y,1/2+z
3 -x,-y,-z
4 x,-1/2+y,-1/2-z
_cell_length_a 8.552(6)
_cell_length_b 9.488(6)
_cell_length_c 16.011(10)
_cell_angle_alpha 90
_cell_angle_beta 90
_cell_angle_gamma 101.25(3)
_cell_formula_units_Z 4
loop_
_atom_type_symbol
_atom_type_radius_bond
C 0.68
H 0.23
N 0.68
O 0.68
loop_
_atom_site_label
_atom_site_type_symbol
_atom_site_fract_x
_atom_site_fract_y
_atom_site_fract_z
O1 O 0.00470 0.13090 0.32900
O2 O 0.13620 -0.37820 0.53550
O3 O 0.35250 -0.22840 0.56250
N1 N -0.13160 -0.10000 0.31760
N2 N 0.22380 -0.26120 0.52770
N3 N -0.21370 0.09040 0.24290
C1 C -0.00560 -0.09410 0.37460
C2 C 0.04120 -0.19980 0.42230
C3 C 0.17230 -0.15600 0.47340
C4 C 0.25530 -0.01540 0.47620
C5 C 0.20850 0.09150 0.42960
C6 C 0.07800 0.04770 0.38040
C7 C -0.12070 0.03370 0.29430
C8 C -0.36360 0.00650 0.21070
C9 C -0.41820 0.08460 0.13680
C10 C -0.57680 0.00580 0.10200
C11 C -0.70420 -0.02360 0.16990
C12 C -0.64720 -0.10420 0.24190
C13 C -0.49160 -0.02070 0.27810
H1 H -0.01500 -0.29500 0.41800
H2 H -0.19000 0.18100 0.23000
H3 H 0.29300 -0.00500 0.51000
H4 H 0.26400 0.18600 0.43000
H5 H -0.33700 -0.08300 0.19300
H6 H -0.42700 0.18800 0.15900
H7 H -0.33800 0.10100 0.10200
H8 H -0.61400 0.05700 0.04600
H9 H -0.56500 -0.08200 0.08500
H10 H -0.72500 0.06400 0.18800
H11 H -0.80800 -0.07900 0.14700
H12 H -0.63400 -0.20600 0.21800
H13 H -0.72400 -0.12300 0.28400
H14 H -0.44900 -0.07400 0.32700
H15 H -0.50600 0.07700 0.29300
#END
