
#######################################################################
#
#                 Cambridge Crystallographic Data Centre
#                                CCDC
#
#######################################################################
#
# If this CIF has been generated from an entry in the Cambridge
# Structural Database, then it will include bibliographic, chemical,
# crystal, experimental, refinement or atomic coordinate data resulting
# from the CCDC's data processing and validation procedures.
#
#######################################################################

data_CSD_CIF_BOFDAB
_audit_creation_date 1983-06-14
_audit_creation_method CSD-ConQuest-V1
_database_code_CSD BOFDAB
_chemical_formula_sum 'C18 H20 N2 O6'
_chemical_formula_moiety
;
C18 H20 N2 O6
;
_journal_coden_Cambridge 35
_journal_volume 47
_journal_year 1982
_journal_page_first 3345
_journal_name_full 'J.Org.Chem. '
loop_
_publ_author_name
"M.M.Nafissi-V"
"D.P.Koharski"
"M.S.Puar"
"A.T.McPhail"
_chemical_name_systematic
;
2,3'-Dinitro-4,5'-dimethyl-5,4'-diethoxybiphenyl
;
_chemical_melting_point 431.15
_cell_volume   1799.017
_exptl_crystal_density_diffrn 1.331
_exptl_special_details
;
Melting point range 431.15-432.15K

;
_diffrn_ambient_temperature ?
_diffrn_special_details
;
The study was carried out at room temperature,in the range 283-303K

;
#These two values have been output from a single CSD field.
_refine_ls_R_factor_gt 0.076
_refine_ls_wR_factor_gt 0.076
_symmetry_cell_setting monoclinic
_symmetry_space_group_name_H-M 'P 21/c'
_symmetry_Int_Tables_number 14
loop_
_symmetry_equiv_pos_site_id
_symmetry_equiv_pos_as_xyz
1 x,y,z
2 -x,1/2+y,1/2-z
3 -x,-y,-z
4 x,-1/2-y,-1/2+z
_cell_length_a 7.878(3)
_cell_length_b 8.204(3)
_cell_length_c 27.843(11)
_cell_angle_alpha 90
_cell_angle_beta 91.36(3)
_cell_angle_gamma 90
_cell_formula_units_Z 4
loop_
_atom_type_symbol
_atom_type_radius_bond
C 0.68
H 0.23
N 0.68
O 0.68
loop_
_atom_site_label
_atom_site_type_symbol
_atom_site_fract_x
_atom_site_fract_y
_atom_site_fract_z
C1 C 0.40520 0.86020 0.78580
C2 C 0.26140 0.79410 0.80350
C3 C 0.22680 0.78800 0.85210
C4 C 0.35070 0.84560 0.88590
C5 C 0.50090 0.90660 0.86820
C6 C 0.52430 0.91870 0.81940
N1 N 0.13240 0.71980 0.77190
O1 O 0.17510 0.64840 0.73610
O2 O -0.01610 0.72860 0.78290
C7 C 0.31740 0.82670 0.93970
O3 O 0.61170 0.95820 0.90300
C8 C 0.77080 1.02180 0.88890
C9 C 0.87970 1.05070 0.93250
C10 C 0.45430 0.87470 0.73490
C11 C 0.34040 0.93900 0.70040
C12 C 0.39130 0.95620 0.65340
C13 C 0.55190 0.91090 0.63830
C14 C 0.66500 0.84940 0.67320
C15 C 0.61090 0.82820 0.71940
N2 N 0.26690 1.02110 0.61790
O4 O 0.24190 0.93650 0.58180
O5 O 0.18420 1.13540 0.62720
O6 O 0.60270 0.94300 0.59270
C16 C 0.61000 0.80170 0.56210
C17 C 0.71860 0.84430 0.52140
C18 C 0.84630 0.80540 0.66080
H1 H 0.11700 0.73900 0.86400
H2 H 0.63600 0.96800 0.80700
H3 H 0.20900 0.77700 0.95300
H4 H 0.33300 0.94400 0.95400
H5 H 0.42100 0.75300 0.95200
H6 H 0.75700 1.13000 0.86900
H7 H 0.83500 0.93500 0.86600
H8 H 0.99500 1.09500 0.94500
H9 H 0.88200 0.93300 0.94900
H10 H 0.79600 1.12400 0.95300
H11 H 0.22600 0.97700 0.71100
H12 H 0.69400 0.77900 0.74500
H13 H 0.49000 0.76400 0.55000
H14 H 0.66700 0.70000 0.58200
H15 H 0.72600 0.74100 0.50000
H16 H 0.83800 0.87700 0.53600
H17 H 0.66100 0.94100 0.50400
H18 H 0.92700 0.76000 0.68600
H19 H 0.89500 0.90900 0.64500
H20 H 0.82600 0.71400 0.63400
#END
