
#######################################################################
#
#                 Cambridge Crystallographic Data Centre
#                                CCDC
#
#######################################################################
#
# If this CIF has been generated from an entry in the Cambridge
# Structural Database, then it will include bibliographic, chemical,
# crystal, experimental, refinement or atomic coordinate data resulting
# from the CCDC's data processing and validation procedures.
#
#######################################################################

data_CSD_CIF_BOFSEU
_audit_creation_date 1983-06-14
_audit_creation_method CSD-ConQuest-V1
_database_code_CSD BOFSEU
_database_code_depnum_ccdc_archive 'CCDC 1113089'
_chemical_formula_sum 'C19 H20 N2 O6'
_chemical_formula_moiety
;
C19 H20 N2 O6
;
_journal_coden_Cambridge 54
_journal_volume 91
_journal_year 1982
_journal_page_first 825
_journal_name_full 'Bull.Soc.Chim.Belg. '
loop_
_publ_author_name
"F.Durant"
"F.Bufkens"
"G.Evrard"
"C.Lamotte"
_chemical_name_systematic
;
3-(4-((3-Nitrophenyl)-methoxyphenyl))-6-methoxymethyl-2-oxazinone
;
_cell_volume   7147.579
_exptl_crystal_density_diffrn 1.38
_diffrn_ambient_temperature ?
_diffrn_special_details
;
The study was carried out at room temperature,in the range 283-303K

;
#These two values have been output from a single CSD field.
_refine_ls_R_factor_gt 0.06
_refine_ls_wR_factor_gt 0.06
_symmetry_cell_setting orthorhombic
_symmetry_space_group_name_H-M 'P b c a'
_symmetry_Int_Tables_number 61
loop_
_symmetry_equiv_pos_site_id
_symmetry_equiv_pos_as_xyz
1 x,y,z
2 1/2-x,-y,1/2+z
3 1/2+x,1/2-y,-z
4 -x,1/2+y,1/2-z
5 -x,-y,-z
6 -1/2+x,y,-1/2-z
7 -1/2-x,-1/2+y,z
8 x,-1/2-y,-1/2+z
_cell_length_a 39.722(7)
_cell_length_b 16.385(4)
_cell_length_c 10.982(2)
_cell_angle_alpha 90
_cell_angle_beta 90
_cell_angle_gamma 90
_cell_formula_units_Z 16
loop_
_atom_type_symbol
_atom_type_radius_bond
C 0.68
H 0.23
N 0.68
O 0.68
loop_
_atom_site_label
_atom_site_type_symbol
_atom_site_fract_x
_atom_site_fract_y
_atom_site_fract_z
O1 O 0.66620 0.11050 0.72600
C1 C 0.65300 0.14920 0.64590
O2 O 0.61870 0.15680 0.64810
C2 C 0.60350 0.21890 0.56660
C3 C 0.56590 0.20770 0.58820
O3 O 0.56000 0.23810 0.70520
C4 C 0.65440 0.21940 0.44050
N1 N 0.66930 0.18700 0.55290
C5 C 0.70560 0.18940 0.56200
C6 C 0.72510 0.15280 0.47380
C7 C 0.76050 0.15500 0.48420
C8 C 0.77440 0.19490 0.58530
C9 C 0.75450 0.23340 0.67160
C10 C 0.71980 0.23160 0.66070
O4 O 0.80860 0.20020 0.60900
C11 C 0.83130 0.16240 0.52570
C12 C 0.86580 0.16490 0.58480
C13 C 0.87000 0.16050 0.71220
C14 C 0.90190 0.16000 0.76200
C15 C 0.92990 0.16270 0.68760
C16 C 0.92500 0.16560 0.56280
C17 C 0.89350 0.16710 0.50940
C18 C 0.61560 0.21000 0.44480
C19 C 0.52640 0.23100 0.74090
N2 N 0.95440 0.16770 0.48090
O5 O 0.94930 0.17250 0.37150
O6 O 0.98230 0.16430 0.52700
H1 H 0.66500 0.28140 0.41450
H2 H 0.66210 0.18240 0.36440
H3 H 0.71700 0.13150 0.39930
H4 H 0.77410 0.12980 0.41380
H5 H 0.76290 0.26430 0.74180
H6 H 0.70630 0.25620 0.73090
H7 H 0.82580 0.10120 0.49860
H8 H 0.82990 0.19830 0.43850
H9 H 0.84500 0.16270 0.77110
H10 H 0.90230 0.15640 0.84330
H11 H 0.95480 0.16970 0.72600
H12 H 0.89050 0.17150 0.41180
H13 H 0.60710 0.24550 0.38250
H14 H 0.60810 0.14910 0.41340
H15 H 0.60480 0.28620 0.60770
H16 H 0.55380 0.23830 0.52790
H17 H 0.55670 0.15490 0.60680
H18 H 0.51050 0.27320 0.69340
H19 H 0.51940 0.16560 0.73910
H20 H 0.52040 0.25400 0.83200
O7 O 0.83030 -0.00550 -0.11090
C20 C 0.84120 0.02640 -0.02030
O8 O 0.87540 0.02380 -0.00320
C21 C 0.89010 0.04620 0.11570
C22 C 0.92750 0.04780 0.09940
O9 O 0.93740 0.11770 0.02850
C23 C 0.83550 0.10030 0.18050
N3 N 0.82240 0.06540 0.06520
C24 C 0.78580 0.06280 0.05340
C25 C 0.77060 0.09390 -0.05140
C26 C 0.73600 0.09240 -0.05930
C27 C 0.71670 0.06380 0.03810
C28 C 0.73180 0.03510 0.14480
C29 C 0.76700 0.03470 0.15060
O10 O 0.68210 0.06470 0.01930
C30 C 0.66140 0.05360 0.12330
C31 C 0.62470 0.05380 0.08020
C32 C 0.61540 0.06320 -0.04280
C33 C 0.58200 0.06240 -0.07530
C34 C 0.55690 0.05490 0.01310
C35 C 0.56740 0.04560 0.13420
C36 C 0.60050 0.04600 0.17220
C37 C 0.87430 0.11840 0.15980
C38 C 0.97330 0.11990 0.01630
N4 N 0.54050 0.03830 0.22660
O11 O 0.51240 0.01900 0.19580
O12 O 0.54880 0.05000 0.33250
H21 H 0.98400 0.13440 0.10920
H22 H 0.98180 0.06380 -0.03290
H23 H 0.98400 0.16050 -0.03500
H24 H 0.94050 0.05050 0.19670
H25 H 0.93570 -0.00130 0.06010
H26 H 0.88560 -0.00190 0.18220
H27 H 0.88340 0.16160 0.08800
H28 H 0.88880 0.13530 0.24970
H29 H 0.82630 0.14840 0.20870
H30 H 0.83200 0.05710 0.25670
H31 H 0.78210 0.12240 -0.11990
H32 H 0.72200 0.11860 -0.13070
H33 H 0.71920 0.01740 0.21770
H34 H 0.77780 0.01080 0.23180
H35 H 0.66730 -0.00050 0.17840
H36 H 0.66500 0.09670 0.20540
H37 H 0.63400 0.06590 -0.11810
H38 H 0.57610 0.06730 -0.16680
H39 H 0.52920 0.05500 -0.00760
H40 H 0.60740 0.04050 0.27050
#END
