
#######################################################################
#
#                 Cambridge Crystallographic Data Centre
#                                CCDC
#
#######################################################################
#
# If this CIF has been generated from an entry in the Cambridge
# Structural Database, then it will include bibliographic, chemical,
# crystal, experimental, refinement or atomic coordinate data resulting
# from the CCDC's data processing and validation procedures.
#
#######################################################################

data_CSD_CIF_BOGFOU
_audit_creation_date 2014-05-12
_audit_creation_method CSD-ConQuest-V1
_database_code_CSD BOGFOU
_database_code_depnum_ccdc_archive 'CCDC 978152'
_chemical_formula_sum 'C13 H21 N1 O8'
_chemical_formula_moiety
;
C13 H21 N1 O8
;
_journal_coden_Cambridge 156
_journal_volume 391
_journal_year 2014
_journal_page_first 82
_journal_name_full 'Carbohydr.Res. '
loop_
_publ_author_name
"M.Turks"
"K.Veze"
"G.Kiselovs"
"J.Mackevica"
"J.Luiginina"
"A.Mishnev"
"D.Markovic"
_chemical_name_systematic
;
(3aR,5S,6R,6aR)-5-[(4R)-2,2-Dimethyl-1,3-dioxolan-4-yl]-2,2-dimethyl-6-(nitrom
ethyl)-5,6a-dihydro-3aH-furo[2,3-d][1,3]dioxol-6-ol
;
_chemical_name_common
;
3-C-Nitromethyl-1,2:5,6-di-O-isopropylidene-alpha-D-gulofuranose
;
_cell_volume   3018.131
_exptl_crystal_colour 'colorless'
_exptl_crystal_density_diffrn 1.405
_exptl_crystal_description 'prism'
_exptl_crystal_preparation 'hexanes/EtOAc'
_diffrn_ambient_temperature 173
#These two values have been output from a single CSD field.
_refine_ls_R_factor_gt 0.0502
_refine_ls_wR_factor_gt 0.0502
_symmetry_cell_setting orthorhombic
_symmetry_space_group_name_H-M 'P 21 21 21'
_symmetry_Int_Tables_number 19
loop_
_symmetry_equiv_pos_site_id
_symmetry_equiv_pos_as_xyz
1 x,y,z
2 1/2-x,-y,1/2+z
3 1/2+x,1/2-y,-z
4 -x,1/2+y,1/2-z
_cell_length_a 9.7030(1)
_cell_length_b 11.7785(2)
_cell_length_c 26.4084(3)
_cell_angle_alpha 90
_cell_angle_beta 90
_cell_angle_gamma 90
_cell_formula_units_Z 8
loop_
_atom_type_symbol
_atom_type_radius_bond
C 0.68
H 0.23
N 0.68
O 0.68
loop_
_atom_site_label
_atom_site_type_symbol
_atom_site_fract_x
_atom_site_fract_y
_atom_site_fract_z
O1 O 0.56754(14) 0.13933(10) 0.26256(5)
H1 H 0.58670 0.19580 0.24450
O2 O 0.38400(14) 0.29156(11) 0.29716(5)
O3 O 0.47225(15) 0.13731(10) 0.39287(5)
O4 O 0.32971(15) -0.05709(10) 0.35910(5)
O5 O 0.29486(16) 0.26509(12) 0.37524(5)
O6 O 0.36227(18) -0.16601(12) 0.28952(7)
C1 C 0.51167(19) 0.07710(13) 0.34781(7)
H2 H 0.58280 0.01910 0.35690
C2 C 0.49996(19) 0.27776(13) 0.32896(7)
H3 H 0.56040 0.34650 0.32940
C3 C 0.39034(19) 0.01732(13) 0.32237(7)
H4 H 0.32140 0.07360 0.30970
C4 C 0.57956(19) 0.16904(13) 0.31401(6)
C5 C 0.4393(2) 0.25116(14) 0.38147(7)
H5 H 0.47630 0.30400 0.40780
C6 C 0.4355(2) -0.06325(14) 0.28006(8)
H6 H 0.41120 -0.03190 0.24650
H7 H 0.53630 -0.07630 0.28130
C7 C 0.2733(2) 0.32654(15) 0.32920(7)
C8 C 0.2727(2) -0.15026(14) 0.33232(8)
C9 C 0.7319(2) 0.18760(15) 0.32796(8)
H8 H 0.76380 0.26150 0.31440
H9 H 0.74240 0.18880 0.36520
N1 N 0.81632(18) 0.09392(15) 0.30611(8)
O7 O 0.8889(2) 0.11525(18) 0.26944(8)
O8 O 0.8074(2) 0.00010(15) 0.32515(10)
C10 C 0.2793(3) 0.45375(17) 0.33886(10)
H10 H 0.26490 0.49460 0.30700
H11 H 0.36980 0.47370 0.35280
H12 H 0.20720 0.47500 0.36310
C11 C 0.1280(2) -0.1262(2) 0.31347(10)
H13 H 0.09290 -0.19260 0.29520
H14 H 0.12970 -0.06060 0.29060
H15 H 0.06780 -0.10970 0.34230
C12 C 0.1392(2) 0.2892(2) 0.3053(1)
H16 H 0.12450 0.33140 0.27380
H17 H 0.06300 0.30430 0.32870
H18 H 0.14330 0.20770 0.29790
C13 C 0.2790(3) -0.25367(19) 0.36598(11)
H19 H 0.24000 -0.31900 0.34800
H20 H 0.22600 -0.23960 0.39690
H21 H 0.37520 -0.26950 0.37480
O9 O 0.25723(15) 0.09765(11) 0.58481(6)
O10 O 0.34021(16) -0.15399(12) 0.60265(6)
O11 O 0.52303(16) 0.33944(11) 0.49771(5)
O12 O 0.53252(15) -0.02720(12) 0.56453(6)
H22 H 0.52560 -0.08090 0.58530
O13 O 0.15623(15) -0.04890(12) 0.63027(6)
O14 O 0.37183(17) 0.30105(11) 0.55969(7)
C14 C 0.40917(19) -0.01730(14) 0.53691(7)
C15 C 0.3485(2) 0.10430(14) 0.54222(7)
H23 H 0.29520 0.12430 0.51110
C16 C 0.2923(2) -0.09217(14) 0.56006(7)
H24 H 0.24950 -0.14300 0.53410
C17 C 0.4504(2) 0.19859(14) 0.55445(7)
H25 H 0.49820 0.18120 0.58710
C18 C 0.4511(2) 0.39144(15) 0.53839(8)
N2 N 0.5084(2) -0.15854(15) 0.47584(8)
C19 C 0.2679(2) -0.11896(17) 0.64773(7)
C20 C 0.4384(3) -0.04571(16) 0.48157(8)
H26 H 0.35060 -0.04660 0.46250
H27 H 0.49760 0.01420 0.46680
C21 C 0.1876(2) -0.00841(16) 0.58218(8)
H28 H 0.10330 -0.00330 0.56050
C22 C 0.5577(2) 0.22741(15) 0.51360(8)
H29 H 0.65210 0.22500 0.52770
H30 H 0.55180 0.17340 0.48490
O15 O 0.5962(2) -0.16607(18) 0.44373(9)
C23 C 0.2083(3) -0.22260(19) 0.67308(9)
H31 H 0.15820 -0.19970 0.70360
H32 H 0.28300 -0.27460 0.68240
H33 H 0.14500 -0.26090 0.64970
C24 C 0.5522(3) 0.4393(2) 0.57665(10)
H34 H 0.50140 0.47490 0.60450
H35 H 0.61080 0.49610 0.56020
H36 H 0.60980 0.37780 0.59000
C25 C 0.3529(3) 0.4793(2) 0.51793(14)
H37 H 0.30330 0.51500 0.54610
H38 H 0.28670 0.44270 0.49510
H39 H 0.40470 0.53720 0.49930
C26 C 0.3651(3) -0.0517(2) 0.68138(10)
H40 H 0.31610 -0.02760 0.71200
H41 H 0.39810 0.01520 0.66300
H42 H 0.44360 -0.09950 0.69090
O16 O 0.4750(4) -0.23614(17) 0.50206(13)
#END
