
#######################################################################
#
#                 Cambridge Crystallographic Data Centre
#                                CCDC
#
#######################################################################
#
# If this CIF has been generated from an entry in the Cambridge
# Structural Database, then it will include bibliographic, chemical,
# crystal, experimental, refinement or atomic coordinate data resulting
# from the CCDC's data processing and validation procedures.
#
#######################################################################

data_CSD_CIF_BOGGIP
_audit_creation_date 2014-05-12
_audit_creation_method CSD-ConQuest-V1
_database_code_CSD BOGGIP
_database_code_depnum_ccdc_archive 'CCDC 969090'
_chemical_formula_sum 'C28 H35 N3 O2'
_chemical_formula_moiety
;
C28 H35 N3 O2
;
_journal_coden_Cambridge 182
_journal_volume 50
_journal_year 2014
_journal_page_first 10027
_journal_name_full 'Chem.Commun. '
loop_
_publ_author_name
"Yu Tan"
"Han-Lin Luan"
"Hua Lin"
"Xing-Wen Sun"
"Xiao-Di Yang"
"Han-Qing Dong"
"Guo-Qiang Lin"
_chemical_name_systematic
;
4-Butyl-3-nitro-2-phenyl-1-propyl-1,2,3,4,6,7,12,12b-octahydroindolo[2,3-a]qui
nolizine
;
_cell_volume   1258.392
_exptl_crystal_colour 'yellow'
_exptl_crystal_density_diffrn 1.176
_exptl_crystal_description 'sheet'
_diffrn_ambient_temperature 293
#These two values have been output from a single CSD field.
_refine_ls_R_factor_gt 0.0629
_refine_ls_wR_factor_gt 0.0629
_symmetry_cell_setting monoclinic
_symmetry_space_group_name_H-M 'P 21'
_symmetry_Int_Tables_number 4
loop_
_symmetry_equiv_pos_site_id
_symmetry_equiv_pos_as_xyz
1 x,y,z
2 -x,1/2+y,-z
_cell_length_a 9.784(5)
_cell_length_b 8.872(4)
_cell_length_c 14.497(7)
_cell_angle_alpha 90
_cell_angle_beta 90.000(7)
_cell_angle_gamma 90
_cell_formula_units_Z 2
loop_
_atom_type_symbol
_atom_type_radius_bond
C 0.68
H 0.23
N 0.68
O 0.68
loop_
_atom_site_label
_atom_site_type_symbol
_atom_site_fract_x
_atom_site_fract_y
_atom_site_fract_z
N1 N 0.4260(5) 0.8487(6) 0.4906(3)
H1 H 0.468(6) 0.762(7) 0.487(5)
N2 N 0.4091(4) 1.0215(5) 0.2623(3)
N3 N 0.3767(6) 0.8459(7) 0.0257(3)
O1 O 0.3302(5) 0.9347(7) -0.0295(3)
O2 O 0.4532(5) 0.7446(6) 0.0062(3)
C1 C 0.3843(6) 0.9253(7) 0.5690(3)
C2 C 0.3936(6) 0.8841(8) 0.6612(3)
H2 H 0.43450 0.79440 0.67950
C3 C 0.3388(7) 0.9835(10) 0.7238(4)
H3 H 0.34580 0.96140 0.78630
C4 C 0.2743(7) 1.1141(10) 0.6977(4)
H4 H 0.23660 1.17630 0.74260
C5 C 0.2647(6) 1.1541(7) 0.6069(4)
H5 H 0.22210 1.24360 0.58980
C6 C 0.3198(5) 1.0587(6) 0.5406(3)
C7 C 0.3234(5) 1.0582(6) 0.4403(3)
C8 C 0.2754(6) 1.1740(7) 0.3729(3)
H6 H 0.32980 1.26480 0.37920
H7 H 0.18080 1.19950 0.38560
C9 C 0.2880(6) 1.1134(7) 0.2756(4)
H8 H 0.20770 1.05370 0.26140
H9 H 0.29070 1.19750 0.23280
C10 C 0.4413(6) 0.9908(7) 0.1648(3)
H10 H 0.42510 1.08470 0.13090
C11 C 0.3410(6) 0.8738(7) 0.1263(3)
H11 H 0.24940 0.91840 0.12810
C12 C 0.3356(5) 0.7261(6) 0.1797(3)
H12 H 0.42620 0.67920 0.17760
C13 C 0.3016(6) 0.7669(7) 0.2825(3)
H13 H 0.21320 0.81880 0.28190
C14 C 0.4064(6) 0.8805(6) 0.3171(3)
H14 H 0.49690 0.83370 0.31250
C15 C 0.3874(5) 0.9311(6) 0.4144(3)
C16 C 0.5893(6) 0.9513(8) 0.1515(3)
H15 H 0.60530 0.85090 0.17570
H16 H 0.60920 0.94930 0.08600
C17 C 0.6851(7) 1.0589(11) 0.1976(5)
H17 H 0.65700 1.16040 0.18160
H18 H 0.67390 1.04810 0.26370
C18 C 0.8292(9) 1.0443(15) 0.1766(7)
H19 H 0.84450 1.07040 0.11240
H20 H 0.85700 0.94030 0.18520
C19 C 0.9161(10) 1.146(2) 0.2376(9)
H21 H 0.89530 1.24920 0.22470
H22 H 1.01110 1.12710 0.22540
H23 H 0.89680 1.12440 0.30120
C20 C 0.2330(6) 0.6175(7) 0.1391(3)
C21 C 0.2768(7) 0.4782(8) 0.1072(3)
H24 H 0.36870 0.45190 0.11050
C22 C 0.1825(10) 0.3788(8) 0.0706(4)
H25 H 0.21150 0.28510 0.04960
C23 C 0.0473(10) 0.4165(13) 0.0647(5)
H26 H -0.01510 0.34970 0.03880
C24 C 0.0051(8) 0.5509(13) 0.0968(5)
H27 H -0.08720 0.57560 0.09400
C25 C 0.0958(7) 0.6524(9) 0.1337(4)
H28 H 0.06470 0.74500 0.15510
C26 C 0.2848(7) 0.6300(7) 0.3438(4)
H29 H 0.36730 0.61510 0.37980
H30 H 0.27100 0.54120 0.30590
C27 C 0.1598(10) 0.6504(10) 0.4103(5)
H31 H 0.17400 0.74200 0.44560
H32 H 0.07880 0.66560 0.37280
C28 C 0.1320(18) 0.5291(15) 0.4746(10)
H33 H 0.08050 0.45170 0.44410
H34 H 0.08040 0.56740 0.52580
H35 H 0.21680 0.48790 0.49650
#END
