
#######################################################################
#
#                 Cambridge Crystallographic Data Centre
#                                CCDC
#
#######################################################################
#
# If this CIF has been generated from an entry in the Cambridge
# Structural Database, then it will include bibliographic, chemical,
# crystal, experimental, refinement or atomic coordinate data resulting
# from the CCDC's data processing and validation procedures.
#
#######################################################################

data_CSD_CIF_BOGKIT
_audit_creation_date 2014-05-12
_audit_creation_method CSD-ConQuest-V1
_database_code_CSD BOGKIT
_database_code_depnum_ccdc_archive 'CCDC 984479'
_chemical_formula_sum 'C25 H29 N3 O6'
_chemical_formula_moiety
;
C25 H29 N3 O6
;
_journal_coden_Cambridge 6
_journal_volume 509
_journal_year 2014
_journal_page_first 318
_journal_name_full 'Nature (London) '
loop_
_publ_author_name
"E.V.Mercado-Marin"
"P.Garcia-Reynaga"
"S.Romminger"
"E.F.Pimenta"
"D.K.Romney"
"M.W.Lodewyk"
"D.E.Williams"
"R.J.Andersen"
"S.J.Miller"
"D.J.Tantillo"
"R.G.S.Berlinck"
"R.Sarpong"
_chemical_name_systematic
;
7',7',8,8-tetramethyl-5a-nitro-2,3,5a,6,7',8,8',8a,9,9a-decahydro-1H,2'H,5H-sp
iro[cyclopenta[f]indolizine-7,3'-pyrano[2,3-g]indole]-2',5,9'(1'H)-trione
;
_cell_volume   2341.453
_exptl_crystal_colour 'colorless'
_exptl_crystal_density_diffrn 1.326
_exptl_special_details
;
Absolute configuration

;
_exptl_crystal_description 'plate'
_diffrn_ambient_temperature 100
#These two values have been output from a single CSD field.
_refine_ls_R_factor_gt 0.0359
_refine_ls_wR_factor_gt 0.0359
_symmetry_cell_setting orthorhombic
_symmetry_space_group_name_H-M 'P 21 21 21'
_symmetry_Int_Tables_number 19
loop_
_symmetry_equiv_pos_site_id
_symmetry_equiv_pos_as_xyz
1 x,y,z
2 1/2-x,-y,1/2+z
3 -x,1/2+y,1/2-z
4 1/2+x,1/2-y,-z
_cell_length_a 6.8459(5)
_cell_length_b 11.5478(9)
_cell_length_c 29.618(2)
_cell_angle_alpha 90
_cell_angle_beta 90
_cell_angle_gamma 90
_cell_formula_units_Z 4
loop_
_atom_type_symbol
_atom_type_radius_bond
C 0.68
H 0.23
N 0.68
O 0.68
loop_
_atom_site_label
_atom_site_type_symbol
_atom_site_fract_x
_atom_site_fract_y
_atom_site_fract_z
C1 C 0.8956(4) 0.1404(2) 0.84499(8)
C2 C 0.9980(4) 0.0554(2) 0.87553(8)
C3 C 1.0758(4) -0.0540(2) 0.86779(8)
H1 H 1.06170 -0.08950 0.83900
C4 C 1.1738(4) -0.1111(2) 0.90208(8)
H2 H 1.23060 -0.18470 0.89640
C5 C 1.1898(4) -0.0618(2) 0.94461(8)
C6 C 1.3375(5) -0.0716(3) 1.01895(10)
C7 C 1.1796(5) 0.0113(3) 1.03446(9)
H3 H 1.06250 -0.03380 1.04320
H4 H 1.22600 0.05310 1.06160
C8 C 1.1233(4) 0.0981(3) 0.99908(9)
C9 C 1.1152(4) 0.0492(2) 0.95360(8)
C10 C 1.0249(4) 0.1060(2) 0.91756(8)
C11 C 0.8869(4) 0.2494(2) 0.87542(8)
C12 C 0.6836(4) 0.1084(2) 0.82828(8)
C13 C 0.6540(4) 0.1934(2) 0.78769(8)
H5 H 0.60590 0.26780 0.80100
C14 C 0.5061(4) 0.1597(2) 0.75083(9)
H6 H 0.39020 0.12460 0.76540
H7 H 0.46260 0.23080 0.73510
C15 C 0.5859(4) 0.0758(2) 0.71628(8)
H8 H 0.60160 -0.00190 0.73070
C16 C 0.4706(4) 0.0621(3) 0.67250(9)
H9 H 0.42550 0.13780 0.66080
H10 H 0.35670 0.01020 0.67660
C17 C 0.6251(5) 0.0076(3) 0.64149(9)
H11 H 0.63980 -0.07620 0.64780
H12 H 0.58970 0.01790 0.60930
C18 C 0.8123(4) 0.0730(2) 0.65281(8)
H13 H 0.92730 0.02110 0.65170
H14 H 0.83300 0.13840 0.63180
C19 C 0.9054(4) 0.1822(2) 0.71926(8)
C20 C 0.8601(3) 0.2192(2) 0.76844(8)
C21 C 1.0065(4) 0.1644(2) 0.80091(8)
H15 H 1.11710 0.21770 0.80650
H16 H 1.05840 0.09130 0.78820
C22 C 1.3596(7) -0.1723(3) 1.05164(11)
H17 H 1.23800 -0.21710 1.05240
H18 H 1.38780 -0.14250 1.08190
H19 H 1.46710 -0.22220 1.04170
C23 C 1.5290(5) -0.0090(3) 1.01068(13)
H20 H 1.62600 -0.06400 0.99920
H21 H 1.57580 0.02470 1.03910
H22 H 1.50880 0.05270 0.98850
C24 C 0.6741(4) -0.0195(2) 0.81529(9)
H23 H 0.69330 -0.06730 0.84230
H24 H 0.77670 -0.03670 0.79320
H25 H 0.54610 -0.03660 0.80200
C25 C 0.5282(4) 0.1292(3) 0.86456(9)
H26 H 0.39980 0.10650 0.85290
H27 H 0.52620 0.21150 0.87270
H28 H 0.55900 0.08290 0.89140
N1 N 0.9535(3) 0.21839(19) 0.91709(7)
H29 H 0.95150 0.26420 0.94080
N2 N 0.7771(3) 0.11450(18) 0.69897(6)
N3 N 0.8890(3) 0.35025(19) 0.76498(7)
O1 O 1.2779(3) -0.12768(16) 0.97685(6)
O2 O 1.0782(3) 0.19771(18) 1.00776(7)
O3 O 0.8275(3) 0.34514(16) 0.86513(6)
O4 O 1.0400(3) 0.39417(16) 0.77812(6)
O5 O 0.7576(3) 0.40404(16) 0.74597(6)
O6 O 1.0580(3) 0.21671(16) 0.70177(6)
#END
