
#######################################################################
#
#                 Cambridge Crystallographic Data Centre
#                                CCDC
#
#######################################################################
#
# If this CIF has been generated from an entry in the Cambridge
# Structural Database, then it will include bibliographic, chemical,
# crystal, experimental, refinement or atomic coordinate data resulting
# from the CCDC's data processing and validation procedures.
#
#######################################################################

data_CSD_CIF_BOGSIA
_audit_creation_date 2008-11-25
_audit_creation_method CSD-ConQuest-V1
_database_code_CSD BOGSIA
_database_code_depnum_ccdc_archive 'CCDC 709383'
_chemical_formula_sum 'C10 H10 N4 O4'
_chemical_formula_moiety
;
C10 H10 N4 O4
;
_journal_coeditor_code "IUCr DN2390"
_journal_coden_Cambridge 1370
_journal_volume 64
_journal_year 2008
_journal_page_first o2149
_journal_name_full 'Acta Crystallogr.,Sect.E:Struct.Rep.Online '
loop_
_publ_author_name
"Zhi-Gang Yin"
"Heng-Yu Qian"
"Yu-Zhen Chen"
"Jie Hu"
_chemical_name_systematic
;
But-2-enal 2,4-dinitrophenylhydrazone
;
_cell_volume   1161.591
_exptl_crystal_colour 'red'
_exptl_crystal_density_diffrn 1.432
_exptl_crystal_description 'block'
_exptl_crystal_preparation 'methanol'
_diffrn_ambient_temperature 293
#These two values have been output from a single CSD field.
_refine_ls_R_factor_gt 0.0418
_refine_ls_wR_factor_gt 0.0418
_symmetry_cell_setting monoclinic
_symmetry_space_group_name_H-M 'P 21/c'
_symmetry_Int_Tables_number 14
loop_
_symmetry_equiv_pos_site_id
_symmetry_equiv_pos_as_xyz
1 x,y,z
2 -x,1/2+y,1/2-z
3 -x,-y,-z
4 x,-1/2-y,-1/2+z
_cell_length_a 4.6699(8)
_cell_length_b 13.188(2)
_cell_length_c 18.880(3)
_cell_angle_alpha 90
_cell_angle_beta 92.565(3)
_cell_angle_gamma 90
_cell_formula_units_Z 4
loop_
_atom_type_symbol
_atom_type_radius_bond
C 0.68
H 0.23
N 0.68
O 0.68
loop_
_atom_site_label
_atom_site_type_symbol
_atom_site_fract_x
_atom_site_fract_y
_atom_site_fract_z
N1 N 0.0380(3) 0.35052(10) 0.11439(8)
N2 N 0.1292(3) 0.44685(9) 0.09740(8)
H1 H 0.26130 0.45520 0.06760
N3 N 0.2785(3) 0.65667(11) 0.05938(8)
N4 N -0.3915(4) 0.77803(13) 0.22849(9)
O1 O 0.4042(3) 0.58766(9) 0.02881(7)
O2 O 0.3266(3) 0.74610(9) 0.04720(8)
O3 O -0.5851(3) 0.75891(12) 0.26884(9)
O4 O -0.3125(3) 0.86398(12) 0.21507(9)
C1 C 0.1822(6) -0.01443(14) 0.09371(14)
H2 H 0.01570 -0.01910 0.12160
H3 H 0.34280 -0.04490 0.11910
H4 H 0.14690 -0.04920 0.04950
C2 C 0.2468(5) 0.09525(15) 0.07954(12)
H5 H 0.40030 0.10890 0.05130
C3 C 0.1060(5) 0.17380(13) 0.10341(10)
H6 H -0.05120 0.16150 0.13070
C4 C 0.1811(4) 0.27691(12) 0.08969(10)
H7 H 0.33700 0.29060 0.06230
C5 C 0.0079(4) 0.52752(12) 0.12821(9)
C6 C 0.0733(4) 0.63020(12) 0.11150(9)
C7 C -0.0580(4) 0.71065(13) 0.14479(10)
H8 H -0.01310 0.77710 0.13300
C8 C -0.2534(4) 0.69186(13) 0.19495(10)
C9 C -0.3232(4) 0.59241(15) 0.21334(10)
H9 H -0.45620 0.58060 0.24760
C10 C -0.1960(4) 0.51299(13) 0.18104(10)
H10 H -0.24390 0.44730 0.19390
#END
