
#######################################################################
#
#                 Cambridge Crystallographic Data Centre
#                                CCDC
#
#######################################################################
#
# If this CIF has been generated from an entry in the Cambridge
# Structural Database, then it will include bibliographic, chemical,
# crystal, experimental, refinement or atomic coordinate data resulting
# from the CCDC's data processing and validation procedures.
#
#######################################################################

data_CSD_CIF_BOHGEM
_audit_creation_date 2014-05-14
_audit_creation_method CSD-ConQuest-V1
_database_code_CSD BOHGEM
_database_code_depnum_ccdc_archive 'CCDC 1002693'
_chemical_formula_sum 'C16 H14 N4 O4'
_chemical_formula_moiety
;
C16 H14 N4 O4
;
_journal_coden_Cambridge 4
_journal_volume 136
_journal_year 2014
_journal_page_first 3208
_journal_name_full 'J.Am.Chem.Soc. '
loop_
_publ_author_name
"L.Adriaenssens"
"G.Gil-Ramirez"
"A.Frontera"
"D.Quinonero"
"E.C.Escudero-Adan"
"P.Ballester"
_chemical_name_systematic
;
2,2'-(1-(3,5-dinitrophenyl)ethane-1,1-diyl)bis(1H-pyrrole)
;
_cell_volume   3012.425
_exptl_crystal_colour 'yellow'
_exptl_crystal_density_diffrn 1.439
_exptl_crystal_description 'Block'
_diffrn_ambient_temperature 100
#These two values have been output from a single CSD field.
_refine_ls_R_factor_gt 0.0516
_refine_ls_wR_factor_gt 0.0516
_symmetry_cell_setting monoclinic
_symmetry_space_group_name_H-M 'P 21/c'
_symmetry_Int_Tables_number 14
loop_
_symmetry_equiv_pos_site_id
_symmetry_equiv_pos_as_xyz
1 x,y,z
2 -x,1/2+y,1/2-z
3 -x,-y,-z
4 x,-1/2-y,-1/2+z
_cell_length_a 10.6399(6)
_cell_length_b 24.5713(13)
_cell_length_c 11.5358(6)
_cell_angle_alpha 90
_cell_angle_beta 92.741(3)
_cell_angle_gamma 90
_cell_formula_units_Z 8
loop_
_atom_type_symbol
_atom_type_radius_bond
C 0.68
H 0.23
N 0.68
O 0.68
loop_
_atom_site_label
_atom_site_type_symbol
_atom_site_fract_x
_atom_site_fract_y
_atom_site_fract_z
N1 N 0.89059(8) 0.02271(3) 0.09335(6)
O1 O 1.11126(8) 0.23521(3) -0.11068(6)
C1 C 0.88871(9) 0.07832(3) 0.09641(6)
O2 O 1.11928(8) 0.31391(3) -0.02625(6)
N2 N 0.73880(8) 0.09149(3) 0.29081(6)
H1 H 0.6934(15) 0.0925(6) 0.2281(12)
C2 C 0.77511(11) 0.04912(4) -0.06216(7)
H2 H 0.72400 0.04880 -0.13200
N3 N 1.08400(8) 0.26652(3) -0.03307(6)
O3 O 0.75727(8) 0.34129(3) 0.23157(6)
C3 C 0.81739(10) 0.09577(3) 0.00063(6)
H3 H 0.79970 0.13250 -0.01970
N4 N 0.78668(8) 0.29710(3) 0.27267(6)
O4 O 0.75538(8) 0.28088(3) 0.36804(6)
C4 C 0.82202(10) 0.00469(4) -0.00306(7)
H4 H 0.80930 -0.03230 -0.02490
C5 C 0.94396(8) 0.10954(3) 0.20016(6)
C6 C 0.93802(8) 0.17025(3) 0.17123(6)
C7 C 1.00681(9) 0.19079(3) 0.08070(6)
H5 H 1.05440 0.16700 0.03500
C8 C 1.00510(8) 0.24599(3) 0.05823(6)
C9 C 0.93419(9) 0.28296(3) 0.11839(6)
H6 H 0.93340 0.32080 0.10120
C10 C 0.86480(9) 0.26086(3) 0.20521(6)
C11 C 0.86613(9) 0.20617(3) 0.23400(6)
H7 H 0.81850 0.19330 0.29590
C12 C 1.08260(9) 0.09398(3) 0.22866(7)
H8 H 1.11360 0.11360 0.29830
H9 H 1.13360 0.10380 0.16330
H10 H 1.08870 0.05470 0.24250
C13 C 0.86646(8) 0.09731(3) 0.30364(6)
C14 C 0.89916(9) 0.09291(3) 0.42062(6)
H11 H 0.98170 0.09540 0.45540
C15 C 0.78664(10) 0.08395(4) 0.47936(7)
H12 H 0.78020 0.07930 0.56060
C16 C 0.68844(10) 0.08327(4) 0.39679(7)
H13 H 0.60200 0.07810 0.41070
H14 H 0.9318(17) -0.0012(6) 0.1457(13)
O5 O 0.28944(8) 0.29584(3) 0.62901(6)
C17 C 0.22923(9) 0.08315(3) 0.70081(6)
N5 N 0.17090(8) 0.04134(3) 0.63974(6)
H15 H 0.20860 0.01870 0.59360
O6 O 0.35802(9) 0.33706(3) 0.78588(6)
N6 N 0.41521(9) 0.01827(3) 0.83134(6)
H16 H 0.35530 0.02730 0.87780
C18 C 0.13848(10) 0.10869(3) 0.76227(7)
H17 H 0.15120 0.13900 0.81260
O7 O 0.57188(9) 0.14904(3) 1.08643(6)
N7 N 0.33965(8) 0.29606(3) 0.72745(6)
C19 C 0.02179(10) 0.08149(4) 0.73674(8)
H18 H -0.05740 0.09030 0.76640
O8 O 0.58501(8) 0.23677(3) 1.08584(6)
N8 N 0.55346(9) 0.19351(3) 1.04079(6)
C20 C 0.04614(10) 0.04027(4) 0.66128(8)
H19 H -0.01390 0.01510 0.62930
C21 C 0.36796(9) 0.09483(3) 0.69020(6)
C22 C 0.39921(9) 0.14678(3) 0.75955(6)
C23 C 0.35626(9) 0.19673(3) 0.71541(7)
H20 H 0.3092(15) 0.1999(5) 0.6456(11)
C24 C 0.38247(9) 0.24393(3) 0.77723(7)
C25 C 0.44770(9) 0.24469(3) 0.88393(7)
H21 H 0.4670(15) 0.2776(6) 0.9261(11)
C26 C 0.48674(9) 0.19474(3) 0.92617(6)
C27 C 0.46572(9) 0.14619(3) 0.86688(6)
H22 H 0.5002(14) 0.1140(5) 0.8979(11)
C28 C 0.39578(11) 0.10465(3) 0.56121(7)
H23 H 0.4807(15) 0.1167(6) 0.5570(12)
H24 H 0.3366(15) 0.1303(6) 0.5240(11)
H25 H 0.3837(15) 0.0698(6) 0.5155(11)
C29 C 0.44439(9) 0.04618(3) 0.73269(6)
C30 C 0.54329(10) 0.01947(3) 0.68570(8)
H26 H 0.5851(15) 0.0307(6) 0.6168(12)
C31 C 0.57407(10) -0.02601(3) 0.75749(9)
H27 H 0.63860 -0.05190 0.74590
C32 C 0.4937(1) -0.02565(3) 0.84621(8)
H28 H 0.49240 -0.05140 0.90760
#END
