
#######################################################################
#
#                 Cambridge Crystallographic Data Centre
#                                CCDC
#
#######################################################################
#
# If this CIF has been generated from an entry in the Cambridge
# Structural Database, then it will include bibliographic, chemical,
# crystal, experimental, refinement or atomic coordinate data resulting
# from the CCDC's data processing and validation procedures.
#
#######################################################################

data_CSD_CIF_BOHLIT01
_audit_creation_date 1993-10-28
_audit_creation_method CSD-ConQuest-V1
_database_code_CSD BOHLIT01
_chemical_formula_sum 'C18 H12 N6 O6'
_chemical_formula_moiety
;
C18 H12 N6 O6
;
_journal_coden_Cambridge 1078
_journal_year 1993
_journal_name_full 'CSD Communication(Private Communication) '
loop_
_publ_author_name
"A.S.Dreiding"
"J.H.Bieri"
"R.Prewo"
"A.Linden"
"H.Hilpert"
"L.Hoesch"
_chemical_name_systematic
;
1,2-bis((2-Nitrophenyl)-azoxy)benzene
;
_chemical_melting_point 405.05
_cell_volume    934.954
_exptl_crystal_colour 'orange-yellow'
_exptl_crystal_density_diffrn 1.45
_exptl_special_details
;
Melting point range 405.05-405.85K
Structure is referred to in Helv. Chim. Acta 68, 325, 1985
;
_diffrn_ambient_temperature ?
_diffrn_special_details
;
The study was carried out at room temperature,in the range 283-303K

;
_refine_special_details
;
One NO2 group is partially disordered over two sites with occupancies of 
0.656:0.344.
;
#These two values have been output from a single CSD field.
_refine_ls_R_factor_gt 0.0505
_refine_ls_wR_factor_gt 0.0505
loop_
_citation_database_id_CSD
_citation_special_details
HACJIE "is a stereoisomer of this entry"
_symmetry_cell_setting monoclinic
_symmetry_space_group_name_H-M 'P 21'
_symmetry_Int_Tables_number 4
loop_
_symmetry_equiv_pos_site_id
_symmetry_equiv_pos_as_xyz
1 x,y,z
2 -x,1/2+y,-z
_cell_length_a 7.638(1)
_cell_length_b 11.635(2)
_cell_length_c 11.109(1)
_cell_angle_alpha 90
_cell_angle_beta 108.73(1)
_cell_angle_gamma 90
_cell_formula_units_Z 2
loop_
_atom_type_symbol
_atom_type_radius_bond
C 0.68
H 0.23
N 0.68
O 0.68
loop_
_atom_site_label
_atom_site_type_symbol
_atom_site_fract_x
_atom_site_fract_y
_atom_site_fract_z
C1 C 0.3084(4) 0.5991(3) 0.4326(3)
C2 C 0.3041(4) 0.7111(3) 0.4702(3)
C3 C 0.3008(5) 0.7989(3) 0.3864(4)
C4 C 0.3107(4) 0.5748(3) 0.3101(3)
C5 C 0.3071(5) 0.6624(3) 0.2271(4)
C6 C 0.3012(5) 0.7742(3) 0.2664(4)
N1 N 0.3080(3) 0.5087(2) 0.5217(2)
O1 O 0.4236(3) 0.5151(2) 0.6308(2)
N2 N 0.1875(3) 0.4310(2) 0.4789(2)
N3 N 0.3319(3) 0.4568(2) 0.2741(2)
O2 O 0.4591(3) 0.3995(2) 0.3479(2)
N4 N 0.2200(3) 0.4251(3) 0.1672(2)
C7 C 0.1910(4) 0.3357(3) 0.5606(3)
C8 C 0.1857(4) 0.3392(3) 0.6846(3)
N5 N 0.1714(4) 0.4480(3) 0.7467(3)
O3 O 0.0835(4) 0.5257(2) 0.6830(2)
O4 O 0.2434(4) 0.4537(3) 0.8621(2)
C9 C 0.1838(4) 0.2395(4) 0.7525(3)
C10 C 0.1866(6) 0.1358(4) 0.6975(4)
C11 C 0.1925(5) 0.1297(4) 0.5754(4)
C12 C 0.1920(5) 0.2282(3) 0.5075(3)
C13 C 0.2419(4) 0.3085(3) 0.1340(3)
C14 C 0.3923(5) 0.2616(3) 0.1077(3)
N6 N 0.541(1) 0.3347(9) 0.0903(5)
N7? N 0.578(2) 0.325(2) 0.155(1)
O5 O 0.5501(4) 0.4313(3) 0.1207(3)
O6 O 0.6469(7) 0.2926(4) 0.0416(6)
O7? O 0.717(1) 0.277(1) 0.198(1)
C15 C 0.3939(5) 0.1475(3) 0.0733(4)
C16 C 0.2446(6) 0.0799(3) 0.0609(3)
C17 C 0.0925(6) 0.1252(4) 0.0838(4)
C18 C 0.0921(5) 0.2378(4) 0.1189(3)
H1 H 0.289(4) 0.725(3) 0.551(3)
H2 H 0.301(4) 0.877(3) 0.411(3)
H3 H 0.312(4) 0.646(3) 0.152(3)
H4 H 0.310(4) 0.838(3) 0.213(3)
H5 H 0.186(5) 0.267(3) 0.840(3)
H6 H 0.185(5) 0.074(3) 0.740(3)
H7 H 0.200(5) 0.059(3) 0.543(4)
H8 H 0.192(3) 0.225(2) 0.425(2)
H9 H 0.505(5) 0.120(4) 0.063(3)
H10 H 0.234(4) 0.002(3) 0.044(3)
H11 H 0.000(4) 0.075(3) 0.081(3)
H12 H -0.018(5) 0.279(3) 0.132(3)
#END
