
#######################################################################
#
#                 Cambridge Crystallographic Data Centre
#                                CCDC
#
#######################################################################
#
# If this CIF has been generated from an entry in the Cambridge
# Structural Database, then it will include bibliographic, chemical,
# crystal, experimental, refinement or atomic coordinate data resulting
# from the CCDC's data processing and validation procedures.
#
#######################################################################

data_CSD_CIF_BOHLIT
_audit_creation_date 1983-07-20
_audit_creation_method CSD-ConQuest-V1
_database_code_CSD BOHLIT
_database_code_depnum_ccdc_archive 'CCDC 1113255'
_chemical_formula_sum 'C18 H12 N6 O6'
_chemical_formula_moiety
;
C18 H12 N6 O6
;
_journal_coeditor_code "IUCr A22244"
_journal_coden_Cambridge 591
_journal_volume 39
_journal_year 1983
_journal_page_first 99
_journal_name_full 'Acta Crystallogr.,Sect.C:Cryst.Struct.Commun. '
loop_
_publ_author_name
"A.Wakahara"
"T.Fujiwara"
"M.Ikeda"
"Y.Tamura"
"K.-I.Tomita"
_chemical_name_systematic
;
1,2-bis(2-Nitrophenyl)-benzene
;
_cell_volume    934.873
_exptl_crystal_density_diffrn 1.45
_diffrn_ambient_temperature ?
_diffrn_special_details
;
The study was carried out at room temperature,in the range 283-303K

;
#These two values have been output from a single CSD field.
_refine_ls_R_factor_gt 0.069
_refine_ls_wR_factor_gt 0.069
_symmetry_cell_setting monoclinic
_symmetry_space_group_name_H-M 'P 21'
_symmetry_Int_Tables_number 4
loop_
_symmetry_equiv_pos_site_id
_symmetry_equiv_pos_as_xyz
1 x,y,z
2 -x,1/2+y,-z
_cell_length_a 7.618(3)
_cell_length_b 11.677(3)
_cell_length_c 11.267(4)
_cell_angle_alpha 90
_cell_angle_beta 111.13(2)
_cell_angle_gamma 90
_cell_formula_units_Z 2
loop_
_atom_type_symbol
_atom_type_radius_bond
C 0.68
H 0.23
N 0.68
O 0.68
loop_
_atom_site_label
_atom_site_type_symbol
_atom_site_fract_x
_atom_site_fract_y
_atom_site_fract_z
C1 C 0.37830 0.82720 0.56890
C2 C 0.49810 0.80420 0.68800
C3 C 0.58400 0.88940 0.77570
C4 C 0.53530 1.00460 0.73210
C5 C 0.41470 1.02730 0.61390
C6 C 0.33460 0.94180 0.52880
N1 N 0.28840 0.73840 0.47930
N2 N 0.55750 0.68430 0.72720
O1 O 0.29030 0.74450 0.36810
O2 O 0.61090 0.62860 0.65230
C7 C 0.12920 0.56450 0.43830
C8 C 0.00350 0.56980 0.31700
C9 C -0.07130 0.46800 0.24520
C10 C -0.00880 0.36380 0.30230
C11 C 0.11300 0.35860 0.42230
C12 C 0.19020 0.45820 0.49440
N3 N 0.20730 0.65970 0.52130
N4 N -0.07420 0.67550 0.25190
O3 O -0.10040 0.75320 0.31780
O4 O -0.12010 0.68230 0.13790
C13 C 0.60970 0.53620 0.86740
C14 C 0.78200 0.49120 0.89130
C15 C 0.82220 0.37590 0.92700
C16 C 0.68320 0.30840 0.93840
C17 C 0.51100 0.35210 0.91900
C18 C 0.47280 0.46780 0.88020
N5 N 0.55630 0.65500 0.83370
N6 N 0.94110 0.56270 0.89310
O5 O 0.92930 0.66030 0.88050
O6 O 1.09910 0.52090 0.94950
H1 H 0.68100 0.87600 0.88000
H2 H 0.61100 1.06800 0.80100
H3 H 0.38200 1.10200 0.57000
H4 H 0.24200 0.95100 0.43800
H5 H -0.16400 0.47700 0.14700
H6 H -0.04400 0.30400 0.22900
H7 H 0.18100 0.29400 0.47900
H8 H 0.28700 0.45700 0.58200
H9 H 0.95300 0.34800 0.95200
H10 H 0.70600 0.23100 0.98000
H11 H 0.42000 0.30800 0.92400
H12 H 0.33800 0.49300 0.86000
#END
