
#######################################################################
#
#                 Cambridge Crystallographic Data Centre
#                                CCDC
#
#######################################################################
#
# If this CIF has been generated from an entry in the Cambridge
# Structural Database, then it will include bibliographic, chemical,
# crystal, experimental, refinement or atomic coordinate data resulting
# from the CCDC's data processing and validation procedures.
#
#######################################################################

data_CSD_CIF_BOHXUR
_audit_creation_date 1983-07-20
_audit_creation_method CSD-ConQuest-V1
_database_code_CSD BOHXUR
_chemical_formula_sum 'C24 H37 N1 O13'
_chemical_formula_moiety
;
C24 H37 N1 O13
;
_journal_coden_Cambridge 10
_journal_volume 65
_journal_year 1982
_journal_page_first 2251
_journal_name_full 'Helv.Chim.Acta '
loop_
_publ_author_name
"B.Aebischer"
"J.H.Bieri"
"R.Prewo"
"A.Vasella"
_chemical_name_systematic
;
7-Desoxy-1,2:3,4:8,9:11,12-tetra-O-isopropylidene-7-nitro-\b-D-manno-D-glycero
-\a-D-galacto-dodeco-1,5-pyranos-7-ulo-7,10-furanose
;
_chemical_melting_point 431.15
_cell_volume   1315.493
_exptl_crystal_colour 'colorless'
_exptl_special_details
;
Melting point range 431.15-483.15K

;
_diffrn_ambient_temperature ?
_diffrn_special_details
;
The study was carried out at room temperature,in the range 283-303K

;
#These two values have been output from a single CSD field.
_refine_ls_R_factor_gt 0.05
_refine_ls_wR_factor_gt 0.05
_symmetry_cell_setting triclinic
_symmetry_space_group_name_H-M 'P 1'
_symmetry_Int_Tables_number 1
loop_
_symmetry_equiv_pos_site_id
_symmetry_equiv_pos_as_xyz
1 x,y,z
_cell_length_a 9.914(1)
_cell_length_b 13.678(2)
_cell_length_c 11.105(2)
_cell_angle_alpha 67.85(1)
_cell_angle_beta 74.00(2)
_cell_angle_gamma 73.99(1)
_cell_formula_units_Z 2
loop_
_atom_type_symbol
_atom_type_radius_bond
C 0.68
H 0.23
N 0.68
O 0.68
loop_
_atom_site_label
_atom_site_type_symbol
_atom_site_fract_x
_atom_site_fract_y
_atom_site_fract_z
C1 C 0.61390 0.80700 0.71510
O1 O 0.72880 0.72450 0.69020
C2 C 0.67750 0.86730 0.77150
O2 O 0.79620 0.79010 0.82050
C3 C 0.57940 0.89940 0.88700
O3 O 0.47090 0.98800 0.83660
C4 C 0.49370 0.81350 0.98910
O4 O 0.34940 0.87060 1.00520
C5 C 0.50470 0.72230 0.93690
O5 O 0.49470 0.76420 0.80000
C6 C 0.38120 0.66280 1.01010
O6 O 0.37790 0.62230 1.14900
C7 C 0.38560 0.56810 0.96380
N1 N 0.34740 0.61340 0.82570
O7 O 0.24080 0.68370 0.81230
O8 O 0.42000 0.57550 0.73910
C8 C 0.27440 0.49690 1.06050
O9 O 0.18290 0.48250 0.99280
C9 C 0.36920 0.38550 1.10970
O10 O 0.34850 0.32840 1.03410
C10 C 0.52090 0.40550 1.06900
O11 O 0.52070 0.50210 0.95460
C11 C 0.62960 0.31400 1.03240
O12 O 0.63020 0.22560 1.15220
C12 C 0.78640 0.32640 0.98970
O13 O 0.86100 0.21950 1.04020
C13 C 0.85070 0.72430 0.73750
C14 C 0.90600 0.61150 0.82030
C15 C 0.96300 0.77250 0.62090
C16 C 0.34840 0.98260 0.94110
C17 C 0.36000 1.03240 1.03870
C18 C 0.21610 1.03540 0.88060
C19 C 0.20530 0.36900 1.01280
C20 C 0.10010 0.31680 1.13140
C21 C 0.19650 0.35630 0.88620
C22 C 0.76430 0.15400 1.13580
C23 C 0.75120 0.07430 1.07860
C24 C 0.81480 0.10280 1.26370
C25 C 0.52960 0.32710 0.42770
O14 O 0.40950 0.40660 0.38660
C26 C 0.46680 0.25510 0.56300
O15 O 0.34530 0.32570 0.60930
C27 C 0.56780 0.21180 0.66030
O16 O 0.68950 0.14420 0.60710
C28 C 0.63060 0.29920 0.66850
O17 O 0.77530 0.24740 0.68030
C29 C 0.61990 0.40050 0.54690
O18 O 0.63860 0.37380 0.42990
C30 C 0.73600 0.46280 0.52410
O19 O 0.72870 0.48670 0.64000
C31 C 0.73020 0.56860 0.40590
N2 N 0.76350 0.54230 0.27670
O20 O 0.87120 0.47530 0.26180
O21 O 0.68390 0.58970 0.19700
C32 C 0.84370 0.63250 0.39820
O22 O 0.95140 0.64430 0.28290
C33 C 0.75650 0.74620 0.38680
O23 O 0.78610 0.80000 0.24730
C34 C 0.60100 0.73190 0.43550
O24 O 0.59610 0.63440 0.41570
C35 C 0.49550 0.82420 0.36400
O25 O 0.49200 0.91430 0.40210
C36 C 0.34060 0.81070 0.40560
O26 O 0.26480 0.91900 0.38700
C37 C 0.28920 0.39990 0.49570
C38 C 0.23110 0.50960 0.51280
C39 C 0.17680 0.35760 0.47060
C40 C 0.81620 0.15650 0.63400
C41 C 0.87090 0.05850 0.74360
C42 C 0.92660 0.17770 0.50660
C43 C 0.93080 0.75650 0.20060
C44 C 1.03600 0.80870 0.22040
C45 C 0.94440 0.76340 0.05960
C46 C 0.34450 0.96860 0.42770
C47 C 0.33300 1.08630 0.34280
C48 C 0.29850 0.95360 0.57470
H1 H 0.58350 0.85050 0.64000
H2 H 0.70530 0.93450 0.69950
H3 H 0.63520 0.91980 0.92460
H4 H 0.52670 0.78550 1.07000
H5 H 0.59310 0.67730 0.94750
H6 H 0.29760 0.71300 0.99540
H7 H 0.45910 0.60120 1.16850
H8 H 0.21760 0.52860 1.13590
H9 H 0.34000 0.35220 1.20150
H10 H 0.54740 0.42060 1.14050
H11 H 0.60130 0.29740 0.96940
H12 H 0.80830 0.37260 1.02890
H13 H 0.81590 0.35380 0.89040
H14 H 0.92590 0.56420 0.77100
H15 H 0.98910 0.61050 0.84780
H16 H 0.83460 0.58450 0.90120
H17 H 1.04010 0.77250 0.64730
H18 H 0.99740 0.73120 0.56180
H19 H 0.92290 0.84610 0.56530
H20 H 0.36400 1.10960 0.99110
H21 H 0.27920 1.02310 1.11090
H22 H 0.44770 0.99530 1.07390
H23 H 0.13250 1.02490 0.95980
H24 H 0.21700 1.10430 0.82050
H25 H 0.21210 0.99940 0.83080
H26 H 0.00070 0.35790 1.11210
H27 H 0.11200 0.24110 1.14000
H28 H 0.11140 0.32020 1.21230
H29 H 0.22510 0.27820 0.88520
H30 H 0.09660 0.39200 0.86210
H31 H 0.27000 0.38810 0.81620
H32 H 0.84210 0.03870 1.06000
H33 H 0.67950 0.02760 1.13480
H34 H 0.71820 0.12220 0.99090
H35 H 0.73400 0.06530 1.31940
H36 H 0.90560 0.05140 1.25130
H37 H 0.80860 0.16380 1.30090
H38 H 0.56470 0.29180 0.36770
H39 H 0.43320 0.20100 0.55200
H40 H 0.51630 0.17090 0.74690
H41 H 0.58510 0.32060 0.74290
H42 H 0.52740 0.44620 0.55910
H43 H 0.82540 0.42250 0.50830
H44 H 0.64720 0.51550 0.66300
H45 H 0.88080 0.60010 0.47740
H46 H 0.78640 0.77580 0.43730
H47 H 0.57520 0.72620 0.52510
H48 H 0.53310 0.84360 0.26260
H49 H 0.32020 0.76870 0.50010
H50 H 0.31520 0.79110 0.34970
H51 H 0.20380 0.56510 0.41820
H52 H 0.14560 0.51190 0.59710
H53 H 0.30080 0.53880 0.52860
H54 H 0.10380 0.34770 0.54210
H55 H 0.14420 0.40910 0.38490
H56 H 0.21540 0.28920 0.45330
H57 H 0.90010 0.00010 0.71370
H58 H 0.95220 0.06970 0.76740
H59 H 0.78620 0.05070 0.82100
H60 H 1.01320 0.18850 0.52140
H61 H 0.94980 0.11780 0.46760
H62 H 0.88720 0.24250 0.43320
H63 H 1.13480 0.77020 0.20090
H64 H 1.02210 0.88320 0.16510
H65 H 1.02370 0.80520 0.31370
H66 H 0.93910 0.83420 -0.00010
H67 H 1.03120 0.73220 0.02620
H68 H 0.87070 0.73090 0.05450
H69 H 0.22970 1.12680 0.35690
H70 H 0.38890 1.12450 0.36990
H71 H 0.36160 1.09620 0.25270
H72 H 0.36100 0.98290 0.59950
H73 H 0.19340 0.99340 0.58950
H74 H 0.29390 0.88150 0.63780
#END
