
#######################################################################
#
#                 Cambridge Crystallographic Data Centre
#                                CCDC
#
#######################################################################
#
# If this CIF has been generated from an entry in the Cambridge
# Structural Database, then it will include bibliographic, chemical,
# crystal, experimental, refinement or atomic coordinate data resulting
# from the CCDC's data processing and validation procedures.
#
#######################################################################

data_CSD_CIF_BOJDOU
_audit_creation_date 2009-04-15
_audit_creation_method CSD-ConQuest-V1
_database_code_CSD BOJDOU
_database_code_depnum_ccdc_archive 'CCDC 688257'
_chemical_formula_sum 'C14 H12 N2 O4'
_chemical_formula_moiety
;
C14 H12 N2 O4
;
_journal_coden_Cambridge 471
_journal_volume 24
_journal_year 2008
_journal_page_first x237
_journal_name_full 'Anal.Sci.:X-Ray Struct.Anal.Online '
loop_
_publ_author_name
"H.Tanak"
"F.Ersahin"
"E.Agar"
"O.Buyukgungor"
"M.Yavuz"
_chemical_name_systematic
;
6-(((2-Methoxyphenyl)amino)methylidene)-4-nitrocyclohexa-2,4-dien-1-one
;
_chemical_melting_point 461
_cell_volume   2537.332
_exptl_crystal_density_diffrn 1.425
_exptl_special_details
;
Melting point range 461-465K

;
_exptl_crystal_preparation 'ethyl acetate'
_diffrn_ambient_temperature 293
#These two values have been output from a single CSD field.
_refine_ls_R_factor_gt 0.0617
_refine_ls_wR_factor_gt 0.0617
_symmetry_cell_setting orthorhombic
_symmetry_space_group_name_H-M 'P c a 21'
_symmetry_Int_Tables_number 29
loop_
_symmetry_equiv_pos_site_id
_symmetry_equiv_pos_as_xyz
1 x,y,z
2 -x,-y,1/2+z
3 1/2-x,y,1/2+z
4 1/2+x,-y,z
_cell_length_a 18.4391(15)
_cell_length_b 4.2710(2)
_cell_length_c 32.2187(16)
_cell_angle_alpha 90
_cell_angle_beta 90
_cell_angle_gamma 90
_cell_formula_units_Z 8
loop_
_atom_type_symbol
_atom_type_radius_bond
C 0.68
H 0.23
N 0.68
O 0.68
loop_
_atom_site_label
_atom_site_type_symbol
_atom_site_fract_x
_atom_site_fract_y
_atom_site_fract_z
C1 C 0.4296(5) 1.7795(16) 0.0902(2)
H1 H 0.42360 1.82640 0.06220
C2 C 0.3829(5) 1.904(2) 0.1193(3)
H2 H 0.34630 2.03900 0.11080
C3 C 0.3897(5) 1.8307(16) 0.1611(2)
H3 H 0.35750 1.91210 0.18050
C4 C 0.4455(5) 1.6344(18) 0.1734(2)
H4 H 0.45150 1.58760 0.20140
C5 C 0.4914(7) 1.5095(14) 0.1448(3)
C6 C 0.4854(6) 1.5850(19) 0.1027(2)
C7 C 0.5352(7) 1.547(2) 0.0333(3)
H5 H 0.57260 1.43800 0.01840
H6 H 0.54340 1.76820 0.03150
H7 H 0.48890 1.49700 0.02140
C8 C 0.6936(6) 0.7131(18) 0.2514(2)
C9 C 0.7373(5) 0.610(2) 0.2212(3)
H8 H 0.77560 0.47820 0.22810
C10 C 0.7277(5) 0.6914(17) 0.1806(2)
H9 H 0.75860 0.61230 0.16040
C11 C 0.6708(4) 0.8963(17) 0.1694(2)
C12 C 0.6216(6) 0.9963(13) 0.2012(3)
C13 C 0.6357(6) 0.9063(19) 0.2422(2)
H10 H 0.60580 0.97720 0.26340
C14 C 0.5641(5) 1.2019(16) 0.1928(2)
H11 H 0.53470 1.26730 0.21460
N1 N 0.5504(4) 1.3050(12) 0.15537(16)
H12 H 0.57870 1.24610 0.13570
N2 N 0.7042(6) 0.630(2) 0.2943(2)
O1 O 0.5363(4) 1.4490(11) 0.07738(17)
O2 O 0.6612(4) 0.9731(11) 0.13143(19)
O3 O 0.7542(7) 0.4421(19) 0.3015(3)
O4 O 0.6626(6) 0.736(2) 0.3213(2)
C15 C 0.1712(6) 0.2563(16) 0.5029(2)
H13 H 0.16670 0.20420 0.53080
C16 C 0.1228(5) 0.142(2) 0.4749(3)
H14 H 0.08460 0.01860 0.48440
C17 C 0.1285(5) 0.2024(17) 0.4333(2)
H15 H 0.09520 0.12000 0.41460
C18 C 0.1851(5) 0.3891(17) 0.4197(2)
H16 H 0.18950 0.43220 0.39150
C19 C 0.2354(6) 0.5135(14) 0.4473(3)
C20 C 0.2285(6) 0.4545(15) 0.4899(3)
C21 C 0.2813(7) 0.498(2) 0.5571(3)
H17 H 0.32080 0.60630 0.57010
H18 H 0.28870 0.27590 0.55950
H19 H 0.23670 0.55420 0.57050
C22 C 0.4372(5) 1.2509(15) 0.3361(2)
C23 C 0.4838(5) 1.3677(19) 0.3666(3)
H20 H 0.52280 1.49340 0.35900
C24 C 0.4728(5) 1.2997(16) 0.4073(2)
H21 H 0.50470 1.37750 0.42720
C25 C 0.4120(5) 1.1077(17) 0.4203(2)
C26 C 0.3676(6) 0.9958(16) 0.3880(3)
C27 C 0.3794(5) 1.0649(17) 0.3463(2)
H22 H 0.34880 0.98660 0.32590
C28 C 0.3053(5) 0.8033(15) 0.3974(2)
H23 H 0.27390 0.74640 0.37610
N3 N 0.2922(4) 0.7064(12) 0.43560(15)
H24 H 0.32130 0.76830 0.45480
N4 N 0.4504(5) 1.3196(19) 0.2926(2)
O5 O 0.2780(4) 0.5801(13) 0.51518(17)
O6 O 0.4032(4) 1.0340(12) 0.45827(17)
O7 O 0.4996(7) 1.4967(16) 0.2835(3)
O8 O 0.4123(5) 1.2059(17) 0.26632(19)
#END
