
#######################################################################
#
#                 Cambridge Crystallographic Data Centre
#                                CCDC
#
#######################################################################
#
# If this CIF has been generated from an entry in the Cambridge
# Structural Database, then it will include bibliographic, chemical,
# crystal, experimental, refinement or atomic coordinate data resulting
# from the CCDC's data processing and validation procedures.
#
#######################################################################

data_CSD_CIF_BOJHEN
_audit_creation_date 1983-07-20
_audit_creation_method CSD-ConQuest-V1
_database_code_CSD BOJHEN
_database_code_depnum_ccdc_archive 'CCDC 1113327'
_chemical_formula_sum 'C27 H38 N2 O13'
_chemical_formula_moiety
;
C27 H38 N2 O13
;
_journal_coden_Cambridge 599
_journal_volume 1
_journal_year 1982
_journal_page_first 9
_journal_name_full 'J.Carbohydr.Chem. '
loop_
_publ_author_name
"T.Suami"
"Y.Fukuda"
"J.Yamamoto"
"Y.Saito"
"M.Ito"
"S.Ohba"
_chemical_name_systematic
;
Methyl-2-(benzyloxycarbonyl)amino-2,7-dideoxy-3,4:9,10-di-O-isopropylidene-7-n
itro-\b-L-glycero-L-altro-D-galacto-undecodialdo-(methyl-(11R)-furanoside-(8,1
1))-pyranoside-(1,5)
;
_chemical_melting_point 436.15
_cell_volume   1526.731
_exptl_crystal_density_diffrn 1.3
_exptl_special_details
;
Melting point range 436.15-437.15K

;
_diffrn_ambient_temperature ?
_diffrn_special_details
;
The study was carried out at room temperature,in the range 283-303K

;
#These two values have been output from a single CSD field.
_refine_ls_R_factor_gt 0.049
_refine_ls_wR_factor_gt 0.049
_symmetry_cell_setting monoclinic
_symmetry_space_group_name_H-M 'P 21'
_symmetry_Int_Tables_number 4
loop_
_symmetry_equiv_pos_site_id
_symmetry_equiv_pos_as_xyz
1 x,y,z
2 -x,1/2+y,-z
_cell_length_a 11.197(1)
_cell_length_b 13.117(1)
_cell_length_c 10.399(1)
_cell_angle_alpha 90
_cell_angle_beta 91.58(2)
_cell_angle_gamma 90
_cell_formula_units_Z 2
loop_
_atom_type_symbol
_atom_type_radius_bond
C 0.68
N 0.68
O 0.68
loop_
_atom_site_label
_atom_site_type_symbol
_atom_site_fract_x
_atom_site_fract_y
_atom_site_fract_z
O1 O 0.58600 0.02930 0.91780
O2 O 0.67690 -0.13300 0.50620
O3 O 0.81330 -0.18560 0.65690
O4 O 0.62030 0.10030 0.51860
O5 O 0.42530 0.14420 0.55030
O6 O 0.39900 0.05110 0.81200
O7 O 0.31720 0.31470 0.74560
O8 O 0.22220 0.34270 1.01340
O9 O 0.34540 0.22140 1.05610
O10 O 0.04510 0.18220 0.73250
O11 O -0.07760 0.31370 0.94730
O12 O -0.19400 0.19100 0.85660
O13 O 0.04130 0.01630 0.81190
N1 N 0.67900 -0.07160 0.71330
N2 N 0.26390 0.26130 0.99300
C1 C 0.50490 -0.00790 0.82380
C2 C 0.57140 -0.00940 0.69820
C3 C 0.59940 0.09920 0.65480
C4 C 0.49310 0.17070 0.66440
C5 C 0.42100 0.15770 0.78430
C6 C 0.29950 0.20920 0.76670
C7 C 0.21620 0.19820 0.88000
C8 C 0.08930 0.23770 0.84390
C9 C -0.00290 0.22510 0.94470
C10 C -0.08580 0.13840 0.89380
C11 C -0.02780 0.10040 0.77660
C12 C 0.55090 0.01250 1.04800
C13 C 0.71890 -0.12810 0.61720
C14 C 0.86170 -0.25140 0.56070
C15 C 0.94430 -0.32600 0.62480
C16 C 1.05820 -0.33820 0.58290
C17 C 1.13350 -0.41250 0.63950
C18 C 1.09620 -0.46980 0.73680
C19 C 0.98230 -0.45880 0.78280
C20 C 0.90690 -0.38660 0.72620
C21 C 0.50760 0.12240 0.45120
C22 C 0.52980 0.21580 0.36710
C23 C 0.46280 0.02800 0.37780
C24 C -0.20090 0.28540 0.92940
C25 C -0.26550 0.36330 0.85030
C26 C -0.25570 0.26370 1.06310
C27 C 0.09140 -0.03570 0.69700
#END
