
#######################################################################
#
#                 Cambridge Crystallographic Data Centre
#                                CCDC
#
#######################################################################
#
# If this CIF has been generated from an entry in the Cambridge
# Structural Database, then it will include bibliographic, chemical,
# crystal, experimental, refinement or atomic coordinate data resulting
# from the CCDC's data processing and validation procedures.
#
#######################################################################

data_CSD_CIF_BOMMAR
_audit_creation_date 1983-07-20
_audit_creation_method CSD-ConQuest-V1
_database_code_CSD BOMMAR
_chemical_formula_sum 'C11 H9 N1 O3'
_chemical_formula_moiety
;
C11 H9 N1 O3
;
_journal_coden_Cambridge 189
_journal_volume 11
_journal_year 1982
_journal_page_first 1659
_journal_name_full 'Cryst.Struct.Commun. '
loop_
_publ_author_name
"T.Reitz"
"G.L.Grunewald"
"C.H.Park"
"B.K.Lee"
_chemical_name_systematic
;
6-Nitrobenzonorbornen-2-one
;
_cell_volume    470.583
_exptl_crystal_density_diffrn 1.43
_diffrn_ambient_temperature ?
_diffrn_special_details
;
The study was carried out at room temperature,in the range 283-303K

;
#These two values have been output from a single CSD field.
_refine_ls_R_factor_gt 0.046
_refine_ls_wR_factor_gt 0.046
_symmetry_cell_setting triclinic
_symmetry_space_group_name_H-M 'P -1'
_symmetry_Int_Tables_number 2
loop_
_symmetry_equiv_pos_site_id
_symmetry_equiv_pos_as_xyz
1 x,y,z
2 -x,-y,-z
_cell_length_a 6.251(1)
_cell_length_b 9.208(3)
_cell_length_c 9.389(2)
_cell_angle_alpha 95.60(2)
_cell_angle_beta 108.37(2)
_cell_angle_gamma 109.58(2)
_cell_formula_units_Z 2
loop_
_atom_type_symbol
_atom_type_radius_bond
C 0.68
H 0.23
N 0.68
O 0.68
loop_
_atom_site_label
_atom_site_type_symbol
_atom_site_fract_x
_atom_site_fract_y
_atom_site_fract_z
C1 C 0.56180 0.82370 0.68430
C2 C 0.34440 0.81140 0.54450
C3 C 0.14510 0.81220 0.60450
C4 C 0.26320 0.81490 0.77680
C5 C 0.17990 0.52760 0.83030
C6 C 0.25050 0.40070 0.81410
C7 C 0.42440 0.40040 0.75380
C8 C 0.53970 0.53410 0.70630
C9 C 0.52940 0.92540 0.81020
C41 C 0.29460 0.65900 0.78300
C81 C 0.47590 0.66260 0.72320
N1 N 0.13230 0.25930 0.86580
O1 O 0.01710 0.27040 0.94660
O2 O 0.15620 0.13720 0.82470
O3 O 0.33070 0.80200 0.41250
H1 H 0.71100 0.85800 0.66800
H13 H -0.00300 0.71800 0.54800
H23 H 0.11400 0.91100 0.59100
H4 H 0.18400 0.84500 0.84000
H5 H 0.06400 0.52500 0.87300
H7 H 0.47200 0.31400 0.74800
H8 H 0.65700 0.53300 0.66600
H19 H 0.64000 0.93200 0.91300
H29 H 0.54400 1.03100 0.79100
#END
