
#######################################################################
#
#                 Cambridge Crystallographic Data Centre
#                                CCDC
#
#######################################################################
#
# If this CIF has been generated from an entry in the Cambridge
# Structural Database, then it will include bibliographic, chemical,
# crystal, experimental, refinement or atomic coordinate data resulting
# from the CCDC's data processing and validation procedures.
#
#######################################################################

data_CSD_CIF_BONGAO
_audit_creation_date 2014-10-03
_audit_creation_method CSD-ConQuest-V1
_database_code_CSD BONGAO
_database_code_depnum_ccdc_archive 'CCDC 990315'
_chemical_formula_sum 'C4 H9 N1 O3'
_chemical_formula_moiety
;
C4 H9 N1 O3
;
_journal_coden_Cambridge 1350
_journal_volume 16
_journal_year 2014
_journal_page_first 10165
_journal_name_full 'CrystEngComm '
loop_
_publ_author_name
"E.A.Kapustin"
"V.S.Minkov"
"E.V.Boldyreva"
_chemical_name_systematic
;
(hydroxy(dimethyl)ammonio)acetate
;
_chemical_name_common
;
N,N,N-hydroxydimethylglycine
;
_cell_volume    566.310
_exptl_crystal_colour 'colorless'
_exptl_crystal_density_diffrn 1.397
_exptl_crystal_description 'prism'
_exptl_crystal_preparation 'water'
_diffrn_ambient_temperature 298
#These two values have been output from a single CSD field.
_refine_ls_R_factor_gt 0.0376
_refine_ls_wR_factor_gt 0.0376
_symmetry_cell_setting monoclinic
_symmetry_space_group_name_H-M 'P 21/n'
_symmetry_Int_Tables_number 14
loop_
_symmetry_equiv_pos_site_id
_symmetry_equiv_pos_as_xyz
1 x,y,z
2 1/2-x,1/2+y,1/2-z
3 -x,-y,-z
4 -1/2+x,-1/2-y,-1/2+z
_cell_length_a 5.5044(7)
_cell_length_b 10.0817(8)
_cell_length_c 10.2203(13)
_cell_angle_alpha 90
_cell_angle_beta 93.142(10)
_cell_angle_gamma 90
_cell_formula_units_Z 4
loop_
_atom_type_symbol
_atom_type_radius_bond
C 0.68
H 0.23
N 0.68
O 0.68
loop_
_atom_site_label
_atom_site_type_symbol
_atom_site_fract_x
_atom_site_fract_y
_atom_site_fract_z
O1 O 0.22415(17) 0.44620(9) 0.83665(8)
H1 H 0.30730 0.48470 0.89380
N1 N 0.07803(16) 0.54018(10) 0.76409(9)
O2 O 0.1370(2) 0.81448(12) 0.99317(12)
O3 O 0.3805(2) 0.64028(12) 0.96793(11)
C1 C -0.0117(2) 0.64463(13) 0.85475(12)
H2 H -0.13420 0.60560 0.90750
H3 H -0.08930 0.71470 0.80250
C2 C -0.1288(3) 0.46272(15) 0.70310(14)
H4 H -0.06690 0.39130 0.65250
H5 H -0.22800 0.51960 0.64700
H6 H -0.22490 0.42730 0.77050
C3 C 0.1880(3) 0.70625(14) 0.94656(12)
C4 C 0.2253(2) 0.60118(14) 0.66108(12)
H7 H 0.35690 0.65120 0.70210
H8 H 0.12380 0.65900 0.60710
H9 H 0.28960 0.53250 0.60780
#END
