
#######################################################################
#
#                 Cambridge Crystallographic Data Centre
#                                CCDC
#
#######################################################################
#
# If this CIF has been generated from an entry in the Cambridge
# Structural Database, then it will include bibliographic, chemical,
# crystal, experimental, refinement or atomic coordinate data resulting
# from the CCDC's data processing and validation procedures.
#
#######################################################################

data_CSD_CIF_BOPBIR
_audit_creation_date 2000-01-11
_audit_creation_method CSD-ConQuest-V1
_database_code_CSD BOPBIR
_database_code_depnum_ccdc_archive 'CCDC 137986'
_chemical_formula_sum 'C17 H17 N1 O3'
_chemical_formula_moiety
;
C17 H17 N1 O3
;
_journal_coeditor_code "IUCr CF1330"
_journal_coden_Cambridge 591
_journal_volume 55
_journal_year 1999
_journal_page_first 1829
_journal_name_full 'Acta Crystallogr.,Sect.C:Cryst.Struct.Commun. '
loop_
_publ_author_name
"S.Mukherjee"
"V.S.Parmar"
"W.Errington"
_chemical_name_systematic
;
5-Acetoxy-2,3-diphenylisoxazolidine
;
_chemical_melting_point 377.4
_cell_volume   1460.422
_exptl_crystal_colour 'colorless'
_exptl_crystal_density_diffrn 1.289
_exptl_crystal_description 'plate'
_exptl_crystal_preparation 'benzene'
_diffrn_ambient_temperature 180
#These two values have been output from a single CSD field.
_refine_ls_R_factor_gt 0.0505
_refine_ls_wR_factor_gt 0.0505
_symmetry_cell_setting monoclinic
_symmetry_space_group_name_H-M 'P 21/c'
_symmetry_Int_Tables_number 14
loop_
_symmetry_equiv_pos_site_id
_symmetry_equiv_pos_as_xyz
1 x,y,z
2 -x,1/2+y,1/2-z
3 -x,-y,-z
4 x,-1/2-y,-1/2+z
_cell_length_a 11.7637(13)
_cell_length_b 13.9610(15)
_cell_length_c 9.6642(10)
_cell_angle_alpha 90
_cell_angle_beta 113.054(3)
_cell_angle_gamma 90
_cell_formula_units_Z 4
loop_
_atom_type_symbol
_atom_type_radius_bond
C 0.68
H 0.23
N 0.68
O 0.68
loop_
_atom_site_label
_atom_site_type_symbol
_atom_site_fract_x
_atom_site_fract_y
_atom_site_fract_z
O1 O -0.00526(11) 0.15182(10) 0.75364(13)
O2 O 0.12873(12) 0.18138(10) 0.63145(14)
O3 O 0.28018(14) 0.19404(12) 0.86161(18)
N1 N -0.10865(13) 0.10730(12) 0.62731(16)
C1 C -0.17271(17) 0.18903(14) 0.5309(2)
H1 H -0.23250 0.21840 0.56880
C2 C -0.06624(18) 0.25912(15) 0.5518(2)
H2 H -0.04630 0.26000 0.46130
H3 H -0.08830 0.32480 0.57090
C3 C 0.04170(18) 0.22140(15) 0.6864(2)
H4 H 0.08100 0.27450 0.75890
C4 C 0.2471(2) 0.17418(15) 0.7307(3)
C5 C 0.3282(2) 0.13879(19) 0.6555(3)
H5 H 0.41440 0.13970 0.72730
H6 H 0.31880 0.18030 0.56980
H7 H 0.30450 0.07320 0.61990
C6 C -0.23970(17) 0.15554(15) 0.3702(2)
C7 C -0.35434(18) 0.19276(16) 0.2823(2)
H8 H -0.39170 0.23870 0.32370
C8 C -0.4153(2) 0.16348(18) 0.1339(2)
H9 H -0.49340 0.19010 0.07390
C9 C -0.3624(2) 0.09575(18) 0.0739(2)
H10 H -0.40470 0.07460 -0.02680
C10 C -0.2480(2) 0.05896(16) 0.1606(2)
H11 H -0.21110 0.01280 0.11910
C11 C -0.18653(19) 0.08872(15) 0.3078(2)
H12 H -0.10730 0.06320 0.36640
C12 C -0.17667(17) 0.05059(14) 0.6908(2)
C13 C -0.30489(18) 0.05062(15) 0.6321(2)
H13 H -0.34990 0.09270 0.55210
C14 C -0.36710(19) -0.01121(16) 0.6910(2)
H14 H -0.45490 -0.01210 0.64920
C15 C -0.30346(19) -0.07125(16) 0.8091(2)
H15 H -0.34680 -0.11290 0.84920
C16 C -0.17593(19) -0.07018(14) 0.8687(2)
H16 H -0.13130 -0.11080 0.95100
C17 C -0.11283(18) -0.01051(14) 0.8093(2)
H17 H -0.02510 -0.01130 0.84980
#END
