
#######################################################################
#
#                 Cambridge Crystallographic Data Centre
#                                CCDC
#
#######################################################################
#
# If this CIF has been generated from an entry in the Cambridge
# Structural Database, then it will include bibliographic, chemical,
# crystal, experimental, refinement or atomic coordinate data resulting
# from the CCDC's data processing and validation procedures.
#
#######################################################################

data_CSD_CIF_BOPCEP01
_audit_creation_date 2017-02-01
_audit_creation_method CSD-ConQuest-V1
_database_code_CSD BOPCEP01
_database_code_depnum_ccdc_archive 'CCDC 670893'
_chemical_formula_sum 'C15 H24 N2 O4'
_chemical_formula_moiety
;
C15 H24 N2 O4
;
_journal_coden_Cambridge 1078
_journal_year 2016
_journal_name_full 'CSD Communication(Private Communication) '
loop_
_publ_author_name
"F.Meneghetti"
_chemical_name_systematic
;
t-butyl 
2-hydroxy-2-(3-methyl-4,5-dihydro-1,2-oxazol-5-yl)-7-azabicyclo[2.2.1]heptane-
7-carboxylate
;
_cell_volume   1623.170
_exptl_crystal_colour 'colorless'
_exptl_crystal_density_diffrn 1.2
_exptl_crystal_description 'platelets'
_diffrn_ambient_temperature 293
#These two values have been output from a single CSD field.
_refine_ls_R_factor_gt 0.0425
_refine_ls_wR_factor_gt 0.0425
loop_
_citation_database_id_CSD
_citation_special_details
JARTUU "is a stereoisomer of this entry"
_symmetry_cell_setting monoclinic
_symmetry_space_group_name_H-M 'P 21/c'
_symmetry_Int_Tables_number 14
loop_
_symmetry_equiv_pos_site_id
_symmetry_equiv_pos_as_xyz
1 x,y,z
2 -x,1/2+y,1/2-z
3 -x,-y,-z
4 x,-1/2-y,-1/2+z
_cell_length_a 6.174(5)
_cell_length_b 8.216(4)
_cell_length_c 32.01(1)
_cell_angle_alpha 90
_cell_angle_beta 91.50(1)
_cell_angle_gamma 90
_cell_formula_units_Z 4
loop_
_atom_type_symbol
_atom_type_radius_bond
C 0.68
H 0.23
N 0.68
O 0.68
loop_
_atom_site_label
_atom_site_type_symbol
_atom_site_fract_x
_atom_site_fract_y
_atom_site_fract_z
O1 O 0.5673(5) 0.8056(4) 0.03162(8)
O2 O 0.2713(4) 0.5419(3) 0.02633(8)
O3 O 0.1296(6) 0.8252(4) 0.18959(10)
O4 O 0.2365(5) 0.5778(3) 0.16671(7)
N1 N 0.2625(5) 0.7898(4) 0.12483(9)
N2 N 0.2453(5) 0.5122(5) -0.01691(10)
C1 C 0.3850(6) 0.7960(5) 0.05761(11)
C2 C 0.3126(11) 0.9670(6) 0.07069(14)
C3 C 0.3238(10) 0.9605(5) 0.11770(14)
C4 C 0.5578(12) 0.9624(7) 0.1326(2)
C5 C 0.6420(8) 0.7917(7) 0.11984(18)
C6 C 0.4362(6) 0.7174(6) 0.10013(12)
C7 C 0.2007(7) 0.7075(5) 0.03519(13)
C8 C 0.1712(7) 0.6362(6) -0.03533(13)
C9 C 0.1344(10) 0.7768(6) -0.00706(13)
C10 C 0.1236(13) 0.6339(9) -0.08039(16)
C11 C 0.2038(8) 0.7386(6) 0.16327(14)
C12 C 0.1731(8) 0.4866(5) 0.20412(11)
C13 C -0.0669(12) 0.5010(11) 0.2095(2)
C14 C 0.2342(16) 0.3165(8) 0.1926(2)
C15 C 0.2972(14) 0.5452(10) 0.24245(19)
H1 H 0.168(7) 0.979(5) 0.0635(11)
H2 H 0.083(6) 0.692(4) 0.0543(10)
H3 H 0.441(7) 0.607(5) 0.0991(11)
H4 H 0.235(7) 0.874(6) -0.0135(12)
H5 H 0.674(8) 0.745(6) 0.1466(15)
H6 H 0.224(7) 1.027(5) 0.1315(12)
H7 H 0.751(8) 0.808(6) 0.0981(15)
H8 H -0.014(7) 0.806(5) -0.0089(11)
H9 H 0.551(8) 0.983(6) 0.1628(17)
H10 H 0.402(7) 1.041(6) 0.0590(12)
H11 H 0.637(7) 1.045(6) 0.1214(11)
H12 H 0.194(9) 0.716(7) -0.0958(16)
H13 H -0.124(10) 0.456(7) 0.1848(19)
H14 H 0.148(9) 0.525(7) -0.0946(15)
H15 H -0.113(9) 0.429(7) 0.2325(18)
H16 H 0.246(12) 0.477(10) 0.266(3)
H17 H -0.096(9) 0.612(7) 0.2135(14)
H18 H 0.244(9) 0.660(8) 0.2476(16)
H19 H 0.163(9) 0.289(7) 0.1663(18)
H20 H 0.449(11) 0.529(7) 0.2378(16)
H21 H 0.189(7) 0.249(6) 0.2149(14)
H22 H 0.396(10) 0.304(7) 0.1872(16)
H23 H -0.037(9) 0.653(6) -0.0863(14)
H24 H 0.601(9) 0.704(8) 0.0279(16)
#END
