
#######################################################################
#
#                 Cambridge Crystallographic Data Centre
#                                CCDC
#
#######################################################################
#
# If this CIF has been generated from an entry in the Cambridge
# Structural Database, then it will include bibliographic, chemical,
# crystal, experimental, refinement or atomic coordinate data resulting
# from the CCDC's data processing and validation procedures.
#
#######################################################################

data_CSD_CIF_BOPGAO
_audit_creation_date 2000-01-11
_audit_creation_method CSD-ConQuest-V1
_database_code_CSD BOPGAO
_database_code_depnum_ccdc_archive 'CCDC 137987'
_chemical_formula_sum 'C17 H16 N2 O5'
_chemical_formula_moiety
;
C17 H16 N2 O5
;
_journal_coeditor_code "IUCr CF1330"
_journal_coden_Cambridge 591
_journal_volume 55
_journal_year 1999
_journal_page_first 1829
_journal_name_full 'Acta Crystallogr.,Sect.C:Cryst.Struct.Commun. '
loop_
_publ_author_name
"S.Mukherjee"
"V.S.Parmar"
"W.Errington"
_chemical_name_systematic
;
5-Acetoxy-3-(4-nitrophenyl)-2-phenylisoxazolidine
;
_chemical_melting_point 405.2
_cell_volume   1595.581
_exptl_crystal_colour 'pale yellow'
_exptl_crystal_density_diffrn 1.367
_exptl_crystal_description 'block'
_exptl_crystal_preparation 'benzene'
_diffrn_ambient_temperature 180
#These two values have been output from a single CSD field.
_refine_ls_R_factor_gt 0.0431
_refine_ls_wR_factor_gt 0.0431
_symmetry_cell_setting monoclinic
_symmetry_space_group_name_H-M 'C c'
_symmetry_Int_Tables_number 9
loop_
_symmetry_equiv_pos_site_id
_symmetry_equiv_pos_as_xyz
1 x,y,z
2 x,-y,1/2+z
3 1/2+x,1/2+y,z
4 1/2+x,1/2-y,1/2+z
_cell_length_a 17.9115(13)
_cell_length_b 11.6279(13)
_cell_length_c 7.7010(7)
_cell_angle_alpha 90
_cell_angle_beta 95.842(3)
_cell_angle_gamma 90
_cell_formula_units_Z 4
loop_
_atom_type_symbol
_atom_type_radius_bond
C 0.68
H 0.23
N 0.68
O 0.68
loop_
_atom_site_label
_atom_site_type_symbol
_atom_site_fract_x
_atom_site_fract_y
_atom_site_fract_z
O1 O 0.60658(12) 0.73686(16) 0.5439(3)
O2 O 0.58414(10) 0.56527(16) 0.6939(2)
O3 O 0.46880(12) 0.58005(19) 0.5493(3)
O4 O 1.02155(15) 0.4889(3) 1.0266(4)
O5 O 0.96400(16) 0.3468(2) 0.8875(4)
N1 N 0.68700(13) 0.72061(19) 0.5441(3)
N2 N 0.96892(17) 0.4486(3) 0.9318(4)
C1 C 0.71957(16) 0.7439(2) 0.7266(3)
H1 H 0.73480 0.82650 0.73870
C2 C 0.65347(18) 0.7202(3) 0.8349(4)
H2 H 0.66530 0.65570 0.91710
H3 H 0.64150 0.78930 0.90200
C3 C 0.58912(16) 0.6897(2) 0.7015(4)
H4 H 0.54120 0.72320 0.73540
C4 C 0.51913(18) 0.5210(3) 0.6178(4)
C5 C 0.5166(2) 0.3929(2) 0.6325(5)
H5 H 0.48390 0.36150 0.53410
H6 H 0.49690 0.37160 0.74220
H7 H 0.56730 0.36160 0.63080
C6 C 0.71369(16) 0.7949(2) 0.4150(3)
C7 C 0.79020(17) 0.7992(2) 0.4027(4)
H8 H 0.82320 0.75520 0.48100
C8 C 0.81917(19) 0.8666(2) 0.2782(4)
H9 H 0.87180 0.86870 0.27090
C9 C 0.77112(19) 0.9313(2) 0.1633(4)
H10 H 0.79060 0.97730 0.07650
C10 C 0.69573(18) 0.9280(2) 0.1764(4)
H11 H 0.66320 0.97360 0.09950
C11 C 0.66532(17) 0.8594(2) 0.2998(4)
H12 H 0.61260 0.85660 0.30530
C12 C 0.78694(15) 0.6671(2) 0.7752(3)
C13 C 0.78278(16) 0.5495(2) 0.7363(4)
H13 H 0.73820 0.51860 0.67650
C14 C 0.84288(17) 0.4784(2) 0.7841(4)
H14 H 0.84050 0.39870 0.75710
C15 C 0.90670(16) 0.5256(3) 0.8723(4)
C16 C 0.91287(17) 0.6412(2) 0.9109(4)
H15 H 0.95750 0.67160 0.97070
C17 C 0.85219(16) 0.7120(2) 0.8602(4)
H16 H 0.85550 0.79210 0.88410
#END
