
#######################################################################
#
#                 Cambridge Crystallographic Data Centre
#                                CCDC
#
#######################################################################
#
# If this CIF has been generated from an entry in the Cambridge
# Structural Database, then it will include bibliographic, chemical,
# crystal, experimental, refinement or atomic coordinate data resulting
# from the CCDC's data processing and validation procedures.
#
#######################################################################

data_CSD_CIF_BOPJIA
_audit_creation_date 2009-08-25
_audit_creation_method CSD-ConQuest-V1
_database_code_CSD BOPJIA
_database_code_depnum_ccdc_archive 'CCDC 658028'
_chemical_formula_sum 'C42 H31 N1 O6'
_chemical_formula_moiety
;
C42 H31 N1 O6
;
_journal_coden_Cambridge 416
_journal_volume 18
_journal_year 2008
_journal_page_first 787
_journal_name_full 'J.Fluorescence '
loop_
_publ_author_name
"Fang Gao"
"Ting Xie"
"Zhibin Cheng"
"Nvdan Hu"
"Long Yang"
"Yun Gong"
"Shengtao Zhang"
"Hongru Li"
_chemical_name_systematic
;
((4-(2-(4-Nitrophenyl)vinyl)-1,3-phenylene)-bis(oxymethylene-4,1-phenylene))-b
is(phenylmethanone)
;
_chemical_name_common
;
(2',4'-bis(Benzobenzoy)-(4-nitrostilbene))
;
_chemical_melting_point 401.15
_cell_volume   1633.407
_exptl_crystal_colour 'yellow'
_exptl_crystal_density_diffrn 1.313
_exptl_special_details
;
Melting point range 401.15-403.15K

;
_exptl_crystal_description 'platelike'
_exptl_crystal_preparation 'benzene'
_diffrn_ambient_temperature 298
#These two values have been output from a single CSD field.
_refine_ls_R_factor_gt 0.0737
_refine_ls_wR_factor_gt 0.0737
_symmetry_cell_setting triclinic
_symmetry_space_group_name_H-M 'P -1'
_symmetry_Int_Tables_number 2
loop_
_symmetry_equiv_pos_site_id
_symmetry_equiv_pos_as_xyz
1 x,y,z
2 -x,-y,-z
_cell_length_a 7.6682(12)
_cell_length_b 13.139(2)
_cell_length_c 17.666(2)
_cell_angle_alpha 71.579(2)
_cell_angle_beta 82.682(3)
_cell_angle_gamma 75.611(2)
_cell_formula_units_Z 2
loop_
_atom_type_symbol
_atom_type_radius_bond
C 0.68
H 0.23
N 0.68
O 0.68
loop_
_atom_site_label
_atom_site_type_symbol
_atom_site_fract_x
_atom_site_fract_y
_atom_site_fract_z
N1 N 1.6270(15) -0.3602(9) 0.4435(6)
O1 O 1.0534(7) 0.2292(4) 0.5324(3)
O2 O 0.6690(7) 0.3298(4) 0.7407(3)
O3 O 1.2733(7) 0.3853(4) 0.1102(3)
O4 O 0.1165(7) 0.7873(4) 0.8125(3)
O5 O 1.6573(13) -0.3337(8) 0.3752(5)
O6 O 1.667(1) -0.4508(6) 0.4972(5)
C1 C 0.9739(10) 0.2017(7) 0.6065(5)
C2 C 0.8574(9) 0.2801(6) 0.6389(4)
H1 H 0.83350 0.35430 0.60990
C3 C 0.7793(10) 0.2451(7) 0.7144(5)
C4 C 0.8124(10) 0.1380(6) 0.7592(4)
H2 H 0.75810 0.11670 0.81010
C5 C 0.9288(10) 0.0613(6) 0.7274(5)
H3 H 0.95060 -0.01230 0.75760
C6 C 1.0129(10) 0.0894(7) 0.6532(5)
C7 C 1.1307(12) -0.0012(8) 0.6253(5)
H4 H 1.13940 -0.06950 0.66350
C8 C 1.2155(12) -0.0063(9) 0.5658(6)
H5 H 1.21720 0.06130 0.52800
C9 C 1.3219(12) -0.1046(9) 0.5408(7)
C10 C 1.3759(11) -0.2080(9) 0.5901(5)
H6 H 1.34900 -0.22220 0.64480
C11 C 1.4697(12) -0.2918(8) 0.5605(7)
H7 H 1.50040 -0.36220 0.59580
C12 C 1.5192(13) -0.2767(9) 0.4825(7)
C13 C 1.4676(11) -0.1709(9) 0.4306(5)
H8 H 1.49930 -0.15670 0.37630
C14 C 1.3691(11) -0.0875(7) 0.4604(6)
H9 H 1.33340 -0.01750 0.42520
C15 C 0.9864(9) 0.3325(5) 0.4776(4)
H10 H 1.02040 0.39050 0.49140
H11 H 0.85600 0.34740 0.47790
C16 C 1.0688(9) 0.3265(6) 0.3963(4)
C17 C 1.0879(9) 0.2301(6) 0.3759(4)
H12 H 1.04560 0.17150 0.41180
C18 C 1.1682(8) 0.2199(6) 0.3035(4)
H13 H 1.18200 0.15470 0.29080
C19 C 1.2293(9) 0.3101(6) 0.2489(4)
C20 C 1.2035(9) 0.4065(6) 0.2673(4)
H14 H 1.23850 0.46660 0.22970
C21 C 1.1272(9) 0.4167(6) 0.3399(5)
H15 H 1.11400 0.48230 0.35190
C22 C 1.2949(10) 0.3038(7) 0.1670(5)
C23 C 1.3953(10) 0.1963(7) 0.1524(5)
C24 C 1.5052(10) 0.1140(8) 0.2102(5)
H16 H 1.51710 0.12460 0.25880
C25 C 1.5951(10) 0.0175(7) 0.1940(5)
H17 H 1.66900 -0.03640 0.23170
C26 C 1.5771(12) 0.0002(8) 0.1237(6)
H18 H 1.63500 -0.06570 0.11360
C27 C 1.4721(14) 0.0816(9) 0.0684(5)
H19 H 1.46150 0.07140 0.01960
C28 C 1.3823(10) 0.1777(7) 0.0828(5)
H20 H 1.31080 0.23120 0.04400
C29 C 0.5545(10) 0.3015(6) 0.8104(4)
H21 H 0.62600 0.25600 0.85550
H22 H 0.47320 0.26030 0.80230
C30 C 0.4497(9) 0.4045(6) 0.8266(5)
C31 C 0.3419(9) 0.4861(6) 0.7685(4)
H23 H 0.33370 0.47530 0.71960
C32 C 0.2484(9) 0.5818(6) 0.7836(4)
H24 H 0.17870 0.63580 0.74440
C33 C 0.2562(9) 0.5995(6) 0.8569(5)
C34 C 0.3623(9) 0.5170(6) 0.9152(4)
H25 H 0.36610 0.52540 0.96520
C35 C 0.4612(8) 0.4230(6) 0.8976(4)
H26 H 0.53780 0.37090 0.93510
C36 C 0.1564(10) 0.7052(7) 0.8709(5)
C37 C 0.1069(9) 0.7190(7) 0.9519(5)
C38 C 0.0894(9) 0.8189(6) 0.9637(5)
H27 H 0.11170 0.87760 0.92060
C39 C 0.0399(11) 0.8355(6) 1.0372(5)
H28 H 0.03830 0.90270 1.04470
C40 C -0.0079(10) 0.7499(8) 1.1005(5)
H29 H -0.04540 0.75970 1.15040
C41 C 0.0019(10) 0.6514(7) 1.0874(5)
H30 H -0.02940 0.59410 1.12930
C42 C 0.0564(9) 0.6341(6) 1.0143(5)
H31 H 0.05950 0.56680 1.00670
#END
