
#######################################################################
#
#                 Cambridge Crystallographic Data Centre
#                                CCDC
#
#######################################################################
#
# If this CIF has been generated from an entry in the Cambridge
# Structural Database, then it will include bibliographic, chemical,
# crystal, experimental, refinement or atomic coordinate data resulting
# from the CCDC's data processing and validation procedures.
#
#######################################################################

data_CSD_CIF_BOPQUU
_audit_creation_date 2014-10-06
_audit_creation_method CSD-ConQuest-V1
_database_code_CSD BOPQUU
_database_code_depnum_ccdc_archive 'CCDC 1027568'
_chemical_formula_sum 'C13 H14 N2 O4'
_chemical_formula_moiety
;
C13 H14 N2 O4
;
_journal_coden_Cambridge 1078
_journal_year 2014
_journal_name_full 'CSD Communication(Private Communication) '
loop_
_publ_author_name
"R.K.Thalji"
"J.Gabriel Garcia"
"F.R.Fronczek"
_chemical_name_systematic
;
ethyl 3-(5-nitro-1H-indol-3-yl)propanoate
;
_cell_volume   1306.245
_exptl_crystal_colour 'yellow'
_exptl_crystal_density_diffrn 1.334
_exptl_crystal_description 'lath'
_exptl_crystal_preparation 'Re-crystallisation from solvent'
_diffrn_ambient_temperature 300
#These two values have been output from a single CSD field.
_refine_ls_R_factor_gt 0.0492
_refine_ls_wR_factor_gt 0.0492
_symmetry_cell_setting orthorhombic
_symmetry_space_group_name_H-M 'P c a 21'
_symmetry_Int_Tables_number 29
loop_
_symmetry_equiv_pos_site_id
_symmetry_equiv_pos_as_xyz
1 x,y,z
2 -x,-y,1/2+z
3 1/2-x,y,1/2+z
4 1/2+x,-y,z
_cell_length_a 22.256(2)
_cell_length_b 7.9043(5)
_cell_length_c 7.4253(9)
_cell_angle_alpha 90
_cell_angle_beta 90
_cell_angle_gamma 90
_cell_formula_units_Z 4
loop_
_atom_type_symbol
_atom_type_radius_bond
C 0.68
H 0.23
N 0.68
O 0.68
loop_
_atom_site_label
_atom_site_type_symbol
_atom_site_fract_x
_atom_site_fract_y
_atom_site_fract_z
O1 O 0.51199(14) 0.3532(5) 0.4106(6)
O2 O 0.54856(15) 0.1339(5) 0.2696(7)
O3 O 0.16888(14) 0.3630(4) 0.0780(5)
O4 O 0.26175(16) 0.4261(4) 0.0389(5)
N1 N 0.29919(18) -0.2785(5) 0.3675(5)
H1 H 0.2830(18) -0.369(5) 0.412(7)
N2 N 0.22204(16) 0.3289(4) 0.0904(5)
C1 C 0.5078(2) 0.2018(8) 0.3466(7)
C2 C 0.44827(16) 0.1227(5) 0.3831(7)
H2 H 0.41720 0.20810 0.37100
H3 H 0.44760 0.08240 0.50650
C3 C 0.43394(17) -0.0233(6) 0.2585(7)
H4 H 0.43580 0.01620 0.13490
H5 H 0.46430 -0.11020 0.27320
C4 C 0.37318(17) -0.0997(5) 0.2919(6)
C5 C 0.3601(2) -0.2538(5) 0.3608(6)
H6 H 0.38850 -0.33240 0.39840
C6 C 0.31673(17) -0.0214(5) 0.2535(5)
C7 C 0.29994(17) 0.1332(5) 0.1841(6)
H7 H 0.32860 0.21280 0.15060
C8 C 0.23955(18) 0.1665(5) 0.1656(5)
C9 C 0.19484(17) 0.0530(6) 0.2152(6)
H8 H 0.15460 0.08210 0.20170
C10 C 0.21017(18) -0.1016(5) 0.2840(6)
H9 H 0.18080 -0.17960 0.31660
C11 C 0.27109(19) -0.1391(5) 0.3037(6)
C12 C 0.5690(3) 0.4421(9) 0.3796(13)
H10 H 0.60080 0.38910 0.44880
H11 H 0.57970 0.43610 0.25310
C13 C 0.5630(3) 0.6022(10) 0.4289(15)
H12 H 0.53250 0.65520 0.35680
H13 H 0.60050 0.66030 0.41230
H14 H 0.55160 0.60730 0.55350
#END
