
#######################################################################
#
#                 Cambridge Crystallographic Data Centre
#                                CCDC
#
#######################################################################
#
# If this CIF has been generated from an entry in the Cambridge
# Structural Database, then it will include bibliographic, chemical,
# crystal, experimental, refinement or atomic coordinate data resulting
# from the CCDC's data processing and validation procedures.
#
#######################################################################

data_CSD_CIF_BOPQUU01
_audit_creation_date 2014-10-06
_audit_creation_method CSD-ConQuest-V1
_database_code_CSD BOPQUU01
_database_code_depnum_ccdc_archive 'CCDC 1027569'
_chemical_formula_sum 'C13 H14 N2 O4'
_chemical_formula_moiety
;
C13 H14 N2 O4
;
_journal_coden_Cambridge 1078
_journal_year 2014
_journal_name_full 'CSD Communication(Private Communication) '
loop_
_publ_author_name
"R.K.Thalji"
"J.Gabriel Garcia"
"F.R.Fronczek"
_chemical_name_systematic
;
ethyl 3-(5-nitro-1H-indol-3-yl)propanoate
;
_cell_volume   1254.739
_exptl_crystal_colour 'yellow'
_exptl_crystal_density_diffrn 1.388
_exptl_crystal_description 'lath'
_exptl_crystal_preparation 'Re-crystallisation from solvent'
_diffrn_ambient_temperature 90
#These two values have been output from a single CSD field.
_refine_ls_R_factor_gt 0.0277
_refine_ls_wR_factor_gt 0.0277
_symmetry_cell_setting orthorhombic
_symmetry_space_group_name_H-M 'P c a 21'
_symmetry_Int_Tables_number 29
loop_
_symmetry_equiv_pos_site_id
_symmetry_equiv_pos_as_xyz
1 x,y,z
2 -x,-y,1/2+z
3 1/2+x,-y,z
4 1/2-x,y,1/2+z
_cell_length_a 21.8972(6)
_cell_length_b 7.9955(2)
_cell_length_c 7.1667(2)
_cell_angle_alpha 90
_cell_angle_beta 90
_cell_angle_gamma 90
_cell_formula_units_Z 4
loop_
_atom_type_symbol
_atom_type_radius_bond
C 0.68
H 0.23
N 0.68
O 0.68
loop_
_atom_site_label
_atom_site_type_symbol
_atom_site_fract_x
_atom_site_fract_y
_atom_site_fract_z
O1 O 0.51397(5) 0.35379(13) 0.48885(17)
O2 O 0.55207(5) 0.12893(15) 0.63325(19)
O3 O 0.16759(5) 0.37630(13) 0.83359(17)
O4 O 0.26319(4) 0.43341(12) 0.87366(17)
N1 N 0.29609(5) -0.27189(14) 0.54568(18)
H1 H 0.2801(8) -0.356(2) 0.510(3)
N2 N 0.22195(5) 0.33838(14) 0.82101(17)
C1 C 0.51049(6) 0.19832(18) 0.5549(2)
C2 C 0.44904(6) 0.12134(17) 0.5159(2)
H2 H 0.44830 0.07890 0.38620
H3 H 0.41700 0.20820 0.52770
C3 C 0.43490(6) -0.02205(17) 0.6498(2)
H4 H 0.46610 -0.11050 0.63440
H5 H 0.43750 0.01960 0.77970
C4 C 0.37286(6) -0.09635(16) 0.6187(2)
C5 C 0.35865(7) -0.25048(17) 0.5515(2)
H6 H 0.38770 -0.33210 0.51390
C6 C 0.31561(6) -0.01472(17) 0.6560(2)
C7 C 0.30000(6) 0.14101(16) 0.7253(2)
H7 H 0.33040 0.22030 0.75890
C8 C 0.23852(6) 0.17712(16) 0.7440(2)
C9 C 0.19165(6) 0.06402(17) 0.6959(2)
H8 H 0.15000 0.09470 0.71090
C10 C 0.20669(6) -0.09061(16) 0.6272(2)
H9 H 0.17590 -0.16900 0.59410
C11 C 0.26858(6) -0.12957(16) 0.6072(2)
C12 C 0.57164(7) 0.4403(2) 0.5211(3)
H10 H 0.60430 0.39050 0.44340
H11 H 0.58360 0.43080 0.65380
C13 C 0.56261(9) 0.6164(2) 0.4708(4)
H12 H 0.55030 0.62410 0.33960
H13 H 0.60080 0.67790 0.48930
H14 H 0.53070 0.66490 0.54980
#END
