
#######################################################################
#
#                 Cambridge Crystallographic Data Centre
#                                CCDC
#
#######################################################################
#
# If this CIF has been generated from an entry in the Cambridge
# Structural Database, then it will include bibliographic, chemical,
# crystal, experimental, refinement or atomic coordinate data resulting
# from the CCDC's data processing and validation procedures.
#
#######################################################################

data_CSD_CIF_BOPWIM
_audit_creation_date 1983-09-01
_audit_creation_method CSD-ConQuest-V1
_database_code_CSD BOPWIM
_database_code_depnum_ccdc_archive 'CCDC 1113982'
_chemical_formula_sum 'C16 H24 N2 O3'
_chemical_formula_moiety
;
C16 H24 N2 O3
;
_journal_coden_Cambridge 35
_journal_volume 47
_journal_year 1982
_journal_page_first 4419
_journal_name_full 'J.Org.Chem. '
loop_
_publ_author_name
"M.L.M.Pennings"
"D.N.Reinhoudt"
"S.Harkema"
"G.J.van Hummel"
_chemical_name_systematic
;
N,N-Diethyl-1-hydroxy-4-methoxy-2-methyl-3-phenyl-2-azetidinecarboxamide
;
_cell_volume   3275.801
_exptl_crystal_density_diffrn 1.19
_diffrn_ambient_temperature ?
_diffrn_special_details
;
The study was carried out at room temperature,in the range 283-303K

;
#These two values have been output from a single CSD field.
_refine_ls_R_factor_gt 0.137
_refine_ls_wR_factor_gt 0.137
_symmetry_cell_setting monoclinic
_symmetry_space_group_name_H-M 'P 21/c'
_symmetry_Int_Tables_number 14
loop_
_symmetry_equiv_pos_site_id
_symmetry_equiv_pos_as_xyz
1 x,y,z
2 -x,1/2+y,1/2-z
3 -x,-y,-z
4 x,-1/2-y,-1/2+z
_cell_length_a 17.647(5)
_cell_length_b 14.358(4)
_cell_length_c 13.943(4)
_cell_angle_alpha 90
_cell_angle_beta 111.99(3)
_cell_angle_gamma 90
_cell_formula_units_Z 8
loop_
_atom_type_symbol
_atom_type_radius_bond
C 0.68
N 0.68
O 0.68
loop_
_atom_site_label
_atom_site_type_symbol
_atom_site_fract_x
_atom_site_fract_y
_atom_site_fract_z
C1 C 0.76080 0.85250 0.55970
C2 C 0.84200 0.79720 0.60310
C3 C 0.88120 0.88590 0.57660
C4 C 0.61770 0.85580 0.45700
C5 C 0.91800 0.95160 0.66960
C6 C 0.93740 0.87900 0.51660
C7 C 1.06650 0.84160 0.50400
C8 C 1.04890 0.77250 0.41710
C9 C 1.03800 0.78450 0.65660
C10 C 1.07190 0.68660 0.65240
C11 C 0.84560 0.70680 0.54910
C12 C 0.86210 0.62390 0.60920
C13 C 0.86730 0.53940 0.55650
C14 C 0.85330 0.53790 0.45710
C15 C 0.83410 0.61830 0.39570
C16 C 0.83160 0.70290 0.44530
N1 N 0.79850 0.91100 0.50350
N2 N 1.00820 0.83070 0.55590
O1 O 0.69360 0.80080 0.49740
O2 O 0.91900 0.91960 0.43200
O3 O 0.77610 1.00870 0.50570
C17 C 0.66260 -0.02730 0.16800
C18 C 0.61370 0.06670 0.13870
C19 C 0.69660 0.11310 0.20620
C20 C 0.66910 -0.18450 0.21510
C21 C 0.74450 0.14620 0.13940
C22 C 0.69710 0.18890 0.28420
C23 C 0.65770 0.33840 0.33130
C24 C 0.58240 0.32470 0.35290
C25 C 0.61270 0.29760 0.14560
C26 C 0.65680 0.37710 0.10680
C27 C 0.54260 0.07530 0.17310
C28 C 0.54780 0.06090 0.27470
C29 C 0.48020 0.06890 0.30190
C30 C 0.40440 0.08930 0.22730
C31 C 0.39730 0.10500 0.12830
C32 C 0.46620 0.09910 0.09920
N3 N 0.72240 0.02170 0.25780
N4 N 0.66110 0.27210 0.25380
O4 O 0.62090 -0.09820 0.19130
O5 O 0.73150 0.17000 0.37950
O6 O 0.80670 -0.00120 0.27170
#END
