
#######################################################################
#
#                 Cambridge Crystallographic Data Centre
#                                CCDC
#
#######################################################################
#
# If this CIF has been generated from an entry in the Cambridge
# Structural Database, then it will include bibliographic, chemical,
# crystal, experimental, refinement or atomic coordinate data resulting
# from the CCDC's data processing and validation procedures.
#
#######################################################################

data_CSD_CIF_BOQHEU
_audit_creation_date 2000-01-11
_audit_creation_method CSD-ConQuest-V1
_database_code_CSD BOQHEU
_database_code_depnum_ccdc_archive 'CCDC 137973'
_chemical_formula_sum 'C15 H13 N3 O6'
_chemical_formula_moiety
;
C15 H13 N3 O6
;
_journal_coeditor_code "IUCr BM1347"
_journal_coden_Cambridge 591
_journal_volume 55
_journal_year 1999
_journal_page_first 1920
_journal_name_full 'Acta Crystallogr.,Sect.C:Cryst.Struct.Commun. '
loop_
_publ_author_name
"O.Ya.Borbulevych"
"S.V.Kurbatov"
"G.S.Vaslyaeva"
"M.Yu.Antipin"
"L.P.Olekhnovich"
_chemical_name_systematic
;
2-(3,5-Dinitropyridyl-2-oxy)-3,5,7-trimethylcyclohepta-2,4,6-trien-1-one
;
_cell_volume   1565.975
_exptl_crystal_colour 'yellow'
_exptl_crystal_density_diffrn 1.405
_exptl_crystal_description 'square prism'
_diffrn_ambient_temperature ?
_diffrn_special_details
;
The study was carried out at room temperature,in the range 283-303K

;
#These two values have been output from a single CSD field.
_refine_ls_R_factor_gt 0.057
_refine_ls_wR_factor_gt 0.057
_symmetry_cell_setting monoclinic
_symmetry_space_group_name_H-M 'P 21/c'
_symmetry_Int_Tables_number 14
loop_
_symmetry_equiv_pos_site_id
_symmetry_equiv_pos_as_xyz
1 x,y,z
2 -x,1/2+y,1/2-z
3 -x,-y,-z
4 x,-1/2-y,-1/2+z
_cell_length_a 12.996(5)
_cell_length_b 10.106(5)
_cell_length_c 12.717(11)
_cell_angle_alpha 90
_cell_angle_beta 110.35(6)
_cell_angle_gamma 90
_cell_formula_units_Z 4
loop_
_atom_type_symbol
_atom_type_radius_bond
C 0.68
H 0.23
N 0.68
O 0.68
loop_
_atom_site_label
_atom_site_type_symbol
_atom_site_fract_x
_atom_site_fract_y
_atom_site_fract_z
N1 N 0.6673(2) 0.2146(2) 0.07079(15)
N2 N 0.7347(2) 0.0213(2) 0.3352(2)
N3 N 0.5436(2) 0.4391(2) 0.2207(2)
O1 O 0.7581(3) -0.0835(2) 0.3058(2)
O2 O 0.7360(2) 0.0399(2) 0.4280(2)
O3 O 0.5158(2) 0.4354(2) 0.3021(2)
O4 O 0.5263(2) 0.5342(2) 0.1571(2)
O5 O 0.76357(15) 0.02174(15) 0.12399(13)
O6 O 0.90525(15) 0.2039(2) 0.13702(14)
C1 C 0.7096(2) 0.1224(2) 0.1480(2)
C2 C 0.6957(2) 0.1262(2) 0.2522(2)
C3 C 0.6419(2) 0.2303(2) 0.2786(2)
H1 H 0.6333(18) 0.238(2) 0.347(2)
C4 C 0.6020(2) 0.3270(2) 0.1980(2)
C5 C 0.6157(2) 0.3158(2) 0.0956(2)
H2 H 0.584(2) 0.387(3) 0.040(2)
C6 C 0.7990(2) 0.0352(2) 0.0315(2)
C7 C 0.8782(2) 0.1418(2) 0.0480(2)
C8 C 0.9243(2) 0.1805(2) -0.0372(2)
C9 C 0.9115(2) 0.1176(3) -0.1351(2)
H3 H 0.950(2) 0.159(3) -0.177(2)
C10 C 0.8548(2) 0.0016(3) -0.1847(2)
C11 C 0.7911(2) -0.0741(3) -0.1449(2)
H4 H 0.758(2) -0.152(3) -0.183(2)
C12 C 0.7608(2) -0.0609(2) -0.0472(2)
C13 C 0.9936(3) 0.3030(3) -0.0076(3)
H5 H 1.0558(10) 0.2874(8) 0.0592(11)
H6 H 0.9509(6) 0.3747(6) 0.0052(19)
H7 H 1.0185(16) 0.3254(13) -0.0681(9)
C14 C 0.8678(3) -0.0388(4) -0.2943(2)
H8 H 0.839(2) 0.0296(13) -0.3491(7)
H9 H 0.8285(19) -0.1196(15) -0.3207(12)
H10 H 0.9442(4) -0.052(3) -0.2825(6)
C15 C 0.6813(3) -0.1617(3) -0.0336(3)
H11 H 0.6519(15) -0.2124(16) -0.1014(8)
H12 H 0.6226(11) -0.1175(3) -0.018(2)
H13 H 0.7186(5) -0.2197(15) 0.0276(13)
#END
