
#######################################################################
#
#                 Cambridge Crystallographic Data Centre
#                                CCDC
#
#######################################################################
#
# If this CIF has been generated from an entry in the Cambridge
# Structural Database, then it will include bibliographic, chemical,
# crystal, experimental, refinement or atomic coordinate data resulting
# from the CCDC's data processing and validation procedures.
#
#######################################################################

data_CSD_CIF_BOQWUZ
_audit_creation_date 2001-12-19
_audit_creation_method CSD-ConQuest-V1
_database_code_CSD BOQWUZ
_database_code_depnum_ccdc_archive 'CCDC 172224'
_chemical_formula_sum 'C4 H4 N4 O7'
_chemical_formula_moiety
;
C4 H4 N4 O7
;
_journal_coeditor_code "IUCr OM6043"
_journal_coden_Cambridge 1370
_journal_volume 57
_journal_year 2001
_journal_page_first o891
_journal_name_full 'Acta Crystallogr.,Sect.E:Struct.Rep.Online '
loop_
_publ_author_name
"R.D.Gilardi"
"R.J.Butcher"
_chemical_name_systematic
;
6,8-Diaza-6,8-dinitro-2,4-dioxabicyclo(3.3.0)octan-3-one
;
_cell_volume    748.748
_exptl_crystal_colour 'colorless'
_exptl_crystal_density_diffrn 1.953
_exptl_crystal_description 'octahedron'
_diffrn_ambient_temperature 293
#These two values have been output from a single CSD field.
_refine_ls_R_factor_gt 0.0333
_refine_ls_wR_factor_gt 0.0333
_symmetry_cell_setting orthorhombic
_symmetry_space_group_name_H-M 'P 21 21 21'
_symmetry_Int_Tables_number 19
loop_
_symmetry_equiv_pos_site_id
_symmetry_equiv_pos_as_xyz
1 x,y,z
2 1/2-x,-y,1/2+z
3 -x,1/2+y,1/2-z
4 1/2+x,1/2-y,-z
_cell_length_a 6.7249(5)
_cell_length_b 9.979(2)
_cell_length_c 11.1574(10)
_cell_angle_alpha 90
_cell_angle_beta 90
_cell_angle_gamma 90
_cell_formula_units_Z 4
loop_
_atom_type_symbol
_atom_type_radius_bond
C 0.68
H 0.23
N 0.68
O 0.68
loop_
_atom_site_label
_atom_site_type_symbol
_atom_site_fract_x
_atom_site_fract_y
_atom_site_fract_z
O1 O 0.2215(2) 0.12580(14) 0.51995(12)
O2 O -0.0907(2) 0.06886(16) 0.47342(15)
O3 O 0.16679(18) -0.01969(13) 0.37260(11)
O4 O 0.5899(3) 0.18155(14) 0.68059(14)
O5 O 0.7293(2) -0.01084(19) 0.71922(13)
O6 O 0.4497(3) -0.22123(14) 0.24039(12)
O7 O 0.6257(3) -0.32115(13) 0.37769(14)
N1 N 0.5056(2) 0.00221(14) 0.57590(12)
N2 N 0.6181(2) 0.06247(16) 0.66343(13)
N3 N 0.4611(2) -0.13675(13) 0.42254(12)
N4 N 0.5176(2) -0.23172(13) 0.34053(13)
C1 C 0.4159(3) 0.08496(15) 0.48455(14)
H1 H 0.485(3) 0.163(2) 0.4662(18)
C2 C 0.3792(2) -0.01207(15) 0.38072(13)
H2 H 0.422(4) 0.011(2) 0.3045(16)
C3 C 0.0826(3) 0.05866(17) 0.45753(14)
C4 C 0.5678(3) -0.13027(17) 0.53632(15)
H3 H 0.522(4) -0.198(3) 0.585(2)
H4 H 0.708(4) -0.134(2) 0.520(2)
#END
