
#######################################################################
#
#                 Cambridge Crystallographic Data Centre
#                                CCDC
#
#######################################################################
#
# If this CIF has been generated from an entry in the Cambridge
# Structural Database, then it will include bibliographic, chemical,
# crystal, experimental, refinement or atomic coordinate data resulting
# from the CCDC's data processing and validation procedures.
#
#######################################################################

data_CSD_CIF_BORHIA
_audit_creation_date 2009-08-25
_audit_creation_method CSD-ConQuest-V1
_database_code_CSD BORHIA
_database_code_depnum_ccdc_archive 'CCDC 253155'
_chemical_formula_sum 'C14 H14 N4 O4'
_chemical_formula_moiety
;
C14 H14 N4 O4
;
_journal_coden_Cambridge 814
_journal_volume 24
_journal_year 2006
_journal_page_first 349
_journal_name_full 'J.Mol.Graphics Model. '
loop_
_publ_author_name
"M.Vega-Teijido"
"I.Caracelli"
"J.Zukerman-Schpector"
_chemical_name_systematic
;
2-((5-Nitro-2-furyl)methylene)-N-(2-phenylethyl)hydrazinecarboxamide
;
_cell_volume   1423.760
_exptl_crystal_colour 'yellow'
_exptl_crystal_density_diffrn 1.41
_diffrn_ambient_temperature 293
#These two values have been output from a single CSD field.
_refine_ls_R_factor_gt 0.0733
_refine_ls_wR_factor_gt 0.0733
_symmetry_cell_setting triclinic
_symmetry_space_group_name_H-M 'P -1'
_symmetry_Int_Tables_number 2
loop_
_symmetry_equiv_pos_site_id
_symmetry_equiv_pos_as_xyz
1 x,y,z
2 -x,-y,-z
_cell_length_a 14.274(1)
_cell_length_b 11.894(1)
_cell_length_c 8.686(8)
_cell_angle_alpha 86.34(1)
_cell_angle_beta 76.93(1)
_cell_angle_gamma 82.66(1)
_cell_formula_units_Z 4
loop_
_atom_type_symbol
_atom_type_radius_bond
C 0.68
H 0.23
N 0.68
O 0.68
loop_
_atom_site_label
_atom_site_type_symbol
_atom_site_fract_x
_atom_site_fract_y
_atom_site_fract_z
O1 O -0.42036(17) 1.0142(2) 0.7882(3)
O2 O 0.00367(17) 0.7054(2) 0.4279(3)
O3 O -0.60316(19) 1.0938(2) 0.8420(3)
O4 O -0.5831(2) 1.2196(2) 1.0002(4)
N1 N -0.5526(2) 1.1406(3) 0.9096(4)
N2 N -0.1795(2) 0.8851(2) 0.6587(3)
N3 N -0.1348(2) 0.7962(2) 0.5683(3)
H1 H -0.17120 0.75130 0.51190
N4 N 0.0125(2) 0.8552(3) 0.5749(4)
H2 H -0.02390 0.90840 0.63850
C1 C -0.4522(3) 1.1040(3) 0.8823(4)
C2 C -0.3802(3) 1.1433(3) 0.9311(4)
H3 H -0.38530 1.20410 0.99590
C3 C -0.2954(3) 1.0735(3) 0.8639(4)
H4 H -0.23310 1.07890 0.87580
C4 C -0.3228(2) 0.9955(3) 0.7770(4)
C5 C -0.2718(2) 0.9029(3) 0.6831(4)
H5 H -0.30570 0.85590 0.63990
C6 C -0.0353(2) 0.7822(3) 0.5194(4)
C7 C 0.1168(2) 0.8548(3) 0.5264(4)
H6 H 0.13170 0.93210 0.50160
H7 H 0.14050 0.81220 0.43100
C8 C 0.1690(3) 0.8030(3) 0.6537(4)
H8 H 0.14580 0.84590 0.74890
H9 H 0.15400 0.72580 0.67890
C9 C 0.2778(2) 0.8026(3) 0.6011(4)
C10 C 0.3303(3) 0.7344(3) 0.4805(4)
H10 H 0.29750 0.69080 0.43000
C11 C 0.4298(3) 0.7291(4) 0.4328(4)
H11 H 0.46350 0.68130 0.35290
C12 C 0.4787(3) 0.7955(4) 0.5050(5)
H12 H 0.54580 0.79180 0.47530
C13 C 0.4279(3) 0.8674(4) 0.6211(5)
H13 H 0.46070 0.91360 0.66770
C14 C 0.3275(3) 0.8716(3) 0.6696(5)
H14 H 0.29370 0.92060 0.74790
O5 O 0.00449(17) 0.2823(2) 0.0309(3)
O6 O -0.23842(17) 0.6699(2) 0.4187(3)
O7 O 0.0672(2) 0.0548(2) -0.2171(3)
O8 O -0.0735(2) 0.1324(2) -0.0890(3)
N5 N 0.0147(2) 0.1240(3) -0.1256(4)
N6 N -0.0670(2) 0.4643(2) 0.2155(3)
N7 N -0.1034(2) 0.5543(2) 0.3085(3)
H15 H -0.06620 0.59830 0.34560
N8 N -0.2536(2) 0.5179(2) 0.2847(3)
H16 H -0.22660 0.47320 0.22960
C15 C 0.0632(3) 0.2002(3) -0.0583(4)
C16 C 0.1573(3) 0.2037(3) -0.0616(4)
H17 H 0.20970 0.15580 -0.11440
C17 C 0.1598(3) 0.2955(3) 0.0319(4)
H18 H 0.21480 0.32010 0.05270
C18 C 0.0665(2) 0.3411(3) 0.0860(4)
C19 C 0.0250(2) 0.4352(3) 0.1851(4)
H19 H 0.06470 0.47500 0.22730
C20 C -0.2020(2) 0.5853(3) 0.3399(4)
C21 C -0.3565(2) 0.5452(3) 0.2931(4)
H20 H -0.36870 0.62020 0.24570
H21 H -0.39100 0.54600 0.40290
C22 C -0.3933(2) 0.4585(3) 0.2068(4)
H22 H -0.38510 0.38460 0.25950
H23 H -0.46190 0.47910 0.21250
C23 C -0.3408(2) 0.4507(3) 0.0351(4)
C24 C -0.2590(3) 0.3737(3) -0.0124(4)
H24 H -0.23990 0.32030 0.06080
C25 C -0.2051(3) 0.3748(3) -0.1671(4)
H25 H -0.15100 0.32190 -0.19680
C26 C -0.2317(3) 0.4546(3) -0.2770(5)
H26 H -0.19410 0.45720 -0.37940
C27 C -0.3142(3) 0.5308(3) -0.2346(5)
H27 H -0.33350 0.58290 -0.30910
C28 C -0.3681(3) 0.5289(3) -0.0791(4)
H28 H -0.42330 0.58040 -0.05070
#END
