
#######################################################################
#
#                 Cambridge Crystallographic Data Centre
#                                CCDC
#
#######################################################################
#
# If this CIF has been generated from an entry in the Cambridge
# Structural Database, then it will include bibliographic, chemical,
# crystal, experimental, refinement or atomic coordinate data resulting
# from the CCDC's data processing and validation procedures.
#
#######################################################################

data_CSD_CIF_BORQAB
_audit_creation_date 2009-08-25
_audit_creation_method CSD-ConQuest-V1
_database_code_CSD BORQAB
_database_code_depnum_ccdc_archive 'CCDC 696198'
_chemical_formula_sum 'C24 H18 N2 O2'
_chemical_formula_moiety
;
C24 H18 N2 O2
;
_journal_coden_Cambridge 440
_journal_volume 33
_journal_year 2009
_journal_page_first 598
_journal_name_full 'New J.Chem. '
loop_
_publ_author_name
"K.Kowalski"
"N.J.Long"
"M.K.Kuimova"
"A.A.Kornyshev"
"A.G.Taylor"
"A.J.P.White"
_chemical_name_systematic
;
4'-Nitro-N,N-diphenyl-4-biphenylamine
;
_cell_volume   1884.337
_exptl_crystal_colour 'red-orange'
_exptl_crystal_density_diffrn 1.292
_exptl_crystal_description 'blocky needle'
_exptl_crystal_preparation 'dichloromethane/n-hexane'
_diffrn_ambient_temperature 173
#These two values have been output from a single CSD field.
_refine_ls_R_factor_gt 0.0447
_refine_ls_wR_factor_gt 0.0447
_symmetry_cell_setting monoclinic
_symmetry_space_group_name_H-M 'P 21/c'
_symmetry_Int_Tables_number 14
loop_
_symmetry_equiv_pos_site_id
_symmetry_equiv_pos_as_xyz
1 x,y,z
2 -x,1/2+y,1/2-z
3 -x,-y,-z
4 x,-1/2-y,-1/2+z
_cell_length_a 13.3702(3)
_cell_length_b 15.0329(3)
_cell_length_c 9.6952(2)
_cell_angle_alpha 90
_cell_angle_beta 104.763(2)
_cell_angle_gamma 90
_cell_formula_units_Z 4
loop_
_atom_type_symbol
_atom_type_radius_bond
C 0.68
H 0.23
N 0.68
O 0.68
loop_
_atom_site_label
_atom_site_type_symbol
_atom_site_fract_x
_atom_site_fract_y
_atom_site_fract_z
N1 N 0.36381(7) 0.83257(6) 0.68217(10)
C1 C 0.31476(8) 0.75032(6) 0.64322(11)
C2 C 0.33843(8) 0.67712(7) 0.73574(10)
H1 H 0.38900 0.68310 0.82400
C3 C 0.28888(8) 0.59631(6) 0.69978(10)
H2 H 0.30600 0.54780 0.76420
C4 C 0.21397(7) 0.58450(6) 0.5704(1)
C5 C 0.19373(7) 0.65700(6) 0.47716(10)
H3 H 0.14510 0.65040 0.38740
C6 C 0.24255(8) 0.73817(6) 0.51184(10)
H4 H 0.22690 0.78610 0.44590
C7 C 0.15773(7) 0.49955(6) 0.53427(10)
C8 C 0.14672(8) 0.44088(7) 0.64130(11)
H5 H 0.17420 0.45680 0.73840
C9 C 0.09658(8) 0.35998(7) 0.60902(11)
H6 H 0.09090 0.32010 0.68270
C10 C 0.05504(7) 0.33859(6) 0.46760(11)
C11 C 0.06114(9) 0.39537(7) 0.35820(11)
H7 H 0.03050 0.38010 0.26160
C12 C 0.11315(9) 0.47530(7) 0.39273(11)
H8 H 0.11860 0.51460 0.31830
C13 C 0.32111(8) 0.91504(6) 0.62469(11)
C14 C 0.21526(9) 0.93181(7) 0.59333(12)
H9 H 0.16910 0.88640 0.60650
C15 C 0.17705(10) 1.01467(8) 0.54283(12)
H10 H 0.10470 1.02550 0.52100
C16 C 0.24314(11) 1.08181(7) 0.52387(12)
H11 H 0.21650 1.13860 0.49020
C17 C 0.34825(11) 1.06543(7) 0.55433(13)
H12 H 0.39400 1.11120 0.54140
C18 C 0.38760(9) 0.98251(7) 0.60374(12)
H13 H 0.45990 0.97170 0.62330
C19 C 0.45881(8) 0.83592(6) 0.79087(12)
C20 C 0.46314(10) 0.87917(8) 0.91772(13)
H14 H 0.40290 0.90540 0.93530
C21 C 0.55815(14) 0.88356(10) 1.01987(16)
H15 H 0.56300 0.91350 1.10760
C22 C 0.64530(12) 0.84440(11) 0.9934(2)
H16 H 0.70960 0.84760 1.06310
C23 C 0.63898(11) 0.80145(10) 0.8680(2)
H17 H 0.69890 0.77430 0.85090
C24 C 0.54668(10) 0.79711(8) 0.76576(18)
H18 H 0.54300 0.76760 0.67800
N2 N 0.00388(7) 0.25249(6) 0.43283(11)
O1 O 0.01556(8) 0.19576(5) 0.52635(11)
O2 O -0.04867(9) 0.24059(7) 0.31063(10)
#END
