
#######################################################################
#
#                 Cambridge Crystallographic Data Centre
#                                CCDC
#
#######################################################################
#
# If this CIF has been generated from an entry in the Cambridge
# Structural Database, then it will include bibliographic, chemical,
# crystal, experimental, refinement or atomic coordinate data resulting
# from the CCDC's data processing and validation procedures.
#
#######################################################################

data_CSD_CIF_BOSWUB
_audit_creation_date 1983-09-01
_audit_creation_method CSD-ConQuest-V1
_database_code_CSD BOSWUB
_chemical_formula_sum 'C12 H15 N1 O8'
_chemical_formula_moiety
;
C12 H15 N1 O8
;
_journal_coden_Cambridge 5
_journal_volume 161
_journal_year 1982
_journal_page_first 79
_journal_name_full 'Z.Kristallogr.,Kristallgeom.,Kristallphys.,Kristallchem. '
loop_
_publ_author_name
"P.G.Jones"
"A.J.Kirby"
"R.Glenn"
"E.Hadicke"
_chemical_name_systematic
;
2-Nitrophenyl-\b-D-glucopyranoside
;
_cell_volume   1306.332
_exptl_crystal_colour 'colorless'
_exptl_crystal_density_diffrn 1.53
_diffrn_ambient_temperature ?
_diffrn_special_details
;
The study was carried out at room temperature,in the range 283-303K

;
_refine_special_details
;
The O atoms of the nitro group are 2-fold disordered. Sites with occupancy 
factors 0.8 are retained.
;
#These two values have been output from a single CSD field.
_refine_ls_R_factor_gt 0.031
_refine_ls_wR_factor_gt 0.031
_symmetry_cell_setting orthorhombic
_symmetry_space_group_name_H-M 'P 21 21 21'
_symmetry_Int_Tables_number 19
loop_
_symmetry_equiv_pos_site_id
_symmetry_equiv_pos_as_xyz
1 x,y,z
2 1/2+x,1/2-y,-z
3 -x,1/2+y,1/2-z
4 1/2-x,-y,1/2+z
_cell_length_a 4.700(2)
_cell_length_b 13.314(3)
_cell_length_c 20.876(5)
_cell_angle_alpha 90
_cell_angle_beta 90
_cell_angle_gamma 90
_cell_formula_units_Z 4
loop_
_atom_type_symbol
_atom_type_radius_bond
C 0.68
H 0.23
N 0.68
O 0.68
loop_
_atom_site_label
_atom_site_type_symbol
_atom_site_fract_x
_atom_site_fract_y
_atom_site_fract_z
C1 C 0.57690 0.99130 0.06500
H1 H 0.77180 1.00000 0.07760
O1 O 0.38610 0.99700 0.11690
C2 C 0.53240 0.88980 0.03480
H2 H 0.33430 0.88330 0.02440
O2 O 0.59500 0.81040 0.07800
H3 H 0.78700 0.78640 0.07460
C3 C 0.69860 0.88130 -0.02730
H4 H 0.89660 0.87680 -0.01640
O3 O 0.60850 0.79320 -0.06090
H5 H 0.78880 0.76710 -0.07460
C4 C 0.66690 0.97310 -0.06990
H6 H 0.48200 0.97180 -0.08940
O4 O 0.88980 0.96940 -0.11630
H7 H 0.82470 0.97400 -0.15980
C5 C 0.68790 1.07070 -0.03250
H8 H 0.88250 1.07850 -0.01940
C6 C 0.59650 1.15870 -0.07250
H9 H 0.40860 1.14570 -0.08850
H10 H 0.72620 1.16510 -0.10780
O5 O 0.59180 1.25140 -0.03840
H11 H 0.77200 1.26700 -0.01910
O6 O 0.49660 1.06680 0.02110
C7 C 0.42190 1.07160 0.16130
C8 C 0.26640 1.06520 0.21820
N1 N 0.07710 0.98100 0.23100
O7 O -0.02720 0.93290 0.18770
O8 O 0.01900 0.96110 0.28790
C9 C 0.29090 1.13800 0.26510
H12 H 0.18300 1.13230 0.30400
C10 C 0.46750 1.21760 0.25630
H13 H 0.48130 1.26900 0.28830
C11 C 0.62700 1.22390 0.20090
H14 H 0.75720 1.27880 0.19540
C12 C 0.60150 1.15230 0.15340
H15 H 0.70970 1.15890 0.11460
#END
