
#######################################################################
#
#                 Cambridge Crystallographic Data Centre
#                                CCDC
#
#######################################################################
#
# If this CIF has been generated from an entry in the Cambridge
# Structural Database, then it will include bibliographic, chemical,
# crystal, experimental, refinement or atomic coordinate data resulting
# from the CCDC's data processing and validation procedures.
#
#######################################################################

data_CSD_CIF_BOSWIP
_audit_creation_date 1983-09-01
_audit_creation_method CSD-ConQuest-V1
_database_code_CSD BOSWIP
_database_code_depnum_ccdc_archive 'CCDC 1114227'
_chemical_formula_sum 'C12 H17 N1 O9'
_chemical_formula_moiety
;
C12 H17 N1 O9
;
_journal_coden_Cambridge 95
_journal_year 1982
_journal_page_first 2050
_journal_name_full 'Izv.Akad.Nauk SSSR,Ser.Khim.(Russ.)(Russ.Chem.Bull.) '
loop_
_publ_author_name
"A.V.Prosyanik"
"A.I.Mishchenko"
"A.B.Zolotoi"
"N.L.Zaichenko"
"O.A.D'yachenko"
"L.O.Atovmyan"
"V.I.Markov"
"R.G.Kostyanovskii"
_chemical_name_systematic
;
2-Methyl-3,3-trans-4,5-tetrakis(methoxycarbonyl)-isoxazolidine
;
_chemical_melting_point 335.15
_cell_volume   1439.226
_exptl_crystal_density_diffrn 1.481
_diffrn_ambient_temperature ?
_diffrn_special_details
;
The study was carried out at room temperature,in the range 283-303K

;
#These two values have been output from a single CSD field.
_refine_ls_R_factor_gt 0.03
_refine_ls_wR_factor_gt 0.03
_symmetry_cell_setting monoclinic
_symmetry_space_group_name_H-M 'B 1 1 b'
_symmetry_Int_Tables_number 9
loop_
_symmetry_equiv_pos_site_id
_symmetry_equiv_pos_as_xyz
1 x,y,z
2 1/2+x,y,1/2+z
3 x,1/2+y,-z
4 1/2+x,1/2+y,1/2-z
_cell_length_a 8.626(2)
_cell_length_b 8.849(2)
_cell_length_c 21.152(6)
_cell_angle_alpha 90
_cell_angle_beta 90
_cell_angle_gamma 116.95(2)
_cell_formula_units_Z 4
loop_
_atom_type_symbol
_atom_type_radius_bond
C 0.68
H 0.23
N 0.68
O 0.68
loop_
_atom_site_label
_atom_site_type_symbol
_atom_site_fract_x
_atom_site_fract_y
_atom_site_fract_z
O1 O 0.41090 0.85100 0.08160
O2 O 0.18560 0.64320 -0.05620
O3 O 0.46080 0.83950 -0.04540
O4 O -0.13400 0.67710 0.12440
O5 O -0.08150 0.74770 0.02270
O6 O 0.18760 0.39350 0.18510
O7 O -0.04910 0.35870 0.13120
O8 O 0.10060 0.66660 0.24210
O9 O 0.20150 0.89140 0.17820
N1 N 0.36770 0.69470 0.11720
C1 C 0.26870 0.80800 0.03960
C2 C 0.10880 0.66550 0.07220
C3 C 0.18200 0.63690 0.13530
C4 C 0.29820 0.75160 -0.02530
C5 C 0.49490 0.80210 -0.10950
C6 C -0.04710 0.69970 0.07820
C7 C -0.23400 0.77770 0.02060
C8 C 0.10990 0.44990 0.15410
C9 C -0.12950 0.17690 0.14480
C10 C 0.15450 0.73170 0.19150
C11 C 0.16520 0.98820 0.22680
C12 C 0.49190 0.75080 0.17020
H1 H 0.25900 0.91500 0.03100
H2 H 0.06900 0.56200 0.04500
H3 H 0.42400 0.83600 -0.13800
H4 H 0.48200 0.67600 -0.11400
H5 H 0.64400 0.86900 -0.11000
H6 H -0.20800 0.87900 0.03600
H7 H -0.34800 0.67300 0.03800
H8 H -0.24400 0.82100 -0.02300
H9 H -0.06200 0.11800 0.12700
H10 H -0.16200 0.14200 0.19000
H11 H -0.22700 0.13800 0.11600
H12 H 0.03700 0.91800 0.23500
H13 H 0.19600 1.10500 0.20700
H14 H 0.21100 0.99000 0.25300
H15 H 0.60900 0.77600 0.15000
H16 H 0.49400 0.85500 0.19100
H17 H 0.45500 0.65000 0.20000
#END
