
#######################################################################
#
#                 Cambridge Crystallographic Data Centre
#                                CCDC
#
#######################################################################
#
# If this CIF has been generated from an entry in the Cambridge
# Structural Database, then it will include bibliographic, chemical,
# crystal, experimental, refinement or atomic coordinate data resulting
# from the CCDC's data processing and validation procedures.
#
#######################################################################

data_CSD_CIF_BOSWOV
_audit_creation_date 1983-09-01
_audit_creation_method CSD-ConQuest-V1
_database_code_CSD BOSWOV
_chemical_formula_sum 'C20 H22 N2 O14'
_chemical_formula_moiety
;
C20 H22 N2 O14
;
_journal_coden_Cambridge 5
_journal_volume 161
_journal_year 1982
_journal_page_first 137
_journal_name_full 'Z.Kristallogr.,Kristallgeom.,Kristallphys.,Kristallchem. '
loop_
_publ_author_name
"P.G.Jones"
"G.M.Sheldrick"
"A.J.Kirby"
"R.Glenn"
_chemical_name_systematic
;
2,3,4,6-Tetra-O-acetyl-3,4-dinitrophenyl-\b-D-glucopyranoside
;
_cell_volume   2445.997
_exptl_crystal_colour 'colorless'
_exptl_crystal_density_diffrn 1.4
_diffrn_ambient_temperature ?
_diffrn_special_details
;
The study was carried out at room temperature,in the range 283-303K

;
#These two values have been output from a single CSD field.
_refine_ls_R_factor_gt 0.044
_refine_ls_wR_factor_gt 0.044
_symmetry_cell_setting orthorhombic
_symmetry_space_group_name_H-M 'P 21 21 21'
_symmetry_Int_Tables_number 19
loop_
_symmetry_equiv_pos_site_id
_symmetry_equiv_pos_as_xyz
1 x,y,z
2 1/2+x,1/2-y,-z
3 -x,1/2+y,1/2-z
4 1/2-x,-y,1/2+z
_cell_length_a 5.654(3)
_cell_length_b 16.700(7)
_cell_length_c 25.905(10)
_cell_angle_alpha 90
_cell_angle_beta 90
_cell_angle_gamma 90
_cell_formula_units_Z 4
loop_
_atom_type_symbol
_atom_type_radius_bond
C 0.68
H 0.23
N 0.68
O 0.68
loop_
_atom_site_label
_atom_site_type_symbol
_atom_site_fract_x
_atom_site_fract_y
_atom_site_fract_z
C1 C 0.59710 0.91760 0.89560
H1 H 0.73390 0.92970 0.87500
O1 O 0.64800 0.92720 0.94810
C2 C 0.52420 0.83140 0.88580
H2 H 0.39580 0.81650 0.90810
O2 O 0.73060 0.78370 0.89480
C3 C 0.71170 0.72390 0.92920
O3 O 0.53710 0.70590 0.95040
C4 C 0.94840 0.68440 0.93660
H3 H 0.95460 0.65150 0.96690
H4 H 1.07460 0.72280 0.93760
H5 H 0.96510 0.65140 0.90650
C5 C 0.44370 0.82060 0.83060
H6 H 0.58240 0.82200 0.80930
O4 O 0.32030 0.74620 0.82600
C6 C 0.42680 0.68530 0.80180
O5 O 0.62570 0.68820 0.78660
C7 C 0.26250 0.61550 0.79730
H7 H 0.34160 0.57070 0.78190
H8 H 0.13210 0.63140 0.77590
H9 H 0.20500 0.60080 0.83080
C8 C 0.27550 0.88670 0.81360
H10 H 0.12520 0.88200 0.83050
O6 O 0.24970 0.87970 0.75870
C9 C 0.03450 0.89660 0.73850
O7 O -0.13100 0.91440 0.76450
C10 C 0.03700 0.89010 0.68180
H11 H -0.11000 0.90660 0.66660
H12 H 0.06930 0.83560 0.67240
H13 H 0.16210 0.92390 0.66940
C11 C 0.37860 0.96850 0.82710
H14 H 0.51920 0.97320 0.80650
O8 O 0.41500 0.96980 0.88190
C12 C 0.22760 1.04020 0.81480
H15 H 0.08770 1.04040 0.83580
H16 H 0.18370 1.04030 0.77900
O9 O 0.37280 1.10750 0.82660
C13 C 0.26570 1.17860 0.83020
O10 O 0.05660 1.18590 0.82540
C14 C 0.44000 1.24370 0.84140
H17 H 0.40080 1.26920 0.87350
H18 H 0.44590 1.28310 0.81450
H19 H 0.59140 1.21810 0.84440
C15 C 0.79450 0.98930 0.96210
C16 C 0.92490 0.97670 1.00610
H20 H 0.90990 0.92780 1.02540
C17 C 1.07500 1.03600 1.02210
N1 N 1.22600 1.01510 1.06730
O11 O 1.43520 1.02480 1.06270
O12 O 1.12720 0.98950 1.10510
C18 C 1.10040 1.10550 0.99490
N2 N 1.25790 1.17020 1.01260
O13 O 1.27350 1.18070 1.05890
O14 O 1.35340 1.21030 0.97950
C19 C 0.96670 1.11870 0.95190
H21 H 0.98070 1.16830 0.93340
C20 C 0.81070 1.06010 0.93460
H22 H 0.71630 1.06860 0.90430
#END
