
#######################################################################
#
#                 Cambridge Crystallographic Data Centre
#                                CCDC
#
#######################################################################
#
# If this CIF has been generated from an entry in the Cambridge
# Structural Database, then it will include bibliographic, chemical,
# crystal, experimental, refinement or atomic coordinate data resulting
# from the CCDC's data processing and validation procedures.
#
#######################################################################

data_CSD_CIF_BOVCUL
_audit_creation_date 2009-08-25
_audit_creation_method CSD-ConQuest-V1
_database_code_CSD BOVCUL
_database_code_depnum_ccdc_archive 'CCDC 712165'
_chemical_formula_sum 'C28 H28 N2 O4'
_chemical_formula_moiety
;
C28 H28 N2 O4
;
_journal_coeditor_code "IUCr HG2505"
_journal_coden_Cambridge 1370
_journal_volume 65
_journal_year 2009
_journal_page_first o1248
_journal_name_full 'Acta Crystallogr.,Sect.E:Struct.Rep.Online '
loop_
_publ_author_name
"Wen-Kui Dong"
"Jian-Chao Wu"
"Yin-Xia Sun"
"Jian Yao"
"Jun-Feng Tong"
_chemical_name_systematic
;
2,2'-(4,9-Dioxa-3,10-diazadodeca-2,10-diene-2,11-diyl)di(1-naphthol)
;
_cell_volume    586.905
_exptl_crystal_colour 'pale-yellow'
_exptl_crystal_density_diffrn 1.292
_exptl_crystal_description 'block'
_exptl_crystal_preparation 'ethanol/dichloromethane'
_diffrn_ambient_temperature 298
#These two values have been output from a single CSD field.
_refine_ls_R_factor_gt 0.0536
_refine_ls_wR_factor_gt 0.0536
_symmetry_cell_setting triclinic
_symmetry_space_group_name_H-M 'P -1'
_symmetry_Int_Tables_number 2
loop_
_symmetry_equiv_pos_site_id
_symmetry_equiv_pos_as_xyz
1 x,y,z
2 -x,-y,-z
_cell_length_a 6.9590(15)
_cell_length_b 8.6598(18)
_cell_length_c 10.596(2)
_cell_angle_alpha 105.841(2)
_cell_angle_beta 105.940(2)
_cell_angle_gamma 91.689(1)
_cell_formula_units_Z 1
loop_
_atom_type_symbol
_atom_type_radius_bond
C 0.68
H 0.23
N 0.68
O 0.68
loop_
_atom_site_label
_atom_site_type_symbol
_atom_site_fract_x
_atom_site_fract_y
_atom_site_fract_z
N1 N 0.4299(3) 0.3289(2) 0.31934(16)
O1 O 0.3505(2) 0.37340(18) 0.19981(14)
O2 O 0.7182(2) 0.30688(18) 0.52155(15)
H1 H 0.66650 0.33260 0.45190
C1 C 0.5112(3) 0.4251(3) 0.1562(2)
H2 H 0.59660 0.33960 0.14100
H3 H 0.59230 0.51890 0.22590
C2 C 0.4211(3) 0.4667(3) 0.0252(2)
H4 H 0.32770 0.54590 0.04000
H5 H 0.34600 0.37050 -0.04490
C3 C 0.2958(3) 0.2877(2) 0.3702(2)
C4 C 0.0759(3) 0.2939(3) 0.3091(2)
H6 H 0.05780 0.35010 0.24080
H7 H 0.01980 0.34960 0.37980
H8 H 0.00910 0.18590 0.26730
C5 C 0.5732(3) 0.2467(2) 0.5630(2)
C6 C 0.3690(3) 0.2344(2) 0.49419(19)
C7 C 0.2306(3) 0.1639(2) 0.5453(2)
H9 H 0.09370 0.15540 0.50090
C8 C 0.2912(3) 0.1088(2) 0.6565(2)
H10 H 0.19610 0.06080 0.68510
C9 C 0.4976(3) 0.1238(2) 0.7294(2)
C10 C 0.6397(3) 0.1961(2) 0.6838(2)
C11 C 0.8449(3) 0.2185(3) 0.7606(2)
H11 H 0.94000 0.26680 0.73210
C12 C 0.9047(4) 0.1696(3) 0.8761(3)
H12 H 1.03970 0.18720 0.92700
C13 C 0.7640(4) 0.0933(3) 0.9182(2)
H13 H 0.80680 0.05740 0.99550
C14 C 0.5661(3) 0.0711(3) 0.8475(2)
H14 H 0.47430 0.02070 0.87700
N1A N 0.5701(3) 0.6711(2) -0.31934(16)
O1A O 0.6495(2) 0.62660(18) -0.19981(14)
O2A O 0.2818(2) 0.69312(18) -0.52155(15)
H1A H 0.33350 0.66740 -0.45190
C1A C 0.4888(3) 0.5749(3) -0.1562(2)
H2A H 0.40340 0.66040 -0.14100
H3A H 0.40770 0.48110 -0.22590
C2A C 0.5789(3) 0.5333(3) -0.0252(2)
H4A H 0.67230 0.45410 -0.04000
H5A H 0.65400 0.62950 0.04490
C3A C 0.7042(3) 0.7123(2) -0.3702(2)
C4A C 0.9241(3) 0.7061(3) -0.3091(2)
H6A H 0.94220 0.64990 -0.24080
H7A H 0.98020 0.65040 -0.37980
H8A H 0.99090 0.81410 -0.26730
C5A C 0.4268(3) 0.7533(2) -0.5630(2)
C6A C 0.6310(3) 0.7656(2) -0.49419(19)
C7A C 0.7694(3) 0.8361(2) -0.5453(2)
H9A H 0.90630 0.84460 -0.50090
C8A C 0.7088(3) 0.8912(2) -0.6565(2)
H10A H 0.80390 0.93920 -0.68510
C9A C 0.5024(3) 0.8762(2) -0.7294(2)
C10A C 0.3603(3) 0.8039(2) -0.6838(2)
C11A C 0.1551(3) 0.7815(3) -0.7606(2)
H11A H 0.06000 0.73320 -0.73210
C12A C 0.0953(4) 0.8304(3) -0.8761(3)
H12A H -0.03970 0.81280 -0.92700
C13A C 0.2360(4) 0.9067(3) -0.9182(2)
H13A H 0.19320 0.94260 -0.99550
C14A C 0.4339(3) 0.9289(3) -0.8475(2)
H14A H 0.52570 0.97930 -0.87700
#END
