
#######################################################################
#
#                 Cambridge Crystallographic Data Centre
#                                CCDC
#
#######################################################################
#
# If this CIF has been generated from an entry in the Cambridge
# Structural Database, then it will include bibliographic, chemical,
# crystal, experimental, refinement or atomic coordinate data resulting
# from the CCDC's data processing and validation procedures.
#
#######################################################################

data_CSD_CIF_BOVYOB
_audit_creation_date 2009-08-25
_audit_creation_method CSD-ConQuest-V1
_database_code_CSD BOVYOB
_database_code_depnum_ccdc_archive 'CCDC 741589'
_chemical_formula_sum 'C30 H42 N2 O4'
_chemical_formula_moiety
;
C30 H42 N2 O4
;
_journal_coeditor_code "IUCr AT2805"
_journal_coden_Cambridge 1370
_journal_volume 65
_journal_year 2009
_journal_page_first o1547
_journal_name_full 'Acta Crystallogr.,Sect.E:Struct.Rep.Online '
loop_
_publ_author_name
"Jun Hu"
"Libing Yu"
"Ruji Wang"
"Yong Ju"
_chemical_name_systematic
;
1,2,5-Oxadiazolo[3,4-b]glycyrrhetinic acid
;
_chemical_name_common
;
11-oxo-2,3-(oxydinitrilo)olean-12-en-29-oic acid
;
_cell_volume   2693.272
_exptl_crystal_colour 'colorless'
_exptl_crystal_density_diffrn 1.22
_exptl_crystal_description 'prism'
_exptl_crystal_preparation 'chloroform/acetone'
_diffrn_ambient_temperature 295
#These two values have been output from a single CSD field.
_refine_ls_R_factor_gt 0.0485
_refine_ls_wR_factor_gt 0.0485
_symmetry_cell_setting orthorhombic
_symmetry_space_group_name_H-M 'P 21 21 21'
_symmetry_Int_Tables_number 19
loop_
_symmetry_equiv_pos_site_id
_symmetry_equiv_pos_as_xyz
1 x,y,z
2 1/2-x,-y,1/2+z
3 -x,1/2+y,1/2-z
4 1/2+x,1/2-y,-z
_cell_length_a 8.5489(11)
_cell_length_b 10.9019(18)
_cell_length_c 28.898(3)
_cell_angle_alpha 90
_cell_angle_beta 90
_cell_angle_gamma 90
_cell_formula_units_Z 4
loop_
_atom_type_symbol
_atom_type_radius_bond
C 0.68
H 0.23
N 0.68
O 0.68
loop_
_atom_site_label
_atom_site_type_symbol
_atom_site_fract_x
_atom_site_fract_y
_atom_site_fract_z
O1 O 0.6409(6) -0.3844(3) 0.25922(12)
O2 O 0.4151(4) -0.0311(2) 0.41200(9)
O3 O 0.0227(4) 0.4128(3) 0.47645(11)
O4 O 0.0196(5) 0.6051(3) 0.50103(11)
H1 H -0.03800 0.57580 0.52080
N1 N 0.5282(6) -0.3188(3) 0.28470(14)
N2 N 0.7751(6) -0.3138(4) 0.25298(14)
C1 C 0.5253(6) -0.1096(4) 0.31919(14)
H2 H 0.45520 -0.14150 0.34270
H3 H 0.46530 -0.05740 0.29860
C2 C 0.5954(6) -0.2133(4) 0.29242(14)
C3 C 0.7457(6) -0.2096(4) 0.27309(14)
C4 C 0.8579(6) -0.1039(4) 0.27610(14)
C5 C 0.7758(5) 0.0033(4) 0.30352(13)
H4 H 0.71430 0.04850 0.28050
C6 C 0.8964(5) 0.0951(4) 0.32221(14)
H5 H 0.95020 0.05940 0.34850
H6 H 0.97340 0.11230 0.29850
C7 C 0.8171(5) 0.2144(4) 0.33693(14)
H7 H 0.77170 0.25300 0.30980
H8 H 0.89590 0.26960 0.34920
C8 C 0.6882(5) 0.1969(4) 0.37362(13)
C9 C 0.5807(5) 0.0872(3) 0.36035(13)
H9 H 0.51940 0.11730 0.33400
C10 C 0.6578(5) -0.0339(3) 0.34242(13)
C11 C 0.4616(5) 0.0705(4) 0.39885(14)
C12 C 0.3977(6) 0.1813(4) 0.41969(14)
H10 H 0.31300 0.17260 0.43960
C13 C 0.4519(5) 0.2939(3) 0.41227(13)
C14 C 0.5843(5) 0.3161(3) 0.37735(13)
C15 C 0.6873(5) 0.4283(4) 0.39076(15)
H11 H 0.76810 0.40110 0.41190
H12 H 0.73860 0.45870 0.36310
C16 C 0.5968(5) 0.5356(3) 0.41356(14)
H13 H 0.67120 0.59680 0.42400
H14 H 0.53020 0.57370 0.39050
C17 C 0.4960(5) 0.4953(4) 0.45462(14)
C18 C 0.3760(5) 0.4008(3) 0.43689(13)
H15 H 0.32510 0.36660 0.46440
C19 C 0.2459(5) 0.4588(4) 0.40792(14)
H16 H 0.29020 0.48720 0.37890
H17 H 0.16900 0.39630 0.40070
C20 C 0.1633(5) 0.5660(4) 0.43147(15)
C21 C 0.2844(6) 0.6604(4) 0.44773(17)
H18 H 0.33160 0.69900 0.42090
H19 H 0.23190 0.72370 0.46550
C22 C 0.4116(6) 0.6038(4) 0.47708(16)
H20 H 0.36590 0.57660 0.50600
H21 H 0.48820 0.66660 0.48430
C23 C 1.0152(6) -0.1466(5) 0.29607(17)
H22 H 0.99980 -0.17690 0.32690
H23 H 1.08680 -0.07880 0.29670
H24 H 1.05730 -0.21070 0.27700
C24 C 0.8894(7) -0.0563(4) 0.22619(13)
H25 H 0.79320 -0.02820 0.21280
H26 H 0.93160 -0.12160 0.20770
H27 H 0.96290 0.01020 0.22730
C25 C 0.7345(5) -0.1141(4) 0.38010(14)
H28 H 0.77780 -0.18650 0.36620
H29 H 0.65720 -0.13730 0.40260
H30 H 0.81620 -0.06850 0.39500
C26 C 0.7706(5) 0.1700(4) 0.42047(13)
H31 H 0.83430 0.09800 0.41750
H32 H 0.69320 0.15700 0.44400
H33 H 0.83510 0.23860 0.42880
C27 C 0.5036(6) 0.3478(4) 0.33047(13)
H34 H 0.44050 0.41990 0.33420
H35 H 0.43870 0.28040 0.32100
H36 H 0.58200 0.36250 0.30730
C28 C 0.5997(6) 0.4369(4) 0.49226(14)
H37 H 0.53560 0.41170 0.51780
H38 H 0.67530 0.49580 0.50270
H39 H 0.65280 0.36680 0.47970
C29 C 0.0481(6) 0.6278(5) 0.39767(16)
H40 H -0.02750 0.56870 0.38730
H41 H 0.10450 0.65920 0.37150
H42 H -0.00460 0.69400 0.41310
C30 C 0.0645(5) 0.5169(4) 0.47178(15)
#END
