
#######################################################################
#
#                 Cambridge Crystallographic Data Centre
#                                CCDC
#
#######################################################################
#
# If this CIF has been generated from an entry in the Cambridge
# Structural Database, then it will include bibliographic, chemical,
# crystal, experimental, refinement or atomic coordinate data resulting
# from the CCDC's data processing and validation procedures.
#
#######################################################################

data_CSD_CIF_BOWCUM
_audit_creation_date 2009-08-25
_audit_creation_method CSD-ConQuest-V1
_database_code_CSD BOWCUM
_database_code_depnum_ccdc_archive 'CCDC 741147'
_chemical_formula_sum 'C25 H13 N1 O6'
_chemical_formula_moiety
;
C25 H13 N1 O6
;
_journal_coden_Cambridge 1336
_journal_volume 11
_journal_year 2009
_journal_page_first 2385
_journal_name_full 'Org.Lett. '
loop_
_publ_author_name
"Guan-Wu Wang"
"Jie Gao"
_chemical_name_systematic
;
3'-(3-Nitrophenyl)-dispiro[indan-2,1'-cyclopropane-2',2''-indan]-1,1'',3,3''-t
etrone
;
_chemical_melting_point 471.15
_cell_volume   1924.762
_exptl_crystal_colour 'colorless'
_exptl_crystal_density_diffrn 1.461
_exptl_special_details
;
Melting point range 471.15-472.15K

;
_exptl_crystal_description 'prismatic'
_diffrn_ambient_temperature 293
#These two values have been output from a single CSD field.
_refine_ls_R_factor_gt 0.0544
_refine_ls_wR_factor_gt 0.0544
_symmetry_cell_setting monoclinic
_symmetry_space_group_name_H-M 'P 21/c'
_symmetry_Int_Tables_number 14
loop_
_symmetry_equiv_pos_site_id
_symmetry_equiv_pos_as_xyz
1 x,y,z
2 -x,1/2+y,1/2-z
3 -x,-y,-z
4 x,-1/2-y,-1/2+z
_cell_length_a 10.2632(12)
_cell_length_b 17.437(2)
_cell_length_c 11.4706(13)
_cell_angle_alpha 90
_cell_angle_beta 110.341(3)
_cell_angle_gamma 90
_cell_formula_units_Z 4
loop_
_atom_type_symbol
_atom_type_radius_bond
C 0.68
H 0.23
N 0.68
O 0.68
loop_
_atom_site_label
_atom_site_type_symbol
_atom_site_fract_x
_atom_site_fract_y
_atom_site_fract_z
O1 O 0.58034(19) 0.35439(11) 0.72306(17)
O2 O 0.36302(19) 0.44722(10) 0.99638(17)
O3 O 0.57264(18) 0.20665(11) 0.80519(17)
O4 O 0.30492(18) 0.28987(11) 1.04144(18)
O5 O 1.1142(2) 0.16003(14) 1.2351(3)
O6 O 0.9137(2) 0.11903(12) 1.2210(2)
N1 N 0.9885(3) 0.16620(15) 1.1983(2)
C1 C 0.4801(2) 0.36697(14) 0.8879(2)
C2 C 0.4594(2) 0.28191(14) 0.9223(2)
C3 C 0.5782(2) 0.32974(13) 1.0030(2)
H1 H 0.56350 0.34750 1.07860
C4 C 0.5012(3) 0.38423(15) 0.7663(2)
C5 C 0.3862(3) 0.43080(14) 0.9027(2)
C6 C 0.4777(3) 0.21641(15) 0.8425(2)
C7 C 0.3409(3) 0.25880(15) 0.9635(2)
C8 C 0.4049(3) 0.44682(14) 0.7073(2)
C9 C 0.3386(2) 0.47374(14) 0.7851(2)
C10 C 0.2479(3) 0.53519(15) 0.7511(3)
H2 H 0.20170 0.55290 0.80270
C11 C 0.2285(3) 0.56935(16) 0.6372(3)
H3 H 0.16940 0.61140 0.61280
C12 C 0.2948(3) 0.54252(17) 0.5591(3)
H4 H 0.27930 0.56640 0.48290
C13 C 0.3834(3) 0.48080(15) 0.5931(2)
H5 H 0.42780 0.46230 0.54060
C14 C 0.3597(3) 0.16375(14) 0.8262(2)
C15 C 0.2806(3) 0.18767(14) 0.8944(2)
C16 C 0.1657(3) 0.14628(15) 0.8962(3)
H6 H 0.11230 0.16280 0.94240
C17 C 0.1339(3) 0.07998(16) 0.8272(3)
H7 H 0.05780 0.05090 0.82670
C18 C 0.2136(3) 0.05570(16) 0.7582(3)
H8 H 0.19020 0.01050 0.71270
C19 C 0.3266(3) 0.09723(15) 0.7558(2)
H9 H 0.37900 0.08120 0.70850
C20 C 0.7275(2) 0.31185(14) 1.0254(2)
C21 C 0.8103(3) 0.35932(15) 0.9854(2)
H10 H 0.77210 0.40280 0.93920
C22 C 0.9500(3) 0.34332(18) 1.0129(3)
H11 H 1.00400 0.37530 0.98340
C23 C 1.0091(3) 0.28054(17) 1.0835(3)
H12 H 1.10320 0.27000 1.10390
C24 C 0.9258(3) 0.23407(15) 1.1230(2)
C25 C 0.7857(3) 0.24793(14) 1.0963(2)
H13 H 0.73200 0.21530 1.12520
#END
