
#######################################################################
#
#                 Cambridge Crystallographic Data Centre
#                                CCDC
#
#######################################################################
#
# If this CIF has been generated from an entry in the Cambridge
# Structural Database, then it will include bibliographic, chemical,
# crystal, experimental, refinement or atomic coordinate data resulting
# from the CCDC's data processing and validation procedures.
#
#######################################################################

data_CSD_CIF_BOWDOH
_audit_creation_date 2009-08-25
_audit_creation_method CSD-ConQuest-V1
_database_code_CSD BOWDOH
_database_code_depnum_ccdc_archive 'CCDC 712071'
_chemical_formula_sum 'C20 H24 N2 O3'
_chemical_formula_moiety
;
C20 H24 N2 O3
;
_journal_coden_Cambridge 1336
_journal_volume 11
_journal_year 2009
_journal_page_first 2333
_journal_name_full 'Org.Lett. '
loop_
_publ_author_name
"Yunfeng Chen"
"Cheng Zhong"
"J.L.Petersen"
"N.G.Akhmedov"
"Xiaodong Shi"
_chemical_name_systematic
;
(2R,3R,4S)-4-Methyl-3-nitro-2-phenyl-1-((S)-1-phenylethyl)piperidin-4-ol
;
_chemical_melting_point 408.65
_cell_volume   1930.582
_exptl_crystal_density_diffrn 1.171
_exptl_special_details
;
Melting point range 408.65-410.95K

;
_diffrn_ambient_temperature 293
#These two values have been output from a single CSD field.
_refine_ls_R_factor_gt 0.0527
_refine_ls_wR_factor_gt 0.0527
_symmetry_cell_setting orthorhombic
_symmetry_space_group_name_H-M 'P 21 21 21'
_symmetry_Int_Tables_number 19
loop_
_symmetry_equiv_pos_site_id
_symmetry_equiv_pos_as_xyz
1 x,y,z
2 1/2-x,-y,1/2+z
3 -x,1/2+y,1/2-z
4 1/2+x,1/2-y,-z
_cell_length_a 9.1658(11)
_cell_length_b 10.0683(12)
_cell_length_c 20.920(2)
_cell_angle_alpha 90
_cell_angle_beta 90
_cell_angle_gamma 90
_cell_formula_units_Z 4
loop_
_atom_type_symbol
_atom_type_radius_bond
C 0.68
H 0.23
N 0.68
O 0.68
loop_
_atom_site_label
_atom_site_type_symbol
_atom_site_fract_x
_atom_site_fract_y
_atom_site_fract_z
O1 O 0.3644(2) 0.55190(18) 0.95148(8)
O2 O 0.45655(19) 0.7122(3) 0.89703(8)
O3 O 0.1035(2) 0.68708(19) 0.98744(7)
H1 H 0.07300 0.73580 1.01590
N1 N -0.01202(17) 0.57521(18) 0.83562(8)
N2 N 0.35321(19) 0.6409(2) 0.91244(8)
C1 C 0.12966(19) 0.5407(2) 0.86458(9)
H2 H 0.11390 0.48610 0.90280
C2 C 0.2055(2) 0.6717(2) 0.88346(9)
H3 H 0.22260 0.72210 0.84410
C3 C 0.1200(3) 0.7622(2) 0.92942(10)
C4 C -0.0288(3) 0.7835(3) 0.89729(14)
H4 H -0.09150 0.83330 0.92590
H5 H -0.01560 0.83580 0.85880
C5 C -0.1029(2) 0.6533(2) 0.88005(13)
H6 H -0.12020 0.60220 0.91860
H7 H -0.19660 0.67160 0.86030
C6 C 0.2277(2) 0.4674(3) 0.81810(12)
C7 C 0.3024(3) 0.3534(3) 0.83793(19)
H8 H 0.28790 0.32140 0.87910
C8 C 0.3975(4) 0.2873(6) 0.7976(4)
H9 H 0.44680 0.21140 0.81090
C9 C 0.4171(5) 0.3399(10) 0.7351(4)
H10 H 0.48240 0.29900 0.70730
C10 C 0.3429(5) 0.4482(8) 0.7151(2)
H11 H 0.35530 0.47840 0.67350
C11 C 0.2471(3) 0.5160(5) 0.75618(13)
H12 H 0.19780 0.59150 0.74240
C12 C 0.1956(3) 0.8933(3) 0.94267(15)
H13 H 0.28700 0.87690 0.96370
H14 H 0.13490 0.94700 0.96970
H15 H 0.21280 0.93890 0.90310
C13 C -0.0907(2) 0.4570(2) 0.80927(10)
H16 H -0.01730 0.40440 0.78650
C14 C -0.2017(3) 0.5011(4) 0.75890(12)
H17 H -0.27410 0.55660 0.77860
H18 H -0.24790 0.42440 0.74070
H19 H -0.15270 0.55000 0.72590
C15 C -0.1567(2) 0.3652(2) 0.85899(10)
C16 C -0.0809(3) 0.2532(3) 0.88036(18)
H20 H 0.01090 0.23490 0.86360
C17 C -0.1397(4) 0.1682(3) 0.9263(2)
H21 H -0.08640 0.09480 0.93990
C18 C -0.2741(4) 0.1915(4) 0.95145(17)
H22 H -0.31350 0.13380 0.98160
C19 C -0.3505(3) 0.3008(3) 0.93191(14)
H23 H -0.44220 0.31780 0.94910
C20 C -0.2928(2) 0.3863(3) 0.88680(13)
H24 H -0.34670 0.46030 0.87460
#END
