
#######################################################################
#
#                 Cambridge Crystallographic Data Centre
#                                CCDC
#
#######################################################################
#
# If this CIF has been generated from an entry in the Cambridge
# Structural Database, then it will include bibliographic, chemical,
# crystal, experimental, refinement or atomic coordinate data resulting
# from the CCDC's data processing and validation procedures.
#
#######################################################################

data_CSD_CIF_BOWDEX
_audit_creation_date 2009-08-25
_audit_creation_method CSD-ConQuest-V1
_database_code_CSD BOWDEX
_database_code_depnum_ccdc_archive 'CCDC 712067'
_chemical_formula_sum 'C18 H26 N2 O3'
_chemical_formula_moiety
;
C18 H26 N2 O3
;
_journal_coden_Cambridge 1336
_journal_volume 11
_journal_year 2009
_journal_page_first 2333
_journal_name_full 'Org.Lett. '
loop_
_publ_author_name
"Yunfeng Chen"
"Cheng Zhong"
"J.L.Petersen"
"N.G.Akhmedov"
"Xiaodong Shi"
_chemical_name_systematic
;
(2R,3R,4S)-1-Cyclohexyl-4-methyl-3-nitro-2-phenylpiperidin-4-ol
;
_chemical_melting_point 416.45
_cell_volume   3467.691
_exptl_crystal_density_diffrn 1.22
_exptl_special_details
;
Melting point range 416.45-417.65K

;
_diffrn_ambient_temperature 293
#These two values have been output from a single CSD field.
_refine_ls_R_factor_gt 0.0456
_refine_ls_wR_factor_gt 0.0456
_symmetry_cell_setting orthorhombic
_symmetry_space_group_name_H-M 'P b c a'
_symmetry_Int_Tables_number 61
loop_
_symmetry_equiv_pos_site_id
_symmetry_equiv_pos_as_xyz
1 x,y,z
2 1/2-x,-y,1/2+z
3 -x,1/2+y,1/2-z
4 1/2+x,1/2-y,-z
5 -x,-y,-z
6 -1/2+x,y,-1/2-z
7 x,-1/2-y,-1/2+z
8 -1/2-x,-1/2+y,z
_cell_length_a 9.7178(8)
_cell_length_b 12.0387(10)
_cell_length_c 29.641(3)
_cell_angle_alpha 90
_cell_angle_beta 90
_cell_angle_gamma 90
_cell_formula_units_Z 8
loop_
_atom_type_symbol
_atom_type_radius_bond
C 0.68
H 0.23
N 0.68
O 0.68
loop_
_atom_site_label
_atom_site_type_symbol
_atom_site_fract_x
_atom_site_fract_y
_atom_site_fract_z
O1 O 0.33943(11) 0.18115(9) 0.06411(3)
H1 H 0.36690 0.21400 0.04160
O2 O -0.02222(13) 0.16003(10) -0.00557(4)
O3 O 0.08782(14) 0.29065(8) 0.02767(4)
N1 N 0.10951(11) 0.05693(8) 0.13664(3)
N2 N 0.05283(11) 0.19439(9) 0.02463(4)
C1 C 0.07493(12) 0.15223(9) 0.10688(4)
H2 H 0.13600 0.21460 0.11400
C2 C 0.10442(12) 0.11200(9) 0.05845(4)
H3 H 0.05380 0.04250 0.05380
C3 C 0.25912(13) 0.08758(11) 0.05074(4)
C4 C 0.29116(15) -0.00554(12) 0.08397(5)
H4 H 0.23840 -0.07100 0.07600
H5 H 0.38810 -0.02430 0.08210
C5 C 0.25662(14) 0.02865(13) 0.13207(5)
H6 H 0.27890 -0.03170 0.15250
H7 H 0.31210 0.09240 0.14050
C6 C 0.06761(13) 0.07315(10) 0.18435(4)
H8 H -0.02890 0.09680 0.18380
C7 C 0.07142(17) -0.03702(12) 0.21001(5)
H9 H 0.16550 -0.06380 0.21140
H10 H 0.01690 -0.09170 0.19400
C8 C 0.01527(19) -0.02382(15) 0.25802(5)
H11 H -0.08170 -0.00500 0.25670
H12 H 0.02400 -0.09380 0.27400
C9 C 0.0920(2) 0.06597(16) 0.28368(5)
H13 H 0.05030 0.07570 0.31310
H14 H 0.18670 0.04310 0.28810
C10 C 0.0891(2) 0.17526(15) 0.25849(6)
H15 H 0.14330 0.22970 0.27480
H16 H -0.00480 0.20220 0.25690
C11 C 0.14662(17) 0.16248(12) 0.21048(5)
H17 H 0.13950 0.23280 0.19470
H18 H 0.24320 0.14240 0.21200
C12 C -0.07381(13) 0.18994(10) 0.11158(4)
C13 C -0.18219(14) 0.12288(13) 0.09749(5)
H19 H -0.16420 0.05160 0.08690
C14 C -0.31723(16) 0.16134(17) 0.09907(6)
H20 H -0.38850 0.11630 0.08890
C15 C -0.34563(17) 0.26538(17) 0.11552(6)
H21 H -0.43600 0.29080 0.11650
C16 C -0.2402(2) 0.33186(15) 0.13046(6)
H22 H -0.25950 0.40180 0.14220
C17 C -0.10444(16) 0.29520(11) 0.12812(5)
H23 H -0.03360 0.34150 0.13770
C18 C 0.28879(16) 0.05382(14) 0.00206(5)
H24 H 0.26600 0.11410 -0.01780
H25 H 0.23440 -0.01000 -0.00560
H26 H 0.38460 0.03610 -0.00110
#END
