
#######################################################################
#
#                 Cambridge Crystallographic Data Centre
#                                CCDC
#
#######################################################################
#
# If this CIF has been generated from an entry in the Cambridge
# Structural Database, then it will include bibliographic, chemical,
# crystal, experimental, refinement or atomic coordinate data resulting
# from the CCDC's data processing and validation procedures.
#
#######################################################################

data_CSD_CIF_BOWHUR
_audit_creation_date 2009-08-25
_audit_creation_method CSD-ConQuest-V1
_database_code_CSD BOWHUR
_database_code_depnum_ccdc_archive 'CCDC 712068'
_chemical_formula_sum 'C19 H22 N2 O3'
_chemical_formula_moiety
;
C19 H22 N2 O3
;
_journal_coden_Cambridge 1336
_journal_volume 11
_journal_year 2009
_journal_page_first 2333
_journal_name_full 'Org.Lett. '
loop_
_publ_author_name
"Yunfeng Chen"
"Cheng Zhong"
"J.L.Petersen"
"N.G.Akhmedov"
"Xiaodong Shi"
_chemical_name_systematic
;
(2R,3R,4R)-1-Benzyl-4-methyl-3-nitro-2-phenylpiperidin-4-ol
;
_chemical_melting_point 442.95
_cell_volume    851.157
_exptl_crystal_colour 'colorless'
_exptl_crystal_density_diffrn 1.274
_exptl_special_details
;
Melting point range 442.95-444.55K

;
_diffrn_ambient_temperature 293
#These two values have been output from a single CSD field.
_refine_ls_R_factor_gt 0.0525
_refine_ls_wR_factor_gt 0.0525
loop_
_citation_database_id_CSD
_citation_special_details
BOWDAT "is a stereoisomer of this entry"
_symmetry_cell_setting triclinic
_symmetry_space_group_name_H-M 'P -1'
_symmetry_Int_Tables_number 2
loop_
_symmetry_equiv_pos_site_id
_symmetry_equiv_pos_as_xyz
1 x,y,z
2 -x,-y,-z
_cell_length_a 5.7787(5)
_cell_length_b 10.6482(10)
_cell_length_c 14.3895(14)
_cell_angle_alpha 86.801(2)
_cell_angle_beta 78.749(2)
_cell_angle_gamma 78.606(2)
_cell_formula_units_Z 2
loop_
_atom_type_symbol
_atom_type_radius_bond
C 0.68
H 0.23
N 0.68
O 0.68
loop_
_atom_site_label
_atom_site_type_symbol
_atom_site_fract_x
_atom_site_fract_y
_atom_site_fract_z
O1 O 1.00434(19) -0.05377(12) 0.19132(9)
H1 H 1.04410 -0.07550 0.13580
O2 O 0.6019(3) 0.11953(14) 0.02729(8)
O3 O 0.9483(3) 0.15714(18) 0.03380(11)
N1 N 0.3954(2) 0.20062(11) 0.31783(8)
N2 N 0.7504(3) 0.13697(12) 0.07114(9)
C1 C 0.4388(2) 0.20547(13) 0.21333(9)
H2 H 0.32290 0.16480 0.19050
C2 C 0.6952(3) 0.13188(13) 0.17812(9)
H3 H 0.80540 0.17710 0.20050
C3 C 0.7497(3) -0.00926(13) 0.2131(1)
C4 C 0.6832(3) -0.00280(15) 0.32115(11)
H4 H 0.70040 -0.08920 0.34770
H5 H 0.79390 0.03990 0.34420
C5 C 0.4296(3) 0.06785(14) 0.35473(10)
H6 H 0.31800 0.02350 0.33380
H7 H 0.39470 0.06840 0.42350
C6 C 0.1506(3) 0.26906(15) 0.35711(10)
H8 H 0.03530 0.21850 0.34730
H9 H 0.11850 0.34990 0.32300
C7 C 0.1159(3) 0.29479(14) 0.4615(1)
C8 C 0.2670(3) 0.35878(17) 0.49514(12)
H10 H 0.39780 0.38130 0.45360
C9 C 0.2272(4) 0.39002(19) 0.58974(13)
H11 H 0.33120 0.43290 0.61150
C10 C 0.0340(4) 0.35767(19) 0.65141(12)
H12 H 0.00560 0.38000 0.71480
C11 C -0.1163(4) 0.2929(2) 0.62017(13)
H13 H -0.24560 0.27000 0.66240
C12 C -0.0766(3) 0.26092(18) 0.52487(12)
H14 H -0.17950 0.21670 0.50380
C13 C 0.4169(3) 0.34376(13) 0.17762(9)
C14 C 0.2524(3) 0.39488(16) 0.12051(10)
H15 H 0.15620 0.34380 0.10230
C15 C 0.2310(4) 0.52314(18) 0.09025(11)
H16 H 0.11830 0.55740 0.05300
C16 C 0.3747(4) 0.59864(16) 0.11505(12)
H17 H 0.36110 0.68350 0.09410
C17 C 0.5394(4) 0.54830(16) 0.17118(13)
H18 H 0.63740 0.59930 0.18800
C18 C 0.5596(3) 0.42217(15) 0.20271(11)
H19 H 0.67020 0.38950 0.24120
C19 C 0.6219(3) -0.09925(15) 0.17288(12)
H20 H 0.67720 -0.10470 0.10560
H21 H 0.45170 -0.06710 0.18610
H22 H 0.65600 -0.18280 0.20150
#END
