
#######################################################################
#
#                 Cambridge Crystallographic Data Centre
#                                CCDC
#
#######################################################################
#
# If this CIF has been generated from an entry in the Cambridge
# Structural Database, then it will include bibliographic, chemical,
# crystal, experimental, refinement or atomic coordinate data resulting
# from the CCDC's data processing and validation procedures.
#
#######################################################################

data_CSD_CIF_BOWHIE
_audit_creation_date 1983-10-06
_audit_creation_method CSD-ConQuest-V1
_database_code_CSD BOWHIE
_database_code_depnum_ccdc_archive 'CCDC 1114500'
_chemical_formula_sum 'C9 H11 N1 O2'
_chemical_formula_moiety
;
C9 H11 N1 O2
;
_journal_coden_Cambridge 82
_journal_volume 23
_journal_year 1982
_journal_page_first 83-5
_journal_name_full 'Zh.Strukt.Khim.(Russ.)(J.Struct.Chem.) '
loop_
_publ_author_name
"V.N.Kalinin"
"M.Yu.Antipin"
"V.M.Yurchenko"
"Yu.T.Struchkov"
_chemical_name_systematic
;
N-p-Toluoyl-N-methyl-hydroxylamine
;
_chemical_melting_point 389.15
_cell_volume    877.575
_exptl_crystal_colour 'colorless'
_exptl_special_details
;
Melting point range 389.15-390.15K
y(C3) should be 0.3490, not 0.3990

;
_diffrn_ambient_temperature ?
_diffrn_special_details
;
The study was carried out at room temperature,in the range 283-303K

;
#These two values have been output from a single CSD field.
_refine_ls_R_factor_gt 0.058
_refine_ls_wR_factor_gt 0.058
_symmetry_cell_setting monoclinic
_symmetry_space_group_name_H-M 'P 21/n'
_symmetry_Int_Tables_number 14
loop_
_symmetry_equiv_pos_site_id
_symmetry_equiv_pos_as_xyz
1 x,y,z
2 1/2-x,1/2+y,1/2-z
3 -x,-y,-z
4 -1/2+x,-1/2-y,-1/2+z
_cell_length_a 12.106(2)
_cell_length_b 10.198(1)
_cell_length_c 7.202(1)
_cell_angle_alpha 90
_cell_angle_beta 99.25(1)
_cell_angle_gamma 90
_cell_formula_units_Z 4
loop_
_atom_type_symbol
_atom_type_radius_bond
C 0.68
H 0.23
N 0.68
O 0.68
loop_
_atom_site_label
_atom_site_type_symbol
_atom_site_fract_x
_atom_site_fract_y
_atom_site_fract_z
C1 C 0.77270 0.24440 -0.01530
C2 C 0.77230 0.35070 0.10530
C3 C 0.83160 0.34900 0.28370
C4 C 0.89670 0.24100 0.34970
C5 C 0.89870 0.13570 0.22780
C6 C 0.83820 0.13590 0.04950
C7 C 0.96290 0.23920 0.54470
C8 C 0.71220 0.25850 -0.21040
C9 C 0.59720 0.16650 -0.49020
N1 N 0.66080 0.15670 -0.30310
O1 O 0.71090 0.36610 -0.29250
O2 O 0.63450 0.04720 -0.20040
H1 H 0.72700 0.42900 0.06000
H2 H 0.83000 0.41400 0.37100
H3 H 0.94300 0.05700 0.26600
H4 H 0.84100 0.06600 -0.03400
H5 H 1.04100 0.21600 0.56800
H6 H 0.92100 0.21700 0.64000
H7 H 0.95900 0.31300 0.58200
H8 H 0.52600 0.17100 -0.49600
H9 H 0.61600 0.23600 -0.56200
H10 H 0.60900 0.10200 -0.55200
H11 H 0.69700 -0.00600 -0.22700
#END
