
#######################################################################
#
#                 Cambridge Crystallographic Data Centre
#                                CCDC
#
#######################################################################
#
# If this CIF has been generated from an entry in the Cambridge
# Structural Database, then it will include bibliographic, chemical,
# crystal, experimental, refinement or atomic coordinate data resulting
# from the CCDC's data processing and validation procedures.
#
#######################################################################

data_CSD_CIF_BOWJED
_audit_creation_date 2009-08-25
_audit_creation_method CSD-ConQuest-V1
_database_code_CSD BOWJED
_database_code_depnum_ccdc_archive 'CCDC 719561'
_chemical_formula_sum 'C21 H26 N2 O4'
_chemical_formula_moiety
;
C21 H26 N2 O4
;
_journal_coden_Cambridge 1336
_journal_volume 11
_journal_year 2009
_journal_page_first 2333
_journal_name_full 'Org.Lett. '
loop_
_publ_author_name
"Yunfeng Chen"
"Cheng Zhong"
"J.L.Petersen"
"N.G.Akhmedov"
"Xiaodong Shi"
_chemical_name_systematic
;
(2R,3R,4S)-1-((S)-1-(4-Methoxyphenyl)ethyl)-4-methyl-3-nitro-2-phenylpiperidin
-4-ol
;
_chemical_melting_point 441.45
_cell_volume   1987.594
_exptl_crystal_colour 'colorless'
_exptl_crystal_density_diffrn 1.238
_exptl_special_details
;
Melting point range 441.45-443.65K

;
_diffrn_ambient_temperature 293
#These two values have been output from a single CSD field.
_refine_ls_R_factor_gt 0.0423
_refine_ls_wR_factor_gt 0.0423
loop_
_citation_database_id_CSD
_citation_special_details
BOWDUN "is a stereoisomer of this entry"
_symmetry_cell_setting orthorhombic
_symmetry_space_group_name_H-M 'P 21 21 21'
_symmetry_Int_Tables_number 19
loop_
_symmetry_equiv_pos_site_id
_symmetry_equiv_pos_as_xyz
1 x,y,z
2 1/2-x,-y,1/2+z
3 -x,1/2+y,1/2-z
4 1/2+x,1/2-y,-z
_cell_length_a 8.5922(6)
_cell_length_b 15.1199(11)
_cell_length_c 15.2994(11)
_cell_angle_alpha 90
_cell_angle_beta 90
_cell_angle_gamma 90
_cell_formula_units_Z 4
loop_
_atom_type_symbol
_atom_type_radius_bond
C 0.68
H 0.23
N 0.68
O 0.68
loop_
_atom_site_label
_atom_site_type_symbol
_atom_site_fract_x
_atom_site_fract_y
_atom_site_fract_z
O1 O 0.36317(19) 0.33501(13) 0.88550(13)
O2 O 0.30410(17) 0.4264(2) 0.98733(14)
O3 O 0.63528(16) 0.26767(8) 0.97071(8)
H1 H 0.67120 0.23030 1.00390
O4 O 1.0250(2) 0.20789(12) 0.54512(10)
N1 N 0.80348(13) 0.45627(9) 0.87132(9)
N2 N 0.39775(17) 0.39161(14) 0.93895(12)
C1 C 0.64028(16) 0.42924(11) 0.85708(10)
H2 H 0.63700 0.37270 0.82580
C2 C 0.56636(16) 0.41882(11) 0.94845(10)
H3 H 0.56820 0.47700 0.97670
C3 C 0.64793(18) 0.35304(11) 1.01011(10)
C4 C 0.81809(18) 0.38227(13) 1.01351(11)
H4 H 0.82510 0.43920 1.04260
H5 H 0.87760 0.33990 1.04740
C5 C 0.88699(18) 0.38956(13) 0.92292(12)
H6 H 0.99590 0.40580 0.92720
H7 H 0.88060 0.33270 0.89380
C6 C 0.55071(16) 0.49896(12) 0.80626(11)
C7 C 0.5568(2) 0.58765(13) 0.83052(15)
H8 H 0.61380 0.60460 0.87940
C8 C 0.4775(3) 0.65077(16) 0.7817(2)
H9 H 0.48180 0.70990 0.79840
C9 C 0.3931(2) 0.6272(2) 0.70956(18)
H10 H 0.34250 0.67020 0.67670
C10 C 0.3836(2) 0.5397(2) 0.68582(14)
H11 H 0.32520 0.52330 0.63730
C11 C 0.46123(17) 0.47591(15) 0.73420(11)
H12 H 0.45320 0.41680 0.71810
C12 C 0.5755(2) 0.35278(15) 1.10078(12)
H13 H 0.63690 0.31650 1.13910
H14 H 0.47170 0.32950 1.09750
H15 H 0.57230 0.41210 1.12300
C13 C 0.88634(17) 0.48192(12) 0.78974(11)
H16 H 0.81660 0.52250 0.75870
C14 C 1.0311(2) 0.53587(14) 0.81322(14)
H17 H 1.10450 0.49870 0.84300
H18 H 1.00210 0.58410 0.85060
H19 H 1.07760 0.55860 0.76080
C15 C 0.92094(17) 0.40665(12) 0.72606(11)
C16 C 1.0521(2) 0.35284(13) 0.73317(13)
H20 H 1.12080 0.36130 0.77940
C17 C 1.0818(2) 0.28684(15) 0.67224(13)
H21 H 1.16950 0.25130 0.67840
C18 C 0.9828(2) 0.27347(14) 0.60283(12)
C19 C 0.8514(2) 0.32573(15) 0.59411(13)
H22 H 0.78310 0.31710 0.54780
C20 C 0.82336(19) 0.39125(14) 0.65567(12)
H23 H 0.73520 0.42630 0.64940
C21 C 0.9120(5) 0.1776(2) 0.4853(2)
H24 H 0.89180 0.22280 0.44270
H25 H 0.81770 0.16390 0.51610
H26 H 0.94970 0.12540 0.45640
#END
