
#######################################################################
#
#                 Cambridge Crystallographic Data Centre
#                                CCDC
#
#######################################################################
#
# If this CIF has been generated from an entry in the Cambridge
# Structural Database, then it will include bibliographic, chemical,
# crystal, experimental, refinement or atomic coordinate data resulting
# from the CCDC's data processing and validation procedures.
#
#######################################################################

data_CSD_CIF_BOWJAZ
_audit_creation_date 2009-08-25
_audit_creation_method CSD-ConQuest-V1
_database_code_CSD BOWJAZ
_database_code_depnum_ccdc_archive 'CCDC 712070'
_chemical_formula_sum 'C18 H26 N2 O5'
_chemical_formula_moiety
;
C18 H26 N2 O5
;
_journal_coden_Cambridge 1336
_journal_volume 11
_journal_year 2009
_journal_page_first 2333
_journal_name_full 'Org.Lett. '
loop_
_publ_author_name
"Yunfeng Chen"
"Cheng Zhong"
"J.L.Petersen"
"N.G.Akhmedov"
"Xiaodong Shi"
_chemical_name_systematic
;
(S)-Methyl 
2-((2R,3R,4R)-4-hydroxy-4-methyl-3-nitro-2-phenylpiperidin-1-yl)-3-methylbutan
oate
;
_chemical_melting_point 404.25
_cell_volume   1944.596
_exptl_crystal_colour 'colorless'
_exptl_crystal_density_diffrn 1.197
_exptl_special_details
;
Melting point range 404.25-406.05K

;
_diffrn_ambient_temperature 293
#These two values have been output from a single CSD field.
_refine_ls_R_factor_gt 0.0436
_refine_ls_wR_factor_gt 0.0436
loop_
_citation_database_id_CSD
_citation_special_details
BOWDIB "is a stereoisomer of this entry"
_symmetry_cell_setting monoclinic
_symmetry_space_group_name_H-M 'P 21'
_symmetry_Int_Tables_number 4
loop_
_symmetry_equiv_pos_site_id
_symmetry_equiv_pos_as_xyz
1 x,y,z
2 -x,1/2+y,-z
_cell_length_a 13.1001(10)
_cell_length_b 10.7849(8)
_cell_length_c 13.7862(11)
_cell_angle_alpha 90
_cell_angle_beta 93.266(1)
_cell_angle_gamma 90
_cell_formula_units_Z 4
loop_
_atom_type_symbol
_atom_type_radius_bond
C 0.68
H 0.23
N 0.68
O 0.68
loop_
_atom_site_label
_atom_site_type_symbol
_atom_site_fract_x
_atom_site_fract_y
_atom_site_fract_z
O1 O 0.29970(15) 0.16079(18) 0.1588(2)
O2 O 0.35937(15) -0.0226(2) 0.1677(2)
O3 O 0.17927(15) -0.10891(15) 0.02690(13)
H1 H 0.23080 -0.07860 0.00540
O4 O -0.17606(19) 0.2017(3) 0.2814(3)
O5 O -0.02433(16) 0.2877(2) 0.3022(2)
O6 O 0.80767(16) -0.01752(19) 0.72627(16)
O7 O 0.85848(16) 0.1726(2) 0.73289(18)
O8 O 0.84548(12) 0.13026(15) 0.95818(14)
H2 H 0.83780 0.20530 0.96400
O9 O 0.34372(15) -0.06292(18) 0.89957(13)
O10 O 0.43694(14) -0.11295(15) 0.77408(12)
N1 N 0.02662(12) 0.02099(17) 0.26449(13)
N2 N 0.28945(14) 0.05037(18) 0.16986(15)
N3 N 0.53835(13) 0.11641(16) 0.84725(11)
N4 N 0.80120(15) 0.0894(2) 0.75434(15)
C1 C 0.12764(14) 0.07850(19) 0.25421(15)
H3 H 0.11890 0.16300 0.22890
C2 C 0.18390(15) -0.00117(18) 0.18150(15)
H4 H 0.19230 -0.08410 0.20990
C3 C 0.12783(17) -0.0169(2) 0.08125(16)
C4 C 0.02436(18) -0.0717(3) 0.10233(17)
H5 H -0.01660 -0.08030 0.04190
H6 H 0.03430 -0.15380 0.13000
C5 C -0.03260(16) 0.0077(3) 0.17170(18)
H7 H -0.04520 0.08900 0.14320
H8 H -0.09820 -0.03000 0.18270
C6 C 0.18796(15) 0.0817(2) 0.35130(17)
C7 C 0.1984(2) -0.0260(3) 0.40687(18)
H9 H 0.16990 -0.09990 0.38360
C8 C 0.2513(3) -0.0228(5) 0.4968(2)
H10 H 0.25650 -0.09390 0.53500
C9 C 0.2962(3) 0.0862(6) 0.5295(3)
H11 H 0.33320 0.08790 0.58910
C10 C 0.2868(3) 0.1897(5) 0.4760(3)
H12 H 0.31720 0.26260 0.49940
C11 C 0.2323(2) 0.1906(3) 0.3856(2)
H13 H 0.22600 0.26320 0.34930
C12 C 0.1173(2) 0.1025(3) 0.02161(18)
H14 H 0.07460 0.08740 -0.03610
H15 H 0.18370 0.12900 0.00390
H16 H 0.08720 0.16580 0.05960
C13 C -0.03363(17) 0.0757(3) 0.34139(17)
H17 H 0.01520 0.09980 0.39460
C14 C -0.1086(2) -0.0173(4) 0.3840(2)
H18 H -0.16690 -0.02790 0.33700
C15 C -0.0609(3) -0.1432(4) 0.4039(3)
H19 H -0.11110 -0.19820 0.42810
H20 H -0.00480 -0.13500 0.45140
H21 H -0.03650 -0.17620 0.34480
C16 C -0.1481(4) 0.0384(6) 0.4776(3)
H22 H -0.09290 0.04350 0.52630
H23 H -0.20110 -0.01350 0.50060
H24 H -0.17480 0.11990 0.46430
C17 C -0.0884(2) 0.1945(3) 0.3059(2)
C18 C -0.0660(4) 0.4047(4) 0.2653(5)
H25 H -0.11120 0.43850 0.31090
H26 H -0.10310 0.39080 0.20420
H27 H -0.01110 0.46180 0.25640
C19 C 0.61514(15) 0.06946(19) 0.78127(14)
H28 H 0.61580 -0.02140 0.78220
C20 C 0.71901(15) 0.1197(2) 0.82252(15)
H29 H 0.71340 0.21020 0.82500
C21 C 0.75063(17) 0.0750(2) 0.92616(17)
C22 C 0.66372(17) 0.1186(2) 0.98738(15)
H30 H 0.67590 0.08870 1.05340
H31 H 0.66340 0.20850 0.98940
C23 C 0.55985(18) 0.0732(2) 0.94762(15)
H32 H 0.55840 -0.01670 0.94910
H33 H 0.50730 0.10360 0.98830
C24 C 0.59425(16) 0.1152(2) 0.67826(15)
C25 C 0.5843(2) 0.2414(3) 0.6592(2)
H34 H 0.58800 0.29770 0.71040
C26 C 0.5690(3) 0.2838(5) 0.5651(3)
H35 H 0.56130 0.36840 0.55380
C27 C 0.5652(4) 0.2052(7) 0.4901(3)
H36 H 0.55610 0.23530 0.42700
C28 C 0.5747(3) 0.0794(7) 0.5063(3)
H37 H 0.57160 0.02490 0.45390
C29 C 0.5892(2) 0.0326(4) 0.60178(19)
H38 H 0.59520 -0.05220 0.61290
C30 C 0.7688(2) -0.0643(2) 0.9348(2)
H39 H 0.78430 -0.08550 1.00170
H40 H 0.82510 -0.08730 0.89700
H41 H 0.70850 -0.10790 0.91130
C31 C 0.43073(15) 0.1002(2) 0.81270(15)
H42 H 0.42790 0.10950 0.74190
C32 C 0.35898(19) 0.1984(3) 0.85203(19)
H43 H 0.35310 0.18290 0.92160
C33 C 0.2530(2) 0.1871(3) 0.8017(2)
H44 H 0.25590 0.20980 0.73460
H45 H 0.20660 0.24130 0.83270
H46 H 0.22950 0.10310 0.80620
C34 C 0.4011(3) 0.3274(3) 0.8402(3)
H47 H 0.35490 0.38680 0.86540
H48 H 0.40890 0.34370 0.77250
H49 H 0.46640 0.33390 0.87510
C35 C 0.39535(16) -0.0325(2) 0.83419(15)
C36 C 0.4222(3) -0.2436(2) 0.7941(2)
H50 H 0.35100 -0.26390 0.78420
H51 H 0.44480 -0.26100 0.86020
H52 H 0.46110 -0.29230 0.75110
#END
