
#######################################################################
#
#                 Cambridge Crystallographic Data Centre
#                                CCDC
#
#######################################################################
#
# If this CIF has been generated from an entry in the Cambridge
# Structural Database, then it will include bibliographic, chemical,
# crystal, experimental, refinement or atomic coordinate data resulting
# from the CCDC's data processing and validation procedures.
#
#######################################################################

data_CSD_CIF_BOWJON
_audit_creation_date 2009-08-25
_audit_creation_method CSD-ConQuest-V1
_database_code_CSD BOWJON
_database_code_depnum_ccdc_archive 'CCDC 719564'
_chemical_formula_sum 'C20 H23 N3 O5'
_chemical_formula_moiety
;
C20 H23 N3 O5
;
_journal_coden_Cambridge 1336
_journal_volume 11
_journal_year 2009
_journal_page_first 2333
_journal_name_full 'Org.Lett. '
loop_
_publ_author_name
"Yunfeng Chen"
"Cheng Zhong"
"J.L.Petersen"
"N.G.Akhmedov"
"Xiaodong Shi"
_chemical_name_systematic
;
(2R,3R,4R)-4-Methyl-3-nitro-1-((S)-1-(4-nitrophenyl)ethyl)-2-phenylpiperidin-4
-ol
;
_cell_volume   1947.786
_exptl_crystal_colour 'colorless'
_exptl_crystal_density_diffrn 1.314
_diffrn_ambient_temperature 293
_refine_special_details
;
The nitro group is disordered over two sites with occupancies 0.53:0.47.

;
#These two values have been output from a single CSD field.
_refine_ls_R_factor_gt 0.0515
_refine_ls_wR_factor_gt 0.0515
loop_
_citation_database_id_CSD
_citation_special_details
BOWFAV "is a stereoisomer of this entry"
BOWJIH "is a stereoisomer of this entry"
_symmetry_cell_setting monoclinic
_symmetry_space_group_name_H-M 'P 21/c'
_symmetry_Int_Tables_number 14
loop_
_symmetry_equiv_pos_site_id
_symmetry_equiv_pos_as_xyz
1 x,y,z
2 -x,1/2+y,1/2-z
3 -x,-y,-z
4 x,-1/2-y,-1/2+z
_cell_length_a 13.0395(8)
_cell_length_b 14.0038(8)
_cell_length_c 10.7809(6)
_cell_angle_alpha 90
_cell_angle_beta 98.343(1)
_cell_angle_gamma 90
_cell_formula_units_Z 4
loop_
_atom_type_symbol
_atom_type_radius_bond
C 0.68
H 0.23
N 0.68
O 0.68
loop_
_atom_site_label
_atom_site_type_symbol
_atom_site_fract_x
_atom_site_fract_y
_atom_site_fract_z
O1 O 0.10070(13) -0.03918(10) 0.43142(13)
O2 O -0.02714(14) -0.09159(12) 0.29949(19)
O3 O -0.06346(10) 0.11694(10) 0.20378(13)
H1 H -0.08890 0.15630 0.24670
N1? N 0.3888(7) 0.1197(8) -0.4133(6)
O4 O 0.3359(15) 0.069(2) -0.4890(8)
O5 O 0.4599(10) 0.1711(9) -0.4322(9)
N2 N 0.3930(6) 0.1253(7) -0.4092(6)
O6? O 0.3188(6) 0.1197(15) -0.4927(7)
O7? O 0.4764(9) 0.1488(15) -0.4371(11)
N3 N 0.23155(10) 0.06038(8) 0.12032(11)
N4 N 0.05013(12) -0.04273(10) 0.32654(16)
C1 C 0.20185(11) 0.00372(10) 0.22491(12)
H2 H 0.23930 0.02700 0.30460
C2 C 0.08460(12) 0.01669(10) 0.22344(13)
H3 H 0.05010 -0.00930 0.14370
C3 C 0.04733(13) 0.12073(11) 0.23192(14)
C4 C 0.08910(14) 0.17343(11) 0.12528(16)
H4 H 0.05460 0.14940 0.04560
H5 H 0.07290 0.24080 0.12980
C5 C 0.20481(13) 0.16171(11) 0.13048(15)
H6 H 0.22790 0.19720 0.06240
H7 H 0.23990 0.18730 0.20890
C6 C 0.22506(12) -0.10194(10) 0.20916(14)
C7 C 0.28463(14) -0.15234(13) 0.30384(17)
H8 H 0.31150 -0.12180 0.37800
C8 C 0.30430(17) -0.24940(16) 0.2877(3)
H9 H 0.34450 -0.28320 0.35130
C9 C 0.2647(2) -0.29499(14) 0.1786(3)
H10 H 0.27860 -0.35940 0.16830
C10 C 0.20475(18) -0.24588(13) 0.0847(2)
H11 H 0.17740 -0.27720 0.01120
C11 C 0.18494(14) -0.14940(12) 0.09931(16)
H12 H 0.14460 -0.11620 0.03520
C12 C 0.07977(17) 0.16850(13) 0.35807(16)
H13 H 0.05850 0.23420 0.35330
H14 H 0.15380 0.16510 0.37950
H15 H 0.04760 0.13640 0.42100
C13 C 0.34057(12) 0.04632(11) 0.10110(13)
H16 H 0.35280 -0.02270 0.10690
C14 C 0.42138(14) 0.09140(14) 0.20165(15)
H17 H 0.41750 0.15970 0.19490
H18 H 0.48940 0.07050 0.18980
H19 H 0.40780 0.07220 0.28320
C15 C 0.35210(12) 0.07394(10) -0.03313(14)
C16 C 0.27525(13) 0.04739(12) -0.13113(15)
H20 H 0.21550 0.01760 -0.11300
C17 C 0.28654(14) 0.06465(13) -0.25462(15)
H21 H 0.23490 0.04710 -0.31940
C18 C 0.37579(13) 0.10844(11) -0.27992(14)
C19 C 0.45225(14) 0.13820(12) -0.18646(15)
H22 H 0.51110 0.16920 -0.20550
C20 C 0.43929(13) 0.12068(12) -0.06260(14)
H23 H 0.49010 0.14070 0.00170
#END
