
#######################################################################
#
#                 Cambridge Crystallographic Data Centre
#                                CCDC
#
#######################################################################
#
# If this CIF has been generated from an entry in the Cambridge
# Structural Database, then it will include bibliographic, chemical,
# crystal, experimental, refinement or atomic coordinate data resulting
# from the CCDC's data processing and validation procedures.
#
#######################################################################

data_CSD_CIF_BOWZES
_audit_creation_date 1983-10-06
_audit_creation_method CSD-ConQuest-V1
_database_code_CSD BOWZES
_database_code_depnum_ccdc_archive 'CCDC 1114563'
_chemical_formula_sum 'C10 H11 N1 O3'
_chemical_formula_moiety
;
C10 H11 N1 O3
;
_journal_coden_Cambridge 7
_journal_volume 56
_journal_year 1983
_journal_page_first 244
_journal_name_full 'Bull.Chem.Soc.Jpn. '
loop_
_publ_author_name
"Y.Inouye"
_chemical_name_systematic
;
(Z)-N-Benzyl-\a-methoxycarbonylmethanimine N-oxide
;
_cell_volume    481.494
_exptl_crystal_density_diffrn 1.33
_diffrn_ambient_temperature ?
_diffrn_special_details
;
The study was carried out at room temperature,in the range 283-303K

;
#These two values have been output from a single CSD field.
_refine_ls_R_factor_gt 0.037
_refine_ls_wR_factor_gt 0.037
_symmetry_cell_setting monoclinic
_symmetry_space_group_name_H-M 'P c'
_symmetry_Int_Tables_number 7
loop_
_symmetry_equiv_pos_site_id
_symmetry_equiv_pos_as_xyz
1 x,y,z
2 x,-y,1/2+z
_cell_length_a 11.069(1)
_cell_length_b 5.2335(7)
_cell_length_c 8.620(1)
_cell_angle_alpha 90
_cell_angle_beta 105.37(1)
_cell_angle_gamma 90
_cell_formula_units_Z 2
loop_
_atom_type_symbol
_atom_type_radius_bond
C 0.68
H 0.23
N 0.68
O 0.68
loop_
_atom_site_label
_atom_site_type_symbol
_atom_site_fract_x
_atom_site_fract_y
_atom_site_fract_z
C1 C -0.07490 0.31930 -0.20400
O1 O 0.01620 0.38120 -0.05590
C2 C 0.06600 0.18390 0.03880
O2 O 0.03880 -0.03580 0.00760
C3 C 0.15460 0.28700 0.18300
N1 N 0.22610 0.14710 0.29520
O3 O 0.23520 -0.09560 0.29430
C4 C 0.30800 0.27830 0.43930
C5 C 0.44310 0.25990 0.43750
C6 C 0.49170 0.43860 0.35100
C7 C 0.61610 0.42430 0.34620
C8 C 0.69260 0.23480 0.42880
C9 C 0.64490 0.05670 0.51500
C10 C 0.52130 0.06850 0.51980
H1 H -0.09900 0.48600 -0.25300
H2 H -0.13900 0.23600 -0.18300
H3 H -0.04000 0.21200 -0.26100
H4 H 0.16000 0.45700 0.19600
H5 H 0.28300 0.45700 0.44000
H6 H 0.29500 0.17800 0.53500
H7 H 0.44200 0.58000 0.29700
H8 H 0.65300 0.54900 0.29200
H9 H 0.76900 0.22400 0.42600
H10 H 0.69100 -0.06500 0.57000
H11 H 0.48700 -0.05500 0.58000
#END
