
#######################################################################
#
#                 Cambridge Crystallographic Data Centre
#                                CCDC
#
#######################################################################
#
# If this CIF has been generated from an entry in the Cambridge
# Structural Database, then it will include bibliographic, chemical,
# crystal, experimental, refinement or atomic coordinate data resulting
# from the CCDC's data processing and validation procedures.
#
#######################################################################

data_CSD_CIF_BOZDUQ
_audit_creation_date 2009-12-08
_audit_creation_method CSD-ConQuest-V1
_database_code_CSD BOZDUQ
_database_code_depnum_ccdc_archive 'CCDC 707422'
_chemical_formula_sum 'C18 H22 N2 O4'
_chemical_formula_moiety
;
C18 H22 N2 O4
;
_journal_coden_Cambridge 24
_journal_volume 50
_journal_year 2009
_journal_page_first 2605
_journal_name_full 'Tetrahedron Lett. '
loop_
_publ_author_name
"L.Kiss"
"M.Nonn"
"E.Forro"
"R.Sillanpaa"
"F.Fulop"
_chemical_name_systematic
;
Ethyl 
4-(benzoylamino)-3-ethyl-4,5,6,6a-tetrahydro-3aH-cyclopenta[d][1,2]oxazole-5-c
arboxylate
;
_cell_volume   3483.550
_exptl_crystal_colour 'colorless'
_exptl_crystal_density_diffrn 1.26
_exptl_crystal_description 'needle'
_diffrn_ambient_temperature 173
#These two values have been output from a single CSD field.
_refine_ls_R_factor_gt 0.0638
_refine_ls_wR_factor_gt 0.0638
_symmetry_cell_setting monoclinic
_symmetry_space_group_name_H-M 'P 21/n'
_symmetry_Int_Tables_number 14
loop_
_symmetry_equiv_pos_site_id
_symmetry_equiv_pos_as_xyz
1 x,y,z
2 1/2-x,1/2+y,1/2-z
3 -x,-y,-z
4 -1/2+x,-1/2-y,-1/2+z
_cell_length_a 10.0137(2)
_cell_length_b 24.1099(5)
_cell_length_c 15.2764(3)
_cell_angle_alpha 90
_cell_angle_beta 109.175(1)
_cell_angle_gamma 90
_cell_formula_units_Z 8
loop_
_atom_type_symbol
_atom_type_radius_bond
C 0.68
H 0.23
N 0.68
O 0.68
loop_
_atom_site_label
_atom_site_type_symbol
_atom_site_fract_x
_atom_site_fract_y
_atom_site_fract_z
O1 O 0.43863(19) -0.06532(7) 0.10832(11)
O2 O 0.09809(17) 0.10040(7) 0.00197(11)
O3 O -0.02936(15) 0.04667(7) 0.06425(10)
O4 O 0.14604(15) 0.12925(6) 0.22583(10)
N1 N 0.33838(18) 0.10538(7) 0.18861(12)
H1 H 0.4179(19) 0.1157(9) 0.1759(14)
N2 N 0.4367(2) -0.08458(8) 0.19529(14)
C1 C 0.4414(2) -0.04360(9) 0.24908(15)
C2 C 0.4462(2) 0.01235(9) 0.20628(14)
H2 H 0.53230 0.03390 0.24180
C3 C 0.3095(2) 0.04630(8) 0.18959(13)
H3 H 0.26570 0.03770 0.23820
C4 C 0.2148(2) 0.02454(8) 0.09393(13)
H4 H 0.18610 -0.01410 0.10360
C5 C 0.3185(2) 0.02003(9) 0.03960(14)
H5 H 0.28090 -0.00450 -0.01500
H6 H 0.33910 0.05690 0.01870
C6 C 0.4493(2) -0.00488(9) 0.10998(15)
H7 H 0.53780 0.00790 0.09940
C7 C 0.4491(3) -0.05273(10) 0.34720(16)
H8 H 0.44110 -0.09290 0.35780
H9 H 0.36830 -0.03390 0.35830
C8 C 0.5863(3) -0.03096(12) 0.41556(17)
H10 H 0.66670 -0.04840 0.40310
H11 H 0.58980 -0.03980 0.47890
H12 H 0.59100 0.00930 0.40880
C9 C 0.0805(2) 0.05750(9) 0.05218(14)
C10 C -0.0251(3) 0.13668(12) -0.0350(2)
H13 H -0.06990 0.14360 0.01290
H14 H -0.09570 0.11900 -0.08910
C11 C 0.0243(4) 0.18934(12) -0.0630(2)
H15 H 0.09060 0.20740 -0.00840
H16 H -0.05680 0.21380 -0.09060
H17 H 0.07190 0.18180 -0.10840
C12 C 0.2493(2) 0.14311(8) 0.20316(13)
C13 C 0.2794(2) 0.20299(8) 0.19099(14)
C14 C 0.3617(2) 0.22012(10) 0.13844(16)
H18 H 0.40610 0.19340 0.11150
C15 C 0.3790(3) 0.27639(10) 0.12527(18)
H19 H 0.43490 0.28810 0.08910
C16 C 0.3150(3) 0.31521(10) 0.16472(19)
H20 H 0.32640 0.35360 0.15510
C17 C 0.2346(3) 0.29855(10) 0.21806(19)
H21 H 0.19190 0.32540 0.24590
C18 C 0.2161(2) 0.24251(9) 0.23098(16)
H22 H 0.16000 0.23100 0.26720
O5 O 0.11116(19) -0.01945(8) 0.42316(11)
O6 O -0.30807(16) 0.11957(6) 0.39413(11)
O7 O -0.1318(2) 0.17502(7) 0.38804(14)
O8 O -0.39034(16) 0.10809(7) 0.16006(11)
N3 N -0.15126(18) 0.10521(7) 0.21384(12)
H23 H -0.0704(19) 0.1184(9) 0.2093(15)
N4 N 0.0126(2) -0.06009(9) 0.37360(14)
C19 C -0.0610(2) -0.04101(10) 0.29445(16)
C20 C -0.0252(2) 0.01769(9) 0.27750(14)
H24 H 0.00370 0.02090 0.22100
C21 C -0.1457(2) 0.05857(9) 0.27517(14)
H25 H -0.23840 0.03860 0.25500
C22 C -0.1077(2) 0.07624(9) 0.37831(14)
H26 H -0.13720 0.04620 0.41330
C23 C 0.0532(2) 0.07961(10) 0.41143(15)
H27 H 0.08520 0.11470 0.39120
H28 H 0.09250 0.07710 0.47980
C24 C 0.0977(2) 0.0303(1) 0.36659(15)
H29 H 0.18690 0.03810 0.35290
C25 C -0.1727(3) -0.07414(10) 0.2251(2)
H30 H -0.14360 -0.07940 0.16960
H31 H -0.26120 -0.05220 0.20570
C26 C -0.2041(3) -0.13037(12) 0.2573(2)
H32 H -0.11970 -0.15380 0.27150
H33 H -0.28190 -0.14780 0.20830
H34 H -0.23110 -0.12600 0.31300
C27 C -0.1794(3) 0.12928(10) 0.38835(15)
C28 C -0.3922(3) 0.16828(10) 0.39687(17)
H35 H -0.43030 0.18510 0.33450
H36 H -0.33350 0.19630 0.44000
C29 C -0.5105(3) 0.14930(12) 0.42944(18)
H37 H -0.56090 0.11860 0.39040
H38 H -0.57610 0.18010 0.42530
H39 H -0.47190 0.13680 0.49390
C30 C -0.2750(2) 0.12754(9) 0.16270(14)
C31 C -0.2693(2) 0.17848(9) 0.10808(16)
C32 C -0.3711(3) 0.18486(11) 0.02131(17)
H40 H -0.43750 0.15620 -0.00400
C33 C -0.3749(3) 0.23333(14) -0.0279(2)
H41 H -0.44400 0.23800 -0.08730
C34 C -0.2791(4) 0.27443(14) 0.0090(3)
H42 H -0.28310 0.30780 -0.02470
C35 C -0.1771(3) 0.26824(13) 0.0942(3)
H43 H -0.11020 0.29700 0.11860
C36 C -0.1719(3) 0.21966(11) 0.1446(2)
H44 H -0.10180 0.21500 0.20360
#END
