
#######################################################################
#
#                 Cambridge Crystallographic Data Centre
#                                CCDC
#
#######################################################################
#
# If this CIF has been generated from an entry in the Cambridge
# Structural Database, then it will include bibliographic, chemical,
# crystal, experimental, refinement or atomic coordinate data resulting
# from the CCDC's data processing and validation procedures.
#
#######################################################################

data_CSD_CIF_BOZGED
_audit_creation_date 2009-12-08
_audit_creation_method CSD-ConQuest-V1
_database_code_CSD BOZGED
_database_code_depnum_ccdc_archive 'CCDC 683477'
_chemical_formula_sum 'C5 H5 N3 O4'
_chemical_formula_moiety
;
C5 H5 N3 O4
;
_journal_coden_Cambridge 24
_journal_volume 50
_journal_year 2009
_journal_page_first 2624
_journal_name_full 'Tetrahedron Lett. '
loop_
_publ_author_name
"A.Regiec"
"H.Mastalarz"
"A.Mastalarz"
"A.Kochel"
_chemical_name_systematic
;
1-Methyl-4-nitro-1H-pyrazole-3-carboxylic acid
;
_chemical_melting_point 440.15
_cell_volume    702.610
_exptl_crystal_colour 'colorless'
_exptl_crystal_density_diffrn 1.603
_exptl_special_details
;
Melting point range 440.15-444.15K

;
_exptl_crystal_description 'plate'
_diffrn_ambient_temperature 100
#These two values have been output from a single CSD field.
_refine_ls_R_factor_gt 0.0387
_refine_ls_wR_factor_gt 0.0387
_symmetry_cell_setting monoclinic
_symmetry_space_group_name_H-M 'P 21/c'
_symmetry_Int_Tables_number 14
loop_
_symmetry_equiv_pos_site_id
_symmetry_equiv_pos_as_xyz
1 x,y,z
2 -x,1/2+y,1/2-z
3 -x,-y,-z
4 x,-1/2-y,-1/2+z
_cell_length_a 6.7503(8)
_cell_length_b 9.0276(11)
_cell_length_c 13.3248(16)
_cell_angle_alpha 90
_cell_angle_beta 120.085(9)
_cell_angle_gamma 90
_cell_formula_units_Z 4
loop_
_atom_type_symbol
_atom_type_radius_bond
C 0.68
H 0.23
N 0.68
O 0.68
loop_
_atom_site_label
_atom_site_type_symbol
_atom_site_fract_x
_atom_site_fract_y
_atom_site_fract_z
O1 O 0.38820(19) 0.29799(12) 0.20356(10)
O2 O 0.67695(18) 0.46328(12) 0.26932(9)
O3 O 0.0197(2) 0.29955(13) -0.18706(9)
O4 O 0.2946(2) 0.20853(12) -0.02444(10)
N1 N 0.2094(2) 0.69571(14) -0.01982(10)
N2 N 0.3492(2) 0.64595(14) 0.09044(10)
N3 N 0.1729(2) 0.31138(14) -0.08452(11)
C1 C 0.3516(2) 0.49848(16) 0.08323(12)
C2 C 0.2112(2) 0.45638(16) -0.03371(12)
C3 C 0.1248(3) 0.58441(17) -0.09626(14)
C4 C 0.4920(3) 0.41725(16) 0.19508(13)
C5 C 0.1718(3) 0.85535(18) -0.04205(17)
H1 H 0.031(3) 0.6045(18) -0.1773(15)
H2 H 0.284(3) 0.8917(19) -0.0592(14)
H3 H 0.019(3) 0.870(2) -0.1091(16)
H4 H 0.188(3) 0.899(2) 0.0212(17)
H5 H 0.484(3) 0.253(2) 0.277(2)
#END
