
#######################################################################
#
#                 Cambridge Crystallographic Data Centre
#                                CCDC
#
#######################################################################
#
# If this CIF has been generated from an entry in the Cambridge
# Structural Database, then it will include bibliographic, chemical,
# crystal, experimental, refinement or atomic coordinate data resulting
# from the CCDC's data processing and validation procedures.
#
#######################################################################

data_CSD_CIF_BTHYDX
_audit_creation_date 1975-01-07
_audit_creation_method CSD-ConQuest-V1
_database_code_CSD BTHYDX
_database_code_depnum_ccdc_archive 'CCDC 1115630'
_chemical_formula_sum 'C15 H13 N1 O3'
_chemical_formula_moiety
;
C15 H13 N1 O3
;
_journal_coden_Cambridge 48
_journal_volume 107
_journal_year 1974
_journal_page_first 398
_journal_name_full 'Chem.Ber. '
loop_
_publ_author_name
"S.Gottlicher"
"P.Ochsenreiter"
_chemical_name_systematic
;
N-Benzoyl-O-p-toluoyl-hydroxylamine
;
_cell_volume   1351.735
_diffrn_ambient_temperature ?
_diffrn_special_details
;
The study was carried out at room temperature,in the range 283-303K

;
#These two values have been output from a single CSD field.
_refine_ls_R_factor_gt 0.11
_refine_ls_wR_factor_gt 0.11
_symmetry_cell_setting monoclinic
_symmetry_space_group_name_H-M 'P 21/c'
_symmetry_Int_Tables_number 14
loop_
_symmetry_equiv_pos_site_id
_symmetry_equiv_pos_as_xyz
1 x,y,z
2 -x,1/2+y,1/2-z
3 -x,-y,-z
4 x,-1/2-y,-1/2+z
_cell_length_a 10.89(1)
_cell_length_b 9.74(1)
_cell_length_c 14.05(1)
_cell_angle_alpha 90
_cell_angle_beta 114.9(3)
_cell_angle_gamma 90
_cell_formula_units_Z 4
loop_
_atom_type_symbol
_atom_type_radius_bond
C 0.68
H 0.20
N 0.68
O 0.68
loop_
_atom_site_label
_atom_site_type_symbol
_atom_site_fract_x
_atom_site_fract_y
_atom_site_fract_z
C1 C -0.40610 0.07580 0.16830
C2 C -0.79540 0.06210 0.34010
C3 C -0.32540 -0.03840 0.18260
C4 C -0.93140 0.09410 0.28770
C5 C -0.25450 -0.05680 0.12180
C6 C -1.00060 0.14340 0.34250
C7 C -0.26450 0.03810 0.04620
C8 C -0.94040 0.16170 0.44900
C9 C -0.34550 0.14890 0.03080
C10 C -0.80400 0.12690 0.50040
C11 C -0.41440 0.16880 0.09280
C12 C -0.73070 0.07850 0.44750
C13 C -0.48560 0.10160 0.22950
C14 C -0.72140 0.01890 0.27620
C15 C -1.01670 0.22670 0.50890
H1 H -0.31790 -0.10810 0.23730
H2 H -0.97890 0.08130 0.21030
H3 H -0.19590 -0.14210 0.13280
H4 H -1.09840 0.16900 0.30280
H5 H -0.21210 0.02590 0.00310
H6 H -0.35510 0.21560 -0.02610
H7 H -0.75770 0.13420 0.57840
H8 H -0.47130 0.25360 0.08230
H9 H -0.63230 0.05850 0.48620
H10 H -0.47940 -0.10180 0.26010
N1 N -0.51150 -0.00760 0.27600
O1 O -0.52650 0.21580 0.24010
O2 O -0.58460 0.01600 0.33610
O3 O -0.77220 -0.00880 0.18530
#END
