
#######################################################################
#
#                 Cambridge Crystallographic Data Centre
#                                CCDC
#
#######################################################################
#
# If this CIF has been generated from an entry in the Cambridge
# Structural Database, then it will include bibliographic, chemical,
# crystal, experimental, refinement or atomic coordinate data resulting
# from the CCDC's data processing and validation procedures.
#
#######################################################################

data_CSD_CIF_BUBLOZ
_audit_creation_date 1983-10-06
_audit_creation_method CSD-ConQuest-V1
_database_code_CSD BUBLOZ
_database_code_depnum_ccdc_archive 'CCDC 1115785'
_chemical_formula_sum 'C8 H7 N1 O3'
_chemical_formula_moiety
;
C8 H7 N1 O3
;
_journal_coden_Cambridge 41
_journal_volume 28
_journal_year 1983
_journal_page_first 84
_journal_name_full 'Kristallografiya(Russ.)(Crystallogr.Rep.) '
loop_
_publ_author_name
"D.S.Yufit"
"A.I.Yanovsky"
"Yu.L.Frolov"
"Yu.T.Struchkov"
_chemical_name_systematic
;
p-Nitrophenyl vinyl ether
;
_cell_volume    759.436
_exptl_special_details
;
H(3) and H(4) removed for suspected coord. errors

;
_diffrn_ambient_temperature 153.15
#These two values have been output from a single CSD field.
_refine_ls_R_factor_gt 0.055
_refine_ls_wR_factor_gt 0.055
_symmetry_cell_setting monoclinic
_symmetry_space_group_name_H-M 'P 21/a'
_symmetry_Int_Tables_number 14
loop_
_symmetry_equiv_pos_site_id
_symmetry_equiv_pos_as_xyz
1 x,y,z
2 1/2-x,1/2+y,-z
3 -x,-y,-z
4 -1/2+x,-1/2-y,z
_cell_length_a 7.553(2)
_cell_length_b 11.758(6)
_cell_length_c 8.751(3)
_cell_angle_alpha 90
_cell_angle_beta 102.26(9)
_cell_angle_gamma 90
_cell_formula_units_Z 4
loop_
_atom_type_symbol
_atom_type_radius_bond
C 0.68
H 0.23
N 0.68
O 0.68
loop_
_atom_site_label
_atom_site_type_symbol
_atom_site_fract_x
_atom_site_fract_y
_atom_site_fract_z
C1 C 0.11140 0.65630 0.87190
C2 C -0.00230 0.63100 0.73040
C3 C -0.07690 0.71320 0.62490
C4 C -0.03670 0.82600 0.66330
C5 C 0.07440 0.85310 0.80530
C6 C 0.15080 0.77010 0.91050
C7 C 0.00280 1.04990 0.78540
C8 C 0.06140 1.14850 0.74850
N1 N -0.04570 0.51080 0.69050
O1 O 0.12250 0.96390 0.84930
O2 O -0.16010 0.49030 0.57150
O3 O 0.03430 0.43620 0.77640
H1 H 0.15600 0.60900 0.93800
H2 H 0.22200 0.78800 0.99900
H3 H -0.12000 1.02800 0.77500
H4 H 0.18700 1.16100 0.75400
H5 H -0.02300 1.21900 0.71300
#END
