
#######################################################################
#
#                 Cambridge Crystallographic Data Centre
#                                CCDC
#
#######################################################################
#
# If this CIF has been generated from an entry in the Cambridge
# Structural Database, then it will include bibliographic, chemical,
# crystal, experimental, refinement or atomic coordinate data resulting
# from the CCDC's data processing and validation procedures.
#
#######################################################################

data_CSD_CIF_BUBNER
_audit_creation_date 1983-10-06
_audit_creation_method CSD-ConQuest-V1
_database_code_CSD BUBNER
_database_code_depnum_ccdc_archive 'CCDC 1115791'
_chemical_formula_sum 'C10 H9 N1 O4'
_chemical_formula_moiety
;
C10 H9 N1 O4
;
_journal_coden_Cambridge 15
_journal_volume 61
_journal_year 1983
_journal_page_first 50
_journal_name_full 'Can.J.Chem. '
loop_
_publ_author_name
"J.D.Korp"
"I.Bernal"
"R.Fuchs"
_chemical_name_systematic
;
cis-2-(m-Nitrophenyl)-cyclopropane-carboxylic acid
;
_chemical_melting_point 451.85
_cell_volume    469.002
_exptl_crystal_density_diffrn 1.47
_exptl_special_details
;
Melting point range 451.85-452.85K

;
_diffrn_ambient_temperature ?
_diffrn_special_details
;
The study was carried out at room temperature,in the range 283-303K

;
#These two values have been output from a single CSD field.
_refine_ls_R_factor_gt 0.03
_refine_ls_wR_factor_gt 0.03
_symmetry_cell_setting triclinic
_symmetry_space_group_name_H-M 'P -1'
_symmetry_Int_Tables_number 2
loop_
_symmetry_equiv_pos_site_id
_symmetry_equiv_pos_as_xyz
1 x,y,z
2 -x,-y,-z
_cell_length_a 7.422(4)
_cell_length_b 8.615(4)
_cell_length_c 9.499(5)
_cell_angle_alpha 60.24(4)
_cell_angle_beta 63.76(5)
_cell_angle_gamma 71.36(4)
_cell_formula_units_Z 2
loop_
_atom_type_symbol
_atom_type_radius_bond
C 0.68
H 0.23
N 0.68
O 0.68
loop_
_atom_site_label
_atom_site_type_symbol
_atom_site_fract_x
_atom_site_fract_y
_atom_site_fract_z
O1 O 0.94950 0.23960 0.93310
O2 O 0.79110 0.04650 0.95000
O3 O 0.58040 -0.17890 0.70640
O4 O 0.76530 -0.15250 0.44660
N1 N 0.68930 -0.09640 0.55950
C1 C 0.80000 0.19900 0.92100
C2 C 0.65130 0.35720 0.86980
C3 C 0.44640 0.32840 0.89550
C4 C 0.58900 0.40770 0.71500
C5 C 0.68830 0.31430 0.59700
C6 C 0.64460 0.14950 0.63740
C7 C 0.73700 0.08000 0.51500
C8 C 0.86980 0.16890 0.35240
C9 C 0.91180 0.33370 0.31260
C10 C 0.82250 0.40550 0.43360
H1 H 1.05600 0.11700 0.97500
H2 H 0.65600 0.46600 0.88400
H3 H 0.43000 0.19500 0.95000
H4 H 0.32100 0.41800 0.93600
H5 H 0.56400 0.54500 0.65000
H6 H 0.55700 0.07900 0.74800
H7 H 0.93500 0.10800 0.27400
H8 H 1.00700 0.40300 0.19500
H9 H 0.85200 0.52600 0.40300
#END
