
#######################################################################
#
#                 Cambridge Crystallographic Data Centre
#                                CCDC
#
#######################################################################
#
# If this CIF has been generated from an entry in the Cambridge
# Structural Database, then it will include bibliographic, chemical,
# crystal, experimental, refinement or atomic coordinate data resulting
# from the CCDC's data processing and validation procedures.
#
#######################################################################

data_CSD_CIF_BUBQEU
_audit_creation_date 2001-12-19
_audit_creation_method CSD-ConQuest-V1
_database_code_CSD BUBQEU
_database_code_depnum_ccdc_archive 'CCDC 168614'
_chemical_formula_sum 'C11 H11 N1 O1'
_chemical_formula_moiety
;
C11 H11 N1 O1
;
_journal_coden_Cambridge 182
_journal_year 2001
_journal_page_first 1968
_journal_name_full 'Chem.Commun. '
loop_
_publ_author_name
"P.J.Dunn"
"A.B.Graham"
"R.Grigg"
"P.Higginson"
"V.Sridharan"
"M.Thornton-Pett"
_chemical_name_systematic
;
(4Z)-4-Benzylidene-3-methyl-4,5-dihydroisoxazole
;
_chemical_melting_point 380.65
_cell_volume   1823.768
_exptl_crystal_colour 'colorless'
_exptl_crystal_density_diffrn 1.262
_exptl_special_details
;
Melting point range 380.65-382.15K

;
_exptl_crystal_description 'needle'
_exptl_crystal_preparation 'dichloromethane/pentane'
_diffrn_ambient_temperature 150
#These two values have been output from a single CSD field.
_refine_ls_R_factor_gt 0.0449
_refine_ls_wR_factor_gt 0.0449
_symmetry_cell_setting orthorhombic
_symmetry_space_group_name_H-M 'P b c a'
_symmetry_Int_Tables_number 61
loop_
_symmetry_equiv_pos_site_id
_symmetry_equiv_pos_as_xyz
1 x,y,z
2 1/2-x,1/2+y,z
3 x,1/2-y,1/2+z
4 1/2+x,y,1/2-z
5 -x,-y,-z
6 -1/2+x,-1/2-y,-z
7 -x,-1/2+y,-1/2-z
8 -1/2-x,-y,-1/2+z
_cell_length_a 12.3331(2)
_cell_length_b 7.3853(2)
_cell_length_c 20.0230(9)
_cell_angle_alpha 90
_cell_angle_beta 90
_cell_angle_gamma 90
_cell_formula_units_Z 8
loop_
_atom_type_symbol
_atom_type_radius_bond
C 0.68
H 0.23
N 0.68
O 0.68
loop_
_atom_site_label
_atom_site_type_symbol
_atom_site_fract_x
_atom_site_fract_y
_atom_site_fract_z
O1 O 0.56863(9) 0.19278(16) 0.49390(6)
N1 N 0.64413(11) 0.23022(18) 0.44220(7)
C1 C 0.74058(13) 0.1964(2) 0.46361(7)
C2 C 0.83612(14) 0.2256(2) 0.41958(8)
H1 H 0.81180 0.27190 0.37620
H2 H 0.87440 0.11060 0.41320
H3 H 0.88510 0.31360 0.44040
C3 C 0.74306(12) 0.13189(19) 0.53248(7)
C4 C 0.62588(12) 0.1191(2) 0.55096(8)
H4 H 0.60470 -0.00840 0.55890
H5 H 0.61050 0.19060 0.59170
C5 C 0.83383(12) 0.10289(19) 0.56807(7)
H6 H 0.90020 0.12090 0.54490
C6 C 0.84323(12) 0.04696(19) 0.63800(7)
C7 C 0.75813(13) -0.0307(2) 0.67430(8)
H7 H 0.68990 -0.04910 0.65340
C8 C 0.77224(14) -0.0809(2) 0.74033(8)
H8 H 0.71390 -0.13490 0.76400
C9 C 0.86991(14) -0.0536(2) 0.77198(8)
H9 H 0.87900 -0.08830 0.81730
C10 C 0.95524(14) 0.0251(2) 0.73712(8)
H10 H 1.02250 0.04630 0.75890
C11 C 0.94228(13) 0.0727(2) 0.67076(8)
H11 H 1.00160 0.12360 0.64700
#END
