
#######################################################################
#
#                 Cambridge Crystallographic Data Centre
#                                CCDC
#
#######################################################################
#
# If this CIF has been generated from an entry in the Cambridge
# Structural Database, then it will include bibliographic, chemical,
# crystal, experimental, refinement or atomic coordinate data resulting
# from the CCDC's data processing and validation procedures.
#
#######################################################################

data_CSD_CIF_BUCTOJ
_audit_creation_date 2009-12-08
_audit_creation_method CSD-ConQuest-V1
_database_code_CSD BUCTOJ
_database_code_depnum_ccdc_archive 'CCDC 722641'
_chemical_formula_sum 'C40 H31 N5 O3'
_chemical_formula_moiety
;
C40 H31 N5 O3
;
_journal_coden_Cambridge 9
_journal_volume 48
_journal_year 2009
_journal_page_first 6879
_journal_name_full 'Inorg.Chem. '
loop_
_publ_author_name
"M.Stefanelli"
"Jing Shen"
"Weihua Zhu"
"M.Mastroianni"
"F.Mandoj"
"S.Nardis"
"Zhongping Ou"
"K.M.Kadish"
"F.R.Fronczek"
"K.M.Smith"
"R.Paolesse"
_chemical_name_systematic
;
5-Hydroxy-3-nitro-5,10,15-tri-p-tolylisocorrole
;
_cell_volume   1559.977
_exptl_crystal_colour 'dark green'
_exptl_crystal_density_diffrn 1.341
_diffrn_ambient_temperature 90
#These two values have been output from a single CSD field.
_refine_ls_R_factor_gt 0.039
_refine_ls_wR_factor_gt 0.039
_symmetry_cell_setting triclinic
_symmetry_space_group_name_H-M 'P -1'
_symmetry_Int_Tables_number 2
loop_
_symmetry_equiv_pos_site_id
_symmetry_equiv_pos_as_xyz
1 x,y,z
2 -x,-y,-z
_cell_length_a 7.7596(5)
_cell_length_b 11.0531(7)
_cell_length_c 18.6697(10)
_cell_angle_alpha 96.019(5)
_cell_angle_beta 98.975(5)
_cell_angle_gamma 96.284(5)
_cell_formula_units_Z 2
loop_
_atom_type_symbol
_atom_type_radius_bond
C 0.68
H 0.23
N 0.68
O 0.68
loop_
_atom_site_label
_atom_site_type_symbol
_atom_site_fract_x
_atom_site_fract_y
_atom_site_fract_z
O1 O 0.4164(2) 0.75308(14) 0.84233(8)
H1 H 0.328(3) 0.806(2) 0.8328(13)
O2 O 0.2101(2) 0.92524(15) 0.80106(8)
O3 O 0.1035(2) 0.98449(15) 0.69782(8)
N1 N 0.5966(2) 0.82275(16) 0.68559(9)
H2 H 0.706(3) 0.778(2) 0.6938(11)
N2 N 0.8040(2) 0.69688(16) 0.76681(9)
N3 N 1.0031(2) 0.65684(16) 0.64394(9)
H3 H 0.894(3) 0.692(2) 0.6426(11)
N4 N 0.7762(2) 0.78830(16) 0.58170(9)
N5 N 0.2163(2) 0.93765(16) 0.73574(10)
C1 C 0.5299(3) 0.86219(19) 0.62051(11)
C2 C 0.3779(3) 0.91032(19) 0.63055(12)
H4 H 0.30190 0.94490 0.59550
C3 C 0.3575(3) 0.89792(19) 0.70371(11)
C4 C 0.4966(3) 0.84082(19) 0.73676(11)
C5 C 0.5601(3) 0.80401(19) 0.81141(11)
C6 C 0.6825(3) 0.70463(19) 0.80932(11)
C7 C 0.6905(3) 0.6154(2) 0.86034(11)
H5 H 0.61570 0.60330 0.89540
C8 C 0.8249(3) 0.5527(2) 0.84863(11)
H6 H 0.86340 0.48780 0.87410
C9 C 0.8996(3) 0.60283(19) 0.78984(11)
C10 C 1.0393(3) 0.56344(18) 0.75992(11)
C11 C 1.0963(3) 0.59692(19) 0.69400(11)
C12 C 1.2467(3) 0.56899(19) 0.66538(12)
H7 H 1.33680 0.52720 0.68820
C13 C 1.2406(3) 0.61282(19) 0.59834(12)
H8 H 1.32640 0.60720 0.56740
C14 C 1.0847(3) 0.66734(19) 0.58404(11)
C15 C 1.0108(3) 0.72390(19) 0.52202(11)
C16 C 0.8560(3) 0.77561(19) 0.51992(11)
C17 C 0.7467(3) 0.8198(2) 0.46066(12)
H9 H 0.76880 0.82090 0.41210
C18 C 0.6068(3) 0.8594(2) 0.48711(11)
H10 H 0.51230 0.89350 0.46120
C19 C 0.6317(3) 0.83900(19) 0.56297(11)
C20 C 0.6673(3) 0.91599(19) 0.86158(11)
C21 C 0.6439(3) 0.9387(2) 0.93367(12)
H11 H 0.55770 0.88770 0.95150
C22 C 0.7460(3) 1.0355(2) 0.97987(12)
H12 H 0.72870 1.04920 1.02920
C23 C 0.8721(3) 1.1126(2) 0.95615(12)
C24 C 0.8973(3) 1.0881(2) 0.88438(12)
H13 H 0.98470 1.13840 0.86680
C25 C 0.7966(3) 0.9910(2) 0.83782(12)
H14 H 0.81650 0.97570 0.78890
C26 C 0.9792(3) 1.2186(2) 1.00643(13)
H15 H 0.92610 1.29370 0.99900
H16 H 1.09940 1.22840 0.99580
H17 H 0.98210 1.20260 1.05720
C27 C 1.1384(3) 0.4737(2) 0.79740(12)
C28 C 1.2161(3) 0.5001(2) 0.87112(12)
H18 H 1.20480 0.57610 0.89780
C29 C 1.3087(3) 0.4167(2) 0.90533(13)
H19 H 1.36100 0.43650 0.95530
C30 C 1.3274(3) 0.3037(2) 0.86817(13)
C31 C 1.2457(3) 0.2770(2) 0.79582(13)
H20 H 1.25220 0.19930 0.77000
C32 C 1.1553(3) 0.36000(19) 0.76028(12)
H21 H 1.10400 0.33990 0.71020
C33 C 1.4315(4) 0.2142(3) 0.90506(15)
H22 H 1.35330 0.13940 0.90750
H23 H 1.48550 0.25090 0.95460
H24 H 1.52370 0.19390 0.87720
C34 C 1.1048(3) 0.72794(19) 0.45859(11)
C35 C 1.1213(3) 0.8352(2) 0.42508(11)
H25 H 1.07660 0.90600 0.44450
C36 C 1.2020(3) 0.8397(2) 0.36382(11)
H26 H 1.20950 0.91290 0.34140
C37 C 1.2725(3) 0.7382(2) 0.33478(12)
C38 C 1.2585(3) 0.6326(2) 0.36887(12)
H27 H 1.30740 0.56300 0.35050
C39 C 1.1748(3) 0.6260(2) 0.42915(11)
H28 H 1.16490 0.55180 0.45060
C40 C 1.3584(3) 0.7440(2) 0.26818(13)
H29 H 1.42510 0.67430 0.26250
H30 H 1.43830 0.82080 0.27380
H31 H 1.26790 0.74090 0.22490
#END
