
#######################################################################
#
#                 Cambridge Crystallographic Data Centre
#                                CCDC
#
#######################################################################
#
# If this CIF has been generated from an entry in the Cambridge
# Structural Database, then it will include bibliographic, chemical,
# crystal, experimental, refinement or atomic coordinate data resulting
# from the CCDC's data processing and validation procedures.
#
#######################################################################

data_CSD_CIF_BUCXAY
_audit_creation_date 1983-11-09
_audit_creation_method CSD-ConQuest-V1
_database_code_CSD BUCXAY
_database_code_depnum_ccdc_archive 'CCDC 1115940'
_chemical_formula_sum 'C13 H17 N3 O2'
_chemical_formula_moiety
;
C13 H17 N3 O2
;
_journal_coden_Cambridge 456
_journal_volume 55
_journal_year 1981
_journal_page_first 1015
_journal_name_full 'Pol.J.Chem. '
loop_
_publ_author_name
"J.W.Krajewski"
"Z.Urbanczyk-Lipkowska"
"P.Gluzinski"
"I.Busko-Oszczapowicz"
"J.Oszczapowicz"
"Ya.Ya.Bleidelis"
"A.Kemme"
_chemical_name_systematic
;
N^1^-(Hexamethylene-C^1^,C^6^)-N^2^-p-nitrophenylformamidine
;
_cell_volume   1286.088
_exptl_crystal_colour 'dark yellow'
_exptl_crystal_density_diffrn 1.28
_diffrn_ambient_temperature ?
_diffrn_special_details
;
The study was carried out at room temperature,in the range 283-303K

;
#These two values have been output from a single CSD field.
_refine_ls_R_factor_gt 0.06
_refine_ls_wR_factor_gt 0.06
_symmetry_cell_setting monoclinic
_symmetry_space_group_name_H-M 'P 21/c'
_symmetry_Int_Tables_number 14
loop_
_symmetry_equiv_pos_site_id
_symmetry_equiv_pos_as_xyz
1 x,y,z
2 -x,1/2+y,1/2-z
3 -x,-y,-z
4 x,-1/2-y,-1/2+z
_cell_length_a 7.222(1)
_cell_length_b 17.168(2)
_cell_length_c 11.008(2)
_cell_angle_alpha 90
_cell_angle_beta 109.56(2)
_cell_angle_gamma 90
_cell_formula_units_Z 4
loop_
_atom_type_symbol
_atom_type_radius_bond
C 0.68
N 0.68
O 0.68
loop_
_atom_site_label
_atom_site_type_symbol
_atom_site_fract_x
_atom_site_fract_y
_atom_site_fract_z
O1 O 0.24050 -0.10380 1.26320
O2 O 0.34530 -0.21020 1.20570
N1 N 0.29150 -0.14220 1.18650
C1 C 0.28640 -0.10600 1.06500
C2 C 0.24730 -0.02730 1.04740
C3 C 0.24410 0.00730 0.93430
C4 C 0.27590 -0.03650 0.83560
C5 C 0.31730 -0.11620 0.85720
C6 C 0.32150 -0.15090 0.97080
N2 N 0.27630 -0.00700 0.71840
C7 C 0.16870 0.05410 0.67340
N3 N 0.16390 0.08830 0.56350
C8 C 0.03610 0.15580 0.51450
C9 C 0.14260 0.22950 0.50530
C10 C 0.19900 0.23670 0.38400
C11 C 0.34220 0.17450 0.37190
C12 C 0.26930 0.09190 0.36590
C13 C 0.29020 0.05500 0.49430
#END
