
#######################################################################
#
#                 Cambridge Crystallographic Data Centre
#                                CCDC
#
#######################################################################
#
# If this CIF has been generated from an entry in the Cambridge
# Structural Database, then it will include bibliographic, chemical,
# crystal, experimental, refinement or atomic coordinate data resulting
# from the CCDC's data processing and validation procedures.
#
#######################################################################

data_CSD_CIF_BUDDAF
_audit_creation_date 1983-11-09
_audit_creation_method CSD-ConQuest-V1
_database_code_CSD BUDDAF
_database_code_depnum_ccdc_archive 'CCDC 1115972'
_chemical_formula_sum 'C15 H10 N2 O2'
_chemical_formula_moiety
;
C15 H10 N2 O2
;
_journal_coden_Cambridge 54
_journal_volume 92
_journal_year 1983
_journal_page_first 101
_journal_name_full 'Bull.Soc.Chim.Belg. '
loop_
_publ_author_name
"B.Tinant"
"R.Touillaux"
"J.P.Declercq"
"M.van Meerssche"
"G.Leroy"
"J.Weiler"
_chemical_name_systematic
;
cis-4'-Nitro-\a-cyanostilbene
;
_cell_volume    624.157
_exptl_crystal_density_diffrn 1.33
_diffrn_ambient_temperature ?
_diffrn_special_details
;
The study was carried out at room temperature,in the range 283-303K

;
#These two values have been output from a single CSD field.
_refine_ls_R_factor_gt 0.037
_refine_ls_wR_factor_gt 0.037
_symmetry_cell_setting monoclinic
_symmetry_space_group_name_H-M 'P 21'
_symmetry_Int_Tables_number 4
loop_
_symmetry_equiv_pos_site_id
_symmetry_equiv_pos_as_xyz
1 x,y,z
2 -x,1/2+y,-z
_cell_length_a 5.655(2)
_cell_length_b 17.004(5)
_cell_length_c 6.521(2)
_cell_angle_alpha 90
_cell_angle_beta 95.50(3)
_cell_angle_gamma 90
_cell_formula_units_Z 2
loop_
_atom_type_symbol
_atom_type_radius_bond
C 0.68
N 0.68
O 0.68
loop_
_atom_site_label
_atom_site_type_symbol
_atom_site_fract_x
_atom_site_fract_y
_atom_site_fract_z
C1 C 0.50830 0.44130 -0.30210
C2 C 0.67940 0.50350 -0.22390
C3 C 0.66080 0.53880 -0.03300
C4 C 0.82690 0.59400 0.04050
C5 C 1.01000 0.61480 -0.07450
C6 C 1.02430 0.58150 -0.26160
C7 C 0.85820 0.52710 -0.33920
C8 C 0.45080 0.37470 -0.20640
C9 C 0.54350 0.34120 -0.00690
C10 C 0.40410 0.28560 0.07980
C11 C 0.47500 0.25090 0.26730
C12 C 0.68970 0.27400 0.36650
C13 C 0.83800 0.32700 0.28280
C14 C 0.76480 0.36020 0.09560
N1 N 0.76800 0.23860 0.56900
O1 O 0.63440 0.19360 0.64460
O2 O 0.96050 0.25680 0.65380
C15 C 0.39120 0.45440 -0.50650
N2 N 0.29690 0.46490 -0.66770
#END
