
#######################################################################
#
#                 Cambridge Crystallographic Data Centre
#                                CCDC
#
#######################################################################
#
# If this CIF has been generated from an entry in the Cambridge
# Structural Database, then it will include bibliographic, chemical,
# crystal, experimental, refinement or atomic coordinate data resulting
# from the CCDC's data processing and validation procedures.
#
#######################################################################

data_CSD_CIF_BUDDEJ
_audit_creation_date 1983-11-09
_audit_creation_method CSD-ConQuest-V1
_database_code_CSD BUDDEJ
_database_code_depnum_ccdc_archive 'CCDC 1115973'
_chemical_formula_sum 'C16 H12 N2 O2'
_chemical_formula_moiety
;
C16 H12 N2 O2
;
_journal_coden_Cambridge 54
_journal_volume 92
_journal_year 1983
_journal_page_first 101
_journal_name_full 'Bull.Soc.Chim.Belg. '
loop_
_publ_author_name
"B.Tinant"
"R.Touillaux"
"J.P.Declercq"
"M.van Meerssche"
"G.Leroy"
"J.Weiler"
_chemical_name_systematic
;
cis-4-Nitro-\a-cyano-\b-methylstilbene
;
_cell_volume   2799.721
_exptl_crystal_density_diffrn 1.25
_diffrn_ambient_temperature ?
_diffrn_special_details
;
The study was carried out at room temperature,in the range 283-303K

;
#These two values have been output from a single CSD field.
_refine_ls_R_factor_gt 0.062
_refine_ls_wR_factor_gt 0.062
_symmetry_cell_setting monoclinic
_symmetry_space_group_name_H-M 'C 2/c'
_symmetry_Int_Tables_number 15
loop_
_symmetry_equiv_pos_site_id
_symmetry_equiv_pos_as_xyz
1 x,y,z
2 1/2+x,1/2+y,z
3 -x,y,1/2-z
4 1/2-x,1/2+y,1/2-z
5 -x,-y,-z
6 -1/2-x,-1/2-y,-z
7 x,-y,-1/2+z
8 -1/2+x,-1/2-y,-1/2+z
_cell_length_a 23.104(3)
_cell_length_b 10.319(2)
_cell_length_c 13.310(4)
_cell_angle_alpha 90
_cell_angle_beta 118.08(2)
_cell_angle_gamma 90
_cell_formula_units_Z 8
loop_
_atom_type_symbol
_atom_type_radius_bond
C 0.68
N 0.68
O 0.68
loop_
_atom_site_label
_atom_site_type_symbol
_atom_site_fract_x
_atom_site_fract_y
_atom_site_fract_z
C1 C 0.67660 0.14800 0.56390
C2 C 0.63440 0.26500 0.51950
C3 C 0.56820 0.25390 0.44110
C4 C 0.52970 0.36360 0.39890
C5 C 0.55830 0.48330 0.43620
C6 C 0.62270 0.49740 0.51460
C7 C 0.66080 0.38700 0.55720
C8 C 0.67990 0.04810 0.49920
C9 C 0.64460 0.05380 0.37330
C10 C 0.60430 -0.04860 0.30910
C11 C 0.57250 -0.04350 0.19160
C12 C 0.58000 0.06010 0.13510
C13 C 0.62050 0.16200 0.19680
C14 C 0.65160 0.15870 0.31470
N1 N 0.51790 0.59990 0.39080
O1 O 0.46050 0.58730 0.32130
O2 O 0.54430 0.70590 0.42590
C15 C 0.71590 0.14350 0.68500
N2 N 0.74730 0.14370 0.78220
C16 C 0.72170 -0.06940 0.55350
#END
