
#######################################################################
#
#                 Cambridge Crystallographic Data Centre
#                                CCDC
#
#######################################################################
#
# If this CIF has been generated from an entry in the Cambridge
# Structural Database, then it will include bibliographic, chemical,
# crystal, experimental, refinement or atomic coordinate data resulting
# from the CCDC's data processing and validation procedures.
#
#######################################################################

data_CSD_CIF_BUDJIV
_audit_creation_date 2015-03-10
_audit_creation_method CSD-ConQuest-V1
_database_code_CSD BUDJIV
_database_code_depnum_ccdc_archive 'CCDC 1045630'
_chemical_formula_sum 'C30 H31 N3 O5'
_chemical_formula_moiety
;
C30 H31 N3 O5
;
_journal_coden_Cambridge 177
_journal_volume 13
_journal_year 2015
_journal_page_first 4260
_journal_name_full 'Org.Biomol.Chem. '
loop_
_publ_author_name
"Yunyun Chen"
"Gaofeng Feng"
_chemical_name_systematic
;
N-Cyclohexyl-2-(4-methoxyphenyl)-N-(3-nitrobenzoyl)-1,2,3,4-tetrahydroisoquino
line-1-carboxamide
;
_chemical_melting_point 345
_cell_volume   2559.353
_exptl_crystal_colour 'yellow'
_exptl_crystal_density_diffrn 1.333
_exptl_special_details
;
Melting point range 345-347K

;
_exptl_crystal_description 'block'
_exptl_crystal_preparation 'ethyl acetate/hexane'
_diffrn_ambient_temperature 173
#These two values have been output from a single CSD field.
_refine_ls_R_factor_gt 0.0972
_refine_ls_wR_factor_gt 0.0972
_symmetry_cell_setting monoclinic
_symmetry_space_group_name_H-M 'P 21/c'
_symmetry_Int_Tables_number 14
loop_
_symmetry_equiv_pos_site_id
_symmetry_equiv_pos_as_xyz
1 x,y,z
2 -x,1/2+y,1/2-z
3 -x,-y,-z
4 x,-1/2-y,-1/2+z
_cell_length_a 14.183(3)
_cell_length_b 11.422(2)
_cell_length_c 17.031(3)
_cell_angle_alpha 90
_cell_angle_beta 111.93(3)
_cell_angle_gamma 90
_cell_formula_units_Z 4
loop_
_atom_type_symbol
_atom_type_radius_bond
C 0.68
H 0.23
N 0.68
O 0.68
loop_
_atom_site_label
_atom_site_type_symbol
_atom_site_fract_x
_atom_site_fract_y
_atom_site_fract_z
C1 C 0.5408(3) -0.0384(3) 0.2511(2)
C2 C 0.6009(3) -0.0825(3) 0.1371(3)
H1 H 0.60550 -0.16070 0.15340
C3 C 0.7820(3) 0.1651(3) 0.4367(3)
C4 C 0.4178(3) 0.0475(3) 0.3109(3)
C5 C 0.7002(3) 0.1138(3) 0.3582(3)
H2 H 0.69940 0.16100 0.30990
N1 N 0.7225(3) -0.0062(3) 0.3417(2)
C6 C 0.5640(3) 0.0017(3) 0.1777(2)
C7 C 0.8081(3) -0.1372(3) 0.2770(3)
H3 H 0.77960 -0.20030 0.29470
C8 C 0.7402(3) -0.0783(3) 0.4185(3)
H4 H 0.74390 -0.16030 0.40530
H5 H 0.68390 -0.06840 0.43720
C9 C 0.6214(3) 0.0665(4) 0.0434(3)
H6 H 0.64140 0.08700 -0.00090
C10 C 0.8663(3) -0.1575(4) 0.2279(3)
H7 H 0.87630 -0.23360 0.21330
N2 N 0.5196(3) 0.0503(3) 0.3041(2)
C11 C 0.5548(3) 0.1176(3) 0.1496(3)
H8 H 0.53030 0.17440 0.17630
C12 C 0.7919(3) -0.0240(3) 0.2999(3)
C13 C 0.8498(3) 0.0909(4) 0.4969(3)
C14 C 0.9087(3) -0.0649(4) 0.2011(3)
C15 C 0.8951(4) 0.0474(4) 0.2264(3)
H9 H 0.92500 0.11040 0.20980
C16 C 0.5823(3) 0.1486(4) 0.0819(3)
H10 H 0.57410 0.22550 0.06250
C17 C 0.8384(3) 0.0679(4) 0.2755(3)
H11 H 0.83130 0.14380 0.29220
C18 C 0.6303(3) -0.0475(4) 0.0724(3)
C19 C 0.4122(3) -0.0444(4) 0.3739(3)
H12 H 0.42550 -0.12110 0.35580
H13 H 0.46410 -0.02850 0.42900
C20 C 0.9398(3) 0.2604(4) 0.5726(3)
H14 H 0.99430 0.29190 0.61720
C21 C 0.3335(4) 0.0326(4) 0.2251(3)
H15 H 0.34430 -0.03930 0.19930
H16 H 0.33540 0.09720 0.18870
C22 C 0.8700(4) 0.3345(4) 0.5149(3)
H17 H 0.87520 0.41530 0.52210
C23 C 0.8386(4) -0.0417(4) 0.4889(3)
H18 H 0.89560 -0.07390 0.47770
H19 H 0.84040 -0.07390 0.54210
C24 C 0.3089(4) -0.0448(4) 0.3809(3)
H20 H 0.29820 0.02920 0.40430
H21 H 0.30640 -0.10680 0.41900
C25 C 0.2254(4) -0.0635(4) 0.2947(4)
H22 H 0.23270 -0.14050 0.27370
H23 H 0.15970 -0.06020 0.30020
C26 C 0.7931(3) 0.2857(4) 0.4471(3)
H24 H 0.74730 0.33460 0.40720
C27 C 0.9286(3) 0.1408(4) 0.5642(3)
H25 H 0.97470 0.09250 0.60430
C28 C 0.2297(4) 0.0287(5) 0.2322(3)
H26 H 0.21480 0.10480 0.25020
H27 H 0.17810 0.01200 0.17700
O1 O 0.9652(2) -0.0751(3) 0.1514(2)
N3 N 0.6724(3) -0.1364(3) 0.0317(2)
O2 O 0.5226(3) -0.1408(2) 0.2606(2)
O3 O 0.6701(3) -0.2388(3) 0.0511(2)
O4 O 0.7087(3) -0.1035(3) -0.0200(2)
O5 O 0.5741(2) 0.1876(2) 0.40885(18)
C29 C 0.5928(3) 0.1209(3) 0.3605(3)
C30 C 0.9681(4) -0.1859(5) 0.1155(4)
H28 H 1.00850 -0.18130 0.08120
H29 H 0.90030 -0.20970 0.08110
H30 H 0.99750 -0.24210 0.15990
H31 H 0.416(3) 0.119(3) 0.341(2)
#END
