
#######################################################################
#
#                 Cambridge Crystallographic Data Centre
#                                CCDC
#
#######################################################################
#
# If this CIF has been generated from an entry in the Cambridge
# Structural Database, then it will include bibliographic, chemical,
# crystal, experimental, refinement or atomic coordinate data resulting
# from the CCDC's data processing and validation procedures.
#
#######################################################################

data_CSD_CIF_BUDKER
_audit_creation_date 2009-12-08
_audit_creation_method CSD-ConQuest-V1
_database_code_CSD BUDKER
_database_code_depnum_ccdc_archive 'CCDC 750585'
_chemical_formula_sum 'C14 H12 N2 O6'
_chemical_formula_moiety
;
C14 H12 N2 O6
;
_journal_coeditor_code "IUCr SI2193"
_journal_coden_Cambridge 1370
_journal_volume 65
_journal_year 2009
_journal_page_first o2314
_journal_name_full 'Acta Crystallogr.,Sect.E:Struct.Rep.Online '
loop_
_publ_author_name
"Shao-Bin Miao"
"Dong-Sheng Deng"
"Xian-Ming Liu"
"Bao-Ming Ji"
_chemical_name_systematic
;
2,2'-Dimethoxy-6,6'-dinitrobiphenyl
;
_cell_volume   1402.026
_exptl_crystal_colour 'yellow'
_exptl_crystal_density_diffrn 1.441
_exptl_crystal_description 'block'
_exptl_crystal_preparation 'ethyl acetate'
_diffrn_ambient_temperature 294
#These two values have been output from a single CSD field.
_refine_ls_R_factor_gt 0.0352
_refine_ls_wR_factor_gt 0.0352
_symmetry_cell_setting monoclinic
_symmetry_space_group_name_H-M 'C 2/c'
_symmetry_Int_Tables_number 15
loop_
_symmetry_equiv_pos_site_id
_symmetry_equiv_pos_as_xyz
1 x,y,z
2 -x,y,1/2-z
3 1/2+x,1/2+y,z
4 1/2-x,1/2+y,1/2-z
5 -x,-y,-z
6 x,-y,-1/2+z
7 -1/2-x,-1/2-y,-z
8 -1/2+x,-1/2-y,-1/2+z
_cell_length_a 18.236(3)
_cell_length_b 7.7826(12)
_cell_length_c 10.9079(17)
_cell_angle_alpha 90
_cell_angle_beta 115.089(2)
_cell_angle_gamma 90
_cell_formula_units_Z 4
loop_
_atom_type_symbol
_atom_type_radius_bond
C 0.68
H 0.23
N 0.68
O 0.68
loop_
_atom_site_label
_atom_site_type_symbol
_atom_site_fract_x
_atom_site_fract_y
_atom_site_fract_z
C1 C 0.49134(9) 0.22562(19) 0.67636(14)
C2 C 0.54245(9) 0.2962(2) 0.62577(15)
C3 C 0.52777(12) 0.2896(2) 0.49065(17)
H1 H 0.56390 0.33780 0.46070
C4 C 0.45847(12) 0.2102(2) 0.40223(17)
H2 H 0.44710 0.20580 0.31070
C5 C 0.40569(11) 0.1370(2) 0.44656(16)
H3 H 0.35890 0.08350 0.38520
C6 C 0.42203(9) 0.1426(2) 0.58296(15)
C7 C 0.30000(13) -0.0071(4) 0.5464(2)
H4 H 0.26730 0.07670 0.48170
H5 H 0.27160 -0.04850 0.59710
H6 H 0.31100 -0.10120 0.49980
N1 N 0.61559(9) 0.3880(2) 0.71661(15)
O1 O 0.37432(7) 0.06986(18) 0.63620(11)
O2 O 0.61327(8) 0.47507(17) 0.80791(13)
O3 O 0.67594(9) 0.3739(3) 0.69543(17)
C1A C 0.50866(9) 0.22562(19) 0.82364(14)
C2A C 0.45755(9) 0.2962(2) 0.87423(15)
C3A C 0.47223(12) 0.2896(2) 1.00935(17)
H1A H 0.43610 0.33780 1.03930
C4A C 0.54153(12) 0.2102(2) 1.09777(17)
H2A H 0.55290 0.20580 1.18930
C5A C 0.59431(11) 0.1370(2) 1.05344(16)
H3A H 0.64110 0.08350 1.11480
C6A C 0.57797(9) 0.1426(2) 0.91704(15)
C7A C 0.70000(13) -0.0071(4) 0.9536(2)
H4A H 0.73270 0.07670 1.01830
H5A H 0.72840 -0.04850 0.90290
H6A H 0.68900 -0.10120 1.00020
N1A N 0.38441(9) 0.3880(2) 0.78339(15)
O1A O 0.62568(7) 0.06986(18) 0.86380(11)
O2A O 0.38673(8) 0.47507(17) 0.69209(13)
O3A O 0.32406(9) 0.3739(3) 0.80457(17)
#END
