
#######################################################################
#
#                 Cambridge Crystallographic Data Centre
#                                CCDC
#
#######################################################################
#
# If this CIF has been generated from an entry in the Cambridge
# Structural Database, then it will include bibliographic, chemical,
# crystal, experimental, refinement or atomic coordinate data resulting
# from the CCDC's data processing and validation procedures.
#
#######################################################################

data_CSD_CIF_BUDNAQ
_audit_creation_date 2009-12-08
_audit_creation_method CSD-ConQuest-V1
_database_code_CSD BUDNAQ
_database_code_depnum_ccdc_archive 'CCDC 750599'
_chemical_formula_sum 'C8 H6 N2 O3'
_chemical_formula_moiety
;
C8 H6 N2 O3
;
_journal_coeditor_code "IUCr HK2760"
_journal_coden_Cambridge 1370
_journal_volume 65
_journal_year 2009
_journal_page_first o2328
_journal_name_full 'Acta Crystallogr.,Sect.E:Struct.Rep.Online '
loop_
_publ_author_name
"Hui-ling Yu"
_chemical_name_systematic
;
6-Hydroxy-3-(hydroxyimino)indolin-2-one
;
_cell_volume    742.426
_exptl_crystal_colour 'yellow'
_exptl_crystal_density_diffrn 1.594
_exptl_crystal_description 'block'
_exptl_crystal_preparation 'ethyl acetate'
_diffrn_ambient_temperature 294
#These two values have been output from a single CSD field.
_refine_ls_R_factor_gt 0.0608
_refine_ls_wR_factor_gt 0.0608
_symmetry_cell_setting monoclinic
_symmetry_space_group_name_H-M 'P 21/c'
_symmetry_Int_Tables_number 14
loop_
_symmetry_equiv_pos_site_id
_symmetry_equiv_pos_as_xyz
1 x,y,z
2 -x,1/2+y,1/2-z
3 -x,-y,-z
4 x,-1/2-y,-1/2+z
_cell_length_a 7.4160(15)
_cell_length_b 7.1240(14)
_cell_length_c 14.111(3)
_cell_angle_alpha 90
_cell_angle_beta 95.21(3)
_cell_angle_gamma 90
_cell_formula_units_Z 4
loop_
_atom_type_symbol
_atom_type_radius_bond
C 0.68
H 0.23
N 0.68
O 0.68
loop_
_atom_site_label
_atom_site_type_symbol
_atom_site_fract_x
_atom_site_fract_y
_atom_site_fract_z
O1 O 0.9722(3) 0.3850(3) 0.61373(16)
H1 H 0.88460 0.48240 0.59920
O2 O 0.5104(3) -0.3981(3) 0.38450(15)
O3 O 0.6534(3) 0.1382(3) 0.29758(15)
H2 H 0.61700 0.16520 0.24270
N1 N 0.6497(4) -0.2911(4) 0.52693(17)
H3 H 0.63310 -0.38800 0.56150
N2 N 0.6071(3) -0.0423(4) 0.31580(17)
C1 C 0.8929(4) 0.2147(5) 0.5948(2)
C2 C 0.8858(4) 0.0912(5) 0.6684(2)
H4 H 0.93380 0.12450 0.72920
C3 C 0.8071(4) -0.0837(5) 0.6524(2)
H5 H 0.80210 -0.16990 0.70150
C4 C 0.7367(4) -0.1255(4) 0.5612(2)
C5 C 0.7418(4) 0.0035(4) 0.48642(18)
C6 C 0.8213(4) 0.1782(4) 0.5024(2)
H6 H 0.82630 0.26600 0.45390
C7 C 0.5958(4) -0.2790(4) 0.4338(2)
C8 C 0.6537(4) -0.0880(4) 0.40277(19)
#END
