
#######################################################################
#
#                 Cambridge Crystallographic Data Centre
#                                CCDC
#
#######################################################################
#
# If this CIF has been generated from an entry in the Cambridge
# Structural Database, then it will include bibliographic, chemical,
# crystal, experimental, refinement or atomic coordinate data resulting
# from the CCDC's data processing and validation procedures.
#
#######################################################################

data_CSD_CIF_BUDRIC
_audit_creation_date 2009-12-08
_audit_creation_method CSD-ConQuest-V1
_database_code_CSD BUDRIC
_database_code_depnum_ccdc_archive 'CCDC 750616'
_chemical_formula_sum 'C12 H10 N2 O6'
_chemical_formula_moiety
;
C12 H10 N2 O6
;
_journal_coeditor_code "IUCr SI2196"
_journal_coden_Cambridge 1370
_journal_volume 65
_journal_year 2009
_journal_page_first o2351
_journal_name_full 'Acta Crystallogr.,Sect.E:Struct.Rep.Online '
loop_
_publ_author_name
"Shi-Jie Zhang"
"Xian-Ming Zheng"
"Wei-Xiao Hu"
_chemical_name_systematic
;
(E)-Ethyl 2-cyano-3-(3,4-dihydroxy-5-nitrophenyl)acrylate
;
_chemical_melting_point 484
_cell_volume   2369.006
_exptl_crystal_colour 'yellow'
_exptl_crystal_density_diffrn 1.56
_exptl_special_details
;
Melting point range 484-485K

;
_exptl_crystal_description 'prism'
_exptl_crystal_preparation 'ethanol'
_diffrn_ambient_temperature 93
#These two values have been output from a single CSD field.
_refine_ls_R_factor_gt 0.0483
_refine_ls_wR_factor_gt 0.0483
_symmetry_cell_setting monoclinic
_symmetry_space_group_name_H-M 'C 2/c'
_symmetry_Int_Tables_number 15
loop_
_symmetry_equiv_pos_site_id
_symmetry_equiv_pos_as_xyz
1 x,y,z
2 -x,y,1/2-z
3 1/2+x,1/2+y,z
4 1/2-x,1/2+y,1/2-z
5 -x,-y,-z
6 x,-y,-1/2+z
7 -1/2-x,-1/2-y,-z
8 -1/2+x,-1/2-y,-1/2+z
_cell_length_a 24.983(9)
_cell_length_b 13.485(5)
_cell_length_c 7.312(3)
_cell_angle_alpha 90
_cell_angle_beta 105.911(4)
_cell_angle_gamma 90
_cell_formula_units_Z 8
loop_
_atom_type_symbol
_atom_type_radius_bond
C 0.68
H 0.23
N 0.68
O 0.68
loop_
_atom_site_label
_atom_site_type_symbol
_atom_site_fract_x
_atom_site_fract_y
_atom_site_fract_z
O1 O 0.39296(5) 0.60992(8) 0.12800(18)
O2 O 0.45623(5) 0.47578(9) 0.04941(17)
O3 O 0.47644(5) 0.28865(9) 0.03118(18)
O4 O 0.41766(5) 0.17833(9) 0.07290(19)
O5 O 0.13633(5) 0.39925(8) 0.35194(16)
O6 O 0.17659(5) 0.25177(9) 0.32497(17)
N1 N 0.20946(6) 0.59192(11) 0.2676(2)
N2 N 0.43188(6) 0.26508(11) 0.0670(2)
C1 C 0.32709(7) 0.48910(12) 0.1768(2)
H1 H 0.30330 0.53910 0.20230
C2 C 0.37531(7) 0.51576(12) 0.1344(2)
C3 C 0.41109(7) 0.44238(13) 0.0937(2)
C4 C 0.39609(7) 0.34321(12) 0.1026(2)
C5 C 0.34721(7) 0.31586(12) 0.1455(2)
H2 H 0.33790 0.24770 0.14890
C6 C 0.31215(7) 0.38778(12) 0.1831(2)
C7 C 0.26290(7) 0.35205(12) 0.2309(2)
H3 H 0.26010 0.28190 0.23520
C8 C 0.22018(7) 0.40137(12) 0.2704(2)
C9 C 0.17571(7) 0.34244(12) 0.3181(2)
C10 C 0.21410(7) 0.50688(13) 0.2690(2)
C11 C 0.09158(7) 0.34963(13) 0.4102(2)
H4 H 0.10720 0.30130 0.51290
H5 H 0.06680 0.31380 0.30130
C12 C 0.05971(7) 0.42919(13) 0.4796(3)
H6 H 0.08400 0.46090 0.59270
H7 H 0.02760 0.39950 0.51190
H8 H 0.04670 0.47890 0.37950
H9 H 0.4735(10) 0.4161(19) 0.024(3)
H10 H 0.3692(11) 0.659(2) 0.139(3)
#END
