
#######################################################################
#
#                 Cambridge Crystallographic Data Centre
#                                CCDC
#
#######################################################################
#
# If this CIF has been generated from an entry in the Cambridge
# Structural Database, then it will include bibliographic, chemical,
# crystal, experimental, refinement or atomic coordinate data resulting
# from the CCDC's data processing and validation procedures.
#
#######################################################################

data_CSD_CIF_BUDVIH
_audit_creation_date 2015-03-10
_audit_creation_method CSD-ConQuest-V1
_database_code_CSD BUDVIH
_database_code_depnum_ccdc_archive 'CCDC 989222'
_chemical_formula_sum 'C11 H10 N2 O4'
_chemical_formula_moiety
;
C11 H10 N2 O4
;
_journal_coden_Cambridge 16
_journal_volume 70
_journal_year 2014
_journal_page_first 7505
_journal_name_full 'Tetrahedron '
loop_
_publ_author_name
"R.R.Rajawinslin"
"M.J.Raihan"
"D.Janreddy"
"V.Kavala"
"Chun-Wei Kuo"
"Ting-Shen Kuo"
"Mei-Ling Chen"
"Chiu-Hui He"
"Ching-Fa Yao"
_chemical_name_systematic
;
3-Methyl-4-methylene-5-(4-nitrophenyl)-4,5-dihydro-1,2-oxazol-5-ol
;
_cell_volume   1072.656
_exptl_crystal_colour 'colorless'
_exptl_crystal_density_diffrn 1.45
_exptl_crystal_description 'prism'
_diffrn_ambient_temperature 296
#These two values have been output from a single CSD field.
_refine_ls_R_factor_gt 0.0559
_refine_ls_wR_factor_gt 0.0559
_symmetry_cell_setting monoclinic
_symmetry_space_group_name_H-M 'P 21/n'
_symmetry_Int_Tables_number 14
loop_
_symmetry_equiv_pos_site_id
_symmetry_equiv_pos_as_xyz
1 x,y,z
2 1/2-x,1/2+y,1/2-z
3 -x,-y,-z
4 -1/2+x,-1/2-y,-1/2+z
_cell_length_a 12.1854(7)
_cell_length_b 7.0166(5)
_cell_length_c 13.8521(9)
_cell_angle_alpha 90
_cell_angle_beta 115.084(4)
_cell_angle_gamma 90
_cell_formula_units_Z 4
loop_
_atom_type_symbol
_atom_type_radius_bond
C 0.68
H 0.23
N 0.68
O 0.68
loop_
_atom_site_label
_atom_site_type_symbol
_atom_site_fract_x
_atom_site_fract_y
_atom_site_fract_z
C1 C 0.8622(2) -0.1379(5) 0.4016(2)
C2 C 0.8414(3) -0.2198(4) 0.4828(2)
H1 H 0.84910 -0.35060 0.49430
C3 C 0.8091(3) -0.1029(4) 0.5465(2)
H2 H 0.79430 -0.15590 0.60140
C4 C 0.7983(2) 0.0931(4) 0.5300(2)
C5 C 0.8207(3) 0.1702(5) 0.4482(2)
H3 H 0.81390 0.30120 0.43670
C6 C 0.8529(3) 0.0555(5) 0.3834(2)
H4 H 0.86800 0.10780 0.32850
C7 C 0.7588(3) 0.2189(4) 0.5982(2)
C8 C 0.6231(3) 0.2266(4) 0.5651(3)
C9 C 0.5381(3) 0.2670(5) 0.4706(3)
H5 H 0.45740 0.26910 0.45970
H6 H 0.55850 0.29360 0.41450
C10 C 0.6091(3) 0.1819(4) 0.6612(2)
C11 C 0.4956(3) 0.1929(6) 0.6768(3)
H7 H 0.48150 0.33800 0.67950
H8 H 0.51110 0.12650 0.73770
H9 H 0.43870 0.11410 0.62800
N1 N 0.8947(2) -0.2596(5) 0.3319(2)
N2 N 0.7094(2) 0.1322(3) 0.7382(2)
O1 O 0.9168(2) -0.1872(4) 0.26277(19)
O2 O 0.8975(2) -0.4332(4) 0.3464(2)
O3 O 0.80712(19) 0.3996(3) 0.60188(17)
H10 H 0.79150 0.46260 0.65810
O4 O 0.80438(16) 0.1373(3) 0.70454(15)
#END
