
#######################################################################
#
#                 Cambridge Crystallographic Data Centre
#                                CCDC
#
#######################################################################
#
# If this CIF has been generated from an entry in the Cambridge
# Structural Database, then it will include bibliographic, chemical,
# crystal, experimental, refinement or atomic coordinate data resulting
# from the CCDC's data processing and validation procedures.
#
#######################################################################

data_CSD_CIF_BUDXOO
_audit_creation_date 2009-12-08
_audit_creation_method CSD-ConQuest-V1
_database_code_CSD BUDXOO
_database_code_depnum_ccdc_archive 'CCDC 750744'
_chemical_formula_sum 'C15 H11 N1 O3'
_chemical_formula_moiety
;
C15 H11 N1 O3
;
_journal_coeditor_code "IUCr CI2913"
_journal_coden_Cambridge 1370
_journal_volume 65
_journal_year 2009
_journal_page_first o2510
_journal_name_full 'Acta Crystallogr.,Sect.E:Struct.Rep.Online '
loop_
_publ_author_name
"Lin-Hai Jing"
_chemical_name_systematic
;
(E)-1-(4-Nitrophenyl)-3-phenylprop-2-en-1-one
;
_cell_volume   1180.760
_exptl_crystal_colour 'yellow'
_exptl_crystal_density_diffrn 1.425
_exptl_crystal_description 'needle'
_exptl_crystal_preparation 'acetone'
_diffrn_ambient_temperature 93
#These two values have been output from a single CSD field.
_refine_ls_R_factor_gt 0.0368
_refine_ls_wR_factor_gt 0.0368
_symmetry_cell_setting monoclinic
_symmetry_space_group_name_H-M 'P 21/c'
_symmetry_Int_Tables_number 14
loop_
_symmetry_equiv_pos_site_id
_symmetry_equiv_pos_as_xyz
1 x,y,z
2 -x,1/2+y,1/2-z
3 -x,-y,-z
4 x,-1/2-y,-1/2+z
_cell_length_a 6.2139(10)
_cell_length_b 13.159(2)
_cell_length_c 14.450(3)
_cell_angle_alpha 90
_cell_angle_beta 92.106(3)
_cell_angle_gamma 90
_cell_formula_units_Z 4
loop_
_atom_type_symbol
_atom_type_radius_bond
C 0.68
H 0.23
N 0.68
O 0.68
loop_
_atom_site_label
_atom_site_type_symbol
_atom_site_fract_x
_atom_site_fract_y
_atom_site_fract_z
O1 O 0.19885(14) 0.39882(7) 0.06264(7)
O2 O 0.89968(15) 0.02961(7) 0.20944(7)
O3 O 1.11753(14) 0.14090(7) 0.27163(7)
N1 N 0.94974(16) 0.11770(8) 0.22851(7)
C1 C 0.11212(19) 0.77346(9) 0.04561(8)
H1 H -0.01640 0.73950 0.02580
C2 C 0.1184(2) 0.87899(9) 0.04625(9)
H2 H -0.00590 0.91690 0.02770
C3 C 0.3061(2) 0.92892(9) 0.07402(9)
H3 H 0.31040 1.00110 0.07410
C4 C 0.4885(2) 0.87379(9) 0.10183(8)
H4 H 0.61700 0.90830 0.12060
C5 C 0.48224(19) 0.76832(9) 0.10203(8)
H5 H 0.60660 0.73090 0.12140
C6 C 0.29377(19) 0.71675(9) 0.07389(8)
C7 C 0.27514(19) 0.60597(9) 0.07315(8)
H6 H 0.14690 0.57890 0.04510
C8 C 0.41785(19) 0.53830(9) 0.10745(8)
H7 H 0.54960 0.56040 0.13620
C9 C 0.36764(19) 0.42863(9) 0.10009(8)
C10 C 0.52508(19) 0.35096(9) 0.13838(8)
C11 C 0.72971(19) 0.37564(9) 0.17453(8)
H8 H 0.77330 0.44480 0.17800
C12 C 0.87037(19) 0.29959(9) 0.20556(8)
H9 H 1.00950 0.31580 0.23080
C13 C 0.80212(19) 0.19972(9) 0.19868(8)
C14 C 0.59903(19) 0.17265(9) 0.16446(8)
H10 H 0.55580 0.10340 0.16180
C15 C 0.46102(19) 0.24900(9) 0.13438(8)
H11 H 0.32090 0.23220 0.11070
#END
