
#######################################################################
#
#                 Cambridge Crystallographic Data Centre
#                                CCDC
#
#######################################################################
#
# If this CIF has been generated from an entry in the Cambridge
# Structural Database, then it will include bibliographic, chemical,
# crystal, experimental, refinement or atomic coordinate data resulting
# from the CCDC's data processing and validation procedures.
#
#######################################################################

data_CSD_CIF_BUFDUC
_audit_creation_date 2009-12-08
_audit_creation_method CSD-ConQuest-V1
_database_code_CSD BUFDUC
_database_code_depnum_ccdc_archive 'CCDC 750795'
_chemical_formula_sum 'C15 H15 N3 O4'
_chemical_formula_moiety
;
C15 H15 N3 O4
;
_journal_coeditor_code "IUCr DN2485"
_journal_coden_Cambridge 1370
_journal_volume 65
_journal_year 2009
_journal_page_first o2575
_journal_name_full 'Acta Crystallogr.,Sect.E:Struct.Rep.Online '
loop_
_publ_author_name
"Zhi-Gang Yin"
"Heng-Yu Qian"
"Chun-Xia Zhang"
"Xue-Wen Zhu"
_chemical_name_systematic
;
2-Ethoxy-4-((2-nitrophenyl)carbonohydrazonoyl)phenol
;
_cell_volume   1417.591
_exptl_crystal_colour 'red'
_exptl_crystal_density_diffrn 1.412
_exptl_crystal_description 'block'
_exptl_crystal_preparation 'methanol'
_diffrn_ambient_temperature 296
#These two values have been output from a single CSD field.
_refine_ls_R_factor_gt 0.0366
_refine_ls_wR_factor_gt 0.0366
_symmetry_cell_setting monoclinic
_symmetry_space_group_name_H-M 'P 21/c'
_symmetry_Int_Tables_number 14
loop_
_symmetry_equiv_pos_site_id
_symmetry_equiv_pos_as_xyz
1 x,y,z
2 -x,1/2+y,1/2-z
3 -x,-y,-z
4 x,-1/2-y,-1/2+z
_cell_length_a 14.586(3)
_cell_length_b 5.002(1)
_cell_length_c 19.894(4)
_cell_angle_alpha 90
_cell_angle_beta 102.40(3)
_cell_angle_gamma 90
_cell_formula_units_Z 4
loop_
_atom_type_symbol
_atom_type_radius_bond
C 0.68
H 0.23
N 0.68
O 0.68
loop_
_atom_site_label
_atom_site_type_symbol
_atom_site_fract_x
_atom_site_fract_y
_atom_site_fract_z
C1 C 0.06946(14) 0.4950(3) 0.12464(9)
C2 C 0.07330(15) 0.6553(4) 0.18267(10)
H1 H 0.03010 0.62900 0.21030
C3 C 0.13985(16) 0.8501(4) 0.19918(10)
H2 H 0.14280 0.95620 0.23800
C4 C 0.20308(15) 0.8864(4) 0.15677(10)
H3 H 0.24830 1.01970 0.16740
C5 C 0.20040(15) 0.7316(4) 0.1001(1)
H4 H 0.24390 0.76200 0.07290
C6 C 0.13368(14) 0.5272(3) 0.08161(10)
C7 C 0.19806(14) 0.2628(4) -0.06428(9)
H5 H 0.15100 0.13410 -0.07370
C8 C 0.26434(14) 0.2814(3) -0.10903(9)
C9 C 0.33800(14) 0.4669(3) -0.09704(9)
H6 H 0.34550 0.58220 -0.05960
C10 C 0.39910(14) 0.4781(3) -0.14074(10)
C11 C 0.38746(14) 0.3060(4) -0.19732(9)
C12 C 0.31578(15) 0.1243(4) -0.20896(10)
H7 H 0.30820 0.01020 -0.24670
C13 C 0.25466(15) 0.1098(4) -0.16481(10)
H8 H 0.20660 -0.01610 -0.17260
C14 C 0.49775(15) 0.8147(4) -0.07617(10)
H9 H 0.50670 0.71070 -0.03410
H10 H 0.44760 0.94220 -0.07640
C15 C 0.58674(16) 0.9580(4) -0.08049(11)
H11 H 0.63580 0.82980 -0.08020
H12 H 0.60440 1.07570 -0.04170
H13 H 0.57690 1.06020 -0.12230
N1 N -0.00228(12) 0.2929(3) 0.11143(9)
N2 N 0.13414(11) 0.3742(3) 0.02520(8)
H14 H 0.09240 0.25190 0.01310
N3 N 0.20184(11) 0.4161(3) -0.01266(8)
O1 O -0.00973(10) 0.1463(3) 0.06016(7)
O2 O -0.05468(11) 0.2664(3) 0.15192(7)
O3 O 0.47481(10) 0.6437(2) -0.13471(7)
O4 O 0.44797(11) 0.3159(2) -0.24127(7)
H15 H 0.47890 0.45400 -0.23460
#END
