
#######################################################################
#
#                 Cambridge Crystallographic Data Centre
#                                CCDC
#
#######################################################################
#
# If this CIF has been generated from an entry in the Cambridge
# Structural Database, then it will include bibliographic, chemical,
# crystal, experimental, refinement or atomic coordinate data resulting
# from the CCDC's data processing and validation procedures.
#
#######################################################################

data_CSD_CIF_BUFJOC
_audit_creation_date 2009-12-08
_audit_creation_method CSD-ConQuest-V1
_database_code_CSD BUFJOC
_database_code_depnum_ccdc_archive 'CCDC 712162'
_chemical_formula_sum 'C24 H32 N2 O4'
_chemical_formula_moiety
;
C24 H32 N2 O4
;
_journal_coeditor_code "IUCr PK2184"
_journal_coden_Cambridge 1370
_journal_volume 65
_journal_year 2009
_journal_page_first o2311
_journal_name_full 'Acta Crystallogr.,Sect.E:Struct.Rep.Online '
loop_
_publ_author_name
"Wen-Kui Dong"
"Jun-Feng Tong"
"Jian Yao"
"Shang-Sheng Gong"
"Jian-Chao Wu"
_chemical_name_systematic
;
2,2'-(1,1'-(Octane-1,8-diyldioxydinitrilo)diethylidyne)diphenol
;
_cell_volume   2249.624
_exptl_crystal_colour 'colorless'
_exptl_crystal_density_diffrn 1.218
_exptl_crystal_description 'block'
_exptl_crystal_preparation 'diethyl ether'
_diffrn_ambient_temperature 298
#These two values have been output from a single CSD field.
_refine_ls_R_factor_gt 0.0738
_refine_ls_wR_factor_gt 0.0738
_symmetry_cell_setting monoclinic
_symmetry_space_group_name_H-M 'C 2/c'
_symmetry_Int_Tables_number 15
loop_
_symmetry_equiv_pos_site_id
_symmetry_equiv_pos_as_xyz
1 x,y,z
2 -x,y,1/2-z
3 1/2+x,1/2+y,z
4 1/2-x,1/2+y,1/2-z
5 -x,-y,-z
6 x,-y,-1/2+z
7 -1/2-x,-1/2-y,-z
8 -1/2+x,-1/2-y,-1/2+z
_cell_length_a 12.9524(12)
_cell_length_b 4.6667(6)
_cell_length_c 37.722(3)
_cell_angle_alpha 90
_cell_angle_beta 99.379(2)
_cell_angle_gamma 90
_cell_formula_units_Z 4
loop_
_atom_type_symbol
_atom_type_radius_bond
C 0.68
H 0.23
N 0.68
O 0.68
loop_
_atom_site_label
_atom_site_type_symbol
_atom_site_fract_x
_atom_site_fract_y
_atom_site_fract_z
N1 N 0.3869(2) 0.5102(7) 0.38238(7)
O1 O 0.35769(17) 0.6700(6) 0.41082(6)
O2 O 0.51778(18) 0.3352(7) 0.34323(7)
H1 H 0.49800 0.42880 0.35930
C1 C 0.4459(3) 0.8346(9) 0.42728(9)
H2 H 0.42240 0.97860 0.44270
H3 H 0.47570 0.93350 0.40870
C2 C 0.5297(2) 0.6538(9) 0.44922(9)
H4 H 0.55940 0.52540 0.43330
H5 H 0.49830 0.53770 0.46590
C3 C 0.6162(2) 0.8345(9) 0.46995(9)
H6 H 0.58700 0.95130 0.48720
H7 H 0.64300 0.96270 0.45340
C4 C 0.7063(2) 0.6595(9) 0.48983(9)
H8 H 0.67960 0.53330 0.50670
H9 H 0.73470 0.54060 0.47270
C5 C 0.3132(2) 0.3491(8) 0.36639(8)
C6 C 0.2085(3) 0.3295(12) 0.37779(11)
H10 H 0.19700 0.13710 0.38520
H11 H 0.15520 0.38050 0.35800
H12 H 0.20590 0.45850 0.39750
C7 C 0.3382(2) 0.1742(8) 0.33664(8)
C8 C 0.4372(3) 0.1723(9) 0.32643(10)
C9 C 0.4582(3) 0.0008(10) 0.29864(11)
H13 H 0.52470 0.00130 0.29240
C10 C 0.3815(4) -0.1708(10) 0.28013(10)
H14 H 0.39610 -0.28620 0.26150
C11 C 0.2835(4) -0.171(1) 0.2893(1)
H15 H 0.23130 -0.28590 0.27670
C12 C 0.2619(3) -0.0026(9) 0.31692(9)
H16 H 0.19480 -0.00540 0.32280
N1F N 1.1131(2) 0.9898(7) 0.61762(7)
O1F O 1.14231(17) 0.8300(6) 0.58918(6)
O2F O 0.98222(18) 1.1648(7) 0.65677(7)
H1F H 1.00200 1.07120 0.64070
C1F C 1.0541(3) 0.6654(9) 0.57272(9)
H2F H 1.07760 0.52140 0.55730
H3F H 1.02430 0.56650 0.59130
C2F C 0.9703(2) 0.8462(9) 0.55078(9)
H4F H 0.94060 0.97460 0.56670
H5F H 1.00170 0.96230 0.53410
C3F C 0.8838(2) 0.6655(9) 0.53005(9)
H6F H 0.91300 0.54870 0.51280
H7F H 0.85700 0.53730 0.54660
C4F C 0.7937(2) 0.8405(9) 0.51017(9)
H8F H 0.82040 0.96670 0.49330
H9F H 0.76530 0.95940 0.52730
C5F C 1.1868(2) 1.1509(8) 0.63361(8)
C6F C 1.2915(3) 1.1705(12) 0.62221(11)
H10F H 1.30300 1.36290 0.61480
H11F H 1.34480 1.11950 0.64200
H12F H 1.29410 1.04150 0.60250
C7F C 1.1618(2) 1.3258(8) 0.66336(8)
C8F C 1.0628(3) 1.3277(9) 0.67357(10)
C9F C 1.0418(3) 1.4992(10) 0.70136(11)
H13F H 0.97530 1.49870 0.70760
C10F C 1.1185(4) 1.6708(10) 0.71987(10)
H14F H 1.10390 1.78620 0.73850
C11F C 1.2165(4) 1.671(1) 0.7107(1)
H15F H 1.26870 1.78590 0.72330
C12F C 1.2381(3) 1.5026(9) 0.68308(9)
H16F H 1.30520 1.50540 0.67720
#END
