
#######################################################################
#
#                 Cambridge Crystallographic Data Centre
#                                CCDC
#
#######################################################################
#
# If this CIF has been generated from an entry in the Cambridge
# Structural Database, then it will include bibliographic, chemical,
# crystal, experimental, refinement or atomic coordinate data resulting
# from the CCDC's data processing and validation procedures.
#
#######################################################################

data_CSD_CIF_BUFMOF
_audit_creation_date 2009-12-08
_audit_creation_method CSD-ConQuest-V1
_database_code_CSD BUFMOF
_database_code_depnum_ccdc_archive 'CCDC 751284'
_chemical_formula_sum 'C19 H17 N1 O8'
_chemical_formula_moiety
;
C19 H17 N1 O8
;
_journal_coeditor_code "IUCr HK2765"
_journal_coden_Cambridge 1370
_journal_volume 65
_journal_year 2009
_journal_page_first o2545
_journal_name_full 'Acta Crystallogr.,Sect.E:Struct.Rep.Online '
loop_
_publ_author_name
"H.Loghmani-Khouzani"
"N.Abdul Rahman"
"W.T.Robinson"
"M.Yaeghoobi"
"R.Kia"
_chemical_name_systematic
;
(E)-3-(6-Nitrobenzo[d][1,3]dioxol-5-yl)-1-(2,4,6-trimethoxyphenyl)prop-2-en-1-
one
;
_chemical_melting_point 497
_cell_volume    882.912
_exptl_crystal_colour 'pale yellow'
_exptl_crystal_density_diffrn 1.457
_exptl_crystal_description 'prism'
_exptl_crystal_preparation 'glacial acetic acid'
_diffrn_ambient_temperature 296
#These two values have been output from a single CSD field.
_refine_ls_R_factor_gt 0.0319
_refine_ls_wR_factor_gt 0.0319
_symmetry_cell_setting triclinic
_symmetry_space_group_name_H-M 'P -1'
_symmetry_Int_Tables_number 2
loop_
_symmetry_equiv_pos_site_id
_symmetry_equiv_pos_as_xyz
1 x,y,z
2 -x,-y,-z
_cell_length_a 7.3044(1)
_cell_length_b 10.1264(1)
_cell_length_c 12.8600(2)
_cell_angle_alpha 93.112(1)
_cell_angle_beta 103.959(1)
_cell_angle_gamma 105.384(1)
_cell_formula_units_Z 2
loop_
_atom_type_symbol
_atom_type_radius_bond
C 0.68
H 0.23
N 0.68
O 0.68
loop_
_atom_site_label
_atom_site_type_symbol
_atom_site_fract_x
_atom_site_fract_y
_atom_site_fract_z
O1 O 0.15752(13) 0.44029(9) 0.12868(7)
O2 O 0.54955(19) 1.20445(11) 0.27950(9)
O3 O 0.37219(16) 1.00784(10) 0.30427(8)
O4 O 0.11057(18) 1.00352(10) -0.19561(8)
O5 O 0.21032(16) 1.22795(10) -0.11005(8)
O6 O 0.58160(13) 0.48499(9) 0.17340(7)
O7 O 0.86143(14) 0.6349(1) 0.54849(7)
O8 O 0.23749(13) 0.6960(1) 0.35796(7)
N1 N 0.42880(18) 1.09155(12) 0.24520(9)
C1 C 0.25053(18) 0.55935(13) 0.16689(10)
C2 C 0.20715(19) 0.67463(13) 0.11028(10)
H1 H 0.09690 0.65530 0.05150
C3 C 0.31798(19) 0.80537(13) 0.13907(10)
H2 H 0.42240 0.82470 0.20100
C4 C 0.28680(19) 0.92101(13) 0.07998(10)
C5 C 0.34552(19) 1.05839(14) 0.12818(10)
C6 C 0.3278(2) 1.17065(14) 0.07231(11)
H3 H 0.36920 1.26070 0.10690
C7 C 0.24566(19) 1.13955(14) -0.03640(11)
C8 C 0.1851(2) 1.00527(14) -0.08729(11)
C9 C 0.2033(2) 0.89551(14) -0.03263(11)
H4 H 0.16160 0.80630 -0.06880
C10 C 0.41339(19) 0.58819(13) 0.26927(10)
C11 C 0.40319(19) 0.65461(13) 0.36469(10)
C12 C 0.55162(19) 0.67427(13) 0.46034(10)
H5 H 0.54430 0.71960 0.52340
C13 C 0.71059(19) 0.62434(13) 0.45897(11)
C14 C 0.72776(19) 0.55933(13) 0.36521(11)
H6 H 0.83670 0.52810 0.36560
C15 C 0.57876(19) 0.54221(13) 0.27107(10)
C16 C 0.1199(2) 1.14409(14) -0.21227(11)
H7 H 0.19680 1.17360 -0.26310
H8 H -0.01150 1.15230 -0.24140
C17 C 0.7629(2) 0.46353(15) 0.16380(12)
H9 H 0.75480 0.44140 0.08900
H10 H 0.78680 0.38870 0.20250
H11 H 0.86870 0.54600 0.19340
C18 C 0.8713(2) 0.72180(16) 0.64213(12)
H12 H 0.99390 0.73260 0.69500
H13 H 0.76400 0.68070 0.67180
H14 H 0.86270 0.81050 0.62260
C19 C 0.2283(2) 0.77177(15) 0.45311(11)
H15 H 0.10950 0.79940 0.43800
H16 H 0.34010 0.85220 0.47490
H17 H 0.22890 0.71440 0.51020
#END
