
#######################################################################
#
#                 Cambridge Crystallographic Data Centre
#                                CCDC
#
#######################################################################
#
# If this CIF has been generated from an entry in the Cambridge
# Structural Database, then it will include bibliographic, chemical,
# crystal, experimental, refinement or atomic coordinate data resulting
# from the CCDC's data processing and validation procedures.
#
#######################################################################

data_CSD_CIF_BUFNIB
_audit_creation_date 2015-03-10
_audit_creation_method CSD-ConQuest-V1
_database_code_CSD BUFNIB
_database_code_depnum_ccdc_archive 'CCDC 955136'
_chemical_formula_sum 'C13 H10 N2 O4'
_chemical_formula_moiety
;
C13 H10 N2 O4
;
_journal_coden_Cambridge 16
_journal_volume 70
_journal_year 2014
_journal_page_first 7505
_journal_name_full 'Tetrahedron '
loop_
_publ_author_name
"R.R.Rajawinslin"
"M.J.Raihan"
"D.Janreddy"
"V.Kavala"
"Chun-Wei Kuo"
"Ting-Shen Kuo"
"Mei-Ling Chen"
"Chiu-Hui He"
"Ching-Fa Yao"
_chemical_name_systematic
;
3-(4-nitrophenyl)-6,7-dihydro-2,1-benzoxazol-4(5H)-one
;
_cell_volume   1139.595
_exptl_crystal_colour 'colorless'
_exptl_crystal_density_diffrn 1.505
_exptl_crystal_description 'prism'
_diffrn_ambient_temperature 200
#These two values have been output from a single CSD field.
_refine_ls_R_factor_gt 0.0716
_refine_ls_wR_factor_gt 0.0716
_symmetry_cell_setting monoclinic
_symmetry_space_group_name_H-M 'P 21/n'
_symmetry_Int_Tables_number 14
loop_
_symmetry_equiv_pos_site_id
_symmetry_equiv_pos_as_xyz
1 x,y,z
2 1/2-x,1/2+y,1/2-z
3 -x,-y,-z
4 -1/2+x,-1/2-y,-1/2+z
_cell_length_a 14.8078(18)
_cell_length_b 5.4013(6)
_cell_length_c 15.8077(19)
_cell_angle_alpha 90
_cell_angle_beta 115.664(4)
_cell_angle_gamma 90
_cell_formula_units_Z 4
loop_
_atom_type_symbol
_atom_type_radius_bond
C 0.68
H 0.23
N 0.68
O 0.68
loop_
_atom_site_label
_atom_site_type_symbol
_atom_site_fract_x
_atom_site_fract_y
_atom_site_fract_z
C1 C 0.0482(3) 0.5453(7) 0.2283(3)
C2 C 0.0147(3) 0.3362(7) 0.1739(3)
H1 H -0.03360 0.23090 0.17990
C3 C 0.0528(3) 0.2834(7) 0.1104(3)
H2 H 0.03000 0.14040 0.07190
C4 C 0.1244(3) 0.4359(7) 0.1015(3)
C5 C 0.1572(3) 0.6452(7) 0.1588(3)
H3 H 0.20620 0.75030 0.15400
C6 C 0.1193(3) 0.7006(8) 0.2221(3)
H4 H 0.14160 0.84310 0.26090
C7 C 0.1614(3) 0.3766(7) 0.0316(3)
C8 C 0.2303(3) 0.4693(7) 0.0028(3)
C9 C 0.2215(3) 0.3124(7) -0.0724(3)
C10 C 0.2807(4) 0.3448(8) -0.1280(3)
H5 H 0.23730 0.31430 -0.19530
H6 H 0.33670 0.22470 -0.10670
C11 C 0.3213(5) 0.6071(14) -0.1143(5)
H7 H 0.37200 0.61600 -0.13940
H8 H 0.26580 0.71930 -0.15270
C12 C 0.3662(3) 0.7001(9) -0.0195(3)
H9 H 0.38340 0.87670 -0.02120
H10 H 0.42960 0.60960 0.01610
C13 C 0.3020(3) 0.6791(8) 0.0333(3)
N1 N 0.0077(3) 0.6050(7) 0.2962(2)
N2 N 0.1540(3) 0.1404(6) -0.0906(2)
O1 O 0.0366(2) 0.7941(6) 0.3428(2)
O2 O -0.0531(2) 0.4618(6) 0.3029(2)
O3 O 0.1156(2) 0.1799(5) -0.02312(19)
O4 O 0.3113(2) 0.8216(6) 0.0955(2)
#END
