
#######################################################################
#
#                 Cambridge Crystallographic Data Centre
#                                CCDC
#
#######################################################################
#
# If this CIF has been generated from an entry in the Cambridge
# Structural Database, then it will include bibliographic, chemical,
# crystal, experimental, refinement or atomic coordinate data resulting
# from the CCDC's data processing and validation procedures.
#
#######################################################################

data_CSD_CIF_BUGJIW
_audit_creation_date 1983-11-09
_audit_creation_method CSD-ConQuest-V1
_database_code_CSD BUGJIW
_database_code_depnum_ccdc_archive 'CCDC 1116203'
_chemical_formula_sum 'C19 H20 N2 O6'
_chemical_formula_moiety
;
C19 H20 N2 O6
;
_journal_coden_Cambridge 189
_journal_volume 11
_journal_year 1982
_journal_page_first 1825
_journal_name_full 'Cryst.Struct.Commun. '
loop_
_publ_author_name
"F.Durant"
"F.Lefevre"
"F.Bufkens"
"G.Evrard"
"A.Michel"
_chemical_name_systematic
;
5-(Methoxymethyl)-5-methyl-3-(4-((3-nitrophenyl)methoxy)phenyl)-2-oxazolidinon
e
;
_cell_volume   1813.527
_exptl_crystal_density_diffrn 1.36
_exptl_special_details
;
monoamine oxidase inhibitor activity

;
_diffrn_ambient_temperature ?
_diffrn_special_details
;
The study was carried out at room temperature,in the range 283-303K

;
#These two values have been output from a single CSD field.
_refine_ls_R_factor_gt 0.059
_refine_ls_wR_factor_gt 0.059
_symmetry_cell_setting monoclinic
_symmetry_space_group_name_H-M 'P 21/c'
_symmetry_Int_Tables_number 14
loop_
_symmetry_equiv_pos_site_id
_symmetry_equiv_pos_as_xyz
1 x,y,z
2 -x,1/2+y,1/2-z
3 -x,-y,-z
4 x,-1/2-y,-1/2+z
_cell_length_a 14.097(1)
_cell_length_b 15.309(1)
_cell_length_c 8.679(2)
_cell_angle_alpha 90
_cell_angle_beta 104.48(5)
_cell_angle_gamma 90
_cell_formula_units_Z 4
loop_
_atom_type_symbol
_atom_type_radius_bond
C 0.68
H 0.23
N 0.68
O 0.68
loop_
_atom_site_label
_atom_site_type_symbol
_atom_site_fract_x
_atom_site_fract_y
_atom_site_fract_z
O1 O 1.02050 0.15670 1.22310
C1 C 1.02210 0.23350 1.19620
O2 O 1.09290 0.28570 1.28710
C2 C 1.08670 0.37340 1.21860
C3 C 1.16490 0.37320 1.13320
O3 O 1.16990 0.45680 1.06660
C4 C 0.98640 0.37510 1.09940
N1 N 0.96170 0.28260 1.08180
C5 C 0.87770 0.25130 0.97140
C6 C 0.85530 0.16290 0.95170
C7 C 0.77290 0.13620 0.84180
C8 C 0.71100 0.19480 0.74540
C9 C 0.73160 0.28340 0.76290
C10 C 0.81480 0.31080 0.87470
O4 O 0.63240 0.15980 0.63670
C11 C 0.56780 0.21830 0.53540
C12 C 0.49970 0.16780 0.40550
C13 C 0.41130 0.20540 0.32480
C14 C 0.34980 0.16410 0.19590
C15 C 0.37510 0.08380 0.14780
C16 C 0.46110 0.04620 0.23120
C17 C 0.52420 0.08670 0.35850
C18 C 1.22580 0.45720 0.95230
N2 N 0.48860 -0.03930 0.17810
O5 O 0.56390 -0.07340 0.25260
O6 O 0.43520 -0.07220 0.05890
C19 C 1.10100 0.44100 1.35160
H1 H 1.15080 0.32440 1.03800
H2 H 1.23670 0.35810 1.21250
H3 H 0.98950 0.40470 0.98150
H4 H 0.93170 0.41410 1.13910
H5 H 0.90410 0.11490 1.02800
H6 H 0.75390 0.06570 0.83030
H7 H 0.68370 0.33020 0.68740
H8 H 0.83190 0.38140 0.88830
H9 H 0.52660 0.25590 0.60320
H10 H 0.61000 0.26520 0.48270
H11 H 0.39030 0.26940 0.36560
H12 H 0.28000 0.19550 0.13310
H13 H 0.32660 0.04870 0.04480
H14 H 0.59290 0.05370 0.42170
H15 H 1.22710 0.52230 0.89920
H16 H 1.19370 0.41270 0.85180
H17 H 1.30060 0.43680 1.00090
H18 H 1.09690 0.50660 1.30630
H19 H 1.16940 0.43170 1.43970
H20 H 1.04130 0.43310 1.41340
#END
