
#######################################################################
#
#                 Cambridge Crystallographic Data Centre
#                                CCDC
#
#######################################################################
#
# If this CIF has been generated from an entry in the Cambridge
# Structural Database, then it will include bibliographic, chemical,
# crystal, experimental, refinement or atomic coordinate data resulting
# from the CCDC's data processing and validation procedures.
#
#######################################################################

data_CSD_CIF_BUGKOE
_audit_creation_date 2010-08-16
_audit_creation_method CSD-ConQuest-V1
_database_code_CSD BUGKOE
_database_code_depnum_ccdc_archive 'CCDC 751371'
_chemical_formula_sum 'C3 H2 N6 O6'
_chemical_formula_moiety
;
C3 H2 N6 O6
;
_journal_coden_Cambridge 24
_journal_volume 51
_journal_year 2010
_journal_page_first 399
_journal_name_full 'Tetrahedron Lett. '
loop_
_publ_author_name
"R.Dudda"
"P.R.Dave"
"R.Damavarapu"
"N.Gelber"
"D.Parrish"
_chemical_name_systematic
;
N,2,4-Trinitro-1H-imidazol-1-amine
;
_cell_volume    802.921
_exptl_crystal_colour 'colorless'
_exptl_crystal_density_diffrn 1.804
_exptl_crystal_description 'plate'
_diffrn_ambient_temperature 293
#These two values have been output from a single CSD field.
_refine_ls_R_factor_gt 0.0387
_refine_ls_wR_factor_gt 0.0387
_symmetry_cell_setting orthorhombic
_symmetry_space_group_name_H-M 'P 21 21 21'
_symmetry_Int_Tables_number 19
loop_
_symmetry_equiv_pos_site_id
_symmetry_equiv_pos_as_xyz
1 x,y,z
2 1/2-x,-y,1/2+z
3 -x,1/2+y,1/2-z
4 1/2+x,1/2-y,-z
_cell_length_a 6.986(2)
_cell_length_b 10.096(3)
_cell_length_c 11.384(3)
_cell_angle_alpha 90
_cell_angle_beta 90
_cell_angle_gamma 90
_cell_formula_units_Z 4
loop_
_atom_type_symbol
_atom_type_radius_bond
C 0.68
H 0.23
N 0.68
O 0.68
loop_
_atom_site_label
_atom_site_type_symbol
_atom_site_fract_x
_atom_site_fract_y
_atom_site_fract_z
N1 N 0.0853(3) 0.9387(2) 0.34950(17)
N2 N 0.2145(3) 0.8350(2) 0.34117(19)
H1 H 0.18060 0.75330 0.33600
N3 N 0.4084(4) 0.8772(3) 0.3420(2)
O1 O 0.4416(3) 0.9906(3) 0.3687(2)
O2 O 0.5201(3) 0.7883(3) 0.3215(2)
N4 N 0.1400(3) 1.0601(3) 0.16434(18)
O3 O 0.1002(3) 1.1587(2) 0.10861(17)
O4 O 0.2530(4) 0.9746(2) 0.13333(18)
C1 C 0.0464(3) 1.0417(3) 0.2759(2)
N5 N -0.0817(3) 1.1223(2) 0.31689(17)
O5 O -0.3476(4) 1.2288(2) 0.4631(2)
N6 N -0.2653(3) 1.1308(3) 0.4988(2)
O6 O -0.2886(3) 1.0787(3) 0.59455(19)
C2 C -0.1264(4) 1.0681(3) 0.4224(2)
C3 C -0.0279(4) 0.9566(3) 0.4466(2)
H2 H -0.03500 0.90410 0.51350
#END
