
#######################################################################
#
#                 Cambridge Crystallographic Data Centre
#                                CCDC
#
#######################################################################
#
# If this CIF has been generated from an entry in the Cambridge
# Structural Database, then it will include bibliographic, chemical,
# crystal, experimental, refinement or atomic coordinate data resulting
# from the CCDC's data processing and validation procedures.
#
#######################################################################

data_CSD_CIF_BUGPEZ01
_audit_creation_date 2017-07-11
_audit_creation_method CSD-ConQuest-V1
_database_code_CSD BUGPEZ01
_database_code_depnum_ccdc_archive 'CCDC 1537819'
_chemical_formula_sum 'C14 H6 N6 O1'
_chemical_formula_moiety
;
C14 H6 N6 O1
;
_journal_coden_Cambridge 1037
_journal_volume 18
_journal_year 2017
_journal_page_first 205-3
_journal_name_full 'ARKIVOC '
loop_
_publ_author_name
"I.V.Taydakov"
"A.A.Vashchenko"
"K.A.Lyssenko"
"L.S.Konstantinova"
"E.A.Knyazeva"
"N.V.Obruchnikova"
_chemical_name_systematic
;
[1,2,5]oxadiazolo[3',4':5,6]pyrazino[2,3-f][1,10]phenanthroline
;
_cell_volume   1090.847
_exptl_crystal_colour 'red'
_exptl_crystal_density_diffrn 1.67
_exptl_special_details
;
Luminescent

;
_exptl_crystal_description 'prism'
_diffrn_ambient_temperature 120
#These two values have been output from a single CSD field.
_refine_ls_R_factor_gt 0.0746
_refine_ls_wR_factor_gt 0.0746
_symmetry_cell_setting monoclinic
_symmetry_space_group_name_H-M 'P 21/c'
_symmetry_Int_Tables_number 14
loop_
_symmetry_equiv_pos_site_id
_symmetry_equiv_pos_as_xyz
1 x,y,z
2 -x,1/2+y,1/2-z
3 -x,-y,-z
4 x,-1/2-y,-1/2+z
_cell_length_a 10.506(3)
_cell_length_b 11.619(4)
_cell_length_c 9.378(3)
_cell_angle_alpha 90
_cell_angle_beta 107.655(7)
_cell_angle_gamma 90
_cell_formula_units_Z 4
loop_
_atom_type_symbol
_atom_type_radius_bond
C 0.68
H 0.23
N 0.68
O 0.68
loop_
_atom_site_label
_atom_site_type_symbol
_atom_site_fract_x
_atom_site_fract_y
_atom_site_fract_z
N1 N 0.5551(4) 0.5658(4) 0.3117(4)
N2 N 0.6967(4) 0.6854(3) 0.5581(5)
N3 N 0.7237(4) 0.2101(3) 0.5474(5)
N4 N 0.8762(4) 0.3375(3) 0.8090(4)
N5 N 0.8268(4) 0.0485(4) 0.6921(5)
N6 N 0.9471(4) 0.1489(3) 0.9015(5)
O1 O 0.9142(4) 0.0431(3) 0.8348(4)
C1 C 0.4847(5) 0.5072(4) 0.1934(5)
H1 H 0.43260 0.54930 0.10900
C2 C 0.4823(5) 0.3882(4) 0.1848(6)
H2 H 0.42980 0.34990 0.09730
C3 C 0.5571(5) 0.3281(4) 0.3050(5)
H3 H 0.55600 0.24630 0.30280
C4 C 0.6352(5) 0.3850(4) 0.4310(5)
C5 C 0.7193(5) 0.3226(4) 0.5585(5)
C6 C 0.7970(5) 0.3868(4) 0.6914(6)
C7 C 0.7850(5) 0.5121(4) 0.6899(6)
C8 C 0.8511(5) 0.5764(4) 0.8159(5)
H4 H 0.90320 0.53960 0.90490
C9 C 0.8395(5) 0.6934(4) 0.8091(6)
H5 H 0.88350 0.73950 0.89330
C10 C 0.7637(5) 0.7429(5) 0.6792(6)
H6 H 0.75870 0.82450 0.67560
C11 C 0.7071(5) 0.5699(4) 0.5635(5)
C12 C 0.6304(5) 0.5061(4) 0.4307(5)
C13 C 0.8060(5) 0.1601(4) 0.6720(5)
C14 C 0.8785(5) 0.2207(4) 0.7975(5)
#END
