
#######################################################################
#
#                 Cambridge Crystallographic Data Centre
#                                CCDC
#
#######################################################################
#
# If this CIF has been generated from an entry in the Cambridge
# Structural Database, then it will include bibliographic, chemical,
# crystal, experimental, refinement or atomic coordinate data resulting
# from the CCDC's data processing and validation procedures.
#
#######################################################################

data_CSD_CIF_BUGPIC
_audit_creation_date 1983-11-09
_audit_creation_method CSD-ConQuest-V1
_database_code_CSD BUGPIC
_database_code_depnum_ccdc_archive 'CCDC 1116231'
_chemical_formula_sum 'C14 H17 N3 O2'
_chemical_formula_moiety
;
C14 H17 N3 O2
;
_journal_coden_Cambridge 582
_journal_volume 13
_journal_year 1983
_journal_page_first 89
_journal_name_full 'J.Crystallogr.Spectrosc.Res. '
loop_
_publ_author_name
"B.Bovio"
_chemical_name_systematic
;
1-o-Nitrophenyl-3-methyl-5-t-butylpyrazole
;
_cell_volume   1405.538
_exptl_crystal_colour 'orange'
_exptl_crystal_density_diffrn 1.225
_diffrn_ambient_temperature ?
_diffrn_special_details
;
The study was carried out at room temperature,in the range 283-303K

;
_refine_special_details
;
The hydrogen atoms of the 3-methyl group were found to be disordered and were 
approximated by six half-occupancy hydrogen atoms, distributed between two 
tetrahedra. One set has been retained.
;
#These two values have been output from a single CSD field.
_refine_ls_R_factor_gt 0.031
_refine_ls_wR_factor_gt 0.031
_symmetry_cell_setting orthorhombic
_symmetry_space_group_name_H-M 'P 21 21 21'
_symmetry_Int_Tables_number 19
loop_
_symmetry_equiv_pos_site_id
_symmetry_equiv_pos_as_xyz
1 x,y,z
2 1/2+x,1/2-y,-z
3 -x,1/2+y,1/2-z
4 1/2-x,-y,1/2+z
_cell_length_a 12.0924(6)
_cell_length_b 11.3601(7)
_cell_length_c 10.2317(4)
_cell_angle_alpha 90
_cell_angle_beta 90
_cell_angle_gamma 90
_cell_formula_units_Z 4
loop_
_atom_type_symbol
_atom_type_radius_bond
C 0.68
H 0.23
N 0.68
O 0.68
loop_
_atom_site_label
_atom_site_type_symbol
_atom_site_fract_x
_atom_site_fract_y
_atom_site_fract_z
N1 N 0.63050 0.31250 0.28270
N2 N 0.71840 0.38750 0.29860
C1 C 0.72540 0.44300 0.18510
C2 C 0.64600 0.40300 0.09760
C3 C 0.58540 0.31750 0.15960
C4 C 0.60730 0.23810 0.39170
C5 C 0.51840 0.26320 0.47130
C6 C 0.49940 0.19690 0.58330
C7 C 0.56990 0.10780 0.61750
C8 C 0.65910 0.08250 0.54100
C9 C 0.67610 0.14570 0.42810
N3 N 0.77000 0.10970 0.34580
O1 O 0.76830 0.13150 0.22980
O2 O 0.84520 0.05470 0.39800
C10 C 0.81080 0.53730 0.16620
C11 C 0.48890 0.24540 0.11110
C12 C 0.49890 0.11430 0.14540
C13 C 0.38020 0.29520 0.16390
C14 C 0.48720 0.25550 -0.03990
H1 H 0.63900 0.43100 0.01300
H2 H 0.46600 0.32500 0.44400
H3 H 0.44300 0.21500 0.63000
H4 H 0.55700 0.06300 0.69200
H5 H 0.70800 0.01900 0.56000
H6 H 0.89700 0.49800 0.16700
H7 H 0.79200 0.58600 0.06500
H8 H 0.80100 0.59600 0.24200
H9 H 0.56900 0.07700 0.11400
H10 H 0.43300 0.07100 0.10800
H11 H 0.49100 0.09800 0.23800
H12 H 0.37200 0.38700 0.14600
H13 H 0.37000 0.27800 0.25100
H14 H 0.31400 0.25900 0.12200
H15 H 0.55000 0.22000 -0.07600
H16 H 0.47600 0.34600 -0.06500
H17 H 0.41700 0.20700 -0.07000
#END
