
#######################################################################
#
#                 Cambridge Crystallographic Data Centre
#                                CCDC
#
#######################################################################
#
# If this CIF has been generated from an entry in the Cambridge
# Structural Database, then it will include bibliographic, chemical,
# crystal, experimental, refinement or atomic coordinate data resulting
# from the CCDC's data processing and validation procedures.
#
#######################################################################

data_CSD_CIF_BUGZIM
_audit_creation_date 1983-11-09
_audit_creation_method CSD-ConQuest-V1
_database_code_CSD BUGZIM
_database_code_depnum_ccdc_archive 'CCDC 1116265'
_chemical_formula_sum 'C19 H18 N2 O5'
_chemical_formula_moiety
;
C19 H18 N2 O5
;
_journal_coden_Cambridge 189
_journal_volume 11
_journal_year 1982
_journal_page_first 1925
_journal_name_full 'Cryst.Struct.Commun. '
loop_
_publ_author_name
"F.Durant"
"F.Lefevre"
"F.Bufkens"
"B.Norberg"
"G.Evrard"
_chemical_name_systematic
;
(E)-3-(4-(3-Nitrophenylethenyl)-phenyl)-5-methoxymethyl-2-oxazolidinone
;
_cell_volume   1724.044
_exptl_crystal_density_diffrn 1.36
_exptl_special_details
;
potential antidepressant drug

;
_diffrn_ambient_temperature ?
_diffrn_special_details
;
The study was carried out at room temperature,in the range 283-303K

;
#These two values have been output from a single CSD field.
_refine_ls_R_factor_gt 0.05
_refine_ls_wR_factor_gt 0.05
_symmetry_cell_setting triclinic
_symmetry_space_group_name_H-M 'P -1'
_symmetry_Int_Tables_number 2
loop_
_symmetry_equiv_pos_site_id
_symmetry_equiv_pos_as_xyz
1 x,y,z
2 -x,-y,-z
_cell_length_a 10.729(2)
_cell_length_b 18.283(2)
_cell_length_c 9.982(2)
_cell_angle_alpha 96.02(1)
_cell_angle_beta 94.47(2)
_cell_angle_gamma 116.59(1)
_cell_formula_units_Z 4
loop_
_atom_type_symbol
_atom_type_radius_bond
C 0.68
H 0.23
N 0.68
O 0.68
loop_
_atom_site_label
_atom_site_type_symbol
_atom_site_fract_x
_atom_site_fract_y
_atom_site_fract_z
O1 O 0.22160 0.30330 1.02270
C1 C 0.24820 0.26210 0.93830
O2 O 0.14470 0.19710 0.85410
C2 C 0.20330 0.15710 0.76380
C3 C 0.14230 0.06760 0.77750
O3 O 0.18840 0.06180 0.91120
C4 C 0.36260 0.20700 0.80320
N1 N 0.37590 0.27070 0.91150
C5 C 0.50770 0.33780 0.96980
C6 C 0.62970 0.33190 0.95460
C7 C 0.75970 0.39570 1.01340
C8 C 0.77190 0.46760 1.08790
C9 C 0.64760 0.47360 1.09900
C10 C 0.51800 0.41020 1.04140
C11 C 0.90990 0.53260 1.15670
C12 C 0.93430 0.60690 1.21630
C13 C 1.06430 0.67170 1.29990
C14 C 1.18760 0.66520 1.32470
C15 C 1.30460 0.72870 1.40690
C16 C 1.30040 0.79870 1.46590
C17 C 1.17620 0.80340 1.44310
C18 C 1.05910 0.74260 1.36040
C19 C 0.13750 -0.02250 0.93060
N2 N 1.16720 0.87610 1.50880
O4 O 1.06240 0.88470 1.48280
O5 O 1.26790 0.92710 1.58930
H1 H 0.17130 0.15990 0.67130
H2 H 0.18220 0.03870 0.70960
H3 H 0.03690 0.04090 0.76720
H4 H 0.41650 0.23260 0.73410
H5 H 0.40440 0.17250 0.82730
H6 H 0.62570 0.28350 0.90670
H7 H 0.84510 0.39260 0.99880
H8 H 0.64780 0.52290 1.14940
H9 H 0.43540 0.41420 1.05470
H10 H 0.98880 0.51850 1.14720
H11 H 0.85290 0.61910 1.22130
H12 H 1.19250 0.61360 1.28560
H13 H 1.39210 0.72450 1.41830
H14 H 1.37680 0.84400 1.51320
H15 H 0.16310 -0.02230 1.02590
H16 H 0.17770 -0.02560 0.86940
H17 H 0.02320 -0.05150 0.92880
O6 O 0.32960 0.35940 0.68230
C20 C 0.33970 0.34200 0.56500
O7 O 0.22540 0.28630 0.47780
C21 C 0.26630 0.27060 0.34700
C22 C 0.23610 0.18170 0.32160
O8 O 0.33100 0.17270 0.41740
C23 C 0.41970 0.33490 0.35490
N3 N 0.45480 0.37180 0.49990
C24 C 0.58900 0.43620 0.55410
C25 C 0.69500 0.46350 0.47280
C26 C 0.82630 0.52630 0.52210
C27 C 0.86020 0.56560 0.65700
C28 C 0.75520 0.53600 0.73990
C29 C 0.62290 0.47290 0.69180
C30 C 1.00020 0.63440 0.70390
C31 C 1.03760 0.68620 0.82140
C32 C 1.17840 0.75480 0.87150
C33 C 1.29550 0.77170 0.80400
C34 C 1.42660 0.83480 0.85760
C35 C 1.44450 0.88260 0.98220
C36 C 1.32980 0.86530 1.04790
C37 C 1.19650 0.80340 0.99600
C38 C 0.29470 0.08890 0.42210
N4 N 1.34900 0.91500 1.18030
O9 O 1.24640 0.91500 1.22260
O10 O 1.46760 0.95300 1.24140
H18 H 0.20510 0.27730 0.29080
H19 H 0.25590 0.16820 0.24920
H20 H 0.12280 0.14000 0.34090
H21 H 0.43300 0.38160 0.30670
H22 H 0.48140 0.30760 0.33130
H23 H 0.67690 0.43730 0.38490
H24 H 0.90180 0.54420 0.47010
H25 H 0.77340 0.56320 0.83130
H26 H 0.55050 0.45490 0.74420
H27 H 1.07480 0.64090 0.64610
H28 H 0.96100 0.68260 0.87880
H29 H 1.28730 0.73240 0.71970
H30 H 1.50810 0.84540 0.80800
H31 H 1.10940 0.79580 1.03940
H32 H 1.52430 0.92540 1.01310
H33 H 0.35260 0.08070 0.48960
H34 H 0.30850 0.06620 0.32660
H35 H 0.19920 0.06320 0.44600
#END
