
#######################################################################
#
#                 Cambridge Crystallographic Data Centre
#                                CCDC
#
#######################################################################
#
# If this CIF has been generated from an entry in the Cambridge
# Structural Database, then it will include bibliographic, chemical,
# crystal, experimental, refinement or atomic coordinate data resulting
# from the CCDC's data processing and validation procedures.
#
#######################################################################

data_CSD_CIF_BUHFUH
_audit_creation_date 2015-07-30
_audit_creation_method CSD-ConQuest-V1
_database_code_CSD BUHFUH
_database_code_depnum_ccdc_archive 'CCDC 936590'
_chemical_formula_sum 'C16 H14 N2 O2'
_chemical_formula_moiety
;
C16 H14 N2 O2
;
_journal_coden_Cambridge 580
_journal_volume 102
_journal_year 2015
_journal_page_first 111
_journal_name_full 'Polyhedron '
loop_
_publ_author_name
"M.P.Kumar"
"Somapangu Tejaswi"
"A.Rambabu"
"V.K.A.Kalalbandi"
"Shivaraj"
_chemical_name_systematic
;
1-((3,5-dimethyl-1,2-oxazol-4-yl)carbonoimidoyl)-2-naphthol
;
_cell_volume    666.120
_exptl_crystal_colour 'yellow'
_exptl_crystal_density_diffrn 1.328
_exptl_crystal_description 'plate'
_diffrn_ambient_temperature 293
#These two values have been output from a single CSD field.
_refine_ls_R_factor_gt 0.0525
_refine_ls_wR_factor_gt 0.0525
_symmetry_cell_setting triclinic
_symmetry_space_group_name_H-M 'P -1'
_symmetry_Int_Tables_number 2
loop_
_symmetry_equiv_pos_site_id
_symmetry_equiv_pos_as_xyz
1 x,y,z
2 -x,-y,-z
_cell_length_a 7.5360(8)
_cell_length_b 9.0395(11)
_cell_length_c 10.8864(11)
_cell_angle_alpha 74.071(10)
_cell_angle_beta 86.689(9)
_cell_angle_gamma 69.227(11)
_cell_formula_units_Z 2
loop_
_atom_type_symbol
_atom_type_radius_bond
C 0.68
H 0.23
N 0.68
O 0.68
loop_
_atom_site_label
_atom_site_type_symbol
_atom_site_fract_x
_atom_site_fract_y
_atom_site_fract_z
C1 C 0.1961(3) 0.5782(3) 1.1413(2)
C2 C 0.4250(3) 0.3160(3) 1.1248(2)
C3 C 0.2490(3) 0.5363(3) 1.2710(2)
H1 H 0.19150 0.60940 1.31950
C4 C 0.5209(3) 0.1994(3) 1.0577(3)
H2 H 0.49220 0.22290 0.97090
C5 C 0.2304(3) 0.5209(3) 0.9318(2)
H3 H 0.29660 0.45160 0.88220
C6 C 0.4734(3) 0.2752(3) 1.2559(2)
C7 C 0.0485(3) 0.7000(3) 0.7484(2)
C8 C 0.3835(3) 0.3898(3) 1.3256(2)
H4 H 0.41770 0.36380 1.41170
C9 C -0.0752(4) 0.8520(4) 0.6867(3)
C10 C 0.6115(3) 0.1217(3) 1.3147(3)
H5 H 0.64250 0.09510 1.40150
C11 C 0.6550(4) 0.0528(3) 1.1180(3)
H6 H 0.71760 -0.02140 1.07140
C12 C 0.7000(4) 0.0120(4) 1.2479(3)
H7 H 0.78990 -0.08930 1.28830
C13 C 0.1016(4) 0.6145(4) 0.6527(2)
C14 C 0.2233(4) 0.4429(4) 0.6596(3)
H8 H 0.35420 0.43070 0.66800
H9 H 0.20290 0.41710 0.58300
H10 H 0.19180 0.36980 0.73220
C15 C -0.1821(4) 0.9983(4) 0.7293(3)
H11 H -0.31170 1.00490 0.74070
H12 H -0.17800 1.09480 0.66620
H13 H -0.12660 0.99090 0.80890
C16 C 0.2827(3) 0.4734(3) 1.0658(2)
N1 N 0.0959(2) 0.6552(2) 0.87795(17)
N2 N 0.0193(4) 0.7073(3) 0.5422(2)
O1 O -0.0939(3) 0.8604(3) 0.56242(18)
O2 O 0.0566(2) 0.7238(2) 1.09353(16)
H14 H 0.04340 0.74070 1.01610
#END
