
#######################################################################
#
#                 Cambridge Crystallographic Data Centre
#                                CCDC
#
#######################################################################
#
# If this CIF has been generated from an entry in the Cambridge
# Structural Database, then it will include bibliographic, chemical,
# crystal, experimental, refinement or atomic coordinate data resulting
# from the CCDC's data processing and validation procedures.
#
#######################################################################

data_CSD_CIF_BUHLIA
_audit_creation_date 2010-09-06
_audit_creation_method CSD-ConQuest-V1
_database_code_CSD BUHLIA
_database_code_depnum_ccdc_archive 'CCDC 734493'
_chemical_formula_sum 'C14 H15 N3 O2'
_chemical_formula_moiety
;
C14 H15 N3 O2
;
_journal_coden_Cambridge 154
_journal_volume 62
_journal_year 2009
_journal_page_first 1068
_journal_name_full 'Aust.J.Chem. '
loop_
_publ_author_name
"D.Kvaskoff"
"P.V.Bernhardt"
"R.Koch"
"C.Wentrup"
_chemical_name_systematic
;
4-(1,3-Dimethylimidazolidin-2-ylidene)-3-phenyl-1,2-oxazol-5(4H)-one
;
_chemical_melting_point 518.15
_cell_volume   1281.338
_exptl_crystal_colour 'yellow'
_exptl_crystal_density_diffrn 1.334
_exptl_special_details
;
Melting point range 518.15-520.15K

;
_exptl_crystal_description 'prism'
_exptl_crystal_preparation 'methanol'
_diffrn_ambient_temperature 293
#These two values have been output from a single CSD field.
_refine_ls_R_factor_gt 0.0358
_refine_ls_wR_factor_gt 0.0358
_symmetry_cell_setting monoclinic
_symmetry_space_group_name_H-M 'P 21/c'
_symmetry_Int_Tables_number 14
loop_
_symmetry_equiv_pos_site_id
_symmetry_equiv_pos_as_xyz
1 x,y,z
2 -x,1/2+y,1/2-z
3 -x,-y,-z
4 x,-1/2-y,-1/2+z
_cell_length_a 10.6851(7)
_cell_length_b 10.1720(7)
_cell_length_c 12.3094(9)
_cell_angle_alpha 90
_cell_angle_beta 106.719(8)
_cell_angle_gamma 90
_cell_formula_units_Z 4
loop_
_atom_type_symbol
_atom_type_radius_bond
C 0.68
H 0.23
N 0.68
O 0.68
loop_
_atom_site_label
_atom_site_type_symbol
_atom_site_fract_x
_atom_site_fract_y
_atom_site_fract_z
C1 C 0.63567(15) 0.12548(15) 0.69487(13)
C2 C 0.76344(14) 0.11299(15) 0.77026(13)
C3 C 0.84532(16) 0.08384(16) 0.70144(14)
C4 C 0.80842(14) 0.11707(15) 0.89172(13)
C5 C 0.51263(15) 0.15765(15) 0.72075(13)
C6 C 0.65093(17) -0.04165(18) 0.93220(15)
H1 H 0.57230 -0.00230 0.94000
H2 H 0.67350 -0.11630 0.98180
H3 H 0.63730 -0.06950 0.85510
C7 C 0.82183(17) 0.08657(17) 1.07993(14)
H4 H 0.84330 0.00830 1.12660
H5 H 0.76860 0.14430 1.11110
C8 C 0.94372(16) 0.15564(17) 1.07089(14)
H6 H 0.95890 0.23630 1.11480
H7 H 1.01980 0.09940 1.09660
C9 C 0.98122(18) 0.28475(18) 0.90692(17)
H8 H 0.93950 0.29720 0.82740
H9 H 1.07060 0.25940 0.91820
H10 H 0.97820 0.36530 0.94670
C10 C 0.39576(16) 0.10173(17) 0.65754(15)
H11 H 0.39480 0.04480 0.59820
C11 C 0.28160(17) 0.1305(2) 0.68255(17)
H12 H 0.20360 0.09280 0.63990
C12 C 0.28157(19) 0.2147(2) 0.77032(18)
H13 H 0.20370 0.23390 0.78640
C13 C 0.39632(19) 0.27018(18) 0.83393(17)
H14 H 0.39640 0.32660 0.89340
C14 C 0.51161(16) 0.24209(16) 0.80953(14)
H15 H 0.58930 0.27980 0.85270
N1 N 0.63334(13) 0.10968(14) 0.58856(11)
N2 N 0.75578(12) 0.05332(13) 0.96187(11)
N3 N 0.91401(13) 0.18292(14) 0.94972(11)
O1 O 0.76552(11) 0.08020(11) 0.59103(9)
O2 O 0.96255(11) 0.06138(12) 0.71993(10)
#END
