
#######################################################################
#
#                 Cambridge Crystallographic Data Centre
#                                CCDC
#
#######################################################################
#
# If this CIF has been generated from an entry in the Cambridge
# Structural Database, then it will include bibliographic, chemical,
# crystal, experimental, refinement or atomic coordinate data resulting
# from the CCDC's data processing and validation procedures.
#
#######################################################################

data_CSD_CIF_BUKLEA
_audit_creation_date 2015-07-31
_audit_creation_method CSD-ConQuest-V1
_database_code_CSD BUKLEA
_database_code_depnum_ccdc_archive 'CCDC 1403262'
_chemical_formula_sum 'C16 H17 N1 O4'
_chemical_formula_moiety
;
C16 H17 N1 O4
;
_journal_coden_Cambridge 1336
_journal_volume 17
_journal_year 2015
_journal_page_first 3486
_journal_name_full 'Org.Lett. '
loop_
_publ_author_name
"Shao-Zheng Peng"
"Chin-Kang Sha"
_chemical_name_systematic
;
3-vinylcyclohept-2-en-1-yl 4-nitrobenzoate
;
_cell_volume   1511.531
_exptl_crystal_colour 'colorless'
_exptl_crystal_density_diffrn 1.263
_exptl_crystal_description 'Tabullar'
_diffrn_ambient_temperature 296
#These two values have been output from a single CSD field.
_refine_ls_R_factor_gt 0.0455
_refine_ls_wR_factor_gt 0.0455
_symmetry_cell_setting monoclinic
_symmetry_space_group_name_H-M 'P 21'
_symmetry_Int_Tables_number 4
loop_
_symmetry_equiv_pos_site_id
_symmetry_equiv_pos_as_xyz
1 x,y,z
2 -x,1/2+y,-z
_cell_length_a 6.9082(1)
_cell_length_b 11.2913(2)
_cell_length_c 19.3834(3)
_cell_angle_alpha 90
_cell_angle_beta 91.357(1)
_cell_angle_gamma 90
_cell_formula_units_Z 4
loop_
_atom_type_symbol
_atom_type_radius_bond
C 0.68
H 0.23
N 0.68
O 0.68
loop_
_atom_site_label
_atom_site_type_symbol
_atom_site_fract_x
_atom_site_fract_y
_atom_site_fract_z
C1 C 0.4178(4) 0.3864(3) 0.14684(13)
H1 H 0.37350 0.30570 0.15630
C2 C 0.2673(4) 0.4723(3) 0.16836(13)
H2 H 0.19840 0.50970 0.13280
C3 C 0.2190(4) 0.5023(3) 0.23197(14)
C4 C 0.3174(8) 0.4473(6) 0.29459(18)
H3 H 0.27600 0.49250 0.33420
H4 H 0.26290 0.36860 0.29930
C5 C 0.5039(9) 0.4356(9) 0.3013(2)
H5 H 0.52750 0.40400 0.34730
H6 H 0.55600 0.51540 0.30170
C6 C 0.6315(6) 0.3647(5) 0.25390(18)
H7 H 0.76510 0.37180 0.26990
H8 H 0.59570 0.28180 0.25660
C7 C 0.6163(4) 0.4042(3) 0.17942(15)
H9 H 0.64970 0.48750 0.17690
H10 H 0.71010 0.36060 0.15300
C8 C 0.4685(5) 0.3098(3) 0.03377(15)
C9 C 0.4649(4) 0.3366(2) -0.04124(14)
C10 C 0.4796(6) 0.2448(3) -0.08770(16)
H11 H 0.49370 0.16770 -0.07150
C11 C 0.4740(5) 0.2652(3) -0.15735(16)
H12 H 0.48160 0.20280 -0.18850
C12 C 0.4567(3) 0.3796(3) -0.18002(13)
C13 C 0.4458(3) 0.4733(2) -0.13560(13)
H13 H 0.43650 0.55040 -0.15220
C14 C 0.4488(3) 0.4510(2) -0.06543(13)
H14 H 0.44000 0.51350 -0.03440
C15 C 0.0625(5) 0.5886(3) 0.24066(19)
H15 H 0.00240 0.61530 0.20010
C16 C -0.0027(7) 0.6324(5) 0.2972(2)
H16 H 0.05130 0.60930 0.33950
H17 H -0.10350 0.68700 0.29550
N1 N 0.4504(3) 0.4013(3) -0.25436(12)
O1 O 0.4278(3) 0.40354(16) 0.07196(9)
O2 O 0.5038(6) 0.2156(2) 0.05772(14)
O3 O 0.4575(4) 0.5037(3) -0.27436(12)
O4 O 0.4401(4) 0.3174(3) -0.29313(12)
C17 C 0.9261(5) 0.4428(3) 0.59920(13)
H18 H 0.88410 0.51970 0.58080
C18 C 1.1272(5) 0.4149(4) 0.57451(16)
H19 H 1.16090 0.33470 0.58820
H20 H 1.21900 0.46810 0.59700
C19 C 1.1458(7) 0.4263(5) 0.4967(2)
H21 H 1.09910 0.50370 0.48250
H22 H 1.28170 0.42140 0.48550
C20 C 1.0392(12) 0.3358(8) 0.4577(3)
H23 H 1.07790 0.34180 0.41000
H24 H 1.08330 0.25930 0.47450
C21 C 0.8382(9) 0.3346(7) 0.4576(2)
H25 H 0.79510 0.28020 0.42170
H26 H 0.79440 0.41290 0.44390
C22 C 0.7306(5) 0.3013(4) 0.52370(19)
C23 C 0.7765(5) 0.3524(4) 0.58329(17)
H27 H 0.70430 0.32800 0.62060
C24 C 0.9575(4) 0.5525(3) 0.70506(14)
C25 C 0.9608(3) 0.5421(3) 0.78212(13)
C26 C 0.9460(3) 0.4352(3) 0.81532(13)
H28 H 0.93610 0.36590 0.78950
C27 C 0.9456(3) 0.4290(3) 0.88662(14)
H29 H 0.93640 0.35670 0.90920
C28 C 0.9594(3) 0.5337(3) 0.92298(13)
C29 C 0.9776(4) 0.6407(3) 0.89196(16)
H30 H 0.98900 0.70960 0.91810
C30 C 0.9788(4) 0.6452(3) 0.82074(16)
H31 H 0.99170 0.71770 0.79860
C31 C 0.5751(6) 0.2161(5) 0.5209(3)
H32 H 0.51360 0.20190 0.56230
C32 C 0.5090(9) 0.1556(7) 0.4669(4)
H33 H 0.56460 0.16600 0.42410
H34 H 0.40700 0.10280 0.47170
N2 N 0.9557(4) 0.5280(4) 0.99896(14)
O5 O 0.9366(3) 0.4480(2) 0.67516(9)
O6 O 0.9721(5) 0.6447(2) 0.67542(12)
O7 O 0.9299(5) 0.4324(4) 1.02594(14)
O8 O 0.9780(6) 0.6194(4) 1.03097(15)
#END
