
#######################################################################
#
#                 Cambridge Crystallographic Data Centre
#                                CCDC
#
#######################################################################
#
# If this CIF has been generated from an entry in the Cambridge
# Structural Database, then it will include bibliographic, chemical,
# crystal, experimental, refinement or atomic coordinate data resulting
# from the CCDC's data processing and validation procedures.
#
#######################################################################

data_CSD_CIF_BUKNEA
_audit_creation_date 1983-12-16
_audit_creation_method CSD-ConQuest-V1
_database_code_CSD BUKNEA
_database_code_depnum_ccdc_archive 'CCDC 1116521'
_chemical_formula_sum 'C13 H17 N1 O8'
_chemical_formula_moiety
;
C13 H17 N1 O8
;
_journal_coden_Cambridge 423
_journal_volume 112
_journal_year 1983
_journal_page_first 1201
_journal_name_full 'J.Chem.Res. '
loop_
_publ_author_name
"S.Auricchio"
"S.Bruckner"
"L.Malpezzi"
"O.V.de Pava"
_chemical_name_systematic
;
3,6,9,12,15,19-Hexaoxa-18-azabicyclo(15.2.1)icosa-1(20),17-diene-2,16-dione
;
_cell_volume   1514.157
_exptl_crystal_density_diffrn 1.38
_diffrn_ambient_temperature ?
_diffrn_special_details
;
The study was carried out at room temperature,in the range 283-303K

;
#These two values have been output from a single CSD field.
_refine_ls_R_factor_gt 0.064
_refine_ls_wR_factor_gt 0.064
_symmetry_cell_setting monoclinic
_symmetry_space_group_name_H-M 'P c'
_symmetry_Int_Tables_number 7
loop_
_symmetry_equiv_pos_site_id
_symmetry_equiv_pos_as_xyz
1 x,y,z
2 x,-y,1/2+z
_cell_length_a 8.613(2)
_cell_length_b 18.837(4)
_cell_length_c 9.691(2)
_cell_angle_alpha 90
_cell_angle_beta 105.63(5)
_cell_angle_gamma 90
_cell_formula_units_Z 4
loop_
_atom_type_symbol
_atom_type_radius_bond
C 0.68
H 0.23
N 0.68
O 0.68
loop_
_atom_site_label
_atom_site_type_symbol
_atom_site_fract_x
_atom_site_fract_y
_atom_site_fract_z
N1 N -0.19330 0.40300 0.21750
O1 O -0.25760 0.46340 0.14370
O2 O 0.11730 0.40010 0.53720
O3 O -0.01910 0.30670 0.42220
O4 O 0.28110 0.45550 0.79780
O5 O 0.23550 0.60400 0.70060
O6 O 0.03940 0.73140 0.43860
O7 O -0.15900 0.63670 0.26480
O8 O -0.31440 0.60480 0.05040
C1 C -0.18180 0.51890 0.21880
C2 C -0.06910 0.49620 0.33910
C3 C -0.08030 0.42450 0.33370
C4 C 0.00790 0.36800 0.43450
C5 C 0.21710 0.35410 0.64970
C6 C 0.34840 0.40020 0.73380
C7 C 0.38600 0.51370 0.84660
C8 C 0.38340 0.56780 0.73510
C9 C 0.22210 0.65340 0.58590
C10 C 0.05810 0.68550 0.55810
C11 C -0.12570 0.74970 0.37110
C12 C -0.18320 0.71220 0.23110
C13 C -0.22890 0.59050 0.16530
H1 H 0.01100 0.52800 0.42000
H2 H 0.26600 0.31000 0.60300
H3 H 0.14700 0.33400 0.71800
H4 H 0.41200 0.42300 0.66200
H5 H 0.43100 0.37000 0.81600
H6 H 0.35200 0.53900 0.93500
H7 H 0.50800 0.49400 0.88400
H8 H 0.39900 0.54200 0.64000
H9 H 0.48000 0.60500 0.77400
H10 H 0.31400 0.69400 0.61700
H11 H 0.23500 0.62600 0.49100
H12 H 0.04800 0.71600 0.65000
H13 H -0.03300 0.64500 0.53500
H14 H -0.19900 0.73400 0.44000
H15 H -0.13500 0.80600 0.35400
H16 H -0.11300 0.72800 0.15900
H17 H -0.30900 0.72300 0.18300
N2 N 0.74670 -0.04940 0.10960
O9 O 0.67960 -0.11080 0.14950
O10 O 0.68340 0.12020 0.22550
O11 O 0.80350 0.09590 0.05540
O12 O 0.46190 0.20400 0.28760
O13 O 0.25720 0.11660 0.44920
O14 O 0.17940 -0.03390 0.43360
O15 O 0.40530 -0.10840 0.35960
O16 O 0.48630 -0.20460 0.26450
C14 C 0.58440 -0.08910 0.22970
C15 C 0.58670 -0.01800 0.24320
C16 C 0.68790 0.00460 0.16720
C17 C 0.73810 0.07870 0.14000
C18 C 0.69590 0.19710 0.20930
C19 C 0.62300 0.22770 0.31970
C20 C 0.38250 0.22120 0.39310
C21 C 0.23490 0.18010 0.37660
C22 C 0.10580 0.08110 0.44280
C23 C 0.13270 0.01520 0.52070
C24 C 0.21760 -0.09740 0.48930
C25 C 0.28540 -0.14590 0.40500
C26 C 0.48920 -0.14280 0.28320
H18 H 0.52200 0.01400 0.30200
H19 H 0.82100 0.21300 0.23000
H20 H 0.63100 0.21400 0.10300
H21 H 0.62500 0.28500 0.31400
H22 H 0.68900 0.21100 0.42600
H23 H 0.46300 0.21000 0.49700
H24 H 0.35400 0.27700 0.38700
H25 H 0.18300 0.17000 0.26400
H26 H 0.15200 0.21200 0.41700
H27 H 0.04600 0.06900 0.33200
H28 H 0.03000 0.11500 0.48600
H29 H 0.02400 -0.00200 0.54600
H30 H 0.22800 0.02200 0.61800
H31 H 0.30100 -0.09100 0.59400
H32 H 0.10700 -0.12100 0.50000
H33 H 0.19400 -0.16500 0.31300
H34 H 0.34000 -0.19000 0.47200
#END
