
#######################################################################
#
#                 Cambridge Crystallographic Data Centre
#                                CCDC
#
#######################################################################
#
# If this CIF has been generated from an entry in the Cambridge
# Structural Database, then it will include bibliographic, chemical,
# crystal, experimental, refinement or atomic coordinate data resulting
# from the CCDC's data processing and validation procedures.
#
#######################################################################

data_CSD_CIF_BUKQOO
_audit_creation_date 2010-08-24
_audit_creation_method CSD-ConQuest-V1
_database_code_CSD BUKQOO
_database_code_depnum_ccdc_archive 'CCDC 705237'
_chemical_formula_sum 'C12 H20 N4 O4'
_chemical_formula_moiety
;
C12 H20 N4 O4
;
_journal_coden_Cambridge 9
_journal_volume 48
_journal_year 2009
_journal_page_first 10093
_journal_name_full 'Inorg.Chem. '
loop_
_publ_author_name
"S.Tashiro"
"A.Minoda"
"M.Yamada"
"M.Shionoya"
_chemical_name_systematic
;
3,7,11,15-Tetramethyl-1,5,9,13-tetraoxa-2,6,10,14-tetraazacyclohexadeca-2,6,10
,14-tetraene
;
_cell_volume    733.761
_exptl_crystal_colour 'colorless'
_exptl_crystal_density_diffrn 1.287
_exptl_crystal_description 'block'
_exptl_crystal_preparation 'toluene'
_diffrn_ambient_temperature 133
#These two values have been output from a single CSD field.
_refine_ls_R_factor_gt 0.038
_refine_ls_wR_factor_gt 0.038
_symmetry_cell_setting monoclinic
_symmetry_space_group_name_H-M 'P 21/c'
_symmetry_Int_Tables_number 14
loop_
_symmetry_equiv_pos_site_id
_symmetry_equiv_pos_as_xyz
1 x,y,z
2 -x,1/2+y,1/2-z
3 -x,-y,-z
4 x,-1/2-y,-1/2+z
_cell_length_a 8.1968(4)
_cell_length_b 9.3192(5)
_cell_length_c 9.6427(6)
_cell_angle_alpha 90
_cell_angle_beta 95.0169(18)
_cell_angle_gamma 90
_cell_formula_units_Z 2
loop_
_atom_type_symbol
_atom_type_radius_bond
C 0.68
H 0.23
N 0.68
O 0.68
loop_
_atom_site_label
_atom_site_type_symbol
_atom_site_fract_x
_atom_site_fract_y
_atom_site_fract_z
O1 O 0.68995(10) 0.75745(9) 0.37322(9)
O2 O 0.16872(9) 0.58782(8) 0.37577(8)
N1 N 0.32109(12) 0.58735(10) 0.31545(10)
N2 N 0.26791(11) 0.36605(10) 0.54407(10)
C1 C 0.55591(14) 0.72078(14) 0.27462(12)
H1 H 0.58090 0.62970 0.22810
H2 H 0.54250 0.79640 0.20250
C2 C 0.39840(14) 0.70448(12) 0.34189(11)
C3 C 0.34090(17) 0.82487(14) 0.42761(15)
H3 H 0.24460 0.87000 0.37830
H4 H 0.42850 0.89610 0.44360
H5 H 0.31190 0.78750 0.51720
C4 C 0.09430(13) 0.45135(12) 0.35003(11)
H6 H 0.11070 0.42220 0.25350
H7 H -0.02500 0.46100 0.35660
C5 C 0.15824(13) 0.33404(12) 0.44734(11)
C6 C 0.08333(15) 0.18862(13) 0.42062(14)
H8 H 0.17030 0.11690 0.41720
H9 H 0.01590 0.18960 0.33160
H10 H 0.01490 0.16440 0.49560
O1B O 0.31005(10) 0.24255(9) 0.62678(9)
O2B O 0.83128(9) 0.41218(8) 0.62423(8)
N1B N 0.67891(12) 0.41265(10) 0.68455(10)
N2B N 0.73209(11) 0.63395(10) 0.45593(10)
C1B C 0.44409(14) 0.27922(14) 0.72538(12)
H1B H 0.41910 0.37030 0.77190
H2B H 0.45750 0.20360 0.79750
C2B C 0.60160(14) 0.29552(12) 0.65811(11)
C3B C 0.65910(17) 0.17513(14) 0.57239(15)
H3B H 0.75540 0.13000 0.62170
H4B H 0.57150 0.10390 0.55640
H5B H 0.68810 0.21250 0.48280
C4B C 0.90570(13) 0.54865(12) 0.64997(11)
H6B H 0.88930 0.57780 0.74650
H7B H 1.02500 0.53900 0.64340
C5B C 0.84176(13) 0.66596(12) 0.55266(11)
C6B C 0.91667(15) 0.81138(13) 0.57938(14)
H8B H 0.82970 0.88310 0.58280
H9B H 0.98410 0.81040 0.66840
H10B H 0.98510 0.83560 0.50440
#END
