
#######################################################################
#
#                 Cambridge Crystallographic Data Centre
#                                CCDC
#
#######################################################################
#
# If this CIF has been generated from an entry in the Cambridge
# Structural Database, then it will include bibliographic, chemical,
# crystal, experimental, refinement or atomic coordinate data resulting
# from the CCDC's data processing and validation procedures.
#
#######################################################################

data_CSD_CIF_BUKQUU
_audit_creation_date 2010-08-24
_audit_creation_method CSD-ConQuest-V1
_database_code_CSD BUKQUU
_database_code_depnum_ccdc_archive 'CCDC 705238'
_chemical_formula_sum 'C12 H12 N2 O4'
_chemical_formula_moiety
;
C12 H12 N2 O4
;
_journal_coden_Cambridge 9
_journal_volume 48
_journal_year 2009
_journal_page_first 10093
_journal_name_full 'Inorg.Chem. '
loop_
_publ_author_name
"S.Tashiro"
"A.Minoda"
"M.Yamada"
"M.Shionoya"
_chemical_name_systematic
;
(E)-2-(2-(Methoxyimino)propoxy)-1H-isoindole-1,3(2H)-dione
;
_cell_volume   2403.990
_exptl_crystal_colour 'colorless'
_exptl_crystal_density_diffrn 1.372
_exptl_crystal_description 'block'
_exptl_crystal_preparation 'ethyl acetate/n-hexane'
_diffrn_ambient_temperature 93
#These two values have been output from a single CSD field.
_refine_ls_R_factor_gt 0.0751
_refine_ls_wR_factor_gt 0.0751
_symmetry_cell_setting triclinic
_symmetry_space_group_name_H-M 'P -1'
_symmetry_Int_Tables_number 2
loop_
_symmetry_equiv_pos_site_id
_symmetry_equiv_pos_as_xyz
1 x,y,z
2 -x,-y,-z
_cell_length_a 11.9651(7)
_cell_length_b 12.3116(7)
_cell_length_c 16.5940(8)
_cell_angle_alpha 89.5011(16)
_cell_angle_beta 80.3186(15)
_cell_angle_gamma 86.0787(19)
_cell_formula_units_Z 8
loop_
_atom_type_symbol
_atom_type_radius_bond
C 0.68
H 0.23
N 0.68
O 0.68
loop_
_atom_site_label
_atom_site_type_symbol
_atom_site_fract_x
_atom_site_fract_y
_atom_site_fract_z
O1 O 0.3730(2) 0.4330(2) 0.17741(18)
O2 O 0.2737(2) 0.2374(2) 0.40221(16)
O3 O 0.1796(2) 0.4571(2) 0.41332(18)
O4 O 0.4350(2) 0.2141(2) 0.50743(18)
N1 N 0.4042(3) 0.3599(2) 0.2360(2)
N2 N 0.3096(3) 0.3215(2) 0.4441(2)
C1 C 0.4651(4) 0.4998(4) 0.1501(3)
H1 H 0.44630 0.54680 0.10560
H2 H 0.53390 0.45340 0.13040
H3 H 0.47800 0.54480 0.19560
C2 C 0.3221(3) 0.2994(3) 0.2626(2)
C3 C 0.2100(4) 0.3033(4) 0.2366(2)
H4 H 0.21840 0.32160 0.17840
H5 H 0.15900 0.35890 0.26840
H6 H 0.17810 0.23220 0.24560
C4 C 0.3505(4) 0.2187(3) 0.3246(2)
H7 H 0.34410 0.14410 0.30470
H8 H 0.42990 0.22500 0.33270
C5 C 0.2533(3) 0.4242(3) 0.4516(2)
C6 C 0.3832(3) 0.3011(3) 0.5007(2)
C7 C 0.3039(3) 0.4785(3) 0.5147(2)
C8 C 0.3803(3) 0.4055(3) 0.5444(2)
C9 C 0.2837(4) 0.5843(4) 0.5438(2)
H9 H 0.23220 0.63490 0.52290
C10 C 0.4395(4) 0.4345(4) 0.6047(2)
H10 H 0.49260 0.38440 0.62430
C11 C 0.3426(4) 0.6131(4) 0.6053(2)
H11 H 0.33050 0.68480 0.62720
C12 C 0.4181(4) 0.5399(4) 0.6353(2)
H12 H 0.45620 0.56210 0.67760
O5 O 0.8480(2) 0.7383(2) -0.04866(17)
O6 O 0.7451(2) 0.4964(2) 0.15023(16)
O7 O 0.6687(2) 0.7139(2) 0.20286(19)
O8 O 0.9199(2) 0.4256(2) 0.23520(18)
N3 N 0.8771(3) 0.6441(2) -0.0058(2)
N4 N 0.7952(3) 0.5614(2) 0.1990(2)
C13 C 0.9503(4) 0.7898(4) -0.0811(2)
H13 H 1.00170 0.73860 -0.11700
H14 H 0.98760 0.81140 -0.03600
H15 H 0.93130 0.85440 -0.11240
C14 C 0.7887(3) 0.5939(3) 0.0215(2)
C15 C 0.6711(3) 0.6306(4) 0.0105(3)
H16 H 0.66620 0.63100 -0.04780
H17 H 0.65210 0.70420 0.03290
H18 H 0.61760 0.58070 0.03930
C16 C 0.8086(4) 0.4921(3) 0.0669(2)
H19 H 0.78550 0.42990 0.03760
H20 H 0.89070 0.47980 0.06880
C17 C 0.7479(3) 0.6643(3) 0.2271(2)
C18 C 0.8747(3) 0.5162(3) 0.2442(2)
C19 C 0.8149(3) 0.6926(3) 0.2905(2)
C20 C 0.8893(3) 0.6044(3) 0.3012(2)
C21 C 0.8120(4) 0.7887(3) 0.3339(2)
H21 H 0.76130 0.84910 0.32600
C22 C 0.9629(3) 0.6071(3) 0.3567(2)
H22 H 1.01320 0.54610 0.36420
C23 C 0.8865(4) 0.7927(3) 0.3895(2)
H23 H 0.88720 0.85770 0.41990
C24 C 0.9605(4) 0.7036(4) 0.4017(2)
H24 H 1.00950 0.70830 0.44080
O9 O 0.1266(2) 0.8031(2) 0.58325(17)
O10 O 0.2457(2) 0.9753(2) 0.34613(16)
O11 O 0.1063(2) 1.0148(2) 0.22784(18)
O12 O 0.3088(2) 0.7458(2) 0.34522(18)
N5 N 0.0997(3) 0.8729(2) 0.5208(2)
N6 N 0.2063(3) 0.8953(2) 0.3023(2)
C25 C 0.0230(3) 0.7655(3) 0.6277(2)
H25 H -0.02060 0.73500 0.58940
H26 H -0.02190 0.82660 0.65740
H27 H 0.04090 0.70930 0.66660
C26 C 0.1878(3) 0.9223(3) 0.4877(2)
C27 C 0.3015(4) 0.9105(4) 0.5103(2)
H28 H 0.29460 0.89940 0.56940
H29 H 0.34130 0.97650 0.49490
H30 H 0.34460 0.84770 0.48150
C28 C 0.1656(4) 1.0001(3) 0.4218(2)
H31 H 0.08690 0.99520 0.41170
H32 H 0.17350 1.07540 0.43950
C29 C 0.1425(3) 0.9239(3) 0.2409(2)
C30 C 0.2467(3) 0.7864(3) 0.3013(2)
C31 C 0.1326(3) 0.8184(3) 0.2012(2)
C32 C 0.1939(3) 0.7369(3) 0.2369(2)
C33 C 0.0736(4) 0.7942(4) 0.1393(2)
H33 H 0.03140 0.84940 0.11460
C34 C 0.1974(4) 0.6299(3) 0.2129(2)
H34 H 0.23810 0.57420 0.23820
C35 C 0.0786(4) 0.6860(4) 0.1145(2)
H35 H 0.03930 0.66690 0.07210
C36 C 0.1394(4) 0.6067(4) 0.1505(2)
H36 H 0.14180 0.53360 0.13200
O13 O 0.6374(2) 0.0045(2) 0.30715(16)
O14 O 0.7755(2) 0.2188(2) 0.09404(16)
O15 O 0.6232(2) 0.3224(2) 0.00168(18)
O16 O 0.7996(2) -0.0061(2) 0.05161(19)
N7 N 0.6255(3) 0.1016(2) 0.26278(19)
N8 N 0.7087(3) 0.1657(2) 0.0486(2)
C37 C 0.5297(3) -0.0143(3) 0.3572(2)
H37 H 0.50820 0.04530 0.39670
H38 H 0.53620 -0.08330 0.38650
H39 H 0.47140 -0.01770 0.32240
C38 C 0.7229(3) 0.1288(3) 0.2261(2)
C39 C 0.8334(3) 0.0681(3) 0.2304(2)
H40 H 0.89460 0.10370 0.19570
H41 H 0.83140 -0.00680 0.21150
H42 H 0.84690 0.06720 0.28710
C40 C 0.7195(3) 0.2324(3) 0.1791(2)
H43 H 0.63940 0.25930 0.18040
H44 H 0.75730 0.28790 0.20570
C41 C 0.6436(3) 0.2248(3) -0.0019(2)
C42 C 0.7338(4) 0.0565(3) 0.0243(2)
C43 C 0.6103(3) 0.1412(3) -0.0545(2)
C44 C 0.6620(3) 0.0416(3) -0.0387(2)
C45 C 0.5368(3) 0.1527(3) -0.1110(2)
H45 H 0.50290 0.22180 -0.12270
C46 C 0.6428(4) -0.0527(3) -0.0775(2)
H46 H 0.67910 -0.12110 -0.06680
C47 C 0.5150(4) 0.0582(4) -0.1498(2)
H47 H 0.46390 0.06230 -0.18800
C48 C 0.5671(4) -0.0418(4) -0.1333(2)
H48 H 0.55090 -0.10480 -0.16060
#END
