
#######################################################################
#
#                 Cambridge Crystallographic Data Centre
#                                CCDC
#
#######################################################################
#
# If this CIF has been generated from an entry in the Cambridge
# Structural Database, then it will include bibliographic, chemical,
# crystal, experimental, refinement or atomic coordinate data resulting
# from the CCDC's data processing and validation procedures.
#
#######################################################################

data_CSD_CIF_BUKXUA
_audit_creation_date 1983-12-16
_audit_creation_method CSD-ConQuest-V1
_database_code_CSD BUKXUA
_database_code_depnum_ccdc_archive 'CCDC 1116556'
_chemical_formula_sum 'C22 H26 N4 O14'
_chemical_formula_moiety
;
C22 H26 N4 O14
;
_journal_coeditor_code "IUCr A22509"
_journal_coden_Cambridge 591
_journal_volume 39
_journal_year 1983
_journal_page_first 798
_journal_name_full 'Acta Crystallogr.,Sect.C:Cryst.Struct.Commun. '
loop_
_publ_author_name
"B.Kojic-Prodic"
"Z.Ruzic-Toros"
"K.Linek"
_chemical_name_systematic
;
(Z)-1,3,4,5,6-Penta-O-acetyl-keto-D-fructose-(2,4-dinitrophenylhydrazone)
;
_chemical_melting_point 394
_cell_volume   2764.425
_exptl_crystal_density_diffrn 1.371
_exptl_special_details
;
Melting point range 394-5K

;
_diffrn_ambient_temperature ?
_diffrn_special_details
;
The study was carried out at room temperature,in the range 283-303K

;
#These two values have been output from a single CSD field.
_refine_ls_R_factor_gt 0.057
_refine_ls_wR_factor_gt 0.057
_symmetry_cell_setting orthorhombic
_symmetry_space_group_name_H-M 'P 21 21 21'
_symmetry_Int_Tables_number 19
loop_
_symmetry_equiv_pos_site_id
_symmetry_equiv_pos_as_xyz
1 x,y,z
2 1/2+x,1/2-y,-z
3 -x,1/2+y,1/2-z
4 1/2-x,-y,1/2+z
_cell_length_a 7.942(2)
_cell_length_b 12.737(3)
_cell_length_c 27.328(8)
_cell_angle_alpha 90
_cell_angle_beta 90
_cell_angle_gamma 90
_cell_formula_units_Z 4
loop_
_atom_type_symbol
_atom_type_radius_bond
C 0.68
H 0.23
N 0.68
O 0.68
loop_
_atom_site_label
_atom_site_type_symbol
_atom_site_fract_x
_atom_site_fract_y
_atom_site_fract_z
C1 C 0.03670 0.53080 0.46760
C2 C 0.17710 0.57460 0.49170
C3 C 0.15720 0.64250 0.53110
C4 C -0.00220 0.66750 0.54600
C5 C -0.14480 0.62970 0.52190
C6 C -0.12630 0.56250 0.48380
N1 N 0.34900 0.55170 0.47590
N2 N -0.02160 0.74000 0.58710
O1 O 0.37500 0.48570 0.44420
O2 O 0.46200 0.60170 0.49590
O3 O 0.10360 0.77040 0.60870
O4 O -0.16660 0.76720 0.59850
C7 C -0.25400 0.32530 0.35270
O5 O -0.27000 0.35830 0.30240
C8 C -0.24040 0.28620 0.26730
O6 O -0.19640 0.19880 0.27580
C9 C -0.26360 0.33360 0.21790
C10 C -0.08580 0.36090 0.37230
N3 N 0.05260 0.46420 0.42800
N4 N -0.09480 0.42820 0.40700
C11 C 0.07110 0.30860 0.34980
O7 O 0.21070 0.37990 0.34860
C12 C 0.22210 0.44170 0.30780
O8 O 0.11820 0.43530 0.27600
C13 C 0.36580 0.51330 0.30950
C14 C 0.11980 0.20940 0.37670
O9 O 0.16690 0.23660 0.42620
C15 C 0.08810 0.18390 0.46270
O10 O 0.00140 0.10950 0.45510
C16 C 0.13650 0.22660 0.51130
C17 C 0.26770 0.15270 0.35250
O11 O 0.21110 0.12420 0.30420
C18 C 0.28500 0.16880 0.26520
O12 O 0.39850 0.22970 0.26900
C19 C 0.20590 0.13350 0.21860
C20 C 0.31470 0.05260 0.37920
O13 O 0.45410 0.00130 0.35500
C21 C 0.60920 0.03150 0.36980
O14 O 0.63250 0.09580 0.40080
C22 C 0.74340 -0.02660 0.34300
H1 H 0.25700 0.67200 0.54800
H2 H -0.26600 0.65400 0.53200
H3 H -0.23200 0.55000 0.46000
H4 H -0.34600 0.35600 0.37300
H5 H -0.26000 0.24600 0.35400
H6 H -0.21000 0.27700 0.20000
H7 H -0.38200 0.34700 0.20800
H8 H -0.19800 0.40300 0.21400
H9 H 0.13200 0.42500 0.43300
H10 H 0.04500 0.29000 0.31300
H11 H 0.38500 0.55300 0.27800
H12 H 0.35300 0.56900 0.33700
H13 H 0.47600 0.47300 0.31600
H14 H 0.01000 0.16300 0.37500
H15 H 0.20000 0.29300 0.50700
H16 H 0.03300 0.24300 0.53100
H17 H 0.20800 0.17600 0.52900
H18 H 0.36700 0.20100 0.35300
H19 H 0.12500 0.18700 0.21200
H20 H 0.29000 0.13000 0.18800
H21 H 0.14300 0.06000 0.22000
H22 H 0.34600 0.07000 0.41500
H23 H 0.20700 0.00300 0.37800
H24 H 0.72000 -0.10000 0.33500
H25 H 0.77000 0.00800 0.30900
H26 H 0.85700 -0.02600 0.36000
#END
