
#######################################################################
#
#                 Cambridge Crystallographic Data Centre
#                                CCDC
#
#######################################################################
#
# If this CIF has been generated from an entry in the Cambridge
# Structural Database, then it will include bibliographic, chemical,
# crystal, experimental, refinement or atomic coordinate data resulting
# from the CCDC's data processing and validation procedures.
#
#######################################################################

data_CSD_CIF_BUMDOX
_audit_creation_date 1980-02-13
_audit_creation_method CSD-ConQuest-V1
_database_code_CSD BUMDOX
_chemical_formula_sum 'C15 H27 N1 O1'
_chemical_formula_moiety
;
C15 H27 N1 O1
;
_journal_coden_Cambridge 35
_journal_volume 44
_journal_year 1979
_journal_page_first 2400
_journal_name_full 'J.Org.Chem. '
loop_
_publ_author_name
"H.O.House"
"W.V.Phillips"
"D.G.VanDerveer"
_chemical_name_systematic
;
7-t-Butyl-1-methyl-bicyclo(4.4.0)decan-2-one-oxime
;
_chemical_melting_point 437.15
_cell_volume   2906.573
_exptl_crystal_density_diffrn 1.08
_exptl_special_details
;
Melting point range 437.15-438.15K

;
_diffrn_ambient_temperature ?
_diffrn_special_details
;
The study was carried out at room temperature,in the range 283-303K

;
#These two values have been output from a single CSD field.
_refine_ls_R_factor_gt 0.076
_refine_ls_wR_factor_gt 0.076
_symmetry_cell_setting orthorhombic
_symmetry_space_group_name_H-M 'P c c n'
_symmetry_Int_Tables_number 56
loop_
_symmetry_equiv_pos_site_id
_symmetry_equiv_pos_as_xyz
1 x,y,z
2 1/2-x,y,1/2+z
3 x,1/2-y,1/2+z
4 1/2-x,1/2-y,z
5 -x,-y,-z
6 -1/2+x,-y,-1/2-z
7 -x,-1/2+y,-1/2-z
8 -1/2+x,-1/2+y,-z
_cell_length_a 18.69(1)
_cell_length_b 12.788(7)
_cell_length_c 12.161(6)
_cell_angle_alpha 90
_cell_angle_beta 90
_cell_angle_gamma 90
_cell_formula_units_Z 8
loop_
_atom_type_symbol
_atom_type_radius_bond
C 0.68
H 0.23
N 0.68
O 0.68
loop_
_atom_site_label
_atom_site_type_symbol
_atom_site_fract_x
_atom_site_fract_y
_atom_site_fract_z
O1 O -0.05640 0.41660 0.55070
N1 N -0.00170 0.38230 0.47850
C1 C -0.00290 0.28420 0.45920
C2 C -0.05790 0.21140 0.50640
C3 C -0.08710 0.13850 0.41760
C4 C -0.02690 0.08320 0.35860
C5 C 0.08630 0.09940 0.24570
C6 C 0.14130 0.04860 0.32220
C7 C 0.17030 0.13170 0.39960
C8 C 0.11200 0.18830 0.46250
C9 C 0.05650 0.24040 0.38680
C10 C 0.02620 0.15810 0.30520
C11 C 0.09090 0.32980 0.32120
C12 C 0.19940 -0.01630 0.26100
C13 C 0.25210 -0.06260 0.34450
C14 C 0.24040 0.05030 0.17790
C15 C 0.16360 -0.10780 0.20150
H1 H -0.04670 0.49440 0.56940
H2 H -0.03360 0.16520 0.57070
H3 H -0.10140 0.25670 0.54030
H4 H -0.11740 0.18380 0.35880
H5 H -0.12160 0.08100 0.45530
H6 H 0.00170 0.03550 0.41740
H7 H -0.04940 0.03390 0.29540
H8 H 0.11400 0.15410 0.19310
H9 H 0.06240 0.03870 0.19610
H10 H 0.11470 -0.01000 0.37140
H11 H 0.20630 0.09450 0.45800
H12 H 0.20060 0.18820 0.35200
H13 H 0.09430 0.13240 0.51420
H14 H 0.13620 0.24900 0.51310
H15 H -0.00380 0.20130 0.24430
H16 H 0.13300 0.29890 0.26990
H17 H 0.11300 0.38660 0.37740
H18 H 0.05090 0.36670 0.27030
H19 H 0.27840 -0.00010 0.38830
H20 H 0.29150 -0.10910 0.30190
H21 H 0.22340 -0.11130 0.40220
H22 H 0.20350 0.08300 0.11900
H23 H 0.27910 0.00200 0.13570
H24 H 0.26750 0.11270 0.22040
H25 H 0.12600 -0.07810 0.14180
H26 H 0.13570 -0.15610 0.26050
H27 H 0.20390 -0.15390 0.16020
#END
