
#######################################################################
#
#                 Cambridge Crystallographic Data Centre
#                                CCDC
#
#######################################################################
#
# If this CIF has been generated from an entry in the Cambridge
# Structural Database, then it will include bibliographic, chemical,
# crystal, experimental, refinement or atomic coordinate data resulting
# from the CCDC's data processing and validation procedures.
#
#######################################################################

data_CSD_CIF_BUMJAU
_audit_creation_date 1983-12-16
_audit_creation_method CSD-ConQuest-V1
_database_code_CSD BUMJAU
_chemical_formula_sum 'C13 H9 N3 O2'
_chemical_formula_moiety
;
C13 H9 N3 O2
;
_journal_coden_Cambridge 368
_journal_volume 11
_journal_year 1982
_journal_page_first 443
_journal_name_full 'Bioorg.Chem. '
loop_
_publ_author_name
"V.B.Pett"
"M.Rossi"
"J.P.Glusker"
"J.J.Stezowski"
"M.Bogucka-Ledochowska"
_chemical_name_systematic
;
1-Nitro-9-amino-acridine
;
_chemical_melting_point 519.15
_cell_volume   2166.400
_exptl_crystal_colour 'red'
_exptl_crystal_density_diffrn 1.488
_exptl_special_details
;
Melts with decomposition.
approximately isomorphous with 9-methylacridine analogue
;
_diffrn_ambient_temperature ?
_diffrn_special_details
;
The study was carried out at room temperature,in the range 283-303K

;
_refine_special_details
;
The nitro group is disordered. The O atoms were assigned occupancy 0.5. One 
set of coordinates for each O atom has been retained.
;
#These two values have been output from a single CSD field.
_refine_ls_R_factor_gt 0.058
_refine_ls_wR_factor_gt 0.058
_symmetry_cell_setting orthorhombic
_symmetry_space_group_name_H-M 'P b c a'
_symmetry_Int_Tables_number 61
loop_
_symmetry_equiv_pos_site_id
_symmetry_equiv_pos_as_xyz
1 x,y,z
2 1/2-x,1/2+y,z
3 x,1/2-y,1/2+z
4 1/2-x,-y,1/2+z
5 -x,-y,-z
6 -1/2+x,-1/2-y,-z
7 -x,-1/2+y,-1/2-z
8 -1/2+x,y,-1/2-z
_cell_length_a 13.217(2)
_cell_length_b 10.011(1)
_cell_length_c 16.373(1)
_cell_angle_alpha 90
_cell_angle_beta 90
_cell_angle_gamma 90
_cell_formula_units_Z 8
loop_
_atom_type_symbol
_atom_type_radius_bond
C 0.68
H 0.23
N 0.68
O 0.68
loop_
_atom_site_label
_atom_site_type_symbol
_atom_site_fract_x
_atom_site_fract_y
_atom_site_fract_z
C1 C 0.26280 -0.08220 0.08050
C2 C 0.18400 -0.14570 0.04440
C3 C 0.08510 -0.11640 0.06770
C4 C 0.06900 -0.02710 0.12680
C5 C 0.16760 0.28350 0.32730
C6 C 0.23970 0.35740 0.36710
C7 C 0.34070 0.33860 0.35120
C8 C 0.37200 0.24840 0.29500
C9 C 0.33060 0.07610 0.18840
N1 N 0.12240 0.12260 0.22700
C10 C 0.25320 0.01140 0.14440
C11 C 0.14930 0.03770 0.16750
C12 C 0.30130 0.17060 0.24960
C13 C 0.19690 0.18930 0.26660
N2 N 0.36170 -0.11790 0.04390
N3 N 0.42940 0.05390 0.17550
O1 O 0.40740 -0.02160 0.01400
O2 O 0.38700 -0.23360 0.04170
H1 H 0.19500 -0.21000 -0.00200
H2 H 0.01600 -0.15700 0.05100
H3 H 0.01100 -0.00400 0.14300
H4 H 0.08900 0.29300 0.34200
H5 H 0.21700 0.42800 0.40000
H6 H 0.38000 0.39600 0.37900
H7 H 0.44700 0.22400 0.29100
H8 H 0.47900 0.09400 0.20500
H9 H 0.45000 0.00300 0.13000
#END
