
#######################################################################
#
#                 Cambridge Crystallographic Data Centre
#                                CCDC
#
#######################################################################
#
# If this CIF has been generated from an entry in the Cambridge
# Structural Database, then it will include bibliographic, chemical,
# crystal, experimental, refinement or atomic coordinate data resulting
# from the CCDC's data processing and validation procedures.
#
#######################################################################

data_CSD_CIF_BUMNOM
_audit_creation_date 1983-12-16
_audit_creation_method CSD-ConQuest-V1
_database_code_CSD BUMNOM
_database_code_depnum_ccdc_archive 'CCDC 1116718'
_chemical_formula_sum 'C20 H18 N2 O4'
_chemical_formula_moiety
;
C20 H18 N2 O4
;
_journal_coden_Cambridge 10
_journal_volume 66
_journal_year 1983
_journal_page_first 943
_journal_name_full 'Helv.Chim.Acta '
loop_
_publ_author_name
"O.Ermer"
"C.-D.Bodecker"
_chemical_name_systematic
;
N-(p-Nitrophenyl)-4,5-anti-tetracyclo(6.2.1.1^3,6^.0^2,7^)dodec-2(7)-ene-dicar
boximide
;
_chemical_melting_point 478.15
_cell_volume   1700.295
_exptl_crystal_density_diffrn 1.368
_diffrn_ambient_temperature ?
_diffrn_special_details
;
The study was carried out at room temperature,in the range 283-303K

;
#These two values have been output from a single CSD field.
_refine_ls_R_factor_gt 0.061
_refine_ls_wR_factor_gt 0.061
_symmetry_cell_setting monoclinic
_symmetry_space_group_name_H-M 'P 21/c'
_symmetry_Int_Tables_number 14
loop_
_symmetry_equiv_pos_site_id
_symmetry_equiv_pos_as_xyz
1 x,y,z
2 -x,1/2+y,1/2-z
3 -x,-y,-z
4 x,-1/2-y,-1/2+z
_cell_length_a 14.801(4)
_cell_length_b 6.475(2)
_cell_length_c 17.747(4)
_cell_angle_alpha 90
_cell_angle_beta 91.41(2)
_cell_angle_gamma 90
_cell_formula_units_Z 4
loop_
_atom_type_symbol
_atom_type_radius_bond
C 0.68
H 0.23
N 0.68
O 0.68
loop_
_atom_site_label
_atom_site_type_symbol
_atom_site_fract_x
_atom_site_fract_y
_atom_site_fract_z
C1 C 0.89230 1.08460 0.68880
C2 C 0.79650 1.04270 0.66340
C3 C 0.72470 0.87450 0.66220
C4 C 0.63900 0.98070 0.69240
C5 C 0.61460 1.14130 0.63180
C6 C 0.68760 1.10890 0.57240
C7 C 0.77490 1.18110 0.60980
C8 C 0.85520 1.31430 0.59800
C9 C 0.92460 1.17310 0.56000
C10 C 0.95010 1.01620 0.62100
C11 C 0.89330 1.32170 0.67810
C12 C 0.70040 0.87580 0.57770
C13 C 0.55920 0.83910 0.69430
C14 C 0.52150 1.08460 0.60410
C15 C 0.41010 0.80590 0.62900
C16 C 0.33120 0.90650 0.64490
C17 C 0.24920 0.80620 0.63440
C18 C 0.25040 0.60500 0.60940
C19 C 0.32830 0.50430 0.59270
C20 C 0.40900 0.60530 0.60180
N1 N 0.49490 0.90570 0.64100
N2 N 0.16400 0.49350 0.60160
O1 O 0.54950 0.68950 0.73330
O2 O 0.47560 1.17080 0.55670
O3 O 0.09450 0.58820 0.60980
O4 O 0.16710 0.31010 0.58750
H1 H 0.91100 1.03200 0.73400
H2 H 0.73800 0.73200 0.68200
H3 H 0.65100 1.03600 0.74100
H4 H 0.61600 1.27800 0.64700
H5 H 0.67100 1.16500 0.52300
H6 H 0.83800 1.45400 0.57600
H7 H 0.89200 1.09600 0.51400
H8 H 0.97800 1.26300 0.54300
H9 H 0.92500 0.86800 0.61200
H10 H 1.01100 1.04200 0.64000
H11 H 0.84400 1.37700 0.71600
H12 H 0.95900 1.37700 0.68000
H13 H 0.74400 0.83100 0.55200
H14 H 0.64700 0.78300 0.56600
H15 H 0.33200 1.03700 0.66400
H16 H 0.19000 0.86900 0.64400
H17 H 0.33300 0.36900 0.57100
H18 H 0.46600 0.54500 0.58800
#END
