
#######################################################################
#
#                 Cambridge Crystallographic Data Centre
#                                CCDC
#
#######################################################################
#
# If this CIF has been generated from an entry in the Cambridge
# Structural Database, then it will include bibliographic, chemical,
# crystal, experimental, refinement or atomic coordinate data resulting
# from the CCDC's data processing and validation procedures.
#
#######################################################################

data_CSD_CIF_BUNCIW
_audit_creation_date 1983-12-16
_audit_creation_method CSD-ConQuest-V1
_database_code_CSD BUNCIW
_chemical_formula_sum 'C10 H12 N4 O9'
_chemical_formula_moiety
;
C10 H12 N4 O9
;
_journal_coden_Cambridge 154
_journal_volume 35
_journal_year 1982
_journal_page_first 1237
_journal_name_full 'Aust.J.Chem. '
loop_
_publ_author_name
"M.J.Gray"
"M.P.Hartshorn"
"K.E.Richards"
"W.T.Robinson"
"K.H.Sutton"
"R.S.Thompson"
"J.Vaughan"
_chemical_name_systematic
;
cis-2,5,6,6-Tetramethyl-2,3,4,5-tetranitro-cyclohex-3-enone
;
_chemical_melting_point 388.15
_cell_volume   1401.056
_exptl_crystal_density_diffrn 1.57
_exptl_special_details
;
Melting point range 388.15-389.15K

;
_diffrn_ambient_temperature ?
_diffrn_special_details
;
The study was carried out at room temperature,in the range 283-303K

;
#These two values have been output from a single CSD field.
_refine_ls_R_factor_gt 0.091
_refine_ls_wR_factor_gt 0.091
_symmetry_cell_setting monoclinic
_symmetry_space_group_name_H-M 'P 21/c'
_symmetry_Int_Tables_number 14
loop_
_symmetry_equiv_pos_site_id
_symmetry_equiv_pos_as_xyz
1 x,y,z
2 -x,1/2+y,1/2-z
3 -x,-y,-z
4 x,-1/2-y,-1/2+z
_cell_length_a 9.081(4)
_cell_length_b 12.994(5)
_cell_length_c 12.897(5)
_cell_angle_alpha 90
_cell_angle_beta 112.98(4)
_cell_angle_gamma 90
_cell_formula_units_Z 4
loop_
_atom_type_symbol
_atom_type_radius_bond
C 0.68
H 0.23
N 0.68
O 0.68
loop_
_atom_site_label
_atom_site_type_symbol
_atom_site_fract_x
_atom_site_fract_y
_atom_site_fract_z
C1 C 0.11700 0.14400 0.53100
C2 C -0.00800 0.21200 0.42800
C3 C 0.06300 0.31600 0.42400
C4 C 0.21700 0.33800 0.47300
C5 C 0.34300 0.26300 0.55100
C6 C 0.29200 0.15000 0.53700
C7 C 0.31000 0.10500 0.43600
C8 C 0.39500 0.09400 0.65100
C9 C -0.07300 0.14900 0.31900
C10 C 0.50100 0.28500 0.54700
N1 N -0.13800 0.23000 0.47300
N2 N -0.05300 0.39100 0.35000
N3 N 0.28500 0.43900 0.45300
N4 N 0.34343 0.30221 0.66899
O1 O 0.06700 0.09100 0.57900
O2 O -0.24600 0.16600 0.45600
O3 O -0.13300 0.30600 0.52900
O4 O -0.17400 0.35800 0.28000
O5 O -0.02400 0.48000 0.36600
O6 O 0.28600 0.45400 0.36900
O7 O 0.31800 0.48600 0.53900
O8 O 0.22132 0.29693 0.68504
O9 O 0.47800 0.32500 0.74600
H1 H 0.27251 0.02545 0.42609
H2 H 0.43287 0.10956 0.44347
H3 H 0.23471 0.14831 0.36300
H4 H 0.52140 0.08545 0.70084
H5 H 0.34757 0.02119 0.61050
H6 H 0.33401 0.11640 0.70384
H7 H 0.00154 0.11425 0.28114
H8 H -0.17576 0.18447 0.25444
H9 H -0.11299 0.09097 0.36208
H10 H 0.57282 0.23250 0.61178
H11 H 0.53630 0.36305 0.57279
H12 H 0.51704 0.26892 0.46977
#END
