
#######################################################################
#
#                 Cambridge Crystallographic Data Centre
#                                CCDC
#
#######################################################################
#
# If this CIF has been generated from an entry in the Cambridge
# Structural Database, then it will include bibliographic, chemical,
# crystal, experimental, refinement or atomic coordinate data resulting
# from the CCDC's data processing and validation procedures.
#
#######################################################################

data_CSD_CIF_BUPPOT
_audit_creation_date 2015-08-01
_audit_creation_method CSD-ConQuest-V1
_database_code_CSD BUPPOT
_database_code_depnum_ccdc_archive 'CCDC 1041539'
_chemical_formula_sum 'C25 H35 N3 O10'
_chemical_formula_moiety
;
C25 H35 N3 O10
;
_journal_coden_Cambridge 1500
_journal_volume 5
_journal_year 2015
_journal_page_first 65554
_journal_name_full 'RSC Advances '
loop_
_publ_author_name
"K.G.Lalwani"
"R.D.Aher"
"A.Sudalai"
_chemical_name_systematic
;
di-t-butyl 
4-(2-ethoxy-2-oxoethyl)-3-((6-nitro-1,3-benzodioxol-5-yl)methyl)pyrazolidine-1
,2-dicarboxylate
;
_cell_volume   2939.961
_exptl_crystal_colour 'colorless'
_exptl_crystal_density_diffrn 1.212
_exptl_crystal_description 'PLATE'
_diffrn_ambient_temperature 296
#These two values have been output from a single CSD field.
_refine_ls_R_factor_gt 0.0774
_refine_ls_wR_factor_gt 0.0774
_symmetry_cell_setting orthorhombic
_symmetry_space_group_name_H-M 'P 21 21 21'
_symmetry_Int_Tables_number 19
loop_
_symmetry_equiv_pos_site_id
_symmetry_equiv_pos_as_xyz
1 x,y,z
2 1/2-x,-y,1/2+z
3 -x,1/2+y,1/2-z
4 1/2+x,1/2-y,-z
_cell_length_a 10.9122(16)
_cell_length_b 11.4715(18)
_cell_length_c 23.486(3)
_cell_angle_alpha 90
_cell_angle_beta 90
_cell_angle_gamma 90
_cell_formula_units_Z 4
loop_
_atom_type_symbol
_atom_type_radius_bond
C 0.68
H 0.23
N 0.68
O 0.68
loop_
_atom_site_label
_atom_site_type_symbol
_atom_site_fract_x
_atom_site_fract_y
_atom_site_fract_z
O1 O 0.2405(3) 0.2880(3) 0.09477(19)
O2 O 0.3922(3) 0.4256(3) 0.10927(17)
O3 O -0.1207(5) 0.4994(4) 0.0133(3)
O4 O -0.0581(4) 0.6619(4) -0.0123(2)
O5 O 0.3839(3) 1.0354(3) 0.13487(18)
O6 O 0.3776(3) 0.8421(2) 0.15448(13)
O7 O 0.1385(3) 0.8209(3) 0.22497(12)
O8 O 0.0211(3) 0.7021(2) 0.16979(11)
O9 O -0.0573(3) 1.1695(3) 0.03072(16)
O10 O -0.2174(5) 1.1325(4) 0.0844(3)
N1 N -0.0400(4) 0.5686(4) 0.01009(18)
N2 N 0.1444(3) 0.8279(2) 0.12773(12)
N3 N 0.2070(3) 0.9353(3) 0.12726(15)
C1 C 0.0799(3) 0.5403(3) 0.03466(16)
C2 C 0.1685(3) 0.6262(3) 0.04292(15)
C3 C 0.2784(4) 0.5924(3) 0.06903(17)
H1 H 0.34010 0.64650 0.07590
C4 C 0.2929(4) 0.4773(3) 0.08434(19)
C5 C 0.2026(4) 0.3954(3) 0.0750(2)
C6 C 0.0930(4) 0.4236(3) 0.05061(19)
H2 H 0.03120 0.36890 0.04500
C7 C 0.3634(5) 0.3026(4) 0.1106(3)
H3 H 0.41630 0.26060 0.08450
H4 H 0.37650 0.27200 0.14860
C8 C 0.1539(4) 0.7548(3) 0.02858(16)
H5 H 0.11510 0.76230 -0.00840
H6 H 0.23420 0.79070 0.02630
C9 C 0.0766(3) 0.8191(3) 0.07330(15)
H7 H -0.00070 0.77740 0.07940
C10 C 0.1029(4) 0.7882(3) 0.17903(17)
C11 C -0.0233(5) 0.6269(4) 0.21610(18)
C12 C 0.0813(7) 0.5637(5) 0.2426(3)
H8 H 0.12390 0.51970 0.21400
H9 H 0.05110 0.51180 0.27140
H10 H 0.13650 0.61890 0.25950
C13 C -0.1107(7) 0.5472(5) 0.1847(3)
H11 H -0.16620 0.59310 0.16230
H12 H -0.15620 0.50170 0.21170
H13 H -0.06500 0.49620 0.16020
C14 C -0.0951(8) 0.7008(7) 0.2595(3)
H14 H -0.03980 0.73060 0.28770
H15 H -0.15620 0.65320 0.27750
H16 H -0.13420 0.76450 0.24020
C15 C 0.3293(4) 0.9440(4) 0.13880(19)
C16 C 0.4984(5) 0.8369(4) 0.1832(2)
C17 C 0.5997(6) 0.8664(7) 0.1423(3)
H17 H 0.58980 0.82180 0.10800
H18 H 0.67740 0.84810 0.15940
H19 H 0.59670 0.94800 0.13340
C18 C 0.4958(9) 0.9168(6) 0.2357(3)
H20 H 0.49190 0.99660 0.22360
H21 H 0.56880 0.90480 0.25780
H22 H 0.42520 0.89880 0.25840
C19 C 0.5026(7) 0.7108(5) 0.2025(4)
H23 H 0.43160 0.69390 0.22520
H24 H 0.57520 0.69800 0.22470
H25 H 0.50380 0.66070 0.16980
C20 C 0.0498(3) 0.9483(3) 0.05768(15)
H26 H 0.06120 0.95960 0.01670
C21 C 0.1465(4) 1.0179(4) 0.0901(2)
H27 H 0.20480 1.05260 0.06390
H28 H 0.10840 1.07960 0.11220
C22 C -0.0800(4) 0.9813(4) 0.07391(19)
H29 H -0.13620 0.92910 0.05460
H30 H -0.09010 0.96960 0.11450
C23 C -0.1141(4) 1.1034(4) 0.0599(2)
C24 C -0.2645(9) 1.2522(7) 0.0730(5)
H31 H -0.19990 1.30040 0.05720
H32 H -0.33120 1.24900 0.04580
C25 C -0.3045(10) 1.2983(7) 0.1226(6)
H33 H -0.29940 1.25510 0.15600
H34 H -0.33710 1.37320 0.12330
#END
