
#######################################################################
#
#                 Cambridge Crystallographic Data Centre
#                                CCDC
#
#######################################################################
#
# If this CIF has been generated from an entry in the Cambridge
# Structural Database, then it will include bibliographic, chemical,
# crystal, experimental, refinement or atomic coordinate data resulting
# from the CCDC's data processing and validation procedures.
#
#######################################################################

data_CSD_CIF_BUPREJ
_audit_creation_date 1983-12-16
_audit_creation_method CSD-ConQuest-V1
_database_code_CSD BUPREJ
_database_code_depnum_ccdc_archive 'CCDC 1116999'
_chemical_formula_sum 'C4 H7 N5 O1'
_chemical_formula_moiety
;
C4 H7 N5 O1
;
_journal_coeditor_code "IUCr A22557"
_journal_coden_Cambridge 591
_journal_volume 39
_journal_year 1983
_journal_page_first 918
_journal_name_full 'Acta Crystallogr.,Sect.C:Cryst.Struct.Commun. '
loop_
_publ_author_name
"W.V.Cruz"
"K.Seff"
_chemical_name_systematic
;
N-Cyano-N',N''-dimethyl-N'-nitrosoguanidine
;
_cell_volume    672.621
_exptl_crystal_colour 'yellow'
_exptl_crystal_density_diffrn 1.394
_diffrn_ambient_temperature ?
_diffrn_special_details
;
The study was carried out at room temperature,in the range 283-303K

;
#These two values have been output from a single CSD field.
_refine_ls_R_factor_gt 0.051
_refine_ls_wR_factor_gt 0.051
_symmetry_cell_setting orthorhombic
_symmetry_space_group_name_H-M 'P n m a'
_symmetry_Int_Tables_number 62
loop_
_symmetry_equiv_pos_site_id
_symmetry_equiv_pos_as_xyz
1 x,y,z
2 1/2-x,-y,1/2+z
3 1/2+x,1/2-y,1/2-z
4 -x,1/2+y,-z
5 -x,-y,-z
6 -1/2+x,y,-1/2-z
7 -1/2-x,-1/2+y,-1/2+z
8 x,-1/2-y,z
_cell_length_a 12.152(4)
_cell_length_b 6.632(2)
_cell_length_c 8.346(3)
_cell_angle_alpha 90
_cell_angle_beta 90
_cell_angle_gamma 90
_cell_formula_units_Z 4
loop_
_atom_type_symbol
_atom_type_radius_bond
C 0.68
H 0.23
N 0.68
O 0.68
loop_
_atom_site_label
_atom_site_type_symbol
_atom_site_fract_x
_atom_site_fract_y
_atom_site_fract_z
O1 O 0.37230 0.25000 0.39230
N1 N 0.29790 0.25000 0.49220
N2 N 0.19660 0.25000 0.42780
C1 C 0.10820 0.25000 0.53730
N3 N 0.01160 0.25000 0.46960
C2 C -0.08220 0.25000 0.54630
N4 N -0.17090 0.25000 0.59550
N5 N 0.13460 0.25000 0.68980
C3 C 0.05720 0.25000 0.82240
C4 C 0.17930 0.25000 0.25400
H1 H 0.20000 0.25000 0.71100
H2 H 0.00700 0.14900 0.81600
H3 H 0.09100 0.25000 0.91800
H4 H 0.22100 0.14800 0.22000
H5 H 0.10500 0.25000 0.24000
H2G H 0.00700 0.35100 0.81600
H4G H 0.22100 0.35200 0.22000
#END
