
#######################################################################
#
#                 Cambridge Crystallographic Data Centre
#                                CCDC
#
#######################################################################
#
# If this CIF has been generated from an entry in the Cambridge
# Structural Database, then it will include bibliographic, chemical,
# crystal, experimental, refinement or atomic coordinate data resulting
# from the CCDC's data processing and validation procedures.
#
#######################################################################

data_CSD_CIF_BUQWUF
_audit_creation_date 2001-12-19
_audit_creation_method CSD-ConQuest-V1
_database_code_CSD BUQWUF
_database_code_depnum_ccdc_archive 'CCDC 173200'
_chemical_formula_sum 'C28 H36 N2 O2'
_chemical_formula_moiety
;
C28 H36 N2 O2
;
_journal_coden_Cambridge 4
_journal_volume 123
_journal_year 2001
_journal_page_first 10403
_journal_name_full 'J.Am.Chem.Soc. '
loop_
_publ_author_name
"D.A.Shultz"
"R.M.Fico Junior"
"P.D.Boyle"
"J.W.Kampf"
_chemical_name_systematic
;
(7-Norbornanylidene)bis(4-(N-t-butylaminoxyl)phenyl)methane
;
_cell_volume   1176.476
_exptl_crystal_colour 'red'
_exptl_crystal_density_diffrn 1.221
_diffrn_ambient_temperature 148
#These two values have been output from a single CSD field.
_refine_ls_R_factor_gt 0.051
_refine_ls_wR_factor_gt 0.051
_symmetry_cell_setting triclinic
_symmetry_space_group_name_H-M 'P -1'
_symmetry_Int_Tables_number 2
loop_
_symmetry_equiv_pos_site_id
_symmetry_equiv_pos_as_xyz
1 x,y,z
2 -x,-y,-z
_cell_length_a 6.1933(4)
_cell_length_b 11.495(1)
_cell_length_c 17.478(2)
_cell_angle_alpha 104.577(8)
_cell_angle_beta 99.635(8)
_cell_angle_gamma 94.942(8)
_cell_formula_units_Z 2
loop_
_atom_type_symbol
_atom_type_radius_bond
C 0.68
H 0.23
N 0.68
O 0.68
loop_
_atom_site_label
_atom_site_type_symbol
_atom_site_fract_x
_atom_site_fract_y
_atom_site_fract_z
O1 O 0.6881(3) 0.3209(2) 0.46149(12)
N1 N 0.4785(4) 0.3019(2) 0.46044(13)
C1 C -0.0423(4) 0.3160(2) 0.10274(16)
C2 C -0.0246(4) 0.3863(2) 0.17754(16)
C3 C 0.0921(4) 0.3563(2) 0.25043(16)
C4 C 0.2961(4) 0.3107(2) 0.25072(16)
C5 C 0.4154(5) 0.2908(2) 0.31866(16)
C6 C 0.3367(4) 0.3150(2) 0.39078(16)
C7 C 0.1324(4) 0.3593(2) 0.39274(17)
C8 C 0.0161(4) 0.3797(2) 0.32292(17)
C9 C 0.0120(5) 0.1884(2) 0.07062(16)
C10 C -0.2017(5) 0.1303(3) 0.00888(18)
C11 C 0.1937(5) 0.2126(3) 0.02385(18)
C12 C 0.4075(5) 0.2710(2) 0.53177(16)
C13 C 0.3897(6) 0.3886(3) 0.59332(19)
C14 C 0.5906(5) 0.2067(3) 0.5677(2)
C15 C 0.1925(5) 0.1843(3) 0.5055(2)
O2 O -0.5729(3) 0.83372(17) 0.23851(12)
N2 N -0.3641(4) 0.84267(20) 0.23657(14)
C16 C -0.1100(4) 0.5067(2) 0.19241(15)
C17 C -0.3297(4) 0.5160(2) 0.16000(16)
C18 C -0.4095(4) 0.6272(2) 0.17463(16)
C19 C -0.2711(4) 0.7326(2) 0.22123(16)
C20 C -0.0534(5) 0.7238(2) 0.25483(17)
C21 C 0.0225(4) 0.6122(2) 0.24045(16)
C22 C -0.0957(5) 0.3428(3) 0.02138(16)
C23 C -0.2656(5) 0.2344(2) -0.02962(17)
C24 C 0.1259(5) 0.3248(3) -0.00610(19)
C25 C -0.2540(4) 0.9704(2) 0.24862(17)
C26 C -0.4005(5) 1.0256(3) 0.19101(20)
C27 C -0.2476(6) 1.0380(3) 0.33555(20)
C28 C -0.0243(6) 0.9750(3) 0.2284(3)
H1 H 0.361(4) 0.301(2) 0.2040(16)
H2 H 0.562(5) 0.268(2) 0.3206(15)
H3 H 0.070(4) 0.377(2) 0.4421(15)
H4 H -0.120(5) 0.413(2) 0.3252(16)
H5 H 0.054(4) 0.147(2) 0.1120(15)
H6 H -0.179(4) 0.060(2) -0.0286(15)
H7 H -0.312(4) 0.100(2) 0.0337(15)
H8 H 0.345(6) 0.230(3) 0.0577(19)
H9 H 0.187(4) 0.142(3) -0.0199(18)
H10 H 0.351(5) 0.371(3) 0.642(2)
H11 H 0.534(5) 0.438(3) 0.6090(18)
H12 H 0.283(6) 0.437(3) 0.571(2)
H13 H 0.604(6) 0.132(3) 0.524(2)
H14 H 0.733(5) 0.255(3) 0.5811(17)
H15 H 0.544(5) 0.188(3) 0.616(2)
H16 H 0.067(6) 0.229(3) 0.488(2)
H17 H 0.203(5) 0.111(3) 0.4611(19)
H18 H 0.158(5) 0.161(3) 0.5520(18)
H19 H -0.423(4) 0.440(2) 0.1254(16)
H20 H -0.558(5) 0.633(2) 0.1554(16)
H21 H 0.035(4) 0.793(2) 0.2867(15)
H22 H 0.176(5) 0.611(2) 0.2656(16)
H23 H -0.138(4) 0.419(2) 0.0215(15)
H24 H -0.423(5) 0.251(2) -0.0274(17)
H25 H -0.252(4) 0.216(2) -0.0856(15)
H26 H 0.115(4) 0.310(2) -0.0639(18)
H27 H 0.234(5) 0.398(3) 0.0211(17)
H28 H -0.330(5) 1.114(3) 0.2010(16)
H29 H -0.415(5) 0.979(3) 0.1338(20)
H30 H -0.543(6) 1.026(3) 0.2013(18)
H31 H -0.405(6) 1.036(3) 0.346(2)
H32 H -0.160(6) 0.997(3) 0.369(2)
H33 H -0.177(5) 1.121(3) 0.3453(18)
H34 H 0.088(6) 0.958(3) 0.271(2)
H35 H -0.032(6) 0.920(3) 0.178(2)
H36 H 0.027(5) 1.060(3) 0.2306(17)
#END
