
#######################################################################
#
#                 Cambridge Crystallographic Data Centre
#                                CCDC
#
#######################################################################
#
# If this CIF has been generated from an entry in the Cambridge
# Structural Database, then it will include bibliographic, chemical,
# crystal, experimental, refinement or atomic coordinate data resulting
# from the CCDC's data processing and validation procedures.
#
#######################################################################

data_CSD_CIF_BUQWOZ
_audit_creation_date 2001-12-19
_audit_creation_method CSD-ConQuest-V1
_database_code_CSD BUQWOZ
_database_code_depnum_ccdc_archive 'CCDC 173199'
_chemical_formula_sum 'C31 H40 N2 O2'
_chemical_formula_moiety
;
C31 H40 N2 O2
;
_journal_coden_Cambridge 4
_journal_volume 123
_journal_year 2001
_journal_page_first 10403
_journal_name_full 'J.Am.Chem.Soc. '
loop_
_publ_author_name
"D.A.Shultz"
"R.M.Fico Junior"
"P.D.Boyle"
"J.W.Kampf"
_chemical_name_systematic
;
(2-Adamantylidene)bis(4-(N-t-butylaminoxyl)phenyl)methane
;
_cell_volume   1304.893
_exptl_crystal_colour 'amber'
_exptl_crystal_density_diffrn 1.203
_exptl_crystal_description 'needle'
_diffrn_ambient_temperature 158
#These two values have been output from a single CSD field.
_refine_ls_R_factor_gt 0.0433
_refine_ls_wR_factor_gt 0.0433
_symmetry_cell_setting triclinic
_symmetry_space_group_name_H-M 'P -1'
_symmetry_Int_Tables_number 2
loop_
_symmetry_equiv_pos_site_id
_symmetry_equiv_pos_as_xyz
1 x,y,z
2 -x,-y,-z
_cell_length_a 6.2271(16)
_cell_length_b 12.170(3)
_cell_length_c 17.882(4)
_cell_angle_alpha 99.872(5)
_cell_angle_beta 99.659(5)
_cell_angle_gamma 95.631(5)
_cell_formula_units_Z 2
loop_
_atom_type_symbol
_atom_type_radius_bond
C 0.68
H 0.23
N 0.68
O 0.68
loop_
_atom_site_label
_atom_site_type_symbol
_atom_site_fract_x
_atom_site_fract_y
_atom_site_fract_z
O1 O 0.5464(2) 0.87989(12) 0.26184(9)
O2 O 1.6197(3) 0.27188(19) 0.44508(10)
N1 N 0.7498(3) 0.87047(14) 0.25910(9)
N2 N 1.4263(3) 0.29106(15) 0.45427(10)
C1 C 0.9081(4) 0.97831(17) 0.27466(12)
C2 C 1.0301(4) 0.97885(18) 0.20746(12)
H1 H 1.11660 0.91570 0.20380
H2 H 1.12830 1.04970 0.21620
H3 H 0.92380 0.97140 0.15920
C3 C 0.7719(4) 1.07576(18) 0.27994(14)
H4 H 0.66220 1.06630 0.23230
H5 H 0.86840 1.14680 0.28670
H6 H 0.69750 1.07690 0.32420
C4 C 1.0649(4) 0.98894(19) 0.35164(13)
H7 H 0.98000 0.98440 0.39270
H8 H 1.15900 1.06150 0.36330
H9 H 1.15640 0.92780 0.34840
C5 C 0.8018(3) 0.75993(16) 0.23916(11)
C6 C 1.0155(3) 0.73088(17) 0.25127(11)
H10 H 1.13740 0.78790 0.27050
C7 C 1.0488(3) 0.61942(16) 0.23522(11)
H11 H 1.19430 0.60110 0.24570
C8 C 0.8768(3) 0.53273(16) 0.20426(11)
C9 C 0.6657(3) 0.56335(17) 0.19143(11)
H12 H 0.54440 0.50660 0.17030
C10 C 0.6283(3) 0.67375(16) 0.20862(11)
H13 H 0.48210 0.69150 0.19950
C11 C 0.9176(3) 0.41268(16) 0.18977(11)
C12 C 1.0440(3) 0.37688(16) 0.25848(11)
C13 C 0.9787(3) 0.39505(17) 0.32977(11)
H14 H 0.84870 0.42860 0.33410
C14 C 1.0963(3) 0.36600(18) 0.39439(12)
H15 H 1.04530 0.37850 0.44190
C15 C 1.2894(3) 0.31852(16) 0.39026(11)
C16 C 1.3585(3) 0.30006(17) 0.31913(12)
H16 H 1.48930 0.26730 0.31480
C17 C 1.2370(3) 0.32930(16) 0.25509(12)
H17 H 1.28700 0.31650 0.20740
C18 C 1.3741(3) 0.28829(18) 0.53326(11)
C19 C 1.1517(4) 0.2215(2) 0.52820(14)
H18 H 1.03650 0.25840 0.50180
H19 H 1.12640 0.21780 0.58040
H20 H 1.14830 0.14520 0.49910
C20 C 1.3858(5) 0.4086(2) 0.57635(14)
H21 H 1.53410 0.44800 0.58150
H22 H 1.35150 0.40780 0.62780
H23 H 1.27930 0.44740 0.54750
C21 C 1.5467(4) 0.2324(3) 0.57611(14)
H24 H 1.55100 0.15740 0.54640
H25 H 1.51170 0.22560 0.62670
H26 H 1.69030 0.27780 0.58330
C22 C 0.8481(3) 0.34313(16) 0.12109(11)
C23 C 0.8568(3) 0.21718(16) 0.10733(11)
H27 H 0.91540 0.19410 0.15710
C24 C 1.0043(3) 0.18566(17) 0.04826(11)
H28 H 1.15660 0.22260 0.06920
H29 H 1.00650 0.10320 0.03820
C25 C 0.9165(3) 0.22348(17) -0.02710(12)
H30 H 1.01480 0.20490 -0.06500
C26 C 0.9080(3) 0.35042(17) -0.01128(11)
H31 H 0.85330 0.37480 -0.06030
H32 H 1.05770 0.39050 0.01000
C27 C 0.7554(3) 0.38051(17) 0.04657(11)
H33 H 0.75030 0.46350 0.05670
C28 C 0.5254(3) 0.31803(16) 0.01240(12)
H34 H 0.46840 0.34140 -0.03680
H35 H 0.42480 0.33730 0.04870
C29 C 0.5335(3) 0.19065(17) -0.00231(11)
H36 H 0.38230 0.15010 -0.02370
C30 C 0.6844(3) 0.16115(17) -0.06011(11)
H37 H 0.62640 0.18310 -0.10970
H38 H 0.68950 0.07900 -0.07010
C31 C 0.6233(3) 0.15654(17) 0.07449(11)
H39 H 0.62560 0.07410 0.06610
H40 H 0.52630 0.17630 0.11190
#END
