
#######################################################################
#
#                 Cambridge Crystallographic Data Centre
#                                CCDC
#
#######################################################################
#
# If this CIF has been generated from an entry in the Cambridge
# Structural Database, then it will include bibliographic, chemical,
# crystal, experimental, refinement or atomic coordinate data resulting
# from the CCDC's data processing and validation procedures.
#
#######################################################################

data_CSD_CIF_BURBUN
_audit_creation_date 2015-08-01
_audit_creation_method CSD-ConQuest-V1
_database_code_CSD BURBUN
_database_code_depnum_ccdc_archive 'CCDC 1416401'
_chemical_formula_sum 'C2 H4 N2 O3'
_chemical_formula_moiety
;
C2 H4 N2 O3
;
_journal_coden_Cambridge 1078
_journal_year 2015
_journal_name_full 'CSD Communication(Private Communication) '
loop_
_publ_author_name
"D.Scott Bohle"
"Z.J.Chua"
_chemical_name_systematic
;
methyl nitrosocarbamate
;
_cell_volume    223.005
_exptl_crystal_colour 'yellow'
_exptl_crystal_density_diffrn 1.55
_exptl_crystal_description 'plate'
_diffrn_ambient_temperature 100
#These two values have been output from a single CSD field.
_refine_ls_R_factor_gt 0.0471
_refine_ls_wR_factor_gt 0.0471
_symmetry_cell_setting monoclinic
_symmetry_space_group_name_H-M 'P 21/m'
_symmetry_Int_Tables_number 11
loop_
_symmetry_equiv_pos_site_id
_symmetry_equiv_pos_as_xyz
1 x,y,z
2 -x,1/2+y,-z
3 -x,-y,-z
4 x,-1/2-y,z
_cell_length_a 4.8755(14)
_cell_length_b 5.9345(18)
_cell_length_c 7.808(2)
_cell_angle_alpha 90
_cell_angle_beta 99.205(3)
_cell_angle_gamma 90
_cell_formula_units_Z 2
loop_
_atom_type_symbol
_atom_type_radius_bond
C 0.68
H 0.23
N 0.68
O 0.68
loop_
_atom_site_label
_atom_site_type_symbol
_atom_site_fract_x
_atom_site_fract_y
_atom_site_fract_z
O1 O -0.0846(4) 0.25000 -0.4145(2)
O2 O 0.5503(3) 0.25000 -0.0329(2)
O3 O 0.2184(3) 0.25000 0.1389(2)
N1 N 0.0838(3) 0.25000 -0.1437(2)
H1 H -0.08650 0.25000 -0.11970
N2 N 0.1295(4) 0.25000 -0.3103(3)
C1 C 0.3106(4) 0.25000 -0.0119(3)
C2 C 0.4294(5) 0.25000 0.2929(3)
H2 H 0.33970 0.25000 0.39660
H3 H 0.54550 0.11520 0.29300
H4? H 0.54550 0.11520 0.29300
H3C H 0.54550 0.38480 0.29300
#END
