
#######################################################################
#
#                 Cambridge Crystallographic Data Centre
#                                CCDC
#
#######################################################################
#
# If this CIF has been generated from an entry in the Cambridge
# Structural Database, then it will include bibliographic, chemical,
# crystal, experimental, refinement or atomic coordinate data resulting
# from the CCDC's data processing and validation procedures.
#
#######################################################################

data_CSD_CIF_BURDEX
_audit_creation_date 1983-12-16
_audit_creation_method CSD-ConQuest-V1
_database_code_CSD BURDEX
_database_code_depnum_ccdc_archive 'CCDC 1117095'
_chemical_formula_sum 'C9 H8 N2 O2'
_chemical_formula_moiety
;
C9 H8 N2 O2
;
_journal_coeditor_code "IUCr A22537"
_journal_coden_Cambridge 591
_journal_volume 39
_journal_year 1983
_journal_page_first 868
_journal_name_full 'Acta Crystallogr.,Sect.C:Cryst.Struct.Commun. '
loop_
_publ_author_name
"R.R.Mocherla"
"D.R.Powell"
"C.L.Barnes"
"D.van der Helm"
_chemical_name_systematic
;
N-(4-Cyanophenyl)acetohydroxamic acid
;
_cell_volume    847.386
_exptl_crystal_density_diffrn 1.341
_exptl_special_details
;
At room temperature, a = 7.323(1), b = 12.522(1), c = 9.513(1)
dm and dx are at room temperature
;
_diffrn_ambient_temperature 138
#These two values have been output from a single CSD field.
_refine_ls_R_factor_gt 0.041
_refine_ls_wR_factor_gt 0.041
_symmetry_cell_setting orthorhombic
_symmetry_space_group_name_H-M 'P n a 21'
_symmetry_Int_Tables_number 33
loop_
_symmetry_equiv_pos_site_id
_symmetry_equiv_pos_as_xyz
1 x,y,z
2 1/2-x,1/2+y,1/2+z
3 1/2+x,1/2-y,z
4 -x,-y,1/2+z
_cell_length_a 7.176(3)
_cell_length_b 12.549(2)
_cell_length_c 9.410(3)
_cell_angle_alpha 90
_cell_angle_beta 90
_cell_angle_gamma 90
_cell_formula_units_Z 4
loop_
_atom_type_symbol
_atom_type_radius_bond
C 0.68
H 0.23
N 0.68
O 0.68
loop_
_atom_site_label
_atom_site_type_symbol
_atom_site_fract_x
_atom_site_fract_y
_atom_site_fract_z
C1 C 0.14910 0.31720 0.26940
C2 C 0.17620 0.25470 0.39030
C3 C 0.16470 0.14490 0.38030
C4 C 0.13080 0.09740 0.25000
C5 C 0.10800 0.15900 0.12840
C6 C 0.11820 0.26910 0.13790
C7 C 0.12000 -0.01700 0.24120
N1 N 0.11220 -0.10860 0.23500
N2 N 0.15780 0.43010 0.28600
O1 O 0.23860 0.46530 0.41220
C8 C 0.10080 0.50700 0.19300
O2 O 0.04280 0.48330 0.07440
C9 C 0.11510 0.62010 0.24470
H1 H 0.19100 0.28200 0.47700
H2 H 0.20200 0.10400 0.46400
H3 H 0.10000 0.12600 0.04000
H4 H 0.07000 0.31200 0.05200
H5 H 0.11100 0.48700 0.45900
H6 H 0.05700 0.62600 0.32700
H7 H 0.25100 0.62900 0.27300
H8 H 0.09400 0.65500 0.17600
#END
