
#######################################################################
#
#                 Cambridge Crystallographic Data Centre
#                                CCDC
#
#######################################################################
#
# If this CIF has been generated from an entry in the Cambridge
# Structural Database, then it will include bibliographic, chemical,
# crystal, experimental, refinement or atomic coordinate data resulting
# from the CCDC's data processing and validation procedures.
#
#######################################################################

data_CSD_CIF_BURJAZ
_audit_creation_date 1984-02-21
_audit_creation_method CSD-ConQuest-V1
_database_code_CSD BURJAZ
_database_code_depnum_ccdc_archive 'CCDC 1117115'
_chemical_formula_sum 'C15 H16 N2 O7'
_chemical_formula_moiety
;
C15 H16 N2 O7
;
_journal_coden_Cambridge 5
_journal_volume 163
_journal_year 1983
_journal_page_first 75
_journal_name_full 'Z.Kristallogr.,Kristallgeom.,Kristallphys.,Kristallchem. '
loop_
_publ_author_name
"P.G.Jones"
"G.M.Sheldrick"
"A.J.Kirby"
"R.Glenn"
"M.Halstenberg"
_chemical_name_systematic
;
1-(3',5'-Dinitrobenzoyloxy)-9-oxa-bicyclo(3.3.1)nonane
;
_cell_volume   1518.236
_exptl_crystal_colour 'colorless'
_exptl_crystal_density_diffrn 1.47
_diffrn_ambient_temperature ?
_diffrn_special_details
;
The study was carried out at room temperature,in the range 283-303K

;
#These two values have been output from a single CSD field.
_refine_ls_R_factor_gt 0.038
_refine_ls_wR_factor_gt 0.038
_symmetry_cell_setting monoclinic
_symmetry_space_group_name_H-M 'P 21/c'
_symmetry_Int_Tables_number 14
loop_
_symmetry_equiv_pos_site_id
_symmetry_equiv_pos_as_xyz
1 x,y,z
2 -x,1/2+y,1/2-z
3 -x,-y,-z
4 x,-1/2-y,-1/2+z
_cell_length_a 13.765(2)
_cell_length_b 6.012(1)
_cell_length_c 18.780(3)
_cell_angle_alpha 90
_cell_angle_beta 102.34(2)
_cell_angle_gamma 90
_cell_formula_units_Z 4
loop_
_atom_type_symbol
_atom_type_radius_bond
C 0.68
H 0.23
N 0.68
O 0.68
loop_
_atom_site_label
_atom_site_type_symbol
_atom_site_fract_x
_atom_site_fract_y
_atom_site_fract_z
C1 C 0.17450 0.17000 0.34590
C2 C 0.23720 0.18270 0.42270
H1 H 0.28780 0.07020 0.42840
H2 H 0.26780 0.32670 0.42990
C3 C 0.17490 0.14660 0.48030
H3 H 0.21260 0.19410 0.52680
H4 H 0.15970 -0.00880 0.48230
C4 C 0.07850 0.27730 0.46230
H5 H 0.03450 0.22000 0.49130
H6 H 0.09300 0.43050 0.47460
C5 C 0.02580 0.26470 0.38250
H7 H -0.02840 0.36750 0.37880
C6 C -0.02360 0.04620 0.35530
H8 H -0.06410 0.06950 0.30750
H9 H -0.06490 0.00040 0.38790
C7 C 0.05000 -0.13790 0.35100
H10 H 0.07680 -0.19210 0.39930
H11 H 0.01600 -0.25650 0.32160
C8 C 0.13540 -0.05650 0.31750
H12 H 0.11210 -0.04680 0.26560
H13 H 0.18880 -0.16210 0.32850
C9 C 0.30890 0.17650 0.28000
C10 C 0.34500 0.30240 0.22190
C11 C 0.41890 0.20530 0.19240
H14 H 0.44920 0.06830 0.21180
C12 C 0.44830 0.30790 0.13480
C13 C 0.40820 0.50640 0.10560
H15 H 0.42950 0.57610 0.06550
C14 C 0.33560 0.59960 0.13700
C15 C 0.30290 0.50240 0.19400
H16 H 0.25190 0.57180 0.21410
O1 O 0.34790 0.00860 0.30630
O2 O 0.09510 0.32420 0.33760
O3 O 0.22840 0.27210 0.29480
N1 N 0.52250 0.19530 0.10090
O4 O 0.54310 0.28010 0.04780
O5 O 0.55850 0.02350 0.12850
N2 N 0.28740 0.80610 0.10490
O6 O 0.22170 0.88530 0.13140
O7 O 0.31620 0.88820 0.05430
#END
