
#######################################################################
#
#                 Cambridge Crystallographic Data Centre
#                                CCDC
#
#######################################################################
#
# If this CIF has been generated from an entry in the Cambridge
# Structural Database, then it will include bibliographic, chemical,
# crystal, experimental, refinement or atomic coordinate data resulting
# from the CCDC's data processing and validation procedures.
#
#######################################################################

data_CSD_CIF_BURKUU
_audit_creation_date 1984-02-21
_audit_creation_method CSD-ConQuest-V1
_database_code_CSD BURKUU
_database_code_depnum_ccdc_archive 'CCDC 1117122'
_chemical_formula_sum 'C8 H8 N2 O6'
_chemical_formula_moiety
;
C8 H8 N2 O6
;
_journal_coden_Cambridge 5
_journal_volume 163
_journal_year 1983
_journal_page_first 85
_journal_name_full 'Z.Kristallogr.,Kristallgeom.,Kristallphys.,Kristallchem. '
loop_
_publ_author_name
"P.G.Jones"
"G.M.Sheldrick"
"R.Glenn"
"A.J.Kirby"
_chemical_name_systematic
;
Methoxymethoxy-2,4-dinitrobenzene
;
_cell_volume    501.041
_exptl_crystal_colour 'colorless'
_exptl_crystal_density_diffrn 1.51
_diffrn_ambient_temperature ?
_diffrn_special_details
;
The study was carried out at room temperature,in the range 283-303K

;
#These two values have been output from a single CSD field.
_refine_ls_R_factor_gt 0.045
_refine_ls_wR_factor_gt 0.045
_symmetry_cell_setting triclinic
_symmetry_space_group_name_H-M 'P -1'
_symmetry_Int_Tables_number 2
loop_
_symmetry_equiv_pos_site_id
_symmetry_equiv_pos_as_xyz
1 x,y,z
2 -x,-y,-z
_cell_length_a 7.068(2)
_cell_length_b 7.468(2)
_cell_length_c 10.461(3)
_cell_angle_alpha 101.19(2)
_cell_angle_beta 101.97(2)
_cell_angle_gamma 105.79(2)
_cell_formula_units_Z 2
loop_
_atom_type_symbol
_atom_type_radius_bond
C 0.68
H 0.23
N 0.68
O 0.68
loop_
_atom_site_label
_atom_site_type_symbol
_atom_site_fract_x
_atom_site_fract_y
_atom_site_fract_z
C1 C 0.44660 0.20830 0.23510
C2 C 0.61410 0.30840 0.34860
C3 C 0.60460 0.31020 0.47900
C4 C 0.42350 0.20210 0.49540
C5 C 0.25400 0.10090 0.38660
C6 C 0.26480 0.10680 0.25710
N1 N 0.81020 0.41500 0.33090
O1 O 0.89050 0.58300 0.39830
O2 O 0.88330 0.33130 0.25350
N2 N 0.41090 0.19420 0.63180
O3 O 0.55090 0.30510 0.72730
O4 O 0.26420 0.07760 0.64480
O5 O 0.47430 0.22290 0.11330
C7 C 0.30660 0.11490 -0.00650
O6 O 0.14860 0.18890 -0.01750
C8 C 0.19180 0.36890 -0.05310
H1 H 0.73420 0.39300 0.56520
H2 H 0.11410 0.01790 0.40270
H3 H 0.13110 0.03200 0.17220
H4 H 0.25040 -0.03270 -0.00170
H5 H 0.36230 0.11840 -0.09500
H6 H 0.04950 0.39600 -0.08600
H7 H 0.26600 0.36440 -0.13360
H8 H 0.29030 0.48280 0.03510
#END
