
#######################################################################
#
#                 Cambridge Crystallographic Data Centre
#                                CCDC
#
#######################################################################
#
# If this CIF has been generated from an entry in the Cambridge
# Structural Database, then it will include bibliographic, chemical,
# crystal, experimental, refinement or atomic coordinate data resulting
# from the CCDC's data processing and validation procedures.
#
#######################################################################

data_CSD_CIF_BUSJIJ
_audit_creation_date 2011-01-20
_audit_creation_method CSD-ConQuest-V1
_database_code_CSD BUSJIJ
_database_code_depnum_ccdc_archive 'CCDC 710062'
_chemical_formula_sum 'C17 H26 N2 O3'
_chemical_formula_moiety
;
C17 H26 N2 O3
;
_journal_coden_Cambridge 1351
_journal_volume 15
_journal_year 2009
_journal_page_first 1281
_journal_name_full 'J.Mol.Model. '
loop_
_publ_author_name
"H.Tanak"
"F.Ersahin"
"Y.Koysal"
"E.Agar"
"S.Isik"
"M.Yavuz"
_chemical_name_systematic
;
N-n-Decyl-2-oxo-5-nitro-1-benzylidenemethylamine
;
_chemical_melting_point 371
_cell_volume    863.900
_exptl_crystal_density_diffrn 1.178
_exptl_special_details
;
Melting point range 371-373K

;
_exptl_crystal_preparation 'ethanol'
_diffrn_ambient_temperature 293
#These two values have been output from a single CSD field.
_refine_ls_R_factor_gt 0.0425
_refine_ls_wR_factor_gt 0.0425
_symmetry_cell_setting triclinic
_symmetry_space_group_name_H-M 'P -1'
_symmetry_Int_Tables_number 2
loop_
_symmetry_equiv_pos_site_id
_symmetry_equiv_pos_as_xyz
1 x,y,z
2 -x,-y,-z
_cell_length_a 5.4032(3)
_cell_length_b 8.3939(5)
_cell_length_c 19.2767(11)
_cell_angle_alpha 83.817(5)
_cell_angle_beta 84.576(5)
_cell_angle_gamma 86.194(5)
_cell_formula_units_Z 2
loop_
_atom_type_symbol
_atom_type_radius_bond
C 0.68
H 0.23
N 0.68
O 0.68
loop_
_atom_site_label
_atom_site_type_symbol
_atom_site_fract_x
_atom_site_fract_y
_atom_site_fract_z
C1 C 1.0396(3) 0.67440(17) 0.33126(8)
C2 C 1.2116(2) 0.61002(15) 0.37862(7)
C3 C 1.1885(2) 0.64692(15) 0.44637(7)
C4 C 0.9921(2) 0.75018(15) 0.46971(6)
C5 C 0.8130(2) 0.82033(16) 0.42262(7)
C6 C 0.8481(3) 0.77520(18) 0.35257(7)
C7 C 0.9728(2) 0.78056(16) 0.54128(7)
C8 C 0.7603(2) 0.89179(19) 0.64521(7)
C9 C 0.9693(3) 0.82136(19) 0.68764(7)
C10 C 0.9097(3) 0.8431(3) 0.76489(7)
C11 C 1.1296(3) 0.7932(3) 0.80743(8)
C12 C 1.0732(4) 0.7938(3) 0.88545(8)
C13 C 1.2993(4) 0.7626(4) 0.92618(9)
C14 C 1.2484(4) 0.7573(4) 1.00431(10)
C15 C 1.4771(5) 0.7428(4) 1.04399(10)
C16 C 1.4312(6) 0.7345(5) 1.12229(12)
C17 C 1.6619(8) 0.7304(6) 1.15890(17)
N1 N 1.4132(2) 0.50136(14) 0.35608(6)
N2 N 0.79579(19) 0.86685(13) 0.57068(6)
O1 O 0.63780(17) 0.91599(13) 0.44224(5)
O2 O 1.55082(19) 0.43679(14) 0.39952(6)
O3 O 1.4416(2) 0.47581(15) 0.29441(6)
H1 H 1.058(3) 0.649(2) 0.2861(10)
H2 H 1.306(3) 0.6053(19) 0.4760(9)
H3 H 0.732(3) 0.8206(18) 0.3208(8)
H4 H 1.092(2) 0.7354(15) 0.5697(7)
H5 H 0.741(3) 1.0071(19) 0.6471(7)
H6 H 0.608(3) 0.8409(17) 0.6629(7)
H7 H 1.126(3) 0.8731(18) 0.6703(7)
H8 H 0.998(3) 0.702(2) 0.6813(8)
H9 H 0.859(4) 0.956(3) 0.7685(11)
H10 H 0.762(4) 0.776(2) 0.7822(10)
H11 H 0.683(3) 0.912(2) 0.5421(9)
H12 H 1.269(4) 0.871(3) 0.7925(12)
H13 H 1.204(4) 0.686(3) 0.7949(11)
H14 H 0.952(4) 0.707(3) 0.9015(12)
H15 H 0.987(5) 0.889(3) 0.8973(13)
H16 H 1.418(5) 0.857(3) 0.9123(14)
H17 H 1.400(5) 0.664(3) 0.9125(12)
H18 H 1.134(5) 0.667(3) 1.0211(15)
H19 H 1.134(5) 0.849(4) 1.0183(14)
H20 H 1.584(5) 0.647(3) 1.0286(13)
H21 H 1.584(6) 0.836(4) 1.0282(15)
H22 H 1.307(7) 0.814(5) 1.138(2)
H23 H 1.337(7) 0.636(5) 1.1350(18)
H24 H 1.756(7) 0.815(4) 1.1442(18)
H25 H 1.772(12) 0.624(8) 1.132(3)
H26 H 1.626(6) 0.720(4) 1.206(2)
#END
