
#######################################################################
#
#                 Cambridge Crystallographic Data Centre
#                                CCDC
#
#######################################################################
#
# If this CIF has been generated from an entry in the Cambridge
# Structural Database, then it will include bibliographic, chemical,
# crystal, experimental, refinement or atomic coordinate data resulting
# from the CCDC's data processing and validation procedures.
#
#######################################################################

data_CSD_CIF_BUTBAV
_audit_creation_date 2015-08-06
_audit_creation_method CSD-ConQuest-V1
_database_code_CSD BUTBAV
_database_code_depnum_ccdc_archive 'CCDC 1412515'
_chemical_formula_sum 'C15 H23 N1 O5'
_chemical_formula_moiety
;
C15 H23 N1 O5
;
_journal_coeditor_code "pk2560"
_journal_coden_Cambridge 1828
_journal_volume 71
_journal_year 2015
_journal_page_first o625
_journal_name_full 'Acta Crystallogr.,Sect.E:Cryst.Commun. '
loop_
_publ_author_name
"V.V.Abzianidze"
"E.V.Poluektova"
"K.P.Bolshakova"
"T.L.Panikorovskii"
"A.S.Bogachenkov"
"A.O.Berestetskiy"
_chemical_name_systematic
;
3,4-dihydroxy-6-methoxy-3-methyl-7-methylene-2-pentyl-3,4,6,7-tetrahydropyrano
[2,3-c]pyrrol-5(2H)-one
;
_chemical_name_common
;
phaeosphaeride A
;
_cell_volume   1599.108
_exptl_crystal_colour 'colorless'
_exptl_crystal_density_diffrn 1.235
_exptl_special_details
;
Absolute configuration

;
_exptl_crystal_description 'tabular'
_exptl_crystal_preparation 'heptane'
_diffrn_ambient_temperature 100
_diffrn_special_details
;
twin

;
#These two values have been output from a single CSD field.
_refine_ls_R_factor_gt 0.058
_refine_ls_wR_factor_gt 0.058
_chemical_compound_source
;
Isolated from fungal strain Phoma sp. N 19 obtained from the leaves of 
Cirsium arvense (L.) Scop.
;
loop_
_citation_database_id_CSD
_citation_special_details
TIJGIE "is a stereoisomer of this entry"
_symmetry_cell_setting monoclinic
_symmetry_space_group_name_H-M 'P 21'
_symmetry_Int_Tables_number 4
loop_
_symmetry_equiv_pos_site_id
_symmetry_equiv_pos_as_xyz
1 x,y,z
2 -x,1/2+y,-z
_cell_length_a 10.14078(18)
_cell_length_b 9.10361(14)
_cell_length_c 17.5991(3)
_cell_angle_alpha 90
_cell_angle_beta 100.1847(16)
_cell_angle_gamma 90
_cell_formula_units_Z 4
loop_
_atom_type_symbol
_atom_type_radius_bond
C 0.68
H 0.23
N 0.68
O 0.68
loop_
_atom_site_label
_atom_site_type_symbol
_atom_site_fract_x
_atom_site_fract_y
_atom_site_fract_z
C1 C 1.1431(5) 0.8972(6) 0.9253(3)
N1 N 1.1842(4) 0.7850(5) 0.8817(2)
C2 C 1.1862(5) 0.8314(6) 0.8053(3)
C3 C 1.1266(5) 0.9782(6) 0.8025(3)
C4 C 1.0975(5) 1.0166(5) 0.8717(3)
C5 C 1.0311(5) 1.1589(6) 0.8845(3)
H1 H 1.09840 1.22690 0.91150
C6 C 0.9703(5) 1.2250(6) 0.8039(3)
C7 C 1.0752(5) 1.2122(5) 0.7508(3)
H2 H 1.15800 1.25960 0.77650
C8 C 1.0343(5) 1.2809(6) 0.6718(3)
H3 H 1.00060 1.37910 0.67790
H4 H 0.96200 1.22370 0.64260
C9 C 1.1482(5) 1.2899(7) 0.6264(3)
H5 H 1.18550 1.19240 0.62310
H6 H 1.21830 1.35190 0.65430
C10 C 1.1059(7) 1.3504(8) 0.5454(4)
H7 H 1.03800 1.28640 0.51710
H8 H 1.06570 1.44630 0.54870
C11 C 1.2195(8) 1.3646(9) 0.5007(4)
H9 H 1.26270 1.26970 0.49980
H10 H 1.28520 1.43260 0.52780
C12 C 1.1771(12) 1.4175(13) 0.4187(5)
H11 H 1.11190 1.35110 0.39130
H12 H 1.25380 1.42110 0.39360
H13 H 1.13870 1.51380 0.41890
C13 C 1.2311(5) 0.7567(6) 0.7508(3)
H14 H 1.26600 0.66290 0.76110
H15 H 1.22770 0.79790 0.70210
C14 C 0.8381(5) 1.1508(6) 0.7705(3)
H16 H 0.85400 1.04950 0.76000
H17 H 0.79860 1.19920 0.72350
H18 H 0.77820 1.15700 0.80700
C15 C 1.2068(6) 0.5407(6) 0.9208(3)
H19 H 1.16480 0.51030 0.87010
H20 H 1.14000 0.55210 0.95280
H21 H 1.27060 0.46780 0.94290
O1 O 1.1050(4) 1.0568(4) 0.73717(19)
O2 O 0.9541(4) 1.3789(4) 0.8112(2)
H22 H 0.89420 1.39510 0.83590
O3 O 0.9324(4) 1.1327(4) 0.9312(2)
H23 H 0.90600 1.21140 0.94560
O4 O 1.1447(4) 0.8881(4) 0.99543(19)
O5 O 1.2747(4) 0.6794(4) 0.9159(2)
C16 C 0.4815(5) 1.9716(6) 0.8996(3)
N2 N 0.4361(4) 2.0638(5) 0.8379(2)
C17 C 0.4890(5) 2.0271(6) 0.7717(3)
C18 C 0.5564(5) 1.8865(6) 0.7938(3)
C19 C 0.5529(5) 1.8520(5) 0.8678(3)
C20 C 0.6116(5) 1.7116(5) 0.9032(3)
H24 H 0.53930 1.63980 0.90200
C21 C 0.7097(5) 1.6545(5) 0.8525(3)
C22 C 0.6355(5) 1.6563(5) 0.7676(3)
H25 H 0.54980 1.60550 0.76560
C23 C 0.7086(5) 1.5840(6) 0.7096(3)
H26 H 0.74190 1.48910 0.72960
H27 H 0.78530 1.64390 0.70380
C24 C 0.6212(6) 1.5621(7) 0.6302(3)
H28 H 0.53840 1.51390 0.63640
H29 H 0.59860 1.65720 0.60660
C25 C 0.6921(6) 1.4697(7) 0.5771(3)
H30 H 0.77320 1.52020 0.56990
H31 H 0.71830 1.37680 0.60230
C26 C 0.6074(6) 1.4392(8) 0.4983(3)
H32 H 0.58050 1.53180 0.47300
H33 H 0.52690 1.38710 0.50510
C27 C 0.6823(7) 1.3483(8) 0.4466(3)
H34 H 0.62440 1.32970 0.39820
H35 H 0.70960 1.25660 0.47150
H36 H 0.75990 1.40130 0.43770
C28 C 0.4806(5) 2.1038(6) 0.7075(3)
H37 H 0.43560 2.19320 0.70260
H38 H 0.51980 2.06850 0.66710
C29 C 0.8399(5) 1.7422(6) 0.8646(3)
H39 H 0.82010 1.84440 0.85500
H40 H 0.89580 1.70770 0.82960
H41 H 0.88580 1.72980 0.91680
C30 C 0.5035(6) 2.3002(6) 0.8752(4)
H42 H 0.56160 2.29980 0.83760
H43 H 0.55200 2.26630 0.92380
H44 H 0.47190 2.39830 0.88090
O6 O 0.6069(4) 1.8064(4) 0.74144(18)
O7 O 0.7369(3) 1.5024(4) 0.86892(19)
H45 H 0.74100 1.48770 0.91520
O8 O 0.6775(3) 1.7297(4) 0.98091(18)
H46 H 0.63630 1.68500 1.00970
O9 O 0.4586(4) 1.9909(4) 0.9650(2)
O10 O 0.3911(4) 2.2045(4) 0.8499(2)
#END
