
#######################################################################
#
#                 Cambridge Crystallographic Data Centre
#                                CCDC
#
#######################################################################
#
# If this CIF has been generated from an entry in the Cambridge
# Structural Database, then it will include bibliographic, chemical,
# crystal, experimental, refinement or atomic coordinate data resulting
# from the CCDC's data processing and validation procedures.
#
#######################################################################

data_CSD_CIF_BUTQAK
_audit_creation_date 2015-12-05
_audit_creation_method CSD-ConQuest-V1
_database_code_CSD BUTQAK
_database_code_depnum_ccdc_archive 'CCDC 1030865'
_chemical_formula_sum 'C19 H21 N1 O5'
_chemical_formula_moiety
;
C19 H21 N1 O5
;
_journal_coden_Cambridge 1268
_journal_volume 20
_journal_year 2015
_journal_page_first 18827
_journal_name_full 'Molecules '
loop_
_publ_author_name
"C.S.Chidan Kumar"
"Huey Chong Kwong"
"Siau Hui Mah"
"Tze Shyang Chia"
"Wan-Sin Loh"
"Ching Kheng Quah"
"Gin Keat Lim"
"S.Chandraju"
"Hoong-Kun Fun"
_chemical_name_systematic
;
2-(adamantan-1-yl)-2-oxoethyl 2-nitrobenzoate
;
_cell_volume   1714.406
_exptl_crystal_colour 'colorless'
_exptl_crystal_density_diffrn 1.33
_exptl_crystal_description 'block'
_diffrn_ambient_temperature 294
_refine_special_details
;
C10B,C1B,C2B,C3B,C4B,C5B,C6B,C7B,C9B and C10X,C1X,C2X,C3X,C4X,C5X,C6X,C7X,C9X 
disordered over two sites with occupancies 0.873:0.127.
;
#These two values have been output from a single CSD field.
_refine_ls_R_factor_gt 0.0513
_refine_ls_wR_factor_gt 0.0513
_symmetry_cell_setting triclinic
_symmetry_space_group_name_H-M 'P -1'
_symmetry_Int_Tables_number 2
loop_
_symmetry_equiv_pos_site_id
_symmetry_equiv_pos_as_xyz
1 x,y,z
2 -x,-y,-z
_cell_length_a 7.3004(5)
_cell_length_b 10.4009(7)
_cell_length_c 24.1685(16)
_cell_angle_alpha 90.137(1)
_cell_angle_beta 94.274(1)
_cell_angle_gamma 110.405(1)
_cell_formula_units_Z 4
loop_
_atom_type_symbol
_atom_type_radius_bond
C 0.68
H 0.23
N 0.68
O 0.68
loop_
_atom_site_label
_atom_site_type_symbol
_atom_site_fract_x
_atom_site_fract_y
_atom_site_fract_z
N1 N 0.9855(2) 0.54718(18) 0.43368(7)
O1 O 0.9365(2) 0.38091(14) 0.28757(6)
O2 O 1.0247(2) 0.60388(15) 0.30931(6)
O3 O 0.8466(2) 0.4819(2) 0.19353(7)
O4 O 1.1158(2) 0.5111(2) 0.41856(7)
O5 O 1.0093(3) 0.63423(18) 0.46954(7)
C1 C 1.0494(3) 0.5609(2) 0.10020(8)
H1 H 0.96090 0.47260 0.08540
H2 H 0.97230 0.61790 0.10700
C2 C 1.1973(3) 0.6287(2) 0.05804(8)
H3 H 1.12740 0.64060 0.02330
C3 C 1.3157(4) 0.5380(2) 0.04703(9)
H4 H 1.22880 0.44880 0.03250
H5 H 1.40780 0.57920 0.01960
C4 C 1.4261(3) 0.5216(2) 0.10078(9)
H6 H 1.50390 0.46430 0.09350
C5 C 1.5608(3) 0.6601(2) 0.12389(10)
H7 H 1.65660 0.70330 0.09760
H8 H 1.63070 0.64880 0.15820
C6 C 1.4422(3) 0.75049(19) 0.13471(9)
H9 H 1.53030 0.84060 0.14920
C7 C 1.2951(3) 0.68281(19) 0.17745(8)
H10 H 1.22000 0.74060 0.18510
H11 H 1.36490 0.67220 0.21190
C8 C 1.1558(2) 0.54137(17) 0.15470(7)
C9 C 1.2799(3) 0.45273(19) 0.14352(8)
H12 H 1.35030 0.44180 0.17780
H13 H 1.19520 0.36240 0.12960
C10 C 1.3328(3) 0.7674(2) 0.08116(9)
H14 H 1.42570 0.81170 0.05430
H15 H 1.25710 0.82530 0.08800
C11 C 1.0100(3) 0.4802(2) 0.19715(8)
C12 C 1.0773(3) 0.4144(2) 0.24674(8)
H16 H 1.09690 0.33160 0.23450
H17 H 1.20180 0.47690 0.26320
C13 C 0.9233(3) 0.48761(19) 0.31502(7)
C14 C 0.7590(3) 0.44320(18) 0.35192(7)
C15 C 0.7867(3) 0.47798(17) 0.40792(7)
C16 C 0.6345(3) 0.4437(2) 0.44193(8)
H18 H 0.65780 0.46680 0.47960
C17 C 0.4487(3) 0.3752(2) 0.41909(10)
H19 H 0.34420 0.35140 0.44140
C18 C 0.4152(3) 0.3415(2) 0.36352(10)
H20 H 0.28790 0.29610 0.34820
C19 C 0.5695(3) 0.3743(2) 0.33009(9)
H21 H 0.54550 0.34980 0.29250
N2 N 0.9951(2) 1.06633(18) 0.06452(6)
O6 O 1.0555(3) 0.91779(16) 0.21011(6)
O7 O 1.1188(2) 1.0681(2) 0.30176(7)
O8 O 0.9402(2) 1.08339(18) 0.18792(6)
O9 O 0.8694(2) 0.9636(2) 0.07791(7)
O10 O 0.9664(3) 1.1404(2) 0.02960(7)
C20 C 0.8218(3) 0.94978(19) 0.34307(7)
C21 C 0.9266(4) 1.0149(4) 0.39857(10)
H22 H 0.99820 1.11180 0.39430
H23 H 1.01950 0.97150 0.41130
C22 C 0.7750(8) 0.9966(7) 0.44096(18)
H24 H 0.84190 1.03820 0.47670
C23 C 0.6364(8) 1.0695(4) 0.4201(2)
H25 H 0.54350 1.06470 0.44740
H26 H 0.71030 1.16540 0.41450
C24 C 0.5308(5) 1.0036(3) 0.36739(17)
H27 H 0.43940 1.04960 0.35470
C25 C 0.4200(6) 0.8575(4) 0.3736(2)
H28 H 0.35170 0.81740 0.33830
H29 H 0.32310 0.84700 0.40020
C26 C 0.5599(8) 0.7834(3) 0.3935(3)
H30 H 0.48490 0.68600 0.39820
C27 C 0.7067(5) 0.7974(3) 0.35000(14)
H31 H 0.63790 0.75620 0.31490
H32 H 0.79590 0.75020 0.36180
C28 C 0.6793(4) 1.0204(3) 0.32396(11)
H33 H 0.61140 0.98020 0.28860
H34 H 0.75020 1.11710 0.31900
C29 C 0.6657(12) 0.8461(7) 0.4478(2)
H35 H 0.75690 0.80100 0.46010
H36 H 0.57250 0.83410 0.47570
C30 C 0.9671(3) 0.9721(2) 0.29966(7)
C31 C 0.9152(4) 0.8734(2) 0.25072(8)
H37 H 0.90960 0.78360 0.26320
H38 H 0.78650 0.86490 0.23390
C32 C 1.0544(3) 1.0263(2) 0.18270(7)
C33 C 1.2208(3) 1.07345(18) 0.14643(7)
C34 C 1.1943(2) 1.09979(17) 0.09102(7)
C35 C 1.3467(3) 1.1507(2) 0.05782(9)
H39 H 1.32270 1.16670 0.02060
C36 C 1.5327(3) 1.1774(2) 0.08015(11)
H40 H 1.63720 1.21070 0.05800
C37 C 1.5670(3) 1.1555(3) 0.13498(13)
H41 H 1.69510 1.17620 0.15020
C38 C 1.4113(4) 1.1024(2) 0.16838(10)
H42 H 1.43610 1.08660 0.20560
C39? C 0.909(3) 0.898(2) 0.3947(8)
H43? H 1.04280 0.95840 0.40370
H44? H 0.91010 0.80690 0.38660
C40? C 0.782(3) 0.893(3) 0.4473(11)
H45? H 0.83050 0.85260 0.47930
C41? C 0.787(4) 1.022(3) 0.4594(12)
H46? H 0.74070 1.02340 0.49580
H47? H 0.92220 1.08450 0.46090
C42? C 0.698(5) 1.057(4) 0.4291(14)
H48? H 0.70040 1.14580 0.44380
C43? C 0.481(4) 0.982(3) 0.3991(13)
H49? H 0.46040 1.02830 0.36550
H50? H 0.38060 0.97920 0.42380
C44? C 0.482(4) 0.827(3) 0.3849(9)
H51? H 0.35110 0.75740 0.37760
C45? C 0.605(3) 0.873(3) 0.329(1)
H52? H 0.58940 0.79110 0.30680
H53? H 0.55060 0.93010 0.30680
C46? C 0.814(3) 1.093(2) 0.3670(8)
H54? H 0.74130 1.13010 0.34050
H55? H 0.94600 1.15910 0.37390
C47? C 0.577(6) 0.808(5) 0.4277(17)
H56? H 0.57600 0.71440 0.42360
H57? H 0.49880 0.80750 0.45840
#END
