
#######################################################################
#
#                 Cambridge Crystallographic Data Centre
#                                CCDC
#
#######################################################################
#
# If this CIF has been generated from an entry in the Cambridge
# Structural Database, then it will include bibliographic, chemical,
# crystal, experimental, refinement or atomic coordinate data resulting
# from the CCDC's data processing and validation procedures.
#
#######################################################################

data_CSD_CIF_BUTQEO
_audit_creation_date 2015-12-05
_audit_creation_method CSD-ConQuest-V1
_database_code_CSD BUTQEO
_database_code_depnum_ccdc_archive 'CCDC 1030866'
_chemical_formula_sum 'C19 H21 N1 O5'
_chemical_formula_moiety
;
C19 H21 N1 O5
;
_journal_coden_Cambridge 1268
_journal_volume 20
_journal_year 2015
_journal_page_first 18827
_journal_name_full 'Molecules '
loop_
_publ_author_name
"C.S.Chidan Kumar"
"Huey Chong Kwong"
"Siau Hui Mah"
"Tze Shyang Chia"
"Wan-Sin Loh"
"Ching Kheng Quah"
"Gin Keat Lim"
"S.Chandraju"
"Hoong-Kun Fun"
_chemical_name_systematic
;
2-(adamantan-1-yl)-2-oxoethyl 4-nitrobenzoate
;
_cell_volume   1670.787
_exptl_crystal_colour 'colorless'
_exptl_crystal_density_diffrn 1.365
_exptl_crystal_description 'block'
_diffrn_ambient_temperature 294
#These two values have been output from a single CSD field.
_refine_ls_R_factor_gt 0.042
_refine_ls_wR_factor_gt 0.042
_symmetry_cell_setting monoclinic
_symmetry_space_group_name_H-M 'P 21/c'
_symmetry_Int_Tables_number 14
loop_
_symmetry_equiv_pos_site_id
_symmetry_equiv_pos_as_xyz
1 x,y,z
2 -x,1/2+y,1/2-z
3 -x,-y,-z
4 x,-1/2-y,-1/2+z
_cell_length_a 12.8819(9)
_cell_length_b 6.4845(5)
_cell_length_c 20.0028(13)
_cell_angle_alpha 90
_cell_angle_beta 90.628(1)
_cell_angle_gamma 90
_cell_formula_units_Z 4
loop_
_atom_type_symbol
_atom_type_radius_bond
C 0.68
H 0.23
N 0.68
O 0.68
loop_
_atom_site_label
_atom_site_type_symbol
_atom_site_fract_x
_atom_site_fract_y
_atom_site_fract_z
O1 O 0.54561(8) 1.04862(17) 0.09819(5)
O2 O 0.51314(8) 0.91274(18) 0.22354(6)
O3 O 0.47248(9) 0.7469(2) 0.07126(7)
O4 O 0.99464(13) 0.7686(4) -0.05728(10)
O5 O 0.93407(14) 0.4659(4) -0.0743(1)
N1 N 0.92639(14) 0.6409(4) -0.05344(8)
C1 C 0.33357(11) 0.9476(2) 0.30095(7)
H1 H 0.36600 1.06630 0.32200
H2 H 0.37480 0.82670 0.31180
C2 C 0.22327(12) 0.9204(2) 0.32758(8)
H3 H 0.22650 0.90270 0.37620
C3 C 0.15814(13) 1.1095(2) 0.31098(9)
H4 H 0.18880 1.23070 0.33160
H5 H 0.08860 1.09240 0.32830
C4 C 0.15316(11) 1.1373(2) 0.23546(9)
H6 H 0.11080 1.25860 0.22470
C5 C 0.10422(11) 0.9465(3) 0.20328(10)
H7 H 0.03410 0.92840 0.21950
H8 H 0.10070 0.96400 0.15510
C6 C 0.16922(12) 0.7576(2) 0.22052(8)
H9 H 0.13730 0.63520 0.20020
C7 C 0.27875(11) 0.7854(2) 0.19300(7)
H10 H 0.27530 0.80160 0.14480
H11 H 0.32030 0.66430 0.20310
C8 C 0.32967(9) 0.97810(18) 0.22499(6)
C9 C 0.26321(10) 1.1684(2) 0.20848(8)
H12 H 0.26020 1.18860 0.16050
H13 H 0.29420 1.29000 0.22860
C10 C 0.17458(13) 0.7298(2) 0.29605(9)
H14 H 0.10530 0.70950 0.31340
H15 H 0.21590 0.60910 0.30710
C11 C 0.4386(1) 0.9910(2) 0.19689(7)
C12 C 0.45058(11) 1.1031(2) 0.13089(7)
H16 H 0.39230 1.06950 0.10180
H17 H 0.44960 1.25070 0.13880
C13 C 0.54611(11) 0.8608(3) 0.07105(7)
C14 C 0.64717(11) 0.8088(2) 0.03976(7)
C15 C 0.72926(12) 0.9466(3) 0.03805(8)
H18 H 0.72260 1.07620 0.05750
C16 C 0.82096(13) 0.8924(3) 0.00764(9)
H19 H 0.87640 0.98420 0.00630
C17 C 0.82863(13) 0.7001(3) -0.02048(7)
C18 C 0.74875(14) 0.5610(3) -0.01973(8)
H20 H 0.75600 0.43180 -0.03930
C19 C 0.65735(13) 0.6160(3) 0.01066(8)
H21 H 0.60230 0.52340 0.01170
#END
