
#######################################################################
#
#                 Cambridge Crystallographic Data Centre
#                                CCDC
#
#######################################################################
#
# If this CIF has been generated from an entry in the Cambridge
# Structural Database, then it will include bibliographic, chemical,
# crystal, experimental, refinement or atomic coordinate data resulting
# from the CCDC's data processing and validation procedures.
#
#######################################################################

data_CSD_CIF_BUVHOR
_audit_creation_date 2015-12-05
_audit_creation_method CSD-ConQuest-V1
_database_code_CSD BUVHOR
_database_code_depnum_ccdc_archive 'CCDC 1016708'
_chemical_formula_sum 'C14 H19 N3 O4'
_chemical_formula_moiety
;
C14 H19 N3 O4
;
_journal_coden_Cambridge 1751
_journal_volume 3
_journal_year 2014
_journal_page_first 1919
_journal_name_full 'J.Applic.Chem. '
loop_
_publ_author_name
"K.Srinivas"
"P.Raghavaiah"
"V.Himabindu"
"G.M.Reddy"
"B.Balram"
_chemical_name_systematic
;
(4-amino-2-ethoxy-5-nitrophenyl)(piperidin-1-yl)methanone
;
_cell_volume   1473.610
_exptl_crystal_colour 'pale yellow'
_exptl_crystal_density_diffrn 1.322
_exptl_crystal_description 'block'
_diffrn_ambient_temperature 173
#These two values have been output from a single CSD field.
_refine_ls_R_factor_gt 0.0798
_refine_ls_wR_factor_gt 0.0798
_symmetry_cell_setting monoclinic
_symmetry_space_group_name_H-M 'P 21/c'
_symmetry_Int_Tables_number 14
loop_
_symmetry_equiv_pos_site_id
_symmetry_equiv_pos_as_xyz
1 x,y,z
2 -x,1/2+y,1/2-z
3 -x,-y,-z
4 x,-1/2-y,-1/2+z
_cell_length_a 11.968(6)
_cell_length_b 8.992(4)
_cell_length_c 16.175(6)
_cell_angle_alpha 90
_cell_angle_beta 122.16(3)
_cell_angle_gamma 90
_cell_formula_units_Z 4
loop_
_atom_type_symbol
_atom_type_radius_bond
C 0.68
H 0.23
N 0.68
O 0.68
loop_
_atom_site_label
_atom_site_type_symbol
_atom_site_fract_x
_atom_site_fract_y
_atom_site_fract_z
O1 O 0.8228(2) 0.3210(3) 0.58551(15)
O2 O 0.9851(3) 0.1723(3) 0.83412(17)
O3 O 1.3235(3) -0.0614(4) 0.7759(2)
O4 O 1.3115(3) -0.0285(4) 0.6407(2)
N1 N 1.1427(3) 0.1661(4) 0.5144(2)
N2 N 0.7960(3) 0.0886(4) 0.7055(2)
N3 N 1.2670(3) -0.0122(4) 0.6929(2)
C1 C 0.9822(3) 0.2409(4) 0.5477(2)
H1 H 0.94370 0.30250 0.49140
C2 C 1.1486(3) 0.0710(4) 0.6578(2)
C3 C 0.9280(3) 0.2385(4) 0.6035(2)
C4 C 1.0930(3) 0.1551(4) 0.5711(2)
C5 C 1.0904(3) 0.0674(4) 0.7127(2)
H2 H 1.12890 0.00750 0.76990
C6 C 0.9804(3) 0.1466(4) 0.6871(2)
C7 C 0.9195(4) 0.1371(4) 0.7479(2)
C8 C 0.7573(3) 0.4088(5) 0.4986(2)
H3 H 0.72670 0.34510 0.44040
H4 H 0.81810 0.48490 0.50010
C9 C 0.7148(4) 0.0332(5) 0.6046(3)
H5 H 0.76650 0.03580 0.57310
H6 H 0.63640 0.09770 0.56660
C10 C 0.6006(4) -0.1328(6) 0.6586(3)
H7 H 0.51480 -0.08040 0.62110
H8 H 0.58270 -0.23870 0.66390
C11 C 0.6722(4) -0.1207(5) 0.6051(3)
H9 H 0.75050 -0.18650 0.63680
H10 H 0.61330 -0.15500 0.53690
C12 C 0.7262(5) 0.0850(5) 0.7571(3)
H11 H 0.64890 0.15230 0.72410
H12 H 0.78550 0.12130 0.82470
C13 C 0.6816(5) -0.0661(6) 0.7597(3)
H13 H 0.62790 -0.06320 0.78970
H14 H 0.75940 -0.12990 0.80090
C14 C 0.6428(4) 0.4811(5) 0.4949(3)
H15 H 0.58840 0.40500 0.50030
H16 H 0.58990 0.53410 0.43280
H17 H 0.67480 0.55160 0.54900
H18 H 1.210(4) 0.113(4) 0.526(3)
H19 H 1.101(4) 0.218(5) 0.461(3)
#END
