
#######################################################################
#
#                 Cambridge Crystallographic Data Centre
#                                CCDC
#
#######################################################################
#
# If this CIF has been generated from an entry in the Cambridge
# Structural Database, then it will include bibliographic, chemical,
# crystal, experimental, refinement or atomic coordinate data resulting
# from the CCDC's data processing and validation procedures.
#
#######################################################################

data_CSD_CIF_BUVJUX
_audit_creation_date 1984-02-21
_audit_creation_method CSD-ConQuest-V1
_database_code_CSD BUVJUX
_database_code_depnum_ccdc_archive 'CCDC 1117456'
_chemical_formula_sum 'C10 H10 N2 O2'
_chemical_formula_moiety
;
C10 H10 N2 O2
;
_journal_coden_Cambridge 207
_journal_year 1983
_journal_page_first 293
_journal_name_full 'J.Chem.Soc.,Perkin Trans.1 '
loop_
_publ_author_name
"J.F.Barnes"
"M.J.Barrow"
"M.M.Harding"
"R.M.Paton"
"A.Sillitoe"
"P.L.Ashcroft"
"R.Bradbury"
"J.Crosby"
"C.J.Joyce"
"D.R.Holmes"
"J.Milner"
_chemical_name_systematic
;
4a,5,7a,8-Tetrahydro-4,8-methano-4H-indeno(5,6-c)(1,2,5)oxadiazole-1-oxide
;
_chemical_name_common
;
Dicyclopentadiene furoxan
;
_chemical_melting_point 371.15
_cell_volume    911.559
_exptl_crystal_colour 'white'
_exptl_crystal_density_diffrn 1.39
_exptl_special_details
;
Melting point range 371.15-373.15K

;
_diffrn_ambient_temperature ?
_diffrn_special_details
;
The study was carried out at room temperature,in the range 283-303K

;
_refine_special_details
;
O1, O2, N2, N5 are equally disordered over two sites giving a mixture of 
1-oxide and 3-oxide; Short N-O bond at N2.
;
#These two values have been output from a single CSD field.
_refine_ls_R_factor_gt 0.08
_refine_ls_wR_factor_gt 0.08
_symmetry_cell_setting monoclinic
_symmetry_space_group_name_H-M 'P 21/c'
_symmetry_Int_Tables_number 14
loop_
_symmetry_equiv_pos_site_id
_symmetry_equiv_pos_as_xyz
1 x,y,z
2 -x,1/2+y,1/2-z
3 -x,-y,-z
4 x,-1/2-y,-1/2+z
_cell_length_a 10.86(2)
_cell_length_b 10.81(2)
_cell_length_c 7.77(2)
_cell_angle_alpha 90
_cell_angle_beta 92.1
_cell_angle_gamma 90
_cell_formula_units_Z 4
loop_
_atom_type_symbol
_atom_type_radius_bond
C 0.68
N 0.72
O 0.68
loop_
_atom_site_label
_atom_site_type_symbol
_atom_site_fract_x
_atom_site_fract_y
_atom_site_fract_z
O1 O 0.86780 -0.09710 0.59540
O2 O 0.76490 0.07700 0.68630
N1 N 0.79860 0.02550 0.56040
N2 N 0.90050 -0.15110 0.53080
C1 C 0.79410 0.05230 0.40000
C2 C 0.85690 -0.04820 0.34260
C3 C 0.85760 -0.04260 0.15270
C4 C 0.72240 -0.06380 0.08970
C5 C 0.65300 -0.17100 0.16660
C6 C 0.55810 -0.12400 0.26050
C7 C 0.54860 0.00380 0.25600
C8 C 0.65370 0.05390 0.15210
C9 C 0.75500 0.12510 0.24630
C10 C 0.86610 0.09900 0.13450
#END
