
#######################################################################
#
#                 Cambridge Crystallographic Data Centre
#                                CCDC
#
#######################################################################
#
# If this CIF has been generated from an entry in the Cambridge
# Structural Database, then it will include bibliographic, chemical,
# crystal, experimental, refinement or atomic coordinate data resulting
# from the CCDC's data processing and validation procedures.
#
#######################################################################

data_CSD_CIF_BUVTES
_audit_creation_date 2011-01-20
_audit_creation_method CSD-ConQuest-V1
_database_code_CSD BUVTES
_database_code_depnum_ccdc_archive 'CCDC 759684'
_chemical_formula_sum 'C12 H8 N2 O1'
_chemical_formula_moiety
;
C12 H8 N2 O1
;
_journal_coden_Cambridge 1220
_journal_volume 16
_journal_year 2010
_journal_page_first 8088
_journal_name_full 'Chem.-Eur.J. '
loop_
_publ_author_name
"Tsai-Te Lu"
"Chih-Hao Chen"
"Wen-Feng Liaw"
_chemical_name_systematic
;
9-Nitroso-9H-carbazole
;
_cell_volume   1860.354
_exptl_crystal_colour 'pale yellow'
_exptl_crystal_density_diffrn 1.401
_exptl_crystal_description 'prism'
_exptl_crystal_preparation 'hexane'
_diffrn_ambient_temperature 200
_refine_special_details
;
In one molecule, the nitroso group is disordered over two sites with 
occupancies 0.50:0.50.
;
#These two values have been output from a single CSD field.
_refine_ls_R_factor_gt 0.0679
_refine_ls_wR_factor_gt 0.0679
_symmetry_cell_setting monoclinic
_symmetry_space_group_name_H-M 'P 21/c'
_symmetry_Int_Tables_number 14
loop_
_symmetry_equiv_pos_site_id
_symmetry_equiv_pos_as_xyz
1 x,y,z
2 -x,1/2+y,1/2-z
3 -x,-y,-z
4 x,-1/2-y,-1/2+z
_cell_length_a 16.968(4)
_cell_length_b 3.8854(9)
_cell_length_c 28.284(5)
_cell_angle_alpha 90
_cell_angle_beta 93.909(13)
_cell_angle_gamma 90
_cell_formula_units_Z 8
loop_
_atom_type_symbol
_atom_type_radius_bond
C 0.68
H 0.23
N 0.68
O 0.68
loop_
_atom_site_label
_atom_site_type_symbol
_atom_site_fract_x
_atom_site_fract_y
_atom_site_fract_z
N1 N 0.3042(8) 0.706(2) 0.2930(6)
O1 O 0.3718(6) 0.854(2) 0.3013(5)
C1 C 0.2300(2) 0.4305(8) 0.23443(10)
C2 C 0.1652(3) 0.3869(10) 0.26192(12)
H1 H 0.16620 0.46600 0.29370
C3 C 0.1001(3) 0.2242(10) 0.24072(15)
H2 H 0.05500 0.19170 0.25830
C4 C 0.0985(2) 0.1078(9) 0.19502(13)
H3 H 0.05250 -0.00530 0.18180
C5 C 0.16228(18) 0.1513(8) 0.16773(11)
H4 H 0.16030 0.07090 0.13600
C6 C 0.22948(17) 0.3151(7) 0.18774(9)
C7 C 0.30579(17) 0.3993(7) 0.17009(10)
C8 C 0.3364(2) 0.3450(9) 0.12674(12)
H5 H 0.30560 0.24020 0.10140
C9 C 0.4134(2) 0.4481(11) 0.12134(17)
H6 H 0.43600 0.41240 0.09190
C10 C 0.4584(2) 0.6046(12) 0.1589(2)
H7 H 0.51110 0.67260 0.15420
C11 C 0.4286(2) 0.6628(11) 0.2022(2)
H8 H 0.45910 0.76870 0.22760
C12 C 0.3514(2) 0.5576(8) 0.20660(13)
N2 N 0.30441(19) 0.5799(7) 0.24630(9)
C13 C 0.13818(16) 0.2889(7) 0.45401(9)
C14 C 0.05799(18) 0.2089(8) 0.44921(11)
H9 H 0.02370 0.26260 0.47330
C15 C 0.03077(19) 0.0477(9) 0.40770(12)
H10 H -0.02360 -0.01050 0.40310
C16 C 0.08077(18) -0.0306(8) 0.37269(11)
H11 H 0.06020 -0.14030 0.34450
C17 C 0.16043(17) 0.0483(8) 0.37812(10)
H12 H 0.19470 -0.01000 0.35420
C18 C 0.18921(15) 0.2143(7) 0.41918(9)
C19 C 0.26749(16) 0.3422(7) 0.43580(9)
C20 C 0.33936(17) 0.3416(8) 0.41512(11)
H13 H 0.34420 0.24340 0.38470
C21 C 0.40410(18) 0.4891(9) 0.44027(12)
H14 H 0.45390 0.49160 0.42680
C22 C 0.39709(19) 0.6328(9) 0.48471(12)
H15 H 0.44240 0.73040 0.50110
C23 C 0.32575(19) 0.6376(8) 0.50579(11)
H16 H 0.32090 0.73620 0.53620
C24 C 0.26178(16) 0.4910(7) 0.48013(9)
N3 N 0.18171(14) 0.4587(6) 0.49151(8)
N4 N 0.1394(2) 0.5705(8) 0.52925(10)
O2 O 0.18235(18) 0.7249(9) 0.5567(1)
N5? N 0.3558(15) 0.750(3) 0.2808(3)
O3? O 0.3168(13) 0.782(4) 0.3123(4)
#END
