
#######################################################################
#
#                 Cambridge Crystallographic Data Centre
#                                CCDC
#
#######################################################################
#
# If this CIF has been generated from an entry in the Cambridge
# Structural Database, then it will include bibliographic, chemical,
# crystal, experimental, refinement or atomic coordinate data resulting
# from the CCDC's data processing and validation procedures.
#
#######################################################################

data_CSD_CIF_BUWBEA
_audit_creation_date 1984-02-21
_audit_creation_method CSD-ConQuest-V1
_database_code_CSD BUWBEA
_database_code_depnum_ccdc_archive 'CCDC 1117547'
_chemical_formula_sum 'C22 H36 N2 O4'
_chemical_formula_moiety
;
C22 H36 N2 O4
;
_journal_coden_Cambridge 41
_journal_volume 28
_journal_year 1983
_journal_page_first 291
_journal_name_full 'Kristallografiya(Russ.)(Crystallogr.Rep.) '
loop_
_publ_author_name
"R.M.Lobkovskaya"
"R.P.Shibaeva"
"M.V.Sudnik"
"A.B.Shapiro"
_chemical_name_systematic
;
1,8-Epoxy-4,5,5,7,7,12,12,14,14,15-decamethyl-2-oxa-6,13-diazatricyclo(9.4.0.0
^3,8^)pentadec-3-ene-6,13-bis(N-oxide)
;
_cell_volume   1073.869
_exptl_crystal_density_diffrn 1.21
_diffrn_ambient_temperature ?
_diffrn_special_details
;
The study was carried out at room temperature,in the range 283-303K

;
#These two values have been output from a single CSD field.
_refine_ls_R_factor_gt 0.056
_refine_ls_wR_factor_gt 0.056
_symmetry_cell_setting triclinic
_symmetry_space_group_name_H-M 'P -1'
_symmetry_Int_Tables_number 2
loop_
_symmetry_equiv_pos_site_id
_symmetry_equiv_pos_as_xyz
1 x,y,z
2 -x,-y,-z
_cell_length_a 11.340(5)
_cell_length_b 12.425(10)
_cell_length_c 8.360(5)
_cell_angle_alpha 110.28(5)
_cell_angle_beta 100.77(4)
_cell_angle_gamma 93.98(5)
_cell_formula_units_Z 2
loop_
_atom_type_symbol
_atom_type_radius_bond
C 0.68
H 0.23
N 0.68
O 0.68
loop_
_atom_site_label
_atom_site_type_symbol
_atom_site_fract_x
_atom_site_fract_y
_atom_site_fract_z
O1 O 0.26610 0.23920 0.14810
O2 O 1.10530 0.15600 0.53840
O3 O 0.73010 0.15450 0.16690
O4 O 0.68580 0.30760 0.37660
N1 N 0.37710 0.22380 0.16160
N2 N 1.00670 0.19620 0.50520
C1 C 0.63000 0.20950 0.21660
C2 C 0.56980 0.24740 0.07090
C3 C 0.45360 0.30040 0.10390
C4 C 0.42430 0.17020 0.29100
C5 C 0.54560 0.12710 0.25730
C6 C 0.61450 0.09060 0.40290
C7 C 0.74160 0.06490 0.37830
C8 C 0.80370 0.15910 0.33040
C9 C 0.79290 0.27820 0.44870
C10 C 0.87150 0.34590 0.59040
C11 C 0.99070 0.30570 0.64470
C12 C 0.93660 0.15090 0.31830
C13 C 0.66050 0.32470 0.02870
C14 C 0.37700 0.30030 -0.06730
C15 C 0.47750 0.42370 0.24000
C16 C 0.33010 0.06490 0.25730
C17 C 0.43330 0.25720 0.47720
C18 C 0.84630 0.46280 0.70120
C19 C 0.99360 0.27800 0.80990
C20 C 1.09820 0.39800 0.67710
C21 C 0.97880 0.22610 0.22270
C22 C 0.95800 0.02660 0.22980
H1 H 0.54300 0.17400 -0.03200
H2 H 0.52300 0.05600 0.14800
H3 H 0.56000 0.01900 0.41200
H4 H 0.62600 0.15800 0.51400
H5 H 0.73000 -0.01100 0.28100
H6 H 0.79100 0.05400 0.48600
H7 H 0.68400 0.39500 0.13800
H8 H 0.62100 0.34700 -0.06900
H9 H 0.73900 0.29200 0.01600
H10 H 0.35800 0.22100 -0.15700
H11 H 0.42600 0.34800 -0.10900
H12 H 0.29700 0.33900 -0.04900
H13 H 0.53400 0.42800 0.34400
H14 H 0.51300 0.47400 0.19600
H15 H 0.39400 0.44600 0.25900
H16 H 0.36200 0.02000 0.33100
H17 H 0.25500 0.08200 0.28200
H18 H 0.30900 0.01200 0.12900
H19 H 0.49900 0.32400 0.51000
H20 H 0.35400 0.29000 0.47100
H21 H 0.44900 0.22200 0.56600
H22 H 0.82900 0.45400 0.80600
H23 H 0.92200 0.52000 0.74200
H24 H 0.77400 0.48500 0.64300
H25 H 0.98100 0.34700 0.89900
H26 H 0.92900 0.22000 0.78900
H27 H 1.07600 0.25900 0.84800
H28 H 1.09500 0.46600 0.78000
H29 H 1.09000 0.42000 0.57200
H30 H 1.17300 0.35700 0.68700
H31 H 0.95900 0.30000 0.26600
H32 H 1.06900 0.22800 0.23400
H33 H 0.93500 0.18000 0.08500
H34 H 0.94600 -0.01800 0.30000
H35 H 0.89800 -0.00900 0.11100
H36 H 1.04500 0.02600 0.21000
#END
