
#######################################################################
#
#                 Cambridge Crystallographic Data Centre
#                                CCDC
#
#######################################################################
#
# If this CIF has been generated from an entry in the Cambridge
# Structural Database, then it will include bibliographic, chemical,
# crystal, experimental, refinement or atomic coordinate data resulting
# from the CCDC's data processing and validation procedures.
#
#######################################################################

data_CSD_CIF_BUWFUU
_audit_creation_date 1984-02-21
_audit_creation_method CSD-ConQuest-V1
_database_code_CSD BUWFUU
_database_code_depnum_ccdc_archive 'CCDC 1117565'
_chemical_formula_sum 'C14 H16 N2 O2'
_chemical_formula_moiety
;
C14 H16 N2 O2
;
_journal_coeditor_code "IUCr A22143"
_journal_coden_Cambridge 622
_journal_volume 39
_journal_year 1983
_journal_page_first 450
_journal_name_full 'Acta Crystallogr.,Sect.B:Struct.Sci. '
loop_
_publ_author_name
"G.Gilli"
"V.Bertolasi"
"A.C.Veronese"
_chemical_name_systematic
;
5,5-Dimethyl-2-nitroso-3-phenylamino-2-cyclohexen-1-one
;
_cell_volume   2551.311
_exptl_crystal_colour 'blue green'
_exptl_crystal_density_diffrn 1.27
_diffrn_ambient_temperature ?
_diffrn_special_details
;
The study was carried out at room temperature,in the range 283-303K

;
#These two values have been output from a single CSD field.
_refine_ls_R_factor_gt 0.035
_refine_ls_wR_factor_gt 0.035
_symmetry_cell_setting monoclinic
_symmetry_space_group_name_H-M 'C 2/c'
_symmetry_Int_Tables_number 15
loop_
_symmetry_equiv_pos_site_id
_symmetry_equiv_pos_as_xyz
1 x,y,z
2 1/2+x,1/2+y,z
3 -x,y,1/2-z
4 1/2-x,1/2+y,1/2-z
5 -x,-y,-z
6 -1/2-x,-1/2-y,-z
7 x,-y,-1/2+z
8 -1/2+x,-1/2-y,-1/2+z
_cell_length_a 13.040(3)
_cell_length_b 10.178(3)
_cell_length_c 19.239(4)
_cell_angle_alpha 90
_cell_angle_beta 92.33(3)
_cell_angle_gamma 90
_cell_formula_units_Z 8
loop_
_atom_type_symbol
_atom_type_radius_bond
C 0.68
H 0.23
N 0.68
O 0.68
loop_
_atom_site_label
_atom_site_type_symbol
_atom_site_fract_x
_atom_site_fract_y
_atom_site_fract_z
C1 C 0.72950 0.49880 0.19740
C2 C 0.82240 0.45440 0.22500
C3 C 0.85430 0.48820 0.29200
C4 C 0.79180 0.56720 0.33060
C5 C 0.69840 0.61120 0.30390
C6 C 0.66830 0.57680 0.23650
C7 C 0.90320 0.63720 0.43090
C8 C 0.90710 0.65440 0.50500
C9 C 0.99980 0.70890 0.54110
C10 C 1.08960 0.73880 0.49810
C11 C 1.06440 0.77230 0.42160
C12 C 0.99660 0.66310 0.39070
C13 C 1.00940 0.90420 0.41570
C14 C 1.16350 0.77730 0.38270
N1 N 0.81590 0.59730 0.40210
N2 N 0.83110 0.62650 0.54720
O1 O 1.00370 0.72740 0.60360
O2 O 0.74510 0.58220 0.51970
H1 H 0.76100 0.58900 0.43900
H2 H 0.70800 0.47300 0.14900
H3 H 0.86600 0.39700 0.19800
H4 H 0.92000 0.45000 0.31400
H5 H 0.65300 0.66700 0.33300
H6 H 0.60600 0.60700 0.21700
H7 H 1.13100 0.65800 0.50000
H8 H 1.12900 0.80900 0.52000
H9 H 1.03700 0.57600 0.39000
H10 H 0.97600 0.68400 0.34200
H11 H 0.94200 0.90500 0.43900
H12 H 1.05300 0.97800 0.43500
H13 H 0.99500 0.92500 0.36400
H14 H 1.14500 0.79400 0.33200
H15 H 1.20800 0.84400 0.40100
H16 H 1.20100 0.68700 0.38500
#END
