
#######################################################################
#
#                 Cambridge Crystallographic Data Centre
#                                CCDC
#
#######################################################################
#
# If this CIF has been generated from an entry in the Cambridge
# Structural Database, then it will include bibliographic, chemical,
# crystal, experimental, refinement or atomic coordinate data resulting
# from the CCDC's data processing and validation procedures.
#
#######################################################################

data_CSD_CIF_BUWKOU
_audit_creation_date 2011-01-20
_audit_creation_method CSD-ConQuest-V1
_database_code_CSD BUWKOU
_database_code_depnum_ccdc_archive 'CCDC 775189'
_chemical_formula_sum 'C24 H24 N2 O7'
_chemical_formula_moiety
;
C24 H24 N2 O7
;
_journal_coden_Cambridge 1475
_journal_volume 1
_journal_year 2010
_journal_page_first 387
_journal_name_full 'Chemical Science '
loop_
_publ_author_name
"E.H.Krenske"
"K.N.Houk"
"A.G.Lohse"
"J.E.Antoline"
"R.P.Hsung"
_chemical_name_systematic
;
2-(4-Benzyl-2-oxo-1,3-oxazolidin-3-yl)-8-oxabicyclo[3.2.1]oct-3-yl 
4-nitrobenzoate
;
_cell_volume   2122.346
_exptl_crystal_colour 'yellow'
_exptl_crystal_density_diffrn 1.416
_exptl_special_details
;
Absolute configuration

;
_exptl_crystal_description 'block'
_diffrn_ambient_temperature 173
#These two values have been output from a single CSD field.
_refine_ls_R_factor_gt 0.032
_refine_ls_wR_factor_gt 0.032
_symmetry_cell_setting orthorhombic
_symmetry_space_group_name_H-M 'P 21 21 21'
_symmetry_Int_Tables_number 19
loop_
_symmetry_equiv_pos_site_id
_symmetry_equiv_pos_as_xyz
1 x,y,z
2 1/2-x,-y,1/2+z
3 -x,1/2+y,1/2-z
4 1/2+x,1/2-y,-z
_cell_length_a 6.9199(7)
_cell_length_b 16.6550(16)
_cell_length_c 18.4150(18)
_cell_angle_alpha 90
_cell_angle_beta 90
_cell_angle_gamma 90
_cell_formula_units_Z 4
loop_
_atom_type_symbol
_atom_type_radius_bond
C 0.68
H 0.23
N 0.68
O 0.68
loop_
_atom_site_label
_atom_site_type_symbol
_atom_site_fract_x
_atom_site_fract_y
_atom_site_fract_z
O1 O 0.6172(3) 0.25170(9) 0.64791(8)
O2 O 0.1772(3) 0.34375(10) 0.85068(10)
O3 O 0.3455(3) 0.30652(10) 0.94903(9)
O4 O 0.6308(2) 0.42449(8) 0.77909(8)
O5 O 0.4506(2) 0.53732(8) 0.77544(8)
O6 O 1.1540(3) 0.70772(10) 0.99508(9)
O7 O 1.3391(3) 0.60541(11) 0.97577(10)
N1 N 0.4787(3) 0.28629(10) 0.84059(9)
N2 N 1.1901(3) 0.64338(11) 0.96584(10)
C1 C 0.6512(4) 0.24639(12) 0.72457(11)
H1 H 0.64750 0.18900 0.74050
C2 C 0.4867(3) 0.29360(12) 0.76091(11)
H2 H 0.36390 0.26950 0.74230
C3 C 0.4840(4) 0.38215(12) 0.73689(12)
H3 H 0.35410 0.40580 0.74740
C4 C 0.5271(4) 0.39001(13) 0.65573(12)
H4 H 0.40690 0.38010 0.62800
H5 H 0.56950 0.44560 0.64540
C5 C 0.6824(4) 0.33186(13) 0.62988(12)
H6 H 0.70090 0.33700 0.57620
C6 C 0.8762(4) 0.33857(13) 0.66869(13)
H7 H 0.89960 0.39420 0.68540
H8 H 0.98350 0.32200 0.63650
C7 C 0.8558(4) 0.28034(13) 0.73402(13)
H9 H 0.95400 0.23720 0.73190
H10 H 0.86870 0.30930 0.78070
C8 C 0.3219(4) 0.31482(12) 0.87621(13)
C9 C 0.5357(4) 0.27540(14) 0.96335(12)
H11 H 0.53000 0.23140 0.99940
H12 H 0.62140 0.31820 0.98220
C10 C 0.6099(4) 0.24403(13) 0.88985(11)
H13 H 0.74540 0.26280 0.88170
C11 C 0.6020(3) 0.15177(13) 0.88563(11)
H14 H 0.64790 0.13520 0.83700
H15 H 0.69390 0.12980 0.92170
C12 C 0.4086(4) 0.11407(12) 0.89846(11)
C13 C 0.3727(4) 0.07009(13) 0.96150(12)
H16 H 0.46900 0.06720 0.99820
C14 C 0.1985(5) 0.03060(14) 0.97128(14)
H17 H 0.17710 0.00060 1.01440
C15 C 0.0564(5) 0.03433(13) 0.91944(14)
H18 H -0.06260 0.00700 0.92650
C16 C 0.0880(4) 0.07852(14) 0.85647(13)
H19 H -0.00990 0.08180 0.82040
C17 C 0.2620(3) 0.11770(13) 0.84639(11)
H20 H 0.28230 0.14770 0.80320
C18 C 0.5954(3) 0.50237(12) 0.79323(10)
C19 C 0.7574(3) 0.53957(11) 0.83495(10)
C20 C 0.7256(3) 0.61434(12) 0.86777(11)
H21 H 0.60550 0.64100 0.86140
C21 C 0.8690(3) 0.64927(11) 0.90941(11)
H22 H 0.84870 0.69980 0.93210
C22 C 1.0422(3) 0.60911(12) 0.91728(10)
C23 C 1.0790(3) 0.53609(12) 0.88414(11)
H23 H 1.20070 0.51040 0.88970
C24 C 0.9348(3) 0.50138(12) 0.84285(11)
H24 H 0.95700 0.45120 0.81970
#END
