
#######################################################################
#
#                 Cambridge Crystallographic Data Centre
#                                CCDC
#
#######################################################################
#
# If this CIF has been generated from an entry in the Cambridge
# Structural Database, then it will include bibliographic, chemical,
# crystal, experimental, refinement or atomic coordinate data resulting
# from the CCDC's data processing and validation procedures.
#
#######################################################################

data_CSD_CIF_BUWKUA
_audit_creation_date 2011-01-20
_audit_creation_method CSD-ConQuest-V1
_database_code_CSD BUWKUA
_database_code_depnum_ccdc_archive 'CCDC 775190'
_chemical_formula_sum 'C32 H32 N2 O7'
_chemical_formula_moiety
;
C32 H32 N2 O7
;
_journal_coden_Cambridge 1475
_journal_volume 1
_journal_year 2010
_journal_page_first 387
_journal_name_full 'Chemical Science '
loop_
_publ_author_name
"E.H.Krenske"
"K.N.Houk"
"A.G.Lohse"
"J.E.Antoline"
"R.P.Hsung"
_chemical_name_systematic
;
2-(4-Isopropyl-2-oxo-5,5-diphenyl-1,3-oxazolidin-3-yl)-8-oxabicyclo[3.2.1]oct-
3-yl 4-nitrobenzoate
;
_cell_volume   2758.931
_exptl_crystal_colour 'colorless'
_exptl_crystal_density_diffrn 1.34
_exptl_special_details
;
Absolute configuration

;
_exptl_crystal_description 'needle'
_diffrn_ambient_temperature 173
#These two values have been output from a single CSD field.
_refine_ls_R_factor_gt 0.0696
_refine_ls_wR_factor_gt 0.0696
_symmetry_cell_setting monoclinic
_symmetry_space_group_name_H-M 'P 21'
_symmetry_Int_Tables_number 4
loop_
_symmetry_equiv_pos_site_id
_symmetry_equiv_pos_as_xyz
1 x,y,z
2 -x,1/2+y,-z
_cell_length_a 6.7539(11)
_cell_length_b 19.324(3)
_cell_length_c 21.197(4)
_cell_angle_alpha 90
_cell_angle_beta 94.231(3)
_cell_angle_gamma 90
_cell_formula_units_Z 4
loop_
_atom_type_symbol
_atom_type_radius_bond
C 0.68
H 0.23
N 0.68
O 0.68
loop_
_atom_site_label
_atom_site_type_symbol
_atom_site_fract_x
_atom_site_fract_y
_atom_site_fract_z
O1 O 0.0940(9) 0.0600(3) 0.6457(3)
O2 O -0.1469(10) 0.2703(3) 0.6034(3)
O3 O 0.0788(9) 0.3451(3) 0.5712(3)
O4 O 0.1741(8) 0.2256(3) 0.7396(3)
O5 O 0.4499(10) 0.2512(4) 0.8004(3)
O6 O -0.1074(11) 0.4614(4) 0.9807(4)
O7 O -0.3744(11) 0.4112(4) 0.9422(3)
N1 N 0.186(1) 0.2422(4) 0.6044(3)
N2 N -0.1927(12) 0.4187(4) 0.9458(4)
C1 C 0.0144(13) 0.1275(5) 0.6288(4)
H1 H -0.04620 0.12750 0.58430
C2 C 0.2017(12) 0.1741(5) 0.6348(4)
H2 H 0.30260 0.14860 0.61160
C3 C 0.2911(13) 0.1785(5) 0.7025(4)
H3 H 0.42900 0.19720 0.70210
C4 C 0.3017(14) 0.1069(5) 0.7321(4)
H4 H 0.31880 0.11160 0.77870
H5 H 0.41960 0.08240 0.71810
C5 C 0.1169(14) 0.0635(6) 0.7146(5)
H6 H 0.13420 0.01590 0.73270
C6 C -0.0790(15) 0.0940(6) 0.7321(5)
H7 H -0.06090 0.12190 0.77120
H8 H -0.17770 0.05720 0.73810
C7 C -0.1434(13) 0.1394(5) 0.6752(4)
H9 H -0.27590 0.12540 0.65640
H10 H -0.14810 0.18870 0.68760
C8 C 0.0263(13) 0.2834(5) 0.5950(4)
C9 C 0.2950(12) 0.3509(4) 0.5797(4)
C10 C 0.3596(12) 0.2744(4) 0.5766(4)
H11 H 0.48050 0.26720 0.60600
C11 C 0.3594(12) 0.3966(4) 0.5262(4)
C12 C 0.5588(13) 0.4106(5) 0.5204(4)
H12 H 0.65660 0.39040 0.54930
C13 C 0.6171(14) 0.4545(5) 0.4723(4)
H13 H 0.75390 0.46460 0.46950
C14 C 0.4776(14) 0.4832(5) 0.4288(5)
H14 H 0.51810 0.51160 0.39550
C15 C 0.2809(14) 0.4701(5) 0.4345(4)
H15 H 0.18370 0.49100 0.40590
C16 C 0.2210(14) 0.4261(5) 0.4823(4)
H16 H 0.08400 0.41630 0.48470
C17 C 0.3508(13) 0.3829(5) 0.6442(4)
C18 C 0.5476(15) 0.3806(5) 0.6697(5)
H17 H 0.64440 0.35630 0.64800
C19 C 0.6025(18) 0.4139(6) 0.7269(5)
H18 H 0.73660 0.41360 0.74400
C20 C 0.4566(18) 0.4476(6) 0.7585(6)
H19 H 0.49230 0.47050 0.79740
C21 C 0.2673(18) 0.4485(6) 0.7352(6)
H20 H 0.17010 0.47090 0.75820
C22 C 0.2110(16) 0.4170(5) 0.6778(5)
H21 H 0.07640 0.41880 0.66140
C23 C 0.3980(13) 0.2451(5) 0.5114(4)
H22 H 0.49110 0.27800 0.49240
C24 C 0.2114(14) 0.2411(6) 0.4649(4)
H23 H 0.24700 0.22120 0.42470
H24 H 0.15740 0.28770 0.45750
H25 H 0.11130 0.21190 0.48290
C25 C 0.5008(16) 0.1747(5) 0.5138(5)
H26 H 0.60590 0.17440 0.54820
H27 H 0.55890 0.16610 0.47350
H28 H 0.40370 0.13850 0.52120
C26 C 0.2716(13) 0.2562(5) 0.7882(4)
C27 C 0.1445(13) 0.2982(5) 0.8282(4)
C28 C 0.2357(15) 0.3433(5) 0.8717(5)
H29 H 0.37630 0.34710 0.87480
C29 C 0.1275(14) 0.3829(5) 0.9106(5)
H30 H 0.19010 0.41440 0.94020
C30 C -0.0769(13) 0.3750(5) 0.9047(4)
C31 C -0.1731(16) 0.3298(6) 0.8636(5)
H31 H -0.31320 0.32460 0.86200
C32 C -0.0588(14) 0.2916(5) 0.8240(4)
H32 H -0.12170 0.26070 0.79390
O8 O 0.5507(9) 0.9772(3) 0.7890(3)
O9 O 0.7563(10) 0.7650(4) 0.7591(3)
O10 O 0.5164(9) 0.6894(3) 0.7293(3)
O11 O 0.4824(8) 0.8234(3) 0.8910(3)
O12 O 0.2296(10) 0.8024(4) 0.9517(3)
O13 O 0.8753(10) 0.5847(4) 1.1241(3)
O14 O 1.1170(13) 0.6265(5) 1.0779(4)
N3 N 0.4227(10) 0.7933(4) 0.7598(3)
N4 N 0.9388(12) 0.6246(4) 1.0857(4)
C33 C 0.6148(13) 0.9072(5) 0.7780(4)
H33 H 0.66090 0.90270 0.73450
C34 C 0.4242(13) 0.8641(5) 0.7841(4)
H34 H 0.31960 0.88870 0.75680
C35 C 0.3522(13) 0.8677(5) 0.8505(4)
H35 H 0.21280 0.85010 0.84980
C36 C 0.3605(14) 0.9425(5) 0.8747(5)
H36 H 0.24110 0.96760 0.85720
H37 H 0.35850 0.94230 0.92140
C37 C 0.5465(14) 0.9806(6) 0.8562(5)
H38 H 0.54280 1.03000 0.87030
C38 C 0.7406(15) 0.9468(5) 0.8814(5)
H39 H 0.72330 0.92090 0.92100
H40 H 0.84660 0.98180 0.88960
C39 C 0.7893(13) 0.8976(5) 0.8277(4)
H41 H 0.91640 0.91040 0.81030
H42 H 0.79780 0.84900 0.84260
C40 C 0.5796(13) 0.7530(5) 0.7508(4)
C41 C 0.3044(13) 0.6833(5) 0.7382(4)
C42 C 0.2359(12) 0.7607(4) 0.7343(4)
H43 H 0.13160 0.76830 0.76470
C43 C 0.2135(13) 0.6364(5) 0.6866(4)
C44 C 0.0094(14) 0.6233(5) 0.6817(5)
H44 H -0.07230 0.64280 0.71170
C45 C -0.0742(16) 0.5823(6) 0.6334(5)
H45 H -0.21340 0.57430 0.62990
C46 C 0.0446(16) 0.5528(6) 0.5900(5)
H46 H -0.01320 0.52460 0.55690
C47 C 0.2437(14) 0.5643(5) 0.5948(5)
H47 H 0.32500 0.54420 0.56500
C48 C 0.3281(14) 0.6055(5) 0.6433(4)
H48 H 0.46770 0.61250 0.64670
C49 C 0.2848(13) 0.6520(5) 0.8038(4)
C50 C 0.1053(16) 0.6522(6) 0.8312(5)
H49 H -0.00480 0.67640 0.81150
C51 C 0.0850(18) 0.6168(6) 0.8878(5)
H50 H -0.03990 0.61560 0.90570
C52 C 0.2459(18) 0.5839(7) 0.9175(6)
H51 H 0.23250 0.56050 0.95630
C53 C 0.4229(18) 0.5844(6) 0.8919(5)
H52 H 0.53350 0.56170 0.91310
C54 C 0.4450(16) 0.6181(5) 0.8346(5)
H53 H 0.56990 0.61780 0.81670
C55 C 0.1586(13) 0.7872(5) 0.6688(4)
H54 H 0.05700 0.75290 0.65190
C56 C 0.3174(15) 0.7898(6) 0.6213(5)
H55 H 0.25580 0.80200 0.57950
H56 H 0.38140 0.74440 0.61920
H57 H 0.41710 0.82470 0.63470
C57 C 0.0536(14) 0.8569(5) 0.6702(5)
H58 H -0.02960 0.86330 0.63070
H59 H 0.15260 0.89400 0.67460
H60 H -0.02980 0.85830 0.70610
C58 C 0.4007(14) 0.7942(5) 0.9401(4)
C59 C 0.5453(13) 0.7526(5) 0.9789(4)
C60 C 0.4805(15) 0.7126(5) 1.0274(4)
H61 H 0.34470 0.71430 1.03620
C61 C 0.6087(14) 0.6706(5) 1.0633(5)
H62 H 0.56330 0.64300 1.09640
C62 C 0.8039(13) 0.6698(5) 1.0498(4)
C63 C 0.8779(15) 0.7099(5) 1.0035(5)
H63 H 1.01510 0.70930 0.99640
C64 C 0.7446(14) 0.7514(5) 0.9674(4)
H64 H 0.79070 0.77920 0.93450
#END
