
#######################################################################
#
#                 Cambridge Crystallographic Data Centre
#                                CCDC
#
#######################################################################
#
# If this CIF has been generated from an entry in the Cambridge
# Structural Database, then it will include bibliographic, chemical,
# crystal, experimental, refinement or atomic coordinate data resulting
# from the CCDC's data processing and validation procedures.
#
#######################################################################

data_CSD_CIF_BUWSET
_audit_creation_date 2015-12-05
_audit_creation_method CSD-ConQuest-V1
_database_code_CSD BUWSET
_database_code_depnum_ccdc_archive 'CCDC 853981'
_chemical_formula_sum 'C18 H18 N2 O4'
_chemical_formula_moiety
;
C18 H18 N2 O4
;
_journal_coden_Cambridge 1287
_journal_volume 26
_journal_year 2014
_journal_page_first 399
_journal_name_full 'Asian J.Chem. '
loop_
_publ_author_name
"Y.Wang"
"D.F.Wu"
"T.Shao"
"J.Men"
"G.W.Gao"
_chemical_name_systematic
;
1,1,3-trimethyl-5-nitro-3-(4-nitrophenyl)indane
;
_cell_volume   3147.722
_exptl_crystal_colour 'colorless'
_exptl_crystal_density_diffrn 1.377
_exptl_crystal_description 'block'
_diffrn_ambient_temperature 113
#These two values have been output from a single CSD field.
_refine_ls_R_factor_gt 0.0485
_refine_ls_wR_factor_gt 0.0485
_symmetry_cell_setting monoclinic
_symmetry_space_group_name_H-M 'P 21/n'
_symmetry_Int_Tables_number 14
loop_
_symmetry_equiv_pos_site_id
_symmetry_equiv_pos_as_xyz
1 x,y,z
2 1/2-x,1/2+y,1/2-z
3 -x,-y,-z
4 -1/2+x,-1/2-y,-1/2+z
_cell_length_a 8.0246(16)
_cell_length_b 29.435(6)
_cell_length_c 13.328(3)
_cell_angle_alpha 90
_cell_angle_beta 90.92(3)
_cell_angle_gamma 90
_cell_formula_units_Z 8
loop_
_atom_type_symbol
_atom_type_radius_bond
C 0.68
H 0.23
N 0.68
O 0.68
loop_
_atom_site_label
_atom_site_type_symbol
_atom_site_fract_x
_atom_site_fract_y
_atom_site_fract_z
O1 O 0.79435(19) 1.06393(5) 0.15453(11)
O2 O 0.60656(17) 1.01357(5) 0.11788(11)
O3 O 0.5240(2) 0.75812(5) 0.36782(12)
O4 O 0.5920(2) 0.70293(5) 0.27256(12)
N1 N 0.7524(2) 1.02509(6) 0.13072(12)
N2 N 0.5927(2) 0.74317(6) 0.29370(12)
C1 C 0.9600(2) 0.91537(6) 0.07710(13)
C2 C 0.8378(2) 0.94835(6) 0.08211(13)
H1 H 0.72890 0.94240 0.06100
C3 C 0.8829(2) 0.99062(6) 0.11962(13)
C4 C 1.0445(2) 1.00133(7) 0.14863(14)
H2 H 1.07090 1.03030 0.17160
C5 C 1.1663(2) 0.96807(7) 0.14282(13)
H3 H 1.27590 0.97460 0.16150
C6 C 1.1233(2) 0.92494(6) 0.10895(13)
C7 C 1.2327(2) 0.88316(6) 0.10219(14)
C8 C 1.1309(2) 0.85347(7) 0.02769(14)
H4 H 1.14560 0.82160 0.04370
H5 H 1.16800 0.85860 -0.04030
C9 C 0.9441(2) 0.86713(6) 0.03711(13)
C10 C 0.8549(2) 0.86706(7) -0.06608(14)
H6 H 0.74120 0.87650 -0.05840
H7 H 0.85750 0.83700 -0.09390
H8 H 0.91030 0.88770 -0.11020
C11 C 1.2474(3) 0.86113(7) 0.20668(15)
H9 H 1.30020 0.88200 0.25250
H10 H 1.31300 0.83390 0.20250
H11 H 1.13820 0.85370 0.23020
C12 C 1.4080(2) 0.89336(7) 0.06490(15)
H12 H 1.40050 0.90820 0.00080
H13 H 1.46890 0.86550 0.05840
H14 H 1.46470 0.91280 0.11200
C13 C 0.8510(2) 0.83508(6) 0.10756(13)
C14 C 0.7764(2) 0.84978(6) 0.19540(13)
H15 H 0.78500 0.88010 0.21400
C15 C 0.6898(2) 0.81991(6) 0.25544(13)
H16 H 0.63840 0.83020 0.31320
C16 C 0.6806(2) 0.77476(6) 0.22858(13)
C17 C 0.7533(2) 0.75875(7) 0.14196(14)
H17 H 0.74540 0.72820 0.12440
C18 C 0.8376(2) 0.78903(7) 0.08232(14)
H18 H 0.88670 0.77860 0.02390
O5 O 0.4032(2) 1.06173(5) 0.67505(12)
O6 O 0.22872(18) 1.00619(5) 0.65644(10)
O7 O 0.4221(2) 0.75994(6) 0.98220(12)
O8 O 0.5998(2) 0.71286(5) 0.92183(12)
N3 N 0.3710(2) 1.02156(6) 0.65627(12)
N4 N 0.5215(2) 0.74837(6) 0.91789(13)
C19 C 0.6044(2) 0.91647(6) 0.59701(13)
C20 C 0.4734(2) 0.94508(6) 0.61988(13)
H19 H 0.36550 0.93400 0.62590
C21 C 0.5086(2) 0.99080(6) 0.63349(13)
C22 C 0.6675(2) 1.00878(7) 0.62446(13)
H20 H 0.68660 1.03960 0.63420
C23 C 0.7975(2) 0.97976(7) 0.60053(13)
H21 H 0.90520 0.99090 0.59440
C24 C 0.7650(2) 0.93400(6) 0.58595(13)
C25 C 0.8863(2) 0.89712(6) 0.55576(14)
C26 C 0.7649(2) 0.86093(7) 0.51543(14)
H22 H 0.81170 0.83080 0.52530
H23 H 0.74430 0.86540 0.44420
C27 C 0.5994(2) 0.86561(6) 0.57389(13)
C28 C 0.4472(2) 0.85302(7) 0.50821(14)
H24 H 0.34740 0.85740 0.54570
H25 H 0.45530 0.82180 0.48810
H26 H 0.44400 0.87210 0.44970
C29 C 0.9852(2) 0.88096(7) 0.64879(14)
H27 H 1.05220 0.90550 0.67440
H28 H 1.05590 0.85610 0.63070
H29 H 0.90920 0.87120 0.69940
C30 C 1.0079(2) 0.91203(7) 0.47514(15)
H30 H 0.94690 0.92480 0.41940
H31 H 1.07040 0.88620 0.45290
H32 H 1.08280 0.93440 0.50250
C31 C 0.5909(2) 0.83594(6) 0.66920(14)
C32 C 0.4933(2) 0.84909(7) 0.74973(14)
H33 H 0.44300 0.87750 0.74880
C33 C 0.4697(2) 0.82081(7) 0.83089(14)
H34 H 0.40270 0.82980 0.88360
C34 C 0.5471(2) 0.77893(6) 0.83260(14)
C35 C 0.6466(2) 0.76502(7) 0.75507(15)
H35 H 0.69940 0.73690 0.75750
C36 C 0.6666(3) 0.79344(7) 0.67382(15)
H36 H 0.73220 0.78400 0.62090
#END
