
#######################################################################
#
#                 Cambridge Crystallographic Data Centre
#                                CCDC
#
#######################################################################
#
# If this CIF has been generated from an entry in the Cambridge
# Structural Database, then it will include bibliographic, chemical,
# crystal, experimental, refinement or atomic coordinate data resulting
# from the CCDC's data processing and validation procedures.
#
#######################################################################

data_CSD_CIF_BUWSAP
_audit_creation_date 2015-12-05
_audit_creation_method CSD-ConQuest-V1
_database_code_CSD BUWSAP
_database_code_depnum_ccdc_archive 'CCDC 853982'
_chemical_formula_sum 'C18 H18 N2 O4'
_chemical_formula_moiety
;
C18 H18 N2 O4
;
_journal_coden_Cambridge 1287
_journal_volume 26
_journal_year 2014
_journal_page_first 399
_journal_name_full 'Asian J.Chem. '
loop_
_publ_author_name
"Y.Wang"
"D.F.Wu"
"T.Shao"
"J.Men"
"G.W.Gao"
_chemical_name_systematic
;
1,3,3-trimethyl-5-nitro-1-(4-nitrophenyl)indane
;
_cell_volume   1608.224
_exptl_crystal_colour 'colorless'
_exptl_crystal_density_diffrn 1.348
_exptl_crystal_description 'block'
_diffrn_ambient_temperature 291
#These two values have been output from a single CSD field.
_refine_ls_R_factor_gt 0.0509
_refine_ls_wR_factor_gt 0.0509
_symmetry_cell_setting monoclinic
_symmetry_space_group_name_H-M 'P 21/c'
_symmetry_Int_Tables_number 14
loop_
_symmetry_equiv_pos_site_id
_symmetry_equiv_pos_as_xyz
1 x,y,z
2 -x,1/2+y,1/2-z
3 -x,-y,-z
4 x,-1/2-y,-1/2+z
_cell_length_a 9.501(4)
_cell_length_b 16.660(4)
_cell_length_c 12.732(4)
_cell_angle_alpha 90
_cell_angle_beta 127.06(4)
_cell_angle_gamma 90
_cell_formula_units_Z 4
loop_
_atom_type_symbol
_atom_type_radius_bond
C 0.68
H 0.23
N 0.68
O 0.68
loop_
_atom_site_label
_atom_site_type_symbol
_atom_site_fract_x
_atom_site_fract_y
_atom_site_fract_z
O1 O -0.1608(3) 0.43498(15) 0.21905(19)
O2 O -0.0634(3) 0.55328(16) 0.24423(19)
O3 O 1.2259(3) 0.26135(13) 0.9084(3)
O4 O 1.0376(3) 0.23932(16) 0.7007(3)
N1 N -0.0548(3) 0.48721(17) 0.2861(2)
N2 N 1.0762(3) 0.26353(14) 0.8052(3)
C1 C 0.0916(3) 0.46912(14) 0.4239(2)
C2 C 0.2209(3) 0.52582(14) 0.4971(2)
H1 H 0.21440 0.57590 0.46220
C3 C 0.3614(3) 0.50563(13) 0.6245(2)
C4 C 0.3701(3) 0.43113(13) 0.6746(2)
C5 C 0.2336(3) 0.37612(14) 0.6008(2)
H2 H 0.23750 0.32670 0.63630
C6 C 0.0922(3) 0.39603(14) 0.4739(2)
H3 H -0.00120 0.36040 0.42320
C7 C 0.5404(3) 0.41990(14) 0.81148(19)
C8 C 0.5952(3) 0.50857(14) 0.8520(2)
H4 H 0.54850 0.52870 0.89690
H5 H 0.72270 0.51310 0.91110
C9 C 0.5196(3) 0.55744(14) 0.7250(2)
C10 C 0.5120(4) 0.37639(17) 0.9037(2)
H6 H 0.42480 0.40450 0.90490
H7 H 0.62110 0.37490 0.99100
H8 H 0.47250 0.32260 0.87280
C11 C 0.6492(3) 0.56185(17) 0.6910(3)
H9 H 0.59310 0.58760 0.60720
H10 H 0.68430 0.50860 0.68710
H11 H 0.75120 0.59210 0.75740
C12 C 0.4650(4) 0.64178(15) 0.7334(3)
H12 H 0.41740 0.66980 0.65260
H13 H 0.56600 0.67020 0.80500
H14 H 0.37710 0.63850 0.74800
C13 C 0.6773(3) 0.37386(13) 0.8082(2)
C14 C 0.6379(3) 0.33501(14) 0.6974(2)
H15 H 0.52170 0.33440 0.62170
C15 C 0.7654(3) 0.29723(15) 0.6957(2)
H16 H 0.73630 0.27140 0.62030
C16 C 0.9366(3) 0.29850(14) 0.8080(3)
C17 C 0.9793(3) 0.33318(16) 0.9214(2)
H17 H 1.09480 0.33130 0.99790
C18 C 0.8511(3) 0.37059(16) 0.9213(2)
H18 H 0.88060 0.39430 0.99840
#END
