
#######################################################################
#
#                 Cambridge Crystallographic Data Centre
#                                CCDC
#
#######################################################################
#
# If this CIF has been generated from an entry in the Cambridge
# Structural Database, then it will include bibliographic, chemical,
# crystal, experimental, refinement or atomic coordinate data resulting
# from the CCDC's data processing and validation procedures.
#
#######################################################################

data_CSD_CIF_BUXDOO
_audit_creation_date 2011-01-20
_audit_creation_method CSD-ConQuest-V1
_database_code_CSD BUXDOO
_database_code_depnum_ccdc_archive 'CCDC 710058'
_chemical_formula_sum 'C30 H45 N1 O7'
_chemical_formula_moiety
;
C30 H45 N1 O7
;
_journal_coden_Cambridge 200
_journal_volume 75
_journal_year 2010
_journal_page_first 184
_journal_name_full 'Steroids '
loop_
_publ_author_name
"S.V.Drach"
"V.A.Khripach"
"R.P.Litvinovskaya"
"A.S.Lyakhov"
"B.Schneider"
"H.A.Zhylitskaya"
_chemical_name_systematic
;
(2\b,3\b,9\a,14\a,5'R,20R)-9,14,20-Trihydroxy-20-(3'-isopropylisoxazolin-5'-yl
)-2,3-isopropylidenedioxy-5\b-pregn-7-en-6-one
;
_chemical_name_common
;
3a,10b-Dihydroxy-1-(1-hydroxy-1-(3-isopropyl-4,5-dihydro-1,2-oxazol-5-yl)ethyl
)-8,8,10a,12a-tetramethyl-1,2,3,3a,5a,6,6a,9a,10,10a,10b,11,12,12a-tetradecahy
dro-5H-cyclopenta[7,8]phenanthro[2,3-d][1,3]dioxol-5-one
;
_cell_volume   2842.960
_exptl_crystal_density_diffrn 1.242
_exptl_crystal_description 'prism'
_diffrn_ambient_temperature 292
_refine_special_details
;
C24B and C24A disordered over two sites with occupancies 0.763:0.237.

;
#These two values have been output from a single CSD field.
_refine_ls_R_factor_gt 0.0587
_refine_ls_wR_factor_gt 0.0587
_symmetry_cell_setting orthorhombic
_symmetry_space_group_name_H-M 'P 21 21 21'
_symmetry_Int_Tables_number 19
loop_
_symmetry_equiv_pos_site_id
_symmetry_equiv_pos_as_xyz
1 x,y,z
2 1/2-x,-y,1/2+z
3 -x,1/2+y,1/2-z
4 1/2+x,1/2-y,-z
_cell_length_a 11.659(2)
_cell_length_b 12.075(2)
_cell_length_c 20.194(4)
_cell_angle_alpha 90
_cell_angle_beta 90
_cell_angle_gamma 90
_cell_formula_units_Z 4
loop_
_atom_type_symbol
_atom_type_radius_bond
C 0.68
H 0.23
N 0.68
O 0.68
loop_
_atom_site_label
_atom_site_type_symbol
_atom_site_fract_x
_atom_site_fract_y
_atom_site_fract_z
C1 C 0.6040(3) 0.1819(3) 0.58668(19)
H1 H 0.62840 0.15460 0.62960
H2 H 0.67230 0.19040 0.55970
C2 C 0.5511(3) 0.2959(4) 0.59652(19)
H3 H 0.55350 0.33840 0.55520
O1 O 0.6133(2) 0.3530(3) 0.64815(15)
C3 C 0.4293(4) 0.2928(4) 0.6241(2)
H4 H 0.39160 0.36400 0.61580
O2 O 0.4512(3) 0.2815(3) 0.69358(14)
C4 C 0.3533(4) 0.2002(4) 0.6003(2)
H5 H 0.32150 0.22040 0.55760
H6 H 0.29000 0.19170 0.63100
C5 C 0.4153(3) 0.0887(3) 0.59354(18)
H7 H 0.43390 0.06330 0.63840
C6 C 0.3331(4) 0.0055(4) 0.5639(2)
O3 O 0.2648(3) -0.0462(3) 0.59862(17)
C7 C 0.3341(4) -0.0073(4) 0.4918(2)
H8 H 0.27800 -0.05150 0.47250
C8 C 0.4108(3) 0.0409(3) 0.45266(17)
C9 C 0.5055(3) 0.1159(3) 0.47946(17)
O4 O 0.4647(3) 0.2276(2) 0.47604(13)
H9 H 0.44810 0.24270 0.43760
C10 C 0.5280(3) 0.0932(3) 0.55451(17)
C11 C 0.6164(3) 0.1080(4) 0.43950(19)
H10 H 0.65700 0.04150 0.45290
H11 H 0.66440 0.17090 0.45050
C12 C 0.5997(3) 0.1051(4) 0.36349(18)
H12 H 0.56770 0.17490 0.34860
H13 H 0.67330 0.09480 0.34200
C13 C 0.5190(3) 0.0103(3) 0.34454(17)
C14 C 0.4023(3) 0.0341(3) 0.37687(17)
O5 O 0.3646(2) 0.1437(2) 0.35586(14)
H14 H 0.29430 0.14600 0.35570
C15 C 0.3234(3) -0.0520(3) 0.34614(19)
H15 H 0.24370 -0.02970 0.34940
H16 H 0.33290 -0.12370 0.36710
C16 C 0.3641(4) -0.0546(4) 0.2729(2)
H17 H 0.30960 -0.01610 0.24490
H18 H 0.37060 -0.13050 0.25760
C17 C 0.4831(3) 0.0037(3) 0.27035(17)
H19 H 0.46940 0.07980 0.25550
C18 C 0.5645(4) -0.1010(4) 0.3695(2)
H20 H 0.55740 -0.10410 0.41680
H21 H 0.64370 -0.10860 0.35730
H22 H 0.52080 -0.16000 0.35000
C19 C 0.5873(4) -0.0191(4) 0.5640(2)
H23 H 0.58890 -0.03730 0.61030
H24 H 0.66430 -0.01510 0.54740
H25 H 0.54570 -0.07520 0.54040
C20 C 0.5650(4) -0.0493(4) 0.22017(18)
O6 O 0.5688(4) -0.1663(3) 0.23201(15)
H26 H 0.60680 -0.19640 0.20300
C21 C 0.6850(4) -0.0008(5) 0.2231(2)
H27 H 0.72180 -0.02360 0.26340
H28 H 0.68050 0.07860 0.22180
H29 H 0.72870 -0.02660 0.18590
C22 C 0.5585(5) 0.1602(5) 0.0034(2)
H30 H 0.56360 0.23140 0.02650
C23 C 0.4505(6) 0.1599(6) -0.0331(4)
H31 H 0.44720 0.22380 -0.06140
H32 H 0.38750 0.16180 -0.00250
H33 H 0.44570 0.09400 -0.05960
C24 C 0.6579(6) 0.1537(8) -0.0421(5)
H34 H 0.65860 0.21760 -0.07030
H35 H 0.65190 0.08800 -0.06860
H36 H 0.72760 0.15130 -0.01670
C25 C 0.5470(4) 0.3495(4) 0.7081(2)
C26 C 0.6150(6) 0.2945(6) 0.7620(3)
H37 H 0.56650 0.28220 0.79980
H38 H 0.67800 0.34130 0.77450
H39 H 0.64390 0.22490 0.74630
C27 C 0.5111(6) 0.4662(5) 0.7255(3)
H40 H 0.47190 0.49880 0.68850
H41 H 0.57780 0.50940 0.73590
H42 H 0.46070 0.46450 0.76310
O7 O 0.5902(3) -0.0910(2) 0.10371(14)
N1 N 0.6047(4) -0.0225(4) 0.04661(17)
C28 C 0.5584(4) 0.0707(4) 0.0557(2)
C29 C 0.5073(4) 0.0843(4) 0.1224(2)
H43 H 0.42850 0.10950 0.11970
H44 H 0.55120 0.13600 0.14910
C30 C 0.5146(4) -0.0329(3) 0.15000(18)
H45 H 0.43830 -0.06670 0.14830
C31? C 0.6599(18) 0.2206(18) 0.0088(13)
H46? H 0.59360 0.10990 -0.02880
H47? H 0.72420 0.17110 0.00630
H48? H 0.66110 0.25890 0.05040
H49? H 0.66410 0.27330 -0.02670
#END
