
#######################################################################
#
#                 Cambridge Crystallographic Data Centre
#                                CCDC
#
#######################################################################
#
# If this CIF has been generated from an entry in the Cambridge
# Structural Database, then it will include bibliographic, chemical,
# crystal, experimental, refinement or atomic coordinate data resulting
# from the CCDC's data processing and validation procedures.
#
#######################################################################

data_CSD_CIF_BUXJAH
_audit_creation_date 2015-12-07
_audit_creation_method CSD-ConQuest-V1
_database_code_CSD BUXJAH
_database_code_depnum_ccdc_archive 'CCDC 1440852'
_chemical_formula_sum 'C8 H3 N3 O2'
_chemical_formula_moiety
;
C8 H3 N3 O2
;
_journal_coden_Cambridge 1078
_journal_year 2015
_journal_name_full 'CSD Communication(Private Communication) '
loop_
_publ_author_name
"E.Inkaya"
_chemical_name_systematic
;
3-nitrophthalonitrile
;
_cell_volume   1565.223
_exptl_crystal_colour 'colorless'
_exptl_crystal_density_diffrn 1.469
_exptl_crystal_description 'prism'
_diffrn_ambient_temperature 296
#These two values have been output from a single CSD field.
_refine_ls_R_factor_gt 0.0635
_refine_ls_wR_factor_gt 0.0635
_symmetry_cell_setting orthorhombic
_symmetry_space_group_name_H-M 'P 21 21 21'
_symmetry_Int_Tables_number 19
loop_
_symmetry_equiv_pos_site_id
_symmetry_equiv_pos_as_xyz
1 x,y,z
2 1/2-x,-y,1/2+z
3 1/2+x,1/2-y,-z
4 -x,1/2+y,1/2-z
_cell_length_a 6.2575(5)
_cell_length_b 8.8306(8)
_cell_length_c 28.326(2)
_cell_angle_alpha 90
_cell_angle_beta 90
_cell_angle_gamma 90
_cell_formula_units_Z 8
loop_
_atom_type_symbol
_atom_type_radius_bond
C 0.68
H 0.23
N 0.68
O 0.68
loop_
_atom_site_label
_atom_site_type_symbol
_atom_site_fract_x
_atom_site_fract_y
_atom_site_fract_z
C1 C 0.3230(7) 0.5230(4) 0.03704(13)
C2 C 0.4987(6) 0.4260(4) 0.04192(12)
N1 N 0.6741(6) 0.2238(4) 0.08827(14)
C3 C 0.5038(6) 0.3344(4) 0.08186(12)
C4 C 0.3045(8) 0.6175(5) -0.00450(16)
C5 C 0.3482(7) 0.3414(5) 0.11589(14)
H1 H 0.35810 0.28020 0.14250
C6 C 0.6615(7) 0.4251(5) 0.00679(14)
O1 O 0.8212(7) 0.2190(6) 0.06024(18)
C7 C 0.1655(7) 0.5291(5) 0.07112(14)
H2 H 0.05040 0.59470 0.06730
C8 C 0.1777(7) 0.4383(5) 0.11090(14)
H3 H 0.07200 0.44280 0.13390
N2 N 0.7886(7) 0.4360(6) -0.02229(15)
O2 O 0.6668(8) 0.1342(5) 0.12070(14)
N3 N 0.2783(10) 0.6895(6) -0.03528(19)
C9 C 0.3283(7) 0.7874(4) 0.20843(13)
C10 C 0.1405(7) 0.8707(5) 0.21475(13)
C11 C 0.4186(7) 0.7855(5) 0.16375(15)
N4 N 0.0394(7) 0.8762(5) 0.26101(14)
C12 C 0.1401(9) 0.9465(5) 0.13478(17)
H4 H 0.07840 1.00060 0.11010
C13 C 0.0471(7) 0.9484(5) 0.17810(16)
H5 H -0.07900 1.00200 0.18290
C14 C 0.6080(9) 0.6981(7) 0.15536(18)
C15 C 0.4356(8) 0.7095(5) 0.24615(17)
C16 C 0.3237(9) 0.8658(5) 0.12703(15)
H6 H 0.38520 0.86460 0.09710
O3 O 0.1112(10) 0.8037(6) 0.29316(13)
N5 N 0.5361(10) 0.6443(7) 0.27266(19)
O4 O -0.1120(9) 0.9595(7) 0.26718(16)
N6 N 0.7487(9) 0.6290(7) 0.1464(3)
#END
