
#######################################################################
#
#                 Cambridge Crystallographic Data Centre
#                                CCDC
#
#######################################################################
#
# If this CIF has been generated from an entry in the Cambridge
# Structural Database, then it will include bibliographic, chemical,
# crystal, experimental, refinement or atomic coordinate data resulting
# from the CCDC's data processing and validation procedures.
#
#######################################################################

data_CSD_CIF_BUXMAJ
_audit_creation_date 2011-02-04
_audit_creation_method CSD-ConQuest-V1
_database_code_CSD BUXMAJ
_database_code_depnum_ccdc_archive 'CCDC 777612'
_chemical_formula_sum 'C33 H24 N2 O5'
_chemical_formula_moiety
;
C33 H24 N2 O5
;
_journal_coden_Cambridge 24
_journal_volume 51
_journal_year 2010
_journal_page_first 4734
_journal_name_full 'Tetrahedron Lett. '
loop_
_publ_author_name
"Y.Sarrafi"
"M.Hamzehlouian"
"K.Alimohammadi"
"H.R.Khavasi"
_chemical_name_systematic
;
2'-(2-Nitrobenzoyl)-1'-phenyl-1',5',6',10b'-tetrahydro-2'H-spiro[indene-2,3'-p
yrrolo[2,1-a]isoquinoline]-1,3-dione
;
_cell_volume   2620.614
_exptl_crystal_colour 'orange'
_exptl_crystal_density_diffrn 1.34
_exptl_crystal_description 'block'
_diffrn_ambient_temperature 298
#These two values have been output from a single CSD field.
_refine_ls_R_factor_gt 0.094
_refine_ls_wR_factor_gt 0.094
_symmetry_cell_setting monoclinic
_symmetry_space_group_name_H-M 'P 21/c'
_symmetry_Int_Tables_number 14
loop_
_symmetry_equiv_pos_site_id
_symmetry_equiv_pos_as_xyz
1 x,y,z
2 -x,1/2+y,1/2-z
3 -x,-y,-z
4 x,-1/2-y,-1/2+z
_cell_length_a 16.405(2)
_cell_length_b 14.440(2)
_cell_length_c 11.1202(14)
_cell_angle_alpha 90
_cell_angle_beta 95.831(11)
_cell_angle_gamma 90
_cell_formula_units_Z 4
loop_
_atom_type_symbol
_atom_type_radius_bond
C 0.68
H 0.23
N 0.68
O 0.68
loop_
_atom_site_label
_atom_site_type_symbol
_atom_site_fract_x
_atom_site_fract_y
_atom_site_fract_z
C1 C 0.0949(2) 0.4753(3) 0.7183(3)
H1 H 0.06580 0.42410 0.75070
H2 H 0.11850 0.45420 0.64660
C2 C 0.0376(3) 0.5553(4) 0.6877(4)
H3 H 0.06350 0.59870 0.63690
H4 H -0.01180 0.53240 0.64180
C3 C 0.0145(2) 0.6053(3) 0.7981(3)
C4 C -0.0546(2) 0.6625(3) 0.7882(5)
H5 H -0.08500 0.66940 0.71350
C5 C -0.0783(3) 0.7084(3) 0.8862(5)
H6 H -0.12350 0.74760 0.87770
C6 C -0.0350(2) 0.6964(3) 0.9972(5)
H7 H -0.05110 0.72710 1.06440
C7 C 0.0324(2) 0.6389(2) 1.0092(4)
H8 H 0.06050 0.63000 1.08520
C8 C 0.05914(18) 0.5941(2) 0.9103(3)
C9 C 0.13298(16) 0.5309(2) 0.9252(3)
H9 H 0.11870 0.47370 0.96570
C10 C 0.21304(15) 0.57005(19) 0.9886(2)
H10 H 0.22370 0.63000 0.95220
C11 C 0.21525(17) 0.5828(2) 1.1233(3)
C12 C 0.2208(2) 0.6712(3) 1.1716(4)
H11 H 0.22660 0.72180 1.12130
C13 C 0.2177(3) 0.6847(5) 1.2945(5)
H12 H 0.22150 0.74440 1.32580
C14 C 0.2092(4) 0.6129(7) 1.3689(5)
H13 H 0.20570 0.62310 1.45080
C15 C 0.2056(3) 0.5246(5) 1.3236(4)
H14 H 0.20150 0.47460 1.37540
C16 C 0.2080(2) 0.5095(3) 1.2007(3)
H15 H 0.20480 0.44940 1.17040
C17 C 0.27505(15) 0.4990(2) 0.9484(2)
H16 H 0.27140 0.44440 0.99990
C18 C 0.36449(17) 0.5258(2) 0.9570(3)
C19 C 0.39456(16) 0.6068(2) 1.0348(3)
C20 C 0.39006(19) 0.6932(2) 0.9818(3)
H17 H 0.36850 0.69940 0.90160
C21 C 0.4173(2) 0.7708(2) 1.0470(4)
H18 H 0.41310 0.82880 1.01070
C22 C 0.4507(2) 0.7626(3) 1.1649(4)
H19 H 0.46880 0.81510 1.20820
C23 C 0.45736(19) 0.6771(2) 1.2190(3)
H20 H 0.48120 0.67100 1.29820
C24 C 0.42828(16) 0.6005(2) 1.1545(3)
C25 C 0.24014(17) 0.4696(2) 0.8182(3)
C26 C 0.24588(17) 0.3639(2) 0.8004(3)
C27 C 0.29328(16) 0.3466(2) 0.6968(3)
C28 C 0.31719(19) 0.2624(2) 0.6512(3)
H21 H 0.30440 0.20670 0.68680
C29 C 0.3604(2) 0.2646(2) 0.5515(3)
H22 H 0.37750 0.20930 0.51930
C30 C 0.3789(2) 0.3471(3) 0.4985(3)
H23 H 0.40650 0.34640 0.42940
C31 C 0.3575(2) 0.4306(2) 0.5458(3)
H24 H 0.37170 0.48620 0.51130
C32 C 0.31434(18) 0.4294(2) 0.6458(3)
C33 C 0.28625(19) 0.5084(2) 0.7152(3)
O1 O 0.46487(18) 0.5078(2) 1.3197(2)
O2 O 0.40344(15) 0.44451(16) 1.1615(2)
O3 O 0.41031(13) 0.4873(2) 0.8951(2)
O4 O 0.21473(15) 0.30672(16) 0.8603(2)
O5 O 0.29417(17) 0.58961(16) 0.6936(2)
N1 N 0.15826(15) 0.5086(2) 0.8071(2)
N2 N 0.43269(15) 0.51130(19) 1.2158(3)
#END
