
#######################################################################
#
#                 Cambridge Crystallographic Data Centre
#                                CCDC
#
#######################################################################
#
# If this CIF has been generated from an entry in the Cambridge
# Structural Database, then it will include bibliographic, chemical,
# crystal, experimental, refinement or atomic coordinate data resulting
# from the CCDC's data processing and validation procedures.
#
#######################################################################

data_CSD_CIF_BUXWOI
_audit_creation_date 2015-12-07
_audit_creation_method CSD-ConQuest-V1
_database_code_CSD BUXWOI
_database_code_depnum_ccdc_archive 'CCDC 1440884'
_chemical_formula_sum 'C24 H23 N1 O8'
_chemical_formula_moiety
;
C24 H23 N1 O8
;
_journal_coden_Cambridge 1291
_journal_year 2015
_journal_page_first 7670
_journal_name_full 'Eur.J.Org.Chem. '
loop_
_publ_author_name
"H.Shigehisa"
"H.Kikuchi"
"T.Suzuki"
"K.Hiroya"
_chemical_name_systematic
;
4-methyl-16-oxo-5,11,19-trioxapentacyclo[8.7.1.1^3,6^.0^6,18^.0^12,17^]nonadec
a-10(18),12(17)-dien-15-yl 4-nitrobenzoate
;
_cell_volume   1063.002
_exptl_crystal_colour 'colorless'
_exptl_crystal_density_diffrn 1.417
_exptl_crystal_description 'plate'
_diffrn_ambient_temperature 200
#These two values have been output from a single CSD field.
_refine_ls_R_factor_gt 0.0346
_refine_ls_wR_factor_gt 0.0346
_symmetry_cell_setting monoclinic
_symmetry_space_group_name_H-M 'P 21'
_symmetry_Int_Tables_number 4
loop_
_symmetry_equiv_pos_site_id
_symmetry_equiv_pos_as_xyz
1 x,y,z
2 -x,1/2+y,-z
_cell_length_a 5.8132(6)
_cell_length_b 10.1364(11)
_cell_length_c 18.251(2)
_cell_angle_alpha 90
_cell_angle_beta 98.722(1)
_cell_angle_gamma 90
_cell_formula_units_Z 2
loop_
_atom_type_symbol
_atom_type_radius_bond
C 0.68
H 0.23
N 0.68
O 0.68
loop_
_atom_site_label
_atom_site_type_symbol
_atom_site_fract_x
_atom_site_fract_y
_atom_site_fract_z
C1 C 0.9600(3) 0.34943(19) 0.42820(9)
C2 C 0.8082(3) 0.44802(19) 0.39995(10)
H1 H 0.81660 0.48580 0.35280
C3 C 0.6446(3) 0.49011(19) 0.44186(10)
H2 H 0.53730 0.55740 0.42350
C4 C 0.6356(3) 0.43412(16) 0.51141(9)
C5 C 0.7929(3) 0.33655(18) 0.53856(9)
H3 H 0.78770 0.29940 0.58610
C6 C 0.9570(3) 0.29316(18) 0.49673(10)
H4 H 1.06520 0.22620 0.51480
C7 C 0.4484(3) 0.47955(18) 0.55279(10)
C8 C 0.3052(3) 0.47190(19) 0.66748(10)
H5 H 0.17130 0.51410 0.63500
C9 C 0.2209(3) 0.34632(18) 0.70123(9)
C10 C 0.1030(3) 0.36409(17) 0.76596(9)
C11 C 0.1049(3) 0.48323(18) 0.79808(10)
C12 C 0.2223(4) 0.60420(19) 0.77452(12)
H6 H 0.29650 0.65260 0.81900
H7 H 0.10450 0.66290 0.74640
C13 C 0.4066(4) 0.5692(2) 0.72633(11)
H8 H 0.45720 0.64990 0.70270
H9 H 0.54410 0.53000 0.75740
C14 C -0.0038(3) 0.24435(16) 0.79726(9)
H10 H 0.12410 0.18150 0.81610
C15 C -0.1217(3) 0.28659(17) 0.86162(9)
C16 C -0.1243(3) 0.40877(18) 0.88629(9)
C17 C -0.2659(3) 0.18046(17) 0.89097(9)
C18 C -0.3622(4) 0.2199(2) 0.96002(10)
H11 H -0.23890 0.21100 1.00360
H12 H -0.49120 0.15980 0.96720
C19 C -0.4511(4) 0.3618(2) 0.95506(11)
H13 H -0.51440 0.38420 1.00090
H14 H -0.57890 0.36990 0.91280
C20 C -0.2567(3) 0.4587(2) 0.94482(10)
H15 H -0.32430 0.54620 0.93020
H16 H -0.15000 0.46890 0.99220
C21 C -0.1858(3) 0.17013(17) 0.74170(9)
H17 H -0.29350 0.23430 0.71370
H18 H -0.10620 0.12100 0.70590
C22 C -0.3232(3) 0.07421(18) 0.78288(9)
H19 H -0.43320 0.02100 0.74710
C23 C -0.1697(4) -0.01592(19) 0.83701(10)
H20 H -0.01860 -0.03290 0.81880
C24 C -0.2841(4) -0.1456(2) 0.85262(12)
H21 H -0.19170 -0.18890 0.89530
H22 H -0.29320 -0.20310 0.80910
H23 H -0.44130 -0.12850 0.86360
N1 N 1.1339(3) 0.30312(17) 0.38337(9)
O1 O 1.2633(4) 0.21425(19) 0.40766(11)
O2 O 1.1427(3) 0.35586(18) 0.32400(8)
O3 O 0.2881(2) 0.54616(16) 0.52581(8)
O4 O 0.4795(2) 0.43498(12) 0.62291(7)
O5 O 0.2446(2) 0.23899(12) 0.67333(6)
O6 O -0.0009(2) 0.51094(12) 0.85812(7)
O7 O -0.1313(2) 0.06191(13) 0.90411(6)
O8 O -0.44785(19) 0.14636(13) 0.83284(6)
#END
