
#######################################################################
#
#                 Cambridge Crystallographic Data Centre
#                                CCDC
#
#######################################################################
#
# If this CIF has been generated from an entry in the Cambridge
# Structural Database, then it will include bibliographic, chemical,
# crystal, experimental, refinement or atomic coordinate data resulting
# from the CCDC's data processing and validation procedures.
#
#######################################################################

data_CSD_CIF_BUYJAG
_audit_creation_date 1984-02-21
_audit_creation_method CSD-ConQuest-V1
_database_code_CSD BUYJAG
_database_code_depnum_ccdc_archive 'CCDC 1117787'
_chemical_formula_sum 'C10 H18 N2 O6'
_chemical_formula_moiety
;
C10 H18 N2 O6
;
_journal_coden_Cambridge 7
_journal_volume 56
_journal_year 1983
_journal_page_first 2112
_journal_name_full 'Bull.Chem.Soc.Jpn. '
loop_
_publ_author_name
"N.Hirayama"
"M.Kasai"
"K.Shirahata"
"Y.Ohashi"
"Y.Sasada"
_chemical_name_systematic
;
Methyl 
2,3,4,6-tetradeoxy-4-(methoxycarbonylamino)-3-C-methyl-3-nitro-D-xylo-hexopyra
noside
;
_chemical_name_common
;
Methyl D-tetronitroside
;
_cell_volume   1359.360
_exptl_crystal_density_diffrn 1.282
_diffrn_ambient_temperature ?
_diffrn_special_details
;
The study was carried out at room temperature,in the range 283-303K

;
#These two values have been output from a single CSD field.
_refine_ls_R_factor_gt 0.079
_refine_ls_wR_factor_gt 0.079
_symmetry_cell_setting monoclinic
_symmetry_space_group_name_H-M 'P 21'
_symmetry_Int_Tables_number 4
loop_
_symmetry_equiv_pos_site_id
_symmetry_equiv_pos_as_xyz
1 x,y,z
2 -x,1/2+y,-z
_cell_length_a 11.782(3)
_cell_length_b 10.271(2)
_cell_length_c 11.636(3)
_cell_angle_alpha 90
_cell_angle_beta 105.12(4)
_cell_angle_gamma 90
_cell_formula_units_Z 4
loop_
_atom_type_symbol
_atom_type_radius_bond
C 0.68
H 0.23
N 0.68
O 0.68
loop_
_atom_site_label
_atom_site_type_symbol
_atom_site_fract_x
_atom_site_fract_y
_atom_site_fract_z
O1 O 0.57930 0.41540 0.17610
O2 O 0.56820 0.49190 0.59170
O3 O 0.73350 0.58590 0.57190
O4 O 0.24900 0.44510 0.13290
O5 O 0.24930 0.43580 0.31470
O6 O 0.54080 0.54420 0.01090
N1 N 0.60350 0.51840 0.41030
N2 N 0.29310 0.47210 0.23520
C1 C 0.48920 0.48700 0.09370
C2 C 0.44280 0.59310 0.15920
C3 C 0.40920 0.54980 0.27000
C4 C 0.50030 0.45370 0.34380
C5 C 0.53160 0.35070 0.26230
C6 C 0.61710 0.24890 0.32500
C7 C 0.55790 0.45550 -0.07660
C8 C 0.63030 0.52960 0.53110
C9 C 0.77600 0.59740 0.70110
C10 C 0.38510 0.66620 0.34190
H1 H 0.42500 0.43300 0.04900
H2 H 0.50200 0.65200 0.18500
H3 H 0.38100 0.62800 0.10400
H4 H 0.46600 0.41400 0.39500
H5 H 0.45800 0.31700 0.21900
H6 H 0.58100 0.20100 0.37500
H7 H 0.70500 0.27900 0.37900
H8 H 0.63500 0.19000 0.26600
H9 H 0.48400 0.42100 -0.11800
H10 H 0.62600 0.41500 -0.05300
H11 H 0.58200 0.49400 -0.14900
H12 H 0.77700 0.50800 0.73600
H13 H 0.85500 0.64700 0.71400
H14 H 0.72000 0.65400 0.73300
H15 H 0.44400 0.70500 0.37200
H16 H 0.32100 0.70700 0.29800
H17 H 0.35900 0.63000 0.41200
H18 H 0.65300 0.55100 0.38400
O7 O 0.82130 0.64010 0.33840
O8 O 0.98160 0.27500 0.17440
O9 O 0.78980 0.22750 0.14120
O10 O 1.00010 0.85040 0.15750
O11 O 1.10620 0.68650 0.16340
O12 O 0.69430 0.80730 0.27220
N3 N 0.84740 0.42990 0.18120
N4 N 1.01270 0.73670 0.15390
C11 C 0.80240 0.75720 0.26790
C12 C 0.79710 0.72320 0.13960
C13 C 0.90350 0.64610 0.12690
C14 C 0.93200 0.53410 0.21900
C15 C 0.93330 0.58360 0.34280
C16 C 0.95490 0.48010 0.43610
C17 C 0.69600 0.87110 0.38020
C18 C 0.88270 0.30810 0.16710
C19 C 0.81700 0.09100 0.13830
C20 C 0.88880 0.60000 -0.00020
H19 H 0.86500 0.82000 0.30000
H20 H 0.72900 0.67200 0.11000
H21 H 0.79000 0.80300 0.09500
H22 H 1.00500 0.50500 0.22400
H23 H 0.99100 0.66200 0.36400
H24 H 0.95400 0.46300 0.49700
H25 H 1.02700 0.45600 0.44200
H26 H 0.87800 0.42100 0.41600
H27 H 0.74000 0.83600 0.44400
H28 H 0.62900 0.91300 0.37300
H29 H 0.76600 0.94200 0.39500
H30 H 0.89300 0.08000 0.20200
H31 H 0.74900 0.03700 0.12200
H32 H 0.85000 0.08700 0.08900
H33 H 0.81000 0.55100 -0.03600
H34 H 0.88700 0.66900 -0.05100
H35 H 0.95500 0.53500 -0.00100
H36 H 0.77500 0.44800 0.18900
#END
