
#######################################################################
#
#                 Cambridge Crystallographic Data Centre
#                                CCDC
#
#######################################################################
#
# If this CIF has been generated from an entry in the Cambridge
# Structural Database, then it will include bibliographic, chemical,
# crystal, experimental, refinement or atomic coordinate data resulting
# from the CCDC's data processing and validation procedures.
#
#######################################################################

data_CSD_CIF_BUYPAN
_audit_creation_date 2011-02-02
_audit_creation_method CSD-ConQuest-V1
_database_code_CSD BUYPAN
_database_code_depnum_ccdc_archive 'CCDC 703837'
_chemical_formula_sum 'C44 H54 N2 O8'
_chemical_formula_moiety
;
C44 H54 N2 O8
;
_journal_coden_Cambridge 1122
_journal_volume 27
_journal_year 2009
_journal_page_first 2031
_journal_name_full 'Chin.J.Chem. '
loop_
_publ_author_name
"Zhengyi Li"
"Jiejie Ma"
"Jiawen Chen"
"Yi Pan"
"Juli Jiang"
"Leyong Wang"
_chemical_name_systematic
;
25,26,27,28-Tetrabutoxy-5,11-dinitropentacyclo[19.3.1.1^3,7^.1^9,13^.1^15,19^]
octacosa-1(25),3(28),4,6,9(27),10,12,15(26),16,18,21,23-dodecaene
;
_chemical_name_common
;
25,26,27,28-tetrabutoxy-5,11-dinitrocalix(4)arene
;
_cell_volume   8388.335
_exptl_crystal_density_diffrn 1.17
_diffrn_ambient_temperature 291
#These two values have been output from a single CSD field.
_refine_ls_R_factor_gt 0.0571
_refine_ls_wR_factor_gt 0.0571
_symmetry_cell_setting monoclinic
_symmetry_space_group_name_H-M 'P 21/c'
_symmetry_Int_Tables_number 14
loop_
_symmetry_equiv_pos_site_id
_symmetry_equiv_pos_as_xyz
1 x,y,z
2 -x,1/2+y,1/2-z
3 -x,-y,-z
4 x,-1/2-y,-1/2+z
_cell_length_a 17.573(3)
_cell_length_b 18.503(2)
_cell_length_c 25.893(4)
_cell_angle_alpha 90
_cell_angle_beta 94.907(3)
_cell_angle_gamma 90
_cell_formula_units_Z 8
loop_
_atom_type_symbol
_atom_type_radius_bond
C 0.68
H 0.23
N 0.68
O 0.68
loop_
_atom_site_label
_atom_site_type_symbol
_atom_site_fract_x
_atom_site_fract_y
_atom_site_fract_z
C1 C 0.65193(11) 0.64314(11) 0.70010(7)
C2 C 0.70042(12) 0.69678(11) 0.67808(7)
C3 C 0.66094(12) 0.74701(11) 0.64564(8)
H1 H 0.68820 0.78140 0.62860
C4 C 0.58492(12) 0.74652(11) 0.63872(8)
C5 C 0.53619(13) 0.69795(12) 0.66212(7)
H2 H 0.48320 0.70010 0.65690
C6 C 0.57526(11) 0.6461(1) 0.69407(7)
C7 C 0.50080(5) 0.68540(8) 0.79219(5)
C8 C 0.47019(7) 0.63567(7) 0.75592(5)
C9 C 0.39230(7) 0.63596(7) 0.74102(5)
H3 H 0.37180 0.60270 0.71680
C10 C 0.34502(5) 0.68599(7) 0.76240(5)
C11 C 0.37564(7) 0.73573(6) 0.79867(5)
H4 H 0.34400 0.76920 0.81300
C12 C 0.45353(7) 0.73543(7) 0.81357(5)
C13 C 0.61493(12) 0.84986(10) 0.83579(8)
C14 C 0.54046(12) 0.84325(11) 0.82056(7)
C15 C 0.50653(13) 0.87879(11) 0.77557(8)
H5 H 0.45440 0.87530 0.76610
C16 C 0.55488(12) 0.91945(12) 0.74596(9)
H6 H 0.53410 0.94340 0.71650
C17 C 0.63000(12) 0.92431(11) 0.75929(9)
H7 H 0.65990 0.95000 0.73770
C18 C 0.66751(12) 0.89128(11) 0.80604(8)
C19 C 0.78348(12) 0.79535(12) 0.75425(8)
C20 C 0.79112(13) 0.86957(12) 0.77266(8)
C21 C 0.83051(13) 0.91484(12) 0.74232(9)
H8 H 0.83640 0.96300 0.75220
C22 C 0.86120(14) 0.89279(13) 0.69865(9)
H9 H 0.89110 0.92420 0.68090
C23 C 0.84705(13) 0.81982(12) 0.67983(9)
H10 H 0.86430 0.80530 0.64850
C24 C 0.80805(12) 0.77210(12) 0.70860(7)
C25 C 0.52838(13) 0.59157(12) 0.72432(8)
H11 H 0.56240 0.56330 0.74790
H12 H 0.50070 0.55870 0.70030
C26 C 0.48795(13) 0.79482(13) 0.84917(8)
H13 H 0.44730 0.82370 0.86170
H14 H 0.51670 0.77310 0.87890
C27 C 0.74965(13) 0.89402(13) 0.81685(9)
H15 H 0.76430 0.86380 0.84670
H16 H 0.76470 0.94320 0.82560
C28 C 0.78115(12) 0.69804(12) 0.68752(8)
H17 H 0.80420 0.68810 0.65560
H18 H 0.79730 0.66080 0.71240
C29 C 0.69686(14) 0.52359(12) 0.70070(9)
H19 H 0.64650 0.50450 0.69020
H20 H 0.72360 0.53150 0.66990
C30 C 0.74054(12) 0.47211(13) 0.73673(9)
H21 H 0.73100 0.42300 0.72470
H22 H 0.72280 0.47640 0.77110
C31 C 0.82651(13) 0.48735(12) 0.73978(9)
H23 H 0.83920 0.49460 0.70440
H24 H 0.83420 0.53350 0.75720
C32 C 0.88592(12) 0.43687(12) 0.76468(9)
H25 H 0.86960 0.41940 0.79690
H26 H 0.93350 0.46220 0.77110
H27 H 0.89260 0.39680 0.74200
C33 C 0.60093(14) 0.61177(13) 0.84486(10)
H28 H 0.57220 0.56890 0.83380
H29 H 0.65480 0.60290 0.84190
C34 C 0.58661(15) 0.63235(15) 0.89965(9)
H30 H 0.62880 0.66120 0.91490
H31 H 0.54040 0.66100 0.89940
C35 C 0.57850(13) 0.56463(14) 0.93128(10)
H32 H 0.62820 0.54540 0.94330
H33 H 0.55020 0.52790 0.91100
C36 C 0.53312(13) 0.58966(12) 0.97877(9)
H34 H 0.55880 0.63000 0.99580
H35 H 0.53100 0.55050 1.00290
H36 H 0.48220 0.60360 0.96630
C37 C 0.64493(13) 0.85988(12) 0.92703(7)
H37 H 0.67770 0.90190 0.92550
H38 H 0.59320 0.87620 0.93080
C38 C 0.67230(13) 0.81255(13) 0.97095(8)
H39 H 0.64590 0.76660 0.96740
H40 H 0.65940 0.83460 1.00300
C39 C 0.75729(12) 0.79913(12) 0.97421(7)
H41 H 0.76790 0.77110 0.94400
H42 H 0.78220 0.84560 0.97130
C40 C 0.79524(12) 0.76162(12) 1.02106(8)
H43 H 0.79180 0.79150 1.05110
H44 H 0.84800 0.75310 1.01600
H45 H 0.77020 0.71630 1.02600
C41 C 0.78657(12) 0.72630(12) 0.83293(9)
H46 H 0.75020 0.71500 0.85790
H47 H 0.81720 0.76680 0.84640
C42 C 0.83786(13) 0.66228(13) 0.82785(8)
H48 H 0.87640 0.67700 0.80530
H49 H 0.80730 0.62550 0.80920
C43 C 0.88105(13) 0.62400(13) 0.87557(8)
H50 H 0.90100 0.57800 0.86480
H51 H 0.92380 0.65370 0.88890
C44 C 0.83020(13) 0.61206(13) 0.91606(9)
H52 H 0.81330 0.65780 0.92840
H53 H 0.85690 0.58610 0.94420
H54 H 0.78690 0.58440 0.90240
C45 C 0.87060(14) 0.40506(12) 0.44688(9)
C46 C 0.92483(12) 0.41306(11) 0.49257(8)
C47 C 0.90634(13) 0.46076(11) 0.53068(8)
H55 H 0.94070 0.47160 0.55900
C48 C 0.83370(12) 0.49186(12) 0.52468(8)
C49 C 0.77877(12) 0.47972(11) 0.48405(7)
H56 H 0.73010 0.49960 0.48340
C50 C 0.80184(12) 0.43406(11) 0.44263(8)
C51 C 0.66355(12) 0.33348(11) 0.44508(8)
C52 C 0.66531(12) 0.3948(1) 0.41622(7)
C53 C 0.60209(11) 0.43821(11) 0.40969(7)
H57 H 0.60170 0.47810 0.38780
C54 C 0.53952(12) 0.42234(11) 0.43564(8)
C55 C 0.53884(12) 0.36165(11) 0.46890(7)
H58 H 0.49600 0.35190 0.48650
C56 C 0.60030(12) 0.31796(10) 0.47509(7)
C57 C 0.73138(13) 0.23898(12) 0.57583(8)
C58 C 0.66823(13) 0.28404(11) 0.55743(7)
C59 C 0.66894(12) 0.3553(1) 0.57694(7)
H59 H 0.62880 0.38630 0.56670
C60 C 0.72836(12) 0.37979(13) 0.61110(8)
H60 H 0.72660 0.42690 0.62340
C61 C 0.78946(12) 0.33739(12) 0.62742(8)
H61 H 0.82910 0.35550 0.64980
C62 C 0.79103(12) 0.26209(12) 0.60858(7)
C63 C 0.94195(7) 0.28224(8) 0.56180(4)
C64 C 0.93300(7) 0.26265(7) 0.61275(5)
C65 C 0.97966(8) 0.29303(8) 0.65307(4)
H62 H 0.97370 0.27990 0.68720
C66 C 1.03528(7) 0.34301(7) 0.64244(4)
H63 H 1.06650 0.36330 0.66940
C67 C 1.04423(7) 0.36260(7) 0.59149(5)
H64 H 1.08140 0.39600 0.58440
C68 C 0.99756(8) 0.33221(8) 0.55117(4)
C69 C 0.74208(13) 0.41957(12) 0.39709(8)
H65 H 0.76090 0.38250 0.37500
H66 H 0.73400 0.46330 0.37670
C70 C 0.60980(12) 0.26062(12) 0.51729(8)
H67 H 0.56170 0.25330 0.53230
H68 H 0.62480 0.21510 0.50250
C71 C 0.86182(12) 0.21970(13) 0.62169(9)
H69 H 0.86050 0.17630 0.60060
H70 H 0.86390 0.20510 0.65780
C72 C 0.99548(13) 0.37027(12) 0.49722(9)
H71 H 1.03970 0.40130 0.49540
H72 H 0.99510 0.33480 0.46960
C73 C 0.93915(13) 0.39511(12) 0.37215(8)
H73 H 0.91210 0.43500 0.35450
H74 H 0.98610 0.41310 0.39000
C74 C 0.95485(12) 0.33648(12) 0.33514(8)
H75 H 0.90700 0.32030 0.31740
H76 H 0.97780 0.29580 0.35430
C75 C 1.00956(13) 0.36189(12) 0.29397(8)
H77 H 1.04950 0.39260 0.31010
H78 H 1.03320 0.32050 0.27880
C76 C 0.96284(13) 0.40233(13) 0.25369(9)
H79 H 0.91010 0.39980 0.26050
H80 H 0.96920 0.38160 0.22030
H81 H 0.97890 0.45190 0.25400
C77 C 0.71050(13) 0.20589(12) 0.42880(9)
H82 H 0.74550 0.17080 0.44550
H83 H 0.65810 0.18990 0.43010
C78 C 0.72946(15) 0.22549(13) 0.37492(9)
H84 H 0.77850 0.24980 0.37640
H85 H 0.69100 0.25810 0.35910
C79 C 0.73207(15) 0.15715(13) 0.34302(9)
H86 H 0.78210 0.13500 0.34860
H87 H 0.72250 0.16850 0.30650
C80 C 0.67155(14) 0.10559(15) 0.35936(9)
H88 H 0.68300 0.09250 0.39510
H89 H 0.67090 0.06290 0.33820
H90 H 0.62250 0.12870 0.35510
C81 C 0.69086(14) 0.12130(12) 0.59102(9)
H91 H 0.64100 0.14120 0.59610
H92 H 0.71900 0.11520 0.62460
C82 C 0.68320(13) 0.05044(12) 0.56276(9)
H93 H 0.65130 0.01740 0.58040
H94 H 0.66080 0.05750 0.52760
C83 C 0.76227(13) 0.02184(12) 0.56287(9)
H95 H 0.79320 0.03840 0.59340
H96 H 0.78560 0.03820 0.53230
C84 C 0.75643(13) -0.05871(12) 0.56300(9)
H97 H 0.74270 -0.07480 0.59620
H98 H 0.80470 -0.07930 0.55630
H99 H 0.71800 -0.07380 0.53660
C85 C 0.91169(13) 0.17995(12) 0.51384(9)
H100 H 0.86270 0.15790 0.50330
H101 H 0.93380 0.15570 0.54480
C86 C 0.96377(13) 0.17439(12) 0.47136(8)
H102 H 1.01240 0.19650 0.48260
H103 H 0.94180 0.20070 0.44130
C87 C 0.97664(13) 0.09730(12) 0.45653(9)
H104 H 0.99630 0.07070 0.48710
H105 H 0.92810 0.07590 0.44410
C88 C 1.03029(13) 0.08988(12) 0.41632(9)
H106 H 1.04650 0.13690 0.40610
H107 H 1.00550 0.06550 0.38680
H108 H 1.07390 0.06240 0.42980
N1 N 0.54343(11) 0.80116(10) 0.60314(7)
N2 N 0.27035(11) 0.67832(10) 0.75089(7)
N3 N 0.80966(11) 0.54267(9) 0.56525(7)
N4 N 0.47337(10) 0.46796(9) 0.43150(7)
O1 O 0.69074(8) 0.59316(7) 0.73024(5)
O2 O 0.57146(8) 0.68197(8) 0.81058(5)
O3 O 0.64739(8) 0.81512(7) 0.87924(5)
O4 O 0.74497(7) 0.74781(7) 0.78455(5)
O5 O 0.58958(9) 0.85216(9) 0.58524(6)
O6 O 0.48036(9) 0.81013(8) 0.60123(6)
O7 O 0.23745(8) 0.62452(8) 0.72640(6)
O8 O 0.22580(8) 0.73050(8) 0.75866(5)
O9 O 0.89031(9) 0.35853(9) 0.40907(6)
O10 O 0.72539(8) 0.29020(8) 0.45163(5)
O11 O 0.73291(8) 0.16943(7) 0.55755(6)
O12 O 0.90249(9) 0.25596(8) 0.52358(6)
O13 O 0.86041(8) 0.55575(8) 0.59954(6)
O14 O 0.74671(8) 0.56468(8) 0.56384(5)
O15 O 0.47056(8) 0.51701(8) 0.39763(5)
O16 O 0.42149(8) 0.46187(8) 0.46076(5)
#END
