
#######################################################################
#
#                 Cambridge Crystallographic Data Centre
#                                CCDC
#
#######################################################################
#
# If this CIF has been generated from an entry in the Cambridge
# Structural Database, then it will include bibliographic, chemical,
# crystal, experimental, refinement or atomic coordinate data resulting
# from the CCDC's data processing and validation procedures.
#
#######################################################################

data_CSD_CIF_BUYPUG10
_audit_creation_date 1984-11-14
_audit_creation_method CSD-ConQuest-V1
_database_code_CSD BUYPUG10
_chemical_formula_sum 'C10 H12 N4 O8'
_chemical_formula_moiety
;
C10 H12 N4 O8
;
_journal_coeditor_code "IUCr A23534"
_journal_coden_Cambridge 591
_journal_volume 40
_journal_year 1984
_journal_page_first 674
_journal_name_full 'Acta Crystallogr.,Sect.C:Cryst.Struct.Commun. '
loop_
_publ_author_name
"C.George"
"R.Gilardi"
_chemical_name_systematic
;
1,3,5,7-Tetranitroadamantane
;
_chemical_name_common
;
1,3,5,7-Tetranitro-tricyclo(3.3.1.1$3,7!)decane
;
_chemical_melting_point 634
_cell_volume    654.223
_exptl_crystal_density_diffrn 1.605
_exptl_special_details
;
Melting point range 634-6K

;
_diffrn_ambient_temperature ?
_diffrn_special_details
;
The study was carried out at room temperature,in the range 283-303K

;
#These two values have been output from a single CSD field.
_refine_ls_R_factor_gt 0.027
_refine_ls_wR_factor_gt 0.027
_symmetry_cell_setting tetragonal
_symmetry_space_group_name_H-M 'P -4 21 c'
_symmetry_Int_Tables_number 114
loop_
_symmetry_equiv_pos_site_id
_symmetry_equiv_pos_as_xyz
1 x,y,z
2 -y,x,-z
3 -x,-y,z
4 y,-x,-z
5 1/2-x,1/2+y,1/2-z
6 1/2+y,1/2+x,1/2+z
7 1/2+x,1/2-y,1/2-z
8 1/2-y,1/2-x,1/2+z
_cell_length_a 7.874(2)
_cell_length_b 7.874(2)
_cell_length_c 10.552(2)
_cell_angle_alpha 90
_cell_angle_beta 90
_cell_angle_gamma 90
_cell_formula_units_Z 2
loop_
_atom_type_symbol
_atom_type_radius_bond
C 0.68
H 0.23
N 0.68
O 0.68
loop_
_atom_site_label
_atom_site_type_symbol
_atom_site_fract_x
_atom_site_fract_y
_atom_site_fract_z
C1 C -0.14690 -0.05220 -0.08230
C2 C -0.20570 0.09560 0.00060
C3 C 0.00000 0.00000 -0.16900
N1 N -0.29870 -0.10440 -0.16390
O1 O -0.41400 -0.17890 -0.11100
O2 O -0.29900 -0.06740 -0.27440
H1 H -0.24200 0.19200 -0.05200
H2 H -0.29800 0.06400 0.05400
H3 H -0.02900 0.10000 -0.22700
C2A C -0.09560 -0.20570 -0.00060
C1C C -0.05220 0.14690 0.08230
C1B C 0.14690 0.05220 -0.08230
H3B H 0.02900 -0.10000 -0.22700
C1A C 0.05220 -0.14690 0.08230
H1A H -0.19200 -0.24200 0.05200
H2A H -0.06400 -0.29800 -0.05400
C2C C 0.09560 0.20570 -0.00060
C3A C 0.00000 0.00000 0.16900
N1C N -0.10440 0.29870 0.16390
C2B C 0.20570 -0.09560 0.00060
N1B N 0.29870 0.10440 -0.16390
N1A N 0.10440 -0.29870 0.16390
H1C H 0.19200 0.24200 0.05200
H2C H 0.06400 0.29800 -0.05400
H3A H -0.10000 -0.02900 0.22700
H3C H 0.10000 0.02900 0.22700
O1C O -0.17890 0.41400 0.11100
O2C O -0.06740 0.29900 0.27440
H1B H 0.24200 -0.19200 -0.05200
H2B H 0.29800 -0.06400 0.05400
O1B O 0.41400 0.17890 -0.11100
O2B O 0.29900 0.06740 -0.27440
O1A O 0.17890 -0.41400 0.11100
O2A O 0.06740 -0.29900 0.27440
#END
