
#######################################################################
#
#                 Cambridge Crystallographic Data Centre
#                                CCDC
#
#######################################################################
#
# If this CIF has been generated from an entry in the Cambridge
# Structural Database, then it will include bibliographic, chemical,
# crystal, experimental, refinement or atomic coordinate data resulting
# from the CCDC's data processing and validation procedures.
#
#######################################################################

data_CSD_CIF_BUYXOK
_audit_creation_date 2015-12-07
_audit_creation_method CSD-ConQuest-V1
_database_code_CSD BUYXOK
_database_code_depnum_ccdc_archive 'CCDC 1419499'
_chemical_formula_sum 'C24 H24 N4 O3'
_chemical_formula_moiety
;
C24 H24 N4 O3
;
_journal_coden_Cambridge 1336
_journal_volume 17
_journal_year 2015
_journal_page_first 5816
_journal_name_full 'Org.Lett. '
loop_
_publ_author_name
"Van-Wei Yang"
"Bor-Cherng Hong"
"Hsin-Kai Kao"
"Ting-Hsun Tu"
"Jiun-Yi Shen"
"Chi-Lin Chen"
"Gene-Hsiang Lee"
"Pi-Tai Chou"
_chemical_name_systematic
;
7-nitro-8-phenyl-2-(2-(1H-pyrrolo[2,3-b]pyridin-3-yl)ethyl)-4,4a,5,6,7,8-hexah
ydroisoquinolin-3(2H)-one
;
_cell_volume  10318.790
_exptl_crystal_colour 'colorless'
_exptl_crystal_density_diffrn 1.072
_exptl_special_details
;
Absolute configuration

;
_exptl_crystal_description 'block'
_diffrn_ambient_temperature 200
_refine_special_details
;
C81,C82,C83,C84,C85,N13 and C81',C82',C83',C84',C85',N13' disordered over two 
sites with occupancies 0.627:0.373; The SQUEEZE/PLATON program has been used 
to model some disorder.
;
#These two values have been output from a single CSD field.
_refine_ls_R_factor_gt 0.0528
_refine_ls_wR_factor_gt 0.0528
_symmetry_cell_setting monoclinic
_symmetry_space_group_name_H-M 'C 2'
_symmetry_Int_Tables_number 5
loop_
_symmetry_equiv_pos_site_id
_symmetry_equiv_pos_as_xyz
1 x,y,z
2 -x,y,-z
3 1/2+x,1/2+y,z
4 1/2-x,1/2+y,-z
_cell_length_a 37.9789(10)
_cell_length_b 14.5891(4)
_cell_length_c 21.4715(6)
_cell_angle_alpha 90
_cell_angle_beta 119.8476(7)
_cell_angle_gamma 90
_cell_formula_units_Z 16
loop_
_atom_type_symbol
_atom_type_radius_bond
C 0.68
H 0.23
N 0.68
O 0.68
loop_
_atom_site_label
_atom_site_type_symbol
_atom_site_fract_x
_atom_site_fract_y
_atom_site_fract_z
O1 O 0.31577(7) 0.29833(14) 0.00897(13)
O2 O 0.32775(9) 0.86254(16) 0.02145(15)
O3 O 0.3909(1) 0.8637(2) 0.0619(2)
N1 N 0.32411(6) 0.42145(14) 0.08032(11)
N2 N 0.25540(7) 0.18145(16) 0.21712(12)
H1 H 0.24910 0.16630 0.25000
N3 N 0.26649(7) 0.03114(16) 0.18534(12)
N4 N 0.35957(11) 0.82449(18) 0.04058(16)
C1 C 0.32310(8) 0.3819(2) 0.02264(16)
C2 C 0.3348(1) 0.43932(19) -0.02159(16)
H2 H 0.32000 0.41620 -0.07160
H3 H 0.36410 0.42990 -0.00370
C3 C 0.32710(8) 0.54283(17) -0.02330(13)
H4 H 0.29860 0.55390 -0.06260
C4 C 0.35456(9) 0.5942(2) -0.04302(16)
H5 H 0.34760 0.57720 -0.09250
H6 H 0.38300 0.57540 -0.01030
C5 C 0.35125(9) 0.69803(19) -0.03885(15)
H7 H 0.37100 0.72880 -0.04930
H8 H 0.32360 0.71870 -0.07460
C6 C 0.36021(9) 0.72205(18) 0.03656(14)
H9 H 0.38790 0.69920 0.07220
C7 C 0.32880(8) 0.67890(17) 0.05258(13)
H10 H 0.30150 0.70010 0.01420
C8 C 0.32996(7) 0.57629(17) 0.04495(13)
C9 C 0.32829(7) 0.51718(17) 0.09025(14)
H11 H 0.33000 0.54120 0.13280
C10 C 0.31785(8) 0.36451(18) 0.12973(15)
H12 H 0.33110 0.39390 0.17760
H13 H 0.33100 0.30430 0.13460
C11 C 0.27328(8) 0.34942(19) 0.10538(16)
H14 H 0.26210 0.40520 0.11540
H15 H 0.25820 0.33860 0.05290
C12 C 0.26745(8) 0.26860(18) 0.14328(16)
C13 C 0.25712(9) 0.2685(2) 0.19453(16)
H16 H 0.25160 0.32240 0.21310
C14 C 0.26534(8) 0.12313(19) 0.17874(14)
C15 C 0.27322(7) 0.17446(18) 0.13161(14)
C16 C 0.28266(8) 0.1252(2) 0.08518(14)
H17 H 0.28790 0.15570 0.05150
C17 C 0.28390(9) 0.0335(2) 0.09060(16)
H18 H 0.29020 -0.00180 0.06030
C18 C 0.27604(8) -0.0112(2) 0.14032(16)
H19 H 0.27760 -0.07620 0.14220
C19 C 0.33338(10) 0.70904(17) 0.12506(15)
C20 C 0.29840(12) 0.7223(2) 0.12919(19)
H20 H 0.27240 0.71450 0.08800
C21 C 0.30214(17) 0.7471(2) 0.1947(3)
H21 H 0.27840 0.75620 0.19810
C22 C 0.3395(2) 0.7588(3) 0.2545(2)
H22 H 0.34160 0.77500 0.29900
C23 C 0.37293(17) 0.7471(3) 0.2498(2)
H23 H 0.39880 0.75740 0.29100
C24 C 0.37061(12) 0.7198(2) 0.18504(16)
H24 H 0.39470 0.70890 0.18300
O4 O 0.18474(7) -0.16016(15) 0.49550(13)
O5 O 0.15940(9) -0.74905(18) 0.46911(18)
O6 O 0.10057(9) -0.68865(17) 0.40880(17)
N5 N 0.17819(7) -0.28012(15) 0.42447(12)
N6 N 0.24764(7) -0.04372(16) 0.29098(12)
H25 H 0.25370 -0.02810 0.25790
N7 N 0.23025(7) 0.10548(15) 0.31464(13)
N8 N 0.13723(10) -0.68288(19) 0.44971(17)
C25 C 0.17938(8) -0.2420(2) 0.48266(16)
C26 C 0.17655(9) -0.3090(2) 0.53288(15)
H26 H 0.16680 -0.27610 0.56170
H27 H 0.20420 -0.33210 0.56650
C27 C 0.14894(8) -0.39058(19) 0.49709(14)
H28 H 0.12010 -0.36910 0.47320
C28 C 0.15528(10) -0.4628(2) 0.55505(16)
H29 H 0.18480 -0.47100 0.58810
H30 H 0.14320 -0.43930 0.58350
C29 C 0.13687(10) -0.5535(2) 0.52415(17)
H31 H 0.10710 -0.54720 0.49400
H32 H 0.14260 -0.59730 0.56330
C30 C 0.15479(9) -0.5899(2) 0.47828(16)
H33 H 0.18500 -0.59440 0.50840
C31 C 0.14352(8) -0.52719(18) 0.41359(14)
H34 H 0.11320 -0.52610 0.38450
C32 C 0.15719(7) -0.42960(18) 0.44026(13)
C33 C 0.17183(8) -0.37435(18) 0.40921(14)
H35 H 0.17830 -0.39970 0.37530
C34 C 0.18652(9) -0.22164(19) 0.37779(16)
H36 H 0.17380 -0.16090 0.37340
H37 H 0.17390 -0.24920 0.32930
C35 C 0.23115(9) -0.2088(2) 0.40523(16)
H38 H 0.24530 -0.19670 0.45750
H39 H 0.24270 -0.26540 0.39700
C36 C 0.23745(8) -0.13016(18) 0.36721(15)
C37 C 0.24896(9) -0.1306(2) 0.31587(16)
H40 H 0.25670 -0.18360 0.30000
C38 C 0.23528(7) 0.01472(18) 0.32593(14)
C39 C 0.22894(7) -0.03630(18) 0.37466(14)
C40 C 0.21594(8) 0.00937(19) 0.41586(15)
H41 H 0.21060 -0.02210 0.44900
C41 C 0.21104(8) 0.1045(2) 0.40643(16)
H42 H 0.20320 0.13970 0.43470
C42 C 0.21776(8) 0.1467(2) 0.35562(17)
H43 H 0.21300 0.21080 0.34940
C43 C 0.15846(8) -0.56215(18) 0.36606(16)
C44 C 0.19929(9) -0.5737(2) 0.38861(19)
H44 H 0.21900 -0.55950 0.43680
C45 C 0.21175(12) -0.6053(2) 0.3423(2)
H45 H 0.23990 -0.61270 0.35870
C46 C 0.18411(15) -0.6258(2) 0.2732(2)
H46 H 0.19330 -0.64500 0.24150
C47 C 0.14343(14) -0.6197(2) 0.2482(2)
H47 H 0.12440 -0.63680 0.20030
C48 C 0.13052(10) -0.5879(2) 0.29432(17)
H48 H 0.10220 -0.58320 0.27750
O7 O 0.55008(8) 1.3457(2) 0.39679(12)
O8 O 0.63743(8) 1.66772(16) 0.19185(12)
O9 O 0.57650(9) 1.7029(2) 0.11667(14)
N9 N 0.56086(9) 1.34598(19) 0.30336(14)
N10 N 0.51480(7) 0.95161(17) 0.23869(14)
H49 H 0.50580 0.90270 0.21110
N11 N 0.50396(7) 0.90048(17) 0.33300(16)
N12 N 0.60170(9) 1.66287(18) 0.16977(14)
C49 C 0.56549(9) 1.3815(2) 0.36517(15)
C50 C 0.58993(12) 1.4634(3) 0.39241(19)
H50 H 0.61560 1.44520 0.43550
H51 H 0.57560 1.50480 0.40900
C51 C 0.60128(9) 1.5204(2) 0.34516(13)
H52 H 0.63080 1.53510 0.37480
C52 C 0.57925(9) 1.6096(2) 0.32070(16)
H53 H 0.58410 1.64610 0.36310
H54 H 0.54970 1.59770 0.29170
C53 C 0.59298(10) 1.6652(2) 0.27548(16)
H55 H 0.57690 1.72230 0.25820
H56 H 0.62200 1.68210 0.30530
C54 C 0.58692(8) 1.60733(19) 0.21160(14)
H57 H 0.55730 1.59500 0.18010
C55 C 0.60937(8) 1.51612(18) 0.23413(13)
H58 H 0.63880 1.53070 0.26530
C56 C 0.59584(7) 1.46788(19) 0.28107(13)
C57 C 0.57698(9) 1.3877(2) 0.26416(15)
H59 H 0.57420 1.35670 0.22310
C58 C 0.53632(9) 1.2584(2) 0.27343(18)
H60 H 0.51840 1.24840 0.29410
H61 H 0.51920 1.26260 0.22060
C59 C 0.56513(12) 1.1833(3) 0.2929(3)
H62 H 0.58620 1.18820 0.34410
H63 H 0.57860 1.18580 0.26350
C60 C 0.54154(12) 1.0908(3) 0.2792(2)
C61 C 0.53007(11) 1.0286(2) 0.2239(2)
H64 H 0.53240 1.03770 0.18230
C62 C 0.51564(8) 0.9620(2) 0.30164(17)
C63 C 0.53126(9) 1.0500(2) 0.32881(19)
C64 C 0.53505(9) 1.0743(2) 0.3941(2)
H65 H 0.54570 1.13240 0.41510
C65 C 0.52315(9) 1.0131(3) 0.42725(18)
H66 H 0.52510 1.02840 0.47190
C66 C 0.50765(10) 0.9257(2) 0.3957(2)
H67 H 0.49970 0.88390 0.42030
C67 C 0.60580(9) 1.45806(19) 0.17417(14)
C68 C 0.63806(9) 1.4016(2) 0.18731(16)
H68 H 0.66270 1.40570 0.23180
C69 C 0.63465(12) 1.3378(2) 0.13492(18)
H69 H 0.65650 1.29750 0.14460
C70 C 0.59968(13) 1.3349(3) 0.07055(19)
H70 H 0.59730 1.29230 0.03520
C71 C 0.56760(12) 1.3927(3) 0.05554(17)
H71 H 0.54370 1.39160 0.00970
C72 C 0.57073(9) 1.4524(2) 0.10832(15)
H72 H 0.54820 1.49010 0.09900
O10 O 0.44499(8) 0.33683(16) 0.10065(11)
O11 O 0.41902(8) -0.0356(2) 0.36140(14)
O12 O 0.35447(7) -0.02828(17) 0.30792(12)
N13 N 0.42225(13) 0.3306(3) 0.1825(2)
N14 N 0.48220(8) 0.71866(17) 0.26283(14)
H73 H 0.48530 0.77130 0.28490
N15 N 0.48786(8) 0.77265(19) 0.16357(15)
N16 N 0.38662(8) -0.00791(16) 0.31271(13)
C73 C 0.43358(10) 0.2916(2) 0.13451(15)
C74 C 0.41893(10) 0.1960(2) 0.11667(15)
H74 H 0.43240 0.16770 0.09210
H75 H 0.38950 0.19820 0.08150
C75 C 0.42489(8) 0.13185(19) 0.17737(14)
H76 H 0.45310 0.10690 0.20020
C76 C 0.39570(9) 0.0522(2) 0.14818(15)
H77 H 0.40270 0.01400 0.11770
H78 H 0.36790 0.07610 0.11740
C77 C 0.3962(1) -0.00752(19) 0.20644(16)
H79 H 0.42320 -0.03630 0.23500
H80 H 0.37580 -0.05690 0.18430
C78 C 0.38669(8) 0.05100(18) 0.25550(13)
H81 H 0.35910 0.07860 0.22600
C79 C 0.41762(8) 0.12849(18) 0.29096(13)
H82 H 0.44470 0.09900 0.32120
C80 C 0.42049(8) 0.18446(19) 0.23439(13)
C81 C 0.41701(15) 0.2768(5) 0.2320(3)
H83 H 0.41080 0.30650 0.26470
C82 C 0.42449(13) 0.4306(3) 0.1908(2)
H84 H 0.40530 0.45060 0.20670
H85 H 0.41600 0.45930 0.14360
C83 C 0.46731(14) 0.4642(4) 0.2452(3)
H86 H 0.47290 0.45010 0.29440
H87 H 0.48750 0.43080 0.23730
C84 C 0.47203(15) 0.5644(4) 0.2389(3)
C85 C 0.4784(2) 0.6298(6) 0.2894(4)
H88 H 0.48010 0.61870 0.33440
C86 C 0.48020(8) 0.7072(2) 0.19769(16)
C87 C 0.46981(10) 0.6142(2) 0.1765(2)
C88 C 0.46614(10) 0.5909(3) 0.11130(19)
H89 H 0.45900 0.53050 0.09270
C89 C 0.47315(11) 0.6582(3) 0.07439(19)
H90 H 0.47090 0.64460 0.02930
C90 C 0.48332(11) 0.7440(3) 0.1018(2)
H91 H 0.48760 0.78800 0.07360
C91 C 0.40901(8) 0.18649(19) 0.34109(13)
C92 C 0.43969(9) 0.2039(2) 0.41001(14)
H92 H 0.46540 0.17560 0.42690
C93 C 0.43401(11) 0.2609(3) 0.45451(17)
H93 H 0.45570 0.27240 0.50170
C94 C 0.39594(12) 0.3025(2) 0.43026(17)
H94 H 0.39150 0.34150 0.46110
C95 C 0.36523(10) 0.28568(19) 0.36117(16)
H95 H 0.33940 0.31360 0.34410
C96 C 0.37172(9) 0.22885(19) 0.31683(15)
H96 H 0.35050 0.21850 0.26910
N17? N 0.4449(2) 0.3224(5) 0.2038(4)
H97? H 0.49300 0.76360 0.29400
C97? C 0.4344(3) 0.2683(10) 0.2460(7)
H98? H 0.43790 0.29620 0.28860
C98? C 0.4646(3) 0.4152(7) 0.2298(5)
H99? H 0.47880 0.41690 0.28290
H100? H 0.48510 0.42490 0.21470
C99? C 0.4339(2) 0.4902(6) 0.2003(5)
H101? H 0.41730 0.48890 0.22420
H102? H 0.41550 0.48000 0.14830
C100? C 0.4536(3) 0.5819(7) 0.2114(5)
C101? C 0.4641(4) 0.6462(11) 0.2659(7)
H103? H 0.45810 0.63680 0.30350
#END
