
#######################################################################
#
#                 Cambridge Crystallographic Data Centre
#                                CCDC
#
#######################################################################
#
# If this CIF has been generated from an entry in the Cambridge
# Structural Database, then it will include bibliographic, chemical,
# crystal, experimental, refinement or atomic coordinate data resulting
# from the CCDC's data processing and validation procedures.
#
#######################################################################

data_CSD_CIF_BUYZAW
_audit_creation_date 1984-02-21
_audit_creation_method CSD-ConQuest-V1
_database_code_CSD BUYZAW
_database_code_depnum_ccdc_archive 'CCDC 1117878'
_chemical_formula_sum 'C5 H10 N6 O2'
_chemical_formula_moiety
;
C5 H10 N6 O2
;
_journal_coeditor_code "IUCr A22636"
_journal_coden_Cambridge 591
_journal_volume 39
_journal_year 1983
_journal_page_first 1132
_journal_name_full 'Acta Crystallogr.,Sect.C:Cryst.Struct.Commun. '
loop_
_publ_author_name
"C.J.Brown"
"J.L.Craft"
_chemical_name_systematic
;
3,7-Dinitroso-1,3,5,7-tetra-azabicyclo(3.3.1)nonane
;
_chemical_name_common
;
N,N'-Dinitrosopentamethylenetetramine
;
_chemical_melting_point 480
_cell_volume    816.378
_exptl_crystal_density_diffrn 1.515
_exptl_special_details
;
Melts with decomposition.

;
_diffrn_ambient_temperature ?
_diffrn_special_details
;
The study was carried out at room temperature,in the range 283-303K

;
#These two values have been output from a single CSD field.
_refine_ls_R_factor_gt 0.057
_refine_ls_wR_factor_gt 0.057
_symmetry_cell_setting monoclinic
_symmetry_space_group_name_H-M 'P 21/a'
_symmetry_Int_Tables_number 14
loop_
_symmetry_equiv_pos_site_id
_symmetry_equiv_pos_as_xyz
1 x,y,z
2 1/2-x,1/2+y,-z
3 -x,-y,-z
4 -1/2+x,-1/2-y,z
_cell_length_a 12.156(8)
_cell_length_b 7.397(5)
_cell_length_c 9.923(7)
_cell_angle_alpha 90
_cell_angle_beta 113.8(1)
_cell_angle_gamma 90
_cell_formula_units_Z 4
loop_
_atom_type_symbol
_atom_type_radius_bond
C 0.68
H 0.23
N 0.68
O 0.68
loop_
_atom_site_label
_atom_site_type_symbol
_atom_site_fract_x
_atom_site_fract_y
_atom_site_fract_z
C1 C 0.17260 -0.00050 0.06030
C2 C 0.30380 0.19530 0.26770
C3 C 0.11900 0.07950 0.25660
C4 C 0.16540 -0.22830 0.23600
C5 C 0.29770 -0.03590 0.44280
N1 N 0.39720 0.02160 0.13950
N2 N 0.28960 0.07120 0.14790
N3 N 0.11500 -0.06790 0.15550
N4 N 0.24170 0.12240 0.35360
N5 N 0.28290 -0.19640 0.34970
N6 N 0.37110 -0.31540 0.34250
O1 O 0.38850 -0.07610 0.04190
O2 O 0.46250 -0.26930 0.42720
H1 H 0.11750 0.10470 -0.01040
H2 H 0.18130 -0.11010 -0.00660
H3 H 0.39810 0.21100 0.33720
H4 H 0.26580 0.32500 0.22300
H5 H 0.07690 0.19810 0.19320
H6 H 0.07040 0.03910 0.32180
H7 H 0.10690 -0.27790 0.28560
H8 H 0.17220 -0.32930 0.16110
H9 H 0.39240 -0.01000 0.50339
H10 H 0.25640 -0.06100 0.51910
#END
