
#######################################################################
#
#                 Cambridge Crystallographic Data Centre
#                                CCDC
#
#######################################################################
#
# If this CIF has been generated from an entry in the Cambridge
# Structural Database, then it will include bibliographic, chemical,
# crystal, experimental, refinement or atomic coordinate data resulting
# from the CCDC's data processing and validation procedures.
#
#######################################################################

data_CSD_CIF_BZHYDX
_audit_creation_date 1975-01-07
_audit_creation_method CSD-ConQuest-V1
_database_code_CSD BZHYDX
_database_code_depnum_ccdc_archive 'CCDC 1118262'
_chemical_formula_sum 'C14 H11 N1 O3'
_chemical_formula_moiety
;
C14 H11 N1 O3
;
_journal_coden_Cambridge 48
_journal_volume 107
_journal_year 1974
_journal_page_first 398
_journal_name_full 'Chem.Ber. '
loop_
_publ_author_name
"S.Gottlicher"
"P.Ochsenreiter"
_chemical_name_systematic
;
N,O-Dibenzoyl-hydroxylamine
;
_cell_volume   1193.103
_diffrn_ambient_temperature ?
_diffrn_special_details
;
The study was carried out at room temperature,in the range 283-303K

;
#These two values have been output from a single CSD field.
_refine_ls_R_factor_gt 0.081
_refine_ls_wR_factor_gt 0.081
_symmetry_cell_setting orthorhombic
_symmetry_space_group_name_H-M 'P 21 21 21'
_symmetry_Int_Tables_number 19
loop_
_symmetry_equiv_pos_site_id
_symmetry_equiv_pos_as_xyz
1 x,y,z
2 1/2+x,1/2-y,-z
3 -x,1/2+y,1/2-z
4 1/2-x,-y,1/2+z
_cell_length_a 14.12(1)
_cell_length_b 9.42(1)
_cell_length_c 8.97(1)
_cell_angle_alpha 90
_cell_angle_beta 90
_cell_angle_gamma 90
_cell_formula_units_Z 4
loop_
_atom_type_symbol
_atom_type_radius_bond
C 0.68
H 0.20
N 0.68
O 0.68
loop_
_atom_site_label
_atom_site_type_symbol
_atom_site_fract_x
_atom_site_fract_y
_atom_site_fract_z
C1 C 0.13320 0.09220 0.12200
C2 C 0.51910 -0.10490 0.14290
C3 C 0.07690 0.00780 0.21270
C4 C 0.57300 -0.01320 0.22990
C5 C -0.02090 0.02990 0.21580
C6 C 0.67080 -0.01980 0.22180
C7 C -0.06280 0.13200 0.12490
C8 C 0.71510 -0.11570 0.12880
C9 C -0.00540 0.21700 0.03590
C10 C 0.66130 -0.20530 0.03880
C11 C 0.09220 0.19660 0.03420
C12 C 0.56310 -0.20090 0.04910
C13 C 0.23730 0.07380 0.10760
C14 C 0.41420 -0.10630 0.14700
H1 H 0.10630 -0.06810 0.27540
H2 H 0.54140 0.05660 0.29760
H3 H -0.06140 -0.02830 0.28390
H4 H 0.70990 0.04580 0.28410
H5 H -0.13320 0.14410 0.12360
H6 H 0.78590 -0.12030 0.12590
H7 H -0.03450 0.29300 -0.02700
H8 H 0.69290 -0.27200 -0.03220
H9 H 0.13300 0.25740 -0.03080
H10 H 0.52390 -0.26770 -0.01180
H11 H 0.24230 -0.02150 0.31250
N1 N 0.27980 0.01480 0.22580
O1 O 0.28330 0.11090 -0.00210
O2 O 0.37950 0.00680 0.22340
O3 O 0.36450 -0.19250 0.08930
#END
