
#######################################################################
#
#                 Cambridge Crystallographic Data Centre
#                                CCDC
#
#######################################################################
#
# If this CIF has been generated from an entry in the Cambridge
# Structural Database, then it will include bibliographic, chemical,
# crystal, experimental, refinement or atomic coordinate data resulting
# from the CCDC's data processing and validation procedures.
#
#######################################################################

data_CSD_CIF_BZOCYX10
_audit_creation_date 1976-05-03
_audit_creation_method CSD-ConQuest-V1
_database_code_CSD BZOCYX10
_chemical_formula_sum 'C16 H10 N4 O3'
_chemical_formula_moiety
;
C16 H10 N4 O3
;
_journal_coeditor_code "IUCr A12530"
_journal_coden_Cambridge 107
_journal_volume 31
_journal_year 1975
_journal_page_first 2793
_journal_name_full 'Acta Crystallogr.,Sect.B:Struct.Crystallogr.Cryst.Chem. '
loop_
_publ_author_name
"S.C.Kokkou"
"P.J.Rentzeperis"
_chemical_name_systematic
;
O-(Phenyl-cyano-nitromethyl)-benzoyl-cyanoxime
;
_chemical_melting_point 395.15
_cell_volume   1514.816
_exptl_crystal_density_diffrn 1.343
_exptl_special_details
;
Melting point range 395.15-396.15K

;
_diffrn_ambient_temperature ?
_diffrn_special_details
;
The study was carried out at room temperature,in the range 283-303K

;
#These two values have been output from a single CSD field.
_refine_ls_R_factor_gt 0.078
_refine_ls_wR_factor_gt 0.078
_symmetry_cell_setting monoclinic
_symmetry_space_group_name_H-M 'P 21/n'
_symmetry_Int_Tables_number 14
loop_
_symmetry_equiv_pos_site_id
_symmetry_equiv_pos_as_xyz
1 x,y,z
2 1/2-x,1/2+y,1/2-z
3 -x,-y,-z
4 -1/2+x,-1/2-y,-1/2+z
_cell_length_a 13.0346(14)
_cell_length_b 9.8186(7)
_cell_length_c 12.0830(12)
_cell_angle_alpha 90
_cell_angle_beta 101.60(1)
_cell_angle_gamma 90
_cell_formula_units_Z 4
loop_
_atom_type_symbol
_atom_type_radius_bond
C 0.68
H 0.23
N 0.68
O 0.68
loop_
_atom_site_label
_atom_site_type_symbol
_atom_site_fract_x
_atom_site_fract_y
_atom_site_fract_z
C1 C 0.07940 0.03330 -0.23990
C2 C -0.04480 -0.34960 -0.20890
C3 C -0.04290 -0.48530 -0.23810
C4 C -0.13000 -0.54490 -0.30510
C5 C -0.21920 -0.46980 -0.34010
C6 C -0.22420 -0.33670 -0.30850
C7 C -0.13720 -0.27520 -0.24270
C8 C 0.11280 -0.37070 -0.05100
C9 C 0.02650 0.10950 -0.34450
C10 C -0.07730 0.07980 -0.39460
C11 C -0.12500 0.15290 -0.48840
C12 C -0.07210 0.25330 -0.53180
C13 C 0.02960 0.28380 -0.48190
C14 C 0.08000 0.21180 -0.38850
C15 C 0.19460 0.01980 -0.23150
C16 C 0.04940 -0.28740 -0.13930
H1 H 0.02300 -0.53000 -0.21600
H2 H -0.12500 -0.63900 -0.32600
H3 H -0.27900 -0.50600 -0.38500
H4 H -0.28200 -0.28000 -0.33100
H5 H -0.14100 -0.18100 -0.22000
H6 H -0.11400 0.02100 -0.36000
H7 H -0.19500 0.13000 -0.52600
H8 H -0.10900 0.30300 -0.59900
H9 H 0.07200 0.34900 -0.51300
H10 H 0.15200 0.23300 -0.35200
N1 N 0.06620 0.12230 -0.13100
N2 N 0.09070 -0.16940 -0.14440
N3 N 0.27960 0.00820 -0.23150
N4 N 0.16070 -0.43810 0.01540
O1 O -0.01280 0.10200 -0.10280
O2 O 0.13070 0.19660 -0.09700
O3 O 0.03160 -0.09160 -0.23520
#END
