
#######################################################################
#
#                 Cambridge Crystallographic Data Centre
#                                CCDC
#
#######################################################################
#
# If this CIF has been generated from an entry in the Cambridge
# Structural Database, then it will include bibliographic, chemical,
# crystal, experimental, refinement or atomic coordinate data resulting
# from the CCDC's data processing and validation procedures.
#
#######################################################################

data_CSD_CIF_CABLIA
_audit_creation_date 1984-04-14
_audit_creation_method CSD-ConQuest-V1
_database_code_CSD CABLIA
_database_code_depnum_ccdc_archive 'CCDC 1118616'
_chemical_formula_sum 'C14 H18 N2 O4'
_chemical_formula_moiety
;
C14 H18 N2 O4
;
_journal_coden_Cambridge 182
_journal_year 1983
_journal_page_first 1046
_journal_name_full 'Chem.Commun. '
loop_
_publ_author_name
"N.R.A.Beeley"
"G.Cremer"
"A.Dorlhene"
"B.Mompon"
"C.Pascard"
"E.T.H.Dau"
_chemical_name_systematic
;
12-Nitro-6-propionyl-6-azatricyclo(6.3.1.0^5,12^)dodec-1-en-3-one
;
_chemical_melting_point 393.15
_cell_volume   1389.704
_diffrn_ambient_temperature ?
_diffrn_special_details
;
The study was carried out at room temperature,in the range 283-303K

;
#These two values have been output from a single CSD field.
_refine_ls_R_factor_gt 0.057
_refine_ls_wR_factor_gt 0.057
_symmetry_cell_setting monoclinic
_symmetry_space_group_name_H-M 'P 21/c'
_symmetry_Int_Tables_number 14
loop_
_symmetry_equiv_pos_site_id
_symmetry_equiv_pos_as_xyz
1 x,y,z
2 -x,1/2+y,1/2-z
3 -x,-y,-z
4 x,-1/2-y,-1/2+z
_cell_length_a 11.068(4)
_cell_length_b 7.363(3)
_cell_length_c 17.378(7)
_cell_angle_alpha 90
_cell_angle_beta 101.10(8)
_cell_angle_gamma 90
_cell_formula_units_Z 4
loop_
_atom_type_symbol
_atom_type_radius_bond
C 0.68
H 0.23
N 0.68
O 0.68
loop_
_atom_site_label
_atom_site_type_symbol
_atom_site_fract_x
_atom_site_fract_y
_atom_site_fract_z
N1 N 0.29165 0.40873 0.07933
N2 N 0.26763 0.01053 0.19802
C1 C 0.34026 0.33625 0.21315
C2 C 0.02089 0.29430 0.13153
C3 C 0.11588 0.25852 0.18860
C4 C 0.23986 0.20696 0.17113
C5 C 0.25158 0.21981 0.08453
O1 O 0.18298 -0.08830 0.20149
C6 C 0.02126 0.26268 0.04867
C7 C 0.33282 0.38069 0.29764
C8 C 0.32220 0.49662 0.15647
C9 C 0.13135 0.17457 0.02824
C10 C 0.11268 0.28782 0.27339
C11 C 0.36596 0.66886 0.01610
O2 O 0.31080 0.38118 -0.04652
O3 O 0.37315 -0.03895 0.21361
C12 C 0.32140 0.47532 0.01277
C13 C 0.20456 0.43410 0.30763
O4 O -0.06982 0.29617 -0.00219
C14 C 0.38048 0.74142 -0.06324
H1 H 0.32200 0.12200 0.07200
H2 H 0.24500 0.58200 0.16200
H3 H 0.40300 0.56600 0.16300
H4 H 0.13300 0.15300 0.30500
H5 H 0.17000 0.56900 0.28000
H6 H 0.12800 0.02500 0.03400
H7 H 0.41900 0.27000 0.20500
H8 H 0.20100 0.44700 0.36500
H9 H 0.37300 0.25400 0.33700
H10 H 0.15500 0.20300 -0.02400
H11 H 0.40200 0.48300 0.31500
H12 H -0.06500 0.34900 0.14500
H13 H 0.02600 0.30800 0.28100
H14 H 0.30500 0.75100 0.04200
H15 H 0.44600 0.66400 0.04900
H16 H 0.40200 0.88400 -0.05900
H17 H 0.28200 0.72300 -0.10700
H18 H 0.43900 0.66400 -0.09500
#END
