
#######################################################################
#
#                 Cambridge Crystallographic Data Centre
#                                CCDC
#
#######################################################################
#
# If this CIF has been generated from an entry in the Cambridge
# Structural Database, then it will include bibliographic, chemical,
# crystal, experimental, refinement or atomic coordinate data resulting
# from the CCDC's data processing and validation procedures.
#
#######################################################################

data_CSD_CIF_CABMID
_audit_creation_date 2011-01-12
_audit_creation_method CSD-ConQuest-V1
_database_code_CSD CABMID
_database_code_depnum_ccdc_archive 'CCDC 789322'
_database_code_depnum_ccdc_journal 1267/2967
_chemical_formula_sum 'C21 H17 N3 O2'
_chemical_formula_moiety
;
C21 H17 N3 O2
;
_journal_coden_Cambridge 1267
_journal_volume 225
_journal_year 2010
_journal_page_first 343
_journal_name_full 'Z.Kristallogr.-New Cryst.Struct. '
loop_
_publ_author_name
"Zhi-Gang Yin"
"Zong-Lei Fei"
"Heng-Yu Qian"
"Chun-Xia Zhang"
_chemical_name_systematic
;
1-(1,3-Diphenylallylidene)-2-(2-nitrophenyl)hydrazine
;
_cell_volume    884.971
_exptl_crystal_colour 'red'
_exptl_crystal_density_diffrn 1.289
_exptl_crystal_description 'block'
_exptl_crystal_preparation 'methanol'
_diffrn_ambient_temperature 293
#These two values have been output from a single CSD field.
_refine_ls_R_factor_gt 0.0353
_refine_ls_wR_factor_gt 0.0353
_symmetry_cell_setting triclinic
_symmetry_space_group_name_H-M 'P -1'
_symmetry_Int_Tables_number 2
loop_
_symmetry_equiv_pos_site_id
_symmetry_equiv_pos_as_xyz
1 x,y,z
2 -x,-y,-z
_cell_length_a 8.1686(13)
_cell_length_b 9.8684(14)
_cell_length_c 11.7741(15)
_cell_angle_alpha 93.016(11)
_cell_angle_beta 93.753(12)
_cell_angle_gamma 110.370(14)
_cell_formula_units_Z 2
loop_
_atom_type_symbol
_atom_type_radius_bond
C 0.68
H 0.23
N 0.68
O 0.68
loop_
_atom_site_label
_atom_site_type_symbol
_atom_site_fract_x
_atom_site_fract_y
_atom_site_fract_z
N1 N -0.00523(15) 0.28701(12) 0.85703(10)
H1 H -0.02390 0.31910 0.79280
N2 N 0.11366(15) 0.21849(12) 0.86928(10)
C1 C -0.09403(18) 0.30406(14) 0.94769(12)
C2 C 0.19166(18) 0.20294(15) 0.77952(13)
N3 N -0.26771(19) 0.42515(14) 0.83878(14)
C3 C -0.22135(18) 0.37024(14) 0.94244(13)
C4 C 0.38746(18) 0.07978(15) 0.71224(13)
H2 H 0.36420 0.10280 0.63880
C5 C 0.50412(18) -0.00393(15) 0.72596(13)
C6 C 0.31251(19) 0.12543(15) 0.79494(13)
H3 H 0.33940 0.10630 0.86900
O1 O -0.20491(17) 0.40508(14) 0.74974(11)
O2 O -0.37074(16) 0.49072(13) 0.84073(11)
C7 C 0.16005(19) 0.25656(16) 0.66735(12)
C8 C -0.1502(2) 0.26734(17) 1.14430(14)
H4 H -0.12550 0.23260 1.21280
C9 C 0.59680(19) -0.00339(15) 0.82896(14)
H5 H 0.58720 0.05300 0.89220
C10 C -0.3086(2) 0.38418(16) 1.03736(16)
H6 H -0.39140 0.42910 1.03220
C11 C -0.06335(19) 0.25269(16) 1.05237(13)
H7 H 0.01880 0.20720 1.05940
C12 C 0.52096(19) -0.09015(16) 0.63360(13)
H8 H 0.46030 -0.09240 0.56350
C13 C 0.6270(2) -0.17302(17) 0.64449(14)
H9 H 0.63680 -0.23060 0.58200
C14 C 0.2747(2) 0.38458(16) 0.63441(13)
H10 H 0.37660 0.43540 0.68090
C15 C -0.2744(2) 0.33300(18) 1.13744(15)
H11 H -0.33370 0.34200 1.20050
C16 C 0.7029(2) -0.08499(18) 0.83931(15)
H12 H 0.76510 -0.08250 0.90890
C17 C 0.2404(2) 0.43835(17) 0.53331(14)
H13 H 0.31870 0.52520 0.51250
C18 C 0.7171(2) -0.16982(18) 0.74719(15)
H14 H 0.78810 -0.22540 0.75460
C19 C 0.0920(3) 0.3647(2) 0.46370(14)
H15 H 0.06790 0.40170 0.39610
C20 C 0.0124(2) 0.18304(18) 0.59563(14)
H16 H -0.06650 0.09600 0.61570
C21 C -0.0201(2) 0.2370(2) 0.49408(14)
H17 H -0.11980 0.18520 0.44600
#END
