
#######################################################################
#
#                 Cambridge Crystallographic Data Centre
#                                CCDC
#
#######################################################################
#
# If this CIF has been generated from an entry in the Cambridge
# Structural Database, then it will include bibliographic, chemical,
# crystal, experimental, refinement or atomic coordinate data resulting
# from the CCDC's data processing and validation procedures.
#
#######################################################################

data_CSD_CIF_CABXOS10
_audit_creation_date 1986-07-24
_audit_creation_method CSD-ConQuest-V1
_database_code_CSD CABXOS10
_chemical_formula_sum 'C11 H12 N2 O1'
_chemical_formula_moiety
;
C11 H12 N2 O1
;
_journal_coden_Cambridge 82
_journal_volume 26
_journal_year 1985
_journal_page_first 185-2
_journal_name_full 'Zh.Strukt.Khim.(Russ.)(J.Struct.Chem.) '
loop_
_publ_author_name
"D.S.Yufit"
"Yu.T.Struchkov"
_chemical_name_systematic
;
S-trans-syn-1-Methyl-indole-3-acetaldehyde-N-oxime
;
_cell_volume   5950.665
_exptl_special_details
;
Cell data taken from Khim.Geterots.Soedin.(2),226,1983

;
_diffrn_ambient_temperature ?
_diffrn_special_details
;
The study was carried out at room temperature,in the range 283-303K

;
_symmetry_cell_setting orthorhombic
_symmetry_space_group_name_H-M 'P b c a'
_symmetry_Int_Tables_number 61
loop_
_symmetry_equiv_pos_site_id
_symmetry_equiv_pos_as_xyz
1 x,y,z
2 1/2-x,1/2+y,z
3 x,1/2-y,1/2+z
4 1/2-x,-y,1/2+z
5 -x,-y,-z
6 -1/2+x,-1/2-y,-z
7 -x,-1/2+y,-1/2-z
8 -1/2+x,y,-1/2-z
_cell_length_a 22.498(2)
_cell_length_b 9.4585(6)
_cell_length_c 27.964(3)
_cell_angle_alpha 90
_cell_angle_beta 90
_cell_angle_gamma 90
_cell_formula_units_Z 24
loop_
_atom_type_symbol
_atom_type_radius_bond
C 0.68
H 0.23
N 0.68
O 0.68
loop_
_atom_site_label
_atom_site_type_symbol
_atom_site_fract_x
_atom_site_fract_y
_atom_site_fract_z
H1 H 0.53000 0.12200 0.08900
H2 H 0.40600 0.03100 0.14100
H3 H 0.38600 -0.57500 0.25300
H4 H 0.47200 -0.43000 0.28000
H5 H 0.49200 -0.19500 0.24200
H6 H 0.43600 -0.11600 0.16900
H7 H 0.27100 -0.45300 0.09600
H8 H 0.29700 -0.29900 0.03700
H9 H 0.31300 -0.18800 0.02300
H10 H 0.26000 -0.23000 0.07400
H11 H 0.28500 -0.63700 0.21200
H12 H 0.26400 -0.68200 0.14900
H13 H 0.33700 -0.73500 0.17100
H14 H 0.76900 -0.45000 0.25200
H15 H 0.66700 -0.52300 0.28300
H16 H 0.57300 -0.45700 0.24100
H17 H 0.56500 -0.26000 0.18100
H18 H 0.76600 -0.07000 0.11400
H19 H 0.69300 -0.05600 0.04800
H20 H 0.69500 0.04800 0.09100
H21 H 0.63800 0.06600 0.04500
H22 H 0.82700 -0.24900 0.21600
H23 H 0.85900 -0.18100 0.16200
H24 H 0.84700 -0.37100 0.17000
H25 H 0.42000 0.72000 -0.05800
H26 H 0.34600 0.56300 -0.09400
H27 H 0.32700 0.31400 -0.06000
H28 H 0.36200 0.25900 0.02300
H29 H 0.50400 0.62100 0.11000
H30 H 0.54900 0.33600 0.13200
H31 H 0.48400 0.31300 0.17200
H32 H 0.50700 0.45900 0.16500
H33 H 0.51200 0.78900 0.06000
H34 H 0.52700 0.84400 0.00400
H35 H 0.45300 0.87500 0.03900
H36 H 0.37300 0.10200 0.07600
O1 O 0.3435(5) 0.0348(11) 0.0617(4)
O2 O 0.5556(4) 0.0442(10) 0.0976(4)
O3 O 0.4417(4) 0.1165(10) 0.1361(3)
N1 N 0.3253(5) -0.5022(11) 0.1638(5)
N2 N 0.3576(5) -0.0665(13) 0.0988(4)
N3 N 0.7644(5) -0.2432(12) 0.1729(4)
N4 N 0.5865(6) -0.0511(11) 0.1264(4)
N5 N 0.4624(5) 0.6570(11) 0.0381(5)
N6 N 0.4263(5) 0.2207(12) 0.1010(4)
C1 C 0.3702(7) -0.4411(17) 0.1898(6)
C2 C 0.3983(6) -0.4807(13) 0.2303(5)
C3 C 0.4424(6) -0.3976(14) 0.2488(5)
C4 C 0.4533(6) -0.2650(15) 0.2262(5)
C5 C 0.4231(6) -0.2213(13) 0.1859(5)
C6 C 0.3776(6) -0.3066(14) 0.1657(5)
C7 C 0.3392(6) -0.2993(15) 0.1254(5)
C8 C 0.3083(6) -0.4258(17) 0.1259(5)
C9 C 0.3308(7) -0.1863(17) 0.0908(5)
C10 C 0.2893(6) -0.2094(15) 0.0492(6)
C11 C 0.3010(7) -0.6444(17) 0.1739(5)
C12 C 0.7176(7) -0.3054(15) 0.1960(5)
C13 C 0.7226(6) -0.4052(15) 0.2348(5)
C14 C 0.6685(7) -0.4495(15) 0.2514(5)
C15 C 0.6142(6) -0.4031(15) 0.2324(5)
C16 C 0.6104(6) -0.3048(14) 0.1951(5)
C17 C 0.6639(7) -0.2553(14) 0.1776(5)
C18 C 0.6796(6) -0.1578(14) 0.1402(5)
C19 C 0.7411(8) -0.1491(16) 0.1403(6)
C20 C 0.6408(7) -0.0642(15) 0.1132(5)
C21 C 0.6658(7) 0.0057(15) 0.0687(6)
C22 C 0.8271(7) -0.2600(16) 0.1830(5)
C23 C 0.4261(6) 0.5866(16) 0.0075(6)
C24 C 0.4055(7) 0.6211(14) -0.0364(6)
C25 C 0.3699(7) 0.5280(17) -0.0597(5)
C26 C 0.3564(7) 0.3929(16) -0.0398(6)
C27 C 0.3781(6) 0.3598(14) 0.0058(6)
C28 C 0.4153(6) 0.4517(14) 0.0303(5)
C29 C 0.4473(6) 0.4541(15) 0.0731(5)
C30 C 0.4772(6) 0.5791(16) 0.0769(5)
C31 C 0.4556(6) 0.3380(16) 0.1079(5)
C32 C 0.4999(7) 0.3526(14) 0.1474(5)
C33 C 0.4844(7) 0.8040(17) 0.0275(5)
#END
