
#######################################################################
#
#                 Cambridge Crystallographic Data Centre
#                                CCDC
#
#######################################################################
#
# If this CIF has been generated from an entry in the Cambridge
# Structural Database, then it will include bibliographic, chemical,
# crystal, experimental, refinement or atomic coordinate data resulting
# from the CCDC's data processing and validation procedures.
#
#######################################################################

data_CSD_CIF_CABYUA
_audit_creation_date 2002-03-27
_audit_creation_method CSD-ConQuest-V1
_database_code_CSD CABYUA
_database_code_depnum_ccdc_archive 'CCDC 177212'
_chemical_formula_sum 'C12 H18 N4 O8'
_chemical_formula_moiety
;
C12 H18 N4 O8
;
_journal_coeditor_code "IUCr OM6068"
_journal_coden_Cambridge 1370
_journal_volume 57
_journal_year 2001
_journal_page_first o1185
_journal_name_full 'Acta Crystallogr.,Sect.E:Struct.Rep.Online '
loop_
_publ_author_name
"R.D.Gilardi"
"T.Axenrod"
"Xiao-Pei Guan"
"J.L.Flippen-Anderson"
_chemical_name_systematic
;
1,5-Diacetyl-7,7-dinitro-1,5-diazacyclo-octan-3-one ethylene acetal
;
_cell_volume   3048.411
_exptl_crystal_colour 'colorless'
_exptl_crystal_density_diffrn 1.509
_exptl_crystal_description 'irregular'
_diffrn_ambient_temperature 293
#These two values have been output from a single CSD field.
_refine_ls_R_factor_gt 0.0404
_refine_ls_wR_factor_gt 0.0404
_symmetry_cell_setting monoclinic
_symmetry_space_group_name_H-M 'P 21/c'
_symmetry_Int_Tables_number 14
loop_
_symmetry_equiv_pos_site_id
_symmetry_equiv_pos_as_xyz
1 x,y,z
2 x,1/2-y,1/2+z
3 -x,-y,-z
4 -x,-1/2+y,-1/2-z
_cell_length_a 17.9560(2)
_cell_length_b 9.7885(1)
_cell_length_c 18.2898(1)
_cell_angle_alpha 90
_cell_angle_beta 108.507(1)
_cell_angle_gamma 90
_cell_formula_units_Z 8
loop_
_atom_type_symbol
_atom_type_radius_bond
C 0.68
H 0.23
N 0.68
O 0.68
loop_
_atom_site_label
_atom_site_type_symbol
_atom_site_fract_x
_atom_site_fract_y
_atom_site_fract_z
N1 N 0.42743(7) -0.11060(11) 0.19079(6)
O1 O 0.41983(8) -0.33891(11) 0.19762(6)
C1 C 0.42568(9) -0.23866(15) 0.15981(8)
C2 C 0.43215(11) -0.25336(18) 0.0805(1)
H1 H 0.42160 -0.34630 0.06370
H2 H 0.48420 -0.22900 0.08140
H3 H 0.39480 -0.19420 0.04560
C3 C 0.44573(8) 0.01345(15) 0.15469(8)
H4 H 0.48020 -0.01190 0.12540
H5 H 0.47500 0.07460 0.19540
C4 C 0.37642(9) 0.09305(14) 0.10122(7)
O2 O 0.34908(6) 0.03889(11) 0.02496(5)
O3 O 0.40782(7) 0.22463(10) 0.09464(6)
C5 C 0.38734(11) 0.1139(2) -0.01965(9)
H6 H 0.35630 0.11490 -0.07380
H7 H 0.43890 0.07670 -0.01410
C6 C 0.39297(13) 0.2524(2) 0.0149(1)
H8 H 0.43560 0.30420 0.00660
H9 H 0.34430 0.30260 -0.00640
C7 C 0.30342(9) 0.10156(16) 0.12752(8)
H10 H 0.27560 0.18530 0.10740
H11 H 0.26890 0.02600 0.10470
N2 N 0.31876(7) 0.09854(12) 0.21094(6)
O4 O 0.34809(9) 0.19555(13) 0.32704(7)
C8 C 0.33779(9) 0.20969(15) 0.25836(9)
C9 C 0.34548(12) 0.34711(17) 0.22506(11)
H12 H 0.36810 0.41060 0.26610
H13 H 0.29450 0.37890 0.19450
H14 H 0.37870 0.33970 0.19320
C10 C 0.29502(8) -0.02417(15) 0.24289(8)
H15 H 0.26470 -0.08160 0.20070
H16 H 0.26100 0.00210 0.27240
C11 C 0.36321(8) -0.10753(13) 0.29462(7)
O5 O 0.32586(7) -0.07127(13) 0.40496(6)
N3 N 0.38111(8) -0.06559(12) 0.37977(7)
O6 O 0.44718(7) -0.03346(13) 0.41615(6)
N4 N 0.33605(8) -0.25678(13) 0.29879(8)
O7 O 0.37928(9) -0.32760(12) 0.34934(8)
O8 O 0.27470(8) -0.29340(13) 0.25285(9)
C12 C 0.43890(8) -0.10393(14) 0.27372(7)
H17 H 0.46700 -0.02050 0.29410
H18 H 0.47170 -0.18010 0.29880
N5 N 0.02805(7) 0.66909(11) 0.47725(6)
O9 O -0.08978(8) 0.70490(12) 0.49381(8)
C13 C 0.01890(13) 0.8139(2) 0.58514(10)
H19 H -0.02070 0.86520 0.59820
H20 H 0.05520 0.87550 0.57360
H21 H 0.04650 0.75700 0.62790
C14 C -0.01913(11) 0.72617(15) 0.51605(9)
C15 C 0.11346(9) 0.66485(14) 0.50892(8)
H22 H 0.13060 0.57410 0.50020
H23 H 0.12790 0.67770 0.56430
C16 C 0.15929(8) 0.76938(14) 0.47715(8)
O10 O 0.12077(6) 0.89664(10) 0.46937(6)
O11 O 0.23504(7) 0.78607(11) 0.53288(7)
C17 C 0.18095(11) 0.99748(17) 0.49819(12)
H24 H 0.16090 1.07740 0.51710
H25 H 0.20360 1.02520 0.45890
C18 C 0.23923(12) 0.92232(19) 0.56220(12)
H26 H 0.29150 0.96000 0.57270
H27 H 0.22480 0.92520 0.60900
C19 C 0.17408(9) 0.72573(16) 0.40271(9)
H28 H 0.18370 0.80670 0.37640
H29 H 0.22120 0.67010 0.41580
O12 O 0.05763(7) 0.46438(13) 0.28149(7)
N6 N 0.10951(7) 0.64889(12) 0.34989(7)
C20 C 0.11566(9) 0.51892(16) 0.32618(8)
C21 C 0.19200(11) 0.4438(2) 0.35666(12)
H30 H 0.18630 0.35350 0.33510
H31 H 0.20660 0.43790 0.41180
H32 H 0.23200 0.49200 0.34260
C22 C 0.03614(8) 0.72121(15) 0.31417(8)
H33 H 0.02450 0.71970 0.25860
H34 H 0.04240 0.81590 0.33070
C23 C -0.03320(8) 0.65957(13) 0.33432(8)
O13 O -0.06599(7) 0.87885(11) 0.36661(7)
N7 N -0.09258(8) 0.77231(12) 0.33623(7)
O14 O -0.09839(8) 0.60577(14) 0.20439(7)
N8 N -0.08267(7) 0.56468(13) 0.27017(7)
O15 O -0.10468(7) 0.45662(12) 0.28897(8)
O16 O -0.16201(7) 0.74303(14) 0.31137(8)
C24 C -0.01197(8) 0.58382(13) 0.41161(8)
H35 H -0.05970 0.54820 0.41860
H36 H 0.02140 0.50670 0.41000
#END
