
#######################################################################
#
#                 Cambridge Crystallographic Data Centre
#                                CCDC
#
#######################################################################
#
# If this CIF has been generated from an entry in the Cambridge
# Structural Database, then it will include bibliographic, chemical,
# crystal, experimental, refinement or atomic coordinate data resulting
# from the CCDC's data processing and validation procedures.
#
#######################################################################

data_CSD_CIF_CACFOD
_audit_creation_date 2011-01-04
_audit_creation_method CSD-ConQuest-V1
_database_code_CSD CACFOD
_database_code_depnum_ccdc_archive 'CCDC 789345'
_database_code_depnum_ccdc_journal 1267/3005
_chemical_formula_sum 'C13 H13 N5 O6'
_chemical_formula_moiety
;
C13 H13 N5 O6
;
_journal_coden_Cambridge 1267
_journal_volume 225
_journal_year 2010
_journal_page_first 359
_journal_name_full 'Z.Kristallogr.-New Cryst.Struct. '
loop_
_publ_author_name
"Hai-Yun Zhu"
"Ya-Ning Guo"
"De-Suo Yang"
_chemical_name_systematic
;
(Z)-1-(2,4-Dinitrophenyl)-2-(3-methyl-2-nitrocyclohex-2-en-1-ylidene)hydrazine
;
_cell_volume   1479.330
_exptl_crystal_colour 'white'
_exptl_crystal_density_diffrn 1.505
_exptl_crystal_description 'block'
_exptl_crystal_preparation 'ethyl acetate/hexane'
_diffrn_ambient_temperature 293
#These two values have been output from a single CSD field.
_refine_ls_R_factor_gt 0.0342
_refine_ls_wR_factor_gt 0.0342
_symmetry_cell_setting monoclinic
_symmetry_space_group_name_H-M 'P 21/c'
_symmetry_Int_Tables_number 14
loop_
_symmetry_equiv_pos_site_id
_symmetry_equiv_pos_as_xyz
1 x,y,z
2 -x,1/2+y,1/2-z
3 -x,-y,-z
4 x,-1/2-y,-1/2+z
_cell_length_a 14.501(2)
_cell_length_b 6.362(1)
_cell_length_c 17.166(2)
_cell_angle_alpha 90
_cell_angle_beta 110.913(9)
_cell_angle_gamma 90
_cell_formula_units_Z 4
loop_
_atom_type_symbol
_atom_type_radius_bond
C 0.68
H 0.23
N 0.68
O 0.68
loop_
_atom_site_label
_atom_site_type_symbol
_atom_site_fract_x
_atom_site_fract_y
_atom_site_fract_z
N1 N 0.21423(9) 0.2481(2) 0.38156(8)
N2 N 0.30641(9) 0.3240(2) 0.39278(8)
H1 H 0.35790 0.25780 0.42440
N3 N 0.03224(10) 0.0980(2) 0.34267(8)
N4 N 0.50127(10) 0.4768(2) 0.40628(8)
N5 N 0.34298(12) 1.0829(2) 0.24048(9)
O1 O -0.02228(9) 0.2147(2) 0.36234(8)
O2 O 0.02274(9) 0.0574(2) 0.27128(7)
O3 O 0.49790(8) 0.3096(2) 0.44239(7)
O4 O 0.57955(8) 0.5541(2) 0.40899(8)
O5 O 0.42502(10) 1.1644(2) 0.26088(8)
O6 O 0.26835(11) 1.1611(2) 0.19113(9)
C1 C 0.29474(12) -0.0134(3) 0.49457(10)
H2 H 0.34380 0.09160 0.52260
H3 H 0.32550 -0.11530 0.46950
C2 C 0.26034(14) -0.1234(3) 0.55812(11)
H4 H 0.31510 -0.20100 0.59700
H5 H 0.23960 -0.01880 0.58950
C3 C 0.17573(13) -0.2728(3) 0.51700(11)
H6 H 0.20020 -0.39250 0.49520
H7 H 0.15040 -0.32440 0.55860
C4 C 0.09295(13) -0.1718(3) 0.44727(10)
C5 C 0.11350(11) -0.0024(2) 0.41067(9)
C6 C 0.21026(11) 0.0904(2) 0.42736(9)
C7 C 0.31659(11) 0.5033(2) 0.35419(9)
C8 C 0.23313(11) 0.6199(3) 0.30581(9)
H8 H 0.17060 0.56960 0.29910
C9 C 0.24149(12) 0.8035(3) 0.26869(9)
H9 H 0.18520 0.87680 0.23680
C10 C 0.33453(11) 0.8819(3) 0.27841(9)
C11 C 0.41866(11) 0.7746(3) 0.32366(9)
H10 H 0.48050 0.82810 0.32960
C12 C 0.41023(11) 0.5849(3) 0.36052(9)
C13 C -0.00687(14) -0.2691(3) 0.42225(12)
H11 H -0.03310 -0.24860 0.46570
H12 H -0.00200 -0.41680 0.41310
H13 H -0.04980 -0.20450 0.37180
#END
