
#######################################################################
#
#                 Cambridge Crystallographic Data Centre
#                                CCDC
#
#######################################################################
#
# If this CIF has been generated from an entry in the Cambridge
# Structural Database, then it will include bibliographic, chemical,
# crystal, experimental, refinement or atomic coordinate data resulting
# from the CCDC's data processing and validation procedures.
#
#######################################################################

data_CSD_CIF_CACHAP
_audit_creation_date 1984-04-14
_audit_creation_method CSD-ConQuest-V1
_database_code_CSD CACHAP
_database_code_depnum_ccdc_archive 'CCDC 1118733'
_chemical_formula_sum 'C6 H5 N3 O1'
_chemical_formula_moiety
;
C6 H5 N3 O1
;
_journal_coeditor_code "IUCr A22620"
_journal_coden_Cambridge 591
_journal_volume 39
_journal_year 1983
_journal_page_first 1089
_journal_name_full 'Acta Crystallogr.,Sect.C:Cryst.Struct.Commun. '
loop_
_publ_author_name
"R.Bosch"
"G.Jung"
"W.Winter"
_chemical_name_systematic
;
1-Hydroxybenzotriazole
;
_cell_volume   1236.017
_exptl_crystal_colour 'colorless'
_exptl_crystal_density_diffrn 1.452
_exptl_special_details
;
Atom labelling scheme used in Fig.2(b) does not correspond with that used in 
Table 1. Latter labels are used in file
;
_diffrn_ambient_temperature ?
_diffrn_special_details
;
The study was carried out at room temperature,in the range 283-303K

;
#These two values have been output from a single CSD field.
_refine_ls_R_factor_gt 0.042
_refine_ls_wR_factor_gt 0.042
_symmetry_cell_setting monoclinic
_symmetry_space_group_name_H-M 'C 2/c'
_symmetry_Int_Tables_number 15
loop_
_symmetry_equiv_pos_site_id
_symmetry_equiv_pos_as_xyz
1 x,y,z
2 1/2+x,1/2+y,z
3 -x,y,1/2-z
4 1/2-x,1/2+y,1/2-z
5 -x,-y,-z
6 -1/2-x,-1/2-y,-z
7 x,-y,-1/2+z
8 -1/2+x,-1/2-y,-1/2+z
_cell_length_a 12.233(3)
_cell_length_b 7.937(5)
_cell_length_c 13.164(2)
_cell_angle_alpha 90
_cell_angle_beta 104.75(1)
_cell_angle_gamma 90
_cell_formula_units_Z 8
loop_
_atom_type_symbol
_atom_type_radius_bond
C 0.68
H 0.23
N 0.68
O 0.68
loop_
_atom_site_label
_atom_site_type_symbol
_atom_site_fract_x
_atom_site_fract_y
_atom_site_fract_z
C1 C 0.70510 0.07050 0.56510
C2 C 0.63430 0.18840 0.59400
C3 C 0.54310 0.25480 0.51790
C4 C 0.52980 0.20230 0.41740
C5 C 0.60280 0.08290 0.39030
C6 C 0.69120 0.01640 0.46230
N1 N 0.78190 0.03730 0.65680
N2 N 0.76410 0.12320 0.73690
N3 N 0.67290 0.21560 0.69970
O1 O 0.87230 -0.06770 0.67000
H1 H 0.74160 -0.06380 0.44360
H2 H 0.49860 0.34090 0.53940
H3 H 0.47060 0.24370 0.36040
H4 H 0.58890 0.05150 0.31790
H5 H 0.86150 -0.15780 0.72950
#END
