
#######################################################################
#
#                 Cambridge Crystallographic Data Centre
#                                CCDC
#
#######################################################################
#
# If this CIF has been generated from an entry in the Cambridge
# Structural Database, then it will include bibliographic, chemical,
# crystal, experimental, refinement or atomic coordinate data resulting
# from the CCDC's data processing and validation procedures.
#
#######################################################################

data_CSD_CIF_CACNEA
_audit_creation_date 2002-03-27
_audit_creation_method CSD-ConQuest-V1
_database_code_CSD CACNEA
_database_code_depnum_ccdc_archive 'CCDC 162378'
_chemical_formula_sum 'C11 H9 N1 O6'
_chemical_formula_moiety
;
C11 H9 N1 O6
;
_journal_coden_Cambridge 1291
_journal_year 2001
_journal_page_first 4657
_journal_name_full 'Eur.J.Org.Chem. '
loop_
_publ_author_name
"R.Herrera"
"H.A.Jimenez-Vazquez"
"A.Modelli"
"D.Jones"
"B.C.Soderberg"
"J.Tamariz"
_chemical_name_systematic
;
Methyl 2-(p-nitrobenzoyloxy)-2-propenoate
;
_chemical_name_common
;
Methyl 2-(p-nitrobenzoyloxy)acrylate
;
_chemical_melting_point 353
_cell_volume   2268.762
_exptl_crystal_colour 'colorless'
_exptl_crystal_density_diffrn 1.471
_exptl_special_details
;
Melting point range 353-354K

;
_exptl_crystal_description 'prism'
_exptl_crystal_preparation 'hexane/dichloromethane(6'
_diffrn_ambient_temperature 293
#These two values have been output from a single CSD field.
_refine_ls_R_factor_gt 0.0597
_refine_ls_wR_factor_gt 0.0597
_symmetry_cell_setting monoclinic
_symmetry_space_group_name_H-M 'C 2/c'
_symmetry_Int_Tables_number 15
loop_
_symmetry_equiv_pos_site_id
_symmetry_equiv_pos_as_xyz
1 x,y,z
2 1/2+x,1/2+y,z
3 x,-y,1/2+z
4 1/2+x,1/2-y,1/2+z
5 -x,-y,-z
6 -1/2-x,-1/2-y,-z
7 -x,y,-1/2-z
8 -1/2-x,-1/2+y,-1/2-z
_cell_length_a 24.087(4)
_cell_length_b 7.0305(5)
_cell_length_c 13.6270(9)
_cell_angle_alpha 90
_cell_angle_beta 100.533(12)
_cell_angle_gamma 90
_cell_formula_units_Z 8
loop_
_atom_type_symbol
_atom_type_radius_bond
C 0.68
H 0.23
N 0.68
O 0.68
loop_
_atom_site_label
_atom_site_type_symbol
_atom_site_fract_x
_atom_site_fract_y
_atom_site_fract_z
O1 O 0.11991(8) 0.1749(3) 0.26876(14)
O2 O 0.16950(9) 0.1451(3) 0.14537(15)
O3 O 0.07045(10) -0.1463(3) 0.1875(2)
C1 C 0.21628(11) 0.1094(4) 0.3148(2)
C2 C 0.30747(11) 0.0476(4) 0.4627(2)
C3 C 0.20852(11) 0.0378(4) 0.4064(2)
H1 H 0.17227(11) 0.0130(4) 0.4176(2)
C4 C 0.16766(11) 0.1430(4) 0.2322(2)
C5 C 0.31612(12) 0.1212(4) 0.3734(2)
H2 H 0.35233(12) 0.1512(4) 0.3637(2)
C6 C 0.27023(12) 0.1496(4) 0.2985(2)
H3 H 0.27538(12) 0.1958(4) 0.2368(2)
O4 O -0.00759(9) 0.0143(3) 0.11857(15)
C7 C 0.25493(12) 0.0031(4) 0.4810(2)
H4 H 0.25046(12) -0.0489(4) 0.5418(2)
N1 N 0.35698(11) 0.0131(4) 0.5425(2)
C8 C 0.06923(11) 0.1891(4) 0.2003(2)
C9 C 0.04497(12) 0.0002(4) 0.1683(2)
C10 C 0.04593(13) 0.3554(5) 0.1769(2)
H5 H 0.06311(13) 0.4653(5) 0.2059(2)
H6 H 0.01221(13) 0.3634(5) 0.1312(2)
O5 O 0.34932(11) -0.0725(4) 0.6173(2)
O6 O 0.40271(10) 0.0675(5) 0.5299(2)
C11 C -0.0351(2) -0.1636(5) 0.0846(3)
H7 H -0.0687(6) -0.1378(6) 0.0365(15)
H8 H -0.045(1) -0.2304(19) 0.1404(4)
H9 H -0.0099(4) -0.2404(16) 0.0543(18)
#END
