
#######################################################################
#
#                 Cambridge Crystallographic Data Centre
#                                CCDC
#
#######################################################################
#
# If this CIF has been generated from an entry in the Cambridge
# Structural Database, then it will include bibliographic, chemical,
# crystal, experimental, refinement or atomic coordinate data resulting
# from the CCDC's data processing and validation procedures.
#
#######################################################################

data_CSD_CIF_CACNOK
_audit_creation_date 2002-03-27
_audit_creation_method CSD-ConQuest-V1
_database_code_CSD CACNOK
_database_code_depnum_ccdc_archive 'CCDC 165933'
_chemical_formula_sum 'C17 H15 N1 O3'
_chemical_formula_moiety
;
C17 H15 N1 O3
;
_journal_coden_Cambridge 1291
_journal_year 2001
_journal_page_first 4671
_journal_name_full 'Eur.J.Org.Chem. '
loop_
_publ_author_name
"G.Grassi"
"G.Bruno"
"F.Risitano"
"F.Foti"
"F.Caruso"
"F.Nicolo"
_chemical_name_systematic
;
4-(2-Methoxybenzyl)-3-phenyl-2H-isoxazol-5-one
;
_cell_volume   2153.416
_exptl_crystal_colour 'colorless'
_exptl_crystal_density_diffrn 1.301
_exptl_crystal_description 'bipyramid'
_diffrn_ambient_temperature 293
#These two values have been output from a single CSD field.
_refine_ls_R_factor_gt 0.034
_refine_ls_wR_factor_gt 0.034
_symmetry_cell_setting triclinic
_symmetry_space_group_name_H-M 'P -1'
_symmetry_Int_Tables_number 2
loop_
_symmetry_equiv_pos_site_id
_symmetry_equiv_pos_as_xyz
1 x,y,z
2 -x,-y,-z
_cell_length_a 11.9889(18)
_cell_length_b 14.1603(19)
_cell_length_c 15.2948(17)
_cell_angle_alpha 107.442(10)
_cell_angle_beta 106.54(1)
_cell_angle_gamma 107.466(11)
_cell_formula_units_Z 6
loop_
_atom_type_symbol
_atom_type_radius_bond
C 0.68
H 0.23
N 0.68
O 0.68
loop_
_atom_site_label
_atom_site_type_symbol
_atom_site_fract_x
_atom_site_fract_y
_atom_site_fract_z
C1 C 0.32714(14) -0.02307(11) 0.62038(11)
O1 O 0.29789(10) -0.05124(8) 0.52978(7)
C2 C 0.27840(14) -0.07188(11) 0.67741(10)
C3 C 0.34842(14) 0.00152(11) 0.77587(10)
N1 N 0.43484(15) 0.09179(11) 0.78204(10)
H1 H 0.5067(17) 0.1486(14) 0.8313(13)
O2 O 0.42662(10) 0.07838(8) 0.68593(7)
C4 C 0.16818(14) -0.18115(11) 0.63146(11)
H2 H 0.17080 -0.20870 0.68260
H3 H 0.18010 -0.23050 0.57900
C5 C 0.03572(14) -0.18485(13) 0.58657(11)
C6 C -0.07038(16) -0.28589(14) 0.53816(12)
C7 C -0.19267(18) -0.29448(19) 0.49376(14)
H4 H -0.26250 -0.36230 0.46230
C8 C -0.2111(2) -0.2034(2) 0.49600(16)
H5 H -0.29360 -0.20960 0.46550
C9 C -0.1088(2) -0.1027(2) 0.54283(17)
H6 H -0.12170 -0.04080 0.54400
C10 C 0.01446(18) -0.09420(16) 0.58853(13)
H7 H 0.08360 -0.02600 0.62100
O3 O -0.04278(11) -0.37325(9) 0.53639(9)
C11 C -0.1476(2) -0.47875(16) 0.4940(2)
H8 H -0.11460 -0.53210 0.49770
H9 H -0.19810 -0.49770 0.42500
H10 H -0.20010 -0.47700 0.53090
C12 C 0.33742(14) -0.00261(12) 0.86861(11)
C13 C 0.33863(16) -0.09034(13) 0.89059(11)
H11 H 0.34840 -0.14650 0.84760
C14 C 0.32528(18) -0.09460(16) 0.97640(13)
H12 H 0.32600 -0.15370 0.99100
C15 C 0.3112(2) -0.01256(19) 1.03948(14)
H13 H 0.30090 -0.01650 1.09650
C16 C 0.3120(2) 0.07571(19) 1.01979(15)
H14 H 0.30410 0.13220 1.06410
C17 C 0.32451(19) 0.08089(15) 0.93366(13)
H15 H 0.32420 0.14050 0.91980
C18 C 0.58782(14) 0.24520(12) 0.50592(10)
O4 O 0.68694(10) 0.32874(8) 0.56167(7)
C19 C 0.50529(14) 0.19809(11) 0.40328(10)
C20 C 0.40756(14) 0.10486(11) 0.38704(10)
N2 N 0.42911(13) 0.09037(11) 0.47135(9)
H16 H 0.3818(17) 0.0404(14) 0.4917(13)
O5 O 0.53939(10) 0.17775(8) 0.54870(7)
C21 C 0.53350(15) 0.23569(11) 0.32703(10)
H17 H 0.48350 0.17440 0.26150
H18 H 0.62320 0.25350 0.34090
C22 C 0.50854(14) 0.33200(11) 0.31954(10)
C23 C 0.55654(15) 0.37948(12) 0.26238(11)
C24 C 0.53972(18) 0.46908(14) 0.25404(14)
H19 H 0.57170 0.49960 0.21550
C25 C 0.47531(19) 0.51265(15) 0.30321(16)
H20 H 0.46480 0.57370 0.29850
C26 C 0.42645(18) 0.46761(15) 0.35886(15)
H21 H 0.38190 0.49710 0.39120
C27 C 0.44364(16) 0.37723(13) 0.36706(12)
H22 H 0.41060 0.34690 0.40540
O6 O 0.62242(12) 0.33132(9) 0.21849(8)
C28 C 0.6795(2) 0.37837(19) 0.16281(18)
H23 H 0.72210 0.33710 0.13640
H24 H 0.74060 0.45240 0.20620
H25 H 0.61400 0.37730 0.10840
C29 C 0.28818(15) 0.02570(11) 0.29808(10)
C30 C 0.20407(17) 0.06207(14) 0.25176(12)
H26 H 0.22710 0.13660 0.27240
C31 C 0.0862(2) -0.01162(16) 0.17505(14)
H27 H 0.02920 0.01320 0.14490
C32 C 0.0530(2) -0.12102(17) 0.14323(14)
H28 H -0.02720 -0.17080 0.09240
C33 C 0.1380(2) -0.15738(15) 0.18637(15)
H29 H 0.11660 -0.23180 0.16270
C34 C 0.25471(18) -0.08457(13) 0.26441(13)
H30 H 0.31110 -0.11000 0.29440
C35 C 0.70014(14) 0.34235(11) 0.88539(10)
O7 O 0.64969(11) 0.28329(8) 0.92105(7)
C36 C 0.78813(13) 0.45256(11) 0.92549(10)
C37 C 0.80563(14) 0.47028(11) 0.84596(10)
N3 N 0.73998(13) 0.37772(10) 0.76249(9)
H31 H 0.7170(16) 0.3592(13) 0.6949(13)
O8 O 0.66888(10) 0.29609(7) 0.78273(7)
C38 C 0.85895(14) 0.52609(12) 1.03584(10)
H32 H 0.94090 0.57840 1.04640
H33 H 0.87690 0.48190 1.07090
C39 C 0.79553(14) 0.58898(11) 1.08531(10)
C40 C 0.85668(15) 0.65281(12) 1.18946(11)
C41 C 0.80226(19) 0.71036(14) 1.23886(13)
H34 H 0.84450 0.75280 1.30790
C42 C 0.6849(2) 0.70480(15) 1.18552(15)
H35 H 0.64730 0.74280 1.21890
C43 C 0.62330(18) 0.64392(15) 1.08407(15)
H36 H 0.54430 0.64090 1.04830
C44 C 0.67871(16) 0.58655(13) 1.03434(12)
H37 H 0.63620 0.54550 0.96510
O9 O 0.97169(11) 0.65156(9) 1.23620(7)
C45 C 1.0439(2) 0.72141(19) 1.34159(12)
H38 H 1.12190 0.71290 1.36520
H39 H 0.99400 0.70210 1.37790
H40 H 1.06400 0.79600 1.35220
C46 C 0.87717(14) 0.57001(12) 0.83829(10)
C47 C 0.8685(2) 0.66564(13) 0.88500(14)
H41 H 0.82370 0.66850 0.92560
C48 C 0.9267(2) 0.75755(15) 0.87146(16)
H42 H 0.91960 0.82160 0.90230
C49 C 0.9941(2) 0.75456(16) 0.81325(15)
H43 H 1.03410 0.81670 0.80510
C50 C 1.0028(2) 0.66008(17) 0.76691(16)
H44 H 1.04840 0.65800 0.72680
C51 C 0.94461(17) 0.56764(14) 0.77887(13)
H45 H 0.95090 0.50360 0.74680
#END
