
#######################################################################
#
#                 Cambridge Crystallographic Data Centre
#                                CCDC
#
#######################################################################
#
# If this CIF has been generated from an entry in the Cambridge
# Structural Database, then it will include bibliographic, chemical,
# crystal, experimental, refinement or atomic coordinate data resulting
# from the CCDC's data processing and validation procedures.
#
#######################################################################

data_CSD_CIF_CACROO
_audit_creation_date 2002-03-27
_audit_creation_method CSD-ConQuest-V1
_database_code_CSD CACROO
_database_code_depnum_ccdc_archive 'CCDC 171415'
_chemical_formula_sum 'C11 H11 N3 O2'
_chemical_formula_moiety
;
C11 H11 N3 O2
;
_journal_coden_Cambridge 692
_journal_year 2001
_journal_page_first 2393
_journal_name_full 'Synthesis '
loop_
_publ_author_name
"B.L.Booth"
"R.A.Carpenter"
"G.Morlock"
"Z.Mahmood"
"R.B.Pritchard"
_chemical_name_systematic
;
5-Amino-1-benzyloxyimidazole-4-carbaldehyde
;
_chemical_melting_point 383.15
_cell_volume   1069.925
_exptl_crystal_colour 'colorless'
_exptl_crystal_density_diffrn 1.349
_exptl_special_details
;
Melting point range 383.15-385.15K

;
_exptl_crystal_description 'plate'
_diffrn_ambient_temperature 293
#These two values have been output from a single CSD field.
_refine_ls_R_factor_gt 0.0409
_refine_ls_wR_factor_gt 0.0409
_symmetry_cell_setting orthorhombic
_symmetry_space_group_name_H-M 'P 21 21 21'
_symmetry_Int_Tables_number 19
loop_
_symmetry_equiv_pos_site_id
_symmetry_equiv_pos_as_xyz
1 x,y,z
2 1/2-x,-y,1/2+z
3 -x,1/2+y,1/2-z
4 1/2+x,1/2-y,-z
_cell_length_a 6.186(2)
_cell_length_b 9.457(2)
_cell_length_c 18.289(4)
_cell_angle_alpha 90
_cell_angle_beta 90
_cell_angle_gamma 90
_cell_formula_units_Z 4
loop_
_atom_type_symbol
_atom_type_radius_bond
C 0.68
H 0.23
N 0.68
O 0.68
loop_
_atom_site_label
_atom_site_type_symbol
_atom_site_fract_x
_atom_site_fract_y
_atom_site_fract_z
O1 O -0.0181(3) 0.5085(3) 0.73287(10)
O2 O 0.2586(4) 0.2170(3) 0.96568(11)
N1 N 0.1472(4) 0.4573(3) 0.77566(13)
N2 N 0.4749(4) 0.4058(3) 0.81133(13)
N3 N -0.0748(4) 0.3517(4) 0.8652(2)
C1 C 0.3649(5) 0.4701(4) 0.7618(2)
C2 C 0.3254(4) 0.3468(3) 0.8597(2)
C3 C 0.1178(4) 0.3802(3) 0.83701(15)
C4 C 0.3839(5) 0.2661(4) 0.9210(2)
C5 C -0.0802(5) 0.4017(5) 0.6780(2)
C6 C 0.1035(5) 0.3704(4) 0.62836(15)
C7 C 0.1606(6) 0.4639(4) 0.5742(2)
C8 C 0.3434(7) 0.4407(4) 0.5331(2)
C9 C 0.4666(6) 0.3243(5) 0.5453(2)
C10 C 0.4097(7) 0.2285(4) 0.5971(2)
C11 C 0.2265(6) 0.2519(4) 0.6391(2)
H1 H 0.4153(50) 0.5328(34) 0.7224(18)
H2 H 0.5472(64) 0.2524(39) 0.9289(18)
H3 H -0.1374(78) 0.3031(42) 0.7037(19)
H4 H -0.1886(69) 0.3875(36) 0.8448(18)
H5 H -0.0839(51) 0.3098(32) 0.9045(17)
H6 H -0.1946(68) 0.4489(38) 0.6558(18)
H7 H 0.0833(53) 0.5447(34) 0.5659(17)
H8 H 0.3924(60) 0.5134(36) 0.4972(19)
H9 H 0.5883(62) 0.3108(38) 0.5184(17)
H10 H 0.4896(69) 0.1480(35) 0.6070(17)
H11 H 0.1865(64) 0.1821(37) 0.6733(19)
#END
