
#######################################################################
#
#                 Cambridge Crystallographic Data Centre
#                                CCDC
#
#######################################################################
#
# If this CIF has been generated from an entry in the Cambridge
# Structural Database, then it will include bibliographic, chemical,
# crystal, experimental, refinement or atomic coordinate data resulting
# from the CCDC's data processing and validation procedures.
#
#######################################################################

data_CSD_CIF_CACTAE
_audit_creation_date 2015-11-26
_audit_creation_method CSD-ConQuest-V1
_database_code_CSD CACTAE
_database_code_depnum_ccdc_archive 'CCDC 1057827'
_chemical_formula_sum 'C47 H65 N1 O5'
_chemical_formula_moiety
;
C47 H65 N1 O5
;
_journal_coden_Cambridge 1475
_journal_volume 7
_journal_year 2016
_journal_page_first 1383
_journal_name_full 'Chemical Science '
loop_
_publ_author_name
"Jing Peng"
"Chao Chen"
"Chanjuan Xi"
_chemical_name_systematic
;
dimethyl 4,4'-(3-(methoxyimino)lanost-8-ene-28,29-diyl)dibenzoate unknown 
solvate
;
_cell_volume   4299.852
_exptl_crystal_colour 'colorless'
_exptl_crystal_density_diffrn 1.118
_exptl_crystal_description 'Plate'
_diffrn_ambient_temperature 173
_refine_special_details
;
The SQUEEZE/PLATON program has been used to model some disorder.

;
#These two values have been output from a single CSD field.
_refine_ls_R_factor_gt 0.0992
_refine_ls_wR_factor_gt 0.0992
_symmetry_cell_setting monoclinic
_symmetry_space_group_name_H-M 'C 2'
_symmetry_Int_Tables_number 5
loop_
_symmetry_equiv_pos_site_id
_symmetry_equiv_pos_as_xyz
1 x,y,z
2 -x,y,-z
3 1/2+x,1/2+y,z
4 1/2-x,1/2+y,-z
_cell_length_a 35.188(7)
_cell_length_b 7.4837(15)
_cell_length_c 16.526(3)
_cell_angle_alpha 90
_cell_angle_beta 98.87(3)
_cell_angle_gamma 90
_cell_formula_units_Z 4
loop_
_atom_type_symbol
_atom_type_radius_bond
C 0.68
H 0.23
N 0.68
O 0.68
loop_
_atom_site_label
_atom_site_type_symbol
_atom_site_fract_x
_atom_site_fract_y
_atom_site_fract_z
C1 C 0.29312(11) 0.5125(5) 0.3187(2)
C2 C 0.27764(11) 0.4890(5) 0.2294(2)
O1 O 0.40725(9) 1.0178(4) 0.6315(2)
C3 C 0.30586(11) 0.7030(5) 0.4463(2)
C4 C 0.33942(11) 0.5695(5) 0.4742(2)
H1 H 0.35870 0.59310 0.43680
C5 C 0.37715(13) 0.3712(6) 0.7546(2)
H2 H 0.37740 0.26240 0.72510
C6 C 0.32138(12) 0.8954(5) 0.4662(2)
H3 H 0.34170 0.92210 0.43270
H4 H 0.30020 0.98230 0.45110
C7 C 0.31136(14) 0.3553(5) 0.3632(3)
H5 H 0.33350 0.31840 0.33660
H6 H 0.29260 0.25580 0.35640
C8 C 0.37012(12) 0.7891(6) 0.5804(2)
C9 C 0.23079(12) 0.5604(5) 0.1114(2)
H7 H 0.25080 0.59870 0.07820
C10 C 0.19125(12) 0.6265(6) 0.0663(3)
H8 H 0.17070 0.58700 0.09790
C11 C 0.46622(11) 0.4810(7) 0.3697(3)
C12 C 0.32559(12) 0.3793(5) 0.4546(2)
H9 H 0.30450 0.35090 0.48570
H10 H 0.34700 0.29490 0.47200
C13 C 0.24431(11) 0.6218(5) 0.2011(2)
C14 C 0.33767(12) 0.9180(5) 0.5563(2)
H11 H 0.34710 1.04180 0.56650
H12 H 0.31720 0.89630 0.59000
O2 O 0.48999(12) 0.3421(6) 0.2583(2)
O3 O 0.50521(10) 0.6254(6) 0.2881(2)
N1 N 0.40406(10) 0.8319(4) 0.6151(2)
C15 C 0.36250(11) 0.5898(5) 0.5629(2)
C16 C 0.40054(12) 0.4787(5) 0.5700(2)
H13 H 0.41760 0.51920 0.61990
H14 H 0.39400 0.35230 0.57900
C17 C 0.29328(11) 0.6767(5) 0.3530(2)
C18 C 0.27704(13) 0.8375(6) 0.3058(2)
H15 H 0.29770 0.92820 0.30860
H16 H 0.25660 0.88810 0.33400
C19 C 0.26010(12) 0.8099(5) 0.2153(2)
H17 H 0.23920 0.89760 0.19920
H18 H 0.28030 0.83060 0.18080
C20 C 0.26897(12) 0.6726(6) 0.4845(3)
H19 H 0.26220 0.54560 0.48120
H20 H 0.24790 0.74290 0.45450
H21 H 0.27350 0.71020 0.54200
C21 C 0.42337(11) 0.4838(6) 0.5003(2)
C22 C 0.35949(15) 0.6781(6) 0.7615(3)
H22 H 0.34780 0.78200 0.73550
C23 C 0.33880(12) 0.5157(6) 0.6285(2)
H23 H 0.31470 0.58570 0.62520
H24 H 0.33150 0.39050 0.61440
O4 O 0.42814(16) 0.4050(7) 0.9954(2)
C24 C 0.25845(13) 0.3094(6) 0.2012(3)
H25 H 0.27810 0.21850 0.19380
H26 H 0.24270 0.26450 0.24170
C25 C 0.35937(12) 0.5209(5) 0.7162(2)
C26 C 0.48790(13) 0.4721(7) 0.2997(3)
C27 C 0.44177(14) 0.6346(7) 0.4778(3)
H27 H 0.43990 0.74240 0.50730
C28 C 0.23297(13) 0.3516(6) 0.1191(3)
H28 H 0.20690 0.30080 0.11820
H29 H 0.24430 0.29990 0.07310
C29 C 0.21142(12) 0.5961(6) 0.2507(2)
H30 H 0.19900 0.48050 0.23690
H31 H 0.19250 0.69210 0.23760
H32 H 0.22160 0.59930 0.30930
C30 C 0.39441(14) 0.3792(7) 0.8348(3)
H33 H 0.40690 0.27670 0.86040
C31 C 0.42753(15) 0.3297(7) 0.4558(3)
H34 H 0.41580 0.22240 0.47000
C32 C 0.39358(15) 0.5394(8) 0.8792(3)
C33 C 0.19023(14) 0.8308(7) 0.0599(3)
H35 H 0.19180 0.88260 0.11480
H36 H 0.16620 0.86830 0.02620
H37 H 0.21210 0.87230 0.03460
C34 C 0.37586(17) 0.6880(7) 0.8418(3)
H38 H 0.37500 0.79630 0.87150
C35 C 0.13874(14) 0.4836(8) -0.1509(3)
H39 H 0.16080 0.51520 -0.17890
H40 H 0.14040 0.35360 -0.13970
C36 C 0.18354(12) 0.5425(7) -0.0190(2)
H41 H 0.18660 0.41150 -0.01290
H42 H 0.20350 0.58540 -0.05060
C37 C 0.46295(14) 0.6340(7) 0.4135(3)
H43 H 0.47530 0.74040 0.39990
C38 C 0.14404(13) 0.5805(7) -0.0689(3)
H44 H 0.12380 0.54180 -0.03730
H45 H 0.14120 0.71070 -0.07850
C39 C 0.10228(14) 0.5171(8) -0.2103(3)
H46 H 0.09880 0.64940 -0.21570
C40 C 0.44846(15) 0.3277(7) 0.3907(3)
H47 H 0.45050 0.22040 0.36090
C41 C 0.31217(12) 0.5112(6) 0.1820(3)
H48 H 0.32250 0.63250 0.19010
H49 H 0.30350 0.49060 0.12340
H50 H 0.33220 0.42440 0.20240
C42 C 0.52790(17) 0.6317(10) 0.2216(3)
H51 H 0.51370 0.69730 0.17520
H52 H 0.53290 0.50980 0.20440
H53 H 0.55240 0.69240 0.24030
C43 C 0.4103(2) 0.5546(11) 0.9664(4)
O5 O 0.4084(3) 0.6876(9) 1.0075(3)
C44 C 0.44648(16) 1.0570(8) 0.6622(4)
H54 H 0.46280 1.01710 0.62270
H55 H 0.45410 0.99470 0.71440
H56 H 0.44960 1.18610 0.67080
C45 C 0.10685(19) 0.4439(10) -0.2944(3)
H57 H 0.12700 0.51110 -0.31610
H58 H 0.08250 0.45630 -0.33170
H59 H 0.11410 0.31750 -0.28950
C46 C 0.06713(18) 0.4423(11) -0.1794(4)
H60 H 0.06830 0.31140 -0.17910
H61 H 0.04390 0.48140 -0.21540
H62 H 0.06650 0.48560 -0.12370
C47 C 0.4451(3) 0.4153(15) 1.0823(4)
H63 H 0.46560 0.50540 1.08940
H64 H 0.45590 0.29870 1.10050
H65 H 0.42520 0.44870 1.11490
#END
