
#######################################################################
#
#                 Cambridge Crystallographic Data Centre
#                                CCDC
#
#######################################################################
#
# If this CIF has been generated from an entry in the Cambridge
# Structural Database, then it will include bibliographic, chemical,
# crystal, experimental, refinement or atomic coordinate data resulting
# from the CCDC's data processing and validation procedures.
#
#######################################################################

data_CSD_CIF_CACVUZ
_audit_creation_date 2012-01-09
_audit_creation_method CSD-ConQuest-V1
_database_code_CSD CACVUZ
_database_code_depnum_ccdc_archive 'CCDC 824118'
_chemical_formula_sum 'C19 H15 N1 O3'
_chemical_formula_moiety
;
C19 H15 N1 O3
;
_journal_coden_Cambridge 177
_journal_volume 9
_journal_year 2011
_journal_page_first 7510
_journal_name_full 'Org.Biomol.Chem. '
loop_
_publ_author_name
"Jung-Hsuan Chen"
"Chihliang Chang"
"Hui-Ju Chang"
"Kwunmin Chen"
_chemical_name_systematic
;
1-(3-(4-Nitrophenyl)prop-2-en-1-ylidene)-3,4-dihydronaphthalen-2(1H)-one
;
_chemical_melting_point 463.4
_cell_volume   3009.654
_exptl_crystal_colour 'colorless'
_exptl_crystal_density_diffrn 1.348
_exptl_crystal_description 'prism'
_diffrn_ambient_temperature 200
#These two values have been output from a single CSD field.
_refine_ls_R_factor_gt 0.0412
_refine_ls_wR_factor_gt 0.0412
_symmetry_cell_setting orthorhombic
_symmetry_space_group_name_H-M 'P b c a'
_symmetry_Int_Tables_number 61
loop_
_symmetry_equiv_pos_site_id
_symmetry_equiv_pos_as_xyz
1 x,y,z
2 1/2-x,-y,1/2+z
3 -x,1/2+y,1/2-z
4 1/2+x,1/2-y,-z
5 -x,-y,-z
6 -1/2+x,y,-1/2-z
7 x,-1/2-y,-1/2+z
8 -1/2-x,-1/2+y,z
_cell_length_a 7.5097(5)
_cell_length_b 14.8345(10)
_cell_length_c 27.016(2)
_cell_angle_alpha 90
_cell_angle_beta 90
_cell_angle_gamma 90
_cell_formula_units_Z 8
loop_
_atom_type_symbol
_atom_type_radius_bond
C 0.68
H 0.23
N 0.68
O 0.68
loop_
_atom_site_label
_atom_site_type_symbol
_atom_site_fract_x
_atom_site_fract_y
_atom_site_fract_z
C1 C 0.1379(2) 0.55378(11) 1.08366(6)
C2 C 0.0995(2) 0.63391(12) 1.10710(6)
H1 H 0.08110 0.63580 1.14190
C3 C 0.0883(2) 0.71128(12) 1.07906(6)
H2 H 0.06050 0.76670 1.09480
C4 C 0.1170(2) 0.71005(11) 1.02803(6)
C5 C 0.1556(2) 0.62721(12) 1.00558(6)
H3 H 0.17570 0.62490 0.97090
C6 C 0.1648(2) 0.54897(12) 1.03305(6)
H4 H 0.18920 0.49280 1.01750
C7 C 0.1035(2) 0.79419(12) 1.00060(6)
H5 H 0.07670 0.84640 1.01950
C8 C 0.1246(2) 0.80692(12) 0.95161(6)
H6 H 0.15340 0.75700 0.93110
C9 C 0.1041(2) 0.89471(12) 0.92982(6)
H7 H 0.08990 0.94230 0.95300
C10 C 0.1015(2) 0.92102(11) 0.88172(6)
C11 C 0.1036(2) 0.86164(11) 0.83782(6)
C12 C 0.0287(2) 0.77512(11) 0.83805(6)
H8 H -0.02740 0.75340 0.86720
C13 C 0.0353(2) 0.72089(12) 0.79650(6)
H9 H -0.01510 0.66220 0.79740
C14 C 0.1152(2) 0.75196(12) 0.75368(7)
H10 H 0.12270 0.71420 0.72540
C15 C 0.1840(2) 0.83813(11) 0.75230(6)
H11 H 0.23670 0.85960 0.72260
C16 C 0.1779(2) 0.89404(11) 0.79333(6)
C17 C 0.2452(2) 0.98965(11) 0.79122(6)
H12 H 0.25130 1.00980 0.75630
H13 H 0.36670 0.99260 0.80530
C18 C 0.1217(2) 1.05191(11) 0.82030(6)
H14 H 0.17160 1.11370 0.82030
H15 H 0.00400 1.05410 0.80380
C19 C 0.0982(2) 1.02066(11) 0.87260(6)
N1 N 0.15128(19) 0.47111(10) 1.11284(6)
O1 O 0.17336(18) 0.47824(9) 1.15796(5)
O2 O 0.14122(19) 0.39818(9) 1.09136(5)
O3 O 0.0781(2) 1.07477(9) 0.90627(5)
#END
