
#######################################################################
#
#                 Cambridge Crystallographic Data Centre
#                                CCDC
#
#######################################################################
#
# If this CIF has been generated from an entry in the Cambridge
# Structural Database, then it will include bibliographic, chemical,
# crystal, experimental, refinement or atomic coordinate data resulting
# from the CCDC's data processing and validation procedures.
#
#######################################################################

data_CSD_CIF_CACXUA
_audit_creation_date 2002-03-27
_audit_creation_method CSD-ConQuest-V1
_database_code_CSD CACXUA
_database_code_depnum_ccdc_archive 'CCDC 169424'
_chemical_formula_sum 'C12 H20 N2 O7'
_chemical_formula_moiety
;
C12 H20 N2 O7
;
_journal_coden_Cambridge 24
_journal_volume 42
_journal_year 2001
_journal_page_first 8889
_journal_name_full 'Tetrahedron Lett. '
loop_
_publ_author_name
"S.A.Kerrigan"
"R.G.Pritchard"
"P.W.Smith"
"R.J.Stoodley"
_chemical_name_systematic
;
Methyl 
(2R*,4R*,5S*)-4-diethylcarbamoyl-2-hydroxy-5-nitrotetrahydropyran-2-carboxylat
e
;
_chemical_melting_point 349.15
_cell_volume   1429.035
_exptl_crystal_colour 'colorless'
_exptl_crystal_density_diffrn 1.414
_exptl_crystal_description 'plate'
_diffrn_ambient_temperature 203
#These two values have been output from a single CSD field.
_refine_ls_R_factor_gt 0.0747
_refine_ls_wR_factor_gt 0.0747
_symmetry_cell_setting monoclinic
_symmetry_space_group_name_H-M 'P 21/c'
_symmetry_Int_Tables_number 14
loop_
_symmetry_equiv_pos_site_id
_symmetry_equiv_pos_as_xyz
1 x,y,z
2 x,1/2-y,1/2+z
3 -x,-y,-z
4 -x,-1/2+y,-1/2-z
_cell_length_a 6.8968(10)
_cell_length_b 15.668(2)
_cell_length_c 13.542(2)
_cell_angle_alpha 90
_cell_angle_beta 102.43(2)
_cell_angle_gamma 90
_cell_formula_units_Z 4
loop_
_atom_type_symbol
_atom_type_radius_bond
C 0.68
H 0.23
N 0.68
O 0.68
loop_
_atom_site_label
_atom_site_type_symbol
_atom_site_fract_x
_atom_site_fract_y
_atom_site_fract_z
C1 C 0.3636(8) 0.4479(3) 0.7667(4)
C2 C 0.3684(9) 0.5340(4) 0.7171(5)
C3 C 0.5757(9) 0.5732(4) 0.7400(4)
C4 C 0.6425(9) 0.5774(4) 0.8532(5)
C5 C 0.6357(10) 0.4882(4) 0.8972(5)
C6 C 0.1512(10) 0.4180(4) 0.7591(5)
C7 C -0.0507(11) 0.3057(6) 0.7866(7)
C8 C 0.5559(8) 0.6605(4) 0.6913(5)
C9 C 0.6509(11) 0.6005(4) 0.5382(5)
C10 C 0.8655(14) 0.6091(6) 0.5374(8)
C11 C 0.5251(11) 0.7460(5) 0.5398(6)
C12 C 0.3203(13) 0.7451(7) 0.4821(8)
N1 N 0.8489(8) 0.6098(3) 0.8854(4)
N2 N 0.5802(7) 0.6675(3) 0.5966(4)
O1 O 0.4390(5) 0.4565(2) 0.8724(3)
O2 O 0.4709(6) 0.3917(3) 0.7224(3)
O3 O 0.9154(8) 0.6150(4) 0.9738(4)
O4 O 0.9381(7) 0.6322(4) 0.8232(4)
O5 O 0.0130(8) 0.4603(4) 0.7294(8)
O6 O 0.1402(6) 0.3414(3) 0.7863(3)
O7 O 0.5058(6) 0.7215(2) 0.7380(3)
H1 H 0.463(7) 0.348(3) 0.743(4)
H2 H 0.269(8) 0.570(3) 0.745(4)
H3 H 0.332(7) 0.530(3) 0.647(4)
H4 H 0.668(8) 0.546(3) 0.714(4)
H5 H 0.563(8) 0.608(3) 0.884(4)
H6 H 0.670(7) 0.488(3) 0.968(4)
H7 H 0.736(8) 0.456(3) 0.871(4)
H8 H -0.089(11) 0.317(5) 0.843(6)
H9 H -0.045(9) 0.245(5) 0.772(5)
H10 H -0.144(10) 0.336(4) 0.738(5)
H11 H 0.623(7) 0.548(3) 0.565(4)
H12 H 0.562(9) 0.603(4) 0.469(5)
H13 H 0.884(8) 0.661(4) 0.513(4)
H14 H 0.901(10) 0.570(5) 0.490(5)
H15 H 0.935(12) 0.617(6) 0.609(7)
H16 H 0.618(9) 0.746(4) 0.483(5)
H17 H 0.562(8) 0.789(4) 0.578(4)
H18 H 0.300(15) 0.699(8) 0.437(8)
H19 H 0.286(8) 0.791(4) 0.447(4)
H20 H 0.233(14) 0.745(6) 0.537(8)
#END
