
#######################################################################
#
#                 Cambridge Crystallographic Data Centre
#                                CCDC
#
#######################################################################
#
# If this CIF has been generated from an entry in the Cambridge
# Structural Database, then it will include bibliographic, chemical,
# crystal, experimental, refinement or atomic coordinate data resulting
# from the CCDC's data processing and validation procedures.
#
#######################################################################

data_CSD_CIF_CADBER
_audit_creation_date 2015-11-27
_audit_creation_method CSD-ConQuest-V1
_database_code_CSD CADBER
_database_code_depnum_ccdc_archive 'CCDC 1439177'
_chemical_formula_sum 'C10 H6 N10 O4'
_chemical_formula_moiety
;
C10 H6 N10 O4
;
_journal_coden_Cambridge 1078
_journal_year 2015
_journal_name_full 'CSD Communication(Private Communication) '
loop_
_publ_author_name
"YanYang Qu"
"Qun Zeng"
"Qing Ma"
"Jun Wang"
"Hongzhen Li"
"Haibo Li"
_chemical_name_systematic
;
5-methyl-3-(4-((4-(5-methyl-1,2,4-oxadiazol-3-yl)-1,2,5-oxadiazol-3-yl)diazeny
l)-1,2,5-oxadiazol-3-yl)-1,2,4-oxadiazole
;
_cell_volume    337.674
_exptl_crystal_colour 'red'
_exptl_crystal_density_diffrn 1.624
_exptl_crystal_description 'prismatic'
_diffrn_ambient_temperature 296
#These two values have been output from a single CSD field.
_refine_ls_R_factor_gt 0.035
_refine_ls_wR_factor_gt 0.035
_symmetry_cell_setting triclinic
_symmetry_space_group_name_H-M 'P -1'
_symmetry_Int_Tables_number 2
loop_
_symmetry_equiv_pos_site_id
_symmetry_equiv_pos_as_xyz
1 x,y,z
2 -x,-y,-z
_cell_length_a 4.201(4)
_cell_length_b 8.192(8)
_cell_length_c 10.198(10)
_cell_angle_alpha 89.395(17)
_cell_angle_beta 79.671(18)
_cell_angle_gamma 78.06(2)
_cell_formula_units_Z 1
loop_
_atom_type_symbol
_atom_type_radius_bond
C 0.68
H 0.23
N 0.68
O 0.68
loop_
_atom_site_label
_atom_site_type_symbol
_atom_site_fract_x
_atom_site_fract_y
_atom_site_fract_z
N1 N 0.9799(3) 0.26540(18) 0.44974(14)
N2 N 1.1079(3) 0.13013(17) 0.63496(14)
N3 N 0.4039(4) 0.38182(18) 0.84215(13)
N4 N 0.7741(4) 0.17263(17) 0.90788(13)
N5 N 0.4791(3) 0.45321(16) 0.54629(13)
O1 O 1.1973(3) 0.14199(14) 0.49896(11)
O2 O 0.3266(3) 0.36146(15) 0.98005(11)
C1 C 0.7604(4) 0.32760(19) 0.55331(15)
C2 C 0.8375(3) 0.24252(17) 0.66906(14)
C3 C 0.6671(4) 0.26731(18) 0.80741(15)
C4 C 0.5576(4) 0.2366(2) 1.01064(16)
C5 C 0.5388(5) 0.1919(2) 1.15177(17)
H1 H 0.69250 0.08900 1.15830
H2 H 0.31860 0.17900 1.18820
H3 H 0.59310 0.27870 1.20070
N1A N 0.0201(3) 0.73460(18) 0.55026(14)
N2A N -0.1079(3) 0.86987(17) 0.36504(14)
N3A N 0.5961(4) 0.61818(18) 0.15785(13)
N4A N 0.2259(4) 0.82737(17) 0.09212(13)
N5A N 0.5209(3) 0.54679(16) 0.45371(13)
O1A O -0.1973(3) 0.85801(14) 0.50104(11)
O2A O 0.6734(3) 0.63854(15) 0.01995(11)
C1A C 0.2396(4) 0.67240(19) 0.44669(15)
C2A C 0.1625(3) 0.75748(17) 0.33094(14)
C3A C 0.3329(4) 0.73269(18) 0.19259(15)
C4A C 0.4424(4) 0.7634(2) -0.01064(16)
C5A C 0.4612(5) 0.8081(2) -0.15177(17)
H1A H 0.30750 0.91100 -0.15830
H2A H 0.68140 0.82100 -0.18820
H3A H 0.40690 0.72130 -0.20070
#END
