
#######################################################################
#
#                 Cambridge Crystallographic Data Centre
#                                CCDC
#
#######################################################################
#
# If this CIF has been generated from an entry in the Cambridge
# Structural Database, then it will include bibliographic, chemical,
# crystal, experimental, refinement or atomic coordinate data resulting
# from the CCDC's data processing and validation procedures.
#
#######################################################################

data_CSD_CIF_CADBOB
_audit_creation_date 2015-11-27
_audit_creation_method CSD-ConQuest-V1
_database_code_CSD CADBOB
_database_code_depnum_ccdc_archive 'CCDC 1439175'
_chemical_formula_sum 'C2 H1 N3 O4'
_chemical_formula_moiety
;
C2 H1 N3 O4
;
_journal_coden_Cambridge 1078
_journal_year 2015
_journal_name_full 'CSD Communication(Private Communication) '
loop_
_publ_author_name
"YanYang Qu"
"Qun Zeng"
"Qing Ma"
"Jun Wang"
"Hongzhen Li"
"Haibo Li"
_chemical_name_systematic
;
4-nitro-1,2,5-oxadiazol-3-ol
;
_cell_volume    957.235
_exptl_crystal_colour 'green'
_exptl_crystal_density_diffrn 1.819
_exptl_crystal_description 'prismatic'
_diffrn_ambient_temperature 293
_diffrn_special_details
;
twin

;
#These two values have been output from a single CSD field.
_refine_ls_R_factor_gt 0.0435
_refine_ls_wR_factor_gt 0.0435
_symmetry_cell_setting orthorhombic
_symmetry_space_group_name_H-M 'P n a 21'
_symmetry_Int_Tables_number 33
loop_
_symmetry_equiv_pos_site_id
_symmetry_equiv_pos_as_xyz
1 x,y,z
2 -x,-y,1/2+z
3 1/2-x,1/2+y,1/2+z
4 1/2+x,1/2-y,z
_cell_length_a 15.098(4)
_cell_length_b 5.4231(13)
_cell_length_c 11.691(3)
_cell_angle_alpha 90
_cell_angle_beta 90
_cell_angle_gamma 90
_cell_formula_units_Z 8
loop_
_atom_type_symbol
_atom_type_radius_bond
C 0.68
H 0.23
N 0.68
O 0.68
loop_
_atom_site_label
_atom_site_type_symbol
_atom_site_fract_x
_atom_site_fract_y
_atom_site_fract_z
N1 N 0.4984(3) 0.3867(8) -0.1196(3)
N2 N 0.4264(3) 0.1095(7) -0.0076(4)
N3 N 0.5562(3) 0.6637(8) 0.0175(4)
O1 O 0.4478(3) 0.1795(8) -0.1180(3)
O2 O 0.4539(3) 0.2796(8) 0.1752(4)
H1 H 0.48600 0.38670 0.20220
O3 O 0.5572(3) 0.7189(6) 0.1180(4)
O4 O 0.5939(3) 0.7748(7) -0.0589(4)
C1 C 0.4625(3) 0.2776(8) 0.0604(4)
C2 C 0.5064(3) 0.4458(8) -0.0135(4)
N4 N 0.8240(3) 0.6424(8) 0.2270(4)
N5 N 0.7535(2) 0.9144(8) 0.3418(4)
N6 N 0.6898(3) 1.1865(7) 0.2063(4)
O5 O 0.8027(3) 0.7109(7) 0.3397(4)
O6 O 0.7914(3) 0.8111(10) 0.0465(4)
H2 H 0.75450 0.90760 0.02110
O7 O 0.6833(3) 1.2330(6) 0.1042(4)
O8 O 0.6564(3) 1.3049(7) 0.2832(4)
C3 C 0.7857(3) 0.8047(8) 0.1622(5)
C4 C 0.7415(2) 0.9722(8) 0.2358(4)
#END
