
#######################################################################
#
#                 Cambridge Crystallographic Data Centre
#                                CCDC
#
#######################################################################
#
# If this CIF has been generated from an entry in the Cambridge
# Structural Database, then it will include bibliographic, chemical,
# crystal, experimental, refinement or atomic coordinate data resulting
# from the CCDC's data processing and validation procedures.
#
#######################################################################

data_CSD_CIF_CADDOA
_audit_creation_date 1984-04-14
_audit_creation_method CSD-ConQuest-V1
_database_code_CSD CADDOA
_database_code_depnum_ccdc_archive 'CCDC 1118867'
_chemical_formula_sum 'C13 H11 N3 O3'
_chemical_formula_moiety
;
C13 H11 N3 O3
;
_journal_coeditor_code "IUCr A22614"
_journal_coden_Cambridge 591
_journal_volume 39
_journal_year 1983
_journal_page_first 1075
_journal_name_full 'Acta Crystallogr.,Sect.C:Cryst.Struct.Commun. '
loop_
_publ_author_name
"S.B.Sarkar"
"M.Khalil"
"S.C.Saha"
"S.K.Talapatra"
_chemical_name_systematic
;
3-(o-Carboxyphenyl)-1-phenyltriazene 1-oxide
;
_cell_volume   1257.214
_exptl_crystal_colour 'light yellow'
_exptl_crystal_density_diffrn 1.36
_diffrn_ambient_temperature ?
_diffrn_special_details
;
The study was carried out at room temperature,in the range 283-303K

;
#These two values have been output from a single CSD field.
_refine_ls_R_factor_gt 0.051
_refine_ls_wR_factor_gt 0.051
_symmetry_cell_setting monoclinic
_symmetry_space_group_name_H-M 'P 21/n'
_symmetry_Int_Tables_number 14
loop_
_symmetry_equiv_pos_site_id
_symmetry_equiv_pos_as_xyz
1 x,y,z
2 1/2-x,1/2+y,1/2-z
3 -x,-y,-z
4 -1/2+x,-1/2-y,-1/2+z
_cell_length_a 8.006(3)
_cell_length_b 11.523(6)
_cell_length_c 13.937(10)
_cell_angle_alpha 90
_cell_angle_beta 102.09(4)
_cell_angle_gamma 90
_cell_formula_units_Z 4
loop_
_atom_type_symbol
_atom_type_radius_bond
C 0.68
H 0.23
N 0.68
O 0.68
loop_
_atom_site_label
_atom_site_type_symbol
_atom_site_fract_x
_atom_site_fract_y
_atom_site_fract_z
C1 C 0.00420 0.09090 0.15160
C2 C 0.04260 0.18320 0.21620
C3 C 0.21000 0.20820 0.25570
C4 C 0.34390 0.14420 0.23120
C5 C 0.30280 0.05180 0.16500
C6 C 0.13210 0.02620 0.12540
C7 C 0.29630 -0.39710 -0.08900
C8 C 0.32580 -0.30230 -0.02670
C9 C 0.48990 -0.25600 -0.00290
C10 C 0.62250 -0.30240 -0.03770
C11 C 0.58780 -0.39910 -0.10060
C12 C 0.42820 -0.44450 -0.12540
C13 C 0.52260 0.17770 0.27300
N1 N 0.52210 -0.15590 0.06120
N2 N 0.39090 -0.10200 0.07800
N3 N 0.43360 -0.01300 0.13820
O1 O 0.67550 -0.12310 0.09880
O2 O 0.53610 0.26310 0.33730
O3 O 0.64660 0.13300 0.25050
H1 H -0.11960 0.07080 0.12460
H2 H -0.05140 0.22420 0.23390
H3 H 0.24020 0.26990 0.29910
H4 H 0.64370 0.28650 0.35170
H5 H 0.54430 0.00220 0.16050
H6 H 0.11100 -0.03350 0.07810
H7 H 0.17650 -0.43650 -0.11210
H8 H 0.24140 -0.26880 0.00190
H9 H 0.74010 -0.26660 -0.01640
H10 H 0.68820 -0.42600 -0.12280
H11 H 0.40420 -0.51190 -0.16780
#END
