
#######################################################################
#
#                 Cambridge Crystallographic Data Centre
#                                CCDC
#
#######################################################################
#
# If this CIF has been generated from an entry in the Cambridge
# Structural Database, then it will include bibliographic, chemical,
# crystal, experimental, refinement or atomic coordinate data resulting
# from the CCDC's data processing and validation procedures.
#
#######################################################################

data_CSD_CIF_CADHUN
_audit_creation_date 2015-11-27
_audit_creation_method CSD-ConQuest-V1
_database_code_CSD CADHUN
_database_code_depnum_ccdc_archive 'CCDC 1026354'
_chemical_formula_sum 'C11 H11 N1 O5'
_chemical_formula_moiety
;
C11 H11 N1 O5
;
_journal_coden_Cambridge 1220
_journal_volume 21
_journal_year 2015
_journal_page_first 14742
_journal_name_full 'Chem.-Eur.J. '
loop_
_publ_author_name
"N.J.Victor"
"Janardhanan Gana"
"K.M.Muraleedharan"
_chemical_name_systematic
;
1-(2-(hydroxy(4-nitrophenyl)methyl)oxiran-2-yl)ethanone
;
_cell_volume    557.390
_exptl_crystal_colour 'colorless'
_exptl_crystal_density_diffrn 1.413
_exptl_crystal_description 'block'
_exptl_crystal_preparation 'methanol'
_diffrn_ambient_temperature 296
#These two values have been output from a single CSD field.
_refine_ls_R_factor_gt 0.0371
_refine_ls_wR_factor_gt 0.0371
_symmetry_cell_setting triclinic
_symmetry_space_group_name_H-M 'P -1'
_symmetry_Int_Tables_number 2
loop_
_symmetry_equiv_pos_site_id
_symmetry_equiv_pos_as_xyz
1 x,y,z
2 -x,-y,-z
_cell_length_a 5.9930(1)
_cell_length_b 9.4478(2)
_cell_length_c 10.6741(3)
_cell_angle_alpha 72.9285(13)
_cell_angle_beta 81.9410(13)
_cell_angle_gamma 75.2862(13)
_cell_formula_units_Z 2
loop_
_atom_type_symbol
_atom_type_radius_bond
C 0.68
H 0.23
N 0.68
O 0.68
loop_
_atom_site_label
_atom_site_type_symbol
_atom_site_fract_x
_atom_site_fract_y
_atom_site_fract_z
O1 O 0.23749(16) 1.1413(1) 0.78367(9)
O2 O 0.21515(17) 1.06785(12) 0.47614(10)
C1 C 0.3036(2) 0.70428(16) 1.10158(13)
H1 H 0.21330 0.69480 1.18060
C2 C 0.3427(2) 0.80307(14) 0.86727(12)
C3 C 0.5342(2) 0.63246(15) 1.09868(13)
O3 O -0.00016(17) 0.90767(13) 0.75041(11)
C4 C 0.2092(2) 0.79053(15) 0.98494(13)
H2 H 0.05420 0.84080 0.98550
C5 C 0.5744(2) 0.72861(15) 0.86821(14)
H3 H 0.66510 0.73580 0.78940
C6 C 0.2436(2) 0.89382(15) 0.73766(12)
H4 H 0.31150 0.83930 0.67120
N1 N 0.6371(3) 0.53808(15) 1.22183(14)
C7 C 0.6719(2) 0.64431(15) 0.98416(14)
H5 H 0.82800 0.59650 0.98460
C8 C 0.2074(2) 1.13889(17) 0.55506(14)
C9 C 0.2876(2) 1.05288(15) 0.69016(12)
O4 O 0.8432(2) 0.47891(14) 1.21796(12)
O5 O 0.5113(2) 0.52233(15) 1.32282(12)
C10 C 0.4711(2) 1.09933(16) 0.73451(14)
H6 H 0.57740 1.02190 0.79330
H7 H 0.53890 1.17810 0.67320
C11 C 0.1222(3) 1.30669(18) 0.52380(16)
H8 H 0.07570 1.34480 0.43540
H9 H 0.24340 1.35220 0.53240
H10 H -0.00770 1.33140 0.58350
H11 H -0.045(3) 0.909(2) 0.6774(18)
#END
