
#######################################################################
#
#                 Cambridge Crystallographic Data Centre
#                                CCDC
#
#######################################################################
#
# If this CIF has been generated from an entry in the Cambridge
# Structural Database, then it will include bibliographic, chemical,
# crystal, experimental, refinement or atomic coordinate data resulting
# from the CCDC's data processing and validation procedures.
#
#######################################################################

data_CSD_CIF_CADNUR
_audit_creation_date 2002-03-27
_audit_creation_method CSD-ConQuest-V1
_database_code_CSD CADNUR
_database_code_depnum_ccdc_archive 'CCDC 178605'
_chemical_formula_sum 'C20 H19 N1 O4'
_chemical_formula_moiety
;
C20 H19 N1 O4
;
_journal_coden_Cambridge 1336
_journal_volume 4
_journal_year 2002
_journal_page_first 135
_journal_name_full 'Org.Lett. '
loop_
_publ_author_name
"T.B.Durham"
"M.J.Miller"
_chemical_name_systematic
;
(1S,3S,6R)-3,7-bis(Benzyloxy)-2-oxa-7-azabicyclo(4.2.0)oct-4-en-8-one
;
_chemical_melting_point 330.15
_cell_volume   1689.772
_exptl_crystal_colour 'white'
_exptl_crystal_density_diffrn 1.326
_exptl_special_details
;
Melting point range 330.15-332.15K

;
_exptl_crystal_description 'needles'
_exptl_crystal_preparation 'diethyl ether/hexanes'
_diffrn_ambient_temperature 100
#These two values have been output from a single CSD field.
_refine_ls_R_factor_gt 0.0508
_refine_ls_wR_factor_gt 0.0508
_symmetry_cell_setting monoclinic
_symmetry_space_group_name_H-M 'C 2'
_symmetry_Int_Tables_number 5
loop_
_symmetry_equiv_pos_site_id
_symmetry_equiv_pos_as_xyz
1 x,y,z
2 -x,y,-z
3 1/2+x,1/2+y,z
4 1/2-x,1/2+y,-z
_cell_length_a 31.017(2)
_cell_length_b 6.0746(5)
_cell_length_c 9.1929(7)
_cell_angle_alpha 90
_cell_angle_beta 102.691(1)
_cell_angle_gamma 90
_cell_formula_units_Z 4
loop_
_atom_type_symbol
_atom_type_radius_bond
C 0.68
H 0.23
N 0.68
O 0.68
loop_
_atom_site_label
_atom_site_type_symbol
_atom_site_fract_x
_atom_site_fract_y
_atom_site_fract_z
O1 O -0.3709(1) -0.0938(2) -0.0062(1)
N1 N -0.2230(1) -0.2569(3) 0.2738(2)
C1 C -0.3894(1) 0.1140(3) 0.0202(2)
O2 O -0.3237(1) -0.1097(2) 0.2202(1)
C2 C -0.4327(1) 0.1456(3) -0.0894(2)
O3 O -0.2273(1) 0.1244(2) 0.3172(2)
C3 C -0.4522(1) -0.0201(3) -0.1855(2)
O4 O -0.1854(1) -0.3025(2) 0.2210(1)
C4 C -0.4918(1) 0.0188(4) -0.2866(2)
C5 C -0.5122(1) 0.2219(4) -0.2937(2)
C6 C -0.4930(1) 0.3877(4) -0.1975(2)
C7 C -0.4534(1) 0.3510(3) -0.0958(2)
C8 C -0.3263(1) -0.1152(3) 0.0628(2)
C9 C -0.3108(1) -0.3285(3) 0.0114(2)
C10 C -0.2822(1) -0.4585(3) 0.1002(2)
C11 C -0.2630(1) -0.3954(3) 0.2575(2)
C12 C -0.2843(1) -0.1863(3) 0.3106(2)
C13 C -0.2407(1) -0.0617(3) 0.3036(2)
C14 C -0.1501(1) -0.3823(3) 0.3417(2)
C15 C -0.1405(1) -0.1778(3) 0.5850(2)
C16 C -0.1313(1) -0.1971(3) 0.4440(2)
C17 C -0.1245(1) 0.0011(3) 0.6754(2)
C18 C -0.0994(1) 0.1611(3) 0.6262(2)
C19 C -0.0897(1) 0.1424(4) 0.4866(2)
C20 C -0.1054(1) -0.0362(3) 0.3959(2)
H1 H -0.36880 0.23400 0.00900
H2 H -0.39420 0.11890 0.12320
H3 H -0.43840 -0.16030 -0.18210
H4 H -0.50500 -0.09570 -0.35180
H5 H -0.53920 0.24760 -0.36370
H6 H -0.50690 0.52750 -0.20130
H7 H -0.44040 0.46550 -0.03020
H8 H -0.30900 0.00960 0.03320
H9 H -0.32180 -0.37270 -0.08900
H10 H -0.27400 -0.59430 0.06280
H11 H -0.25960 -0.52120 0.32930
H12 H -0.28730 -0.20330 0.41620
H13 H -0.12640 -0.44910 0.29930
H14 H -0.16180 -0.49730 0.39880
H15 H -0.15780 -0.28700 0.61960
H16 H -0.13090 0.01320 0.77150
H17 H -0.08890 0.28380 0.68800
H18 H -0.07220 0.25160 0.45290
H19 H -0.09850 -0.04890 0.30050
#END
