
#######################################################################
#
#                 Cambridge Crystallographic Data Centre
#                                CCDC
#
#######################################################################
#
# If this CIF has been generated from an entry in the Cambridge
# Structural Database, then it will include bibliographic, chemical,
# crystal, experimental, refinement or atomic coordinate data resulting
# from the CCDC's data processing and validation procedures.
#
#######################################################################

data_CSD_CIF_CAFCUK
_audit_creation_date 2017-01-04
_audit_creation_method CSD-ConQuest-V1
_database_code_CSD CAFCUK
_database_code_depnum_ccdc_archive 'CCDC 1468149'
_chemical_formula_sum 'C14 H24 N4 O4'
_chemical_formula_moiety
;
C14 H24 N4 O4
;
_journal_coden_Cambridge 1220
_journal_volume 22
_journal_year 2016
_journal_page_first 14598
_journal_name_full 'Chem.-Eur.J. '
loop_
_publ_author_name
"S.E.Tolstikov"
"E.V.Tretyakov"
"D.E.Gorbunov"
"I.F.Zhurko"
"M.V.Fedin"
"G.V.Romanenko"
"A.S.Bogomyakov"
"N.P.Gritsan"
"D.G.Mazhukin"
_chemical_name_systematic
;
2',2',4,4,4',4',5,5-octamethyl-1,1'-dioxido-2',4,4',5-tetrahydro-3H,3'H-[2,5'-
bi-1-imidazole]-3,3'-dioxy diradical
;
_chemical_name_common
;
2-(2,2,5,5-Tetramethyl-3-oxido-1-oxyl-2,5-dihydro-1H-imidazol-4-yl)-4,4,5,5-te
tramethyl-4,5-dihydro-1H-imidazole 3-oxide 1-oxyl
;
_cell_volume    835.265
_exptl_crystal_colour 'brown violet'
_exptl_crystal_density_diffrn 1.242
_exptl_special_details
;
polymorph 1

;
_exptl_crystal_description 'plate'
_diffrn_ambient_temperature 296
#These two values have been output from a single CSD field.
_refine_ls_R_factor_gt 0.0559
_refine_ls_wR_factor_gt 0.0559
_symmetry_cell_setting triclinic
_symmetry_space_group_name_H-M 'P -1'
_symmetry_Int_Tables_number 2
loop_
_symmetry_equiv_pos_site_id
_symmetry_equiv_pos_as_xyz
1 x,y,z
2 -x,-y,-z
_cell_length_a 7.505(6)
_cell_length_b 11.012(8)
_cell_length_c 11.466(9)
_cell_angle_alpha 97.009(9)
_cell_angle_beta 106.909(9)
_cell_angle_gamma 108.531(8)
_cell_formula_units_Z 2
loop_
_atom_type_symbol
_atom_type_radius_bond
C 0.68
H 0.23
N 0.68
O 0.68
loop_
_atom_site_label
_atom_site_type_symbol
_atom_site_fract_x
_atom_site_fract_y
_atom_site_fract_z
O1 O -0.2210(2) 0.01646(16) 0.04690(13)
N1 N -0.0973(2) 0.02085(15) 0.15155(13)
C1 C -0.0891(3) -0.10316(18) 0.19197(16)
C2 C -0.2653(3) -0.1533(2) 0.2367(2)
H1 H -0.26720 -0.23270 0.26370
H2 H -0.25160 -0.08760 0.30550
H3 H -0.38830 -0.17110 0.16920
C3 C -0.1084(4) -0.2034(2) 0.08172(19)
H4 H -0.10310 -0.28220 0.10760
H5 H -0.23400 -0.22370 0.01570
H6 H -0.00020 -0.16780 0.05190
C4 C 0.1194(3) -0.04769(18) 0.29996(16)
C5 C 0.2938(3) -0.0433(2) 0.2563(2)
H7 H 0.28750 -0.13140 0.23100
H8 H 0.28600 -0.00250 0.18660
H9 H 0.41810 0.00670 0.32380
C6 C 0.1295(4) -0.1105(2) 0.41136(19)
H10 H 0.11530 -0.20050 0.38630
H11 H 0.25640 -0.06300 0.47740
H12 H 0.02310 -0.10770 0.44080
N2 N 0.1413(2) 0.09342(15) 0.33745(13)
O2 O 0.2648(2) 0.17097(14) 0.44139(12)
C7 C 0.0274(3) 0.12803(18) 0.24203(15)
C8 C 0.0462(3) 0.26308(18) 0.24016(16)
N3 N 0.2200(2) 0.34999(15) 0.25082(14)
O3 O 0.3787(2) 0.32964(15) 0.25459(15)
C9 C 0.2210(3) 0.48675(19) 0.25683(17)
C10 C 0.2616(4) 0.5321(2) 0.1439(2)
H13 H 0.39840 0.54690 0.15240
H14 H 0.17350 0.46560 0.06880
H15 H 0.23860 0.61260 0.13910
C11 C 0.3733(4) 0.5778(2) 0.3798(2)
H16 H 0.50620 0.59110 0.38000
H17 H 0.35700 0.66110 0.38950
H18 H 0.35340 0.53910 0.44790
N4 N 0.0160(2) 0.46245(17) 0.25025(17)
O4 O -0.0520(3) 0.55445(17) 0.2514(2)
C12 C -0.1080(3) 0.32365(19) 0.24040(17)
C13 C -0.2916(3) 0.2740(2) 0.1205(2)
H19 H -0.37140 0.18430 0.11430
H20 H -0.36980 0.32780 0.12230
H21 H -0.24910 0.27860 0.04930
C14 C -0.1667(4) 0.3151(3) 0.3563(2)
H22 H -0.24690 0.22540 0.34990
H23 H -0.04790 0.34470 0.42970
H24 H -0.24260 0.36970 0.36240
#END
