
#######################################################################
#
#                 Cambridge Crystallographic Data Centre
#                                CCDC
#
#######################################################################
#
# If this CIF has been generated from an entry in the Cambridge
# Structural Database, then it will include bibliographic, chemical,
# crystal, experimental, refinement or atomic coordinate data resulting
# from the CCDC's data processing and validation procedures.
#
#######################################################################

data_CSD_CIF_CAFQUW
_audit_creation_date 2002-03-27
_audit_creation_method CSD-ConQuest-V1
_database_code_CSD CAFQUW
_database_code_depnum_ccdc_archive 'CCDC 159037'
_chemical_formula_sum 'C10 H6 N6 O7'
_chemical_formula_moiety
;
C10 H6 N6 O7
;
_journal_coden_Cambridge 423
_journal_volume 505
_journal_year 2001
_journal_page_first 1217
_journal_name_full 'J.Chem.Res. '
loop_
_publ_author_name
"C.Boga"
"A.C.Bonamartini"
"L.Forlani"
"V.Modarelli"
"L.Righi"
"P.Sgarabotto"
_chemical_name_systematic
;
1-(2,4,6-Trinitrophenyl)cytosine
;
_cell_volume   2688.972
_exptl_crystal_density_diffrn 1.592
_diffrn_ambient_temperature 295
#These two values have been output from a single CSD field.
_refine_ls_R_factor_gt 0.051
_refine_ls_wR_factor_gt 0.051
_symmetry_cell_setting orthorhombic
_symmetry_space_group_name_H-M 'P b c a'
_symmetry_Int_Tables_number 61
loop_
_symmetry_equiv_pos_site_id
_symmetry_equiv_pos_as_xyz
1 x,y,z
2 1/2-x,1/2+y,z
3 x,1/2-y,1/2+z
4 1/2+x,y,1/2-z
5 -x,-y,-z
6 -1/2+x,-1/2-y,-z
7 -x,-1/2+y,-1/2-z
8 -1/2-x,-y,-1/2+z
_cell_length_a 20.526(4)
_cell_length_b 14.616(3)
_cell_length_c 8.963(2)
_cell_angle_alpha 90
_cell_angle_beta 90
_cell_angle_gamma 90
_cell_formula_units_Z 8
loop_
_atom_type_symbol
_atom_type_radius_bond
C 0.68
H 0.23
N 0.68
O 0.68
loop_
_atom_site_label
_atom_site_type_symbol
_atom_site_fract_x
_atom_site_fract_y
_atom_site_fract_z
N1 N 0.8593(2) 0.4636(3) 0.1627(4)
C1 C 0.8747(2) 0.4512(3) 0.3148(6)
O1 O 0.8364(2) 0.4073(3) 0.3911(4)
N2 N 0.9305(2) 0.4883(3) 0.3662(5)
C2 C 0.9666(2) 0.5417(4) 0.2770(6)
N3 N 1.0221(3) 0.5742(4) 0.3301(8)
C3 C 0.9472(3) 0.5639(4) 0.1290(7)
C4 C 0.8943(3) 0.5225(4) 0.0751(7)
C5 C 0.8048(2) 0.4144(3) 0.1049(5)
C6 C 0.8142(2) 0.3281(3) 0.0433(5)
N4 N 0.8804(2) 0.2903(3) 0.0467(7)
O2 O 0.9194(2) 0.3154(4) -0.0373(8)
O3 O 0.8893(3) 0.2342(5) 0.1436(8)
C7 C 0.7652(3) 0.2761(3) -0.0159(6)
C8 C 0.7033(2) 0.3125(3) -0.0101(6)
N5 N 0.6490(2) 0.2584(3) -0.0722(6)
O4 O 0.6625(2) 0.1898(3) -0.1425(5)
O5 O 0.5941(2) 0.2844(4) -0.0480(8)
C9 C 0.6895(3) 0.3954(4) 0.0543(6)
C10 C 0.7410(2) 0.4462(3) 0.1094(5)
N6 N 0.7263(2) 0.5344(3) 0.1795(5)
O6 O 0.6751(2) 0.5392(3) 0.2494(5)
O7 O 0.7656(2) 0.5969(2) 0.1652(5)
H1 H 0.6504(24) 0.4158(32) 0.0625(57)
H2 H 0.7728(29) 0.2152(45) -0.0632(78)
H3 H 0.9715(26) 0.6114(36) 0.0678(65)
H4 H 0.8786(28) 0.5330(43) -0.0364(78)
H5 H 1.034(3) 0.5654(41) 0.4124(80)
H6 H 1.0451(38) 0.6146(49) 0.2617(85)
#END
