
#######################################################################
#
#                 Cambridge Crystallographic Data Centre
#                                CCDC
#
#######################################################################
#
# If this CIF has been generated from an entry in the Cambridge
# Structural Database, then it will include bibliographic, chemical,
# crystal, experimental, refinement or atomic coordinate data resulting
# from the CCDC's data processing and validation procedures.
#
#######################################################################

data_CSD_CIF_CAGFUO
_audit_creation_date 2017-01-04
_audit_creation_method CSD-ConQuest-V1
_database_code_CSD CAGFUO
_database_code_depnum_ccdc_archive 'CCDC 1056209'
_chemical_formula_sum 'C27 H23 N3 O3'
_chemical_formula_moiety
;
C27 H23 N3 O3
;
_journal_coden_Cambridge 1078
_journal_year 2016
_journal_name_full 'CSD Communication(Private Communication) '
loop_
_publ_author_name
"B.Varghese"
"S.N.Al-Busafi"
"F.O.Suliman"
"S.M.Z.Al-Kindy"
_chemical_name_systematic
;
5-(2-ethoxy-5-nitrophenyl)-3-(1-naphthyl)-1-phenyl-4,5-dihydro-1H-pyrazole
;
_chemical_melting_point 457.15
_cell_volume   2274.082
_exptl_crystal_colour 'yellow'
_exptl_crystal_density_diffrn 1.278
_exptl_special_details
;
UV-Visible
The structure holds an interest as it carries biologically active pyrazoline 
as central nucleus attaching to electron donating and electron withdrawing 
substituents.
Heat-sensitive
;
_exptl_crystal_description 'plates'
_exptl_crystal_preparation 'ethanol'
_diffrn_ambient_temperature 293
#These two values have been output from a single CSD field.
_refine_ls_R_factor_gt 0.0975
_refine_ls_wR_factor_gt 0.0975
_symmetry_cell_setting monoclinic
_symmetry_space_group_name_H-M 'P 21/c'
_symmetry_Int_Tables_number 14
loop_
_symmetry_equiv_pos_site_id
_symmetry_equiv_pos_as_xyz
1 x,y,z
2 -x,1/2+y,1/2-z
3 -x,-y,-z
4 x,-1/2-y,-1/2+z
_cell_length_a 15.8696(14)
_cell_length_b 9.9425(9)
_cell_length_c 15.5068(14)
_cell_angle_alpha 90
_cell_angle_beta 111.652(4)
_cell_angle_gamma 90
_cell_formula_units_Z 4
loop_
_atom_type_symbol
_atom_type_radius_bond
C 0.68
H 0.23
N 0.68
O 0.68
loop_
_atom_site_label
_atom_site_type_symbol
_atom_site_fract_x
_atom_site_fract_y
_atom_site_fract_z
C1 C 0.5028(4) 0.9120(8) 0.6246(4)
C2 C 0.5451(4) 1.0276(9) 0.6233(5)
H1 H 0.60330 1.02720 0.62210
C3 C 0.5015(5) 1.1481(8) 0.6236(5)
H2 H 0.53080 1.22920 0.62400
C4 C 0.4138(4) 1.1480(7) 0.6233(4)
C5 C 0.3696(3) 1.0265(6) 0.6246(4)
C6 C 0.4166(4) 0.9108(6) 0.6266(4)
H3 H 0.38970 0.82870 0.62940
C7 C 0.2740(3) 1.0312(5) 0.6208(4)
H4 H 0.26920 1.09570 0.66660
C8 C 0.2053(4) 1.0661(5) 0.5243(4)
H5 H 0.17690 1.15230 0.52470
H6 H 0.23410 1.06880 0.47890
C9 C 0.1381(4) 0.9549(6) 0.5038(5)
C10 C 0.2562(4) 0.8517(6) 0.7257(5)
C11 C 0.2092(4) 0.7415(6) 0.7380(6)
H7 H 0.16870 0.69760 0.68630
C12 C 0.2207(5) 0.6964(8) 0.8233(8)
H8 H 0.18770 0.62200 0.82930
C13 C 0.2792(6) 0.7566(9) 0.9008(6)
H9 H 0.28530 0.72580 0.95940
C14 C 0.3301(5) 0.8658(8) 0.8908(5)
H10 H 0.37160 0.90770 0.94270
C15 C 0.3180(4) 0.9114(6) 0.8022(5)
H11 H 0.35250 0.98320 0.79500
C16 C 0.4022(5) 1.3874(6) 0.6166(5)
H12 H 0.41430 1.39410 0.55990
H13 H 0.45850 1.40140 0.66890
C17 C 0.3340(7) 1.4886(7) 0.6171(6)
H14 H 0.35640 1.57710 0.61300
H15 H 0.27870 1.47350 0.56500
H16 H 0.32260 1.48080 0.67360
N1 N 0.5493(4) 0.7875(8) 0.6243(5)
N2 N 0.2423(3) 0.8977(5) 0.6371(4)
N3 N 0.1597(3) 0.8642(5) 0.5671(4)
O1 O 0.6246(4) 0.7918(7) 0.6218(5)
O2 O 0.5108(4) 0.6836(7) 0.6250(5)
O3 O 0.3650(3) 1.2580(4) 0.6228(3)
C18 C 0.0566(4) 0.9506(7) 0.4158(5)
C19 C 0.0453(4) 1.0561(8) 0.3549(5)
H17 H 0.08780 1.12520 0.37190
C20 C -0.0272(5) 1.0654(10) 0.2679(6)
H18 H -0.03360 1.13900 0.22900
C21 C -0.0854(6) 0.964(1) 0.2449(7)
H19 H -0.13130 0.96640 0.18650
C22 C -0.0831(4) 0.8528(9) 0.3020(5)
C23 C -0.0086(5) 0.8492(8) 0.3914(5)
C24 C -0.0071(5) 0.7413(7) 0.4455(6)
H20 H 0.03880 0.73360 0.50360
C25 C -0.0738(6) 0.6411(10) 0.4152(7)
H21 H -0.07200 0.56670 0.45220
C26 C -0.1434(5) 0.6556(11) 0.3277(7)
H22 H -0.18820 0.58980 0.30930
C27 C -0.1500(6) 0.7595(10) 0.2676(8)
H23 H -0.19560 0.76580 0.20920
#END
