
#######################################################################
#
#                 Cambridge Crystallographic Data Centre
#                                CCDC
#
#######################################################################
#
# If this CIF has been generated from an entry in the Cambridge
# Structural Database, then it will include bibliographic, chemical,
# crystal, experimental, refinement or atomic coordinate data resulting
# from the CCDC's data processing and validation procedures.
#
#######################################################################

data_CSD_CIF_CAGGIB
_audit_creation_date 2002-03-27
_audit_creation_method CSD-ConQuest-V1
_database_code_CSD CAGGIB
_database_code_depnum_ccdc_archive 'CCDC 180054'
_chemical_formula_sum 'C12 H10 N4 O1'
_chemical_formula_moiety
;
C12 H10 N4 O1
;
_journal_coden_Cambridge 392
_journal_volume 55
_journal_year 2001
_journal_page_first 1703
_journal_name_full 'Heterocycles '
loop_
_publ_author_name
"A.R.Katritzky"
"T.Kurz"
"Suoming Zhang"
"M.Voronkov"
"P.J.Steel"
_chemical_name_systematic
;
2-(Benzotriazol-1-yl)-4-methylpyridine-N-oxide
;
_chemical_melting_point 455.15
_cell_volume   1090.689
_exptl_crystal_colour 'white'
_exptl_crystal_density_diffrn 1.378
_exptl_crystal_description 'needles'
_exptl_crystal_preparation 'ethyl acetate/acetone'
_diffrn_ambient_temperature 168
#These two values have been output from a single CSD field.
_refine_ls_R_factor_gt 0.0693
_refine_ls_wR_factor_gt 0.0693
_symmetry_cell_setting orthorhombic
_symmetry_space_group_name_H-M 'P 21 21 21'
_symmetry_Int_Tables_number 19
loop_
_symmetry_equiv_pos_site_id
_symmetry_equiv_pos_as_xyz
1 x,y,z
2 1/2-x,-y,1/2+z
3 -x,1/2+y,1/2-z
4 1/2+x,1/2-y,-z
_cell_length_a 7.592(6)
_cell_length_b 11.741(9)
_cell_length_c 12.236(9)
_cell_angle_alpha 90
_cell_angle_beta 90
_cell_angle_gamma 90
_cell_formula_units_Z 4
loop_
_atom_type_symbol
_atom_type_radius_bond
C 0.68
H 0.23
N 0.68
O 0.68
loop_
_atom_site_label
_atom_site_type_symbol
_atom_site_fract_x
_atom_site_fract_y
_atom_site_fract_z
O1 O 0.1951(5) 0.5788(3) 0.0775(3)
N1 N 0.2572(6) 0.6135(3) -0.0169(3)
C1 C 0.3164(8) 0.7212(4) -0.0309(4)
C2 C 0.3779(7) 0.7586(4) -0.1318(4)
H1 H 0.42110 0.83420 -0.13910
C3 C 0.3769(7) 0.6851(5) -0.2239(4)
C4 C 0.3174(8) 0.5725(5) -0.2035(4)
H2 H 0.31730 0.51870 -0.26160
C5 C 0.2607(8) 0.5396(5) -0.1032(4)
H3 H 0.22240 0.46340 -0.09270
C6 C 0.4405(9) 0.7234(6) -0.3333(5)
H4 H 0.56250 0.75000 -0.32720
H5 H 0.36590 0.78570 -0.35960
H6 H 0.43490 0.65960 -0.38490
N2 N 0.3050(6) 0.7981(3) 0.0569(3)
N3 N 0.2371(6) 0.9067(4) 0.0357(4)
N4 N 0.2461(6) 0.9668(4) 0.1249(4)
C7 C 0.3173(8) 0.9001(4) 0.2075(4)
C8 C 0.3542(9) 0.9272(5) 0.3166(4)
H7 H 0.32680 0.99970 0.34660
C9 C 0.4308(9) 0.8445(5) 0.3766(5)
H8 H 0.45680 0.86090 0.45090
C10 C 0.4748(8) 0.7358(5) 0.3372(4)
H9 H 0.53140 0.68230 0.38360
C11 C 0.4347(7) 0.7067(5) 0.2287(5)
H10 H 0.45790 0.63290 0.20040
C12 C 0.3586(7) 0.7926(4) 0.1644(4)
#END
