
#######################################################################
#
#                 Cambridge Crystallographic Data Centre
#                                CCDC
#
#######################################################################
#
# If this CIF has been generated from an entry in the Cambridge
# Structural Database, then it will include bibliographic, chemical,
# crystal, experimental, refinement or atomic coordinate data resulting
# from the CCDC's data processing and validation procedures.
#
#######################################################################

data_CSD_CIF_CAGGUN
_audit_creation_date 2002-03-27
_audit_creation_method CSD-ConQuest-V1
_database_code_CSD CAGGUN
_database_code_depnum_ccdc_archive 'CCDC 180056'
_chemical_formula_sum 'C11 H8 N4 O1'
_chemical_formula_moiety
;
C11 H8 N4 O1
;
_journal_coden_Cambridge 392
_journal_volume 55
_journal_year 2001
_journal_page_first 1703
_journal_name_full 'Heterocycles '
loop_
_publ_author_name
"A.R.Katritzky"
"T.Kurz"
"Suoming Zhang"
"M.Voronkov"
"P.J.Steel"
_chemical_name_systematic
;
1-(2-Pyridyl)benzotriazole-3-N-oxide
;
_chemical_melting_point 445.15
_cell_volume   1910.767
_exptl_crystal_colour 'white'
_exptl_crystal_density_diffrn 1.475
_exptl_special_details
;
Melting point range 445.15-446.15K

;
_exptl_crystal_description 'microprisms'
_exptl_crystal_preparation 'ethyl acetate'
_diffrn_ambient_temperature 163
#These two values have been output from a single CSD field.
_refine_ls_R_factor_gt 0.0587
_refine_ls_wR_factor_gt 0.0587
_symmetry_cell_setting orthorhombic
_symmetry_space_group_name_H-M 'P c a 21'
_symmetry_Int_Tables_number 29
loop_
_symmetry_equiv_pos_site_id
_symmetry_equiv_pos_as_xyz
1 x,y,z
2 -x,-y,1/2+z
3 1/2+x,-y,z
4 1/2-x,y,1/2+z
_cell_length_a 7.312(4)
_cell_length_b 12.442(7)
_cell_length_c 21.003(12)
_cell_angle_alpha 90
_cell_angle_beta 90
_cell_angle_gamma 90
_cell_formula_units_Z 8
loop_
_atom_type_symbol
_atom_type_radius_bond
C 0.68
H 0.23
N 0.68
O 0.68
loop_
_atom_site_label
_atom_site_type_symbol
_atom_site_fract_x
_atom_site_fract_y
_atom_site_fract_z
N1 N 0.1421(6) 0.5465(3) 0.0100(2)
N2 N 0.1374(6) 0.6555(3) 0.0047(2)
N3 N 0.0723(6) 0.6741(4) -0.0527(2)
C1 C 0.0328(8) 0.5813(5) -0.0836(3)
C2 C -0.0361(9) 0.5663(6) -0.1467(3)
H1 H -0.06340 0.62500 -0.17400
C3 C -0.060(1) 0.4626(6) -0.1651(4)
H2 H -0.10560 0.44880 -0.20670
C4 C -0.0199(7) 0.3743(5) -0.1251(3)
H3 H -0.04260 0.30340 -0.13990
C5 C 0.0525(7) 0.3898(5) -0.0643(3)
H4 H 0.08100 0.33160 -0.03680
C6 C 0.0801(9) 0.4966(4) -0.0467(4)
O1 O 0.0472(6) 0.7713(3) -0.07309(19)
N4 N 0.2174(7) 0.3935(3) 0.0666(2)
C7 C 0.2096(11) 0.4992(4) 0.0652(4)
C8 C 0.2594(7) 0.5651(4) 0.1192(3)
H5 H 0.24940 0.64120 0.11820
C9 C 0.3234(11) 0.5107(5) 0.1733(5)
H6 H 0.35860 0.55030 0.21000
C10 C 0.3354(8) 0.4016(5) 0.1736(3)
H7 H 0.37970 0.36470 0.21010
C11 C 0.2820(8) 0.3454(4) 0.1201(3)
H8 H 0.29080 0.26920 0.12070
N5 N 0.1079(6) 0.9528(3) 0.1661(2)
N6 N 0.1212(6) 0.8433(3) 0.1709(2)
N7 N 0.1917(7) 0.8265(4) 0.2283(2)
C12 C 0.2202(8) 0.9194(5) 0.2624(3)
C13 C 0.2935(9) 0.9392(5) 0.3240(4)
H9 H 0.33080 0.88290 0.35170
C14 C 0.3063(9) 1.0449(5) 0.3402(3)
H10 H 0.35510 1.06260 0.38080
C15 C 0.2512(7) 1.1286(5) 0.3003(3)
H11 H 0.26330 1.20040 0.31510
C16 C 0.1821(9) 1.1121(5) 0.2421(3)
H12 H 0.14320 1.17080 0.21660
C17 C 0.1679(10) 1.0038(4) 0.2190(4)
O2 O 0.2227(6) 0.7313(3) 0.2493(2)
N8 N 0.0239(6) 1.1046(3) 0.1084(2)
C18 C 0.0398(11) 0.9985(4) 0.1057(4)
C19 C -0.0046(8) 0.9314(5) 0.0570(3)
H13 H 0.00760 0.85560 0.05960
C20 C -0.0693(11) 0.9834(6) 0.0031(5)
H14 H -0.10170 0.94220 -0.03330
C21 C -0.0873(7) 1.0924(5) 0.0011(3)
H15 H -0.13110 1.12770 -0.03600
C22 C -0.0392(8) 1.1502(5) 0.0553(3)
H16 H -0.05210 1.22620 0.05450
#END
