
#######################################################################
#
#                 Cambridge Crystallographic Data Centre
#                                CCDC
#
#######################################################################
#
# If this CIF has been generated from an entry in the Cambridge
# Structural Database, then it will include bibliographic, chemical,
# crystal, experimental, refinement or atomic coordinate data resulting
# from the CCDC's data processing and validation procedures.
#
#######################################################################

data_CSD_CIF_CAHBIZ
_audit_creation_date 2017-01-04
_audit_creation_method CSD-ConQuest-V1
_database_code_CSD CAHBIZ
_database_code_depnum_ccdc_archive 'CCDC 1407203'
_chemical_formula_sum 'C28 H40 N2 O5'
_chemical_formula_moiety
;
C28 H40 N2 O5
;
_journal_coden_Cambridge 1566
_journal_volume 5
_journal_year 2016
_journal_page_first 65
_journal_name_full 'ChemistryOpen '
loop_
_publ_author_name
"M.A.Timoshenko"
"Y.V.Kharitonov"
"M.M.Shakirov"
"I.Yu.Bagryanskaya"
"E.E.Shults"
_chemical_name_systematic
;
(1R,4aR,4bR,7S,9R,10aR)-methyl 7-ethyl-9-((4-methoxy-2-nitrophenyl)amino)- 
1,4a,7-trimethyl-1,2,3,4,4a,4b,5,6,7,9,10,10a-dodecahydrophenanthrene-1- 
carboxylate
;
_chemical_name_common
;
methyl 7-((4-methoxy-2-nitrophenyl)amino)pimar-8(14)-en-18-oate
;
_chemical_melting_point 448
_cell_volume   2599.971
_exptl_crystal_colour 'red'
_exptl_crystal_density_diffrn 1.238
_exptl_crystal_description 'prism'
_diffrn_ambient_temperature 296
#These two values have been output from a single CSD field.
_refine_ls_R_factor_gt 0.0384
_refine_ls_wR_factor_gt 0.0384
_symmetry_cell_setting orthorhombic
_symmetry_space_group_name_H-M 'P 21 21 2'
_symmetry_Int_Tables_number 18
loop_
_symmetry_equiv_pos_site_id
_symmetry_equiv_pos_as_xyz
1 x,y,z
2 1/2+x,1/2-y,-z
3 1/2-x,1/2+y,-z
4 -x,-y,z
_cell_length_a 9.5312(3)
_cell_length_b 32.9610(13)
_cell_length_c 8.2760(4)
_cell_angle_alpha 90
_cell_angle_beta 90
_cell_angle_gamma 90
_cell_formula_units_Z 4
loop_
_atom_type_symbol
_atom_type_radius_bond
C 0.68
H 0.23
N 0.68
O 0.68
loop_
_atom_site_label
_atom_site_type_symbol
_atom_site_fract_x
_atom_site_fract_y
_atom_site_fract_z
N1 N -0.56803(16) -0.42644(5) -0.2799(2)
H1 H -0.54730 -0.41770 -0.18500
O1 O -0.16386(17) -0.33909(6) -0.0021(3)
C1 C -0.64073(19) -0.46177(5) -0.2892(2)
C2 C -0.6353(2) -0.27896(6) -0.2474(3)
H2 H -0.69560 -0.26160 -0.31150
H3 H -0.69220 -0.29100 -0.16280
O2 O -0.37270(16) -0.36560(6) 0.0376(2)
C3 C -0.5217(3) -0.25338(6) -0.1706(3)
H4 H -0.56450 -0.23250 -0.10420
H5 H -0.46750 -0.24010 -0.25450
C4 C -0.6868(2) -0.48436(5) -0.1531(2)
N2 N -0.6484(2) -0.47320(6) 0.0076(2)
O3 O -0.5713(2) -0.44329(5) 0.02971(19)
C5 C -0.4251(2) -0.27907(6) -0.0675(3)
H6 H -0.47860 -0.29070 0.02090
H7 H -0.35300 -0.26180 -0.02130
C6 C -0.7719(2) -0.51880(6) -0.1681(3)
H8 H -0.80230 -0.53240 -0.07600
O4 O -0.6908(2) -0.49334(6) 0.1226(2)
C7 C -0.8106(2) -0.53260(6) -0.3170(3)
C8 C -0.3543(2) -0.31378(6) -0.1636(3)
O5 O -0.89534(19) -0.56521(5) -0.3460(2)
C9 C -0.7578(2) -0.51289(6) -0.4534(3)
H9 H -0.77820 -0.52310 -0.55550
C10 C -0.46928(18) -0.33803(5) -0.2552(2)
H10 H -0.52460 -0.35130 -0.17060
C11 C -0.6764(2) -0.47878(6) -0.4401(3)
H11 H -0.64350 -0.46640 -0.53370
C12 C -0.40857(19) -0.37277(6) -0.3567(2)
H12 H -0.35860 -0.36150 -0.44840
H13 H -0.34160 -0.38780 -0.29180
C13 C -0.52158(19) -0.40179(5) -0.4178(2)
H14 H -0.47990 -0.41980 -0.49900
C14 C -0.64312(18) -0.37860(5) -0.4955(2)
C15 C -0.69877(18) -0.34313(5) -0.3989(2)
H15 H -0.73350 -0.35420 -0.29650
C16 C -0.57759(19) -0.31297(5) -0.3557(3)
C17 C -0.8247(2) -0.32203(6) -0.4817(3)
H16 H -0.88730 -0.31170 -0.39890
H17 H -0.79040 -0.29900 -0.54330
C18 C -0.9075(2) -0.34961(6) -0.5937(3)
H18 H -0.98100 -0.33400 -0.64570
H19 H -0.95190 -0.37080 -0.53040
C19 C -0.8153(2) -0.36909(6) -0.7232(2)
C20 C -0.69151(19) -0.38873(5) -0.6403(2)
H20 H -0.64570 -0.40950 -0.69500
C21 C -0.8986(2) -0.40092(7) -0.8214(3)
H21 H -0.97500 -0.38710 -0.87580
H22 H -0.83710 -0.41170 -0.90430
C22 C -0.9596(3) -0.43633(8) -0.7281(4)
H23 H -1.02700 -0.42650 -0.65130
H24 H -0.88570 -0.45030 -0.67210
H25 H -1.00470 -0.45470 -0.80170
C23 C -0.7627(3) -0.33777(7) -0.8477(3)
H26 H -0.69740 -0.35050 -0.91990
H27 H -0.71710 -0.31580 -0.79230
H28 H -0.84080 -0.32740 -0.90820
C24 C -0.2845(2) -0.34060(6) -0.0364(3)
C25 C -0.2360(2) -0.29670(8) -0.2703(3)
H29 H -0.20140 -0.31770 -0.34000
H30 H -0.16120 -0.28700 -0.20300
H31 H -0.27180 -0.27470 -0.33440
C26 C -0.3175(3) -0.38940(9) 0.1689(3)
H32 H -0.27060 -0.37190 0.24430
H33 H -0.25210 -0.40900 0.12740
H34 H -0.39300 -0.40320 0.22250
C27 C -0.9825(3) -0.57815(9) -0.2189(4)
H35 H -1.03310 -0.55530 -0.17640
H36 H -0.92610 -0.58990 -0.13500
H37 H -1.04770 -0.59800 -0.25850
C28 C -0.5157(2) -0.29474(6) -0.5114(3)
H38 H -0.43940 -0.27700 -0.48440
H39 H -0.58710 -0.27970 -0.56720
H40 H -0.48210 -0.31620 -0.57970
#END
