
#######################################################################
#
#                 Cambridge Crystallographic Data Centre
#                                CCDC
#
#######################################################################
#
# If this CIF has been generated from an entry in the Cambridge
# Structural Database, then it will include bibliographic, chemical,
# crystal, experimental, refinement or atomic coordinate data resulting
# from the CCDC's data processing and validation procedures.
#
#######################################################################

data_CSD_CIF_CAHDAQ
_audit_creation_date 1984-04-14
_audit_creation_method CSD-ConQuest-V1
_database_code_CSD CAHDAQ
_database_code_depnum_ccdc_archive 'CCDC 1119308'
_chemical_formula_sum 'C7 H7 N1 O1'
_chemical_formula_moiety
;
C7 H7 N1 O1
;
_journal_coeditor_code "IUCr A22755"
_journal_coden_Cambridge 591
_journal_volume 39
_journal_year 1983
_journal_page_first 1447
_journal_name_full 'Acta Crystallogr.,Sect.C:Cryst.Struct.Commun. '
loop_
_publ_author_name
"B.Jerslev"
_chemical_name_systematic
;
(E)-Benzaldehyde oxime
;
_chemical_melting_point 303
_cell_volume   2584.003
_exptl_crystal_density_diffrn 1.245
_exptl_special_details
;
Melting point range 303-307K

;
_diffrn_ambient_temperature 100
#These two values have been output from a single CSD field.
_refine_ls_R_factor_gt 0.045
_refine_ls_wR_factor_gt 0.045
_symmetry_cell_setting monoclinic
_symmetry_space_group_name_H-M 'C 2/c'
_symmetry_Int_Tables_number 15
loop_
_symmetry_equiv_pos_site_id
_symmetry_equiv_pos_as_xyz
1 x,y,z
2 1/2+x,1/2+y,z
3 -x,y,1/2-z
4 1/2-x,1/2+y,1/2-z
5 -x,-y,-z
6 -1/2-x,-1/2-y,-z
7 x,-y,-1/2+z
8 -1/2+x,-1/2-y,-1/2+z
_cell_length_a 18.50(1)
_cell_length_b 8.272(1)
_cell_length_c 17.224(7)
_cell_angle_alpha 90
_cell_angle_beta 101.38(5)
_cell_angle_gamma 90
_cell_formula_units_Z 16
loop_
_atom_type_symbol
_atom_type_radius_bond
C 0.68
H 0.23
N 0.68
O 0.68
loop_
_atom_site_label
_atom_site_type_symbol
_atom_site_fract_x
_atom_site_fract_y
_atom_site_fract_z
C1 C 0.63761 -0.25200 1.02500
C2 C 0.66979 -0.32940 0.96924
C3 C 0.65935 -0.27020 0.89240
C4 C 0.61642 -0.13330 0.87051
C5 C 0.58200 -0.05870 0.92662
C6 C 0.59330 -0.11750 1.00346
C7 C 0.60929 -0.07050 0.78975
N1 N 0.58660 0.07330 0.77235
O1 O 0.58684 0.11030 0.69304
H1 H 0.64560 -0.29500 1.07680
H2 H 0.69950 -0.42200 0.98170
H3 H 0.68220 -0.32400 0.85490
H4 H 0.54920 0.03400 0.91190
H5 H 0.57120 -0.05800 1.04260
H6 H 0.62370 -0.14100 0.74930
H7 H 0.56300 0.20500 0.68470
C8 C 0.76554 0.20240 0.85617
C9 C 0.82083 0.25120 0.91820
C10 C 0.89214 0.19330 0.92393
C11 C 0.90847 0.08410 0.86826
C12 C 0.85241 0.03640 0.80520
C13 C 0.78155 0.09550 0.79960
C14 C 0.98383 0.02090 0.87795
N2 N 0.99647 -0.11180 0.84507
O2 O 1.07157 -0.15160 0.86092
H8 H 0.71630 0.24500 0.85250
H9 H 0.81000 0.32800 0.95880
H10 H 0.93120 0.22700 0.96800
H11 H 0.86410 -0.03500 0.76480
H12 H 0.74400 0.06400 0.75560
H13 H 1.02300 0.08000 0.91060
H14 H 1.07360 -0.24400 0.83320
#END
