
#######################################################################
#
#                 Cambridge Crystallographic Data Centre
#                                CCDC
#
#######################################################################
#
# If this CIF has been generated from an entry in the Cambridge
# Structural Database, then it will include bibliographic, chemical,
# crystal, experimental, refinement or atomic coordinate data resulting
# from the CCDC's data processing and validation procedures.
#
#######################################################################

data_CSD_CIF_CAHDAT
_audit_creation_date 2017-01-04
_audit_creation_method CSD-ConQuest-V1
_database_code_CSD CAHDAT
_database_code_depnum_ccdc_archive 'CCDC 1050949'
_chemical_formula_sum 'C13 H17 N1 O2'
_chemical_formula_moiety
;
C13 H17 N1 O2
;
_journal_coden_Cambridge 493
_journal_volume 127
_journal_year 2017
_journal_page_first 210
_journal_name_full 'Eur.J.Med.Chem. '
loop_
_publ_author_name
"Gagandeep Singh"
"Gurjit Singh"
"R.Bhatti"
"V.Gupta"
"A.Mahajan"
"P.Singh"
"Mohan Paul Singh Ishar"
_chemical_name_systematic
;
1,8,9b-trimethyl-1,3a,4,9b-tetrahydro-3H-chromeno[4,3-c][1,2]oxazole
;
_cell_volume   1173.919
_exptl_crystal_colour 'white'
_exptl_crystal_density_diffrn 1.241
_exptl_special_details
;
antinociceptive activity

;
_exptl_crystal_description 'block'
_diffrn_ambient_temperature 293
#These two values have been output from a single CSD field.
_refine_ls_R_factor_gt 0.0465
_refine_ls_wR_factor_gt 0.0465
_symmetry_cell_setting monoclinic
_symmetry_space_group_name_H-M 'P 21/c'
_symmetry_Int_Tables_number 14
loop_
_symmetry_equiv_pos_site_id
_symmetry_equiv_pos_as_xyz
1 x,y,z
2 -x,1/2+y,1/2-z
3 -x,-y,-z
4 x,-1/2-y,-1/2+z
_cell_length_a 8.4486(7)
_cell_length_b 10.6381(7)
_cell_length_c 13.5040(9)
_cell_angle_alpha 90
_cell_angle_beta 104.710(8)
_cell_angle_gamma 90
_cell_formula_units_Z 4
loop_
_atom_type_symbol
_atom_type_radius_bond
C 0.68
H 0.23
N 0.68
O 0.68
loop_
_atom_site_label
_atom_site_type_symbol
_atom_site_fract_x
_atom_site_fract_y
_atom_site_fract_z
O1 O 0.33583(16) 0.16551(11) 0.18902(11)
O2 O 0.65289(18) 0.26682(12) 0.41015(9)
N1 N 0.40786(19) 0.23175(13) 0.11793(12)
C1 C 0.6745(2) 0.22788(15) 0.23710(14)
C2 C 0.7555(2) 0.16196(16) 0.17521(15)
H1 H 0.72130 0.17300 0.10470
C3 C 0.5307(2) 0.31254(15) 0.18832(13)
C4 C 0.7275(2) 0.21121(17) 0.34180(14)
C5 C 0.9352(2) 0.06755(19) 0.31965(17)
H2 H 1.02260 0.01480 0.34830
C6 C 0.8581(2) 0.13128(18) 0.38271(16)
H3 H 0.89340 0.12080 0.45330
C7 C 0.4435(2) 0.35682(16) 0.26936(14)
H4 H 0.38630 0.43580 0.24640
C8 C 0.8851(2) 0.08059(18) 0.21419(16)
C9 C 0.5868(3) 0.42136(16) 0.13158(15)
H5 H 0.62630 0.38890 0.07600
H6 H 0.67310 0.46660 0.17790
H7 H 0.49650 0.47700 0.10520
C10 C 0.2759(3) 0.30055(19) 0.04735(16)
H8 H 0.19130 0.24280 0.01480
H9 H 0.31830 0.34170 -0.00370
H10 H 0.23160 0.36220 0.08470
C11 C 0.5612(3) 0.37751(17) 0.37276(15)
H11 H 0.63610 0.44480 0.36750
H12 H 0.50030 0.40340 0.42130
C12 C 0.9645(3) 0.0085(2) 0.14369(19)
H13 H 0.89310 0.00780 0.07590
H14 H 0.98500 -0.07630 0.16800
H15 H 1.06610 0.04800 0.14230
C13 C 0.3174(3) 0.25359(18) 0.26630(17)
H16 H 0.33650 0.21240 0.33240
H17 H 0.20780 0.28860 0.24910
#END
