
#######################################################################
#
#                 Cambridge Crystallographic Data Centre
#                                CCDC
#
#######################################################################
#
# If this CIF has been generated from an entry in the Cambridge
# Structural Database, then it will include bibliographic, chemical,
# crystal, experimental, refinement or atomic coordinate data resulting
# from the CCDC's data processing and validation procedures.
#
#######################################################################

data_CSD_CIF_CAKPUB
_audit_creation_date 2012-01-09
_audit_creation_method CSD-ConQuest-V1
_database_code_CSD CAKPUB
_database_code_depnum_ccdc_archive 'CCDC 789455'
_chemical_formula_sum 'C7 H8 N6 O3'
_chemical_formula_moiety
;
C7 H8 N6 O3
;
_journal_coden_Cambridge 1562
_journal_volume 129
_journal_year 2011
_journal_page_first 349
_journal_name_full 'Theor.Chem.Acc. '
loop_
_publ_author_name
"L.-L.Gundersen"
"C.H.Gorbitz"
"L.Neier"
"H.Roggen"
"T.Tamm"
_chemical_name_systematic
;
N-Methoxy-9-methyl-2-nitro-9H-purin-6-amine
;
_cell_volume    477.009
_exptl_crystal_colour 'colorless'
_exptl_crystal_density_diffrn 1.561
_exptl_crystal_description 'block'
_diffrn_ambient_temperature 296
_refine_special_details
;
C2,N11,O12,O13 and C2B,N11B,O12B,O13B disordered over two sites with 
occupancies 0.907:0.093.
;
#These two values have been output from a single CSD field.
_refine_ls_R_factor_gt 0.0387
_refine_ls_wR_factor_gt 0.0387
_symmetry_cell_setting triclinic
_symmetry_space_group_name_H-M 'P -1'
_symmetry_Int_Tables_number 2
loop_
_symmetry_equiv_pos_site_id
_symmetry_equiv_pos_as_xyz
1 x,y,z
2 -x,-y,-z
_cell_length_a 7.936(3)
_cell_length_b 8.159(3)
_cell_length_c 8.679(4)
_cell_angle_alpha 107.561(4)
_cell_angle_beta 90.460(4)
_cell_angle_gamma 115.571(4)
_cell_formula_units_Z 2
loop_
_atom_type_symbol
_atom_type_radius_bond
C 0.68
H 0.23
N 0.68
O 0.68
loop_
_atom_site_label
_atom_site_type_symbol
_atom_site_fract_x
_atom_site_fract_y
_atom_site_fract_z
N1 N 0.02699(16) -0.12151(16) 0.21969(14)
N2 N 0.01658(16) 0.18125(16) 0.34462(14)
C1 C 0.17229(18) 0.23039(19) 0.44697(16)
C2 C 0.26267(18) 0.11801(19) 0.44490(16)
C3 C 0.18336(19) -0.06698(19) 0.32395(16)
N3 N 0.41645(16) 0.21382(17) 0.56850(14)
C4 C 0.4151(2) 0.3801(2) 0.64135(17)
H1 H 0.50420 0.47600 0.73110
N4 N 0.27260(16) 0.39950(16) 0.57428(14)
C5 C 0.2302(2) 0.5632(2) 0.6284(2)
H2 H 0.33370 0.67040 0.70780
H3 H 0.11710 0.52790 0.67680
H4 H 0.21200 0.59890 0.53620
N5 N 0.25893(19) -0.18664(18) 0.31409(16)
H5 H 0.367(2) -0.158(3) 0.367(2)
O1 O 0.17442(14) -0.37204(14) 0.20130(13)
C6 C 0.2406(2) -0.3743(2) 0.0486(2)
H6 H 0.18480 -0.50470 -0.02640
H7 H 0.37590 -0.32310 0.06540
H8 H 0.20570 -0.29690 0.00420
C7 C -0.03759(18) 0.00771(19) 0.24059(17)
N6 N -0.2093(6) -0.0609(3) 0.1165(6)
O2 O -0.2414(4) -0.1961(5) -0.0079(4)
O3 O -0.3050(4) 0.0240(3) 0.1472(4)
C8? C -0.03759(18) 0.00771(19) 0.24059(17)
N7? N -0.207(6) -0.068(2) 0.112(6)
O4? O -0.291(2) -0.2414(14) 0.041(2)
O5? O -0.2585(19) 0.0479(18) 0.098(2)
#END
