
#######################################################################
#
#                 Cambridge Crystallographic Data Centre
#                                CCDC
#
#######################################################################
#
# If this CIF has been generated from an entry in the Cambridge
# Structural Database, then it will include bibliographic, chemical,
# crystal, experimental, refinement or atomic coordinate data resulting
# from the CCDC's data processing and validation procedures.
#
#######################################################################

data_CSD_CIF_CAKQAI
_audit_creation_date 2012-01-09
_audit_creation_method CSD-ConQuest-V1
_database_code_CSD CAKQAI
_database_code_depnum_ccdc_archive 'CCDC 789456'
_chemical_formula_sum 'C8 H12 N6 O1'
_chemical_formula_moiety
;
C8 H12 N6 O1
;
_journal_coden_Cambridge 1562
_journal_volume 129
_journal_year 2011
_journal_page_first 349
_journal_name_full 'Theor.Chem.Acc. '
loop_
_publ_author_name
"L.-L.Gundersen"
"C.H.Gorbitz"
"L.Neier"
"H.Roggen"
"T.Tamm"
_chemical_name_systematic
;
6-(Methoxyimino)-N,9-dimethyl-6,9-dihydro-1H-purin-2-amine
;
_cell_volume    964.139
_exptl_crystal_colour 'colorless'
_exptl_crystal_density_diffrn 1.435
_exptl_crystal_description 'block'
_diffrn_ambient_temperature 150
#These two values have been output from a single CSD field.
_refine_ls_R_factor_gt 0.0494
_refine_ls_wR_factor_gt 0.0494
_symmetry_cell_setting monoclinic
_symmetry_space_group_name_H-M 'P 21/n'
_symmetry_Int_Tables_number 14
loop_
_symmetry_equiv_pos_site_id
_symmetry_equiv_pos_as_xyz
1 x,y,z
2 1/2-x,1/2+y,1/2-z
3 -x,-y,-z
4 -1/2+x,-1/2-y,-1/2+z
_cell_length_a 7.6562(3)
_cell_length_b 10.7744(4)
_cell_length_c 11.7192(4)
_cell_angle_alpha 90
_cell_angle_beta 94.194(1)
_cell_angle_gamma 90
_cell_formula_units_Z 4
loop_
_atom_type_symbol
_atom_type_radius_bond
C 0.68
H 0.23
N 0.68
O 0.68
loop_
_atom_site_label
_atom_site_type_symbol
_atom_site_fract_x
_atom_site_fract_y
_atom_site_fract_z
O1 O 0.30935(12) 0.04445(8) 0.53625(7)
N1 N 0.32854(13) 0.27822(8) 0.57032(8)
H1 H 0.3794(18) 0.2228(14) 0.6212(13)
N2 N 0.27869(12) 0.49340(8) 0.53387(8)
N3 N 0.06502(14) 0.32682(9) 0.29643(8)
N4 N 0.11232(12) 0.52370(9) 0.35245(7)
N5 N 0.43099(14) 0.42681(9) 0.70025(9)
H2 H 0.477(2) 0.3663(16) 0.7372(14)
N6 N 0.21804(13) 0.11573(9) 0.44738(8)
C1 C 0.34442(15) 0.40297(10) 0.59875(9)
C2 C 0.19088(14) 0.45053(10) 0.43681(8)
C3 C 0.16138(15) 0.32995(9) 0.40128(9)
C4 C 0.23591(14) 0.2327(1) 0.47232(9)
C5 C 0.03977(16) 0.44502(11) 0.27122(10)
H3 H -0.023(2) 0.4764(14) 0.2057(14)
C6 C 0.11140(17) 0.65824(11) 0.34978(10)
H4 H 0.01310 0.68720 0.29840
H5 H 0.22160 0.68820 0.32220
H6 H 0.09890 0.69030 0.42700
C7 C 0.45974(17) 0.55330(11) 0.73929(10)
H7 H 0.52160 0.55270 0.81550
H8 H 0.34670 0.59530 0.74290
H9 H 0.53030 0.59750 0.68580
C8 C 0.26726(18) -0.0824(1) 0.51704(11)
H10 H 0.33350 -0.13360 0.57420
H11 H 0.29760 -0.10640 0.44030
H12 H 0.14160 -0.09490 0.52340
#END
