
#######################################################################
#
#                 Cambridge Crystallographic Data Centre
#                                CCDC
#
#######################################################################
#
# If this CIF has been generated from an entry in the Cambridge
# Structural Database, then it will include bibliographic, chemical,
# crystal, experimental, refinement or atomic coordinate data resulting
# from the CCDC's data processing and validation procedures.
#
#######################################################################

data_CSD_CIF_CAKWIV
_audit_creation_date 2002-10-01
_audit_creation_method CSD-ConQuest-V1
_database_code_CSD CAKWIV
_database_code_depnum_ccdc_archive 'CCDC 170221'
_chemical_formula_sum 'C18 H20 N2 O1'
_chemical_formula_moiety
;
C18 H20 N2 O1
;
_journal_coden_Cambridge 1291
_journal_year 2002
_journal_page_first 2080
_journal_name_full 'Eur.J.Org.Chem. '
loop_
_publ_author_name
"E.M.Beccalli"
"G.Broggini"
"A.Farina"
"L.Malpezzi"
"A.Terraneo"
"G.Zecchi"
_chemical_name_systematic
;
(2aR*,5aS*,9bR*,9cR*)-1-Benzyl-1,2a,3,4,5,5a,9b,9c-octahydroisoxazolo(3,4,5-cd
)pyrrolo(1,2-a)indole
;
_chemical_melting_point 402.15
_cell_volume   1477.913
_exptl_crystal_colour 'colorless'
_exptl_crystal_density_diffrn 1.26
_exptl_special_details
;
Melting point range 402.15-404.15K

;
_exptl_crystal_description 'block'
_diffrn_ambient_temperature 293
#These two values have been output from a single CSD field.
_refine_ls_R_factor_gt 0.042
_refine_ls_wR_factor_gt 0.042
_symmetry_cell_setting monoclinic
_symmetry_space_group_name_H-M 'P 21/c'
_symmetry_Int_Tables_number 14
loop_
_symmetry_equiv_pos_site_id
_symmetry_equiv_pos_as_xyz
1 x,y,z
2 -x,1/2+y,1/2-z
3 -x,-y,-z
4 x,-1/2-y,-1/2+z
_cell_length_a 10.062(2)
_cell_length_b 15.361(2)
_cell_length_c 9.689(2)
_cell_angle_alpha 90
_cell_angle_beta 99.290(2)
_cell_angle_gamma 90
_cell_formula_units_Z 4
loop_
_atom_type_symbol
_atom_type_radius_bond
C 0.68
H 0.23
N 0.68
O 0.68
loop_
_atom_site_label
_atom_site_type_symbol
_atom_site_fract_x
_atom_site_fract_y
_atom_site_fract_z
O1 O 0.72338(13) 0.20813(8) 0.21571(12)
N1 N 0.73819(14) 0.11480(9) 0.22934(16)
N2 N 0.41712(15) 0.12367(9) 0.05823(15)
C1 C 0.7059(2) 0.22951(12) 0.06754(19)
H1 H 0.79460 0.23220 0.03850
C2 C 0.62732(19) 0.15244(11) -0.00649(18)
H2 H 0.66990 0.13280 -0.08510
C3 C 0.64285(17) 0.08144(11) 0.11047(18)
H3 H 0.67320 0.02590 0.07680
C4 C 0.50473(17) 0.07428(10) 0.14607(18)
C5 C 0.43522(19) 0.03449(12) 0.2388(2)
H4 H 0.47030 -0.00300 0.31090
C6 C 0.3004(2) 0.06133(14) 0.2037(2)
H5 H 0.22980 0.04480 0.24910
C7 C 0.2913(2) 0.11584(13) 0.0914(2)
H6 H 0.21350 0.14270 0.04590
C8 C 0.4751(2) 0.16552(11) -0.05436(18)
H7 H 0.44760 0.13270 -0.14100
C9 C 0.4289(2) 0.25929(12) -0.0779(2)
H8 H 0.45430 0.28050 -0.16420
H9 H 0.33150 0.26180 -0.08740
C10 C 0.4905(2) 0.31713(12) 0.04197(19)
H10 H 0.45460 0.37560 0.02780
H11 H 0.46790 0.29510 0.12910
C11 C 0.6415(2) 0.31902(12) 0.0500(2)
H12 H 0.68010 0.35540 0.12810
H13 H 0.66290 0.34540 -0.03470
C12 C 0.87826(19) 0.09044(13) 0.2241(2)
H14 H 0.93870 0.12700 0.28730
H15 H 0.89770 0.09900 0.13020
C13 C 0.89985(18) -0.00368(14) 0.2656(2)
C14 C 0.9767(2) -0.05761(15) 0.1966(3)
H16 H 1.01500 -0.03570 0.12260
C15 C 0.9979(3) -0.14402(18) 0.2358(4)
H17 H 1.05110 -0.17940 0.18910
C16 C 0.9404(3) -0.17696(19) 0.3429(4)
H18 H 0.95250 -0.23520 0.36810
C17 C 0.8655(3) -0.1243(2) 0.4126(4)
H19 H 0.82730 -0.14650 0.48650
C18 C 0.8454(3) -0.03816(17) 0.3750(3)
H20 H 0.79430 -0.00290 0.42430
#END
