
#######################################################################
#
#                 Cambridge Crystallographic Data Centre
#                                CCDC
#
#######################################################################
#
# If this CIF has been generated from an entry in the Cambridge
# Structural Database, then it will include bibliographic, chemical,
# crystal, experimental, refinement or atomic coordinate data resulting
# from the CCDC's data processing and validation procedures.
#
#######################################################################

data_CSD_CIF_CAKWOB
_audit_creation_date 2002-10-01
_audit_creation_method CSD-ConQuest-V1
_database_code_CSD CAKWOB
_database_code_depnum_ccdc_archive 'CCDC 170222'
_chemical_formula_sum 'C19 H22 N2 O1'
_chemical_formula_moiety
;
C19 H22 N2 O1
;
_journal_coden_Cambridge 1291
_journal_year 2002
_journal_page_first 2080
_journal_name_full 'Eur.J.Org.Chem. '
loop_
_publ_author_name
"E.M.Beccalli"
"G.Broggini"
"A.Farina"
"L.Malpezzi"
"A.Terraneo"
"G.Zecchi"
_chemical_name_systematic
;
(-)-(\aR,2aR,5aS,9bR,9cR)-1,2a,3,4,5,5a,9b,9c-Octahydroisoxazolo-1-(\a-methylb
enzyl)-(3,4,5-cd)pyrrolo(1,2-a)indole
;
_chemical_melting_point 393.15
_cell_volume   1595.187
_exptl_crystal_colour 'pale brown'
_exptl_crystal_density_diffrn 1.226
_exptl_special_details
;
Melting point range 393.15-394.15K

;
_exptl_crystal_description 'block'
_diffrn_ambient_temperature 293
#These two values have been output from a single CSD field.
_refine_ls_R_factor_gt 0.0629
_refine_ls_wR_factor_gt 0.0629
_symmetry_cell_setting orthorhombic
_symmetry_space_group_name_H-M 'P 21 21 21'
_symmetry_Int_Tables_number 19
loop_
_symmetry_equiv_pos_site_id
_symmetry_equiv_pos_as_xyz
1 x,y,z
2 1/2-x,-y,1/2+z
3 -x,1/2+y,1/2-z
4 1/2+x,1/2-y,-z
_cell_length_a 5.808
_cell_length_b 14.038(2)
_cell_length_c 19.565(3)
_cell_angle_alpha 90
_cell_angle_beta 90
_cell_angle_gamma 90
_cell_formula_units_Z 4
loop_
_atom_type_symbol
_atom_type_radius_bond
C 0.68
H 0.23
N 0.68
O 0.68
loop_
_atom_site_label
_atom_site_type_symbol
_atom_site_fract_x
_atom_site_fract_y
_atom_site_fract_z
O1 O -0.1046(4) -0.40827(12) -0.44953(9)
N1 N -0.0567(5) -0.49495(14) -0.41081(10)
N2 N -0.1454(5) -0.56895(17) -0.57555(10)
C1 C 0.1038(7) -0.39709(19) -0.48662(15)
H1 H 0.227(5) -0.3791(8) -0.4546(14)
C2 C 0.1555(6) -0.49714(19) -0.51520(13)
H2 H 0.318(8) -0.5108(7) -0.5118(2)
C3 C 0.0165(5) -0.56253(18) -0.46552(12)
H3 H 0.120(3) -0.6153(17) -0.4458(6)
C4 C -0.1644(5) -0.60360(16) -0.51052(11)
C5 C -0.3436(6) -0.66886(17) -0.51015(13)
H4 H -0.399(2) -0.7052(13) -0.4708(14)
C6 C -0.4304(6) -0.6728(2) -0.57795(13)
H5 H -0.548(6) -0.7095(18) -0.5926(7)
C7 C -0.3047(6) -0.6118(2) -0.61697(13)
H6 H -0.3248(9) -0.6003(5) -0.6665(17)
C8 C 0.0681(6) -0.5176(2) -0.58860(14)
H7 H 0.173(5) -0.5596(19) -0.6102(10)
C9 C 0.0319(9) -0.4314(3) -0.63487(17)
H8 H 0.182(5) -0.4110(8) -0.6536(7)
H9 H -0.067(4) -0.4500(7) -0.6738(14)
C10 C -0.0769(10) -0.3491(3) -0.5979(2)
H10 H -0.234(6) -0.3687(8) -0.5797(7)
H11 H -0.0993(14) -0.294(2) -0.6307(12)
C11 C 0.0760(9) -0.3187(3) -0.53915(19)
H12 H 0.010(3) -0.263(2) -0.5172(9)
H13 H 0.227(6) -0.3011(8) -0.5569(7)
C12 C -0.2697(6) -0.51928(17) -0.37522(12)
H14 H -0.401(4) -0.5339(5) -0.4119(12)
C13 C -0.2301(5) -0.60762(18) -0.33161(11)
C14 C -0.0290(6) -0.6190(2) -0.29349(13)
H15 H 0.079(5) -0.575(2) -0.29548(16)
C15 C 0.0015(7) -0.6985(2) -0.25248(15)
H16 H 0.141(6) -0.7063(4) -0.2272(11)
C16 C -0.1703(7) -0.7666(2) -0.24817(14)
H17 H -0.1509(11) -0.820(2) -0.2196(12)
C17 C -0.3684(6) -0.7565(2) -0.28546(14)
H18 H -0.490(5) -0.806(2) -0.28268(19)
C18 C -0.4001(6) -0.6771(2) -0.32733(14)
H19 H -0.542(6) -0.6703(4) -0.3537(12)
C19 C -0.3465(8) -0.4360(2) -0.32968(16)
H20 H -0.3747(10) -0.3764(15) -0.3596(7)
H21 H -0.219(3) -0.4214(4) -0.2942(9)
H22 H -0.497(4) -0.4541(5) -0.3046(6)
#END
