
#######################################################################
#
#                 Cambridge Crystallographic Data Centre
#                                CCDC
#
#######################################################################
#
# If this CIF has been generated from an entry in the Cambridge
# Structural Database, then it will include bibliographic, chemical,
# crystal, experimental, refinement or atomic coordinate data resulting
# from the CCDC's data processing and validation procedures.
#
#######################################################################

data_CSD_CIF_CALKEI
_audit_creation_date 2017-01-05
_audit_creation_method CSD-ConQuest-V1
_database_code_CSD CALKEI
_database_code_depnum_ccdc_archive 'CCDC 993619'
_chemical_formula_sum 'C24 H21 N5 O4'
_chemical_formula_moiety
;
C24 H21 N5 O4
;
_journal_coden_Cambridge 1606
_journal_volume 4
_journal_year 2015
_journal_page_first 146
_journal_name_full 'Asian J.Org.Chem '
loop_
_publ_author_name
"M.A.Bastrakov"
"A.M.Starosotnikov"
"V.V.Kachala"
"I.V.Fedyanin"
"S.A.Shevelev"
_chemical_name_systematic
;
2-benzyl-4,9b-dinitro-N-phenyl-2,3,3a,9b-tetrahydro-1H-pyrrolo[3,4-f]quinolin-
5-amine
;
_cell_volume   1056.679
_exptl_crystal_colour 'orange'
_exptl_crystal_density_diffrn 1.394
_exptl_crystal_description 'rod'
_diffrn_ambient_temperature 110
#These two values have been output from a single CSD field.
_refine_ls_R_factor_gt 0.0411
_refine_ls_wR_factor_gt 0.0411
_symmetry_cell_setting triclinic
_symmetry_space_group_name_H-M 'P -1'
_symmetry_Int_Tables_number 2
loop_
_symmetry_equiv_pos_site_id
_symmetry_equiv_pos_as_xyz
1 x,y,z
2 -x,-y,-z
_cell_length_a 10.0912(7)
_cell_length_b 10.8126(7)
_cell_length_c 11.0506(7)
_cell_angle_alpha 68.211(1)
_cell_angle_beta 81.891(1)
_cell_angle_gamma 70.735(1)
_cell_formula_units_Z 2
loop_
_atom_type_symbol
_atom_type_radius_bond
C 0.68
H 0.23
N 0.68
O 0.68
loop_
_atom_site_label
_atom_site_type_symbol
_atom_site_fract_x
_atom_site_fract_y
_atom_site_fract_z
O1 O -0.21420(13) 1.00418(13) 0.06435(13)
O2 O -0.04771(13) 0.89216(13) -0.03536(11)
O3 O 0.33673(11) 0.75832(13) 0.23742(11)
O4 O 0.25526(11) 0.89739(12) 0.34932(11)
N1 N 0.05814(13) 0.56830(14) 0.14743(13)
N2 N -0.21193(13) 0.83024(14) 0.51018(13)
N3 N -0.11686(14) 0.90220(14) 0.06277(13)
N4 N 0.24137(13) 0.81593(14) 0.30046(13)
N5 N 0.04443(14) 0.81945(14) 0.52796(13)
H1 H -0.031(2) 0.8503(19) 0.5710(18)
C1 C -0.08687(16) 0.64570(16) 0.16777(16)
H2 H -0.13020 0.58800 0.24440
H3 H -0.14330 0.67410 0.09020
C2 C 0.13654(16) 0.58336(17) 0.24037(16)
H4 H 0.23900 0.55280 0.22310
H5 H 0.11560 0.52960 0.33130
C3 C 0.08119(15) 0.74137(16) 0.21348(15)
H6 H 0.12460 0.78920 0.12950
C4 C 0.10950(15) 0.78871(16) 0.31574(15)
C5 C 0.01966(15) 0.80501(15) 0.41747(15)
C6 C -0.12884(15) 0.81213(16) 0.40773(15)
C7 C -0.34781(17) 0.84398(18) 0.50597(17)
H7 H -0.40770 0.85890 0.57700
C8 C -0.40559(17) 0.83751(18) 0.40237(17)
H8 H -0.50260 0.84690 0.40300
C9 C -0.31938(16) 0.81715(17) 0.29865(16)
H9 H -0.35630 0.81110 0.22730
C10 C -0.17669(16) 0.80545(16) 0.29903(15)
C11 C -0.07800(15) 0.77532(16) 0.19084(15)
C12 C 0.07314(16) 0.42419(17) 0.16530(16)
H10 H -0.00250 0.42280 0.11810
H11 H 0.06080 0.37290 0.25910
C13 C 0.21341(16) 0.34913(17) 0.11776(15)
C14 C 0.25701(17) 0.20387(17) 0.16201(16)
H12 H 0.20280 0.15430 0.22730
C15 C 0.37803(18) 0.13028(18) 0.11263(16)
H13 H 0.40560 0.03110 0.14310
C16 C 0.45919(17) 0.20169(18) 0.01837(16)
H14 H 0.54220 0.15180 -0.01620
C17 C 0.41802(17) 0.34619(18) -0.02473(16)
H15 H 0.47410 0.39520 -0.08820
C18 C 0.29585(16) 0.42053(17) 0.02352(16)
H16 H 0.26830 0.51970 -0.00750
C19 C 0.17058(16) 0.77033(16) 0.59609(15)
C20 C 0.28350(17) 0.66018(18) 0.58167(16)
H17 H 0.27810 0.61580 0.52350
C21 C 0.40403(18) 0.6154(2) 0.65248(17)
H18 H 0.48140 0.54060 0.64230
C22 C 0.41226(19) 0.6793(2) 0.73805(18)
H19 H 0.49600 0.65020 0.78440
C23 C 0.2986(2) 0.7851(2) 0.75578(18)
H20 H 0.30340 0.82730 0.81600
C24 C 0.17692(19) 0.83032(18) 0.68576(17)
H21 H 0.09820 0.90220 0.69930
#END
