
#######################################################################
#
#                 Cambridge Crystallographic Data Centre
#                                CCDC
#
#######################################################################
#
# If this CIF has been generated from an entry in the Cambridge
# Structural Database, then it will include bibliographic, chemical,
# crystal, experimental, refinement or atomic coordinate data resulting
# from the CCDC's data processing and validation procedures.
#
#######################################################################

data_CSD_CIF_CALLIL
_audit_creation_date 2002-10-01
_audit_creation_method CSD-ConQuest-V1
_database_code_CSD CALLIL
_database_code_depnum_ccdc_archive 'CCDC 137709'
_chemical_formula_sum 'C25 H40 N2 O13'
_chemical_formula_moiety
;
C25 H40 N2 O13
;
_journal_coden_Cambridge 1078
_journal_year 2002
_journal_name_full 'CSD Communication(Private Communication) '
loop_
_publ_author_name
"D.-P.Pham-Huu"
"J.N.BeMiller"
"M.Petrusova"
"L.Petrus"
"P.Koll"
"J.Kopf"
_chemical_name_systematic
;
2,6-Anhydro-7,8-dideoxy-1,3:4,5:9,10:11,12-tetra-O-isopropylidene-7-C-nitro-8-
C-nitromethyl-D-erythro-L-gulo-D-manno-dodecitol
;
_cell_volume   2965.692
_exptl_crystal_colour 'colorless'
_exptl_crystal_density_diffrn 1.291
_exptl_special_details
;
contribution from Institut fur Anorganische Chemie, Roentgenstrukturanalyse, 
Martin-Luther-King-Platz 6, D-20146 Hamburg, Germany
;
_exptl_crystal_description 'blocks'
_diffrn_ambient_temperature 293
#These two values have been output from a single CSD field.
_refine_ls_R_factor_gt 0.0359
_refine_ls_wR_factor_gt 0.0359
_symmetry_cell_setting orthorhombic
_symmetry_space_group_name_H-M 'P 21 21 21'
_symmetry_Int_Tables_number 19
loop_
_symmetry_equiv_pos_site_id
_symmetry_equiv_pos_as_xyz
1 x,y,z
2 1/2-x,-y,1/2+z
3 -x,1/2+y,1/2-z
4 1/2+x,1/2-y,-z
_cell_length_a 10.915(2)
_cell_length_b 15.336(7)
_cell_length_c 17.717(7)
_cell_angle_alpha 90
_cell_angle_beta 90
_cell_angle_gamma 90
_cell_formula_units_Z 4
loop_
_atom_type_symbol
_atom_type_radius_bond
C 0.68
H 0.23
N 0.68
O 0.68
loop_
_atom_site_label
_atom_site_type_symbol
_atom_site_fract_x
_atom_site_fract_y
_atom_site_fract_z
O1 O 0.69392(12) 0.25267(11) 0.11961(8)
O2 O 1.01224(11) 0.28995(8) 0.17047(7)
O3 O 0.75073(11) 0.39299(9) 0.07966(7)
O4 O 0.97181(13) 0.51107(9) 0.04983(8)
O5 O 1.14023(12) 0.43112(9) 0.08342(7)
O6 O 1.37299(18) 0.42622(16) 0.22402(16)
O7 O 1.2307(2) 0.44081(15) 0.30651(12)
O8 O 1.40532(13) 0.25534(10) 0.32754(9)
O9 O 1.44465(17) 0.11154(11) 0.34146(10)
O10 O 1.28766(16) 0.07582(10) 0.16264(9)
O11 O 1.23323(16) -0.05218(11) 0.21604(10)
O12 O 0.9938(2) 0.15516(14) 0.30619(13)
O13 O 0.94371(18) 0.27530(16) 0.35928(16)
N1 N 1.27518(17) 0.40615(12) 0.25094(11)
N2 N 1.01875(17) 0.22512(14) 0.33426(11)
C1 C 0.81725(18) 0.22865(13) 0.13744(11)
H1 H 0.85570 0.20120 0.09420
H2 H 0.81810 0.18770 0.17920
C2 C 0.88579(15) 0.31054(11) 0.15867(10)
H3 H 0.85080 0.33560 0.20480
C3 C 0.87648(14) 0.37569(11) 0.09446(10)
H4 H 0.91440 0.35080 0.04920
C4 C 0.94089(16) 0.46034(11) 0.11454(10)
H5 H 0.89040 0.49460 0.14930
C5 C 1.06687(15) 0.44321(11) 0.1491(1)
H6 H 1.09460 0.49500 0.17660
C6 C 1.07377(15) 0.36365(11) 0.20047(9)
H7 H 1.03670 0.37850 0.24920
C7 C 1.20540(15) 0.33303(12) 0.2142(1)
H8 H 1.24300 0.32180 0.16490
C8 C 1.21274(16) 0.24862(13) 0.26034(10)
H9 H 1.16740 0.20480 0.23130
C9 C 1.34413(16) 0.21399(13) 0.26666(11)
H10 H 1.38840 0.22490 0.21950
C10 C 1.35046(18) 0.11670(14) 0.28669(11)
H11 H 1.27280 0.09900 0.30980
C11 C 1.3770(2) 0.05812(13) 0.21992(12)
H12 H 1.46000 0.06820 0.20080
C12 C 1.3575(2) -0.03836(15) 0.23772(15)
H13 H 1.41270 -0.07480 0.20860
H14 H 1.36940 -0.05010 0.29100
C13 C 1.1512(2) 0.25193(18) 0.33806(12)
H15 H 1.19450 0.21350 0.37240
H16 H 1.15670 0.31070 0.35790
C14 C 0.68208(17) 0.31607(14) 0.06122(10)
C15 C 0.54888(18) 0.3434(2) 0.06308(15)
H17 H 0.49820 0.29510 0.04850
H18 H 0.53630 0.39090 0.02860
H19 H 0.52760 0.36160 0.11320
C16 C 0.7190(2) 0.27928(15) -0.01526(11)
H20 H 0.80090 0.25670 -0.01240
H21 H 0.71560 0.32470 -0.05250
H22 H 0.66380 0.23320 -0.02910
C17 C 1.09654(19) 0.49216(12) 0.02867(11)
C18 C 1.1697(2) 0.57611(16) 0.03239(17)
H23 H 1.13540 0.61780 -0.00200
H24 H 1.25330 0.56460 0.01880
H25 H 1.16660 0.59900 0.08280
C19 C 1.1009(3) 0.44997(18) -0.04810(12)
H26 H 1.04960 0.39910 -0.04830
H27 H 1.18370 0.43340 -0.05950
H28 H 1.07230 0.49050 -0.08540
C20 C 1.4959(2) 0.19508(16) 0.35416(13)
C21 C 1.6138(2) 0.2057(3) 0.3106(2)
H29 H 1.66650 0.15690 0.32060
H30 H 1.65370 0.25850 0.32600
H31 H 1.59610 0.20830 0.25760
C22 C 1.5117(3) 0.2087(3) 0.43764(17)
H32 H 1.43480 0.19920 0.46270
H33 H 1.53880 0.26730 0.44690
H34 H 1.57140 0.16840 0.45670
C23 C 1.2133(2) -0.00043(15) 0.15116(13)
C24 C 1.0810(2) 0.0257(2) 0.14979(17)
H35 H 1.03130 -0.02440 0.13920
H36 H 1.06850 0.06890 0.11130
H37 H 1.05850 0.04950 0.19800
C25 C 1.2533(3) -0.04689(19) 0.07995(15)
H38 H 1.33920 -0.05990 0.08290
H39 H 1.23810 -0.01010 0.03710
H40 H 1.20780 -0.10010 0.07460
#END
