
#######################################################################
#
#                 Cambridge Crystallographic Data Centre
#                                CCDC
#
#######################################################################
#
# If this CIF has been generated from an entry in the Cambridge
# Structural Database, then it will include bibliographic, chemical,
# crystal, experimental, refinement or atomic coordinate data resulting
# from the CCDC's data processing and validation procedures.
#
#######################################################################

data_CSD_CIF_CAMDEC
_audit_creation_date 2017-01-05
_audit_creation_method CSD-ConQuest-V1
_database_code_CSD CAMDEC
_database_code_depnum_ccdc_archive 'CCDC 1018998'
_chemical_formula_sum 'C25 H25 N1 O1'
_chemical_formula_moiety
;
C25 H25 N1 O1
;
_journal_coden_Cambridge 1078
_journal_year 2016
_journal_name_full 'CSD Communication(Private Communication) '
loop_
_publ_author_name
"Man Li"
"Feng Han"
"Lei Yang"
"Jing Chen"
"Chungu Xia"
_chemical_name_systematic
;
N-(triphenylmethoxy)cyclohexanimine
;
_cell_volume    979.427
_exptl_crystal_colour 'colorless'
_exptl_crystal_density_diffrn 1.205
_exptl_crystal_description 'block'
_diffrn_ambient_temperature 296
#These two values have been output from a single CSD field.
_refine_ls_R_factor_gt 0.0444
_refine_ls_wR_factor_gt 0.0444
_symmetry_cell_setting triclinic
_symmetry_space_group_name_H-M 'P -1'
_symmetry_Int_Tables_number 2
loop_
_symmetry_equiv_pos_site_id
_symmetry_equiv_pos_as_xyz
1 x,y,z
2 -x,-y,-z
_cell_length_a 10.278(2)
_cell_length_b 10.556(3)
_cell_length_c 10.793(3)
_cell_angle_alpha 61.751(3)
_cell_angle_beta 78.014(4)
_cell_angle_gamma 72.213(4)
_cell_formula_units_Z 2
loop_
_atom_type_symbol
_atom_type_radius_bond
C 0.68
H 0.23
N 0.68
O 0.68
loop_
_atom_site_label
_atom_site_type_symbol
_atom_site_fract_x
_atom_site_fract_y
_atom_site_fract_z
O1 O 0.53910(12) 0.61365(14) 0.27876(13)
N1 N 0.50475(16) 0.55316(17) 0.19840(16)
C1 C 0.67974(17) 0.62764(18) 0.24787(18)
C2 C 0.71350(18) 0.70002(19) 0.08840(18)
C3 C 0.83779(19) 0.6555(2) 0.02476(19)
H1 H 0.90330 0.57490 0.07940
C4 C 0.8666(2) 0.7290(2) -0.1195(2)
H2 H 0.95130 0.69840 -0.16100
C5 C 0.7698(2) 0.8472(2) -0.2013(2)
H3 H 0.78880 0.89680 -0.29810
C6 C 0.6445(2) 0.8922(2) -0.1395(2)
H4 H 0.57870 0.97150 -0.19500
C7 C 0.6162(2) 0.8202(2) 0.0039(2)
H5 H 0.53170 0.85190 0.04490
C8 C 0.67479(17) 0.73006(18) 0.31389(18)
C9 C 0.7358(2) 0.8489(2) 0.2470(2)
H6 H 0.78140 0.86970 0.15810
C10 C 0.7290(2) 0.9368(2) 0.3125(2)
H7 H 0.77010 1.01640 0.26690
C11 C 0.6624(2) 0.9077(2) 0.4437(2)
H8 H 0.65680 0.96820 0.48620
C12 C 0.6036(2) 0.7879(2) 0.5120(2)
H9 H 0.55970 0.76640 0.60160
C13 C 0.6100(2) 0.7002(2) 0.4478(2)
H10 H 0.57020 0.61970 0.49490
C14 C 0.77897(18) 0.47825(18) 0.32606(17)
C15 C 0.7488(2) 0.3450(2) 0.3641(2)
H11 H 0.66780 0.34450 0.33880
C16 C 0.8384(2) 0.2120(2) 0.4396(2)
H12 H 0.81650 0.12330 0.46440
C17 C 0.9581(2) 0.2087(2) 0.4782(2)
H13 H 1.01640 0.11870 0.53040
C18 C 0.9916(2) 0.3400(2) 0.4391(2)
H14 H 1.07400 0.33920 0.46260
C19 C 0.90203(19) 0.4734(2) 0.3645(2)
H15 H 0.92480 0.56170 0.33970
C20 C 0.37518(19) 0.5869(2) 0.19409(19)
C21 C 0.3210(2) 0.5338(2) 0.1134(2)
H16 H 0.26190 0.46880 0.17590
H17 H 0.39630 0.47850 0.07420
C22 C 0.2406(3) 0.6667(3) -0.0048(2)
H18 H 0.30290 0.72390 -0.07350
H19 H 0.19840 0.63230 -0.05190
C23 C 0.1303(3) 0.7652(3) 0.0502(3)
H20 H 0.08520 0.85170 -0.02860
H21 H 0.06210 0.71160 0.11050
C24 C 0.1896(2) 0.8144(3) 0.1322(3)
H22 H 0.11570 0.87130 0.17120
H23 H 0.24910 0.87850 0.06880
C25 C 0.2706(2) 0.6837(3) 0.2514(2)
H24 H 0.31570 0.71930 0.29500
H25 H 0.20910 0.62730 0.32270
#END
