
#######################################################################
#
#                 Cambridge Crystallographic Data Centre
#                                CCDC
#
#######################################################################
#
# If this CIF has been generated from an entry in the Cambridge
# Structural Database, then it will include bibliographic, chemical,
# crystal, experimental, refinement or atomic coordinate data resulting
# from the CCDC's data processing and validation procedures.
#
#######################################################################

data_CSD_CIF_CAMJUW
_audit_creation_date 2002-10-01
_audit_creation_method CSD-ConQuest-V1
_database_code_CSD CAMJUW
_database_code_depnum_ccdc_archive 'CCDC 142820'
_chemical_formula_sum 'C23 H22 N2 O2'
_chemical_formula_moiety
;
C23 H22 N2 O2
;
_journal_coden_Cambridge 456
_journal_volume 76
_journal_year 2002
_journal_page_first 1137
_journal_name_full 'Pol.J.Chem. '
loop_
_publ_author_name
"W.Szczepankiewicz"
"T.Borowiak"
"M.Kubicki"
"J.Suwinski"
"P.Wagner"
_chemical_name_systematic
;
N-Benzoyloxy-N'-(3,4-dimethylphenyl)-p-toluamidine
;
_chemical_melting_point 421.15
_cell_volume   3898.318
_exptl_crystal_colour 'colorless'
_exptl_crystal_density_diffrn 1.221
_exptl_special_details
;
Melting point range 421.15-423.15K

;
_exptl_crystal_description 'prism'
_diffrn_ambient_temperature 293
#These two values have been output from a single CSD field.
_refine_ls_R_factor_gt 0.0486
_refine_ls_wR_factor_gt 0.0486
_symmetry_cell_setting orthorhombic
_symmetry_space_group_name_H-M 'P b c a'
_symmetry_Int_Tables_number 61
loop_
_symmetry_equiv_pos_site_id
_symmetry_equiv_pos_as_xyz
1 x,y,z
2 1/2+x,y,1/2-z
3 x,1/2-y,1/2+z
4 1/2-x,1/2+y,z
5 -x,-y,-z
6 -1/2-x,-y,-1/2+z
7 -x,-1/2+y,-1/2-z
8 -1/2+x,-1/2-y,-z
_cell_length_a 11.489(2)
_cell_length_b 11.212(2)
_cell_length_c 30.263(6)
_cell_angle_alpha 90
_cell_angle_beta 90
_cell_angle_gamma 90
_cell_formula_units_Z 8
loop_
_atom_type_symbol
_atom_type_radius_bond
C 0.68
H 0.23
N 0.68
O 0.68
loop_
_atom_site_label
_atom_site_type_symbol
_atom_site_fract_x
_atom_site_fract_y
_atom_site_fract_z
C1 C 0.73551(16) 0.28037(15) 0.67176(6)
O1 O 0.70907(13) 0.38147(11) 0.66314(5)
C2 C 0.81540(17) 0.24312(16) 0.70756(6)
C3 C 0.8458(2) 0.12651(19) 0.71404(8)
H1 H 0.815(2) 0.066(2) 0.6929(8)
C4 C 0.9183(3) 0.0951(2) 0.74847(9)
H2 H 0.944(3) 0.011(3) 0.7526(10)
C5 C 0.9608(3) 0.1794(3) 0.77651(9)
H3 H 1.019(2) 0.152(2) 0.8020(9)
C6 C 0.9305(3) 0.2956(3) 0.77054(9)
H4 H 0.966(2) 0.354(2) 0.7899(9)
C7 C 0.8582(2) 0.3290(2) 0.73612(8)
H5 H 0.836(2) 0.414(2) 0.7293(8)
C8 C 0.55240(15) 0.11851(15) 0.60551(6)
O2 O 0.69278(11) 0.18471(10) 0.64991(4)
N1 N 0.59981(13) 0.21651(13) 0.61954(5)
C9 C 0.44812(16) 0.13632(15) 0.57742(6)
C10 C 0.38104(19) 0.23794(18) 0.58281(7)
H6 H 0.4051(19) 0.296(2) 0.6064(7)
C11 C 0.2866(2) 0.2589(2) 0.55553(8)
H7 H 0.240(2) 0.329(2) 0.5593(7)
C12 C 0.25582(19) 0.18014(19) 0.52250(7)
C13 C 0.1526(3) 0.2038(4) 0.49328(11)
H8 H 0.134(3) 0.146(3) 0.4738(12)
H9 H 0.083(4) 0.218(3) 0.5080(13)
H10 H 0.160(4) 0.283(4) 0.4794(15)
C14 C 0.3230(2) 0.0788(2) 0.51750(7)
H11 H 0.3041(18) 0.020(2) 0.4941(7)
C15 C 0.41816(18) 0.05684(18) 0.54457(6)
H12 H 0.4633(17) -0.0139(18) 0.5409(6)
N2 N 0.59609(15) 0.00754(13) 0.61236(6)
H13 H 0.6662(19) 0.0043(18) 0.6257(7)
C16 C 0.52906(16) -0.09890(15) 0.61809(6)
C17 C 0.5673(2) -0.20245(17) 0.59832(7)
H14 H 0.6333(18) -0.1972(16) 0.5795(6)
C18 C 0.5126(2) -0.31069(17) 0.60587(8)
C19 C 0.5593(4) -0.4212(3) 0.58374(15)
H15 H 0.632(3) -0.405(3) 0.5649(11)
H16 H 0.577(3) -0.486(4) 0.6070(12)
H17 H 0.498(3) -0.457(3) 0.569(1)
C20 C 0.4171(2) -0.3144(2) 0.63382(9)
C21 C 0.3537(4) -0.4300(3) 0.6435(2)
H18 H 0.304(4) -0.410(4) 0.6719(15)
H19 H 0.306(4) -0.456(3) 0.6187(13)
H20 H 0.409(3) -0.490(3) 0.6520(11)
C22 C 0.3784(2) -0.2100(2) 0.65281(9)
H21 H 0.312(2) -0.213(2) 0.6729(8)
C23 C 0.43315(19) -0.10252(19) 0.64540(7)
H22 H 0.4070(18) -0.0292(19) 0.6591(7)
#END
