
#######################################################################
#
#                 Cambridge Crystallographic Data Centre
#                                CCDC
#
#######################################################################
#
# If this CIF has been generated from an entry in the Cambridge
# Structural Database, then it will include bibliographic, chemical,
# crystal, experimental, refinement or atomic coordinate data resulting
# from the CCDC's data processing and validation procedures.
#
#######################################################################

data_CSD_CIF_CAMMEI10
_audit_creation_date 1986-02-24
_audit_creation_method CSD-ConQuest-V1
_database_code_CSD CAMMEI10
_database_code_depnum_ccdc_archive 'CCDC 1120010'
_chemical_formula_sum 'C22 H29 N1 O4'
_chemical_formula_moiety
;
C22 H29 N1 O4
;
_journal_coden_Cambridge 657
_journal_volume 93
_journal_year 1984
_journal_page_first 271
_journal_name_full 'Proc.Indian Acad.Sci.,Chem.Sci. '
loop_
_publ_author_name
"K.R.Acharya"
"S.S.Tavale"
"T.N.G.Row"
_chemical_name_systematic
;
Alloisolongifolol-p-nitrobenzoate
;
_cell_volume   1983.268
_exptl_crystal_density_diffrn 1.24
_exptl_special_details
;
Authors did not reply to a request for H-atom, bond and angle tables. fw 
reported as 384.2, we calculate 371.5
;
_diffrn_ambient_temperature ?
_diffrn_special_details
;
The study was carried out at room temperature,in the range 283-303K

;
#These two values have been output from a single CSD field.
_refine_ls_R_factor_gt 0.095
_refine_ls_wR_factor_gt 0.095
_symmetry_cell_setting monoclinic
_symmetry_space_group_name_H-M 'P 21'
_symmetry_Int_Tables_number 4
loop_
_symmetry_equiv_pos_site_id
_symmetry_equiv_pos_as_xyz
1 x,y,z
2 -x,1/2+y,-z
_cell_length_a 7.440(5)
_cell_length_b 34.963(6)
_cell_length_c 7.909(2)
_cell_angle_alpha 90
_cell_angle_beta 105.42(3)
_cell_angle_gamma 90
_cell_formula_units_Z 4
loop_
_atom_type_symbol
_atom_type_radius_bond
C 0.72
N 0.68
O 0.68
loop_
_atom_site_label
_atom_site_type_symbol
_atom_site_fract_x
_atom_site_fract_y
_atom_site_fract_z
O1 O -0.054(4) -0.136(1) 0.759(4)
O2 O -0.265(6) -0.097(1) 0.838(6)
O3 O 0.650(4) 0.009(1) 1.073(4)
O4 O 0.495(4) 0.022(1) 1.214(4)
N1 N 0.516(5) -0.002(1) 1.116(4)
C1 C -0.528(6) -0.184(1) 0.368(6)
C2 C -0.649(5) -0.222(1) 0.247(5)
C3 C -0.678(6) -0.257(1) 0.359(6)
C4 C -0.520(7) -0.271(1) 0.473(7)
C5 C -0.407(6) -0.240(1) 0.504(6)
C6 C -0.335(5) -0.207(1) 0.444(5)
C7 C -0.289(5) -0.236(1) 0.289(5)
C8 C -0.467(6) -0.230(1) 0.153(6)
C9 C -0.446(6) -0.188(1) 0.072(5)
C10 C -0.482(6) -0.161(1) 0.200(6)
C11 C -0.485(6) -0.264(1) 0.012(6)
C12 C -0.821(6) -0.204(1) 0.117(6)
C13 C -0.161(6) -0.186(1) 0.529(6)
C14 C -0.229(6) -0.160(1) 0.663(6)
C15 C 0.015(6) -0.205(1) 0.603(6)
C16 C -0.096(6) -0.098(1) 0.822(6)
C17 C 0.077(5) -0.080(1) 0.914(5)
C18 C 0.251(6) -0.088(1) 0.894(5)
C19 C 0.388(5) -0.063(1) 0.966(5)
C20 C 0.334(5) -0.027(1) 1.035(5)
C21 C 0.164(5) -0.019(1) 1.037(5)
C22 C 0.018(5) -0.042(1) 0.993(5)
O5 O 0.553(4) 0.037(1) 0.749(4)
O6 O 0.744(4) 0.006(1) 0.608(4)
O7 O 0.057(4) -0.122(1) 0.299(4)
O8 O -0.159(4) -0.082(1) 0.357(4)
N2 N 0.008(5) -0.091(1) 0.374(5)
C23 C 0.795(5) 0.137(1) 1.180(5)
C24 C 0.975(6) 0.151(1) 1.286(6)
C25 C 1.139(6) 0.168(1) 1.180(6)
C26 C 1.030(6) 0.172(1) 0.958(6)
C27 C 0.857(5) 0.143(1) 0.911(5)
C28 C 0.821(5) 0.119(1) 1.027(5)
C29 C 0.999(6) 0.092(1) 1.123(5)
C30 C 1.096(6) 0.115(1) 1.289(6)
C31 C 0.991(6) 0.089(1) 1.414(6)
C32 C 0.768(6) 0.108(1) 1.332(6)
C33 C 1.287(7) 0.114(1) 1.382(7)
C34 C 1.034(6) 0.172(1) 1.467(6)
C35 C 0.675(6) 0.087(1) 0.956(5)
C36 C 0.733(4) 0.067(1) 0.789(4)
C37 C 0.483(5) 0.112(1) 0.863(5)
C38 C 0.589(5) 0.012(1) 0.624(5)
C39 C 0.455(6) -0.021(1) 0.584(6)
C40 C 0.253(6) -0.008(1) 0.577(5)
C41 C 0.095(5) -0.031(1) 0.497(5)
C42 C 0.143(6) -0.061(1) 0.429(5)
C43 C 0.335(6) -0.076(1) 0.428(5)
C44 C 0.468(6) -0.050(1) 0.498(6)
#END
