
#######################################################################
#
#                 Cambridge Crystallographic Data Centre
#                                CCDC
#
#######################################################################
#
# If this CIF has been generated from an entry in the Cambridge
# Structural Database, then it will include bibliographic, chemical,
# crystal, experimental, refinement or atomic coordinate data resulting
# from the CCDC's data processing and validation procedures.
#
#######################################################################

data_CSD_CIF_CAMMEI
_audit_creation_date 1984-06-02
_audit_creation_method CSD-ConQuest-V1
_database_code_CSD CAMMEI
_database_code_depnum_ccdc_archive 'CCDC 1120009'
_chemical_formula_sum 'C22 H29 N1 O4'
_chemical_formula_moiety
;
C22 H29 N1 O4
;
_journal_coden_Cambridge 24
_journal_volume 24
_journal_year 1983
_journal_page_first 4739
_journal_name_full 'Tetrahedron Lett. '
loop_
_publ_author_name
"H.R.Shitole"
"V.S.Dalavoy"
"V.B.Deodhar"
"U.R.Nayak"
"K.R.Acharya"
"S.S.Tavale"
"T.N.G.Row"
"V.P.Kamat"
"S.K.Paknikar"
_chemical_name_systematic
;
Alloisolongifolol p-nitrobenzoate
;
_cell_volume   1983.268
_diffrn_ambient_temperature ?
_diffrn_special_details
;
The study was carried out at room temperature,in the range 283-303K

;
#These two values have been output from a single CSD field.
_refine_ls_R_factor_gt 0.155
_refine_ls_wR_factor_gt 0.155
_symmetry_cell_setting monoclinic
_symmetry_space_group_name_H-M 'P 21'
_symmetry_Int_Tables_number 4
loop_
_symmetry_equiv_pos_site_id
_symmetry_equiv_pos_as_xyz
1 x,y,z
2 -x,1/2+y,-z
_cell_length_a 7.440(5)
_cell_length_b 34.963(6)
_cell_length_c 7.909(2)
_cell_angle_alpha 90
_cell_angle_beta 105.42(3)
_cell_angle_gamma 90
_cell_formula_units_Z 4
loop_
_atom_type_symbol
_atom_type_radius_bond
C 0.75
N 0.68
O 0.68
loop_
_atom_site_label
_atom_site_type_symbol
_atom_site_fract_x
_atom_site_fract_y
_atom_site_fract_z
O1 O -0.05400 -0.13600 0.75900
O2 O -0.26500 -0.09700 0.83800
O3 O 0.65000 -0.00900 1.07300
O4 O 0.49500 0.02200 1.21400
N1 N 0.51600 -0.00200 1.11600
C1 C -0.52800 -0.18400 0.35800
C2 C -0.64900 -0.22200 0.24700
C3 C -0.67800 -0.25700 0.35900
C4 C -0.52000 -0.27100 0.47300
C5 C -0.40700 -0.24000 0.60400
C6 C -0.33500 -0.20700 0.44400
C7 C -0.28900 -0.23600 0.28900
C8 C -0.46700 -0.23000 0.15300
C9 C -0.44600 -0.18800 0.07200
C10 C -0.48200 -0.16100 0.20000
C11 C -0.48500 -0.26400 0.01200
C12 C -0.82100 -0.20400 0.11700
C13 C -0.16100 -0.18600 0.52900
C14 C -0.22900 -0.16000 0.66300
C15 C 0.01500 -0.20500 0.60300
C16 C -0.09600 -0.09800 0.82200
C17 C 0.07700 -0.08000 0.91400
C18 C 0.25100 -0.08800 0.89400
C19 C 0.38800 -0.06300 0.96600
C20 C 0.33400 -0.02700 1.03500
C21 C 0.16400 -0.01900 1.03700
C22 C 0.01800 -0.04200 0.99300
O5 O 0.55300 0.03700 0.74900
O6 O 0.74400 0.00600 0.60800
O7 O 0.05700 -0.12200 0.29900
O8 O -0.15900 -0.08200 0.35700
N2 N 0.00800 -0.09100 0.37400
C23 C 0.79500 0.13700 1.18000
C24 C 0.97500 0.15100 1.28600
C25 C 1.13900 0.16800 1.18000
C26 C 1.03000 0.17200 0.95800
C27 C 0.85700 0.14300 0.91100
C28 C 0.82100 0.11900 1.02700
C29 C 0.99900 0.09200 1.12300
C30 C 1.09600 0.11500 1.28900
C31 C 0.99100 0.08900 1.41400
C32 C 0.76800 0.10800 1.33200
C33 C 1.28700 0.11400 1.38200
C34 C 1.03400 0.17200 1.46700
C35 C 0.67500 0.08700 0.95600
C36 C 0.73300 0.06700 0.78900
C37 C 0.48300 0.11200 0.86300
C38 C 0.58900 0.01200 0.62400
C39 C 0.45500 -0.02100 0.58400
C40 C 0.25300 -0.00800 0.57700
C41 C 0.09500 -0.03100 0.49700
C42 C 0.14300 -0.06100 0.42900
C43 C 0.33500 -0.07600 0.42800
C44 C 0.46800 -0.05000 0.49800
#END
