
#######################################################################
#
#                 Cambridge Crystallographic Data Centre
#                                CCDC
#
#######################################################################
#
# If this CIF has been generated from an entry in the Cambridge
# Structural Database, then it will include bibliographic, chemical,
# crystal, experimental, refinement or atomic coordinate data resulting
# from the CCDC's data processing and validation procedures.
#
#######################################################################

data_CSD_CIF_CAMPHX10
_audit_creation_date 1978-11-29
_audit_creation_method CSD-ConQuest-V1
_database_code_CSD CAMPHX10
_database_code_depnum_ccdc_archive 'CCDC 1120024'
_chemical_formula_sum 'C10 H17 N1 O1'
_chemical_formula_moiety
;
C10 H17 N1 O1
;
_journal_coeditor_code "IUCr A16317"
_journal_coden_Cambridge 107
_journal_volume 34
_journal_year 1978
_journal_page_first 2546
_journal_name_full 'Acta Crystallogr.,Sect.B:Struct.Crystallogr.Cryst.Chem. '
loop_
_publ_author_name
"F.Baert"
"R.Fouret"
_chemical_name_systematic
;
(-)-Camphoroxime
;
_cell_volume   1005.066
_exptl_crystal_density_diffrn 1.1
_exptl_special_details
;
H29,30,31 deleted for suspected coordinate errors

;
_diffrn_ambient_temperature ?
_diffrn_special_details
;
The study was carried out at room temperature,in the range 283-303K

;
#These two values have been output from a single CSD field.
_refine_ls_R_factor_gt 0.052
_refine_ls_wR_factor_gt 0.052
loop_
_citation_database_id_CSD
_citation_special_details
DLCAMX "is a racemate of this entry"
_symmetry_cell_setting monoclinic
_symmetry_space_group_name_H-M 'P 21'
_symmetry_Int_Tables_number 4
loop_
_symmetry_equiv_pos_site_id
_symmetry_equiv_pos_as_xyz
1 x,y,z
2 -x,1/2+y,-z
_cell_length_a 12.064(23)
_cell_length_b 11.805(21)
_cell_length_c 7.162(16)
_cell_angle_alpha 90
_cell_angle_beta 99.81
_cell_angle_gamma 90
_cell_formula_units_Z 4
loop_
_atom_type_symbol
_atom_type_radius_bond
C 0.68
H 0.23
N 0.68
O 0.68
loop_
_atom_site_label
_atom_site_type_symbol
_atom_site_fract_x
_atom_site_fract_y
_atom_site_fract_z
O1 O 0.26010 0.09440 0.43350
N1 N 0.34990 0.11890 0.33400
C1 C 0.54630 0.07350 0.32390
C2 C 0.43730 0.06170 0.39920
C3 C 0.45350 -0.02370 0.55750
C4 C 0.57770 -0.05880 0.55760
C5 C 0.64920 0.03920 0.64340
C6 C 0.62720 0.13220 0.48810
C7 C 0.58980 -0.05110 0.34670
C8 C 0.53860 0.13080 0.13650
C9 C 0.51410 -0.13410 0.21600
C10 C 0.71250 -0.06670 0.30780
H1 H 0.20500 0.13000 0.36400
H2 H 0.40600 -0.07500 0.52100
H3 H 0.44100 0.02200 0.67200
H4 H 0.60000 -0.12700 0.63200
H5 H 0.71900 0.00500 0.69800
H6 H 0.62200 0.07100 0.75300
H7 H 0.69700 0.15600 0.43100
H8 H 0.60000 0.18900 0.53000
H9 H 0.51000 0.22600 0.13600
H10 H 0.48700 0.09000 0.04000
H11 H 0.60300 0.13200 0.08300
H12 H 0.44500 -0.13100 0.21500
H13 H 0.53900 -0.20400 0.25500
H14 H 0.54700 -0.11900 0.06900
H15 H 0.76600 -0.00600 0.37900
H16 H 0.70800 -0.06000 0.15700
H17 H 0.73200 -0.14300 0.34100
O2 O 0.22790 0.27900 0.08540
N2 N 0.14320 0.26560 0.19620
C11 C -0.03840 0.34490 0.24810
C12 C 0.06460 0.33710 0.15090
C13 C 0.05670 0.43320 0.00880
C14 C -0.05450 0.48930 0.03840
C15 C -0.03200 0.54800 0.22960
C16 C -0.01950 0.45480 0.37180
C17 C -0.12740 0.38800 0.07810
C18 C -0.06390 0.23870 0.35330
C19 C -0.15420 0.30490 -0.08860
C20 C -0.23940 0.42210 0.13750
H18 H 0.28700 0.24200 0.11600
H19 H 0.04100 0.39100 -0.09300
H20 H 0.12200 0.49300 0.04200
H21 H -0.08300 0.53200 -0.05400
H22 H -0.09500 0.60800 0.25400
H23 H 0.03200 0.58800 0.24300
H24 H -0.07800 0.44700 0.47500
H25 H 0.04800 0.45400 0.45500
H26 H -0.14200 0.25500 0.40000
H27 H -0.00800 0.24300 0.43700
H28 H -0.07800 0.18200 0.27300
H29 H -0.23200 0.48800 0.23000
H30 H -0.27500 0.35300 0.18200
H31 H -0.28600 0.45600 0.05800
#END
