
#######################################################################
#
#                 Cambridge Crystallographic Data Centre
#                                CCDC
#
#######################################################################
#
# If this CIF has been generated from an entry in the Cambridge
# Structural Database, then it will include bibliographic, chemical,
# crystal, experimental, refinement or atomic coordinate data resulting
# from the CCDC's data processing and validation procedures.
#
#######################################################################

data_CSD_CIF_CAMWOE
_audit_creation_date 2012-01-16
_audit_creation_method CSD-ConQuest-V1
_database_code_CSD CAMWOE
_database_code_depnum_ccdc_archive 'CCDC 855486'
_chemical_formula_sum 'C31 H41 N5 O2'
_chemical_formula_moiety
;
C31 H41 N5 O2
;
_journal_coden_Cambridge 579
_journal_volume 30
_journal_year 2011
_journal_page_first 4910
_journal_name_full 'Organometallics '
loop_
_publ_author_name
"O.A.Blackburn"
"B.J.Coe"
"M.Helliwell"
_chemical_name_systematic
;
1-(4-(Dimethylamino)phenyl)-2-(4-((4-(heptyloxy)phenyl)diazenyl)-2,3,5,6-tetra
methylphenyl)-1-oxido-1\l^5^-diazene
;
_chemical_name_common
;
1-(4-(Dimethylamino)-(E)-phenyl-ONN-azoxy)-4-(4-n-heptoxyphenylazo)-2,3,5,6-te
tramethylbenzene
;
_cell_volume   1383.419
_exptl_crystal_colour 'yellow'
_exptl_crystal_density_diffrn 1.238
_exptl_crystal_description 'plate'
_exptl_crystal_preparation 'dichloromethane'
_diffrn_ambient_temperature 100
_refine_special_details
;
C26,C27,C28,C29,C30,C31 and C26A,C27A,C28A,C29A,C30A, C31A disordered over 
two sites with occupancies 0.50:0.50.
;
#These two values have been output from a single CSD field.
_refine_ls_R_factor_gt 0.0436
_refine_ls_wR_factor_gt 0.0436
_symmetry_cell_setting triclinic
_symmetry_space_group_name_H-M 'P -1'
_symmetry_Int_Tables_number 2
loop_
_symmetry_equiv_pos_site_id
_symmetry_equiv_pos_as_xyz
1 x,y,z
2 -x,-y,-z
_cell_length_a 5.6665(9)
_cell_length_b 9.3701(14)
_cell_length_c 27.180(4)
_cell_angle_alpha 82.750(3)
_cell_angle_beta 87.528(3)
_cell_angle_gamma 75.106(3)
_cell_formula_units_Z 2
loop_
_atom_type_symbol
_atom_type_radius_bond
C 0.68
H 0.23
N 0.68
O 0.68
loop_
_atom_site_label
_atom_site_type_symbol
_atom_site_fract_x
_atom_site_fract_y
_atom_site_fract_z
O1 O 0.9237(4) -0.1240(2) 0.88768(7)
O2 O 0.3887(3) 1.0649(2) 0.62097(7)
N1 N 1.6153(4) -0.7418(3) 0.96418(9)
N2 N 1.1339(4) -0.1794(3) 0.87058(9)
N3 N 1.2446(4) -0.1183(2) 0.83560(9)
N4 N 0.7307(4) 0.4410(2) 0.74502(9)
N5 N 0.8526(4) 0.5083(3) 0.71574(9)
C1 C 1.5101(5) -0.8060(3) 1.00822(10)
H1 H 1.46210 -0.73350 1.03120
H2 H 1.62870 -0.89090 1.02340
H3 H 1.36960 -0.83620 0.99930
C2 C 1.8472(5) -0.8244(3) 0.94636(11)
H4 H 1.83800 -0.82840 0.91140
H5 H 1.88620 -0.92360 0.96340
H6 H 1.97180 -0.77630 0.95240
C3 C 1.4988(5) -0.6047(3) 0.94079(11)
C4 C 1.2657(5) -0.5315(3) 0.95543(11)
H7 H 1.18790 -0.57570 0.98160
C5 C 1.1478(5) -0.3940(3) 0.93172(11)
H8 H 0.99110 -0.34690 0.94170
C6 C 1.2615(5) -0.3271(3) 0.89353(11)
C7 C 1.4921(5) -0.3964(3) 0.87775(11)
H9 H 1.56780 -0.35070 0.85160
C8 C 1.6095(5) -0.5342(3) 0.90112(11)
H10 H 1.76480 -0.58120 0.89040
C9 C 1.1037(5) 0.0259(3) 0.81448(11)
C10 C 0.9161(5) 0.0351(3) 0.78207(10)
C11 C 0.7946(5) 0.1746(3) 0.75883(10)
C12 C 0.8725(5) 0.2995(3) 0.76809(11)
C13 C 1.0597(5) 0.2894(3) 0.80079(11)
C14 C 1.1798(5) 0.1503(3) 0.82424(11)
C15 C 0.8411(5) -0.1035(3) 0.77283(10)
H11 H 0.70400 -0.11350 0.79380
H12 H 0.97520 -0.18930 0.78020
H13 H 0.79660 -0.09540 0.73870
C16 C 0.5892(5) 0.1913(3) 0.72366(10)
H14 H 0.65490 0.16320 0.69210
H15 H 0.49510 0.29290 0.71950
H16 H 0.48640 0.12830 0.73680
C17 C 1.1330(5) 0.4264(3) 0.81192(10)
H17 H 1.27620 0.43530 0.79280
H18 H 1.16730 0.41760 0.84660
H19 H 1.00210 0.51300 0.80340
C18 C 1.3834(5) 0.1322(3) 0.8598(1)
H20 H 1.31690 0.16390 0.89090
H21 H 1.49140 0.19150 0.84630
H22 H 1.47230 0.02950 0.86490
C19 C 0.7137(5) 0.6509(3) 0.69350(11)
C20 C 0.4798(5) 0.7203(3) 0.70751(11)
H23 H 0.39940 0.67390 0.73270
C21 C 0.3643(5) 0.8599(3) 0.68392(11)
H24 H 0.20640 0.90710 0.69320
C22 C 0.4853(5) 0.9278(3) 0.64668(11)
C23 C 0.7210(5) 0.8585(3) 0.63246(11)
H25 H 0.80090 0.90450 0.60710
C24 C 0.8360(5) 0.7203(3) 0.65648(10)
H26 H 0.99520 0.67410 0.64780
C25 C 0.1468(5) 1.1452(3) 0.63433(11)
H27 H 0.14370 1.16990 0.66800
H28 H 0.03130 1.08570 0.63210
C26 C 0.0827(5) 1.2852(3) 0.59791(11)
H29 H 0.18160 1.35030 0.60520
H30 H 0.12720 1.25830 0.56480
C27 C -0.1813(9) 1.3711(6) 0.5977(2)
H31 H -0.22530 1.40160 0.63040
H32 H -0.28160 1.30590 0.59130
C28 C -0.2394(10) 1.5087(6) 0.5594(2)
H33 H -0.12540 1.56790 0.56340
H34 H -0.21290 1.47690 0.52660
C29 C -0.4962(10) 1.6062(6) 0.5625(2)
H35 H -0.52290 1.64040 0.59500
H36 H -0.61150 1.54760 0.55880
C30 C -0.5448(11) 1.7396(6) 0.5231(2)
H37 H -0.52970 1.70480 0.49070
H38 H -0.42070 1.79320 0.52520
C31 C -0.8018(9) 1.8495(6) 0.5276(2)
H39 H -0.81560 1.88870 0.55890
H40 H -0.92620 1.79770 0.52560
H41 H -0.82160 1.92960 0.50120
C32? C 0.0827(5) 1.2852(3) 0.59791(11)
C33? C 0.2577(9) 1.3881(6) 0.6006(2)
C34? C 0.1959(9) 1.5195(6) 0.5604(2)
C35? C 0.3575(10) 1.6266(6) 0.5585(2)
C36? C 0.2997(12) 1.7476(7) 0.5147(2)
C37? C 0.4627(11) 1.8544(7) 0.5102(2)
H42? H -0.08310 1.34020 0.60450
H43? H 0.08820 1.25770 0.56460
H44? H 0.24230 1.42360 0.63290
H45? H 0.42540 1.33200 0.59630
H46? H 0.20580 1.48190 0.52860
H47? H 0.02820 1.57440 0.56530
H48? H 0.52700 1.57150 0.55620
H49? H 0.33650 1.67240 0.58900
H50? H 0.31460 1.70100 0.48440
H51? H 0.13130 1.80390 0.51770
H52? H 0.42830 1.91390 0.53720
H53? H 0.43200 1.91790 0.47940
H54? H 0.63070 1.79900 0.51130
#END
