
#######################################################################
#
#                 Cambridge Crystallographic Data Centre
#                                CCDC
#
#######################################################################
#
# If this CIF has been generated from an entry in the Cambridge
# Structural Database, then it will include bibliographic, chemical,
# crystal, experimental, refinement or atomic coordinate data resulting
# from the CCDC's data processing and validation procedures.
#
#######################################################################

data_CSD_CIF_CANBAV
_audit_creation_date 2005-09-21
_audit_creation_method CSD-ConQuest-V1
_database_code_CSD CANBAV
_database_code_depnum_ccdc_archive 'CCDC 272007'
_chemical_formula_sum 'C25 H28 N4 O4'
_chemical_formula_moiety
;
C25 H28 N4 O4
;
_journal_coeditor_code "IUCr HG6172"
_journal_coden_Cambridge 1370
_journal_volume 61
_journal_year 2005
_journal_page_first o1426
_journal_name_full 'Acta Crystallogr.,Sect.E:Struct.Rep.Online '
loop_
_publ_author_name
"Yue-Qing Pu"
"Hai-Bo Wang"
"Jia-Hui Chen"
"Jin-Tang Wang"
_chemical_name_systematic
;
Methyl 
3-(dimethylamino)-2-(2-(1-(3-(2-methylphenyl)-1,2,4-oxadiazol-5-yl)-2-(dimethy
lamino)vinyloxyl)phenyl)acrylate
;
_cell_volume   1197.690
_exptl_crystal_colour 'colorless'
_exptl_crystal_density_diffrn 1.244
_exptl_crystal_description 'block'
_exptl_crystal_preparation 'ethanol'
_diffrn_ambient_temperature 293
#These two values have been output from a single CSD field.
_refine_ls_R_factor_gt 0.0596
_refine_ls_wR_factor_gt 0.0596
_symmetry_cell_setting triclinic
_symmetry_space_group_name_H-M 'P -1'
_symmetry_Int_Tables_number 2
loop_
_symmetry_equiv_pos_site_id
_symmetry_equiv_pos_as_xyz
1 x,y,z
2 -x,-y,-z
_cell_length_a 10.250(2)
_cell_length_b 10.691(2)
_cell_length_c 12.263(3)
_cell_angle_alpha 105.46(3)
_cell_angle_beta 110.74(3)
_cell_angle_gamma 92.30(3)
_cell_formula_units_Z 2
loop_
_atom_type_symbol
_atom_type_radius_bond
C 0.68
H 0.23
N 0.68
O 0.68
loop_
_atom_site_label
_atom_site_type_symbol
_atom_site_fract_x
_atom_site_fract_y
_atom_site_fract_z
O1 O 0.04961(18) 0.61344(17) 0.69447(15)
O2 O 0.0979(2) 0.39304(18) 0.76054(19)
O3 O -0.3092(2) 0.7983(2) 0.6037(2)
O4 O -0.0842(2) 0.89519(19) 0.70297(19)
N1 N 0.1987(3) 0.6623(2) 0.5313(2)
N2 N 0.1478(3) 0.2794(2) 0.7915(2)
N3 N 0.2616(2) 0.3469(2) 0.6849(2)
N4 N -0.2754(2) 0.5680(2) 0.8282(3)
C1 C 0.2697(4) 0.6623(4) 0.4479(3)
H1 H 0.31700 0.58670 0.43950
H2 H 0.33740 0.74050 0.47950
H3 H 0.20150 0.65960 0.36940
C2 C 0.1223(4) 0.7722(3) 0.5538(3)
H4 H 0.07910 0.76320 0.60970
H5 H 0.05070 0.77280 0.47810
H6 H 0.18670 0.85290 0.58840
C3 C 0.2022(3) 0.5638(3) 0.5803(2)
H7 H 0.25450 0.50030 0.55700
C4 C 0.1440(3) 0.5390(2) 0.6572(2)
C5 C 0.1711(3) 0.4251(2) 0.6977(2)
C6 C 0.2436(3) 0.2584(2) 0.7443(2)
C7 C 0.3273(3) 0.1482(2) 0.7496(2)
C8 C 0.4012(3) 0.1225(3) 0.6726(2)
H8 H 0.39660 0.17370 0.62120
C9 C 0.4814(3) 0.0221(3) 0.6711(3)
H9 H 0.53080 0.00620 0.61930
C10 C 0.4881(3) -0.0544(3) 0.7464(3)
H10 H 0.54170 -0.12260 0.74550
C11 C 0.4154(3) -0.0299(3) 0.8231(3)
H11 H 0.42080 -0.08250 0.87350
C12 C 0.3336(3) 0.0714(3) 0.8278(2)
C13 C 0.2577(4) 0.0905(3) 0.9144(3)
H12 H 0.27800 0.02680 0.95820
H13 H 0.15800 0.07960 0.86910
H14 H 0.28880 0.17720 0.97130
C14 C 0.0957(3) 0.6880(2) 0.8166(2)
C15 C 0.2338(3) 0.7045(2) 0.8969(2)
H15 H 0.30100 0.66550 0.87010
C16 C 0.2718(3) 0.7794(3) 1.0175(3)
H16 H 0.36460 0.79010 1.07190
C17 C 0.1740(3) 0.8375(3) 1.0569(3)
H17 H 0.19930 0.88720 1.13810
C18 C 0.0362(3) 0.8217(3) 0.9743(3)
H18 H -0.02960 0.86340 1.00110
C19 C -0.0069(3) 0.7459(2) 0.8535(2)
C20 C -0.1945(3) 0.8058(3) 0.6828(3)
C21 C -0.1558(3) 0.7291(2) 0.7685(2)
C22 C -0.1110(4) 0.9776(3) 0.6237(3)
H19 H -0.02650 1.03650 0.64510
H20 H -0.18440 1.02740 0.63290
H21 H -0.14000 0.92380 0.54030
C23 C -0.2668(3) 0.6534(3) 0.7668(3)
H22 H -0.35370 0.66220 0.71260
C24 C -0.4117(4) 0.5119(5) 0.8176(5)
H23 H -0.48470 0.54570 0.76400
H24 H -0.41740 0.53460 0.89690
H25 H -0.42370 0.41810 0.78490
C25 C -0.1542(3) 0.5261(3) 0.9058(3)
H26 H -0.06950 0.57030 0.90780
H27 H -0.15850 0.43300 0.87410
H28 H -0.15380 0.54720 0.98700
#END
