
#######################################################################
#
#                 Cambridge Crystallographic Data Centre
#                                CCDC
#
#######################################################################
#
# If this CIF has been generated from an entry in the Cambridge
# Structural Database, then it will include bibliographic, chemical,
# crystal, experimental, refinement or atomic coordinate data resulting
# from the CCDC's data processing and validation procedures.
#
#######################################################################

data_CSD_CIF_CANHAB
_audit_creation_date 2005-09-21
_audit_creation_method CSD-ConQuest-V1
_database_code_CSD CANHAB
_database_code_depnum_ccdc_archive 'CCDC 252172'
_chemical_formula_sum 'C26 H34 N2 O5'
_chemical_formula_moiety
;
C26 H34 N2 O5
;
_journal_coden_Cambridge 1291
_journal_year 2005
_journal_page_first 1652
_journal_name_full 'Eur.J.Org.Chem. '
loop_
_publ_author_name
"A.Bassoli"
"G.Borgonovo"
"G.Busnelli"
"G.Morini"
"M.G.B.Drew"
_chemical_name_systematic
;
3-Ethyl 
5-(2-isopropyl-5-methylcyclohexyl)-5-(1H-indol-3-ylmethyl)-4,5-dihydroisoxazol
e-3,5-dicarboxylate
;
_cell_volume   2601.163
_exptl_crystal_colour 'white'
_exptl_crystal_density_diffrn 1.161
_exptl_crystal_description 'plate'
_diffrn_ambient_temperature 293
#These two values have been output from a single CSD field.
_refine_ls_R_factor_gt 0.0884
_refine_ls_wR_factor_gt 0.0884
_symmetry_cell_setting orthorhombic
_symmetry_space_group_name_H-M 'P 21 21 21'
_symmetry_Int_Tables_number 19
loop_
_symmetry_equiv_pos_site_id
_symmetry_equiv_pos_as_xyz
1 x,y,z
2 -x,1/2+y,1/2-z
3 1/2+x,1/2-y,-z
4 1/2-x,-y,1/2+z
_cell_length_a 5.882(7)
_cell_length_b 14.224(16)
_cell_length_c 31.090(34)
_cell_angle_alpha 90
_cell_angle_beta 90
_cell_angle_gamma 90
_cell_formula_units_Z 4
loop_
_atom_type_symbol
_atom_type_radius_bond
C 0.68
H 0.23
N 0.68
O 0.68
loop_
_atom_site_label
_atom_site_type_symbol
_atom_site_fract_x
_atom_site_fract_y
_atom_site_fract_z
C1 C -0.0248(6) 0.0201(3) 0.77894(14)
H1 H -0.0527(6) -0.0120(3) 0.75193(14)
H2 H -0.1667(6) 0.0485(3) 0.78806(14)
C2 C 0.0474(6) -0.0520(3) 0.81236(13)
C3 C 0.3881(8) 0.3286(3) 0.7897(2)
H3 H 0.5217(8) 0.3581(3) 0.7811(2)
C4 C 0.2370(9) 0.3712(4) 0.8152(2)
H4 H 0.2671(9) 0.4322(4) 0.8244(2)
C5 C 0.0361(9) 0.3282(4) 0.8286(2)
H5 H -0.0635(9) 0.3613(4) 0.8462(2)
C6 C -0.0186(7) 0.2375(4) 0.8164(2)
H6 H -0.1540(7) 0.2096(4) 0.8252(2)
C7 C 0.1350(6) 0.1896(3) 0.79078(12)
C8 C 0.1477(8) 0.0971(3) 0.77141(14)
C9 C 0.3336(7) 0.0938(3) 0.74894(14)
H7 H 0.3793(7) 0.0423(3) 0.73264(14)
N1 N 0.4536(6) 0.1758(3) 0.75235(13)
H8 H 0.5841(6) 0.1867(3) 0.74091(13)
C10 C 0.3342(7) 0.2366(3) 0.77653(14)
O1 O 0.2665(4) -0.0925(2) 0.79926(8)
N2 N 0.2615(5) -0.1896(2) 0.80659(10)
C11 C 0.0652(6) -0.2121(3) 0.81843(12)
C12 C -0.1069(6) -0.1353(3) 0.81895(14)
H9 H -0.1865(6) -0.1320(3) 0.84624(14)
H10 H -0.2161(6) -0.1417(3) 0.79576(14)
C13 C 0.0281(9) -0.3157(4) 0.8303(2)
O2 O 0.1652(6) -0.3744(3) 0.82151(13)
O3 O -0.1659(6) -0.3240(2) 0.85005(11)
C14 C -0.2293(13) -0.4202(5) 0.8641(2)
H11 H -0.3827(13) -0.4331(5) 0.8543(2)
H12 H -0.1291(13) -0.4647(5) 0.8500(2)
C15 C -0.2215(27) -0.4341(7) 0.9014(3)
H13 H -0.3597(72) -0.4125(63) 0.9146(5)
H14 H -0.095(10) -0.4008(57) 0.9135(6)
H15 H -0.204(17) -0.5002(11) 0.9066(3)
C16 C 0.0811(6) 0.0003(3) 0.85522(14)
O4 O 0.2849(4) -0.0044(2) 0.87246(10)
C17 C 0.3223(7) 0.0459(3) 0.91304(14)
H16 H 0.1763(7) 0.0559(3) 0.92752(14)
C18 C 0.4705(8) -0.0138(4) 0.9404(2)
H17 H 0.6138(8) -0.0223(4) 0.9248(2)
C19 C 0.5249(9) 0.0427(4) 0.9809(2)
H18 H 0.3857(9) 0.0527(4) 0.9970(2)
H19 H 0.6270(9) 0.0063(4) 0.9989(2)
C20 C 0.6314(9) 0.1354(5) 0.9715(2)
H20 H 0.7764(9) 0.1254(5) 0.9574(2)
H21 H 0.6600(9) 0.1681(5) 0.9984(2)
C21 C 0.4804(9) 0.1963(4) 0.9429(2)
H22 H 0.3378(9) 0.2088(4) 0.9582(2)
C22 C 0.4260(6) 0.1392(3) 0.90189(13)
H23 H 0.3214(6) 0.1746(3) 0.88398(13)
H24 H 0.5646(6) 0.1293(3) 0.88563(13)
C23 C 0.3748(13) -0.1143(6) 0.9504(3)
H25 H 0.4480(13) -0.1163(6) 0.9787(3)
C24 C 0.1397(11) -0.1116(5) 0.9697(2)
H26 H 0.1159(28) -0.1669(15) 0.9868(11)
H27 H 0.0287(11) -0.1095(29) 0.9470(2)
H28 H 0.1248(25) -0.0568(16) 0.9874(11)
C25 C 0.4780(23) -0.1872(7) 0.9376(5)
H29 H 0.3704(28) -0.237(2) 0.9331(28)
H30 H 0.587(11) -0.2063(37) 0.9590(13)
H31 H 0.556(13) -0.1738(20) 0.9111(15)
C26 C 0.5864(11) 0.2891(4) 0.9306(2)
H32 H 0.4736(19) 0.3286(10) 0.9175(10)
H33 H 0.7083(42) 0.2785(5) 0.9107(9)
H34 H 0.6446(54) 0.3195(12) 0.9559(3)
O5 O -0.0750(5) 0.0404(2) 0.87192(10)
#END
