
#######################################################################
#
#                 Cambridge Crystallographic Data Centre
#                                CCDC
#
#######################################################################
#
# If this CIF has been generated from an entry in the Cambridge
# Structural Database, then it will include bibliographic, chemical,
# crystal, experimental, refinement or atomic coordinate data resulting
# from the CCDC's data processing and validation procedures.
#
#######################################################################

data_CSD_CIF_CANJEH
_audit_creation_date 2005-09-21
_audit_creation_method CSD-ConQuest-V1
_database_code_CSD CANJEH
_database_code_depnum_ccdc_archive 'CCDC 250968'
_chemical_formula_sum 'C43 H33 N1 O6'
_chemical_formula_moiety
;
C43 H33 N1 O6
;
_journal_coden_Cambridge 1291
_journal_year 2005
_journal_page_first 1541
_journal_name_full 'Eur.J.Org.Chem. '
loop_
_publ_author_name
"J.F.Schneider"
"M.Nieger"
"K.Nattinen"
"B.Lewall"
"E.Niecke"
"K.H.Dotz"
_chemical_name_systematic
;
(R,S)-1-Nitro-4,4-diphenyl-11,12-dipropylnaphtho(1,2-f)phenanthro(2,1-d)(1,3)-
dioxepin-10,13-dione
;
_cell_volume   6492.559
_exptl_crystal_colour 'yellow'
_exptl_crystal_density_diffrn 1.35
_exptl_crystal_description 'plates'
_diffrn_ambient_temperature 123
_refine_special_details
;
One propyl group is equally disordered over two sites.

;
#These two values have been output from a single CSD field.
_refine_ls_R_factor_gt 0.0453
_refine_ls_wR_factor_gt 0.0453
_symmetry_cell_setting orthorhombic
_symmetry_space_group_name_H-M 'P b c n'
_symmetry_Int_Tables_number 60
loop_
_symmetry_equiv_pos_site_id
_symmetry_equiv_pos_as_xyz
1 x,y,z
2 1/2-x,1/2-y,1/2+z
3 -x,y,1/2-z
4 1/2+x,1/2-y,-z
5 -x,-y,-z
6 -1/2+x,-1/2+y,-1/2-z
7 x,-y,-1/2+z
8 -1/2-x,-1/2+y,z
_cell_length_a 32.1074(10)
_cell_length_b 7.8587(2)
_cell_length_c 25.7312(6)
_cell_angle_alpha 90
_cell_angle_beta 90
_cell_angle_gamma 90
_cell_formula_units_Z 8
loop_
_atom_type_symbol
_atom_type_radius_bond
C 0.68
H 0.23
N 0.68
O 0.68
loop_
_atom_site_label
_atom_site_type_symbol
_atom_site_fract_x
_atom_site_fract_y
_atom_site_fract_z
O1 O 0.65505(8) 0.7877(2) 0.41290(9)
C1 C 0.66935(12) 0.8402(3) 0.50224(15)
C2 C 0.68397(14) 0.8052(4) 0.45323(16)
C3 C 0.72632(14) 0.8133(4) 0.43972(16)
H1 H 0.73540 0.78590 0.40560
C4 C 0.75414(13) 0.8616(4) 0.4771(2)
H2 H 0.78270 0.87330 0.46800
C5 C 0.74183(13) 0.8947(4) 0.52869(18)
C6 C 0.77156(12) 0.9530(4) 0.5657(2)
H3 H 0.80000 0.96510 0.55610
C7 C 0.75922(13) 0.9914(4) 0.61481(19)
H4 H 0.77860 1.04000 0.63840
C8 C 0.71818(12) 0.9604(4) 0.63133(16)
C9 C 0.70524(14) 1.0021(4) 0.68625(17)
O2 O 0.73218(8) 1.0503(3) 0.71716(10)
C10 C 0.66090(13) 0.9951(4) 0.70017(14)
C11 C 0.63465(12) 0.9066(4) 0.66961(14)
C12 C 0.65075(11) 0.8218(4) 0.62126(13)
O3 O 0.63419(7) 0.6930(3) 0.60412(8)
C13 C 0.68917(11) 0.8914(4) 0.59720(15)
C14 C 0.69927(12) 0.8725(3) 0.54278(16)
C15 C 0.64802(12) 1.0917(4) 0.74767(13)
H5 H 0.67230 1.10420 0.77110
H6 H 0.62630 1.02670 0.76640
C16 C 0.63103(12) 1.2689(4) 0.73384(13)
H7 H 0.60540 1.25620 0.71270
H8 H 0.62350 1.32990 0.76620
C17 C 0.66267(12) 1.3730(4) 0.70378(13)
H9 H 0.65060 1.48390 0.69490
H10 H 0.67020 1.31270 0.67180
H11 H 0.68760 1.38980 0.72520
C18 C 0.58927(11) 0.8811(4) 0.68169(12)
H12 H 0.57350 0.88370 0.64860
H13 H 0.57960 0.97860 0.70290
C19 C 0.57815(12) 0.7165(4) 0.71047(14)
H14 H 0.58210 0.61700 0.68740
H15 H 0.59620 0.70240 0.74140
H16? H 0.54740 0.70660 0.71100
H17? H 0.58890 0.62000 0.68970
C20 C 0.53312(19) 0.7308(7) 0.7266(3)
H18 H 0.52470 0.62700 0.74500
H19 H 0.51570 0.74570 0.69570
H20 H 0.52970 0.82910 0.74970
C21? C 0.5931(2) 0.6955(7) 0.7640(2)
H21? H 0.58420 0.58460 0.77740
H22? H 0.58160 0.78600 0.78590
H23? H 0.62360 0.70180 0.76450
C22 C 0.62941(12) 0.6363(4) 0.41185(13)
C23 C 0.59055(13) 0.6797(5) 0.37972(13)
C24 C 0.56225(14) 0.5514(5) 0.37158(14)
H24 H 0.56720 0.44140 0.38560
C25 C 0.52646(15) 0.5826(7) 0.34283(17)
H25 H 0.50670 0.49400 0.33810
C26 C 0.51922(18) 0.7386(9) 0.32127(18)
H26 H 0.49510 0.75780 0.30070
C27 C 0.54699(19) 0.8655(7) 0.32975(18)
H27 H 0.54190 0.97470 0.31520
C28 C 0.58268(15) 0.8395(5) 0.35917(15)
H28 H 0.60150 0.93060 0.36520
O4 O 0.61887(7) 0.5873(2) 0.46394(8)
C29 C 0.62400(11) 0.8503(4) 0.50997(12)
C30 C 0.59961(12) 0.7191(4) 0.49202(12)
C31 C 0.55769(11) 0.7013(4) 0.50576(12)
H29 H 0.54200 0.60560 0.49470
C32 C 0.54016(11) 0.8247(4) 0.53542(13)
C33 C 0.56077(11) 0.9805(4) 0.54880(12)
C34 C 0.54155(11) 1.1231(5) 0.57323(12)
H30 H 0.51300 1.11770 0.58300
C35 C 0.56385(12) 1.2670(4) 0.58269(13)
H31 H 0.55080 1.36040 0.59960
C36 C 0.60523(12) 1.2794(4) 0.56806(12)
H32 H 0.62000 1.38230 0.57410
C37 C 0.6252(1) 1.1450(4) 0.54495(12)
H33 H 0.65370 1.15470 0.53570
C38 C 0.60340(11) 0.9913(4) 0.53477(12)
C39 C 0.65407(11) 0.4905(4) 0.38843(13)
C40 C 0.64776(11) 0.3245(5) 0.40448(13)
H34 H 0.62920 0.30000 0.43220
C41 C 0.66913(13) 0.1938(4) 0.37928(16)
H35 H 0.66510 0.07980 0.39040
C42 C 0.69611(12) 0.2262(5) 0.33846(16)
H36 H 0.71030 0.13530 0.32180
C43 C 0.70214(11) 0.3912(5) 0.32229(13)
H37 H 0.72070 0.41590 0.29450
C44 C 0.68076(12) 0.5206(4) 0.34721(14)
H38 H 0.68450 0.63430 0.33560
N1 N 0.49841(10) 0.7862(4) 0.55544(13)
O5 O 0.47596(8) 0.6890(3) 0.53122(10)
O6 O 0.48810(8) 0.8429(3) 0.59803(11)
#END
