
#######################################################################
#
#                 Cambridge Crystallographic Data Centre
#                                CCDC
#
#######################################################################
#
# If this CIF has been generated from an entry in the Cambridge
# Structural Database, then it will include bibliographic, chemical,
# crystal, experimental, refinement or atomic coordinate data resulting
# from the CCDC's data processing and validation procedures.
#
#######################################################################

data_CSD_CIF_CANTAP
_audit_creation_date 2017-01-06
_audit_creation_method CSD-ConQuest-V1
_database_code_CSD CANTAP
_database_code_depnum_ccdc_archive 'CCDC 1515742'
_chemical_formula_sum 'C25 H20 N2 O2'
_chemical_formula_moiety
;
C25 H20 N2 O2
;
_journal_coden_Cambridge 1078
_journal_year 2017
_journal_name_full 'CSD Communication(Private Communication) '
loop_
_publ_author_name
"tang-hao yang"
_chemical_name_systematic
;
1-({[3-(1H-indol-3-yl)-1,3-diphenylprop-2-en-1-ylidene]amino}oxy)ethan-1-one 
unknown solvate
;
_cell_volume   2185.011
_exptl_crystal_colour 'yellow'
_exptl_crystal_density_diffrn 1.156
_exptl_crystal_description 'prism'
_diffrn_ambient_temperature 200
_refine_special_details
;
The SQUEEZE/PLATON program has been used to model some disorder.

;
#These two values have been output from a single CSD field.
_refine_ls_R_factor_gt 0.0921
_refine_ls_wR_factor_gt 0.0921
_symmetry_cell_setting triclinic
_symmetry_space_group_name_H-M 'P -1'
_symmetry_Int_Tables_number 2
loop_
_symmetry_equiv_pos_site_id
_symmetry_equiv_pos_as_xyz
1 x,y,z
2 -x,-y,-z
_cell_length_a 8.2571(7)
_cell_length_b 16.8590(15)
_cell_length_c 17.1654(15)
_cell_angle_alpha 66.416(5)
_cell_angle_beta 86.395(5)
_cell_angle_gamma 89.790(5)
_cell_formula_units_Z 4
loop_
_atom_type_symbol
_atom_type_radius_bond
C 0.68
H 0.23
N 0.68
O 0.68
loop_
_atom_site_label
_atom_site_type_symbol
_atom_site_fract_x
_atom_site_fract_y
_atom_site_fract_z
C1 C 0.1795(5) 0.4657(2) 1.0724(2)
C2 C 0.2780(6) 0.5326(3) 1.0850(3)
H1 H 0.35450 0.56050 1.03530
H2 H 0.33830 0.50540 1.13610
H3 H 0.20620 0.57620 1.09180
C3 C 0.1691(4) 0.4150(2) 0.8988(2)
C4 C 0.0885(4) 0.3545(2) 0.8696(2)
C5 C 0.0794(5) 0.2661(3) 0.9194(3)
H4 H 0.12660 0.24380 0.97290
C6 C 0.0021(6) 0.2104(3) 0.8918(3)
H5 H -0.00240 0.15000 0.92600
C7 C -0.0680(6) 0.2420(3) 0.8153(3)
H6 H -0.11990 0.20360 0.79600
C8 C -0.0628(6) 0.3297(3) 0.7664(3)
H7 H -0.11440 0.35180 0.71430
C9 C 0.0164(5) 0.3860(3) 0.7923(3)
H8 H 0.02170 0.44620 0.75730
C10 C 0.2686(5) 0.4895(2) 0.8375(2)
H9 H 0.25240 0.54450 0.83950
C11 C 0.3801(4) 0.4842(2) 0.7793(2)
C12 C 0.4569(5) 0.5640(2) 0.7130(2)
C13 C 0.3716(5) 0.6401(2) 0.6809(3)
H10 H 0.26210 0.64120 0.70100
C14 C 0.4457(6) 0.7156(3) 0.6189(3)
H11 H 0.38610 0.76730 0.59660
C15 C 0.6034(6) 0.7146(3) 0.5905(3)
H12 H 0.65390 0.76620 0.54940
C16 C 0.6905(6) 0.6394(3) 0.6210(3)
H13 H 0.79950 0.63890 0.59990
C17 C 0.6186(5) 0.5651(3) 0.6820(2)
H14 H 0.67940 0.51370 0.70340
C18 C 0.4357(4) 0.3999(2) 0.7823(2)
C19 C 0.4635(4) 0.3291(2) 0.8548(2)
H15 H 0.45230 0.32780 0.91070
C20 C 0.5115(4) 0.2859(2) 0.7489(2)
C21 C 0.5528(5) 0.2400(2) 0.6995(3)
H16 H 0.58640 0.18170 0.72450
C22 C 0.5430(5) 0.2817(3) 0.6138(3)
H17 H 0.57110 0.25170 0.57850
C23 C 0.4929(6) 0.3678(3) 0.5757(3)
H18 H 0.48460 0.39430 0.51580
C24 C 0.4557(5) 0.4140(2) 0.6251(2)
H19 H 0.42350 0.47250 0.59930
C25 C 0.4657(4) 0.3738(2) 0.7134(2)
N1 N 0.5095(4) 0.26052(19) 0.83590(19)
H20 H 0.54360 0.20720 0.87510
N2 N 0.1358(4) 0.4013(2) 0.9772(2)
O1 O 0.2260(3) 0.46434(16) 0.99568(16)
O2 O 0.0760(4) 0.41984(17) 1.12137(17)
C26 C 0.3098(5) 0.9662(2) 1.0678(2)
C27 C 0.2148(6) 1.0343(3) 1.0814(3)
H21 H 0.14480 1.06120 1.03410
H22 H 0.28880 1.07840 1.08410
H23 H 0.14770 1.00870 1.13500
C28 C 0.3510(4) 0.9126(2) 0.8961(2)
C29 C 0.4378(4) 0.8509(2) 0.8664(2)
C30 C 0.4352(5) 0.7634(3) 0.9158(3)
H24 H 0.37690 0.74120 0.96990
C31 C 0.5175(6) 0.7073(3) 0.8869(3)
H25 H 0.51330 0.64680 0.92060
C32 C 0.6051(6) 0.7394(3) 0.8094(3)
H26 H 0.66140 0.70100 0.78970
C33 C 0.6111(6) 0.8258(3) 0.7609(3)
H27 H 0.67360 0.84810 0.70790
C34 C 0.5259(5) 0.8814(3) 0.7888(3)
H28 H 0.52820 0.94170 0.75390
C35 C 0.2626(5) 0.9852(2) 0.8375(2)
H29 H 0.27810 1.04000 0.83980
C36 C 0.1612(4) 0.9812(2) 0.7806(2)
C37 C 0.0932(4) 1.0617(2) 0.7184(2)
C38 C 0.1810(5) 1.1397(3) 0.6867(3)
H30 H 0.28800 1.14120 0.70340
C39 C 0.1154(6) 1.2146(3) 0.6316(3)
H31 H 0.17730 1.26720 0.61030
C40 C -0.0411(6) 1.2135(3) 0.6071(3)
H32 H -0.08780 1.26550 0.57020
C41 C -0.1273(6) 1.1374(3) 0.6362(3)
H33 H -0.23320 1.13660 0.61790
C42 C -0.0637(5) 1.0609(2) 0.6920(2)
H34 H -0.12600 1.00840 0.71220
C43 C 0.1069(4) 0.8981(2) 0.7809(2)
C44 C 0.0677(4) 0.8242(2) 0.8525(2)
H35 H 0.07060 0.81980 0.90930
C45 C 0.0335(4) 0.7888(2) 0.7435(2)
C46 C -0.0021(5) 0.7462(3) 0.6914(3)
H36 H -0.03640 0.68710 0.71480
C47 C 0.0147(6) 0.7935(3) 0.6049(3)
H37 H -0.00870 0.76620 0.56790
C48 C 0.0654(5) 0.8806(3) 0.5696(3)
H38 H 0.07410 0.91150 0.50940
C49 C 0.1027(5) 0.9221(3) 0.6211(2)
H39 H 0.14020 0.98070 0.59700
C50 C 0.0842(4) 0.8762(2) 0.7099(2)
N3 N 0.3696(4) 0.89771(19) 0.97486(19)
N4 N 0.0246(4) 0.75901(19) 0.83088(19)
H40 H 0.00280 0.70300 0.86690
O3 O 0.2735(3) 0.96125(16) 0.99456(15)
O4 O 0.4066(4) 0.92103(18) 1.11466(17)
#END
