
#######################################################################
#
#                 Cambridge Crystallographic Data Centre
#                                CCDC
#
#######################################################################
#
# If this CIF has been generated from an entry in the Cambridge
# Structural Database, then it will include bibliographic, chemical,
# crystal, experimental, refinement or atomic coordinate data resulting
# from the CCDC's data processing and validation procedures.
#
#######################################################################

data_CSD_CIF_CAPXUM
_audit_creation_date 2000-01-21
_audit_creation_method CSD-ConQuest-V1
_database_code_CSD CAPXUM
_database_code_depnum_ccdc_archive 'CCDC 118161'
_chemical_formula_sum 'C23 H22 N2 O10'
_chemical_formula_moiety
;
C23 H22 N2 O10
;
_journal_coden_Cambridge 644
_journal_volume 54
_journal_year 1999
_journal_page_first 1068
_journal_name_full 'Z.Naturforsch.,B:Chem.Sci. '
loop_
_publ_author_name
"R.Csuk"
"P.Dorr"
"M.Kuhn"
"C.Krieger"
"M.Yu.Antipin"
_chemical_name_systematic
;
(1S,2R,3S,4R,5S)-2-Benzyloxymethyl-7,7-dimethyl-2,3-epoxy-6,8-dioxabicyclo(3.3
.0)oct-4-yl 3,5-dinitrobenzoate
;
_chemical_name_common
;
(4aR)4,4a-Anhydro-5-O-benzyl-4a-carba-2,3-O-isopropylidene-1-O-(3,5-dinitroben
zoyl)-delta-D-ribofuranose
;
_chemical_melting_point 408.15
_cell_volume   2342.941
_exptl_crystal_colour 'colorless'
_exptl_crystal_density_diffrn 1.379
_exptl_special_details
;
Melting point range 408.15-409.15K
Absolute configuration

;
_exptl_crystal_description 'prism'
_diffrn_ambient_temperature ?
_diffrn_special_details
;
The study was carried out at room temperature,in the range 283-303K

;
#These two values have been output from a single CSD field.
_refine_ls_R_factor_gt 0.0688
_refine_ls_wR_factor_gt 0.0688
_symmetry_cell_setting monoclinic
_symmetry_space_group_name_H-M 'P 21'
_symmetry_Int_Tables_number 4
loop_
_symmetry_equiv_pos_site_id
_symmetry_equiv_pos_as_xyz
1 x,y,z
2 -x,1/2+y,-z
_cell_length_a 10.517(3)
_cell_length_b 14.277(4)
_cell_length_c 15.604(3)
_cell_angle_alpha 90
_cell_angle_beta 90.23(2)
_cell_angle_gamma 90
_cell_formula_units_Z 4
loop_
_atom_type_symbol
_atom_type_radius_bond
C 0.68
H 0.23
N 0.68
O 0.68
loop_
_atom_site_label
_atom_site_type_symbol
_atom_site_fract_x
_atom_site_fract_y
_atom_site_fract_z
O1 O 0.2674(5) 0.5251(4) 0.0696(4)
O2 O 0.3692(6) 0.5715(5) -0.0525(4)
O3 O 0.2259(5) 0.3990(5) -0.0829(3)
O4 O 0.1934(5) 0.3493(4) 0.0948(3)
O5 O 0.2789(5) 0.3738(5) 0.2246(4)
O6 O -0.3847(7) 0.3449(7) 0.1576(6)
O7 O -0.2595(7) 0.3844(7) 0.0517(5)
O8 O -0.2206(7) 0.3734(7) 0.4459(4)
O9 O -0.0227(7) 0.3647(9) 0.4672(4)
O10 O 0.5431(5) 0.3912(5) -0.1776(3)
C1 C 0.3176(7) 0.3577(6) 0.0554(5)
H1 H 0.3769(7) 0.3167(6) 0.0834(5)
C2 C 0.3674(7) 0.4600(6) 0.0579(5)
H2 H 0.4334(7) 0.4677(6) 0.1000(5)
C3 C 0.4165(7) 0.4809(7) -0.0331(5)
H3 H 0.5078(7) 0.4808(7) -0.0341(5)
C4 C 0.3629(7) 0.4068(6) -0.0918(5)
C5 C 0.3025(7) 0.3313(7) -0.0368(5)
H4 H 0.3047(7) 0.2668(7) -0.0538(5)
C6 C 0.4074(8) 0.3899(8) -0.1800(5)
H5 H 0.3792(8) 0.3290(8) -0.1979(5)
H6 H 0.3744(8) 0.4357(8) -0.2192(5)
C7 C 0.2882(8) 0.6046(7) 0.0148(6)
C8 C 0.1653(9) 0.6311(10) -0.0220(8)
H7 H 0.1262(9) 0.5792(10) -0.0510(8)
H8 H 0.1106(9) 0.6524(10) 0.0231(8)
H9 H 0.1790(9) 0.6811(10) -0.0620(8)
C9 C 0.3596(10) 0.6797(7) 0.0644(7)
H10 H 0.4377(10) 0.6536(7) 0.0857(7)
H11 H 0.3781(10) 0.7308(7) 0.0264(7)
H12 H 0.3097(10) 0.7020(7) 0.1116(7)
C10 C 0.1877(8) 0.3626(6) 0.1780(5)
C11 C 0.0523(7) 0.3636(6) 0.2106(5)
C12 C -0.0516(7) 0.3647(6) 0.1541(5)
H13 H -0.0390(7) 0.3655(6) 0.0932(5)
C13 C -0.1703(7) 0.3643(6) 0.1881(5)
C14 C -0.1944(8) 0.3639(6) 0.2735(5)
H14 H -0.2799(8) 0.3630(6) 0.2948(5)
C15 C -0.0909(7) 0.3674(6) 0.3272(5)
C16 C 0.0340(7) 0.3670(6) 0.2976(5)
H15 H 0.1049(7) 0.3694(6) 0.3365(5)
C17 C 0.5984(7) 0.3735(6) -0.2569(5)
H16 H 0.5660(7) 0.4174(6) -0.2981(5)
H17 H 0.5771(7) 0.3114(6) -0.2759(5)
C18 C 0.7424(8) 0.3838(6) -0.2506(5)
C19 C 0.8022(8) 0.3890(7) -0.1702(5)
H18 H 0.7536(8) 0.3856(7) -0.1183(5)
C20 C 0.9336(8) 0.3996(7) -0.1664(6)
H19 H 0.9754(8) 0.4045(7) -0.1118(6)
C21 C 1.0045(9) 0.4034(9) -0.2405(6)
H20 H 1.0954(9) 0.4077(9) -0.2364(6)
C22 C 0.9470(9) 0.3986(8) -0.3180(6)
H21 H 0.9973(9) 0.4055(8) -0.3688(6)
C23 C 0.8129(8) 0.3887(7) -0.3242(5)
H22 H 0.7725(8) 0.3835(7) -0.3793(5)
N1 N -0.2794(9) 0.3647(7) 0.1265(6)
N2 N -0.1127(8) 0.3682(6) 0.4196(5)
O11 O 0.3714(5) 0.4778(4) 0.5659(4)
O12 O 0.2628(5) 0.4304(4) 0.4453(4)
O13 O 0.4007(5) 0.6098(5) 0.4186(3)
O14 O 0.4348(4) 0.6538(4) 0.5963(3)
O15 O 0.3561(6) 0.6296(6) 0.7270(4)
O16 O 1.0121(6) 0.6440(6) 0.6446(5)
O17 O 0.8822(7) 0.6142(8) 0.5446(5)
O18 O 0.6718(7) 0.6167(6) 0.9644(4)
O19 O 0.8695(6) 0.6208(7) 0.9378(4)
O20 O 0.0828(5) 0.6061(5) 0.3235(3)
C24 C 0.3112(6) 0.6422(5) 0.5577(5)
H23 H 0.2516(6) 0.6818(5) 0.5870(5)
C25 C 0.2670(7) 0.5395(6) 0.5580(5)
H24 H 0.2033(7) 0.5276(6) 0.6005(5)
C26 C 0.2170(7) 0.5202(5) 0.4667(5)
H25 H 0.1257(7) 0.5193(5) 0.4653(5)
C27 C 0.2650(6) 0.5966(6) 0.4116(5)
C28 C 0.3191(7) 0.6706(6) 0.4656(5)
H26 H 0.3107(7) 0.7350(6) 0.4488(5)
C29 C 0.2175(7) 0.6101(8) 0.3214(5)
H27 H 0.2474(7) 0.6681(8) 0.2978(5)
H28 H 0.2483(7) 0.5597(8) 0.2866(5)
C30 C 0.3531(8) 0.4032(7) 0.5100(6)
C31 C 0.4769(10) 0.3803(10) 0.4639(9)
H29 H 0.504(1) 0.4363(10) 0.4352(9)
H30 H 0.5383(10) 0.3636(10) 0.5069(9)
H31 H 0.4692(10) 0.3304(10) 0.4230(9)
C32 C 0.3025(11) 0.3180(8) 0.5566(7)
H32 H 0.2218(11) 0.3331(8) 0.5816(7)
H33 H 0.2922(11) 0.2670(8) 0.5171(7)
H34 H 0.3612(11) 0.3002(8) 0.6010(7)
C33 C 0.4425(7) 0.6394(7) 0.6803(5)
C34 C 0.5802(7) 0.6379(6) 0.7088(5)
C35 C 0.6792(7) 0.6358(6) 0.6488(5)
H35 H 0.6628(7) 0.6372(6) 0.5902(5)
C36 C 0.8014(7) 0.6314(6) 0.6802(5)
C37 C 0.8326(7) 0.6284(6) 0.7667(5)
H36 H 0.9192(7) 0.6305(6) 0.7863(5)
C38 C 0.7311(7) 0.6267(7) 0.8231(5)
C39 C 0.6039(7) 0.6318(6) 0.7970(5)
H37 H 0.5363(7) 0.6311(6) 0.8381(5)
C40 C 0.0259(7) 0.6282(7) 0.2434(5)
H38 H 0.0604(7) 0.5874(7) 0.2005(5)
H39 H 0.0441(7) 0.6918(7) 0.2276(5)
C41 C -0.1145(7) 0.6126(6) 0.2492(4)
C42 C -0.1770(7) 0.6092(7) 0.3256(5)
H40 H -0.1293(7) 0.6156(7) 0.3779(5)
C43 C -0.3072(9) 0.5948(8) 0.3290(6)
H41 H -0.3481(9) 0.5903(8) 0.3837(6)
C44 C -0.3747(8) 0.5871(8) 0.2552(6)
H42 H -0.4655(8) 0.5802(8) 0.2571(6)
C45 C -0.3151(8) 0.5913(7) 0.1779(5)
H43 H -0.3628(8) 0.5850(7) 0.1257(5)
C46 C -0.1846(7) 0.6029(7) 0.1746(5)
H44 H -0.1425(7) 0.6055(7) 0.1202(5)
N3 N 0.9051(7) 0.6288(6) 0.6176(5)
N4 N 0.7604(7) 0.6197(6) 0.9150(4)
#END
