
#######################################################################
#
#                 Cambridge Crystallographic Data Centre
#                                CCDC
#
#######################################################################
#
# If this CIF has been generated from an entry in the Cambridge
# Structural Database, then it will include bibliographic, chemical,
# crystal, experimental, refinement or atomic coordinate data resulting
# from the CCDC's data processing and validation procedures.
#
#######################################################################

data_CSD_CIF_CAQBOO
_audit_creation_date 2017-05-23
_audit_creation_method CSD-ConQuest-V1
_database_code_CSD CAQBOO
_database_code_depnum_ccdc_archive 'CCDC 1546162'
_chemical_formula_sum 'C33 H30 N2 O4'
_chemical_formula_moiety
;
C33 H30 N2 O4
;
_journal_coden_Cambridge 1336
_journal_volume 19
_journal_year 2017
_journal_page_first 2596
_journal_name_full 'Org.Lett. '
loop_
_publ_author_name
"Kaifan Zhang"
"Xiaoying Xu"
"Jiuan Zheng"
"Hequan Yao"
"Yue Huang"
"Aijun Lin"
_chemical_name_systematic
;
ethyl 
[2-(benzyloxy)-9-methyl-4-(naphthalen-2-yl)-3-oxo-2,3,4,9-tetrahydro-1H-\b-car
bolin-1-yl]acetate
;
_cell_volume   2739.605
_exptl_crystal_colour 'colorless'
_exptl_crystal_density_diffrn 1.257
_exptl_crystal_description 'block'
_diffrn_ambient_temperature 173
#These two values have been output from a single CSD field.
_refine_ls_R_factor_gt 0.0663
_refine_ls_wR_factor_gt 0.0663
_symmetry_cell_setting triclinic
_symmetry_space_group_name_H-M 'P -1'
_symmetry_Int_Tables_number 2
loop_
_symmetry_equiv_pos_site_id
_symmetry_equiv_pos_as_xyz
1 x,y,z
2 -x,-y,-z
_cell_length_a 14.008(3)
_cell_length_b 14.182(4)
_cell_length_c 15.949(4)
_cell_angle_alpha 115.266(5)
_cell_angle_beta 90.430(5)
_cell_angle_gamma 105.169(5)
_cell_formula_units_Z 4
loop_
_atom_type_symbol
_atom_type_radius_bond
C 0.68
H 0.23
N 0.68
O 0.68
loop_
_atom_site_label
_atom_site_type_symbol
_atom_site_fract_x
_atom_site_fract_y
_atom_site_fract_z
O1 O 0.84827(15) 0.94580(16) 0.64231(15)
N1 N 0.66438(17) 0.56049(19) 0.50235(17)
O2 O 0.67563(19) 0.89174(19) 0.48870(18)
O3 O 0.96183(19) 0.90728(18) 0.74697(19)
N2 N 0.83279(19) 0.84059(19) 0.63379(18)
O4 O 0.6154(2) 0.96396(19) 0.62387(18)
C1 C 0.7482(2) 0.5221(2) 0.5997(2)
C2 C 0.7338(2) 0.6545(2) 0.5638(2)
C3 C 0.9625(2) 0.6859(2) 0.6963(2)
C4 C 0.7463(2) 0.7629(2) 0.5646(2)
H1 H 0.76040 0.75710 0.50150
C5 C 0.6518(2) 0.8901(2) 0.5605(3)
C6 C 0.6722(2) 0.4772(2) 0.5230(2)
C7 C 1.1263(2) 0.6038(2) 0.6865(2)
C8 C 1.0049(2) 0.6871(2) 0.7738(2)
H2 H 0.97840 0.71580 0.83090
C9 C 0.8687(2) 0.7214(2) 0.6980(2)
H3 H 0.84480 0.73250 0.75960
C10 C 1.0880(2) 0.6466(2) 0.7714(2)
C11 C 0.7866(2) 0.6357(2) 0.6239(2)
C12 C 0.5990(2) 0.5456(3) 0.4236(2)
H4 H 0.53580 0.55830 0.44420
H5 H 0.58590 0.47100 0.37400
H6 H 0.63110 0.59740 0.39960
C13 C 1.0032(2) 0.6456(3) 0.6123(2)
H7 H 0.97450 0.64590 0.55830
C14 C 0.8925(2) 0.8305(2) 0.6949(2)
C15 C 0.6539(2) 0.8027(2) 0.5883(2)
H8 H 0.59330 0.74020 0.55620
H9 H 0.65200 0.83070 0.65660
C16 C 0.6210(2) 0.3663(2) 0.4780(2)
H10 H 0.57250 0.33700 0.42450
C17 C 0.9436(3) 1.0814(3) 0.6005(3)
C18 C 1.0829(2) 0.6061(3) 0.6069(2)
H11 H 1.10970 0.58010 0.54960
C19 C 0.7691(2) 0.4530(3) 0.6342(2)
H12 H 0.81890 0.48090 0.68650
C20 C 0.6431(3) 0.3015(3) 0.5138(3)
H13 H 0.60790 0.22590 0.48560
C21 C 1.1327(3) 0.6468(4) 0.8507(3)
H14 H 1.10780 0.67630 0.90870
C22 C 0.8906(3) 1.1102(3) 0.5467(3)
H15 H 0.83740 1.05640 0.50000
C23 C 1.2064(3) 0.5593(3) 0.6821(3)
H16 H 1.23190 0.52920 0.62460
C24 C 0.9215(3) 0.9649(3) 0.5833(3)
H17 H 0.89500 0.91560 0.51670
H18 H 0.98320 0.95050 0.59850
C25 C 1.0194(3) 1.1610(3) 0.6684(3)
H19 H 1.05530 1.14240 0.70690
C26 C 0.7163(3) 0.3436(3) 0.5912(2)
H20 H 0.72990 0.29630 0.61440
C27 C 0.9147(4) 1.2170(4) 0.5607(4)
H21 H 0.87770 1.23660 0.52390
C28 C 1.2473(3) 0.5592(4) 0.7600(3)
H22 H 1.30030 0.52800 0.75620
C29 C 1.2113(3) 0.6052(4) 0.8458(3)
H23 H 1.24150 0.60740 0.90040
C30 C 0.9903(4) 1.2934(4) 0.6260(4)
H24 H 1.00730 1.36650 0.63430
C31 C 0.6093(4) 1.0546(4) 0.6070(4)
H25 H 0.58850 1.02970 0.53970
H26 H 0.67520 1.11070 0.62600
C32 C 1.0436(4) 1.2664(3) 0.6813(4)
H27 H 1.09680 1.32080 0.72780
C33 C 0.5336(4) 1.1010(5) 0.6640(4)
H28 H 0.46910 1.04450 0.64520
H29 H 0.52650 1.16220 0.65350
H30 H 0.55560 1.12660 0.73050
O5 O 0.45001(16) 0.10085(17) 0.18568(15)
O6 O 0.46309(18) 0.30607(18) 0.28307(16)
N3 N 0.16652(18) 0.07508(19) -0.01047(18)
O7 O 0.3313(2) -0.1420(2) 0.0426(2)
O8 O 0.2331(2) -0.16527(19) 0.14624(18)
N4 N 0.38879(19) 0.1486(2) 0.15658(18)
C34 C 0.2454(2) 0.1257(2) 0.0612(2)
C35 C 0.1312(2) 0.1548(2) -0.0157(2)
C36 C 0.1899(2) 0.2564(2) 0.0535(2)
C37 C 0.4013(2) 0.2561(2) 0.2131(2)
C38 C 0.4641(2) 0.4975(2) 0.2183(2)
H31 H 0.43710 0.52640 0.27520
C39 C 0.3044(2) 0.0660(2) 0.0867(2)
H32 H 0.33130 0.02220 0.02980
C40 C 0.2769(3) -0.1116(3) 0.0993(2)
C41 C 0.2624(2) 0.2353(2) 0.1018(2)
C42 C 0.3440(2) 0.3135(2) 0.1792(2)
H33 H 0.31340 0.35800 0.23280
C43 C 0.4225(2) 0.3913(2) 0.1546(2)
C44 C 0.5482(2) 0.5656(2) 0.2002(2)
C45 C 0.0533(2) 0.1459(3) -0.0757(2)
H34 H 0.01430 0.07690 -0.12240
C46 C 0.6100(3) 0.0717(3) 0.1811(2)
C47 C 0.4606(2) 0.3515(3) 0.0686(2)
H35 H 0.43070 0.27850 0.02300
C48 C 0.0346(2) 0.2406(3) -0.0650(3)
H36 H -0.01820 0.23660 -0.10530
C49 C 0.1680(2) 0.3509(3) 0.0621(2)
H37 H 0.20620 0.42060 0.10840
C50 C 0.5404(3) 0.4165(3) 0.0493(3)
H38 H 0.56400 0.38830 -0.00950
C51 C 0.5863(3) 0.5223(3) 0.1150(3)
C52 C 0.2443(2) -0.0113(2) 0.1245(2)
H39 H 0.25080 0.02870 0.19350
H40 H 0.17290 -0.03360 0.09960
C53 C 0.1276(3) -0.0413(3) -0.0719(2)
H41 H 0.18250 -0.07420 -0.08320
H42 H 0.09560 -0.05230 -0.13160
H43 H 0.07840 -0.07570 -0.04230
C54 C 0.5432(3) 0.1176(3) 0.1475(3)
H44 H 0.57500 0.19640 0.16820
H45 H 0.53040 0.08080 0.07820
C55 C 0.0908(3) 0.3415(3) 0.0029(3)
H46 H 0.07550 0.40530 0.00860
C56 C 0.5996(3) -0.0378(3) 0.1389(3)
H47 H 0.54760 -0.08530 0.08850
C57 C 0.6744(3) 0.5907(3) 0.1002(3)
H48 H 0.69990 0.56490 0.04210
C58 C 0.5974(3) 0.6719(3) 0.2685(3)
H49 H 0.57120 0.70180 0.32570
C59 C 0.6854(3) 0.1393(3) 0.2548(3)
H50 H 0.69270 0.21520 0.28580
C60 C 0.6632(3) -0.0805(3) 0.1683(3)
H51 H 0.65470 -0.15680 0.13880
C61 C 0.7194(3) 0.6891(3) 0.1673(3)
H52 H 0.77850 0.73210 0.15730
C62 C 0.7388(3) -0.0122(4) 0.2403(3)
H53 H 0.78370 -0.04090 0.26030
C63 C 0.6821(3) 0.7324(3) 0.2534(3)
H54 H 0.71610 0.80340 0.30050
C64 C 0.7499(3) 0.0975(4) 0.2835(3)
H55 H 0.80240 0.14480 0.33350
C65 C 0.2513(5) -0.2686(3) 0.1244(3)
H56 H 0.32250 -0.25700 0.14320
H57 H 0.23460 -0.31660 0.05630
C66 C 0.1878(5) -0.3195(4) 0.1764(5)
H58 H 0.11730 -0.33570 0.15390
H59 H 0.20170 -0.26930 0.24330
H60 H 0.20220 -0.38730 0.16620
#END
