
#######################################################################
#
#                 Cambridge Crystallographic Data Centre
#                                CCDC
#
#######################################################################
#
# If this CIF has been generated from an entry in the Cambridge
# Structural Database, then it will include bibliographic, chemical,
# crystal, experimental, refinement or atomic coordinate data resulting
# from the CCDC's data processing and validation procedures.
#
#######################################################################

data_CSD_CIF_CAQWUP
_audit_creation_date 2017-05-23
_audit_creation_method CSD-ConQuest-V1
_database_code_CSD CAQWUP
_database_code_depnum_ccdc_archive 'CCDC 1515988'
_chemical_formula_sum 'C12 H15 N3 O3'
_chemical_formula_moiety
;
C12 H15 N3 O3
;
_journal_coden_Cambridge 533
_journal_volume 50
_journal_year 2016
_journal_page_first 826
_journal_name_full 'Khim.-Farm.Zh.(Russ.)(Chem.Pharm.J.) '
loop_
_publ_author_name
"A.F.Smol'yakov"
"V.A.Karnoukhova"
"S.V.Osintseva"
"P.R.Petrova"
"A.V.Koval'skaya"
"I.P.Tsypysheva"
_chemical_name_systematic
;
11-methyl-3-nitro-7,11-diazatricyclo[7.3.1.0^2,7^]trideca-2,4-dien-6-one
;
_cell_volume   2299.954
_exptl_crystal_colour 'colorless'
_exptl_crystal_density_diffrn 1.44
_exptl_crystal_description 'prism'
_diffrn_ambient_temperature 120
#These two values have been output from a single CSD field.
_refine_ls_R_factor_gt 0.0653
_refine_ls_wR_factor_gt 0.0653
_symmetry_cell_setting orthorhombic
_symmetry_space_group_name_H-M 'P 21 21 21'
_symmetry_Int_Tables_number 19
loop_
_symmetry_equiv_pos_site_id
_symmetry_equiv_pos_as_xyz
1 x,y,z
2 1/2-x,-y,1/2+z
3 -x,1/2+y,1/2-z
4 1/2+x,1/2-y,-z
_cell_length_a 7.4413(5)
_cell_length_b 8.8714(6)
_cell_length_c 34.840(2)
_cell_angle_alpha 90
_cell_angle_beta 90
_cell_angle_gamma 90
_cell_formula_units_Z 8
loop_
_atom_type_symbol
_atom_type_radius_bond
C 0.68
H 0.23
N 0.68
O 0.68
loop_
_atom_site_label
_atom_site_type_symbol
_atom_site_fract_x
_atom_site_fract_y
_atom_site_fract_z
C1 C 0.7943(3) 1.0494(3) 0.91647(6)
H1 H 0.89200 1.08020 0.89840
C2 C 0.6357(4) 1.1592(3) 0.91229(7)
H2 H 0.67540 1.26270 0.91860
H3 H 0.59220 1.15870 0.88540
N1 N 0.4898(3) 1.1138(3) 0.93818(6)
C3 C 0.5530(4) 1.1186(3) 0.97811(7)
H4 H 0.45380 1.08940 0.99550
H5 H 0.59020 1.22260 0.98470
C4 C 0.7105(4) 1.0121(3) 0.98372(7)
H6 H 0.75210 1.02010 1.01090
C5 C 0.6606(4) 0.8485(3) 0.97568(7)
H7 H 0.74160 0.78260 0.99070
H8 H 0.53670 0.83090 0.98500
N2 N 0.6701(3) 0.8021(2) 0.93476(6)
C6 C 0.6079(4) 0.6515(3) 0.92944(8)
C7 C 0.6110(4) 0.5977(3) 0.89052(8)
H9 H 0.56820 0.49920 0.88500
C8 C 0.6737(4) 0.6848(3) 0.86180(7)
H10 H 0.67830 0.64620 0.83640
C9 C 0.7326(3) 0.8335(3) 0.86928(6)
C10 C 0.7314(3) 0.8928(3) 0.90604(6)
C11 C 0.8662(4) 1.0547(3) 0.95738(7)
H11 H 0.91020 1.15720 0.96360
H12 H 0.96670 0.98270 0.96050
C12 C 0.3366(4) 1.2139(3) 0.93287(9)
H13 H 0.23820 1.18230 0.94970
H14 H 0.29670 1.20950 0.90610
H15 H 0.37190 1.31740 0.93920
O1 O 0.5556(3) 0.5793(2) 0.95738(6)
O2 O 0.8528(3) 0.8419(2) 0.80878(5)
O3 O 0.8078(3) 1.0549(2) 0.83710(6)
N3 N 0.8019(3) 0.9169(3) 0.83661(6)
O4 O -0.0092(3) 0.4162(3) 0.91690(6)
O5 O 0.2829(4) 1.0072(2) 0.85325(6)
O6 O 0.3730(3) 0.8663(2) 0.80699(6)
N4 N 0.2939(3) 0.8833(3) 0.83755(6)
C13 C 0.1661(3) 0.6064(3) 0.79488(6)
H16 H 0.15820 0.70710 0.78210
C14 C 0.3452(4) 0.5319(3) 0.78379(7)
H17 H 0.35120 0.51930 0.75560
H18 H 0.44640 0.59710 0.79180
N5 N 0.3604(3) 0.3850(2) 0.80244(6)
C15 C 0.2149(4) 0.2862(3) 0.78930(7)
H19 H 0.22740 0.18570 0.80140
H20 H 0.22260 0.27330 0.76110
C16 C 0.0334(4) 0.3541(3) 0.79986(7)
H21 H -0.06360 0.28560 0.79030
C17 C 0.0131(4) 0.3713(3) 0.84308(7)
H22 H -0.11590 0.36230 0.84960
H23 H 0.07680 0.28680 0.85570
N6 N 0.0824(3) 0.5160(2) 0.85931(5)
C18 C 0.0578(4) 0.5229(3) 0.89993(7)
C19 C 0.1165(4) 0.6596(3) 0.91775(7)
H24 H 0.10230 0.67130 0.94470
C20 C 0.1918(4) 0.7731(3) 0.89717(7)
H25 H 0.22970 0.86300 0.90960
C21 C 0.2132(4) 0.7564(3) 0.85714(7)
C22 C 0.1569(3) 0.6280(3) 0.83785(6)
C23 C 0.0111(4) 0.5078(3) 0.78073(7)
H26 H -0.10570 0.55320 0.78790
H27 H 0.01560 0.49750 0.75250
C24 C 0.5351(4) 0.3170(3) 0.79498(8)
H28 H 0.54020 0.21700 0.80690
H29 H 0.62980 0.38100 0.80580
H30 H 0.55300 0.30720 0.76720
#END
