
#######################################################################
#
#                 Cambridge Crystallographic Data Centre
#                                CCDC
#
#######################################################################
#
# If this CIF has been generated from an entry in the Cambridge
# Structural Database, then it will include bibliographic, chemical,
# crystal, experimental, refinement or atomic coordinate data resulting
# from the CCDC's data processing and validation procedures.
#
#######################################################################

data_CSD_CIF_CAQXAW
_audit_creation_date 2017-05-23
_audit_creation_method CSD-ConQuest-V1
_database_code_CSD CAQXAW
_database_code_depnum_ccdc_archive 'CCDC 1515989'
_chemical_formula_sum 'C12 H15 N3 O3'
_chemical_formula_moiety
;
C12 H15 N3 O3
;
_journal_coden_Cambridge 533
_journal_volume 50
_journal_year 2016
_journal_page_first 826
_journal_name_full 'Khim.-Farm.Zh.(Russ.)(Chem.Pharm.J.) '
loop_
_publ_author_name
"A.F.Smol'yakov"
"V.A.Karnoukhova"
"S.V.Osintseva"
"P.R.Petrova"
"A.V.Koval'skaya"
"I.P.Tsypysheva"
_chemical_name_systematic
;
11-methyl-5-nitro-7,11-diazatricyclo[7.3.1.0^2,7^]trideca-2,4-dien-6-one
;
_cell_volume   2358.323
_exptl_crystal_colour 'colorless'
_exptl_crystal_density_diffrn 1.404
_exptl_crystal_description 'prism'
_diffrn_ambient_temperature 120
#These two values have been output from a single CSD field.
_refine_ls_R_factor_gt 0.0484
_refine_ls_wR_factor_gt 0.0484
_symmetry_cell_setting orthorhombic
_symmetry_space_group_name_H-M 'P 21 21 21'
_symmetry_Int_Tables_number 19
loop_
_symmetry_equiv_pos_site_id
_symmetry_equiv_pos_as_xyz
1 x,y,z
2 1/2-x,-y,1/2+z
3 -x,1/2+y,1/2-z
4 1/2+x,1/2-y,-z
_cell_length_a 11.6610(6)
_cell_length_b 12.2855(6)
_cell_length_c 16.4617(8)
_cell_angle_alpha 90
_cell_angle_beta 90
_cell_angle_gamma 90
_cell_formula_units_Z 8
loop_
_atom_type_symbol
_atom_type_radius_bond
C 0.68
H 0.23
N 0.68
O 0.68
loop_
_atom_site_label
_atom_site_type_symbol
_atom_site_fract_x
_atom_site_fract_y
_atom_site_fract_z
O1 O 0.65111(13) 0.06913(13) 0.78903(10)
O2 O 0.75447(17) -0.15998(15) 0.95382(12)
O3 O 0.60814(15) -0.06380(15) 0.91694(12)
N1 N 0.71199(17) -0.08064(16) 0.91966(12)
C1 C 1.02467(18) 0.22401(17) 0.77990(13)
H1 H 1.08210 0.24610 0.82190
C2 C 1.08715(17) 0.16776(18) 0.70968(13)
H2 H 1.14410 0.21830 0.68590
H3 H 1.12870 0.10320 0.73040
N2 N 1.00577(15) 0.13432(15) 0.64734(10)
C3 C 0.94232(19) 0.22897(18) 0.61652(13)
H4 H 0.88700 0.20480 0.57460
H5 H 0.99660 0.28050 0.59080
C4 C 0.87807(19) 0.28662(18) 0.68461(13)
H6 H 0.83880 0.35180 0.66120
C5 C 0.78765(18) 0.21408(18) 0.72381(13)
H7 H 0.72710 0.26100 0.74730
H8 H 0.75170 0.16900 0.68100
N3 N 0.83214(14) 0.14041(14) 0.78894(11)
C6 C 0.74731(17) 0.06744(17) 0.81897(13)
C7 C 0.78913(18) -0.00262(17) 0.88253(13)
C8 C 0.89948(19) 0.00151(17) 0.91087(12)
H9 H 0.92350 -0.04690 0.95250
C9 C 0.97639(18) 0.07638(17) 0.87885(13)
H10 H 1.05250 0.08040 0.89920
C10 C 0.94137(17) 0.14504(16) 0.81718(12)
C11 C 0.9619(2) 0.32528(17) 0.74955(14)
H11 H 0.92020 0.36090 0.79470
H12 H 1.01700 0.37810 0.72630
C12 C 1.0648(2) 0.0778(2) 0.58161(14)
H13 H 1.10220 0.01230 0.60310
H14 H 1.12280 0.12600 0.55790
H15 H 1.00930 0.05700 0.53970
O4 O 0.31481(15) -0.04377(13) 0.75220(12)
O5 O 0.36988(19) 0.0469(2) 0.51142(12)
O6 O 0.30222(19) -0.07625(15) 0.59191(13)
N4 N 0.34907(17) 0.01155(17) 0.58037(13)
C13 C 0.47855(17) 0.28737(17) 0.84416(12)
H16 H 0.55230 0.32400 0.82950
C14 C 0.38676(18) 0.37446(16) 0.85780(13)
H17 H 0.41150 0.42390 0.90190
H18 H 0.37760 0.41820 0.80770
N5 N 0.27663(14) 0.32470(14) 0.87935(11)
C15 C 0.28858(18) 0.25491(17) 0.95120(12)
H19 H 0.21440 0.21850 0.96220
H20 H 0.30750 0.30070 0.99880
C16 C 0.38141(18) 0.16869(17) 0.94051(12)
H21 H 0.38930 0.12890 0.99320
C17 C 0.35652(19) 0.08452(17) 0.87437(13)
H22 H 0.39950 0.01710 0.88700
H23 H 0.27380 0.06650 0.87570
N6 N 0.38701(14) 0.12022(13) 0.79078(10)
C18 C 0.35776(17) 0.04241(17) 0.73059(13)
C19 C 0.38130(18) 0.07917(18) 0.64871(13)
C20 C 0.43392(19) 0.17689(19) 0.63317(12)
H24 H 0.44760 0.19850 0.57860
C21 C 0.46700(18) 0.24383(17) 0.69602(12)
H25 H 0.50600 0.31010 0.68500
C22 C 0.44315(16) 0.21396(16) 0.77527(12)
C23 C 0.49593(17) 0.22296(18) 0.92234(12)
H26 H 0.55670 0.16760 0.91510
H27 H 0.51830 0.27200 0.96730
C24 C 0.1914(2) 0.40967(18) 0.89371(15)
H28 H 0.17820 0.45030 0.84330
H29 H 0.21940 0.45940 0.93580
H30 H 0.11940 0.37630 0.91160
#END
