
#######################################################################
#
#                 Cambridge Crystallographic Data Centre
#                                CCDC
#
#######################################################################
#
# If this CIF has been generated from an entry in the Cambridge
# Structural Database, then it will include bibliographic, chemical,
# crystal, experimental, refinement or atomic coordinate data resulting
# from the CCDC's data processing and validation procedures.
#
#######################################################################

data_CSD_CIF_CARJUB
_audit_creation_date 2005-09-21
_audit_creation_method CSD-ConQuest-V1
_database_code_CSD CARJUB
_database_code_depnum_ccdc_archive 'CCDC 261328'
_chemical_formula_sum 'C19 H21 N1 O6'
_chemical_formula_moiety
;
C19 H21 N1 O6
;
_journal_coden_Cambridge 182
_journal_year 2005
_journal_page_first 2624
_journal_name_full 'Chem.Commun. '
loop_
_publ_author_name
"Chong-Dao Lu"
"Hui Liu"
"Zhi-Yong Chen"
"Wen-Hao Hu"
"Ai-Qiao Mi"
_chemical_name_systematic
;
(2S*,3S*)-Methyl 3-hydroxy-2-isopropoxy-3-(2-nitrophenyl)-2-phenylpropionate
;
_cell_volume   1800.477
_exptl_crystal_colour 'colorless'
_exptl_crystal_density_diffrn 1.326
_exptl_crystal_description 'prism'
_diffrn_ambient_temperature 294
#These two values have been output from a single CSD field.
_refine_ls_R_factor_gt 0.0399
_refine_ls_wR_factor_gt 0.0399
_symmetry_cell_setting monoclinic
_symmetry_space_group_name_H-M 'P 21/c'
_symmetry_Int_Tables_number 14
loop_
_symmetry_equiv_pos_site_id
_symmetry_equiv_pos_as_xyz
1 x,y,z
2 -x,1/2+y,1/2-z
3 -x,-y,-z
4 x,-1/2-y,-1/2+z
_cell_length_a 13.289(2)
_cell_length_b 8.1727(12)
_cell_length_c 16.588(3)
_cell_angle_alpha 90
_cell_angle_beta 91.999(3)
_cell_angle_gamma 90
_cell_formula_units_Z 4
loop_
_atom_type_symbol
_atom_type_radius_bond
C 0.68
H 0.23
N 0.68
O 0.68
loop_
_atom_site_label
_atom_site_type_symbol
_atom_site_fract_x
_atom_site_fract_y
_atom_site_fract_z
O1 O 0.09320(8) 0.64293(12) 0.59902(6)
H1 H 0.06590 0.69270 0.56130
O2 O 0.06162(9) 0.18631(16) 0.48899(7)
O3 O 0.16822(10) 0.00585(15) 0.52892(8)
O4 O 0.27445(7) 0.36260(11) 0.52013(6)
O5 O 0.32555(9) 0.72061(16) 0.46466(7)
O6 O 0.16596(8) 0.65277(12) 0.43497(6)
N1 N 0.11722(9) 0.12606(15) 0.54079(7)
C1 C 0.24550(9) 0.51896(16) 0.54918(8)
C2 C 0.13284(9) 0.49338(16) 0.57060(8)
H2 H 0.0942(6) 0.4593(6) 0.5219(8)
C3 C 0.12169(9) 0.36498(16) 0.63564(8)
C4 C 0.1199(1) 0.19664(17) 0.62253(8)
C5 C 0.11628(12) 0.08307(19) 0.68446(9)
H3 H 0.11730 -0.02840 0.67330
C6 C 0.11120(14) 0.1379(2) 0.76272(10)
H4 H 0.10780 0.06350 0.80500
C7 C 0.11118(13) 0.3037(2) 0.77811(9)
H5 H 0.10710 0.34090 0.83090
C8 C 0.11715(11) 0.41482(19) 0.71579(8)
H6 H 0.11820 0.52610 0.72760
C9 C 0.30777(9) 0.57720(17) 0.62270(8)
C10 C 0.35007(11) 0.4646(2) 0.67683(9)
H7 H 0.34530 0.35330 0.66580
C11 C 0.39949(13) 0.5174(3) 0.74743(10)
H8 H 0.42800 0.44120 0.78300
C12 C 0.40645(14) 0.6818(3) 0.76495(11)
H9 H 0.43910 0.71660 0.81240
C13 C 0.36512(13) 0.7933(3) 0.71221(11)
H10 H 0.37000 0.90450 0.72370
C14 C 0.31593(11) 0.7418(2) 0.64165(9)
H11 H 0.28790 0.81920 0.60640
C15 C 0.25170(11) 0.64473(16) 0.47941(8)
C16 C 0.16563(14) 0.7648(2) 0.36730(9)
H12 H 0.18390 0.87220 0.38600
H13 H 0.09950 0.76810 0.34210
H14 H 0.21320 0.72830 0.32890
C17 C 0.37471(12) 0.3427(2) 0.48902(12)
H15 H 0.4193(9) 0.4277(18) 0.5118(5)
C18 C 0.3710(2) 0.3559(3) 0.39810(14)
H16 H 0.32750 0.27260 0.37570
H17 H 0.43760 0.34200 0.37840
H18 H 0.34570 0.46170 0.38240
C19 C 0.41207(16) 0.1766(3) 0.51653(18)
H19 H 0.40920 0.16920 0.57420
H20 H 0.48030 0.16200 0.50080
H21 H 0.37040 0.09300 0.49210
#END
