
#######################################################################
#
#                 Cambridge Crystallographic Data Centre
#                                CCDC
#
#######################################################################
#
# If this CIF has been generated from an entry in the Cambridge
# Structural Database, then it will include bibliographic, chemical,
# crystal, experimental, refinement or atomic coordinate data resulting
# from the CCDC's data processing and validation procedures.
#
#######################################################################

data_CSD_CIF_CARLIQ
_audit_creation_date 1984-06-02
_audit_creation_method CSD-ConQuest-V1
_database_code_CSD CARLIQ
_database_code_depnum_ccdc_archive 'CCDC 1120408'
_chemical_formula_sum 'C26 H34 N4 O5'
_chemical_formula_moiety
;
C26 H34 N4 O5
;
_journal_coden_Cambridge 35
_journal_volume 48
_journal_year 1983
_journal_page_first 3615
_journal_name_full 'J.Org.Chem. '
loop_
_publ_author_name
"S.Danishefsky"
"S.Chackalamannil"
"M.Silvestri"
"J.Springer"
_chemical_name_systematic
;
5,6-Dimethyl-12-isopropyl-11-(2,4-dinitrophenylhydrazone)-tricyclo(8.4.0.0^1,6
^)tetradec-11-en-2-one
;
_chemical_melting_point 516.15
_cell_volume   2485.992
_exptl_special_details
;
Melts with decomposition.

;
_diffrn_ambient_temperature ?
_diffrn_special_details
;
The study was carried out at room temperature,in the range 283-303K

;
#These two values have been output from a single CSD field.
_refine_ls_R_factor_gt 0.04
_refine_ls_wR_factor_gt 0.04
_symmetry_cell_setting monoclinic
_symmetry_space_group_name_H-M 'P 21/c'
_symmetry_Int_Tables_number 14
loop_
_symmetry_equiv_pos_site_id
_symmetry_equiv_pos_as_xyz
1 x,y,z
2 -x,1/2+y,1/2-z
3 -x,-y,-z
4 x,-1/2-y,-1/2+z
_cell_length_a 12.860(1)
_cell_length_b 10.574(3)
_cell_length_c 19.108(3)
_cell_angle_alpha 90
_cell_angle_beta 106.91(1)
_cell_angle_gamma 90
_cell_formula_units_Z 4
loop_
_atom_type_symbol
_atom_type_radius_bond
C 0.68
H 0.23
N 0.68
O 0.68
loop_
_atom_site_label
_atom_site_type_symbol
_atom_site_fract_x
_atom_site_fract_y
_atom_site_fract_z
C1 C 0.38180 -0.66980 0.41540
C2 C 0.36540 -0.56750 0.46700
C3 C 0.24680 -0.53070 0.45000
C4 C 0.19860 -0.49200 0.36920
C5 C 0.08100 -0.45470 0.35520
C6 C -0.00130 -0.53670 0.33020
C7 C 0.02080 -0.67110 0.31120
C8 C 0.13960 -0.70920 0.32470
C9 C 0.21240 -0.59830 0.31670
C10 C 0.17610 -0.55170 0.23760
C11 C 0.23400 -0.43870 0.22030
C12 C 0.35420 -0.47200 0.23810
C13 C 0.40270 -0.52170 0.31530
C14 C 0.33710 -0.63520 0.33350
C15 C -0.11880 -0.50700 0.32280
C16 C -0.19850 -0.56090 0.25390
C17 C -0.14800 -0.54970 0.39060
O1 O 0.11090 -0.61020 0.18940
C18 C 0.52340 -0.55080 0.32690
C19 C 0.34860 -0.75260 0.28890
C20 C 0.06220 -0.32580 0.37690
N1 N 0.14390 -0.25480 0.40650
N2 N 0.11920 -0.13430 0.42560
C21 C 0.20070 -0.06570 0.46990
C22 C 0.18760 0.05740 0.49600
N3 N 0.08300 0.11970 0.47700
O2 O 0.00510 0.06950 0.43250
O3 O 0.07520 0.22220 0.50540
C23 C 0.27450 0.12340 0.54180
C24 C 0.37470 0.07010 0.56150
N4 N 0.46670 0.13900 0.60890
O4 O 0.55550 0.08740 0.62690
O5 O 0.44950 0.24420 0.62990
C25 C 0.39140 -0.05040 0.53780
C26 C 0.30700 -0.11620 0.49350
H1 H 0.46400 -0.69100 0.42700
H2 H 0.34700 -0.75400 0.42400
H3 H 0.41500 -0.49200 0.46000
H4 H 0.39000 -0.59700 0.51800
H5 H 0.23900 -0.45800 0.48200
H6 H 0.20100 -0.60700 0.46200
H7 H 0.23900 -0.41400 0.36000
H8 H -0.01900 -0.68300 0.25900
H9 H -0.01400 -0.73300 0.33900
H10 H 0.14600 -0.77800 0.28900
H11 H 0.17000 -0.74700 0.37700
H12 H 0.22800 -0.36500 0.25600
H13 H 0.20300 -0.41900 0.16900
H14 H 0.39800 -0.39500 0.22900
H15 H 0.36400 -0.53700 0.20200
H16 H 0.40000 -0.45200 0.35000
H17 H -0.12900 -0.40800 0.31800
H18 H -0.27700 -0.53400 0.25200
H19 H -0.17700 -0.53500 0.20700
H20 H -0.19700 -0.65200 0.25700
H21 H -0.22900 -0.52800 0.38600
H22 H -0.14000 -0.64500 0.39600
H23 H -0.09700 -0.51900 0.43300
H24 H 0.56100 -0.47400 0.31800
H25 H 0.55300 -0.58700 0.37600
H26 H 0.53000 -0.61300 0.29200
H27 H 0.31800 -0.83100 0.30700
H28 H 0.31400 -0.74600 0.23400
H29 H 0.42600 -0.77400 0.29700
H30 H -0.01400 -0.29800 0.37000
H31 H 0.04600 -0.10700 0.41100
H32 H 0.25700 0.21100 0.55900
H33 H 0.46400 -0.08800 0.55400
H34 H 0.31800 -0.20500 0.47600
#END
