
#######################################################################
#
#                 Cambridge Crystallographic Data Centre
#                                CCDC
#
#######################################################################
#
# If this CIF has been generated from an entry in the Cambridge
# Structural Database, then it will include bibliographic, chemical,
# crystal, experimental, refinement or atomic coordinate data resulting
# from the CCDC's data processing and validation procedures.
#
#######################################################################

data_CSD_CIF_CARVOX
_audit_creation_date 1975-08-29
_audit_creation_method CSD-ConQuest-V1
_database_code_CSD CARVOX
_chemical_formula_sum 'C10 H15 N1 O1'
_chemical_formula_moiety
;
C10 H15 N1 O1
;
_journal_coden_Cambridge 189
_journal_volume 4
_journal_year 1975
_journal_page_first 307
_journal_name_full 'Cryst.Struct.Commun. '
loop_
_publ_author_name
"F.Baert"
"R.Fouret"
_chemical_name_systematic
;
DL-Carvoxime
;
_cell_volume    982.885
_exptl_crystal_density_diffrn 1.12
_diffrn_ambient_temperature ?
_diffrn_special_details
;
The study was carried out at room temperature,in the range 283-303K

;
#These two values have been output from a single CSD field.
_refine_ls_R_factor_gt 0.095
_refine_ls_wR_factor_gt 0.095
loop_
_citation_database_id_CSD
_citation_special_details
LCARVX "is a stereoisomer of this entry"
_symmetry_cell_setting monoclinic
_symmetry_space_group_name_H-M 'P 21/c'
_symmetry_Int_Tables_number 14
loop_
_symmetry_equiv_pos_site_id
_symmetry_equiv_pos_as_xyz
1 x,y,z
2 -x,1/2+y,1/2-z
3 -x,-y,-z
4 x,-1/2-y,-1/2+z
_cell_length_a 9.905
_cell_length_b 11.84
_cell_length_c 8.521
_cell_angle_alpha 90
_cell_angle_beta 100.4
_cell_angle_gamma 90
_cell_formula_units_Z 4
loop_
_atom_type_symbol
_atom_type_radius_bond
C 0.68
H 0.23
N 0.68
O 0.68
loop_
_atom_site_label
_atom_site_type_symbol
_atom_site_fract_x
_atom_site_fract_y
_atom_site_fract_z
C1 C -0.03119 0.29647 -0.39096
C2 C -0.53227 0.33337 -0.65808
C3 C -0.11965 0.20906 -0.47325
C4 C -0.26446 0.23695 -0.54748
C5 C -0.27849 0.35623 -0.60016
C6 C -0.21950 0.43988 -0.46882
C7 C -0.07669 0.40091 -0.38800
C8 C 0.10914 0.26427 -0.30391
C9 C -0.42309 0.39025 -0.67771
C10 C -0.43387 0.50014 -0.76864
H1 H -0.63000 0.37000 -0.68800
H2 H -0.51900 0.25100 -0.62500
H3 H -0.30300 0.16200 -0.62500
H4 H -0.34600 0.22500 -0.50000
H5 H -0.21000 0.36600 -0.67200
H6 H -0.23500 0.52900 -0.50000
H7 H -0.29100 0.43700 -0.37500
H8 H -0.02500 0.46200 -0.31300
H9 H 0.15900 0.33700 -0.24500
H10 H 0.16900 0.23200 -0.38700
H11 H 0.10100 0.20100 -0.21700
H12 H -0.41700 0.56900 -0.68600
H13 H -0.35800 0.50200 -0.84400
H14 H -0.53400 0.50700 -0.84000
N1 N -0.06949 0.10959 -0.47215
O1 O -0.16295 0.02674 -0.54656
#END
