
#######################################################################
#
#                 Cambridge Crystallographic Data Centre
#                                CCDC
#
#######################################################################
#
# If this CIF has been generated from an entry in the Cambridge
# Structural Database, then it will include bibliographic, chemical,
# crystal, experimental, refinement or atomic coordinate data resulting
# from the CCDC's data processing and validation procedures.
#
#######################################################################

data_CSD_CIF_CASBOQ
_audit_creation_date 2017-05-24
_audit_creation_method CSD-ConQuest-V1
_database_code_CSD CASBOQ
_database_code_depnum_ccdc_archive 'CCDC 1506998'
_chemical_formula_sum 'C4 H3 N7 O2'
_chemical_formula_moiety
;
C4 H3 N7 O2
;
_journal_coden_Cambridge 122
_journal_volume 52
_journal_year 2016
_journal_page_first 1025
_journal_name_full 'Khim.Get.Soedin.,SSSR(Russ.)(Chem.Heterocycl.Compd.) '
loop_
_publ_author_name
"I.L.Dalinger"
"A.V.Kormanov"
"I.A.Vatsadze"
"O.V.Serushkina"
"T.K.Shkineva"
"K.Yu.Suponitsky"
"A.N.Pivkina"
"A.B.Sheremetev"
_chemical_name_systematic
;
1-(4-nitro-1H-pyrazol-3-yl)-1H-tetrazole
;
_cell_volume    663.649
_exptl_crystal_colour 'pale yellow'
_exptl_crystal_density_diffrn 1.813
_exptl_crystal_description 'prism'
_diffrn_ambient_temperature 100
#These two values have been output from a single CSD field.
_refine_ls_R_factor_gt 0.0328
_refine_ls_wR_factor_gt 0.0328
_symmetry_cell_setting monoclinic
_symmetry_space_group_name_H-M 'P 21/c'
_symmetry_Int_Tables_number 14
loop_
_symmetry_equiv_pos_site_id
_symmetry_equiv_pos_as_xyz
1 x,y,z
2 -x,1/2+y,1/2-z
3 -x,-y,-z
4 x,-1/2-y,-1/2+z
_cell_length_a 8.8484(5)
_cell_length_b 9.5447(6)
_cell_length_c 8.7982(5)
_cell_angle_alpha 90
_cell_angle_beta 116.730(1)
_cell_angle_gamma 90
_cell_formula_units_Z 4
loop_
_atom_type_symbol
_atom_type_radius_bond
C 0.68
H 0.23
N 0.68
O 0.68
loop_
_atom_site_label
_atom_site_type_symbol
_atom_site_fract_x
_atom_site_fract_y
_atom_site_fract_z
O1 O 0.60538(10) 0.04341(9) 0.77875(11)
O2 O 0.86595(10) 0.06017(9) 0.81742(11)
N1 N 0.58802(12) -0.29854(10) 0.49469(12)
N2 N 0.74806(11) -0.29656(10) 0.51051(12)
N3 N 0.98597(11) -0.15073(9) 0.64478(11)
N4 N 1.03768(12) -0.15488(10) 0.52043(12)
N5 N 1.19660(12) -0.12458(10) 0.59400(12)
N6 N 1.25257(12) -0.10035(10) 0.76468(12)
N7 N 0.72616(12) 0.00267(10) 0.75608(12)
C1 C 0.55512(14) -0.19515(12) 0.57722(14)
C2 C 0.70287(13) -0.11804(11) 0.65325(13)
C3 C 0.81803(13) -0.18580(11) 0.60725(13)
C4 C 1.11951(13) -0.11707(12) 0.79252(14)
H1 H 0.514(2) -0.3598(18) 0.432(2)
H2 H 0.447(2) -0.1844(17) 0.576(2)
H3 H 1.1152(19) -0.1083(16) 0.8982(19)
#END
