
#######################################################################
#
#                 Cambridge Crystallographic Data Centre
#                                CCDC
#
#######################################################################
#
# If this CIF has been generated from an entry in the Cambridge
# Structural Database, then it will include bibliographic, chemical,
# crystal, experimental, refinement or atomic coordinate data resulting
# from the CCDC's data processing and validation procedures.
#
#######################################################################

data_CSD_CIF_CASCAD
_audit_creation_date 2017-05-24
_audit_creation_method CSD-ConQuest-V1
_database_code_CSD CASCAD
_database_code_depnum_ccdc_archive 'CCDC 1507000'
_chemical_formula_sum 'C4 H4 N8 O2'
_chemical_formula_moiety
;
C4 H4 N8 O2
;
_journal_coden_Cambridge 122
_journal_volume 52
_journal_year 2016
_journal_page_first 1025
_journal_name_full 'Khim.Get.Soedin.,SSSR(Russ.)(Chem.Heterocycl.Compd.) '
loop_
_publ_author_name
"I.L.Dalinger"
"A.V.Kormanov"
"I.A.Vatsadze"
"O.V.Serushkina"
"T.K.Shkineva"
"K.Yu.Suponitsky"
"A.N.Pivkina"
"A.B.Sheremetev"
_chemical_name_systematic
;
4-nitro-3-(1H-tetrazol-1-yl)-1H-pyrazol-1-amine
;
_cell_volume   1569.112
_exptl_crystal_colour 'pale yellow'
_exptl_crystal_density_diffrn 1.661
_exptl_crystal_description 'prism'
_diffrn_ambient_temperature 100
#These two values have been output from a single CSD field.
_refine_ls_R_factor_gt 0.0304
_refine_ls_wR_factor_gt 0.0304
_symmetry_cell_setting orthorhombic
_symmetry_space_group_name_H-M 'P b c a'
_symmetry_Int_Tables_number 61
loop_
_symmetry_equiv_pos_site_id
_symmetry_equiv_pos_as_xyz
1 x,y,z
2 1/2-x,-y,1/2+z
3 -x,1/2+y,1/2-z
4 1/2+x,1/2-y,-z
5 -x,-y,-z
6 -1/2+x,y,-1/2-z
7 x,-1/2-y,-1/2+z
8 -1/2-x,-1/2+y,z
_cell_length_a 7.7051(3)
_cell_length_b 10.2028(4)
_cell_length_c 19.9598(8)
_cell_angle_alpha 90
_cell_angle_beta 90
_cell_angle_gamma 90
_cell_formula_units_Z 8
loop_
_atom_type_symbol
_atom_type_radius_bond
C 0.68
H 0.23
N 0.68
O 0.68
loop_
_atom_site_label
_atom_site_type_symbol
_atom_site_fract_x
_atom_site_fract_y
_atom_site_fract_z
O1 O 0.06235(10) 0.31857(9) 0.03807(4)
O2 O 0.05959(11) 0.16992(9) 0.11656(5)
N1 N 0.57038(11) 0.35720(8) 0.08715(4)
N2 N 0.58378(11) 0.26496(9) 0.13596(4)
N3 N 0.38814(12) 0.11898(8) 0.18833(4)
N4 N 0.39158(17) -0.01089(10) 0.17425(5)
N5 N 0.34654(18) -0.06943(10) 0.22885(5)
N6 N 0.31327(15) 0.01849(10) 0.27880(5)
N7 N 0.13346(12) 0.25252(9) 0.08210(4)
N8 N 0.71068(12) 0.43733(9) 0.06943(5)
C1 C 0.41211(13) 0.36702(10) 0.06022(5)
C2 C 0.31335(13) 0.27482(10) 0.09313(5)
C3 C 0.42527(13) 0.21523(10) 0.13959(5)
C4 C 0.34024(16) 0.13425(11) 0.25244(5)
H1 H 0.3829(19) 0.4269(14) 0.0254(7)
H2 H 0.801(2) 0.3839(15) 0.0604(7)
H3 H 0.737(2) 0.4869(16) 0.1065(7)
H4 H 0.328(2) 0.2150(15) 0.2732(7)
#END
