
#######################################################################
#
#                 Cambridge Crystallographic Data Centre
#                                CCDC
#
#######################################################################
#
# If this CIF has been generated from an entry in the Cambridge
# Structural Database, then it will include bibliographic, chemical,
# crystal, experimental, refinement or atomic coordinate data resulting
# from the CCDC's data processing and validation procedures.
#
#######################################################################

data_CSD_CIF_CASCOP
_audit_creation_date 2005-09-21
_audit_creation_method CSD-ConQuest-V1
_database_code_CSD CASCOP
_database_code_depnum_ccdc_archive 'CCDC 282343'
_chemical_formula_sum 'C7 H11 N3 O3'
_chemical_formula_moiety
;
C7 H11 N3 O3
;
_journal_coeditor_code "IUCr ER6016"
_journal_coden_Cambridge 1370
_journal_volume 61
_journal_year 2005
_journal_page_first o2347
_journal_name_full 'Acta Crystallogr.,Sect.E:Struct.Rep.Online '
loop_
_publ_author_name
"D.E.Lynch"
"I.McClenaghan"
_chemical_name_systematic
;
5-t-Butyl-4-nitro-1H-pyrazol-3-ol
;
_cell_volume    439.503
_exptl_crystal_colour 'colorless'
_exptl_crystal_density_diffrn 1.399
_exptl_crystal_description 'plate'
_exptl_crystal_preparation 'ethanol'
_diffrn_ambient_temperature 120
#These two values have been output from a single CSD field.
_refine_ls_R_factor_gt 0.0587
_refine_ls_wR_factor_gt 0.0587
_symmetry_cell_setting triclinic
_symmetry_space_group_name_H-M 'P -1'
_symmetry_Int_Tables_number 2
loop_
_symmetry_equiv_pos_site_id
_symmetry_equiv_pos_as_xyz
1 x,y,z
2 -x,-y,-z
_cell_length_a 6.4870(5)
_cell_length_b 6.6560(4)
_cell_length_c 11.5588(8)
_cell_angle_alpha 81.227(4)
_cell_angle_beta 76.733(3)
_cell_angle_gamma 65.037(5)
_cell_formula_units_Z 2
loop_
_atom_type_symbol
_atom_type_radius_bond
C 0.68
H 0.23
N 0.68
O 0.68
loop_
_atom_site_label
_atom_site_type_symbol
_atom_site_fract_x
_atom_site_fract_y
_atom_site_fract_z
N1 N 0.3670(3) 0.1639(3) 0.10021(14)
H1 H 0.438(4) 0.018(4) 0.108(2)
N2 N 0.3749(3) 0.2670(3) -0.01267(14)
C1 C 0.2598(3) 0.4796(3) 0.00586(17)
O1 O 0.2342(2) 0.6286(2) -0.08679(12)
H2 H 0.166(4) 0.761(4) -0.059(2)
C2 C 0.1789(3) 0.5110(3) 0.12948(16)
N3 N 0.0462(3) 0.7199(3) 0.17586(15)
O2 O -0.0311(2) 0.7382(2) 0.28295(13)
O3 O 0.0128(3) 0.8841(2) 0.10277(14)
C3 C 0.2535(3) 0.2983(3) 0.18861(17)
C4 C 0.2309(3) 0.2081(3) 0.31659(17)
C5 C 0.3656(4) -0.0443(3) 0.32335(19)
H3 H 0.30380 -0.11200 0.27800
H4 H 0.35000 -0.10180 0.40670
H5 H 0.52940 -0.08070 0.28970
C6 C -0.0255(3) 0.2613(4) 0.36904(19)
H6 H -0.11530 0.42200 0.36160
H7 H -0.04150 0.20930 0.45330
H8 H -0.08320 0.18630 0.32570
C7 C 0.3329(4) 0.3093(4) 0.38784(19)
H9 H 0.49710 0.26960 0.35400
H10 H 0.31660 0.25140 0.47110
H11 H 0.25000 0.47120 0.38390
#END
