
#######################################################################
#
#                 Cambridge Crystallographic Data Centre
#                                CCDC
#
#######################################################################
#
# If this CIF has been generated from an entry in the Cambridge
# Structural Database, then it will include bibliographic, chemical,
# crystal, experimental, refinement or atomic coordinate data resulting
# from the CCDC's data processing and validation procedures.
#
#######################################################################

data_CSD_CIF_CASDEG
_audit_creation_date 2005-09-21
_audit_creation_method CSD-ConQuest-V1
_database_code_CSD CASDEG
_database_code_depnum_ccdc_archive 'CCDC 282346'
_chemical_formula_sum 'C31 H28 N2 O2'
_chemical_formula_moiety
;
C31 H28 N2 O2
;
_journal_coeditor_code "IUCr FL6171"
_journal_coden_Cambridge 1370
_journal_volume 61
_journal_year 2005
_journal_page_first o2458
_journal_name_full 'Acta Crystallogr.,Sect.E:Struct.Rep.Online '
loop_
_publ_author_name
"J.Suresh"
"V.P.A.Raja"
"R.V.Krishnakumar"
"S.Natarajan"
"S.Perumal"
"A.Mostad"
_chemical_name_systematic
;
2,6-bis(2-Methylphenyl)-1-nitroso-3,5-diphenylpiperidin-4-one
;
_chemical_melting_point 495
_cell_volume   2452.175
_exptl_crystal_colour 'colorless'
_exptl_crystal_density_diffrn 1.247
_exptl_crystal_description 'block'
_exptl_crystal_preparation 'ethyl acetate'
_diffrn_ambient_temperature 105
#These two values have been output from a single CSD field.
_refine_ls_R_factor_gt 0.0381
_refine_ls_wR_factor_gt 0.0381
_symmetry_cell_setting monoclinic
_symmetry_space_group_name_H-M 'P 21/c'
_symmetry_Int_Tables_number 14
loop_
_symmetry_equiv_pos_site_id
_symmetry_equiv_pos_as_xyz
1 x,y,z
2 -x,1/2+y,1/2-z
3 -x,-y,-z
4 x,-1/2-y,-1/2+z
_cell_length_a 10.7715(4)
_cell_length_b 11.0565(4)
_cell_length_c 20.9841(7)
_cell_angle_alpha 90
_cell_angle_beta 101.121(2)
_cell_angle_gamma 90
_cell_formula_units_Z 4
loop_
_atom_type_symbol
_atom_type_radius_bond
C 0.68
H 0.23
N 0.68
O 0.68
loop_
_atom_site_label
_atom_site_type_symbol
_atom_site_fract_x
_atom_site_fract_y
_atom_site_fract_z
O1 O 0.65059(7) 0.06887(7) -0.12994(4)
O2 O 0.95073(7) 0.38899(7) 0.04016(3)
N1 N 0.70318(7) 0.25576(7) -0.11045(4)
N2 N 0.61298(8) 0.17145(8) -0.12026(4)
C1 C 0.66476(8) 0.37397(8) -0.08760(4)
H1 H 0.57270 0.36790 -0.08610
C2 C 0.67890(8) 0.47739(8) -0.13417(4)
C3 C 0.60280(9) 0.48010(9) -0.19703(5)
C4 C 0.62293(10) 0.57189(10) -0.23971(5)
H2 H 0.57290 0.57370 -0.28230
C5 C 0.71440(11) 0.66054(10) -0.22142(6)
H3 H 0.72860 0.72040 -0.25170
C6 C 0.78478(10) 0.66087(9) -0.15868(5)
H4 H 0.84540 0.72270 -0.14530
C7 C 0.76626(9) 0.57042(9) -0.11553(5)
H5 H 0.81400 0.57180 -0.07240
C8 C 0.50166(10) 0.38755(11) -0.22044(5)
H6 H 0.44220 0.41990 -0.25790
H7 H 0.45620 0.36890 -0.18540
H8 H 0.54080 0.31370 -0.23330
C9 C 0.73663(8) 0.39009(8) -0.01673(4)
H9 H 0.72530 0.47590 -0.00400
C10 C 0.68112(8) 0.30928(9) 0.02961(4)
C11 C 0.59800(9) 0.35882(10) 0.06595(5)
H10 H 0.58120 0.44320 0.06370
C12 C 0.53932(10) 0.28599(11) 0.10557(5)
H11 H 0.48330 0.32100 0.13020
C13 C 0.56233(10) 0.16273(10) 0.10909(5)
H12 H 0.52060 0.11280 0.13520
C14 C 0.64658(11) 0.11259(10) 0.07432(5)
H13 H 0.66370 0.02830 0.07720
C15 C 0.70622(10) 0.18541(9) 0.03517(5)
H14 H 0.76470 0.15040 0.01200
C16 C 0.87922(8) 0.36764(8) -0.01046(4)
C17 C 0.92476(8) 0.32160(8) -0.07097(4)
H15 H 0.91750 0.39110 -0.10200
C18 C 1.06218(8) 0.28283(8) -0.05792(4)
C19 C 1.14359(10) 0.32859(10) -0.09595(5)
H16 H 1.11300 0.38490 -0.12950
C20 C 1.27007(10) 0.29235(12) -0.08513(6)
H17 H 1.32470 0.32320 -0.11180
C21 C 1.3165(1) 0.21168(11) -0.03573(6)
H18 H 1.40290 0.18800 -0.02820
C22 C 1.23617(10) 0.16574(10) 0.00262(5)
H19 H 1.26750 0.11040 0.03660
C23 C 1.10939(9) 0.20069(9) -0.00865(5)
H20 H 1.05460 0.16830 0.01750
C24 C 0.83752(8) 0.21999(8) -0.10559(4)
H21 H 0.85260 0.14590 -0.07780
C25 C 0.86567(9) 0.18806(8) -0.17207(4)
C26 C 0.92087(10) 0.07676(9) -0.18318(5)
C27 C 0.94288(12) 0.05276(11) -0.24557(5)
H22 H 0.98100 -0.02180 -0.25360
C28 C 0.91049(11) 0.13488(11) -0.29600(5)
H23 H 0.92540 0.11610 -0.33810
C29 C 0.85619(10) 0.24449(11) -0.28462(5)
H24 H 0.83350 0.30120 -0.31890
C30 C 0.83509(9) 0.27099(9) -0.22274(5)
H25 H 0.79930 0.34680 -0.21490
C31 C 0.95430(12) -0.01778(10) -0.13094(6)
H26 H 0.98860 -0.08930 -0.14900
H27 H 0.87830 -0.04040 -0.11450
H28 H 1.01780 0.01490 -0.09530
#END
