
#######################################################################
#
#                 Cambridge Crystallographic Data Centre
#                                CCDC
#
#######################################################################
#
# If this CIF has been generated from an entry in the Cambridge
# Structural Database, then it will include bibliographic, chemical,
# crystal, experimental, refinement or atomic coordinate data resulting
# from the CCDC's data processing and validation procedures.
#
#######################################################################

data_CSD_CIF_CASQOE
_audit_creation_date 2012-08-03
_audit_creation_method CSD-ConQuest-V1
_database_code_CSD CASQOE
_database_code_depnum_ccdc_archive 'CCDC 771226'
_chemical_formula_sum 'C16 H20 N2 O4'
_chemical_formula_moiety
;
C16 H20 N2 O4
;
_journal_coden_Cambridge 923
_journal_volume 41
_journal_year 2011
_journal_page_first 1249
_journal_name_full 'Synth.React.Inorg.,Met.-Org.,Nano-Met.Chem. '
loop_
_publ_author_name
"N.Karabocek"
"M.Armutcu"
"S.Karabocek"
"H.Tanak"
"S.Isik"
"O.Baskan"
_chemical_name_systematic
;
3,3'-(1,2-Phenylenebis(methyleneoxynitrilo))dibutan-2-one
;
_chemical_name_common
;
(E,E)-Butane-2,3-dione 2,2'-(O,O'(1,2-phenylenebis(methylene))oxime)
;
_chemical_melting_point 333.15
_cell_volume    823.794
_exptl_crystal_colour 'colorless'
_exptl_crystal_density_diffrn 1.227
_exptl_crystal_description 'prism'
_diffrn_ambient_temperature 296
#These two values have been output from a single CSD field.
_refine_ls_R_factor_gt 0.0493
_refine_ls_wR_factor_gt 0.0493
_symmetry_cell_setting triclinic
_symmetry_space_group_name_H-M 'P -1'
_symmetry_Int_Tables_number 2
loop_
_symmetry_equiv_pos_site_id
_symmetry_equiv_pos_as_xyz
1 x,y,z
2 -x,-y,-z
_cell_length_a 8.589(7)
_cell_length_b 10.015(6)
_cell_length_c 10.939(6)
_cell_angle_alpha 106.77(4)
_cell_angle_beta 96.68(5)
_cell_angle_gamma 109.74(5)
_cell_formula_units_Z 2
loop_
_atom_type_symbol
_atom_type_radius_bond
C 0.68
H 0.23
N 0.68
O 0.68
loop_
_atom_site_label
_atom_site_type_symbol
_atom_site_fract_x
_atom_site_fract_y
_atom_site_fract_z
H1 H 0.342(2) -0.2523(19) 0.2766(17)
H2 H 0.500(2) -0.304(2) 0.2963(18)
H3 H 0.373(3) 0.009(2) 0.165(2)
H4 H 0.276(3) -0.056(3) 0.271(2)
O1 O 0.33027(14) 0.15732(13) 0.31578(12)
O2 O 0.46382(15) -0.25329(12) 0.13131(11)
N1 N 0.33982(17) -0.39494(15) 0.05234(14)
N2 N 0.17381(17) 0.13484(16) 0.24296(14)
C1 C 0.53584(19) 0.05226(18) 0.34478(15)
C2 C 0.5785(2) -0.07031(18) 0.34584(15)
C3 C 0.3481(2) -0.42624(19) -0.06791(16)
C4 C 0.1401(2) 0.2527(2) 0.28406(18)
C5 C 0.4594(2) -0.23068(19) 0.26716(16)
C6 C 0.3667(2) 0.0258(2) 0.2649(2)
C7 C 0.6533(2) 0.19865(19) 0.41766(17)
H5 H 0.62660 0.28100 0.41690
O3 O 0.2277(2) -0.61855(19) -0.27298(15)
C8 C 0.2190(2) -0.5753(2) -0.15937(19)
C9 C 0.7345(2) -0.0430(2) 0.41924(18)
H6 H 0.76340 -0.12440 0.41990
C10 C 0.8088(2) 0.2229(2) 0.49095(18)
H7 H 0.88580 0.32110 0.53950
C11 C -0.0236(3) 0.2425(3) 0.2099(2)
C12 C 0.8497(2) 0.1030(2) 0.49221(19)
H8 H 0.95430 0.11910 0.54180
O4 O -0.0491(2) 0.3575(2) 0.2286(2)
C13 C -0.1483(3) 0.0921(3) 0.1165(2)
H9 H -0.24610 0.10360 0.07630
H10 H -0.18280 0.02360 0.16330
H11 H -0.09610 0.05230 0.04970
C14 C 0.4724(3) -0.3299(3) -0.1206(2)
H12 H 0.54690 -0.23840 -0.05050
H13 H 0.41320 -0.30530 -0.18530
H14 H 0.53820 -0.38330 -0.16050
C15 C 0.2503(3) 0.3958(2) 0.3947(3)
H15 H 0.35000 0.38510 0.43260
H16 H 0.18810 0.41610 0.46050
H17 H 0.28350 0.47810 0.36230
C16 C 0.0835(3) -0.6669(3) -0.1099(3)
H18 H 0.01090 -0.75900 -0.18020
H19 H 0.01740 -0.61030 -0.07680
H20 H 0.13450 -0.69080 -0.04060
#END
