
#######################################################################
#
#                 Cambridge Crystallographic Data Centre
#                                CCDC
#
#######################################################################
#
# If this CIF has been generated from an entry in the Cambridge
# Structural Database, then it will include bibliographic, chemical,
# crystal, experimental, refinement or atomic coordinate data resulting
# from the CCDC's data processing and validation procedures.
#
#######################################################################

data_CSD_CIF_CASTEV
_audit_creation_date 1984-08-24
_audit_creation_method CSD-ConQuest-V1
_database_code_CSD CASTEV
_database_code_depnum_ccdc_archive 'CCDC 1120623'
_chemical_formula_sum 'C21 H22 N2 O7'
_chemical_formula_moiety
;
C21 H22 N2 O7
;
_journal_coden_Cambridge 16
_journal_volume 39
_journal_year 1983
_journal_page_first 3833
_journal_name_full 'Tetrahedron '
loop_
_publ_author_name
"A.M.Lobo"
"S.Prabhakar"
"H.S.Rzepa"
"A.C.Skapski"
"M.R.Tavares"
"D.A.Widdowson"
_chemical_name_systematic
;
C,N-bis(3,4-Dimethoxyphenyl)-C-(succinimidyl)-nitrone
;
_chemical_melting_point 458.15
_cell_volume   2060.973
_exptl_crystal_density_diffrn 1.333
_exptl_special_details
;
Melts with decomposition.

;
_diffrn_ambient_temperature ?
_diffrn_special_details
;
The study was carried out at room temperature,in the range 283-303K

;
#These two values have been output from a single CSD field.
_refine_ls_R_factor_gt 0.039
_refine_ls_wR_factor_gt 0.039
_symmetry_cell_setting monoclinic
_symmetry_space_group_name_H-M 'P 21/n'
_symmetry_Int_Tables_number 14
loop_
_symmetry_equiv_pos_site_id
_symmetry_equiv_pos_as_xyz
1 x,y,z
2 1/2-x,1/2+y,1/2-z
3 -x,-y,-z
4 -1/2+x,-1/2-y,-1/2+z
_cell_length_a 11.778(1)
_cell_length_b 10.158(1)
_cell_length_c 18.119(2)
_cell_angle_alpha 90
_cell_angle_beta 108.06(1)
_cell_angle_gamma 90
_cell_formula_units_Z 4
loop_
_atom_type_symbol
_atom_type_radius_bond
C 0.68
H 0.23
N 0.68
O 0.68
loop_
_atom_site_label
_atom_site_type_symbol
_atom_site_fract_x
_atom_site_fract_y
_atom_site_fract_z
O1 O -0.08360 0.59670 0.13500
N1 N -0.02850 0.49260 0.16790
C1 C 0.03010 0.48540 0.24209
C2 C 0.04070 0.59160 0.29774
C3 C -0.03350 0.70310 0.28123
C4 C -0.02140 0.79990 0.33600
O2 O -0.09100 0.90980 0.32614
C5 C -0.17390 0.93400 0.25236
C6 C 0.06460 0.78860 0.40891
O3 O 0.06550 0.88900 0.45878
C7 C 0.14740 0.88100 0.53531
C8 C 0.13700 0.67980 0.42503
C9 C 0.12540 0.58180 0.37028
C10 C -0.03670 0.38350 0.11392
C11 C -0.13770 0.30580 0.09509
C12 C -0.15430 0.21310 0.03700
O4 O -0.24870 0.13000 0.01279
C13 C -0.34290 0.14530 0.04593
C14 C -0.06960 0.19960 -0.00211
O5 O -0.09520 0.10670 -0.05897
C15 C -0.00900 0.08720 -0.09878
C16 C 0.02930 0.27800 0.01816
C17 C 0.04590 0.37150 0.07653
N2 N 0.08640 0.36270 0.26794
C18 C 0.03650 0.26680 0.30345
O6 O -0.06070 0.27640 0.31054
C19 C 0.12530 0.15750 0.32831
C20 C 0.22850 0.19500 0.30110
C21 C 0.20070 0.32860 0.26651
O7 O 0.26150 0.39880 0.24082
H1 H 0.08810 0.26850 -0.00820
H2 H 0.19650 0.67160 0.47490
H3 H -0.09300 0.71160 0.23140
H4 H 0.11530 0.42700 0.09020
H5 H -0.19560 0.31600 0.12200
H6 H 0.23670 0.13350 0.26280
H7 H 0.30090 0.19680 0.34400
H8 H -0.03900 0.01630 -0.13460
H9 H 0.06800 0.06370 -0.06400
H10 H -0.00180 0.16510 -0.12700
H11 H 0.17650 0.50610 0.38270
H12 H 0.09100 0.07610 0.30490
H13 H 0.15080 0.14860 0.38380
H14 H -0.23370 0.86630 0.23900
H15 H -0.13630 0.94040 0.21250
H16 H -0.21060 1.01660 0.25710
H17 H -0.40140 0.08060 0.02050
H18 H -0.37530 0.23180 0.03220
H19 H -0.32190 0.13390 0.10110
H20 H 0.13030 0.95470 0.56330
H21 H 0.23010 0.88270 0.53800
H22 H 0.13060 0.80060 0.55790
#END
