
#######################################################################
#
#                 Cambridge Crystallographic Data Centre
#                                CCDC
#
#######################################################################
#
# If this CIF has been generated from an entry in the Cambridge
# Structural Database, then it will include bibliographic, chemical,
# crystal, experimental, refinement or atomic coordinate data resulting
# from the CCDC's data processing and validation procedures.
#
#######################################################################

data_CSD_CIF_CASYIG
_audit_creation_date 2012-07-18
_audit_creation_method CSD-ConQuest-V1
_database_code_CSD CASYIG
_database_code_depnum_ccdc_archive 'CCDC 776466'
_chemical_formula_sum 'C4 H6 N4 O6'
_chemical_formula_moiety
;
C4 H6 N4 O6
;
_journal_coden_Cambridge 754
_journal_volume 105
_journal_year 2011
_journal_page_first 293
_journal_name_full 'J.Thermal Analysis and Calorimetry '
loop_
_publ_author_name
"Kang-Zhen Xu"
"Yong-Shun Chen"
"Min Wang"
"Jin-An Luo"
"Ji-Rong Song"
"Feng-Qi Zhao"
"Rong-Zu Hu"
_chemical_name_systematic
;
2-(Dinitromethylene)imidazolidine-4,5-diol
;
_cell_volume   1482.287
_exptl_crystal_colour 'yellow'
_exptl_crystal_density_diffrn 1.847
_exptl_crystal_description 'block'
_diffrn_ambient_temperature 296
#These two values have been output from a single CSD field.
_refine_ls_R_factor_gt 0.0454
_refine_ls_wR_factor_gt 0.0454
_symmetry_cell_setting monoclinic
_symmetry_space_group_name_H-M 'P 21/c'
_symmetry_Int_Tables_number 14
loop_
_symmetry_equiv_pos_site_id
_symmetry_equiv_pos_as_xyz
1 x,y,z
2 -x,1/2+y,1/2-z
3 -x,-y,-z
4 x,-1/2-y,-1/2+z
_cell_length_a 11.560(2)
_cell_length_b 7.5553(15)
_cell_length_c 17.164(3)
_cell_angle_alpha 90
_cell_angle_beta 98.587(2)
_cell_angle_gamma 90
_cell_formula_units_Z 8
loop_
_atom_type_symbol
_atom_type_radius_bond
C 0.68
H 0.23
N 0.68
O 0.68
loop_
_atom_site_label
_atom_site_type_symbol
_atom_site_fract_x
_atom_site_fract_y
_atom_site_fract_z
O1 O 0.38817(15) 0.2013(3) 0.1429(1)
O2 O 0.32769(15) 0.2440(3) 0.25342(9)
O3 O 0.11403(15) 0.1402(2) 0.24613(9)
O4 O -0.00034(13) 0.2566(2) 0.14923(10)
O5 O 0.22709(14) 0.5169(2) -0.08243(9)
H1 H 0.27880 0.52860 -0.10990
O6 O 0.03789(12) 0.14143(19) -0.10604(8)
H2 H 0.07630 0.05880 -0.08470
N1 N 0.30759(15) 0.2271(2) 0.18219(10)
N2 N 0.09939(15) 0.2122(2) 0.18138(10)
N3 N 0.25806(14) 0.2884(2) 0.01104(9)
H3 H 0.33120 0.26980 0.02690
N4 N 0.07028(14) 0.3022(2) 0.01378(9)
H4 H 0.00630 0.31720 0.03290
C1 C 0.19404(17) 0.2409(3) 0.13962(12)
C2 C 0.17524(16) 0.2763(2) 0.05734(11)
C3 C 0.07871(16) 0.3011(3) -0.06986(11)
H5 H 0.03310 0.39980 -0.09570
C4 C 0.20989(16) 0.3370(3) -0.06945(11)
H6 H 0.24190 0.26320 -0.10810
O7 O 0.16125(12) 0.8822(2) 0.01043(9)
O8 O 0.29277(16) 0.9151(3) -0.06468(9)
O9 O 0.48328(17) 0.7599(5) -0.02419(12)
O10 O 0.52973(17) 0.6853(4) 0.09265(12)
O11 O 0.14584(13) 0.5751(2) 0.23558(10)
H7 H 0.08910 0.58920 0.25840
O12 O 0.38113(14) 0.8540(2) 0.31149(9)
H8 H 0.44460 0.83130 0.33780
N5 N 0.26498(14) 0.8640(2) -0.00248(9)
N6 N 0.45787(15) 0.7455(3) 0.04073(10)
N7 N 0.21342(14) 0.7940(2) 0.15724(10)
H9 H 0.15660 0.84610 0.12800
N8 N 0.38909(16) 0.6920(3) 0.19564(9)
H10 H 0.45680 0.64810 0.19220
C5 C 0.34520(17) 0.7892(3) 0.05764(11)
C6 C 0.31650(16) 0.7584(3) 0.13491(11)
C7 C 0.20923(17) 0.7328(3) 0.23749(12)
H11 H 0.17590 0.82340 0.26840
C8 C 0.33908(18) 0.7036(3) 0.26793(11)
H12 H 0.35220 0.59510 0.29930
#END
