
#######################################################################
#
#                 Cambridge Crystallographic Data Centre
#                                CCDC
#
#######################################################################
#
# If this CIF has been generated from an entry in the Cambridge
# Structural Database, then it will include bibliographic, chemical,
# crystal, experimental, refinement or atomic coordinate data resulting
# from the CCDC's data processing and validation procedures.
#
#######################################################################

data_CSD_CIF_CATHOU
_audit_creation_date 2000-01-21
_audit_creation_method CSD-ConQuest-V1
_database_code_CSD CATHOU
_database_code_depnum_ccdc_archive 'CCDC 136592'
_chemical_formula_sum 'C17 H21 N3 O3'
_chemical_formula_moiety
;
C17 H21 N3 O3
;
_journal_coeditor_code "IUCr BM1299"
_journal_coden_Cambridge 591
_journal_volume 55
_journal_year 1999
_journal_page_first 1666
_journal_name_full 'Acta Crystallogr.,Sect.C:Cryst.Struct.Commun. '
loop_
_publ_author_name
"M.Nieger"
"M.Bolte"
_chemical_name_systematic
;
8-Isopropyl-7,10-dimethoxy-3-phenyl-1-oxa-2,6,9-triaza-spiro(4.5)deca-2,6,9-tr
iene
;
_cell_volume   1780.964
_exptl_crystal_colour 'colorless'
_exptl_crystal_density_diffrn 1.176
_exptl_crystal_description 'block'
_diffrn_ambient_temperature ?
_diffrn_special_details
;
The study was carried out at room temperature,in the range 283-303K

;
#These two values have been output from a single CSD field.
_refine_ls_R_factor_gt 0.056
_refine_ls_wR_factor_gt 0.056
_symmetry_cell_setting orthorhombic
_symmetry_space_group_name_H-M 'P 21 21 21'
_symmetry_Int_Tables_number 19
loop_
_symmetry_equiv_pos_site_id
_symmetry_equiv_pos_as_xyz
1 x,y,z
2 1/2-x,-y,1/2+z
3 1/2+x,1/2-y,-z
4 -x,1/2+y,1/2-z
_cell_length_a 10.087(1)
_cell_length_b 12.454(2)
_cell_length_c 14.177(3)
_cell_angle_alpha 90
_cell_angle_beta 90
_cell_angle_gamma 90
_cell_formula_units_Z 4
loop_
_atom_type_symbol
_atom_type_radius_bond
C 0.68
H 0.23
N 0.68
O 0.68
loop_
_atom_site_label
_atom_site_type_symbol
_atom_site_fract_x
_atom_site_fract_y
_atom_site_fract_z
N1 N 0.2584(4) 0.4704(3) 0.3853(2)
C1 C 0.2499(4) 0.3740(3) 0.4086(3)
C2 C 0.3183(4) 0.3187(3) 0.4888(3)
N2 N 0.4125(3) 0.3844(2) 0.5384(2)
C3 C 0.4196(4) 0.4823(3) 0.5157(3)
C4 C 0.3417(4) 0.5404(3) 0.4419(3)
H1 H 0.40640 0.57240 0.39870
O1 O 0.3939(2) 0.22994(17) 0.44749(18)
N3 N 0.3688(3) 0.1350(2) 0.4990(2)
C5 C 0.2771(4) 0.1515(3) 0.5583(3)
C6 C 0.2241(4) 0.2640(3) 0.5576(3)
H2 H 0.22850 0.29640 0.61970
H3 H 0.13330 0.26630 0.53510
O2 O 0.1704(3) 0.3034(2) 0.3631(2)
C7 C 0.0848(5) 0.3471(4) 0.2927(3)
H4 H 0.02940 0.40120 0.32040
H5 H 0.03040 0.29100 0.26700
H6 H 0.13710 0.37840 0.24330
O3 O 0.5062(3) 0.5476(2) 0.5597(2)
C8 C 0.5912(5) 0.4995(3) 0.6295(4)
H7 H 0.53800 0.46620 0.67740
H8 H 0.64590 0.55390 0.65750
H9 H 0.64630 0.44630 0.60000
C9 C 0.2586(6) 0.6343(3) 0.4821(4)
H10 H 0.31840 0.68180 0.51700
C10 C 0.1549(5) 0.5916(4) 0.5510(4)
H11 H 0.09350 0.54630 0.51790
H12 H 0.10810 0.65070 0.57890
H13 H 0.19810 0.55080 0.59960
C11 C 0.1949(8) 0.6990(4) 0.4041(5)
H14 H 0.13720 0.65360 0.36800
H15 H 0.26250 0.72790 0.36380
H16 H 0.14450 0.75680 0.43110
C12 C 0.2291(4) 0.0656(3) 0.6196(3)
C13 C 0.2793(5) -0.0385(3) 0.6119(3)
H17 H 0.34340 -0.05390 0.56680
C14 C 0.2347(7) -0.1179(4) 0.6702(5)
H18 H 0.26840 -0.18710 0.66430
C15 C 0.1414(8) -0.0965(5) 0.7368(5)
H19 H 0.11240 -0.15110 0.77650
C16 C 0.0898(7) 0.0045(6) 0.7461(4)
H20 H 0.02650 0.01920 0.79200
C17 C 0.1343(5) 0.0857(4) 0.6851(4)
H21 H 0.09830 0.15430 0.68970
#END
