
#######################################################################
#
#                 Cambridge Crystallographic Data Centre
#                                CCDC
#
#######################################################################
#
# If this CIF has been generated from an entry in the Cambridge
# Structural Database, then it will include bibliographic, chemical,
# crystal, experimental, refinement or atomic coordinate data resulting
# from the CCDC's data processing and validation procedures.
#
#######################################################################

data_CSD_CIF_CATJIQ
_audit_creation_date 1984-08-24
_audit_creation_method CSD-ConQuest-V1
_database_code_CSD CATJIQ
_database_code_depnum_ccdc_archive 'CCDC 1120707'
_chemical_formula_sum 'C6 H8 N8 O12'
_chemical_formula_moiety
;
C6 H8 N8 O12
;
_journal_coeditor_code "IUCr A22844"
_journal_coden_Cambridge 591
_journal_volume 39
_journal_year 1983
_journal_page_first 1680
_journal_name_full 'Acta Crystallogr.,Sect.C:Cryst.Struct.Commun. '
loop_
_publ_author_name
"H.L.Ammon"
"R.D.Gilardi"
"S.K.Bhattacharjee"
_chemical_name_systematic
;
1,3,3,5,7,7-Hexanitro-1,5-diazacyclo-octane
;
_cell_volume   1368.626
_exptl_crystal_density_diffrn 1.864
_diffrn_ambient_temperature ?
_diffrn_special_details
;
The study was carried out at room temperature,in the range 283-303K

;
#These two values have been output from a single CSD field.
_refine_ls_R_factor_gt 0.037
_refine_ls_wR_factor_gt 0.037
_symmetry_cell_setting orthorhombic
_symmetry_space_group_name_H-M 'P b c a'
_symmetry_Int_Tables_number 61
loop_
_symmetry_equiv_pos_site_id
_symmetry_equiv_pos_as_xyz
1 x,y,z
2 1/2-x,-y,1/2+z
3 1/2+x,1/2-y,-z
4 -x,1/2+y,1/2-z
5 -x,-y,-z
6 -1/2+x,y,-1/2-z
7 -1/2-x,-1/2+y,z
8 x,-1/2-y,-1/2+z
_cell_length_a 11.289(4)
_cell_length_b 10.205(2)
_cell_length_c 11.880(3)
_cell_angle_alpha 90
_cell_angle_beta 90
_cell_angle_gamma 90
_cell_formula_units_Z 4
loop_
_atom_type_symbol
_atom_type_radius_bond
C 0.68
H 0.23
N 0.68
O 0.68
loop_
_atom_site_label
_atom_site_type_symbol
_atom_site_fract_x
_atom_site_fract_y
_atom_site_fract_z
C1 C 0.37120 -0.01490 -0.09020
C2 C 0.43870 -0.14230 -0.11220
C3 C 0.55410 -0.15970 -0.04580
N1 N 0.38690 0.03450 0.02370
N2 N 0.31150 -0.01140 0.10450
N3 N 0.35740 -0.26080 -0.09200
N4 N 0.46380 -0.15470 -0.23900
O1 O 0.25430 -0.10940 0.08040
O2 O 0.31030 0.04550 0.19420
O3 O 0.38990 -0.34520 -0.02810
O4 O 0.26400 -0.25990 -0.14260
O5 O 0.49140 -0.26410 -0.27080
O6 O 0.45760 -0.05860 -0.29680
H1 H 0.28600 -0.02700 -0.10700
H2 H 0.40400 0.04400 -0.14100
H3 H 0.60500 -0.21900 -0.08800
H4 H 0.53200 -0.19500 0.02800
N1D N 0.61310 -0.03450 -0.02370
C3D C 0.44590 0.15970 0.04580
C1D C 0.62880 0.01490 0.09020
N2D N 0.68850 0.01140 -0.10450
C2D C 0.56130 0.14230 0.11220
H3D H 0.39500 0.21900 0.08800
H4D H 0.46800 0.19500 -0.02800
H1D H 0.71400 0.02700 0.10700
H2D H 0.59600 -0.04400 0.14100
O1D O 0.74570 0.10940 -0.08040
O2D O 0.68970 -0.04550 -0.19420
N3D N 0.64260 0.26080 0.09200
N4D N 0.53620 0.15470 0.23900
O3D O 0.61010 0.34520 0.02810
O4D O 0.73600 0.25990 0.14260
O5D O 0.50860 0.26410 0.27080
O6D O 0.54240 0.05860 0.29680
#END
