
#######################################################################
#
#                 Cambridge Crystallographic Data Centre
#                                CCDC
#
#######################################################################
#
# If this CIF has been generated from an entry in the Cambridge
# Structural Database, then it will include bibliographic, chemical,
# crystal, experimental, refinement or atomic coordinate data resulting
# from the CCDC's data processing and validation procedures.
#
#######################################################################

data_CSD_CIF_CATJUC
_audit_creation_date 1984-08-24
_audit_creation_method CSD-ConQuest-V1
_database_code_CSD CATJUC
_database_code_depnum_ccdc_archive 'CCDC 1120710'
_chemical_formula_sum 'C11 H19 N1 O4'
_chemical_formula_moiety
;
C11 H19 N1 O4
;
_journal_coden_Cambridge 182
_journal_year 1983
_journal_page_first 1460
_journal_name_full 'Chem.Commun. '
loop_
_publ_author_name
"A.P.Kozikowski"
"Y.Kitagawa"
"J.P.Springer"
_chemical_name_systematic
;
(2R,3S,5S,6S)-3-(2,3-O-Isopropylidene-1,2,3-trihydroxy-propyl)-4,5-dimethyl-is
oxazoline
;
_cell_volume   1213.866
_exptl_crystal_density_diffrn 1.256
_diffrn_ambient_temperature ?
_diffrn_special_details
;
The study was carried out at room temperature,in the range 283-303K

;
#These two values have been output from a single CSD field.
_refine_ls_R_factor_gt 0.05
_refine_ls_wR_factor_gt 0.05
_symmetry_cell_setting orthorhombic
_symmetry_space_group_name_H-M 'P 21 21 21'
_symmetry_Int_Tables_number 19
loop_
_symmetry_equiv_pos_site_id
_symmetry_equiv_pos_as_xyz
1 x,y,z
2 1/2+x,1/2-y,-z
3 -x,1/2+y,1/2-z
4 1/2-x,-y,1/2+z
_cell_length_a 7.015(1)
_cell_length_b 8.765(1)
_cell_length_c 19.742(4)
_cell_angle_alpha 90
_cell_angle_beta 90
_cell_angle_gamma 90
_cell_formula_units_Z 4
loop_
_atom_type_symbol
_atom_type_radius_bond
C 0.68
H 0.23
N 0.68
O 0.68
loop_
_atom_site_label
_atom_site_type_symbol
_atom_site_fract_x
_atom_site_fract_y
_atom_site_fract_z
C1 C 1.13660 1.05100 0.42330
C2 C 1.06460 0.93810 0.37010
C3 C 1.06340 0.99520 0.29720
C4 C 1.25850 1.02910 0.27000
C5 C 1.29640 1.09420 0.20070
C6 C 1.51180 1.06220 0.19520
O1 O 1.56590 1.04600 0.26620
N1 N 1.40670 1.00410 0.30580
O2 O 1.01850 1.01490 0.48060
C7 C 0.83570 0.97800 0.45420
C8 C 0.74490 0.86190 0.49970
C9 C 0.71590 1.12110 0.44610
O3 O 0.87100 0.91070 0.38950
O4 O 0.95660 1.13150 0.29010
C10 C 1.17180 1.03000 0.14450
C11 C 1.56480 0.91570 0.15850
H1 H 1.27500 1.03900 0.43600
H2 H 1.12200 1.16200 0.40500
H3 H 1.12000 0.84000 0.36800
H4 H 1.00600 0.90200 0.26700
H5 H 1.27400 1.19300 0.20400
H6 H 1.58600 1.16100 0.17900
H7 H 0.73200 0.88800 0.55300
H8 H 0.83100 0.78800 0.50100
H9 H 0.62200 0.84500 0.47900
H10 H 0.60100 1.08900 0.42400
H11 H 0.79000 1.19400 0.42500
H12 H 0.67400 1.15500 0.49400
H13 H 0.86700 1.11600 0.28900
H14 H 1.05900 1.06500 0.14700
H15 H 1.17700 0.90800 0.14400
H16 H 1.21700 1.08800 0.10200
H17 H 1.69500 0.89600 0.16000
H18 H 1.52800 0.91000 0.10900
H19 H 1.50400 0.82400 0.17900
#END
