
#######################################################################
#
#                 Cambridge Crystallographic Data Centre
#                                CCDC
#
#######################################################################
#
# If this CIF has been generated from an entry in the Cambridge
# Structural Database, then it will include bibliographic, chemical,
# crystal, experimental, refinement or atomic coordinate data resulting
# from the CCDC's data processing and validation procedures.
#
#######################################################################

data_CSD_CIF_CATJIQ01
_audit_creation_date 1989-09-22
_audit_creation_method CSD-ConQuest-V1
_database_code_CSD CATJIQ01
_chemical_formula_sum 'C6 H8 N8 O12'
_chemical_formula_moiety
;
C6 H8 N8 O12
;
_journal_coden_Cambridge 95
_journal_year 1987
_journal_page_first 576
_journal_name_full 'Izv.Akad.Nauk SSSR,Ser.Khim.(Russ.)(Russ.Chem.Bull.) '
loop_
_publ_author_name
"N.G.Zhitomirskaya"
"L.T.Eremenko"
"N.I.Golovina"
"L.O.Atovmyan"
_chemical_name_systematic
;
1,3,3,5,7,7-Hexanitro-1,5-diazacyclo-octane
;
_cell_volume   1364.203
_exptl_crystal_density_diffrn 1.87
_diffrn_ambient_temperature ?
_diffrn_special_details
;
The study was carried out at room temperature,in the range 283-303K

;
#These two values have been output from a single CSD field.
_refine_ls_R_factor_gt 0.057
_refine_ls_wR_factor_gt 0.057
_symmetry_cell_setting orthorhombic
_symmetry_space_group_name_H-M 'P b c a'
_symmetry_Int_Tables_number 61
loop_
_symmetry_equiv_pos_site_id
_symmetry_equiv_pos_as_xyz
1 x,y,z
2 1/2-x,1/2+y,z
3 x,1/2-y,1/2+z
4 1/2-x,-y,1/2+z
5 -x,-y,-z
6 -1/2+x,-1/2-y,-z
7 -x,-1/2+y,-1/2-z
8 -1/2+x,y,-1/2-z
_cell_length_a 11.867(5)
_cell_length_b 10.194(3)
_cell_length_c 11.277(3)
_cell_angle_alpha 90
_cell_angle_beta 90
_cell_angle_gamma 90
_cell_formula_units_Z 4
loop_
_atom_type_symbol
_atom_type_radius_bond
C 0.68
H 0.23
N 0.68
O 0.68
loop_
_atom_site_label
_atom_site_type_symbol
_atom_site_fract_x
_atom_site_fract_y
_atom_site_fract_z
C1 C 0.0902(2) 0.4852(2) 0.1295(2)
C2 C 0.0459(2) 0.3403(2) -0.0536(2)
C3 C 0.1120(2) 0.3573(2) 0.0602(2)
N1 N -0.1047(2) 0.4884(2) 0.1882(2)
N2 N -0.0237(1) 0.5347(2) 0.1132(2)
N3 N 0.0922(2) 0.2390(2) 0.1426(2)
N4 N 0.2390(1) 0.3452(2) 0.0361(2)
O1 O -0.1943(2) 0.5454(2) 0.1893(2)
O2 O -0.0811(2) 0.3907(2) 0.2458(2)
O3 O 0.1424(2) 0.2399(2) 0.2355(2)
O4 O 0.0280(2) 0.1546(2) 0.1096(2)
O5 O 0.2971(1) 0.4412(2) 0.0422(2)
O6 O 0.2701(1) 0.2355(2) 0.0087(2)
H1 H 0.1425(17) 0.5457(20) 0.1019(23)
H2 H 0.1032(20) 0.4681(25) 0.2174(27)
H3 H 0.0900(17) 0.2885(20) -0.1059(23)
H4 H -0.0245(19) 0.3061(24) -0.0306(24)
N2D N 0.0237(1) 0.4653(2) -0.1132(2)
C2D C -0.0459(2) 0.6597(2) 0.0536(2)
C1D C -0.0902(2) 0.5148(2) -0.1295(2)
N1D N 0.1047(2) 0.5116(2) -0.1882(2)
C3D C -0.1120(2) 0.6427(2) -0.0602(2)
H3D H -0.0900(17) 0.7115(20) 0.1059(23)
H4D H 0.0245(19) 0.6939(24) 0.0306(24)
H1D H -0.1425(17) 0.4543(20) -0.1019(23)
H2D H -0.1032(20) 0.5319(25) -0.2174(27)
O1D O 0.1943(2) 0.4546(2) -0.1893(2)
O2D O 0.0811(2) 0.6093(2) -0.2458(2)
N3D N -0.0922(2) 0.7610(2) -0.1426(2)
N4D N -0.2390(1) 0.6548(2) -0.0361(2)
O3D O -0.1424(2) 0.7601(2) -0.2355(2)
O4D O -0.0280(2) 0.8454(2) -0.1096(2)
O5D O -0.2971(1) 0.5588(2) -0.0422(2)
O6D O -0.2701(1) 0.7645(2) -0.0087(2)
#END
