
#######################################################################
#
#                 Cambridge Crystallographic Data Centre
#                                CCDC
#
#######################################################################
#
# If this CIF has been generated from an entry in the Cambridge
# Structural Database, then it will include bibliographic, chemical,
# crystal, experimental, refinement or atomic coordinate data resulting
# from the CCDC's data processing and validation procedures.
#
#######################################################################

data_CSD_CIF_CATXUT
_audit_creation_date 2017-05-25
_audit_creation_method CSD-ConQuest-V1
_database_code_CSD CATXUT
_database_code_depnum_ccdc_archive 'CCDC 1447718'
_chemical_formula_sum 'C26 H14 N8 O10'
_chemical_formula_moiety
;
C26 H14 N8 O10
;
_journal_coden_Cambridge 9
_journal_volume 56
_journal_year 2017
_journal_page_first 5953
_journal_name_full 'Inorg.Chem. '
loop_
_publ_author_name
"Yazhen Wang"
"Feihu Yu"
"Xiao Han"
"Ming Li"
"Yue Tong"
"Jie Ding"
"Hongwei Hou"
_chemical_name_systematic
;
N,N'-bis(5,7-dinitroquinolin-8-yl)terephthalamide
;
_cell_volume   1212.105
_exptl_crystal_colour 'yellow'
_exptl_crystal_density_diffrn 1.634
_exptl_crystal_description 'block'
_diffrn_ambient_temperature 150
#These two values have been output from a single CSD field.
_refine_ls_R_factor_gt 0.0628
_refine_ls_wR_factor_gt 0.0628
_symmetry_cell_setting monoclinic
_symmetry_space_group_name_H-M 'P 21/c'
_symmetry_Int_Tables_number 14
loop_
_symmetry_equiv_pos_site_id
_symmetry_equiv_pos_as_xyz
1 x,y,z
2 -x,1/2+y,1/2-z
3 -x,-y,-z
4 x,-1/2-y,-1/2+z
_cell_length_a 10.9855(8)
_cell_length_b 9.2181(6)
_cell_length_c 12.8539(9)
_cell_angle_alpha 90
_cell_angle_beta 111.377(3)
_cell_angle_gamma 90
_cell_formula_units_Z 2
loop_
_atom_type_symbol
_atom_type_radius_bond
C 0.68
H 0.23
N 0.68
O 0.68
loop_
_atom_site_label
_atom_site_type_symbol
_atom_site_fract_x
_atom_site_fract_y
_atom_site_fract_z
O1 O 0.5744(2) 0.2981(2) 0.20733(18)
H1 H 0.888(4) 0.251(5) 0.761(3)
O2 O 0.7970(2) -0.0433(2) 0.70589(18)
O3 O 0.7860(2) -0.0858(2) 0.45551(18)
N1 N 0.5718(2) 0.3738(3) 0.28435(19)
N2 N 0.8732(2) 0.1864(3) 0.72194(19)
N3 N 0.7896(2) 0.4558(3) 0.69292(19)
C1 C 0.6521(2) 0.3318(3) 0.3991(2)
C2 C 0.6789(2) 0.4305(3) 0.4906(2)
O4 O 0.4982(3) 0.4762(3) 0.2697(2)
C3 C 0.7551(2) 0.3752(3) 0.5977(2)
O5 O 0.9580(2) -0.0068(3) 0.59044(19)
N4 N 0.8459(2) 0.0074(3) 0.52276(19)
C4 C 0.8043(2) 0.2296(3) 0.6130(2)
C5 C 0.8642(3) 0.0514(3) 0.7647(2)
C6 C 0.9367(2) 0.0292(3) 0.8865(2)
C7 C 0.9837(3) -0.1334(3) 1.0436(2)
H2 H 0.97160 -0.22450 1.07300
C8 C 0.9220(3) -0.1045(3) 0.9312(2)
H3 H 0.86860 -0.17690 0.88350
C9 C 0.7807(3) 0.1456(3) 0.5186(2)
C10 C 0.7019(2) 0.1952(3) 0.4123(2)
H4 H 0.68330 0.13320 0.34930
C11 C 0.6400(3) 0.5780(3) 0.4863(2)
H5 H 0.58860 0.62090 0.41700
C12 C 0.6766(3) 0.6574(3) 0.5819(2)
H6 H 0.65160 0.75630 0.57980
C13 C 0.7518(3) 0.5920(3) 0.6840(2)
H7 H 0.77650 0.64920 0.75000
O1B O 1.4256(2) -0.2981(2) 1.79267(18)
H1B H 1.112(4) -0.251(5) 1.239(3)
O2B O 1.2030(2) 0.0433(2) 1.29411(18)
O3B O 1.2140(2) 0.0858(2) 1.54449(18)
N1B N 1.4282(2) -0.3738(3) 1.71565(19)
N2B N 1.1268(2) -0.1864(3) 1.27806(19)
N3B N 1.2104(2) -0.4558(3) 1.30708(19)
C1B C 1.3479(2) -0.3318(3) 1.6009(2)
C2B C 1.3211(2) -0.4305(3) 1.5094(2)
O4B O 1.5018(3) -0.4762(3) 1.7303(2)
C3B C 1.2449(2) -0.3752(3) 1.4023(2)
O5B O 1.0420(2) 0.0068(3) 1.40956(19)
N4B N 1.1541(2) -0.0074(3) 1.47724(19)
C4B C 1.1957(2) -0.2296(3) 1.3870(2)
C5B C 1.1358(3) -0.0514(3) 1.2353(2)
C6B C 1.0633(2) -0.0292(3) 1.1135(2)
C7B C 1.0163(3) 0.1334(3) 0.9564(2)
H2B H 1.02840 0.22450 0.92700
C8B C 1.0780(3) 0.1045(3) 1.0688(2)
H3B H 1.13140 0.17690 1.11650
C9B C 1.2193(3) -0.1456(3) 1.4814(2)
C10B C 1.2981(2) -0.1952(3) 1.5877(2)
H4B H 1.31670 -0.13320 1.65070
C11B C 1.3600(3) -0.5780(3) 1.5137(2)
H5B H 1.41140 -0.62090 1.58300
C12B C 1.3234(3) -0.6574(3) 1.4181(2)
H6B H 1.34840 -0.75630 1.42020
C13B C 1.2482(3) -0.5920(3) 1.3160(2)
H7B H 1.22350 -0.64920 1.25000
#END
