
#######################################################################
#
#                 Cambridge Crystallographic Data Centre
#                                CCDC
#
#######################################################################
#
# If this CIF has been generated from an entry in the Cambridge
# Structural Database, then it will include bibliographic, chemical,
# crystal, experimental, refinement or atomic coordinate data resulting
# from the CCDC's data processing and validation procedures.
#
#######################################################################

data_CSD_CIF_CAVDUB
_audit_creation_date 2017-05-25
_audit_creation_method CSD-ConQuest-V1
_database_code_CSD CAVDUB
_database_code_depnum_ccdc_archive 'CCDC 1051407'
_chemical_formula_sum 'C19 H17 N1 O4'
_chemical_formula_moiety
;
C19 H17 N1 O4
;
_journal_coden_Cambridge 119
_journal_volume 1142
_journal_year 2017
_journal_page_first 239
_journal_name_full 'J.Mol.Struct. '
loop_
_publ_author_name
"Zia Ud Din"
"E.Rodrigues-Filho"
"V.de C.Pereira"
"S.C.J.Gualtieri"
"V.M.Deflon"
"P.I.da S.Maia"
"A.E.Kuznetsov"
_chemical_name_systematic
;
(1E,4E)-1-(4-methoxyphenyl)-2-methyl-5-(4-nitrophenyl)penta-1,4-dien-3-one
;
_chemical_melting_point 418.15
_cell_volume   1623.037
_exptl_crystal_colour 'yellow'
_exptl_crystal_density_diffrn 1.323
_exptl_special_details
;
Melting point range 418.15-419.15K
phytotoxic activity

;
_exptl_crystal_description 'prism'
_diffrn_ambient_temperature 296
#These two values have been output from a single CSD field.
_refine_ls_R_factor_gt 0.0426
_refine_ls_wR_factor_gt 0.0426
_symmetry_cell_setting monoclinic
_symmetry_space_group_name_H-M 'P 21/c'
_symmetry_Int_Tables_number 14
loop_
_symmetry_equiv_pos_site_id
_symmetry_equiv_pos_as_xyz
1 x,y,z
2 -x,1/2+y,1/2-z
3 -x,-y,-z
4 x,-1/2-y,-1/2+z
_cell_length_a 17.8276(9)
_cell_length_b 7.3627(4)
_cell_length_c 12.9740(6)
_cell_angle_alpha 90
_cell_angle_beta 107.623(1)
_cell_angle_gamma 90
_cell_formula_units_Z 4
loop_
_atom_type_symbol
_atom_type_radius_bond
C 0.68
H 0.23
N 0.68
O 0.68
loop_
_atom_site_label
_atom_site_type_symbol
_atom_site_fract_x
_atom_site_fract_y
_atom_site_fract_z
O1 O 0.32238(9) 0.6077(2) 0.50564(11)
O2 O 1.06692(8) 0.1921(2) 0.48751(11)
C1 C 0.77755(11) 0.5754(3) 0.09399(15)
H1 H 0.83000 0.61570 0.13100
H2 H 0.75060 0.66730 0.04390
H3 H 0.77980 0.46530 0.05550
O3 O 0.61923(7) 0.6444(2) 0.04574(9)
O4 O 0.23222(9) 0.5336(2) 0.35943(12)
N1 N 0.29995(10) 0.5741(2) 0.40893(13)
C2 C 0.35777(10) 0.5823(2) 0.34920(13)
C3 C 0.43471(10) 0.6239(2) 0.40453(13)
H4 H 0.44940 0.64910 0.47820
C4 C 0.48959(10) 0.6275(2) 0.34923(12)
H5 H 0.54180 0.65440 0.38610
C5 C 0.46760(9) 0.5912(2) 0.23853(12)
C6 C 0.52407(10) 0.5912(2) 0.17676(12)
H6 H 0.50280 0.58850 0.10190
C7 C 0.60173(10) 0.5944(2) 0.21502(12)
H7 H 0.62610 0.59550 0.28930
C8 C 0.65041(10) 0.5964(2) 0.13970(12)
C9 C 0.73397(10) 0.5411(2) 0.17513(13)
C10 C 0.7646(1) 0.4613(2) 0.27202(13)
H8 H 0.73000 0.45150 0.31280
C11 C 0.8430(1) 0.3874(2) 0.32416(13)
C12 C 0.89843(11) 0.3420(3) 0.27166(15)
H9 H 0.88540 0.35450 0.19700
C13 C 0.97185(12) 0.2793(3) 0.32879(15)
H10 H 1.00780 0.25080 0.29210
C14 C 0.9933(1) 0.2578(3) 0.43985(14)
C15 C 1.09229(12) 0.1687(3) 0.60147(16)
H11 H 1.08980 0.28300 0.63590
H12 H 1.14550 0.12480 0.62410
H13 H 1.05870 0.08250 0.62150
C16 C 0.3335(1) 0.5479(3) 0.24010(14)
H14 H 0.28110 0.52170 0.20400
C17 C 0.3890(1) 0.5532(2) 0.18515(13)
H15 H 0.37340 0.53090 0.11110
C18 C 0.86577(10) 0.3618(3) 0.43599(14)
H16 H 0.82980 0.38770 0.47300
C19 C 0.93943(10) 0.2997(2) 0.49381(14)
H17 H 0.95280 0.28610 0.56840
#END
