
#######################################################################
#
#                 Cambridge Crystallographic Data Centre
#                                CCDC
#
#######################################################################
#
# If this CIF has been generated from an entry in the Cambridge
# Structural Database, then it will include bibliographic, chemical,
# crystal, experimental, refinement or atomic coordinate data resulting
# from the CCDC's data processing and validation procedures.
#
#######################################################################

data_CSD_CIF_CAWWED
_audit_creation_date 2005-12-21
_audit_creation_method CSD-ConQuest-V1
_database_code_CSD CAWWED
_database_code_depnum_ccdc_archive 'CCDC 243006'
_chemical_formula_sum 'C18 H16 N4 O2'
_chemical_formula_moiety
;
C18 H16 N4 O2
;
_journal_coden_Cambridge 177
_journal_volume 3
_journal_year 2005
_journal_page_first 3408
_journal_name_full 'Org.Biomol.Chem. '
loop_
_publ_author_name
"S.Schmid"
"M.Rottgen"
"U.Thewalt"
"V.Austel"
_chemical_name_systematic
;
6-Anilino-2-(N-methylanilino)-3-nitropyridine
;
_chemical_melting_point 396.15
_cell_volume   1628.652
_exptl_crystal_colour 'yellow'
_exptl_crystal_density_diffrn 1.307
_exptl_special_details
;
Melting point range 396.15-398.15K

;
_exptl_crystal_description 'needles'
_exptl_crystal_preparation 'n-pentane/ethyl acetate'
_diffrn_ambient_temperature 293
#These two values have been output from a single CSD field.
_refine_ls_R_factor_gt 0.0415
_refine_ls_wR_factor_gt 0.0415
_symmetry_cell_setting triclinic
_symmetry_space_group_name_H-M 'P -1'
_symmetry_Int_Tables_number 2
loop_
_symmetry_equiv_pos_site_id
_symmetry_equiv_pos_as_xyz
1 x,y,z
2 -x,-y,-z
_cell_length_a 10.113(2)
_cell_length_b 12.417(3)
_cell_length_c 14.105(3)
_cell_angle_alpha 107.48(3)
_cell_angle_beta 95.21(3)
_cell_angle_gamma 102.18(3)
_cell_formula_units_Z 4
loop_
_atom_type_symbol
_atom_type_radius_bond
C 0.68
H 0.23
N 0.68
O 0.68
loop_
_atom_site_label
_atom_site_type_symbol
_atom_site_fract_x
_atom_site_fract_y
_atom_site_fract_z
N1 N 0.44355(15) 0.33582(12) 0.75337(10)
N2 N 0.6369(2) 0.41271(15) 0.56267(13)
N3 N 0.64152(17) 0.48084(14) 0.7866(1)
N4 N 0.24576(18) 0.18675(14) 0.72379(11)
H1 H 0.179(2) 0.1348(18) 0.6748(14)
N5 N 0.95255(16) 0.60443(13) 0.31143(10)
N6 N 1.11212(17) 0.90906(14) 0.47017(12)
N7 N 1.08552(17) 0.74312(13) 0.25976(10)
H2 H 0.783(3) 0.434(2) 0.4030(18)
N8 N 0.81842(19) 0.45624(15) 0.35445(13)
O1 O 0.75648(17) 0.43842(13) 0.60558(11)
O2 O 0.6092(2) 0.40990(18) 0.47463(11)
O3 O 1.17748(16) 0.95838(13) 0.55682(10)
O4 O 1.09125(15) 0.96331(12) 0.41207(10)
C1 C 0.24552(19) 0.16611(15) 0.81641(12)
C2 C 0.3482(2) 0.2192(2) 0.89892(13)
H3 H 0.42550 0.27320 0.89590
C3 C 0.3356(3) 0.1916(2) 0.98681(14)
H4 H 0.40500 0.22770 1.04250
C4 C 0.2239(3) 0.1130(2) 0.99256(15)
H5 H 0.21610 0.09580 1.05190
C5 C 0.1220(3) 0.0587(2) 0.90997(16)
H6 H 0.04570 0.00380 0.91310
C6 C 0.1327(2) 0.08557(18) 0.82285(14)
H7 H 0.06290 0.04900 0.76750
C7 C 0.33644(19) 0.25819(15) 0.69018(12)
C8 C 0.3084(2) 0.24660(17) 0.58716(12)
H8 H 0.22640 0.19920 0.54670
C9 C 0.4051(2) 0.30712(17) 0.54960(13)
H9 H 0.39070 0.30120 0.48190
C10 C 0.52613(19) 0.37825(16) 0.61182(12)
C11 C 0.53793(19) 0.39844(15) 0.71663(12)
C12 C 0.7021(2) 0.58776(16) 0.77096(12)
C13 C 0.8426(2) 0.63139(19) 0.79153(16)
H10 H 0.89850 0.59130 0.81550
C14 C 0.8999(3) 0.7350(2) 0.77634(17)
H11 H 0.99450 0.76510 0.79020
C15 C 0.8167(3) 0.79346(19) 0.74069(15)
H12 H 0.85550 0.86260 0.72960
C16 C 0.6771(3) 0.75087(18) 0.72131(14)
H13 H 0.62140 0.79140 0.69800
C17 C 0.6199(2) 0.64814(17) 0.73638(12)
H14 H 0.52510 0.61910 0.72320
C18 C 0.6550(3) 0.4813(2) 0.89074(14)
H15 H 0.58010 0.50590 0.92050
H16 H 0.74000 0.53410 0.92830
H17 H 0.65360 0.40410 0.89180
C19 C 0.7737(2) 0.36932(17) 0.25950(13)
C20 C 0.7719(3) 0.3897(2) 0.16823(16)
H18 H 0.79910 0.46540 0.16670
C21 C 0.7294(3) 0.2969(2) 0.07931(17)
H19 H 0.73020 0.31110 0.01830
C22 C 0.6867(3) 0.1858(2) 0.07888(18)
H20 H 0.65850 0.12440 0.01830
C23 C 0.6856(2) 0.1651(2) 0.16897(17)
H21 H 0.65550 0.08930 0.16960
C24 C 0.7286(2) 0.25552(18) 0.25806(15)
H22 H 0.72750 0.24020 0.31860
C25 C 0.9037(2) 0.56394(17) 0.38220(13)
C26 C 0.9403(2) 0.62826(18) 0.48619(13)
H23 H 0.91350 0.59510 0.53460
C27 C 1.0153(2) 0.73899(19) 0.51266(13)
H24 H 1.03960 0.78420 0.58040
C28 C 1.05682(19) 0.78641(16) 0.43881(12)
C29 C 1.03150(19) 0.71235(16) 0.33723(12)
C30 C 1.2159(2) 0.82174(15) 0.27433(13)
C31 C 1.2413(2) 0.88639(17) 0.21004(15)
H25 H 1.17250 0.87990 0.15870
C32 C 1.3687(3) 0.96015(19) 0.22262(17)
H26 H 1.38590 1.00200 0.17840
C33 C 1.4713(3) 0.97309(19) 0.29956(18)
H27 H 1.55650 1.02430 0.30810
C34 C 1.4465(2) 0.90968(18) 0.36336(16)
H28 H 1.51490 0.91840 0.41580
C35 C 1.3210(2) 0.83332(17) 0.35030(15)
H29 H 1.30620 0.78890 0.39270
C36 C 1.0246(3) 0.66755(18) 0.15665(13)
H30 H 1.04740 0.59380 0.14430
H31 H 1.05980 0.70390 0.10980
H32 H 0.92680 0.65540 0.14840
#END
