
#######################################################################
#
#                 Cambridge Crystallographic Data Centre
#                                CCDC
#
#######################################################################
#
# If this CIF has been generated from an entry in the Cambridge
# Structural Database, then it will include bibliographic, chemical,
# crystal, experimental, refinement or atomic coordinate data resulting
# from the CCDC's data processing and validation procedures.
#
#######################################################################

data_CSD_CIF_CAWWAZ
_audit_creation_date 2005-12-21
_audit_creation_method CSD-ConQuest-V1
_database_code_CSD CAWWAZ
_database_code_depnum_ccdc_archive 'CCDC 243005'
_chemical_formula_sum 'C23 H24 N4 O4'
_chemical_formula_moiety
;
C23 H24 N4 O4
;
_journal_coden_Cambridge 177
_journal_volume 3
_journal_year 2005
_journal_page_first 3408
_journal_name_full 'Org.Biomol.Chem. '
loop_
_publ_author_name
"S.Schmid"
"M.Rottgen"
"U.Thewalt"
"V.Austel"
_chemical_name_systematic
;
2-Anilino-6-(N-t-butoxycarbonylmethylanilino)-3-nitropyridine
;
_cell_volume   2116.641
_exptl_crystal_colour 'yellow'
_exptl_crystal_density_diffrn 1.319
_exptl_crystal_description 'needles'
_diffrn_ambient_temperature 173
#These two values have been output from a single CSD field.
_refine_ls_R_factor_gt 0.037
_refine_ls_wR_factor_gt 0.037
_symmetry_cell_setting monoclinic
_symmetry_space_group_name_H-M 'P 21/c'
_symmetry_Int_Tables_number 14
loop_
_symmetry_equiv_pos_site_id
_symmetry_equiv_pos_as_xyz
1 x,y,z
2 -x,1/2+y,1/2-z
3 -x,-y,-z
4 x,-1/2-y,-1/2+z
_cell_length_a 7.6072(17)
_cell_length_b 24.695(4)
_cell_length_c 11.851(3)
_cell_angle_alpha 90
_cell_angle_beta 108.06(3)
_cell_angle_gamma 90
_cell_formula_units_Z 4
loop_
_atom_type_symbol
_atom_type_radius_bond
C 0.68
H 0.23
N 0.68
O 0.68
loop_
_atom_site_label
_atom_site_type_symbol
_atom_site_fract_x
_atom_site_fract_y
_atom_site_fract_z
O1 O 0.20353(16) 0.13283(4) 0.18974(11)
O2 O 0.3814(2) 0.12317(4) 0.36941(13)
O3 O 0.00996(13) 0.43862(4) 0.14412(8)
O4 O 0.05095(14) 0.39888(4) 0.32288(9)
N1 N 0.28035(16) 0.30057(4) 0.22199(10)
N2 N 0.3048(2) 0.15263(5) 0.28478(13)
N3 N 0.13910(18) 0.23018(5) 0.09633(11)
H1 H 0.127(3) 0.1945(8) 0.0921(16)
N4 N 0.41494(15) 0.37300(4) 0.33724(10)
C1 C 0.52525(19) 0.39766(5) 0.44638(12)
C2 C 0.7105(2) 0.40706(5) 0.46399(13)
H2 H 0.76530 0.39630 0.40560
C3 C 0.8162(2) 0.43224(6) 0.56711(14)
H3 H 0.94360 0.43900 0.57900
C4 C 0.7378(2) 0.44758(6) 0.65278(14)
H4 H 0.81080 0.46500 0.72330
C5 C 0.5537(2) 0.43755(6) 0.63553(15)
H5 H 0.50000 0.44740 0.69500
C6 C 0.4459(2) 0.41316(6) 0.53203(14)
H6 H 0.31800 0.40710 0.51980
C7 C 0.30632(19) 0.40828(5) 0.24383(13)
H7 H 0.30730 0.39380 0.16620
H8 H 0.36450 0.44460 0.25370
C8 C 0.10731(19) 0.41394(5) 0.24347(12)
C9 C -0.1910(2) 0.44940(6) 0.11925(13)
C10 C -0.2921(2) 0.39643(7) 0.11746(15)
H9 H -0.25380 0.37020 0.06750
H10 H -0.42570 0.40250 0.08530
H11 H -0.26240 0.38220 0.19840
C11 C -0.2433(2) 0.47430(8) -0.00397(16)
H12 H -0.16940 0.50700 -0.00200
H13 H -0.37480 0.48380 -0.02970
H14 H -0.21920 0.44820 -0.05970
C12 C -0.2179(2) 0.48946(6) 0.21002(15)
H15 H -0.16710 0.47420 0.28990
H16 H -0.35010 0.49670 0.19370
H17 H -0.15370 0.52330 0.20500
C13 C 0.39009(19) 0.31813(5) 0.32655(12)
C14 C 0.4778(2) 0.28313(5) 0.42201(14)
H18 H 0.55550 0.29680 0.49550
C15 C 0.4462(2) 0.22925(6) 0.40414(14)
H19 H 0.50220 0.20460 0.46640
C16 C 0.3330(2) 0.20956(5) 0.29601(14)
C17 C 0.2494(2) 0.24728(5) 0.20348(13)
C18 C 0.0419(2) 0.25842(5) -0.00753(13)
C19 C 0.0250(3) 0.31413(6) -0.01937(15)
H20 H 0.08190 0.33690 0.04640
C20 C -0.0751(3) 0.33654(7) -0.12724(15)
H21 H -0.08480 0.37480 -0.13450
C21 C -0.1602(3) 0.30512(7) -0.22357(15)
H22 H -0.23020 0.32110 -0.29660
C22 C -0.1422(3) 0.24960(7) -0.21245(15)
H23 H -0.19880 0.22710 -0.27880
C23 C -0.0432(2) 0.22652(6) -0.10621(14)
H24 H -0.03270 0.18820 -0.10000
#END
