
#######################################################################
#
#                 Cambridge Crystallographic Data Centre
#                                CCDC
#
#######################################################################
#
# If this CIF has been generated from an entry in the Cambridge
# Structural Database, then it will include bibliographic, chemical,
# crystal, experimental, refinement or atomic coordinate data resulting
# from the CCDC's data processing and validation procedures.
#
#######################################################################

data_CSD_CIF_CAWWIH
_audit_creation_date 2005-12-21
_audit_creation_method CSD-ConQuest-V1
_database_code_CSD CAWWIH
_database_code_depnum_ccdc_archive 'CCDC 243007'
_chemical_formula_sum 'C22 H22 N4 O4'
_chemical_formula_moiety
;
C22 H22 N4 O4
;
_journal_coden_Cambridge 177
_journal_volume 3
_journal_year 2005
_journal_page_first 3408
_journal_name_full 'Org.Biomol.Chem. '
loop_
_publ_author_name
"S.Schmid"
"M.Rottgen"
"U.Thewalt"
"V.Austel"
_chemical_name_systematic
;
2-Anilino-6-(N-t-butoxycarbonylanilino)-3-nitropyridine
;
_chemical_melting_point 428.15
_cell_volume   1033.162
_exptl_crystal_colour 'yellow'
_exptl_crystal_density_diffrn 1.307
_exptl_special_details
;
Melting point range 428.15-429.15K

;
_exptl_crystal_description 'needles'
_exptl_crystal_preparation 'n-hexane/ethyl acetate'
_diffrn_ambient_temperature 173
#These two values have been output from a single CSD field.
_refine_ls_R_factor_gt 0.0401
_refine_ls_wR_factor_gt 0.0401
_symmetry_cell_setting triclinic
_symmetry_space_group_name_H-M 'P -1'
_symmetry_Int_Tables_number 2
loop_
_symmetry_equiv_pos_site_id
_symmetry_equiv_pos_as_xyz
1 x,y,z
2 -x,-y,-z
_cell_length_a 8.5952(16)
_cell_length_b 9.790(2)
_cell_length_c 13.308(2)
_cell_angle_alpha 72.57(2)
_cell_angle_beta 83.91(2)
_cell_angle_gamma 75.36(2)
_cell_formula_units_Z 2
loop_
_atom_type_symbol
_atom_type_radius_bond
C 0.68
H 0.23
N 0.68
O 0.68
loop_
_atom_site_label
_atom_site_type_symbol
_atom_site_fract_x
_atom_site_fract_y
_atom_site_fract_z
O1 O 0.38303(16) 0.02863(14) 0.27324(8)
O2 O 0.4427(2) 0.23938(16) 0.21777(9)
O3 O 0.48501(15) 0.32955(14) 0.69824(8)
O4 O 0.28044(14) 0.31405(13) 0.82165(8)
N1 N 0.27739(16) 0.09250(14) 0.57211(9)
N2 N 0.40037(19) 0.14224(16) 0.28892(10)
N3 N 0.26117(18) -0.05463(15) 0.46781(10)
H1 H 0.286(3) -0.073(2) 0.4058(16)
N4 N 0.27824(16) 0.22463(14) 0.68791(9)
C1 C 0.1559(2) 0.15377(18) 0.74883(11)
C2 C 0.1993(2) 0.02240(19) 0.82700(11)
H2 H 0.30930 -0.02120 0.84250
C3 C 0.0796(3) -0.0444(2) 0.88236(13)
H3 H 0.10760 -0.13410 0.93680
C4 C -0.0800(3) 0.0183(2) 0.85912(13)
H4 H -0.16130 -0.02830 0.89740
C5 C -0.1217(2) 0.1485(2) 0.78042(13)
H5 H -0.23140 0.19080 0.76380
C6 C -0.0032(2) 0.21770(19) 0.72548(12)
H6 H -0.03160 0.30850 0.67220
C7 C 0.3619(2) 0.29413(17) 0.73399(11)
C8 C 0.3509(2) 0.35591(18) 0.90170(11)
C9 C 0.4808(3) 0.2253(3) 0.95444(15)
H7 H 0.43630 0.13780 0.98040
H8 H 0.52100 0.24500 1.01370
H9 H 0.56940 0.20850 0.90350
C10 C 0.4097(3) 0.4936(2) 0.85465(15)
H10 H 0.50720 0.47280 0.81120
H11 H 0.43410 0.52950 0.91110
H12 H 0.32630 0.56880 0.81080
C11 C 0.2091(3) 0.3799(3) 0.97691(15)
H13 H 0.12560 0.46410 0.94100
H14 H 0.24390 0.39960 1.03790
H15 H 0.16570 0.29160 1.00060
C12 C 0.31758(19) 0.20754(17) 0.58594(11)
C13 C 0.3857(2) 0.30780(18) 0.50643(11)
H16 H 0.41310 0.38920 0.51910
C14 C 0.4106(2) 0.28248(18) 0.40936(11)
H17 H 0.45560 0.34810 0.35280
C15 C 0.3710(2) 0.16214(17) 0.39262(11)
C16 C 0.30196(19) 0.06527(17) 0.47765(11)
C17 C 0.1828(2) -0.15647(17) 0.54002(11)
C18 C 0.0983(2) -0.13503(18) 0.63132(13)
H18 H 0.09330 -0.04830 0.65100
C19 C 0.0216(2) -0.24153(19) 0.69318(14)
H19 H -0.03490 -0.22740 0.75600
C20 C 0.0251(2) -0.36750(19) 0.66593(14)
H20 H -0.02930 -0.43880 0.70890
C21 C 0.1092(2) -0.38848(19) 0.57512(14)
H21 H 0.11250 -0.47480 0.55550
C22 C 0.1880(2) -0.28501(18) 0.51302(12)
H22 H 0.24650 -0.30110 0.45130
#END
