
#######################################################################
#
#                 Cambridge Crystallographic Data Centre
#                                CCDC
#
#######################################################################
#
# If this CIF has been generated from an entry in the Cambridge
# Structural Database, then it will include bibliographic, chemical,
# crystal, experimental, refinement or atomic coordinate data resulting
# from the CCDC's data processing and validation procedures.
#
#######################################################################

data_CSD_CIF_CAXFUC
_audit_creation_date 1984-08-24
_audit_creation_method CSD-ConQuest-V1
_database_code_CSD CAXFUC
_database_code_depnum_ccdc_archive 'CCDC 1121036'
_chemical_formula_sum 'C9 H16 N1 O2'
_chemical_formula_moiety
;
C9 H16 N1 O2
;
_journal_coeditor_code "IUCr A22834"
_journal_coden_Cambridge 591
_journal_volume 39
_journal_year 1983
_journal_page_first 1656
_journal_name_full 'Acta Crystallogr.,Sect.C:Cryst.Struct.Commun. '
loop_
_publ_author_name
"D.Bordeaux"
"G.Gagnaire"
"J.Lajzerowicz"
"G.Commandeur"
_chemical_name_systematic
;
3,4-Epoxy-2,2,6,6-tetramethyl-piperidine-N-oxide
;
_chemical_melting_point 306
_cell_volume   1939.774
_exptl_crystal_colour 'yellow-orange'
_exptl_crystal_density_diffrn 1.164
_diffrn_ambient_temperature ?
_diffrn_special_details
;
The study was carried out at room temperature,in the range 283-303K

;
#These two values have been output from a single CSD field.
_refine_ls_R_factor_gt 0.09
_refine_ls_wR_factor_gt 0.09
_symmetry_cell_setting monoclinic
_symmetry_space_group_name_H-M 'P 21/c'
_symmetry_Int_Tables_number 14
loop_
_symmetry_equiv_pos_site_id
_symmetry_equiv_pos_as_xyz
1 x,y,z
2 -x,1/2+y,1/2-z
3 -x,-y,-z
4 x,-1/2-y,-1/2+z
_cell_length_a 16.517(4)
_cell_length_b 10.837(3)
_cell_length_c 11.572(3)
_cell_angle_alpha 90
_cell_angle_beta 110.53(2)
_cell_angle_gamma 90
_cell_formula_units_Z 8
loop_
_atom_type_symbol
_atom_type_radius_bond
C 0.68
H 0.23
N 0.68
O 0.68
loop_
_atom_site_label
_atom_site_type_symbol
_atom_site_fract_x
_atom_site_fract_y
_atom_site_fract_z
O1 O 0.41360 0.16590 0.63570
N1 N 0.39790 0.25060 0.70200
C1 C 0.46210 0.35170 0.74190
C2 C 0.43500 0.45000 0.80970
C3 C 0.35930 0.44000 0.84540
C4 C 0.31050 0.32740 0.81930
C5 C 0.31170 0.24570 0.71660
C6 C 0.24360 0.27760 0.59320
C7 C 0.29760 0.11330 0.74990
C8 C 0.46950 0.41360 0.63070
C9 C 0.54530 0.30010 0.82300
O2 O 0.33990 0.50400 0.73220
H1 H 0.48200 0.52000 0.85500
H2 H 0.35800 0.49300 0.92600
H3 H 0.32800 0.27200 0.90500
H4 H 0.24500 0.34300 0.81500
H5 H 0.24300 0.22000 0.51500
H6 H 0.18100 0.27500 0.60100
H7 H 0.25200 0.37200 0.56900
H8 H 0.34600 0.08700 0.83700
H9 H 0.29800 0.05200 0.67300
H10 H 0.23500 0.10700 0.75900
H11 H 0.48800 0.34200 0.57700
H12 H 0.51500 0.48900 0.65400
H13 H 0.40700 0.45300 0.56700
H14 H 0.56800 0.22400 0.77700
H15 H 0.59500 0.37100 0.85300
H16 H 0.54400 0.25300 0.90600
O3 O 0.91200 0.15260 0.28960
N2 N 0.89900 0.23800 0.20900
C10 C 0.81310 0.23850 0.11150
C11 C 0.80130 0.34830 0.02820
C12 C 0.86880 0.42970 0.03180
C13 C 0.95810 0.40140 0.11520
C14 C 0.96600 0.33430 0.23340
C15 C 0.96030 0.41940 0.33360
C16 C 1.05460 0.27040 0.27800
C17 C 0.80440 0.12200 0.03590
C18 C 0.74470 0.24050 0.17290
O4 O 0.81600 0.47400 0.09420
H17 H 0.74600 0.34400 -0.05800
H18 H 0.86300 0.47700 -0.05300
H19 H 0.99600 0.48500 0.13600
H20 H 0.99000 0.34700 0.06300
H21 H 0.96400 0.37300 0.41900
H22 H 1.00800 0.49100 0.35200
H23 H 0.89600 0.46300 0.30200
H24 H 1.06200 0.21100 0.20700
H25 H 1.06200 0.22300 0.36400
H26 H 1.10700 0.34200 0.29700
H27 H 0.81400 0.04000 0.09700
H28 H 0.74100 0.11900 -0.03400
H29 H 0.85200 0.11700 -0.00600
H30 H 0.75300 0.16100 0.23400
H31 H 0.68100 0.24000 0.10300
H32 H 0.75000 0.32400 0.22800
#END
