
#######################################################################
#
#                 Cambridge Crystallographic Data Centre
#                                CCDC
#
#######################################################################
#
# If this CIF has been generated from an entry in the Cambridge
# Structural Database, then it will include bibliographic, chemical,
# crystal, experimental, refinement or atomic coordinate data resulting
# from the CCDC's data processing and validation procedures.
#
#######################################################################

data_CSD_CIF_CAXJUJ
_audit_creation_date 2017-05-26
_audit_creation_method CSD-ConQuest-V1
_database_code_CSD CAXJUJ
_database_code_depnum_ccdc_archive 'CCDC 1524890'
_chemical_formula_sum 'C16 H19 N1 O4'
_chemical_formula_moiety
;
C16 H19 N1 O4
;
_journal_coden_Cambridge 1500
_journal_volume 7
_journal_year 2017
_journal_page_first 28009
_journal_name_full 'RSC Advances '
loop_
_publ_author_name
"Yong Guo"
"Ruige Yang"
"Hui Xu"
_chemical_name_systematic
;
3-(5-(N-hydroxyethanimidoyl)-3-furyl)-3a,7-dimethyl-3a,4,5,6-tetrahydro-2-benz
ofuran-1(3H)-one
;
_cell_volume   3053.113
_exptl_crystal_density_diffrn 1.259
_diffrn_ambient_temperature 293
#These two values have been output from a single CSD field.
_refine_ls_R_factor_gt 0.0684
_refine_ls_wR_factor_gt 0.0684
_symmetry_cell_setting orthorhombic
_symmetry_space_group_name_H-M 'P 21 21 21'
_symmetry_Int_Tables_number 19
loop_
_symmetry_equiv_pos_site_id
_symmetry_equiv_pos_as_xyz
1 x,y,z
2 1/2-x,-y,1/2+z
3 1/2+x,1/2-y,-z
4 -x,1/2+y,1/2-z
_cell_length_a 10.4720(7)
_cell_length_b 17.0011(11)
_cell_length_c 17.1489(8)
_cell_angle_alpha 90
_cell_angle_beta 90
_cell_angle_gamma 90
_cell_formula_units_Z 8
loop_
_atom_type_symbol
_atom_type_radius_bond
C 0.68
H 0.23
N 0.68
O 0.68
loop_
_atom_site_label
_atom_site_type_symbol
_atom_site_fract_x
_atom_site_fract_y
_atom_site_fract_z
O1 O -0.2604(4) -0.7930(2) -0.21192(18)
O2 O -0.2477(3) -0.77837(19) -0.08336(16)
O3 O -0.2710(3) -0.7839(2) 0.18086(16)
O4 O -0.5539(4) -0.8663(3) 0.31939(18)
H1 H -0.53650 -0.85970 0.36560
N1 N -0.4518(5) -0.8384(2) 0.2726(2)
C1 C -0.0956(5) -0.8596(3) -0.1362(2)
C2 C -0.0051(5) -0.8807(3) -0.1877(3)
C3 C 0.1130(5) -0.9203(3) -0.1597(3)
H2 H 0.18500 -0.88630 -0.17100
H3 H 0.12460 -0.96820 -0.18970
C4 C 0.1175(5) -0.9418(4) -0.0730(3)
H4 H 0.07970 -0.99340 -0.06570
H5 H 0.20580 -0.94460 -0.05620
C5 C 0.0465(5) -0.8822(3) -0.0227(3)
H6 H 0.08850 -0.83140 -0.02620
H7 H 0.04830 -0.89890 0.03130
C6 C -0.0921(4) -0.8746(3) -0.0502(2)
C7 C -0.1563(5) -0.7988(3) -0.0211(2)
H8 H -0.09150 -0.75730 -0.01790
C8 C -0.2077(5) -0.8092(3) -0.1517(3)
C9 C -0.2279(5) -0.8011(3) 0.0540(2)
C10 C -0.3475(5) -0.8373(3) 0.0714(2)
H9 H -0.40030 -0.86380 0.03650
C11 C -0.3697(5) -0.8259(3) 0.1487(3)
C12 C -0.1877(5) -0.7697(3) 0.1218(3)
H10 H -0.11190 -0.74170 0.12750
C13 C -0.0106(6) -0.8645(3) -0.2736(2)
H11 H -0.07380 -0.82490 -0.28370
H12 H -0.03280 -0.91180 -0.30090
H13 H 0.07130 -0.84630 -0.29120
C14 C -0.1696(5) -0.9485(3) -0.0313(3)
H14 H -0.13530 -0.99240 -0.05950
H15 H -0.25700 -0.94050 -0.04610
H16 H -0.16510 -0.95890 0.02370
C15 C -0.4708(6) -0.8515(3) 0.2002(3)
C16 C -0.5834(6) -0.8925(3) 0.1663(3)
H17 H -0.57750 -0.94780 0.17680
H18 H -0.58520 -0.88410 0.11090
H19 H -0.66010 -0.87190 0.18910
O5 O -0.5289(4) -0.8983(2) 0.92983(17)
O6 O -0.5457(3) -0.89604(18) 0.80003(15)
O7 O -0.5392(4) -0.8877(2) 0.53546(16)
O8 O -0.2915(4) -0.7788(3) 0.38806(18)
H20 H -0.30980 -0.78700 0.34230
N2 N -0.3809(5) -0.8166(3) 0.4366(2)
C17 C -0.5144(4) -1.0199(3) 0.8528(2)
C18 C -0.5428(5) -1.0775(3) 0.9002(3)
C19 C -0.5476(7) -1.1605(3) 0.8696(3)
H21 H -0.63560 -1.17840 0.87090
H22 H -0.49900 -1.19400 0.90450
C20 C -0.4968(6) -1.1717(3) 0.7874(3)
H23 H -0.40440 -1.17470 0.78880
H24 H -0.52890 -1.22080 0.76620
C21 C -0.5377(6) -1.1040(3) 0.7355(3)
H25 H -0.63020 -1.10170 0.73320
H26 H -0.50590 -1.11240 0.68300
C22 C -0.4858(5) -1.0267(3) 0.7671(2)
C23 C -0.5600(5) -0.9542(3) 0.7378(2)
H27 H -0.65050 -0.96870 0.73540
C24 C -0.5282(5) -0.9346(3) 0.8688(3)
C25 C -0.5257(5) -0.9180(3) 0.6620(2)
C26 C -0.4135(5) -0.8773(3) 0.6392(2)
H28 H -0.34480 -0.86480 0.67130
C27 C -0.4244(5) -0.8600(3) 0.5626(3)
C28 C -0.5964(6) -0.9229(3) 0.5975(3)
H29 H -0.67560 -0.94750 0.59520
C29 C -0.5789(7) -1.0685(4) 0.9850(2)
H30 H -0.56850 -1.01460 1.00040
H31 H -0.52490 -1.10130 1.01640
H32 H -0.66640 -1.08390 0.99210
C30 C -0.3405(5) -1.0195(3) 0.7530(2)
H33 H -0.31100 -0.96970 0.77230
H34 H -0.32330 -1.02300 0.69810
H35 H -0.29710 -1.06120 0.77980
C31 C -0.3410(6) -0.8208(3) 0.5081(3)
C32 C -0.2155(6) -0.7910(4) 0.5362(3)
H36 H -0.14850 -0.82400 0.51650
H37 H -0.21410 -0.79170 0.59220
H38 H -0.20310 -0.73810 0.51810
#END
