
#######################################################################
#
#                 Cambridge Crystallographic Data Centre
#                                CCDC
#
#######################################################################
#
# If this CIF has been generated from an entry in the Cambridge
# Structural Database, then it will include bibliographic, chemical,
# crystal, experimental, refinement or atomic coordinate data resulting
# from the CCDC's data processing and validation procedures.
#
#######################################################################

data_CSD_CIF_CAXKAQ
_audit_creation_date 2017-05-26
_audit_creation_method CSD-ConQuest-V1
_database_code_CSD CAXKAQ
_database_code_depnum_ccdc_archive 'CCDC 1524891'
_chemical_formula_sum 'C16 H19 N1 O4'
_chemical_formula_moiety
;
C16 H19 N1 O4
;
_journal_coden_Cambridge 1500
_journal_volume 7
_journal_year 2017
_journal_page_first 28009
_journal_name_full 'RSC Advances '
loop_
_publ_author_name
"Yong Guo"
"Ruige Yang"
"Hui Xu"
_chemical_name_systematic
;
3-(2-(N-hydroxyethanimidoyl)-3-furyl)-3a,7-dimethyl-3a,4,5,6-tetrahydro-2-benz
ofuran-1(3H)-one
;
_cell_volume    766.063
_exptl_crystal_colour 'light colorless'
_exptl_crystal_density_diffrn 1.254
_exptl_crystal_description 'block'
_diffrn_ambient_temperature 293
#These two values have been output from a single CSD field.
_refine_ls_R_factor_gt 0.0462
_refine_ls_wR_factor_gt 0.0462
_symmetry_cell_setting monoclinic
_symmetry_space_group_name_H-M 'P 21'
_symmetry_Int_Tables_number 4
loop_
_symmetry_equiv_pos_site_id
_symmetry_equiv_pos_as_xyz
1 x,y,z
2 -x,1/2+y,-z
_cell_length_a 9.316(3)
_cell_length_b 8.996(2)
_cell_length_c 9.458(4)
_cell_angle_alpha 90
_cell_angle_beta 104.88(4)
_cell_angle_gamma 90
_cell_formula_units_Z 2
loop_
_atom_type_symbol
_atom_type_radius_bond
C 0.68
H 0.23
N 0.68
O 0.68
loop_
_atom_site_label
_atom_site_type_symbol
_atom_site_fract_x
_atom_site_fract_y
_atom_site_fract_z
O1 O -0.7477(2) -0.0894(3) -0.1387(3)
O2 O -1.1300(2) -0.2641(2) -0.4938(2)
O3 O -1.3541(2) -0.3108(3) -0.6344(2)
C1 C -1.2558(3) -0.3446(4) -0.5297(3)
C2 C -1.2454(3) -0.4676(4) -0.4268(3)
N1 N -0.7090(3) -0.4569(3) -0.2426(3)
C3 C -0.7925(3) -0.2258(4) -0.1997(3)
C4 C -1.3198(3) -0.5955(4) -0.4489(4)
C5 C -1.1198(3) -0.4307(3) -0.2969(3)
C6 C -1.0228(3) -0.3361(4) -0.3734(3)
H1 H -0.95890 -0.40200 -0.41300
O4 O -0.6051(3) -0.5679(3) -0.1941(3)
H2 H -0.62750 -0.64140 -0.24650
C7 C -0.6861(4) -0.3457(4) -0.1576(4)
C8 C -0.9312(3) -0.2147(4) -0.2883(3)
C9 C -0.8606(5) 0.0069(4) -0.1928(4)
H3 H -0.85950 0.10750 -0.16980
C10 C -1.1638(4) -0.6814(4) -0.2037(5)
H4 H -1.11630 -0.77200 -0.15940
H5 H -1.21370 -0.63660 -0.13610
C11 C -1.4467(4) -0.6259(5) -0.5780(4)
H6 H -1.43900 -0.56330 -0.65800
H7 H -1.53840 -0.60580 -0.55320
H8 H -1.44440 -0.72830 -0.60620
C12 C -0.9729(4) -0.0635(4) -0.2833(4)
H9 H -1.06240 -0.02130 -0.33400
C13 C -1.2763(4) -0.7191(4) -0.3431(4)
H10 H -1.23720 -0.79930 -0.39070
H11 H -1.36490 -0.75600 -0.31880
C14 C -1.1766(4) -0.3362(5) -0.1894(4)
H12 H -1.24870 -0.39150 -0.15460
H13 H -1.22170 -0.24750 -0.23740
H14 H -1.09510 -0.30980 -0.10830
C15 C -1.0447(3) -0.5740(4) -0.2289(4)
H15 H -0.97380 -0.55210 -0.13660
H16 H -0.99160 -0.61910 -0.29370
C16 C -0.5614(5) -0.3303(7) -0.0263(6)
H17 H -0.48120 -0.39350 -0.03520
H18 H -0.59340 -0.35840 0.05870
H19 H -0.52830 -0.22880 -0.01670
#END
