
#######################################################################
#
#                 Cambridge Crystallographic Data Centre
#                                CCDC
#
#######################################################################
#
# If this CIF has been generated from an entry in the Cambridge
# Structural Database, then it will include bibliographic, chemical,
# crystal, experimental, refinement or atomic coordinate data resulting
# from the CCDC's data processing and validation procedures.
#
#######################################################################

data_CSD_CIF_CAXKIV
_audit_creation_date 1984-08-24
_audit_creation_method CSD-ConQuest-V1
_database_code_CSD CAXKIV
_database_code_depnum_ccdc_archive 'CCDC 1121052'
_chemical_formula_sum 'C13 H12 N2 O4'
_chemical_formula_moiety
;
C13 H12 N2 O4
;
_journal_coeditor_code "IUCr A22848"
_journal_coden_Cambridge 591
_journal_volume 39
_journal_year 1983
_journal_page_first 1690
_journal_name_full 'Acta Crystallogr.,Sect.C:Cryst.Struct.Commun. '
loop_
_publ_author_name
"I.Ueda"
"Y.Kaku"
"S.Saeki"
"M.Hamana"
_chemical_name_systematic
;
8-Methoxy-5-oxo-6,8-diazatetracyclo(7.4.0.0^2,4^.0^3,7^)trideca-1(9),10,12-tri
ene-4-carboxylic acid
;
_cell_volume   1172.569
_exptl_crystal_colour 'colorless'
_exptl_special_details
;
dx given as 1.422; we calculate 1.47

;
_diffrn_ambient_temperature ?
_diffrn_special_details
;
The study was carried out at room temperature,in the range 283-303K

;
#These two values have been output from a single CSD field.
_refine_ls_R_factor_gt 0.048
_refine_ls_wR_factor_gt 0.048
_symmetry_cell_setting triclinic
_symmetry_space_group_name_H-M 'P -1'
_symmetry_Int_Tables_number 2
loop_
_symmetry_equiv_pos_site_id
_symmetry_equiv_pos_as_xyz
1 x,y,z
2 -x,-y,-z
_cell_length_a 9.891(3)
_cell_length_b 13.653(4)
_cell_length_c 9.725(3)
_cell_angle_alpha 105.13(3)
_cell_angle_beta 110.23(2)
_cell_angle_gamma 75.95(2)
_cell_formula_units_Z 4
loop_
_atom_type_symbol
_atom_type_radius_bond
C 0.68
H 0.23
N 0.68
O 0.68
loop_
_atom_site_label
_atom_site_type_symbol
_atom_site_fract_x
_atom_site_fract_y
_atom_site_fract_z
C1 C 0.25510 -0.08950 0.77480
C2 C 0.24700 -0.02560 0.92590
C3 C 0.28750 0.07650 0.95290
C4 C 0.37060 0.09160 0.86130
C5 C 0.40950 0.18680 0.88060
C6 C 0.49910 0.19890 0.80540
C7 C 0.55150 0.11540 0.71190
C8 C 0.51530 0.01920 0.69140
C9 C 0.42490 0.00730 0.76680
C10 C 0.12330 0.06340 0.89180
C11 C 0.03260 0.11240 0.99380
C12 C 0.05460 0.04360 0.72710
C13 C 0.48750 -0.25240 0.64000
N1 N 0.39650 -0.09160 0.75830
N2 N 0.13400 -0.03770 0.66690
O1 O 0.39800 -0.15560 0.61540
O2 O -0.09940 0.16240 0.93400
O3 O 0.07480 0.10770 1.12410
O4 O -0.06100 0.09380 0.66010
H1 H 0.23800 -0.16500 0.75600
H2 H 0.26100 -0.06100 1.00200
H3 H 0.31000 0.11900 1.05600
H4 H 0.36800 0.24700 0.94200
H5 H 0.53300 0.26600 0.82100
H6 H 0.62200 0.12400 0.65600
H7 H 0.55800 -0.04400 0.63100
H8 H 0.58500 -0.24100 0.69200
H9 H 0.48500 -0.29100 0.54300
H10 H 0.44600 -0.28400 0.70000
H11 H 0.10800 -0.06100 0.56900
H12 H -0.12200 0.15000 0.83000
C14 C 0.00250 0.34520 0.67320
C15 C -0.01670 0.46040 0.73600
C16 C -0.13420 0.51890 0.63120
C17 C -0.18510 0.46890 0.47210
C18 C -0.29840 0.51910 0.36980
C19 C -0.33580 0.47650 0.21830
C20 C -0.25880 0.38350 0.16890
C21 C -0.14470 0.33200 0.26770
C22 C -0.10780 0.37400 0.42030
C23 C -0.16500 0.48850 0.76050
C24 C -0.20010 0.57390 0.87940
C25 C -0.22250 0.39080 0.72480
C26 C 0.17740 0.17690 0.47060
N3 N 0.01490 0.32620 0.52250
N4 N -0.12930 0.31500 0.67360
O5 O 0.03100 0.21650 0.47090
O6 O -0.31300 0.56790 0.91910
O7 O -0.13410 0.64480 0.93680
O8 O -0.33550 0.38420 0.74580
H13 H 0.09100 0.30600 0.74000
H14 H 0.06300 0.49800 0.80200
H15 H -0.13400 0.59700 0.65300
H16 H -0.35400 0.58900 0.40400
H17 H -0.41700 0.52200 0.15000
H18 H -0.28400 0.34900 0.06300
H19 H -0.09500 0.26700 0.23100
H20 H 0.20300 0.21100 0.39700
H21 H 0.17800 0.10100 0.43300
H22 H 0.24300 0.19800 0.56600
H23 H -0.13000 0.24700 0.63400
H24 H -0.34200 0.50200 0.86000
#END
