
#######################################################################
#
#                 Cambridge Crystallographic Data Centre
#                                CCDC
#
#######################################################################
#
# If this CIF has been generated from an entry in the Cambridge
# Structural Database, then it will include bibliographic, chemical,
# crystal, experimental, refinement or atomic coordinate data resulting
# from the CCDC's data processing and validation procedures.
#
#######################################################################

data_CSD_CIF_CAXKIY
_audit_creation_date 2017-05-26
_audit_creation_method CSD-ConQuest-V1
_database_code_CSD CAXKIY
_database_code_depnum_ccdc_archive 'CCDC 1524894'
_chemical_formula_sum 'C24 H25 N1 O5'
_chemical_formula_moiety
;
C24 H25 N1 O5
;
_journal_coden_Cambridge 1500
_journal_volume 7
_journal_year 2017
_journal_page_first 28009
_journal_name_full 'RSC Advances '
loop_
_publ_author_name
"Yong Guo"
"Ruige Yang"
"Hui Xu"
_chemical_name_systematic
;
3a,7-dimethyl-3-(5-(N-((4-methylbenzoyl)oxy)ethanimidoyl)-3-furyl)-3a,4,5,6-te
trahydro-2-benzofuran-1(3H)-one
;
_cell_volume   2141.546
_exptl_crystal_colour 'light colorless'
_exptl_crystal_density_diffrn 1.264
_exptl_crystal_description 'block'
_diffrn_ambient_temperature 293
#These two values have been output from a single CSD field.
_refine_ls_R_factor_gt 0.0618
_refine_ls_wR_factor_gt 0.0618
_symmetry_cell_setting monoclinic
_symmetry_space_group_name_H-M 'P 21'
_symmetry_Int_Tables_number 4
loop_
_symmetry_equiv_pos_site_id
_symmetry_equiv_pos_as_xyz
1 x,y,z
2 -x,1/2+y,-z
_cell_length_a 8.2307(5)
_cell_length_b 23.9115(14)
_cell_length_c 11.3903(10)
_cell_angle_alpha 90
_cell_angle_beta 107.192(7)
_cell_angle_gamma 90
_cell_formula_units_Z 4
loop_
_atom_type_symbol
_atom_type_radius_bond
C 0.68
H 0.23
N 0.68
O 0.68
loop_
_atom_site_label
_atom_site_type_symbol
_atom_site_fract_x
_atom_site_fract_y
_atom_site_fract_z
O1 O 1.4003(4) 0.65791(16) 0.9415(3)
O2 O 1.6713(4) 0.68407(19) 1.0165(4)
O3 O 1.0430(4) 0.53435(17) 0.8176(4)
O4 O 0.5639(4) 0.47046(15) 0.6862(3)
O5 O 0.6330(6) 0.4255(2) 0.5334(5)
N1 N 0.7350(5) 0.49215(19) 0.7203(4)
C1 C 1.4672(6) 0.6975(2) 1.1340(4)
C2 C 1.5347(7) 0.7356(2) 1.2209(5)
C3 C 1.4326(9) 0.7520(3) 1.3068(6)
H1 H 1.40240 0.79110 1.29280
H2 H 1.50650 0.74870 1.39040
C4 C 1.2709(9) 0.7195(4) 1.2979(6)
H3 H 1.19520 0.74210 1.32930
H4 H 1.29850 0.68590 1.34780
C5 C 1.1819(7) 0.7034(3) 1.1651(5)
H5 H 1.07940 0.68250 1.16080
H6 H 1.14970 0.73690 1.11580
C6 C 1.2998(6) 0.6682(2) 1.1151(4)
C7 C 1.2429(6) 0.6622(2) 0.9745(4)
H7 H 1.18520 0.69680 0.93890
C8 C 1.5318(6) 0.6812(2) 1.0313(5)
C9 C 1.6995(7) 0.7645(3) 1.2361(6)
H8 H 1.73680 0.75780 1.16510
H9 H 1.78280 0.75030 1.30790
H10 H 1.68530 0.80390 1.24520
C10 C 1.3309(8) 0.6095(3) 1.1741(5)
H11 H 1.39330 0.61290 1.25950
H12 H 1.39520 0.58740 1.13310
H13 H 1.22370 0.59160 1.16620
C11 C 1.1333(6) 0.6143(2) 0.9177(5)
C12 C 0.9568(6) 0.6069(2) 0.9068(4)
H14 H 0.88870 0.63080 0.93610
C13 C 0.9088(5) 0.5586(2) 0.8459(4)
C14 C 1.1774(7) 0.5688(3) 0.8654(6)
H15 H 1.28710 0.56170 0.86220
C15 C 0.7446(6) 0.5316(2) 0.7984(4)
C16 C 0.5335(7) 0.4344(2) 0.5895(5)
C17 C 0.3611(6) 0.4101(2) 0.5623(4)
C18 C 0.3202(7) 0.3677(2) 0.4760(5)
H16 H 0.39930 0.35590 0.43750
C19 C 0.1607(7) 0.3426(3) 0.4468(5)
H17 H 0.13340 0.31470 0.38740
C20 C 0.0417(6) 0.3585(2) 0.5046(5)
C21 C 0.0837(6) 0.4018(2) 0.5894(5)
H18 H 0.00370 0.41430 0.62640
C22 C 0.2418(6) 0.4266(2) 0.6199(5)
H19 H 0.26880 0.45450 0.67940
C23 C 0.6009(6) 0.5529(3) 0.8386(6)
H20 H 0.57300 0.52620 0.89260
H21 H 0.50390 0.55860 0.76820
H22 H 0.63240 0.58770 0.88130
C24 C -0.1278(7) 0.3300(3) 0.4748(6)
H23 H -0.20920 0.35070 0.41190
H24 H -0.16460 0.32840 0.54720
H25 H -0.11810 0.29280 0.44610
O6 O 0.3591(4) 0.55138(17) 0.4596(3)
O7 O 0.1530(4) 0.57297(15) 0.5417(3)
O8 O -0.0995(4) 0.69806(15) 0.6604(4)
O9 O -0.4750(4) 0.77174(15) 0.7712(3)
O10 O -0.2908(6) 0.8366(2) 0.8763(5)
N2 N -0.3363(5) 0.74988(19) 0.7331(4)
C25 C 0.0596(6) 0.5317(2) 0.3511(4)
C26 C 0.0579(7) 0.4942(2) 0.2652(5)
C27 C -0.1093(9) 0.4727(3) 0.1849(6)
H26 H -0.11510 0.43300 0.20030
H27 H -0.11060 0.47700 0.10000
C28 C -0.2713(9) 0.5003(4) 0.1998(6)
H28 H -0.30030 0.53260 0.14620
H29 H -0.36500 0.47400 0.17530
C29 C -0.2469(7) 0.5184(3) 0.3314(5)
H30 H -0.22800 0.48580 0.38440
H31 H -0.34880 0.53710 0.33730
C30 C -0.0951(6) 0.5580(2) 0.3739(4)
C31 C -0.0305(5) 0.5665(2) 0.5135(4)
H32 H -0.05430 0.53260 0.55410
C32 C 0.2081(6) 0.5515(2) 0.4498(4)
C33 C 0.2111(8) 0.4695(3) 0.2400(6)
H33 H 0.31190 0.48330 0.29920
H34 H 0.21250 0.47990 0.15890
H35 H 0.20720 0.42950 0.24580
C34 C -0.1323(7) 0.6144(3) 0.3065(5)
H36 H -0.15720 0.60840 0.21960
H37 H -0.03470 0.63830 0.33440
H38 H -0.22820 0.63180 0.32340
C35 C -0.0952(5) 0.6160(2) 0.5656(4)
C36 C -0.2632(6) 0.6260(2) 0.5712(4)
H39 H -0.35690 0.60270 0.54120
C37 C -0.2609(5) 0.6753(2) 0.6279(4)
C38 C -0.0038(6) 0.6603(2) 0.6196(6)
H40 H 0.11140 0.66480 0.62820
C39 C -0.3868(6) 0.7054(2) 0.6700(4)
C40 C -0.4269(8) 0.8146(2) 0.8525(5)
C41 C -0.5635(7) 0.8289(2) 0.9068(5)
C42 C -0.5250(8) 0.8661(3) 1.0051(6)
H41 H -0.41790 0.88250 1.03080
C43 C -0.6430(8) 0.8790(3) 1.0649(5)
H42 H -0.61340 0.90310 1.13190
C44 C -0.8040(8) 0.8566(3) 1.0269(5)
C45 C -0.8453(7) 0.8207(2) 0.9267(5)
H43 H -0.95450 0.80590 0.89830
C46 C -0.7254(7) 0.8068(2) 0.8689(5)
H44 H -0.75430 0.78200 0.80300
C47 C -0.5623(6) 0.6822(3) 0.6392(5)
H45 H -0.56790 0.64800 0.59420
H46 H -0.64120 0.70870 0.59000
H47 H -0.59100 0.67510 0.71360
C48 C -0.9325(9) 0.8705(3) 1.0955(7)
H48 H -0.99180 0.83710 1.10560
H49 H -1.01260 0.89750 1.04940
H50 H -0.87400 0.88570 1.17480
#END
