
#######################################################################
#
#                 Cambridge Crystallographic Data Centre
#                                CCDC
#
#######################################################################
#
# If this CIF has been generated from an entry in the Cambridge
# Structural Database, then it will include bibliographic, chemical,
# crystal, experimental, refinement or atomic coordinate data resulting
# from the CCDC's data processing and validation procedures.
#
#######################################################################

data_CSD_CIF_CAXMUK
_audit_creation_date 2005-12-21
_audit_creation_method CSD-ConQuest-V1
_database_code_CSD CAXMUK
_database_code_depnum_ccdc_archive 'CCDC 286410'
_chemical_formula_sum 'C16 H17 N1 O5'
_chemical_formula_moiety
;
C16 H17 N1 O5
;
_journal_coden_Cambridge 1336
_journal_volume 7
_journal_year 2005
_journal_page_first 3425
_journal_name_full 'Org.Lett. '
loop_
_publ_author_name
"C.C.Hughes"
"A.K.Miller"
"D.Trauner"
_chemical_name_systematic
;
5-isopropyl-4-methyl-2-oxocycopent-3-enyl 4-nitrobenzoate
;
_cell_volume   1503.489
_exptl_crystal_colour 'colorless'
_exptl_crystal_density_diffrn 1.335
_exptl_crystal_description 'needlelike'
_diffrn_ambient_temperature 175.2
#These two values have been output from a single CSD field.
_refine_ls_R_factor_gt 0.0463
_refine_ls_wR_factor_gt 0.0463
_symmetry_cell_setting monoclinic
_symmetry_space_group_name_H-M 'P 21/c'
_symmetry_Int_Tables_number 14
loop_
_symmetry_equiv_pos_site_id
_symmetry_equiv_pos_as_xyz
1 x,y,z
2 -x,1/2+y,1/2-z
3 -x,-y,-z
4 x,-1/2-y,-1/2+z
_cell_length_a 10.429(2)
_cell_length_b 10.11(2)
_cell_length_c 14.298(3)
_cell_angle_alpha 90
_cell_angle_beta 94.202(3)
_cell_angle_gamma 90
_cell_formula_units_Z 4
loop_
_atom_type_symbol
_atom_type_radius_bond
C 0.68
H 0.23
N 0.68
O 0.68
loop_
_atom_site_label
_atom_site_type_symbol
_atom_site_fract_x
_atom_site_fract_y
_atom_site_fract_z
O1 O -0.4792(2) -0.2225(2) -0.5943(1)
O2 O -0.5176(1) -0.0024(2) -0.71702(10)
O3 O -0.5707(2) -0.1521(2) -0.8292(1)
O4 O -0.0215(2) 0.2242(2) -0.9595(2)
O5 O -0.0782(2) 0.0957(2) -1.0753(1)
N1 N -0.0905(2) 0.1381(2) -0.9963(2)
C1 C -0.5660(2) -0.1441(2) -0.5859(2)
C2 C -0.6376(2) -0.1157(3) -0.5050(1)
C3 C -0.7048(2) -0.0041(3) -0.5180(1)
C4 C -0.6868(2) 0.0593(2) -0.6125(1)
C5 C -0.6190(2) -0.0500(2) -0.6628(1)
C6 C -0.5015(2) -0.0648(2) -0.7982(1)
C7 C -0.3905(2) -0.0122(2) -0.8457(1)
C8 C -0.3693(2) -0.0628(2) -0.9339(2)
C9 C -0.2696(3) -0.0147(2) -0.9827(2)
C10 C -0.1920(2) 0.0824(2) -0.9424(2)
C11 C -0.2086(2) 0.1319(2) -0.8542(2)
C12 C -0.3085(2) 0.0849(2) -0.8063(1)
C13 C -0.7858(3) 0.0603(3) -0.4496(2)
C14 C -0.8100(2) 0.1149(3) -0.6633(2)
C15 C -0.9134(2) 0.0112(3) -0.6818(2)
C16 C -0.7808(3) 0.1821(3) -0.7546(2)
H1 H -0.63680 -0.16920 -0.45030
H2 H -0.62790 0.13040 -0.60240
H3 H -0.68040 -0.09570 -0.70320
H4 H -0.42360 -0.13050 -0.96050
H5 H -0.25510 -0.04820 -1.04310
H6 H -0.15200 0.19730 -0.82710
H7 H -0.32190 0.11880 -0.74580
H8 H -0.78690 0.00690 -0.39500
H9 H -0.87100 0.07030 -0.47710
H10 H -0.75130 0.14470 -0.43310
H11 H -0.84300 0.18030 -0.62390
H12 H -0.98890 0.05180 -0.70980
H13 H -0.88410 -0.05420 -0.72290
H14 H -0.93210 -0.02890 -0.62430
H15 H -0.71700 0.24800 -0.74210
H16 H -0.75050 0.11830 -0.79640
H17 H -0.85690 0.22200 -0.78220
#END
