
#######################################################################
#
#                 Cambridge Crystallographic Data Centre
#                                CCDC
#
#######################################################################
#
# If this CIF has been generated from an entry in the Cambridge
# Structural Database, then it will include bibliographic, chemical,
# crystal, experimental, refinement or atomic coordinate data resulting
# from the CCDC's data processing and validation procedures.
#
#######################################################################

data_CSD_CIF_CAYMAR
_audit_creation_date 2005-12-21
_audit_creation_method CSD-ConQuest-V1
_database_code_CSD CAYMAR
_database_code_depnum_ccdc_archive 'CCDC 289897'
_chemical_formula_sum 'C16 H13 N3 O2'
_chemical_formula_moiety
;
C16 H13 N3 O2
;
_journal_coeditor_code "IUCr SU6227"
_journal_coden_Cambridge 1370
_journal_volume 61
_journal_year 2005
_journal_page_first o3837
_journal_name_full 'Acta Crystallogr.,Sect.E:Struct.Rep.Online '
loop_
_publ_author_name
"L.E.da Silva"
"A.C.Joussef"
"S.Foro"
"B.Schmidt"
_chemical_name_systematic
;
N-Benzyl-8-nitroquinolin-2-amine
;
_cell_volume   1376.694
_exptl_crystal_colour 'orange'
_exptl_crystal_density_diffrn 1.348
_exptl_crystal_description 'needle'
_exptl_crystal_preparation 'dichloromethane/hexane'
_diffrn_ambient_temperature 299
#These two values have been output from a single CSD field.
_refine_ls_R_factor_gt 0.0459
_refine_ls_wR_factor_gt 0.0459
_symmetry_cell_setting monoclinic
_symmetry_space_group_name_H-M 'P c'
_symmetry_Int_Tables_number 7
loop_
_symmetry_equiv_pos_site_id
_symmetry_equiv_pos_as_xyz
1 x,y,z
2 x,-y,1/2+z
_cell_length_a 7.439(1)
_cell_length_b 11.215(1)
_cell_length_c 16.541(1)
_cell_angle_alpha 90
_cell_angle_beta 93.96(1)
_cell_angle_gamma 90
_cell_formula_units_Z 4
loop_
_atom_type_symbol
_atom_type_radius_bond
C 0.68
H 0.23
N 0.68
O 0.68
loop_
_atom_site_label
_atom_site_type_symbol
_atom_site_fract_x
_atom_site_fract_y
_atom_site_fract_z
O1 O 0.6479(4) 0.0074(2) 0.56618(15)
O2 O 0.7853(5) -0.1592(3) 0.55330(19)
N1 N 0.8025(3) 0.1310(2) 0.43538(14)
N2 N 0.9293(3) 0.3181(3) 0.43035(18)
H1 H 0.94790 0.37890 0.40020
N3 N 0.7053(4) -0.0717(2) 0.52474(16)
C1 C 0.7217(3) 0.0378(3) 0.39533(16)
C2 C 0.8469(4) 0.2242(3) 0.39204(18)
C3 C 0.8129(4) 0.2303(3) 0.3059(2)
H2 H 0.84570 0.29760 0.27750
C4 C 0.7332(4) 0.1377(3) 0.26650(19)
H3 H 0.71070 0.14070 0.21050
C5 C 0.6829(4) 0.0351(3) 0.30994(17)
C6 C 0.6003(4) -0.0644(3) 0.2731(2)
H4 H 0.57570 -0.06440 0.21720
C7 C 0.5544(5) -0.1619(3) 0.3166(2)
H5 H 0.49860 -0.22700 0.29070
C8 C 0.5923(4) -0.1624(3) 0.4001(2)
H6 H 0.56360 -0.22870 0.43040
C9 C 0.6720(4) -0.0653(3) 0.43729(18)
C10 C 0.9608(4) 0.3268(3) 0.5174(2)
H7 H 1.06580 0.37640 0.53010
H8 H 0.98650 0.24800 0.53950
C11 C 0.8005(4) 0.3792(3) 0.55762(18)
C12 C 0.7751(7) 0.5012(3) 0.5620(3)
H9 H 0.86120 0.55230 0.54300
C13 C 0.6242(9) 0.5482(5) 0.5940(3)
H10 H 0.60860 0.63040 0.59630
C14 C 0.4991(8) 0.4743(6) 0.6219(3)
H11 H 0.39670 0.50600 0.64300
C15 C 0.5216(6) 0.3532(5) 0.6195(2)
H12 H 0.43550 0.30320 0.63950
C16 C 0.6725(5) 0.3054(3) 0.58721(19)
H13 H 0.68740 0.22310 0.58550
O3 O 0.1486(5) 0.2968(2) 0.13557(17)
O4 O 0.3004(6) 0.1769(4) 0.0676(2)
N4 N 0.2999(3) 0.2281(2) 0.29424(14)
N5 N 0.4277(4) 0.3376(3) 0.40077(18)
H14 H 0.46940 0.34400 0.45020
N6 N 0.2144(4) 0.2006(3) 0.12596(18)
C17 C 0.2232(3) 0.1241(3) 0.26696(19)
C18 C 0.3450(4) 0.2359(3) 0.37237(19)
C19 C 0.3129(4) 0.1431(4) 0.4288(2)
H15 H 0.34580 0.15280 0.48360
C20 C 0.2355(4) 0.0426(4) 0.4017(2)
H16 H 0.21320 -0.01810 0.43800
C21 C 0.1865(4) 0.0272(3) 0.3178(2)
C22 C 0.1118(5) -0.0777(3) 0.2848(3)
H17 H 0.08520 -0.13960 0.31940
C23 C 0.0767(6) -0.0923(4) 0.2038(3)
H18 H 0.02760 -0.16330 0.18340
C24 C 0.1147(5) -0.0001(3) 0.1517(3)
H19 H 0.09360 -0.00930 0.09600
C25 C 0.1841(4) 0.1053(3) 0.1832(2)
C26 C 0.4415(4) 0.4442(3) 0.3536(2)
H20 H 0.47110 0.42290 0.29930
H21 H 0.53880 0.49310 0.37750
C27 C 0.2689(4) 0.5159(3) 0.3488(2)
C28 C 0.2263(5) 0.5870(3) 0.4127(2)
H22 H 0.30810 0.59530 0.45750
C29 C 0.0630(7) 0.6461(3) 0.4108(3)
H23 H 0.03590 0.69430 0.45400
C30 C -0.0576(7) 0.6340(3) 0.3463(3)
H24 H -0.16720 0.67400 0.34570
C31 C -0.0202(5) 0.5637(4) 0.2819(3)
H25 H -0.10380 0.55580 0.23780
C32 C 0.1439(5) 0.5041(3) 0.2831(2)
H26 H 0.17000 0.45610 0.23960
#END
