
#######################################################################
#
#                 Cambridge Crystallographic Data Centre
#                                CCDC
#
#######################################################################
#
# If this CIF has been generated from an entry in the Cambridge
# Structural Database, then it will include bibliographic, chemical,
# crystal, experimental, refinement or atomic coordinate data resulting
# from the CCDC's data processing and validation procedures.
#
#######################################################################

data_CSD_CIF_CAYNIC
_audit_creation_date 2017-05-29
_audit_creation_method CSD-ConQuest-V1
_database_code_CSD CAYNIC
_database_code_depnum_ccdc_archive 'CCDC 1499580'
_chemical_formula_sum 'C17 H21 N1 O7'
_chemical_formula_moiety
;
C17 H21 N1 O7
;
_journal_coden_Cambridge 179
_journal_volume 56
_journal_year 2017
_journal_page_first 4955
_journal_name_full 'Angew.Chem.,Int.Ed. '
loop_
_publ_author_name
"G.dos P.Gomes"
"I.A.Yaremenko"
"P.S.Radulov"
"R.A.Novikov"
"V.V.Chernyshev"
"A.A.Korlyukov"
"G.I.Nikishin"
"I.V.Alabugin"
"A.O.Terent'ev"
_chemical_name_systematic
;
ethyl 
1,5-dimethyl-2-(4-nitrobenzyl)-6,7,8-trioxabicyclo[3.2.1]octane-2-carboxylate
;
_cell_volume    854.704
_exptl_crystal_colour 'colorless'
_exptl_crystal_density_diffrn 1.365
_exptl_crystal_description 'prism'
_diffrn_ambient_temperature 293
#These two values have been output from a single CSD field.
_refine_ls_R_factor_gt 0.0475
_refine_ls_wR_factor_gt 0.0475
_symmetry_cell_setting triclinic
_symmetry_space_group_name_H-M 'P -1'
_symmetry_Int_Tables_number 2
loop_
_symmetry_equiv_pos_site_id
_symmetry_equiv_pos_as_xyz
1 x,y,z
2 -x,-y,-z
_cell_length_a 8.1003(16)
_cell_length_b 9.038(2)
_cell_length_c 12.516(4)
_cell_angle_alpha 100.87(2)
_cell_angle_beta 106.90(2)
_cell_angle_gamma 93.36(2)
_cell_formula_units_Z 2
loop_
_atom_type_symbol
_atom_type_radius_bond
C 0.68
H 0.23
N 0.68
O 0.68
loop_
_atom_site_label
_atom_site_type_symbol
_atom_site_fract_x
_atom_site_fract_y
_atom_site_fract_z
O1 O 0.28195(18) 0.81513(16) 0.71110(12)
O2 O -0.1778(2) 1.04356(17) 0.68716(14)
O3 O 0.0923(2) 0.81931(18) 0.54136(12)
O4 O 0.1680(2) 0.67531(18) 0.53333(13)
C1 C -0.0206(3) 0.8308(2) 0.70343(16)
C2 C 0.1342(3) 0.8830(2) 0.66213(17)
C3 C -0.1821(3) 0.8976(3) 0.64218(18)
O5 O -0.2997(2) 0.8269(2) 0.56242(16)
C4 C -0.0998(3) 0.8340(2) 0.88952(17)
C5 C 0.0295(3) 0.8870(2) 0.83487(17)
H1 H 0.14050 0.85360 0.86950
H2 H 0.04530 0.99710 0.85240
C6 C -0.0559(3) 0.6571(2) 0.66717(19)
H3 H -0.12820 0.62020 0.70860
H4 H -0.11970 0.62850 0.58630
C7 C -0.3323(3) 0.7393(2) 0.99428(18)
O6 O -0.4110(3) 0.6056(2) 1.11564(17)
C8 C -0.2543(3) 0.8963(3) 0.88083(19)
H5 H -0.27930 0.97220 0.83970
N1 N -0.4555(3) 0.6912(2) 1.05083(18)
C9 C 0.1843(3) 1.0507(2) 0.6801(2)
H6 H 0.20510 1.09770 0.75900
H7 H 0.09180 1.09380 0.63330
H8 H 0.28800 1.06780 0.65940
C10 C -0.3719(3) 0.8485(3) 0.93162(19)
H9 H -0.47620 0.88970 0.92340
C11 C 0.2426(3) 0.6611(3) 0.65002(19)
C12 C 0.1098(3) 0.5813(2) 0.6895(2)
H10 H 0.15680 0.58410 0.77060
H11 H 0.08370 0.47580 0.64920
C13 C -0.1792(4) 0.6765(3) 1.0071(2)
H12 H -0.15330 0.60330 1.05080
O7 O -0.5966(3) 0.7394(3) 1.0303(2)
C14 C -0.3240(3) 1.1191(3) 0.6352(2)
H13 H -0.43140 1.06900 0.63800
H14 H -0.33300 1.11670 0.55590
C15 C -0.0647(3) 0.7238(3) 0.9542(2)
H15 H 0.03870 0.68090 0.96190
C16 C 0.4057(3) 0.5873(3) 0.6558(2)
H16 H 0.48550 0.65050 0.63500
H17 H 0.37760 0.49010 0.60390
H18 H 0.45830 0.57440 0.73230
C17 C -0.2923(5) 1.2783(4) 0.7012(3)
H19 H -0.28750 1.27930 0.77880
H20 H -0.38500 1.33290 0.66760
H21 H -0.18410 1.32580 0.69970
#END
