
#######################################################################
#
#                 Cambridge Crystallographic Data Centre
#                                CCDC
#
#######################################################################
#
# If this CIF has been generated from an entry in the Cambridge
# Structural Database, then it will include bibliographic, chemical,
# crystal, experimental, refinement or atomic coordinate data resulting
# from the CCDC's data processing and validation procedures.
#
#######################################################################

data_CSD_CIF_CAYTOO
_audit_creation_date 2017-05-29
_audit_creation_method CSD-ConQuest-V1
_database_code_CSD CAYTOO
_database_code_depnum_ccdc_archive 'CCDC 1530808'
_chemical_formula_sum 'C17 H20 N4 O3'
_chemical_formula_moiety
;
C17 H20 N4 O3
;
_journal_coden_Cambridge 179
_journal_volume 56
_journal_year 2017
_journal_page_first 5101
_journal_name_full 'Angew.Chem.,Int.Ed. '
loop_
_publ_author_name
"Qiming Zhu"
"Qinghe Yuan"
"Mingwei Chen"
"Mengping Guo"
"Hanmin Huang"
_chemical_name_systematic
;
1-[2-(4-nitrophenoxy)ethyl]-4-(pyridin-2-yl)piperazine
;
_cell_volume   1634.285
_exptl_crystal_colour 'yellow'
_exptl_crystal_density_diffrn 1.335
_exptl_crystal_description 'block'
_diffrn_ambient_temperature 296
#These two values have been output from a single CSD field.
_refine_ls_R_factor_gt 0.039
_refine_ls_wR_factor_gt 0.039
_symmetry_cell_setting monoclinic
_symmetry_space_group_name_H-M 'P 21/c'
_symmetry_Int_Tables_number 14
loop_
_symmetry_equiv_pos_site_id
_symmetry_equiv_pos_as_xyz
1 x,y,z
2 -x,1/2+y,1/2-z
3 -x,-y,-z
4 x,-1/2-y,-1/2+z
_cell_length_a 13.236(2)
_cell_length_b 6.1337(10)
_cell_length_c 20.371(3)
_cell_angle_alpha 90
_cell_angle_beta 98.818(2)
_cell_angle_gamma 90
_cell_formula_units_Z 4
loop_
_atom_type_symbol
_atom_type_radius_bond
C 0.68
H 0.23
N 0.68
O 0.68
loop_
_atom_site_label
_atom_site_type_symbol
_atom_site_fract_x
_atom_site_fract_y
_atom_site_fract_z
O1 O 0.69954(12) 0.9990(3) 0.37581(8)
O2 O 0.61899(11) 1.0539(3) 0.45757(8)
O3 O 0.39560(9) 0.2243(2) 0.32988(6)
N1 N 0.63314(11) 0.9515(3) 0.40839(8)
N2 N 0.21446(9) -0.0025(2) 0.25928(6)
N3 N 0.04639(10) -0.0410(2) 0.15289(6)
N4 N -0.08871(10) 0.1287(2) 0.08663(7)
C1 C 0.57023(11) 0.7606(3) 0.38858(7)
C2 C 0.58805(12) 0.6395(3) 0.33446(8)
H1 H 0.63970 0.67890 0.31060
C3 C 0.52842(12) 0.4602(3) 0.31638(8)
H2 H 0.53960 0.37710 0.28000
C4 C 0.45092(11) 0.4020(3) 0.35235(7)
C5 C 0.43517(11) 0.5242(3) 0.40719(7)
H3 H 0.38410 0.48490 0.43160
C6 C 0.49544(11) 0.7042(3) 0.42537(7)
H4 H 0.48560 0.78660 0.46220
C7 C 0.31069(13) 0.1653(3) 0.36254(8)
H5 H 0.26200 0.28450 0.35980
H6 H 0.33440 0.13450 0.40910
C8 C 0.26079(13) -0.0331(3) 0.32883(8)
H7 H 0.31160 -0.14790 0.33080
H8 H 0.20820 -0.08270 0.35370
C9 C 0.12702(12) 0.1456(3) 0.25290(8)
H9 H 0.14920 0.28720 0.27080
H10 H 0.07660 0.08950 0.27840
C10 C 0.07906(12) 0.1701(3) 0.18117(8)
H11 H 0.02060 0.26700 0.17820
H12 H 0.12820 0.23430 0.15610
C11 C 0.13042(12) -0.1965(3) 0.15978(8)
H13 H 0.18080 -0.15010 0.13270
H14 H 0.10490 -0.33840 0.14410
C12 C 0.18003(12) -0.2137(3) 0.23136(8)
H15 H 0.13150 -0.27560 0.25730
H16 H 0.23810 -0.31170 0.23440
C13 C -0.03143(11) -0.0508(3) 0.09898(7)
C14 C -0.05264(14) -0.2402(3) 0.06073(8)
H17 H -0.01260 -0.36440 0.06980
C15 C -0.13302(15) -0.2391(4) 0.00996(9)
H18 H -0.14740 -0.36310 -0.01610
C16 C -0.19278(14) -0.0562(4) -0.00291(9)
H19 H -0.24810 -0.05320 -0.03710
C17 C -0.16736(13) 0.1204(4) 0.03668(8)
H20 H -0.20760 0.24460 0.02850
#END
