
#######################################################################
#
#                 Cambridge Crystallographic Data Centre
#                                CCDC
#
#######################################################################
#
# If this CIF has been generated from an entry in the Cambridge
# Structural Database, then it will include bibliographic, chemical,
# crystal, experimental, refinement or atomic coordinate data resulting
# from the CCDC's data processing and validation procedures.
#
#######################################################################

data_CSD_CIF_CAYYOR
_audit_creation_date 2006-04-04
_audit_creation_method CSD-ConQuest-V1
_database_code_CSD CAYYOR
_database_code_depnum_ccdc_archive 'CCDC 274063'
_chemical_formula_sum 'C17 H21 N1 O6'
_chemical_formula_moiety
;
C17 H21 N1 O6
;
_journal_coden_Cambridge 179
_journal_volume 44
_journal_year 2005
_journal_page_first 6715
_journal_name_full 'Angew.Chem.,Int.Ed. '
loop_
_publ_author_name
"D.R.Williams"
"D.C.Kammler"
"A.F.Donnell"
"W.R.F.Goundry"
_chemical_name_systematic
;
3-(2,5-Dihydroxy-7-oxabicyclo(4.1.0)hept-2-yl)-1-((4-methoxybenzyl)oxy)-2-azet
idinone
;
_cell_volume   1647.105
_exptl_crystal_colour 'colorless'
_exptl_crystal_density_diffrn 1.352
_exptl_crystal_description 'thin plate'
_diffrn_ambient_temperature 111
#These two values have been output from a single CSD field.
_refine_ls_R_factor_gt 0.0391
_refine_ls_wR_factor_gt 0.0391
loop_
_citation_database_id_CSD
_citation_special_details
NAYYUI "is a stereoisomer of this entry"
_symmetry_cell_setting orthorhombic
_symmetry_space_group_name_H-M 'P 21 21 21'
_symmetry_Int_Tables_number 19
loop_
_symmetry_equiv_pos_site_id
_symmetry_equiv_pos_as_xyz
1 x,y,z
2 1/2-x,-y,1/2+z
3 1/2+x,1/2-y,-z
4 -x,1/2+y,1/2-z
_cell_length_a 5.6693(2)
_cell_length_b 10.2239(3)
_cell_length_c 28.4168(10)
_cell_angle_alpha 90
_cell_angle_beta 90
_cell_angle_gamma 90
_cell_formula_units_Z 4
loop_
_atom_type_symbol
_atom_type_radius_bond
C 0.68
H 0.23
N 0.68
O 0.68
loop_
_atom_site_label
_atom_site_type_symbol
_atom_site_fract_x
_atom_site_fract_y
_atom_site_fract_z
O1 O 0.33229(17) 0.78410(8) -0.02613(4)
C1 C 0.2343(2) 0.90763(11) -0.01051(4)
C2 C 0.2422(2) 0.87591(12) -0.06094(5)
C3 C 0.4256(2) 0.93455(14) -0.09296(5)
O2 O 0.3199(2) 1.03326(11) -0.12081(4)
C4 C 0.6404(2) 0.97721(14) -0.06420(5)
C5 C 0.5688(2) 1.06709(13) -0.02402(5)
C6 C 0.4118(2) 0.99975(11) 0.01243(4)
O3 O 0.54532(17) 0.92979(9) 0.04681(4)
C7 C 0.2747(2) 1.10363(12) 0.03925(4)
C8 C 0.1457(3) 1.06155(13) 0.08518(5)
N1 N 0.3111(2) 1.15034(12) 0.10882(4)
C9 C 0.4265(3) 1.19325(12) 0.07079(5)
O4 O 0.5854(2) 1.27201(10) 0.06493(4)
O5 O 0.3201(3) 1.19445(11) 0.15460(4)
C10 C 0.4915(4) 1.11833(19) 0.18160(6)
C11 C 0.4158(3) 0.97915(17) 0.18851(5)
C12 C 0.2090(3) 0.95046(18) 0.21266(7)
C13 C 0.1391(3) 0.82244(19) 0.21966(8)
C14 C 0.2770(3) 0.71987(16) 0.20345(5)
C15 C 0.4840(3) 0.74599(18) 0.17928(6)
C16 C 0.5490(3) 0.87598(19) 0.17198(6)
O6 O 0.1942(3) 0.59764(12) 0.21298(5)
C17 C 0.3196(5) 0.48804(19) 0.19489(7)
H1 H 0.091(4) 0.9002(18) 0.0073(7)
H2 H 0.099(3) 0.8472(18) -0.0754(6)
H3 H 0.476(3) 0.8659(19) -0.1153(7)
H4 H 0.244(4) 1.089(2) -0.1039(8)
H5 H 0.734(4) 0.895(2) -0.0497(7)
H6 H 0.749(4) 1.027(2) -0.0870(8)
H7 H 0.716(4) 1.0969(17) -0.0076(7)
H8 H 0.477(4) 1.150(2) -0.0401(7)
H9 H 0.601(5) 0.869(3) 0.0356(9)
H10 H 0.176(3) 1.1552(16) 0.0185(6)
H11 H 0.168(3) 0.9717(17) 0.0944(6)
H12 H -0.007(3) 1.0943(17) 0.0889(6)
H13 H 0.642(5) 1.130(3) 0.1666(9)
H14 H 0.480(5) 1.173(3) 0.2120(9)
H15 H 0.127(4) 1.023(3) 0.2221(9)
H16 H -0.009(5) 0.803(2) 0.2354(9)
H17 H 0.581(5) 0.677(2) 0.1675(9)
H18 H 0.692(5) 0.895(2) 0.1538(8)
H19 H 0.219(6) 0.408(3) 0.2044(11)
H20 H 0.344(4) 0.495(2) 0.1611(9)
H21 H 0.469(5) 0.485(2) 0.2095(8)
#END
