
#######################################################################
#
#                 Cambridge Crystallographic Data Centre
#                                CCDC
#
#######################################################################
#
# If this CIF has been generated from an entry in the Cambridge
# Structural Database, then it will include bibliographic, chemical,
# crystal, experimental, refinement or atomic coordinate data resulting
# from the CCDC's data processing and validation procedures.
#
#######################################################################

data_CSD_CIF_CAZBZO11
_audit_creation_date 2018-02-27
_audit_creation_method CSD-ConQuest-V1
_database_code_CSD CAZBZO11
_database_code_depnum_ccdc_archive 'CCDC 1576216'
_chemical_formula_sum 'C12 H10 N2 O2'
_chemical_formula_moiety
;
C12 H10 N2 O2
;
_journal_coden_Cambridge 1147
_journal_volume 18
_journal_year 2018
_journal_page_first 1293
_journal_name_full 'Cryst.Growth Des. '
loop_
_publ_author_name
"P.P.Rodenbough"
"D.P.Karothu"
"T.Gjorgjieva"
"P.Commins"
"H.Hara"
"P.Naumov"
_chemical_name_systematic
;
Nitrosobenzene
;
_cell_volume   2129.362
_exptl_crystal_colour 'colorless'
_exptl_crystal_density_diffrn 1.336
_exptl_crystal_description 'block'
_diffrn_ambient_temperature 100
#These two values have been output from a single CSD field.
_refine_ls_R_factor_gt 0.0326
_refine_ls_wR_factor_gt 0.0326
_symmetry_cell_setting orthorhombic
_symmetry_space_group_name_H-M 'P b c n'
_symmetry_Int_Tables_number 60
loop_
_symmetry_equiv_pos_site_id
_symmetry_equiv_pos_as_xyz
1 x,y,z
2 1/2-x,1/2-y,1/2+z
3 1/2+x,1/2-y,-z
4 -x,y,1/2-z
5 -x,-y,-z
6 -1/2+x,-1/2+y,-1/2-z
7 -1/2-x,-1/2+y,z
8 x,-y,-1/2+z
_cell_length_a 10.264(9)
_cell_length_b 13.792(12)
_cell_length_c 15.042(13)
_cell_angle_alpha 90
_cell_angle_beta 90
_cell_angle_gamma 90
_cell_formula_units_Z 8
loop_
_atom_type_symbol
_atom_type_radius_bond
C 0.68
H 0.23
N 0.68
O 0.68
loop_
_atom_site_label
_atom_site_type_symbol
_atom_site_fract_x
_atom_site_fract_y
_atom_site_fract_z
O1 O 0.43069(8) 0.33973(6) 0.61671(5)
O2 O 0.33125(9) 0.49404(6) 0.54552(5)
N1 N 0.40643(9) 0.34180(7) 0.53407(6)
N2 N 0.35201(9) 0.41979(7) 0.49820(6)
C1 C 0.30345(11) 0.41425(8) 0.40754(7)
C2 C 0.21079(11) 0.34499(8) 0.38699(8)
H1 H 0.18090 0.30200 0.43000
C3 C 0.34814(11) 0.48160(8) 0.34657(8)
H2 H 0.40900 0.52840 0.36270
C4 C 0.54952(11) 0.28513(9) 0.41483(8)
H3 H 0.58270 0.34760 0.40910
C5 C 0.59547(12) 0.21015(9) 0.36227(9)
H4 H 0.66070 0.22190 0.32070
C6 C 0.40141(12) 0.17292(8) 0.48691(8)
H5 H 0.33730 0.16100 0.52920
C7 C 0.29923(12) 0.47704(9) 0.26053(8)
H6 H 0.32760 0.52110 0.21790
C8 C 0.16357(12) 0.34112(9) 0.30104(8)
H7 H 0.10210 0.29460 0.28540
C9 C 0.45282(11) 0.26462(8) 0.47613(7)
C10 C 0.54445(13) 0.11772(9) 0.37146(9)
H8 H 0.57550 0.06770 0.33580
C11 C 0.20831(13) 0.40692(9) 0.23813(8)
H9 H 0.17680 0.40390 0.18020
C12 C 0.44784(12) 0.09900(9) 0.43313(9)
H10 H 0.41400 0.03670 0.43850
#END
