
#######################################################################
#
#                 Cambridge Crystallographic Data Centre
#                                CCDC
#
#######################################################################
#
# If this CIF has been generated from an entry in the Cambridge
# Structural Database, then it will include bibliographic, chemical,
# crystal, experimental, refinement or atomic coordinate data resulting
# from the CCDC's data processing and validation procedures.
#
#######################################################################

data_CSD_CIF_CAZCAJ
_audit_creation_date 2012-07-19
_audit_creation_method CSD-ConQuest-V1
_database_code_CSD CAZCAJ
_database_code_depnum_ccdc_archive 'CCDC 824139'
_chemical_formula_sum 'C3 H4 N6 O4'
_chemical_formula_moiety
;
C3 H4 N6 O4
;
_journal_coden_Cambridge 1290
_journal_year 2012
_journal_page_first 2429
_journal_name_full 'Eur.J.Inorg.Chem. '
loop_
_publ_author_name
"A.A.Dippold"
"T.M.Klapotke"
"F.A.Martin"
"S.Wiedbrauk"
_chemical_name_systematic
;
1-Methyl-N,3-dinitro-1H-1,2,4-triazol-5-amine
;
_cell_volume   1480.184
_exptl_crystal_colour 'colorless'
_exptl_crystal_density_diffrn 1.688
_exptl_crystal_description 'plate'
_diffrn_ambient_temperature 173
#These two values have been output from a single CSD field.
_refine_ls_R_factor_gt 0.0299
_refine_ls_wR_factor_gt 0.0299
_symmetry_cell_setting orthorhombic
_symmetry_space_group_name_H-M 'P 21 21 21'
_symmetry_Int_Tables_number 19
loop_
_symmetry_equiv_pos_site_id
_symmetry_equiv_pos_as_xyz
1 x,y,z
2 1/2-x,-y,1/2+z
3 1/2+x,1/2-y,-z
4 -x,1/2+y,1/2-z
_cell_length_a 7.5559(5)
_cell_length_b 10.1845(6)
_cell_length_c 19.2349(12)
_cell_angle_alpha 90
_cell_angle_beta 90
_cell_angle_gamma 90
_cell_formula_units_Z 8
loop_
_atom_type_symbol
_atom_type_radius_bond
C 0.68
H 0.23
N 0.68
O 0.68
loop_
_atom_site_label
_atom_site_type_symbol
_atom_site_fract_x
_atom_site_fract_y
_atom_site_fract_z
O1 O -0.0194(3) 0.2029(2) 0.2861(1)
O2 O -0.0574(3) 0.3979(2) 0.32981(11)
O3 O 0.5537(3) 0.3043(2) 0.51687(12)
O4 O 0.7690(3) 0.4473(2) 0.50777(11)
N1 N 0.4630(3) 0.2346(2) 0.36611(11)
N2 N 0.3112(3) 0.1940(2) 0.33561(11)
N3 N 0.2810(3) 0.4016(2) 0.37821(11)
N4 N 0.0308(3) 0.2994(3) 0.31816(12)
N5 N 0.5797(3) 0.4261(2) 0.42209(12)
N6 N 0.6370(4) 0.3897(3) 0.48648(14)
C1 C 0.2112(4) 0.2995(3) 0.34488(13)
C2 C 0.4420(4) 0.3571(3) 0.39118(13)
C3 C 0.6153(4) 0.1478(3) 0.36798(17)
H1 H 0.63660 0.11210 0.32140
H2 H 0.59260 0.07570 0.40050
H3 H 0.71960 0.19720 0.38330
O5 O 0.5208(3) 0.3444(2) 0.22189(10)
O6 O 0.5533(3) 0.1466(2) 0.17969(11)
O7 O 0.0129(3) 0.2265(2) -0.01911(11)
O8 O -0.1942(3) 0.0764(2) -0.02108(11)
N7 N 0.0392(3) 0.3184(2) 0.14181(11)
N8 N 0.1883(3) 0.3546(2) 0.17445(11)
N9 N 0.2192(3) 0.1519(2) 0.12718(11)
N10 N 0.4687(3) 0.2475(3) 0.19043(12)
N11 N -0.0784(3) 0.1351(2) 0.07939(13)
N12 N -0.0853(4) 0.1465(2) 0.00806(13)
C4 C 0.2885(4) 0.2508(3) 0.16337(13)
C5 C 0.0582(4) 0.1979(3) 0.11403(14)
C6 C -0.1143(4) 0.4049(3) 0.14098(17)
H4 H -0.07590 0.49510 0.13170
H5 H -0.17390 0.40130 0.18620
H6 H -0.19640 0.37650 0.10450
H7 H 0.638(4) 0.493(3) 0.4020(15)
H8 H -0.133(4) 0.069(3) 0.0942(15)
#END
