
#######################################################################
#
#                 Cambridge Crystallographic Data Centre
#                                CCDC
#
#######################################################################
#
# If this CIF has been generated from an entry in the Cambridge
# Structural Database, then it will include bibliographic, chemical,
# crystal, experimental, refinement or atomic coordinate data resulting
# from the CCDC's data processing and validation procedures.
#
#######################################################################

data_CSD_CIF_CAZVEH
_audit_creation_date 2017-05-30
_audit_creation_method CSD-ConQuest-V1
_database_code_CSD CAZVEH
_database_code_depnum_ccdc_archive 'CCDC 1537568'
_chemical_formula_sum 'C50 H40 N10 O6'
_chemical_formula_moiety
;
C50 H40 N10 O6
;
_journal_coden_Cambridge 1495
_journal_year 2017
_journal_name_full 'Arab.J.Chem. '
loop_
_publ_author_name
"H.Behbehani"
"K.M.Dawood"
"H.M.Ibrahim"
"N.S.Mostafa"
_chemical_name_systematic
;
9,9'-dimethyl-4,4'-bis(4-methylphenyl)-1,1'-bis(4-nitrophenyl)-7,7'-diphenyl[3
,3',4,4',7,7',8,8'-octaaza[2,2'-bi(spiro[4.4]nonane)]-2,2',8,8'-tetraene]-6,6'
-dione
;
_cell_volume   4428.801
_exptl_crystal_colour 'yellow'
_exptl_crystal_density_diffrn 1.315
_exptl_crystal_description 'Block'
_diffrn_ambient_temperature 293
#These two values have been output from a single CSD field.
_refine_ls_R_factor_gt 0.0701
_refine_ls_wR_factor_gt 0.0701
_symmetry_cell_setting monoclinic
_symmetry_space_group_name_H-M 'C 2/c'
_symmetry_Int_Tables_number 15
loop_
_symmetry_equiv_pos_site_id
_symmetry_equiv_pos_as_xyz
1 x,y,z
2 -x,y,1/2-z
3 1/2+x,1/2+y,z
4 1/2-x,1/2+y,1/2-z
5 -x,-y,-z
6 x,-y,-1/2+z
7 -1/2-x,-1/2-y,-z
8 -1/2+x,-1/2-y,-1/2+z
_cell_length_a 21.616(3)
_cell_length_b 12.8096(10)
_cell_length_c 16.1911(17)
_cell_angle_alpha 90
_cell_angle_beta 98.934(7)
_cell_angle_gamma 90
_cell_formula_units_Z 4
loop_
_atom_type_symbol
_atom_type_radius_bond
C 0.68
H 0.23
N 0.68
O 0.68
loop_
_atom_site_label
_atom_site_type_symbol
_atom_site_fract_x
_atom_site_fract_y
_atom_site_fract_z
O1 O 0.63991(13) 0.9723(3) 0.30229(17)
O2 O 0.76879(17) 1.2860(3) 0.7081(3)
O3 O 0.78466(17) 1.1636(3) 0.8036(3)
N1 N 0.67215(13) 0.7198(2) 0.45437(19)
N2 N 0.62404(13) 0.7855(2) 0.4189(2)
N3 N 0.59737(14) 1.0563(3) 0.40507(19)
N4 N 0.58189(14) 1.0313(3) 0.4862(2)
N5 N 0.77136(17) 1.1939(4) 0.7306(3)
C1 C 0.63808(15) 0.8945(3) 0.4401(2)
C2 C 0.71138(15) 0.8913(3) 0.4696(2)
C3 C 0.72063(15) 0.7745(3) 0.4837(2)
C4 C 0.62467(17) 0.9753(3) 0.3701(3)
C5 C 0.60123(16) 0.9396(3) 0.5042(3)
C6 C 0.58778(17) 1.1629(3) 0.3779(3)
C7 C 0.5853(3) 1.1865(4) 0.2940(3)
C8 C 0.5788(3) 1.2921(4) 0.2697(4)
C9 C 0.5744(3) 1.3671(4) 0.3271(5)
C10 C 0.5755(3) 1.3427(4) 0.4082(4)
C11 C 0.5830(2) 1.2397(3) 0.4349(4)
C12 C 0.5861(2) 0.8850(4) 0.5789(3)
C13 C 0.73306(14) 0.9664(3) 0.5399(2)
C14 C 0.74444(18) 1.0711(3) 0.5205(3)
C15 C 0.75717(19) 1.1437(3) 0.5831(3)
C16 C 0.75934(16) 1.1134(3) 0.6643(3)
C17 C 0.75035(16) 1.0111(3) 0.6861(3)
C18 C 0.73730(15) 0.9381(3) 0.6233(2)
C19 C 0.56296(16) 0.7448(3) 0.3988(3)
C20 C 0.55192(19) 0.6399(4) 0.4076(4)
C21 C 0.4922(3) 0.6009(4) 0.3844(5)
C22 C 0.4423(2) 0.6631(5) 0.3514(4)
C23 C 0.45422(19) 0.7682(4) 0.3445(3)
C24 C 0.51351(18) 0.8083(4) 0.3685(3)
C25 C 0.3780(3) 0.6172(5) 0.3237(6)
H1 H 0.73170 0.91090 0.42180
H2 H 0.58790 1.13430 0.25480
H3 H 0.57760 1.31020 0.21390
H4 H 0.57060 1.43660 0.31040
H5 H 0.57110 1.39510 0.44660
H6 H 0.58490 1.22330 0.49120
H7 H 0.57850 0.93540 0.62000
H8 H 0.62070 0.84130 0.60170
H9 H 0.54940 0.84280 0.56350
H10 H 0.74330 1.09100 0.46510
H11 H 0.76430 1.21300 0.57030
H12 H 0.75300 0.99180 0.74190
H13 H 0.73120 0.86880 0.63710
H14 H 0.58450 0.59540 0.42900
H15 H 0.48530 0.53000 0.39140
H16 H 0.42170 0.81280 0.32320
H17 H 0.52010 0.87970 0.36410
H18 H 0.35270 0.66620 0.28840
H19 H 0.35860 0.60240 0.37190
H20 H 0.38170 0.55380 0.29330
O1F O 0.86009(13) 0.5277(3) 0.69771(17)
O2F O 0.73121(17) 0.2140(3) 0.2919(3)
O3F O 0.71534(17) 0.3364(3) 0.1964(3)
N1F N 0.82785(13) 0.7802(2) 0.54563(19)
N2F N 0.87596(13) 0.7145(2) 0.5811(2)
N3F N 0.90263(14) 0.4437(3) 0.59493(19)
N4F N 0.91811(14) 0.4687(3) 0.5138(2)
N5F N 0.72864(17) 0.3061(4) 0.2694(3)
C1F C 0.86192(15) 0.6055(3) 0.5599(2)
C2F C 0.78862(15) 0.6087(3) 0.5304(2)
C3F C 0.77937(15) 0.7255(3) 0.5163(2)
C4F C 0.87533(17) 0.5247(3) 0.6299(3)
C5F C 0.89877(16) 0.5604(3) 0.4958(3)
C6F C 0.91222(17) 0.3371(3) 0.6221(3)
C7F C 0.9147(3) 0.3135(4) 0.7060(3)
C8F C 0.9212(3) 0.2079(4) 0.7303(4)
C9F C 0.9256(3) 0.1329(4) 0.6729(5)
C10F C 0.9245(3) 0.1573(4) 0.5918(4)
C11F C 0.9170(2) 0.2603(3) 0.5651(4)
C12F C 0.9139(2) 0.6150(4) 0.4211(3)
C13F C 0.76694(14) 0.5336(3) 0.4601(2)
C14F C 0.75556(18) 0.4289(3) 0.4795(3)
C15F C 0.74283(19) 0.3563(3) 0.4169(3)
C16F C 0.74066(16) 0.3866(3) 0.3357(3)
C17F C 0.74965(16) 0.4889(3) 0.3139(3)
C18F C 0.76270(15) 0.5619(3) 0.3767(2)
C19F C 0.93704(16) 0.7552(3) 0.6012(3)
C20F C 0.94808(19) 0.8601(4) 0.5924(4)
C21F C 1.0078(3) 0.8991(4) 0.6156(5)
C22F C 1.0577(2) 0.8369(5) 0.6486(4)
C23F C 1.04578(19) 0.7318(4) 0.6555(3)
C24F C 0.98649(18) 0.6917(4) 0.6315(3)
C25F C 1.1220(3) 0.8828(5) 0.6763(6)
H1F H 0.76830 0.58910 0.57820
H2F H 0.91210 0.36570 0.74520
H3F H 0.92240 0.18980 0.78610
H4F H 0.92940 0.06340 0.68960
H5F H 0.92890 0.10490 0.55340
H6F H 0.91510 0.27670 0.50880
H7F H 0.92150 0.56460 0.38000
H8F H 0.87930 0.65870 0.39830
H9F H 0.95060 0.65720 0.43650
H10F H 0.75670 0.40900 0.53490
H11F H 0.73570 0.28700 0.42970
H12F H 0.74700 0.50820 0.25810
H13F H 0.76880 0.63120 0.36290
H14F H 0.91550 0.90460 0.57100
H15F H 1.01470 0.97000 0.60860
H16F H 1.07830 0.68720 0.67680
H17F H 0.97990 0.62030 0.63590
H18F H 1.14730 0.83380 0.71160
H19F H 1.14140 0.89760 0.62810
H20F H 1.11830 0.94620 0.70670
#END
