
#######################################################################
#
#                 Cambridge Crystallographic Data Centre
#                                CCDC
#
#######################################################################
#
# If this CIF has been generated from an entry in the Cambridge
# Structural Database, then it will include bibliographic, chemical,
# crystal, experimental, refinement or atomic coordinate data resulting
# from the CCDC's data processing and validation procedures.
#
#######################################################################

data_CSD_CIF_CAZVII
_audit_creation_date 1984-08-24
_audit_creation_method CSD-ConQuest-V1
_database_code_CSD CAZVII
_database_code_depnum_ccdc_archive 'CCDC 1121306'
_chemical_formula_sum 'C16 H17 N3 O1'
_chemical_formula_moiety
;
C16 H17 N3 O1
;
_journal_coden_Cambridge 24
_journal_volume 24
_journal_year 1983
_journal_page_first 5763
_journal_name_full 'Tetrahedron Lett. '
loop_
_publ_author_name
"D.Korbonits"
"K.Simon"
"P.Kolonits"
_chemical_name_systematic
;
6-Amino-2,3-diphenyl-2,4,4,5-tetrahydropyrimidine-N-oxide
;
_cell_volume   1369.333
_diffrn_ambient_temperature ?
_diffrn_special_details
;
The study was carried out at room temperature,in the range 283-303K

;
_symmetry_cell_setting triclinic
_symmetry_space_group_name_H-M 'P -1'
_symmetry_Int_Tables_number 2
loop_
_symmetry_equiv_pos_site_id
_symmetry_equiv_pos_as_xyz
1 x,y,z
2 -x,-y,-z
_cell_length_a 10.949
_cell_length_b 12.925
_cell_length_c 10.609
_cell_angle_alpha 112.08
_cell_angle_beta 100.15
_cell_angle_gamma 85.49
_cell_formula_units_Z 4
loop_
_atom_type_symbol
_atom_type_radius_bond
C 0.68
H 0.23
N 0.68
O 0.68
loop_
_atom_site_label
_atom_site_type_symbol
_atom_site_fract_x
_atom_site_fract_y
_atom_site_fract_z
N1 N 0.00900 0.34030 0.67350
C1 C -0.08180 0.32550 0.55000
N2 N -0.03090 0.36160 0.45510
C2 C 0.08690 0.37090 0.45540
C3 C 0.18050 0.35930 0.56940
C4 C 0.13270 0.29760 0.64530
C5 C -0.03360 0.33550 0.78890
C6 C 0.03490 0.28510 0.87350
C7 C -0.00390 0.28790 0.99170
C8 C -0.11300 0.34010 1.02890
C9 C -0.18370 0.38700 0.94380
C10 C -0.14530 0.38690 0.82710
C11 C -0.13110 0.20810 0.47240
C12 C -0.24650 0.18120 0.48640
C13 C -0.29400 0.07580 0.41380
C14 C -0.22700 -0.00510 0.32740
C15 C -0.11180 0.02080 0.31270
C16 C -0.06510 0.12660 0.38300
O1 O -0.11670 0.37240 0.35240
N3 N 0.12180 0.39510 0.35500
H1 H -0.15060 0.37060 0.58330
H2 H 0.25070 0.31990 0.53190
H3 H 0.20440 0.43180 0.63290
H4 H 0.12860 0.22010 0.59050
H5 H 0.18680 0.30860 0.72970
H6 H 0.11050 0.24760 0.84950
H7 H 0.04580 0.25320 1.04800
H8 H -0.13880 0.34350 1.11130
H9 H -0.26140 0.42060 0.96600
H10 H -0.19550 0.42220 0.77180
H11 H -0.29380 0.23620 0.54690
H12 H -0.37400 0.05930 0.42390
H13 H -0.25910 -0.07810 0.27840
H14 H -0.06420 -0.03490 0.25330
H15 H 0.01340 0.14360 0.36990
H16 H 0.05460 0.39450 0.27730
H17 H 0.22070 0.39450 0.35940
N4 N 0.43310 0.18660 0.02830
C17 C 0.36680 0.24470 0.14260
N5 N 0.44400 0.32920 0.25800
C18 C 0.56550 0.32850 0.27480
C19 C 0.63420 0.23960 0.17380
C20 C 0.55180 0.14310 0.08050
C21 C 0.44510 0.24100 -0.06360
C22 C 0.49750 0.17930 -0.18150
C23 C 0.51350 0.22620 -0.27340
C24 C 0.47750 0.33430 -0.25390
C25 C 0.42340 0.39490 -0.14040
C26 C 0.40800 0.34920 -0.04490
C27 C 0.31580 0.16080 0.18890
C28 C 0.23200 0.08250 0.09510
C29 C 0.18660 0.00200 0.13180
C30 C 0.22380 -0.00030 0.26130
C31 C 0.30610 0.07720 0.35450
C32 C 0.35210 0.15740 0.31830
O2 O 0.38130 0.40840 0.34940
N6 N 0.63060 0.40740 0.38010
H18 H 0.29910 0.28440 0.11150
H19 H 0.66570 0.27150 0.11890
H20 H 0.70120 0.21230 0.22350
H21 H 0.59170 0.09800 0.00520
H22 H 0.53640 0.09950 0.13080
H23 H 0.52230 0.10390 -0.19790
H24 H 0.55020 0.18300 -0.35200
H25 H 0.48980 0.36670 -0.31760
H26 H 0.39610 0.46930 -0.12690
H27 H 0.37160 0.39300 0.03380
H28 H 0.20560 0.08370 0.00550
H29 H 0.12950 -0.05170 0.06700
H30 H 0.19270 -0.05530 0.28610
H31 H 0.33170 0.07610 0.44430
H32 H 0.40940 0.21060 0.38350
H33 H 0.72070 0.39450 0.38870
H34 H 0.58200 0.45700 0.44340
#END
