
#######################################################################
#
#                 Cambridge Crystallographic Data Centre
#                                CCDC
#
#######################################################################
#
# If this CIF has been generated from an entry in the Cambridge
# Structural Database, then it will include bibliographic, chemical,
# crystal, experimental, refinement or atomic coordinate data resulting
# from the CCDC's data processing and validation procedures.
#
#######################################################################

data_CSD_CIF_CBYMBZ
_audit_creation_date 1976-05-02
_audit_creation_method CSD-ConQuest-V1
_database_code_CSD CBYMBZ
_database_code_depnum_ccdc_archive 'CCDC 1121532'
_chemical_formula_sum 'C18 H19 N1 O4'
_chemical_formula_moiety
;
C18 H19 N1 O4
;
_journal_coden_Cambridge 15
_journal_volume 53
_journal_year 1975
_journal_page_first 2121
_journal_name_full 'Can.J.Chem. '
loop_
_publ_author_name
"S.P.N.van der Heijden"
"W.D.Chandler"
"B.E.Robertson"
_chemical_name_systematic
;
2-(4'-Carbomethoxy-2'-nitrobenzyl)-1,3,5-trimethylbenzene
;
_chemical_melting_point 377.15
_cell_volume    818.305
_exptl_crystal_density_diffrn 1.27
_exptl_special_details
;
Melting point range 377.15-378.15K

;
_diffrn_ambient_temperature ?
_diffrn_special_details
;
The study was carried out at room temperature,in the range 283-303K

;
#These two values have been output from a single CSD field.
_refine_ls_R_factor_gt 0.055
_refine_ls_wR_factor_gt 0.055
_symmetry_cell_setting triclinic
_symmetry_space_group_name_H-M 'P -1'
_symmetry_Int_Tables_number 2
loop_
_symmetry_equiv_pos_site_id
_symmetry_equiv_pos_as_xyz
1 x,y,z
2 -x,-y,-z
_cell_length_a 9.534(5)
_cell_length_b 11.887(7)
_cell_length_c 7.431(6)
_cell_angle_alpha 101.62(3)
_cell_angle_beta 97.25(3)
_cell_angle_gamma 88.6(3)
_cell_formula_units_Z 2
loop_
_atom_type_symbol
_atom_type_radius_bond
C 0.68
H 0.23
N 0.68
O 0.68
loop_
_atom_site_label
_atom_site_type_symbol
_atom_site_fract_x
_atom_site_fract_y
_atom_site_fract_z
C1 C -0.08920 -0.29310 -0.36920
C2 C -0.18900 -0.14030 -0.69800
C3 C -0.28940 -0.06810 -0.76660
C4 C -0.33810 0.02840 -0.65570
C5 C -0.28430 0.05210 -0.47200
C6 C -0.18430 -0.01840 -0.39600
C7 C -0.14180 -0.24460 -0.82850
C8 C -0.44790 0.10530 -0.73530
C9 C -0.13240 0.01110 -0.19300
C10 C -0.02670 -0.19340 -0.43340
C11 C -0.01010 -0.37860 -0.29790
C12 C -0.07090 -0.46950 -0.24680
C13 C -0.21600 -0.47840 -0.26290
C14 C -0.29870 -0.39510 -0.33020
C15 C -0.23510 -0.30560 -0.38210
C16 C -0.27670 -0.57880 -0.20690
C17 C -0.48360 -0.65920 -0.14250
C18 C -0.13560 -0.11540 -0.51120
H1 H -0.32400 -0.08600 -0.89700
H2 H -0.31300 0.11800 -0.38900
H3 H -0.04300 -0.24100 -0.83300
H4 H -0.19800 -0.24900 -0.95400
H5 H -0.16100 -0.31800 -0.78600
H6 H -0.53700 0.07400 -0.75500
H7 H -0.44600 0.17900 -0.64200
H8 H -0.42400 0.13100 -0.85000
H9 H -0.14700 -0.05300 -0.13600
H10 H -0.03000 0.02700 -0.17100
H11 H -0.17800 0.07400 -0.13400
H12 H 0.03800 -0.14900 -0.33300
H13 H 0.03900 -0.22300 -0.52700
H14 H -0.01100 -0.52500 -0.20300
H15 H -0.40100 -0.40100 -0.34700
H16 H -0.29600 -0.25200 -0.43300
H17 H -0.43900 -0.66400 -0.02500
H18 H -0.48300 -0.72500 -0.23500
H19 H -0.57300 -0.63600 -0.13600
N1 N 0.14660 -0.37840 -0.27590
O1 O 0.20650 -0.29220 -0.27540
O2 O 0.20850 -0.46440 -0.25410
O3 O -0.20920 -0.65830 -0.16810
O4 O -0.41510 -0.56860 -0.20370
#END
