
#######################################################################
#
#                 Cambridge Crystallographic Data Centre
#                                CCDC
#
#######################################################################
#
# If this CIF has been generated from an entry in the Cambridge
# Structural Database, then it will include bibliographic, chemical,
# crystal, experimental, refinement or atomic coordinate data resulting
# from the CCDC's data processing and validation procedures.
#
#######################################################################

data_CSD_CIF_CECCOE
_audit_creation_date 2013-01-17
_audit_creation_method CSD-ConQuest-V1
_database_code_CSD CECCOE
_database_code_depnum_ccdc_archive 'CCDC 874502'
_chemical_formula_sum 'C17 H10 N2 O2'
_chemical_formula_moiety
;
C17 H10 N2 O2
;
_journal_coden_Cambridge 24
_journal_volume 53
_journal_year 2012
_journal_page_first 4591
_journal_name_full 'Tetrahedron Lett. '
loop_
_publ_author_name
"V.P.Singh"
"P.Singh"
"H.B.Singh"
"R.J.Butcher"
_chemical_name_systematic
;
10-Nitrobenzo[c]phenanthridine
;
_cell_volume   1242.171
_exptl_crystal_colour 'colorless'
_exptl_crystal_density_diffrn 1.467
_exptl_crystal_description 'prism'
_diffrn_ambient_temperature 123
_refine_special_details
;
N1A,O1A,O2A and N1B,O1B,O2B disordered over two sites with occupancies 
0.617:0.383.
;
#These two values have been output from a single CSD field.
_refine_ls_R_factor_gt 0.0705
_refine_ls_wR_factor_gt 0.0705
_symmetry_cell_setting monoclinic
_symmetry_space_group_name_H-M 'P 21/n'
_symmetry_Int_Tables_number 14
loop_
_symmetry_equiv_pos_site_id
_symmetry_equiv_pos_as_xyz
1 x,y,z
2 1/2-x,1/2+y,1/2-z
3 -x,-y,-z
4 -1/2+x,-1/2-y,-1/2+z
_cell_length_a 8.7715(6)
_cell_length_b 10.8310(6)
_cell_length_c 13.1005(9)
_cell_angle_alpha 90
_cell_angle_beta 93.581(6)
_cell_angle_gamma 90
_cell_formula_units_Z 4
loop_
_atom_type_symbol
_atom_type_radius_bond
C 0.68
H 0.23
N 0.68
O 0.68
loop_
_atom_site_label
_atom_site_type_symbol
_atom_site_fract_x
_atom_site_fract_y
_atom_site_fract_z
O1 O 0.5076(2) 0.55040(16) 0.88678(13)
O2 O 0.2819(2) 0.62932(17) 0.85829(14)
N1 N 0.4162(3) 0.63138(18) 0.84750(15)
N2 N 0.78128(13) 0.62216(11) 0.54332(9)
C1 C 0.48393(15) 0.71643(12) 0.77515(11)
C2 C 0.46609(16) 0.83789(13) 0.80073(11)
H1 H 0.39960 0.86040 0.85210
C3 C 0.54687(17) 0.92886(13) 0.75037(12)
H2 H 0.53200 1.01370 0.76510
C4 C 0.64692(16) 0.89438(12) 0.68006(11)
H3 H 0.70750 0.95530 0.64970
C5 C 0.66175(15) 0.76939(12) 0.65185(10)
C6 C 0.76425(16) 0.73403(12) 0.57678(11)
H4 H 0.82470 0.79700 0.54910
C7 C 0.68997(14) 0.53074(12) 0.58063(10)
C8 C 0.70592(15) 0.40875(12) 0.53837(10)
C9 C 0.81389(17) 0.38207(14) 0.46532(11)
H5 H 0.87910 0.44550 0.44330
C10 C 0.82469(18) 0.26507(15) 0.42625(12)
H6 H 0.89680 0.24850 0.37690
C11 C 0.73031(18) 0.16922(14) 0.45835(13)
H7 H 0.73940 0.08840 0.43120
C12 C 0.62580(17) 0.19307(13) 0.52869(12)
H8 H 0.56150 0.12850 0.54980
C13 C 0.61200(15) 0.31240(12) 0.57048(10)
C14 C 0.50078(16) 0.33898(12) 0.64185(11)
H9 H 0.43530 0.27480 0.66210
C15 C 0.48597(15) 0.45339(12) 0.68161(10)
H10 H 0.40910 0.46800 0.72820
C16 C 0.58351(15) 0.55287(11) 0.65508(10)
C17 C 0.57526(15) 0.67606(11) 0.69597(10)
N3? N 0.4093(5) 0.6219(3) 0.8345(3)
O3? O 0.2627(4) 0.6328(3) 0.8304(2)
O4? O 0.4814(4) 0.5671(3) 0.8988(3)
#END
