
#######################################################################
#
#                 Cambridge Crystallographic Data Centre
#                                CCDC
#
#######################################################################
#
# If this CIF has been generated from an entry in the Cambridge
# Structural Database, then it will include bibliographic, chemical,
# crystal, experimental, refinement or atomic coordinate data resulting
# from the CCDC's data processing and validation procedures.
#
#######################################################################

data_CSD_CIF_CECCEU
_audit_creation_date 2013-01-17
_audit_creation_method CSD-ConQuest-V1
_database_code_CSD CECCEU
_database_code_depnum_ccdc_archive 'CCDC 821672'
_chemical_formula_sum 'C13 H10 N2 O2'
_chemical_formula_moiety
;
C13 H10 N2 O2
;
_journal_coden_Cambridge 24
_journal_volume 53
_journal_year 2012
_journal_page_first 4591
_journal_name_full 'Tetrahedron Lett. '
loop_
_publ_author_name
"V.P.Singh"
"P.Singh"
"H.B.Singh"
"R.J.Butcher"
_chemical_name_systematic
;
10-Nitro-5,6-dihydrophenanthridine
;
_cell_volume   2174.108
_exptl_crystal_colour 'orange'
_exptl_crystal_density_diffrn 1.382
_exptl_crystal_description 'chunk'
_diffrn_ambient_temperature 295
#These two values have been output from a single CSD field.
_refine_ls_R_factor_gt 0.0413
_refine_ls_wR_factor_gt 0.0413
_symmetry_cell_setting orthorhombic
_symmetry_space_group_name_H-M 'P b c a'
_symmetry_Int_Tables_number 61
loop_
_symmetry_equiv_pos_site_id
_symmetry_equiv_pos_as_xyz
1 x,y,z
2 1/2-x,-y,1/2+z
3 -x,1/2+y,1/2-z
4 1/2+x,1/2-y,-z
5 -x,-y,-z
6 -1/2+x,y,-1/2-z
7 x,-1/2-y,-1/2+z
8 -1/2-x,-1/2+y,z
_cell_length_a 7.7355(2)
_cell_length_b 13.8253(3)
_cell_length_c 20.3291(4)
_cell_angle_alpha 90
_cell_angle_beta 90
_cell_angle_gamma 90
_cell_formula_units_Z 8
loop_
_atom_type_symbol
_atom_type_radius_bond
C 0.68
H 0.23
N 0.68
O 0.68
loop_
_atom_site_label
_atom_site_type_symbol
_atom_site_fract_x
_atom_site_fract_y
_atom_site_fract_z
O1 O 0.07887(14) 0.42830(9) 0.59857(5)
O2 O 0.13582(18) 0.42174(9) 0.49494(5)
N1 N 0.16586(16) 0.45001(8) 0.55096(5)
N2 N 0.6144(2) 0.50090(12) 0.72542(9)
H1 H 0.675(3) 0.4948(17) 0.7589(11)
C1 C 0.31045(19) 0.51693(10) 0.56103(6)
C2 C 0.3044(3) 0.60122(11) 0.52410(8)
H2 H 0.22250 0.60850 0.49100
C3 C 0.4197(3) 0.67314(12) 0.53700(11)
H3 H 0.41670 0.73040 0.51300
C4 C 0.5410(3) 0.66059(12) 0.58585(12)
H4 H 0.61650 0.71090 0.59570
C5 C 0.5533(2) 0.57407(11) 0.62096(10)
C6 C 0.6892(3) 0.55673(15) 0.67155(12)
H5 H 0.78500 0.52150 0.65220
H6 H 0.73250 0.61800 0.68800
C7 C 0.54728(18) 0.41153(11) 0.70591(7)
C8 C 0.5615(2) 0.32909(13) 0.74464(7)
H7 H 0.61200 0.33320 0.78610
C9 C 0.5018(2) 0.24191(12) 0.72229(7)
H8 H 0.51230 0.18720 0.74860
C10 C 0.42610(19) 0.2344(1) 0.66088(7)
H9 H 0.38920 0.17460 0.64530
C11 C 0.40584(17) 0.31647(9) 0.62305(6)
H10 H 0.35430 0.31130 0.58190
C12 C 0.46067(15) 0.40676(9) 0.64497(6)
C13 C 0.43714(17) 0.49825(9) 0.60835(7)
#END
