
#######################################################################
#
#                 Cambridge Crystallographic Data Centre
#                                CCDC
#
#######################################################################
#
# If this CIF has been generated from an entry in the Cambridge
# Structural Database, then it will include bibliographic, chemical,
# crystal, experimental, refinement or atomic coordinate data resulting
# from the CCDC's data processing and validation procedures.
#
#######################################################################

data_CSD_CIF_CECCIY
_audit_creation_date 2013-01-17
_audit_creation_method CSD-ConQuest-V1
_database_code_CSD CECCIY
_database_code_depnum_ccdc_archive 'CCDC 874501'
_chemical_formula_sum 'C17 H12 N2 O2'
_chemical_formula_moiety
;
C17 H12 N2 O2
;
_journal_coden_Cambridge 24
_journal_volume 53
_journal_year 2012
_journal_page_first 4591
_journal_name_full 'Tetrahedron Lett. '
loop_
_publ_author_name
"V.P.Singh"
"P.Singh"
"H.B.Singh"
"R.J.Butcher"
_chemical_name_systematic
;
10-Nitro-5,6-dihydrobenzo[c]phenanthridine
;
_cell_volume   1289.893
_exptl_crystal_colour 'red'
_exptl_crystal_density_diffrn 1.423
_exptl_crystal_description 'block'
_diffrn_ambient_temperature 123
#These two values have been output from a single CSD field.
_refine_ls_R_factor_gt 0.0432
_refine_ls_wR_factor_gt 0.0432
_symmetry_cell_setting monoclinic
_symmetry_space_group_name_H-M 'P 21/c'
_symmetry_Int_Tables_number 14
loop_
_symmetry_equiv_pos_site_id
_symmetry_equiv_pos_as_xyz
1 x,y,z
2 -x,1/2+y,1/2-z
3 -x,-y,-z
4 x,-1/2-y,-1/2+z
_cell_length_a 9.7183(3)
_cell_length_b 7.3710(2)
_cell_length_c 18.1991(5)
_cell_angle_alpha 90
_cell_angle_beta 98.336(3)
_cell_angle_gamma 90
_cell_formula_units_Z 4
loop_
_atom_type_symbol
_atom_type_radius_bond
C 0.68
H 0.23
N 0.68
O 0.68
loop_
_atom_site_label
_atom_site_type_symbol
_atom_site_fract_x
_atom_site_fract_y
_atom_site_fract_z
O1 O 0.37364(10) 0.87486(14) 0.45402(5)
O2 O 0.48189(10) 0.69710(14) 0.53811(5)
N1 N 0.46490(11) 0.76469(15) 0.47554(5)
N2 N 0.45231(11) 0.72931(15) 0.19889(5)
H1 H 0.4302(18) 0.733(3) 0.1505(10)
C1 C 0.56476(12) 0.71691(16) 0.42534(6)
C2 C 0.70313(13) 0.71988(18) 0.45798(7)
H2 H 0.72710 0.73540 0.51010
C3 C 0.80545(13) 0.69965(18) 0.41282(7)
H3 H 0.90070 0.69600 0.43390
C4 C 0.76757(13) 0.68485(17) 0.33672(7)
H4 H 0.83780 0.68050 0.30550
C5 C 0.62902(12) 0.67630(16) 0.30538(6)
C6 C 0.59026(12) 0.65343(17) 0.22281(6)
H5 H 0.65940 0.71590 0.19680
H6 H 0.59070 0.52300 0.20990
C7 C 0.34799(12) 0.67053(15) 0.23753(6)
C8 C 0.20983(13) 0.63889(16) 0.19970(7)
C9 C 0.17152(14) 0.67467(18) 0.12285(7)
H7 H 0.23660 0.72970 0.09560
C10 C 0.04143(15) 0.6306(2) 0.08757(7)
H8 H 0.01690 0.65670 0.03620
C11 C -0.05601(14) 0.5470(2) 0.12663(8)
H9 H -0.14490 0.51390 0.10140
C12 C -0.02274(13) 0.51354(18) 0.20084(8)
H10 H -0.08940 0.45730 0.22680
C13 C 0.10930(12) 0.56098(16) 0.23999(7)
C14 C 0.14583(12) 0.52653(17) 0.31722(7)
H11 H 0.07970 0.47300 0.34430
C15 C 0.27482(12) 0.56970(16) 0.35275(6)
H12 H 0.29610 0.54910 0.40470
C16 C 0.37839(12) 0.64478(15) 0.31404(6)
C17 C 0.52170(12) 0.68344(15) 0.34979(6)
#END
