
#######################################################################
#
#                 Cambridge Crystallographic Data Centre
#                                CCDC
#
#######################################################################
#
# If this CIF has been generated from an entry in the Cambridge
# Structural Database, then it will include bibliographic, chemical,
# crystal, experimental, refinement or atomic coordinate data resulting
# from the CCDC's data processing and validation procedures.
#
#######################################################################

data_CSD_CIF_CECFIB
_audit_creation_date 2013-01-17
_audit_creation_method CSD-ConQuest-V1
_database_code_CSD CECFIB
_database_code_depnum_ccdc_archive 'CCDC 873260'
_chemical_formula_sum 'C11 H14 N2 O2'
_chemical_formula_moiety
;
C11 H14 N2 O2
;
_journal_coden_Cambridge 24
_journal_volume 53
_journal_year 2012
_journal_page_first 4697
_journal_name_full 'Tetrahedron Lett. '
loop_
_publ_author_name
"L.Menguy"
"B.Drouillat"
"J.Marrot"
"F.Couty"
_chemical_name_systematic
;
2-Benzyl-1,2-oxazolidine-5-carboxamide
;
_cell_volume   1000.999
_exptl_crystal_colour 'colorless'
_exptl_crystal_density_diffrn 1.369
_exptl_crystal_description 'parallelepiped'
_diffrn_ambient_temperature 100
#These two values have been output from a single CSD field.
_refine_ls_R_factor_gt 0.0365
_refine_ls_wR_factor_gt 0.0365
_symmetry_cell_setting monoclinic
_symmetry_space_group_name_H-M 'P 21/n'
_symmetry_Int_Tables_number 14
loop_
_symmetry_equiv_pos_site_id
_symmetry_equiv_pos_as_xyz
1 x,y,z
2 1/2-x,1/2+y,1/2-z
3 -x,-y,-z
4 -1/2+x,-1/2-y,-1/2+z
_cell_length_a 5.4128(8)
_cell_length_b 26.736(4)
_cell_length_c 7.4182(10)
_cell_angle_alpha 90
_cell_angle_beta 111.183(5)
_cell_angle_gamma 90
_cell_formula_units_Z 4
loop_
_atom_type_symbol
_atom_type_radius_bond
C 0.68
H 0.23
N 0.68
O 0.68
loop_
_atom_site_label
_atom_site_type_symbol
_atom_site_fract_x
_atom_site_fract_y
_atom_site_fract_z
O1 O 1.09967(13) 0.01932(3) 0.80139(9)
C1 C 0.86532(17) 0.03328(3) 0.73624(12)
N1 N 0.70682(15) 0.03326(3) 0.83841(11)
H1 H 0.545(3) 0.0401(5) 0.780(2)
H2 H 0.761(3) 0.0188(6) 0.953(2)
C2 C 0.74785(16) 0.05012(3) 0.52720(12)
H3 H 0.74170 0.02100 0.44120
C3 C 0.90116(17) 0.09279(3) 0.47830(13)
H4 H 1.07240 0.09890 0.58470
H5 H 0.93380 0.08590 0.35770
C4 C 0.71106(17) 0.13665(3) 0.45338(13)
H6 H 0.74410 0.15350 0.57870
H7 H 0.73320 0.16130 0.36090
N2 N 0.44376(14) 0.11504(3) 0.37896(10)
O2 O 0.47992(12) 0.06829(2) 0.48604(9)
C5 C 0.35914(17) 0.10072(3) 0.17317(12)
H8 H 0.20240 0.07860 0.13970
H9 H 0.50330 0.08190 0.15140
C6 C 0.29109(16) 0.14618(3) 0.04411(12)
C7 C 0.41111(18) 0.15370(3) -0.09111(13)
H10 H 0.54440 0.13120 -0.09600
C8 C 0.33792(19) 0.19388(4) -0.21936(14)
H11 H 0.41990 0.19840 -0.31190
C9 C 0.14599(19) 0.22726(3) -0.21224(13)
H12 H 0.09500 0.25450 -0.30020
C10 C 0.02842(18) 0.22057(3) -0.07527(13)
H13 H -0.10160 0.24360 -0.06870
C11 C 0.09995(18) 0.18038(4) 0.05185(13)
H14 H 0.01840 0.17610 0.14470
#END
