
#######################################################################
#
#                 Cambridge Crystallographic Data Centre
#                                CCDC
#
#######################################################################
#
# If this CIF has been generated from an entry in the Cambridge
# Structural Database, then it will include bibliographic, chemical,
# crystal, experimental, refinement or atomic coordinate data resulting
# from the CCDC's data processing and validation procedures.
#
#######################################################################

data_CSD_CIF_CECPEH
_audit_creation_date 2013-01-17
_audit_creation_method CSD-ConQuest-V1
_database_code_CSD CECPEH
_database_code_depnum_ccdc_archive 'CCDC 877509'
_chemical_formula_sum 'C18 H16 N4 O6'
_chemical_formula_moiety
;
C18 H16 N4 O6
;
_journal_coden_Cambridge 24
_journal_volume 53
_journal_year 2012
_journal_page_first 5393
_journal_name_full 'Tetrahedron Lett. '
loop_
_publ_author_name
"L.Zink"
"K.Neilde"
"M.D.Crozet"
"P.Vanelle"
_chemical_name_systematic
;
4-(4-(4-Methoxyphenoxy)-3-nitrophenyl)-1,2-dimethyl-5-nitro-1H-imidazole
;
_cell_volume    894.655
_exptl_crystal_colour 'colorless'
_exptl_crystal_density_diffrn 1.427
_exptl_crystal_description 'prism'
_diffrn_ambient_temperature 293
#These two values have been output from a single CSD field.
_refine_ls_R_factor_gt 0.066
_refine_ls_wR_factor_gt 0.066
_symmetry_cell_setting triclinic
_symmetry_space_group_name_H-M 'P -1'
_symmetry_Int_Tables_number 2
loop_
_symmetry_equiv_pos_site_id
_symmetry_equiv_pos_as_xyz
1 x,y,z
2 -x,-y,-z
_cell_length_a 7.3800(2)
_cell_length_b 9.2849(2)
_cell_length_c 13.6130(4)
_cell_angle_alpha 90.672(1)
_cell_angle_beta 105.679(1)
_cell_angle_gamma 94.599(1)
_cell_formula_units_Z 2
loop_
_atom_type_symbol
_atom_type_radius_bond
C 0.68
H 0.23
N 0.68
O 0.68
loop_
_atom_site_label
_atom_site_type_symbol
_atom_site_fract_x
_atom_site_fract_y
_atom_site_fract_z
C1 C 0.5629(3) -0.2911(2) 0.29935(15)
C2 C 0.8510(3) -0.2054(2) 0.37439(17)
C3 C 0.5670(3) -0.1437(2) 0.31600(15)
C4 C 0.8174(4) -0.4722(3) 0.3394(2)
H1 H 0.95290 -0.46170 0.36050
H2 H 0.77490 -0.51860 0.27280
H3 H 0.77150 -0.53000 0.38710
C5 C 1.0570(3) -0.1960(3) 0.4259(2)
H4 H 1.10370 -0.09650 0.44090
H5 H 1.12170 -0.23840 0.38190
H6 H 1.07840 -0.24730 0.48830
C6 C 0.4213(3) -0.0403(2) 0.29488(15)
C7 C 0.2694(3) -0.0452(2) 0.20753(17)
H7 H 0.25370 -0.12000 0.15910
C8 C 0.1416(3) 0.0592(2) 0.19156(16)
H8 H 0.04210 0.05390 0.13230
C9 C 0.1598(3) 0.1721(2) 0.26295(16)
C10 C 0.3160(3) 0.1791(2) 0.34884(15)
C11 C 0.4443(3) 0.07564(19) 0.36398(15)
H9 H 0.54770 0.08360 0.42130
C12 C -0.1171(3) 0.2711(2) 0.16614(16)
C13 C -0.2771(3) 0.1860(3) 0.1653(2)
H10 H -0.27860 0.12420 0.21840
C14 C -0.4371(3) 0.1926(3) 0.0846(2)
H11 H -0.54610 0.13380 0.08290
C15 C -0.4355(3) 0.2858(2) 0.00670(16)
C16 C -0.2732(4) 0.3722(3) 0.01023(18)
H12 H -0.27170 0.43610 -0.04170
C17 C -0.1136(3) 0.3650(3) 0.08939(18)
H13 H -0.00420 0.42320 0.09110
C18 C -0.7583(4) 0.2234(4) -0.0812(3)
H14 H -0.74470 0.12240 -0.08950
H15 H -0.85380 0.25340 -0.13840
H16 H -0.79450 0.23970 -0.01950
N1 N 0.4060(3) -0.39390(18) 0.25997(14)
N2 N 0.7451(2) -0.32905(18) 0.33613(13)
N3 N 0.7491(2) -0.09257(19) 0.36308(15)
N4 N 0.3516(3) 0.29603(18) 0.42708(13)
O1 O 0.2471(2) -0.35182(19) 0.23911(16)
O2 O 0.4331(3) -0.51990(18) 0.24655(17)
O3 O 0.5119(3) 0.3199(2) 0.48183(15)
O4 O 0.2206(3) 0.3625(2) 0.43541(14)
O5 O 0.0391(2) 0.27666(17) 0.25194(13)
O6 O -0.5867(3) 0.3030(2) -0.07526(14)
#END
