
#######################################################################
#
#                 Cambridge Crystallographic Data Centre
#                                CCDC
#
#######################################################################
#
# If this CIF has been generated from an entry in the Cambridge
# Structural Database, then it will include bibliographic, chemical,
# crystal, experimental, refinement or atomic coordinate data resulting
# from the CCDC's data processing and validation procedures.
#
#######################################################################

data_CSD_CIF_CECPIL
_audit_creation_date 2013-01-17
_audit_creation_method CSD-ConQuest-V1
_database_code_CSD CECPIL
_database_code_depnum_ccdc_archive 'CCDC 877510'
_chemical_formula_sum 'C18 H16 N4 O5'
_chemical_formula_moiety
;
C18 H16 N4 O5
;
_journal_coden_Cambridge 24
_journal_volume 53
_journal_year 2012
_journal_page_first 5393
_journal_name_full 'Tetrahedron Lett. '
loop_
_publ_author_name
"L.Zink"
"K.Neilde"
"M.D.Crozet"
"P.Vanelle"
_chemical_name_systematic
;
1,2-Dimethyl-4-(4-(4-methylphenoxy)-3-nitrophenyl)-5-nitro-1H-imidazole
;
_cell_volume    875.845
_exptl_crystal_colour 'colorless'
_exptl_crystal_density_diffrn 1.397
_exptl_crystal_description 'prism'
_diffrn_ambient_temperature 293
#These two values have been output from a single CSD field.
_refine_ls_R_factor_gt 0.0682
_refine_ls_wR_factor_gt 0.0682
_symmetry_cell_setting triclinic
_symmetry_space_group_name_H-M 'P -1'
_symmetry_Int_Tables_number 2
loop_
_symmetry_equiv_pos_site_id
_symmetry_equiv_pos_as_xyz
1 x,y,z
2 -x,-y,-z
_cell_length_a 7.4586(2)
_cell_length_b 9.5297(2)
_cell_length_c 12.8344(4)
_cell_angle_alpha 83.826(1)
_cell_angle_beta 75.061(1)
_cell_angle_gamma 86.635(1)
_cell_formula_units_Z 2
loop_
_atom_type_symbol
_atom_type_radius_bond
C 0.68
H 0.23
N 0.68
O 0.68
loop_
_atom_site_label
_atom_site_type_symbol
_atom_site_fract_x
_atom_site_fract_y
_atom_site_fract_z
C1 C 0.2546(3) 0.1927(2) 0.70503(17)
C2 C 0.0399(3) 0.2813(2) 0.62702(19)
C3 C 0.2675(3) 0.3379(2) 0.68814(16)
C4 C 0.0393(4) 0.0180(3) 0.6610(2)
H1 H -0.07450 0.02890 0.63870
H2 H 0.01760 -0.03440 0.73100
H3 H 0.13030 -0.03190 0.60950
C5 C -0.1157(4) 0.2948(3) 0.5735(3)
H4 H -0.14170 0.39290 0.55500
H5 H -0.22420 0.25360 0.62200
H6 H -0.08180 0.24670 0.50890
C6 C 0.3903(3) 0.43921(19) 0.71165(16)
C7 C 0.4617(3) 0.4257(2) 0.80253(18)
H7 H 0.44040 0.34440 0.85040
C8 C 0.5635(3) 0.5313(2) 0.82255(19)
H8 H 0.60820 0.52050 0.88430
C9 C 0.6007(3) 0.6535(2) 0.75206(19)
C10 C 0.5301(3) 0.66633(19) 0.66106(16)
C11 C 0.4251(3) 0.56207(19) 0.64195(16)
H9 H 0.37690 0.57420 0.58150
C12 C 0.7940(3) 0.7497(2) 0.84682(18)
C13 C 0.9458(3) 0.6585(2) 0.8352(2)
H10 H 0.97250 0.59700 0.78120
C14 C 1.0580(3) 0.6603(3) 0.9055(2)
H11 H 1.15970 0.59760 0.89920
C15 C 1.0235(3) 0.7528(2) 0.98508(19)
C16 C 0.8708(3) 0.8433(2) 0.99295(18)
H12 H 0.84530 0.90700 1.04530
C17 C 0.7549(3) 0.8419(2) 0.92511(19)
H13 H 0.65130 0.90280 0.93240
C18 C 1.1494(5) 0.7551(3) 1.0595(3)
H14 H 1.12650 0.67500 1.11280
H15 H 1.12550 0.84040 1.09510
H16 H 1.27640 0.75120 1.01820
N1 N 0.3700(3) 0.09047(18) 0.74639(16)
N2 N 0.1075(2) 0.15804(18) 0.66667(15)
N3 N 0.1324(2) 0.39064(18) 0.63935(16)
N4 N 0.5643(3) 0.79056(18) 0.58134(15)
O1 O 0.5117(3) 0.12899(19) 0.76390(19)
O2 O 0.3219(3) -0.03244(18) 0.7656(2)
O3 O 0.4533(3) 0.81920(19) 0.52647(16)
O4 O 0.7020(3) 0.8575(2) 0.57138(16)
O5 O 0.6893(3) 0.76468(16) 0.77093(17)
#END
