
#######################################################################
#
#                 Cambridge Crystallographic Data Centre
#                                CCDC
#
#######################################################################
#
# If this CIF has been generated from an entry in the Cambridge
# Structural Database, then it will include bibliographic, chemical,
# crystal, experimental, refinement or atomic coordinate data resulting
# from the CCDC's data processing and validation procedures.
#
#######################################################################

data_CSD_CIF_CECPOR
_audit_creation_date 2013-01-17
_audit_creation_method CSD-ConQuest-V1
_database_code_CSD CECPOR
_database_code_depnum_ccdc_archive 'CCDC 875758'
_chemical_formula_sum 'C20 H18 N2 O2'
_chemical_formula_moiety
;
C20 H18 N2 O2
;
_journal_coden_Cambridge 24
_journal_volume 53
_journal_year 2012
_journal_page_first 5414
_journal_name_full 'Tetrahedron Lett. '
loop_
_publ_author_name
"A.V.Stepakov"
"M.S.Ledovskaya"
"V.M.Boitsov"
"A.P.Molchanov"
"R.R.Kostikov"
"V.V.Gurzhiy"
"G.L.Starova"
_chemical_name_systematic
;
rac-(8aR,11aS,11bR)-9-(4-methylphenyl)-5,8a,11a,11b-tetrahydroisoxazolo[5',4':
3,4]pyrrolo[2,1-a]isoquinolin-8(6H)-one
;
_cell_volume   1615.680
_exptl_crystal_colour 'colorless'
_exptl_crystal_density_diffrn 1.309
_exptl_special_details
;
Study temperature given as 210 K and 293 K in the CIF

;
_exptl_crystal_description 'plates'
_diffrn_ambient_temperature 210
#These two values have been output from a single CSD field.
_refine_ls_R_factor_gt 0.0386
_refine_ls_wR_factor_gt 0.0386
_symmetry_cell_setting monoclinic
_symmetry_space_group_name_H-M 'P 21/c'
_symmetry_Int_Tables_number 14
loop_
_symmetry_equiv_pos_site_id
_symmetry_equiv_pos_as_xyz
1 x,y,z
2 -x,1/2+y,1/2-z
3 -x,-y,-z
4 x,-1/2-y,-1/2+z
_cell_length_a 10.1412(6)
_cell_length_b 7.5741(4)
_cell_length_c 21.5512(13)
_cell_angle_alpha 90
_cell_angle_beta 102.570(1)
_cell_angle_gamma 90
_cell_formula_units_Z 4
loop_
_atom_type_symbol
_atom_type_radius_bond
C 0.68
H 0.23
N 0.68
O 0.68
loop_
_atom_site_label
_atom_site_type_symbol
_atom_site_fract_x
_atom_site_fract_y
_atom_site_fract_z
O1 O 0.43188(9) 0.60954(14) 0.25273(4)
O2 O 0.84258(9) 0.57807(15) 0.39699(5)
N1 N 0.53610(12) 0.63352(16) 0.21912(5)
N2 N 0.64009(11) 0.70953(15) 0.39818(5)
C1 C 0.21861(18) 0.6850(2) 0.48471(9)
H1 H 0.15730 0.67640 0.51100
C2 C 0.17500(16) 0.6663(2) 0.41998(9)
H2 H 0.08410 0.64640 0.40220
C3 C 0.26752(15) 0.6773(2) 0.38173(8)
H3 H 0.23820 0.66470 0.33800
C4 C 0.40380(14) 0.70677(18) 0.40743(7)
C5 C 0.50101(14) 0.71401(18) 0.36348(6)
H4 H 0.48570 0.82390 0.33900
C6 C 0.49256(14) 0.55824(19) 0.31703(6)
H5 H 0.44410 0.45850 0.33060
C7 C 0.63750(13) 0.50866(18) 0.31699(6)
H6 H 0.65050 0.38040 0.31940
C8 C 0.64883(13) 0.57911(17) 0.25293(6)
C9 C 0.77036(13) 0.57765(17) 0.22626(6)
C10 C 0.76995(15) 0.65787(19) 0.16809(6)
H7 H 0.69320 0.71780 0.14700
C11 C 0.88093(15) 0.6499(2) 0.14138(7)
H8 H 0.87830 0.70550 0.10260
C12 C 0.99693(14) 0.56063(19) 0.17099(7)
C13 C 1.11658(15) 0.5472(2) 0.14028(8)
H9 H 1.10350 0.45040 0.11080
H10 H 1.19710 0.52770 0.17240
H11 H 1.12540 0.65490 0.11810
C14 C 0.35331(17) 0.7164(2) 0.51054(8)
H12 H 0.38160 0.72960 0.55430
C15 C 0.44807(15) 0.72899(18) 0.47266(7)
C16 C 0.88721(14) 0.49203(19) 0.25682(7)
H13 H 0.89140 0.44010 0.29630
C17 C 0.99772(14) 0.4832(2) 0.22900(7)
H14 H 1.07470 0.42340 0.25000
C18 C 0.72249(14) 0.60074(19) 0.37503(6)
C19 C 0.59484(15) 0.7616(2) 0.50267(7)
H15 H 0.63310 0.65490 0.52430
H16 H 0.60070 0.85370 0.53440
C20 C 0.67824(15) 0.8154(2) 0.45531(7)
H17 H 0.66350 0.93930 0.44480
H18 H 0.77350 0.79870 0.47390
#END
