
#######################################################################
#
#                 Cambridge Crystallographic Data Centre
#                                CCDC
#
#######################################################################
#
# If this CIF has been generated from an entry in the Cambridge
# Structural Database, then it will include bibliographic, chemical,
# crystal, experimental, refinement or atomic coordinate data resulting
# from the CCDC's data processing and validation procedures.
#
#######################################################################

data_CSD_CIF_CEDDEU
_audit_creation_date 1984-10-09
_audit_creation_method CSD-ConQuest-V1
_database_code_CSD CEDDEU
_database_code_depnum_ccdc_archive 'CCDC 1122126'
_chemical_formula_sum 'C24 H28 N6 O6'
_chemical_formula_moiety
;
C24 H28 N6 O6
;
_journal_coden_Cambridge 35
_journal_volume 48
_journal_year 1983
_journal_page_first 4649
_journal_name_full 'J.Org.Chem. '
loop_
_publ_author_name
"F.Effenberger"
"W.Agster"
"P.Fischer"
"K.H.Jogun"
"J.J.Stezowski"
"E.Daltrozzo"
"G.Kollmannsberger-von Nell"
_chemical_name_systematic
;
2,4,6-Tripyrrolidino-2',4',6'-trinitrobiphenyl
;
_chemical_melting_point 447.15
_cell_volume   4715.098
_exptl_crystal_colour 'dark red'
_exptl_special_details
;
Melting point range 447.15-449.15K

;
_diffrn_ambient_temperature 120
#These two values have been output from a single CSD field.
_refine_ls_R_factor_gt 0.054
_refine_ls_wR_factor_gt 0.054
_symmetry_cell_setting monoclinic
_symmetry_space_group_name_H-M 'C 2/c'
_symmetry_Int_Tables_number 15
loop_
_symmetry_equiv_pos_site_id
_symmetry_equiv_pos_as_xyz
1 x,y,z
2 1/2+x,1/2+y,z
3 -x,y,1/2-z
4 1/2-x,1/2+y,1/2-z
5 -x,-y,-z
6 -1/2-x,-1/2-y,-z
7 x,-y,-1/2+z
8 -1/2+x,-1/2-y,-1/2+z
_cell_length_a 16.071(2)
_cell_length_b 14.545(1)
_cell_length_c 20.177(2)
_cell_angle_alpha 90
_cell_angle_beta 91.361(9)
_cell_angle_gamma 90
_cell_formula_units_Z 8
loop_
_atom_type_symbol
_atom_type_radius_bond
C 0.68
H 0.23
N 0.68
O 0.68
loop_
_atom_site_label
_atom_site_type_symbol
_atom_site_fract_x
_atom_site_fract_y
_atom_site_fract_z
C1 C 0.32748 0.25564 0.36815
O1 O 0.71669 0.31535 0.43550
C2 C 0.28279 0.32875 0.33856
N1 N 0.43398 0.10803 0.31537
C3 C 0.19623 0.32751 0.33611
O2 O 0.46222 0.03051 0.32498
C4 C 0.15207 0.25185 0.36172
O3 O 0.38199 0.12752 0.27190
C5 C 0.19731 0.17696 0.38863
H1 H 0.16800 0.37800 0.31480
C6 C 0.28371 0.17922 0.39285
H2 H 0.16900 0.12300 0.40760
C7 C 0.41871 0.25784 0.37594
H3 H 0.57300 0.38000 0.44190
C8 C 0.46340 0.32948 0.40736
H4 H 0.58600 0.12400 0.35360
C9 C 0.54896 0.32891 0.41893
H5 H 0.33300 0.33500 0.21900
C10 C 0.59252 0.25166 0.39998
H6 H 0.42000 0.34200 0.25900
C11 C 0.55407 0.17778 0.36814
H7 H 0.35400 0.46900 0.16800
C12 C 0.46930 0.18385 0.35561
H8 H 0.44600 0.47900 0.20400
N2 N 0.32957 0.40130 0.31039
H9 H 0.33400 0.59600 0.24010
C13 C 0.37080 0.37790 0.24789
H10 H 0.40400 0.56200 0.29400
C14 C 0.38735 0.46970 0.21383
H11 H 0.28000 0.52000 0.34200
C15 C 0.35650 0.54264 0.26208
H12 H 0.23900 0.48900 0.27150
C16 C 0.29020 0.49127 0.30018
H13 H 0.04200 0.16400 0.43690
N3 N 0.06726 0.25072 0.36074
H14 H 0.01900 0.12300 0.36750
C17 C 0.01843 0.17846 0.39194
H15 H -0.07300 0.25400 0.43640
C18 C -0.06888 0.21970 0.39549
H16 H -0.11300 0.17300 0.39200
C19 C -0.07198 0.28800 0.33809
H17 H -0.08000 0.25500 0.29450
C20 C 0.01550 0.32905 0.34039
H18 H -0.11700 0.33400 0.34440
N4 N 0.33093 0.10752 0.42324
H19 H 0.03400 0.35300 0.29670
C21 C 0.29855 0.01324 0.42119
H20 H 0.01800 0.37900 0.37130
C22 C 0.36016 -0.03715 0.46677
H21 H 0.30000 -0.00800 0.37690
C23 C 0.37220 0.03110 0.52364
H22 H 0.24000 0.00600 0.43800
C24 C 0.36410 0.12563 0.49120
H23 H 0.41300 -0.04700 0.44300
N5 N 0.41990 0.41051 0.43411
H24 H 0.33800 -0.09500 0.48100
O4 O 0.35534 0.39794 0.46397
H25 H 0.32700 0.02300 0.55600
O5 O 0.45391 0.48557 0.42743
H26 H 0.42600 0.02600 0.54700
N6 N 0.68294 0.24713 0.41207
H27 H 0.32700 0.16700 0.51700
O6 O 0.71924 0.17634 0.39771
H28 H 0.42200 0.15500 0.48900
#END
