
#######################################################################
#
#                 Cambridge Crystallographic Data Centre
#                                CCDC
#
#######################################################################
#
# If this CIF has been generated from an entry in the Cambridge
# Structural Database, then it will include bibliographic, chemical,
# crystal, experimental, refinement or atomic coordinate data resulting
# from the CCDC's data processing and validation procedures.
#
#######################################################################

data_CSD_CIF_CEDGAV02
_audit_creation_date 2013-04-23
_audit_creation_method CSD-ConQuest-V1
_database_code_CSD CEDGAV02
_database_code_depnum_ccdc_archive 'CCDC 906604'
_chemical_formula_sum 'C8 H8 N2 O2'
_chemical_formula_moiety
;
C8 H8 N2 O2
;
_journal_coeditor_code "IUCr ps5015"
_journal_coden_Cambridge 622
_journal_volume 68
_journal_year 2012
_journal_page_first 536
_journal_name_full 'Acta Crystallogr.,Sect.B:Struct.Sci. '
loop_
_publ_author_name
"D.Britton"
"V.G.Young Junior"
"W.E.Noland"
"M.J.Pinnow"
"C.M.Clark"
_chemical_name_systematic
;
5,6-Dimethylbenzofurazan 1-oxide
;
_cell_volume   1154.628
_exptl_crystal_colour 'pale yellow'
_exptl_crystal_density_diffrn 1.417
_exptl_special_details
;
Z6 polymorph

;
_exptl_crystal_description 'prism'
_diffrn_ambient_temperature 173
_refine_special_details
;
The three independent molecules are disordered over two sites with 
occupancies of 0.7656:0.2344, 0.5019:0.4981 and 0.5661:0.4339.
;
#These two values have been output from a single CSD field.
_refine_ls_R_factor_gt 0.0515
_refine_ls_wR_factor_gt 0.0515
_symmetry_cell_setting triclinic
_symmetry_space_group_name_H-M 'P -1'
_symmetry_Int_Tables_number 2
loop_
_symmetry_equiv_pos_site_id
_symmetry_equiv_pos_as_xyz
1 x,y,z
2 -x,-y,-z
_cell_length_a 9.0070(11)
_cell_length_b 11.1331(13)
_cell_length_c 12.9526(15)
_cell_angle_alpha 65.173(2)
_cell_angle_beta 80.629(2)
_cell_angle_gamma 79.862(2)
_cell_formula_units_Z 6
loop_
_atom_type_symbol
_atom_type_radius_bond
C 0.68
H 0.23
N 0.68
O 0.68
loop_
_atom_site_label
_atom_site_type_symbol
_atom_site_fract_x
_atom_site_fract_y
_atom_site_fract_z
O1 O 0.29681(13) 0.36876(12) 0.09403(9)
O2 O 0.28001(11) 0.20357(11) 0.27648(9)
N1 N 0.36324(14) 0.29627(13) 0.17970(11)
N2 N 0.37472(15) 0.13351(14) 0.36181(11)
C1 C 0.50350(19) 0.2803(2) 0.20875(15)
C2 C 0.50815(18) 0.1806(2) 0.31977(14)
C3 C 0.6449(2) 0.1425(4) 0.3723(2)
H1 H 0.65000 0.07610 0.44800
C4 C 0.7699(2) 0.2038(4) 0.3114(3)
C5 C 0.7615(3) 0.3079(5) 0.1958(3)
C6 C 0.6303(3) 0.3459(4) 0.1451(3)
H2 H 0.62420 0.41360 0.07010
C7 C 0.9165(3) 0.1668(5) 0.3641(3)
H3 H 0.90400 0.09710 0.44150
H4 H 0.94600 0.24550 0.36780
H5 H 0.99550 0.13380 0.31750
C8 C 0.9017(3) 0.3718(5) 0.1310(3)
H6 H 0.87810 0.43820 0.05520
H7 H 0.98160 0.30330 0.12280
H8 H 0.93660 0.41530 0.17300
O3 O 0.8196(2) 0.47227(18) 0.40535(13)
O4 O 0.83630(17) 0.63697(18) 0.22268(13)
N3 N 0.7532(2) 0.5444(2) 0.31958(15)
N4 N 0.7425(2) 0.7046(2) 0.13634(15)
C9 C 0.6130(3) 0.5600(5) 0.2905(3)
C10 C 0.6089(3) 0.6580(5) 0.1788(3)
C11 C 0.4727(5) 0.6945(10) 0.1257(5)
H9 H 0.46870 0.75790 0.04890
C12 C 0.3465(5) 0.6360(11) 0.1880(6)
C13 C 0.3531(4) 0.5368(9) 0.3056(5)
C14 C 0.4850(4) 0.4974(9) 0.3557(5)
H10 H 0.49080 0.43070 0.43110
C15 C 0.2017(7) 0.6684(15) 0.1337(7)
H11 H 0.21440 0.73710 0.05580
H12 H 0.12010 0.70130 0.17870
H13 H 0.17590 0.58790 0.13090
C16 C 0.2148(7) 0.4686(16) 0.3689(8)
H14 H 0.23770 0.40440 0.44560
H15 H 0.18590 0.42190 0.32710
H16 H 0.13100 0.53540 0.37490
O5 O 0.59509(17) 0.78582(16) 0.39978(12)
O6 O 0.60990(15) 0.94967(16) 0.21663(12)
N5 N 0.52650(18) 0.86047(19) 0.31575(14)
N6 N 0.5128(2) 1.0219(2) 0.13329(14)
C17 C 0.3837(3) 0.8808(5) 0.2902(3)
C18 C 0.3777(2) 0.9798(5) 0.1790(3)
C19 C 0.2378(4) 1.0232(9) 0.1302(4)
H17 H 0.23210 1.08770 0.05400
C20 C 0.1107(3) 0.9697(8) 0.1959(5)
C21 C 0.1202(3) 0.8674(8) 0.3122(5)
C22 C 0.2549(4) 0.8222(7) 0.3583(4)
H18 H 0.26220 0.75410 0.43300
C23 C -0.0376(5) 1.0069(13) 0.1453(7)
H19 H -0.02640 1.07660 0.06780
H20 H -0.11500 1.03990 0.19270
H21 H -0.06810 0.92830 0.14220
C24 C -0.0191(6) 0.8023(17) 0.3778(9)
H22 H 0.00540 0.73630 0.45360
H23 H -0.05370 0.75810 0.33620
H24 H -0.09960 0.87030 0.38620
C25? C 0.4947(4) 0.2116(8) 0.2880(5)
C26? C 0.5049(5) 0.3121(8) 0.1773(5)
C27? C 0.6430(8) 0.3676(14) 0.1302(9)
C28? C 0.7650(8) 0.3163(15) 0.1935(10)
C29? C 0.7507(6) 0.2120(13) 0.3092(9)
C30? C 0.6187(7) 0.1577(13) 0.3548(7)
C31? C 0.9118(10) 0.3749(19) 0.1481(10)
C32? C 0.8889(9) 0.1544(19) 0.3742(11)
C33? C 0.6224(3) 0.6248(5) 0.2130(3)
C34? C 0.6120(3) 0.5245(5) 0.3238(3)
C35? C 0.4741(5) 0.4686(9) 0.3705(5)
C36? C 0.3543(5) 0.5154(9) 0.3050(5)
C37? C 0.3673(5) 0.6225(11) 0.1907(6)
C38? C 0.4991(5) 0.6772(10) 0.1454(5)
C39? C 0.2033(7) 0.4658(16) 0.3546(8)
C40? C 0.2297(7) 0.6787(15) 0.1250(8)
C41? C 0.3903(3) 0.9475(6) 0.2107(4)
C42? C 0.3830(3) 0.8480(7) 0.3220(4)
C43? C 0.2441(5) 0.7959(11) 0.3736(6)
C44? C 0.1195(4) 0.8472(10) 0.3131(6)
C45? C 0.1302(4) 0.9518(11) 0.1973(6)
C46? C 0.2631(5) 1.0028(12) 0.1473(6)
C47? C -0.0331(7) 0.805(2) 0.3693(11)
C48? C -0.0119(6) 1.0138(18) 0.1376(10)
H25? H 0.65090 0.43850 0.05660
H26? H 0.61030 0.08670 0.42820
H27? H 0.90240 0.44610 0.07170
H28? H 0.99280 0.30530 0.14370
H29? H 0.93630 0.41150 0.19930
H30? H 0.86240 0.08270 0.44800
H31? H 0.92560 0.22450 0.38690
H32? H 0.96860 0.11870 0.32980
H33? H 0.46480 0.40040 0.44540
H34? H 0.50790 0.74760 0.07150
H35? H 0.21230 0.39520 0.43140
H36? H 0.17020 0.43030 0.30570
H37? H 0.12890 0.53950 0.35930
H38? H 0.25690 0.74860 0.05030
H39? H 0.15000 0.71660 0.16790
H40? H 0.19260 0.60740 0.11440
H41? H 0.23720 0.72700 0.44830
H42? H 0.27010 1.07250 0.07310
H43? H -0.02210 0.73490 0.44590
H44? H -0.07670 0.77210 0.32340
H45? H -0.10010 0.88220 0.37550
H46? H 0.01370 1.08170 0.06130
H47? H -0.08350 1.05520 0.18220
H48? H -0.05830 0.94470 0.13040
N7? N 0.3524(3) 0.1810(5) 0.3130(3)
N8? N 0.3724(4) 0.3474(4) 0.1323(3)
N9? N 0.7639(2) 0.6573(2) 0.18902(16)
N10? N 0.7429(2) 0.4925(2) 0.37047(15)
N11? N 0.5335(2) 0.9758(3) 0.18167(19)
N12? N 0.5181(3) 0.8106(3) 0.36325(18)
O7? O 0.2817(4) 0.1009(4) 0.3965(3)
O8? O 0.2736(3) 0.2663(4) 0.2144(3)
O9? O 0.83450(19) 0.73783(18) 0.10587(14)
O10? O 0.84203(18) 0.57317(18) 0.28831(13)
O11? O 0.6029(2) 1.0540(2) 0.09597(15)
O12? O 0.6162(2) 0.8887(2) 0.27771(15)
#END
