
#######################################################################
#
#                 Cambridge Crystallographic Data Centre
#                                CCDC
#
#######################################################################
#
# If this CIF has been generated from an entry in the Cambridge
# Structural Database, then it will include bibliographic, chemical,
# crystal, experimental, refinement or atomic coordinate data resulting
# from the CCDC's data processing and validation procedures.
#
#######################################################################

data_CSD_CIF_CEDGAV03
_audit_creation_date 2013-04-23
_audit_creation_method CSD-ConQuest-V1
_database_code_CSD CEDGAV03
_database_code_depnum_ccdc_archive 'CCDC 906605'
_chemical_formula_sum 'C8 H8 N2 O2'
_chemical_formula_moiety
;
C8 H8 N2 O2
;
_journal_coeditor_code "ps5015"
_journal_coden_Cambridge 622
_journal_volume 68
_journal_year 2012
_journal_page_first 536
_journal_name_full 'Acta Crystallogr.,Sect.B:Struct.Sci. '
loop_
_publ_author_name
"D.Britton"
"V.G.Young Junior"
"W.E.Noland"
"M.J.Pinnow"
"C.M.Clark"
_chemical_name_systematic
;
5,6-Dimethylbenzofurazan 1-oxide
;
_cell_volume   1923.846
_exptl_crystal_colour 'pale yellow'
_exptl_crystal_density_diffrn 1.417
_exptl_special_details
;
Z10 polymorph

;
_exptl_crystal_description 'prism'
_diffrn_ambient_temperature 173
_refine_special_details
;
The five independent molecules are disordered over two sites with occupancies 
of 0.546:0.454, 0.598:0.402, 0.810:0.190, 0.545:0.455 and 0.619:0.381.
;
#These two values have been output from a single CSD field.
_refine_ls_R_factor_gt 0.1143
_refine_ls_wR_factor_gt 0.1143
_symmetry_cell_setting triclinic
_symmetry_space_group_name_H-M 'P -1'
_symmetry_Int_Tables_number 2
loop_
_symmetry_equiv_pos_site_id
_symmetry_equiv_pos_as_xyz
1 x,y,z
2 -x,-y,-z
_cell_length_a 9.0136(18)
_cell_length_b 13.064(3)
_cell_length_c 16.567(3)
_cell_angle_alpha 95.055(4)
_cell_angle_beta 97.969(4)
_cell_angle_gamma 90.742(4)
_cell_formula_units_Z 10
loop_
_atom_type_symbol
_atom_type_radius_bond
C 0.68
H 0.23
N 0.68
O 0.68
loop_
_atom_site_label
_atom_site_type_symbol
_atom_site_fract_x
_atom_site_fract_y
_atom_site_fract_z
C1 C -0.0692(5) 0.4871(2) 0.1077(9)
C2 C -0.0633(5) 0.3792(2) 0.1012(9)
C3 C 0.0746(6) 0.3318(3) 0.0928(15)
H1 H 0.08070 0.25900 0.08770
C4 C 0.1986(6) 0.3927(4) 0.0922(13)
C5 C 0.1888(7) 0.5049(4) 0.0961(15)
C6 C 0.0565(7) 0.5517(3) 0.1053(16)
H2 H 0.04960 0.62440 0.10990
C7 C 0.3461(9) 0.3455(5) 0.081(2)
H3 H 0.33560 0.27050 0.07900
H4 H 0.42140 0.37010 0.12790
H5 H 0.37780 0.36500 0.03060
C8 C 0.3286(11) 0.5696(5) 0.096(3)
H6 H 0.30360 0.64250 0.10010
H7 H 0.37110 0.55200 0.04580
H8 H 0.40200 0.55640 0.14360
N1 N -0.2096(3) 0.51036(18) 0.1178(3)
N2 N -0.1963(4) 0.33506(19) 0.1045(3)
O1 O -0.2762(3) 0.59255(18) 0.1268(2)
O2 O -0.2920(3) 0.41516(18) 0.1151(2)
C9 C 0.1377(4) 0.3904(2) 0.3007(8)
C10 C 0.1451(4) 0.2826(2) 0.2958(7)
C11 C 0.2852(4) 0.2360(3) 0.2926(11)
H9 H 0.29200 0.16330 0.28670
C12 C 0.4104(4) 0.2976(3) 0.2981(9)
C13 C 0.3998(4) 0.4098(3) 0.3022(9)
C14 C 0.2645(5) 0.4557(3) 0.3032(12)
H10 H 0.25620 0.52830 0.30550
C15 C 0.5606(5) 0.2514(4) 0.2935(14)
H11 H 0.55000 0.17630 0.28860
H12 H 0.62910 0.27430 0.34330
H13 H 0.60100 0.27340 0.24570
C16 C 0.5383(4) 0.4747(4) 0.2997(8)
H14 H 0.51390 0.54760 0.30570
H15 H 0.57540 0.45870 0.24720
H16 H 0.61580 0.46000 0.34450
N3 N -0.0053(3) 0.41285(18) 0.3049(3)
N4 N 0.0107(3) 0.23768(19) 0.2937(3)
O3 O -0.0736(3) 0.49470(18) 0.3115(2)
O4 O -0.0875(3) 0.31723(17) 0.2998(2)
C17 C 0.9965(3) 0.21124(18) 0.4933(3)
C18 C 0.9921(3) 0.31917(17) 0.5004(3)
C19 C 0.8548(3) 0.3674(2) 0.5091(5)
H17 H 0.84960 0.44020 0.51430
C20 C 0.7301(3) 0.3072(2) 0.5098(5)
C21 C 0.7371(3) 0.1948(2) 0.5016(5)
C22 C 0.8693(3) 0.1473(2) 0.4938(5)
H18 H 0.87530 0.07450 0.48880
C23 C 0.5821(4) 0.3552(3) 0.5177(6)
H19 H 0.59450 0.43020 0.52260
H20 H 0.54490 0.33360 0.56660
H21 H 0.51020 0.33310 0.46920
C24 C 0.5971(5) 0.1310(3) 0.5029(10)
H22 H 0.62040 0.05790 0.49700
H23 H 0.52100 0.14640 0.45770
H24 H 0.55880 0.14720 0.55500
N5 N 1.1376(2) 0.18727(16) 0.48532(18)
N6 N 1.1257(2) 0.36267(16) 0.49752(19)
O5 O 1.2037(2) 0.10475(13) 0.47714(14)
O6 O 1.22086(18) 0.28206(14) 0.48775(14)
C25 C 0.8640(4) 0.1857(2) 0.7114(8)
C26 C 0.8685(4) 0.0778(2) 0.7038(7)
C27 C 1.0052(6) 0.0298(3) 0.6932(13)
H25 H 1.00960 -0.04300 0.68520
C28 C 1.1306(5) 0.0900(3) 0.6948(12)
C29 C 1.1243(5) 0.2024(3) 0.7055(9)
C30 C 0.9921(5) 0.2498(3) 0.7140(9)
H26 H 0.98690 0.32250 0.72120
C31 C 1.2761(9) 0.0425(5) 0.6802(19)
H27 H 1.26330 -0.03250 0.67330
H28 H 1.35280 0.06230 0.72720
H29 H 1.30750 0.06670 0.63070
C32 C 1.2632(8) 0.2665(5) 0.7020(17)
H30 H 1.24070 0.33950 0.71040
H31 H 1.29660 0.25220 0.64840
H32 H 1.34260 0.24930 0.74500
N7 N 0.7228(3) 0.20946(19) 0.7193(3)
N8 N 0.7346(4) 0.03409(19) 0.7056(4)
O7 O 0.6561(3) 0.29187(18) 0.7263(2)
O8 O 0.6396(3) 0.11456(18) 0.7166(3)
C33 C 0.0707(3) 0.0891(2) 0.9044(7)
C34 C 0.0775(3) -0.0187(2) 0.8974(5)
C35 C 0.2177(4) -0.0654(3) 0.8949(7)
H33 H 0.22510 -0.13800 0.89130
C36 C 0.3423(4) -0.0038(3) 0.8976(7)
C37 C 0.3330(4) 0.1084(3) 0.9067(7)
C38 C 0.1976(4) 0.1544(3) 0.9073(11)
H34 H 0.18940 0.22700 0.90960
C39 C 0.4906(6) -0.0500(4) 0.8873(16)
H35 H 0.48020 -0.12510 0.88280
H36 H 0.56440 -0.02700 0.93480
H37 H 0.52400 -0.02810 0.83750
C40 C 0.4730(5) 0.1738(4) 0.9097(11)
H38 H 0.44780 0.24660 0.91500
H39 H 0.51700 0.15830 0.85920
H40 H 0.54530 0.15890 0.95680
N9 N -0.0722(3) 0.11152(18) 0.9087(3)
N10 N -0.0565(3) -0.06365(18) 0.8966(3)
O9 O -0.1410(3) 0.19329(17) 0.9143(2)
O10 O -0.1544(2) 0.01588(17) 0.9037(2)
C41? C -0.0768(6) 0.4118(3) 0.1024(11)
C42? C -0.0671(6) 0.5198(3) 0.1114(12)
C43? C 0.0722(9) 0.5699(4) 0.109(2)
C44? C 0.1943(8) 0.5113(4) 0.1004(18)
C45? C 0.1806(7) 0.3989(4) 0.0886(16)
C46? C 0.0466(8) 0.3496(4) 0.0908(18)
C47? C 0.3433(13) 0.5613(6) 0.096(3)
C48? C 0.3186(11) 0.3368(6) 0.081(3)
C49? C 0.0644(5) 0.0113(3) 0.8959(9)
C50? C 0.0698(5) 0.1194(3) 0.9030(12)
C51? C 0.2084(7) 0.1717(4) 0.9032(19)
C52? C 0.3321(6) 0.1151(5) 0.8937(13)
C53? C 0.3243(5) 0.0025(5) 0.8873(13)
C54? C 0.1907(6) -0.0489(4) 0.8863(12)
C55? C 0.4819(8) 0.1674(6) 0.896(2)
C56? C 0.4668(8) -0.0569(6) 0.889(3)
C57? C 0.1331(5) 0.3137(3) 0.2934(11)
C58? C 0.1404(5) 0.4217(3) 0.3035(12)
C59? C 0.2806(7) 0.4733(4) 0.3079(19)
C60? C 0.4051(5) 0.4163(5) 0.3017(13)
C61? C 0.3944(6) 0.3037(5) 0.2893(14)
C62? C 0.2601(6) 0.2529(4) 0.2875(18)
C63? C 0.5577(6) 0.4671(6) 0.3156(13)
C64? C 0.5352(7) 0.2433(6) 0.286(2)
C65? C 0.8553(5) 0.1095(3) 0.7009(8)
C66? C 0.8653(5) 0.2175(3) 0.7082(10)
C67? C 1.0028(6) 0.2668(3) 0.7007(11)
C68? C 1.1237(6) 0.2077(4) 0.6903(11)
C69? C 1.1124(7) 0.0953(4) 0.6867(14)
C70? C 0.9796(7) 0.0467(3) 0.6928(16)
C71? C 1.2743(9) 0.2571(6) 0.689(2)
C72? C 1.2515(10) 0.0333(6) 0.683(2)
C73? C 1.0041(7) 0.2898(4) 0.4978(12)
C74? C 0.9953(7) 0.1819(4) 0.4940(12)
C75? C 0.8580(11) 0.1328(6) 0.502(2)
C76? C 0.736(1) 0.1918(7) 0.510(2)
C77? C 0.7463(8) 0.3040(6) 0.510(2)
C78? C 0.8802(10) 0.3526(5) 0.507(2)
C79? C 0.5856(18) 0.1423(9) 0.511(5)
C80? C 0.6101(13) 0.3667(9) 0.521(3)
H41? H 0.08060 0.64280 0.11380
H42? H 0.03700 0.27670 0.08480
H43? H 0.33520 0.63620 0.10400
H44? H 0.37400 0.54210 0.04250
H45? H 0.41800 0.53840 0.13920
H46? H 0.29120 0.26340 0.07440
H47? H 0.39160 0.35170 0.13040
H48? H 0.36280 0.35500 0.03320
H49? H 0.21510 0.24460 0.90990
H50? H 0.18330 -0.12180 0.87930
H51? H 0.47040 0.24210 0.90110
H52? H 0.52320 0.14660 0.84570
H53? H 0.55010 0.14780 0.94330
H54? H 0.44260 -0.13070 0.88340
H55? H 0.53200 -0.03840 0.94050
H56? H 0.51840 -0.04010 0.84300
H57? H 0.28800 0.54620 0.31490
H58? H 0.25270 0.17990 0.28250
H59? H 0.54770 0.54190 0.31850
H60? H 0.61240 0.44460 0.27030
H61? H 0.61280 0.44790 0.36710
H62? H 0.51020 0.16960 0.28190
H63? H 0.60510 0.26150 0.33660
H64? H 0.58190 0.25960 0.23890
H65? H 1.01070 0.33960 0.70280
H66? H 0.97140 -0.02600 0.69160
H67? H 1.26460 0.33190 0.69050
H68? H 1.31340 0.23170 0.63880
H69? H 1.34340 0.24010 0.73670
H70? H 1.22600 -0.03990 0.68280
H71? H 1.32600 0.05470 0.73040
H72? H 1.29290 0.04460 0.63250
H73? H 0.85080 0.06010 0.50190
H74? H 0.88940 0.42550 0.51010
H75? H 0.59580 0.06770 0.51130
H76? H 0.51720 0.15770 0.46270
H77? H 0.54530 0.16920 0.56070
H78? H 0.63460 0.43960 0.51900
H79? H 0.57860 0.35640 0.57420
H80? H 0.52850 0.34480 0.47730
N11? N -0.2188(4) 0.3860(2) 0.1075(4)
N12? N -0.1998(4) 0.5616(2) 0.1178(4)
N13? N -0.0786(4) -0.0168(2) 0.8955(6)
N14? N -0.0653(5) 0.1589(2) 0.9056(5)
N15? N -0.0102(4) 0.2862(2) 0.2928(6)
N16? N 0.0055(5) 0.4619(2) 0.3052(6)
N17? N 0.7140(4) 0.0843(2) 0.7081(4)
N18? N 0.7343(5) 0.2598(2) 0.7177(4)
N19? N 1.1471(6) 0.3150(4) 0.4949(10)
N20? N 1.1267(8) 0.1395(4) 0.4853(9)
O11? O -0.2879(4) 0.3026(2) 0.1059(3)
O12? O -0.2983(4) 0.4797(2) 0.1171(3)
O13? O -0.1459(5) -0.1013(2) 0.8916(4)
O14? O -0.1624(4) 0.0755(2) 0.9013(4)
O15? O -0.0781(5) 0.2020(2) 0.2896(3)
O16? O -0.0928(4) 0.3789(2) 0.2995(4)
O17? O 0.6438(4) 0.0012(2) 0.7057(3)
O18? O 0.6350(4) 0.1783(2) 0.7169(3)
O19? O 1.2177(7) 0.3982(4) 0.4986(6)
O20? O 1.2269(6) 0.2210(4) 0.4884(7)
#END
