
#######################################################################
#
#                 Cambridge Crystallographic Data Centre
#                                CCDC
#
#######################################################################
#
# If this CIF has been generated from an entry in the Cambridge
# Structural Database, then it will include bibliographic, chemical,
# crystal, experimental, refinement or atomic coordinate data resulting
# from the CCDC's data processing and validation procedures.
#
#######################################################################

data_CSD_CIF_CEDGAV01
_audit_creation_date 2013-04-23
_audit_creation_method CSD-ConQuest-V1
_database_code_CSD CEDGAV01
_database_code_depnum_ccdc_archive 'CCDC 906603'
_chemical_formula_sum 'C8 H8 N2 O2'
_chemical_formula_moiety
;
C8 H8 N2 O2
;
_journal_coeditor_code "IUCr ps5015"
_journal_coden_Cambridge 622
_journal_volume 68
_journal_year 2012
_journal_page_first 536
_journal_name_full 'Acta Crystallogr.,Sect.B:Struct.Sci. '
loop_
_publ_author_name
"D.Britton"
"V.G.Young Junior"
"W.E.Noland"
"M.J.Pinnow"
"C.M.Clark"
_chemical_name_systematic
;
5,6-Dimethylbenzofurazan 1-oxide
;
_cell_volume    769.989
_exptl_crystal_colour 'pale yellow'
_exptl_crystal_density_diffrn 1.416
_exptl_special_details
;
Z4 polymorph

;
_exptl_crystal_description 'prism'
_diffrn_ambient_temperature 173
_refine_special_details
;
C11,C12,C13,C14,C15,C16,C17,C18,N11,N12,O11,O12 and 
C11A,C12A,C13A,C14A,C15A,C16A,C17A,C18A,N11A,N12A,O11A,O12A disordered over 
two sites with occupancies 0.5672:0.4328; C21,C22,C23,C24,C25,C26, 
C27,C28,N21,N22,O21,O22 and C21A,C22A,C23A,C24A,C25A,C26A,C27A,C28A, 
N21A,N22A,O21A,O22A disordered over two sites with occupancies 0.6307:0.3693.
;
#These two values have been output from a single CSD field.
_refine_ls_R_factor_gt 0.0486
_refine_ls_wR_factor_gt 0.0486
_symmetry_cell_setting triclinic
_symmetry_space_group_name_H-M 'P -1'
_symmetry_Int_Tables_number 2
loop_
_symmetry_equiv_pos_site_id
_symmetry_equiv_pos_as_xyz
1 x,y,z
2 -x,-y,-z
_cell_length_a 7.3643(9)
_cell_length_b 9.0332(11)
_cell_length_c 11.6675(14)
_cell_angle_alpha 89.264(2)
_cell_angle_beta 83.419(2)
_cell_angle_gamma 87.027(2)
_cell_formula_units_Z 4
loop_
_atom_type_symbol
_atom_type_radius_bond
C 0.68
H 0.23
N 0.68
O 0.68
loop_
_atom_site_label
_atom_site_type_symbol
_atom_site_fract_x
_atom_site_fract_y
_atom_site_fract_z
O1 O 0.8147(2) 0.79897(19) 0.00576(14)
O2 O 0.6189(2) 0.81070(16) 0.17525(13)
N1 N 0.7192(3) 0.7289(2) 0.08020(16)
N2 N 0.5183(3) 0.7141(2) 0.24628(17)
C1 C 0.6769(7) 0.5874(3) 0.0966(3)
C2 C 0.5557(7) 0.5803(3) 0.1980(3)
C3 C 0.4931(12) 0.4414(4) 0.2386(5)
H1 H 0.40850 0.43480 0.30610
C4 C 0.5574(11) 0.3164(4) 0.1781(5)
C5 C 0.6857(11) 0.3272(4) 0.0734(5)
C6 C 0.7410(13) 0.4605(4) 0.0320(6)
H2 H 0.82000 0.46810 -0.03790
C7 C 0.4851(19) 0.1680(5) 0.2134(9)
H3 H 0.39560 0.17960 0.28210
H4 H 0.58650 0.10010 0.23100
H5 H 0.42610 0.12770 0.15030
C8 C 0.743(2) 0.1895(5) 0.0047(10)
H6 H 0.83440 0.21360 -0.06000
H7 H 0.63650 0.15030 -0.02510
H8 H 0.79700 0.11480 0.05430
O3 O -0.0409(2) 0.37167(17) 0.75642(13)
O4 O 0.1562(2) 0.36192(15) 0.58742(12)
N3 N 0.0502(3) 0.4431(2) 0.68069(15)
N4 N 0.2478(3) 0.4607(2) 0.51346(16)
C9 C 0.0812(7) 0.5863(3) 0.6608(3)
C10 C 0.2011(6) 0.5949(3) 0.5590(3)
C11 C 0.2554(10) 0.7352(4) 0.5161(5)
H9 H 0.33960 0.74300 0.44840
C12 C 0.1835(11) 0.8597(3) 0.5744(5)
C13 C 0.0575(12) 0.8471(4) 0.6800(5)
C14 C 0.0114(13) 0.7127(4) 0.7240(6)
H10 H -0.06510 0.70410 0.79480
C15 C 0.2451(17) 1.0103(4) 0.5360(8)
H11 H 0.33580 1.00010 0.46780
H12 H 0.30010 1.05650 0.59830
H13 H 0.13970 1.07240 0.51670
C16 C -0.011(2) 0.9852(4) 0.7455(11)
H14 H -0.09930 0.95930 0.81090
H15 H -0.06960 1.05460 0.69420
H16 H 0.09270 1.03170 0.77390
C17? C 0.5949(10) 0.5936(3) 0.1654(4)
C18? C 0.7139(10) 0.5854(3) 0.0628(5)
C19? C 0.7539(18) 0.4470(5) 0.0074(8)
C20? C 0.6698(15) 0.3249(5) 0.0548(7)
C21? C 0.5494(16) 0.3363(4) 0.1633(8)
C22? C 0.5133(17) 0.4682(5) 0.2178(7)
C23? C 0.719(3) 0.1741(6) 0.0036(14)
C24? C 0.482(3) 0.1969(6) 0.2220(11)
C25? C 0.1658(12) 0.5802(3) 0.5904(5)
C26? C 0.0466(12) 0.5848(4) 0.6930(6)
C27? C -0.009(2) 0.7231(5) 0.7451(11)
C28? C 0.064(2) 0.8489(5) 0.6960(9)
C29? C 0.1889(19) 0.8405(4) 0.5890(9)
C30? C 0.2345(19) 0.7090(5) 0.5356(8)
C31? C -0.001(4) 0.9988(6) 0.7434(19)
C32? C 0.249(3) 0.9819(5) 0.5302(13)
H17? H 0.83710 0.43900 -0.06110
H18? H 0.43590 0.47570 0.28860
H19? H 0.79430 0.18460 -0.07050
H20? H 0.60660 0.12540 -0.00830
H21? H 0.78710 0.11410 0.05640
H22? H 0.41020 0.22210 0.29580
H23? H 0.58680 0.13050 0.23580
H24? H 0.40510 0.14750 0.17260
H25? H -0.09420 0.72870 0.81250
H26? H 0.30990 0.70400 0.46390
H27? H -0.07090 0.98690 0.81920
H28? H -0.07830 1.04940 0.69080
H29? H 0.10530 1.05790 0.75120
H30? H 0.31670 0.95890 0.45470
H31? H 0.32840 1.03190 0.57770
H32? H 0.14140 1.04700 0.51990
N5? N 0.5751(5) 0.7360(2) 0.1967(2)
N6? N 0.7688(4) 0.7194(3) 0.0270(2)
N7? N 0.1980(6) 0.4378(3) 0.5611(3)
N8? N 0.0035(5) 0.4486(3) 0.7307(3)
O5? O 0.4893(3) 0.8068(2) 0.27788(17)
O6? O 0.6861(3) 0.8172(2) 0.10931(17)
O7? O 0.2898(4) 0.3693(3) 0.4810(2)
O8? O 0.0941(4) 0.3529(2) 0.6496(2)
#END
