
#######################################################################
#
#                 Cambridge Crystallographic Data Centre
#                                CCDC
#
#######################################################################
#
# If this CIF has been generated from an entry in the Cambridge
# Structural Database, then it will include bibliographic, chemical,
# crystal, experimental, refinement or atomic coordinate data resulting
# from the CCDC's data processing and validation procedures.
#
#######################################################################

data_CSD_CIF_CEDGAV
_audit_creation_date 2013-04-23
_audit_creation_method CSD-ConQuest-V1
_database_code_CSD CEDGAV
_database_code_depnum_ccdc_archive 'CCDC 906602'
_chemical_formula_sum 'C8 H8 N2 O2'
_chemical_formula_moiety
;
C8 H8 N2 O2
;
_journal_coeditor_code "IUCr ps5015"
_journal_coden_Cambridge 622
_journal_volume 68
_journal_year 2012
_journal_page_first 536
_journal_name_full 'Acta Crystallogr.,Sect.B:Struct.Sci. '
loop_
_publ_author_name
"D.Britton"
"V.G.Young Junior"
"W.E.Noland"
"M.J.Pinnow"
"C.M.Clark"
_chemical_name_systematic
;
5,6-dimethylbenzfurazan 1-oxide
;
_cell_volume    382.903
_exptl_crystal_colour 'pale yellow'
_exptl_crystal_density_diffrn 1.424
_exptl_special_details
;
Z2 polymorph

;
_exptl_crystal_description 'flat needle'
_diffrn_ambient_temperature 173
_refine_special_details
;
C1,C2,C3,C4,C5,C6,C7,C8,N1,N2,O1,O2 and C1A,C2A,C3A, 
C4A,C5A,C6A,C7A,C8A,N1A,N2A,O1A,O2A disordered over two sites with 
occupancies 0.893:0.107.
;
#These two values have been output from a single CSD field.
_refine_ls_R_factor_gt 0.0559
_refine_ls_wR_factor_gt 0.0559
_symmetry_cell_setting triclinic
_symmetry_space_group_name_H-M 'P -1'
_symmetry_Int_Tables_number 2
loop_
_symmetry_equiv_pos_site_id
_symmetry_equiv_pos_as_xyz
1 x,y,z
2 -x,-y,-z
_cell_length_a 3.9506(12)
_cell_length_b 8.264(3)
_cell_length_c 12.045(4)
_cell_angle_alpha 78.842(4)
_cell_angle_beta 83.180(4)
_cell_angle_gamma 86.990(4)
_cell_formula_units_Z 2
loop_
_atom_type_symbol
_atom_type_radius_bond
C 0.68
H 0.23
N 0.68
O 0.68
loop_
_atom_site_label
_atom_site_type_symbol
_atom_site_fract_x
_atom_site_fract_y
_atom_site_fract_z
O1 O 0.1496(4) 0.70009(19) 0.91155(13)
O2 O -0.0065(4) 0.73775(17) 0.72944(12)
N1 N 0.1523(4) 0.6406(2) 0.82482(14)
N2 N 0.0245(5) 0.6514(2) 0.64120(15)
C1 C 0.2734(5) 0.5024(2) 0.79133(16)
C2 C 0.1939(5) 0.5115(2) 0.67857(16)
C3 C 0.2905(8) 0.3783(3) 0.62238(18)
H1 H 0.23870 0.38170 0.54690
C4 C 0.4600(9) 0.2444(3) 0.67855(19)
C5 C 0.5368(6) 0.2371(2) 0.79559(19)
C6 C 0.4453(6) 0.3642(2) 0.85114(16)
H2 H 0.49480 0.36020 0.92690
C7 C 0.566(2) 0.1021(5) 0.6203(3)
H3 H 0.49840 0.12620 0.54300
H4 H 0.45450 0.00220 0.66320
H5 H 0.81400 0.08480 0.61670
C8 C 0.7154(6) 0.0834(3) 0.8546(2)
H6 H 0.74860 0.09570 0.93180
H7 H 0.93740 0.06750 0.81170
H8 H 0.57560 -0.01250 0.85850
C9? C 0.218(4) 0.5076(11) 0.7154(8)
C10? C 0.306(4) 0.4820(11) 0.8283(7)
C11? C 0.482(5) 0.3345(14) 0.8721(11)
C12? C 0.545(4) 0.2165(11) 0.8061(12)
C13? C 0.466(7) 0.2488(16) 0.6878(12)
C14? C 0.305(7) 0.3924(18) 0.6430(11)
C15? C 0.667(7) 0.0470(13) 0.8583(16)
C16? C 0.549(18) 0.115(4) 0.618(2)
H9? H 0.55500 0.31750 0.94590
H10? H 0.25320 0.41420 0.56640
H11? H 0.71310 0.04590 0.93660
H12? H 0.87640 0.01670 0.81370
H13? H 0.49100 -0.03250 0.85870
H14? H 0.43940 0.14340 0.54760
H15? H 0.46380 0.00970 0.66210
H16? H 0.79620 0.10530 0.59940
N3? N 0.058(3) 0.6545(11) 0.6949(7)
N4? N 0.222(3) 0.6131(11) 0.8764(7)
O3? O -0.081(3) 0.7371(12) 0.6150(8)
O4? O 0.056(3) 0.723(1) 0.7976(8)
#END
