
#######################################################################
#
#                 Cambridge Crystallographic Data Centre
#                                CCDC
#
#######################################################################
#
# If this CIF has been generated from an entry in the Cambridge
# Structural Database, then it will include bibliographic, chemical,
# crystal, experimental, refinement or atomic coordinate data resulting
# from the CCDC's data processing and validation procedures.
#
#######################################################################

data_CSD_CIF_CEDMUV
_audit_creation_date 2012-11-16
_audit_creation_method CSD-ConQuest-V1
_database_code_CSD CEDMUV
_database_code_depnum_ccdc_archive 'CCDC 799734'
_chemical_formula_sum 'C8 H7 N5 O2'
_chemical_formula_moiety
;
C8 H7 N5 O2
;
_journal_coeditor_code "IUCr BX2321"
_journal_coden_Cambridge 1370
_journal_volume 66
_journal_year 2010
_journal_page_first o2989
_journal_name_full 'Acta Crystallogr.,Sect.E:Struct.Rep.Online '
loop_
_publ_author_name
"Jin Mei Chen"
"Hong Zhao"
_chemical_name_systematic
;
5-(4-Nitrobenzyl)-1H-1,2,3,4-tetrazole
;
_cell_volume    882.197
_exptl_crystal_colour 'pale yellow'
_exptl_crystal_density_diffrn 1.545
_exptl_crystal_description 'prism'
_exptl_crystal_preparation '95% ethanol/water'
_diffrn_ambient_temperature 295
#These two values have been output from a single CSD field.
_refine_ls_R_factor_gt 0.0582
_refine_ls_wR_factor_gt 0.0582
_symmetry_cell_setting monoclinic
_symmetry_space_group_name_H-M 'P 21/c'
_symmetry_Int_Tables_number 14
loop_
_symmetry_equiv_pos_site_id
_symmetry_equiv_pos_as_xyz
1 x,y,z
2 -x,1/2+y,1/2-z
3 -x,-y,-z
4 x,-1/2-y,-1/2+z
_cell_length_a 6.3393(10)
_cell_length_b 4.9381(6)
_cell_length_c 28.801(4)
_cell_angle_alpha 90
_cell_angle_beta 101.905(14)
_cell_angle_gamma 90
_cell_formula_units_Z 4
loop_
_atom_type_symbol
_atom_type_radius_bond
C 0.68
H 0.23
N 0.68
O 0.68
loop_
_atom_site_label
_atom_site_type_symbol
_atom_site_fract_x
_atom_site_fract_y
_atom_site_fract_z
O1 O 0.6521(3) -0.0440(4) 0.23878(6)
O2 O 0.3476(3) 0.0031(4) 0.18977(6)
N1 N 0.7922(3) 0.6457(3) 0.02183(6)
H1 H 0.78330 0.47060 0.02140
N2 N 0.7245(3) 0.7302(4) -0.02353(6)
N3 N 0.7205(3) 0.9910(4) -0.02326(6)
N4 N 0.7847(3) 1.0783(3) 0.02209(6)
N5 N 0.5369(3) 0.0619(4) 0.20421(6)
C1 C 0.8285(3) 0.8620(4) 0.04930(7)
C2 C 0.9119(4) 0.8641(4) 0.10150(7)
H2 H 0.88810 1.04250 0.11350
H3 H 1.06640 0.83370 0.10760
C3 C 0.8111(3) 0.6555(4) 0.12886(7)
C4 C 0.9324(3) 0.5398(4) 0.16973(7)
H4 H 1.07540 0.59180 0.18020
C5 C 0.8439(3) 0.3485(4) 0.19519(7)
H5 H 0.92550 0.27150 0.22250
C6 C 0.6314(3) 0.2747(4) 0.17898(7)
C7 C 0.5058(3) 0.3865(5) 0.13898(7)
H6 H 0.36290 0.33370 0.12880
C8 C 0.5962(3) 0.5790(4) 0.11420(7)
H7 H 0.51240 0.65850 0.08740
#END
