
#######################################################################
#
#                 Cambridge Crystallographic Data Centre
#                                CCDC
#
#######################################################################
#
# If this CIF has been generated from an entry in the Cambridge
# Structural Database, then it will include bibliographic, chemical,
# crystal, experimental, refinement or atomic coordinate data resulting
# from the CCDC's data processing and validation procedures.
#
#######################################################################

data_CSD_CIF_CEDRUB
_audit_creation_date 2017-10-04
_audit_creation_method CSD-ConQuest-V1
_database_code_CSD CEDRUB
_database_code_depnum_ccdc_archive 'CCDC 1578108'
_chemical_formula_sum 'C18 H14 N3 O5'
_chemical_formula_moiety
;
C18 H14 N3 O5
;
_journal_coden_Cambridge 1366
_journal_volume 358
_journal_year 2016
_journal_page_first 3471
_journal_name_full 'Adv.Synth.Catal. '
loop_
_publ_author_name
"B.A.Mir"
"A.Banerjee"
"S.K.Santra"
"S.Rajamanickam"
"B.K.Patel"
_chemical_name_systematic
;
4-(3-nitrophenyl)-3-[1-(3-nitrophenyl)ethyl]-1,3-dihydro-2H-pyrrol-2-one
;
_cell_volume    790.375
_exptl_crystal_colour 'colorless'
_exptl_crystal_density_diffrn 1.48
_exptl_crystal_description 'block'
_diffrn_ambient_temperature 298
#These two values have been output from a single CSD field.
_refine_ls_R_factor_gt 0.103
_refine_ls_wR_factor_gt 0.103
_symmetry_cell_setting triclinic
_symmetry_space_group_name_H-M 'P -1'
_symmetry_Int_Tables_number 2
loop_
_symmetry_equiv_pos_site_id
_symmetry_equiv_pos_as_xyz
1 x,y,z
2 -x,-y,-z
_cell_length_a 7.7506(8)
_cell_length_b 8.4774(13)
_cell_length_c 13.2368(11)
_cell_angle_alpha 81.401(10)
_cell_angle_beta 77.537(8)
_cell_angle_gamma 69.008(12)
_cell_formula_units_Z 2
loop_
_atom_type_symbol
_atom_type_radius_bond
C 0.68
H 0.23
N 0.68
O 0.68
loop_
_atom_site_label
_atom_site_type_symbol
_atom_site_fract_x
_atom_site_fract_y
_atom_site_fract_z
N1 N 0.4844(5) -0.0104(5) 0.6831(3)
H1 H 0.44140 -0.06650 0.65180
O1 O 0.7185(5) 0.0182(5) 0.5500(3)
C1 C 0.6418(5) 0.0494(6) 0.6403(3)
N2 N 0.9669(7) 0.4302(7) 0.3221(3)
O2 O 1.0884(6) 0.2940(6) 0.3050(3)
O3 O 0.6927(6) 0.3255(6) 1.1743(3)
C2 C 0.4184(6) 0.0381(6) 0.7804(3)
H2 H 0.31790 0.01740 0.82590
O4 O 0.9436(7) 0.5474(6) 0.2573(3)
C3 C 0.7835(6) 0.3462(6) 0.6015(3)
N3 N 0.7317(7) 0.2589(7) 1.0934(4)
C4 C 0.8907(6) 0.3232(6) 0.5030(3)
H3 H 0.98750 0.22140 0.48920
C5 C 0.8531(6) 0.4515(6) 0.4262(3)
C6 C 0.8162(6) 0.2053(7) 0.6907(4)
H4 H 0.80030 0.26280 0.75270
O5 O 0.8929(6) 0.1859(9) 1.0524(4)
C7 C 0.4827(6) 0.1926(6) 0.8994(3)
C8 C 0.5215(6) 0.1199(6) 0.7995(3)
C9 C 0.6649(6) 0.1261(6) 0.7125(3)
C10 C 0.6259(7) 0.1887(7) 0.9475(3)
H5 H 0.75100 0.13860 0.91770
C11 C 0.5785(6) 0.2615(7) 1.0416(4)
C12 C 0.6428(7) 0.4980(8) 0.6198(4)
H6 H 0.56800 0.51280 0.68520
C13 C 0.2546(7) 0.3350(8) 1.0420(4)
H7 H 0.13020 0.38610 1.07230
C14 C 0.3957(7) 0.3311(7) 1.0905(4)
H8 H 0.36850 0.37440 1.15480
C15 C 0.7158(7) 0.6084(7) 0.4436(4)
H9 H 0.69620 0.69530 0.39080
C16 C 0.2955(6) 0.2630(7) 0.9473(4)
H10 H 0.19880 0.26190 0.91650
C17 C 1.0087(6) 0.0749(7) 0.6811(4)
H11 H 1.01690 -0.01050 0.63830
H12 H 1.03230 0.02350 0.74870
H13 H 1.10010 0.12800 0.65000
C18 C 0.6092(8) 0.6313(7) 0.5420(5)
H14 H 0.51570 0.73470 0.55650
#END
