
#######################################################################
#
#                 Cambridge Crystallographic Data Centre
#                                CCDC
#
#######################################################################
#
# If this CIF has been generated from an entry in the Cambridge
# Structural Database, then it will include bibliographic, chemical,
# crystal, experimental, refinement or atomic coordinate data resulting
# from the CCDC's data processing and validation procedures.
#
#######################################################################

data_CSD_CIF_CEDVEO
_audit_creation_date 2012-11-16
_audit_creation_method CSD-ConQuest-V1
_database_code_CSD CEDVEO
_database_code_depnum_ccdc_archive 'CCDC 799765'
_chemical_formula_sum 'C13 H7 N1 O4'
_chemical_formula_moiety
;
C13 H7 N1 O4
;
_journal_coeditor_code "IUCr FJ2357"
_journal_coden_Cambridge 1370
_journal_volume 66
_journal_year 2010
_journal_page_first o3031
_journal_name_full 'Acta Crystallogr.,Sect.E:Struct.Rep.Online '
loop_
_publ_author_name
"H.-K.Fun"
"C.K.Quah"
"Nithinchandra"
"B.Kalluraya"
_chemical_name_systematic
;
3-(5-Nitro-2-furyl)-1-phenylprop-2-yn-1-one
;
_cell_volume   1090.070
_exptl_crystal_colour 'brown'
_exptl_crystal_density_diffrn 1.47
_exptl_crystal_description 'block'
_exptl_crystal_preparation 'dimethylformamide/ethanol'
_diffrn_ambient_temperature 100
#These two values have been output from a single CSD field.
_refine_ls_R_factor_gt 0.0399
_refine_ls_wR_factor_gt 0.0399
_symmetry_cell_setting monoclinic
_symmetry_space_group_name_H-M 'P 21/c'
_symmetry_Int_Tables_number 14
loop_
_symmetry_equiv_pos_site_id
_symmetry_equiv_pos_as_xyz
1 x,y,z
2 -x,1/2+y,1/2-z
3 -x,-y,-z
4 x,-1/2-y,-1/2+z
_cell_length_a 10.4685(2)
_cell_length_b 7.3006(1)
_cell_length_c 15.2642(2)
_cell_angle_alpha 90
_cell_angle_beta 110.867(1)
_cell_angle_gamma 90
_cell_formula_units_Z 4
loop_
_atom_type_symbol
_atom_type_radius_bond
C 0.68
H 0.23
N 0.68
O 0.68
loop_
_atom_site_label
_atom_site_type_symbol
_atom_site_fract_x
_atom_site_fract_y
_atom_site_fract_z
O1 O -0.11630(5) 0.27415(7) 1.04906(3)
O2 O -0.39290(6) 0.35131(8) 1.11730(4)
O3 O -0.19217(6) 0.23310(8) 1.19322(4)
O4 O 0.31281(5) 0.03921(7) 0.98678(3)
N1 N -0.27662(6) 0.30540(8) 1.12394(4)
C1 C -0.23941(6) 0.33853(8) 1.04384(4)
C2 C -0.31207(6) 0.41459(9) 0.95952(5)
H1 H -0.39840 0.46750 0.94120
C3 C -0.22679(6) 0.39527(9) 0.90560(5)
H2 H -0.24630 0.43350 0.84410
C4 C -0.11011(6) 0.30936(9) 0.96198(4)
C5 C 0.00843(6) 0.25151(9) 0.94661(5)
C6 C 0.10953(6) 0.20010(9) 0.93282(4)
C7 C 0.23677(6) 0.13782(8) 0.92494(4)
C8 C 0.27014(6) 0.19941(8) 0.84344(4)
C9 C 0.17614(7) 0.29769(9) 0.76987(4)
H3 H 0.08970 0.32400 0.77070
C10 C 0.21317(8) 0.35576(10) 0.69539(5)
H4 H 0.15140 0.42140 0.64630
C11 C 0.34271(8) 0.31575(10) 0.69438(5)
H5 H 0.36730 0.35590 0.64480
C12 C 0.43585(7) 0.21588(10) 0.76724(5)
H6 H 0.52190 0.18860 0.76580
C13 C 0.39983(6) 0.15728(9) 0.84181(4)
H7 H 0.46150 0.09040 0.89040
#END
