
#######################################################################
#
#                 Cambridge Crystallographic Data Centre
#                                CCDC
#
#######################################################################
#
# If this CIF has been generated from an entry in the Cambridge
# Structural Database, then it will include bibliographic, chemical,
# crystal, experimental, refinement or atomic coordinate data resulting
# from the CCDC's data processing and validation procedures.
#
#######################################################################

data_CSD_CIF_CEFKIH
_audit_creation_date 1984-10-09
_audit_creation_method CSD-ConQuest-V1
_database_code_CSD CEFKIH
_chemical_formula_sum 'C24 H25 N1 O1'
_chemical_formula_moiety
;
C24 H25 N1 O1
;
_journal_coden_Cambridge 188
_journal_year 1984
_journal_page_first 95
_journal_name_full 'J.Chem.Soc.,Perkin Trans.2 '
loop_
_publ_author_name
"D.R.Boyd"
"K.M.McCombe"
"T.A.Hamor"
"W.B.Jennings"
"V.E.Wilson"
_chemical_name_systematic
;
3,3-Diphenyl-2-(1-mesitylethyl)oxaziridine
;
_chemical_melting_point 346.15
_cell_volume   1993.726
_exptl_crystal_colour 'colorless'
_exptl_crystal_density_diffrn 1.14
_exptl_special_details
;
Melting point range 346.15-348.15K

;
_diffrn_ambient_temperature ?
_diffrn_special_details
;
The study was carried out at room temperature,in the range 283-303K

;
#These two values have been output from a single CSD field.
_refine_ls_R_factor_gt 0.04
_refine_ls_wR_factor_gt 0.04
_symmetry_cell_setting orthorhombic
_symmetry_space_group_name_H-M 'P 21 21 21'
_symmetry_Int_Tables_number 19
loop_
_symmetry_equiv_pos_site_id
_symmetry_equiv_pos_as_xyz
1 x,y,z
2 1/2+x,1/2-y,-z
3 -x,1/2+y,1/2-z
4 1/2-x,-y,1/2+z
_cell_length_a 8.843(3)
_cell_length_b 10.396(8)
_cell_length_c 21.687(5)
_cell_angle_alpha 90
_cell_angle_beta 90
_cell_angle_gamma 90
_cell_formula_units_Z 4
loop_
_atom_type_symbol
_atom_type_radius_bond
C 0.68
H 0.23
N 0.68
O 0.68
loop_
_atom_site_label
_atom_site_type_symbol
_atom_site_fract_x
_atom_site_fract_y
_atom_site_fract_z
O1 O 0.75140 -0.13870 0.43340
N1 N 0.76800 -0.11100 0.36540
C1 C 0.50110 -0.05020 0.40500
C2 C 0.41560 0.03060 0.36900
C3 C 0.25890 0.02150 0.36910
C4 C 0.18930 -0.06530 0.40650
C5 C 0.27390 -0.14400 0.44360
C6 C 0.43020 -0.13870 0.44240
C7 C 0.72740 0.09620 0.41860
C8 C 0.66180 0.16560 0.46600
C9 C 0.70890 0.28740 0.48090
C10 C 0.82490 0.34110 0.44800
C11 C 0.89120 0.27410 0.40140
C12 C 0.84200 0.15040 0.38650
C13 C 0.67570 -0.16480 0.26430
C14 C 0.79290 -0.10480 0.23140
C15 C 0.76100 -0.05450 0.17310
C16 C 0.62090 -0.06210 0.14580
C17 C 0.50850 -0.12660 0.17830
C18 C 0.53290 -0.17720 0.23630
C19 C 0.69770 -0.21510 0.32920
C20 C 0.79840 -0.33480 0.33340
C21 C 0.67130 -0.03630 0.40500
C22 C 0.95360 -0.09510 0.25360
C23 C 0.58990 -0.00620 0.08330
C24 C 0.40230 -0.24940 0.26640
H1 H 0.47100 0.09300 0.34200
H2 H 0.20800 0.08600 0.34300
H3 H 0.07400 -0.06900 0.40400
H4 H 0.24100 -0.21200 0.47100
H5 H 0.50700 -0.20000 0.47000
H6 H 0.59900 0.11400 0.49000
H7 H 0.68600 0.32300 0.52400
H8 H 0.86800 0.43900 0.46300
H9 H 0.96100 0.30700 0.37600
H10 H 0.89300 0.10200 0.35400
H11 H 0.83300 -0.01600 0.15300
H12 H 0.39900 -0.12600 0.16000
H13 H 0.59200 -0.23200 0.34500
H14 H 0.80200 -0.35900 0.37400
H15 H 0.90100 -0.30600 0.32200
H16 H 0.76000 -0.39700 0.30500
H17 H 0.97200 -0.09200 0.30300
H18 H 0.97600 -0.00200 0.23400
H19 H 1.02800 -0.16500 0.23300
H20 H 0.67900 0.06000 0.07100
H21 H 0.48200 0.04100 0.07900
H22 H 0.59500 -0.08900 0.05300
H23 H 0.30900 -0.25600 0.23400
H24 H 0.36600 -0.20000 0.30800
H25 H 0.44000 -0.34500 0.27800
#END
