
#######################################################################
#
#                 Cambridge Crystallographic Data Centre
#                                CCDC
#
#######################################################################
#
# If this CIF has been generated from an entry in the Cambridge
# Structural Database, then it will include bibliographic, chemical,
# crystal, experimental, refinement or atomic coordinate data resulting
# from the CCDC's data processing and validation procedures.
#
#######################################################################

data_CSD_CIF_CEFVUG
_audit_creation_date 2012-11-16
_audit_creation_method CSD-ConQuest-V1
_database_code_CSD CEFVUG
_database_code_depnum_ccdc_archive 'CCDC 907407'
_chemical_formula_sum 'C14 H9 N1 O2'
_chemical_formula_moiety
;
C14 H9 N1 O2
;
_journal_coeditor_code "IUCr BH2448"
_journal_coden_Cambridge 1370
_journal_volume 68
_journal_year 2012
_journal_page_first o2871
_journal_name_full 'Acta Crystallogr.,Sect.E:Struct.Rep.Online '
loop_
_publ_author_name
"D.G.Patel"
"J.B.Benedict"
_chemical_name_systematic
;
10-(Hydroxyimino)phenanthren-9-one
;
_cell_volume   1002.438
_exptl_crystal_colour 'yellow'
_exptl_crystal_density_diffrn 1.479
_exptl_crystal_description 'plate'
_diffrn_ambient_temperature 90
_refine_special_details
;
The structure is disordered.

;
#These two values have been output from a single CSD field.
_refine_ls_R_factor_gt 0.0361
_refine_ls_wR_factor_gt 0.0361
_symmetry_cell_setting orthorhombic
_symmetry_space_group_name_H-M 'P c a 21'
_symmetry_Int_Tables_number 29
loop_
_symmetry_equiv_pos_site_id
_symmetry_equiv_pos_as_xyz
1 x,y,z
2 -x,-y,1/2+z
3 1/2-x,y,1/2+z
4 1/2+x,-y,z
_cell_length_a 17.4505(15)
_cell_length_b 3.7875(3)
_cell_length_c 15.1669(13)
_cell_angle_alpha 90
_cell_angle_beta 90
_cell_angle_gamma 90
_cell_formula_units_Z 4
loop_
_atom_type_symbol
_atom_type_radius_bond
C 0.68
H 0.23
N 0.68
O 0.68
loop_
_atom_site_label
_atom_site_type_symbol
_atom_site_fract_x
_atom_site_fract_y
_atom_site_fract_z
O1 O 0.7027(5) 0.491(3) 0.5919(3)
O2? O 0.5549(10) 0.199(7) 0.6677(16)
H1? H 0.59110 0.23110 0.70330
O3 O 0.63991(15) 0.2459(9) 0.72678(18)
H2 H 0.67620 0.31500 0.69470
O4? O 0.6923(8) 0.414(5) 0.6788(9)
N1 N 0.5786(2) 0.1557(14) 0.6749(3)
N2? N 0.707(4) 0.494(19) 0.611(3)
C1 C 0.64614(15) 0.4012(7) 0.5486(2)
C2 C 0.64506(14) 0.4585(7) 0.45317(18)
C3 C 0.70969(14) 0.6130(7) 0.4138(2)
H3 H 0.75230 0.67910 0.44920
C4 C 0.71138(15) 0.6687(7) 0.3247(2)
H4 H 0.75540 0.76960 0.29790
C5 C 0.64841(16) 0.5767(7) 0.27380(19)
H5 H 0.64950 0.61670 0.21200
C6 C 0.58366(15) 0.4269(7) 0.31197(19)
H6 H 0.54070 0.37010 0.27620
C7 C 0.58119(14) 0.3592(7) 0.40243(18)
C8 C 0.51377(13) 0.1929(7) 0.44476(18)
C9 C 0.45080(15) 0.0821(7) 0.3952(2)
H7 H 0.45110 0.11390 0.33300
C10 C 0.38781(15) -0.0737(8) 0.4350(2)
H8 H 0.34580 -0.14980 0.40000
C11 C 0.38582(16) -0.1190(8) 0.5257(2)
H9 H 0.34210 -0.22000 0.55310
C12 C 0.44774(15) -0.0164(8) 0.5756(2)
H10 H 0.44660 -0.05000 0.63770
C13 C 0.51259(15) 0.1372(7) 0.53659(19)
C14 C 0.57893(17) 0.2359(7) 0.59059(19)
#END
