
#######################################################################
#
#                 Cambridge Crystallographic Data Centre
#                                CCDC
#
#######################################################################
#
# If this CIF has been generated from an entry in the Cambridge
# Structural Database, then it will include bibliographic, chemical,
# crystal, experimental, refinement or atomic coordinate data resulting
# from the CCDC's data processing and validation procedures.
#
#######################################################################

data_CSD_CIF_CEGKIK
_audit_creation_date 2012-11-16
_audit_creation_method CSD-ConQuest-V1
_database_code_CSD CEGKIK
_database_code_depnum_ccdc_archive 'CCDC 907465'
_chemical_formula_sum 'C15 H13 N1 O2'
_chemical_formula_moiety
;
C15 H13 N1 O2
;
_journal_coeditor_code "IUCr SU2493"
_journal_coden_Cambridge 1370
_journal_volume 68
_journal_year 2012
_journal_page_first o2957
_journal_name_full 'Acta Crystallogr.,Sect.E:Struct.Rep.Online '
loop_
_publ_author_name
"G.Anuradha"
"V.Gopalsamy"
"A.Veera Reddy"
"G.Laxminarasimhulu"
_chemical_name_systematic
;
3-Benzyl-5-methyl-1,2-benzoxazole 2-oxide
;
_cell_volume   1207.737
_exptl_crystal_colour 'colorless'
_exptl_crystal_density_diffrn 1.316
_exptl_crystal_description 'block'
_diffrn_ambient_temperature 293
#These two values have been output from a single CSD field.
_refine_ls_R_factor_gt 0.0498
_refine_ls_wR_factor_gt 0.0498
_symmetry_cell_setting monoclinic
_symmetry_space_group_name_H-M 'P 21/n'
_symmetry_Int_Tables_number 14
loop_
_symmetry_equiv_pos_site_id
_symmetry_equiv_pos_as_xyz
1 x,y,z
2 1/2-x,1/2+y,1/2-z
3 -x,-y,-z
4 -1/2+x,-1/2-y,-1/2+z
_cell_length_a 6.4527(2)
_cell_length_b 11.2213(4)
_cell_length_c 16.9371(7)
_cell_angle_alpha 90
_cell_angle_beta 100.002(2)
_cell_angle_gamma 90
_cell_formula_units_Z 4
loop_
_atom_type_symbol
_atom_type_radius_bond
C 0.68
H 0.23
N 0.68
O 0.68
loop_
_atom_site_label
_atom_site_type_symbol
_atom_site_fract_x
_atom_site_fract_y
_atom_site_fract_z
O1 O 0.28937(17) 0.48425(11) 0.21034(8)
O2 O 0.3491(2) 0.63946(12) 0.29866(9)
N1 N 0.4211(2) 0.58198(13) 0.24703(9)
C1 C 0.5941(2) 0.58880(13) 0.21630(9)
C2 C 0.7187(2) 0.46425(12) 0.10447(8)
C3 C 0.6602(3) 0.37116(13) 0.05213(9)
C4 C 0.4707(3) 0.31228(14) 0.05425(11)
C5 C 0.3391(3) 0.34234(15) 0.10596(12)
C6 C 0.3994(2) 0.43709(14) 0.15601(10)
C7 C 0.5868(2) 0.49807(12) 0.15712(9)
C8 C 0.7549(2) 0.68132(13) 0.24347(9)
C9 C 0.7396(2) 0.78613(12) 0.18692(8)
C10 C 0.5636(2) 0.85898(13) 0.17589(9)
C11 C 0.5506(3) 0.95583(15) 0.12500(11)
C12 C 0.7117(3) 0.98059(16) 0.08532(11)
C13 C 0.8872(3) 0.90974(17) 0.09595(11)
C14 C 0.9005(2) 0.81256(15) 0.14674(10)
C15 C 0.7953(3) 0.33322(18) -0.00672(11)
H1 H 0.84520 0.50400 0.10450
H2 H 0.43230 0.24970 0.01870
H3 H 0.21500 0.30080 0.10730
H4 H 0.89380 0.64610 0.24820
H5 H 0.73800 0.70920 0.29620
H6 H 0.45330 0.84250 0.20300
H7 H 0.43170 1.00420 0.11780
H8 H 0.70270 1.04570 0.05090
H9 H 0.99740 0.92700 0.06900
H10 H 1.02000 0.76470 0.15370
H11 H 0.72950 0.26790 -0.03810
H12 H 0.93050 0.30870 0.02160
H13 H 0.81250 0.39870 -0.04150
#END
