
#######################################################################
#
#                 Cambridge Crystallographic Data Centre
#                                CCDC
#
#######################################################################
#
# If this CIF has been generated from an entry in the Cambridge
# Structural Database, then it will include bibliographic, chemical,
# crystal, experimental, refinement or atomic coordinate data resulting
# from the CCDC's data processing and validation procedures.
#
#######################################################################

data_CSD_CIF_CEGVOB
_audit_creation_date 2012-11-16
_audit_creation_method CSD-ConQuest-V1
_database_code_CSD CEGVOB
_database_code_depnum_ccdc_archive 'CCDC 907511'
_chemical_formula_sum 'C15 H14 N2 O5'
_chemical_formula_moiety
;
C15 H14 N2 O5
;
_journal_coeditor_code "IUCr IS5189"
_journal_coden_Cambridge 1370
_journal_volume 68
_journal_year 2012
_journal_page_first o3028
_journal_name_full 'Acta Crystallogr.,Sect.E:Struct.Rep.Online '
loop_
_publ_author_name
"M.Arshad"
"S.Yousuf"
"S.Saeed"
"F.Z.Basha"
_chemical_name_systematic
;
4-Methoxy-N-(4-methoxy-2-nitrophenyl)benzamide
;
_cell_volume   1386.196
_exptl_crystal_colour 'colorless'
_exptl_crystal_density_diffrn 1.448
_exptl_crystal_description 'plate'
_diffrn_ambient_temperature 273
#These two values have been output from a single CSD field.
_refine_ls_R_factor_gt 0.0636
_refine_ls_wR_factor_gt 0.0636
_symmetry_cell_setting monoclinic
_symmetry_space_group_name_H-M 'P 21/n'
_symmetry_Int_Tables_number 14
loop_
_symmetry_equiv_pos_site_id
_symmetry_equiv_pos_as_xyz
1 x,y,z
2 1/2-x,1/2+y,1/2-z
3 -x,-y,-z
4 -1/2+x,-1/2-y,-1/2+z
_cell_length_a 9.7206(12)
_cell_length_b 4.9885(6)
_cell_length_c 28.725(4)
_cell_angle_alpha 90
_cell_angle_beta 95.628(2)
_cell_angle_gamma 90
_cell_formula_units_Z 4
loop_
_atom_type_symbol
_atom_type_radius_bond
C 0.68
H 0.23
N 0.68
O 0.68
loop_
_atom_site_label
_atom_site_type_symbol
_atom_site_fract_x
_atom_site_fract_y
_atom_site_fract_z
O1 O -0.0633(2) 0.6081(4) 0.30064(6)
O2 O 0.0516(2) 0.0858(3) 0.10748(7)
O3 O 0.3257(2) 0.4247(4) -0.08001(6)
O4 O 0.3544(2) 0.8107(5) 0.11160(7)
O5 O 0.4308(2) 1.0026(4) 0.05315(7)
N1 N 0.1306(2) 0.5046(4) 0.09575(8)
N2 N 0.3622(2) 0.8309(4) 0.06979(8)
C1 C 0.1170(3) 0.6004(5) 0.19444(9)
H1 H 0.18890 0.68720 0.18150
C2 C 0.0863(3) 0.6723(5) 0.23865(9)
H2 H 0.13830 0.80330 0.25540
C3 C -0.0216(3) 0.5495(5) 0.25793(9)
C4 C -0.0970(3) 0.3527(6) 0.23291(9)
H3 H -0.17090 0.27080 0.24560
C5 C -0.0633(3) 0.2782(5) 0.18956(9)
H4 H -0.11300 0.14150 0.17360
C6 C 0.0434(3) 0.4016(4) 0.16870(8)
C7 C 0.0754(3) 0.3157(4) 0.12181(8)
C8 C 0.1817(3) 0.4747(4) 0.05195(8)
C9 C 0.2883(3) 0.6356(4) 0.03780(8)
C10 C 0.3324(3) 0.6180(5) -0.00614(8)
H5 H 0.40170 0.73130 -0.01460
C11 C 0.2736(3) 0.4317(5) -0.03782(8)
C12 C 0.1694(3) 0.2690(5) -0.02481(9)
H6 H 0.12970 0.14160 -0.04560
C13 C 0.1236(3) 0.2943(5) 0.01899(9)
H7 H 0.05110 0.18640 0.02660
C14 C 0.2750(3) 0.2204(6) -0.11201(9)
H8 H 0.32270 0.23010 -0.13970
H9 H 0.17780 0.24580 -0.12020
H10 H 0.29050 0.04790 -0.09760
C15 C 0.0108(4) 0.8074(6) 0.32821(9)
H11 H -0.02760 0.82460 0.35760
H12 H 0.00370 0.97580 0.31200
H13 H 0.10620 0.75630 0.33360
H14 H 0.138(3) 0.648(6) 0.1083(9)
#END
