
#######################################################################
#
#                 Cambridge Crystallographic Data Centre
#                                CCDC
#
#######################################################################
#
# If this CIF has been generated from an entry in the Cambridge
# Structural Database, then it will include bibliographic, chemical,
# crystal, experimental, refinement or atomic coordinate data resulting
# from the CCDC's data processing and validation procedures.
#
#######################################################################

data_CSD_CIF_CEGWAO
_audit_creation_date 2012-11-16
_audit_creation_method CSD-ConQuest-V1
_database_code_CSD CEGWAO
_database_code_depnum_ccdc_archive 'CCDC 907513'
_chemical_formula_sum 'C21 H16 N2 O2'
_chemical_formula_moiety
;
C21 H16 N2 O2
;
_journal_coeditor_code "IUCr CV5343"
_journal_coden_Cambridge 1370
_journal_volume 68
_journal_year 2012
_journal_page_first o3030
_journal_name_full 'Acta Crystallogr.,Sect.E:Struct.Rep.Online '
loop_
_publ_author_name
"J.H.Cha"
"Y.K.Kang"
"Y.S.Cho"
"J.K.Lee"
"J.C.Woo"
_chemical_name_systematic
;
(E)-N-(3,3-Diphenylallylidene)-3-nitroaniline
;
_cell_volume   1685.115
_exptl_crystal_colour 'colorless'
_exptl_crystal_density_diffrn 1.294
_exptl_crystal_description 'block'
_exptl_crystal_preparation 'ethanol'
_diffrn_ambient_temperature 296
#These two values have been output from a single CSD field.
_refine_ls_R_factor_gt 0.0425
_refine_ls_wR_factor_gt 0.0425
_symmetry_cell_setting monoclinic
_symmetry_space_group_name_H-M 'P 21/n'
_symmetry_Int_Tables_number 14
loop_
_symmetry_equiv_pos_site_id
_symmetry_equiv_pos_as_xyz
1 x,y,z
2 1/2-x,1/2+y,1/2-z
3 -x,-y,-z
4 -1/2+x,-1/2-y,-1/2+z
_cell_length_a 5.8625(7)
_cell_length_b 22.825(3)
_cell_length_c 12.6370(17)
_cell_angle_alpha 90
_cell_angle_beta 94.772(4)
_cell_angle_gamma 90
_cell_formula_units_Z 4
loop_
_atom_type_symbol
_atom_type_radius_bond
C 0.68
H 0.23
N 0.68
O 0.68
loop_
_atom_site_label
_atom_site_type_symbol
_atom_site_fract_x
_atom_site_fract_y
_atom_site_fract_z
O1 O 1.2806(3) 0.79532(9) 0.84554(13)
O2 O 1.5869(3) 0.74640(6) 0.83527(11)
N1 N 1.14274(19) 0.90554(5) 0.51096(9)
N2 N 1.4414(3) 0.78014(6) 0.79813(11)
C1 C 0.5605(3) 1.01496(6) 0.15119(11)
H1 H 0.65620 1.00340 0.09990
C2 C 0.3920(3) 1.05589(7) 0.12595(13)
H2 H 0.37760 1.07240 0.05840
C3 C 0.2448(3) 1.07259(7) 0.19989(13)
H3 H 0.12920 1.09960 0.18200
C4 C 0.2700(2) 1.04891(6) 0.30091(12)
H4 H 0.17170 1.06020 0.35130
C5 C 0.4406(2) 1.00859(6) 0.32705(11)
H5 H 0.45670 0.99310 0.39530
C6 C 0.5893(2) 0.99065(5) 0.25294(10)
C7 C 1.0213(2) 0.90953(7) 0.14288(12)
H6 H 1.13020 0.93760 0.16450
C8 C 1.0584(3) 0.87204(8) 0.05913(13)
H7 H 1.19130 0.87560 0.02430
C9 C 0.9005(3) 0.82994(7) 0.02771(12)
H8 H 0.92650 0.80500 -0.02820
C10 C 0.7044(3) 0.82455(6) 0.07869(13)
H9 H 0.59790 0.79570 0.05800
C11 C 0.6648(2) 0.86225(6) 0.16137(11)
H10 H 0.53060 0.85870 0.19530
C12 C 0.8224(2) 0.90501(6) 0.1940(1)
C13 C 0.7721(2) 0.94683(5) 0.28026(10)
C14 C 0.8838(2) 0.94559(6) 0.37731(10)
H11 H 0.84890 0.97490 0.42450
C15 C 1.0533(2) 0.90295(6) 0.41509(10)
H12 H 1.09750 0.87370 0.36990
C16 C 1.3099(2) 0.86430(5) 0.54794(10)
C17 C 1.2973(2) 0.84251(6) 0.65043(10)
H13 H 1.17830 0.85360 0.69040
C18 C 1.4632(2) 0.80448(6) 0.69138(11)
C19 C 1.6476(2) 0.78813(6) 0.63736(13)
H14 H 1.75940 0.76300 0.66780
C20 C 1.6606(2) 0.81029(6) 0.53643(13)
H15 H 1.78350 0.80020 0.49810
C21 C 1.4928(2) 0.84741(6) 0.49177(11)
H16 H 1.50260 0.86130 0.42310
#END
