
#######################################################################
#
#                 Cambridge Crystallographic Data Centre
#                                CCDC
#
#######################################################################
#
# If this CIF has been generated from an entry in the Cambridge
# Structural Database, then it will include bibliographic, chemical,
# crystal, experimental, refinement or atomic coordinate data resulting
# from the CCDC's data processing and validation procedures.
#
#######################################################################

data_CSD_CIF_CEGWOA
_audit_creation_date 1984-10-09
_audit_creation_method CSD-ConQuest-V1
_database_code_CSD CEGWOA
_database_code_depnum_ccdc_archive 'CCDC 1122445'
_chemical_formula_sum 'C16 H13 N1 O4'
_chemical_formula_moiety
;
C16 H13 N1 O4
;
_journal_coden_Cambridge 54
_journal_volume 92
_journal_year 1983
_journal_page_first 865
_journal_name_full 'Bull.Soc.Chim.Belg. '
loop_
_publ_author_name
"B.Tinant"
"R.Touillaux"
"J.P.Declercq"
"M.van Meerssche"
"G.Leroy"
"J.Weiler"
_chemical_name_systematic
;
(Z)-Methyl \a-p-nitrophenyl-\b-phenylacrylate
;
_cell_volume   1395.640
_exptl_crystal_density_diffrn 1.35
_diffrn_ambient_temperature ?
_diffrn_special_details
;
The study was carried out at room temperature,in the range 283-303K

;
#These two values have been output from a single CSD field.
_refine_ls_R_factor_gt 0.043
_refine_ls_wR_factor_gt 0.043
_symmetry_cell_setting triclinic
_symmetry_space_group_name_H-M 'P -1'
_symmetry_Int_Tables_number 2
loop_
_symmetry_equiv_pos_site_id
_symmetry_equiv_pos_as_xyz
1 x,y,z
2 -x,-y,-z
_cell_length_a 14.233(3)
_cell_length_b 10.048(2)
_cell_length_c 9.907(2)
_cell_angle_alpha 80.75(1)
_cell_angle_beta 92.98(1)
_cell_angle_gamma 92.48(2)
_cell_formula_units_Z 4
loop_
_atom_type_symbol
_atom_type_radius_bond
C 0.68
N 0.68
O 0.68
loop_
_atom_site_label
_atom_site_type_symbol
_atom_site_fract_x
_atom_site_fract_y
_atom_site_fract_z
C1 C 0.29620 0.41570 0.73470
C2 C 0.39800 0.42440 0.71240
C3 C 0.45850 0.51850 0.76610
C4 C 0.55260 0.52820 0.74340
C5 C 0.58950 0.44480 0.66500
C6 C 0.53380 0.34890 0.61270
C7 C 0.43940 0.33990 0.63610
C8 C 0.23590 0.32820 0.68160
C9 C 0.13310 0.31610 0.68780
C10 C 0.08880 0.18930 0.70100
C11 C -0.00750 0.17400 0.71020
C12 C -0.06180 0.28420 0.70430
C13 C -0.01970 0.41120 0.68710
C14 C 0.07680 0.42730 0.67870
N1 N 0.68940 0.45910 0.63360
O1 O 0.73620 0.55110 0.67130
O2 O 0.72090 0.38080 0.56830
C15 C 0.25890 0.51110 0.81910
O3 O 0.26420 0.63230 0.79260
O4 O 0.21920 0.44360 0.92910
C16 C 0.16850 0.52150 1.01090
C17 C 0.31660 0.11310 0.22730
C18 C 0.41340 0.11620 0.17940
C19 C 0.48370 0.04120 0.25590
C20 C 0.57320 0.04010 0.21110
C21 C 0.59430 0.11520 0.08690
C22 C 0.52740 0.19230 0.00880
C23 C 0.43840 0.19250 0.05510
C24 C 0.24230 0.15610 0.14410
C25 C 0.14420 0.16710 0.17610
C26 C 0.07490 0.15630 0.07350
C27 C -0.01860 0.16880 0.09510
C28 C -0.04580 0.19480 0.21940
C29 C 0.02220 0.20840 0.32170
C30 C 0.11580 0.19470 0.30110
N2 N 0.68940 0.11320 0.03690
O5 O 0.74630 0.04100 0.10620
O6 O 0.70660 0.18210 -0.07260
C31 C 0.30420 0.05680 0.37480
O7 O 0.34220 0.10240 0.46950
O8 O 0.24720 -0.05170 0.38900
C32 C 0.22540 -0.11040 0.52750
#END
