
#######################################################################
#
#                 Cambridge Crystallographic Data Centre
#                                CCDC
#
#######################################################################
#
# If this CIF has been generated from an entry in the Cambridge
# Structural Database, then it will include bibliographic, chemical,
# crystal, experimental, refinement or atomic coordinate data resulting
# from the CCDC's data processing and validation procedures.
#
#######################################################################

data_CSD_CIF_CEGXAN
_audit_creation_date 1984-10-09
_audit_creation_method CSD-ConQuest-V1
_database_code_CSD CEGXAN
_database_code_depnum_ccdc_archive 'CCDC 1122447'
_chemical_formula_sum 'C17 H15 N1 O4'
_chemical_formula_moiety
;
C17 H15 N1 O4
;
_journal_coden_Cambridge 54
_journal_volume 92
_journal_year 1983
_journal_page_first 865
_journal_name_full 'Bull.Soc.Chim.Belg. '
loop_
_publ_author_name
"B.Tinant"
"R.Touillaux"
"J.P.Declercq"
"M.van Meerssche"
"G.Leroy"
"J.Weiler"
_chemical_name_systematic
;
(E)-Methyl \b-methyl-\b-p-nitrophenyl-\a-phenylacrylate
;
_cell_volume   1503.694
_exptl_crystal_density_diffrn 1.31
_diffrn_ambient_temperature ?
_diffrn_special_details
;
The study was carried out at room temperature,in the range 283-303K

;
#These two values have been output from a single CSD field.
_refine_ls_R_factor_gt 0.074
_refine_ls_wR_factor_gt 0.074
_symmetry_cell_setting monoclinic
_symmetry_space_group_name_H-M 'P 21/a'
_symmetry_Int_Tables_number 14
loop_
_symmetry_equiv_pos_site_id
_symmetry_equiv_pos_as_xyz
1 x,y,z
2 1/2-x,1/2+y,-z
3 -x,-y,-z
4 -1/2+x,-1/2-y,z
_cell_length_a 13.751(4)
_cell_length_b 11.145(3)
_cell_length_c 10.956(4)
_cell_angle_alpha 90
_cell_angle_beta 116.42(2)
_cell_angle_gamma 90
_cell_formula_units_Z 4
loop_
_atom_type_symbol
_atom_type_radius_bond
C 0.68
N 0.68
O 0.68
loop_
_atom_site_label
_atom_site_type_symbol
_atom_site_fract_x
_atom_site_fract_y
_atom_site_fract_z
C1 C 0.82550 0.30590 0.79410
C2 C 0.75190 0.40470 0.79110
C3 C 0.68430 0.46160 0.66960
C4 C 0.61560 0.55280 0.66890
C5 C 0.61360 0.58830 0.78880
C6 C 0.68010 0.53300 0.90810
C7 C 0.74960 0.44260 0.91010
C8 C 0.79630 0.20660 0.71680
C9 C 0.68080 0.18260 0.62190
C10 C 0.64780 0.15740 0.48410
C11 C 0.54020 0.13780 0.39600
C12 C 0.46540 0.14390 0.44650
C13 C 0.49360 0.16330 0.58130
C14 C 0.60180 0.18300 0.66920
N1 N 0.34830 0.12650 0.35190
O1 O 0.32330 0.09980 0.23530
O2 O 0.28230 0.14130 0.39660
C15 C 0.94210 0.32850 0.89000
O3 O 0.99430 0.40850 0.87260
O4 O 0.98100 0.25640 0.99710
C16 C 1.09440 0.27200 1.09080
C17 C 0.87660 0.11300 0.71910
#END
