
#######################################################################
#
#                 Cambridge Crystallographic Data Centre
#                                CCDC
#
#######################################################################
#
# If this CIF has been generated from an entry in the Cambridge
# Structural Database, then it will include bibliographic, chemical,
# crystal, experimental, refinement or atomic coordinate data resulting
# from the CCDC's data processing and validation procedures.
#
#######################################################################

data_CSD_CIF_CEHGED
_audit_creation_date 2012-11-16
_audit_creation_method CSD-ConQuest-V1
_database_code_CSD CEHGED
_database_code_depnum_ccdc_archive 'CCDC 895531'
_chemical_formula_sum 'C14 H15 N5 O4'
_chemical_formula_moiety
;
C14 H15 N5 O4
;
_journal_coeditor_code "IUCr IS5195"
_journal_coden_Cambridge 1370
_journal_volume 68
_journal_year 2012
_journal_page_first o2988
_journal_name_full 'Acta Crystallogr.,Sect.E:Struct.Rep.Online '
loop_
_publ_author_name
"H.-K.Fun"
"T.S.Chia"
"P.V.Frank"
"M.Poojary"
"B.Kalluraya"
_chemical_name_systematic
;
(E)-N'-(4-Methoxybenzylidene)-2-(2-methyl-4-nitro-1H-imidazol-1-yl)acetohydraz
ide
;
_chemical_melting_point 505
_cell_volume    736.904
_exptl_crystal_colour 'yellow'
_exptl_crystal_density_diffrn 1.43
_exptl_crystal_description 'plate'
_exptl_crystal_preparation 'ethanol/dioxane'
_diffrn_ambient_temperature 100
#These two values have been output from a single CSD field.
_refine_ls_R_factor_gt 0.0528
_refine_ls_wR_factor_gt 0.0528
_symmetry_cell_setting triclinic
_symmetry_space_group_name_H-M 'P -1'
_symmetry_Int_Tables_number 2
loop_
_symmetry_equiv_pos_site_id
_symmetry_equiv_pos_as_xyz
1 x,y,z
2 -x,-y,-z
_cell_length_a 4.3366(1)
_cell_length_b 12.9773(3)
_cell_length_c 13.2138(3)
_cell_angle_alpha 84.919(2)
_cell_angle_beta 87.353(2)
_cell_angle_gamma 84.611(1)
_cell_formula_units_Z 2
loop_
_atom_type_symbol
_atom_type_radius_bond
C 0.68
H 0.23
N 0.68
O 0.68
loop_
_atom_site_label
_atom_site_type_symbol
_atom_site_fract_x
_atom_site_fract_y
_atom_site_fract_z
O1 O -0.4105(3) 0.76565(9) 1.00477(9)
O2 O 1.0816(3) 0.88398(8) 0.42690(8)
O3 O 1.4713(3) 0.47331(9) 0.20227(9)
O4 O 1.5848(3) 0.44149(9) 0.36131(9)
N1 N 0.5223(3) 0.85992(9) 0.62488(10)
N2 N 0.7370(3) 0.90552(10) 0.55866(10)
N3 N 0.9336(3) 0.68443(9) 0.40406(10)
N4 N 1.0435(3) 0.63333(9) 0.24863(10)
N5 N 1.4374(3) 0.49076(9) 0.29156(10)
C1 C -0.4567(4) 0.65710(13) 1.02022(13)
H1 H -0.60640 0.64580 1.07710
H2 H -0.25900 0.61710 1.03570
H3 H -0.53610 0.63440 0.95840
C2 C -0.2144(4) 0.79626(12) 0.92693(12)
C3 C -0.0763(4) 0.73140(12) 0.85563(12)
H4 H -0.11780 0.66050 0.85930
C4 C 0.1213(4) 0.77065(11) 0.77954(12)
H5 H 0.21390 0.72610 0.73110
C5 C 0.1872(4) 0.87453(11) 0.77251(11)
C6 C 0.0467(4) 0.93826(12) 0.84475(12)
H6 H 0.08930 1.00900 0.84150
C7 C -0.1527(4) 0.90054(12) 0.92063(12)
H7 H -0.24770 0.94530 0.96850
C8 C 0.4071(4) 0.91518(11) 0.69559(12)
H8 H 0.46580 0.98360 0.69790
C9 C 0.8830(4) 0.84969(11) 0.48733(11)
C10 C 0.7805(4) 0.74033(11) 0.48597(12)
H9 H 0.82650 0.70060 0.55180
H10 H 0.55340 0.74520 0.47820
C11 C 1.1547(4) 0.60235(11) 0.41596(12)
H11 H 1.24470 0.57220 0.47710
C12 C 1.2159(4) 0.57381(11) 0.31963(12)
C13 C 0.8741(4) 0.70062(11) 0.30221(12)
C14 C 0.6539(4) 0.78659(12) 0.26004(13)
H12 H 0.62000 0.77730 0.18870
H13 H 0.74030 0.85310 0.26450
H14 H 0.45630 0.78610 0.29910
H15 H 0.792(5) 0.9681(18) 0.5660(16)
#END
