
#######################################################################
#
#                 Cambridge Crystallographic Data Centre
#                                CCDC
#
#######################################################################
#
# If this CIF has been generated from an entry in the Cambridge
# Structural Database, then it will include bibliographic, chemical,
# crystal, experimental, refinement or atomic coordinate data resulting
# from the CCDC's data processing and validation procedures.
#
#######################################################################

data_CSD_CIF_CEHHAA
_audit_creation_date 2012-11-16
_audit_creation_method CSD-ConQuest-V1
_database_code_CSD CEHHAA
_database_code_depnum_ccdc_archive 'CCDC 892869'
_chemical_formula_sum 'C27 H47 N1 O1'
_chemical_formula_moiety
;
C27 H47 N1 O1
;
_journal_coeditor_code "IUCr HG5240"
_journal_coden_Cambridge 1370
_journal_volume 68
_journal_year 2012
_journal_page_first o3037
_journal_name_full 'Acta Crystallogr.,Sect.E:Struct.Rep.Online '
loop_
_publ_author_name
"S.Uzzaman"
"H.Khanam"
"A.Mashrai"
"Y.N.Mabkhot"
"A.Husain"
_chemical_name_systematic
;
6-Hydroxyimino-5\a-cholestane
;
_chemical_melting_point 482
_cell_volume   2386.560
_exptl_crystal_colour 'colorless'
_exptl_crystal_density_diffrn 1.118
_exptl_crystal_description 'plate'
_exptl_crystal_preparation 'ethanol'
_diffrn_ambient_temperature 100
_refine_special_details
;
Part of one of the molecules is disordered.

;
#These two values have been output from a single CSD field.
_refine_ls_R_factor_gt 0.0494
_refine_ls_wR_factor_gt 0.0494
_symmetry_cell_setting monoclinic
_symmetry_space_group_name_H-M 'P 21'
_symmetry_Int_Tables_number 4
loop_
_symmetry_equiv_pos_site_id
_symmetry_equiv_pos_as_xyz
1 x,y,z
2 -x,1/2+y,-z
_cell_length_a 13.7535(7)
_cell_length_b 9.5266(4)
_cell_length_c 18.681(1)
_cell_angle_alpha 90
_cell_angle_beta 102.829(3)
_cell_angle_gamma 90
_cell_formula_units_Z 4
loop_
_atom_type_symbol
_atom_type_radius_bond
C 0.68
H 0.23
N 0.68
O 0.68
loop_
_atom_site_label
_atom_site_type_symbol
_atom_site_fract_x
_atom_site_fract_y
_atom_site_fract_z
O1 O 0.61310(13) 0.1041(2) 0.17724(10)
H1 H 0.585(2) 0.091(4) 0.1311(19)
C1 C 0.77678(17) 0.0812(2) 0.22893(13)
N1 N 0.71254(15) 0.0947(2) 0.16853(11)
C2 C 0.88428(18) 0.0668(3) 0.22606(13)
H2 H 0.90580 -0.02690 0.24810
C3 C 0.9035(2) 0.0630(3) 0.14838(14)
H3 H 0.86270 -0.01200 0.11960
H4 H 0.88360 0.15370 0.12360
C4 C 1.0132(2) 0.0357(4) 0.15124(16)
H5 H 1.03170 -0.05840 0.17230
H6 H 1.02500 0.03730 0.10080
C5 C 1.0775(2) 0.1455(4) 0.19742(17)
H7 H 1.06330 0.23840 0.17360
H8 H 1.14860 0.12350 0.20020
C6 C 1.05897(18) 0.1526(3) 0.27529(16)
H9 H 1.09960 0.22960 0.30230
H10 H 1.08180 0.06370 0.30110
C7 C 0.94860(17) 0.1770(3) 0.27754(15)
C8 C 0.93347(16) 0.1497(2) 0.35607(13)
H11 H 0.95220 0.04930 0.36720
C9 C 1.00016(18) 0.2365(3) 0.41720(15)
H12 H 1.07070 0.22270 0.41490
H13 H 0.98420 0.33720 0.40840
C10 C 0.98758(18) 0.1972(3) 0.49393(15)
H14 H 1.02900 0.26070 0.53030
H15 H 1.01210 0.10030 0.50530
C11 C 0.87903(17) 0.2066(2) 0.50136(13)
C12 C 0.85108(17) 0.1293(3) 0.56717(13)
H16 H 0.88230 0.03410 0.56970
C13 C 0.73665(18) 0.1076(3) 0.54132(13)
H17 H 0.71700 0.01570 0.55840
H18 H 0.70030 0.18250 0.56120
C14 C 0.71249(17) 0.1130(3) 0.45644(13)
H19 H 0.67560 0.02820 0.43510
H20 H 0.67260 0.19730 0.43800
C15 C 0.81518(16) 0.1194(2) 0.43825(13)
H21 H 0.84220 0.02170 0.44510
C16 C 0.82378(16) 0.1631(2) 0.36144(13)
H22 H 0.80280 0.26340 0.35340
C17 C 0.75460(17) 0.0716(3) 0.30388(13)
H23 H 0.76110 -0.02750 0.32030
H24 H 0.68470 0.10070 0.30080
C18 C 0.9167(2) 0.3268(3) 0.25160(17)
H25 H 0.95260 0.39480 0.28730
H26 H 0.84480 0.33740 0.24730
H27 H 0.93260 0.34360 0.20370
C19 C 0.84505(19) 0.3604(3) 0.49939(15)
H28 H 0.84920 0.40240 0.45230
H29 H 0.88830 0.41230 0.53940
H30 H 0.77600 0.36460 0.50520
C20 C 0.8800(2) 0.1919(3) 0.64513(14)
H31 H 0.84430 0.28330 0.64530
C21 C 0.9927(2) 0.2192(3) 0.66857(16)
H32 H 1.01020 0.24330 0.72090
H33 H 1.01070 0.29710 0.63980
H34 H 1.02900 0.13460 0.66000
C22 C 0.8456(2) 0.0920(3) 0.69885(14)
H35 H 0.89510 0.01510 0.71040
H36 H 0.78180 0.04930 0.67300
C23 C 0.8299(5) 0.1538(7) 0.7740(3)
H37 H 0.88990 0.21110 0.79400
H38 H 0.77360 0.22060 0.76090
C24 C 0.8103(6) 0.0677(10) 0.8393(4)
H39 H 0.77250 -0.01750 0.81950
H40 H 0.76690 0.12400 0.86400
C25 C 0.9059(3) 0.0193(5) 0.9001(2)
H41 H 0.96190 -0.02050 0.88030
C26? C 0.8831(5) 0.1306(6) 0.7778(3)
H42? H 0.85700 0.22380 0.78750
H43? H 0.95690 0.13540 0.78950
C27? C 0.8488(3) 0.0208(4) 0.82512(18)
H44? H 0.78280 -0.01240 0.79780
H45? H 0.89510 -0.05970 0.82820
C28? C 0.8391(4) 0.0519(6) 0.9022(3)
H46? H 0.77270 0.09400 0.90290
C29 C 0.9295(3) 0.1526(3) 0.94258(16)
H47? H 0.98980 0.14110 0.98110
H48? H 0.94170 0.22690 0.91050
H49? H 0.87590 0.17820 0.96450
H50? H 0.92640 0.24140 0.91760
H51? H 0.92610 0.16720 0.99250
H52? H 0.99380 0.10940 0.94170
C30 C 0.8563(3) -0.0864(3) 0.94673(17)
H53? H 0.90570 -0.12840 0.98570
H54? H 0.80780 -0.03870 0.96800
H55? H 0.82310 -0.16050 0.91510
H56? H 0.80610 -0.15450 0.92640
H57? H 0.92110 -0.12460 0.94570
H58? H 0.85340 -0.06680 0.99640
O2 O 0.33906(12) 0.5733(2) -0.01531(10)
H59 H 0.306(2) 0.588(4) -0.0599(18)
C31 C 0.49582(17) 0.4940(2) 0.02841(12)
N2 N 0.43489(14) 0.5418(2) -0.02822(10)
C32 C 0.59958(17) 0.4588(2) 0.02224(12)
H60 H 0.61280 0.36170 0.04230
C33 C 0.61520(18) 0.4535(3) -0.05631(12)
H61 H 0.56580 0.38910 -0.08610
H62 H 0.60480 0.54810 -0.07860
C34 C 0.72015(18) 0.4031(3) -0.05655(13)
H63 H 0.73040 0.40510 -0.10740
H64 H 0.72830 0.30490 -0.03880
C35 C 0.79807(19) 0.4957(3) -0.00758(14)
H65 H 0.79530 0.59110 -0.02890
H66 H 0.86530 0.45690 -0.00580
C36 C 0.78092(17) 0.5050(3) 0.07050(13)
H67 H 0.83080 0.56990 0.09950
H68 H 0.79200 0.41120 0.09370
C37 C 0.67551(16) 0.5563(2) 0.07400(12)
C38 C 0.65899(16) 0.5382(2) 0.15342(12)
H69 H 0.67370 0.43760 0.16700
C39 C 0.73071(17) 0.6262(3) 0.21092(13)
H70 H 0.72200 0.72650 0.19710
H71 H 0.80010 0.59970 0.21020
C40 C 0.71515(17) 0.6082(3) 0.28966(12)
H72 H 0.73400 0.51150 0.30670
H73 H 0.75950 0.67400 0.32280
C41 C 0.60703(16) 0.6356(2) 0.29422(12)
C42 C 0.57603(17) 0.5883(2) 0.36572(12)
H74 H 0.60610 0.49370 0.37930
C43 C 0.46118(18) 0.5684(3) 0.34010(12)
H75 H 0.43930 0.48560 0.36440
H76 H 0.42580 0.65220 0.35260
C44 C 0.43838(18) 0.5467(3) 0.25580(12)
H77 H 0.40000 0.45930 0.24170
H78 H 0.40010 0.62690 0.23000
C45 C 0.54085(16) 0.5372(2) 0.23794(11)
H79 H 0.56550 0.43960 0.25040
C46 C 0.54998(16) 0.5646(2) 0.15896(11)
H80 H 0.53410 0.66570 0.14750
C47 C 0.47601(17) 0.4750(3) 0.10383(12)
H81 H 0.48370 0.37490 0.11820
H82 H 0.40690 0.50400 0.10380
C48 C 0.66091(19) 0.7094(2) 0.04869(14)
H83 H 0.71330 0.76760 0.07860
H84 H 0.59550 0.74250 0.05430
H85 H 0.66460 0.71600 -0.00300
C49 C 0.57851(18) 0.7902(2) 0.27894(13)
H86 H 0.61640 0.84860 0.31860
H87 H 0.50700 0.80210 0.27620
H88 H 0.59390 0.81850 0.23220
C50 C 0.60358(18) 0.6827(2) 0.43447(12)
H89 H 0.56770 0.77400 0.42260
C51 C 0.71555(19) 0.7145(3) 0.45636(14)
H90 H 0.73070 0.76310 0.50380
H91 H 0.73440 0.77430 0.41900
H92 H 0.75320 0.62640 0.46030
C52 C 0.5687(2) 0.6171(3) 0.49985(13)
H93 H 0.50190 0.57490 0.48200
H94 H 0.61530 0.54100 0.52110
C53 C 0.5635(2) 0.7249(3) 0.55994(13)
H95 H 0.62700 0.77780 0.57100
H96 H 0.50970 0.79250 0.53990
C54 C 0.54498(18) 0.6672(3) 0.63243(13)
H97 H 0.50530 0.73720 0.65290
H98 H 0.50390 0.58120 0.62150
C55 C 0.63789(17) 0.6318(3) 0.69153(12)
H99 H 0.68520 0.71260 0.69510
C56 C 0.61099(19) 0.6148(3) 0.76606(13)
H100 H 0.57600 0.69900 0.77700
H101 H 0.67200 0.60170 0.80410
H102 H 0.56770 0.53280 0.76490
C57 C 0.69108(19) 0.5011(3) 0.67274(15)
H103 H 0.74620 0.47750 0.71400
H104 H 0.71730 0.51920 0.62890
H105 H 0.64390 0.42260 0.66320
#END
