
#######################################################################
#
#                 Cambridge Crystallographic Data Centre
#                                CCDC
#
#######################################################################
#
# If this CIF has been generated from an entry in the Cambridge
# Structural Database, then it will include bibliographic, chemical,
# crystal, experimental, refinement or atomic coordinate data resulting
# from the CCDC's data processing and validation procedures.
#
#######################################################################

data_CSD_CIF_CEJVUI
_audit_creation_date 1984-10-09
_audit_creation_method CSD-ConQuest-V1
_database_code_CSD CEJVUI
_chemical_formula_sum 'C16 H15 N1 O3'
_chemical_formula_moiety
;
C16 H15 N1 O3
;
_journal_coeditor_code "IUCr A23339"
_journal_coden_Cambridge 591
_journal_volume 40
_journal_year 1984
_journal_page_first 140
_journal_name_full 'Acta Crystallogr.,Sect.C:Cryst.Struct.Commun. '
loop_
_publ_author_name
"Y.Inouye"
_chemical_name_systematic
;
Methyl(diphenylmethylimino)acetate N-oxide
;
_cell_volume   1381.656
_exptl_crystal_colour 'colorless'
_exptl_crystal_density_diffrn 1.29
_diffrn_ambient_temperature ?
_diffrn_special_details
;
The study was carried out at room temperature,in the range 283-303K

;
#These two values have been output from a single CSD field.
_refine_ls_R_factor_gt 0.048
_refine_ls_wR_factor_gt 0.048
_symmetry_cell_setting monoclinic
_symmetry_space_group_name_H-M 'P 21/a'
_symmetry_Int_Tables_number 14
loop_
_symmetry_equiv_pos_site_id
_symmetry_equiv_pos_as_xyz
1 x,y,z
2 1/2-x,1/2+y,-z
3 -x,-y,-z
4 -1/2+x,-1/2-y,z
_cell_length_a 10.142(1)
_cell_length_b 13.851(3)
_cell_length_c 9.986(1)
_cell_angle_alpha 90
_cell_angle_beta 99.961(9)
_cell_angle_gamma 90
_cell_formula_units_Z 4
loop_
_atom_type_symbol
_atom_type_radius_bond
C 0.68
H 0.23
N 0.68
O 0.68
loop_
_atom_site_label
_atom_site_type_symbol
_atom_site_fract_x
_atom_site_fract_y
_atom_site_fract_z
C1 C 0.50060 0.65960 -0.02460
O1 O 0.48600 0.68120 0.11430
C2 C 0.57260 0.74100 0.18360
O2 O 0.66250 0.77590 0.13920
C3 C 0.54000 0.75220 0.32050
N1 N 0.62940 0.76930 0.42720
O3 O 0.75500 0.77690 0.42970
C4 C 0.58440 0.77350 0.56370
C5 C 0.63240 0.86560 0.63810
C6 C 0.64300 0.86940 0.77790
C7 C 0.67050 0.95560 0.84780
C8 C 0.68990 1.03820 0.77850
C9 C 0.68240 1.03500 0.64000
C10 C 0.65340 0.94970 0.56990
C11 C 0.62240 0.67930 0.63570
C12 C 0.52610 0.60830 0.63260
C13 C 0.55920 0.51930 0.69090
C14 C 0.68830 0.49990 0.75270
C15 C 0.78450 0.57060 0.75760
C16 C 0.75220 0.65990 0.69970
H1 H 0.59400 0.65800 -0.03300
H2 H 0.47000 0.72500 -0.06900
H3 H 0.43600 0.61400 -0.05100
H4 H 0.45000 0.74300 0.33400
H5 H 0.48900 0.77600 0.53900
H6 H 0.62900 0.81300 0.82900
H7 H 0.67300 0.95600 0.94500
H8 H 0.70600 1.09600 0.82600
H9 H 0.69600 1.09100 0.58800
H10 H 0.64700 0.94700 0.47200
H11 H 0.43500 0.62200 0.58600
H12 H 0.48900 0.47100 0.68800
H13 H 0.70900 0.43900 0.79200
H14 H 0.87500 0.55800 0.79900
H15 H 0.82000 0.70800 0.70600
#END
