
#######################################################################
#
#                 Cambridge Crystallographic Data Centre
#                                CCDC
#
#######################################################################
#
# If this CIF has been generated from an entry in the Cambridge
# Structural Database, then it will include bibliographic, chemical,
# crystal, experimental, refinement or atomic coordinate data resulting
# from the CCDC's data processing and validation procedures.
#
#######################################################################

data_CSD_CIF_CEJWUM
_audit_creation_date 2017-10-06
_audit_creation_method CSD-ConQuest-V1
_database_code_CSD CEJWUM
_database_code_depnum_ccdc_archive 'CCDC 1543540'
_chemical_formula_sum 'C11 H15 N1 O3'
_chemical_formula_moiety
;
C11 H15 N1 O3
;
_journal_coden_Cambridge 179
_journal_volume 56
_journal_year 2017
_journal_page_first 11599
_journal_name_full 'Angew.Chem.,Int.Ed. '
loop_
_publ_author_name
"Li Zhai"
"Xuechao Tian"
"Chao Wang"
"Qi Cui"
"Wenhua Li"
"Sha-Hua Huang"
"Zhi-Xiang Yu"
"Ran Hong"
_chemical_name_systematic
;
2-(acetyloxy)-8-methylidene-2-azabicyclo[3.3.1]nonan-3-one
;
_cell_volume    543.142
_exptl_crystal_colour 'colorless'
_exptl_crystal_density_diffrn 1.279
_exptl_crystal_description 'prismatic'
_diffrn_ambient_temperature 293
#These two values have been output from a single CSD field.
_refine_ls_R_factor_gt 0.0437
_refine_ls_wR_factor_gt 0.0437
_symmetry_cell_setting monoclinic
_symmetry_space_group_name_H-M 'P 21'
_symmetry_Int_Tables_number 4
loop_
_symmetry_equiv_pos_site_id
_symmetry_equiv_pos_as_xyz
1 x,y,z
2 -x,1/2+y,-z
_cell_length_a 7.4542(16)
_cell_length_b 7.4534(16)
_cell_length_c 9.975(2)
_cell_angle_alpha 90
_cell_angle_beta 101.466(5)
_cell_angle_gamma 90
_cell_formula_units_Z 2
loop_
_atom_type_symbol
_atom_type_radius_bond
C 0.68
H 0.23
N 0.68
O 0.68
loop_
_atom_site_label
_atom_site_type_symbol
_atom_site_fract_x
_atom_site_fract_y
_atom_site_fract_z
N1 N 0.1869(4) 0.2723(3) 0.3081(3)
O1 O -0.0269(3) 0.4856(3) 0.3105(2)
O2 O 0.4035(3) 0.4800(4) 0.4751(2)
O3 O 0.2930(3) 0.4033(3) 0.2568(2)
C1 C 0.0159(5) 0.3284(5) 0.3176(3)
C2 C -0.1090(5) 0.1816(5) 0.3491(4)
H1 H -0.23310 0.21060 0.30380
H2 H -0.10570 0.18230 0.44680
C3 C -0.0664(4) -0.0074(5) 0.3079(3)
H3 H -0.12910 -0.09230 0.35790
C4 C -0.1267(4) -0.0448(5) 0.1552(4)
H4 H -0.25660 -0.02020 0.12780
H5 H -0.10770 -0.17090 0.13830
C5 C -0.0228(4) 0.0678(5) 0.0681(3)
H6 H -0.05120 0.02490 -0.02560
H7 H -0.06300 0.19150 0.06840
C6 C 0.1793(4) 0.0595(4) 0.1195(3)
C7 C 0.2344(4) 0.0908(4) 0.2715(3)
H8 H 0.36700 0.07410 0.29970
C8 C 0.1378(5) -0.0384(5) 0.3503(3)
H9 H 0.17700 -0.01820 0.44780
H10 H 0.16730 -0.16100 0.33050
C9 C 0.2974(5) 0.0233(6) 0.0427(4)
H11 H 0.25710 0.00070 -0.05010
H12 H 0.42180 0.02010 0.08080
C10 C 0.4022(4) 0.4996(4) 0.3578(3)
C11 C 0.5136(5) 0.6281(4) 0.2947(4)
H13 H 0.53190 0.73590 0.34830
H14 H 0.45070 0.65620 0.20360
H15 H 0.63000 0.57510 0.29160
#END
