
#######################################################################
#
#                 Cambridge Crystallographic Data Centre
#                                CCDC
#
#######################################################################
#
# If this CIF has been generated from an entry in the Cambridge
# Structural Database, then it will include bibliographic, chemical,
# crystal, experimental, refinement or atomic coordinate data resulting
# from the CCDC's data processing and validation procedures.
#
#######################################################################

data_CSD_CIF_CEJXUN
_audit_creation_date 2017-10-06
_audit_creation_method CSD-ConQuest-V1
_database_code_CSD CEJXUN
_database_code_depnum_ccdc_archive 'CCDC 1543545'
_chemical_formula_sum 'C17 H19 N1 O3'
_chemical_formula_moiety
;
C17 H19 N1 O3
;
_journal_coden_Cambridge 179
_journal_volume 56
_journal_year 2017
_journal_page_first 11599
_journal_name_full 'Angew.Chem.,Int.Ed. '
loop_
_publ_author_name
"Li Zhai"
"Xuechao Tian"
"Chao Wang"
"Qi Cui"
"Wenhua Li"
"Sha-Hua Huang"
"Zhi-Xiang Yu"
"Ran Hong"
_chemical_name_systematic
;
2-(acetyloxy)-8-benzylidene-2-azabicyclo[3.3.1]nonan-3-one
;
_cell_volume   1506.248
_exptl_crystal_colour 'colorless'
_exptl_crystal_density_diffrn 1.258
_exptl_crystal_description 'prismatic'
_diffrn_ambient_temperature 293
#These two values have been output from a single CSD field.
_refine_ls_R_factor_gt 0.048
_refine_ls_wR_factor_gt 0.048
_symmetry_cell_setting monoclinic
_symmetry_space_group_name_H-M 'P 21/c'
_symmetry_Int_Tables_number 14
loop_
_symmetry_equiv_pos_site_id
_symmetry_equiv_pos_as_xyz
1 x,y,z
2 -x,1/2+y,1/2-z
3 -x,-y,-z
4 x,-1/2-y,-1/2+z
_cell_length_a 10.1903(15)
_cell_length_b 12.9589(19)
_cell_length_c 12.3832(18)
_cell_angle_alpha 90
_cell_angle_beta 112.912(3)
_cell_angle_gamma 90
_cell_formula_units_Z 4
loop_
_atom_type_symbol
_atom_type_radius_bond
C 0.68
H 0.23
N 0.68
O 0.68
loop_
_atom_site_label
_atom_site_type_symbol
_atom_site_fract_x
_atom_site_fract_y
_atom_site_fract_z
N1 N 0.24582(17) -0.08272(11) 0.43231(12)
O1 O 0.09803(16) -0.21250(11) 0.43162(13)
O2 O 0.18563(14) -0.02542(10) 0.49887(10)
O3 O 0.35461(15) -0.09316(12) 0.65966(12)
C1 C 0.30394(17) -0.01500(13) 0.36699(14)
H1 H 0.37000 0.03430 0.42110
C2 C 0.1785(2) -0.17447(14) 0.39170(15)
C3 C 0.2193(2) -0.22686(14) 0.30060(17)
H2 H 0.13540 -0.26110 0.24540
H3 H 0.28860 -0.28010 0.33940
C4 C 0.2807(2) -0.15918(15) 0.23114(17)
H4 H 0.33300 -0.20330 0.19730
C5 C 0.3848(2) -0.08320(14) 0.31432(18)
H5 H 0.45970 -0.12010 0.37590
H6 H 0.42810 -0.04130 0.27220
C6 C 0.18581(17) 0.04302(13) 0.27351(14)
C7 C 0.08652(19) -0.02494(14) 0.17770(15)
H7 H 0.02590 0.01790 0.11340
H8 H 0.02580 -0.06300 0.20760
C8 C 0.1674(2) -0.10079(15) 0.13229(16)
H9 H 0.10070 -0.14970 0.07990
H10 H 0.21210 -0.06340 0.08780
C9 C 0.16975(18) 0.14406(14) 0.27481(15)
H11 H 0.09380 0.17200 0.21210
C10 C 0.25865(19) 0.21785(13) 0.36452(15)
C11 C 0.3872(2) 0.25229(17) 0.36662(18)
H12 H 0.42160 0.22610 0.31270
C12 C 0.4662(3) 0.32491(19) 0.4471(2)
H13 H 0.55220 0.34780 0.44610
C13 C 0.4198(3) 0.36312(18) 0.5273(2)
H14 H 0.47300 0.41240 0.58120
C14 C 0.2939(3) 0.3286(2) 0.5284(2)
H15 H 0.26190 0.35360 0.58430
C15 C 0.2137(2) 0.25681(18) 0.44750(19)
H16 H 0.12770 0.23440 0.44910
C16 C 0.25328(19) -0.04003(14) 0.61674(15)
C17 C 0.1797(2) 0.01959(19) 0.67811(19)
H17 H 0.23840 0.02230 0.76030
H18 H 0.09080 -0.01320 0.66690
H19 H 0.16190 0.08840 0.64700
#END
