
#######################################################################
#
#                 Cambridge Crystallographic Data Centre
#                                CCDC
#
#######################################################################
#
# If this CIF has been generated from an entry in the Cambridge
# Structural Database, then it will include bibliographic, chemical,
# crystal, experimental, refinement or atomic coordinate data resulting
# from the CCDC's data processing and validation procedures.
#
#######################################################################

data_CSD_CIF_CEJYIA
_audit_creation_date 2006-08-20
_audit_creation_method CSD-ConQuest-V1
_database_code_CSD CEJYIA
_database_code_depnum_ccdc_archive 'CCDC 617157'
_chemical_formula_sum 'C24 H36 N8 O4'
_chemical_formula_moiety
;
C24 H36 N8 O4
;
_journal_coden_Cambridge 9
_journal_volume 45
_journal_year 2006
_journal_page_first 3671
_journal_name_full 'Inorg.Chem. '
loop_
_publ_author_name
"E.Tretyakov"
"S.Fokin"
"G.Romanenko"
"V.Ikorskii"
"S.Vasilevsky"
"V.Ovcharenko"
_chemical_name_systematic
;
1,4-bis(4-(4,4,5,5-Tetramethyl-3-oxide-1-oxyl-4,5-dihydro-1H-imidazol-2-yl)pyr
azol-1-yl)butane
;
_chemical_melting_point 448.15
_cell_volume   2584.291
_exptl_crystal_colour 'dark blue'
_exptl_crystal_density_diffrn 1.287
_exptl_special_details
;
Melting point range 448.15-450.15K

;
_exptl_crystal_description 'needle'
_exptl_crystal_preparation 'toluene/hexane'
_diffrn_ambient_temperature 240
#These two values have been output from a single CSD field.
_refine_ls_R_factor_gt 0.0813
_refine_ls_wR_factor_gt 0.0813
_symmetry_cell_setting orthorhombic
_symmetry_space_group_name_H-M 'P b c a'
_symmetry_Int_Tables_number 61
loop_
_symmetry_equiv_pos_site_id
_symmetry_equiv_pos_as_xyz
1 x,y,z
2 1/2-x,-y,1/2+z
3 1/2+x,1/2-y,-z
4 -x,1/2+y,1/2-z
5 -x,-y,-z
6 -1/2+x,y,-1/2-z
7 -1/2-x,-1/2+y,z
8 x,-1/2-y,-1/2+z
_cell_length_a 9.585(3)
_cell_length_b 9.320(3)
_cell_length_c 28.929(10)
_cell_angle_alpha 90
_cell_angle_beta 90
_cell_angle_gamma 90
_cell_formula_units_Z 4
loop_
_atom_type_symbol
_atom_type_radius_bond
C 0.82
H 0.23
N 0.68
O 0.68
loop_
_atom_site_label
_atom_site_type_symbol
_atom_site_fract_x
_atom_site_fract_y
_atom_site_fract_z
C1 C 0.9537(5) 0.1283(5) 0.68268(16)
N1 N 1.0221(5) -0.0069(5) 0.66874(13)
O1 O 1.0745(7) -0.0915(6) 0.69859(12)
N2 N 0.9618(4) 0.0809(4) 0.60340(12)
O2 O 0.9419(5) 0.0948(4) 0.55958(11)
C2 C 0.8334(12) 0.0845(13) 0.7140(4)
H1 H 0.854(11) 0.014(13) 0.733(4)
H2 H 0.743(10) 0.058(10) 0.675(3)
H3 H 0.785(5) 0.155(5) 0.7175(15)
N3 N 1.1637(4) -0.3767(4) 0.58974(13)
C3 C 1.0554(14) 0.2136(12) 0.7113(4)
H4 H 1.067(8) 0.140(9) 0.741(3)
H5 H 1.020(18) 0.306(18) 0.719(5)
H6 H 1.114(6) 0.265(7) 0.688(2)
N4 N 1.1404(4) -0.3107(4) 0.54895(12)
C4 C 0.9109(5) 0.1935(5) 0.63603(15)
C5 C 0.9892(10) 0.3303(7) 0.6240(3)
H7 H 0.945(7) 0.375(8) 0.591(3)
H8 H 1.097(11) 0.31(1) 0.629(3)
H9 H 0.969(6) 0.404(8) 0.645(2)
C6 C 0.7581(2) 0.2132(2) 0.62785(7)
H10 H 0.74360 0.25240 0.59750
H11 H 0.72080 0.27770 0.65060
H12 H 0.71180 0.12220 0.63020
C7 C 1.0208(2) -0.0299(2) 0.62343(7)
C8 C 1.0732(2) -0.1551(2) 0.60059(7)
C9 C 1.1233(2) -0.2823(2) 0.62068(7)
H13 H 1.12760 -0.29790 0.65240
C10 C 1.0866(2) -0.1803(2) 0.55392(7)
H14 H 1.06240 -0.11760 0.53020
C11 C 1.1694(6) -0.3852(5) 0.50549(18)
H15 H 1.269(5) -0.405(5) 0.5070(15)
H16 H 1.147(4) -0.312(5) 0.4797(14)
C12 C 1.0773(5) -0.5171(5) 0.49979(18)
H17 H 1.105(5) -0.594(5) 0.5267(15)
H18 H 1.106(5) -0.553(5) 0.4684(15)
C1D C 1.0463(5) -1.1283(5) 0.31732(16)
N1D N 0.9779(5) -0.9931(5) 0.33126(13)
O1D O 0.9255(7) -0.9085(6) 0.30141(12)
N2D N 1.0382(4) -1.0809(4) 0.39660(12)
O2D O 1.0581(5) -1.0948(4) 0.44042(11)
C2D C 1.1666(12) -1.0845(13) 0.2860(4)
H1D H 1.146(11) -1.014(13) 0.267(4)
H2D H 1.257(10) -1.058(10) 0.325(3)
H3D H 1.215(5) -1.155(5) 0.2825(15)
N3D N 0.8363(4) -0.6233(4) 0.41026(13)
C3D C 0.9446(14) -1.2136(12) 0.2887(4)
H4D H 0.933(8) -1.140(9) 0.259(3)
H5D H 0.980(18) -1.306(18) 0.281(5)
H6D H 0.886(6) -1.265(7) 0.312(2)
N4D N 0.8596(4) -0.6893(4) 0.45105(12)
C4D C 1.0891(5) -1.1935(5) 0.36397(15)
C5D C 1.0108(10) -1.3303(7) 0.3760(3)
H7D H 1.055(7) -1.375(8) 0.409(3)
H8D H 0.903(11) -1.31(1) 0.371(3)
H9D H 1.031(6) -1.404(8) 0.355(2)
C6D C 1.2419(2) -1.2132(2) 0.37215(7)
H10D H 1.25640 -1.25240 0.40250
H11D H 1.27920 -1.27770 0.34940
H12D H 1.28820 -1.12220 0.36980
C7D C 0.9792(2) -0.9701(2) 0.37657(7)
C8D C 0.9268(2) -0.8449(2) 0.39941(7)
C9D C 0.8767(2) -0.7177(2) 0.37932(7)
H13D H 0.87240 -0.70210 0.34760
C10D C 0.9134(2) -0.8197(2) 0.44608(7)
H14D H 0.93760 -0.88240 0.46980
C11D C 0.8306(6) -0.6148(5) 0.49451(18)
H15D H 0.731(5) -0.595(5) 0.4930(15)
H16D H 0.853(4) -0.688(5) 0.5203(14)
C12D C 0.9227(5) -0.4829(5) 0.50021(18)
H17D H 0.895(5) -0.406(5) 0.4733(15)
H18D H 0.894(5) -0.447(5) 0.5316(15)
#END
