
#######################################################################
#
#                 Cambridge Crystallographic Data Centre
#                                CCDC
#
#######################################################################
#
# If this CIF has been generated from an entry in the Cambridge
# Structural Database, then it will include bibliographic, chemical,
# crystal, experimental, refinement or atomic coordinate data resulting
# from the CCDC's data processing and validation procedures.
#
#######################################################################

data_CSD_CIF_CEKCUS
_audit_creation_date 2012-11-29
_audit_creation_method CSD-ConQuest-V1
_database_code_CSD CEKCUS
_database_code_depnum_ccdc_archive 'CCDC 883160'
_chemical_formula_sum 'C16 H21 N3 O6'
_chemical_formula_moiety
;
C16 H21 N3 O6
;
_journal_coden_Cambridge 1145
_journal_volume 22
_journal_year 2012
_journal_page_first 22198
_journal_name_full 'J.Mater.Chem. '
loop_
_publ_author_name
"S.K.Maity"
"R.Kumar"
"D.K.S.Ambast"
"B.Pal"
"D.Haldar"
_chemical_name_systematic
;
Methyl N-acetyl-4-nitrophenylalanyl-2-methylalaninate
;
_chemical_name_common
;
PEPSEQ A=2 ALA*-ALA*
;
_cell_volume    880.065
_exptl_crystal_colour 'yellow'
_exptl_crystal_density_diffrn 1.326
_exptl_crystal_description 'needle'
_diffrn_ambient_temperature 100
#These two values have been output from a single CSD field.
_refine_ls_R_factor_gt 0.0699
_refine_ls_wR_factor_gt 0.0699
_symmetry_cell_setting triclinic
_symmetry_space_group_name_H-M 'P -1'
_symmetry_Int_Tables_number 2
loop_
_symmetry_equiv_pos_site_id
_symmetry_equiv_pos_as_xyz
1 x,y,z
2 -x,-y,-z
_cell_length_a 9.1882(18)
_cell_length_b 10.6127(17)
_cell_length_c 10.8720(17)
_cell_angle_alpha 97.965(3)
_cell_angle_beta 110.138(3)
_cell_angle_gamma 111.785(3)
_cell_formula_units_Z 2
loop_
_atom_type_symbol
_atom_type_radius_bond
C 0.68
H 0.23
N 0.68
O 0.68
loop_
_atom_site_label
_atom_site_type_symbol
_atom_site_fract_x
_atom_site_fract_y
_atom_site_fract_z
O1 O 0.0829(3) -0.1263(3) 0.5667(2)
O2 O 0.5076(5) 0.7448(3) 1.3177(3)
O3 O -0.0911(4) -0.3414(3) 0.4177(3)
O4 O 0.2871(3) -0.1534(2) 0.8528(2)
N1 N 0.3553(3) 0.0420(3) 1.0979(2)
H1 H 0.45620 0.05260 1.10700
O5 O 0.1794(3) 0.0235(2) 1.2045(2)
O6 O 0.2477(4) 0.6954(3) 1.1749(4)
N2 N 0.0084(3) -0.1837(3) 0.7727(3)
H2 H -0.05850 -0.15430 0.79290
C1 C 0.3279(4) 0.2855(4) 0.9922(3)
C2 C 0.1266(5) -0.0819(4) 0.4586(3)
H3 H 0.16290 -0.14510 0.42000
H4 H 0.21930 0.01340 0.49620
H5 H 0.02670 -0.08460 0.38800
C3 C -0.0265(4) -0.2587(4) 0.5322(3)
C4 C -0.0747(4) -0.3039(4) 0.6478(3)
C5 C 0.1777(4) -0.1143(3) 0.8590(3)
C6 C 0.2296(3) 0.0231(3) 0.9635(3)
H6 H 0.12580 0.02180 0.97100
C7 C 0.3070(4) 0.1485(3) 0.9109(3)
H7 H 0.41930 0.15970 0.91720
H8 H 0.23150 0.12690 0.81480
C8 C 0.4830(4) 0.3806(4) 1.1053(3)
H9 H 0.57700 0.35980 1.13200
C9 C 0.4974(5) 0.5075(4) 1.1789(3)
H10 H 0.60040 0.57180 1.25430
C10 C 0.3558(5) 0.5347(4) 1.1369(4)
N3 N 0.3706(4) 0.6682(3) 1.2160(3)
C11 C -0.0342(5) -0.4268(4) 0.6747(4)
H11 H 0.08550 -0.40010 0.69520
H12 H -0.10680 -0.50890 0.59450
H13 H -0.05580 -0.44900 0.75130
C12 C 0.3228(4) 0.0440(3) 1.2086(3)
C13 C 0.4734(4) 0.0732(4) 1.3407(3)
H14 H 0.47600 0.13680 1.41430
H15 H 0.57970 0.11610 1.33150
H16 H 0.46050 -0.01470 1.36050
C14 C 0.2023(5) 0.4433(4) 1.0276(4)
H17 H 0.10890 0.46480 1.00190
C15 C 0.1882(4) 0.3193(4) 0.9563(4)
H18 H 0.08330 0.25580 0.88210
C16 C -0.2717(4) -0.3545(4) 0.5937(4)
H19 H -0.30730 -0.37720 0.66440
H20 H -0.33180 -0.43770 0.51480
H21 H -0.29890 -0.28010 0.56810
#END
