
#######################################################################
#
#                 Cambridge Crystallographic Data Centre
#                                CCDC
#
#######################################################################
#
# If this CIF has been generated from an entry in the Cambridge
# Structural Database, then it will include bibliographic, chemical,
# crystal, experimental, refinement or atomic coordinate data resulting
# from the CCDC's data processing and validation procedures.
#
#######################################################################

data_CSD_CIF_CEKHOS
_audit_creation_date 2017-10-06
_audit_creation_method CSD-ConQuest-V1
_database_code_CSD CEKHOS
_database_code_depnum_ccdc_archive 'CCDC 1556524'
_chemical_formula_sum 'C19 H21 N3 O4'
_chemical_formula_moiety
;
C19 H21 N3 O4
;
_journal_coden_Cambridge 179
_journal_volume 56
_journal_year 2017
_journal_page_first 11831
_journal_name_full 'Angew.Chem.,Int.Ed. '
loop_
_publ_author_name
"J.Blom"
"A.Vidal-Albalat"
"J.Jrgensen"
"C.L.Barlse"
"K.S.Jessen"
"M.V.Iversen"
"K.A.Jrgensen"
_chemical_name_systematic
;
1-cyano-3a-nitro-3-(2-oxo-2-phenylethyl)octahydro-1H-indene-1-carboxamide
;
_cell_volume   1756.658
_exptl_crystal_colour 'light colorless'
_exptl_crystal_density_diffrn 1.344
_exptl_crystal_description 'block'
_exptl_crystal_preparation 'Diethyl ether'
_diffrn_ambient_temperature 100
#These two values have been output from a single CSD field.
_refine_ls_R_factor_gt 0.0411
_refine_ls_wR_factor_gt 0.0411
_symmetry_cell_setting triclinic
_symmetry_space_group_name_H-M 'P -1'
_symmetry_Int_Tables_number 2
loop_
_symmetry_equiv_pos_site_id
_symmetry_equiv_pos_as_xyz
1 x,y,z
2 -x,-y,-z
_cell_length_a 8.6988(6)
_cell_length_b 13.2342(9)
_cell_length_c 15.8854(11)
_cell_angle_alpha 86.389(3)
_cell_angle_beta 81.178(3)
_cell_angle_gamma 76.524(2)
_cell_formula_units_Z 4
loop_
_atom_type_symbol
_atom_type_radius_bond
C 0.68
H 0.23
N 0.68
O 0.68
loop_
_atom_site_label
_atom_site_type_symbol
_atom_site_fract_x
_atom_site_fract_y
_atom_site_fract_z
O1 O 1.36567(11) 0.63238(7) 0.71360(6)
O2 O 1.53852(11) 0.49986(8) 0.65933(6)
O3 O 0.88990(11) 0.72761(8) 0.77630(7)
O4 O 1.21553(12) 0.36897(8) 0.95488(7)
N1 N 1.40149(12) 0.54420(8) 0.68690(7)
N2 N 0.72386(13) 0.65153(9) 0.72012(8)
H1 H 0.65148 0.71002 0.71745
H2 H 0.70732 0.59371 0.70257
N3 N 0.86906(15) 0.38447(10) 0.73671(9)
C1 C 1.27028(14) 0.48234(10) 0.69429(8)
C2 C 1.23389(15) 0.45185(10) 0.79034(8)
H3 H 1.20553 0.38261 0.79280
C3 C 0.85780(15) 0.65051(10) 0.75059(8)
C4 C 1.37295(15) 0.43978(10) 0.84064(8)
H4 H 1.47039 0.39825 0.80750
H5 H 1.39210 0.50933 0.84809
C5 C 1.11587(14) 0.55642(10) 0.67089(8)
H6 H 1.13293 0.62869 0.66970
C6 C 1.48038(16) 0.35891(10) 0.97783(8)
C7 C 1.32633(16) 0.39007(10) 0.63645(8)
H7 H 1.24825 0.34536 0.64764
H8 H 1.42978 0.34866 0.65087
C8 C 1.62981(16) 0.37897(10) 0.94831(9)
H9 H 1.64697 0.41400 0.89483
C9 C 1.07884(15) 0.53838(11) 0.58313(8)
H10 H 1.03450 0.47571 0.58499
H11 H 0.99908 0.59871 0.56463
C10 C 0.98531(15) 0.54774(10) 0.74790(8)
C11 C 0.91768(15) 0.45684(11) 0.74141(9)
C12 C 1.34672(16) 0.42018(11) 0.54110(9)
H12 H 1.32581 0.36469 0.50847
H13 H 1.45851 0.42551 0.52229
C13 C 1.34446(16) 0.38778(10) 0.92730(8)
C14 C 1.45616(17) 0.30871(10) 1.05701(9)
H14 H 1.35412 0.29580 1.07827
C15 C 1.75392(17) 0.34810(11) 0.99653(9)
H15 H 1.85532 0.36266 0.97639
C16 C 1.72948(18) 0.29602(11) 1.07405(9)
H16 H 1.81516 0.27284 1.10629
C17 C 1.23369(16) 0.52396(11) 0.52119(9)
H17 H 1.28567 0.58199 0.52601
H18 H 1.21026 0.52464 0.46208
C18 C 1.58036(18) 0.27771(11) 1.10461(9)
H19 H 1.56325 0.24369 1.15855
C19 C 1.08109(15) 0.53090(11) 0.82334(8)
H20 H 1.10544 0.59659 0.83786
H21 H 1.02191 0.50292 0.87428
O5 O 0.52499(11) 0.86104(7) 0.71765(6)
O6 O 0.01998(12) 0.94077(8) 0.81522(7)
O7 O -0.14036(12) 1.08126(8) 0.86188(7)
O8 O 0.16023(13) 1.21277(9) 0.56360(7)
N4 N -0.00654(13) 1.03122(9) 0.83575(7)
N5 N 0.69061(13) 0.93565(9) 0.77530(8)
H22 H 0.76891 0.87972 0.76974
H23 H 0.70398 0.99148 0.79788
N6 N 0.52141(15) 1.19432(10) 0.79432(9)
C20 C 0.55240(15) 0.93579(10) 0.74965(8)
C21 C 0.13255(15) 1.08736(10) 0.82268(8)
C22 C 0.47397(16) 1.12340(11) 0.78316(9)
C23 C 0.15732(15) 1.12542(10) 0.72721(8)
H24 H 0.17057 1.19846 0.72738
C24 C 0.41516(15) 1.03303(10) 0.76481(8)
C25 C 0.28621(15) 1.00612(10) 0.83622(8)
H25 H 0.26823 0.93837 0.82016
C26 C -0.07798(17) 1.17707(10) 0.53307(9)
C27 C 0.09107(16) 1.17817(10) 0.88236(9)
H26 H -0.02033 1.21640 0.87932
H27 H 0.16161 1.22636 0.86259
C28 C 0.02061(16) 1.12791(11) 0.67739(9)
H28 H 0.00901 1.05596 0.67232
H29 H -0.07982 1.16741 0.70945
C29 C 0.31895(16) 1.05922(11) 0.68921(9)
H30 H 0.37314 1.09858 0.64363
H31 H 0.30560 0.99505 0.66522
C30 C 0.04503(17) 1.17694(10) 0.58897(9)
C31 C 0.10792(17) 1.14558(11) 0.97470(9)
H32 H 0.03345 1.10051 0.99644
H33 H 0.08083 1.20781 1.01025
C32 C -0.03150(19) 1.17687(11) 0.44504(9)
H34 H 0.07621 1.17620 0.42211
C33 C -0.3005(2) 1.18080(11) 0.42445(10)
H35 H -0.37673 1.18235 0.38724
C34 C 0.32191(16) 0.98934(11) 0.92794(9)
H36 H 0.26260 0.93863 0.95709
H37 H 0.43727 0.95815 0.92678
C35 C 0.27924(17) 1.08685(11) 0.98006(9)
H38 H 0.35313 1.13237 0.95854
H39 H 0.29159 1.06760 1.04029
C36 C -0.23592(18) 1.17866(12) 0.56616(10)
H40 H -0.26760 1.17766 0.62611
C37 C -0.1428(2) 1.17764(11) 0.39109(10)
H41 H -0.11092 1.17601 0.33116
C38 C -0.34748(19) 1.18170(13) 0.51164(11)
H42 H -0.45596 1.18440 0.53421
#END
