
#######################################################################
#
#                 Cambridge Crystallographic Data Centre
#                                CCDC
#
#######################################################################
#
# If this CIF has been generated from an entry in the Cambridge
# Structural Database, then it will include bibliographic, chemical,
# crystal, experimental, refinement or atomic coordinate data resulting
# from the CCDC's data processing and validation procedures.
#
#######################################################################

data_CSD_CIF_CEKKEI
_audit_creation_date 1984-10-09
_audit_creation_method CSD-ConQuest-V1
_database_code_CSD CEKKEI
_chemical_formula_sum 'C11 H13 N1 O5'
_chemical_formula_moiety
;
C11 H13 N1 O5
;
_journal_coeditor_code "IUCr A23453"
_journal_coden_Cambridge 591
_journal_volume 40
_journal_year 1984
_journal_page_first 447
_journal_name_full 'Acta Crystallogr.,Sect.C:Cryst.Struct.Commun. '
loop_
_publ_author_name
"L.Golic"
"I.Leban"
_chemical_name_systematic
;
t-Butyl-3-nitroperbenzoate
;
_cell_volume   1194.812
_exptl_crystal_density_diffrn 1.33
_diffrn_ambient_temperature ?
_diffrn_special_details
;
The study was carried out at room temperature,in the range 283-303K

;
#These two values have been output from a single CSD field.
_refine_ls_R_factor_gt 0.114
_refine_ls_wR_factor_gt 0.114
_symmetry_cell_setting monoclinic
_symmetry_space_group_name_H-M 'P 21/c'
_symmetry_Int_Tables_number 14
loop_
_symmetry_equiv_pos_site_id
_symmetry_equiv_pos_as_xyz
1 x,y,z
2 -x,1/2+y,1/2-z
3 -x,-y,-z
4 x,-1/2-y,-1/2+z
_cell_length_a 8.462(4)
_cell_length_b 17.408(10)
_cell_length_c 8.279(4)
_cell_angle_alpha 90
_cell_angle_beta 101.56(4)
_cell_angle_gamma 90
_cell_formula_units_Z 4
loop_
_atom_type_symbol
_atom_type_radius_bond
C 0.68
H 0.23
N 0.68
O 0.68
loop_
_atom_site_label
_atom_site_type_symbol
_atom_site_fract_x
_atom_site_fract_y
_atom_site_fract_z
O1 O 0.49560 0.12490 0.21060
O2 O 0.39130 0.05950 0.22310
O3 O 0.37650 0.10480 0.47130
O4 O 0.03850 -0.18100 0.72370
O5 O 0.12510 -0.07060 0.81690
N1 N 0.09400 -0.11710 0.70630
C1 C 0.27220 0.20180 0.06760
C2 C 0.41460 0.10840 -0.08970
C3 C 0.56280 0.22270 0.05510
C4 C 0.43110 0.16360 0.05640
C5 C 0.34170 0.05770 0.36850
C6 C 0.24390 -0.01260 0.37770
C7 C 0.18640 -0.05820 0.24310
C8 C 0.10220 -0.12430 0.26340
C9 C 0.07070 -0.14480 0.41320
C10 C 0.12800 -0.09750 0.54340
C11 C 0.21200 -0.03110 0.53190
H1 H 0.22540 0.23110 -0.04670
H2 H 0.29010 0.24270 0.16750
H3 H 0.18790 0.15830 0.08860
H4 H 0.36610 0.13850 -0.20260
H5 H 0.33460 0.06220 -0.07280
H6 H 0.53110 0.08510 -0.09600
H7 H 0.53080 0.25750 -0.05430
H8 H 0.67460 0.19320 0.05420
H9 H 0.57660 0.25900 0.16270
H10 H 0.20690 -0.04210 0.12330
H11 H 0.06030 -0.16080 0.15830
H12 H 0.00310 -0.19620 0.42700
H13 H 0.25270 0.00510 0.63780
#END
