
#######################################################################
#
#                 Cambridge Crystallographic Data Centre
#                                CCDC
#
#######################################################################
#
# If this CIF has been generated from an entry in the Cambridge
# Structural Database, then it will include bibliographic, chemical,
# crystal, experimental, refinement or atomic coordinate data resulting
# from the CCDC's data processing and validation procedures.
#
#######################################################################

data_CSD_CIF_CEKKIM
_audit_creation_date 1984-10-09
_audit_creation_method CSD-ConQuest-V1
_database_code_CSD CEKKIM
_chemical_formula_sum 'C11 H13 N1 O5'
_chemical_formula_moiety
;
C11 H13 N1 O5
;
_journal_coeditor_code "IUCr A23453"
_journal_coden_Cambridge 591
_journal_volume 40
_journal_year 1984
_journal_page_first 447
_journal_name_full 'Acta Crystallogr.,Sect.C:Cryst.Struct.Commun. '
loop_
_publ_author_name
"L.Golic"
"I.Leban"
_chemical_name_systematic
;
t-Butyl-4-nitroperbenzoate
;
_cell_volume    618.091
_exptl_crystal_density_diffrn 1.285
_diffrn_ambient_temperature ?
_diffrn_special_details
;
The study was carried out at room temperature,in the range 283-303K

;
#These two values have been output from a single CSD field.
_refine_ls_R_factor_gt 0.096
_refine_ls_wR_factor_gt 0.096
_symmetry_cell_setting triclinic
_symmetry_space_group_name_H-M 'P -1'
_symmetry_Int_Tables_number 2
loop_
_symmetry_equiv_pos_site_id
_symmetry_equiv_pos_as_xyz
1 x,y,z
2 -x,-y,-z
_cell_length_a 6.892(3)
_cell_length_b 8.077(4)
_cell_length_c 11.970(6)
_cell_angle_alpha 106.94(4)
_cell_angle_beta 102.11(4)
_cell_angle_gamma 93.37(4)
_cell_formula_units_Z 2
loop_
_atom_type_symbol
_atom_type_radius_bond
C 0.68
H 0.23
N 0.68
O 0.68
loop_
_atom_site_label
_atom_site_type_symbol
_atom_site_fract_x
_atom_site_fract_y
_atom_site_fract_z
O1 O 0.65940 1.14870 0.72180
O2 O 0.76390 1.01300 0.65260
O3 O 0.45430 0.86600 0.57380
O4 O 1.14690 0.40550 0.25960
O5 O 0.86870 0.25290 0.19280
N1 N 0.97750 0.38290 0.26220
C1 C 0.65890 1.00380 0.87430
C2 C 0.96680 1.21450 0.89250
C3 C 0.63140 1.32000 0.90830
C4 C 0.74010 1.17180 0.85080
C5 C 0.62610 0.88300 0.58070
C6 C 0.71800 0.75220 0.49260
C7 C 0.92470 0.78380 0.50310
C8 C 1.01560 0.65960 0.41990
C9 C 0.88670 0.51460 0.34080
C10 C 0.69490 0.48640 0.33920
C11 C 0.60820 0.60800 0.41610
H1 H 0.72160 1.01130 0.96660
H2 H 0.69930 0.88960 0.81480
H3 H 0.49800 0.99500 0.85820
H4 H 1.01300 1.22490 0.98660
H5 H 1.00690 1.33860 0.88080
H6 H 1.04060 1.11620 0.84100
H7 H 0.67340 1.35910 1.00540
H8 H 0.47460 1.26840 0.87710
H9 H 0.65800 1.43160 0.87870
H10 H 1.01370 0.89830 0.57000
H11 H 1.17180 0.68010 0.41970
H12 H 0.60780 0.36460 0.28060
H13 H 0.44960 0.58840 0.41030
#END
