
#######################################################################
#
#                 Cambridge Crystallographic Data Centre
#                                CCDC
#
#######################################################################
#
# If this CIF has been generated from an entry in the Cambridge
# Structural Database, then it will include bibliographic, chemical,
# crystal, experimental, refinement or atomic coordinate data resulting
# from the CCDC's data processing and validation procedures.
#
#######################################################################

data_CSD_CIF_CEKVOD
_audit_creation_date 1984-11-14
_audit_creation_method CSD-ConQuest-V1
_database_code_CSD CEKVOD
_chemical_formula_sum 'C13 H11 N3 O2'
_chemical_formula_moiety
;
C13 H11 N3 O2
;
_journal_coeditor_code "IUCr A23397"
_journal_coden_Cambridge 591
_journal_volume 40
_journal_year 1984
_journal_page_first 304
_journal_name_full 'Acta Crystallogr.,Sect.C:Cryst.Struct.Commun. '
loop_
_publ_author_name
"M.G.B.Drew"
"B.Vickery"
"G.R.Willey"
_chemical_name_systematic
;
Benzaldehyde 2-nitrophenylhydrazone
;
_cell_volume   1138.810
_exptl_crystal_colour 'yellow'
_exptl_crystal_density_diffrn 1.41
_diffrn_ambient_temperature ?
_diffrn_special_details
;
The study was carried out at room temperature,in the range 283-303K

;
#These two values have been output from a single CSD field.
_refine_ls_R_factor_gt 0.082
_refine_ls_wR_factor_gt 0.082
_symmetry_cell_setting monoclinic
_symmetry_space_group_name_H-M 'P 21/n'
_symmetry_Int_Tables_number 14
loop_
_symmetry_equiv_pos_site_id
_symmetry_equiv_pos_as_xyz
1 x,y,z
2 1/2-x,1/2+y,1/2-z
3 -x,-y,-z
4 -1/2+x,-1/2-y,-1/2+z
_cell_length_a 16.71(1)
_cell_length_b 3.904(4)
_cell_length_c 17.71(1)
_cell_angle_alpha 90
_cell_angle_beta 99.7(1)
_cell_angle_gamma 90
_cell_formula_units_Z 4
loop_
_atom_type_symbol
_atom_type_radius_bond
C 0.68
H 0.23
N 0.68
O 0.68
loop_
_atom_site_label
_atom_site_type_symbol
_atom_site_fract_x
_atom_site_fract_y
_atom_site_fract_z
C1 C 0.23080 0.02890 0.47360
C2 C 0.17880 -0.11180 0.41710
C3 C 0.30800 0.11930 0.46540
C4 C 0.34290 0.03670 0.39900
C5 C 0.20370 -0.19360 0.34760
C6 C 0.28400 -0.10290 0.34270
N1 N 0.41900 0.11160 0.38500
N2 N 0.43990 0.02520 0.31730
C7 C 0.51590 0.09830 0.31420
C8 C 0.54230 0.02900 0.24080
C9 C 0.49940 -0.11710 0.17570
C10 C 0.53710 -0.14560 0.11350
C11 C 0.61620 -0.03300 0.11200
C12 C 0.66220 0.08960 0.17850
C13 C 0.62280 0.14580 0.24220
N3 N 0.35890 0.28400 0.52800
O1 O 0.42980 0.36790 0.52260
O2 O 0.33010 0.37080 0.58360
H1 H 0.21380 0.07260 0.52120
H2 H 0.12510 -0.16200 0.42450
H3 H 0.16900 -0.30320 0.30670
H4 H 0.29940 -0.13460 0.29400
H5 H 0.45440 0.22680 0.43480
H6 H 0.55170 0.18530 0.35730
H7 H 0.44530 -0.19390 0.17400
H8 H 0.50770 -0.25140 0.06900
H9 H 0.63720 -0.03840 0.06530
H10 H 0.71860 0.13030 0.18200
H11 H 0.64980 0.26720 0.28550
#END
