
#######################################################################
#
#                 Cambridge Crystallographic Data Centre
#                                CCDC
#
#######################################################################
#
# If this CIF has been generated from an entry in the Cambridge
# Structural Database, then it will include bibliographic, chemical,
# crystal, experimental, refinement or atomic coordinate data resulting
# from the CCDC's data processing and validation procedures.
#
#######################################################################

data_CSD_CIF_CELBAW01
_audit_creation_date 2016-02-03
_audit_creation_method CSD-ConQuest-V1
_database_code_CSD CELBAW01
_database_code_depnum_ccdc_archive 'CCDC 1451587'
_chemical_formula_sum 'C3 H3 N3 O2'
_chemical_formula_moiety
;
C3 H3 N3 O2
;
_journal_coeditor_code "gw5044"
_journal_coden_Cambridge 1743
_journal_volume 72
_journal_year 2016
_journal_page_first 775
_journal_name_full 'Acta Crystallogr.,Sect.B:Struct.Sci.,Cryst.Eng. and Mat. '
loop_
_publ_author_name
"C.Kalaiarasi"
"M.S.Pavan"
"P.Kumaradhas"
_chemical_name_systematic
;
2-nitro-1H-imidazole
;
_cell_volume    437.095
_exptl_crystal_colour 'colorless'
_exptl_crystal_density_diffrn 1.718
_exptl_crystal_description 'block'
_diffrn_ambient_temperature 110
_refine_special_details
;
multipole refinement using the Hansen Coppens formalism

;
#These two values have been output from a single CSD field.
_refine_ls_R_factor_gt 0.023
_refine_ls_wR_factor_gt 0.023
_symmetry_cell_setting monoclinic
_symmetry_space_group_name_H-M 'P 21/c'
_symmetry_Int_Tables_number 14
loop_
_symmetry_equiv_pos_site_id
_symmetry_equiv_pos_as_xyz
1 x,y,z
2 -x,1/2+y,1/2-z
3 -x,-y,-z
4 x,-1/2-y,-1/2+z
_cell_length_a 7.3215(1)
_cell_length_b 9.8106(1)
_cell_length_c 6.7539(1)
_cell_angle_alpha 90
_cell_angle_beta 115.710(2)
_cell_angle_gamma 90
_cell_formula_units_Z 4
loop_
_atom_type_symbol
_atom_type_radius_bond
C 0.68
H 0.23
N 0.68
O 0.68
loop_
_atom_site_label
_atom_site_type_symbol
_atom_site_fract_x
_atom_site_fract_y
_atom_site_fract_z
O1 O -0.31880(3) 0.46075(2) 0.22196(5)
O2 O -0.31676(4) 0.68270(2) 0.21843(6)
N1 N 0.06896(3) 0.457167(18) 0.26253(3)
N2 N -0.23753(3) 0.570910(19) 0.22799(3)
N3 N 0.06721(3) 0.684992(18) 0.25488(3)
C1 C -0.03474(3) 0.569642(19) 0.24893(3)
C2 C 0.25118(3) 0.502892(18) 0.27753(3)
C3 C 0.25216(3) 0.643865(19) 0.27306(4)
H1 H 0.01948 0.77755 0.24760
H2 H 0.37528 0.43877 0.29074
H3 H 0.37449 0.70837 0.28220
#END
