
#######################################################################
#
#                 Cambridge Crystallographic Data Centre
#                                CCDC
#
#######################################################################
#
# If this CIF has been generated from an entry in the Cambridge
# Structural Database, then it will include bibliographic, chemical,
# crystal, experimental, refinement or atomic coordinate data resulting
# from the CCDC's data processing and validation procedures.
#
#######################################################################

data_CSD_CIF_CELBAW
_audit_creation_date 1984-11-14
_audit_creation_method CSD-ConQuest-V1
_database_code_CSD CELBAW
_database_code_depnum_ccdc_archive 'CCDC 1122836'
_chemical_formula_sum 'C3 H3 N3 O2'
_chemical_formula_moiety
;
C3 H3 N3 O2
;
_journal_coeditor_code "IUCr A23390"
_journal_coden_Cambridge 591
_journal_volume 40
_journal_year 1984
_journal_page_first 285
_journal_name_full 'Acta Crystallogr.,Sect.C:Cryst.Struct.Commun. '
loop_
_publ_author_name
"I.K.Larsen"
_chemical_name_systematic
;
2-Nitroimidazole
;
_chemical_name_common
;
Azomycin
;
_cell_volume    436.606
_exptl_crystal_density_diffrn 1.72
_exptl_special_details
;
antibiotic activity

;
_diffrn_ambient_temperature 105
#These two values have been output from a single CSD field.
_refine_ls_R_factor_gt 0.04
_refine_ls_wR_factor_gt 0.04
_symmetry_cell_setting monoclinic
_symmetry_space_group_name_H-M 'P 21/c'
_symmetry_Int_Tables_number 14
loop_
_symmetry_equiv_pos_site_id
_symmetry_equiv_pos_as_xyz
1 x,y,z
2 -x,1/2+y,1/2-z
3 -x,-y,-z
4 x,-1/2-y,-1/2+z
_cell_length_a 7.319(4)
_cell_length_b 9.802(3)
_cell_length_c 6.754(2)
_cell_angle_alpha 90
_cell_angle_beta 115.70(4)
_cell_angle_gamma 90
_cell_formula_units_Z 4
loop_
_atom_type_symbol
_atom_type_radius_bond
C 0.68
H 0.23
N 0.68
O 0.68
loop_
_atom_site_label
_atom_site_type_symbol
_atom_site_fract_x
_atom_site_fract_y
_atom_site_fract_z
N1 N 0.56720 0.68500 0.25520
C1 C 0.46590 0.56970 0.24920
N2 N 0.56870 0.45700 0.26230
C2 C 0.75110 0.50300 0.27740
C3 C 0.75240 0.64330 0.27360
N3 N 0.26250 0.57070 0.22790
O1 O 0.18320 0.68320 0.21870
O2 O 0.18110 0.46040 0.22160
H1 H 0.51400 0.77200 0.24200
H2 H 0.85600 0.44600 0.28900
H3 H 0.85100 0.70300 0.28000
#END
