
#######################################################################
#
#                 Cambridge Crystallographic Data Centre
#                                CCDC
#
#######################################################################
#
# If this CIF has been generated from an entry in the Cambridge
# Structural Database, then it will include bibliographic, chemical,
# crystal, experimental, refinement or atomic coordinate data resulting
# from the CCDC's data processing and validation procedures.
#
#######################################################################

data_CSD_CIF_CELNEO
_audit_creation_date 2013-02-01
_audit_creation_method CSD-ConQuest-V1
_database_code_CSD CELNEO
_database_code_depnum_ccdc_archive 'CCDC 833607'
_chemical_formula_sum 'C28 H24 N2 O7'
_chemical_formula_moiety
;
C28 H24 N2 O7
;
_journal_coden_Cambridge 16
_journal_volume 68
_journal_year 2012
_journal_page_first 3361
_journal_name_full 'Tetrahedron '
loop_
_publ_author_name
"Ming Lei"
"Zujin Zhan"
"Wan Tian"
"Ping Lu"
_chemical_name_systematic
;
Dimethyl 
6-(4-nitrophenyl)-3-phenyl-2-(2-phenylvinyl)-3,6-dihydro-2H-1,3-oxazine-4,5-di
carboxylate
;
_cell_volume   5047.656
_exptl_crystal_colour 'yellow'
_exptl_crystal_density_diffrn 1.317
_exptl_crystal_description 'block'
_diffrn_ambient_temperature 293
#These two values have been output from a single CSD field.
_refine_ls_R_factor_gt 0.0366
_refine_ls_wR_factor_gt 0.0366
_symmetry_cell_setting monoclinic
_symmetry_space_group_name_H-M 'C 2/c'
_symmetry_Int_Tables_number 15
loop_
_symmetry_equiv_pos_site_id
_symmetry_equiv_pos_as_xyz
1 x,y,z
2 -x,y,1/2-z
3 1/2+x,1/2+y,z
4 1/2-x,1/2+y,1/2-z
5 -x,-y,-z
6 x,-y,-1/2+z
7 -1/2-x,-1/2-y,-z
8 -1/2+x,-1/2-y,-1/2+z
_cell_length_a 32.0666(10)
_cell_length_b 9.00590(11)
_cell_length_c 22.7975(7)
_cell_angle_alpha 90
_cell_angle_beta 129.942(5)
_cell_angle_gamma 90
_cell_formula_units_Z 8
loop_
_atom_type_symbol
_atom_type_radius_bond
C 0.68
H 0.23
N 0.68
O 0.68
loop_
_atom_site_label
_atom_site_type_symbol
_atom_site_fract_x
_atom_site_fract_y
_atom_site_fract_z
O1 O 0.07936(3) 0.67589(9) 0.30050(4)
O2 O 0.26130(4) 0.92735(11) 0.47616(5)
O3 O 0.20320(4) 1.05795(10) 0.36787(6)
O4 O 0.16940(4) 1.10276(11) 0.45828(6)
O5 O 0.08778(4) 1.02806(12) 0.41676(7)
O6 O 0.10976(7) 0.39601(19) 0.61538(8)
O7 O 0.02851(6) 0.33774(15) 0.51867(9)
N1 N 0.16902(4) 0.71780(11) 0.35108(6)
N2 N 0.07049(6) 0.40512(14) 0.54792(8)
C1 C 0.07034(7) 0.10316(17) 0.22557(10)
H1 H 0.06690 0.09120 0.26280
C2 C 0.05400(8) -0.00997(19) 0.17347(12)
H2 H 0.04010 -0.09760 0.17650
C3 C 0.05809(8) 0.0062(2) 0.11783(12)
H3 H 0.04670 -0.06960 0.08270
C4 C 0.07905(8) 0.1347(2) 0.11401(12)
H4 H 0.08180 0.14610 0.07610
C5 C 0.09620(7) 0.24815(18) 0.16639(10)
H5 H 0.11080 0.33450 0.16360
C6 C 0.09185(5) 0.23413(14) 0.22276(8)
C7 C 0.10914(5) 0.35161(15) 0.27925(8)
H6 H 0.11470 0.32260 0.32290
C8 C 0.11768(5) 0.49251(14) 0.27530(7)
H7 H 0.11630 0.52430 0.23530
C9 C 0.12948(5) 0.60326(13) 0.33305(7)
H8 H 0.14270 0.55190 0.38010
C10 C 0.24522(5) 0.58307(15) 0.37793(8)
H9 H 0.24810 0.52850 0.41500
C11 C 0.28013(6) 0.55577(19) 0.36316(9)
H10 H 0.30630 0.48170 0.39010
C12 C 0.27657(7) 0.6367(2) 0.30934(11)
H11 H 0.30020 0.61760 0.29970
C13 C 0.23818(9) 0.7458(2) 0.26975(12)
H12 H 0.23620 0.80180 0.23370
C14 C 0.20221(7) 0.77375(18) 0.28275(9)
H13 H 0.17570 0.84690 0.25510
C15 C 0.20617(5) 0.69172(13) 0.33721(7)
C16 C 0.16966(5) 0.84434(13) 0.38395(6)
C17 C 0.21710(5) 0.94772(13) 0.41596(7)
C18 C 0.24454(8) 1.16812(19) 0.39493(13)
H14 H 0.23020 1.24510 0.35730
H15 H 0.27520 1.12270 0.40370
H16 H 0.25580 1.21010 0.44190
C19 C 0.13139(5) 0.87405(13) 0.39077(7)
C20 C 0.13338(5) 1.01170(14) 0.42580(7)
C21 C 0.08339(9) 1.1637(2) 0.44590(15)
H17 H 0.08710 1.24710 0.42330
H18 H 0.11160 1.16700 0.50050
H19 H 0.04850 1.16760 0.43330
C22 C 0.08315(5) 0.77224(13) 0.35418(6)
H20 H 0.05060 0.83500 0.32460
C23 C 0.08127(5) 0.68042(13) 0.40844(7)
C24 C 0.03388(5) 0.60297(15) 0.37809(7)
H21 H 0.00420 0.61170 0.32620
C25 C 0.03004(6) 0.51352(16) 0.42339(8)
H22 H -0.00180 0.46150 0.40270
C26 C 0.07450(6) 0.50295(14) 0.50010(8)
C27 C 0.12182(6) 0.57827(17) 0.53223(8)
H23 H 0.15120 0.56970 0.58420
C28 C 0.12513(5) 0.66771(16) 0.48578(7)
H24 H 0.15700 0.71950 0.50680
#END
