
#######################################################################
#
#                 Cambridge Crystallographic Data Centre
#                                CCDC
#
#######################################################################
#
# If this CIF has been generated from an entry in the Cambridge
# Structural Database, then it will include bibliographic, chemical,
# crystal, experimental, refinement or atomic coordinate data resulting
# from the CCDC's data processing and validation procedures.
#
#######################################################################

data_CSD_CIF_CELXEW
_audit_creation_date 1984-11-14
_audit_creation_method CSD-ConQuest-V1
_database_code_CSD CELXEW
_database_code_depnum_ccdc_archive 'CCDC 1122927'
_chemical_formula_sum 'C14 H21 N1 O7'
_chemical_formula_moiety
;
C14 H21 N1 O7
;
_journal_coden_Cambridge 16
_journal_volume 40
_journal_year 1984
_journal_page_first 177
_journal_name_full 'Tetrahedron '
loop_
_publ_author_name
"R.H.Jones"
"G.C.Robinson"
"E.J.Thomas"
_chemical_name_systematic
;
(4RS,5RS)-4,5-bis(Methoxycarbonyl)-3-((4RS)-2,2,5,5-tetramethyl-1,3-dioxolan-4
-yl)-\D^2^-isoxazoline
;
_chemical_melting_point 374.15
_cell_volume   3189.064
_exptl_crystal_colour 'white'
_exptl_crystal_density_diffrn 1.36
_exptl_special_details
;
Cell volume and calculated density given as 3075 and 1.36, respectively. We 
get 3189 and 1.31
;
_diffrn_ambient_temperature ?
_diffrn_special_details
;
The study was carried out at room temperature,in the range 283-303K

;
#These two values have been output from a single CSD field.
_refine_ls_R_factor_gt 0.049
_refine_ls_wR_factor_gt 0.049
_symmetry_cell_setting orthorhombic
_symmetry_space_group_name_H-M 'P b c a'
_symmetry_Int_Tables_number 61
loop_
_symmetry_equiv_pos_site_id
_symmetry_equiv_pos_as_xyz
1 x,y,z
2 1/2-x,-y,1/2+z
3 1/2+x,1/2-y,-z
4 -x,1/2+y,1/2-z
5 -x,-y,-z
6 -1/2+x,y,-1/2-z
7 -1/2-x,-1/2+y,z
8 x,-1/2-y,-1/2+z
_cell_length_a 7.642(1)
_cell_length_b 16.812(2)
_cell_length_c 24.822(2)
_cell_angle_alpha 90
_cell_angle_beta 90
_cell_angle_gamma 90
_cell_formula_units_Z 8
loop_
_atom_type_symbol
_atom_type_radius_bond
C 0.68
H 0.23
N 0.68
O 0.68
loop_
_atom_site_label
_atom_site_type_symbol
_atom_site_fract_x
_atom_site_fract_y
_atom_site_fract_z
O1 O 0.42990 0.28290 0.69566
N1 N 0.29340 0.25140 0.66370
C1 C 0.32470 0.17920 0.65230
C2 C 0.48990 0.14720 0.67820
C3 C 0.57190 0.22520 0.69640
O2 O 0.19360 0.05440 0.62911
C4 C 0.10890 0.01720 0.58370
O3 O 0.14830 0.06680 0.53878
C5 C 0.24240 0.13560 0.55590
C6 C 0.19890 0.13640 0.61610
C7 C -0.08840 0.01570 0.59090
C8 C 0.18760 -0.06390 0.57610
C9 C 0.43510 0.12330 0.54350
C10 C 0.17030 0.20790 0.52680
C11 C 0.44250 0.09340 0.72530
C12 C 0.45240 -0.03610 0.76000
C13 C 0.71320 0.25420 0.65750
C14 C 0.90320 0.35910 0.63690
O4 O 0.37120 0.11720 0.76496
O5 O 0.49210 0.01940 0.71705
O6 O 0.76440 0.21790 0.61960
O7 O 0.76940 0.32570 0.67152
H1 H 0.56400 0.11600 0.65600
H2 H 0.61500 0.22100 0.73400
H3 H 0.07900 0.16100 0.62100
H4 H -0.14200 -0.00700 0.55900
H5 H -0.10800 -0.02300 0.61900
H6 H -0.11800 0.06900 0.59800
H7 H 0.18200 -0.09600 0.61100
H8 H 0.33100 -0.05100 0.56800
H9 H 0.15200 -0.09100 0.54500
H10 H 0.47800 0.07600 0.56400
H11 H 0.50500 0.17100 0.55400
H12 H 0.44500 0.11000 0.50300
H13 H 0.04600 0.20700 0.53300
H14 H 0.19300 0.20200 0.48900
H15 H 0.23300 0.25600 0.54100
H16 H 0.48600 -0.08600 0.75000
H17 H 0.51700 -0.02100 0.79100
H18 H 0.33100 -0.03400 0.76800
H19 H 0.92500 0.41400 0.65000
H20 H 1.00900 0.33000 0.63800
H21 H 0.86500 0.36400 0.59900
#END
