
#######################################################################
#
#                 Cambridge Crystallographic Data Centre
#                                CCDC
#
#######################################################################
#
# If this CIF has been generated from an entry in the Cambridge
# Structural Database, then it will include bibliographic, chemical,
# crystal, experimental, refinement or atomic coordinate data resulting
# from the CCDC's data processing and validation procedures.
#
#######################################################################

data_CSD_CIF_CELZAX
_audit_creation_date 2017-10-06
_audit_creation_method CSD-ConQuest-V1
_database_code_CSD CELZAX
_database_code_depnum_ccdc_archive 'CCDC 1578566'
_chemical_formula_sum 'C11 H11 N1 O4'
_chemical_formula_moiety
;
C11 H11 N1 O4
;
_journal_coden_Cambridge 179
_journal_volume 56
_journal_year 2017
_journal_page_first 11545
_journal_name_full 'Angew.Chem.,Int.Ed. '
loop_
_publ_author_name
"S.E.Shockley"
"J.Caleb Hethcox"
"B.M.Stoltz"
_chemical_name_systematic
;
2-methyl-2-(3-nitrophenyl)but-3-enoic acid
;
_cell_volume    542.571
_exptl_crystal_colour 'colorless'
_exptl_crystal_density_diffrn 1.354
_exptl_special_details
;
Absolute configuration

;
_diffrn_ambient_temperature 200
#These two values have been output from a single CSD field.
_refine_ls_R_factor_gt 0.0495
_refine_ls_wR_factor_gt 0.0495
_symmetry_cell_setting monoclinic
_symmetry_space_group_name_H-M 'P 21'
_symmetry_Int_Tables_number 4
loop_
_symmetry_equiv_pos_site_id
_symmetry_equiv_pos_as_xyz
1 x,y,z
2 -x,1/2+y,-z
_cell_length_a 7.3561(3)
_cell_length_b 6.7600(3)
_cell_length_c 10.9461(5)
_cell_angle_alpha 90
_cell_angle_beta 94.594(1)
_cell_angle_gamma 90
_cell_formula_units_Z 2
loop_
_atom_type_symbol
_atom_type_radius_bond
C 0.68
H 0.23
N 0.68
O 0.68
loop_
_atom_site_label
_atom_site_type_symbol
_atom_site_fract_x
_atom_site_fract_y
_atom_site_fract_z
C1 C 0.6927(3) 0.5263(3) 0.46022(16)
C2 C 0.7734(2) 0.5232(3) 0.57948(16)
H1 H 0.90230 0.51880 0.59420
C3 C 0.6640(2) 0.5267(3) 0.67621(15)
C4 C 0.4752(2) 0.5328(3) 0.65095(17)
H2 H 0.39870 0.53470 0.71680
C5 C 0.3969(2) 0.5364(3) 0.53087(18)
H3 H 0.26800 0.54100 0.51580
C6 C 0.5062(3) 0.5332(3) 0.43290(18)
H4 H 0.45460 0.53550 0.35050
C7 C 0.7495(2) 0.5394(3) 0.80886(15)
C8 C 0.7573(4) 0.7595(4) 0.8448(2)
H5 H 0.82910 0.83220 0.78800
H6 H 0.81450 0.77300 0.92840
H7 H 0.63330 0.81350 0.84100
C9 C 0.9331(3) 0.4360(5) 0.82097(19)
H8 H 0.93630 0.30120 0.79670
C10 C 1.0884(3) 0.5180(9) 0.8624(2)
H9 H 1.09110 0.65250 0.88770
H10 H 1.19780 0.44270 0.86710
C11 C 0.6291(2) 0.4290(3) 0.89350(16)
O1 O 0.6125(2) 0.2390(3) 0.86665(13)
H11 H 0.54660 0.18420 0.91600
O2 O 0.5572(2) 0.5042(3) 0.97756(13)
N1 N 0.8117(3) 0.5216(4) 0.35903(15)
O3 O 0.9753(2) 0.5210(6) 0.38249(15)
O4 O 0.7426(3) 0.5157(6) 0.25459(15)
#END
