
#######################################################################
#
#                 Cambridge Crystallographic Data Centre
#                                CCDC
#
#######################################################################
#
# If this CIF has been generated from an entry in the Cambridge
# Structural Database, then it will include bibliographic, chemical,
# crystal, experimental, refinement or atomic coordinate data resulting
# from the CCDC's data processing and validation procedures.
#
#######################################################################

data_CSD_CIF_CELZUO
_audit_creation_date 1984-11-14
_audit_creation_method CSD-ConQuest-V1
_database_code_CSD CELZUO
_chemical_formula_sum 'C13 H9 N1 O4'
_chemical_formula_moiety
;
C13 H9 N1 O4
;
_journal_coeditor_code "IUCr A23405"
_journal_coden_Cambridge 591
_journal_volume 40
_journal_year 1984
_journal_page_first 322
_journal_name_full 'Acta Crystallogr.,Sect.C:Cryst.Struct.Commun. '
loop_
_publ_author_name
"J.-P.Bideau"
"G.Bravic"
"M.Cotrait"
"C.Courseille"
_chemical_name_systematic
;
8-Methoxy-2-nitro-naphtho(2,3-b)furan
;
_cell_volume    542.528
_exptl_crystal_colour 'orange'
_exptl_crystal_density_diffrn 1.489
_exptl_special_details
;
O82 in Atom Table should probably be C82

;
_diffrn_ambient_temperature ?
_diffrn_special_details
;
The study was carried out at room temperature,in the range 283-303K

;
#These two values have been output from a single CSD field.
_refine_ls_R_factor_gt 0.047
_refine_ls_wR_factor_gt 0.047
_symmetry_cell_setting triclinic
_symmetry_space_group_name_H-M 'P -1'
_symmetry_Int_Tables_number 2
loop_
_symmetry_equiv_pos_site_id
_symmetry_equiv_pos_as_xyz
1 x,y,z
2 -x,-y,-z
_cell_length_a 7.175(1)
_cell_length_b 7.411(1)
_cell_length_c 11.340(2)
_cell_angle_alpha 89.10(1)
_cell_angle_beta 107.58(1)
_cell_angle_gamma 108.63(1)
_cell_formula_units_Z 2
loop_
_atom_type_symbol
_atom_type_radius_bond
C 0.68
H 0.23
N 0.68
O 0.68
loop_
_atom_site_label
_atom_site_type_symbol
_atom_site_fract_x
_atom_site_fract_y
_atom_site_fract_z
O1 O 0.70820 0.29560 0.97430
C1 C 0.60750 0.33480 0.86040
C2 C 0.61300 0.51650 0.85000
C3 C 0.79270 0.79500 1.02480
C4 C 0.97950 1.02520 1.20990
C5 C 1.09400 1.06350 1.33220
C6 C 1.15460 0.92120 1.40320
C7 C 1.09570 0.74110 1.34920
C8 C 0.90280 0.50150 1.16750
C9 C 0.96950 0.69020 1.22190
C10 C 0.91290 0.83690 1.15140
C11 C 0.73200 0.61120 0.97210
C12 C 0.78770 0.47030 1.04520
N1 N 0.50820 0.17470 0.76800
O2 O 0.41680 0.20810 0.66380
O3 O 0.51890 0.01840 0.79660
O4 O 1.14840 0.59280 1.40660
C13 C 1.28620 0.63360 1.53280
H1 H 0.54400 0.57800 0.76900
H2 H 0.75000 0.90400 0.97100
H3 H 0.93900 1.13700 1.15700
H4 H 1.14160 1.20650 1.37450
H5 H 1.24950 0.95250 1.49950
H6 H 0.94480 0.38920 1.22220
H7 H 1.31820 0.50370 1.56530
H8 H 1.23640 0.69420 1.60020
H9 H 1.42230 0.75850 1.54130
#END
