
#######################################################################
#
#                 Cambridge Crystallographic Data Centre
#                                CCDC
#
#######################################################################
#
# If this CIF has been generated from an entry in the Cambridge
# Structural Database, then it will include bibliographic, chemical,
# crystal, experimental, refinement or atomic coordinate data resulting
# from the CCDC's data processing and validation procedures.
#
#######################################################################

data_CSD_CIF_CEMHEK
_audit_creation_date 2017-10-07
_audit_creation_method CSD-ConQuest-V1
_database_code_CSD CEMHEK
_database_code_depnum_ccdc_archive 'CCDC 1576592'
_chemical_formula_sum 'C2 H5 N1 O2'
_chemical_formula_moiety
;
C2 H5 N1 O2
;
_journal_coeditor_code "bt4064"
_journal_coden_Cambridge 1959
_journal_volume 2
_journal_year 2017
_journal_page_first x171390
_journal_name_full 'IUCrData '
loop_
_publ_author_name
"B.Dziuk"
"B.Zarychta"
"K.Ejsmont"
"Z.Daszkiewicz"
_chemical_name_systematic
;
N-hydroxyacetamide
;
_cell_volume    378.352
_exptl_crystal_colour 'colorless'
_exptl_crystal_density_diffrn 1.318
_exptl_crystal_description 'plate'
_diffrn_ambient_temperature 293
#These two values have been output from a single CSD field.
_refine_ls_R_factor_gt 0.0275
_refine_ls_wR_factor_gt 0.0275
_symmetry_cell_setting tetragonal
_symmetry_space_group_name_H-M 'P 41'
_symmetry_Int_Tables_number 76
loop_
_symmetry_equiv_pos_site_id
_symmetry_equiv_pos_as_xyz
1 x,y,z
2 -x,-y,1/2+z
3 -y,x,1/4+z
4 y,-x,3/4+z
_cell_length_a 5.2344(6)
_cell_length_b 5.2344(6)
_cell_length_c 13.809(2)
_cell_angle_alpha 90
_cell_angle_beta 90
_cell_angle_gamma 90
_cell_formula_units_Z 4
loop_
_atom_type_symbol
_atom_type_radius_bond
C 0.68
H 0.23
N 0.68
O 0.68
loop_
_atom_site_label
_atom_site_type_symbol
_atom_site_fract_x
_atom_site_fract_y
_atom_site_fract_z
C1 C 0.4274(4) 0.0253(4) 0.41879(16)
C2 C 0.6056(5) 0.2400(5) 0.4372(2)
H1 H 0.56550 0.31730 0.49840
H2 H 0.77780 0.17690 0.43850
H3 H 0.58880 0.36470 0.38670
N1 N 0.2554(4) -0.0170(4) 0.48604(13)
H4 H 0.26390 0.06120 0.54070
O1 O 0.0601(3) -0.1893(3) 0.46796(13)
H5 H 0.06730 -0.30640 0.50730
O2 O 0.4385(3) -0.1073(3) 0.34398(11)
#END
