
#######################################################################
#
#                 Cambridge Crystallographic Data Centre
#                                CCDC
#
#######################################################################
#
# If this CIF has been generated from an entry in the Cambridge
# Structural Database, then it will include bibliographic, chemical,
# crystal, experimental, refinement or atomic coordinate data resulting
# from the CCDC's data processing and validation procedures.
#
#######################################################################

data_CSD_CIF_CEMJUC
_audit_creation_date 2017-10-07
_audit_creation_method CSD-ConQuest-V1
_database_code_CSD CEMJUC
_database_code_depnum_ccdc_archive 'CCDC 1577701'
_chemical_formula_sum 'C15 H27 N1 O4'
_chemical_formula_moiety
;
C15 H27 N1 O4
;
_journal_coeditor_code "hb4175"
_journal_coden_Cambridge 1959
_journal_volume 2
_journal_year 2017
_journal_page_first x171419
_journal_name_full 'IUCrData '
loop_
_publ_author_name
"A.J.Lough"
"K.Tait"
"A.Horvath"
"W.Tam"
_chemical_name_systematic
;
t-butyl (4-t-butoxybicyclo[3.1.0]hexan-2-yl)hydroxycarbamate
;
_cell_volume   3192.969
_exptl_crystal_colour 'colorless'
_exptl_crystal_density_diffrn 1.187
_exptl_crystal_description 'needle'
_diffrn_ambient_temperature 150
#These two values have been output from a single CSD field.
_refine_ls_R_factor_gt 0.0319
_refine_ls_wR_factor_gt 0.0319
_symmetry_cell_setting monoclinic
_symmetry_space_group_name_H-M 'C 2/c'
_symmetry_Int_Tables_number 15
loop_
_symmetry_equiv_pos_site_id
_symmetry_equiv_pos_as_xyz
1 x,y,z
2 -x,y,1/2-z
3 1/2+x,1/2+y,z
4 1/2-x,1/2+y,1/2-z
5 -x,-y,-z
6 x,-y,-1/2+z
7 -1/2-x,-1/2-y,-z
8 -1/2+x,-1/2-y,-1/2+z
_cell_length_a 30.4330(8)
_cell_length_b 6.0885(2)
_cell_length_c 19.3949(5)
_cell_angle_alpha 90
_cell_angle_beta 117.316(1)
_cell_angle_gamma 90
_cell_formula_units_Z 8
loop_
_atom_type_symbol
_atom_type_radius_bond
C 0.68
H 0.23
N 0.68
O 0.68
loop_
_atom_site_label
_atom_site_type_symbol
_atom_site_fract_x
_atom_site_fract_y
_atom_site_fract_z
O1 O 0.62521(3) 0.04110(15) 0.55279(5)
O2 O 0.61508(3) 0.12952(16) 0.72223(5)
O3 O 0.57295(3) -0.08261(14) 0.61525(5)
O4 O 0.66930(3) 0.69189(13) 0.51429(4)
N1 N 0.64312(4) 0.08435(17) 0.63300(5)
C1 C 0.66942(5) 0.47437(19) 0.54309(7)
H1 H 0.64744 0.37795 0.49892
C2 C 0.71989(5) 0.3697(2) 0.58472(7)
H2 H 0.73486 0.30141 0.55351
C3 C 0.75326(5) 0.4479(3) 0.66554(8)
H3 H 0.74375 0.58355 0.68352
H4 H 0.78931 0.42670 0.68559
C4 C 0.72183(5) 0.2465(2) 0.65364(7)
H5 H 0.73795 0.09881 0.66697
C5 C 0.67375(4) 0.2832(2) 0.65730(7)
H6 H 0.68093 0.32249 0.71153
C6 C 0.64988(5) 0.4809(2) 0.60336(7)
H7 H 0.61338 0.46831 0.57767
H8 H 0.65944 0.61998 0.63306
C7 C 0.60933(4) 0.0513(2) 0.66110(7)
C8 C 0.53621(5) -0.1602(2) 0.63979(7)
C9 C 0.50339(6) -0.3055(3) 0.57224(9)
H9 H 0.48853 -0.21781 0.52457
H10 H 0.47719 -0.36874 0.58209
H11 H 0.52323 -0.42391 0.56636
C10 C 0.50715(6) 0.0317(3) 0.64721(10)
H12 H 0.52893 0.12391 0.69105
H13 H 0.47986 -0.02309 0.65603
H14 H 0.49382 0.11861 0.59936
C11 C 0.56154(6) -0.2929(3) 0.71356(8)
H15 H 0.58230 -0.19595 0.75658
H16 H 0.58219 -0.40631 0.70704
H17 H 0.53656 -0.36271 0.72491
C12 C 0.65385(4) 0.71127(19) 0.43108(6)
C13 C 0.60068(5) 0.6342(2) 0.38409(8)
H18 H 0.58005 0.69946 0.40538
H19 H 0.59938 0.47374 0.38673
H20 H 0.58835 0.67974 0.32990
C14 C 0.65735(5) 0.9550(2) 0.41865(7)
H21 H 0.63330 1.03428 0.42979
H22 H 0.65023 0.98139 0.36468
H23 H 0.69077 1.00698 0.45345
C15 C 0.68833(5) 0.5845(2) 0.40857(7)
H24 H 0.72236 0.63533 0.43996
H25 H 0.67862 0.60893 0.35350
H26 H 0.68625 0.42741 0.41772
H27 H 0.6432(7) -0.081(3) 0.5493(11)
#END
