
#######################################################################
#
#                 Cambridge Crystallographic Data Centre
#                                CCDC
#
#######################################################################
#
# If this CIF has been generated from an entry in the Cambridge
# Structural Database, then it will include bibliographic, chemical,
# crystal, experimental, refinement or atomic coordinate data resulting
# from the CCDC's data processing and validation procedures.
#
#######################################################################

data_CSD_CIF_CEMXAW
_audit_creation_date 2017-10-09
_audit_creation_method CSD-ConQuest-V1
_database_code_CSD CEMXAW
_database_code_depnum_ccdc_archive 'CCDC 1410624'
_chemical_formula_sum 'C17 H15 N1 O5'
_chemical_formula_moiety
;
C17 H15 N1 O5
;
_journal_coden_Cambridge 2036
_journal_volume 11-12
_journal_year 2017
_journal_page_first 199
_journal_name_full 'Chem. Data Collect. '
loop_
_publ_author_name
"S.R.Prabhu"
"V.Upadhyaya"
"A.Jayarama"
_chemical_name_systematic
;
(2E)-3-(2,3-dimethoxyphenyl)-1-(3-nitrophenyl)prop-2-en-1-one
;
_chemical_melting_point 416.5
_cell_volume   1525.785
_exptl_crystal_colour 'yellow'
_exptl_crystal_density_diffrn 1.364
_exptl_crystal_description 'rectangular'
_diffrn_ambient_temperature 296.1
#These two values have been output from a single CSD field.
_refine_ls_R_factor_gt 0.0454
_refine_ls_wR_factor_gt 0.0454
_symmetry_cell_setting monoclinic
_symmetry_space_group_name_H-M 'P 21/n'
_symmetry_Int_Tables_number 14
loop_
_symmetry_equiv_pos_site_id
_symmetry_equiv_pos_as_xyz
1 x,y,z
2 1/2-x,1/2+y,1/2-z
3 -x,-y,-z
4 -1/2+x,-1/2-y,-1/2+z
_cell_length_a 8.6125(3)
_cell_length_b 12.3005(4)
_cell_length_c 14.8416(5)
_cell_angle_alpha 90
_cell_angle_beta 103.970(2)
_cell_angle_gamma 90
_cell_formula_units_Z 4
loop_
_atom_type_symbol
_atom_type_radius_bond
C 0.68
H 0.23
N 0.68
O 0.68
loop_
_atom_site_label
_atom_site_type_symbol
_atom_site_fract_x
_atom_site_fract_y
_atom_site_fract_z
O1 O 0.83816(18) 1.00449(11) 0.64509(10)
O2 O 0.7004(2) 0.98501(12) 0.50503(10)
O3 O 0.37207(19) 0.67252(12) 0.41404(8)
O4 O -0.04412(13) 0.41356(8) 0.30590(7)
O5 O -0.18173(14) 0.21848(10) 0.31194(8)
N1 N 0.73809(17) 0.95691(11) 0.58591(10)
C1 C 0.66117(16) 0.85978(11) 0.61345(9)
C2 C 0.56270(16) 0.79934(11) 0.54544(9)
H1 H 0.54510 0.81980 0.48350
C3 C 0.48940(16) 0.70702(11) 0.57030(9)
C4 C 0.51702(19) 0.67986(13) 0.66391(10)
H2 H 0.46810 0.61870 0.68150
C5 C 0.6167(2) 0.74302(14) 0.73107(10)
H3 H 0.63390 0.72400 0.79330
C6 C 0.69038(18) 0.83365(13) 0.7064(1)
H4 H 0.75790 0.87610 0.75110
C7 C 0.38565(18) 0.64259(12) 0.49343(9)
C8 C 0.30524(18) 0.54400(12) 0.51479(10)
H5 H 0.32890 0.51780 0.57540
C9 C 0.19989(17) 0.49174(12) 0.44969(10)
H6 H 0.17590 0.52290 0.39080
C10 C 0.11706(16) 0.39071(11) 0.45980(9)
C11 C 0.00247(16) 0.35055(11) 0.38404(10)
C12 C -0.07317(17) 0.25067(12) 0.39024(10)
C13 C -0.0367(2) 0.19367(14) 0.47293(12)
H7 H -0.08690 0.12770 0.47770
C14 C 0.0745(2) 0.23468(15) 0.54859(11)
H8 H 0.09730 0.19650 0.60430
C15 C 0.15156(19) 0.33093(14) 0.54249(10)
H9 H 0.22740 0.35670 0.59370
C16 C -0.2466(2) 0.11197(15) 0.31115(14)
H10 H -0.31960 0.09870 0.25220
H11 H -0.30250 0.10580 0.35960
H12 H -0.16160 0.05960 0.32110
C17 C -0.0089(3) 0.37350(16) 0.22360(12)
H13 H -0.07670 0.40860 0.17070
H14 H -0.02700 0.29650 0.21940
H15 H 0.10110 0.38830 0.22480
#END
