
#######################################################################
#
#                 Cambridge Crystallographic Data Centre
#                                CCDC
#
#######################################################################
#
# If this CIF has been generated from an entry in the Cambridge
# Structural Database, then it will include bibliographic, chemical,
# crystal, experimental, refinement or atomic coordinate data resulting
# from the CCDC's data processing and validation procedures.
#
#######################################################################

data_CSD_CIF_CEMZOL
_audit_creation_date 2013-04-29
_audit_creation_method CSD-ConQuest-V1
_database_code_CSD CEMZOL
_database_code_depnum_ccdc_archive 'CCDC 928426'
_chemical_formula_sum 'C12 H10 N4 O1'
_chemical_formula_moiety
;
C12 H10 N4 O1
;
_journal_coden_Cambridge 1336
_journal_volume 15
_journal_year 2013
_journal_page_first 642
_journal_name_full 'Org.Lett. '
loop_
_publ_author_name
"T.P.Tran"
"P.B.Mullins"
"C.W.am Ende"
"M.Pettersson"
_chemical_name_systematic
;
3-(Benzyloxy)-3H-[1,2,3]triazolo[4,5-b]pyridine
;
_cell_volume   2268.751
_exptl_crystal_density_diffrn 1.325
_diffrn_ambient_temperature 296
#These two values have been output from a single CSD field.
_refine_ls_R_factor_gt 0.0446
_refine_ls_wR_factor_gt 0.0446
_symmetry_cell_setting orthorhombic
_symmetry_space_group_name_H-M 'P b c a'
_symmetry_Int_Tables_number 61
loop_
_symmetry_equiv_pos_site_id
_symmetry_equiv_pos_as_xyz
1 x,y,z
2 1/2-x,-y,1/2+z
3 -x,1/2+y,1/2-z
4 1/2+x,1/2-y,-z
5 -x,-y,-z
6 -1/2+x,y,-1/2-z
7 x,-1/2-y,-1/2+z
8 -1/2-x,-1/2+y,z
_cell_length_a 7.5741(3)
_cell_length_b 13.7438(5)
_cell_length_c 21.7946(7)
_cell_angle_alpha 90
_cell_angle_beta 90
_cell_angle_gamma 90
_cell_formula_units_Z 8
loop_
_atom_type_symbol
_atom_type_radius_bond
C 0.68
H 0.23
N 0.68
O 0.68
loop_
_atom_site_label
_atom_site_type_symbol
_atom_site_fract_x
_atom_site_fract_y
_atom_site_fract_z
C1 C 1.4013(3) 0.2511(2) 0.08485(11)
C2 C 1.5274(4) 0.1840(2) 0.10313(12)
H1 H 1.60570 0.15570 0.07550
C3 C 1.5297(4) 0.16196(19) 0.16390(13)
H2 H 1.61170 0.11750 0.17880
C4 C 1.4106(4) 0.2053(2) 0.20386(12)
H3 H 1.41940 0.18860 0.24510
C5 C 1.2891(3) 0.28785(17) 0.12898(11)
C6 C 0.8851(4) 0.3513(3) 0.1115(2)
H4 H 0.88560 0.29680 0.13980
H5 H 0.87130 0.32630 0.07020
C7 C 0.7378(3) 0.41949(18) 0.12667(12)
C8 C 0.6710(4) 0.4210(2) 0.18415(13)
H6 H 0.71950 0.38170 0.21450
C9 C 0.5298(6) 0.4815(3) 0.19762(19)
H7 H 0.48130 0.48270 0.23680
C10 C 0.4623(5) 0.5399(3) 0.1516(3)
H8 H 0.36760 0.58100 0.15970
C11 C 0.5330(7) 0.5372(3) 0.0961(2)
H9 H 0.48800 0.57730 0.06550
C12 C 0.6669(5) 0.4783(3) 0.08328(13)
H10 H 0.71300 0.47750 0.04370
N1 N 1.3609(4) 0.29135(19) 0.02886(9)
N2 N 1.2290(3) 0.35092(18) 0.03673(10)
N3 N 1.1854(3) 0.34968(15) 0.09645(10)
N4 N 1.2852(3) 0.26828(15) 0.18867(9)
O1 O 1.0494(2) 0.40618(13) 0.11668(9)
#END
