
#######################################################################
#
#                 Cambridge Crystallographic Data Centre
#                                CCDC
#
#######################################################################
#
# If this CIF has been generated from an entry in the Cambridge
# Structural Database, then it will include bibliographic, chemical,
# crystal, experimental, refinement or atomic coordinate data resulting
# from the CCDC's data processing and validation procedures.
#
#######################################################################

data_CSD_CIF_CENCEE
_audit_creation_date 2006-11-30
_audit_creation_method CSD-ConQuest-V1
_database_code_CSD CENCEE
_database_code_depnum_ccdc_archive 'CCDC 605849'
_chemical_formula_sum 'C13 H21 N1 O3'
_chemical_formula_moiety
;
C13 H21 N1 O3
;
_journal_coden_Cambridge 177
_journal_volume 4
_journal_year 2006
_journal_page_first 2874
_journal_name_full 'Org.Biomol.Chem. '
loop_
_publ_author_name
"D.Bardelang"
"A.Rockenbauer"
"H.Karoui"
"J.-P.Finet"
"I.Biskupska"
"K.Banaszak"
"P.Tordo"
_chemical_name_systematic
;
5-cyclohexylmethoxycarbonyl-5-methyl-1-pyrroline N-oxide
;
_chemical_melting_point 325.15
_cell_volume   2686.840
_exptl_crystal_colour 'colorless'
_exptl_crystal_density_diffrn 1.183
_exptl_crystal_description 'prism'
_diffrn_ambient_temperature 293
#These two values have been output from a single CSD field.
_refine_ls_R_factor_gt 0.0541
_refine_ls_wR_factor_gt 0.0541
_symmetry_cell_setting orthorhombic
_symmetry_space_group_name_H-M 'P b c a'
_symmetry_Int_Tables_number 61
loop_
_symmetry_equiv_pos_site_id
_symmetry_equiv_pos_as_xyz
1 x,y,z
2 1/2-x,-y,1/2+z
3 1/2+x,1/2-y,-z
4 -x,1/2+y,1/2-z
5 -x,-y,-z
6 -1/2+x,y,-1/2-z
7 -1/2-x,-1/2+y,z
8 x,-1/2-y,-1/2+z
_cell_length_a 9.5780(1)
_cell_length_b 7.9730(1)
_cell_length_c 35.1840(6)
_cell_angle_alpha 90
_cell_angle_beta 90
_cell_angle_gamma 90
_cell_formula_units_Z 8
loop_
_atom_type_symbol
_atom_type_radius_bond
C 0.68
H 0.23
N 0.68
O 0.68
loop_
_atom_site_label
_atom_site_type_symbol
_atom_site_fract_x
_atom_site_fract_y
_atom_site_fract_z
O1 O 0.30603(10) 0.28560(14) 0.11287(3)
O2 O 0.30343(11) 0.42830(18) 0.05843(3)
O3 O 0.61334(15) 0.56942(17) 0.06951(4)
N1 N 0.58760(13) 0.42539(18) 0.05444(4)
C1 C 0.10943(14) 0.2424(2) 0.15426(4)
H1 H 0.13690 0.12020 0.15470
C2 C 0.17593(17) 0.3294(3) 0.18835(5)
H2 H 0.14010 0.45030 0.18580
H3 H 0.27950 0.31740 0.18470
C3 C 0.12200(18) 0.2583(3) 0.22575(5)
H4 H 0.16820 0.32370 0.24880
H5 H 0.15700 0.12600 0.23010
C4 C -0.03661(19) 0.2656(3) 0.22807(6)
H6 H -0.06030 0.39940 0.22320
H7 H -0.06440 0.21880 0.25050
C5 C -0.10286(19) 0.1796(3) 0.19412(5)
H8 H -0.20550 0.18760 0.19640
H9 H -0.08860 0.04340 0.19250
C6 C -0.04964(15) 0.2521(3) 0.15699(5)
H10 H -0.07810 0.37120 0.15460
H11 H -0.09470 0.19850 0.13550
C7 C 0.15602(15) 0.3156(2) 0.11686(4)
H12 H 0.13710 0.44030 0.11300
H13 H 0.10910 0.26160 0.09410
C8 C 0.36476(14) 0.3474(2) 0.08164(4)
C9 C 0.51731(15) 0.2932(2) 0.07803(4)
C10 C 0.52666(19) 0.1384(2) 0.05228(5)
H14 H 0.44750 0.07640 0.05230
H15 H 0.60360 0.07310 0.06080
C11 C 0.5578(2) 0.2059(3) 0.01265(5)
H16 H 0.46490 0.21410 -0.00250
H17 H 0.62870 0.13510 -0.00320
C12 C 0.61041(17) 0.3763(2) 0.02021(5)
H18 H 0.66050 0.45200 0.00260
C13 C 0.59141(18) 0.2748(3) 0.11566(5)
H19 H 0.59560 0.38510 0.12890
H20 H 0.69380 0.23770 0.10780
H21 H 0.55050 0.19180 0.13130
#END
