
#######################################################################
#
#                 Cambridge Crystallographic Data Centre
#                                CCDC
#
#######################################################################
#
# If this CIF has been generated from an entry in the Cambridge
# Structural Database, then it will include bibliographic, chemical,
# crystal, experimental, refinement or atomic coordinate data resulting
# from the CCDC's data processing and validation procedures.
#
#######################################################################

data_CSD_CIF_CENVUN
_audit_creation_date 2006-11-30
_audit_creation_method CSD-ConQuest-V1
_database_code_CSD CENVUN
_database_code_depnum_ccdc_archive 'CCDC 604567'
_chemical_formula_sum 'C36 H38 N2 O10'
_chemical_formula_moiety
;
C36 H38 N2 O10
;
_journal_coden_Cambridge 469
_journal_volume 69
_journal_year 2006
_journal_page_first 1198
_journal_name_full 'J.Nat.Prod. '
loop_
_publ_author_name
"Dang Ngoc Quang"
"M.Stadler"
"J.Fournier"
"Y.Asakawa"
_chemical_name_systematic
;
(E,E)-5-(5-((4-nitrobenzoyl)oxy)-2-(1-methyl-3-((4-nitrobenzoyl)oxy)prop-1-eny
l)-3,8-dimethyl-(1R,2S,4aR,5R,8R,8aR)-1,2,4a,5,6,7,8,8a-octahydronaphthalen-1-
yl)penta-2,4-dienoic acid
;
_cell_volume   1677.324
_exptl_crystal_colour 'colorless'
_exptl_crystal_density_diffrn 1.304
_exptl_crystal_description 'plate'
_diffrn_ambient_temperature 293
#These two values have been output from a single CSD field.
_refine_ls_R_factor_gt 0.0855
_refine_ls_wR_factor_gt 0.0855
_symmetry_cell_setting triclinic
_symmetry_space_group_name_H-M 'P 1'
_symmetry_Int_Tables_number 1
loop_
_symmetry_equiv_pos_site_id
_symmetry_equiv_pos_as_xyz
1 x,y,z
_cell_length_a 6.564(2)
_cell_length_b 15.654(6)
_cell_length_c 16.701(6)
_cell_angle_alpha 94.618(5)
_cell_angle_beta 92.568(5)
_cell_angle_gamma 100.754(5)
_cell_formula_units_Z 2
loop_
_atom_type_symbol
_atom_type_radius_bond
C 0.68
H 0.23
N 0.68
O 0.68
loop_
_atom_site_label
_atom_site_type_symbol
_atom_site_fract_x
_atom_site_fract_y
_atom_site_fract_z
C1 C 1.1068(12) 1.1144(4) 0.5530(4)
H1 H 1.15310 1.07220 0.52000
C2 C 1.2485(11) 1.1863(4) 0.5903(4)
H2 H 1.39000 1.19260 0.58300
C3 C 1.1718(11) 1.2471(4) 0.6379(4)
C4 C 0.9685(13) 1.2407(4) 0.6520(4)
H3 H 0.92280 1.28410 0.68370
C5 C 0.8281(12) 1.1664(4) 0.6173(4)
H4 H 0.68880 1.15750 0.62880
C6 C 0.9015(11) 1.1068(4) 0.5654(4)
C7 C 0.7428(11) 1.0329(4) 0.5245(4)
C8 C 0.6882(12) 0.9286(4) 0.4086(4)
H5 H 0.59600 0.88920 0.43990
C9 C 0.5618(13) 0.9720(5) 0.3536(5)
H6 H 0.65250 1.01790 0.32950
H7 H 0.46400 0.99840 0.38430
C10 C 0.4447(13) 0.9064(6) 0.2880(5)
H8 H 0.34010 0.86590 0.31230
H9 H 0.37310 0.93720 0.25100
C11 C 0.5792(12) 0.8546(5) 0.2406(4)
H10 H 0.67810 0.89590 0.21350
C12 C 0.4412(13) 0.7935(6) 0.1759(5)
H11 H 0.36270 0.74530 0.20020
H12 H 0.52620 0.77200 0.13670
H13 H 0.34770 0.82470 0.15020
C13 C 0.7037(11) 0.8104(4) 0.2988(4)
H14 H 0.60270 0.77150 0.32720
C14 C 0.8294(11) 0.8779(4) 0.3625(4)
H15 H 0.91950 0.92030 0.33320
C15 C 0.9716(11) 0.8398(5) 0.4173(5)
H16 H 1.02200 0.87240 0.46550
C16 C 1.0296(11) 0.7649(5) 0.4027(4)
C17 C 1.1738(14) 0.7306(6) 0.4581(5)
H17 H 1.22680 0.77450 0.50130
H18 H 1.28710 0.71590 0.42900
H19 H 1.10020 0.67950 0.47970
C18 C 0.9564(12) 0.7060(5) 0.3256(4)
H20 H 1.08280 0.69310 0.30220
C19 C 0.8280(12) 0.6183(5) 0.3405(4)
C20 C 0.6410(14) 0.6193(5) 0.3889(5)
H21 H 0.52770 0.62950 0.35490
H22 H 0.67330 0.66500 0.43200
H23 H 0.60240 0.56410 0.41080
C21 C 0.8861(12) 0.5470(5) 0.3098(4)
H24 H 1.00480 0.55470 0.28080
C22 C 0.7805(13) 0.4555(5) 0.3171(5)
H25 H 0.86870 0.42600 0.34880
H26 H 0.65140 0.45480 0.34330
C23 C 0.6580(11) 0.3252(5) 0.2342(5)
C24 C 0.6245(11) 0.2833(5) 0.1500(5)
C25 C 0.5683(11) 0.1917(5) 0.1418(5)
H27 H 0.54930 0.16120 0.18720
C26 C 0.5414(12) 0.1475(5) 0.0664(6)
H28 H 0.50460 0.08690 0.05990
C27 C 0.5707(11) 0.1959(5) 0.0004(5)
C28 C 0.6163(11) 0.2859(5) 0.0056(5)
H29 H 0.62710 0.31640 -0.04000
C29 C 0.6456(10) 0.3290(5) 0.0831(5)
H30 H 0.67990 0.38960 0.08950
C30 C 0.8526(12) 0.7546(4) 0.2620(4)
H31 H 0.96550 0.79560 0.24140
C31 C 0.7656(11) 0.6884(4) 0.1924(4)
H32 H 0.63780 0.65250 0.19740
C32 C 0.8582(11) 0.6779(4) 0.1251(4)
H33 H 0.98030 0.71630 0.11700
C33 C 0.7746(12) 0.6076(4) 0.0627(4)
H34 H 0.65210 0.57000 0.07180
C34 C 0.8626(12) 0.5937(5) -0.0064(4)
H35 H 0.98670 0.62950 -0.01660
C35 C 0.7638(11) 0.5217(5) -0.0670(4)
C36 C 0.7897(14) 0.4513(5) -0.1942(5)
H36 H 0.78690 0.39470 -0.17540
H37 H 0.87440 0.45750 -0.23950
H38 H 0.65090 0.45720 -0.21000
C37 C 0.7384(12) 0.4704(5) 0.5741(4)
H39 H 0.82310 0.51290 0.60920
C38 C 0.8196(11) 0.4018(4) 0.5395(4)
H40 H 0.95750 0.39760 0.55010
C39 C 0.6844(11) 0.3386(5) 0.4873(4)
C40 C 0.4840(11) 0.3442(4) 0.4693(4)
H41 H 0.39850 0.30100 0.43530
C41 C 0.4089(11) 0.4146(4) 0.5021(4)
H42 H 0.27460 0.42120 0.48770
C42 C 0.5366(11) 0.4770(4) 0.5579(4)
C43 C 0.4409(11) 0.5479(4) 0.5963(4)
C44 C 0.4890(11) 0.6538(4) 0.7122(4)
H43 H 0.42320 0.69160 0.67950
C45 C 0.3335(12) 0.6077(5) 0.7662(5)
H44 H 0.20850 0.57920 0.73440
H45 H 0.39160 0.56340 0.79180
C46 C 0.2808(12) 0.6729(5) 0.8295(5)
H46 H 0.18570 0.64200 0.86490
H47 H 0.20930 0.71290 0.80330
C47 C 0.4712(11) 0.7263(5) 0.8808(4)
H48 H 0.54080 0.68540 0.90800
C48 C 0.3976(13) 0.7862(5) 0.9446(5)
H49 H 0.35930 0.83490 0.92030
H50 H 0.50750 0.80690 0.98540
H51 H 0.27950 0.75460 0.96850
C49 C 0.6237(11) 0.7735(4) 0.8230(4)
H52 H 0.55210 0.81310 0.79500
C50 C 0.6785(10) 0.7069(4) 0.7598(4)
H53 H 0.74540 0.66620 0.78840
C51 C 0.8327(11) 0.7503(5) 0.7046(5)
H54 H 0.84030 0.72050 0.65470
C52 C 0.9570(11) 0.8262(5) 0.7205(5)
C53 C 1.1088(15) 0.8662(6) 0.6642(6)
H55 H 1.24730 0.87120 0.68750
H56 H 1.08400 0.92310 0.65460
H57 H 1.09290 0.83000 0.61420
C54 C 0.9617(12) 0.8792(5) 0.8017(4)
H58 H 1.10580 0.88910 0.82390
C55 C 0.9140(11) 0.9695(5) 0.7907(4)
C56 C 0.7145(13) 0.9733(5) 0.7470(5)
H59 H 0.60330 0.96150 0.78240
H60 H 0.69040 0.93040 0.70150
H61 H 0.72070 1.03030 0.72900
C57 C 1.0515(13) 1.0392(5) 0.8222(5)
H62 H 1.16750 1.02860 0.85090
C58 C 1.0379(13) 1.1329(5) 0.8161(5)
H63 H 1.14560 1.16020 0.78340
H64 H 0.90390 1.13710 0.79150
C59 C 1.0890(11) 1.2640(5) 0.8997(5)
C60 C 1.1198(10) 1.3063(5) 0.9828(5)
C61 C 1.1685(11) 1.3979(5) 0.9902(5)
H65 H 1.17380 1.42810 0.94440
C62 C 1.2085(11) 1.4430(5) 1.0653(5)
H66 H 1.24270 1.50360 1.07090
C63 C 1.1969(11) 1.3967(5) 1.1312(5)
C64 C 1.1415(11) 1.3065(5) 1.1256(5)
H67 H 1.12900 1.27690 1.17170
C65 C 1.105(1) 1.2613(5) 1.0502(4)
H68 H 1.07070 1.20060 1.04520
C66 C 0.8285(10) 0.8275(4) 0.8631(4)
H69 H 0.90910 0.78580 0.88280
C67 C 0.8164(11) 0.8929(4) 0.9334(4)
H70 H 0.71810 0.92820 0.92880
C68 C 0.9351(11) 0.9038(4) 1.0013(4)
H71 H 1.02210 0.86430 1.00940
C69 C 0.9364(11) 0.9730(5) 1.0629(4)
H72 H 0.84740 1.01140 1.05370
C70 C 1.0519(13) 0.9879(5) 1.1318(4)
H73 H 1.14190 0.95050 1.14300
C71 C 1.0419(11) 1.0616(4) 1.1910(4)
C72 C 1.1607(14) 1.1326(5) 1.3185(5)
H74 H 1.23970 1.18630 1.30360
H75 H 1.22030 1.11830 1.36810
H76 H 1.01980 1.13900 1.32540
N1 N 1.3232(11) 1.3237(4) 0.6749(4)
N2 N 0.5521(11) 0.1480(5) -0.0799(5)
N3 N 0.7675(9) 0.2638(3) 0.4525(3)
N4 N 1.2514(10) 1.4427(5) 1.2123(6)
O1 O 0.8263(8) 0.9936(3) 0.4625(3)
O2 O 0.5654(9) 1.0141(3) 0.5406(3)
O3 O 1.5039(10) 1.3171(4) 0.6822(4)
O4 O 1.2563(10) 1.3905(3) 0.6922(4)
O5 O 0.7399(8) 0.4124(3) 0.2369(3)
O6 O 0.6218(9) 0.2883(3) 0.2923(3)
O7 O 0.5564(11) 0.1895(5) -0.1386(4)
O8 O 0.5353(10) 0.0682(4) -0.0827(4)
O9 O 0.604(1) 0.4749(4) -0.0607(4)
O10 O 0.8748(9) 0.5178(4) -0.1307(3)
O11 O 0.9525(8) 0.2728(3) 0.4436(3)
O12 O 0.6435(9) 0.1939(3) 0.4388(3)
O13 O 0.5652(8) 0.5889(3) 0.6603(3)
O14 O 0.2735(8) 0.5620(3) 0.5785(3)
O15 O 1.0649(8) 1.1762(3) 0.8981(3)
O16 O 1.0834(10) 1.3013(4) 0.8404(4)
O17 O 1.3198(9) 1.5227(4) 1.2135(4)
O18 O 1.2312(10) 1.4030(5) 1.2707(4)
O19 O 0.9418(11) 1.1170(4) 1.1800(4)
O20 O 1.1643(10) 1.0630(4) 1.2556(3)
#END
