
#######################################################################
#
#                 Cambridge Crystallographic Data Centre
#                                CCDC
#
#######################################################################
#
# If this CIF has been generated from an entry in the Cambridge
# Structural Database, then it will include bibliographic, chemical,
# crystal, experimental, refinement or atomic coordinate data resulting
# from the CCDC's data processing and validation procedures.
#
#######################################################################

data_CSD_CIF_CEPTAT
_audit_creation_date 2006-11-30
_audit_creation_method CSD-ConQuest-V1
_database_code_CSD CEPTAT
_database_code_depnum_ccdc_archive 'CCDC 611460'
_chemical_formula_sum 'C14 H14 N2 O4'
_chemical_formula_moiety
;
C14 H14 N2 O4
;
_journal_coden_Cambridge 1078
_journal_year 2006
_journal_name_full 'CSD Communication(Private Communication) '
loop_
_publ_author_name
"P.G.Jones"
_chemical_name_systematic
;
Ethyl 2-methyl-4-(2-nitrophenyl)pyrrole-3-carboxylate
;
_cell_volume   2677.570
_exptl_crystal_colour 'yellow'
_exptl_crystal_density_diffrn 1.361
_exptl_special_details
;
contribution from Institut fur Anorganische und Analytische Chemie, 
Technische Universitat Braunschweig, Postfach 3329, 38023 Braunschweig, 
Germany
;
_exptl_crystal_description 'lath'
_diffrn_ambient_temperature 173
#These two values have been output from a single CSD field.
_refine_ls_R_factor_gt 0.043
_refine_ls_wR_factor_gt 0.043
_symmetry_cell_setting orthorhombic
_symmetry_space_group_name_H-M 'P b c a'
_symmetry_Int_Tables_number 61
loop_
_symmetry_equiv_pos_site_id
_symmetry_equiv_pos_as_xyz
1 x,y,z
2 1/2-x,-y,1/2+z
3 -x,1/2+y,1/2-z
4 1/2+x,1/2-y,-z
5 -x,-y,-z
6 -1/2+x,y,-1/2-z
7 x,-1/2-y,-1/2+z
8 -1/2-x,-1/2+y,z
_cell_length_a 10.9353(18)
_cell_length_b 7.6803(12)
_cell_length_c 31.881(5)
_cell_angle_alpha 90
_cell_angle_beta 90
_cell_angle_gamma 90
_cell_formula_units_Z 8
loop_
_atom_type_symbol
_atom_type_radius_bond
C 0.68
H 0.23
N 0.68
O 0.68
loop_
_atom_site_label
_atom_site_type_symbol
_atom_site_fract_x
_atom_site_fract_y
_atom_site_fract_z
N1 N 0.64678(14) 0.3467(2) 0.47801(4)
H1 H 0.69390 0.36300 0.50000
O1 O 0.58683(13) 0.00793(18) 0.37900(4)
O2 O 0.50112(13) -0.0263(2) 0.31876(5)
O3 O 0.29649(12) 0.13919(19) 0.45015(4)
O4 O 0.34357(10) 0.23457(16) 0.38583(3)
N2 N 0.55256(14) 0.0647(2) 0.34505(5)
C1 C 0.53362(17) 0.2761(2) 0.47932(5)
C2 C 0.49012(15) 0.2720(2) 0.43821(5)
C3 C 0.58462(15) 0.3445(2) 0.41187(5)
C4 C 0.67805(16) 0.3895(3) 0.43772(5)
H2 H 0.75280 0.44200 0.42930
C5 C 0.47809(19) 0.2244(3) 0.52023(5)
H3 H 0.54090 0.22670 0.54220
H4 H 0.44440 0.10660 0.51790
H5 H 0.41250 0.30610 0.52750
C6 C 0.58992(15) 0.3742(2) 0.36605(5)
C7 C 0.57437(15) 0.2487(2) 0.33472(5)
C8 C 0.58288(15) 0.2870(3) 0.29247(5)
H6 H 0.56980 0.19850 0.27220
C9 C 0.61051(17) 0.4546(3) 0.27989(6)
H7 H 0.61830 0.48170 0.25090
C10 C 0.62667(16) 0.5821(3) 0.30989(6)
H8 H 0.64530 0.69780 0.30150
C11 C 0.61590(16) 0.5427(3) 0.35217(6)
H9 H 0.62650 0.63280 0.37230
C12 C 0.36956(15) 0.2090(2) 0.42674(5)
C13 C 0.22205(16) 0.1846(3) 0.37154(6)
H10 H 0.16000 0.26660 0.38260
H11 H 0.20180 0.06600 0.38150
C14 C 0.22333(18) 0.1894(3) 0.32471(6)
H12 H 0.23930 0.30860 0.31520
H13 H 0.14390 0.15070 0.31400
H14 H 0.28770 0.11200 0.31420
#END
