
#######################################################################
#
#                 Cambridge Crystallographic Data Centre
#                                CCDC
#
#######################################################################
#
# If this CIF has been generated from an entry in the Cambridge
# Structural Database, then it will include bibliographic, chemical,
# crystal, experimental, refinement or atomic coordinate data resulting
# from the CCDC's data processing and validation procedures.
#
#######################################################################

data_CSD_CIF_CEQGUB
_audit_creation_date 2006-11-30
_audit_creation_method CSD-ConQuest-V1
_database_code_CSD CEQGUB
_database_code_depnum_ccdc_archive 'CCDC 620495'
_chemical_formula_sum 'C8 H8 N2 O6'
_chemical_formula_moiety
;
C8 H8 N2 O6
;
_journal_coden_Cambridge 1078
_journal_year 2006
_journal_name_full 'CSD Communication(Private Communication) '
loop_
_publ_author_name
"J.C.Barnes"
_chemical_name_systematic
;
1,5-Dimethoxy-2,4-dinitrobenzene
;
_cell_volume    916.430
_exptl_crystal_colour 'colorless'
_exptl_crystal_density_diffrn 1.654
_exptl_special_details
;
contribution from Faculty of Life Sciences, University of Dundee, Dundee DD1 
5EH, Scotland
;
_exptl_crystal_description 'blade'
_diffrn_ambient_temperature 120
#These two values have been output from a single CSD field.
_refine_ls_R_factor_gt 0.0653
_refine_ls_wR_factor_gt 0.0653
_symmetry_cell_setting monoclinic
_symmetry_space_group_name_H-M 'P 21/n'
_symmetry_Int_Tables_number 14
loop_
_symmetry_equiv_pos_site_id
_symmetry_equiv_pos_as_xyz
1 x,y,z
2 1/2-x,1/2+y,1/2-z
3 -x,-y,-z
4 -1/2+x,-1/2-y,-1/2+z
_cell_length_a 7.1020(14)
_cell_length_b 12.367(3)
_cell_length_c 10.592(2)
_cell_angle_alpha 90
_cell_angle_beta 99.906(13)
_cell_angle_gamma 90
_cell_formula_units_Z 4
loop_
_atom_type_symbol
_atom_type_radius_bond
C 0.68
H 0.23
N 0.68
O 0.68
loop_
_atom_site_label
_atom_site_type_symbol
_atom_site_fract_x
_atom_site_fract_y
_atom_site_fract_z
C1 C 0.4767(4) 0.8352(2) 0.9212(3)
H1 H 0.443(4) 0.788(2) 0.990(3)
C2 C 0.6396(4) 0.8141(2) 0.8683(3)
C3 C 0.6880(4) 0.8855(2) 0.7757(3)
C4 C 0.5723(4) 0.9729(3) 0.7349(3)
H2 H 0.612(4) 1.021(3) 0.672(3)
C5 C 0.4094(4) 0.9917(3) 0.7848(3)
C6 C 0.3595(4) 0.9233(2) 0.8818(3)
O1 O 0.7539(3) 0.72873(16) 0.90319(18)
C7 C 0.7101(5) 0.6597(3) 1.0041(3)
H3 H 0.589(5) 0.626(3) 0.980(3)
H4 H 0.812(5) 0.600(3) 1.012(3)
H5 H 0.713(4) 0.700(3) 1.087(3)
N1 N 0.8607(3) 0.8736(2) 0.7195(2)
O2 O 0.9380(3) 0.78480(18) 0.7223(2)
O3 O 0.9192(3) 0.95465(18) 0.67125(19)
N2 N 0.2896(3) 1.0819(2) 0.7315(2)
O4 O 0.2951(3) 1.10596(18) 0.6182(2)
O5 O 0.1922(3) 1.12973(17) 0.7980(2)
O6 O 0.2008(3) 0.94550(16) 0.92916(18)
C8 C 0.1444(5) 0.8698(3) 1.0205(3)
H6 H 0.131(4) 0.801(3) 0.978(3)
H7 H 0.240(5) 0.866(2) 1.099(3)
H8 H 0.030(5) 0.898(2) 1.039(3)
#END
