
#######################################################################
#
#                 Cambridge Crystallographic Data Centre
#                                CCDC
#
#######################################################################
#
# If this CIF has been generated from an entry in the Cambridge
# Structural Database, then it will include bibliographic, chemical,
# crystal, experimental, refinement or atomic coordinate data resulting
# from the CCDC's data processing and validation procedures.
#
#######################################################################

data_CSD_CIF_CERLER
_audit_creation_date 2006-11-30
_audit_creation_method CSD-ConQuest-V1
_database_code_CSD CERLER
_database_code_depnum_ccdc_archive 'CCDC 624200'
_chemical_formula_sum 'C8 H10 N2 O2'
_chemical_formula_moiety
;
C8 H10 N2 O2
;
_journal_coeditor_code "IUCr DN2053"
_journal_coden_Cambridge 1370
_journal_volume 62
_journal_year 2006
_journal_page_first o4243
_journal_name_full 'Acta Crystallogr.,Sect.E:Struct.Rep.Online '
loop_
_publ_author_name
"Hai-Bo Wang"
"Xiao-Chen Yan"
"Zhi-Qian Liu"
_chemical_name_systematic
;
3-Methoxybenzamide oxime
;
_cell_volume   1638.064
_exptl_crystal_colour 'colorless'
_exptl_crystal_density_diffrn 1.348
_exptl_crystal_description 'Block'
_exptl_crystal_preparation 'ethanol'
_diffrn_ambient_temperature 293
#These two values have been output from a single CSD field.
_refine_ls_R_factor_gt 0.0551
_refine_ls_wR_factor_gt 0.0551
_symmetry_cell_setting monoclinic
_symmetry_space_group_name_H-M 'P 21/c'
_symmetry_Int_Tables_number 14
loop_
_symmetry_equiv_pos_site_id
_symmetry_equiv_pos_as_xyz
1 x,y,z
2 -x,1/2+y,1/2-z
3 -x,-y,-z
4 x,-1/2-y,-1/2+z
_cell_length_a 6.8630(14)
_cell_length_b 18.910(4)
_cell_length_c 12.893(3)
_cell_angle_alpha 90
_cell_angle_beta 101.77(3)
_cell_angle_gamma 90
_cell_formula_units_Z 8
loop_
_atom_type_symbol
_atom_type_radius_bond
C 0.68
H 0.23
N 0.68
O 0.68
loop_
_atom_site_label
_atom_site_type_symbol
_atom_site_fract_x
_atom_site_fract_y
_atom_site_fract_z
O1 O 1.1321(3) 0.71692(10) 0.65094(15)
O2 O 0.4851(2) 0.93287(10) 0.41156(14)
H1 H 0.54550 0.95830 0.37740
N1 N 0.3359(3) 0.85808(14) 0.54115(19)
H2 H 0.26090 0.88420 0.49480
H3 H 0.28450 0.83290 0.58430
N2 N 0.6233(3) 0.89226(11) 0.48501(16)
C1 C 1.2463(4) 0.66456(16) 0.7174(3)
H4 H 1.29500 0.68410 0.78660
H5 H 1.35670 0.65010 0.68710
H6 H 1.16380 0.62430 0.72310
C2 C 0.9572(4) 0.73885(13) 0.6778(2)
C3 C 0.8961(4) 0.71853(15) 0.7691(2)
H7 H 0.97160 0.68710 0.81640
C4 C 0.7204(4) 0.74593(17) 0.7885(2)
H8 H 0.67960 0.73360 0.85060
C5 C 0.6046(4) 0.79108(15) 0.7178(2)
H9 H 0.48720 0.80900 0.73290
C6 C 0.6613(3) 0.80992(13) 0.62471(18)
C7 C 0.8399(3) 0.78339(12) 0.60568(19)
H10 H 0.88100 0.79570 0.54370
C8 C 0.5362(3) 0.85654(13) 0.54615(19)
O3 O 0.2607(3) 1.04883(11) 0.05775(15)
O4 O 0.9629(2) 0.93568(10) 0.41696(14)
H11 H 0.90780 0.91740 0.46100
N3 N 1.1066(3) 1.01676(13) 0.29129(18)
H12 H 1.18460 0.99220 0.33850
H13 H 1.15540 1.04320 0.24870
N4 N 0.8212(3) 0.97593(11) 0.34384(16)
C9 C 0.1293(4) 1.08501(17) -0.0255(2)
H14 H 0.11100 1.13280 -0.00400
H15 H 0.00300 1.06120 -0.04050
H16 H 0.18530 1.08540 -0.08790
C10 C 0.4525(4) 1.07439(14) 0.0874(2)
C11 C 0.5778(4) 1.03486(13) 0.16353(19)
H17 H 0.53110 0.99360 0.18920
C12 C 0.7738(3) 1.05649(13) 0.20199(19)
C13 C 0.8405(4) 1.11758(13) 0.1615(2)
H18 H 0.97060 1.13270 0.18620
C14 C 0.7161(4) 1.15619(15) 0.0849(2)
H19 H 0.76320 1.19720 0.05850
C15 C 0.5208(4) 1.13472(15) 0.0463(2)
H20 H 0.43790 1.16060 -0.00620
C16 C 0.9056(3) 1.01372(13) 0.28397(19)
#END
