
#######################################################################
#
#                 Cambridge Crystallographic Data Centre
#                                CCDC
#
#######################################################################
#
# If this CIF has been generated from an entry in the Cambridge
# Structural Database, then it will include bibliographic, chemical,
# crystal, experimental, refinement or atomic coordinate data resulting
# from the CCDC's data processing and validation procedures.
#
#######################################################################

data_CSD_CIF_CERQIA
_audit_creation_date 2006-11-30
_audit_creation_method CSD-ConQuest-V1
_database_code_CSD CERQIA
_database_code_depnum_ccdc_archive 'CCDC 624508'
_chemical_formula_sum 'C7 H7 N1 O4'
_chemical_formula_moiety
;
C7 H7 N1 O4
;
_journal_coeditor_code "IUCr FL2043"
_journal_coden_Cambridge 1370
_journal_volume 62
_journal_year 2006
_journal_page_first o4224
_journal_name_full 'Acta Crystallogr.,Sect.E:Struct.Rep.Online '
loop_
_publ_author_name
"Gang Lei"
"Huan-Xia Zhang"
"Shao-Jin Gu"
_chemical_name_systematic
;
2-Hydroxy-5-nitrobenzyl alcohol
;
_cell_volume   1480.132
_exptl_crystal_colour 'colorless'
_exptl_crystal_density_diffrn 1.518
_exptl_crystal_description 'block'
_exptl_crystal_preparation 'dichloromethane'
_diffrn_ambient_temperature 153
#These two values have been output from a single CSD field.
_refine_ls_R_factor_gt 0.0501
_refine_ls_wR_factor_gt 0.0501
_symmetry_cell_setting monoclinic
_symmetry_space_group_name_H-M 'P 21/c'
_symmetry_Int_Tables_number 14
loop_
_symmetry_equiv_pos_site_id
_symmetry_equiv_pos_as_xyz
1 x,y,z
2 -x,1/2+y,1/2-z
3 -x,-y,-z
4 x,-1/2-y,-1/2+z
_cell_length_a 7.2099(3)
_cell_length_b 9.6277(4)
_cell_length_c 21.5374(8)
_cell_angle_alpha 90
_cell_angle_beta 98.091(1)
_cell_angle_gamma 90
_cell_formula_units_Z 8
loop_
_atom_type_symbol
_atom_type_radius_bond
C 0.68
H 0.23
N 0.68
O 0.68
loop_
_atom_site_label
_atom_site_type_symbol
_atom_site_fract_x
_atom_site_fract_y
_atom_site_fract_z
O1 O 0.2755(2) 0.33267(15) 0.48529(6)
H1 H 0.24940 0.26280 0.50580
O2 O 0.1780(2) 0.63975(15) 0.41541(7)
H2 H 0.11140 0.65230 0.38060
O3 O 0.1452(2) 0.34286(18) 0.19393(7)
O4 O 0.0209(3) 0.14567(17) 0.20940(8)
N1 N 0.1067(2) 0.24963(17) 0.22927(8)
O5 O 0.2521(2) 0.85147(15) 0.49334(6)
H3 H 0.22700 0.78370 0.46910
O6 O 0.2218(2) 1.13132(16) 0.56451(7)
H4 H 0.16830 1.14700 0.59600
O7 O 0.4255(4) 0.7710(3) 0.78188(9)
O8 O 0.3134(4) 0.5693(3) 0.75622(11)
N2 N 0.3531(3) 0.6861(3) 0.74242(10)
C1 C 0.2717(2) 0.41322(19) 0.38243(8)
C2 C 0.2389(2) 0.3052(2) 0.42366(8)
C3 C 0.1701(3) 0.1770(2) 0.40011(9)
H5 H 0.15310 0.10350 0.42820
C4 C 0.1268(2) 0.15699(19) 0.33637(9)
H6 H 0.07700 0.07090 0.32010
C5 C 0.1574(2) 0.26575(19) 0.29604(8)
C6 C 0.2318(2) 0.39168(19) 0.31856(8)
H7 H 0.25530 0.46290 0.29020
C7 C 0.3357(3) 0.5536(2) 0.40700(9)
H8 H 0.41780 0.54290 0.44760
H9 H 0.40940 0.59890 0.37720
C8 C 0.3407(3) 0.9031(2) 0.59983(9)
C9 C 0.2728(3) 0.8069(2) 0.55311(9)
C10 C 0.2307(3) 0.6710(2) 0.56907(10)
H10 H 0.18530 0.60630 0.53720
C11 C 0.2553(3) 0.6309(2) 0.63122(11)
H11 H 0.22610 0.53900 0.64260
C12 C 0.3233(3) 0.7272(2) 0.67683(9)
C13 C 0.3665(3) 0.8611(2) 0.66183(9)
H12 H 0.41400 0.92460 0.69400
C14 C 0.3868(3) 1.0493(2) 0.58293(9)
H13 H 0.46300 1.09360 0.61940
H14 H 0.46290 1.04710 0.54810
#END
