
#######################################################################
#
#                 Cambridge Crystallographic Data Centre
#                                CCDC
#
#######################################################################
#
# If this CIF has been generated from an entry in the Cambridge
# Structural Database, then it will include bibliographic, chemical,
# crystal, experimental, refinement or atomic coordinate data resulting
# from the CCDC's data processing and validation procedures.
#
#######################################################################

data_CSD_CIF_CERWEB
_audit_creation_date 1984-11-14
_audit_creation_method CSD-ConQuest-V1
_database_code_CSD CERWEB
_chemical_formula_sum 'C20 H23 N1 O2'
_chemical_formula_moiety
;
C20 H23 N1 O2
;
_journal_coden_Cambridge 36
_journal_volume 265
_journal_year 1984
_journal_page_first C9
_journal_name_full 'J.Organomet.Chem. '
loop_
_publ_author_name
"G.Bocelli"
"M.Catellani"
"G.P.Chiusoli"
"S.Larocca"
_chemical_name_systematic
;
5-Nitro-8-(2-bicyclo(2.2.1)heptyl)-1,2,3,4,4a,8b-hexahydro-1,4-methanobiphenyl
ene
;
_chemical_melting_point 387.15
_cell_volume    825.259
_exptl_crystal_colour 'yellow'
_exptl_crystal_density_diffrn 1.25
_exptl_special_details
;
Melting point range 387.15-388.15K

;
_diffrn_ambient_temperature ?
_diffrn_special_details
;
The study was carried out at room temperature,in the range 283-303K

;
#These two values have been output from a single CSD field.
_refine_ls_R_factor_gt 0.077
_refine_ls_wR_factor_gt 0.077
_symmetry_cell_setting triclinic
_symmetry_space_group_name_H-M 'P -1'
_symmetry_Int_Tables_number 2
loop_
_symmetry_equiv_pos_site_id
_symmetry_equiv_pos_as_xyz
1 x,y,z
2 -x,-y,-z
_cell_length_a 10.328(3)
_cell_length_b 9.028(3)
_cell_length_c 9.876(2)
_cell_angle_alpha 105.09(3)
_cell_angle_beta 97.32(4)
_cell_angle_gamma 107.72(3)
_cell_formula_units_Z 2
loop_
_atom_type_symbol
_atom_type_radius_bond
C 0.68
H 0.23
N 0.68
O 0.68
loop_
_atom_site_label
_atom_site_type_symbol
_atom_site_fract_x
_atom_site_fract_y
_atom_site_fract_z
O1 O 0.16880 -0.02480 0.63280
O2 O 0.35690 -0.07150 0.63120
N1 N 0.29340 0.02060 0.64310
C1 C 0.36720 0.19340 0.66710
C2 C 0.51030 0.25640 0.68810
C3 C 0.58060 0.41910 0.71120
C4 C 0.51340 0.53290 0.71130
C5 C 0.36770 0.46240 0.67930
C6 C 0.29580 0.30020 0.66090
C7 C 0.15330 0.31800 0.63510
C8 C 0.08370 0.33080 0.76020
C9 C -0.03780 0.39390 0.71910
C10 C 0.04060 0.57230 0.74190
C11 C 0.19690 0.59630 0.78400
C12 C 0.23580 0.50500 0.65330
C13 C 0.58180 0.71520 0.74080
C14 C 0.59300 0.81540 0.90370
C15 C 0.73760 0.92880 0.95620
C16 C 0.80990 0.81650 0.88910
C17 C 0.73340 0.77720 0.72940
C18 C 0.76300 0.95140 0.72040
C19 C 0.77090 1.05450 0.87740
C20 C 0.18990 0.48590 0.88080
H1 H 0.54290 0.20500 0.67660
H2 H 0.66450 0.46600 0.71750
H3 H 0.09250 0.26540 0.54920
H4 H 0.06390 0.22950 0.78090
H5 H -0.07950 0.39370 0.78720
H6 H -0.10860 0.32850 0.63000
H7 H 0.00980 0.62420 0.80170
H8 H 0.02830 0.57890 0.65920
H9 H 0.24390 0.71100 0.83320
H10 H 0.22340 0.54270 0.56930
H11 H 0.29350 0.48350 0.91910
H12 H 0.51820 0.74860 0.67360
H13 H 0.52840 0.86610 0.91010
H14 H 0.55330 0.72830 0.95730
H15 H 0.74560 0.97670 1.04920
H16 H 0.79910 0.72110 0.92130
H17 H 0.90430 0.87170 0.92090
H18 H 0.76530 0.70480 0.65760
H19 H 0.85350 0.98940 0.69290
H20 H 0.67020 0.96220 0.62680
H21 H 0.85580 1.14770 0.93060
H22 H 0.67690 1.08170 0.87870
H23 H 0.13900 0.51860 0.97050
#END
