
#######################################################################
#
#                 Cambridge Crystallographic Data Centre
#                                CCDC
#
#######################################################################
#
# If this CIF has been generated from an entry in the Cambridge
# Structural Database, then it will include bibliographic, chemical,
# crystal, experimental, refinement or atomic coordinate data resulting
# from the CCDC's data processing and validation procedures.
#
#######################################################################

data_CSD_CIF_CERXUS
_audit_creation_date 1984-11-14
_audit_creation_method CSD-ConQuest-V1
_database_code_CSD CERXUS
_database_code_depnum_ccdc_archive 'CCDC 1123416'
_chemical_formula_sum 'C4 H11 N1 O2'
_chemical_formula_moiety
;
C4 H11 N1 O2
;
_journal_coden_Cambridge 15
_journal_volume 62
_journal_year 1984
_journal_page_first 6
_journal_name_full 'Can.J.Chem. '
loop_
_publ_author_name
"E.R.Maia"
"A.Peguy"
"S.Perez"
_chemical_name_systematic
;
N,N-Dimethyl ethanolamine-N-oxide
;
_cell_volume   1680.865
_exptl_crystal_density_diffrn 1.247
_diffrn_ambient_temperature ?
_diffrn_special_details
;
The study was carried out at room temperature,in the range 283-303K

;
#These two values have been output from a single CSD field.
_refine_ls_R_factor_gt 0.063
_refine_ls_wR_factor_gt 0.063
_symmetry_cell_setting monoclinic
_symmetry_space_group_name_H-M 'C c'
_symmetry_Int_Tables_number 9
loop_
_symmetry_equiv_pos_site_id
_symmetry_equiv_pos_as_xyz
1 x,y,z
2 1/2+x,1/2+y,z
3 x,-y,1/2+z
4 1/2+x,1/2-y,1/2+z
_cell_length_a 25.725(9)
_cell_length_b 7.023(4)
_cell_length_c 9.483(5)
_cell_angle_alpha 90
_cell_angle_beta 101.16(10)
_cell_angle_gamma 90
_cell_formula_units_Z 12
loop_
_atom_type_symbol
_atom_type_radius_bond
C 0.68
H 0.23
N 0.68
O 0.68
loop_
_atom_site_label
_atom_site_type_symbol
_atom_site_fract_x
_atom_site_fract_y
_atom_site_fract_z
O1 O 0.98450 0.54010 0.57110
C1 C 1.03610 0.57750 0.53610
C2 C 1.07460 0.44280 0.63180
N1 N 1.12890 0.43880 0.59820
C3 C 1.15490 0.63420 0.61710
C4 C 1.16220 0.30480 0.69440
O2 O 1.12700 0.38180 0.45510
H1 H 1.03400 0.54800 0.43200
H2 H 1.04600 0.71200 0.55500
H3 H 1.08000 0.47700 0.73400
H4 H 1.06000 0.31100 0.62300
H5 H 1.13500 0.72400 0.56100
H6 H 1.15800 0.68700 0.71200
H7 H 1.19500 0.62700 0.59100
H8 H 1.16600 0.33200 0.79600
H9 H 1.15000 0.17900 0.69000
H10 H 1.20400 0.30700 0.67400
O3 O 1.09790 0.98240 0.91690
C5 C 1.05070 1.00270 0.81480
C6 C 1.00760 0.90380 0.86770
N2 N 0.95140 0.92830 0.77320
C7 C 0.93260 1.13360 0.76870
C8 C 0.91480 0.81010 0.83430
O4 O 0.95330 0.87140 0.63150
H11 H 1.10100 0.86100 0.91200
H12 H 1.04000 1.13300 0.80100
H13 H 1.05400 0.94400 0.71800
H14 H 1.00900 0.94300 0.96700
H15 H 1.01400 0.76800 0.87300
H16 H 0.95700 1.20800 0.72900
H17 H 0.93200 1.16700 0.86300
H18 H 0.89700 1.14700 0.70800
H19 H 0.91300 0.85300 0.93400
H20 H 0.92300 0.67400 0.83000
H21 H 0.87600 0.81900 0.77800
O5 O 0.79050 1.01570 0.60350
C9 C 0.78960 0.95870 0.45700
C10 C 0.79030 0.78840 0.42310
N3 N 0.79030 0.61510 0.51530
C11 C 0.74320 0.50410 0.45390
C12 C 0.83710 0.49650 0.50490
O6 O 0.78910 0.66250 0.65550
H22 H 0.71200 0.57800 0.46400
H23 H 0.74000 0.46100 0.35400
H24 H 0.74300 0.38700 0.51800
H25 H 0.83600 0.46400 0.39500
H26 H 0.86800 0.57100 0.55300
H27 H 0.83800 0.37300 0.57000
#END
