
#######################################################################
#
#                 Cambridge Crystallographic Data Centre
#                                CCDC
#
#######################################################################
#
# If this CIF has been generated from an entry in the Cambridge
# Structural Database, then it will include bibliographic, chemical,
# crystal, experimental, refinement or atomic coordinate data resulting
# from the CCDC's data processing and validation procedures.
#
#######################################################################

data_CSD_CIF_CESBOS
_audit_creation_date 2007-03-22
_audit_creation_method CSD-ConQuest-V1
_database_code_CSD CESBOS
_database_code_depnum_ccdc_archive 'CCDC 630506'
_chemical_formula_sum 'C15 H13 N3 O3'
_chemical_formula_moiety
;
C15 H13 N3 O3
;
_journal_coeditor_code "IUCr WN2091"
_journal_coden_Cambridge 1370
_journal_volume 62
_journal_year 2006
_journal_page_first o5677
_journal_name_full 'Acta Crystallogr.,Sect.E:Struct.Rep.Online '
loop_
_publ_author_name
"Yun Wu"
"Bo Zhao"
"Baolong Li"
_chemical_name_systematic
;
N-(4-(4-Nitrobenzylideneamino)phenyl)acetamide
;
_chemical_melting_point 497
_cell_volume   2614.364
_exptl_crystal_colour 'yellow'
_exptl_crystal_density_diffrn 1.439
_exptl_crystal_description 'Block'
_exptl_crystal_preparation 'chloroform/ethyl acetate'
_diffrn_ambient_temperature 153
#These two values have been output from a single CSD field.
_refine_ls_R_factor_gt 0.0634
_refine_ls_wR_factor_gt 0.0634
_symmetry_cell_setting orthorhombic
_symmetry_space_group_name_H-M 'P b c a'
_symmetry_Int_Tables_number 61
loop_
_symmetry_equiv_pos_site_id
_symmetry_equiv_pos_as_xyz
1 x,y,z
2 1/2+x,1/2-y,-z
3 -x,1/2+y,1/2-z
4 1/2-x,-y,1/2+z
5 -x,-y,-z
6 -1/2-x,-1/2+y,z
7 x,-1/2-y,-1/2+z
8 -1/2+x,y,-1/2-z
_cell_length_a 7.0477(8)
_cell_length_b 15.1868(17)
_cell_length_c 24.426(3)
_cell_angle_alpha 90
_cell_angle_beta 90
_cell_angle_gamma 90
_cell_formula_units_Z 8
loop_
_atom_type_symbol
_atom_type_radius_bond
C 0.68
H 0.23
N 0.68
O 0.68
loop_
_atom_site_label
_atom_site_type_symbol
_atom_site_fract_x
_atom_site_fract_y
_atom_site_fract_z
O1 O 0.3086(3) 0.07263(12) 0.67188(7)
O2 O 0.3856(3) -0.03098(12) 0.61546(8)
O3 O 0.4621(3) 0.71569(11) 0.29691(7)
N1 N 0.3465(3) 0.04611(14) 0.62565(8)
N2 N 0.3429(3) 0.37099(13) 0.45248(8)
N3 N 0.3848(3) 0.58092(12) 0.26271(8)
H1 H 0.35950 0.55290 0.23200
C1 C 0.3482(3) 0.22741(15) 0.49499(9)
C2 C 0.3512(3) 0.13726(15) 0.48497(10)
H2 H 0.35610 0.11650 0.44830
C3 C 0.3471(3) 0.07745(15) 0.52765(10)
H3 H 0.34590 0.01590 0.52080
C4 C 0.3449(3) 0.10956(15) 0.58038(9)
C5 C 0.3440(3) 0.19894(16) 0.59231(9)
H4 H 0.34360 0.21910 0.62910
C6 C 0.3438(3) 0.25790(16) 0.54911(9)
H5 H 0.34060 0.31940 0.55620
C7 C 0.3521(3) 0.28737(16) 0.44817(9)
H6 H 0.36190 0.26270 0.41250
C8 C 0.3469(3) 0.42199(15) 0.40380(9)
C9 C 0.2770(3) 0.39398(15) 0.35312(9)
H7 H 0.22050 0.33740 0.35000
C10 C 0.2892(3) 0.44732(15) 0.30780(9)
H8 H 0.24170 0.42700 0.27370
C11 C 0.3703(3) 0.53090(15) 0.31132(9)
C12 C 0.4357(3) 0.56071(15) 0.36204(9)
H9 H 0.48920 0.61790 0.36540
C13 C 0.4221(3) 0.50630(15) 0.40751(9)
H10 H 0.46530 0.52720 0.44200
C14 C 0.4334(3) 0.66774(15) 0.25763(10)
C15 C 0.4494(4) 0.70047(17) 0.19978(10)
H11 H 0.48580 0.76270 0.20000
H12 H 0.32680 0.69380 0.18130
H13 H 0.54590 0.66620 0.18030
#END
