
#######################################################################
#
#                 Cambridge Crystallographic Data Centre
#                                CCDC
#
#######################################################################
#
# If this CIF has been generated from an entry in the Cambridge
# Structural Database, then it will include bibliographic, chemical,
# crystal, experimental, refinement or atomic coordinate data resulting
# from the CCDC's data processing and validation procedures.
#
#######################################################################

data_CSD_CIF_CETRUQ03
_audit_creation_date 2013-04-30
_audit_creation_method CSD-ConQuest-V1
_database_code_CSD CETRUQ03
_database_code_depnum_ccdc_archive 'CCDC 923568'
_chemical_formula_sum 'C21 H19 N2 O4'
_chemical_formula_moiety
;
C21 H19 N2 O4
;
_journal_coden_Cambridge 182
_journal_volume 49
_journal_year 2013
_journal_page_first 3345
_journal_name_full 'Chem.Commun. '
loop_
_publ_author_name
"H.Akpinar"
"J.A.Schlueter"
"P.M.Lahti"
_chemical_name_systematic
;
2-(9,10-Anthraquinon-2-yl)-4,4,5,5-tetramethyl-4,5-dihydro-1H-imidazole-3-oxid
e-1-oxyl radical
;
_chemical_melting_point 481
_cell_volume   3450.557
_exptl_crystal_colour 'black'
_exptl_crystal_density_diffrn 1.399
_exptl_special_details
;
beta polymorph

;
_exptl_crystal_description 'needle'
_diffrn_ambient_temperature 199
#These two values have been output from a single CSD field.
_refine_ls_R_factor_gt 0.0431
_refine_ls_wR_factor_gt 0.0431
_symmetry_cell_setting orthorhombic
_symmetry_space_group_name_H-M 'P b c a'
_symmetry_Int_Tables_number 61
loop_
_symmetry_equiv_pos_site_id
_symmetry_equiv_pos_as_xyz
1 x,y,z
2 1/2-x,-y,1/2+z
3 -x,1/2+y,1/2-z
4 1/2+x,1/2-y,-z
5 -x,-y,-z
6 -1/2+x,y,-1/2-z
7 x,-1/2-y,-1/2+z
8 -1/2-x,-1/2+y,z
_cell_length_a 7.2592(5)
_cell_length_b 21.3199(14)
_cell_length_c 22.2954(15)
_cell_angle_alpha 90
_cell_angle_beta 90
_cell_angle_gamma 90
_cell_formula_units_Z 8
loop_
_atom_type_symbol
_atom_type_radius_bond
C 0.68
H 0.23
N 0.68
O 0.68
loop_
_atom_site_label
_atom_site_type_symbol
_atom_site_fract_x
_atom_site_fract_y
_atom_site_fract_z
C1 C 0.3470(3) 0.13583(10) 0.23084(9)
O1 O 0.2236(3) 0.26495(7) 0.25278(7)
N1 N 0.3008(3) 0.24797(8) 0.20366(8)
O2 O 0.4956(2) 0.14119(7) 0.10761(7)
N2 N 0.4278(2) 0.18907(8) 0.13443(7)
C2 C 0.3692(3) 0.14354(10) 0.29255(9)
H1 H 0.40490 0.18310 0.30830
C3 C 0.3387(3) 0.0929(1) 0.33114(9)
O3 O 0.4466(2) 0.14837(7) 0.41628(7)
C4 C 0.3684(3) 0.10185(10) 0.39698(10)
C5 C 0.3071(3) 0.05032(10) 0.43747(10)
C6 C 0.3167(3) 0.05898(11) 0.49953(10)
H2 H 0.36000 0.09760 0.51540
C7 C 0.2632(3) 0.01133(11) 0.53798(11)
H3 H 0.26820 0.01770 0.58010
C8 C 0.2023(3) -0.04573(12) 0.51524(11)
H4 H 0.16760 -0.07850 0.54180
C9 C 0.1924(3) -0.05463(11) 0.45395(11)
H5 H 0.15050 -0.09360 0.43850
C10 C 0.2436(3) -0.00675(10) 0.41449(10)
O4 O 0.1739(3) -0.06707(8) 0.32839(8)
C11 C 0.2296(3) -0.01724(10) 0.34856(11)
C12 C 0.2814(3) 0.03519(10) 0.30813(10)
C13 C 0.2666(3) 0.02744(10) 0.2462(1)
H6 H 0.23280 -0.01230 0.23030
C14 C 0.3006(3) 0.07673(10) 0.20771(10)
H7 H 0.29250 0.07070 0.16560
C15 C 0.3619(3) 0.19010(9) 0.19103(9)
C16 C 0.3094(3) 0.29198(10) 0.15082(9)
C17 C 0.4290(3) 0.25285(10) 0.10577(9)
C18 C 0.3934(4) 0.35366(11) 0.17192(11)
H8 H 0.30880 0.37430 0.19990
H9 H 0.41450 0.38100 0.13730
H10 H 0.51080 0.34530 0.19210
C19 C 0.1106(3) 0.30200(12) 0.13069(11)
H11 H 0.04450 0.32640 0.16110
H12 H 0.05020 0.26120 0.12550
H13 H 0.10940 0.32480 0.09250
C20 C 0.6300(3) 0.27330(11) 0.10227(10)
H14 H 0.69530 0.24700 0.07310
H15 H 0.68750 0.26870 0.14180
H16 H 0.63630 0.31730 0.08960
C21 C 0.3492(4) 0.24592(12) 0.04283(10)
H17 H 0.43370 0.22110 0.01800
H18 H 0.33290 0.28750 0.02490
H19 H 0.22980 0.22460 0.04510
#END
