
#######################################################################
#
#                 Cambridge Crystallographic Data Centre
#                                CCDC
#
#######################################################################
#
# If this CIF has been generated from an entry in the Cambridge
# Structural Database, then it will include bibliographic, chemical,
# crystal, experimental, refinement or atomic coordinate data resulting
# from the CCDC's data processing and validation procedures.
#
#######################################################################

data_CSD_CIF_CETRUQ
_audit_creation_date 2013-04-30
_audit_creation_method CSD-ConQuest-V1
_database_code_CSD CETRUQ
_database_code_depnum_ccdc_archive 'CCDC 923571'
_chemical_formula_sum 'C21 H19 N2 O4'
_chemical_formula_moiety
;
C21 H19 N2 O4
;
_journal_coden_Cambridge 182
_journal_volume 49
_journal_year 2013
_journal_page_first 3345
_journal_name_full 'Chem.Commun. '
loop_
_publ_author_name
"H.Akpinar"
"J.A.Schlueter"
"P.M.Lahti"
_chemical_name_systematic
;
2-(9,10-Anthraquinon-2-yl)-4,4,5,5-tetramethyl-4,5-dihydro-1H-imidazole-3-oxid
e-1-oxyl radical
;
_chemical_melting_point 480.15
_cell_volume   1764.580
_exptl_crystal_colour 'brown'
_exptl_crystal_density_diffrn 1.368
_exptl_special_details
;
Melting point range 480.15-482.15K
alpha polymorph

;
_exptl_crystal_description 'plate'
_diffrn_ambient_temperature 293
#These two values have been output from a single CSD field.
_refine_ls_R_factor_gt 0.0533
_refine_ls_wR_factor_gt 0.0533
_symmetry_cell_setting monoclinic
_symmetry_space_group_name_H-M 'P 21/c'
_symmetry_Int_Tables_number 14
loop_
_symmetry_equiv_pos_site_id
_symmetry_equiv_pos_as_xyz
1 x,y,z
2 -x,1/2+y,1/2-z
3 -x,-y,-z
4 x,-1/2-y,-1/2+z
_cell_length_a 8.2851(17)
_cell_length_b 18.895(4)
_cell_length_c 11.832(2)
_cell_angle_alpha 90
_cell_angle_beta 107.70(3)
_cell_angle_gamma 90
_cell_formula_units_Z 4
loop_
_atom_type_symbol
_atom_type_radius_bond
C 0.68
H 0.23
N 0.68
O 0.68
loop_
_atom_site_label
_atom_site_type_symbol
_atom_site_fract_x
_atom_site_fract_y
_atom_site_fract_z
C1 C 0.2344(2) 0.54047(9) 1.29583(14)
O1 O 0.3348(2) 0.69100(7) 1.28245(12)
N1 N 0.3390(2) 0.65987(8) 1.37927(12)
O2 O 0.2911(3) 0.52175(8) 1.55388(13)
N2 N 0.3114(2) 0.58062(8) 1.50681(13)
C2 C 0.2772(2) 0.54724(8) 1.19069(14)
H1 H 0.33670 0.58680 1.17850
C3 C 0.23031(19) 0.49460(8) 1.10412(13)
O3 O 0.3440(2) 0.55665(7) 0.97248(12)
C4 C 0.2762(2) 0.50309(8) 0.99211(14)
C5 C 0.2325(2) 0.44398(9) 0.90480(14)
C6 C 0.2733(3) 0.44989(10) 0.79924(16)
H2 H 0.32790 0.49020 0.78430
C7 C 0.2324(3) 0.39572(11) 0.71672(18)
H3 H 0.25930 0.40000 0.64620
C8 C 0.1523(3) 0.33554(11) 0.73788(17)
H4 H 0.12710 0.29910 0.68230
C9 C 0.1095(2) 0.32916(9) 0.84124(17)
H5 H 0.05320 0.28890 0.85440
C10 C 0.1505(2) 0.38303(8) 0.92647(14)
O4 O 0.0512(2) 0.31883(8) 1.06301(14)
C11 C 0.1071(2) 0.37447(9) 1.03791(15)
C12 C 0.14220(19) 0.43501(8) 1.12283(14)
C13 C 0.0921(2) 0.43046(10) 1.22470(16)
H6 H 0.02800 0.39200 1.23520
C14 C 0.1368(2) 0.48252(10) 1.31003(15)
H7 H 0.10200 0.47920 1.37750
C15 C 0.2922(2) 0.59267(9) 1.39092(14)
C16 C 0.4202(2) 0.69387(9) 1.49828(15)
C17 C 0.3448(2) 0.64804(9) 1.57762(14)
C18 C 0.3776(3) 0.77198(10) 1.49471(19)
H8 H 0.25750 0.77770 1.47850
H9 H 0.41280 0.79460 1.43350
H10 H 0.43540 0.79310 1.56990
C19 C 0.6113(3) 0.68299(13) 1.5235(2)
H11 H 0.63560 0.63330 1.52520
H12 H 0.67050 0.70360 1.59890
H13 H 0.64730 0.70530 1.46240
C20 C 0.1737(3) 0.67339(13) 1.5849(2)
H14 H 0.09950 0.68220 1.50640
H15 H 0.18880 0.71620 1.63060
H16 H 0.12510 0.63770 1.62230
C21 C 0.4625(3) 0.63413(12) 1.70183(16)
H17 H 0.57020 0.61810 1.69710
H18 H 0.41390 0.59850 1.73940
H19 H 0.47770 0.67700 1.74740
#END
