
#######################################################################
#
#                 Cambridge Crystallographic Data Centre
#                                CCDC
#
#######################################################################
#
# If this CIF has been generated from an entry in the Cambridge
# Structural Database, then it will include bibliographic, chemical,
# crystal, experimental, refinement or atomic coordinate data resulting
# from the CCDC's data processing and validation procedures.
#
#######################################################################

data_CSD_CIF_CETWUV
_audit_creation_date 2013-04-30
_audit_creation_method CSD-ConQuest-V1
_database_code_CSD CETWUV
_database_code_depnum_ccdc_archive 'CCDC 923054'
_chemical_formula_sum 'C28 H32 N2 O4'
_chemical_formula_moiety
;
C28 H32 N2 O4
;
_journal_coden_Cambridge 179
_journal_volume 52
_journal_year 2013
_journal_page_first 4854
_journal_name_full 'Angew.Chem.,Int.Ed. '
loop_
_publ_author_name
"A.M.Hamlin"
"F.de J.Cortez"
"D.Lapointe"
"R.Sarpong"
_chemical_name_systematic
;
(1-Allyl-7-methoxy-14-methyl-12-azatetracyclo[9.6.0.0^2,14^.0^5,10^]heptadeca-
5,7,9-trien-12-yl)(4-nitrophenyl)methanone
;
_cell_volume   2382.690
_exptl_crystal_colour 'colorless'
_exptl_crystal_density_diffrn 1.284
_exptl_crystal_description 'block'
_diffrn_ambient_temperature 100
#These two values have been output from a single CSD field.
_refine_ls_R_factor_gt 0.0508
_refine_ls_wR_factor_gt 0.0508
_symmetry_cell_setting triclinic
_symmetry_space_group_name_H-M 'P -1'
_symmetry_Int_Tables_number 2
loop_
_symmetry_equiv_pos_site_id
_symmetry_equiv_pos_as_xyz
1 x,y,z
2 -x,-y,-z
_cell_length_a 10.5366(3)
_cell_length_b 15.7550(5)
_cell_length_c 16.2046(5)
_cell_angle_alpha 103.735(2)
_cell_angle_beta 106.900(2)
_cell_angle_gamma 102.277(2)
_cell_formula_units_Z 4
loop_
_atom_type_symbol
_atom_type_radius_bond
C 0.68
H 0.23
N 0.68
O 0.68
loop_
_atom_site_label
_atom_site_type_symbol
_atom_site_fract_x
_atom_site_fract_y
_atom_site_fract_z
C1 C -0.21747(17) 0.88365(12) 0.27623(12)
H1 H -0.24500 0.90470 0.32980
C2 C -0.30608(17) 0.78346(12) 0.22863(12)
C3 C -0.38387(18) 0.74431(13) 0.27361(12)
H2 H -0.37740 0.78080 0.33140
C4 C -0.47077(18) 0.65434(13) 0.23817(12)
H3 H -0.52240 0.62980 0.27090
C5 C -0.48019(18) 0.60132(12) 0.15383(12)
C6 C -0.40362(18) 0.63897(13) 0.10698(12)
H4 H -0.41130 0.60210 0.04900
C7 C -0.31648(18) 0.72873(12) 0.14249(12)
C8 C -0.23622(19) 0.76137(13) 0.08593(12)
H5 H -0.27190 0.71350 0.02560
H6 H -0.13760 0.76560 0.11560
C9 C -0.24015(19) 0.85285(13) 0.07027(12)
H7 H -0.33910 0.84880 0.04230
H8 H -0.19670 0.85900 0.02450
C10 C -0.17114(18) 0.94228(13) 0.15124(12)
H9 H -0.18290 0.99260 0.12470
C11 C -0.01254(18) 0.96612(13) 0.20217(12)
C12 C 0.04157(19) 1.06765(13) 0.26220(13)
H10 H 0.14310 1.08410 0.29490
H11 H 0.02620 1.10630 0.22250
C13 C -0.02819(19) 1.08898(12) 0.33147(12)
H12 H -0.00070 1.15620 0.36050
H13 H 0.00380 1.06150 0.37960
C14 C -0.18644(18) 1.05140(12) 0.28632(12)
H14 H -0.21910 1.09100 0.25110
H15 H -0.22690 1.05580 0.33460
C15 C -0.24341(18) 0.95091(12) 0.22193(12)
C16 C 0.02311(18) 0.90558(13) 0.26197(12)
H16 H 0.01510 0.84470 0.22250
H17 H 0.12100 0.93360 0.30420
C17 C -0.02396(18) 0.87789(12) 0.39635(12)
C18 C 0.12902(18) 0.89304(12) 0.44422(11)
C19 C 0.1753(2) 0.81880(13) 0.45562(13)
H18 H 0.11250 0.75840 0.42750
C20 C 0.3120(2) 0.83239(14) 0.50756(14)
H19 H 0.34520 0.78190 0.51400
C21 C 0.39922(19) 0.92138(14) 0.54983(12)
C22 C 0.35563(19) 0.99681(13) 0.54145(12)
H20 H 0.41750 1.05720 0.57260
C23 C 0.22007(19) 0.98225(13) 0.48671(12)
H21 H 0.18870 1.03280 0.47800
C24 C -0.6571(2) 0.47602(13) 0.15007(14)
H22 H -0.60600 0.47600 0.21110
H23 H -0.71330 0.41320 0.11170
H24 H -0.71820 0.51460 0.15420
C25 C 0.06502(19) 0.95451(14) 0.13538(13)
H25 H 0.03870 0.98830 0.09290
H26 H 0.04030 0.88930 0.10130
H27 H 0.16560 0.97850 0.16930
C26 C -0.40346(18) 0.92924(13) 0.17889(12)
H28 H -0.44320 0.86420 0.14000
H29 H -0.44140 0.93620 0.22850
C27 C -0.45277(19) 0.98711(14) 0.12283(13)
H30 H -0.41980 0.99000 0.07450
C28 C -0.5387(2) 1.03435(14) 0.13584(15)
H31 H -0.57370 1.03310 0.18350
H32 H -0.56560 1.06960 0.09760
N1 N -0.06734(15) 0.89309(10) 0.31549(10)
N2 N 0.54394(17) 0.93706(13) 0.60686(12)
O1 O -0.56086(13) 0.51136(9) 0.11106(9)
O2 O -0.10352(13) 0.85476(9) 0.43532(8)
O3 O 0.60834(15) 1.01312(12) 0.66336(10)
O4 O 0.59445(17) 0.87428(12) 0.59353(15)
C29 C -0.02784(18) 0.47151(12) 0.27592(12)
H33 H 0.05940 0.48510 0.32900
C30 C 0.00669(18) 0.54035(12) 0.22740(12)
C31 C 0.13415(18) 0.60884(13) 0.27130(12)
H34 H 0.19200 0.61070 0.32930
C32 C 0.18069(19) 0.67488(13) 0.23392(13)
H35 H 0.26780 0.72120 0.26610
C33 C 0.09711(19) 0.67140(12) 0.14897(13)
C34 C -0.03035(19) 0.60332(13) 0.10380(12)
H36 H -0.08640 0.60120 0.04520
C35 C -0.07864(18) 0.53844(13) 0.14115(12)
C36 C -0.22175(19) 0.46991(13) 0.08632(12)
H37 H -0.25360 0.47840 0.02590
H38 H -0.28620 0.48600 0.11690
C37 C -0.23748(19) 0.36797(13) 0.07088(12)
H39 H -0.17250 0.35240 0.04060
H40 H -0.33290 0.33310 0.02720
C38 C -0.21336(18) 0.33185(12) 0.15261(12)
H41 H -0.23070 0.26440 0.12630
C39 C -0.31346(18) 0.34095(12) 0.20570(12)
C40 C -0.29844(19) 0.27908(13) 0.26666(13)
H42 H -0.36220 0.28420 0.30070
H43 H -0.32730 0.21450 0.22740
C41 C -0.15129(19) 0.30309(13) 0.33403(12)
H44 H -0.14480 0.25510 0.36360
H45 H -0.12920 0.36200 0.38200
C42 C -0.04606(18) 0.31092(12) 0.28624(12)
H46 H -0.05320 0.24840 0.25090
H47 H 0.04860 0.33780 0.33330
C43 C -0.06262(18) 0.36895(12) 0.22146(12)
C44 C -0.28293(18) 0.44057(13) 0.26454(12)
H48 H -0.31990 0.47520 0.22460
H49 H -0.33270 0.44060 0.30780
C45 C -0.08700(18) 0.55622(12) 0.39658(12)
C46 C -0.18705(18) 0.57244(12) 0.44473(12)
C47 C -0.2209(2) 0.65442(13) 0.45538(13)
H50 H -0.18780 0.69680 0.42770
C48 C -0.3023(2) 0.67397(13) 0.50599(14)
H51 H -0.32890 0.72840 0.51170
C49 C -0.34402(19) 0.61242(13) 0.54816(12)
C50 C -0.30898(19) 0.53209(13) 0.54100(12)
H52 H -0.33720 0.49200 0.57230
C51 C -0.23199(19) 0.51123(13) 0.48740(12)
H53 H -0.20970 0.45520 0.47960
C52 C 0.2683(2) 0.79317(14) 0.14204(14)
H54 H 0.28350 0.83470 0.20200
H55 H 0.28170 0.82890 0.10170
H56 H 0.33480 0.75790 0.14840
C53 C -0.46504(19) 0.30901(13) 0.14094(13)
H57 H -0.52630 0.30950 0.17630
H58 H -0.48710 0.24670 0.10020
H59 H -0.47880 0.35040 0.10480
C54 C 0.04815(18) 0.36282(13) 0.17655(12)
H60 H 0.04220 0.40170 0.13660
H61 H 0.14150 0.38900 0.22510
C55 C 0.0364(2) 0.26833(13) 0.12132(13)
H62 H -0.04660 0.23590 0.07000
C56 C 0.1326(2) 0.22753(15) 0.13893(15)
H63 H 0.21690 0.25790 0.18970
H64 H 0.11800 0.16760 0.10090
N3 N -0.13358(15) 0.48791(10) 0.31626(10)
N4 N -0.42899(18) 0.63330(12) 0.60325(12)
O5 O 0.12962(14) 0.73178(9) 0.10420(9)
O6 O 0.03492(13) 0.60471(9) 0.43419(8)
O7 O -0.43079(16) 0.59526(12) 0.66093(10)
O8 O -0.4966(2) 0.68568(12) 0.58720(14)
#END
