
#######################################################################
#
#                 Cambridge Crystallographic Data Centre
#                                CCDC
#
#######################################################################
#
# If this CIF has been generated from an entry in the Cambridge
# Structural Database, then it will include bibliographic, chemical,
# crystal, experimental, refinement or atomic coordinate data resulting
# from the CCDC's data processing and validation procedures.
#
#######################################################################

data_CSD_CIF_CEVBOV
_audit_creation_date 2007-03-22
_audit_creation_method CSD-ConQuest-V1
_database_code_CSD CEVBOV
_database_code_depnum_ccdc_archive 'CCDC 606968'
_chemical_formula_sum 'C17 H15 N2 O2'
_chemical_formula_moiety
;
C17 H15 N2 O2
;
_journal_coden_Cambridge 35
_journal_volume 71
_journal_year 2006
_journal_page_first 9341
_journal_name_full 'J.Org.Chem. '
loop_
_publ_author_name
"Z.Delen"
"P.M.Lahti"
_chemical_name_systematic
;
1-(4-(N-(p-methoxyphenyl)-N-aminoxyl)phenyl)pyrrole
;
_chemical_melting_point 457.15
_cell_volume   1369.864
_exptl_crystal_colour 'red'
_exptl_crystal_density_diffrn 1.354
_exptl_special_details
;
Melting point range 457.15-458.15K
magnetic properties

;
_exptl_crystal_description 'block'
_exptl_crystal_preparation 'dichloromethane'
_diffrn_ambient_temperature 298
#These two values have been output from a single CSD field.
_refine_ls_R_factor_gt 0.0608
_refine_ls_wR_factor_gt 0.0608
_symmetry_cell_setting monoclinic
_symmetry_space_group_name_H-M 'C c'
_symmetry_Int_Tables_number 9
loop_
_symmetry_equiv_pos_site_id
_symmetry_equiv_pos_as_xyz
1 x,y,z
2 1/2+x,1/2+y,z
3 x,-y,1/2+z
4 1/2+x,1/2-y,1/2+z
_cell_length_a 30.002(2)
_cell_length_b 7.3588(4)
_cell_length_c 6.2049(4)
_cell_angle_alpha 90
_cell_angle_beta 90.467(2)
_cell_angle_gamma 90
_cell_formula_units_Z 4
loop_
_atom_type_symbol
_atom_type_radius_bond
C 0.68
H 0.23
N 0.68
O 0.68
loop_
_atom_site_label
_atom_site_type_symbol
_atom_site_fract_x
_atom_site_fract_y
_atom_site_fract_z
O1 O 0.41374(14) 0.2631(7) 0.1627(7)
O2 O 0.58659(15) 0.2469(7) 0.7193(6)
N1 N 0.58497(15) 0.2466(8) 0.5124(6)
N2 N 0.75014(16) 0.2531(7) 0.0923(8)
C1 C 0.4030(2) 0.1745(12) -0.0347(11)
C2 C 0.45691(17) 0.2525(9) 0.2358(8)
C3 C 0.46532(18) 0.3371(8) 0.4326(8)
C4 C 0.50742(18) 0.3355(8) 0.5202(8)
C5 C 0.54199(18) 0.2513(8) 0.4126(8)
C6 C 0.53376(18) 0.1682(8) 0.2162(8)
C7 C 0.49122(18) 0.1688(8) 0.1278(8)
C8 C 0.62580(18) 0.2439(7) 0.3992(9)
C9 C 0.66303(18) 0.1738(8) 0.5025(8)
C10 C 0.7038(2) 0.1777(8) 0.4032(8)
C11 C 0.70818(17) 0.2487(8) 0.1966(8)
C12 C 0.67041(17) 0.3187(8) 0.0939(8)
C13 C 0.62965(18) 0.3173(7) 0.1945(8)
C14 C 0.78804(19) 0.1642(9) 0.1571(10)
C15 C 0.8211(2) 0.2038(10) 0.0183(11)
C16 C 0.8036(2) 0.3217(11) -0.1373(12)
C17 C 0.7604(2) 0.3483(9) -0.0901(10)
H1 H 0.37210 0.19420 -0.06900
H2 H 0.40850 0.04660 -0.02060
H3 H 0.42110 0.22300 -0.14780
H4 H 0.44230 0.39500 0.50500
H5 H 0.51280 0.39120 0.65240
H6 H 0.55690 0.11180 0.14330
H7 H 0.48580 0.11280 -0.00420
H8 H 0.66050 0.12400 0.63960
H9 H 0.72870 0.13230 0.47490
H10 H 0.67280 0.36690 -0.04410
H11 H 0.60470 0.36550 0.12510
H12 H 0.79060 0.08900 0.27700
H13 H 0.85020 0.16040 0.02510
H14 H 0.81900 0.37250 -0.25200
H15 H 0.74060 0.41990 -0.16910
#END
