
#######################################################################
#
#                 Cambridge Crystallographic Data Centre
#                                CCDC
#
#######################################################################
#
# If this CIF has been generated from an entry in the Cambridge
# Structural Database, then it will include bibliographic, chemical,
# crystal, experimental, refinement or atomic coordinate data resulting
# from the CCDC's data processing and validation procedures.
#
#######################################################################

data_CSD_CIF_CEVJAR
_audit_creation_date 2018-02-15
_audit_creation_method CSD-ConQuest-V1
_database_code_CSD CEVJAR
_database_code_depnum_ccdc_archive 'CCDC 1534444'
_chemical_formula_sum 'C12 H15 N1 O5'
_chemical_formula_moiety
;
C12 H15 N1 O5
;
_journal_coden_Cambridge 1563
_journal_volume 9
_journal_year 2017
_journal_page_first 55
_journal_name_full 'Der Pharma Chemica: J. Med. Chem. Pharm. Chem. Comput. Chem '
loop_
_publ_author_name
"S.Shenvi"
"C.Reddy G."
"Naveen S."
"L.NK"
"A.K.CS"
_chemical_name_systematic
;
1,2,4-trimethoxy-5-(2-nitroprop-1-en-1-yl)benzene
;
_cell_volume   1214.494
_exptl_crystal_colour 'white'
_exptl_crystal_density_diffrn 1.385
_exptl_crystal_description 'Rectangle'
_diffrn_ambient_temperature 296
#These two values have been output from a single CSD field.
_refine_ls_R_factor_gt 0.0301
_refine_ls_wR_factor_gt 0.0301
_symmetry_cell_setting monoclinic
_symmetry_space_group_name_H-M 'P 21'
_symmetry_Int_Tables_number 4
loop_
_symmetry_equiv_pos_site_id
_symmetry_equiv_pos_as_xyz
1 x,y,z
2 -x,1/2+y,-z
_cell_length_a 9.9508(2)
_cell_length_b 9.5623(2)
_cell_length_c 12.7917(3)
_cell_angle_alpha 90
_cell_angle_beta 93.795(1)
_cell_angle_gamma 90
_cell_formula_units_Z 4
loop_
_atom_type_symbol
_atom_type_radius_bond
C 0.68
H 0.23
N 0.68
O 0.68
loop_
_atom_site_label
_atom_site_type_symbol
_atom_site_fract_x
_atom_site_fract_y
_atom_site_fract_z
O1 O 0.44630(12) 0.05217(15) 0.89608(9)
O2 O 0.36894(15) 0.47743(17) 0.41269(10)
O3 O 0.27597(12) 0.17468(16) 1.00789(9)
O4 O 0.12177(12) 0.46509(16) 0.71177(10)
O5 O 0.30469(15) 0.2934(2) 0.32425(10)
N1 N 0.33281(15) 0.35368(19) 0.40767(11)
C1 C 0.19133(17) 0.3238(2) 0.86434(14)
H1 H 0.12990 0.36760 0.90530
C2 C 0.36783(16) 0.1518(2) 0.84511(14)
C3 C 0.29094(17) 0.2964(2) 0.69713(14)
C4 C 0.37393(16) 0.1911(2) 0.74153(13)
H2 H 0.43460 0.14640 0.70040
C5 C 0.32307(16) 0.2740(2) 0.50528(13)
C6 C 0.27537(17) 0.2196(2) 0.90667(14)
C7 C 0.30422(17) 0.3504(2) 0.59085(13)
H3 H 0.29900 0.44680 0.58210
C8 C 0.19984(17) 0.3624(2) 0.75964(14)
C9 C 0.53160(18) -0.0281(2) 0.83242(15)
H4 H 0.47800 -0.07050 0.77580
H5 H 0.57630 -0.09960 0.87430
H6 H 0.59750 0.03230 0.80450
C10 C 0.02126(18) 0.5290(2) 0.77059(15)
H7 H -0.04190 0.45940 0.79010
H8 H -0.02510 0.59950 0.72870
H9 H 0.06320 0.57120 0.83260
C11 C 0.3230(2) 0.1193(2) 0.49206(15)
H10 H 0.41230 0.08820 0.47970
H11 H 0.26250 0.09410 0.43350
H12 H 0.29420 0.07590 0.55440
C12 C 0.17636(17) 0.2321(3) 1.07125(14)
H13 H 0.18770 0.33160 1.07590
H14 H 0.18640 0.19210 1.14010
H15 H 0.08820 0.21110 1.04020
O6 O 0.04504(12) 0.55171(15) 0.10423(10)
O7 O 0.39874(12) 0.94409(15) 0.27982(9)
O8 O 0.19729(12) 0.68905(16) -0.01792(9)
O9 O 0.37207(13) 0.77691(19) 0.61388(10)
O10 O 0.17279(14) 0.7962(2) 0.66988(10)
N2 N 0.24821(15) 0.7806(2) 0.59869(11)
C13 C 0.30074(17) 0.8237(2) 0.12617(14)
H16 H 0.35070 0.87640 0.08150
C14 C 0.13113(17) 0.6471(2) 0.15268(14)
C15 C 0.31489(16) 0.8460(2) 0.23435(14)
C16 C 0.24053(16) 0.7670(2) 0.30259(13)
C17 C 0.14763(17) 0.6692(2) 0.25920(14)
H17 H 0.09590 0.61800 0.30350
C18 C 0.27041(16) 0.7822(2) 0.41472(13)
H18 H 0.35850 0.80690 0.43570
C19 C 0.47667(18) 1.0274(2) 0.21336(15)
H19 H 0.53540 0.96800 0.17660
H20 H 0.52930 1.09340 0.25510
H21 H 0.41750 1.07670 0.16370
C20 C 0.18712(17) 0.7651(2) 0.49171(13)
C21 C 0.21180(17) 0.7227(2) 0.08592(14)
C22 C -0.03225(19) 0.4697(2) 0.17143(16)
H22 H 0.02720 0.41820 0.21940
H23 H -0.08790 0.40560 0.13010
H24 H -0.08820 0.53000 0.21000
C23 C 0.30561(18) 0.7284(2) -0.08037(14)
H25 H 0.30970 0.82840 -0.08510
H26 H 0.29060 0.68940 -0.14930
H27 H 0.38900 0.69360 -0.04850
C24 C 0.03879(18) 0.7417(3) 0.48615(14)
H28 H 0.00160 0.76230 0.41670
H29 H -0.00140 0.80180 0.53540
H30 H 0.02060 0.64590 0.50270
#END
