
#######################################################################
#
#                 Cambridge Crystallographic Data Centre
#                                CCDC
#
#######################################################################
#
# If this CIF has been generated from an entry in the Cambridge
# Structural Database, then it will include bibliographic, chemical,
# crystal, experimental, refinement or atomic coordinate data resulting
# from the CCDC's data processing and validation procedures.
#
#######################################################################

data_CSD_CIF_CEWKIA
_audit_creation_date 2013-05-13
_audit_creation_method CSD-ConQuest-V1
_database_code_CSD CEWKIA
_database_code_depnum_ccdc_archive 'CCDC 868583'
_chemical_formula_sum 'C12 H10 N2 O6'
_chemical_formula_moiety
;
C12 H10 N2 O6
;
_journal_coden_Cambridge 35
_journal_volume 77
_journal_year 2012
_journal_page_first 5313
_journal_name_full 'J.Org.Chem. '
loop_
_publ_author_name
"Xinfang Xu"
"D.Shabashov"
"P.Y.Zavalij"
"M.P.Doyle"
_chemical_name_systematic
;
Methyl 1-(2-nitrophenyl)-3-oxo-2-oxa-6-azabicyclo[3.1.0]hexane-5-carboxylate
;
_chemical_melting_point 428.15
_cell_volume   1185.285
_exptl_crystal_colour 'colorless'
_exptl_crystal_density_diffrn 1.559
_exptl_special_details
;
Melting point range 428.15-429.15K

;
_exptl_crystal_description 'prism'
_diffrn_ambient_temperature 150
#These two values have been output from a single CSD field.
_refine_ls_R_factor_gt 0.035
_refine_ls_wR_factor_gt 0.035
_symmetry_cell_setting monoclinic
_symmetry_space_group_name_H-M 'P 21/c'
_symmetry_Int_Tables_number 14
loop_
_symmetry_equiv_pos_site_id
_symmetry_equiv_pos_as_xyz
1 x,y,z
2 -x,1/2+y,1/2-z
3 -x,-y,-z
4 x,-1/2-y,-1/2+z
_cell_length_a 6.8882(5)
_cell_length_b 20.8439(15)
_cell_length_c 8.2554(6)
_cell_angle_alpha 90
_cell_angle_beta 90.028(1)
_cell_angle_gamma 90
_cell_formula_units_Z 4
loop_
_atom_type_symbol
_atom_type_radius_bond
C 0.68
H 0.23
N 0.68
O 0.68
loop_
_atom_site_label
_atom_site_type_symbol
_atom_site_fract_x
_atom_site_fract_y
_atom_site_fract_z
O1 O 0.84266(11) 0.12124(4) 0.5187(1)
O2 O 0.79675(12) 0.16749(4) 0.28704(10)
N1 N 0.74603(12) 0.13117(4) 0.39619(10)
C1 C 0.55717(14) 0.09844(5) 0.38222(11)
C2 C 0.46468(15) 0.08402(5) 0.52704(12)
H1 H 0.523(2) 0.0953(7) 0.6261(17)
C3 C 0.28351(16) 0.05503(5) 0.52302(13)
H2 H 0.218(2) 0.0459(7) 0.6266(18)
C4 C 0.20088(16) 0.03868(5) 0.37519(13)
H3 H 0.077(2) 0.0170(7) 0.3692(17)
C5 C 0.29701(15) 0.05248(5) 0.23086(12)
H4 H 0.243(2) 0.0405(7) 0.1334(17)
C6 C 0.47552(14) 0.08401(5) 0.23115(11)
C7 C 0.56841(14) 0.09925(5) 0.07291(11)
N2 N 0.46109(13) 0.10460(4) -0.07697(10)
H5 H 0.334(2) 0.1073(7) -0.0609(17)
C8 C 0.56796(14) 0.16186(5) -0.01539(11)
C9 C 0.76555(15) 0.16863(5) -0.09055(12)
H6 H 0.839(2) 0.2036(7) -0.0418(17)
H7 H 0.763(2) 0.1741(7) -0.2062(18)
C10 C 0.86539(15) 0.10596(6) -0.05004(12)
O3 O 0.75209(10) 0.06896(4) 0.05008(9)
O4 O 1.02141(11) 0.08727(5) -0.09446(10)
C11 C 0.46904(15) 0.21948(5) 0.05188(12)
O5 O 0.55089(13) 0.26968(4) 0.07538(12)
O6 O 0.28179(11) 0.20857(4) 0.08428(10)
C12 C 0.17527(19) 0.26248(6) 0.15180(18)
H8 H 0.055(3) 0.2442(8) 0.188(2)
H9 H 0.157(3) 0.2942(9) 0.073(2)
H10 H 0.252(3) 0.2825(9) 0.240(2)
#END
