
#######################################################################
#
#                 Cambridge Crystallographic Data Centre
#                                CCDC
#
#######################################################################
#
# If this CIF has been generated from an entry in the Cambridge
# Structural Database, then it will include bibliographic, chemical,
# crystal, experimental, refinement or atomic coordinate data resulting
# from the CCDC's data processing and validation procedures.
#
#######################################################################

data_CSD_CIF_CEXGAO
_audit_creation_date 2007-03-22
_audit_creation_method CSD-ConQuest-V1
_database_code_CSD CEXGAO
_database_code_depnum_ccdc_archive 'CCDC 635975'
_database_code_depnum_ccdc_journal 1267/1851
_chemical_formula_sum 'C19 H23 N1 O2'
_chemical_formula_moiety
;
C19 H23 N1 O2
;
_journal_coden_Cambridge 1267
_journal_volume 221
_journal_year 2006
_journal_page_first 398
_journal_name_full 'Z.Kristallogr.-New Cryst.Struct. '
loop_
_publ_author_name
"S.Florio"
"V.Capriati"
"R.Luisi"
"A.Salomone"
"C.Cuocci"
_chemical_name_systematic
;
(N-t-Butyl-3,4-diphenyl-1,2-oxazetidin-4-yl)methanol
;
_chemical_melting_point 355
_cell_volume   3442.966
_exptl_crystal_colour 'colorless'
_exptl_crystal_density_diffrn 1.147
_exptl_special_details
;
Melting point range 355-356K

;
_exptl_crystal_description 'prism'
_diffrn_ambient_temperature 293
#These two values have been output from a single CSD field.
_refine_ls_R_factor_gt 0.0771
_refine_ls_wR_factor_gt 0.0771
_symmetry_cell_setting orthorhombic
_symmetry_space_group_name_H-M 'P b c 21'
_symmetry_Int_Tables_number 29
loop_
_symmetry_equiv_pos_site_id
_symmetry_equiv_pos_as_xyz
1 x,y,z
2 -x,-y,1/2+z
3 -x,1/2+y,z
4 x,1/2-y,1/2+z
_cell_length_a 9.481(1)
_cell_length_b 12.073(1)
_cell_length_c 30.079(5)
_cell_angle_alpha 90
_cell_angle_beta 90
_cell_angle_gamma 90
_cell_formula_units_Z 8
loop_
_atom_type_symbol
_atom_type_radius_bond
C 0.68
H 0.23
N 0.68
O 0.68
loop_
_atom_site_label
_atom_site_type_symbol
_atom_site_fract_x
_atom_site_fract_y
_atom_site_fract_z
C1 C 0.5759(5) -0.0486(3) -0.23470(14)
H1 H 0.65500 -0.05960 -0.21690
C2 C 0.5908(9) 0.0097(5) -0.2753(2)
H2 H 0.67860 0.03540 -0.28450
C3 C 0.4722(13) 0.0275(6) -0.3010(2)
H3 H 0.47900 0.06640 -0.32760
C4 C 0.3447(9) -0.0125(6) -0.28700(18)
H4 H 0.26510 0.00150 -0.30420
C5 C 0.3294(6) -0.0731(4) -0.24814(14)
H5 H 0.24240 -0.10260 -0.24020
C6 C 0.4484(4) -0.0889(3) -0.22091(11)
C7 C 0.4371(3) -0.1568(3) -0.17896(10)
C8 C 0.4138(4) -0.2788(3) -0.19034(12)
H6 H 0.33820 -0.28480 -0.21190
H7 H 0.49870 -0.30850 -0.20380
C9 C 0.3465(3) -0.1085(2) -0.14081(10)
H8 H 0.321(3) -0.163(3) -0.1228(10)
C10 C 0.2243(3) -0.0311(2) -0.14794(10)
C11 C 0.0902(3) -0.0750(3) -0.14849(14)
H9 H 0.07770 -0.15060 -0.14410
C12 C -0.0268(4) -0.0078(4) -0.15553(16)
H10 H -0.11680 -0.03840 -0.15590
C13 C -0.0086(4) 0.1027(4) -0.16180(16)
H11 H -0.08590 0.14780 -0.16770
C14 C 0.1219(4) 0.1470(3) -0.15942(14)
H12 H 0.13260 0.22330 -0.16210
C15 C 0.2394(3) 0.0818(3) -0.15316(12)
H13 H 0.32860 0.11380 -0.15240
C16 C 0.5130(3) -0.0796(3) -0.07582(13)
C17 C 0.5141(4) -0.2007(3) -0.06140(14)
H14 H 0.58570 -0.24000 -0.07760
H15 H 0.42370 -0.23330 -0.06740
H16 H 0.53350 -0.20520 -0.03010
C18 C 0.6595(4) -0.0305(3) -0.06755(14)
H17 H 0.72860 -0.07210 -0.08380
H18 H 0.68070 -0.03370 -0.03640
H19 H 0.66100 0.04520 -0.07730
C19 C 0.4023(4) -0.0152(3) -0.04989(13)
H20 H 0.31100 -0.04700 -0.05520
H21 H 0.40250 0.06070 -0.05940
H22 H 0.42360 -0.01870 -0.01870
O1 O 0.3791(3) -0.3423(2) -0.15232(10)
O2 O 0.56149(19) -0.14101(17) -0.15161(8)
N1 N 0.4801(3) -0.06026(19) -0.12336(9)
H23 H 0.413(4) -0.401(3) -0.1510(13)
C20 C -0.0791(5) 0.2070(3) 0.15306(14)
H24 H -0.15830 0.19360 0.13570
C21 C -0.0929(8) 0.2644(5) 0.1919(2)
H25 H -0.18110 0.28910 0.20110
C22 C 0.0270(13) 0.2856(6) 0.2175(3)
H26 H 0.01910 0.32810 0.24320
C23 C 0.1565(9) 0.2445(6) 0.20523(19)
H27 H 0.23510 0.25520 0.22320
C24 C 0.1677(6) 0.1878(4) 0.16619(14)
H28 H 0.25540 0.16130 0.15730
C25 C 0.0497(4) 0.1687(3) 0.13930(12)
C26 C 0.0653(3) 0.1009(2) 0.09694(11)
C27 C 0.0905(4) -0.0224(3) 0.10810(13)
H29 H 0.16610 -0.02770 0.12970
H30 H 0.00590 -0.05250 0.12160
C28 C 0.1556(3) 0.1496(2) 0.05867(10)
H31 H 0.191(3) 0.090(3) 0.0426(11)
C29 C 0.2753(3) 0.2303(2) 0.06619(10)
C30 C 0.2562(3) 0.3424(3) 0.06965(12)
H32 H 0.16590 0.37210 0.06800
C31 C 0.3715(4) 0.4121(3) 0.07569(15)
H33 H 0.35770 0.48820 0.07720
C32 C 0.5050(4) 0.3698(4) 0.07938(17)
H34 H 0.58170 0.41680 0.08340
C33 C 0.5244(4) 0.2570(4) 0.07712(16)
H35 H 0.61390 0.22690 0.08100
C34 C 0.4103(4) 0.1886(3) 0.06902(16)
H36 H 0.42500 0.11300 0.06540
C35 C -0.0123(4) 0.1765(3) -0.00732(13)
C36 C -0.0032(4) 0.0550(3) -0.02065(17)
H37 H 0.09110 0.02860 -0.01590
H38 H -0.02730 0.04740 -0.05150
H39 H -0.06770 0.01250 -0.00290
C37 C 0.0953(4) 0.2465(4) -0.03242(12)
H40 H 0.08650 0.32250 -0.02350
H41 H 0.07850 0.24040 -0.06380
H42 H 0.18870 0.22060 -0.02580
C38 C -0.1594(4) 0.2210(4) -0.01408(15)
H43 H -0.16210 0.29780 -0.00580
H44 H -0.22440 0.18000 0.00410
H45 H -0.18540 0.21350 -0.04480
O3 O 0.1253(3) -0.08572(18) 0.07126(10)
O4 O -0.0584(2) 0.11371(17) 0.06917(8)
N2 N 0.0208(3) 0.1955(2) 0.04115(9)
H46 H 0.062(4) -0.158(3) 0.0654(12)
#END
