
#######################################################################
#
#                 Cambridge Crystallographic Data Centre
#                                CCDC
#
#######################################################################
#
# If this CIF has been generated from an entry in the Cambridge
# Structural Database, then it will include bibliographic, chemical,
# crystal, experimental, refinement or atomic coordinate data resulting
# from the CCDC's data processing and validation procedures.
#
#######################################################################

data_CSD_CIF_CEXYIO
_audit_creation_date 2007-06-14
_audit_creation_method CSD-ConQuest-V1
_database_code_CSD CEXYIO
_database_code_depnum_ccdc_archive 'CCDC 612082'
_chemical_formula_sum 'C10 H13 N3 O1'
_chemical_formula_moiety
;
C10 H13 N3 O1
;
_journal_coden_Cambridge 16
_journal_volume 63
_journal_year 2007
_journal_page_first 419
_journal_name_full 'Tetrahedron '
loop_
_publ_author_name
"F.Crestey"
"S.Stiebing"
"R.Legay"
"V.Collot"
"S.Rault"
_chemical_name_systematic
;
1-(1H-Indazol-3-yl)-N-methoxy-N-methylmethanamine
;
_chemical_melting_point 342
_cell_volume    499.584
_exptl_crystal_colour 'colorless'
_exptl_crystal_density_diffrn 1.271
_exptl_crystal_description 'polyhedron'
_exptl_crystal_preparation 'acetone'
_diffrn_ambient_temperature 150
#These two values have been output from a single CSD field.
_refine_ls_R_factor_gt 0.0454
_refine_ls_wR_factor_gt 0.0454
_symmetry_cell_setting monoclinic
_symmetry_space_group_name_H-M 'P 21'
_symmetry_Int_Tables_number 4
loop_
_symmetry_equiv_pos_site_id
_symmetry_equiv_pos_as_xyz
1 x,y,z
2 -x,1/2+y,-z
_cell_length_a 7.4495(4)
_cell_length_b 6.1744(3)
_cell_length_c 11.2283(6)
_cell_angle_alpha 90
_cell_angle_beta 104.687(3)
_cell_angle_gamma 90
_cell_formula_units_Z 2
loop_
_atom_type_symbol
_atom_type_radius_bond
C 0.68
H 0.23
N 0.68
O 0.68
loop_
_atom_site_label
_atom_site_type_symbol
_atom_site_fract_x
_atom_site_fract_y
_atom_site_fract_z
N1 N 0.32432(10) 0.36621(13) 0.44209(7)
N2 N 0.4116(1) 0.19279(12) 0.40691(8)
N3 N 0.25295(13) -0.15264(15) 0.15082(8)
O1 O 0.35297(13) 0.00495(17) 0.09717(9)
C1 C 0.13768(11) 0.35867(14) 0.39045(7)
C2 C 0.10282(11) 0.16819(13) 0.31950(8)
C3 C 0.28139(12) 0.07309(13) 0.33377(8)
C4 C -0.08082(12) 0.10987(16) 0.26006(9)
H1 H -0.10630 -0.01550 0.21290
C5 C -0.00488(13) 0.49943(16) 0.40231(9)
H2 H 0.01960 0.62730 0.44730
C6 C 0.33093(15) -0.13503(16) 0.28253(9)
H3 H 0.46490 -0.14640 0.30000
H4 H 0.28640 -0.25470 0.32320
C7 C -0.22179(13) 0.2447(2) 0.27408(10)
H5 H -0.34430 0.20790 0.23710
C8 C -0.18323(13) 0.4375(2) 0.34356(10)
H6 H -0.28150 0.52570 0.34990
C9 C 0.2976(2) -0.3650(2) 0.10823(13)
H7 H 0.27180 -0.36480 0.02000
H8 H 0.22350 -0.47390 0.13410
H9 H 0.42670 -0.39580 0.14270
C10 C 0.2227(2) 0.1067(2) -0.00282(12)
H10 H 0.16310 -0.00130 -0.06100
H11 H 0.28640 0.20780 -0.04250
H12 H 0.13100 0.18190 0.02800
H13 H 0.376(3) 0.461(3) 0.4894(17)
#END
