
#######################################################################
#
#                 Cambridge Crystallographic Data Centre
#                                CCDC
#
#######################################################################
#
# If this CIF has been generated from an entry in the Cambridge
# Structural Database, then it will include bibliographic, chemical,
# crystal, experimental, refinement or atomic coordinate data resulting
# from the CCDC's data processing and validation procedures.
#
#######################################################################

data_CSD_CIF_CEYDUF
_audit_creation_date 1985-02-07
_audit_creation_method CSD-ConQuest-V1
_database_code_CSD CEYDUF
_database_code_depnum_ccdc_archive 'CCDC 1124027'
_chemical_formula_sum 'C5 H4 N8 O16'
_chemical_formula_moiety
;
C5 H4 N8 O16
;
_journal_coden_Cambridge 182
_journal_year 1984
_journal_page_first 709
_journal_name_full 'Chem.Commun. '
loop_
_publ_author_name
"L.T.Eremenko"
"L.O.Atovmyan"
"N.I.Golovina"
"G.V.Oreshko"
"M.A.Fadeev"
_chemical_name_systematic
;
1,1,1,3,3,5,5,5-Octanitropentane
;
_chemical_melting_point 320.65
_cell_volume   1479.395
_exptl_crystal_colour 'colorless'
_exptl_crystal_density_diffrn 1.94
_exptl_special_details
;
Melting point range 320.65-321.65K
gamma was given as beta

;
_diffrn_ambient_temperature 100
#These two values have been output from a single CSD field.
_refine_ls_R_factor_gt 0.054
_refine_ls_wR_factor_gt 0.054
_symmetry_cell_setting monoclinic
_symmetry_space_group_name_H-M 'P 1 1 21/a'
_symmetry_Int_Tables_number 14
loop_
_symmetry_equiv_pos_site_id
_symmetry_equiv_pos_as_xyz
1 x,y,z
2 1/2-x,-y,1/2+z
3 -x,-y,-z
4 -1/2+x,y,-1/2-z
_cell_length_a 18.555(5)
_cell_length_b 6.3675(5)
_cell_length_c 12.673(2)
_cell_angle_alpha 90
_cell_angle_beta 90
_cell_angle_gamma 98.87(2)
_cell_formula_units_Z 4
loop_
_atom_type_symbol
_atom_type_radius_bond
C 0.68
H 0.23
N 0.68
O 0.68
loop_
_atom_site_label
_atom_site_type_symbol
_atom_site_fract_x
_atom_site_fract_y
_atom_site_fract_z
O1 O 0.20710 0.75270 0.03480
O2 O 0.27390 0.94240 -0.08010
O3 O 0.11720 1.30900 0.02060
O4 O 0.16000 1.17100 -0.11780
O5 O 0.07930 1.25770 0.26230
O6 O -0.00790 1.04140 0.19050
O7 O 0.07910 0.85000 0.35990
O8 O 0.16290 0.70380 0.28030
O9 O 0.06820 0.85740 0.01600
O10 O 0.04060 0.62530 0.14010
O11 O 0.28420 1.48090 0.24400
O12 O 0.35770 1.26970 0.29660
O13 O 0.40070 1.56870 -0.00560
O14 O 0.43940 1.58780 0.15470
O15 O 0.34370 0.95990 0.13370
O16 O 0.44610 1.14990 0.08810
N1 N 0.23340 0.92190 -0.00500
N2 N 0.15730 1.20520 -0.02490
N3 N 0.05420 1.09930 0.21360
N4 N 0.11720 0.82100 0.28540
N5 N 0.06960 0.79370 0.10520
N6 N 0.32720 1.35640 0.22980
N7 N 0.40090 1.51230 0.08380
N8 N 0.38300 1.12540 0.11100
C1 C 0.10990 0.95120 0.18510
C2 C 0.18500 1.07450 0.15890
C3 C 0.21390 1.12200 0.04870
C4 C 0.27890 1.30520 0.04100
C5 C 0.34370 1.31860 0.11530
H1 H 0.18610 1.20670 0.19440
H2 H 0.21850 1.00460 0.19020
H3 H 0.26230 1.43970 0.06030
H4 H 0.29770 1.29850 -0.02650
#END
