
#######################################################################
#
#                 Cambridge Crystallographic Data Centre
#                                CCDC
#
#######################################################################
#
# If this CIF has been generated from an entry in the Cambridge
# Structural Database, then it will include bibliographic, chemical,
# crystal, experimental, refinement or atomic coordinate data resulting
# from the CCDC's data processing and validation procedures.
#
#######################################################################

data_CSD_CIF_CEYGET
_audit_creation_date 2007-06-14
_audit_creation_method CSD-ConQuest-V1
_database_code_CSD CEYGET
_database_code_depnum_ccdc_archive 'CCDC 286026'
_chemical_formula_sum 'C19 H19 N1 O1'
_chemical_formula_moiety
;
C19 H19 N1 O1
;
_journal_coden_Cambridge 920
_journal_volume 2
_journal_year 2007
_journal_page_first 273
_journal_name_full 'Chem.Asian J. '
loop_
_publ_author_name
"Ligang Zhao"
"B.Yucel"
"R.P.Scheurich"
"D.Frank"
"A.de Meijere"
_chemical_name_systematic
;
8-(2-Methylphenyl)-4-phenyl-5-oxa-4-azaspiro(2.5)oct-7-ene
;
_cell_volume   1487.906
_exptl_crystal_density_diffrn 1.238
_diffrn_ambient_temperature 133
#These two values have been output from a single CSD field.
_refine_ls_R_factor_gt 0.052
_refine_ls_wR_factor_gt 0.052
_symmetry_cell_setting triclinic
_symmetry_space_group_name_H-M 'P -1'
_symmetry_Int_Tables_number 2
loop_
_symmetry_equiv_pos_site_id
_symmetry_equiv_pos_as_xyz
1 x,y,z
2 -x,-y,-z
_cell_length_a 9.9510(9)
_cell_length_b 10.7639(11)
_cell_length_c 14.9542(14)
_cell_angle_alpha 100.884(8)
_cell_angle_beta 96.444(8)
_cell_angle_gamma 106.121(8)
_cell_formula_units_Z 4
loop_
_atom_type_symbol
_atom_type_radius_bond
C 0.68
H 0.23
N 0.68
O 0.68
loop_
_atom_site_label
_atom_site_type_symbol
_atom_site_fract_x
_atom_site_fract_y
_atom_site_fract_z
C1 C 0.2479(3) 0.3428(3) 0.5537(2)
C2 C -0.0637(4) 0.8177(3) 0.9828(2)
C3 C 0.3941(3) 0.4042(3) 0.6088(2)
C4 C -0.1338(3) 0.6847(3) 0.9998(2)
C5 C 0.3566(3) 0.2681(3) 0.5448(2)
C6 C -0.1257(3) 0.6991(3) 0.9022(2)
N1 N 0.4133(3) 0.2686(2) 0.4601(2)
N2 N -0.0194(3) 0.6496(2) 0.8628(2)
O1 O 0.3235(2) 0.1533(2) 0.3910(1)
O2 O 0.0199(2) 0.7161(2) 0.7898(2)
C7 C 0.3371(3) 0.0331(3) 0.4148(2)
C8 C -0.0987(4) 0.6757(3) 0.7138(2)
C9 C 0.3288(3) 0.0334(3) 0.5135(2)
C10 C -0.2336(3) 0.6779(3) 0.7458(2)
C11 C 0.3341(3) 0.1408(3) 0.5759(2)
C12 C -0.2494(3) 0.6925(3) 0.8335(2)
C13 C 0.5610(3) 0.2792(3) 0.4617(2)
C14 C -0.0466(3) 0.5091(3) 0.8320(2)
C15 C 0.6078(3) 0.2589(3) 0.3771(2)
C16 C 0.0505(3) 0.4642(3) 0.7858(2)
C17 C 0.7512(3) 0.2803(3) 0.3757(2)
C18 C 0.0364(4) 0.3298(3) 0.7638(2)
C19 C 0.8486(3) 0.3208(3) 0.4573(2)
C20 C -0.0748(4) 0.2390(3) 0.7872(2)
C21 C 0.8017(3) 0.3387(3) 0.5405(2)
C22 C -0.1724(3) 0.2831(3) 0.8309(2)
C23 C 0.6579(3) 0.3176(3) 0.5435(2)
C24 C -0.1595(3) 0.4173(3) 0.8539(2)
C25 C -0.3836(3) 0.7033(3) 0.8656(2)
C26 C 0.3209(3) 0.1359(3) 0.6741(2)
C27 C -0.4214(3) 0.8206(3) 0.8734(2)
C28 C 0.1935(3) 0.0634(3) 0.6965(2)
C29 C -0.5524(4) 0.8226(3) 0.9005(2)
C30 C 0.1912(4) 0.0545(3) 0.7884(2)
C31 C -0.6412(4) 0.7100(4) 0.9175(2)
C32 C 0.3095(4) 0.1168(3) 0.8563(2)
C33 C -0.6038(4) 0.5955(4) 0.9115(2)
C34 C 0.4337(4) 0.1902(3) 0.8350(2)
C35 C -0.4776(3) 0.5907(3) 0.8854(2)
C36 C 0.4391(3) 0.1988(3) 0.7440(2)
C37 C -0.3266(4) 0.9433(3) 0.8535(2)
C38 C 0.0612(3) -0.0017(3) 0.6250(2)
H1 H 0.22170 0.38050 0.50130
H2 H 0.16960 0.31010 0.58700
H3 H 0.04110 0.85350 0.99950
H4 H -0.11410 0.88530 0.99190
H5 H 0.40600 0.40950 0.67620
H6 H 0.45810 0.47990 0.59050
H7 H -0.22760 0.67010 1.01960
H8 H -0.07240 0.63840 1.02720
H9 H 0.42930 0.02250 0.40210
H10 H 0.26070 -0.04390 0.37510
H11 H -0.10900 0.58480 0.67890
H12 H -0.07860 0.73610 0.67120
H13 H 0.31920 -0.04740 0.53280
H14 H -0.31350 0.66810 0.70080
H15 H 0.54150 0.23060 0.32090
H16 H 0.12680 0.52590 0.76930
H17 H 0.78310 0.26700 0.31810
H18 H 0.10340 0.29980 0.73240
H19 H 0.94700 0.33610 0.45580
H20 H -0.08320 0.14700 0.77300
H21 H 0.86820 0.36570 0.59660
H22 H -0.25010 0.22070 0.84560
H23 H 0.62640 0.32940 0.60130
H24 H -0.22760 0.44650 0.88460
H25 H -0.57910 0.90150 0.90680
H26 H 0.10640 0.00450 0.80440
H27 H -0.73040 0.71140 0.93370
H28 H 0.30520 0.10910 0.91830
H29 H -0.66560 0.51970 0.92560
H30 H 0.51470 0.23430 0.88190
H31 H -0.45280 0.51090 0.88060
H32 H 0.52500 0.24850 0.72890
H33 H -0.24040 0.92610 0.83580
H34 H -0.30070 1.01600 0.90890
H35 H -0.37670 0.96810 0.80280
H36 H -0.02000 -0.03160 0.65560
H37 H 0.07270 -0.07820 0.58290
H38 H 0.04450 0.06230 0.58970
#END
