
#######################################################################
#
#                 Cambridge Crystallographic Data Centre
#                                CCDC
#
#######################################################################
#
# If this CIF has been generated from an entry in the Cambridge
# Structural Database, then it will include bibliographic, chemical,
# crystal, experimental, refinement or atomic coordinate data resulting
# from the CCDC's data processing and validation procedures.
#
#######################################################################

data_CSD_CIF_CEYJOH
_audit_creation_date 2013-07-05
_audit_creation_method CSD-ConQuest-V1
_database_code_CSD CEYJOH
_database_code_depnum_ccdc_archive 'CCDC 922872'
_chemical_formula_sum 'C9 H8 N2 O2'
_chemical_formula_moiety
;
C9 H8 N2 O2
;
_journal_coden_Cambridge 692
_journal_volume 45
_journal_year 2013
_journal_page_first 1524
_journal_name_full 'Synthesis '
loop_
_publ_author_name
"R.Matsubara"
"Y.Saeki"
"Jianhua Li"
"K.Eda"
_chemical_name_systematic
;
3-Methyl-4-phenyl-1,2,5-oxadiazole 2-oxide
;
_cell_volume   1692.517
_exptl_crystal_colour 'colorless'
_exptl_crystal_density_diffrn 1.383
_exptl_crystal_description 'block'
_diffrn_ambient_temperature 296
#These two values have been output from a single CSD field.
_refine_ls_R_factor_gt 0.0461
_refine_ls_wR_factor_gt 0.0461
_symmetry_cell_setting monoclinic
_symmetry_space_group_name_H-M 'P 21/n'
_symmetry_Int_Tables_number 14
loop_
_symmetry_equiv_pos_site_id
_symmetry_equiv_pos_as_xyz
1 x,y,z
2 1/2-x,1/2+y,1/2-z
3 -x,-y,-z
4 -1/2+x,-1/2-y,-1/2+z
_cell_length_a 14.059(3)
_cell_length_b 9.6484(17)
_cell_length_c 14.190(3)
_cell_angle_alpha 90
_cell_angle_beta 118.441(2)
_cell_angle_gamma 90
_cell_formula_units_Z 8
loop_
_atom_type_symbol
_atom_type_radius_bond
C 0.68
H 0.23
N 0.68
O 0.68
loop_
_atom_site_label
_atom_site_type_symbol
_atom_site_fract_x
_atom_site_fract_y
_atom_site_fract_z
O1 O 0.58439(10) -0.23845(10) 0.85967(9)
O2 O 0.64188(11) -0.31386(12) 0.74267(11)
N1 N 0.61389(10) -0.21292(12) 0.7775(1)
N2 N 0.55987(11) -0.11207(12) 0.88815(10)
C1 C 0.62649(14) -0.02284(17) 0.67205(12)
C2 C 0.47781(11) 0.16374(16) 0.87590(11)
C3 C 0.55193(10) 0.12893(13) 0.84082(9)
C4 C 0.57164(10) -0.01801(13) 0.82795(10)
C5 C 0.60501(10) -0.07892(13) 0.75711(11)
C6 C 0.60912(12) 0.23467(14) 0.82324(11)
C7 C 0.46172(13) 0.30114(17) 0.89312(13)
C8 C 0.51867(15) 0.40426(16) 0.87514(13)
C9 C 0.59180(14) 0.37142(16) 0.83988(13)
H1 H 0.70060 0.00610 0.70290
H2 H 0.58000 0.05510 0.63870
H3 H 0.61280 -0.09330 0.61930
H4 H 0.43890 0.09440 0.88780
H5 H 0.65920 0.21320 0.80020
H6 H 0.41230 0.32360 0.91690
H7 H 0.50780 0.49640 0.88680
H8 H 0.62970 0.44160 0.82720
O3 O 0.86012(9) 0.41568(10) 1.07950(9)
O4 O 0.74893(11) 0.49196(11) 1.14458(10)
N3 N 0.88799(10) 0.28882(12) 1.05476(10)
N4 N 0.78422(10) 0.39004(11) 1.11799(9)
C10 C 0.86483(11) 0.01032(15) 0.97228(11)
C11 C 0.76774(10) 0.25582(13) 1.11543(9)
C12 C 0.84292(10) 0.04723(13) 1.05477(10)
C13 C 0.68882(13) 0.20001(17) 1.14658(13)
C14 C 0.83359(10) 0.19465(12) 1.07584(10)
C15 C 0.87443(13) -0.12806(17) 0.95246(13)
C16 C 0.83116(13) -0.05686(15) 1.11633(11)
C17 C 0.86179(14) -0.23005(16) 1.01313(14)
C18 C 0.84038(15) -0.19463(15) 1.09488(14)
H9 H 0.87300 0.07860 0.93050
H10 H 0.64480 0.13120 1.09560
H11 H 0.64370 0.27380 1.14800
H12 H 0.72670 0.15880 1.21650
H13 H 0.88960 -0.15220 0.89750
H14 H 0.81710 -0.03370 1.17210
H15 H 0.86770 -0.32280 0.99890
H16 H 0.83200 -0.26370 1.13610
#END
