
#######################################################################
#
#                 Cambridge Crystallographic Data Centre
#                                CCDC
#
#######################################################################
#
# If this CIF has been generated from an entry in the Cambridge
# Structural Database, then it will include bibliographic, chemical,
# crystal, experimental, refinement or atomic coordinate data resulting
# from the CCDC's data processing and validation procedures.
#
#######################################################################

data_CSD_CIF_CEYJUN
_audit_creation_date 2013-07-05
_audit_creation_method CSD-ConQuest-V1
_database_code_CSD CEYJUN
_database_code_depnum_ccdc_archive 'CCDC 922871'
_chemical_formula_sum 'C10 H8 N2 O2'
_chemical_formula_moiety
;
C10 H8 N2 O2
;
_journal_coden_Cambridge 692
_journal_volume 45
_journal_year 2013
_journal_page_first 1524
_journal_name_full 'Synthesis '
loop_
_publ_author_name
"R.Matsubara"
"Y.Saeki"
"Jianhua Li"
"K.Eda"
_chemical_name_systematic
;
4,5-Dihydro-naphtho[1,2-c][1,2,5]oxadiazole 3-oxide
;
_cell_volume    894.276
_exptl_crystal_colour 'colorless'
_exptl_crystal_density_diffrn 1.398
_exptl_crystal_description 'block'
_diffrn_ambient_temperature 296
#These two values have been output from a single CSD field.
_refine_ls_R_factor_gt 0.0648
_refine_ls_wR_factor_gt 0.0648
_symmetry_cell_setting monoclinic
_symmetry_space_group_name_H-M 'P 21/c'
_symmetry_Int_Tables_number 14
loop_
_symmetry_equiv_pos_site_id
_symmetry_equiv_pos_as_xyz
1 x,y,z
2 -x,1/2+y,1/2-z
3 -x,-y,-z
4 x,-1/2-y,-1/2+z
_cell_length_a 8.350(2)
_cell_length_b 13.491(4)
_cell_length_c 8.546(2)
_cell_angle_alpha 90
_cell_angle_beta 111.733(4)
_cell_angle_gamma 90
_cell_formula_units_Z 4
loop_
_atom_type_symbol
_atom_type_radius_bond
C 0.68
H 0.23
N 0.68
O 0.68
loop_
_atom_site_label
_atom_site_type_symbol
_atom_site_fract_x
_atom_site_fract_y
_atom_site_fract_z
C1 C 0.1414(3) 0.06392(16) 0.4104(3)
O1 O 0.4492(3) -0.12217(14) 0.6203(3)
C2 C 0.2778(3) -0.00030(15) 0.5161(3)
N1 N 0.3129(3) -0.09000(15) 0.4824(3)
C3 C 0.1345(3) 0.15845(17) 0.4718(3)
C4 C 0.3901(3) 0.03117(19) 0.6736(3)
N2 N 0.4961(3) -0.04141(18) 0.7419(3)
C5 C -0.0012(5) 0.2194(2) 0.3751(5)
H1 H -0.01020 0.28300 0.41290
C6 C 0.0200(4) 0.0334(2) 0.2592(4)
H2 H 0.02700 -0.02980 0.21870
C7 C 0.3847(5) 0.1293(2) 0.7455(4)
H3 H 0.35130 0.12180 0.84220
H4 H 0.49940 0.15800 0.78480
C8 C -0.1219(5) 0.1871(3) 0.2247(5)
H5 H -0.21130 0.22880 0.16210
C9 C -0.1105(5) 0.0955(4) 0.1685(5)
H6 H -0.19220 0.07410 0.06680
C10 C 0.2701(6) 0.1941(3) 0.6307(6)
H7 H 0.33930 0.24190 0.59880
H8 H 0.21160 0.23040 0.69180
O2 O 0.6170(4) -0.0568(2) 0.8740(3)
#END
