
#######################################################################
#
#                 Cambridge Crystallographic Data Centre
#                                CCDC
#
#######################################################################
#
# If this CIF has been generated from an entry in the Cambridge
# Structural Database, then it will include bibliographic, chemical,
# crystal, experimental, refinement or atomic coordinate data resulting
# from the CCDC's data processing and validation procedures.
#
#######################################################################

data_CSD_CIF_CHMDIM
_audit_creation_date 1977-12-13
_audit_creation_method CSD-ConQuest-V1
_database_code_CSD CHMDIM
_chemical_formula_sum 'C7 H14 N2 O1'
_chemical_formula_moiety
;
C7 H14 N2 O1
;
_journal_coeditor_code "IUCr A14870"
_journal_coden_Cambridge 107
_journal_volume 33
_journal_year 1977
_journal_page_first 2325
_journal_name_full 'Acta Crystallogr.,Sect.B:Struct.Crystallogr.Cryst.Chem. '
loop_
_publ_author_name
"M.S.Baker"
"D.E.Williams"
_chemical_name_systematic
;
cis-N-Cyclohexyl-N'-methyldi-imide N-oxide
;
_cell_volume    804.238
_exptl_crystal_density_diffrn 1.17
_diffrn_ambient_temperature ?
_diffrn_special_details
;
The study was carried out at room temperature,in the range 283-303K

;
#These two values have been output from a single CSD field.
_refine_ls_R_factor_gt 0.08
_refine_ls_wR_factor_gt 0.08
_symmetry_cell_setting orthorhombic
_symmetry_space_group_name_H-M 'P n m a'
_symmetry_Int_Tables_number 62
loop_
_symmetry_equiv_pos_site_id
_symmetry_equiv_pos_as_xyz
1 x,y,z
2 1/2-x,1/2+y,1/2+z
3 x,1/2-y,z
4 1/2-x,-y,1/2+z
5 -x,-y,-z
6 -1/2+x,-1/2-y,-1/2-z
7 -x,-1/2+y,-z
8 -1/2+x,y,-1/2-z
_cell_length_a 20.827(8)
_cell_length_b 6.924(5)
_cell_length_c 5.577(1)
_cell_angle_alpha 90
_cell_angle_beta 90
_cell_angle_gamma 90
_cell_formula_units_Z 4
loop_
_atom_type_symbol
_atom_type_radius_bond
C 0.68
H 0.23
N 0.68
O 0.68
loop_
_atom_site_label
_atom_site_type_symbol
_atom_site_fract_x
_atom_site_fract_y
_atom_site_fract_z
N1 N 0.01470 0.25000 0.03660
N2 N -0.04510 0.25000 0.01170
O1 O -0.06870 0.25000 -0.19590
C1 C -0.09400 0.25000 0.21210
C2 C -0.22560 0.25000 0.38440
C3 C 0.04020 0.25000 0.28090
C4 C -0.13420 0.43110 0.19500
C5 C -0.18480 0.43030 0.39260
H1 H -0.06980 0.25000 0.38080
H2 H -0.25760 0.25000 0.52750
H3 H -0.25260 0.25000 0.22730
H4 H 0.09000 0.25000 0.27470
H5 H 0.02420 0.37190 0.37020
H6 H -0.15720 0.43580 0.02870
H7 H -0.10510 0.55230 0.21390
H8 H -0.16370 0.43520 0.56280
H9 H -0.21560 0.54780 0.38060
C4B C -0.13420 0.06890 0.19500
H5B H 0.02420 0.12810 0.37020
C5B C -0.18480 0.06970 0.39260
H6B H -0.15720 0.06420 0.02870
H7B H -0.10510 -0.05230 0.21390
H8B H -0.16370 0.06480 0.56280
H9B H -0.21560 -0.04780 0.38060
#END
