
#######################################################################
#
#                 Cambridge Crystallographic Data Centre
#                                CCDC
#
#######################################################################
#
# If this CIF has been generated from an entry in the Cambridge
# Structural Database, then it will include bibliographic, chemical,
# crystal, experimental, refinement or atomic coordinate data resulting
# from the CCDC's data processing and validation procedures.
#
#######################################################################

data_CSD_CIF_CIBBIY
_audit_creation_date 1985-02-07
_audit_creation_method CSD-ConQuest-V1
_database_code_CSD CIBBIY
_database_code_depnum_ccdc_archive 'CCDC 1124660'
_chemical_formula_sum 'C8 H7 N1 O4'
_chemical_formula_moiety
;
C8 H7 N1 O4
;
_journal_coden_Cambridge 619
_journal_volume 3
_journal_year 1983
_journal_page_first 25
_journal_name_full 'Fenz.Kex.Yu Huax.Yanjiu '
loop_
_publ_author_name
"Wang Zutao"
"Leng Hengjin"
"Sha Kunyuan"
"Liu Jiyun"
_chemical_name_systematic
;
Didemethyl-N-hydroxy-cantharidinimide
;
_chemical_melting_point 469.15
_cell_volume   1499.835
_exptl_special_details
;
antitumour drug
H-atoms H3 and H02 have been removed because of suspected error. Second 
occurrence of C2-O4 in Table 6 should read C5-O4. According to Table 6 and to 
Fig. 2, the atom labelled O1 in Table 4 should be O3, and the atom labelled 
;
_diffrn_ambient_temperature ?
_diffrn_special_details
;
The study was carried out at room temperature,in the range 283-303K

;
#These two values have been output from a single CSD field.
_refine_ls_R_factor_gt 0.0865
_refine_ls_wR_factor_gt 0.0865
_chemical_compound_source
;
Mylabris phalerate pallas
;
_symmetry_cell_setting monoclinic
_symmetry_space_group_name_H-M 'C 2/c'
_symmetry_Int_Tables_number 15
loop_
_symmetry_equiv_pos_site_id
_symmetry_equiv_pos_as_xyz
1 x,y,z
2 1/2+x,1/2+y,z
3 -x,y,1/2-z
4 1/2-x,1/2+y,1/2-z
5 -x,-y,-z
6 -1/2-x,-1/2-y,-z
7 x,-y,-1/2+z
8 -1/2+x,-1/2-y,-1/2+z
_cell_length_a 8.879
_cell_length_b 7.853
_cell_length_c 21.532
_cell_angle_alpha 90
_cell_angle_beta 92.58
_cell_angle_gamma 90
_cell_formula_units_Z 8
loop_
_atom_type_symbol
_atom_type_radius_bond
C 0.68
H 0.23
N 0.68
O 0.68
loop_
_atom_site_label
_atom_site_type_symbol
_atom_site_fract_x
_atom_site_fract_y
_atom_site_fract_z
C1 C 0.14500 0.71090 0.60010
C2 C 0.26300 0.56890 0.58850
C3 C 0.38730 0.59150 0.63810
C4 C 0.33230 0.54220 0.69060
C5 C 0.17180 0.48480 0.67520
C6 C 0.08030 0.65310 0.66200
C7 C -0.08500 0.61280 0.64710
C8 C 0.01300 0.70090 0.55250
N1 N -0.10930 0.64570 0.58440
O1 O -0.17790 0.56270 0.68130
O2 O -0.24660 0.61070 0.55400
O3 O 0.01100 0.73290 0.49820
O4 O 0.18320 0.42340 0.61220
H1 H 0.18500 0.82800 0.59700
H2 H 0.29000 0.55300 0.54400
H3 H 0.35900 0.55100 0.73200
H4 H 0.11400 0.40400 0.70400
H5 H 0.09200 0.74300 0.69900
#END
