
#######################################################################
#
#                 Cambridge Crystallographic Data Centre
#                                CCDC
#
#######################################################################
#
# If this CIF has been generated from an entry in the Cambridge
# Structural Database, then it will include bibliographic, chemical,
# crystal, experimental, refinement or atomic coordinate data resulting
# from the CCDC's data processing and validation procedures.
#
#######################################################################

data_CSD_CIF_CIBPUY
_audit_creation_date 1985-02-07
_audit_creation_method CSD-ConQuest-V1
_database_code_CSD CIBPUY
_database_code_depnum_ccdc_archive 'CCDC 1124716'
_chemical_formula_sum 'C15 H13 N1 O2'
_chemical_formula_moiety
;
C15 H13 N1 O2
;
_journal_coden_Cambridge 154
_journal_volume 36
_journal_year 1983
_journal_page_first 2555
_journal_name_full 'Aust.J.Chem. '
loop_
_publ_author_name
"E.J.Browne"
"L.M.Engelhardt"
"A.H.White"
_chemical_name_systematic
;
6-Phenyl-2,3-dihydro-1,4,5-benzodioxazocine
;
_chemical_melting_point 375.15
_cell_volume   1222.822
_exptl_crystal_colour 'colorless'
_exptl_crystal_density_diffrn 1.3
_exptl_special_details
;
Melting point range 375.15-376.15K

;
_diffrn_ambient_temperature ?
_diffrn_special_details
;
The study was carried out at room temperature,in the range 283-303K

;
#These two values have been output from a single CSD field.
_refine_ls_R_factor_gt 0.039
_refine_ls_wR_factor_gt 0.039
_symmetry_cell_setting monoclinic
_symmetry_space_group_name_H-M 'P 21/c'
_symmetry_Int_Tables_number 14
loop_
_symmetry_equiv_pos_site_id
_symmetry_equiv_pos_as_xyz
1 x,y,z
2 -x,1/2+y,1/2-z
3 -x,-y,-z
4 x,-1/2-y,-1/2+z
_cell_length_a 8.283(2)
_cell_length_b 17.751(4)
_cell_length_c 8.393(2)
_cell_angle_alpha 90
_cell_angle_beta 97.73(2)
_cell_angle_gamma 90
_cell_formula_units_Z 4
loop_
_atom_type_symbol
_atom_type_radius_bond
C 0.68
H 0.23
N 0.68
O 0.68
loop_
_atom_site_label
_atom_site_type_symbol
_atom_site_fract_x
_atom_site_fract_y
_atom_site_fract_z
C1 C 0.30660 0.35577 0.51600
C2 C 0.35140 0.33550 0.67510
H1 H 0.45500 0.30900 0.70800
C3 C 0.24860 0.35160 0.78700
H2 H 0.28500 0.33900 0.89400
C4 C 0.10170 0.38570 0.74110
H3 H 0.03100 0.39600 0.81400
C5 C 0.05370 0.40360 0.58080
H4 H -0.05400 0.42800 0.54600
C6 C 0.15710 0.38929 0.46670
C7 C 0.10670 0.40813 0.29460
C8 C -0.04190 0.37339 0.20770
C9 C -0.14080 0.41190 0.08720
H5 H -0.11500 0.46300 0.06500
C10 C -0.27350 0.37680 0.00120
H6 H -0.34200 0.40200 -0.08300
C11 C -0.30990 0.30250 0.03330
H7 H -0.40700 0.27900 -0.02600
C12 C -0.21300 0.26410 0.15320
H8 H -0.23900 0.21200 0.17500
C13 C -0.08100 0.29890 0.24130
H9 H -0.01400 0.27200 0.32400
N1 N 0.18750 0.45073 0.20990
O1 O 0.32340 0.48584 0.30730
C14 C 0.47130 0.45320 0.26700
H10 H 0.44700 0.43100 0.15700
H11 H 0.55100 0.49400 0.26800
C15 C 0.53260 0.39400 0.38720
H12 H 0.62800 0.36700 0.35200
H13 H 0.56900 0.41700 0.49700
O2 O 0.40990 0.33782 0.40360
#END
