
#######################################################################
#
#                 Cambridge Crystallographic Data Centre
#                                CCDC
#
#######################################################################
#
# If this CIF has been generated from an entry in the Cambridge
# Structural Database, then it will include bibliographic, chemical,
# crystal, experimental, refinement or atomic coordinate data resulting
# from the CCDC's data processing and validation procedures.
#
#######################################################################

data_CSD_CIF_CIBRAG
_audit_creation_date 1985-02-07
_audit_creation_method CSD-ConQuest-V1
_database_code_CSD CIBRAG
_database_code_depnum_ccdc_archive 'CCDC 1124717'
_chemical_formula_sum 'C15 H23 N3 O7'
_chemical_formula_moiety
;
C15 H23 N3 O7
;
_journal_coden_Cambridge 154
_journal_volume 36
_journal_year 1983
_journal_page_first 2339
_journal_name_full 'Aust.J.Chem. '
loop_
_publ_author_name
"M.P.Hartshorn"
"K.H.Sutton"
"J.Vaughan"
_chemical_name_systematic
;
2,6-Di-t-butyl-4-methyl-r-4,c-5,c-6-trinitrocyclohex-2-enone
;
_chemical_melting_point 391.15
_cell_volume   1786.361
_exptl_crystal_colour 'colorless'
_exptl_crystal_density_diffrn 1.33
_exptl_special_details
;
Melts with decomposition.

;
_diffrn_ambient_temperature ?
_diffrn_special_details
;
The study was carried out at room temperature,in the range 283-303K

;
#These two values have been output from a single CSD field.
_refine_ls_R_factor_gt 0.05
_refine_ls_wR_factor_gt 0.05
_symmetry_cell_setting monoclinic
_symmetry_space_group_name_H-M 'P 21/n'
_symmetry_Int_Tables_number 14
loop_
_symmetry_equiv_pos_site_id
_symmetry_equiv_pos_as_xyz
1 x,y,z
2 1/2-x,1/2+y,1/2-z
3 -x,-y,-z
4 -1/2+x,-1/2-y,-1/2+z
_cell_length_a 6.385(2)
_cell_length_b 20.217(8)
_cell_length_c 13.898(6)
_cell_angle_alpha 90
_cell_angle_beta 95.30(3)
_cell_angle_gamma 90
_cell_formula_units_Z 4
loop_
_atom_type_symbol
_atom_type_radius_bond
C 0.68
H 0.23
N 0.68
O 0.68
loop_
_atom_site_label
_atom_site_type_symbol
_atom_site_fract_x
_atom_site_fract_y
_atom_site_fract_z
C1 C -0.02070 0.06320 0.70640
C2 C -0.17220 0.02180 0.75370
C3 C -0.22230 0.04100 0.83940
C4 C -0.14160 0.10160 0.89260
C5 C -0.12660 0.15630 0.81640
C6 C -0.01460 0.13970 0.72550
C7 C -0.24480 -0.04490 0.70960
C8 C -0.31500 -0.03760 0.60040
C9 C -0.43090 -0.07210 0.75940
C10 C -0.05930 -0.09310 0.72310
C11 C -0.28270 0.12190 0.97020
C12 C -0.11090 0.17690 0.63170
C13 C -0.32490 0.14270 0.60030
C14 C -0.15900 0.24930 0.65090
C15 C 0.02280 0.17070 0.54660
N1 N 0.07490 0.08420 0.94880
N2 N -0.05600 0.22180 0.86500
N3 N 0.22170 0.15540 0.74550
O1 O 0.09680 0.04090 0.65110
O2 O 0.16130 0.03430 0.92980
O3 O 0.14340 0.12310 1.00720
O4 O -0.19690 0.25760 0.88650
O5 O 0.12550 0.23230 0.88380
O6 O 0.28820 0.20740 0.71750
O7 O 0.32980 0.11530 0.79220
H1 H -0.30600 0.01600 0.87700
#END
