
#######################################################################
#
#                 Cambridge Crystallographic Data Centre
#                                CCDC
#
#######################################################################
#
# If this CIF has been generated from an entry in the Cambridge
# Structural Database, then it will include bibliographic, chemical,
# crystal, experimental, refinement or atomic coordinate data resulting
# from the CCDC's data processing and validation procedures.
#
#######################################################################

data_CSD_CIF_CIBREK
_audit_creation_date 1985-02-07
_audit_creation_method CSD-ConQuest-V1
_database_code_CSD CIBREK
_database_code_depnum_ccdc_archive 'CCDC 1124718'
_chemical_formula_sum 'C15 H24 N2 O6'
_chemical_formula_moiety
;
C15 H24 N2 O6
;
_journal_coden_Cambridge 154
_journal_volume 36
_journal_year 1983
_journal_page_first 2339
_journal_name_full 'Aust.J.Chem. '
loop_
_publ_author_name
"M.P.Hartshorn"
"K.H.Sutton"
"J.Vaughan"
_chemical_name_systematic
;
2,6-Di-t-butyl-c-6-hydroxy-4-methyl-r-4,c-5-dinitrocyclohex-2-enone
;
_chemical_melting_point 397.15
_cell_volume   1684.360
_exptl_crystal_density_diffrn 1.29
_exptl_special_details
;
Melts with decomposition.

;
_diffrn_ambient_temperature ?
_diffrn_special_details
;
The study was carried out at room temperature,in the range 283-303K

;
#These two values have been output from a single CSD field.
_refine_ls_R_factor_gt 0.059
_refine_ls_wR_factor_gt 0.059
_symmetry_cell_setting orthorhombic
_symmetry_space_group_name_H-M 'P 21 21 21'
_symmetry_Int_Tables_number 19
loop_
_symmetry_equiv_pos_site_id
_symmetry_equiv_pos_as_xyz
1 x,y,z
2 1/2+x,1/2-y,-z
3 -x,1/2+y,1/2-z
4 1/2-x,-y,1/2+z
_cell_length_a 15.708(8)
_cell_length_b 16.692(8)
_cell_length_c 6.424(3)
_cell_angle_alpha 90
_cell_angle_beta 90
_cell_angle_gamma 90
_cell_formula_units_Z 4
loop_
_atom_type_symbol
_atom_type_radius_bond
C 0.68
H 0.23
N 0.68
O 0.68
loop_
_atom_site_label
_atom_site_type_symbol
_atom_site_fract_x
_atom_site_fract_y
_atom_site_fract_z
C1 C 0.02900 0.17130 0.62600
C2 C -0.05520 0.15220 0.55100
C3 C -0.08730 0.20310 0.40700
C4 C -0.03920 0.27520 0.33000
C5 C 0.05360 0.25150 0.29600
C6 C 0.09850 0.20250 0.47500
C7 C -0.10920 0.08480 0.64700
C8 C -0.05710 0.01030 0.68000
C9 C -0.18430 0.06510 0.50900
C10 C -0.14380 0.11310 0.85800
C11 C -0.07790 0.31110 0.13900
C12 C 0.15060 0.12930 0.39000
C13 C 0.09770 0.07150 0.26900
C14 C 0.22460 0.16080 0.24700
C15 C 0.19250 0.08360 0.57200
N1 N -0.04670 0.33960 0.51000
N2 N 0.10500 0.32370 0.23100
O1 O 0.04890 0.16290 0.80900
O2 O 0.15410 0.25300 0.59200
O3 O -0.01150 0.32260 0.67300
O4 O -0.08890 0.39810 0.47800
O5 O 0.14600 0.31910 0.06900
O6 O 0.09750 0.38440 0.33300
H1 H 0.18200 0.27600 0.59000
H2 H -0.15000 0.21100 0.38000
#END
