
#######################################################################
#
#                 Cambridge Crystallographic Data Centre
#                                CCDC
#
#######################################################################
#
# If this CIF has been generated from an entry in the Cambridge
# Structural Database, then it will include bibliographic, chemical,
# crystal, experimental, refinement or atomic coordinate data resulting
# from the CCDC's data processing and validation procedures.
#
#######################################################################

data_CSD_CIF_CICQUC
_audit_creation_date 2013-07-07
_audit_creation_method CSD-ConQuest-V1
_database_code_CSD CICQUC
_database_code_depnum_ccdc_archive 'CCDC 907257'
_chemical_formula_sum 'C19 H25 N1 O5'
_chemical_formula_moiety
;
C19 H25 N1 O5
;
_journal_coden_Cambridge 692
_journal_volume 45
_journal_year 2013
_journal_page_first 1612
_journal_name_full 'Synthesis '
loop_
_publ_author_name
"Qianjin An"
"Jiefeng Shen"
"N.Butt"
"Delong Liu"
"Yangang Liu"
"Wanbin Zhang"
_chemical_name_systematic
;
Benzyl (3-t-butyl-4-formyl-2-nitrocyclopentyl)acetate
;
_cell_volume   1856.892
_exptl_crystal_density_diffrn 1.243
_diffrn_ambient_temperature 173
#These two values have been output from a single CSD field.
_refine_ls_R_factor_gt 0.0363
_refine_ls_wR_factor_gt 0.0363
_symmetry_cell_setting orthorhombic
_symmetry_space_group_name_H-M 'P 21 21 21'
_symmetry_Int_Tables_number 19
loop_
_symmetry_equiv_pos_site_id
_symmetry_equiv_pos_as_xyz
1 x,y,z
2 1/2-x,-y,1/2+z
3 1/2+x,1/2-y,-z
4 -x,1/2+y,1/2-z
_cell_length_a 6.4665(3)
_cell_length_b 16.4511(6)
_cell_length_c 17.4551(7)
_cell_angle_alpha 90
_cell_angle_beta 90
_cell_angle_gamma 90
_cell_formula_units_Z 4
loop_
_atom_type_symbol
_atom_type_radius_bond
C 0.68
H 0.23
N 0.68
O 0.68
loop_
_atom_site_label
_atom_site_type_symbol
_atom_site_fract_x
_atom_site_fract_y
_atom_site_fract_z
O1 O 0.9371(2) 0.14709(6) 0.11341(7)
O2 O 0.9085(2) 0.28069(7) 0.13462(8)
O3 O 1.7081(3) 0.28970(11) 0.42109(10)
O4 O 1.5394(2) 0.18747(8) 0.23435(10)
O5 O 1.4191(3) 0.22385(12) 0.12566(9)
N1 N 1.4405(2) 0.23325(9) 0.19436(9)
C1 C 0.8217(3) 0.07669(11) 0.00170(9)
C2 C 0.9649(3) 0.01495(12) 0.00657(11)
H1 H 1.09170 0.02410 0.03270
C3 C 0.9266(5) -0.06015(13) -0.02611(12)
H2 H 1.02670 -0.10220 -0.02220
C4 C 0.7464(6) -0.07382(15) -0.06377(12)
H3 H 0.72070 -0.12540 -0.08630
C5 C 0.6035(5) -0.01414(17) -0.06928(13)
H4 H 0.47770 -0.02390 -0.09580
C6 C 0.6398(4) 0.06218(15) -0.03600(12)
H5 H 0.53820 0.10370 -0.03960
C7 C 0.8625(4) 0.15870(11) 0.0359(1)
H6 H 0.96720 0.18810 0.00510
H7 H 0.73380 0.19130 0.03640
C8 C 0.9538(3) 0.21395(10) 0.15586(10)
C9 C 1.0345(3) 0.19417(10) 0.23498(10)
H8 H 1.13470 0.14890 0.23100
H9 H 0.91800 0.17560 0.26730
C10 C 1.1390(2) 0.26588(9) 0.27375(9)
H10 H 1.03340 0.31000 0.27880
C11 C 1.2204(3) 0.24761(11) 0.35381(9)
H11 H 1.29350 0.19470 0.35500
H12 H 1.10630 0.24650 0.39160
C12 C 1.3702(3) 0.31807(9) 0.37044(8)
H13 H 1.28860 0.36430 0.39200
C13 C 1.4607(2) 0.34505(8) 0.29241(7)
H14 H 1.60370 0.32230 0.28860
C14 C 1.3271(2) 0.30229(8) 0.23163(8)
H15 H 1.28030 0.34220 0.19210
C15 C 1.5273(4) 0.29279(11) 0.42877(10)
H16 H 1.47510 0.27750 0.47760
C16 C 1.4765(3) 0.43837(8) 0.28067(9)
C17 C 1.6032(4) 0.47492(11) 0.34630(12)
H17 H 1.61390 0.53390 0.33930
H18 H 1.74200 0.45100 0.34640
H19 H 1.53490 0.46330 0.39520
C18 C 1.5911(3) 0.45477(11) 0.20576(11)
H20 H 1.60210 0.51360 0.19770
H21 H 1.51490 0.43020 0.16310
H22 H 1.73000 0.43110 0.20850
C19 C 1.2634(3) 0.47855(10) 0.27830(12)
H23 H 1.27960 0.53720 0.27080
H24 H 1.19110 0.46840 0.32670
H25 H 1.18300 0.45570 0.23580
#END
