
#######################################################################
#
#                 Cambridge Crystallographic Data Centre
#                                CCDC
#
#######################################################################
#
# If this CIF has been generated from an entry in the Cambridge
# Structural Database, then it will include bibliographic, chemical,
# crystal, experimental, refinement or atomic coordinate data resulting
# from the CCDC's data processing and validation procedures.
#
#######################################################################

data_CSD_CIF_CIDQUE
_audit_creation_date 2018-07-02
_audit_creation_method CSD-ConQuest-V1
_database_code_CSD CIDQUE
_database_code_depnum_ccdc_archive 'CCDC 1557936'
_chemical_formula_sum 'C22 H22 N4 O6'
_chemical_formula_moiety
;
C22 H22 N4 O6
;
_journal_coden_Cambridge 1291
_journal_volume 2018
_journal_year 2018
_journal_page_first 4978
_journal_name_full 'Eur.J.Org.Chem. '
loop_
_publ_author_name
"T.Orlando"
"P.R.S.Salbego"
"G.C.Zimmer"
"A.B.Pagliari"
"C.R.Bender"
"L.V.Rodrigues"
"H.G.Bonacorso"
"N.Zanatta"
"J.Berna"
"M.A.P.Martins"
_chemical_name_systematic
;
N,N'-bis[(furan-2-yl)methyl]-N,N'-bis(5-methyl-1,2-oxazol-3-yl)butanediamide
;
_cell_volume   2095.936
_exptl_crystal_colour 'colorless'
_exptl_crystal_density_diffrn 1.389
_exptl_crystal_description 'needle'
_diffrn_ambient_temperature 293
#These two values have been output from a single CSD field.
_refine_ls_R_factor_gt 0.0734
_refine_ls_wR_factor_gt 0.0734
_symmetry_cell_setting monoclinic
_symmetry_space_group_name_H-M 'C 2/c'
_symmetry_Int_Tables_number 15
loop_
_symmetry_equiv_pos_site_id
_symmetry_equiv_pos_as_xyz
1 x,y,z
2 -x,y,1/2-z
3 1/2+x,1/2+y,z
4 1/2-x,1/2+y,1/2-z
5 -x,-y,-z
6 x,-y,-1/2+z
7 -1/2-x,-1/2-y,-z
8 -1/2+x,-1/2-y,-1/2+z
_cell_length_a 26.491(2)
_cell_length_b 4.4466(4)
_cell_length_c 19.534(2)
_cell_angle_alpha 90
_cell_angle_beta 114.373(5)
_cell_angle_gamma 90
_cell_formula_units_Z 4
loop_
_atom_type_symbol
_atom_type_radius_bond
C 0.68
H 0.23
N 0.68
O 0.68
loop_
_atom_site_label
_atom_site_type_symbol
_atom_site_fract_x
_atom_site_fract_y
_atom_site_fract_z
O1 O 0.64890(9) 0.6265(5) 0.61718(13)
O2 O 0.64868(9) 0.4494(6) 0.33894(13)
O3 O 0.49908(8) 0.6749(6) 0.39958(12)
N1 N 0.59061(9) 0.7812(5) 0.45080(12)
N2 N 0.65072(11) 0.6326(7) 0.39858(16)
C1 C 0.53794(12) 0.8056(6) 0.44752(15)
C2 C 0.52997(12) 0.9946(6) 0.50597(15)
H1 H 0.54290 1.19730 0.50420
H2 H 0.55210 0.91260 0.55540
C3 C 0.60133(11) 0.6159(6) 0.39740(15)
C4 C 0.67265(11) 0.7218(7) 0.57090(16)
C5 C 0.56652(13) 0.4244(7) 0.33943(16)
H3 H 0.52970 0.37590 0.32750
C6 C 0.63920(11) 0.9296(7) 0.50972(15)
H4 H 0.66250 1.01260 0.48690
H5 H 0.62650 1.09500 0.53090
C7 C 0.59822(13) 0.3283(7) 0.30566(16)
C8 C 0.72315(13) 0.6009(9) 0.5940(2)
H6 H 0.74800 0.62970 0.57210
C9 C 0.68725(17) 0.4444(9) 0.6693(2)
H7 H 0.68210 0.34840 0.70830
C10 C 0.73198(16) 0.4234(9) 0.6571(2)
H8 H 0.76360 0.31200 0.68480
C11 C 0.58833(16) 0.1286(9) 0.23997(19)
H9 H 0.62180 0.11180 0.23240
H10 H 0.57730 -0.06710 0.24940
H11 H 0.55950 0.21250 0.19580
O1D O 0.35110(9) 1.3735(5) 0.38282(13)
O2D O 0.35132(9) 1.5506(6) 0.66106(13)
O3D O 0.50092(8) 1.3251(6) 0.60042(12)
N1D N 0.40939(9) 1.2188(5) 0.54920(12)
N2D N 0.34928(11) 1.3674(7) 0.60142(16)
C1D C 0.46206(12) 1.1944(6) 0.55248(15)
C2D C 0.47003(12) 1.0054(6) 0.49403(15)
H1D H 0.45710 0.80270 0.49580
H2D H 0.44790 1.08740 0.44460
C3D C 0.39867(11) 1.3841(6) 0.60260(15)
C4D C 0.32735(11) 1.2782(7) 0.42910(16)
C5D C 0.43348(13) 1.5756(7) 0.66057(16)
H3D H 0.47030 1.62410 0.67250
C6D C 0.36080(11) 1.0704(7) 0.49028(15)
H4D H 0.33750 0.98740 0.51310
H5D H 0.37350 0.90500 0.46910
C7D C 0.40178(13) 1.6717(7) 0.69434(16)
C8D C 0.27685(13) 1.3991(9) 0.4060(2)
H6D H 0.25200 1.37030 0.42790
C9D C 0.31275(17) 1.5556(9) 0.3307(2)
H7D H 0.31790 1.65160 0.29170
C10D C 0.26802(16) 1.5766(9) 0.3429(2)
H8D H 0.23640 1.68800 0.31520
C11D C 0.41167(16) 1.8714(9) 0.76003(19)
H9D H 0.37820 1.88820 0.76760
H10D H 0.42270 2.06710 0.75060
H11D H 0.44050 1.78750 0.80420
#END
