
#######################################################################
#
#                 Cambridge Crystallographic Data Centre
#                                CCDC
#
#######################################################################
#
# If this CIF has been generated from an entry in the Cambridge
# Structural Database, then it will include bibliographic, chemical,
# crystal, experimental, refinement or atomic coordinate data resulting
# from the CCDC's data processing and validation procedures.
#
#######################################################################

data_CSD_CIF_CIDQIP
_audit_creation_date 2000-05-24
_audit_creation_method CSD-ConQuest-V1
_database_code_CSD CIDQIP
_database_code_depnum_ccdc_archive 'CCDC 143245'
_chemical_formula_sum 'C11 H15 N3 O3'
_chemical_formula_moiety
;
C11 H15 N3 O3
;
_journal_coeditor_code "IUCr BM1387"
_journal_coden_Cambridge 591
_journal_volume 56
_journal_year 2000
_journal_page_first 336
_journal_name_full 'Acta Crystallogr.,Sect.C:Cryst.Struct.Commun. '
loop_
_publ_author_name
"R.D.Clark"
"A.Romero"
"O.Ya.Borbulevych"
"M.Yu.Antipin"
"V.N.Nesterov"
"T.V.Timofeeva"
_chemical_name_systematic
;
N-(2-(Isopropylamino)-5-nitrophenyl)acetamide
;
_cell_volume   2354.338
_exptl_crystal_colour 'yellow'
_exptl_crystal_density_diffrn 1.339
_exptl_crystal_description 'prism'
_exptl_crystal_preparation 'ethanol'
_diffrn_ambient_temperature ?
_diffrn_special_details
;
The study was carried out at room temperature,in the range 283-303K

;
#These two values have been output from a single CSD field.
_refine_ls_R_factor_gt 0.049
_refine_ls_wR_factor_gt 0.049
_symmetry_cell_setting monoclinic
_symmetry_space_group_name_H-M 'P 21/n'
_symmetry_Int_Tables_number 14
loop_
_symmetry_equiv_pos_site_id
_symmetry_equiv_pos_as_xyz
1 x,y,z
2 1/2+x,1/2-y,1/2+z
3 -x,-y,-z
4 -1/2-x,-1/2+y,-1/2-z
_cell_length_a 13.408(7)
_cell_length_b 13.277(4)
_cell_length_c 13.577(6)
_cell_angle_alpha 90
_cell_angle_beta 103.07(4)
_cell_angle_gamma 90
_cell_formula_units_Z 8
loop_
_atom_type_symbol
_atom_type_radius_bond
C 0.68
H 0.23
N 0.68
O 0.68
loop_
_atom_site_label
_atom_site_type_symbol
_atom_site_fract_x
_atom_site_fract_y
_atom_site_fract_z
N1 N 0.73029(14) 0.33587(14) 0.98352(14)
H1 H 0.7799(19) 0.3186(17) 1.0331(18)
N2 N 0.7233(2) 0.12639(14) 0.95543(15)
H2 H 0.782(2) 0.161(2) 0.982(2)
N3 N 0.3650(2) 0.3359(2) 0.97602(15)
O1 O 0.68140(11) 0.42438(11) 0.83819(11)
O2 O 0.28318(14) 0.2890(2) 0.9614(2)
O3 O 0.37067(13) 0.42607(14) 0.99527(14)
C1 C 0.6366(2) 0.2821(2) 0.9748(2)
C2 C 0.6352(2) 0.1755(2) 0.9612(2)
C3 C 0.5409(2) 0.1259(2) 0.9523(2)
H3 H 0.5369(19) 0.054(2) 0.9429(19)
C4 C 0.4531(2) 0.1779(2) 0.9559(2)
H4 H 0.391(2) 0.1428(19) 0.9484(19)
C5 C 0.4574(2) 0.2815(2) 0.9709(2)
C6 C 0.5489(2) 0.3334(2) 0.9811(2)
H5 H 0.5518(17) 0.4019(19) 0.9906(17)
C7 C 0.7452(2) 0.4067(2) 0.9172(2)
C8 C 0.8444(2) 0.4633(2) 0.9453(2)
H6 H 0.873(2) 0.472(2) 0.886(2)
H7 H 0.830(2) 0.528(2) 0.972(2)
H8 H 0.895(2) 0.431(2) 1.000(2)
C9 C 0.7348(2) 0.0162(2) 0.9585(2)
H9 H 0.7076(18) -0.0111(18) 1.0137(19)
C10 C 0.6813(3) -0.0331(2) 0.8596(2)
H10 H 0.720(2) -0.022(2) 0.809(2)
H11 H 0.611(3) -0.008(3) 0.831(3)
H12 H 0.685(3) -0.105(4) 0.875(3)
C11 C 0.8483(2) -0.0093(2) 0.9827(2)
H13 H 0.859(3) -0.081(3) 0.992(2)
H14 H 0.875(2) 0.011(2) 0.925(2)
H15 H 0.887(2) 0.024(2) 1.046(3)
N4 N 0.47907(14) 0.37470(13) 0.73534(14)
H16 H 0.5374(18) 0.3849(17) 0.7738(17)
N5 N 0.52413(15) 0.58013(14) 0.74652(15)
H17 H 0.572(2) 0.536(2) 0.7591(19)
N6 N 0.12761(15) 0.45403(15) 0.7528(2)
O4 O 0.38257(12) 0.26966(12) 0.62057(13)
O5 O 0.07007(13) 0.51303(14) 0.7835(2)
O6 O 0.10023(13) 0.36966(13) 0.7200(2)
C12 C 0.4019(2) 0.4456(2) 0.74413(15)
C13 C 0.4282(2) 0.5496(2) 0.75166(15)
C14 C 0.3515(2) 0.6192(2) 0.7607(2)
H18 H 0.3675(18) 0.6866(19) 0.7655(17)
C15 C 0.2543(2) 0.5879(2) 0.7630(2)
H19 H 0.2030(18) 0.6366(18) 0.7678(17)
C16 C 0.2305(2) 0.4870(2) 0.7531(2)
C17 C 0.3035(2) 0.4151(2) 0.7436(2)
H20 H 0.2856(17) 0.3452(19) 0.7363(17)
C18 C 0.4660(2) 0.2923(2) 0.6762(2)
C19 C 0.5595(2) 0.2291(2) 0.6804(2)
H21 H 0.574(3) 0.222(3) 0.616(3)
H22 H 0.619(3) 0.256(3) 0.727(3)
H23 H 0.549(3) 0.163(3) 0.697(3)
C20 C 0.5553(2) 0.6855(2) 0.7435(2)
H24 H 0.5303(16) 0.7212(16) 0.7959(16)
C21 C 0.5101(2) 0.7328(2) 0.6407(2)
H25 H 0.531(2) 0.806(2) 0.644(2)
H26 H 0.542(2) 0.700(2) 0.589(2)
H27 H 0.436(3) 0.729(2) 0.623(2)
C22 C 0.6717(2) 0.6896(2) 0.7682(2)
H28 H 0.696(2) 0.649(2) 0.719(2)
H29 H 0.702(2) 0.664(2) 0.837(2)
H30 H 0.696(2) 0.760(2) 0.764(2)
#END
