
#######################################################################
#
#                 Cambridge Crystallographic Data Centre
#                                CCDC
#
#######################################################################
#
# If this CIF has been generated from an entry in the Cambridge
# Structural Database, then it will include bibliographic, chemical,
# crystal, experimental, refinement or atomic coordinate data resulting
# from the CCDC's data processing and validation procedures.
#
#######################################################################

data_CSD_CIF_CIDSIR
_audit_creation_date 1985-03-02
_audit_creation_method CSD-ConQuest-V1
_database_code_CSD CIDSIR
_chemical_formula_sum 'C21 H17 N1 O3'
_chemical_formula_moiety
;
C21 H17 N1 O3
;
_journal_coeditor_code "IUCr A23688"
_journal_coden_Cambridge 591
_journal_volume 40
_journal_year 1984
_journal_page_first 1071
_journal_name_full 'Acta Crystallogr.,Sect.C:Cryst.Struct.Commun. '
loop_
_publ_author_name
"F.Baert"
"J.Lamiot"
"D.Couturier"
"D.Roussel"
"G.Ricart"
_chemical_name_systematic
;
N,O-Dibenzoyl-N-o-tolylhydroxylamine
;
_cell_volume    864.310
_exptl_crystal_density_diffrn 1.27
_exptl_special_details
;
b should be 9.790, not 9.970. Beta should be 83.71, not 87.71. In bond table, 
C18-H(C18) is given as 0.012 instead of 1.012
;
_diffrn_ambient_temperature ?
_diffrn_special_details
;
The study was carried out at room temperature,in the range 283-303K

;
#These two values have been output from a single CSD field.
_refine_ls_R_factor_gt 0.052
_refine_ls_wR_factor_gt 0.052
_symmetry_cell_setting triclinic
_symmetry_space_group_name_H-M 'P -1'
_symmetry_Int_Tables_number 2
loop_
_symmetry_equiv_pos_site_id
_symmetry_equiv_pos_as_xyz
1 x,y,z
2 -x,-y,-z
_cell_length_a 11.268(4)
_cell_length_b 9.790(3)
_cell_length_c 8.801(2)
_cell_angle_alpha 104.30(6)
_cell_angle_beta 83.71(2)
_cell_angle_gamma 113.25(2)
_cell_formula_units_Z 2
loop_
_atom_type_symbol
_atom_type_radius_bond
C 0.68
H 0.23
N 0.68
O 0.68
loop_
_atom_site_label
_atom_site_type_symbol
_atom_site_fract_x
_atom_site_fract_y
_atom_site_fract_z
N1 N 0.74130 -0.02440 0.13040
O1 O 0.78620 0.06730 0.28250
C1 C 0.75900 0.19840 0.32130
O2 O 0.70470 0.23230 0.23710
C2 C 0.81120 0.28680 0.47890
C3 C 0.85440 0.22720 0.57880
C4 C 0.90550 0.31590 0.72200
C5 C 0.91490 0.46540 0.76500
C6 C 0.87010 0.52470 0.66910
C7 C 0.81830 0.43680 0.52650
C8 C 0.82590 0.02960 0.01200
O3 O 0.92130 0.14670 0.03840
C9 C 0.78470 -0.06030 -0.14920
C10 C 0.87970 -0.07200 -0.26000
C11 C 0.84580 -0.14900 -0.41230
C12 C 0.71860 -0.21190 -0.45460
C13 C 0.62400 -0.19890 -0.34740
C14 C 0.65600 -0.12390 -0.19360
C15 C 0.68820 -0.18390 0.13820
C16 C 0.76800 -0.26690 0.10190
C17 C 0.72070 -0.41600 0.11640
C18 C 0.59550 -0.48130 0.16730
C19 C 0.51840 -0.40130 0.20220
C20 C 0.56220 -0.24870 0.18900
C21 C 0.47690 -0.16310 0.22410
H1 H 0.97100 -0.02600 -0.22700
H2 H 0.43100 -0.43700 0.23100
H3 H 0.85200 -0.22300 0.07100
H4 H 0.56500 -0.59100 0.17700
H5 H 0.53600 -0.23600 -0.37400
H6 H 0.59000 -0.11500 -0.11700
H7 H 0.91200 -0.15800 -0.48400
H8 H 0.85300 0.12900 0.54900
H9 H 0.79100 0.47500 0.45800
H10 H 0.70000 -0.26000 -0.55000
H11 H 0.93700 0.27600 0.78900
H12 H 0.95000 0.52000 0.85500
H13 H 0.87800 0.62600 0.70100
H14 H 0.77600 -0.47700 0.08900
H15 H 0.49400 -0.07700 0.18300
H16 H 0.40000 -0.23000 0.24200
H17 H 0.49400 -0.09200 0.31200
#END
