
#######################################################################
#
#                 Cambridge Crystallographic Data Centre
#                                CCDC
#
#######################################################################
#
# If this CIF has been generated from an entry in the Cambridge
# Structural Database, then it will include bibliographic, chemical,
# crystal, experimental, refinement or atomic coordinate data resulting
# from the CCDC's data processing and validation procedures.
#
#######################################################################

data_CSD_CIF_CIDTUE01
_audit_creation_date 2000-04-27
_audit_creation_method CSD-ConQuest-V1
_database_code_CSD CIDTUE01
_database_code_depnum_ccdc_archive 'CCDC 133157'
_chemical_formula_sum 'C15 H17 N5 O4'
_chemical_formula_moiety
;
C15 H17 N5 O4
;
_journal_coden_Cambridge 1291
_journal_year 2000
_journal_page_first 743
_journal_name_full 'Eur.J.Org.Chem. '
loop_
_publ_author_name
"G.Fischer"
"H.Fritz"
"G.Rihs"
"D.Hunkler"
"K.Exner"
"L.Knothe"
"H.Prinzbach"
_chemical_name_systematic
;
(+-)-4,13-Dioxa-8,9,14,18-tetra-azaheptacyclo(9.6.1.0^2,6^.0^2,10^.0^6,15^.0^7
,12^.0^14,18^)octadecane-8,9-N-methyldicarboximide
;
_chemical_melting_point 623.15
_cell_volume   1600.524
_exptl_crystal_colour 'colorless'
_exptl_crystal_density_diffrn 1.388
_exptl_special_details
;
Melts above 623.15K

;
_exptl_crystal_description 'cube'
_exptl_crystal_preparation 'methanol'
_diffrn_ambient_temperature ?
_diffrn_special_details
;
The study was carried out at room temperature,in the range 283-303K

;
#These two values have been output from a single CSD field.
_refine_ls_R_factor_gt 0.098
_refine_ls_wR_factor_gt 0.098
_symmetry_cell_setting triclinic
_symmetry_space_group_name_H-M 'P -1'
_symmetry_Int_Tables_number 2
loop_
_symmetry_equiv_pos_site_id
_symmetry_equiv_pos_as_xyz
1 x,y,z
2 -x,-y,-z
_cell_length_a 7.586(1)
_cell_length_b 13.652(1)
_cell_length_c 16.761(2)
_cell_angle_alpha 106.744(10)
_cell_angle_beta 93.139(10)
_cell_angle_gamma 103.731(10)
_cell_formula_units_Z 4
loop_
_atom_type_symbol
_atom_type_radius_bond
C 0.68
H 0.23
N 0.68
O 0.68
loop_
_atom_site_label
_atom_site_type_symbol
_atom_site_fract_x
_atom_site_fract_y
_atom_site_fract_z
C1 C 0.2154(9) 0.6617(5) 0.2308(4)
H1 H 0.1393(9) 0.6670(5) 0.2765(4)
C2 C 0.4078(8) 0.6614(5) 0.2610(4)
C3 C 0.5032(9) 0.7735(5) 0.3235(4)
H2 H 0.4385(9) 0.7858(5) 0.3730(4)
C4 C 0.6988(10) 0.7901(7) 0.3510(5)
H3 H 0.7146(10) 0.7353(7) 0.3748(5)
H4 H 0.7459(10) 0.8584(7) 0.3939(5)
C5 C 0.8049(10) 0.7860(7) 0.2741(5)
H5 H 0.8809(10) 0.8562(7) 0.2793(5)
H6 H 0.8833(10) 0.7387(7) 0.2709(5)
C6 C 0.6661(9) 0.7464(5) 0.1957(4)
H7 H 0.7314(9) 0.7380(5) 0.1463(4)
C7 C 0.5204(8) 0.6434(5) 0.1844(4)
C8 C 0.4014(8) 0.6422(5) 0.1061(4)
H8 H 0.4676(8) 0.6330(5) 0.0571(4)
N1 N 0.2227(7) 0.5644(4) 0.0873(3)
C9 C 0.1819(9) 0.4613(5) 0.0372(4)
N2 N 0.0596(8) 0.4057(4) 0.0784(4)
C10 C 0.0378(9) 0.4693(5) 0.1546(4)
N3 N 0.1319(7) 0.5694(4) 0.1595(3)
C11 C 0.2341(9) 0.7568(5) 0.1973(4)
H9 H 0.1166(9) 0.7564(5) 0.1696(4)
O1 O 0.3084(7) 0.8526(3) 0.2649(3)
N4 N 0.4964(8) 0.8558(4) 0.2823(4)
N5 N 0.5516(8) 0.8214(4) 0.1947(3)
C12 C 0.3785(9) 0.7545(5) 0.1375(4)
H10 H 0.3519(9) 0.7820(5) 0.0916(4)
C13 C 0.4158(10) 0.5704(6) 0.2948(4)
H11 H 0.4887(10) 0.5972(6) 0.3497(4)
H12 H 0.2935(10) 0.5330(6) 0.3002(4)
O2 O 0.4921(21) 0.5049(8) 0.2402(8)
C14 C 0.5756(10) 0.5417(5) 0.1811(5)
H13 H 0.5359(10) 0.4898(5) 0.1259(5)
H14 H 0.7075(10) 0.5565(5) 0.1933(5)
O3 O 0.2343(7) 0.4261(4) -0.0290(3)
C15 C -0.0343(11) 0.2931(5) 0.0443(5)
H15 H 0.0011(11) 0.2645(5) -0.0099(5)
H16 H -0.1643(11) 0.2842(5) 0.0388(5)
H17 H -0.0016(11) 0.2566(5) 0.0815(5)
O4 O -0.0529(7) 0.4420(4) 0.2069(3)
C16 C 0.4173(8) 0.7364(5) 0.7879(4)
H18 H 0.3812(8) 0.6644(5) 0.7922(4)
C17 C 0.5645(9) 0.7464(5) 0.7286(4)
C18 C 0.4673(11) 0.6766(6) 0.6406(5)
H19 H 0.4273(11) 0.6024(6) 0.6394(5)
C19 C 0.5898(15) 0.6860(9) 0.5720(6)
H20 H 0.5302(15) 0.6353(9) 0.5183(6)
H21 H 0.7051(15) 0.6716(9) 0.5856(6)
C20 C 0.6238(15) 0.8008(9) 0.5675(6)
H22 H 0.7537(15) 0.8309(9) 0.5686(6)
H23 H 0.5605(15) 0.7999(9) 0.5153(6)
C21 C 0.5558(11) 0.8670(7) 0.6402(5)
H24 H 0.5872(11) 0.9406(7) 0.6395(5)
C22 C 0.6261(9) 0.8645(5) 0.7264(4)
C23 C 0.5124(9) 0.9270(5) 0.7821(4)
H25 H 0.5469(9) 1.0012(5) 0.7829(4)
N6 N 0.5207(7) 0.9210(4) 0.8678(3)
C24 C 0.6559(9) 0.9792(5) 0.9316(4)
N7 N 0.6753(7) 0.9129(4) 0.9787(3)
C25 C 0.5773(9) 0.8098(5) 0.9372(4)
N8 N 0.4719(7) 0.8146(4) 0.8702(3)
C26 C 0.2543(9) 0.7644(6) 0.7488(5)
H26 H 0.1612(9) 0.7683(6) 0.7871(5)
O5 O 0.1746(9) 0.6929(5) 0.6693(4)
N9 N 0.3072(10) 0.7133(6) 0.6206(5)
N10 N 0.3553(10) 0.8304(6) 0.6399(5)
C27 C 0.322(1) 0.8708(6) 0.7335(5)
H27 H 0.2351(10) 0.9145(6) 0.7428(5)
C28 C 0.7414(11) 0.7273(6) 0.7620(5)
H28 H 0.7168(11) 0.6856(6) 0.8001(5)
H29 H 0.7974(11) 0.6903(6) 0.7161(5)
O6 O 0.8590(7) 0.8313(5) 0.8054(4)
C29 C 0.8334(10) 0.8966(7) 0.7565(5)
H30 H 0.9017(10) 0.8853(7) 0.7089(5)
H31 H 0.874(1) 0.9708(7) 0.7900(5)
O7 O 0.7388(8) 1.0723(4) 0.9474(3)
C30 C 0.7976(10) 0.9456(6) 1.0565(5)
H32 H 0.8503(10) 1.0209(6) 1.0733(5)
H33 H 0.8932(10) 0.9100(6) 1.0484(5)
H34 H 0.7302(10) 0.9276(6) 1.0994(5)
O8 O 0.5763(8) 0.7314(4) 0.9586(3)
#END
