
#######################################################################
#
#                 Cambridge Crystallographic Data Centre
#                                CCDC
#
#######################################################################
#
# If this CIF has been generated from an entry in the Cambridge
# Structural Database, then it will include bibliographic, chemical,
# crystal, experimental, refinement or atomic coordinate data resulting
# from the CCDC's data processing and validation procedures.
#
#######################################################################

data_CSD_CIF_CIDTUE
_audit_creation_date 1985-03-02
_audit_creation_method CSD-ConQuest-V1
_database_code_CSD CIDTUE
_chemical_formula_sum 'C15 H19 N5 O4'
_chemical_formula_moiety
;
C15 H19 N5 O4
;
_journal_coden_Cambridge 24
_journal_volume 25
_journal_year 1984
_journal_page_first 2459
_journal_name_full 'Tetrahedron Lett. '
loop_
_publ_author_name
"G.Fischer"
"D.Hunkler"
"H.Prinzbach"
"G.Rihs"
"H.Fritz"
_chemical_name_systematic
;
8-Methyl-1,2,6,8,10-penta-aza-3,4-dioxa-octacyclo(9.9.1.0^2,17^.0^4,21^.0^5,16
^.0^6,10^.0^12,16^.0^12,20^)heneicosa-7,9-dione
;
_chemical_name_common
;
8-Methyl-1,2,6,8,10-penta-aza-3,4-dioxa-octacyclo(9.9.1.0$2,17!.0$4,21!.0$5,16
!.0$6,10!.0$12,16!.0$12,20!)heneicosa-7,9-dione
;
_chemical_melting_point 623.15
_cell_volume   1600.566
_exptl_special_details
;
Melts above 623.15K

;
_diffrn_ambient_temperature ?
_diffrn_special_details
;
The study was carried out at room temperature,in the range 283-303K

;
#These two values have been output from a single CSD field.
_refine_ls_R_factor_gt 0.132
_refine_ls_wR_factor_gt 0.132
_symmetry_cell_setting triclinic
_symmetry_space_group_name_H-M 'P -1'
_symmetry_Int_Tables_number 2
loop_
_symmetry_equiv_pos_site_id
_symmetry_equiv_pos_as_xyz
1 x,y,z
2 -x,-y,-z
_cell_length_a 7.586
_cell_length_b 13.652
_cell_length_c 16.761
_cell_angle_alpha 106.74
_cell_angle_beta 93.14
_cell_angle_gamma 103.73
_cell_formula_units_Z 4
loop_
_atom_type_symbol
_atom_type_radius_bond
C 0.68
N 0.68
O 0.68
loop_
_atom_site_label
_atom_site_type_symbol
_atom_site_fract_x
_atom_site_fract_y
_atom_site_fract_z
C1 C 0.22000 0.66240 0.23280
C2 C 0.40800 0.66120 0.26090
C3 C 0.50100 0.77270 0.32280
C4 C 0.70400 0.79110 0.35130
C5 C 0.80400 0.78480 0.27360
C6 C 0.66400 0.74610 0.19420
C7 C 0.52500 0.64400 0.18440
C8 C 0.40200 0.64080 0.10520
N1 N 0.22300 0.56580 0.08800
C9 C 0.18300 0.46300 0.03910
N2 N 0.06100 0.40590 0.07790
C10 C 0.03900 0.47060 0.15450
N3 N 0.13100 0.56960 0.15880
C11 C 0.23400 0.75720 0.19840
O1 O 0.31200 0.85230 0.26460
N4 N 0.49500 0.85440 0.28110
N5 N 0.55000 0.82100 0.19570
C12 C 0.38200 0.75380 0.13770
C13 C 0.41600 0.57060 0.29520
O2 O 0.45100 0.49040 0.22550
C14 C 0.57500 0.54390 0.18080
O3 O 0.23700 0.42740 -0.02830
C15 C -0.03200 0.29260 0.04280
O4 O -0.05400 0.44280 0.20690
C16 C 0.41500 0.73500 0.78820
C17 C 0.56500 0.74740 0.72820
C18 C 0.46700 0.67600 0.64070
C19 C 0.59100 0.68470 0.57040
C20 C 0.62300 0.80130 0.56510
C21 C 0.55700 0.86810 0.64080
C22 C 0.62500 0.86450 0.72710
C23 C 0.51000 0.92800 0.78220
N6 N 0.52100 0.91940 0.86680
C24 C 0.65600 0.97940 0.93260
N7 N 0.67400 0.91250 0.97850
C25 C 0.57500 0.81000 0.93790
N8 N 0.47300 0.81450 0.86940
C26 C 0.25300 0.76460 0.74970
O5 O 0.17700 0.69250 0.66900
N9 N 0.30900 0.71460 0.61870
N10 N 0.35300 0.83010 0.63870
C27 C 0.32500 0.87080 0.72910
C28 C 0.74100 0.72780 0.76110
O6 O 0.85900 0.83050 0.80490
C29 C 0.83200 0.89720 0.75690
O7 O 0.73900 1.07280 0.94740
C30 C 0.79600 0.94400 1.05640
O8 O 0.57500 0.73130 0.95910
#END
