
#######################################################################
#
#                 Cambridge Crystallographic Data Centre
#                                CCDC
#
#######################################################################
#
# If this CIF has been generated from an entry in the Cambridge
# Structural Database, then it will include bibliographic, chemical,
# crystal, experimental, refinement or atomic coordinate data resulting
# from the CCDC's data processing and validation procedures.
#
#######################################################################

data_CSD_CIF_CIDVIX
_audit_creation_date 2018-07-02
_audit_creation_method CSD-ConQuest-V1
_database_code_CSD CIDVIX
_database_code_depnum_ccdc_archive 'CCDC 1852893'
_chemical_formula_sum 'C26 H23 N1 O3'
_chemical_formula_moiety
;
C26 H23 N1 O3
;
_journal_coden_Cambridge 1078
_journal_year 2018
_journal_name_full 'CSD Communication(Private Communication) '
loop_
_publ_author_name
"guangyi ren"
_chemical_name_systematic
;
7-(benzyloxy)-5,5-dimethyl-1,2-diphenyl-4-oxa-7-azaspiro[2.4]hept-1-en-6-one
;
_cell_volume   2147.354
_exptl_crystal_colour 'colorless'
_exptl_crystal_density_diffrn 1.229
_exptl_crystal_description 'block'
_diffrn_ambient_temperature 173.2
#These two values have been output from a single CSD field.
_refine_ls_R_factor_gt 0.0458
_refine_ls_wR_factor_gt 0.0458
_symmetry_cell_setting orthorhombic
_symmetry_space_group_name_H-M 'P 21 21 21'
_symmetry_Int_Tables_number 19
loop_
_symmetry_equiv_pos_site_id
_symmetry_equiv_pos_as_xyz
1 x,y,z
2 1/2-x,-y,1/2+z
3 -x,1/2+y,1/2-z
4 1/2+x,1/2-y,-z
_cell_length_a 9.1887(18)
_cell_length_b 12.123(2)
_cell_length_c 19.277(4)
_cell_angle_alpha 90
_cell_angle_beta 90
_cell_angle_gamma 90
_cell_formula_units_Z 4
loop_
_atom_type_symbol
_atom_type_radius_bond
C 0.68
H 0.23
N 0.68
O 0.68
loop_
_atom_site_label
_atom_site_type_symbol
_atom_site_fract_x
_atom_site_fract_y
_atom_site_fract_z
O1 O 0.54517(13) 0.56070(9) 0.80992(6)
O2 O 0.75695(13) 0.35046(9) 0.73091(6)
O3 O 0.74620(15) 0.33947(12) 0.87943(7)
N1 N 0.67136(16) 0.41249(12) 0.77568(7)
C1 C 0.58469(18) 0.50256(14) 0.74859(8)
C2 C 0.61256(19) 0.55889(14) 0.68342(8)
C3 C 0.71512(19) 0.62910(13) 0.64779(8)
C4 C 0.83169(19) 0.67284(14) 0.68481(9)
H1 H 0.84110 0.65740 0.73290
C5 C 0.9342(2) 0.73866(16) 0.65214(10)
H2 H 1.01350 0.76820 0.67770
C6 C 0.9202(2) 0.76096(16) 0.58226(10)
H3 H 0.98980 0.80670 0.55990
C7 C 0.8056(2) 0.71717(16) 0.54434(9)
H4 H 0.79740 0.73200 0.49610
C8 C 0.7032(2) 0.65190(14) 0.57719(9)
H5 H 0.62410 0.62240 0.55140
C9 C 0.49104(18) 0.50021(13) 0.68712(9)
C10 C 0.34960(19) 0.47135(14) 0.65824(9)
C11 C 0.2872(2) 0.53720(16) 0.60744(9)
H6 H 0.34000 0.59780 0.58890
C12 C 0.1485(2) 0.51475(18) 0.58388(11)
H7 H 0.10570 0.56070 0.54960
C13 C 0.0718(2) 0.42628(19) 0.60976(11)
H8 H -0.02360 0.41120 0.59330
C14 C 0.1336(2) 0.3598(2) 0.65941(13)
H9 H 0.08140 0.29810 0.67680
C15 C 0.2716(2) 0.38249(17) 0.68415(11)
H10 H 0.31320 0.33700 0.71900
C16 C 0.56815(19) 0.49127(14) 0.87022(8)
C17 C 0.67547(19) 0.40485(14) 0.84461(9)
C18 C 0.6300(2) 0.56178(18) 0.92763(10)
H11 H 0.71850 0.59860 0.91120
H12 H 0.65360 0.51520 0.96760
H13 H 0.55810 0.61740 0.94130
C19 C 0.4272(2) 0.43405(16) 0.8910(1)
H14 H 0.35640 0.48930 0.90650
H15 H 0.44660 0.38220 0.92890
H16 H 0.38790 0.39390 0.85110
C20 C 0.6823(2) 0.24749(15) 0.71480(11)
H17 H 0.58520 0.26260 0.69460
H18 H 0.66950 0.20260 0.75730
C21 C 0.7764(2) 0.18817(15) 0.66362(10)
C22 C 0.7704(3) 0.21455(18) 0.59396(11)
H19 H 0.70610 0.27090 0.57860
C23 C 0.8570(3) 0.1597(2) 0.54616(13)
H20 H 0.85160 0.17800 0.49830
C24 C 0.9502(3) 0.0793(2) 0.56848(17)
H21 H 1.01060 0.04220 0.53600
C25 C 0.9572(2) 0.0515(2) 0.63792(17)
H22 H 1.02140 -0.00510 0.65290
C26 C 0.8704(2) 0.10652(16) 0.68587(13)
H23 H 0.87570 0.08800 0.73370
#END
