
#######################################################################
#
#                 Cambridge Crystallographic Data Centre
#                                CCDC
#
#######################################################################
#
# If this CIF has been generated from an entry in the Cambridge
# Structural Database, then it will include bibliographic, chemical,
# crystal, experimental, refinement or atomic coordinate data resulting
# from the CCDC's data processing and validation procedures.
#
#######################################################################

data_CSD_CIF_CIFFIG
_audit_creation_date 1985-03-02
_audit_creation_method CSD-ConQuest-V1
_database_code_CSD CIFFIG
_chemical_formula_sum 'C14 H21 N5 O5'
_chemical_formula_moiety
;
C14 H21 N5 O5
;
_journal_coden_Cambridge 389
_journal_volume 12
_journal_year 1984
_journal_page_first 2447
_journal_name_full 'Nucleic Acids Res. '
loop_
_publ_author_name
"G.I.Birnbaum"
"B.Kierdaszuk"
"D.Shugar"
_chemical_name_systematic
;
N^6^-Methoxy-2',3',5'-tri-O-methyladenosine
;
_cell_volume   1699.937
_exptl_crystal_colour 'colorless'
_exptl_crystal_density_diffrn 1.33
_diffrn_ambient_temperature ?
_diffrn_special_details
;
The study was carried out at room temperature,in the range 283-303K

;
#These two values have been output from a single CSD field.
_refine_ls_R_factor_gt 0.038
_refine_ls_wR_factor_gt 0.038
_symmetry_cell_setting orthorhombic
_symmetry_space_group_name_H-M 'P 21 21 21'
_symmetry_Int_Tables_number 19
loop_
_symmetry_equiv_pos_site_id
_symmetry_equiv_pos_as_xyz
1 x,y,z
2 1/2+x,1/2-y,-z
3 -x,1/2+y,1/2-z
4 1/2-x,-y,1/2+z
_cell_length_a 4.693(2)
_cell_length_b 11.412(2)
_cell_length_c 31.741(4)
_cell_angle_alpha 90
_cell_angle_beta 90
_cell_angle_gamma 90
_cell_formula_units_Z 4
loop_
_atom_type_symbol
_atom_type_radius_bond
C 0.68
H 0.23
N 0.68
O 0.68
loop_
_atom_site_label
_atom_site_type_symbol
_atom_site_fract_x
_atom_site_fract_y
_atom_site_fract_z
N1 N 0.90870 0.30882 0.74922
C1 C 0.71690 0.25966 0.77549
N2 N 0.56430 0.31311 0.80364
C2 C 0.62190 0.43110 0.80387
C3 C 0.80430 0.49174 0.77890
C4 C 0.96870 0.42909 0.74801
N3 N 1.14660 0.47854 0.72277
O1 O 1.27870 0.39189 0.69670
C5 C 1.44740 0.45205 0.66700
N4 N 0.80310 0.60954 0.78931
C6 C 0.61910 0.61700 0.82042
N5 N 0.50500 0.51148 0.83133
C7 C 0.28200 0.48554 0.86255
O2 O 0.20640 0.59072 0.88313
C8 C 0.38350 0.39900 0.89635
O3 O 0.15350 0.33099 0.91093
C9 C 0.11500 0.22558 0.88797
C10 C 0.48240 0.48229 0.93149
O4 O 0.45390 0.44042 0.97300
C11 C 0.65720 0.35267 0.98298
C12 C 0.29320 0.58836 0.92631
C13 C 0.44320 0.70086 0.93766
O5 O 0.24420 0.79189 0.93797
C14 C 0.36360 0.89827 0.95004
H1 H 1.00300 0.26300 0.73100
H2 H 0.68500 0.18000 0.77300
H3 H 0.57600 0.68900 0.83700
H4 H 1.31800 0.49100 0.65200
H5 H 1.55700 0.39600 0.65100
H6 H 1.57200 0.52100 0.68100
H7 H 0.12000 0.45900 0.84700
H8 H 0.52300 0.35100 0.88700
H9 H -0.03700 0.18400 0.90400
H10 H 0.28000 0.18200 0.89000
H11 H 0.09500 0.23600 0.86100
H12 H 0.67800 0.49900 0.92800
H13 H 0.65300 0.28500 0.96000
H14 H 0.62300 0.33400 1.01100
H15 H 0.85400 0.37800 0.98100
H16 H 0.13200 0.57900 0.94100
H17 H 0.50500 0.69000 0.96500
H18 H 0.61300 0.73400 0.92000
H19 H 0.45500 0.89400 0.98200
H20 H 0.24600 0.95500 0.95900
H21 H 0.53600 0.92400 0.93100
#END
