
#######################################################################
#
#                 Cambridge Crystallographic Data Centre
#                                CCDC
#
#######################################################################
#
# If this CIF has been generated from an entry in the Cambridge
# Structural Database, then it will include bibliographic, chemical,
# crystal, experimental, refinement or atomic coordinate data resulting
# from the CCDC's data processing and validation procedures.
#
#######################################################################

data_CSD_CIF_CIFKEI
_audit_creation_date 2007-10-09
_audit_creation_method CSD-ConQuest-V1
_database_code_CSD CIFKEI
_database_code_depnum_ccdc_archive 'CCDC 653572'
_chemical_formula_sum 'C41 H50 N2 O10'
_chemical_formula_moiety
;
C41 H50 N2 O10
;
_journal_coden_Cambridge 4
_journal_volume 129
_journal_year 2007
_journal_page_first 6589
_journal_name_full 'J.Am.Chem.Soc. '
loop_
_publ_author_name
"S.T.Phillips"
"M.D.Shair"
_chemical_name_systematic
;
Ritterazine B bis(p-nitrobenzoate)
;
_cell_volume   3811.169
_exptl_crystal_colour 'colorless'
_exptl_crystal_density_diffrn 1.274
_exptl_crystal_description 'chunk'
_diffrn_ambient_temperature 193
#These two values have been output from a single CSD field.
_refine_ls_R_factor_gt 0.0398
_refine_ls_wR_factor_gt 0.0398
_symmetry_cell_setting orthorhombic
_symmetry_space_group_name_H-M 'P 21 21 21'
_symmetry_Int_Tables_number 19
loop_
_symmetry_equiv_pos_site_id
_symmetry_equiv_pos_as_xyz
1 x,y,z
2 1/2-x,-y,1/2+z
3 -x,1/2+y,1/2-z
4 1/2+x,1/2-y,-z
_cell_length_a 6.6933(13)
_cell_length_b 21.217(4)
_cell_length_c 26.837(5)
_cell_angle_alpha 90
_cell_angle_beta 90
_cell_angle_gamma 90
_cell_formula_units_Z 4
loop_
_atom_type_symbol
_atom_type_radius_bond
C 0.68
H 0.23
N 0.68
O 0.68
loop_
_atom_site_label
_atom_site_type_symbol
_atom_site_fract_x
_atom_site_fract_y
_atom_site_fract_z
O1 O 1.2581(5) 0.50786(14) 0.26661(11)
O2 O 1.0336(5) 0.43337(12) 0.23533(10)
O3 O 0.9296(5) 0.59475(12) 0.08384(10)
O4 O 1.2482(5) 0.57233(13) 0.06452(12)
O5 O 0.3732(5) 0.29756(13) -0.11359(10)
O6 O 0.6344(5) 0.26043(17) -0.15657(12)
O7 O 1.1516(8) 0.91002(15) 0.07319(15)
O8 O 1.4470(7) 0.88815(17) 0.04421(14)
O9 O -0.2467(6) 0.2547(2) -0.31232(13)
O10 O -0.0151(6) 0.21036(17) -0.35363(11)
N1 N 1.2812(10) 0.8739(2) 0.05964(18)
N2 N -0.0745(7) 0.2369(2) -0.31620(16)
C1 C 1.3507(8) 0.4758(2) 0.30867(17)
C2 C 1.1852(7) 0.4469(2) 0.33965(16)
H1 H 1.19930 0.45810 0.37530
H2 H 1.18330 0.40040 0.33630
C3 C 0.9990(8) 0.4764(2) 0.31716(15)
H3 H 0.88500 0.44670 0.31880
H4 H 0.96270 0.51550 0.33510
C4 C 1.0532(8) 0.4904(2) 0.26404(17)
C5 C 0.9329(7) 0.53843(17) 0.23385(14)
H5 H 0.78740 0.53140 0.24020
C6 C 0.9806(7) 0.51936(18) 0.17946(13)
H6 H 1.08870 0.54710 0.16600
C7 C 0.8022(7) 0.51795(19) 0.14246(15)
C8 C 0.8839(7) 0.52699(16) 0.08955(14)
H7 H 1.01030 0.50230 0.08600
C9 C 0.7434(6) 0.50955(16) 0.04742(13)
H8 H 0.80910 0.51770 0.01500
H9 H 0.62140 0.53580 0.04930
C10 C 0.6856(7) 0.43851(17) 0.05119(13)
H10 H 0.81280 0.41380 0.05050
C11 C 0.5552(7) 0.41452(18) 0.00743(14)
C12 C 0.6806(7) 0.41621(17) -0.04096(14)
H11 H 0.71230 0.46060 -0.04920
H12 H 0.80830 0.39380 -0.03520
C13 C 0.5729(7) 0.38590(17) -0.08538(14)
H13 H 0.45410 0.41140 -0.09410
H14 H 0.66330 0.38560 -0.11460
C14 C 0.5088(8) 0.31966(18) -0.07385(14)
H15 H 0.62830 0.29150 -0.07180
C15 C 0.3864(7) 0.31467(18) -0.02596(14)
H16 H 0.35780 0.26980 -0.01860
H17 H 0.25750 0.33690 -0.03020
C16 C 0.5035(8) 0.34414(17) 0.01755(14)
H18 H 0.63350 0.32100 0.01970
C17 C 0.3980(8) 0.3345(2) 0.06726(14)
H19 H 0.37040 0.28900 0.07220
H20 H 0.26880 0.35710 0.06700
C18 C 0.5274(8) 0.35887(17) 0.11025(14)
H21 H 0.45210 0.35490 0.14190
H22 H 0.64900 0.33250 0.11300
C19 C 0.5880(7) 0.42725(18) 0.10277(14)
H23 H 0.46460 0.45370 0.10470
C20 C 0.7304(7) 0.44761(19) 0.14600(16)
H24 H 0.65380 0.44330 0.17780
C21 C 0.9224(7) 0.41041(17) 0.15196(15)
H25 H 0.98440 0.40230 0.11910
H26 H 0.89610 0.36950 0.16850
C22 C 1.0581(7) 0.45120(18) 0.18393(14)
H27 H 1.20070 0.44780 0.17320
C23 C 1.4882(8) 0.4254(2) 0.28747(14)
H28 H 1.59170 0.44540 0.26700
H29 H 1.41030 0.39630 0.26690
H30 H 1.55110 0.40220 0.31480
C24 C 1.4673(7) 0.52706(18) 0.33746(15)
H31 H 1.37440 0.55960 0.34900
H32 H 1.56720 0.54610 0.31540
H33 H 1.53430 0.50790 0.36620
C25 C 0.9848(8) 0.60712(17) 0.24703(14)
H34 H 0.89850 0.63570 0.22810
H35 H 1.12490 0.61540 0.23860
H36 H 0.96410 0.61400 0.28280
C26 C 0.6353(6) 0.56498(16) 0.15397(14)
H37 H 0.57290 0.55410 0.18590
H38 H 0.53470 0.56340 0.12750
H39 H 0.69130 0.60760 0.15600
C27 C 0.3657(7) 0.45540(19) -0.00031(15)
H40 H 0.40330 0.49570 -0.01550
H41 H 0.30170 0.46320 0.03200
H42 H 0.27220 0.43320 -0.02230
C28 C 1.1187(9) 0.6100(2) 0.07060(17)
C29 C 1.1465(8) 0.6797(2) 0.06688(15)
C30 C 1.0081(7) 0.72297(19) 0.08297(13)
H43 H 0.88460 0.70880 0.09640
C31 C 1.0470(8) 0.7874(2) 0.07988(15)
H44 H 0.95180 0.81780 0.09050
C32 C 1.2297(9) 0.8053(2) 0.06066(17)
C33 C 1.3706(8) 0.7631(2) 0.04453(14)
H45 H 1.49530 0.77700 0.03160
C34 C 1.3253(8) 0.6999(2) 0.04762(15)
H46 H 1.41960 0.66970 0.03620
C35 C 0.4600(8) 0.2723(2) -0.15372(19)
C36 C 0.3135(8) 0.2616(2) -0.19487(16)
C37 C 0.1201(8) 0.2813(2) -0.19093(16)
H47 H 0.07350 0.30010 -0.16100
C38 C -0.0095(8) 0.27339(19) -0.23167(16)
H48 H -0.14380 0.28770 -0.23030
C39 C 0.0642(9) 0.2445(2) -0.27320(17)
C40 C 0.2555(8) 0.2234(2) -0.27863(17)
H49 H 0.30110 0.20440 -0.30860
C41 C 0.3800(7) 0.23149(19) -0.23737(16)
H50 H 0.51300 0.21600 -0.23850
#END
