
#######################################################################
#
#                 Cambridge Crystallographic Data Centre
#                                CCDC
#
#######################################################################
#
# If this CIF has been generated from an entry in the Cambridge
# Structural Database, then it will include bibliographic, chemical,
# crystal, experimental, refinement or atomic coordinate data resulting
# from the CCDC's data processing and validation procedures.
#
#######################################################################

data_CSD_CIF_CIFNEL
_audit_creation_date 2007-10-09
_audit_creation_method CSD-ConQuest-V1
_database_code_CSD CIFNEL
_database_code_depnum_ccdc_archive 'CCDC 654023'
_chemical_formula_sum 'C17 H24 N4 O6'
_chemical_formula_moiety
;
C17 H24 N4 O6
;
_journal_coden_Cambridge 1336
_journal_volume 9
_journal_year 2007
_journal_page_first 2341
_journal_name_full 'Org.Lett. '
loop_
_publ_author_name
"S.E.Snyder"
"P.I.Volkers"
"D.A.Engebretson"
"Wonjae Lee"
"W.H.Pirkle"
"J.R.Carey"
_chemical_name_systematic
;
rac-N'-(3,5-dinitrobenzoyl)-N,N-diethylleucinamide
;
_cell_volume   7833.234
_exptl_crystal_colour 'colorless'
_exptl_crystal_density_diffrn 1.29
_exptl_crystal_description 'platy'
_exptl_crystal_preparation 'absolute ethanol'
_diffrn_ambient_temperature 193
#These two values have been output from a single CSD field.
_refine_ls_R_factor_gt 0.0427
_refine_ls_wR_factor_gt 0.0427
loop_
_citation_database_id_CSD
_citation_special_details
CIKVEY "is a stereoisomer of this entry"
_symmetry_cell_setting monoclinic
_symmetry_space_group_name_H-M 'I 2/a'
_symmetry_Int_Tables_number 15
loop_
_symmetry_equiv_pos_site_id
_symmetry_equiv_pos_as_xyz
1 x,y,z
2 1/2+x,1/2+y,1/2+z
3 1/2-x,y,-z
4 -x,1/2+y,1/2-z
5 -x,-y,-z
6 -1/2-x,-1/2-y,-1/2-z
7 -1/2+x,-y,z
8 x,-1/2-y,-1/2+z
_cell_length_a 20.525(4)
_cell_length_b 12.332(3)
_cell_length_c 32.577(8)
_cell_angle_alpha 90
_cell_angle_beta 108.199(4)
_cell_angle_gamma 90
_cell_formula_units_Z 16
loop_
_atom_type_symbol
_atom_type_radius_bond
C 0.68
H 0.23
N 0.68
O 0.68
loop_
_atom_site_label
_atom_site_type_symbol
_atom_site_fract_x
_atom_site_fract_y
_atom_site_fract_z
O1 O 0.59305(12) 0.64360(18) 0.34026(6)
O2 O 0.67331(11) 0.75449(17) 0.37473(7)
O3 O 0.78265(12) 0.98218(18) 0.29579(8)
O4 O 0.75641(12) 0.96575(18) 0.22668(8)
O5 O 0.52946(10) 0.60247(16) 0.18661(6)
O6 O 0.46079(9) 0.81872(15) 0.08630(5)
O7 O 0.53893(13) 0.88937(17) 0.33561(7)
O8 O 0.43331(13) 0.84103(19) 0.32693(7)
O9 O 0.35062(11) 0.62208(18) 0.19105(7)
O10 O 0.34415(11) 0.71439(17) 0.13319(7)
O11 O 0.56815(11) 1.07323(16) 0.20718(6)
O12 O 0.64144(9) 0.89840(16) 0.12694(6)
N1 N 0.63611(14) 0.7134(2) 0.34158(8)
N2 N 0.74889(14) 0.9428(2) 0.26137(10)
N3 N 0.56872(12) 0.71494(19) 0.14487(8)
N4 N 0.41010(12) 0.66261(19) 0.05742(7)
N5 N 0.48098(18) 0.8645(2) 0.31358(10)
N6 N 0.36488(13) 0.7003(2) 0.17245(10)
N7 N 0.52938(11) 0.98539(17) 0.14365(7)
H1 H 0.50360 0.93240 0.12910
N8 N 0.69043(13) 1.0635(2) 0.12908(7)
C1 C 0.64368(15) 0.7503(2) 0.30009(9)
C2 C 0.69033(15) 0.8300(2) 0.30065(9)
H2 H 0.71690 0.86310 0.32690
C3 C 0.69682(15) 0.8598(2) 0.26151(10)
C4 C 0.65930(14) 0.8137(2) 0.22294(9)
H3 H 0.66590 0.83570 0.19660
C5 C 0.61176(14) 0.7347(2) 0.22333(9)
C6 C 0.60427(14) 0.7005(2) 0.26236(9)
H4 H 0.57290 0.64450 0.26310
C7 C 0.56603(15) 0.6774(2) 0.18314(10)
C8 C 0.53097(14) 0.6599(2) 0.10479(8)
H5 H 0.52160 0.58310 0.11100
C9 C 0.57320(14) 0.6625(2) 0.07353(8)
H6 H 0.54640 0.62650 0.04630
H7 H 0.57970 0.73910 0.06660
C10 C 0.64330(16) 0.6087(3) 0.08961(10)
H8 H 0.66850 0.64080 0.11840
C11 C 0.63792(19) 0.4876(3) 0.09558(11)
H9 H 0.61660 0.47400 0.11810
H10 H 0.68390 0.45540 0.10410
H11 H 0.60980 0.45510 0.06840
C12 C 0.68347(16) 0.6350(3) 0.05875(11)
H12 H 0.65740 0.61090 0.02960
H13 H 0.72780 0.59750 0.06820
H14 H 0.69110 0.71340 0.05860
C13 C 0.46324(15) 0.7190(3) 0.08275(9)
C14 C 0.40663(15) 0.5447(2) 0.05242(10)
H15 H 0.45330 0.51410 0.06470
H16 H 0.39010 0.52660 0.02130
C15 C 0.36049(19) 0.4943(3) 0.07408(13)
H17 H 0.37700 0.51110 0.10500
H18 H 0.36000 0.41550 0.07010
H19 H 0.31400 0.52290 0.06150
C16 C 0.34884(15) 0.7240(2) 0.03315(10)
H20 H 0.34440 0.78890 0.04990
H21 H 0.30760 0.67840 0.02920
C17 C 0.35236(19) 0.7587(3) -0.01039(10)
H22 H 0.39430 0.80070 -0.00670
H23 H 0.31230 0.80350 -0.02480
H24 H 0.35270 0.69440 -0.02800
C18 C 0.46765(17) 0.8619(2) 0.26604(10)
C19 C 0.42176(15) 0.7854(2) 0.24289(10)
H25 H 0.39870 0.73710 0.25640
C20 C 0.41139(15) 0.7833(2) 0.1990(1)
C21 C 0.44336(14) 0.8543(2) 0.17896(9)
H26 H 0.43300 0.85300 0.14840
C22 C 0.49088(14) 0.9279(2) 0.20349(9)
C23 C 0.50240(15) 0.9321(2) 0.24778(9)
H27 H 0.53390 0.98300 0.26520
C24 C 0.53228(15) 1.0021(2) 0.18487(10)
C25 C 0.56737(14) 1.0520(2) 0.12236(9)
H28 H 0.57410 1.12640 0.13530
C26 C 0.52807(14) 1.0587(2) 0.07391(9)
H29 H 0.55760 1.09470 0.05910
H30 H 0.51890 0.98410 0.06230
C27 C 0.45999(15) 1.1200(3) 0.06296(9)
H31 H 0.43640 1.09840 0.08430
C28 C 0.47127(19) 1.2412(3) 0.06611(10)
H32 H 0.49330 1.26420 0.04490
H33 H 0.50080 1.25980 0.09520
H34 H 0.42700 1.27810 0.06030
C29 C 0.41386(17) 1.0897(3) 0.0181(1)
H35 H 0.43680 1.10780 -0.00320
H36 H 0.37070 1.13000 0.01160
H37 H 0.40430 1.01170 0.01700
C30 C 0.63718(16) 0.9991(3) 0.12741(9)
C31 C 0.75603(15) 1.0135(2) 0.13122(10)
H38 H 0.75770 0.93950 0.14330
H39 H 0.79370 1.05610 0.15110
C32 C 0.76757(17) 1.0066(3) 0.08783(11)
H40 H 0.72930 0.96770 0.06750
H41 H 0.81040 0.96770 0.09080
H42 H 0.77050 1.07990 0.07690
C33 C 0.69028(15) 1.1820(2) 0.13407(10)
H43 H 0.64390 1.21020 0.11870
H44 H 0.72270 1.21450 0.12060
C34 C 0.71038(16) 1.2157(2) 0.18116(10)
H45 H 0.67580 1.18990 0.19380
H46 H 0.71330 1.29500 0.18320
H47 H 0.75500 1.18410 0.19690
H48 H 0.5911(11) 0.7785(15) 0.1410(7)
#END
