
#######################################################################
#
#                 Cambridge Crystallographic Data Centre
#                                CCDC
#
#######################################################################
#
# If this CIF has been generated from an entry in the Cambridge
# Structural Database, then it will include bibliographic, chemical,
# crystal, experimental, refinement or atomic coordinate data resulting
# from the CCDC's data processing and validation procedures.
#
#######################################################################

data_CSD_CIF_CIFQIR
_audit_creation_date 2000-05-24
_audit_creation_method CSD-ConQuest-V1
_database_code_CSD CIFQIR
_database_code_depnum_ccdc_archive 'CCDC 143246'
_chemical_formula_sum 'C12 H17 N3 O3'
_chemical_formula_moiety
;
C12 H17 N3 O3
;
_journal_coeditor_code "IUCr BM1387"
_journal_coden_Cambridge 591
_journal_volume 56
_journal_year 2000
_journal_page_first 336
_journal_name_full 'Acta Crystallogr.,Sect.C:Cryst.Struct.Commun. '
loop_
_publ_author_name
"R.D.Clark"
"A.Romero"
"O.Ya.Borbulevych"
"M.Yu.Antipin"
"V.N.Nesterov"
"T.V.Timofeeva"
_chemical_name_systematic
;
N-(2-(n-Butylamino)-5-nitrophenyl)acetamide
;
_cell_volume    636.213
_exptl_crystal_colour 'yellow'
_exptl_crystal_density_diffrn 1.312
_exptl_crystal_description 'prism'
_exptl_crystal_preparation 'ethanol'
_diffrn_ambient_temperature 193
#These two values have been output from a single CSD field.
_refine_ls_R_factor_gt 0.068
_refine_ls_wR_factor_gt 0.068
_symmetry_cell_setting triclinic
_symmetry_space_group_name_H-M 'P -1'
_symmetry_Int_Tables_number 2
loop_
_symmetry_equiv_pos_site_id
_symmetry_equiv_pos_as_xyz
1 x,y,z
2 -x,-y,-z
_cell_length_a 4.874(2)
_cell_length_b 11.002(5)
_cell_length_c 12.335(7)
_cell_angle_alpha 76.14
_cell_angle_beta 82.27
_cell_angle_gamma 86.99
_cell_formula_units_Z 2
loop_
_atom_type_symbol
_atom_type_radius_bond
C 0.68
H 0.23
N 0.68
O 0.68
loop_
_atom_site_label
_atom_site_type_symbol
_atom_site_fract_x
_atom_site_fract_y
_atom_site_fract_z
N1 N -0.0347(6) 0.6295(2) 0.2835(2)
H1 H -0.195(8) 0.600(3) 0.284(3)
N2 N -0.3423(5) 0.8540(2) 0.2790(2)
H2 H -0.360(7) 0.805(3) 0.234(3)
N3 N 0.3315(5) 0.6793(2) 0.6190(2)
O1 O 0.4166(4) 0.6469(2) 0.2084(2)
O2 O 0.3298(5) 0.7367(2) 0.6937(2)
O3 O 0.4865(5) 0.5883(2) 0.6140(2)
C1 C -0.0243(6) 0.6980(3) 0.3682(2)
C2 C -0.1940(6) 0.8071(3) 0.3661(2)
C3 C -0.1912(6) 0.8669(3) 0.4549(2)
H3 H -0.3051(6) 0.9369(3) 0.4574(2)
C4 C -0.0241(6) 0.8242(3) 0.5380(3)
H4 H -0.0270(6) 0.8641(3) 0.5966(3)
C5 C 0.1480(6) 0.7215(3) 0.5336(2)
C6 C 0.1445(6) 0.6567(3) 0.4503(2)
H5 H 0.2562(6) 0.5856(3) 0.4502(2)
C7 C 0.1883(6) 0.6034(3) 0.2145(2)
C8 C 0.1358(7) 0.5140(3) 0.1444(3)
H6 H -0.0598(8) 0.5098(17) 0.1429(16)
H7 H 0.208(4) 0.4323(6) 0.1767(12)
H8 H 0.226(4) 0.5430(12) 0.0691(6)
C9 C -0.5226(6) 0.9636(3) 0.2737(3)
H9 H -0.4242(6) 1.0302(3) 0.2900(3)
H10 H -0.6820(6) 0.9438(3) 0.3306(3)
C10 C -0.6200(7) 1.0082(3) 0.1590(3)
H11 H -0.7209(7) 0.9419(3) 0.1435(3)
H12 H -0.4601(7) 1.0262(3) 0.1022(3)
C11 C -0.8049(8) 1.1246(3) 0.1510(3)
H13 H -0.9711(8) 1.1041(3) 0.2041(3)
H14 H -0.7090(8) 1.1880(3) 0.1733(3)
C12 C -0.8886(9) 1.1791(4) 0.0353(3)
H15 H -0.969(5) 1.1150(8) 0.0093(10)
H16 H -0.7284(14) 1.211(2) -0.0159(6)
H17 H -1.022(5) 1.2458(18) 0.0388(6)
#END
