
#######################################################################
#
#                 Cambridge Crystallographic Data Centre
#                                CCDC
#
#######################################################################
#
# If this CIF has been generated from an entry in the Cambridge
# Structural Database, then it will include bibliographic, chemical,
# crystal, experimental, refinement or atomic coordinate data resulting
# from the CCDC's data processing and validation procedures.
#
#######################################################################

data_CSD_CIF_CIFROY03
_audit_creation_date 2018-07-10
_audit_creation_method CSD-ConQuest-V1
_database_code_CSD CIFROY03
_database_code_depnum_ccdc_archive 'CCDC 1848408'
_chemical_formula_sum 'C2 H2 N4 O2'
_chemical_formula_moiety
;
C2 H2 N4 O2
;
_journal_coden_Cambridge 1500
_journal_volume 8
_journal_year 2018
_journal_page_first 24627
_journal_name_full 'RSC Advances '
loop_
_publ_author_name
"Pengcheng Zhang"
"Xiuxiu Zhao"
"Yao Du"
"M.Gozin"
"Shenghua Li"
"Siping Pang"
_chemical_name_systematic
;
3-nitro-1H-1,2,4-triazole
;
_chemical_melting_point 544
_cell_volume    843.112
_exptl_crystal_colour 'white'
_exptl_crystal_density_diffrn 1.797
_exptl_special_details
;
P21/c polymorph

;
_exptl_crystal_preparation 'Re-crystallisation from solvent'
_diffrn_ambient_temperature 101.8
#These two values have been output from a single CSD field.
_refine_ls_R_factor_gt 0.0318
_refine_ls_wR_factor_gt 0.0318
_symmetry_cell_setting monoclinic
_symmetry_space_group_name_H-M 'P 21/c'
_symmetry_Int_Tables_number 14
loop_
_symmetry_equiv_pos_site_id
_symmetry_equiv_pos_as_xyz
1 x,y,z
2 -x,1/2+y,1/2-z
3 -x,-y,-z
4 x,-1/2-y,-1/2+z
_cell_length_a 8.7895(6)
_cell_length_b 10.0707(8)
_cell_length_c 9.9645(5)
_cell_angle_alpha 90
_cell_angle_beta 107.082(6)
_cell_angle_gamma 90
_cell_formula_units_Z 8
loop_
_atom_type_symbol
_atom_type_radius_bond
C 0.68
H 0.23
N 0.68
O 0.68
loop_
_atom_site_label
_atom_site_type_symbol
_atom_site_fract_x
_atom_site_fract_y
_atom_site_fract_z
O1 O 0.18398(13) 0.08442(11) 0.10883(10)
N1 N 0.01755(14) -0.07425(12) 0.23324(11)
N2 N 0.18937(14) -0.03533(13) 0.08537(11)
O2 O 0.25857(12) -0.08366(11) 0.00737(10)
N3 N 0.01835(13) -0.29108(13) 0.22142(11)
H1 H -0.00330 -0.37420 0.23620
C1 C -0.03483(16) -0.18565(15) 0.27552(14)
H2 H -0.10080 -0.18980 0.33570
N4 N 0.11015(13) -0.25245(13) 0.14064(11)
C2 C 0.10456(16) -0.12284(15) 0.15385(13)
O3 O 0.35707(13) -0.01670(11) 0.73153(10)
O4 O 0.23094(12) 0.04038(11) 0.51724(10)
N5 N 0.32637(14) -0.02837(12) 0.60363(12)
N6 N 0.49801(14) -0.24353(13) 0.42048(11)
H3 H 0.51690 -0.27770 0.34570
N7 N 0.51204(14) -0.21378(13) 0.64052(11)
C3 C 0.41189(16) -0.13001(15) 0.55244(13)
N8 N 0.39725(14) -0.14173(13) 0.41798(11)
C4 C 0.56493(16) -0.28537(15) 0.55144(13)
H4 H 0.63950 -0.35600 0.57730
#END
