
#######################################################################
#
#                 Cambridge Crystallographic Data Centre
#                                CCDC
#
#######################################################################
#
# If this CIF has been generated from an entry in the Cambridge
# Structural Database, then it will include bibliographic, chemical,
# crystal, experimental, refinement or atomic coordinate data resulting
# from the CCDC's data processing and validation procedures.
#
#######################################################################

data_CSD_CIF_CIFROY01
_audit_creation_date 2011-03-31
_audit_creation_method CSD-ConQuest-V1
_database_code_CSD CIFROY01
_database_code_depnum_ccdc_archive 'CCDC 807307'
_chemical_formula_sum 'C2 H2 N4 O2'
_chemical_formula_moiety
;
C2 H2 N4 O2
;
_journal_coeditor_code "IUCr IS2634"
_journal_coden_Cambridge 1370
_journal_volume 67
_journal_year 2011
_journal_page_first o15
_journal_name_full 'Acta Crystallogr.,Sect.E:Struct.Rep.Online '
loop_
_publ_author_name
"M.Hemamalini"
"H.-K.Fun"
_chemical_name_systematic
;
3-Nitro-1H-1,2,4-triazole
;
_cell_volume    843.027
_exptl_crystal_colour 'colorless'
_exptl_crystal_density_diffrn 1.798
_exptl_special_details
;
P21/c polymorph

;
_exptl_crystal_description 'block'
_diffrn_ambient_temperature 100
#These two values have been output from a single CSD field.
_refine_ls_R_factor_gt 0.0346
_refine_ls_wR_factor_gt 0.0346
_symmetry_cell_setting monoclinic
_symmetry_space_group_name_H-M 'P 21/c'
_symmetry_Int_Tables_number 14
loop_
_symmetry_equiv_pos_site_id
_symmetry_equiv_pos_as_xyz
1 x,y,z
2 -x,1/2+y,1/2-z
3 -x,-y,-z
4 x,-1/2-y,-1/2+z
_cell_length_a 8.7818(1)
_cell_length_b 10.0726(2)
_cell_length_c 9.9703(1)
_cell_angle_alpha 90
_cell_angle_beta 107.081(1)
_cell_angle_gamma 90
_cell_formula_units_Z 8
loop_
_atom_type_symbol
_atom_type_radius_bond
C 0.68
H 0.23
N 0.68
O 0.68
loop_
_atom_site_label
_atom_site_type_symbol
_atom_site_fract_x
_atom_site_fract_y
_atom_site_fract_z
O1 O 0.73082(8) -0.04055(7) 0.51717(7)
O2 O 0.85716(9) 0.01680(7) 0.73151(6)
N1 N 1.01266(8) 0.21389(7) 0.64087(7)
N2 N 0.99857(9) 0.24376(7) 0.42001(7)
N3 N 0.89747(8) 0.14183(7) 0.41773(7)
N4 N 0.82618(9) 0.02813(7) 0.60358(7)
C1 C 1.06543(10) 0.28585(8) 0.55150(8)
H1 H 1.13810 0.35520 0.57680
C2 C 0.91199(9) 0.13008(8) 0.55271(8)
H2 H 1.0120(19) 0.2722(16) 0.3403(16)
O3 O 0.75840(8) 0.41600(7) 0.50676(7)
O4 O 0.68377(9) 0.58439(6) 0.60867(7)
N5 N 0.51771(8) 0.42579(7) 0.73353(7)
N6 N 0.51813(9) 0.20833(7) 0.72132(7)
N7 N 0.60998(9) 0.24714(7) 0.64058(7)
N8 N 0.68913(8) 0.46461(7) 0.58504(7)
C3 C 0.46484(10) 0.31423(8) 0.77581(8)
H3 H 0.40020 0.31020 0.83470
C4 C 0.60451(9) 0.37710(8) 0.65365(8)
H4 H 0.5028(18) 0.1259(16) 0.7343(15)
#END
