
#######################################################################
#
#                 Cambridge Crystallographic Data Centre
#                                CCDC
#
#######################################################################
#
# If this CIF has been generated from an entry in the Cambridge
# Structural Database, then it will include bibliographic, chemical,
# crystal, experimental, refinement or atomic coordinate data resulting
# from the CCDC's data processing and validation procedures.
#
#######################################################################

data_CSD_CIF_CIFWAR
_audit_creation_date 2013-07-07
_audit_creation_method CSD-ConQuest-V1
_database_code_CSD CIFWAR
_database_code_depnum_ccdc_archive 'CCDC 893686'
_chemical_formula_sum 'C10 H19 N3 O3'
_chemical_formula_moiety
;
C10 H19 N3 O3
;
_journal_coden_Cambridge 1037
_journal_volume 14
_journal_year 2013
_journal_page_first 81-3
_journal_name_full 'ARKIVOC '
loop_
_publ_author_name
"R.C.F.Jones"
"C.C.M.Law"
"M.R.J.Elsegood"
_chemical_name_systematic
;
N-(3-Methyl-1-nitrobutan-2-yl)pyrrolidine-1-carboxamide
;
_cell_volume   2452.826
_exptl_crystal_colour 'colorless'
_exptl_crystal_density_diffrn 1.242
_exptl_crystal_description 'tablet'
_diffrn_ambient_temperature 150
#These two values have been output from a single CSD field.
_refine_ls_R_factor_gt 0.0393
_refine_ls_wR_factor_gt 0.0393
_symmetry_cell_setting orthorhombic
_symmetry_space_group_name_H-M 'P 21 21 21'
_symmetry_Int_Tables_number 19
loop_
_symmetry_equiv_pos_site_id
_symmetry_equiv_pos_as_xyz
1 x,y,z
2 1/2-x,-y,1/2+z
3 -x,1/2+y,1/2-z
4 1/2+x,1/2-y,-z
_cell_length_a 9.3464(17)
_cell_length_b 14.504(3)
_cell_length_c 18.094(3)
_cell_angle_alpha 90
_cell_angle_beta 90
_cell_angle_gamma 90
_cell_formula_units_Z 8
loop_
_atom_type_symbol
_atom_type_radius_bond
C 0.68
H 0.23
N 0.68
O 0.68
loop_
_atom_site_label
_atom_site_type_symbol
_atom_site_fract_x
_atom_site_fract_y
_atom_site_fract_z
N1 N 0.2317(2) 0.89083(12) 0.16743(9)
C1 C 0.2486(3) 0.98650(14) 0.19217(12)
H1 H 0.32490 0.99180 0.22990
H2 H 0.15810 1.01090 0.21290
C2 C 0.2895(3) 1.03688(16) 0.12157(12)
H3 H 0.25640 1.10170 0.12270
H4 H 0.39430 1.03580 0.11380
C3 C 0.2124(3) 0.98248(17) 0.06192(13)
H5 H 0.11030 1.00030 0.05910
H6 H 0.25730 0.99240 0.01300
C4 C 0.2284(3) 0.88311(16) 0.08641(12)
H7 H 0.14630 0.84530 0.06980
H8 H 0.31810 0.85580 0.06720
C5 C 0.2259(2) 0.81577(14) 0.21105(11)
O1 O 0.22900(16) 0.73670(9) 0.18419(8)
N2 N 0.2192(2) 0.83145(12) 0.28481(9)
H9 H 0.200(3) 0.8848(17) 0.3005(13)
C6 C 0.2342(2) 0.75723(14) 0.33808(11)
H10 H 0.22270 0.69760 0.31100
C7 C 0.3827(3) 0.75650(16) 0.37556(13)
H11 H 0.38780 0.70020 0.40740
C8 C 0.4986(3) 0.7482(2) 0.31719(16)
H12 H 0.49490 0.80200 0.28440
H13 H 0.48320 0.69200 0.28820
H14 H 0.59240 0.74540 0.34120
C9 C 0.4094(3) 0.83963(19) 0.42474(15)
H15 H 0.50790 0.83790 0.44320
H16 H 0.34280 0.83840 0.46660
H17 H 0.39470 0.89630 0.39620
C10 C 0.1169(3) 0.76293(18) 0.39545(13)
H18 H 0.13790 0.71880 0.43570
H19 H 0.11610 0.82570 0.41700
N3 N -0.0283(2) 0.74210(15) 0.36414(13)
O2 O -0.0383(2) 0.68885(18) 0.31212(13)
O3 O -0.1297(2) 0.77818(14) 0.39439(16)
N4 N -0.18159(18) 0.64393(12) 0.13701(11)
C11 C -0.1347(2) 0.74012(14) 0.13764(14)
H20 H -0.09010 0.75750 0.09000
H21 H -0.06590 0.75170 0.17820
C12 C -0.2739(2) 0.79251(15) 0.15005(14)
H22 H -0.29360 0.80010 0.20350
H23 H -0.27040 0.85410 0.12650
C13 C -0.3864(3) 0.73199(16) 0.11365(14)
H24 H -0.38840 0.74170 0.05950
H25 H -0.48260 0.74450 0.13410
C14 C -0.3372(2) 0.63468(16) 0.13255(15)
H26 H -0.37780 0.61400 0.18030
H27 H -0.36510 0.59050 0.09340
C15 C -0.0956(2) 0.56927(13) 0.13321(11)
O4 O -0.14731(16) 0.49061(9) 0.12662(8)
N5 N 0.04725(18) 0.58461(12) 0.13605(10)
H28 H 0.076(3) 0.6375(17) 0.1466(13)
C16 C 0.1487(2) 0.50922(14) 0.12911(12)
H29 H 0.09440 0.45040 0.13580
C17 C 0.2209(3) 0.50530(17) 0.05296(13)
H30 H 0.28550 0.45040 0.05250
C18 C 0.1094(3) 0.4911(2) -0.00677(13)
H31 H 0.04590 0.54490 -0.00870
H32 H 0.05320 0.43580 0.00440
H33 H 0.15710 0.48360 -0.05460
C19 C 0.3117(3) 0.5895(2) 0.03630(16)
H34 H 0.35680 0.58230 -0.01220
H35 H 0.38580 0.59590 0.07420
H36 H 0.25100 0.64460 0.03610
C20 C 0.2585(3) 0.51482(17) 0.19031(14)
H37 H 0.33520 0.46930 0.18080
H38 H 0.30230 0.57700 0.19020
N6 N 0.1933(3) 0.49636(16) 0.26534(13)
O5 O 0.0911(3) 0.44602(19) 0.27005(12)
O6 O 0.2552(5) 0.52998(14) 0.31737(13)
#END
