
#######################################################################
#
#                 Cambridge Crystallographic Data Centre
#                                CCDC
#
#######################################################################
#
# If this CIF has been generated from an entry in the Cambridge
# Structural Database, then it will include bibliographic, chemical,
# crystal, experimental, refinement or atomic coordinate data resulting
# from the CCDC's data processing and validation procedures.
#
#######################################################################

data_CSD_CIF_CIGSUJ
_audit_creation_date 2018-07-03
_audit_creation_method CSD-ConQuest-V1
_database_code_CSD CIGSUJ
_database_code_depnum_ccdc_archive 'CCDC 1819160'
_chemical_formula_sum 'C6 H4 N6 O8'
_chemical_formula_moiety
;
C6 H4 N6 O8
;
_journal_coden_Cambridge 1254
_journal_volume 22
_journal_year 2018
_journal_page_first 736
_journal_name_full 'Org.Process Res.Dev. '
loop_
_publ_author_name
"E.C.Johnson"
"J.J.Sabatini"
"D.E.Chavez"
"R.C.Sausa"
"E.F.C.Byrd"
"L.A.Wingard"
"P.E.Guzman"
_chemical_name_systematic
;
((3,3'-bi-1,2,4-oxadiazole)-5,5'-diyl)bis(methylene) dinitrate
;
_cell_volume    261.159
_exptl_crystal_colour 'colorless'
_exptl_crystal_density_diffrn 1.832
_exptl_crystal_description 'irregular'
_diffrn_ambient_temperature 295.9
#These two values have been output from a single CSD field.
_refine_ls_R_factor_gt 0.0399
_refine_ls_wR_factor_gt 0.0399
_symmetry_cell_setting triclinic
_symmetry_space_group_name_H-M 'P -1'
_symmetry_Int_Tables_number 2
loop_
_symmetry_equiv_pos_site_id
_symmetry_equiv_pos_as_xyz
1 x,y,z
2 -x,-y,-z
_cell_length_a 4.8405(4)
_cell_length_b 6.0293(4)
_cell_length_c 9.4356(7)
_cell_angle_alpha 80.399(6)
_cell_angle_beta 77.125(7)
_cell_angle_gamma 78.831(6)
_cell_formula_units_Z 1
loop_
_atom_type_symbol
_atom_type_radius_bond
C 0.68
H 0.23
N 0.68
O 0.68
loop_
_atom_site_label
_atom_site_type_symbol
_atom_site_fract_x
_atom_site_fract_y
_atom_site_fract_z
C1 C 0.1352(4) 0.4689(3) 0.94934(17)
C2 C 0.4780(4) 0.2743(3) 0.82870(19)
C3 C 0.7016(4) 0.0916(3) 0.7635(2)
H1 H 0.80791 0.01080 0.83762
H2 H 0.60774 -0.01672 0.73420
N1 N 0.2977(3) 0.6197(3) 0.88459(16)
N2 N 0.2377(3) 0.2500(2) 0.91729(16)
N3 N 0.7748(4) 0.2538(3) 0.51302(17)
O1 O 0.5327(3) 0.4882(2) 0.80232(13)
O2 O 0.8981(3) 0.1777(2) 0.63951(14)
O3 O 0.5272(3) 0.2430(3) 0.52516(18)
O4 O 0.9453(3) 0.3214(3) 0.40980(16)
C1A C -0.1352(4) 0.5311(3) 1.05066(17)
C2A C -0.4780(4) 0.7257(3) 1.17130(19)
C3A C -0.7016(4) 0.9084(3) 1.2365(2)
H1A H -0.80791 0.98920 1.16238
H2A H -0.60774 1.01672 1.26580
N1A N -0.2977(3) 0.3803(3) 1.11541(16)
N2A N -0.2377(3) 0.7500(2) 1.08271(16)
N3A N -0.7748(4) 0.7462(3) 1.48698(17)
O1A O -0.5327(3) 0.5118(2) 1.19768(13)
O2A O -0.8981(3) 0.8223(2) 1.36049(14)
O3A O -0.5272(3) 0.7570(3) 1.47484(18)
O4A O -0.9453(3) 0.6786(3) 1.59020(16)
#END
