
#######################################################################
#
#                 Cambridge Crystallographic Data Centre
#                                CCDC
#
#######################################################################
#
# If this CIF has been generated from an entry in the Cambridge
# Structural Database, then it will include bibliographic, chemical,
# crystal, experimental, refinement or atomic coordinate data resulting
# from the CCDC's data processing and validation procedures.
#
#######################################################################

data_CSD_CIF_CIHKEJ
_audit_creation_date 1985-03-02
_audit_creation_method CSD-ConQuest-V1
_database_code_CSD CIHKEJ
_database_code_depnum_ccdc_archive 'CCDC 1125227'
_chemical_formula_sum 'C12 H18 N4 O2'
_chemical_formula_moiety
;
C12 H18 N4 O2
;
_journal_coeditor_code "IUCr A23737"
_journal_coden_Cambridge 591
_journal_volume 40
_journal_year 1984
_journal_page_first 1199
_journal_name_full 'Acta Crystallogr.,Sect.C:Cryst.Struct.Commun. '
loop_
_publ_author_name
"K.R.Acharya"
"A.M.Shaikh"
"Nizamuddin"
_chemical_name_systematic
;
Acetone O-(2-(1-hydroxy-3-phenyl-2-triazeno)-2-propyl)-oxime
;
_chemical_melting_point 418
_cell_volume   1408.667
_exptl_crystal_colour 'white'
_exptl_crystal_density_diffrn 1.18
_diffrn_ambient_temperature ?
_diffrn_special_details
;
The study was carried out at room temperature,in the range 283-303K

;
#These two values have been output from a single CSD field.
_refine_ls_R_factor_gt 0.084
_refine_ls_wR_factor_gt 0.084
_symmetry_cell_setting monoclinic
_symmetry_space_group_name_H-M 'P 21/c'
_symmetry_Int_Tables_number 14
loop_
_symmetry_equiv_pos_site_id
_symmetry_equiv_pos_as_xyz
1 x,y,z
2 -x,1/2+y,1/2-z
3 -x,-y,-z
4 x,-1/2-y,-1/2+z
_cell_length_a 10.391(1)
_cell_length_b 13.257(4)
_cell_length_c 10.321(2)
_cell_angle_alpha 90
_cell_angle_beta 97.78(1)
_cell_angle_gamma 90
_cell_formula_units_Z 4
loop_
_atom_type_symbol
_atom_type_radius_bond
C 0.68
H 0.23
N 0.68
O 0.68
loop_
_atom_site_label
_atom_site_type_symbol
_atom_site_fract_x
_atom_site_fract_y
_atom_site_fract_z
O1 O 0.95410 -0.00900 0.84590
O2 O 0.83450 -0.09960 0.62310
N1 N 0.80960 0.06680 0.99180
N2 N 0.75510 0.04830 0.86870
N3 N 0.83530 0.01030 0.79920
N4 N 0.76970 -0.17570 0.69080
C1 C 0.59930 0.12000 1.04720
C2 C 0.52710 0.16390 1.13490
C3 C 0.58680 0.19930 1.25290
C4 C 0.71880 0.19260 1.28200
C5 C 0.79240 0.14790 1.19600
C6 C 0.73160 0.11150 1.07650
C7 C 0.79240 -0.00460 0.65640
C8 C 0.87620 0.07060 0.58610
C9 C 0.65000 0.01230 0.61990
C10 C 0.79750 -0.26330 0.65610
C11 C 0.89070 -0.28080 0.55750
C12 C 0.74390 -0.34930 0.71760
H1 H 0.90900 0.05300 0.99200
#END
