
#######################################################################
#
#                 Cambridge Crystallographic Data Centre
#                                CCDC
#
#######################################################################
#
# If this CIF has been generated from an entry in the Cambridge
# Structural Database, then it will include bibliographic, chemical,
# crystal, experimental, refinement or atomic coordinate data resulting
# from the CCDC's data processing and validation procedures.
#
#######################################################################

data_CSD_CIF_CIJBAA
_audit_creation_date 2013-07-07
_audit_creation_method CSD-ConQuest-V1
_database_code_CSD CIJBAA
_database_code_depnum_ccdc_archive 'CCDC 871913'
_chemical_formula_sum 'C20 H12 N4 O4'
_chemical_formula_moiety
;
C20 H12 N4 O4
;
_journal_coden_Cambridge 1500
_journal_volume 3
_journal_year 2013
_journal_page_first 14495
_journal_name_full 'RSC Advances '
loop_
_publ_author_name
"S.K.Panja"
"S.Saha"
_chemical_name_systematic
;
6-Nitro-2-(2-nitrophenyl)-4-phenylquinazoline
;
_cell_volume   1697.161
_exptl_crystal_colour 'brown'
_exptl_crystal_density_diffrn 1.457
_exptl_crystal_description 'rectangular'
_diffrn_ambient_temperature 298
#These two values have been output from a single CSD field.
_refine_ls_R_factor_gt 0.052
_refine_ls_wR_factor_gt 0.052
_symmetry_cell_setting monoclinic
_symmetry_space_group_name_H-M 'P 21/n'
_symmetry_Int_Tables_number 14
loop_
_symmetry_equiv_pos_site_id
_symmetry_equiv_pos_as_xyz
1 x,y,z
2 1/2-x,1/2+y,1/2-z
3 -x,-y,-z
4 -1/2+x,-1/2-y,-1/2+z
_cell_length_a 10.7619(5)
_cell_length_b 7.9318(4)
_cell_length_c 19.9964(10)
_cell_angle_alpha 90
_cell_angle_beta 96.129(4)
_cell_angle_gamma 90
_cell_formula_units_Z 4
loop_
_atom_type_symbol
_atom_type_radius_bond
C 0.68
H 0.23
N 0.68
O 0.68
loop_
_atom_site_label
_atom_site_type_symbol
_atom_site_fract_x
_atom_site_fract_y
_atom_site_fract_z
N1 N 0.74004(13) 0.2706(2) 0.13151(8)
N2 N 0.55772(14) 0.2824(2) 0.05159(8)
C1 C 0.67965(16) 0.3383(2) 0.17913(9)
C2 C 0.55319(16) 0.3948(2) 0.16460(9)
C3 C 0.49523(16) 0.3600(2) 0.09917(10)
C4 C 0.67604(17) 0.2507(2) 0.06941(9)
N3 N 0.92227(17) 0.3814(2) 0.04988(9)
C5 C 0.75208(17) 0.3507(2) 0.24637(9)
C6 C 0.48690(17) 0.4877(2) 0.20939(10)
H1 H 0.52420 0.51660 0.25200
C7 C 0.74978(17) 0.1832(2) 0.01672(9)
C8 C 0.36700(18) 0.5342(3) 0.18885(11)
C9 C 0.70313(19) 0.0571(3) -0.02729(10)
H2 H 0.62390 0.01350 -0.02360
O1 O 0.85692(16) 0.5059(2) 0.05503(9)
C10 C 0.86931(18) 0.2406(2) 0.00882(10)
C11 C 0.87674(17) 0.3996(3) 0.25077(10)
H3 H 0.91230 0.42870 0.21200
C12 C 0.30700(19) 0.4969(3) 0.12531(12)
H4 H 0.22470 0.53000 0.11340
C13 C 0.37060(18) 0.4116(3) 0.08114(11)
H5 H 0.33170 0.38680 0.03850
C14 C 0.70099(19) 0.3058(3) 0.30506(10)
H6 H 0.61750 0.27390 0.30300
C15 C 0.93988(19) 0.1791(3) -0.03916(11)
H7 H 1.02010 0.21990 -0.04230
O2 O 0.35355(17) 0.6858(3) 0.28672(9)
N4 N 0.29753(19) 0.6322(3) 0.23505(11)
C16 C 0.7716(2) -0.0048(3) -0.07620(11)
H8 H 0.73790 -0.08840 -0.10530
C17 C 0.94809(19) 0.4054(3) 0.31235(11)
H9 H 1.03060 0.44170 0.31510
O3 O 1.02915(15) 0.3705(3) 0.07461(10)
C18 C 0.8969(2) 0.3570(3) 0.36998(12)
H10 H 0.94570 0.35750 0.41130
C19 C 0.7736(2) 0.3083(3) 0.36611(11)
H11 H 0.73910 0.27700 0.40500
C20 C 0.8897(2) 0.0562(3) -0.08240(11)
H12 H 0.93520 0.01440 -0.11570
O4 O 0.18744(18) 0.6566(4) 0.21953(12)
#END
