
#######################################################################
#
#                 Cambridge Crystallographic Data Centre
#                                CCDC
#
#######################################################################
#
# If this CIF has been generated from an entry in the Cambridge
# Structural Database, then it will include bibliographic, chemical,
# crystal, experimental, refinement or atomic coordinate data resulting
# from the CCDC's data processing and validation procedures.
#
#######################################################################

data_CSD_CIF_CIJDAC
_audit_creation_date 2013-07-07
_audit_creation_method CSD-ConQuest-V1
_database_code_CSD CIJDAC
_database_code_depnum_ccdc_archive 'CCDC 870203'
_chemical_formula_sum 'C16 H16 N4 O4'
_chemical_formula_moiety
;
C16 H16 N4 O4
;
_journal_coden_Cambridge 206
_journal_volume 43
_journal_year 2013
_journal_page_first 465
_journal_name_full 'Synth.Commun. '
loop_
_publ_author_name
"R.Smits"
"S.Belyakov"
"A.Plotniece"
"G.Duburs"
_chemical_name_systematic
;
Ethyl 3-amino-2-(2,2-dicyano-1-(3-nitrophenyl)ethyl)but-2-enoate
;
_cell_volume   3319.345
_exptl_crystal_colour 'yellow'
_exptl_crystal_density_diffrn 1.314
_exptl_crystal_description 'Needle'
_diffrn_ambient_temperature 293
#These two values have been output from a single CSD field.
_refine_ls_R_factor_gt 0.074
_refine_ls_wR_factor_gt 0.074
_symmetry_cell_setting monoclinic
_symmetry_space_group_name_H-M 'P 21/n'
_symmetry_Int_Tables_number 14
loop_
_symmetry_equiv_pos_site_id
_symmetry_equiv_pos_as_xyz
1 x,y,z
2 1/2-x,1/2+y,1/2-z
3 -x,-y,-z
4 -1/2+x,-1/2-y,-1/2+z
_cell_length_a 19.8757(7)
_cell_length_b 8.4327(3)
_cell_length_c 20.637(1)
_cell_angle_alpha 90
_cell_angle_beta 106.3299(13)
_cell_angle_gamma 90
_cell_formula_units_Z 8
loop_
_atom_type_symbol
_atom_type_radius_bond
C 0.68
H 0.23
N 0.68
O 0.68
loop_
_atom_site_label
_atom_site_type_symbol
_atom_site_fract_x
_atom_site_fract_y
_atom_site_fract_z
C1 C 0.6005(3) 0.6911(5) 0.7036(3)
N1 N 0.4545(3) 0.7945(6) 0.4898(3)
C2 C 0.5943(3) 0.5287(6) 0.6892(3)
N2 N 0.7333(3) 1.0270(8) 0.7628(4)
C3 C 0.7114(3) 0.9495(8) 0.7168(4)
N3 N 0.5876(3) 0.2525(6) 0.7239(4)
O1 O 0.5868(3) 0.2123(5) 0.6673(3)
C4 C 0.5626(3) 0.7691(6) 0.5775(3)
N4 N 0.6951(3) 1.0172(8) 0.5547(3)
O2 O 0.6547(2) 0.6072(4) 0.5672(2)
C5 C 0.6043(3) 0.7411(6) 0.7680(3)
C6 C 0.4598(3) 0.9283(7) 0.5922(3)
C7 C 0.5948(3) 0.4249(6) 0.7409(3)
C8 C 0.4950(3) 0.8267(6) 0.5524(3)
C9 C 0.6034(3) 0.8118(5) 0.6489(3)
C10 C 0.6001(3) 0.4729(7) 0.8061(3)
C11 C 0.6822(3) 0.8544(6) 0.6570(3)
C12 C 0.6895(3) 0.9448(7) 0.5994(4)
O3 O 0.5829(3) 0.1612(5) 0.7674(3)
O4 O 0.5641(3) 0.6402(5) 0.4752(2)
C13 C 0.5910(4) 0.6693(7) 0.5347(3)
C14 C 0.6902(4) 0.5175(8) 0.5253(4)
C15 C 0.6050(4) 0.6324(7) 0.8192(3)
C16 C 0.7531(5) 0.4454(11) 0.5707(5)
H1 H 0.59638 0.48046 0.64448
H2 H 0.58131 0.90154 0.66022
H3 H 0.60955 0.66949 0.86421
H4 H 0.60610 0.85254 0.77788
H5 H 0.60052 0.39441 0.83987
H6 H 0.49176 1.01438 0.61919
H7 H 0.42016 0.97966 0.56192
H8 H 0.44439 0.86446 0.62373
H9 H 0.65881 0.43710 0.50114
H10 H 0.70209 0.58797 0.49366
H11 H 0.77782 0.38472 0.54532
H12 H 0.73970 0.37740 0.60224
H13 H 0.78299 0.52827 0.59475
H14 H 0.40800 0.83559 0.47458
H15 H 0.47220 0.73029 0.46038
H16 H 0.70861 0.75791 0.66042
O5 O 0.4239(3) 0.8378(5) 0.7336(3)
N5 N 0.4254(3) 0.7399(5) 0.7778(3)
C17 C 0.4099(3) 0.1755(5) 0.8437(3)
C18 C 0.4122(3) 0.3032(5) 0.7920(3)
O6 O 0.4315(3) 0.7761(4) 0.8360(3)
C19 C 0.4385(3) 0.2221(6) 0.9175(3)
C20 C 0.5066(3) 0.1813(6) 0.9517(3)
C21 C 0.4181(3) 0.5716(6) 0.7587(3)
C22 C 0.5535(3) 0.0907(8) 0.9198(4)
N6 N 0.3069(3) -0.0564(8) 0.9214(3)
C23 C 0.4185(3) 0.4628(6) 0.8085(3)
C24 C 0.3353(3) 0.0969(6) 0.8230(3)
C25 C 0.3188(3) 0.0121(7) 0.8789(4)
C26 C 0.4082(4) 0.3709(7) 0.6770(3)
O7 O 0.4141(3) 0.3423(6) 1.0132(3)
C27 C 0.2768(3) 0.2025(7) 0.7900(4)
N7 N 0.2319(3) 0.2789(7) 0.7603(3)
N8 N 0.5358(3) 0.2199(6) 1.0166(3)
O8 O 0.3349(2) 0.3552(5) 0.9116(2)
C28 C 0.3969(4) 0.3087(7) 0.9534(4)
C29 C 0.2903(6) 0.4466(12) 0.9430(5)
C30 C 0.4131(3) 0.5298(7) 0.6936(3)
C31 C 0.4081(3) 0.2593(6) 0.7262(3)
C32 C 0.2433(6) 0.5407(11) 0.8985(6)
H17 H 0.39941 0.14149 0.71528
H18 H 0.41753 0.60340 0.65790
H19 H 0.40465 0.33746 0.63174
H20 H 0.43235 0.07740 0.84249
H21 H 0.26530 0.37581 0.96438
H22 H 0.31976 0.51487 0.97635
H23 H 0.21510 0.60077 0.92050
H24 H 0.21375 0.47264 0.86511
H25 H 0.26821 0.61170 0.87708
H26 H 0.53056 0.07171 0.87098
H27 H 0.59618 0.14872 0.92454
H28 H 0.56421 -0.01067 0.94147
H29 H 0.42282 0.49371 0.85425
H30 H 0.58208 0.18959 1.03884
H31 H 0.50968 0.27809 1.04084
H32 H 0.33807 0.02124 0.78910
#END
