
#######################################################################
#
#                 Cambridge Crystallographic Data Centre
#                                CCDC
#
#######################################################################
#
# If this CIF has been generated from an entry in the Cambridge
# Structural Database, then it will include bibliographic, chemical,
# crystal, experimental, refinement or atomic coordinate data resulting
# from the CCDC's data processing and validation procedures.
#
#######################################################################

data_CSD_CIF_CIJYIE
_audit_creation_date 2007-10-09
_audit_creation_method CSD-ConQuest-V1
_database_code_CSD CIJYIE
_database_code_depnum_ccdc_archive 'CCDC 659124'
_chemical_formula_sum 'C5 H4 N4 O2'
_chemical_formula_moiety
;
C5 H4 N4 O2
;
_journal_coeditor_code "IUCr AV3095"
_journal_coden_Cambridge 591
_journal_volume 63
_journal_year 2007
_journal_page_first o445
_journal_name_full 'Acta Crystallogr.,Sect.C:Cryst.Struct.Commun. '
loop_
_publ_author_name
"P.Wagner"
"K.Swierczek"
"M.Kubicki"
_chemical_name_systematic
;
2-methyl-4-nitro-1H-imidazole-5-carbonitrile
;
_cell_volume    683.874
_exptl_crystal_colour 'colorless'
_exptl_crystal_density_diffrn 1.477
_exptl_crystal_description 'block'
_diffrn_ambient_temperature 293
#These two values have been output from a single CSD field.
_refine_ls_R_factor_gt 0.0424
_refine_ls_wR_factor_gt 0.0424
_symmetry_cell_setting triclinic
_symmetry_space_group_name_H-M 'P -1'
_symmetry_Int_Tables_number 2
loop_
_symmetry_equiv_pos_site_id
_symmetry_equiv_pos_as_xyz
1 x,y,z
2 -x,-y,-z
_cell_length_a 7.7166(15)
_cell_length_b 8.1716(11)
_cell_length_c 11.715(2)
_cell_angle_alpha 74.278(14)
_cell_angle_beta 77.630(17)
_cell_angle_gamma 77.150(14)
_cell_formula_units_Z 4
loop_
_atom_type_symbol
_atom_type_radius_bond
C 0.68
H 0.23
N 0.68
O 0.68
loop_
_atom_site_label
_atom_site_type_symbol
_atom_site_fract_x
_atom_site_fract_y
_atom_site_fract_z
N1 N 0.8507(3) 0.1883(3) 0.22523(19)
H1 H 0.914(4) 0.086(3) 0.257(2)
C1 C 0.7128(3) 0.2733(3) 0.2904(2)
C2 C 0.6577(4) 0.2122(3) 0.4221(2)
H2 H 0.60040 0.30920 0.45600
H3 H 0.76220 0.15410 0.45820
H4 H 0.57510 0.13370 0.43710
N2 N 0.6344(3) 0.4164(2) 0.22188(17)
C3 C 0.7283(3) 0.4186(3) 0.1106(2)
N3 N 0.6838(3) 0.5552(3) 0.0095(2)
O1 O 0.5503(3) 0.6657(2) 0.02416(17)
O2 O 0.7840(3) 0.5540(2) -0.08683(17)
C4 C 0.8630(3) 0.2795(3) 0.1082(2)
C5 C 0.9956(4) 0.2282(3) 0.0134(3)
N4 N 1.1037(3) 0.1872(3) -0.0616(2)
N5 N 0.3036(3) 0.6445(3) 0.2744(2)
H5 H 0.409(4) 0.595(3) 0.262(2)
C6 C 0.2551(3) 0.8185(3) 0.2516(2)
C7 C 0.3835(4) 0.9400(3) 0.1984(3)
H6 H 0.36630 0.99660 0.11740
H7 H 0.50460 0.87750 0.19840
H8 H 0.36290 1.02470 0.24510
N6 N 0.0778(3) 0.8635(2) 0.28113(17)
C8 C 0.0171(3) 0.7125(3) 0.3227(2)
N7 N -0.1719(3) 0.7083(3) 0.36126(18)
O3 O -0.2764(2) 0.8462(3) 0.35371(17)
O4 O -0.2175(3) 0.5666(2) 0.40155(18)
C9 C 0.1519(3) 0.5732(3) 0.3201(2)
C10 C 0.1527(4) 0.3925(3) 0.3542(2)
N8 N 0.1538(4) 0.2480(3) 0.3824(2)
#END
