
#######################################################################
#
#                 Cambridge Crystallographic Data Centre
#                                CCDC
#
#######################################################################
#
# If this CIF has been generated from an entry in the Cambridge
# Structural Database, then it will include bibliographic, chemical,
# crystal, experimental, refinement or atomic coordinate data resulting
# from the CCDC's data processing and validation procedures.
#
#######################################################################

data_CSD_CIF_CIJZUR
_audit_creation_date 2007-10-09
_audit_creation_method CSD-ConQuest-V1
_database_code_CSD CIJZUR
_database_code_depnum_ccdc_archive 'CCDC 659129'
_chemical_formula_sum 'C11 H13 N3 O4'
_chemical_formula_moiety
;
C11 H13 N3 O4
;
_journal_coeditor_code "IUCr SK3141"
_journal_coden_Cambridge 591
_journal_volume 63
_journal_year 2007
_journal_page_first o462
_journal_name_full 'Acta Crystallogr.,Sect.C:Cryst.Struct.Commun. '
loop_
_publ_author_name
"J.L.Wardell"
"J.M.S.Skakle"
"J.N.Low"
"C.Glidewell"
_chemical_name_systematic
;
Methyl 3-(2-nitrophenylhydrazono)butanoate
;
_cell_volume   1140.733
_exptl_crystal_colour 'colorless'
_exptl_crystal_density_diffrn 1.463
_exptl_crystal_description 'plate'
_exptl_crystal_preparation 'ethanol'
_diffrn_ambient_temperature 120
#These two values have been output from a single CSD field.
_refine_ls_R_factor_gt 0.0454
_refine_ls_wR_factor_gt 0.0454
_symmetry_cell_setting monoclinic
_symmetry_space_group_name_H-M 'P 21/n'
_symmetry_Int_Tables_number 14
loop_
_symmetry_equiv_pos_site_id
_symmetry_equiv_pos_as_xyz
1 x,y,z
2 1/2-x,1/2+y,1/2-z
3 -x,-y,-z
4 -1/2+x,-1/2-y,-1/2+z
_cell_length_a 12.1494(4)
_cell_length_b 5.1355(2)
_cell_length_c 18.6969(6)
_cell_angle_alpha 90
_cell_angle_beta 102.079(2)
_cell_angle_gamma 90
_cell_formula_units_Z 4
loop_
_atom_type_symbol
_atom_type_radius_bond
C 0.68
H 0.23
N 0.68
O 0.68
loop_
_atom_site_label
_atom_site_type_symbol
_atom_site_fract_x
_atom_site_fract_y
_atom_site_fract_z
C1 C 0.45922(13) 0.3031(3) 0.33540(8)
C2 C 0.57012(13) 0.3105(3) 0.32352(9)
N1 N 0.65264(11) 0.4910(3) 0.36133(8)
O1 O 0.75021(10) 0.4772(3) 0.35191(8)
O2 O 0.62525(10) 0.6564(2) 0.40332(7)
C3 C 0.60631(14) 0.1370(4) 0.27520(9)
C4 C 0.53425(15) -0.0463(4) 0.23858(9)
C5 C 0.42442(14) -0.0596(3) 0.25068(9)
C6 C 0.38764(14) 0.1084(3) 0.29745(9)
N2 N 0.42133(11) 0.4699(3) 0.38180(8)
N3 N 0.31239(11) 0.4447(3) 0.39129(8)
C7 C 0.27959(13) 0.6086(3) 0.43426(9)
C8 C 0.34938(14) 0.8266(3) 0.47396(10)
C9 C 0.16198(13) 0.5701(3) 0.44509(9)
C10 C 0.08386(13) 0.7894(3) 0.41402(9)
O3 O 0.10607(10) 0.9629(2) 0.37597(7)
O4 O -0.01560(9) 0.7650(2) 0.43366(6)
C11 C -0.09780(14) 0.9636(4) 0.40543(10)
H1 H 0.68130 0.14690 0.26790
H2 H 0.55830 -0.16270 0.20540
H3 H 0.37440 -0.18810 0.22590
H4 H 0.31270 0.09410 0.30460
H5 H 0.46580 0.59140 0.40530
H6 H 0.35980 0.96130 0.43880
H7 H 0.42300 0.75900 0.49870
H8 H 0.31090 0.90160 0.51030
H9 H 0.13200 0.40490 0.42150
H10 H 0.16370 0.55460 0.49810
H11 H -0.11740 0.95250 0.35190
H12 H -0.06610 1.13580 0.42000
H13 H -0.16550 0.93700 0.42520
#END
