
#######################################################################
#
#                 Cambridge Crystallographic Data Centre
#                                CCDC
#
#######################################################################
#
# If this CIF has been generated from an entry in the Cambridge
# Structural Database, then it will include bibliographic, chemical,
# crystal, experimental, refinement or atomic coordinate data resulting
# from the CCDC's data processing and validation procedures.
#
#######################################################################

data_CSD_CIF_CIKDAD
_audit_creation_date 2013-11-19
_audit_creation_method CSD-ConQuest-V1
_database_code_CSD CIKDAD
_database_code_depnum_ccdc_archive 'CCDC 913069'
_chemical_formula_sum 'C13 H14 N4 O4'
_chemical_formula_moiety
;
C13 H14 N4 O4
;
_journal_coden_Cambridge 214
_journal_volume 144
_journal_year 2013
_journal_page_first 1013
_journal_name_full 'Monatsh.Chem. '
loop_
_publ_author_name
"B.Broz"
"Z.Padelkova"
"V.Bertolasi"
"P.Simunek"
_chemical_name_systematic
;
Methyl 5-methyl-4-(methylamino)-1-(4-nitrophenyl)-1H-pyrazole-3-carboxylate
;
_cell_volume   1341.964
_exptl_crystal_colour 'orange'
_exptl_crystal_density_diffrn 1.437
_exptl_crystal_description 'block'
_diffrn_ambient_temperature 150
#These two values have been output from a single CSD field.
_refine_ls_R_factor_gt 0.0535
_refine_ls_wR_factor_gt 0.0535
_symmetry_cell_setting orthorhombic
_symmetry_space_group_name_H-M 'P 21 21 21'
_symmetry_Int_Tables_number 19
loop_
_symmetry_equiv_pos_site_id
_symmetry_equiv_pos_as_xyz
1 x,y,z
2 1/2-x,-y,1/2+z
3 1/2+x,1/2-y,-z
4 -x,1/2+y,1/2-z
_cell_length_a 7.4490(4)
_cell_length_b 11.6130(7)
_cell_length_c 15.5131(10)
_cell_angle_alpha 90
_cell_angle_beta 90
_cell_angle_gamma 90
_cell_formula_units_Z 4
loop_
_atom_type_symbol
_atom_type_radius_bond
C 0.68
H 0.23
N 0.68
O 0.68
loop_
_atom_site_label
_atom_site_type_symbol
_atom_site_fract_x
_atom_site_fract_y
_atom_site_fract_z
O1 O 0.1664(3) -0.14406(16) 0.02527(11)
N1 N 0.2905(3) 0.07665(18) 0.01419(13)
O2 O 0.2630(3) -0.15812(18) 0.16135(12)
O3 O 0.3474(3) 0.61543(18) -0.20724(14)
N2 N 0.3468(3) 0.18256(18) 0.03563(13)
N3 N 0.3706(3) 0.5144(2) -0.22716(16)
C1 C 0.3719(4) 0.0855(2) 0.15627(16)
N4 N 0.4112(4) 0.0460(2) 0.23859(13)
H1 H 0.36790 -0.01930 0.25740
C2 C 0.3029(3) 0.0174(2) 0.08795(15)
C3 C 0.2970(3) 0.3792(2) -0.01323(17)
H2 H 0.25490 0.39920 0.04120
C4 C 0.3982(3) 0.1929(2) 0.12134(16)
C5 C 0.2441(4) -0.1022(2) 0.09605(16)
C6 C 0.4147(4) 0.2363(2) -0.11127(16)
H3 H 0.45210 0.16110 -0.12170
C7 C 0.3034(4) 0.4607(2) -0.07837(18)
H4 H 0.26780 0.53630 -0.06810
C8 C 0.3543(3) 0.2681(2) -0.02986(16)
C9 C 0.4765(4) 0.3007(3) 0.15747(17)
H5 H 0.38230 0.34790 0.18050
H6 H 0.53820 0.34190 0.11280
H7 H 0.55960 0.28150 0.20260
C10 C 0.3631(4) 0.4275(2) -0.15847(17)
O4 O 0.3985(4) 0.4828(2) -0.30125(14)
C11 C 0.4184(4) 0.3173(2) -0.17685(16)
H8 H 0.45750 0.29750 -0.23180
C12 C 0.3857(5) 0.1181(3) 0.31379(17)
H9 H 0.42010 0.07630 0.36460
H10 H 0.26170 0.13990 0.31800
H11 H 0.45850 0.18600 0.30860
C13 C 0.1013(5) -0.2607(3) 0.0329(2)
H12 H 0.19740 -0.30950 0.05210
H13 H 0.05900 -0.28690 -0.02220
H14 H 0.00490 -0.26350 0.07390
#END
