
#######################################################################
#
#                 Cambridge Crystallographic Data Centre
#                                CCDC
#
#######################################################################
#
# If this CIF has been generated from an entry in the Cambridge
# Structural Database, then it will include bibliographic, chemical,
# crystal, experimental, refinement or atomic coordinate data resulting
# from the CCDC's data processing and validation procedures.
#
#######################################################################

data_CSD_CIF_CIKFAD
_audit_creation_date 1985-03-02
_audit_creation_method CSD-ConQuest-V1
_database_code_CSD CIKFAD
_database_code_depnum_ccdc_archive 'CCDC 1125425'
_chemical_formula_sum 'C17 H17 N1 O4'
_chemical_formula_moiety
;
C17 H17 N1 O4
;
_journal_coden_Cambridge 54
_journal_volume 93
_journal_year 1984
_journal_page_first 237
_journal_name_full 'Bull.Soc.Chim.Belg. '
loop_
_publ_author_name
"B.Tinant"
"R.Touillaux"
"J.P.Declercq"
"M.van Meerssche"
"G.Leroy"
"J.Weiler"
_chemical_name_systematic
;
Methyl 2-(p-nitrophenyl)-3-phenyl-butanoate
;
_cell_volume   3106.784
_exptl_crystal_density_diffrn 1.28
_diffrn_ambient_temperature ?
_diffrn_special_details
;
The study was carried out at room temperature,in the range 283-303K

;
#These two values have been output from a single CSD field.
_refine_ls_R_factor_gt 0.0924
_refine_ls_wR_factor_gt 0.0924
_symmetry_cell_setting monoclinic
_symmetry_space_group_name_H-M 'P n'
_symmetry_Int_Tables_number 7
loop_
_symmetry_equiv_pos_site_id
_symmetry_equiv_pos_as_xyz
1 x,y,z
2 1/2+x,-y,1/2+z
_cell_length_a 27.490(5)
_cell_length_b 12.434(4)
_cell_length_c 9.135(2)
_cell_angle_alpha 90
_cell_angle_beta 95.74(2)
_cell_angle_gamma 90
_cell_formula_units_Z 8
loop_
_atom_type_symbol
_atom_type_radius_bond
C 0.68
H 0.23
N 0.68
O 0.68
loop_
_atom_site_label
_atom_site_type_symbol
_atom_site_fract_x
_atom_site_fract_y
_atom_site_fract_z
C1 C 0.52120 0.38910 0.40140
H1 H 0.50790 0.30790 0.38400
C2 C 0.48790 0.45090 0.49470
C3 C 0.49510 0.56190 0.52060
H2 H 0.52310 0.60430 0.46910
C4 C 0.46690 0.61570 0.60850
H3 H 0.47230 0.70060 0.62950
C5 C 0.43010 0.56360 0.67500
C6 C 0.42180 0.45540 0.65190
H4 H 0.39230 0.41680 0.70160
C7 C 0.45150 0.39930 0.56350
H5 H 0.44630 0.31400 0.54580
C8 C 0.57330 0.38020 0.47140
H6 H 0.58760 0.46120 0.47440
C9 C 0.57590 0.34060 0.63090
C10 C 0.59310 0.40490 0.74220
H7 H 0.60680 0.48400 0.72010
C11 C 0.59440 0.37000 0.89280
H8 H 0.60580 0.42150 0.98500
C12 C 0.57870 0.27200 0.92140
H9 H 0.58030 0.24000 1.03170
C13 C 0.56170 0.20350 0.80940
H10 H 0.54830 0.12410 0.83160
C14 C 0.55920 0.23670 0.66230
H11 H 0.54470 0.18560 0.57280
C15 C 0.51730 0.43930 0.25190
O1 O 0.54300 0.51420 0.21920
O2 O 0.48440 0.39620 0.15810
C16 C 0.47510 0.45140 0.01830
H12 H 0.44740 0.41060 -0.05350
H13 H 0.50900 0.45270 -0.03210
H14 H 0.46350 0.53290 0.03650
C17 C 0.60510 0.31100 0.37720
H15 H 0.60350 0.33960 0.26520
H16 H 0.59070 0.23020 0.37810
H17 H 0.64260 0.31100 0.42550
N1 N 0.39790 0.62210 0.77370
O3 O 0.40560 0.71940 0.78250
O4 O 0.36880 0.57140 0.82930
C18 C 0.51560 -0.10060 0.22770
H18 H 0.50280 -0.18260 0.23100
C19 C 0.48310 -0.04100 0.10970
C20 C 0.48870 0.06970 0.08680
H19 H 0.51710 0.11260 0.15330
C21 C 0.46010 0.12030 -0.01890
H20 H 0.46310 0.20620 -0.03400
C22 C 0.42520 0.06380 -0.10270
C23 C 0.41820 -0.04490 -0.08380
H21 H 0.38980 -0.08680 -0.15150
C24 C 0.44850 -0.09720 0.02520
H22 H 0.44470 -0.18280 0.04050
C25 C 0.57010 -0.10640 0.18780
H23 H 0.58440 -0.02570 0.18370
C26 C 0.57370 -0.15540 0.03640
C27 C 0.58940 -0.09420 -0.07130
H24 H 0.59910 -0.01120 -0.04940
C28 C 0.59170 -0.14070 -0.21540
H25 H 0.60540 -0.09660 -0.30450
C29 C 0.57830 -0.24560 -0.23590
H26 H 0.58220 -0.28160 -0.34170
C30 C 0.56070 -0.30480 -0.13350
H27 H 0.54620 -0.38400 -0.16030
C31 C 0.55950 -0.25910 0.00790
H28 H 0.55010 -0.30790 0.09880
C32 C 0.51350 -0.04820 0.37540
O5 O 0.53600 0.03260 0.41440
O6 O 0.48290 -0.09550 0.45150
C33 C 0.47470 -0.04320 0.59140
H29 H 0.44940 -0.08970 0.64890
H30 H 0.46000 0.03640 0.56950
H31 H 0.50920 -0.03730 0.65850
C34 C 0.60250 -0.16980 0.30630
H32 H 0.64020 -0.17270 0.28260
H33 H 0.58820 -0.25050 0.30970
H34 H 0.60030 -0.13140 0.41150
N2 N 0.39280 0.12100 -0.21230
O7 O 0.40050 0.21860 -0.24020
O8 O 0.36190 0.06930 -0.28990
C35 C 0.77050 0.15030 1.15490
H35 H 0.78280 0.06780 1.16420
C36 C 0.80240 0.21210 1.05580
C37 C 0.79660 0.32070 1.02800
H36 H 0.76880 0.36460 1.07870
C38 C 0.82640 0.37360 0.93810
H37 H 0.82250 0.45930 0.92150
C39 C 0.86150 0.31540 0.87360
C40 C 0.86730 0.20860 0.90050
H38 H 0.89490 0.16450 0.84920
C41 C 0.83890 0.15700 0.98750
H39 H 0.84400 0.07170 1.00540
C42 C 0.71600 0.14520 1.08540
H40 H 0.69980 0.22410 1.07070
C43 C 0.71250 0.09580 0.93200
C44 C 0.69290 0.15400 0.81080
H41 H 0.68040 0.23480 0.82910
C45 C 0.68910 0.10830 0.67230
H42 H 0.67430 0.15440 0.57800
C46 C 0.70490 0.00360 0.65310
H43 H 0.70150 -0.03240 0.54500
C47 C 0.72520 -0.05390 0.77260
H44 H 0.73780 -0.13500 0.75710
C48 C 0.72770 -0.00790 0.91030
H45 H 0.74150 -0.05490 1.00490
C49 C 0.77320 0.20450 1.30130
O9 O 0.75140 0.28660 1.32560
O10 O 0.80240 0.15440 1.39850
C50 C 0.81110 0.20430 1.54460
H46 H 0.83500 0.15160 1.61250
H47 H 0.77800 0.21770 1.59650
H48 H 0.82920 0.28020 1.53140
C51 C 0.68610 0.08070 1.18650
H49 H 0.64820 0.07640 1.14300
H50 H 0.68910 0.12220 1.29080
H51 H 0.70070 0.00030 1.20190
N3 N 0.89180 0.37220 0.78680
O11 O 0.88510 0.46850 0.75500
O12 O 0.92440 0.32270 0.72600
C52 C 0.26460 0.36160 -0.17730
H52 H 0.27760 0.44350 -0.18020
C53 C 0.29800 0.29800 -0.06420
C54 C 0.29130 0.18890 -0.04040
H53 H 0.26360 0.14600 -0.10940
C55 C 0.32000 0.13400 0.06450
H54 H 0.31390 0.04910 0.08010
C56 C 0.35620 0.18580 0.15280
C57 C 0.36410 0.29310 0.13590
H55 H 0.39320 0.33270 0.20340
C58 C 0.33590 0.34870 0.02890
H56 H 0.34200 0.43380 0.01570
C59 C 0.21310 0.36770 -0.13950
H57 H 0.19670 0.28880 -0.14910
C60 C 0.21100 0.40810 0.01710
C61 C 0.19470 0.34320 0.12650
H58 H 0.18170 0.26310 0.09910
C62 C 0.19410 0.37570 0.26710
H59 H 0.18200 0.32080 0.34760
C63 C 0.20990 0.47770 0.30760
H60 H 0.21030 0.50350 0.42060
C64 C 0.22500 0.54600 0.19930
H61 H 0.23540 0.62770 0.22800
C65 C 0.22670 0.51350 0.05670
H62 H 0.24030 0.56650 -0.02360
C66 C 0.26900 0.30970 -0.32340
O13 O 0.24470 0.23120 -0.36650
O14 O 0.30260 0.35380 -0.39750
C67 C 0.31420 0.30020 -0.53340
H63 H 0.34160 0.34760 -0.58050
H64 H 0.28220 0.29340 -0.61170
H65 H 0.32860 0.22090 -0.50680
C68 C 0.18240 0.43730 -0.25110
H66 H 0.18300 0.40600 -0.36120
H67 H 0.19820 0.51680 -0.24490
H68 H 0.14500 0.44130 -0.22430
N4 N 0.38620 0.12910 0.27070
O15 O 0.37930 0.03170 0.27730
O16 O 0.41780 0.17520 0.34540
#END
