
#######################################################################
#
#                 Cambridge Crystallographic Data Centre
#                                CCDC
#
#######################################################################
#
# If this CIF has been generated from an entry in the Cambridge
# Structural Database, then it will include bibliographic, chemical,
# crystal, experimental, refinement or atomic coordinate data resulting
# from the CCDC's data processing and validation procedures.
#
#######################################################################

data_CSD_CIF_CIKVEY
_audit_creation_date 2007-10-09
_audit_creation_method CSD-ConQuest-V1
_database_code_CSD CIKVEY
_database_code_depnum_ccdc_archive 'CCDC 654024'
_chemical_formula_sum 'C17 H24 N4 O6'
_chemical_formula_moiety
;
C17 H24 N4 O6
;
_journal_coden_Cambridge 1336
_journal_volume 9
_journal_year 2007
_journal_page_first 2341
_journal_name_full 'Org.Lett. '
loop_
_publ_author_name
"S.E.Snyder"
"P.I.Volkers"
"D.A.Engebretson"
"Wonjae Lee"
"W.H.Pirkle"
"J.R.Carey"
_chemical_name_systematic
;
(S)-N'-(3,5-dinitrobenzoyl)-N,N-diethylleucinamide
;
_cell_volume   3975.970
_exptl_crystal_colour 'colorless'
_exptl_crystal_density_diffrn 1.271
_exptl_crystal_description 'tabular'
_exptl_crystal_preparation 'dichloromethane'
_diffrn_ambient_temperature 198
#These two values have been output from a single CSD field.
_refine_ls_R_factor_gt 0.0587
_refine_ls_wR_factor_gt 0.0587
loop_
_citation_database_id_CSD
_citation_special_details
CIFNEL "is a racemate of this entry"
_symmetry_cell_setting orthorhombic
_symmetry_space_group_name_H-M 'P 21 21 21'
_symmetry_Int_Tables_number 19
loop_
_symmetry_equiv_pos_site_id
_symmetry_equiv_pos_as_xyz
1 x,y,z
2 1/2-x,-y,1/2+z
3 -x,1/2+y,1/2-z
4 1/2+x,1/2-y,-z
_cell_length_a 9.857(3)
_cell_length_b 12.751(5)
_cell_length_c 31.634(9)
_cell_angle_alpha 90
_cell_angle_beta 90
_cell_angle_gamma 90
_cell_formula_units_Z 8
loop_
_atom_type_symbol
_atom_type_radius_bond
C 0.68
H 0.23
N 0.68
O 0.68
loop_
_atom_site_label
_atom_site_type_symbol
_atom_site_fract_x
_atom_site_fract_y
_atom_site_fract_z
C1 C 0.4694(7) -0.1815(4) 0.9288(2)
C2 C 0.3726(7) -0.1550(4) 0.9580(2)
C3 C 0.3095(6) -0.0594(4) 0.9584(2)
C4 C 0.3456(5) 0.0156(4) 0.9286(2)
C5 C 0.4441(5) -0.0068(4) 0.8990(2)
C6 C 0.5036(6) -0.1058(4) 0.8991(2)
N1 N 0.3364(8) -0.2336(5) 0.9903(2)
O1 O 0.3937(9) -0.3162(4) 0.9901(2)
O2 O 0.2528(9) -0.2084(5) 1.0164(2)
N2 N 0.6043(6) -0.1314(4) 0.8669(2)
O3 O 0.6443(7) -0.2217(4) 0.8647(2)
O4 O 0.6464(5) -0.0619(4) 0.8440(2)
O5 O 0.1814(5) 0.1281(3) 0.9582(1)
C7 C 0.2741(5) 0.1191(4) 0.9323(2)
N3 N 0.3139(5) 0.1988(3) 0.9082(1)
C8 C 0.2530(6) 0.3025(4) 0.9151(2)
C9 C 0.3453(6) 0.3894(4) 0.8992(2)
C10 C 0.4711(8) 0.4076(5) 0.9258(3)
C11 C 0.4434(13) 0.4292(7) 0.970(9)
C12 C 0.5496(8) 0.5008(6) 0.906(3)
O6 O 0.0982(4) 0.2669(3) 0.8589(1)
C13 C 0.1167(6) 0.3108(4) 0.8935(2)
N4 N 0.0220(5) 0.3709(4) 0.9114(2)
C14 C 0.0393(9) 0.4215(5) 0.9530(2)
C15 C -0.00021(2) 0.3475(6) 0.9885(3)
C16 C -0.1060(7) 0.3850(6) 0.8900(3)
C17 C -0.1040(8) 0.4800(6) 0.8617(3)
C18 C -0.0349(8) -0.1221(5) 0.9100(2)
C19 C 0.0692(8) -0.1771(5) 0.8918(2)
C20 C 0.1520(7) -0.1364(4) 0.8614(2)
C21 C 0.1323(6) -0.0320(4) 0.8483(2)
C22 C 0.0288(6) 0.0260(4) 0.8665(2)
C23 C -0.0531(7) -0.0203(5) 0.8964(2)
N5 N 0.0966(10) -0.2854(5) 0.9066(2)
O7 O 0.0266(12) -0.3174(5) 0.9354(2)
O8 O 0.1832(8) -0.3343(5) 0.8896(3)
N6 N -0.1650(6) 0.0421(5) 0.9154(2)
O9 O -0.2428(6) -0.0027(4) 0.9393(2)
O10 O -0.1733(6) 0.1341(4) 0.9056(2)
O11 O 0.3001(5) -0.0516(3) 0.7956(1)
C24 C 0.2287(6) 0.0096(5) 0.8152(2)
N7 N 0.2278(5) 0.1131(4) 0.8089(1)
C25 C 0.3144(6) 0.1599(4) 0.7775(2)
C26 C 0.2593(6) 0.2678(5) 0.7654(2)
C27 C 0.1127(6) 0.2716(5) 0.7509(2)
C28 C 0.0883(8) 0.2006(7) 0.7125(2)
C29 C 0.0731(7) 0.3833(6) 0.7410(2)
O12 O 0.4749(4) 0.1860(3) 0.8332(1)
C30 C 0.4589(6) 0.1732(5) 0.7955(2)
N8 N 0.5615(5) 0.1753(6) 0.7683(2)
C31 C 0.5533(9) 0.1603(8) 0.7226(2)
C32 C 0.5930(18) 0.0526(12) 0.7112(4)
C33 C 0.7104(14) 0.1744(10) 0.7887(3)
C34 C 0.7216(11) 0.2785(11) 0.7902(4)
H1 H 0.5112(7) -0.2487(4) 0.9288(2)
H2 H 0.2416(6) -0.0445(4) 0.9789(2)
H3 H 0.4709(5) 0.044(4) 0.8789(2)
H4 H 0.3562(59) 0.1918(44) 0.8831(18)
H5 H 0.2392(6) 0.3123(4) 0.9461(2)
H6 H 0.3737(6) 0.3725(4) 0.8700(2)
H7 H 0.2926(6) 0.4555(4) 0.8981(2)
H8 H 0.5295(8) 0.3437(5) 0.9239(3)
H9 H 0.5268(24) 0.4535(56) 0.9847(6)
H10 H 0.4117(74) 0.3649(17) 0.9847(7)
H11 H 0.3735(59) 0.4835(45) 0.9733(3)
H12 H 0.6371(27) 0.5086(28) 0.9207(13)
H13 H 0.4965(28) 0.5652(10) 0.9097(16)
H14 H 0.565(5) 0.4876(21) 0.8762(5)
H15 H -0.0177(9) 0.4853(5) 0.9543(2)
H16 H 0.1352(9) 0.4429(5) 0.9565(2)
H17 H 0.0276(56) 0.3777(25) 1.0157(3)
H18 H 0.0451(53) 0.2798(18) 0.9845(12)
H19 H -0.0987(15) 0.3373(38) 0.9884(12)
H20 H -0.1791(7) 0.3929(6) 0.9112(3)
H21 H -0.1261(7) 0.3219(6) 0.8729(3)
H22 H -0.1952(15) 0.4925(25) 0.8505(14)
H23 H -0.0409(43) 0.4681(18) 0.8383(10)
H24 H -0.0745(52) 0.5413(11) 0.8780(5)
H25 H -0.0918(8) -0.1526(5) 0.9309(2)
H26 H 0.2220(7) -0.1779(4) 0.8493(2)
H27 H 0.0145(6) 0.0969(4) 0.8584(2)
H28 H 0.1782(63) 0.1469(46) 0.8268(18)
H29 H 0.3175(6) 0.1140(4) 0.7519(2)
H30 H 0.2692(6) 0.3149(5) 0.7901(2)
H31 H 0.3168(6) 0.2965(5) 0.7424(2)
H32 H 0.0543(6) 0.2461(5) 0.7746(2)
H33 H 0.1122(45) 0.1282(9) 0.7197(5)
H34 H 0.1445(37) 0.2244(24) 0.6888(5)
H35 H -0.0076(13) 0.2039(29) 0.7044(9)
H36 H -0.0242(12) 0.3864(8) 0.7347(14)
H37 H 0.1245(34) 0.4079(13) 0.7164(9)
H38 H 0.0932(42) 0.4280(9) 0.7654(6)
H39 H 0.6140(9) 0.2109(8) 0.7082(2)
H40 H 0.4594(9) 0.1739(8) 0.7129(2)
H41 H 0.565(14) 0.0378(43) 0.6821(17)
H42 H 0.549(12) 0.0029(13) 0.7304(30)
H43 H 0.6917(22) 0.0454(33) 0.7134(44)
H44 H 0.7124(14) 0.1417(10) 0.8171(3)
H45 H 0.7789(14) 0.1414(10) 0.7701(3)
H46 H 0.6677(65) 0.3057(12) 0.8138(16)
H47 H 0.6885(73) 0.3086(12) 0.7636(11)
H48 H 0.8170(15) 0.2977(12) 0.7942(24)
#END
