
#######################################################################
#
#                 Cambridge Crystallographic Data Centre
#                                CCDC
#
#######################################################################
#
# If this CIF has been generated from an entry in the Cambridge
# Structural Database, then it will include bibliographic, chemical,
# crystal, experimental, refinement or atomic coordinate data resulting
# from the CCDC's data processing and validation procedures.
#
#######################################################################

data_CSD_CIF_CILBII
_audit_creation_date 1985-03-02
_audit_creation_method CSD-ConQuest-V1
_database_code_CSD CILBII
_database_code_depnum_ccdc_archive 'CCDC 1125523'
_chemical_formula_sum 'C7 H10 N4 O14'
_chemical_formula_moiety
;
C7 H10 N4 O14
;
_journal_coden_Cambridge 41
_journal_volume 29
_journal_year 1984
_journal_page_first 489
_journal_name_full 'Kristallografiya(Russ.)(Crystallogr.Rep.) '
loop_
_publ_author_name
"A.V.Nikitin"
"R.M.Myasnikova"
"V.I.Andrianov"
"V.N.Molchanov"
"A.I.Usov"
"S.I.Firgang"
"A.I.Pertsin"
_chemical_name_systematic
;
Methyl-\b-D-glucopyranoside tetranitrate
;
_chemical_melting_point 388.15
_cell_volume   1486.849
_exptl_crystal_density_diffrn 1.67
_exptl_special_details
;
Melting point range 388.15-390.15K

;
_diffrn_ambient_temperature ?
_diffrn_special_details
;
The study was carried out at room temperature,in the range 283-303K

;
#These two values have been output from a single CSD field.
_refine_ls_R_factor_gt 0.0463
_refine_ls_wR_factor_gt 0.0463
_symmetry_cell_setting orthorhombic
_symmetry_space_group_name_H-M 'P 21 21 21'
_symmetry_Int_Tables_number 19
loop_
_symmetry_equiv_pos_site_id
_symmetry_equiv_pos_as_xyz
1 x,y,z
2 1/2+x,1/2-y,-z
3 -x,1/2+y,1/2-z
4 1/2-x,-y,1/2+z
_cell_length_a 15.503
_cell_length_b 13.6
_cell_length_c 7.052
_cell_angle_alpha 90
_cell_angle_beta 90
_cell_angle_gamma 90
_cell_formula_units_Z 4
loop_
_atom_type_symbol
_atom_type_radius_bond
C 0.68
H 0.23
N 0.68
O 0.68
loop_
_atom_site_label
_atom_site_type_symbol
_atom_site_fract_x
_atom_site_fract_y
_atom_site_fract_z
C1 C 0.3949(5) 0.3718(5) -0.1305(10)
C2 C 0.4434(5) 0.3424(5) -0.3096(10)
C3 C 0.5380(4) 0.3195(5) -0.2731(10)
C4 C 0.5795(4) 0.3966(5) -0.149(1)
C5 C 0.5229(5) 0.4201(5) 0.0247(10)
C6 C 0.5590(6) 0.5071(6) 0.133(1)
C7 C 0.2545(5) 0.4185(8) -0.035(1)
O1 O 0.3151(3) 0.4048(4) -0.1883(7)
O2 O 0.4064(3) 0.2525(3) -0.3848(7)
O3 O 0.3032(3) 0.1925(5) -0.5558(10)
O4 O 0.3460(4) 0.3410(5) -0.6179(9)
O5 O 0.5805(3) 0.3217(4) -0.4561(8)
O6 O 0.6248(5) 0.1681(5) -0.4029(10)
O7 O 0.6489(4) 0.2397(6) -0.6733(10)
O8 O 0.6589(3) 0.3526(4) -0.0796(8)
O9 O 0.7287(4) 0.4866(5) -0.1804(10)
O10 O 0.7953(4) 0.3701(5) -0.0282(10)
O11 O 0.4397(3) 0.4501(3) -0.0419(7)
O12 O 0.5129(4) 0.5082(3) 0.3088(9)
O13 O 0.4800(5) 0.5963(5) 0.5546(10)
O14 O 0.5301(4) 0.6720(4) 0.3085(10)
N1 N 0.3456(5) 0.2653(6) -0.5318(10)
N2 N 0.6220(5) 0.2334(6) -0.5144(10)
N3 N 0.7346(4) 0.4104(6) -0.0977(10)
N4 N 0.5076(4) 0.6008(5) 0.3948(10)
H1 H 0.390(4) 0.325(5) -0.045(10)
H2 H 0.439(4) 0.400(5) -0.396(10)
H3 H 0.541(4) 0.254(5) -0.218(10)
H4 H 0.592(4) 0.457(4) -0.214(10)
H5 H 0.520(4) 0.369(4) 0.121(10)
H6 H 0.626(4) 0.501(5) 0.158(10)
H7 H 0.547(5) 0.561(5) 0.062(10)
H8 H 0.207(5) 0.439(6) -0.09(1)
H9 H 0.252(4) 0.355(5) 0.049(10)
H10 H 0.278(5) 0.465(5) 0.047(10)
#END
