
#######################################################################
#
#                 Cambridge Crystallographic Data Centre
#                                CCDC
#
#######################################################################
#
# If this CIF has been generated from an entry in the Cambridge
# Structural Database, then it will include bibliographic, chemical,
# crystal, experimental, refinement or atomic coordinate data resulting
# from the CCDC's data processing and validation procedures.
#
#######################################################################

data_CSD_CIF_CIMGAI
_audit_creation_date 2013-11-20
_audit_creation_method CSD-ConQuest-V1
_database_code_CSD CIMGAI
_database_code_depnum_ccdc_archive 'CCDC 911241'
_chemical_formula_sum 'C25 H30 N2 O5'
_chemical_formula_moiety
;
C25 H30 N2 O5
;
_journal_coden_Cambridge 796
_journal_volume 9
_journal_year 2013
_journal_page_first 731
_journal_name_full 'Nat.Chem.Biol. '
loop_
_publ_author_name
"A.Kramer"
"T.Mentrup"
"B.Kleizen"
"E.Rivera-Milla"
"D.Reichenbach"
"C.Enzensperger"
"R.Nohl"
"E.Tauscher"
"H.Gorls"
"A.Ploubidou"
"C.Englert"
"O.Werz"
"H.-D.Arndt"
"C.Kaether"
_chemical_name_systematic
;
Cyclohexyl 
2,7,7-trimethyl-4-(4-nitrophenyl)-5-oxo-1,4,5,6,7,8-hexahydroquinoline-3-carbo
xylate
;
_cell_volume   2273.953
_exptl_crystal_colour 'colorless'
_exptl_crystal_density_diffrn 1.281
_exptl_crystal_description 'prism'
_diffrn_ambient_temperature 133
#These two values have been output from a single CSD field.
_refine_ls_R_factor_gt 0.0516
_refine_ls_wR_factor_gt 0.0516
_symmetry_cell_setting monoclinic
_symmetry_space_group_name_H-M 'P 21/c'
_symmetry_Int_Tables_number 14
loop_
_symmetry_equiv_pos_site_id
_symmetry_equiv_pos_as_xyz
1 x,y,z
2 -x,1/2+y,1/2-z
3 -x,-y,-z
4 x,-1/2-y,-1/2+z
_cell_length_a 18.0463(9)
_cell_length_b 10.4521(5)
_cell_length_c 12.3077(4)
_cell_angle_alpha 90
_cell_angle_beta 101.616(3)
_cell_angle_gamma 90
_cell_formula_units_Z 4
loop_
_atom_type_symbol
_atom_type_radius_bond
C 0.68
H 0.23
N 0.68
O 0.68
loop_
_atom_site_label
_atom_site_type_symbol
_atom_site_fract_x
_atom_site_fract_y
_atom_site_fract_z
O1 O 0.45104(7) 0.88584(13) 0.03023(10)
O2 O 0.41290(6) 0.84129(11) 0.18994(9)
O3 O 0.17253(7) 0.60566(12) 0.14761(10)
O4 O 0.19616(10) 1.16294(15) 0.49842(12)
O5 O 0.18687(9) 1.30793(14) 0.37099(13)
N1 N 0.21658(8) 0.89826(14) -0.12115(12)
H1 H 0.2036(13) 0.918(2) -0.192(2)
N2 N 0.19867(9) 1.19736(16) 0.40388(13)
C1 C 0.17096(9) 0.81488(16) -0.08007(13)
C2 C 0.09956(10) 0.77670(18) -0.15841(14)
H2 H 0.0788(13) 0.849(2) -0.2071(18)
H3 H 0.1148(11) 0.711(2) -0.2128(17)
C3 C 0.03991(10) 0.71908(17) -0.10024(14)
C4 C 0.07876(10) 0.61872(18) -0.01789(15)
H4 H 0.0932(12) 0.545(2) -0.0608(17)
H5 H 0.0433(12) 0.586(2) 0.0287(17)
C5 C 0.15052(10) 0.66232(16) 0.05920(13)
C6 C 0.19300(9) 0.76625(16) 0.02402(13)
C7 C 0.26430(9) 0.81447(16) 0.10005(13)
H6 H 0.2885(11) 0.740(2) 0.1468(16)
C8 C 0.31885(9) 0.86569(16) 0.03073(13)
C9 C 0.29283(9) 0.91159(16) -0.07313(13)
C10 C 0.33762(11) 0.97585(19) -0.14829(15)
H7 H 0.3832(14) 1.017(2) -0.108(2)
H8 H 0.3033(16) 1.035(3) -0.199(2)
H9 H 0.3549(14) 0.913(3) -0.197(2)
C11 C 0.24695(9) 0.91636(16) 0.18060(13)
C12 C 0.26826(10) 0.89844(17) 0.29496(14)
H10 H 0.2949(11) 0.8220(19) 0.3235(16)
C13 C 0.25236(10) 0.98958(17) 0.36886(14)
H11 H 0.2671(12) 0.975(2) 0.4487(18)
C14 C 0.21655(10) 1.10099(17) 0.32632(14)
C15 C 0.19704(10) 1.12503(17) 0.21338(15)
H12 H 0.1735(12) 1.205(2) 0.1899(17)
C16 C 0.2114(1) 1.03090(17) 0.14107(14)
H13 H 0.1970(11) 1.0465(19) 0.0630(17)
C17 C 0.00473(12) 0.8237(2) -0.03935(18)
H14 H -0.0196(14) 0.888(2) -0.0937(19)
H15 H 0.0436(15) 0.867(2) 0.020(2)
H16 H -0.0343(14) 0.785(2) -0.004(2)
C18 C -0.02184(12) 0.6563(2) -0.18768(17)
H17 H -0.0462(13) 0.722(2) -0.2453(19)
H18 H -0.0617(14) 0.619(2) -0.1538(19)
H19 H 0.0013(14) 0.585(3) -0.227(2)
C19 C 0.40036(10) 0.86669(16) 0.07948(13)
C20 C 0.49221(9) 0.83348(16) 0.24546(14)
H20 H 0.5196(11) 0.8968(19) 0.2121(16)
C21 C 0.52209(11) 0.70092(18) 0.22853(17)
H21 H 0.4903(12) 0.637(2) 0.2570(17)
H22 H 0.5164(13) 0.685(2) 0.1452(19)
C22 C 0.60414(11) 0.6888(2) 0.28956(18)
H23 H 0.6348(13) 0.749(2) 0.2588(18)
H24 H 0.6228(14) 0.599(2) 0.2785(19)
C23 C 0.61183(12) 0.7207(2) 0.41199(18)
H25 H 0.5823(14) 0.658(2) 0.4462(19)
H26 H 0.6668(15) 0.717(2) 0.450(2)
C24 C 0.57999(11) 0.8535(2) 0.42720(16)
H27 H 0.6107(12) 0.922(2) 0.3969(18)
H28 H 0.5856(12) 0.876(2) 0.5069(18)
C25 C 0.49715(10) 0.86333(18) 0.36714(15)
H29 H 0.4769(12) 0.952(2) 0.3762(17)
H30 H 0.4657(13) 0.803(2) 0.3959(18)
#END
