
#######################################################################
#
#                 Cambridge Crystallographic Data Centre
#                                CCDC
#
#######################################################################
#
# If this CIF has been generated from an entry in the Cambridge
# Structural Database, then it will include bibliographic, chemical,
# crystal, experimental, refinement or atomic coordinate data resulting
# from the CCDC's data processing and validation procedures.
#
#######################################################################

data_CSD_CIF_CIMKIS
_audit_creation_date 1985-03-28
_audit_creation_method CSD-ConQuest-V1
_database_code_CSD CIMKIS
_chemical_formula_sum 'C22 H24 N6 O4'
_chemical_formula_moiety
;
C22 H24 N6 O4
;
_journal_coeditor_code "IUCr A23830"
_journal_coden_Cambridge 591
_journal_volume 40
_journal_year 1984
_journal_page_first 1434
_journal_name_full 'Acta Crystallogr.,Sect.C:Cryst.Struct.Commun. '
loop_
_publ_author_name
"C.A.Kavounis"
"P.J.Rentzeperis"
_chemical_name_systematic
;
9,10-bis(p-Nitrobenzeneazo)-cis-decalin
;
_chemical_name_common
;
bis(p-Nitrobenzeneazo)-4a,8a-decahydronaphthalene
;
_chemical_melting_point 435
_cell_volume   2172.592
_exptl_crystal_colour 'red'
_exptl_crystal_density_diffrn 1.334
_exptl_special_details
;
Melting point range 435-438K

;
_diffrn_ambient_temperature ?
_diffrn_special_details
;
The study was carried out at room temperature,in the range 283-303K

;
#These two values have been output from a single CSD field.
_refine_ls_R_factor_gt 0.05
_refine_ls_wR_factor_gt 0.05
_symmetry_cell_setting monoclinic
_symmetry_space_group_name_H-M 'P 21/c'
_symmetry_Int_Tables_number 14
loop_
_symmetry_equiv_pos_site_id
_symmetry_equiv_pos_as_xyz
1 x,y,z
2 -x,1/2+y,1/2-z
3 -x,-y,-z
4 x,-1/2-y,-1/2+z
_cell_length_a 7.520(2)
_cell_length_b 20.180(4)
_cell_length_c 14.823(3)
_cell_angle_alpha 90
_cell_angle_beta 105.02(1)
_cell_angle_gamma 90
_cell_formula_units_Z 4
loop_
_atom_type_symbol
_atom_type_radius_bond
C 0.68
H 0.23
N 0.68
O 0.68
loop_
_atom_site_label
_atom_site_type_symbol
_atom_site_fract_x
_atom_site_fract_y
_atom_site_fract_z
N1 N 0.21670 0.17580 0.17490
N2 N 0.13840 0.18750 0.09370
N3 N -0.37100 -0.00660 -0.09160
N4 N 0.31550 0.17330 0.36590
N5 N 0.38170 0.13130 0.42450
N6 N -0.04490 0.04020 0.66370
O1 O -0.44470 0.00660 -0.17450
O2 O -0.40040 -0.05260 -0.04800
O3 O 0.02990 -0.00190 0.71950
O4 O -0.18940 0.06450 0.65480
C1 C 0.58670 0.14980 0.30230
C2 C 0.71900 0.17940 0.24670
C3 C 0.60540 0.20470 0.15290
C4 C 0.46750 0.25600 0.16380
C5 C 0.20120 0.28520 0.24150
C6 C 0.30360 0.34000 0.30550
C7 C 0.41140 0.31150 0.39840
C8 C 0.54780 0.25720 0.38530
C9 C 0.44550 0.20250 0.31770
C10 C 0.33830 0.23200 0.22420
C11 C 0.01560 0.13310 0.05190
C12 C -0.04790 0.14070 -0.04690
C13 C -0.17570 0.09270 -0.09330
C14 C -0.23360 0.04400 -0.04360
C15 C -0.16680 0.03700 0.05160
C16 C -0.04050 0.08260 0.09590
C17 C 0.26340 0.10550 0.47840
C18 C 0.34150 0.06330 0.54960
C19 C 0.23560 0.04060 0.60770
C20 C 0.05920 0.06050 0.59460
C21 C -0.02540 0.10340 0.52350
C22 C 0.09060 0.12580 0.46780
H1 H 0.66570 0.13290 0.36890
H2 H 0.51010 0.10920 0.26300
H3 H 0.79950 0.21870 0.28550
H4 H 0.80940 0.14030 0.23420
H5 H 0.69570 0.22740 0.11630
H6 H 0.53200 0.16430 0.11300
H7 H 0.53950 0.29950 0.19580
H8 H 0.38250 0.26860 0.09480
H9 H 0.12810 0.30590 0.17470
H10 H 0.10320 0.26140 0.27310
H11 H 0.39820 0.36520 0.27290
H12 H 0.20560 0.37610 0.31850
H13 H 0.48840 0.35030 0.44150
H14 H 0.31570 0.28980 0.43350
H15 H 0.65220 0.27880 0.35680
H16 H 0.61230 0.23470 0.45240
H17 H -0.00110 0.18090 -0.08360
H18 H -0.22820 0.09410 -0.16830
H19 H -0.20900 -0.00320 0.08920
H20 H 0.01620 0.07890 0.17070
H21 H 0.48360 0.04860 0.56050
H22 H 0.29610 0.00630 0.66430
H23 H -0.16590 0.11900 0.51050
H24 H 0.03380 0.16160 0.41350
#END
