
#######################################################################
#
#                 Cambridge Crystallographic Data Centre
#                                CCDC
#
#######################################################################
#
# If this CIF has been generated from an entry in the Cambridge
# Structural Database, then it will include bibliographic, chemical,
# crystal, experimental, refinement or atomic coordinate data resulting
# from the CCDC's data processing and validation procedures.
#
#######################################################################

data_CSD_CIF_CIMREX
_audit_creation_date 2013-11-21
_audit_creation_method CSD-ConQuest-V1
_database_code_CSD CIMREX
_database_code_depnum_ccdc_archive 'CCDC 938298'
_chemical_formula_sum 'C25 H21 N5 O10'
_chemical_formula_moiety
;
C25 H21 N5 O10
;
_journal_coden_Cambridge 1366
_journal_volume 355
_journal_year 2013
_journal_page_first 2544
_journal_name_full 'Adv.Synth.Catal. '
loop_
_publ_author_name
"Yunting Liu"
"Youming Wang"
"Haibin Song"
"Zhenghong Zhou"
"Chuchi Tang"
_chemical_name_systematic
;
2-(4-((2,4-Dinitrophenyl)hydrazono)-5-methoxy-1-nitro-5-oxopentan-2-yl)phenyl 
benzoate
;
_cell_volume   1257.083
_exptl_crystal_colour 'colorless'
_exptl_crystal_density_diffrn 1.457
_exptl_crystal_description 'prism'
_diffrn_ambient_temperature 293
_refine_special_details
;
N5,O5,O6 and N5',O5',O6' disordered over two sites with occupancies 
0.797:0.203.
;
#These two values have been output from a single CSD field.
_refine_ls_R_factor_gt 0.0614
_refine_ls_wR_factor_gt 0.0614
_symmetry_cell_setting monoclinic
_symmetry_space_group_name_H-M 'P 21'
_symmetry_Int_Tables_number 4
loop_
_symmetry_equiv_pos_site_id
_symmetry_equiv_pos_as_xyz
1 x,y,z
2 -x,1/2+y,-z
_cell_length_a 7.297(1)
_cell_length_b 14.5260(16)
_cell_length_c 12.1970(15)
_cell_angle_alpha 90
_cell_angle_beta 103.506(9)
_cell_angle_gamma 90
_cell_formula_units_Z 2
loop_
_atom_type_symbol
_atom_type_radius_bond
C 0.68
H 0.23
N 0.68
O 0.68
loop_
_atom_site_label
_atom_site_type_symbol
_atom_site_fract_x
_atom_site_fract_y
_atom_site_fract_z
O1 O 0.1567(3) 0.49419(19) -0.13538(18)
O2 O 0.2100(3) 0.34244(17) -0.12429(15)
O3 O 0.7622(2) 0.31691(12) 0.14848(14)
O4 O 0.5767(3) 0.19241(15) 0.10455(15)
N1 N 0.9182(4) 0.5734(3) 0.1760(3)
O5 O 0.9833(4) 0.5031(3) 0.2207(3)
O6 O 1.0191(5) 0.6353(3) 0.1630(6)
O7 O 0.4371(4) 0.44366(16) 0.40449(18)
O8 O 0.4324(5) 0.3762(2) 0.55987(18)
O9 O 0.2244(4) 0.0739(2) 0.5828(2)
O10 O 0.1236(4) -0.00685(19) 0.4335(3)
N2 N 0.2429(3) 0.35814(15) 0.09883(16)
N3 N 0.3043(3) 0.36193(17) 0.21249(17)
N4 N 0.4008(3) 0.37634(17) 0.45728(17)
N5 N 0.1854(4) 0.0643(2) 0.4805(2)
C1 C 0.2077(3) 0.4262(2) -0.0819(2)
C2 C 0.2800(3) 0.42884(19) 0.04421(19)
C3 C 0.3902(3) 0.51349(18) 0.0899(2)
H1 H 0.35610 0.53270 0.15870
H2 H 0.35840 0.56310 0.03560
C4 C 0.6064(3) 0.49480(17) 0.11495(17)
H3 H 0.64110 0.45830 0.18430
C5 C 0.7073(3) 0.5858(2) 0.1363(2)
H4 H 0.68040 0.62120 0.06800
H5 H 0.66130 0.61930 0.19210
C6 C 0.6582(3) 0.43989(17) 0.02067(18)
C7 C 0.7225(3) 0.35035(17) 0.03691(18)
C8 C 0.7587(4) 0.2969(2) -0.0493(2)
H6 H 0.80500 0.23730 -0.03510
C9 C 0.7254(4) 0.3329(2) -0.1565(2)
H7 H 0.74500 0.29700 -0.21590
C10 C 0.6624(4) 0.4227(2) -0.1757(2)
H8 H 0.64090 0.44720 -0.24800
C11 C 0.6312(3) 0.4761(2) -0.0880(2)
H9 H 0.59180 0.53680 -0.10140
C12 C 0.6772(3) 0.23926(17) 0.17264(19)
C13 C 0.7237(3) 0.22241(18) 0.2967(2)
C14 C 0.6880(4) 0.1354(2) 0.3343(2)
H10 H 0.64050 0.08920 0.28260
C15 C 0.7233(4) 0.1177(2) 0.4488(3)
H11 H 0.70010 0.05960 0.47450
C16 C 0.7930(4) 0.1866(3) 0.5247(2)
H12 H 0.81580 0.17470 0.60160
C17 C 0.8295(4) 0.2728(2) 0.4880(2)
H13 H 0.87640 0.31880 0.54010
C18 C 0.7963(3) 0.2913(2) 0.3735(2)
H14 H 0.82240 0.34920 0.34830
C19 C 0.1560(5) 0.3385(3) -0.2453(2)
H15 H 0.03990 0.37140 -0.27170
H16 H 0.13930 0.27550 -0.26920
H17 H 0.25280 0.36610 -0.27600
C20 C 0.2696(3) 0.29036(17) 0.27693(17)
C21 C 0.3192(3) 0.29468(18) 0.39680(18)
C22 C 0.2894(4) 0.2203(2) 0.46160(19)
H18 H 0.32110 0.22400 0.53990
C23 C 0.2132(3) 0.14178(19) 0.4096(2)
C24 C 0.1596(3) 0.13501(19) 0.2930(2)
H19 H 0.10440 0.08130 0.25900
C25 C 0.1887(3) 0.20800(18) 0.22848(19)
H20 H 0.15390 0.20290 0.15040
H21 H 0.347(4) 0.407(2) 0.241(3)
N6? N 0.9107(13) 0.5793(14) 0.1349(11)
O11? O 0.998(2) 0.5568(6) 0.2256(9)
O12? O 0.9767(14) 0.6112(9) 0.0645(11)
H22? H 0.64700 0.62890 0.07960
H23? H 0.69710 0.60910 0.20820
#END
