
#######################################################################
#
#                 Cambridge Crystallographic Data Centre
#                                CCDC
#
#######################################################################
#
# If this CIF has been generated from an entry in the Cambridge
# Structural Database, then it will include bibliographic, chemical,
# crystal, experimental, refinement or atomic coordinate data resulting
# from the CCDC's data processing and validation procedures.
#
#######################################################################

data_CSD_CIF_CINZII
_audit_creation_date 1985-03-28
_audit_creation_method CSD-ConQuest-V1
_database_code_CSD CINZII
_chemical_formula_sum 'C15 H27 N1 O2'
_chemical_formula_moiety
;
C15 H27 N1 O2
;
_journal_coden_Cambridge 16
_journal_volume 40
_journal_year 1984
_journal_page_first 2283
_journal_name_full 'Tetrahedron '
loop_
_publ_author_name
"P.M.Wovkulich"
"F.Barcelos"
"A.D.Batcho"
"J.F.Sereno"
"E.G.Baggiolini"
"B.M.Hennessy"
"M.R.Uskokovic"
_chemical_name_systematic
;
(1R-(1\b(R*,Z),3a\a,4\b,7a\b))-Octahydro-7a-methyl-1-(1-methyl-3-(methylimino)
propyl)-1H-inden-4-ol N-oxide
;
_chemical_melting_point 418.15
_cell_volume   1475.321
_exptl_crystal_colour 'white'
_exptl_crystal_density_diffrn 1.141
_exptl_special_details
;
Melting point range 418.15-419.15K

;
_diffrn_ambient_temperature ?
_diffrn_special_details
;
The study was carried out at room temperature,in the range 283-303K

;
#These two values have been output from a single CSD field.
_refine_ls_R_factor_gt 0.042
_refine_ls_wR_factor_gt 0.042
_symmetry_cell_setting orthorhombic
_symmetry_space_group_name_H-M 'P 21 21 21'
_symmetry_Int_Tables_number 19
loop_
_symmetry_equiv_pos_site_id
_symmetry_equiv_pos_as_xyz
1 x,y,z
2 1/2+x,1/2-y,-z
3 -x,1/2+y,1/2-z
4 1/2-x,-y,1/2+z
_cell_length_a 7.038(2)
_cell_length_b 13.986(3)
_cell_length_c 14.988(4)
_cell_angle_alpha 90
_cell_angle_beta 90
_cell_angle_gamma 90
_cell_formula_units_Z 4
loop_
_atom_type_symbol
_atom_type_radius_bond
C 0.68
H 0.23
N 0.68
O 0.68
loop_
_atom_site_label
_atom_site_type_symbol
_atom_site_fract_x
_atom_site_fract_y
_atom_site_fract_z
O1 O 0.7719(4) 0.2778(2) 0.5670(2)
O2 O 0.4324(4) 0.7283(2) 0.1817(2)
N1 N 0.5922(4) 0.2761(2) 0.5869(2)
C1 C 0.5021(7) 0.7669(3) 0.2627(3)
C2 C 0.3479(8) 0.8336(3) 0.3000(3)
C3 C 0.1805(7) 0.7786(3) 0.3371(3)
C4 C 0.2406(6) 0.7079(2) 0.4094(2)
C5 C 0.3885(5) 0.6361(2) 0.3750(2)
C6 C 0.5535(6) 0.6939(3) 0.3339(2)
C7 C 0.7033(6) 0.6191(4) 0.3151(3)
C8 C 0.6857(5) 0.5501(3) 0.3943(3)
C9 C 0.5024(5) 0.5779(2) 0.4458(2)
C10 C 0.2950(5) 0.5684(2) 0.3086(2)
C11 C 0.4091(5) 0.4931(2) 0.4921(2)
C12 C 0.2286(6) 0.5203(3) 0.5435(2)
C13 C 0.5491(5) 0.4445(3) 0.5567(3)
C14 C 0.4841(5) 0.3488(3) 0.5851(2)
C15 C 0.5179(7) 0.1813(3) 0.6075(3)
H1 H 0.48700 0.67000 0.18300
H2 H 0.61500 0.80700 0.24900
H3 H 0.39600 0.87500 0.34900
H4 H 0.29300 0.87600 0.25100
H5 H 0.12300 0.74200 0.28800
H6 H 0.08900 0.82400 0.36300
H7 H 0.29800 0.74400 0.46100
H8 H 0.12600 0.67300 0.43000
H9 H 0.60800 0.73200 0.38400
H10 H 0.83600 0.64800 0.31300
H11 H 0.68100 0.58500 0.25800
H12 H 0.80100 0.55700 0.43500
H13 H 0.68000 0.48300 0.37300
H14 H 0.54000 0.62400 0.49400
H15 H 0.19300 0.53000 0.33900
H16 H 0.39200 0.52500 0.28300
H17 H 0.23500 0.60600 0.25900
H18 H 0.36900 0.44600 0.44600
H19 H 0.26300 0.57000 0.58900
H20 H 0.17700 0.46300 0.57400
H21 H 0.13300 0.54700 0.50100
H22 H 0.67600 0.43700 0.52500
H23 H 0.56800 0.48500 0.61100
H24 H 0.34800 0.34000 0.60300
H25 H 0.38000 0.18700 0.62200
H26 H 0.58800 0.15400 0.66000
H27 H 0.53500 0.13900 0.55400
#END
