
#######################################################################
#
#                 Cambridge Crystallographic Data Centre
#                                CCDC
#
#######################################################################
#
# If this CIF has been generated from an entry in the Cambridge
# Structural Database, then it will include bibliographic, chemical,
# crystal, experimental, refinement or atomic coordinate data resulting
# from the CCDC's data processing and validation procedures.
#
#######################################################################

data_CSD_CIF_CIPJAN
_audit_creation_date 2008-01-31
_audit_creation_method CSD-ConQuest-V1
_database_code_CSD CIPJAN
_database_code_depnum_ccdc_archive 'CCDC 665919'
_chemical_formula_sum 'C14 H21 N1 O5'
_chemical_formula_moiety
;
C14 H21 N1 O5
;
_journal_coden_Cambridge 4
_journal_volume 129
_journal_year 2007
_journal_page_first 10342
_journal_name_full 'J.Am.Chem.Soc. '
loop_
_publ_author_name
"I.Korboukh"
"P.Kumar"
"S.M.Weinreb"
_chemical_name_systematic
;
(E)-4-Hydroxyiminobicyclo[3.2.1]octane-6,6-dicarboxylic acid diethyl ester
;
_cell_volume   2840.598
_exptl_crystal_colour 'colorless'
_exptl_crystal_density_diffrn 1.33
_exptl_special_details
;
In each independent molecule, an NH proton has been calculated. This is not 
consistent with the paper, and the two protons have been suppressed
;
_exptl_crystal_description 'brick'
_exptl_crystal_preparation 'chloroform'
_diffrn_ambient_temperature 103
#These two values have been output from a single CSD field.
_refine_ls_R_factor_gt 0.1072
_refine_ls_wR_factor_gt 0.1072
_symmetry_cell_setting monoclinic
_symmetry_space_group_name_H-M 'P 21/n'
_symmetry_Int_Tables_number 14
loop_
_symmetry_equiv_pos_site_id
_symmetry_equiv_pos_as_xyz
1 x,y,z
2 1/2-x,1/2+y,1/2-z
3 -x,-y,-z
4 -1/2+x,-1/2-y,-1/2+z
_cell_length_a 12.467(3)
_cell_length_b 15.301(4)
_cell_length_c 14.892(4)
_cell_angle_alpha 90
_cell_angle_beta 90.615(5)
_cell_angle_gamma 90
_cell_formula_units_Z 8
loop_
_atom_type_symbol
_atom_type_radius_bond
C 0.68
H 0.23
N 0.68
O 0.68
loop_
_atom_site_label
_atom_site_type_symbol
_atom_site_fract_x
_atom_site_fract_y
_atom_site_fract_z
C1 C 0.7571(3) 0.2316(2) 0.4429(2)
H1 H 0.74250 0.20670 0.38270
H2 H 0.74740 0.29580 0.44070
C2 C 0.8689(3) 0.2068(2) 0.4775(2)
H3 H 0.92510 0.24270 0.44770
C3 C 0.8872(3) 0.1098(3) 0.4606(3)
H4 H 0.95980 0.09360 0.48230
H5 H 0.88390 0.09860 0.39510
C4 C 0.8040(3) 0.0520(2) 0.5075(3)
H6 H 0.80110 -0.00560 0.47730
H7 H 0.82720 0.04230 0.57050
C5 C 0.6936(3) 0.0917(2) 0.5067(2)
C6 C 0.6858(3) 0.1894(2) 0.5148(2)
H8 H 0.60990 0.21010 0.51020
C7 C 0.8629(3) 0.2288(2) 0.5784(2)
H9 H 0.89030 0.28850 0.59010
H10 H 0.90570 0.18670 0.61430
C8 C 0.7415(3) 0.2222(2) 0.6019(2)
C9 C 0.6965(3) 0.3118(2) 0.6274(2)
C10 C 0.6987(3) 0.4168(2) 0.7458(3)
H11 H 0.68270 0.46000 0.69800
H12 H 0.75330 0.44240 0.78680
C11 C 0.5983(3) 0.3975(3) 0.7972(3)
H13 H 0.54370 0.37330 0.75630
H14 H 0.57130 0.45150 0.82410
H15 H 0.61430 0.35500 0.84470
C12 C 0.7184(3) 0.1640(2) 0.6823(2)
C13 C 0.5777(3) 0.1178(3) 0.7773(3)
H16 H 0.60980 0.14240 0.83290
H17 H 0.60000 0.05600 0.77220
C14 C 0.4586(3) 0.1241(3) 0.7804(3)
H18 H 0.43750 0.18530 0.78820
H19 H 0.43210 0.08940 0.83080
H20 H 0.42770 0.10170 0.72410
C15 C 0.7762(3) 0.2222(3) -0.0484(2)
H21 H 0.77250 0.19720 -0.10970
H22 H 0.77010 0.28660 -0.05200
C16 C 0.8778(3) 0.1943(2) 0.0011(2)
H23 H 0.94090 0.22850 -0.02050
C17 C 0.8957(3) 0.0969(3) -0.0131(3)
H24 H 0.96240 0.07910 0.01850
H25 H 0.90530 0.08560 -0.07800
C18 C 0.8018(3) 0.0411(2) 0.0213(3)
H26 H 0.80170 -0.01580 -0.01050
H27 H 0.81290 0.02930 0.08610
C19 C 0.6950(3) 0.0843(2) 0.0077(2)
C20 C 0.6903(3) 0.1829(2) 0.0125(2)
H28 H 0.61720 0.20540 -0.00310
C21 C 0.8532(3) 0.2174(2) 0.0994(2)
H29 H 0.88140 0.27610 0.11470
H30 H 0.88590 0.17410 0.14080
C22 C 0.7285(3) 0.2156(2) 0.1059(2)
C23 C 0.6837(3) 0.3073(2) 0.1232(3)
C24 C 0.6782(3) 0.4194(2) 0.2347(3)
H31 H 0.66870 0.45800 0.18180
H32 H 0.73340 0.44560 0.27450
C25 C 0.5747(3) 0.4127(3) 0.2837(3)
H33 H 0.51850 0.39140 0.24270
H34 H 0.55470 0.47040 0.30660
H35 H 0.58290 0.37190 0.33410
C26 C 0.6855(3) 0.1580(2) 0.1810(2)
C27 C 0.5186(4) 0.1147(3) 0.2463(3)
H36 H 0.56560 0.06990 0.27420
H37 H 0.45780 0.08440 0.21640
C28 C 0.4774(3) 0.1740(3) 0.3166(3)
H38 H 0.53780 0.20000 0.34970
H39 H 0.43260 0.14080 0.35820
H40 H 0.43450 0.22040 0.28850
N1 N 0.6063(2) 0.04967(19) 0.5012(2)
H41? H 0.54300 0.07500 0.50290
N2 N 0.6066(2) 0.04498(18) -0.00337(19)
H42? H 0.54450 0.07210 -0.00800
O1 O 0.6196(2) -0.04165(17) 0.4923(2)
H43 H 0.55920 -0.06560 0.48740
O2 O 0.61353(19) 0.16676(16) 0.69987(16)
O3 O 0.7821(2) 0.12183(16) 0.72455(17)
O4 O 0.7407(2) 0.33676(16) 0.70567(17)
O5 O 0.6313(2) 0.35278(16) 0.58618(18)
O6 O 0.6172(2) -0.04694(16) -0.00743(19)
H44 H 0.55610 -0.07010 -0.00670
O7 O 0.7375(2) 0.11439(18) 0.23114(18)
O8 O 0.5786(2) 0.16400(17) 0.18027(18)
O9 O 0.6297(2) 0.34882(17) 0.0724(2)
O10 O 0.7140(2) 0.33312(16) 0.20516(18)
#END
