
#######################################################################
#
#                 Cambridge Crystallographic Data Centre
#                                CCDC
#
#######################################################################
#
# If this CIF has been generated from an entry in the Cambridge
# Structural Database, then it will include bibliographic, chemical,
# crystal, experimental, refinement or atomic coordinate data resulting
# from the CCDC's data processing and validation procedures.
#
#######################################################################

data_CSD_CIF_CIPNOF
_audit_creation_date 2008-01-31
_audit_creation_method CSD-ConQuest-V1
_database_code_CSD CIPNOF
_database_code_depnum_ccdc_archive 'CCDC 665911'
_chemical_formula_sum 'C18 H23 N1 O5'
_chemical_formula_moiety
;
C18 H23 N1 O5
;
_journal_coden_Cambridge 35
_journal_volume 72
_journal_year 2007
_journal_page_first 7427
_journal_name_full 'J.Org.Chem. '
loop_
_publ_author_name
"S.Tripathi"
"B.G.Roy"
"M.G.B.Drew"
"B.Achari"
"S.B.Mandal"
_chemical_name_systematic
;
6-Benzyl-2,2-dimethyloctahydro-5,8-methano(1,3)-dioxolo(4,5)furo(2,3-d)(1,6,2)
dioxazocine
;
_cell_volume    803.450
_exptl_crystal_colour 'white'
_exptl_crystal_density_diffrn 1.378
_exptl_crystal_description 'needle'
_diffrn_ambient_temperature 150
#These two values have been output from a single CSD field.
_refine_ls_R_factor_gt 0.041
_refine_ls_wR_factor_gt 0.041
_symmetry_cell_setting monoclinic
_symmetry_space_group_name_H-M 'P 21'
_symmetry_Int_Tables_number 4
loop_
_symmetry_equiv_pos_site_id
_symmetry_equiv_pos_as_xyz
1 x,y,z
2 -x,1/2+y,-z
_cell_length_a 6.6822(8)
_cell_length_b 7.4362(10)
_cell_length_c 16.416(3)
_cell_angle_alpha 90
_cell_angle_beta 99.948(17)
_cell_angle_gamma 90
_cell_formula_units_Z 2
loop_
_atom_type_symbol
_atom_type_radius_bond
C 0.68
H 0.23
N 0.68
O 0.68
loop_
_atom_site_label
_atom_site_type_symbol
_atom_site_fract_x
_atom_site_fract_y
_atom_site_fract_z
C1 C 0.5396(3) 0.7344(3) 0.29870(11)
H1 H 0.46150 0.83450 0.27020
C2 C 0.8050(3) 0.5015(3) 0.27356(11)
H2 H 0.93360 0.49010 0.25420
H3 H 0.82680 0.48350 0.33300
C3 C 0.7052(3) 0.6829(3) 0.24952(10)
H4 H 0.80850 0.77770 0.25390
C4 C 0.3890(2) 0.5915(2) 0.31904(11)
H5 H 0.27760 0.57350 0.27250
C5 C 0.5070(3) 0.3019(3) 0.28501(12)
H6 H 0.37630 0.27450 0.25150
H7 H 0.56200 0.19090 0.31070
C6 C 0.6483(3) 0.3713(3) 0.22928(12)
H8 H 0.71490 0.27110 0.20580
C7 C 0.7557(3) 0.6550(3) 0.10494(12)
H9 H 0.68640 0.61920 0.05050
H10 H 0.86000 0.56630 0.12370
C8 C 0.8529(3) 0.8349(3) 0.09930(11)
C9 C 1.0604(3) 0.8584(3) 0.12299(12)
H11 H 1.14060 0.76130 0.14410
C10 C 1.1499(3) 1.0227(3) 0.11585(12)
H12 H 1.28950 1.03590 0.13230
C11 C 1.0341(4) 1.1677(4) 0.08446(13)
H13 H 1.09480 1.27900 0.07990
C12 C 0.8292(4) 1.1472(3) 0.05990(14)
H14 H 0.75030 1.24480 0.03840
C13 C 0.7389(3) 0.9824(3) 0.06683(13)
H15 H 0.59960 0.96990 0.04950
C14 C 0.3136(2) 0.6783(3) 0.39203(11)
H16 H 0.28480 0.58960 0.43260
C15 C 0.1751(2) 0.9562(3) 0.40735(11)
C16 C 0.4846(2) 0.8098(3) 0.42859(11)
H17 H 0.53780 0.78260 0.48670
C17 C 0.0717(3) 1.1035(3) 0.35324(12)
H18 H 0.11680 1.21820 0.37630
H19 H -0.07270 1.09380 0.34990
H20 H 0.10500 1.09290 0.29880
C18 C 0.1043(3) 0.9412(3) 0.48993(11)
H21 H 0.13370 1.05130 0.52020
H22 H 0.17380 0.84350 0.52100
H23 H -0.03940 0.91950 0.48090
O1 O 0.47756(19) 0.42591(17) 0.34814(7)
O2 O 0.52531(18) 0.47719(19) 0.16314(8)
O3 O 0.14385(17) 0.78998(18) 0.36320(8)
O4 O 0.39201(16) 0.98189(18) 0.41944(7)
O5 O 0.63708(16) 0.79641(17) 0.37938(7)
N1 N 0.6079(2) 0.6591(2) 0.16291(9)
#END
