
#######################################################################
#
#                 Cambridge Crystallographic Data Centre
#                                CCDC
#
#######################################################################
#
# If this CIF has been generated from an entry in the Cambridge
# Structural Database, then it will include bibliographic, chemical,
# crystal, experimental, refinement or atomic coordinate data resulting
# from the CCDC's data processing and validation procedures.
#
#######################################################################

data_CSD_CIF_CIQRIE
_audit_creation_date 2008-01-31
_audit_creation_method CSD-ConQuest-V1
_database_code_CSD CIQRIE
_database_code_depnum_ccdc_archive 'CCDC 673074'
_chemical_formula_sum 'C16 H16 N2 O6'
_chemical_formula_moiety
;
C16 H16 N2 O6
;
_journal_coeditor_code "IUCr AT2492"
_journal_coden_Cambridge 1370
_journal_volume 63
_journal_year 2007
_journal_page_first o4885
_journal_name_full 'Acta Crystallogr.,Sect.E:Struct.Rep.Online '
loop_
_publ_author_name
"Qi-Long Zhang"
"You-Cai Zhao"
"Yun-Qian Zhang"
"Sai-Feng Xue"
"Zhu Tao"
_chemical_name_systematic
;
1,4-bis(4-Nitrophenoxy)butane
;
_cell_volume    793.191
_exptl_crystal_colour 'colorless'
_exptl_crystal_density_diffrn 1.391
_exptl_crystal_description 'prism'
_exptl_crystal_preparation 'ethanol'
_diffrn_ambient_temperature 293
#These two values have been output from a single CSD field.
_refine_ls_R_factor_gt 0.0445
_refine_ls_wR_factor_gt 0.0445
_symmetry_cell_setting monoclinic
_symmetry_space_group_name_H-M 'P 21/n'
_symmetry_Int_Tables_number 14
loop_
_symmetry_equiv_pos_site_id
_symmetry_equiv_pos_as_xyz
1 x,y,z
2 1/2-x,1/2+y,1/2-z
3 -x,-y,-z
4 -1/2+x,-1/2-y,-1/2+z
_cell_length_a 7.1273(5)
_cell_length_b 8.7534(7)
_cell_length_c 12.8912(10)
_cell_angle_alpha 90
_cell_angle_beta 99.516(6)
_cell_angle_gamma 90
_cell_formula_units_Z 2
loop_
_atom_type_symbol
_atom_type_radius_bond
C 0.68
H 0.23
N 0.68
O 0.68
loop_
_atom_site_label
_atom_site_type_symbol
_atom_site_fract_x
_atom_site_fract_y
_atom_site_fract_z
C1 C 0.4995(3) 0.5527(2) 0.35002(14)
C2 C 0.3176(3) 0.5840(2) 0.36693(16)
H1 H 0.27490 0.68430 0.36740
C3 C 0.5641(3) 0.4051(2) 0.34752(15)
H2 H 0.68650 0.38600 0.33460
C4 C 0.2001(3) 0.4653(2) 0.38298(16)
H3 H 0.07690 0.48530 0.39430
C5 C 0.4468(3) 0.2852(2) 0.36426(15)
H4 H 0.49000 0.18500 0.36330
C6 C 0.2638(3) 0.3154(2) 0.38251(14)
C7 C 0.1989(3) 0.0542(2) 0.42172(17)
H5 H 0.30530 0.05250 0.47930
H6 H 0.23880 0.00810 0.36050
C8 C 0.0334(3) -0.0313(3) 0.45115(16)
H7 H 0.06900 -0.13760 0.46310
H8 H -0.07140 -0.02730 0.39270
N1 N 0.6235(3) 0.6788(2) 0.33313(15)
O1 O 0.13674(19) 0.20758(17) 0.39908(11)
O2 O 0.5651(3) 0.8097(2) 0.33911(15)
O3 O 0.7805(3) 0.6492(2) 0.31313(18)
C1B C -0.4995(3) -0.5527(2) 0.64998(14)
C2B C -0.3176(3) -0.5840(2) 0.63307(16)
H1B H -0.27490 -0.68430 0.63260
C3B C -0.5641(3) -0.4051(2) 0.65248(15)
H2B H -0.68650 -0.38600 0.66540
C4B C -0.2001(3) -0.4653(2) 0.61702(16)
H3B H -0.07690 -0.48530 0.60570
C5B C -0.4468(3) -0.2852(2) 0.63574(15)
H4B H -0.49000 -0.18500 0.63670
C6B C -0.2638(3) -0.3154(2) 0.61749(14)
C7B C -0.1989(3) -0.0542(2) 0.57828(17)
H5B H -0.30530 -0.05250 0.52070
H6B H -0.23880 -0.00810 0.63950
C8B C -0.0334(3) 0.0313(3) 0.54885(16)
H7B H -0.06900 0.13760 0.53690
H8B H 0.07140 0.02730 0.60730
N1B N -0.6235(3) -0.6788(2) 0.66687(15)
O1B O -0.13674(19) -0.20758(17) 0.60092(11)
O2B O -0.5651(3) -0.8097(2) 0.66089(15)
O3B O -0.7805(3) -0.6492(2) 0.68687(18)
#END
