
#######################################################################
#
#                 Cambridge Crystallographic Data Centre
#                                CCDC
#
#######################################################################
#
# If this CIF has been generated from an entry in the Cambridge
# Structural Database, then it will include bibliographic, chemical,
# crystal, experimental, refinement or atomic coordinate data resulting
# from the CCDC's data processing and validation procedures.
#
#######################################################################

data_CSD_CIF_CIRLUL
_audit_creation_date 2008-04-21
_audit_creation_method CSD-ConQuest-V1
_database_code_CSD CIRLUL
_database_code_depnum_ccdc_archive 'CCDC 623376'
_chemical_formula_sum 'C23 H22 N2 O3'
_chemical_formula_moiety
;
C23 H22 N2 O3
;
_journal_coden_Cambridge 16
_journal_volume 63
_journal_year 2007
_journal_page_first 12655
_journal_name_full 'Tetrahedron '
loop_
_publ_author_name
"G.Huelgas"
"S.Bernes"
"M.Sanchez"
"L.Quintero"
"E.Juaristi"
"C.A.de Parrodi"
"P.J.Walsh"
_chemical_name_systematic
;
(S^a^,S,S)-2-Nitro-N,N-bis(\a-phenylethyl)benzamide
;
_chemical_melting_point 423.15
_cell_volume   1967.343
_exptl_crystal_colour 'colorless'
_exptl_crystal_density_diffrn 1.264
_exptl_special_details
;
Melting point range 423.15-424.15K
Absolute configuration

;
_exptl_crystal_description 'Prism'
_exptl_crystal_preparation 'hexanes/diethyl ether'
_diffrn_ambient_temperature 296
#These two values have been output from a single CSD field.
_refine_ls_R_factor_gt 0.0511
_refine_ls_wR_factor_gt 0.0511
_symmetry_cell_setting orthorhombic
_symmetry_space_group_name_H-M 'P 21 21 21'
_symmetry_Int_Tables_number 19
loop_
_symmetry_equiv_pos_site_id
_symmetry_equiv_pos_as_xyz
1 x,y,z
2 1/2-x,-y,1/2+z
3 -x,1/2+y,1/2-z
4 1/2+x,1/2-y,-z
_cell_length_a 8.669(4)
_cell_length_b 12.327(7)
_cell_length_c 18.410(8)
_cell_angle_alpha 90
_cell_angle_beta 90
_cell_angle_gamma 90
_cell_formula_units_Z 4
loop_
_atom_type_symbol
_atom_type_radius_bond
C 0.68
H 0.23
N 0.68
O 0.68
loop_
_atom_site_label
_atom_site_type_symbol
_atom_site_fract_x
_atom_site_fract_y
_atom_site_fract_z
N1 N 0.8935(3) 0.1481(2) 0.71061(13)
N2 N 1.1489(5) 0.3170(3) 0.5961(2)
O1 O 0.9482(3) 0.3106(2) 0.75865(13)
O2 O 1.2413(6) 0.3504(4) 0.5522(3)
O3 O 1.1852(4) 0.2577(3) 0.6446(2)
C1 C 0.9137(4) 0.2557(3) 0.70648(19)
C2 C 0.8790(5) 0.3126(3) 0.6367(2)
C3 C 0.9880(6) 0.3478(4) 0.5888(2)
C4 C 0.9513(8) 0.4137(4) 0.5304(2)
H1 H 1.02790 0.43850 0.49920
C5 C 0.8017(9) 0.4416(5) 0.5196(3)
H2 H 0.77580 0.48550 0.48040
C6 C 0.6897(7) 0.4068(5) 0.5649(3)
H3 H 0.58730 0.42480 0.55600
C7 C 0.7274(5) 0.3444(4) 0.6246(3)
H4 H 0.65060 0.32330 0.65690
C8 C 0.9349(4) 0.0938(3) 0.77870(17)
H5 H 0.91370 0.01670 0.77050
C9 C 1.1078(4) 0.1008(4) 0.7925(2)
H6 H 1.16250 0.07450 0.75070
H7 H 1.13390 0.05730 0.83400
H8 H 1.13600 0.17490 0.80150
C10 C 0.8345(5) 0.1258(3) 0.84118(18)
C11 C 0.8906(8) 0.1698(6) 0.9024(3)
H9 H 0.99550 0.18520 0.90530
C12 C 0.7976(10) 0.1928(8) 0.9606(4)
H10 H 0.84050 0.22430 1.00180
C13 C 0.6498(9) 0.1714(5) 0.9594(3)
H11 H 0.58930 0.18350 1.00030
C14 C 0.5869(6) 0.1319(4) 0.8987(3)
H12 H 0.48080 0.12150 0.89560
C15 C 0.6814(5) 0.1065(4) 0.8404(2)
H13 H 0.63770 0.07510 0.79930
C16 C 0.8543(4) 0.0825(3) 0.64601(18)
H14 H 0.82990 0.13360 0.60690
C17 C 0.9912(4) 0.0170(4) 0.6211(2)
H15 H 1.07470 0.06500 0.60920
H16 H 0.96340 -0.02450 0.57900
H17 H 1.02270 -0.03120 0.65930
C18 C 0.7106(4) 0.0174(3) 0.65999(18)
C19 C 0.7145(5) -0.0888(4) 0.6816(2)
H18 H 0.80890 -0.12360 0.68720
C20 C 0.5799(6) -0.1445(4) 0.6951(3)
H19 H 0.58320 -0.21660 0.70990
C21 C 0.4406(6) -0.0928(6) 0.6866(3)
H20 H 0.34930 -0.12950 0.69630
C22 C 0.4364(5) 0.0096(6) 0.6645(3)
H21 H 0.34170 0.04350 0.65760
C23 C 0.5695(5) 0.0659(4) 0.6516(2)
H22 H 0.56430 0.13800 0.63690
#END
