
#######################################################################
#
#                 Cambridge Crystallographic Data Centre
#                                CCDC
#
#######################################################################
#
# If this CIF has been generated from an entry in the Cambridge
# Structural Database, then it will include bibliographic, chemical,
# crystal, experimental, refinement or atomic coordinate data resulting
# from the CCDC's data processing and validation procedures.
#
#######################################################################

data_CSD_CIF_CIRLAS
_audit_creation_date 2013-11-25
_audit_creation_method CSD-ConQuest-V1
_database_code_CSD CIRLAS
_database_code_depnum_ccdc_archive 'CCDC 973446'
_chemical_formula_sum 'C16 H17 N1 O3'
_chemical_formula_moiety
;
C16 H17 N1 O3
;
_journal_coden_Cambridge 1336
_journal_volume 15
_journal_year 2013
_journal_page_first 5730
_journal_name_full 'Org.Lett. '
loop_
_publ_author_name
"Kung-Chih Huang"
"B.Gopula"
"Ting-Shen Kuo"
"Chien-Wei Chiang"
"Ping-Yu Wu"
"J.P.Henschke"
"Hsyueh-Liang Wu"
_chemical_name_systematic
;
1-Methoxy-4-(1-(4-methylphenyl)-2-nitroethyl)benzene
;
_cell_volume   1432.663
_exptl_crystal_colour 'colorless'
_exptl_crystal_density_diffrn 1.258
_exptl_crystal_description 'prism'
_diffrn_ambient_temperature 296
#These two values have been output from a single CSD field.
_refine_ls_R_factor_gt 0.0672
_refine_ls_wR_factor_gt 0.0672
_symmetry_cell_setting orthorhombic
_symmetry_space_group_name_H-M 'P 21 21 21'
_symmetry_Int_Tables_number 19
loop_
_symmetry_equiv_pos_site_id
_symmetry_equiv_pos_as_xyz
1 x,y,z
2 1/2-x,-y,1/2+z
3 -x,1/2+y,1/2-z
4 1/2+x,1/2-y,-z
_cell_length_a 5.782(2)
_cell_length_b 14.583(5)
_cell_length_c 16.991(7)
_cell_angle_alpha 90
_cell_angle_beta 90
_cell_angle_gamma 90
_cell_formula_units_Z 4
loop_
_atom_type_symbol
_atom_type_radius_bond
C 0.68
H 0.23
N 0.68
O 0.68
loop_
_atom_site_label
_atom_site_type_symbol
_atom_site_fract_x
_atom_site_fract_y
_atom_site_fract_z
C1 C 1.1525(11) 1.1029(4) 0.6347(3)
H1 H 1.18030 1.12200 0.58090
H2 H 0.99230 1.11600 0.64730
C2 C 1.1958(10) 0.9996(4) 0.6420(3)
H3 H 1.36140 0.99010 0.63270
C3 C 1.0685(10) 0.9495(4) 0.5761(3)
C4 C 1.1606(10) 0.9489(5) 0.5010(3)
H4 H 1.29840 0.97990 0.49140
C5 C 1.0523(12) 0.9034(5) 0.4400(3)
H5 H 1.11790 0.90420 0.39000
C6 C 0.8493(10) 0.8569(4) 0.4521(4)
C7 C 0.7350(14) 0.8048(5) 0.3878(3)
H6 H 0.82130 0.81240 0.34000
H7 H 0.58070 0.82750 0.38050
H8 H 0.72930 0.74100 0.40140
C8 C 0.7589(11) 0.8560(5) 0.5246(4)
H9 H 0.62150 0.82460 0.53370
C9 C 0.8653(10) 0.9008(5) 0.5859(4)
H10 H 0.79840 0.89820 0.63560
C10 C 1.1455(9) 0.9628(4) 0.7240(3)
C11 C 1.2881(10) 0.8953(4) 0.7557(3)
H11 H 1.41930 0.87660 0.72840
C12 C 1.2357(11) 0.8558(5) 0.8277(3)
H12 H 1.33200 0.81070 0.84820
C13 C 1.0428(12) 0.8827(4) 0.8692(3)
C14 C 0.8996(11) 0.9478(5) 0.8397(3)
H13 H 0.76810 0.96580 0.86720
C15 C 0.9537(11) 0.9872(4) 0.7674(3)
H14 H 0.85580 1.03220 0.74740
C16 C 0.7974(12) 0.8569(5) 0.9808(4)
H15 H 0.79160 0.82130 1.02820
H16 H 0.66710 0.84190 0.94820
H17 H 0.79300 0.92100 0.99370
N1 N 1.3092(13) 1.1565(4) 0.6896(3)
O1 O 1.2251(11) 1.2086(5) 0.7365(4)
O2 O 1.5175(10) 1.1424(4) 0.6836(3)
O3 O 1.0055(8) 0.8370(3) 0.9395(2)
#END
