
#######################################################################
#
#                 Cambridge Crystallographic Data Centre
#                                CCDC
#
#######################################################################
#
# If this CIF has been generated from an entry in the Cambridge
# Structural Database, then it will include bibliographic, chemical,
# crystal, experimental, refinement or atomic coordinate data resulting
# from the CCDC's data processing and validation procedures.
#
#######################################################################

data_CSD_CIF_CIRLEW01
_audit_creation_date 2013-10-30
_audit_creation_method CSD-ConQuest-V1
_database_code_CSD CIRLEW01
_database_code_depnum_ccdc_archive 'CCDC 969354'
_chemical_formula_sum 'C15 H14 N2 O2'
_chemical_formula_moiety
;
C15 H14 N2 O2
;
_journal_coden_Cambridge 1336
_journal_volume 15
_journal_year 2013
_journal_page_first 5274
_journal_name_full 'Org.Lett. '
loop_
_publ_author_name
"B.M.Trost"
"D.J.Michaelis"
"S.Malhotra"
_chemical_name_systematic
;
(1R,2S,5S)-3-Methylene-5-nitro-2',3'-dihydrospiro[cyclopentane-1,1'-indene]-2-
carbonitrile
;
_cell_volume   1272.204
_exptl_crystal_colour 'colorless'
_exptl_crystal_density_diffrn 1.328
_exptl_special_details
;
Absolute configuration

;
_exptl_crystal_description 'block'
_diffrn_ambient_temperature 100
#These two values have been output from a single CSD field.
_refine_ls_R_factor_gt 0.0289
_refine_ls_wR_factor_gt 0.0289
_symmetry_cell_setting orthorhombic
_symmetry_space_group_name_H-M 'P 21 21 21'
_symmetry_Int_Tables_number 19
loop_
_symmetry_equiv_pos_site_id
_symmetry_equiv_pos_as_xyz
1 x,y,z
2 1/2-x,-y,1/2+z
3 -x,1/2+y,1/2-z
4 1/2+x,1/2-y,-z
_cell_length_a 7.3125(3)
_cell_length_b 9.1134(4)
_cell_length_c 19.0902(8)
_cell_angle_alpha 90
_cell_angle_beta 90
_cell_angle_gamma 90
_cell_formula_units_Z 4
loop_
_atom_type_symbol
_atom_type_radius_bond
C 0.68
H 0.23
N 0.68
O 0.68
loop_
_atom_site_label
_atom_site_type_symbol
_atom_site_fract_x
_atom_site_fract_y
_atom_site_fract_z
O1 O 0.26822(15) 0.72111(11) 0.22961(5)
O2 O 0.41806(14) 0.90869(12) 0.26935(6)
N1 N 0.28516(16) 0.85310(14) 0.24073(6)
N2 N -0.08802(18) 0.84538(14) -0.01820(6)
C1 C 0.13602(19) 0.95455(15) 0.21526(7)
H1 H 0.14850 1.05320 0.23770
C2 C -0.05301(19) 0.89029(16) 0.23036(7)
H2 H -0.04710 0.82140 0.27040
H3 H -0.14080 0.96940 0.24180
C3 C -0.11163(18) 0.81059(14) 0.16453(7)
C4 C 0.03822(18) 0.83160(15) 0.10970(7)
H4 H 0.12180 0.74490 0.11220
C5 C 0.14781(19) 0.96874(15) 0.13364(7)
C6 C 0.34290(19) 0.97892(15) 0.10338(7)
H5 H 0.42900 0.91910 0.13140
H6 H 0.34550 0.94400 0.05430
C7 C 0.39375(18) 1.14213(16) 0.10730(7)
H7 H 0.45220 1.16630 0.15260
H8 H 0.47690 1.17020 0.06860
C8 C 0.21052(18) 1.21614(16) 0.10017(7)
C9 C 0.1735(2) 1.36101(16) 0.08327(7)
H9 H 0.27030 1.42820 0.07470
C10 C -0.0081(2) 1.40635(16) 0.07912(7)
H10 H -0.03530 1.50540 0.06760
C11 C -0.15034(19) 1.30804(15) 0.09165(7)
H11 H -0.27360 1.34030 0.08820
C12 C -0.11278(18) 1.16241(16) 0.10926(7)
H12 H -0.20930 1.09530 0.11830
C13 C 0.06830(18) 1.11767(15) 0.11336(7)
C14 C -0.2662(2) 0.73798(16) 0.15521(8)
H13 H -0.35330 0.73240 0.19210
H14 H -0.29030 0.69140 0.11170
C15 C -0.03181(19) 0.84180(15) 0.03768(7)
#END
