
#######################################################################
#
#                 Cambridge Crystallographic Data Centre
#                                CCDC
#
#######################################################################
#
# If this CIF has been generated from an entry in the Cambridge
# Structural Database, then it will include bibliographic, chemical,
# crystal, experimental, refinement or atomic coordinate data resulting
# from the CCDC's data processing and validation procedures.
#
#######################################################################

data_CSD_CIF_CISJET
_audit_creation_date 1985-03-28
_audit_creation_method CSD-ConQuest-V1
_database_code_CSD CISJET
_chemical_formula_sum 'C14 H25 N1 O1'
_chemical_formula_moiety
;
C14 H25 N1 O1
;
_journal_coden_Cambridge 10
_journal_volume 67
_journal_year 1984
_journal_page_first 669
_journal_name_full 'Helv.Chim.Acta '
loop_
_publ_author_name
"P.Schonholzer"
"D.Suss"
"T.S.Wan"
"A.Fischli"
_chemical_name_systematic
;
4\b-(t-Butyl)-1\a-(1-methylvinyl)-cyclohexanecarbaldehyde oxime
;
_chemical_melting_point 365.15
_cell_volume   1441.086
_exptl_crystal_density_diffrn 1.03
_exptl_special_details
;
Melting point range 365.15-366.15K

;
_diffrn_ambient_temperature ?
_diffrn_special_details
;
The study was carried out at room temperature,in the range 283-303K

;
#These two values have been output from a single CSD field.
_refine_ls_R_factor_gt 0.08
_refine_ls_wR_factor_gt 0.08
_symmetry_cell_setting monoclinic
_symmetry_space_group_name_H-M 'P 21/n'
_symmetry_Int_Tables_number 14
loop_
_symmetry_equiv_pos_site_id
_symmetry_equiv_pos_as_xyz
1 x,y,z
2 1/2-x,1/2+y,1/2-z
3 -x,-y,-z
4 -1/2+x,-1/2-y,-1/2+z
_cell_length_a 6.623(1)
_cell_length_b 28.386(6)
_cell_length_c 7.742(3)
_cell_angle_alpha 90
_cell_angle_beta 98.07(3)
_cell_angle_gamma 90
_cell_formula_units_Z 4
loop_
_atom_type_symbol
_atom_type_radius_bond
C 0.68
N 0.68
O 0.68
loop_
_atom_site_label
_atom_site_type_symbol
_atom_site_fract_x
_atom_site_fract_y
_atom_site_fract_z
C1 C 0.3153(8) 0.0890(2) 0.2893(7)
C2 C 0.0960(8) 0.1085(2) 0.2681(7)
C3 C 0.0258(8) 0.1313(2) 0.0900(7)
C4 C 0.1737(8) 0.1700(2) 0.0490(7)
C5 C 0.3845(9) 0.1481(2) 0.0578(8)
C6 C 0.4580(8) 0.1270(2) 0.2371(7)
C7 C 0.3805(9) 0.0724(2) 0.4770(7)
C8 C 0.2345(11) 0.0403(2) 0.5543(9)
C9 C 0.5541(12) 0.0844(3) 0.5724(10)
C10 C 0.3340(8) 0.0459(2) 0.1782(6)
N1 N 0.1834(6) 0.0243(1) 0.1008(5)
O1 O 0.2356(6) -0.0160(1) 0.0116(5)
C11 C 0.0995(10) 0.1977(2) -0.1210(7)
C12 C 0.0897(12) 0.1675(3) -0.2817(7)
C13 C -0.1107(12) 0.2181(3) -0.1151(10)
C14 C 0.2422(12) 0.2380(3) -0.1404(10)
#END
