
#######################################################################
#
#                 Cambridge Crystallographic Data Centre
#                                CCDC
#
#######################################################################
#
# If this CIF has been generated from an entry in the Cambridge
# Structural Database, then it will include bibliographic, chemical,
# crystal, experimental, refinement or atomic coordinate data resulting
# from the CCDC's data processing and validation procedures.
#
#######################################################################

data_CSD_CIF_CITCAJ
_audit_creation_date 1985-03-28
_audit_creation_method CSD-ConQuest-V1
_database_code_CSD CITCAJ
_database_code_depnum_ccdc_archive 'CCDC 1126235'
_chemical_formula_sum 'C21 H28 N4 O4'
_chemical_formula_moiety
;
C21 H28 N4 O4
;
_journal_coden_Cambridge 35
_journal_volume 49
_journal_year 1984
_journal_page_first 2653
_journal_name_full 'J.Org.Chem. '
loop_
_publ_author_name
"S.W.Ayer"
"R.J.Andersen"
"He Cun-heng"
"J.Clardy"
_chemical_name_systematic
;
Isoacanthodoral 2,4-dinitrophenylhydrazone
;
_cell_volume   2100.408
_exptl_special_details
;
H count is 28 and not 32 as given in the paper. H(O2) and H(O2') have been 
removed because of suspected error. The nitro oxygens appear to have Hs 
attached to them. These (H1, H3, H4, H1', H3') have been removed; this then 
gives the correct hydrogen count. b=39.613 not 31.613
;
_diffrn_ambient_temperature ?
_diffrn_special_details
;
The study was carried out at room temperature,in the range 283-303K

;
#These two values have been output from a single CSD field.
_refine_ls_R_factor_gt 0.048
_refine_ls_wR_factor_gt 0.048
_chemical_compound_source
;
Dorid Nudibranch Acanthodoris nanaimoensis
;
_symmetry_cell_setting monoclinic
_symmetry_space_group_name_H-M 'P 21'
_symmetry_Int_Tables_number 4
loop_
_symmetry_equiv_pos_site_id
_symmetry_equiv_pos_as_xyz
1 x,y,z
2 -x,1/2+y,-z
_cell_length_a 6.027(1)
_cell_length_b 39.613(8)
_cell_length_c 8.91
_cell_angle_alpha 90
_cell_angle_beta 80.89(1)
_cell_angle_gamma 90
_cell_formula_units_Z 4
loop_
_atom_type_symbol
_atom_type_radius_bond
C 0.68
H 0.27
N 0.68
O 0.68
loop_
_atom_site_label
_atom_site_type_symbol
_atom_site_fract_x
_atom_site_fract_y
_atom_site_fract_z
C1 C 1.1224(20) 0.22190 1.3045(12)
C2 C 1.2848(22) 0.1943(3) 1.3383(12)
C3 C 1.1827(20) 0.1602(3) 1.3132(12)
C4 C 1.1321(17) 0.1546(3) 1.1518(11)
C5 C 0.9937(17) 0.1844(2) 1.1005(11)
C6 C 0.9564(19) 0.1834(3) 0.9349(12)
C7 C 1.1567(20) 0.1976(3) 0.8162(12)
C8 C 1.2995(19) 0.2235(3) 0.8818(12)
C9 C 1.2675(18) 0.2320(2) 1.0254(12)
C10 C 1.0742(18) 0.2208(3) 1.1394(12)
C11 C 0.868(2) 0.2448(3) 1.1366(14)
C12 C 0.9373(18) 0.2817(3) 1.1343(12)
C13 C 0.9965(21) 0.1230(3) 1.1518(13)
C14 C 1.3584(19) 0.1493(3) 1.0482(13)
C15 C 1.4943(23) 0.2360(3) 0.7654(14)
C16 C 0.8024(19) 0.3597(3) 0.9864(11)
C17 C 0.6237(19) 0.3499(3) 0.9103(11)
C18 C 0.5181(19) 0.3728(3) 0.8336(11)
C19 C 0.5931(18) 0.4071(3) 0.8281(11)
C20 C 0.7649(18) 0.4172(3) 0.8939(11)
C21 C 0.8714(17) 0.3935(3) 0.9748(10)
N1 N 0.8367(15) 0.3023(2) 1.0558(10)
N2 N 0.9083(15) 0.3361(2) 1.0637(9)
N3 N 0.4818(16) 0.4313(2) 0.7347(10)
N4 N 1.0468(15) 0.4068(2) 1.0497(9)
O1 O 0.3256(14) 0.4218(2) 0.6783(9)
O2 O 0.5541(15) 0.4595(2) 0.7277(9)
O3 O 1.1099(14) 0.4360(2) 1.0289(9)
O4 O 1.1391(13) 0.3879(2) 1.1313(8)
H1 H 0.964(16) 0.220(2) 1.377(10)
H2 H 1.163(19) 0.238(3) 1.345(13)
H3 H 1.270(22) 0.203(3) 1.445(15)
H4 H 1.430(19) 0.197(3) 1.288(13)
H5 H 1.030(13) 0.161(2) 1.389(8)
H6 H 1.330(19) 0.141(3) 1.341(13)
H7 H 0.810(13) 0.182(2) 1.180(9)
H8 H 0.829(14) 0.191(2) 0.920(9)
H9 H 0.932(15) 0.159(2) 0.897(10)
H10 H 1.263(16) 0.180(3) 0.768(11)
H11 H 1.096(18) 0.203(3) 0.743(12)
H12 H 1.357(13) 0.248(2) 1.047(9)
H13 H 0.784(14) 0.241(2) 1.059(9)
H14 H 0.749(21) 0.238(3) 1.268(14)
H15 H 1.060(13) 0.291(2) 1.213(9)
H16 H 0.992(13) 0.116(2) 1.064(9)
H17 H 0.816(15) 0.124(2) 1.212(11)
H18 H 1.080(16) 0.103(3) 1.192(11)
H19 H 1.448(12) 0.166(2) 1.045(8)
H20 H 1.343(15) 0.142(2) 0.935(10)
H21 H 1.448(19) 0.135(3) 1.078(13)
H22 H 1.552(13) 0.251(2) 0.794(9)
H23 H 1.643(17) 0.218(3) 0.715(12)
H24 H 1.466(19) 0.244(3) 0.673(13)
H25 H 0.573(17) 0.327(2) 0.907(11)
H26 H 0.358(17) 0.369(3) 0.818(11)
H27 H 0.816(11) 0.438(2) 0.881(8)
H28 H 0.992(17) 0.343(3) 1.135(11)
C22 C 0.2535(18) 0.5011(3) 0.4375(11)
C23 C 0.0788(19) 0.5275(3) 0.4933(12)
C24 C 0.2018(21) 0.5612(3) 0.5116(13)
C25 C 0.3373(19) 0.5744(3) 0.3690(12)
C26 C 0.5009(18) 0.5464(2) 0.2874(12)
C27 C 0.6294(19) 0.5552(3) 0.1271(12)
C28 C 0.4905(21) 0.5493(3) -0.0036(12)
C29 C 0.3071(19) 0.5237(3) 0.0282(11)
C30 C 0.2623(18) 0.5071(3) 0.1555(11)
C31 C 0.3996(18) 0.5099(2) 0.2866(11)
C32 C 0.5987(20) 0.4856(3) 0.2560(12)
C33 C 0.5357(19) 0.4487(3) 0.2583(12)
C34 C 0.1772(20) 0.5888(3) 0.2610(12)
C35 C 0.4891(23) 0.6046(3) 0.4060(14)
C36 C 0.1613(19) 0.5186(3) -0.0972(12)
C37 C 0.6923(17) 0.3732(2) 0.4102(10)
C38 C 0.8716(18) 0.3832(3) 0.4788(11)
C39 C 0.9887(18) 0.3623(3) 0.5588(11)
C40 C 0.9288(18) 0.3273(3) 0.5699(11)
C41 C 0.7589(17) 0.3156(2) 0.4995(11)
C42 C 0.6449(17) 0.3364(3) 0.4211(10)
N5 N 0.6389(14) 0.4282(2) 0.3335(9)
N6 N 0.5814(15) 0.3945(2) 0.3312(9)
N7 N 1.0528(15) 0.3049(2) 0.6529(10)
N8 N 0.4645(15) 0.3231(2) 0.3485(9)
O5 O 1.2070(14) 0.3163(2) 0.7121(9)
O6 O 1.0006(14) 0.2752(2) 0.6593(9)
O7 O 0.4212(14) 0.2927(2) 0.3704(9)
O8 O 0.3650(13) 0.3409(2) 0.2660(8)
H29 H 0.180(15) 0.479(2) 0.438(10)
H30 H 0.384(15) 0.499(2) 0.506(11)
H31 H -0.044(14) 0.532(2) 0.404(9)
H32 H -0.045(20) 0.520(3) 0.596(13)
H33 H 0.086(16) 0.575(2) 0.550(11)
H34 H 0.286(14) 0.561(2) 0.585(9)
H35 H 0.614(13) 0.545(2) 0.345(9)
H36 H 0.791(12) 0.547(2) 0.077(8)
H37 H 0.668(14) 0.579(2) 0.119(9)
H38 H 0.638(14) 0.541(2) -0.092(9)
H39 H 0.474(18) 0.567(3) -0.050(12)
H40 H 0.160(14) 0.493(2) 0.171(10)
H41 H 0.706(18) 0.490(3) 0.347(13)
H42 H 0.673(14) 0.489(2) 0.161(10)
H43 H 0.372(13) 0.444(2) 0.228(9)
H44 H 0.092(15) 0.573(2) 0.197(10)
H45 H 0.273(15) 0.601(2) 0.185(10)
H46 H 0.089(15) 0.605(2) 0.31(1)
H47 H 0.570(15) 0.596(2) 0.461(10)
H48 H 0.378(13) 0.616(2) 0.460(8)
H49 H 0.535(26) 0.615(4) 0.309(17)
H50 H 0.041(16) 0.507(2) -0.068(11)
H51 H 0.295(16) 0.517(2) -0.172(11)
H52 H 0.078(19) 0.540(3) -0.140(13)
H53 H 0.904(13) 0.403(2) 0.485(9)
H54 H 1.135(16) 0.370(2) 0.574(10)
H55 H 0.718(14) 0.288(2) 0.496(9)
H56 H 0.476(16) 0.386(2) 0.268(11)
#END
