
#######################################################################
#
#                 Cambridge Crystallographic Data Centre
#                                CCDC
#
#######################################################################
#
# If this CIF has been generated from an entry in the Cambridge
# Structural Database, then it will include bibliographic, chemical,
# crystal, experimental, refinement or atomic coordinate data resulting
# from the CCDC's data processing and validation procedures.
#
#######################################################################

data_CSD_CIF_CITRUT
_audit_creation_date 2008-04-21
_audit_creation_method CSD-ConQuest-V1
_database_code_CSD CITRUT
_database_code_depnum_ccdc_archive 'CCDC 650554'
_chemical_formula_sum 'C20 H18 N2 O3'
_chemical_formula_moiety
;
C20 H18 N2 O3
;
_journal_coden_Cambridge 1291
_journal_year 2007
_journal_page_first 6003
_journal_name_full 'Eur.J.Org.Chem. '
loop_
_publ_author_name
"P.Quadrelli"
"M.Mella"
"S.Carosso"
"B.Bovio"
"P.Caramella"
_chemical_name_systematic
;
syn-(Phenyl)(5-phenyl-3,8-dioxa-4,9-diazatricyclo(5.2.2.0^2,6^)undec-4-en-9-yl
)methanone
;
_chemical_name_common
;
syn-9-Benzoyl-5-phenyl-3,8-dioxa-4,9-diazatricyclo(5.2.2.0$2,6!)undec-4-ene
;
_chemical_melting_point 488.15
_cell_volume   1627.556
_exptl_crystal_colour 'colorless'
_exptl_crystal_density_diffrn 1.365
_exptl_special_details
;
Melts above 488.15K

;
_exptl_crystal_description 'prisms'
_diffrn_ambient_temperature 293
#These two values have been output from a single CSD field.
_refine_ls_R_factor_gt 0.046
_refine_ls_wR_factor_gt 0.046
_symmetry_cell_setting monoclinic
_symmetry_space_group_name_H-M 'P 21/a'
_symmetry_Int_Tables_number 14
loop_
_symmetry_equiv_pos_site_id
_symmetry_equiv_pos_as_xyz
1 x,y,z
2 1/2-x,1/2+y,-z
3 -x,-y,-z
4 -1/2+x,-1/2-y,z
_cell_length_a 8.213(1)
_cell_length_b 13.048(5)
_cell_length_c 15.656(4)
_cell_angle_alpha 90
_cell_angle_beta 104.05(2)
_cell_angle_gamma 90
_cell_formula_units_Z 4
loop_
_atom_type_symbol
_atom_type_radius_bond
C 0.68
H 0.23
N 0.68
O 0.68
loop_
_atom_site_label
_atom_site_type_symbol
_atom_site_fract_x
_atom_site_fract_y
_atom_site_fract_z
C1 C 0.58395(12) 0.35122(7) 0.12208(6)
C2 C 0.55178(13) 0.31793(8) 0.20991(7)
O1 O 0.70958(11) 0.29368(6) 0.27141(5)
N1 N 0.74220(12) 0.36644(7) 0.34017(6)
C3 C 0.61918(12) 0.42882(8) 0.33079(6)
C4 C 0.47894(11) 0.40894(7) 0.25051(6)
C5 C 0.44731(10) 0.49683(7) 0.18396(6)
O2 O 0.60689(8) 0.52953(5) 0.16888(5)
N2 N 0.68529(9) 0.44421(6) 0.13789(6)
C6 C 0.33123(12) 0.46322(9) 0.09776(7)
C7 C 0.41651(13) 0.37605(9) 0.05818(7)
C8 C 0.84331(11) 0.45613(7) 0.13020(6)
O3 O 0.91086(9) 0.38985(6) 0.09498(5)
C9 C 0.93183(11) 0.55274(7) 0.16678(7)
C10 C 0.99722(13) 0.61723(9) 0.11318(9)
C11 C 1.08771(17) 0.70368(10) 0.14976(12)
C12 C 1.11369(16) 0.72463(10) 0.23794(12)
C13 C 1.05116(16) 0.65980(11) 0.29121(10)
C14 C 0.95955(14) 0.57402(10) 0.25567(8)
C15 C 0.62303(13) 0.51290(8) 0.39362(6)
C16 C 0.77240(17) 0.53846(12) 0.45432(8)
C17 C 0.77432(20) 0.61651(13) 0.51448(9)
C18 C 0.63067(23) 0.66955(11) 0.51512(9)
C19 C 0.48326(20) 0.64551(10) 0.45535(8)
C20 C 0.47888(15) 0.56725(9) 0.39480(7)
H1 H 0.6512(14) 0.30077(86) 0.10106(71)
H2 H 0.4812(14) 0.25589(96) 0.20329(69)
H3 H 0.3724(14) 0.39283(88) 0.26684(70)
H4 H 0.4073(13) 0.55848(84) 0.20667(66)
H5 H 0.3084(17) 0.5248(11) 0.05386(96)
H6 H 0.2220(17) 0.44216(96) 0.10944(81)
H7 H 0.4376(15) 0.39699(95) 0.00058(81)
H8 H 0.3466(16) 0.3134(10) 0.04876(79)
H9 H 0.9780(17) 0.6025(11) 0.05269(96)
H10 H 1.1305(21) 0.7490(14) 0.1125(11)
H11 H 1.1774(20) 0.7870(12) 0.2633(10)
H12 H 1.0693(22) 0.6745(14) 0.3551(12)
H13 H 0.9136(17) 0.5263(11) 0.29185(89)
H14 H 0.874(2) 0.5009(13) 0.4505(10)
H15 H 0.8805(22) 0.6308(14) 0.5584(12)
H16 H 0.6325(19) 0.7261(13) 0.5566(11)
H17 H 0.3768(21) 0.6836(13) 0.4545(10)
H18 H 0.3704(17) 0.5482(10) 0.35301(88)
#END
