
#######################################################################
#
#                 Cambridge Crystallographic Data Centre
#                                CCDC
#
#######################################################################
#
# If this CIF has been generated from an entry in the Cambridge
# Structural Database, then it will include bibliographic, chemical,
# crystal, experimental, refinement or atomic coordinate data resulting
# from the CCDC's data processing and validation procedures.
#
#######################################################################

data_CSD_CIF_CIVTUW01
_audit_creation_date 1987-06-12
_audit_creation_method CSD-ConQuest-V1
_database_code_CSD CIVTUW01
_chemical_formula_sum 'C13 H5 N3 O8'
_chemical_formula_moiety
;
C13 H5 N3 O8
;
_journal_coden_Cambridge 41
_journal_volume 31
_journal_year 1986
_journal_page_first 113
_journal_name_full 'Kristallografiya(Russ.)(Crystallogr.Rep.) '
loop_
_publ_author_name
"E.G.Popova"
"L.A.Chetkina"
"V.K.Bel'skii"
"A.M.Andrievskii"
"A.N.Poplavskii"
"K.M.Dyumaev"
_chemical_name_systematic
;
3,8,9-Trinitro-5H-dibenzo(b,d)pyran-5-one
;
_chemical_melting_point 510.65
_cell_volume   1340.840
_exptl_crystal_colour 'light brown'
_exptl_crystal_density_diffrn 1.64
_exptl_special_details
;
Melting point range 510.65-511.65K
monoclinic polymorph

;
_diffrn_ambient_temperature ?
_diffrn_special_details
;
The study was carried out at room temperature,in the range 283-303K

;
#These two values have been output from a single CSD field.
_refine_ls_R_factor_gt 0.032
_refine_ls_wR_factor_gt 0.032
_symmetry_cell_setting monoclinic
_symmetry_space_group_name_H-M 'P 1 1 21/n'
_symmetry_Int_Tables_number 14
loop_
_symmetry_equiv_pos_site_id
_symmetry_equiv_pos_as_xyz
1 x,y,z
2 1/2-x,1/2-y,1/2+z
3 -x,-y,-z
4 -1/2+x,-1/2+y,-1/2-z
_cell_length_a 7.455(1)
_cell_length_b 10.295(2)
_cell_length_c 18.085(4)
_cell_angle_alpha 90
_cell_angle_beta 90
_cell_angle_gamma 104.98(1)
_cell_formula_units_Z 4
loop_
_atom_type_symbol
_atom_type_radius_bond
C 0.68
N 0.68
O 0.68
loop_
_atom_site_label
_atom_site_type_symbol
_atom_site_fract_x
_atom_site_fract_y
_atom_site_fract_z
C1 C 0.3457(3) 0.2222(3) 0.5292(1)
C2 C 0.3651(3) 0.3035(3) 0.4680(1)
C3 C 0.5263(4) 0.3317(3) 0.4266(1)
C4 C 0.6702(4) 0.2776(3) 0.4448(1)
C5 C 0.7976(3) 0.0563(3) 0.5792(1)
C6 C 0.6347(4) -0.0576(3) 0.6882(1)
C7 C 0.4841(4) -0.0845(3) 0.7345(1)
C8 C 0.3314(4) -0.0345(3) 0.7227(2)
C9 C 0.3298(4) 0.0457(3) 0.6620(2)
C10 C 0.4815(3) 0.0779(2) 0.6138(1)
C11 C 0.4903(3) 0.1652(2) 0.5495(1)
C12 C 0.6493(3) 0.1936(2) 0.5059(1)
C13 C 0.6336(3) 0.0249(2) 0.6271(1)
O1 O 0.1299(3) 0.4044(2) 0.4930(2)
O2 O 0.1461(3) 0.3268(2) 0.3827(1)
O3 O 0.4868(3) 0.5226(2) 0.3694(1)
O4 O 0.6409(4) 0.4020(2) 0.3116(1)
O5 O 0.7958(2) 0.1392(2) 0.5196(1)
O6 O 0.9327(2) 0.0155(2) 0.5870(1)
O7 O 0.6171(4) -0.2155(3) 0.8091(1)
O8 O 0.3551(4) -0.1842(2) 0.8430(1)
N1 N 0.2018(3) 0.3502(2) 0.4459(2)
N2 N 0.5522(4) 0.4262(2) 0.3641(1)
N3 N 0.4854(4) -0.1672(3) 0.8007(2)
#END
