
#######################################################################
#
#                 Cambridge Crystallographic Data Centre
#                                CCDC
#
#######################################################################
#
# If this CIF has been generated from an entry in the Cambridge
# Structural Database, then it will include bibliographic, chemical,
# crystal, experimental, refinement or atomic coordinate data resulting
# from the CCDC's data processing and validation procedures.
#
#######################################################################

data_CSD_CIF_CIVVEI10
_audit_creation_date 1988-09-21
_audit_creation_method CSD-ConQuest-V1
_database_code_CSD CIVVEI10
_database_code_depnum_ccdc_archive 'CCDC 1126493'
_chemical_formula_sum 'C15 H8 N4 O9'
_chemical_formula_moiety
;
C15 H8 N4 O9
;
_journal_coden_Cambridge 122
_journal_year 1987
_journal_page_first 314
_journal_name_full 'Khim.Get.Soedin.,SSSR(Russ.)(Chem.Heterocycl.Compd.) '
loop_
_publ_author_name
"A.M.Andrievskii"
"A.N.Poplavskii"
"K.M.Dyumaev"
"L.A.Chetkina"
"V.K.Bel'skii"
"Yu.S.Bogachev"
"S.S.Berestova"
_chemical_name_systematic
;
10-Acetoxy-2,4,8-trinitro-6(5H)-phenanthridinone
;
_chemical_melting_point 490.15
_cell_volume   1527.653
_exptl_crystal_colour 'bright yellow'
_exptl_crystal_density_diffrn 1.688
_exptl_special_details
;
Melting point range 490.15-491.15K

;
_diffrn_ambient_temperature ?
_diffrn_special_details
;
The study was carried out at room temperature,in the range 283-303K

;
#These two values have been output from a single CSD field.
_refine_ls_R_factor_gt 0.028
_refine_ls_wR_factor_gt 0.028
_symmetry_cell_setting orthorhombic
_symmetry_space_group_name_H-M 'P 21 21 21'
_symmetry_Int_Tables_number 19
loop_
_symmetry_equiv_pos_site_id
_symmetry_equiv_pos_as_xyz
1 x,y,z
2 1/2+x,1/2-y,-z
3 -x,1/2+y,1/2-z
4 1/2-x,-y,1/2+z
_cell_length_a 5.7684(7)
_cell_length_b 12.300(2)
_cell_length_c 21.531(3)
_cell_angle_alpha 90
_cell_angle_beta 90
_cell_angle_gamma 90
_cell_formula_units_Z 4
loop_
_atom_type_symbol
_atom_type_radius_bond
C 0.68
H 0.23
N 0.68
O 0.68
loop_
_atom_site_label
_atom_site_type_symbol
_atom_site_fract_x
_atom_site_fract_y
_atom_site_fract_z
O1 O 1.3612(5) 0.7447(2) 0.2335(1)
O2 O 0.1847(4) 0.3737(2) 0.2578(1)
O3 O 0.1943(5) 0.3515(2) 0.1585(1)
O4 O 0.7134(5) 0.5615(3) 0.0362(1)
O5 O 1.0451(5) 0.6038(2) 0.0736(1)
O6 O 1.4932(5) 0.7392(3) 0.4582(1)
O7 O 1.3470(6) 0.6050(2) 0.5094(1)
O8 O 0.6701(4) 0.4903(2) 0.3859(1)
O9 O 0.8858(4) 0.3394(2) 0.3969(1)
N1 N 1.0628(5) 0.6507(2) 0.1932(1)
N2 N 0.2718(5) 0.3886(2) 0.2069(1)
N3 N 0.8466(6) 0.5734(2) 0.0798(1)
N4 N 1.3607(5) 0.6635(3) 0.4638(1)
C1 C 0.5849(5) 0.4890(2) 0.2569(2)
C2 C 0.4802(6) 0.4567(3) 0.2025(2)
C3 C 0.5620(6) 0.4837(2) 0.1446(1)
C4 C 0.7577(6) 0.5474(3) 0.1426(2)
C5 C 1.1924(6) 0.6872(2) 0.2421(1)
C6 C 1.2596(5) 0.6774(2) 0.3533(1)
C7 C 1.2022(6) 0.6398(3) 0.4113(1)
C8 C 1.0088(6) 0.5769(3) 0.4217(1)
C9 C 0.8700(6) 0.5501(2) 0.3724(1)
C10 C 0.9188(5) 0.5835(2) 0.3113(1)
C11 C 0.7870(5) 0.5517(2) 0.2553(1)
C12 C 0.8724(6) 0.5843(2) 0.1964(1)
C13 C 1.1178(5) 0.6489(2) 0.3036(1)
C14 C 0.7000(7) 0.3815(3) 0.3996(2)
C15 C 0.4758(7) 0.3291(3) 0.4141(2)
H1 H 1.107(7) 0.669(3) 0.162(2)
H2 H 0.524(7) 0.466(3) 0.296(2)
H3 H 0.492(8) 0.459(3) 0.105(2)
H4 H 1.391(7) 0.725(3) 0.347(2)
H5 H 0.960(7) 0.549(3) 0.465(2)
H6 H 0.395(8) 0.362(4) 0.439(2)
H7 H 0.493(9) 0.255(4) 0.429(2)
H8 H 0.366(12) 0.321(5) 0.375(3)
#END
