
#######################################################################
#
#                 Cambridge Crystallographic Data Centre
#                                CCDC
#
#######################################################################
#
# If this CIF has been generated from an entry in the Cambridge
# Structural Database, then it will include bibliographic, chemical,
# crystal, experimental, refinement or atomic coordinate data resulting
# from the CCDC's data processing and validation procedures.
#
#######################################################################

data_CSD_CIF_CIWDAN10
_audit_creation_date 1987-07-16
_audit_creation_method CSD-ConQuest-V1
_database_code_CSD CIWDAN10
_database_code_depnum_ccdc_archive 'CCDC 1126547'
_chemical_formula_sum 'C16 H24 N1 O3'
_chemical_formula_moiety
;
C16 H24 N1 O3
;
_journal_coden_Cambridge 15
_journal_volume 64
_journal_year 1986
_journal_page_first 670
_journal_name_full 'Can.J.Chem. '
loop_
_publ_author_name
"M.Cygler"
"M.J.Grabowski"
"W.Strzyzewski"
"L.Turala"
"R.Skowronski"
_chemical_name_systematic
;
4-Phenoxymethyl-4-hydroxy-2,2,6,6-tetramethyl-1-piperidine-N-oxide
;
_chemical_melting_point 406.15
_cell_volume   1630.297
_exptl_crystal_density_diffrn 1.134
_exptl_special_details
;
Melting point range 406.15-407.15K

;
_diffrn_ambient_temperature ?
_diffrn_special_details
;
The study was carried out at room temperature,in the range 283-303K

;
#These two values have been output from a single CSD field.
_refine_ls_R_factor_gt 0.0503
_refine_ls_wR_factor_gt 0.0503
_symmetry_cell_setting triclinic
_symmetry_space_group_name_H-M 'P -1'
_symmetry_Int_Tables_number 2
loop_
_symmetry_equiv_pos_site_id
_symmetry_equiv_pos_as_xyz
1 x,y,z
2 -x,-y,-z
_cell_length_a 13.080(3)
_cell_length_b 11.648(3)
_cell_length_c 12.034(4)
_cell_angle_alpha 96.33(3)
_cell_angle_beta 116.33(3)
_cell_angle_gamma 90.25(3)
_cell_formula_units_Z 4
loop_
_atom_type_symbol
_atom_type_radius_bond
C 0.68
H 0.23
N 0.68
O 0.68
loop_
_atom_site_label
_atom_site_type_symbol
_atom_site_fract_x
_atom_site_fract_y
_atom_site_fract_z
O1 O 0.4774(2) 0.3087(2) 0.2166(2)
N1 N 0.3930(2) 0.2433(2) 0.2041(2)
C1 C 0.3409(2) 0.1566(2) 0.0901(2)
C2 C 0.4377(3) 0.0950(3) 0.0742(4)
C3 C 0.2738(3) 0.2179(2) -0.0248(2)
C4 C 0.2662(2) 0.0658(2) 0.1072(3)
C5 C 0.1896(2) 0.1104(2) 0.1648(2)
O2 O 0.1019(1) 0.1695(1) 0.0736(2)
C6 C 0.1277(2) 0.0096(2) 0.1860(3)
O3 O 0.2112(1) -0.0573(1) 0.2721(2)
C7 C 0.2594(2) 0.1876(2) 0.2860(2)
C8 C 0.3350(2) 0.2865(2) 0.2809(2)
C9 C 0.4252(3) 0.3275(3) 0.4122(3)
C10 C 0.2661(3) 0.3895(2) 0.2250(3)
C11 C 0.1733(2) -0.1577(2) 0.2955(2)
C12 C 0.0595(2) -0.1941(2) 0.2476(3)
C13 C 0.0332(3) -0.3000(3) 0.2771(3)
C14 C 0.1162(3) -0.3657(3) 0.3502(3)
C15 C 0.2285(3) -0.3267(3) 0.3979(3)
C16 C 0.2577(2) -0.2231(2) 0.3711(3)
H1 H 0.396(1) 0.028(1) -0.006(1)
H2 H 0.487(1) 0.065(1) 0.155(1)
H3 H 0.484(1) 0.144(1) 0.063(1)
H4 H 0.247(1) 0.165(1) -0.107(1)
H5 H 0.316(1) 0.276(1) -0.031(1)
H6 H 0.198(1) 0.260(1) -0.031(1)
H7 H 0.315(1) 0.014(1) 0.163(1)
H8 H 0.222(1) 0.015(1) 0.020(1)
H9 H 0.051(1) 0.193(1) 0.105(1)
H10 H 0.073(1) -0.044(1) 0.100(1)
H11 H 0.077(1) 0.036(1) 0.226(1)
H12 H 0.206(1) 0.223(1) 0.321(1)
H13 H 0.307(1) 0.141(1) 0.349(1)
H14 H 0.384(1) 0.351(1) 0.468(1)
H15 H 0.479(1) 0.385(1) 0.409(1)
H16 H 0.472(1) 0.268(1) 0.443(1)
H17 H 0.232(1) 0.420(1) 0.281(1)
H18 H 0.203(1) 0.373(1) 0.136(1)
H19 H 0.316(1) 0.450(1) 0.230(1)
H20 H -0.009(1) -0.151(1) 0.182(1)
H21 H -0.046(1) -0.320(1) 0.247(1)
H22 H 0.100(1) -0.438(1) 0.376(1)
H23 H 0.275(1) -0.371(1) 0.441(1)
H24 H 0.332(1) -0.199(1) 0.399(1)
O4 O 0.9504(2) 0.2237(2) 0.1653(2)
N2 N 0.8772(2) 0.2947(2) 0.1688(2)
C17 C 0.8364(2) 0.2770(3) 0.2632(3)
C18 C 0.9416(3) 0.2704(4) 0.3852(3)
C19 C 0.7638(3) 0.1618(3) 0.2199(4)
C20 C 0.7701(2) 0.3811(2) 0.2783(3)
C21 C 0.6892(2) 0.4277(2) 0.1602(2)
O5 O 0.5957(1) 0.3472(1) 0.0801(2)
C22 C 0.6350(2) 0.5356(2) 0.1901(3)
O6 O 0.7222(1) 0.6230(1) 0.2658(2)
C23 C 0.7538(2) 0.4550(2) 0.0877(2)
C24 C 0.8189(2) 0.3568(2) 0.0583(2)
C25 C 0.9104(2) 0.4083(2) 0.0288(3)
C26 C 0.7412(3) 0.2700(2) -0.0524(3)
C27 C 0.6891(2) 0.7259(2) 0.3028(2)
C28 C 0.5771(3) 0.7503(2) 0.2695(3)
C29 C 0.5552(3) 0.8587(3) 0.3132(3)
C30 C 0.6404(4) 0.9379(3) 0.3878(3)
C31 C 0.7517(3) 0.9129(3) 0.4207(3)
C32 C 0.7765(3) 0.8072(3) 0.3775(3)
H25 H 0.913(1) 0.264(1) 0.456(1)
H26 H 0.995(1) 0.348(1) 0.419(1)
H27 H 0.984(1) 0.210(1) 0.380(1)
H28 H 0.735(1) 0.155(1) 0.275(1)
H29 H 0.812(1) 0.097(1) 0.213(1)
H30 H 0.698(1) 0.169(1) 0.133(1)
H31 H 0.826(1) 0.441(1) 0.341(1)
H32 H 0.726(1) 0.358(1) 0.316(1)
H33 H 0.567(1) 0.343(1) 0.130(1)
H34 H 0.588(1) 0.514(1) 0.234(1)
H35 H 0.584(1) 0.564(1) 0.116(1)
H36 H 0.813(1) 0.525(1) 0.139(1)
H37 H 0.708(1) 0.477(1) 0.008(1)
H38 H 0.877(1) 0.455(1) -0.039(1)
H39 H 0.954(1) 0.353(1) 0.008(1)
H40 H 0.969(1) 0.459(1) 0.107(1)
H41 H 0.714(1) 0.307(1) -0.130(1)
H42 H 0.685(1) 0.241(1) -0.034(1)
H43 H 0.791(1) 0.216(1) -0.068(1)
H44 H 0.520(1) 0.692(1) 0.215(1)
H45 H 0.472(1) 0.870(1) 0.287(1)
H46 H 0.629(1) 1.009(1) 0.422(1)
H47 H 0.823(1) 0.967(1) 0.480(1)
H48 H 0.857(1) 0.785(1) 0.397(1)
#END
