
#######################################################################
#
#                 Cambridge Crystallographic Data Centre
#                                CCDC
#
#######################################################################
#
# If this CIF has been generated from an entry in the Cambridge
# Structural Database, then it will include bibliographic, chemical,
# crystal, experimental, refinement or atomic coordinate data resulting
# from the CCDC's data processing and validation procedures.
#
#######################################################################

data_CSD_CIF_CIWMUS01
_audit_creation_date 2014-04-16
_audit_creation_method CSD-ConQuest-V1
_database_code_CSD CIWMUS01
_database_code_depnum_ccdc_archive 'CCDC 962867'
_chemical_formula_sum 'C4 H2 N8 O6'
_chemical_formula_moiety
;
C4 H2 N8 O6
;
_journal_coden_Cambridge 1220
_journal_volume 20
_journal_year 2014
_journal_page_first 6401
_journal_name_full 'Chem.-Eur.J. '
loop_
_publ_author_name
"D.Fischer"
"T.M.Klapotke"
"M.Reymann"
"J.Stierstorfer"
_chemical_name_systematic
;
N,N'-Dinitro-3,3'-bi-1,2,5-oxadiazole-4,4'-diamine
;
_chemical_name_common
;
4,4-Dinitramino-3,3-bisfurazane
;
_cell_volume    866.759
_exptl_crystal_colour 'colorless'
_exptl_crystal_density_diffrn 1.978
_exptl_special_details
;
P21/c polymorph

;
_exptl_crystal_description 'block'
_diffrn_ambient_temperature 173
#These two values have been output from a single CSD field.
_refine_ls_R_factor_gt 0.0332
_refine_ls_wR_factor_gt 0.0332
_symmetry_cell_setting monoclinic
_symmetry_space_group_name_H-M 'P 21/c'
_symmetry_Int_Tables_number 14
loop_
_symmetry_equiv_pos_site_id
_symmetry_equiv_pos_as_xyz
1 x,y,z
2 -x,1/2+y,1/2-z
3 -x,-y,-z
4 x,-1/2-y,-1/2+z
_cell_length_a 6.4458(2)
_cell_length_b 8.2096(3)
_cell_length_c 16.5603(6)
_cell_angle_alpha 90
_cell_angle_beta 98.475(4)
_cell_angle_gamma 90
_cell_formula_units_Z 4
loop_
_atom_type_symbol
_atom_type_radius_bond
C 0.68
H 0.23
N 0.68
O 0.68
loop_
_atom_site_label
_atom_site_type_symbol
_atom_site_fract_x
_atom_site_fract_y
_atom_site_fract_z
O1 O 0.57222(16) 0.83950(13) -0.08669(6)
O2 O -0.00987(17) 0.55904(13) -0.08302(6)
O3 O -0.20718(17) 0.60374(14) -0.19966(6)
O4 O -0.07187(16) 0.81516(13) 0.11030(6)
O5 O 0.50759(17) 0.53438(13) 0.08668(6)
O6 O 0.70219(16) 0.54695(14) 0.20621(6)
N1 N 0.40291(19) 0.82122(16) -0.14756(7)
N2 N 0.5109(2) 0.82488(15) -0.01085(7)
N3 N 0.0402(2) 0.78361(15) -0.15449(8)
N4 N -0.06455(19) 0.63657(15) -0.14488(7)
N5 N -0.01087(19) 0.82397(15) 0.03416(7)
N6 N 0.09590(19) 0.77533(15) 0.16882(7)
N7 N 0.4559(2) 0.73395(15) 0.17338(8)
N8 N 0.56069(19) 0.59370(15) 0.15352(7)
C1 C 0.2412(2) 0.79913(16) -0.10992(8)
C2 C 0.3089(2) 0.80197(17) -0.02361(8)
C3 C 0.1901(2) 0.79346(17) 0.04494(8)
C4 C 0.2566(2) 0.76273(17) 0.12992(8)
H1 H 0.031(3) 0.803(2) -0.2072(12)
H2 H 0.471(3) 0.746(2) 0.2241(12)
#END
