
#######################################################################
#
#                 Cambridge Crystallographic Data Centre
#                                CCDC
#
#######################################################################
#
# If this CIF has been generated from an entry in the Cambridge
# Structural Database, then it will include bibliographic, chemical,
# crystal, experimental, refinement or atomic coordinate data resulting
# from the CCDC's data processing and validation procedures.
#
#######################################################################

data_CSD_CIF_CIWMEA10
_audit_creation_date 1991-02-12
_audit_creation_method CSD-ConQuest-V1
_database_code_CSD CIWMEA10
_chemical_formula_sum 'C3 H4 N4 O6'
_chemical_formula_moiety
;
C3 H4 N4 O6
;
_journal_coden_Cambridge 35
_journal_volume 55
_journal_year 1990
_journal_page_first 2920
_journal_name_full 'J.Org.Chem. '
loop_
_publ_author_name
"T.G.Archibald"
"R.Gilardi"
"K.Baum"
"C.George"
_chemical_name_systematic
;
1,3,3-Trinitroazetidine
;
_chemical_melting_point 376.15
_cell_volume   1371.253
_exptl_crystal_colour 'colorless'
_exptl_crystal_density_diffrn 1.861
_exptl_special_details
;
Melting point range 376.15-377.15K

;
_diffrn_ambient_temperature 243.15
#These two values have been output from a single CSD field.
_refine_ls_R_factor_gt 0.06
_refine_ls_wR_factor_gt 0.06
_symmetry_cell_setting orthorhombic
_symmetry_space_group_name_H-M 'P b c a'
_symmetry_Int_Tables_number 61
loop_
_symmetry_equiv_pos_site_id
_symmetry_equiv_pos_as_xyz
1 x,y,z
2 1/2-x,1/2+y,z
3 x,1/2-y,1/2+z
4 1/2-x,-y,1/2+z
5 -x,-y,-z
6 -1/2+x,-1/2-y,-z
7 -x,-1/2+y,-1/2-z
8 -1/2+x,y,-1/2-z
_cell_length_a 5.733(1)
_cell_length_b 11.127(2)
_cell_length_c 21.496(4)
_cell_angle_alpha 90
_cell_angle_beta 90
_cell_angle_gamma 90
_cell_formula_units_Z 8
loop_
_atom_type_symbol
_atom_type_radius_bond
C 0.68
H 0.23
N 0.68
O 0.68
loop_
_atom_site_label
_atom_site_type_symbol
_atom_site_fract_x
_atom_site_fract_y
_atom_site_fract_z
N1 N 0.5409(8) 0.1788(4) 0.1661(2)
C1 C 0.4461(12) 0.3019(5) 0.1744(2)
C2 C 0.3939(9) 0.2999(4) 0.1045(2)
C3 C 0.4557(10) 0.1648(5) 0.1018(2)
N2 N 0.5069(8) 0.0941(4) 0.2102(2)
O1 O 0.5043(7) 0.1254(3) 0.2645(2)
O2 O 0.4920(8) -0.0108(3) 0.1917(2)
N3 N 0.1428(8) 0.3280(3) 0.0877(2)
O3 O 0.1039(7) 0.4049(3) 0.0490(2)
O4 O -0.0036(7) 0.2672(4) 0.1146(2)
N4 N 0.5388(8) 0.3812(4) 0.0649(2)
O5 O 0.5836(7) 0.4794(3) 0.0867(2)
O6 O 0.5946(7) 0.3444(4) 0.0140(2)
H1 H 0.3164(95) 0.1206(46) 0.0986(21)
H2 H 0.2904(94) 0.2985(45) 0.2008(20)
H3 H 0.5490(89) 0.3487(47) 0.1852(23)
H4 H 0.5787(86) 0.1473(46) 0.0733(21)
#END
