
#######################################################################
#
#                 Cambridge Crystallographic Data Centre
#                                CCDC
#
#######################################################################
#
# If this CIF has been generated from an entry in the Cambridge
# Structural Database, then it will include bibliographic, chemical,
# crystal, experimental, refinement or atomic coordinate data resulting
# from the CCDC's data processing and validation procedures.
#
#######################################################################

data_CSD_CIF_CIWVAH01
_audit_creation_date 2014-05-14
_audit_creation_method CSD-ConQuest-V1
_database_code_CSD CIWVAH01
_database_code_depnum_ccdc_archive 'CCDC 977141'
_chemical_formula_sum 'C4 H2 N10 O7'
_chemical_formula_moiety
;
C4 H2 N10 O7
;
_journal_coden_Cambridge 4
_journal_volume 136
_journal_year 2014
_journal_page_first 4437
_journal_name_full 'J.Am.Chem.Soc. '
loop_
_publ_author_name
"Jiaheng Zhang"
"J.M.Shreeve"
_chemical_name_systematic
;
3,3'-Dinitroamino-4,4'-azoxyfurazan
;
_cell_volume    496.885
_exptl_crystal_colour 'colorless'
_exptl_crystal_density_diffrn 2.02
_exptl_special_details
;
monoclinic polymorph

;
_exptl_crystal_description 'prism'
_diffrn_ambient_temperature 173
#These two values have been output from a single CSD field.
_refine_ls_R_factor_gt 0.035
_refine_ls_wR_factor_gt 0.035
_symmetry_cell_setting monoclinic
_symmetry_space_group_name_H-M 'P n'
_symmetry_Int_Tables_number 7
loop_
_symmetry_equiv_pos_site_id
_symmetry_equiv_pos_as_xyz
1 x,y,z
2 1/2+x,-y,1/2+z
_cell_length_a 7.8000(16)
_cell_length_b 8.2000(16)
_cell_length_c 8.6000(17)
_cell_angle_alpha 90
_cell_angle_beta 115.40(3)
_cell_angle_gamma 90
_cell_formula_units_Z 2
loop_
_atom_type_symbol
_atom_type_radius_bond
C 0.68
H 0.23
N 0.68
O 0.68
loop_
_atom_site_label
_atom_site_type_symbol
_atom_site_fract_x
_atom_site_fract_y
_atom_site_fract_z
N1 N 0.2189(4) 0.4508(3) 0.3888(3)
N2 N 0.2787(4) 0.8091(3) -0.1414(4)
N3 N 0.3091(4) 0.9979(3) -0.4217(4)
H1 H 0.37530 1.03400 -0.31630
N4 N 0.2738(4) 0.6995(3) -0.0383(3)
N5 N 0.3391(4) 1.0658(3) -0.5512(3)
N6 N 0.2424(4) 0.5200(3) 0.2539(4)
H2 H 0.17400 0.48290 0.14930
C1 C 0.1663(5) 0.7819(4) -0.3156(4)
O1 O 0.4639(4) 1.1686(3) -0.5063(3)
O2 O 0.2366(4) 1.0263(3) -0.6985(3)
O3 O 0.0943(4) 0.3500(3) 0.3490(3)
O4 O 0.3180(4) 0.4992(3) 0.5314(3)
C2 C 0.3854(5) 0.7304(4) 0.1385(4)
N7 N 0.5160(5) 0.8396(3) 0.2024(4)
O5 O -0.0434(4) 0.7012(3) -0.5565(3)
C3 C 0.1793(5) 0.8745(4) -0.4476(4)
N8 N 0.0306(5) 0.6740(3) -0.3815(4)
C4 C 0.3664(5) 0.6429(4) 0.2748(4)
O6 O 0.5826(4) 0.8261(3) 0.3737(3)
N9 N 0.0513(5) 0.8271(4) -0.5947(4)
N10 N 0.4904(5) 0.7026(4) 0.4207(4)
O7 O 0.1778(4) 0.5769(2) -0.0806(3)
#END
