
#######################################################################
#
#                 Cambridge Crystallographic Data Centre
#                                CCDC
#
#######################################################################
#
# If this CIF has been generated from an entry in the Cambridge
# Structural Database, then it will include bibliographic, chemical,
# crystal, experimental, refinement or atomic coordinate data resulting
# from the CCDC's data processing and validation procedures.
#
#######################################################################

data_CSD_CIF_CIXCES
_audit_creation_date 2008-04-21
_audit_creation_method CSD-ConQuest-V1
_database_code_CSD CIXCES
_database_code_depnum_ccdc_archive 'CCDC 619546'
_chemical_formula_sum 'C18 H18 N2 O3'
_chemical_formula_moiety
;
C18 H18 N2 O3
;
_journal_coden_Cambridge 1003
_journal_volume 38
_journal_year 2008
_journal_page_first 33
_journal_name_full 'J.Chem.Cryst. '
loop_
_publ_author_name
"K.Ravikumar"
"B.Sridhar"
"M.Mahesh"
"V.V.N.Reddy"
_chemical_name_systematic
;
5-(4-Nitrophenyl)-3,4,4a,5,6,10b-hexahydro-2H-pyrano(3,2-c)quinoline
;
_cell_volume    758.907
_exptl_crystal_colour 'pale yellow'
_exptl_crystal_density_diffrn 1.358
_exptl_special_details
;
triclinic polymorph

;
_exptl_crystal_description 'rectangular plate'
_exptl_crystal_preparation 'methanol/water'
_diffrn_ambient_temperature 273
#These two values have been output from a single CSD field.
_refine_ls_R_factor_gt 0.0405
_refine_ls_wR_factor_gt 0.0405
loop_
_citation_database_id_CSD
_citation_special_details
FEDREM "is a stereoisomer of this entry"
_symmetry_cell_setting triclinic
_symmetry_space_group_name_H-M 'P -1'
_symmetry_Int_Tables_number 2
loop_
_symmetry_equiv_pos_site_id
_symmetry_equiv_pos_as_xyz
1 x,y,z
2 -x,-y,-z
_cell_length_a 8.2299(5)
_cell_length_b 9.7774(6)
_cell_length_c 11.0047(7)
_cell_angle_alpha 65.718(1)
_cell_angle_beta 75.699(1)
_cell_angle_gamma 71.617(1)
_cell_formula_units_Z 2
loop_
_atom_type_symbol
_atom_type_radius_bond
C 0.68
H 0.23
N 0.68
O 0.68
loop_
_atom_site_label
_atom_site_type_symbol
_atom_site_fract_x
_atom_site_fract_y
_atom_site_fract_z
C1 C 0.1952(2) 0.3017(2) 1.30016(16)
H1 H 0.30490 0.30870 1.31200
H2 H 0.11360 0.30650 1.37960
C2 C 0.1306(2) 0.4364(2) 1.17870(17)
H3 H 0.12070 0.53240 1.18930
H4 H 0.01690 0.43420 1.17030
C3 C 0.25437(19) 0.42861(17) 1.05255(15)
H5 H 0.36420 0.44300 1.05620
H6 H 0.20740 0.51070 0.97390
C4 C 0.28184(18) 0.27236(16) 1.04142(14)
H7 H 0.17160 0.26610 1.02780
C5 C 0.41819(19) 0.24560(16) 0.92453(14)
H8 H 0.42640 0.14270 0.92610
C6 C 0.63888(19) 0.16676(16) 1.07093(15)
C7 C 0.8115(2) 0.1378(2) 1.08599(18)
H9 H 0.89190 0.16710 1.01030
C8 C 0.8640(2) 0.0665(2) 1.21140(19)
H10 H 0.97920 0.04900 1.21980
C9 C 0.7476(2) 0.02066(19) 1.32450(18)
H11 H 0.78290 -0.02660 1.40940
C10 C 0.5780(2) 0.04588(18) 1.31019(15)
H12 H 0.49960 0.01320 1.38650
C11 C 0.52030(18) 0.11858(16) 1.18547(14)
C12 C 0.33387(18) 0.14046(17) 1.17191(14)
H13 H 0.32680 0.04550 1.16540
C13 C 0.37016(18) 0.36300(16) 0.78959(14)
C14 C 0.4089(2) 0.50646(18) 0.73587(15)
H14 H 0.46880 0.53070 0.78270
C15 C 0.3599(2) 0.61361(17) 0.61415(15)
H15 H 0.38540 0.70990 0.57880
C16 C 0.27254(18) 0.57479(17) 0.54610(14)
C17 C 0.2314(2) 0.43421(18) 0.59648(15)
H16 H 0.17170 0.41060 0.54900
C18 C 0.28027(19) 0.32897(17) 0.71852(14)
H17 H 0.25260 0.23360 0.75390
N1 N 0.58516(17) 0.24793(16) 0.94451(13)
H18 H 0.664(3) 0.248(2) 0.8764(19)
N2 N 0.22612(18) 0.68589(17) 0.41413(13)
O1 O 0.21686(14) 0.15747(13) 1.28716(10)
O2 O 0.2719(2) 0.80544(16) 0.36707(14)
O3 O 0.1492(2) 0.65147(18) 0.35390(13)
#END
