
#######################################################################
#
#                 Cambridge Crystallographic Data Centre
#                                CCDC
#
#######################################################################
#
# If this CIF has been generated from an entry in the Cambridge
# Structural Database, then it will include bibliographic, chemical,
# crystal, experimental, refinement or atomic coordinate data resulting
# from the CCDC's data processing and validation procedures.
#
#######################################################################

data_CSD_CIF_CIXCES01
_audit_creation_date 2008-04-21
_audit_creation_method CSD-ConQuest-V1
_database_code_CSD CIXCES01
_database_code_depnum_ccdc_archive 'CCDC 619547'
_chemical_formula_sum 'C18 H18 N2 O3'
_chemical_formula_moiety
;
C18 H18 N2 O3
;
_journal_coden_Cambridge 1003
_journal_volume 38
_journal_year 2008
_journal_page_first 33
_journal_name_full 'J.Chem.Cryst. '
loop_
_publ_author_name
"K.Ravikumar"
"B.Sridhar"
"M.Mahesh"
"V.V.N.Reddy"
_chemical_name_systematic
;
5-(4-Nitrophenyl)-3,4,4a,5,6,10b-hexahydro-2H-pyrano(3,2-c)quinoline
;
_cell_volume   6276.979
_exptl_crystal_colour 'pale yellow'
_exptl_crystal_density_diffrn 1.314
_exptl_special_details
;
monoclinic polymorph

;
_exptl_crystal_description 'needle'
_exptl_crystal_preparation 'methanol/water'
_diffrn_ambient_temperature 273
#These two values have been output from a single CSD field.
_refine_ls_R_factor_gt 0.0756
_refine_ls_wR_factor_gt 0.0756
loop_
_citation_database_id_CSD
_citation_special_details
FEDREM "is a stereoisomer of this entry"
_symmetry_cell_setting monoclinic
_symmetry_space_group_name_H-M 'C 2/c'
_symmetry_Int_Tables_number 15
loop_
_symmetry_equiv_pos_site_id
_symmetry_equiv_pos_as_xyz
1 x,y,z
2 1/2+x,1/2+y,z
3 -x,y,1/2-z
4 1/2-x,1/2+y,1/2-z
5 -x,-y,-z
6 -1/2-x,-1/2-y,-z
7 x,-y,-1/2+z
8 -1/2+x,-1/2-y,-1/2+z
_cell_length_a 32.285(3)
_cell_length_b 9.4045(7)
_cell_length_c 22.8042(18)
_cell_angle_alpha 90
_cell_angle_beta 114.965(1)
_cell_angle_gamma 90
_cell_formula_units_Z 16
loop_
_atom_type_symbol
_atom_type_radius_bond
C 0.68
H 0.23
N 0.68
O 0.68
loop_
_atom_site_label
_atom_site_type_symbol
_atom_site_fract_x
_atom_site_fract_y
_atom_site_fract_z
C1 C 0.07892(11) 0.7794(4) 0.41081(18)
H1 H 0.09010 0.87610 0.42130
H2 H 0.05140 0.77080 0.41770
C2 C 0.06785(11) 0.7498(4) 0.34107(17)
H3 H 0.04470 0.81590 0.31370
H4 H 0.05580 0.65410 0.33000
C3 C 0.11087(10) 0.7652(4) 0.32978(15)
H5 H 0.12060 0.86380 0.33550
H6 H 0.10440 0.73740 0.28580
C4 C 0.14882(9) 0.6722(3) 0.37720(13)
H7 H 0.14030 0.57270 0.36540
C5 C 0.19555(9) 0.6976(3) 0.37585(12)
H8 H 0.21800 0.63630 0.40860
C6 C 0.20676(8) 0.8969(3) 0.44906(12)
C7 C 0.22967(9) 1.0221(3) 0.47716(13)
H9 H 0.24760 1.06700 0.45980
C8 C 0.22606(9) 1.0798(3) 0.52994(14)
H10 H 0.24110 1.16430 0.54760
C9 C 0.20024(10) 1.0131(3) 0.55693(14)
H11 H 0.19790 1.05190 0.59290
C10 C 0.17804(9) 0.8888(3) 0.53004(13)
H12 H 0.16110 0.84310 0.54880
C11 C 0.18010(8) 0.8295(3) 0.47578(12)
C12 C 0.15493(9) 0.6930(3) 0.44677(13)
H13 H 0.17420 0.61470 0.47220
C13 C 0.19527(9) 0.6616(3) 0.31118(12)
C14 C 0.19152(10) 0.7629(3) 0.26555(14)
H14 H 0.18840 0.85810 0.27400
C15 C 0.19230(11) 0.7256(3) 0.20768(14)
H15 H 0.19000 0.79480 0.17730
C16 C 0.19659(9) 0.5846(3) 0.19557(13)
C17 C 0.19971(10) 0.4805(3) 0.23937(14)
H16 H 0.20220 0.38530 0.23030
C18 C 0.19908(10) 0.5201(3) 0.29690(13)
H17 H 0.20130 0.45050 0.32700
N1 N 0.20883(8) 0.8444(2) 0.39357(11)
H18 H 0.2334(9) 0.866(3) 0.3904(13)
N2 N 0.19876(8) 0.5454(3) 0.13480(12)
O1 O 0.11262(7) 0.6830(2) 0.45246(10)
O2 O 0.20228(8) 0.4194(3) 0.12452(11)
O3 O 0.19728(10) 0.6396(3) 0.09717(11)
C19 C 0.05986(11) 0.0706(3) 0.61944(17)
H19 H 0.05410 -0.00640 0.64330
H20 H 0.07910 0.13980 0.65050
C20 C 0.08457(11) 0.0133(3) 0.58151(17)
H21 H 0.06680 -0.06250 0.55330
H22 H 0.11380 -0.02570 0.61090
C21 C 0.09200(9) 0.1314(3) 0.54137(15)
H23 H 0.10550 0.09220 0.51410
H24 H 0.11300 0.20140 0.56980
C22 C 0.04672(9) 0.2024(3) 0.49952(14)
H25 H 0.02730 0.13140 0.46870
C23 C 0.0512(1) 0.3300(3) 0.46053(14)
H26 H 0.02050 0.36420 0.43260
C24 C 0.06907(9) 0.4736(3) 0.55851(14)
C25 C 0.08766(10) 0.5968(3) 0.59368(16)
H27 H 0.10300 0.66070 0.57870
C26 C 0.08376(12) 0.6253(4) 0.64982(18)
H28 H 0.09640 0.70830 0.67250
C27 C 0.06114(12) 0.5316(4) 0.67333(17)
H29 H 0.05890 0.55000 0.71200
C28 C 0.04203(11) 0.4106(3) 0.63821(16)
H30 H 0.02660 0.34790 0.65350
C29 C 0.04513(9) 0.3797(3) 0.58100(14)
C30 C 0.02256(9) 0.2499(3) 0.54102(14)
H31 H -0.00840 0.27860 0.51110
C31 C 0.07479(10) 0.2888(3) 0.41828(14)
C32 C 0.12116(10) 0.3087(3) 0.43794(14)
H32 H 0.13820 0.35260 0.47740
C33 C 0.14272(11) 0.2648(3) 0.40027(14)
H33 H 0.17390 0.27980 0.41410
C34 C 0.11834(12) 0.1996(3) 0.34295(14)
C35 C 0.07223(14) 0.1775(4) 0.32161(16)
H34 H 0.05570 0.13230 0.28230
C36 C 0.05072(12) 0.2232(4) 0.35915(16)
H35 H 0.01940 0.20970 0.34440
N3 N 0.07564(9) 0.4433(3) 0.50445(14)
H36 H 0.0843(10) 0.510(3) 0.4873(14)
N4 N 0.14200(14) 0.1507(3) 0.30357(14)
O4 O 0.01757(6) 0.1360(2) 0.57884(11)
O5 O 0.18269(12) 0.1783(3) 0.32246(15)
O6 O 0.11941(12) 0.0847(3) 0.25429(13)
#END
