
#######################################################################
#
#                 Cambridge Crystallographic Data Centre
#                                CCDC
#
#######################################################################
#
# If this CIF has been generated from an entry in the Cambridge
# Structural Database, then it will include bibliographic, chemical,
# crystal, experimental, refinement or atomic coordinate data resulting
# from the CCDC's data processing and validation procedures.
#
#######################################################################

data_CSD_CIF_CIZMUT01
_audit_creation_date 2000-09-12
_audit_creation_method CSD-ConQuest-V1
_database_code_CSD CIZMUT01
_database_code_depnum_ccdc_archive 'CCDC 147667'
_chemical_formula_sum 'C23 H19 N3 O4'
_chemical_formula_moiety
;
C23 H19 N3 O4
;
_journal_coeditor_code "IUCr OA1099"
_journal_coden_Cambridge 591
_journal_volume 56
_journal_year 2000
_journal_page_first 884
_journal_name_full 'Acta Crystallogr.,Sect.C:Cryst.Struct.Commun. '
loop_
_publ_author_name
"Y.Inouye"
"Y.Sakaino"
_chemical_name_systematic
;
4,5-bis(4-Methoxyphenyl)-2-(3-nitrophenyl)-1H-imidazole
;
_cell_volume   3920.490
_exptl_crystal_colour 'red'
_exptl_crystal_density_diffrn 1.36
_exptl_crystal_description 'plate'
_exptl_crystal_preparation 'ethanol'
_diffrn_ambient_temperature ?
_diffrn_special_details
;
The study was carried out at room temperature,in the range 283-303K

;
_refine_special_details
;
C15B-C22B, from one of the methoxyphenyl rings, and O2B from the nitro group, 
were disordered over two sites with occupancies 0.54 and 0.46.
;
#These two values have been output from a single CSD field.
_refine_ls_R_factor_gt 0.0864
_refine_ls_wR_factor_gt 0.0864
_symmetry_cell_setting monoclinic
_symmetry_space_group_name_H-M 'P 21/a'
_symmetry_Int_Tables_number 14
loop_
_symmetry_equiv_pos_site_id
_symmetry_equiv_pos_as_xyz
1 x,y,z
2 1/2+x,1/2-y,z
3 -x,-y,-z
4 -1/2-x,-1/2+y,-z
_cell_length_a 21.004(5)
_cell_length_b 13.061(3)
_cell_length_c 14.441(4)
_cell_angle_alpha 90
_cell_angle_beta 98.266(11)
_cell_angle_gamma 90
_cell_formula_units_Z 8
loop_
_atom_type_symbol
_atom_type_radius_bond
C 0.68
H 0.23
N 0.68
O 0.68
loop_
_atom_site_label
_atom_site_type_symbol
_atom_site_fract_x
_atom_site_fract_y
_atom_site_fract_z
O1 O 0.2439(2) 0.2953(3) 0.4164(3)
O2 O 0.1865(2) 0.4026(4) 0.3281(4)
N1 N 0.2329(2) 0.3820(4) 0.3852(4)
C1 C 0.2787(3) 0.4634(4) 0.4193(4)
C2 C 0.3331(3) 0.4396(4) 0.4793(4)
H1 H 0.339(3) 0.378(4) 0.501(4)
C3 C 0.3768(3) 0.5178(4) 0.5096(4)
C4 C 0.3622(3) 0.6165(4) 0.4780(4)
H2 H 0.390(2) 0.672(4) 0.494(4)
C5 C 0.3066(3) 0.6384(5) 0.4173(5)
H3 H 0.300(3) 0.705(5) 0.394(4)
C6 C 0.2645(3) 0.5622(5) 0.3864(4)
H4 H 0.228(3) 0.570(5) 0.341(5)
C7 C 0.4358(3) 0.4938(4) 0.5736(4)
N2 N 0.4809(2) 0.5643(4) 0.6061(3)
H5 H 0.481(3) 0.627(4) 0.586(4)
C8 C 0.5279(3) 0.5180(4) 0.6688(4)
C9 C 0.5078(3) 0.4172(4) 0.6719(4)
N3 N 0.4509(2) 0.4030(3) 0.6110(3)
C10 C 0.5839(3) 0.5742(4) 0.7141(4)
C11 C 0.5891(3) 0.6784(5) 0.7016(6)
H6 H 0.561(3) 0.712(5) 0.665(4)
C12 C 0.6408(3) 0.7348(5) 0.7417(6)
H7 H 0.643(4) 0.809(7) 0.731(6)
C13 C 0.6894(3) 0.6887(5) 0.8011(5)
C14 C 0.6867(3) 0.5846(5) 0.8149(5)
H8 H 0.718(3) 0.547(5) 0.854(5)
C15 C 0.6349(3) 0.5284(5) 0.7716(5)
H9 H 0.633(3) 0.461(5) 0.778(4)
O3 O 0.7385(2) 0.7504(3) 0.8403(4)
C16 C 0.7878(4) 0.7075(6) 0.9060(6)
H10 H 0.81760 0.76010 0.92990
H11 H 0.81000 0.65550 0.87620
H12 H 0.76920 0.67770 0.95670
C17 C 0.5360(3) 0.3315(4) 0.7305(4)
C18 C 0.5419(3) 0.3356(5) 0.8280(4)
H13 H 0.521(4) 0.395(6) 0.848(5)
C19 C 0.5675(3) 0.2557(5) 0.8829(5)
H14 H 0.574(3) 0.260(4) 0.948(4)
C20 C 0.5888(3) 0.1688(4) 0.8414(4)
C21 C 0.5832(3) 0.1624(4) 0.7463(4)
H15 H 0.598(3) 0.102(5) 0.716(4)
C22 C 0.5571(3) 0.2433(4) 0.6917(5)
H16 H 0.554(2) 0.231(4) 0.626(4)
O4 O 0.6143(2) 0.0936(3) 0.9027(3)
C23 C 0.6351(4) 0.0017(5) 0.8646(5)
H17 H 0.65030 -0.04480 0.91440
H18 H 0.66930 0.01640 0.82920
H19 H 0.59980 -0.02900 0.82440
O5 O 0.4617(2) -0.2000(3) 0.5717(4)
O6 O 0.5198(9) -0.090(2) 0.6596(11)
O7? O 0.5008(12) -0.101(3) 0.6840(11)
N4 N 0.4712(3) -0.1135(4) 0.6036(4)
C24 C 0.4317(3) -0.0290(4) 0.5606(4)
C25 C 0.3832(3) -0.0513(4) 0.4901(4)
H20 H 0.379(2) -0.120(4) 0.475(3)
C26 C 0.3446(3) 0.0273(4) 0.4490(4)
C27 C 0.3581(3) 0.1261(4) 0.4803(4)
H21 H 0.332(3) 0.181(4) 0.453(4)
C28 C 0.4078(3) 0.1476(5) 0.5514(5)
H22 H 0.419(3) 0.216(5) 0.570(5)
C29 C 0.4447(3) 0.0684(5) 0.5926(5)
H23 H 0.474(3) 0.078(5) 0.634(4)
C30 C 0.2906(3) 0.0012(4) 0.3784(4)
N5 N 0.2444(2) 0.0667(4) 0.3387(4)
H24 H 0.248(3) 0.130(5) 0.354(5)
C31 C 0.2014(3) 0.0120(4) 0.2770(4)
C32 C 0.2243(3) -0.0864(4) 0.2812(4)
N6 N 0.2803(2) -0.0929(3) 0.3442(3)
C33 C 0.1488(8) 0.0549(13) 0.2124(9)
C34 C 0.1148(6) 0.1365(11) 0.2444(9)
H25 H 0.12810 0.16330 0.30370
C35 C 0.0624(6) 0.1777(11) 0.1897(8)
H26 H 0.04180 0.23560 0.20850
C36 C 0.0411(4) 0.1297(11) 0.1054(7)
C37 C 0.0754(6) 0.0520(9) 0.0692(8)
H27 H 0.06240 0.02680 0.00920
C38 C 0.1288(6) 0.0132(9) 0.1236(8)
H28 H 0.15170 -0.04040 0.10170
O8 O -0.0128(4) 0.1642(7) 0.0426(6)
C39 C -0.0498(9) 0.2458(13) 0.0708(14)
H29 H -0.09060 0.24820 0.03120
H30 H -0.02730 0.30920 0.06590
H31 H -0.05650 0.23550 0.13450
C40? C 0.1447(9) 0.0688(13) 0.2325(13)
C41? C 0.1273(7) 0.1677(11) 0.2586(12)
H32? H 0.15190 0.19770 0.31020
C42? C 0.0767(7) 0.2227(12) 0.2132(11)
H33? H 0.06840 0.28870 0.23250
C43? C 0.0378(7) 0.1780(11) 0.1378(10)
C44? C 0.0548(10) 0.0845(13) 0.1025(15)
H34? H 0.03270 0.05840 0.04710
C45? C 0.1054(6) 0.0319(11) 0.1520(9)
H35? H 0.11430 -0.03300 0.13070
O9? O -0.0119(6) 0.2440(9) 0.0956(8)
C46? C -0.0633(9) 0.1929(16) 0.0402(15)
H36? H -0.08860 0.24170 0.00100
H37? H -0.08980 0.16000 0.08020
H38? H -0.04640 0.14250 0.00200
C47 C 0.1989(3) -0.1808(4) 0.2324(4)
C48 C 0.1371(3) -0.2149(5) 0.2380(5)
H39 H 0.115(3) -0.178(5) 0.275(5)
C49 C 0.1138(3) -0.3057(5) 0.1960(5)
H40 H 0.070(3) -0.330(4) 0.200(4)
C50 C 0.1524(3) -0.3622(5) 0.1465(4)
C51 C 0.2136(3) -0.3286(5) 0.1389(5)
H41 H 0.243(3) -0.365(5) 0.107(5)
C52 C 0.2371(4) -0.2394(6) 0.1828(5)
H42 H 0.277(4) -0.217(6) 0.177(6)
O10 O 0.1346(2) -0.4534(3) 0.1012(3)
C53 C 0.0743(4) -0.4946(6) 0.1109(6)
H43 H 0.06940 -0.56010 0.08050
H44 H 0.04100 -0.44930 0.08280
H45 H 0.07100 -0.50270 0.17620
#END
