
#######################################################################
#
#                 Cambridge Crystallographic Data Centre
#                                CCDC
#
#######################################################################
#
# If this CIF has been generated from an entry in the Cambridge
# Structural Database, then it will include bibliographic, chemical,
# crystal, experimental, refinement or atomic coordinate data resulting
# from the CCDC's data processing and validation procedures.
#
#######################################################################

data_CSD_CIF_CIZQAE
_audit_creation_date 2008-08-28
_audit_creation_method CSD-ConQuest-V1
_database_code_CSD CIZQAE
_database_code_depnum_ccdc_archive 'CCDC 283396'
_chemical_formula_sum 'C21 H20 N2 O4'
_chemical_formula_moiety
;
C21 H20 N2 O4
;
_journal_coden_Cambridge 35
_journal_volume 73
_journal_year 2008
_journal_page_first 2224
_journal_name_full 'J.Org.Chem. '
loop_
_publ_author_name
"L.Singh"
"M.P.S.Ishar"
"M.Elango"
"V.Subramanian"
"V.Gupta"
"P.Kanwal"
_chemical_name_systematic
;
3-Ethoxycarbonyl-2-methyl-4-(2-nitrophenyl)-1-phenyl-1,4-dihydropyridine
;
_chemical_melting_point 378.15
_cell_volume   1829.238
_exptl_crystal_colour 'yellowish'
_exptl_crystal_density_diffrn 1.323
_exptl_special_details
;
Melting point range 378.15-379.15K

;
_exptl_crystal_description 'Rectangular'
_diffrn_ambient_temperature 100
#These two values have been output from a single CSD field.
_refine_ls_R_factor_gt 0.0494
_refine_ls_wR_factor_gt 0.0494
_symmetry_cell_setting monoclinic
_symmetry_space_group_name_H-M 'P 21/c'
_symmetry_Int_Tables_number 14
loop_
_symmetry_equiv_pos_site_id
_symmetry_equiv_pos_as_xyz
1 x,y,z
2 -x,1/2+y,1/2-z
3 -x,-y,-z
4 x,-1/2-y,-1/2+z
_cell_length_a 11.495(2)
_cell_length_b 9.281(2)
_cell_length_c 17.236(3)
_cell_angle_alpha 90
_cell_angle_beta 95.853(3)
_cell_angle_gamma 90
_cell_formula_units_Z 4
loop_
_atom_type_symbol
_atom_type_radius_bond
C 0.68
H 0.23
N 0.68
O 0.68
loop_
_atom_site_label
_atom_site_type_symbol
_atom_site_fract_x
_atom_site_fract_y
_atom_site_fract_z
N1 N 0.10444(11) 0.30179(13) 1.13623(7)
C1 C 0.08907(13) 0.23749(15) 1.06328(9)
C2 C -0.00805(13) 0.26863(15) 1.01387(9)
C3 C -0.10815(13) 0.35961(16) 1.03862(9)
C4 C -0.06394(14) 0.45128(17) 1.10744(9)
C5 C 0.03157(14) 0.41724(17) 1.15262(9)
C6 C 0.20859(13) 0.27989(16) 1.18902(8)
C7 C 0.31152(15) 0.3462(2) 1.17513(10)
C8 C 0.41168(16) 0.3254(2) 1.22555(10)
C9 C 0.40788(15) 0.23837(18) 1.28992(10)
C10 C 0.30459(16) 0.17471(19) 1.30458(10)
C11 C 0.20377(15) 0.19521(18) 1.25412(9)
C12 C -0.21136(13) 0.26864(16) 1.05955(8)
C13 C -0.32875(14) 0.29916(16) 1.03762(8)
C14 C -0.42023(15) 0.21235(18) 1.05518(10)
C15 C -0.39537(16) 0.08979(19) 1.09877(10)
C16 C -0.28008(15) 0.05506(18) 1.12253(10)
C17 C -0.19065(15) 0.14257(17) 1.10290(9)
C18 C 0.18292(16) 0.1343(2) 1.04499(11)
C19 C -0.02030(13) 0.21361(16) 0.93356(9)
O1 O 0.05415(9) 0.15775(11) 0.89844(6)
O2 O -0.13073(9) 0.23485(11) 0.89920(6)
C20 C -0.15014(15) 0.1888(2) 0.81842(9)
C21 C -0.27826(16) 0.2047(2) 0.79381(11)
N2 N -0.36161(11) 0.43018(14) 0.99280(7)
O3 O -0.30955(9) 0.54324(11) 1.01133(6)
O4 O -0.44158(9) 0.42205(11) 0.93969(6)
H1 H -0.1342(11) 0.4226(13) 0.9950(7)
H2 H -0.1076(12) 0.5353(15) 1.1188(8)
H3 H 0.0588(12) 0.4741(14) 1.1999(8)
H4 H 0.3118(13) 0.4049(16) 1.1313(9)
H5 H 0.4828(14) 0.3718(17) 1.2167(9)
H6 H 0.4775(13) 0.2208(15) 1.3265(8)
H7 H 0.3034(13) 0.1147(16) 1.3491(9)
H8 H 0.1313(13) 0.1519(15) 1.2642(8)
H9 H 0.1506(12) 0.0593(15) 1.0091(8)
H10 H 0.2194(13) 0.0890(15) 1.0929(9)
H11 H 0.2425(15) 0.1870(18) 1.0192(10)
H12 H -0.1094(12) 0.1157(14) 1.1181(8)
H13 H -0.2619(13) -0.0312(16) 1.1527(8)
H14 H -0.4561(13) 0.0286(15) 1.1127(8)
H15 H -0.5009(13) 0.2408(15) 1.0386(8)
H16 H -0.1003(12) 0.2532(15) 0.7868(8)
H17 H -0.1211(12) 0.0857(15) 0.8168(8)
H18 H -0.3271(14) 0.1420(16) 0.8258(9)
H19 H -0.3034(13) 0.3080(17) 0.7992(8)
H20 H -0.2954(14) 0.1759(16) 0.7391(10)
#END
