
#######################################################################
#
#                 Cambridge Crystallographic Data Centre
#                                CCDC
#
#######################################################################
#
# If this CIF has been generated from an entry in the Cambridge
# Structural Database, then it will include bibliographic, chemical,
# crystal, experimental, refinement or atomic coordinate data resulting
# from the CCDC's data processing and validation procedures.
#
#######################################################################

data_CSD_CIF_CIZWUD
_audit_creation_date 1985-05-09
_audit_creation_method CSD-ConQuest-V1
_database_code_CSD CIZWUD
_chemical_formula_sum 'C6 H4 N4 O1'
_chemical_formula_moiety
;
C6 H4 N4 O1
;
_journal_coeditor_code "IUCr A23937"
_journal_coden_Cambridge 591
_journal_volume 40
_journal_year 1984
_journal_page_first 1728
_journal_name_full 'Acta Crystallogr.,Sect.C:Cryst.Struct.Commun. '
loop_
_publ_author_name
"D.Viterbo"
"M.Calleri"
"R.Calvino"
"R.Fruttero"
_chemical_name_systematic
;
2-Pyridine-ONN-azoxycyanide
;
_chemical_melting_point 347
_cell_volume    339.782
_exptl_crystal_colour 'pale yellow'
_exptl_crystal_density_diffrn 1.45
_exptl_special_details
;
Melting point range 347-348K

;
_diffrn_ambient_temperature ?
_diffrn_special_details
;
The study was carried out at room temperature,in the range 283-303K

;
#These two values have been output from a single CSD field.
_refine_ls_R_factor_gt 0.052
_refine_ls_wR_factor_gt 0.052
_symmetry_cell_setting triclinic
_symmetry_space_group_name_H-M 'P -1'
_symmetry_Int_Tables_number 2
loop_
_symmetry_equiv_pos_site_id
_symmetry_equiv_pos_as_xyz
1 x,y,z
2 -x,-y,-z
_cell_length_a 6.368(2)
_cell_length_b 7.856(2)
_cell_length_c 7.902(2)
_cell_angle_alpha 115.41(2)
_cell_angle_beta 75.32(2)
_cell_angle_gamma 105.42(2)
_cell_formula_units_Z 2
loop_
_atom_type_symbol
_atom_type_radius_bond
C 0.68
H 0.23
N 0.68
O 0.68
loop_
_atom_site_label
_atom_site_type_symbol
_atom_site_fract_x
_atom_site_fract_y
_atom_site_fract_z
C1 C -0.0205(3) 0.0600(2) 0.8077(2)
C2 C 0.1996(3) 0.0562(3) 0.7857(3)
C3 C 0.2753(3) -0.1016(4) 0.6399(4)
C4 C 0.1309(4) -0.2432(3) 0.5267(3)
C5 C -0.0861(4) -0.2230(3) 0.5646(3)
C6 C -0.3806(3) 0.3852(3) 1.1197(3)
N1 N -0.1661(2) -0.0724(2) 0.7040(2)
N2 N -0.1092(2) 0.2254(2) 0.9620(2)
N3 N -0.3115(2) 0.2318(2) 0.9706(2)
N4 N -0.4628(3) 0.5068(3) 1.2391(3)
O1 O 0.0137(2) 0.3470(2) 1.0752(2)
H1 H 0.2906(32) 0.1682(25) 0.8641(27)
H2 H 0.4329(26) -0.1088(30) 0.6219(29)
H3 H 0.1775(34) -0.3585(26) 0.4213(25)
H4 H -0.2015(30) -0.3263(27) 0.4940(28)
#END
