
#######################################################################
#
#                 Cambridge Crystallographic Data Centre
#                                CCDC
#
#######################################################################
#
# If this CIF has been generated from an entry in the Cambridge
# Structural Database, then it will include bibliographic, chemical,
# crystal, experimental, refinement or atomic coordinate data resulting
# from the CCDC's data processing and validation procedures.
#
#######################################################################

data_CSD_CIF_CIZZOB
_audit_creation_date 2008-08-28
_audit_creation_method CSD-ConQuest-V1
_database_code_CSD CIZZOB
_database_code_depnum_ccdc_archive 'CCDC 668188'
_chemical_formula_sum 'C28 H37 N1 O4'
_chemical_formula_moiety
;
C28 H37 N1 O4
;
_journal_coden_Cambridge 16
_journal_volume 64
_journal_year 2008
_journal_page_first 4304
_journal_name_full 'Tetrahedron '
loop_
_publ_author_name
"T.Widjaja"
"L.Fitjer"
"K.Meindl"
"R.Herbst-Irmer"
_chemical_name_systematic
;
(R*,R*,R*,R*)-hexahydrotrispiro[cyclopentane-1,1'-cyclopentane-2',1''-cyclopen
ta[cd]pentalene-6'',1'''-cyclopentan]-4a''(5''H)-yl 4-nitrobenzoate
;
_chemical_name_common
;
4-Nitrobenzoic acid 
(6R*,7R*,16R*,21R*)-7.16-methano-trispiro(4.0.1.4.5.3)eicos-21-yl ester
;
_chemical_melting_point 437.15
_cell_volume   2325.411
_exptl_crystal_colour 'colorless'
_exptl_crystal_density_diffrn 1.29
_exptl_crystal_description 'needle'
_diffrn_ambient_temperature 100
_diffrn_special_details
;
non-merohedral twin

;
#These two values have been output from a single CSD field.
_refine_ls_R_factor_gt 0.0325
_refine_ls_wR_factor_gt 0.0325
_symmetry_cell_setting triclinic
_symmetry_space_group_name_H-M 'P -1'
_symmetry_Int_Tables_number 2
loop_
_symmetry_equiv_pos_site_id
_symmetry_equiv_pos_as_xyz
1 x,y,z
2 -x,-y,-z
_cell_length_a 10.856(2)
_cell_length_b 13.517(2)
_cell_length_c 17.753(2)
_cell_angle_alpha 107.83(2)
_cell_angle_beta 100.46(2)
_cell_angle_gamma 103.09(2)
_cell_formula_units_Z 4
loop_
_atom_type_symbol
_atom_type_radius_bond
C 0.68
H 0.23
N 0.68
O 0.68
loop_
_atom_site_label
_atom_site_type_symbol
_atom_site_fract_x
_atom_site_fract_y
_atom_site_fract_z
N1 N 0.82197(15) 1.04588(10) 0.65116(8)
O1 O 0.75206(13) 1.06511(9) 0.59832(7)
O2 O 0.94197(13) 1.07061(10) 0.66619(8)
O3 O 0.46277(10) 0.83472(8) 0.84700(6)
O4 O 0.65676(9) 0.80970(7) 0.89417(6)
C1 C 0.39353(14) 0.82866(11) 1.12728(9)
H1 H 0.42080 0.84310 1.18690
H2 H 0.43840 0.89380 1.11710
C2 C 0.24307(14) 0.80130(12) 1.09673(9)
H3 H 0.20150 0.79340 1.14060
H4 H 0.22000 0.85980 1.08020
C3 C 0.19620(14) 0.69299(12) 1.02243(9)
H5 H 0.15910 0.63090 1.03840
H6 H 0.12890 0.69510 0.97760
C4 C 0.32128(13) 0.68415(12) 0.99622(9)
H7 H 0.31290 0.60760 0.96430
H8 H 0.34100 0.72910 0.96260
C5 C 0.42776(14) 0.72726(11) 1.07779(8)
C6 C 0.57584(14) 0.75098(11) 1.07684(8)
C7 C 0.61523(13) 0.83731(11) 1.03487(8)
H9 H 0.54150 0.86980 1.02990
C8 C 0.74410(13) 0.93558(11) 1.07254(8)
C9 C 0.76955(14) 0.99792(11) 1.16577(9)
H10 H 0.68530 0.99490 1.18030
H11 H 0.82030 0.96520 1.19810
C10 C 0.84823(15) 1.11705(12) 1.18392(9)
H12 H 0.81190 1.16820 1.21960
H13 H 0.94160 1.13170 1.21190
C11 C 0.83515(15) 1.13034(12) 1.10009(9)
H14 H 0.80950 1.19640 1.10120
H15 H 0.91890 1.13560 1.08470
C12 C 0.72734(14) 1.02723(11) 1.03991(9)
H16 H 0.73830 1.01000 0.98360
H17 H 0.63930 1.03670 1.03900
C13 C 0.86937(14) 0.90781(11) 1.05497(9)
H18 H 0.87200 0.90890 0.99980
H19 H 0.94650 0.96700 1.09510
C14 C 0.88591(15) 0.79961(12) 1.05779(9)
H20 H 0.98050 0.80540 1.06870
H21 H 0.85540 0.78640 1.10410
C15 C 0.81104(15) 0.70212(12) 0.97889(9)
H22 H 0.83680 0.63800 0.98350
H23 H 0.84030 0.71730 0.93280
C16 C 0.66125(14) 0.67118(11) 0.95648(9)
H24 H 0.62480 0.60600 0.90430
C17 C 0.60132(14) 0.64539(11) 1.02273(9)
H25 H 0.66230 0.62220 1.05750
H26 H 0.51770 0.58540 0.99670
C18 C 0.63856(14) 0.77344(12) 1.16835(9)
H27 H 0.73000 0.77020 1.17710
H28 H 0.63830 0.84580 1.20400
C19 C 0.54977(15) 0.68123(12) 1.18582(9)
H29 H 0.58580 0.61890 1.17790
H30 H 0.54280 0.70750 1.24300
C20 C 0.41430(15) 0.64711(12) 1.12412(9)
H31 H 0.34510 0.65310 1.15320
H32 H 0.39200 0.57110 1.08550
C21 C 0.60090(14) 0.75940(11) 0.94701(8)
H33 H 0.50490 0.72360 0.91960
C22 C 0.64265(13) 0.89118(11) 0.79421(8)
C23 C 0.56718(14) 0.92116(11) 0.73786(8)
H34 H 0.47550 0.90730 0.73220
C24 C 0.62479(15) 0.97107(11) 0.68998(9)
H35 H 0.57380 0.99140 0.65120
C25 C 0.75837(15) 0.99045(11) 0.70026(9)
C26 C 0.83600(15) 0.96087(12) 0.75522(9)
H36 H 0.92760 0.97490 0.76060
C27 C 0.77699(14) 0.91028(11) 0.80221(9)
H37 H 0.82810 0.88860 0.84000
C28 C 0.57567(14) 0.84232(11) 0.84692(8)
N2 N 0.67509(14) 0.91569(11) 0.39312(8)
O5 O 0.74461(13) 0.98097(10) 0.37173(7)
O6 O 0.55505(13) 0.88984(11) 0.37383(8)
O7 O 1.03812(10) 0.71631(8) 0.59693(6)
O8 O 0.84504(9) 0.66729(7) 0.62680(6)
C29 C 1.11007(14) 0.38497(11) 0.67074(9)
H38 H 1.08940 0.31230 0.67560
H39 H 1.06000 0.37770 0.61580
C30 C 1.25883(14) 0.43105(12) 0.68271(9)
H40 H 1.30530 0.38030 0.69480
H41 H 1.27570 0.44210 0.63250
C31 C 1.30586(14) 0.54039(12) 0.75552(9)
H42 H 1.34220 0.53130 0.80750
H43 H 1.37360 0.59490 0.74640
C32 C 1.18087(13) 0.57428(11) 0.75730(9)
H44 H 1.16050 0.60580 0.71470
H45 H 1.18990 0.62840 0.81180
C33 C 1.07408(13) 0.46730(11) 0.73944(8)
C34 C 0.92570(13) 0.46321(11) 0.71648(8)
C35 C 0.88870(13) 0.49379(11) 0.63764(8)
H46 H 0.96400 0.49260 0.61260
C36 C 0.76159(13) 0.42664(11) 0.56522(8)
C37 C 0.73785(14) 0.30192(11) 0.53707(9)
H47 H 0.82250 0.28530 0.54330
H48 H 0.68790 0.27110 0.57030
C38 C 0.65855(15) 0.25372(12) 0.44582(9)
H49 H 0.69160 0.19640 0.41390
H50 H 0.56440 0.22130 0.44030
C39 C 0.67723(15) 0.34909(12) 0.41481(9)
H51 H 0.70760 0.33110 0.36440
H52 H 0.59400 0.36690 0.40280
C40 C 0.78159(14) 0.44441(12) 0.48531(8)
H53 H 0.76940 0.51480 0.48520
H54 H 0.87090 0.44420 0.48030
C41 C 0.63433(14) 0.45338(12) 0.57944(9)
H55 H 0.63150 0.51820 0.56510
H56 H 0.55870 0.39180 0.54020
C42 C 0.61408(14) 0.47526(12) 0.66520(9)
H57 H 0.64380 0.42330 0.68750
H58 H 0.51900 0.46130 0.66070
C43 C 0.68725(14) 0.59130(12) 0.72562(9)
H59 H 0.65790 0.60130 0.77640
H60 H 0.66010 0.64250 0.70140
C44 C 0.83747(14) 0.62396(11) 0.75000(9)
H61 H 0.87270 0.70050 0.79060
C45 C 0.89534(14) 0.55010(11) 0.78691(8)
H62 H 0.83190 0.51310 0.81060
H63 H 0.97700 0.59410 0.83120
C46 C 0.86278(14) 0.34850(11) 0.71715(9)
H64 H 0.77070 0.33870 0.71990
H65 H 0.86450 0.29070 0.66740
C47 C 0.94921(15) 0.34590(12) 0.79529(9)
H66 H 0.95870 0.27230 0.78590
H67 H 0.90990 0.36580 0.84180
C48 C 1.08384(14) 0.42997(12) 0.81368(9)
H68 H 1.15540 0.39620 0.81880
H69 H 1.10070 0.49240 0.86530
C49 C 0.90089(14) 0.61555(11) 0.67950(8)
H70 H 0.99650 0.65650 0.70370
C50 C 0.85730(14) 0.76844(11) 0.54013(8)
C51 C 0.93129(14) 0.82946(11) 0.50419(9)
H71 H 1.02260 0.83790 0.51300
C52 C 0.87211(15) 0.87788(11) 0.45556(9)
H72 H 0.92180 0.91990 0.43090
C53 C 0.73891(15) 0.86342(11) 0.44387(9)
C54 C 0.66273(15) 0.80313(12) 0.47838(9)
H73 H 0.57130 0.79440 0.46880
C55 C 0.72294(14) 0.75574(11) 0.52723(9)
H74 H 0.67280 0.71450 0.55210
C56 C 0.92543(14) 0.71593(11) 0.59049(8)
#END
