
#######################################################################
#
#                 Cambridge Crystallographic Data Centre
#                                CCDC
#
#######################################################################
#
# If this CIF has been generated from an entry in the Cambridge
# Structural Database, then it will include bibliographic, chemical,
# crystal, experimental, refinement or atomic coordinate data resulting
# from the CCDC's data processing and validation procedures.
#
#######################################################################

data_CSD_CIF_CMNFLO10
_audit_creation_date 1971-12-31
_audit_creation_method CSD-ConQuest-V1
_database_code_CSD CMNFLO10
_chemical_formula_sum 'C16 H5 N5 O6'
_chemical_formula_moiety
;
C16 H5 N5 O6
;
_journal_coeditor_code "IUCr A05820"
_journal_coden_Cambridge 1
_journal_volume 23
_journal_year 1967
_journal_page_first 1057
_journal_name_full 'Acta Crystallogr. '
loop_
_publ_author_name
"J.Silverman"
"A.P.Krukonis"
"N.F.Yannoni"
_chemical_name_systematic
;
9-Dicyanomethylene-2,4,7-trinitrofluorene
;
_chemical_melting_point 539.15
_cell_volume   1505.021
_exptl_crystal_density_diffrn 1.602
_exptl_special_details
;
Melting point range 539.15-541.15K

;
_diffrn_ambient_temperature ?
_diffrn_special_details
;
The study was carried out at room temperature,in the range 283-303K

;
_refine_special_details
;
The nitro group at C2 is statistically disordered, occurring at C2 and C2' 
with .50 occupancy each. This group is not retained.
;
#These two values have been output from a single CSD field.
_refine_ls_R_factor_gt 0.1251
_refine_ls_wR_factor_gt 0.1251
_symmetry_cell_setting orthorhombic
_symmetry_space_group_name_H-M 'P b c n'
_symmetry_Int_Tables_number 60
loop_
_symmetry_equiv_pos_site_id
_symmetry_equiv_pos_as_xyz
1 x,y,z
2 1/2-x,1/2+y,z
3 x,-y,1/2+z
4 1/2-x,1/2-y,1/2+z
5 -x,-y,-z
6 -1/2+x,-1/2-y,-z
7 -x,y,-1/2-z
8 -1/2+x,-1/2+y,-1/2-z
_cell_length_a 13.12
_cell_length_b 11.03
_cell_length_c 10.4
_cell_angle_alpha 90
_cell_angle_beta 90
_cell_angle_gamma 90
_cell_formula_units_Z 4
loop_
_atom_type_symbol
_atom_type_radius_bond
C 0.68
N 0.68
O 0.68
loop_
_atom_site_label
_atom_site_type_symbol
_atom_site_fract_x
_atom_site_fract_y
_atom_site_fract_z
C1 C 0.46400 0.38190 0.19580
C2 C 0.41430 0.47340 0.12990
C3 C 0.34800 0.44400 0.02750
C4 C 0.33320 0.32430 -0.00390
C5 C 0.37850 0.23030 0.06490
C6 C 0.44320 0.26100 0.16160
C7 C 0.50000 0.17850 0.25000
C8 C 0.50000 0.05950 0.25000
C9 C 0.44360 -0.01490 0.16030
N1 N 0.26540 0.29620 -0.10990
N2 N 0.40190 -0.07090 0.08810
O1 O 0.24210 0.19230 -0.12610
O2 O 0.23660 0.38210 -0.17710
C1F C 0.53600 0.38190 0.30420
C6F C 0.55680 0.26100 0.33840
C9F C 0.55640 -0.01490 0.33970
C2F C 0.58570 0.47340 0.37010
C5F C 0.62150 0.23030 0.43510
N2F N 0.59810 -0.07090 0.41190
C3F C 0.65200 0.44400 0.47250
C4F C 0.66680 0.32430 0.50390
N1F N 0.73460 0.29620 0.60990
O1F O 0.75790 0.19230 0.62610
O2F O 0.76340 0.38210 0.67710
#END
