
#######################################################################
#
#                 Cambridge Crystallographic Data Centre
#                                CCDC
#
#######################################################################
#
# If this CIF has been generated from an entry in the Cambridge
# Structural Database, then it will include bibliographic, chemical,
# crystal, experimental, refinement or atomic coordinate data resulting
# from the CCDC's data processing and validation procedures.
#
#######################################################################

data_CSD_CIF_CMNFLU10
_audit_creation_date 1974-09-30
_audit_creation_method CSD-ConQuest-V1
_database_code_CSD CMNFLU10
_chemical_formula_sum 'C16 H4 N6 O8'
_chemical_formula_moiety
;
C16 H4 N6 O8
;
_journal_coeditor_code "IUCr A11079"
_journal_coden_Cambridge 107
_journal_volume 30
_journal_year 1974
_journal_page_first 1474
_journal_name_full 'Acta Crystallogr.,Sect.B:Struct.Crystallogr.Cryst.Chem. '
loop_
_publ_author_name
"J.Silverman"
"N.F.Yannoni"
"A.P.Krukonis"
_chemical_name_systematic
;
9-Dicyanomethylene-2,4,5,7-tetranitrofluorene
;
_cell_volume   1659.448
_exptl_crystal_density_diffrn 1.634
_diffrn_ambient_temperature ?
_diffrn_special_details
;
The study was carried out at room temperature,in the range 283-303K

;
#These two values have been output from a single CSD field.
_refine_ls_R_factor_gt 0.0496
_refine_ls_wR_factor_gt 0.0496
_symmetry_cell_setting orthorhombic
_symmetry_space_group_name_H-M 'P b a 2'
_symmetry_Int_Tables_number 32
loop_
_symmetry_equiv_pos_site_id
_symmetry_equiv_pos_as_xyz
1 x,y,z
2 1/2-x,1/2+y,z
3 1/2+x,1/2-y,z
4 -x,-y,z
_cell_length_a 11.377(2)
_cell_length_b 12.213(7)
_cell_length_c 11.943(3)
_cell_angle_alpha 90
_cell_angle_beta 90
_cell_angle_gamma 90
_cell_formula_units_Z 4
loop_
_atom_type_symbol
_atom_type_radius_bond
C 0.68
H 0.20
N 0.68
O 0.68
loop_
_atom_site_label
_atom_site_type_symbol
_atom_site_fract_x
_atom_site_fract_y
_atom_site_fract_z
C1 C 0.40310 0.39220 0.20420
C2 C 0.43890 -0.12830 0.44420
C3 C 0.34150 0.29850 0.17780
C4 C 0.37340 -0.22120 0.46960
C5 C 0.33770 0.26430 0.06890
C6 C 0.34470 -0.23980 0.57820
C7 C 0.38560 0.32430 -0.01700
C8 C 0.38150 -0.17480 0.66560
C9 C 0.44720 0.41740 0.01010
C10 C 0.44440 -0.08090 0.63760
C11 C 0.46210 0.45140 0.12240
C12 C 0.46970 -0.05400 0.52550
C13 C 0.50000 0.50000 -0.06300
C14 C 0.50000 0.00000 0.71290
C15 C 0.50000 0.50000 -0.17780
C16 C 0.50000 0.00000 0.82470
C17 C 0.44750 0.41530 -0.24360
C18 C 0.44200 -0.08220 0.89140
H1 H 0.30920 0.26160 0.23650
H2 H 0.35090 -0.27190 0.41080
H3 H 0.37840 0.28940 -0.09780
H4 H 0.36890 -0.18510 0.74140
N1 N 0.40740 0.34890 -0.29910
N2 N 0.39840 -0.14690 0.94600
N3 N 0.27420 0.16300 0.04200
N4 N 0.27430 -0.33890 0.60610
N5 N 0.38990 0.43160 0.31980
N6 N 0.48310 -0.12300 0.32780
O1 O 0.27890 0.12820 -0.05260
O2 O 0.27300 -0.36930 0.70300
O3 O 0.21530 0.12220 0.11710
O4 O 0.22320 -0.38210 0.52900
O5 O 0.38190 0.53020 0.33410
O6 O 0.58200 -0.08450 0.31470
O7 O 0.38410 0.36330 0.39430
O8 O 0.42260 -0.16080 0.25380
C11C C 0.53790 0.54860 0.12240
C9C C 0.55280 0.58260 0.01010
C17C C 0.55250 0.58470 -0.24360
C1C C 0.59690 0.60780 0.20420
C7C C 0.61440 0.67570 -0.01700
N1C N 0.59260 0.65110 -0.29910
C3C C 0.65850 0.70150 0.17780
N5C N 0.61010 0.56840 0.31980
C5C C 0.66230 0.73570 0.06890
H3C H 0.62160 0.71060 -0.09780
H1C H 0.69080 0.73840 0.23650
O5C O 0.61810 0.46980 0.33410
O7C O 0.61590 0.63670 0.39430
N3C N 0.72580 0.83700 0.04200
O1C O 0.72110 0.87180 -0.05260
O3C O 0.78470 0.87780 0.11710
C12C C 0.53030 0.05400 0.52550
C10C C 0.55560 0.08090 0.63760
C18C C 0.55800 0.08220 0.89140
C2C C 0.56110 0.12830 0.44420
C8C C 0.61850 0.17480 0.66560
N2C N 0.60160 0.14690 0.94600
C4C C 0.62660 0.22120 0.46960
N6C N 0.51690 0.12300 0.32780
C6C C 0.65530 0.23980 0.57820
H4C H 0.63110 0.18510 0.74140
H2C H 0.64910 0.27190 0.41080
O6C O 0.41800 0.08450 0.31470
O8C O 0.57740 0.16080 0.25380
N4C N 0.72570 0.33890 0.60610
O2C O 0.72700 0.36930 0.70300
O4C O 0.77680 0.38210 0.52900
#END
