
#######################################################################
#
#                 Cambridge Crystallographic Data Centre
#                                CCDC
#
#######################################################################
#
# If this CIF has been generated from an entry in the Cambridge
# Structural Database, then it will include bibliographic, chemical,
# crystal, experimental, refinement or atomic coordinate data resulting
# from the CCDC's data processing and validation procedures.
#
#######################################################################

data_CSD_CIF_CNOXPB
_audit_creation_date 1981-11-16
_audit_creation_method CSD-ConQuest-V1
_database_code_CSD CNOXPB
_database_code_depnum_ccdc_archive 'CCDC 1127929'
_chemical_formula_sum 'C11 H11 N5 O4'
_chemical_formula_moiety
;
C11 H11 N5 O4
;
_journal_coden_Cambridge 54
_journal_volume 90
_journal_year 1981
_journal_page_first 707
_journal_name_full 'Bull.Soc.Chim.Belg. '
loop_
_publ_author_name
"J.P.Declercq"
"G.Germain"
"M.van Meerssche"
"M.Hajek"
"A.Kurfurst"
_chemical_name_systematic
;
(Z)-5-(1-Acetoxy-2-nitrovinyl)-3,5-dicyano-4,4-dimethyl-2-pyrazoline
;
_cell_volume   2593.938
_exptl_crystal_density_diffrn 1.42
_diffrn_ambient_temperature ?
_diffrn_special_details
;
The study was carried out at room temperature,in the range 283-303K

;
#These two values have been output from a single CSD field.
_refine_ls_R_factor_gt 0.069
_refine_ls_wR_factor_gt 0.069
_symmetry_cell_setting orthorhombic
_symmetry_space_group_name_H-M 'P b c a'
_symmetry_Int_Tables_number 61
loop_
_symmetry_equiv_pos_site_id
_symmetry_equiv_pos_as_xyz
1 x,y,z
2 1/2-x,-y,1/2+z
3 1/2+x,1/2-y,-z
4 -x,1/2+y,1/2-z
5 -x,-y,-z
6 -1/2+x,y,-1/2-z
7 -1/2-x,-1/2+y,z
8 x,-1/2-y,-1/2+z
_cell_length_a 12.040(6)
_cell_length_b 12.808(6)
_cell_length_c 16.821(9)
_cell_angle_alpha 90
_cell_angle_beta 90
_cell_angle_gamma 90
_cell_formula_units_Z 8
loop_
_atom_type_symbol
_atom_type_radius_bond
C 0.68
H 0.23
N 0.68
O 0.68
loop_
_atom_site_label
_atom_site_type_symbol
_atom_site_fract_x
_atom_site_fract_y
_atom_site_fract_z
N1 N 0.05850 0.12160 0.61300
N2 N 0.03320 0.19580 0.55530
C1 C 0.10810 0.19290 0.50300
C2 C 0.19820 0.11120 0.51160
C3 C 0.16860 0.07580 0.59860
C4 C 0.10320 0.26280 0.43600
N3 N 0.10100 0.32030 0.38310
C5 C 0.17820 0.02480 0.45050
C6 C 0.31280 0.15950 0.50080
C7 C 0.14410 -0.03550 0.60930
N4 N 0.11420 -0.11820 0.61930
C8 C 0.24380 0.11900 0.66360
O1 O 0.34320 0.06870 0.68260
C9 C 0.39330 -0.01560 0.64420
O2 O 0.35600 -0.05320 0.58540
C10 C 0.49600 -0.05220 0.68560
C11 C 0.21340 0.20760 0.69980
N5 N 0.27690 0.26140 0.75820
O3 O 0.24460 0.34750 0.77840
O4 O 0.35990 0.22110 0.78730
H1 H 0.09660 -0.01110 0.45150
H2 H 0.17820 0.05860 0.38540
H3 H 0.22270 -0.02600 0.45050
H4 H 0.32470 0.21860 0.54260
H5 H 0.30880 0.19300 0.45060
H6 H 0.37020 0.10720 0.50400
H7 H 0.16050 0.23510 0.69710
#END
