
#######################################################################
#
#                 Cambridge Crystallographic Data Centre
#                                CCDC
#
#######################################################################
#
# If this CIF has been generated from an entry in the Cambridge
# Structural Database, then it will include bibliographic, chemical,
# crystal, experimental, refinement or atomic coordinate data resulting
# from the CCDC's data processing and validation procedures.
#
#######################################################################

data_CSD_CIF_CNOXPA
_audit_creation_date 1981-11-16
_audit_creation_method CSD-ConQuest-V1
_database_code_CSD CNOXPA
_database_code_depnum_ccdc_archive 'CCDC 1127928'
_chemical_formula_sum 'C10 H11 N3 O3'
_chemical_formula_moiety
;
C10 H11 N3 O3
;
_journal_coden_Cambridge 54
_journal_volume 90
_journal_year 1981
_journal_page_first 707
_journal_name_full 'Bull.Soc.Chim.Belg. '
loop_
_publ_author_name
"J.P.Declercq"
"G.Germain"
"M.van Meerssche"
"M.Hajek"
"A.Kurfurst"
_chemical_name_systematic
;
5-Cyano-4,4,6-trimethyl-2-nitromethylene-3-oxo-1,2,3,4-tetrahydropyridine
;
_cell_volume    536.000
_exptl_crystal_density_diffrn 1.3
_exptl_special_details
;
Cell volume given as 563.0, we get 536.0. Calculated density given as 1.30, 
we get 1.37
;
_diffrn_ambient_temperature ?
_diffrn_special_details
;
The study was carried out at room temperature,in the range 283-303K

;
#These two values have been output from a single CSD field.
_refine_ls_R_factor_gt 0.044
_refine_ls_wR_factor_gt 0.044
_symmetry_cell_setting monoclinic
_symmetry_space_group_name_H-M 'P 21'
_symmetry_Int_Tables_number 4
loop_
_symmetry_equiv_pos_site_id
_symmetry_equiv_pos_as_xyz
1 x,y,z
2 -x,1/2+y,-z
_cell_length_a 6.718(5)
_cell_length_b 6.464(5)
_cell_length_c 15.713(10)
_cell_angle_alpha 90
_cell_angle_beta 128.23(5)
_cell_angle_gamma 90
_cell_formula_units_Z 2
loop_
_atom_type_symbol
_atom_type_radius_bond
C 0.68
H 0.23
N 0.68
O 0.68
loop_
_atom_site_label
_atom_site_type_symbol
_atom_site_fract_x
_atom_site_fract_y
_atom_site_fract_z
N1 N 0.53640 0.41790 0.65030
C1 C 0.55230 0.24300 0.70240
C2 C 0.81490 0.16620 0.79040
C3 C 1.03020 0.32080 0.84470
C4 C 0.98110 0.47440 0.76140
C5 C 0.74650 0.52200 0.67330
C6 C 0.35800 0.13880 0.68320
N2 N 0.10400 0.19660 0.60830
O1 O -0.05640 0.10370 0.60740
O2 O 0.04610 0.34590 0.54660
C7 C 0.68120 0.68030 0.59090
C8 C 1.18960 0.58400 0.78100
N3 N 1.36310 0.66780 0.79980
C9 C 1.28440 0.21100 0.90350
C10 C 1.01740 0.43770 0.92750
O3 O 0.84800 -0.01330 0.81750
H1 H 0.35050 0.48070 0.58860
H2 H 0.39850 -0.00280 0.72780
H3 H 0.85240 0.75280 0.61330
H4 H 0.56090 0.79550 0.58810
H5 H 0.58230 0.60920 0.51220
H6 H 1.43560 0.32350 0.94170
H7 H 1.28610 0.12140 0.84590
H8 H 1.31130 0.10930 0.96440
H9 H 1.16760 0.55090 0.96990
H10 H 1.04000 0.32830 0.98490
H11 H 0.83650 0.51450 0.88570
#END
