
#######################################################################
#
#                 Cambridge Crystallographic Data Centre
#                                CCDC
#
#######################################################################
#
# If this CIF has been generated from an entry in the Cambridge
# Structural Database, then it will include bibliographic, chemical,
# crystal, experimental, refinement or atomic coordinate data resulting
# from the CCDC's data processing and validation procedures.
#
#######################################################################

data_CSD_CIF_COBCIG
_audit_creation_date 2008-08-28
_audit_creation_method CSD-ConQuest-V1
_database_code_CSD COBCIG
_database_code_depnum_ccdc_archive 'CCDC 674793'
_chemical_formula_sum 'C13 H17 N1 O6'
_chemical_formula_moiety
;
C13 H17 N1 O6
;
_journal_coden_Cambridge 182
_journal_year 2008
_journal_page_first 1686
_journal_name_full 'Chem.Commun. '
loop_
_publ_author_name
"D.Berkovich-Berger"
"N.G.Lemcoff"
_chemical_name_systematic
;
2-(4-nitrophenyl)-1,3,6,9-tetraoxacycloundecane
;
_cell_volume   2725.048
_exptl_crystal_colour 'yellow'
_exptl_crystal_density_diffrn 1.381
_exptl_crystal_description 'cube'
_diffrn_ambient_temperature 293
#These two values have been output from a single CSD field.
_refine_ls_R_factor_gt 0.0484
_refine_ls_wR_factor_gt 0.0484
_symmetry_cell_setting orthorhombic
_symmetry_space_group_name_H-M 'P b c a'
_symmetry_Int_Tables_number 61
loop_
_symmetry_equiv_pos_site_id
_symmetry_equiv_pos_as_xyz
1 x,y,z
2 1/2-x,-y,1/2+z
3 1/2+x,1/2-y,-z
4 -x,1/2+y,1/2-z
5 -x,-y,-z
6 -1/2+x,y,-1/2-z
7 -1/2-x,-1/2+y,z
8 x,-1/2-y,-1/2+z
_cell_length_a 15.714(3)
_cell_length_b 8.2622(15)
_cell_length_c 20.989(4)
_cell_angle_alpha 90
_cell_angle_beta 90
_cell_angle_gamma 90
_cell_formula_units_Z 8
loop_
_atom_type_symbol
_atom_type_radius_bond
C 0.68
H 0.23
N 0.68
O 0.68
loop_
_atom_site_label
_atom_site_type_symbol
_atom_site_fract_x
_atom_site_fract_y
_atom_site_fract_z
O1 O 0.33482(15) -0.3630(3) 0.60541(13)
O2 O 0.41127(17) -0.4811(3) 0.53581(12)
O3 O 0.45084(12) 0.2145(2) 0.36466(10)
O4 O 0.30809(12) 0.2598(2) 0.38921(9)
O5 O 0.27652(14) 0.3010(2) 0.25522(11)
O6 O 0.46434(15) 0.2118(2) 0.22728(11)
N1 N 0.37484(17) -0.3624(3) 0.55607(14)
C1 C 0.38094(16) -0.2109(3) 0.51987(14)
C2 C 0.39083(16) 0.0710(3) 0.45070(14)
C3 C 0.38992(18) 0.2255(4) 0.41279(15)
C4 C 0.4593(2) 0.3609(4) 0.32761(16)
C5 C 0.4313(2) -0.0674(4) 0.42979(16)
C6 C 0.34630(19) 0.0656(4) 0.50753(15)
C7 C 0.4264(2) -0.2096(4) 0.46404(15)
C8 C 0.3407(2) -0.0750(4) 0.54210(17)
C9 C 0.2244(2) 0.2098(4) 0.2962(2)
C10 C 0.2742(3) 0.1341(4) 0.3482(2)
C11 C 0.3142(3) 0.2096(6) 0.2042(2)
C12 C 0.5084(2) 0.3198(4) 0.26914(18)
C13 C 0.3997(3) 0.2753(5) 0.1881(2)
H1 H 0.1849(19) 0.291(4) 0.3172(14)
H2 H 0.1921(18) 0.121(4) 0.2718(14)
H3 H 0.241(2) 0.067(4) 0.3736(16)
H4 H 0.396(2) 0.409(4) 0.3100(15)
H5 H 0.4880(17) 0.439(3) 0.3527(12)
H6 H 0.3120(18) -0.076(4) 0.5795(15)
H7 H 0.4013(16) 0.316(4) 0.4397(13)
H8 H 0.4603(18) -0.066(3) 0.3919(15)
H9 H 0.455(2) -0.297(5) 0.4521(17)
H10 H 0.322(2) 0.063(4) 0.3328(15)
H11 H 0.5231(18) 0.419(4) 0.2445(15)
H12 H 0.314(2) 0.160(4) 0.5232(15)
H13 H 0.400(2) 0.394(5) 0.1915(16)
H14 H 0.566(3) 0.256(5) 0.2768(18)
H15 H 0.273(2) 0.217(5) 0.166(2)
H16 H 0.310(3) 0.092(6) 0.216(2)
H17 H 0.410(2) 0.230(5) 0.143(2)
#END
