
#######################################################################
#
#                 Cambridge Crystallographic Data Centre
#                                CCDC
#
#######################################################################
#
# If this CIF has been generated from an entry in the Cambridge
# Structural Database, then it will include bibliographic, chemical,
# crystal, experimental, refinement or atomic coordinate data resulting
# from the CCDC's data processing and validation procedures.
#
#######################################################################

data_CSD_CIF_COBKIN01
_audit_creation_date 1985-05-08
_audit_creation_method CSD-ConQuest-V1
_database_code_CSD COBKIN01
_database_code_depnum_ccdc_archive 'CCDC 1128057'
_chemical_formula_sum 'C7 H12 N2 O4'
_chemical_formula_moiety
;
C7 H12 N2 O4
;
_journal_coden_Cambridge 82
_journal_volume 25
_journal_year 1984
_journal_page_first 159-1
_journal_name_full 'Zh.Strukt.Khim.(Russ.)(J.Struct.Chem.) '
loop_
_publ_author_name
"A.B.Zolotoi"
"O.A.D'yachenko"
"L.O.Atovmyan"
"V.F.Rudchenko"
"R.G.Kostyanovskii"
_chemical_name_systematic
;
2-Carbamoyl-2-ethoxycarbonyl-1-methoxy-aziridine
;
_chemical_melting_point 349.15
_cell_volume    967.996
_exptl_crystal_colour 'white'
_exptl_crystal_density_diffrn 1.298
_exptl_special_details
;
alpha polymorph
x (O2) should be 0.8208 not 0.8108

;
_diffrn_ambient_temperature ?
_diffrn_special_details
;
The study was carried out at room temperature,in the range 283-303K

;
#These two values have been output from a single CSD field.
_refine_ls_R_factor_gt 0.053
_refine_ls_wR_factor_gt 0.053
_symmetry_cell_setting monoclinic
_symmetry_space_group_name_H-M 'P 1 1 21/b'
_symmetry_Int_Tables_number 14
loop_
_symmetry_equiv_pos_site_id
_symmetry_equiv_pos_as_xyz
1 x,y,z
2 -x,1/2-y,1/2+z
3 -x,-y,-z
4 x,-1/2+y,-1/2-z
_cell_length_a 6.017(1)
_cell_length_b 13.466(3)
_cell_length_c 12.460(5)
_cell_angle_alpha 90
_cell_angle_beta 90
_cell_angle_gamma 73.50(3)
_cell_formula_units_Z 4
loop_
_atom_type_symbol
_atom_type_radius_bond
C 0.68
H 0.23
N 0.68
O 0.68
loop_
_atom_site_label
_atom_site_type_symbol
_atom_site_fract_x
_atom_site_fract_y
_atom_site_fract_z
O1 O 0.2045(3) 0.3434(1) -0.0120(1)
O2 O 0.8208(3) 0.0669(1) 0.1067(1)
O3 O 0.6728(3) 0.3092(1) 0.1294(1)
O4 O 0.3649(3) 0.2927(1) 0.2209(1)
N1 N 0.3290(3) 0.2364(1) -0.0333(2)
N2 N 0.7671(3) 0.1062(1) -0.0685(1)
C1 C 0.4825(4) 0.1962(2) 0.0594(2)
C2 C 0.2647(4) 0.1691(2) 0.0453(2)
C3 C 0.7097(4) 0.1174(2) 0.0322(2)
C4 C 0.4952(4) 0.2715(2) 0.1466(2)
C5 C 0.7070(4) 0.3868(2) 0.2050(2)
C6 C 0.5438(6) 0.4907(2) 0.1813(3)
C7 C 0.0245(5) 0.3717(2) -0.0891(3)
H1 H 0.694(4) 0.143(2) -0.123(2)
H2 H 0.882(4) 0.064(2) -0.084(2)
H3 H 0.147(4) 0.203(2) 0.094(2)
H4 H 0.266(4) 0.103(2) 0.018(2)
H5 H 0.076(5) 0.359(3) -0.165(2)
H6 H -0.083(5) 0.328(2) -0.086(2)
H7 H -0.039(5) 0.445(2) -0.081(2)
H8 H 0.694(4) 0.364(2) 0.283(2)
H9 H 0.865(5) 0.397(2) 0.189(2)
H10 H 0.546(6) 0.509(3) 0.098(3)
H11 H 0.587(7) 0.534(3) 0.233(3)
H12 H 0.392(8) 0.485(4) 0.208(4)
#END
