
#######################################################################
#
#                 Cambridge Crystallographic Data Centre
#                                CCDC
#
#######################################################################
#
# If this CIF has been generated from an entry in the Cambridge
# Structural Database, then it will include bibliographic, chemical,
# crystal, experimental, refinement or atomic coordinate data resulting
# from the CCDC's data processing and validation procedures.
#
#######################################################################

data_CSD_CIF_COBKIN
_audit_creation_date 1985-05-09
_audit_creation_method CSD-ConQuest-V1
_database_code_CSD COBKIN
_chemical_formula_sum 'C7 H12 N2 O4'
_chemical_formula_moiety
;
C7 H12 N2 O4
;
_journal_coden_Cambridge 82
_journal_volume 25
_journal_year 1984
_journal_page_first 159-1
_journal_name_full 'Zh.Strukt.Khim.(Russ.)(J.Struct.Chem.) '
loop_
_publ_author_name
"A.B.Zolotoi"
"O.A.D'yachenko"
"L.O.Atovmyan"
"V.F.Rudchenko"
"R.G.Kostyanovskii"
_chemical_name_systematic
;
2-Carbamoyl-2-ethoxycarbonyl-1-methoxy-aziridine
;
_chemical_melting_point 396.15
_cell_volume    950.844
_exptl_crystal_colour 'white'
_exptl_crystal_density_diffrn 1.322
_exptl_special_details
;
beta polymorph

;
_diffrn_ambient_temperature ?
_diffrn_special_details
;
The study was carried out at room temperature,in the range 283-303K

;
_refine_special_details
;
C6 is disordered over 3 positions, one of which has been retained.

;
#These two values have been output from a single CSD field.
_refine_ls_R_factor_gt 0.07
_refine_ls_wR_factor_gt 0.07
_symmetry_cell_setting monoclinic
_symmetry_space_group_name_H-M 'P 21/a'
_symmetry_Int_Tables_number 14
loop_
_symmetry_equiv_pos_site_id
_symmetry_equiv_pos_as_xyz
1 x,y,z
2 1/2-x,1/2+y,-z
3 -x,-y,-z
4 -1/2+x,-1/2-y,z
_cell_length_a 12.530(5)
_cell_length_b 15.941(6)
_cell_length_c 4.904(1)
_cell_angle_alpha 90
_cell_angle_beta 103.90(3)
_cell_angle_gamma 90
_cell_formula_units_Z 4
loop_
_atom_type_symbol
_atom_type_radius_bond
C 0.68
H 0.23
N 0.68
O 0.68
loop_
_atom_site_label
_atom_site_type_symbol
_atom_site_fract_x
_atom_site_fract_y
_atom_site_fract_z
O1 O -0.0118(3) 0.3684(2) 0.4965(6)
O2 O 0.1622(2) 0.2635(2) 0.2217(6)
O3 O 0.1318(3) 0.1074(2) 0.7356(7)
O4 O -0.0431(3) 0.1237(2) 0.7501(6)
N1 N -0.0469(2) 0.2846(2) 0.5372(7)
N2 N 0.2216(2) 0.2762(2) 0.6904(2)
C1 C 0.0401(3) 0.2232(2) 0.5040(7)
C2 C -0.0603(3) 0.2387(3) 0.2758(8)
C3 C 0.1482(3) 0.2564(2) 0.4605(8)
C4 C 0.0375(3) 0.1473(3) 0.6786(8)
C5 C 0.1345(6) 0.0306(4) 0.9095(17)
C6 C 0.2420(13) 0.0052(11) 1.0248(38)
C7 C -0.0066(6) 0.4138(4) 0.7524(11)
H1 H 0.206(3) 0.270(2) 0.886(7)
H2 H 0.287(4) 0.290(3) 0.679(9)
H3 H -0.054(3) 0.273(2) 0.103(7)
H4 H -0.125(3) 0.191(2) 0.251(7)
H5 H 0.037(5) 0.388(4) 0.937(13)
H6 H -0.088(5) 0.415(4) 0.786(11)
H7 H 0.001(5) 0.479(4) 0.726(12)
#END
