
#######################################################################
#
#                 Cambridge Crystallographic Data Centre
#                                CCDC
#
#######################################################################
#
# If this CIF has been generated from an entry in the Cambridge
# Structural Database, then it will include bibliographic, chemical,
# crystal, experimental, refinement or atomic coordinate data resulting
# from the CCDC's data processing and validation procedures.
#
#######################################################################

data_CSD_CIF_COBWAR
_audit_creation_date 2000-03-16
_audit_creation_method CSD-ConQuest-V1
_database_code_CSD COBWAR
_database_code_depnum_ccdc_archive 'CCDC 139750'
_chemical_formula_sum 'C20 H16 N2 O1'
_chemical_formula_moiety
;
C20 H16 N2 O1
;
_journal_coeditor_code "IUCr SK1322"
_journal_coden_Cambridge 591
_journal_volume 55
_journal_year 1999
_journal_page_first 2156
_journal_name_full 'Acta Crystallogr.,Sect.C:Cryst.Struct.Commun. '
loop_
_publ_author_name
"W.Szczepankiewicz"
"J.Suwinski"
"J.Slowikowska"
_chemical_name_systematic
;
3,5,5-Triphenyl-4,5-dihydro-1,2,4-oxadiazole
;
_chemical_melting_point 450
_cell_volume   3109.733
_exptl_crystal_colour 'colorless'
_exptl_crystal_density_diffrn 1.283
_exptl_special_details
;
Melting point range 450-451K

;
_exptl_crystal_description 'plate'
_exptl_crystal_preparation 'methanol'
_diffrn_ambient_temperature ?
_diffrn_special_details
;
The study was carried out at room temperature,in the range 283-303K

;
#These two values have been output from a single CSD field.
_refine_ls_R_factor_gt 0.0396
_refine_ls_wR_factor_gt 0.0396
_symmetry_cell_setting monoclinic
_symmetry_space_group_name_H-M 'P 21/c'
_symmetry_Int_Tables_number 14
loop_
_symmetry_equiv_pos_site_id
_symmetry_equiv_pos_as_xyz
1 x,y,z
2 -x,1/2+y,1/2-z
3 -x,-y,-z
4 x,-1/2-y,-1/2+z
_cell_length_a 16.3000(8)
_cell_length_b 5.455(1)
_cell_length_c 34.976(2)
_cell_angle_alpha 90
_cell_angle_beta 90.667(4)
_cell_angle_gamma 90
_cell_formula_units_Z 8
loop_
_atom_type_symbol
_atom_type_radius_bond
C 0.68
H 0.23
N 0.68
O 0.68
loop_
_atom_site_label
_atom_site_type_symbol
_atom_site_fract_x
_atom_site_fract_y
_atom_site_fract_z
C1 C 0.32601(14) 0.2010(4) 0.32862(6)
N1 N 0.31456(13) 0.3860(4) 0.35396(5)
C2 C 0.2759(2) 0.2810(4) 0.38798(6)
O1 O 0.29196(11) 0.0212(3) 0.38160(4)
N2 N 0.31407(12) -0.0160(4) 0.34240(5)
C3 C 0.35111(15) 0.2391(5) 0.28887(6)
C4 C 0.4006(2) 0.0652(5) 0.27141(8)
H1 H 0.4222(19) -0.0764(54) 0.2863(7)
C5 C 0.4218(2) 0.0951(6) 0.23351(8)
H2 H 0.4554(18) -0.0411(52) 0.2216(8)
C6 C 0.3948(2) 0.2962(6) 0.21292(8)
H3 H 0.4114(17) 0.3182(47) 0.1860(7)
C7 C 0.3468(2) 0.4676(6) 0.23029(8)
H4 H 0.3311(17) 0.6084(54) 0.2159(7)
C8 C 0.3247(2) 0.4410(5) 0.26814(7)
H5 H 0.2902(19) 0.5642(54) 0.2807(8)
C9 C 0.31723(15) 0.3497(5) 0.42541(6)
C10 C 0.3682(2) 0.5512(6) 0.42917(8)
H6 H 0.3785(17) 0.6458(51) 0.4054(7)
C11 C 0.4016(2) 0.6087(7) 0.46485(10)
H7 H 0.4361(19) 0.7584(56) 0.4678(8)
C12 C 0.3860(2) 0.4646(8) 0.49613(9)
H8 H 0.4134(19) 0.5067(52) 0.5217(8)
C13 C 0.3362(2) 0.2640(8) 0.49225(9)
H9 H 0.3180(22) 0.1751(65) 0.5139(10)
C14 C 0.3011(2) 0.2067(6) 0.45727(8)
H10 H 0.2644(22) 0.0735(62) 0.4547(9)
C15 C 0.18406(15) 0.3280(5) 0.38871(6)
C16 C 0.1538(2) 0.5430(5) 0.40424(8)
H11 H 0.1934(17) 0.6666(51) 0.4154(7)
C17 C 0.0697(2) 0.5859(6) 0.40436(9)
H12 H 0.0486(18) 0.7377(55) 0.4157(8)
C18 C 0.0157(2) 0.4165(6) 0.38940(9)
H13 H -0.0416(19) 0.4393(53) 0.3909(8)
C19 C 0.0455(2) 0.2074(6) 0.37323(10)
H14 H 0.0076(21) 0.0817(61) 0.3621(9)
C20 C 0.1290(2) 0.1611(6) 0.37311(8)
H15 H 0.1515(16) 0.0117(48) 0.3634(7)
C21 C 0.17229(14) -0.2257(4) 0.17321(6)
N3 N 0.17971(13) -0.4091(4) 0.14663(5)
C22 C 0.22224(15) -0.3017(4) 0.11399(6)
O2 O 0.20806(11) -0.0421(3) 0.12098(5)
N4 N 0.18640(13) -0.0084(4) 0.16037(5)
C23 C 0.14657(14) -0.2675(5) 0.21282(6)
C24 C 0.1673(2) -0.0949(5) 0.24073(7)
H16 H 0.2001(18) 0.052(5) 0.2320(7)
C25 C 0.1431(2) -0.1308(6) 0.27775(8)
H17 H 0.1592(19) 0.0025(56) 0.2963(8)
C26 C 0.0988(2) -0.3351(6) 0.28788(8)
H18 H 0.0784(17) -0.3640(51) 0.3134(7)
C27 C 0.0782(2) -0.5075(6) 0.26037(8)
H19 H 0.0481(17) -0.6477(52) 0.2685(7)
C28 C 0.1025(2) -0.4740(5) 0.22284(7)
H20 H 0.0893(17) -0.5927(51) 0.2035(7)
C29 C 0.1832(2) -0.3628(5) 0.07559(6)
C30 C 0.1329(2) -0.5622(5) 0.07041(8)
H21 H 0.1212(18) -0.6634(56) 0.0924(8)
C31 C 0.0999(2) -0.6144(7) 0.03458(9)
H22 H 0.0627(23) -0.7734(65) 0.0296(10)
C32 C 0.1159(2) -0.4640(7) 0.00390(9)
H23 H 0.0941(21) -0.5031(60) -0.0222(9)
C33 C 0.1662(2) -0.2634(7) 0.00920(8)
H24 H 0.1809(21) -0.1628(62) -0.0120(9)
C34 C 0.2003(2) -0.2128(6) 0.04471(8)
H25 H 0.2365(21) -0.0765(60) 0.0485(9)
C35 C 0.3140(2) -0.3536(5) 0.11470(6)
C36 C 0.3449(2) -0.5667(5) 0.09822(7)
H26 H 0.3076(17) -0.6882(51) 0.0868(7)
C37 C 0.4282(2) -0.6133(6) 0.09859(8)
H27 H 0.4469(21) -0.7613(62) 0.0839(9)
C38 C 0.4821(2) -0.4485(6) 0.11490(9)
H28 H 0.5390(17) -0.4793(50) 0.1140(7)
C39 C 0.4526(2) -0.2408(6) 0.1321(1)
H29 H 0.4912(18) -0.1238(54) 0.1443(8)
C40 C 0.3687(2) -0.1926(6) 0.13211(8)
H30 H 0.3480(18) -0.0351(53) 0.1426(7)
H31 H 0.1962(16) -0.5610(49) 0.1549(7)
H32 H 0.3042(19) 0.5384(57) 0.3466(8)
#END
