
#######################################################################
#
#                 Cambridge Crystallographic Data Centre
#                                CCDC
#
#######################################################################
#
# If this CIF has been generated from an entry in the Cambridge
# Structural Database, then it will include bibliographic, chemical,
# crystal, experimental, refinement or atomic coordinate data resulting
# from the CCDC's data processing and validation procedures.
#
#######################################################################

data_CSD_CIF_COCGUW
_audit_creation_date 2000-03-16
_audit_creation_method CSD-ConQuest-V1
_database_code_CSD COCGUW
_database_code_depnum_ccdc_archive 'CCDC 139570'
_chemical_formula_sum 'C27 H19 N3 O8'
_chemical_formula_moiety
;
C27 H19 N3 O8
;
_journal_coeditor_code "IUCr BM1362"
_journal_coden_Cambridge 591
_journal_volume 55
_journal_year 1999
_journal_page_first 2177
_journal_name_full 'Acta Crystallogr.,Sect.C:Cryst.Struct.Commun. '
loop_
_publ_author_name
"O.Ya.Borbulevych"
"M.Yu.Antipin"
"L.P.Olekhnovich"
_chemical_name_systematic
;
4,8-Dibenzyl-2',4',6'-trinitro-spiro[1,3-dioxa-azulenium-2,1'-hexadienide]
;
_cell_volume   2366.573
_exptl_crystal_colour 'red'
_exptl_crystal_density_diffrn 1.441
_exptl_crystal_description 'square prism'
_exptl_crystal_preparation 'nitromethane'
_diffrn_ambient_temperature 193
#These two values have been output from a single CSD field.
_refine_ls_R_factor_gt 0.0719
_refine_ls_wR_factor_gt 0.0719
_symmetry_cell_setting monoclinic
_symmetry_space_group_name_H-M 'P 21/n'
_symmetry_Int_Tables_number 14
loop_
_symmetry_equiv_pos_site_id
_symmetry_equiv_pos_as_xyz
1 x,y,z
2 1/2-x,1/2+y,1/2-z
3 -x,-y,-z
4 -1/2+x,-1/2-y,-1/2+z
_cell_length_a 9.311(5)
_cell_length_b 12.877(7)
_cell_length_c 19.806(10)
_cell_angle_alpha 90
_cell_angle_beta 94.74(4)
_cell_angle_gamma 90
_cell_formula_units_Z 4
loop_
_atom_type_symbol
_atom_type_radius_bond
C 0.68
H 0.23
N 0.68
O 0.68
loop_
_atom_site_label
_atom_site_type_symbol
_atom_site_fract_x
_atom_site_fract_y
_atom_site_fract_z
N1 N 0.0850(3) 0.8238(2) 0.09353(14)
N2 N 0.2168(3) 1.1512(2) -0.0058(2)
N3 N 0.4506(3) 0.8396(2) -0.07679(13)
O1 O 0.0941(2) 0.7283(2) 0.09626(12)
O2 O 0.0080(3) 0.8745(2) 0.12875(12)
O3 O 0.1300(3) 1.1945(2) 0.02884(13)
O4 O 0.2943(3) 1.1990(2) -0.04324(14)
O5 O 0.5317(2) 0.8969(2) -0.10622(11)
O6 O 0.4549(2) 0.7435(2) -0.08034(11)
O7 O 0.1849(2) 0.7354(2) -0.03414(10)
O8 O 0.3647(2) 0.7563(2) 0.05107(10)
C1 C 0.2642(3) 0.8168(3) 0.0056(2)
C2 C 0.1673(3) 0.8792(3) 0.0463(2)
C3 C 0.1539(3) 0.9848(3) 0.0422(2)
H1 H 0.0912(3) 1.0200(3) 0.0700(2)
C4 C 0.2313(3) 1.0406(3) -0.0023(2)
C5 C 0.3279(3) 0.9910(3) -0.0410(2)
H2 H 0.3826(3) 1.0306(3) -0.0702(2)
C6 C 0.3449(3) 0.8868(3) -0.0376(2)
C7 C 0.2314(3) 0.6410(3) -0.0118(2)
C8 C 0.1703(3) 0.5513(3) -0.0413(2)
C9 C 0.2095(3) 0.4527(3) -0.0189(2)
H3 H 0.1589(3) 0.3977(3) -0.0423(2)
C10 C 0.3101(4) 0.4215(3) 0.0320(2)
H4 H 0.3186(4) 0.3483(3) 0.0370(2)
C11 C 0.4015(4) 0.4782(3) 0.0774(2)
H5 H 0.4615(4) 0.4381(3) 0.1086(2)
C12 C 0.4173(3) 0.5853(3) 0.0835(2)
C13 C 0.3398(3) 0.6544(3) 0.0419(2)
C14 C 0.0598(3) 0.5610(3) -0.1019(2)
H6 H -0.0201(3) 0.5115(3) -0.0971(2)
H7 H 0.0194(3) 0.6321(3) -0.1038(2)
C15 C 0.1295(3) 0.5382(3) -0.1666(2)
C16 C 0.2213(4) 0.6114(3) -0.1921(2)
H8 H 0.2363(4) 0.6764(3) -0.1699(2)
C17 C 0.2907(4) 0.5898(4) -0.2499(2)
H9 H 0.3528(4) 0.6398(4) -0.2673(2)
C18 C 0.2692(4) 0.4955(4) -0.2817(2)
H10 H 0.3173(4) 0.4802(4) -0.3209(2)
C19 C 0.1787(4) 0.4232(4) -0.2570(2)
H11 H 0.1638(4) 0.3582(4) -0.2792(2)
C20 C 0.1084(4) 0.4457(3) -0.1990(2)
H12 H 0.0452(4) 0.3958(3) -0.1821(2)
C21 C 0.5167(3) 0.6296(3) 0.1402(2)
H13 H 0.5753(3) 0.6859(3) 0.1223(2)
H14 H 0.5831(3) 0.5747(3) 0.1588(2)
C22 C 0.4315(3) 0.6721(3) 0.1960(2)
C23 C 0.3592(4) 0.6020(3) 0.2353(2)
H15 H 0.3689(4) 0.5294(3) 0.2285(2)
C24 C 0.2737(5) 0.6385(4) 0.2841(2)
H16 H 0.2246(5) 0.5909(4) 0.3107(2)
C25 C 0.2599(5) 0.7421(5) 0.2941(2)
H17 H 0.1997(5) 0.7666(5) 0.3271(2)
C26 C 0.3329(4) 0.8127(4) 0.2564(2)
H18 H 0.3241(4) 0.8851(4) 0.2642(2)
C27 C 0.4187(4) 0.7769(3) 0.2075(2)
H19 H 0.4690(4) 0.8249(3) 0.1818(2)
#END
