
#######################################################################
#
#                 Cambridge Crystallographic Data Centre
#                                CCDC
#
#######################################################################
#
# If this CIF has been generated from an entry in the Cambridge
# Structural Database, then it will include bibliographic, chemical,
# crystal, experimental, refinement or atomic coordinate data resulting
# from the CCDC's data processing and validation procedures.
#
#######################################################################

data_CSD_CIF_COCHAE
_audit_creation_date 2008-08-28
_audit_creation_method CSD-ConQuest-V1
_database_code_CSD COCHAE
_database_code_depnum_ccdc_archive 'CCDC 675955'
_chemical_formula_sum 'C17 H22 N2 O6'
_chemical_formula_moiety
;
C17 H22 N2 O6
;
_journal_coden_Cambridge 1090
_journal_volume 19
_journal_year 2008
_journal_page_first 624
_journal_name_full 'Tetrahedron:Asymm. '
loop_
_publ_author_name
"A.Srikrishna"
"B.Beeraiah"
"R.R.Babu"
_chemical_name_systematic
;
2-((1S,3S)-2,2,3-trimethylcyclopent-1-yl)ethyl 3,5-dinitrobenzoate
;
_chemical_melting_point 328
_cell_volume   3774.571
_exptl_crystal_colour 'colorless'
_exptl_crystal_density_diffrn 1.233
_exptl_special_details
;
Melting point range 328-330K

;
_diffrn_ambient_temperature 273
#These two values have been output from a single CSD field.
_refine_ls_R_factor_gt 0.1031
_refine_ls_wR_factor_gt 0.1031
_symmetry_cell_setting orthorhombic
_symmetry_space_group_name_H-M 'P 21 21 21'
_symmetry_Int_Tables_number 19
loop_
_symmetry_equiv_pos_site_id
_symmetry_equiv_pos_as_xyz
1 x,y,z
2 1/2-x,-y,1/2+z
3 -x,1/2+y,1/2-z
4 1/2+x,1/2-y,-z
_cell_length_a 8.943(6)
_cell_length_b 10.481(7)
_cell_length_c 40.27(3)
_cell_angle_alpha 90
_cell_angle_beta 90
_cell_angle_gamma 90
_cell_formula_units_Z 8
loop_
_atom_type_symbol
_atom_type_radius_bond
C 0.68
H 0.23
N 0.68
O 0.68
loop_
_atom_site_label
_atom_site_type_symbol
_atom_site_fract_x
_atom_site_fract_y
_atom_site_fract_z
C1 C 0.2881(17) 0.3133(17) 0.2122(4)
H1 H 0.19900 0.35320 0.20390
H2 H 0.33740 0.37010 0.22740
H3 H 0.26210 0.23580 0.22360
C2 C 0.5212(18) 0.5462(12) 0.7756(3)
H4 H 0.50680 0.45550 0.77470
H5 H 0.62050 0.56670 0.76820
H6 H 0.44960 0.58730 0.76140
C3 C 0.5522(17) 0.1077(14) 0.2042(4)
H7 H 0.46120 0.09230 0.21620
H8 H 0.63620 0.09200 0.21840
H9 H 0.55700 0.05180 0.18530
C4 C 0.6490(18) 0.7976(13) 0.8023(3)
H10 H 0.73420 0.74630 0.80810
H11 H 0.66220 0.88230 0.81090
H12 H 0.63920 0.80110 0.77860
O1 O 0.5871(6) 0.9817(5) 0.92180(13)
O2 O 0.5134(6) 0.9284(5) 0.97371(13)
C5 C 0.6820(8) 1.2798(7) 1.00701(18)
O3 O 0.5959(6) 1.2526(6) 1.06123(14)
C6 C 0.5723(8) 1.0023(7) 0.95409(19)
O4 O 0.8221(7) 0.1049(6) 0.11273(16)
C7 C 0.6253(7) 1.1647(6) 0.99735(16)
H13 H 0.57810 1.11240 1.01280
N1 N 0.8344(7) 1.4066(7) 0.92809(19)
C8 C 0.7060(8) 1.2068(7) 0.94188(17)
H14 H 0.71320 1.18240 0.91970
C9 C 0.7528(8) 1.3610(6) 0.98407(19)
H15 H 0.79170 1.43920 0.99070
C10 C 0.7756(8) -0.0493(8) 0.0722(2)
O5 O 0.7317(7) 1.4169(5) 1.05055(14)
O6 O 0.8958(7) 1.5029(7) 0.93913(16)
C11 C 0.8503(10) 0.0728(10) 0.0812(2)
C12 C 0.7939(8) -0.1034(9) 0.0409(2)
H16 H 0.85850 -0.06430 0.02600
C13 C 0.6376(7) 1.1268(6) 0.96531(18)
C14 C 0.6307(9) -0.2743(8) 0.0524(2)
H17 H 0.58170 -0.34800 0.04560
C15 C 0.7625(8) 1.3224(7) 0.95237(17)
C16 C 0.5127(9) 0.7384(7) 0.85601(19)
H18 H 0.41260 0.71670 0.86420
C17 C 0.7216(9) -0.2100(8) 0.0316(2)
N2 N 0.6674(8) 1.3197(7) 1.04182(15)
O7 O 0.9169(7) 0.1369(7) 0.06221(18)
N3 N 0.5126(10) -0.2935(10) 0.1073(3)
C18 C 0.6128(8) -0.2277(8) 0.0839(2)
O8 O 0.6674(9) -0.3469(7) -0.0117(2)
O9 O 0.8206(9) -0.1951(9) -0.02262(19)
O10 O 0.5096(10) -0.2548(9) 0.1361(2)
N4 N 0.7419(10) -0.2506(10) -0.0040(2)
O11 O 0.8234(9) 1.3823(6) 0.89860(16)
C19 C 0.5341(10) 0.8622(8) 0.90889(19)
H19 H 0.42900 0.85130 0.91410
H20 H 0.58940 0.79210 0.91880
C20 C 0.5002(13) 0.5916(10) 0.8105(2)
H21 H 0.40380 0.55940 0.81850
C21 C 0.5062(14) 0.7379(10) 0.8175(2)
C22 C 0.5563(11) 0.8628(7) 0.87155(19)
H22 H 0.49680 0.93070 0.86190
H23 H 0.66050 0.88020 0.86660
C23 C 0.6372(11) 0.2590(9) 0.1590(2)
H24 H 0.60090 0.18990 0.14470
O12 O 0.4412(9) -0.3825(9) 0.0954(2)
C24 C 0.6798(9) -0.119(1) 0.0944(2)
H25 H 0.66380 -0.08960 0.11590
C25 C 0.8727(12) 0.2273(11) 0.1243(3)
H26 H 0.83970 0.29400 0.10930
H27 H 0.98100 0.22900 0.12530
C26 C 0.8064(11) 0.2487(11) 0.1591(3)
H28 H 0.83570 0.17850 0.17330
H29 H 0.84810 0.32640 0.16830
C27 C 0.3584(17) 0.7987(15) 0.8060(3)
H30 H 0.37900 0.86340 0.78970
H31 H 0.30850 0.83640 0.82470
H32 H 0.29560 0.73430 0.79640
C28 C 0.5555(13) 0.2437(10) 0.1926(2)
C29 C 0.6261(14) 0.5428(10) 0.8351(3)
H33 H 0.60840 0.45460 0.84120
H34 H 0.72390 0.54910 0.82480
C30 C 0.6165(11) 0.6289(9) 0.8653(2)
H35 H 0.71470 0.66120 0.87110
H36 H 0.57680 0.58230 0.88410
C31 C 0.3953(14) 0.2819(10) 0.1825(3)
H37 H 0.35140 0.21290 0.16930
C32 C 0.4144(16) 0.4001(14) 0.1604(3)
H38 H 0.40970 0.47780 0.17340
H39 H 0.33760 0.40290 0.14340
C33 C 0.6211(17) 0.3266(18) 0.2181(3)
H40 H 0.68040 0.39140 0.20760
H41 H 0.68300 0.27670 0.23250
H42 H 0.54260 0.36590 0.23070
C34 C 0.5760(15) 0.3823(11) 0.1442(2)
H43 H 0.56880 0.37590 0.12030
H44 H 0.64020 0.45380 0.14980
#END
