
#######################################################################
#
#                 Cambridge Crystallographic Data Centre
#                                CCDC
#
#######################################################################
#
# If this CIF has been generated from an entry in the Cambridge
# Structural Database, then it will include bibliographic, chemical,
# crystal, experimental, refinement or atomic coordinate data resulting
# from the CCDC's data processing and validation procedures.
#
#######################################################################

data_CSD_CIF_COCRAP
_audit_creation_date 2014-04-22
_audit_creation_method CSD-ConQuest-V1
_database_code_CSD COCRAP
_database_code_depnum_ccdc_archive 'CCDC 924206'
_chemical_formula_sum 'C37 H54 N2 O13'
_chemical_formula_moiety
;
C37 H54 N2 O13
;
_journal_coden_Cambridge 177
_journal_volume 12
_journal_year 2014
_journal_page_first 3362
_journal_name_full 'Org.Biomol.Chem. '
loop_
_publ_author_name
"Yizhou Zhao"
"Gang Wang"
"Shanshan Zhou"
"Zhongjun Li"
"Xiangbao Meng"
_chemical_name_systematic
;
ethyl 
3-(4-nitrophenyl)-1-(3,4,5-tris((2,2-dimethylpropanoyl)oxy)-6-(((2,2-dimethylp
ropanoyl)oxy)methyl)tetrahydro-2H-pyran-2-yl)aziridine-2-carboxylate
;
_chemical_name_common
;
1-(2,3,4,6-tetra-O-pivaloyl-beta-D-galactosyl)-(3S)-(4-nitrophenyl)-aziridine-
(2R)-ethyl formate
;
_cell_volume   4080.340
_diffrn_ambient_temperature ?
_diffrn_special_details
;
The study was carried out at room temperature,in the range 283-303K

;
_symmetry_cell_setting monoclinic
_symmetry_space_group_name_H-M 'C 2'
_symmetry_Int_Tables_number 5
loop_
_symmetry_equiv_pos_site_id
_symmetry_equiv_pos_as_xyz
1 x,y,z
2 -x,y,-z
3 1/2+x,1/2+y,z
4 1/2-x,1/2+y,-z
_cell_length_a 26.833(11)
_cell_length_b 11.782(5)
_cell_length_c 15.339(19)
_cell_angle_alpha 90
_cell_angle_beta 122.71(5)
_cell_angle_gamma 90
_cell_formula_units_Z 4
loop_
_atom_type_symbol
_atom_type_radius_bond
C 0.68
H 0.23
N 0.68
O 0.68
loop_
_atom_site_label
_atom_site_type_symbol
_atom_site_fract_x
_atom_site_fract_y
_atom_site_fract_z
O1 O -0.0657(2) 0.6639(5) 0.7597(4)
O2 O -0.1004(2) 0.8850(5) 0.7720(4)
O3 O -0.0779(2) 0.9062(5) 0.9357(5)
O4 O 0.0454(2) 0.7151(5) 0.8016(4)
O5 O 0.1420(3) 0.7617(7) 0.9077(5)
O6 O 0.1049(2) 0.5372(5) 0.9506(5)
O7 O 0.1385(2) 0.6220(6) 1.1039(5)
O8 O 0.0088(2) 0.3901(5) 0.8567(5)
O9 O 0.0207(4) 0.3405(6) 0.7277(6)
O10 O -0.1282(3) 0.2893(7) 0.5669(6)
O11 O -0.1132(3) 0.4042(8) 0.4653(5)
O12 O -0.4310(3) 0.4194(7) 0.4266(5)
O13 O -0.3934(3) 0.2495(6) 0.4755(6)
N1 N -0.1045(3) 0.4771(6) 0.7025(6)
N2 N -0.3886(3) 0.3519(8) 0.4678(6)
C1 C -0.0601(3) 0.5468(7) 0.7885(7)
H1 H -0.06630 0.53990 0.84700
C2 C 0.0030(3) 0.5071(7) 0.8268(7)
H2 H 0.01030 0.51520 0.76980
C3 C 0.0465(3) 0.5778(7) 0.9172(6)
H3 H 0.03970 0.56680 0.97470
C4 C 0.0383(3) 0.7020(7) 0.8876(7)
H4 H 0.06670 0.75100 0.94750
C5 C -0.0264(3) 0.7335(7) 0.8468(6)
H5 H -0.03420 0.72100 0.90290
C6 C -0.0390(3) 0.8564(7) 0.8125(7)
H6 H -0.01280 0.90630 0.87210
H7 H -0.03030 0.86970 0.75840
C7 C -0.1141(4) 0.9074(8) 0.8438(7)
C8 C -0.1796(4) 0.9368(8) 0.7922(7)
C9 C -0.1956(4) 0.931(1) 0.8734(8)
H8 H -0.18960 0.85340 0.90030
H9 H -0.23720 0.95260 0.84180
H10 H -0.17030 0.98320 0.93030
C10 C -0.2179(3) 0.8544(10) 0.7018(7)
H11 H -0.21170 0.77670 0.72840
H12 H -0.20650 0.85950 0.65100
H13 H -0.25980 0.87480 0.66860
C11 C -0.1881(4) 1.0602(9) 0.7507(8)
H14 H -0.16340 1.11190 0.80840
H15 H -0.22980 1.08210 0.71720
H16 H -0.17640 1.06450 0.70020
C12 C 0.1006(4) 0.7388(8) 0.8221(8)
C13 C 0.1005(4) 0.7353(9) 0.7233(8)
C14 C 0.0547(4) 0.6540(12) 0.6429(8)
H17 H 0.06370 0.57660 0.67060
H18 H 0.05570 0.65740 0.58000
H19 H 0.01530 0.67560 0.62630
C15 C 0.1626(3) 0.7008(9) 0.7515(8)
H20 H 0.17090 0.62280 0.77800
H21 H 0.19200 0.75220 0.80470
H22 H 0.16470 0.70520 0.68960
C16 C 0.0876(5) 0.8585(11) 0.6817(10)
H23 H 0.11760 0.90950 0.73450
H24 H 0.04830 0.88130 0.66550
H25 H 0.08850 0.86270 0.61890
C17 C 0.1479(4) 0.5656(8) 1.0492(8)
C18 C 0.2075(4) 0.5157(10) 1.0812(8)
C19 C 0.2488(10) 0.619(2) 1.093(2)
H26 H 0.22800 0.66690 1.03040
H27 H 0.28540 0.59030 1.10120
H28 H 0.25850 0.66480 1.15340
C20 C 0.2042(17) 0.430(3) 1.006(3)
H29 H 0.21090 0.46780 0.95600
H30 H 0.16500 0.39430 0.96850
H31 H 0.23460 0.37160 1.04330
C21 C 0.2363(12) 0.466(3) 1.1869(17)
H32 H 0.26770 0.51640 1.23720
H33 H 0.25340 0.39170 1.18800
H34 H 0.20670 0.45570 1.20500
C22 C 0.0177(4) 0.3137(9) 0.8000(9)
C23 C 0.0228(6) 0.1930(9) 0.8412(11)
C24 C 0.0715(6) 0.1892(11) 0.9558(12)
H35 H 0.10960 0.20720 0.96450
H36 H 0.07330 0.11300 0.98300
H37 H 0.06300 0.24480 0.99350
C25 C 0.0357(6) 0.1118(10) 0.7796(12)
H38 H 0.07450 0.12960 0.79110
H39 H 0.00510 0.11930 0.70580
H40 H 0.03590 0.03390 0.80210
C26 C -0.0383(5) 0.1658(10) 0.8245(11)
H41 H -0.06890 0.16900 0.75030
H42 H -0.04720 0.22150 0.86170
H43 H -0.03730 0.08950 0.85090
C27 C -0.1111(4) 0.4912(8) 0.6024(7)
H44 H -0.08520 0.54980 0.59910
C28 C -0.1185(4) 0.3817(11) 0.5458(9)
C29 C -0.1171(5) 0.3033(14) 0.4053(9)
H45 H -0.08030 0.25850 0.44700
H46 H -0.15040 0.25570 0.39440
C30 C -0.1252(9) 0.326(2) 0.3104(15)
H47 H -0.12790 0.25380 0.27580
H48 H -0.09170 0.36980 0.32020
H49 H -0.16190 0.36880 0.26770
C31 C -0.1580(3) 0.5354(8) 0.6210(6)
H50 H -0.15690 0.61950 0.63040
C32 C -0.2168(4) 0.4837(8) 0.5833(7)
C33 C -0.2244(4) 0.3696(8) 0.5994(7)
H51 H -0.19080 0.32150 0.63640
C34 C -0.2806(3) 0.3262(8) 0.5617(7)
H52 H -0.28610 0.24880 0.57150
C35 C -0.3285(3) 0.3999(9) 0.5089(7)
C36 C -0.3231(4) 0.5127(8) 0.4942(7)
H53 H -0.35680 0.56080 0.45930
C37 C -0.2664(3) 0.5543(8) 0.5321(7)
H54 H -0.26130 0.63230 0.52300
#END
