
#######################################################################
#
#                 Cambridge Crystallographic Data Centre
#                                CCDC
#
#######################################################################
#
# If this CIF has been generated from an entry in the Cambridge
# Structural Database, then it will include bibliographic, chemical,
# crystal, experimental, refinement or atomic coordinate data resulting
# from the CCDC's data processing and validation procedures.
#
#######################################################################

data_CSD_CIF_COCTDX01
_audit_creation_date 1980-04-09
_audit_creation_method CSD-ConQuest-V1
_database_code_CSD COCTDX01
_chemical_formula_sum 'C8 H14 N2 O2'
_chemical_formula_moiety
;
C8 H14 N2 O2
;
_journal_coden_Cambridge 423
_journal_volume 285
_journal_year 1979
_journal_page_first 3122
_journal_name_full 'J.Chem.Res. '
loop_
_publ_author_name
"R.W.Miller"
"A.T.McPhail"
_chemical_name_systematic
;
Cyclo-octane-1,5-dione dioxime
;
_chemical_melting_point 456.15
_cell_volume   2750.128
_exptl_crystal_density_diffrn 1.233
_exptl_special_details
;
Some hydrogen atoms removed from atom table due to discrepancies in bond 
;
_diffrn_ambient_temperature ?
_diffrn_special_details
;
The study was carried out at room temperature,in the range 283-303K

;
#These two values have been output from a single CSD field.
_refine_ls_R_factor_gt 0.045
_refine_ls_wR_factor_gt 0.045
_symmetry_cell_setting orthorhombic
_symmetry_space_group_name_H-M 'P n 21 a'
_symmetry_Int_Tables_number 33
loop_
_symmetry_equiv_pos_site_id
_symmetry_equiv_pos_as_xyz
1 x,y,z
2 1/2-x,1/2+y,1/2+z
3 1/2+x,y,1/2-z
4 -x,1/2+y,-z
_cell_length_a 26.619(12)
_cell_length_b 9.481(4)
_cell_length_c 10.897(5)
_cell_angle_alpha 90
_cell_angle_beta 90
_cell_angle_gamma 90
_cell_formula_units_Z 12
loop_
_atom_type_symbol
_atom_type_radius_bond
C 0.68
H 0.23
N 0.68
O 0.68
loop_
_atom_site_label
_atom_site_type_symbol
_atom_site_fract_x
_atom_site_fract_y
_atom_site_fract_z
C1 C 0.69200 0.41460 0.46660
C2 C 0.73030 0.31620 0.41220
C3 C 0.76210 0.38340 0.31070
C4 C 0.79320 0.51130 0.34930
C5 C 0.76150 0.63200 0.39320
C6 C 0.76110 0.66730 0.52940
C7 C 0.75140 0.54220 0.61140
C8 C 0.69990 0.47170 0.59340
N1 N 0.65150 0.45210 0.41510
N2 N 0.73380 0.70690 0.32460
O1 O 0.64580 0.38960 0.29940
O2 O 0.73750 0.66810 0.19990
C9 C 0.63580 0.67500 -0.02340
C10 C 0.59420 0.72660 -0.10580
C11 C 0.56090 0.47600 0.05920
C12 C 0.59580 0.36430 0.00890
C13 C 0.63030 0.41710 -0.09220
C14 C 0.66290 0.54180 -0.05420
N3 N 0.64980 0.73940 0.07250
N4 N 0.56360 0.50000 0.17450
O3 O 0.62360 0.86570 0.09340
O4 O 0.53000 0.60280 0.21270
C15 C 0.54170 0.83630 0.46710
C16 C 0.55080 0.90520 0.58940
C17 C 0.60190 0.97550 0.60160
C18 C 0.61380 1.09520 0.50930
C19 C 0.61060 1.04810 0.37790
C20 C 0.56720 1.09040 0.29910
C21 C 0.51620 1.05820 0.35500
C22 C 0.50530 0.90330 0.37830
N5 N 0.56110 0.72060 0.43220
N6 N 0.64400 0.97220 0.32750
O5 O 0.59290 0.66180 0.52130
O6 O 0.68480 0.94290 0.40510
H1 H 0.59300 0.82900 -0.11700
H2 H 0.59200 0.68500 -0.18900
H3 H 0.51400 0.75100 -0.10700
H4 H 0.49400 0.56000 0.01400
H5 H 0.52500 0.49300 -0.09700
H6 H 0.61900 0.33000 0.07600
H7 H 0.57200 0.27900 -0.02500
H8 H 0.65300 0.33500 -0.11500
H9 H 0.61100 0.44900 -0.16600
H10 H 0.68100 0.56600 -0.11700
H11 H 0.68000 0.51600 0.01500
H12 H 0.54800 0.82700 0.65200
H13 H 0.52400 0.98900 0.60900
H14 H 0.62800 0.90400 0.58800
H15 H 0.61000 1.00900 0.68900
H16 H 0.64600 1.12100 0.52700
H17 H 0.59100 1.17400 0.52400
H18 H 0.58000 1.04800 0.22200
H19 H 0.57000 1.19500 0.28900
H20 H 0.48100 1.08900 0.30700
H21 H 0.51400 1.10300 0.43900
H22 H 0.47000 0.89000 0.42100
H23 H 0.50700 0.85200 0.29600
C23 C 0.54130 0.70410 -0.05100
C24 C 0.52620 0.55150 -0.02620
#END
