
#######################################################################
#
#                 Cambridge Crystallographic Data Centre
#                                CCDC
#
#######################################################################
#
# If this CIF has been generated from an entry in the Cambridge
# Structural Database, then it will include bibliographic, chemical,
# crystal, experimental, refinement or atomic coordinate data resulting
# from the CCDC's data processing and validation procedures.
#
#######################################################################

data_CSD_CIF_COCTDX
_audit_creation_date 1976-12-25
_audit_creation_method CSD-ConQuest-V1
_database_code_CSD COCTDX
_chemical_formula_sum 'C8 H14 N2 O2'
_chemical_formula_moiety
;
C8 H14 N2 O2
;
_journal_coden_Cambridge 10
_journal_volume 59
_journal_year 1976
_journal_page_first 1417
_journal_name_full 'Helv.Chim.Acta '
loop_
_publ_author_name
"F.K.Winkler"
"P.Seiler"
"J.P.Chesick"
"J.D.Dunitz"
_chemical_name_systematic
;
Cyclo-octane-1,5-dione dioxime
;
_cell_volume   2762.065
_exptl_crystal_density_diffrn 1.228
_exptl_special_details
;
O(2B) IN ERROR (OUR LABEL O2') CORRECT X COORD. IS 0.9071, NOT 0.9171

;
_diffrn_ambient_temperature ?
_diffrn_special_details
;
The study was carried out at room temperature,in the range 283-303K

;
#These two values have been output from a single CSD field.
_refine_ls_R_factor_gt 0.061
_refine_ls_wR_factor_gt 0.061
_symmetry_cell_setting orthorhombic
_symmetry_space_group_name_H-M 'P n a 21'
_symmetry_Int_Tables_number 33
loop_
_symmetry_equiv_pos_site_id
_symmetry_equiv_pos_as_xyz
1 x,y,z
2 1/2-x,1/2+y,1/2+z
3 1/2+x,1/2-y,z
4 -x,-y,1/2+z
_cell_length_a 26.724
_cell_length_b 10.899
_cell_length_c 9.483
_cell_angle_alpha 90
_cell_angle_beta 90
_cell_angle_gamma 90
_cell_formula_units_Z 12
loop_
_atom_type_symbol
_atom_type_radius_bond
C 0.68
H 0.23
N 0.68
O 0.68
loop_
_atom_site_label
_atom_site_type_symbol
_atom_site_fract_x
_atom_site_fract_y
_atom_site_fract_z
C1 C -0.26130 0.10800 0.44350
C2 C -0.11100 0.12360 -0.13760
C3 C -0.26090 -0.02790 0.48160
C4 C -0.06720 0.20190 -0.09640
C5 C -0.13540 -0.47600 0.48650
C6 C -0.16320 -0.44400 0.35350
C7 C -0.12990 -0.40560 0.23020
C8 C -0.09560 -0.50820 0.17550
C9 C -0.06120 -0.55820 0.28460
C10 C -0.02640 -0.47330 0.36350
C11 C -0.04080 -0.44920 0.51670
C12 C -0.09380 -0.39370 0.53920
C13 C -0.25180 -0.11020 0.35640
C14 C -0.01590 0.14510 -0.12910
C15 C -0.20050 -0.09400 0.28720
C16 C -0.00570 0.12330 -0.28280
C17 C -0.19200 0.03310 0.22720
C18 C -0.04200 0.03340 -0.35230
C19 C -0.23010 0.08830 0.12730
C20 C -0.05070 -0.08770 -0.28290
C21 C -0.26220 0.18980 0.19680
C22 C -0.10200 -0.09990 -0.21280
C23 C -0.29290 0.15250 0.32380
C24 C -0.11310 -0.00830 -0.09070
H1 H -0.21300 0.33800 0.53500
H2 H -0.02490 -0.39140 0.31110
H3 H -0.02350 -0.10150 -0.20890
H4 H -0.03860 -0.52970 0.57090
H5 H -0.12880 -0.08910 -0.28870
H6 H -0.01500 -0.39140 0.55980
H7 H -0.10550 -0.18700 -0.17520
H8 H -0.09880 -0.37680 0.64390
H9 H -0.14760 -0.02640 -0.04980
H10 H -0.09570 -0.31120 0.48870
H11 H -0.08790 -0.02190 -0.01120
H12 H -0.19600 0.13000 -0.32000
H13 H -0.13000 -0.67500 0.72500
H14 H -0.10600 0.02000 -0.61500
H15 H -0.04000 -0.78000 0.45800
H16 H -0.12300 0.23000 0.26500
H17 H -0.23420 -0.04350 0.55570
H18 H -0.29450 -0.05030 0.52620
H19 H -0.18410 -0.51770 0.32330
H20 H -0.07000 0.28410 -0.14730
H21 H -0.25550 -0.19920 0.38760
H22 H -0.27880 -0.09440 0.28270
H23 H -0.18750 -0.37450 0.37460
H24 H -0.06930 0.21980 0.00880
H25 H -0.17320 -0.11270 0.35930
H26 H -0.19670 -0.15720 0.20810
H27 H -0.15200 -0.37600 0.14920
H28 H 0.01120 0.20120 -0.08990
H29 H -0.10840 -0.33290 0.26010
H30 H -0.01290 0.06370 -0.07690
H31 H -0.21210 0.12370 0.04160
H32 H -0.25310 0.02060 0.09070
H33 H -0.11700 -0.57790 0.13670
H34 H -0.00680 0.20490 -0.33510
H35 H -0.23890 0.25960 0.22580
H36 H -0.28580 0.22440 0.12200
H37 H -0.07490 -0.47560 0.09320
H38 H 0.03000 0.09050 -0.29370
H39 H -0.31380 0.22520 0.35610
H40 H -0.31730 0.08500 0.29480
H41 H 0.00870 -0.50930 0.36070
H42 H -0.04660 -0.15560 -0.35630
N1 N -0.23380 0.17740 0.52500
N2 N -0.14380 0.17400 -0.21560
N3 N -0.15170 0.08560 0.26490
N4 N -0.06120 0.06790 -0.46660
N5 N -0.14970 -0.57150 0.55310
N6 N -0.06410 -0.67360 0.31270
O1 O -0.23710 0.30140 0.47800
O2 O -0.18460 0.09580 -0.24220
O3 O -0.14590 0.20160 0.20010
O4 O -0.09290 -0.02130 -0.52690
O5 O -0.12370 -0.59190 0.67780
O6 O -0.03020 -0.71200 0.41490
#END
