
#######################################################################
#
#                 Cambridge Crystallographic Data Centre
#                                CCDC
#
#######################################################################
#
# If this CIF has been generated from an entry in the Cambridge
# Structural Database, then it will include bibliographic, chemical,
# crystal, experimental, refinement or atomic coordinate data resulting
# from the CCDC's data processing and validation procedures.
#
#######################################################################

data_CSD_CIF_CODFEI
_audit_creation_date 2014-04-23
_audit_creation_method CSD-ConQuest-V1
_database_code_CSD CODFEI
_database_code_depnum_ccdc_archive 'CCDC 970709'
_chemical_formula_sum 'C22 H23 N1 O5'
_chemical_formula_moiety
;
C22 H23 N1 O5
;
_journal_coden_Cambridge 1500
_journal_volume 4
_journal_year 2014
_journal_page_first 18904
_journal_name_full 'RSC Advances '
loop_
_publ_author_name
"Naveen"
"S.A.Babu"
"G.Kaur"
"N.A.Aslam"
"M.Karanam"
_chemical_name_systematic
;
3,11,14,22,26-pentaoxa-27-azatetracyclo[23.2.1.0^5,10^.0^15,20^]octacosa-1(27)
,5,7,9,15,17,19,25(28)-octaene
;
_cell_volume   1960.072
_exptl_crystal_density_diffrn 1.293
_exptl_crystal_description 'block'
_diffrn_ambient_temperature 298
_refine_special_details
;
C7A,O2A and C7B,O2B disordered over two sites with occupancies 0.5:0.5.

;
#These two values have been output from a single CSD field.
_refine_ls_R_factor_gt 0.0629
_refine_ls_wR_factor_gt 0.0629
_symmetry_cell_setting monoclinic
_symmetry_space_group_name_H-M 'P 21/c'
_symmetry_Int_Tables_number 14
loop_
_symmetry_equiv_pos_site_id
_symmetry_equiv_pos_as_xyz
1 x,y,z
2 -x,1/2+y,1/2-z
3 -x,-y,-z
4 x,-1/2-y,-1/2+z
_cell_length_a 10.4541(10)
_cell_length_b 17.4437(17)
_cell_length_c 11.0894(10)
_cell_angle_alpha 90
_cell_angle_beta 104.244(5)
_cell_angle_gamma 90
_cell_formula_units_Z 4
loop_
_atom_type_symbol
_atom_type_radius_bond
C 0.68
H 0.23
N 0.68
O 0.68
loop_
_atom_site_label
_atom_site_type_symbol
_atom_site_fract_x
_atom_site_fract_y
_atom_site_fract_z
O1 O 0.4066(2) 0.10882(13) 0.0916(2)
O2 O 0.4636(4) 0.1274(2) 0.6303(3)
O3 O 0.13276(17) 0.08161(11) 0.48455(16)
O4 O 0.10310(18) 0.04586(10) 0.22737(16)
O5 O 0.7281(2) 0.16918(18) 0.4105(2)
N1 N 0.6749(3) 0.1824(2) 0.2809(3)
C1 C 0.4667(3) 0.1792(2) 0.1333(3)
H1 H 0.39920 0.21770 0.13140
H2 H 0.52030 0.19580 0.07820
C2 C 0.5515(3) 0.17196(18) 0.2633(3)
C3 C 0.5175(3) 0.1523(2) 0.3761(3)
H3 H 0.43360 0.14220 0.38680
C4 C 0.6298(3) 0.1513(2) 0.4622(3)
C5 C 0.6701(3) 0.1321(3) 0.5959(3)
H4 H 0.74790 0.09980 0.61020
H5 H 0.69480 0.17910 0.64250
C6 C 0.5716(4) 0.0938(3) 0.6440(4)
H6 H 0.55510 0.04390 0.60440
H7 H 0.60760 0.08500 0.73230
C7 C 0.3660(15) 0.0832(4) 0.6724(14)
H8 H 0.33960 0.04020 0.61630
H9 H 0.40680 0.06250 0.75400
C8 C 0.2584(3) 0.12160(18) 0.6795(2)
C9 C 0.2718(4) 0.1687(2) 0.7839(3)
H10 H 0.34650 0.16360 0.84930
C10 C 0.1784(4) 0.2221(2) 0.7931(3)
H11 H 0.19030 0.25320 0.86310
C11 C 0.0678(4) 0.22919(19) 0.6979(3)
H12 H 0.00390 0.26520 0.70340
C12 C 0.0502(3) 0.18365(16) 0.5942(3)
H13 H -0.02570 0.18890 0.53010
C13 C 0.1448(3) 0.12979(15) 0.5844(2)
C14 C 0.0101(3) 0.08237(16) 0.3924(2)
H14 H -0.00400 0.13220 0.35240
H15 H -0.06220 0.07220 0.43070
C15 C 0.0154(3) 0.02215(15) 0.2991(2)
H16 H 0.04570 -0.02580 0.34090
H17 H -0.07190 0.01400 0.24540
C16 C 0.1354(2) -0.00541(15) 0.1470(2)
C17 C 0.0823(3) -0.07811(17) 0.1258(3)
H18 H 0.01860 -0.09480 0.16540
C18 C 0.1260(4) -0.1256(2) 0.0444(4)
H19 H 0.09210 -0.17490 0.02950
C19 C 0.2195(5) -0.1001(3) -0.0144(3)
H20 H 0.24790 -0.13220 -0.06950
C20 C 0.2710(4) -0.0278(2) 0.0076(3)
H21 H 0.33490 -0.01150 -0.03200
C21 C 0.2296(3) 0.02086(16) 0.0873(2)
C22 C 0.2824(3) 0.10096(18) 0.1142(3)
H22 H 0.22210 0.13690 0.06260
H23 H 0.28740 0.11330 0.20060
O6? O 0.4507(5) 0.0655(5) 0.6047(5)
H24? H 0.62010 0.05020 0.68670
H25? H 0.56190 0.12810 0.71000
C23? C 0.3623(15) 0.0489(5) 0.6696(14)
H26? H 0.40900 0.03400 0.75310
H27? H 0.31060 0.00520 0.63140
#END
