
#######################################################################
#
#                 Cambridge Crystallographic Data Centre
#                                CCDC
#
#######################################################################
#
# If this CIF has been generated from an entry in the Cambridge
# Structural Database, then it will include bibliographic, chemical,
# crystal, experimental, refinement or atomic coordinate data resulting
# from the CCDC's data processing and validation procedures.
#
#######################################################################

data_CSD_CIF_CODYAX
_audit_creation_date 2014-04-24
_audit_creation_method CSD-ConQuest-V1
_database_code_CSD CODYAX
_database_code_depnum_ccdc_archive 'CCDC 996074'
_chemical_formula_sum 'C13 H9 N3 O5'
_chemical_formula_moiety
;
C13 H9 N3 O5
;
_journal_coeditor_code "yf3059"
_journal_coden_Cambridge 1777
_journal_volume 70
_journal_year 2014
_journal_page_first 493
_journal_name_full 'Acta Crystallogr.,Sect.C:Cryst.Struct.Chem. '
loop_
_publ_author_name
"A.V.Yatsenko"
"K.A.Paseshnichenko"
_chemical_name_systematic
;
2-hydroxy-5-[(E)-(4-nitrophenyl)diazenyl]benzoic acid
;
_chemical_melting_point 530
_cell_volume   1239.028
_exptl_crystal_colour 'reddish orange'
_exptl_crystal_density_diffrn 1.54
_exptl_special_details
;
from toluene/aceton mixture 3

;
_exptl_crystal_description 'needle'
_diffrn_ambient_temperature 293
#These two values have been output from a single CSD field.
_refine_ls_R_factor_gt 0.0406
_refine_ls_wR_factor_gt 0.0406
_chemical_compound_source
;
synthesis
;
_symmetry_cell_setting monoclinic
_symmetry_space_group_name_H-M 'P 21/c'
_symmetry_Int_Tables_number 14
loop_
_symmetry_equiv_pos_site_id
_symmetry_equiv_pos_as_xyz
1 x,y,z
2 -x,1/2+y,1/2-z
3 -x,-y,-z
4 x,-1/2-y,-1/2+z
_cell_length_a 4.9319(5)
_cell_length_b 11.6649(14)
_cell_length_c 21.619(2)
_cell_angle_alpha 90
_cell_angle_beta 94.991(8)
_cell_angle_gamma 90
_cell_formula_units_Z 4
loop_
_atom_type_symbol
_atom_type_radius_bond
C 0.68
H 0.23
N 0.68
O 0.68
loop_
_atom_site_label
_atom_site_type_symbol
_atom_site_fract_x
_atom_site_fract_y
_atom_site_fract_z
O1 O 1.1662(2) 0.16995(10) -0.01162(5)
H1 H 1.259(4) 0.2232(6) -0.0226(7)
O2 O 1.3733(2) 0.37681(10) -0.00850(5)
O3 O 1.2554(2) 0.50125(10) 0.06235(6)
H2 H 1.370(3) 0.5406(7) 0.0471(7)
O4 O -0.3794(3) 0.26095(12) 0.40909(6)
O5 O -0.3102(3) 0.44066(11) 0.39742(6)
N1 N 0.5734(3) 0.30930(12) 0.18177(6)
N2 N 0.4515(3) 0.22991(13) 0.20677(6)
N3 N -0.2672(3) 0.34058(12) 0.38566(6)
C1 C 1.0527(3) 0.31879(13) 0.05999(6)
C2 C 1.0260(3) 0.20830(13) 0.03457(6)
C3 C 0.8421(3) 0.13098(14) 0.05774(7)
H3 H 0.82030 0.05830 0.04040
C4 C 0.6948(3) 0.16214(14) 0.10573(7)
H4 H 0.57390 0.11010 0.12090
C5 C 0.7233(3) 0.27134(13) 0.13239(7)
C6 C 0.8975(3) 0.34931(13) 0.10875(7)
H5 H 0.91220 0.42280 0.12530
C7 C 0.2843(3) 0.26631(14) 0.25364(7)
C8 C 0.2244(3) 0.37942(15) 0.26665(7)
H6 H 0.30360 0.43860 0.24570
C9 C 0.0471(3) 0.40402(15) 0.31068(7)
H7 H 0.00630 0.47960 0.32000
C10 C -0.0687(3) 0.31457(14) 0.34076(6)
C11 C -0.0092(3) 0.20176(15) 0.32949(8)
H8 H -0.08720 0.14310 0.35100
C12 C 0.1689(4) 0.17777(15) 0.28548(8)
H9 H 0.21190 0.10210 0.27710
C13 C 1.2401(3) 0.40097(13) 0.03518(7)
#END
