
#######################################################################
#
#                 Cambridge Crystallographic Data Centre
#                                CCDC
#
#######################################################################
#
# If this CIF has been generated from an entry in the Cambridge
# Structural Database, then it will include bibliographic, chemical,
# crystal, experimental, refinement or atomic coordinate data resulting
# from the CCDC's data processing and validation procedures.
#
#######################################################################

data_CSD_CIF_COFTIA10
_audit_creation_date 1985-08-15
_audit_creation_method CSD-ConQuest-V1
_database_code_CSD COFTIA10
_database_code_depnum_ccdc_archive 'CCDC 1128621'
_chemical_formula_sum 'C12 H11 N3 O2'
_chemical_formula_moiety
;
C12 H11 N3 O2
;
_journal_coeditor_code "IUCr A24519"
_journal_coden_Cambridge 591
_journal_volume 41
_journal_year 1985
_journal_page_first 142
_journal_name_full 'Acta Crystallogr.,Sect.C:Cryst.Struct.Commun. '
loop_
_publ_author_name
"C.Samanta"
"P.K.De"
"S.B.Sarkar"
"S.C.Saha"
"S.K.Talapatra"
_chemical_name_systematic
;
3-(o-Hydroxyphenyl)-1-phenyltriazene-1-oxide
;
_cell_volume   1078.942
_exptl_crystal_colour 'deep brown'
_exptl_crystal_density_diffrn 1.41
_diffrn_ambient_temperature ?
_diffrn_special_details
;
The study was carried out at room temperature,in the range 283-303K

;
#These two values have been output from a single CSD field.
_refine_ls_R_factor_gt 0.04
_refine_ls_wR_factor_gt 0.04
_symmetry_cell_setting monoclinic
_symmetry_space_group_name_H-M 'P 21/n'
_symmetry_Int_Tables_number 14
loop_
_symmetry_equiv_pos_site_id
_symmetry_equiv_pos_as_xyz
1 x,y,z
2 1/2-x,1/2+y,1/2-z
3 -x,-y,-z
4 -1/2+x,-1/2-y,-1/2+z
_cell_length_a 6.569(2)
_cell_length_b 11.870(4)
_cell_length_c 13.889(4)
_cell_angle_alpha 90
_cell_angle_beta 94.95(2)
_cell_angle_gamma 90
_cell_formula_units_Z 4
loop_
_atom_type_symbol
_atom_type_radius_bond
C 0.68
H 0.23
N 0.68
O 0.68
loop_
_atom_site_label
_atom_site_type_symbol
_atom_site_fract_x
_atom_site_fract_y
_atom_site_fract_z
C1 C 1.2223(4) -0.2024(2) 0.2551(2)
C2 C 1.4210(3) -0.1953(2) 0.2989(2)
C3 C 1.4743(3) -0.1085(2) 0.3619(2)
C4 C 1.3319(3) -0.0277(2) 0.3818(2)
C5 C 1.1348(3) -0.0343(2) 0.3390(1)
C6 C 1.0794(3) -0.1225(2) 0.2746(2)
C7 C 0.7467(4) 0.4323(2) 0.5778(2)
C8 C 0.7261(4) 0.3452(2) 0.5115(2)
C9 C 0.8961(3) 0.2833(2) 0.4944(1)
C10 C 1.0867(4) 0.3068(2) 0.5405(2)
C11 C 1.1013(4) 0.3948(2) 0.6062(2)
C12 C 0.9341(5) 0.4570(2) 0.6249(2)
N1 N 0.8731(3) 0.1931(1) 0.4246(1)
N2 N 1.0218(3) 0.1240(1) 0.4214(1)
N3 N 0.9834(3) 0.0451(2) 0.3544(1)
O1 O 0.7065(2) 0.1843(1) 0.3677(1)
O2 O 0.8840(2) -0.1220(1) 0.2341(1)
H1 H 1.1677(44) -0.2697(26) 0.2059(19)
H2 H 1.5295(39) -0.2532(25) 0.2884(19)
H3 H 1.6144(41) -0.1004(25) 0.3889(19)
H4 H 1.3661(38) 0.0339(23) 0.4275(18)
H5 H 0.8509(38) 0.0443(23) 0.3250(18)
H6 H 0.8550(47) -0.1880(27) 0.2062(23)
H7 H 0.6384(40) 0.4732(24) 0.5893(20)
H8 H 0.5942(36) 0.3280(22) 0.4761(18)
H9 H 1.2022(42) 0.2690(27) 0.5252(20)
H10 H 1.2271(44) 0.4092(27) 0.6371(20)
H11 H 0.9408(45) 0.5166(26) 0.6680(21)
#END
