
#######################################################################
#
#                 Cambridge Crystallographic Data Centre
#                                CCDC
#
#######################################################################
#
# If this CIF has been generated from an entry in the Cambridge
# Structural Database, then it will include bibliographic, chemical,
# crystal, experimental, refinement or atomic coordinate data resulting
# from the CCDC's data processing and validation procedures.
#
#######################################################################

data_CSD_CIF_COGFOV
_audit_creation_date 2014-04-25
_audit_creation_method CSD-ConQuest-V1
_database_code_CSD COGFOV
_database_code_depnum_ccdc_archive 'CCDC 981252'
_chemical_formula_sum 'C21 H23 N1 O5'
_chemical_formula_moiety
;
C21 H23 N1 O5
;
_journal_coden_Cambridge 179
_journal_volume 53
_journal_year 2014
_journal_page_first 5964
_journal_name_full 'Angew.Chem.,Int.Ed. '
loop_
_publ_author_name
"S.Chakrabarty"
"I.Chatterjee"
"Birgit Wibbeling"
"C.G.Daniliuc"
"A.Studer"
_chemical_name_systematic
;
diethyl 2,5-diphenyl-1,2-oxazolidine-3,3-dicarboxylate
;
_cell_volume   1930.306
_exptl_crystal_colour 'colorless'
_exptl_crystal_density_diffrn 1.271
_exptl_special_details
;
Absolute configuration

;
_exptl_crystal_description 'needle'
_diffrn_ambient_temperature 223
_refine_special_details
;
C5A,C6A and C51,C61 disordered over two sites with occupancies 0.69:0.31; 
C8B,C9B and C81,C91 disordered over two sites with occupancies 0.62:0.38.
;
#These two values have been output from a single CSD field.
_refine_ls_R_factor_gt 0.0511
_refine_ls_wR_factor_gt 0.0511
_symmetry_cell_setting monoclinic
_symmetry_space_group_name_H-M 'P 21'
_symmetry_Int_Tables_number 4
loop_
_symmetry_equiv_pos_site_id
_symmetry_equiv_pos_as_xyz
1 x,y,z
2 -x,1/2+y,-z
_cell_length_a 11.5047(1)
_cell_length_b 7.5143(1)
_cell_length_c 22.6494(1)
_cell_angle_alpha 90
_cell_angle_beta 99.654(1)
_cell_angle_gamma 90
_cell_formula_units_Z 4
loop_
_atom_type_symbol
_atom_type_radius_bond
C 0.68
H 0.23
N 0.68
O 0.68
loop_
_atom_site_label
_atom_site_type_symbol
_atom_site_fract_x
_atom_site_fract_y
_atom_site_fract_z
N1 N 0.7488(2) 0.7305(3) 0.44527(10)
O1 O 0.79535(17) 0.6919(3) 0.50656(8)
C1 C 0.7598(3) 0.8342(5) 0.54237(14)
H1 H 0.80870 0.94120 0.53950
C2 C 0.6332(3) 0.8667(5) 0.51114(15)
H2 H 0.60710 0.98740 0.51880
H3 H 0.57880 0.78060 0.52430
C3 C 0.6413(2) 0.8410(4) 0.44466(14)
C4 C 0.6467(3) 1.0239(5) 0.41534(16)
O2 O 0.5764(2) 1.0732(4) 0.37305(13)
O3 O 0.7348(2) 1.1204(3) 0.44543(14)
C5 C 0.7503(8) 1.3085(7) 0.4312(4)
H4 H 0.79130 1.37250 0.46630
H5 H 0.67390 1.36560 0.41770
C6 C 0.8216(14) 1.3068(13) 0.3830(4)
H6 H 0.89780 1.25380 0.39770
H7 H 0.83250 1.42780 0.37000
H8 H 0.78140 1.23780 0.34950
C7 C 0.5311(3) 0.7464(5) 0.41177(15)
O4 O 0.43744(19) 0.7554(4) 0.42738(12)
O5 O 0.55209(19) 0.6548(4) 0.36462(11)
C8 C 0.4518(3) 0.5626(7) 0.32996(18)
H9 H 0.43320 0.45610 0.35150
H10 H 0.38260 0.64070 0.32420
C9 C 0.4801(5) 0.5134(12) 0.2732(2)
H11 H 0.49900 0.61920 0.25220
H12 H 0.41310 0.45360 0.24970
H13 H 0.54750 0.43390 0.27910
C10 C 0.7699(2) 0.7758(5) 0.60607(13)
C11 C 0.8343(3) 0.8798(5) 0.65159(16)
H14 H 0.87520 0.98110 0.64190
C12 C 0.8372(3) 0.8320(6) 0.71112(16)
H15 H 0.88030 0.90150 0.74170
C13 C 0.7778(3) 0.6845(6) 0.72558(16)
H16 H 0.77990 0.65370 0.76600
C14 C 0.7154(3) 0.5818(6) 0.68123(17)
H17 H 0.67520 0.48010 0.69120
C15 C 0.7117(3) 0.6275(5) 0.62231(15)
H18 H 0.66860 0.55620 0.59230
C16 C 0.8376(2) 0.7844(4) 0.41248(14)
C17 C 0.9556(3) 0.7951(6) 0.43831(15)
H19 H 0.97920 0.77160 0.47930
C18 C 1.0380(3) 0.8410(6) 0.40287(19)
H20 H 1.11770 0.85010 0.42060
C19 C 1.0073(3) 0.8732(6) 0.34334(18)
H21 H 1.06470 0.90450 0.32020
C20 C 0.8901(3) 0.8591(5) 0.31748(16)
H22 H 0.86780 0.88040 0.27620
C21 C 0.8055(3) 0.8144(5) 0.35121(14)
H23 H 0.72610 0.80410 0.33290
C22? C 0.7493(14) 1.272(2) 0.4052(10)
H24? H 0.71200 1.24230 0.36430
H25? H 0.70830 1.37650 0.41790
C23? C 0.8729(13) 1.319(3) 0.4051(11)
H26? H 0.90840 1.36060 0.44460
H27? H 0.87700 1.41280 0.37600
H28? H 0.91510 1.21530 0.39460
N2 N 0.26342(19) 0.8899(3) 1.05173(10)
O6 O 0.19838(16) 0.9054(3) 0.99142(8)
C24 C 0.2877(2) 0.9194(4) 0.95468(12)
H29 H 0.32470 1.03870 0.95870
C25 C 0.3758(2) 0.7766(5) 0.98056(13)
H30 H 0.45520 0.80480 0.97310
H31 H 0.35250 0.65960 0.96340
C26 C 0.3705(2) 0.7812(4) 1.04819(12)
C27 C 0.3651(2) 0.5912(4) 1.07217(13)
O7 O 0.4364(2) 0.5303(3) 1.11136(11)
O8 O 0.27205(18) 0.5076(3) 1.04281(10)
C28 C 0.2497(3) 0.3255(5) 1.06025(19)
H32 H 0.32440 0.26880 1.07750
H33 H 0.21500 0.25740 1.02470
C29 C 0.1695(5) 0.3228(6) 1.1041(2)
H34 H 0.20970 0.37000 1.14190
H35 H 0.14490 0.20140 1.10970
H36 H 0.10090 0.39520 1.08960
C30 C 0.4825(2) 0.8699(4) 1.08228(14)
O9 O 0.57754(18) 0.8458(4) 1.06920(12)
O10 O 0.4611(2) 0.9735(4) 1.12651(10)
C31 C 0.5717(8) 1.031(2) 1.1650(4)
H37 H 0.63780 0.97430 1.15000
H38 H 0.57970 1.15950 1.16020
C32 C 0.5823(9) 0.9973(18) 1.2210(3)
H39 H 0.50660 1.01190 1.23380
H40 H 0.63900 1.07860 1.24310
H41 H 0.60950 0.87590 1.22850
C33 C 0.2310(2) 0.8848(4) 0.89072(13)
C34 C 0.1507(3) 0.7478(5) 0.87732(15)
H42 H 0.12880 0.67840 0.90820
C35 C 0.1023(3) 0.7131(6) 0.81803(16)
H43 H 0.04690 0.62110 0.80880
C36 C 0.1353(3) 0.8126(6) 0.77295(15)
H44 H 0.10300 0.78790 0.73290
C37 C 0.2152(3) 0.9480(6) 0.78606(15)
H45 H 0.23800 1.01530 0.75490
C38 C 0.2625(3) 0.9861(5) 0.84504(14)
H46 H 0.31600 1.08080 0.85400
C39 C 0.1830(2) 0.8350(4) 1.09019(13)
C40 C 0.0632(3) 0.8222(5) 1.06971(15)
H47 H 0.03280 0.84490 1.02930
C41 C -0.0122(3) 0.7756(6) 1.10918(19)
H48 H -0.09370 0.76810 1.09500
C42 C 0.0298(3) 0.7404(5) 1.16838(17)
H49 H -0.02170 0.70640 1.19450
C43 C 0.1500(3) 0.7560(5) 1.18880(15)
H50 H 0.18000 0.73410 1.22930
C44 C 0.2261(3) 0.8033(4) 1.15032(13)
H51 H 0.30730 0.81410 1.16490
C45? C 0.5474(11) 1.0947(16) 1.1623(5)
H52? H 0.62730 1.05860 1.15780
H53? H 0.53460 1.21590 1.14670
C46? C 0.5394(16) 1.094(3) 1.2181(6)
H54? H 0.48370 1.18490 1.22570
H55? H 0.61610 1.11950 1.24170
H56? H 0.51250 0.97870 1.22910
#END
