
#######################################################################
#
#                 Cambridge Crystallographic Data Centre
#                                CCDC
#
#######################################################################
#
# If this CIF has been generated from an entry in the Cambridge
# Structural Database, then it will include bibliographic, chemical,
# crystal, experimental, refinement or atomic coordinate data resulting
# from the CCDC's data processing and validation procedures.
#
#######################################################################

data_CSD_CIF_COGGEM
_audit_creation_date 2014-04-25
_audit_creation_method CSD-ConQuest-V1
_database_code_CSD COGGEM
_database_code_depnum_ccdc_archive 'CCDC 984053'
_chemical_formula_sum 'C6 H2 N10 O8'
_chemical_formula_moiety
;
C6 H2 N10 O8
;
_journal_coden_Cambridge 1220
_journal_volume 20
_journal_year 2014
_journal_page_first 6707
_journal_name_full 'Chem.-Eur.J. '
loop_
_publ_author_name
"Ping Yin"
"D.A.Parrish"
"J.M.Shreeve"
_chemical_name_systematic
;
1,1'-Diazene-1,2-diylbis(2,4-dinitro-1H-imidazole)
;
_cell_volume    620.778
_exptl_crystal_colour 'colorless'
_exptl_crystal_density_diffrn 1.831
_exptl_crystal_description 'block'
_diffrn_ambient_temperature 173.0
#These two values have been output from a single CSD field.
_refine_ls_R_factor_gt 0.0303
_refine_ls_wR_factor_gt 0.0303
_symmetry_cell_setting monoclinic
_symmetry_space_group_name_H-M 'P 21/c'
_symmetry_Int_Tables_number 14
loop_
_symmetry_equiv_pos_site_id
_symmetry_equiv_pos_as_xyz
1 x,y,z
2 -x,1/2+y,1/2-z
3 -x,-y,-z
4 x,-1/2-y,-1/2+z
_cell_length_a 6.6320(1)
_cell_length_b 9.8231(1)
_cell_length_c 9.8467(1)
_cell_angle_alpha 90
_cell_angle_beta 104.596(1)
_cell_angle_gamma 90
_cell_formula_units_Z 2
loop_
_atom_type_symbol
_atom_type_radius_bond
C 0.68
H 0.23
N 0.68
O 0.68
loop_
_atom_site_label
_atom_site_type_symbol
_atom_site_fract_x
_atom_site_fract_y
_atom_site_fract_z
O1 O -0.20841(17) 0.50312(12) 0.27567(12)
O2 O -0.08499(16) 0.63724(11) 0.45176(10)
O3 O 0.57754(14) 0.86297(10) 0.40492(10)
O4 O 0.64588(16) 0.81319(11) 0.20596(10)
N1 N -0.02782(16) 0.50387(10) 0.05544(11)
N2 N 0.10951(15) 0.58765(10) 0.14912(10)
N3 N 0.23652(16) 0.70349(11) 0.34663(11)
N4 N -0.08186(17) 0.58454(11) 0.34010(11)
N5 N 0.54081(16) 0.80396(11) 0.29178(11)
C1 C 0.08856(19) 0.62478(13) 0.28017(12)
C2 C 0.28889(18) 0.64857(12) 0.13310(12)
H1 H 0.34900 0.64370 0.05530
C3 C 0.35922(18) 0.71745(12) 0.25566(13)
O1B O 0.20841(17) 0.49688(12) -0.27567(12)
O2B O 0.08499(16) 0.36276(11) -0.45176(10)
O3B O -0.57754(14) 0.13703(10) -0.40492(10)
O4B O -0.64588(16) 0.18681(11) -0.20596(10)
N1B N 0.02782(16) 0.49613(10) -0.05544(11)
N2B N -0.10951(15) 0.41235(10) -0.14912(10)
N3B N -0.23652(16) 0.29651(11) -0.34663(11)
N4B N 0.08186(17) 0.41546(11) -0.34010(11)
N5B N -0.54081(16) 0.19604(11) -0.29178(11)
C1B C -0.08856(19) 0.37522(13) -0.28017(12)
C2B C -0.28889(18) 0.35143(12) -0.13310(12)
H1B H -0.34900 0.35630 -0.05530
C3B C -0.35922(18) 0.28255(12) -0.25566(13)
#END
