
#######################################################################
#
#                 Cambridge Crystallographic Data Centre
#                                CCDC
#
#######################################################################
#
# If this CIF has been generated from an entry in the Cambridge
# Structural Database, then it will include bibliographic, chemical,
# crystal, experimental, refinement or atomic coordinate data resulting
# from the CCDC's data processing and validation procedures.
#
#######################################################################

data_CSD_CIF_COGHOX
_audit_creation_date 2014-04-25
_audit_creation_method CSD-ConQuest-V1
_database_code_CSD COGHOX
_database_code_depnum_ccdc_archive 'CCDC 989899'
_chemical_formula_sum 'C23 H22 N2 O7'
_chemical_formula_moiety
;
C23 H22 N2 O7
;
_journal_coden_Cambridge 179
_journal_volume 53
_journal_year 2014
_journal_page_first 5964
_journal_name_full 'Angew.Chem.,Int.Ed. '
loop_
_publ_author_name
"S.Chakrabarty"
"I.Chatterjee"
"Birgit Wibbeling"
"C.G.Daniliuc"
"A.Studer"
_chemical_name_systematic
;
diethyl 
5-(1,3-dioxo-1,3-dihydro-2H-isoindol-2-yl)-2-phenyl-1,2-oxazolidine-3,3-dicarb
oxylate
;
_cell_volume   2184.278
_exptl_crystal_colour 'colorless'
_exptl_crystal_density_diffrn 1.333
_exptl_crystal_description 'plate'
_diffrn_ambient_temperature 223
#These two values have been output from a single CSD field.
_refine_ls_R_factor_gt 0.0523
_refine_ls_wR_factor_gt 0.0523
_symmetry_cell_setting monoclinic
_symmetry_space_group_name_H-M 'P 21/c'
_symmetry_Int_Tables_number 14
loop_
_symmetry_equiv_pos_site_id
_symmetry_equiv_pos_as_xyz
1 x,y,z
2 -x,1/2+y,1/2-z
3 -x,-y,-z
4 x,-1/2-y,-1/2+z
_cell_length_a 13.5403(2)
_cell_length_b 8.3749(1)
_cell_length_c 20.2887(4)
_cell_angle_alpha 90
_cell_angle_beta 108.306(1)
_cell_angle_gamma 90
_cell_formula_units_Z 4
loop_
_atom_type_symbol
_atom_type_radius_bond
C 0.68
H 0.23
N 0.68
O 0.68
loop_
_atom_site_label
_atom_site_type_symbol
_atom_site_fract_x
_atom_site_fract_y
_atom_site_fract_z
O1 O 0.41398(9) 0.46536(16) 0.35092(7)
O2 O 0.40449(10) 0.02325(17) 0.31932(8)
O3 O 0.64665(12) 0.35211(18) 0.46461(8)
O4 O 0.18983(10) 0.14745(17) 0.24064(8)
O5 O 0.27842(11) 0.14478(19) 0.16356(8)
O6 O 0.33232(12) 0.59286(18) 0.18332(8)
O7 O 0.17876(11) 0.46748(18) 0.16009(8)
N1 N 0.31294(11) 0.39178(18) 0.31497(8)
N2 N 0.51306(12) 0.22419(18) 0.38149(8)
C1 C 0.32064(14) 0.3486(2) 0.24507(10)
C2 C 0.43813(14) 0.3225(3) 0.25907(10)
H1 H 0.45270 0.21170 0.24970
H2 H 0.46480 0.39360 0.23020
C3 C 0.48623(14) 0.3621(2) 0.33545(11)
H3 H 0.55080 0.42340 0.34080
C4 C 0.47636(14) 0.0664(2) 0.36831(10)
C5 C 0.54437(15) -0.0315(2) 0.42557(10)
C6 C 0.54305(17) -0.1941(3) 0.43782(12)
H4 H 0.49420 -0.26190 0.40740
C7 C 0.61684(19) -0.2525(3) 0.49688(13)
H5 H 0.61780 -0.36220 0.50690
C8 C 0.6888(2) -0.1534(3) 0.54118(13)
H6 H 0.73760 -0.19680 0.58090
C9 C 0.69075(18) 0.0095(3) 0.52851(11)
H7 H 0.74000 0.07730 0.55860
C10 C 0.61716(15) 0.0667(2) 0.46983(10)
C11 C 0.59902(15) 0.2317(2) 0.44229(10)
C12 C 0.25469(14) 0.2008(2) 0.21841(10)
C13 C 0.2130(2) 0.0164(3) 0.12518(16)
H8 H 0.17990 -0.03900 0.15520
H9 H 0.25570 -0.06110 0.11010
C14 C 0.1329(3) 0.0821(6) 0.0643(2)
H10 H 0.08850 0.15440 0.07960
H11 H 0.09130 -0.00430 0.03780
H12 H 0.16600 0.13960 0.03540
C15 C 0.28029(15) 0.4837(2) 0.19198(10)
C16 C 0.1275(2) 0.5948(4) 0.11308(17)
H13 H 0.14260 0.58470 0.06910
H14 H 0.15330 0.69870 0.13350
C17 C 0.0158(2) 0.5843(5) 0.1007(2)
H15 H -0.00970 0.48290 0.07870
H16 H -0.01880 0.67090 0.07050
H17 H 0.00150 0.59190 0.14450
C18 C 0.23408(14) 0.5077(2) 0.31575(10)
C19 C 0.13933(15) 0.4471(3) 0.31689(11)
H18 H 0.13030 0.33630 0.31980
C20 C 0.05818(17) 0.5502(3) 0.31372(13)
H19 H -0.00640 0.50920 0.31370
C21 C 0.07163(18) 0.7129(3) 0.31059(13)
H20 H 0.01630 0.78270 0.30840
C22 C 0.16666(18) 0.7732(3) 0.31072(12)
H21 H 0.17590 0.88420 0.30910
C23 C 0.24847(16) 0.6714(2) 0.31319(11)
H22 H 0.31300 0.71280 0.31310
#END
