
#######################################################################
#
#                 Cambridge Crystallographic Data Centre
#                                CCDC
#
#######################################################################
#
# If this CIF has been generated from an entry in the Cambridge
# Structural Database, then it will include bibliographic, chemical,
# crystal, experimental, refinement or atomic coordinate data resulting
# from the CCDC's data processing and validation procedures.
#
#######################################################################

data_CSD_CIF_COGMUH
_audit_creation_date 2009-01-23
_audit_creation_method CSD-ConQuest-V1
_database_code_CSD COGMUH
_database_code_depnum_ccdc_archive 'CCDC 681202'
_chemical_formula_sum 'C15 H19 N1 O7'
_chemical_formula_moiety
;
C15 H19 N1 O7
;
_journal_coden_Cambridge 182
_journal_year 2008
_journal_page_first 3549
_journal_name_full 'Chem.Commun. '
loop_
_publ_author_name
"A.Adibekian"
"M.S.M.Timmer"
"P.Stallforth"
"J.van Rijn"
"D.B.Werz"
"P.H.Seeberger"
_chemical_name_systematic
;
Ethyl 4,6-O-benzylidene-2-deoxy-2-nitro-\a-D-glucopyranoside
;
_chemical_melting_point 430.15
_cell_volume   1554.280
_exptl_crystal_colour 'colorless'
_exptl_crystal_density_diffrn 1.39
_exptl_crystal_preparation 'ethyl acetate/hexanes'
_diffrn_ambient_temperature 203
#These two values have been output from a single CSD field.
_refine_ls_R_factor_gt 0.0445
_refine_ls_wR_factor_gt 0.0445
_symmetry_cell_setting monoclinic
_symmetry_space_group_name_H-M 'C 2'
_symmetry_Int_Tables_number 5
loop_
_symmetry_equiv_pos_site_id
_symmetry_equiv_pos_as_xyz
1 x,y,z
2 -x,y,-z
3 1/2+x,1/2+y,z
4 1/2-x,1/2+y,-z
_cell_length_a 26.1806(4)
_cell_length_b 4.7874(9)
_cell_length_c 12.9169(2)
_cell_angle_alpha 90
_cell_angle_beta 106.251(6)
_cell_angle_gamma 90
_cell_formula_units_Z 4
loop_
_atom_type_symbol
_atom_type_radius_bond
C 0.68
H 0.23
N 0.68
O 0.68
loop_
_atom_site_label
_atom_site_type_symbol
_atom_site_fract_x
_atom_site_fract_y
_atom_site_fract_z
C1 C 0.76168(17) -0.0258(11) 0.2887(4)
H1 H 0.74770 -0.19580 0.31490
C2 C 0.7992(2) -0.1192(12) 0.2219(4)
H2 H 0.78120 -0.26490 0.17010
O1 O 0.84679(12) -0.2335(7) 0.2921(3)
C3 C 0.87331(17) -0.0420(11) 0.3745(4)
H3 H 0.88090 0.13480 0.34190
C4 C 0.83827(16) 0.0132(12) 0.4473(4)
H4 H 0.82970 -0.16610 0.47690
C5 C 0.78737(16) 0.1543(11) 0.3857(4)
H5 H 0.79520 0.34200 0.36180
C6 C 0.92474(18) -0.1738(12) 0.4416(4)
H6 H 0.91750 -0.35500 0.46980
H7 H 0.94920 -0.20290 0.39730
O2 O 0.94794(11) 0.0148(8) 0.5291(3)
C7 C 0.91383(17) 0.0634(12) 0.5949(4)
H8 H 0.90580 -0.11550 0.62550
O3 O 0.86545(12) 0.1925(7) 0.5347(2)
O4 O 0.75035(11) 0.1767(7) 0.4484(2)
H9 H 0.75240 0.33490 0.47550
N1 N 0.71527(17) 0.1225(11) 0.2108(4)
O5 O 0.70790(15) 0.3690(9) 0.2231(3)
O6 O 0.68797(14) -0.0203(9) 0.1374(3)
O7 O 0.80852(14) 0.1128(9) 0.1648(3)
C8 C 0.8220(3) 0.042(2) 0.0659(5)
H10 H 0.81190 -0.15220 0.04740
H11 H 0.80080 0.15990 0.00750
C9 C 0.8750(3) 0.074(3) 0.0707(6)
H12 H 0.88030 0.02610 0.00150
H13 H 0.89650 -0.04750 0.12600
H14 H 0.88560 0.26690 0.08790
C10 C 0.94045(19) 0.2604(12) 0.6847(4)
C11 C 0.9897(2) 0.3779(13) 0.6903(4)
H15 H 1.00750 0.33190 0.63870
C12 C 1.0122(2) 0.5633(15) 0.7726(4)
H16 H 1.04560 0.64210 0.77650
C13 C 0.9869(2) 0.6347(16) 0.8487(5)
H17 H 1.00250 0.76340 0.90340
C14 C 0.9382(2) 0.5146(18) 0.8440(5)
H18 H 0.92070 0.56000 0.89600
C15 C 0.9152(2) 0.3262(15) 0.7618(5)
H19 H 0.88230 0.24350 0.75910
#END
