
#######################################################################
#
#                 Cambridge Crystallographic Data Centre
#                                CCDC
#
#######################################################################
#
# If this CIF has been generated from an entry in the Cambridge
# Structural Database, then it will include bibliographic, chemical,
# crystal, experimental, refinement or atomic coordinate data resulting
# from the CCDC's data processing and validation procedures.
#
#######################################################################

data_CSD_CIF_COGPIZ
_audit_creation_date 2014-04-25
_audit_creation_method CSD-ConQuest-V1
_database_code_CSD COGPIZ
_database_code_depnum_ccdc_archive 'CCDC 997774'
_chemical_formula_sum 'C15 H15 N3 O3'
_chemical_formula_moiety
;
C15 H15 N3 O3
;
_journal_coeditor_code "IUCr su2709"
_journal_coden_Cambridge 1370
_journal_volume 70
_journal_year 2014
_journal_page_first o598
_journal_name_full 'Acta Crystallogr.,Sect.E:Struct.Rep.Online '
loop_
_publ_author_name
"Y.Hijji"
"R.J.Butcher"
"J.P.Jasinski"
_chemical_name_systematic
;
(E)-2-((4-(Dimethylamino)benzylidene)amino)-5-nitrophenol
;
_cell_volume   1322.388
_exptl_crystal_colour 'yellow brown'
_exptl_crystal_density_diffrn 1.433
_exptl_crystal_description 'block'
_diffrn_ambient_temperature 123
_diffrn_special_details
;
twin

;
#These two values have been output from a single CSD field.
_refine_ls_R_factor_gt 0.0413
_refine_ls_wR_factor_gt 0.0413
_symmetry_cell_setting triclinic
_symmetry_space_group_name_H-M 'P -1'
_symmetry_Int_Tables_number 2
loop_
_symmetry_equiv_pos_site_id
_symmetry_equiv_pos_as_xyz
1 x,y,z
2 -x,-y,-z
_cell_length_a 6.1435(3)
_cell_length_b 14.3844(8)
_cell_length_c 15.8516(9)
_cell_angle_alpha 108.038(5)
_cell_angle_beta 91.258(4)
_cell_angle_gamma 96.033(4)
_cell_formula_units_Z 4
loop_
_atom_type_symbol
_atom_type_radius_bond
C 0.68
H 0.23
N 0.68
O 0.68
loop_
_atom_site_label
_atom_site_type_symbol
_atom_site_fract_x
_atom_site_fract_y
_atom_site_fract_z
O1 O 1.00034(17) 0.44325(8) 0.56033(7)
H1 H 0.918(4) 0.4353(16) 0.5142(16)
O2 O 1.05386(18) 0.41323(9) 0.86286(8)
O3 O 0.7307(2) 0.35008(10) 0.88265(8)
N1 N 0.8610(2) 0.38209(9) 0.83748(8)
N2 N 0.60070(19) 0.38449(8) 0.49667(8)
N3 N 0.22830(19) 0.38081(9) 0.11251(8)
C1 C 0.8619(2) 0.41242(10) 0.61406(10)
C2 C 0.9351(2) 0.41382(10) 0.69739(10)
H2 H 1.08320 0.43630 0.71850
C3 C 0.7849(2) 0.38121(10) 0.74952(9)
C4 C 0.5674(2) 0.34761(10) 0.72071(10)
H3 H 0.46880 0.32590 0.75790
C5 C 0.4968(2) 0.34643(10) 0.63666(10)
H4 H 0.34870 0.32320 0.61600
C6 C 0.6411(2) 0.37909(9) 0.58198(9)
C7 C 0.4114(2) 0.35695(9) 0.45511(9)
H5 H 0.29490 0.33220 0.48360
C8 C 0.3686(2) 0.36216(9) 0.36702(9)
C9 C 0.1576(2) 0.3322(1) 0.32528(10)
H6 H 0.04450 0.30810 0.35570
C10 C 0.1101(2) 0.3368(1) 0.24159(10)
H7 H -0.03440 0.31580 0.21530
C11 C 0.2740(2) 0.37246(10) 0.19399(9)
C12 C 0.4886(2) 0.40115(10) 0.23598(10)
H8 H 0.60330 0.42390 0.20540
C13 C 0.5328(2) 0.39655(10) 0.31967(9)
H9 H 0.67720 0.41700 0.34630
C14 C 0.4024(3) 0.40912(13) 0.06081(10)
H10 H 0.47980 0.47330 0.09510
H11 H 0.33830 0.41330 0.00510
H12 H 0.50580 0.35970 0.04760
C15 C 0.0107(2) 0.34709(12) 0.06894(10)
H13 H -0.09820 0.38110 0.10740
H14 H -0.02130 0.27600 0.05760
H15 H 0.00500 0.36150 0.01250
O4 O 0.52861(17) 0.06146(8) 0.59158(7)
H16 H 0.449(3) 0.0669(15) 0.5502(15)
O5 O 0.62214(19) 0.12261(10) 0.91582(8)
O6 O 0.3155(2) 0.17004(9) 0.96784(8)
N4 N 0.4363(2) 0.14478(9) 0.90623(9)
N5 N 0.16151(19) 0.12088(8) 0.55922(8)
N6 N -0.22861(19) 0.09965(9) 0.17216(8)
C16 C 0.4096(2) 0.09763(9) 0.66287(9)
C17 C 0.4863(2) 0.10243(10) 0.7469(1)
H17 H 0.62310 0.08080 0.75620
C18 C 0.3569(2) 0.13995(10) 0.81726(9)
C19 C 0.1556(2) 0.17232(10) 0.80674(10)
H18 H 0.07030 0.19700 0.85630
C20 C 0.0825(2) 0.16755(10) 0.72168(10)
H19 H -0.05400 0.18980 0.71310
C21 C 0.2071(2) 0.13050(9) 0.64878(9)
C22 C -0.0179(2) 0.14324(9) 0.53189(9)
H20 H -0.12180 0.16830 0.57410
C23 C -0.0682(2) 0.13184(9) 0.43956(9)
C24 C -0.2682(2) 0.15614(9) 0.41343(10)
H21 H -0.36870 0.18060 0.45730
C25 C -0.3238(2) 0.14565(10) 0.32598(9)
H22 H -0.46130 0.16260 0.31070
C26 C -0.1782(2) 0.10990(9) 0.25881(9)
C27 C 0.0245(2) 0.0844(1) 0.28521(10)
H23 H 0.12550 0.05970 0.24160
C28 C 0.0761(2) 0.09487(10) 0.37254(10)
H24 H 0.21200 0.07680 0.38820
C29 C -0.0722(3) 0.06855(12) 0.10417(10)
H25 H -0.02770 0.00510 0.10430
H26 H 0.05700 0.11790 0.11670
H27 H -0.14060 0.06170 0.04580
C30 C -0.4374(2) 0.12439(12) 0.14568(10)
H28 H -0.45640 0.19190 0.18100
H29 H -0.55670 0.07880 0.15560
H30 H -0.43980 0.11920 0.08250
#END
