
#######################################################################
#
#                 Cambridge Crystallographic Data Centre
#                                CCDC
#
#######################################################################
#
# If this CIF has been generated from an entry in the Cambridge
# Structural Database, then it will include bibliographic, chemical,
# crystal, experimental, refinement or atomic coordinate data resulting
# from the CCDC's data processing and validation procedures.
#
#######################################################################

data_CSD_CIF_COHTOK
_audit_creation_date 2014-09-05
_audit_creation_method CSD-ConQuest-V1
_database_code_CSD COHTOK
_database_code_depnum_ccdc_archive 'CCDC 993443'
_chemical_formula_sum 'C39 H53 N1 O4'
_chemical_formula_moiety
;
C39 H53 N1 O4
;
_journal_coden_Cambridge 6
_journal_volume 513
_journal_year 2014
_journal_page_first 183
_journal_name_full 'Nature (London) '
loop_
_publ_author_name
"M.Burns"
"S.Essafi"
"J.R.Bame"
"S.P.Bull"
"M.P.Webster"
"S.Balieu"
"J.W.Dale"
"C.P.Butts"
"J.N.Harvey"
"V.K.Aggarwal"
_chemical_name_systematic
;
(2S,3R,4S,5R,6S,7R,8R,9S,10R,11S)-11-([1,1'-Biphenyl]-4-yl)-3,4,5,6,7,8,9,10-o
ctamethyldodecan-2-yl 4-nitrobenzoate
;
_chemical_melting_point 420
_cell_volume   1684.904
_exptl_crystal_colour 'colorless'
_exptl_crystal_density_diffrn 1.182
_exptl_special_details
;
Melting point range 420-422K

;
_exptl_crystal_description 'block'
_exptl_crystal_preparation 'diethyl ether/isopropanol'
_diffrn_ambient_temperature 100
#These two values have been output from a single CSD field.
_refine_ls_R_factor_gt 0.0284
_refine_ls_wR_factor_gt 0.0284
loop_
_citation_database_id_CSD
_citation_special_details
COHTIE "is a stereoisomer of this entry"
_symmetry_cell_setting monoclinic
_symmetry_space_group_name_H-M 'P 21'
_symmetry_Int_Tables_number 4
loop_
_symmetry_equiv_pos_site_id
_symmetry_equiv_pos_as_xyz
1 x,y,z
2 -x,1/2+y,-z
_cell_length_a 10.061(3)
_cell_length_b 11.381(3)
_cell_length_c 15.546(4)
_cell_angle_alpha 90
_cell_angle_beta 108.821(5)
_cell_angle_gamma 90
_cell_formula_units_Z 2
loop_
_atom_type_symbol
_atom_type_radius_bond
C 0.68
H 0.23
N 0.68
O 0.68
loop_
_atom_site_label
_atom_site_type_symbol
_atom_site_fract_x
_atom_site_fract_y
_atom_site_fract_z
O1 O -1.15612(14) 0.41847(15) -0.39396(9)
O2 O -1.17377(14) 0.60768(15) -0.3856(1)
O3 O -0.47493(11) 0.44192(12) -0.11555(8)
O4 O -0.49526(12) 0.63592(13) -0.09206(8)
N1 N -1.10690(15) 0.51562(17) -0.36868(9)
C1 C 1.2727(2) 0.5880(2) 0.54361(13)
H1 H 1.22810 0.65380 0.56010
C2 C 1.4181(2) 0.5785(3) 0.57667(15)
H2 H 1.47180 0.63740 0.61600
C3 C 1.4851(2) 0.4843(2) 0.55300(14)
H3 H 1.58460 0.47880 0.57500
C4 C 1.4061(2) 0.3980(2) 0.49697(13)
H4 H 1.45160 0.33250 0.48080
C5 C 1.26074(19) 0.40620(19) 0.46418(12)
H5 H 1.20750 0.34600 0.42610
C6 C 1.19187(18) 0.50225(19) 0.48666(11)
C7 C 1.03564(18) 0.51422(19) 0.44927(10)
C8 C 0.97131(19) 0.62381(19) 0.43494(11)
H6 H 1.02770 0.69250 0.45060
C9 C 0.82605(19) 0.63526(19) 0.39807(12)
H7 H 0.78540 0.71150 0.39030
C10 C 0.73929(17) 0.53752(18) 0.37245(10)
C11 C 0.80478(18) 0.42695(19) 0.38788(11)
H8 H 0.74860 0.35820 0.37200
C12 C 0.94924(18) 0.41543(19) 0.42568(11)
H9 H 0.98990 0.33930 0.43570
C13 C 0.58143(16) 0.54412(18) 0.32552(11)
H10 H 0.53830 0.47950 0.35120
C14 C 0.54908(16) 0.51710(17) 0.22234(10)
H11 H 0.59560 0.44070 0.21800
C15 C 0.39058(16) 0.50320(17) 0.1675(1)
H12 H 0.34950 0.58400 0.15670
C16 C 0.30387(16) 0.43221(17) 0.21567(10)
H13 H 0.31710 0.47060 0.27570
C17 C 0.14326(16) 0.43300(17) 0.16212(10)
H14 H 0.13090 0.39560 0.10180
C18 C 0.07795(16) 0.55795(16) 0.14287(11)
H15 H 0.14120 0.60640 0.11900
C19 C -0.07090(16) 0.56013(16) 0.06969(11)
H16 H -0.13510 0.51580 0.09550
C20 C -0.07783(16) 0.49860(18) -0.02097(10)
H17 H -0.04210 0.41670 -0.00550
C21 C -0.22804(17) 0.48896(18) -0.09035(11)
H18 H -0.25910 0.57020 -0.11220
C22 C -0.33378(16) 0.44035(17) -0.04735(11)
H19 H -0.33390 0.49200 0.00470
C23 C -0.54277(16) 0.54476(17) -0.12921(11)
C24 C -0.68784(16) 0.53422(18) -0.19601(11)
C25 C -0.74831(18) 0.42529(19) -0.22570(12)
H20 H -0.69550 0.35540 -0.20600
C26 C -0.88554(19) 0.41861(19) -0.28398(12)
H21 H -0.92830 0.34490 -0.30450
C27 C -0.95800(17) 0.52205(19) -0.31121(10)
C28 C -0.89960(18) 0.63161(19) -0.28483(11)
H22 H -0.95180 0.70120 -0.30640
C29 C -0.76305(18) 0.63717(18) -0.22615(11)
H23 H -0.72070 0.71130 -0.20640
C30 C 0.51732(19) 0.6590(2) 0.34370(13)
H24 H 0.53930 0.66970 0.40940
H25 H 0.41520 0.65650 0.31470
H26 H 0.55630 0.72460 0.31870
C31 C 0.61451(18) 0.61093(19) 0.17739(12)
H27 H 0.71370 0.62120 0.21310
H28 H 0.56480 0.68560 0.17480
H29 H 0.60680 0.58590 0.11560
C32 C 0.37840(18) 0.4510(2) 0.07385(12)
H30 H 0.43050 0.37680 0.08210
H31 H 0.41760 0.50640 0.04020
H32 H 0.27940 0.43640 0.03970
C33 C 0.35812(18) 0.30555(18) 0.23468(12)
H33 H 0.32990 0.26070 0.17780
H34 H 0.31830 0.26890 0.27790
H35 H 0.46080 0.30620 0.26050
C34 C 0.06270(18) 0.35740(18) 0.20993(12)
H36 H 0.07960 0.38680 0.27180
H37 H 0.09490 0.27580 0.21250
H38 H -0.03800 0.36110 0.17610
C35 C 0.07343(18) 0.61661(18) 0.23087(11)
H39 H -0.00520 0.58450 0.24760
H40 H 0.06100 0.70160 0.22130
H41 H 0.16160 0.60120 0.27980
C36 C -0.12699(19) 0.68619(18) 0.05288(13)
H42 H -0.13290 0.71940 0.10970
H43 H -0.22050 0.68570 0.00710
H44 H -0.06340 0.73400 0.03110
C37 C 0.01819(19) 0.5585(2) -0.06684(12)
H45 H 0.03040 0.50690 -0.11420
H46 H 0.10980 0.57420 -0.02140
H47 H -0.02430 0.63280 -0.09420
C38 C -0.22962(19) 0.4159(2) -0.17372(12)
H48 H -0.17950 0.45840 -0.20870
H49 H -0.32700 0.40240 -0.21200
H50 H -0.18340 0.34020 -0.15370
C39 C -0.31074(19) 0.31449(18) -0.01441(13)
H51 H -0.21950 0.30780 0.03340
H52 H -0.31240 0.26290 -0.06520
H53 H -0.38540 0.29130 0.00990
#END
