
#######################################################################
#
#                 Cambridge Crystallographic Data Centre
#                                CCDC
#
#######################################################################
#
# If this CIF has been generated from an entry in the Cambridge
# Structural Database, then it will include bibliographic, chemical,
# crystal, experimental, refinement or atomic coordinate data resulting
# from the CCDC's data processing and validation procedures.
#
#######################################################################

data_CSD_CIF_COHYEE
_audit_creation_date 2009-01-23
_audit_creation_method CSD-ConQuest-V1
_database_code_CSD COHYEE
_database_code_depnum_ccdc_archive 'CCDC 671491'
_chemical_formula_sum 'C17 H16 N4 O6'
_chemical_formula_moiety
;
C17 H16 N4 O6
;
_journal_coden_Cambridge 4
_journal_volume 130
_journal_year 2008
_journal_page_first 9180
_journal_name_full 'J.Am.Chem.Soc. '
loop_
_publ_author_name
"M.J.Campbell"
"P.D.Pohlhaus"
"G.Min"
"K.Ohmatsu"
"J.S.Johnson"
_chemical_name_systematic
;
Methyl 
2-(2-(2,4-dinitrophenyl)hydrazono)-7-vinylidenebicyclo(4.1.0)heptane-1-carboxy
late
;
_chemical_melting_point 377
_cell_volume    863.212
_exptl_crystal_colour 'yellow'
_exptl_crystal_density_diffrn 1.433
_exptl_special_details
;
Melting point range 377-392K

;
_exptl_crystal_description 'plate'
_exptl_crystal_preparation 'aqueous ethanol'
_diffrn_ambient_temperature 100
#These two values have been output from a single CSD field.
_refine_ls_R_factor_gt 0.03
_refine_ls_wR_factor_gt 0.03
_symmetry_cell_setting triclinic
_symmetry_space_group_name_H-M 'P -1'
_symmetry_Int_Tables_number 2
loop_
_symmetry_equiv_pos_site_id
_symmetry_equiv_pos_as_xyz
1 x,y,z
2 -x,-y,-z
_cell_length_a 7.3557(2)
_cell_length_b 8.7509(2)
_cell_length_c 13.5113(3)
_cell_angle_alpha 83.025(1)
_cell_angle_beta 89.369(1)
_cell_angle_gamma 89.672(1)
_cell_formula_units_Z 2
loop_
_atom_type_symbol
_atom_type_radius_bond
C 0.68
H 0.23
N 0.68
O 0.68
loop_
_atom_site_label
_atom_site_type_symbol
_atom_site_fract_x
_atom_site_fract_y
_atom_site_fract_z
O1 O 0.70084(16) 0.57146(12) 0.32439(7)
N1 N 0.60766(15) 0.65996(12) 0.26669(8)
O2 O 0.50877(14) 0.7579(1) 0.29645(7)
C1 C 0.61948(17) 0.64785(13) 0.16089(9)
C2 C 0.51472(17) 0.75180(13) 0.09976(9)
C3 C 0.52619(16) 0.75100(13) -0.00138(9)
N2 N 0.41856(14) 0.86280(11) -0.06523(8)
O3 O 0.30524(12) 0.9399(1) -0.02526(7)
O4 O 0.44799(13) 0.87575(10) -0.15564(6)
C4 C 0.64212(17) 0.64981(13) -0.04443(9)
C5 C 0.74249(16) 0.54532(13) 0.01596(9)
C6 C 0.73343(16) 0.53778(13) 0.12103(9)
N3 N 0.83106(14) 0.43033(11) 0.17935(8)
N4 N 0.90837(13) 0.30911(11) 0.13685(7)
C7 C 0.99927(16) 0.21238(13) 0.19617(9)
C8 C 1.06740(18) 0.06787(14) 0.15924(10)
C9 C 0.99531(19) -0.07116(14) 0.22877(11)
C10 C 1.07414(19) -0.07474(14) 0.33311(10)
C11 C 1.05640(17) 0.07663(14) 0.37608(9)
C12 C 1.03003(16) 0.22835(13) 0.30396(9)
C13 C 0.88447(17) 0.16243(13) 0.37542(9)
C14 C 0.71650(17) 0.16937(14) 0.40134(9)
C15 C 0.5461(2) 0.17237(17) 0.42841(13)
C16 C 1.14107(16) 0.36476(13) 0.32345(9)
O5 O 1.23292(13) 0.43813(11) 0.26057(6)
O6 O 1.12949(12) 0.39261(10) 0.41792(6)
C17 C 1.23822(19) 0.52141(15) 0.44101(10)
H1 H 0.440(2) 0.8208(18) 0.1293(12)
H2 H 0.6480(19) 0.6492(16) -0.1140(11)
H3 H 0.820(2) 0.4733(17) -0.0136(11)
H4 H 0.816(2) 0.4250(18) 0.2441(13)
H5 H 1.030(2) 0.0663(16) 0.0915(11)
H6 H 1.201(2) 0.0663(18) 0.1609(11)
H7 H 0.866(2) -0.0653(18) 0.2313(12)
H8 H 1.033(2) -0.166(2) 0.1996(12)
H9 H 1.014(2) -0.1542(19) 0.3797(12)
H10 H 1.202(2) -0.1000(17) 0.3300(11)
H11 H 1.132(2) 0.0879(17) 0.4324(12)
H12 H 0.505(2) 0.226(2) 0.4858(14)
H13 H 0.462(3) 0.126(2) 0.3901(15)
H14 H 1.211(2) 0.535(2) 0.5090(14)
H15 H 1.366(3) 0.496(2) 0.4335(13)
H16 H 1.210(2) 0.611(2) 0.3961(13)
#END
