
#######################################################################
#
#                 Cambridge Crystallographic Data Centre
#                                CCDC
#
#######################################################################
#
# If this CIF has been generated from an entry in the Cambridge
# Structural Database, then it will include bibliographic, chemical,
# crystal, experimental, refinement or atomic coordinate data resulting
# from the CCDC's data processing and validation procedures.
#
#######################################################################

data_CSD_CIF_COJWAZ
_audit_creation_date 2000-05-03
_audit_creation_method CSD-ConQuest-V1
_database_code_CSD COJWAZ
_chemical_formula_sum 'C21 H21 N1 O3'
_chemical_formula_moiety
;
C21 H21 N1 O3
;
_journal_coden_Cambridge 456
_journal_volume 73
_journal_year 1999
_journal_page_first 727
_journal_name_full 'Pol.J.Chem. '
loop_
_publ_author_name
"R.Anulewicz-Ostrowska"
"E.Pietka"
"T.M.Krygowski"
"P.Micuch"
"L.Fisera"
_chemical_name_systematic
;
3-(2,4,6-Trimethylphenyl)-8-phenyl-6-oxo-1,7-dioxa-2-azaspiro(4.4)non-2-ene
;
_cell_volume   3561.379
_exptl_crystal_density_diffrn 1.251
_exptl_crystal_preparation 'hexane/ethanol 2'
_diffrn_ambient_temperature ?
_diffrn_special_details
;
The study was carried out at room temperature,in the range 283-303K

;
#These two values have been output from a single CSD field.
_refine_ls_R_factor_gt 0.0658
_refine_ls_wR_factor_gt 0.0658
_symmetry_cell_setting monoclinic
_symmetry_space_group_name_H-M 'C 2/c'
_symmetry_Int_Tables_number 15
loop_
_symmetry_equiv_pos_site_id
_symmetry_equiv_pos_as_xyz
1 x,y,z
2 -x,y,1/2-z
3 1/2+x,1/2+y,z
4 1/2-x,1/2+y,1/2-z
5 -x,-y,-z
6 x,-y,-1/2+z
7 -1/2-x,-1/2-y,-z
8 -1/2+x,-1/2-y,-1/2+z
_cell_length_a 20.969(4)
_cell_length_b 10.319(2)
_cell_length_c 16.601(3)
_cell_angle_alpha 90
_cell_angle_beta 97.50(3)
_cell_angle_gamma 90
_cell_formula_units_Z 8
loop_
_atom_type_symbol
_atom_type_radius_bond
C 0.68
N 0.68
O 0.68
loop_
_atom_site_label
_atom_site_type_symbol
_atom_site_fract_x
_atom_site_fract_y
_atom_site_fract_z
C1 C 0.1361(1) -0.1496(2) 0.5169(2)
C2 C 0.1688(2) -0.0194(3) 0.5125(2)
C3 C 0.2280(1) -0.0367(2) 0.5722(1)
N1 N 0.2340(1) -0.1498(2) 0.6034(1)
O1 O 0.1822(1) -0.2284(2) 0.5697(1)
C4 C 0.1119(1) -0.2236(3) 0.4410(2)
C5 C 0.0596(1) -0.3087(2) 0.4672(2)
O2 O 0.0337(1) -0.2318(2) 0.5299(1)
C6 C 0.0764(2) -0.1422(3) 0.5594(2)
O3 O 0.0664(2) -0.0689(3) 0.6122(2)
C7 C 0.2751(1) 0.0664(2) 0.5993(1)
C8 C 0.3154(1) 0.1150(2) 0.5457(1)
C9 C 0.3605(1) 0.2078(2) 0.5738(2)
C10 C 0.3650(1) 0.2574(2) 0.6518(2)
C11 C 0.3232(1) 0.2108(2) 0.7026(1)
C12 C 0.2784(1) 0.1147(2) 0.6785(1)
C13 C 0.3101(2) 0.0710(3) 0.4582(2)
C14 C 0.4142(2) 0.3586(4) 0.6807(2)
C15 C 0.2356(1) 0.0642(3) 0.7381(2)
C16 C 0.0054(1) -0.3428(2) 0.4025(1)
C17 C -0.0323(1) -0.2491(3) 0.3612(2)
C18 C -0.0802(2) -0.2837(5) 0.3007(2)
C19 C -0.0906(2) -0.4128(5) 0.2805(2)
C20 C -0.0540(2) -0.5046(4) 0.3215(2)
C21 C -0.0059(1) -0.4713(3) 0.3827(2)
#END
