
#######################################################################
#
#                 Cambridge Crystallographic Data Centre
#                                CCDC
#
#######################################################################
#
# If this CIF has been generated from an entry in the Cambridge
# Structural Database, then it will include bibliographic, chemical,
# crystal, experimental, refinement or atomic coordinate data resulting
# from the CCDC's data processing and validation procedures.
#
#######################################################################

data_CSD_CIF_COJXOQ
_audit_creation_date 2014-09-08
_audit_creation_method CSD-ConQuest-V1
_database_code_CSD COJXOQ
_database_code_depnum_ccdc_archive 'CCDC 901753'
_chemical_formula_sum 'C12 H13 N3 O3'
_chemical_formula_moiety
;
C12 H13 N3 O3
;
_journal_coden_Cambridge 781
_journal_volume 11
_journal_year 2014
_journal_page_first 174
_journal_name_full 'Lett.Org.Chem. '
loop_
_publ_author_name
"H.Alliouche"
"A.Bouraiou"
"S.Bouacida"
"M.Bahnous"
"T.Roisnel"
"A.Belfaitah"
_chemical_name_systematic
;
2-(1-methyl-5-nitro-1H-imidazol-2-yl)-1-phenylethanol
;
_cell_volume   1159.825
_exptl_crystal_colour 'colorless'
_exptl_crystal_density_diffrn 1.416
_exptl_crystal_description 'prism'
_diffrn_ambient_temperature 150
#These two values have been output from a single CSD field.
_refine_ls_R_factor_gt 0.0397
_refine_ls_wR_factor_gt 0.0397
_symmetry_cell_setting monoclinic
_symmetry_space_group_name_H-M 'P 21/n'
_symmetry_Int_Tables_number 14
loop_
_symmetry_equiv_pos_site_id
_symmetry_equiv_pos_as_xyz
1 x,y,z
2 1/2-x,1/2+y,1/2-z
3 -x,-y,-z
4 -1/2+x,-1/2-y,-1/2+z
_cell_length_a 7.5076(5)
_cell_length_b 10.1643(6)
_cell_length_c 15.2589(9)
_cell_angle_alpha 90
_cell_angle_beta 95.080(2)
_cell_angle_gamma 90
_cell_formula_units_Z 4
loop_
_atom_type_symbol
_atom_type_radius_bond
C 0.68
H 0.23
N 0.68
O 0.68
loop_
_atom_site_label
_atom_site_type_symbol
_atom_site_fract_x
_atom_site_fract_y
_atom_site_fract_z
C1 C 1.22912(18) 0.78739(13) 0.27103(8)
H1 H 1.20290 0.71450 0.23310
C2 C 1.40360(18) 0.80838(14) 0.30711(9)
H2 H 1.49590 0.74990 0.29330
C3 C 1.44370(18) 0.91334(14) 0.36272(9)
H3 H 1.56290 0.92690 0.38740
C4 C 1.30929(18) 0.99870(14) 0.38233(9)
H4 H 1.33630 1.07130 0.42050
C5 C 1.13483(17) 0.97854(13) 0.34635(8)
H5 H 1.04330 1.03760 0.36010
C6 C 1.09255(16) 0.87273(12) 0.29031(8)
C7 C 0.90201(17) 0.85468(13) 0.25031(8)
H6 H 0.81800 0.88350 0.29390
O1 O 0.86033(14) 0.72392(9) 0.22428(6)
H7 H 0.89210 0.67240 0.26580
C8 C 0.86967(16) 0.93928(13) 0.16673(8)
H8 H 0.90310 1.03160 0.18090
H9 H 0.94720 0.90740 0.12200
C9 C 0.67924(16) 0.93470(12) 0.12947(8)
N1 N 0.55653(14) 1.02183(10) 0.15128(7)
C10 C 0.39971(17) 0.98313(13) 0.10827(8)
H10 H 0.28780 1.02570 0.11130
C11 C 0.42782(16) 0.87340(13) 0.05984(8)
N2 N 0.60762(13) 0.84195(10) 0.07338(6)
C12 C 0.70556(18) 0.73687(13) 0.03174(9)
H11 H 0.83420 0.74780 0.04710
H12 H 0.68020 0.74170 -0.03230
H13 H 0.66740 0.65110 0.05270
N3 N 0.30000(15) 0.80295(12) 0.00435(7)
O2 O 0.34627(14) 0.70298(11) -0.03351(7)
O3 O 0.14556(12) 0.84677(11) -0.00295(6)
#END
