
#######################################################################
#
#                 Cambridge Crystallographic Data Centre
#                                CCDC
#
#######################################################################
#
# If this CIF has been generated from an entry in the Cambridge
# Structural Database, then it will include bibliographic, chemical,
# crystal, experimental, refinement or atomic coordinate data resulting
# from the CCDC's data processing and validation procedures.
#
#######################################################################

data_CSD_CIF_COJYAD
_audit_creation_date 2014-09-08
_audit_creation_method CSD-ConQuest-V1
_database_code_CSD COJYAD
_database_code_depnum_ccdc_archive 'CCDC 901751'
_chemical_formula_sum 'C12 H11 N3 O2'
_chemical_formula_moiety
;
C12 H11 N3 O2
;
_journal_coden_Cambridge 781
_journal_volume 11
_journal_year 2014
_journal_page_first 174
_journal_name_full 'Lett.Org.Chem. '
loop_
_publ_author_name
"H.Alliouche"
"A.Bouraiou"
"S.Bouacida"
"M.Bahnous"
"T.Roisnel"
"A.Belfaitah"
_chemical_name_systematic
;
1-methyl-5-nitro-2-(2-phenylvinyl)-1H-imidazole
;
_cell_volume   1080.892
_exptl_crystal_colour 'yellow'
_exptl_crystal_density_diffrn 1.409
_exptl_crystal_description 'prism'
_diffrn_ambient_temperature 150
#These two values have been output from a single CSD field.
_refine_ls_R_factor_gt 0.046
_refine_ls_wR_factor_gt 0.046
_symmetry_cell_setting monoclinic
_symmetry_space_group_name_H-M 'P 21/n'
_symmetry_Int_Tables_number 14
loop_
_symmetry_equiv_pos_site_id
_symmetry_equiv_pos_as_xyz
1 x,y,z
2 1/2-x,1/2+y,1/2-z
3 -x,-y,-z
4 -1/2+x,-1/2-y,-1/2+z
_cell_length_a 6.4969(5)
_cell_length_b 12.3713(10)
_cell_length_c 13.7871(8)
_cell_angle_alpha 90
_cell_angle_beta 102.732(3)
_cell_angle_gamma 90
_cell_formula_units_Z 4
loop_
_atom_type_symbol
_atom_type_radius_bond
C 0.68
H 0.23
N 0.68
O 0.68
loop_
_atom_site_label
_atom_site_type_symbol
_atom_site_fract_x
_atom_site_fract_y
_atom_site_fract_z
C1 C 1.2815(3) -0.10894(15) 0.31379(13)
H1 H 1.27930 -0.03070 0.32450
H2 H 1.27480 -0.12360 0.24330
H3 H 1.41200 -0.13930 0.35400
C2 C 0.9358(3) -0.10593(14) 0.36874(11)
C3 C 0.8797(3) -0.27455(15) 0.38874(12)
H4 H 0.81740 -0.34030 0.40340
C4 C 1.0632(3) -0.26669(14) 0.35579(11)
C5 C 0.9070(3) 0.01016(15) 0.36376(11)
H5 H 0.99820 0.05270 0.33410
C6 C 0.7565(3) 0.05936(14) 0.39954(11)
H6 H 0.66870 0.01390 0.42860
C7 C 0.7113(3) 0.17489(14) 0.39908(11)
C8 C 0.5346(3) 0.21083(16) 0.43236(12)
H7 H 0.44510 0.15960 0.45380
C9 C 0.4883(3) 0.32001(16) 0.43449(13)
H8 H 0.36730 0.34300 0.45700
C10 C 0.6169(3) 0.39549(16) 0.40411(12)
H9 H 0.58540 0.47030 0.40610
C11 C 0.7931(3) 0.36149(16) 0.37060(13)
H10 H 0.88190 0.41330 0.34950
C12 C 0.8395(3) 0.25308(15) 0.36790(12)
H11 H 0.96010 0.23090 0.34460
N1 N 1.0995(2) -0.15854(12) 0.34309(9)
N2 N 1.1909(2) -0.35240(13) 0.33609(10)
N3 N 0.8008(2) -0.17511(12) 0.39725(10)
O1 O 1.1425(2) -0.44427(11) 0.35751(11)
O2 O 1.3442(2) -0.33310(12) 0.2990(1)
#END
