
#######################################################################
#
#                 Cambridge Crystallographic Data Centre
#                                CCDC
#
#######################################################################
#
# If this CIF has been generated from an entry in the Cambridge
# Structural Database, then it will include bibliographic, chemical,
# crystal, experimental, refinement or atomic coordinate data resulting
# from the CCDC's data processing and validation procedures.
#
#######################################################################

data_CSD_CIF_COKQOJ
_audit_creation_date 2009-01-23
_audit_creation_method CSD-ConQuest-V1
_database_code_CSD COKQOJ
_database_code_depnum_ccdc_archive 'CCDC 688475'
_chemical_formula_sum 'C14 H14 N2 O5'
_chemical_formula_moiety
;
C14 H14 N2 O5
;
_journal_coden_Cambridge 1291
_journal_year 2008
_journal_page_first 4193
_journal_name_full 'Eur.J.Org.Chem. '
loop_
_publ_author_name
"M.A.Yawer"
"I.Hussain"
"J.-P.Gutlein"
"A.Schmidt"
"Haijun Jiao"
"H.Reinke"
"A.Spannenberg"
"F.Christine"
"P.Langer"
_chemical_name_systematic
;
6-Nitro-11-oxo-13-aza-tricyclo(7.3.1.0^2,7^)trideca-2(7),3,5-triene-13-carboxy
lic acid methyl ester
;
_chemical_melting_point 377
_cell_volume   1330.953
_exptl_crystal_colour 'colorless'
_exptl_crystal_density_diffrn 1.449
_exptl_crystal_description 'prism'
_diffrn_ambient_temperature 173
#These two values have been output from a single CSD field.
_refine_ls_R_factor_gt 0.0377
_refine_ls_wR_factor_gt 0.0377
_symmetry_cell_setting triclinic
_symmetry_space_group_name_H-M 'P -1'
_symmetry_Int_Tables_number 2
loop_
_symmetry_equiv_pos_site_id
_symmetry_equiv_pos_as_xyz
1 x,y,z
2 -x,-y,-z
_cell_length_a 8.6268(2)
_cell_length_b 11.8442(2)
_cell_length_c 14.4040(3)
_cell_angle_alpha 74.402(1)
_cell_angle_beta 84.707(1)
_cell_angle_gamma 69.868(1)
_cell_formula_units_Z 4
loop_
_atom_type_symbol
_atom_type_radius_bond
C 0.68
H 0.23
N 0.68
O 0.68
loop_
_atom_site_label
_atom_site_type_symbol
_atom_site_fract_x
_atom_site_fract_y
_atom_site_fract_z
O1 O 1.11314(12) 0.08743(10) 0.36992(7)
O2 O 0.89728(11) 0.25160(8) 0.39319(6)
O3 O 0.93390(13) 0.40176(10) -0.01610(7)
O4 O 0.75675(13) -0.06202(8) 0.07538(7)
O5 O 0.63607(13) 0.04841(10) -0.05986(7)
N1 N 0.91660(11) 0.19510(9) 0.25445(7)
N2 N 0.67800(12) 0.03780(9) 0.02214(7)
C1 C 0.77913(13) 0.3063(1) 0.21192(8)
H1 H 0.71010 0.34010 0.26430
C2 C 0.67350(13) 0.2741(1) 0.15067(7)
C3 C 0.51688(13) 0.3603(1) 0.12320(8)
H2 H 0.47810 0.43330 0.14620
C4 C 0.41706(14) 0.34098(11) 0.06291(8)
H3 H 0.31070 0.40010 0.04510
C5 C 0.47337(14) 0.23529(11) 0.02895(8)
H4 H 0.40760 0.22140 -0.01340
C6 C 0.62769(13) 0.15008(10) 0.05792(8)
C7 C 0.73405(13) 0.16622(10) 0.11767(7)
C8 C 0.90677(13) 0.07607(10) 0.14337(8)
H5 H 0.96030 0.05000 0.08520
H6 H 0.89980 0.00100 0.19210
C9 C 1.01315(13) 0.13211(11) 0.18301(9)
H7 H 1.11040 0.06260 0.21650
C10 C 1.07793(15) 0.22389(12) 0.10623(10)
H8 H 1.17130 0.23440 0.13400
H9 H 1.12110 0.18710 0.05110
C11 C 0.95126(15) 0.35032(11) 0.06918(9)
C12 C 0.84713(14) 0.40569(10) 0.14662(8)
H10 H 0.75490 0.48110 0.11710
H11 H 0.91490 0.42930 0.18500
C13 C 0.98595(14) 0.17217(11) 0.34141(8)
C14 C 0.96185(18) 0.22484(14) 0.48911(9)
H12 H 0.89110 0.28640 0.52240
H13 H 1.07410 0.22860 0.48430
H14 H 0.96390 0.14150 0.52550
O6 O 0.45630(12) 0.5780(1) 0.22230(8)
O7 O 0.2470(1) 0.74949(8) 0.23799(6)
O8 O 0.77270(13) 0.88365(10) 0.31517(7)
O9 O 0.86576(17) 0.58802(13) 0.70641(11)
O10 O 0.84231(14) 0.46923(11) 0.62228(8)
N3 N 0.47466(12) 0.68399(9) 0.32880(7)
N4 N 0.79794(14) 0.56940(12) 0.64403(8)
C15 C 0.41980(13) 0.80078(10) 0.35735(8)
H15 H 0.29670 0.83730 0.35290
C16 C 0.47331(13) 0.7785(1) 0.46023(8)
C17 C 0.39034(14) 0.86883(11) 0.50925(8)
H16 H 0.29820 0.93710 0.47970
C18 C 0.43965(16) 0.86104(13) 0.60037(9)
H17 H 0.38090 0.92240 0.63350
C19 C 0.57567(16) 0.76258(13) 0.64217(8)
H18 H 0.61400 0.75720 0.70350
C20 C 0.65544(14) 0.67203(12) 0.59392(8)
C21 C 0.60889(13) 0.67543(10) 0.50193(8)
C22 C 0.69491(15) 0.57755(11) 0.44770(9)
H19 H 0.66410 0.50250 0.47720
H20 H 0.81570 0.55410 0.45500
C23 C 0.65319(14) 0.61945(11) 0.34078(9)
H21 H 0.68280 0.54380 0.31560
C24 C 0.74700(15) 0.70429(13) 0.28107(9)
H22 H 0.86540 0.66660 0.29880
H23 H 0.73790 0.70970 0.21190
C25 C 0.68265(15) 0.83330(12) 0.29623(8)
C26 C 0.49698(15) 0.89289(11) 0.28999(8)
H24 H 0.45970 0.91170 0.22280
H25 H 0.46250 0.97160 0.31010
C27 C 0.39691(15) 0.66451(11) 0.25916(9)
C28 C 0.15663(16) 0.72979(12) 0.16729(9)
H26 H 0.04880 0.79560 0.15590
H27 H 0.14090 0.64880 0.19140
H28 H 0.21910 0.73160 0.10680
#END
