
#######################################################################
#
#                 Cambridge Crystallographic Data Centre
#                                CCDC
#
#######################################################################
#
# If this CIF has been generated from an entry in the Cambridge
# Structural Database, then it will include bibliographic, chemical,
# crystal, experimental, refinement or atomic coordinate data resulting
# from the CCDC's data processing and validation procedures.
#
#######################################################################

data_CSD_CIF_COLNOI
_audit_creation_date 2014-09-09
_audit_creation_method CSD-ConQuest-V1
_database_code_CSD COLNOI
_database_code_depnum_ccdc_archive 'CCDC 706401'
_chemical_formula_sum 'C17 H19 N1 O6'
_chemical_formula_moiety
;
C17 H19 N1 O6
;
_journal_coden_Cambridge 1463
_journal_volume 45
_journal_year 2013
_journal_page_first 224
_journal_name_full 'Bulgarian Chemical Communications(Izvestiya po Khimiya) '
loop_
_publ_author_name
"I.Manolov"
"C.Maichle-Mossmer"
_chemical_name_systematic
;
2,4-diacetyl-5-hydroxy-5-methyl-3-(4-nitrophenyl)cyclohexanone
;
_cell_volume   3258.622
_exptl_crystal_colour 'colorless'
_exptl_crystal_density_diffrn 1.359
_exptl_crystal_description 'column'
_diffrn_ambient_temperature 213
#These two values have been output from a single CSD field.
_refine_ls_R_factor_gt 0.0877
_refine_ls_wR_factor_gt 0.0877
_symmetry_cell_setting orthorhombic
_symmetry_space_group_name_H-M 'P b c a'
_symmetry_Int_Tables_number 61
loop_
_symmetry_equiv_pos_site_id
_symmetry_equiv_pos_as_xyz
1 x,y,z
2 1/2-x,-y,1/2+z
3 1/2+x,1/2-y,-z
4 -x,1/2+y,1/2-z
5 -x,-y,-z
6 -1/2+x,y,-1/2-z
7 -1/2-x,-1/2+y,z
8 x,-1/2-y,-1/2+z
_cell_length_a 8.6405(10)
_cell_length_b 18.682(2)
_cell_length_c 20.187(4)
_cell_angle_alpha 90
_cell_angle_beta 90
_cell_angle_gamma 90
_cell_formula_units_Z 8
loop_
_atom_type_symbol
_atom_type_radius_bond
C 0.68
H 0.23
N 0.68
O 0.68
loop_
_atom_site_label
_atom_site_type_symbol
_atom_site_fract_x
_atom_site_fract_y
_atom_site_fract_z
C1 C 0.2657(9) 0.1892(4) 0.3996(4)
C2 C 0.3538(10) 0.2558(4) 0.3772(4)
C3 C 0.2528(11) 0.3222(4) 0.3686(4)
C4 C 0.1361(14) 0.3062(6) 0.3150(5)
C5 C 0.0578(10) 0.2357(5) 0.3234(4)
C6 C 0.1112(9) 0.1834(5) 0.3648(4)
H1 H 0.16080 0.15870 0.32700
C7 C 0.3687(9) 0.1254(4) 0.3912(3)
C8 C 0.3858(10) 0.0926(5) 0.3305(4)
C9 C 0.4925(11) 0.0373(5) 0.3196(4)
C10 C 0.5794(9) 0.0173(4) 0.3733(5)
C11 C 0.5664(11) 0.0487(5) 0.4336(5)
C12 C 0.4608(9) 0.1023(4) 0.4429(4)
C13 C 0.4876(11) 0.2698(4) 0.4238(5)
C14 C 0.6483(13) 0.2640(7) 0.3969(7)
C15 C 0.3476(16) 0.3871(6) 0.3516(7)
C16 C 0.0120(11) 0.1223(5) 0.3761(4)
C17 C 0.0417(10) 0.0712(4) 0.4319(4)
H2 H -0.03850 0.03490 0.43250
H3 H 0.04100 0.09710 0.47350
H4 H 0.14170 0.04860 0.42570
O1 O 0.7675(8) -0.0618(3) 0.4110(4)
O2 O 0.7170(9) -0.0635(3) 0.3079(4)
O3 O 0.4636(7) 0.2839(3) 0.4824(3)
O4 O 0.1675(7) 0.3383(3) 0.4293(3)
H5 H 0.11350 0.30330 0.43980
O5 O -0.0719(7) 0.2287(3) 0.2895(3)
O6 O -0.1103(7) 0.1137(3) 0.3428(3)
N1 N 0.696(1) -0.0392(4) 0.3633(5)
H6 H 0.242(6) 0.196(2) 0.444(3)
H7 H 0.393(7) 0.245(3) 0.337(3)
H8 H 0.199(10) 0.301(4) 0.277(4)
H9 H 0.045(9) 0.341(4) 0.316(3)
H10 H 0.323(6) 0.103(3) 0.296(2)
H11 H 0.498(9) 0.014(4) 0.274(4)
H12 H 0.617(7) 0.030(3) 0.471(3)
H13 H 0.458(6) 0.123(3) 0.491(3)
H14 H 0.710(8) 0.265(3) 0.432(3)
H15 H 0.669(12) 0.206(7) 0.381(5)
H16 H 0.645(12) 0.296(6) 0.362(6)
H17 H 0.274(8) 0.419(4) 0.339(3)
H18 H 0.403(8) 0.378(3) 0.310(4)
H19 H 0.409(11) 0.396(5) 0.392(5)
#END
