
#######################################################################
#
#                 Cambridge Crystallographic Data Centre
#                                CCDC
#
#######################################################################
#
# If this CIF has been generated from an entry in the Cambridge
# Structural Database, then it will include bibliographic, chemical,
# crystal, experimental, refinement or atomic coordinate data resulting
# from the CCDC's data processing and validation procedures.
#
#######################################################################

data_CSD_CIF_COLQUQ
_audit_creation_date 2009-01-23
_audit_creation_method CSD-ConQuest-V1
_database_code_CSD COLQUQ
_database_code_depnum_ccdc_archive 'CCDC 703809'
_chemical_formula_sum 'C30 H27 N3 O3'
_chemical_formula_moiety
;
C30 H27 N3 O3
;
_journal_coden_Cambridge 1254
_journal_volume 12
_journal_year 2008
_journal_page_first 447
_journal_name_full 'Org.Process Res.Dev. '
loop_
_publ_author_name
"T.Norris"
"J.VanAlsten"
"S.Hubbs"
"M.Ewing"
"W.Cai"
"M.L.Jorgensen"
"J.Bordner"
"G.O.Jensen"
_chemical_name_systematic
;
1-(((4''-(Pentyloxy)-1,1':4',1''-terphenyl-4-yl)carbonyl)oxy)-1H-1,2,3-benzotr
iazole
;
_cell_volume   5019.964
_exptl_crystal_density_diffrn 1.264
_exptl_crystal_description 'needle'
_diffrn_ambient_temperature 293
#These two values have been output from a single CSD field.
_refine_ls_R_factor_gt 0.0688
_refine_ls_wR_factor_gt 0.0688
_symmetry_cell_setting monoclinic
_symmetry_space_group_name_H-M 'C 2/c'
_symmetry_Int_Tables_number 15
loop_
_symmetry_equiv_pos_site_id
_symmetry_equiv_pos_as_xyz
1 x,y,z
2 1/2+x,1/2+y,z
3 -x,y,1/2-z
4 1/2-x,1/2+y,1/2-z
5 -x,-y,-z
6 -1/2-x,-1/2-y,-z
7 x,-y,-1/2+z
8 -1/2+x,-1/2-y,-1/2+z
_cell_length_a 52.7951(12)
_cell_length_b 7.8456(2)
_cell_length_c 12.2836(2)
_cell_angle_alpha 90
_cell_angle_beta 99.379(1)
_cell_angle_gamma 90
_cell_formula_units_Z 8
loop_
_atom_type_symbol
_atom_type_radius_bond
C 0.68
H 0.23
N 0.68
O 0.68
loop_
_atom_site_label
_atom_site_type_symbol
_atom_site_fract_x
_atom_site_fract_y
_atom_site_fract_z
N1 N 0.06266(5) 0.9008(3) 0.48285(18)
N2 N 0.06494(6) 0.8066(4) 0.5740(2)
N3 N 0.04950(6) 0.8711(4) 0.6357(2)
C1 C 0.03721(6) 1.0093(5) 0.5817(2)
C2 C 0.04564(6) 1.0303(4) 0.4812(2)
C3 C 0.03679(6) 1.1579(4) 0.4061(3)
H1 H 0.04260 1.16940 0.33900
C4 C 0.01890(8) 1.2654(5) 0.4375(3)
H2 H 0.01230 1.35310 0.39030
C5 C 0.01024(7) 1.2469(5) 0.5391(4)
H3 H -0.00190 1.32330 0.55750
C6 C 0.01897(7) 1.1216(6) 0.6108(3)
H4 H 0.01300 1.11050 0.67760
O1 O 0.07792(4) 0.8711(3) 0.40512(16)
C7 C 0.06767(6) 0.7462(4) 0.3268(2)
O2 O 0.04962(5) 0.6640(3) 0.33878(17)
C8 C 0.08268(5) 0.7437(3) 0.2360(2)
C9 C 0.07563(5) 0.6266(4) 0.1517(2)
H5 H 0.06270 0.54760 0.15690
C10 C 0.08774(5) 0.6274(4) 0.0602(2)
H6 H 0.08280 0.54890 0.00400
C11 C 0.10729(6) 0.7443(4) 0.0505(2)
C12 C 0.11423(6) 0.8579(4) 0.1375(2)
H7 H 0.12730 0.93590 0.13370
C13 C 0.10225(6) 0.8575(4) 0.2285(2)
H8 H 0.10730 0.93430 0.28550
C14 C 0.11999(5) 0.7483(3) -0.0483(2)
C15 C 0.10765(6) 0.6926(4) -0.1505(2)
H9 H 0.09090 0.65200 -0.15700
C16 C 0.11937(6) 0.6957(4) -0.2424(2)
H10 H 0.11030 0.65780 -0.30930
C17 C 0.14445(5) 0.7538(3) -0.2383(2)
C18 C 0.15663(6) 0.8108(5) -0.1360(2)
H11 H 0.17330 0.85170 -0.12930
C19 C 0.14472(6) 0.8086(5) -0.0444(3)
H12 H 0.15360 0.84890 0.02230
C20 C 0.15683(6) 0.7559(4) -0.3386(2)
C21 C 0.14615(7) 0.6715(5) -0.4342(3)
H13 H 0.13080 0.61270 -0.43470
C22 C 0.15717(7) 0.6706(5) -0.5285(3)
H14 H 0.14930 0.61170 -0.59070
C23 C 0.17959(6) 0.7562(4) -0.5307(3)
C24 C 0.19069(6) 0.8422(5) -0.4369(3)
H15 H 0.20600 0.90090 -0.43700
C25 C 0.17952(6) 0.8425(4) -0.3437(3)
H16 H 0.18740 0.90250 -0.28200
O3 O 0.19226(5) 0.7631(3) -0.61949(18)
C26 C 0.18236(8) 0.6631(6) -0.7150(3)
H17 H 0.16570 0.70620 -0.74830
H18 H 0.18030 0.54550 -0.69350
C27 C 0.20059(9) 0.6726(6) -0.7963(3)
H19 H 0.19240 0.62140 -0.86500
H20 H 0.20360 0.79170 -0.81110
C28 C 0.2254(1) 0.5897(7) -0.7626(5)
H21 H 0.22240 0.46990 -0.74990
H22 H 0.23330 0.63850 -0.69270
C29 C 0.24390(13) 0.6027(9) -0.8414(6)
H23 H 0.24340 0.72150 -0.86340
H24 H 0.26060 0.58550 -0.79680
C30 C 0.24463(17) 0.5274(10) -0.9216(6)
H25 H 0.25990 0.55710 -0.95000
H26 H 0.22990 0.55500 -0.97520
H27 H 0.24470 0.40740 -0.90620
#END
