
#######################################################################
#
#                 Cambridge Crystallographic Data Centre
#                                CCDC
#
#######################################################################
#
# If this CIF has been generated from an entry in the Cambridge
# Structural Database, then it will include bibliographic, chemical,
# crystal, experimental, refinement or atomic coordinate data resulting
# from the CCDC's data processing and validation procedures.
#
#######################################################################

data_CSD_CIF_COLYOR
_audit_creation_date 1985-06-30
_audit_creation_method CSD-ConQuest-V1
_database_code_CSD COLYOR
_chemical_formula_sum 'C11 H15 N3 O7'
_chemical_formula_moiety
;
C11 H15 N3 O7
;
_journal_coden_Cambridge 154
_journal_volume 37
_journal_year 1984
_journal_page_first 1489
_journal_name_full 'Aust.J.Chem. '
loop_
_publ_author_name
"M.P.Hartshorn"
"W.T.Robinson"
"J.Vaughan"
"J.M.White"
"A.R.Whyte"
_chemical_name_systematic
;
2,3,4,5,6-Pentamethyl-r-4,c-5,c-6-trinitrocyclohex-2-enone
;
_chemical_melting_point 389.15
_cell_volume   1357.517
_exptl_crystal_colour 'colorless'
_exptl_crystal_density_diffrn 1.49
_exptl_special_details
;
Melts with decomposition.

;
_diffrn_ambient_temperature ?
_diffrn_special_details
;
The study was carried out at room temperature,in the range 283-303K

;
#These two values have been output from a single CSD field.
_refine_ls_R_factor_gt 0.045
_refine_ls_wR_factor_gt 0.045
loop_
_citation_database_id_CSD
_citation_special_details
COLYIL "is a stereoisomer of this entry"
_symmetry_cell_setting monoclinic
_symmetry_space_group_name_H-M 'P 21/c'
_symmetry_Int_Tables_number 14
loop_
_symmetry_equiv_pos_site_id
_symmetry_equiv_pos_as_xyz
1 x,y,z
2 -x,1/2+y,1/2-z
3 -x,-y,-z
4 x,-1/2-y,-1/2+z
_cell_length_a 6.982(1)
_cell_length_b 14.973(3)
_cell_length_c 13.081(3)
_cell_angle_alpha 90
_cell_angle_beta 96.93(2)
_cell_angle_gamma 90
_cell_formula_units_Z 4
loop_
_atom_type_symbol
_atom_type_radius_bond
C 0.68
N 0.68
O 0.68
loop_
_atom_site_label
_atom_site_type_symbol
_atom_site_fract_x
_atom_site_fract_y
_atom_site_fract_z
C1 C 0.6790(4) 0.7646(2) 0.2158(2)
N1 N 0.8492(4) 0.5090(2) 0.3143(2)
C2 C 0.8007(4) 0.7475(2) 0.3143(2)
N2 N 0.7781(4) 0.5871(2) 0.1322(2)
C3 C 0.8073(4) 0.6671(2) 0.3591(2)
N3 N 0.4608(4) 0.7089(2) 0.0647(2)
C4 C 0.6935(4) 0.5865(2) 0.3134(2)
O1 O 0.6830(3) 0.8341(1) 0.1688(2)
C5 C 0.6032(4) 0.5972(2) 0.1974(2)
O2 O 1.0165(4) 0.5301(2) 0.3040(2)
C6 C 0.5231(4) 0.6931(2) 0.1811(2)
C7 C 0.9164(5) 0.8270(2) 0.3588(3)
O3 O 0.8865(3) 0.6513(2) 0.1281(2)
C8 C 0.9250(5) 0.6522(2) 0.4625(2)
O4 O 0.8002(4) 0.5152(2) 0.0929(2)
C9 C 0.5446(5) 0.5547(2) 0.3836(3)
O5 O 0.5291(4) 0.6636(2) 0.0016(2)
C10 C 0.4544(5) 0.5252(2) 0.1624(3)
C11 C 0.3462(4) 0.7152(2) 0.2375(3)
O6 O 0.7922(4) 0.4332(2) 0.3241(2)
O7 O 0.3481(4) 0.7700(2) 0.0422(2)
#END
