
#######################################################################
#
#                 Cambridge Crystallographic Data Centre
#                                CCDC
#
#######################################################################
#
# If this CIF has been generated from an entry in the Cambridge
# Structural Database, then it will include bibliographic, chemical,
# crystal, experimental, refinement or atomic coordinate data resulting
# from the CCDC's data processing and validation procedures.
#
#######################################################################

data_CSD_CIF_COLYIL
_audit_creation_date 1985-06-30
_audit_creation_method CSD-ConQuest-V1
_database_code_CSD COLYIL
_chemical_formula_sum 'C11 H15 N3 O7'
_chemical_formula_moiety
;
C11 H15 N3 O7
;
_journal_coden_Cambridge 154
_journal_volume 37
_journal_year 1984
_journal_page_first 1489
_journal_name_full 'Aust.J.Chem. '
loop_
_publ_author_name
"M.P.Hartshorn"
"W.T.Robinson"
"J.Vaughan"
"J.M.White"
"A.R.Whyte"
_chemical_name_systematic
;
2,3,4,5,6-Pentamethyl-r-4,t-5,t-6-trinitrocyclohex-2-enone
;
_chemical_melting_point 397.15
_cell_volume   1359.748
_exptl_crystal_colour 'colorless'
_exptl_crystal_density_diffrn 1.47
_exptl_special_details
;
Melts with decomposition.

;
_diffrn_ambient_temperature ?
_diffrn_special_details
;
The study was carried out at room temperature,in the range 283-303K

;
#These two values have been output from a single CSD field.
_refine_ls_R_factor_gt 0.052
_refine_ls_wR_factor_gt 0.052
loop_
_citation_database_id_CSD
_citation_special_details
COLYOR "is a stereoisomer of this entry"
_symmetry_cell_setting monoclinic
_symmetry_space_group_name_H-M 'P 21/n'
_symmetry_Int_Tables_number 14
loop_
_symmetry_equiv_pos_site_id
_symmetry_equiv_pos_as_xyz
1 x,y,z
2 1/2-x,1/2+y,1/2-z
3 -x,-y,-z
4 -1/2+x,-1/2-y,-1/2+z
_cell_length_a 9.374(1)
_cell_length_b 11.248(2)
_cell_length_c 13.040(2)
_cell_angle_alpha 90
_cell_angle_beta 98.52(1)
_cell_angle_gamma 90
_cell_formula_units_Z 4
loop_
_atom_type_symbol
_atom_type_radius_bond
C 0.68
N 0.68
O 0.68
loop_
_atom_site_label
_atom_site_type_symbol
_atom_site_fract_x
_atom_site_fract_y
_atom_site_fract_z
C1 C 0.5643(3) -0.2826(2) 0.3713(2)
N1 N 0.3865(2) 0.0373(2) 0.2929(2)
C2 C 0.4280(3) -0.2501(2) 0.4073(2)
N2 N 0.4547(3) -0.2439(2) 0.1469(2)
C3 C 0.3441(3) -0.1622(2) 0.3644(2)
N3 N 0.7471(3) -0.2454(2) 0.2567(2)
C4 C 0.3686(3) -0.0986(2) 0.2657(2)
O1 O 0.6333(2) -0.3714(2) 0.3981(2)
C5 C 0.5090(3) -0.1382(2) 0.2196(2)
O2 O 0.4261(2) 0.0649(2) 0.3819(2)
C6 C 0.6261(3) -0.1874(2) 0.3061(2)
O3 O 0.3553(2) 0.1072(2) 0.2221(2)
C7 C 0.3904(3) -0.3234(3) 0.4972(2)
O4 O 0.4177(2) -0.3337(2) 0.1881(2)
C8 C 0.2078(3) -0.1282(3) 0.4056(2)
O5 O 0.4477(3) -0.2298(2) 0.0544(2)
C9 C 0.2333(3) -0.1059(3) 0.1834(2)
O6 O 0.7161(3) -0.3123(2) 0.1850(2)
C10 C 0.5705(3) -0.0445(3) 0.1543(2)
O7 O 0.8672(3) -0.2255(3) 0.2913(3)
C11 C 0.6958(3) -0.0934(2) 0.3819(2)
#END
