
#######################################################################
#
#                 Cambridge Crystallographic Data Centre
#                                CCDC
#
#######################################################################
#
# If this CIF has been generated from an entry in the Cambridge
# Structural Database, then it will include bibliographic, chemical,
# crystal, experimental, refinement or atomic coordinate data resulting
# from the CCDC's data processing and validation procedures.
#
#######################################################################

data_CSD_CIF_COLYUX
_audit_creation_date 1985-06-30
_audit_creation_method CSD-ConQuest-V1
_database_code_CSD COLYUX
_chemical_formula_sum 'C11 H16 N2 O6'
_chemical_formula_moiety
;
C11 H16 N2 O6
;
_journal_coden_Cambridge 154
_journal_volume 37
_journal_year 1984
_journal_page_first 1489
_journal_name_full 'Aust.J.Chem. '
loop_
_publ_author_name
"M.P.Hartshorn"
"W.T.Robinson"
"J.Vaughan"
"J.M.White"
"A.R.Whyte"
_chemical_name_systematic
;
r-2-Hydroxy-2,3,4,5,6-pentamethyl-t-5,t-6-dinitrocyclohex-3-enone
;
_chemical_melting_point 438.15
_cell_volume   1379.868
_exptl_crystal_colour 'colorless'
_exptl_special_details
;
Melting point range 438.15-438.65K
dx reported 1.40 we calculate 1.31

;
_diffrn_ambient_temperature ?
_diffrn_special_details
;
The study was carried out at room temperature,in the range 283-303K

;
#These two values have been output from a single CSD field.
_refine_ls_R_factor_gt 0.069
_refine_ls_wR_factor_gt 0.069
_symmetry_cell_setting monoclinic
_symmetry_space_group_name_H-M 'P 21/c'
_symmetry_Int_Tables_number 14
loop_
_symmetry_equiv_pos_site_id
_symmetry_equiv_pos_as_xyz
1 x,y,z
2 -x,1/2+y,1/2-z
3 -x,-y,-z
4 x,-1/2-y,-1/2+z
_cell_length_a 6.119(1)
_cell_length_b 13.814(4)
_cell_length_c 16.621(4)
_cell_angle_alpha 90
_cell_angle_beta 100.84(2)
_cell_angle_gamma 90
_cell_formula_units_Z 4
loop_
_atom_type_symbol
_atom_type_radius_bond
C 0.68
N 0.68
O 0.68
loop_
_atom_site_label
_atom_site_type_symbol
_atom_site_fract_x
_atom_site_fract_y
_atom_site_fract_z
C1 C 0.0711(7) 0.3413(3) 0.0350(3)
C2 C 0.4043(8) 0.2792(4) -0.0172(3)
C3 C 0.1854(7) 0.3907(3) 0.1198(3)
N1 N 0.0028(7) 0.1508(3) 0.1125(3)
C4 C 0.3348(7) 0.3236(3) 0.1822(3)
N2 N 0.0313(8) 0.2067(4) -0.0682(3)
C5 C 0.3518(7) 0.2282(3) 0.1698(3)
O1 O -0.0826(5) 0.3768(2) -0.0143(2)
C6 C 0.2281(7) 0.1780(3) 0.0879(3)
O2 O 0.3302(6) 0.4615(2) 0.0919(2)
C7 C 0.1849(7) 0.2496(3) 0.0118(3)
O3 O -0.1255(5) 0.2182(3) 0.1178(2)
C8 C 0.0097(9) 0.4377(4) 0.1627(4)
O4 O -0.0363(6) 0.0675(3) 0.1296(3)
C9 C 0.4624(9) 0.3750(3) 0.2609(3)
O5 O -0.1136(7) 0.1512(3) -0.0550(3)
C10 C 0.4803(8) 0.1615(3) 0.2380(3)
O6 O 0.0540(8) 0.2344(4) -0.1394(3)
C11 C 0.3376(8) 0.0855(3) 0.0643(3)
#END
