
#######################################################################
#
#                 Cambridge Crystallographic Data Centre
#                                CCDC
#
#######################################################################
#
# If this CIF has been generated from an entry in the Cambridge
# Structural Database, then it will include bibliographic, chemical,
# crystal, experimental, refinement or atomic coordinate data resulting
# from the CCDC's data processing and validation procedures.
#
#######################################################################

data_CSD_CIF_COMDIT
_audit_creation_date 2014-09-10
_audit_creation_method CSD-ConQuest-V1
_database_code_CSD COMDIT
_database_code_depnum_ccdc_archive 'CCDC 1023550'
_chemical_formula_sum 'C17 H14 N2 O6'
_chemical_formula_moiety
;
C17 H14 N2 O6
;
_journal_coden_Cambridge 1078
_journal_year 2014
_journal_name_full 'CSD Communication(Private Communication) '
loop_
_publ_author_name
"J.M.White"
"N.Fifer"
_chemical_name_systematic
;
cyclopropyl(phenyl)methyl 3,5-dinitrobenzoate
;
_cell_volume   1558.951
_exptl_crystal_colour 'colorless'
_exptl_crystal_density_diffrn 1.458
_exptl_special_details
;
contribution from School of Chemistry, The University of Melbourne, Victoria, 
3010, Australia
;
_exptl_crystal_description 'plate'
_exptl_crystal_preparation 'methanol'
_diffrn_ambient_temperature 130
#These two values have been output from a single CSD field.
_refine_ls_R_factor_gt 0.0433
_refine_ls_wR_factor_gt 0.0433
_symmetry_cell_setting monoclinic
_symmetry_space_group_name_H-M 'C 2'
_symmetry_Int_Tables_number 5
loop_
_symmetry_equiv_pos_site_id
_symmetry_equiv_pos_as_xyz
1 x,y,z
2 -x,y,-z
3 1/2+x,1/2+y,z
4 1/2-x,1/2+y,-z
_cell_length_a 24.755(3)
_cell_length_b 5.5165(7)
_cell_length_c 11.6413(15)
_cell_angle_alpha 90
_cell_angle_beta 101.296(2)
_cell_angle_gamma 90
_cell_formula_units_Z 4
loop_
_atom_type_symbol
_atom_type_radius_bond
C 0.68
H 0.23
N 0.68
O 0.68
loop_
_atom_site_label
_atom_site_type_symbol
_atom_site_fract_x
_atom_site_fract_y
_atom_site_fract_z
C1 C 0.08685(14) -0.0730(7) 0.1314(3)
H1 H 0.05480 -0.16680 0.14040
H2 H 0.09250 -0.05860 0.05160
C2 C 0.13669(16) -0.0868(8) 0.2271(4)
H3 H 0.17250 -0.08110 0.20500
H4 H 0.13480 -0.18930 0.29390
C3 C 0.10268(14) 0.1389(7) 0.2121(3)
H5 H 0.11860 0.27870 0.17870
C4 C 0.06800(14) 0.1946(7) 0.3005(3)
H6 H 0.05350 0.04280 0.32600
C5 C 0.02066(14) 0.3663(6) 0.2589(3)
C6 C -0.01180(14) 0.3360(7) 0.1487(3)
H7 H -0.00460 0.20790 0.10190
C7 C -0.05457(13) 0.4925(7) 0.1071(3)
H8 H -0.07550 0.47060 0.03220
C8 C -0.06660(14) 0.6802(7) 0.1752(3)
H9 H -0.09520 0.78660 0.14670
C9 C -0.03567(15) 0.7088(7) 0.2863(3)
H10 H -0.04400 0.83330 0.33370
C10 C 0.00755(15) 0.5546(7) 0.3277(3)
H11 H 0.02820 0.57690 0.40280
C11 C 0.10802(14) 0.2055(7) 0.5046(3)
C12 C 0.14460(13) 0.3498(7) 0.5972(3)
C13 C 0.17221(13) 0.5540(6) 0.5706(3)
H12 H 0.16780 0.60780 0.49360
C14 C 0.20622(13) 0.6765(6) 0.6592(3)
C15 C 0.21319(13) 0.6075(7) 0.7752(3)
H13 H 0.23610 0.69310 0.83430
C16 C 0.15075(13) 0.2745(6) 0.7133(3)
H14 H 0.13240 0.13780 0.73250
C17 C 0.18457(13) 0.4064(7) 0.7991(3)
N1 N 0.23621(12) 0.8884(5) 0.6285(3)
N2 N 0.18923(12) 0.3296(6) 0.9219(2)
O1 O 0.10427(10) 0.3078(5) 0.40049(19)
O2 O 0.08660(11) 0.0206(5) 0.5238(2)
O3 O 0.17111(11) 0.1306(5) 0.9401(2)
O4 O 0.21086(11) 0.4687(6) 0.9984(2)
O5 O 0.27221(11) 0.9757(6) 0.7039(2)
O6 O 0.22313(9) 0.9680(5) 0.5286(2)
#END
