
#######################################################################
#
#                 Cambridge Crystallographic Data Centre
#                                CCDC
#
#######################################################################
#
# If this CIF has been generated from an entry in the Cambridge
# Structural Database, then it will include bibliographic, chemical,
# crystal, experimental, refinement or atomic coordinate data resulting
# from the CCDC's data processing and validation procedures.
#
#######################################################################

data_CSD_CIF_COMFER
_audit_creation_date 2014-09-10
_audit_creation_method CSD-ConQuest-V1
_database_code_CSD COMFER
_database_code_depnum_ccdc_archive 'CCDC 1000391'
_chemical_formula_sum 'C21 H17 N3 O2'
_chemical_formula_moiety
;
C21 H17 N3 O2
;
_journal_coden_Cambridge 1078
_journal_year 2008
_journal_name_full 'CSD Communication(Private Communication) '
loop_
_publ_author_name
"M.Light"
"P.Cintas"
_chemical_name_systematic
;
N-[2-(4-Nitrophenyl)-3-(phenylamino)allylidene]aniline
;
_chemical_melting_point 453
_cell_volume   1734.115
_exptl_crystal_colour 'orange'
_exptl_crystal_density_diffrn 1.315
_exptl_crystal_description 'Slab'
_exptl_crystal_preparation 'ethanol'
_diffrn_ambient_temperature 100
#These two values have been output from a single CSD field.
_refine_ls_R_factor_gt 0.0889
_refine_ls_wR_factor_gt 0.0889
_symmetry_cell_setting monoclinic
_symmetry_space_group_name_H-M 'P 21/c'
_symmetry_Int_Tables_number 14
loop_
_symmetry_equiv_pos_site_id
_symmetry_equiv_pos_as_xyz
1 x,y,z
2 -x,1/2+y,1/2-z
3 -x,-y,-z
4 x,-1/2-y,-1/2+z
_cell_length_a 8.649(7)
_cell_length_b 21.553(15)
_cell_length_c 9.886(8)
_cell_angle_alpha 90
_cell_angle_beta 109.782(9)
_cell_angle_gamma 90
_cell_formula_units_Z 4
loop_
_atom_type_symbol
_atom_type_radius_bond
C 0.68
H 0.23
N 0.68
O 0.68
loop_
_atom_site_label
_atom_site_type_symbol
_atom_site_fract_x
_atom_site_fract_y
_atom_site_fract_z
O1 O -0.3695(3) 1.02755(11) 0.7303(3)
O2 O -0.3275(3) 1.06743(11) 0.5443(3)
N1 N -0.3190(3) 1.02376(14) 0.6282(3)
N2 N -0.0587(3) 0.68242(12) 0.5445(3)
N3 N 0.1379(3) 0.73973(14) 0.4287(3)
H1 H 0.094(4) 0.7032(16) 0.459(4)
C1 C -0.2460(4) 0.96546(15) 0.6039(4)
C2 C -0.2323(4) 0.91618(15) 0.6984(3)
H2 H -0.26940 0.92010 0.77810
C3 C -0.1633(4) 0.86135(15) 0.6734(3)
H3 H -0.15140 0.82780 0.73830
C4 C -0.1099(4) 0.85379(15) 0.5541(3)
C5 C -0.1243(4) 0.90564(15) 0.4639(3)
H4 H -0.08710 0.90240 0.38410
C6 C -0.1908(4) 0.96103(16) 0.4877(4)
H5 H -0.19860 0.99550 0.42580
C7 C -0.0455(4) 0.79369(15) 0.5243(3)
C8 C -0.1064(4) 0.73785(15) 0.5652(3)
H6 H -0.18700 0.74130 0.61040
C9 C -0.1396(4) 0.62901(15) 0.5748(3)
C10 C -0.3035(4) 0.62957(15) 0.5700(3)
H7 H -0.36510 0.66700 0.54880
C11 C -0.3758(4) 0.57525(15) 0.5964(3)
H8 H -0.48610 0.57600 0.59530
C12 C -0.2878(4) 0.51989(16) 0.6243(3)
H9 H -0.33800 0.48290 0.64110
C13 C -0.1267(4) 0.51909(16) 0.6273(3)
H10 H -0.06650 0.48130 0.64610
C14 C -0.0526(4) 0.57293(15) 0.6031(3)
H11 H 0.05820 0.57180 0.60580
C15 C 0.0728(4) 0.79211(16) 0.4586(3)
H12 H 0.10980 0.83050 0.43330
C16 C 0.2614(4) 0.73427(16) 0.3651(3)
C17 C 0.2883(4) 0.67550(17) 0.3181(3)
H13 H 0.22820 0.64080 0.33280
C18 C 0.4037(4) 0.66816(19) 0.2497(4)
H14 H 0.42160 0.62820 0.21700
C19 C 0.4920(4) 0.71813(18) 0.2289(4)
H15 H 0.56900 0.71290 0.18040
C20 C 0.4680(4) 0.77619(18) 0.2790(4)
H16 H 0.53150 0.81040 0.26730
C21 C 0.3524(4) 0.78486(17) 0.3461(4)
H17 H 0.33530 0.82490 0.37880
#END
