
#######################################################################
#
#                 Cambridge Crystallographic Data Centre
#                                CCDC
#
#######################################################################
#
# If this CIF has been generated from an entry in the Cambridge
# Structural Database, then it will include bibliographic, chemical,
# crystal, experimental, refinement or atomic coordinate data resulting
# from the CCDC's data processing and validation procedures.
#
#######################################################################

data_CSD_CIF_COMGEQ
_audit_creation_date 1985-07-01
_audit_creation_method CSD-ConQuest-V1
_database_code_CSD COMGEQ
_chemical_formula_sum 'C13 H9 N1 O3'
_chemical_formula_moiety
;
C13 H9 N1 O3
;
_journal_coeditor_code "IUCr A24023"
_journal_coden_Cambridge 591
_journal_volume 40
_journal_year 1984
_journal_page_first 1948
_journal_name_full 'Acta Crystallogr.,Sect.C:Cryst.Struct.Commun. '
loop_
_publ_author_name
"J.P.Bideau"
"G.Bravic"
"M.Cotrait"
_chemical_name_systematic
;
1-Methyl-2-nitro-naphtho(2,1-b)furan
;
_cell_volume   1057.953
_exptl_crystal_colour 'greenish-yellow'
_exptl_crystal_density_diffrn 1.427
_exptl_special_details
;
mutagenic agent
x(C11) is .5345, not .6345

;
_diffrn_ambient_temperature ?
_diffrn_special_details
;
The study was carried out at room temperature,in the range 283-303K

;
#These two values have been output from a single CSD field.
_refine_ls_R_factor_gt 0.044
_refine_ls_wR_factor_gt 0.044
_symmetry_cell_setting monoclinic
_symmetry_space_group_name_H-M 'P 21/n'
_symmetry_Int_Tables_number 14
loop_
_symmetry_equiv_pos_site_id
_symmetry_equiv_pos_as_xyz
1 x,y,z
2 1/2-x,1/2+y,1/2-z
3 -x,-y,-z
4 -1/2+x,-1/2-y,-1/2+z
_cell_length_a 7.703(4)
_cell_length_b 19.080(7)
_cell_length_c 7.255(2)
_cell_angle_alpha 90
_cell_angle_beta 97.17(3)
_cell_angle_gamma 90
_cell_formula_units_Z 4
loop_
_atom_type_symbol
_atom_type_radius_bond
C 0.68
H 0.23
N 0.68
O 0.68
loop_
_atom_site_label
_atom_site_type_symbol
_atom_site_fract_x
_atom_site_fract_y
_atom_site_fract_z
O1 O 0.1953(2) 0.0547(1) 0.1446(2)
C1 C 0.3046(3) 0.1079(1) 0.2075(4)
C2 C 0.4708(3) 0.0878(1) 0.2676(3)
C3 C 0.2390(3) -0.0709(1) 0.1119(4)
C4 C 0.3567(4) -0.1234(1) 0.1402(4)
C5 C 0.6534(4) -0.1676(2) 0.2475(4)
C6 C 0.8232(4) -0.1571(2) 0.3210(4)
C7 C 0.8813(4) -0.0896(2) 0.3653(4)
C8 C 0.7716(3) -0.0333(2) 0.3403(4)
C9 C 0.5940(3) -0.0423(1) 0.2671(3)
C10 C 0.5345(3) -0.1113(1) 0.2185(4)
C11 C 0.4676(3) 0.0130(1) 0.2377(3)
C12 C 0.2989(3) -0.0037(1) 0.1635(3)
N1 N 0.2234(3) 0.1745(1) 0.1993(4)
O2 O 0.0631(3) 0.1771(1) 0.1605(4)
O3 O 0.3160(3) 0.2261(1) 0.2307(4)
C13 C 0.6216(4) 0.1327(2) 0.3496(4)
H1 H 0.1136(30) -0.0781(12) 0.0521(33)
H2 H 0.3205(30) -0.1754(12) 0.1057(32)
H3 H 0.6081(31) -0.2169(13) 0.2114(34)
H4 H 0.9071(34) -0.1990(14) 0.3425(36)
H5 H 1.0116(33) -0.0821(13) 0.4180(36)
H6 H 0.8168(31) 0.0158(12) 0.3710(34)
H7 H 0.7187(33) 0.1340(14) 0.2606(37)
H8 H 0.6798(32) 0.1144(13) 0.4781(36)
H9 H 0.5753(35) 0.1844(14) 0.3704(38)
#END
