
#######################################################################
#
#                 Cambridge Crystallographic Data Centre
#                                CCDC
#
#######################################################################
#
# If this CIF has been generated from an entry in the Cambridge
# Structural Database, then it will include bibliographic, chemical,
# crystal, experimental, refinement or atomic coordinate data resulting
# from the CCDC's data processing and validation procedures.
#
#######################################################################

data_CSD_CIF_COMPEA01
_audit_creation_date 2009-07-17
_audit_creation_method CSD-ConQuest-V1
_database_code_CSD COMPEA01
_database_code_depnum_ccdc_archive 'CCDC 680886'
_chemical_formula_sum 'C11 H15 N4 O4'
_chemical_formula_moiety
;
C11 H15 N4 O4
;
_journal_coden_Cambridge 155
_journal_volume 361
_journal_year 2008
_journal_page_first 4094
_journal_name_full 'Inorg.Chim.Acta '
loop_
_publ_author_name
"R.Feher"
"K.Wurst"
"D.B.Amabilino"
"J.Veciana"
_chemical_name_systematic
;
2-(5-Uracilyl)-4,4,5,5-tetramethyl-4,5-dihydro-1H-imidazolyl-1-oxyl-3-oxide 
radical
;
_chemical_name_common
;
2-(5-Uracilyl)nitronyl nitroxide radical
;
_cell_volume   1270.613
_exptl_crystal_colour 'red'
_exptl_crystal_density_diffrn 1.397
_exptl_special_details
;
beta polymorph

;
_exptl_crystal_description 'prism'
_exptl_crystal_preparation 'acetonitrile/di-isopropyl ether'
_diffrn_ambient_temperature 218
#These two values have been output from a single CSD field.
_refine_ls_R_factor_gt 0.0635
_refine_ls_wR_factor_gt 0.0635
_symmetry_cell_setting monoclinic
_symmetry_space_group_name_H-M 'P 21/c'
_symmetry_Int_Tables_number 14
loop_
_symmetry_equiv_pos_site_id
_symmetry_equiv_pos_as_xyz
1 x,y,z
2 -x,1/2+y,1/2-z
3 -x,-y,-z
4 x,-1/2-y,-1/2+z
_cell_length_a 13.441(4)
_cell_length_b 8.001(2)
_cell_length_c 12.396(3)
_cell_angle_alpha 90
_cell_angle_beta 107.61(2)
_cell_angle_gamma 90
_cell_formula_units_Z 4
loop_
_atom_type_symbol
_atom_type_radius_bond
C 0.68
H 0.23
N 0.68
O 0.68
loop_
_atom_site_label
_atom_site_type_symbol
_atom_site_fract_x
_atom_site_fract_y
_atom_site_fract_z
O1 O 0.6546(4) -0.5968(7) 0.3778(4)
O2 O 0.8523(4) -0.2155(6) 0.2512(4)
O3 O 0.6324(5) -0.6140(6) 0.1069(4)
O4 O 0.9055(4) -0.9076(6) 0.0589(4)
N1 N 0.6941(5) -0.4572(8) 0.3593(5)
N2 N 0.7903(5) -0.2777(9) 0.3017(4)
N3 N 0.7683(6) -0.7676(7) 0.0893(4)
H1 H 0.72520 -0.82120 0.03330
N4 N 0.9348(4) -0.7323(8) 0.2083(6)
H2 H 1.00070 -0.75890 0.23060
C1 C 0.7624(6) -0.4393(12) 0.3002(6)
C2 C 0.6567(5) -0.2886(9) 0.3877(6)
C3 C 0.7478(6) -0.1762(9) 0.3801(6)
C4 C 0.7987(7) -0.5723(9) 0.2424(6)
C5 C 0.7252(8) -0.6481(10) 0.1435(6)
C6 C 0.8716(8) -0.8092(10) 0.1152(7)
C7 C 0.9002(7) -0.6145(9) 0.2694(6)
H3 H 0.94850 -0.56230 0.33130
C8 C 0.5553(5) -0.2574(8) 0.2960(6)
H4 H 0.5273(17) -0.1499(24) 0.3084(20)
H5 H 0.5058(12) -0.3447(29) 0.2979(23)
H6 H 0.5676(8) -0.2576(50) 0.2229(6)
C9 C 0.6399(6) -0.2983(9) 0.5030(6)
H7 H 0.6238(33) -0.1878(13) 0.5254(17)
H8 H 0.7028(12) -0.3398(50) 0.5579(9)
H9 H 0.5823(22) -0.3733(41) 0.4994(10)
C10 C 0.7165(6) -0.0050(9) 0.3308(6)
H10 H 0.7782(6) 0.0568(19) 0.3296(30)
H11 H 0.6811(28) 0.0544(20) 0.3768(20)
H12 H 0.6699(24) -0.0159(9) 0.2542(13)
C11 C 0.8386(6) -0.1665(9) 0.4893(6)
H13 H 0.8174(12) -0.1029(44) 0.5453(13)
H14 H 0.8975(12) -0.1119(46) 0.4744(9)
H15 H 0.8585(21) -0.2785(9) 0.5177(19)
#END
