
#######################################################################
#
#                 Cambridge Crystallographic Data Centre
#                                CCDC
#
#######################################################################
#
# If this CIF has been generated from an entry in the Cambridge
# Structural Database, then it will include bibliographic, chemical,
# crystal, experimental, refinement or atomic coordinate data resulting
# from the CCDC's data processing and validation procedures.
#
#######################################################################

data_CSD_CIF_CONXIN
_audit_creation_date 2009-07-17
_audit_creation_method CSD-ConQuest-V1
_database_code_CSD CONXIN
_database_code_depnum_ccdc_archive 'CCDC 700909'
_chemical_formula_sum 'C9 H10 N4 O2'
_chemical_formula_moiety
;
C9 H10 N4 O2
;
_journal_coden_Cambridge 177
_journal_volume 7
_journal_year 2009
_journal_page_first 325
_journal_name_full 'Org.Biomol.Chem. '
loop_
_publ_author_name
"Y.Nakaike"
"D.Hayashi"
"N.Nishiwaki"
"Y.Tobe"
"M.Ariga"
_chemical_name_systematic
;
3-cyano-5-nitro-2-(propylamino)pyridine
;
_chemical_name_common
;
5-Nitro-2-(propylamino)nicotinonitrile
;
_cell_volume    480.817
_exptl_crystal_colour 'colorless'
_exptl_crystal_density_diffrn 1.424
_exptl_crystal_description 'block'
_diffrn_ambient_temperature 113.2
#These two values have been output from a single CSD field.
_refine_ls_R_factor_gt 0.0356
_refine_ls_wR_factor_gt 0.0356
_symmetry_cell_setting triclinic
_symmetry_space_group_name_H-M 'P -1'
_symmetry_Int_Tables_number 2
loop_
_symmetry_equiv_pos_site_id
_symmetry_equiv_pos_as_xyz
1 x,y,z
2 -x,-y,-z
_cell_length_a 4.5625(6)
_cell_length_b 10.2315(19)
_cell_length_c 11.4327(17)
_cell_angle_alpha 107.479(5)
_cell_angle_beta 100.889(8)
_cell_angle_gamma 101.507(5)
_cell_formula_units_Z 2
loop_
_atom_type_symbol
_atom_type_radius_bond
C 0.68
H 0.23
N 0.68
O 0.68
loop_
_atom_site_label
_atom_site_type_symbol
_atom_site_fract_x
_atom_site_fract_y
_atom_site_fract_z
O1 O 0.31102(18) 0.15802(8) 0.31553(7)
O2 O 0.27832(18) 0.04305(8) 0.11832(7)
N1 N 1.0682(2) 0.46486(9) 0.35091(8)
N2 N 0.4021(2) 0.14305(9) 0.21883(8)
N3 N 1.2220(2) 0.36871(10) -0.06673(8)
N4 N 1.4100(2) 0.57171(9) 0.26107(8)
C1 C 0.8246(2) 0.36119(10) 0.33865(9)
C2 C 0.6683(2) 0.25159(10) 0.22395(9)
C3 C 0.7641(2) 0.24668(10) 0.11502(9)
C4 C 1.0140(2) 0.35473(10) 0.12518(9)
C5 C 1.1667(2) 0.4652(1) 0.24620(9)
C6 C 1.1242(2) 0.35901(10) 0.01650(9)
C7 C 1.5730(2) 0.68204(10) 0.38567(9)
C8 C 1.8041(2) 0.80149(11) 0.37121(10)
C9 C 1.6501(3) 0.88945(12) 0.30643(12)
H1 H 0.77620 0.37280 0.41790
H2 H 0.67140 0.17730 0.03690
H3 H 1.48050 0.56600 0.19130
H4 H 1.42510 0.71970 0.42410
H5 H 1.67840 0.64030 0.43870
H6 H 1.93220 0.76070 0.32240
H7 H 1.93120 0.86260 0.45370
H8 H 1.52140 0.93100 0.35480
H9 H 1.80200 0.96260 0.29950
H10 H 1.52350 0.82940 0.22350
#END
