
#######################################################################
#
#                 Cambridge Crystallographic Data Centre
#                                CCDC
#
#######################################################################
#
# If this CIF has been generated from an entry in the Cambridge
# Structural Database, then it will include bibliographic, chemical,
# crystal, experimental, refinement or atomic coordinate data resulting
# from the CCDC's data processing and validation procedures.
#
#######################################################################

data_CSD_CIF_COQQII
_audit_creation_date 2000-05-03
_audit_creation_method CSD-ConQuest-V1
_database_code_CSD COQQII
_database_code_depnum_ccdc_journal 1003/5356
_chemical_formula_sum 'C18 H22 N4 O4'
_chemical_formula_moiety
;
C18 H22 N4 O4
;
_journal_coden_Cambridge 1003
_journal_volume 28
_journal_year 1998
_journal_page_first 373
_journal_name_full 'J.Chem.Cryst. '
loop_
_publ_author_name
"S.Ryng"
"T.Glowiak"
_chemical_name_systematic
;
N-(p-Ethoxyphenyl) 
5-((morpholino)methyleneamino)-3-methyl-4-isoxazolecarboxamide
;
_chemical_melting_point 475.15
_cell_volume    899.888
_exptl_crystal_colour 'colorless'
_exptl_crystal_density_diffrn 1.323
_exptl_special_details
;
Melting point range 475.15-476.15K
immunosuppressing activity

;
_exptl_crystal_description 'prisms'
_diffrn_ambient_temperature ?
_diffrn_special_details
;
The study was carried out at room temperature,in the range 283-303K

;
#These two values have been output from a single CSD field.
_refine_ls_R_factor_gt 0.0386
_refine_ls_wR_factor_gt 0.0386
_symmetry_cell_setting triclinic
_symmetry_space_group_name_H-M 'P -1'
_symmetry_Int_Tables_number 2
loop_
_symmetry_equiv_pos_site_id
_symmetry_equiv_pos_as_xyz
1 x,y,z
2 -x,-y,-z
_cell_length_a 9.606(3)
_cell_length_b 9.813(3)
_cell_length_c 9.849(3)
_cell_angle_alpha 87.28(3)
_cell_angle_beta 79.06(3)
_cell_angle_gamma 80.89(3)
_cell_formula_units_Z 2
loop_
_atom_type_symbol
_atom_type_radius_bond
C 0.68
N 0.68
O 0.68
loop_
_atom_site_label
_atom_site_type_symbol
_atom_site_fract_x
_atom_site_fract_y
_atom_site_fract_z
O1 O 0.3186(1) 0.5496(2) 0.1962(1)
O2 O 0.8542(2) 0.0269(2) 0.1734(2)
O3 O 0.0948(1) 0.5796(1) 0.6472(1)
O4 O 0.3383(1) 0.1616(2) 1.1183(1)
N1 N 0.1979(2) 0.6568(2) 0.2173(2)
N2 N 0.4434(2) 0.3870(1) 0.3300(2)
N3 N 0.6605(2) 0.2706(2) 0.2216(2)
N4 N 0.2934(2) 0.4153(2) 0.6095(2)
C1 C 0.3338(2) 0.4902(2) 0.3190(2)
C2 C 0.2261(2) 0.5511(2) 0.4205(2)
C3 C 0.1462(2) 0.6546(2) 0.3491(2)
C4 C 0.0183(2) 0.7568(3) 0.4043(3)
C5 C 0.5485(2) 0.3679(2) 0.2240(2)
C6 C 0.7866(3) 0.2631(2) 0.1106(2)
C7 C 0.8291(3) 0.1183(3) 0.0620(3)
C8 C 0.7256(3) 0.0301(2) 0.2738(3)
C9 C 0.6770(2) 0.1708(2) 0.3336(2)
C10 C 0.1976(2) 0.5184(2) 0.5682(2)
C11 C 0.2966(2) 0.3592(2) 0.7429(2)
C12 C 0.1807(2) 0.3751(2) 0.8516(2)
C13 C 0.1920(2) 0.3131(2) 0.9787(2)
C14 C 0.3181(2) 0.2325(2) 0.9988(2)
C15 C 0.4347(2) 0.2178(2) 0.8911(2)
C16 C 0.4241(2) 0.2808(2) 0.7656(2)
C17 C 0.2167(2) 0.1556(3) 1.2254(2)
C18 C 0.2647(3) 0.0585(4) 1.3334(3)
#END
