
#######################################################################
#
#                 Cambridge Crystallographic Data Centre
#                                CCDC
#
#######################################################################
#
# If this CIF has been generated from an entry in the Cambridge
# Structural Database, then it will include bibliographic, chemical,
# crystal, experimental, refinement or atomic coordinate data resulting
# from the CCDC's data processing and validation procedures.
#
#######################################################################

data_CSD_CIF_COQVAF
_audit_creation_date 2000-05-24
_audit_creation_method CSD-ConQuest-V1
_database_code_CSD COQVAF
_database_code_depnum_ccdc_archive 'CCDC 143338'
_chemical_formula_sum 'C10 H8 N2 O3'
_chemical_formula_moiety
;
C10 H8 N2 O3
;
_journal_coeditor_code "IUCr QB0175"
_journal_data_validation_number IUC0000034
_journal_coden_Cambridge 591
_journal_volume 56
_journal_year 2000
_journal_page_first e107
_journal_name_full 'Acta Crystallogr.,Sect.C:Cryst.Struct.Commun. '
loop_
_publ_author_name
"V.N.Nesterov"
"V.P.Kislyi"
"T.V.Timofeeva"
"M.Yu.Antipin"
"V.V.Semenov"
_chemical_name_systematic
;
trans-1-Cyano-2-(2-methoxyphenyl)-1-nitroethylene
;
_cell_volume    970.167
_exptl_crystal_colour 'light yellow'
_exptl_crystal_density_diffrn 1.398
_exptl_crystal_description 'prism'
_diffrn_ambient_temperature ?
_diffrn_special_details
;
The study was carried out at room temperature,in the range 283-303K

;
#These two values have been output from a single CSD field.
_refine_ls_R_factor_gt 0.055
_refine_ls_wR_factor_gt 0.055
_symmetry_cell_setting monoclinic
_symmetry_space_group_name_H-M 'P 21/c'
_symmetry_Int_Tables_number 14
loop_
_symmetry_equiv_pos_site_id
_symmetry_equiv_pos_as_xyz
1 x,y,z
2 x,1/2-y,1/2+z
3 -x,-y,-z
4 -x,-1/2+y,-1/2-z
_cell_length_a 7.1952(13)
_cell_length_b 17.356(3)
_cell_length_c 8.3298(16)
_cell_angle_alpha 90
_cell_angle_beta 111.148(14)
_cell_angle_gamma 90
_cell_formula_units_Z 4
loop_
_atom_type_symbol
_atom_type_radius_bond
C 0.68
H 0.23
N 0.68
O 0.68
loop_
_atom_site_label
_atom_site_type_symbol
_atom_site_fract_x
_atom_site_fract_y
_atom_site_fract_z
O1 O 0.8919(2) 0.56821(7) 0.29503(14)
O2 O 0.9569(2) 0.33299(7) 0.13498(18)
O3 O 0.8233(2) 0.28651(7) -0.12090(19)
N1 N 0.8559(2) 0.33904(7) -0.01625(19)
N2 N 0.5721(4) 0.41135(11) -0.4071(2)
C1 C 0.7159(2) 0.54977(8) 0.00106(18)
C2 C 0.7712(2) 0.59941(9) 0.14553(19)
C3 C 0.7043(3) 0.67504(9) 0.1274(2)
H1 H 0.74160 0.70770 0.22220
C4 C 0.5825(3) 0.70139(9) -0.0316(2)
H2 H 0.53730 0.75200 -0.04320
C5 C 0.5262(3) 0.65395(10) -0.1742(2)
H3 H 0.44340 0.67250 -0.28070
C6 C 0.5930(2) 0.57938(9) -0.15779(19)
H4 H 0.55570 0.54780 -0.25450
C7 C 0.7891(2) 0.47199(8) 0.02849(18)
H5 H 0.86600 0.46020 0.14200
C8 C 0.7650(2) 0.41398(8) -0.08206(18)
C9 C 0.6585(3) 0.41243(10) -0.2627(2)
C10 C 0.9523(4) 0.61460(13) 0.4490(2)
H6 H 1.03740 0.58490 0.54440
H7 H 0.83650 0.63070 0.47170
H8 H 1.02310 0.65910 0.43340
#END
