
#######################################################################
#
#                 Cambridge Crystallographic Data Centre
#                                CCDC
#
#######################################################################
#
# If this CIF has been generated from an entry in the Cambridge
# Structural Database, then it will include bibliographic, chemical,
# crystal, experimental, refinement or atomic coordinate data resulting
# from the CCDC's data processing and validation procedures.
#
#######################################################################

data_CSD_CIF_COSJOK
_audit_creation_date 2009-07-17
_audit_creation_method CSD-ConQuest-V1
_database_code_CSD COSJOK
_database_code_depnum_ccdc_archive 'CCDC 701801'
_chemical_formula_sum 'C26 H21 N1 O4'
_chemical_formula_moiety
;
C26 H21 N1 O4
;
_journal_coden_Cambridge 24
_journal_volume 50
_journal_year 2009
_journal_page_first 704
_journal_name_full 'Tetrahedron Lett. '
loop_
_publ_author_name
"P.Kotame"
"Bor-Cherng Hong"
"Ju-Hsiou Liao"
_chemical_name_systematic
;
10-Nitro-6,9-diphenyl-6a,9,10,10a-tetrahydro-6H-benzo[c]chromene-8-carbaldehyd
e
;
_chemical_melting_point 490.15
_cell_volume   2062.578
_exptl_crystal_colour 'colorless'
_exptl_crystal_density_diffrn 1.325
_exptl_special_details
;
Melting point range 490.15-493.15K

;
_exptl_crystal_description 'parallelepiped'
_diffrn_ambient_temperature 298
#These two values have been output from a single CSD field.
_refine_ls_R_factor_gt 0.0886
_refine_ls_wR_factor_gt 0.0886
_symmetry_cell_setting monoclinic
_symmetry_space_group_name_H-M 'P 21'
_symmetry_Int_Tables_number 4
loop_
_symmetry_equiv_pos_site_id
_symmetry_equiv_pos_as_xyz
1 x,y,z
2 -x,1/2+y,-z
_cell_length_a 8.9585(12)
_cell_length_b 10.1112(14)
_cell_length_c 23.157(3)
_cell_angle_alpha 90
_cell_angle_beta 100.483(2)
_cell_angle_gamma 90
_cell_formula_units_Z 4
loop_
_atom_type_symbol
_atom_type_radius_bond
C 0.68
H 0.23
N 0.68
O 0.68
loop_
_atom_site_label
_atom_site_type_symbol
_atom_site_fract_x
_atom_site_fract_y
_atom_site_fract_z
O1 O 0.5791(4) 0.7008(4) 0.47598(15)
O2 O 0.0848(5) 0.5911(4) 0.39491(18)
O3 O 0.0988(6) 0.6162(5) 0.3053(2)
O4 O -0.1808(5) 0.9488(5) 0.4675(2)
O5 O -0.0889(4) 0.9737(4) 0.99462(14)
O6 O 0.2880(7) 1.0995(4) 0.8952(2)
O7 O 0.2467(6) 1.0404(5) 0.80691(19)
O8 O 0.6566(4) 0.7332(4) 0.97174(17)
N1 N 0.1095(4) 0.6572(4) 0.3544(2)
N2 N 0.2515(5) 1.0196(5) 0.85771(19)
C1 C 0.5665(5) 0.7014(5) 0.4162(2)
C2 C 0.6863(6) 0.6410(7) 0.3953(3)
H1 H 0.76770 0.60560 0.42140
C3 C 0.6829(6) 0.6345(7) 0.3361(3)
H2 H 0.76240 0.59420 0.32190
C4 C 0.5620(7) 0.6875(7) 0.2969(3)
H3 H 0.56080 0.68500 0.25660
C5 C 0.4441(6) 0.7438(6) 0.3187(2)
H4 H 0.36260 0.77840 0.29240
C6 C 0.4416(5) 0.7508(5) 0.3775(2)
C7 C 0.3123(5) 0.8130(5) 0.40307(19)
H5 H 0.33420 0.90800 0.40580
C8 C 0.1534(5) 0.8005(5) 0.3653(2)
H6 H 0.15570 0.84200 0.32720
C9 C 0.0306(5) 0.8729(5) 0.3935(2)
H7 H -0.06440 0.82370 0.38190
C10 C 0.0041(5) 1.0108(5) 0.3671(2)
C11 C -0.0985(7) 1.0273(7) 0.3161(3)
H8 H -0.15270 0.95470 0.29870
C12 C -0.1230(8) 1.1506(8) 0.2899(3)
H9 H -0.19260 1.16010 0.25510
C13 C -0.0454(10) 1.2574(8) 0.3150(4)
H10 H -0.06200 1.34020 0.29750
C14 C 0.0564(10) 1.2431(7) 0.3657(4)
H11 H 0.10890 1.31650 0.38300
C15 C 0.0828(8) 1.1191(6) 0.3919(3)
H12 H 0.15390 1.10990 0.42630
C16 C 0.0651(5) 0.8739(5) 0.4588(2)
C17 C 0.1932(6) 0.8271(5) 0.4914(2)
H13 H 0.20470 0.83300 0.53200
C18 C 0.3183(5) 0.7662(5) 0.46605(19)
H14 H 0.30130 0.67040 0.46470
C19 C 0.4783(6) 0.7896(5) 0.4996(2)
H15 H 0.50760 0.88090 0.49280
C20 C 0.5027(5) 0.7653(5) 0.5647(2)
C21 C 0.5661(7) 0.8617(7) 0.6028(3)
H16 H 0.59520 0.94150 0.58820
C22 C 0.5873(10) 0.8423(9) 0.6621(3)
H17 H 0.62800 0.90990 0.68740
C23 C 0.550(1) 0.7268(10) 0.6843(3)
H18 H 0.56760 0.71360 0.72470
C24 C 0.4852(8) 0.6270(8) 0.6466(3)
H19 H 0.45730 0.54720 0.66160
C25 C 0.4627(6) 0.6475(6) 0.5873(2)
H20 H 0.41980 0.58080 0.56190
C26 C -0.0555(7) 0.9185(6) 0.4902(3)
H21 H -0.03150 0.92330 0.53100
C27 C -0.1360(5) 0.9831(5) 0.93520(19)
C28 C -0.2770(5) 1.0417(5) 0.9172(2)
H22 H -0.33310 1.06940 0.94500
C29 C -0.3336(6) 1.0587(6) 0.8589(2)
H23 H -0.42880 1.09670 0.84700
C30 C -0.2491(6) 1.0193(6) 0.8175(2)
H24 H -0.28660 1.03230 0.77770
C31 C -0.1093(6) 0.9609(5) 0.8353(2)
H25 H -0.05410 0.93350 0.80710
C32 C -0.0492(5) 0.9423(5) 0.89417(19)
C33 C 0.1042(4) 0.8776(4) 0.91741(17)
H26 H 0.08150 0.78380 0.92210
C34 C 0.2184(5) 0.8802(4) 0.87551(19)
H27 H 0.17350 0.83190 0.83990
C35 C 0.3704(5) 0.8116(5) 0.9020(2)
H28 H 0.45070 0.85940 0.88710
C36 C 0.3727(5) 0.6701(4) 0.87975(19)
C37 C 0.4561(7) 0.6375(6) 0.8375(2)
H29 H 0.51430 0.70200 0.82340
C38 C 0.4545(8) 0.5113(7) 0.8160(3)
H30 H 0.51290 0.49040 0.78800
C39 C 0.3673(7) 0.4150(6) 0.8355(3)
H31 H 0.36450 0.33010 0.82000
C40 C 0.2852(6) 0.4451(5) 0.8778(2)
H32 H 0.22710 0.38010 0.89160
C41 C 0.2877(5) 0.5709(5) 0.9002(2)
H33 H 0.23190 0.59030 0.92930
C42 C 0.4085(5) 0.8188(5) 0.9679(2)
C43 C 0.3172(5) 0.8693(5) 1.00242(19)
H34 H 0.35060 0.86810 1.04290
C44 C 0.1655(5) 0.9270(5) 0.97913(18)
H35 H 0.17680 1.02330 0.97740
C45 C 0.0455(5) 0.8968(5) 1.01671(19)
H36 H 0.01950 0.80270 1.01290
C46 C 0.0874(5) 0.9306(5) 1.08113(19)
C47 C 0.0794(5) 0.8344(5) 1.1232(2)
H37 H 0.05540 0.74780 1.11140
C48 C 0.1065(6) 0.8651(6) 1.1817(2)
H38 H 0.10220 0.79940 1.20950
C49 C 0.1402(7) 0.9935(7) 1.1995(2)
H39 H 0.15680 1.01470 1.23930
C50 C 0.1492(6) 1.0907(6) 1.1584(2)
H40 H 0.17200 1.17730 1.17040
C51 C 0.1243(5) 1.0588(5) 1.0999(2)
H41 H 0.13220 1.12410 1.07240
C52 C 0.5590(6) 0.7691(6) 0.9971(2)
H42 H 0.57890 0.76560 1.03790
#END
