
#######################################################################
#
#                 Cambridge Crystallographic Data Centre
#                                CCDC
#
#######################################################################
#
# If this CIF has been generated from an entry in the Cambridge
# Structural Database, then it will include bibliographic, chemical,
# crystal, experimental, refinement or atomic coordinate data resulting
# from the CCDC's data processing and validation procedures.
#
#######################################################################

data_CSD_CIF_COSKIF
_audit_creation_date 2009-07-17
_audit_creation_method CSD-ConQuest-V1
_database_code_CSD COSKIF
_database_code_depnum_ccdc_archive 'CCDC 703235'
_chemical_formula_sum 'C23 H15 N1 O1'
_chemical_formula_moiety
;
C23 H15 N1 O1
;
_journal_coden_Cambridge 24
_journal_volume 50
_journal_year 2009
_journal_page_first 905
_journal_name_full 'Tetrahedron Lett. '
loop_
_publ_author_name
"A.A.Vieira"
"F.R.Bryk"
"G.Conte"
"A.J.Bortoluzzi"
"H.Gallardo"
_chemical_name_systematic
;
5-Phenyl-3-(4-(phenylethynyl)phenyl)isoxazole
;
_cell_volume   1667.345
_exptl_crystal_colour 'orange'
_exptl_crystal_density_diffrn 1.28
_exptl_crystal_description 'plate'
_exptl_crystal_preparation 'acetonitrile'
_diffrn_ambient_temperature 293
#These two values have been output from a single CSD field.
_refine_ls_R_factor_gt 0.0596
_refine_ls_wR_factor_gt 0.0596
_symmetry_cell_setting monoclinic
_symmetry_space_group_name_H-M 'P 21/c'
_symmetry_Int_Tables_number 14
loop_
_symmetry_equiv_pos_site_id
_symmetry_equiv_pos_as_xyz
1 x,y,z
2 -x,1/2+y,1/2-z
3 -x,-y,-z
4 x,-1/2-y,-1/2+z
_cell_length_a 7.403(1)
_cell_length_b 5.770(1)
_cell_length_c 39.119(5)
_cell_angle_alpha 90
_cell_angle_beta 93.78(1)
_cell_angle_gamma 90
_cell_formula_units_Z 4
loop_
_atom_type_symbol
_atom_type_radius_bond
C 0.68
H 0.23
N 0.68
O 0.68
loop_
_atom_site_label
_atom_site_type_symbol
_atom_site_fract_x
_atom_site_fract_y
_atom_site_fract_z
N1 N 0.7240(4) 0.4218(5) 0.48535(8)
O1 O 0.7906(3) 0.4311(4) 0.51997(6)
C1 C 0.8116(5) 0.6593(6) 0.52925(9)
C2 C 0.7604(4) 0.7939(6) 0.50195(9)
H1 H 0.76050 0.95500 0.50100
C3 C 0.7071(4) 0.6390(6) 0.47546(9)
C4 C 0.6376(4) 0.6932(6) 0.44032(9)
C5 C 0.6541(5) 0.5372(6) 0.41333(9)
H2 H 0.71090 0.39530 0.41750
C6 C 0.5872(5) 0.5911(7) 0.38064(10)
H3 H 0.59930 0.48520 0.36300
C7 C 0.5012(5) 0.8034(7) 0.37364(9)
C8 C 0.4848(5) 0.9602(7) 0.40050(9)
H4 H 0.42740 1.10160 0.39620
C9 C 0.5525(5) 0.9074(6) 0.43310(9)
H5 H 0.54210 1.01460 0.45060
C10 C 0.4300(5) 0.8612(7) 0.33899(11)
C11 C 0.3735(5) 0.9150(7) 0.31243(11)
C12 C 0.3064(5) 0.9802(7) 0.27773(9)
C13 C 0.3332(5) 0.8323(7) 0.25012(10)
H6 H 0.39040 0.69070 0.25430
C14 C 0.2785(5) 0.8894(8) 0.21753(11)
H7 H 0.29900 0.78860 0.19960
C15 C 0.1906(6) 1.1009(9) 0.21092(12)
H8 H 0.15280 1.14200 0.18860
C16 C 0.1605(5) 1.2486(8) 0.23779(12)
H9 H 0.10050 1.38820 0.23340
C17 C 0.2180(5) 1.1916(7) 0.27083(10)
H10 H 0.19820 1.29330 0.28860
C18 C 0.8763(4) 0.7047(6) 0.56471(9)
C19 C 0.8480(5) 0.5445(7) 0.59032(9)
H11 H 0.79170 0.40390 0.58490
C20 C 0.9038(5) 0.5950(7) 0.62397(10)
H12 H 0.88450 0.48830 0.64120
C21 C 0.9880(5) 0.8035(7) 0.63207(10)
H13 H 1.02430 0.83710 0.65470
C22 C 1.0184(5) 0.9620(7) 0.60663(10)
H14 H 1.07710 1.10090 0.61210
C23 C 0.9619(5) 0.9147(6) 0.57313(10)
H15 H 0.98080 1.02270 0.55610
#END
