
#######################################################################
#
#                 Cambridge Crystallographic Data Centre
#                                CCDC
#
#######################################################################
#
# If this CIF has been generated from an entry in the Cambridge
# Structural Database, then it will include bibliographic, chemical,
# crystal, experimental, refinement or atomic coordinate data resulting
# from the CCDC's data processing and validation procedures.
#
#######################################################################

data_CSD_CIF_COSQIM
_audit_creation_date 2014-09-17
_audit_creation_method CSD-ConQuest-V1
_database_code_CSD COSQIM
_database_code_depnum_ccdc_archive 'CCDC 1012298'
_chemical_formula_sum 'C23 H28 N4 O5'
_chemical_formula_moiety
;
C23 H28 N4 O5
;
_journal_coden_Cambridge 177
_journal_volume 12
_journal_year 2014
_journal_page_first 8462
_journal_name_full 'Org.Biomol.Chem. '
loop_
_publ_author_name
"S.M.Mali"
"M.G.Kumar"
"M.M.Katariya"
"H.N.Gopi"
_chemical_name_systematic
;
anti-methyl 
4-((t-butoxycarbonyl)amino)-3-(3-oxido-1H-benzotriazol-1-yl)-5-phenylpentanoat
e
;
_cell_volume   2201.539
_exptl_crystal_colour 'colorless'
_exptl_special_details
;
Study temperature published as 173 K in paper, 296 K in CIF

;
_exptl_crystal_description 'rod'
_exptl_crystal_preparation 'methanol/toluene'
_diffrn_ambient_temperature 296
#These two values have been output from a single CSD field.
_refine_ls_R_factor_gt 0.0831
_refine_ls_wR_factor_gt 0.0831
loop_
_citation_database_id_CSD
_citation_special_details
COSQOS "is a stereoisomer of this entry"
_symmetry_cell_setting orthorhombic
_symmetry_space_group_name_H-M 'P 21 21 21'
_symmetry_Int_Tables_number 19
loop_
_symmetry_equiv_pos_site_id
_symmetry_equiv_pos_as_xyz
1 x,y,z
2 1/2-x,-y,1/2+z
3 -x,1/2+y,1/2-z
4 1/2+x,1/2-y,-z
_cell_length_a 5.2262(5)
_cell_length_b 10.1445(9)
_cell_length_c 41.525(3)
_cell_angle_alpha 90
_cell_angle_beta 90
_cell_angle_gamma 90
_cell_formula_units_Z 4
loop_
_atom_type_symbol
_atom_type_radius_bond
C 0.68
H 0.23
N 0.68
O 0.68
loop_
_atom_site_label
_atom_site_type_symbol
_atom_site_fract_x
_atom_site_fract_y
_atom_site_fract_z
C1 C 0.4255(8) 0.9116(4) 0.20075(9)
C2 C 0.2143(10) 0.9259(4) 0.22080(13)
H1 H 0.11200 1.00060 0.21930
C3 C 0.1561(12) 0.8285(6) 0.24317(11)
H2 H 0.01480 0.83810 0.25660
C4 C 0.3091(14) 0.7168(6) 0.24549(14)
H3 H 0.27010 0.65160 0.26050
C5 C 0.5202(13) 0.7025(6) 0.2254(2)
H4 H 0.62250 0.62780 0.22700
C6 C 0.5784(10) 0.7999(6) 0.20307(17)
H5 H 0.71970 0.79040 0.18970
O1 O 0.2079(6) 0.7554(3) 0.09678(9)
C7 C 0.1291(9) 0.8579(4) 0.11477(11)
C8 C 0.1995(11) 0.5703(6) 0.06315(16)
H6 H 0.32140 0.61620 0.05000
H7 H 0.09980 0.51210 0.04990
H8 H 0.28830 0.52010 0.07920
C9 C -0.1474(11) 0.6019(5) 0.10353(14)
H9 H -0.04490 0.56380 0.12030
H10 H -0.24340 0.53380 0.09300
H11 H -0.26300 0.66520 0.11270
C10 C 0.024(1) 0.6693(5) 0.07942(12)
C11 C -0.1193(12) 0.7481(6) 0.05451(15)
H12 H -0.23690 0.80660 0.06510
H13 H -0.21210 0.68940 0.04060
H14 H -0.00010 0.79860 0.04200
O2 O -0.0923(6) 0.8960(3) 0.11759(9)
N1 N 0.3313(7) 0.9130(4) 0.12927(9)
H15 H 0.47730 0.87490 0.12720
C12 C 0.0468(9) 1.1663(4) 0.05236(10)
C13 C 0.0021(10) 1.1393(4) 0.01947(11)
H16 H -0.13660 1.17370 0.00820
C14 C 0.181(1) 1.0577(5) 0.00536(11)
H17 H 0.16400 1.03680 -0.01630
C15 C 0.2520(9) 1.1167(4) 0.06929(10)
C16 C 0.4301(9) 1.0332(5) 0.05461(11)
H18 H 0.56870 0.99870 0.06590
C17 C 0.3894(10) 1.0048(5) 0.02279(11)
H19 H 0.50280 0.94880 0.01230
N2 N -0.0869(7) 1.2443(4) 0.07400(9)
N3 N 0.0218(7) 1.2444(4) 0.10266(9)
N4 N 0.2314(7) 1.1663(4) 0.09979(9)
O3 O -0.2940(6) 1.3095(3) 0.06821(8)
C18 C 0.4067(9) 1.1509(5) 0.12724(10)
H20 H 0.57240 1.12570 0.11810
C19 C 0.3206(9) 1.0330(4) 0.14833(10)
H21 H 0.14440 1.04760 0.15560
C20 C 0.4971(9) 1.0210(5) 0.17784(11)
H22 H 0.67080 1.00650 0.17040
H23 H 0.49460 1.10390 0.18950
O4 O 0.0824(8) 1.2691(4) 0.17932(9)
O5 O 0.2398(14) 1.4656(4) 0.16468(10)
C21 C 0.037(3) 1.5260(8) 0.18465(18)
H24 H -0.12740 1.49990 0.17660
H25 H 0.05220 1.62020 0.18380
H26 H 0.05550 1.49700 0.20650
C22 C 0.2345(12) 1.3336(5) 0.16413(11)
C23 C 0.4488(10) 1.2827(5) 0.14365(12)
H27 H 0.60040 1.27570 0.15700
H28 H 0.48450 1.34780 0.12710
#END
