
#######################################################################
#
#                 Cambridge Crystallographic Data Centre
#                                CCDC
#
#######################################################################
#
# If this CIF has been generated from an entry in the Cambridge
# Structural Database, then it will include bibliographic, chemical,
# crystal, experimental, refinement or atomic coordinate data resulting
# from the CCDC's data processing and validation procedures.
#
#######################################################################

data_CSD_CIF_COSQUY
_audit_creation_date 2014-09-17
_audit_creation_method CSD-ConQuest-V1
_database_code_CSD COSQUY
_database_code_depnum_ccdc_archive 'CCDC 1012300'
_chemical_formula_sum 'C20 H30 N4 O5'
_chemical_formula_moiety
;
C20 H30 N4 O5
;
_journal_coden_Cambridge 177
_journal_volume 12
_journal_year 2014
_journal_page_first 8462
_journal_name_full 'Org.Biomol.Chem. '
loop_
_publ_author_name
"S.M.Mali"
"M.G.Kumar"
"M.M.Katariya"
"H.N.Gopi"
_chemical_name_systematic
;
syn-methyl 
4-((t-butoxycarbonyl)amino)-6-methyl-3-(3-oxido-1H-benzotriazol-1-yl)heptanoat
e
;
_cell_volume   2297.636
_exptl_crystal_colour 'colorless'
_exptl_crystal_preparation 'ethyl acetate'
_diffrn_ambient_temperature 100
#These two values have been output from a single CSD field.
_refine_ls_R_factor_gt 0.0791
_refine_ls_wR_factor_gt 0.0791
_symmetry_cell_setting orthorhombic
_symmetry_space_group_name_H-M 'P 21 21 21'
_symmetry_Int_Tables_number 19
loop_
_symmetry_equiv_pos_site_id
_symmetry_equiv_pos_as_xyz
1 x,y,z
2 1/2+x,1/2-y,-z
3 -x,1/2+y,1/2-z
4 1/2-x,-y,1/2+z
_cell_length_a 9.730(5)
_cell_length_b 10.761(5)
_cell_length_c 21.944(10)
_cell_angle_alpha 90
_cell_angle_beta 90
_cell_angle_gamma 90
_cell_formula_units_Z 4
loop_
_atom_type_symbol
_atom_type_radius_bond
C 0.68
H 0.23
N 0.68
O 0.68
loop_
_atom_site_label
_atom_site_type_symbol
_atom_site_fract_x
_atom_site_fract_y
_atom_site_fract_z
O1 O 0.3830(4) 0.8297(4) 0.06386(15)
O2 O 0.4404(5) 1.0199(4) 0.10371(18)
O3 O 0.0134(4) 1.2612(4) 0.36456(16)
O4 O 0.1663(4) 0.8105(5) 0.30945(19)
O5 O 0.3921(5) 0.8441(5) 0.31859(19)
N1 N 0.2222(5) 0.9429(5) 0.10856(18)
H1 H 0.16790 0.88670 0.09460
N2 N 0.0544(5) 1.0494(5) 0.25220(19)
N3 N 0.1069(5) 1.1392(5) 0.28925(19)
C1 C 0.3980(8) 0.7525(9) 0.3681(4)
H2 H 0.35960 0.78790 0.40450
H3 H 0.49190 0.72950 0.37540
H4 H 0.34620 0.68010 0.35680
C2 C 0.6144(7) 0.7891(7) 0.1071(2)
H5 H 0.70580 0.76230 0.09720
H6 H 0.57340 0.73090 0.13480
H7 H 0.61810 0.86970 0.12580
C3 C 0.5282(6) 0.7960(6) 0.0489(2)
C4 C 0.3574(7) 0.9389(7) 0.0932(2)
C5 C 0.1661(6) 1.0405(6) 0.1483(2)
H8 H 0.23490 1.10640 0.15250
C6 C 0.1447(6) 0.9784(6) 0.2112(2)
H9 H 0.10060 0.89790 0.20400
C7 C -0.0811(6) 1.0271(6) 0.2641(2)
C8 C -0.1775(6) 0.9456(6) 0.2393(2)
H10 H -0.15560 0.89260 0.20730
C9 C -0.3069(6) 0.9477(7) 0.2648(3)
H11 H -0.37300 0.89240 0.25050
C10 C -0.3428(6) 1.0320(7) 0.3124(3)
H12 H -0.43230 1.03230 0.32720
C11 C 0.5092(7) 0.6669(6) 0.0209(3)
H13 H 0.45440 0.67330 -0.01530
H14 H 0.46400 0.61370 0.04970
H15 H 0.59740 0.63260 0.01080
C12 C 0.5873(6) 0.8838(7) 0.0030(3)
H16 H 0.52700 0.88900 -0.03150
H17 H 0.67560 0.85410 -0.01000
H18 H 0.59720 0.96460 0.02100
N4 N 0.0010(5) 1.1733(5) 0.32441(19)
C13 C -0.1176(6) 1.1084(6) 0.3111(2)
C14 C -0.2484(6) 1.1125(6) 0.3368(3)
H19 H -0.27030 1.16630 0.36850
C15 C 0.2815(6) 0.9530(6) 0.2422(2)
H20 H 0.34580 0.92090 0.21230
H21 H 0.31830 1.03060 0.25780
C16 C 0.2694(7) 0.8619(6) 0.2937(3)
C17 C 0.0364(6) 1.0961(6) 0.1197(2)
H22 H -0.01070 1.14580 0.15010
H23 H -0.02470 1.02900 0.10800
C18 C 0.0659(7) 1.1781(8) 0.0632(3)
H24 H 0.12710 1.13260 0.03570
C19 C -0.0676(8) 1.2066(9) 0.0296(3)
H25 H -0.13060 1.24670 0.05690
H26 H -0.10730 1.13060 0.01500
H27 H -0.04880 1.26050 -0.00420
C20 C 0.1373(8) 1.2997(8) 0.0826(3)
H28 H 0.15610 1.34930 0.04720
H29 H 0.22200 1.28050 0.10300
H30 H 0.07840 1.34510 0.10980
#END
