
#######################################################################
#
#                 Cambridge Crystallographic Data Centre
#                                CCDC
#
#######################################################################
#
# If this CIF has been generated from an entry in the Cambridge
# Structural Database, then it will include bibliographic, chemical,
# crystal, experimental, refinement or atomic coordinate data resulting
# from the CCDC's data processing and validation procedures.
#
#######################################################################

data_CSD_CIF_COSREJ
_audit_creation_date 2014-09-17
_audit_creation_method CSD-ConQuest-V1
_database_code_CSD COSREJ
_database_code_depnum_ccdc_archive 'CCDC 1012302'
_chemical_formula_sum 'C32 H44 N6 O7'
_chemical_formula_moiety
;
C32 H44 N6 O7
;
_journal_coden_Cambridge 177
_journal_volume 12
_journal_year 2014
_journal_page_first 8462
_journal_name_full 'Org.Biomol.Chem. '
loop_
_publ_author_name
"S.M.Mali"
"M.G.Kumar"
"M.M.Katariya"
"H.N.Gopi"
_chemical_name_systematic
;
methyl 
N-(4-((N-(t-butoxycarbonyl)phenylalanyl)amino)-6-methyl-3-(3-oxido-1H-benzotri
azol-1-yl)heptanoyl)alaninate
;
_chemical_name_common
;
PEPSEQ A=3 PHE*,UND,ALA*
;
_cell_volume   3302.562
_exptl_crystal_colour 'colorless'
_exptl_crystal_density_diffrn 1.256
_exptl_crystal_description 'square block'
_exptl_crystal_preparation 'methanol'
_diffrn_ambient_temperature 100
#These two values have been output from a single CSD field.
_refine_ls_R_factor_gt 0.0451
_refine_ls_wR_factor_gt 0.0451
_symmetry_cell_setting orthorhombic
_symmetry_space_group_name_H-M 'P 21 21 21'
_symmetry_Int_Tables_number 19
loop_
_symmetry_equiv_pos_site_id
_symmetry_equiv_pos_as_xyz
1 x,y,z
2 1/2-x,-y,1/2+z
3 -x,1/2+y,1/2-z
4 1/2+x,1/2-y,-z
_cell_length_a 9.002(3)
_cell_length_b 14.970(4)
_cell_length_c 24.507(7)
_cell_angle_alpha 90
_cell_angle_beta 90
_cell_angle_gamma 90
_cell_formula_units_Z 4
loop_
_atom_type_symbol
_atom_type_radius_bond
C 0.68
H 0.23
N 0.68
O 0.68
loop_
_atom_site_label
_atom_site_type_symbol
_atom_site_fract_x
_atom_site_fract_y
_atom_site_fract_z
C1 C 0.7169(2) 0.79763(10) 0.70346(6)
C2 C 0.8579(2) 0.70204(11) 0.77060(7)
H1 H 0.87910 0.64060 0.78050
H2 H 0.94820 0.72730 0.75550
C3 C 0.57689(19) 0.93721(10) 0.71006(7)
H3 H 0.58860 0.94130 0.67040
C4 C 0.41708(19) 0.96289(10) 0.72429(7)
H4 H 0.40680 1.02720 0.72100
H5 H 0.39840 0.94730 0.76210
C5 C 0.69470(19) 0.99871(10) 0.73698(6)
H6 H 0.79110 0.96850 0.73450
C6 C 0.66448(19) 1.01746(10) 0.79672(7)
H7 H 0.57590 1.05400 0.79980
H8 H 0.64550 0.96140 0.81530
C7 C 0.8641(2) 1.14599(11) 0.90762(7)
H9 H 0.95930 1.11580 0.90160
C8 C 0.7011(2) 0.6213(1) 0.64005(7)
C9 C 0.7923(2) 1.06486(10) 0.82467(7)
C10 C 0.7777(2) 1.09699(10) 0.65784(7)
C11 C 0.8620(2) 1.04095(11) 0.62377(7)
H10 H 0.87790 0.98100 0.63170
C12 C 0.7525(2) 1.18586(11) 0.64466(7)
C13 C 0.7376(2) 0.70216(10) 0.72588(7)
H11 H 0.64360 0.68050 0.74110
C14 C 0.2831(2) 0.96523(12) 0.63359(8)
H12 H 0.24330 1.02400 0.63920
H13 H 0.21740 0.93170 0.61050
H14 H 0.37880 0.96970 0.61650
C15 C 0.8174(2) 1.12917(11) 0.96613(7)
C16 C 0.8307(2) 0.47872(11) 0.52884(7)
H15 H 0.86360 0.43250 0.55320
H16 H 0.91210 0.51800 0.52080
H17 H 0.79510 0.45240 0.49560
C17 C 0.8627(2) 0.87489(12) 0.88459(8)
H18 H 0.91500 0.92640 0.89370
C18 C 0.9192(3) 1.08082(12) 0.57800(8)
H19 H 0.97560 1.04640 0.55420
C19 C 0.7057(2) 0.53150(11) 0.55570(7)
C20 C 0.2987(2) 0.91796(11) 0.68851(7)
H20 H 0.33010 0.85630 0.68160
C21 C 0.8963(3) 1.17211(12) 0.56536(8)
H21 H 0.93980 1.19600 0.53420
C22 C 0.6551(2) 0.60642(11) 0.51815(7)
H22 H 0.73770 0.64470 0.51000
H23 H 0.57860 0.64050 0.53580
H24 H 0.61690 0.58140 0.48490
C23 C 0.8857(2) 1.24532(11) 0.89609(8)
H25 H 0.79400 1.27640 0.90240
H26 H 0.91560 1.25330 0.85880
H27 H 0.96100 1.26870 0.91990
C24 C 0.8186(2) 0.75303(11) 0.82198(7)
C25 C 0.5806(2) 0.46878(11) 0.57297(7)
H28 H 0.49620 0.50330 0.58430
H29 H 0.61380 0.43210 0.60270
H30 H 0.55320 0.43150 0.54270
C26 C 0.1504(2) 0.91538(13) 0.71868(9)
H31 H 0.12110 0.97510 0.72810
H32 H 0.16060 0.88040 0.75130
H33 H 0.07620 0.88900 0.69560
C27 C 0.8946(2) 0.83041(12) 0.83634(8)
H34 H 0.96770 0.85270 0.81330
C28 C 0.7071(2) 0.72278(13) 0.85664(8)
H35 H 0.65320 0.67200 0.84730
C29 C 0.8113(2) 1.22614(12) 0.59820(7)
H36 H 0.79410 1.28590 0.58990
C30 C 0.8719(3) 1.15649(13) 1.05844(7)
H37 H 0.86630 1.09420 1.06760
H38 H 0.77710 1.18410 1.06470
H39 H 0.94570 1.18490 1.08080
C31 C 0.6749(3) 0.76736(14) 0.90517(8)
H40 H 0.60040 0.74610 0.92810
C32 C 0.7538(3) 0.84311(14) 0.91919(8)
H41 H 0.73360 0.87260 0.95180
O1 O 0.92049(14) 1.06169(8) 0.80702(5)
O2 O 0.57220(13) 0.64561(8) 0.63440(5)
O3 O 0.91214(15) 1.16594(8) 1.00140(5)
O4 O 0.77831(14) 0.56917(7) 0.60466(5)
O5 O 0.80065(14) 0.82867(7) 0.66889(5)
O6 O 0.61533(16) 1.29966(7) 0.69071(5)
O7 O 0.70929(19) 1.08790(12) 0.97975(6)
N1 N 0.70507(16) 1.08272(8) 0.70589(5)
N2 N 0.78769(16) 0.64183(9) 0.68287(5)
H42 H 0.87500 0.61880 0.68500
N3 N 0.75494(16) 1.10598(9) 0.87155(6)
H43 H 0.66270 1.10870 0.88050
N4 N 0.66535(17) 1.21950(9) 0.68644(6)
N5 N 0.60483(16) 0.84464(8) 0.72638(6)
H44 H 0.54960 0.82000 0.75070
N6 N 0.63573(17) 1.15780(9) 0.72372(6)
#END
