
#######################################################################
#
#                 Cambridge Crystallographic Data Centre
#                                CCDC
#
#######################################################################
#
# If this CIF has been generated from an entry in the Cambridge
# Structural Database, then it will include bibliographic, chemical,
# crystal, experimental, refinement or atomic coordinate data resulting
# from the CCDC's data processing and validation procedures.
#
#######################################################################

data_CSD_CIF_COSRAF
_audit_creation_date 2014-09-17
_audit_creation_method CSD-ConQuest-V1
_database_code_CSD COSRAF
_database_code_depnum_ccdc_archive 'CCDC 1012301'
_chemical_formula_sum 'C25 H39 N5 O6'
_chemical_formula_moiety
;
C25 H39 N5 O6
;
_journal_coden_Cambridge 177
_journal_volume 12
_journal_year 2014
_journal_page_first 8462
_journal_name_full 'Org.Biomol.Chem. '
loop_
_publ_author_name
"S.M.Mali"
"M.G.Kumar"
"M.M.Katariya"
"H.N.Gopi"
_chemical_name_systematic
;
methyl 
N-(4-((t-butoxycarbonyl)amino)-5-methyl-3-(3-oxido-1H-benzotriazol-1-yl)hexano
yl)leucinate
;
_cell_volume   1425.323
_exptl_crystal_colour 'colorless'
_exptl_crystal_density_diffrn 1.178
_exptl_special_details
;
Study temperature published as 200 K in paper, 100 K in CIF

;
_exptl_crystal_description 'rod'
_exptl_crystal_preparation 'ethyl acetate'
_diffrn_ambient_temperature 100
#These two values have been output from a single CSD field.
_refine_ls_R_factor_gt 0.0954
_refine_ls_wR_factor_gt 0.0954
_symmetry_cell_setting triclinic
_symmetry_space_group_name_H-M 'P 1'
_symmetry_Int_Tables_number 1
loop_
_symmetry_equiv_pos_site_id
_symmetry_equiv_pos_as_xyz
1 x,y,z
_cell_length_a 10.152(9)
_cell_length_b 12.510(11)
_cell_length_c 12.604(11)
_cell_angle_alpha 92.420(18)
_cell_angle_beta 102.861(13)
_cell_angle_gamma 112.672(14)
_cell_formula_units_Z 2
loop_
_atom_type_symbol
_atom_type_radius_bond
C 0.68
H 0.23
N 0.68
O 0.68
loop_
_atom_site_label
_atom_site_type_symbol
_atom_site_fract_x
_atom_site_fract_y
_atom_site_fract_z
O1 O 1.2835(9) 0.5099(7) 1.2662(9)
O2 O 0.6918(11) 0.3307(8) 0.7073(9)
O3 O 0.7355(12) 0.4088(10) 0.5551(9)
O4 O 0.9622(9) 0.5606(7) 0.8344(8)
O5 O 0.5579(9) 0.1598(7) 1.0262(9)
O6 O 1.4220(9) 0.7030(8) 1.2560(9)
N1 N 0.9794(10) 0.3901(8) 0.8019(9)
H1 H 0.99920 0.33480 0.82960
N2 N 1.1718(11) 0.6265(8) 1.2067(9)
H2 H 1.17590 0.69510 1.19600
N3 N 0.8034(10) 0.4289(8) 1.0214(9)
N4 N 0.7717(11) 0.3208(8) 1.0481(9)
N5 N 0.6261(11) 0.2692(9) 1.0157(9)
C1 C 1.1835(17) 0.3710(14) 0.5873(17)
H3 H 1.28260 0.37540 0.60300
H4 H 1.18480 0.44350 0.61670
H5 H 1.14210 0.35670 0.50910
C2 C 1.0929(14) 0.2747(11) 0.6379(12)
H6 H 1.14320 0.28760 0.71630
C3 C 0.9344(14) 0.2721(11) 0.6289(12)
H7 H 0.88300 0.25850 0.55160
H8 H 0.88000 0.20610 0.66200
C4 C 0.9307(15) 0.3812(12) 0.6821(13)
H9 H 0.99970 0.44940 0.65850
C5 C 0.9938(13) 0.4807(10) 0.8686(12)
C6 C 1.0471(14) 0.4807(11) 0.9860(11)
H10 H 1.15060 0.53380 1.01040
H11 H 1.03990 0.40280 0.99830
C7 C 0.9610(13) 0.5171(10) 1.0547(12)
H12 H 0.96220 0.59270 1.03630
C8 C 1.0200(14) 0.5297(10) 1.1808(12)
H13 H 1.03140 0.45760 1.19780
C9 C 1.3047(16) 0.6186(13) 1.2453(14)
C10 C 1.4145(15) 0.4813(13) 1.3053(14)
C11 C 1.3436(18) 0.3556(12) 1.3193(16)
H14 H 1.27300 0.34610 1.36160
H15 H 1.41790 0.33090 1.35680
H16 H 1.29430 0.30890 1.24840
C12 C 0.5412(17) 0.3244(15) 0.6715(15)
H17 H 0.54470 0.40190 0.66740
H18 H 0.48690 0.28920 0.72330
H19 H 0.49330 0.27800 0.60040
C13 C 0.7761(18) 0.3763(13) 0.6412(18)
C14 C 0.5645(12) 0.3423(10) 0.9748(12)
C15 C 0.6777(14) 0.4449(11) 0.9733(12)
C16 C 0.6538(14) 0.5355(11) 0.9241(12)
H20 H 0.73220 0.60170 0.91590
C17 C 0.5091(17) 0.5238(13) 0.8875(14)
H21 H 0.48880 0.58440 0.85810
C18 C 0.3908(16) 0.4171(13) 0.8956(14)
H22 H 0.29440 0.41130 0.87220
C19 C 0.4120(13) 0.3242(12) 0.9354(13)
H23 H 0.33420 0.25440 0.93720
C20 C 1.5013(19) 0.5519(14) 1.4169(16)
H24 H 1.55880 0.63090 1.40820
H25 H 1.56600 0.51790 1.45330
H26 H 1.43450 0.55190 1.46010
C21 C 0.9300(14) 0.5509(11) 1.2500(11)
H27 H 0.83170 0.48660 1.22640
C22 C 0.9904(16) 0.5483(12) 1.3696(12)
H28 H 1.00530 0.47760 1.37780
H29 H 0.92150 0.55110 1.40980
H30 H 1.08290 0.61460 1.39750
C23 C 0.9081(18) 0.6668(12) 1.2354(14)
H31 H 1.00170 0.73240 1.26140
H32 H 0.84170 0.67210 1.27690
H33 H 0.86750 0.66710 1.15910
C24 C 1.0799(18) 0.1560(13) 0.5890(16)
H34 H 1.01980 0.13620 0.51460
H35 H 1.03510 0.09720 0.63170
H36 H 1.17650 0.16000 0.58990
C25 C 1.501(2) 0.4994(19) 1.2223(16)
H37 H 1.43510 0.46650 1.15050
H38 H 1.56810 0.46170 1.23850
H39 H 1.55600 0.58170 1.22400
O7 O 0.3051(10) 0.8583(8) 0.6633(9)
O8 O 0.2655(11) 0.6688(8) 0.6794(9)
O9 O 0.0607(10) 1.2229(7) 0.9002(9)
O10 O 0.1558(10) 0.8124(7) 1.0861(8)
O11 O 0.1720(12) 1.0497(11) 1.2030(14)
N6 N 0.1083(12) 0.7467(9) 0.7145(10)
H40 H 0.04570 0.67830 0.71890
N7 N 0.3587(11) 0.9866(9) 1.1222(10)
H41 H 0.42050 1.04110 1.09680
N8 N 0.0308(13) 0.9445(8) 0.8979(11)
N9 N 0.0217(12) 1.1122(9) 0.9066(10)
C26 C 0.560(2) 0.8669(19) 0.726(2)
H42 H 0.56470 0.90590 0.79530
H43 H 0.65480 0.89870 0.71110
H44 H 0.53040 0.78470 0.72990
C27 C 0.4456(18) 0.8850(14) 0.6343(16)
C28 C 0.2352(17) 0.7502(13) 0.6858(13)
C29 C 0.0682(14) 0.8424(10) 0.7378(11)
H45 H 0.14150 0.91280 0.72040
C30 C 0.0861(14) 0.8613(10) 0.8623(12)
H46 H 0.02500 0.78560 0.88040
C31 C 0.2425(13) 0.8928(11) 0.9324(12)
H47 H 0.27820 0.83620 0.90990
H48 H 0.30680 0.96910 0.91990
C32 C 0.2502(14) 0.8950(12) 1.0510(12)
C33 C 0.3743(14) 0.9961(12) 1.2384(13)
H49 H 0.39140 0.92850 1.26410
C34 C 0.5126(14) 1.1072(13) 1.2946(18)
H50 H 0.51550 1.12090 1.37160
H51 H 0.50530 1.17380 1.26100
C35 C 0.6581(14) 1.0987(12) 1.2859(12)
H52 H 0.64390 1.06780 1.20960
C36 C 0.6978(17) 1.0175(13) 1.3574(15)
H53 H 0.78700 1.01410 1.34700
H54 H 0.61920 0.94080 1.33810
H55 H 0.71280 1.04570 1.43300
C37 C 0.419(2) 0.8115(15) 0.5258(18)
H56 H 0.38770 0.73060 0.53560
H57 H 0.50830 0.83660 0.50230
H58 H 0.34290 0.82100 0.47110
C38 C 0.491(2) 1.0141(13) 0.6234(19)
H59 H 0.41150 1.02480 0.57430
H60 H 0.57670 1.04110 0.59470
H61 H 0.51430 1.05810 0.69430
C39 C -0.0816(16) 0.8262(11) 0.6665(13)
H62 H -0.10050 0.89440 0.68690
C40 C -0.079(2) 0.8223(14) 0.5461(13)
H63 H -0.01020 0.89610 0.53490
H64 H -0.17630 0.80710 0.50120
H65 H -0.05060 0.76120 0.52620
C41 C -0.2083(14) 0.7148(12) 0.6859(13)
H66 H -0.30140 0.70770 0.64030
H67 H -0.20990 0.72150 0.76170
H68 H -0.19140 0.64670 0.66760
N10 N 0.0956(11) 1.0577(9) 0.8704(9)
C42 C -0.0870(14) 1.0421(11) 0.9515(12)
C43 C -0.1957(18) 1.0605(14) 0.9918(13)
H69 H -0.20390 1.13200 0.99240
C44 C -0.289(2) 0.9688(14) 1.0301(13)
H70 H -0.36470 0.97600 1.05550
C45 C -0.2695(18) 0.8635(13) 1.0311(14)
H71 H -0.33140 0.80320 1.06060
C46 C -0.1631(17) 0.8449(13) 0.9904(14)
H72 H -0.15040 0.77520 0.99300
C47 C -0.0792(16) 0.9349(11) 0.9467(13)
C48 C 0.7803(15) 1.2215(13) 1.3095(14)
H73 H 0.77970 1.26180 1.37580
H74 H 0.76430 1.26350 1.24940
H75 H 0.87420 1.21660 1.31830
C49 C 0.233(2) 0.9982(16) 1.2764(19)
O12 O 0.2134(16) 0.9699(13) 1.3574(14)
C50 C 0.048(2) 1.0534(19) 1.257(2)
H76 H 0.08270 1.06220 1.33520
H77 H -0.03860 0.98190 1.23130
H78 H 0.02490 1.11840 1.23630
#END
