
#######################################################################
#
#                 Cambridge Crystallographic Data Centre
#                                CCDC
#
#######################################################################
#
# If this CIF has been generated from an entry in the Cambridge
# Structural Database, then it will include bibliographic, chemical,
# crystal, experimental, refinement or atomic coordinate data resulting
# from the CCDC's data processing and validation procedures.
#
#######################################################################

data_CSD_CIF_COTHUQ
_audit_creation_date 2015-02-25
_audit_creation_method CSD-ConQuest-V1
_database_code_CSD COTHUQ
_database_code_depnum_ccdc_archive 'CCDC 1003948'
_chemical_formula_sum 'C14 H12 N2 O5'
_chemical_formula_moiety
;
C14 H12 N2 O5
;
_journal_coden_Cambridge 692
_journal_volume 46
_journal_year 2014
_journal_page_first 2808
_journal_name_full 'Synthesis '
loop_
_publ_author_name
"Gu Liu"
"C.S.Lancefield"
"M.M.Lorion"
"A.M.Z.Slawin"
"N.J.Westwood"
_chemical_name_systematic
;
10-nitro-3,3a,5,6-tetrahydro-12H-cyclopenta[2,3][1,4]oxazino[4,3-a]indole-1,12
(2H)-dione
;
_cell_volume   2516.916
_exptl_crystal_colour 'yellow'
_exptl_crystal_density_diffrn 1.521
_exptl_crystal_description 'prism'
_diffrn_ambient_temperature 93
#These two values have been output from a single CSD field.
_refine_ls_R_factor_gt 0.0617
_refine_ls_wR_factor_gt 0.0617
_symmetry_cell_setting monoclinic
_symmetry_space_group_name_H-M 'P 21/n'
_symmetry_Int_Tables_number 14
loop_
_symmetry_equiv_pos_site_id
_symmetry_equiv_pos_as_xyz
1 x,y,z
2 1/2-x,1/2+y,1/2-z
3 -x,-y,-z
4 -1/2+x,-1/2-y,-1/2+z
_cell_length_a 10.452(4)
_cell_length_b 16.148(6)
_cell_length_c 14.980(5)
_cell_angle_alpha 90
_cell_angle_beta 95.441(11)
_cell_angle_gamma 90
_cell_formula_units_Z 8
loop_
_atom_type_symbol
_atom_type_radius_bond
C 0.68
H 0.23
N 0.68
O 0.68
loop_
_atom_site_label
_atom_site_type_symbol
_atom_site_fract_x
_atom_site_fract_y
_atom_site_fract_z
O1 O 0.9652(2) 0.14098(14) 0.01853(14)
O2 O 0.8523(3) 0.46754(16) -0.02810(15)
O3 O 0.8376(3) 0.53767(15) 0.09356(14)
O4 O 1.0458(2) 0.03315(14) 0.29269(14)
O5 O 0.7158(2) 0.06018(14) 0.17776(14)
N1 N 0.8500(3) 0.47142(18) 0.05429(18)
N2 N 0.9086(3) 0.17682(16) 0.24427(16)
C1 C 0.9377(3) 0.1678(2) 0.0905(2)
C2 C 0.9045(3) 0.2514(2) 0.11580(19)
C3 C 0.8897(3) 0.3221(2) 0.0637(2)
C4 C 0.8634(3) 0.3954(2) 0.10566(19)
C5 C 0.8501(3) 0.3981(2) 0.1985(2)
C6 C 0.8633(3) 0.3285(2) 0.2503(2)
C7 C 0.8908(3) 0.2536(2) 0.20882(19)
C8 C 0.9258(4) 0.1524(2) 0.33887(19)
C9 C 1.0493(4) 0.1016(2) 0.3544(2)
C10 C 1.0512(3) 0.0618(2) 0.2019(2)
C11 C 0.9325(3) 0.1156(2) 0.17730(19)
C12 C 1.0303(4) -0.0150(2) 0.1415(2)
C13 C 0.8856(3) -0.0303(2) 0.1333(2)
C14 C 0.8259(3) 0.0490(2) 0.16279(18)
H1 H 0.89735 0.32023 0.00101
H2 H 0.83170 0.44943 0.22553
H3 H 0.85406 0.33070 0.31276
H4 H 0.85145 0.11908 0.35411
H5 H 0.93179 0.20230 0.37751
H6 H 1.12432 0.13717 0.34601
H7 H 1.05869 0.08045 0.41677
H8 H 1.13323 0.09130 0.19331
H9 H 1.06045 -0.00459 0.08186
H10 H 1.07714 -0.06333 0.16903
H11 H 0.85394 -0.04363 0.07059
H12 H 0.86445 -0.07696 0.17226
O6 O 0.3870(2) 0.17806(14) -0.01225(14)
O7 O 0.3307(2) -0.15789(15) -0.01579(15)
O8 O 0.3332(3) -0.21717(16) 0.11369(15)
O9 O 0.5436(2) 0.29929(14) 0.24834(13)
O10 O 0.1969(2) 0.26514(16) 0.16332(15)
N3 N 0.3397(3) -0.15509(18) 0.06620(19)
N4 N 0.4036(3) 0.15509(16) 0.22375(16)
C15 C 0.3826(3) 0.0704(2) 0.10099(19)
C16 C 0.3941(3) 0.1542(2) 0.0653(2)
C17 C 0.3674(3) -0.0051(2) 0.0568(2)
C18 C 0.3571(3) -0.0751(2) 0.1095(2)
C19 C 0.3621(3) -0.0705(2) 0.2035(2)
C20 C 0.3786(3) 0.00387(19) 0.2473(2)
C21 C 0.3893(3) 0.0754(2) 0.19513(19)
C22 C 0.4399(3) 0.1845(2) 0.3146(2)
C23 C 0.5607(4) 0.2357(2) 0.3150(2)
C24 C 0.5322(3) 0.2665(2) 0.1582(2)
C25 C 0.4104(3) 0.2113(2) 0.14877(19)
C26 C 0.4981(4) 0.3382(2) 0.0951(2)
C27 C 0.3551(4) 0.3554(2) 0.1005(2)
C28 C 0.3017(4) 0.2763(2) 0.1399(2)
H13 H 0.36408 -0.00873 -0.00667
H14 H 0.35391 -0.11973 0.23722
H15 H 0.38260 0.00693 0.31084
H16 H 0.45496 0.13679 0.35575
H17 H 0.36974 0.21849 0.33543
H18 H 0.58090 0.26100 0.37489
H19 H 0.63362 0.19968 0.30255
H20 H 0.61103 0.23621 0.14356
H21 H 0.51445 0.32346 0.03305
H22 H 0.54998 0.38761 0.11377
H23 H 0.34316 0.40355 0.13984
H24 H 0.31149 0.36693 0.04023
#END
