
#######################################################################
#
#                 Cambridge Crystallographic Data Centre
#                                CCDC
#
#######################################################################
#
# If this CIF has been generated from an entry in the Cambridge
# Structural Database, then it will include bibliographic, chemical,
# crystal, experimental, refinement or atomic coordinate data resulting
# from the CCDC's data processing and validation procedures.
#
#######################################################################

data_CSD_CIF_COTLON
_audit_creation_date 2009-07-17
_audit_creation_method CSD-ConQuest-V1
_database_code_CSD COTLON
_database_code_depnum_ccdc_archive 'CCDC 233603'
_chemical_formula_sum 'C7 H7 N3 O4'
_chemical_formula_moiety
;
C7 H7 N3 O4
;
_journal_coden_Cambridge 1078
_journal_year 2009
_journal_name_full 'CSD Communication(Private Communication) '
loop_
_publ_author_name
"J.R.Hanson"
"P.B.Hitchcock"
_chemical_name_systematic
;
3-Amino-2,4-dinitrotoluene
;
_cell_volume    817.034
_exptl_crystal_colour 'yellow'
_exptl_crystal_density_diffrn 1.603
_exptl_special_details
;
contribution from Chemistry Department,University of Sussex, Brighton

;
_exptl_crystal_description 'plate'
_diffrn_ambient_temperature 173
#These two values have been output from a single CSD field.
_refine_ls_R_factor_gt 0.0836
_refine_ls_wR_factor_gt 0.0836
_symmetry_cell_setting triclinic
_symmetry_space_group_name_H-M 'P -1'
_symmetry_Int_Tables_number 2
loop_
_symmetry_equiv_pos_site_id
_symmetry_equiv_pos_as_xyz
1 x,y,z
2 -x,-y,-z
_cell_length_a 8.0836(3)
_cell_length_b 9.1678(3)
_cell_length_c 11.9776(5)
_cell_angle_alpha 93.196(2)
_cell_angle_beta 98.211(2)
_cell_angle_gamma 110.589(2)
_cell_formula_units_Z 4
loop_
_atom_type_symbol
_atom_type_radius_bond
C 0.68
H 0.23
N 0.68
O 0.68
loop_
_atom_site_label
_atom_site_type_symbol
_atom_site_fract_x
_atom_site_fract_y
_atom_site_fract_z
O1 O 0.7838(8) 0.6287(6) 1.0870(4)
O2 O 0.8231(6) 0.5035(5) 0.9416(4)
O3 O 1.2732(6) 0.9687(6) 0.7662(4)
O4 O 1.1364(7) 1.1159(5) 0.6965(4)
N1 N 0.8116(6) 0.6204(6) 0.9900(4)
N2 N 1.0952(7) 0.7306(7) 0.8686(5)
H1 H 1.178(12) 0.755(10) 0.825(7)
H2 H 1.074(8) 0.641(8) 0.887(5)
N3 N 1.1448(6) 1.0133(5) 0.7558(4)
C1 C 0.7091(7) 0.8306(7) 0.9320(4)
C2 C 0.8329(7) 0.7577(6) 0.9283(4)
C3 C 0.9812(7) 0.8075(6) 0.8702(4)
C4 C 0.9982(7) 0.9442(6) 0.8168(4)
C5 C 0.8769(7) 1.0202(6) 0.8199(5)
H3 H 0.905(9) 1.118(9) 0.778(6)
C6 C 0.7340(7) 0.9633(7) 0.8740(5)
H4 H 0.655(9) 1.021(7) 0.871(5)
C7 C 0.5475(9) 0.7697(11) 0.9886(6)
H5 H 0.487(16) 0.640(15) 0.958(10)
H6 H 0.587(10) 0.784(8) 1.065(7)
H7 H 0.481(11) 0.841(10) 0.970(7)
O5 O 0.6688(5) 0.2577(5) 0.4385(3)
O6 O 0.6569(6) 0.3366(5) 0.2725(4)
O7 O 0.3390(7) 0.7441(5) 0.2811(4)
O8 O 0.0710(6) 0.6377(6) 0.3174(5)
N4 N 0.5969(6) 0.3085(5) 0.3606(4)
N5 N 0.5424(8) 0.5754(7) 0.2817(5)
H8 H 0.535(10) 0.665(9) 0.277(6)
H9 H 0.631(11) 0.553(9) 0.270(6)
N6 N 0.2211(7) 0.6355(6) 0.3138(4)
C8 C 0.3082(7) 0.2325(6) 0.4269(4)
C9 C 0.4344(6) 0.3388(6) 0.3739(4)
C10 C 0.4180(7) 0.4766(6) 0.3322(4)
C11 C 0.2606(7) 0.5017(6) 0.3519(4)
C12 C 0.1340(7) 0.3974(6) 0.4051(5)
H10 H 0.041(9) 0.424(7) 0.409(5)
C13 C 0.1562(7) 0.2667(6) 0.4409(5)
H11 H 0.067(9) 0.191(7) 0.478(5)
C14 C 0.3218(9) 0.0830(7) 0.4635(6)
H12 H 0.377(10) 0.034(8) 0.412(6)
H13 H 0.191(11) 0.007(9) 0.454(6)
H14 H 0.382(8) 0.106(7) 0.539(6)
#END
