
#######################################################################
#
#                 Cambridge Crystallographic Data Centre
#                                CCDC
#
#######################################################################
#
# If this CIF has been generated from an entry in the Cambridge
# Structural Database, then it will include bibliographic, chemical,
# crystal, experimental, refinement or atomic coordinate data resulting
# from the CCDC's data processing and validation procedures.
#
#######################################################################

data_CSD_CIF_COTLED
_audit_creation_date 2009-07-17
_audit_creation_method CSD-ConQuest-V1
_database_code_CSD COTLED
_database_code_depnum_ccdc_archive 'CCDC 233601'
_chemical_formula_sum 'C7 H7 N3 O4'
_chemical_formula_moiety
;
C7 H7 N3 O4
;
_journal_coden_Cambridge 1078
_journal_year 2009
_journal_name_full 'CSD Communication(Private Communication) '
loop_
_publ_author_name
"J.R.Hanson"
"P.B.Hitchcock"
_chemical_name_systematic
;
2-Amino-3,5-dinitrotoluene
;
_cell_volume   1588.977
_exptl_crystal_colour 'yellow'
_exptl_crystal_density_diffrn 1.648
_exptl_special_details
;
contribution from Chemistry Department,University of Sussex, Brighton

;
_exptl_crystal_description 'prism'
_diffrn_ambient_temperature 173
#These two values have been output from a single CSD field.
_refine_ls_R_factor_gt 0.07
_refine_ls_wR_factor_gt 0.07
_symmetry_cell_setting monoclinic
_symmetry_space_group_name_H-M 'P 21/c'
_symmetry_Int_Tables_number 14
loop_
_symmetry_equiv_pos_site_id
_symmetry_equiv_pos_as_xyz
1 x,y,z
2 -x,1/2+y,1/2-z
3 -x,-y,-z
4 x,-1/2-y,-1/2+z
_cell_length_a 10.9472(3)
_cell_length_b 16.0857(4)
_cell_length_c 9.2315(2)
_cell_angle_alpha 90
_cell_angle_beta 102.186(1)
_cell_angle_gamma 90
_cell_formula_units_Z 8
loop_
_atom_type_symbol
_atom_type_radius_bond
C 0.68
H 0.23
N 0.68
O 0.68
loop_
_atom_site_label
_atom_site_type_symbol
_atom_site_fract_x
_atom_site_fract_y
_atom_site_fract_z
O1 O 0.2214(2) 0.24895(15) 0.0595(3)
O2 O 0.1626(2) 0.12613(14) 0.1062(3)
O3 O -0.1414(2) 0.07485(14) 0.3842(3)
O4 O -0.2381(2) 0.17648(16) 0.4652(3)
N1 N 0.1086(3) 0.38158(18) 0.1431(3)
H1 H 0.169(3) 0.369(2) 0.086(4)
H2 H 0.088(4) 0.444(3) 0.172(5)
N2 N 0.1557(2) 0.20163(16) 0.1154(3)
N3 N -0.1607(2) 0.14979(18) 0.3992(3)
C1 C -0.0407(3) 0.35149(18) 0.2883(3)
C2 C 0.0496(3) 0.32411(18) 0.2055(3)
C3 C 0.0668(3) 0.23594(18) 0.1951(3)
C4 C -0.0023(3) 0.18016(17) 0.2576(3)
H3 H 0.011(3) 0.123(2) 0.246(3)
C5 C -0.0881(3) 0.20966(18) 0.3329(3)
C6 C -0.1075(3) 0.29560(19) 0.3501(3)
H4 H -0.166(2) 0.3334(15) 0.407(3)
C7 C -0.0613(4) 0.4436(2) 0.3037(4)
H5 H 0.021(3) 0.469(2) 0.351(4)
H6 H -0.087(4) 0.470(2) 0.196(5)
H7 H -0.127(4) 0.447(3) 0.369(5)
O5 O 0.7391(2) 0.00417(14) 0.0434(3)
O6 O 0.6758(2) 0.12576(13) 0.0932(2)
O7 O 0.3758(2) 0.16744(13) 0.3778(2)
O8 O 0.2795(2) 0.06358(14) 0.4533(2)
N4 N 0.6261(3) -0.13094(19) 0.1122(3)
H8 H 0.684(3) -0.114(2) 0.068(4)
H9 H 0.603(4) -0.180(3) 0.122(4)
N5 N 0.6708(2) 0.04964(15) 0.0993(2)
N6 N 0.3563(2) 0.09210(16) 0.3872(2)
C8 C 0.4751(3) -0.10586(17) 0.2612(3)
C9 C 0.5656(3) -0.07646(17) 0.1793(3)
C10 C 0.5821(3) 0.01214(18) 0.1756(3)
C11 C 0.5131(3) 0.06673(17) 0.2431(3)
H10 H 0.527(3) 0.121(2) 0.240(3)
C12 C 0.4284(3) 0.03478(17) 0.3167(3)
C13 C 0.4091(3) -0.05081(18) 0.3269(3)
H11 H 0.354(3) -0.072(2) 0.375(4)
C14 C 0.4565(3) -0.19804(19) 0.2728(4)
H12 H 0.425(3) -0.220(2) 0.172(4)
H13 H 0.538(3) -0.225(2) 0.330(4)
H14 H 0.395(3) -0.2052(19) 0.328(3)
#END
