
#######################################################################
#
#                 Cambridge Crystallographic Data Centre
#                                CCDC
#
#######################################################################
#
# If this CIF has been generated from an entry in the Cambridge
# Structural Database, then it will include bibliographic, chemical,
# crystal, experimental, refinement or atomic coordinate data resulting
# from the CCDC's data processing and validation procedures.
#
#######################################################################

data_CSD_CIF_COTLIH
_audit_creation_date 2009-07-17
_audit_creation_method CSD-ConQuest-V1
_database_code_CSD COTLIH
_database_code_depnum_ccdc_archive 'CCDC 233602'
_chemical_formula_sum 'C7 H7 N3 O4'
_chemical_formula_moiety
;
C7 H7 N3 O4
;
_journal_coden_Cambridge 1078
_journal_year 2009
_journal_name_full 'CSD Communication(Private Communication) '
loop_
_publ_author_name
"J.R.Hanson"
"P.B.Hitchcock"
_chemical_name_systematic
;
2-Amino-3,4-dinitrotoluene
;
_cell_volume    414.301
_exptl_crystal_colour 'red'
_exptl_crystal_density_diffrn 1.58
_exptl_special_details
;
contribution from Chemistry Department,University of Sussex, Brighton

;
_exptl_crystal_description 'prism'
_diffrn_ambient_temperature 173
#These two values have been output from a single CSD field.
_refine_ls_R_factor_gt 0.0431
_refine_ls_wR_factor_gt 0.0431
_symmetry_cell_setting triclinic
_symmetry_space_group_name_H-M 'P -1'
_symmetry_Int_Tables_number 2
loop_
_symmetry_equiv_pos_site_id
_symmetry_equiv_pos_as_xyz
1 x,y,z
2 -x,-y,-z
_cell_length_a 8.2220(4)
_cell_length_b 8.5235(4)
_cell_length_c 8.6780(4)
_cell_angle_alpha 122.895(4)
_cell_angle_beta 118.485(4)
_cell_angle_gamma 91.424(8)
_cell_formula_units_Z 2
loop_
_atom_type_symbol
_atom_type_radius_bond
C 0.68
H 0.23
N 0.68
O 0.68
loop_
_atom_site_label
_atom_site_type_symbol
_atom_site_fract_x
_atom_site_fract_y
_atom_site_fract_z
O1 O -0.03309(15) 0.55008(16) 0.17448(18)
O2 O 0.27542(15) 0.57425(15) 0.32537(17)
O3 O 0.41655(16) 0.79481(16) 0.76899(18)
O4 O 0.69442(15) 0.95986(18) 0.86139(18)
N1 N -0.07337(19) 0.8568(2) 0.1643(2)
H1 H -0.129(3) 0.714(3) 0.074(4)
H2 H -0.124(3) 0.921(3) 0.102(3)
N2 N 0.14929(17) 0.65144(18) 0.30919(19)
N3 N 0.51219(18) 0.90490(18) 0.76659(18)
C1 C 0.2020(2) 1.1747(2) 0.4939(2)
C2 C 0.1090(2) 0.9610(2) 0.3633(2)
C3 C 0.2178(2) 0.8689(2) 0.4485(2)
C4 C 0.4075(2) 0.9879(2) 0.6565(2)
C5 C 0.4949(2) 1.1928(2) 0.7808(2)
H3 H 0.622(3) 1.274(3) 0.925(3)
C6 C 0.3889(2) 1.2826(2) 0.6940(2)
H4 H 0.451(3) 1.431(3) 0.784(3)
C7 C 0.0930(3) 1.2761(2) 0.4042(3)
H5 H 0.173(3) 1.415(4) 0.518(4)
H6 H 0.075(3) 1.230(3) 0.265(3)
H7 H -0.044(3) 1.243(3) 0.367(3)
#END
