
#######################################################################
#
#                 Cambridge Crystallographic Data Centre
#                                CCDC
#
#######################################################################
#
# If this CIF has been generated from an entry in the Cambridge
# Structural Database, then it will include bibliographic, chemical,
# crystal, experimental, refinement or atomic coordinate data resulting
# from the CCDC's data processing and validation procedures.
#
#######################################################################

data_CSD_CIF_COTMAA
_audit_creation_date 2009-07-17
_audit_creation_method CSD-ConQuest-V1
_database_code_CSD COTMAA
_database_code_depnum_ccdc_archive 'CCDC 233605'
_chemical_formula_sum 'C10 H12 N4 O4'
_chemical_formula_moiety
;
C10 H12 N4 O4
;
_journal_coden_Cambridge 1078
_journal_year 2009
_journal_name_full 'CSD Communication(Private Communication) '
loop_
_publ_author_name
"J.R.Hanson"
"P.B.Hitchcock"
_chemical_name_systematic
;
1-(2,6-Dinitro-3-methylphenyl)-2-isopropylidenehydrazine
;
_cell_volume   1184.309
_exptl_crystal_colour 'orange'
_exptl_crystal_density_diffrn 1.415
_exptl_special_details
;
contribution from Chemistry Department,University of Sussex, Brighton

;
_exptl_crystal_description 'needle'
_diffrn_ambient_temperature 173
#These two values have been output from a single CSD field.
_refine_ls_R_factor_gt 0.0488
_refine_ls_wR_factor_gt 0.0488
_symmetry_cell_setting monoclinic
_symmetry_space_group_name_H-M 'P 21'
_symmetry_Int_Tables_number 4
loop_
_symmetry_equiv_pos_site_id
_symmetry_equiv_pos_as_xyz
1 x,y,z
2 -x,1/2+y,-z
_cell_length_a 7.6072(5)
_cell_length_b 10.3120(9)
_cell_length_c 15.3354(10)
_cell_angle_alpha 90
_cell_angle_beta 100.111(5)
_cell_angle_gamma 90
_cell_formula_units_Z 4
loop_
_atom_type_symbol
_atom_type_radius_bond
C 0.68
H 0.23
N 0.68
O 0.68
loop_
_atom_site_label
_atom_site_type_symbol
_atom_site_fract_x
_atom_site_fract_y
_atom_site_fract_z
O1 O 0.8964(4) -0.1426(3) 0.1005(2)
O2 O 1.1697(4) -0.0787(3) 0.11339(18)
O3 O 0.9014(5) 0.4204(3) 0.3262(2)
O4 O 1.0714(4) 0.2630(3) 0.38312(19)
O5 O 0.4732(4) 0.1030(3) 0.4248(2)
O6 O 0.7393(4) 0.1412(3) 0.40020(19)
O7 O 0.5118(4) -0.0427(3) 0.05214(17)
O8 O 0.3595(5) 0.1092(3) -0.0221(2)
N1 N 1.0125(5) -0.0597(3) 0.1168(2)
N2 N 0.9723(5) 0.3146(4) 0.3197(2)
N3 N 1.0572(5) 0.0449(3) 0.2967(2)
H1 H 1.08440 0.08040 0.34950
N4 N 1.0834(5) -0.0872(3) 0.2863(2)
N5 N 0.5774(5) 0.1329(3) 0.3764(2)
N6 N 0.4371(5) 0.0640(4) 0.0482(2)
N7 N 0.5680(4) -0.0380(3) 0.2238(2)
H2 H 0.58140 -0.08440 0.17730
N8 N 0.6081(5) -0.0916(3) 0.3079(2)
C1 C 0.8858(5) 0.1459(4) 0.0652(3)
C2 C 0.9594(5) 0.0736(4) 0.1375(2)
C3 C 0.9903(5) 0.1194(4) 0.2261(2)
C4 C 0.9423(5) 0.2507(4) 0.2343(2)
C5 C 0.8651(5) 0.3246(4) 0.1627(3)
H3 H 0.83130 0.41160 0.17170
C6 C 0.8367(6) 0.2743(4) 0.0788(3)
H4 H 0.78400 0.32620 0.03000
C7 C 0.8601(6) 0.0930(4) -0.0288(3)
H5 H 0.97250 0.05530 -0.03980
H6 H 0.82400 0.16350 -0.07100
H7 H 0.76730 0.02600 -0.03630
C8 C 1.1265(5) -0.1516(4) 0.3576(3)
C9 C 1.1397(8) -0.0983(5) 0.4500(3)
H8 H 1.24880 -0.04640 0.46490
H9 H 1.14340 -0.17010 0.49210
H10 H 1.03560 -0.04360 0.45300
C10 C 1.1649(7) -0.2919(5) 0.3470(3)
H11 H 1.15190 -0.31280 0.28390
H12 H 1.08090 -0.34420 0.37380
H13 H 1.28720 -0.31100 0.37640
C11 C 0.4419(5) 0.2982(4) 0.2756(3)
C12 C 0.5028(5) 0.1725(4) 0.2843(2)
C13 C 0.5082(5) 0.0860(4) 0.2132(2)
C14 C 0.4421(5) 0.1392(4) 0.1285(2)
C15 C 0.3777(6) 0.2656(4) 0.1180(3)
H14 H 0.33410 0.29810 0.06030
C16 C 0.3767(6) 0.3435(4) 0.1904(3)
H15 H 0.33100 0.42930 0.18240
C17 C 0.4487(6) 0.3872(4) 0.3536(3)
H16 H 0.39800 0.34310 0.40010
H17 H 0.37950 0.46570 0.33510
H18 H 0.57300 0.41090 0.37650
C18 C 0.6461(5) -0.2122(4) 0.3124(3)
C19 C 0.6457(7) -0.2995(5) 0.2340(3)
H19 H 0.52930 -0.29450 0.19490
H20 H 0.66820 -0.38900 0.25450
H21 H 0.73940 -0.27190 0.20160
C20 C 0.6911(6) -0.2692(5) 0.4031(3)
H22 H 0.69320 -0.20040 0.44730
H23 H 0.80880 -0.31060 0.41040
H24 H 0.60100 -0.33400 0.41110
#END
