
#######################################################################
#
#                 Cambridge Crystallographic Data Centre
#                                CCDC
#
#######################################################################
#
# If this CIF has been generated from an entry in the Cambridge
# Structural Database, then it will include bibliographic, chemical,
# crystal, experimental, refinement or atomic coordinate data resulting
# from the CCDC's data processing and validation procedures.
#
#######################################################################

data_CSD_CIF_COTRIM
_audit_creation_date 1985-08-15
_audit_creation_method CSD-ConQuest-V1
_database_code_CSD COTRIM
_database_code_depnum_ccdc_archive 'CCDC 1130136'
_chemical_formula_sum 'C11 H9 N3 O2'
_chemical_formula_moiety
;
C11 H9 N3 O2
;
_journal_coden_Cambridge 15
_journal_volume 62
_journal_year 1984
_journal_page_first 1628
_journal_name_full 'Can.J.Chem. '
loop_
_publ_author_name
"E.Buncel"
"S.R.Keum"
"M.Cygler"
"K.I.Varughese"
"G.I.Birnbaum"
_chemical_name_systematic
;
4-(Phenyl-\b-azoxy)-pyridine-N-oxide
;
_chemical_melting_point 419.15
_cell_volume   2019.998
_exptl_crystal_colour 'yellowish'
_exptl_crystal_density_diffrn 1.415
_exptl_special_details
;
Melting point range 419.15-420.15K

;
_diffrn_ambient_temperature ?
_diffrn_special_details
;
The study was carried out at room temperature,in the range 283-303K

;
#These two values have been output from a single CSD field.
_refine_ls_R_factor_gt 0.041
_refine_ls_wR_factor_gt 0.041
_symmetry_cell_setting monoclinic
_symmetry_space_group_name_H-M 'P 21/c'
_symmetry_Int_Tables_number 14
loop_
_symmetry_equiv_pos_site_id
_symmetry_equiv_pos_as_xyz
1 x,y,z
2 -x,1/2+y,1/2-z
3 -x,-y,-z
4 x,-1/2-y,-1/2+z
_cell_length_a 14.984(1)
_cell_length_b 5.627(1)
_cell_length_c 25.484(1)
_cell_angle_alpha 90
_cell_angle_beta 109.93(1)
_cell_angle_gamma 90
_cell_formula_units_Z 8
loop_
_atom_type_symbol
_atom_type_radius_bond
C 0.68
H 0.23
N 0.68
O 0.68
loop_
_atom_site_label
_atom_site_type_symbol
_atom_site_fract_x
_atom_site_fract_y
_atom_site_fract_z
O1 O 0.9220(1) -0.2299(4) 0.45604(7)
O2 O 0.8179(2) 0.2700(4) 0.64153(8)
N1 N 0.9082(1) -0.1579(4) 0.50109(8)
N2 N 0.8599(1) 0.0746(3) 0.64531(7)
N3 N 0.8890(1) -0.0625(3) 0.68731(7)
C1 C 0.8617(2) 0.0474(5) 0.50111(9)
C2 C 0.8460(2) 0.1259(4) 0.54790(9)
C3 C 0.8776(1) -0.0082(4) 0.59575(9)
C4 C 0.9252(2) -0.2183(4) 0.59597(9)
C5 C 0.9403(2) -0.2906(4) 0.54817(10)
C6 C 0.8724(1) -0.0084(4) 0.73724(8)
C7 C 0.8272(2) 0.1891(4) 0.7501(1)
C8 C 0.8156(2) 0.1995(5) 0.80195(11)
C9 C 0.8488(2) 0.0213(5) 0.84051(10)
C10 C 0.8946(2) -0.1721(5) 0.82856(10)
C11 C 0.9064(2) -0.1874(4) 0.77722(10)
H1 H 0.843(2) 0.132(5) 0.467(1)
H2 H 0.814(2) 0.270(5) 0.548(1)
H3 H 0.945(2) -0.316(5) 0.627(1)
H4 H 0.974(2) -0.432(6) 0.546(1)
H5 H 0.808(2) 0.316(5) 0.726(1)
H6 H 0.785(2) 0.334(6) 0.811(1)
H7 H 0.837(2) 0.029(5) 0.875(1)
H8 H 0.918(2) -0.296(6) 0.857(1)
H9 H 0.927(3) -0.319(5) 0.768(1)
O3 O 0.4194(2) -0.0483(2) 0.71934(8)
O4 O 0.3262(2) 0.2769(3) 0.92418(8)
N4 N 0.4072(1) -0.0170(4) 0.76690(8)
N5 N 0.3630(1) 0.0813(3) 0.91912(7)
N6 N 0.3891(1) -0.0865(3) 0.95417(7)
C12 C 0.3639(2) 0.1798(5) 0.77646(10)
C13 C 0.3487(2) 0.2144(4) 0.8259(1)
C14 C 0.3787(1) 0.0423(4) 0.86669(8)
C15 C 0.4230(2) -0.1598(4) 0.85706(9)
C16 C 0.4375(2) -0.1842(5) 0.80711(10)
C17 C 0.3743(1) -0.0740(4) 1.00590(8)
C18 C 0.3293(2) 0.1041(4) 1.02574(10)
C19 C 0.3192(2) 0.0766(5) 1.07737(11)
C20 C 0.3530(2) -0.1215(5) 1.10967(10)
C21 C 0.3973(2) -0.2978(5) 1.09007(10)
C22 C 0.4080(2) -0.2764(4) 1.03868(9)
H10 H 0.344(2) 0.288(5) 0.748(1)
H11 H 0.319(2) 0.353(6) 0.833(1)
H12 H 0.448(2) -0.279(6) 0.886(1)
H13 H 0.473(2) -0.313(5) 0.800(1)
H14 H 0.309(2) 0.250(5) 1.005(1)
H15 H 0.290(2) 0.204(5) 1.091(1)
H16 H 0.346(2) -0.136(5) 1.145(1)
H17 H 0.418(2) -0.439(6) 1.111(1)
H18 H 0.437(2) -0.395(5) 1.023(1)
#END
