
#######################################################################
#
#                 Cambridge Crystallographic Data Centre
#                                CCDC
#
#######################################################################
#
# If this CIF has been generated from an entry in the Cambridge
# Structural Database, then it will include bibliographic, chemical,
# crystal, experimental, refinement or atomic coordinate data resulting
# from the CCDC's data processing and validation procedures.
#
#######################################################################

data_CSD_CIF_COVLOQ
_audit_creation_date 2015-02-25
_audit_creation_method CSD-ConQuest-V1
_database_code_CSD COVLOQ
_database_code_depnum_ccdc_archive 'CCDC 961718'
_chemical_formula_sum 'C15 H15 N1 O4'
_chemical_formula_moiety
;
C15 H15 N1 O4
;
_journal_coden_Cambridge 1135
_journal_volume 25
_journal_year 2015
_journal_page_first 44
_journal_name_full 'Mendeleev Commun. '
loop_
_publ_author_name
"V.K.Brel"
"A.V.Samet"
"L.D.Konyushkin"
"A.I.Stash"
"V.K.Belsky"
"V.V.Semenov"
_chemical_name_systematic
;
1,6-Anhydro-3,4-dideoxy-2-C-(3-phenylisoxazol-5-yl)-\b-D-threo-hexopyranose
;
_chemical_name_common
;
4-(3-phenyl-1,2-oxazol-5-yl)-6,8-dioxabicyclo[3.2.1]octan-4-ol
;
_cell_volume    987.912
_exptl_crystal_colour 'colorless'
_exptl_crystal_density_diffrn 1.378
_exptl_crystal_description 'prism'
_diffrn_ambient_temperature 293
#These two values have been output from a single CSD field.
_refine_ls_R_factor_gt 0.0224
_refine_ls_wR_factor_gt 0.0224
_symmetry_cell_setting hexagonal
_symmetry_space_group_name_H-M 'P 31'
_symmetry_Int_Tables_number 144
loop_
_symmetry_equiv_pos_site_id
_symmetry_equiv_pos_as_xyz
1 x,y,z
2 -y,x-y,1/3+z
3 -x+y,-x,2/3+z
_cell_length_a 9.809(1)
_cell_length_b 9.809(1)
_cell_length_c 11.856(2)
_cell_angle_alpha 90
_cell_angle_beta 90
_cell_angle_gamma 120
_cell_formula_units_Z 3
loop_
_atom_type_symbol
_atom_type_radius_bond
C 0.68
H 0.23
N 0.68
O 0.68
loop_
_atom_site_label
_atom_site_type_symbol
_atom_site_fract_x
_atom_site_fract_y
_atom_site_fract_z
O1 O 0.04940(18) 0.8042(2) 0.48483(13)
O2 O 0.27261(15) 0.75802(17) 0.35954(13)
O3 O 0.07629(19) 0.58532(18) 0.24789(12)
O4 O -0.16766(16) 0.72016(15) 0.30186(12)
N1 N -0.32041(19) 0.6447(2) 0.25539(16)
C1 C 0.0056(2) 0.6696(2) 0.41773(15)
C2 C 0.0076(3) 0.5361(3) 0.4844(2)
C3 C 0.0149(3) 0.4145(3) 0.4076(3)
C4 C 0.1286(3) 0.4940(3) 0.3124(2)
C5 C 0.2895(3) 0.6205(3) 0.3494(2)
C6 C 0.1202(2) 0.7137(2) 0.31818(16)
C7 C -0.1546(2) 0.6178(2) 0.37092(16)
C8 C -0.2922(2) 0.4812(2) 0.37323(18)
C9 C -0.3915(2) 0.5031(2) 0.29831(15)
C10 C -0.5525(2) 0.3835(2) 0.26327(15)
C11 C -0.6492(2) 0.2666(2) 0.33885(19)
C12 C -0.7986(3) 0.1530(3) 0.3061(2)
C13 C -0.8511(3) 0.1534(3) 0.1984(2)
C14 C -0.7550(3) 0.2670(3) 0.1235(2)
C15 C -0.6060(3) 0.3832(3) 0.15455(19)
H1 H 0.143(4) 0.841(4) 0.500(3)
H2 H 0.094(3) 0.581(3) 0.525(2)
H3 H -0.084(4) 0.491(4) 0.536(3)
H4 H 0.045(4) 0.347(4) 0.452(3)
H5 H -0.095(4) 0.337(4) 0.383(3)
H6 H 0.134(3) 0.423(3) 0.260(2)
H7 H 0.320(3) 0.604(3) 0.416(2)
H8 H 0.372(3) 0.647(3) 0.294(3)
H9 H 0.123(3) 0.797(3) 0.273(2)
H10 H -0.313(3) 0.388(3) 0.413(2)
H11 H -0.613(3) 0.267(3) 0.416(3)
H12 H -0.854(3) 0.074(4) 0.360(3)
H13 H -0.951(5) 0.075(5) 0.171(3)
H14 H -0.791(4) 0.269(4) 0.048(3)
H15 H -0.536(3) 0.458(3) 0.106(2)
#END
