
#######################################################################
#
#                 Cambridge Crystallographic Data Centre
#                                CCDC
#
#######################################################################
#
# If this CIF has been generated from an entry in the Cambridge
# Structural Database, then it will include bibliographic, chemical,
# crystal, experimental, refinement or atomic coordinate data resulting
# from the CCDC's data processing and validation procedures.
#
#######################################################################

data_CSD_CIF_COVSIQ
_audit_creation_date 2009-11-04
_audit_creation_method CSD-ConQuest-V1
_database_code_CSD COVSIQ
_database_code_depnum_ccdc_archive 'CCDC 678947'
_chemical_formula_sum 'C15 H14 N2 O6'
_chemical_formula_moiety
;
C15 H14 N2 O6
;
_journal_coden_Cambridge 1003
_journal_volume 39
_journal_year 2009
_journal_page_first 83
_journal_name_full 'J.Chem.Cryst. '
loop_
_publ_author_name
"M.Rafique"
"S.Zulfiqar"
"G.P.A.Yap"
"S.I.Shah"
"M.I.Sarwar"
_chemical_name_systematic
;
1,3-bis(4-Nitrophenoxy)propane
;
_cell_volume   1465.640
_exptl_crystal_colour 'colorless'
_exptl_crystal_density_diffrn 1.442
_exptl_crystal_description 'needle'
_exptl_crystal_preparation 'ethanol'
_diffrn_ambient_temperature 120
#These two values have been output from a single CSD field.
_refine_ls_R_factor_gt 0.0787
_refine_ls_wR_factor_gt 0.0787
_symmetry_cell_setting monoclinic
_symmetry_space_group_name_H-M 'P 2/n'
_symmetry_Int_Tables_number 13
loop_
_symmetry_equiv_pos_site_id
_symmetry_equiv_pos_as_xyz
1 x,y,z
2 1/2-x,y,1/2-z
3 -x,-y,-z
4 -1/2+x,-y,-1/2+z
_cell_length_a 17.465(5)
_cell_length_b 4.8433(13)
_cell_length_c 17.610(5)
_cell_angle_alpha 90
_cell_angle_beta 100.290(6)
_cell_angle_gamma 90
_cell_formula_units_Z 4
loop_
_atom_type_symbol
_atom_type_radius_bond
C 0.68
H 0.23
N 0.68
O 0.68
loop_
_atom_site_label
_atom_site_type_symbol
_atom_site_fract_x
_atom_site_fract_y
_atom_site_fract_z
N1 N 1.07661(14) -0.4326(6) 0.37393(16)
N2 N 0.62566(15) 0.8863(5) 0.42651(14)
O1 O 1.08961(14) -0.5456(6) 0.43762(15)
O2 O 1.11342(13) -0.4877(5) 0.32247(15)
O3 O 0.83735(11) 0.3364(4) 0.31839(12)
O4 O 0.56250(14) 1.0040(6) 0.41520(14)
O5 O 0.67728(14) 0.9334(5) 0.38857(13)
O6 O 0.68040(12) 0.1159(4) 0.66432(11)
C1 C 0.96676(17) -0.1848(6) 0.41206(17)
H1 H 0.97400 -0.28950 0.45840
C2 C 0.90799(17) 0.0031(6) 0.39731(16)
H2 H 0.87360 0.02730 0.43290
C3 C 0.89842(15) 0.1604(6) 0.32957(16)
C4 C 0.94954(16) 0.1269(6) 0.27716(16)
H3 H 0.94380 0.23640 0.23170
C5 C 1.00821(15) -0.0667(6) 0.29240(16)
H4 H 1.04300 -0.09240 0.25720
C6 C 1.01634(15) -0.2230(6) 0.35890(17)
C7 C 0.82153(16) 0.4860(6) 0.24814(16)
H5 H 0.81180 0.35710 0.20380
H6 H 0.86640 0.60440 0.24280
C8 C 0.75000 0.6622(9) 0.25000
H7 H 0.75950 0.78240 0.29620
C9 C 0.58841(16) 0.6496(6) 0.53773(16)
H8 H 0.54320 0.76200 0.53220
C10 C 0.60343(16) 0.4603(6) 0.59602(16)
H9 H 0.56850 0.44140 0.63130
C11 C 0.66997(16) 0.2940(6) 0.60404(15)
C12 C 0.72071(15) 0.3177(6) 0.55109(16)
H10 H 0.76500 0.20120 0.55540
C13 C 0.70617(17) 0.5116(6) 0.49231(17)
H11 H 0.74050 0.53250 0.45650
C14 C 0.63943(16) 0.6756(6) 0.48726(16)
C15 C 0.75179(15) -0.0437(6) 0.67819(16)
H12 H 0.79760 0.08020 0.68580
H13 H 0.75450 -0.16680 0.63390
C16 C 0.75000 -0.2106(9) 0.75000
H14 H 0.70350 -0.33150 0.74070
N1A N 0.42339(14) -0.4326(6) 0.12607(16)
N2A N 0.87434(15) 0.8863(5) 1.07349(14)
O1A O 0.41039(14) -0.5456(6) 0.06238(15)
O2A O 0.38658(13) -0.4877(5) 0.17753(15)
O3A O 0.66265(11) 0.3364(4) 0.18161(12)
O4A O 0.93750(14) 1.0040(6) 1.08480(14)
O5A O 0.82272(14) 0.9334(5) 1.11143(13)
O6A O 0.81960(12) 0.1159(4) 0.83568(11)
C1A C 0.53324(17) -0.1848(6) 0.08794(17)
H1A H 0.52600 -0.28950 0.04160
C2A C 0.59201(17) 0.0031(6) 0.10269(16)
H2A H 0.62640 0.02730 0.06710
C3A C 0.60158(15) 0.1604(6) 0.17043(16)
C4A C 0.55046(16) 0.1269(6) 0.22284(16)
H3A H 0.55620 0.23640 0.26830
C5A C 0.49179(15) -0.0667(6) 0.20760(16)
H4A H 0.45700 -0.09240 0.24280
C6A C 0.48366(15) -0.2230(6) 0.14110(17)
C7A C 0.67847(16) 0.4860(6) 0.25186(16)
H5A H 0.68820 0.35710 0.29620
H6A H 0.63360 0.60440 0.25720
H7A H 0.74050 0.78240 0.20380
C9A C 0.91159(16) 0.6496(6) 0.96227(16)
H8A H 0.95680 0.76200 0.96780
C10A C 0.89657(16) 0.4603(6) 0.90398(16)
H9A H 0.93150 0.44140 0.86870
C11A C 0.83003(16) 0.2940(6) 0.89596(15)
C12A C 0.77929(15) 0.3177(6) 0.94891(16)
H10A H 0.73500 0.20120 0.94460
C13A C 0.79383(17) 0.5116(6) 1.00769(17)
H11A H 0.75950 0.53250 1.04350
C14A C 0.86057(16) 0.6756(6) 1.01274(16)
C15A C 0.74821(15) -0.0437(6) 0.82181(16)
H12A H 0.70240 0.08020 0.81420
H13A H 0.74550 -0.16680 0.86610
H14A H 0.79650 -0.33150 0.75930
#END
