
#######################################################################
#
#                 Cambridge Crystallographic Data Centre
#                                CCDC
#
#######################################################################
#
# If this CIF has been generated from an entry in the Cambridge
# Structural Database, then it will include bibliographic, chemical,
# crystal, experimental, refinement or atomic coordinate data resulting
# from the CCDC's data processing and validation procedures.
#
#######################################################################

data_CSD_CIF_COWGEB
_audit_creation_date 2009-11-04
_audit_creation_method CSD-ConQuest-V1
_database_code_CSD COWGEB
_database_code_depnum_ccdc_archive 'CCDC 705769'
_chemical_formula_sum 'C8 H10 N2 O3'
_chemical_formula_moiety
;
C8 H10 N2 O3
;
_journal_coden_Cambridge 182
_journal_year 2009
_journal_page_first 1763
_journal_name_full 'Chem.Commun. '
loop_
_publ_author_name
"Zhangjian Huang"
"Yihua Zhang"
"Lei Fang"
"Zhiguo Zhang"
"Yisheng Lai"
"Ye Ding"
"Fenqi Cao"
"Ji Zhang"
"Sixun Peng"
_chemical_name_systematic
;
N-Methoxy-N'-p-methoxyphenyldi-imide N'-oxide
;
_chemical_melting_point 335.15
_cell_volume   1766.033
_exptl_crystal_colour 'colorless'
_exptl_crystal_density_diffrn 1.37
_exptl_special_details
;
Melting point range 335.15-336.15K

;
_exptl_crystal_description 'block'
_diffrn_ambient_temperature 293
#These two values have been output from a single CSD field.
_refine_ls_R_factor_gt 0.0541
_refine_ls_wR_factor_gt 0.0541
_symmetry_cell_setting orthorhombic
_symmetry_space_group_name_H-M 'P n a 21'
_symmetry_Int_Tables_number 33
loop_
_symmetry_equiv_pos_site_id
_symmetry_equiv_pos_as_xyz
1 x,y,z
2 -x,-y,1/2+z
3 1/2+x,1/2-y,z
4 1/2-x,1/2+y,1/2+z
_cell_length_a 11.553(2)
_cell_length_b 21.960(4)
_cell_length_c 6.9610(14)
_cell_angle_alpha 90
_cell_angle_beta 90
_cell_angle_gamma 90
_cell_formula_units_Z 8
loop_
_atom_type_symbol
_atom_type_radius_bond
C 0.68
H 0.23
N 0.68
O 0.68
loop_
_atom_site_label
_atom_site_type_symbol
_atom_site_fract_x
_atom_site_fract_y
_atom_site_fract_z
O1 O 0.6309(3) 0.90781(16) 0.9391(8)
O2 O 0.5072(3) 0.63183(16) 0.9898(11)
O3 O 0.6786(3) 0.56556(15) 0.9881(10)
N1 N 0.6066(4) 0.6550(2) 0.9791(11)
N2 N 0.7018(4) 0.62664(18) 0.9777(9)
C1 C 0.7381(5) 0.9386(2) 0.9740(17)
H1 H 0.72700 0.98170 0.96030
H2 H 0.79490 0.92490 0.88320
H3 H 0.76410 0.92970 1.10190
C2 C 0.6310(5) 0.8461(3) 0.9519(10)
C3 C 0.5303(5) 0.8170(3) 0.8988(10)
H4 H 0.46740 0.83970 0.85620
C4 C 0.5222(6) 0.7538(2) 0.9085(12)
H5 H 0.45410 0.73420 0.87340
C5 C 0.6165(4) 0.7208(2) 0.9708(10)
C6 C 0.7170(6) 0.7493(2) 1.0290(11)
H6 H 0.77800 0.72660 1.07860
C7 C 0.7265(4) 0.8123(2) 1.0129(11)
H7 H 0.79580 0.83170 1.04250
C8 C 0.7872(5) 0.5338(2) 0.9789(16)
H8 H 0.77370 0.49080 0.98690
H9 H 0.83540 0.54640 1.08410
H10 H 0.82510 0.54310 0.85970
O4 O 0.6207(3) 0.09438(16) 0.9664(10)
O5 O 0.7463(3) 0.37166(15) 0.9825(10)
O6 O 0.5727(3) 0.43613(15) 0.9927(12)
N3 N 0.6469(4) 0.3473(2) 0.9804(9)
N4 N 0.5515(4) 0.3748(2) 0.9890(11)
C9 C 0.5138(5) 0.0648(2) 0.9360(14)
H11 H 0.52480 0.02150 0.94260
H12 H 0.48430 0.07550 0.81160
H13 H 0.45970 0.07720 1.03300
C10 C 0.6236(5) 0.1569(2) 0.9636(12)
C11 C 0.7237(4) 0.1839(2) 1.0183(12)
H14 H 0.78690 0.16000 1.05200
C12 C 0.7330(6) 0.2467(2) 1.0248(13)
H15 H 0.80120 0.26540 1.06430
C13 C 0.6388(4) 0.2805(2) 0.9712(10)
C14 C 0.5377(6) 0.2548(2) 0.9098(12)
H16 H 0.47580 0.27910 0.87200
C15 C 0.5287(5) 0.1915(2) 0.9046(10)
H17 H 0.46100 0.17280 0.86280
C16 C 0.4626(5) 0.4669(3) 0.9956(18)
H18 H 0.47480 0.51010 0.99680
H19 H 0.42040 0.45510 1.10850
H20 H 0.41900 0.45590 0.88340
#END
