
#######################################################################
#
#                 Cambridge Crystallographic Data Centre
#                                CCDC
#
#######################################################################
#
# If this CIF has been generated from an entry in the Cambridge
# Structural Database, then it will include bibliographic, chemical,
# crystal, experimental, refinement or atomic coordinate data resulting
# from the CCDC's data processing and validation procedures.
#
#######################################################################

data_CSD_CIF_COWHON
_audit_creation_date 2015-02-26
_audit_creation_method CSD-ConQuest-V1
_database_code_CSD COWHON
_database_code_depnum_ccdc_archive 'CCDC 1051340'
_chemical_formula_sum 'C25 H20 N2 O7'
_chemical_formula_moiety
;
C25 H20 N2 O7
;
_journal_coden_Cambridge 1088
_journal_volume 25
_journal_year 2014
_journal_page_first 2953
_journal_name_full 'Synlett '
loop_
_publ_author_name
"K.Tanda"
"A.Toyao"
"A.Watanabe"
"M.Sakamoto"
"T.Yamasaki"
_chemical_name_systematic
;
(4R,5R)-methyl 
3-((S)-((4-nitrobenzoyl)oxy)(phenyl)methyl)-4-phenyl-4,5-dihydro-1,2-oxazole-5
-carboxylate
;
_chemical_melting_point 404
_cell_volume   8946.231
_exptl_crystal_colour 'colorless'
_exptl_crystal_density_diffrn 1.367
_exptl_special_details
;
Melting point range 404-406K
Absolute configuration

;
_exptl_crystal_description 'block'
_exptl_crystal_preparation 'Re-crystallisation from solvent'
_diffrn_ambient_temperature 93
#These two values have been output from a single CSD field.
_refine_ls_R_factor_gt 0.0544
_refine_ls_wR_factor_gt 0.0544
_symmetry_cell_setting orthorhombic
_symmetry_space_group_name_H-M 'C 2 2 21'
_symmetry_Int_Tables_number 20
loop_
_symmetry_equiv_pos_site_id
_symmetry_equiv_pos_as_xyz
1 x,y,z
2 -x,-y,1/2+z
3 x,-y,-z
4 -x,y,1/2-z
5 1/2+x,1/2+y,z
6 1/2-x,1/2-y,1/2+z
7 1/2+x,1/2-y,-z
8 1/2-x,1/2+y,1/2-z
_cell_length_a 10.1713(2)
_cell_length_b 10.1922(2)
_cell_length_c 86.297(6)
_cell_angle_alpha 90
_cell_angle_beta 90
_cell_angle_gamma 90
_cell_formula_units_Z 16
loop_
_atom_type_symbol
_atom_type_radius_bond
C 0.68
H 0.23
N 0.68
O 0.68
loop_
_atom_site_label
_atom_site_type_symbol
_atom_site_fract_x
_atom_site_fract_y
_atom_site_fract_z
O1 O -0.1038(3) 1.2801(3) 0.86213(3)
O2 O 0.0041(3) 1.1647(3) 0.87862(2)
O3 O 0.29861(17) 1.04170(17) 0.805071(19)
O4 O 0.31985(19) 0.84972(18) 0.81779(2)
O5 O 0.72668(18) 0.93178(17) 0.80582(2)
O6 O 0.92967(19) 1.0603(2) 0.79212(2)
O7 O 0.77687(19) 1.2023(2) 0.78365(2)
N1 N -0.0224(3) 1.1958(3) 0.86525(3)
N2 N 0.6010(2) 0.9015(2) 0.79957(2)
C1 C 0.1917(2) 1.0204(3) 0.82917(3)
C2 C 0.1186(3) 1.1346(3) 0.82627(3)
H1 H 0.11960 1.17340 0.81630
C3 C 0.0455(3) 1.1901(3) 0.83801(3)
H2 H -0.00610 1.26630 0.83620
C4 C 0.0489(3) 1.1324(3) 0.85257(3)
C5 C 0.1185(3) 1.0192(3) 0.85560(3)
H3 H 0.11830 0.98140 0.86570
C6 C 0.1885(3) 0.9619(3) 0.84364(3)
H4 H 0.23450 0.88220 0.84540
C7 C 0.2751(2) 0.9586(2) 0.81706(3)
C8 C 0.3910(2) 0.9953(2) 0.79347(3)
H5 H 0.37060 0.90170 0.79090
C9 C 0.3697(2) 1.0785(3) 0.77922(3)
C10 C 0.3609(2) 1.0172(3) 0.76477(3)
H6 H 0.36990 0.92470 0.76400
C11 C 0.3392(3) 1.0915(3) 0.75158(3)
H7 H 0.33360 1.04940 0.74180
C12 C 0.3256(3) 1.2261(3) 0.75251(3)
H8 H 0.31070 1.27650 0.74340
C13 C 0.3338(3) 1.2867(3) 0.76686(3)
H9 H 0.32520 1.37930 0.76750
C14 C 0.3543(3) 1.2143(3) 0.78016(3)
H10 H 0.35800 1.25690 0.78990
C15 C 0.5295(2) 1.0040(2) 0.79988(3)
C16 C 0.5948(2) 1.1235(2) 0.80704(3)
H11 H 0.58470 1.20130 0.80010
C17 C 0.5392(2) 1.1536(3) 0.82305(3)
C18 C 0.4609(3) 1.2634(3) 0.82551(3)
H12 H 0.44350 1.32180 0.81720
C19 C 0.4082(3) 1.2883(3) 0.84001(4)
H13 H 0.35490 1.36370 0.84150
C20 C 0.4325(3) 1.2048(3) 0.85218(4)
H14 H 0.39590 1.22240 0.86210
C21 C 0.5106(3) 1.0947(3) 0.84995(3)
H15 H 0.52780 1.03700 0.85840
C22 C 0.5633(3) 1.0691(3) 0.83545(3)
H16 H 0.61630 0.99330 0.83390
C23 C 0.7368(3) 1.0746(2) 0.80679(3)
H17 H 0.78250 1.10040 0.81660
C24 C 0.8149(3) 1.1219(2) 0.79285(3)
C25 C 1.0146(3) 1.0959(4) 0.77919(4)
H18 H 0.96270 1.09940 0.76960
H19 H 1.08440 1.03030 0.77810
H20 H 1.05390 1.18210 0.78120
O8 O 0.4000(3) 0.3814(3) 0.88754(3)
O9 O 0.2587(3) 0.4655(3) 0.87198(3)
O10 O 0.19831(17) 0.80663(16) 0.944636(19)
O11 O 0.00534(18) 0.83529(19) 0.93218(2)
O12 O 0.09024(18) 1.23476(18) 0.94468(2)
O13 O 0.2185(2) 1.43594(19) 0.95862(2)
O14 O 0.3619(2) 1.28319(19) 0.96679(2)
N3 N 0.3101(3) 0.4571(3) 0.88472(3)
N4 N 0.0596(2) 1.1077(2) 0.95065(3)
C26 C 0.1711(3) 0.7004(3) 0.92051(3)
C27 C 0.2776(3) 0.6191(3) 0.92322(3)
H21 H 0.31870 0.61890 0.93310
C28 C 0.3247(3) 0.5379(3) 0.91154(3)
H22 H 0.39660 0.48030 0.91330
C29 C 0.2625(3) 0.5441(3) 0.89717(3)
C30 C 0.1583(3) 0.6263(3) 0.89413(3)
H23 H 0.11970 0.62960 0.88410
C31 C 0.1114(3) 0.7037(3) 0.90603(3)
H24 H 0.03790 0.75950 0.90430
C32 C 0.1143(3) 0.7873(2) 0.93269(3)
C33 C 0.1534(2) 0.8987(2) 0.95647(3)
H25 H 0.05960 0.87880 0.95900
C34 C 0.2369(3) 0.8742(2) 0.97072(3)
C35 C 0.1750(3) 0.8634(2) 0.98505(3)
H26 H 0.08230 0.87270 0.98580
C36 C 0.2487(3) 0.8390(3) 0.99834(3)
H27 H 0.20630 0.83180 1.00810
C37 C 0.3843(3) 0.8253(3) 0.99730(3)
H28 H 0.43480 0.80820 1.00630
C38 C 0.4456(3) 0.8366(3) 0.98302(3)
H29 H 0.53840 0.82790 0.98230
C39 C 0.3724(3) 0.8605(3) 0.96977(3)
H30 H 0.41510 0.86760 0.96000
C40 C 0.1622(2) 1.0376(2) 0.95032(3)
C41 C 0.2821(2) 1.1029(2) 0.94331(3)
H31 H 0.36020 1.09250 0.95030
C42 C 0.3116(3) 1.0490(2) 0.92716(3)
C43 C 0.4172(3) 0.9662(3) 0.92467(3)
H32 H 0.47470 0.94580 0.93300
C44 C 0.4399(3) 0.9128(3) 0.91017(4)
H33 H 0.51140 0.85420 0.90870
C45 C 0.3598(4) 0.9442(3) 0.89799(4)
H34 H 0.37630 0.90820 0.88800
C46 C 0.2548(4) 1.0282(4) 0.90018(4)
H35 H 0.20030 1.05130 0.89170
C47 C 0.2290(3) 1.0789(3) 0.91480(3)
H36 H 0.15490 1.13400 0.91640
C48 C 0.2320(3) 1.2448(2) 0.94363(3)
H37 H 0.25750 1.29120 0.93390
C49 C 0.2804(3) 1.3216(3) 0.95773(3)
C50 C 0.2565(4) 1.5194(3) 0.97147(4)
H38 H 0.25680 1.46790 0.98110
H39 H 0.19370 1.59180 0.97240
H40 H 0.34470 1.55470 0.96960
#END
