
#######################################################################
#
#                 Cambridge Crystallographic Data Centre
#                                CCDC
#
#######################################################################
#
# If this CIF has been generated from an entry in the Cambridge
# Structural Database, then it will include bibliographic, chemical,
# crystal, experimental, refinement or atomic coordinate data resulting
# from the CCDC's data processing and validation procedures.
#
#######################################################################

data_CSD_CIF_COWJAB
_audit_creation_date 2015-02-26
_audit_creation_method CSD-ConQuest-V1
_database_code_CSD COWJAB
_database_code_depnum_ccdc_archive 'CCDC 948805'
_chemical_formula_sum 'C2 H4 N2 O4'
_chemical_formula_moiety
;
C2 H4 N2 O4
;
_journal_coden_Cambridge 9
_journal_volume 53
_journal_year 2014
_journal_page_first 11160
_journal_name_full 'Inorg.Chem. '
loop_
_publ_author_name
"D.Scott Bohle"
"Zhijie Chua"
_chemical_name_systematic
;
methyl nitrocarbamate
;
_cell_volume    476.840
_exptl_crystal_colour 'colorless'
_exptl_crystal_density_diffrn 1.673
_exptl_crystal_description 'block'
_diffrn_ambient_temperature 100
#These two values have been output from a single CSD field.
_refine_ls_R_factor_gt 0.0539
_refine_ls_wR_factor_gt 0.0539
_symmetry_cell_setting triclinic
_symmetry_space_group_name_H-M 'P -1'
_symmetry_Int_Tables_number 2
loop_
_symmetry_equiv_pos_site_id
_symmetry_equiv_pos_as_xyz
1 x,y,z
2 -x,-y,-z
_cell_length_a 7.6247(17)
_cell_length_b 7.8003(17)
_cell_length_c 8.3539(18)
_cell_angle_alpha 80.955(2)
_cell_angle_beta 89.992(2)
_cell_angle_gamma 76.536(2)
_cell_formula_units_Z 4
loop_
_atom_type_symbol
_atom_type_radius_bond
C 0.68
H 0.23
N 0.68
O 0.68
loop_
_atom_site_label
_atom_site_type_symbol
_atom_site_fract_x
_atom_site_fract_y
_atom_site_fract_z
O1 O 0.1869(3) 0.6733(3) 0.1873(3)
O2 O 0.3987(3) 0.4349(3) 0.2659(2)
O3 O 0.4150(2) 0.3134(2) 0.5852(2)
O4 O 0.1937(2) 0.4891(2) 0.7061(2)
N1 N 0.2101(3) 0.5584(3) 0.4448(3)
H1 H 0.11530 0.64350 0.45790
N2 N 0.2715(3) 0.5529(3) 0.2896(3)
C1 C 0.2878(3) 0.4385(3) 0.5818(3)
C2 C 0.2504(4) 0.3803(4) 0.8635(3)
H2 H 0.17170 0.42860 0.94660
H3 H 0.37530 0.38170 0.88950
H4 H 0.24230 0.25730 0.86040
O5 O 0.3376(3) 0.0526(3) 0.1600(2)
O6 O 0.1218(3) 0.2305(3) 0.2671(3)
O7 O 0.0852(2) 0.1300(3) 0.5871(2)
O8 O 0.3045(3) -0.1165(3) 0.6750(2)
N3 N 0.2975(3) -0.0098(3) 0.4197(3)
H5 H 0.39000 -0.10190 0.42160
N4 N 0.2465(3) 0.1002(3) 0.2731(3)
C3 C 0.2127(3) 0.0145(3) 0.5654(3)
C4 C 0.2469(4) -0.1240(4) 0.8412(3)
H6 H 0.32510 -0.22680 0.90990
H7 H 0.12180 -0.13610 0.84540
H8 H 0.25490 -0.01400 0.88050
#END
