
#######################################################################
#
#                 Cambridge Crystallographic Data Centre
#                                CCDC
#
#######################################################################
#
# If this CIF has been generated from an entry in the Cambridge
# Structural Database, then it will include bibliographic, chemical,
# crystal, experimental, refinement or atomic coordinate data resulting
# from the CCDC's data processing and validation procedures.
#
#######################################################################

data_CSD_CIF_COWMAE
_audit_creation_date 2015-02-26
_audit_creation_method CSD-ConQuest-V1
_database_code_CSD COWMAE
_database_code_depnum_ccdc_archive 'CCDC 1020164'
_chemical_formula_sum 'C25 H28 N2 O5'
_chemical_formula_moiety
;
C25 H28 N2 O5
;
_journal_coden_Cambridge 1336
_journal_volume 16
_journal_year 2014
_journal_page_first 5604
_journal_name_full 'Org.Lett. '
loop_
_publ_author_name
"Jian Li"
"Shuanglong Jia"
"Chunju Li"
"Xueshun Jia"
_chemical_name_systematic
;
1-t-butyl-10a-ethoxy-3-(4-nitrobenzyl)-1,4,4a,10a-tetrahydro-2H-cyclohepta[5,6
]pyrano[2,3-b]pyrrol-2-one
;
_cell_volume   2332.681
_exptl_crystal_density_diffrn 1.243
_diffrn_ambient_temperature 296
#These two values have been output from a single CSD field.
_refine_ls_R_factor_gt 0.0539
_refine_ls_wR_factor_gt 0.0539
_symmetry_cell_setting triclinic
_symmetry_space_group_name_H-M 'P -1'
_symmetry_Int_Tables_number 2
loop_
_symmetry_equiv_pos_site_id
_symmetry_equiv_pos_as_xyz
1 x,y,z
2 -x,-y,-z
_cell_length_a 9.9083(17)
_cell_length_b 14.668(3)
_cell_length_c 17.891(3)
_cell_angle_alpha 69.407(2)
_cell_angle_beta 78.799(2)
_cell_angle_gamma 74.676(2)
_cell_formula_units_Z 4
loop_
_atom_type_symbol
_atom_type_radius_bond
C 0.68
H 0.23
N 0.68
O 0.68
loop_
_atom_site_label
_atom_site_type_symbol
_atom_site_fract_x
_atom_site_fract_y
_atom_site_fract_z
C1 C 0.2065(2) 0.04590(18) 0.53112(15)
C2 C 0.1820(3) -0.0243(2) 0.50741(18)
H1 H 0.13740 -0.00390 0.46130
C3 C 0.2198(5) -0.1286(3) 0.5484(2)
H2 H 0.16250 -0.16810 0.54580
C4 C 0.3302(6) -0.1743(3) 0.5900(2)
H3 H 0.34160 -0.24270 0.61520
C5 C 0.4330(4) -0.1273(3) 0.5993(2)
H4 H 0.52530 -0.16360 0.60260
C6 C 0.4048(3) -0.0350(2) 0.60366(16)
H5 H 0.47820 -0.00550 0.60190
C7 C 0.2559(2) 0.02112(17) 0.61139(14)
H6 H 0.20140 -0.02540 0.65060
C8 C 0.2356(3) 0.11019(18) 0.64172(14)
H7 H 0.14320 0.12030 0.67170
H8 H 0.30590 0.09680 0.67730
C9 C 0.2490(2) 0.20117(17) 0.57246(13)
C10 C 0.3297(2) 0.26611(18) 0.55227(15)
C11 C 0.3020(3) 0.33600(19) 0.47047(16)
C12 C 0.1621(2) 0.22192(16) 0.50607(13)
C13 C 0.4386(3) 0.2750(2) 0.59544(18)
H9 H 0.51420 0.29940 0.55630
H10 H 0.47820 0.20940 0.63020
C14 C 0.3800(3) 0.34451(19) 0.64561(16)
C15 C 0.2840(3) 0.3208(2) 0.71276(17)
H11 H 0.25430 0.26130 0.72700
C16 C 0.2306(3) 0.3824(2) 0.75944(16)
H12 H 0.16540 0.36560 0.80420
C17 C 0.2773(3) 0.4694(2) 0.73735(15)
C18 C 0.3730(3) 0.4953(2) 0.67220(17)
H13 H 0.40400 0.55420 0.65890
C19 C 0.4233(3) 0.4325(2) 0.62621(17)
H14 H 0.48790 0.45010 0.58120
C20 C -0.0440(3) 0.3117(2) 0.56543(17)
H15 H -0.01210 0.37210 0.53260
H16 H -0.01600 0.29250 0.61880
C21 C -0.1999(3) 0.3291(3) 0.5698(2)
H17 H -0.22690 0.35070 0.51650
H18 H -0.24330 0.37940 0.59480
H19 H -0.23010 0.26830 0.60090
C22 C 0.1551(3) 0.3555(2) 0.36270(15)
C23 C 0.0399(4) 0.3108(3) 0.35291(18)
H20 H 0.07480 0.24080 0.36110
H21 H 0.01190 0.34320 0.29980
H22 H -0.03980 0.32030 0.39170
C24 C 0.2812(4) 0.3417(4) 0.30178(19)
H23 H 0.35520 0.36660 0.31060
H24 H 0.25500 0.37770 0.24860
H25 H 0.31360 0.27220 0.30740
C25 C 0.0922(4) 0.4652(2) 0.3504(2)
H26 H 0.01340 0.47200 0.39020
H27 H 0.06150 0.49630 0.29780
H28 H 0.16210 0.49670 0.35530
N1 N 0.2023(2) 0.30813(14) 0.44460(11)
N2 N 0.2211(3) 0.5376(2) 0.78461(16)
O1 O 0.19786(16) 0.14061(11) 0.47550(9)
O2 O 0.01717(15) 0.23329(12) 0.53054(9)
O3 O 0.3602(2) 0.40512(15) 0.43301(13)
O4 O 0.2719(3) 0.6107(2) 0.76812(16)
O5 O 0.1247(3) 0.51920(18) 0.83719(14)
C26 C 0.5533(2) 0.68660(17) 0.97979(14)
C27 C 0.6744(3) 0.63409(19) 1.00991(16)
H29 H 0.68980 0.63780 1.05830
C28 C 0.7827(3) 0.5718(2) 0.97136(19)
H30 H 0.87490 0.56590 0.97950
C29 C 0.7654(3) 0.5218(2) 0.92540(19)
H31 H 0.84580 0.48690 0.90280
C30 C 0.6329(3) 0.5182(2) 0.90861(16)
H32 H 0.62420 0.45970 0.90240
C31 C 0.5197(3) 0.5932(2) 0.90108(14)
H33 H 0.43330 0.58150 0.89830
C32 C 0.5277(3) 0.69535(18) 0.89702(14)
H34 H 0.61100 0.71240 0.86010
C33 C 0.3994(3) 0.7755(2) 0.86481(14)
H35 H 0.42500 0.83980 0.83990
H36 H 0.36490 0.75950 0.82480
C34 C 0.2885(2) 0.77883(17) 0.93341(13)
C35 C 0.1641(3) 0.75608(17) 0.95495(14)
C36 C 0.1131(3) 0.76314(18) 1.03723(15)
C37 C 0.3329(2) 0.79995(18) 1.00005(14)
C38 C 0.0827(3) 0.71920(19) 0.91350(17)
H37 H 0.03620 0.66940 0.95360
H38 H 0.14830 0.68670 0.87800
C39 C -0.0271(3) 0.79942(18) 0.86492(16)
C40 C 0.0043(3) 0.8451(2) 0.78416(18)
H39 H 0.09430 0.82700 0.75950
C41 C -0.0953(3) 0.9172(2) 0.73899(17)
H40 H -0.07250 0.94960 0.68480
C42 C -0.2287(3) 0.9400(2) 0.77595(16)
C43 C -0.2641(3) 0.8954(2) 0.85612(16)
H41 H -0.35540 0.91140 0.88010
C44 C -0.1614(3) 0.82634(19) 0.90045(16)
H42 H -0.18300 0.79730 0.95540
C45 C 0.2715(3) 0.97751(19) 0.94431(19)
H43 H 0.18950 0.98090 0.98370
H44 H 0.24260 0.97400 0.89680
C46 C 0.3303(3) 1.0672(2) 0.9235(2)
H45 H 0.36400 1.06820 0.97000
H46 H 0.25840 1.12580 0.90540
H47 H 0.40690 1.06600 0.88140
C47 C 0.2085(3) 0.7925(2) 1.14524(15)
C48 C 0.3350(3) 0.8268(2) 1.15488(17)
H48 H 0.42030 0.78290 1.14220
H49 H 0.32960 0.82580 1.20930
H50 H 0.33450 0.89340 1.11910
C49 C 0.2118(4) 0.6857(2) 1.20206(17)
H51 H 0.13800 0.66100 1.19280
H52 H 0.19810 0.68540 1.25670
H53 H 0.30120 0.64380 1.19220
C50 C 0.0738(3) 0.8646(3) 1.1651(2)
H54 H 0.07270 0.93010 1.12720
H55 H 0.07160 0.86650 1.21840
H56 H -0.00700 0.84210 1.16200
N3 N 0.2133(2) 0.79286(14) 1.06142(11)
N4 N -0.3365(3) 1.0145(2) 0.72834(17)
O6 O 0.44960(16) 0.72523(12) 1.03157(9)
O7 O 0.37705(16) 0.89035(12) 0.97651(9)
O8 O 0.00256(19) 0.74441(14) 1.07614(11)
O9 O -0.2987(3) 1.0688(2) 0.66387(16)
O10 O -0.4593(3) 1.02081(19) 0.75659(15)
#END
