
#######################################################################
#
#                 Cambridge Crystallographic Data Centre
#                                CCDC
#
#######################################################################
#
# If this CIF has been generated from an entry in the Cambridge
# Structural Database, then it will include bibliographic, chemical,
# crystal, experimental, refinement or atomic coordinate data resulting
# from the CCDC's data processing and validation procedures.
#
#######################################################################

data_CSD_CIF_COWNUX
_audit_creation_date 1985-08-16
_audit_creation_method CSD-ConQuest-V1
_database_code_CSD COWNUX
_chemical_formula_sum 'C15 H20 N2 O3'
_chemical_formula_moiety
;
C15 H20 N2 O3
;
_journal_coden_Cambridge 16
_journal_volume 40
_journal_year 1984
_journal_page_first 3587
_journal_name_full 'Tetrahedron '
loop_
_publ_author_name
"G.Bernath"
"F.Fulop"
"A.Kalman"
"G.Argay"
"P.Sohar"
"I.Pelczer"
_chemical_name_systematic
;
(r-4,t-2,c-5)-2-(p-Nitrophenyl)-3-methyl-4,5-tetramethylene-tetrahydro-1,3-oxa
zine
;
_cell_volume   1409.069
_exptl_crystal_density_diffrn 1.303
_diffrn_ambient_temperature ?
_diffrn_special_details
;
The study was carried out at room temperature,in the range 283-303K

;
#These two values have been output from a single CSD field.
_refine_ls_R_factor_gt 0.086
_refine_ls_wR_factor_gt 0.086
_symmetry_cell_setting monoclinic
_symmetry_space_group_name_H-M 'P 21/n'
_symmetry_Int_Tables_number 14
loop_
_symmetry_equiv_pos_site_id
_symmetry_equiv_pos_as_xyz
1 x,y,z
2 1/2-x,1/2+y,1/2-z
3 -x,-y,-z
4 -1/2+x,-1/2-y,-1/2+z
_cell_length_a 9.958(2)
_cell_length_b 6.822(1)
_cell_length_c 20.748(5)
_cell_angle_alpha 90
_cell_angle_beta 91.39(2)
_cell_angle_gamma 90
_cell_formula_units_Z 4
loop_
_atom_type_symbol
_atom_type_radius_bond
C 0.68
H 0.23
N 0.68
O 0.68
loop_
_atom_site_label
_atom_site_type_symbol
_atom_site_fract_x
_atom_site_fract_y
_atom_site_fract_z
O1 O 0.2886(5) 0.0585(7) 0.5379(2)
C1 C 0.2052(6) -0.0725(9) 0.4970(3)
N1 N 0.2629(5) -0.2605(8) 0.4899(2)
C2 C 0.2826(6) -0.363(1) 0.5546(3)
C3 C 0.3662(6) -0.2244(10) 0.5987(3)
C4 C 0.3063(7) -0.0278(10) 0.6033(3)
C5 C 0.3817(7) -0.3105(12) 0.6690(3)
C6 C 0.2498(8) -0.3847(10) 0.6940(3)
C7 C 0.1828(9) -0.5278(12) 0.6471(4)
C8 C 0.1522(7) -0.4269(10) 0.5795(3)
C9 C 0.3893(6) -0.2541(10) 0.4525(3)
C10 C 0.1798(5) 0.0334(9) 0.4339(3)
C11 C 0.2220(6) 0.2227(10) 0.4246(3)
C12 C 0.2004(7) 0.3188(9) 0.3667(3)
C13 C 0.1306(6) 0.2209(10) 0.3184(3)
C14 C 0.0871(6) 0.0330(11) 0.3256(3)
C15 C 0.1087(6) -0.0614(10) 0.3838(3)
N2 N 0.1055(5) 0.3267(2) 0.2571(2)
O2 O 0.0539(6) 0.2336(10) 0.2128(2)
O3 O 0.1324(6) 0.4988(8) 0.2540(2)
H1 H 0.11100 -0.08400 0.51800
H2 H 0.33400 -0.45700 0.55100
H3 H 0.47300 -0.25000 0.58400
H4 H 0.22100 -0.04100 0.61500
H5 H 0.35900 0.04300 0.63300
H6 H 0.41800 -0.20700 0.70100
H7 H 0.44500 -0.41600 0.66800
H8 H 0.22300 -0.25000 0.70100
H9 H 0.27200 -0.45800 0.73900
H10 H 0.09000 -0.57200 0.66700
H11 H 0.27700 -0.58200 0.63300
H12 H 0.08200 -0.50000 0.54900
H13 H 0.08600 -0.30400 0.58400
H14 H 0.41800 -0.37500 0.45100
H15 H 0.36100 -0.16800 0.41800
H16 H 0.47300 -0.20900 0.46700
H17 H 0.27700 0.29100 0.44900
H18 H 0.22100 0.45700 0.36500
H19 H 0.03500 -0.04000 0.28700
H20 H 0.08400 -0.20900 0.38500
#END
