
#######################################################################
#
#                 Cambridge Crystallographic Data Centre
#                                CCDC
#
#######################################################################
#
# If this CIF has been generated from an entry in the Cambridge
# Structural Database, then it will include bibliographic, chemical,
# crystal, experimental, refinement or atomic coordinate data resulting
# from the CCDC's data processing and validation procedures.
#
#######################################################################

data_CSD_CIF_COWPEJ
_audit_creation_date 1985-08-16
_audit_creation_method CSD-ConQuest-V1
_database_code_CSD COWPEJ
_chemical_formula_sum 'C20 H26 N2 O3'
_chemical_formula_moiety
;
C20 H26 N2 O3
;
_journal_coden_Cambridge 16
_journal_volume 40
_journal_year 1984
_journal_page_first 2441
_journal_name_full 'Tetrahedron '
loop_
_publ_author_name
"G.Barbarella"
"S.Bruckner"
"G.Pitacco"
"E.Valentin"
_chemical_name_systematic
;
(2S-(2\a,3\a,3a\a,6a\a))-Hexahydro-2-methyl-2-nitro-3-phenyl-6a-(1-piperidinyl
)-1(2H)-pentalenone
;
_chemical_melting_point 406.15
_cell_volume   3632.777
_exptl_special_details
;
Melting point range 406.15-407.15K
z/c(O31)=-0.0875 (not -0.0815)

;
_diffrn_ambient_temperature ?
_diffrn_special_details
;
The study was carried out at room temperature,in the range 283-303K

;
#These two values have been output from a single CSD field.
_refine_ls_R_factor_gt 0.054
_refine_ls_wR_factor_gt 0.054
_symmetry_cell_setting monoclinic
_symmetry_space_group_name_H-M 'P 21/c'
_symmetry_Int_Tables_number 14
loop_
_symmetry_equiv_pos_site_id
_symmetry_equiv_pos_as_xyz
1 x,y,z
2 -x,1/2+y,1/2-z
3 -x,-y,-z
4 x,-1/2-y,-1/2+z
_cell_length_a 9.024(2)
_cell_length_b 16.754(3)
_cell_length_c 24.036(4)
_cell_angle_alpha 90
_cell_angle_beta 91.46(4)
_cell_angle_gamma 90
_cell_formula_units_Z 8
loop_
_atom_type_symbol
_atom_type_radius_bond
C 0.68
N 0.68
O 0.68
loop_
_atom_site_label
_atom_site_type_symbol
_atom_site_fract_x
_atom_site_fract_y
_atom_site_fract_z
O1 O 0.4092(3) 0.1988(2) 0.6006(1)
O2 O 0.6390(4) 0.0204(2) 0.6466(1)
O3 O 0.5433(3) 0.1000(2) 0.7048(1)
N1 N 0.4221(3) 0.3204(1) 0.6852(1)
N2 N 0.6093(3) 0.0867(1) 0.6622(1)
C1 C 0.5212(3) 0.2149(2) 0.6268(1)
C2 C 0.6575(3) 0.1581(2) 0.6288(1)
C3 C 0.7760(3) 0.2054(2) 0.6625(1)
C4 C 0.6925(3) 0.2680(2) 0.6967(1)
C5 C 0.7812(4) 0.3453(2) 0.7029(2)
C6 C 0.7550(4) 0.3911(2) 0.6477(2)
C7 C 0.6225(4) 0.3510(2) 0.6181(1)
C8 C 0.5558(3) 0.2900(2) 0.6593(1)
C9 C 0.7027(4) 0.1306(2) 0.5714(1)
C10 C 0.3593(3) 0.2657(2) 0.7261(2)
C11 C 0.2033(4) 0.2919(2) 0.7399(2)
C12 C 0.2035(4) 0.3767(2) 0.7628(3)
C13 C 0.2773(4) 0.4307(2) 0.7220(2)
C14 C 0.4322(4) 0.4008(2) 0.7090(1)
C15 C 0.8913(3) 0.1560(2) 0.6946(1)
C16 C 1.0186(4) 0.1319(2) 0.6688(1)
C17 C 1.1280(4) 0.0882(2) 0.6956(2)
C18 C 1.1111(5) 0.0679(2) 0.7506(2)
C19 C 0.9866(4) 0.0914(2) 0.7778(2)
C20 C 0.8764(3) 0.1356(2) 0.7499(1)
O4 O 0.8992(2) 0.1997(1) 0.0229(1)
O5 O 1.1426(3) 0.0232(1) -0.0322(1)
O6 O 1.0426(3) 0.1057(1) -0.0875(1)
N3 N 0.9093(3) 0.3269(1) -0.0574(1)
N4 N 1.0971(3) 0.0896(1) -0.0416(1)
C21 C 1.0093(3) 0.2155(2) -0.0021(1)
C22 C 1.1439(3) 0.1580(2) -0.0041(1)
C23 C 1.2629(3) 0.2084(2) -0.0345(1)
C24 C 1.1773(3) 0.2727(2) -0.0684(1)
C25 C 1.2653(3) 0.3501(2) -0.0730(1)
C26 C 1.2441(4) 0.3933(2) -0.0174(1)
C27 C 1.1178(3) 0.3503(2) 0.0120(1)
C28 C 1.0446(3) 0.2931(2) -0.0315(1)
C29 C 1.1916(4) 0.1258(2) 0.0524(1)
C30 C 0.8498(4) 0.2796(2) -0.1043(2)
C31 C 0.6930(4) 0.3051(2) -0.1191(2)
C32 C 0.6824(4) 0.3929(2) -0.1326(2)
C33 C 0.7532(4) 0.4401(2) -0.0850(1)
C34 C 0.9103(4) 0.4119(2) -0.0729(1)
C35 C 1.3796(3) 0.1617(2) -0.0652(1)
C36 C 1.5066(3) 0.1380(2) -0.0365(2)
C37 C 1.6195(4) 0.0969(2) -0.0623(2)
C38 C 1.6053(4) 0.0803(2) -0.1181(2)
C39 C 1.4799(4) 0.1035(2) -0.1478(2)
C40 C 1.3672(4) 0.1436(2) -0.1214(1)
#END
