
#######################################################################
#
#                 Cambridge Crystallographic Data Centre
#                                CCDC
#
#######################################################################
#
# If this CIF has been generated from an entry in the Cambridge
# Structural Database, then it will include bibliographic, chemical,
# crystal, experimental, refinement or atomic coordinate data resulting
# from the CCDC's data processing and validation procedures.
#
#######################################################################

data_CSD_CIF_COWTAJ
_audit_creation_date 1985-08-16
_audit_creation_method CSD-ConQuest-V1
_database_code_CSD COWTAJ
_database_code_depnum_ccdc_archive 'CCDC 1130444'
_chemical_formula_sum 'C24 H18 N6 O11'
_chemical_formula_moiety
;
C24 H18 N6 O11
;
_journal_coeditor_code "IUCr A24500"
_journal_coden_Cambridge 591
_journal_volume 41
_journal_year 1985
_journal_page_first 89
_journal_name_full 'Acta Crystallogr.,Sect.C:Cryst.Struct.Commun. '
loop_
_publ_author_name
"H.van Koningsveld"
"J.C.Jansen"
"J.A.Jongejan"
"J.F.Jzn"
"J.A.Duine"
_chemical_name_systematic
;
2-Ethyl-7,9-dimethyl-4,5-dihydro-5-(2,4-dinitrophenylhydrazono)-4-oxo-1H-pyrro
lo(2,3-f)quinoline-2,7,9-tricarboxylate
;
_cell_volume   1233.610
_exptl_crystal_colour 'orange'
_exptl_crystal_density_diffrn 1.53
_diffrn_ambient_temperature ?
_diffrn_special_details
;
The study was carried out at room temperature,in the range 283-303K

;
#These two values have been output from a single CSD field.
_refine_ls_R_factor_gt 0.053
_refine_ls_wR_factor_gt 0.053
_symmetry_cell_setting triclinic
_symmetry_space_group_name_H-M 'P -1'
_symmetry_Int_Tables_number 2
loop_
_symmetry_equiv_pos_site_id
_symmetry_equiv_pos_as_xyz
1 x,y,z
2 -x,-y,-z
_cell_length_a 11.018(3)
_cell_length_b 15.451(3)
_cell_length_c 7.507(2)
_cell_angle_alpha 92.68(3)
_cell_angle_beta 104.69(3)
_cell_angle_gamma 86.83(3)
_cell_formula_units_Z 2
loop_
_atom_type_symbol
_atom_type_radius_bond
C 0.68
H 0.23
N 0.68
O 0.68
loop_
_atom_site_label
_atom_site_type_symbol
_atom_site_fract_x
_atom_site_fract_y
_atom_site_fract_z
C1 C 1.2058(5) 0.2291(3) 0.2322(7)
C2 C 1.2194(5) 0.1495(3) 0.3081(7)
C3 C 1.1034(4) 0.1114(3) 0.2507(6)
C4 C 1.0669(4) 0.0271(3) 0.2874(6)
C5 C 0.9401(4) 0.0042(3) 0.1924(6)
C6 C 0.8536(4) 0.0657(3) 0.0663(6)
C7 C 0.6591(4) 0.0881(3) -0.1259(6)
C8 C 0.6824(5) 0.1734(3) -0.1459(7)
C9 C 0.7968(4) 0.2059(3) -0.0636(6)
C10 C 0.8915(4) 0.1504(3) 0.0444(6)
C11 C 1.0190(4) 0.1687(3) 0.1357(6)
C12 C 1.2905(5) 0.2984(3) 0.2392(8)
C13 C 1.5055(8) 0.3438(5) 0.3727(12)
C14 C 1.5437(9) 0.3380(6) 0.2140(17)
C15 C 0.5357(5) 0.0534(4) -0.2259(6)
C16 C 0.4118(6) -0.0677(5) -0.3106(10)
C17 C 0.8157(5) 0.2993(3) -0.0951(7)
C18 C 0.7151(8) 0.4385(4) -0.1337(14)
C19 C 0.9065(4) -0.2048(3) 0.3294(6)
C20 C 0.9712(4) -0.2726(3) 0.4401(6)
C21 C 0.9140(6) -0.3484(3) 0.4495(8)
C22 C 0.7931(6) -0.3577(3) 0.3561(8)
C23 C 0.7250(5) -0.2921(5) 0.2525(8)
C24 C 0.7819(5) -0.2167(3) 0.2383(7)
N1 N 1.0840(4) 0.2392(2) 0.1280(6)
N2 N 0.8914(3) -0.0690(2) 0.2064(5)
N3 N 0.9615(4) -0.1287(2) 0.3150(5)
N4 N 1.1000(4) -0.2652(3) 0.5472(6)
N5 N 0.7333(7) -0.4382(4) 0.3691(9)
N6 N 0.7422(3) 0.0352(2) -0.0185(5)
O1 O 1.1406(3) -0.0235(2) 0.3914(4)
O2 O 1.4062(4) 0.2766(3) 0.3342(6)
O3 O 1.2591(4) 0.3674(2) 0.1709(6)
O4 O 1.1616(3) -0.2062(3) 0.5224(6)
O5 O 1.1416(5) -0.3185(3) 0.6666(6)
O6 O 0.7979(6) -0.4968(3) 0.4541(8)
O7 O 0.6226(6) -0.4432(3) 0.2904(9)
O8 O 0.4532(3) 0.0995(3) -0.3150(5)
O9 O 0.5277(3) -0.0299(2) -0.2101(5)
O10 O 0.9100(4) 0.3295(2) -0.1082(5)
O11 O 0.7091(4) 0.3451(29) -0.1100(6)
H1 H 1.059(4) 0.283(3) 0.077(6)
H2 H 1.046(4) -0.114(3) 0.371(6)
H3 H 1.296(4) 0.126(3) 0.385(6)
H4 H 0.620(4) 0.206(3) -0.208(6)
H5 H 0.341(5) -0.029(3) -0.281(7)
H6 H 0.387(5) -0.046(3) -0.430(8)
H7 H 0.418(5) -0.121(4) -0.285(8)
H8 H 0.748(6) 0.446(4) -0.232(9)
H9 H 0.632(6) 0.459(4) -0.119(8)
H10 H 0.797(6) 0.472(4) -0.008(8)
H11 H 0.956(4) -0.393(3) 0.518(6)
H12 H 0.640(4) -0.297(3) 0.199(6)
H13 H 0.737(4) -0.167(3) 0.185(6)
#END
