
#######################################################################
#
#                 Cambridge Crystallographic Data Centre
#                                CCDC
#
#######################################################################
#
# If this CIF has been generated from an entry in the Cambridge
# Structural Database, then it will include bibliographic, chemical,
# crystal, experimental, refinement or atomic coordinate data resulting
# from the CCDC's data processing and validation procedures.
#
#######################################################################

data_CSD_CIF_COWZEV
_audit_creation_date 2015-02-26
_audit_creation_method CSD-ConQuest-V1
_database_code_CSD COWZEV
_database_code_depnum_ccdc_archive 'CCDC 948801'
_chemical_formula_sum 'C2 H4 N2 O3'
_chemical_formula_moiety
;
C2 H4 N2 O3
;
_journal_coden_Cambridge 9
_journal_volume 53
_journal_year 2014
_journal_page_first 11160
_journal_name_full 'Inorg.Chem. '
loop_
_publ_author_name
"D.Scott Bohle"
"Zhijie Chua"
_chemical_name_systematic
;
N-nitroacetamide
;
_cell_volume    414.522
_exptl_crystal_colour 'colorless'
_exptl_crystal_density_diffrn 1.668
_exptl_crystal_description 'rectangular'
_diffrn_ambient_temperature 100
#These two values have been output from a single CSD field.
_refine_ls_R_factor_gt 0.0334
_refine_ls_wR_factor_gt 0.0334
_symmetry_cell_setting orthorhombic
_symmetry_space_group_name_H-M 'P n m a'
_symmetry_Int_Tables_number 62
loop_
_symmetry_equiv_pos_site_id
_symmetry_equiv_pos_as_xyz
1 x,y,z
2 1/2-x,-y,1/2+z
3 1/2+x,1/2-y,1/2-z
4 -x,1/2+y,-z
5 -x,-y,-z
6 -1/2+x,y,-1/2-z
7 -1/2-x,-1/2+y,-1/2+z
8 x,-1/2-y,z
_cell_length_a 9.509(3)
_cell_length_b 5.849(2)
_cell_length_c 7.453(3)
_cell_angle_alpha 90
_cell_angle_beta 90
_cell_angle_gamma 90
_cell_formula_units_Z 4
loop_
_atom_type_symbol
_atom_type_radius_bond
C 0.68
H 0.23
N 0.68
O 0.68
loop_
_atom_site_label
_atom_site_type_symbol
_atom_site_fract_x
_atom_site_fract_y
_atom_site_fract_z
O1 O 0.22134(12) 0.25000 0.64216(15)
O2 O -0.00562(12) 0.25000 0.60697(16)
O3 O -0.08927(11) 0.25000 0.26794(16)
N1 N 0.13853(14) 0.25000 0.36805(17)
H1 H 0.23090 0.25000 0.33900
N2 N 0.11435(13) 0.25000 0.55110(17)
C1 C 0.03532(16) 0.25000 0.2362(2)
C2 C 0.09825(17) 0.25000 0.0519(2)
H2 H 0.02440 0.25000 -0.03590
H3 H 0.15530 0.11600 0.03680
H4? H 0.15530 0.11600 0.03680
H3G H 0.15530 0.38400 0.03680
#END
