
#######################################################################
#
#                 Cambridge Crystallographic Data Centre
#                                CCDC
#
#######################################################################
#
# If this CIF has been generated from an entry in the Cambridge
# Structural Database, then it will include bibliographic, chemical,
# crystal, experimental, refinement or atomic coordinate data resulting
# from the CCDC's data processing and validation procedures.
#
#######################################################################

data_CSD_CIF_COXROW
_audit_creation_date 1985-09-20
_audit_creation_method CSD-ConQuest-V1
_database_code_CSD COXROW
_chemical_formula_sum 'C15 H13 N3 O3'
_chemical_formula_moiety
;
C15 H13 N3 O3
;
_journal_coden_Cambridge 95
_journal_year 1984
_journal_page_first 1320
_journal_name_full 'Izv.Akad.Nauk SSSR,Ser.Khim.(Russ.)(Russ.Chem.Bull.) '
loop_
_publ_author_name
"A.B.Zolotoi"
"A.V.Prosyanik"
"O.A.D'yachenko"
"Ya.Z.Zorin"
"L.O.Atovmyan"
_chemical_name_systematic
;
N,N'-Diphenyl-malonamide-2-one oxime
;
_cell_volume   1384.683
_exptl_crystal_colour 'yellow'
_exptl_crystal_density_diffrn 1.366
_exptl_special_details
;
H111 deleted for suspected coordinate errors

;
_diffrn_ambient_temperature ?
_diffrn_special_details
;
The study was carried out at room temperature,in the range 283-303K

;
#These two values have been output from a single CSD field.
_refine_ls_R_factor_gt 0.038
_refine_ls_wR_factor_gt 0.038
_symmetry_cell_setting triclinic
_symmetry_space_group_name_H-M 'P -1'
_symmetry_Int_Tables_number 2
loop_
_symmetry_equiv_pos_site_id
_symmetry_equiv_pos_as_xyz
1 x,y,z
2 -x,-y,-z
_cell_length_a 9.858(3)
_cell_length_b 12.030(3)
_cell_length_c 13.000(4)
_cell_angle_alpha 81.99(2)
_cell_angle_beta 69.12(2)
_cell_angle_gamma 99.93(2)
_cell_formula_units_Z 4
loop_
_atom_type_symbol
_atom_type_radius_bond
C 0.68
H 0.23
N 0.68
O 0.68
loop_
_atom_site_label
_atom_site_type_symbol
_atom_site_fract_x
_atom_site_fract_y
_atom_site_fract_z
O1 O 0.4205(2) 0.1426(1) 0.9631(1)
O2 O 0.0911(2) -0.1336(1) 1.0333(1)
O3 O 0.6895(2) 0.2133(1) 0.8376(1)
O4 O -0.1780(2) -0.2100(1) 1.1540(1)
O5 O 0.6183(2) -0.0879(1) 0.7173(1)
O6 O -0.1270(2) 0.0873(1) 1.2830(1)
N1 N 0.4176(2) 0.0464(1) 0.9185(1)
N2 N 0.0894(2) -0.0386(1) 1.0801(2)
N3 N 0.7902(2) 0.1106(1) 0.7080(1)
N4 N -0.2877(2) -0.1135(1) 1.2873(1)
N5 N 0.3893(2) -0.1505(1) 0.8580(1)
N6 N 0.1052(2) 0.1556(1) 1.1470(1)
C1 C 0.5369(1) 0.0383(2) 0.8402(2)
C2 C -0.0333(2) -0.0336(2) 1.1577(2)
C3 C 0.6807(2) 0.1282(2) 0.7944(2)
C4 C -0.1739(2) -0.1268(2) 1.2002(2)
C5 C 0.5184(3) -0.0721(2) 0.7988(2)
C6 C -0.0229(3) 0.0751(2) 1.2020(2)
C7 C 0.9344(2) 0.1822(2) 0.6429(2)
C8 C -0.4323(3) -0.1859(2) 1.3474(2)
C9 C 0.9977(2) 0.2790(2) 0.6708(2)
C10 C -0.4803(3) -0.2930(2) 1.3271(2)
C11 C 1.1411(3) 0.3428(2) 0.6007(2)
C12 C -0.6250(3) -0.3558(2) 1.3915(2)
C13 C 1.2194(3) 0.3118(2) 0.5042(2)
C14 C -0.7207(3) -0.3152(3) 1.4747(2)
C15 C 1.1556(3) 0.2174(2) 0.4752(2)
C16 C -0.6742(3) -0.2101(2) 1.4953(2)
C17 C 1.0136(3) 0.1520(2) 0.5441(2)
C18 C -0.5293(3) -0.1456(2) 1.4313(2)
C19 C 0.3482(2) -0.2638(2) 0.8431(2)
C20 C 0.1439(2) 0.2666(2) 1.1695(2)
C21 C 0.3977(3) -0.2923(2) 0.7394(2)
C22 C 0.0361(3) 0.3250(2) 1.2187(2)
C23 C 0.3512(3) -0.4048(2) 0.7310(2)
C24 C 0.0834(3) 0.4334(2) 1.2357(2)
C25 C 0.2567(2) -0.4880(2) 0.8254(2)
C26 C 0.2321(3) 0.4839(2) 1.2042(2)
C27 C 0.2091(3) -0.4592(2) 0.9281(2)
C28 C 0.3377(3) 0.4255(2) 1.1547(2)
C29 C 0.2532(3) -0.3467(2) 0.9375(2)
C30 C 0.2939(3) 0.3166(2) 1.1368(2)
H1 H 0.5198(28) 0.188(2) 0.915(2)
H2 H -0.0331(28) -0.1815(21) 1.0677(21)
H3 H 0.7683(26) 0.039(2) 0.6921(19)
H4 H -0.2604(24) -0.0473(18) 1.3161(18)
H5 H 0.3243(22) -0.1225(17) 0.9092(17)
H6 H 0.1750(23) 0.1364(17) 1.0889(17)
H7 H 0.9469(25) 0.3054(19) 0.7397(19)
H8 H -0.4184(25) -0.3219(19) 1.2683(18)
H9 H 1.1818(25) 0.4209(19) 0.6220(19)
H10 H -0.6594(25) -0.4283(19) 1.3707(18)
H11 H 1.3329(27) 0.3598(20) 0.4512(20)
H12 H -0.8234(27) -0.3549(20) 1.520(2)
H13 H 1.2124(27) 0.1914(20) 0.4117(20)
H14 H -0.7397(34) -0.1727(26) 1.5522(24)
H15 H 0.9786(33) 0.0852(24) 0.5176(24)
H16 H -0.4794(24) -0.0634(19) 1.4421(18)
H17 H -0.0708(23) 0.2824(17) 1.2483(17)
H18 H 0.3082(24) -0.4295(18) 0.6532(18)
H19 H 0.0008(24) 0.4768(18) 1.2720(18)
H20 H 0.2326(27) -0.5675(21) 0.8165(20)
H21 H 0.2637(25) 0.5648(19) 1.2152(18)
H22 H 0.1448(25) -0.5201(19) 0.9994(19)
H23 H 0.4476(29) 0.4669(22) 1.1200(22)
H24 H 0.2137(23) -0.3238(17) 1.0100(16)
H25 H 0.3722(24) 0.2773(18) 1.1022(18)
#END
