
#######################################################################
#
#                 Cambridge Crystallographic Data Centre
#                                CCDC
#
#######################################################################
#
# If this CIF has been generated from an entry in the Cambridge
# Structural Database, then it will include bibliographic, chemical,
# crystal, experimental, refinement or atomic coordinate data resulting
# from the CCDC's data processing and validation procedures.
#
#######################################################################

data_CSD_CIF_COXTOA
_audit_creation_date 2015-02-26
_audit_creation_method CSD-ConQuest-V1
_database_code_CSD COXTOA
_database_code_depnum_ccdc_archive 'CCDC 993219'
_chemical_formula_sum 'C15 H19 N1 O4'
_chemical_formula_moiety
;
C15 H19 N1 O4
;
_journal_coden_Cambridge 1366
_journal_volume 356
_journal_year 2014
_journal_page_first 3106
_journal_name_full 'Adv.Synth.Catal. '
loop_
_publ_author_name
"Y.Yasui"
"K.Ogata"
"I.Sato"
"Yujiro Hayashi"
_chemical_name_systematic
;
ethyl (4-hydroxy-3-methyl-1-oxido-5-phenyl-3,4-dihydro-2H-pyrrol-2-yl)acetate
;
_cell_volume   1395.768
_exptl_crystal_colour 'colorless'
_exptl_crystal_density_diffrn 1.32
_exptl_crystal_description 'plate'
_diffrn_ambient_temperature 100
#These two values have been output from a single CSD field.
_refine_ls_R_factor_gt 0.0298
_refine_ls_wR_factor_gt 0.0298
_symmetry_cell_setting orthorhombic
_symmetry_space_group_name_H-M 'P 21 21 21'
_symmetry_Int_Tables_number 19
loop_
_symmetry_equiv_pos_site_id
_symmetry_equiv_pos_as_xyz
1 x,y,z
2 1/2-x,-y,1/2+z
3 1/2+x,1/2-y,-z
4 -x,1/2+y,1/2-z
_cell_length_a 5.6457(17)
_cell_length_b 9.218(3)
_cell_length_c 26.820(8)
_cell_angle_alpha 90
_cell_angle_beta 90
_cell_angle_gamma 90
_cell_formula_units_Z 4
loop_
_atom_type_symbol
_atom_type_radius_bond
C 0.68
H 0.23
N 0.68
O 0.68
loop_
_atom_site_label
_atom_site_type_symbol
_atom_site_fract_x
_atom_site_fract_y
_atom_site_fract_z
N1 N 0.8115(2) 1.08758(12) 0.77549(4)
C1 C 0.7230(2) 0.98218(14) 0.74889(5)
C2 C 0.6272(3) 0.86570(15) 0.78306(5)
H1 H 0.65480 0.76640 0.76920
C3 C 0.7717(3) 0.89180(15) 0.83105(5)
H2 H 0.93040 0.84530 0.82680
C4 C 0.8060(2) 1.05719(15) 0.83062(5)
H3 H 0.66520 1.10550 0.84600
O1 O 0.89368(18) 1.21216(10) 0.76016(3)
O2 O 0.38203(19) 0.89206(11) 0.79196(4)
H4 H 0.30080 0.82850 0.77740
C5 C 0.7101(3) 0.98095(14) 0.69424(5)
C6 C 0.8903(3) 1.04255(15) 0.66530(5)
H5 H 1.01610 1.09390 0.68090
C7 C 0.8849(3) 1.02844(17) 0.61374(5)
H6 H 1.00800 1.06960 0.59420
C8 C 0.7011(3) 0.95484(17) 0.59062(5)
H7 H 0.69930 0.94520 0.55540
C9 C 0.5201(3) 0.89543(16) 0.61883(5)
H8 H 0.39320 0.84610 0.60290
C10 C 0.5242(2) 0.90793(15) 0.67047(5)
H9 H 0.40020 0.86670 0.68980
C11 C 0.6571(3) 0.82894(16) 0.87777(5)
H10 H 0.62710 0.72520 0.87290
H11 H 0.50700 0.87890 0.88420
H12 H 0.76350 0.84230 0.90630
C12 C 1.0319(3) 1.11675(16) 0.85362(5)
H13 H 1.16880 1.06080 0.84090
H14 H 1.05250 1.21890 0.84310
C13 C 1.0302(3) 1.10949(15) 0.90987(5)
O3 O 0.86345(19) 1.13448(13) 0.93649(4)
O4 O 1.24579(18) 1.07365(12) 0.92647(4)
C14 C 1.2724(3) 1.0552(2) 0.97992(5)
H15 H 1.17480 1.12800 0.99770
H16 H 1.44000 1.07030 0.98950
C15 C 1.1954(4) 0.9049(2) 0.99456(6)
H17 H 1.28810 0.83320 0.97590
H18 H 1.02690 0.89250 0.98690
H19 H 1.22110 0.89100 1.03040
#END
