
#######################################################################
#
#                 Cambridge Crystallographic Data Centre
#                                CCDC
#
#######################################################################
#
# If this CIF has been generated from an entry in the Cambridge
# Structural Database, then it will include bibliographic, chemical,
# crystal, experimental, refinement or atomic coordinate data resulting
# from the CCDC's data processing and validation procedures.
#
#######################################################################

data_CSD_CIF_COXXEU
_audit_creation_date 2015-02-26
_audit_creation_method CSD-ConQuest-V1
_database_code_CSD COXXEU
_database_code_depnum_ccdc_archive 'CCDC 995481'
_chemical_formula_sum 'C16 H20 N2 O7'
_chemical_formula_moiety
;
C16 H20 N2 O7
;
_journal_coden_Cambridge 1366
_journal_volume 356
_journal_year 2014
_journal_page_first 3627
_journal_name_full 'Adv.Synth.Catal. '
loop_
_publ_author_name
"J.I.Martinez"
"L.Villar"
"Uxue Uria"
"L.Carrillo"
"E.Reyes"
"J.L.Vicario"
_chemical_name_systematic
;
(1R,2R,3R,4S)-ethyl 
4-hydroxy-4-methyl-1,3-dinitro-2-phenylcyclohexanecarboxylate
;
_cell_volume   1680.052
_exptl_crystal_colour 'colorless'
_exptl_crystal_density_diffrn 1.393
_exptl_special_details
;
Absolute configuration

;
_exptl_crystal_description 'prism'
_diffrn_ambient_temperature 100
#These two values have been output from a single CSD field.
_refine_ls_R_factor_gt 0.0231
_refine_ls_wR_factor_gt 0.0231
loop_
_citation_database_id_CSD
_citation_special_details
COXXIY "is a stereoisomer of this entry"
_symmetry_cell_setting orthorhombic
_symmetry_space_group_name_H-M 'P 21 21 21'
_symmetry_Int_Tables_number 19
loop_
_symmetry_equiv_pos_site_id
_symmetry_equiv_pos_as_xyz
1 x,y,z
2 1/2-x,-y,1/2+z
3 1/2+x,1/2-y,-z
4 -x,1/2+y,1/2-z
_cell_length_a 7.2993(1)
_cell_length_b 9.2275(1)
_cell_length_c 24.9435(1)
_cell_angle_alpha 90
_cell_angle_beta 90
_cell_angle_gamma 90
_cell_formula_units_Z 4
loop_
_atom_type_symbol
_atom_type_radius_bond
C 0.68
H 0.23
N 0.68
O 0.68
loop_
_atom_site_label
_atom_site_type_symbol
_atom_site_fract_x
_atom_site_fract_y
_atom_site_fract_z
O1 O 0.75058(11) 0.96851(9) 0.23671(3)
O2 O 0.62536(12) 0.91648(9) 0.48981(3)
O3 O 0.73621(12) 1.23176(9) 0.29383(3)
O4 O 0.92111(12) 0.89313(10) 0.30665(3)
N1 N 0.60164(14) 1.16542(11) 0.30949(4)
O5 O 0.80298(13) 0.73184(10) 0.47613(3)
O6 O 0.33764(11) 0.82173(9) 0.41059(3)
H1 H 0.32720 0.79500 0.44260
O7 O 0.45298(14) 1.22065(11) 0.31823(4)
N2 N 0.70245(14) 0.83059(10) 0.46027(4)
C1 C 0.81259(16) 1.09365(12) 0.40535(4)
C2 C 0.67023(15) 0.83863(12) 0.40071(4)
H2 H 0.77590 0.79270 0.38170
C3 C 1.08312(18) 1.27692(14) 0.44738(5)
H3 H 1.17530 1.33890 0.46140
C4 C 0.45014(16) 0.92288(13) 0.30800(5)
H4 H 0.34380 0.96920 0.32570
H5 H 0.43050 0.92660 0.26880
C5 C 0.99283(17) 1.04504(13) 0.41119(5)
H6 H 1.02430 0.94930 0.40060
C6 C 0.62554(16) 1.00484(12) 0.32249(4)
C7 C 0.78749(16) 0.95091(12) 0.28850(4)
C8 C 0.77091(17) 1.23521(12) 0.42142(4)
H7 H 0.64850 1.26930 0.41840
C9 C 0.89122(17) 0.91774(13) 0.19909(5)
H8 H 0.83390 0.89530 0.16410
H9 H 0.94800 0.82790 0.21300
C10 C 0.49184(16) 0.75300(12) 0.38714(4)
C11 C 0.65801(15) 0.99919(12) 0.38425(4)
H10 H 0.54330 1.03730 0.40110
C12 C 0.90456(19) 1.32656(13) 0.44166(5)
H11 H 0.87420 1.42300 0.45160
C13 C 0.50352(18) 0.59454(13) 0.40418(5)
H12 H 0.51470 0.58890 0.44330
H13 H 0.61090 0.54950 0.38750
H14 H 0.39250 0.54350 0.39270
C14 C 0.46592(17) 0.76542(13) 0.32620(4)
H15 H 0.57130 0.71950 0.30790
H16 H 0.35370 0.71230 0.31560
C15 C 1.12583(18) 1.13569(14) 0.43235(5)
H17 H 1.24750 1.10100 0.43660
C16 C 1.03605(19) 1.03177(15) 0.19168(6)
H18 H 1.12700 0.99770 0.16570
H19 H 1.09630 1.05080 0.22610
H20 H 0.97930 1.12110 0.17850
#END
