
#######################################################################
#
#                 Cambridge Crystallographic Data Centre
#                                CCDC
#
#######################################################################
#
# If this CIF has been generated from an entry in the Cambridge
# Structural Database, then it will include bibliographic, chemical,
# crystal, experimental, refinement or atomic coordinate data resulting
# from the CCDC's data processing and validation procedures.
#
#######################################################################

data_CSD_CIF_COXXOE
_audit_creation_date 2015-02-26
_audit_creation_method CSD-ConQuest-V1
_database_code_CSD COXXOE
_database_code_depnum_ccdc_archive 'CCDC 995485'
_chemical_formula_sum 'C16 H20 N2 O7'
_chemical_formula_moiety
;
C16 H20 N2 O7
;
_journal_coden_Cambridge 1366
_journal_volume 356
_journal_year 2014
_journal_page_first 3627
_journal_name_full 'Adv.Synth.Catal. '
loop_
_publ_author_name
"J.I.Martinez"
"L.Villar"
"Uxue Uria"
"L.Carrillo"
"E.Reyes"
"J.L.Vicario"
_chemical_name_systematic
;
(1S,2R,3S,4S)-ethyl 1-methyl-2,4-dinitro-3-phenylcyclohexyl carbonate
;
_cell_volume   1689.393
_exptl_crystal_colour 'colorless'
_exptl_crystal_density_diffrn 1.385
_exptl_special_details
;
Absolute configuration

;
_exptl_crystal_description 'prism'
_diffrn_ambient_temperature 100
#These two values have been output from a single CSD field.
_refine_ls_R_factor_gt 0.0253
_refine_ls_wR_factor_gt 0.0253
_symmetry_cell_setting orthorhombic
_symmetry_space_group_name_H-M 'P 21 21 21'
_symmetry_Int_Tables_number 19
loop_
_symmetry_equiv_pos_site_id
_symmetry_equiv_pos_as_xyz
1 x,y,z
2 1/2-x,-y,1/2+z
3 1/2+x,1/2-y,-z
4 -x,1/2+y,1/2-z
_cell_length_a 11.37665(11)
_cell_length_b 11.88709(12)
_cell_length_c 12.49225(12)
_cell_angle_alpha 90
_cell_angle_beta 90
_cell_angle_gamma 90
_cell_formula_units_Z 4
loop_
_atom_type_symbol
_atom_type_radius_bond
C 0.68
H 0.23
N 0.68
O 0.68
loop_
_atom_site_label
_atom_site_type_symbol
_atom_site_fract_x
_atom_site_fract_y
_atom_site_fract_z
O1 O 0.43327(7) 0.52400(7) 0.80519(7)
O2 O 0.30460(8) 0.55962(9) 0.94088(7)
O3 O 0.50185(8) 0.56829(8) 0.95874(6)
O4 O 0.60442(8) 0.39789(8) 0.68118(7)
O5 O 0.40705(10) 0.79327(10) 0.42155(8)
O6 O 0.47001(9) 0.27313(8) 0.65042(8)
O7 O 0.54204(10) 0.78620(9) 0.54207(9)
N1 N 0.45281(11) 0.75063(9) 0.50016(9)
C1 C 0.48360(11) 0.55975(10) 0.57596(9)
H1 H 0.54030 0.59100 0.62940
C2 C 0.26294(11) 0.58837(11) 0.69844(10)
H2 H 0.20270 0.56130 0.64740
H3 H 0.22170 0.61370 0.76390
C3 C 0.27358(12) 0.38908(11) 0.76656(11)
H4 H 0.32620 0.33680 0.80370
H5 H 0.23740 0.35100 0.70530
H6 H 0.21210 0.41440 0.81590
C4 C 0.67035(11) 0.54484(11) 0.46782(11)
H7 H 0.70860 0.58810 0.52150
N2 N 0.50496(10) 0.37052(9) 0.65500(8)
C5 C 0.34352(11) 0.49018(11) 0.72746(10)
C6 C 0.55144(11) 0.52058(10) 0.47796(10)
C7 C 0.32633(12) 0.68902(11) 0.64899(10)
H8 H 0.26870 0.74800 0.62970
H9 H 0.38250 0.72120 0.70120
C8 C 0.60995(13) 0.65468(13) 1.09988(11)
H10 H 0.63800 0.71310 1.05070
H11 H 0.66450 0.59090 1.09880
H12 H 0.60550 0.68540 1.17260
C9 C 0.56004(13) 0.41947(12) 0.31022(11)
H13 H 0.52180 0.37680 0.25610
C10 C 0.39189(12) 0.65021(10) 0.54931(10)
H14 H 0.33420 0.61890 0.49670
C11 C 0.67905(12) 0.44328(12) 0.30161(11)
H15 H 0.72270 0.41630 0.24210
C12 C 0.40291(11) 0.55169(11) 0.90575(10)
C13 C 0.73405(12) 0.50662(13) 0.38011(12)
H16 H 0.81530 0.52390 0.37400
C14 C 0.41698(11) 0.46148(10) 0.62729(10)
H17 H 0.36220 0.43020 0.57220
C15 C 0.49673(12) 0.45807(11) 0.39797(10)
H18 H 0.41520 0.44160 0.40340
C16 C 0.48997(12) 0.61583(13) 1.06539(10)
H19 H 0.45970 0.55840 1.11570
H20 H 0.43450 0.68000 1.06430
#END
