
#######################################################################
#
#                 Cambridge Crystallographic Data Centre
#                                CCDC
#
#######################################################################
#
# If this CIF has been generated from an entry in the Cambridge
# Structural Database, then it will include bibliographic, chemical,
# crystal, experimental, refinement or atomic coordinate data resulting
# from the CCDC's data processing and validation procedures.
#
#######################################################################

data_CSD_CIF_COXXIY
_audit_creation_date 2015-02-26
_audit_creation_method CSD-ConQuest-V1
_database_code_CSD COXXIY
_database_code_depnum_ccdc_archive 'CCDC 995483'
_chemical_formula_sum 'C16 H20 N2 O7'
_chemical_formula_moiety
;
C16 H20 N2 O7
;
_journal_coden_Cambridge 1366
_journal_volume 356
_journal_year 2014
_journal_page_first 3627
_journal_name_full 'Adv.Synth.Catal. '
loop_
_publ_author_name
"J.I.Martinez"
"L.Villar"
"Uxue Uria"
"L.Carrillo"
"E.Reyes"
"J.L.Vicario"
_chemical_name_systematic
;
(1S,2R,3R,4S)-ethyl 
4-hydroxy-4-methyl-1,3-dinitro-2-phenylcyclohexanecarboxylate
;
_cell_volume   1705.665
_exptl_crystal_colour 'colorless'
_exptl_crystal_density_diffrn 1.372
_exptl_special_details
;
Absolute configuration

;
_exptl_crystal_description 'prism'
_diffrn_ambient_temperature 100
#These two values have been output from a single CSD field.
_refine_ls_R_factor_gt 0.0272
_refine_ls_wR_factor_gt 0.0272
loop_
_citation_database_id_CSD
_citation_special_details
COXXEU "is a stereoisomer of this entry"
_symmetry_cell_setting monoclinic
_symmetry_space_group_name_H-M 'P 21'
_symmetry_Int_Tables_number 4
loop_
_symmetry_equiv_pos_site_id
_symmetry_equiv_pos_as_xyz
1 x,y,z
2 -x,1/2+y,-z
_cell_length_a 12.4250(2)
_cell_length_b 9.7662(2)
_cell_length_c 14.2351(4)
_cell_angle_alpha 90
_cell_angle_beta 99.090(2)
_cell_angle_gamma 90
_cell_formula_units_Z 4
loop_
_atom_type_symbol
_atom_type_radius_bond
C 0.68
H 0.23
N 0.68
O 0.68
loop_
_atom_site_label
_atom_site_type_symbol
_atom_site_fract_x
_atom_site_fract_y
_atom_site_fract_z
O1 O 0.02537(8) 0.40319(11) 0.18071(7)
O2 O 0.07115(8) 0.52703(10) 0.30699(7)
O3 O 0.34724(8) 0.38677(11) -0.00369(7)
O4 O 0.46474(8) 0.60058(10) 0.17191(7)
O5 O 0.18117(8) 0.16269(10) 0.19799(7)
H1 H 0.11670 0.13780 0.19920
N1 N 0.43844(9) 0.50709(11) 0.22042(8)
O6 O 0.51403(8) 0.35622(10) 0.08308(7)
N2 N 0.09220(9) 0.44630(11) 0.24587(8)
C1 C 0.21823(11) 0.24445(13) 0.27926(9)
C2 C 0.20832(10) 0.39893(13) 0.25433(9)
H2 H 0.25340 0.45190 0.30640
C3 C 0.24879(10) 0.43139(13) 0.15987(9)
H3 H 0.20830 0.36880 0.11100
C4 C 0.21896(11) 0.57702(13) 0.12674(10)
C5 C 0.37107(10) 0.39118(13) 0.16926(9)
C6 C 0.20225(12) 0.81942(15) 0.15749(11)
H4 H 0.21570 0.89520 0.19950
O7 O 0.45769(9) 0.50334(11) 0.30758(7)
C7 C 0.40760(11) 0.38113(13) 0.07067(10)
C8 C 0.23755(11) 0.68947(14) 0.18788(10)
H5 H 0.27470 0.67690 0.25090
C9 C 0.14735(12) 0.83849(15) 0.06567(12)
H6 H 0.12280 0.92730 0.04500
C10 C 0.39922(11) 0.25353(13) 0.2201(1)
H7 H 0.38260 0.17930 0.17270
H8 H 0.47870 0.25150 0.24280
C11 C 0.34096(11) 0.22147(13) 0.30449(9)
H9 H 0.35500 0.12500 0.32410
H10 H 0.37050 0.28070 0.35890
C12 C 0.15917(11) 0.20852(14) 0.36229(10)
H11 H 0.08050 0.22090 0.34290
H12 H 0.18480 0.26870 0.41630
H13 H 0.17430 0.11300 0.38090
C13 C 0.16394(12) 0.59776(15) 0.03507(10)
H14 H 0.15040 0.52220 -0.00720
C14 C 0.56725(12) 0.35421(15) -0.00169(10)
H15 H 0.51510 0.32310 -0.05750
H16 H 0.62960 0.28990 0.00780
C15 C 0.12827(13) 0.72823(16) 0.00415(11)
H17 H 0.09110 0.74120 -0.05880
C16 C 0.60639(13) 0.49609(16) -0.01877(11)
H18 H 0.64520 0.49520 -0.07360
H19 H 0.65570 0.52760 0.03770
H20 H 0.54380 0.55820 -0.03160
O8 O 0.97040(8) 0.02321(10) 0.17242(7)
O9 O 1.01796(8) -0.07456(11) 0.30857(7)
O10 O 0.88245(8) -0.30945(9) 0.31292(7)
H21 H 0.93910 -0.34650 0.29940
N3 N 0.95003(9) -0.04407(11) 0.24089(8)
O11 O 0.49827(8) -0.04468(10) 0.25519(7)
O12 O 0.62432(8) 0.05899(10) 0.19359(7)
N4 N 0.59360(9) -0.01410(11) 0.25385(8)
O13 O 0.66664(9) -0.09241(11) 0.49901(7)
C17 C 0.82810(11) 0.10975(14) 0.35843(9)
C18 C 0.83366(10) -0.08839(13) 0.23894(9)
H22 H 0.78690 -0.04520 0.18310
C19 C 0.67646(11) -0.07781(13) 0.33252(9)
O14 O 0.60514(9) 0.0984(1) 0.41955(7)
C20 C 0.70353(11) -0.28087(13) 0.22943(10)
H23 H 0.65930 -0.23610 0.17400
H24 H 0.69290 -0.38100 0.22240
C21 C 0.87530(12) 0.13454(14) 0.45259(10)
H25 H 0.88760 0.06030 0.49610
C22 C 0.79717(10) -0.03730(13) 0.33121(9)
H26 H 0.83990 -0.09390 0.38260
C23 C 0.86401(11) -0.29692(14) 0.14017(10)
H27 H 0.94150 -0.27500 0.14380
H28 H 0.82230 -0.25170 0.08460
H29 H 0.85380 -0.39620 0.13430
C24 C 0.84243(12) 0.35125(15) 0.32638(11)
H30 H 0.83150 0.42560 0.28290
C25 C 0.81331(12) 0.21902(14) 0.29492(10)
H31 H 0.78340 0.20360 0.23020
C26 C 0.60241(14) 0.31621(16) 0.49731(12)
H32 H 0.54790 0.34980 0.44510
H33 H 0.67560 0.33510 0.48310
H34 H 0.59280 0.36270 0.55640
C27 C 0.64660(11) -0.02667(14) 0.42717(10)
C28 C 0.66389(11) -0.23337(13) 0.32057(10)
H35 H 0.70660 -0.27990 0.37610
H36 H 0.58630 -0.25880 0.31800
C29 C 0.90453(12) 0.26653(16) 0.48344(11)
H37 H 0.93640 0.28210 0.54770
C30 C 0.88708(12) 0.37526(15) 0.42038(12)
H38 H 0.90560 0.46580 0.44150
C31 C 0.82400(11) -0.24689(13) 0.23027(10)
C32 C 0.58855(16) 0.16518(17) 0.50850(11)
H39 H 0.64230 0.13060 0.56200
H40 H 0.51450 0.14500 0.52220
#END
