
#######################################################################
#
#                 Cambridge Crystallographic Data Centre
#                                CCDC
#
#######################################################################
#
# If this CIF has been generated from an entry in the Cambridge
# Structural Database, then it will include bibliographic, chemical,
# crystal, experimental, refinement or atomic coordinate data resulting
# from the CCDC's data processing and validation procedures.
#
#######################################################################

data_CSD_CIF_COYLAF01
_audit_creation_date 2015-02-26
_audit_creation_method CSD-ConQuest-V1
_database_code_CSD COYLAF01
_database_code_depnum_ccdc_archive 'CCDC 963000'
_chemical_formula_sum 'C6 H6 N10 O13'
_chemical_formula_moiety
;
C6 H6 N10 O13
;
_journal_coden_Cambridge 1271
_journal_volume 39
_journal_year 2014
_journal_page_first 641
_journal_name_full 'Propellants,Explos.,Pyrotech. '
loop_
_publ_author_name
"D.Chavez"
"T.M.Klapotke"
"D.Parrish"
"D.G.Piercey"
"J.Stierstorfer"
_chemical_name_systematic
;
N,N'-bis(2,2,2-trinitroethyl)-1,2,5-oxadiazole-3,4-diamine
;
_cell_volume   1595.252
_exptl_crystal_colour 'colorless'
_exptl_crystal_density_diffrn 1.775
_exptl_special_details
;
delta polymorph

;
_exptl_crystal_description 'plate'
_diffrn_ambient_temperature 100
#These two values have been output from a single CSD field.
_refine_ls_R_factor_gt 0.0388
_refine_ls_wR_factor_gt 0.0388
_symmetry_cell_setting orthorhombic
_symmetry_space_group_name_H-M 'I b a 2'
_symmetry_Int_Tables_number 45
loop_
_symmetry_equiv_pos_site_id
_symmetry_equiv_pos_as_xyz
1 x,y,z
2 -x,-y,z
3 1/2+x,1/2-y,z
4 1/2-x,1/2+y,z
5 1/2+x,1/2+y,1/2+z
6 1/2-x,1/2-y,1/2+z
7 x,-y,1/2+z
8 -x,y,1/2+z
_cell_length_a 11.524(4)
_cell_length_b 12.259(4)
_cell_length_c 11.292(4)
_cell_angle_alpha 90
_cell_angle_beta 90
_cell_angle_gamma 90
_cell_formula_units_Z 4
loop_
_atom_type_symbol
_atom_type_radius_bond
C 0.68
H 0.23
N 0.68
O 0.68
loop_
_atom_site_label
_atom_site_type_symbol
_atom_site_fract_x
_atom_site_fract_y
_atom_site_fract_z
O1 O 0.00000 0.00000 -0.0231(4)
N1 N -0.0618(3) 0.0746(4) 0.0474(3)
C1 C -0.0382(3) 0.0458(4) 0.1553(4)
N2 N -0.0777(3) 0.1025(4) 0.2523(3)
H1 H -0.081(4) 0.060(4) 0.309(5)
C2 C -0.1627(3) 0.1880(4) 0.2352(4)
H2 H -0.24100 0.16010 0.25460
H3 H -0.16270 0.21130 0.15120
C3 C -0.1348(4) 0.2837(4) 0.3131(4)
N3 N -0.2026(3) 0.3851(5) 0.2755(4)
O2 O -0.3059(3) 0.3687(3) 0.2630(3)
O3 O -0.1515(3) 0.4702(4) 0.2634(4)
N4 N -0.1668(3) 0.2688(6) 0.4424(4)
O4 O -0.1793(3) 0.3513(5) 0.5009(3)
O5 O -0.1775(3) 0.1747(5) 0.4753(3)
N5 N -0.0059(3) 0.3110(4) 0.3073(4)
O6 O 0.0305(3) 0.3236(4) 0.2077(3)
O7 O 0.0480(3) 0.3146(3) 0.3993(3)
N1A N 0.0618(3) -0.0746(4) 0.0474(3)
C1A C 0.0382(3) -0.0458(4) 0.1553(4)
N2A N 0.0777(3) -0.1025(4) 0.2523(3)
H1A H 0.081(4) -0.060(4) 0.309(5)
C2A C 0.1627(3) -0.1880(4) 0.2352(4)
H2A H 0.24100 -0.16010 0.25460
H3A H 0.16270 -0.21130 0.15120
C3A C 0.1348(4) -0.2837(4) 0.3131(4)
N3A N 0.2026(3) -0.3851(5) 0.2755(4)
O2A O 0.3059(3) -0.3687(3) 0.2630(3)
O3A O 0.1515(3) -0.4702(4) 0.2634(4)
N4A N 0.1668(3) -0.2688(6) 0.4424(4)
O4A O 0.1793(3) -0.3513(5) 0.5009(3)
O5A O 0.1775(3) -0.1747(5) 0.4753(3)
N5A N 0.0059(3) -0.3110(4) 0.3073(4)
O6A O -0.0305(3) -0.3236(4) 0.2077(3)
O7A O -0.0480(3) -0.3146(3) 0.3993(3)
#END
