
#######################################################################
#
#                 Cambridge Crystallographic Data Centre
#                                CCDC
#
#######################################################################
#
# If this CIF has been generated from an entry in the Cambridge
# Structural Database, then it will include bibliographic, chemical,
# crystal, experimental, refinement or atomic coordinate data resulting
# from the CCDC's data processing and validation procedures.
#
#######################################################################

data_CSD_CIF_COYLAF
_audit_creation_date 2015-02-26
_audit_creation_method CSD-ConQuest-V1
_database_code_CSD COYLAF
_database_code_depnum_ccdc_archive 'CCDC 962999'
_chemical_formula_sum 'C6 H6 N10 O13'
_chemical_formula_moiety
;
C6 H6 N10 O13
;
_journal_coden_Cambridge 1271
_journal_volume 39
_journal_year 2014
_journal_page_first 641
_journal_name_full 'Propellants,Explos.,Pyrotech. '
loop_
_publ_author_name
"D.Chavez"
"T.M.Klapotke"
"D.Parrish"
"D.G.Piercey"
"J.Stierstorfer"
_chemical_name_systematic
;
N,N'-bis(2,2,2-Trinitroethyl)-1,2,5-oxadiazole-3,4-diamine
;
_cell_volume   3171.982
_exptl_crystal_colour 'colorless'
_exptl_crystal_density_diffrn 1.785
_exptl_special_details
;
beta polymorph

;
_exptl_crystal_description 'rod'
_diffrn_ambient_temperature 100
#These two values have been output from a single CSD field.
_refine_ls_R_factor_gt 0.0469
_refine_ls_wR_factor_gt 0.0469
_symmetry_cell_setting monoclinic
_symmetry_space_group_name_H-M 'C c'
_symmetry_Int_Tables_number 9
loop_
_symmetry_equiv_pos_site_id
_symmetry_equiv_pos_as_xyz
1 x,y,z
2 x,-y,1/2+z
3 1/2+x,1/2+y,z
4 1/2+x,1/2-y,1/2+z
_cell_length_a 16.872(3)
_cell_length_b 16.712(3)
_cell_length_c 11.342(2)
_cell_angle_alpha 90
_cell_angle_beta 97.320(3)
_cell_angle_gamma 90
_cell_formula_units_Z 8
loop_
_atom_type_symbol
_atom_type_radius_bond
C 0.68
H 0.23
N 0.68
O 0.68
loop_
_atom_site_label
_atom_site_type_symbol
_atom_site_fract_x
_atom_site_fract_y
_atom_site_fract_z
N1 N 0.7290(2) 0.34826(19) 0.9261(3)
O1 O 0.73086(18) 0.28718(17) 1.0119(2)
N2 N 0.7451(2) 0.21255(19) 0.9619(3)
C1 C 0.7518(2) 0.2280(2) 0.8513(3)
C2 C 0.7417(2) 0.3113(2) 0.8293(3)
N3 N 0.7702(2) 0.17209(19) 0.7698(3)
H1 H 0.744(2) 0.177(2) 0.6991(17)
C3 C 0.7717(3) 0.0885(2) 0.8051(3)
H2 H 0.71910 0.06370 0.77860
H3 H 0.78190 0.08450 0.89280
C4 C 0.8359(3) 0.0447(2) 0.7506(3)
N4 N 0.8525(3) -0.0363(2) 0.8071(3)
O2 O 0.9204(2) -0.0553(2) 0.8418(3)
O3 O 0.7926(2) -0.07605(18) 0.8107(3)
N5 N 0.8127(3) 0.0267(3) 0.6194(3)
O4 O 0.8471(3) -0.0296(2) 0.5790(3)
O5 O 0.7605(3) 0.0702(2) 0.5670(3)
N6 N 0.9121(2) 0.0936(2) 0.7604(4)
O6 O 0.9384(2) 0.1120(2) 0.8599(4)
O7 O 0.9358(3) 0.1124(2) 0.6661(4)
N7 N 0.7416(2) 0.34837(19) 0.7203(2)
H4 H 0.764(2) 0.325(2) 0.664(2)
C5 C 0.7353(3) 0.4345(2) 0.7134(3)
H5 H 0.78610 0.45750 0.69360
H6 H 0.72520 0.45630 0.79130
C6 C 0.6675(3) 0.4579(2) 0.6188(3)
N8 N 0.5943(2) 0.4057(2) 0.6292(3)
O8 O 0.5657(2) 0.4150(2) 0.7201(3)
O9 O 0.57367(18) 0.35790(18) 0.5513(3)
N9 N 0.6447(3) 0.5451(2) 0.6303(4)
O10 O 0.5792(3) 0.5636(3) 0.5986(6)
O11 O 0.6988(3) 0.58822(18) 0.6712(3)
N10 N 0.6887(2) 0.4484(2) 0.4927(3)
O12 O 0.7537(2) 0.42137(16) 0.4829(2)
O13 O 0.6392(2) 0.4713(2) 0.4134(3)
N11 N 0.8467(2) 0.25116(18) 1.4477(3)
O14 O 0.78494(17) 0.24708(16) 1.5194(2)
N12 N 0.7094(2) 0.24334(19) 1.4510(3)
C7 C 0.7249(2) 0.2439(2) 1.3414(3)
C8 C 0.8098(2) 0.2482(2) 1.3387(3)
N13 N 0.6685(2) 0.23826(19) 1.2434(3)
H7 H 0.684(2) 0.263(2) 1.181(2)
C9 C 0.5847(2) 0.2366(2) 1.2582(3)
H8 H 0.55790 0.28540 1.22340
H9 H 0.57850 0.23500 1.34380
C10 C 0.5468(2) 0.1631(2) 1.1966(3)
N14 N 0.4641(2) 0.1470(2) 1.2295(3)
O15 O 0.42176(18) 0.20619(17) 1.2289(2)
O16 O 0.4468(2) 0.07910(19) 1.2541(3)
N15 N 0.5336(2) 0.1717(3) 1.0610(3)
O17 O 0.4894(2) 0.1219(2) 1.0086(3)
O18 O 0.5671(2) 0.2262(2) 1.0188(3)
N16 N 0.5997(2) 0.09047(19) 1.2258(3)
O19 O 0.61355(18) 0.07567(16) 1.3306(2)
O20 O 0.62654(19) 0.05698(18) 1.1441(3)
N17 N 0.84673(19) 0.24995(19) 1.2384(3)
H10 H 0.818(2) 0.229(2) 1.176(2)
C11 C 0.9334(2) 0.2533(2) 1.2506(3)
H11 H 0.95440 0.20280 1.22090
H12 H 0.95480 0.25890 1.33560
C12 C 0.9612(2) 0.3233(2) 1.1813(3)
N18 N 0.9086(2) 0.39667(19) 1.1871(3)
O21 O 0.89476(19) 0.41440(17) 1.2864(2)
O22 O 0.88447(19) 0.43043(17) 1.0942(2)
N19 N 1.0464(2) 0.3448(2) 1.2261(3)
O23 O 1.0630(2) 0.41331(18) 1.2509(3)
O24 O 1.09153(18) 0.28701(18) 1.2343(3)
N20 N 0.9614(2) 0.3044(2) 1.0497(3)
O25 O 1.0114(2) 0.33820(18) 0.9986(2)
O26 O 0.91071(18) 0.25758(18) 1.0074(2)
#END
