
#######################################################################
#
#                 Cambridge Crystallographic Data Centre
#                                CCDC
#
#######################################################################
#
# If this CIF has been generated from an entry in the Cambridge
# Structural Database, then it will include bibliographic, chemical,
# crystal, experimental, refinement or atomic coordinate data resulting
# from the CCDC's data processing and validation procedures.
#
#######################################################################

data_CSD_CIF_COZCOK
_audit_creation_date 2009-11-04
_audit_creation_method CSD-ConQuest-V1
_database_code_CSD COZCOK
_database_code_depnum_ccdc_archive 'CCDC 711360'
_chemical_formula_sum 'C38 H45 N3 O11'
_chemical_formula_moiety
;
C38 H45 N3 O11
;
_journal_coden_Cambridge 177
_journal_volume 7
_journal_year 2009
_journal_page_first 1355
_journal_name_full 'Org.Biomol.Chem. '
loop_
_publ_author_name
"C.Ribes"
"E.Falomir"
"J.Murga"
"M.Carda"
"J.A.Marco"
_chemical_name_systematic
;
t-Butyl 
(4R)-4-((1R,2R,3S)-1,2-bis(benzyloxy)-3-((3,5-dinitrobenzoyl)oxy)-6-hepten-1-y
l)-2,2-dimethyl-1,3-oxazolidine-3-carboxylate
;
_chemical_melting_point 378.15
_cell_volume   1895.449
_exptl_crystal_colour 'colorless'
_exptl_crystal_density_diffrn 1.261
_exptl_special_details
;
Melting point range 378.15-379.15K

;
_exptl_crystal_description 'prism'
_exptl_crystal_preparation 'diethyl ether'
_diffrn_ambient_temperature 298
#These two values have been output from a single CSD field.
_refine_ls_R_factor_gt 0.0686
_refine_ls_wR_factor_gt 0.0686
_symmetry_cell_setting monoclinic
_symmetry_space_group_name_H-M 'P 21'
_symmetry_Int_Tables_number 4
loop_
_symmetry_equiv_pos_site_id
_symmetry_equiv_pos_as_xyz
1 x,y,z
2 -x,1/2+y,-z
_cell_length_a 8.3976(11)
_cell_length_b 22.631(3)
_cell_length_c 10.2340(14)
_cell_angle_alpha 90
_cell_angle_beta 102.952(4)
_cell_angle_gamma 90
_cell_formula_units_Z 2
loop_
_atom_type_symbol
_atom_type_radius_bond
C 0.68
H 0.23
N 0.68
O 0.68
loop_
_atom_site_label
_atom_site_type_symbol
_atom_site_fract_x
_atom_site_fract_y
_atom_site_fract_z
O1 O 0.9184(8) 0.2824(2) 0.5504(6)
N1 N 1.0957(7) 0.2251(2) 0.4747(6)
C1 C 0.9293(11) 0.2294(4) 0.6239(9)
H1 H 0.82140 0.21590 0.62950
H2 H 0.99440 0.23510 0.71410
O2 O 1.1698(7) 0.1497(2) 0.3572(5)
N2 N 1.3279(10) -0.1306(4) 0.4259(9)
C2 C 1.0092(9) 0.1852(3) 0.5498(8)
H3 H 0.92430 0.16370 0.48610
O3 O 1.2535(6) 0.2441(2) 0.3324(5)
C3 C 1.1234(9) 0.1402(3) 0.6380(7)
H4 H 1.18010 0.11750 0.58070
N3 N 0.9242(12) -0.0960(5) 0.0101(9)
O4 O 1.1507(6) 0.0578(2) 0.7810(5)
C4 C 1.0330(9) 0.0980(3) 0.7089(8)
H5 H 0.98640 0.12040 0.77340
O5 O 1.2417(6) 0.1706(2) 0.7359(5)
C5 C 0.8980(9) 0.0624(3) 0.6208(7)
H6 H 0.81600 0.08910 0.56850
O6 O 0.9764(6) 0.0292(2) 0.5317(5)
C6 C 0.8178(11) 0.0205(4) 0.6992(9)
H7 H 0.77900 0.04280 0.76680
H8 H 0.89980 -0.00700 0.74570
O7 O 0.8075(7) 0.0589(3) 0.3419(6)
C7 C 0.6742(11) -0.0152(4) 0.6174(9)
H9 H 0.70260 -0.02900 0.53590
H10 H 0.65660 -0.04970 0.66880
O8 O 1.3779(8) -0.1187(3) 0.5451(8)
C8 C 0.5230(15) 0.0182(4) 0.5821(13)
H11 H 0.47260 0.02440 0.65310
O9 O 1.3901(8) -0.1677(3) 0.3658(7)
C9 C 0.4508(16) 0.0397(4) 0.4770(13)
H12 H 0.49250 0.03570 0.40060
H13 H 0.35360 0.06010 0.47270
C10 C 1.0499(11) 0.2878(4) 0.4866(8)
O10 O 0.8205(11) -0.0652(3) -0.0553(7)
O11 O 0.9729(10) -0.1427(4) -0.0323(8)
C11 C 1.1863(11) 0.3212(4) 0.5735(10)
H14 H 1.16930 0.36280 0.55820
H15 H 1.28780 0.30980 0.55240
H16 H 1.18990 0.31250 0.66590
C12 C 0.9824(12) 0.3173(4) 0.3557(9)
H17 H 0.91080 0.29050 0.29770
H18 H 1.07050 0.32840 0.31500
H19 H 0.92260 0.35190 0.37020
C13 C 1.1710(11) 0.2026(4) 0.3847(8)
C14 C 1.3595(10) 0.2296(3) 0.2405(9)
C15 C 1.5015(13) 0.1897(6) 0.3132(12)
H20 H 1.57180 0.21180 0.38310
H21 H 1.56260 0.17620 0.25020
H22 H 1.45800 0.15630 0.35160
C16 C 1.2570(15) 0.2029(5) 0.1137(11)
H23 H 1.22580 0.16340 0.13180
H24 H 1.31930 0.20180 0.04570
H25 H 1.16080 0.22640 0.08310
C17 C 1.4171(13) 0.2898(4) 0.2058(10)
H26 H 1.32630 0.31660 0.18770
H27 H 1.46240 0.28660 0.12790
H28 H 1.49910 0.30430 0.27980
C18 C 1.1744(10) 0.0566(3) 0.9233(7)
H29 H 1.07010 0.05290 0.94840
H30 H 1.22640 0.09290 0.96160
C19 C 1.2814(10) 0.0043(3) 0.9742(8)
C20 C 1.3760(11) 0.0047(4) 1.1017(9)
H31 H 1.37630 0.03790 1.15560
C21 C 1.4737(11) -0.0448(5) 1.1529(11)
H32 H 1.53630 -0.04490 1.24020
C22 C 1.4737(14) -0.0926(6) 1.0711(14)
H33 H 1.54000 -0.12490 1.10180
C23 C 1.3789(16) -0.0932(5) 0.9470(12)
H34 H 1.37640 -0.12640 0.89310
C24 C 1.2857(13) -0.0449(4) 0.8992(10)
H35 H 1.22280 -0.04580 0.81200
C25 C 1.3994(10) 0.1780(4) 0.7030(8)
H36 H 1.40290 0.21570 0.65840
H37 H 1.41620 0.14690 0.64230
C26 C 1.5312(9) 0.1758(4) 0.8279(7)
C27 C 1.5643(12) 0.1238(4) 0.9028(9)
H38 H 1.50110 0.09040 0.87510
C28 C 1.6882(16) 0.1207(6) 1.0165(11)
H39 H 1.70660 0.08540 1.06410
C29 C 1.7816(13) 0.1671(9) 1.0594(12)
H40 H 1.86640 0.16420 1.13510
C30 C 1.7523(15) 0.2192(7) 0.9915(13)
H41 H 1.81660 0.25200 1.02260
C31 C 1.6275(12) 0.2244(4) 0.8760(9)
H42 H 1.60900 0.26040 0.83130
C32 C 0.9138(10) 0.0277(3) 0.4007(8)
C33 C 0.9942(9) -0.0196(3) 0.3380(7)
C34 C 0.931(1) -0.0345(3) 0.2028(8)
H43 H 0.84410 -0.01340 0.15140
C35 C 0.9984(12) -0.0801(4) 0.1486(8)
C36 C 1.1277(11) -0.1128(4) 0.2174(10)
H44 H 1.17140 -0.14390 0.17750
C37 C 1.1886(10) -0.0972(3) 0.3471(10)
C38 C 1.1242(9) -0.0511(3) 0.4095(8)
H45 H 1.16900 -0.04180 0.49870
#END
