
#######################################################################
#
#                 Cambridge Crystallographic Data Centre
#                                CCDC
#
#######################################################################
#
# If this CIF has been generated from an entry in the Cambridge
# Structural Database, then it will include bibliographic, chemical,
# crystal, experimental, refinement or atomic coordinate data resulting
# from the CCDC's data processing and validation procedures.
#
#######################################################################

data_CSD_CIF_COZFOM
_audit_creation_date 1985-09-20
_audit_creation_method CSD-ConQuest-V1
_database_code_CSD COZFOM
_chemical_formula_sum 'C24 H12 N2 O8'
_chemical_formula_moiety
;
C24 H12 N2 O8
;
_journal_coeditor_code "IUCr A24582"
_journal_coden_Cambridge 591
_journal_volume 41
_journal_year 1985
_journal_page_first 298
_journal_name_full 'Acta Crystallogr.,Sect.C:Cryst.Struct.Commun. '
loop_
_publ_author_name
"J.W.Bats"
"H.-J.Teuber"
_chemical_name_systematic
;
Diphthalimide phthalate
;
_chemical_name_common
;
bis(1,3-Dioxo-2H-isoindol-2-yl)-phthalate
;
_chemical_melting_point 497
_cell_volume   2002.193
_exptl_crystal_colour 'colorless'
_exptl_crystal_density_diffrn 1.514
_exptl_special_details
;
Melting point range 497-498K

;
_diffrn_ambient_temperature ?
_diffrn_special_details
;
The study was carried out at room temperature,in the range 283-303K

;
#These two values have been output from a single CSD field.
_refine_ls_R_factor_gt 0.04
_refine_ls_wR_factor_gt 0.04
_symmetry_cell_setting triclinic
_symmetry_space_group_name_H-M 'P -1'
_symmetry_Int_Tables_number 2
loop_
_symmetry_equiv_pos_site_id
_symmetry_equiv_pos_as_xyz
1 x,y,z
2 -x,-y,-z
_cell_length_a 8.025(2)
_cell_length_b 12.910(1)
_cell_length_c 20.589(2)
_cell_angle_alpha 73.90(1)
_cell_angle_beta 88.72(1)
_cell_angle_gamma 77.87(1)
_cell_formula_units_Z 4
loop_
_atom_type_symbol
_atom_type_radius_bond
C 0.68
H 0.23
N 0.68
O 0.68
loop_
_atom_site_label
_atom_site_type_symbol
_atom_site_fract_x
_atom_site_fract_y
_atom_site_fract_z
O1 O 0.2460(2) 0.1933(1) 0.0940(1)
O2 O 0.4819(2) 0.2448(1) 0.04903(9)
O3 O 0.1034(2) 0.0008(2) 0.07607(8)
O4 O 0.1892(2) -0.0445(1) 0.18446(7)
O5 O 0.4553(2) 0.3511(1) 0.15370(9)
O6 O 0.2948(3) 0.3965(2) -0.0649(1)
O7 O -0.0793(2) 0.1421(1) 0.17460(9)
O8 O 0.0513(3) -0.2336(2) 0.2389(1)
O9 O 0.2932(2) 0.7013(1) 0.40053(9)
O10 O 0.0486(2) 0.7883(1) 0.43438(9)
O11 O 0.4172(2) 0.4684(2) 0.41002(9)
O12 O 0.3039(2) 0.5050(1) 0.30460(8)
O13 O 0.0807(2) 0.9921(1) 0.34244(8)
O14 O 0.1804(3) 0.7798(1) 0.56098(9)
O15 O 0.5282(3) 0.6419(1) 0.2431(1)
O16 O 0.4815(2) 0.2835(1) 0.32473(8)
N1 N 0.3969(3) 0.3516(3) 0.0447(1)
N2 N 0.0192(2) -0.0460(2) 0.20041(9)
N3 N 0.1384(3) 0.8622(1) 0.4464(1)
N4 N 0.4693(2) 0.4696(2) 0.2861(1)
C1 C 0.4816(3) 0.0550(2) 0.0814(1)
C2 C 0.3862(3) 0.1667(2) 0.0765(1)
C3 C 0.6523(3) 0.0339(2) 0.0651(1)
C4 C 0.7405(3) -0.0721(2) 0.0730(1)
C5 C 0.6640(3) -0.1595(2) 0.0980(1)
C6 C 0.4925(3) -0.1398(2) 0.1142(1)
C7 C 0.4017(3) -0.0339(2) 0.1053(1)
C8 C 0.2147(3) -0.0204(2) 0.1172(1)
C9 C 0.3924(3) 0.3980(2) 0.0983(1)
C10 C 0.2957(3) 0.5115(2) 0.0700(1)
C11 C 0.2457(3) 0.5253(2) 0.0040(1)
C12 C 0.3084(3) 0.4216(2) -0.0138(1)
C13 C -0.0989(3) 0.0506(2) 0.1993(1)
C14 C -0.2469(3) 0.0101(2) 0.2329(1)
C15 C -0.2075(3) -0.1033(2) 0.2517(1)
C16 C -0.0316(3) -0.1431(2) 0.2320(1)
C17 C 0.2550(3) 0.5967(2) 0.0994(1)
C18 C 0.1621(3) 0.6964(2) 0.0609(2)
C19 C 0.1118(3) 0.7099(2) -0.0045(2)
C20 C 0.1528(4) 0.6251(2) -0.0349(1)
C21 C -0.4043(3) 0.0688(2) 0.2438(1)
C22 C -0.5230(3) 0.0083(2) 0.2743(1)
C23 C -0.4851(3) -0.1044(2) 0.2923(1)
C24 C -0.3262(3) -0.1637(2) 0.2817(1)
C25 C 0.1482(3) 0.7029(2) 0.4135(1)
C26 C 0.0452(3) 0.6223(2) 0.4107(1)
C27 C -0.1237(3) 0.6373(2) 0.4299(1)
C28 C -0.2228(3) 0.5630(2) 0.4275(1)
C29 C -0.1555(3) 0.4727(2) 0.4068(1)
C30 C 0.0125(3) 0.4556(2) 0.3872(1)
C31 C 0.1131(3) 0.5295(2) 0.3893(1)
C32 C 0.2964(3) 0.5002(2) 0.3723(1)
C33 C 0.1336(3) 0.9646(2) 0.4002(1)
C34 C 0.2081(3) 1.0257(2) 0.4393(1)
C35 C 0.2357(3) 0.9617(2) 0.5058(1)
C36 C 0.1845(3) 0.8561(2) 0.5125(1)
C37 C 0.5720(3) 0.5435(2) 0.2565(1)
C38 C 0.7333(3) 0.4707(2) 0.2475(1)
C39 C 0.7207(3) 0.3630(2) 0.2732(1)
C40 C 0.5475(3) 0.3592(2) 0.2988(1)
C41 C 0.2495(3) 1.1274(2) 0.4186(1)
C42 C 0.3201(3) 1.1631(2) 0.4672(1)
C43 C 0.3459(3) 1.0997(2) 0.5335(1)
C44 C 0.3040(3) 0.9975(2) 0.5542(1)
C45 C 0.8833(3) 0.4986(2) 0.2205(1)
C46 C 1.0181(3) 0.4123(2) 0.2206(1)
C47 C 1.0065(3) 0.3046(2) 0.2460(1)
C48 C 0.8561(3) 0.2774(2) 0.2736(1)
H1 H 0.704(3) 0.096(2) 0.049(1)
H2 H 0.853(3) -0.087(2) 0.062(1)
H3 H 0.727(3) -0.237(2) 0.106(1)
H4 H 0.445(3) -0.202(2) 0.132(1)
H5 H 0.290(3) 0.587(2) 0.144(1)
H6 H 0.130(3) 0.759(2) 0.082(1)
H7 H 0.045(3) 0.780(2) -0.029(1)
H8 H 0.127(3) 0.627(2) -0.080(1)
H9 H -0.431(3) 0.149(2) 0.230(1)
H10 H -0.637(3) 0.048(2) 0.282(1)
H11 H -0.566(3) -0.148(2) 0.314(1)
H12 H -0.292(3) -0.241(2) 0.290(1)
H13 H -0.167(3) 0.700(2) 0.445(1)
H14 H -0.336(3) 0.576(2) 0.442(1)
H15 H -0.220(3) 0.417(2) 0.407(1)
H16 H 0.063(3) 0.393(2) 0.373(1)
H17 H 0.231(3) 1.169(2) 0.372(1)
H18 H 0.353(3) 1.235(2) 0.452(1)
H19 H 0.387(3) 1.127(2) 0.567(1)
H20 H 0.319(3) 0.951(2) 0.598(1)
H21 H 0.880(3) 0.576(2) 0.205(1)
H22 H 1.118(3) 0.430(2) 0.201(1)
H23 H 1.109(3) 0.241(2) 0.244(1)
H24 H 0.841(3) 0.199(2) 0.292(1)
#END
