
#######################################################################
#
#                 Cambridge Crystallographic Data Centre
#                                CCDC
#
#######################################################################
#
# If this CIF has been generated from an entry in the Cambridge
# Structural Database, then it will include bibliographic, chemical,
# crystal, experimental, refinement or atomic coordinate data resulting
# from the CCDC's data processing and validation procedures.
#
#######################################################################

data_CSD_CIF_COZQIT
_audit_creation_date 2015-02-27
_audit_creation_method CSD-ConQuest-V1
_database_code_CSD COZQIT
_database_code_depnum_ccdc_archive 'CCDC 1000110'
_chemical_formula_sum 'C22 H18 N2 O3'
_chemical_formula_moiety
;
C22 H18 N2 O3
;
_journal_coden_Cambridge 1366
_journal_volume 356
_journal_year 2014
_journal_page_first 3347
_journal_name_full 'Adv.Synth.Catal. '
loop_
_publ_author_name
"Yu-Yang Xie"
"Ying-Chun Wang"
"Hong-En Qu"
"Xian-Chun Tan"
"Heng-Shan Wang"
"Ying-Ming Pan"
_chemical_name_systematic
;
3-(benzylamino)-3-(4-nitrophenyl)-1-phenylprop-2-en-1-one
;
_cell_volume    909.961
_exptl_crystal_density_diffrn 1.308
_diffrn_ambient_temperature 296
#These two values have been output from a single CSD field.
_refine_ls_R_factor_gt 0.0501
_refine_ls_wR_factor_gt 0.0501
_symmetry_cell_setting triclinic
_symmetry_space_group_name_H-M 'P -1'
_symmetry_Int_Tables_number 2
loop_
_symmetry_equiv_pos_site_id
_symmetry_equiv_pos_as_xyz
1 x,y,z
2 -x,-y,-z
_cell_length_a 9.464(2)
_cell_length_b 10.023(2)
_cell_length_c 10.326(2)
_cell_angle_alpha 86.468(4)
_cell_angle_beta 68.571(4)
_cell_angle_gamma 89.483(4)
_cell_formula_units_Z 2
loop_
_atom_type_symbol
_atom_type_radius_bond
C 0.68
H 0.23
N 0.68
O 0.68
loop_
_atom_site_label
_atom_site_type_symbol
_atom_site_fract_x
_atom_site_fract_y
_atom_site_fract_z
O1 O 0.35840(15) 0.68722(13) 0.57583(12)
N1 N 0.20914(18) 0.44985(16) 0.65550(15)
H1 H 0.23000 0.52460 0.68170
C1 C 0.24567(17) 0.44113(17) 0.51852(17)
C2 C 0.46023(19) 0.76303(17) 0.33724(18)
C3 C 0.19385(18) 0.32271(16) 0.46571(17)
C4 C 0.37834(18) 0.66121(17) 0.45365(17)
C5 C 0.32626(19) 0.53971(17) 0.42066(17)
H2 H 0.34790 0.52580 0.32720
C6 C 0.1379(2) 0.34671(19) 0.76513(18)
H3 H 0.20270 0.32980 0.81840
H4 H 0.13100 0.26480 0.72230
C7 C 0.0398(2) 0.29762(18) 0.4989(2)
H5 H -0.03160 0.34910 0.56240
C8 C 0.30007(19) 0.24231(18) 0.37441(17)
H6 H 0.40310 0.25850 0.35240
C9 C 0.5325(2) 0.87027(19) 0.3673(2)
H7 H 0.52670 0.87860 0.45830
C10 C 0.1007(2) 0.11963(18) 0.3478(2)
C11 C 0.2542(2) 0.13890(19) 0.31620(18)
H8 H 0.32490 0.08350 0.25710
O2 O 0.1474(3) -0.0620(2) 0.2106(2)
N2 N 0.0520(3) 0.0119(2) 0.2823(2)
C12 C -0.0187(2) 0.38040(17) 0.86403(16)
C13 C 0.6128(2) 0.9647(2) 0.2639(3)
H9 H 0.66090 1.03580 0.28570
C14 C 0.4665(3) 0.7553(2) 0.2021(2)
H10 H 0.41600 0.68620 0.18020
C15 C -0.0856(3) 0.2975(2) 0.9835(2)
H11 H -0.03400 0.22290 1.00010
C16 C -0.0990(2) 0.4885(2) 0.8426(2)
H12 H -0.05640 0.54530 0.76320
C17 C -0.0077(2) 0.19678(19) 0.4382(2)
H13 H -0.11040 0.18140 0.45790
O3 O -0.0828(3) -0.0058(2) 0.3122(3)
C18 C 0.6220(3) 0.9540(2) 0.1299(3)
H14 H 0.67800 1.01650 0.05990
C19 C 0.5479(3) 0.8505(2) 0.0991(2)
H15 H 0.55230 0.84410 0.00820
C20 C -0.3065(3) 0.4329(3) 1.0543(3)
H16 H -0.40280 0.45050 1.11770
C21 C -0.2426(3) 0.5149(3) 0.9372(2)
H17 H -0.29530 0.58870 0.92050
C22 C -0.2285(3) 0.3245(3) 1.0783(2)
H18 H -0.27150 0.26880 1.15850
#END
