
#######################################################################
#
#                 Cambridge Crystallographic Data Centre
#                                CCDC
#
#######################################################################
#
# If this CIF has been generated from an entry in the Cambridge
# Structural Database, then it will include bibliographic, chemical,
# crystal, experimental, refinement or atomic coordinate data resulting
# from the CCDC's data processing and validation procedures.
#
#######################################################################

data_CSD_CIF_COZYIB
_audit_creation_date 2015-02-27
_audit_creation_method CSD-ConQuest-V1
_database_code_CSD COZYIB
_database_code_depnum_ccdc_archive 'CCDC 1021665'
_chemical_formula_sum 'C21 H22 N2 O3'
_chemical_formula_moiety
;
C21 H22 N2 O3
;
_journal_coden_Cambridge 1336
_journal_volume 16
_journal_year 2014
_journal_page_first 6012
_journal_name_full 'Org.Lett. '
loop_
_publ_author_name
"M.Blumel"
"Pankaj Chauhan"
"R.Hahn"
"G.Raabe"
"D.Enders"
_chemical_name_systematic
;
1-(1,2-dimethyl-5-nitro-4,6-diphenyl-1,4,5,6-tetrahydropyridin-3-yl)ethanone
;
_cell_volume   1774.113
_exptl_crystal_colour 'colorless'
_exptl_crystal_density_diffrn 1.312
_exptl_special_details
;
Heat-sensitive, Light-sensitive, Photo-sensitive

;
_exptl_crystal_description 'irregular'
_diffrn_ambient_temperature 100
#These two values have been output from a single CSD field.
_refine_ls_R_factor_gt 0.03
_refine_ls_wR_factor_gt 0.03
_symmetry_cell_setting orthorhombic
_symmetry_space_group_name_H-M 'P 21 21 21'
_symmetry_Int_Tables_number 19
loop_
_symmetry_equiv_pos_site_id
_symmetry_equiv_pos_as_xyz
1 x,y,z
2 1/2-x,-y,1/2+z
3 1/2+x,1/2-y,-z
4 -x,1/2+y,1/2-z
_cell_length_a 7.7632(4)
_cell_length_b 8.8311(4)
_cell_length_c 25.8777(13)
_cell_angle_alpha 90
_cell_angle_beta 90
_cell_angle_gamma 90
_cell_formula_units_Z 4
loop_
_atom_type_symbol
_atom_type_radius_bond
C 0.68
H 0.23
N 0.68
O 0.68
loop_
_atom_site_label
_atom_site_type_symbol
_atom_site_fract_x
_atom_site_fract_y
_atom_site_fract_z
C1 C 0.23738(19) 0.15849(16) 0.67484(6)
C2 C 0.4535(2) 0.12764(16) 0.74061(6)
C3 C 0.5544(2) 0.23579(17) 0.71635(5)
C4 C 0.33680(18) 0.26926(15) 0.65023(5)
C5 C 0.20278(18) 0.59769(16) 0.63875(6)
C6 C -0.01030(18) 0.76023(16) 0.68812(6)
C7 C 0.27247(17) 0.34046(17) 0.59995(5)
C8 C 0.03593(19) 0.81357(16) 0.59803(6)
C9 C 0.50553(19) 0.32333(17) 0.53031(5)
C10 C -0.0816(2) 0.93152(17) 0.60080(6)
C11 C 0.5024(2) 0.15334(19) 0.53762(7)
C12 C 0.2944(2) 0.08944(17) 0.71999(6)
C13 C 0.13431(18) 0.46407(16) 0.60805(6)
C14 C -0.12869(19) 0.87800(17) 0.69068(6)
C15 C 0.4342(2) 0.78941(18) 0.63502(7)
C16 C 0.49598(19) 0.30605(15) 0.67159(6)
C17 C 0.41191(18) 0.41634(17) 0.56777(5)
C18 C 0.6032(2) 0.6463(2) 0.55436(7)
C19 C 0.45246(18) 0.56467(16) 0.57828(5)
C20 C -0.16459(19) 0.96415(18) 0.64711(6)
C21 C 0.07250(18) 0.72633(15) 0.64172(5)
N1 N -0.02357(15) 0.39883(13) 0.63351(5)
N2 N 0.36309(15) 0.64896(13) 0.61409(4)
O1 O -0.12911(13) 0.33811(14) 0.60497(5)
O2 O -0.03697(14) 0.40517(12) 0.68087(4)
O3 O 0.58798(15) 0.37479(13) 0.49335(4)
H1 H 0.547(3) 0.775(2) 0.6468(7)
H2 H 0.567(2) 0.377(2) 0.6553(7)
H3 H 0.014(2) 0.6980(18) 0.7203(7)
H4 H 0.229(2) 0.5612(17) 0.6739(6)
H5 H 0.666(2) 0.262(2) 0.7294(7)
H6 H 0.596(3) 0.106(2) 0.5177(8)
H7 H 0.091(2) 0.4979(19) 0.5741(6)
H8 H 0.125(2) 0.1282(18) 0.6603(6)
H9 H 0.493(2) 0.074(2) 0.7714(7)
H10 H 0.096(2) 0.792(2) 0.5650(7)
H11 H -0.102(2) 0.995(2) 0.5696(7)
H12 H 0.223(2) 0.013(2) 0.7354(6)
H13 H -0.180(3) 0.902(2) 0.7237(8)
H14 H -0.243(3) 1.046(2) 0.6486(6)
H15 H 0.564(3) 0.734(2) 0.5400(7)
H16 H 0.506(3) 0.125(2) 0.5747(8)
H17 H 0.366(3) 0.820(2) 0.6655(8)
H18 H 0.660(3) 0.587(3) 0.5285(8)
H19 H 0.396(3) 0.112(3) 0.5248(8)
H20 H 0.2192(19) 0.2644(18) 0.5800(6)
H21 H 0.435(3) 0.866(3) 0.6114(9)
H22 H 0.689(3) 0.671(3) 0.5832(9)
#END
