
#######################################################################
#
#                 Cambridge Crystallographic Data Centre
#                                CCDC
#
#######################################################################
#
# If this CIF has been generated from an entry in the Cambridge
# Structural Database, then it will include bibliographic, chemical,
# crystal, experimental, refinement or atomic coordinate data resulting
# from the CCDC's data processing and validation procedures.
#
#######################################################################

data_CSD_CIF_CPAZOX
_audit_creation_date 1972-07-27
_audit_creation_method CSD-ConQuest-V1
_database_code_CSD CPAZOX
_chemical_formula_sum 'C16 H28 N4 O2'
_chemical_formula_moiety
;
C16 H28 N4 O2
;
_journal_coeditor_code "IUCr A08888"
_journal_coden_Cambridge 107
_journal_volume 28
_journal_year 1972
_journal_page_first 618
_journal_name_full 'Acta Crystallogr.,Sect.B:Struct.Crystallogr.Cryst.Chem. '
loop_
_publ_author_name
"B.Chion"
"A.Capiomont"
"J.Lajzerowicz"
_chemical_name_systematic
;
2,2,5,5-Tetramethyl-1-azacyclopentanone-3-azine-3-oxyl biradical
;
_cell_volume    904.841
_exptl_special_details
;
THE Y COORDINATE OF C1 HAS BEEN CHANGED TO +0.0635, GIVEN VALUE -0.0635

;
_diffrn_ambient_temperature ?
_diffrn_special_details
;
The study was carried out at room temperature,in the range 283-303K

;
#These two values have been output from a single CSD field.
_refine_ls_R_factor_gt 0.11
_refine_ls_wR_factor_gt 0.11
_symmetry_cell_setting monoclinic
_symmetry_space_group_name_H-M 'P 21/c'
_symmetry_Int_Tables_number 14
loop_
_symmetry_equiv_pos_site_id
_symmetry_equiv_pos_as_xyz
1 x,y,z
2 -x,1/2+y,1/2-z
3 -x,-y,-z
4 x,-1/2-y,-1/2+z
_cell_length_a 5.865(7)
_cell_length_b 15.72(3)
_cell_length_c 10.953(15)
_cell_angle_alpha 90
_cell_angle_beta 116.36
_cell_angle_gamma 90
_cell_formula_units_Z 2
loop_
_atom_type_symbol
_atom_type_radius_bond
C 0.68
N 0.68
O 0.68
loop_
_atom_site_label
_atom_site_type_symbol
_atom_site_fract_x
_atom_site_fract_y
_atom_site_fract_z
C1 C -0.05580 0.06350 0.10440
C2 C -0.08970 0.06400 0.23440
C3 C -0.15460 0.21080 0.12880
C4 C -0.09730 0.15040 0.03910
C5 C -0.30500 0.00840 0.22630
C6 C 0.16360 0.04310 0.36080
C7 C -0.41700 0.25200 0.05420
C8 C 0.04590 0.27890 0.18710
N1 N -0.01020 -0.00590 0.06120
N2 N -0.15160 0.15480 0.23880
O1 O -0.19900 0.18340 0.33330
N1B N 0.01020 0.00590 -0.06120
C1B C 0.05580 -0.06350 -0.10440
C2B C 0.08970 -0.06400 -0.23440
C4B C 0.09730 -0.15040 -0.03910
C5B C 0.30500 -0.00840 -0.22630
C6B C -0.16360 -0.04310 -0.36080
N2B N 0.15160 -0.15480 -0.23880
C3B C 0.15460 -0.21080 -0.12880
O1B O 0.19900 -0.18340 -0.33330
C7B C 0.41700 -0.25200 -0.05420
C8B C -0.04590 -0.27890 -0.18710
#END
