
#######################################################################
#
#                 Cambridge Crystallographic Data Centre
#                                CCDC
#
#######################################################################
#
# If this CIF has been generated from an entry in the Cambridge
# Structural Database, then it will include bibliographic, chemical,
# crystal, experimental, refinement or atomic coordinate data resulting
# from the CCDC's data processing and validation procedures.
#
#######################################################################

data_CSD_CIF_CPGMAZ
_audit_creation_date 1976-05-03
_audit_creation_method CSD-ConQuest-V1
_database_code_CSD CPGMAZ
_chemical_formula_sum 'C12 H10 N2 O3'
_chemical_formula_moiety
;
C12 H10 N2 O3
;
_journal_coeditor_code "IUCr A12552"
_journal_coden_Cambridge 107
_journal_volume 31
_journal_year 1975
_journal_page_first 2885
_journal_name_full 'Acta Crystallogr.,Sect.B:Struct.Crystallogr.Cryst.Chem. '
loop_
_publ_author_name
"Y.Delugeard"
"M.Vaultier"
"J.Meinnel"
_chemical_name_systematic
;
3-Cyano-2-phenyl-glyoxyl-N-methoxyaziridine
;
_cell_volume   2348.335
_exptl_crystal_density_diffrn 1.3
_diffrn_ambient_temperature ?
_diffrn_special_details
;
The study was carried out at room temperature,in the range 283-303K

;
#These two values have been output from a single CSD field.
_refine_ls_R_factor_gt 0.063
_refine_ls_wR_factor_gt 0.063
_symmetry_cell_setting orthorhombic
_symmetry_space_group_name_H-M 'P b c a'
_symmetry_Int_Tables_number 61
loop_
_symmetry_equiv_pos_site_id
_symmetry_equiv_pos_as_xyz
1 x,y,z
2 1/2-x,1/2+y,z
3 x,1/2-y,1/2+z
4 1/2-x,-y,1/2+z
5 -x,-y,-z
6 -1/2+x,-1/2-y,-z
7 -x,-1/2+y,-1/2-z
8 -1/2+x,y,-1/2-z
_cell_length_a 15.70(2)
_cell_length_b 6.45(1)
_cell_length_c 23.19(2)
_cell_angle_alpha 90
_cell_angle_beta 90
_cell_angle_gamma 90
_cell_formula_units_Z 8
loop_
_atom_type_symbol
_atom_type_radius_bond
C 0.68
H 0.23
N 0.68
O 0.68
loop_
_atom_site_label
_atom_site_type_symbol
_atom_site_fract_x
_atom_site_fract_y
_atom_site_fract_z
C1 C -0.41772 -0.30269 0.16911
C2 C -0.36620 -0.95528 -0.02712
C3 C -0.43291 -1.05770 -0.05971
C4 C -0.33302 -0.54246 -0.13013
C5 C -0.41727 -0.27983 0.22937
C6 C -0.37977 -0.42020 0.26300
C7 C -0.34406 -0.58994 0.23823
C8 C -0.34192 -0.61978 0.17786
C9 C -0.37958 -0.47269 0.14374
C10 C -0.38526 -0.49090 0.07991
C11 C -0.34113 -0.67381 0.04714
C12 C -0.38271 -0.73648 -0.00787
H1 H -0.44410 -0.21190 0.15060
H2 H -0.32950 -1.04140 -0.00670
H3 H -0.35450 -0.51600 -0.17260
H4 H -0.27100 -0.53850 -0.13860
H5 H -0.34040 -0.45440 -0.10590
H6 H -0.43600 -0.15150 0.23740
H7 H -0.38440 -0.42340 0.30350
H8 H -0.30960 -0.69670 0.25700
H9 H -0.32600 -0.72870 0.16270
H10 H -0.42070 -0.64790 -0.02260
N1 N -0.31956 -0.78282 -0.05525
N2 N -0.48427 -1.14790 -0.08468
O1 O -0.42149 -0.36527 0.04877
O2 O -0.27445 -0.74601 0.06362
O3 O -0.36048 -0.74081 -0.11015
#END
