
#######################################################################
#
#                 Cambridge Crystallographic Data Centre
#                                CCDC
#
#######################################################################
#
# If this CIF has been generated from an entry in the Cambridge
# Structural Database, then it will include bibliographic, chemical,
# crystal, experimental, refinement or atomic coordinate data resulting
# from the CCDC's data processing and validation procedures.
#
#######################################################################

data_CSD_CIF_CTETOX
_audit_creation_date 1980-03-07
_audit_creation_method CSD-ConQuest-V1
_database_code_CSD CTETOX
_database_code_depnum_ccdc_archive 'CCDC 1131913'
_chemical_formula_sum 'C14 H27 N1 O1'
_chemical_formula_moiety
;
C14 H27 N1 O1
;
_journal_coden_Cambridge 3
_journal_volume 33
_journal_year 1979
_journal_page_first 503
_journal_name_full 'Acta Chem.Scand. '
loop_
_publ_author_name
"P.Groth"
_chemical_name_systematic
;
Cyclotetradecane-oxime
;
_cell_volume    675.576
_exptl_crystal_density_diffrn 1.11
_diffrn_ambient_temperature 113.15
#These two values have been output from a single CSD field.
_refine_ls_R_factor_gt 0.039
_refine_ls_wR_factor_gt 0.039
_symmetry_cell_setting triclinic
_symmetry_space_group_name_H-M 'P -1'
_symmetry_Int_Tables_number 2
loop_
_symmetry_equiv_pos_site_id
_symmetry_equiv_pos_as_xyz
1 x,y,z
2 -x,-y,-z
_cell_length_a 5.176(1)
_cell_length_b 8.728(1)
_cell_length_c 15.189(2)
_cell_angle_alpha 99.89(1)
_cell_angle_beta 90.81(1)
_cell_angle_gamma 91.65(1)
_cell_formula_units_Z 2
loop_
_atom_type_symbol
_atom_type_radius_bond
C 0.68
H 0.23
N 0.68
O 0.68
loop_
_atom_site_label
_atom_site_type_symbol
_atom_site_fract_x
_atom_site_fract_y
_atom_site_fract_z
O1 O 0.04077 -0.17792 0.01869
N1 N 0.19025 -0.11005 -0.04295
C1 C 0.36353 -0.19867 -0.08086
C2 C 0.41506 -0.36038 -0.06420
C3 C 0.37095 -0.48516 -0.14791
C4 C 0.09205 -0.49617 -0.18371
C5 C 0.05256 -0.60045 -0.27519
C6 C 0.20238 -0.54751 -0.35167
C7 C 0.14361 -0.38491 -0.36751
C8 C 0.29696 -0.33503 -0.44323
C9 C 0.25626 -0.16921 -0.45815
C10 C 0.30308 -0.04278 -0.37575
C11 C 0.57610 -0.03834 -0.33549
C12 C 0.60979 0.07068 -0.24520
C13 C 0.45229 0.02300 -0.16961
C14 C 0.52883 -0.13328 -0.14671
H1 H 0.31040 -0.38210 -0.01540
H2 H 0.59260 -0.36520 -0.04650
H3 H 0.42020 -0.59130 -0.13430
H4 H 0.49250 -0.45950 -0.19640
H5 H 0.03270 -0.39050 -0.18380
H6 H -0.01600 -0.53620 -0.14030
H7 H -0.13450 -0.60700 -0.28970
H8 H 0.09670 -0.71020 -0.27090
H9 H 0.16560 -0.62360 -0.40710
H10 H 0.39620 -0.54960 -0.34270
H11 H 0.17650 -0.31200 -0.31080
H12 H -0.03950 -0.38050 -0.37850
H13 H 0.25950 -0.41350 -0.49970
H14 H 0.47980 -0.34990 -0.43160
H15 H 0.07950 -0.16720 -0.47910
H16 H 0.37260 -0.14820 -0.50690
H17 H 0.17630 -0.06250 -0.33110
H18 H 0.27180 0.05920 -0.39240
H19 H 0.70350 -0.00110 -0.37550
H20 H 0.62350 -0.14930 -0.32930
H21 H 0.56010 0.17940 -0.25310
H22 H 0.79520 0.08260 -0.22810
H23 H 0.26570 0.01790 -0.18650
H24 H 0.47740 0.10540 -0.11520
H25 H 0.71210 -0.12660 -0.12700
H26 H 0.52500 -0.20810 -0.19970
H27 H -0.06140 -0.09420 0.03790
#END
