
#######################################################################
#
#                 Cambridge Crystallographic Data Centre
#                                CCDC
#
#######################################################################
#
# If this CIF has been generated from an entry in the Cambridge
# Structural Database, then it will include bibliographic, chemical,
# crystal, experimental, refinement or atomic coordinate data resulting
# from the CCDC's data processing and validation procedures.
#
#######################################################################

data_CSD_CIF_CTMTNA11
_audit_creation_date 2015-10-22
_audit_creation_method CSD-ConQuest-V1
_database_code_CSD CTMTNA11
_database_code_depnum_ccdc_archive 'CCDC 1432690'
_chemical_formula_sum 'C3 H6 N6 O6'
_chemical_formula_moiety
;
C3 H6 N6 O6
;
_journal_coeditor_code "sh5121"
_journal_coden_Cambridge 621
_journal_volume 67
_journal_year 2011
_journal_page_first 160
_journal_name_full 'Acta Crystallogr.,Sect.A:Found Crystallogr. '
loop_
_publ_author_name
"V.V.Zhurov"
"E.A.Zhurova"
"A.I.Stash"
"A.A.Pinkerton"
_chemical_name_systematic
;
1,3,5-trinitro-1,3,5-triazinane
;
_cell_volume   1597.269
_exptl_crystal_colour 'colorless'
_exptl_crystal_density_diffrn 1.847
_exptl_special_details
;
alpha polymorph

;
_exptl_crystal_description 'prism'
_diffrn_ambient_temperature 120
_refine_special_details
;
multipole refinement

;
#These two values have been output from a single CSD field.
_refine_ls_R_factor_gt 0.0132
_refine_ls_wR_factor_gt 0.0132
loop_
_citation_database_id_CSD
_citation_special_details
CTMTNA14 "is a reinterpretation of this cif"
_symmetry_cell_setting orthorhombic
_symmetry_space_group_name_H-M 'P b c a'
_symmetry_Int_Tables_number 61
loop_
_symmetry_equiv_pos_site_id
_symmetry_equiv_pos_as_xyz
1 x,y,z
2 1/2-x,-y,1/2+z
3 -x,1/2+y,1/2-z
4 1/2+x,1/2-y,-z
5 -x,-y,-z
6 -1/2+x,y,-1/2-z
7 x,-1/2-y,-1/2+z
8 -1/2-x,-1/2+y,z
_cell_length_a 11.4425(3)
_cell_length_b 10.6106(3)
_cell_length_c 13.1558(4)
_cell_angle_alpha 90
_cell_angle_beta 90
_cell_angle_gamma 90
_cell_formula_units_Z 8
loop_
_atom_type_symbol
_atom_type_radius_bond
C 0.68
H 0.23
N 0.68
O 0.68
loop_
_atom_site_label
_atom_site_type_symbol
_atom_site_fract_x
_atom_site_fract_y
_atom_site_fract_z
O1 O 0.56779(6) 0.43448(10) 0.26715(6)
O2 O 0.59319(7) 0.23607(11) 0.22893(8)
O3 O 0.46496(8) 0.13401(11) -0.02697(8)
O4 O 0.35083(8) 0.25419(11) -0.11663(6)
O5 O 0.31818(9) 0.53209(11) -0.07236(6)
O6 O 0.43264(8) 0.60385(10) 0.04639(9)
N1 N 0.43501(5) 0.33559(7) 0.17474(5)
N2 N 0.31848(5) 0.23515(7) 0.05082(4)
N3 N 0.29687(5) 0.45953(7) 0.08642(5)
N4 N 0.53689(4) 0.33517(6) 0.22735(3)
N5 N 0.38436(4) 0.20824(5) -0.03662(4)
N6 N 0.35495(4) 0.53481(5) 0.01475(4)
C1 C 0.35606(5) 0.44367(6) 0.18357(4)
C2 C 0.37830(5) 0.21644(6) 0.14727(4)
C3 C 0.24065(4) 0.34488(5) 0.04730(4)
H1 H 0.4039(11) 0.5258(13) 0.2042(9)
H2 H 0.2898(11) 0.4224(12) 0.2385(9)
H3 H 0.4384(12) 0.1427(12) 0.1432(9)
H4 H 0.3110(11) 0.1960(12) 0.2033(9)
H5 H 0.2093(10) 0.3601(11) -0.0291(10)
H6 H 0.168(1) 0.3255(10) 0.0986(9)
#END
