
#######################################################################
#
#                 Cambridge Crystallographic Data Centre
#                                CCDC
#
#######################################################################
#
# If this CIF has been generated from an entry in the Cambridge
# Structural Database, then it will include bibliographic, chemical,
# crystal, experimental, refinement or atomic coordinate data resulting
# from the CCDC's data processing and validation procedures.
#
#######################################################################

data_CSD_CIF_CTMTNA
_audit_creation_date 1973-01-31
_audit_creation_method CSD-ConQuest-V1
_database_code_CSD CTMTNA
_database_code_depnum_ccdc_archive 'CCDC 1131953'
_chemical_formula_sum 'C3 H6 N6 O6'
_chemical_formula_moiety
;
C3 H6 N6 O6
;
_journal_coeditor_code "IUCr A09308"
_journal_coden_Cambridge 107
_journal_volume 28
_journal_year 1972
_journal_page_first 2857
_journal_name_full 'Acta Crystallogr.,Sect.B:Struct.Crystallogr.Cryst.Chem. '
loop_
_publ_author_name
"C.S.Choi"
"E.Prince"
_chemical_name_systematic
;
Cyclotrimethylene-trinitramine
;
_chemical_melting_point 478.15
_cell_volume   1633.856
_exptl_crystal_density_diffrn 1.806
_exptl_special_details
;
alpha polymorph

;
_diffrn_ambient_temperature ?
_diffrn_special_details
;
The study was carried out at room temperature,in the range 283-303K

;
#These two values have been output from a single CSD field.
_refine_ls_R_factor_gt 0.021
_refine_ls_wR_factor_gt 0.021
_symmetry_cell_setting orthorhombic
_symmetry_space_group_name_H-M 'P b c a'
_symmetry_Int_Tables_number 61
loop_
_symmetry_equiv_pos_site_id
_symmetry_equiv_pos_as_xyz
1 x,y,z
2 1/2-x,-y,1/2+z
3 1/2+x,1/2-y,-z
4 -x,1/2+y,1/2-z
5 -x,-y,-z
6 -1/2+x,y,-1/2-z
7 -1/2-x,-1/2+y,z
8 x,-1/2-y,-1/2+z
_cell_length_a 13.182(2)
_cell_length_b 11.574(2)
_cell_length_c 10.709(2)
_cell_angle_alpha 90
_cell_angle_beta 90
_cell_angle_gamma 90
_cell_formula_units_Z 8
loop_
_atom_type_symbol
_atom_type_radius_bond
C 0.68
H 0.20
N 0.68
O 0.68
loop_
_atom_site_label
_atom_site_type_symbol
_atom_site_fract_x
_atom_site_fract_y
_atom_site_fract_z
C1 C 0.18390 0.35780 0.44000
C2 C 0.05030 0.24400 0.33950
C3 C 0.14870 0.38130 0.21590
H1 H 0.24010 0.29440 0.42260
H2 H 0.20130 0.40680 0.52440
H3 H -0.02610 0.21170 0.35400
H4 H 0.10150 0.17280 0.31920
H5 H 0.20520 0.31660 0.19170
H6 H 0.14400 0.44320 0.14130
N1 N 0.17610 0.43600 0.33300
N2 N 0.08770 0.29960 0.45370
N3 N 0.05360 0.32220 0.23290
N4 N 0.22600 0.53790 0.33460
N5 N 0.01550 0.35250 0.52940
N6 N -0.03330 0.38750 0.20780
O1 O 0.22700 0.59320 0.23880
O2 O 0.26490 0.56870 0.43380
O3 O -0.06930 0.31420 0.52620
O4 O 0.04540 0.42710 0.59900
O5 O -0.11210 0.35340 0.25040
O6 O -0.02360 0.46910 0.13900
#END
