
#######################################################################
#
#                 Cambridge Crystallographic Data Centre
#                                CCDC
#
#######################################################################
#
# If this CIF has been generated from an entry in the Cambridge
# Structural Database, then it will include bibliographic, chemical,
# crystal, experimental, refinement or atomic coordinate data resulting
# from the CCDC's data processing and validation procedures.
#
#######################################################################

data_CSD_CIF_CTMTNA09
_audit_creation_date 2013-04-24
_audit_creation_method CSD-ConQuest-V1
_database_code_CSD CTMTNA09
_database_code_depnum_ccdc_archive 'CCDC 927276'
_chemical_formula_sum 'C3 H6 N6 O6'
_chemical_formula_moiety
;
C3 H6 N6 O6
;
_journal_coden_Cambridge 1078
_journal_year 2013
_journal_name_full 'CSD Communication(Private Communication) '
loop_
_publ_author_name
"Q.J.Axthammer"
"D.Izsak"
"T.M.Klapotke"
"C.Pfluger"
"J.Stierstorfer"
_chemical_name_systematic
;
1,3,5-trinitro-1,3,5-triazacyclohexane
;
_chemical_name_common
;
1,3,5-Trinitro-1,3,5-triazinane
;
_chemical_melting_point 477
_cell_volume   1618.182
_exptl_crystal_colour 'colorless'
_exptl_crystal_density_diffrn 1.824
_exptl_special_details
;
contribution from Department of Chemistry,Ludwig-Maximilian University of 
Munich, Butenandtstr. 5-13 (D), 81377 Munich, Germany
;
_exptl_crystal_description 'block'
_diffrn_ambient_temperature 173
#These two values have been output from a single CSD field.
_refine_ls_R_factor_gt 0.033
_refine_ls_wR_factor_gt 0.033
_symmetry_cell_setting orthorhombic
_symmetry_space_group_name_H-M 'P b c a'
_symmetry_Int_Tables_number 61
loop_
_symmetry_equiv_pos_site_id
_symmetry_equiv_pos_as_xyz
1 x,y,z
2 1/2-x,-y,1/2+z
3 1/2+x,1/2-y,-z
4 -x,1/2+y,1/2-z
5 -x,-y,-z
6 -1/2+x,y,-1/2-z
7 -1/2-x,-1/2+y,z
8 x,-1/2-y,-1/2+z
_cell_length_a 11.5100(5)
_cell_length_b 10.6532(5)
_cell_length_c 13.1969(6)
_cell_angle_alpha 90
_cell_angle_beta 90
_cell_angle_gamma 90
_cell_formula_units_Z 8
loop_
_atom_type_symbol
_atom_type_radius_bond
C 0.68
H 0.23
N 0.68
O 0.68
loop_
_atom_site_label
_atom_site_type_symbol
_atom_site_fract_x
_atom_site_fract_y
_atom_site_fract_z
O1 O 0.46624(10) 0.36447(11) 0.52587(10)
O2 O 0.3518(1) 0.24635(12) 0.61542(8)
O3 O 0.31744(11) -0.03070(11) 0.57130(9)
O4 O 0.43143(10) -0.10263(11) 0.45343(10)
O5 O 0.56798(9) 0.06596(11) 0.23374(8)
O6 O 0.59316(9) 0.26339(11) 0.27131(9)
N1 N 0.31904(10) 0.26572(12) 0.44828(9)
N2 N 0.29728(10) 0.04240(12) 0.41320(9)
N3 N 0.43485(10) 0.16530(11) 0.32512(9)
N4 N 0.38547(10) 0.29170(12) 0.53587(9)
N5 N 0.35448(11) -0.03329(12) 0.48469(10)
N6 N 0.53712(10) 0.16512(12) 0.27296(9)
C1 C 0.24175(12) 0.15657(14) 0.45176(10)
H1 H 0.17140 0.17440 0.41100
H2 H 0.21690 0.14230 0.52260
C2 C 0.35671(12) 0.05760(14) 0.31621(11)
H3 H 0.29940 0.07220 0.26150
H4 H 0.40150 -0.01910 0.29980
C3 C 0.37890(12) 0.28400(13) 0.35200(11)
H5 H 0.43780 0.35120 0.35850
H6 H 0.32270 0.30860 0.29880
#END
