
#######################################################################
#
#                 Cambridge Crystallographic Data Centre
#                                CCDC
#
#######################################################################
#
# If this CIF has been generated from an entry in the Cambridge
# Structural Database, then it will include bibliographic, chemical,
# crystal, experimental, refinement or atomic coordinate data resulting
# from the CCDC's data processing and validation procedures.
#
#######################################################################

data_CSD_CIF_CTMTNA13
_audit_creation_date 2016-10-28
_audit_creation_method CSD-ConQuest-V1
_database_code_CSD CTMTNA13
_database_code_depnum_ccdc_archive 'CCDC 1423902'
_chemical_formula_sum 'C3 H6 N6 O6'
_chemical_formula_moiety
;
C3 H6 N6 O6
;
_journal_coden_Cambridge 1870
_journal_volume 2
_journal_year 2016
_journal_page_first e1600192
_journal_name_full 'Sci. Adv. '
loop_
_publ_author_name
"M.Woinska"
"S.Grabowsky"
"P.M.Dominiak"
"K.Wozniak"
"D.Jayatilaka"
_chemical_name_systematic
;
1,3,5-trinitro-1,3,5-triazinane
;
_chemical_name_common
;
hexahydro-1,3,5-trinitro-1,3,5-triazine
;
_cell_volume   1579.303
_exptl_special_details
;
alpha polymorph

;
_exptl_crystal_description 'pyramid'
_diffrn_ambient_temperature 20
_refine_special_details
;
Hirshfeld atom refinement (HAR)

;
#These two values have been output from a single CSD field.
_refine_ls_R_factor_gt 0.0063
_refine_ls_wR_factor_gt 0.0063
loop_
_citation_database_id_CSD
_citation_special_details
CTMTNA10 "is reinterpreted by this entry"
_symmetry_cell_setting orthorhombic
_symmetry_space_group_name_H-M 'P b c a'
_symmetry_Int_Tables_number 61
loop_
_symmetry_equiv_pos_site_id
_symmetry_equiv_pos_as_xyz
1 x,y,z
2 1/2-x,-y,1/2+z
3 1/2+x,1/2-y,-z
4 -x,1/2+y,1/2-z
5 -x,-y,-z
6 -1/2+x,y,-1/2-z
7 -1/2-x,-1/2+y,z
8 x,-1/2-y,-1/2+z
_cell_length_a 11.3790(2)
_cell_length_b 10.5694(2)
_cell_length_c 13.1314(2)
_cell_angle_alpha 90
_cell_angle_beta 90
_cell_angle_gamma 90
_cell_formula_units_Z 8
loop_
_atom_type_symbol
_atom_type_radius_bond
C 0.68
H 0.23
N 0.68
O 0.68
loop_
_atom_site_label
_atom_site_type_symbol
_atom_site_fract_x
_atom_site_fract_y
_atom_site_fract_z
O1 O 0.567438(8) 0.435060(9) 0.267970(7)
O2 O 0.593112(8) 0.23662(1) 0.229959(7)
O3 O 0.463506(9) 0.13261(1) -0.027492(7)
O4 O 0.350607(8) 0.25455(1) -0.117415(7)
O5 O 0.319474(9) 0.53409(1) -0.072728(7)
O6 O 0.433775(8) 0.60505(1) 0.046534(8)
N1 N 0.434546(9) 0.33655(1) 0.174316(8)
N2 N 0.31748(1) 0.23612(1) 0.050265(8)
N3 N 0.296260(9) 0.46107(1) 0.085886(8)
N4 N 0.536666(9) 0.33582(1) 0.227918(8)
N5 N 0.38358(1) 0.20804(1) -0.037408(8)
N6 N 0.35568(1) 0.53650(1) 0.014442(8)
C1 C 0.35514(1) 0.44481(1) 0.18349(1)
C2 C 0.37736(1) 0.21709(1) 0.14697(1)
C3 C 0.23963(1) 0.34640(1) 0.04640(1)
H1 H 0.4036(2) 0.5288(2) 0.2041(1)
H2 H 0.2861(2) 0.4245(2) 0.2394(1)
H3 H 0.4411(2) 0.1418(2) 0.1411(1)
H4 H 0.3098(2) 0.1944(2) 0.2028(1)
H5 H 0.2085(2) 0.3614(2) -0.0312(1)
H6 H 0.1667(2) 0.3264(2) 0.0966(1)
#END
