
#######################################################################
#
#                 Cambridge Crystallographic Data Centre
#                                CCDC
#
#######################################################################
#
# If this CIF has been generated from an entry in the Cambridge
# Structural Database, then it will include bibliographic, chemical,
# crystal, experimental, refinement or atomic coordinate data resulting
# from the CCDC's data processing and validation procedures.
#
#######################################################################

data_CSD_CIF_CTMTNA06
_audit_creation_date 2010-10-03
_audit_creation_method CSD-ConQuest-V1
_database_code_CSD CTMTNA06
_database_code_depnum_ccdc_archive 'CCDC 769778'
_chemical_formula_sum 'C3 H6 N6 O6'
_chemical_formula_moiety
;
C3 H6 N6 O6
;
_journal_coden_Cambridge 182
_journal_volume 46
_journal_year 2010
_journal_page_first 5662
_journal_name_full 'Chem.Commun. '
loop_
_publ_author_name
"D.I.A.Millar"
"I.D.H.Oswald"
"C.Barry"
"D.J.Francis"
"W.G.Marshall"
"C.R.Pullman"
"A.S.Cumming"
_chemical_name_systematic
;
1,3,5-Trinitro-1,3,5-triazinane
;
_cell_volume    650.976
_exptl_crystal_colour 'colorless'
_exptl_crystal_density_diffrn 2.266
_exptl_special_details
;
explosive
epsilon polymorph

;
_exptl_crystal_description 'block'
_diffrn_ambient_temperature 293
_diffrn_ambient_pressure 5700000.0
#These two values have been output from a single CSD field.
_refine_ls_R_factor_gt 0.0573
_refine_ls_wR_factor_gt 0.0573
_symmetry_cell_setting orthorhombic
_symmetry_space_group_name_H-M 'P c a 21'
_symmetry_Int_Tables_number 29
loop_
_symmetry_equiv_pos_site_id
_symmetry_equiv_pos_as_xyz
1 x,y,z
2 1/2-x,y,1/2+z
3 1/2+x,-y,z
4 -x,-y,1/2+z
_cell_length_a 7.0324(11)
_cell_length_b 10.530(3)
_cell_length_c 8.7909(11)
_cell_angle_alpha 90
_cell_angle_beta 90
_cell_angle_gamma 90
_cell_formula_units_Z 4
loop_
_atom_type_symbol
_atom_type_radius_bond
C 0.68
H 0.23
N 0.68
O 0.68
loop_
_atom_site_label
_atom_site_type_symbol
_atom_site_fract_x
_atom_site_fract_y
_atom_site_fract_z
N1 N -0.0795(11) 0.8484(14) 0.5369(10)
N2 N -0.0242(9) 0.6194(13) 0.5313(10)
N3 N 0.2111(10) 0.7587(12) 0.6408(10)
N4 N -0.0416(9) 0.8835(14) 0.3899(9)
N5 N 0.0314(11) 0.5835(11) 0.3884(9)
N6 N 0.3633(11) 0.7748(11) 0.5414(12)
C1 C -0.1629(13) 0.7217(12) 0.5447(14)
C2 C 0.1287(12) 0.6313(12) 0.6432(11)
C3 C 0.0732(12) 0.8621(14) 0.6488(11)
O1 O 0.1097(9) 0.9325(12) 0.3648(8)
O2 O -0.1675(9) 0.8719(15) 0.2982(8)
O3 O 0.1506(9) 0.5016(12) 0.3819(8)
O4 O -0.0455(9) 0.6279(12) 0.2783(8)
O5 O 0.4167(10) 0.6845(11) 0.4698(10)
O6 O 0.4318(10) 0.8793(11) 0.535(1)
H1 H -0.23240 0.71000 0.64180
H2 H -0.25450 0.71270 0.46200
H3 H 0.07880 0.61060 0.74400
H4 H 0.22810 0.57190 0.61680
H5 H 0.14290 0.94360 0.62240
H6 H 0.02650 0.87290 0.74990
#END
