
#######################################################################
#
#                 Cambridge Crystallographic Data Centre
#                                CCDC
#
#######################################################################
#
# If this CIF has been generated from an entry in the Cambridge
# Structural Database, then it will include bibliographic, chemical,
# crystal, experimental, refinement or atomic coordinate data resulting
# from the CCDC's data processing and validation procedures.
#
#######################################################################

data_CSD_CIF_CTMTNA04
_audit_creation_date 2009-07-12
_audit_creation_method CSD-ConQuest-V1
_database_code_CSD CTMTNA04
_database_code_depnum_ccdc_archive 'CCDC 705290'
_chemical_formula_sum 'C3 H6 N6 O6'
_chemical_formula_moiety
;
C3 H6 N6 O6
;
_journal_coden_Cambridge 182
_journal_year 2009
_journal_page_first 562
_journal_name_full 'Chem.Commun. '
loop_
_publ_author_name
"D.I.A.Millar"
"I.D.H.Oswald"
"D.J.Francis"
"W.G.Marshall"
"C.R.Pulham"
"A.S.Cumming"
_chemical_name_systematic
;
1,3,5-Trinitro-1,3,5-triazinane
;
_cell_volume   1620.995
_exptl_crystal_colour 'colorless'
_exptl_crystal_density_diffrn 1.82
_exptl_special_details
;
chair conformer
beta polymorph
explosive

;
_exptl_crystal_description 'block'
_diffrn_ambient_temperature 150
#These two values have been output from a single CSD field.
_refine_ls_R_factor_gt 0.0465
_refine_ls_wR_factor_gt 0.0465
_symmetry_cell_setting orthorhombic
_symmetry_space_group_name_H-M 'P c a 21'
_symmetry_Int_Tables_number 29
loop_
_symmetry_equiv_pos_site_id
_symmetry_equiv_pos_as_xyz
1 x,y,z
2 1/2-x,y,1/2+z
3 1/2+x,-y,z
4 -x,-y,1/2+z
_cell_length_a 15.1267(11)
_cell_length_b 7.4563(6)
_cell_length_c 14.3719(11)
_cell_angle_alpha 90
_cell_angle_beta 90
_cell_angle_gamma 90
_cell_formula_units_Z 8
loop_
_atom_type_symbol
_atom_type_radius_bond
C 0.68
H 0.23
N 0.68
O 0.68
loop_
_atom_site_label
_atom_site_type_symbol
_atom_site_fract_x
_atom_site_fract_y
_atom_site_fract_z
C1 C 0.4904(2) 0.6676(6) 0.4504(3)
N1 N 0.5441(2) 0.7057(4) 0.5315(2)
N2 N 0.5073(2) 0.8303(5) 0.5942(3)
O1 O 0.4476(2) 0.9257(5) 0.5665(3)
O2 O 0.5400(2) 0.8395(6) 0.6703(3)
C2 C 0.5821(2) 0.5471(7) 0.5742(3)
N3 N 0.5158(3) 0.4108(5) 0.5927(3)
O3 O 0.5156(4) 0.4953(8) 0.7425(3)
O4 O 0.4111(3) 0.3214(6) 0.6897(4)
N4 N 0.4762(3) 0.4107(7) 0.6806(4)
C3 C 0.4598(3) 0.3693(6) 0.5141(4)
N5 N 0.4256(2) 0.5311(5) 0.4689(3)
N6 N 0.3399(2) 0.5863(6) 0.4896(3)
O5 O 0.31628(19) 0.7305(5) 0.4599(3)
O6 O 0.2945(2) 0.4838(6) 0.5331(4)
H1 H 0.46150 0.77290 0.42800
H2 H 0.52880 0.61750 0.40350
H3 H 0.61460 0.58330 0.63000
H4 H 0.62450 0.49770 0.53030
H5 H 0.49620 0.30630 0.46990
H6 H 0.40770 0.29770 0.53900
C4 C 0.7415(3) 0.0896(5) 0.2059(3)
N7 N 0.78958(19) -0.0359(4) 0.2649(2)
N8 N 0.8707(2) 0.0206(5) 0.3025(3)
O7 O 0.9050(2) 0.1524(4) 0.2673(2)
O8 O 0.90190(17) -0.0726(4) 0.3636(2)
C5 C 0.7353(2) -0.1563(5) 0.3206(3)
N9 N 0.6660(2) -0.0600(4) 0.3694(2)
N10 N 0.6800(2) -0.0141(5) 0.4628(2)
O9 O 0.7384(2) -0.0966(4) 0.5032(2)
O10 O 0.62981(18) 0.0937(4) 0.4983(2)
C6 C 0.6158(2) 0.0680(6) 0.3118(3)
N11 N 0.6732(2) 0.1852(4) 0.2580(2)
N12 N 0.6970(2) 0.3486(5) 0.2982(2)
O11 O 0.6496(2) 0.4043(4) 0.3603(2)
O12 O 0.7591(2) 0.4277(4) 0.2645(3)
H7 H 0.78140 0.17590 0.17660
H8 H 0.71030 0.01860 0.15860
H9 H 0.77270 -0.21820 0.36590
H10 H 0.70660 -0.24160 0.27620
H11 H 0.57870 0.13960 0.35110
H12 H 0.58130 -0.00040 0.26770
#END
