
#######################################################################
#
#                 Cambridge Crystallographic Data Centre
#                                CCDC
#
#######################################################################
#
# If this CIF has been generated from an entry in the Cambridge
# Structural Database, then it will include bibliographic, chemical,
# crystal, experimental, refinement or atomic coordinate data resulting
# from the CCDC's data processing and validation procedures.
#
#######################################################################

data_CSD_CIF_CTMTNA05
_audit_creation_date 2009-07-12
_audit_creation_method CSD-ConQuest-V1
_database_code_CSD CTMTNA05
_database_code_depnum_ccdc_archive 'CCDC 705291'
_chemical_formula_sum 'C3 H6 N6 O6'
_chemical_formula_moiety
;
C3 H6 N6 O6
;
_journal_coden_Cambridge 182
_journal_year 2009
_journal_page_first 562
_journal_name_full 'Chem.Commun. '
loop_
_publ_author_name
"D.I.A.Millar"
"I.D.H.Oswald"
"D.J.Francis"
"W.G.Marshall"
"C.R.Pulham"
"A.S.Cumming"
_chemical_name_systematic
;
1,3,5-Trinitro-1,3,5-triazinane
;
_cell_volume   1644.163
_exptl_crystal_colour 'colorless'
_exptl_crystal_density_diffrn 1.795
_exptl_special_details
;
chair conformer
beta polymorph
explosive

;
_exptl_crystal_description 'lath'
_diffrn_ambient_temperature 273
#These two values have been output from a single CSD field.
_refine_ls_R_factor_gt 0.0525
_refine_ls_wR_factor_gt 0.0525
_symmetry_cell_setting orthorhombic
_symmetry_space_group_name_H-M 'P c a 21'
_symmetry_Int_Tables_number 29
loop_
_symmetry_equiv_pos_site_id
_symmetry_equiv_pos_as_xyz
1 x,y,z
2 1/2-x,y,1/2+z
3 1/2+x,-y,z
4 -x,-y,1/2+z
_cell_length_a 15.0972(7)
_cell_length_b 7.5463(4)
_cell_length_c 14.4316(6)
_cell_angle_alpha 90
_cell_angle_beta 90
_cell_angle_gamma 90
_cell_formula_units_Z 8
loop_
_atom_type_symbol
_atom_type_radius_bond
C 0.68
H 0.23
N 0.68
O 0.68
loop_
_atom_site_label
_atom_site_type_symbol
_atom_site_fract_x
_atom_site_fract_y
_atom_site_fract_z
O1 O 0.4074(6) 0.8647(11) 0.6193(7)
O2 O 0.4013(5) 1.0926(12) 0.5314(5)
O3 O 0.2358(5) 1.1051(9) 0.3980(5)
O4 O 0.1305(5) 0.9139(9) 0.4041(5)
O5 O 0.1481(5) 0.6076(8) 0.5380(5)
O6 O 0.2620(6) 0.5836(8) 0.6251(7)
C1 C 0.2341(5) 1.1645(9) 0.5795(6)
C2 C 0.1175(5) 0.9378(10) 0.5880(5)
C3 C 0.2483(5) 0.9122(10) 0.6878(5)
N1 N 0.2920(4) 1.0440(8) 0.6300(4)
N2 N 0.1644(4) 1.0675(9) 0.5313(5)
N3 N 0.1779(4) 0.8213(9) 0.6375(4)
N4 N 0.3715(6) 0.9971(11) 0.5902(6)
N5 N 0.1791(5) 1.0235(10) 0.4380(5)
N6 N 0.1986(5) 0.6625(10) 0.5956(5)
H1 H 0.20670 1.24610 0.62370
H2 H 0.26960 1.22620 0.53470
H3 H 0.08210 1.00080 0.63470
H4 H 0.07970 0.86690 0.54810
H5 H 0.22150 0.97320 0.74000
H6 H 0.29120 0.82370 0.70890
C4 C 0.5404(7) 0.6374(12) 0.8693(8)
C5 C 0.4169(5) 0.4511(11) 0.8244(6)
C6 C 0.5201(6) 0.3525(14) 0.9412(6)
N7 N 0.5830(6) 0.4883(12) 0.9149(7)
N8 N 0.4791(6) 0.587(1) 0.7967(6)
N9 N 0.4621(5) 0.3021(9) 0.8663(5)
N10 N 0.4966(7) 0.1703(14) 0.8080(7)
N11 N 0.5112(9) 0.5764(18) 0.7060(9)
N12 N 0.6663(9) 0.4375(18) 0.8835(10)
O7 O 0.4621(7) 0.1545(16) 0.7344(7)
O8 O 0.5579(7) 0.0834(12) 0.8321(7)
O9 O 0.7023(7) 0.5451(19) 0.8366(13)
O10 O 0.5755(8) 0.6640(15) 0.6922(9)
O11 O 0.6904(7) 0.2954(18) 0.9106(10)
O12 O 0.4711(10) 0.482(2) 0.6534(6)
H7 H 0.50830 0.70780 0.91470
H8 H 0.58710 0.70600 0.83950
H9 H 0.37580 0.49670 0.87030
H10 H 0.38390 0.41080 0.77050
H11 H 0.48350 0.40010 0.99150
H12 H 0.55220 0.24790 0.96050
#END
