
#######################################################################
#
#                 Cambridge Crystallographic Data Centre
#                                CCDC
#
#######################################################################
#
# If this CIF has been generated from an entry in the Cambridge
# Structural Database, then it will include bibliographic, chemical,
# crystal, experimental, refinement or atomic coordinate data resulting
# from the CCDC's data processing and validation procedures.
#
#######################################################################

data_CSD_CIF_CTMTNA02
_audit_creation_date 2008-05-01
_audit_creation_method CSD-ConQuest-V1
_database_code_CSD CTMTNA02
_database_code_depnum_ccdc_archive 'CCDC 663455'
_chemical_formula_sum 'C3 H6 N6 O6'
_chemical_formula_moiety
;
C3 H6 N6 O6
;
_journal_coden_Cambridge 1350
_journal_volume 10
_journal_year 2008
_journal_page_first 162
_journal_name_full 'CrystEngComm '
loop_
_publ_author_name
"A.J.Davidson"
"I.D.H.Oswald"
"D.J.Francis"
"A.R.Lennie"
"W.G.Marshall"
"D.I.A.Millar"
"C.R.Pulham"
"J.E.Warren"
"A.S.Cumming"
_chemical_name_systematic
;
Cyclotrimethylene-trinitramine
;
_chemical_name_common
;
1,3,5-Trinitrohexahydro-1,3,5-triazine
;
_chemical_melting_point 478.5
_cell_volume   1301.479
_exptl_crystal_colour 'colorless'
_exptl_crystal_density_diffrn 2.267
_exptl_special_details
;
explosive
gamma polymorph

;
_exptl_crystal_description 'block'
_diffrn_ambient_temperature 293
_diffrn_ambient_pressure 5200000.0
_diffrn_radiation_probe x-ray
_diffrn_source synchrotron
#These two values have been output from a single CSD field.
_refine_ls_R_factor_gt 0.0717
_refine_ls_wR_factor_gt 0.0717
_symmetry_cell_setting orthorhombic
_symmetry_space_group_name_H-M 'P c a 21'
_symmetry_Int_Tables_number 29
loop_
_symmetry_equiv_pos_site_id
_symmetry_equiv_pos_as_xyz
1 x,y,z
2 1/2-x,y,1/2+z
3 1/2+x,-y,z
4 -x,-y,1/2+z
_cell_length_a 12.5650(19)
_cell_length_b 9.4769(6)
_cell_length_c 10.9297(9)
_cell_angle_alpha 90
_cell_angle_beta 90
_cell_angle_gamma 90
_cell_formula_units_Z 8
loop_
_atom_type_symbol
_atom_type_radius_bond
C 0.68
H 0.23
N 0.68
O 0.68
loop_
_atom_site_label
_atom_site_type_symbol
_atom_site_fract_x
_atom_site_fract_y
_atom_site_fract_z
C1 C 0.1232(11) 1.0792(11) 0.7875(11)
C2 C 0.0539(11) 0.8773(11) 0.8964(11)
C3 C 0.2156(10) 0.8541(10) 0.7729(12)
N1 N 0.1845(9) 0.9843(9) 0.7141(9)
N2 N 0.0289(10) 1.008(1) 0.8352(8)
N3 N 0.1209(9) 0.7872(9) 0.8234(8)
N4 N 0.1955(11) 1.0052(11) 0.5942(9)
N5 N -0.0590(8) 1.0080(9) 0.7608(8)
N6 N 0.0727(9) 0.6949(9) 0.7440(9)
O1 O 0.1563(10) 1.1114(9) 0.5501(10)
O2 O 0.2465(10) 0.9184(9) 0.5388(10)
O3 O -0.0665(9) 1.1038(8) 0.6866(8)
O4 O -0.1275(8) 0.9235(8) 0.7822(8)
O5 O -0.0192(8) 0.6659(8) 0.7668(8)
O6 O 0.1239(8) 0.6448(7) 0.6621(8)
H1 H 0.16710 1.10950 0.85600
H2 H 0.10290 1.16090 0.73980
H3 H 0.08980 0.89790 0.97310
H4 H -0.01160 0.82980 0.91260
H5 H 0.26690 0.87160 0.83830
H6 H 0.24730 0.79110 0.71350
C4 C 0.6574(12) 0.4212(11) 0.0638(12)
C5 C 0.5519(10) 0.5461(10) -0.0884(11)
C6 C 0.6633(10) 0.6855(10) 0.0522(12)
N7 N 0.6770(8) 0.5555(9) 0.1229(8)
N8 N 0.5586(8) 0.4274(8) -0.0042(8)
N9 N 0.5726(8) 0.6774(9) -0.0235(8)
N10 N 0.7114(9) 0.5619(8) 0.2385(8)
N11 N 0.4652(8) 0.4052(8) 0.0640(7)
N12 N 0.4925(8) 0.7670(8) -0.0082(7)
O7 O 0.7427(8) 0.6755(7) 0.2775(8)
O8 O 0.7088(8) 0.4521(7) 0.2981(8)
O9 O 0.3830(9) 0.4201(8) 0.0086(8)
O10 O 0.4741(8) 0.3616(8) 0.1673(8)
O11 O 0.4117(8) 0.7519(8) -0.0731(8)
O12 O 0.5022(7) 0.8669(7) 0.0630(8)
H7 H 0.71560 0.39980 0.00840
H8 H 0.65260 0.34840 0.12540
H9 H 0.60440 0.53420 -0.15260
H10 H 0.48060 0.54810 -0.12210
H11 H 0.72590 0.69860 0.00110
H12 H 0.65520 0.76620 0.10740
#END
