
#######################################################################
#
#                 Cambridge Crystallographic Data Centre
#                                CCDC
#
#######################################################################
#
# If this CIF has been generated from an entry in the Cambridge
# Structural Database, then it will include bibliographic, chemical,
# crystal, experimental, refinement or atomic coordinate data resulting
# from the CCDC's data processing and validation procedures.
#
#######################################################################

data_CSD_CIF_CUBKAN
_audit_creation_date 2015-02-27
_audit_creation_method CSD-ConQuest-V1
_database_code_CSD CUBKAN
_database_code_depnum_ccdc_archive 'CCDC 1021631'
_chemical_formula_sum 'C15 H10 N2 O5'
_chemical_formula_moiety
;
C15 H10 N2 O5
;
_journal_coden_Cambridge 1350
_journal_volume 17
_journal_year 2015
_journal_page_first 2523
_journal_name_full 'CrystEngComm '
loop_
_publ_author_name
"M.Colaco"
"Jean Dubois"
"J.Wouters"
_chemical_name_systematic
;
2-(4-methoxyphenyl)-5-nitro-1H-isoindole-1,3(2H)-dione
;
_cell_volume    648.640
_exptl_crystal_colour 'yellow'
_exptl_crystal_density_diffrn 1.527
_exptl_crystal_description 'triangle'
_diffrn_ambient_temperature 293
#These two values have been output from a single CSD field.
_refine_ls_R_factor_gt 0.0724
_refine_ls_wR_factor_gt 0.0724
_symmetry_cell_setting monoclinic
_symmetry_space_group_name_H-M 'P n'
_symmetry_Int_Tables_number 7
loop_
_symmetry_equiv_pos_site_id
_symmetry_equiv_pos_as_xyz
1 x,y,z
2 1/2+x,-y,1/2+z
_cell_length_a 6.9750(12)
_cell_length_b 3.876(1)
_cell_length_c 23.998(3)
_cell_angle_alpha 90
_cell_angle_beta 91.227(12)
_cell_angle_gamma 90
_cell_formula_units_Z 2
loop_
_atom_type_symbol
_atom_type_radius_bond
C 0.68
H 0.23
N 0.68
O 0.68
loop_
_atom_site_label
_atom_site_type_symbol
_atom_site_fract_x
_atom_site_fract_y
_atom_site_fract_z
C1 C 0.8776(10) 0.346(2) 0.1577(3)
C2 C 0.7301(10) 0.297(2) 0.2012(3)
C3 C 0.7292(10) 0.407(2) 0.2563(3)
H1 H 0.83420 0.52000 0.27230
C4 C 0.5657(11) 0.341(3) 0.2867(3)
H2 H 0.55930 0.41060 0.32370
C5 C 0.4149(12) 0.173(2) 0.2620(4)
C6 C 0.4142(12) 0.055(2) 0.2065(3)
H3 H 0.31150 -0.06600 0.19070
C7 C 0.5731(10) 0.130(2) 0.1777(3)
C8 C 0.6217(11) 0.048(2) 0.1189(3)
C9 C 0.8972(10) 0.181(2) 0.0571(3)
C10 C 1.0743(10) 0.052(3) 0.0541(3)
H4 H 1.13400 -0.03900 0.08580
C11 C 1.1722(11) 0.054(2) 0.0027(3)
H5 H 1.29630 -0.03100 -0.00010
C12 C 1.0735(9) 0.189(2) -0.0428(3)
C13 C 0.8927(10) 0.311(2) -0.0397(3)
H6 H 0.83030 0.39240 -0.07170
C14 C 0.7986(11) 0.316(2) 0.0109(3)
H7 H 0.67550 0.40550 0.01370
C15 C 1.3457(15) 0.077(3) -0.1001(4)
H8 H 1.38510 0.09820 -0.13800
H9 H 1.35150 -0.16030 -0.08900
H10 H 1.42970 0.21140 -0.07640
N1 N 0.8011(8) 0.1849(19) 0.1099(2)
N2 N 0.2443(9) 0.103(2) 0.2948(3)
O1 O 1.0284(8) 0.481(2) 0.1628(2)
O2 O 0.5265(7) -0.1199(17) 0.0855(2)
O3 O 1.1553(8) 0.2000(18) -0.0955(2)
O4 O 0.1152(10) -0.072(2) 0.2750(3)
O5 O 0.2364(10) 0.236(3) 0.3408(3)
#END
