
#######################################################################
#
#                 Cambridge Crystallographic Data Centre
#                                CCDC
#
#######################################################################
#
# If this CIF has been generated from an entry in the Cambridge
# Structural Database, then it will include bibliographic, chemical,
# crystal, experimental, refinement or atomic coordinate data resulting
# from the CCDC's data processing and validation procedures.
#
#######################################################################

data_CSD_CIF_CUCDOT
_audit_creation_date 1985-09-20
_audit_creation_method CSD-ConQuest-V1
_database_code_CSD CUCDOT
_chemical_formula_sum 'C19 H24 N2 O7'
_chemical_formula_moiety
;
C19 H24 N2 O7
;
_journal_coden_Cambridge 24
_journal_volume 26
_journal_year 1985
_journal_page_first 583
_journal_name_full 'Tetrahedron Lett. '
loop_
_publ_author_name
"D.H.Shih"
"J.A.Fayter"
"L.D.Cama"
"B.G.Christensen"
"J.Hirshfield"
_chemical_name_systematic
;
7-(1-(2-Nitrobenzyloxy-carbonyloxy)ethyl)-2,2,5-trimethyl-3-oxa-1-azabicyclo(4
.2.0)octan-8-one
;
_cell_volume   1037.611
_diffrn_ambient_temperature ?
_diffrn_special_details
;
The study was carried out at room temperature,in the range 283-303K

;
loop_
_citation_database_id_CSD
_citation_special_details
CUCDOV "is a stereoisomer of this entry"
_symmetry_cell_setting triclinic
_symmetry_space_group_name_H-M 'P -1'
_symmetry_Int_Tables_number 2
loop_
_symmetry_equiv_pos_site_id
_symmetry_equiv_pos_as_xyz
1 x,y,z
2 -x,-y,-z
_cell_length_a 9.706(5)
_cell_length_b 13.360(8)
_cell_length_c 10.901(5)
_cell_angle_alpha 51.42(2)
_cell_angle_beta 102.92(4)
_cell_angle_gamma 86.28(4)
_cell_formula_units_Z 2
loop_
_atom_type_symbol
_atom_type_radius_bond
C 0.68
H 0.23
N 0.68
O 0.68
loop_
_atom_site_label
_atom_site_type_symbol
_atom_site_fract_x
_atom_site_fract_y
_atom_site_fract_z
N1 N 0.4399(4) 0.3499(3) 0.4325(4)
C1 C 0.3447(5) 0.4679(4) 0.2503(5)
O1 O 0.2710(3) 0.5714(3) 0.2400(4)
C2 C 0.1942(5) 0.5261(5) 0.3546(6)
C3 C 0.3076(5) 0.4181(4) 0.5420(5)
C4 C 0.3874(4) 0.2978(4) 0.5724(5)
C5 C 0.5581(4) 0.2184(4) 0.7043(5)
C6 C 0.5924(5) 0.2904(4) 0.5427(5)
C7 C 0.2323(5) 0.4273(5) 0.1748(6)
C8 C 0.4434(6) 0.5281(5) 0.1527(5)
C9 C 0.2279(6) 0.3758(6) 0.6640(7)
C10 C 0.6136(5) 0.0676(4) 0.8288(5)
C11 C 0.7863(5) 0.0044(5) 0.9278(6)
O2 O 0.5664(3) 0.0263(3) 0.7305(3)
C12 C 0.4760(4) -0.0467(4) 0.7634(5)
O3 O 0.4215(4) -0.0830(4) 0.8645(4)
O4 O 0.4565(3) -0.0771(3) 0.6649(3)
C13 C 0.3511(5) -0.1482(4) 0.6670(5)
C14 C 0.2086(4) -0.0551(4) 0.4983(5)
C15 C 0.1954(5) 0.0769(4) 0.3700(5)
C16 C 0.0677(5) 0.1667(4) 0.2113(6)
C17 C -0.0516(5) 0.1229(5) 0.1815(6)
C18 C -0.0422(5) -0.0084(5) 0.3055(6)
C19 C 0.0866(4) -0.0963(4) 0.4625(5)
N2 N 0.0869(4) -0.2350(4) 0.5892(4)
O5 O 0.1898(4) -0.3135(3) 0.7347(4)
O6 O -0.0170(4) -0.2693(4) 0.5460(5)
O7 O 0.7069(3) 0.2952(3) 0.5192(4)
H1 H 0.101(4) 0.489(4) 0.327(5)
H2 H 0.150(4) 0.624(4) 0.322(5)
H3 H 0.388(4) 0.467(3) 0.557(4)
H4 H 0.328(3) 0.231(3) 0.586(4)
H5 H 0.598(3) 0.253(3) 0.760(4)
H6 H 0.288(4) 0.346(4) 0.189(5)
H7 H 0.170(4) 0.384(4) 0.230(5)
H8 H 0.167(4) 0.499(4) 0.069(5)
H9 H 0.497(4) 0.461(4) 0.165(5)
H10 H 0.379(4) 0.607(4) 0.043(5)
H11 H 0.504(5) 0.581(5) 0.177(6)
H12 H 0.302(5) 0.309(5) 0.785(6)
H13 H 0.150(5) 0.334(5) 0.646(6)
H14 H 0.563(4) 0.034(4) 0.894(5)
H15 H 0.827(5) 0.035(5) 0.985(6)
H16 H 0.829(5) -0.101(4) 1.006(5)
H17 H 0.841(8) 0.068(7) 0.815(9)
H18 H 0.331(3) -0.180(3) 0.752(4)
H19 H 0.417(4) -0.239(3) 0.698(4)
H20 H 0.275(4) 0.106(3) 0.394(4)
H21 H 0.068(5) 0.264(4) 0.127(5)
H22 H -0.140(5) 0.183(4) 0.076(6)
H23 H -0.116(5) -0.054(4) 0.296(5)
#END
