
#######################################################################
#
#                 Cambridge Crystallographic Data Centre
#                                CCDC
#
#######################################################################
#
# If this CIF has been generated from an entry in the Cambridge
# Structural Database, then it will include bibliographic, chemical,
# crystal, experimental, refinement or atomic coordinate data resulting
# from the CCDC's data processing and validation procedures.
#
#######################################################################

data_CSD_CIF_CUCQEY
_audit_creation_date 2015-02-28
_audit_creation_method CSD-ConQuest-V1
_database_code_CSD CUCQEY
_database_code_depnum_ccdc_archive 'CCDC 993412'
_chemical_formula_sum 'C25 H23 N3 O4'
_chemical_formula_moiety
;
C25 H23 N3 O4
;
_journal_coden_Cambridge 1366
_journal_volume 356
_journal_year 2014
_journal_page_first 3849
_journal_name_full 'Adv.Synth.Catal. '
loop_
_publ_author_name
"M.R.Zanwar"
"S.D.Gawande"
"V.Kavala"
"Chun-Wei Kuo"
"Ching-Fa Yao"
_chemical_name_systematic
;
4-(1H-indol-3-yl)-7-methoxy-2-(2-methoxyphenyl)-3-nitro-1,2,3,4-tetrahydroquin
oline
;
_cell_volume   2130.959
_exptl_crystal_colour 'orange yellow'
_exptl_crystal_density_diffrn 1.339
_exptl_crystal_description 'prism'
_diffrn_ambient_temperature 296
#These two values have been output from a single CSD field.
_refine_ls_R_factor_gt 0.0425
_refine_ls_wR_factor_gt 0.0425
_symmetry_cell_setting monoclinic
_symmetry_space_group_name_H-M 'P 21/n'
_symmetry_Int_Tables_number 14
loop_
_symmetry_equiv_pos_site_id
_symmetry_equiv_pos_as_xyz
1 x,y,z
2 1/2-x,1/2+y,1/2-z
3 -x,-y,-z
4 -1/2+x,-1/2-y,-1/2+z
_cell_length_a 11.9334(18)
_cell_length_b 10.7796(15)
_cell_length_c 16.839(3)
_cell_angle_alpha 90
_cell_angle_beta 100.338(2)
_cell_angle_gamma 90
_cell_formula_units_Z 4
loop_
_atom_type_symbol
_atom_type_radius_bond
C 0.68
H 0.23
N 0.68
O 0.68
loop_
_atom_site_label
_atom_site_type_symbol
_atom_site_fract_x
_atom_site_fract_y
_atom_site_fract_z
C1 C 0.05724(13) 0.38697(16) 0.85448(11)
H1 H 0.06320 0.36090 0.79960
C2 C 0.08070(14) 0.52751(16) 0.86340(11)
H2 H 0.06320 0.55360 0.91560
C3 C 0.00485(14) 0.59935(16) 0.79867(11)
C4 C -0.08932(16) 0.66464(18) 0.80750(13)
H3 H -0.11510 0.67560 0.85600
C5 C -0.08027(16) 0.67706(17) 0.67661(13)
C6 C -0.0986(2) 0.7021(2) 0.59391(15)
H4 H -0.16070 0.74900 0.56930
C7 C -0.0218(3) 0.6551(2) 0.55056(15)
H5 H -0.03200 0.67040 0.49540
C8 C 0.0712(2) 0.5848(2) 0.58690(14)
H6 H 0.12170 0.55410 0.55550
C9 C 0.08996(17) 0.56009(18) 0.66817(12)
H7 H 0.15270 0.51350 0.69190
C10 C 0.01316(14) 0.60608(16) 0.71486(11)
C11 C 0.20748(14) 0.55097(16) 0.86511(11)
C12 C 0.24652(16) 0.66888(17) 0.85023(12)
H8 H 0.19430 0.73330 0.83890
C13 C 0.35999(16) 0.69294(18) 0.85181(12)
H9 H 0.38410 0.77280 0.84250
C14 C 0.43775(15) 0.59732(18) 0.86731(13)
C15 C 0.63339(18) 0.5371(2) 0.88695(18)
H10 H 0.70250 0.58020 0.88450
H11 H 0.61630 0.46690 0.83910
H12 H 0.62660 0.49390 0.93270
C16 C 0.40274(15) 0.47937(18) 0.88096(13)
H13 H 0.45550 0.41520 0.89060
C17 C 0.28673(15) 0.45585(16) 0.88025(12)
C18 C 0.14248(15) 0.31356(16) 0.91520(12)
H14 H 0.14350 0.34800 0.96920
C19 C 0.12084(15) 0.17505(16) 0.91779(11)
C20 C 0.16161(15) 0.11011(17) 0.98904(12)
C21 C 0.2822(2) 0.1168(2) 1.11891(13)
H15 H 0.22670 0.07320 1.15010
H16 H 0.33120 0.06080 1.10280
H17 H 0.32430 0.17940 1.15420
C22 C 0.14524(17) -0.01663(18) 0.99374(13)
H18 H 0.17160 -0.05880 1.04160
C23 C 0.08974(19) -0.07980(19) 0.92710(15)
H19 H 0.07830 -0.16490 0.93030
C24 C 0.0512(2) -0.0188(2) 0.85606(15)
H20 H 0.01450 -0.06230 0.81110
C25 C 0.06720(18) 0.10787(19) 0.85171(13)
H21 H 0.04140 0.14890 0.80330
N1 N -0.06157(13) 0.36384(15) 0.86839(11)
N2 N -0.14088(14) 0.71214(16) 0.73448(12)
H22 H -0.20160 0.75680 0.72640
N3 N 0.25212(13) 0.33568(15) 0.89258(12)
H23 H 0.29590 0.27420 0.88680
O1 O -0.08272(13) 0.37855(18) 0.93509(10)
O2 O -0.13240(13) 0.33362(18) 0.81048(11)
O3 O 0.54908(11) 0.62995(14) 0.86744(11)
O4 O 0.21823(12) 0.18024(12) 1.05153(8)
#END
