
#######################################################################
#
#                 Cambridge Crystallographic Data Centre
#                                CCDC
#
#######################################################################
#
# If this CIF has been generated from an entry in the Cambridge
# Structural Database, then it will include bibliographic, chemical,
# crystal, experimental, refinement or atomic coordinate data resulting
# from the CCDC's data processing and validation procedures.
#
#######################################################################

data_CSD_CIF_CUDDAG
_audit_creation_date 1985-09-20
_audit_creation_method CSD-ConQuest-V1
_database_code_CSD CUDDAG
_chemical_formula_sum 'C20 H21 N5 O2'
_chemical_formula_moiety
;
C20 H21 N5 O2
;
_journal_coden_Cambridge 24
_journal_volume 26
_journal_year 1985
_journal_page_first 515
_journal_name_full 'Tetrahedron Lett. '
loop_
_publ_author_name
"O.N.Chupakhin"
"V.N.Charushin"
"G.M.Petrova"
"G.G.Aleksandrov"
_chemical_name_systematic
;
3,8,10-Trimethyl-8-nitrodibenzo(d,k)-1,3,6,10-tetra-azatetracyclo(7.3.1.0^2,7^
.0^6,13^)tridecane-4,11-diene
;
_chemical_melting_point 490.15
_cell_volume   1776.203
_exptl_crystal_density_diffrn 1.31
_exptl_special_details
;
Melting point range 490.15-491.15K
We calculate dx=1.36

;
_diffrn_ambient_temperature ?
_diffrn_special_details
;
The study was carried out at room temperature,in the range 283-303K

;
#These two values have been output from a single CSD field.
_refine_ls_R_factor_gt 0.056
_refine_ls_wR_factor_gt 0.056
_symmetry_cell_setting monoclinic
_symmetry_space_group_name_H-M 'P 21/c'
_symmetry_Int_Tables_number 14
loop_
_symmetry_equiv_pos_site_id
_symmetry_equiv_pos_as_xyz
1 x,y,z
2 -x,1/2+y,1/2-z
3 -x,-y,-z
4 x,-1/2-y,-1/2+z
_cell_length_a 7.751(1)
_cell_length_b 17.159(4)
_cell_length_c 13.855(3)
_cell_angle_alpha 90
_cell_angle_beta 105.44(2)
_cell_angle_gamma 90
_cell_formula_units_Z 4
loop_
_atom_type_symbol
_atom_type_radius_bond
C 0.68
H 0.23
N 0.68
O 0.68
loop_
_atom_site_label
_atom_site_type_symbol
_atom_site_fract_x
_atom_site_fract_y
_atom_site_fract_z
C1 C 0.1599(4) -0.0622(2) 0.6964(3)
C2 C 0.3396(4) -0.0425(2) 0.7233(2)
C3 C 0.0989(5) -0.1266(2) 0.7395(3)
C4 C 0.2186(5) -0.1715(2) 0.8070(3)
C5 C 0.3997(5) -0.1535(2) 0.8351(2)
C6 C 0.4634(4) -0.0888(2) 0.7921(2)
N1 N 0.6442(3) -0.0714(1) 0.8161(2)
C7 C 0.7054(4) -0.0027(2) 0.7747(2)
C8 C 0.6979(4) 0.0752(2) 0.8335(2)
C9 C 0.5819(4) 0.1271(2) 0.7511(2)
N2 N 0.6389(3) 0.1000(1) 0.6628(2)
C10 C 0.5389(4) 0.1390(2) 0.5732(2)
C11 C 0.6189(4) 0.1511(2) 0.4970(2)
C12 C 0.5295(5) 0.1917(2) 0.4100(2)
C13 C 0.3596(5) 0.2187(2) 0.4029(2)
C14 C 0.2754(4) 0.2068(2) 0.4787(2)
C15 C 0.3642(4) 0.1667(2) 0.5661(2)
N3 N 0.2887(3) 0.1564(1) 0.6456(2)
C16 C 0.3862(4) 0.1014(2) 0.7204(2)
N4 N 0.3994(3) 0.0234(1) 0.6760(2)
C17 C 0.5875(4) 0.0184(2) 0.6715(2)
N5 N 0.8851(4) 0.1120(2) 0.8632(2)
O1 O 1.0155(4) 0.0702(2) 0.8749(2)
O2 O 0.8970(4) 0.1800(2) 0.8772(3)
C18 C 0.7725(5) -0.1183(2) 0.8872(2)
C19 C 0.0936(4) 0.1497(2) 0.6215(3)
C20 C 0.6408(5) 0.0690(2) 0.9283(2)
H1 H 0.07700 -0.02300 0.64000
H2 H -0.03900 -0.14100 0.71300
H3 H 0.17500 -0.22300 0.84700
H4 H 0.50500 -0.18100 0.89400
H5 H 0.84000 -0.01400 0.77000
H6 H 0.59500 0.18200 0.76100
H7 H 0.74600 0.12400 0.50400
H8 H 0.61800 0.19900 0.36500
H9 H 0.28600 0.25400 0.34200
H10 H 0.13900 0.22000 0.47300
H11 H 0.32400 0.09900 0.77700
H12 H 0.60200 -0.01800 0.61500
H13 H 0.77100 -0.17900 0.86300
H14 H 0.75000 -0.10700 0.95700
H15 H 0.89800 -0.09500 0.89400
H16 H 0.06700 0.14100 0.69000
H17 H 0.04600 0.10300 0.56600
H18 H 0.02600 0.20400 0.58800
H19 H 0.52700 0.04100 0.91300
H20 H 0.62000 0.12300 0.95700
H21 H 0.73500 0.03500 0.98400
#END
