
#######################################################################
#
#                 Cambridge Crystallographic Data Centre
#                                CCDC
#
#######################################################################
#
# If this CIF has been generated from an entry in the Cambridge
# Structural Database, then it will include bibliographic, chemical,
# crystal, experimental, refinement or atomic coordinate data resulting
# from the CCDC's data processing and validation procedures.
#
#######################################################################

data_CSD_CIF_CUDJAM
_audit_creation_date 1985-09-20
_audit_creation_method CSD-ConQuest-V1
_database_code_CSD CUDJAM
_chemical_formula_sum 'C6 H10 N4 O3'
_chemical_formula_moiety
;
C6 H10 N4 O3
;
_journal_coden_Cambridge 82
_journal_volume 25
_journal_year 1984
_journal_page_first 117-5
_journal_name_full 'Zh.Strukt.Khim.(Russ.)(J.Struct.Chem.) '
loop_
_publ_author_name
"A.F.Mishnev"
"M.F.Bundule"
"Ya.Ya.Bleidelis"
"V.G.Andrianov"
"A.V.Eremeev"
_chemical_name_systematic
;
Z,Z'-1-Methyl-2-(2-carbamoylaziridino)-glyoxime
;
_cell_volume    842.262
_exptl_crystal_density_diffrn 1.47
_diffrn_ambient_temperature ?
_diffrn_special_details
;
The study was carried out at room temperature,in the range 283-303K

;
#These two values have been output from a single CSD field.
_refine_ls_R_factor_gt 0.038
_refine_ls_wR_factor_gt 0.038
_symmetry_cell_setting monoclinic
_symmetry_space_group_name_H-M 'P 21/c'
_symmetry_Int_Tables_number 14
loop_
_symmetry_equiv_pos_site_id
_symmetry_equiv_pos_as_xyz
1 x,y,z
2 -x,1/2+y,1/2-z
3 -x,-y,-z
4 x,-1/2-y,-1/2+z
_cell_length_a 13.050(3)
_cell_length_b 4.910(1)
_cell_length_c 14.099(2)
_cell_angle_alpha 90
_cell_angle_beta 111.2(1)
_cell_angle_gamma 90
_cell_formula_units_Z 4
loop_
_atom_type_symbol
_atom_type_radius_bond
C 0.68
H 0.23
N 0.68
O 0.68
loop_
_atom_site_label
_atom_site_type_symbol
_atom_site_fract_x
_atom_site_fract_y
_atom_site_fract_z
O1 O 0.5187(2) 0.3723(4) 0.1118(2)
O2 O 0.1155(2) -0.0320(4) -0.0199(2)
O3 O 0.2710(2) 0.7552(4) 0.3077(2)
N1 N 0.2895(2) 0.2702(4) 0.0796(2)
N2 N 0.2793(2) 0.5811(5) 0.2328(2)
N3 N 0.1043(2) 0.1486(5) 0.0540(2)
N4 N 0.4860(3) 0.8030(7) 0.1468(2)
C1 C 0.1874(2) 0.4743(6) 0.1794(2)
C2 C 0.1913(2) 0.2938(5) 0.0977(2)
C3 C 0.2903(3) 0.3083(7) -0.0234(2)
C4 C 0.3344(2) 0.5251(6) 0.0530(2)
C5 C 0.0819(3) 0.5238(10) 0.1956(4)
C6 C 0.4546(2) 0.5619(6) 0.1064(2)
H2 H 0.04800 -0.10000 -0.04100
H3 H 0.33500 0.80000 0.33400
H14 H 0.55700 0.83000 0.17600
H24 H 0.44400 0.92400 0.13500
H13 H 0.22300 0.34500 -0.07100
H23 H 0.33900 0.18700 -0.04100
H4 H 0.28900 0.69400 0.04600
H15 H 0.02400 0.51500 0.14100
H25 H 0.08700 0.49100 0.25700
H35 H 0.06900 0.68900 0.21600
#END
