
#######################################################################
#
#                 Cambridge Crystallographic Data Centre
#                                CCDC
#
#######################################################################
#
# If this CIF has been generated from an entry in the Cambridge
# Structural Database, then it will include bibliographic, chemical,
# crystal, experimental, refinement or atomic coordinate data resulting
# from the CCDC's data processing and validation procedures.
#
#######################################################################

data_CSD_CIF_CUDSEB
_audit_creation_date 2015-03-01
_audit_creation_method CSD-ConQuest-V1
_database_code_CSD CUDSEB
_database_code_depnum_ccdc_archive 'CCDC 893537'
_chemical_formula_sum 'C16 H18 N4 O2'
_chemical_formula_moiety
;
C16 H18 N4 O2
;
_journal_coden_Cambridge 1089
_journal_volume 25
_journal_year 2013
_journal_page_first 1796
_journal_name_full 'Adv.Mater. '
loop_
_publ_author_name
"O.S.Bushuyev"
"T.A.Singleton"
"C.J.Barrett"
_chemical_name_systematic
;
N,N-diethyl-4-((4-nitrophenyl)diazenyl)aniline
;
_cell_volume   1472.237
_exptl_crystal_density_diffrn 1.346
_diffrn_ambient_temperature 100
#These two values have been output from a single CSD field.
_refine_ls_R_factor_gt 0.0556
_refine_ls_wR_factor_gt 0.0556
_symmetry_cell_setting triclinic
_symmetry_space_group_name_H-M 'P -1'
_symmetry_Int_Tables_number 2
loop_
_symmetry_equiv_pos_site_id
_symmetry_equiv_pos_as_xyz
1 x,y,z
2 -x,-y,-z
_cell_length_a 7.5988(17)
_cell_length_b 11.089(3)
_cell_length_c 19.088(4)
_cell_angle_alpha 75.749(3)
_cell_angle_beta 85.573(3)
_cell_angle_gamma 70.805(3)
_cell_formula_units_Z 4
loop_
_atom_type_symbol
_atom_type_radius_bond
C 0.68
H 0.23
N 0.68
O 0.68
loop_
_atom_site_label
_atom_site_type_symbol
_atom_site_fract_x
_atom_site_fract_y
_atom_site_fract_z
N1 N 0.6893(5) 0.5209(3) 0.07035(18)
N2 N 0.7980(5) 0.4112(3) 0.10285(17)
O1 O 0.6448(4) 0.7485(3) -0.26560(15)
C1 C 0.7907(6) 0.3194(4) 0.3307(2)
C2 C 0.7852(6) 0.3860(4) 0.1787(2)
C3 C 0.6536(5) 0.4312(4) 0.2917(2)
H1 H 0.55990 0.48420 0.31720
C4 C 0.7165(6) 0.6029(4) -0.1539(2)
C5 C 0.6534(5) 0.4643(4) 0.2179(2)
H2 H 0.56240 0.54180 0.19290
N3 N 0.7946(5) 0.2879(3) 0.40465(18)
N4 N 0.7206(5) 0.6347(4) -0.23278(17)
C6 C 0.8317(5) 0.4546(4) -0.0421(2)
H3 H 0.91210 0.37360 -0.01530
C7 C 0.9231(6) 0.2404(4) 0.2910(2)
H4 H 1.01650 0.16400 0.31560
C8 C 0.9175(5) 0.2738(4) 0.2168(2)
H5 H 1.00640 0.21870 0.19080
O2 O 0.8006(4) 0.5451(3) -0.26294(15)
C9 C 0.7073(6) 0.5435(4) -0.0065(2)
C10 C 0.8366(5) 0.4856(4) -0.1164(2)
H6 H 0.92180 0.42690 -0.14160
C11 C 0.5926(5) 0.6930(4) -0.1201(2)
H7 H 0.51300 0.77390 -0.14720
C12 C 0.5881(5) 0.6617(4) -0.0454(2)
H8 H 0.50330 0.72110 -0.02050
C13 C 0.9369(6) 0.1734(4) 0.4451(2)
H9 H 0.95730 0.09930 0.42190
H10 H 0.89110 0.14790 0.49470
C14 C 0.6547(5) 0.3668(4) 0.4466(2)
H11 H 0.62660 0.46090 0.42220
H12 H 0.70660 0.35320 0.49500
C15 C 0.4749(6) 0.3325(4) 0.4554(2)
H13 H 0.42520 0.34270 0.40760
H14 H 0.38360 0.39130 0.48130
H15 H 0.50010 0.24140 0.48290
C16 C 1.1227(6) 0.1965(4) 0.4495(2)
H16 H 1.16530 0.22710 0.40060
H17 H 1.21540 0.11420 0.47350
H18 H 1.10670 0.26300 0.47710
N5 N 0.7428(4) 1.0624(3) -0.02666(18)
C17 C 0.7922(5) 0.8563(4) 0.2353(2)
N6 N 0.7500(4) 0.9473(3) 0.00699(19)
C18 C 0.7652(5) 0.9239(4) 0.0832(2)
C19 C 0.7104(6) 1.1449(4) -0.2513(2)
O3 O 0.6799(4) 1.2925(3) -0.36267(15)
C20 C 0.7989(5) 0.9804(4) 0.1938(2)
H19 H 0.81130 1.04270 0.21780
C21 C 0.7597(5) 0.8018(4) 0.1226(2)
H20 H 0.74610 0.74080 0.09780
C22 C 0.7288(5) 1.0829(4) -0.1032(2)
C23 C 0.7398(5) 1.2035(4) -0.1423(2)
H21 H 0.75320 1.26450 -0.11750
N7 N 0.7030(5) 1.1772(4) -0.33029(18)
C24 C 0.6960(5) 1.0245(4) -0.2134(2)
H22 H 0.68020 0.96440 -0.23830
C25 C 0.7051(5) 0.9936(4) -0.1389(2)
H23 H 0.69530 0.91180 -0.11200
N8 N 0.8055(5) 0.8249(3) 0.30898(17)
C26 C 0.7737(5) 0.7675(4) 0.1967(2)
H24 H 0.77090 0.68300 0.22230
O4 O 0.7209(4) 1.0886(3) -0.36111(15)
C27 C 0.7314(5) 1.2361(4) -0.2176(2)
H25 H 0.73980 1.31820 -0.24480
C28 C 0.7879(5) 1.0119(4) 0.1199(2)
H26 H 0.79580 1.09450 0.09340
C29 C 0.8325(5) 0.9141(4) 0.3489(2)
H27 H 0.90880 0.96490 0.31940
H28 H 0.90280 0.86160 0.39380
C30 C 0.7676(5) 0.7094(4) 0.3545(2)
H29 H 0.69840 0.67640 0.32580
H30 H 0.68730 0.73530 0.39520
C31 C 0.6510(5) 1.0093(4) 0.3685(2)
H31 H 0.58190 1.06330 0.32430
H32 H 0.67850 1.06610 0.39520
H33 H 0.57570 0.95990 0.39870
C32 C 0.9439(6) 0.5996(4) 0.3845(2)
H34 H 1.01940 0.56860 0.34450
H35 H 0.91050 0.52690 0.41680
H36 H 1.01540 0.63250 0.41150
#END
