
#######################################################################
#
#                 Cambridge Crystallographic Data Centre
#                                CCDC
#
#######################################################################
#
# If this CIF has been generated from an entry in the Cambridge
# Structural Database, then it will include bibliographic, chemical,
# crystal, experimental, refinement or atomic coordinate data resulting
# from the CCDC's data processing and validation procedures.
#
#######################################################################

data_CSD_CIF_CUDYIL
_audit_creation_date 2015-03-01
_audit_creation_method CSD-ConQuest-V1
_database_code_CSD CUDYIL
_database_code_depnum_ccdc_archive 'CCDC 832869'
_chemical_formula_sum 'C8 H9 N3 O6'
_chemical_formula_moiety
;
C8 H9 N3 O6
;
_journal_coden_Cambridge 1003
_journal_volume 44
_journal_year 2014
_journal_page_first 597
_journal_name_full 'J.Chem.Cryst. '
loop_
_publ_author_name
"Wuqiang Liu"
"Xiaogang Feng"
"Yangyang Tao"
"Zheng Zhou"
"Guanghui Wu"
"Jing Xiong"
_chemical_name_systematic
;
Methyl 3-(5-nitro-2,4-dioxo-3,4-dihydropyrimidin-1(2H)-yl)propanoate
;
_cell_volume    512.791
_exptl_crystal_colour 'colorless'
_exptl_crystal_density_diffrn 1.575
_exptl_crystal_description 'Block'
_diffrn_ambient_temperature 298
#These two values have been output from a single CSD field.
_refine_ls_R_factor_gt 0.0333
_refine_ls_wR_factor_gt 0.0333
_symmetry_cell_setting monoclinic
_symmetry_space_group_name_H-M 'P 21'
_symmetry_Int_Tables_number 4
loop_
_symmetry_equiv_pos_site_id
_symmetry_equiv_pos_as_xyz
1 x,y,z
2 -x,1/2+y,-z
_cell_length_a 8.0342(14)
_cell_length_b 5.7155(10)
_cell_length_c 11.572(2)
_cell_angle_alpha 90
_cell_angle_beta 105.200(3)
_cell_angle_gamma 90
_cell_formula_units_Z 2
loop_
_atom_type_symbol
_atom_type_radius_bond
C 0.68
H 0.23
N 0.68
O 0.68
loop_
_atom_site_label
_atom_site_type_symbol
_atom_site_fract_x
_atom_site_fract_y
_atom_site_fract_z
O1 O 0.4397(2) 0.2994(3) 0.94753(15)
O2 O -0.06719(19) -0.0479(3) 0.93471(15)
O3 O -0.1374(3) -0.4325(4) 0.7894(2)
O4 O 0.0659(3) -0.5696(3) 0.71895(17)
O5 O 0.2741(3) 0.0908(3) 0.54739(17)
O6 O 0.3222(2) 0.4754(3) 0.55393(14)
N1 N 0.36338(19) -0.0078(3) 0.81918(14)
N2 N 0.1926(2) 0.1053(3) 0.94348(16)
H1 H 0.17820 0.19480 0.99980
N3 N 0.0058(3) -0.4196(3) 0.77284(16)
C1 C 0.3394(3) 0.1438(4) 0.90748(18)
C2 C 0.0656(3) -0.0566(4) 0.90176(18)
C3 C 0.1099(3) -0.2193(4) 0.81815(17)
C4 C 0.2536(3) -0.1857(3) 0.78056(18)
H2 H 0.27760 -0.29020 0.72550
C5 C 0.5169(3) 0.0275(4) 0.7729(2)
H3 H 0.52800 -0.10410 0.72250
H4 H 0.61930 0.03170 0.83970
C6 C 0.5065(3) 0.2505(4) 0.7018(2)
H5 H 0.49860 0.38190 0.75310
H6 H 0.61200 0.26840 0.67680
C7 C 0.3558(3) 0.2581(4) 0.5930(2)
C8 C 0.1732(4) 0.5078(6) 0.4534(2)
H7 H 0.07170 0.45550 0.47480
H8 H 0.18760 0.41880 0.38630
H9 H 0.16150 0.67060 0.43240
#END
