
#######################################################################
#
#                 Cambridge Crystallographic Data Centre
#                                CCDC
#
#######################################################################
#
# If this CIF has been generated from an entry in the Cambridge
# Structural Database, then it will include bibliographic, chemical,
# crystal, experimental, refinement or atomic coordinate data resulting
# from the CCDC's data processing and validation procedures.
#
#######################################################################

data_CSD_CIF_CUFLAQ
_audit_creation_date 1985-09-20
_audit_creation_method CSD-ConQuest-V1
_database_code_CSD CUFLAQ
_chemical_formula_sum 'C19 H36 N2 O4'
_chemical_formula_moiety
;
C19 H36 N2 O4
;
_journal_coden_Cambridge 41
_journal_volume 30
_journal_year 1985
_journal_page_first 190
_journal_name_full 'Kristallografiya(Russ.)(Crystallogr.Rep.) '
loop_
_publ_author_name
"R.P.Shibaeva"
"V.I.Suskina"
"A.B.Shapiro"
_chemical_name_systematic
;
3,3'-bis(4-Hydroxy-1-oxy-2,2,6,6-tetramethyl-3-piperidyl)-methane
;
_cell_volume   2081.658
_exptl_crystal_density_diffrn 1.14
_diffrn_ambient_temperature ?
_diffrn_special_details
;
The study was carried out at room temperature,in the range 283-303K

;
#These two values have been output from a single CSD field.
_refine_ls_R_factor_gt 0.045
_refine_ls_wR_factor_gt 0.045
_symmetry_cell_setting monoclinic
_symmetry_space_group_name_H-M 'P 21/c'
_symmetry_Int_Tables_number 14
loop_
_symmetry_equiv_pos_site_id
_symmetry_equiv_pos_as_xyz
1 x,y,z
2 -x,1/2+y,1/2-z
3 -x,-y,-z
4 x,-1/2-y,-1/2+z
_cell_length_a 13.213(4)
_cell_length_b 13.930(3)
_cell_length_c 12.154(2)
_cell_angle_alpha 90
_cell_angle_beta 111.48(2)
_cell_angle_gamma 90
_cell_formula_units_Z 4
loop_
_atom_type_symbol
_atom_type_radius_bond
C 0.68
H 0.23
N 0.68
O 0.68
loop_
_atom_site_label
_atom_site_type_symbol
_atom_site_fract_x
_atom_site_fract_y
_atom_site_fract_z
O1 O 0.0107(2) 0.3437(2) 0.2289(2)
O2 O 0.5217(1) 0.8756(1) 0.3792(2)
O3 O 0.3650(1) 0.4176(1) 0.2710(2)
O4 O 0.1908(1) 0.7650(1) 0.3847(2)
N1 N 0.0879(2) 0.3889(2) 0.2089(2)
N2 N 0.4264(2) 0.8367(1) 0.3423(2)
C1 C 0.2945(2) 0.5914(2) 0.3521(2)
C2 C 0.1472(2) 0.4603(2) 0.3017(2)
C3 C 0.2173(2) 0.5254(2) 0.2547(2)
C4 C 0.2788(2) 0.4717(2) 0.1898(2)
C5 C 0.2011(2) 0.4116(2) 0.0910(2)
C6 C 0.1311(2) 0.3402(2) 0.1264(2)
C7 C 0.0599(3) 0.5221(3) 0.3233(3)
C8 C 0.2139(3) 0.4057(2) 0.4146(2)
C9 C 0.0338(2) 0.3106(2) 0.0164(3)
C10 C 0.1934(2) 0.2498(2) 0.1863(3)
C11 C 0.4214(2) 0.7360(2) 0.3819(2)
C12 C 0.3123(2) 0.6894(2) 0.3041(2)
C13 C 0.2141(2) 0.7545(2) 0.2795(2)
C14 C 0.2314(2) 0.8490(2) 0.2268(2)
C15 C 0.3333(2) 0.9045(2) 0.3014(2)
C16 C 0.5144(2) 0.6815(2) 0.3616(2)
C17 C 0.4420(2) 0.7368(2) 0.5145(2)
C18 C 0.3204(2) 0.9554(2) 0.4074(2)
C19 C 0.3574(3) 0.9803(2) 0.2243(3)
H30 H 0.361(3) 0.357(2) 0.251(3)
H10' H 0.262(3) 0.270(3) 0.260(3)
H40 H 0.126(3) 0.799(2) 0.363(3)
H101 H 0.143(3) 0.208(2) 0.218(3)
H1 H 0.367(2) 0.557(2) 0.394(2)
H12 H 0.316(2) 0.679(2) 0.217(2)
H1' H 0.264(2) 0.604(2) 0.414(2)
H13 H 0.145(2) 0.720(2) 0.219(2)
H3 H 0.164(2) 0.569(2) 0.190(2)
H14 H 0.234(2) 0.837(2) 0.148(2)
H4 H 0.315(2) 0.523(2) 0.153(2)
H14' H 0.166(2) 0.893(2) 0.210(2)
H5 H 0.154(2) 0.462(2) 0.032(2)
H16 H 0.506(3) 0.682(2) 0.266(3)
H5' H 0.241(2) 0.377(2) 0.049(2)
H16' H 0.513(2) 0.605(2) 0.392(2)
H7 H 0.100(3) 0.574(3) 0.379(3)
H161 H 0.579(3) 0.711(2) 0.407(3)
H7' H 0.015(3) 0.548(3) 0.248(3)
H17 H 0.510(2) 0.778(2) 0.558(2)
H71 H 0.021(3) 0.473(3) 0.364(3)
H17' H 0.466(2) 0.670(2) 0.549(2)
H8 H 0.166(3) 0.363(3) 0.430(3)
H171 H 0.384(2) 0.764(2) 0.533(2)
H8' H 0.278(3) 0.373(3) 0.403(3)
H18 H 0.390(3) 0.989(2) 0.456(3)
H81 H 0.239(3) 0.456(3) 0.486(3)
H18' H 0.307(3) 0.913(3) 0.461(3)
H9 H -0.016(3) 0.368(2) -0.018(3)
H181 H 0.254(3) 1.009(3) 0.384(3)
H9' H -0.016(3) 0.261(3) 0.037(3)
H19 H 0.415(3) 1.018(2) 0.265(3)
H91 H 0.053(3) 0.279(3) -0.042(3)
H19' H 0.299(3) 1.027(2) 0.193(3)
H10 H 0.213(3) 0.215(2) 0.134(3)
H191 H 0.377(3) 0.949(2) 0.148(3)
#END
