
#######################################################################
#
#                 Cambridge Crystallographic Data Centre
#                                CCDC
#
#######################################################################
#
# If this CIF has been generated from an entry in the Cambridge
# Structural Database, then it will include bibliographic, chemical,
# crystal, experimental, refinement or atomic coordinate data resulting
# from the CCDC's data processing and validation procedures.
#
#######################################################################

data_CSD_CIF_CUFVEE
_audit_creation_date 1985-09-20
_audit_creation_method CSD-ConQuest-V1
_database_code_CSD CUFVEE
_chemical_formula_sum 'C18 H21 N5 O3'
_chemical_formula_moiety
;
C18 H21 N5 O3
;
_journal_coden_Cambridge 16
_journal_volume 40
_journal_year 1984
_journal_page_first 4025
_journal_name_full 'Tetrahedron '
loop_
_publ_author_name
"M.L.Gelmi"
"D.Pocar"
"P.Trimarco"
"M.Valsecchi"
"R.Destro"
"M.Ballabio"
_chemical_name_systematic
;
5'-Morpholino-1'-(4-nitrophenyl)-4',5'-dihydro-spiro(bicyclo(2.2.1)hept-2-ene(
5.4')-1',2',3'-triazole)
;
_chemical_melting_point 401.15
_cell_volume   1721.148
_exptl_crystal_colour 'yellowish'
_exptl_crystal_density_diffrn 1.371
_exptl_special_details
;
Melts with decomposition.

;
_diffrn_ambient_temperature ?
_diffrn_special_details
;
The study was carried out at room temperature,in the range 283-303K

;
#These two values have been output from a single CSD field.
_refine_ls_R_factor_gt 0.039
_refine_ls_wR_factor_gt 0.039
_symmetry_cell_setting monoclinic
_symmetry_space_group_name_H-M 'P 21/c'
_symmetry_Int_Tables_number 14
loop_
_symmetry_equiv_pos_site_id
_symmetry_equiv_pos_as_xyz
1 x,y,z
2 -x,1/2+y,1/2-z
3 -x,-y,-z
4 x,-1/2-y,-1/2+z
_cell_length_a 6.590(2)
_cell_length_b 15.805(3)
_cell_length_c 16.541(3)
_cell_angle_alpha 90
_cell_angle_beta 92.53(1)
_cell_angle_gamma 90
_cell_formula_units_Z 4
loop_
_atom_type_symbol
_atom_type_radius_bond
C 0.68
H 0.23
N 0.68
O 0.68
loop_
_atom_site_label
_atom_site_type_symbol
_atom_site_fract_x
_atom_site_fract_y
_atom_site_fract_z
C1 C 0.5423(3) -0.0716(1) 0.6982(1)
C2 C 0.4875(4) -0.0816(2) 0.6067(1)
C3 C 0.4911(5) -0.1784(2) 0.5940(1)
C4 C 0.7082(5) -0.2053(2) 0.6082(2)
C5 C 0.7531(4) -0.1991(2) 0.6865(2)
C6 C 0.5690(4) -0.1671(2) 0.7254(1)
C7 C 0.3989(5) -0.2079(2) 0.6728(2)
C8 C 0.7230(3) -0.0164(1) 0.7264(1)
C9 C 0.9407(3) 0.0423(2) 0.6227(1)
C10 C 1.0268(4) 0.1265(2) 0.5995(1)
C11 C 0.7264(4) 0.1956(1) 0.6255(1)
C12 C 0.6284(3) 0.1143(1) 0.6500(1)
C13 C 0.7521(3) 0.0500(1) 0.8677(1)
C14 C 0.9568(3) 0.0685(1) 0.8621(1)
C15 C 1.0659(3) 0.1014(4) 0.9274(1)
C16 C 0.9725(3) 0.1147(1) 0.9990(1)
C17 C 0.7686(3) 0.0981(1) 1.0057(1)
C18 C 0.6583(3) 0.0661(1) 0.9402(1)
N1 N 0.6447(2) 0.0120(1) 0.8034(1)
N2 N 0.4367(3) 0.0044(1) 0.8032(1)
N3 N 0.3704(3) -0.0374(1) 0.7432(1)
N4 N 0.7838(2) 0.0559(1) 0.6800(1)
N5 N 1.0935(3) 0.1441(1) 1.0693(1)
O1 O 1.2701(2) 0.1659(1) 1.0602(1)
O2 O 1.0147(3) 0.1439(1) 1.1353(1)
O3 O 0.8742(2) 0.1814(1) 0.5668(1)
H1 H 0.348(3) -0.055(1) 0.594(1)
H2 H 0.431(3) -0.197(2) 0.546(1)
H3 H 0.801(4) -0.219(2) 0.567(1)
H4 H 0.890(3) -0.204(1) 0.712(1)
H5 H 0.566(3) -0.173(1) 0.782(1)
H6 H 0.260(4) -0.188(2) 0.681(2)
H7 H 0.402(4) -0.267(2) 0.678(1)
H8 H 0.845(2) -0.050(1) 0.7363(9)
H9 H 1.047(3) 0.002(1) 0.649(1)
H10 H 0.888(3) 0.012(1) 0.571(1)
H11 H 1.126(3) 0.118(1) 0.557(1)
H12 H 1.103(3) 0.156(1) 0.650(1)
H13 H 0.623(3) 0.234(1) 0.598(1)
H14 H 0.798(3) 0.225(1) 0.674(1)
H15 H 0.543(3) 0.091(1) 0.601(1)
H16 H 0.535(3) 0.127(1) 0.693(1)
H17 H 1.021(2) 0.057(1) 0.814(1)
H18 H 1.221(3) 0.112(1) 0.923(1)
H19 H 0.709(3) 0.108(1) 1.054(1)
H20 H 0.516(3) 0.055(1) 0.943(1)
#END
