
#######################################################################
#
#                 Cambridge Crystallographic Data Centre
#                                CCDC
#
#######################################################################
#
# If this CIF has been generated from an entry in the Cambridge
# Structural Database, then it will include bibliographic, chemical,
# crystal, experimental, refinement or atomic coordinate data resulting
# from the CCDC's data processing and validation procedures.
#
#######################################################################

data_CSD_CIF_CUGBEM
_audit_creation_date 2010-07-29
_audit_creation_method CSD-ConQuest-V1
_database_code_CSD CUGBEM
_database_code_depnum_ccdc_archive 'CCDC 752298'
_chemical_formula_sum 'C16 H13 N5 O2'
_chemical_formula_moiety
;
C16 H13 N5 O2
;
_journal_coden_Cambridge 1135
_journal_volume 19
_journal_year 2009
_journal_page_first 320
_journal_name_full 'Mendeleev Commun. '
loop_
_publ_author_name
"I.A.Cherepanov"
"E.D.Savin"
"N.G.Frolova"
"M.O.Shishkova"
"I.A.Godovikov"
"K.Yu.Suponitsky"
"K.A.Lyssenko"
"V.N.Kalinin"
_chemical_name_systematic
;
N-(4-(2,2-dicyanovinyl)-3-isopropyl-1,2,3-oxadiazol-3-ium-5-yl)benzamide
;
_cell_volume   1503.955
_exptl_crystal_colour 'green'
_exptl_crystal_density_diffrn 1.357
_exptl_crystal_description 'prism'
_diffrn_ambient_temperature 100
#These two values have been output from a single CSD field.
_refine_ls_R_factor_gt 0.0452
_refine_ls_wR_factor_gt 0.0452
_symmetry_cell_setting monoclinic
_symmetry_space_group_name_H-M 'P 21/n'
_symmetry_Int_Tables_number 14
loop_
_symmetry_equiv_pos_site_id
_symmetry_equiv_pos_as_xyz
1 x,y,z
2 1/2-x,1/2+y,1/2-z
3 -x,-y,-z
4 -1/2+x,-1/2-y,-1/2+z
_cell_length_a 12.225(2)
_cell_length_b 8.9380(16)
_cell_length_c 14.159(2)
_cell_angle_alpha 90
_cell_angle_beta 103.565(4)
_cell_angle_gamma 90
_cell_formula_units_Z 4
loop_
_atom_type_symbol
_atom_type_radius_bond
C 0.68
H 0.23
N 0.68
O 0.68
loop_
_atom_site_label
_atom_site_type_symbol
_atom_site_fract_x
_atom_site_fract_y
_atom_site_fract_z
O1 O 0.04541(8) 0.20907(11) 0.07984(7)
N1 N 0.10909(10) 0.09923(14) 0.05066(9)
N2 N 0.19782(9) 0.16678(13) 0.03742(8)
C1 C 0.20205(11) 0.31610(16) 0.05839(10)
C2 C 0.10112(11) 0.34624(16) 0.08762(10)
N3 N 0.0647(1) 0.47096(14) 0.11374(8)
C3 C -0.03916(12) 0.47945(17) 0.13766(11)
O2 O -0.10743(9) 0.37792(13) 0.13055(9)
C4 C -0.06136(11) 0.62979(16) 0.17614(10)
C5 C -0.14922(12) 0.64290(17) 0.22347(11)
H1 H -0.19450 0.55820 0.22850
C6 C -0.17086(12) 0.77831(18) 0.26306(11)
H2 H -0.23070 0.78650 0.29520
C7 C -0.10458(12) 0.90206(18) 0.25553(11)
H3 H -0.11830 0.99480 0.28350
C8 C -0.01820(12) 0.89036(17) 0.20715(10)
H4 H 0.02610 0.97560 0.20100
C9 C 0.00331(11) 0.75477(17) 0.1679(1)
H5 H 0.06260 0.74710 0.13520
C10 C 0.29163(11) 0.40917(16) 0.04535(10)
H6 H 0.33300 0.37350 0.00090
C11 C 0.32558(11) 0.54193(16) 0.08811(10)
C12 C 0.28865(11) 0.61022(17) 0.16716(10)
N4 N 0.2723(1) 0.67049(16) 0.23386(10)
C13 C 0.41836(12) 0.62011(17) 0.06340(11)
N5 N 0.49244(11) 0.68442(15) 0.04633(10)
C14 C 0.28762(12) 0.07384(16) 0.00937(10)
H7 H 0.31220 0.12520 -0.04490
C15 C 0.38768(12) 0.06392(18) 0.09643(11)
H8 H 0.41680 0.16460 0.11470
H9 H 0.44680 0.00280 0.07950
H10 H 0.36380 0.01790 0.15120
C16 C 0.24112(13) -0.07916(17) -0.02573(11)
H11 H 0.17270 -0.06700 -0.07740
H12 H 0.22330 -0.13460 0.02850
H13 H 0.29740 -0.13460 -0.05090
#END
