
#######################################################################
#
#                 Cambridge Crystallographic Data Centre
#                                CCDC
#
#######################################################################
#
# If this CIF has been generated from an entry in the Cambridge
# Structural Database, then it will include bibliographic, chemical,
# crystal, experimental, refinement or atomic coordinate data resulting
# from the CCDC's data processing and validation procedures.
#
#######################################################################

data_CSD_CIF_CUGCOW
_audit_creation_date 2000-05-03
_audit_creation_method CSD-ConQuest-V1
_database_code_CSD CUGCOW
_database_code_depnum_ccdc_archive 'CCDC 127761'
_chemical_formula_sum 'C8 H1 N7 O14'
_chemical_formula_moiety
;
C8 H1 N7 O14
;
_journal_coden_Cambridge 179
_journal_volume 39
_journal_year 2000
_journal_page_first 401
_journal_name_full 'Angew.Chem.,Int.Ed. '
loop_
_publ_author_name
"Mao-Xi Zhang"
"P.E.Eaton"
"R.Gilardi"
_chemical_name_systematic
;
Heptanitrocubane
;
_cell_volume   2750.811
_exptl_crystal_colour 'colorless'
_exptl_crystal_density_diffrn 2.024
_exptl_crystal_description 'prism'
_exptl_crystal_preparation 'fuming nitric acid/sulfuric acid'
_diffrn_ambient_temperature ?
_diffrn_special_details
;
The study was carried out at room temperature,in the range 283-303K

;
#These two values have been output from a single CSD field.
_refine_ls_R_factor_gt 0.0381
_refine_ls_wR_factor_gt 0.0381
_symmetry_cell_setting orthorhombic
_symmetry_space_group_name_H-M 'P b c n'
_symmetry_Int_Tables_number 60
loop_
_symmetry_equiv_pos_site_id
_symmetry_equiv_pos_as_xyz
1 x,y,z
2 1/2+x,1/2+y,1/2-z
3 x,-y,1/2+z
4 1/2-x,1/2+y,z
5 -x,-y,-z
6 -1/2-x,-1/2-y,-1/2+z
7 -x,y,-1/2-z
8 -1/2+x,-1/2-y,-z
_cell_length_a 23.5942(13)
_cell_length_b 8.1735(7)
_cell_length_c 14.2642(5)
_cell_angle_alpha 90
_cell_angle_beta 90
_cell_angle_gamma 90
_cell_formula_units_Z 8
loop_
_atom_type_symbol
_atom_type_radius_bond
C 0.68
H 0.23
N 0.68
O 0.68
loop_
_atom_site_label
_atom_site_type_symbol
_atom_site_fract_x
_atom_site_fract_y
_atom_site_fract_z
C1 C 0.32869(10) 0.3136(3) 0.45156(16)
N1 N 0.27992(8) 0.3707(3) 0.39550(15)
O1 O 0.29059(9) 0.4750(3) 0.33873(15)
O2 O 0.23451(8) 0.3081(3) 0.41027(15)
C2 C 0.32636(9) 0.2124(3) 0.54517(16)
N2 N 0.27414(9) 0.1586(3) 0.59462(15)
O3 O 0.26210(9) 0.2294(3) 0.66505(14)
O4 O 0.24779(9) 0.0497(3) 0.55681(15)
C3 C 0.37354(10) 0.3262(3) 0.58578(17)
N3 N 0.37484(8) 0.3934(3) 0.68201(15)
O5 O 0.37913(9) 0.2942(3) 0.74397(14)
O6 O 0.37187(9) 0.5408(3) 0.68903(14)
C4 C 0.41952(10) 0.2059(3) 0.54781(17)
N4 N 0.46869(9) 0.1444(3) 0.60260(16)
O7 O 0.49266(10) 0.2429(3) 0.64952(17)
O8 O 0.47994(10) 0.0025(3) 0.5920(2)
C5 C 0.3725(1) 0.0959(3) 0.50432(17)
N5 N 0.37238(8) -0.0849(3) 0.50957(16)
O9 O 0.39082(9) -0.1576(2) 0.44236(14)
O10 O 0.35429(10) -0.1423(3) 0.58128(15)
C6 C 0.37530(9) 0.1976(3) 0.41154(16)
N6 N 0.37471(9) 0.1235(3) 0.31666(14)
O11 O 0.41989(8) 0.1000(3) 0.27992(14)
O12 O 0.32811(8) 0.0898(3) 0.28707(13)
C7 C 0.42205(10) 0.3079(3) 0.45519(17)
N7 N 0.47336(9) 0.3662(3) 0.40711(16)
O13 O 0.46589(10) 0.4314(4) 0.33362(17)
O14 O 0.51775(8) 0.3513(3) 0.44742(17)
C8 C 0.37542(10) 0.4268(3) 0.49353(18)
H1 H 0.37630 0.54640 0.48920
#END
