
#######################################################################
#
#                 Cambridge Crystallographic Data Centre
#                                CCDC
#
#######################################################################
#
# If this CIF has been generated from an entry in the Cambridge
# Structural Database, then it will include bibliographic, chemical,
# crystal, experimental, refinement or atomic coordinate data resulting
# from the CCDC's data processing and validation procedures.
#
#######################################################################

data_CSD_CIF_CUGDAJ
_audit_creation_date 1985-09-20
_audit_creation_method CSD-ConQuest-V1
_database_code_CSD CUGDAJ
_database_code_depnum_ccdc_archive 'CCDC 1132583'
_chemical_formula_sum 'C14 H14 N2 O4'
_chemical_formula_moiety
;
C14 H14 N2 O4
;
_journal_coeditor_code "IUCr A24638"
_journal_coden_Cambridge 591
_journal_volume 41
_journal_year 1985
_journal_page_first 456
_journal_name_full 'Acta Crystallogr.,Sect.C:Cryst.Struct.Commun. '
loop_
_publ_author_name
"R.G.Ball"
"E.E.Knaus"
"S.K.Dubey"
_chemical_name_systematic
;
Methyl 
3-phenyl-4a,7,8,8a-tetrahydropyrido(4,3-e)(1,4,2)dioxazine-7-carboxylate
;
_chemical_melting_point 401
_cell_volume   1309.443
_exptl_crystal_colour 'white'
_exptl_crystal_density_diffrn 1.39
_exptl_special_details
;
Melting point range 401-403K

;
_diffrn_ambient_temperature ?
_diffrn_special_details
;
The study was carried out at room temperature,in the range 283-303K

;
_refine_special_details
;
The H atoms on C14 are disordered over 2 orientations; each atom is 
distributed over 2 equally occupied sites, only one of which has been 
retained.
;
#These two values have been output from a single CSD field.
_refine_ls_R_factor_gt 0.061
_refine_ls_wR_factor_gt 0.061
_symmetry_cell_setting monoclinic
_symmetry_space_group_name_H-M 'P 21/c'
_symmetry_Int_Tables_number 14
loop_
_symmetry_equiv_pos_site_id
_symmetry_equiv_pos_as_xyz
1 x,y,z
2 -x,1/2+y,1/2-z
3 -x,-y,-z
4 x,-1/2-y,-1/2+z
_cell_length_a 14.304(5)
_cell_length_b 10.297(2)
_cell_length_c 9.092(3)
_cell_angle_alpha 90
_cell_angle_beta 102.09(3)
_cell_angle_gamma 90
_cell_formula_units_Z 4
loop_
_atom_type_symbol
_atom_type_radius_bond
C 0.68
H 0.23
N 0.68
O 0.68
loop_
_atom_site_label
_atom_site_type_symbol
_atom_site_fract_x
_atom_site_fract_y
_atom_site_fract_z
O1 O 0.3551(3) 0.4200(5) 0.1504(5)
O2 O 0.2316(3) 0.2430(4) 0.2331(4)
O3 O -0.0571(3) 0.2473(5) 0.1383(5)
O4 O -0.0432(3) 0.4424(5) 0.2513(5)
N1 N 0.3290(3) 0.2498(5) 0.3095(5)
N2 N 0.0656(3) 0.3831(5) 0.1219(6)
C1 C 0.2128(4) 0.2886(6) 0.0799(7)
C2 C 0.1063(4) 0.2907(7) 0.0305(7)
C3 C 0.1155(5) 0.4991(7) 0.1619(8)
C4 C 0.2003(4) 0.5201(7) 0.1367(7)
C5 C 0.2559(4) 0.4208(7) 0.0721(7)
C6 C 0.3799(4) 0.3353(6) 0.2656(7)
C7 C 0.4816(4) 0.3488(6) 0.3415(7)
C8 C 0.5378(5) 0.4483(7) 0.3084(7)
C9 C 0.6329(5) 0.4575(8) 0.3804(8)
C10 C 0.6721(5) 0.3708(8) 0.4872(8)
C11 C 0.6169(5) 0.2713(8) 0.5243(9)
C12 C 0.5214(5) 0.2592(8) 0.4503(8)
C13 C -0.0152(4) 0.3482(7) 0.1694(7)
C14 C -0.1294(5) 0.4143(8) 0.3065(9)
H1 H 0.24100 0.23500 0.01590
H2 H 0.64380 0.21080 0.60070
H3 H 0.08210 0.20620 0.04150
H4 H 0.48340 0.18920 0.47490
H5 H 0.08970 0.31600 -0.07230
H6 H -0.14260 0.48590 0.36240
H7 H 0.08670 0.56570 0.20950
H8 H -0.17940 0.40000 0.22200
H9 H 0.22870 0.60320 0.16030
H10 H -0.11810 0.33900 0.36660
H11 H 0.25320 0.44180 -0.03040
H12 H 0.51080 0.51140 0.23510
H13 H 0.67120 0.52590 0.35430
H14 H 0.73750 0.37830 0.53530
#END
