
#######################################################################
#
#                 Cambridge Crystallographic Data Centre
#                                CCDC
#
#######################################################################
#
# If this CIF has been generated from an entry in the Cambridge
# Structural Database, then it will include bibliographic, chemical,
# crystal, experimental, refinement or atomic coordinate data resulting
# from the CCDC's data processing and validation procedures.
#
#######################################################################

data_CSD_CIF_CUGDIS
_audit_creation_date 2010-07-30
_audit_creation_method CSD-ConQuest-V1
_database_code_CSD CUGDIS
_database_code_depnum_ccdc_archive 'CCDC 715425'
_chemical_formula_sum 'C42 H43 N3 O1'
_chemical_formula_moiety
;
C42 H43 N3 O1
;
_journal_coden_Cambridge 1127
_journal_volume 19
_journal_year 2009
_journal_page_first 6981
_journal_name_full 'Bioorg.Med.Chem.Lett. '
loop_
_publ_author_name
"P.Parthiban"
"G.Aridoss"
"P.Rathika"
"V.Ramkumar"
"S.Kabilan"
_chemical_name_systematic
;
N-(Benzyloxy)-2,4,6,8-tetrakis(4-methylphenyl)-3,7-diazabicyclo[3.3.1]nonan-9-
imine
;
_cell_volume   3514.706
_exptl_crystal_colour 'colorless'
_exptl_crystal_density_diffrn 1.145
_exptl_crystal_description 'rectangular'
_diffrn_ambient_temperature 293
_refine_special_details
;
C32,N3,O1 and C32A,N3A,O1A disordered over two sites with occupancies 
0.609:0.390.
;
#These two values have been output from a single CSD field.
_refine_ls_R_factor_gt 0.0803
_refine_ls_wR_factor_gt 0.0803
_symmetry_cell_setting monoclinic
_symmetry_space_group_name_H-M 'P 21/c'
_symmetry_Int_Tables_number 14
loop_
_symmetry_equiv_pos_site_id
_symmetry_equiv_pos_as_xyz
1 x,y,z
2 -x,1/2+y,1/2-z
3 -x,-y,-z
4 x,-1/2-y,-1/2+z
_cell_length_a 11.3852(9)
_cell_length_b 23.3975(17)
_cell_length_c 13.6080(9)
_cell_angle_alpha 90
_cell_angle_beta 104.168(4)
_cell_angle_gamma 90
_cell_formula_units_Z 4
loop_
_atom_type_symbol
_atom_type_radius_bond
C 0.68
H 0.23
N 0.68
O 0.68
loop_
_atom_site_label
_atom_site_type_symbol
_atom_site_fract_x
_atom_site_fract_y
_atom_site_fract_z
C1 C 0.0902(3) 0.22443(15) 0.9546(3)
H1 H 0.14810 0.21880 1.02020
C2 C 0.0571(3) 0.16540(14) 0.9062(2)
H2 H 0.01990 0.14220 0.95040
C3 C -0.0313(3) 0.16957(14) 0.7991(2)
H3 H -0.05170 0.20980 0.78330
C4 C 0.1433(3) 0.17386(14) 0.7209(2)
H4 H 0.12770 0.21400 0.70140
C5 C 0.2313(3) 0.17086(14) 0.8290(2)
H5 H 0.30630 0.15150 0.82490
C6 C 0.2621(3) 0.23061(14) 0.8778(2)
H6 H 0.31510 0.22500 0.94550
C7 C 0.1696(4) 0.13713(16) 0.8947(2)
C8 C -0.0186(3) 0.25561(17) 0.9732(3)
C9 C -0.0682(4) 0.30263(18) 0.9178(3)
H7 H -0.03330 0.31680 0.86770
C10 C -0.1691(5) 0.3290(2) 0.9358(4)
H8 H -0.20070 0.36080 0.89730
C11 C -0.2241(5) 0.3103(3) 1.0074(5)
C12 C -0.1777(5) 0.2628(3) 1.0625(4)
H9 H -0.21500 0.24870 1.11110
C13 C -0.0749(4) 0.23539(18) 1.0462(3)
H10 H -0.04390 0.20340 1.08450
C14 C -0.1467(3) 0.13611(16) 0.7936(2)
C15 C -0.2497(4) 0.16249(18) 0.8061(3)
H11 H -0.24890 0.20170 0.81790
C16 C -0.3540(4) 0.1320(2) 0.8015(3)
H12 H -0.42200 0.15110 0.81100
C17 C -0.3609(4) 0.0748(2) 0.7834(3)
C18 C -0.2581(4) 0.04802(16) 0.7731(3)
H13 H -0.25940 0.00870 0.76290
C19 C -0.1516(4) 0.07798(17) 0.7774(3)
H14 H -0.08320 0.05860 0.76920
C20 C 0.1973(3) 0.14437(15) 0.6440(2)
C21 C 0.1618(4) 0.09109(17) 0.6052(3)
H15 H 0.09910 0.07240 0.62470
C22 C 0.2175(4) 0.06471(18) 0.5376(3)
H16 H 0.19070 0.02880 0.51240
C23 C 0.3110(4) 0.0899(2) 0.5067(3)
C24 C 0.3455(3) 0.14327(19) 0.5442(3)
H17 H 0.40780 0.16190 0.52380
C25 C 0.2905(4) 0.17022(16) 0.6112(3)
H18 H 0.31640 0.20650 0.63490
C26 C 0.3284(3) 0.26816(15) 0.8189(3)
C27 C 0.4508(4) 0.25999(17) 0.8298(3)
H19 H 0.49190 0.23360 0.87700
C28 C 0.5132(4) 0.2900(2) 0.7725(4)
H20 H 0.59560 0.28330 0.78120
C29 C 0.4562(4) 0.33029(19) 0.7018(3)
C30 C 0.3347(4) 0.33950(16) 0.6932(3)
H21 H 0.29440 0.36700 0.64800
C31 C 0.2711(3) 0.30891(15) 0.7502(3)
H22 H 0.18880 0.31580 0.74220
C32 C 0.2885(7) 0.0037(3) 0.9457(7)
H23 H 0.29120 -0.00130 1.01690
H24 H 0.35870 -0.01530 0.93240
C33 C 0.1735(5) -0.02461(17) 0.8821(5)
C34 C 0.0795(8) -0.0488(2) 0.9117(4)
H25 H 0.07960 -0.04890 0.98010
C35 C -0.0146(6) -0.0727(2) 0.8435(6)
H26 H -0.07870 -0.08850 0.86550
C36 C -0.0162(5) -0.07388(18) 0.7438(5)
H27 H -0.08060 -0.09040 0.69690
C37 C 0.0788(7) -0.0503(2) 0.7135(4)
H28 H 0.07930 -0.05060 0.64520
C38 C 0.1731(5) -0.0261(2) 0.7827(6)
H29 H 0.23770 -0.01040 0.76120
C39 C -0.3342(4) 0.3404(3) 1.0290(4)
H30 H -0.30780 0.37230 1.07330
H31 H -0.37810 0.31410 1.06090
H32 H -0.38600 0.35370 0.96650
C40 C -0.4775(4) 0.0417(2) 0.7761(3)
H33 H -0.50600 0.04850 0.83590
H34 H -0.46250 0.00160 0.77030
H35 H -0.53750 0.05420 0.71750
C41 C 0.3733(4) 0.05989(18) 0.4352(3)
H36 H 0.33480 0.02370 0.41570
H37 H 0.45700 0.05380 0.46850
H38 H 0.36780 0.08300 0.37600
C42 C 0.5239(4) 0.3632(2) 0.6366(4)
H39 H 0.55670 0.33690 0.59630
H40 H 0.58860 0.38450 0.67950
H41 H 0.46920 0.38890 0.59310
H42 H 0.166(3) 0.2883(14) 0.912(2)
H43 H -0.023(3) 0.1527(12) 0.662(2)
N1 N 0.1507(3) 0.25706(16) 0.8898(2)
N2 N 0.0295(3) 0.14624(12) 0.7240(2)
N3 N 0.1847(7) 0.0891(4) 0.9432(6)
O1 O 0.2951(5) 0.0638(2) 0.9248(3)
C43? C 0.2237(17) 0.0057(6) 0.990(1)
H44? H 0.19410 -0.01510 1.04070
H45? H 0.31140 0.00330 1.00820
N4? N 0.2460(11) 0.0928(7) 0.9264(9)
O2? O 0.1885(9) 0.0653(4) 0.9919(8)
#END
