
#######################################################################
#
#                 Cambridge Crystallographic Data Centre
#                                CCDC
#
#######################################################################
#
# If this CIF has been generated from an entry in the Cambridge
# Structural Database, then it will include bibliographic, chemical,
# crystal, experimental, refinement or atomic coordinate data resulting
# from the CCDC's data processing and validation procedures.
#
#######################################################################

data_CSD_CIF_CUGHAO
_audit_creation_date 2010-07-30
_audit_creation_method CSD-ConQuest-V1
_database_code_CSD CUGHAO
_database_code_depnum_ccdc_archive 'CCDC 752849'
_chemical_formula_sum 'C24 H20 N4 O5'
_chemical_formula_moiety
;
C24 H20 N4 O5
;
_journal_coden_Cambridge 1287
_journal_volume 21
_journal_year 2009
_journal_page_first 2653
_journal_name_full 'Asian J.Chem. '
loop_
_publ_author_name
"Wu-Lan Zeng"
"Fang-Fang Jiang"
"Xi-Shi Tai"
"Qian Wu"
"Ning-Ning Zhang"
_chemical_name_systematic
;
3-(1H-Benzotriazol-1-yl)-1-(4-nitrophenyl)-1-oxopropan-2-yl 4-ethylbenzoate
;
_cell_volume   2132.328
_exptl_crystal_colour 'colorless'
_exptl_crystal_density_diffrn 1.384
_exptl_crystal_description 'block'
_diffrn_ambient_temperature 294
_refine_special_details
;
An ethyl group is disordered over two sites with occupancies 0.859:0.141.

;
#These two values have been output from a single CSD field.
_refine_ls_R_factor_gt 0.0528
_refine_ls_wR_factor_gt 0.0528
_symmetry_cell_setting monoclinic
_symmetry_space_group_name_H-M 'P 21/c'
_symmetry_Int_Tables_number 14
loop_
_symmetry_equiv_pos_site_id
_symmetry_equiv_pos_as_xyz
1 x,y,z
2 -x,1/2+y,1/2-z
3 -x,-y,-z
4 x,-1/2-y,-1/2+z
_cell_length_a 18.895(4)
_cell_length_b 6.9805(14)
_cell_length_c 18.105(4)
_cell_angle_alpha 90
_cell_angle_beta 116.755(3)
_cell_angle_gamma 90
_cell_formula_units_Z 4
loop_
_atom_type_symbol
_atom_type_radius_bond
C 0.68
H 0.23
N 0.68
O 0.68
loop_
_atom_site_label
_atom_site_type_symbol
_atom_site_fract_x
_atom_site_fract_y
_atom_site_fract_z
O1 O 0.25729(11) 0.6089(3) 0.26303(11)
O2 O 0.32831(13) 0.5295(3) 0.19733(14)
O3 O 0.14560(14) 0.7213(3) 0.11595(12)
O4 O -0.01739(16) 0.1291(4) -0.21945(13)
O5 O 0.01231(16) -0.1142(4) -0.14018(14)
N1 N 0.23307(16) 0.1197(4) 0.41526(17)
N2 N 0.19349(16) 0.1652(4) 0.33821(17)
N3 N 0.18367(13) 0.3580(3) 0.33274(13)
N4 N 0.01234(14) 0.0571(4) -0.15133(15)
C1 C 0.24948(16) 0.2828(4) 0.46082(18)
C2 C 0.28915(18) 0.3108(6) 0.5469(2)
H1 H 0.31060 0.20900 0.58340
C3 C 0.2945(2) 0.4943(7) 0.5739(2)
H2 H 0.32000 0.51800 0.63050
C4 C 0.2634(2) 0.6475(6) 0.5202(2)
H3 H 0.26910 0.77030 0.54210
C5 C 0.22493(18) 0.6253(4) 0.43716(19)
H4 H 0.20410 0.72850 0.40130
C6 C 0.21861(15) 0.4375(4) 0.40899(16)
C7 C 0.14414(16) 0.4454(4) 0.25222(16)
H5 H 0.12340 0.56920 0.25720
H6 H 0.09980 0.36580 0.21650
C8 C 0.19977(16) 0.4713(4) 0.21330(15)
H7 H 0.22530 0.34970 0.21250
C9 C 0.31882(16) 0.6320(4) 0.24530(17)
C10 C 0.36888(16) 0.7943(4) 0.28896(17)
C11 C 0.3406(2) 0.9423(5) 0.3179(2)
H8 H 0.29000 0.93500 0.31440
C12 C 0.3865(2) 1.1008(6) 0.3520(3)
H9 H 0.36600 1.20200 0.36970
C13 C 0.4625(2) 1.1128(6) 0.3604(2)
C14 C 0.4907(2) 0.9627(6) 0.3327(2)
H10 H 0.54240 0.96710 0.33920
C15 C 0.44474(18) 0.8062(5) 0.29574(19)
H11 H 0.46430 0.70840 0.27530
C16 C 0.5116(3) 1.2938(7) 0.3979(3)
H12 H 0.54770 1.31670 0.37410
H13 H 0.47700 1.40410 0.38660
C17 C 0.5559(4) 1.2639(11) 0.4866(3)
H14 H 0.58750 1.37500 0.51170
H15 H 0.58970 1.15420 0.49700
H16 H 0.51960 1.24270 0.50960
C18? C 0.5116(3) 1.2938(7) 0.3979(3)
H17? H 0.56620 1.26040 0.41290
H18? H 0.49580 1.38620 0.35330
C19? C 0.513(2) 1.400(5) 0.4709(18)
H19? H 0.54240 1.51640 0.47950
H20? H 0.53670 1.32120 0.51940
H21? H 0.45920 1.43010 0.46020
C20 C 0.15335(17) 0.5498(4) 0.12565(16)
C21 C 0.11817(15) 0.4166(4) 0.05553(15)
C22 C 0.08669(16) 0.4917(4) -0.02410(16)
H22 H 0.08860 0.62320 -0.03130
C23 C 0.05308(16) 0.3759(4) -0.09187(16)
H23 H 0.03310 0.42620 -0.14500
C24 C 0.04966(15) 0.1828(4) -0.07922(16)
C25 C 0.08043(16) 0.1020(4) -0.00249(16)
H24 H 0.07780 -0.02960 0.00380
C26 C 0.11536(16) 0.2197(4) 0.06516(16)
H25 H 0.13740 0.16710 0.11800
#END
