
#######################################################################
#
#                 Cambridge Crystallographic Data Centre
#                                CCDC
#
#######################################################################
#
# If this CIF has been generated from an entry in the Cambridge
# Structural Database, then it will include bibliographic, chemical,
# crystal, experimental, refinement or atomic coordinate data resulting
# from the CCDC's data processing and validation procedures.
#
#######################################################################

data_CSD_CIF_CUHGES
_audit_creation_date 2010-07-30
_audit_creation_method CSD-ConQuest-V1
_database_code_CSD CUHGES
_database_code_depnum_ccdc_archive 'CCDC 696915'
_chemical_formula_sum 'C10 H11 N1 O3'
_chemical_formula_moiety
;
C10 H11 N1 O3
;
_journal_coden_Cambridge 1003
_journal_volume 39
_journal_year 2009
_journal_page_first 870
_journal_name_full 'J.Chem.Cryst. '
loop_
_publ_author_name
"Xiao-Liu Li"
"Xiao-Li Zhen"
"Jian-rong Han"
"Shou-xin Liu"
_chemical_name_systematic
;
Methyl 2-(hydroxyimino)-3-phenylpropanoate
;
_chemical_melting_point 347.15
_cell_volume    996.733
_exptl_crystal_colour 'colorless'
_exptl_crystal_density_diffrn 1.287
_exptl_special_details
;
Melting point range 347.15-349.15K

;
_exptl_crystal_preparation 'ethyl acetate'
_diffrn_ambient_temperature 113
_refine_special_details
;
The methyl group is disordered over both carboxylate oxygen atoms, modelled 
with occupancies 0.746:0.254.
;
#These two values have been output from a single CSD field.
_refine_ls_R_factor_gt 0.0404
_refine_ls_wR_factor_gt 0.0404
_symmetry_cell_setting monoclinic
_symmetry_space_group_name_H-M 'P 21/n'
_symmetry_Int_Tables_number 14
loop_
_symmetry_equiv_pos_site_id
_symmetry_equiv_pos_as_xyz
1 x,y,z
2 1/2-x,1/2+y,1/2-z
3 -x,-y,-z
4 -1/2+x,-1/2-y,-1/2+z
_cell_length_a 8.6435(17)
_cell_length_b 5.4957(11)
_cell_length_c 21.146(4)
_cell_angle_alpha 90
_cell_angle_beta 97.12(3)
_cell_angle_gamma 90
_cell_formula_units_Z 4
loop_
_atom_type_symbol
_atom_type_radius_bond
C 0.68
H 0.23
N 0.68
O 0.68
loop_
_atom_site_label
_atom_site_type_symbol
_atom_site_fract_x
_atom_site_fract_y
_atom_site_fract_z
O1 O 0.82604(14) 0.6868(2) 0.03284(6)
O2 O 0.71940(13) 0.4372(2) -0.04484(5)
O3 O 0.50519(13) 0.0556(2) 0.07833(5)
H1 H 0.45580 -0.05580 0.05960
N1 N 0.57895(15) 0.1909(2) 0.03490(6)
C1 C 0.88393(19) 0.4661(3) 0.22308(7)
H2 H 0.83800 0.60890 0.23520
C2 C 1.0144(2) 0.3752(3) 0.26021(8)
H3 H 1.05510 0.45650 0.29710
C3 C 1.0841(2) 0.1636(3) 0.24247(8)
H4 H 1.17210 0.10320 0.26730
C4 C 1.0229(2) 0.0420(3) 0.18781(8)
H5 H 1.06980 -0.10020 0.17580
C5 C 0.89136(18) 0.1316(3) 0.15073(8)
H6 H 0.85020 0.04780 0.11430
C6 C 0.82051(17) 0.3457(3) 0.16758(7)
C7 C 0.67455(19) 0.4468(3) 0.12874(7)
H7 H 0.58380 0.39170 0.14750
H8 H 0.67710 0.62300 0.13120
C8 C 0.65755(17) 0.3723(3) 0.06015(8)
C9 C 0.7427(2) 0.5151(3) 0.01467(9)
C10 C 0.8050(3) 0.5749(5) -0.08757(11)
H9 H 0.78340 0.51030 -0.12990
H10 H 0.91470 0.56310 -0.07360
H11 H 0.77350 0.74240 -0.08750
C11? C 0.8899(8) 0.8045(14) -0.0221(4)
H12? H 0.95510 0.93900 -0.00700
H13? H 0.80540 0.86210 -0.05210
H14? H 0.95020 0.68810 -0.04240
#END
