
#######################################################################
#
#                 Cambridge Crystallographic Data Centre
#                                CCDC
#
#######################################################################
#
# If this CIF has been generated from an entry in the Cambridge
# Structural Database, then it will include bibliographic, chemical,
# crystal, experimental, refinement or atomic coordinate data resulting
# from the CCDC's data processing and validation procedures.
#
#######################################################################

data_CSD_CIF_CUKCAM25
_audit_creation_date 2015-09-18
_audit_creation_method CSD-ConQuest-V1
_database_code_CSD CUKCAM25
_database_code_depnum_ccdc_archive 'CCDC 1425764'
_chemical_formula_sum 'C7 H4 N2 O6'
_chemical_formula_moiety
;
C7 H4 N2 O6
;
_journal_coden_Cambridge 1147
_journal_volume 15
_journal_year 2015
_journal_page_first 946
_journal_name_full 'Cryst.Growth Des. '
loop_
_publ_author_name
"F.Simon"
"S.Clevers"
"G.Gbabode"
"N.Couvrat"
"V.Agasse-Peulon"
"M.Sanselme"
"V.Dupray"
"G.Coquerel"
_chemical_name_systematic
;
3,5-dinitrobenzoic acid
;
_cell_volume   1642.095
_exptl_crystal_colour 'colorless'
_exptl_crystal_density_diffrn 1.716
_exptl_crystal_description 'prism'
_diffrn_ambient_temperature 173
#These two values have been output from a single CSD field.
_refine_ls_R_factor_gt 0.0341
_refine_ls_wR_factor_gt 0.0341
_symmetry_cell_setting monoclinic
_symmetry_space_group_name_H-M 'C c'
_symmetry_Int_Tables_number 9
loop_
_symmetry_equiv_pos_site_id
_symmetry_equiv_pos_as_xyz
1 x,y,z
2 x,-y,1/2+z
3 1/2+x,1/2+y,z
4 1/2+x,1/2-y,1/2+z
_cell_length_a 20.603(3)
_cell_length_b 8.7468(15)
_cell_length_c 9.7202(16)
_cell_angle_alpha 90
_cell_angle_beta 110.374(2)
_cell_angle_gamma 90
_cell_formula_units_Z 8
loop_
_atom_type_symbol
_atom_type_radius_bond
C 0.68
H 0.23
N 0.68
O 0.68
loop_
_atom_site_label
_atom_site_type_symbol
_atom_site_fract_x
_atom_site_fract_y
_atom_site_fract_z
N1 N 0.19817(10) 0.3003(2) -0.0398(2)
N2 N 0.3066(3) 0.0360(4) 0.4339(5)
O1 O 0.3437(3) 0.0486(4) 0.5619(5)
O2 O 0.2755(3) -0.0754(4) 0.3770(5)
O3 O 0.2058(3) 0.3984(4) -0.1213(5)
O4 O 0.1528(2) 0.2045(4) -0.0728(4)
O5 O 0.3661(2) 0.6781(3) 0.2817(4)
H1 H 0.38610 0.75560 0.32250
O6 O 0.4017(2) 0.5809(4) 0.5068(5)
C1 C 0.2476(3) 0.3017(5) 0.1129(5)
C2 C 0.2535(3) 0.1676(5) 0.1941(5)
H2 H 0.22950 0.07880 0.15410
C3 C 0.2971(3) 0.1767(5) 0.3371(6)
C4 C 0.3363(3) 0.3056(4) 0.4016(6)
H3 H 0.36550 0.30600 0.49920
C5 C 0.3292(3) 0.4321(5) 0.3123(6)
C6 C 0.2855(3) 0.4306(5) 0.1666(6)
H4 H 0.28200 0.51550 0.10680
C7 C 0.3706(3) 0.5755(4) 0.3777(6)
N3 N 0.0374(3) 0.0419(4) 0.9856(5)
N4 N 0.14450 0.30020 1.45470
O7 O -0.0005(3) 0.0466(4) 0.8553(5)
O8 O 0.0686(3) -0.0777(4) 1.0430(5)
O9 O 0.1914(2) 0.2043(4) 1.4908(4)
O10 O 0.1367(3) 0.3990(4) 1.5382(5)
O11 O -0.0232(2) 0.6809(4) 1.1370(4)
H5 H -0.04700 0.75290 1.09360
O12 O -0.0591(2) 0.5825(4) 0.9062(5)
C8 C 0.0440(3) 0.1744(5) 1.0747(5)
C9 C 0.0899(3) 0.1691(5) 1.2178(5)
H6 H 0.11590 0.08180 1.25480
C10 C 0.0958(3) 0.2967(5) 1.3032(5)
C11 C 0.0587(3) 0.4306(5) 1.2492(6)
H7 H 0.06370 0.51590 1.30910
C12 C 0.0142(3) 0.4334(5) 1.1048(6)
C13 C 0.0082(3) 0.3042(5) 1.0167(5)
H8 H -0.02020 0.30660 0.91850
C14 C -0.0248(3) 0.5705(5) 1.0418(5)
#END
