
#######################################################################
#
#                 Cambridge Crystallographic Data Centre
#                                CCDC
#
#######################################################################
#
# If this CIF has been generated from an entry in the Cambridge
# Structural Database, then it will include bibliographic, chemical,
# crystal, experimental, refinement or atomic coordinate data resulting
# from the CCDC's data processing and validation procedures.
#
#######################################################################

data_CSD_CIF_CUKCAM04
_audit_creation_date 1992-11-02
_audit_creation_method CSD-ConQuest-V1
_database_code_CSD CUKCAM04
_database_code_depnum_ccdc_archive 'CCDC 1132978'
_chemical_formula_sum 'C7 H4 N2 O6'
_chemical_formula_moiety
;
C7 H4 N2 O6
;
_journal_coden_Cambridge 109
_journal_volume 64
_journal_year 1991
_journal_page_first 353
_journal_name_full 'Croat.Chem.Acta '
loop_
_publ_author_name
"J.A.Kanters"
"J.Kroon"
"R.Hooft"
"A.Schouten"
"J.A.M.van Schijndel"
"J.Brandsen"
_chemical_name_systematic
;
3,5-Dinitrobenzoic acid
;
_cell_volume    815.070
_exptl_crystal_density_diffrn 1.729
_exptl_special_details
;
P21/c polymorph

;
_diffrn_ambient_temperature 100
#These two values have been output from a single CSD field.
_refine_ls_R_factor_gt 0.038
_refine_ls_wR_factor_gt 0.038
_symmetry_cell_setting monoclinic
_symmetry_space_group_name_H-M 'P 21/c'
_symmetry_Int_Tables_number 14
loop_
_symmetry_equiv_pos_site_id
_symmetry_equiv_pos_as_xyz
1 x,y,z
2 -x,1/2+y,1/2-z
3 -x,-y,-z
4 x,-1/2-y,-1/2+z
_cell_length_a 9.761(2)
_cell_length_b 8.9192(4)
_cell_length_c 9.444(2)
_cell_angle_alpha 90
_cell_angle_beta 97.55(1)
_cell_angle_gamma 90
_cell_formula_units_Z 4
loop_
_atom_type_symbol
_atom_type_radius_bond
C 0.68
H 0.23
N 0.68
O 0.68
loop_
_atom_site_label
_atom_site_type_symbol
_atom_site_fract_x
_atom_site_fract_y
_atom_site_fract_z
O1 O 0.07516(9) 0.6481(1) 0.3789(1)
O2 O -0.04501(9) 0.4738(1) 0.2595(1)
O3 O 0.1917(1) 0.1952(1) -0.0802(1)
O4 O 0.34761(9) 0.3066(1) -0.18483(9)
O5 O 0.46748(9) 0.8311(1) -0.06878(9)
O6 O 0.39018(9) 0.9307(1) 0.1249(1)
N1 N 0.0540(1) 0.5591(1) 0.2795(1)
N2 N 0.2654(1) 0.3026(1) -0.0976(1)
C1 C 0.2304(1) 0.6848(1) 0.1605(1)
C2 C 0.1529(1) 0.5571(1) 0.1743(1)
C3 C 0.1613(1) 0.4299(1) 0.0921(1)
C4 C 0.2540(1) 0.4351(1) -0.0066(1)
C5 C 0.3330(1) 0.5604(1) -0.0273(1)
C6 C 0.3203(1) 0.6859(1) 0.0573(1)
C7 C 0.4001(1) 0.8237(1) 0.0325(1)
H1 H 0.441(2) 1.018(2) 0.103(2)
H2 H 0.220(1) 0.768(2) 0.216(2)
H3 H 0.108(1) 0.343(2) 0.105(2)
H4 H 0.392(1) 0.562(2) -0.100(2)
#END
