
#######################################################################
#
#                 Cambridge Crystallographic Data Centre
#                                CCDC
#
#######################################################################
#
# If this CIF has been generated from an entry in the Cambridge
# Structural Database, then it will include bibliographic, chemical,
# crystal, experimental, refinement or atomic coordinate data resulting
# from the CCDC's data processing and validation procedures.
#
#######################################################################

data_CSD_CIF_CUKCAM20
_audit_creation_date 2013-05-26
_audit_creation_method CSD-ConQuest-V1
_database_code_CSD CUKCAM20
_database_code_depnum_ccdc_archive 'CCDC 930121'
_chemical_formula_sum 'C7 H4 N2 O6'
_chemical_formula_moiety
;
C7 H4 N2 O6
;
_journal_coden_Cambridge 1147
_journal_volume 13
_journal_year 2013
_journal_page_first 497
_journal_name_full 'Cryst.Growth Des. '
loop_
_publ_author_name
"A.O.F.Jones"
"N.Blagden"
"G.J.McIntyre"
"A.Parkin"
"C.C.Seaton"
"L.H.Thomas"
"C.C.Wilson"
_chemical_name_systematic
;
3,5-Dinitrobenzoic acid
;
_cell_volume   1624.818
_exptl_crystal_colour 'pale yellow'
_exptl_crystal_density_diffrn 1.733
_exptl_special_details
;
C2/c polymorph

;
_exptl_crystal_description 'block'
_diffrn_ambient_temperature 100
_diffrn_radiation_probe 'neutron'
#These two values have been output from a single CSD field.
_refine_ls_R_factor_gt 0.0388
_refine_ls_wR_factor_gt 0.0388
_symmetry_cell_setting monoclinic
_symmetry_space_group_name_H-M 'C 2/c'
_symmetry_Int_Tables_number 15
loop_
_symmetry_equiv_pos_site_id
_symmetry_equiv_pos_as_xyz
1 x,y,z
2 -x,y,1/2-z
3 1/2+x,1/2+y,z
4 1/2-x,1/2+y,1/2-z
5 -x,-y,-z
6 x,-y,-1/2+z
7 -1/2-x,-1/2-y,-z
8 -1/2+x,-1/2-y,-1/2+z
_cell_length_a 20.370(5)
_cell_length_b 8.760(5)
_cell_length_c 9.690(5)
_cell_angle_alpha 90
_cell_angle_beta 110.00(1)
_cell_angle_gamma 90
_cell_formula_units_Z 8
loop_
_atom_type_symbol
_atom_type_radius_bond
C 0.68
H 0.23
N 0.68
O 0.68
loop_
_atom_site_label
_atom_site_type_symbol
_atom_site_fract_x
_atom_site_fract_y
_atom_site_fract_z
H1 H 0.05323(15) 0.0627(2) 0.1927(3)
H2 H 0.19701(15) 0.3074(2) 0.5570(2)
H3 H 0.10686(15) 0.5303(2) 0.1383(3)
H4 H 0.22255(15) 0.7721(2) 0.3700(3)
O1 O 0.17264(8) 0.04817(11) 0.60435(13)
O2 O 0.23013(7) 0.58308(10) 0.54999(12)
O3 O 0.03387(8) 0.39724(12) -0.08087(14)
O4 O 0.19454(8) 0.68001(10) 0.32100(13)
N1 N 0.02658(4) 0.29837(7) 0.00174(8)
O5 O -0.01958(9) 0.20121(15) -0.03274(15)
O6 O 0.10492(9) -0.07792(11) 0.41711(15)
N2 N 0.13535(4) 0.03805(6) 0.47479(8)
C1 C 0.08178(6) 0.16652(9) 0.23739(10)
C2 C 0.19754(6) 0.57338(8) 0.41759(11)
C3 C 0.15740(6) 0.43280(8) 0.35323(10)
C4 C 0.12704(6) 0.17428(8) 0.38183(10)
C5 C 0.07569(6) 0.29796(8) 0.15381(10)
C6 C 0.11302(6) 0.43059(8) 0.2070(1)
C7 C 0.16423(6) 0.30493(8) 0.44281(10)
#END
