
#######################################################################
#
#                 Cambridge Crystallographic Data Centre
#                                CCDC
#
#######################################################################
#
# If this CIF has been generated from an entry in the Cambridge
# Structural Database, then it will include bibliographic, chemical,
# crystal, experimental, refinement or atomic coordinate data resulting
# from the CCDC's data processing and validation procedures.
#
#######################################################################

data_CSD_CIF_CUKCAM01
_audit_creation_date 1991-09-27
_audit_creation_method CSD-ConQuest-V1
_database_code_CSD CUKCAM01
_database_code_depnum_ccdc_archive 'CCDC 1132975'
_chemical_formula_sum 'C7 H4 N2 O6'
_chemical_formula_moiety
;
C7 H4 N2 O6
;
_journal_coeditor_code "IUCr ST0460"
_journal_coden_Cambridge 591
_journal_volume 47
_journal_year 1991
_journal_page_first 895
_journal_name_full 'Acta Crystallogr.,Sect.C:Cryst.Struct.Commun. '
loop_
_publ_author_name
"P.Prince"
"F.R.Fronczek"
"R.D.Gandour"
_chemical_name_systematic
;
3,5-Dinitrobenzoic acid
;
_chemical_melting_point 485
_cell_volume    842.348
_exptl_crystal_colour 'colorless'
_exptl_crystal_density_diffrn 1.672
_exptl_special_details
;
Melting point range 485-486K
P21/c polymorph

;
_diffrn_ambient_temperature ?
_diffrn_special_details
;
The study was carried out at room temperature,in the range 283-303K

;
#These two values have been output from a single CSD field.
_refine_ls_R_factor_gt 0.042
_refine_ls_wR_factor_gt 0.042
_symmetry_cell_setting monoclinic
_symmetry_space_group_name_H-M 'P 21/c'
_symmetry_Int_Tables_number 14
loop_
_symmetry_equiv_pos_site_id
_symmetry_equiv_pos_as_xyz
1 x,y,z
2 -x,1/2+y,1/2-z
3 -x,-y,-z
4 x,-1/2-y,-1/2+z
_cell_length_a 10.0290(6)
_cell_length_b 8.8711(7)
_cell_length_c 9.514(2)
_cell_angle_alpha 90
_cell_angle_beta 95.639(12)
_cell_angle_gamma 90
_cell_formula_units_Z 4
loop_
_atom_type_symbol
_atom_type_radius_bond
C 0.68
H 0.23
N 0.68
O 0.68
loop_
_atom_site_label
_atom_site_type_symbol
_atom_site_fract_x
_atom_site_fract_y
_atom_site_fract_z
O1 O 0.4673(1) 0.8262(1) -0.0725(1)
O2 O 0.3922(1) 0.93081(9) 0.1190(1)
O3 O 0.1883(2) 0.1989(1) -0.0838(2)
O4 O 0.3466(1) 0.3026(1) -0.1832(1)
O5 O -0.04189(9) 0.4811(1) 0.2598(1)
O6 O 0.0754(1) 0.6516(1) 0.3764(1)
N1 N 0.2634(1) 0.3023(1) -0.0985(1)
N2 N 0.05519(9) 0.5638(1) 0.2780(1)
C1 C 0.3193(1) 0.6863(1) 0.0545(1)
C2 C 0.3316(1) 0.5599(1) -0.0296(1)
C3 C 0.2521(1) 0.4361(1) -0.0087(1)
C4 C 0.1601(1) 0.4329(1) 0.0900(1)
C5 C 0.1528(1) 0.5605(1) 0.1719(1)
C6 C 0.2301(1) 0.6871(1) 0.1574(1)
C7 C 0.3994(1) 0.8236(1) 0.0309(1)
H1 H 0.464(4) 1.030(4) 0.112(3)
H2 H 0.392(2) 0.557(1) -0.100(2)
H3 H 0.102(2) 0.347(2) 0.103(2)
H4 H 0.222(2) 0.773(2) 0.214(2)
#END
