
#######################################################################
#
#                 Cambridge Crystallographic Data Centre
#                                CCDC
#
#######################################################################
#
# If this CIF has been generated from an entry in the Cambridge
# Structural Database, then it will include bibliographic, chemical,
# crystal, experimental, refinement or atomic coordinate data resulting
# from the CCDC's data processing and validation procedures.
#
#######################################################################

data_CSD_CIF_CUKCAM16
_audit_creation_date 2013-05-26
_audit_creation_method CSD-ConQuest-V1
_database_code_CSD CUKCAM16
_database_code_depnum_ccdc_archive 'CCDC 930125'
_chemical_formula_sum 'C7 H4 N2 O6'
_chemical_formula_moiety
;
C7 H4 N2 O6
;
_journal_coden_Cambridge 1147
_journal_volume 13
_journal_year 2013
_journal_page_first 497
_journal_name_full 'Cryst.Growth Des. '
loop_
_publ_author_name
"A.O.F.Jones"
"N.Blagden"
"G.J.McIntyre"
"A.Parkin"
"C.C.Seaton"
"L.H.Thomas"
"C.C.Wilson"
_chemical_name_systematic
;
3,5-Dinitrobenzoic acid
;
_cell_volume   1673.776
_exptl_crystal_colour 'pale yellow'
_exptl_crystal_density_diffrn 1.684
_exptl_special_details
;
C2/c polymorph

;
_exptl_crystal_description 'block'
_diffrn_ambient_temperature 300
_refine_special_details
;
H41 and H42 disordered over two sites with occupancies 0.72:0.28.

;
#These two values have been output from a single CSD field.
_refine_ls_R_factor_gt 0.0345
_refine_ls_wR_factor_gt 0.0345
_symmetry_cell_setting monoclinic
_symmetry_space_group_name_H-M 'C 2/c'
_symmetry_Int_Tables_number 15
loop_
_symmetry_equiv_pos_site_id
_symmetry_equiv_pos_as_xyz
1 x,y,z
2 -x,y,1/2-z
3 1/2+x,1/2+y,z
4 1/2-x,1/2+y,1/2-z
5 -x,-y,-z
6 x,-y,-1/2+z
7 -1/2-x,-1/2-y,-z
8 -1/2+x,-1/2-y,-1/2+z
_cell_length_a 21.042(3)
_cell_length_b 8.7285(9)
_cell_length_c 9.7693(10)
_cell_angle_alpha 90
_cell_angle_beta 111.118(4)
_cell_angle_gamma 90
_cell_formula_units_Z 8
loop_
_atom_type_symbol
_atom_type_radius_bond
C 0.68
H 0.23
N 0.68
O 0.68
loop_
_atom_site_label
_atom_site_type_symbol
_atom_site_fract_x
_atom_site_fract_y
_atom_site_fract_z
H1 H 0.0567(8) 0.0809(18) 0.1985(16)
H2 H 0.1937(8) 0.3050(16) 0.5423(16)
H3 H 0.1086(7) 0.5179(17) 0.1516(17)
H4 H 0.2193(13) 0.756(3) 0.367(3)
O1 O 0.17148(6) 0.04674(12) 0.60258(12)
O2 O 0.23077(6) 0.57872(12) 0.55199(11)
O3 O 0.03533(6) 0.39985(13) -0.07821(10)
O4 O 0.19523(6) 0.67933(11) 0.32648(11)
N1 N 0.02744(6) 0.30338(14) 0.00414(12)
O5 O -0.01862(5) 0.21007(15) -0.03020(12)
O6 O 0.10163(8) -0.07338(13) 0.41801(14)
N2 N 0.13357(6) 0.03975(13) 0.47476(14)
C1 C 0.08148(7) 0.17080(14) 0.23904(14)
C2 C 0.19781(7) 0.57287(14) 0.41865(13)
C3 C 0.15773(6) 0.43283(13) 0.35526(13)
C4 C 0.12627(6) 0.17632(13) 0.38259(14)
C5 C 0.07608(6) 0.30126(14) 0.15631(13)
C6 C 0.11369(6) 0.43146(14) 0.21022(14)
C7 C 0.16401(7) 0.30485(14) 0.44313(14)
H5? H 0.251(4) 0.660(8) 0.606(7)
#END
