
#######################################################################
#
#                 Cambridge Crystallographic Data Centre
#                                CCDC
#
#######################################################################
#
# If this CIF has been generated from an entry in the Cambridge
# Structural Database, then it will include bibliographic, chemical,
# crystal, experimental, refinement or atomic coordinate data resulting
# from the CCDC's data processing and validation procedures.
#
#######################################################################

data_CSD_CIF_CUKCAM10
_audit_creation_date 1990-12-10
_audit_creation_method CSD-ConQuest-V1
_database_code_CSD CUKCAM10
_database_code_depnum_ccdc_archive 'CCDC 1132979'
_chemical_formula_sum 'C7 H4 N2 O6'
_chemical_formula_moiety
;
C7 H4 N2 O6
;
_journal_coden_Cambridge 1094
_journal_volume 1
_journal_year 1990
_journal_page_first 107
_journal_name_full 'Struct.Chem. '
loop_
_publ_author_name
"A.Domenicano"
"G.Schultz"
"I.Hargittai"
"M.Colapietro"
"G.Portalone"
"P.George"
"C.W.Bock"
_chemical_name_systematic
;
3,5-Dinitrobenzoic acid
;
_chemical_melting_point 478
_cell_volume   1667.328
_exptl_crystal_density_diffrn 1.69
_exptl_special_details
;
Melting point range 478-480K
space group 15 polymorph

;
_diffrn_ambient_temperature ?
_diffrn_special_details
;
The study was carried out at room temperature,in the range 283-303K

;
#These two values have been output from a single CSD field.
_refine_ls_R_factor_gt 0.0426
_refine_ls_wR_factor_gt 0.0426
_symmetry_cell_setting monoclinic
_symmetry_space_group_name_H-M 'A 2/a'
_symmetry_Int_Tables_number 15
loop_
_symmetry_equiv_pos_site_id
_symmetry_equiv_pos_as_xyz
1 x,y,z
2 x,1/2+y,1/2+z
3 1/2-x,y,-z
4 1/2-x,1/2+y,1/2-z
5 -x,-y,-z
6 -x,-1/2-y,-1/2-z
7 -1/2+x,-y,z
8 -1/2+x,-1/2-y,-1/2+z
_cell_length_a 9.753(2)
_cell_length_b 8.721(1)
_cell_length_c 21.003(7)
_cell_angle_alpha 90
_cell_angle_beta 111.04(2)
_cell_angle_gamma 90
_cell_formula_units_Z 8
loop_
_atom_type_symbol
_atom_type_radius_bond
C 0.68
H 0.23
N 0.68
O 0.68
loop_
_atom_site_label
_atom_site_type_symbol
_atom_site_fract_x
_atom_site_fract_y
_atom_site_fract_z
O1 O -0.05201(11) -0.07899(12) 0.26915(6)
O2 O 0.17376(11) -0.17949(12) 0.30468(6)
O3 O -0.10307(13) 0.45300(14) 0.32843(7)
O4 O 0.08167(17) 0.57361(14) 0.39827(9)
O5 O 0.57852(11) 0.10023(15) 0.46463(7)
O6 O 0.53032(14) 0.29016(18) 0.51877(6)
N1 N 0.02506(14) 0.46027(13) 0.36629(7)
N2 N 0.49614(12) 0.19681(15) 0.47265(6)
C1 C 0.14467(13) 0.06705(13) 0.34224(6)
C2 C 0.05627(13) 0.19511(14) 0.33586(6)
C3 C 0.11707(13) 0.32388(13) 0.37363(6)
C4 C 0.26116(14) 0.32984(14) 0.41857(6)
C5 C 0.34387(13) 0.19881(14) 0.42393(6)
C6 C 0.29011(13) 0.06816(13) 0.38629(6)
C7 C 0.08127(14) -0.07276(13) 0.30225(7)
H1 H 0.129(3) -0.270(4) 0.275(2)
H2 H -0.045(2) 0.196(2) 0.306(1)
H3 H 0.304(2) 0.422(2) 0.444(1)
H4 H 0.350(2) -0.021(2) 0.391(1)
#END
