
#######################################################################
#
#                 Cambridge Crystallographic Data Centre
#                                CCDC
#
#######################################################################
#
# If this CIF has been generated from an entry in the Cambridge
# Structural Database, then it will include bibliographic, chemical,
# crystal, experimental, refinement or atomic coordinate data resulting
# from the CCDC's data processing and validation procedures.
#
#######################################################################

data_CSD_CIF_CUKCAM13
_audit_creation_date 2013-05-26
_audit_creation_method CSD-ConQuest-V1
_database_code_CSD CUKCAM13
_database_code_depnum_ccdc_archive 'CCDC 930128'
_chemical_formula_sum 'C7 H4 N2 O6'
_chemical_formula_moiety
;
C7 H4 N2 O6
;
_journal_coden_Cambridge 1147
_journal_volume 13
_journal_year 2013
_journal_page_first 497
_journal_name_full 'Cryst.Growth Des. '
loop_
_publ_author_name
"A.O.F.Jones"
"N.Blagden"
"G.J.McIntyre"
"A.Parkin"
"C.C.Seaton"
"L.H.Thomas"
"C.C.Wilson"
_chemical_name_systematic
;
3,5-Dinitrobenzoic acid
;
_cell_volume    819.727
_exptl_crystal_colour 'pale yellow'
_exptl_crystal_density_diffrn 1.719
_exptl_special_details
;
P21/c polymorph

;
_exptl_crystal_description 'needle'
_diffrn_ambient_temperature 100
#These two values have been output from a single CSD field.
_refine_ls_R_factor_gt 0.0442
_refine_ls_wR_factor_gt 0.0442
_symmetry_cell_setting monoclinic
_symmetry_space_group_name_H-M 'P 21/c'
_symmetry_Int_Tables_number 14
loop_
_symmetry_equiv_pos_site_id
_symmetry_equiv_pos_as_xyz
1 x,y,z
2 -x,1/2+y,1/2-z
3 -x,-y,-z
4 x,-1/2-y,-1/2+z
_cell_length_a 9.7845(15)
_cell_length_b 8.9435(13)
_cell_length_c 9.4500(12)
_cell_angle_alpha 90
_cell_angle_beta 97.577(5)
_cell_angle_gamma 90
_cell_formula_units_Z 4
loop_
_atom_type_symbol
_atom_type_radius_bond
C 0.68
H 0.23
N 0.68
O 0.68
loop_
_atom_site_label
_atom_site_type_symbol
_atom_site_fract_x
_atom_site_fract_y
_atom_site_fract_z
H1 H 0.105(3) -0.065(3) 0.604(3)
H2 H 0.281(3) -0.273(4) 0.284(3)
H3 H 0.392(3) 0.158(4) 0.396(3)
H4 H 0.054(5) -0.521(6) 0.397(5)
O1 O 0.1525(2) 0.1935(2) 0.68517(19)
O2 O 0.0323(2) -0.3312(2) 0.56837(19)
O3 O 0.5450(2) 0.0263(2) 0.2405(2)
O4 O 0.1100(2) -0.4308(2) 0.3755(2)
N1 N 0.4458(2) -0.0589(2) 0.2205(2)
O5 O 0.4247(2) -0.1481(2) 0.1212(2)
N2 N 0.2345(2) 0.1969(3) 0.5973(2)
C1 C 0.1795(3) -0.1858(3) 0.4427(3)
C2 C 0.2696(3) -0.1847(3) 0.3395(3)
O6 O 0.3081(3) 0.3048(3) 0.5803(3)
C3 C 0.1000(3) -0.3233(3) 0.4672(3)
C4 C 0.3388(3) 0.0700(3) 0.4084(3)
C5 C 0.1668(3) -0.0603(3) 0.5276(3)
C6 C 0.2460(3) 0.0650(3) 0.5065(3)
C7 C 0.3471(3) -0.0573(3) 0.3252(3)
#END
