
#######################################################################
#
#                 Cambridge Crystallographic Data Centre
#                                CCDC
#
#######################################################################
#
# If this CIF has been generated from an entry in the Cambridge
# Structural Database, then it will include bibliographic, chemical,
# crystal, experimental, refinement or atomic coordinate data resulting
# from the CCDC's data processing and validation procedures.
#
#######################################################################

data_CSD_CIF_CUKSIK
_audit_creation_date 1985-11-27
_audit_creation_method CSD-ConQuest-V1
_database_code_CSD CUKSIK
_chemical_formula_sum 'C13 H17 N3 O3'
_chemical_formula_moiety
;
C13 H17 N3 O3
;
_journal_coden_Cambridge 16
_journal_volume 41
_journal_year 1985
_journal_page_first 473
_journal_name_full 'Tetrahedron '
loop_
_publ_author_name
"P.Cabildo"
"R.M.Claramunt"
"D.Sanz"
"M.C.Foces-Foces"
"F.H.Cano"
"J.Catalan"
"J.Elguero"
_chemical_name_systematic
;
1-(1-Adamantyl-3-ol)-4-nitropyrazole
;
_cell_volume   2555.460
_exptl_crystal_colour 'colorless'
_exptl_crystal_density_diffrn 1.368
_diffrn_ambient_temperature ?
_diffrn_special_details
;
The study was carried out at room temperature,in the range 283-303K

;
#These two values have been output from a single CSD field.
_refine_ls_R_factor_gt 0.061
_refine_ls_wR_factor_gt 0.061
_symmetry_cell_setting monoclinic
_symmetry_space_group_name_H-M 'P 2/n'
_symmetry_Int_Tables_number 13
loop_
_symmetry_equiv_pos_site_id
_symmetry_equiv_pos_as_xyz
1 x,y,z
2 1/2-x,y,1/2-z
3 -x,-y,-z
4 -1/2+x,-y,-1/2+z
_cell_length_a 31.1172(14)
_cell_length_b 6.8506(1)
_cell_length_c 12.0313(3)
_cell_angle_alpha 90
_cell_angle_beta 94.873(3)
_cell_angle_gamma 90
_cell_formula_units_Z 8
loop_
_atom_type_symbol
_atom_type_radius_bond
C 0.68
H 0.23
N 0.68
O 0.68
loop_
_atom_site_label
_atom_site_type_symbol
_atom_site_fract_x
_atom_site_fract_y
_atom_site_fract_z
N1 N 0.0702(1) -0.2182(7) 0.4209(3)
N2 N 0.0588(1) -0.1672(8) 0.3123(3)
C1 C 0.0161(2) -0.1649(10) 0.3058(5)
C2 C 0.0007(1) -0.2124(8) 0.4058(4)
C3 C 0.0358(1) -0.2475(8) 0.4788(4)
C4 C 0.1169(1) -0.2355(8) 0.4602(4)
C5 C 0.1375(1) -0.3931(8) 0.3914(4)
C6 C 0.1854(1) -0.4058(7) 0.4319(4)
C7 C 0.1903(2) -0.4608(10) 0.5543(5)
C8 C 0.1695(2) -0.302(1) 0.6220(4)
C9 C 0.1214(1) -0.2890(9) 0.5833(4)
C10 C 0.1384(2) -0.0373(8) 0.4431(5)
C11 C 0.1868(2) -0.0525(9) 0.4819(5)
C12 C 0.1914(2) -0.1075(11) 0.6047(5)
C13 C 0.2073(2) -0.2110(8) 0.4132(4)
N3 N -0.0433(1) -0.2285(8) 0.4307(5)
O1 O -0.0715(1) -0.1853(8) 0.3575(4)
O2 O -0.0506(1) -0.2808(7) 0.5236(4)
O3 O 0.2044(1) -0.5553(5) 0.3666(3)
N4 N 0.0593(1) 0.2394(6) 0.0401(3)
N5 N 0.0297(1) 0.2243(7) -0.0503(3)
C14 C -0.0081(1) 0.2531(8) -0.0094(5)
C15 C -0.0025(1) 0.2845(8) 0.1043(4)
C16 C 0.0405(2) 0.2718(9) 0.1339(4)
C17 C 0.1057(1) 0.2030(8) 0.0264(4)
C18 C 0.1326(1) 0.3600(8) 0.0905(4)
C19 C 0.1802(1) 0.3241(7) 0.0772(4)
C20 C 0.1882(2) 0.3343(9) -0.0457(4)
C21 C 0.1613(2) 0.1772(9) -0.1097(4)
C22 C 0.1131(2) 0.2111(9) -0.0977(4)
C23 C 0.1181(2) 0.0019(8) 0.0735(4)
C24 C 0.1663(2) -0.0335(8) 0.0600(5)
C25 C 0.1743(2) -0.0232(10) -0.0632(5)
C26 C 0.1930(2) 0.1241(8) 0.1248(4)
N6 N -0.0358(1) 0.3236(7) 0.1757(4)
O4 O -0.0732(1) 0.3148(7) 0.1388(3)
O5 O -0.0244(1) 0.3692(9) 0.2729(4)
O6 O 0.2052(1) 0.4737(5) 0.1358(3)
H1 H -0.001(2) -0.125(8) 0.244(4)
H2 H 0.039(1) -0.263(6) 0.550(3)
H3 H 0.134(1) -0.365(7) 0.310(4)
H4 H 0.123(1) -0.516(7) 0.402(4)
H5 H 0.223(2) -0.470(7) 0.580(4)
H6 H 0.176(2) -0.586(8) 0.572(4)
H7 H 0.173(2) -0.344(9) 0.698(5)
H8 H 0.106(1) -0.411(6) 0.596(3)
H9 H 0.107(2) -0.194(8) 0.623(4)
H10 H 0.123(1) 0.054(7) 0.477(4)
H11 H 0.137(1) -0.005(7) 0.359(4)
H12 H 0.200(1) 0.073(7) 0.467(4)
H13 H 0.178(2) -0.012(9) 0.657(5)
H14 H 0.224(2) -0.115(9) 0.634(4)
H15 H 0.204(1) -0.170(7) 0.334(4)
H16 H 0.241(1) -0.232(6) 0.438(3)
H17 H 0.235(4) -0.553(18) 0.376(9)
H18 H -0.034(1) 0.267(6) -0.058(3)
H19 H 0.057(1) 0.298(7) 0.203(4)
H20 H 0.129(1) 0.361(6) 0.166(3)
H21 H 0.122(1) 0.489(7) 0.060(4)
H22 H 0.220(1) 0.311(7) -0.055(3)
H23 H 0.181(1) 0.470(6) -0.077(3)
H24 H 0.167(1) 0.192(7) -0.191(3)
H25 H 0.106(2) 0.334(8) -0.122(4)
H26 H 0.097(2) 0.106(8) -0.138(4)
H27 H 0.102(1) -0.101(7) 0.031(4)
H28 H 0.112(1) -0.009(7) 0.156(4)
H29 H 0.176(1) -0.156(7) 0.088(4)
H30 H 0.189(2) 0.116(7) 0.211(4)
H31 H 0.225(1) 0.091(7) 0.116(4)
H32 H 0.208(2) -0.039(8) -0.078(4)
H33 H 0.159(1) -0.131(7) -0.102(4)
H34 H 0.204(3) 0.471(14) 0.202(7)
#END
