
#######################################################################
#
#                 Cambridge Crystallographic Data Centre
#                                CCDC
#
#######################################################################
#
# If this CIF has been generated from an entry in the Cambridge
# Structural Database, then it will include bibliographic, chemical,
# crystal, experimental, refinement or atomic coordinate data resulting
# from the CCDC's data processing and validation procedures.
#
#######################################################################

data_CSD_CIF_CUKSEH
_audit_creation_date 2010-07-30
_audit_creation_method CSD-ConQuest-V1
_database_code_CSD CUKSEH
_database_code_depnum_ccdc_archive 'CCDC 739742'
_chemical_formula_sum 'C23 H20 N2 O5'
_chemical_formula_moiety
;
C23 H20 N2 O5
;
_journal_coden_Cambridge 177
_journal_volume 7
_journal_year 2009
_journal_page_first 5156
_journal_name_full 'Org.Biomol.Chem. '
loop_
_publ_author_name
"W.B.Jennings"
"N.J.P.McCarthy"
"P.Kelly"
"J.F.Malone"
_chemical_name_systematic
;
Methyl N-(diphenylmethylene)-L-4-nitrophenylalaninate N-oxide
;
_cell_volume    991.846
_exptl_crystal_colour 'colorless'
_exptl_crystal_density_diffrn 1.354
_exptl_crystal_description 'blocks'
_diffrn_ambient_temperature 150
#These two values have been output from a single CSD field.
_refine_ls_R_factor_gt 0.0295
_refine_ls_wR_factor_gt 0.0295
_symmetry_cell_setting monoclinic
_symmetry_space_group_name_H-M 'P 21'
_symmetry_Int_Tables_number 4
loop_
_symmetry_equiv_pos_site_id
_symmetry_equiv_pos_as_xyz
1 x,y,z
2 -x,1/2+y,-z
_cell_length_a 9.094(2)
_cell_length_b 11.642(3)
_cell_length_c 9.371(2)
_cell_angle_alpha 90
_cell_angle_beta 91.370(4)
_cell_angle_gamma 90
_cell_formula_units_Z 2
loop_
_atom_type_symbol
_atom_type_radius_bond
C 0.68
H 0.23
N 0.68
O 0.68
loop_
_atom_site_label
_atom_site_type_symbol
_atom_site_fract_x
_atom_site_fract_y
_atom_site_fract_z
C1 C 0.12183(14) 0.84798(11) 0.82632(14)
N1 N 0.04176(12) 0.86532(10) 0.70900(11)
O1 O 0.03607(11) 0.79749(9) 0.59988(10)
C2 C 0.11120(14) 0.93091(11) 0.94625(14)
C3 C 0.21300(17) 1.01891(13) 0.96168(16)
H1 H 0.28880 1.02730 0.89450
C4 C 0.20396(19) 1.09456(15) 1.07515(17)
H2 H 0.27240 1.15600 1.08380
C5 C 0.09687(18) 1.08190(14) 1.17583(16)
H3 H 0.09210 1.13380 1.25380
C6 C -0.00342(17) 0.99320(14) 1.16238(16)
H4 H -0.07680 0.98360 1.23180
C7 C 0.00286(16) 0.91823(13) 1.04779(14)
H5 H -0.06700 0.85790 1.03840
C8 C 0.21888(14) 0.74729(11) 0.84430(14)
C9 C 0.27201(14) 0.68200(12) 0.73170(14)
H6 H 0.24600 0.70200 0.63610
C10 C 0.36265(15) 0.58805(13) 0.75840(16)
H7 H 0.39960 0.54530 0.68070
C11 C 0.39962(17) 0.55606(13) 0.89616(17)
H8 H 0.45970 0.49060 0.91350
C12 C 0.34866(17) 0.61992(13) 1.00887(16)
H9 H 0.37410 0.59820 1.10400
C13 C 0.26077(17) 0.71540(13) 0.98436(15)
H10 H 0.22850 0.75970 1.06270
C14 C -0.05411(15) 0.96904(11) 0.68846(15)
H11 H -0.05240 1.01630 0.77760
C15 C 0.00023(17) 1.04078(13) 0.56391(15)
H12 H 0.00780 0.99090 0.47880
H13 H -0.07310 1.10140 0.54130
C16 C 0.14699(16) 1.09614(13) 0.59410(14)
C17 C 0.27620(17) 1.04275(13) 0.55494(16)
H14 H 0.27150 0.97000 0.50920
C18 C 0.41199(17) 1.09342(13) 0.58125(15)
H15 H 0.50020 1.05630 0.55440
C19 C 0.41568(16) 1.19981(13) 0.64793(16)
N2 N 0.55873(15) 1.25639(11) 0.67101(14)
O2 O 0.67078(13) 1.20312(11) 0.64276(14)
O3 O 0.56092(14) 1.35364(11) 0.71872(17)
C20 C 0.28949(17) 1.25540(13) 0.68848(17)
H16 H 0.29470 1.32820 0.73410
C21 C 0.15511(16) 1.20294(13) 0.66128(16)
H17 H 0.06720 1.24020 0.68870
C22 C -0.20939(16) 0.92507(12) 0.65765(15)
O4 O -0.27739(12) 0.94003(10) 0.54844(11)
O5 O -0.26120(11) 0.87125(10) 0.77164(11)
C23 C -0.40921(18) 0.82658(17) 0.7540(2)
H18 H -0.47430 0.88730 0.71710
H19 H -0.44420 0.79990 0.84630
H20 H -0.40920 0.76230 0.68650
#END
