
#######################################################################
#
#                 Cambridge Crystallographic Data Centre
#                                CCDC
#
#######################################################################
#
# If this CIF has been generated from an entry in the Cambridge
# Structural Database, then it will include bibliographic, chemical,
# crystal, experimental, refinement or atomic coordinate data resulting
# from the CCDC's data processing and validation procedures.
#
#######################################################################

data_CSD_CIF_CUMDAR
_audit_creation_date 2015-07-11
_audit_creation_method CSD-ConQuest-V1
_database_code_CSD CUMDAR
_database_code_depnum_ccdc_archive 'CCDC 986010'
_chemical_formula_sum 'C25 H25 N1 O2'
_chemical_formula_moiety
;
C25 H25 N1 O2
;
_journal_coden_Cambridge 177
_journal_volume 13
_journal_year 2015
_journal_page_first 8465
_journal_name_full 'Org.Biomol.Chem. '
loop_
_publ_author_name
"G.K.Veits"
"D.R.Wenz"
"L.I.Palmer"
"A.H.St.Amant"
"J.E.Hein"
"J.R.de Alaniz"
_chemical_name_systematic
;
4-(benzyl(benzyloxy)amino)-5-phenylcyclopent-2-en-1-ol
;
_cell_volume   1987.100
_exptl_crystal_colour 'colorless'
_exptl_crystal_density_diffrn 1.242
_exptl_crystal_description 'needle'
_exptl_crystal_preparation 'ethyl acetate/n-hexanes'
_diffrn_ambient_temperature 101
#These two values have been output from a single CSD field.
_refine_ls_R_factor_gt 0.0649
_refine_ls_wR_factor_gt 0.0649
_symmetry_cell_setting monoclinic
_symmetry_space_group_name_H-M 'P 21'
_symmetry_Int_Tables_number 4
loop_
_symmetry_equiv_pos_site_id
_symmetry_equiv_pos_as_xyz
1 x,y,z
2 -x,1/2+y,-z
_cell_length_a 12.6814(15)
_cell_length_b 5.7264(6)
_cell_length_c 27.718(3)
_cell_angle_alpha 90
_cell_angle_beta 99.174(5)
_cell_angle_gamma 90
_cell_formula_units_Z 4
loop_
_atom_type_symbol
_atom_type_radius_bond
C 0.68
H 0.23
N 0.68
O 0.68
loop_
_atom_site_label
_atom_site_type_symbol
_atom_site_fract_x
_atom_site_fract_y
_atom_site_fract_z
C1 C 0.9144(5) 0.5889(11) 0.6240(2)
H1 H 0.98410 0.51990 0.61880
C2 C 0.8478(5) 0.3997(11) 0.6413(2)
H2 H 0.82460 0.26570 0.62230
C3 C 0.8243(5) 0.4363(12) 0.6853(2)
H3 H 0.78780 0.32770 0.70260
C4 C 0.8628(5) 0.6727(12) 0.7047(2)
H4 H 0.90560 0.65510 0.73810
C5 C 0.9358(5) 0.7603(11) 0.6688(2)
H5 H 0.91110 0.91960 0.65730
C6 C 1.0528(5) 0.7745(11) 0.6896(2)
C7 C 1.1072(5) 0.5922(12) 0.7149(2)
H6 H 1.06900 0.45530 0.72090
C8 C 1.2154(5) 0.6029(12) 0.7318(2)
H7 H 1.25130 0.47360 0.74850
C9 C 1.2712(5) 0.8031(13) 0.7243(2)
H8 H 1.34540 0.81330 0.73650
C10 C 1.2194(5) 0.9875(12) 0.6991(2)
H9 H 1.25820 1.12390 0.69340
C11 C 1.1108(5) 0.9752(12) 0.6821(2)
H10 H 1.07530 1.10440 0.66510
C12 C 0.6740(4) 0.7303(12) 0.5599(2)
H11 H 0.66600 0.56060 0.56510
H12 H 0.67550 0.75850 0.52470
C13 C 0.5853(5) 0.8619(12) 0.5763(2)
C14 C 0.5499(5) 1.0715(12) 0.5537(2)
H13 H 0.57800 1.12350 0.52580
C15 C 0.4728(5) 1.2056(13) 0.5722(2)
H14 H 0.44810 1.34780 0.55670
C16 C 0.4333(5) 1.1296(14) 0.6129(2)
H15 H 0.38210 1.22160 0.62580
C17 C 0.4675(5) 0.9202(14) 0.6352(2)
H16 H 0.43900 0.86760 0.66300
C18 C 0.5428(5) 0.7892(13) 0.6168(2)
H17 H 0.56620 0.64590 0.63220
C19 C 0.9292(5) 0.8624(11) 0.5580(2)
H18 H 0.99890 0.79060 0.55500
H19 H 0.94260 0.99560 0.58090
C20 C 0.8758(5) 0.9485(12) 0.5087(2)
C21 C 0.8782(5) 0.8076(12) 0.4677(2)
H20 H 0.91370 0.66100 0.47110
C22 C 0.8290(5) 0.8811(12) 0.4220(2)
H21 H 0.83170 0.78550 0.39420
C23 C 0.7757(5) 1.0940(12) 0.4165(2)
H22 H 0.74100 1.14320 0.38520
C24 C 0.7737(5) 1.2319(12) 0.4567(2)
H23 H 0.73690 1.37690 0.45310
C25 C 0.8243(5) 1.1641(12) 0.5027(2)
H24 H 0.82390 1.26430 0.53000
N1 N 0.8614(4) 0.6901(9) 0.57730(17)
O1 O 0.7741(3) 0.8245(8) 0.70688(16)
H25 H 0.74780 0.86660 0.67850
O2 O 0.7697(3) 0.8170(7) 0.58921(14)
C26 C 0.3067(5) -0.0442(12) 0.8614(2)
H26 H 0.30480 -0.11990 0.82870
C27 C 0.3408(5) -0.2247(12) 0.9004(2)
H27 H 0.30410 -0.36790 0.90260
C28 C 0.4266(5) -0.1635(12) 0.9309(2)
H28 H 0.45970 -0.25790 0.95720
C29 C 0.4663(5) 0.0772(12) 0.9189(2)
H29 H 0.54390 0.07060 0.91630
C30 C 0.3997(5) 0.1338(12) 0.8688(2)
H30 H 0.36870 0.29360 0.87050
C31 C 0.4645(5) 0.1307(11) 0.8274(2)
C32 C 0.5258(5) -0.0647(12) 0.8195(2)
H31 H 0.52760 -0.19630 0.84050
C33 C 0.5836(5) -0.0669(12) 0.7813(2)
H32 H 0.62650 -0.19860 0.77670
C34 C 0.5798(5) 0.1190(13) 0.7499(2)
H33 H 0.61900 0.11480 0.72340
C35 C 0.5183(5) 0.3133(14) 0.7567(2)
H34 H 0.51510 0.44250 0.73500
C36 C 0.4615(5) 0.3165(12) 0.7958(2)
H35 H 0.41980 0.44970 0.80060
C37 C 0.1417(5) 0.0752(13) 0.9413(2)
H36 H 0.15270 -0.09560 0.94430
H37 H 0.06580 0.10520 0.92770
C38 C 0.1705(5) 0.1903(13) 0.9896(2)
C39 C 0.1215(5) 0.3999(13) 1.0007(3)
H38 H 0.06530 0.46430 0.97780
C40 C 0.1541(6) 0.5117(14) 1.0441(3)
H39 H 0.12100 0.65410 1.05100
C41 C 0.2344(6) 0.4193(15) 1.0779(3)
H40 H 0.25660 0.49740 1.10800
C42 C 0.2827(6) 0.2118(15) 1.0678(3)
H41 H 0.33750 0.14620 1.09120
C43 C 0.2515(6) 0.1023(13) 1.0243(2)
H42 H 0.28620 -0.03830 1.01760
C44 C 0.1630(5) 0.2142(12) 0.8263(2)
H43 H 0.17060 0.14830 0.79400
H44 H 0.20810 0.35570 0.83160
C45 C 0.0486(5) 0.2788(11) 0.8266(2)
C46 C 0.0224(5) 0.4924(12) 0.8473(2)
H45 H 0.07690 0.60070 0.85960
C47 C -0.0839(6) 0.5423(13) 0.8495(3)
H46 H -0.10160 0.68210 0.86490
C48 C -0.1630(6) 0.3936(15) 0.8301(2)
H47 H -0.23540 0.43140 0.83150
C49 C -0.1384(5) 0.1865(14) 0.8081(2)
H48 H -0.19320 0.08180 0.79450
C50 C -0.0328(5) 0.1368(12) 0.8066(2)
H49 H -0.01600 -0.00290 0.79100
N2 N 0.1992(4) 0.0414(10) 0.86478(18)
O3 O 0.4487(4) 0.2392(7) 0.95631(15)
H50 H 0.45360 0.37630 0.94610
O4 O 0.2109(3) 0.1749(8) 0.91015(14)
#END
