
#######################################################################
#
#                 Cambridge Crystallographic Data Centre
#                                CCDC
#
#######################################################################
#
# If this CIF has been generated from an entry in the Cambridge
# Structural Database, then it will include bibliographic, chemical,
# crystal, experimental, refinement or atomic coordinate data resulting
# from the CCDC's data processing and validation procedures.
#
#######################################################################

data_CSD_CIF_CUNDOX
_audit_creation_date 1980-03-07
_audit_creation_method CSD-ConQuest-V1
_database_code_CSD CUNDOX
_database_code_depnum_ccdc_archive 'CCDC 1133332'
_chemical_formula_sum 'C11 H21 N1 O1'
_chemical_formula_moiety
;
C11 H21 N1 O1
;
_journal_coden_Cambridge 3
_journal_volume 33
_journal_year 1979
_journal_page_first 503
_journal_name_full 'Acta Chem.Scand. '
loop_
_publ_author_name
"P.Groth"
_chemical_name_systematic
;
Cycloundecane-oxime
;
_cell_volume    536.324
_exptl_crystal_density_diffrn 1.13
_exptl_special_details
;
H1 is deleted for suspected coordinate error

;
_diffrn_ambient_temperature 113.15
_refine_special_details
;
The O atom is disordered over 2 positions of occupancy 0.85 and 0.15. The 
latter is not retained.
;
#These two values have been output from a single CSD field.
_refine_ls_R_factor_gt 0.062
_refine_ls_wR_factor_gt 0.062
_symmetry_cell_setting triclinic
_symmetry_space_group_name_H-M 'P -1'
_symmetry_Int_Tables_number 2
loop_
_symmetry_equiv_pos_site_id
_symmetry_equiv_pos_as_xyz
1 x,y,z
2 -x,-y,-z
_cell_length_a 5.565(1)
_cell_length_b 7.873(1)
_cell_length_c 12.642(3)
_cell_angle_alpha 88.32(2)
_cell_angle_beta 78.69(2)
_cell_angle_gamma 80.92(1)
_cell_formula_units_Z 2
loop_
_atom_type_symbol
_atom_type_radius_bond
C 0.68
H 0.23
N 0.68
O 0.68
loop_
_atom_site_label
_atom_site_type_symbol
_atom_site_fract_x
_atom_site_fract_y
_atom_site_fract_z
O1 O 0.12090 -0.09400 0.09700
N1 N 0.16390 0.07550 0.06480
C1 C 0.31470 0.13410 0.11280
C2 C 0.44500 0.03180 0.19320
C3 C 0.29840 -0.02090 0.30150
C4 C 0.15270 0.12770 0.37540
C5 C -0.10330 0.18690 0.35320
C6 C -0.23940 0.35380 0.41030
C7 C -0.13020 0.51890 0.37940
C8 C -0.16040 0.59720 0.27050
C9 C -0.02090 0.49590 0.16990
C10 C 0.25610 0.44950 0.16310
C11 C 0.37710 0.30890 0.07920
H1 H 0.54400 -0.07600 0.15200
H2 H 0.56500 0.09900 0.20800
H3 H 0.18700 -0.09200 0.28600
H4 H 0.42300 -0.09200 0.34200
H5 H 0.13800 0.09000 0.45400
H6 H 0.26100 0.22700 0.36800
H7 H -0.09700 0.19600 0.27100
H8 H -0.21200 0.08600 0.37600
H9 H -0.40600 0.37500 0.39200
H10 H -0.25000 0.33100 0.48600
H11 H -0.21800 0.61300 0.43300
H12 H 0.05300 0.50400 0.38200
H13 H -0.33700 0.61900 0.26900
H14 H -0.11100 0.70800 0.26900
H15 H -0.10000 0.39900 0.16200
H16 H -0.04700 0.56800 0.10600
H17 H 0.33800 0.56000 0.14500
H18 H 0.29400 0.41600 0.23500
H19 H 0.32600 0.34200 0.01200
H20 H 0.55100 0.29900 0.07100
#END
