
#######################################################################
#
#                 Cambridge Crystallographic Data Centre
#                                CCDC
#
#######################################################################
#
# If this CIF has been generated from an entry in the Cambridge
# Structural Database, then it will include bibliographic, chemical,
# crystal, experimental, refinement or atomic coordinate data resulting
# from the CCDC's data processing and validation procedures.
#
#######################################################################

data_CSD_CIF_CUNQIM
_audit_creation_date 2010-07-30
_audit_creation_method CSD-ConQuest-V1
_database_code_CSD CUNQIM
_database_code_depnum_ccdc_archive 'CCDC 707016'
_chemical_formula_sum 'C33 H38 N2 O2'
_chemical_formula_moiety
;
C33 H38 N2 O2
;
_journal_coden_Cambridge 1090
_journal_volume 20
_journal_year 2009
_journal_page_first 2447
_journal_name_full 'Tetrahedron:Asymm. '
loop_
_publ_author_name
"C.Poisson"
"J.-E.Lacoste"
"F.D.Rochon"
"L.Breau"
_chemical_name_systematic
;
(-)-(2S,4'R,5'R,7R,9R,10S)-3-Benzyl-2-(3',5'-diphenyl-4,5-dihydro-1,2-oxazol-4
-yl)-4,4,7-trimethyloctahydro-2H-1,3-benzoxazine
;
_cell_volume   2863.894
_exptl_crystal_colour 'colorless'
_exptl_crystal_density_diffrn 1.147
_exptl_crystal_description 'elongated plate'
_exptl_crystal_preparation 'dichloromethane/diisopropyl ether'
_diffrn_ambient_temperature 294
#These two values have been output from a single CSD field.
_refine_ls_R_factor_gt 0.0656
_refine_ls_wR_factor_gt 0.0656
_symmetry_cell_setting monoclinic
_symmetry_space_group_name_H-M 'P 21'
_symmetry_Int_Tables_number 4
loop_
_symmetry_equiv_pos_site_id
_symmetry_equiv_pos_as_xyz
1 x,y,z
2 -x,1/2+y,-z
_cell_length_a 11.0164(13)
_cell_length_b 10.8856(16)
_cell_length_c 23.903(3)
_cell_angle_alpha 90
_cell_angle_beta 92.420(11)
_cell_angle_gamma 90
_cell_formula_units_Z 4
loop_
_atom_type_symbol
_atom_type_radius_bond
C 0.68
H 0.23
N 0.68
O 0.68
loop_
_atom_site_label
_atom_site_type_symbol
_atom_site_fract_x
_atom_site_fract_y
_atom_site_fract_z
O1 O 0.7821(3) 0.9349(3) 0.43130(14)
O2 O 1.0642(4) 0.7113(3) 0.51377(15)
N1 N 0.7404(4) 0.8469(4) 0.52066(18)
N2 N 1.0933(4) 0.7466(4) 0.45837(19)
C1 C 0.8228(5) 0.8512(5) 0.4748(2)
H1 H 0.82550 0.76880 0.45840
C2 C 0.6177(5) 0.7966(5) 0.4996(2)
C3 C 0.4562(6) 0.8277(7) 0.4180(3)
H2 H 0.47220 0.74910 0.40060
H3 H 0.39280 0.81600 0.44440
C4 C 0.4135(6) 0.9198(7) 0.3731(3)
H4 H 0.34180 0.88750 0.35320
H5 H 0.39090 0.99580 0.39100
C5 C 0.5093(6) 0.9467(7) 0.3315(3)
H6 H 0.52420 0.87150 0.31020
C6 C 0.6291(5) 0.9857(6) 0.3621(2)
H7 H 0.69180 0.99510 0.33510
H8 H 0.61790 1.06450 0.38020
C7 C 0.6688(5) 0.8912(5) 0.4055(2)
H9 H 0.68290 0.81250 0.38690
C8 C 0.5723(5) 0.8742(6) 0.4492(2)
H10 H 0.55390 0.95610 0.46360
C9 C 0.7319(5) 0.9665(5) 0.55005(19)
H11 H 0.65630 1.00580 0.53800
H12 H 0.79770 1.01860 0.53850
C10 C 0.7371(5) 0.9597(5) 0.6128(2)
C11 C 0.7611(6) 0.8536(6) 0.6433(2)
H13 H 0.77220 0.77950 0.62490
C12 C 0.7687(6) 0.8579(7) 0.7019(3)
H14 H 0.78520 0.78650 0.72230
C13 C 0.7521(7) 0.9652(9) 0.7293(3)
H15 H 0.75560 0.96660 0.76820
C14 C 0.7306(7) 1.0706(7) 0.7004(3)
H16 H 0.72110 1.14420 0.71950
C15 C 0.7225(5) 1.0690(6) 0.6421(2)
H17 H 0.70730 1.14160 0.62250
C16 C 0.6366(6) 0.6600(5) 0.4849(3)
H18 H 0.68560 0.62140 0.51410
H19 H 0.67660 0.65410 0.45010
H20 H 0.55920 0.61960 0.48140
C17 C 0.5266(5) 0.8021(6) 0.5463(3)
H21 H 0.51220 0.88630 0.55600
H22 H 0.55900 0.75890 0.57860
H23 H 0.45160 0.76470 0.53350
C18 C 0.4672(7) 1.0478(9) 0.2900(3)
H24 H 0.39370 1.02230 0.27040
H25 H 0.52920 1.06190 0.26370
H26 H 0.45250 1.12220 0.31020
C19 C 0.9543(5) 0.8890(5) 0.4914(2)
H27 H 0.96150 0.97770 0.49790
C20 C 1.0358(5) 0.8458(5) 0.4456(2)
C21 C 1.0450(5) 0.9004(5) 0.3893(2)
C22 C 1.0239(5) 1.0248(5) 0.3814(2)
H28 H 1.00270 1.07370 0.41140
C23 C 1.0345(6) 1.0762(6) 0.3291(2)
H29 H 1.02100 1.15990 0.32390
C24 C 1.0647(6) 1.0046(7) 0.2846(3)
H30 H 1.07320 1.03960 0.24950
C25 C 1.0824(6) 0.8801(7) 0.2923(3)
H31 H 1.10070 0.83110 0.26190
C26 C 1.0735(5) 0.8280(6) 0.3438(2)
H32 H 1.08650 0.74420 0.34850
C27 C 1.0070(5) 0.8148(5) 0.5408(2)
H33 H 0.94000 0.78410 0.56260
C28 C 1.0971(5) 0.8785(6) 0.5797(2)
C29 C 1.2033(6) 0.8211(7) 0.5981(3)
H34 H 1.22200 0.74340 0.58470
C30 C 1.2831(6) 0.8795(8) 0.6370(3)
H35 H 1.35480 0.84060 0.64890
C31 C 1.2568(6) 0.9920(8) 0.6573(3)
H36 H 1.30900 1.02920 0.68380
C32 C 1.1539(6) 1.0499(6) 0.6388(3)
H37 H 1.13640 1.12810 0.65200
C33 C 1.0748(5) 0.9937(6) 0.6006(2)
H38 H 1.00440 1.03480 0.58860
O3 O 0.2228(3) 0.2762(3) 0.06667(14)
O4 O -0.0762(4) 0.0650(4) -0.00976(17)
N3 N 0.2552(4) 0.1893(4) -0.02364(17)
N4 N -0.0990(4) 0.1052(5) 0.0454(2)
C34 C 0.1765(5) 0.1962(5) 0.0234(2)
H39 H 0.17230 0.11360 0.03950
C35 C 0.3741(5) 0.1341(6) -0.0042(3)
C36 C 0.5443(6) 0.1594(7) 0.0748(3)
H40 H 0.52850 0.08000 0.09140
H41 H 0.60600 0.14870 0.04750
C37 C 0.5903(6) 0.2479(8) 0.1201(3)
H42 H 0.66300 0.21380 0.13840
H43 H 0.61260 0.32460 0.10270
C38 C 0.4993(6) 0.2742(8) 0.1639(3)
H44 H 0.48280 0.19720 0.18330
C39 C 0.3804(5) 0.3178(6) 0.1348(2)
H45 H 0.31920 0.32750 0.16240
H46 H 0.39330 0.39730 0.11770
C40 C 0.3352(5) 0.2277(6) 0.0903(2)
H47 H 0.31900 0.14860 0.10810
C41 C 0.4270(5) 0.2086(5) 0.0455(2)
H48 H 0.44620 0.29020 0.03100
C42 C 0.2645(5) 0.3067(5) -0.0540(2)
H49 H 0.34220 0.34410 -0.04370
H50 H 0.20140 0.36140 -0.04180
C43 C 0.2536(5) 0.2964(5) -0.1170(2)
C44 C 0.2243(6) 0.1926(6) -0.1457(2)
H51 H 0.21080 0.12020 -0.12630
C45 C 0.2142(7) 0.1930(7) -0.2036(3)
H52 H 0.19510 0.12040 -0.22250
C46 C 0.2315(7) 0.2954(7) -0.2329(3)
H53 H 0.22430 0.29420 -0.27190
C47 C 0.2598(7) 0.4026(7) -0.2050(3)
H54 H 0.27210 0.47480 -0.22480
C48 C 0.2698(6) 0.4019(6) -0.1474(2)
H55 H 0.28810 0.47470 -0.12860
C49 C 0.3532(6) -0.0030(6) 0.0098(3)
H56 H 0.30610 -0.00900 0.04260
H57 H 0.43010 -0.04280 0.01670
H58 H 0.31030 -0.04210 -0.02110
C50 C 0.4632(6) 0.1363(6) -0.0527(3)
H59 H 0.47890 0.21980 -0.06310
H60 H 0.42780 0.09300 -0.08440
H61 H 0.53810 0.09730 -0.04070
C51 C 0.5477(7) 0.3666(9) 0.2073(3)
H62 H 0.48750 0.38060 0.23440
H63 H 0.56580 0.44260 0.18900
H64 H 0.62020 0.33480 0.22560
C52 C 0.0434(5) 0.2386(5) 0.0092(2)
H65 H 0.03910 0.32710 0.00170
C53 C -0.0150(6) 0.1638(5) -0.0390(2)
H66 H 0.04930 0.12830 -0.06100
C54 C -0.1044(6) 0.2315(6) -0.0782(2)
C55 C -0.0783(6) 0.3472(6) -0.0981(2)
H67 H -0.00760 0.38690 -0.08540
C56 C -0.1568(6) 0.4051(7) -0.1370(2)
H68 H -0.13920 0.48300 -0.15040
C57 C -0.2616(7) 0.3444(9) -0.1553(3)
H69 H -0.31480 0.38140 -0.18140
C58 C -0.2870(7) 0.2310(9) -0.1352(3)
H70 H -0.35780 0.19150 -0.14790
C59 C -0.2103(6) 0.1728(7) -0.0965(3)
H71 H -0.22950 0.09540 -0.08290
C60 C -0.0348(5) 0.2024(5) 0.0569(2)
C61 C -0.0408(5) 0.2604(5) 0.1120(2)
C62 C -0.0023(6) 0.3801(6) 0.1196(2)
H72 H 0.02990 0.42320 0.09010
C63 C -0.0116(6) 0.4357(6) 0.1714(3)
H73 H 0.01310 0.51680 0.17630
C64 C -0.0565(7) 0.3728(8) 0.2150(3)
H74 H -0.06230 0.41120 0.24960
C65 C -0.0932(6) 0.2539(8) 0.2085(3)
H75 H -0.12320 0.21140 0.23870
C66 C -0.0859(5) 0.1955(6) 0.1567(2)
H76 H -0.11080 0.11430 0.15220
#END
