
#######################################################################
#
#                 Cambridge Crystallographic Data Centre
#                                CCDC
#
#######################################################################
#
# If this CIF has been generated from an entry in the Cambridge
# Structural Database, then it will include bibliographic, chemical,
# crystal, experimental, refinement or atomic coordinate data resulting
# from the CCDC's data processing and validation procedures.
#
#######################################################################

data_CSD_CIF_CUNVAI
_audit_creation_date 1985-11-27
_audit_creation_method CSD-ConQuest-V1
_database_code_CSD CUNVAI
_chemical_formula_sum 'C10 H10 N4 O5'
_chemical_formula_moiety
;
C10 H10 N4 O5
;
_journal_coeditor_code "IUCr A24689"
_journal_coden_Cambridge 591
_journal_volume 41
_journal_year 1985
_journal_page_first 589
_journal_name_full 'Acta Crystallogr.,Sect.C:Cryst.Struct.Commun. '
loop_
_publ_author_name
"G.R.Willey"
"M.G.B.Drew"
_chemical_name_systematic
;
(E)-2,3-Butanedione-2',4'-dinitrophenylhydrazone
;
_chemical_melting_point 448
_cell_volume   1166.104
_exptl_crystal_colour 'tangerine'
_exptl_crystal_density_diffrn 1.51
_exptl_special_details
;
Melting point range 448-449K

;
_diffrn_ambient_temperature ?
_diffrn_special_details
;
The study was carried out at room temperature,in the range 283-303K

;
#These two values have been output from a single CSD field.
_refine_ls_R_factor_gt 0.065
_refine_ls_wR_factor_gt 0.065
_symmetry_cell_setting monoclinic
_symmetry_space_group_name_H-M 'P 21/c'
_symmetry_Int_Tables_number 14
loop_
_symmetry_equiv_pos_site_id
_symmetry_equiv_pos_as_xyz
1 x,y,z
2 -x,1/2+y,1/2-z
3 -x,-y,-z
4 x,-1/2-y,-1/2+z
_cell_length_a 10.013(9)
_cell_length_b 11.630(11)
_cell_length_c 10.529(12)
_cell_angle_alpha 90
_cell_angle_beta 108.0(1)
_cell_angle_gamma 90
_cell_formula_units_Z 4
loop_
_atom_type_symbol
_atom_type_radius_bond
C 0.68
H 0.23
N 0.68
O 0.68
loop_
_atom_site_label
_atom_site_type_symbol
_atom_site_fract_x
_atom_site_fract_y
_atom_site_fract_z
C1 C 0.1168(3) 0.6280(3) -0.0838(3)
C2 C 0.1933(3) 0.6613(3) 0.0446(3)
C3 C 0.2530(3) 0.5803(3) 0.1409(3)
C4 C 0.2369(3) 0.4599(3) 0.1110(3)
C5 C 0.1563(3) 0.4302(3) -0.0222(3)
C6 C 0.0969(3) 0.5115(3) -0.1181(3)
C7 C 0.3435(3) 0.1923(3) 0.2633(3)
C8 C 0.3293(4) 0.0683(3) 0.2207(4)
O1 O 0.4048(3) -0.0023(3) 0.2960(3)
N1 N 0.0543(3) 0.7154(3) -0.1856(3)
N2 N 0.3345(3) 0.6225(3) 0.2748(3)
N3 N 0.2950(3) 0.3779(2) 0.2052(3)
N4 N 0.2775(3) 0.2648(2) 0.1703(3)
O2 O 0.0682(3) 0.8164(3) -0.1535(3)
O3 O -0.0107(3) 0.6830(3) -0.3001(3)
O4 O 0.3483(3) 0.7258(2) 0.2913(3)
O5 O 0.3848(3) 0.5541(2) 0.3664(3)
C9 C 0.4343(4) 0.2224(3) 0.4039(4)
C10 C 0.2208(5) 0.0364(4) 0.0876(4)
H1 H 0.20450 0.74070 0.06620
H2 H 0.14300 0.35120 -0.04550
H3 H 0.04360 0.48890 -0.20560
H4 H 0.3467(50) 0.3996(45) 0.2936(49)
H5 H 0.46990 0.15480 0.45350
H6 H 0.37240 0.25990 0.44240
H7 H 0.50910 0.27250 0.40570
H8 H 0.18170 0.10040 0.03270
H9 H 0.14820 -0.00940 0.10070
H10 H 0.27380 -0.00840 0.04540
#END
