
#######################################################################
#
#                 Cambridge Crystallographic Data Centre
#                                CCDC
#
#######################################################################
#
# If this CIF has been generated from an entry in the Cambridge
# Structural Database, then it will include bibliographic, chemical,
# crystal, experimental, refinement or atomic coordinate data resulting
# from the CCDC's data processing and validation procedures.
#
#######################################################################

data_CSD_CIF_CUPBEV
_audit_creation_date 2010-07-30
_audit_creation_method CSD-ConQuest-V1
_database_code_CSD CUPBEV
_database_code_depnum_ccdc_archive 'CCDC 733796'
_chemical_formula_sum 'C17 H20 N2 O2'
_chemical_formula_moiety
;
C17 H20 N2 O2
;
_journal_coden_Cambridge 24
_journal_volume 50
_journal_year 2009
_journal_page_first 6998
_journal_name_full 'Tetrahedron Lett. '
loop_
_publ_author_name
"D.Kundu"
"R.K.Debnath"
"A.Majee"
"A.Hajra"
_chemical_name_systematic
;
4-Methyl-N-(2-nitro-1-phenylbutyl)aniline
;
_chemical_name_common
;
syn-1-Phenyl-1-(p-tolylamino)-2-nitrobutane
;
_cell_volume   7276.556
_diffrn_ambient_temperature 296
#These two values have been output from a single CSD field.
_refine_ls_R_factor_gt 0.0521
_refine_ls_wR_factor_gt 0.0521
_symmetry_cell_setting rhombohedral
_symmetry_space_group_name_H-M 'R -3'
_symmetry_Int_Tables_number 148
loop_
_symmetry_equiv_pos_site_id
_symmetry_equiv_pos_as_xyz
1 x,y,z
2 -y,x-y,z
3 -x+y,-x,z
4 2/3+x,1/3+y,1/3+z
5 2/3-y,1/3+x-y,1/3+z
6 2/3-x+y,1/3-x,1/3+z
7 1/3+x,2/3+y,2/3+z
8 1/3-y,2/3+x-y,2/3+z
9 1/3-x+y,2/3-x,2/3+z
10 -x,-y,-z
11 y,-x+y,-z
12 x-y,x,-z
13 -2/3-x,-1/3-y,-1/3-z
14 -2/3+y,-1/3-x+y,-1/3-z
15 -2/3+x-y,-1/3+x,-1/3-z
16 -1/3-x,-2/3-y,-2/3-z
17 -1/3+y,-2/3-x+y,-2/3-z
18 -1/3+x-y,-2/3+x,-2/3-z
_cell_length_a 16.5947(14)
_cell_length_b 16.5947(14)
_cell_length_c 30.511(2)
_cell_angle_alpha 90
_cell_angle_beta 90
_cell_angle_gamma 120
_cell_formula_units_Z 18
loop_
_atom_type_symbol
_atom_type_radius_bond
C 0.68
H 0.23
N 0.68
O 0.68
loop_
_atom_site_label
_atom_site_type_symbol
_atom_site_fract_x
_atom_site_fract_y
_atom_site_fract_z
C1 C 0.07436(11) 0.74439(11) 0.12052(5)
C2 C 0.05461(15) 0.65413(14) 0.12790(7)
H1 H -0.00440 0.60970 0.13750
C3 C 0.16198(13) 0.80916(15) 0.10653(7)
H2 H 0.17640 0.87030 0.10170
C4 C 0.1212(2) 0.62950(19) 0.12125(8)
H3 H 0.10720 0.56850 0.12620
C5 C 0.2075(2) 0.6940(2) 0.10748(8)
H4 H 0.25250 0.67700 0.10330
C6 C 0.05328(11) 0.86494(12) 0.19638(6)
C7 C 0.09393(12) 0.95192(14) 0.21557(7)
H5 H 0.11180 1.00400 0.19810
C8 C 0.03014(14) 0.78928(14) 0.22287(7)
H6 H 0.00430 0.73010 0.21080
C9 C 0.10832(15) 0.96275(19) 0.25949(8)
H7 H 0.13560 1.02230 0.27130
C10 C 0.04555(17) 0.8017(2) 0.26785(8)
H8 H 0.02960 0.75010 0.28540
C11 C 0.08381(18) 0.8883(2) 0.28707(8)
C12 C 0.0970(3) 0.8999(4) 0.33636(11)
H9 H 0.15770 0.91050 0.34390
H10 H 0.05050 0.84440 0.35070
H11 H 0.09100 0.95190 0.34570
N1 N -0.11235(12) 0.80621(13) 0.09458(6)
C13 C -0.03975(12) 0.77959(13) 0.08431(6)
H12 H 0.01000 0.82960 0.06710
O1 O -0.17545(11) 0.75785(12) 0.11908(8)
O2 O -0.10425(13) 0.87539(13) 0.07750(7)
C14 C -0.08451(18) 0.69195(16) 0.05709(8)
H13 H -0.13390 0.64250 0.07410
H14 H -0.03850 0.67370 0.05100
C15 C -0.1247(2) 0.7016(2) 0.01389(9)
H15 H -0.17580 0.71180 0.01960
H16 H -0.14620 0.64560 -0.00300
H17 H -0.07740 0.75330 -0.00220
C16 C 0.22891(16) 0.7839(2) 0.09958(8)
H18 H 0.28790 0.82760 0.08960
C17 C 0.00055(12) 0.77119(11) 0.12802(6)
H19 H -0.05000 0.72120 0.14490
N2 N 0.03243(10) 0.85702(10) 0.15184(5)
H20 H 0.03880 0.90500 0.13800
#END
