
#######################################################################
#
#                 Cambridge Crystallographic Data Centre
#                                CCDC
#
#######################################################################
#
# If this CIF has been generated from an entry in the Cambridge
# Structural Database, then it will include bibliographic, chemical,
# crystal, experimental, refinement or atomic coordinate data resulting
# from the CCDC's data processing and validation procedures.
#
#######################################################################

data_CSD_CIF_CUPLIK
_audit_creation_date 2015-07-13
_audit_creation_method CSD-ConQuest-V1
_database_code_CSD CUPLIK
_database_code_depnum_ccdc_archive 'CCDC 1403824'
_chemical_formula_sum 'C24 H20 N2 O3'
_chemical_formula_moiety
;
C24 H20 N2 O3
;
_journal_coden_Cambridge 1500
_journal_volume 5
_journal_year 2015
_journal_page_first 60054
_journal_name_full 'RSC Advances '
loop_
_publ_author_name
"M.Miliutina"
"A.Ivanov"
"S.A.Ejaz"
"J.Iqbal"
"A.Villinger"
"V.O.Iaroshenko"
"P.Langer"
_chemical_name_systematic
;
(R)-2-(4-methylphenyl)-6-nitro-1-(1-phenylethyl)quinolin-4(1H)-one
;
_chemical_name_common
;
(R)-6-nitro-1-(1-phenylethyl)-2-(4-tolyl)quinolin-4(1H)-one
;
_cell_volume   1948.028
_exptl_crystal_colour 'yellow'
_exptl_crystal_density_diffrn 1.311
_exptl_crystal_description 'block'
_diffrn_ambient_temperature 173
#These two values have been output from a single CSD field.
_refine_ls_R_factor_gt 0.0414
_refine_ls_wR_factor_gt 0.0414
_symmetry_cell_setting orthorhombic
_symmetry_space_group_name_H-M 'P 21 21 21'
_symmetry_Int_Tables_number 19
loop_
_symmetry_equiv_pos_site_id
_symmetry_equiv_pos_as_xyz
1 x,y,z
2 1/2-x,-y,1/2+z
3 -x,1/2+y,1/2-z
4 1/2+x,1/2-y,-z
_cell_length_a 9.9322(10)
_cell_length_b 13.6154(10)
_cell_length_c 14.4052(15)
_cell_angle_alpha 90
_cell_angle_beta 90
_cell_angle_gamma 90
_cell_formula_units_Z 4
loop_
_atom_type_symbol
_atom_type_radius_bond
C 0.68
H 0.23
N 0.68
O 0.68
loop_
_atom_site_label
_atom_site_type_symbol
_atom_site_fract_x
_atom_site_fract_y
_atom_site_fract_z
N1 N 0.3487(2) 0.24717(15) 0.79814(15)
N2 N 0.2433(2) 0.57140(16) 0.56720(17)
C1 C 0.1906(3) 0.36422(18) 0.73286(19)
C2 C 0.2696(3) 0.48692(17) 0.62718(19)
C3 C 0.3231(3) 0.32716(17) 0.74065(18)
C4 C 0.2418(3) 0.20009(17) 0.84153(19)
C5 C 0.1662(3) 0.44525(18) 0.67556(18)
H1 H 0.07780 0.47120 0.67030
C6 C 0.0780(3) 0.3200(2) 0.7833(2)
C7 C 0.4010(3) 0.45059(18) 0.63279(19)
H2 H 0.47130 0.48020 0.59800
C8 C 0.4271(3) 0.37197(18) 0.68895(19)
H3 H 0.51620 0.34720 0.69330
C9 C 0.5766(3) 0.18427(17) 0.74754(19)
C10 C 0.2663(3) 0.10828(18) 0.89616(18)
C11 C 0.7131(3) 0.20639(18) 0.7427(2)
H4 H 0.75100 0.25190 0.78530
C12 C 0.4900(2) 0.22359(18) 0.82591(18)
H5 H 0.48190 0.16790 0.87080
C13 C 0.3201(3) 0.10910(19) 0.98555(19)
H6 H 0.34860 0.16940 1.01230
C14 C 0.2227(3) 0.01931(18) 0.8591(2)
H7 H 0.18450 0.01740 0.79870
C15 C 0.7942(3) 0.1628(2) 0.6764(2)
H8 H 0.88750 0.17810 0.67430
C16 C 0.2349(3) -0.0667(2) 0.9105(2)
H9 H 0.20420 -0.12680 0.88460
C17 C 0.5233(3) 0.11851(19) 0.6833(2)
H10 H 0.43010 0.10300 0.68510
C18 C 0.1133(3) 0.23275(19) 0.8335(2)
H11 H 0.04350 0.19610 0.86240
C19 C 0.3322(3) 0.02267(19) 1.0358(2)
H12 H 0.36930 0.02450 1.09650
C20 C 0.2910(3) -0.0667(2) 0.9984(2)
C21 C 0.3097(4) -0.1617(2) 1.0518(3)
H13 H 0.33270 -0.14670 1.11640
H14 H 0.38240 -0.20000 1.02350
H15 H 0.22590 -0.19970 1.05000
C22 C 0.7408(4) 0.0977(2) 0.6138(2)
H16 H 0.79690 0.06780 0.56850
C23 C 0.6048(4) 0.0757(2) 0.6170(2)
H17 H 0.56740 0.03100 0.57340
C24 C 0.5504(3) 0.30807(19) 0.8821(2)
H18 H 0.48530 0.32990 0.92890
H19 H 0.57180 0.36280 0.84050
H20 H 0.63280 0.28570 0.91300
O1 O 0.3359(2) 0.60525(13) 0.52142(15)
O2 O 0.1281(2) 0.60449(14) 0.56534(15)
O3 O -0.03701(19) 0.35565(14) 0.78101(16)
#END
