
#######################################################################
#
#                 Cambridge Crystallographic Data Centre
#                                CCDC
#
#######################################################################
#
# If this CIF has been generated from an entry in the Cambridge
# Structural Database, then it will include bibliographic, chemical,
# crystal, experimental, refinement or atomic coordinate data resulting
# from the CCDC's data processing and validation procedures.
#
#######################################################################

data_CSD_CIF_CUPPIO
_audit_creation_date 2015-07-13
_audit_creation_method CSD-ConQuest-V1
_database_code_CSD CUPPIO
_database_code_depnum_ccdc_archive 'CCDC 1061027'
_chemical_formula_sum 'C15 H13 N3 O3'
_chemical_formula_moiety
;
C15 H13 N3 O3
;
_journal_coden_Cambridge 1147
_journal_volume 15
_journal_year 2015
_journal_page_first 4005
_journal_name_full 'Cryst.Growth Des. '
loop_
_publ_author_name
"F.George"
"B.Norberg"
"J.Wouters"
"T.Leyssens"
_chemical_name_systematic
;
2-((4-nitrobenzylidene)amino)-2-phenylacetamide
;
_cell_volume    697.870
_exptl_crystal_colour 'yellow'
_exptl_crystal_density_diffrn 1.348
_exptl_crystal_description 'plaquet'
_diffrn_ambient_temperature 293
#These two values have been output from a single CSD field.
_refine_ls_R_factor_gt 0.0397
_refine_ls_wR_factor_gt 0.0397
_symmetry_cell_setting monoclinic
_symmetry_space_group_name_H-M 'P 21'
_symmetry_Int_Tables_number 4
loop_
_symmetry_equiv_pos_site_id
_symmetry_equiv_pos_as_xyz
1 x,y,z
2 -x,1/2+y,-z
_cell_length_a 6.7108(4)
_cell_length_b 7.9363(4)
_cell_length_c 13.2410(8)
_cell_angle_alpha 90
_cell_angle_beta 98.269(6)
_cell_angle_gamma 90
_cell_formula_units_Z 2
loop_
_atom_type_symbol
_atom_type_radius_bond
C 0.68
H 0.23
N 0.68
O 0.68
loop_
_atom_site_label
_atom_site_type_symbol
_atom_site_fract_x
_atom_site_fract_y
_atom_site_fract_z
C1 C 0.6943(3) 0.9363(2) 0.22659(14)
C2 C 0.8907(3) 0.9954(3) 0.24901(15)
H1 H 0.98240 0.97410 0.20420
C3 C 0.9504(4) 1.0856(3) 0.33753(17)
H2 H 1.08200 1.12450 0.35310
C4 C 0.8117(4) 1.1167(3) 0.40187(16)
C5 C 0.6171(4) 1.0596(3) 0.38272(17)
H3 H 0.52600 1.08300 0.42750
C6 C 0.5597(3) 0.9667(3) 0.29533(16)
H4 H 0.42960 0.92390 0.28220
C7 C 0.6307(3) 0.8375(2) 0.13424(14)
H5 H 0.51950 0.76710 0.13220
C8 C 0.6552(3) 0.7285(2) -0.02729(14)
H6 H 0.53710 0.66730 -0.01090
C9 C 0.8211(3) 0.6011(2) -0.03790(14)
C10 C 0.5947(3) 0.8251(2) -0.12584(13)
C11 C 0.3938(3) 0.8643(2) -0.15660(16)
H7 H 0.29740 0.82940 -0.11720
C12 C 0.3351(4) 0.9546(3) -0.24513(17)
H8 H 0.19980 0.97980 -0.26490
C13 C 0.4756(4) 1.0071(3) -0.30398(18)
H9 H 0.43620 1.06830 -0.36340
C14 C 0.6738(4) 0.9689(4) -0.27451(19)
H10 H 0.76950 1.00350 -0.31440
C15 C 0.7333(3) 0.8794(3) -0.18605(17)
H11 H 0.86910 0.85540 -0.16670
N1 N 0.7225(2) 0.84471(19) 0.05653(11)
N2 N 1.0092(3) 0.6432(2) -0.00096(15)
N3 N 0.8741(5) 1.2117(3) 0.49602(19)
O1 O 0.77839(19) 0.46523(17) -0.08075(11)
O2 O 0.7469(4) 1.2621(3) 0.54518(16)
O3 O 1.0547(5) 1.2322(5) 0.5221(2)
H12 H 1.037(3) 0.740(3) 0.0338(17)
H13 H 1.113(4) 0.572(3) -0.0080(18)
#END
