
#######################################################################
#
#                 Cambridge Crystallographic Data Centre
#                                CCDC
#
#######################################################################
#
# If this CIF has been generated from an entry in the Cambridge
# Structural Database, then it will include bibliographic, chemical,
# crystal, experimental, refinement or atomic coordinate data resulting
# from the CCDC's data processing and validation procedures.
#
#######################################################################

data_CSD_CIF_CUPSAJ
_audit_creation_date 2015-07-13
_audit_creation_method CSD-ConQuest-V1
_database_code_CSD CUPSAJ
_database_code_depnum_ccdc_archive 'CCDC 1061051'
_chemical_formula_sum 'C15 H13 N3 O3'
_chemical_formula_moiety
;
C15 H13 N3 O3
;
_journal_coden_Cambridge 1147
_journal_volume 15
_journal_year 2015
_journal_page_first 4005
_journal_name_full 'Cryst.Growth Des. '
loop_
_publ_author_name
"F.George"
"B.Norberg"
"J.Wouters"
"T.Leyssens"
_chemical_name_systematic
;
2-((2-Nitrobenzylidene)amino)-2-phenylacetamide
;
_cell_volume   1344.711
_exptl_crystal_density_diffrn 1.399
_diffrn_ambient_temperature 293
#These two values have been output from a single CSD field.
_refine_ls_R_factor_gt 0.0509
_refine_ls_wR_factor_gt 0.0509
_symmetry_cell_setting orthorhombic
_symmetry_space_group_name_H-M 'P 21 21 21'
_symmetry_Int_Tables_number 19
loop_
_symmetry_equiv_pos_site_id
_symmetry_equiv_pos_as_xyz
1 x,y,z
2 1/2-x,-y,1/2+z
3 1/2+x,1/2-y,-z
4 -x,1/2+y,1/2-z
_cell_length_a 5.2320(4)
_cell_length_b 13.7900(13)
_cell_length_c 18.6379(17)
_cell_angle_alpha 90
_cell_angle_beta 90
_cell_angle_gamma 90
_cell_formula_units_Z 4
loop_
_atom_type_symbol
_atom_type_radius_bond
C 0.68
H 0.23
N 0.68
O 0.68
loop_
_atom_site_label
_atom_site_type_symbol
_atom_site_fract_x
_atom_site_fract_y
_atom_site_fract_z
C1 C 0.3311(6) 0.42937(19) 0.27013(13)
C2 C 0.5099(6) 0.5015(2) 0.25823(15)
H1 H 0.51040 0.55570 0.28790
C3 C 0.6875(6) 0.4953(3) 0.20364(17)
H2 H 0.80750 0.54440 0.19770
C4 C 0.6879(8) 0.4174(3) 0.15832(16)
H3 H 0.80510 0.41450 0.12090
C5 C 0.5149(8) 0.3432(3) 0.16802(15)
H4 H 0.51670 0.28950 0.13780
C6 C 0.3385(6) 0.3492(2) 0.22324(14)
C7 C 0.1375(6) 0.4446(2) 0.32737(14)
C8 C -0.0243(5) 0.50878(18) 0.43236(13)
H5 H -0.18470 0.49530 0.40710
C9 C -0.0296(5) 0.6143(2) 0.45971(13)
C10 C -0.0009(5) 0.43994(18) 0.49523(13)
C11 C 0.2063(5) 0.4440(2) 0.54221(14)
H6 H 0.33100 0.49140 0.53630
C12 C 0.2265(6) 0.3776(2) 0.59761(15)
H7 H 0.36510 0.38070 0.62880
C13 C 0.0442(6) 0.3072(2) 0.60702(16)
H8 H 0.05930 0.26300 0.64440
C14 C -0.1613(6) 0.3022(2) 0.56091(16)
H9 H -0.28510 0.25460 0.56710
C15 C -0.1831(6) 0.3683(2) 0.50520(15)
H10 H -0.32180 0.36460 0.47410
N1 N 0.1894(4) 0.49373(15) 0.38258(11)
N2 N 0.1901(5) 0.66006(18) 0.46274(13)
N3 N 0.1644(6) 0.26683(18) 0.23267(13)
O1 O -0.2377(4) 0.64749(13) 0.47973(9)
O2 O 0.0435(6) 0.26024(16) 0.28776(12)
O3 O 0.1547(7) 0.2069(2) 0.18536(15)
H11 H 0.337(8) 0.630(3) 0.4487(19)
H12 H 0.196(6) 0.725(3) 0.4765(15)
H13 H -0.031(6) 0.4213(18) 0.3185(13)
#END
