
#######################################################################
#
#                 Cambridge Crystallographic Data Centre
#                                CCDC
#
#######################################################################
#
# If this CIF has been generated from an entry in the Cambridge
# Structural Database, then it will include bibliographic, chemical,
# crystal, experimental, refinement or atomic coordinate data resulting
# from the CCDC's data processing and validation procedures.
#
#######################################################################

data_CSD_CIF_CUPYUJ
_audit_creation_date 2015-07-13
_audit_creation_method CSD-ConQuest-V1
_database_code_CSD CUPYUJ
_database_code_depnum_ccdc_archive 'CCDC 1054610'
_chemical_formula_sum 'C1 H2 N8 O4'
_chemical_formula_moiety
;
C1 H2 N8 O4
;
_journal_coden_Cambridge 179
_journal_volume 54
_journal_year 2015
_journal_page_first 10299
_journal_name_full 'Angew.Chem.,Int.Ed. '
loop_
_publ_author_name
"D.Fischer"
"T.M.Klapotke"
"J.Stierstorfer"
_chemical_name_systematic
;
N-nitro-5-(nitroimino)-4,5-dihydro-1H-tetrazol-1-amine
;
_cell_volume    641.745
_exptl_crystal_colour 'colorless'
_exptl_crystal_density_diffrn 1.968
_exptl_crystal_description 'block'
_diffrn_ambient_temperature 173
#These two values have been output from a single CSD field.
_refine_ls_R_factor_gt 0.0204
_refine_ls_wR_factor_gt 0.0204
_symmetry_cell_setting orthorhombic
_symmetry_space_group_name_H-M 'P 21 21 21'
_symmetry_Int_Tables_number 19
loop_
_symmetry_equiv_pos_site_id
_symmetry_equiv_pos_as_xyz
1 x,y,z
2 1/2-x,-y,1/2+z
3 1/2+x,1/2-y,-z
4 -x,1/2+y,1/2-z
_cell_length_a 5.4710(2)
_cell_length_b 8.9979(3)
_cell_length_c 13.0363(4)
_cell_angle_alpha 90
_cell_angle_beta 90
_cell_angle_gamma 90
_cell_formula_units_Z 4
loop_
_atom_type_symbol
_atom_type_radius_bond
C 0.68
H 0.23
N 0.68
O 0.68
loop_
_atom_site_label
_atom_site_type_symbol
_atom_site_fract_x
_atom_site_fract_y
_atom_site_fract_z
O1 O 0.6805(2) 1.19254(12) 0.47027(9)
O2 O 0.3661(3) 1.09538(13) 0.39492(10)
O3 O 0.5220(3) 0.74718(13) 0.77529(9)
O4 O 0.3876(3) 0.54777(13) 0.69975(11)
N1 N 0.7883(3) 0.81464(14) 0.61937(11)
N2 N 0.9981(3) 0.82292(16) 0.67674(11)
N3 N 1.0858(3) 0.95223(17) 0.66290(12)
N4 N 0.9373(3) 1.02749(16) 0.59643(11)
N5 N 0.5573(3) 0.95594(14) 0.50557(10)
N6 N 0.5395(3) 1.08772(15) 0.4557(1)
N7 N 0.6442(3) 0.69064(14) 0.61134(11)
N8 N 0.5076(3) 0.66082(14) 0.70551(11)
C1 C 0.7482(3) 0.94357(17) 0.56765(12)
H1 H 0.743(4) 0.601(2) 0.5966(16)
H2 H 0.965(5) 1.120(3) 0.5798(19)
#END
