
#######################################################################
#
#                 Cambridge Crystallographic Data Centre
#                                CCDC
#
#######################################################################
#
# If this CIF has been generated from an entry in the Cambridge
# Structural Database, then it will include bibliographic, chemical,
# crystal, experimental, refinement or atomic coordinate data resulting
# from the CCDC's data processing and validation procedures.
#
#######################################################################

data_CSD_CIF_CUQWIW
_audit_creation_date 2015-07-14
_audit_creation_method CSD-ConQuest-V1
_database_code_CSD CUQWIW
_database_code_depnum_ccdc_archive 'CCDC 1408591'
_chemical_formula_sum 'C13 H17 N1 O3'
_chemical_formula_moiety
;
C13 H17 N1 O3
;
_journal_coden_Cambridge 1475
_journal_volume 6
_journal_year 2015
_journal_page_first 5768
_journal_name_full 'Chemical Science '
loop_
_publ_author_name
"Weidong Liu"
"Qingzhen Yu"
"Le'an Hu"
"Zenghua Chen"
"Jianhui Huang"
_chemical_name_systematic
;
2,6-Dimethoxy-3,3-dimethyl-3,4-dihydroisoquinolin-1(2H)-one
;
_cell_volume    615.770
_exptl_crystal_density_diffrn 1.269
_diffrn_ambient_temperature 293
#These two values have been output from a single CSD field.
_refine_ls_R_factor_gt 0.0434
_refine_ls_wR_factor_gt 0.0434
_symmetry_cell_setting triclinic
_symmetry_space_group_name_H-M 'P -1'
_symmetry_Int_Tables_number 2
loop_
_symmetry_equiv_pos_site_id
_symmetry_equiv_pos_as_xyz
1 x,y,z
2 -x,-y,-z
_cell_length_a 7.6086(15)
_cell_length_b 7.9394(16)
_cell_length_c 11.314(2)
_cell_angle_alpha 108.24(3)
_cell_angle_beta 102.74(3)
_cell_angle_gamma 98.42(3)
_cell_formula_units_Z 2
loop_
_atom_type_symbol
_atom_type_radius_bond
C 0.68
H 0.23
N 0.68
O 0.68
loop_
_atom_site_label
_atom_site_type_symbol
_atom_site_fract_x
_atom_site_fract_y
_atom_site_fract_z
O1 O -0.13502(13) -0.28138(13) 0.56741(8)
O2 O 0.20466(14) -0.21251(15) 0.71534(10)
O3 O 0.39256(14) 0.53549(14) 1.18945(9)
N1 N -0.07852(15) -0.14519(15) 0.69234(10)
C1 C -0.14016(18) 0.1042(2) 0.85108(13)
H1 H -0.19540 0.20880 0.86390
H2 H -0.19460 0.02770 0.89200
C2 C 0.06425(18) 0.16925(19) 0.91644(13)
C3 C 0.14177(19) 0.32561(19) 1.02436(13)
H3 H 0.06570 0.39760 1.05800
C4 C 0.3316(2) 0.3777(2) 1.08381(13)
C5 C 0.4466(2) 0.2714(2) 1.03454(14)
H4 H 0.57380 0.30550 1.07360
C6 C 0.36967(19) 0.1148(2) 0.92710(14)
H5 H 0.44610 0.04280 0.89390
C7 C 0.18052(18) 0.06217(19) 0.86735(13)
C8 C 0.10690(19) -0.10890(19) 0.75193(13)
C9 C -0.18760(18) -0.0036(2) 0.70532(13)
C10 C -0.39320(19) -0.0967(2) 0.65455(15)
H6 H -0.42380 -0.16550 0.56330
H7 H -0.46490 -0.00610 0.66880
H8 H -0.42050 -0.17720 0.69960
C11 C -0.1395(2) 0.1171(2) 0.63050(16)
H9 H -0.01020 0.17620 0.66420
H10 H -0.21170 0.20760 0.63970
H11 H -0.16650 0.04390 0.54040
C12 C -0.1873(2) -0.4572(2) 0.57646(17)
H12 H -0.08650 -0.47670 0.63460
H13 H -0.21660 -0.55000 0.49210
H14 H -0.29390 -0.46230 0.60870
C13 C 0.5856(2) 0.5899(2) 1.25610(15)
H15 H 0.62220 0.49530 1.28490
H16 H 0.60970 0.70000 1.32970
H17 H 0.65470 0.61090 1.19860
#END
