
#######################################################################
#
#                 Cambridge Crystallographic Data Centre
#                                CCDC
#
#######################################################################
#
# If this CIF has been generated from an entry in the Cambridge
# Structural Database, then it will include bibliographic, chemical,
# crystal, experimental, refinement or atomic coordinate data resulting
# from the CCDC's data processing and validation procedures.
#
#######################################################################

data_CSD_CIF_CURFIF
_audit_creation_date 2011-01-04
_audit_creation_method CSD-ConQuest-V1
_database_code_CSD CURFIF
_database_code_depnum_ccdc_archive 'CCDC 787713'
_chemical_formula_sum 'C14 H15 N1 O4'
_chemical_formula_moiety
;
C14 H15 N1 O4
;
_journal_coden_Cambridge 1336
_journal_volume 11
_journal_year 2009
_journal_page_first 3834
_journal_name_full 'Org.Lett. '
loop_
_publ_author_name
"S.N.Chavre"
"P.R.Ullapu"
"Sun-Joon Min"
"Jae Kyun lee"
"Ae Nim Pae"
"Youseung Kim"
"Yong Seo Cho"
_chemical_name_systematic
;
(+-)-(3R,5R)-3-(4-nitrophenyl)-2-oxaspiro[4.4]nonan-6-one
;
_chemical_melting_point 378.15
_cell_volume   1279.249
_exptl_crystal_colour 'colorless'
_exptl_crystal_density_diffrn 1.356
_exptl_special_details
;
Melting point range 378.15-379.15K

;
_exptl_crystal_description 'platelet'
_diffrn_ambient_temperature 296
#These two values have been output from a single CSD field.
_refine_ls_R_factor_gt 0.055
_refine_ls_wR_factor_gt 0.055
_symmetry_cell_setting orthorhombic
_symmetry_space_group_name_H-M 'P 21 21 21'
_symmetry_Int_Tables_number 19
loop_
_symmetry_equiv_pos_site_id
_symmetry_equiv_pos_as_xyz
1 x,y,z
2 1/2-x,-y,1/2+z
3 -x,1/2+y,1/2-z
4 1/2+x,1/2-y,-z
_cell_length_a 6.8958(7)
_cell_length_b 10.069(1)
_cell_length_c 18.424(2)
_cell_angle_alpha 90
_cell_angle_beta 90
_cell_angle_gamma 90
_cell_formula_units_Z 4
loop_
_atom_type_symbol
_atom_type_radius_bond
C 0.68
H 0.23
N 0.68
O 0.68
loop_
_atom_site_label
_atom_site_type_symbol
_atom_site_fract_x
_atom_site_fract_y
_atom_site_fract_z
O1 O 0.7934(3) 0.2324(2) -0.0358(1)
O2 O -0.1191(5) -0.1019(3) 0.3109(2)
O3 O -0.0434(4) 0.0992(3) 0.3413(1)
O4 O 0.8123(3) 0.0551(3) 0.1592(1)
N1 N -0.0123(4) -0.0042(3) 0.3083(1)
C1 C 0.8802(4) 0.1286(3) -0.0314(1)
C2 C 0.1606(4) -0.0104(3) 0.2622(1)
C3 C 0.2120(4) -0.1308(3) 0.2339(2)
C4 C 0.9338(4) 0.0954(5) 0.1016(2)
C5 C 0.4895(4) -0.0270(3) 0.1781(1)
C6 C 0.2672(4) 0.1032(3) 0.2494(1)
C7 C 0.6508(4) -0.0003(3) 0.0529(1)
C8 C 0.3772(4) -0.1369(3) 0.1907(2)
C9 C 0.6711(4) -0.0372(3) 0.1330(2)
C10 C 0.4314(4) 0.0936(3) 0.2069(2)
C11 C 0.8595(4) 0.0300(3) 0.0314(1)
C12 C 1.0227(5) 0.0751(3) -0.0842(1)
C13 C 1.1136(7) -0.0426(4) -0.0472(2)
C14 C 0.9765(7) -0.0892(4) 0.0059(3)
H1 H 0.13860 -0.20640 0.24320
H2 H 0.22930 0.18420 0.26900
H3 H 0.41240 -0.21760 0.16990
H4 H 0.50420 0.16940 0.19750
H5 H 1.06630 0.06810 0.11110
H6 H 0.93110 0.19130 0.09690
H7 H 0.59880 -0.07360 0.02480
H8 H 0.56830 0.07690 0.04660
H9 H 1.12010 0.14140 -0.09580
H10 H 0.95860 0.04820 -0.12870
H11 H 1.14140 -0.11190 -0.08230
H12 H 1.23400 -0.01700 -0.02380
H13 H 1.04400 -0.12940 0.04650
H14 H 0.89140 -0.15530 -0.01550
H15 H 0.72320 -0.12740 0.13690
#END
