
#######################################################################
#
#                 Cambridge Crystallographic Data Centre
#                                CCDC
#
#######################################################################
#
# If this CIF has been generated from an entry in the Cambridge
# Structural Database, then it will include bibliographic, chemical,
# crystal, experimental, refinement or atomic coordinate data resulting
# from the CCDC's data processing and validation procedures.
#
#######################################################################

data_CSD_CIF_CURNIO
_audit_creation_date 2015-07-15
_audit_creation_method CSD-ConQuest-V1
_database_code_CSD CURNIO
_database_code_depnum_ccdc_archive 'CCDC 1410650'
_chemical_formula_sum 'C15 H11 N3 O4'
_chemical_formula_moiety
;
C15 H11 N3 O4
;
_journal_coeditor_code "su5161"
_journal_coden_Cambridge 1828
_journal_volume 71
_journal_year 2015
_journal_page_first o568
_journal_name_full 'Acta Crystallogr.,Sect.E:Cryst.Commun. '
loop_
_publ_author_name
"S.Subhadramma"
"B.P.Siddaraju"
"N.Chandra"
"J.Saravanan"
"D.Gayathri"
_chemical_name_systematic
;
2-cyano -2-(3-nitrobenzyl)-N-(furan-2-ylmethyl)acetamide
;
_chemical_name_common
;
2-cyano-N-(2-furylmethyl)-3-(3-nitrophenyl)acrylamide
;
_cell_volume    693.982
_exptl_crystal_colour 'colorless'
_exptl_crystal_density_diffrn 1.423
_exptl_crystal_description 'block'
_diffrn_ambient_temperature 293
#These two values have been output from a single CSD field.
_refine_ls_R_factor_gt 0.0387
_refine_ls_wR_factor_gt 0.0387
_symmetry_cell_setting triclinic
_symmetry_space_group_name_H-M 'P -1'
_symmetry_Int_Tables_number 2
loop_
_symmetry_equiv_pos_site_id
_symmetry_equiv_pos_as_xyz
1 x,y,z
2 -x,-y,-z
_cell_length_a 7.4358(3)
_cell_length_b 9.4165(5)
_cell_length_c 10.3934(5)
_cell_angle_alpha 90.938(2)
_cell_angle_beta 96.910(2)
_cell_angle_gamma 105.872(2)
_cell_formula_units_Z 2
loop_
_atom_type_symbol
_atom_type_radius_bond
C 0.68
H 0.23
N 0.68
O 0.68
loop_
_atom_site_label
_atom_site_type_symbol
_atom_site_fract_x
_atom_site_fract_y
_atom_site_fract_z
C1 C 0.5353(2) 0.28891(17) 0.58091(15)
H1 H 0.58620 0.32390 0.66540
C2 C 0.6211(2) 0.20823(17) 0.51113(16)
C3 C 0.5534(3) 0.15471(19) 0.38555(17)
H2 H 0.61600 0.10150 0.34000
C4 C 0.3898(3) 0.1826(2) 0.32955(17)
H3 H 0.34010 0.14700 0.24500
C5 C 0.2988(2) 0.26268(18) 0.39767(15)
H4 H 0.18790 0.27980 0.35860
C6 C 0.3703(2) 0.31818(16) 0.52382(14)
C7 C 0.2662(2) 0.40380(16) 0.58752(14)
H5 H 0.16170 0.41770 0.53600
C8 C 0.2965(2) 0.46539(16) 0.70769(14)
C9 C 0.1628(2) 0.54718(17) 0.74909(14)
C10 C 0.0773(2) 0.67695(19) 0.92842(16)
H6 H 0.07500 0.65640 1.01940
H7 H -0.05090 0.64120 0.88510
C11 C 0.1429(2) 0.83840(19) 0.91721(15)
C12 C 0.2518(5) 0.9468(3) 0.9961(2)
H8 H 0.30960 0.93780 1.07880
C13 C 0.2647(5) 1.0791(3) 0.9319(3)
H9 H 0.33100 1.17390 0.96450
C14 C 0.1663(3) 1.0432(3) 0.8186(3)
H10 H 0.15190 1.10940 0.75530
C15 C 0.4516(2) 0.45908(19) 0.80123(14)
N1 N 0.7935(2) 0.17794(17) 0.57526(18)
N2 N 0.5728(2) 0.4565(2) 0.87857(14)
N3 N 0.19322(18) 0.59563(15) 0.87343(12)
H11 H 0.28510 0.57810 0.92310
O1 O 0.8792(2) 0.1167(2) 0.51177(17)
O2 O 0.8406(2) 0.2139(2) 0.69036(16)
O3 O 0.03619(18) 0.56592(15) 0.67145(11)
O4 O 0.0876(2) 0.89464(16) 0.80594(13)
#END
