
#######################################################################
#
#                 Cambridge Crystallographic Data Centre
#                                CCDC
#
#######################################################################
#
# If this CIF has been generated from an entry in the Cambridge
# Structural Database, then it will include bibliographic, chemical,
# crystal, experimental, refinement or atomic coordinate data resulting
# from the CCDC's data processing and validation procedures.
#
#######################################################################

data_CSD_CIF_CURSIT
_audit_creation_date 2015-07-15
_audit_creation_method CSD-ConQuest-V1
_database_code_CSD CURSIT
_database_code_depnum_ccdc_archive 'CCDC 991744'
_chemical_formula_sum 'C19 H14 N4 O4'
_chemical_formula_moiety
;
C19 H14 N4 O4
;
_journal_coeditor_code "ao5005"
_journal_coden_Cambridge 1743
_journal_volume 71
_journal_year 2015
_journal_page_first 416
_journal_name_full 'Acta Crystallogr.,Sect.B:Struct.Sci.,Cryst.Eng. and Mat. '
loop_
_publ_author_name
"T.E.Souza"
"I.M.L.Rosa"
"A.O.Legendre"
"D.Paschoal"
"L.J.Q.Maia"
"H.F.Dos Santos"
"F.T.Martins"
"A.C.Doriguetto"
_chemical_name_systematic
;
4-((2,4-Dinitrobenzylidene)amino)-N-phenylaniline
;
_cell_volume   1687.603
_exptl_crystal_colour 'red'
_exptl_crystal_density_diffrn 1.426
_exptl_crystal_description 'prism'
_diffrn_ambient_temperature 150
#These two values have been output from a single CSD field.
_refine_ls_R_factor_gt 0.0318
_refine_ls_wR_factor_gt 0.0318
_symmetry_cell_setting orthorhombic
_symmetry_space_group_name_H-M 'P 21 21 21'
_symmetry_Int_Tables_number 19
loop_
_symmetry_equiv_pos_site_id
_symmetry_equiv_pos_as_xyz
1 x,y,z
2 1/2-x,-y,1/2+z
3 1/2+x,1/2-y,-z
4 -x,1/2+y,1/2-z
_cell_length_a 6.5715(2)
_cell_length_b 15.0533(4)
_cell_length_c 17.0598(5)
_cell_angle_alpha 90
_cell_angle_beta 90
_cell_angle_gamma 90
_cell_formula_units_Z 4
loop_
_atom_type_symbol
_atom_type_radius_bond
C 0.68
H 0.23
N 0.68
O 0.68
loop_
_atom_site_label
_atom_site_type_symbol
_atom_site_fract_x
_atom_site_fract_y
_atom_site_fract_z
O1 O 0.2931(2) 0.35218(8) 0.71549(7)
N1 N 0.3510(2) 0.32847(9) 0.65055(8)
O2 O 0.4211(2) 0.37961(8) 0.60149(7)
N2 N 0.2920(3) 0.43762(10) 0.14072(8)
N3 N 0.3118(2) 0.02368(11) 0.74303(10)
N4 N 0.36409(19) 0.23825(9) 0.41748(8)
C1 C 0.3440(2) 0.29283(11) 0.35041(9)
O3 O 0.3226(2) 0.05278(10) 0.80974(8)
C2 C 0.3521(2) 0.24951(11) 0.27839(9)
H1 H 0.36990 0.18690 0.27720
C3 C 0.3360(2) 0.23373(10) 0.63102(9)
C4 C 0.3088(2) 0.43196(10) 0.28126(9)
H2 H 0.29600 0.49480 0.28240
O4 O 0.2914(3) -0.05488(10) 0.7268(1)
C5 C 0.3105(2) 0.26609(11) 0.48485(9)
H3 H 0.25990 0.32480 0.49130
C6 C 0.3131(2) 0.38779(10) 0.20887(9)
C7 C 0.3229(2) 0.38544(10) 0.35097(9)
H4 H 0.31820 0.41640 0.39940
C8 C 0.3279(2) 0.20607(10) 0.55278(9)
C9 C 0.3212(3) 0.08660(11) 0.67714(9)
C10 C 0.3219(3) 0.11400(11) 0.5399(1)
H5 H 0.31990 0.09240 0.48760
C11 C 0.3349(3) 0.29527(11) 0.2089(1)
H6 H 0.33780 0.26390 0.16060
C12 C 0.3308(2) 0.17592(11) 0.69367(9)
H7 H 0.33360 0.19700 0.74620
C13 C 0.3144(3) 0.40395(11) 0.06443(9)
C14 C 0.3189(3) 0.05418(12) 0.60095(11)
H8 H 0.31530 -0.00790 0.59120
C15 C 0.4903(3) 0.35710(13) 0.04370(11)
H9 H 0.59480 0.34770 0.08130
C16 C 0.1651(4) 0.41896(13) 0.00849(10)
H10 H 0.04550 0.45100 0.02190
C17 C 0.5118(4) 0.32436(14) -0.03202(12)
H11 H 0.62970 0.29140 -0.04580
C18 C 0.1915(5) 0.38694(14) -0.06729(11)
H12 H 0.09000 0.39790 -0.10570
C19 C 0.3629(5) 0.33957(15) -0.08723(12)
H13 H 0.37850 0.31740 -0.13900
H14 H 0.218(5) 0.483(2) 0.1436(15)
#END
