
#######################################################################
#
#                 Cambridge Crystallographic Data Centre
#                                CCDC
#
#######################################################################
#
# If this CIF has been generated from an entry in the Cambridge
# Structural Database, then it will include bibliographic, chemical,
# crystal, experimental, refinement or atomic coordinate data resulting
# from the CCDC's data processing and validation procedures.
#
#######################################################################

data_CSD_CIF_CURSOZ
_audit_creation_date 2015-07-15
_audit_creation_method CSD-ConQuest-V1
_database_code_CSD CURSOZ
_database_code_depnum_ccdc_archive 'CCDC 991745'
_chemical_formula_sum 'C17 H19 N3 O2'
_chemical_formula_moiety
;
C17 H19 N3 O2
;
_journal_coeditor_code "ao5005"
_journal_coden_Cambridge 1743
_journal_volume 71
_journal_year 2015
_journal_page_first 416
_journal_name_full 'Acta Crystallogr.,Sect.B:Struct.Sci.,Cryst.Eng. and Mat. '
loop_
_publ_author_name
"T.E.Souza"
"I.M.L.Rosa"
"A.O.Legendre"
"D.Paschoal"
"L.J.Q.Maia"
"H.F.Dos Santos"
"F.T.Martins"
"A.C.Doriguetto"
_chemical_name_systematic
;
N,N-Diethyl-4-((4-nitrobenzylidene)amino)aniline
;
_cell_volume   1512.700
_exptl_crystal_colour 'red'
_exptl_crystal_density_diffrn 1.306
_exptl_crystal_description 'prism'
_diffrn_ambient_temperature 120
#These two values have been output from a single CSD field.
_refine_ls_R_factor_gt 0.0455
_refine_ls_wR_factor_gt 0.0455
_symmetry_cell_setting monoclinic
_symmetry_space_group_name_H-M 'P 21/c'
_symmetry_Int_Tables_number 14
loop_
_symmetry_equiv_pos_site_id
_symmetry_equiv_pos_as_xyz
1 x,y,z
2 -x,1/2+y,1/2-z
3 -x,-y,-z
4 x,-1/2-y,-1/2+z
_cell_length_a 16.1019(5)
_cell_length_b 7.6028(3)
_cell_length_c 12.3616(4)
_cell_angle_alpha 90
_cell_angle_beta 91.615(3)
_cell_angle_gamma 90
_cell_formula_units_Z 4
loop_
_atom_type_symbol
_atom_type_radius_bond
C 0.68
H 0.23
N 0.68
O 0.68
loop_
_atom_site_label
_atom_site_type_symbol
_atom_site_fract_x
_atom_site_fract_y
_atom_site_fract_z
O1 O 0.85206(6) 0.00583(14) 1.10158(8)
N1 N 0.47371(6) 0.15482(13) 0.82784(8)
N2 N 0.80569(7) 0.12102(15) 1.13418(9)
O2 O 0.82431(7) 0.22062(16) 1.20897(9)
C1 C 0.39387(7) 0.17600(16) 0.77967(10)
N3 N 0.15534(6) 0.19441(15) 0.62889(8)
C2 C 0.33222(7) 0.28987(16) 0.81622(10)
H1 H 0.34390 0.36320 0.87700
C3 C 0.66496(8) 0.24437(17) 1.12905(10)
H2 H 0.67670 0.30010 1.19650
C4 C 0.23361(7) 0.18855(16) 0.67641(10)
C5 C 0.48925(7) 0.20761(16) 0.92443(10)
H3 H 0.44650 0.26320 0.96320
C6 C 0.58793(8) 0.26322(17) 1.07758(10)
H4 H 0.54590 0.33020 1.11100
C7 C 0.37452(7) 0.07394(17) 0.68881(10)
H5 H 0.41610 -0.00040 0.66050
C8 C 0.25475(7) 0.29748(16) 0.76552(10)
H6 H 0.21470 0.37800 0.79120
C9 C 0.63288(8) 0.08144(17) 0.92978(10)
H7 H 0.62190 0.02670 0.86180
C10 C 0.72428(7) 0.14265(16) 1.07999(10)
C11 C 0.29657(7) 0.07740(17) 0.63837(10)
H8 H 0.28540 0.00400 0.57750
C12 C 0.70932(8) 0.05892(17) 0.98155(10)
H9 H 0.75080 -0.01240 0.95040
C13 C 0.57135(7) 0.18473(16) 0.97704(10)
C14 C 0.06796(9) 0.46199(19) 0.65100(12)
H10 H 0.11510 0.53570 0.67430
H11 H 0.01750 0.50330 0.68550
H12 H 0.06040 0.46920 0.57220
C15 C 0.08482(8) 0.27271(18) 0.68354(11)
H13 H 0.09570 0.26780 0.76270
H14 H 0.03450 0.20170 0.66700
C16 C 0.10650(9) -0.0838(2) 0.54181(13)
H15 H 0.15170 -0.15370 0.57470
H16 H 0.09050 -0.13360 0.47110
H17 H 0.05860 -0.08550 0.58900
C17 C 0.13551(8) 0.10433(18) 0.52733(10)
H18 H 0.18540 0.10410 0.48240
H19 H 0.09150 0.17100 0.48770
#END
