
#######################################################################
#
#                 Cambridge Crystallographic Data Centre
#                                CCDC
#
#######################################################################
#
# If this CIF has been generated from an entry in the Cambridge
# Structural Database, then it will include bibliographic, chemical,
# crystal, experimental, refinement or atomic coordinate data resulting
# from the CCDC's data processing and validation procedures.
#
#######################################################################

data_CSD_CIF_CURSEP
_audit_creation_date 2015-07-15
_audit_creation_method CSD-ConQuest-V1
_database_code_CSD CURSEP
_database_code_depnum_ccdc_archive 'CCDC 991743'
_chemical_formula_sum 'C19 H15 N3 O2'
_chemical_formula_moiety
;
C19 H15 N3 O2
;
_journal_coeditor_code "ao5005"
_journal_coden_Cambridge 1743
_journal_volume 71
_journal_year 2015
_journal_page_first 416
_journal_name_full 'Acta Crystallogr.,Sect.B:Struct.Sci.,Cryst.Eng. and Mat. '
loop_
_publ_author_name
"T.E.Souza"
"I.M.L.Rosa"
"A.O.Legendre"
"D.Paschoal"
"L.J.Q.Maia"
"H.F.Dos Santos"
"F.T.Martins"
"A.C.Doriguetto"
_chemical_name_systematic
;
4-((4-Nitrobenzylidene)amino)-N-phenylaniline
;
_cell_volume   1539.477
_exptl_crystal_colour 'red'
_exptl_crystal_density_diffrn 1.369
_exptl_crystal_description 'prism'
_diffrn_ambient_temperature 150
#These two values have been output from a single CSD field.
_refine_ls_R_factor_gt 0.0358
_refine_ls_wR_factor_gt 0.0358
_symmetry_cell_setting monoclinic
_symmetry_space_group_name_H-M 'C c'
_symmetry_Int_Tables_number 9
loop_
_symmetry_equiv_pos_site_id
_symmetry_equiv_pos_as_xyz
1 x,y,z
2 x,-y,1/2+z
3 1/2+x,1/2+y,z
4 1/2+x,1/2-y,1/2+z
_cell_length_a 10.3885(3)
_cell_length_b 16.7902(4)
_cell_length_c 8.9064(2)
_cell_angle_alpha 90
_cell_angle_beta 97.704(2)
_cell_angle_gamma 90
_cell_formula_units_Z 4
loop_
_atom_type_symbol
_atom_type_radius_bond
C 0.68
H 0.23
N 0.68
O 0.68
loop_
_atom_site_label
_atom_site_type_symbol
_atom_site_fract_x
_atom_site_fract_y
_atom_site_fract_z
C1 C 1.05627(14) 0.86269(9) 1.47754(17)
C2 C 1.08414(14) 0.79395(9) 1.40314(17)
H1 H 1.14060 0.75470 1.45250
C3 C 1.02775(14) 0.78394(9) 1.25526(16)
H2 H 1.04320 0.73630 1.20310
C4 C 0.94843(13) 0.84263(8) 1.18104(16)
C5 C 0.92257(14) 0.91191(8) 1.26046(16)
H3 H 0.86830 0.95210 1.21080
C6 C 0.97516(14) 0.92196(8) 1.40943(17)
H4 H 0.95650 0.96820 1.46420
C7 C 0.89574(14) 0.83072(9) 1.02239(17)
H5 H 0.91470 0.78250 0.97410
C8 C 0.77705(13) 0.86987(8) 0.79143(16)
C9 C 0.81637(14) 0.80893(8) 0.70024(16)
H6 H 0.88150 0.77240 0.74180
C10 C 0.76246(13) 0.80116(8) 0.55208(16)
H7 H 0.79030 0.75920 0.49260
C11 C 0.66684(13) 0.85425(8) 0.48699(16)
C12 C 0.62932(14) 0.91627(9) 0.57647(16)
H8 H 0.56610 0.95380 0.53440
C13 C 0.68416(14) 0.92301(8) 0.72616(16)
H9 H 0.65740 0.96530 0.78580
C14 C 0.50850(15) 0.87688(8) 0.24986(16)
C15 C 0.50800(15) 0.88379(9) 0.09377(17)
H10 H 0.58410 0.87090 0.05040
C16 C 0.39828(16) 0.90915(9) 0.00154(18)
H11 H 0.39850 0.91200 -0.10490
C17 C 0.28812(17) 0.93035(9) 0.06324(18)
H12 H 0.21280 0.94840 0.00000
C18 C 0.28882(15) 0.92501(9) 0.21836(18)
H13 H 0.21380 0.94030 0.26170
C19 C 0.39729(15) 0.89765(9) 0.31139(18)
H14 H 0.39560 0.89310 0.41740
N1 N 1.11300(14) 0.87181(8) 1.63661(15)
N2 N 0.82556(11) 0.88247(7) 0.94651(14)
N3 N 0.61950(13) 0.84406(9) 0.33503(14)
O1 O 1.19138(14) 0.82128(8) 1.69197(14)
O2 O 1.07907(13) 0.92866(7) 1.70810(13)
H15 H 0.665(2) 0.8122(12) 0.290(2)
#END
