
#######################################################################
#
#                 Cambridge Crystallographic Data Centre
#                                CCDC
#
#######################################################################
#
# If this CIF has been generated from an entry in the Cambridge
# Structural Database, then it will include bibliographic, chemical,
# crystal, experimental, refinement or atomic coordinate data resulting
# from the CCDC's data processing and validation procedures.
#
#######################################################################

data_CSD_CIF_CUSMIO
_audit_creation_date 2015-11-23
_audit_creation_method CSD-ConQuest-V1
_database_code_CSD CUSMIO
_database_code_depnum_ccdc_archive 'CCDC 1063459'
_chemical_formula_sum 'C30 H39 N3 O3'
_chemical_formula_moiety
;
C30 H39 N3 O3
;
_journal_coden_Cambridge 179
_journal_volume 54
_journal_year 2015
_journal_page_first 12153
_journal_name_full 'Angew.Chem.,Int.Ed. '
loop_
_publ_author_name
"T.Amatov"
"R.Pohl"
"I.Cisarova"
"U.Jahn"
_chemical_name_systematic
;
3-allyl-1,4-dibenzyl-6-((2,2,6,6-tetramethylpiperidin-1-yl)oxy)piperazine-2,5-
dione
;
_cell_volume   2679.246
_exptl_crystal_colour 'colorless'
_exptl_crystal_density_diffrn 1.214
_exptl_crystal_description 'prism'
_diffrn_ambient_temperature 150
#These two values have been output from a single CSD field.
_refine_ls_R_factor_gt 0.0467
_refine_ls_wR_factor_gt 0.0467
_symmetry_cell_setting monoclinic
_symmetry_space_group_name_H-M 'P 21/c'
_symmetry_Int_Tables_number 14
loop_
_symmetry_equiv_pos_site_id
_symmetry_equiv_pos_as_xyz
1 x,y,z
2 -x,1/2+y,1/2-z
3 -x,-y,-z
4 x,-1/2-y,-1/2+z
_cell_length_a 15.9520(7)
_cell_length_b 10.8850(4)
_cell_length_c 15.8910(6)
_cell_angle_alpha 90
_cell_angle_beta 103.833(2)
_cell_angle_gamma 90
_cell_formula_units_Z 4
loop_
_atom_type_symbol
_atom_type_radius_bond
C 0.68
H 0.23
N 0.68
O 0.68
loop_
_atom_site_label
_atom_site_type_symbol
_atom_site_fract_x
_atom_site_fract_y
_atom_site_fract_z
C1 C 0.38057(10) 0.32539(15) 0.2832(1)
C2 C 0.37109(10) 0.46486(14) 0.27890(9)
H1 H 0.33770 0.48650 0.21910
C3 C 0.25762(9) 0.44763(14) 0.35980(9)
C4 C 0.23919(9) 0.32386(14) 0.31445(9)
H2 H 0.20820 0.27010 0.34820
C5 C 0.13977(11) 0.26441(16) 0.09689(9)
C6 C 0.08533(11) 0.15892(17) 0.04837(10)
H3 H 0.08560 0.16400 -0.01380
H4 H 0.11240 0.07990 0.07090
C7 C -0.00693(12) 0.15970(18) 0.05663(11)
H5 H -0.03850 0.08850 0.02540
H6 H -0.03620 0.23580 0.03090
C8 C -0.00679(12) 0.15297(19) 0.15185(11)
H7 H 0.01910 0.07390 0.17570
H8 H -0.06710 0.15470 0.15780
C9 C 0.04353(10) 0.25864(17) 0.20485(10)
C10 C 0.05188(12) 0.2292(2) 0.30092(12)
H9 H 0.09080 0.15910 0.31780
H10 H -0.00510 0.20900 0.31020
H11 H 0.07530 0.30090 0.33620
C11 C -0.00463(13) 0.3799(2) 0.18486(14)
H12 H 0.03480 0.44810 0.20650
H13 H -0.05290 0.38170 0.21320
H14 H -0.02680 0.38820 0.12210
C12 C 0.23362(12) 0.2408(2) 0.09529(11)
H15 H 0.26940 0.30970 0.12290
H16 H 0.23820 0.23290 0.03510
H17 H 0.25360 0.16480 0.12680
C13 C 0.11310(14) 0.38857(18) 0.05272(11)
H18 H 0.05000 0.39530 0.03780
H19 H 0.13440 0.39430 -0.00010
H20 H 0.13790 0.45530 0.09230
C14 C 0.31472(11) 0.12690(14) 0.30151(10)
H21 H 0.36290 0.09840 0.27710
H22 H 0.26020 0.09950 0.26190
C15 C 0.32264(11) 0.06684(15) 0.38839(11)
C16 C 0.38953(14) 0.09429(18) 0.45849(12)
H23 H 0.42930 0.15760 0.45440
C17 C 0.39849(19) 0.0285(2) 0.53569(13)
H24 H 0.44470 0.04650 0.58410
C18 C 0.3397(2) -0.0632(2) 0.54140(16)
H25 H 0.34620 -0.10860 0.59360
C19 C 0.27315(19) -0.0883(2) 0.47279(16)
H26 H 0.23270 -0.15060 0.47730
C20 C 0.26392(14) -0.02408(17) 0.39676(14)
H27 H 0.21680 -0.04200 0.34920
C21 C 0.32418(11) 0.64649(14) 0.35464(10)
H28 H 0.38430 0.67350 0.37940
H29 H 0.28960 0.66650 0.39690
C22 C 0.28808(10) 0.71457(14) 0.27078(10)
C23 C 0.20649(11) 0.68640(16) 0.22033(11)
H30 H 0.17310 0.62440 0.23900
C24 C 0.17333(12) 0.74742(18) 0.14327(12)
H31 H 0.11740 0.72720 0.10970
C25 C 0.22079(12) 0.83743(17) 0.11480(12)
H32 H 0.19780 0.87930 0.06180
C26 C 0.30177(13) 0.86589(16) 0.16402(13)
H33 H 0.33490 0.92770 0.14490
C27 C 0.33531(12) 0.80489(16) 0.24138(12)
H34 H 0.39140 0.82530 0.27460
C28 C 0.46016(10) 0.52443(15) 0.29269(10)
H35 H 0.49150 0.48560 0.25290
H36 H 0.45260 0.61250 0.27710
C29 C 0.51429(10) 0.51412(17) 0.38358(11)
H37 H 0.51420 0.43790 0.41270
C30 C 0.56182(11) 0.60365(18) 0.42552(12)
H38 H 0.56330 0.68100 0.39820
H39 H 0.59470 0.59100 0.48310
N1 N 0.31569(8) 0.26198(12) 0.30424(8)
N2 N 0.32282(8) 0.51285(11) 0.34035(8)
N3 N 0.13238(8) 0.25451(12) 0.18926(7)
O1 O 0.44305(8) 0.27605(11) 0.26573(9)
O2 O 0.21216(7) 0.48390(11) 0.40665(7)
O3 O 0.18041(7) 0.35947(9) 0.23488(6)
#END
