
#######################################################################
#
#                 Cambridge Crystallographic Data Centre
#                                CCDC
#
#######################################################################
#
# If this CIF has been generated from an entry in the Cambridge
# Structural Database, then it will include bibliographic, chemical,
# crystal, experimental, refinement or atomic coordinate data resulting
# from the CCDC's data processing and validation procedures.
#
#######################################################################

data_CSD_CIF_CUSMOU
_audit_creation_date 2015-11-23
_audit_creation_method CSD-ConQuest-V1
_database_code_CSD CUSMOU
_database_code_depnum_ccdc_archive 'CCDC 1063460'
_chemical_formula_sum 'C36 H43 N3 O3'
_chemical_formula_moiety
;
C36 H43 N3 O3
;
_journal_coden_Cambridge 179
_journal_volume 54
_journal_year 2015
_journal_page_first 12153
_journal_name_full 'Angew.Chem.,Int.Ed. '
loop_
_publ_author_name
"T.Amatov"
"R.Pohl"
"I.Cisarova"
"U.Jahn"
_chemical_name_systematic
;
1,4-dibenzyl-3-(3-phenylprop-2-en-1-yl)-6-((2,2,6,6-tetramethylpiperidin-1-yl)
oxy)piperazine-2,5-dione
;
_cell_volume   3219.571
_exptl_crystal_colour 'colorless'
_exptl_crystal_density_diffrn 1.167
_exptl_crystal_description 'cube'
_diffrn_ambient_temperature 150
#These two values have been output from a single CSD field.
_refine_ls_R_factor_gt 0.0465
_refine_ls_wR_factor_gt 0.0465
_symmetry_cell_setting monoclinic
_symmetry_space_group_name_H-M 'P 21/c'
_symmetry_Int_Tables_number 14
loop_
_symmetry_equiv_pos_site_id
_symmetry_equiv_pos_as_xyz
1 x,y,z
2 -x,1/2+y,1/2-z
3 -x,-y,-z
4 x,-1/2-y,-1/2+z
_cell_length_a 11.0440(4)
_cell_length_b 11.5088(5)
_cell_length_c 25.6679(11)
_cell_angle_alpha 90
_cell_angle_beta 99.302(1)
_cell_angle_gamma 90
_cell_formula_units_Z 4
loop_
_atom_type_symbol
_atom_type_radius_bond
C 0.68
H 0.23
N 0.68
O 0.68
loop_
_atom_site_label
_atom_site_type_symbol
_atom_site_fract_x
_atom_site_fract_y
_atom_site_fract_z
C1 C 0.82305(11) 0.48497(11) 0.25068(5)
C2 C 0.86314(11) 0.39052(11) 0.21548(5)
H1 H 0.85580 0.42250 0.17890
C3 C 0.67315(11) 0.28290(11) 0.22330(5)
C4 C 0.61934(11) 0.40041(11) 0.23315(5)
H2 H 0.55020 0.38970 0.25350
C5 C 0.50451(13) 0.61128(13) 0.13956(5)
C6 C 0.39697(14) 0.69789(13) 0.13126(6)
H3 H 0.39400 0.73930 0.16480
H4 H 0.41190 0.75630 0.10470
C7 C 0.27355(14) 0.64030(15) 0.11299(7)
H5 H 0.20730 0.69920 0.10950
H6 H 0.27290 0.60320 0.07810
C8 C 0.25277(13) 0.55002(15) 0.15326(7)
H7 H 0.17310 0.51130 0.14120
H8 H 0.24740 0.58950 0.18710
C9 C 0.35367(12) 0.45692(13) 0.16302(6)
C10 C 0.34609(17) 0.37320(16) 0.11637(8)
H9 H 0.34500 0.41760 0.08370
H10 H 0.27090 0.32690 0.11380
H11 H 0.41750 0.32150 0.12170
C11 C 0.33312(13) 0.38819(15) 0.21166(8)
H12 H 0.39020 0.32240 0.21680
H13 H 0.24860 0.35930 0.20660
H14 H 0.34740 0.43870 0.24280
C12 C 0.61746(14) 0.67608(14) 0.16734(7)
H15 H 0.60370 0.70050 0.20250
H16 H 0.63210 0.74460 0.14660
H17 H 0.68900 0.62470 0.17080
C13 C 0.53327(17) 0.56665(18) 0.08648(6)
H18 H 0.58970 0.50050 0.09260
H19 H 0.57140 0.62890 0.06870
H20 H 0.45710 0.54200 0.06420
C14 C 0.66294(12) 0.56830(11) 0.29484(5)
H21 H 0.57730 0.58880 0.27990
H22 H 0.71340 0.63930 0.29460
C15 C 0.66745(13) 0.52887(12) 0.35128(5)
C16 C 0.77374(15) 0.48194(13) 0.38006(6)
H23 H 0.84350 0.46960 0.36340
C17 C 0.77890(19) 0.45303(15) 0.43272(6)
H24 H 0.85230 0.42200 0.45210
C18 C 0.6780(2) 0.46919(17) 0.45694(7)
H25 H 0.68150 0.44910 0.49300
C19 C 0.5722(2) 0.51440(19) 0.42894(8)
H26 H 0.50250 0.52540 0.44570
C20 C 0.56637(17) 0.54434(15) 0.37604(7)
H27 H 0.49270 0.57550 0.35690
C21 C 0.83174(12) 0.18161(12) 0.18656(5)
H28 H 0.77190 0.11760 0.18660
H29 H 0.91140 0.15520 0.20630
C22 C 0.84617(13) 0.20931(12) 0.13034(5)
C23 C 0.75206(15) 0.26201(15) 0.09578(6)
H30 H 0.67640 0.27930 0.10720
C24 C 0.76833(18) 0.28934(16) 0.04483(6)
H31 H 0.70370 0.32520 0.02140
C25 C 0.87769(19) 0.26490(16) 0.02785(6)
H32 H 0.88900 0.28500 -0.00690
C26 C 0.97055(18) 0.21120(17) 0.06156(7)
H33 H 1.04550 0.19280 0.04980
C27 C 0.95493(15) 0.18390(15) 0.11257(6)
H34 H 1.01970 0.14730 0.13560
C28 C 0.99972(11) 0.36354(14) 0.23512(6)
H35 H 1.03220 0.31700 0.20800
H36 H 1.04610 0.43750 0.23950
C29 C 1.02084(12) 0.29872(13) 0.28625(6)
H37 H 0.98910 0.22190 0.28570
C30 C 1.07848(14) 0.33634(15) 0.33185(6)
H38 H 1.10640 0.41450 0.33330
C31 C 1.10377(13) 0.26806(15) 0.38093(6)
C32 C 1.06752(14) 0.15256(16) 0.38336(6)
H39 H 1.02310 0.11700 0.35270
C33 C 1.09452(16) 0.08864(18) 0.42914(7)
H40 H 1.06810 0.01020 0.43000
C34 C 1.16040(18) 0.1393(2) 0.47389(7)
H41 H 1.18000 0.09540 0.50550
C35 C 1.19729(17) 0.2529(2) 0.47248(7)
H42 H 1.24290 0.28740 0.50310
C36 C 1.16857(16) 0.31747(18) 0.42671(7)
H43 H 1.19330 0.39650 0.42650
N1 N 0.70711(9) 0.48027(9) 0.26096(4)
N2 N 0.78937(9) 0.28369(9) 0.21306(4)
N3 N 0.47315(9) 0.52064(9) 0.17712(4)
O1 O 0.89511(9) 0.56165(9) 0.26842(4)
O2 O 0.60934(9) 0.19580(9) 0.22151(4)
O3 O 0.57109(8) 0.43349(8) 0.18020(3)
#END
