
#######################################################################
#
#                 Cambridge Crystallographic Data Centre
#                                CCDC
#
#######################################################################
#
# If this CIF has been generated from an entry in the Cambridge
# Structural Database, then it will include bibliographic, chemical,
# crystal, experimental, refinement or atomic coordinate data resulting
# from the CCDC's data processing and validation procedures.
#
#######################################################################

data_CSD_CIF_CUTHAB
_audit_creation_date 2010-09-24
_audit_creation_method CSD-ConQuest-V1
_database_code_CSD CUTHAB
_database_code_depnum_ccdc_archive 'CCDC 755320'
_chemical_formula_sum 'C16 H25 N1 O3'
_chemical_formula_moiety
;
C16 H25 N1 O3
;
_journal_coden_Cambridge 182
_journal_volume 46
_journal_year 2010
_journal_page_first 2656
_journal_name_full 'Chem.Commun. '
loop_
_publ_author_name
"M.R.Sonawane"
"I.Cisaoovab"
"I.M.Lyapkalo"
_chemical_name_systematic
;
t-Butyl(hydroxy)(3-methoxy-3-(4-methoxyphenyl)-2-methylpropylidene)-\l^5^-azan
e
;
_chemical_name_common
;
N-t-butyl-N-[3-methoxy-3-(4-methoxyphenyl)-2-methylpropylidene]amine oxide
;
_chemical_melting_point 371
_cell_volume   1635.430
_exptl_crystal_colour 'colorless'
_exptl_crystal_density_diffrn 1.135
_exptl_crystal_description 'bar'
_diffrn_ambient_temperature 150
#These two values have been output from a single CSD field.
_refine_ls_R_factor_gt 0.0378
_refine_ls_wR_factor_gt 0.0378
_symmetry_cell_setting monoclinic
_symmetry_space_group_name_H-M 'P 21/c'
_symmetry_Int_Tables_number 14
loop_
_symmetry_equiv_pos_site_id
_symmetry_equiv_pos_as_xyz
1 x,y,z
2 -x,1/2+y,1/2-z
3 -x,-y,-z
4 x,-1/2-y,-1/2+z
_cell_length_a 5.8110(1)
_cell_length_b 13.6360(3)
_cell_length_c 21.0230(5)
_cell_angle_alpha 90
_cell_angle_beta 100.9640(13)
_cell_angle_gamma 90
_cell_formula_units_Z 4
loop_
_atom_type_symbol
_atom_type_radius_bond
C 0.68
H 0.23
N 0.68
O 0.68
loop_
_atom_site_label
_atom_site_type_symbol
_atom_site_fract_x
_atom_site_fract_y
_atom_site_fract_z
C1 C -0.04730(18) 0.81032(8) 0.35394(5)
N1 N -0.22814(14) 0.86534(6) 0.35510(4)
C2 C -0.21154(18) 0.97454(8) 0.36851(5)
O1 O -0.43987(12) 0.82997(6) 0.34734(4)
C3 C -0.2985(2) 0.98878(10) 0.43194(6)
H1 H -0.19530 0.95350 0.46680
H2 H -0.45840 0.96320 0.42730
H3 H -0.29760 1.05880 0.44250
C4 C 0.0382(2) 1.01206(9) 0.37555(7)
H4 H 0.09700 0.99820 0.33580
H5 H 0.13790 0.97920 0.41220
H6 H 0.04090 1.08300 0.38320
C5 C -0.3686(2) 1.02538(9) 0.31197(6)
H7 H -0.52650 0.99730 0.30580
H8 H -0.30450 1.01600 0.27250
H9 H -0.37600 1.09560 0.32120
C6 C -0.07174(18) 0.70225(8) 0.34462(5)
H10 H -0.19840 0.67880 0.36710
C7 C 0.15928(18) 0.65414(7) 0.37701(5)
H11 H 0.28990 0.68260 0.35810
C8 C 0.21068(17) 0.67051(7) 0.44955(5)
C9 C 0.06792(19) 0.62917(8) 0.48816(5)
H12 H -0.06450 0.59180 0.46840
C10 C 0.1136(2) 0.64094(9) 0.55501(6)
H13 H 0.01410 0.61160 0.58060
C11 C 0.3052(2) 0.69576(8) 0.58393(5)
C12 C 0.4493(2) 0.73856(8) 0.54605(6)
H14 H 0.58000 0.77690 0.56580
C13 C 0.40289(18) 0.72549(8) 0.47956(6)
H15 H 0.50340 0.75440 0.45410
O2 O 0.13825(13) 0.55201(5) 0.36136(4)
C14 C 0.3545(2) 0.50152(9) 0.37946(6)
H16 H 0.39950 0.50010 0.42680
H17 H 0.47590 0.53530 0.36120
H18 H 0.33720 0.43420 0.36290
C15 C -0.1405(2) 0.67567(9) 0.27264(6)
H19 H -0.00920 0.68980 0.25090
H20 H -0.27720 0.71450 0.25270
H21 H -0.17900 0.60570 0.26830
O3 O 0.36888(16) 0.71034(6) 0.64957(4)
C16 C 0.2382(3) 0.65900(11) 0.69001(6)
H22 H 0.24070 0.58860 0.68080
H23 H 0.07580 0.68240 0.68140
H24 H 0.30830 0.67070 0.73560
H25 H 0.100(2) 0.8411(9) 0.3591(5)
#END
