
#######################################################################
#
#                 Cambridge Crystallographic Data Centre
#                                CCDC
#
#######################################################################
#
# If this CIF has been generated from an entry in the Cambridge
# Structural Database, then it will include bibliographic, chemical,
# crystal, experimental, refinement or atomic coordinate data resulting
# from the CCDC's data processing and validation procedures.
#
#######################################################################

data_CSD_CIF_CUTTOB
_audit_creation_date 2010-10-04
_audit_creation_method CSD-ConQuest-V1
_database_code_CSD CUTTOB
_database_code_depnum_ccdc_archive 'CCDC 761561'
_chemical_formula_sum 'C8 H10 N4 O2'
_chemical_formula_moiety
;
C8 H10 N4 O2
;
_journal_coden_Cambridge 182
_journal_volume 46
_journal_year 2010
_journal_page_first 5799
_journal_name_full 'Chem.Commun. '
loop_
_publ_author_name
"D.Biswas"
"J.R.Deschamps"
"L.K.Keefer"
"J.A.Hrabie"
_chemical_name_systematic
;
N'-(Methoxy-NNO-azoxy)benzenecarboximidamide
;
_cell_volume   1980.154
_exptl_crystal_colour 'colorless'
_exptl_crystal_density_diffrn 1.303
_exptl_crystal_description 'prism'
_diffrn_ambient_temperature 294
#These two values have been output from a single CSD field.
_refine_ls_R_factor_gt 0.0388
_refine_ls_wR_factor_gt 0.0388
_symmetry_cell_setting orthorhombic
_symmetry_space_group_name_H-M 'P b c a'
_symmetry_Int_Tables_number 61
loop_
_symmetry_equiv_pos_site_id
_symmetry_equiv_pos_as_xyz
1 x,y,z
2 1/2-x,-y,1/2+z
3 -x,1/2+y,1/2-z
4 1/2+x,1/2-y,-z
5 -x,-y,-z
6 -1/2+x,y,-1/2-z
7 x,-1/2-y,-1/2+z
8 -1/2-x,-1/2+y,z
_cell_length_a 9.8141(5)
_cell_length_b 11.4621(7)
_cell_length_c 17.6029(9)
_cell_angle_alpha 90
_cell_angle_beta 90
_cell_angle_gamma 90
_cell_formula_units_Z 8
loop_
_atom_type_symbol
_atom_type_radius_bond
C 0.68
H 0.23
N 0.68
O 0.68
loop_
_atom_site_label
_atom_site_type_symbol
_atom_site_fract_x
_atom_site_fract_y
_atom_site_fract_z
N1 N 0.16413(10) 0.24839(9) 0.11856(5)
O1 O 0.23757(10) 0.29498(10) 0.06832(6)
N2 N 0.20244(12) 0.1696(1) 0.16465(6)
N3 N 0.03072(10) 0.28617(9) 0.13396(5)
O2 O 0.33715(10) 0.14482(10) 0.14812(6)
C1 C 0.3848(2) 0.05895(17) 0.20119(12)
H1 H 0.47340 0.03220 0.18600
H2 H 0.32270 -0.00570 0.20210
H3 H 0.39020 0.09300 0.25090
C2 C -0.04200(12) 0.31006(9) 0.07380(6)
N4 N -0.00626(14) 0.30174(12) 0.00115(6)
H4 H 0.078(2) 0.2831(17) -0.0098(11)
H5 H -0.073(2) 0.2994(17) -0.0327(12)
C3 C -0.18176(12) 0.35294(10) 0.09034(6)
C4 C -0.25944(14) 0.30218(12) 0.14735(7)
H6 H -0.22420 0.24050 0.17550
C5 C -0.38923(15) 0.34327(15) 0.16238(8)
H7 H -0.44170 0.30850 0.20010
C6 C -0.44078(16) 0.43565(15) 0.12151(10)
H8 H -0.52800 0.46320 0.13170
C7 C -0.36325(17) 0.48747(14) 0.06544(10)
H9 H -0.39790 0.55060 0.03850
C8 C -0.23470(15) 0.44597(11) 0.04926(8)
H10 H -0.18340 0.48020 0.01090
#END
