
#######################################################################
#
#                 Cambridge Crystallographic Data Centre
#                                CCDC
#
#######################################################################
#
# If this CIF has been generated from an entry in the Cambridge
# Structural Database, then it will include bibliographic, chemical,
# crystal, experimental, refinement or atomic coordinate data resulting
# from the CCDC's data processing and validation procedures.
#
#######################################################################

data_CSD_CIF_CUTWUJ
_audit_creation_date 1986-02-24
_audit_creation_method CSD-ConQuest-V1
_database_code_CSD CUTWUJ
_chemical_formula_sum 'C12 H17 N3 O7'
_chemical_formula_moiety
;
C12 H17 N3 O7
;
_journal_coden_Cambridge 154
_journal_volume 37
_journal_year 1984
_journal_page_first 809
_journal_name_full 'Aust.J.Chem. '
loop_
_publ_author_name
"M.P.Hartshorn"
"B.R.Penfold"
"K.H.Sutton"
"J.Vaughan"
_chemical_name_systematic
;
4-t-Butyl-2,6-dimethyl-r-2,c-5,c-6-trinitrocyclohex-3-enone
;
_chemical_melting_point 409.65
_cell_volume   1500.298
_exptl_crystal_colour 'colorless'
_exptl_crystal_density_diffrn 1.4
_exptl_special_details
;
Melts with decomposition.

;
_diffrn_ambient_temperature ?
_diffrn_special_details
;
The study was carried out at room temperature,in the range 283-303K

;
#These two values have been output from a single CSD field.
_refine_ls_R_factor_gt 0.0445
_refine_ls_wR_factor_gt 0.0445
loop_
_citation_database_id_CSD
_citation_special_details
CUTWIX "is a stereoisomer of this entry"
CUTWOD "is a stereoisomer of this entry"
_symmetry_cell_setting orthorhombic
_symmetry_space_group_name_H-M 'P 21 21 21'
_symmetry_Int_Tables_number 19
loop_
_symmetry_equiv_pos_site_id
_symmetry_equiv_pos_as_xyz
1 x,y,z
2 1/2+x,1/2-y,-z
3 -x,1/2+y,1/2-z
4 1/2-x,-y,1/2+z
_cell_length_a 8.545(2)
_cell_length_b 9.655(2)
_cell_length_c 18.185(3)
_cell_angle_alpha 90
_cell_angle_beta 90
_cell_angle_gamma 90
_cell_formula_units_Z 4
loop_
_atom_type_symbol
_atom_type_radius_bond
C 0.68
H 0.23
N 0.68
O 0.68
loop_
_atom_site_label
_atom_site_type_symbol
_atom_site_fract_x
_atom_site_fract_y
_atom_site_fract_z
C1 C 0.1524(2) 0.1745(2) 0.5786(1)
C2 C 0.2121(2) 0.0364(2) 0.6079(1)
C3 C 0.3089(3) 0.0382(2) 0.6651(1)
C4 C -0.0103(3) 0.2175(3) 0.6920(1)
C5 C 0.1506(3) -0.0964(3) 0.5717(1)
C6 C 0.2708(3) 0.2987(3) 0.6875(1)
C7 C 0.3619(3) 0.1643(2) 0.7060(1)
C8 C 0.1196(2) 0.2732(2) 0.6422(1)
C9 C 0.3590(4) 0.1436(3) 0.7899(1)
C10 C 0.2379(5) -0.2234(3) 0.6001(2)
C11 C 0.1682(4) -0.0905(3) 0.4878(2)
C12 C -0.0250(4) -0.1109(4) 0.5907(2)
N1 N 0.5371(2) 0.1882(3) 0.6863(1)
N2 N 0.2803(2) 0.2347(2) 0.5289(1)
N3 N 0.0644(2) 0.4146(2) 0.6130(1)
O1 O 0.3877(2) 0.2955(2) 0.5588(1)
O2 O 0.2689(2) 0.2153(2) 0.4630(1)
O3 O 0.5993(2) 0.1043(2) 0.6462(1)
O4 O 0.3040(2) 0.4092(2) 0.7122(1)
O5 O 0.6032(3) 0.2859(3) 0.7135(2)
O6 O 0.0869(3) 0.4411(2) 0.5487(1)
O7 O 0.0011(3) 0.4917(2) 0.6560(1)
H1 H 0.01190 0.12990 0.71480
H2 H -0.10480 0.21030 0.66370
H3 H -0.02310 0.28690 0.72930
H4 H 0.25450 0.11910 0.80430
H5 H 0.38930 0.22750 0.81440
H6 H 0.42960 0.07050 0.80340
H7 H 0.20130 -0.30600 0.57620
H8 H 0.22130 -0.23100 0.65210
H9 H 0.34760 -0.21180 0.59050
H10 H 0.11000 -0.01580 0.46620
H11 H 0.13260 -0.17690 0.46780
H12 H 0.27750 -0.07880 0.47710
H13 H -0.06630 -0.19520 0.57060
H14 H -0.08120 -0.03330 0.57090
H15 H -0.03620 -0.11200 0.64330
H16 H 0.0709(24) 0.1657(21) 0.5484(11)
H17 H 0.3456(33) -0.0453(28) 0.6848(15)
#END
