
#######################################################################
#
#                 Cambridge Crystallographic Data Centre
#                                CCDC
#
#######################################################################
#
# If this CIF has been generated from an entry in the Cambridge
# Structural Database, then it will include bibliographic, chemical,
# crystal, experimental, refinement or atomic coordinate data resulting
# from the CCDC's data processing and validation procedures.
#
#######################################################################

data_CSD_CIF_CUTXAQ
_audit_creation_date 1986-02-24
_audit_creation_method CSD-ConQuest-V1
_database_code_CSD CUTXAQ
_chemical_formula_sum 'C12 H18 N2 O6'
_chemical_formula_moiety
;
C12 H18 N2 O6
;
_journal_coden_Cambridge 154
_journal_volume 37
_journal_year 1984
_journal_page_first 809
_journal_name_full 'Aust.J.Chem. '
loop_
_publ_author_name
"M.P.Hartshorn"
"B.R.Penfold"
"K.H.Sutton"
"J.Vaughan"
_chemical_name_systematic
;
4-t-Butyl-c-6-hydroxy-2,6-dimethyl-r-2,c-5-dinitrocyclohex-3-enone
;
_chemical_melting_point 404.15
_cell_volume   1479.881
_exptl_crystal_colour 'colorless'
_exptl_crystal_density_diffrn 1.28
_exptl_special_details
;
Melts with decomposition.

;
_diffrn_ambient_temperature ?
_diffrn_special_details
;
The study was carried out at room temperature,in the range 283-303K

;
#These two values have been output from a single CSD field.
_refine_ls_R_factor_gt 0.052
_refine_ls_wR_factor_gt 0.052
_symmetry_cell_setting monoclinic
_symmetry_space_group_name_H-M 'P 21/n'
_symmetry_Int_Tables_number 14
loop_
_symmetry_equiv_pos_site_id
_symmetry_equiv_pos_as_xyz
1 x,y,z
2 1/2-x,1/2+y,1/2-z
3 -x,-y,-z
4 -1/2+x,-1/2-y,-1/2+z
_cell_length_a 6.677(1)
_cell_length_b 12.956(2)
_cell_length_c 17.185(3)
_cell_angle_alpha 90
_cell_angle_beta 95.46(1)
_cell_angle_gamma 90
_cell_formula_units_Z 4
loop_
_atom_type_symbol
_atom_type_radius_bond
C 0.68
H 0.23
N 0.68
O 0.68
loop_
_atom_site_label
_atom_site_type_symbol
_atom_site_fract_x
_atom_site_fract_y
_atom_site_fract_z
C1 C 0.6414(6) 0.1485(3) 0.4672(2)
C2 C 0.6880(6) 0.1498(3) 0.5558(3)
C3 C 0.6883(6) 0.2563(3) 0.5914(2)
C4 C 0.7801(6) 0.3352(3) 0.4653(3)
C5 C 0.7765(6) 0.2265(3) 0.4307(3)
C6 C 0.7360(6) 0.3368(3) 0.5489(3)
C7 C 0.6301(7) 0.2651(4) 0.6753(3)
C8 C 0.4178(6) 0.1740(4) 0.4464(3)
C9 C 0.6545(11) 0.3744(4) 0.7072(3)
C10 C 0.6395(7) 0.4065(4) 0.4140(3)
C11 C 0.7607(10) 0.1954(5) 0.7300(3)
C12 C 0.4106(8) 0.2331(7) 0.6765(3)
N1 N 0.8962(5) 0.1017(3) 0.5724(2)
N2 N 0.9949(6) 0.3763(3) 0.4609(2)
O1 O 0.6755(4) 0.0484(2) 0.4379(2)
O2 O 0.8679(5) 0.2036(2) 0.3761(2)
O3 O 1.0342(5) 0.1458(3) 0.5448(2)
O4 O 0.9145(5) 0.0226(3) 0.6106(2)
O5 O 1.1091(5) 0.3761(3) 0.5202(3)
O6 O 1.0406(6) 0.4058(3) 0.3982(3)
H1 H 0.7803(62) 0.0485(34) 0.4174(26)
H2 H 0.38080 0.23730 0.47020
H3 H 0.33710 0.11860 0.46350
H4 H 0.39600 0.18020 0.39060
H5 H 0.61820 0.37610 0.75990
H6 H 0.56710 0.41930 0.67520
H7 H 0.79120 0.39690 0.70630
H8 H 0.50200 0.38600 0.41620
H9 H 0.67480 0.39970 0.36140
H10 H 0.65570 0.47710 0.43040
H11 H 0.75110 0.12400 0.71530
H12 H 0.72520 0.20320 0.78250
H13 H 0.89600 0.21900 0.72710
H14 H 0.37600 0.16590 0.65600
H15 H 0.33580 0.28450 0.64580
H16 H 0.37860 0.23730 0.72970
H17 H 0.6050(49) 0.1021(25) 0.5818(20)
H18 H 0.7371(56) 0.3998(29) 0.5668(23)
#END
