
#######################################################################
#
#                 Cambridge Crystallographic Data Centre
#                                CCDC
#
#######################################################################
#
# If this CIF has been generated from an entry in the Cambridge
# Structural Database, then it will include bibliographic, chemical,
# crystal, experimental, refinement or atomic coordinate data resulting
# from the CCDC's data processing and validation procedures.
#
#######################################################################

data_CSD_CIF_CUTXUL
_audit_creation_date 2010-09-24
_audit_creation_method CSD-ConQuest-V1
_database_code_CSD CUTXUL
_database_code_depnum_ccdc_archive 'CCDC 768990'
_chemical_formula_sum 'C14 H14 N2 O5'
_chemical_formula_moiety
;
C14 H14 N2 O5
;
_journal_coden_Cambridge 179
_journal_volume 49
_journal_year 2010
_journal_page_first 4656
_journal_name_full 'Angew.Chem.,Int.Ed. '
loop_
_publ_author_name
"Shaolin Zhu"
"Shouyun Yu"
"You Wang"
"Dawei Ma"
_chemical_name_systematic
;
3-(1,3-Dioxo-1,3-dihydro-2H-isoindol-2-yl)-2-ethyl-4-nitrobutanal
;
_cell_volume   1448.267
_exptl_crystal_colour 'yellow'
_exptl_crystal_density_diffrn 1.331
_exptl_crystal_description 'prismatic'
_diffrn_ambient_temperature 293
#These two values have been output from a single CSD field.
_refine_ls_R_factor_gt 0.0468
_refine_ls_wR_factor_gt 0.0468
_symmetry_cell_setting orthorhombic
_symmetry_space_group_name_H-M 'P 21 21 21'
_symmetry_Int_Tables_number 19
loop_
_symmetry_equiv_pos_site_id
_symmetry_equiv_pos_as_xyz
1 x,y,z
2 1/2-x,-y,1/2+z
3 -x,1/2+y,1/2-z
4 1/2+x,1/2-y,-z
_cell_length_a 8.8129(9)
_cell_length_b 12.7204(13)
_cell_length_c 12.9190(13)
_cell_angle_alpha 90
_cell_angle_beta 90
_cell_angle_gamma 90
_cell_formula_units_Z 4
loop_
_atom_type_symbol
_atom_type_radius_bond
C 0.68
H 0.23
N 0.68
O 0.68
loop_
_atom_site_label
_atom_site_type_symbol
_atom_site_fract_x
_atom_site_fract_y
_atom_site_fract_z
O1 O 1.1147(2) 0.1927(2) 0.39988(13)
O2 O 0.8118(2) 0.14000(18) 0.12001(13)
O3 O 0.5216(2) 0.13408(17) 0.43998(16)
O4 O 0.6538(4) 0.3690(3) 0.2332(2)
O5 O 0.8869(4) 0.4073(2) 0.2559(3)
N1 N 0.93060(19) 0.16734(14) 0.27640(12)
N2 N 0.7714(3) 0.36336(16) 0.28081(18)
C1 C 1.0796(2) 0.1755(2) 0.31185(17)
C2 C 0.9265(3) 0.14978(18) 0.16952(16)
C3 C 1.0862(3) 0.14515(18) 0.13561(16)
C4 C 1.1777(3) 0.15912(18) 0.22045(16)
C5 C 1.3334(3) 0.1580(3) 0.2132(2)
H1 H 1.39470 0.16710 0.27100
C6 C 1.3942(3) 0.1429(3) 0.1157(2)
H2 H 1.49910 0.14250 0.10760
C7 C 1.3037(4) 0.1284(3) 0.0310(2)
H3 H 1.34860 0.11740 -0.03330
C8 C 1.1471(3) 0.1296(3) 0.0382(2)
H4 H 1.08580 0.12030 -0.01970
C9 C 0.7943(2) 0.18117(17) 0.33847(16)
H5 H 0.70700 0.16390 0.29460
C10 C 0.7897(3) 0.1079(2) 0.4326(2)
H6 H 0.86150 0.13400 0.48450
C11 C 0.6345(4) 0.1043(2) 0.4799(2)
H7 H 0.62630 0.07640 0.54610
C12 C 0.8323(6) -0.0076(4) 0.4050(4)
H8 H 0.93720 -0.00950 0.38240
H9 H 0.82430 -0.05030 0.46700
C13 C 0.7339(8) -0.0553(3) 0.3217(5)
H10 H 0.75280 -0.02020 0.25710
H11 H 0.62900 -0.04730 0.34010
H12 H 0.75740 -0.12860 0.31480
C14 C 0.7766(3) 0.29537(17) 0.37305(16)
H13 H 0.68390 0.30340 0.41280
H14 H 0.86140 0.31530 0.41670
#END
