
#######################################################################
#
#                 Cambridge Crystallographic Data Centre
#                                CCDC
#
#######################################################################
#
# If this CIF has been generated from an entry in the Cambridge
# Structural Database, then it will include bibliographic, chemical,
# crystal, experimental, refinement or atomic coordinate data resulting
# from the CCDC's data processing and validation procedures.
#
#######################################################################

data_CSD_CIF_CUVPIU
_audit_creation_date 2015-11-24
_audit_creation_method CSD-ConQuest-V1
_database_code_CSD CUVPIU
_database_code_depnum_ccdc_archive 'CCDC 1438648'
_chemical_formula_sum 'C15 H14 N2 O7'
_chemical_formula_moiety
;
C15 H14 N2 O7
;
_journal_coden_Cambridge 1336
_journal_volume 17
_journal_year 2015
_journal_page_first 5670
_journal_name_full 'Org.Lett. '
loop_
_publ_author_name
"F.Wagner"
"K.Harms"
"U.Koert"
_chemical_name_systematic
;
t-Butyl 3-hydroxy-5,7-dinitro-2-naphthoate
;
_cell_volume    730.619
_exptl_crystal_colour 'colorless'
_exptl_crystal_density_diffrn 1.519
_exptl_crystal_description 'needle'
_diffrn_ambient_temperature 100
#These two values have been output from a single CSD field.
_refine_ls_R_factor_gt 0.0397
_refine_ls_wR_factor_gt 0.0397
_symmetry_cell_setting triclinic
_symmetry_space_group_name_H-M 'P -1'
_symmetry_Int_Tables_number 2
loop_
_symmetry_equiv_pos_site_id
_symmetry_equiv_pos_as_xyz
1 x,y,z
2 -x,-y,-z
_cell_length_a 6.8857(11)
_cell_length_b 7.8782(12)
_cell_length_c 14.230(2)
_cell_angle_alpha 73.669(5)
_cell_angle_beta 85.904(5)
_cell_angle_gamma 80.621(5)
_cell_formula_units_Z 2
loop_
_atom_type_symbol
_atom_type_radius_bond
C 0.68
H 0.23
N 0.68
O 0.68
loop_
_atom_site_label
_atom_site_type_symbol
_atom_site_fract_x
_atom_site_fract_y
_atom_site_fract_z
O1 O 0.3483(2) -0.12630(17) 0.21387(9)
O2 O 0.27559(18) 0.16835(16) 0.20319(9)
O3 O 0.3833(2) -0.35318(17) 0.3844(1)
H1 H 0.379(4) -0.304(4) 0.317(2)
O4 O 0.45741(19) -0.40516(17) 0.71796(9)
O5 O 0.2128(2) -0.34484(17) 0.81428(9)
O6 O 0.05587(19) 0.48048(17) 0.6401(1)
O7 O 0.0935(2) 0.29184(19) 0.78385(10)
N1 N 0.3132(2) -0.3067(2) 0.73838(11)
N2 N 0.0981(2) 0.3284(2) 0.69424(11)
C1 C 0.3070(3) -0.0027(2) 0.25163(13)
C2 C 0.2907(3) -0.0331(2) 0.36001(13)
C3 C 0.3340(2) -0.2113(2) 0.42141(13)
C4 C 0.3288(3) -0.2457(2) 0.52169(13)
H2 H 0.36130 -0.36510 0.56120
C5 C 0.2757(2) -0.1061(2) 0.56627(13)
C6 C 0.2606(3) -0.1288(2) 0.66983(13)
C7 C 0.2008(2) 0.0082(2) 0.71092(13)
H3 H 0.18830 -0.01320 0.78000
C8 C 0.1583(3) 0.1814(2) 0.64866(13)
C9 C 0.1702(2) 0.2161(2) 0.54893(13)
H4 H 0.14100 0.33530 0.50870
C10 C 0.2263(2) 0.0732(2) 0.50604(13)
C11 C 0.2374(2) 0.1045(2) 0.40289(13)
H5 H 0.20740 0.22340 0.36240
C12 C 0.2872(3) 0.2296(2) 0.09327(13)
C13 C 0.1367(3) 0.1532(3) 0.05023(14)
H6 H 0.13650 0.20350 -0.02110
H7 H 0.00570 0.18400 0.07790
H8 H 0.17110 0.02280 0.06610
C14 C 0.4962(3) 0.1776(3) 0.05837(14)
H9 H 0.50500 0.21930 -0.01330
H10 H 0.53150 0.04710 0.07940
H11 H 0.58700 0.23260 0.08640
C15 C 0.2360(3) 0.4307(3) 0.07458(15)
H12 H 0.23890 0.48780 0.00390
H13 H 0.33200 0.47450 0.10600
H14 H 0.10400 0.45980 0.10170
#END
