
#######################################################################
#
#                 Cambridge Crystallographic Data Centre
#                                CCDC
#
#######################################################################
#
# If this CIF has been generated from an entry in the Cambridge
# Structural Database, then it will include bibliographic, chemical,
# crystal, experimental, refinement or atomic coordinate data resulting
# from the CCDC's data processing and validation procedures.
#
#######################################################################

data_CSD_CIF_CUVXOG
_audit_creation_date 1986-02-24
_audit_creation_method CSD-ConQuest-V1
_database_code_CSD CUVXOG
_chemical_formula_sum 'C5 H5 N7 O14'
_chemical_formula_moiety
;
C5 H5 N7 O14
;
_journal_coden_Cambridge 95
_journal_year 1984
_journal_page_first 549
_journal_name_full 'Izv.Akad.Nauk SSSR,Ser.Khim.(Russ.)(Russ.Chem.Bull.) '
loop_
_publ_author_name
"L.O.Atovmyan"
"N.I.Golovina"
"L.T.Eremenko"
"N.G.Zhitomirskaya"
"G.V.Oreshko"
"M.A.Fadeev"
_chemical_name_systematic
;
1,1,1,3,5,5,5-Heptanitropentane
;
_chemical_melting_point 376.15
_cell_volume   1347.807
_exptl_crystal_density_diffrn 1.919
_exptl_special_details
;
Melting point range 376.15-377.15K

;
_diffrn_ambient_temperature ?
_diffrn_special_details
;
The study was carried out at room temperature,in the range 283-303K

;
#These two values have been output from a single CSD field.
_refine_ls_R_factor_gt 0.068
_refine_ls_wR_factor_gt 0.068
_symmetry_cell_setting monoclinic
_symmetry_space_group_name_H-M 'P 21/n'
_symmetry_Int_Tables_number 14
loop_
_symmetry_equiv_pos_site_id
_symmetry_equiv_pos_as_xyz
1 x,y,z
2 1/2-x,1/2+y,1/2-z
3 -x,-y,-z
4 -1/2+x,-1/2-y,-1/2+z
_cell_length_a 10.176(1)
_cell_length_b 21.082(3)
_cell_length_c 6.2929(5)
_cell_angle_alpha 90
_cell_angle_beta 93.28(3)
_cell_angle_gamma 90
_cell_formula_units_Z 4
loop_
_atom_type_symbol
_atom_type_radius_bond
C 0.68
H 0.23
N 0.68
O 0.68
loop_
_atom_site_label
_atom_site_type_symbol
_atom_site_fract_x
_atom_site_fract_y
_atom_site_fract_z
C1 C 0.2921(2) 0.4444(1) 0.6525(3)
C2 C 0.3855(2) 0.3889(1) 0.6350(3)
C3 C 0.3242(2) 0.3270(1) 0.5466(3)
C4 C 0.3990(2) 0.2708(1) 0.6576(3)
C5 C 0.3323(2) 0.2067(1) 0.6672(3)
N1 N 0.4280(2) 0.1587(1) 0.7787(3)
N2 N 0.2901(2) 0.1772(1) 0.4542(3)
N3 N 0.2124(2) 0.2059(1) 0.8018(3)
N4 N 0.3370(2) 0.3211(1) 0.3080(3)
N5 N 0.2492(2) 0.4748(1) 0.4398(3)
N6 N 0.3591(2) 0.4966(1) 0.7876(3)
N7 N 0.1657(2) 0.4278(1) 0.7576(3)
O1 O 0.4973(2) 0.1800(1) 0.9239(3)
O2 O 0.4248(2) 0.1049(1) 0.7146(4)
O3 O 0.1763(2) 0.1615(1) 0.4245(3)
O4 O 0.3778(2) 0.1730(1) 0.3329(3)
O5 O 0.1382(2) 0.2507(1) 0.7778(3)
O6 O 0.1982(2) 0.1620(1) 0.9199(3)
O7 O 0.4254(2) 0.3481(1) 0.2241(3)
O8 O 0.2565(2) 0.2872(1) 0.2143(3)
O9 O 0.2100(2) 0.4375(1) 0.3056(3)
O10 O 0.2569(2) 0.5318(1) 0.4229(3)
O11 O 0.2974(2) 0.5207(1) 0.9225(3)
O12 O 0.4714(2) 0.5086(1) 0.7458(3)
O13 O 0.0674(2) 0.4569(1) 0.7005(4)
O14 O 0.1760(2) 0.3866(1) 0.8912(3)
H1 H 0.41500 0.28800 0.81500
H2 H 0.47600 0.26400 0.60100
H3 H 0.42400 0.38300 0.79500
H4 H 0.46000 0.40000 0.53600
H5 H 0.22400 0.32300 0.57200
#END
