
#######################################################################
#
#                 Cambridge Crystallographic Data Centre
#                                CCDC
#
#######################################################################
#
# If this CIF has been generated from an entry in the Cambridge
# Structural Database, then it will include bibliographic, chemical,
# crystal, experimental, refinement or atomic coordinate data resulting
# from the CCDC's data processing and validation procedures.
#
#######################################################################

data_CSD_CIF_CUVZUO
_audit_creation_date 1986-02-24
_audit_creation_method CSD-ConQuest-V1
_database_code_CSD CUVZUO
_chemical_formula_sum 'C38 H40 N2 O4'
_chemical_formula_moiety
;
C38 H40 N2 O4
;
_journal_coeditor_code "IUCr A24683"
_journal_coden_Cambridge 591
_journal_volume 41
_journal_year 1985
_journal_page_first 573
_journal_name_full 'Acta Crystallogr.,Sect.C:Cryst.Struct.Commun. '
loop_
_publ_author_name
"H.G.Aurich"
"G.Baum"
"W.Massa"
"K.-D.Mogendorf"
_chemical_name_systematic
;
N-t-Butyl-N-((5-t-butyl-1,3,7,8-tetraphenyl-2,4,9-trioxa-5-azatricyclo(4.2.1.0
^3,7^)non-8-yl)methylene)amine-N-oxide
;
_cell_volume   6370.670
_exptl_crystal_colour 'colorless'
_exptl_crystal_density_diffrn 1.227
_diffrn_ambient_temperature 210
#These two values have been output from a single CSD field.
_refine_ls_R_factor_gt 0.043
_refine_ls_wR_factor_gt 0.043
_symmetry_cell_setting monoclinic
_symmetry_space_group_name_H-M 'P 21/c'
_symmetry_Int_Tables_number 14
loop_
_symmetry_equiv_pos_site_id
_symmetry_equiv_pos_as_xyz
1 x,y,z
2 -x,1/2+y,1/2-z
3 -x,-y,-z
4 x,-1/2-y,-1/2+z
_cell_length_a 10.566(4)
_cell_length_b 15.629(3)
_cell_length_c 38.579(8)
_cell_angle_alpha 90
_cell_angle_beta 90.34(2)
_cell_angle_gamma 90
_cell_formula_units_Z 8
loop_
_atom_type_symbol
_atom_type_radius_bond
C 0.68
H 0.23
N 0.68
O 0.68
loop_
_atom_site_label
_atom_site_type_symbol
_atom_site_fract_x
_atom_site_fract_y
_atom_site_fract_z
C1 C 0.6238(3) 0.2710(2) 0.5180(1)
C2 C 0.3223(3) 0.1946(2) 0.8348(1)
C3 C 0.5530(3) 0.2412(2) 0.5513(1)
C4 C 0.2558(3) 0.1854(2) 0.7990(1)
C5 C 0.5891(3) 0.1450(2) 0.5469(1)
C6 C 0.3005(3) 0.0903(2) 0.7931(1)
O1 O 0.7175(2) 0.1452(1) 0.5370(1)
O2 O 0.4263(2) 0.0875(1) 0.8052(1)
N1 N 0.7417(2) 0.2268(2) 0.5186(1)
N2 N 0.4445(2) 0.1584(2) 0.8298(1)
O3 O 0.5106(2) 0.1184(1) 0.5184(1)
O4 O 0.2187(2) 0.0430(1) 0.8161(1)
C7 C 0.8122(3) 0.2069(2) 0.4863(1)
C8 C 0.5219(3) 0.1270(2) 0.8595(1)
C9 C 0.7501(4) 0.1420(2) 0.4624(1)
C10 C 0.4688(4) 0.0502(3) 0.8786(1)
C11 C 0.8290(4) 0.2912(2) 0.4674(1)
C12 C 0.5368(3) 0.2048(3) 0.8830(1)
C13 C 0.9407(3) 0.1735(3) 0.4980(1)
C14 C 0.6503(3) 0.1043(2) 0.8443(1)
C15 C 0.5955(3) 0.2811(2) 0.5851(1)
C16 C 0.2946(3) 0.2493(2) 0.7714(1)
C17 C 0.5274(3) 0.2686(2) 0.6151(1)
C18 C 0.2234(3) 0.2608(3) 0.7419(1)
C19 C 0.5709(4) 0.2993(3) 0.6471(1)
C20 C 0.2586(4) 0.3187(3) 0.7169(1)
C21 C 0.6830(4) 0.3429(3) 0.6487(1)
C22 C 0.3654(4) 0.3672(2) 0.7207(1)
C23 C 0.7529(4) 0.3562(3) 0.6192(1)
C24 C 0.4380(4) 0.3560(3) 0.7494(1)
C25 C 0.7097(3) 0.3247(2) 0.5876(1)
C26 C 0.4043(3) 0.2976(2) 0.7746(1)
C27 C 0.5817(3) 0.0810(2) 0.5763(1)
C28 C 0.3007(3) 0.0473(2) 0.7580(1)
C29 C 0.5007(3) 0.0116(2) 0.5745(1)
C30 C 0.2272(3) -0.0233(2) 0.7508(1)
C31 C 0.4981(3) -0.0487(2) 0.6009(1)
C32 C 0.2344(3) -0.0635(2) 0.7186(1)
C33 C 0.5762(3) -0.0397(2) 0.6296(1)
C34 C 0.3170(3) -0.0326(2) 0.6939(1)
C35 C 0.6565(3) 0.0295(2) 0.6316(1)
C36 C 0.3908(3) 0.0375(2) 0.7012(1)
C37 C 0.6611(3) 0.0886(2) 0.6053(1)
C38 C 0.3848(3) 0.0777(2) 0.7329(1)
C39 C 0.3208(3) 0.1862(2) 0.5589(1)
C40 C 0.0275(3) 0.1359(2) 0.7826(1)
C41 C 0.4114(3) 0.2427(2) 0.5390(1)
C42 C 0.1131(3) 0.1744(2) 0.8097(1)
C43 C 0.4493(3) 0.1927(2) 0.5050(1)
C44 C 0.1519(3) 0.1039(2) 0.8369(1)
O5 O 0.2481(2) 0.2886(1) 0.5957(1)
O6 O -0.0572(2) 0.2604(2) 0.7628(1)
N3 N 0.2441(2) 0.2133(2) 0.5827(1)
N4 N -0.0519(2) 0.1788(2) 0.7632(1)
O7 O 0.5389(2) 0.2480(1) 0.4898(1)
O8 O 0.2397(2) 0.1484(1) 0.8581(1)
C45 C 0.1462(3) 0.1545(2) 0.5991(1)
C46 C -0.1393(3) 0.1349(3) 0.7371(1)
C47 C 0.1254(3) 0.0745(2) 0.5776(1)
C48 C -0.1446(5) 0.0391(3) 0.7424(1)
C49 C 0.0241(3) 0.2048(3) 0.6019(1)
C50 C -0.2697(4) 0.1745(4) 0.7421(1)
C51 C 0.2005(4) 0.1313(3) 0.6347(1)
C52 C -0.0881(4) 0.1574(4) 0.7018(1)
C53 C 0.3540(3) 0.3301(2) 0.5306(1)
C54 C 0.0514(3) 0.2512(2) 0.8274(1)
C55 C 0.2345(3) 0.3318(2) 0.5153(1)
C56 C -0.0628(3) 0.2378(2) 0.8445(1)
C57 C 0.1826(3) 0.4080(2) 0.5042(1)
C58 C -0.1237(3) 0.3036(2) 0.8612(1)
C59 C 0.2470(4) 0.4839(2) 0.5086(1)
C60 C -0.0748(3) 0.3850(2) 0.8604(1)
C61 C 0.3621(4) 0.4837(2) 0.5252(1)
C62 C 0.0368(3) 0.3998(2) 0.8432(1)
C63 C 0.4154(3) 0.4071(2) 0.5365(1)
C64 C 0.0999(3) 0.3335(2) 0.8270(1)
C65 C 0.3520(3) 0.1668(2) 0.4786(1)
C66 C 0.0593(3) 0.0560(2) 0.8590(1)
C67 C 0.3187(3) 0.2227(2) 0.4520(1)
C68 C 0.0460(3) 0.0766(2) 0.8937(1)
C69 C 0.2290(3) 0.1987(2) 0.4275(1)
C70 C -0.0384(4) 0.0309(2) 0.9142(1)
C71 C 0.1730(3) 0.1187(2) 0.4292(1)
C72 C -0.1091(3) -0.0342(2) 0.9005(1)
C73 C 0.2061(3) 0.0628(2) 0.4553(1)
C74 C -0.0963(3) -0.0551(2) 0.8659(1)
C75 C 0.2958(3) 0.0867(2) 0.4799(1)
C76 C -0.0122(3) -0.0106(2) 0.8453(1)
H1 H 0.64000 0.33500 0.51600
H2 H 0.32900 0.25200 0.84400
H3 H 0.66800 0.16400 0.45300
H4 H 0.39300 0.06900 0.89200
H5 H 0.73500 0.09000 0.47700
H6 H 0.53500 0.02900 0.89500
H7 H 0.80600 0.12700 0.44200
H8 H 0.44400 0.00300 0.86200
H9 H 0.88200 0.28000 0.44700
H10 H 0.59800 0.18800 0.90200
H11 H 0.87600 0.32900 0.48400
H12 H 0.45300 0.21800 0.89400
H13 H 0.74800 0.32000 0.46000
H14 H 0.56900 0.25600 0.87000
H15 H 0.99800 0.16600 0.47800
H16 H 0.71000 0.09100 0.86400
H17 H 0.92800 0.11700 0.51000
H18 H 0.68400 0.15400 0.83100
H19 H 0.98000 0.21400 0.51500
H20 H 0.64200 0.05300 0.82900
H21 H 0.44500 0.23700 0.61400
H22 H 0.14400 0.22700 0.73800
H23 H 0.52100 0.28900 0.66900
H24 H 0.20500 0.32600 0.69600
H25 H 0.71400 0.36500 0.67100
H26 H 0.39000 0.41000 0.70300
H27 H 0.83500 0.38800 0.62000
H28 H 0.51700 0.39100 0.75200
H29 H 0.76200 0.33400 0.56600
H30 H 0.46000 0.29000 0.79500
H31 H 0.44300 0.00500 0.55400
H32 H 0.16800 -0.04600 0.76900
H33 H 0.44000 -0.09900 0.59900
H34 H 0.18000 -0.11400 0.71300
H35 H 0.57400 -0.08300 0.64900
H36 H 0.32300 -0.06100 0.67100
H37 H 0.71200 0.03700 0.65200
H38 H 0.45000 0.06000 0.68300
H39 H 0.72200 0.13700 0.60700
H40 H 0.44000 0.12800 0.73800
H41 H 0.31100 0.12800 0.55100
H42 H 0.03600 0.07500 0.77900
H43 H 0.04900 0.04600 0.58700
H44 H -0.21200 0.01800 0.72600
H45 H 0.20000 0.03500 0.57900
H46 H -0.16900 0.02700 0.76700
H47 H 0.10900 0.08900 0.55300
H48 H -0.06300 0.01000 0.73700
H49 H -0.04000 0.16500 0.61200
H50 H -0.32700 0.15000 0.72400
H51 H -0.00400 0.22200 0.57800
H52 H -0.26200 0.23800 0.73900
H53 H 0.03300 0.25700 0.61700
H54 H -0.30600 0.16200 0.76500
H55 H 0.13800 0.09400 0.64700
H56 H -0.14500 0.13300 0.68300
H57 H 0.21100 0.18600 0.64800
H58 H -0.00400 0.12900 0.70100
H59 H 0.28400 0.10100 0.63300
H60 H -0.07700 0.22000 0.69800
H61 H 0.18600 0.27700 0.51200
H62 H -0.10100 0.17900 0.84500
H63 H 0.09700 0.40800 0.49300
H64 H -0.20400 0.29200 0.87400
H65 H 0.21000 0.53900 0.50000
H66 H -0.12000 0.43300 0.87200
H67 H 0.40800 0.53900 0.52900
H68 H 0.07300 0.45900 0.84200
H69 H 0.49900 0.40800 0.54900
H70 H 0.18200 0.34500 0.81500
H71 H 0.35900 0.28000 0.45100
H72 H 0.09700 0.12400 0.90400
H73 H 0.20500 0.23900 0.40800
H74 H -0.04800 0.04600 0.93900
H75 H 0.10800 0.10200 0.41200
H76 H -0.17000 -0.06600 0.91500
H77 H 0.16600 0.00500 0.45700
H78 H -0.14800 -0.10300 0.85600
H79 H 0.32000 0.04600 0.49900
H80 H -0.00300 -0.02600 0.82000
#END
