
#######################################################################
#
#                 Cambridge Crystallographic Data Centre
#                                CCDC
#
#######################################################################
#
# If this CIF has been generated from an entry in the Cambridge
# Structural Database, then it will include bibliographic, chemical,
# crystal, experimental, refinement or atomic coordinate data resulting
# from the CCDC's data processing and validation procedures.
#
#######################################################################

data_CSD_CIF_CUWRAP
_audit_creation_date 2015-11-24
_audit_creation_method CSD-ConQuest-V1
_database_code_CSD CUWRAP
_database_code_depnum_ccdc_archive 'CCDC 1045394'
_chemical_formula_sum 'C18 H22 N2 O6'
_chemical_formula_moiety
;
C18 H22 N2 O6
;
_journal_coden_Cambridge 1220
_journal_volume 21
_journal_year 2015
_journal_page_first 14602
_journal_name_full 'Chem.-Eur.J. '
loop_
_publ_author_name
"Xiaobei Wang"
"Dongliang Xia"
"Ling Tan"
"Huan Chen"
"Hongxiu Huang"
"Hao Song"
"Yong Qin"
_chemical_name_systematic
;
methyl 
4-(4,5-dimethoxy-2-nitrophenyl)-2,3,4,4a,5,6-hexahydro-1H-cyclopenta[b]pyridin
e-7-carboxylate
;
_cell_volume   1795.588
_exptl_crystal_density_diffrn 1.341
_diffrn_ambient_temperature 293.1
#These two values have been output from a single CSD field.
_refine_ls_R_factor_gt 0.0491
_refine_ls_wR_factor_gt 0.0491
_symmetry_cell_setting monoclinic
_symmetry_space_group_name_H-M 'C 2'
_symmetry_Int_Tables_number 5
loop_
_symmetry_equiv_pos_site_id
_symmetry_equiv_pos_as_xyz
1 x,y,z
2 -x,y,-z
3 1/2+x,1/2+y,z
4 1/2-x,1/2+y,-z
_cell_length_a 27.344(2)
_cell_length_b 8.4211(9)
_cell_length_c 7.8112(8)
_cell_angle_alpha 90
_cell_angle_beta 93.348(7)
_cell_angle_gamma 90
_cell_formula_units_Z 4
loop_
_atom_type_symbol
_atom_type_radius_bond
C 0.68
H 0.23
N 0.68
O 0.68
loop_
_atom_site_label
_atom_site_type_symbol
_atom_site_fract_x
_atom_site_fract_y
_atom_site_fract_z
C1 C 0.37527(16) 1.3382(7) 0.1108(7)
H1 H 0.36710 1.28360 0.00510
H2 H 0.37340 1.45070 0.09200
H3 H 0.35260 1.30820 0.19450
C2 C 0.43409(14) 1.1387(5) 0.1894(4)
C3 C 0.48497(14) 1.1108(5) 0.2274(4)
C4 C 0.50514(12) 0.9619(5) 0.2261(4)
C5 C 0.50695(16) 0.6694(5) 0.2406(6)
H4 H 0.49560 0.59330 0.15400
H5 H 0.49770 0.63040 0.35100
C6 C 0.56280(15) 0.6816(5) 0.2421(6)
H6 H 0.57730 0.58740 0.29560
H7 H 0.57270 0.68600 0.12500
C7 C 0.58188(12) 0.8282(5) 0.3387(5)
H8 H 0.56860 0.82670 0.45240
C8 C 0.56027(12) 0.9715(5) 0.2422(4)
H9 H 0.57230 0.97110 0.12650
C9 C 0.56883(14) 1.1367(5) 0.3185(5)
H10 H 0.59880 1.18250 0.28000
H11 H 0.57100 1.13220 0.44280
C10 C 0.52407(14) 1.2347(5) 0.2529(5)
H12 H 0.51530 1.31310 0.33670
H13 H 0.53010 1.28780 0.14590
C11 C 0.63767(12) 0.8323(5) 0.3639(4)
C12 C 0.66432(13) 0.7831(5) 0.5114(5)
C13 C 0.71489(14) 0.7977(6) 0.5335(6)
H14 H 0.73110 0.76320 0.63470
C14 C 0.74093(14) 0.8630(6) 0.4061(6)
C15 C 0.71583(13) 0.9092(5) 0.2522(5)
C16 C 0.66586(13) 0.8958(5) 0.2350(5)
H15 H 0.64980 0.93030 0.13350
C17 C 0.72388(16) 1.0425(8) -0.0135(6)
H16 H 0.74920 1.08310 -0.08140
H17 H 0.70320 1.12820 0.01870
H18 H 0.70470 0.96590 -0.07900
C18 C 0.81704(18) 0.8441(12) 0.5686(10)
H19 H 0.85020 0.88100 0.56430
H20 H 0.81700 0.73080 0.58180
H21 H 0.80220 0.89230 0.66400
N1 N 0.48304(11) 0.8216(4) 0.2055(4)
H22 H 0.45270 0.82080 0.16910
N2 N 0.64045(13) 0.7124(5) 0.6566(5)
O1 O 0.40176(9) 1.0383(4) 0.1692(4)
O2 O 0.42428(10) 1.2963(4) 0.1722(4)
O3 O 0.60260(11) 0.6366(5) 0.6283(4)
O4 O 0.66010(12) 0.7278(4) 0.8004(4)
O5 O 0.74505(9) 0.9702(5) 0.1343(4)
O6 O 0.79018(10) 0.8857(5) 0.4143(4)
#END
