
#######################################################################
#
#                 Cambridge Crystallographic Data Centre
#                                CCDC
#
#######################################################################
#
# If this CIF has been generated from an entry in the Cambridge
# Structural Database, then it will include bibliographic, chemical,
# crystal, experimental, refinement or atomic coordinate data resulting
# from the CCDC's data processing and validation procedures.
#
#######################################################################

data_CSD_CIF_CUWTAR
_audit_creation_date 2015-11-24
_audit_creation_method CSD-ConQuest-V1
_database_code_CSD CUWTAR
_database_code_depnum_ccdc_archive 'CCDC 1063161'
_chemical_formula_sum 'C24 H21 N1 O3'
_chemical_formula_moiety
;
C24 H21 N1 O3
;
_journal_coden_Cambridge 1606
_journal_volume 4
_journal_year 2015
_journal_page_first 1266
_journal_name_full 'Asian J.Org.Chem '
loop_
_publ_author_name
"B.V.S.Reddy"
"G.Niranjan Reddy"
"M.R.Reddy"
"J.K.Lakshmi"
"B.Jagadeesh"
"B.Sridhar"
_chemical_name_systematic
;
1-(4-nitrophenyl)-9-phenyl-1,3,4,4a,9,9a-hexahydroindeno[2,1-c]pyran
;
_cell_volume   1946.525
_exptl_crystal_colour 'colorless'
_exptl_crystal_density_diffrn 1.267
_exptl_crystal_description 'block'
_diffrn_ambient_temperature 294
#These two values have been output from a single CSD field.
_refine_ls_R_factor_gt 0.0593
_refine_ls_wR_factor_gt 0.0593
_symmetry_cell_setting monoclinic
_symmetry_space_group_name_H-M 'P 21/c'
_symmetry_Int_Tables_number 14
loop_
_symmetry_equiv_pos_site_id
_symmetry_equiv_pos_as_xyz
1 x,y,z
2 -x,1/2+y,1/2-z
3 -x,-y,-z
4 x,-1/2-y,-1/2+z
_cell_length_a 13.9135(14)
_cell_length_b 11.7053(11)
_cell_length_c 13.6961(13)
_cell_angle_alpha 90
_cell_angle_beta 119.231(1)
_cell_angle_gamma 90
_cell_formula_units_Z 4
loop_
_atom_type_symbol
_atom_type_radius_bond
C 0.68
H 0.23
N 0.68
O 0.68
loop_
_atom_site_label
_atom_site_type_symbol
_atom_site_fract_x
_atom_site_fract_y
_atom_site_fract_z
C1 C -0.00369(14) 0.39217(15) 0.20035(14)
C2 C 0.01399(14) 0.33576(16) 0.29550(15)
H1 H -0.03900 0.33650 0.31820
C3 C 0.11145(14) 0.27827(15) 0.35657(14)
H2 H 0.12450 0.23980 0.42140
C4 C 0.19080(13) 0.27671(13) 0.32290(13)
C5 C 0.16908(15) 0.33231(17) 0.22530(15)
H3 H 0.22070 0.33010 0.20080
C6 C 0.07169(16) 0.39104(17) 0.16364(15)
H4 H 0.05760 0.42910 0.09840
C7 C 0.29844(13) 0.21548(13) 0.39253(13)
H5 H 0.28130 0.13570 0.39970
C8 C 0.45265(15) 0.14458(17) 0.38567(16)
H6 H 0.48700 0.13910 0.33890
H7 H 0.43090 0.06840 0.39490
C9 C 0.53361(14) 0.19253(16) 0.49796(15)
H8 H 0.55920 0.26630 0.48790
H9 H 0.59680 0.14210 0.53370
C10 C 0.48203(12) 0.20610(13) 0.57359(13)
H10 H 0.47740 0.13220 0.60460
C11 C 0.54596(12) 0.29050(14) 0.66540(13)
C12 C 0.64299(14) 0.27468(17) 0.76443(15)
H11 H 0.67580 0.20300 0.78360
C13 C 0.69052(15) 0.36684(19) 0.83444(15)
H12 H 0.75560 0.35700 0.90150
C14 C 0.64262(15) 0.47317(18) 0.80606(15)
H13 H 0.67580 0.53450 0.85410
C15 C 0.54532(13) 0.49006(14) 0.70647(13)
H14 H 0.51310 0.56200 0.68740
C16 C 0.49734(12) 0.39778(13) 0.63634(12)
C17 C 0.39253(12) 0.39354(12) 0.52358(11)
H15 H 0.41060 0.41680 0.46570
C18 C 0.36723(12) 0.26360(12) 0.51090(12)
H16 H 0.32830 0.24600 0.55240
C19 C 0.29990(12) 0.46840(12) 0.51415(12)
C20 C 0.25748(14) 0.45483(15) 0.58626(14)
H17 H 0.28880 0.40160 0.64390
C21 C 0.16897(16) 0.5198(2) 0.57326(19)
H18 H 0.14060 0.50950 0.62160
C22 C 0.12303(18) 0.5992(2) 0.4894(2)
H19 H 0.06300 0.64230 0.48020
C23 C 0.16567(19) 0.61515(18) 0.4192(2)
H20 H 0.13510 0.66990 0.36300
C24 C 0.25383(15) 0.55037(14) 0.43125(15)
H21 H 0.28240 0.56200 0.38320
N1 N -0.10730(15) 0.45424(16) 0.13539(15)
O1 O 0.35764(9) 0.21617(11) 0.33266(9)
O2 O -0.11858(14) 0.51269(15) 0.05651(13)
O3 O -0.17885(14) 0.44447(18) 0.16197(17)
#END
