
#######################################################################
#
#                 Cambridge Crystallographic Data Centre
#                                CCDC
#
#######################################################################
#
# If this CIF has been generated from an entry in the Cambridge
# Structural Database, then it will include bibliographic, chemical,
# crystal, experimental, refinement or atomic coordinate data resulting
# from the CCDC's data processing and validation procedures.
#
#######################################################################

data_CSD_CIF_CUXNOY
_audit_creation_date 1986-02-24
_audit_creation_method CSD-ConQuest-V1
_database_code_CSD CUXNOY
_chemical_formula_sum 'C16 H23 N1 O8'
_chemical_formula_moiety
;
C16 H23 N1 O8
;
_journal_coden_Cambridge 4
_journal_volume 107
_journal_year 1985
_journal_page_first 2703
_journal_name_full 'J.Am.Chem.Soc. '
loop_
_publ_author_name
"C.M.Browne"
"G.Ferguson"
"M.A.McKervey"
"D.L.Mulholland"
"T.O'Connor"
"T.Parvez"
_chemical_name_systematic
;
5-Nitro-2-hydroxy-1,3-xylyl-18-crown-5
;
_chemical_melting_point 364.15
_cell_volume   1750.452
_exptl_crystal_density_diffrn 1.36
_exptl_special_details
;
Melting point range 364.15-364.65K

;
_diffrn_ambient_temperature ?
_diffrn_special_details
;
The study was carried out at room temperature,in the range 283-303K

;
#These two values have been output from a single CSD field.
_refine_ls_R_factor_gt 0.032
_refine_ls_wR_factor_gt 0.032
_symmetry_cell_setting monoclinic
_symmetry_space_group_name_H-M 'P 21/c'
_symmetry_Int_Tables_number 14
loop_
_symmetry_equiv_pos_site_id
_symmetry_equiv_pos_as_xyz
1 x,y,z
2 -x,1/2+y,1/2-z
3 -x,-y,-z
4 x,-1/2-y,-1/2+z
_cell_length_a 10.503(1)
_cell_length_b 9.003(3)
_cell_length_c 18.924(3)
_cell_angle_alpha 90
_cell_angle_beta 101.98(1)
_cell_angle_gamma 90
_cell_formula_units_Z 4
loop_
_atom_type_symbol
_atom_type_radius_bond
C 0.68
H 0.23
N 0.68
O 0.68
loop_
_atom_site_label
_atom_site_type_symbol
_atom_site_fract_x
_atom_site_fract_y
_atom_site_fract_z
N1 N 0.2680(3) 0.1858(3) 0.5313(1)
O1 O 0.6121(2) -0.1233(2) 0.7422(1)
O2 O 0.4259(2) -0.1033(2) 0.8215(1)
O3 O 0.6448(2) 0.0736(2) 0.8804(1)
O4 O 0.8942(2) 0.1810(2) 0.8527(1)
O5 O 0.9660(2) 0.1454(2) 0.7130(1)
O6 O 0.7468(2) 0.0917(2) 0.5813(1)
O7 O 0.1515(2) 0.1833(3) 0.5311(1)
O8 O 0.3135(2) 0.2582(3) 0.4875(1)
C1 C 0.5238(3) -0.0517(3) 0.6908(2)
C2 C 0.5709(3) 0.0160(3) 0.6352(2)
C3 C 0.4863(3) 0.0935(3) 0.5826(2)
C4 C 0.3560(3) 0.0996(3) 0.5859(2)
C5 C 0.3082(3) 0.0301(3) 0.6398(2)
C6 C 0.3908(3) -0.0475(3) 0.6930(2)
C7 C 0.3443(3) -0.1283(4) 0.7526(2)
C8 C 0.4165(3) 0.0443(4) 0.8471(2)
C9 C 0.5287(3) 0.0773(4) 0.9068(2)
C10 C 0.7517(4) 0.1245(4) 0.9330(2)
C11 C 0.8765(3) 0.0927(4) 0.9114(2)
C12 C 1.0216(3) 0.1664(4) 0.8391(2)
C13 C 1.0294(3) 0.2376(4) 0.7698(2)
C14 C 0.9467(3) 0.2126(4) 0.6438(2)
C15 C 0.8836(3) 0.1050(4) 0.5868(2)
C16 C 0.7143(3) 0.0070(3) 0.6379(2)
H1 H 0.58000 -0.13250 0.78480
H2 H 0.51730 0.14390 0.54540
H3 H 0.21790 0.03590 0.63990
H4 H 0.34380 -0.23170 0.74270
H5 H 0.25840 -0.09640 0.75350
H6 H 0.42020 0.11200 0.80900
H7 H 0.33640 0.05650 0.86220
H8 H 0.53160 0.00240 0.94250
H9 H 0.51940 0.17180 0.92750
H10 H 0.74490 0.22930 0.93670
H11 H 0.75020 0.08040 0.97850
H12 H 0.87230 -0.00830 0.89660
H13 H 0.94820 0.10610 0.95070
H14 H 1.08200 0.21210 0.87720
H15 H 1.04220 0.06400 0.83670
H16 H 1.11780 0.25060 0.76650
H17 H 0.98740 0.33150 0.76640
H18 H 0.88880 0.29380 0.64320
H19 H 1.02690 0.24750 0.63430
H20 H 0.92340 0.01110 0.59910
H21 H 0.89930 0.13590 0.54140
H22 H 0.73680 -0.09400 0.63250
H23 H 0.76070 0.04330 0.68310
#END
