
#######################################################################
#
#                 Cambridge Crystallographic Data Centre
#                                CCDC
#
#######################################################################
#
# If this CIF has been generated from an entry in the Cambridge
# Structural Database, then it will include bibliographic, chemical,
# crystal, experimental, refinement or atomic coordinate data resulting
# from the CCDC's data processing and validation procedures.
#
#######################################################################

data_CSD_CIF_CUYKUC
_audit_creation_date 1986-03-24
_audit_creation_method CSD-ConQuest-V1
_database_code_CSD CUYKUC
_database_code_depnum_ccdc_archive 'CCDC 1134257'
_chemical_formula_sum 'C9 H13 N1 O6'
_chemical_formula_moiety
;
C9 H13 N1 O6
;
_journal_coden_Cambridge 10
_journal_volume 67
_journal_year 1984
_journal_page_first 1725
_journal_name_full 'Helv.Chim.Acta '
loop_
_publ_author_name
"K.Kostova"
"M.Hesse"
_chemical_name_systematic
;
5-(2-Nitro-5-oxotetrahydro-2-furyl)-pentanoic acid
;
_chemical_melting_point 371.15
_cell_volume   1106.569
_exptl_crystal_colour 'colorless'
_exptl_crystal_density_diffrn 1.41
_exptl_special_details
;
Melting point range 371.15-376.15K

;
_diffrn_ambient_temperature ?
_diffrn_special_details
;
The study was carried out at room temperature,in the range 283-303K

;
#These two values have been output from a single CSD field.
_refine_ls_R_factor_gt 0.056
_refine_ls_wR_factor_gt 0.056
_symmetry_cell_setting monoclinic
_symmetry_space_group_name_H-M 'P 21/c'
_symmetry_Int_Tables_number 14
loop_
_symmetry_equiv_pos_site_id
_symmetry_equiv_pos_as_xyz
1 x,y,z
2 -x,1/2+y,1/2-z
3 -x,-y,-z
4 x,-1/2-y,-1/2+z
_cell_length_a 7.594(2)
_cell_length_b 23.311(7)
_cell_length_c 9.490(2)
_cell_angle_alpha 90
_cell_angle_beta 138.80(2)
_cell_angle_gamma 90
_cell_formula_units_Z 4
loop_
_atom_type_symbol
_atom_type_radius_bond
C 0.68
H 0.23
N 0.68
O 0.68
loop_
_atom_site_label
_atom_site_type_symbol
_atom_site_fract_x
_atom_site_fract_y
_atom_site_fract_z
C1 C 0.4900(4) 0.24186(7) 0.5395(2)
O1 O 0.5379(3) 0.29053(5) 0.5972(2)
C2 C 0.6377(4) 0.20049(8) 0.5374(3)
C3 C 0.5069(3) 0.14356(7) 0.4895(2)
C4 C 0.2361(3) 0.16023(6) 0.3878(2)
O2 O 0.2674(2) 0.21595(4) 0.4614(2)
N1 N 0.0420(3) 0.16618(7) 0.1433(2)
O3 O -0.0533(3) 0.12200(7) 0.0404(2)
O4 O 0.0011(4) 0.21304(7) 0.0704(2)
C5 C 0.1072(3) 0.12074(7) 0.4159(3)
C6 C 0.2602(4) 0.11772(7) 0.6460(3)
C7 C 0.1349(4) 0.07711(7) 0.6757(3)
C8 C 0.2901(4) 0.07358(7) 0.9037(3)
C9 C 0.1623(3) 0.03843(6) 0.9400(3)
O5 O -0.0718(2) 0.02338(5) 0.7964(2)
O6 O 0.3256(2) 0.02588(5) 1.1420(2)
H1 H 0.605(4) 0.2118(8) 0.424(3)
H2 H 0.821(4) 0.2018(7) 0.686(3)
H3 H 0.605(3) 0.1253(7) 0.626(3)
H4 H 0.489(3) 0.1238(7) 0.389(3)
H5 H -0.055(4) 0.1338(8) 0.329(3)
H6 H 0.116(4) 0.0809(7) 0.379(3)
H7 H 0.247(5) 0.157(1) 0.682(4)
H8 H 0.453(5) 0.110(1) 0.741(4)
H9 H 0.129(5) 0.034(1) 0.633(4)
H10 H -0.046(4) 0.0836(8) 0.576(3)
H11 H 0.326(4) 0.1097(9) 0.967(3)
H12 H 0.475(5) 0.063(1) 1.010(4)
H13 H 0.229(5) 0.0069(9) 1.151(4)
#END
