
#######################################################################
#
#                 Cambridge Crystallographic Data Centre
#                                CCDC
#
#######################################################################
#
# If this CIF has been generated from an entry in the Cambridge
# Structural Database, then it will include bibliographic, chemical,
# crystal, experimental, refinement or atomic coordinate data resulting
# from the CCDC's data processing and validation procedures.
#
#######################################################################

data_CSD_CIF_CUYKOW
_audit_creation_date 1986-07-24
_audit_creation_method CSD-ConQuest-V1
_database_code_CSD CUYKOW
_database_code_depnum_ccdc_archive 'CCDC 1134255'
_chemical_formula_sum 'C13 H21 N1 O5'
_chemical_formula_moiety
;
C13 H21 N1 O5
;
_journal_coden_Cambridge 10
_journal_volume 68
_journal_year 1985
_journal_page_first 1033
_journal_name_full 'Helv.Chim.Acta '
loop_
_publ_author_name
"T.Aono"
"J.H.Bieri"
"M.Hesse"
"K.Kostova"
"A.Lorenzi-Riatsch"
"Y.Nakashita"
"R.Prewo"
_chemical_name_systematic
;
8-Nitro-11-oxo-13-tridecanolide
;
_cell_volume   1394.471
_exptl_crystal_density_diffrn 1.29
_diffrn_ambient_temperature 130
#These two values have been output from a single CSD field.
_refine_ls_R_factor_gt 0.128
_refine_ls_wR_factor_gt 0.128
_symmetry_cell_setting monoclinic
_symmetry_space_group_name_H-M 'P 21/c'
_symmetry_Int_Tables_number 14
loop_
_symmetry_equiv_pos_site_id
_symmetry_equiv_pos_as_xyz
1 x,y,z
2 -x,1/2+y,1/2-z
3 -x,-y,-z
4 x,-1/2-y,-1/2+z
_cell_length_a 9.758(1)
_cell_length_b 13.707(2)
_cell_length_c 10.814(1)
_cell_angle_alpha 90
_cell_angle_beta 105.40(1)
_cell_angle_gamma 90
_cell_formula_units_Z 4
loop_
_atom_type_symbol
_atom_type_radius_bond
C 0.68
H 0.23
N 0.68
O 0.68
loop_
_atom_site_label
_atom_site_type_symbol
_atom_site_fract_x
_atom_site_fract_y
_atom_site_fract_z
C1 C 0.5798(2) 0.4342(1) 0.3385(2)
O1 O 0.6572(2) 0.4614(1) 0.4389(1)
C2 C 0.5380(2) 0.4964(2) 0.2191(2)
C3 C 0.3818(2) 0.4913(2) 0.1465(2)
C4 C 0.2811(2) 0.5217(2) 0.2259(2)
C5 C 0.1257(2) 0.5132(2) 0.1486(2)
C6 C 0.0150(3) 0.5324(2) 0.2229(2)
C7 C 0.0248(2) 0.4675(2) 0.3379(2)
C8 C 0.0313(2) 0.3580(2) 0.3141(2)
N1 N -0.1071(2) 0.3257(2) 0.2223(2)
O2 O -0.1079(2) 0.3125(2) 0.1140(2)
O3 O -0.2076(2) 0.3100(3) 0.2636(3)
C9 C 0.0572(2) 0.2963(2) 0.4365(2)
C10 C 0.2097(3) 0.3042(2) 0.5179(2)
C11 C 0.3183(2) 0.2625(1) 0.4555(2)
O4 O 0.2839(2) 0.2096(1) 0.3614(2)
C12 C 0.4719(2) 0.2886(1) 0.5156(2)
C13 C 0.5652(2) 0.2770(1) 0.4261(2)
O5 O 0.5223(1) 0.3450(1) 0.3193(1)
H1 H 0.5584(27) 0.5656(19) 0.2443(25)
H2 H 0.5952(29) 0.4754(18) 0.1678(25)
H3 H 0.3582(24) 0.4222(18) 0.1062(22)
H4 H 0.3759(23) 0.5309(16) 0.0735(21)
H5 H 0.3099(23) 0.5833(18) 0.2545(22)
H6 H 0.3005(24) 0.4876(17) 0.3018(22)
H7 H 0.1304(18) 0.4415(12) 0.1036(16)
H8 H 0.1154(25) 0.5636(18) 0.0703(22)
H9 H -0.0891(34) 0.5239(23) 0.1669(30)
H10 H 0.0329(26) 0.6027(19) 0.2526(25)
H11 H 0.1062(32) 0.4890(23) 0.4164(27)
H12 H -0.0609(45) 0.4684(29) 0.3764(41)
H13 H 0.1021(20) 0.3457(14) 0.2668(18)
H14 H 0.0482(27) 0.2290(19) 0.4278(23)
H15 H -0.0151(27) 0.3211(19) 0.4705(24)
H16 H 0.2285(26) 0.3766(19) 0.5411(23)
H17 H 0.2141(37) 0.2717(26) 0.6050(32)
H18 H 0.4741(28) 0.3547(19) 0.5451(24)
H19 H 0.5072(31) 0.2588(22) 0.5903(26)
H20 H 0.6678(28) 0.3009(18) 0.4640(23)
H21 H 0.5512(27) 0.2152(20) 0.3849(25)
#END
