
#######################################################################
#
#                 Cambridge Crystallographic Data Centre
#                                CCDC
#
#######################################################################
#
# If this CIF has been generated from an entry in the Cambridge
# Structural Database, then it will include bibliographic, chemical,
# crystal, experimental, refinement or atomic coordinate data resulting
# from the CCDC's data processing and validation procedures.
#
#######################################################################

data_CSD_CIF_CUZMUF
_audit_creation_date 2000-05-24
_audit_creation_method CSD-ConQuest-V1
_database_code_CSD CUZMUF
_database_code_depnum_ccdc_archive 'CCDC 142762'
_chemical_formula_sum 'C4 H5 N3 O2'
_chemical_formula_moiety
;
C4 H5 N3 O2
;
_journal_coeditor_code "IUCr NA1434"
_journal_coden_Cambridge 591
_journal_volume 56
_journal_year 2000
_journal_page_first 215
_journal_name_full 'Acta Crystallogr.,Sect.C:Cryst.Struct.Commun. '
loop_
_publ_author_name
"C.Foces-Foces"
"N.Jagerovic"
"J.Elguero"
_chemical_name_systematic
;
1-Methyl-4-nitropyrazole
;
_cell_volume    581.105
_exptl_crystal_colour 'colorless'
_exptl_crystal_density_diffrn 1.453
_exptl_crystal_description 'rhombohedral prism'
_exptl_crystal_preparation 'ethyl acetate'
_diffrn_ambient_temperature ?
_diffrn_special_details
;
The study was carried out at room temperature,in the range 283-303K

;
#These two values have been output from a single CSD field.
_refine_ls_R_factor_gt 0.071
_refine_ls_wR_factor_gt 0.071
_symmetry_cell_setting monoclinic
_symmetry_space_group_name_H-M 'P 21/c'
_symmetry_Int_Tables_number 14
loop_
_symmetry_equiv_pos_site_id
_symmetry_equiv_pos_as_xyz
1 x,y,z
2 x,1/2-y,1/2+z
3 -x,-y,-z
4 -x,-1/2+y,-1/2-z
_cell_length_a 7.4197(8)
_cell_length_b 10.1803(15)
_cell_length_c 8.3529(10)
_cell_angle_alpha 90
_cell_angle_beta 112.924(8)
_cell_angle_gamma 90
_cell_formula_units_Z 4
loop_
_atom_type_symbol
_atom_type_radius_bond
C 0.68
H 0.23
N 0.68
O 0.68
loop_
_atom_site_label
_atom_site_type_symbol
_atom_site_fract_x
_atom_site_fract_y
_atom_site_fract_z
N1 N 0.0312(4) 0.1918(2) 0.2703(3)
N2 N 0.1210(4) 0.3077(3) 0.3355(4)
C1 C 0.2692(5) 0.2764(3) 0.4797(4)
C2 C 0.2744(4) 0.1406(3) 0.5061(4)
C3 C 0.1188(4) 0.0904(3) 0.3691(4)
C4 C -0.1426(5) 0.1892(4) 0.1099(5)
N3 N 0.4085(4) 0.0687(3) 0.6467(4)
O1 O 0.3809(5) -0.0502(3) 0.6533(4)
O2 O 0.5457(4) 0.1257(3) 0.7540(4)
H1 H 0.35881 0.34098 0.54659
H2 H 0.06444 0.00695 0.33653
H3 H -0.25020 0.25000 0.10470
H4 H -0.18370 0.10000 0.06210
H5 H -0.11100 0.24490 0.02650
#END
