
#######################################################################
#
#                 Cambridge Crystallographic Data Centre
#                                CCDC
#
#######################################################################
#
# If this CIF has been generated from an entry in the Cambridge
# Structural Database, then it will include bibliographic, chemical,
# crystal, experimental, refinement or atomic coordinate data resulting
# from the CCDC's data processing and validation procedures.
#
#######################################################################

data_CSD_CIF_CUZRAQ
_audit_creation_date 2000-05-24
_audit_creation_method CSD-ConQuest-V1
_database_code_CSD CUZRAQ
_database_code_depnum_ccdc_archive 'CCDC 142769'
_chemical_formula_sum 'C15 H12 N2 O2'
_chemical_formula_moiety
;
C15 H12 N2 O2
;
_journal_coeditor_code "IUCr JA1009"
_journal_coden_Cambridge 591
_journal_volume 56
_journal_year 2000
_journal_page_first 231
_journal_name_full 'Acta Crystallogr.,Sect.C:Cryst.Struct.Commun. '
loop_
_publ_author_name
"Jun-Gill Kang"
"Jung-Pyo Hong"
"Il-Hwan Suh"
_chemical_name_systematic
;
4-Cyano-N-(4-methoxybenzylidene)phenylamine N-oxide
;
_chemical_name_common
;
N-(4-Cyanophenyl)-alpha-(4-methoxybenzylidene)nitrone
;
_cell_volume   1251.458
_exptl_crystal_colour 'yellow'
_exptl_crystal_density_diffrn 1.339
_exptl_special_details
;
air-sensitive

;
_exptl_crystal_description 'plate'
_exptl_crystal_preparation 'absolute ethanol'
_diffrn_ambient_temperature ?
_diffrn_special_details
;
The study was carried out at room temperature,in the range 283-303K

;
#These two values have been output from a single CSD field.
_refine_ls_R_factor_gt 0.056
_refine_ls_wR_factor_gt 0.056
_symmetry_cell_setting triclinic
_symmetry_space_group_name_H-M 'P -1'
_symmetry_Int_Tables_number 2
loop_
_symmetry_equiv_pos_site_id
_symmetry_equiv_pos_as_xyz
1 x,y,z
2 -x,-y,-z
_cell_length_a 7.5821(16)
_cell_length_b 7.613(2)
_cell_length_c 22.270(3)
_cell_angle_alpha 99.469(16)
_cell_angle_beta 96.999(12)
_cell_angle_gamma 94.79(2)
_cell_formula_units_Z 4
loop_
_atom_type_symbol
_atom_type_radius_bond
C 0.68
H 0.23
N 0.68
O 0.68
loop_
_atom_site_label
_atom_site_type_symbol
_atom_site_fract_x
_atom_site_fract_y
_atom_site_fract_z
N1 N 0.7959(3) 0.9605(3) 0.2768(1)
N2 N 0.1462(4) 0.7417(5) 0.44413(15)
N3 N 0.7037(3) 0.4843(3) 0.21981(10)
N4 N 1.3438(4) 0.7014(4) 0.04902(15)
O1 O 1.1627(2) 1.1878(3) 0.04454(8)
O2 O 0.9563(2) 0.9373(3) 0.29949(9)
O3 O 0.3274(3) 0.2712(3) 0.45091(9)
O4 O 0.5471(2) 0.4284(3) 0.18879(9)
C1 C 1.3531(4) 1.1915(5) 0.04987(15)
H1 H 1.384(4) 1.240(4) 0.0143(17)
H2 H 1.395(4) 1.065(5) 0.0522(15)
H3 H 1.414(4) 1.282(4) 0.0882(16)
C2 C 1.0789(3) 1.1401(3) 0.09096(11)
C3 C 1.1630(4) 1.0999(4) 0.14506(12)
H4 H 1.290(4) 1.105(3) 0.1518(12)
C4 C 1.0646(3) 1.0580(4) 0.19024(12)
H5 H 1.121(3) 1.018(3) 0.2271(13)
C5 C 0.8786(3) 1.0564(3) 0.18225(11)
C6 C 0.7974(4) 1.0983(4) 0.12670(13)
H6 H 0.670(4) 1.097(3) 0.1205(12)
C7 C 0.8937(4) 1.1374(4) 0.08193(13)
H7 H 0.830(3) 1.175(3) 0.0442(13)
C8 C 0.7604(4) 1.0176(4) 0.22476(13)
H8 H 0.643(4) 1.037(3) 0.2172(12)
C9 C 0.6541(3) 0.9175(3) 0.31210(11)
C10 C 0.4801(3) 0.8680(4) 0.28446(13)
H9 H 0.449(3) 0.865(3) 0.2395(13)
C11 C 0.3493(4) 0.8268(4) 0.31945(13)
H10 H 0.227(4) 0.788(4) 0.3017(13)
C12 C 0.3947(3) 0.8296(3) 0.38184(13)
C13 C 0.5692(4) 0.8775(4) 0.40908(14)
H11 H 0.597(4) 0.867(4) 0.4524(14)
C14 C 0.6993(4) 0.9201(4) 0.37420(13)
H12 H 0.820(4) 0.948(4) 0.3916(13)
C15 C 0.2571(4) 0.7820(4) 0.41726(14)
C16 C 0.1378(5) 0.2319(6) 0.43870(19)
H13 H 0.098(5) 0.205(5) 0.4759(19)
H14 H 0.100(5) 0.129(5) 0.4023(19)
H15 H 0.088(5) 0.336(5) 0.4291(19)
C17 C 0.4158(4) 0.3222(4) 0.40574(12)
C18 C 0.3397(4) 0.3088(4) 0.34534(13)
H16 H 0.227(4) 0.258(4) 0.3331(13)
C19 C 0.4415(3) 0.3612(4) 0.30258(13)
H17 H 0.386(4) 0.361(3) 0.2604(13)
C20 C 0.6195(3) 0.4309(3) 0.31936(11)
C21 C 0.6921(4) 0.4450(4) 0.38139(13)
H18 H 0.820(4) 0.493(4) 0.3937(13)
C22 C 0.5928(4) 0.3908(4) 0.42374(13)
H19 H 0.644(4) 0.396(4) 0.4641(14)
C23 C 0.7382(3) 0.4901(4) 0.27943(12)
H20 H 0.856(3) 0.550(3) 0.2976(12)
C24 C 0.8423(3) 0.5360(3) 0.18473(11)
C25 C 1.0201(3) 0.5209(3) 0.20360(12)
H21 H 1.050(3) 0.467(3) 0.2398(12)
C26 C 1.1471(4) 0.5627(4) 0.16765(12)
H22 H 1.266(4) 0.549(4) 0.1781(13)
C27 C 1.0962(3) 0.6208(3) 0.11273(12)
C28 C 0.9180(4) 0.6361(4) 0.09377(13)
H23 H 0.889(4) 0.682(3) 0.0543(13)
C29 C 0.7899(4) 0.5930(4) 0.12963(12)
H24 H 0.665(4) 0.592(3) 0.1169(12)
C30 C 1.2334(4) 0.6654(4) 0.07651(14)
#END
