
#######################################################################
#
#                 Cambridge Crystallographic Data Centre
#                                CCDC
#
#######################################################################
#
# If this CIF has been generated from an entry in the Cambridge
# Structural Database, then it will include bibliographic, chemical,
# crystal, experimental, refinement or atomic coordinate data resulting
# from the CCDC's data processing and validation procedures.
#
#######################################################################

data_CSD_CIF_CUZWEZ
_audit_creation_date 2000-05-24
_audit_creation_method CSD-ConQuest-V1
_database_code_CSD CUZWEZ
_database_code_depnum_ccdc_archive 'CCDC 142771'
_chemical_formula_sum 'C8 H9 N5 O6'
_chemical_formula_moiety
;
C8 H9 N5 O6
;
_journal_coeditor_code "IUCr DA1101"
_journal_coden_Cambridge 591
_journal_volume 56
_journal_year 2000
_journal_page_first 235
_journal_name_full 'Acta Crystallogr.,Sect.C:Cryst.Struct.Commun. '
loop_
_publ_author_name
"J.W.Quail"
"J.A.Weil"
"M.P.Singh"
_chemical_name_systematic
;
2,2-Dimethyl-1-(2,4,6-trinitro)phenylhydrazine
;
_chemical_name_common
;
2,2-Dimethyl-1-picryhydrazine
;
_chemical_melting_point 411
_cell_volume   1104.457
_exptl_crystal_colour 'orange'
_exptl_crystal_density_diffrn 1.631
_exptl_special_details
;
Melting point range 411-413K

;
_exptl_crystal_description 'prism'
_exptl_crystal_preparation 'absolute ethanol'
_diffrn_ambient_temperature 123
#These two values have been output from a single CSD field.
_refine_ls_R_factor_gt 0.0384
_refine_ls_wR_factor_gt 0.0384
_symmetry_cell_setting orthorhombic
_symmetry_space_group_name_H-M 'P 21 21 21'
_symmetry_Int_Tables_number 19
loop_
_symmetry_equiv_pos_site_id
_symmetry_equiv_pos_as_xyz
1 x,y,z
2 1/2-x,-y,1/2+z
3 1/2+x,1/2-y,-z
4 -x,1/2+y,1/2-z
_cell_length_a 6.5156(7)
_cell_length_b 8.2006(11)
_cell_length_c 20.6704(14)
_cell_angle_alpha 90
_cell_angle_beta 90
_cell_angle_gamma 90
_cell_formula_units_Z 4
loop_
_atom_type_symbol
_atom_type_radius_bond
C 0.68
H 0.23
N 0.68
O 0.68
loop_
_atom_site_label
_atom_site_type_symbol
_atom_site_fract_x
_atom_site_fract_y
_atom_site_fract_z
C1 C 0.1670(2) 0.29234(17) 0.37985(7)
C2 C 0.1438(2) 0.40131(18) 0.43288(7)
C3 C -0.0218(2) 0.50554(17) 0.43987(7)
H1 H -0.03060 0.57680 0.47600
C4 C -0.1734(2) 0.50403(19) 0.39351(7)
C5 C -0.1581(2) 0.40465(19) 0.33881(7)
H2 H -0.26270 0.40530 0.30680
C6 C 0.0100(2) 0.30665(17) 0.33228(7)
C7 C 0.4635(3) -0.0231(2) 0.31116(8)
H3 H 0.50690 0.05550 0.27820
H4 H 0.44120 -0.12980 0.29090
H5 H 0.57020 -0.03250 0.34430
C8 C 0.1869(3) -0.0885(2) 0.38630(8)
H6 H 0.28900 -0.11400 0.41960
H7 H 0.15150 -0.18810 0.36260
H8 H 0.06340 -0.04400 0.40680
N1 N 0.3153(2) 0.17874(17) 0.37546(7)
H9 H 0.43600 0.19450 0.39350
N2 N 0.2872(2) 0.39574(16) 0.48659(6)
N3 N -0.3534(2) 0.60611(18) 0.40141(7)
N4 N 0.0318(2) 0.22711(16) 0.26857(6)
N5 N 0.2723(2) 0.03271(16) 0.34104(6)
O1 O 0.4622(2) 0.34351(15) 0.47657(6)
O2 O 0.2284(2) 0.44183(17) 0.54008(6)
O3 O -0.3559(2) 0.70268(17) 0.44722(7)
O4 O -0.4949(2) 0.58919(15) 0.36294(6)
O5 O 0.1907(2) 0.25165(15) 0.23855(6)
O6 O -0.1155(2) 0.15051(17) 0.24792(6)
#END
