
#######################################################################
#
#                 Cambridge Crystallographic Data Centre
#                                CCDC
#
#######################################################################
#
# If this CIF has been generated from an entry in the Cambridge
# Structural Database, then it will include bibliographic, chemical,
# crystal, experimental, refinement or atomic coordinate data resulting
# from the CCDC's data processing and validation procedures.
#
#######################################################################

data_CSD_CIF_CUZXAX
_audit_creation_date 2011-01-04
_audit_creation_method CSD-ConQuest-V1
_database_code_CSD CUZXAX
_database_code_depnum_ccdc_archive 'CCDC 760459'
_chemical_formula_sum 'C7 H11 N1 O4'
_chemical_formula_moiety
;
C7 H11 N1 O4
;
_journal_coden_Cambridge 1090
_journal_volume 21
_journal_year 2010
_journal_page_first 116
_journal_name_full 'Tetrahedron:Asymm. '
loop_
_publ_author_name
"A.Estevez"
"R.G.Soengas"
"R.Tato"
"P.Thomas"
"J.C.Estevez"
"R.J.Estevez"
"F.Sussman"
_chemical_name_systematic
;
(3R,5S)-3-Methoxy-5-nitro-2-oxabicycle[2.2.1]heptane
;
_cell_volume    795.493
_exptl_crystal_colour 'colorless'
_exptl_crystal_density_diffrn 1.446
_exptl_crystal_description 'prism'
_diffrn_ambient_temperature 100
#These two values have been output from a single CSD field.
_refine_ls_R_factor_gt 0.0312
_refine_ls_wR_factor_gt 0.0312
_symmetry_cell_setting orthorhombic
_symmetry_space_group_name_H-M 'P 21 21 21'
_symmetry_Int_Tables_number 19
loop_
_symmetry_equiv_pos_site_id
_symmetry_equiv_pos_as_xyz
1 x,y,z
2 1/2-x,-y,1/2+z
3 1/2+x,1/2-y,-z
4 -x,1/2+y,1/2-z
_cell_length_a 6.3924(2)
_cell_length_b 8.0309(3)
_cell_length_c 15.4956(6)
_cell_angle_alpha 90
_cell_angle_beta 90
_cell_angle_gamma 90
_cell_formula_units_Z 4
loop_
_atom_type_symbol
_atom_type_radius_bond
C 0.68
H 0.23
N 0.68
O 0.68
loop_
_atom_site_label
_atom_site_type_symbol
_atom_site_fract_x
_atom_site_fract_y
_atom_site_fract_z
C1 C 0.2555(2) 0.65550(15) 0.41132(7)
H1 H 0.33560 0.55200 0.41680
H2 H 0.11180 0.63690 0.43120
H3 H 0.32090 0.74250 0.44650
O1 O 0.25274(13) 0.70670(9) 0.32291(5)
C2 C 0.14614(16) 0.59390(12) 0.26995(7)
O2 O 0.26433(13) 0.44233(9) 0.25892(5)
C3 C 0.30567(17) 0.43132(13) 0.16680(7)
C4 C 0.10337(18) 0.49877(13) 0.12807(7)
C5 C 0.11963(15) 0.66287(12) 0.17842(7)
C6 C 0.33762(16) 0.72686(13) 0.15081(7)
C7 C 0.46668(17) 0.56529(14) 0.14312(8)
N1 N 0.31097(13) 0.81797(11) 0.06592(6)
O3 O 0.25867(14) 0.96541(9) 0.07077(6)
O4 O 0.33532(14) 0.74444(12) -0.00257(6)
H4 H 0.013(2) 0.5673(17) 0.2982(8)
H5 H 0.347(2) 0.3144(18) 0.1545(9)
H6 H -0.019(2) 0.4381(17) 0.1452(9)
H7 H 0.106(2) 0.5143(16) 0.0670(9)
H8 H 0.006(2) 0.7421(17) 0.1715(9)
H9 H 0.397(2) 0.8088(16) 0.1901(8)
H10 H 0.523(2) 0.5518(17) 0.084(1)
H11 H 0.587(3) 0.5654(19) 0.1826(10)
#END
