
#######################################################################
#
#                 Cambridge Crystallographic Data Centre
#                                CCDC
#
#######################################################################
#
# If this CIF has been generated from an entry in the Cambridge
# Structural Database, then it will include bibliographic, chemical,
# crystal, experimental, refinement or atomic coordinate data resulting
# from the CCDC's data processing and validation procedures.
#
#######################################################################

data_CSD_CIF_CUZYIG
_audit_creation_date 2011-01-04
_audit_creation_method CSD-ConQuest-V1
_database_code_CSD CUZYIG
_database_code_depnum_ccdc_archive 'CCDC 751871'
_chemical_formula_sum 'C24 H26 N2 O6'
_chemical_formula_moiety
;
C24 H26 N2 O6
;
_journal_coden_Cambridge 1090
_journal_volume 21
_journal_year 2010
_journal_page_first 1
_journal_name_full 'Tetrahedron:Asymm. '
loop_
_publ_author_name
"T.Satoh"
"T.Kuramoto"
"S.Ogata"
"H.Watanabe"
"T.Saitoh"
"M.Tadokoro"
_chemical_name_systematic
;
(R,R,R)-2-(Bicyclo[4.1.0]hept-1-yl)-4-phenylbutyl 3,5-dinitrobenzoate
;
_cell_volume    551.482
_exptl_crystal_colour 'colorless'
_exptl_crystal_density_diffrn 1.32
_exptl_crystal_description 'prism'
_diffrn_ambient_temperature 173
#These two values have been output from a single CSD field.
_refine_ls_R_factor_gt 0.0426
_refine_ls_wR_factor_gt 0.0426
_symmetry_cell_setting triclinic
_symmetry_space_group_name_H-M 'P 1'
_symmetry_Int_Tables_number 1
loop_
_symmetry_equiv_pos_site_id
_symmetry_equiv_pos_as_xyz
1 x,y,z
_cell_length_a 6.7366(9)
_cell_length_b 8.1325(11)
_cell_length_c 10.3690(15)
_cell_angle_alpha 78.418(2)
_cell_angle_beta 82.601(2)
_cell_angle_gamma 86.431(2)
_cell_formula_units_Z 1
loop_
_atom_type_symbol
_atom_type_radius_bond
C 0.68
H 0.23
N 0.68
O 0.68
loop_
_atom_site_label
_atom_site_type_symbol
_atom_site_fract_x
_atom_site_fract_y
_atom_site_fract_z
O1 O 0.5723(2) 0.3616(2) 0.21961(15)
C1 C 0.8040(3) 0.4896(3) 0.0461(2)
C2 C 1.0293(3) 0.6401(3) -0.1271(3)
C3 C 0.9824(3) 0.5743(3) 0.0064(2)
O2 O 0.8689(2) 0.4235(2) 0.27132(18)
O3 O 1.2584(3) 0.7899(3) -0.2852(3)
C4 C 0.5121(3) 0.2913(3) 0.3587(2)
C5 C 0.6801(3) 0.4708(3) -0.0473(2)
C6 C 0.7386(4) 0.5375(3) -0.1793(2)
C7 C 0.7554(3) 0.4215(3) 0.1913(2)
N1 N 1.2161(3) 0.7339(3) -0.1672(3)
N2 N 0.6086(3) 0.5146(3) -0.2782(2)
C8 C 0.3136(3) 0.2098(2) 0.3676(2)
C9 C 0.9130(4) 0.6236(3) -0.2221(2)
O4 O 1.3168(3) 0.7476(3) -0.0807(3)
O5 O 0.6669(4) 0.5681(4) -0.3950(2)
O6 O 0.4529(3) 0.4434(3) -0.2378(2)
C10 C 0.3282(3) 0.0663(3) 0.2915(2)
C11 C -0.0720(4) 0.0763(4) 0.9366(3)
C12 C -0.0179(3) 0.1945(3) 0.7029(2)
C13 C 0.1284(3) 0.0145(3) 0.2634(2)
C14 C 0.2309(4) 0.1478(3) 0.5138(2)
C15 C 0.0451(4) 0.1643(3) 0.8273(2)
C16 C 0.2718(4) 0.1083(3) 0.1522(2)
C17 C -0.2012(4) 0.1337(4) 0.6893(3)
C18 C 0.4910(3) -0.0683(3) 0.3236(3)
C19 C -0.2527(4) 0.0151(4) 0.9212(3)
C20 C 0.0888(4) -0.1697(3) 0.2705(3)
C21 C 0.1117(4) 0.2802(3) 0.5809(2)
C22 C 0.4549(4) -0.2345(4) 0.2868(4)
C23 C -0.3178(4) 0.0446(4) 0.7991(3)
C24 C 0.2451(4) -0.2900(4) 0.3355(4)
H1 H 0.221(4) 0.298(4) 0.326(3)
H2 H 0.499(4) -0.085(4) 0.418(3)
H3 H 0.021(4) 0.078(3) 0.292(3)
H4 H 0.251(5) 0.229(4) 0.114(3)
H5 H 0.026(5) 0.344(5) 0.517(4)
H6 H 0.613(4) 0.211(4) 0.388(3)
H7 H 1.053(4) 0.589(4) 0.075(3)
H8 H 0.567(4) 0.407(4) -0.018(3)
H9 H 0.616(4) -0.024(4) 0.274(3)
H10 H -0.032(5) 0.056(5) 1.020(4)
H11 H 0.230(7) -0.292(6) 0.453(5)
H12 H 0.083(6) -0.200(5) 0.179(4)
H13 H 0.334(5) 0.087(5) 0.565(4)
H14 H 0.935(4) 0.666(4) -0.307(3)
H15 H 0.500(4) 0.384(4) 0.408(3)
H16 H 0.149(5) 0.051(5) 0.512(4)
H17 H 0.341(4) 0.045(4) 0.088(3)
H18 H 0.220(5) -0.408(5) 0.316(4)
H19 H -0.252(5) 0.165(5) 0.595(4)
H20 H 0.554(5) -0.320(5) 0.320(3)
H21 H 0.179(5) 0.190(4) 0.839(3)
H22 H 0.184(5) 0.356(5) 0.602(4)
H23 H -0.326(6) -0.036(5) 0.998(4)
H24 H -0.037(6) -0.196(5) 0.318(4)
H25 H -0.436(7) 0.006(7) 0.790(5)
H26 H 0.472(7) -0.215(7) 0.186(5)
#END
