
#######################################################################
#
#                 Cambridge Crystallographic Data Centre
#                                CCDC
#
#######################################################################
#
# If this CIF has been generated from an entry in the Cambridge
# Structural Database, then it will include bibliographic, chemical,
# crystal, experimental, refinement or atomic coordinate data resulting
# from the CCDC's data processing and validation procedures.
#
#######################################################################

data_CSD_CIF_CYNOAZ10
_audit_creation_date 1971-12-31
_audit_creation_method CSD-ConQuest-V1
_database_code_CSD CYNOAZ10
_chemical_formula_sum 'C8 H12 N1 O2'
_chemical_formula_moiety
;
C8 H12 N1 O2
;
_journal_coeditor_code "IUCr A08055"
_journal_coden_Cambridge 107
_journal_volume 27
_journal_year 1971
_journal_page_first 322
_journal_name_full 'Acta Crystallogr.,Sect.B:Struct.Crystallogr.Cryst.Chem. '
loop_
_publ_author_name
"A.Capiomont"
"B.Chion"
"J.Lajzerowicz"
_chemical_name_systematic
;
9-Azabicyclo(3.3.1)nonan-3-one-9-oxyl
;
_cell_volume    774.948
_diffrn_ambient_temperature ?
_diffrn_special_details
;
The study was carried out at room temperature,in the range 283-303K

;
#These two values have been output from a single CSD field.
_refine_ls_R_factor_gt 0.063
_refine_ls_wR_factor_gt 0.063
_symmetry_cell_setting monoclinic
_symmetry_space_group_name_H-M 'P 21/c'
_symmetry_Int_Tables_number 14
loop_
_symmetry_equiv_pos_site_id
_symmetry_equiv_pos_as_xyz
1 x,y,z
2 -x,1/2+y,1/2-z
3 -x,-y,-z
4 x,-1/2-y,-1/2+z
_cell_length_a 10.49(3)
_cell_length_b 11.19(2)
_cell_length_c 15.38(3)
_cell_angle_alpha 90
_cell_angle_beta 154.58
_cell_angle_gamma 90
_cell_formula_units_Z 4
loop_
_atom_type_symbol
_atom_type_radius_bond
C 0.68
H 0.20
N 0.68
O 0.68
loop_
_atom_site_label
_atom_site_type_symbol
_atom_site_fract_x
_atom_site_fract_y
_atom_site_fract_z
C1 C 0.22020 -0.15100 -0.09810
C2 C 0.30310 -0.24050 0.02460
C3 C 0.37460 -0.18220 0.15330
C4 C 0.56010 -0.07150 0.26340
C5 C 0.46430 0.01340 0.13120
C6 C 0.16690 0.07280 -0.03560
C7 C -0.09030 -0.01540 -0.19600
C8 C -0.08120 -0.09370 -0.27090
H1 H 0.60700 0.07900 0.20700
H2 H -0.28700 0.02100 -0.30600
H3 H -0.13100 -0.04500 -0.35700
H4 H -0.22400 -0.15800 -0.35400
H5 H 0.22800 -0.18600 -0.15200
H6 H 0.49500 -0.28200 0.12400
H7 H 0.14100 -0.30200 -0.06700
H8 H 0.75900 -0.09700 0.37200
H9 H 0.54800 -0.03100 0.31200
H10 H 0.17800 0.12000 0.02300
H11 H 0.13600 0.13300 -0.09400
H12 H -0.08900 -0.06200 -0.14100
N1 N 0.44670 -0.05630 0.04020
O1 O 0.68940 -0.07730 0.14810
O2 O 0.29150 -0.22450 0.17120
#END
