
#######################################################################
#
#                 Cambridge Crystallographic Data Centre
#                                CCDC
#
#######################################################################
#
# If this CIF has been generated from an entry in the Cambridge
# Structural Database, then it will include bibliographic, chemical,
# crystal, experimental, refinement or atomic coordinate data resulting
# from the CCDC's data processing and validation procedures.
#
#######################################################################

data_CSD_CIF_CYPYRO01
_audit_creation_date 2012-10-03
_audit_creation_method CSD-ConQuest-V1
_database_code_CSD CYPYRO01
_database_code_depnum_ccdc_archive 'CCDC 899765'
_chemical_formula_sum 'C6 H4 N2 O1'
_chemical_formula_moiety
;
C6 H4 N2 O1
;
_journal_coeditor_code "IUCr HG5244"
_journal_coden_Cambridge 1370
_journal_volume 68
_journal_year 2012
_journal_page_first o2805
_journal_name_full 'Acta Crystallogr.,Sect.E:Struct.Rep.Online '
loop_
_publ_author_name
"R.Moreno-Fuquen"
"C.Arana"
"C.A.De Simone"
_chemical_name_systematic
;
1-Hydroxy-1\l^5^-pyridine-4-carbonitrile
;
_chemical_name_common
;
4-cyanopyridine N-oxide
;
_chemical_melting_point 496
_cell_volume    554.365
_exptl_crystal_colour 'pale green'
_exptl_crystal_density_diffrn 1.439
_exptl_crystal_description 'block'
_exptl_crystal_preparation 'acetonitrile'
_diffrn_ambient_temperature 295
#These two values have been output from a single CSD field.
_refine_ls_R_factor_gt 0.0568
_refine_ls_wR_factor_gt 0.0568
_symmetry_cell_setting monoclinic
_symmetry_space_group_name_H-M 'P 21/c'
_symmetry_Int_Tables_number 14
loop_
_symmetry_equiv_pos_site_id
_symmetry_equiv_pos_as_xyz
1 x,y,z
2 -x,1/2+y,1/2-z
3 -x,-y,-z
4 x,-1/2-y,-1/2+z
_cell_length_a 7.8743(8)
_cell_length_b 6.0582(6)
_cell_length_c 11.6278(10)
_cell_angle_alpha 90
_cell_angle_beta 91.973(6)
_cell_angle_gamma 90
_cell_formula_units_Z 4
loop_
_atom_type_symbol
_atom_type_radius_bond
C 0.68
H 0.23
N 0.68
O 0.68
loop_
_atom_site_label
_atom_site_type_symbol
_atom_site_fract_x
_atom_site_fract_y
_atom_site_fract_z
N1 N 0.62819(15) 0.2012(2) 0.91581(10)
O1 O 0.54449(17) 0.3499(2) 0.85653(10)
C1 C 0.7599(2) 0.0848(3) 1.09136(14)
H1 H 0.78850 0.11230 1.16830
C2 C 0.90575(19) -0.2718(2) 1.10517(13)
N2 N 0.9834(2) -0.4015(2) 1.15568(14)
C3 C 0.80898(17) -0.1108(2) 1.04066(12)
C4 C 0.7643(2) -0.1471(3) 0.92614(13)
H2 H 0.79580 -0.27750 0.89050
C5 C 0.6695(2) 0.2377(3) 1.02802(13)
H3 H 0.63600 0.36830 1.06260
C6 C 0.6735(2) 0.0094(2) 0.86553(13)
H4 H 0.64260 -0.01620 0.78880
#END
