
#######################################################################
#
#                 Cambridge Crystallographic Data Centre
#                                CCDC
#
#######################################################################
#
# If this CIF has been generated from an entry in the Cambridge
# Structural Database, then it will include bibliographic, chemical,
# crystal, experimental, refinement or atomic coordinate data resulting
# from the CCDC's data processing and validation procedures.
#
#######################################################################

data_CSD_CIF_DABDUG
_audit_creation_date 2004-12-02
_audit_creation_method CSD-ConQuest-V1
_database_code_CSD DABDUG
_database_code_depnum_ccdc_archive 'CCDC 241909'
_chemical_formula_sum 'C9 H11 N3 O1'
_chemical_formula_moiety
;
C9 H11 N3 O1
;
_journal_coden_Cambridge 24
_journal_volume 45
_journal_year 2004
_journal_page_first 4931
_journal_name_full 'Tetrahedron Lett. '
loop_
_publ_author_name
"Kyung-Ho Park"
"W.J.Marshall"
_chemical_name_systematic
;
6-Methyl-3a,4,5,7-tetrahydro-3H-isoxazolo(4,3-g)indazole
;
_chemical_melting_point 463.15
_cell_volume   2618.294
_exptl_crystal_colour 'colorless'
_exptl_crystal_density_diffrn 1.349
_exptl_special_details
;
The temperature is given as 293 K in the cif

;
_exptl_crystal_description 'irregular block'
_exptl_crystal_preparation 'hexane/ethyl acetate'
_diffrn_ambient_temperature 173.15
_refine_special_details
;
Part of each structure is disordered over two sites with occupancies of 
0.508:0.492 and 0.527:0.473.
;
#These two values have been output from a single CSD field.
_refine_ls_R_factor_gt 0.0594
_refine_ls_wR_factor_gt 0.0594
_symmetry_cell_setting monoclinic
_symmetry_space_group_name_H-M 'P 21/c'
_symmetry_Int_Tables_number 14
loop_
_symmetry_equiv_pos_site_id
_symmetry_equiv_pos_as_xyz
1 x,y,z
2 x,1/2-y,1/2+z
3 -x,-y,-z
4 -x,-1/2+y,-1/2-z
_cell_length_a 7.7566(8)
_cell_length_b 25.485(3)
_cell_length_c 13.4743(14)
_cell_angle_alpha 90
_cell_angle_beta 100.578(2)
_cell_angle_gamma 90
_cell_formula_units_Z 12
loop_
_atom_type_symbol
_atom_type_radius_bond
C 0.68
H 0.23
N 0.68
O 0.68
loop_
_atom_site_label
_atom_site_type_symbol
_atom_site_fract_x
_atom_site_fract_y
_atom_site_fract_z
O1 O 0.4648(2) 0.05356(7) 0.23323(13)
N1 N -0.1010(3) 0.12142(7) -0.06149(13)
H1 H -0.131(3) 0.1445(10) -0.118(2)
C1 C -0.3987(3) 0.08424(11) -0.06370(18)
H2 H -0.42570 0.10340 -0.12600
H3 H -0.46300 0.09890 -0.01580
H4 H -0.43090 0.04810 -0.07560
N2 N 0.0679(2) 0.11936(7) -0.01332(12)
C2 C -0.2080(3) 0.08789(8) -0.02303(15)
N3 N 0.3703(3) 0.07938(9) 0.14579(15)
C3 C -0.1030(3) 0.06209(8) 0.05507(14)
C4 C 0.0658(3) 0.08260(8) 0.05767(14)
C5 C -0.1451(3) 0.02179(9) 0.12864(17)
H5 H -0.237(4) 0.0324(13) 0.160(2)
H6 H -0.187(4) -0.0128(13) 0.094(2)
C6? C -0.0072(6) 0.0203(2) 0.2192(4)
H7? H -0.02650 -0.00980 0.25990
H8? H -0.01550 0.05160 0.25900
C7 C 0.0253(6) -0.0012(2) 0.1922(4)
H9 H -0.00390 -0.01860 0.25100
H10 H 0.07170 -0.02760 0.15230
C8? C 0.1774(6) 0.0169(2) 0.1946(4)
H11? H 0.18610 -0.01450 0.15400
C9 C 0.1653(6) 0.0386(2) 0.2269(4)
H12 H 0.12160 0.06470 0.26970
C10 C 0.2110(3) 0.06561(9) 0.13409(16)
C11 C 0.3410(4) 0.02172(13) 0.2749(2)
H13 H 0.390(5) -0.0097(17) 0.293(3)
H14 H 0.339(5) 0.0314(16) 0.338(3)
O2 O 0.0942(3) 0.43944(7) -0.03995(12)
N4 N 0.1517(2) 0.22617(8) 0.06287(13)
H15 H 0.139(3) 0.1920(11) 0.038(2)
C12 C 0.2722(3) 0.19975(10) 0.24065(18)
H16 H 0.19920 0.16920 0.22770
H17 H 0.26220 0.21420 0.30510
H18 H 0.39200 0.19020 0.24080
N5 N 0.1079(2) 0.26778(7) 0.00108(12)
C13 C 0.2147(3) 0.23970(9) 0.15996(15)
N6 N 0.0843(3) 0.38375(8) -0.04957(14)
C14 C 0.2136(3) 0.29364(9) 0.16300(15)
C15 C 0.1470(3) 0.30875(9) 0.06304(15)
C16 C 0.2673(4) 0.3317(1) 0.24788(18)
C17? C 0.2832(8) 0.39031(19) 0.2085(4)
H19? H 0.27830 0.41430 0.26390
H20? H 0.39710 0.39440 0.18950
C18? C 0.1440(8) 0.40588(19) 0.1202(4)
H21? H 0.03140 0.40600 0.14340
C19 C 0.2226(7) 0.40113(17) 0.1181(3)
H22 H 0.34860 0.39980 0.11740
C20 C 0.1963(7) 0.38286(17) 0.2224(3)
H23 H 0.25180 0.40780 0.27270
H24 H 0.07180 0.38250 0.22410
C21 C 0.1327(3) 0.36399(9) 0.03664(15)
C22 C 0.1526(6) 0.45114(13) 0.0661(2)
N7 N 0.8635(2) 0.24862(7) 0.30339(13)
H25 H 0.928(3) 0.2399(9) 0.363(2)
C23 C 0.8091(3) 0.15878(10) 0.23140(19)
H26 H 0.88340 0.14860 0.29350
H27 H 0.85660 0.14540 0.17550
H28 H 0.69370 0.14470 0.22920
N8 N 0.8395(2) 0.30025(7) 0.28222(12)
C24 C 0.7995(3) 0.21676(9) 0.22527(15)
N9 N 0.7148(3) 0.39297(9) 0.14633(16)
C25 C 0.7285(3) 0.24945(9) 0.14690(15)
C26 C 0.7560(3) 0.30019(9) 0.18614(15)
C27 C 0.6461(4) 0.23749(12) 0.03936(17)
C28? C 0.6515(7) 0.2925(2) -0.0245(4)
H29? H 0.77140 0.29910 -0.03240
H30? H 0.58150 0.28800 -0.09140
C29? C 0.5870(7) 0.33847(18) 0.0228(4)
H31? H 0.46560 0.33290 0.03140
C30 C 0.5690(7) 0.27967(19) -0.0148(4)
H32 H 0.45450 0.28550 0.00240
H33 H 0.55140 0.27120 -0.08620
C31 C 0.6759(7) 0.33068(19) 0.0036(4)
H34 H 0.78990 0.32610 -0.01670
C32 C 0.7033(3) 0.34516(10) 0.12243(17)
C33 C 0.6027(5) 0.38714(15) -0.0259(2)
O3 O 0.6513(3) 0.42323(8) 0.05766(16)
H35 H 0.398(5) 0.3312(12) 0.273(3)
H36 H 0.725(4) 0.2154(12) 0.006(2)
H37 H 0.238(5) 0.3205(13) 0.303(3)
H38 H 0.657(5) 0.3973(15) -0.076(3)
H39 H 0.542(5) 0.2209(14) 0.039(3)
H40 H 0.476(7) 0.3915(19) -0.052(4)
H41 H 0.018(6) 0.4611(19) 0.092(4)
H42 H 0.170(5) 0.4805(15) 0.078(3)
#END
