
#######################################################################
#
#                 Cambridge Crystallographic Data Centre
#                                CCDC
#
#######################################################################
#
# If this CIF has been generated from an entry in the Cambridge
# Structural Database, then it will include bibliographic, chemical,
# crystal, experimental, refinement or atomic coordinate data resulting
# from the CCDC's data processing and validation procedures.
#
#######################################################################

data_CSD_CIF_DABFES
_audit_creation_date 2004-12-02
_audit_creation_method CSD-ConQuest-V1
_database_code_CSD DABFES
_database_code_depnum_ccdc_archive 'CCDC 244812'
_chemical_formula_sum 'C13 H19 N3 O1'
_chemical_formula_moiety
;
C13 H19 N3 O1
;
_journal_coden_Cambridge 24
_journal_volume 45
_journal_year 2004
_journal_page_first 4931
_journal_name_full 'Tetrahedron Lett. '
loop_
_publ_author_name
"Kyung-Ho Park"
"W.J.Marshall"
_chemical_name_systematic
;
6-t-Butyl-8-methyl-3a,4,5,7-tetrahydro-3H-isoxazolo(4,3-g)indazole
;
_chemical_melting_point 420.15
_cell_volume   1250.515
_exptl_crystal_colour 'colorless'
_exptl_crystal_density_diffrn 1.239
_exptl_crystal_description 'irregular block'
_exptl_crystal_preparation 'hexane/ethyl acetate'
_diffrn_ambient_temperature 173
_refine_special_details
;
Two carbon atoms are disordered over two sites with occupancies of 
0.619:0.381.
;
#These two values have been output from a single CSD field.
_refine_ls_R_factor_gt 0.0502
_refine_ls_wR_factor_gt 0.0502
_symmetry_cell_setting monoclinic
_symmetry_space_group_name_H-M 'P 21/c'
_symmetry_Int_Tables_number 14
loop_
_symmetry_equiv_pos_site_id
_symmetry_equiv_pos_as_xyz
1 x,y,z
2 x,1/2-y,1/2+z
3 -x,-y,-z
4 -x,-1/2+y,-1/2-z
_cell_length_a 9.6755(11)
_cell_length_b 10.4034(12)
_cell_length_c 12.8949(15)
_cell_angle_alpha 90
_cell_angle_beta 105.542(2)
_cell_angle_gamma 90
_cell_formula_units_Z 4
loop_
_atom_type_symbol
_atom_type_radius_bond
C 0.68
H 0.23
N 0.68
O 0.68
loop_
_atom_site_label
_atom_site_type_symbol
_atom_site_fract_x
_atom_site_fract_y
_atom_site_fract_z
N1 N 0.00198(14) 0.22855(13) 0.02547(11)
O1 O 0.24780(13) 0.47099(12) 0.3001(1)
C1 C 0.13713(17) 0.16322(17) 0.03227(15)
H1 H 0.12770 0.07190 0.04780
H2 H 0.21300 0.20180 0.08990
H3 H 0.16170 0.17200 -0.03630
N2 N -0.12037(14) 0.18654(13) -0.04480(11)
N3 N 0.20021(15) 0.37814(14) 0.21694(12)
C2 C -0.22458(17) 0.26701(15) -0.03465(13)
C3 C -0.16704(17) 0.36402(15) 0.04201(13)
C4 C -0.02297(17) 0.33442(15) 0.07926(13)
C5 C -0.23245(19) 0.47870(18) 0.08299(15)
C6 C -0.1345(5) 0.5309(5) 0.1903(4)
H4 H -0.16850 0.61730 0.20420
H5 H -0.14270 0.47390 0.24990
C7 C 0.0227(3) 0.5397(3) 0.1898(3)
H6 H 0.03550 0.60330 0.13490
C8? C -0.1208(9) 0.5608(8) 0.1528(7)
H7? H -0.16700 0.61970 0.19370
H8? H -0.07640 0.61400 0.10670
C9? C -0.0047(5) 0.4869(6) 0.2310(5)
H9? H -0.04500 0.43280 0.28000
C10 C 0.07274(17) 0.40462(16) 0.16559(13)
C11 C 0.1310(2) 0.5608(2) 0.29461(17)
C12 C -0.37982(17) 0.24173(16) -0.09497(14)
C13 C -0.3898(2) 0.1357(2) -0.17758(19)
H10 H -0.33230 0.15910 -0.22680
H11 H -0.49010 0.12440 -0.21860
H12 H -0.35350 0.05520 -0.14070
C14 C -0.4485(2) 0.3630(2) -0.15472(17)
H13 H -0.39790 0.38720 -0.20820
H14 H -0.44200 0.43340 -0.10310
H15 H -0.54950 0.34600 -0.19090
C15 C -0.4626(2) 0.2026(2) -0.01421(17)
H16 H -0.41990 0.12460 0.02380
H17 H -0.56300 0.18590 -0.05250
H18 H -0.45790 0.27220 0.03780
H19 H -0.317(2) 0.4558(19) 0.1017(16)
H20 H -0.258(2) 0.553(2) 0.0247(19)
H21 H 0.105(2) 0.555(2) 0.359(2)
H22 H 0.166(3) 0.648(3) 0.290(2)
#END
