
#######################################################################
#
#                 Cambridge Crystallographic Data Centre
#                                CCDC
#
#######################################################################
#
# If this CIF has been generated from an entry in the Cambridge
# Structural Database, then it will include bibliographic, chemical,
# crystal, experimental, refinement or atomic coordinate data resulting
# from the CCDC's data processing and validation procedures.
#
#######################################################################

data_CSD_CIF_DABFIW
_audit_creation_date 2004-12-02
_audit_creation_method CSD-ConQuest-V1
_database_code_CSD DABFIW
_database_code_depnum_ccdc_archive 'CCDC 244813'
_chemical_formula_sum 'C15 H15 N3 O1'
_chemical_formula_moiety
;
C15 H15 N3 O1
;
_journal_coden_Cambridge 24
_journal_volume 45
_journal_year 2004
_journal_page_first 4931
_journal_name_full 'Tetrahedron Lett. '
loop_
_publ_author_name
"Kyung-Ho Park"
"W.J.Marshall"
_chemical_name_systematic
;
7-Methyl-6-phenyl-3a,4,5,7-tetrahydro-3H-isoxazolo(4,3-g)indazole
;
_chemical_melting_point 474.15
_cell_volume   1242.898
_exptl_crystal_colour 'colorless'
_exptl_crystal_density_diffrn 1.354
_exptl_special_details
;
The temperature is given as 293K in the cif

;
_exptl_crystal_description 'prism'
_exptl_crystal_preparation 'hexane/ether'
_diffrn_ambient_temperature 173.15
#These two values have been output from a single CSD field.
_refine_ls_R_factor_gt 0.0552
_refine_ls_wR_factor_gt 0.0552
_symmetry_cell_setting monoclinic
_symmetry_space_group_name_H-M 'P 21/c'
_symmetry_Int_Tables_number 14
loop_
_symmetry_equiv_pos_site_id
_symmetry_equiv_pos_as_xyz
1 x,y,z
2 x,1/2-y,1/2+z
3 -x,-y,-z
4 -x,-1/2+y,-1/2-z
_cell_length_a 7.2409(15)
_cell_length_b 9.633(2)
_cell_length_c 17.930(4)
_cell_angle_alpha 90
_cell_angle_beta 96.381(4)
_cell_angle_gamma 90
_cell_formula_units_Z 4
loop_
_atom_type_symbol
_atom_type_radius_bond
C 0.68
H 0.23
N 0.68
O 0.68
loop_
_atom_site_label
_atom_site_type_symbol
_atom_site_fract_x
_atom_site_fract_y
_atom_site_fract_z
O1 O -0.0938(2) 0.86036(15) 0.06791(9)
N1 N -0.0038(2) 0.30824(16) 0.16507(9)
N2 N -0.0960(2) 0.42855(16) 0.14905(9)
N3 N -0.1376(2) 0.72643(17) 0.09646(10)
C1 C 0.1702(3) 0.30634(19) 0.14168(10)
C2 C -0.0992(3) 0.1990(2) 0.20191(13)
H1 H -0.23090 0.21430 0.19380
H2 H -0.05920 0.20010 0.25480
H3 H -0.07040 0.11050 0.18140
C3 C 0.0242(3) 0.50465(19) 0.11466(11)
C4 C 0.1920(3) 0.43426(19) 0.10797(10)
C5 C -0.0008(3) 0.6467(2) 0.08891(11)
C6 C 0.1529(3) 0.7109(2) 0.04981(15)
H4 H 0.12810 0.68770 -0.00360
C7 C 0.3404(3) 0.6543(2) 0.07687(16)
H5 H 0.37360 0.68350 0.12840
H6 H 0.43090 0.69350 0.04680
C8 C 0.3506(3) 0.4977(2) 0.07307(12)
H7 H 0.34590 0.46850 0.02110
H8 H 0.46740 0.46610 0.09940
C9 C 0.1024(3) 0.8597(2) 0.05810(15)
H9 H 0.17500 0.90050 0.10140
H10 H 0.12470 0.91190 0.01370
C10 C 0.2993(3) 0.18785(18) 0.15229(10)
C11 C 0.4015(3) 0.15072(19) 0.09338(11)
H11 H 0.38610 0.20030 0.04860
C12 C 0.5252(3) 0.0407(2) 0.10140(12)
H12 H 0.59370 0.01770 0.06220
C13 C 0.5478(3) -0.0355(2) 0.16748(12)
H13 H 0.62980 -0.11010 0.17240
C14 C 0.4475(3) 0.0001(2) 0.22588(12)
H14 H 0.46210 -0.05100 0.27020
C15 C 0.3251(3) 0.1117(2) 0.21903(11)
H15 H 0.26000 0.13580 0.25900
#END
