
#######################################################################
#
#                 Cambridge Crystallographic Data Centre
#                                CCDC
#
#######################################################################
#
# If this CIF has been generated from an entry in the Cambridge
# Structural Database, then it will include bibliographic, chemical,
# crystal, experimental, refinement or atomic coordinate data resulting
# from the CCDC's data processing and validation procedures.
#
#######################################################################

data_CSD_CIF_DABFAO
_audit_creation_date 2004-12-02
_audit_creation_method CSD-ConQuest-V1
_database_code_CSD DABFAO
_database_code_depnum_ccdc_archive 'CCDC 241910'
_chemical_formula_sum 'C10 H13 N3 O1'
_chemical_formula_moiety
;
C10 H13 N3 O1
;
_journal_coden_Cambridge 24
_journal_volume 45
_journal_year 2004
_journal_page_first 4931
_journal_name_full 'Tetrahedron Lett. '
loop_
_publ_author_name
"Kyung-Ho Park"
"W.J.Marshall"
_chemical_name_systematic
;
6,8-Dimethyl-3a,4,5,7-tetrahydro-3H-isoxazolo(4,3-g)indazole
;
_chemical_melting_point 395.15
_cell_volume   3902.182
_exptl_crystal_colour 'colorless'
_exptl_crystal_density_diffrn 1.302
_exptl_special_details
;
The temperature is given as 293K in the cif

;
_exptl_crystal_description 'irregular block'
_exptl_crystal_preparation 'hexane/ethyl acetate'
_diffrn_ambient_temperature 173.15
_refine_special_details
;
Two carbon atoms in each molecule are disordered over two sites with 
respective occupancies of 0.566:0.434 and 0.825:0.175.
;
#These two values have been output from a single CSD field.
_refine_ls_R_factor_gt 0.0474
_refine_ls_wR_factor_gt 0.0474
_symmetry_cell_setting orthorhombic
_symmetry_space_group_name_H-M 'P b c n'
_symmetry_Int_Tables_number 60
loop_
_symmetry_equiv_pos_site_id
_symmetry_equiv_pos_as_xyz
1 x,y,z
2 1/2+x,1/2-y,-z
3 -x,y,1/2-z
4 1/2-x,1/2-y,1/2+z
5 -x,-y,-z
6 -1/2-x,-1/2+y,z
7 x,-y,-1/2+z
8 -1/2+x,-1/2+y,-1/2-z
_cell_length_a 13.6524(17)
_cell_length_b 8.9306(11)
_cell_length_c 32.005(4)
_cell_angle_alpha 90
_cell_angle_beta 90
_cell_angle_gamma 90
_cell_formula_units_Z 16
loop_
_atom_type_symbol
_atom_type_radius_bond
C 0.68
H 0.23
N 0.68
O 0.68
loop_
_atom_site_label
_atom_site_type_symbol
_atom_site_fract_x
_atom_site_fract_y
_atom_site_fract_z
O1 O -0.00769(9) 0.27077(15) 0.19740(3)
N1 N 0.05649(9) 0.35882(13) 0.06244(4)
C1 C -0.03050(12) 0.45273(19) 0.06335(5)
H1 H -0.04370 0.48960 0.03580
H2 H -0.01990 0.53560 0.08190
H3 H -0.08530 0.39500 0.07300
N2 N 0.11032(10) 0.34503(15) 0.02722(4)
C2 C 0.26125(15) 0.2154(2) 0.00540(6)
H4 H 0.24000 0.24800 -0.02170
H5 H 0.27060 0.10890 0.00520
H6 H 0.32190 0.26370 0.01240
N3 N -0.00888(9) 0.31875(15) 0.15481(4)
C3 C 0.18506(12) 0.25542(17) 0.03730(5)
C4 C 0.18018(10) 0.21091(16) 0.07912(4)
C5 C 0.09639(10) 0.27959(15) 0.09409(4)
C6 C 0.24532(12) 0.11382(19) 0.10540(5)
H7 H 0.2443(18) 0.018(3) 0.0958(7)
H8 H 0.3124(18) 0.153(3) 0.1046(7)
C7 C 0.2223(2) 0.1371(5) 0.15207(10)
H9 H 0.25330 0.05790 0.16810
H10 H 0.25030 0.23150 0.16110
C8 C 0.1132(2) 0.1375(4) 0.16162(8)
H11 H 0.08440 0.04110 0.15380
C9 C 0.06524(11) 0.26293(17) 0.13674(4)
C10 C 0.07954(12) 0.1815(2) 0.20408(5)
H12 H 0.0579(18) 0.090(3) 0.2172(8)
H13 H 0.119(2) 0.229(3) 0.2263(9)
O2 O 0.72635(8) 0.42071(13) 0.25542(3)
N4 N 0.51481(8) 0.30048(13) 0.15442(4)
C11 C 0.47049(11) 0.20209(18) 0.18516(5)
H14 H 0.46030 0.10500 0.17300
H15 H 0.40880 0.24290 0.19390
H16 H 0.51310 0.19320 0.20890
N5 N 0.48150(9) 0.30293(15) 0.11466(4)
C12 C 0.52065(14) 0.4339(2) 0.04926(5)
H17 H 0.45200 0.45040 0.04480
H18 H 0.54210 0.35080 0.03260
H19 H 0.55650 0.52210 0.04140
N6 N 0.64743(9) 0.36330(13) 0.23104(4)
C13 C 0.53844(11) 0.40041(17) 0.09435(4)
C14 C 0.60934(10) 0.46139(16) 0.12090(4)
C15 C 0.59125(9) 0.39575(15) 0.15924(4)
C16 C 0.69253(12) 0.56849(19) 0.11392(5)
C17 C 0.65105(10) 0.42546(16) 0.19533(4)
C18 C 0.78980(12) 0.50530(19) 0.22796(5)
H20 H 0.7198(16) 0.553(2) 0.0877(7)
H21 H 0.8475(17) 0.436(3) 0.2215(7)
H22 H 0.6707(16) 0.676(2) 0.1124(7)
H23 H 0.8164(17) 0.591(3) 0.2428(7)
C19 C 0.7713(2) 0.5495(3) 0.14753(7)
H24 H 0.80580 0.45600 0.14300
H25 H 0.81840 0.63040 0.14530
C20 C 0.72677(15) 0.5495(3) 0.19127(6)
H26 H 0.69590 0.64660 0.19680
C21? C 0.1982(3) 0.0737(6) 0.14584(13)
H27? H 0.24760 0.03410 0.16460
H28? H 0.15020 -0.00450 0.14100
C22? C 0.1475(3) 0.2081(5) 0.16682(10)
H29? H 0.19450 0.28840 0.17270
C23? C 0.7416(10) 0.6037(16) 0.1528(4)
H30? H 0.70400 0.68050 0.16700
H31? H 0.80510 0.64620 0.14620
C24? C 0.7571(7) 0.4740(13) 0.1832(3)
H32? H 0.79430 0.39180 0.17050
#END
