
#######################################################################
#
#                 Cambridge Crystallographic Data Centre
#                                CCDC
#
#######################################################################
#
# If this CIF has been generated from an entry in the Cambridge
# Structural Database, then it will include bibliographic, chemical,
# crystal, experimental, refinement or atomic coordinate data resulting
# from the CCDC's data processing and validation procedures.
#
#######################################################################

data_CSD_CIF_DABRIK
_audit_creation_date 2015-11-21
_audit_creation_method CSD-ConQuest-V1
_database_code_CSD DABRIK
_database_code_depnum_ccdc_archive 'CCDC 1436927'
_chemical_formula_sum 'C13 H10 N2 O4'
_chemical_formula_moiety
;
C13 H10 N2 O4
;
_journal_coeditor_code "is5423"
_journal_coden_Cambridge 1828
_journal_volume 71
_journal_year 2015
_journal_page_first o969
_journal_name_full 'Acta Crystallogr.,Sect.E:Cryst.Commun. '
loop_
_publ_author_name
"Y.AaminaNaaz"
"S.Sathiyaraj"
"S.Kalaimani"
"A.S.Nasar"
"A.SubbiahPandi"
_chemical_name_systematic
;
phenyl (4-nitrophenyl)carbamate
;
_cell_volume   1187.734
_exptl_crystal_colour 'yellow'
_exptl_crystal_density_diffrn 1.444
_exptl_crystal_description 'block'
_diffrn_ambient_temperature 293
#These two values have been output from a single CSD field.
_refine_ls_R_factor_gt 0.0539
_refine_ls_wR_factor_gt 0.0539
_symmetry_cell_setting triclinic
_symmetry_space_group_name_H-M 'P -1'
_symmetry_Int_Tables_number 2
loop_
_symmetry_equiv_pos_site_id
_symmetry_equiv_pos_as_xyz
1 x,y,z
2 -x,-y,-z
_cell_length_a 9.6722(3)
_cell_length_b 10.2543(5)
_cell_length_c 12.4787(6)
_cell_angle_alpha 84.625(3)
_cell_angle_beta 79.386(3)
_cell_angle_gamma 77.955(3)
_cell_formula_units_Z 4
loop_
_atom_type_symbol
_atom_type_radius_bond
C 0.68
H 0.23
N 0.68
O 0.68
loop_
_atom_site_label
_atom_site_type_symbol
_atom_site_fract_x
_atom_site_fract_y
_atom_site_fract_z
O1 O 0.1987(3) 1.4653(3) 0.2962(2)
O2 O 0.4178(3) 1.3760(3) 0.2866(2)
O3 O 0.14804(16) 0.94691(18) 0.85885(14)
O4 O 0.36223(17) 0.98269(19) 0.76845(16)
N1 N 0.2949(3) 1.3872(3) 0.3303(2)
N2 N 0.15095(19) 1.0939(2) 0.72024(16)
H1 H 0.06010 1.10630 0.74360
C1 C 0.3347(2) 1.1489(3) 0.5694(2)
H2 H 0.40650 1.08820 0.59800
C2 C 0.3674(3) 1.2201(3) 0.4728(2)
H3 H 0.46120 1.20780 0.43530
C3 C 0.2609(3) 1.3093(3) 0.4319(2)
C4 C 0.1224(3) 1.3294(3) 0.4854(2)
H4 H 0.05130 1.39040 0.45650
C5 C 0.0896(3) 1.2587(3) 0.5818(2)
H5 H -0.00440 1.27220 0.61890
C6 C 0.1948(2) 1.1675(2) 0.62459(19)
C7 C 0.2340(3) 1.0057(3) 0.7803(2)
C8 C 0.2096(2) 0.8366(3) 0.9213(2)
C9 C 0.1760(3) 0.8419(3) 1.0324(2)
H6 H 0.12320 0.91940 1.06410
C10 C 0.2220(3) 0.7299(3) 1.0962(2)
H7 H 0.19890 0.73120 1.17190
C11 C 0.3018(3) 0.6165(3) 1.0489(2)
H8 H 0.33180 0.54080 1.09220
C12 C 0.3366(3) 0.6156(3) 0.9380(2)
H9 H 0.39310 0.53950 0.90610
C13 C 0.2898(3) 0.7250(3) 0.8724(2)
H10 H 0.31210 0.72330 0.79680
O5 O 0.6977(2) 0.6060(2) 1.24825(17)
O6 O 0.9181(3) 0.5613(3) 1.1749(2)
O7 O 0.64969(17) 1.0924(2) 0.67313(15)
O8 O 0.86028(16) 1.01542(18) 0.73187(14)
N3 N 0.7953(3) 0.6162(2) 1.1734(2)
N4 N 0.6566(2) 0.9385(2) 0.80607(17)
H11 H 0.57080 0.94230 0.79470
C14 C 0.5899(2) 0.8313(3) 0.9790(2)
H12 H 0.49490 0.86800 0.97370
C15 C 0.6218(3) 0.7541(3) 1.0701(2)
H13 H 0.54920 0.73920 1.12730
C16 C 0.7617(3) 0.6991(3) 1.0757(2)
C17 C 0.8703(3) 0.7182(3) 0.9922(2)
H14 H 0.96470 0.67820 0.99700
C18 C 0.8386(3) 0.7970(3) 0.9014(2)
H15 H 0.91170 0.81110 0.84440
C19 C 0.6979(2) 0.8553(3) 0.8949(2)
C20 C 0.7362(3) 1.0130(3) 0.7368(2)
C21 C 0.7079(2) 1.1696(3) 0.5852(2)
C22 C 0.6464(3) 1.3018(3) 0.5788(2)
H16 H 0.57610 1.33900 0.63500
C23 C 0.6904(3) 1.3792(3) 0.4876(3)
H17 H 0.64870 1.46930 0.48170
C24 C 0.7946(3) 1.3247(3) 0.4059(2)
H18 H 0.82400 1.37740 0.34450
C25 C 0.8553(3) 1.1925(3) 0.4147(2)
H19 H 0.92690 1.15540 0.35930
C26 C 0.8121(3) 1.1135(3) 0.5045(2)
H20 H 0.85330 1.02320 0.51010
#END
