
#######################################################################
#
#                 Cambridge Crystallographic Data Centre
#                                CCDC
#
#######################################################################
#
# If this CIF has been generated from an entry in the Cambridge
# Structural Database, then it will include bibliographic, chemical,
# crystal, experimental, refinement or atomic coordinate data resulting
# from the CCDC's data processing and validation procedures.
#
#######################################################################

data_CSD_CIF_DABTUY
_audit_creation_date 2015-11-21
_audit_creation_method CSD-ConQuest-V1
_database_code_CSD DABTUY
_database_code_depnum_ccdc_archive 'CCDC 1437668'
_chemical_formula_sum 'C28 H27 N1 O3'
_chemical_formula_moiety
;
C28 H27 N1 O3
;
_journal_coeditor_code "rz5177"
_journal_coden_Cambridge 1828
_journal_volume 71
_journal_year 2015
_journal_page_first o981
_journal_name_full 'Acta Crystallogr.,Sect.E:Cryst.Commun. '
loop_
_publ_author_name
"M.Akhazzane"
"G.Al Houari"
"M.El Yazidi"
"M.Saadi"
"L.El Ammari"
_chemical_name_systematic
;
4'-(4-methoxyphenyl)-4,4-dimethyl-3'-(4-methylphenyl)-3,4-dihydro-1H,4'H-spiro
[naphthalene-2,5'-[1,2]oxazol]-1-one
;
_chemical_melting_point 443
_cell_volume   2262.143
_exptl_crystal_colour 'colorless'
_exptl_crystal_density_diffrn 1.249
_exptl_crystal_description 'block'
_diffrn_ambient_temperature 296
#These two values have been output from a single CSD field.
_refine_ls_R_factor_gt 0.0489
_refine_ls_wR_factor_gt 0.0489
_symmetry_cell_setting monoclinic
_symmetry_space_group_name_H-M 'P 21/n'
_symmetry_Int_Tables_number 14
loop_
_symmetry_equiv_pos_site_id
_symmetry_equiv_pos_as_xyz
1 x,y,z
2 1/2-x,1/2+y,1/2-z
3 -x,-y,-z
4 -1/2+x,-1/2-y,-1/2+z
_cell_length_a 10.2158(8)
_cell_length_b 12.9129(10)
_cell_length_c 17.6582(14)
_cell_angle_alpha 90
_cell_angle_beta 103.801(3)
_cell_angle_gamma 90
_cell_formula_units_Z 4
loop_
_atom_type_symbol
_atom_type_radius_bond
C 0.68
H 0.23
N 0.68
O 0.68
loop_
_atom_site_label
_atom_site_type_symbol
_atom_site_fract_x
_atom_site_fract_y
_atom_site_fract_z
C1 C 0.9515(2) 0.7328(2) 0.36467(15)
H1 H 0.93510 0.69360 0.31710
H2 H 0.97040 0.80350 0.35420
H3 H 1.02730 0.70390 0.40150
C2 C 0.8284(2) 0.72855(16) 0.39799(12)
C3 C 0.7148(2) 0.67399(16) 0.36081(12)
H4 H 0.71330 0.64160 0.31360
C4 C 0.6036(2) 0.66646(14) 0.39201(11)
H5 H 0.52890 0.62870 0.36590
C5 C 0.60251(17) 0.71487(13) 0.46221(10)
C6 C 0.71442(19) 0.77192(16) 0.49867(12)
H6 H 0.71520 0.80600 0.54520
C7 C 0.8254(2) 0.77869(18) 0.46652(13)
H7 H 0.89940 0.81790 0.49170
C8 C 0.48550(17) 0.70665(13) 0.49692(10)
C9 C 0.33554(17) 0.71799(13) 0.57913(10)
C10 C 0.48673(16) 0.73339(12) 0.58022(10)
H8 H 0.50780 0.80720 0.58800
C11 C 0.58808(16) 0.67307(12) 0.64087(9)
C12 C 0.62936(17) 0.57313(13) 0.62684(10)
H9 H 0.59450 0.54210 0.57870
C13 C 0.72088(17) 0.52002(13) 0.68328(10)
H10 H 0.74770 0.45380 0.67280
C14 C 0.77340(17) 0.56424(13) 0.75562(10)
C15 C 0.73391(17) 0.66315(13) 0.77078(10)
H11 H 0.76820 0.69370 0.81910
C16 C 0.64284(17) 0.71604(13) 0.7131(1)
H12 H 0.61770 0.78280 0.72340
C17 C 0.9263(3) 0.55048(19) 0.88033(13)
H13 H 0.98710 0.50160 0.91130
H14 H 0.97550 0.61100 0.87180
H15 H 0.85850 0.56970 0.90720
C18 C 0.26491(19) 0.82319(14) 0.57550(11)
C19 C 0.15232(17) 0.83574(13) 0.61336(10)
C20 C 0.09907(17) 0.75196(14) 0.64651(10)
C21 C 0.15675(17) 0.64320(13) 0.64679(10)
C22 C 0.30500(17) 0.64932(13) 0.64192(10)
H16 H 0.35820 0.67330 0.69190
H17 H 0.33520 0.57980 0.63410
C23 C 0.07011(19) 0.58162(15) 0.57859(12)
H18 H 0.10590 0.51290 0.57840
H19 H -0.02080 0.57790 0.58440
H20 H 0.07110 0.61550 0.53040
C24 C 0.1549(2) 0.58621(16) 0.72334(12)
H21 H 0.19160 0.51800 0.72220
H22 H 0.20810 0.62400 0.76670
H23 H 0.06380 0.58120 0.72870
C25 C 0.0964(2) 0.93444(15) 0.61386(14)
H24 H 0.13300 0.98990 0.59240
C26 C -0.0122(2) 0.95033(17) 0.64576(15)
H25 H -0.04840 1.01630 0.64650
C27 C -0.0667(2) 0.86782(18) 0.67658(14)
H26 H -0.14110 0.87800 0.69760
C28 C -0.01280(19) 0.77072(16) 0.67676(12)
H27 H -0.05180 0.71590 0.69760
N1 N 0.37202(15) 0.67459(12) 0.45609(9)
O1 O 0.86366(13) 0.50485(9) 0.80727(7)
O2 O 0.27756(12) 0.67119(11) 0.50248(7)
O3 O 0.30170(16) 0.89402(12) 0.53998(11)
#END
