
#######################################################################
#
#                 Cambridge Crystallographic Data Centre
#                                CCDC
#
#######################################################################
#
# If this CIF has been generated from an entry in the Cambridge
# Structural Database, then it will include bibliographic, chemical,
# crystal, experimental, refinement or atomic coordinate data resulting
# from the CCDC's data processing and validation procedures.
#
#######################################################################

data_CSD_CIF_DACMIF
_audit_creation_date 2012-01-25
_audit_creation_method CSD-ConQuest-V1
_database_code_CSD DACMIF
_database_code_depnum_ccdc_archive 'CCDC 812647'
_chemical_formula_sum 'C16 H19 N1 O6'
_chemical_formula_moiety
;
C16 H19 N1 O6
;
_journal_coden_Cambridge 16
_journal_volume 67
_journal_year 2011
_journal_page_first 8780
_journal_name_full 'Tetrahedron '
loop_
_publ_author_name
"S.Erfle"
"T.Rahn"
"F.Bendrath"
"W.Baumann"
"D.Michalik"
"Haijun Jiao"
"A.Spannenberg"
"A.Borner"
"P.Langer"
_chemical_name_systematic
;
Methyl 2,2,4,4-tetramethyl-5-(4-nitrophenyl)-3,5-dioxopentanoate
;
_cell_volume   3127.836
_exptl_crystal_colour 'colorless'
_exptl_crystal_density_diffrn 1.365
_exptl_crystal_description 'needle'
_diffrn_ambient_temperature 200
#These two values have been output from a single CSD field.
_refine_ls_R_factor_gt 0.0312
_refine_ls_wR_factor_gt 0.0312
_symmetry_cell_setting monoclinic
_symmetry_space_group_name_H-M 'C 2/c'
_symmetry_Int_Tables_number 15
loop_
_symmetry_equiv_pos_site_id
_symmetry_equiv_pos_as_xyz
1 x,y,z
2 -x,y,1/2-z
3 1/2+x,1/2+y,z
4 1/2-x,1/2+y,1/2-z
5 -x,-y,-z
6 x,-y,-1/2+z
7 -1/2-x,-1/2-y,-z
8 -1/2+x,-1/2-y,-1/2+z
_cell_length_a 29.3136(14)
_cell_length_b 6.8899(2)
_cell_length_c 15.4908(7)
_cell_angle_alpha 90
_cell_angle_beta 91.301(4)
_cell_angle_gamma 90
_cell_formula_units_Z 8
loop_
_atom_type_symbol
_atom_type_radius_bond
C 0.68
H 0.23
N 0.68
O 0.68
loop_
_atom_site_label
_atom_site_type_symbol
_atom_site_fract_x
_atom_site_fract_y
_atom_site_fract_z
C1 C 0.09901(4) 1.08834(17) 0.51744(7)
C2 C 0.14537(4) 1.01462(18) 0.48485(7)
C3 C 0.16941(4) 0.87091(18) 0.54750(7)
C4 C 0.19610(4) 0.93616(18) 0.62990(7)
C5 C 0.18387(4) 1.13621(18) 0.66215(7)
C6 C 0.12237(5) 1.3374(2) 0.70177(9)
H1 H 0.14030 1.37880 0.75270
H2 H 0.09020 1.32660 0.71670
H3 H 0.12560 1.43310 0.65550
C7 C 0.13526(5) 0.9117(2) 0.39782(8)
H4 H 0.11960 1.00180 0.35820
H5 H 0.11580 0.79850 0.40740
H6 H 0.16400 0.86940 0.37270
C8 C 0.17605(4) 1.1892(2) 0.46635(9)
H7 H 0.18070 1.26500 0.51930
H8 H 0.16150 1.27080 0.42190
H9 H 0.20560 1.14330 0.44600
C9 C 0.18613(5) 0.79200(19) 0.70297(8)
H10 H 0.20330 0.83000 0.75530
H11 H 0.19530 0.66120 0.68560
H12 H 0.15340 0.79300 0.71460
C10 C 0.24709(4) 0.9270(2) 0.60985(9)
H13 H 0.25370 1.01770 0.56310
H14 H 0.25500 0.79490 0.59210
H15 H 0.26510 0.96240 0.66150
C11 C 0.06481(4) 0.95328(17) 0.55687(7)
C12 C 0.06548(4) 0.75255(18) 0.54802(8)
H16 H 0.08970 0.69200 0.51860
C13 C 0.03103(4) 0.64040(18) 0.58179(8)
H17 H 0.03110 0.50340 0.57490
C14 C -0.00335(4) 0.73033(18) 0.62552(7)
C15 C -0.00486(4) 0.92869(19) 0.63670(8)
H18 H -0.02880 0.98770 0.66770
C16 C 0.02923(4) 1.03876(18) 0.60175(8)
H19 H 0.02860 1.17580 0.60830
N1 N -0.03971(4) 0.60962(18) 0.66170(7)
O1 O 0.08842(3) 1.25682(12) 0.50646(6)
O2 O 0.17070(3) 0.70049(13) 0.52979(6)
O3 O 0.21019(3) 1.26453(14) 0.67953(7)
O4 O 0.13868(3) 1.15093(12) 0.67281(5)
O5 O -0.07019(3) 0.69061(16) 0.70001(7)
O6 O -0.03760(4) 0.43409(16) 0.65147(8)
#END
