
#######################################################################
#
#                 Cambridge Crystallographic Data Centre
#                                CCDC
#
#######################################################################
#
# If this CIF has been generated from an entry in the Cambridge
# Structural Database, then it will include bibliographic, chemical,
# crystal, experimental, refinement or atomic coordinate data resulting
# from the CCDC's data processing and validation procedures.
#
#######################################################################

data_CSD_CIF_DACNCP
_audit_creation_date 1976-02-16
_audit_creation_method CSD-ConQuest-V1
_database_code_CSD DACNCP
_chemical_formula_sum 'C9 H9 N1 O4'
_chemical_formula_moiety
;
C9 H9 N1 O4
;
_journal_coden_Cambridge 188
_journal_year 1975
_journal_page_first 998
_journal_name_full 'J.Chem.Soc.,Perkin Trans.2 '
loop_
_publ_author_name
"G.Ferguson"
"W.C.Marsh"
"R.J.Restivo"
"D.Lloyd"
_chemical_name_systematic
;
2,3-Diacetyl-5-nitrocyclopentadiene
;
_cell_volume    888.925
_exptl_crystal_density_diffrn 1.458
_exptl_special_details
;
The bridging hydrogen H1 has been removed

;
_diffrn_ambient_temperature ?
_diffrn_special_details
;
The study was carried out at room temperature,in the range 283-303K

;
#These two values have been output from a single CSD field.
_refine_ls_R_factor_gt 0.044
_refine_ls_wR_factor_gt 0.044
_symmetry_cell_setting monoclinic
_symmetry_space_group_name_H-M 'P 21/c'
_symmetry_Int_Tables_number 14
loop_
_symmetry_equiv_pos_site_id
_symmetry_equiv_pos_as_xyz
1 x,y,z
2 -x,1/2+y,1/2-z
3 -x,-y,-z
4 x,-1/2-y,-1/2+z
_cell_length_a 5.115(2)
_cell_length_b 10.780(2)
_cell_length_c 16.126(2)
_cell_angle_alpha 90
_cell_angle_beta 91.38(2)
_cell_angle_gamma 90
_cell_formula_units_Z 4
loop_
_atom_type_symbol
_atom_type_radius_bond
C 0.68
H 0.23
N 0.68
O 0.68
loop_
_atom_site_label
_atom_site_type_symbol
_atom_site_fract_x
_atom_site_fract_y
_atom_site_fract_z
C1 C -0.06210 -0.49730 0.38430
C2 C 0.14030 -0.52230 0.32940
C3 C 0.16710 -0.65060 0.32590
C4 C -0.02660 -0.70460 0.38190
C5 C -0.16720 -0.60570 0.41610
C6 C 0.35040 -0.71250 0.27390
C7 C 0.51730 -0.64250 0.21490
C8 C -0.07210 -0.83070 0.40180
C9 C -0.27400 -0.86980 0.46260
H1 H 0.24900 -0.46100 0.30200
H2 H -0.30300 -0.60500 0.45300
H3 H 0.41700 -0.59000 0.18200
H4 H 0.60800 -0.69300 0.18500
H5 H 0.60300 -0.57800 0.24100
H6 H -0.38700 -0.80500 0.47900
H7 H -0.19600 -0.88200 0.51400
H8 H -0.35200 -0.94300 0.44500
N1 N -0.15090 -0.37520 0.40490
O1 O -0.02440 -0.28580 0.38090
O2 O -0.34970 -0.36490 0.44650
O3 O 0.38050 -0.82910 0.27480
O4 O 0.06000 -0.91830 0.36960
#END
