
#######################################################################
#
#                 Cambridge Crystallographic Data Centre
#                                CCDC
#
#######################################################################
#
# If this CIF has been generated from an entry in the Cambridge
# Structural Database, then it will include bibliographic, chemical,
# crystal, experimental, refinement or atomic coordinate data resulting
# from the CCDC's data processing and validation procedures.
#
#######################################################################

data_CSD_CIF_DACWUB
_audit_creation_date 2012-01-25
_audit_creation_method CSD-ConQuest-V1
_database_code_CSD DACWUB
_database_code_depnum_ccdc_archive 'CCDC 832713'
_chemical_formula_sum 'C16 H20 N2 O3'
_chemical_formula_moiety
;
C16 H20 N2 O3
;
_journal_coden_Cambridge 177
_journal_volume 9
_journal_year 2011
_journal_page_first 7224
_journal_name_full 'Org.Biomol.Chem. '
loop_
_publ_author_name
"R.Fichtler"
"Jorg-M.Neudorfl"
"A.J.von Wangelin"
_chemical_name_systematic
;
N-(2,4-Dimethyl-6-nitro-5-phenylcyclohex-2-en-1-yl)acetamide
;
_cell_volume   3241.781
_exptl_crystal_colour 'colorless'
_exptl_crystal_density_diffrn 1.182
_exptl_crystal_description 'prism'
_diffrn_ambient_temperature 100
#These two values have been output from a single CSD field.
_refine_ls_R_factor_gt 0.0504
_refine_ls_wR_factor_gt 0.0504
_symmetry_cell_setting monoclinic
_symmetry_space_group_name_H-M 'P 21/n'
_symmetry_Int_Tables_number 14
loop_
_symmetry_equiv_pos_site_id
_symmetry_equiv_pos_as_xyz
1 x,y,z
2 1/2-x,1/2+y,1/2-z
3 -x,-y,-z
4 -1/2+x,-1/2-y,-1/2+z
_cell_length_a 11.9261(5)
_cell_length_b 17.9405(14)
_cell_length_c 15.2365(11)
_cell_angle_alpha 90
_cell_angle_beta 96.061(4)
_cell_angle_gamma 90
_cell_formula_units_Z 8
loop_
_atom_type_symbol
_atom_type_radius_bond
C 0.68
H 0.23
N 0.68
O 0.68
loop_
_atom_site_label
_atom_site_type_symbol
_atom_site_fract_x
_atom_site_fract_y
_atom_site_fract_z
O1 O 0.54635(10) 0.31492(8) 0.06186(9)
O2 O 0.54363(11) 0.21406(9) -0.01659(9)
O3 O 0.38496(10) 0.18537(8) 0.15176(9)
N1 N 0.58099(12) 0.25248(11) 0.04639(11)
N2 N 0.54416(11) 0.22644(10) 0.22979(10)
C1 C 0.67236(13) 0.21866(11) 0.11005(12)
H1 H 0.71320 0.18070 0.07730
C2 C 0.61704(14) 0.17817(11) 0.18345(11)
H2 H 0.57000 0.13660 0.15570
C3 C 0.43107(14) 0.22638(12) 0.20956(13)
C4 C 0.36529(14) 0.28020(12) 0.25938(13)
H3 H 0.34410 0.32350 0.22210
H4 H 0.41170 0.29660 0.31280
H5 H 0.29710 0.25570 0.27580
C5 C 0.70760(15) 0.14473(11) 0.24771(12)
C6 C 0.81206(15) 0.17101(12) 0.25380(12)
H6 H 0.86590 0.14690 0.29460
C7 C 0.85368(14) 0.23480(12) 0.20300(12)
H7 H 0.90450 0.21370 0.16110
C8 C 0.75769(13) 0.27679(11) 0.14729(11)
H8 H 0.71970 0.31000 0.18780
C9 C 0.80437(13) 0.32543(12) 0.07789(12)
C10 C 0.86277(14) 0.29398(12) 0.01229(12)
H9 H 0.86930 0.24130 0.00840
C11 C 0.91140(15) 0.33910(13) -0.04730(13)
H10 H 0.95170 0.31700 -0.09120
C12 C 0.90184(14) 0.41552(12) -0.04348(13)
H11 H 0.93530 0.44620 -0.08440
C13 C 0.84287(14) 0.44712(12) 0.02059(13)
H12 H 0.83490 0.49970 0.02340
C14 C 0.79528(14) 0.40201(12) 0.08078(13)
H13 H 0.75560 0.42440 0.12490
C15 C 0.92340(17) 0.28823(15) 0.26363(15)
H14 H 0.87560 0.31080 0.30490
H15 H 0.95440 0.32740 0.22840
H16 H 0.98530 0.26100 0.29680
C16 C 0.67084(16) 0.08326(12) 0.30512(12)
H17 H 0.73600 0.06510 0.34380
H18 H 0.63890 0.04230 0.26790
H19 H 0.61370 0.10230 0.34110
O4 O 0.07258(9) 0.16777(8) 0.11800(9)
O5 O -0.04969(9) 0.10658(8) 0.03068(9)
O6 O 0.12765(10) 0.18837(8) -0.11633(9)
N3 N 0.04333(12) 0.11294(10) 0.0738(1)
N4 N 0.24196(12) 0.14471(10) 0.00004(11)
C17 C 0.12595(13) 0.05035(11) 0.06886(12)
H20 H 0.08270 0.00380 0.05200
C18 C 0.20030(14) 0.06887(11) -0.00507(12)
H21 H 0.15280 0.06310 -0.06280
C19 C 0.19862(15) 0.20011(12) -0.05232(13)
C20 C 0.24122(15) 0.27657(12) -0.02729(13)
H22 H 0.27110 0.30000 -0.07810
H23 H 0.30120 0.27290 0.02170
H24 H 0.17930 0.30680 -0.00910
C21 C 0.29606(14) 0.01367(12) -0.00343(13)
C22 C 0.32349(14) -0.02998(12) 0.06533(14)
H25 H 0.38360 -0.06410 0.06090
C23 C 0.26920(14) -0.03103(12) 0.14958(13)
H26 H 0.22030 -0.07640 0.14900
C24 C 0.19395(13) 0.03750(11) 0.15829(12)
H27 H 0.24360 0.08180 0.17220
C25 C 0.11840(13) 0.02812(11) 0.23207(13)
C26 C 0.13214(14) 0.07183(12) 0.30700(12)
H28 H 0.18720 0.11030 0.31130
C27 C 0.06696(15) 0.06050(13) 0.37607(13)
H29 H 0.07780 0.09090 0.42730
C28 C -0.01372(16) 0.00494(14) 0.37038(15)
H30 H -0.05790 -0.00330 0.41780
C29 C -0.02974(15) -0.03855(13) 0.29543(15)
H31 H -0.08560 -0.07650 0.29100
C30 C 0.03581(14) -0.02698(12) 0.22619(13)
H32 H 0.02400 -0.05690 0.17460
C31 C 0.35807(16) -0.03675(15) 0.22946(14)
H33 H 0.40370 -0.08170 0.22420
H34 H 0.32060 -0.03960 0.28360
H35 H 0.40690 0.00730 0.23180
C32 C 0.35506(17) 0.01338(14) -0.08586(14)
H36 H 0.41910 -0.02110 -0.07840
H37 H 0.38220 0.06370 -0.09690
H38 H 0.30230 -0.00270 -0.13600
H39 H 0.2902(16) 0.1580(12) 0.0486(13)
H40 H 0.5739(15) 0.2524(12) 0.2774(13)
#END
