
#######################################################################
#
#                 Cambridge Crystallographic Data Centre
#                                CCDC
#
#######################################################################
#
# If this CIF has been generated from an entry in the Cambridge
# Structural Database, then it will include bibliographic, chemical,
# crystal, experimental, refinement or atomic coordinate data resulting
# from the CCDC's data processing and validation procedures.
#
#######################################################################

data_CSD_CIF_DACXIO
_audit_creation_date 1986-03-24
_audit_creation_method CSD-ConQuest-V1
_database_code_CSD DACXIO
_chemical_formula_sum 'C7 H13 N1 O3'
_chemical_formula_moiety
;
C7 H13 N1 O3
;
_journal_coden_Cambridge 24
_journal_volume 26
_journal_year 1985
_journal_page_first 2809
_journal_name_full 'Tetrahedron Lett. '
loop_
_publ_author_name
"P.A.van Elburg"
"D.N.Reinhoudt"
"S.Harkema"
"G.J.van Hummel"
_chemical_name_systematic
;
3-Hydroximino-2,2-dimethylbutanoic acid methyl ester
;
_chemical_melting_point 332.15
_cell_volume   1739.464
_exptl_special_details
;
Melting point range 332.15-333.15K

;
_diffrn_ambient_temperature ?
_diffrn_special_details
;
The study was carried out at room temperature,in the range 283-303K

;
#These two values have been output from a single CSD field.
_refine_ls_R_factor_gt 0.045
_refine_ls_wR_factor_gt 0.045
_symmetry_cell_setting monoclinic
_symmetry_space_group_name_H-M 'P 21/c'
_symmetry_Int_Tables_number 14
loop_
_symmetry_equiv_pos_site_id
_symmetry_equiv_pos_as_xyz
1 x,y,z
2 -x,1/2+y,1/2-z
3 -x,-y,-z
4 x,-1/2-y,-1/2+z
_cell_length_a 7.521(1)
_cell_length_b 20.122(2)
_cell_length_c 11.529(1)
_cell_angle_alpha 90
_cell_angle_beta 94.47(1)
_cell_angle_gamma 90
_cell_formula_units_Z 8
loop_
_atom_type_symbol
_atom_type_radius_bond
C 0.68
H 0.23
N 0.68
O 0.68
loop_
_atom_site_label
_atom_site_type_symbol
_atom_site_fract_x
_atom_site_fract_y
_atom_site_fract_z
O1 O 0.4062(1) 0.1850(1) 0.5635(1)
N1 N 0.2225(2) 0.1800(1) 0.5816(1)
C1 C 0.1829(2) 0.2098(1) 0.6733(1)
C2 C -0.0121(2) 0.2099(1) 0.6986(1)
C3 C -0.0285(2) 0.1811(1) 0.8195(1)
O2 O 0.0687(2) 0.1262(1) 0.8370(1)
C4 C 0.0597(3) 0.0943(1) 0.9488(2)
C5 C 0.3157(3) 0.2445(1) 0.7553(2)
C6 C -0.0825(3) 0.2813(1) 0.6960(2)
C7 C -0.1276(2) 0.1670(1) 0.6126(2)
O3 O -0.1206(2) 0.2032(1) 0.8902(1)
O4 O 0.1349(1) 0.0921(1) 0.3998(1)
N2 N 0.3197(2) 0.0897(1) 0.3861(1)
C8 C 0.3558(2) 0.0523(1) 0.3020(1)
C9 C 0.5511(2) 0.0433(1) 0.2814(1)
C10 C 0.5809(2) 0.0637(1) 0.1570(2)
O5 O 0.4886(1) 0.1178(1) 0.1250(1)
C11 C 0.5146(3) 0.1441(1) 0.0109(2)
C12 C 0.2165(3) 0.0164(1) 0.2263(2)
C13 C 0.6736(3) 0.0867(1) 0.3616(2)
C14 C 0.6023(4) -0.0298(1) 0.2991(2)
O6 O 0.6792(2) 0.0368(1) 0.0954(1)
H1 H 0.4081(27) 0.1571(11) 0.5058(19)
H2 H 0.1293(25) 0.0545(10) 0.9464(16)
H3 H 0.1131(23) 0.1242(9) 1.0114(17)
H4 H -0.0663(25) 0.0849(9) 0.9631(15)
H5 H 0.4248(29) 0.2192(11) 0.7681(18)
H6 H 0.2673(25) 0.2534(10) 0.8283(18)
H7 H 0.3552(29) 0.2846(12) 0.7236(20)
H8 H -0.0737(24) 0.2987(10) 0.6177(18)
H9 H -0.2104(28) 0.2797(10) 0.7148(18)
H10 H -0.0097(27) 0.3092(11) 0.7543(20)
H11 H -0.0855(23) 0.1196(10) 0.6092(15)
H12 H -0.2501(26) 0.1680(9) 0.6368(16)
H13 H -0.1302(23) 0.1874(9) 0.5336(17)
H14 H 0.1414(30) 0.1199(12) 0.4617(22)
H15 H 0.6388(30) 0.152(1) 0.0040(18)
H16 H 0.4528(29) 0.1853(12) 0.0053(20)
H17 H 0.4694(28) 0.1115(12) -0.0498(20)
H18 H 0.1644(27) -0.0173(11) 0.2700(18)
H19 H 0.2635(25) -0.0017(10) 0.1615(18)
H20 H 0.1127(30) 0.0454(11) 0.2028(19)
H21 H 0.6636(24) 0.0727(9) 0.4440(18)
H22 H 0.6415(24) 0.1341(11) 0.3537(17)
H23 H 0.7993(30) 0.0791(10) 0.3428(18)
H24 H 0.7258(29) -0.0358(10) 0.2837(18)
H25 H 0.5912(26) -0.0413(10) 0.3817(20)
H26 H 0.5241(28) -0.0589(11) 0.2469(20)
#END
