
#######################################################################
#
#                 Cambridge Crystallographic Data Centre
#                                CCDC
#
#######################################################################
#
# If this CIF has been generated from an entry in the Cambridge
# Structural Database, then it will include bibliographic, chemical,
# crystal, experimental, refinement or atomic coordinate data resulting
# from the CCDC's data processing and validation procedures.
#
#######################################################################

data_CSD_CIF_DACYUC
_audit_creation_date 2004-12-02
_audit_creation_method CSD-ConQuest-V1
_database_code_CSD DACYUC
_database_code_depnum_ccdc_archive 'CCDC 227123'
_chemical_formula_sum 'C7 H8 N2 O2'
_chemical_formula_moiety
;
C7 H8 N2 O2
;
_journal_coden_Cambridge 525
_journal_volume 98
_journal_year 2004
_journal_page_first 1447
_journal_name_full 'J.Inorg.Biochem. '
loop_
_publ_author_name
"J.Kuduk-Jaworska"
"A.Puszko"
"M.Kubiak"
"M.Pelczynska"
_chemical_name_systematic
;
2,6-Dimethyl-4-nitropyridine
;
_cell_volume   1477.785
_exptl_crystal_colour 'white'
_exptl_crystal_density_diffrn 1.368
_exptl_crystal_description 'prism'
_diffrn_ambient_temperature 100
#These two values have been output from a single CSD field.
_refine_ls_R_factor_gt 0.0435
_refine_ls_wR_factor_gt 0.0435
_symmetry_cell_setting monoclinic
_symmetry_space_group_name_H-M 'P 21/c'
_symmetry_Int_Tables_number 14
loop_
_symmetry_equiv_pos_site_id
_symmetry_equiv_pos_as_xyz
1 x,y,z
2 x,1/2-y,1/2+z
3 -x,-y,-z
4 -x,-1/2+y,-1/2-z
_cell_length_a 19.075(4)
_cell_length_b 5.419(1)
_cell_length_c 15.045(3)
_cell_angle_alpha 90
_cell_angle_beta 108.15(3)
_cell_angle_gamma 90
_cell_formula_units_Z 8
loop_
_atom_type_symbol
_atom_type_radius_bond
C 0.68
H 0.23
N 0.68
O 0.68
loop_
_atom_site_label
_atom_site_type_symbol
_atom_site_fract_x
_atom_site_fract_y
_atom_site_fract_z
O1 O -0.00232(5) 0.39194(18) 0.12637(7)
O2 O 0.05619(5) 0.37324(18) 0.27547(7)
N1 N 0.16910(6) 1.0934(2) 0.17343(8)
N2 N 0.04416(6) 0.4676(2) 0.19771(8)
C1 C 0.08838(7) 0.6854(2) 0.18952(9)
C2 C 0.13588(7) 0.7884(3) 0.26963(10)
C3 C 0.22974(9) 1.1187(3) 0.34088(11)
C4 C 0.08077(7) 0.7792(3) 0.10161(10)
C5 C 0.12243(7) 0.9875(2) 0.09652(9)
C6 C 0.17619(7) 0.9954(2) 0.25799(10)
C7 C 0.11735(8) 1.1027(3) 0.00403(10)
O3 O 0.28937(5) 0.60892(18) 0.49314(8)
O4 O 0.39451(6) 0.61547(19) 0.46596(8)
N3 N 0.41979(6) -0.0997(2) 0.67564(8)
N4 N 0.35179(6) 0.5284(2) 0.50405(8)
C8 C 0.37621(7) 0.3116(2) 0.56589(9)
C9 C 0.44644(7) 0.2210(3) 0.58047(9)
C10 C 0.32750(7) 0.2054(3) 0.60578(10)
C11 C 0.54178(8) -0.0996(3) 0.65790(11)
C12 C 0.35215(7) -0.0038(3) 0.66133(10)
C13 C 0.30317(8) -0.1324(3) 0.70785(12)
C14 C 0.46646(7) 0.0120(3) 0.63677(9)
H1 H 0.1415(8) 0.727(3) 0.3309(11)
H2 H 0.4793(8) 0.297(3) 0.5524(11)
H3 H 0.2800(9) 0.268(3) 0.5986(11)
H4 H 0.0487(8) 0.705(3) 0.0475(11)
H5 H 0.5687(10) -0.029(3) 0.6185(12)
H6 H 0.0761(10) 1.032(3) -0.0459(13)
H7 H 0.2948(10) -0.301(4) 0.6859(13)
H8 H 0.2327(10) 1.037(4) 0.3973(15)
H9 H 0.1626(11) 1.069(3) -0.0109(13)
H10 H 0.5383(9) -0.279(4) 0.6485(13)
H11 H 0.112(1) 1.277(4) 0.0058(13)
H12 H 0.2178(12) 1.281(4) 0.3436(16)
H13 H 0.2546(10) -0.050(3) 0.6911(12)
H14 H 0.5672(10) -0.058(3) 0.7226(14)
H15 H 0.3267(10) -0.129(3) 0.7768(14)
H16 H 0.2780(14) 1.114(4) 0.3366(17)
#END
