
#######################################################################
#
#                 Cambridge Crystallographic Data Centre
#                                CCDC
#
#######################################################################
#
# If this CIF has been generated from an entry in the Cambridge
# Structural Database, then it will include bibliographic, chemical,
# crystal, experimental, refinement or atomic coordinate data resulting
# from the CCDC's data processing and validation procedures.
#
#######################################################################

data_CSD_CIF_DACYEL
_audit_creation_date 1986-03-24
_audit_creation_method CSD-ConQuest-V1
_database_code_CSD DACYEL
_chemical_formula_sum 'C7 H5 N5 O8'
_chemical_formula_moiety
;
C7 H5 N5 O8
;
_journal_coeditor_code "IUCr A24814"
_journal_coden_Cambridge 591
_journal_volume 41
_journal_year 1985
_journal_page_first 921
_journal_name_full 'Acta Crystallogr.,Sect.C:Cryst.Struct.Commun. '
loop_
_publ_author_name
"H.L.Ammon"
"S.M.Prasad"
_chemical_name_systematic
;
3,5-Diamino-2,4,6-trinitrobenzoic acid
;
_cell_volume   1023.789
_exptl_crystal_density_diffrn 1.862
_diffrn_ambient_temperature ?
_diffrn_special_details
;
The study was carried out at room temperature,in the range 283-303K

;
#These two values have been output from a single CSD field.
_refine_ls_R_factor_gt 0.039
_refine_ls_wR_factor_gt 0.039
_symmetry_cell_setting monoclinic
_symmetry_space_group_name_H-M 'P 21/c'
_symmetry_Int_Tables_number 14
loop_
_symmetry_equiv_pos_site_id
_symmetry_equiv_pos_as_xyz
1 x,y,z
2 -x,1/2+y,1/2-z
3 -x,-y,-z
4 x,-1/2-y,-1/2+z
_cell_length_a 7.2461(5)
_cell_length_b 10.3097(7)
_cell_length_c 13.962(1)
_cell_angle_alpha 90
_cell_angle_beta 101.023(6)
_cell_angle_gamma 90
_cell_formula_units_Z 4
loop_
_atom_type_symbol
_atom_type_radius_bond
C 0.68
H 0.23
N 0.68
O 0.68
loop_
_atom_site_label
_atom_site_type_symbol
_atom_site_fract_x
_atom_site_fract_y
_atom_site_fract_z
C1 C 0.5846(3) 0.3473(2) 0.4261(1)
C2 C 0.4550(3) 0.3885(2) 0.3459(1)
C3 C 0.2823(3) 0.3192(2) 0.3126(1)
C4 C 0.2431(3) 0.2149(2) 0.3727(1)
C5 C 0.3636(3) 0.1815(2) 0.4627(1)
C6 C 0.5427(3) 0.2449(2) 0.4819(1)
C7 C 0.7689(3) 0.4187(2) 0.4573(2)
N1 N 0.4915(2) 0.5099(2) 0.3009(1)
N2 N 0.1627(3) 0.3572(2) 0.2340(1)
N3 N 0.0718(2) 0.1427(2) 0.3430(1)
N4 N 0.3189(3) 0.0941(2) 0.5242(2)
N5 N 0.6884(3) 0.2003(2) 0.5611(1)
O1 O 0.7957(2) 0.4815(2) 0.5332(1)
O2 O 0.8862(2) 0.4032(2) 0.3991(1)
O3 O 0.6004(3) 0.5863(2) 0.3493(1)
O4 O 0.4120(2) 0.5356(2) 0.2168(1)
O5 O -0.0152(3) 0.1508(2) 0.2587(1)
O6 O 0.0140(2) 0.0701(2) 0.4015(1)
O7 O 0.6468(3) 0.1459(2) 0.6325(1)
O8 O 0.8523(2) 0.2171(2) 0.5534(1)
H1 H 0.184(4) 0.433(3) 0.204(2)
H2 H 0.068(4) 0.305(3) 0.216(2)
H3 H 0.395(4) 0.084(3) 0.579(2)
H4 H 0.197(4) 0.058(3) 0.506(2)
H5 H 1.000(6) 0.454(4) 0.422(3)
#END
