
#######################################################################
#
#                 Cambridge Crystallographic Data Centre
#                                CCDC
#
#######################################################################
#
# If this CIF has been generated from an entry in the Cambridge
# Structural Database, then it will include bibliographic, chemical,
# crystal, experimental, refinement or atomic coordinate data resulting
# from the CCDC's data processing and validation procedures.
#
#######################################################################

data_CSD_CIF_DACZIT
_audit_creation_date 2016-12-10
_audit_creation_method CSD-ConQuest-V1
_database_code_CSD DACZIT
_database_code_depnum_ccdc_archive 'CCDC 1457122'
_chemical_formula_sum 'C15 H14 N2 O3'
_chemical_formula_moiety
;
C15 H14 N2 O3
;
_journal_coden_Cambridge 16
_journal_volume 73
_journal_year 2017
_journal_page_first 129
_journal_name_full 'Tetrahedron '
loop_
_publ_author_name
"Guoping Zhang"
"Chun Zhu"
"Dengyue Liu"
"Jianke Pan"
"Jian Zhang"
"Deyu Hu"
"Baoan Song"
_chemical_name_systematic
;
(S)-4-nitro-3-phenyl-1-(pyridin-2-yl)butan-1-one
;
_chemical_melting_point 345.15
_cell_volume   1386.973
_exptl_crystal_density_diffrn 1.294
_exptl_special_details
;
Melting point range 345.15-347.15K
Absolute configuration

;
_exptl_crystal_description 'block'
_diffrn_ambient_temperature 291
#These two values have been output from a single CSD field.
_refine_ls_R_factor_gt 0.0361
_refine_ls_wR_factor_gt 0.0361
_symmetry_cell_setting monoclinic
_symmetry_space_group_name_H-M 'P 21'
_symmetry_Int_Tables_number 4
loop_
_symmetry_equiv_pos_site_id
_symmetry_equiv_pos_as_xyz
1 x,y,z
2 -x,1/2+y,-z
_cell_length_a 5.9914(1)
_cell_length_b 23.6681(6)
_cell_length_c 9.8280(2)
_cell_angle_alpha 90
_cell_angle_beta 95.615(2)
_cell_angle_gamma 90
_cell_formula_units_Z 4
loop_
_atom_type_symbol
_atom_type_radius_bond
C 0.68
H 0.23
N 0.68
O 0.68
loop_
_atom_site_label
_atom_site_type_symbol
_atom_site_fract_x
_atom_site_fract_y
_atom_site_fract_z
N1 N 1.3597(5) 0.48232(13) 1.4252(3)
O1 O 1.6346(4) 0.40906(11) 1.1790(2)
N2 N 0.9667(5) 0.27221(11) 1.0400(3)
C1 C 1.1916(5) 0.37594(12) 0.9799(3)
C2 C 1.0027(5) 0.40760(13) 0.9398(3)
H1 H 0.89880 0.41460 1.00210
O2 O 0.7744(4) 0.27288(13) 0.9883(3)
O3 O 1.1068(5) 0.24077(12) 1.0034(3)
C3 C 0.9650(6) 0.42906(14) 0.8089(3)
H2 H 0.83560 0.44970 0.78350
C4 C 1.4875(4) 0.42247(12) 1.2488(3)
C5 C 1.2297(5) 0.35000(12) 1.1216(3)
H3 H 1.36390 0.32620 1.12500
C6 C 1.0308(5) 0.31289(13) 1.1532(3)
H4 H 1.07060 0.29210 1.23720
H5 H 0.90350 0.33680 1.16690
C7 C 1.3451(5) 0.36698(15) 0.8845(3)
H6 H 1.47370 0.34580 0.90860
C8 C 1.5278(5) 0.46912(12) 1.3519(3)
C9 C 1.2635(5) 0.39369(13) 1.2373(3)
H7 H 1.14730 0.42220 1.22290
H8 H 1.24490 0.37500 1.32320
C10 C 1.1193(6) 0.41992(14) 0.7156(3)
H9 H 1.09500 0.43450 0.62750
C11 C 1.7306(5) 0.49691(16) 1.3650(4)
H10 H 1.84510 0.48640 1.31280
C12 C 1.5912(7) 0.55437(16) 1.5335(4)
H11 H 1.60740 0.58370 1.59670
C13 C 1.3079(6) 0.38925(16) 0.7544(3)
H12 H 1.41290 0.38330 0.69220
C14 C 1.3972(7) 0.52422(17) 1.5156(4)
H13 H 1.28360 0.53340 1.56980
C15 C 1.7595(7) 0.54087(19) 1.4578(5)
H14 H 1.89360 0.56090 1.46790
N3 N 0.6788(4) 0.08230(11) 0.8712(3)
C16 C 0.4883(5) 0.11172(12) 0.8506(3)
C17 C 0.5246(6) 0.21332(15) 0.3693(3)
H15 H 0.39770 0.23290 0.38990
O4 O 0.3084(4) 0.17688(11) 0.6977(3)
C18 C 0.8807(6) 0.27194(13) 0.6468(3)
H16 H 0.86040 0.29020 0.73310
H17 H 1.02360 0.25230 0.65640
N4 N 0.8807(7) 0.31518(13) 0.5370(3)
C19 C 0.8868(5) 0.17638(14) 0.4340(3)
H18 H 1.00790 0.17080 0.49930
C20 C 0.6994(5) 0.20546(11) 0.4692(3)
C21 C 0.6906(5) 0.22948(12) 0.6111(3)
H19 H 0.54750 0.24930 0.61360
C22 C 0.3015(6) 0.10096(17) 0.9185(4)
H20 H 0.17180 0.12250 0.90190
O5 O 0.7146(7) 0.34410(13) 0.5129(4)
O6 O 1.0486(7) 0.31861(15) 0.4785(3)
C23 C 0.4854(4) 0.15933(12) 0.7499(3)
C24 C 0.7059(4) 0.18368(13) 0.7224(3)
H21 H 0.80120 0.15340 0.69520
H22 H 0.77710 0.19980 0.80650
C25 C 0.3139(7) 0.05687(19) 1.0127(4)
H23 H 0.19350 0.04900 1.06260
C26 C 0.6793(6) 0.03928(15) 0.9592(4)
H24 H 0.80830 0.01730 0.97230
C27 C 0.8957(7) 0.15563(17) 0.3028(4)
H25 H 1.02200 0.13630 0.28020
C28 C 0.5048(7) 0.02539(16) 1.0306(4)
H26 H 0.51530 -0.00510 1.09070
C29 C 0.5352(7) 0.19251(19) 0.2392(4)
H27 H 0.41560 0.19820 0.17300
C30 C 0.7182(7) 0.16377(16) 0.2068(3)
H28 H 0.72280 0.14960 0.11890
#END
