
#######################################################################
#
#                 Cambridge Crystallographic Data Centre
#                                CCDC
#
#######################################################################
#
# If this CIF has been generated from an entry in the Cambridge
# Structural Database, then it will include bibliographic, chemical,
# crystal, experimental, refinement or atomic coordinate data resulting
# from the CCDC's data processing and validation procedures.
#
#######################################################################

data_CSD_CIF_DADBAM
_audit_creation_date 2004-12-02
_audit_creation_method CSD-ConQuest-V1
_database_code_CSD DADBAM
_database_code_depnum_ccdc_archive 'CCDC 259244'
_chemical_formula_sum 'C16 H23 N1 O4'
_chemical_formula_moiety
;
C16 H23 N1 O4
;
_journal_coden_Cambridge 241
_journal_volume 33
_journal_year 2004
_journal_page_first 824
_journal_name_full 'Chem.Lett. '
loop_
_publ_author_name
"T.Ooi"
"K.Morimoto"
"K.Doda"
"K.Maruoka"
_chemical_name_systematic
;
4,5-Dimethyl-2-(3-nitro-2-phenylpentyl)-1,3-dioxolane
;
_cell_volume   1576.334
_exptl_crystal_colour 'colorless'
_exptl_crystal_density_diffrn 1.236
_exptl_special_details
;
Cell lengths published correspond in catdep to CCDC 165945, UDEBOU, which is 
a different compound. The authors have supplied corrected data
;
_exptl_crystal_description 'platelet'
_exptl_crystal_preparation 'diethyl ether/hexane'
_diffrn_ambient_temperature 123.2
#These two values have been output from a single CSD field.
_refine_ls_R_factor_gt 0.034
_refine_ls_wR_factor_gt 0.034
_symmetry_cell_setting orthorhombic
_symmetry_space_group_name_H-M 'P 21 21 21'
_symmetry_Int_Tables_number 19
loop_
_symmetry_equiv_pos_site_id
_symmetry_equiv_pos_as_xyz
1 x,y,z
2 1/2-x,-y,1/2+z
3 1/2+x,1/2-y,-z
4 -x,1/2+y,1/2-z
_cell_length_a 8.383(4)
_cell_length_b 10.805(6)
_cell_length_c 17.403(9)
_cell_angle_alpha 90
_cell_angle_beta 90
_cell_angle_gamma 90
_cell_formula_units_Z 4
loop_
_atom_type_symbol
_atom_type_radius_bond
C 0.68
H 0.23
N 0.68
O 0.68
loop_
_atom_site_label
_atom_site_type_symbol
_atom_site_fract_x
_atom_site_fract_y
_atom_site_fract_z
O1 O 0.2388(2) 0.76241(10) 0.76703(7)
O2 O 0.0965(1) 0.6772(1) 0.85586(6)
O3 O 0.4828(1) 0.15328(9) 0.85880(5)
O4 O 0.3345(1) 0.26212(9) 0.94417(6)
N1 N 0.1876(1) 0.6718(1) 0.80063(7)
C1 C 0.0039(2) 0.5563(2) 0.67660(9)
C2 C 0.0862(2) 0.4821(1) 0.73963(8)
C3 C 0.2353(2) 0.5437(1) 0.77253(7)
C4 C 0.3117(2) 0.4747(1) 0.84049(7)
C5 C 0.4502(2) 0.5472(1) 0.87429(7)
C6 C 0.4517(2) 0.5759(1) 0.95260(8)
C7 C 0.5820(2) 0.6381(1) 0.98443(9)
C8 C 0.7096(2) 0.6718(1) 0.9390(1)
C9 C 0.7084(2) 0.6445(2) 0.8616(1)
C10 C 0.5798(2) 0.5821(1) 0.82931(8)
C11 C 0.3648(2) 0.3437(1) 0.81625(7)
C12 C 0.4429(2) 0.2749(1) 0.88169(7)
C13 C 0.4998(2) 0.0887(1) 0.93089(8)
C14 C 0.4926(2) -0.0488(2) 0.91659(10)
C15 C 0.3642(2) 0.1428(1) 0.97890(8)
C16 C 0.4052(2) 0.1556(1) 1.06303(8)
H1 H -0.08820 0.51150 0.65940
H2 H 0.07430 0.56790 0.63520
H3 H -0.02920 0.63360 0.69680
H4 H 0.11560 0.40380 0.71870
H5 H 0.01210 0.46950 0.78030
H6 H 0.31350 0.55250 0.73300
H7 H 0.23160 0.46600 0.87900
H8 H 0.36570 0.55070 0.98400
H9 H 0.58010 0.65850 1.03790
H10 H 0.80120 0.71260 0.96000
H11 H 0.79500 0.66920 0.82990
H12 H 0.58080 0.56240 0.77560
H13 H 0.44050 0.35100 0.77520
H14 H 0.27550 0.29810 0.79870
H15 H 0.53530 0.31840 0.89870
H16 H 0.59880 0.10920 0.95380
H17 H 0.50460 -0.09300 0.96350
H18 H 0.57780 -0.07270 0.88260
H19 H 0.39410 -0.07080 0.89330
H20 H 0.27160 0.09130 0.97360
H21 H 0.42520 0.07580 1.08470
H22 H 0.31990 0.19360 1.08980
H23 H 0.49890 0.20480 1.06830
#END
