
#######################################################################
#
#                 Cambridge Crystallographic Data Centre
#                                CCDC
#
#######################################################################
#
# If this CIF has been generated from an entry in the Cambridge
# Structural Database, then it will include bibliographic, chemical,
# crystal, experimental, refinement or atomic coordinate data resulting
# from the CCDC's data processing and validation procedures.
#
#######################################################################

data_CSD_CIF_DADQIJ
_audit_creation_date 2004-12-02
_audit_creation_method CSD-ConQuest-V1
_database_code_CSD DADQIJ
_database_code_depnum_ccdc_archive 'CCDC 246416'
_chemical_formula_sum 'C15 H15 N5 O4'
_chemical_formula_moiety
;
C15 H15 N5 O4
;
_journal_coden_Cambridge 584
_journal_volume 24
_journal_year 2004
_journal_page_first 46
_journal_name_full 'Youji Huaxue(Chin.)(Chin.J.Org.Chem.) '
loop_
_publ_author_name
"Jin-Ling Wang"
"Yong-Jin Jia"
"Fang-Ming Miao"
"Ai-Xiu Li"
_chemical_name_systematic
;
4-(Dimethylamino)benzaldehyde (2,4-dinitrophenyl)hydrazone
;
_cell_volume   3062.244
_exptl_crystal_colour 'black'
_exptl_crystal_density_diffrn 1.429
_exptl_special_details
;
The space group is C2/c as given in the cif, not P-1 as given in the paper

;
_exptl_crystal_description 'block'
_diffrn_ambient_temperature 293
#These two values have been output from a single CSD field.
_refine_ls_R_factor_gt 0.0584
_refine_ls_wR_factor_gt 0.0584
_symmetry_cell_setting monoclinic
_symmetry_space_group_name_H-M 'C 2/c'
_symmetry_Int_Tables_number 15
loop_
_symmetry_equiv_pos_site_id
_symmetry_equiv_pos_as_xyz
1 x,y,z
2 1/2+x,1/2+y,z
3 x,-y,1/2+z
4 1/2+x,1/2-y,1/2+z
5 -x,-y,-z
6 -1/2-x,-1/2-y,-z
7 -x,y,-1/2-z
8 -1/2-x,-1/2+y,-1/2-z
_cell_length_a 11.243(6)
_cell_length_b 10.526(5)
_cell_length_c 26.029(9)
_cell_angle_alpha 90
_cell_angle_beta 96.219(9)
_cell_angle_gamma 90
_cell_formula_units_Z 8
loop_
_atom_type_symbol
_atom_type_radius_bond
C 0.68
H 0.23
N 0.68
O 0.68
loop_
_atom_site_label
_atom_site_type_symbol
_atom_site_fract_x
_atom_site_fract_y
_atom_site_fract_z
N1 N 0.3590(2) 0.1806(2) 0.47241(10)
N2 N 0.3798(2) 0.2975(2) 0.45050(9)
H1 H 0.42350 0.35300 0.46790
C1 C 0.4128(3) 0.1657(3) 0.51792(12)
H2 H 0.45990 0.23170 0.53260
C2 C 0.3320(2) 0.3244(3) 0.40203(11)
C3 C 0.3344(3) -0.0536(3) 0.52924(11)
H3 H 0.29230 -0.04980 0.49650
C4 C 0.4031(3) 0.0500(3) 0.54767(10)
O1 O 0.4740(2) 0.5242(2) 0.44603(9)
N3 N 0.3829(2) -0.2810(3) 0.63704(9)
C5 C 0.3273(3) -0.1612(3) 0.55843(11)
H4 H 0.28040 -0.22870 0.54500
C6 C 0.3893(3) -0.1720(3) 0.60814(11)
C7 C 0.4637(3) 0.0400(3) 0.59666(11)
H5 H 0.50970 0.10830 0.61000
C8 C 0.3524(3) 0.4408(3) 0.37710(11)
N4 N 0.4294(2) 0.5378(3) 0.40091(11)
C9 C 0.2989(3) 0.4665(3) 0.32767(12)
H6 H 0.31160 0.54410 0.31210
C10 C 0.4581(3) -0.0672(3) 0.62635(10)
H7 H 0.50060 -0.07030 0.65900
N5 N 0.1703(3) 0.4042(3) 0.25054(11)
C11 C 0.2273(3) 0.3766(3) 0.30210(11)
O2 O 0.1799(3) 0.5125(3) 0.23346(9)
C12 C 0.4313(3) -0.2817(3) 0.69085(11)
H8 H 0.51310 -0.25380 0.69380
H9 H 0.42760 -0.36630 0.70440
H10 H 0.38540 -0.22550 0.71000
C13 C 0.2573(3) 0.2354(3) 0.37352(12)
H11 H 0.24280 0.15740 0.38840
O3 O 0.4497(3) 0.6329(2) 0.37594(10)
O4 O 0.1180(3) 0.3194(3) 0.22592(10)
C14 C 0.2063(3) 0.2607(3) 0.32514(12)
H12 H 0.15720 0.20060 0.30730
C15 C 0.2979(3) -0.3792(3) 0.62089(13)
H13 H 0.21880 -0.34350 0.61610
H14 H 0.30100 -0.44420 0.64690
H15 H 0.31700 -0.41530 0.58890
#END
