
#######################################################################
#
#                 Cambridge Crystallographic Data Centre
#                                CCDC
#
#######################################################################
#
# If this CIF has been generated from an entry in the Cambridge
# Structural Database, then it will include bibliographic, chemical,
# crystal, experimental, refinement or atomic coordinate data resulting
# from the CCDC's data processing and validation procedures.
#
#######################################################################

data_CSD_CIF_DADYEO
_audit_creation_date 2011-12-12
_audit_creation_method CSD-ConQuest-V1
_database_code_CSD DADYEO
_database_code_depnum_ccdc_archive 'CCDC 854325'
_chemical_formula_sum 'C17 H22 N2 O4'
_chemical_formula_moiety
;
C17 H22 N2 O4
;
_journal_coden_Cambridge 35
_journal_volume 76
_journal_year 2011
_journal_page_first 5450
_journal_name_full 'J.Org.Chem. '
loop_
_publ_author_name
"T.Arai"
"A.Awata"
"M.Wasai"
"N.Yokoyama"
"H.Masu"
_chemical_name_systematic
;
tert-Butyl 2-(2-methyl-1H-indol-3-yl)-3-nitrobutanoate
;
_cell_volume   1788.652
_exptl_crystal_colour 'colorless'
_exptl_crystal_density_diffrn 1.182
_exptl_crystal_description 'prismatic'
_diffrn_ambient_temperature 296
#These two values have been output from a single CSD field.
_refine_ls_R_factor_gt 0.049
_refine_ls_wR_factor_gt 0.049
_symmetry_cell_setting monoclinic
_symmetry_space_group_name_H-M 'P 21/n'
_symmetry_Int_Tables_number 14
loop_
_symmetry_equiv_pos_site_id
_symmetry_equiv_pos_as_xyz
1 x,y,z
2 1/2-x,1/2+y,1/2-z
3 -x,-y,-z
4 -1/2+x,-1/2-y,-1/2+z
_cell_length_a 13.252(4)
_cell_length_b 8.312(3)
_cell_length_c 16.889(5)
_cell_angle_alpha 90
_cell_angle_beta 105.957(4)
_cell_angle_gamma 90
_cell_formula_units_Z 4
loop_
_atom_type_symbol
_atom_type_radius_bond
C 0.68
H 0.23
N 0.68
O 0.68
loop_
_atom_site_label
_atom_site_type_symbol
_atom_site_fract_x
_atom_site_fract_y
_atom_site_fract_z
C1 C 0.46699(14) 1.04624(19) 0.34398(13)
H1 H 0.42640 0.99390 0.29490
H2 H 0.49990 1.14030 0.32940
H3 H 0.42180 1.07700 0.37710
C2 C 0.54877(11) 0.93426(16) 0.39126(9)
C3 C 0.56642(9) 0.77361(15) 0.38104(8)
C4 C 0.65982(10) 0.72850(16) 0.44420(8)
C5 C 0.71878(11) 0.5872(2) 0.46487(9)
C6 C 0.80806(13) 0.5899(3) 0.53092(10)
C7 C 0.83923(14) 0.7300(3) 0.57694(10)
C8 C 0.78335(14) 0.8703(3) 0.55832(10)
H4 H 0.80420 0.96300 0.58930
C9 C 0.69405(12) 0.86908(19) 0.49118(9)
C10 C 0.34048(14) 0.4660(2) 0.29741(11)
C11 C 0.4256(1) 0.55783(15) 0.35937(8)
H5 H 0.47110 0.48140 0.39700
C12 C 0.49340(9) 0.66542(15) 0.31963(7)
H6 H 0.44620 0.73340 0.27810
C13 C 0.55401(10) 0.55698(15) 0.27582(7)
C14 C 0.63618(11) 0.55797(19) 0.16170(8)
C15 C 0.57987(16) 0.4094(2) 0.12067(11)
H7 H 0.58000 0.32940 0.16170
H8 H 0.61500 0.36800 0.08230
H9 H 0.50880 0.43640 0.09190
C16 C 0.63619(16) 0.6881(3) 0.09857(11)
H10 H 0.56520 0.71160 0.06800
H11 H 0.67480 0.65130 0.06160
H12 H 0.66850 0.78350 0.12620
C17 C 0.74582(13) 0.5239(3) 0.21482(12)
H13 H 0.77620 0.62110 0.24180
H14 H 0.78800 0.48440 0.18100
H15 H 0.74300 0.44450 0.25540
H16 H 0.6992(12) 0.488(2) 0.4342(10)
H17 H 0.8461(15) 0.494(2) 0.5471(11)
H18 H 0.8990(18) 0.719(3) 0.6230(14)
H19 H 0.6268(15) 1.085(2) 0.4762(11)
H20 H 0.2952(17) 0.411(3) 0.3246(13)
H21 H 0.2974(16) 0.542(2) 0.2597(13)
H22 H 0.3735(14) 0.394(2) 0.2679(11)
N1 N 0.62613(11) 0.99015(17) 0.45795(9)
N2 N 0.37584(9) 0.66966(14) 0.40818(7)
O1 O 0.30096(9) 0.75004(16) 0.37175(8)
O2 O 0.41570(9) 0.67886(13) 0.48254(6)
O3 O 0.57958(8) 0.42088(12) 0.29681(6)
O4 O 0.57436(7) 0.63535(12) 0.21332(5)
#END
