
#######################################################################
#
#                 Cambridge Crystallographic Data Centre
#                                CCDC
#
#######################################################################
#
# If this CIF has been generated from an entry in the Cambridge
# Structural Database, then it will include bibliographic, chemical,
# crystal, experimental, refinement or atomic coordinate data resulting
# from the CCDC's data processing and validation procedures.
#
#######################################################################

data_CSD_CIF_DAFGAS
_audit_creation_date 1986-03-24
_audit_creation_method CSD-ConQuest-V1
_database_code_CSD DAFGAS
_chemical_formula_sum 'C10 H8 N4 O8'
_chemical_formula_moiety
;
C10 H8 N4 O8
;
_journal_coeditor_code "IUCr A24764"
_journal_coden_Cambridge 591
_journal_volume 41
_journal_year 1985
_journal_page_first 788
_journal_name_full 'Acta Crystallogr.,Sect.C:Cryst.Struct.Commun. '
loop_
_publ_author_name
"C.George"
"R.Gilardi"
"J.L.Flippen-Anderson"
"C.S.Choi"
"A.P.Marchand"
"D.S.Reddy"
_chemical_name_systematic
;
6,6,10,10-Tetranitro-pentacyclo(5.3.0.0^2,5^.0^3,9^.0^4,8^)decane
;
_chemical_melting_point 428
_cell_volume   1207.475
_exptl_crystal_density_diffrn 1.717
_exptl_special_details
;
Melting point range 428-429K

;
_diffrn_ambient_temperature ?
_diffrn_special_details
;
The study was carried out at room temperature,in the range 283-303K

;
#These two values have been output from a single CSD field.
_refine_ls_R_factor_gt 0.041
_refine_ls_wR_factor_gt 0.041
_symmetry_cell_setting monoclinic
_symmetry_space_group_name_H-M 'P c'
_symmetry_Int_Tables_number 7
loop_
_symmetry_equiv_pos_site_id
_symmetry_equiv_pos_as_xyz
1 x,y,z
2 x,-y,1/2+z
_cell_length_a 7.761(1)
_cell_length_b 11.500(2)
_cell_length_c 14.277(2)
_cell_angle_alpha 90
_cell_angle_beta 108.63(2)
_cell_angle_gamma 90
_cell_formula_units_Z 4
loop_
_atom_type_symbol
_atom_type_radius_bond
C 0.68
H 0.23
N 0.68
O 0.68
loop_
_atom_site_label
_atom_site_type_symbol
_atom_site_fract_x
_atom_site_fract_y
_atom_site_fract_z
C1 C 0.1148(4) 0.4797(2) 0.3476(2)
C2 C 0.1176(3) 0.5748(2) 0.4896(2)
C3 C 0.2990(4) 0.6148(2) 0.4763(2)
C4 C 0.3123(4) 0.5276(2) 0.3954(2)
C5 C 0.3684(4) 0.4103(3) 0.4533(2)
C6 C 0.1626(4) 0.3836(3) 0.4256(2)
C7 C 0.1678(4) 0.4477(2) 0.5229(2)
C8 C 0.3805(4) 0.4436(2) 0.5597(2)
C9 C -0.0015(4) 0.5642(2) 0.3805(2)
C10 C 0.4430(4) 0.5682(2) 0.5685(2)
N1 N -0.0258(3) 0.6800(2) 0.3265(2)
N2 N -0.1939(3) 0.5203(3) 0.3642(2)
N3 N 0.6338(3) 0.5813(2) 0.5632(2)
N4 N 0.4479(3) 0.6297(2) 0.6641(2)
O1 O 0.0098(4) 0.6828(2) 0.2504(2)
O2 O -0.0748(4) 0.7610(2) 0.3636(2)
O3 O -0.2077(4) 0.4379(3) 0.4124(3)
O4 O -0.3179(3) 0.5671(3) 0.3020(2)
O5 O 0.6628(3) 0.6561(2) 0.5113(2)
O6 O 0.7473(3) 0.5135(2) 0.6116(2)
O7 O 0.5613(4) 0.7035(3) 0.6954(2)
O8 O 0.3336(3) 0.6006(2) 0.6998(2)
C11 C -0.2923(4) -0.1079(3) -0.0476(2)
C12 C -0.3216(4) 0.0286(2) 0.0631(2)
C13 C -0.1545(4) 0.0739(2) 0.0368(2)
C14 C -0.1128(4) -0.0350(2) -0.0177(2)
C15 C -0.0234(4) -0.1223(3) 0.0689(2)
C16 C -0.2176(4) -0.1699(3) 0.0520(2)
C17 C -0.2341(4) -0.0769(3) 0.1291(2)
C18 C -0.0239(4) -0.0556(3) 0.1619(2)
C19 C -0.4352(4) -0.0252(2) -0.0348(2)
C20 C -0.0044(4) 0.0693(3) 0.1359(2)
N5 N -0.5026(3) 0.0656(2) -0.1153(2)
N6 N -0.6031(3) -0.0907(2) -0.0309(2)
N7 N 0.1843(3) 0.0968(2) 0.1286(2)
N8 N -0.0337(4) 0.1585(2) 0.2072(2)
O9 O -0.4198(3) 0.0764(2) -0.1726(2)
O10 O -0.6321(4) 0.1217(2) -0.1135(2)
O11 O -0.6086(4) -0.1219(4) 0.0474(2)
O12 O -0.7102(4) -0.1182(3) -0.1064(2)
O13 O 0.1927(4) 0.1421(3) 0.0560(2)
O14 O 0.3106(5) 0.0659(3) 0.1958(2)
O15 O 0.0075(6) 0.2573(3) 0.1966(2)
O16 O -0.1045(4) 0.1262(3) 0.2665(2)
H1 H 0.0756(38) 0.4627(25) 0.2825(19)
H2 H 0.0742(34) 0.6152(23) 0.5303(18)
H3 H 0.3061(34) 0.6941(21) 0.4614(18)
H4 H 0.3789(34) 0.5541(23) 0.3504(18)
H5 H 0.4543(45) 0.3642(30) 0.4385(22)
H6 H 0.1081(35) 0.3129(24) 0.4113(18)
H7 H 0.1066(35) 0.4204(22) 0.5596(19)
H8 H 0.4298(42) 0.3991(26) 0.6113(22)
H9 H -0.3298(42) -0.1554(27) -0.1064(22)
H10 H -0.380(4) 0.0833(26) 0.0911(21)
H11 H -0.1689(35) 0.1436(24) 0.0015(18)
H12 H -0.0522(45) -0.0227(26) -0.0664(23)
H13 H 0.0681(39) -0.1647(26) 0.0703(21)
H14 H -0.2418(41) -0.2404(25) 0.0556(21)
H15 H -0.2948(42) -0.0946(29) 0.1723(22)
H16 H 0.0439(38) -0.0829(24) 0.2316(19)
#END
