
#######################################################################
#
#                 Cambridge Crystallographic Data Centre
#                                CCDC
#
#######################################################################
#
# If this CIF has been generated from an entry in the Cambridge
# Structural Database, then it will include bibliographic, chemical,
# crystal, experimental, refinement or atomic coordinate data resulting
# from the CCDC's data processing and validation procedures.
#
#######################################################################

data_CSD_CIF_DAFHEY
_audit_creation_date 2004-12-02
_audit_creation_method CSD-ConQuest-V1
_database_code_CSD DAFHEY
_database_code_depnum_ccdc_archive 'CCDC 236303'
_chemical_formula_sum 'C22 H21 N3 O6'
_chemical_formula_moiety
;
C22 H21 N3 O6
;
_journal_coden_Cambridge 24
_journal_volume 45
_journal_year 2004
_journal_page_first 6023
_journal_name_full 'Tetrahedron Lett. '
loop_
_publ_author_name
"S.D.Dreher"
"N.Ikemoto"
"V.Gresham"
"Jinchu Liu"
"P.G.Dormer"
"J.Balsells"
"D.Mathre"
"T.J.Novak"
"J.D.Armstrong III"
_chemical_name_systematic
;
t-Butyl 
2-(3-nitrophenyl)-5-(benzyloxy)-6-oxo-1,6-dihydropyrimidine-4-carboxylate
;
_cell_volume   2118.420
_exptl_crystal_density_diffrn 1.328
_exptl_crystal_description 'plates'
_diffrn_ambient_temperature 298
#These two values have been output from a single CSD field.
_refine_ls_R_factor_gt 0.0656
_refine_ls_wR_factor_gt 0.0656
_symmetry_cell_setting monoclinic
_symmetry_space_group_name_H-M 'P 21/n'
_symmetry_Int_Tables_number 14
loop_
_symmetry_equiv_pos_site_id
_symmetry_equiv_pos_as_xyz
1 x,y,z
2 1/2+x,1/2-y,1/2+z
3 -x,-y,-z
4 -1/2-x,-1/2+y,-1/2-z
_cell_length_a 15.356(6)
_cell_length_b 7.612(3)
_cell_length_c 18.130(7)
_cell_angle_alpha 90
_cell_angle_beta 91.568(7)
_cell_angle_gamma 90
_cell_formula_units_Z 4
loop_
_atom_type_symbol
_atom_type_radius_bond
C 0.68
H 0.23
N 0.68
O 0.68
loop_
_atom_site_label
_atom_site_type_symbol
_atom_site_fract_x
_atom_site_fract_y
_atom_site_fract_z
C1 C 0.30748(18) 1.1960(4) -0.10327(15)
C2 C 0.30690(19) 1.1063(4) -0.16920(16)
H1 H 0.28360 1.15670 -0.21210
C3 C 0.3417(2) 0.9401(4) -0.16980(16)
H2 H 0.34320 0.87780 -0.21390
C4 C 0.3747(2) 0.8645(4) -0.10535(15)
H3 H 0.39780 0.75160 -0.10660
C5 C 0.37377(16) 0.9550(3) -0.03894(13)
C6 C 0.34015(18) 1.1242(4) -0.03841(14)
H4 H 0.33970 1.18840 0.00520
C7 C 0.40575(16) 0.8787(3) 0.03227(13)
C8 C 0.4796(2) 0.6382(4) 0.09477(15)
C9 C 0.4666(2) 0.7355(4) 0.16152(14)
C10 C 0.42370(17) 0.8902(3) 0.15744(13)
C11 C 0.40842(19) 0.9920(4) 0.22758(14)
C12 C 0.3218(2) 0.9795(5) 0.33974(17)
C13 C 0.2438(5) 0.8699(12) 0.3537(3)
H5 H 0.20000 0.89190 0.31600
H6 H 0.22130 0.89900 0.40100
H7 H 0.25980 0.74800 0.35300
C14 C 0.3978(3) 0.9445(6) 0.3907(2)
H8 H 0.41430 0.82320 0.38710
H9 H 0.38220 0.97030 0.44040
H10 H 0.44580 1.01740 0.37720
C15 C 0.2994(4) 1.1728(7) 0.3418(2)
H11 H 0.35010 1.24070 0.33070
H12 H 0.28030 1.20320 0.39020
H13 H 0.25380 1.19730 0.30610
C16 C 0.5383(3) 0.5332(4) 0.24550(19)
H14 H 0.58920 0.52410 0.21520
H15 H 0.50130 0.43230 0.23520
C17 C 0.56607(19) 0.5334(4) 0.32571(15)
C18 C 0.5570(2) 0.3829(4) 0.36629(18)
H16 H 0.53210 0.28370 0.34450
C19 C 0.5845(3) 0.3778(6) 0.4393(2)
H17 H 0.57780 0.27540 0.46660
C20 C 0.6216(3) 0.5223(6) 0.47165(19)
H18 H 0.63970 0.51860 0.52100
C21 C 0.6319(2) 0.6698(6) 0.4325(2)
H19 H 0.65800 0.76750 0.45450
C22 C 0.6039(2) 0.6774(4) 0.35913(18)
H20 H 0.61080 0.78060 0.33250
N1 N 0.27283(19) 1.3761(4) -0.10149(15)
N2 N 0.39335(14) 0.9661(3) 0.09337(11)
N3 N 0.44628(15) 0.7202(3) 0.03244(11)
H21 H 0.45150 0.66750 -0.00920
O1 O 0.2730(2) 1.4543(3) -0.04282(14)
O2 O 0.2460(2) 1.4411(3) -0.15920(13)
O3 O 0.51738(19) 0.4955(3) 0.08992(11)
O4 O 0.45085(19) 1.1168(4) 0.24536(13)
O5 O 0.4948(2) 0.6808(4) 0.22867(12)
O6 O 0.34488(15) 0.9241(3) 0.26364(11)
#END
