
#######################################################################
#
#                 Cambridge Crystallographic Data Centre
#                                CCDC
#
#######################################################################
#
# If this CIF has been generated from an entry in the Cambridge
# Structural Database, then it will include bibliographic, chemical,
# crystal, experimental, refinement or atomic coordinate data resulting
# from the CCDC's data processing and validation procedures.
#
#######################################################################

data_CSD_CIF_DAFPUV
_audit_creation_date 1986-03-24
_audit_creation_method CSD-ConQuest-V1
_database_code_CSD DAFPUV
_database_code_depnum_ccdc_archive 'CCDC 1135363'
_chemical_formula_sum 'C2 H2 N4 O3'
_chemical_formula_moiety
;
C2 H2 N4 O3
;
_journal_coden_Cambridge 82
_journal_volume 26
_journal_year 1985
_journal_page_first 65-1
_journal_name_full 'Zh.Strukt.Khim.(Russ.)(J.Struct.Chem.) '
loop_
_publ_author_name
"A.S.Batsanov"
"Yu.T.Struchkov"
_chemical_name_systematic
;
3-Amino-4-nitrofurazane
;
_cell_volume    930.896
_exptl_crystal_density_diffrn 1.86
_diffrn_ambient_temperature 153.15
#These two values have been output from a single CSD field.
_refine_ls_R_factor_gt 0.044
_refine_ls_wR_factor_gt 0.044
_symmetry_cell_setting orthorhombic
_symmetry_space_group_name_H-M 'P n a 21'
_symmetry_Int_Tables_number 33
loop_
_symmetry_equiv_pos_site_id
_symmetry_equiv_pos_as_xyz
1 x,y,z
2 1/2-x,1/2+y,1/2+z
3 1/2+x,1/2-y,z
4 -x,-y,1/2+z
_cell_length_a 14.864(16)
_cell_length_b 5.385(6)
_cell_length_c 11.630(15)
_cell_angle_alpha 90
_cell_angle_beta 90
_cell_angle_gamma 90
_cell_formula_units_Z 8
loop_
_atom_type_symbol
_atom_type_radius_bond
C 0.68
H 0.23
N 0.68
O 0.68
loop_
_atom_site_label
_atom_site_type_symbol
_atom_site_fract_x
_atom_site_fract_y
_atom_site_fract_z
O1 O 0.0487(3) 0.1730(7) 0.00000
O2 O -0.0576(3) 0.7253(6) 0.2374(6)
O3 O -0.0968(3) 0.7793(6) 0.0601(5)
N1 N 0.0003(3) 0.3826(7) -0.0014(5)
N2 N 0.0721(3) 0.1035(8) 0.1131(5)
N3 N -0.0585(3) 0.6673(8) 0.1366(5)
N4 N 0.0449(4) 0.2779(9) 0.2937(6)
C1 C -0.0080(3) 0.4453(8) 0.1055(6)
C2 C 0.0374(5) 0.2736(9) 0.1793(7)
H1 H 0.057(4) 0.128(11) 0.320(6)
H2 H 0.022(3) 0.385(8) 0.329(4)
O4 O 0.1981(3) 0.7889(7) 0.4634(3)
O5 O 0.3168(3) 0.2558(6) 0.2237(7)
O6 O 0.3447(3) 0.1843(7) 0.4065(6)
N5 N 0.2484(3) 0.5822(7) 0.4657(5)
N6 N 0.1763(3) 0.8621(9) 0.3492(5)
N7 N 0.3114(3) 0.3022(8) 0.3293(6)
N8 N 0.2083(4) 0.6838(9) 0.1679(6)
C3 C 0.2592(3) 0.5217(9) 0.3582(5)
C4 C 0.2146(4) 0.6925(9) 0.2836(7)
H3 H 0.188(3) 0.807(8) 0.140(4)
H4 H 0.250(4) 0.559(12) 0.125(6)
#END
