
#######################################################################
#
#                 Cambridge Crystallographic Data Centre
#                                CCDC
#
#######################################################################
#
# If this CIF has been generated from an entry in the Cambridge
# Structural Database, then it will include bibliographic, chemical,
# crystal, experimental, refinement or atomic coordinate data resulting
# from the CCDC's data processing and validation procedures.
#
#######################################################################

data_CSD_CIF_DAFPUY
_audit_creation_date 2016-12-12
_audit_creation_method CSD-ConQuest-V1
_database_code_CSD DAFPUY
_database_code_depnum_ccdc_archive 'CCDC 1475610'
_chemical_formula_sum 'C22 H26 N4 O2'
_chemical_formula_moiety
;
C22 H26 N4 O2
;
_journal_coden_Cambridge 222
_journal_volume 46
_journal_year 2017
_journal_page_first 445
_journal_name_full 'Dalton Trans. '
loop_
_publ_author_name
"Jing Yang"
"Qian Cao"
"Wei-Liang Hu"
"Rui-Rong Ye"
"Liang He"
"Liang-Nian Ji"
"P.Z.Qin"
"Zong-Wan Mao"
_chemical_name_systematic
;
N-(1-hydroxy-2,2,6,6-tetramethylpiperidin-4-yl)-1,10-phenanthroline-5-carboxam
ide
;
_cell_volume   1964.248
_exptl_crystal_density_diffrn 1.28
_exptl_special_details
;
Heat-sensitive

;
_exptl_crystal_description 'block'
_diffrn_ambient_temperature 293
#These two values have been output from a single CSD field.
_refine_ls_R_factor_gt 0.0656
_refine_ls_wR_factor_gt 0.0656
_symmetry_cell_setting monoclinic
_symmetry_space_group_name_H-M 'P 21/n'
_symmetry_Int_Tables_number 14
loop_
_symmetry_equiv_pos_site_id
_symmetry_equiv_pos_as_xyz
1 x,y,z
2 1/2-x,1/2+y,1/2-z
3 -x,-y,-z
4 -1/2+x,-1/2-y,-1/2+z
_cell_length_a 7.8442(7)
_cell_length_b 23.492(2)
_cell_length_c 10.7644(12)
_cell_angle_alpha 90
_cell_angle_beta 98.014(3)
_cell_angle_gamma 90
_cell_formula_units_Z 4
loop_
_atom_type_symbol
_atom_type_radius_bond
C 0.68
H 0.23
N 0.68
O 0.68
loop_
_atom_site_label
_atom_site_type_symbol
_atom_site_fract_x
_atom_site_fract_y
_atom_site_fract_z
C1 C 0.8737(4) 0.57730(12) 0.3297(3)
H1 H 0.91770 0.61230 0.30890
C2 C 0.8593(4) 0.53496(12) 0.2396(3)
H2 H 0.89150 0.54160 0.16090
C3 C 0.7968(4) 0.48334(11) 0.2691(3)
H3 H 0.78350 0.45440 0.20960
C4 C 0.7527(3) 0.47403(10) 0.3883(2)
C5 C 0.7693(3) 0.52029(10) 0.4742(2)
C6 C 0.6901(3) 0.42046(10) 0.4272(3)
H4 H 0.67520 0.39060 0.37000
C7 C 0.6521(3) 0.41205(9) 0.5448(2)
C8 C 0.6699(3) 0.45757(10) 0.6351(2)
C9 C 0.6333(3) 0.45197(12) 0.7580(3)
H5 H 0.60380 0.41650 0.78690
C10 C 0.6402(4) 0.49787(12) 0.8361(3)
H6 H 0.61730 0.49440 0.91830
C11 C 0.6836(4) 0.55090(13) 0.7872(3)
H7 H 0.68440 0.58250 0.83940
C12 C 0.7207(3) 0.51292(9) 0.5973(3)
C13 C 0.5933(3) 0.35425(10) 0.5812(2)
C14 C 0.3704(3) 0.28127(9) 0.5490(2)
H8 H 0.37690 0.27980 0.64060
C15 C 0.4658(3) 0.23055(9) 0.5075(2)
H9 H 0.58740 0.23480 0.53790
H10 H 0.45250 0.22990 0.41660
C16 C 0.4034(3) 0.17407(9) 0.5542(2)
C17 C 0.0958(3) 0.22312(10) 0.5376(2)
C18 C 0.1837(3) 0.27696(10) 0.4929(2)
H11 H 0.17570 0.27620 0.40220
H12 H 0.12290 0.31050 0.51590
C19 C -0.0659(3) 0.21027(13) 0.4444(3)
H13 H -0.03300 0.19940 0.36510
H14 H -0.13720 0.24360 0.43360
H15 H -0.12870 0.17970 0.47620
C20 C 0.0457(4) 0.23141(12) 0.6682(3)
H16 H 0.00180 0.19630 0.69650
H17 H -0.04120 0.26030 0.66530
H18 H 0.14510 0.24280 0.72510
C21 C 0.4615(4) 0.12545(11) 0.4756(3)
H19 H 0.42810 0.08970 0.50820
H20 H 0.58440 0.12660 0.47910
H21 H 0.40850 0.12950 0.39010
C22 C 0.4718(4) 0.16532(11) 0.6925(3)
H22 H 0.43170 0.19560 0.74100
H23 H 0.59540 0.16540 0.70360
H24 H 0.43140 0.12950 0.72010
N1 N 0.8294(3) 0.57172(9) 0.4437(2)
N2 N 0.7228(3) 0.55927(9) 0.6741(2)
N3 N 0.4465(2) 0.33530(7) 0.51568(19)
H25 H 0.39640 0.35490 0.45360
N4 N 0.2104(2) 0.17293(8) 0.53811(19)
O1 O 0.6753(3) 0.32714(7) 0.66840(19)
O2 O 0.1426(3) 0.12436(8) 0.5574(2)
H26 H 0.14390 0.11960 0.63300
#END
