
#######################################################################
#
#                 Cambridge Crystallographic Data Centre
#                                CCDC
#
#######################################################################
#
# If this CIF has been generated from an entry in the Cambridge
# Structural Database, then it will include bibliographic, chemical,
# crystal, experimental, refinement or atomic coordinate data resulting
# from the CCDC's data processing and validation procedures.
#
#######################################################################

data_CSD_CIF_DAFQAD
_audit_creation_date 2004-12-02
_audit_creation_method CSD-ConQuest-V1
_database_code_CSD DAFQAD
_database_code_depnum_ccdc_archive 'CCDC 233750'
_chemical_formula_sum 'C26 H36 N1 O3'
_chemical_formula_moiety
;
C26 H36 N1 O3
;
_journal_coden_Cambridge 179
_journal_volume 43
_journal_year 2004
_journal_page_first 3677
_journal_name_full 'Angew.Chem.,Int.Ed. '
loop_
_publ_author_name
"N.Ikuma"
"R.Tamura"
"S.Shimono"
"N.Kawame"
"O.Tamada"
"N.Sakai"
"J.Yamauchi"
"Y.Yamamoto"
_chemical_name_systematic
;
(2S,5S)-2,5-Dimethyl-2,5-bis(4-n-butoxyphenyl)pyrrolidine-1-oxide
;
_cell_volume    591.059
_exptl_crystal_colour 'yellow'
_exptl_crystal_density_diffrn 1.154
_exptl_crystal_description 'Prism'
_diffrn_ambient_temperature 298
#These two values have been output from a single CSD field.
_refine_ls_R_factor_gt 0.0581
_refine_ls_wR_factor_gt 0.0581
loop_
_citation_database_id_CSD
_citation_special_details
DAFQEH "is a racemate of this entry"
_symmetry_cell_setting triclinic
_symmetry_space_group_name_H-M 'P 1'
_symmetry_Int_Tables_number 1
loop_
_symmetry_equiv_pos_site_id
_symmetry_equiv_pos_as_xyz
1 x,y,z
_cell_length_a 6.3786(2)
_cell_length_b 7.5419(3)
_cell_length_c 13.7089(9)
_cell_angle_alpha 98.448(2)
_cell_angle_beta 90.959(2)
_cell_angle_gamma 114.567(4)
_cell_formula_units_Z 1
loop_
_atom_type_symbol
_atom_type_radius_bond
C 0.68
H 0.23
N 0.68
O 0.68
loop_
_atom_site_label
_atom_site_type_symbol
_atom_site_fract_x
_atom_site_fract_y
_atom_site_fract_z
O1 O 0.3460(6) 0.6653(5) 0.3192(2)
O2 O 0.0261(6) 1.0010(6) 1.2346(3)
O3 O -0.0979(6) 0.7883(7) 0.7308(3)
N1 N 0.1062(7) 0.8254(7) 0.7643(3)
C1 C 0.1973(8) 0.8180(8) 0.4429(4)
C2 C 0.1868(9) 0.8885(8) 0.5397(4)
C3 C -0.0055(8) 0.9214(8) 0.9606(4)
C4 C 0.1189(8) 0.8086(7) 0.9434(4)
C5 C 0.3153(8) 0.9632(8) 0.7225(4)
C6 C 0.2064(9) 0.7657(8) 1.0250(4)
C7 C -0.0916(10) 1.1589(8) 1.3712(4)
C8 C 0.4919(9) 0.5686(9) 0.2919(4)
C9 C 0.3242(8) 0.8779(7) 0.6156(4)
C10 C 0.5033(9) 0.9676(8) 0.7949(4)
C11 C 0.4052(8) 0.7656(9) 0.8259(4)
C12 C 0.1737(9) 0.8324(8) 1.1212(4)
C13 C 0.0492(9) 0.9454(8) 1.1367(4)
C14 C 0.4707(8) 0.7888(8) 0.5896(4)
C15 C 0.6161(10) 0.4086(9) 0.1459(4)
C16 C 0.4802(8) 0.7134(8) 0.4919(4)
C17 C 0.4780(9) 0.5238(9) 0.1811(4)
C18 C -0.0418(9) 0.9877(8) 1.0560(4)
C19 C 0.1506(8) 0.7212(8) 0.8396(4)
C20 C 0.3443(8) 0.7296(8) 0.4181(4)
C21 C 0.3066(11) 1.1641(9) 0.7306(5)
C22 C -0.0110(11) 0.5008(9) 0.8153(5)
C23 C -0.1055(10) 1.1133(9) 1.2588(4)
C24 C -0.1975(15) 1.3279(11) 1.5209(5)
C25 C -0.2255(13) 1.2757(10) 1.4081(5)
C26 C 0.6089(12) 0.3678(11) 0.0329(5)
H1 H 0.10460 0.82980 0.39340
H2 H 0.08430 0.94530 0.55480
H3 H -0.06610 0.95340 0.90720
H4 H 0.29000 0.68970 1.01540
H5 H -0.15120 1.03550 1.39690
H6 H 0.06930 1.23300 1.39650
H7 H 0.44190 0.44700 0.31890
H8 H 0.65020 0.65330 0.31800
H9 H 0.64470 0.99070 0.76290
H10 H 0.53640 1.07100 0.85180
H11 H 0.48550 0.76850 0.88720
H12 H 0.41740 0.66710 0.77500
H13 H 0.23520 0.80130 1.17470
H14 H 0.56540 0.77910 0.63890
H15 H 0.55460 0.28380 0.17030
H16 H 0.77550 0.48270 0.17330
H17 H 0.57830 0.65220 0.47650
H18 H 0.53630 0.64680 0.15510
H19 H 0.31750 0.44790 0.15550
H20 H -0.12830 1.06130 1.06550
H21 H 0.30200 1.21390 0.79880
H22 H 0.17070 1.14980 0.69290
H23 H 0.44170 1.25490 0.70530
H24 H -0.16820 0.48300 0.82060
H25 H 0.02770 0.43180 0.86100
H26 H 0.00600 0.44930 0.74910
H27 H -0.26520 1.03770 1.23190
H28 H -0.04190 1.23490 1.23160
H29 H -0.28420 1.40240 1.54200
H30 H -0.03700 1.40550 1.54270
H31 H -0.25380 1.20860 1.54870
H32 H -0.38810 1.19900 1.38610
H33 H -0.17150 1.39640 1.38010
H34 H 0.69830 0.29470 0.01370
H35 H 0.67240 0.49100 0.00850
H36 H 0.45160 0.29220 0.00550
#END
