
#######################################################################
#
#                 Cambridge Crystallographic Data Centre
#                                CCDC
#
#######################################################################
#
# If this CIF has been generated from an entry in the Cambridge
# Structural Database, then it will include bibliographic, chemical,
# crystal, experimental, refinement or atomic coordinate data resulting
# from the CCDC's data processing and validation procedures.
#
#######################################################################

data_CSD_CIF_DAFQIL
_audit_creation_date 2004-12-02
_audit_creation_method CSD-ConQuest-V1
_database_code_CSD DAFQIL
_database_code_depnum_ccdc_archive 'CCDC 233751'
_chemical_formula_sum 'C33 H40 N1 O5'
_chemical_formula_moiety
;
C33 H40 N1 O5
;
_journal_coden_Cambridge 179
_journal_volume 43
_journal_year 2004
_journal_page_first 3677
_journal_name_full 'Angew.Chem.,Int.Ed. '
loop_
_publ_author_name
"N.Ikuma"
"R.Tamura"
"S.Shimono"
"N.Kawame"
"O.Tamada"
"N.Sakai"
"J.Yamauchi"
"Y.Yamamoto"
_chemical_name_systematic
;
(2S,5S)-2,5-Dimethyl-2-(4-n-butoxyphenyl)-5-(4-(4-n-butoxyphenylcarboxy)phenyl
)pyrrolidine-1-oxide
;
_cell_volume   1485.459
_exptl_crystal_colour 'yellow'
_exptl_crystal_density_diffrn 1.186
_exptl_crystal_description 'Plate'
_diffrn_ambient_temperature 298
_refine_special_details
;
The n-butyl groups are disordered.

;
#These two values have been output from a single CSD field.
_refine_ls_R_factor_gt 0.0475
_refine_ls_wR_factor_gt 0.0475
_symmetry_cell_setting monoclinic
_symmetry_space_group_name_H-M 'P 21'
_symmetry_Int_Tables_number 4
loop_
_symmetry_equiv_pos_site_id
_symmetry_equiv_pos_as_xyz
1 x,y,z
2 -x,1/2+y,-z
_cell_length_a 7.1625(7)
_cell_length_b 9.696(2)
_cell_length_c 21.609(2)
_cell_angle_alpha 90
_cell_angle_beta 98.171(6)
_cell_angle_gamma 90
_cell_formula_units_Z 2
loop_
_atom_type_symbol
_atom_type_radius_bond
C 0.68
H 0.23
N 0.68
O 0.68
loop_
_atom_site_label
_atom_site_type_symbol
_atom_site_fract_x
_atom_site_fract_y
_atom_site_fract_z
O1 O 0.1530(3) 0.2145(2) 1.05851(9)
N1 N 0.5801(3) 0.2694(2) 0.81422(10)
O2 O 0.4737(3) 0.3725(2) 0.79737(10)
O3 O -0.3280(3) 0.2181(3) 1.27925(10)
C1 C -0.1104(4) 0.2034(3) 1.11216(13)
C2 C 0.4121(3) 0.1679(3) 0.89801(12)
C3 C -0.2997(4) 0.1737(3) 1.11300(14)
C4 C -0.0378(4) 0.1950(3) 1.05226(14)
O4 O -0.1292(3) 0.1708(3) 1.00317(10)
C5 C -0.0012(4) 0.2384(3) 1.16773(14)
C6 C -0.3778(4) 0.1764(3) 1.16722(14)
C7 C -0.0779(4) 0.2421(4) 1.22238(15)
C8 C 0.4009(4) 0.2957(3) 0.92529(13)
C9 C 0.7828(3) 0.2653(3) 0.80524(14)
C10 C 0.5062(4) 0.1425(3) 0.83967(13)
C11 C -0.2675(4) 0.2114(3) 1.22231(14)
C12 C 0.3388(4) 0.0548(3) 0.92576(15)
C13 C 0.2382(4) 0.1981(3) 1.00336(13)
C14 C 0.9934(5) 0.4341(4) 0.67069(17)
C15 C 0.6732(4) 0.2954(4) 0.68889(14)
C16 C 0.8062(4) 0.3195(3) 0.74082(13)
C17 C 0.8583(5) 0.4079(4) 0.62107(15)
C18 C 0.3659(4) 0.0782(4) 0.78739(15)
C19 C 0.9683(4) 0.3885(4) 0.73031(15)
C20 C 0.3120(4) 0.3118(3) 0.97795(13)
C21 C 0.2533(4) 0.0705(4) 0.97875(16)
O5 O 0.8679(4) 0.4487(3) 0.56037(12)
C22 C 0.6864(4) 0.0566(4) 0.85518(14)
C23 C 0.8190(4) 0.1086(4) 0.81141(16)
C24 C 0.6979(5) 0.3375(4) 0.63001(15)
C25 C -0.5240(4) 0.1886(5) 1.28227(17)
C26 C 0.8936(5) 0.3458(4) 0.85856(15)
C27 C 1.0060(17) 0.5420(13) 0.5479(5)
C28? C 1.052(2) 0.5052(18) 0.5485(5)
C29 C 0.9848(15) 0.5942(10) 0.4842(3)
C30? C 1.037(2) 0.4982(18) 0.4742(6)
C31 C 0.9739(15) 0.4800(11) 0.4341(3)
C32? C 0.895(3) 0.586(2) 0.4473(7)
C33 C 0.9457(19) 0.5367(14) 0.3729(4)
C34? C 0.877(3) 0.560(3) 0.3653(7)
C35 C -0.571(2) 0.256(2) 1.3479(8)
C36? C -0.5505(11) 0.1924(11) 1.3478(4)
C37 C -0.4495(18) 0.1867(18) 1.3967(5)
C38? C -0.5238(12) 0.3304(12) 1.3782(4)
C39 C -0.489(2) 0.230(3) 1.4545(9)
C40? C -0.5348(16) 0.3221(19) 1.4503(5)
H1 H -0.37550 0.15150 1.07570
H2 H 0.12560 0.25970 1.16820
H3 H -0.50440 0.15460 1.16680
H4 H -0.00280 0.26520 1.25960
H5 H 0.45340 0.37200 0.90820
H6 H 0.34730 -0.03250 0.90850
H7 H 1.10200 0.48220 0.66490
H8 H 0.56290 0.24900 0.69410
H9 H 0.30330 0.00170 0.80380
H10 H 0.43240 0.04650 0.75450
H11 H 0.27420 0.14600 0.77110
H12 H 1.06260 0.40480 0.76380
H13 H 0.30280 0.39840 0.99570
H14 H 0.20640 -0.00600 0.99750
H15 H 0.74130 0.06980 0.89840
H16 H 0.65970 -0.04070 0.84820
H17 H 0.79220 0.06400 0.77100
H18 H 0.94920 0.09050 0.82870
H19 H 0.60620 0.31840 0.59610
H20 H -0.54560 0.08980 1.28180
H21 H -0.60360 0.22950 1.24690
H22? H -0.55700 0.09830 1.26470
H23? H -0.60390 0.25680 1.25870
H24 H 1.02600 0.33860 0.85600
H25 H 0.86850 0.30870 0.89770
H26 H 0.85640 0.44100 0.85560
H27 H 1.12820 0.49750 0.55700
H28 H 1.00560 0.61970 0.57620
H29? H 1.15590 0.44940 0.56840
H30? H 1.06880 0.59940 0.56340
H31 H 1.09080 0.65390 0.47980
H32 H 0.87100 0.64950 0.47670
H33? H 1.15630 0.52530 0.46150
H34? H 1.00950 0.40450 0.46010
H35 H 1.09000 0.42710 0.43990
H36 H 0.87080 0.41800 0.43900
H37? H 0.92690 0.68090 0.45800
H38? H 0.77680 0.56350 0.46190
H39 H 0.87110 0.47440 0.34510
H40 H 1.06560 0.55070 0.35890
H41 H 0.88130 0.62350 0.37350
H42? H 0.75620 0.59270 0.34560
H43? H 0.88940 0.46410 0.35670
H44? H 0.97500 0.61100 0.34940
H45 H -0.54550 0.35410 1.34900
H46 H -0.70200 0.24120 1.35250
H47? H -0.46280 0.12820 1.37070
H48? H -0.67700 0.16040 1.35110
H49 H -0.46840 0.08780 1.39290
H50 H -0.31880 0.20640 1.39300
H51? H -0.62020 0.39300 1.35870
H52? H -0.40190 0.36720 1.37200
H53 H -0.41380 0.17860 1.48690
H54 H -0.61990 0.21620 1.45700
H55 H -0.45910 0.32670 1.45960
H56? H -0.54820 0.41330 1.46640
H57? H -0.42150 0.28080 1.47140
H58? H -0.64160 0.26710 1.45710
#END
