
#######################################################################
#
#                 Cambridge Crystallographic Data Centre
#                                CCDC
#
#######################################################################
#
# If this CIF has been generated from an entry in the Cambridge
# Structural Database, then it will include bibliographic, chemical,
# crystal, experimental, refinement or atomic coordinate data resulting
# from the CCDC's data processing and validation procedures.
#
#######################################################################

data_CSD_CIF_DAFSUZ
_audit_creation_date 2004-12-02
_audit_creation_method CSD-ConQuest-V1
_database_code_CSD DAFSUZ
_database_code_depnum_ccdc_archive 'CCDC 179110'
_chemical_formula_sum 'C9 H14 N2 O2'
_chemical_formula_moiety
;
C9 H14 N2 O2
;
_journal_coden_Cambridge 1295
_journal_volume 5
_journal_year 2002
_journal_page_first 552
_journal_name_full 'Inorg.Chem.Commun. '
loop_
_publ_author_name
"G.Ebeling"
"A.S.Gruber"
"R.A.Burrow"
"J.Dupont"
"A.J.Lough"
"D.H.Farrar"
_chemical_name_systematic
;
(+-)-1,6-bis(hydroxyimino)spiro(4.4)nonane
;
_chemical_melting_point 454.15
_cell_volume    466.390
_exptl_crystal_colour 'colorless'
_exptl_crystal_density_diffrn 1.298
_exptl_crystal_description 'block'
_diffrn_ambient_temperature 100
#These two values have been output from a single CSD field.
_refine_ls_R_factor_gt 0.0367
_refine_ls_wR_factor_gt 0.0367
_symmetry_cell_setting triclinic
_symmetry_space_group_name_H-M 'P -1'
_symmetry_Int_Tables_number 2
loop_
_symmetry_equiv_pos_site_id
_symmetry_equiv_pos_as_xyz
1 x,y,z
2 -x,-y,-z
_cell_length_a 5.8893(2)
_cell_length_b 8.0712(3)
_cell_length_c 10.9270(4)
_cell_angle_alpha 71.981(2)
_cell_angle_beta 76.029(2)
_cell_angle_gamma 73.289(2)
_cell_formula_units_Z 2
loop_
_atom_type_symbol
_atom_type_radius_bond
C 0.68
H 0.23
N 0.68
O 0.68
loop_
_atom_site_label
_atom_site_type_symbol
_atom_site_fract_x
_atom_site_fract_y
_atom_site_fract_z
O1 O 0.14717(16) 0.34943(11) 0.41764(8)
H1 H 0.031(4) 0.355(3) 0.489(2)
O2 O -0.07608(15) 1.07934(11) 0.12782(9)
H2 H -0.125(3) 1.103(3) 0.046(2)
N1 N 0.18964(17) 0.52486(13) 0.37992(9)
N2 N 0.12033(17) 0.92957(13) 0.11902(10)
C1 C 0.44346(19) 0.71939(15) 0.22806(11)
C2 C 0.36713(19) 0.54106(15) 0.28662(11)
C3 C 0.5246(2) 0.40149(16) 0.21798(12)
H3 H 0.43390 0.37280 0.16480
H4 H 0.58960 0.29020 0.28150
C4 C 0.7275(2) 0.49028(17) 0.13080(13)
H5 H 0.86290 0.46450 0.17790
H6 H 0.78810 0.44820 0.05030
C5 C 0.6064(2) 0.69114(17) 0.09901(12)
H7 H 0.51010 0.72340 0.02870
H8 H 0.72780 0.76440 0.07130
C6 C 0.2281(2) 0.87821(15) 0.21706(11)
C7 C 0.1755(2) 0.96057(17) 0.33039(13)
H9 H 0.01140 0.95680 0.37950
H10 H 0.19050 1.08650 0.29970
C8 C 0.3666(2) 0.84416(18) 0.41580(13)
H11 H 0.42450 0.91890 0.45290
H12 H 0.29990 0.75280 0.48830
C9 C 0.5717(2) 0.75498(18) 0.32295(13)
H13 H 0.66570 0.64150 0.37190
H14 H 0.68120 0.83540 0.27460
#END
