
#######################################################################
#
#                 Cambridge Crystallographic Data Centre
#                                CCDC
#
#######################################################################
#
# If this CIF has been generated from an entry in the Cambridge
# Structural Database, then it will include bibliographic, chemical,
# crystal, experimental, refinement or atomic coordinate data resulting
# from the CCDC's data processing and validation procedures.
#
#######################################################################

data_CSD_CIF_DAFWAI
_audit_creation_date 1986-03-24
_audit_creation_method CSD-ConQuest-V1
_database_code_CSD DAFWAI
_chemical_formula_sum 'C12 H12 N2 O4'
_chemical_formula_moiety
;
C12 H12 N2 O4
;
_journal_coden_Cambridge 35
_journal_volume 50
_journal_year 1985
_journal_page_first 2524
_journal_name_full 'J.Org.Chem. '
loop_
_publ_author_name
"L.A.Paquette"
"J.W.Fischer"
"P.Engel"
_chemical_name_systematic
;
2,6-Dinitro-hexacyclo(5.4.1.0^2,6^.0^3,10^.0^5,9^.0^8,11^)dodecane
;
_chemical_name_common
;
Dinitro-bis(homopentaprismane)
;
_chemical_melting_point 573.15
_cell_volume   1009.721
_exptl_crystal_colour 'colorless'
_exptl_special_details
;
Melts above 573.15K
at 23deg.C dx = 1.63, a=11.855(5), b=7.677(4), c=13.853(6) and beta=124.63(5)
;
_diffrn_ambient_temperature 133.15
#These two values have been output from a single CSD field.
_refine_ls_R_factor_gt 0.049
_refine_ls_wR_factor_gt 0.049
_symmetry_cell_setting monoclinic
_symmetry_space_group_name_H-M 'P 2/c'
_symmetry_Int_Tables_number 13
loop_
_symmetry_equiv_pos_site_id
_symmetry_equiv_pos_as_xyz
1 x,y,z
2 -x,y,1/2-z
3 -x,-y,-z
4 x,-y,-1/2+z
_cell_length_a 11.660(3)
_cell_length_b 7.669(2)
_cell_length_c 13.723(10)
_cell_angle_alpha 90
_cell_angle_beta 124.63(5)
_cell_angle_gamma 90
_cell_formula_units_Z 4
loop_
_atom_type_symbol
_atom_type_radius_bond
C 0.68
H 0.23
N 0.68
O 0.68
loop_
_atom_site_label
_atom_site_type_symbol
_atom_site_fract_x
_atom_site_fract_y
_atom_site_fract_z
H1 H -0.059(3) -0.056(4) 0.399(3)
H2 H 0.196(3) -0.102(4) 0.521(3)
H3 H 0.164(3) 0.089(4) 0.478(3)
H4 H -0.269(3) -0.051(4) 0.116(3)
H5 H -0.183(4) -0.351(5) 0.141(3)
H6 H -0.021(3) -0.350(4) 0.372(3)
H7 H 0.594(3) 0.546(4) 0.475(3)
H8 H 0.756(3) 0.401(4) 0.429(3)
H9 H 0.803(3) 0.592(4) 0.461(3)
H10 H 0.277(3) 0.545(4) 0.255(3)
H11 H 0.337(4) 0.840(5) 0.231(3)
H12 H 0.583(5) 0.839(7) 0.425(4)
O1 O -0.06943 0.27609 0.35920
O2 O -0.18123 0.29697 0.16850
O3 O 0.51827 0.23510 0.43010
O4 O 0.37083 0.18129 0.24363
N1 N -0.10895 0.21659 0.26192
N2 N 0.45491 0.27592 0.32590
C1 C -0.06436 0.03501 0.25561
C2 C -0.00965 -0.07122 0.36912
C3 C 0.14621 -0.02686 0.44840
C4 C -0.17531 -0.06939 0.14516
C5 C -0.11470 -0.25487 0.18604
C6 C -0.01280 -0.25557 0.32382
C7 C 0.47623 0.45513 0.29401
C8 C 0.59029 0.56154 0.40047
C9 C 0.72306 0.51769 0.40685
C10 C 0.33872 0.56045 0.22331
C11 C 0.39799 0.74620 0.23777
C12 C 0.55293 0.74660 0.34675
C1A C 0.06436 0.03501 0.24439
C4A C 0.17531 -0.06939 0.35484
C3A C -0.14621 -0.02686 0.05160
C6A C 0.01280 -0.25557 0.17618
C5A C 0.11470 -0.25487 0.31396
N1A N 0.10895 0.21659 0.23808
C2A C 0.00965 -0.07122 0.13088
H4A H 0.269(3) -0.051(4) 0.384(3)
H2A H -0.196(3) -0.102(4) -0.021(3)
H3A H -0.164(3) 0.089(4) 0.022(3)
H6A H 0.021(3) -0.350(4) 0.128(3)
H5A H 0.183(4) -0.351(5) 0.359(3)
O1A O 0.06943 0.27609 0.14080
O2A O 0.18123 0.29697 0.33150
H1A H 0.059(3) -0.056(4) 0.101(3)
C7A C 0.52377 0.45513 0.20599
C10A C 0.66128 0.56045 0.27669
C9A C 0.27694 0.51769 0.09315
C12A C 0.44707 0.74660 0.15325
C11A C 0.60201 0.74620 0.26223
N2A N 0.54509 0.27592 0.17410
C8A C 0.40971 0.56154 0.09953
H10A H 0.723(3) 0.545(4) 0.245(3)
H8A H 0.244(3) 0.401(4) 0.071(3)
H9A H 0.197(3) 0.592(4) 0.039(3)
H12A H 0.417(5) 0.839(7) 0.075(4)
H11A H 0.663(4) 0.840(5) 0.269(3)
O3A O 0.48173 0.23510 0.06990
O4A O 0.62917 0.18129 0.25637
H7A H 0.406(3) 0.546(4) 0.025(3)
#END
