
#######################################################################
#
#                 Cambridge Crystallographic Data Centre
#                                CCDC
#
#######################################################################
#
# If this CIF has been generated from an entry in the Cambridge
# Structural Database, then it will include bibliographic, chemical,
# crystal, experimental, refinement or atomic coordinate data resulting
# from the CCDC's data processing and validation procedures.
#
#######################################################################

data_CSD_CIF_DAGRIN
_audit_creation_date 2004-12-02
_audit_creation_method CSD-ConQuest-V1
_database_code_CSD DAGRIN
_database_code_depnum_ccdc_archive 'CCDC 230270'
_chemical_formula_sum 'C19 H22 N2 O6'
_chemical_formula_moiety
;
C19 H22 N2 O6
;
_journal_coden_Cambridge 10
_journal_volume 87
_journal_year 2004
_journal_page_first 1724
_journal_name_full 'Helv.Chim.Acta '
loop_
_publ_author_name
"I.Kudyba"
"J.Raczko"
"J.Jurczak"
_chemical_name_systematic
;
syn-(2'S,3'R)-2-(3-nitro-2-hydroxy-1-oxo-3-phenylpropyl)-10,10-dimethyl-3-oxo-
4-oxa-2-azatricyclo[5.2.1.0^1,5^]decane
;
_chemical_name_common
;
(3aS,6R,7aR)-tetrahydro-3-[(2S,3R)-2-hydroxy-3-nitro-3-phenylpropanoyl]-8,8-di
methyl-3a,6-methano-1,3-benzoxazol-2(4H)-one
;
_chemical_melting_point 471.15
_cell_volume   1801.606
_exptl_crystal_colour 'white'
_exptl_crystal_density_diffrn 1.38
_exptl_crystal_description 'prismatic'
_diffrn_ambient_temperature 293
_refine_special_details
;
An O atom is refined over two positions with occupancies 0.65:0.35.

;
#These two values have been output from a single CSD field.
_refine_ls_R_factor_gt 0.0313
_refine_ls_wR_factor_gt 0.0313
loop_
_citation_database_id_CSD
_citation_special_details
DAGROT "is a stereoisomer of this entry"
_symmetry_cell_setting orthorhombic
_symmetry_space_group_name_H-M 'P 21 21 21'
_symmetry_Int_Tables_number 19
loop_
_symmetry_equiv_pos_site_id
_symmetry_equiv_pos_as_xyz
1 x,y,z
2 1/2-x,-y,1/2+z
3 -x,1/2+y,1/2-z
4 1/2+x,1/2-y,-z
_cell_length_a 6.6381(13)
_cell_length_b 15.841(3)
_cell_length_c 17.133(3)
_cell_angle_alpha 90
_cell_angle_beta 90
_cell_angle_gamma 90
_cell_formula_units_Z 4
loop_
_atom_type_symbol
_atom_type_radius_bond
C 0.68
H 0.23
N 0.68
O 0.68
loop_
_atom_site_label
_atom_site_type_symbol
_atom_site_fract_x
_atom_site_fract_y
_atom_site_fract_z
O1 O -0.4816(2) 0.44938(13) 1.03361(10)
O2 O -0.4120(2) 0.41984(15) 0.90923(10)
O3 O 0.1445(2) 0.51218(10) 0.96296(9)
O4 O 0.1925(3) 0.42574(10) 0.83442(9)
O5 O 0.1766(3) 0.32734(11) 1.00589(10)
O6 O 0.279(3) 0.2335(15) 0.9266(8)
O7? O 0.193(10) 0.2153(13) 0.941(2)
N1 N -0.1647(2) 0.46608(10) 0.99454(9)
N2 N 0.1523(3) 0.28681(13) 0.94669(11)
C1 C -0.3632(4) 0.46561(18) 1.10331(13)
C2 C -0.3589(3) 0.44230(17) 0.97317(14)
C3 C -0.1686(3) 0.50327(13) 1.07253(11)
C4 C -0.4445(5) 0.5299(2) 1.16130(18)
C5 C -0.2626(4) 0.58789(17) 1.16802(16)
C6 C -0.0879(5) 0.5363(2) 1.20254(16)
C7 C -0.0104(4) 0.4811(2) 1.13294(15)
C8 C -0.1980(4) 0.59955(14) 1.08272(14)
C9 C -0.3572(8) 0.6368(3) 1.0290(2)
C10 C -0.0073(7) 0.6531(2) 1.0757(3)
C11 C 0.0038(3) 0.46728(13) 0.94658(12)
C12 C 0.0144(3) 0.41006(14) 0.87500(12)
C13 C -0.0139(3) 0.31569(13) 0.89223(12)
C14 C -0.0294(4) 0.26131(13) 0.82083(12)
C15 C -0.2081(5) 0.22010(17) 0.80691(15)
C16 C -0.2310(7) 0.1714(2) 0.73986(19)
C17 C -0.0784(7) 0.16409(19) 0.6882(2)
C18 C 0.0991(7) 0.2043(2) 0.70097(19)
C19 C 0.1255(5) 0.25314(18) 0.76775(16)
H1 H -0.335(4) 0.4098(18) 1.1316(15)
H2 H -0.284(4) 0.6374(17) 1.1950(13)
H3 H -0.088(3) 0.4208(11) 0.8426(11)
H4 H -0.137(3) 0.3080(11) 0.9243(11)
H5 H -0.323(4) 0.2288(14) 0.8452(14)
H6 H -0.344(5) 0.148(2) 0.7357(18)
H7 H -0.102(4) 0.1334(18) 0.6424(17)
H8 H 0.203(5) 0.2032(19) 0.664(2)
H9 H 0.252(4) 0.2831(19) 0.7800(16)
H10 H -0.553(4) 0.5588(17) 1.1430(15)
H11 H 0.003(6) 0.573(2) 1.222(2)
H12 H -0.016(5) 0.417(2) 1.1436(17)
H13 H -0.484(7) 0.607(3) 1.034(3)
H14 H 0.036(5) 0.654(2) 1.021(2)
H15 H 0.282(5) 0.433(2) 0.8675(18)
H16 H -0.480(4) 0.5036(17) 1.2138(17)
H17 H -0.143(5) 0.502(2) 1.248(2)
H18 H 0.118(5) 0.5004(18) 1.1103(15)
H19 H -0.306(5) 0.6382(19) 0.976(2)
H20 H -0.040(5) 0.706(2) 1.0848(19)
H21 H -0.395(5) 0.692(2) 1.043(2)
H22 H 0.115(9) 0.625(4) 1.100(3)
#END
