
#######################################################################
#
#                 Cambridge Crystallographic Data Centre
#                                CCDC
#
#######################################################################
#
# If this CIF has been generated from an entry in the Cambridge
# Structural Database, then it will include bibliographic, chemical,
# crystal, experimental, refinement or atomic coordinate data resulting
# from the CCDC's data processing and validation procedures.
#
#######################################################################

data_CSD_CIF_DAHKIH
_audit_creation_date 2005-04-12
_audit_creation_method CSD-ConQuest-V1
_database_code_CSD DAHKIH
_database_code_depnum_ccdc_archive 'CCDC 233526'
_chemical_formula_sum 'C20 H33 N1 O3'
_chemical_formula_moiety
;
C20 H33 N1 O3
;
_journal_coden_Cambridge 40
_journal_volume 101
_journal_year 2004
_journal_page_first 12019
_journal_name_full 'Proc.Nat.Acad.Sci.USA '
loop_
_publ_author_name
"A.K.Miller"
"D.H.Byun"
"C.M.Beaudry"
"D.Trauner"
_chemical_name_systematic
;
4-((1E)-4-Hydroxy-1,3-dimethylhex-1-en-1-yl)-N-methoxy-N,1,3,6-tetramethylbicy
clo(3.1.0)hex-2-ene-6-carboxamide
;
_cell_volume   1004.215
_exptl_crystal_colour 'colorless'
_exptl_crystal_density_diffrn 1.109
_exptl_crystal_description 'blades'
_diffrn_ambient_temperature ?
_diffrn_special_details
;
The study was carried out at room temperature,in the range 283-303K

;
#These two values have been output from a single CSD field.
_refine_ls_R_factor_gt 0.0618
_refine_ls_wR_factor_gt 0.0618
_symmetry_cell_setting monoclinic
_symmetry_space_group_name_H-M 'P 21'
_symmetry_Int_Tables_number 4
loop_
_symmetry_equiv_pos_site_id
_symmetry_equiv_pos_as_xyz
1 x,y,z
2 -x,1/2+y,-z
_cell_length_a 9.913(1)
_cell_length_b 7.4752(9)
_cell_length_c 13.577(2)
_cell_angle_alpha 90
_cell_angle_beta 93.488(2)
_cell_angle_gamma 90
_cell_formula_units_Z 2
loop_
_atom_type_symbol
_atom_type_radius_bond
C 0.68
H 0.23
N 0.68
O 0.68
loop_
_atom_site_label
_atom_site_type_symbol
_atom_site_fract_x
_atom_site_fract_y
_atom_site_fract_z
O1 O -0.6291(4) 0.21380 0.2541(3)
O2 O -0.6114(5) -0.4173(9) -0.3526(3)
O3 O -0.7967(4) -0.2052(9) -0.5413(3)
N1 N -0.7040(5) -0.3222(9) -0.4967(4)
C1 C -0.7567(7) 0.518(1) 0.1529(6)
C2 C -0.7676(6) 0.325(1) 0.1211(5)
C3 C -0.6408(6) 0.218(1) 0.1501(4)
C4 C -0.6449(6) 0.031(1) 0.1045(4)
C5 C -0.5233(7) -0.080(1) 0.1407(5)
C6 C -0.6527(6) 0.041(1) -0.0051(4)
C7 C -0.7482(6) -0.017(1) -0.0710(4)
C8 C -0.8760(7) -0.109(1) -0.0471(5)
C9 C -0.8747(7) 0.320(1) -0.1861(5)
C10 C -0.8491(6) 0.138(1) -0.2246(5)
C11 C -0.7353(6) 0.021(1) -0.1798(4)
C12 C -0.7418(6) -0.144(1) -0.2449(4)
C13 C -0.8606(6) -0.125(1) -0.3212(4)
C14 C -0.9149(6) 0.057(1) -0.3011(5)
C15 C -0.9546(6) -0.275(1) -0.3507(4)
C16 C -0.7126(6) -0.125(1) -0.3530(5)
C17 C -0.6448(7) 0.041(1) -0.3889(5)
C18 C -0.6720(6) -0.298(1) -0.3993(5)
C19 C -0.7406(7) -0.124(1) -0.6247(5)
C20 C -0.7121(7) -0.506(1) -0.5368(5)
H1 H -0.68310 0.57270 0.12290
H2 H -0.74220 0.52370 0.22260
H3 H -0.83810 0.57870 0.13320
H4 H -0.78280 0.32110 0.05140
H5 H -0.84200 0.27210 0.15100
H6 H -0.56490 0.27970 0.12750
H7 H -0.72390 -0.02760 0.12420
H8 H -0.53130 -0.19680 0.11420
H9 H -0.51940 -0.08560 0.21080
H10 H -0.44320 -0.02520 0.12000
H11 H -0.57790 0.09760 -0.03260
H12 H -0.92740 -0.13650 -0.10650
H13 H -0.92700 -0.03260 -0.00760
H14 H -0.85480 -0.21640 -0.01210
H15 H -0.86290 0.40620 -0.23650
H16 H -0.81290 0.34450 -0.13140
H17 H -0.96450 0.32700 -0.16570
H18 H -0.65160 0.08020 -0.18750
H19 H -0.72700 -0.25680 -0.21440
H20 H -0.98880 0.10910 -0.33860
H21 H -1.00480 -0.24470 -0.41020
H22 H -1.01500 -0.29500 -0.30010
H23 H -0.90380 -0.38060 -0.36050
H24 H -0.54990 0.03100 -0.37580
H25 H -0.67730 0.14250 -0.35560
H26 H -0.66450 0.05370 -0.45790
H27 H -0.72040 -0.21350 -0.67110
H28 H -0.66000 -0.06200 -0.60400
H29 H -0.80380 -0.04170 -0.65450
H30 H -0.79950 -0.55370 -0.52820
H31 H -0.64590 -0.57890 -0.50290
H32 H -0.69630 -0.50360 -0.60510
H33 H -0.55620 0.12270 0.26300
#END
