
#######################################################################
#
#                 Cambridge Crystallographic Data Centre
#                                CCDC
#
#######################################################################
#
# If this CIF has been generated from an entry in the Cambridge
# Structural Database, then it will include bibliographic, chemical,
# crystal, experimental, refinement or atomic coordinate data resulting
# from the CCDC's data processing and validation procedures.
#
#######################################################################

data_CSD_CIF_DAHKEC
_audit_creation_date 2000-02-17
_audit_creation_method CSD-ConQuest-V1
_database_code_CSD DAHKEC
_chemical_formula_sum 'C27 H36 N2 O6'
_chemical_formula_moiety
;
C27 H36 N2 O6
;
_journal_coden_Cambridge 4
_journal_volume 121
_journal_year 1999
_journal_page_first 589
_journal_name_full 'J.Am.Chem.Soc. '
loop_
_publ_author_name
"Dan Yang"
"Jin Qu"
"Bing Li"
"Fei-Fu Ng"
"Xue-Chao Wang"
"Kung-Kai Cheung"
"De-Ping Wang"
"Yun-Dong Wu"
_chemical_name_systematic
;
2-(Benzyloxyamido)-N-((1-t-butyloxycarbonyl)phenylethoxy)-4-methylpentanamide
;
_chemical_melting_point 351.15
_cell_volume   2731.686
_exptl_crystal_colour 'colorless'
_exptl_crystal_density_diffrn 1.178
_exptl_special_details
;
Melting point range 351.15-353.15K

;
_diffrn_ambient_temperature ?
_diffrn_special_details
;
The study was carried out at room temperature,in the range 283-303K

;
#These two values have been output from a single CSD field.
_refine_ls_R_factor_gt 0.054
_refine_ls_wR_factor_gt 0.054
_symmetry_cell_setting orthorhombic
_symmetry_space_group_name_H-M 'P 21 21 21'
_symmetry_Int_Tables_number 19
loop_
_symmetry_equiv_pos_site_id
_symmetry_equiv_pos_as_xyz
1 x,y,z
2 1/2-x,-y,1/2+z
3 1/2+x,1/2-y,-z
4 -x,1/2+y,1/2-z
_cell_length_a 5.222(6)
_cell_length_b 17.211(6)
_cell_length_c 30.394(4)
_cell_angle_alpha 90
_cell_angle_beta 90
_cell_angle_gamma 90
_cell_formula_units_Z 4
loop_
_atom_type_symbol
_atom_type_radius_bond
C 0.68
H 0.23
N 0.68
O 0.68
loop_
_atom_site_label
_atom_site_type_symbol
_atom_site_fract_x
_atom_site_fract_y
_atom_site_fract_z
O1 O 0.2297(7) 0.2778(2) 0.7358(1)
O2 O 0.5467(8) 0.3653(2) 0.7333(1)
O3 O 0.2204(7) 0.4861(2) 0.7408(1)
O4 O -0.1331(8) 0.5233(3) 0.6786(1)
O5 O 0.2235(9) 0.3405(2) 0.5729(1)
O6 O 0.5507(9) 0.4178(3) 0.5930(2)
N1 N 0.2788(10) 0.4992(3) 0.6965(1)
N2 N 0.136(1) 0.4568(3) 0.5980(2)
C1 C 0.328(1) 0.3496(3) 0.7385(2)
C2 C 0.1202(9) 0.4089(3) 0.7468(2)
C3 C 0.091(1) 0.5181(3) 0.6685(2)
C4 C 0.184(1) 0.5287(3) 0.6218(2)
C5 C 0.323(1) 0.4065(4) 0.5889(2)
C6 C 0.397(1) 0.2100(3) 0.7286(2)
C7 C 0.212(1) 0.1420(4) 0.7257(3)
C8 C 0.542(2) 0.2185(4) 0.6862(3)
C9 C 0.573(1) 0.1987(4) 0.7674(3)
C10 C 0.016(1) 0.4054(3) 0.7939(2)
C11 C 0.216(1) 0.4054(4) 0.8297(2)
C12 C 0.265(2) 0.3389(4) 0.8528(2)
C13 C 0.452(2) 0.3398(5) 0.8863(3)
C14 C 0.577(2) 0.4043(7) 0.8957(3)
C15 C 0.534(2) 0.4707(5) 0.8731(2)
C16 C 0.351(1) 0.4713(4) 0.8404(2)
C17 C 0.057(1) 0.5990(3) 0.6009(2)
C18 C 0.168(2) 0.6274(7) 0.5590(4)
C19 C 0.028(3) 0.7002(7) 0.5428(4)
C20 C 0.319(4) 0.5973(7) 0.5322(4)
C21 C 0.401(1) 0.2801(4) 0.5608(2)
C22 C 0.256(1) 0.2052(3) 0.5571(2)
C23 C 0.053(1) 0.1893(4) 0.5843(2)
C24 C -0.077(2) 0.1199(5) 0.5811(3)
C25 C -0.006(2) 0.0652(4) 0.5512(3)
C26 C 0.195(2) 0.0797(4) 0.5235(3)
C27 C 0.329(2) 0.1505(4) 0.5264(2)
H1 H 0.46(2) 0.484(4) 0.688(2)
H2 H -0.01(2) 0.442(5) 0.598(3)
H3 H -0.01630 0.40060 0.72660
H4 H 0.36290 0.53740 0.62260
H5 H 0.11790 0.13800 0.75230
H6 H 0.09760 0.15020 0.70180
H7 H 0.30570 0.09540 0.72090
H8 H 0.64840 0.17420 0.68210
H9 H 0.42500 0.22260 0.66250
H10 H 0.64540 0.26380 0.68750
H11 H 0.47260 0.19040 0.79330
H12 H 0.67870 0.15490 0.76250
H13 H 0.67500 0.24370 0.77130
H14 H -0.09090 0.44920 0.79830
H15 H -0.08180 0.35920 0.79670
H16 H 0.17550 0.29260 0.84640
H17 H 0.48970 0.29340 0.90220
H18 H 0.69670 0.40400 0.91890
H19 H 0.62890 0.51620 0.87980
H20 H 0.31780 0.51810 0.82500
H21 H -0.12030 0.58820 0.59830
H22 H 0.08190 0.64180 0.62020
H23 H 0.01720 0.59420 0.54300
H24 H 0.16110 0.73850 0.54050
H25 H -0.05160 0.69410 0.51520
H26 H -0.09150 0.71630 0.56420
H27 H 0.37210 0.54870 0.54360
H28 H 0.23320 0.58760 0.50420
H29 H 0.44600 0.63230 0.52930
H30 H 0.47830 0.29270 0.53340
H31 H 0.52970 0.27580 0.58280
H32 H 0.00100 0.22660 0.60540
H33 H -0.21680 0.10990 0.59990
H34 H -0.09630 0.01740 0.54940
H35 H 0.24390 0.04150 0.50250
H36 H 0.46780 0.16060 0.50710
#END
