
#######################################################################
#
#                 Cambridge Crystallographic Data Centre
#                                CCDC
#
#######################################################################
#
# If this CIF has been generated from an entry in the Cambridge
# Structural Database, then it will include bibliographic, chemical,
# crystal, experimental, refinement or atomic coordinate data resulting
# from the CCDC's data processing and validation procedures.
#
#######################################################################

data_CSD_CIF_DAHNEG
_audit_creation_date 2005-04-12
_audit_creation_method CSD-ConQuest-V1
_database_code_CSD DAHNEG
_database_code_depnum_ccdc_archive 'CCDC 240538'
_chemical_formula_sum 'C18 H22 N5 O3'
_chemical_formula_moiety
;
C18 H22 N5 O3
;
_journal_coden_Cambridge 1278
_journal_volume 108
_journal_year 2004
_journal_page_first 16606
_journal_name_full 'J.Phys.Chem.B '
loop_
_publ_author_name
"D.Shiomi"
"M.Nozaki"
"T.Ise"
"K.Sato"
"T.Takui"
_chemical_name_systematic
;
4-Amino-1-(3-(1-oxyl-3-oxido-4,4,5,5-tetramethylimidazolidin-2-yl)benzyl)-1H-p
yrimidin-2-one
;
_cell_volume   1895.020
_exptl_crystal_colour 'blue'
_exptl_crystal_density_diffrn 1.249
_exptl_crystal_description 'needle'
_exptl_crystal_preparation 'methanol'
_diffrn_ambient_temperature 193.1
_refine_special_details
;
The phenylnitronylnitroxide moiety in one molecule is disordered over two 
sites.
;
#These two values have been output from a single CSD field.
_refine_ls_R_factor_gt 0.121
_refine_ls_wR_factor_gt 0.121
_symmetry_cell_setting triclinic
_symmetry_space_group_name_H-M 'P -1'
_symmetry_Int_Tables_number 2
loop_
_symmetry_equiv_pos_site_id
_symmetry_equiv_pos_as_xyz
1 x,y,z
2 -x,-y,-z
_cell_length_a 6.9780(1)
_cell_length_b 14.5287(10)
_cell_length_c 20.0342(11)
_cell_angle_alpha 78.023(8)
_cell_angle_beta 75.20(2)
_cell_angle_gamma 78.00(2)
_cell_formula_units_Z 4
loop_
_atom_type_symbol
_atom_type_radius_bond
C 0.68
H 0.23
N 0.68
O 0.68
loop_
_atom_site_label
_atom_site_type_symbol
_atom_site_fract_x
_atom_site_fract_y
_atom_site_fract_z
O1 O 1.3953(7) 0.1322(3) -0.0254(3)
O2 O 1.0465(11) 0.4376(4) -0.0636(4)
O3 O 0.7485(7) -0.0158(4) 0.2334(3)
O4 O 0.7964(10) 0.4476(4) 0.4587(4)
O5 O 1.206(2) 0.5999(11) 0.2699(9)
O6? O 1.065(2) 0.6151(8) 0.2409(6)
O7 O 1.1683(8) 0.1187(4) 0.5156(3)
N1 N 1.3518(9) 0.2208(4) -0.0474(3)
N2 N 1.1866(11) 0.3667(5) -0.0641(4)
N3 N 0.5639(8) 0.0170(4) 0.1507(3)
N4 N 0.4168(8) -0.0301(4) 0.2710(3)
N5 N 0.0829(8) -0.0398(4) 0.3043(3)
N6 N 0.8609(12) 0.5137(5) 0.4113(4)
N7? N 0.970(2) 0.5940(7) 0.3049(6)
N8 N 1.070(2) 0.5862(9) 0.3288(7)
N9 N 0.9900(8) 0.1381(4) 0.4320(3)
N10 N 0.8393(8) 0.0997(4) 0.5521(3)
N11 N 0.5090(9) 0.0805(4) 0.5853(3)
C1 C 0.8813(13) 0.3180(6) 0.0674(5)
C2 C 0.717(1) 0.2924(6) 0.1168(5)
C3 C 0.6730(11) 0.2008(6) 0.1282(5)
C4 C 0.7901(10) 0.1344(5) 0.0883(4)
C5 C 0.958(1) 0.1596(5) 0.0380(3)
C6 C 1.0043(11) 0.2506(5) 0.0266(4)
C7 C 1.1787(11) 0.2776(5) -0.0264(4)
C8 C 1.398(1) 0.3765(5) -0.1018(4)
C9 C 1.4873(12) 0.2706(5) -0.1097(4)
C10 C 1.400(2) 0.4439(7) -0.1723(5)
C11 C 1.488(2) 0.4138(7) -0.0547(6)
C12 C 1.7031(13) 0.2396(8) -0.1059(5)
C13 C 1.449(2) 0.2428(6) -0.1752(4)
C14 C 0.742(1) 0.0366(5) 0.0958(4)
C15 C 0.5813(10) -0.0098(5) 0.2216(4)
C16 C 0.2402(10) -0.0199(4) 0.2531(3)
C17 C 0.2165(10) 0.0138(5) 0.1832(4)
C18 C 0.3807(10) 0.0290(5) 0.1346(4)
C19 C 1.398(2) 0.4104(13) 0.3279(9)
C20 C 1.537(2) 0.3324(10) 0.3139(8)
C21 C 1.445(2) 0.2471(11) 0.3264(8)
C22 C 1.251(2) 0.2405(9) 0.3585(7)
C23 C 1.079(2) 0.3290(6) 0.3642(6)
C24 C 1.196(2) 0.4117(10) 0.3566(7)
C25 C 1.057(2) 0.4986(10) 0.3681(7)
C26 C 0.7627(11) 0.6144(5) 0.4109(4)
C27 C 0.9190(11) 0.6661(5) 0.3549(4)
C28 C 0.566(2) 0.6230(13) 0.3912(8)
C29 C 0.729(2) 0.6366(7) 0.4838(5)
C30 C 1.069(2) 0.6943(11) 0.3828(7)
C31 C 0.841(2) 0.7520(8) 0.3078(6)
C32 C 1.1719(11) 0.1503(5) 0.3755(4)
C33 C 1.0038(10) 0.1179(5) 0.5023(4)
C34 C 0.6671(10) 0.1013(4) 0.5334(4)
C35 C 0.6501(11) 0.1222(6) 0.4621(4)
C36 C 0.8163(11) 0.1385(5) 0.4141(4)
C37? C 1.067(2) 0.4179(10) 0.2357(7)
C38? C 1.145(2) 0.3336(11) 0.2112(9)
C39? C 1.165(2) 0.2472(11) 0.2602(8)
C40? C 1.126(2) 0.2469(8) 0.3302(6)
C41? C 1.017(2) 0.4191(8) 0.3099(6)
C42? C 0.942(2) 0.5070(9) 0.3400(7)
H1 H 0.91270 0.38030 0.06050
H2 H 0.63320 0.33830 0.14360
H3 H 0.56020 0.18460 0.16380
H4 H 1.04050 0.11390 0.01070
H5 H 1.40770 0.40810 -0.20780
H6 H 1.51450 0.47480 -0.18370
H7 H 1.28130 0.49000 -0.16870
H8 H 1.46160 0.48150 -0.06430
H9 H 1.62850 0.39230 -0.06240
H10 H 1.42620 0.39260 -0.00740
H11 H 1.73920 0.28090 -0.08180
H12 H 1.78480 0.24220 -0.15190
H13 H 1.72090 0.17620 -0.08130
H14 H 1.53750 0.18600 -0.18580
H15 H 1.47190 0.29260 -0.21390
H16 H 1.31390 0.23250 -0.16590
H17 H 0.85360 -0.00900 0.10640
H18 H 0.71970 0.02960 0.05240
H19 H 0.37080 0.04880 0.08720
H20 H 0.08860 0.02490 0.17180
H21 H 0.09910 -0.06230 0.35080
H22 H -0.04600 -0.03090 0.29410
H23 H 0.58090 0.63960 0.34190
H24 H 0.47660 0.67230 0.41330
H25 H 0.51290 0.56510 0.40700
H26 H 0.60000 0.62370 0.50950
H27 H 0.73510 0.70190 0.48140
H28 H 0.82890 0.59790 0.50650
H29 H 1.08390 0.65310 0.42530
H30 H 1.02360 0.75800 0.39150
H31 H 1.19410 0.69080 0.35000
H32 H 0.94910 0.78430 0.28230
H33 H 0.74200 0.79370 0.33460
H34 H 0.78300 0.73210 0.27620
H35 H 1.44540 0.46980 0.31670
H36 H 1.67730 0.33340 0.29740
H37 H 1.52750 0.19110 0.31160
H38? H 1.04520 0.47560 0.20420
H39? H 1.18610 0.33210 0.16240
H40? H 1.20730 0.18790 0.24370
H41 H 0.81170 0.15140 0.36600
H42 H 0.52710 0.12230 0.44990
H43 H 0.52190 0.06810 0.63250
H44 H 0.38520 0.07770 0.57480
#END
