
#######################################################################
#
#                 Cambridge Crystallographic Data Centre
#                                CCDC
#
#######################################################################
#
# If this CIF has been generated from an entry in the Cambridge
# Structural Database, then it will include bibliographic, chemical,
# crystal, experimental, refinement or atomic coordinate data resulting
# from the CCDC's data processing and validation procedures.
#
#######################################################################

data_CSD_CIF_DAJKUW
_audit_creation_date 2011-12-21
_audit_creation_method CSD-ConQuest-V1
_database_code_CSD DAJKUW
_database_code_depnum_ccdc_archive 'CCDC 849806'
_chemical_formula_sum 'C24 H24 N2 O8'
_chemical_formula_moiety
;
C24 H24 N2 O8
;
_journal_coden_Cambridge 1336
_journal_volume 13
_journal_year 2011
_journal_page_first 5088
_journal_name_full 'Org.Lett. '
loop_
_publ_author_name
"Biao-Lin Yin"
"Ze-Ren Zhang"
"Li-Wen Xu"
"Huanfeng Jiang"
_chemical_name_systematic
;
7-(Acetoxymethyl)-4-(3-nitrophenyl)-2-phenyl-4a,6,7,8a-tetrahydro-4H,5H-pyrano
[3,2-e][1,3]oxazin-6-yl acetate
;
_cell_volume   1170.058
_exptl_crystal_colour 'colorless'
_exptl_crystal_density_diffrn 1.33
_exptl_crystal_description 'block'
_diffrn_ambient_temperature 293
#These two values have been output from a single CSD field.
_refine_ls_R_factor_gt 0.0525
_refine_ls_wR_factor_gt 0.0525
_symmetry_cell_setting monoclinic
_symmetry_space_group_name_H-M 'P 21'
_symmetry_Int_Tables_number 4
loop_
_symmetry_equiv_pos_site_id
_symmetry_equiv_pos_as_xyz
1 x,y,z
2 -x,1/2+y,-z
_cell_length_a 11.367(2)
_cell_length_b 9.0168(18)
_cell_length_c 11.449(2)
_cell_angle_alpha 90
_cell_angle_beta 94.36(3)
_cell_angle_gamma 90
_cell_formula_units_Z 2
loop_
_atom_type_symbol
_atom_type_radius_bond
C 0.68
H 0.23
N 0.68
O 0.68
loop_
_atom_site_label
_atom_site_type_symbol
_atom_site_fract_x
_atom_site_fract_y
_atom_site_fract_z
O1 O 0.6663(4) 0.0909(5) 0.9855(3)
O2 O 0.5847(4) -0.1011(5) 1.0595(3)
O3 O 0.3078(3) 0.3703(3) 0.4349(2)
O4 O 0.2545(3) 0.5397(3) 0.5694(2)
O5 O 0.0158(3) 0.3126(3) 0.6689(3)
O6 O 0.0364(3) 0.2463(5) 0.8572(3)
O7 O 0.0896(3) 0.6679(3) 0.7174(3)
O8 O 0.0280(4) 0.8956(4) 0.6728(4)
N1 N 0.5959(4) -0.0113(6) 0.9801(4)
N2 N 0.4006(3) 0.1419(4) 0.4819(3)
C1 C 0.3091(3) 0.1873(5) 0.2897(3)
C2 C 0.2158(4) 0.2441(7) 0.0987(4)
H1 H 0.17150 0.30850 0.04960
C3 C 0.2428(4) 0.2807(5) 0.2148(4)
H2 H 0.21590 0.37010 0.24330
C4 C 0.2550(5) 0.1116(6) 0.0564(4)
H3 H 0.23770 0.08660 -0.02190
C5 C 0.3193(5) 0.0167(6) 0.1290(4)
H4 H 0.34430 -0.07350 0.10020
C6 C 0.3476(4) 0.0536(6) 0.2448(4)
H5 H 0.39260 -0.01110 0.29310
C7 C 0.4461(3) 0.0631(5) 0.6855(3)
C8 C 0.3878(4) -0.0708(5) 0.6637(4)
H6 H 0.34340 -0.08520 0.59290
C9 C 0.3956(4) -0.1834(6) 0.7469(5)
H7 H 0.35570 -0.27230 0.73190
C10 C 0.4621(5) -0.1639(5) 0.8513(4)
H8 H 0.46690 -0.23810 0.90790
C11 C 0.5210(4) -0.0325(5) 0.8698(4)
C12 C 0.5141(3) 0.0808(5) 0.7895(3)
H9 H 0.55500 0.16880 0.80520
C13 C 0.3444(4) 0.2300(5) 0.4108(3)
C14 C 0.4327(4) 0.1929(5) 0.6012(3)
H10 H 0.50960 0.24200 0.60120
C15 C 0.3434(3) 0.3082(5) 0.6409(3)
H11 H 0.37380 0.34960 0.71640
C16 C 0.3388(4) 0.4297(5) 0.5506(3)
H12 H 0.41670 0.47630 0.55130
C17 C 0.1360(4) 0.4847(4) 0.5790(4)
H13 H 0.10800 0.43840 0.50460
C18 C 0.1363(4) 0.3698(4) 0.6748(4)
H14 H 0.15650 0.41570 0.75120
C19 C 0.2211(3) 0.2438(5) 0.6542(3)
H15 H 0.19420 0.18980 0.58400
H16 H 0.22410 0.17550 0.71990
C20 C -0.0239(5) 0.2552(5) 0.7670(5)
C21 C -0.1462(4) 0.2029(6) 0.7457(5)
H17 H -0.17240 0.16180 0.81660
H18 H -0.15000 0.12820 0.68580
H19 H -0.19620 0.28460 0.72080
C22 C 0.0608(4) 0.6187(5) 0.5988(4)
H20 H 0.07690 0.69670 0.54390
H21 H -0.02220 0.59300 0.58770
C23 C 0.0665(4) 0.8079(5) 0.7445(4)
C24 C 0.0977(5) 0.8384(7) 0.8693(5)
H22 H 0.08030 0.94010 0.88590
H23 H 0.18030 0.82030 0.88710
H24 H 0.05280 0.77470 0.91630
#END
