
#######################################################################
#
#                 Cambridge Crystallographic Data Centre
#                                CCDC
#
#######################################################################
#
# If this CIF has been generated from an entry in the Cambridge
# Structural Database, then it will include bibliographic, chemical,
# crystal, experimental, refinement or atomic coordinate data resulting
# from the CCDC's data processing and validation procedures.
#
#######################################################################

data_CSD_CIF_DAJVUG
_audit_creation_date 2005-04-12
_audit_creation_method CSD-ConQuest-V1
_database_code_CSD DAJVUG
_database_code_depnum_ccdc_archive 'CCDC 222151'
_chemical_formula_sum 'C6 H4 N6 O4'
_chemical_formula_moiety
;
C6 H4 N6 O4
;
_journal_coden_Cambridge 1093
_journal_volume 15
_journal_year 2004
_journal_page_first 131
_journal_name_full 'Heteroat.Chem. '
loop_
_publ_author_name
"A.B.Sheremetev"
"E.V.Shatunova"
"B.B.Averkiev"
"D.E.Dmitriev"
"V.A.Petukhov"
"M.Yu.Antipin"
_chemical_name_systematic
;
5,6-Dihydrobis(1,2,5)oxadiazolo(3,4-b:3',4'-f)(1,8,4,5)dioxadiazecine
;
_chemical_melting_point 391.15
_cell_volume   1738.765
_exptl_crystal_colour 'red'
_exptl_crystal_density_diffrn 1.713
_exptl_special_details
;
Melting point range 391.15-393.15K
low temperature monoclinic polymorph

;
_exptl_crystal_description 'prism'
_diffrn_ambient_temperature 110
#These two values have been output from a single CSD field.
_refine_ls_R_factor_gt 0.0553
_refine_ls_wR_factor_gt 0.0553
_symmetry_cell_setting monoclinic
_symmetry_space_group_name_H-M 'P 21/c'
_symmetry_Int_Tables_number 14
loop_
_symmetry_equiv_pos_site_id
_symmetry_equiv_pos_as_xyz
1 x,y,z
2 x,1/2-y,1/2+z
3 -x,-y,-z
4 -x,-1/2+y,-1/2-z
_cell_length_a 20.528(7)
_cell_length_b 11.794(4)
_cell_length_c 7.187(2)
_cell_angle_alpha 90
_cell_angle_beta 92.180(8)
_cell_angle_gamma 90
_cell_formula_units_Z 8
loop_
_atom_type_symbol
_atom_type_radius_bond
C 0.68
H 0.23
N 0.68
O 0.68
loop_
_atom_site_label
_atom_site_type_symbol
_atom_site_fract_x
_atom_site_fract_y
_atom_site_fract_z
C1 C 0.35255(12) 0.4978(2) -0.0457(3)
H1 H 0.3580(15) 0.542(3) -0.152(5)
O1 O 0.28303(8) 0.51039(14) -0.0120(2)
H2 H 0.3616(15) 0.413(3) -0.069(4)
C2 C 0.25249(11) 0.42668(19) 0.0752(3)
H3 H 0.3749(12) 0.543(2) 0.226(4)
N1 N 0.18936(9) 0.41443(17) 0.0590(3)
H4 H 0.4156(13) 0.615(3) 0.081(4)
O2 O 0.17638(8) 0.32062(14) 0.1725(2)
N2 N 0.23197(9) 0.27896(17) 0.2610(3)
C3 C 0.27859(10) 0.34345(18) 0.2023(3)
N3 N 0.34516(9) 0.34472(15) 0.2458(2)
N4 N 0.36540(9) 0.31661(17) 0.4065(3)
C4 C 0.43251(11) 0.34341(19) 0.4160(3)
N5 N 0.47043(10) 0.30509(18) 0.5514(3)
O3 O 0.53147(8) 0.34452(16) 0.5141(3)
N6 N 0.53044(10) 0.41216(19) 0.3544(3)
C5 C 0.46986(11) 0.4123(2) 0.2927(3)
O4 O 0.45424(8) 0.46445(16) 0.1328(2)
C6 C 0.39742(12) 0.5390(2) 0.1163(4)
C7 C -0.08473(12) -0.0602(2) -0.1479(4)
H5 H -0.1116(12) -0.073(2) -0.262(4)
O5 O -0.02553(8) 0.00238(15) -0.1922(2)
H6 H -0.0679(14) -0.131(3) -0.091(4)
C8 C -0.02984(11) 0.08176(19) -0.3233(3)
H7 H -0.1153(13) -0.032(2) 0.121(4)
N7 N 0.02185(9) 0.11831(17) -0.4059(3)
H8 H -0.1165(13) 0.075(3) -0.007(4)
O6 O -0.00121(8) 0.20328(14) -0.5284(2)
N8 N -0.06756(10) 0.21946(17) -0.5142(3)
C9 C -0.08528(11) 0.14600(19) -0.3898(3)
N9 N -0.14544(9) 0.12520(16) -0.3138(2)
N10 N -0.18347(9) 0.20758(16) -0.2904(3)
C10 C -0.2331(1) 0.16650(18) -0.1778(3)
N11 N -0.28635(9) 0.22476(17) -0.1578(3)
O7 O -0.32294(8) 0.16219(15) -0.0395(2)
N12 N -0.28993(10) 0.06424(17) 0.0198(3)
C11 C -0.23463(11) 0.06595(19) -0.0630(3)
O8 O -0.19331(8) -0.02146(14) -0.0387(2)
C12 C -0.12402(11) -0.0006(2) -0.0002(3)
#END
