
#######################################################################
#
#                 Cambridge Crystallographic Data Centre
#                                CCDC
#
#######################################################################
#
# If this CIF has been generated from an entry in the Cambridge
# Structural Database, then it will include bibliographic, chemical,
# crystal, experimental, refinement or atomic coordinate data resulting
# from the CCDC's data processing and validation procedures.
#
#######################################################################

data_CSD_CIF_DAJWIV
_audit_creation_date 2005-04-12
_audit_creation_method CSD-ConQuest-V1
_database_code_CSD DAJWIV
_database_code_depnum_ccdc_archive 'CCDC 222154'
_chemical_formula_sum 'C6 H6 N6 O4'
_chemical_formula_moiety
;
C6 H6 N6 O4
;
_journal_coden_Cambridge 1093
_journal_volume 15
_journal_year 2004
_journal_page_first 131
_journal_name_full 'Heteroat.Chem. '
loop_
_publ_author_name
"A.B.Sheremetev"
"E.V.Shatunova"
"B.B.Averkiev"
"D.E.Dmitriev"
"V.A.Petukhov"
"M.Yu.Antipin"
_chemical_name_systematic
;
3-Methoxy-4-((E)-(4-methoxy-1,2,5-oxadiazol-3-yl)diazenyl)-1,2,5-oxadiazole
;
_cell_volume    230.162
_exptl_crystal_colour 'colorless'
_exptl_crystal_density_diffrn 1.632
_exptl_crystal_description 'prism'
_diffrn_ambient_temperature 110
#These two values have been output from a single CSD field.
_refine_ls_R_factor_gt 0.0481
_refine_ls_wR_factor_gt 0.0481
_symmetry_cell_setting triclinic
_symmetry_space_group_name_H-M 'P -1'
_symmetry_Int_Tables_number 2
loop_
_symmetry_equiv_pos_site_id
_symmetry_equiv_pos_as_xyz
1 x,y,z
2 -x,-y,-z
_cell_length_a 4.246(4)
_cell_length_b 7.190(6)
_cell_length_c 7.830(7)
_cell_angle_alpha 85.551(13)
_cell_angle_beta 78.569(15)
_cell_angle_gamma 79.500(15)
_cell_formula_units_Z 1
loop_
_atom_type_symbol
_atom_type_radius_bond
C 0.68
H 0.23
N 0.68
O 0.68
loop_
_atom_site_label
_atom_site_type_symbol
_atom_site_fract_x
_atom_site_fract_y
_atom_site_fract_z
C1 C -0.1342(7) -1.0639(3) -0.7211(4)
H1 H -0.00680 -1.14440 -0.64330
H2 H 0.00260 -1.05260 -0.83670
H3 H -0.32250 -1.12070 -0.73100
O1 O -0.2464(4) -0.8775(2) -0.6506(2)
C2 C -0.4471(5) -0.7612(3) -0.7350(3)
N1 N -0.5382(5) -0.7988(3) -0.8746(3)
O2 O -0.7550(4) -0.6377(3) -0.9125(2)
N2 N -0.7918(5) -0.5033(3) -0.7937(3)
C3 C -0.6024(5) -0.5755(3) -0.6843(3)
N3 N -0.5956(4) -0.4612(2) -0.5480(2)
N3A N -0.4044(4) -0.5388(2) -0.4520(2)
C3A C -0.3976(5) -0.4245(3) -0.3157(3)
C2A C -0.5529(5) -0.2388(3) -0.2650(3)
O1A O -0.7536(4) -0.1225(2) -0.3494(2)
C1A C -0.8658(7) 0.0639(3) -0.2789(4)
H1A H -0.99320 0.14440 -0.35670
H2A H -1.00260 0.05260 -0.16330
H3A H -0.67750 0.12070 -0.26900
N1A N -0.4618(5) -0.2012(3) -0.1254(3)
O2A O -0.2450(4) -0.3623(3) -0.0875(2)
N2A N -0.2082(5) -0.4967(3) -0.2063(3)
#END
