
#######################################################################
#
#                 Cambridge Crystallographic Data Centre
#                                CCDC
#
#######################################################################
#
# If this CIF has been generated from an entry in the Cambridge
# Structural Database, then it will include bibliographic, chemical,
# crystal, experimental, refinement or atomic coordinate data resulting
# from the CCDC's data processing and validation procedures.
#
#######################################################################

data_CSD_CIF_DAJXUH
_audit_creation_date 1986-04-23
_audit_creation_method CSD-ConQuest-V1
_database_code_CSD DAJXUH
_chemical_formula_sum 'C7 H4 N2 O6'
_chemical_formula_moiety
;
C7 H4 N2 O6
;
_journal_coeditor_code "IUCr A24934"
_journal_coden_Cambridge 591
_journal_volume 41
_journal_year 1985
_journal_page_first 1224
_journal_name_full 'Acta Crystallogr.,Sect.C:Cryst.Struct.Commun. '
loop_
_publ_author_name
"S.J.Grabowski"
"T.M.Krygowski"
_chemical_name_systematic
;
2,5-Dinitrobenzoic acid
;
_cell_volume   1635.353
_exptl_crystal_colour 'pale yellow'
_exptl_special_details
;
dx given as 1.681, we find 1.72

;
_diffrn_ambient_temperature ?
_diffrn_special_details
;
The study was carried out at room temperature,in the range 283-303K

;
#These two values have been output from a single CSD field.
_refine_ls_R_factor_gt 0.0359
_refine_ls_wR_factor_gt 0.0359
_symmetry_cell_setting monoclinic
_symmetry_space_group_name_H-M 'C 2/c'
_symmetry_Int_Tables_number 15
loop_
_symmetry_equiv_pos_site_id
_symmetry_equiv_pos_as_xyz
1 x,y,z
2 1/2+x,1/2+y,z
3 -x,y,1/2-z
4 1/2-x,1/2+y,1/2-z
5 -x,-y,-z
6 -1/2-x,-1/2-y,-z
7 x,-y,-1/2+z
8 -1/2+x,-1/2-y,-1/2+z
_cell_length_a 12.5512(9)
_cell_length_b 11.8834(9)
_cell_length_c 11.5880(9)
_cell_angle_alpha 90
_cell_angle_beta 108.882(6)
_cell_angle_gamma 90
_cell_formula_units_Z 8
loop_
_atom_type_symbol
_atom_type_radius_bond
C 0.68
H 0.23
N 0.68
O 0.68
loop_
_atom_site_label
_atom_site_type_symbol
_atom_site_fract_x
_atom_site_fract_y
_atom_site_fract_z
C1 C 0.2723(2) 0.3980(2) 0.5616(2)
C2 C 0.1621(2) 0.4075(2) 0.4829(2)
C3 C 0.0722(2) 0.3576(2) 0.5061(2)
C4 C 0.0913(2) 0.2952(2) 0.6117(2)
C5 C 0.1991(2) 0.2879(2) 0.6916(2)
C6 C 0.2894(2) 0.3372(2) 0.6689(2)
C7 C 0.3713(2) 0.4451(2) 0.5344(2)
N1 N 0.1356(2) 0.4740(2) 0.3700(2)
N2 N 0.2198(2) 0.2237(2) 0.8059(2)
O1 O 0.3564(1) 0.4970(2) 0.4371(2)
O2 O 0.4667(2) 0.4263(2) 0.6111(2)
O3 O 0.1285(2) 0.4250(2) 0.2759(2)
O4 O 0.1178(2) 0.5736(2) 0.3777(2)
O5 O 0.3105(2) 0.2357(2) 0.8853(2)
O6 O 0.1441(2) 0.1626(2) 0.8138(2)
H1 H 0.5461(52) 0.4596(44) 0.5927(45)
H2 H 0.0004(22) 0.3642(21) 0.4461(23)
H3 H 0.0291(21) 0.2554(21) 0.6277(21)
H4 H 0.360(2) 0.3305(19) 0.7237(21)
#END
