
#######################################################################
#
#                 Cambridge Crystallographic Data Centre
#                                CCDC
#
#######################################################################
#
# If this CIF has been generated from an entry in the Cambridge
# Structural Database, then it will include bibliographic, chemical,
# crystal, experimental, refinement or atomic coordinate data resulting
# from the CCDC's data processing and validation procedures.
#
#######################################################################

data_CSD_CIF_DAKDEB
_audit_creation_date 2016-12-13
_audit_creation_method CSD-ConQuest-V1
_database_code_CSD DAKDEB
_database_code_depnum_ccdc_archive 'CCDC 1486077'
_chemical_formula_sum 'C5 H3 N5 O6'
_chemical_formula_moiety
;
C5 H3 N5 O6
;
_journal_coden_Cambridge 24
_journal_volume 57
_journal_year 2016
_journal_page_first 4268
_journal_name_full 'Tetrahedron Lett. '
loop_
_publ_author_name
"L.L.Fershtat"
"M.A.Epishina"
"A.A.Larin"
"A.S.Kulikov"
"I.V.Ovchinnikov"
"I.V.Ananyev"
"N.N.Makhova"
_chemical_name_systematic
;
3-methyl-3'-nitro-4,4'-bi-1,2,5-oxadiazole 2,2'-dioxide
;
_cell_volume    864.669
_exptl_crystal_colour 'colorless'
_exptl_crystal_density_diffrn 1.76
_exptl_crystal_description 'prism'
_diffrn_ambient_temperature 120
_refine_special_details
;
C1,C5,N1,N2,N3,O1,O2,O3,O5 and C1',C5',N1',N2',N3',O1',O2',O3',O5' disordered 
over two sites with occupancies 0.534:0.466.
;
#These two values have been output from a single CSD field.
_refine_ls_R_factor_gt 0.0521
_refine_ls_wR_factor_gt 0.0521
_symmetry_cell_setting orthorhombic
_symmetry_space_group_name_H-M 'P 21 21 21'
_symmetry_Int_Tables_number 19
loop_
_symmetry_equiv_pos_site_id
_symmetry_equiv_pos_as_xyz
1 x,y,z
2 1/2-x,-y,1/2+z
3 -x,1/2+y,1/2-z
4 1/2+x,1/2-y,-z
_cell_length_a 8.4391(9)
_cell_length_b 9.9494(11)
_cell_length_c 10.2981(11)
_cell_angle_alpha 90
_cell_angle_beta 90
_cell_angle_gamma 90
_cell_formula_units_Z 4
loop_
_atom_type_symbol
_atom_type_radius_bond
C 0.68
H 0.23
N 0.68
O 0.68
loop_
_atom_site_label
_atom_site_type_symbol
_atom_site_fract_x
_atom_site_fract_y
_atom_site_fract_z
O1 O 1.1982(8) 0.1737(7) -0.2908(6)
O2 O 1.1618(7) -0.0162(6) -0.1807(6)
O3 O 1.0693(11) 0.3843(7) -0.1521(7)
O4 O 0.9145(3) 0.3294(2) 0.01939(19)
O5 O 0.757(3) -0.098(3) 0.3761(11)
O6 O 0.9238(3) 0.0741(2) 0.32343(17)
N1 N 1.144(4) 0.126(1) -0.1921(18)
N2 N 1.1262(9) -0.0351(7) -0.0536(6)
N3 N 1.007(3) 0.3046(10) -0.073(2)
N4 N 0.8404(3) -0.0459(3) 0.2804(2)
N5 N 1.0033(3) 0.1245(3) 0.2189(2)
C1 C 1.0673(14) 0.1715(7) -0.0877(9)
C2 C 1.0479(3) 0.0624(3) -0.0049(2)
C3 C 0.9728(3) 0.0442(3) 0.1216(2)
C4 C 0.8726(3) -0.0635(3) 0.1566(3)
C5 C 0.792(3) -0.1669(18) 0.076(2)
H1 H 0.81110 -0.25620 0.11280
H2 H 0.83430 -0.16380 -0.01300
H3 H 0.67800 -0.14900 0.07380
O7? O 1.1894(9) 0.2241(8) -0.2828(7)
O8? O 1.1879(8) 0.0192(7) -0.1721(7)
O9? O 1.0599(12) 0.4160(8) -0.1260(8)
O10? O 0.760(4) -0.112(3) 0.3466(14)
N6? N 1.151(4) 0.1587(12) -0.188(2)
N7? N 1.0974(10) -0.0494(7) -0.0695(7)
N8? N 1.021(3) 0.3200(12) -0.060(3)
C6? C 1.0713(16) 0.1882(8) -0.0766(10)
C7? C 0.807(3) -0.184(2) 0.088(3)
H4? H 0.72820 -0.22780 0.14350
H5? H 0.89350 -0.24730 0.06960
H6? H 0.75770 -0.15600 0.00650
#END
