
#######################################################################
#
#                 Cambridge Crystallographic Data Centre
#                                CCDC
#
#######################################################################
#
# If this CIF has been generated from an entry in the Cambridge
# Structural Database, then it will include bibliographic, chemical,
# crystal, experimental, refinement or atomic coordinate data resulting
# from the CCDC's data processing and validation procedures.
#
#######################################################################

data_CSD_CIF_DAKHAB
_audit_creation_date 2016-12-13
_audit_creation_method CSD-ConQuest-V1
_database_code_CSD DAKHAB
_database_code_depnum_ccdc_archive 'CCDC 1495288'
_chemical_formula_sum 'C10 H5 N5 O6'
_chemical_formula_moiety
;
C10 H5 N5 O6
;
_journal_coden_Cambridge 24
_journal_volume 57
_journal_year 2016
_journal_page_first 4268
_journal_name_full 'Tetrahedron Lett. '
loop_
_publ_author_name
"L.L.Fershtat"
"M.A.Epishina"
"A.A.Larin"
"A.S.Kulikov"
"I.V.Ovchinnikov"
"I.V.Ananyev"
"N.N.Makhova"
_chemical_name_systematic
;
3'-nitro-4-phenyl-3,4'-bi-1,2,5-oxadiazolium 2,2'-dioxide
;
_cell_volume   1154.534
_exptl_crystal_colour 'colorless'
_exptl_crystal_density_diffrn 1.675
_exptl_crystal_description 'prism'
_diffrn_ambient_temperature 120
#These two values have been output from a single CSD field.
_refine_ls_R_factor_gt 0.0519
_refine_ls_wR_factor_gt 0.0519
_symmetry_cell_setting triclinic
_symmetry_space_group_name_H-M 'P -1'
_symmetry_Int_Tables_number 2
loop_
_symmetry_equiv_pos_site_id
_symmetry_equiv_pos_as_xyz
1 x,y,z
2 -x,-y,-z
_cell_length_a 10.0868(11)
_cell_length_b 10.8308(12)
_cell_length_c 12.4779(13)
_cell_angle_alpha 98.352(2)
_cell_angle_beta 110.577(2)
_cell_angle_gamma 108.906(2)
_cell_formula_units_Z 4
loop_
_atom_type_symbol
_atom_type_radius_bond
C 0.68
H 0.23
N 0.68
O 0.68
loop_
_atom_site_label
_atom_site_type_symbol
_atom_site_fract_x
_atom_site_fract_y
_atom_site_fract_z
O1 O 0.74473(17) 0.27708(14) 0.24155(13)
O2 O 0.65689(16) 0.40861(14) 0.13243(12)
O3 O 0.70876(16) 0.74888(14) 0.43844(12)
O4 O 0.46847(16) 0.75094(13) 0.37940(12)
O5 O 0.69839(17) 0.31821(14) 0.44860(13)
O6 O 0.5447(2) 0.42149(16) 0.44521(14)
N1 N 0.68066(19) 0.35522(16) 0.23445(15)
N2 N 0.5865(2) 0.49629(17) 0.14279(15)
N3 N 0.57126(19) 0.69106(16) 0.36686(15)
N4 N 0.32182(19) 0.66907(16) 0.29053(15)
N5 N 0.6221(2) 0.38057(16) 0.40530(15)
C1 C 0.6207(2) 0.40981(18) 0.29699(17)
C2 C 0.5630(2) 0.49636(18) 0.23908(17)
C3 C 0.4882(2) 0.57999(18) 0.27409(17)
C4 C 0.3322(2) 0.56701(19) 0.22781(17)
C5 C 0.1954(2) 0.45965(18) 0.12711(17)
C6 C 0.0523(2) 0.4171(2) 0.13212(19)
H1 H 0.048(2) 0.4535(19) 0.2017(18)
C7 C -0.0765(3) 0.3183(2) 0.0364(2)
H2 H -0.170(3) 0.289(2) 0.0390(19)
C8 C -0.0652(3) 0.2614(2) -0.0653(2)
H3 H -0.151(3) 0.195(2) -0.132(2)
C9 C 0.0763(2) 0.3034(2) -0.07067(19)
H4 H 0.084(3) 0.265(2) -0.139(2)
C10 C 0.2070(3) 0.4022(2) 0.02487(18)
H5 H 0.303(2) 0.430(2) 0.0204(18)
O7 O 1.06754(17) 0.38418(14) 0.65524(14)
O8 O 0.85464(16) 0.19152(13) 0.61041(12)
O9 O 0.90287(17) -0.09683(14) 0.31672(13)
O10 O 0.66683(17) -0.17525(14) 0.15657(12)
O11 O 1.10070(18) 0.39419(15) 0.44094(15)
O12 O 1.00030(17) 0.19177(15) 0.31350(13)
N6 N 0.9703(2) 0.27830(17) 0.57969(15)
N7 N 0.75505(19) 0.07972(16) 0.51336(14)
N8 N 0.7788(2) -0.08709(16) 0.27429(15)
N9 N 0.5379(2) -0.14440(17) 0.12799(15)
N10 N 1.0205(2) 0.27146(17) 0.40415(17)
C11 C 0.9367(2) 0.21282(19) 0.46919(18)
C12 C 0.8031(2) 0.09152(18) 0.42947(17)
C13 C 0.7157(2) -0.00956(18) 0.31189(17)
C14 C 0.5669(2) -0.04559(19) 0.21924(17)
C15 C 0.4522(2) 0.01355(18) 0.21098(18)
C16 C 0.3812(3) 0.0412(2) 0.1045(2)
H6 H 0.404(2) 0.017(2) 0.0381(19)
C17 C 0.2726(3) 0.0959(2) 0.0925(2)
H7 H 0.222(3) 0.111(2) 0.020(2)
C18 C 0.2327(3) 0.1233(2) 0.1867(2)
H8 H 0.158(2) 0.162(2) 0.1800(18)
C19 C 0.3021(2) 0.0958(2) 0.2920(2)
H9 H 0.278(3) 0.113(2) 0.3538(19)
C20 C 0.4118(2) 0.04111(19) 0.30511(18)
H10 H 0.461(2) 0.0219(18) 0.3792(17)
#END
