
#######################################################################
#
#                 Cambridge Crystallographic Data Centre
#                                CCDC
#
#######################################################################
#
# If this CIF has been generated from an entry in the Cambridge
# Structural Database, then it will include bibliographic, chemical,
# crystal, experimental, refinement or atomic coordinate data resulting
# from the CCDC's data processing and validation procedures.
#
#######################################################################

data_CSD_CIF_DAKHIJ
_audit_creation_date 2016-12-13
_audit_creation_method CSD-ConQuest-V1
_database_code_CSD DAKHIJ
_database_code_depnum_ccdc_archive 'CCDC 1522527'
_chemical_formula_sum 'C60 H72 N4 O6'
_chemical_formula_moiety
;
C60 H72 N4 O6
;
_journal_coden_Cambridge 16
_journal_volume 72
_journal_year 2016
_journal_page_first 6064
_journal_name_full 'Tetrahedron '
loop_
_publ_author_name
"C.S.Hampton"
"M.Harmata"
_chemical_name_systematic
;
5,11-bis(3,5-di-t-butyl-2-((4-nitrobenzyl)oxy)benzyl)-2,8-dimethyl-5,6,11,12-t
etrahydrodibenzo[b,f][1,5]diazocine
;
_cell_volume   1303.563
_exptl_crystal_colour 'yellow'
_exptl_crystal_density_diffrn 1.204
_exptl_crystal_description 'Shard'
_diffrn_ambient_temperature 100
#These two values have been output from a single CSD field.
_refine_ls_R_factor_gt 0.0379
_refine_ls_wR_factor_gt 0.0379
_symmetry_cell_setting triclinic
_symmetry_space_group_name_H-M 'P -1'
_symmetry_Int_Tables_number 2
loop_
_symmetry_equiv_pos_site_id
_symmetry_equiv_pos_as_xyz
1 x,y,z
2 -x,-y,-z
_cell_length_a 9.2518(3)
_cell_length_b 11.6474(3)
_cell_length_c 13.3066(4)
_cell_angle_alpha 98.618(1)
_cell_angle_beta 90.773(1)
_cell_angle_gamma 112.734(1)
_cell_formula_units_Z 1
loop_
_atom_type_symbol
_atom_type_radius_bond
C 0.68
H 0.23
N 0.68
O 0.68
loop_
_atom_site_label
_atom_site_type_symbol
_atom_site_fract_x
_atom_site_fract_y
_atom_site_fract_z
O1 O 0.13366(10) 0.24139(8) 0.50918(6)
O2 O 0.42001(15) 0.67913(14) 0.93586(11)
O3 O 0.18721(13) 0.61278(11) 0.98574(8)
N1 N -0.11433(11) 0.35674(9) 0.51036(7)
N2 N 0.28494(14) 0.60131(12) 0.92949(9)
C1 C -0.13219(14) 0.40872(11) 0.41799(9)
H1 H -0.16560 0.47950 0.43840
H2 H -0.21760 0.34240 0.37120
C2 C -0.13194(14) 0.42478(11) 0.60391(9)
C3 C -0.25729(14) 0.37580(12) 0.66377(9)
H3 H -0.33780 0.29490 0.64050
C4 C -0.26525(15) 0.44438(12) 0.75712(9)
H4 H -0.35030 0.40890 0.79730
C5 C -0.15106(15) 0.56367(12) 0.79250(9)
C6 C -0.02566(14) 0.61172(12) 0.73254(9)
H5 H 0.05370 0.69310 0.75590
C7 C -0.01307(14) 0.54439(11) 0.63975(9)
C8 C -0.15965(17) 0.63997(13) 0.89282(9)
H6 H -0.26420 0.60120 0.91730
H7 H -0.14040 0.72640 0.88330
H8 H -0.07990 0.64180 0.94300
C9 C -0.18855(14) 0.21975(11) 0.49876(9)
H9 H -0.30280 0.19190 0.48170
H10 H -0.17430 0.19340 0.56430
C10 C -0.12052(14) 0.15577(11) 0.41617(9)
C11 C 0.03803(13) 0.17222(11) 0.42173(9)
C12 C 0.10437(14) 0.13011(12) 0.33728(9)
C13 C 0.00246(14) 0.06016(12) 0.25103(9)
H11 H 0.04510 0.02930 0.19370
C14 C -0.15835(14) 0.03353(11) 0.24511(9)
C15 C -0.21567(13) 0.08518(11) 0.32870(9)
H12 H -0.32380 0.07160 0.32580
C16 C 0.28287(14) 0.16256(13) 0.33713(10)
C17 C 0.37429(16) 0.30609(14) 0.36313(12)
H13 H 0.48700 0.32610 0.35960
H14 H 0.35450 0.33660 0.43220
H15 H 0.33970 0.34720 0.31420
C18 C 0.33503(16) 0.09886(16) 0.41485(13)
H16 H 0.27440 0.00740 0.39970
H17 H 0.31680 0.13170 0.48360
H18 H 0.44720 0.11670 0.41100
C19 C 0.32792(17) 0.11785(18) 0.23248(12)
H19 H 0.44230 0.14410 0.23410
H20 H 0.29330 0.15530 0.18060
H21 H 0.27690 0.02560 0.21580
C20 C -0.26783(15) -0.04019(12) 0.14911(9)
C21 C -0.20043(18) -0.12087(15) 0.0795(1)
H22 H -0.10280 -0.06590 0.05460
H23 H -0.27670 -0.16970 0.02150
H24 H -0.17860 -0.17870 0.11780
C22 C -0.42722(17) -0.12870(15) 0.17873(11)
H25 H -0.41130 -0.18700 0.21940
H26 H -0.49490 -0.17700 0.11690
H27 H -0.47730 -0.07870 0.21880
C23 C -0.29259(19) 0.05412(15) 0.08917(11)
H28 H -0.33850 0.10520 0.13220
H29 H -0.36390 0.00810 0.02830
H30 H -0.19130 0.10940 0.06870
C24 C 0.10406(15) 0.18408(12) 0.59967(9)
H31 H 0.16690 0.13250 0.60360
H32 H -0.00860 0.12870 0.59870
C25 C 0.15027(15) 0.28974(12) 0.68938(9)
C26 C 0.30377(15) 0.38057(13) 0.70252(10)
H33 H 0.37820 0.37300 0.65630
C27 C 0.34901(15) 0.48143(14) 0.78197(10)
H34 H 0.45380 0.54300 0.79110
C28 C 0.23801(15) 0.49061(13) 0.84790(9)
C29 C 0.08539(15) 0.40192(13) 0.83838(9)
H35 H 0.01170 0.40980 0.88510
C30 C 0.04292(14) 0.30085(13) 0.75841(9)
H36 H -0.06120 0.23820 0.75070
O1A O -0.13366(10) 0.75861(8) 0.49082(6)
O2A O -0.42001(15) 0.32087(14) 0.06414(11)
O3A O -0.18721(13) 0.38722(11) 0.01426(8)
N1A N 0.11433(11) 0.64326(9) 0.48964(7)
N2A N -0.28494(14) 0.39869(12) 0.07051(9)
C1A C 0.13219(14) 0.59128(11) 0.58201(9)
H1A H 0.16560 0.52050 0.56160
H2A H 0.21760 0.65760 0.62880
C2A C 0.13194(14) 0.57522(11) 0.39609(9)
C3A C 0.25729(14) 0.62420(12) 0.33623(9)
H3A H 0.33780 0.70510 0.35950
C4A C 0.26525(15) 0.55562(12) 0.24288(9)
H4A H 0.35030 0.59110 0.20270
C5A C 0.15106(15) 0.43633(12) 0.20750(9)
C6A C 0.02566(14) 0.38828(12) 0.26746(9)
H5A H -0.05370 0.30690 0.24410
C7A C 0.01307(14) 0.45561(11) 0.36025(9)
C8A C 0.15965(17) 0.36003(13) 0.10718(9)
H6A H 0.26420 0.39880 0.08270
H7A H 0.14040 0.27360 0.11670
H8A H 0.07990 0.35820 0.05700
C9A C 0.18855(14) 0.78025(11) 0.50124(9)
H9A H 0.30280 0.80810 0.51830
H10A H 0.17430 0.80660 0.43570
C10A C 0.12052(14) 0.84423(11) 0.58383(9)
C11A C -0.03803(13) 0.82778(11) 0.57827(9)
C12A C -0.10437(14) 0.86989(12) 0.66272(9)
C13A C -0.00246(14) 0.93984(12) 0.74897(9)
H11A H -0.04510 0.97070 0.80630
C14A C 0.15835(14) 0.96647(11) 0.75489(9)
C15A C 0.21567(13) 0.91482(11) 0.67130(9)
H12A H 0.32380 0.92840 0.67420
C16A C -0.28287(14) 0.83744(13) 0.66287(10)
C17A C -0.37429(16) 0.69391(14) 0.63687(12)
H13A H -0.48700 0.67390 0.64040
H14A H -0.35450 0.66340 0.56780
H15A H -0.33970 0.65280 0.68580
C18A C -0.33503(16) 0.90114(16) 0.58515(13)
H16A H -0.27440 0.99260 0.60030
H17A H -0.31680 0.86830 0.51640
H18A H -0.44720 0.88330 0.58900
C19A C -0.32792(17) 0.88215(18) 0.76752(12)
H19A H -0.44230 0.85590 0.76590
H20A H -0.29330 0.84470 0.81940
H21A H -0.27690 0.97440 0.78420
C20A C 0.26783(15) 1.04019(12) 0.85089(9)
C21A C 0.20043(18) 1.12087(15) 0.9205(1)
H22A H 0.10280 1.06590 0.94540
H23A H 0.27670 1.16970 0.97850
H24A H 0.17860 1.17870 0.88220
C22A C 0.42722(17) 1.12870(15) 0.82127(11)
H25A H 0.41130 1.18700 0.78060
H26A H 0.49490 1.17700 0.88310
H27A H 0.47730 1.07870 0.78120
C23A C 0.29259(19) 0.94588(15) 0.91083(11)
H28A H 0.33850 0.89480 0.86780
H29A H 0.36390 0.99190 0.97170
H30A H 0.19130 0.89060 0.93130
C24A C -0.10406(15) 0.81592(12) 0.40033(9)
H31A H -0.16690 0.86750 0.39640
H32A H 0.00860 0.87130 0.40130
C25A C -0.15027(15) 0.71026(12) 0.31062(9)
C26A C -0.30377(15) 0.61943(13) 0.29748(10)
H33A H -0.37820 0.62700 0.34370
C27A C -0.34901(15) 0.51857(14) 0.21803(10)
H34A H -0.45380 0.45700 0.20890
C28A C -0.23801(15) 0.50939(13) 0.15210(9)
C29A C -0.08539(15) 0.59808(13) 0.16162(9)
H35A H -0.01170 0.59020 0.11490
C30A C -0.04292(14) 0.69915(13) 0.24159(9)
H36A H 0.06120 0.76180 0.24930
#END
