
#######################################################################
#
#                 Cambridge Crystallographic Data Centre
#                                CCDC
#
#######################################################################
#
# If this CIF has been generated from an entry in the Cambridge
# Structural Database, then it will include bibliographic, chemical,
# crystal, experimental, refinement or atomic coordinate data resulting
# from the CCDC's data processing and validation procedures.
#
#######################################################################

data_CSD_CIF_DAKKOS
_audit_creation_date 2016-12-13
_audit_creation_method CSD-ConQuest-V1
_database_code_CSD DAKKOS
_database_code_depnum_ccdc_archive 'CCDC 1480036'
_chemical_formula_sum 'C20 H27 N1 O5'
_chemical_formula_moiety
;
C20 H27 N1 O5
;
_journal_coden_Cambridge 1220
_journal_volume 22
_journal_year 2016
_journal_page_first 13613
_journal_name_full 'Chem.-Eur.J. '
loop_
_publ_author_name
"P.Calleja"
"O.Pablo"
"B.Ranieri"
"M.Gaydou"
"A.Pitaval"
"M.Moreno"
"M.Raducan"
"A.M.Echavarren"
_chemical_name_systematic
;
(2-(2-methyl-5-(2-(4-nitrophenoxy)propan-2-yl)cyclopent-1-en-1-yl)cyclopropane
-1,1-diyl)dimethanol
;
_cell_volume   1801.179
_exptl_crystal_colour 'colorless'
_exptl_crystal_density_diffrn 1.333
_exptl_crystal_description 'block'
_diffrn_ambient_temperature 100
#These two values have been output from a single CSD field.
_refine_ls_R_factor_gt 0.0499
_refine_ls_wR_factor_gt 0.0499
_symmetry_cell_setting monoclinic
_symmetry_space_group_name_H-M 'P 21/n'
_symmetry_Int_Tables_number 14
loop_
_symmetry_equiv_pos_site_id
_symmetry_equiv_pos_as_xyz
1 x,y,z
2 1/2-x,1/2+y,1/2-z
3 -x,-y,-z
4 -1/2+x,-1/2-y,-1/2+z
_cell_length_a 16.5374(14)
_cell_length_b 6.1295(6)
_cell_length_c 18.2483(18)
_cell_angle_alpha 90
_cell_angle_beta 103.16(1)
_cell_angle_gamma 90
_cell_formula_units_Z 4
loop_
_atom_type_symbol
_atom_type_radius_bond
C 0.68
H 0.23
N 0.68
O 0.68
loop_
_atom_site_label
_atom_site_type_symbol
_atom_site_fract_x
_atom_site_fract_y
_atom_site_fract_z
C1 C 0.64252(10) 0.7651(3) -0.05634(10)
C2 C 0.57313(11) 0.9244(3) -0.05188(11)
H1 H 0.59700 1.05660 -0.02520
H2 H 0.53500 0.85630 -0.02470
H3 H 0.54270 0.96290 -0.10280
C3 C 0.60518(11) 0.5730(3) -0.10622(10)
H4 H 0.59180 0.61910 -0.15900
H5 H 0.55440 0.52390 -0.09210
H6 H 0.64530 0.45300 -0.09950
C4 C 0.69261(10) 0.6968(3) 0.02333(9)
H7 H 0.74420 0.61930 0.01810
C5 C 0.71671(10) 0.8861(3) 0.07819(10)
C6 C 0.67765(10) 0.8767(3) 0.13482(10)
C7 C 0.62341(11) 0.6783(3) 0.12998(10)
H8 H 0.56400 0.71990 0.11940
H9 H 0.63710 0.59420 0.17750
C8 C 0.64248(11) 0.5448(3) 0.06474(10)
H10 H 0.59030 0.49740 0.03010
H11 H 0.67550 0.41380 0.08410
C9 C 0.77232(10) 1.0621(3) 0.06227(10)
H12 H 0.74560 1.15640 0.01880
C10 C 0.86577(10) 1.0349(3) 0.07014(9)
C11 C 0.83338(10) 1.1844(3) 0.12267(10)
H13 H 0.83890 1.34360 0.11610
H14 H 0.83950 1.13640 0.17540
C12 C 0.90165(10) 1.1444(3) 0.01082(10)
H15 H 0.91050 1.03400 -0.02620
H16 H 0.86150 1.25330 -0.01620
C13 C 0.91071(11) 0.8337(3) 0.10582(10)
H17 H 0.96790 0.87460 0.13200
H18 H 0.88220 0.77690 0.14400
C14 C 0.67754(11) 1.0388(3) 0.1967(1)
H19 H 0.70800 1.16990 0.18810
H20 H 0.70440 0.97400 0.24530
H21 H 0.62020 1.07810 0.19700
C15 C 0.7557(1) 0.8195(3) -0.12579(9)
C16 C 0.78703(10) 0.9709(3) -0.16935(10)
H22 H 0.76370 1.11310 -0.17610
C17 C 0.85153(10) 0.9173(3) -0.20277(10)
H23 H 0.87380 1.02230 -0.23110
C18 C 0.88293(10) 0.7069(3) -0.19395(10)
C19 C 0.85302(10) 0.5537(3) -0.15154(10)
H24 H 0.87580 0.41080 -0.14610
C20 C 0.78961(10) 0.6090(3) -0.11692(10)
H25 H 0.76910 0.50450 -0.08720
N1 N 0.95067(9) 0.6462(3) -0.22962(9)
O1 O 0.69488(7) 0.8987(2) -0.09456(7)
O2 O 0.96894(9) 0.4507(3) -0.23074(8)
O3 O 0.98550(8) 0.7913(3) -0.25687(8)
O4 O 0.97921(7) 1.2513(2) 0.04254(7)
H26 H 0.96990 1.37410 0.05930
O5 O 0.91470(7) 0.6643(2) 0.05262(7)
H27 H 0.94240 0.70790 0.02220
#END
