
#######################################################################
#
#                 Cambridge Crystallographic Data Centre
#                                CCDC
#
#######################################################################
#
# If this CIF has been generated from an entry in the Cambridge
# Structural Database, then it will include bibliographic, chemical,
# crystal, experimental, refinement or atomic coordinate data resulting
# from the CCDC's data processing and validation procedures.
#
#######################################################################

data_CSD_CIF_DAKNIN
_audit_creation_date 2005-04-12
_audit_creation_method CSD-ConQuest-V1
_database_code_CSD DAKNIN
_database_code_depnum_ccdc_archive 'CCDC 249270'
_chemical_formula_sum 'C26 H34 N2 O9'
_chemical_formula_moiety
;
C26 H34 N2 O9
;
_journal_coden_Cambridge 182
_journal_year 2004
_journal_page_first 2846
_journal_name_full 'Chem.Commun. '
loop_
_publ_author_name
"C.M.Lincoln"
"J.D.White"
"A.F.T.Yokochi"
_chemical_name_systematic
;
trans,anti,cis-2-((-)-p-Menth-3-yl carbonatomethyl)bicyclopropane-2'-methyl 
3,5-dinitrobenzoate
;
_cell_volume   2624.014
_exptl_crystal_colour 'colorless'
_exptl_crystal_density_diffrn 1.313
_exptl_crystal_description 'plate'
_diffrn_ambient_temperature 100
#These two values have been output from a single CSD field.
_refine_ls_R_factor_gt 0.047
_refine_ls_wR_factor_gt 0.047
_symmetry_cell_setting orthorhombic
_symmetry_space_group_name_H-M 'P 21 21 21'
_symmetry_Int_Tables_number 19
loop_
_symmetry_equiv_pos_site_id
_symmetry_equiv_pos_as_xyz
1 x,y,z
2 1/2-x,-y,1/2+z
3 1/2+x,1/2-y,-z
4 -x,1/2+y,1/2-z
_cell_length_a 7.5080(3)
_cell_length_b 8.6340(3)
_cell_length_c 40.4790(15)
_cell_angle_alpha 90
_cell_angle_beta 90
_cell_angle_gamma 90
_cell_formula_units_Z 4
loop_
_atom_type_symbol
_atom_type_radius_bond
C 0.68
H 0.23
N 0.68
O 0.68
loop_
_atom_site_label
_atom_site_type_symbol
_atom_site_fract_x
_atom_site_fract_y
_atom_site_fract_z
C1 C 0.5265(5) 0.4383(4) 0.18637(7)
H1 H 0.42070 0.49630 0.17860
H2 H 0.61180 0.51290 0.19610
C2 C 0.4730(5) 0.3216(4) 0.21151(8)
H3 H 0.57310 0.27240 0.22400
C3 C 0.3172(5) 0.2189(4) 0.20470(9)
H4 H 0.25170 0.23490 0.18370
H5 H 0.32480 0.10980 0.21210
C4 C 0.3009(5) 0.3409(4) 0.23067(8)
H6 H 0.30790 0.29830 0.25360
C5 C 0.1764(5) 0.4752(4) 0.22784(7)
H7 H 0.21620 0.56890 0.24030
C6 C -0.0202(5) 0.4488(4) 0.22903(8)
H8 H -0.09260 0.52030 0.24260
H9 H -0.06310 0.34040 0.22870
C7 C 0.0623(5) 0.5122(4) 0.19791(8)
H10 H 0.07170 0.43840 0.17890
C8 C 0.0234(5) 0.6761(4) 0.18926(8)
H11 H -0.09220 0.68160 0.17760
H12 H 0.01340 0.73800 0.20980
N1 N 0.8863(4) 1.0461(3) 0.16583(7)
N2 N 0.5387(5) 0.8863(3) 0.06977(7)
O1 O 0.1635(3) 0.7421(2) 0.16819(5)
O2 O 0.3141(4) 0.8242(3) 0.21309(5)
O3 O 1.0145(4) 1.0658(3) 0.14723(6)
O4 O 0.8902(4) 1.0723(3) 0.19558(6)
O5 O 0.6604(4) 0.9344(4) 0.05235(6)
O6 O 0.4034(4) 0.8210(3) 0.05931(6)
C9 C 0.2998(5) 0.8114(3) 0.18352(7)
C10 C 0.4350(5) 0.8704(3) 0.15973(7)
C11 C 0.4153(5) 0.8562(3) 0.12578(8)
H13 H 0.30980 0.81350 0.11660
C12 C 0.5534(5) 0.9060(3) 0.10568(7)
C13 C 0.7100(5) 0.9688(3) 0.11790(8)
H14 H 0.80390 1.00060 0.10370
C14 C 0.7224(5) 0.9824(3) 0.15181(8)
C15 C 0.5887(5) 0.9363(3) 0.17296(7)
H15 H 0.60110 0.94920 0.19620
C16 C 0.6719(4) 0.4490(3) 0.13492(7)
C17 C 0.7999(5) 0.4413(4) 0.08093(7)
H16 H 0.83940 0.54800 0.08720
C18 C 0.6490(5) 0.4515(4) 0.05597(8)
H17 H 0.55140 0.51500 0.06530
H18 H 0.60170 0.34640 0.05170
C19 C 0.7121(5) 0.5233(4) 0.02342(8)
H19 H 0.75550 0.63070 0.02810
C20 C 0.5581(6) 0.5337(5) -0.00153(10)
H20 H 0.60060 0.58240 -0.02190
H21 H 0.46150 0.59600 0.00790
H22 H 0.51410 0.42940 -0.00640
C21 C 0.8668(5) 0.4290(5) 0.01035(8)
H23 H 0.91080 0.47600 -0.01040
H24 H 0.82570 0.32260 0.00530
C22 C 1.0188(5) 0.4220(4) 0.03555(8)
H25 H 1.06400 0.52800 0.03970
H26 H 1.11790 0.35970 0.02640
C23 C 0.9572(5) 0.3498(4) 0.06847(7)
H27 H 0.91460 0.24240 0.06360
C24 C 1.1067(5) 0.3370(4) 0.09455(8)
H28 H 1.04950 0.30000 0.11540
C25 C 1.1941(5) 0.4923(4) 0.10244(9)
H29 H 1.28500 0.47760 0.11950
H30 H 1.10350 0.56500 0.11040
H31 H 1.24980 0.53400 0.08240
C26 C 1.2453(5) 0.2153(4) 0.08493(9)
H32 H 1.30530 0.24740 0.06450
H33 H 1.18630 0.11550 0.08140
H34 H 1.33330 0.20510 0.10270
O7 O 0.6098(3) 0.3558(2) 0.15865(5)
O8 O 0.6753(3) 0.5877(2) 0.13595(5)
O9 O 0.7314(3) 0.3604(2) 0.11048(5)
#END
