
#######################################################################
#
#                 Cambridge Crystallographic Data Centre
#                                CCDC
#
#######################################################################
#
# If this CIF has been generated from an entry in the Cambridge
# Structural Database, then it will include bibliographic, chemical,
# crystal, experimental, refinement or atomic coordinate data resulting
# from the CCDC's data processing and validation procedures.
#
#######################################################################

data_CSD_CIF_DALBOK
_audit_creation_date 2016-12-13
_audit_creation_method CSD-ConQuest-V1
_database_code_CSD DALBOK
_database_code_depnum_ccdc_archive 'CCDC 1439043'
_chemical_formula_sum 'C17 H30 N2 O3'
_chemical_formula_moiety
;
C17 H30 N2 O3
;
_journal_coden_Cambridge 388
_journal_volume 52
_journal_year 2016
_journal_page_first 1444
_journal_name_full 'Zh.Org.Khim.(Russ.)(Russ.J.Org.Chem.) '
loop_
_publ_author_name
"V.A.Savelev"
"A.Ya.Tikhonov"
"T.V.Rybalova"
_chemical_name_systematic
;
2-hydroxy-2,3a-dimethyl-2,3,3a,5,6,7,8,9,10,11,12,13,14,14a-tetradeca-  
hydrocyclododeca[d]isoxazolo[2,3-a]imidazole 4-oxide
;
_chemical_melting_point 410.15
_cell_volume   3436.515
_exptl_crystal_colour 'colorless'
_exptl_crystal_density_diffrn 1.2
_exptl_special_details
;
Melting point range 410.15-412.15K

;
_exptl_crystal_description 'plate'
_diffrn_ambient_temperature 296
#These two values have been output from a single CSD field.
_refine_ls_R_factor_gt 0.0435
_refine_ls_wR_factor_gt 0.0435
_symmetry_cell_setting monoclinic
_symmetry_space_group_name_H-M 'P 21/n'
_symmetry_Int_Tables_number 14
loop_
_symmetry_equiv_pos_site_id
_symmetry_equiv_pos_as_xyz
1 x,y,z
2 1/2-x,1/2+y,1/2-z
3 -x,-y,-z
4 -1/2+x,-1/2-y,-1/2+z
_cell_length_a 11.5500(4)
_cell_length_b 13.1833(5)
_cell_length_c 22.5948(7)
_cell_angle_alpha 90
_cell_angle_beta 92.739(2)
_cell_angle_gamma 90
_cell_formula_units_Z 8
loop_
_atom_type_symbol
_atom_type_radius_bond
C 0.68
H 0.23
N 0.68
O 0.68
loop_
_atom_site_label
_atom_site_type_symbol
_atom_site_fract_x
_atom_site_fract_y
_atom_site_fract_z
O1 O 0.41357(14) 0.18967(12) 0.14719(7)
H1 H 0.480(2) 0.176(2) 0.1599(12)
O2 O 0.38075(11) 0.01711(10) 0.16321(5)
O3 O 0.12439(12) 0.2498(1) 0.20914(6)
N1 N 0.19987(12) 0.17856(11) 0.22156(7)
N2 N 0.29786(12) 0.02551(11) 0.20943(6)
C1 C 0.4173(2) 0.0694(2) 0.06623(10)
H2 H 0.40870 0.12350 0.03790
H3 H 0.37900 0.00980 0.05070
H4 H 0.49810 0.05520 0.07390
C2 C 0.36377(18) 0.10042(16) 0.12327(8)
C3 C 0.23364(17) 0.11378(16) 0.12108(8)
H5 H 0.19640 0.06890 0.09190
H6 H 0.21230 0.18330 0.11160
C4 C 0.20045(15) 0.08613(14) 0.18333(8)
C5 C 0.27996(15) 0.17761(14) 0.26371(8)
C6 C 0.30233(17) 0.26650(15) 0.30349(9)
H7 H 0.26530 0.32550 0.28520
H8 H 0.38510 0.27930 0.30600
C7 C 0.26083(18) 0.25654(17) 0.36640(9)
H9 H 0.29260 0.19470 0.38390
H10 H 0.29110 0.31310 0.38990
C8 C 0.13035(18) 0.25428(17) 0.36969(9)
H11 H 0.09960 0.20090 0.34390
H12 H 0.09910 0.31820 0.35490
C9 C 0.0886(2) 0.2366(2) 0.43219(10)
H13 H 0.12040 0.28980 0.45790
H14 H 0.00490 0.24340 0.43090
C10 C 0.1204(2) 0.1349(2) 0.45984(9)
H15 H 0.09950 0.13600 0.50090
H16 H 0.20390 0.12690 0.45960
C11 C 0.06424(18) 0.04285(18) 0.43006(9)
H17 H 0.04770 0.05880 0.38860
H18 H -0.00930 0.03040 0.44780
C12 C 0.1356(2) -0.05490(19) 0.43374(9)
H19 H 0.15100 -0.07170 0.47520
H20 H 0.08960 -0.10950 0.41600
C13 C 0.24989(19) -0.04984(18) 0.40366(9)
H21 H 0.28550 -0.11650 0.40560
H22 H 0.30090 -0.00360 0.42580
C14 C 0.24155(17) -0.01567(15) 0.33901(8)
H23 H 0.21090 -0.07100 0.31460
H24 H 0.18760 0.04060 0.33500
C15 C 0.35732(16) 0.01685(15) 0.31646(8)
H25 H 0.40190 -0.04350 0.30840
H26 H 0.39920 0.05400 0.34770
C16 C 0.35123(15) 0.08253(13) 0.26080(8)
H27 H 0.43040 0.10150 0.25140
C17 C 0.08551(16) 0.03185(16) 0.18761(10)
H28 H 0.08700 -0.03040 0.16570
H29 H 0.02420 0.07420 0.17150
H30 H 0.07250 0.01740 0.22840
O4 O 0.87449(11) 0.40132(10) 0.16829(6)
O5 O 0.62277(11) 0.16561(10) 0.21268(6)
O6 O 0.90601(14) 0.22910(12) 0.15033(7)
H31 H 0.973(2) 0.2378(19) 0.1623(10)
N3 N 0.79165(12) 0.39242(11) 0.21470(6)
N4 N 0.69683(12) 0.23763(11) 0.22602(6)
C18 C 0.9076(2) 0.3515(2) 0.07062(10)
H32 H 0.98940 0.36200 0.07710
H33 H 0.87160 0.41350 0.05720
H34 H 0.89420 0.29970 0.04120
C19 C 0.85647(17) 0.31889(16) 0.12771(8)
C20 C 0.84595(15) 0.33512(13) 0.26583(7)
H35 H 0.92560 0.31790 0.25650
C21 C 0.85019(16) 0.40000(15) 0.32191(8)
H36 H 0.89330 0.36320 0.35290
H37 H 0.89310 0.46150 0.31420
C22 C 0.73372(17) 0.42985(15) 0.34494(8)
H38 H 0.68180 0.37210 0.34180
H39 H 0.70050 0.48370 0.32030
C23 C 0.7424(2) 0.46584(17) 0.40936(9)
H40 H 0.79670 0.42220 0.43140
H41 H 0.77450 0.53390 0.41030
C24 C 0.6289(2) 0.46715(19) 0.44108(9)
H42 H 0.57950 0.51970 0.42360
H43 H 0.64550 0.48520 0.48220
C25 C 0.56202(19) 0.36708(19) 0.43899(10)
H44 H 0.49120 0.37610 0.45980
H45 H 0.54010 0.35190 0.39800
C26 C 0.6266(2) 0.27629(19) 0.46553(9)
H46 H 0.61290 0.27330 0.50750
H47 H 0.70900 0.28670 0.46160
C27 C 0.77697(15) 0.23870(13) 0.26784(7)
C28 C 0.69460(15) 0.33128(14) 0.18901(8)
C29 C 0.57934(16) 0.38424(16) 0.19520(9)
H48 H 0.56790 0.39720 0.23630
H49 H 0.51790 0.34180 0.17920
H50 H 0.57920 0.44730 0.17400
C30 C 0.72559(16) 0.30629(16) 0.12599(8)
H51 H 0.70340 0.23740 0.11550
H52 H 0.68810 0.35270 0.09780
C31 C 0.80172(17) 0.14867(15) 0.30603(8)
H53 H 0.88470 0.13660 0.30760
H54 H 0.76470 0.09010 0.28730
C32 C 0.76206(17) 0.15611(17) 0.36960(9)
H55 H 0.79260 0.09840 0.39190
H56 H 0.79510 0.21690 0.38770
C33 C 0.63183(17) 0.15904(17) 0.37445(9)
H57 H 0.59930 0.09590 0.35910
H58 H 0.60050 0.21360 0.34970
C34 C 0.5931(2) 0.17442(19) 0.43770(9)
H59 H 0.50940 0.16750 0.43750
H60 H 0.62630 0.12080 0.46250
#END
