
#######################################################################
#
#                 Cambridge Crystallographic Data Centre
#                                CCDC
#
#######################################################################
#
# If this CIF has been generated from an entry in the Cambridge
# Structural Database, then it will include bibliographic, chemical,
# crystal, experimental, refinement or atomic coordinate data resulting
# from the CCDC's data processing and validation procedures.
#
#######################################################################

data_CSD_CIF_DALHAA
_audit_creation_date 2005-04-12
_audit_creation_method CSD-ConQuest-V1
_database_code_CSD DALHAA
_database_code_depnum_ccdc_archive 'CCDC 201160'
_chemical_formula_sum 'C13 H17 N5 O7'
_chemical_formula_moiety
;
C13 H17 N5 O7
;
_journal_coden_Cambridge 1003
_journal_volume 34
_journal_year 2004
_journal_page_first 685
_journal_name_full 'J.Chem.Cryst. '
loop_
_publ_author_name
"R.O.Al-Kaysi"
"D.Creed"
"E.J.Valente"
_chemical_name_systematic
;
N-(2,4,6-Trinitrophenyl)-N,N'-di-isopropylurea
;
_chemical_melting_point 429.15
_cell_volume   2628.107
_exptl_crystal_colour 'light yellow'
_exptl_crystal_density_diffrn 1.346
_exptl_special_details
;
Melting point range 429.15-431.15K

;
_exptl_crystal_description 'flat prism'
_diffrn_ambient_temperature 293
#These two values have been output from a single CSD field.
_refine_ls_R_factor_gt 0.0537
_refine_ls_wR_factor_gt 0.0537
_symmetry_cell_setting triclinic
_symmetry_space_group_name_H-M 'P -1'
_symmetry_Int_Tables_number 2
loop_
_symmetry_equiv_pos_site_id
_symmetry_equiv_pos_as_xyz
1 x,y,z
2 -x,-y,-z
_cell_length_a 10.444(13)
_cell_length_b 15.47(2)
_cell_length_c 17.74(2)
_cell_angle_alpha 110.43(9)
_cell_angle_beta 99.85(10)
_cell_angle_gamma 92.78(10)
_cell_formula_units_Z 6
loop_
_atom_type_symbol
_atom_type_radius_bond
C 0.68
H 0.23
N 0.68
O 0.68
loop_
_atom_site_label
_atom_site_type_symbol
_atom_site_fract_x
_atom_site_fract_y
_atom_site_fract_z
N1 N 0.2757(4) 1.5562(3) 1.1886(3)
N2 N 0.5312(6) 1.5239(4) 1.1508(4)
N3 N 0.3587(9) 1.2186(5) 0.9461(4)
N4 N 0.0547(7) 1.4081(5) 1.0965(4)
O1 O 0.5546(4) 1.5516(3) 1.2252(3)
O2 O 0.5945(6) 1.5460(4) 1.1072(3)
O3 O 0.4587(6) 1.2167(4) 0.9199(3)
O4 O 0.2740(6) 1.1508(4) 0.9281(3)
O5 O -0.0077(5) 1.3372(4) 1.0896(3)
O6 O 0.0182(5) 1.4843(3) 1.1143(3)
O7 O 0.1981(4) 1.6228(3) 1.3066(2)
C1 C 0.2927(7) 1.4716(5) 1.1270(4)
C2 C 0.4174(7) 1.4530(5) 1.1057(4)
C3 C 0.4394(7) 1.3758(5) 1.0465(4)
H1 H 0.52080 1.36960 1.03200
C4 C 0.3360(9) 1.3061(5) 1.0083(4)
C5 C 0.2151(7) 1.3156(5) 1.0254(4)
H2 H 0.14720 1.26770 0.99860
C6 C 0.1940(7) 1.3968(5) 1.0831(4)
C7 C 0.3577(6) 1.7185(4) 1.2153(3)
H3 H 0.36140 1.73210 1.27280
H4 H 0.33750 1.77220 1.20240
H5 H 0.44080 1.70200 1.20220
C8 C 0.2511(6) 1.6372(4) 1.1650(3)
H6 H 0.16740 1.65650 1.17890
C9 C 0.2402(6) 1.6161(4) 1.0725(3)
H7 H 0.17150 1.56650 1.04190
H8 H 0.32160 1.59820 1.05720
H9 H 0.22070 1.67060 1.06060
C10 C 0.2391(5) 1.5566(4) 1.2601(4)
N5 N 0.2508(4) 1.4754(3) 1.2760(2)
H10 H 0.28890 1.43240 1.24570
C11 C 0.0528(5) 1.4294(4) 1.3173(3)
H11 H 0.00910 1.47450 1.30010
H12 H 0.01920 1.42270 1.36230
H13 H 0.03800 1.37080 1.27240
C12 C 0.1986(6) 1.4613(4) 1.3443(3)
H14 H 0.21090 1.52140 1.38970
C13 C 0.2742(5) 1.3950(4) 1.3748(3)
H15 H 0.36510 1.41910 1.39270
H16 H 0.26450 1.33560 1.33110
H17 H 0.24090 1.38810 1.41980
N6 N 0.6215(5) 0.8434(4) 0.8117(3)
N7 N 0.3729(6) 0.8821(4) 0.8679(4)
N8 N 0.3050(6) 1.0935(4) 0.7185(3)
N9 N 0.7058(5) 0.9395(4) 0.7153(3)
O8 O 0.2549(5) 0.8683(4) 0.8578(3)
O9 O 0.4514(5) 0.8663(4) 0.9195(3)
O10 O 0.1899(5) 1.0893(3) 0.7260(3)
O11 O 0.3518(5) 1.1451(3) 0.6887(3)
O12 O 0.7877(4) 1.0084(3) 0.7376(3)
O13 O 0.7126(4) 0.8602(3) 0.6702(2)
O14 O 0.6294(4) 0.6976(3) 0.8158(2)
C14 C 0.5422(6) 0.9055(4) 0.7901(3)
C15 C 0.4209(6) 0.9279(4) 0.8152(3)
C16 C 0.3440(6) 0.9848(4) 0.7887(3)
H18 H 0.26110 0.99140 0.80090
C17 C 0.3884(6) 1.0317(4) 0.7448(4)
C18 C 0.5070(6) 1.0179(4) 0.7210(3)
H19 H 0.53570 1.04850 0.68920
C19 C 0.5816(6) 0.9585(4) 0.7450(3)
C20 C 0.8637(5) 0.8525(4) 0.8542(3)
H20 H 0.85700 0.78650 0.82570
H21 H 0.93370 0.87090 0.90150
H22 H 0.88140 0.88370 0.81820
C21 C 0.7357(6) 0.8782(4) 0.8813(3)
H23 H 0.72320 0.84610 0.91880
C22 C 0.7442(6) 0.9817(4) 0.9306(3)
H24 H 0.66350 0.99540 0.94870
H25 H 0.75970 1.01620 0.89670
H26 H 0.81480 0.99870 0.97740
C23 C 0.5725(6) 0.7481(5) 0.7837(4)
N10 N 0.4654(4) 0.7218(3) 0.7231(3)
H27 H 0.43820 0.75860 0.69870
C24 C 0.3034(5) 0.6276(4) 0.7586(3)
H28 H 0.35300 0.64710 0.81370
H29 H 0.26030 0.56590 0.74300
H30 H 0.23930 0.66930 0.75560
C25 C 0.3962(6) 0.6282(4) 0.6998(3)
H31 H 0.46120 0.58560 0.70370
C26 C 0.3216(5) 0.5958(4) 0.6110(3)
H32 H 0.38180 0.59500 0.57560
H33 H 0.25850 0.63760 0.60600
H34 H 0.27740 0.53450 0.59560
N11 N 0.1510(4) 0.8012(3) 0.5263(3)
N12 N -0.0585(6) 0.6544(4) 0.4338(3)
N13 N -0.0728(7) 0.7422(4) 0.1937(4)
N14 N 0.2460(5) 0.9181(4) 0.4432(3)
O15 O 0.0222(4) 0.6178(3) 0.4674(3)
O16 O -0.1755(4) 0.6421(4) 0.4281(3)
O17 O -0.1763(5) 0.6934(4) 0.1627(3)
O18 O -0.0123(5) 0.7816(4) 0.1584(3)
O19 O 0.2499(4) 0.9655(3) 0.5142(3)
O20 O 0.3211(4) 0.9302(3) 0.4010(2)
O21 O 0.3410(3) 0.8213(2) 0.6178(2)
C27 C 0.0959(5) 0.7888(4) 0.4448(4)
C28 C -0.0089(6) 0.7180(4) 0.3975(4)
C29 C -0.0682(5) 0.7053(4) 0.3188(4)
H35 H -0.14140 0.66190 0.29190
C30 C -0.0163(6) 0.7589(5) 0.2801(4)
C31 C 0.0864(6) 0.8275(4) 0.3212(4)
H36 H 0.11960 0.86430 0.29570
C32 C 0.1377(6) 0.8400(4) 0.4008(4)
C33 C -0.0310(5) 0.9007(4) 0.5634(3)
H37 H -0.00330 0.93760 0.53410
H38 H -0.06260 0.93960 0.61000
H39 H -0.09970 0.85330 0.52780
C34 C 0.0847(5) 0.8554(4) 0.5924(3)
H40 H 0.14990 0.90680 0.62970
C35 C 0.0484(5) 0.8019(4) 0.6436(3)
H41 H 0.12390 0.77680 0.66300
H42 H -0.01910 0.75220 0.61080
H43 H 0.01720 0.84260 0.68960
C36 C 0.2806(6) 0.7892(4) 0.5467(4)
N15 N 0.3366(4) 0.7400(3) 0.4827(2)
H44 H 0.28820 0.71330 0.43470
C37 C 0.5499(5) 0.8141(4) 0.4839(3)
H45 H 0.53390 0.87100 0.52360
H46 H 0.51860 0.81350 0.42960
H47 H 0.64210 0.80920 0.49170
C38 C 0.4783(5) 0.7319(4) 0.4947(3)
H48 H 0.50960 0.73360 0.55060
C39 C 0.5034(5) 0.6413(4) 0.4342(3)
H49 H 0.45880 0.59070 0.44260
H50 H 0.59570 0.63660 0.44220
H51 H 0.47170 0.63880 0.37930
#END
