
#######################################################################
#
#                 Cambridge Crystallographic Data Centre
#                                CCDC
#
#######################################################################
#
# If this CIF has been generated from an entry in the Cambridge
# Structural Database, then it will include bibliographic, chemical,
# crystal, experimental, refinement or atomic coordinate data resulting
# from the CCDC's data processing and validation procedures.
#
#######################################################################

data_CSD_CIF_DALWOD
_audit_creation_date 2005-04-11
_audit_creation_method CSD-ConQuest-V1
_database_code_CSD DALWOD
_database_code_depnum_ccdc_archive 'CCDC 177462'
_chemical_formula_sum 'C17 H18 N2 O9'
_chemical_formula_moiety
;
C17 H18 N2 O9
;
_journal_coden_Cambridge 1088
_journal_volume 2004
_journal_year 2004
_journal_page_first 1584
_journal_name_full 'Synlett '
loop_
_publ_author_name
"L.D.Raev"
"W.Frey"
"I.C.Ivanov"
_chemical_name_systematic
;
Diethyl 4-(2-hydroxy-5-nitrophenyl)-2,6-dioxopiperidine-3,5-dicarboxylate
;
_chemical_melting_point 484.15
_cell_volume   3708.643
_exptl_crystal_colour 'colorless'
_exptl_crystal_density_diffrn 1.413
_exptl_special_details
;
Melting point range 484.15-487.15K

;
_exptl_crystal_description 'block'
_diffrn_ambient_temperature 293
#These two values have been output from a single CSD field.
_refine_ls_R_factor_gt 0.0935
_refine_ls_wR_factor_gt 0.0935
_symmetry_cell_setting monoclinic
_symmetry_space_group_name_H-M 'C 2/c'
_symmetry_Int_Tables_number 15
loop_
_symmetry_equiv_pos_site_id
_symmetry_equiv_pos_as_xyz
1 x,y,z
2 1/2+x,1/2+y,z
3 -x,y,1/2-z
4 1/2-x,1/2+y,1/2-z
5 -x,-y,-z
6 -1/2-x,-1/2-y,-z
7 x,-y,-1/2+z
8 -1/2+x,-1/2-y,-1/2+z
_cell_length_a 26.1420(16)
_cell_length_b 9.2047(4)
_cell_length_c 17.3831(9)
_cell_angle_alpha 90
_cell_angle_beta 117.548(4)
_cell_angle_gamma 90
_cell_formula_units_Z 8
loop_
_atom_type_symbol
_atom_type_radius_bond
C 0.68
H 0.23
N 0.68
O 0.68
loop_
_atom_site_label
_atom_site_type_symbol
_atom_site_fract_x
_atom_site_fract_y
_atom_site_fract_z
O1 O 0.06107(16) 0.5169(3) 0.4719(2)
H1 H 0.03180 0.53590 0.42690
C1 C 0.10667(19) 0.3225(5) 0.5650(3)
N1 N 0.0830(2) -0.0778(5) 0.5300(4)
N2 N 0.19168(17) 0.6633(4) 0.7471(2)
H2 H 0.21200 0.71900 0.79030
C2 C 0.0666(2) 0.3711(5) 0.4823(3)
O2 O 0.0556(3) -0.1591(5) 0.4690(4)
C3 C 0.0339(2) 0.2735(5) 0.4164(3)
H3 H 0.00810 0.30760 0.36160
O3 O 0.1130(2) -0.1198(4) 0.6033(4)
O4 O 0.02562(14) 0.3938(4) 0.6790(2)
C4 C 0.0398(2) 0.1262(6) 0.4328(3)
H4 H 0.01820 0.06010 0.38940
O5 O 0.11576(14) 0.3357(4) 0.7731(2)
C5 C 0.0777(2) 0.0793(5) 0.5132(3)
O6 O 0.24018(17) 0.3503(4) 0.6090(2)
C6 C 0.1122(2) 0.1729(5) 0.5794(3)
H5 H 0.13880 0.13630 0.63300
O7 O 0.21595(17) 0.5351(4) 0.5170(2)
C7 C 0.14287(18) 0.4254(5) 0.6377(3)
H6 H 0.17040 0.36690 0.68640
O8 O 0.26443(16) 0.6607(5) 0.7123(2)
C8 C 0.17752(18) 0.5369(5) 0.6154(3)
H7 H 0.15080 0.60350 0.57100
C9 C 0.2161(2) 0.6223(5) 0.6950(3)
O9 O 0.11919(17) 0.6768(5) 0.7828(3)
C10 C 0.10523(19) 0.5101(5) 0.6693(3)
H8 H 0.07470 0.55940 0.61900
C11 C 0.1382(2) 0.6242(5) 0.7371(3)
C12 C 0.2151(2) 0.4633(5) 0.5819(3)
C13 C 0.2513(3) 0.4698(7) 0.4792(4)
H9 H 0.28710 0.43240 0.52520
H10 H 0.23050 0.38960 0.44140
C14 C 0.0770(2) 0.4093(5) 0.7063(3)
C15 C 0.0955(3) 0.2298(7) 0.8162(4)
H11 H 0.11930 0.23580 0.87850
H12 H 0.05600 0.25190 0.80310
C16 C 0.2635(4) 0.5771(9) 0.4312(5)
H13 H 0.28640 0.53500 0.40680
H14 H 0.28440 0.65570 0.46890
H15 H 0.22800 0.61310 0.38530
C17 C 0.0985(5) 0.0849(9) 0.7869(6)
H16 H 0.08520 0.01650 0.81530
H17 H 0.13770 0.06300 0.80050
H18 H 0.07460 0.07900 0.72520
#END
