
#######################################################################
#
#                 Cambridge Crystallographic Data Centre
#                                CCDC
#
#######################################################################
#
# If this CIF has been generated from an entry in the Cambridge
# Structural Database, then it will include bibliographic, chemical,
# crystal, experimental, refinement or atomic coordinate data resulting
# from the CCDC's data processing and validation procedures.
#
#######################################################################

data_CSD_CIF_DALYIY
_audit_creation_date 1986-04-23
_audit_creation_method CSD-ConQuest-V1
_database_code_CSD DALYIY
_chemical_formula_sum 'C19 H26 N2 O2'
_chemical_formula_moiety
;
C19 H26 N2 O2
;
_journal_coden_Cambridge 16
_journal_volume 40
_journal_year 1984
_journal_page_first 2041
_journal_name_full 'Tetrahedron '
loop_
_publ_author_name
"M.T.Cocco"
"A.Maccioni"
"A.Plumitallo"
"M.Cannas"
"G.Marongiu"
_chemical_name_systematic
;
9-Methyl-1-morpholino-4-phenyl-2,3-oxazabicyclo(4.4.0)dec-3-ene
;
_chemical_melting_point 434.15
_cell_volume   1757.001
_exptl_crystal_density_diffrn 1.19
_exptl_special_details
;
Melting point range 434.15-435.15K
isomer a
v reported as 1757, dx as 1.19. We calculate 1853 and 1.13. b=18.297
;
_diffrn_ambient_temperature ?
_diffrn_special_details
;
The study was carried out at room temperature,in the range 283-303K

;
#These two values have been output from a single CSD field.
_refine_ls_R_factor_gt 0.101
_refine_ls_wR_factor_gt 0.101
loop_
_citation_database_id_CSD
_citation_special_details
DALYOE "is a stereoisomer of this entry"
_symmetry_cell_setting triclinic
_symmetry_space_group_name_H-M 'P -1'
_symmetry_Int_Tables_number 2
loop_
_symmetry_equiv_pos_site_id
_symmetry_equiv_pos_as_xyz
1 x,y,z
2 -x,-y,-z
_cell_length_a 10.159(5)
_cell_length_b 18.297(10)
_cell_length_c 9.561(5)
_cell_angle_alpha 89.08(8)
_cell_angle_beta 98.07(8)
_cell_angle_gamma 93.07(8)
_cell_formula_units_Z 4
loop_
_atom_type_symbol
_atom_type_radius_bond
C 0.68
N 0.68
O 0.68
loop_
_atom_site_label
_atom_site_type_symbol
_atom_site_fract_x
_atom_site_fract_y
_atom_site_fract_z
O1 O 0.4861(5) 0.7688(3) 0.2350(5)
O2 O 0.7142(5) 0.9912(3) 0.3396(6)
N1 N 0.3990(6) 0.7048(3) 0.2224(6)
N2 N 0.6856(5) 0.8343(3) 0.3050(6)
C1 C 0.3443(7) 0.5815(4) 0.2590(8)
C2 C 0.3926(8) 0.5106(4) 0.2720(9)
C3 C 0.3011(8) 0.4492(4) 0.2537(8)
C4 C 0.1674(8) 0.4604(4) 0.2279(9)
C5 C 0.1203(8) 0.5287(5) 0.2189(9)
C6 C 0.2090(8) 0.5891(4) 0.2340(8)
C7 C 0.4456(7) 0.6471(4) 0.2826(8)
C8 C 0.5763(7) 0.6366(4) 0.3651(8)
C9 C 0.6567(7) 0.7110(4) 0.4029(8)
C10 C 0.8074(7) 0.7007(4) 0.4415(8)
C11 C 0.8735(8) 0.6750(4) 0.3132(8)
C12 C 0.8339(7) 0.7225(4) 0.1775(8)
C13 C 0.8857(9) 0.6893(5) 0.0494(10)
C14 C 0.6833(7) 0.7290(4) 0.1454(8)
C15 C 0.6294(7) 0.7616(4) 0.2737(7)
C16 C 0.6355(8) 0.8723(4) 0.4232(8)
C17 C 0.7256(8) 0.9415(5) 0.4618(9)
C18 C 0.7639(8) 0.9555(4) 0.2279(8)
C19 C 0.6828(7) 0.8853(4) 0.1843(8)
O3 O 0.5048(4) 0.7261(2) 0.7387(5)
O4 O 0.2507(5) 0.5078(3) 0.7534(6)
N3 N 0.5966(6) 0.7859(3) 0.7588(6)
N4 N 0.2975(5) 0.6640(3) 0.7341(6)
C20 C 0.6542(7) 0.9083(4) 0.8161(7)
C21 C 0.6137(8) 0.9809(4) 0.8169(8)
C22 C 0.7117(8) 1.0392(4) 0.8293(9)
C23 C 0.8453(8) 1.0274(4) 0.8432(8)
C24 C 0.8860(8) 0.9574(4) 0.8427(9)
C25 C 0.7919(8) 0.8970(4) 0.8291(8)
C26 C 0.5546(7) 0.8461(4) 0.8042(7)
C27 C 0.4182(7) 0.8581(4) 0.8429(8)
C28 C 0.3326(7) 0.7843(4) 0.8494(8)
C29 C 0.1804(7) 0.8002(4) 0.8298(8)
C30 C 0.1287(8) 0.8305(4) 0.6868(9)
C31 C 0.1670(7) 0.7852(4) 0.5633(8)
C32 C 0.1236(9) 0.8279(5) 0.4223(10)
C33 C 0.3157(7) 0.7739(4) 0.5864(8)
C34 C 0.3579(7) 0.7367(4) 0.7272(7)
C35 C 0.3408(8) 0.6241(4) 0.8672(8)
C36 C 0.2471(8) 0.5551(4) 0.8735(9)
C37 C 0.2112(8) 0.5474(4) 0.6274(9)
C38 C 0.3014(7) 0.6161(4) 0.6132(8)
#END
