
#######################################################################
#
#                 Cambridge Crystallographic Data Centre
#                                CCDC
#
#######################################################################
#
# If this CIF has been generated from an entry in the Cambridge
# Structural Database, then it will include bibliographic, chemical,
# crystal, experimental, refinement or atomic coordinate data resulting
# from the CCDC's data processing and validation procedures.
#
#######################################################################

data_CSD_CIF_DALYEU
_audit_creation_date 1986-04-23
_audit_creation_method CSD-ConQuest-V1
_database_code_CSD DALYEU
_database_code_depnum_ccdc_archive 'CCDC 1135952'
_chemical_formula_sum 'C18 H19 N1 O3'
_chemical_formula_moiety
;
C18 H19 N1 O3
;
_journal_coden_Cambridge 35
_journal_volume 50
_journal_year 1985
_journal_page_first 1911
_journal_name_full 'J.Org.Chem. '
loop_
_publ_author_name
"D.L.Boger"
"M.Patel"
"F.Takusagawa"
_chemical_name_systematic
;
N-Benzoyl-2-formyl-11,12-oxazatricyclo(6.2.2.0^2,7^)dodec-4-ene
;
_cell_volume   1501.963
_exptl_crystal_colour 'colorless'
_exptl_crystal_density_diffrn 1.315
_diffrn_ambient_temperature ?
_diffrn_special_details
;
The study was carried out at room temperature,in the range 283-303K

;
_symmetry_cell_setting monoclinic
_symmetry_space_group_name_H-M 'P 21/c'
_symmetry_Int_Tables_number 14
loop_
_symmetry_equiv_pos_site_id
_symmetry_equiv_pos_as_xyz
1 x,y,z
2 -x,1/2+y,1/2-z
3 -x,-y,-z
4 x,-1/2-y,-1/2+z
_cell_length_a 11.031(2)
_cell_length_b 7.626(2)
_cell_length_c 17.855(3)
_cell_angle_alpha 90
_cell_angle_beta 90.43(2)
_cell_angle_gamma 90
_cell_formula_units_Z 4
loop_
_atom_type_symbol
_atom_type_radius_bond
C 0.68
N 0.68
O 0.68
loop_
_atom_site_label
_atom_site_type_symbol
_atom_site_fract_x
_atom_site_fract_y
_atom_site_fract_z
C1 C 0.0757(7) 0.833(1) 0.3240(6)
C2 C 0.0762(8) 0.923(1) 0.3996(5)
C3 C 0.1886(8) 0.861(1) 0.4444(5)
C4 C 0.2536(7) 0.719(1) 0.4003(5)
C5 C 0.3013(6) 0.7920(9) 0.3272(4)
C6 C 0.3801(8) 0.653(1) 0.2839(5)
C7 C 0.3969(9) 0.708(1) 0.2060(6)
C8 C 0.305(1) 0.764(1) 0.1645(6)
C9 C 0.1865(9) 0.772(2) 0.2003(6)
C10 C 0.1930(7) 0.8578(9) 0.2786(5)
O1 O 0.0653(5) 0.6398(7) 0.3353(4)
N1 N 0.1644(5) 0.5828(8) 0.3820(4)
C11 C 0.1994(7) 1.052(1) 0.2624(6)
O2 O 0.2810(6) 1.1455(7) 0.2786(4)
C12 C 0.1353(7) 0.439(1) 0.4249(5)
O3 O 0.0335(5) 0.3715(7) 0.4225(4)
C13 C 0.2319(6) 0.3643(8) 0.4723(4)
C14 C 0.2051(7) 0.321(1) 0.5456(5)
C15 C 0.2872(8) 0.236(1) 0.5901(5)
C16 C 0.3997(8) 0.191(1) 0.5624(5)
C17 C 0.4263(7) 0.234(1) 0.4892(5)
C18 C 0.3460(7) 0.320(1) 0.4422(6)
#END
