
#######################################################################
#
#                 Cambridge Crystallographic Data Centre
#                                CCDC
#
#######################################################################
#
# If this CIF has been generated from an entry in the Cambridge
# Structural Database, then it will include bibliographic, chemical,
# crystal, experimental, refinement or atomic coordinate data resulting
# from the CCDC's data processing and validation procedures.
#
#######################################################################

data_CSD_CIF_DALYOE
_audit_creation_date 1986-04-23
_audit_creation_method CSD-ConQuest-V1
_database_code_CSD DALYOE
_chemical_formula_sum 'C19 H26 N2 O2'
_chemical_formula_moiety
;
C19 H26 N2 O2
;
_journal_coden_Cambridge 16
_journal_volume 40
_journal_year 1984
_journal_page_first 2041
_journal_name_full 'Tetrahedron '
loop_
_publ_author_name
"M.T.Cocco"
"A.Maccioni"
"A.Plumitallo"
"M.Cannas"
"G.Marongiu"
_chemical_name_systematic
;
9-Methyl-1-morpholino-4-phenyl-2,3-oxazabicyclo(4.4.0)dec-3-ene
;
_chemical_melting_point 438.15
_cell_volume   1670.785
_exptl_crystal_density_diffrn 1.25
_exptl_special_details
;
Melting point range 438.15-439.15K
isomer b
Volume reported as 1671.0, dx as 1.25. We calculate 2099.2 and 0.99, 
respectively. c=11.700
;
_diffrn_ambient_temperature ?
_diffrn_special_details
;
The study was carried out at room temperature,in the range 283-303K

;
#These two values have been output from a single CSD field.
_refine_ls_R_factor_gt 0.092
_refine_ls_wR_factor_gt 0.092
loop_
_citation_database_id_CSD
_citation_special_details
DALYIY "is a stereoisomer of this entry"
_symmetry_cell_setting monoclinic
_symmetry_space_group_name_H-M 'P 21/c'
_symmetry_Int_Tables_number 14
loop_
_symmetry_equiv_pos_site_id
_symmetry_equiv_pos_as_xyz
1 x,y,z
2 -x,1/2+y,1/2-z
3 -x,-y,-z
4 x,-1/2-y,-1/2+z
_cell_length_a 11.261(6)
_cell_length_b 13.312(7)
_cell_length_c 11.700(6)
_cell_angle_alpha 90
_cell_angle_beta 107.71(10)
_cell_angle_gamma 90
_cell_formula_units_Z 4
loop_
_atom_type_symbol
_atom_type_radius_bond
C 0.68
N 0.68
O 0.68
loop_
_atom_site_label
_atom_site_type_symbol
_atom_site_fract_x
_atom_site_fract_y
_atom_site_fract_z
O1 O 0.5894(4) 0.1530(3) 0.0322(4)
O2 O 0.7516(5) 0.4817(4) 0.2031(4)
N1 N 0.4622(5) 0.1840(4) 0.0061(5)
N2 N 0.6752(5) 0.2798(4) 0.1703(4)
C1 C 0.2921(6) 0.2319(5) 0.0648(6)
C2 C 0.2520(6) 0.2982(5) -0.0278(6)
C3 C 0.1298(7) 0.3374(5) -0.0604(6)
C4 C 0.0519(7) 0.3106(5) 0.0049(7)
C5 C 0.0917(7) 0.2432(6) 0.0977(7)
C6 C 0.2120(6) 0.2029(5) 0.1301(6)
C7 C 0.4186(6) 0.1910(5) 0.0965(6)
C8 C 0.4887(6) 0.1672(5) 0.2256(6)
C9 C 0.6142(6) 0.1176(5) 0.2408(6)
C10 C 0.6044(7) 0.0047(5) 0.2182(6)
C11 C 0.7326(6) -0.0387(5) 0.2279(6)
C12 C 0.7886(6) 0.0089(5) 0.1374(6)
C13 C 0.9156(7) -0.0363(6) 0.1457(7)
C14 C 0.7932(6) 0.1220(5) 0.1508(6)
C15 C 0.6684(5) 0.1707(4) 0.1508(5)
C16 C 0.7636(6) 0.3128(5) 0.2840(6)
C17 C 0.7397(6) 0.4222(5) 0.3012(6)
C18 C 0.6675(7) 0.4431(5) 0.0909(7)
C19 C 0.6925(6) 0.3362(5) 0.0708(6)
#END
