
#######################################################################
#
#                 Cambridge Crystallographic Data Centre
#                                CCDC
#
#######################################################################
#
# If this CIF has been generated from an entry in the Cambridge
# Structural Database, then it will include bibliographic, chemical,
# crystal, experimental, refinement or atomic coordinate data resulting
# from the CCDC's data processing and validation procedures.
#
#######################################################################

data_CSD_CIF_DAMTOB
_audit_creation_date 2005-04-11
_audit_creation_method CSD-ConQuest-V1
_database_code_CSD DAMTOB
_database_code_depnum_ccdc_archive 'CCDC 260416'
_database_code_depnum_ccdc_journal 1267/1293
_chemical_formula_sum 'C13 H16 N2 O6'
_chemical_formula_moiety
;
C13 H16 N2 O6
;
_journal_coden_Cambridge 1267
_journal_volume 219
_journal_year 2004
_journal_page_first 287
_journal_name_full 'Z.Kristallogr.-New Cryst.Struct. '
loop_
_publ_author_name
"W.Frey"
"J.Y.Lee"
"V.Jager"
_chemical_name_systematic
;
Diethyl 
rel-(3aS,4aS,7aR,7bR)-4,4a,7a,7b-tetrahydro-3aH-cyclopenta(1,2-d:4,3-d)diisoxa
zole-3,5-dicarboxylate
;
_chemical_melting_point 372
_cell_volume    720.048
_exptl_crystal_colour 'colorless'
_exptl_crystal_density_diffrn 1.367
_exptl_special_details
;
Melts with decomposition.

;
_exptl_crystal_description 'block'
_exptl_crystal_preparation 'petroleum ether'
_diffrn_ambient_temperature 293
#These two values have been output from a single CSD field.
_refine_ls_R_factor_gt 0.0595
_refine_ls_wR_factor_gt 0.0595
_symmetry_cell_setting triclinic
_symmetry_space_group_name_H-M 'P -1'
_symmetry_Int_Tables_number 2
loop_
_symmetry_equiv_pos_site_id
_symmetry_equiv_pos_as_xyz
1 x,y,z
2 -x,-y,-z
_cell_length_a 8.3495(11)
_cell_length_b 9.2578(12)
_cell_length_c 10.9325(15)
_cell_angle_alpha 69.581(10)
_cell_angle_beta 79.794(11)
_cell_angle_gamma 65.485(10)
_cell_formula_units_Z 2
loop_
_atom_type_symbol
_atom_type_radius_bond
C 0.68
H 0.23
N 0.68
O 0.68
loop_
_atom_site_label
_atom_site_type_symbol
_atom_site_fract_x
_atom_site_fract_y
_atom_site_fract_z
C1 C 0.2342(4) 0.7814(4) 0.4710(3)
N1 N 0.3462(3) 0.6932(4) 0.5599(2)
O1 O 0.4979(3) 0.7285(4) 0.5203(2)
O2 O 0.7052(3) 0.8147(3) 0.2045(2)
N2 N 0.6856(3) 0.8216(3) 0.0793(2)
C2 C 0.2914(4) 0.8935(4) 0.3520(3)
H1 H 0.22550 1.01130 0.34570
O3 O -0.0631(3) 0.8827(3) 0.4224(2)
C3 C 0.4839(4) 0.8350(4) 0.3852(3)
H2 H 0.51600 0.92960 0.37370
O4 O 0.0422(3) 0.6516(3) 0.5907(2)
C4 C 0.5653(4) 0.7685(4) 0.0808(3)
O5 O 0.5954(4) 0.8057(4) -0.1481(2)
C5 C 0.4747(4) 0.7256(4) 0.2118(3)
H3 H 0.47000 0.61490 0.23650
O6 O 0.3718(3) 0.7434(3) -0.0285(2)
C6 C 0.5965(4) 0.7320(4) 0.2967(3)
H4 H 0.66970 0.61930 0.34810
C7 C 0.2930(4) 0.8616(4) 0.2232(3)
H5 H 0.27670 0.96250 0.15020
H6 H 0.20000 0.82390 0.22480
C8 C 0.0539(4) 0.7792(4) 0.4908(3)
C9 C -0.1305(4) 0.6388(5) 0.6163(4)
H7 H -0.16200 0.62170 0.54270
H8 H -0.22000 0.74050 0.62990
C10 C -0.1181(5) 0.4966(5) 0.7339(5)
H9 H -0.22960 0.48480 0.75320
H10 H -0.08730 0.51510 0.80600
H11 H -0.02940 0.39680 0.71930
C11 C 0.5172(4) 0.7742(4) -0.0446(3)
C12 C 0.2988(6) 0.7586(7) -0.1460(4)
H12 H 0.27140 0.87080 -0.20590
H13 H 0.38480 0.68110 -0.18920
C13 C 0.1417(7) 0.7233(8) -0.1124(5)
H14 H 0.09410 0.73370 -0.19020
H15 H 0.05640 0.80080 -0.07050
H16 H 0.16950 0.61170 -0.05400
#END
