
#######################################################################
#
#                 Cambridge Crystallographic Data Centre
#                                CCDC
#
#######################################################################
#
# If this CIF has been generated from an entry in the Cambridge
# Structural Database, then it will include bibliographic, chemical,
# crystal, experimental, refinement or atomic coordinate data resulting
# from the CCDC's data processing and validation procedures.
#
#######################################################################

data_CSD_CIF_DANDIH
_audit_creation_date 2011-12-21
_audit_creation_method CSD-ConQuest-V1
_database_code_CSD DANDIH
_database_code_depnum_ccdc_archive 'CCDC 838206'
_chemical_formula_sum 'C38 H32 N4 O19'
_chemical_formula_moiety
;
C38 H32 N4 O19
;
_journal_coden_Cambridge 1336
_journal_volume 13
_journal_year 2011
_journal_page_first 5290
_journal_name_full 'Org.Lett. '
loop_
_publ_author_name
"Wenjie Peng"
"A.B.Jayasuriya"
"A.Imamura"
"T.L.Lowary"
_chemical_name_systematic
;
2-Ethoxy-6-(1-methoxy-2-((4-nitrobenzoyl)oxy)ethyl)tetrahydro-2H-pyran-3,4,5-t
riyl tris(4-nitrobenzoate)
;
_chemical_name_common
;
ethyl 
6-O-methyl-2,3,4,7-tetra-O-p-nitrobenzoyl-D-glycero-alpha-L-gluco-heptopyranos
ide
;
_cell_volume   4057.970
_exptl_crystal_colour 'colorless'
_exptl_crystal_density_diffrn 1.389
_exptl_crystal_description 'block'
_diffrn_ambient_temperature 173
_refine_special_details
;
C8A,C9A and C8B,C9B disordered over two sites with occupancies 0.65:0.35.

;
#These two values have been output from a single CSD field.
_refine_ls_R_factor_gt 0.0343
_refine_ls_wR_factor_gt 0.0343
_symmetry_cell_setting monoclinic
_symmetry_space_group_name_H-M 'C 2'
_symmetry_Int_Tables_number 5
loop_
_symmetry_equiv_pos_site_id
_symmetry_equiv_pos_as_xyz
1 x,y,z
2 -x,y,-z
3 1/2+x,1/2+y,z
4 1/2-x,1/2+y,-z
_cell_length_a 21.7700(7)
_cell_length_b 12.9719(4)
_cell_length_c 14.4182(5)
_cell_angle_alpha 90
_cell_angle_beta 94.7022(4)
_cell_angle_gamma 90
_cell_formula_units_Z 4
loop_
_atom_type_symbol
_atom_type_radius_bond
C 0.68
H 0.23
N 0.68
O 0.68
loop_
_atom_site_label
_atom_site_type_symbol
_atom_site_fract_x
_atom_site_fract_y
_atom_site_fract_z
O1 O 0.63646(8) 0.21091(15) 0.17403(11)
O2 O 0.69853(7) 0.31365(12) 0.31732(9)
O3 O 0.81028(6) 0.35672(11) 0.22714(9)
O4 O 0.80124(6) 0.27780(11) 0.04057(9)
O5 O 0.64295(6) 0.35140(13) 0.07405(9)
O6 O 0.69145(8) 0.46101(12) -0.06533(10)
O7 O 0.63391(7) 0.35979(13) -0.21916(9)
O8 O 0.73191(12) 0.46604(16) 0.37589(13)
O9 O 0.71321(13) 0.1175(2) 0.76200(14)
O10 O 0.78976(11) 0.2196(3) 0.79842(13)
O11 O 0.84078(9) 0.20941(15) 0.29755(17)
O12 O 1.06064(12) 0.6144(2) 0.4218(2)
O13 O 1.10977(11) 0.4724(3) 0.4424(3)
O14 O 0.85471(10) 0.41869(16) 0.00555(19)
O15 O 1.00660(11) -0.0414(2) -0.14407(17)
O16 O 1.05123(14) 0.0892(3) -0.2034(2)
O17 O 0.55701(9) 0.25693(15) -0.27563(11)
O18 O 0.60170(17) 0.64557(19) -0.62054(15)
O19 O 0.58809(13) 0.5041(2) -0.69777(12)
N1 N 0.74942(11) 0.1841(2) 0.74356(13)
N2 N 1.06444(11) 0.5214(2) 0.4163(2)
N3 N 1.01251(11) 0.0517(2) -0.15791(16)
N4 N 0.59484(13) 0.55234(19) -0.62503(14)
C1 C 0.64057(10) 0.31676(19) 0.16766(13)
H1 H 0.60400 0.34840 0.19430
C2 C 0.69880(9) 0.35293(17) 0.22368(12)
H2 H 0.70050 0.43000 0.22460
C3 C 0.75548(9) 0.30966(16) 0.18238(12)
H3 H 0.75720 0.23310 0.19020
C4 C 0.75416(8) 0.33806(16) 0.07993(12)
H4 H 0.76240 0.41340 0.07270
C5 C 0.69283(9) 0.30864(16) 0.02783(12)
H5 H 0.68890 0.23190 0.02540
C6 C 0.68888(9) 0.35205(16) -0.07098(12)
H6 H 0.72540 0.32730 -0.10240
C7 C 0.63091(10) 0.31575(19) -0.12702(13)
H7 H 0.62970 0.23950 -0.13030
H8 H 0.59370 0.34030 -0.09850
C8 C 0.5725(4) 0.1833(6) 0.1514(7)
H9 H 0.55810 0.20800 0.08840
H10 H 0.54600 0.21410 0.19680
C9 C 0.5701(3) 0.0705(5) 0.1556(6)
H11 H 0.52740 0.04740 0.14300
H12 H 0.58590 0.04730 0.21770
H13 H 0.59540 0.04130 0.10900
C10 C 0.72900(15) 0.5099(2) -0.12909(18)
H14 H 0.74620 0.57380 -0.10150
H15 H 0.70390 0.52590 -0.18690
H16 H 0.76270 0.46350 -0.14270
C11 C 0.71992(10) 0.37685(19) 0.38629(14)
C12 C 0.72755(9) 0.32241(19) 0.47785(13)
C13 C 0.70464(11) 0.22409(18) 0.49095(14)
H17 H 0.68470 0.18780 0.43970
C14 C 0.71064(12) 0.17816(19) 0.57883(15)
H18 H 0.69330 0.11240 0.58940
C15 C 0.74264(10) 0.2319(2) 0.64954(14)
C16 C 0.76717(12) 0.3283(3) 0.63830(16)
H19 H 0.78960 0.36220 0.68870
C17 C 0.75845(12) 0.3750(3) 0.55170(16)
H20 H 0.77350 0.44280 0.54290
C18 C 0.84983(10) 0.29724(17) 0.27955(15)
C19 C 0.90591(9) 0.35760(17) 0.31363(14)
C20 C 0.90726(11) 0.46450(19) 0.30842(18)
H21 H 0.87220 0.50080 0.28180
C21 C 0.95926(12) 0.5184(2) 0.34178(19)
H22 H 0.96050 0.59160 0.33930
C22 C 1.00921(11) 0.4624(2) 0.37880(18)
C23 C 1.01024(11) 0.3568(2) 0.38338(17)
H23 H 1.04610 0.32120 0.40790
C24 C 0.95755(11) 0.30352(19) 0.35127(17)
H24 H 0.95660 0.23040 0.35480
C25 C 0.84838(10) 0.32689(19) 0.00477(15)
C26 C 0.89037(9) 0.25253(18) -0.03661(14)
C27 C 0.88333(9) 0.14694(18) -0.02780(15)
H25 H 0.85100 0.12030 0.00560
C28 C 0.92321(10) 0.0800(2) -0.06752(16)
H26 H 0.91900 0.00750 -0.06150
C29 C 0.96915(10) 0.1219(2) -0.11606(15)
C30 C 0.97702(11) 0.2259(2) -0.12662(17)
H27 H 1.00900 0.25190 -0.16110
C31 C 0.93741(11) 0.2922(2) -0.08611(17)
H28 H 0.94220 0.36470 -0.09200
C32 C 0.59229(9) 0.32652(17) -0.28540(13)
C33 C 0.59531(9) 0.38609(17) -0.37358(13)
C34 C 0.61629(11) 0.48701(18) -0.37301(14)
H29 H 0.63100 0.51830 -0.31590
C35 C 0.61593(13) 0.54270(18) -0.45545(15)
H30 H 0.62960 0.61220 -0.45570
C36 C 0.59497(11) 0.49341(19) -0.53712(14)
C37 C 0.57498(10) 0.39279(19) -0.54034(14)
H31 H 0.56180 0.36090 -0.59790
C38 C 0.57455(9) 0.33925(18) -0.45735(14)
H32 H 0.56000 0.27020 -0.45750
C39? C 0.5804(10) 0.1460(11) 0.1662(15)
C40? C 0.5491(6) 0.1478(12) 0.0722(9)
H33? H 0.59190 0.07410 0.18280
H34? H 0.55170 0.17070 0.21110
H35? H 0.50650 0.12400 0.07450
H36? H 0.57070 0.10230 0.03150
H37? H 0.54900 0.21830 0.04780
#END
