
#######################################################################
#
#                 Cambridge Crystallographic Data Centre
#                                CCDC
#
#######################################################################
#
# If this CIF has been generated from an entry in the Cambridge
# Structural Database, then it will include bibliographic, chemical,
# crystal, experimental, refinement or atomic coordinate data resulting
# from the CCDC's data processing and validation procedures.
#
#######################################################################

data_CSD_CIF_DANKEJ
_audit_creation_date 2005-04-12
_audit_creation_method CSD-ConQuest-V1
_database_code_CSD DANKEJ
_database_code_depnum_ccdc_archive 'CCDC 218815'
_chemical_formula_sum 'C15 H22 N2 O6'
_chemical_formula_moiety
;
C15 H22 N2 O6
;
_journal_coden_Cambridge 388
_journal_volume 40
_journal_year 2004
_journal_page_first 1247
_journal_name_full 'Zh.Org.Khim.(Russ.)(Russ.J.Org.Chem.) '
loop_
_publ_author_name
"S.P.Gromov"
"S.N.Dmitrieva"
"M.V.Churakova"
"A.I.Vedernikov"
"N.A.Kurchavov"
"L.G.Kuz'mina"
"N.A.Kataeva"
"J.A.K.Howard"
_chemical_name_systematic
;
13-Methyl-16-nitro-2,3,5,6,8,9,12,13-octahydro-11H-1,4,7,10,13-benzotetraoxaza
cyclopentadecine
;
_chemical_melting_point 366.15
_cell_volume   1572.779
_exptl_crystal_colour 'colorless'
_exptl_crystal_density_diffrn 1.378
_exptl_special_details
;
Melting point range 366.15-368.15K

;
_exptl_crystal_description 'plate'
_exptl_crystal_preparation 'hexane'
_diffrn_ambient_temperature 120
#These two values have been output from a single CSD field.
_refine_ls_R_factor_gt 0.0887
_refine_ls_wR_factor_gt 0.0887
_symmetry_cell_setting monoclinic
_symmetry_space_group_name_H-M 'P 21/n'
_symmetry_Int_Tables_number 14
loop_
_symmetry_equiv_pos_site_id
_symmetry_equiv_pos_as_xyz
1 x,y,z
2 1/2+x,1/2-y,1/2+z
3 -x,-y,-z
4 -1/2-x,-1/2+y,-1/2-z
_cell_length_a 15.055(3)
_cell_length_b 4.4509(9)
_cell_length_c 23.668(5)
_cell_angle_alpha 90
_cell_angle_beta 97.39(3)
_cell_angle_gamma 90
_cell_formula_units_Z 4
loop_
_atom_type_symbol
_atom_type_radius_bond
C 0.68
H 0.23
N 0.68
O 0.68
loop_
_atom_site_label
_atom_site_type_symbol
_atom_site_fract_x
_atom_site_fract_y
_atom_site_fract_z
O1 O 0.6834(2) 1.0811(8) -0.02692(13)
O2 O 0.6131(2) 0.9752(7) 0.07739(13)
O3 O 0.7711(2) 0.8300(7) 0.15162(14)
O4 O 0.9190(2) 0.9194(7) 0.08486(13)
O5 O 0.5550(2) 1.2217(10) -0.27388(14)
O6 O 0.5087(2) 1.4844(9) -0.2060(2)
N1 N 0.8258(2) 0.7754(8) -0.0639(2)
N2 N 0.5593(3) 1.2949(10) -0.2229(2)
C1 C 0.6149(3) 1.2660(11) -0.0073(2)
C2 C 0.6303(3) 1.2670(11) 0.0569(2)
C3 C 0.6163(3) 0.9624(11) 0.1381(2)
C4 C 0.7074(3) 1.0288(11) 0.1709(2)
C5 C 0.8610(3) 0.8943(12) 0.1762(2)
C6 C 0.9256(3) 0.7716(12) 0.1387(2)
C7 C 0.8621(3) 0.7674(11) 0.0412(2)
C8 C 0.8640(3) 0.9464(11) -0.0132(2)
C9 C 0.8932(3) 0.5938(11) -0.0871(2)
C10 C 0.7589(3) 0.8994(10) -0.1026(2)
C11 C 0.7580(3) 0.8554(11) -0.1612(2)
C12 C 0.6917(3) 0.9760(11) -0.2006(2)
C13 C 0.6256(3) 1.1546(11) -0.1823(2)
C14 C 0.6226(3) 1.2002(11) -0.1241(2)
C15 C 0.6857(3) 1.0669(10) -0.0843(2)
H1 H 0.5544(38) 1.192(12) -0.0229(23)
H2 H 0.6210(33) 1.461(13) -0.0173(22)
H3 H 0.6930(34) 1.338(11) 0.0727(21)
H4 H 0.5834(44) 1.405(16) 0.0694(28)
H5 H 0.5988(26) 0.766(10) 0.1467(17)
H6 H 0.5740(31) 1.100(11) 0.1501(19)
H7 H 0.7239(38) 1.252(14) 0.1674(24)
H8 H 0.7088(35) 0.990(13) 0.2138(24)
H9 H 0.8738(38) 0.788(14) 0.2196(25)
H10 H 0.8619(41) 1.110(16) 0.1783(27)
H11 H 0.9898(41) 0.791(14) 0.1544(26)
H12 H 0.9176(35) 0.563(13) 0.1313(22)
H13 H 0.8002(34) 0.758(12) 0.0531(21)
H14 H 0.8834(31) 0.551(12) 0.0366(20)
H15 H 0.8279(31) 1.145(11) -0.0101(20)
H16 H 0.9301(31) 1.005(11) -0.0159(19)
H17 H 0.8680(32) 0.421(12) -0.1109(21)
H18 H 0.9367(38) 0.517(13) -0.0589(25)
H19 H 0.9292(31) 0.711(11) -0.1139(21)
H20 H 0.8013(35) 0.745(12) -0.1744(21)
H21 H 0.6878(27) 0.9403(98) -0.2407(19)
H22 H 0.5818(42) 1.307(14) -0.1147(25)
#END
