
#######################################################################
#
#                 Cambridge Crystallographic Data Centre
#                                CCDC
#
#######################################################################
#
# If this CIF has been generated from an entry in the Cambridge
# Structural Database, then it will include bibliographic, chemical,
# crystal, experimental, refinement or atomic coordinate data resulting
# from the CCDC's data processing and validation procedures.
#
#######################################################################

data_CSD_CIF_DANREP10
_audit_creation_date 1987-02-04
_audit_creation_method CSD-ConQuest-V1
_database_code_CSD DANREP10
_chemical_formula_sum 'C18 H24 N2 O2'
_chemical_formula_moiety
;
C18 H24 N2 O2
;
_journal_coden_Cambridge 154
_journal_volume 39
_journal_year 1986
_journal_page_first 357
_journal_name_full 'Aust.J.Chem. '
loop_
_publ_author_name
"W.K.Busfield"
"L.M.Engelhardt"
"P.C.Healy"
"I.D.Jenkins"
"S.H.Thang"
"A.H.White"
_chemical_name_systematic
;
5-(1,1,3,3-Tetramethyl-isoindolin-2-yloxy)-1-vinylpyrrolidin-2-one
;
_chemical_melting_point 358.15
_cell_volume   1700.807
_exptl_crystal_density_diffrn 1.17
_exptl_special_details
;
Melting point range 358.15-359.15K

;
_diffrn_ambient_temperature ?
_diffrn_special_details
;
The study was carried out at room temperature,in the range 283-303K

;
#These two values have been output from a single CSD field.
_refine_ls_R_factor_gt 0.046
_refine_ls_wR_factor_gt 0.046
_symmetry_cell_setting monoclinic
_symmetry_space_group_name_H-M 'P 21/c'
_symmetry_Int_Tables_number 14
loop_
_symmetry_equiv_pos_site_id
_symmetry_equiv_pos_as_xyz
1 x,y,z
2 -x,1/2+y,1/2-z
3 -x,-y,-z
4 x,-1/2-y,-1/2+z
_cell_length_a 8.295(2)
_cell_length_b 13.567(5)
_cell_length_c 15.294(3)
_cell_angle_alpha 90
_cell_angle_beta 98.82(2)
_cell_angle_gamma 90
_cell_formula_units_Z 4
loop_
_atom_type_symbol
_atom_type_radius_bond
C 0.68
H 0.23
N 0.68
O 0.68
loop_
_atom_site_label
_atom_site_type_symbol
_atom_site_fract_x
_atom_site_fract_y
_atom_site_fract_z
C1 C 0.7085(4) 0.8328(3) 0.0064(2)
C2 C 0.7251(5) 0.9384(3) 0.0387(3)
C3 C 0.5608(5) 0.8236(3) -0.0667(3)
C4 C 0.8599(4) 0.7951(3) -0.0260(2)
C5 C 0.9514(5) 0.8414(3) -0.0830(3)
C6 C 1.0874(5) 0.7925(4) -0.1033(3)
C7 C 1.1300(5) 0.7012(4) -0.0692(3)
C8 C 1.0380(5) 0.6544(3) -0.0130(3)
C9 C 0.9021(4) 0.7030(3) 0.0077(2)
C10 C 0.7840(4) 0.6683(3) 0.0678(3)
C11 C 0.8708(5) 0.6286(3) 0.1557(3)
C12 C 0.6670(5) 0.5905(3) 0.0229(3)
N1 N 0.7056(3) 0.7654(2) 0.0839(2)
O1 O 0.5388(3) 0.7498(2) 0.0958(2)
C13 C 0.5165(5) 0.7622(3) 0.1857(2)
N2 N 0.5190(5) 0.8634(3) 0.2142(2)
C14 C 0.6548(11) 0.9131(7) 0.2547(4)
C15 C 0.7746(12) 0.9162(10) 0.2765(5)
C16 C 0.3666(8) 0.9049(4) 0.2006(3)
O2 O 0.3429(6) 0.9915(3) 0.2160(3)
C17 C 0.2472(6) 0.8276(4) 0.1677(3)
C18 C 0.3394(5) 0.7327(4) 0.1869(3)
H1 H 0.63900 0.95500 0.07100
H2 H 0.82600 0.94500 0.07600
H3 H 0.72100 0.98200 -0.01100
H4 H 0.55600 0.75900 -0.09000
H5 H 0.46000 0.83600 -0.04200
H6 H 0.55300 0.86800 -0.11700
H7 H 0.91900 0.90800 -0.10900
H8 H 1.15300 0.82300 -0.14300
H9 H 1.23600 0.67300 -0.08100
H10 H 1.06600 0.58500 0.00400
H11 H 0.95700 0.67300 0.17800
H12 H 0.79900 0.62300 0.20000
H13 H 0.91700 0.56500 0.14900
H14 H 0.57300 0.57700 0.05100
H15 H 0.62200 0.61300 -0.03700
H16 H 0.70800 0.52400 0.01100
H17 H 0.58900 0.72000 0.22800
H18 H 0.14900 0.82900 0.19500
H19 H 0.20700 0.83400 0.10400
H20 H 0.30600 0.68500 0.14100
H21 H 0.32000 0.70500 0.24200
H22 H 0.64400 0.99100 0.28100
H23 H 0.86900 0.94900 0.30400
H24 H 0.81400 0.84900 0.26200
#END
