
#######################################################################
#
#                 Cambridge Crystallographic Data Centre
#                                CCDC
#
#######################################################################
#
# If this CIF has been generated from an entry in the Cambridge
# Structural Database, then it will include bibliographic, chemical,
# crystal, experimental, refinement or atomic coordinate data resulting
# from the CCDC's data processing and validation procedures.
#
#######################################################################

data_CSD_CIF_DAPJEK
_audit_creation_date 2005-10-20
_audit_creation_method CSD-ConQuest-V1
_database_code_CSD DAPJEK
_database_code_depnum_ccdc_archive 'CCDC 265214'
_chemical_formula_sum 'C14 H14 N2 O6'
_chemical_formula_moiety
;
C14 H14 N2 O6
;
_journal_coden_Cambridge 177
_journal_volume 3
_journal_year 2005
_journal_page_first 1776
_journal_name_full 'Org.Biomol.Chem. '
loop_
_publ_author_name
"N.L.Fifer"
"J.M.White"
_chemical_name_systematic
;
dicylopropylmethyl 2,4-dinitrobenzoate
;
_cell_volume   1421.971
_exptl_crystal_colour 'colorless'
_exptl_crystal_density_diffrn 1.431
_exptl_crystal_description 'plate'
_diffrn_ambient_temperature 130
#These two values have been output from a single CSD field.
_refine_ls_R_factor_gt 0.0379
_refine_ls_wR_factor_gt 0.0379
_symmetry_cell_setting monoclinic
_symmetry_space_group_name_H-M 'P 21/n'
_symmetry_Int_Tables_number 14
loop_
_symmetry_equiv_pos_site_id
_symmetry_equiv_pos_as_xyz
1 x,y,z
2 1/2-x,1/2+y,1/2-z
3 -x,-y,-z
4 -1/2+x,-1/2-y,-1/2+z
_cell_length_a 14.0459(19)
_cell_length_b 7.8502(11)
_cell_length_c 14.279(2)
_cell_angle_alpha 90
_cell_angle_beta 115.424(2)
_cell_angle_gamma 90
_cell_formula_units_Z 4
loop_
_atom_type_symbol
_atom_type_radius_bond
C 0.68
H 0.23
N 0.68
O 0.68
loop_
_atom_site_label
_atom_site_type_symbol
_atom_site_fract_x
_atom_site_fract_y
_atom_site_fract_z
C1 C 0.57516(14) 0.24270(18) 0.68230(12)
C2 C 0.47633(13) 0.1932(2) 0.59258(12)
C3 C 0.40973(16) 0.3299(2) 0.52034(16)
C4 C 0.37249(17) 0.2383(3) 0.59028(17)
C5 C 0.67406(15) 0.2429(2) 0.66614(13)
C6 C 0.66869(16) 0.2437(2) 0.55918(15)
C7 C 0.70552(15) 0.0875(2) 0.62523(15)
C8 C 0.56566(12) 0.15587(18) 0.84055(11)
C9 C 0.58256(11) 0.00743(17) 0.91218(11)
C10 C 0.55482(11) -0.16108(17) 0.87933(11)
C11 C 0.57980(12) -0.29657(18) 0.94715(11)
C12 C 0.63193(11) -0.25889(17) 1.05141(11)
C13 C 0.65925(12) -0.09508(18) 1.08850(12)
C14 C 0.63470(12) 0.03714(18) 1.01821(11)
N1 N 0.49130(11) -0.19789(15) 0.76885(10)
N2 N 0.65891(10) -0.39940(16) 1.12676(10)
O1 O 0.59367(9) 0.11491(12) 0.76573(8)
O2 O 0.53681(10) 0.29364(13) 0.85491(8)
O3 O 0.41493(10) -0.10745(15) 0.72215(9)
O4 O 0.51825(14) -0.31770(16) 0.73122(10)
O5 O 0.63811(10) -0.54516(13) 1.09350(9)
O6 O 0.69972(10) -0.36253(15) 1.21866(8)
H1 H 0.5705(13) 0.352(2) 0.7121(13)
H2 H 0.4805(15) 0.075(2) 0.5604(13)
H3 H 0.3781(14) 0.306(2) 0.4480(15)
H4 H 0.4335(16) 0.446(3) 0.5394(14)
H5 H 0.3148(16) 0.151(2) 0.5515(14)
H6 H 0.3770(16) 0.305(2) 0.6509(15)
H7 H 0.7357(18) 0.298(3) 0.7198(16)
H8 H 0.7213(18) 0.312(3) 0.5483(16)
H9 H 0.5935(19) 0.237(2) 0.4983(16)
H10 H 0.7820(18) 0.061(2) 0.6602(15)
H11 H 0.6540(17) -0.012(3) 0.6084(14)
H12 H 0.5610(12) -0.403(2) 0.9238(11)
H13 H 0.6940(13) -0.0768(19) 1.1616(13)
H14 H 0.6525(14) 0.147(2) 1.0400(12)
#END
