
#######################################################################
#
#                 Cambridge Crystallographic Data Centre
#                                CCDC
#
#######################################################################
#
# If this CIF has been generated from an entry in the Cambridge
# Structural Database, then it will include bibliographic, chemical,
# crystal, experimental, refinement or atomic coordinate data resulting
# from the CCDC's data processing and validation procedures.
#
#######################################################################

data_CSD_CIF_DAPYOI
_audit_creation_date 1986-04-23
_audit_creation_method CSD-ConQuest-V1
_database_code_CSD DAPYOI
_chemical_formula_sum 'C10 H11 N3 O3'
_chemical_formula_moiety
;
C10 H11 N3 O3
;
_journal_coden_Cambridge 35
_journal_volume 50
_journal_year 1985
_journal_page_first 2174
_journal_name_full 'J.Org.Chem. '
loop_
_publ_author_name
"S.Nagarajan"
"S.R.Wilson"
"K.L.Rinehart Junior"
_chemical_name_systematic
;
\b-Methyl-3-benzotriazole-propionic acid 1-oxide
;
_chemical_melting_point 501.15
_cell_volume   4207.881
_exptl_crystal_colour 'colorless'
_exptl_crystal_density_diffrn 1.396
_diffrn_ambient_temperature ?
_diffrn_special_details
;
The study was carried out at room temperature,in the range 283-303K

;
#These two values have been output from a single CSD field.
_refine_ls_R_factor_gt 0.038
_refine_ls_wR_factor_gt 0.038
_symmetry_cell_setting orthorhombic
_symmetry_space_group_name_H-M 'P b c a'
_symmetry_Int_Tables_number 61
loop_
_symmetry_equiv_pos_site_id
_symmetry_equiv_pos_as_xyz
1 x,y,z
2 1/2-x,1/2+y,z
3 x,1/2-y,1/2+z
4 1/2-x,-y,1/2+z
5 -x,-y,-z
6 -1/2+x,-1/2-y,-z
7 -x,-1/2+y,-1/2-z
8 -1/2+x,y,-1/2-z
_cell_length_a 7.458(2)
_cell_length_b 24.652(10)
_cell_length_c 22.887(8)
_cell_angle_alpha 90
_cell_angle_beta 90
_cell_angle_gamma 90
_cell_formula_units_Z 16
loop_
_atom_type_symbol
_atom_type_radius_bond
C 0.68
H 0.23
N 0.68
O 0.68
loop_
_atom_site_label
_atom_site_type_symbol
_atom_site_fract_x
_atom_site_fract_y
_atom_site_fract_z
O1 O 0.7859(2) 0.47862(6) 0.13190(7)
O2 O 0.9620(2) 0.26165(8) 0.07527(8)
O3 O 0.7604(3) 0.2344(1) 0.1369(1)
N1 N 0.7130(2) 0.43119(6) 0.14310(7)
N2 N 0.6668(2) 0.39833(7) 0.10045(7)
N3 N 0.5960(2) 0.35473(6) 0.12684(7)
C1 C 0.5984(3) 0.35995(8) 0.18638(8)
C2 C 0.5442(3) 0.32626(9) 0.23236(9)
C3 C 0.5707(3) 0.3466(1) 0.28755(9)
C4 C 0.6463(3) 0.3985(1) 0.2979(1)
C5 C 0.7011(3) 0.43085(9) 0.2534(1)
C6 C 0.6751(3) 0.41043(7) 0.19718(8)
C7 C 0.7979(3) 0.25683(9) 0.0930(1)
C8 C 0.6615(3) 0.2835(1) 0.0548(1)
C9 C 0.5164(3) 0.31146(8) 0.09022(9)
C10 C 0.3687(4) 0.3352(1) 0.0522(1)
H1 H 1.034(4) 0.242(1) 0.106(1)
H2 H 0.466(3) 0.2834(9) 0.1188(9)
H3 H 0.487(3) 0.2891(9) 0.2246(9)
H4 H 0.541(3) 0.3230(9) 0.3183(9)
H5 H 0.659(3) 0.4121(9) 0.336(1)
H6 H 0.756(3) 0.4663(9) 0.2608(9)
H7 H 0.720(3) 0.310(1) 0.031(1)
H8 H 0.611(3) 0.256(1) 0.029(1)
H9 H 0.414(4) 0.362(1) 0.018(1)
H10 H 0.306(3) 0.304(1) 0.035(1)
H11 H 0.280(4) 0.353(1) 0.075(1)
O4 O 0.2123(2) 0.26782(6) 0.64819(8)
O5 O -0.0632(2) 0.46550(7) 0.57003(7)
O6 O 0.1555(2) 0.50660(7) 0.61848(8)
N4 N 0.2794(2) 0.31674(6) 0.64690(8)
N5 N 0.3008(3) 0.34297(7) 0.59716(8)
N6 N 0.3722(2) 0.39130(6) 0.61241(7)
C11 C 0.3961(3) 0.39512(7) 0.67121(8)
C12 C 0.4598(3) 0.43637(8) 0.70788(9)
C13 C 0.4566(3) 0.42550(9) 0.76646(9)
C14 C 0.3947(3) 0.3755(1) 0.7893(1)
C15 C 0.3338(3) 0.33501(9) 0.7538(1)
C16 C 0.3358(3) 0.34600(7) 0.69418(9)
C17 C 0.1069(3) 0.47673(8) 0.58002(9)
C18 C 0.2317(3) 0.4485(1) 0.53852(9)
C19 C 0.4070(3) 0.43140(9) 0.56603(9)
C20 C 0.5392(4) 0.4084(1) 0.5215(1)
H12 H -0.138(4) 0.487(1) 0.596(1)
H13 H 0.455(3) 0.4624(8) 0.5851(9)
H14 H 0.494(3) 0.4675(8) 0.6936(8)
H15 H 0.499(3) 0.4530(8) 0.7945(9)
H16 H 0.394(3) 0.3678(9) 0.8314(10)
H17 H 0.287(3) 0.3000(9) 0.7701(9)
H18 H 0.176(3) 0.4178(9) 0.5222(9)
H19 H 0.253(3) 0.4759(10) 0.506(1)
H20 H 0.655(4) 0.400(1) 0.540(1)
H21 H 0.567(4) 0.434(1) 0.488(1)
H22 H 0.491(3) 0.3749(9) 0.5007(10)
#END
