
#######################################################################
#
#                 Cambridge Crystallographic Data Centre
#                                CCDC
#
#######################################################################
#
# If this CIF has been generated from an entry in the Cambridge
# Structural Database, then it will include bibliographic, chemical,
# crystal, experimental, refinement or atomic coordinate data resulting
# from the CCDC's data processing and validation procedures.
#
#######################################################################

data_CSD_CIF_DAPYIC
_audit_creation_date 1986-04-23
_audit_creation_method CSD-ConQuest-V1
_database_code_CSD DAPYIC
_chemical_formula_sum 'C12 H11 N3 O2'
_chemical_formula_moiety
;
C12 H11 N3 O2
;
_journal_coden_Cambridge 35
_journal_volume 50
_journal_year 1985
_journal_page_first 2174
_journal_name_full 'J.Org.Chem. '
loop_
_publ_author_name
"S.Nagarajan"
"S.R.Wilson"
"K.L.Rinehart Junior"
_chemical_name_systematic
;
3-Sorbyl-benzotriazole-1-oxide
;
_chemical_melting_point 431.15
_cell_volume   1126.265
_exptl_crystal_colour 'colorless'
_exptl_crystal_density_diffrn 1.352
_exptl_special_details
;
Melting point range 431.15-433.15K

;
_diffrn_ambient_temperature ?
_diffrn_special_details
;
The study was carried out at room temperature,in the range 283-303K

;
#These two values have been output from a single CSD field.
_refine_ls_R_factor_gt 0.062
_refine_ls_wR_factor_gt 0.062
_symmetry_cell_setting monoclinic
_symmetry_space_group_name_H-M 'P 21/c'
_symmetry_Int_Tables_number 14
loop_
_symmetry_equiv_pos_site_id
_symmetry_equiv_pos_as_xyz
1 x,y,z
2 -x,1/2+y,1/2-z
3 -x,-y,-z
4 x,-1/2-y,-1/2+z
_cell_length_a 4.107(1)
_cell_length_b 14.069(5)
_cell_length_c 19.526(8)
_cell_angle_alpha 90
_cell_angle_beta 93.39(3)
_cell_angle_gamma 90
_cell_formula_units_Z 4
loop_
_atom_type_symbol
_atom_type_radius_bond
C 0.68
H 0.23
N 0.68
O 0.68
loop_
_atom_site_label
_atom_site_type_symbol
_atom_site_fract_x
_atom_site_fract_y
_atom_site_fract_z
O1 O -0.1359(6) 0.1689(2) 0.2102(1)
O2 O 0.7516(5) 0.1084(1) 0.43455(9)
N1 N 0.0718(6) 0.1742(2) 0.2603(1)
N2 N 0.1826(6) 0.1000(2) 0.2940(1)
N3 N 0.3902(6) 0.1344(1) 0.3458(1)
C1 C 0.4004(7) 0.2339(2) 0.3442(1)
C2 C 0.5578(8) 0.3012(2) 0.3859(2)
C3 C 0.5033(9) 0.3947(2) 0.3663(2)
C4 C 0.3056(9) 0.4198(2) 0.3086(2)
C5 C 0.1496(8) 0.3525(2) 0.2678(2)
C6 C 0.2018(7) 0.2592(2) 0.2886(1)
C7 C 0.5681(6) 0.0736(2) 0.3921(1)
C8 C 0.5077(7) -0.0282(2) 0.3817(1)
C9 C 0.6629(7) -0.0927(2) 0.4199(1)
C10 C 0.6263(8) -0.1942(2) 0.4113(2)
C11 C 0.7905(9) -0.2570(2) 0.4483(2)
C12 C 0.767(1) -0.3623(2) 0.4387(3)
H1 H 0.709(7) 0.284(2) 0.423(2)
H2 H 0.630(7) 0.443(2) 0.390(1)
H3 H 0.274(8) 0.485(3) 0.292(2)
H4 H -0.006(8) 0.370(2) 0.227(2)
H5 H 0.359(7) -0.048(2) 0.347(1)
H6 H 0.813(7) -0.071(2) 0.455(1)
H7 H 0.476(7) -0.217(2) 0.382(2)
H8 H 0.945(8) -0.230(2) 0.483(2)
H9 H 0.59(1) -0.375(3) 0.406(3)
H10 H 0.704(10) -0.401(3) 0.480(2)
H11 H 0.96(1) -0.386(3) 0.434(2)
#END
