
#######################################################################
#
#                 Cambridge Crystallographic Data Centre
#                                CCDC
#
#######################################################################
#
# If this CIF has been generated from an entry in the Cambridge
# Structural Database, then it will include bibliographic, chemical,
# crystal, experimental, refinement or atomic coordinate data resulting
# from the CCDC's data processing and validation procedures.
#
#######################################################################

data_CSD_CIF_DAQWEZ
_audit_creation_date 2012-07-02
_audit_creation_method CSD-ConQuest-V1
_database_code_CSD DAQWEZ
_database_code_depnum_ccdc_archive 'CCDC 833790'
_chemical_formula_sum 'C27 H30 N10 O9'
_chemical_formula_moiety
;
C27 H30 N10 O9
;
_journal_coden_Cambridge 9
_journal_volume 51
_journal_year 2012
_journal_page_first 1727
_journal_name_full 'Inorg.Chem. '
loop_
_publ_author_name
"S.K.Dey"
"R.Chutia"
"G.Das"
_chemical_name_systematic
;
1,1',1''-(Nitrilotriethane-2,1-diyl)tris(3-(3-nitrophenyl)urea)
;
_cell_volume   3028.946
_exptl_crystal_colour 'colorless'
_exptl_crystal_density_diffrn 1.4
_exptl_crystal_description 'block'
_diffrn_ambient_temperature 296
#These two values have been output from a single CSD field.
_refine_ls_R_factor_gt 0.0461
_refine_ls_wR_factor_gt 0.0461
_symmetry_cell_setting triclinic
_symmetry_space_group_name_H-M 'P -1'
_symmetry_Int_Tables_number 2
loop_
_symmetry_equiv_pos_site_id
_symmetry_equiv_pos_as_xyz
1 x,y,z
2 -x,-y,-z
_cell_length_a 13.0495(4)
_cell_length_b 13.4255(4)
_cell_length_c 19.0544(9)
_cell_angle_alpha 99.512(2)
_cell_angle_beta 98.195(2)
_cell_angle_gamma 109.665(1)
_cell_formula_units_Z 4
loop_
_atom_type_symbol
_atom_type_radius_bond
C 0.68
H 0.23
N 0.68
O 0.68
loop_
_atom_site_label
_atom_site_type_symbol
_atom_site_fract_x
_atom_site_fract_y
_atom_site_fract_z
N1 N 0.04142(15) 0.81574(12) 1.16216(9)
C1 C 0.16744(17) 1.05955(14) 1.05363(11)
C2 C 0.32211(17) 1.10368(15) 0.98576(11)
C3 C 0.0405(2) 0.98755(16) 1.13283(13)
H1 H -0.03350 0.95310 1.10200
H2 H 0.05160 1.06220 1.15420
C4 C 0.32783(19) 1.20617(15) 0.97748(12)
H3 H 0.27780 1.23590 0.99300
C5 C 0.0527(2) 0.92708(17) 1.19258(12)
H4 H 0.12510 0.96520 1.22510
H5 H -0.00380 0.92590 1.22080
C6 C 0.39881(19) 1.06283(19) 0.96144(14)
H6 H 0.39460 0.99390 0.96640
C7 C 0.4115(2) 1.26258(17) 0.94509(13)
C8 C 0.4881(2) 1.2235(2) 0.92156(17)
H7 H 0.54310 1.26420 0.90050
C9 C 0.4805(2) 1.1218(2) 0.93033(16)
H8 H 0.53120 1.09280 0.91510
N2 N 0.12290(16) 0.98491(13) 1.09058(10)
H9 H 0.14530 0.93140 1.08890
N3 N 0.24521(15) 1.03789(12) 1.01888(10)
H10 H 0.24690 0.97410 1.01720
N4 N 0.4156(3) 1.3696(2) 0.93436(16)
O1 O 0.14202(13) 1.13938(11) 1.05149(8)
O2 O 0.3626(2) 1.41379(19) 0.96758(19)
O3 O 0.4737(3) 1.41254(19) 0.89587(16)
C10 C -0.09720(16) 0.62311(14) 0.94515(11)
C11 C -0.07712(17) 0.63538(14) 0.81888(11)
C12 C -0.0748(2) 0.74196(17) 1.13864(13)
H11 H -0.12040 0.78260 1.12500
H12 H -0.09890 0.71210 1.17910
C13 C -0.0413(2) 0.54934(16) 0.80185(13)
H13 H -0.03220 0.50970 0.83630
C14 C -0.09197(17) 0.69183(16) 0.76521(12)
H14 H -0.11780 0.74830 0.77450
C15 C -0.0928(2) 0.65030(16) 1.07538(12)
H15 H -0.03890 0.61660 1.08570
H16 H -0.16670 0.59570 1.06850
C16 C -0.06808(19) 0.66328(18) 0.69856(13)
C17 C -0.0316(2) 0.57966(19) 0.68145(14)
H17 H -0.01580 0.56190 0.63600
C18 C -0.0193(2) 0.52274(19) 0.73401(14)
H18 H 0.00450 0.46500 0.72350
N5 N -0.09243(15) 0.67291(12) 0.88736(9)
H19 H -0.09980 0.73480 0.89470
N6 N -0.08112(16) 0.68942(12) 1.00939(10)
H20 H -0.06320 0.75790 1.01180
N7 N -0.0820(2) 0.7269(2) 0.64433(14)
O4 O -0.11364(14) 0.52607(10) 0.93847(8)
O5 O -0.1069(2) 0.8056(2) 0.66244(14)
O6 O -0.0668(2) 0.6979(2) 0.58363(13)
C19 C 0.21881(15) 0.74496(13) 1.05928(10)
C20 C 0.22648(16) 0.68081(14) 0.93223(11)
C21 C 0.19893(16) 0.75687(14) 0.90002(11)
H21 H 0.16780 0.80170 0.92410
C22 C 0.21884(18) 0.76412(16) 0.83168(12)
C23 C 0.2175(2) 0.78208(17) 1.18920(11)
H22 H 0.25740 0.85630 1.18660
H23 H 0.26240 0.76490 1.22700
C24 C 0.2727(2) 0.61504(17) 0.89427(14)
H24 H 0.29220 0.56470 0.91560
C25 C 0.1085(2) 0.77447(19) 1.21006(11)
H25 H 0.06570 0.69910 1.20850
H26 H 0.12340 0.81550 1.25980
C26 C 0.2641(2) 0.6987(2) 0.79344(15)
H27 H 0.27670 0.70540 0.74730
C27 C 0.2898(3) 0.6236(2) 0.82567(16)
H28 H 0.31920 0.57780 0.80080
N8 N 0.20469(15) 0.66453(11) 1.00023(9)
H29 H 0.18050 0.59860 1.00520
N9 N 0.20449(15) 0.71042(12) 1.12045(9)
H30 H 0.18660 0.64210 1.11870
N10 N 0.18742(17) 0.84247(16) 0.79709(11)
O7 O 0.24555(12) 0.84096(9) 1.05619(8)
O8 O 0.15673(18) 0.90566(16) 0.83278(10)
O9 O 0.1917(2) 0.84061(17) 0.73334(11)
N11 N 0.71060(13) 0.33058(11) 0.45609(9)
N12 N 0.64112(15) 0.55861(12) 0.65127(9)
H31 H 0.65390 0.50210 0.65910
N13 N 0.65503(16) 0.49489(12) 0.5368(1)
H32 H 0.65690 0.43920 0.55290
N14 N 0.6044(2) 0.88918(17) 0.77779(13)
C28 C 0.64079(16) 0.57420(14) 0.58173(11)
C29 C 0.62365(16) 0.62169(14) 0.71097(11)
C30 C 0.6674(2) 0.49631(16) 0.46309(12)
H33 H 0.69470 0.57060 0.45740
H34 H 0.59600 0.45730 0.42960
C31 C 0.62762(17) 0.72708(15) 0.71475(11)
H35 H 0.64530 0.76160 0.67720
C32 C 0.6044(2) 0.57626(17) 0.77033(12)
H36 H 0.60520 0.50700 0.76920
C33 C 0.74940(19) 0.44280(15) 0.44647(13)
H37 H 0.75810 0.44250 0.39670
H38 H 0.82150 0.48430 0.47860
C34 C 0.60462(18) 0.77907(16) 0.77564(12)
C35 C 0.5814(2) 0.7342(2) 0.83313(14)
H39 H 0.56420 0.77120 0.87270
C36 C 0.5842(3) 0.6317(2) 0.83064(14)
H40 H 0.57220 0.60010 0.87010
O10 O 0.62858(13) 0.65371(10) 0.56301(8)
O11 O 0.6493(2) 0.93957(14) 0.73560(12)
O12 O 0.5593(2) 0.92540(19) 0.82126(14)
C37 C 0.38978(15) 0.10559(13) 0.45822(10)
C38 C 0.63816(18) 0.25205(15) 0.39052(11)
H41 H 0.68360 0.22940 0.36010
H42 H 0.59710 0.28670 0.36330
C39 C 0.23360(15) 0.10059(14) 0.5208(1)
C40 C 0.55628(17) 0.15261(14) 0.40718(11)
H43 H 0.51840 0.09800 0.36230
H44 H 0.59620 0.12210 0.43890
C41 C 0.16920(17) 0.15970(16) 0.54035(11)
H45 H 0.17930 0.22550 0.52720
C42 C 0.21613(19) 0.00336(16) 0.54243(13)
H46 H 0.25940 -0.03700 0.53060
C43 C 0.09010(19) 0.11979(19) 0.57949(12)
C44 C 0.1349(2) -0.0339(2) 0.58139(15)
H47 H 0.12440 -0.09940 0.59510
C45 C 0.0702(2) 0.0227(2) 0.60011(13)
H48 H 0.01490 -0.00300 0.62570
N15 N 0.47538(13) 0.18081(11) 0.44194(9)
H49 H 0.48210 0.24780 0.45260
N16 N 0.31589(14) 0.14669(12) 0.48423(10)
H50 H 0.32130 0.20960 0.47690
N17 N 0.0265(2) 0.1865(2) 0.60131(14)
O13 O 0.37992(11) 0.00996(9) 0.45011(8)
O14 O 0.0567(2) 0.2803(2) 0.59182(17)
O15 O -0.0543(2) 0.1457(2) 0.62708(14)
C46 C 0.64796(17) 0.25646(14) 0.62092(10)
C47 C 0.44101(18) 0.25986(16) 0.67300(11)
H51 H 0.46650 0.31330 0.64740
C48 C 0.48454(19) 0.17892(14) 0.67293(11)
C49 C 0.4443(3) 0.10030(18) 0.71187(14)
H52 H 0.47450 0.04690 0.71370
C50 C 0.81324(18) 0.30907(18) 0.56883(14)
H53 H 0.88180 0.30030 0.58820
H54 H 0.81900 0.38140 0.59160
C51 C 0.80131(18) 0.29907(17) 0.48787(14)
H55 H 0.87080 0.34480 0.47830
H56 H 0.78720 0.22450 0.46430
C52 C 0.35954(19) 0.25985(18) 0.71154(12)
C53 C 0.3163(2) 0.1804(2) 0.74792(14)
H57 H 0.25910 0.18050 0.77190
C54 C 0.3601(3) 0.1012(2) 0.74774(16)
H58 H 0.33250 0.04680 0.77230
N18 N 0.56619(16) 0.17145(12) 0.63410(9)
H59 H 0.56450 0.10730 0.61700
N19 N 0.72157(15) 0.23035(13) 0.58772(10)
H60 H 0.71400 0.16310 0.57700
N20 N 0.31623(19) 0.3478(2) 0.71276(13)
O16 O 0.65420(13) 0.3512(1) 0.64005(9)
O17 O 0.35419(18) 0.41827(19) 0.68149(12)
O18 O 0.2438(3) 0.3472(2) 0.74601(18)
#END
