
#######################################################################
#
#                 Cambridge Crystallographic Data Centre
#                                CCDC
#
#######################################################################
#
# If this CIF has been generated from an entry in the Cambridge
# Structural Database, then it will include bibliographic, chemical,
# crystal, experimental, refinement or atomic coordinate data resulting
# from the CCDC's data processing and validation procedures.
#
#######################################################################

data_CSD_CIF_DARGEJ
_audit_creation_date 2005-10-20
_audit_creation_method CSD-ConQuest-V1
_database_code_CSD DARGEJ
_database_code_depnum_ccdc_archive 'CCDC 285695'
_chemical_formula_sum 'C14 H11 N3 O7'
_chemical_formula_moiety
;
C14 H11 N3 O7
;
_journal_coden_Cambridge 1137
_journal_volume 17
_journal_year 2004
_journal_page_first 65
_journal_name_full 'J.Phys.Org.Chem. '
loop_
_publ_author_name
"M.R.Crampton"
"T.A.Emokpae"
"J.A.K.Howard"
"C.Isanbor"
"R.Mondal"
_chemical_name_systematic
;
2,6-Dimethylphenyl 2,4,6-trinitrophenyl ether
;
_cell_volume    726.030
_exptl_crystal_colour 'yellow'
_exptl_crystal_density_diffrn 1.524
_exptl_crystal_description 'Plate'
_diffrn_ambient_temperature 120
#These two values have been output from a single CSD field.
_refine_ls_R_factor_gt 0.0372
_refine_ls_wR_factor_gt 0.0372
_symmetry_cell_setting triclinic
_symmetry_space_group_name_H-M 'P -1'
_symmetry_Int_Tables_number 2
loop_
_symmetry_equiv_pos_site_id
_symmetry_equiv_pos_as_xyz
1 x,y,z
2 -x,-y,-z
_cell_length_a 7.8934(16)
_cell_length_b 8.6750(17)
_cell_length_c 12.283(3)
_cell_angle_alpha 72.31(3)
_cell_angle_beta 78.22(3)
_cell_angle_gamma 65.47(3)
_cell_formula_units_Z 2
loop_
_atom_type_symbol
_atom_type_radius_bond
C 0.68
H 0.23
N 0.68
O 0.68
loop_
_atom_site_label
_atom_site_type_symbol
_atom_site_fract_x
_atom_site_fract_y
_atom_site_fract_z
O1 O 0.03255(11) 0.97574(11) 0.26923(7)
N1 N -0.21472(16) 0.81845(14) 0.23956(8)
O2 O -0.07047(15) 0.68920(12) 0.23802(8)
C1 C -0.07695(16) 1.04535(15) 0.18225(9)
O3 O -0.45285(14) 1.47158(12) -0.13234(8)
N2 N 0.06830(16) 1.26295(14) 0.11434(8)
N3 N -0.44563(15) 1.32396(14) -0.08188(9)
C2 C -0.32656(17) 1.07221(16) 0.07991(10)
C3 C -0.18377(17) 1.28779(16) 0.01454(10)
O4 O -0.36292(14) 0.81990(14) 0.29382(8)
C4 C -0.20680(17) 0.98478(15) 0.16578(9)
C5 C -0.03951(17) 0.90769(15) 0.38098(9)
O5 O 0.00750(16) 1.41401(13) 0.12170(9)
O6 O -0.54248(15) 1.25513(14) -0.09856(9)
C6 C -0.31319(17) 1.22347(16) 0.00618(10)
C7 C -0.20762(17) 1.01054(16) 0.43058(10)
O7 O 0.23191(14) 1.16419(16) 0.11716(10)
C8 C 0.07566(18) 0.74231(16) 0.43735(10)
C9 C -0.26456(19) 0.93475(19) 0.54171(11)
C10 C -0.06684(17) 1.19519(16) 0.10134(10)
C11 C -0.1574(2) 0.7679(2) 0.59927(11)
C12 C -0.3240(2) 1.19489(18) 0.37179(12)
C13 C 0.0115(2) 0.67376(18) 0.54795(11)
C14 C 0.2613(2) 0.64311(19) 0.38136(13)
H1 H -0.205(2) 0.723(2) 0.6742(16)
H2 H -0.175(2) 1.393(2) -0.0372(14)
H3 H -0.412(2) 1.0269(19) 0.0748(12)
H4 H -0.378(2) 1.004(2) 0.5779(13)
H5 H -0.250(2) 1.260(2) 0.3305(14)
H6 H -0.404(2) 1.199(2) 0.3171(15)
H7 H -0.411(3) 1.256(2) 0.4263(16)
H8 H 0.340(2) 0.714(2) 0.3497(15)
H9 H 0.246(2) 0.602(2) 0.3194(16)
H10 H 0.329(3) 0.546(3) 0.4350(18)
H11 H 0.087(2) 0.562(2) 0.5891(14)
#END
