
#######################################################################
#
#                 Cambridge Crystallographic Data Centre
#                                CCDC
#
#######################################################################
#
# If this CIF has been generated from an entry in the Cambridge
# Structural Database, then it will include bibliographic, chemical,
# crystal, experimental, refinement or atomic coordinate data resulting
# from the CCDC's data processing and validation procedures.
#
#######################################################################

data_CSD_CIF_DARQUJ
_audit_creation_date 2005-10-20
_audit_creation_method CSD-ConQuest-V1
_database_code_CSD DARQUJ
_database_code_depnum_ccdc_archive 'CCDC 277399'
_chemical_formula_sum 'C15 H12 N2 O3'
_chemical_formula_moiety
;
C15 H12 N2 O3
;
_journal_coden_Cambridge 9
_journal_volume 44
_journal_year 2005
_journal_page_first 4433
_journal_name_full 'Inorg.Chem. '
loop_
_publ_author_name
"F.Gross"
"H.Vahrenkamp"
_chemical_name_systematic
;
1-(4-Nitrophenyl)-2-oxo-4-phenyl-1-azetidine
;
_chemical_melting_point 409
_cell_volume   1294.900
_exptl_crystal_colour 'light yellow'
_exptl_crystal_density_diffrn 1.376
_exptl_crystal_description 'isometric'
_diffrn_ambient_temperature 225
#These two values have been output from a single CSD field.
_refine_ls_R_factor_gt 0.0422
_refine_ls_wR_factor_gt 0.0422
_symmetry_cell_setting monoclinic
_symmetry_space_group_name_H-M 'P 21/n'
_symmetry_Int_Tables_number 14
loop_
_symmetry_equiv_pos_site_id
_symmetry_equiv_pos_as_xyz
1 x,y,z
2 1/2-x,1/2+y,1/2-z
3 -x,-y,-z
4 -1/2+x,-1/2-y,-1/2+z
_cell_length_a 6.0918(10)
_cell_length_b 19.191(3)
_cell_length_c 11.1208(19)
_cell_angle_alpha 90
_cell_angle_beta 95.130(3)
_cell_angle_gamma 90
_cell_formula_units_Z 4
loop_
_atom_type_symbol
_atom_type_radius_bond
C 0.68
H 0.23
N 0.68
O 0.68
loop_
_atom_site_label
_atom_site_type_symbol
_atom_site_fract_x
_atom_site_fract_y
_atom_site_fract_z
N1 N 0.54398(16) 0.04035(6) 0.3219(1)
N2 N 0.5321(2) 0.22457(6) 0.71174(11)
O1 O 0.87555(15) -0.02335(6) 0.32937(9)
O2 O 0.3712(2) 0.26221(6) 0.71723(10)
O3 O 0.6902(2) 0.22496(6) 0.78801(10)
C1 C 0.6922(2) -0.00819(7) 0.28719(12)
C2 C 0.5352(2) -0.03228(7) 0.18233(13)
H1 H 0.48730 -0.08030 0.18830
H2 H 0.58490 -0.02260 0.10360
C3 C 0.3699(2) 0.02214(7) 0.22500(11)
H3 H 0.24350 -0.00030 0.25760
C4 C 0.2989(2) 0.07880(6) 0.13728(11)
C5 C 0.4403(2) 0.13081(7) 0.10604(12)
H4 H 0.58160 0.13360 0.14510
C6 C 0.3735(3) 0.17858(7) 0.01731(13)
H5 H 0.47030 0.21330 -0.00280
C7 C 0.1653(2) 0.17539(7) -0.04174(13)
H6 H 0.12190 0.20730 -0.10220
C8 C 0.0228(2) 0.12465(8) -0.01023(13)
H7 H -0.11860 0.12230 -0.04920
C9 C 0.0879(2) 0.07702(7) 0.07907(12)
H8 H -0.01110 0.04330 0.10040
C10 C 0.5422(2) 0.08592(7) 0.41905(11)
C11 C 0.7267(2) 0.09204(7) 0.50252(12)
H9 H 0.85210 0.06560 0.49330
C12 C 0.7228(2) 0.13714(7) 0.59815(12)
H10 H 0.84480 0.14140 0.65420
C13 C 0.5356(2) 0.17612(7) 0.61010(12)
C14 C 0.3519(2) 0.17061(8) 0.52909(13)
H11 H 0.22710 0.19710 0.53920
C15 C 0.3546(2) 0.12551(7) 0.43308(12)
H12 H 0.23150 0.12150 0.37770
#END
