
#######################################################################
#
#                 Cambridge Crystallographic Data Centre
#                                CCDC
#
#######################################################################
#
# If this CIF has been generated from an entry in the Cambridge
# Structural Database, then it will include bibliographic, chemical,
# crystal, experimental, refinement or atomic coordinate data resulting
# from the CCDC's data processing and validation procedures.
#
#######################################################################

data_CSD_CIF_DARSOG
_audit_creation_date 2012-07-02
_audit_creation_method CSD-ConQuest-V1
_database_code_CSD DARSOG
_database_code_depnum_ccdc_archive 'CCDC 832323'
_chemical_formula_sum 'C15 H11 N3 O7'
_chemical_formula_moiety
;
C15 H11 N3 O7
;
_journal_coden_Cambridge 1220
_journal_volume 18
_journal_year 2012
_journal_page_first 2692
_journal_name_full 'Chem.-Eur.J. '
loop_
_publ_author_name
"D.M.Wood"
"B.W.Greenland"
"A.L.Acton"
"F.Rodriguez-Llansola"
"C.A.Murray"
"C.J.Cardin"
"J.F.Miravet"
"B.Escuder"
"I.W.Hamley"
"W.Hayes"
_chemical_name_systematic
;
5-(((3-Nitrophenyl)carbamoyl)amino)isophthalic acid
;
_cell_volume   2901.147
_exptl_crystal_colour 'yellow'
_exptl_crystal_density_diffrn 1.581
_exptl_crystal_description 'rectangular prism'
_diffrn_ambient_temperature 150
_refine_special_details
;
O31,O41 and O30,O40 disordered over two sites with occupancies 0.681:0.319; 
O51 and O50 disordered over two sites with occupancies 0.73:0.27.
;
#These two values have been output from a single CSD field.
_refine_ls_R_factor_gt 0.0429
_refine_ls_wR_factor_gt 0.0429
_symmetry_cell_setting monoclinic
_symmetry_space_group_name_H-M 'P 21/n'
_symmetry_Int_Tables_number 14
loop_
_symmetry_equiv_pos_site_id
_symmetry_equiv_pos_as_xyz
1 x,y,z
2 1/2-x,1/2+y,1/2-z
3 -x,-y,-z
4 -1/2+x,-1/2-y,-1/2+z
_cell_length_a 8.23798(17)
_cell_length_b 27.7950(6)
_cell_length_c 12.9301(3)
_cell_angle_alpha 90
_cell_angle_beta 101.508(2)
_cell_angle_gamma 90
_cell_formula_units_Z 8
loop_
_atom_type_symbol
_atom_type_radius_bond
C 0.68
H 0.23
N 0.68
O 0.68
loop_
_atom_site_label
_atom_site_type_symbol
_atom_site_fract_x
_atom_site_fract_y
_atom_site_fract_z
O1 O 0.67546(14) 0.69831(4) 0.1663(1)
C1 C 0.7968(2) 0.71847(6) 0.14451(13)
N1 N 0.79830(17) 0.76620(5) 0.11753(11)
C2 C 0.6695(2) 0.79914(6) 0.12087(13)
C3 C 0.7094(2) 0.84711(6) 0.14338(14)
C4 C 0.5875(2) 0.88059(7) 0.15049(16)
C5 C 0.4221(2) 0.86718(7) 0.13340(16)
C6 C 0.3863(2) 0.81960(7) 0.10876(14)
C7 C 0.5037(2) 0.78502(7) 0.10192(13)
N2 N 0.94351(17) 0.69542(5) 0.14436(11)
C8 C 0.96859(19) 0.64576(6) 0.16535(13)
C9 C 0.92097(19) 0.62369(6) 0.25144(13)
C10 C 0.94708(18) 0.57487(6) 0.26803(12)
C11 C 1.02467(18) 0.54755(6) 0.20140(12)
C12 C 1.07689(18) 0.56986(6) 0.11797(12)
C13 C 1.04901(19) 0.61896(6) 0.10009(13)
C14 C 1.1611(2) 0.54207(6) 0.04490(13)
O2 O 1.19381(14) 0.49836(4) 0.06170(9)
O3 O 1.19460(18) 0.56551(5) -0.03259(10)
C15 C 0.89120(19) 0.55030(6) 0.35732(12)
O4 O 0.82494(15) 0.57747(4) 0.41845(9)
O5 O 0.90711(15) 0.50613(4) 0.36791(9)
O6 O 0.63019(16) 0.47666(4) 0.15122(10)
C16 C 0.59905(19) 0.52063(6) 0.13933(12)
O7 O 0.63435(15) 0.54575(4) 0.06366(9)
C17 C 0.51967(18) 0.54583(6) 0.21777(12)
C18 C 0.45551(18) 0.51874(6) 0.29080(12)
C19 C 0.38744(19) 0.54296(6) 0.36655(12)
C20 C 0.30954(18) 0.51486(6) 0.44166(12)
O8 O 0.24939(16) 0.54061(4) 0.50847(10)
O9 O 0.30445(14) 0.47029(4) 0.43915(9)
C21 C 0.38731(19) 0.59267(6) 0.37144(13)
C22 C 0.45008(19) 0.61966(6) 0.29739(13)
N3 N 0.45532(17) 0.67010(5) 0.30067(11)
C23 C 0.34545(19) 0.69780(6) 0.34168(12)
O10 O 0.23204(15) 0.68151(4) 0.37787(10)
N4 N 0.37537(18) 0.74652(5) 0.33731(11)
C24 C 0.2670(2) 0.78286(6) 0.35635(12)
C25 C 0.3246(2) 0.83031(6) 0.36627(14)
C26 C 0.2218(3) 0.86740(7) 0.38389(17)
C27 C 0.0595(2) 0.85891(7) 0.39253(16)
C28 C 0.0047(2) 0.81187(7) 0.38113(13)
C29 C 0.1026(2) 0.77346(6) 0.36314(13)
C30 C 0.51339(19) 0.59578(6) 0.21877(12)
O11 O -0.22454(16) 0.76146(5) 0.36134(11)
N5 N -0.16768(19) 0.80102(6) 0.38835(13)
N6 N 0.21239(19) 0.80361(7) 0.09035(13)
O12 O -0.2558(14) 0.8337(3) 0.4106(19)
O13 O 0.0993(3) 0.83281(10) 0.08307(16)
O14 O 0.1889(3) 0.75969(10) 0.08029(16)
H1 H 0.82150 0.85630 0.15500
H2 H 0.62190 0.91260 0.16590
H3 H 0.33750 0.88980 0.13780
H4 H 0.47270 0.75180 0.08450
H5 H 0.87200 0.64220 0.29700
H6 H 1.03960 0.51470 0.21180
H7 H 1.08610 0.63450 0.04390
H8 H 0.45840 0.48460 0.29260
H9 H 0.34730 0.60830 0.42570
H10 H 0.43580 0.83740 0.36200
H11 H 0.25860 0.89800 0.38700
H12 H -0.01220 0.88250 0.40810
H13 H 0.05650 0.74210 0.35640
H14 H 0.55280 0.61390 0.16640
H15 H 0.52080 0.68530 0.26630
H16 H 0.88890 0.77800 0.10770
H17 H 0.47340 0.75420 0.32950
H18 H 1.01220 0.71040 0.11450
H19 H 0.78530 0.55970 0.46200
H20 H 0.20400 0.52450 0.54720
H21 H 1.25710 0.55000 -0.06970
H22 H 0.69370 0.52990 0.02210
O15? O 0.1682(5) 0.76219(18) 0.0629(3)
O16? O 0.1139(5) 0.83444(18) 0.1077(3)
O17? O -0.227(4) 0.8304(7) 0.443(3)
#END
