
#######################################################################
#
#                 Cambridge Crystallographic Data Centre
#                                CCDC
#
#######################################################################
#
# If this CIF has been generated from an entry in the Cambridge
# Structural Database, then it will include bibliographic, chemical,
# crystal, experimental, refinement or atomic coordinate data resulting
# from the CCDC's data processing and validation procedures.
#
#######################################################################

data_CSD_CIF_DARYUQ01
_audit_creation_date 2018-06-18
_audit_creation_method CSD-ConQuest-V1
_database_code_CSD DARYUQ01
_database_code_depnum_ccdc_archive 'CCDC 1519548'
_chemical_formula_sum 'C19 H18 N2 O3'
_chemical_formula_moiety
;
C19 H18 N2 O3
;
_journal_coden_Cambridge 1078
_journal_year 2018
_journal_name_full 'CSD Communication(Private Communication) '
loop_
_publ_author_name
"Chanchal Choudhry"
"K.Prakash"
_chemical_name_systematic
;
1',3',3'-trimethyl-5'-nitro-1',3'-dihydrospiro[1-benzopyran-2,2'-indole]
;
_cell_volume   1626.723
_exptl_crystal_colour 'dull light yellow'
_exptl_crystal_density_diffrn 1.316
_exptl_special_details
;
Light-sensitive,Photo-sensitive

;
_exptl_crystal_description 'block'
_diffrn_ambient_temperature 297
#These two values have been output from a single CSD field.
_refine_ls_R_factor_gt 0.0431
_refine_ls_wR_factor_gt 0.0431
_symmetry_cell_setting monoclinic
_symmetry_space_group_name_H-M 'P 21/c'
_symmetry_Int_Tables_number 14
loop_
_symmetry_equiv_pos_site_id
_symmetry_equiv_pos_as_xyz
1 x,y,z
2 -x,1/2+y,1/2-z
3 -x,-y,-z
4 x,-1/2-y,-1/2+z
_cell_length_a 12.4703(7)
_cell_length_b 11.5924(5)
_cell_length_c 11.9637(7)
_cell_angle_alpha 90
_cell_angle_beta 109.850(6)
_cell_angle_gamma 90
_cell_formula_units_Z 4
loop_
_atom_type_symbol
_atom_type_radius_bond
C 0.68
H 0.23
N 0.68
O 0.68
loop_
_atom_site_label
_atom_site_type_symbol
_atom_site_fract_x
_atom_site_fract_y
_atom_site_fract_z
O1 O 0.56442(9) 0.32963(11) 0.33222(10)
N1 N 0.73052(11) 0.24485(11) 0.32268(12)
O2 O 1.04480(13) 0.23832(15) 0.85608(12)
O3 O 0.99836(14) 0.41834(14) 0.83017(12)
N2 N 0.99571(13) 0.31953(16) 0.79254(14)
C1 C 0.80031(12) 0.24968(13) 0.43974(14)
C2 C 0.45408(13) 0.33496(13) 0.25743(14)
C3 C 0.80646(13) 0.36310(13) 0.48229(14)
C4 C 0.42608(15) 0.35665(13) 0.13644(14)
C5 C 0.86086(13) 0.16091(13) 0.51124(15)
H1 H 0.85740 0.08620 0.48200
C6 C 0.92632(13) 0.18630(15) 0.62676(15)
H2 H 0.96820 0.12840 0.67640
C7 C 0.87110(13) 0.38781(14) 0.59713(15)
H3 H 0.87580 0.46260 0.62650
C8 C 0.92981(13) 0.29743(15) 0.66887(14)
C9 C 0.37119(14) 0.31806(14) 0.30768(16)
H4 H 0.39110 0.30450 0.38880
C10 C 0.73819(14) 0.44074(14) 0.38188(14)
C11 C 0.66166(14) 0.34954(14) 0.29392(15)
C12 C 0.51887(17) 0.37599(15) 0.09232(15)
H5 H 0.50260 0.38950 0.01160
C13 C 0.31070(17) 0.35940(15) 0.06697(16)
H6 H 0.29000 0.37340 -0.01420
C14 C 0.62655(17) 0.37499(17) 0.16378(16)
H7 H 0.68310 0.39090 0.13150
C15 C 0.25754(15) 0.32155(15) 0.23596(19)
H8 H 0.20100 0.31000 0.26930
C16 C 0.68245(17) 0.13668(16) 0.26597(16)
H9 H 0.74250 0.08150 0.27650
H10 H 0.64380 0.14950 0.18270
H11 H 0.62930 0.10770 0.30130
C17 C 0.22741(17) 0.34183(17) 0.1159(2)
H12 H 0.15100 0.34360 0.06830
C18 C 0.82104(17) 0.49912(16) 0.32902(18)
H13 H 0.87300 0.54750 0.38810
H14 H 0.77870 0.54520 0.26180
H15 H 0.86310 0.44110 0.30420
C19 C 0.66893(18) 0.53329(17) 0.41794(19)
H16 H 0.62270 0.49780 0.45810
H17 H 0.62080 0.57250 0.34830
H18 H 0.71980 0.58780 0.47010
#END
