
#######################################################################
#
#                 Cambridge Crystallographic Data Centre
#                                CCDC
#
#######################################################################
#
# If this CIF has been generated from an entry in the Cambridge
# Structural Database, then it will include bibliographic, chemical,
# crystal, experimental, refinement or atomic coordinate data resulting
# from the CCDC's data processing and validation procedures.
#
#######################################################################

data_CSD_CIF_DASKAJ
_audit_creation_date 1986-05-19
_audit_creation_method CSD-ConQuest-V1
_database_code_CSD DASKAJ
_database_code_depnum_ccdc_archive 'CCDC 1136497'
_chemical_formula_sum 'C20 H27 N1 O5'
_chemical_formula_moiety
;
C20 H27 N1 O5
;
_journal_coden_Cambridge 48
_journal_volume 118
_journal_year 1985
_journal_page_first 510
_journal_name_full 'Chem.Ber. '
loop_
_publ_author_name
"D.Dopp"
"C.Kruger"
"G.Makedakis"
"A.M.Nour-el-Din"
_chemical_name_systematic
;
Dimethyl 
rel-(2S,3S,3aR)-7-t-butyl-2,3,3a,4-tetrahydro-4,4-dimethyl-isoxazolo(2,3-a)ind
ole-2,3-dicarboxylate
;
_chemical_melting_point 388.15
_cell_volume   1984.398
_exptl_crystal_density_diffrn 1.21
_diffrn_ambient_temperature ?
_diffrn_special_details
;
The study was carried out at room temperature,in the range 283-303K

;
#These two values have been output from a single CSD field.
_refine_ls_R_factor_gt 0.0454
_refine_ls_wR_factor_gt 0.0454
_symmetry_cell_setting monoclinic
_symmetry_space_group_name_H-M 'P 21/c'
_symmetry_Int_Tables_number 14
loop_
_symmetry_equiv_pos_site_id
_symmetry_equiv_pos_as_xyz
1 x,y,z
2 -x,1/2+y,1/2-z
3 -x,-y,-z
4 x,-1/2-y,-1/2+z
_cell_length_a 9.829(3)
_cell_length_b 19.653(4)
_cell_length_c 10.456(2)
_cell_angle_alpha 90
_cell_angle_beta 100.74(2)
_cell_angle_gamma 90
_cell_formula_units_Z 4
loop_
_atom_type_symbol
_atom_type_radius_bond
C 0.68
N 0.68
O 0.68
loop_
_atom_site_label
_atom_site_type_symbol
_atom_site_fract_x
_atom_site_fract_y
_atom_site_fract_z
O1 O 0.4831(1) 0.2333(1) -0.1207(1)
O2 O 0.1358(2) 0.1824(1) -0.0020(1)
O3 O 0.2634(1) 0.1647(1) 0.1935(1)
O4 O 0.2954(2) 0.0884(1) -0.2374(1)
O5 O 0.3515(2) 0.1753(1) -0.3489(1)
N1 N 0.5874(2) 0.2057(1) -0.0191(1)
C1 C 0.6531(2) 0.1461(1) -0.0582(2)
C2 C 0.7015(2) 0.1361(1) -0.1723(2)
C3 C 0.7767(2) 0.0771(1) -0.1861(2)
C4 C 0.7982(2) 0.0303(1) -0.0841(2)
C5 C 0.7475(2) 0.0410(1) 0.0297(2)
C6 C 0.6729(2) 0.0992(1) 0.0425(2)
C7 C 0.6111(2) 0.1258(1) 0.1554(2)
C8 C 0.5129(2) 0.1811(1) 0.0842(2)
C9 C 0.3714(2) 0.1576(1) 0.0061(2)
C10 C 0.3582(2) 0.1934(1) -0.1259(2)
C11 C 0.2541(2) 0.1688(1) 0.0780(2)
C12 C 0.0137(4) 0.1909(3) 0.0569(5)
C13 C 0.3335(2) 0.1451(1) -0.2410(2)
C14 C 0.3229(6) 0.13472 -0.4669(3)
C15 C 0.5388(3) 0.0710(1) 0.2220(3)
C16 C 0.7241(3) 0.1605(1) 0.2553(2)
C17 C 0.8293(3) 0.0646(1) -0.3138(2)
C18 C 0.7027(4) 0.0536(3) -0.4222(3)
C19 C 0.9122(7) 0.1251(3) -0.3454(6)
C20 C 0.9143(5) -0.0017(2) -0.3079(4)
#END
