
#######################################################################
#
#                 Cambridge Crystallographic Data Centre
#                                CCDC
#
#######################################################################
#
# If this CIF has been generated from an entry in the Cambridge
# Structural Database, then it will include bibliographic, chemical,
# crystal, experimental, refinement or atomic coordinate data resulting
# from the CCDC's data processing and validation procedures.
#
#######################################################################

data_CSD_CIF_DASQET
_audit_creation_date 2000-02-17
_audit_creation_method CSD-ConQuest-V1
_database_code_CSD DASQET
_database_code_depnum_ccdc_archive 'CCDC 137855'
_chemical_formula_sum 'C17 H21 N1 O3'
_chemical_formula_moiety
;
C17 H21 N1 O3
;
_journal_coden_Cambridge 41
_journal_volume 44
_journal_year 1999
_journal_page_first 475
_journal_name_full 'Kristallografiya(Russ.)(Crystallogr.Rep.) '
loop_
_publ_author_name
"L.A.Kutulya"
"V.P.Kuznetsov"
"V.I.Kulishov"
"V.V.Vashchenko"
_chemical_name_systematic
;
3R,6R-2-(4-Nitrobenzylidene)-3-methyl-6-isopropylcyclohexanone
;
_chemical_melting_point 404.15
_cell_volume    772.637
_exptl_crystal_colour 'colorless'
_exptl_crystal_density_diffrn 1.235
_exptl_special_details
;
Melting point range 404.15-406.15K

;
_exptl_crystal_description 'plate'
_exptl_crystal_preparation 'isopropanol'
_diffrn_ambient_temperature ?
_diffrn_special_details
;
The study was carried out at room temperature,in the range 283-303K

;
#These two values have been output from a single CSD field.
_refine_ls_R_factor_gt 0.037
_refine_ls_wR_factor_gt 0.037
_symmetry_cell_setting monoclinic
_symmetry_space_group_name_H-M 'P 21'
_symmetry_Int_Tables_number 4
loop_
_symmetry_equiv_pos_site_id
_symmetry_equiv_pos_as_xyz
1 x,y,z
2 -x,1/2+y,-z
_cell_length_a 6.138(1)
_cell_length_b 10.963(2)
_cell_length_c 11.881(2)
_cell_angle_alpha 90
_cell_angle_beta 104.89(1)
_cell_angle_gamma 90
_cell_formula_units_Z 2
loop_
_atom_type_symbol
_atom_type_radius_bond
C 0.68
H 0.23
N 0.68
O 0.68
loop_
_atom_site_label
_atom_site_type_symbol
_atom_site_fract_x
_atom_site_fract_y
_atom_site_fract_z
C1 C -0.0644(5) -0.9228(4) -0.8077(3)
C2 C 0.2135(5) -0.7983(3) -1.0786(3)
C3 C 0.1138(5) -0.8474(3) -0.9867(3)
O1 O 0.4926(4) -0.6859(3) -1.2032(2)
C4 C 0.2101(5) -0.9437(3) -0.9143(3)
O2 O -0.0618(4) -1.0398(3) -0.6460(3)
C5 C 0.3869(5) -0.7793(3) -1.2373(3)
C6 C 0.1209(5) -0.9815(3) -0.8245(3)
N1 N -0.1547(5) -0.9574(3) -0.7097(3)
C7 C 0.3164(5) -0.9937(3) -1.1703(3)
C8 C 0.4372(5) -0.7397(4) -1.4403(3)
C9 C 0.3022(5) -0.8565(3) -1.1539(3)
C10 C 0.2227(5) -1.0239(4) -1.3003(3)
C11 C 0.3387(5) -0.9553(4) -1.3778(3)
O3 O -0.3194(5) -0.9037(4) -0.6956(3)
C12 C -0.0732(5) -0.7893(4) -0.9667(3)
C13 C 0.5563(5) -1.0389(4) -1.1253(3)
C14 C 0.3216(5) -0.8159(3) -1.3639(3)
C15 C -0.1654(5) -0.8254(4) -0.8772(3)
C16 C 0.6837(5) -0.7713(4) -1.4228(3)
C17 C 0.3087(6) -0.7491(4) -1.5686(3)
H1 H 0.646(1) -1.019(1) -1.160(1)
H2 H 0.748(1) -0.771(1) -1.342(1)
H3 H 0.200(1) -1.040(1) -0.763(1)
H4 H -0.155(1) -0.722(1) -1.021(1)
H5 H 0.091(1) -1.010(1) -1.311(1)
H6 H 0.480(1) -0.978(1) -1.370(1)
H7 H 0.356(1) -0.985(1) -0.928(1)
H8 H 0.152(1) -0.724(1) -1.580(1)
H9 H 0.207(1) -0.695(1) -1.084(1)
H10 H 0.436(1) -0.652(1) -1.402(1)
H11 H 0.232(1) -1.036(1) -1.120(1)
H12 H 0.217(1) -1.123(1) -1.323(1)
H13 H -0.320(1) -0.801(1) -0.854(1)
H14 H 0.238(1) -0.970(1) -1.469(1)
H15 H 0.155(1) -0.792(1) -1.386(1)
H16 H 0.371(1) -0.687(1) -1.609(1)
H17 H 0.608(1) -1.037(1) -1.039(1)
H18 H 0.684(1) -0.847(1) -1.458(1)
H19 H 0.741(1) -0.720(1) -1.472(1)
H20 H 0.598(1) -1.129(1) -1.156(1)
H21 H 0.309(1) -0.822(1) -1.591(1)
#END
