
#######################################################################
#
#                 Cambridge Crystallographic Data Centre
#                                CCDC
#
#######################################################################
#
# If this CIF has been generated from an entry in the Cambridge
# Structural Database, then it will include bibliographic, chemical,
# crystal, experimental, refinement or atomic coordinate data resulting
# from the CCDC's data processing and validation procedures.
#
#######################################################################

data_CSD_CIF_DATFOW
_audit_creation_date 2017-05-18
_audit_creation_method CSD-ConQuest-V1
_database_code_CSD DATFOW
_database_code_depnum_ccdc_archive 'CCDC 1535863'
_chemical_formula_sum 'C22 H16 N4 O3'
_chemical_formula_moiety
;
C22 H16 N4 O3
;
_journal_coden_Cambridge 1336
_journal_volume 19
_journal_year 2017
_journal_page_first 2266
_journal_name_full 'Org.Lett. '
loop_
_publ_author_name
"M.Laugeois"
"Johanne Ling"
"C.Ferard"
"V.Michelet"
"V.Ratovelomanana-Vidal"
"M.R.Vitale"
_chemical_name_systematic
;
4-(benzoyl)-3-ethenyl-3a-nitro-3,3a,4,8b-tetrahydrocyclopenta[b]indole-1,1(2H)
-dicarbonitrile
;
_cell_volume   3790.085
_exptl_crystal_colour 'colorless'
_exptl_crystal_density_diffrn 1.347
_exptl_crystal_description 'prism'
_diffrn_ambient_temperature 200
#These two values have been output from a single CSD field.
_refine_ls_R_factor_gt 0.0461
_refine_ls_wR_factor_gt 0.0461
_symmetry_cell_setting orthorhombic
_symmetry_space_group_name_H-M 'P b c a'
_symmetry_Int_Tables_number 61
loop_
_symmetry_equiv_pos_site_id
_symmetry_equiv_pos_as_xyz
1 x,y,z
2 1/2-x,-y,1/2+z
3 -x,1/2+y,1/2-z
4 1/2+x,1/2-y,-z
5 -x,-y,-z
6 -1/2+x,y,-1/2-z
7 x,-1/2-y,-1/2+z
8 -1/2-x,-1/2+y,z
_cell_length_a 15.0740(4)
_cell_length_b 7.6108(2)
_cell_length_c 33.0362(10)
_cell_angle_alpha 90
_cell_angle_beta 90
_cell_angle_gamma 90
_cell_formula_units_Z 8
loop_
_atom_type_symbol
_atom_type_radius_bond
C 0.68
H 0.23
N 0.68
O 0.68
loop_
_atom_site_label
_atom_site_type_symbol
_atom_site_fract_x
_atom_site_fract_y
_atom_site_fract_z
O1 O 0.42781(8) 0.84746(13) 0.56372(3)
O2 O 0.45812(7) 0.65956(14) 0.51716(3)
O3 O 0.29280(6) 0.69371(14) 0.62004(3)
N1 N 0.43842(6) 0.62357(14) 0.62320(3)
N2 N 0.44213(7) 0.70014(14) 0.55202(3)
N3 N 0.46774(10) 0.20084(19) 0.66507(4)
N4 N 0.62478(8) 0.03300(18) 0.56697(5)
C1 C 0.43941(7) 0.54789(15) 0.58310(3)
C2 C 0.52945(7) 0.45138(16) 0.58100(4)
H1 H 0.55710 0.46550 0.55370
C3 C 0.58351(8) 0.54185(17) 0.61276(4)
C4 C 0.52811(8) 0.64446(17) 0.63680(4)
C5 C 0.36559(8) 0.41193(16) 0.57271(4)
H2 H 0.33100 0.39040 0.59810
C6 C 0.41616(8) 0.24261(17) 0.56305(4)
H3 H 0.43010 0.23530 0.53380
H4 H 0.38110 0.13800 0.57090
C7 C 0.50184(8) 0.25627(16) 0.58850(4)
C8 C 0.67450(8) 0.54080(18) 0.61893(4)
H5 H 0.71230 0.47070 0.60250
C9 C 0.70895(9) 0.6442(2) 0.64955(5)
H6 H 0.77090 0.64310 0.65470
C10 C 0.65393(9) 0.7490(2) 0.67265(4)
H7 H 0.67910 0.82070 0.69320
C11 C 0.56233(9) 0.75240(19) 0.66662(4)
H8 H 0.52490 0.82600 0.68240
C12 C 0.35992(8) 0.68397(17) 0.64044(4)
C13 C 0.36156(8) 0.72935(19) 0.68415(4)
C14 C 0.39822(10) 0.6163(2) 0.71276(4)
H9 H 0.42190 0.50600 0.70470
C15 C 0.39991(11) 0.6662(2) 0.75306(5)
H10 H 0.42470 0.58960 0.77270
C16 C 0.36578(11) 0.8264(2) 0.76483(5)
H11 H 0.36850 0.86100 0.79240
C17 C 0.32776(11) 0.9360(2) 0.73661(5)
H12 H 0.30340 1.04540 0.74490
C18 C 0.32476(9) 0.8878(2) 0.69616(4)
H13 H 0.29760 0.96290 0.67680
C19 C 0.30069(9) 0.46708(19) 0.54069(4)
H14 H 0.26690 0.56990 0.54600
C20 C 0.28594(11) 0.3877(2) 0.50616(5)
H15 H 0.31800 0.28430 0.49940
H16 H 0.24320 0.43350 0.48790
C21 C 0.48319(9) 0.22398(18) 0.63178(4)
C22 C 0.57136(8) 0.13117(18) 0.57578(4)
#END
