
#######################################################################
#
#                 Cambridge Crystallographic Data Centre
#                                CCDC
#
#######################################################################
#
# If this CIF has been generated from an entry in the Cambridge
# Structural Database, then it will include bibliographic, chemical,
# crystal, experimental, refinement or atomic coordinate data resulting
# from the CCDC's data processing and validation procedures.
#
#######################################################################

data_CSD_CIF_DATGEL
_audit_creation_date 2005-10-20
_audit_creation_method CSD-ConQuest-V1
_database_code_CSD DATGEL
_database_code_depnum_ccdc_archive 'CCDC 282238'
_chemical_formula_sum 'C8 H10 N2 O2'
_chemical_formula_moiety
;
C8 H10 N2 O2
;
_journal_coeditor_code "IUCr BT6688"
_journal_coden_Cambridge 1370
_journal_volume 61
_journal_year 2005
_journal_page_first o2379
_journal_name_full 'Acta Crystallogr.,Sect.E:Struct.Rep.Online '
loop_
_publ_author_name
"R.Kruszynski"
_chemical_name_systematic
;
2,3-Dimethyl-6-nitroaniline
;
_cell_volume   1636.930
_exptl_crystal_colour 'orange'
_exptl_crystal_density_diffrn 1.349
_exptl_crystal_description 'prism'
_diffrn_ambient_temperature 291.0
#These two values have been output from a single CSD field.
_refine_ls_R_factor_gt 0.054
_refine_ls_wR_factor_gt 0.054
_symmetry_cell_setting monoclinic
_symmetry_space_group_name_H-M 'C 2/c'
_symmetry_Int_Tables_number 15
loop_
_symmetry_equiv_pos_site_id
_symmetry_equiv_pos_as_xyz
1 x,y,z
2 1/2+x,1/2+y,z
3 -x,y,1/2-z
4 1/2-x,1/2+y,1/2-z
5 -x,-y,-z
6 -1/2-x,-1/2-y,-z
7 x,-y,-1/2+z
8 -1/2+x,-1/2-y,-1/2+z
_cell_length_a 14.4439(11)
_cell_length_b 8.6837(6)
_cell_length_c 14.0031(10)
_cell_angle_alpha 90
_cell_angle_beta 111.251(9)
_cell_angle_gamma 90
_cell_formula_units_Z 8
loop_
_atom_type_symbol
_atom_type_radius_bond
C 0.68
H 0.23
N 0.68
O 0.68
loop_
_atom_site_label
_atom_site_type_symbol
_atom_site_fract_x
_atom_site_fract_y
_atom_site_fract_z
C1 C 0.38107(12) 0.80506(19) 0.07627(12)
C2 C 0.38012(12) 0.81245(18) -0.02559(12)
C3 C 0.37547(12) 0.67001(18) -0.07882(13)
C4 C 0.36957(12) 0.53156(18) -0.03186(13)
C5 C 0.37129(14) 0.5295(2) 0.06996(15)
H1 H 0.36840 0.43600 0.10120
C6 C 0.37709(14) 0.6637(2) 0.12263(14)
H2 H 0.37840 0.66120 0.18950
N1 N 0.38383(11) 0.94163(18) 0.13640(12)
O1 O 0.38809(11) 1.07134(16) 0.10086(12)
O2 O 0.38082(12) 0.92551(18) 0.22332(11)
N2 N 0.38212(11) 0.94697(17) -0.07443(12)
H3 H 0.38409(12) 1.0347(18) -0.0432(6)
H4 H 0.38142(12) 0.94573(17) -0.1371(12)
C7 C 0.37622(17) 0.6753(2) -0.18646(14)
H5 H 0.38530 0.57320 -0.20780
H6 H 0.42960 0.74010 -0.18780
H7 H 0.31420 0.71610 -0.23210
C8 C 0.36032(16) 0.3797(2) -0.08706(16)
H8 H 0.41990 0.36050 -0.10060
H9 H 0.30460 0.38340 -0.15060
H10 H 0.35070 0.29850 -0.04510
#END
