
#######################################################################
#
#                 Cambridge Crystallographic Data Centre
#                                CCDC
#
#######################################################################
#
# If this CIF has been generated from an entry in the Cambridge
# Structural Database, then it will include bibliographic, chemical,
# crystal, experimental, refinement or atomic coordinate data resulting
# from the CCDC's data processing and validation procedures.
#
#######################################################################

data_CSD_CIF_DATGEN
_audit_creation_date 2017-05-18
_audit_creation_method CSD-ConQuest-V1
_database_code_CSD DATGEN
_database_code_depnum_ccdc_archive 'CCDC 1529569'
_chemical_formula_sum 'C28 H28 N2 O10'
_chemical_formula_moiety
;
C28 H28 N2 O10
;
_journal_coden_Cambridge 1336
_journal_volume 19
_journal_year 2017
_journal_page_first 2310
_journal_name_full 'Org.Lett. '
loop_
_publ_author_name
"L.M.Schneider"
"V.M.Schmiedel"
"T.Pecchioli"
"D.Lentz"
"C.Merten"
"M.Christmann"
_chemical_name_systematic
;
11'-[(4-nitrobenzoyl)oxy]spiro[1,3-dioxolane-2,3'-tricyclo[4.3.3.0^1,6^]dodeca
n]-7'-yl 4-nitrobenzoate
;
_cell_volume   1263.479
_exptl_crystal_colour 'colorless'
_exptl_crystal_density_diffrn 1.452
_exptl_special_details
;
Absolute configuration

;
_exptl_crystal_description 'platelet'
_diffrn_ambient_temperature 100
#These two values have been output from a single CSD field.
_refine_ls_R_factor_gt 0.0466
_refine_ls_wR_factor_gt 0.0466
_symmetry_cell_setting triclinic
_symmetry_space_group_name_H-M 'P 1'
_symmetry_Int_Tables_number 1
loop_
_symmetry_equiv_pos_site_id
_symmetry_equiv_pos_as_xyz
1 x,y,z
_cell_length_a 7.3394(5)
_cell_length_b 12.4108(8)
_cell_length_c 14.7998(13)
_cell_angle_alpha 107.312(5)
_cell_angle_beta 100.068(5)
_cell_angle_gamma 91.140(5)
_cell_formula_units_Z 2
loop_
_atom_type_symbol
_atom_type_radius_bond
C 0.68
H 0.23
N 0.68
O 0.68
loop_
_atom_site_label
_atom_site_type_symbol
_atom_site_fract_x
_atom_site_fract_y
_atom_site_fract_z
C1 C 0.4258(7) 0.6713(4) 0.1888(3)
C2 C 0.5766(7) 0.6198(4) 0.1354(3)
H1 H 0.52031 0.57711 0.06793
H2 H 0.63881 0.56596 0.16604
C3 C 0.7231(6) 0.7130(4) 0.1362(3)
H3 H 0.81700 0.67704 0.09872
H4 H 0.78741 0.75063 0.20332
C4 C 0.6333(6) 0.8040(4) 0.0925(3)
C5 C 0.4850(7) 0.8540(4) 0.1441(3)
H5 H 0.41724 0.90164 0.10849
H6 H 0.54464 0.90482 0.20838
C6 C 0.3388(6) 0.7697(4) 0.1590(3)
C7 C 0.2599(6) 0.8333(3) 0.2474(3)
H7 H 0.23977 0.91217 0.24809
H8 H 0.14045 0.79520 0.24790
C8 C 0.4052(6) 0.8309(3) 0.3328(3)
H9 H 0.50060 0.89586 0.34927
C9 C 0.4962(6) 0.7178(4) 0.3002(3)
H10 H 0.45763 0.66402 0.33234
H11 H 0.63324 0.73045 0.31564
C10 C 0.1968(8) 0.7195(5) 0.0673(3)
H12 H 0.24724 0.72361 0.01051
H13 H 0.08257 0.76052 0.06970
C11 C 0.1549(7) 0.5927(4) 0.0621(3)
H14 H 0.02024 0.57574 0.05644
H15 H 0.19647 0.54063 0.00588
C12 C 0.2602(7) 0.5804(4) 0.1536(3)
H16 H 0.30814 0.50346 0.14067
C13 C 0.7853(8) 0.8921(4) 0.0055(3)
H17 H 0.91547 0.90671 0.00017
H18 H 0.70978 0.95051 -0.01223
C14 C 0.7088(7) 0.7754(4) -0.0563(3)
H19 H 0.65447 0.77463 -0.12260
H20 H 0.80594 0.72092 -0.05901
C15 C 0.0286(6) 0.5099(4) 0.2204(3)
C16 C -0.0637(6) 0.5266(4) 0.3056(3)
C17 C -0.0359(6) 0.6268(4) 0.3815(3)
H21 H 0.03866 0.68895 0.37901
C18 C -0.1174(6) 0.6356(4) 0.4608(3)
H22 H -0.10202 0.70412 0.51266
C19 C -0.2215(6) 0.5429(4) 0.4630(3)
C20 C -0.2548(6) 0.4435(4) 0.3882(3)
H23 H -0.32943 0.38168 0.39108
C21 C -0.1758(6) 0.4365(4) 0.3081(4)
H24 H -0.19866 0.36951 0.25459
C22 C 0.4284(6) 0.8643(3) 0.5012(3)
C23 C 0.3232(6) 0.8737(3) 0.5799(3)
C24 C 0.4141(6) 0.8586(3) 0.6646(3)
H25 H 0.54238 0.84614 0.67261
C25 C 0.3170(6) 0.8617(4) 0.7389(3)
H26 H 0.37694 0.85010 0.79722
C26 C 0.1321(6) 0.8820(3) 0.7246(3)
C27 C 0.0396(6) 0.9028(4) 0.6427(3)
H27 H -0.08632 0.92064 0.63669
C28 C 0.1374(6) 0.8965(4) 0.5696(3)
H28 H 0.07647 0.90795 0.51136
N1 N -0.2949(5) 0.5504(4) 0.5516(3)
N2 N 0.0274(5) 0.8796(3) 0.8009(2)
O1 O 0.7730(5) 0.8895(3) 0.1001(2)
O2 O 0.5691(5) 0.7501(3) -0.0077(2)
O3 O 0.1463(4) 0.5973(2) 0.2299(2)
O4 O -0.0003(5) 0.4249(3) 0.1517(2)
O5 O -0.2838(5) 0.6428(3) 0.6131(3)
O6 O -0.3595(5) 0.4624(3) 0.5599(2)
O7 O 0.3155(4) 0.8389(2) 0.4149(2)
O8 O 0.5959(4) 0.8768(3) 0.5138(2)
O9 O -0.1283(4) 0.9142(3) 0.7961(2)
O10 O 0.1012(5) 0.8410(3) 0.8642(2)
C29 C 0.6851(6) 0.2710(3) 0.8332(3)
C30 C 0.7210(7) 0.2509(4) 0.9324(3)
H29 H 0.85088 0.23174 0.94709
H30 H 0.70495 0.32161 0.98246
C31 C 0.5912(6) 0.1563(4) 0.9366(3)
H31 H 0.61684 0.14821 1.00210
H32 H 0.61428 0.08399 0.89055
C32 C 0.3876(7) 0.1804(4) 0.9118(3)
C33 C 0.3436(6) 0.1970(3) 0.8140(3)
H33 H 0.21632 0.22206 0.80441
H34 H 0.34471 0.12322 0.76440
C34 C 0.4785(6) 0.2839(3) 0.7979(3)
C35 C 0.4698(6) 0.2607(4) 0.6899(3)
H35 H 0.34025 0.24189 0.65411
H36 H 0.52262 0.32699 0.67638
C36 C 0.5860(6) 0.1601(3) 0.6629(3)
H37 H 0.50633 0.08835 0.64755
C37 C 0.7393(6) 0.1711(4) 0.7523(3)
H38 H 0.86303 0.18825 0.73979
H39 H 0.74085 0.10036 0.77037
C38 C 0.4506(7) 0.4058(4) 0.8519(3)
H40 H 0.43039 0.41239 0.91763
H41 H 0.34254 0.43320 0.81717
C39 C 0.6308(7) 0.4738(4) 0.8559(3)
H42 H 0.61702 0.50720 0.80227
H43 H 0.66334 0.53559 0.91765
C40 C 0.7805(6) 0.3890(4) 0.8467(3)
H44 H 0.87836 0.41143 0.90653
C41 C 0.2844(7) 0.2254(4) 1.0557(3)
H45 H 0.18318 0.26616 1.08396
H46 H 0.39169 0.23019 1.10801
C42 C 0.2200(9) 0.1034(4) 0.9996(4)
H47 H 0.28154 0.05184 1.03302
H48 H 0.08397 0.09081 0.99285
C43 C 0.9726(6) 0.4781(4) 0.7719(3)
C44 C 1.0568(6) 0.4671(4) 0.6846(3)
C45 C 1.0269(6) 0.3693(4) 0.6061(3)
H49 H 0.95055 0.30675 0.60641
C46 C 1.1091(6) 0.3635(4) 0.5270(3)
H50 H 1.09429 0.29603 0.47405
C47 C 1.2116(6) 0.4565(4) 0.5270(3)
C48 C 1.2436(7) 0.5560(4) 0.6041(4)
H51 H 1.31615 0.61912 0.60202
C49 C 1.1665(6) 0.5600(4) 0.6840(3)
H52 H 1.18817 0.62612 0.73834
C50 C 0.5655(6) 0.1287(3) 0.4956(3)
C51 C 0.6754(6) 0.1219(3) 0.4174(3)
C52 C 0.8606(6) 0.0962(3) 0.4288(3)
H53 H 0.91873 0.08106 0.48586
C53 C 0.9591(6) 0.0928(4) 0.3565(3)
H54 H 1.08521 0.07535 0.36302
C54 C 0.8695(6) 0.1156(3) 0.2740(3)
C55 C 0.6837(6) 0.1378(3) 0.2610(3)
H55 H 0.62513 0.15116 0.20320
C56 C 0.5859(6) 0.1403(3) 0.3319(3)
H56 H 0.45822 0.15429 0.32349
N3 N 1.2861(5) 0.4532(4) 0.4404(3)
N4 N 0.9766(5) 0.1192(3) 0.2000(2)
O11 O 0.3367(4) 0.2713(2) 0.9839(2)
O12 O 0.2688(6) 0.0841(3) 0.9088(2)
O13 O 0.8643(4) 0.3849(3) 0.7627(2)
O14 O 1.0009(5) 0.5604(3) 0.8415(2)
O15 O 1.2762(5) 0.3613(4) 0.3769(3)
O16 O 1.3517(5) 0.5420(3) 0.4341(3)
O17 O 0.6761(4) 0.1570(2) 0.58170(19)
O18 O 0.3988(4) 0.1102(3) 0.4807(2)
O19 O 0.9003(5) 0.1528(3) 0.1335(2)
O20 O 1.1362(4) 0.0906(3) 0.2086(2)
#END
