
#######################################################################
#
#                 Cambridge Crystallographic Data Centre
#                                CCDC
#
#######################################################################
#
# If this CIF has been generated from an entry in the Cambridge
# Structural Database, then it will include bibliographic, chemical,
# crystal, experimental, refinement or atomic coordinate data resulting
# from the CCDC's data processing and validation procedures.
#
#######################################################################

data_CSD_CIF_DATGAJ
_audit_creation_date 2017-05-18
_audit_creation_method CSD-ConQuest-V1
_database_code_CSD DATGAJ
_database_code_depnum_ccdc_archive 'CCDC 1536416'
_chemical_formula_sum 'C22 H16 N4 O3'
_chemical_formula_moiety
;
C22 H16 N4 O3
;
_journal_coden_Cambridge 1336
_journal_volume 19
_journal_year 2017
_journal_page_first 2266
_journal_name_full 'Org.Lett. '
loop_
_publ_author_name
"M.Laugeois"
"Johanne Ling"
"C.Ferard"
"V.Michelet"
"V.Ratovelomanana-Vidal"
"M.R.Vitale"
_chemical_name_systematic
;
4-(benzenecarbonyl)-1-ethenyl-8b-nitro-1,3a,4,8b-tetrahydrocyclopenta[b]indole
-3,3(2H)-dicarbonitrile
;
_cell_volume   3768.613
_exptl_crystal_colour 'colorless'
_exptl_crystal_density_diffrn 1.355
_exptl_crystal_description 'needle'
_diffrn_ambient_temperature 200
#These two values have been output from a single CSD field.
_refine_ls_R_factor_gt 0.0522
_refine_ls_wR_factor_gt 0.0522
loop_
_citation_database_id_CSD
_citation_special_details
REVDII "is a stereoisomer of this entry"
_symmetry_cell_setting monoclinic
_symmetry_space_group_name_H-M 'P 21/n'
_symmetry_Int_Tables_number 14
loop_
_symmetry_equiv_pos_site_id
_symmetry_equiv_pos_as_xyz
1 x,y,z
2 1/2-x,1/2+y,1/2-z
3 -x,-y,-z
4 -1/2+x,-1/2-y,-1/2+z
_cell_length_a 23.507(3)
_cell_length_b 6.5815(6)
_cell_length_c 25.139(3)
_cell_angle_alpha 90
_cell_angle_beta 104.310(4)
_cell_angle_gamma 90
_cell_formula_units_Z 8
loop_
_atom_type_symbol
_atom_type_radius_bond
C 0.68
H 0.23
N 0.68
O 0.68
loop_
_atom_site_label
_atom_site_type_symbol
_atom_site_fract_x
_atom_site_fract_y
_atom_site_fract_z
O1 O 0.36206(8) 0.7013(3) 0.25182(7)
O2 O 0.45935(10) 0.3944(3) 0.07679(9)
O3 O 0.51172(8) 0.4193(3) 0.15919(8)
N1 N 0.36412(8) 0.7050(3) 0.16386(7)
N2 N 0.47435(8) 0.4823(3) 0.12009(9)
N3 N 0.49253(11) 0.8354(4) 0.31959(10)
N4 N 0.39051(9) 1.1973(3) 0.18279(9)
C1 C 0.42797(9) 0.6942(3) 0.18087(9)
H1 H 0.44070 0.56750 0.20250
C2 C 0.45949(9) 0.8850(3) 0.21281(9)
C3 C 0.5157(1) 0.9015(4) 0.19231(10)
H2 H 0.53330 1.03860 0.19940
H3 H 0.54500 0.79910 0.21030
C4 C 0.49483(10) 0.8614(4) 0.13143(10)
H4 H 0.47350 0.98620 0.11470
C5 C 0.4477(1) 0.6899(3) 0.12652(9)
C6 C 0.39245(10) 0.7219(3) 0.08282(9)
C7 C 0.38529(11) 0.7458(3) 0.02699(9)
H5 H 0.41820 0.73970 0.01140
C8 C 0.32942(11) 0.7789(3) -0.00595(10)
H6 H 0.32360 0.79340 -0.04450
C9 C 0.28230(11) 0.7907(3) 0.01738(10)
H7 H 0.24430 0.81470 -0.00570
C10 C 0.28844(10) 0.7686(3) 0.07337(9)
H8 H 0.25560 0.77770 0.08890
C11 C 0.3447(1) 0.7325(3) 0.10592(9)
C12 C 0.33407(10) 0.6953(4) 0.20388(10)
C13 C 0.26918(10) 0.6718(4) 0.18795(9)
C14 C 0.24565(11) 0.4847(4) 0.16954(10)
H9 H 0.27060 0.37730 0.16420
C15 C 0.18589(13) 0.4541(5) 0.15899(11)
H10 H 0.16960 0.32550 0.14640
C16 C 0.15018(13) 0.6095(6) 0.16668(12)
H11 H 0.10900 0.58810 0.15920
C17 C 0.17299(13) 0.7968(6) 0.18517(12)
H12 H 0.14760 0.90380 0.19000
C18 C 0.23328(12) 0.8286(5) 0.19674(11)
H13 H 0.24960 0.95590 0.21050
C19 C 0.47537(11) 0.8566(4) 0.27326(10)
C20 C 0.42143(10) 1.0641(4) 0.19819(9)
C21 C 0.54223(11) 0.8236(4) 0.10232(11)
H14 H 0.56440 0.70200 0.11030
C22 C 0.55448(15) 0.9472(5) 0.06711(14)
H15 H 0.53300 1.07000 0.05840
H16 H 0.58510 0.91570 0.04980
O4 O 0.64108(7) 0.0924(3) 0.29507(7)
O5 O 0.64164(8) -0.1481(3) 0.51182(8)
O6 O 0.56100(7) -0.1061(3) 0.44947(7)
N5 N 0.68048(7) 0.1511(3) 0.38419(7)
N6 N 0.61053(8) -0.0539(3) 0.47432(8)
N7 N 0.51434(10) 0.3386(4) 0.27849(10)
N8 N 0.65688(10) 0.6646(3) 0.38535(10)
C23 C 0.62206(8) 0.1556(3) 0.39422(8)
H17 H 0.59890 0.03430 0.37730
C24 C 0.58591(9) 0.3550(3) 0.37632(9)
C25 C 0.54988(9) 0.3735(4) 0.4198(1)
H18 H 0.53410 0.51260 0.42050
H19 H 0.51690 0.27530 0.41260
C26 C 0.59466(10) 0.3243(4) 0.47354(9)
H20 H 0.62100 0.44520 0.48300
C27 C 0.63215(9) 0.1497(3) 0.45737(8)
C28 C 0.69724(9) 0.1714(3) 0.47826(9)
C29 C 0.72994(10) 0.1969(3) 0.53175(9)
H21 H 0.71140 0.19800 0.56130
C30 C 0.7903(1) 0.2207(3) 0.54142(9)
H22 H 0.81360 0.23630 0.57790
C31 C 0.81655(10) 0.2216(3) 0.49782(10)
H23 H 0.85800 0.23630 0.50500
C32 C 0.78398(9) 0.2018(3) 0.44386(9)
H24 H 0.80230 0.20740 0.41420
C33 C 0.72391(8) 0.1736(3) 0.43455(8)
C34 C 0.68537(9) 0.1016(4) 0.33260(9)
C35 C 0.74482(9) 0.0585(4) 0.32380(9)
C36 C 0.77259(10) -0.1249(4) 0.34045(10)
H25 H 0.75560 -0.21960 0.36060
C37 C 0.82528(11) -0.1693(4) 0.32757(11)
H26 H 0.84440 -0.29510 0.33860
C38 C 0.84999(10) -0.0306(5) 0.29876(11)
H27 H 0.88580 -0.06220 0.28950
C39 C 0.82305(10) 0.1531(5) 0.28333(11)
H28 H 0.84070 0.24930 0.26420
C40 C 0.77028(10) 0.1978(4) 0.29564(10)
H29 H 0.75150 0.32430 0.28470
C41 C 0.5473(1) 0.3443(3) 0.32056(10)
C42 C 0.62539(9) 0.5301(3) 0.37967(9)
C43 C 0.56962(11) 0.2848(4) 0.52170(11)
H30 H 0.54110 0.18050 0.51850
C44 C 0.58459(12) 0.3850(5) 0.56790(11)
H31 H 0.61300 0.49020 0.57240
H32 H 0.56700 0.35260 0.59710
#END
