
#######################################################################
#
#                 Cambridge Crystallographic Data Centre
#                                CCDC
#
#######################################################################
#
# If this CIF has been generated from an entry in the Cambridge
# Structural Database, then it will include bibliographic, chemical,
# crystal, experimental, refinement or atomic coordinate data resulting
# from the CCDC's data processing and validation procedures.
#
#######################################################################

data_CSD_CIF_DATMEQ
_audit_creation_date 1986-05-18
_audit_creation_method CSD-ConQuest-V1
_database_code_CSD DATMEQ
_database_code_depnum_ccdc_archive 'CCDC 1136619'
_chemical_formula_sum 'C39 H30 N2 O3'
_chemical_formula_moiety
;
C39 H30 N2 O3
;
_journal_coden_Cambridge 34
_journal_volume 21
_journal_year 1984
_journal_page_first 1405
_journal_name_full 'J.Heterocycl.Chem. '
loop_
_publ_author_name
"E.G.Tsatsaroni"
"N.G.Argyropoulos"
"N.E.Alexandrou"
"A.Houndas"
"A.Terzis"
_chemical_name_systematic
;
4,7,8,9-Tetraphenyl-2-(4-nitrophenyl)-6-ethyl-1,3-oxazaspiro(4.4)nona-3,6,8-tr
iene
;
_chemical_melting_point 451.15
_cell_volume   1526.533
_exptl_crystal_colour 'pale yellow'
_exptl_crystal_density_diffrn 1.254
_exptl_special_details
;
Melting point range 451.15-453.15K

;
_diffrn_ambient_temperature ?
_diffrn_special_details
;
The study was carried out at room temperature,in the range 283-303K

;
#These two values have been output from a single CSD field.
_refine_ls_R_factor_gt 0.0452
_refine_ls_wR_factor_gt 0.0452
_symmetry_cell_setting triclinic
_symmetry_space_group_name_H-M 'P -1'
_symmetry_Int_Tables_number 2
loop_
_symmetry_equiv_pos_site_id
_symmetry_equiv_pos_as_xyz
1 x,y,z
2 -x,-y,-z
_cell_length_a 15.438(2)
_cell_length_b 10.097(1)
_cell_length_c 10.621(1)
_cell_angle_alpha 109.64(1)
_cell_angle_beta 87.19(1)
_cell_angle_gamma 101.70(1)
_cell_formula_units_Z 2
loop_
_atom_type_symbol
_atom_type_radius_bond
C 0.68
H 0.23
N 0.68
O 0.68
loop_
_atom_site_label
_atom_site_type_symbol
_atom_site_fract_x
_atom_site_fract_y
_atom_site_fract_z
O1 O 0.3594(1) 0.3407(2) 0.0392(1)
O2 O 0.5568(2) 0.2333(3) -0.6117(2)
O3 O 0.5911(1) 0.4591(3) -0.4980(2)
N1 N 0.2538(1) 0.1847(2) -0.1189(2)
N2 N 0.5523(2) 0.3368(4) -0.5125(3)
C1 C 0.2352(1) 0.5371(2) 0.2783(2)
C2 C 0.2743(1) 0.3557(2) 0.0961(2)
C3 C 0.3474(1) 0.2232(2) -0.0834(2)
C4 C 0.2235(1) 0.4025(2) 0.3123(2)
C5 C 0.2523(1) 0.3007(2) 0.2122(2)
C6 C 0.2666(1) 0.5125(2) 0.1534(2)
C7 C 0.2123(1) 0.2588(2) -0.0222(2)
C8 C 0.2585(2) 0.1525(2) 0.2052(2)
C9 C 0.3493(2) 0.1457(3) 0.2498(3)
C10 C 0.2139(1) 0.6745(2) 0.3718(1)
C11 C 0.2306(1) 0.7130(2) 0.5075(1)
C12 C 0.2120(1) 0.8430(2) 0.5942(1)
C13 C 0.1766(1) 0.9291(2) 0.5453(1)
C14 C 0.1598(1) 0.8906(2) 0.4096(1)
C15 C 0.1785(1) 0.7633(2) 0.3229(1)
C16 C 0.1135(1) 0.2364(1) -0.0259(2)
C17 C 0.0678(1) 0.3392(1) 0.0512(2)
C18 C -0.0236(1) 0.3121(1) 0.0445(2)
C19 C -0.0694(1) 0.1822(1) -0.0393(2)
C20 C -0.0238(1) 0.0794(1) -0.1163(2)
C21 C 0.0677(1) 0.1065(1) -0.1097(2)
C22 C 0.4017(1) 0.2585(1) -0.1939(1)
C23 C 0.4458(1) 0.3962(1) -0.1811(1)
C24 C 0.4946(1) 0.4224(1) -0.2859(1)
C25 C 0.4994(1) 0.3110(1) -0.4035(1)
C26 C 0.4554(1) 0.1732(1) -0.4163(1)
C27 C 0.4065(1) 0.1470(1) -0.3115(1)
C28 C 0.1765(1) 0.3774(2) 0.4320(1)
C29 C 0.2188(1) 0.3452(2) 0.5267(1)
C30 C 0.1714(1) 0.3136(2) 0.6305(1)
C31 C 0.0818(1) 0.3142(2) 0.6396(1)
C32 C 0.0396(1) 0.3464(2) 0.5449(1)
C33 C 0.0869(1) 0.3780(2) 0.4411(1)
C34 C 0.2972(1) 0.6112(2) 0.0756(1)
C35 C 0.3656(1) 0.7277(2) 0.1257(1)
C36 C 0.3998(1) 0.8119(2) 0.0487(1)
C37 C 0.3656(1) 0.7795(2) -0.0785(1)
C38 C 0.2972(1) 0.6629(2) -0.1287(1)
C39 C 0.2630(1) 0.5788(2) -0.0516(1)
H1 H 0.25600 0.64900 0.54300
H2 H 0.22400 0.86800 0.69200
H3 H 0.16300 1.02100 0.60800
H4 H 0.13400 0.95500 0.37400
H5 H 0.16600 0.73600 0.22500
H6 H 0.10100 0.43300 0.11200
H7 H -0.05700 0.38700 0.10000
H8 H -0.13600 0.16300 -0.04400
H9 H -0.05700 -0.01500 -0.17700
H10 H 0.10100 0.03200 -0.16500
H11 H 0.44200 0.47700 -0.09600
H12 H 0.52700 0.52200 -0.27700
H13 H 0.45900 0.09300 -0.50100
H14 H 0.37500 0.04700 -0.32100
H15 H 0.28400 0.34500 0.52000
H16 H 0.20200 0.29000 0.69900
H17 H 0.04800 0.29100 0.71500
H18 H -0.02500 0.34700 0.55100
H19 H 0.05600 0.40100 0.37300
H20 H 0.39000 0.75100 0.21800
H21 H 0.44900 0.89600 0.08500
H22 H 0.39000 0.84000 -0.13400
H23 H 0.27300 0.64000 -0.22100
H24 H 0.21400 0.49500 -0.08800
H25 H 0.21300 0.12000 0.26500
H26 H 0.24700 0.08700 0.11100
H27 H 0.36700 0.13900 -0.07500
H28 H 0.34800 0.04500 0.24700
H29 H 0.36300 0.21300 0.34300
H30 H 0.39700 0.17200 0.19000
#END
