
#######################################################################
#
#                 Cambridge Crystallographic Data Centre
#                                CCDC
#
#######################################################################
#
# If this CIF has been generated from an entry in the Cambridge
# Structural Database, then it will include bibliographic, chemical,
# crystal, experimental, refinement or atomic coordinate data resulting
# from the CCDC's data processing and validation procedures.
#
#######################################################################

data_CSD_CIF_DATMIU
_audit_creation_date 1986-05-19
_audit_creation_method CSD-ConQuest-V1
_database_code_CSD DATMIU
_database_code_depnum_ccdc_archive 'CCDC 1136620'
_chemical_formula_sum 'C20 H27 N1 O4'
_chemical_formula_moiety
;
C20 H27 N1 O4
;
_journal_coden_Cambridge 10
_journal_volume 67
_journal_year 1984
_journal_page_first 1748
_journal_name_full 'Helv.Chim.Acta '
loop_
_publ_author_name
"M.E.Scheller"
"P.Mathies"
"W.Petter"
"B.Frei"
_chemical_name_systematic
;
(1R*,9S*,10S*)-5,5,9-Trimethyl-decahydro-1-naphthyl-p-nitrobenzoate
;
_chemical_melting_point 402.15
_cell_volume   3715.759
_exptl_crystal_density_diffrn 1.23
_exptl_special_details
;
Melting point range 402.15-404.15K

;
_diffrn_ambient_temperature ?
_diffrn_special_details
;
The study was carried out at room temperature,in the range 283-303K

;
#These two values have been output from a single CSD field.
_refine_ls_R_factor_gt 0.034
_refine_ls_wR_factor_gt 0.034
_symmetry_cell_setting orthorhombic
_symmetry_space_group_name_H-M 'P b c a'
_symmetry_Int_Tables_number 61
loop_
_symmetry_equiv_pos_site_id
_symmetry_equiv_pos_as_xyz
1 x,y,z
2 1/2-x,-y,1/2+z
3 1/2+x,1/2-y,-z
4 -x,1/2+y,1/2-z
5 -x,-y,-z
6 -1/2+x,y,-1/2-z
7 -1/2-x,-1/2+y,z
8 x,-1/2-y,-1/2+z
_cell_length_a 36.476
_cell_length_b 8.326
_cell_length_c 12.235
_cell_angle_alpha 90
_cell_angle_beta 90
_cell_angle_gamma 90
_cell_formula_units_Z 8
loop_
_atom_type_symbol
_atom_type_radius_bond
C 0.68
H 0.23
N 0.68
O 0.68
loop_
_atom_site_label
_atom_site_type_symbol
_atom_site_fract_x
_atom_site_fract_y
_atom_site_fract_z
O1 O 0.31950(6) 0.1720(3) 0.2289(2)
O2 O 0.35295(5) 0.3279(3) 0.3247(2)
O3 O 0.20470(5) 0.4803(3) 0.6576(2)
H1 H 0.2692(7) 0.476(3) 0.596(2)
H2 H 0.2545(6) 0.218(3) 0.266(2)
H3 H 0.1433(6) 0.460(3) 0.656(2)
H4 H 0.3214(7) 0.410(3) 0.490(2)
H5 H 0.2025(7) 0.296(3) 0.370(2)
H6 H 0.0801(5) 0.328(2) 0.720(2)
H7 H 0.0356(6) 0.143(3) 0.478(2)
H8 H 0.0346(6) -0.031(3) 0.530(2)
H9 H 0.0987(6) 0.266(3) 0.427(2)
H10 H 0.1344(6) 0.163(2) 0.451(2)
H11 H 0.1115(7) 0.540(3) 0.448(2)
H12 H 0.1297(7) 0.658(3) 0.533(2)
H13 H 0.1000(7) -0.048(3) 0.524(2)
H14 H 0.0842(6) -0.004(3) 0.407(2)
H15 H -0.0018(7) 0.265(3) 0.619(2)
H16 H 0.0116(8) 0.253(4) 0.744(3)
H17 H -0.0042(8) 0.091(4) 0.680(2)
H18 H 0.0825(8) 0.624(4) 0.667(3)
H19 H 0.0641(8) 0.674(4) 0.552(3)
H20 H 0.0335(7) 0.460(3) 0.628(2)
H21 H 0.0478(7) 0.410(3) 0.510(2)
H22 H 0.1331(7) 0.045(3) 0.655(2)
H23 H 0.1382(7) 0.195(3) 0.735(2)
H24 H 0.1646(7) 0.168(3) 0.640(2)
H25 H 0.0865(8) -0.038(4) 0.709(2)
H26 H 0.0420(9) -0.062(4) 0.733(3)
H27 H 0.0633(8) 0.065(4) 0.797(3)
C1 C 0.23205(6) 0.3903(3) 0.4932(2)
C2 C 0.29134(6) 0.3103(3) 0.3687(2)
C3 C 0.26706(7) 0.4267(3) 0.5285(2)
C4 C 0.25698(7) 0.2725(3) 0.3313(2)
C5 C 0.13486(6) 0.4272(3) 0.5826(2)
C6 C 0.20091(6) 0.4311(3) 0.5664(2)
C7 C 0.29699(7) 0.3872(3) 0.4660(2)
C8 C 0.04938(7) 0.0703(4) 0.5276(2)
C9 C 0.22719(7) 0.3137(3) 0.3933(2)
C10 C 0.11015(7) 0.1891(3) 0.4771(2)
C11 C 0.11485(8) 0.5641(4) 0.5292(3)
C12 C 0.07578(6) 0.2955(3) 0.6423(2)
C13 C 0.08670(8) 0.0383(3) 0.4792(3)
C14 C 0.05035(6) 0.1445(3) 0.6425(2)
C15 C 0.11447(5) 0.2660(3) 0.5905(2)
C16 C 0.01086(8) 0.1896(5) 0.6746(3)
C17 C 0.07940(9) 0.5918(4) 0.5895(4)
C18 C 0.05661(7) 0.4394(3) 0.5892(3)
C19 C 0.13884(8) 0.1590(4) 0.6624(3)
C20 C 0.0624(1) 0.0168(4) 0.7260(3)
N1 N 0.32358(6) 0.2669(3) 0.3026(2)
O4 O 0.16865(4) 0.4008(2) 0.5201(1)
#END
