
#######################################################################
#
#                 Cambridge Crystallographic Data Centre
#                                CCDC
#
#######################################################################
#
# If this CIF has been generated from an entry in the Cambridge
# Structural Database, then it will include bibliographic, chemical,
# crystal, experimental, refinement or atomic coordinate data resulting
# from the CCDC's data processing and validation procedures.
#
#######################################################################

data_CSD_CIF_DATNBZ
_audit_creation_date 1971-12-31
_audit_creation_method CSD-ConQuest-V1
_database_code_CSD DATNBZ
_database_code_depnum_ccdc_archive 'CCDC 1136625'
_chemical_formula_sum 'C6 H5 N5 O6'
_chemical_formula_moiety
;
C6 H5 N5 O6
;
_journal_coeditor_code "IUCr A05505"
_journal_coden_Cambridge 1
_journal_volume 22
_journal_year 1967
_journal_page_first 545
_journal_name_full 'Acta Crystallogr. '
loop_
_publ_author_name
"J.R.Holden"
_chemical_name_systematic
;
1,3-Diamino-2,4,6-trinitrobenzene
;
_chemical_melting_point 559.15
_cell_volume    439.136
_exptl_crystal_density_diffrn 1.838
_exptl_special_details
;
i polymorph

;
_diffrn_ambient_temperature ?
_diffrn_special_details
;
The study was carried out at room temperature,in the range 283-303K

;
#These two values have been output from a single CSD field.
_refine_ls_R_factor_gt 0.103
_refine_ls_wR_factor_gt 0.103
_symmetry_cell_setting monoclinic
_symmetry_space_group_name_H-M 'P c'
_symmetry_Int_Tables_number 7
loop_
_symmetry_equiv_pos_site_id
_symmetry_equiv_pos_as_xyz
1 x,y,z
2 x,-y,1/2+z
_cell_length_a 7.30(1)
_cell_length_b 5.20(1)
_cell_length_c 11.63(2)
_cell_angle_alpha 90
_cell_angle_beta 95.9(3)
_cell_angle_gamma 90
_cell_formula_units_Z 2
loop_
_atom_type_symbol
_atom_type_radius_bond
C 0.68
N 0.68
O 0.68
loop_
_atom_site_label
_atom_site_type_symbol
_atom_site_fract_x
_atom_site_fract_y
_atom_site_fract_z
C1 C 0.17600 -0.29400 0.00150
C2 C 0.01680 -0.35530 -0.08140
C3 C -0.15200 -0.19930 -0.08600
C4 C -0.15330 -0.00680 -0.00290
C5 C -0.00460 0.05160 0.07560
C6 C 0.15290 -0.09380 0.07730
N1 N 0.32790 -0.43330 0.00300
N2 N 0.02760 -0.56210 -0.15950
N3 N -0.29220 -0.25050 -0.16320
N4 N -0.30800 0.15990 0.00410
N5 N 0.30800 -0.00190 0.16400
O1 O 0.16800 -0.70440 -0.15660
O2 O -0.10500 -0.61700 -0.23090
O3 O -0.45560 0.11200 -0.05810
O4 O -0.30130 0.33850 0.07280
O5 O 0.28240 0.18350 0.21820
O6 O 0.44830 -0.13630 0.17240
#END
