
#######################################################################
#
#                 Cambridge Crystallographic Data Centre
#                                CCDC
#
#######################################################################
#
# If this CIF has been generated from an entry in the Cambridge
# Structural Database, then it will include bibliographic, chemical,
# crystal, experimental, refinement or atomic coordinate data resulting
# from the CCDC's data processing and validation procedures.
#
#######################################################################

data_CSD_CIF_DAVCOS
_audit_creation_date 1986-05-18
_audit_creation_method CSD-ConQuest-V1
_database_code_CSD DAVCOS
_chemical_formula_sum 'C24 H35 N1 O5'
_chemical_formula_moiety
;
C24 H35 N1 O5
;
_journal_coden_Cambridge 154
_journal_volume 37
_journal_year 1984
_journal_page_first 1369
_journal_name_full 'Aust.J.Chem. '
loop_
_publ_author_name
"M.P.Hartshorn"
"K.H.Sutton"
"J.Vaughan"
_chemical_name_systematic
;
4-t-Butyl-r-2-(4'-t-butyl-2',6'-dimethylphenoxy)-t-6-hydroxy-2,6-dimethyl-t-5-
nitrocyclohex-3-enone
;
_chemical_melting_point 395.65
_cell_volume   2395.247
_exptl_crystal_colour 'colorless'
_exptl_crystal_density_diffrn 1.16
_exptl_special_details
;
Melts with decomposition.

;
_diffrn_ambient_temperature ?
_diffrn_special_details
;
The study was carried out at room temperature,in the range 283-303K

;
#These two values have been output from a single CSD field.
_refine_ls_R_factor_gt 0.061
_refine_ls_wR_factor_gt 0.061
_symmetry_cell_setting monoclinic
_symmetry_space_group_name_H-M 'P 21/c'
_symmetry_Int_Tables_number 14
loop_
_symmetry_equiv_pos_site_id
_symmetry_equiv_pos_as_xyz
1 x,y,z
2 -x,1/2+y,1/2-z
3 -x,-y,-z
4 x,-1/2-y,-1/2+z
_cell_length_a 12.277(2)
_cell_length_b 9.683(3)
_cell_length_c 20.196(5)
_cell_angle_alpha 90
_cell_angle_beta 93.92(2)
_cell_angle_gamma 90
_cell_formula_units_Z 4
loop_
_atom_type_symbol
_atom_type_radius_bond
C 0.68
H 0.23
N 0.68
O 0.68
loop_
_atom_site_label
_atom_site_type_symbol
_atom_site_fract_x
_atom_site_fract_y
_atom_site_fract_z
C1 C 0.82776(33) 1.30020(44) 0.11115(20)
C2 C 0.57975(39) 1.13218(52) 0.07142(29)
H1 H 0.62511(39) 1.15167(52) 0.03569(29)
H2 H 0.58518(39) 1.20650(52) 0.10293(29)
H3 H 0.50529(39) 1.12269(52) 0.05418(29)
C3 C 0.89896(37) 1.26554(49) -0.00171(20)
H4 H 0.91955(37) 1.17131(49) 0.00702(20)
H5 H 0.94988(37) 1.30714(49) -0.02973(20)
H6 H 0.82703(37) 1.26831(49) -0.02353(20)
C4 C 0.80943(37) 1.15184(53) 0.21119(20)
H7 H 0.82084(37) 1.05966(53) 0.22772(20)
H8 H 0.73252(37) 1.16998(53) 0.20514(20)
H9 H 0.84259(37) 1.21658(53) 0.24242(20)
C5 C 1.20290(41) 1.15217(64) 0.05193(25)
H10 H 1.27782(41) 1.12322(64) 0.05366(25)
H11 H 1.19484(41) 1.23703(64) 0.02752(25)
H12 H 1.15772(41) 1.08236(64) 0.03033(25)
C6 C 1.24632(36) 1.28343(53) 0.15680(26)
H13 H 1.23978(36) 1.36970(53) 0.13345(26)
H14 H 1.32052(36) 1.25186(53) 0.15766(26)
H15 H 1.22575(36) 1.29588(53) 0.20142(26)
C7 C 0.76067(34) 0.83710(45) 0.13755(20)
C8 C 1.02184(30) 1.35025(40) 0.09345(19)
C9 C 0.72777(31) 0.96452(42) 0.11337(19)
C10 C 0.68146(33) 0.73836(45) 0.14862(20)
C11 C 0.57048(34) 0.76451(45) 0.13739(20)
C12 C 1.05353(32) 1.21312(41) 0.12365(19)
C13 C 0.61779(35) 0.99503(47) 0.10004(21)
C14 C 1.17353(31) 1.17147(45) 0.12374(21)
C15 C 0.54083(41) 0.8927(5) 0.11298(23)
C16 C 0.97638(34) 1.13336(48) 0.14720(21)
C17 C 1.19585(39) 1.03594(50) 0.16182(29)
H16 H 1.15392(39) 0.96709(50) 0.13720(29)
H17 H 1.17621(39) 1.03613(50) 0.20702(29)
H18 H 1.27219(39) 1.01544(50) 0.16062(29)
C18 C 0.85559(31) 1.16150(42) 0.14324(19)
C19 C 0.88028(31) 0.79816(48) 0.15055(27)
H19 H 0.91502(31) 0.83596(48) 0.11344(27)
H20 H 0.89037(31) 0.69985(48) 0.15169(27)
H21 H 0.91207(31) 0.83795(48) 0.19091(27)
C20 C 0.90501(32) 1.35438(43) 0.06115(20)
C21 C 0.48589(35) 0.65131(51) 0.14793(25)
C22 C 0.48949(50) 0.54800(63) 0.09208(33)
H22 H 0.43786(50) 0.47412(63) 0.09483(33)
H23 H 0.56052(50) 0.51037(63) 0.08619(33)
H24 H 0.46772(50) 0.60625(63) 0.05504(33)
C23 C 0.37003(38) 0.70653(58) 0.14651(34)
H25 H 0.37894(38) 0.76536(58) 0.18475(34)
H26 H 0.31862(38) 0.63477(58) 0.15456(34)
H27 H 0.34349(38) 0.75996(58) 0.10874(34)
C24 C 0.51120(57) 0.57520(82) 0.21190(33)
H28 H 0.58327(57) 0.53698(82) 0.21850(33)
H29 H 0.45844(57) 0.50707(82) 0.22269(33)
H30 H 0.50515(57) 0.65433(82) 0.24004(33)
N1 N 1.02776(33) 1.46125(43) 0.14714(20)
O1 O 0.80673(20) 1.06030(28) 0.09564(12)
O2 O 0.74820(22) 1.36755(31) 0.12275(16)
O3 O 0.87646(22) 1.49252(29) 0.04414(14)
O4 O 0.97073(24) 1.44498(32) 0.19400(14)
O5 O 1.08749(24) 1.55993(31) 0.14083(14)
H31 H 1.0748(23) 1.3842(32) 0.0601(15)
H32 H 0.7083(28) 0.6491(40) 0.1668(17)
H33 H 0.996(3) 1.0327(44) 0.1683(19)
H34 H 0.4599(32) 0.9218(42) 0.1039(20)
H35 H 0.8193(41) 1.5053(55) 0.0693(25)
#END
