
#######################################################################
#
#                 Cambridge Crystallographic Data Centre
#                                CCDC
#
#######################################################################
#
# If this CIF has been generated from an entry in the Cambridge
# Structural Database, then it will include bibliographic, chemical,
# crystal, experimental, refinement or atomic coordinate data resulting
# from the CCDC's data processing and validation procedures.
#
#######################################################################

data_CSD_CIF_DAVCOV
_audit_creation_date 2017-05-19
_audit_creation_method CSD-ConQuest-V1
_database_code_CSD DAVCOV
_database_code_depnum_ccdc_archive 'CCDC 1498296'
_chemical_formula_sum 'C24 H17 N5 O1'
_chemical_formula_moiety
;
C24 H17 N5 O1
;
_journal_coden_Cambridge 1037
_journal_volume 17
_journal_year 2016
_journal_page_first 279-5
_journal_name_full 'ARKIVOC '
loop_
_publ_author_name
"Y.A.Kvashnin"
"N.A.Kazin"
"E.V.Verbitskiy"
"T.S.Svalova"
"A.V.Ivanova"
"A.N.Kozitsina"
"P.A.Slepukhin"
"G.L.Rusinov"
"O.N.Chupakhin"
"V.N.Charushin"
_chemical_name_systematic
;
9-ethyl-3-(6-phenyl[1,2,5]oxadiazolo[3,4-b]pyrazin-5-yl)-9H-carbazole
;
_cell_volume   1997.195
_exptl_crystal_colour 'red'
_exptl_crystal_density_diffrn 1.302
_exptl_crystal_description 'prism'
_diffrn_ambient_temperature 295
#These two values have been output from a single CSD field.
_refine_ls_R_factor_gt 0.0494
_refine_ls_wR_factor_gt 0.0494
_symmetry_cell_setting monoclinic
_symmetry_space_group_name_H-M 'P 21/n'
_symmetry_Int_Tables_number 14
loop_
_symmetry_equiv_pos_site_id
_symmetry_equiv_pos_as_xyz
1 x,y,z
2 1/2-x,1/2+y,1/2-z
3 -x,-y,-z
4 -1/2+x,-1/2-y,-1/2+z
_cell_length_a 12.0497(11)
_cell_length_b 10.0517(9)
_cell_length_c 16.4916(16)
_cell_angle_alpha 90
_cell_angle_beta 90.937(8)
_cell_angle_gamma 90
_cell_formula_units_Z 4
loop_
_atom_type_symbol
_atom_type_radius_bond
C 0.68
H 0.23
N 0.68
O 0.68
loop_
_atom_site_label
_atom_site_type_symbol
_atom_site_fract_x
_atom_site_fract_y
_atom_site_fract_z
N1 N 0.06060(15) 0.74841(18) 0.01602(11)
C1 C 0.2399(2) 0.5958(2) 0.52912(14)
H1 H 0.28260 0.53890 0.56540
H2 H 0.28920 0.66340 0.50800
C2 C 0.06504(18) 0.7248(2) 0.09438(13)
N2 N 0.10654(18) 0.6438(2) -0.10888(11)
C3 C 0.11541(17) 0.6035(2) 0.12947(12)
O1 O 0.14709(14) 0.51752(19) -0.12454(9)
N3 N 0.16641(18) 0.44386(19) -0.05481(13)
N4 N 0.14755(14) 0.50258(17) 0.08455(10)
C4 C 0.1508(2) 0.6581(3) 0.57268(18)
H3 H 0.18120 0.71180 0.61570
H4 H 0.10380 0.59070 0.59500
H5 H 0.10810 0.71310 0.53620
C5 C 0.13772(19) 0.5268(2) 0.00288(14)
N5 N 0.19172(17) 0.5150(2) 0.46055(10)
C6 C 0.10136(19) 0.6471(3) -0.02916(14)
C7 C 0.17827(19) 0.5555(3) 0.38118(13)
C8 C 0.1947(2) 0.6796(3) 0.34701(15)
H6 H 0.2247(16) 0.7493(18) 0.3754(11)
C9 C 0.17072(19) 0.6936(3) 0.26603(14)
H7 H 0.1857(15) 0.7783(16) 0.2453(11)
C10 C 0.13495(17) 0.5875(2) 0.21758(12)
C11 C 0.12111(17) 0.4640(2) 0.25237(12)
H8 H 0.1006(12) 0.3894(14) 0.2191(9)
C12 C 0.14154(17) 0.4457(2) 0.33402(12)
C13 C 0.13142(18) 0.3348(2) 0.38821(13)
C14 C 0.1007(2) 0.2029(3) 0.37771(16)
H9 H 0.0839(15) 0.1657(17) 0.3224(11)
C15 C 0.0949(2) 0.1209(3) 0.4450(2)
H10 H 0.0780(18) 0.023(2) 0.4354(13)
C16 C 0.1190(3) 0.1713(4) 0.5216(2)
H11 H 0.1163(18) 0.110(2) 0.5673(15)
C17 C 0.1534(3) 0.2994(4) 0.53342(18)
H12 H 0.1711(19) 0.335(2) 0.5821(14)
C18 C 0.1606(2) 0.3825(3) 0.46566(13)
C19 C 0.00899(19) 0.8244(3) 0.14509(12)
C20 C -0.0665(2) 0.7864(2) 0.20363(13)
H13 H -0.07820 0.69650 0.21350
C21 C -0.1236(2) 0.8788(3) 0.24669(15)
H14 H -0.17430 0.85180 0.28530
C22 C -0.1062(3) 1.0108(4) 0.23311(19)
H15 H -0.14510 1.07380 0.26260
C23 C -0.0313(3) 1.0517(3) 0.1759(2)
H16 H -0.01900 1.14200 0.16750
C24 C 0.0256(2) 0.9581(3) 0.13082(15)
H17 H 0.07470 0.98540 0.09120
#END
