
#######################################################################
#
#                 Cambridge Crystallographic Data Centre
#                                CCDC
#
#######################################################################
#
# If this CIF has been generated from an entry in the Cambridge
# Structural Database, then it will include bibliographic, chemical,
# crystal, experimental, refinement or atomic coordinate data resulting
# from the CCDC's data processing and validation procedures.
#
#######################################################################

data_CSD_CIF_DAVCAH
_audit_creation_date 2017-05-19
_audit_creation_method CSD-ConQuest-V1
_database_code_CSD DAVCAH
_database_code_depnum_ccdc_archive 'CCDC 1498293'
_chemical_formula_sum 'C14 H9 N5 O1'
_chemical_formula_moiety
;
C14 H9 N5 O1
;
_journal_coden_Cambridge 1037
_journal_volume 17
_journal_year 2016
_journal_page_first 279-5
_journal_name_full 'ARKIVOC '
loop_
_publ_author_name
"Y.A.Kvashnin"
"N.A.Kazin"
"E.V.Verbitskiy"
"T.S.Svalova"
"A.V.Ivanova"
"A.N.Kozitsina"
"P.A.Slepukhin"
"G.L.Rusinov"
"O.N.Chupakhin"
"V.N.Charushin"
_chemical_name_systematic
;
5-phenyl-6-(1H-pyrrol-2-yl)[1,2,5]oxadiazolo[3,4-b]pyrazine
;
_cell_volume   1192.104
_exptl_crystal_colour 'red'
_exptl_crystal_density_diffrn 1.467
_exptl_crystal_description 'prism'
_diffrn_ambient_temperature 133
#These two values have been output from a single CSD field.
_refine_ls_R_factor_gt 0.0316
_refine_ls_wR_factor_gt 0.0316
_symmetry_cell_setting monoclinic
_symmetry_space_group_name_H-M 'P 21/c'
_symmetry_Int_Tables_number 14
loop_
_symmetry_equiv_pos_site_id
_symmetry_equiv_pos_as_xyz
1 x,y,z
2 -x,1/2+y,1/2-z
3 -x,-y,-z
4 x,-1/2-y,-1/2+z
_cell_length_a 11.6264(3)
_cell_length_b 7.7250(2)
_cell_length_c 14.1019(4)
_cell_angle_alpha 90
_cell_angle_beta 109.742(3)
_cell_angle_gamma 90
_cell_formula_units_Z 4
loop_
_atom_type_symbol
_atom_type_radius_bond
C 0.68
H 0.23
N 0.68
O 0.68
loop_
_atom_site_label
_atom_site_type_symbol
_atom_site_fract_x
_atom_site_fract_y
_atom_site_fract_z
O1 O 0.21933(6) 0.41696(9) 0.01618(6)
N1 N -0.06169(7) 0.26816(10) -0.13902(6)
C1 C 0.04606(8) 0.31194(11) -0.06603(7)
N2 N -0.01245(7) 0.20826(11) 0.07477(6)
C2 C 0.06831(9) 0.28763(12) 0.03826(7)
N3 N 0.13830(7) 0.39169(11) -0.08016(7)
C3 C -0.11687(8) 0.16356(11) 0.00506(7)
C4 C -0.14279(8) 0.20037(11) -0.10447(7)
N4 N 0.17601(8) 0.35158(12) 0.09026(7)
N5 N -0.17743(8) 0.06118(11) 0.14394(6)
H1 H -0.1148(13) 0.1158(17) 0.1915(11)
C5 C -0.26566(9) -0.03052(14) 0.16298(8)
H2 H -0.2626(11) -0.0506(17) 0.2304(11)
C6 C -0.34966(9) -0.08210(13) 0.07268(8)
H3 H -0.4253(11) -0.1542(16) 0.0636(9)
C7 C -0.31111(9) -0.01720(12) -0.00435(7)
H4 H -0.3515(11) -0.0390(14) -0.0739(10)
C8 C -0.20245(8) 0.07445(11) 0.04116(7)
C9 C -0.26275(8) 0.16812(12) -0.18307(7)
C10 C -0.26545(9) 0.07550(13) -0.26862(7)
H5 H -0.1909(11) 0.0166(15) -0.2695(9)
C11 C -0.37312(9) 0.06215(13) -0.34960(8)
H6 H -0.3717(12) -0.0032(16) -0.4083(10)
C12 C -0.47867(9) 0.14204(13) -0.34608(8)
H7 H -0.5536(10) 0.1330(14) -0.4055(9)
C13 C -0.47673(9) 0.23364(13) -0.26104(8)
H8 H -0.5507(11) 0.2885(15) -0.2613(10)
C14 C -0.36935(9) 0.24723(12) -0.17922(7)
H9 H -0.367(1) 0.3126(14) -0.1200(9)
#END
