
#######################################################################
#
#                 Cambridge Crystallographic Data Centre
#                                CCDC
#
#######################################################################
#
# If this CIF has been generated from an entry in the Cambridge
# Structural Database, then it will include bibliographic, chemical,
# crystal, experimental, refinement or atomic coordinate data resulting
# from the CCDC's data processing and validation procedures.
#
#######################################################################

data_CSD_CIF_DAVFIS
_audit_creation_date 2017-05-19
_audit_creation_method CSD-ConQuest-V1
_database_code_CSD DAVFIS
_database_code_depnum_ccdc_archive 'CCDC 1515644'
_chemical_formula_sum 'C30 H22 N4 O5'
_chemical_formula_moiety
;
C30 H22 N4 O5
;
_journal_coden_Cambridge 1291
_journal_year 2017
_journal_page_first 2587
_journal_name_full 'Eur.J.Org.Chem. '
loop_
_publ_author_name
"A.Stukalov"
"V.V.Sokolov"
"V.V.Suslonov"
"M.A.Kuznetsov"
_chemical_name_systematic
;
2-(2-(4-methoxyphenyl)-3-(((4-nitrophenyl)imino)(phenyl)methyl)aziridin-1-yl)-
1H-isoindole-1,3(2H)-dione
;
_cell_volume   2518.250
_exptl_crystal_colour 'light yellow'
_exptl_crystal_density_diffrn 1.368
_exptl_crystal_description 'prism'
_diffrn_ambient_temperature 100
#These two values have been output from a single CSD field.
_refine_ls_R_factor_gt 0.0376
_refine_ls_wR_factor_gt 0.0376
_symmetry_cell_setting monoclinic
_symmetry_space_group_name_H-M 'P 21/c'
_symmetry_Int_Tables_number 14
loop_
_symmetry_equiv_pos_site_id
_symmetry_equiv_pos_as_xyz
1 x,y,z
2 -x,1/2+y,1/2-z
3 -x,-y,-z
4 x,-1/2-y,-1/2+z
_cell_length_a 11.4272(2)
_cell_length_b 13.2171(3)
_cell_length_c 16.8337(4)
_cell_angle_alpha 90
_cell_angle_beta 97.9146(19)
_cell_angle_gamma 90
_cell_formula_units_Z 4
loop_
_atom_type_symbol
_atom_type_radius_bond
C 0.68
H 0.23
N 0.68
O 0.68
loop_
_atom_site_label
_atom_site_type_symbol
_atom_site_fract_x
_atom_site_fract_y
_atom_site_fract_z
O1 O 0.00006(7) 0.56075(6) 0.11827(5)
O2 O 0.19522(8) 0.27827(7) 0.22470(5)
N1 N 0.29559(9) 0.57070(7) 0.15268(6)
N2 N 0.14220(8) 0.39352(7) 0.07995(6)
N3 N 0.11680(9) 0.42097(7) 0.15692(6)
C1 C 0.03767(10) 0.49925(9) 0.16841(7)
O3 O 0.40103(10) 0.03267(7) -0.09001(6)
C2 C 0.30098(10) 0.28671(9) 0.02995(7)
C3 C 0.01355(10) 0.48674(9) 0.25268(7)
C4 C 0.13754(10) 0.35541(9) 0.22253(7)
C5 C 0.23522(10) 0.65912(9) 0.02458(7)
C6 C 0.30202(11) 0.18963(9) 0.06340(8)
H1 H 0.28060 0.18100 0.11430
C7 C 0.44438(11) 0.77150(9) 0.28244(8)
H2 H 0.51910 0.78750 0.30870
C8 C 0.36748(11) 0.11908(9) -0.05437(8)
C9 C 0.31411(10) 0.66254(9) 0.19506(7)
C10 C -0.05777(11) 0.54310(9) 0.29564(8)
H3 H -0.09640 0.60090 0.27420
O4 O 0.46433(10) 0.94538(9) 0.37114(9)
C11 C 0.36484(11) 0.21430(9) -0.08908(7)
H4 H 0.38490 0.22250 -0.14040
C12 C 0.2167(1) 0.46933(8) 0.04066(7)
H5 H 0.20360 0.46950 -0.01810
C13 C 0.32998(11) 0.72420(9) 0.01923(7)
H6 H 0.40320 0.71100 0.04890
C14 C 0.42696(10) 0.68634(9) 0.23411(7)
H7 H 0.49060 0.64480 0.22760
C15 C 0.2516(1) 0.56896(9) 0.07846(7)
C16 C 0.23509(11) 0.81035(9) 0.25268(7)
H8 H 0.17180 0.85230 0.25920
C17 C 0.33179(10) 0.29789(9) -0.04651(7)
H9 H 0.33040 0.36180 -0.06970
C18 C 0.27049(10) 0.37539(8) 0.07769(7)
H10 H 0.32130 0.38500 0.12900
N4 N 0.36434(10) 0.92325(8) 0.34061(7)
O5 O 0.27702(9) 0.97363(8) 0.34974(6)
C19 C 0.34780(11) 0.83231(9) 0.29067(7)
C20 C 0.31532(12) 0.80878(10) -0.03033(8)
H11 H 0.37880 0.85180 -0.03400
C21 C 0.33454(12) 0.10652(9) 0.02163(8)
H12 H 0.33440 0.04230 0.04430
C22 C 0.21845(11) 0.72506(9) 0.20491(7)
H13 H 0.14340 0.70920 0.17920
C23 C -0.01163(12) 0.42229(10) 0.40463(8)
H14 H -0.02180 0.40130 0.45600
C24 C 0.11163(11) 0.76339(10) -0.06985(7)
H15 H 0.03850 0.77670 -0.09960
C25 C 0.12621(10) 0.67818(9) -0.02114(7)
H16 H 0.06340 0.63400 -0.01900
C26 C 0.06099(11) 0.36602(10) 0.36095(7)
H17 H 0.10000 0.30820 0.38210
C27 C -0.06913(11) 0.5092(1) 0.37285(8)
H18 H -0.11610 0.54550 0.40370
C28 C 0.07221(10) 0.40032(9) 0.28461(7)
C29 C 0.20568(12) 0.82896(9) -0.07447(8)
H19 H 0.19530 0.88610 -0.10690
C30 C 0.45422(15) 0.04509(11) -0.16106(9)
H20 H 0.39600 0.06850 -0.20370
H21 H 0.48550 -0.01860 -0.17580
H22 H 0.51700 0.09370 -0.15160
#END
