
#######################################################################
#
#                 Cambridge Crystallographic Data Centre
#                                CCDC
#
#######################################################################
#
# If this CIF has been generated from an entry in the Cambridge
# Structural Database, then it will include bibliographic, chemical,
# crystal, experimental, refinement or atomic coordinate data resulting
# from the CCDC's data processing and validation procedures.
#
#######################################################################

data_CSD_CIF_DAVGUE
_audit_creation_date 2012-06-19
_audit_creation_method CSD-ConQuest-V1
_database_code_CSD DAVGUE
_database_code_depnum_ccdc_archive 'CCDC 828009'
_chemical_formula_sum 'C20 H17 N1 O1'
_chemical_formula_moiety
;
C20 H17 N1 O1
;
_journal_coden_Cambridge 1003
_journal_volume 42
_journal_year 2012
_journal_page_first 356
_journal_name_full 'J.Chem.Cryst. '
loop_
_publ_author_name
"V.E.Gonzalez"
"L.A.Vizcaya"
"A.J.Mora"
"G.E.Delgado"
"A.Bahsas"
"A.F.Yepez"
"A.Palma"
_chemical_name_systematic
;
15-Phenyl-16-oxa-1-azatetracyclo[11.2.1.0^2,11^.0^3,8^]hexadeca-2,4,6,8,10-pen
taene
;
_chemical_name_common
;
2-phenyl-2,3,4,5-tetrahydro-1,4-epoxinafto[1,2-b]azepine
;
_cell_volume   2883.033
_exptl_crystal_colour 'white'
_exptl_crystal_density_diffrn 1.324
_exptl_crystal_description 'sheets'
_diffrn_ambient_temperature 120
#These two values have been output from a single CSD field.
_refine_ls_R_factor_gt 0.0363
_refine_ls_wR_factor_gt 0.0363
_symmetry_cell_setting orthorhombic
_symmetry_space_group_name_H-M 'P 21 21 21'
_symmetry_Int_Tables_number 19
loop_
_symmetry_equiv_pos_site_id
_symmetry_equiv_pos_as_xyz
1 x,y,z
2 1/2-x,-y,1/2+z
3 -x,1/2+y,1/2-z
4 1/2+x,1/2-y,-z
_cell_length_a 7.6903(7)
_cell_length_b 18.979(2)
_cell_length_c 19.753(2)
_cell_angle_alpha 90
_cell_angle_beta 90
_cell_angle_gamma 90
_cell_formula_units_Z 8
loop_
_atom_type_symbol
_atom_type_radius_bond
C 0.68
H 0.23
N 0.68
O 0.68
loop_
_atom_site_label
_atom_site_type_symbol
_atom_site_fract_x
_atom_site_fract_y
_atom_site_fract_z
O1 O 0.44728(10) 0.06076(4) 0.93419(3)
N1 N 0.37446(11) 0.02342(4) 0.99147(4)
C1 C 0.40402(12) 0.07417(5) 1.04739(4)
H1 H 0.40970 0.04820 1.09140
C2 C 0.47512(12) -0.04025(5) 1.00237(5)
C3 C 0.38948(13) -0.09696(5) 1.03602(5)
C4 C 0.13196(12) 0.13372(5) 1.00105(5)
H2 H 0.13110 0.10130 0.96440
C5 C 0.25884(13) 0.17671(5) 1.10452(5)
H3 H 0.34630 0.17410 1.13840
C6 C 0.48372(14) -0.16096(5) 1.04621(5)
C7 C 0.64577(13) -0.04529(5) 0.98145(5)
C8 C 0.73549(13) 0.01822(6) 0.95112(5)
H4 H 0.76130 0.00930 0.90280
H5 H 0.84680 0.02680 0.97490
C9 C 0.61849(13) 0.08251(5) 0.95773(5)
H6 H 0.66380 0.12240 0.92980
C10 C 0.00425(13) 0.18594(6) 1.00493(5)
H7 H -0.08180 0.18940 0.97060
C11 C 0.40120(16) -0.21761(6) 1.08068(5)
H8 H 0.46210 -0.26070 1.08700
C12 C 0.65775(14) -0.16603(6) 1.02250(5)
H9 H 0.72060 -0.20870 1.02860
C13 C 0.26073(12) 0.12888(5) 1.05061(4)
C14 C 0.58574(12) 0.10641(5) 1.03119(5)
H10 H 0.58340 0.15840 1.03460
H11 H 0.67600 0.08770 1.06210
C15 C 0.00315(14) 0.23290(6) 1.05919(6)
H12 H -0.08420 0.26820 1.06210
C16 C 0.14114(15) -0.14775(6) 1.09418(6)
H13 H 0.02560 -0.14370 1.11070
C17 C 0.21575(14) -0.09220(6) 1.06010(5)
H14 H 0.15070 -0.05040 1.05260
C18 C 0.23545(16) -0.21095(6) 1.10478(6)
H15 H 0.18320 -0.24880 1.12870
C19 C 0.73590(14) -0.11006(6) 0.99088(5)
H16 H 0.85200 -0.11460 0.97500
C20 C 0.12990(14) 0.22805(6) 1.10901(5)
H17 H 0.12870 0.25980 1.14620
C21 C 0.27785(12) 0.56214(5) 0.78389(4)
O2 O 0.09097(10) 0.63255(4) 0.66914(3)
N2 N 0.15144(10) 0.66843(4) 0.72940(4)
C22 C -0.00181(12) 0.84508(5) 0.79227(5)
C23 C 0.39559(13) 0.55563(5) 0.73076(5)
H18 H 0.38510 0.58530 0.69230
C24 C 0.10637(12) 0.78520(5) 0.78103(4)
C25 C 0.03885(12) 0.72848(5) 0.74150(4)
C26 C 0.21592(15) 0.89482(6) 0.86753(5)
H19 H 0.25200 0.93080 0.89790
C27 C 0.05728(14) 0.89957(5) 0.83576(5)
H20 H -0.01370 0.93980 0.84300
C28 C 0.54782(13) 0.46235(6) 0.78959(6)
H21 H 0.63840 0.42830 0.79120
C29 C -0.07798(13) 0.60457(5) 0.68890(5)
H22 H -0.11320 0.56500 0.65840
C30 C -0.23002(13) 0.79219(6) 0.72501(5)
H23 H -0.34210 0.79480 0.70500
C31 C 0.12656(12) 0.61327(5) 0.78197(4)
H24 H 0.11360 0.63620 0.82730
C32 C -0.04895(12) 0.57786(5) 0.76159(5)
H25 H -0.03970 0.52580 0.76280
H26 H -0.14450 0.59300 0.79190
C33 C -0.12905(13) 0.73016(5) 0.71660(5)
C34 C 0.29813(13) 0.51857(6) 0.84057(5)
H27 H 0.21970 0.52270 0.87750
C35 C 0.27329(13) 0.78307(5) 0.81208(5)
H28 H 0.34930 0.74470 0.80320
C36 C 0.52899(13) 0.50589(6) 0.73355(5)
H29 H 0.60780 0.50180 0.69670
C37 C 0.32545(14) 0.83633(6) 0.85495(6)
H30 H 0.43600 0.83380 0.87630
C38 C -0.20552(14) 0.66556(6) 0.68333(5)
H31 H -0.23000 0.67550 0.63510
H32 H -0.31640 0.65290 0.70570
C39 C 0.43233(14) 0.46920(6) 0.84337(5)
H33 H 0.44490 0.44010 0.88220
C40 C -0.16880(13) 0.84834(6) 0.76152(5)
H34 H -0.23800 0.88950 0.76630
#END
