
#######################################################################
#
#                 Cambridge Crystallographic Data Centre
#                                CCDC
#
#######################################################################
#
# If this CIF has been generated from an entry in the Cambridge
# Structural Database, then it will include bibliographic, chemical,
# crystal, experimental, refinement or atomic coordinate data resulting
# from the CCDC's data processing and validation procedures.
#
#######################################################################

data_CSD_CIF_DAVHAJ
_audit_creation_date 1986-05-19
_audit_creation_method CSD-ConQuest-V1
_database_code_CSD DAVHAJ
_database_code_depnum_ccdc_archive 'CCDC 1136717'
_chemical_formula_sum 'C18 H19 N1 O4'
_chemical_formula_moiety
;
C18 H19 N1 O4
;
_journal_coden_Cambridge 48
_journal_volume 118
_journal_year 1985
_journal_page_first 1204
_journal_name_full 'Chem.Ber. '
loop_
_publ_author_name
"H.A.Staab"
"L.Schanne"
"C.Krieger"
"V.Taglieber"
_chemical_name_systematic
;
anti-5,8-Dimethoxy-13-nitro(2.2)metacyclophane
;
_chemical_melting_point 417.15
_cell_volume   3185.052
_exptl_crystal_density_diffrn 1.307
_diffrn_ambient_temperature ?
_diffrn_special_details
;
The study was carried out at room temperature,in the range 283-303K

;
#These two values have been output from a single CSD field.
_refine_ls_R_factor_gt 0.044
_refine_ls_wR_factor_gt 0.044
_symmetry_cell_setting monoclinic
_symmetry_space_group_name_H-M 'C 2/c'
_symmetry_Int_Tables_number 15
loop_
_symmetry_equiv_pos_site_id
_symmetry_equiv_pos_as_xyz
1 x,y,z
2 1/2+x,1/2+y,z
3 -x,y,1/2-z
4 1/2-x,1/2+y,1/2-z
5 -x,-y,-z
6 -1/2-x,-1/2-y,-z
7 x,-y,-1/2+z
8 -1/2+x,-1/2-y,-1/2+z
_cell_length_a 23.886(1)
_cell_length_b 7.981(1)
_cell_length_c 18.531(1)
_cell_angle_alpha 90
_cell_angle_beta 115.63(1)
_cell_angle_gamma 90
_cell_formula_units_Z 8
loop_
_atom_type_symbol
_atom_type_radius_bond
C 0.68
H 0.23
N 0.68
O 0.68
loop_
_atom_site_label
_atom_site_type_symbol
_atom_site_fract_x
_atom_site_fract_y
_atom_site_fract_z
C1 C 0.10016(7) -0.4563(2) -0.01407(8)
C2 C 0.05474(6) -0.3239(2) -0.00789(8)
C3 C 0.08651(5) -0.1555(2) 0.01370(7)
C4 C 0.12559(6) -0.1189(2) 0.09224(8)
C5 C 0.16859(6) 0.0105(2) 0.11195(7)
C6 C 0.17534(6) 0.0975(2) 0.05148(8)
C7 C 0.13637(6) 0.0642(2) -0.02854(7)
C8 C 0.08887(5) -0.0523(2) -0.04630(7)
C9 C 0.15544(6) 0.1176(2) -0.09298(8)
C10 C 0.20198(6) -0.0128(2) -0.09918(8)
C11 C 0.17413(5) -0.1860(2) -0.11697(7)
C12 C 0.14770(6) -0.2498(2) -0.19383(8)
C13 C 0.11202(6) -0.3934(2) -0.20901(8)
C14 C 0.09690(6) -0.4675(2) -0.15251(8)
C15 C 0.12323(6) -0.4057(2) -0.07505(8)
C16 C 0.16614(5) -0.2751(2) -0.05686(7)
C17 C 0.25124(7) 0.1590(3) 0.2153(1)
C18 C -0.00883(8) -0.0057(3) -0.1530(1)
O1 O 0.20388(5) 0.0356(1) 0.19230(5)
O2 O 0.04973(4) -0.0856(1) -0.12598(5)
O3 O 0.10206(6) -0.4013(2) -0.33906(6)
O4 O 0.05503(6) -0.5904(2) -0.30415(7)
N1 N 0.08799(6) -0.4662(2) -0.28969(7)
H1 H 0.1258(5) -0.187(2) 0.1331(7)
H2 H 0.2089(6) 0.173(2) 0.0636(8)
H3 H 0.1523(6) -0.191(2) -0.2379(8)
H4 H 0.0670(6) -0.553(2) -0.1671(8)
H5 H 0.1886(5) -0.239(1) -0.0020(6)
H6 H 0.1370(6) -0.469(2) 0.0402(8)
H7 H 0.0790(6) -0.561(2) -0.0273(8)
H8 H 0.0434(6) -0.363(2) 0.0348(8)
H9 H 0.0174(6) -0.316(2) -0.0561(7)
H10 H 0.1765(6) 0.225(2) -0.0807(7)
H11 H 0.1181(6) 0.125(2) -0.1475(7)
H12 H 0.2394(5) -0.012(2) -0.0484(7)
H13 H 0.2125(6) 0.024(2) -0.1442(7)
H14 H 0.2699(7) 0.154(2) 0.273(1)
H15 H 0.2313(7) 0.273(2) 0.1949(9)
H16 H 0.2807(7) 0.135(2) 0.1923(9)
H17 H -0.032(1) -0.038(3) -0.118(1)
H18 H -0.0328(8) -0.043(2) -0.207(1)
H19 H -0.0026(8) 0.110(2) -0.150(1)
#END
