
#######################################################################
#
#                 Cambridge Crystallographic Data Centre
#                                CCDC
#
#######################################################################
#
# If this CIF has been generated from an entry in the Cambridge
# Structural Database, then it will include bibliographic, chemical,
# crystal, experimental, refinement or atomic coordinate data resulting
# from the CCDC's data processing and validation procedures.
#
#######################################################################

data_CSD_CIF_DAVJER
_audit_creation_date 2012-06-18
_audit_creation_method CSD-ConQuest-V1
_database_code_CSD DAVJER
_database_code_depnum_ccdc_archive 'CCDC 853521'
_chemical_formula_sum 'C16 H13 N3 O3'
_chemical_formula_moiety
;
C16 H13 N3 O3
;
_journal_coden_Cambridge 1003
_journal_volume 42
_journal_year 2012
_journal_page_first 394
_journal_name_full 'J.Chem.Cryst. '
loop_
_publ_author_name
"R.A.Howie"
"M.V.N.de Souza"
"C.H.da S.Lima"
"J.L.Wardell"
"S.M.S.V.Wardell"
_chemical_name_systematic
;
1-(3-Hydroxy-1H-1\l^5^,2,3-benzotriazol-1-yl)-3-(3-methoxyphenyl)prop-2-en-1-o
ne
;
_chemical_name_common
;
3-(3-Methoxycinnamoyl)benzotriazole 1-oxide
;
_cell_volume    668.443
_exptl_crystal_colour 'colorless'
_exptl_crystal_density_diffrn 1.467
_exptl_crystal_description 'rhomb'
_diffrn_ambient_temperature 120
#These two values have been output from a single CSD field.
_refine_ls_R_factor_gt 0.0486
_refine_ls_wR_factor_gt 0.0486
_symmetry_cell_setting triclinic
_symmetry_space_group_name_H-M 'P -1'
_symmetry_Int_Tables_number 2
loop_
_symmetry_equiv_pos_site_id
_symmetry_equiv_pos_as_xyz
1 x,y,z
2 -x,-y,-z
_cell_length_a 5.7297(3)
_cell_length_b 10.8440(6)
_cell_length_c 11.4965(6)
_cell_angle_alpha 89.689(3)
_cell_angle_beta 76.019(3)
_cell_angle_gamma 75.047(3)
_cell_formula_units_Z 2
loop_
_atom_type_symbol
_atom_type_radius_bond
C 0.68
H 0.23
N 0.68
O 0.68
loop_
_atom_site_label
_atom_site_type_symbol
_atom_site_fract_x
_atom_site_fract_y
_atom_site_fract_z
O1 O 0.00435(19) 0.86128(10) 0.86137(10)
O2 O 0.7900(2) 0.41182(11) 0.7776(1)
O3 O 0.6468(2) -0.0134(1) 0.30177(10)
N1 N 0.4669(2) 0.58946(12) 0.82007(11)
N2 N 0.2555(2) 0.66495(12) 0.79278(11)
N3 N 0.1923(2) 0.76944(12) 0.86307(11)
C1 C 0.3542(3) 0.76539(14) 0.93795(13)
C2 C 0.3510(3) 0.85515(15) 1.02437(14)
H1 H 0.22770 0.93470 1.04180
C3 C 0.5391(3) 0.82104(15) 1.08319(14)
H2 H 0.54600 0.87830 1.14380
C4 C 0.7212(3) 0.70305(15) 1.05531(14)
H3 H 0.84790 0.68330 1.09790
C5 C 0.7233(3) 0.61433(15) 0.96823(14)
H4 H 0.84710 0.53500 0.94980
C6 C 0.5317(3) 0.64936(14) 0.90947(13)
C7 C 0.5950(3) 0.47110(14) 0.75612(14)
C8 C 0.4756(3) 0.43118(15) 0.66887(14)
H5 H 0.32250 0.48450 0.65900
C9 C 0.5790(3) 0.32119(14) 0.60331(14)
H6 H 0.73110 0.27040 0.61670
C10 C 0.4812(3) 0.27057(14) 0.51234(14)
C11 C 0.6167(3) 0.15257(14) 0.45183(13)
H7 H 0.76770 0.10720 0.47020
C12 C 0.5300(3) 0.10143(14) 0.36448(13)
C13 C 0.3110(3) 0.16890(15) 0.33651(14)
H8 H 0.25320 0.13500 0.27610
C14 C 0.1772(3) 0.28529(15) 0.39655(15)
H9 H 0.02710 0.33080 0.37740
C15 C 0.2602(3) 0.33659(15) 0.48474(14)
H10 H 0.16630 0.41630 0.52590
C16 C 0.8796(3) -0.08325(15) 0.32256(15)
H11 H 1.00030 -0.03200 0.30200
H12 H 0.94220 -0.16340 0.27250
H13 H 0.85600 -0.10220 0.40740
#END
