
#######################################################################
#
#                 Cambridge Crystallographic Data Centre
#                                CCDC
#
#######################################################################
#
# If this CIF has been generated from an entry in the Cambridge
# Structural Database, then it will include bibliographic, chemical,
# crystal, experimental, refinement or atomic coordinate data resulting
# from the CCDC's data processing and validation procedures.
#
#######################################################################

data_CSD_CIF_DAVJAN
_audit_creation_date 2012-06-19
_audit_creation_method CSD-ConQuest-V1
_database_code_CSD DAVJAN
_database_code_depnum_ccdc_archive 'CCDC 853520'
_chemical_formula_sum 'C15 H10 N4 O4'
_chemical_formula_moiety
;
C15 H10 N4 O4
;
_journal_coden_Cambridge 1003
_journal_volume 42
_journal_year 2012
_journal_page_first 394
_journal_name_full 'J.Chem.Cryst. '
loop_
_publ_author_name
"R.A.Howie"
"M.V.N.de Souza"
"C.H.da S.Lima"
"J.L.Wardell"
"S.M.S.V.Wardell"
_chemical_name_systematic
;
1-(3-Hydroxy-1H-1\l^5^,2,3-benzotriazol-1-yl)-3-(2-nitrophenyl)prop-2-en-1-one
;
_chemical_name_common
;
3-(2-Nitrocinnamoyl)benzotriazole 1-oxide
;
_cell_volume   1322.375
_exptl_crystal_colour 'colorless'
_exptl_crystal_density_diffrn 1.558
_exptl_crystal_description 'needle'
_diffrn_ambient_temperature 120
#These two values have been output from a single CSD field.
_refine_ls_R_factor_gt 0.0615
_refine_ls_wR_factor_gt 0.0615
_symmetry_cell_setting orthorhombic
_symmetry_space_group_name_H-M 'P n a 21'
_symmetry_Int_Tables_number 33
loop_
_symmetry_equiv_pos_site_id
_symmetry_equiv_pos_as_xyz
1 x,y,z
2 -x,-y,1/2+z
3 1/2+x,1/2-y,z
4 1/2-x,1/2+y,1/2+z
_cell_length_a 25.061(2)
_cell_length_b 3.6997(2)
_cell_length_c 14.2623(12)
_cell_angle_alpha 90
_cell_angle_beta 90
_cell_angle_gamma 90
_cell_formula_units_Z 4
loop_
_atom_type_symbol
_atom_type_radius_bond
C 0.68
H 0.23
N 0.68
O 0.68
loop_
_atom_site_label
_atom_site_type_symbol
_atom_site_fract_x
_atom_site_fract_y
_atom_site_fract_z
O1 O 0.68828(15) 0.5297(12) 0.2641(3)
O2 O 0.66740(13) 0.6848(10) 0.6536(3)
O3 O 0.55948(14) 0.0845(12) 0.8397(3)
O4 O 0.48981(17) 0.3699(11) 0.8908(3)
N1 N 0.67590(15) 0.6322(12) 0.4973(3)
N2 N 0.65552(16) 0.5161(13) 0.4122(3)
N3 N 0.69277(16) 0.5979(13) 0.3501(3)
N4 N 0.51394(17) 0.2050(13) 0.8300(3)
C1 C 0.73720(19) 0.7639(15) 0.3920(4)
C2 C 0.78454(19) 0.8823(15) 0.3518(4)
H1 H 0.79120 0.86610 0.28640
C3 C 0.82132(19) 1.0252(15) 0.4137(4)
H2 H 0.85430 1.11340 0.39030
C4 C 0.81096(19) 1.0431(15) 0.5110(4)
H3 H 0.83760 1.13860 0.55130
C5 C 0.76333(19) 0.9263(15) 0.5493(4)
H4 H 0.75630 0.94310 0.61460
C6 C 0.72605(18) 0.7822(14) 0.4868(4)
C7 C 0.64698(18) 0.5777(13) 0.5814(4)
C8 C 0.59494(18) 0.4039(14) 0.5729(4)
H5 H 0.58200 0.32260 0.51390
C9 C 0.56595(18) 0.3628(13) 0.6513(4)
H6 H 0.58100 0.44620 0.70840
C10 C 0.51278(17) 0.1989(13) 0.6554(4)
C11 C 0.48627(19) 0.1341(14) 0.7411(4)
C12 C 0.43452(19) 0.0066(14) 0.7477(4)
H7 H 0.41770 -0.02060 0.80700
C13 C 0.40784(19) -0.0808(14) 0.6655(4)
H8 H 0.37260 -0.17420 0.66820
C14 C 0.43241(19) -0.0324(14) 0.5798(4)
H9 H 0.41440 -0.09840 0.52370
C15 C 0.48366(18) 0.1135(14) 0.5754(4)
H10 H 0.49920 0.15610 0.51570
#END
