
#######################################################################
#
#                 Cambridge Crystallographic Data Centre
#                                CCDC
#
#######################################################################
#
# If this CIF has been generated from an entry in the Cambridge
# Structural Database, then it will include bibliographic, chemical,
# crystal, experimental, refinement or atomic coordinate data resulting
# from the CCDC's data processing and validation procedures.
#
#######################################################################

data_CSD_CIF_DAVKET
_audit_creation_date 2017-05-19
_audit_creation_method CSD-ConQuest-V1
_database_code_CSD DAVKET
_database_code_depnum_ccdc_archive 'CCDC 1498127'
_chemical_formula_sum 'C17 H17 N3 O2'
_chemical_formula_moiety
;
C17 H17 N3 O2
;
_journal_coden_Cambridge 1695
_journal_volume 5
_journal_year 2017
_journal_page_first 5183
_journal_name_full 'J.Mater.Chem.C '
loop_
_publ_author_name
"Yunxiang Lei"
"Yibin Zhou"
"Lebin Qian"
"Yuxiang Wang"
"Miaochang Liu"
"Xiaobo Huang"
"Ge Wu"
"Huayue Wu"
"Jinchang Ding"
"Yixiang Cheng"
_chemical_name_systematic
;
(1-ethyl-2,6-dimethylpyridin-4(1H)-ylidene)(4-nitrophenyl)acetonitrile
;
_cell_volume   1531.382
_exptl_crystal_colour 'yellow'
_exptl_crystal_density_diffrn 1.281
_exptl_crystal_description 'Block'
_diffrn_ambient_temperature 298
#These two values have been output from a single CSD field.
_refine_ls_R_factor_gt 0.0488
_refine_ls_wR_factor_gt 0.0488
_symmetry_cell_setting monoclinic
_symmetry_space_group_name_H-M 'P 21/c'
_symmetry_Int_Tables_number 14
loop_
_symmetry_equiv_pos_site_id
_symmetry_equiv_pos_as_xyz
1 x,y,z
2 -x,1/2+y,1/2-z
3 -x,-y,-z
4 x,-1/2-y,-1/2+z
_cell_length_a 17.031(3)
_cell_length_b 11.1503(19)
_cell_length_c 8.1223(13)
_cell_angle_alpha 90
_cell_angle_beta 96.862(3)
_cell_angle_gamma 90
_cell_formula_units_Z 4
loop_
_atom_type_symbol
_atom_type_radius_bond
C 0.68
H 0.23
N 0.68
O 0.68
loop_
_atom_site_label
_atom_site_type_symbol
_atom_site_fract_x
_atom_site_fract_y
_atom_site_fract_z
O1 O 0.57035(9) 0.70106(18) 0.4179(3)
O2 O 0.50081(11) 0.85573(17) 0.4681(3)
N1 N 0.5064(1) 0.74960(17) 0.4283(2)
N2 N 0.09421(9) 0.62185(15) 0.2002(2)
N3 N 0.17631(7) 0.12003(11) 0.15888(15)
C1 C 0.36850(9) 0.50785(14) 0.2653(2)
H1 H 0.37090 0.43380 0.21350
C2 C 0.43757(10) 0.56975(15) 0.3114(2)
H2 H 0.48600 0.53720 0.29300
C3 C 0.43405(10) 0.68132(16) 0.3858(2)
C4 C 0.36216(11) 0.73115(16) 0.4151(2)
H3 H 0.36040 0.80640 0.46390
C5 C 0.29406(10) 0.66771(15) 0.3711(2)
H4 H 0.24610 0.70070 0.39210
C6 C 0.29418(9) 0.55342(13) 0.29445(18)
C7 C 0.21991(9) 0.49212(13) 0.24102(18)
C8 C 0.20786(8) 0.36724(13) 0.21277(17)
C9 C 0.26313(9) 0.27613(13) 0.26751(19)
H5 H 0.31190 0.29840 0.32320
C10 C 0.24751(9) 0.15695(14) 0.24155(19)
C11 C 0.12006(8) 0.20432(14) 0.10429(18)
C12 C 0.13515(8) 0.32323(14) 0.13109(18)
H6 H 0.09590 0.37820 0.09410
C13 C 0.30799(11) 0.06418(16) 0.3034(3)
H7 H 0.28540 0.00950 0.37600
H8 H 0.35310 0.10300 0.36270
H9 H 0.32410 0.02080 0.21100
C14 C 0.04219(9) 0.16464(16) 0.0140(2)
H10 H 0.01070 0.23370 -0.01980
H11 H 0.01480 0.11600 0.08620
H12 H 0.05130 0.11890 -0.08200
C15 C 0.15744(10) -0.00979(14) 0.14152(19)
H13 H 0.20570 -0.05400 0.13140
H14 H 0.12170 -0.02240 0.04080
C16 C 0.11998(12) -0.05786(16) 0.2868(2)
H15 H 0.15620 -0.04920 0.38620
H16 H 0.10740 -0.14110 0.26900
H17 H 0.07240 -0.01390 0.29800
C17 C 0.15085(9) 0.56472(14) 0.21769(19)
#END
