
#######################################################################
#
#                 Cambridge Crystallographic Data Centre
#                                CCDC
#
#######################################################################
#
# If this CIF has been generated from an entry in the Cambridge
# Structural Database, then it will include bibliographic, chemical,
# crystal, experimental, refinement or atomic coordinate data resulting
# from the CCDC's data processing and validation procedures.
#
#######################################################################

data_CSD_CIF_DAVQOH
_audit_creation_date 2006-02-13
_audit_creation_method CSD-ConQuest-V1
_database_code_CSD DAVQOH
_database_code_depnum_ccdc_archive 'CCDC 253625'
_chemical_formula_sum 'C15 H4 N4 O5'
_chemical_formula_moiety
;
C15 H4 N4 O5
;
_journal_coden_Cambridge 1048
_journal_volume 7
_journal_year 2005
_journal_page_first 413
_journal_name_full 'Green Chemistry '
loop_
_publ_author_name
"M.Sevignon"
"M.Macaud"
"A.Favre-Reguillon"
"J.Schulz"
"M.Rocault"
"R.Faure"
"M.Vrinat"
"M.Lemaire"
_chemical_name_systematic
;
4,5-Dicyano-2,7-dinitrofluoren-9-one
;
_cell_volume   1303.640
_exptl_crystal_colour 'red'
_exptl_crystal_density_diffrn 1.632
_exptl_crystal_description 'prismatic'
_diffrn_ambient_temperature 295
#These two values have been output from a single CSD field.
_refine_ls_R_factor_gt 0.054
_refine_ls_wR_factor_gt 0.054
_symmetry_cell_setting monoclinic
_symmetry_space_group_name_H-M 'P 21/n'
_symmetry_Int_Tables_number 14
loop_
_symmetry_equiv_pos_site_id
_symmetry_equiv_pos_as_xyz
1 x,y,z
2 1/2-x,1/2+y,1/2-z
3 -x,-y,-z
4 -1/2+x,-1/2-y,-1/2+z
_cell_length_a 14.1690(8)
_cell_length_b 6.4510(4)
_cell_length_c 15.2380(11)
_cell_angle_alpha 90
_cell_angle_beta 110.614(2)
_cell_angle_gamma 90
_cell_formula_units_Z 4
loop_
_atom_type_symbol
_atom_type_radius_bond
C 0.68
H 0.23
N 0.68
O 0.68
loop_
_atom_site_label
_atom_site_type_symbol
_atom_site_fract_x
_atom_site_fract_y
_atom_site_fract_z
C1 C 0.82423(17) 0.1210(3) 0.00116(15)
H1 H 0.86280 0.02940 -0.01660
C2 C 0.72213(17) 0.0969(3) -0.02220(16)
C3 C 0.66353(17) 0.2377(4) 0.00273(16)
H2 H 0.59200 0.21830 -0.01520
C4 C 0.70777(16) 0.4109(4) 0.05491(15)
C5 C 0.81156(15) 0.4407(3) 0.08165(14)
C6 C 0.88321(14) 0.6044(3) 0.13413(14)
C7 C 0.87455(15) 0.7814(3) 0.18223(14)
C8 C 0.95909(17) 0.9092(3) 0.22026(16)
H3 H 0.95500 1.03270 0.25390
C9 C 1.04927(16) 0.8599(3) 0.21071(15)
C10 C 1.06200(16) 0.6811(4) 0.16816(15)
H4 H 1.12730 0.64940 0.16600
C11 C 0.97911(15) 0.5573(3) 0.13106(15)
C12 C 0.97380(16) 0.3593(3) 0.08141(15)
C13 C 0.86685(15) 0.2926(3) 0.05206(15)
C14 C 0.63854(18) 0.5519(4) 0.0735(2)
C15 C 0.78622(17) 0.8486(4) 0.19904(17)
N1 N 0.67167(18) -0.0825(3) -0.07650(15)
N2 N 0.57667(18) 0.6512(5) 0.0822(2)
N3 N 0.72158(18) 0.9173(4) 0.21731(19)
N4 N 1.13444(16) 1.0025(4) 0.24930(15)
O1 O 1.04235(12) 0.2702(3) 0.06702(13)
O2 O 0.72423(17) -0.2256(3) -0.08253(16)
O3 O 0.58015(17) -0.0784(4) -0.11268(18)
O4 O 1.12292(16) 1.1523(4) 0.29263(16)
O5 O 1.21123(14) 0.9641(3) 0.23362(16)
#END
