
#######################################################################
#
#                 Cambridge Crystallographic Data Centre
#                                CCDC
#
#######################################################################
#
# If this CIF has been generated from an entry in the Cambridge
# Structural Database, then it will include bibliographic, chemical,
# crystal, experimental, refinement or atomic coordinate data resulting
# from the CCDC's data processing and validation procedures.
#
#######################################################################

data_CSD_CIF_DAVRAV
_audit_creation_date 2012-06-19
_audit_creation_method CSD-ConQuest-V1
_database_code_CSD DAVRAV
_database_code_depnum_ccdc_archive 'CCDC 844631'
_chemical_formula_sum 'C15 H17 N3 O2'
_chemical_formula_moiety
;
C15 H17 N3 O2
;
_journal_coden_Cambridge 1488
_journal_volume 28
_journal_year 2012
_journal_page_first 25
_journal_name_full 'X-ray.Str.Anal.Online. '
loop_
_publ_author_name
"T.N.M.Prasad"
"S.L.Gaonkar"
"K.Kapoor"
"V.K.Gupta"
"Rajnikant"
"H.Shimizu"
"M.A.Sridhar"
"J.S.Prasad"
_chemical_name_systematic
;
N-(2-(4-((Hydroxyimino)methyl)phenoxy)ethyl)-N-methylpyridin-2-amine
;
_cell_volume    690.626
_exptl_crystal_colour 'white'
_exptl_crystal_density_diffrn 1.305
_exptl_crystal_description 'blocks'
_diffrn_ambient_temperature 293
#These two values have been output from a single CSD field.
_refine_ls_R_factor_gt 0.0539
_refine_ls_wR_factor_gt 0.0539
_symmetry_cell_setting triclinic
_symmetry_space_group_name_H-M 'P -1'
_symmetry_Int_Tables_number 2
loop_
_symmetry_equiv_pos_site_id
_symmetry_equiv_pos_as_xyz
1 x,y,z
2 -x,-y,-z
_cell_length_a 7.3332(8)
_cell_length_b 8.6358(7)
_cell_length_c 11.7675(10)
_cell_angle_alpha 75.306(8)
_cell_angle_beta 73.835(9)
_cell_angle_gamma 89.698(8)
_cell_formula_units_Z 2
loop_
_atom_type_symbol
_atom_type_radius_bond
C 0.68
H 0.23
N 0.68
O 0.68
loop_
_atom_site_label
_atom_site_type_symbol
_atom_site_fract_x
_atom_site_fract_y
_atom_site_fract_z
N1 N -0.2158(2) 0.6077(2) 0.37159(18)
C1 C -0.2520(3) 0.4593(3) 0.4470(2)
C2 C -0.2634(3) 0.4337(4) 0.5728(2)
C3 C -0.2436(4) 0.5621(4) 0.6163(3)
C4 C -0.2124(4) 0.7143(5) 0.5406(3)
C5 C -0.1983(3) 0.7313(4) 0.4198(3)
N2 N -0.2745(3) 0.3365(2) 0.39919(18)
C6 C 0.1875(3) 0.2024(3) 0.1611(2)
C7 C 0.2913(4) 0.3140(3) 0.0581(2)
C8 C 0.4791(4) 0.2937(3) 0.0050(2)
C9 C 0.5700(3) 0.1630(3) 0.0538(2)
C10 C 0.4616(4) 0.0509(3) 0.1561(2)
C11 C 0.2732(4) 0.0684(3) 0.2094(2)
C12 C -0.2730(4) 0.3620(4) 0.2721(3)
C13 C -0.0772(4) 0.3646(3) 0.1854(3)
O1 O 0.0006(2) 0.21315(19) 0.22128(15)
C14 C -0.2998(5) 0.1730(4) 0.4742(3)
C15 C 0.7706(4) 0.1445(3) -0.0004(2)
N3 N 0.8689(3) 0.2498(3) -0.0950(2)
O2 O 1.0588(3) 0.2119(2) -0.13075(19)
H1 H -0.287(3) 0.325(3) 0.622(2)
H2 H -0.254(4) 0.543(3) 0.707(3)
H3 H -0.195(3) 0.809(3) 0.572(2)
H4 H -0.170(3) 0.844(3) 0.352(2)
H5 H 0.828(3) 0.042(3) 0.040(2)
H6 H -0.323(3) 0.469(3) 0.245(2)
H7 H -0.350(3) 0.272(3) 0.269(2)
H8 H -0.088(3) 0.382(3) 0.104(2)
H9 H 0.009(3) 0.451(3) 0.1848(19)
H10 H -0.418(4) 0.159(4) 0.546(3)
H11 H -0.183(5) 0.138(4) 0.497(3)
H12 H -0.325(4) 0.104(4) 0.427(3)
H13 H 1.121(5) 0.293(4) -0.205(3)
H14 H 0.233(3) 0.412(3) 0.025(2)
H15 H 0.555(3) 0.375(3) -0.069(2)
H16 H 0.518(3) -0.042(3) 0.190(2)
H17 H 0.192(3) -0.017(3) 0.280(2)
#END
