
#######################################################################
#
#                 Cambridge Crystallographic Data Centre
#                                CCDC
#
#######################################################################
#
# If this CIF has been generated from an entry in the Cambridge
# Structural Database, then it will include bibliographic, chemical,
# crystal, experimental, refinement or atomic coordinate data resulting
# from the CCDC's data processing and validation procedures.
#
#######################################################################

data_CSD_CIF_DAVSUR
_audit_creation_date 2017-05-19
_audit_creation_method CSD-ConQuest-V1
_database_code_CSD DAVSUR
_database_code_depnum_ccdc_archive 'CCDC 1521797'
_chemical_formula_sum 'C28 H34 N2 O11'
_chemical_formula_moiety
;
C28 H34 N2 O11
;
_journal_coden_Cambridge 692
_journal_volume 49
_journal_year 2017
_journal_page_first 2691
_journal_name_full 'Synthesis '
loop_
_publ_author_name
"T.Schneider"
"J.Martin"
"P.M.Durkin"
"V.Kubyshkin"
"N.Budisa"
_chemical_name_systematic
;
Diethyl 
2-acetamido-2-(3-((tert-butoxycarbonyl)oxy)-4-((2-nitrobenzyl)oxy)benzyl)malon
ate
;
_chemical_name_common
;
diethyl 
acetamido(3-((t-butoxycarbonyl)oxy)-4-((2-nitrobenzyl)oxy)benzyl)malonate
;
_chemical_melting_point 422
_cell_volume   2865.562
_exptl_crystal_colour 'colorless'
_exptl_crystal_density_diffrn 1.332
_exptl_crystal_description 'block'
_exptl_crystal_preparation 'ethyl acetate/ n-hexane'
_diffrn_ambient_temperature 150
_refine_special_details
;
O11A and O11 disordered over two sites with occupancies 0.543:0.457.

;
#These two values have been output from a single CSD field.
_refine_ls_R_factor_gt 0.0377
_refine_ls_wR_factor_gt 0.0377
_symmetry_cell_setting monoclinic
_symmetry_space_group_name_H-M 'P 21/c'
_symmetry_Int_Tables_number 14
loop_
_symmetry_equiv_pos_site_id
_symmetry_equiv_pos_as_xyz
1 x,y,z
2 -x,1/2+y,1/2-z
3 -x,-y,-z
4 x,-1/2-y,-1/2+z
_cell_length_a 11.99378(15)
_cell_length_b 9.79054(12)
_cell_length_c 24.9935(3)
_cell_angle_alpha 90
_cell_angle_beta 102.4771(12)
_cell_angle_gamma 90
_cell_formula_units_Z 4
loop_
_atom_type_symbol
_atom_type_radius_bond
C 0.68
H 0.23
N 0.68
O 0.68
loop_
_atom_site_label
_atom_site_type_symbol
_atom_site_fract_x
_atom_site_fract_y
_atom_site_fract_z
O1 O 0.43552(8) 0.20109(11) 0.48885(4)
O2 O 0.21659(9) 0.15844(12) 0.44646(4)
O3 O 0.15903(9) 0.23183(12) 0.51658(4)
O4 O 0.23254(9) 0.01653(12) 0.51953(5)
O5 O 0.10645(9) -0.04433(11) 0.24605(5)
O6 O 0.22968(9) 0.12847(11) 0.24474(5)
O7 O 0.25570(9) -0.16088(11) 0.16155(4)
O8 O 0.21496(9) -0.32144(10) 0.21890(4)
O9 O 0.48357(9) -0.25571(11) 0.24466(5)
O10 O 0.76490(11) 0.33861(19) 0.51747(6)
O11 O 0.8302(3) 0.5135(4) 0.5584(3)
N1 N 0.40627(10) -0.04844(12) 0.25119(5)
H1 H 0.41410 0.04070 0.24950
N2 N 0.75598(13) 0.4185(2) 0.55116(8)
C1 C 0.41264(12) 0.11020(16) 0.44660(6)
C2 C 0.49289(12) 0.04287(16) 0.42370(6)
H2 H 0.57200 0.05950 0.43710
C3 C 0.45699(12) -0.04897(16) 0.38112(6)
H3 H 0.51270 -0.09510 0.36600
C4 C 0.34162(12) -0.07551(15) 0.35988(6)
C5 C 0.26156(12) -0.00714(16) 0.38326(6)
H4 H 0.18230 -0.02310 0.36970
C6 C 0.29685(12) 0.08304(17) 0.42573(6)
C7 C 0.55083(12) 0.24788(16) 0.50535(6)
H5 H 0.57880 0.28100 0.47320
H6 H 0.60100 0.17260 0.52260
C8 C 0.55164(13) 0.36262(16) 0.54581(6)
C9 C 0.64684(14) 0.44334(18) 0.56670(7)
C10 C 0.64425(16) 0.55254(19) 0.60199(7)
H7 H 0.71050 0.60690 0.61430
C11 C 0.54539(16) 0.58126(18) 0.61896(7)
H8 H 0.54230 0.65580 0.64290
C12 C 0.45055(16) 0.50055(19) 0.60076(7)
H9 H 0.38260 0.51780 0.61340
C13 C 0.45324(15) 0.39452(18) 0.56423(7)
H10 H 0.38600 0.34220 0.55140
C14 C 0.20536(12) 0.12433(17) 0.49795(6)
C15 C 0.12419(13) 0.22795(19) 0.57012(6)
C16 C 0.22345(15) 0.1872(2) 0.61623(7)
H11 H 0.24310 0.09140 0.61180
H12 H 0.20160 0.19900 0.65150
H13 H 0.28960 0.24510 0.61510
C17 C 0.09175(18) 0.3755(2) 0.57613(8)
H14 H 0.02970 0.40100 0.54540
H15 H 0.15810 0.43400 0.57630
H16 H 0.06650 0.38710 0.61060
C18 C 0.02366(16) 0.1328(2) 0.56545(8)
H17 H -0.03810 0.16290 0.53530
H18 H -0.00310 0.13390 0.59980
H19 H 0.04690 0.03990 0.55810
C19 C 0.30470(12) -0.17370(15) 0.31307(6)
H20 H 0.22880 -0.21130 0.31460
H21 H 0.35940 -0.25070 0.31730
C20 C 0.29780(11) -0.10586(14) 0.25608(6)
C21 C 0.20929(12) 0.00965(15) 0.24806(6)
C22 C 0.00777(13) 0.04682(18) 0.23589(8)
H22 H 0.01350 0.11380 0.20690
H23 H 0.00310 0.09720 0.26970
C23 C -0.09420(16) -0.0414(2) 0.21815(12)
H24 H -0.16310 0.01550 0.21050
H25 H -0.09890 -0.10670 0.24730
H26 H -0.08790 -0.09110 0.18490
C24 C 0.25312(11) -0.21189(15) 0.21090(6)
C25 C 0.20681(17) -0.2488(2) 0.11501(7)
H27 H 0.23290 -0.34380 0.12340
H28 H 0.23450 -0.21850 0.08240
C26 C 0.07849(18) -0.2450(2) 0.10240(8)
H29 H 0.04880 -0.29210 0.06760
H30 H 0.05250 -0.14980 0.09950
H31 H 0.05040 -0.29060 0.13180
C27 C 0.49583(12) -0.13115(15) 0.24926(6)
C28 C 0.60931(12) -0.06203(16) 0.25432(6)
H32 H 0.66420 -0.12670 0.24470
H33 H 0.63690 -0.03080 0.29210
H34 H 0.60090 0.01650 0.22940
O12? O 0.8399(3) 0.4221(8) 0.5958(2)
#END
