
#######################################################################
#
#                 Cambridge Crystallographic Data Centre
#                                CCDC
#
#######################################################################
#
# If this CIF has been generated from an entry in the Cambridge
# Structural Database, then it will include bibliographic, chemical,
# crystal, experimental, refinement or atomic coordinate data resulting
# from the CCDC's data processing and validation procedures.
#
#######################################################################

data_CSD_CIF_DAVSOL
_audit_creation_date 2017-05-19
_audit_creation_method CSD-ConQuest-V1
_database_code_CSD DAVSOL
_database_code_depnum_ccdc_archive 'CCDC 1521796'
_chemical_formula_sum 'C14 H13 N1 O5'
_chemical_formula_moiety
;
C14 H13 N1 O5
;
_journal_coden_Cambridge 692
_journal_volume 49
_journal_year 2017
_journal_page_first 2691
_journal_name_full 'Synthesis '
loop_
_publ_author_name
"T.Schneider"
"J.Martin"
"P.M.Durkin"
"V.Kubyshkin"
"N.Budisa"
_chemical_name_systematic
;
5-(hydroxymethyl)-2-((2-nitrobenzyl)oxy)phenol
;
_chemical_melting_point 416
_cell_volume   1250.466
_exptl_crystal_colour 'colorless'
_exptl_crystal_density_diffrn 1.462
_exptl_crystal_description 'rod'
_exptl_crystal_preparation 'pyridine/ n-pentane'
_diffrn_ambient_temperature 150
#These two values have been output from a single CSD field.
_refine_ls_R_factor_gt 0.0371
_refine_ls_wR_factor_gt 0.0371
_symmetry_cell_setting monoclinic
_symmetry_space_group_name_H-M 'P 21/c'
_symmetry_Int_Tables_number 14
loop_
_symmetry_equiv_pos_site_id
_symmetry_equiv_pos_as_xyz
1 x,y,z
2 -x,1/2+y,1/2-z
3 -x,-y,-z
4 x,-1/2-y,-1/2+z
_cell_length_a 10.0994(2)
_cell_length_b 4.61988(10)
_cell_length_c 26.9151(5)
_cell_angle_alpha 90
_cell_angle_beta 95.2851(19)
_cell_angle_gamma 90
_cell_formula_units_Z 4
loop_
_atom_type_symbol
_atom_type_radius_bond
C 0.68
H 0.23
N 0.68
O 0.68
loop_
_atom_site_label
_atom_site_type_symbol
_atom_site_fract_x
_atom_site_fract_y
_atom_site_fract_z
N1 N 0.76303(13) 0.4123(3) 0.49156(5)
O1 O 0.51367(9) 0.6206(2) 0.35412(3)
O2 O 0.43096(10) 0.7840(2) 0.26037(4)
H1 H 0.477(2) 0.624(5) 0.2689(8)
O3 O 0.05788(10) 1.4829(2) 0.26620(4)
H2 H 0.018(2) 1.321(5) 0.2552(8)
O4 O 0.85633(13) 0.3823(4) 0.52336(5)
O5 O 0.66247(13) 0.5451(3) 0.49919(4)
C1 C 0.56972(14) 0.5655(3) 0.40375(5)
H3 H 0.50160 0.48220 0.42380
H4 H 0.60250 0.74810 0.41970
C2 C 0.68326(13) 0.3552(3) 0.40127(5)
C3 C 0.77306(14) 0.2822(3) 0.44224(5)
C4 C 0.87657(15) 0.0886(4) 0.43868(6)
H5 H 0.93560 0.04580 0.46730
C5 C 0.89390(15) -0.0417(4) 0.39375(6)
H6 H 0.96390 -0.17670 0.39110
C6 C 0.80768(15) 0.0272(3) 0.35241(6)
H7 H 0.81920 -0.05970 0.32110
C7 C 0.70486(14) 0.2217(3) 0.35638(5)
H8 H 0.64710 0.26550 0.32750
C8 C 0.41388(13) 0.8232(3) 0.34908(5)
C9 C 0.37275(13) 0.9014(3) 0.29997(5)
C10 C 0.27350(13) 1.1042(3) 0.28975(5)
H9 H 0.24760 1.15700 0.25610
C11 C 0.21115(13) 1.2318(3) 0.32814(5)
C12 C 0.25109(14) 1.1524(3) 0.37708(5)
H10 H 0.20890 1.23710 0.40370
C13 C 0.35211(14) 0.9504(3) 0.38762(5)
H11 H 0.37890 0.89950 0.42120
C14 C 0.10182(14) 1.4535(3) 0.31780(5)
H12 H 0.02520 1.39760 0.33610
H13 H 0.13430 1.64350 0.33080
#END
