
#######################################################################
#
#                 Cambridge Crystallographic Data Centre
#                                CCDC
#
#######################################################################
#
# If this CIF has been generated from an entry in the Cambridge
# Structural Database, then it will include bibliographic, chemical,
# crystal, experimental, refinement or atomic coordinate data resulting
# from the CCDC's data processing and validation procedures.
#
#######################################################################

data_CSD_CIF_DAVWAB
_audit_creation_date 2017-05-19
_audit_creation_method CSD-ConQuest-V1
_database_code_CSD DAVWAB
_database_code_depnum_ccdc_archive 'CCDC 1532226'
_chemical_formula_sum 'C36 H44 N6 O4'
_chemical_formula_moiety
;
C36 H44 N6 O4
;
_journal_coden_Cambridge 35
_journal_volume 82
_journal_year 2017
_journal_page_first 5122
_journal_name_full 'J.Org.Chem. '
loop_
_publ_author_name
"M.Kielmann"
"K.J.Flanagan"
"K.Norvaisa"
"D.Intrieri"
"M.O.Senge"
_chemical_name_systematic
;
2,3,7,8,12,13,17,18-octaethyl-5,15-dinitroporphyrin
;
_cell_volume   1606.374
_exptl_crystal_colour 'light orange'
_exptl_crystal_density_diffrn 1.292
_exptl_crystal_description 'Diamond'
_exptl_crystal_preparation 'dichloromethane/methanol'
_diffrn_ambient_temperature 100.0
#These two values have been output from a single CSD field.
_refine_ls_R_factor_gt 0.048
_refine_ls_wR_factor_gt 0.048
_symmetry_cell_setting triclinic
_symmetry_space_group_name_H-M 'P -1'
_symmetry_Int_Tables_number 2
loop_
_symmetry_equiv_pos_site_id
_symmetry_equiv_pos_as_xyz
1 x,y,z
2 -x,-y,-z
_cell_length_a 9.6015(5)
_cell_length_b 13.6688(8)
_cell_length_c 13.7637(8)
_cell_angle_alpha 101.568(3)
_cell_angle_beta 106.044(2)
_cell_angle_gamma 104.705(2)
_cell_formula_units_Z 2
loop_
_atom_type_symbol
_atom_type_radius_bond
C 0.68
H 0.23
N 0.68
O 0.68
loop_
_atom_site_label
_atom_site_type_symbol
_atom_site_fract_x
_atom_site_fract_y
_atom_site_fract_z
C1 C 0.7050(2) 0.50111(15) 0.51547(15)
C2 C 0.7852(2) 0.57989(15) 0.47726(15)
C3 C 0.8915(2) 0.66037(15) 0.56252(16)
C4 C 0.8780(2) 0.63070(15) 0.65562(15)
C5 C 0.9565(2) 0.68368(15) 0.76280(15)
C6 C 0.9388(2) 0.65352(15) 0.85128(15)
C7 C 1.0257(2) 0.70889(15) 0.96372(15)
C8 C 0.9675(2) 0.64505(15) 1.01726(15)
C9 C 0.8466(2) 0.55336(15) 0.93859(15)
C10 C 0.7590(2) 0.47200(15) 0.96454(16)
H1 H 0.78510 0.48050 1.03820
C11 C 0.6398(2) 0.38030(15) 0.90118(15)
C12 C 0.5548(2) 0.30398(15) 0.93909(15)
C13 C 0.4470(2) 0.22452(15) 0.85373(15)
C14 C 0.4658(2) 0.25096(15) 0.76085(15)
C15 C 0.3896(2) 0.19657(15) 0.65349(15)
C16 C 0.4118(2) 0.22423(15) 0.56531(16)
C17 C 0.3306(2) 0.16628(16) 0.45274(15)
C18 C 0.3883(2) 0.23049(16) 0.39968(16)
C19 C 0.5042(2) 0.32490(15) 0.47869(15)
C20 C 0.5885(2) 0.40800(15) 0.45216(15)
H2 H 0.56180 0.39950 0.37840
C21 C 0.7578(2) 0.57137(16) 0.36300(15)
H3 H 0.79640 0.64290 0.35560
H4 H 0.64600 0.54250 0.32340
C22 C 0.8366(2) 0.50039(16) 0.31456(16)
H5 H 0.82290 0.50220 0.24180
H6 H 0.79080 0.42770 0.31470
H7 H 0.94630 0.52590 0.35630
C23 C 0.9979(2) 0.75808(15) 0.55372(16)
H8 H 1.03220 0.81560 0.62030
H9 H 0.94060 0.78120 0.49600
C24 C 1.1390(2) 0.74056(17) 0.53190(17)
H10 H 1.10630 0.68700 0.46370
H11 H 1.19550 0.71640 0.58800
H12 H 1.20570 0.80710 0.53000
C25 C 1.1520(2) 0.81397(15) 1.01578(16)
H13 H 1.20750 0.82870 0.96670
H14 H 1.22580 0.80950 1.07970
C26 C 1.0946(3) 0.90567(17) 1.04719(19)
H15 H 1.01790 0.90880 0.98490
H16 H 1.18090 0.97210 1.07590
H17 H 1.04810 0.89500 1.10090
C27 C 1.0147(2) 0.66361(16) 1.13481(15)
H18 H 1.12100 0.71350 1.16850
H19 H 1.01440 0.59590 1.15040
C28 C 0.9107(2) 0.70794(17) 1.18341(17)
H20 H 0.80630 0.65710 1.15350
H21 H 0.90970 0.77470 1.16780
H22 H 0.94930 0.72050 1.26010
C29 C 0.5793(2) 0.31251(16) 1.05292(15)
H23 H 0.68970 0.34800 1.09470
H24 H 0.54950 0.24060 1.06120
C30 C 0.4864(2) 0.37455(18) 1.09624(17)
H25 H 0.37710 0.33990 1.05480
H26 H 0.51900 0.44680 1.09130
H27 H 0.50380 0.37660 1.17030
C31 C 0.3406(2) 0.12767(16) 0.86416(16)
H28 H 0.24850 0.09620 0.79930
H29 H 0.30670 0.14880 0.92450
C32 C 0.4186(2) 0.04528(17) 0.88129(19)
H30 H 0.45070 0.02330 0.82110
H31 H 0.34660 -0.01620 0.88770
H32 H 0.50880 0.07580 0.94610
C33 C 0.2138(2) 0.05716(16) 0.40142(16)
H33 H 0.14510 0.05510 0.33200
H34 H 0.15020 0.04280 0.44590
C34 C 0.2853(3) -0.02993(17) 0.38519(18)
H35 H 0.35030 -0.01560 0.34250
H36 H 0.20390 -0.09830 0.34870
H37 H 0.34770 -0.03180 0.45400
C35 C 0.3458(2) 0.21014(16) 0.28238(15)
H38 H 0.34260 0.27650 0.26470
H39 H 0.24170 0.15740 0.24720
C36 C 0.4577(3) 0.16980(18) 0.23919(17)
H40 H 0.41710 0.14870 0.16180
H41 H 0.47050 0.10880 0.26330
H42 H 0.55720 0.22610 0.26480
N1 N 0.76472(18) 0.53488(13) 0.62336(13)
H43 H 0.735(2) 0.5008(18) 0.6657(18)
N2 N 0.83103(18) 0.56019(12) 0.83890(13)
N3 N 0.58167(19) 0.34556(13) 0.79332(13)
H44 H 0.607(3) 0.3758(19) 0.749(2)
N4 N 0.51743(18) 0.31947(12) 0.57829(13)
N5 N 1.07750(18) 0.78444(13) 0.78457(12)
O1 O 1.04686(15) 0.86657(11) 0.80589(11)
O2 O 1.20127(15) 0.78036(11) 0.78082(11)
N6 N 0.26551(19) 0.09723(13) 0.63238(13)
O3 O 0.13713(16) 0.10284(12) 0.62150(11)
O4 O 0.29809(17) 0.01631(11) 0.62820(12)
#END
