
#######################################################################
#
#                 Cambridge Crystallographic Data Centre
#                                CCDC
#
#######################################################################
#
# If this CIF has been generated from an entry in the Cambridge
# Structural Database, then it will include bibliographic, chemical,
# crystal, experimental, refinement or atomic coordinate data resulting
# from the CCDC's data processing and validation procedures.
#
#######################################################################

data_CSD_CIF_DAVWEF
_audit_creation_date 2017-05-19
_audit_creation_method CSD-ConQuest-V1
_database_code_CSD DAVWEF
_database_code_depnum_ccdc_archive 'CCDC 1532227'
_chemical_formula_sum 'C36 H44 N6 O4'
_chemical_formula_moiety
;
C36 H44 N6 O4
;
_journal_coden_Cambridge 35
_journal_volume 82
_journal_year 2017
_journal_page_first 5122
_journal_name_full 'J.Org.Chem. '
loop_
_publ_author_name
"M.Kielmann"
"K.J.Flanagan"
"K.Norvaisa"
"D.Intrieri"
"M.O.Senge"
_chemical_name_systematic
;
2,3,7,8,12,13,17,18-octaethyl-5,10-dinitroporphyrin
;
_cell_volume   3227.034
_exptl_crystal_colour 'orange'
_exptl_crystal_density_diffrn 1.286
_exptl_crystal_description 'plate'
_exptl_crystal_preparation 'dichloromethane/methanol'
_diffrn_ambient_temperature 100.0
#These two values have been output from a single CSD field.
_refine_ls_R_factor_gt 0.0471
_refine_ls_wR_factor_gt 0.0471
_symmetry_cell_setting monoclinic
_symmetry_space_group_name_H-M 'P 21/c'
_symmetry_Int_Tables_number 14
loop_
_symmetry_equiv_pos_site_id
_symmetry_equiv_pos_as_xyz
1 x,y,z
2 -x,1/2+y,1/2-z
3 -x,-y,-z
4 x,-1/2-y,-1/2+z
_cell_length_a 12.7085(6)
_cell_length_b 10.9353(5)
_cell_length_c 23.2462(11)
_cell_angle_alpha 90
_cell_angle_beta 92.6748(15)
_cell_angle_gamma 90
_cell_formula_units_Z 4
loop_
_atom_type_symbol
_atom_type_radius_bond
C 0.68
H 0.23
N 0.68
O 0.68
loop_
_atom_site_label
_atom_site_type_symbol
_atom_site_fract_x
_atom_site_fract_y
_atom_site_fract_z
C1 C 0.20959(13) 0.36543(15) 0.34673(7)
C2 C 0.11693(13) 0.29082(16) 0.33748(8)
C3 C 0.10926(13) 0.21586(15) 0.38486(8)
C4 C 0.19944(13) 0.23940(15) 0.42282(8)
C5 C 0.23077(13) 0.18645(15) 0.47558(8)
C6 C 0.32539(14) 0.19532(15) 0.50845(7)
C7 C 0.35637(14) 0.12610(15) 0.56106(7)
C8 C 0.45770(14) 0.15924(15) 0.57367(7)
C9 C 0.48552(13) 0.24985(15) 0.53088(7)
C10 C 0.58438(13) 0.30660(15) 0.53246(8)
H1 H 0.62900 0.28920 0.56540
C11 C 0.62549(13) 0.38422(15) 0.49269(8)
C12 C 0.73052(13) 0.43452(15) 0.49348(8)
C13 C 0.73927(13) 0.50069(15) 0.44398(8)
C14 C 0.63874(13) 0.49574(15) 0.41265(8)
C15 C 0.60764(14) 0.55829(15) 0.36321(8)
H2 H 0.66030 0.60450 0.34530
C16 C 0.50628(14) 0.56077(15) 0.33666(7)
C17 C 0.47567(14) 0.64583(15) 0.29054(8)
C18 C 0.37212(14) 0.62651(16) 0.27714(7)
C19 C 0.34232(14) 0.52438(15) 0.31471(7)
C20 C 0.24669(14) 0.46068(15) 0.31297(7)
C21 C 0.04850(15) 0.28150(18) 0.28299(8)
H3 H 0.02930 0.36470 0.26940
H4 H -0.01730 0.23780 0.29120
C22 C 0.10466(17) 0.2133(2) 0.23505(9)
H5 H 0.06150 0.21780 0.19900
H6 H 0.11480 0.12750 0.24610
H7 H 0.17330 0.25130 0.22960
C23 C 0.02424(14) 0.12047(16) 0.39055(8)
H8 H -0.04210 0.15090 0.37170
H9 H 0.01190 0.10800 0.43190
C24 C 0.05278(17) -0.00253(17) 0.36360(9)
H10 H 0.06070 0.00820 0.32220
H11 H -0.00330 -0.06190 0.36980
H12 H 0.11910 -0.03240 0.38160
C25 C 0.29744(15) 0.03355(16) 0.59550(8)
H13 H 0.22090 0.04850 0.58960
H14 H 0.31620 0.04550 0.63690
C26 C 0.32110(16) -0.09945(17) 0.57921(9)
H15 H 0.30480 -0.11150 0.53800
H16 H 0.27780 -0.15470 0.60140
H17 H 0.39580 -0.11700 0.58790
C27 C 0.53370(14) 0.10797(16) 0.61861(7)
H18 H 0.49410 0.06350 0.64770
H19 H 0.57200 0.17600 0.63830
C28 C 0.61323(15) 0.02096(17) 0.59271(8)
H20 H 0.65130 0.06410 0.56310
H21 H 0.57590 -0.04930 0.57540
H22 H 0.66340 -0.00750 0.62310
C29 C 0.81239(14) 0.41463(16) 0.54121(8)
H23 H 0.77770 0.41640 0.57850
H24 H 0.86340 0.48300 0.54120
C30 C 0.87218(17) 0.29453(18) 0.53659(10)
H25 H 0.90700 0.29190 0.49990
H26 H 0.82280 0.22600 0.53850
H27 H 0.92520 0.28840 0.56840
C31 C 0.83526(14) 0.56409(16) 0.42358(8)
H28 H 0.87920 0.59180 0.45740
H29 H 0.81330 0.63740 0.40110
C32 C 0.90093(17) 0.4818(2) 0.38645(10)
H30 H 0.85870 0.45680 0.35210
H31 H 0.92310 0.40920 0.40850
H32 H 0.96330 0.52660 0.37480
C33 C 0.54849(15) 0.73280(16) 0.26223(8)
H33 H 0.60450 0.75960 0.29050
H34 H 0.50870 0.80600 0.24870
C34 C 0.59814(18) 0.67132(19) 0.21136(9)
H35 H 0.54280 0.64730 0.18280
H36 H 0.63710 0.59860 0.22470
H37 H 0.64650 0.72850 0.19380
C35 C 0.30621(16) 0.70647(18) 0.23676(8)
H38 H 0.25330 0.65520 0.21550
H39 H 0.35210 0.74370 0.20830
C36 C 0.24943(19) 0.80843(19) 0.26843(10)
H40 H 0.30160 0.86360 0.28680
H41 H 0.20620 0.77230 0.29790
H42 H 0.20420 0.85440 0.24080
N1 N 0.15098(12) 0.10601(13) 0.50017(7)
N2 N 0.17034(12) 0.50223(15) 0.26750(7)
N3 N 0.25845(12) 0.32799(13) 0.39744(6)
H43 H 0.3162(16) 0.3557(18) 0.4125(8)
N4 N 0.40516(11) 0.26966(13) 0.49155(6)
N5 N 0.57394(12) 0.42325(13) 0.44334(6)
H44 H 0.5097(17) 0.4064(17) 0.4323(8)
N6 N 0.42411(11) 0.48950(13) 0.35121(6)
O1 O 0.15418(10) -0.00374(11) 0.48962(6)
O2 O 0.08654(10) 0.15454(12) 0.53041(6)
O3 O 0.09919(11) 0.56975(13) 0.28191(7)
O4 O 0.18251(11) 0.46917(14) 0.21783(6)
#END
