
#######################################################################
#
#                 Cambridge Crystallographic Data Centre
#                                CCDC
#
#######################################################################
#
# If this CIF has been generated from an entry in the Cambridge
# Structural Database, then it will include bibliographic, chemical,
# crystal, experimental, refinement or atomic coordinate data resulting
# from the CCDC's data processing and validation procedures.
#
#######################################################################

data_CSD_CIF_DAVWOP
_audit_creation_date 2017-05-19
_audit_creation_method CSD-ConQuest-V1
_database_code_CSD DAVWOP
_database_code_depnum_ccdc_archive 'CCDC 1532229'
_chemical_formula_sum 'C36 H43 N7 O6'
_chemical_formula_moiety
;
C36 H43 N7 O6
;
_journal_coden_Cambridge 35
_journal_volume 82
_journal_year 2017
_journal_page_first 5122
_journal_name_full 'J.Org.Chem. '
loop_
_publ_author_name
"M.Kielmann"
"K.J.Flanagan"
"K.Norvaisa"
"D.Intrieri"
"M.O.Senge"
_chemical_name_systematic
;
2,3,7,8,12,13,17,18-octaethyl-5,10,15-trinitroporphyrin
;
_cell_volume   3309.468
_exptl_crystal_colour 'light orange'
_exptl_crystal_density_diffrn 1.344
_exptl_special_details
;
Absolute configuration

;
_exptl_crystal_description 'Block'
_exptl_crystal_preparation 'dichloromethane/methanol'
_diffrn_ambient_temperature 100
#These two values have been output from a single CSD field.
_refine_ls_R_factor_gt 0.0411
_refine_ls_wR_factor_gt 0.0411
_symmetry_cell_setting orthorhombic
_symmetry_space_group_name_H-M 'P 21 21 21'
_symmetry_Int_Tables_number 19
loop_
_symmetry_equiv_pos_site_id
_symmetry_equiv_pos_as_xyz
1 x,y,z
2 1/2-x,-y,1/2+z
3 -x,1/2+y,1/2-z
4 1/2+x,1/2-y,-z
_cell_length_a 8.6656(11)
_cell_length_b 13.9561(17)
_cell_length_c 27.365(3)
_cell_angle_alpha 90
_cell_angle_beta 90
_cell_angle_gamma 90
_cell_formula_units_Z 4
loop_
_atom_type_symbol
_atom_type_radius_bond
C 0.68
H 0.23
N 0.68
O 0.68
loop_
_atom_site_label
_atom_site_type_symbol
_atom_site_fract_x
_atom_site_fract_y
_atom_site_fract_z
C1 C 1.0004(3) -0.01881(18) 0.20266(9)
C2 C 1.0512(3) -0.05053(19) 0.15558(9)
C3 C 0.9505(3) -0.01695(18) 0.12107(9)
C4 C 0.8349(3) 0.03857(18) 0.14719(9)
C5 C 0.7071(3) 0.08934(19) 0.13088(9)
C6 C 0.5977(3) 0.14346(18) 0.15651(9)
C7 C 0.4668(3) 0.19674(19) 0.13606(9)
C8 C 0.3925(3) 0.23672(18) 0.17476(9)
C9 C 0.4791(3) 0.20698(19) 0.21854(9)
C10 C 0.4437(3) 0.23174(18) 0.26696(9)
C11 C 0.5052(3) 0.20693(18) 0.31249(9)
C12 C 0.4505(3) 0.23200(19) 0.36078(9)
C13 C 0.5481(3) 0.18971(19) 0.39418(9)
C14 C 0.6639(3) 0.13823(19) 0.36712(9)
C15 C 0.7862(3) 0.08210(19) 0.38341(9)
C16 C 0.8993(3) 0.03283(18) 0.35732(9)
C17 C 1.0320(3) -0.02144(18) 0.37695(9)
C18 C 1.1104(3) -0.05186(18) 0.33694(9)
C19 C 1.0257(3) -0.01811(18) 0.29422(9)
C20 C 1.0693(3) -0.04116(19) 0.24691(9)
H1 H 1.16100 -0.07820 0.24440
C21 C 1.1961(3) -0.1079(2) 0.14798(10)
H2 H 1.19310 -0.13810 0.11520
H3 H 1.20100 -0.15970 0.17270
C22 C 1.3413(3) -0.0453(2) 0.15211(11)
H4 H 1.33530 0.00720 0.12840
H5 H 1.43290 -0.08430 0.14540
H6 H 1.34820 -0.01870 0.18520
C23 C 0.9667(3) -0.0352(2) 0.06686(9)
H7 H 0.86430 -0.02880 0.05120
H8 H 1.00260 -0.10180 0.06180
C24 C 1.0803(3) 0.0339(2) 0.04205(10)
H9 H 1.08130 0.02180 0.00680
H10 H 1.18400 0.02390 0.05540
H11 H 1.04790 0.10010 0.04820
C25 C 0.4152(3) 0.2106(2) 0.08391(9)
H12 H 0.30110 0.21370 0.08300
H13 H 0.44760 0.15440 0.06440
C26 C 0.4808(3) 0.3015(2) 0.0604(1)
H14 H 0.43340 0.31100 0.02830
H15 H 0.59270 0.29480 0.05660
H16 H 0.45830 0.35680 0.08130
C27 C 0.2421(3) 0.2903(2) 0.16944(10)
H17 H 0.24150 0.32500 0.13790
H18 H 0.23300 0.33810 0.19600
C28 C 0.1038(3) 0.2217(2) 0.17143(11)
H19 H 0.11070 0.17580 0.14440
H20 H 0.00790 0.25840 0.16850
H21 H 0.10450 0.18700 0.20260
C29 C 0.3071(3) 0.2858(2) 0.37617(10)
H22 H 0.28170 0.33460 0.35110
H23 H 0.32720 0.31950 0.40740
C30 C 0.1695(3) 0.2178(2) 0.38259(11)
H24 H 0.14850 0.18510 0.35160
H25 H 0.07850 0.25460 0.39250
H26 H 0.19380 0.17020 0.40780
C31 C 0.5316(3) 0.2021(2) 0.44870(9)
H27 H 0.57340 0.14470 0.46530
H28 H 0.42070 0.20690 0.45700
C32 C 0.6155(3) 0.2913(2) 0.46787(10)
H29 H 0.57100 0.34870 0.45280
H30 H 0.72540 0.28720 0.45960
H31 H 0.60380 0.29500 0.50340
C33 C 1.0805(3) -0.0438(2) 0.42871(9)
H32 H 1.03910 0.00610 0.45080
H33 H 1.19450 -0.04170 0.43080
C34 C 1.0246(4) -0.1417(2) 0.4460(1)
H34 H 1.06380 -0.19140 0.42400
H35 H 0.91150 -0.14300 0.44590
H36 H 1.06250 -0.15360 0.47920
C35 C 1.2611(3) -0.10528(19) 0.33539(10)
H37 H 1.25860 -0.15270 0.30850
H38 H 1.27570 -0.14050 0.36640
C36 C 1.3971(3) -0.0362(2) 0.32760(11)
H39 H 1.38250 -0.00110 0.29690
H40 H 1.49350 -0.07280 0.32600
H41 H 1.40190 0.00920 0.35490
N1 N 0.6827(2) 0.08288(16) 0.07736(8)
O1 O 0.6010(2) 0.01729(14) 0.06208(7)
O2 O 0.7458(2) 0.14318(14) 0.05164(6)
N2 N 0.3172(3) 0.30253(18) 0.27102(8)
O3 O 0.1851(2) 0.27234(17) 0.27565(7)
O4 O 0.3543(2) 0.38704(15) 0.26981(8)
N3 N 0.7937(2) 0.07221(17) 0.43721(8)
O5 O 0.7309(2) 0.00175(15) 0.45511(7)
O6 O 0.8594(2) 0.13499(15) 0.46046(7)
N4 N 0.8715(2) 0.03551(16) 0.19588(8)
H42 H 0.819(4) 0.058(3) 0.2158(13)
N5 N 0.6025(2) 0.15083(15) 0.20642(7)
N6 N 0.6341(2) 0.15118(16) 0.31837(8)
H43 H 0.685(5) 0.124(3) 0.2965(14)
N7 N 0.8992(2) 0.03431(15) 0.30737(7)
#END
