
#######################################################################
#
#                 Cambridge Crystallographic Data Centre
#                                CCDC
#
#######################################################################
#
# If this CIF has been generated from an entry in the Cambridge
# Structural Database, then it will include bibliographic, chemical,
# crystal, experimental, refinement or atomic coordinate data resulting
# from the CCDC's data processing and validation procedures.
#
#######################################################################

data_CSD_CIF_DAVXAZ
_audit_creation_date 1986-05-18
_audit_creation_method CSD-ConQuest-V1
_database_code_CSD DAVXAZ
_chemical_formula_sum 'C10 H12 N4 O9'
_chemical_formula_moiety
;
C10 H12 N4 O9
;
_journal_coden_Cambridge 154
_journal_volume 38
_journal_year 1985
_journal_page_first 145
_journal_name_full 'Aust.J.Chem. '
loop_
_publ_author_name
"M.P.Hartshorn"
"W.T.Robinson"
"J.Vaughan"
"J.M.White"
_chemical_name_systematic
;
2,3,5,6-Tetramethyl-r-2,4,t-5,c-6-tetranitrocyclohex-3-enone
;
_chemical_melting_point 391.15
_cell_volume   1421.484
_exptl_crystal_colour 'colorless'
_exptl_crystal_density_diffrn 1.55
_exptl_special_details
;
Melts with decomposition.

;
_diffrn_ambient_temperature ?
_diffrn_special_details
;
The study was carried out at room temperature,in the range 283-303K

;
#These two values have been output from a single CSD field.
_refine_ls_R_factor_gt 0.051
_refine_ls_wR_factor_gt 0.051
loop_
_citation_database_id_CSD
_citation_special_details
DAVXED "is a stereoisomer of this entry"
_symmetry_cell_setting orthorhombic
_symmetry_space_group_name_H-M 'P c a 21'
_symmetry_Int_Tables_number 29
loop_
_symmetry_equiv_pos_site_id
_symmetry_equiv_pos_as_xyz
1 x,y,z
2 1/2-x,y,1/2+z
3 1/2+x,-y,z
4 -x,-y,1/2+z
_cell_length_a 13.143(4)
_cell_length_b 8.537(2)
_cell_length_c 12.669(3)
_cell_angle_alpha 90
_cell_angle_beta 90
_cell_angle_gamma 90
_cell_formula_units_Z 4
loop_
_atom_type_symbol
_atom_type_radius_bond
C 0.68
H 0.23
N 0.68
O 0.68
loop_
_atom_site_label
_atom_site_type_symbol
_atom_site_fract_x
_atom_site_fract_y
_atom_site_fract_z
C1 C 0.2227(3) 0.7185(4) 0.4178(4)
C2 C 0.2039(3) 0.5905(4) 0.5013(3)
C3 C 0.1254(3) 0.6292(4) 0.5823(3)
C4 C 0.0864(3) 0.7734(4) 0.58720
C5 C 0.1085(3) 0.9119(4) 0.5177(3)
C6 C 0.1479(3) 0.8568(4) 0.4077(3)
C7 C 0.3051(4) 0.5386(7) 0.5501(6)
C8 C 0.0978(4) 0.5024(5) 0.6616(4)
C9 C 0.0248(3) 1.0361(5) 0.5125(4)
C10 C 0.1917(3) 0.9869(4) 0.3403(3)
N1 N 0.1605(3) 0.4539(4) 0.4324(3)
N2 N 0.0183(3) 0.8123(4) 0.6759(3)
N3 N 0.2061(2) 0.9920(4) 0.5653(3)
N4 N 0.0559(3) 0.7831(4) 0.3464(3)
O1 O 0.2921(3) 0.7084(4) 0.3582(4)
O2 O 0.0704(3) 0.4419(5) 0.4244(4)
O3 O 0.2209(4) 0.3656(5) 0.3942(5)
O4 O 0.0498(3) 0.9102(5) 0.7378(3)
O5 O -0.0650(3) 0.7504(5) 0.6808(4)
O6 O 0.2815(2) 0.9103(4) 0.5700(3)
O7 O 0.2021(3) 1.1271(4) 0.5938(4)
O8 O 0.0738(4) 0.7493(6) 0.2564(4)
O9 O -0.0255(3) 0.7702(5) 0.3885(3)
H1 H -0.03600 0.99030 0.48400
H2 H 0.04650 1.12060 0.46790
H3 H 0.01140 1.07520 0.58220
H4 H 0.14340 1.07100 0.33550
H5 H 0.20600 0.94750 0.27090
H6 H 0.25340 1.02480 0.37190
H7 H 0.13340 0.40760 0.64430
H8 H 0.02580 0.48370 0.65930
H9 H 0.11680 0.53580 0.73130
H10 H 0.35280 0.51520 0.49480
H11 H 0.29440 0.44690 0.59250
H12 H 0.33170 0.62130 0.59340
#END
