
#######################################################################
#
#                 Cambridge Crystallographic Data Centre
#                                CCDC
#
#######################################################################
#
# If this CIF has been generated from an entry in the Cambridge
# Structural Database, then it will include bibliographic, chemical,
# crystal, experimental, refinement or atomic coordinate data resulting
# from the CCDC's data processing and validation procedures.
#
#######################################################################

data_CSD_CIF_DAVXIH
_audit_creation_date 1986-05-18
_audit_creation_method CSD-ConQuest-V1
_database_code_CSD DAVXIH
_chemical_formula_sum 'C10 H13 N3 O8'
_chemical_formula_moiety
;
C10 H13 N3 O8
;
_journal_coden_Cambridge 154
_journal_volume 38
_journal_year 1985
_journal_page_first 145
_journal_name_full 'Aust.J.Chem. '
loop_
_publ_author_name
"M.P.Hartshorn"
"W.T.Robinson"
"J.Vaughan"
"J.M.White"
_chemical_name_systematic
;
r-2-Hydroxy-2,3,5,6-tetramethyl-4,t-5,t-6-trinitrocyclohex-3-enone
;
_chemical_melting_point 440.15
_cell_volume   1325.364
_exptl_crystal_colour 'colorless'
_exptl_crystal_density_diffrn 1.52
_exptl_special_details
;
Melting point range 440.15-440.65K

;
_diffrn_ambient_temperature ?
_diffrn_special_details
;
The study was carried out at room temperature,in the range 283-303K

;
#These two values have been output from a single CSD field.
_refine_ls_R_factor_gt 0.04
_refine_ls_wR_factor_gt 0.04
_symmetry_cell_setting monoclinic
_symmetry_space_group_name_H-M 'P 21/c'
_symmetry_Int_Tables_number 14
loop_
_symmetry_equiv_pos_site_id
_symmetry_equiv_pos_as_xyz
1 x,y,z
2 -x,1/2+y,1/2-z
3 -x,-y,-z
4 x,-1/2-y,-1/2+z
_cell_length_a 6.628(1)
_cell_length_b 8.402(1)
_cell_length_c 23.941(4)
_cell_angle_alpha 90
_cell_angle_beta 96.23(1)
_cell_angle_gamma 90
_cell_formula_units_Z 4
loop_
_atom_type_symbol
_atom_type_radius_bond
C 0.68
H 0.23
N 0.68
O 0.68
loop_
_atom_site_label
_atom_site_type_symbol
_atom_site_fract_x
_atom_site_fract_y
_atom_site_fract_z
C1 C 0.3905(4) 0.3422(3) 0.0634(1)
C2 C 0.3917(4) 0.4879(3) 0.1024(1)
C3 C 0.2861(4) 0.4569(3) 0.1549(1)
C4 C 0.2229(4) 0.3122(3) 0.1665(1)
C5 C 0.2345(4) 0.1619(3) 0.1322(1)
C6 C 0.2256(4) 0.2172(3) 0.0701(1)
C7 C 0.6058(4) 0.5496(4) 0.1168(1)
C8 C 0.2581(5) 0.5990(3) 0.1912(1)
C9 C 0.0785(4) 0.0361(3) 0.1423(1)
C10 C 0.0171(4) 0.2856(4) 0.0490(1)
N1 N 0.1324(4) 0.2874(3) 0.2195(1)
N2 N 0.4519(4) 0.0939(3) 0.1505(1)
N3 N 0.2666(4) 0.0777(3) 0.0313(1)
O1 O 0.4989(3) 0.3341(2) 0.0264(1)
O2 O 0.2659(3) 0.6035(2) 0.0708(1)
O3 O -0.0343(4) 0.3444(3) 0.2235(1)
O4 O 0.2295(4) 0.2097(3) 0.2554(1)
O5 O 0.5926(3) 0.1755(3) 0.1386(1)
O6 O 0.4689(3) -0.0293(3) 0.1764(1)
O7 O 0.1989(4) 0.0890(3) -0.0178(1)
O8 O 0.3655(4) -0.0335(3) 0.0513(1)
H1 H 0.3364(57) 0.6503(46) 0.0538(17)
H2 H -0.05530 0.07680 0.13130
H3 H 0.09120 0.00860 0.18140
H4 H 0.10080 -0.05690 0.12050
H5 H 0.31540 0.69120 0.17530
H6 H 0.32500 0.58060 0.22830
H7 H 0.11590 0.61600 0.19340
H8 H -0.01300 0.37330 0.07250
H9 H -0.08440 0.20460 0.05040
H10 H 0.01790 0.32170 0.01100
H11 H 0.68580 0.47030 0.13790
H12 H 0.60240 0.64480 0.13890
H13 H 0.66480 0.57270 0.08280
#END
