
#######################################################################
#
#                 Cambridge Crystallographic Data Centre
#                                CCDC
#
#######################################################################
#
# If this CIF has been generated from an entry in the Cambridge
# Structural Database, then it will include bibliographic, chemical,
# crystal, experimental, refinement or atomic coordinate data resulting
# from the CCDC's data processing and validation procedures.
#
#######################################################################

data_CSD_CIF_DAVXUT
_audit_creation_date 1986-05-18
_audit_creation_method CSD-ConQuest-V1
_database_code_CSD DAVXUT
_chemical_formula_sum 'C10 H13 N3 O8'
_chemical_formula_moiety
;
C10 H13 N3 O8
;
_journal_coden_Cambridge 154
_journal_volume 38
_journal_year 1985
_journal_page_first 145
_journal_name_full 'Aust.J.Chem. '
loop_
_publ_author_name
"M.P.Hartshorn"
"W.T.Robinson"
"J.Vaughan"
"J.M.White"
_chemical_name_systematic
;
t-6-Hydroxy-2,3,5,6-tetramethyl-r-2,4,t-5-trinitrocyclohex-3-enone
;
_chemical_melting_point 391.15
_cell_volume   1346.788
_exptl_crystal_colour 'colorless'
_exptl_crystal_density_diffrn 1.49
_exptl_special_details
;
Melts with decomposition.

;
_diffrn_ambient_temperature ?
_diffrn_special_details
;
The study was carried out at room temperature,in the range 283-303K

;
#These two values have been output from a single CSD field.
_refine_ls_R_factor_gt 0.061
_refine_ls_wR_factor_gt 0.061
loop_
_citation_database_id_CSD
_citation_special_details
DAVXON "is a stereoisomer of this entry"
_symmetry_cell_setting monoclinic
_symmetry_space_group_name_H-M 'P 21/c'
_symmetry_Int_Tables_number 14
loop_
_symmetry_equiv_pos_site_id
_symmetry_equiv_pos_as_xyz
1 x,y,z
2 -x,1/2+y,1/2-z
3 -x,-y,-z
4 x,-1/2-y,-1/2+z
_cell_length_a 10.648(2)
_cell_length_b 15.206(3)
_cell_length_c 8.363(3)
_cell_angle_alpha 90
_cell_angle_beta 95.95(2)
_cell_angle_gamma 90
_cell_formula_units_Z 4
loop_
_atom_type_symbol
_atom_type_radius_bond
C 0.68
H 0.23
N 0.68
O 0.68
loop_
_atom_site_label
_atom_site_type_symbol
_atom_site_fract_x
_atom_site_fract_y
_atom_site_fract_z
C1 C 0.2737(5) 0.9737(3) 0.1178(6)
C2 C 0.2517(4) 0.9072(3) 0.2510(5)
C3 C 0.2342(5) 0.9483(3) 0.4126(5)
C4 C 0.2229(4) 1.0348(3) 0.4222(5)
C5 C 0.2284(4) 1.1032(3) 0.2939(6)
C6 C 0.3076(5) 1.0684(3) 0.1620(6)
C7 C 0.1459(5) 0.8448(4) 0.1924(7)
C8 C 0.2199(6) 0.8870(4) 0.5502(6)
C9 C 0.2715(6) 1.1932(3) 0.3558(6)
C10 C 0.4481(5) 1.0709(4) 0.2198(7)
N1 N 0.3763(4) 0.8532(3) 0.2727(6)
N2 N 0.1916(7) 1.0724(3) 0.5791(5)
N3 N 0.0927(5) 1.1112(4) 0.2078(5)
O1 O 0.2692(4) 0.9500(2) -0.0202(4)
O2 O 0.4557(4) 0.8743(3) 0.3780(6)
O3 O 0.3900(5) 0.7952(4) 0.1792(7)
O4 O 0.2766(5) 1.0738(3) 0.6897(5)
O5 O 0.0852(5) 1.1001(4) 0.5823(6)
O6 O 0.0446(4) 1.0444(3) 0.1531(5)
O7 O 0.0425(5) 1.1826(3) 0.1994(6)
O8 O 0.2844(4) 1.1233(2) 0.0283(4)
H1 H 0.2684(49) 1.1002(33) -0.0441(62)
H2 H 0.23140 0.82750 0.51640
H3 H 0.13700 0.89350 0.58430
H4 H 0.28210 0.90090 0.63800
H5 H 0.46440 1.03490 0.31410
H6 H 0.47310 1.13030 0.24510
H7 H 0.49550 1.04890 0.13670
H8 H 0.06770 0.87660 0.17710
H9 H 0.13970 0.79920 0.27070
H10 H 0.16340 0.81900 0.09230
H11 H 0.35550 1.18900 0.40920
H12 H 0.21540 1.21410 0.43020
H13 H 0.27080 1.23340 0.26730
#END
