
#######################################################################
#
#                 Cambridge Crystallographic Data Centre
#                                CCDC
#
#######################################################################
#
# If this CIF has been generated from an entry in the Cambridge
# Structural Database, then it will include bibliographic, chemical,
# crystal, experimental, refinement or atomic coordinate data resulting
# from the CCDC's data processing and validation procedures.
#
#######################################################################

data_CSD_CIF_DAVYAA
_audit_creation_date 1986-05-18
_audit_creation_method CSD-ConQuest-V1
_database_code_CSD DAVYAA
_chemical_formula_sum 'C10 H14 N2 O7'
_chemical_formula_moiety
;
C10 H14 N2 O7
;
_journal_coden_Cambridge 154
_journal_volume 38
_journal_year 1985
_journal_page_first 145
_journal_name_full 'Aust.J.Chem. '
loop_
_publ_author_name
"M.P.Hartshorn"
"W.T.Robinson"
"J.Vaughan"
"J.M.White"
_chemical_name_systematic
;
1-Acetyl-2,3,5-trimethyl-4,c-5-dinitrocyclopent-3-ene-r-1,t-2-diol
;
_chemical_melting_point 393.15
_cell_volume    608.448
_exptl_crystal_colour 'colorless'
_exptl_crystal_density_diffrn 1.5
_exptl_special_details
;
Melts with decomposition.

;
_diffrn_ambient_temperature ?
_diffrn_special_details
;
The study was carried out at room temperature,in the range 283-303K

;
#These two values have been output from a single CSD field.
_refine_ls_R_factor_gt 0.053
_refine_ls_wR_factor_gt 0.053
_symmetry_cell_setting triclinic
_symmetry_space_group_name_H-M 'P -1'
_symmetry_Int_Tables_number 2
loop_
_symmetry_equiv_pos_site_id
_symmetry_equiv_pos_as_xyz
1 x,y,z
2 -x,-y,-z
_cell_length_a 6.100(3)
_cell_length_b 8.031(4)
_cell_length_c 13.619(8)
_cell_angle_alpha 75.06(3)
_cell_angle_beta 83.52(2)
_cell_angle_gamma 70.79(3)
_cell_formula_units_Z 2
loop_
_atom_type_symbol
_atom_type_radius_bond
C 0.68
H 0.23
N 0.68
O 0.68
loop_
_atom_site_label
_atom_site_type_symbol
_atom_site_fract_x
_atom_site_fract_y
_atom_site_fract_z
C1 C 0.1708(17) 0.3026(13) 0.2094(8)
C2 C 0.1692(18) 0.2201(13) 0.3262(8)
C3 C 0.2197(17) 0.3619(13) 0.3672(8)
C4 C 0.1713(16) 0.5205(13) 0.2987(7)
C5 C 0.1068(16) 0.5121(12) 0.1981(7)
C6 C 0.4363(18) 0.2329(14) 0.1719(7)
C7 C 0.4972(18) 0.0854(14) 0.1162(8)
C8 C 0.1926(18) 0.6173(13) 0.0979(7)
C9 C 0.2968(19) 0.3156(15) 0.4735(7)
C10 C -0.0663(18) 0.1949(13) 0.3683(8)
N1 N 0.1719(15) 0.6914(11) 0.3131(6)
N2 N -0.1633(14) 0.5931(10) 0.1900(7)
O1 O 0.0399(12) 0.2487(8) 0.1517(5)
O2 O 0.3495(13) 0.0511(9) 0.3547(6)
O3 O 0.0844(18) 0.8293(11) 0.2492(7)
O4 O 0.2581(14) 0.6913(10) 0.3901(6)
O5 O -0.2539(12) 0.6256(9) 0.1081(15)
O6 O -0.2803(12) 0.6218(10) 0.2689(6)
O7 O 0.5733(12) 0.2907(9) 0.1959(5)
H1 H 0.41730 -0.00120 0.14650
H2 H 0.66170 0.02510 0.11710
H3 H 0.45050 0.14030 0.04730
H4 H 0.35030 0.60470 0.10940
H5 H 0.10480 0.74370 0.07950
H6 H 0.18960 0.56130 0.04390
H7 H 0.26650 0.20180 0.49800
H8 H 0.20210 0.40050 0.51160
H9 H 0.45770 0.29820 0.48170
H10 H -0.19720 0.30220 0.35070
H11 H -0.06550 0.14900 0.44080
H12 H -0.07710 0.10460 0.33630
H13 H -0.056(29) 0.223(25) 0.098(12)
H14 H 0.499(22) -0.057(18) 0.388(14)
#END
