
#######################################################################
#
#                 Cambridge Crystallographic Data Centre
#                                CCDC
#
#######################################################################
#
# If this CIF has been generated from an entry in the Cambridge
# Structural Database, then it will include bibliographic, chemical,
# crystal, experimental, refinement or atomic coordinate data resulting
# from the CCDC's data processing and validation procedures.
#
#######################################################################

data_CSD_CIF_DAWDOV
_audit_creation_date 2006-02-13
_audit_creation_method CSD-ConQuest-V1
_database_code_CSD DAWDOV
_database_code_depnum_ccdc_archive 'CCDC 249575'
_chemical_formula_sum 'C34 H43 N6 O8'
_chemical_formula_moiety
;
C34 H43 N6 O8
;
_journal_coden_Cambridge 1096
_journal_volume 17
_journal_year 2005
_journal_page_first 4486
_journal_name_full 'Chem.Mater. '
loop_
_publ_author_name
"T.Ise"
"D.Shiomi"
"K.Sato"
"T.Takui"
_chemical_name_systematic
;
4-(1'-Oxyl-3'-oxido-4',4',5',5'-tetramethylimidazolin-2'-yl)benzoic acid 
2,5-bis(1''-oxyl-3''-oxido-4'',4'',5'',5''-tetramethylimidazolin-2''-yl)phenyl
 ester
;
_cell_volume   1678.886
_exptl_crystal_colour 'blue'
_exptl_crystal_density_diffrn 1.313
_exptl_crystal_description 'platelet'
_diffrn_ambient_temperature 105.1
#These two values have been output from a single CSD field.
_refine_ls_R_factor_gt 0.105
_refine_ls_wR_factor_gt 0.105
_symmetry_cell_setting triclinic
_symmetry_space_group_name_H-M 'P -1'
_symmetry_Int_Tables_number 2
loop_
_symmetry_equiv_pos_site_id
_symmetry_equiv_pos_as_xyz
1 x,y,z
2 -x,-y,-z
_cell_length_a 11.773(3)
_cell_length_b 12.173(3)
_cell_length_c 14.493(2)
_cell_angle_alpha 62.95(5)
_cell_angle_beta 67.76(5)
_cell_angle_gamma 70.49(5)
_cell_formula_units_Z 2
loop_
_atom_type_symbol
_atom_type_radius_bond
C 0.68
H 0.23
N 0.68
O 0.68
loop_
_atom_site_label
_atom_site_type_symbol
_atom_site_fract_x
_atom_site_fract_y
_atom_site_fract_z
O1 O 0.8576(4) 0.2833(4) 1.1324(3)
O2 O 0.8650(5) -0.1460(4) 1.3027(3)
O3 O 0.7197(4) 0.2156(4) 0.7541(3)
O4 O 0.6473(4) 0.0321(4) 0.8609(3)
O5 O 0.5427(4) -0.1817(4) 1.0207(3)
O6 O 0.8040(4) -0.2753(4) 0.7234(3)
O7 O 0.3707(4) 0.3882(4) 0.6871(3)
O8 O 0.4045(4) 0.1990(4) 0.4616(3)
N1 N 0.8611(5) 0.1701(4) 1.2019(3)
N2 N 0.8656(5) -0.0321(5) 1.2817(4)
N3 N 0.6273(5) -0.2402(4) 0.9623(4)
N4 N 0.7498(5) -0.2850(4) 0.8224(4)
N5 N 0.3596(5) 0.3676(4) 0.6102(3)
N6 N 0.3690(5) 0.2765(4) 0.5088(3)
C1 C 0.8554(7) 0.0653(5) 1.1921(4)
C2 C 0.8939(7) 0.0009(6) 1.3588(4)
C3 C 0.8519(7) 0.1417(6) 1.3168(4)
C4 C 0.8323(9) -0.0697(7) 1.4722(5)
C5 C 1.0389(8) -0.0383(7) 1.3374(5)
C6 C 0.7117(8) 0.1843(8) 1.3651(6)
C7 C 0.9275(7) 0.2197(7) 1.3213(5)
C8 C 0.8322(6) 0.0688(5) 1.0986(4)
C9 C 0.7617(6) -0.0102(6) 1.1131(4)
C10 C 0.7167(6) 0.0037(6) 1.0314(4)
C11 C 0.7542(6) 0.0966(6) 0.9295(5)
C12 C 0.8334(6) 0.1692(6) 0.9123(4)
C13 C 0.8703(6) 0.1592(6) 0.9971(4)
C14 C 0.7035(6) 0.1235(6) 0.8397(4)
C15 C 0.5922(7) 0.0402(6) 0.7860(4)
C16 C 0.6047(6) -0.0764(6) 0.7832(4)
C17 C 0.5593(7) -0.0790(6) 0.7080(4)
C18 C 0.4993(7) 0.0324(6) 0.6429(5)
C19 C 0.4779(6) 0.1466(6) 0.6522(4)
C20 C 0.5263(6) 0.1486(5) 0.7287(4)
C21 C 0.6640(6) -0.1938(6) 0.8528(4)
C22 C 0.7616(6) -0.4071(6) 0.9152(4)
C23 C 0.7080(6) -0.3655(6) 1.0115(4)
C24 C 0.6849(6) -0.4859(5) 0.9152(4)
C25 C 0.9007(6) -0.4716(6) 0.8988(5)
C26 C 0.6231(7) -0.4469(6) 1.1106(5)
C27 C 0.8048(7) -0.3375(6) 1.0416(5)
C28 C 0.4052(5) 0.2596(5) 0.5947(4)
C29 C 0.2742(6) 0.4639(5) 0.5429(4)
C30 C 0.3055(6) 0.4120(5) 0.4555(4)
C31 C 0.1448(7) 0.4602(6) 0.6140(4)
C32 C 0.3063(7) 0.5923(5) 0.5019(4)
C33 C 0.1931(6) 0.4065(6) 0.4313(4)
C34 C 0.4004(6) 0.4699(5) 0.3519(4)
H1 H 0.85360 -0.04780 1.51790
H2 H 0.86010 -0.15750 1.48810
H3 H 0.74410 -0.04850 1.48350
H4 H 1.06420 -0.01930 1.38260
H5 H 1.06430 -0.12590 1.35180
H6 H 1.07660 0.00730 1.26420
H7 H 0.69700 0.16980 1.43840
H8 H 0.66640 0.13640 1.36020
H9 H 0.68470 0.27110 1.32670
H10 H 0.89750 0.30670 1.28600
H11 H 0.91750 0.20220 1.39450
H12 H 1.01370 0.19810 1.28710
H13 H 0.74250 -0.07630 1.18110
H14 H 0.66510 -0.04940 1.04290
H15 H 0.86090 0.22870 0.84210
H16 H 0.92360 0.21060 0.98550
H17 H 0.57340 -0.15550 0.69900
H18 H 0.46580 0.02990 0.59380
H19 H 0.51630 0.22480 0.73670
H20 H 0.60010 -0.44310 0.92710
H21 H 0.69230 -0.56640 0.97140
H22 H 0.71180 -0.49550 0.84820
H23 H 0.94780 -0.41940 0.89560
H24 H 0.93050 -0.48550 0.83350
H25 H 0.90960 -0.54990 0.95720
H26 H 0.56130 -0.45940 1.09100
H27 H 0.67250 -0.52590 1.14240
H28 H 0.58340 -0.40650 1.16070
H29 H 0.76260 -0.29940 1.09320
H30 H 0.85860 -0.41410 1.07130
H31 H 0.85290 -0.28230 0.97920
H32 H 0.12680 0.37870 0.64230
H33 H 0.13760 0.48200 0.67140
H34 H 0.08720 0.51960 0.57430
H35 H 0.29420 0.61350 0.56090
H36 H 0.25300 0.65320 0.45850
H37 H 0.39100 0.59050 0.46020
H38 H 0.15280 0.48980 0.39620
H39 H 0.21710 0.35990 0.38690
H40 H 0.13720 0.36720 0.49780
H41 H 0.42370 0.42290 0.30800
H42 H 0.36450 0.55440 0.31500
H43 H 0.47240 0.46860 0.36750
#END
