
#######################################################################
#
#                 Cambridge Crystallographic Data Centre
#                                CCDC
#
#######################################################################
#
# If this CIF has been generated from an entry in the Cambridge
# Structural Database, then it will include bibliographic, chemical,
# crystal, experimental, refinement or atomic coordinate data resulting
# from the CCDC's data processing and validation procedures.
#
#######################################################################

data_CSD_CIF_DAWNUK
_audit_creation_date 1986-05-18
_audit_creation_method CSD-ConQuest-V1
_database_code_CSD DAWNUK
_chemical_formula_sum 'C15 H23 N3 O7'
_chemical_formula_moiety
;
C15 H23 N3 O7
;
_journal_coden_Cambridge 154
_journal_volume 38
_journal_year 1985
_journal_page_first 161
_journal_name_full 'Aust.J.Chem. '
loop_
_publ_author_name
"M.P.Hartshorn"
"W.T.Robinson"
"K.H.Sutton"
"J.Vaughan"
_chemical_name_systematic
;
2,4-Di-t-butyl-6-methyl-r-2,c-5,c-6-trinitrocyclohex-3-enone
;
_chemical_melting_point 405.15
_cell_volume   3578.788
_exptl_crystal_colour 'colorless'
_exptl_crystal_density_diffrn 1.32
_exptl_special_details
;
Melts with decomposition.

;
_diffrn_ambient_temperature ?
_diffrn_special_details
;
The study was carried out at room temperature,in the range 283-303K

;
#These two values have been output from a single CSD field.
_refine_ls_R_factor_gt 0.046
_refine_ls_wR_factor_gt 0.046
loop_
_citation_database_id_CSD
_citation_special_details
DAWNIY "is a stereoisomer of this entry"
DAWNOE "is a stereoisomer of this entry"
_symmetry_cell_setting orthorhombic
_symmetry_space_group_name_H-M 'P b c a'
_symmetry_Int_Tables_number 61
loop_
_symmetry_equiv_pos_site_id
_symmetry_equiv_pos_as_xyz
1 x,y,z
2 1/2-x,-y,1/2+z
3 1/2+x,1/2-y,-z
4 -x,1/2+y,1/2-z
5 -x,-y,-z
6 -1/2+x,y,-1/2-z
7 -1/2-x,-1/2+y,z
8 x,-1/2-y,-1/2+z
_cell_length_a 14.459(3)
_cell_length_b 12.461(2)
_cell_length_c 19.863(4)
_cell_angle_alpha 90
_cell_angle_beta 90
_cell_angle_gamma 90
_cell_formula_units_Z 8
loop_
_atom_type_symbol
_atom_type_radius_bond
C 0.68
H 0.23
N 0.68
O 0.68
loop_
_atom_site_label
_atom_site_type_symbol
_atom_site_fract_x
_atom_site_fract_y
_atom_site_fract_z
C1 C 0.4482(3) 0.1229(4) 0.8135(2)
C2 C 0.3569(3) 0.1767(4) 0.7925(2)
C3 C 0.2803(3) 0.1568(4) 0.8413(2)
C4 C 0.2878(3) 0.1215(3) 0.9043(2)
C5 C 0.3842(3) 0.1012(4) 0.9318(2)
C6 C 0.4441(3) 0.0506(4) 0.8768(2)
C7 C 0.3265(3) 0.1490(4) 0.7175(2)
C8 C 0.2050(3) 0.0976(4) 0.9505(2)
C9 C 0.4098(3) -0.0632(3) 0.8606(2)
C10 C 0.2993(4) 0.0312(5) 0.7155(3)
C11 C 0.4032(4) 0.1675(5) 0.6654(3)
C12 C 0.2441(4) 0.2178(5) 0.6957(3)
C13 C 0.1144(3) 0.1151(5) 0.9145(3)
C14 C 0.2084(3) -0.0192(4) 0.9746(3)
C15 C 0.2101(4) 0.1707(5) 1.0126(3)
N1 N 0.3757(3) 0.3007(3) 0.7929(2)
N2 N 0.4248(3) 0.2075(4) 0.9559(2)
N3 N 0.5436(3) 0.0366(3) 0.9013(2)
O1 O 0.5182(2) 0.1306(3) 0.7822(2)
O2 O 0.3140(2) 0.3562(3) 0.8153(2)
O3 O 0.4469(3) 0.3341(3) 0.7701(2)
O4 O 0.4523(3) 0.2692(3) 0.9134(2)
O5 O 0.4272(3) 0.2237(4) 1.0159(2)
O6 O 0.5679(2) 0.0865(3) 0.9507(2)
O7 O 0.5928(2) -0.0254(3) 0.8722(2)
H1 H 0.34550 -0.05940 0.84880
H2 H 0.41720 -0.10720 0.89990
H3 H 0.44400 -0.09370 0.82390
H4 H 0.35430 -0.01020 0.72300
H5 H 0.27670 0.01790 0.67080
H6 H 0.25300 0.01090 0.74770
H7 H 0.44950 0.11490 0.67600
H8 H 0.43050 0.23770 0.66580
H9 H 0.37810 0.15300 0.62160
H10 H 0.19320 0.20270 0.72520
H11 H 0.22720 0.19970 0.65030
H12 H 0.25910 0.29280 0.69810
H13 H 0.10710 0.18760 0.89910
H14 H 0.06450 0.09710 0.94430
H15 H 0.11380 0.06740 0.87650
H16 H 0.20780 -0.06790 0.93710
H17 H 0.15450 -0.03080 1.00180
H18 H 0.26290 -0.03140 1.00110
H19 H 0.21050 0.24280 0.99560
H20 H 0.26480 0.15860 1.03880
H21 H 0.15640 0.16040 1.04030
H22 H 0.3814(24) 0.0575(24) 0.9714(12)
H23 H 0.2191(15) 0.1698(30) 0.8277(18)
#END
