
#######################################################################
#
#                 Cambridge Crystallographic Data Centre
#                                CCDC
#
#######################################################################
#
# If this CIF has been generated from an entry in the Cambridge
# Structural Database, then it will include bibliographic, chemical,
# crystal, experimental, refinement or atomic coordinate data resulting
# from the CCDC's data processing and validation procedures.
#
#######################################################################

data_CSD_CIF_DAWNOE
_audit_creation_date 1986-05-18
_audit_creation_method CSD-ConQuest-V1
_database_code_CSD DAWNOE
_chemical_formula_sum 'C15 H23 N3 O7'
_chemical_formula_moiety
;
C15 H23 N3 O7
;
_journal_coden_Cambridge 154
_journal_volume 38
_journal_year 1985
_journal_page_first 161
_journal_name_full 'Aust.J.Chem. '
loop_
_publ_author_name
"M.P.Hartshorn"
"W.T.Robinson"
"K.H.Sutton"
"J.Vaughan"
_chemical_name_systematic
;
2,4-Di-t-butyl-6-methyl-r-2,t-5,t-6-trinitrocyclohex-3-enone
;
_chemical_melting_point 383.15
_cell_volume   3592.356
_exptl_crystal_colour 'colorless'
_exptl_crystal_density_diffrn 1.32
_exptl_special_details
;
Melts with decomposition.

;
_diffrn_ambient_temperature ?
_diffrn_special_details
;
The study was carried out at room temperature,in the range 283-303K

;
#These two values have been output from a single CSD field.
_refine_ls_R_factor_gt 0.056
_refine_ls_wR_factor_gt 0.056
loop_
_citation_database_id_CSD
_citation_special_details
DAWNIY "is a stereoisomer of this entry"
DAWNUK "is a stereoisomer of this entry"
_symmetry_cell_setting monoclinic
_symmetry_space_group_name_H-M 'P 21/c'
_symmetry_Int_Tables_number 14
loop_
_symmetry_equiv_pos_site_id
_symmetry_equiv_pos_as_xyz
1 x,y,z
2 -x,1/2+y,1/2-z
3 -x,-y,-z
4 x,-1/2-y,-1/2+z
_cell_length_a 17.259(3)
_cell_length_b 12.659(2)
_cell_length_c 18.269(3)
_cell_angle_alpha 90
_cell_angle_beta 115.84(1)
_cell_angle_gamma 90
_cell_formula_units_Z 8
loop_
_atom_type_symbol
_atom_type_radius_bond
C 0.68
H 0.23
N 0.68
O 0.68
loop_
_atom_site_label
_atom_site_type_symbol
_atom_site_fract_x
_atom_site_fract_y
_atom_site_fract_z
C1 C 0.8538(3) 0.3055(4) 0.1207(3)
C2 C 0.8231(3) 0.2156(4) 0.1575(3)
C3 C 0.84803 0.2362(4) 0.2465(3)
C4 C 0.8904(3) 0.3169(4) 0.2907(3)
C5 C 0.9186(3) 0.4065(4) 0.2523(3)
C6 C 0.9349(3) 0.3634(4) 0.1822(3)
C7 C 0.7259(3) 0.1818(4) 0.1074(3)
C8 C 0.9173(4) 0.3251(5) 0.3822(3)
C9 C 1.0155(3) 0.2936(4) 0.2171(3)
C10 C 0.7004(4) 0.0964(5) 0.1520(4)
C11 C 0.7069(4) 0.1405(5) 0.0225(3)
C12 C 0.6694(3) 0.2791(4) 0.0981(4)
C13 C 0.8869(6) 0.4248(6) 0.4045(4)
C14 C 0.8893(6) 0.2296(6) 0.4137(4)
C15 C 1.0144(4) 0.3270(7) 0.4261(4)
N1 N 0.8776(3) 0.1177(4) 0.1558(3)
N2 N 0.8484(3) 0.4915(3) 0.2240(3)
N3 N 0.9540(3) 0.4524(3) 0.1354(2)
O1 O 0.8191(2) 0.3313(3) 0.0511(2)
O2 O 0.8906(3) 0.0480(3) 0.2051(3)
O3 O 0.9029(3) 0.1174(3) 0.1030(3)
O4 O 0.7816(2) 0.4692(3) 0.1651(2)
O5 O 0.8642(3) 0.5743(3) 0.2606(2)
O6 O 0.9816(2) 0.4265(3) 0.0877(2)
O7 O 0.9371(3) 0.5424(3) 0.1462(2)
H1 H 0.8345(24) 0.1762(32) 0.2699(23)
H2 H 0.9683(26) 0.4414(30) 0.2933(24)
H3 H 1.01190 0.23510 0.24890
H4 H 1.06090 0.34020 0.25100
H5 H 1.02750 0.26780 0.17370
H6 H 0.70470 0.12070 0.20340
H7 H 0.73860 0.03770 0.16060
H8 H 0.64230 0.07470 0.11830
H9 H 0.72320 0.18930 -0.00850
H10 H 0.64620 0.12710 -0.00540
H11 H 0.73790 0.07560 0.02900
H12 H 0.68130 0.31020 0.14980
H13 H 0.61070 0.25530 0.07270
H14 H 0.67820 0.33080 0.06400
H15 H 0.82610 0.41500 0.37340
H16 H 0.90400 0.49000 0.38900
H17 H 0.90050 0.42700 0.46140
H18 H 0.82870 0.24400 0.38780
H19 H 0.91000 0.23380 0.47160
H20 H 0.89970 0.16000 0.39900
H21 H 1.04180 0.38610 0.41410
H22 H 1.03350 0.26270 0.41140
H23 H 1.02930 0.32610 0.48330
C16 C 0.6639(3) 0.6039(4) 0.8142(3)
C17 C 0.5919(3) 0.5685(4) 0.8372(3)
C18 C 0.6018(3) 0.6225(4) 0.9143(3)
C19 C 0.6619(3) 0.6892(4) 0.9601(3)
C20 C 0.7342(3) 0.7182(4) 0.9374(3)
C21 C 0.7489(3) 0.6309(4) 0.8871(3)
C22 C 0.4982(3) 0.5754(4) 0.7667(3)
C23 C 0.6594(3) 0.7406(4) 1.0351(3)
C24 C 0.7925(3) 0.5381(4) 0.9430(3)
C25 C 0.4330(4) 0.5339(5) 0.7965(4)
C26 C 0.4860(3) 0.5109(5) 0.6918(3)
C27 C 0.4793(4) 0.6909(4) 0.7430(4)
C28 C 0.6173(4) 0.6676(5) 1.0743(3)
C29 C 0.7503(3) 0.7703(5) 1.1006(3)
C30 C 0.6041(4) 0.8419(4) 1.0080(3)
N4 N 0.6109(3) 0.4490(4) 0.8581(3)
N5 N 0.7119(3) 0.8234(4) 0.8919(4)
N6 N 0.8113(3) 0.6646(4) 0.8534(3)
O8 O 0.6540(2) 0.6127(3) 0.7451(2)
O9 O 0.6448(3) 0.4009(3) 0.8217(2)
O10 O 0.5907(3) 0.4100(3) 0.9076(2)
O11 O 0.6600(2) 0.8207(3) 0.8210(2)
O12 O 0.7460(3) 0.9023(3) 0.9309(3)
O13 O 0.8432(2) 0.7518(3) 0.8710(2)
O14 O 0.8288(3) 0.5991(4) 0.8141(3)
H24 H 0.5563(25) 0.6004(31) 0.9264(22)
H25 H 0.7859(25) 0.7343(28) 0.9836(23)
H26 H 0.76310 0.51060 0.97300
H27 H 0.85000 0.55810 0.98010
H28 H 0.79470 0.48500 0.90650
H29 H 0.43710 0.57940 0.84000
H30 H 0.44270 0.46210 0.81530
H31 H 0.37660 0.54000 0.75210
H32 H 0.52360 0.53320 0.66850
H33 H 0.42720 0.51910 0.65240
H34 H 0.49700 0.43810 0.70760
H35 H 0.42090 0.69450 0.70190
H36 H 0.51720 0.71740 0.72140
H37 H 0.48520 0.73280 0.78900
H38 H 0.64880 0.60240 1.08820
H39 H 0.55800 0.65340 1.03890
H40 H 0.62140 0.70140 1.12290
H41 H 0.78690 0.70950 1.12010
H42 H 0.73840 0.79820 1.14350
H43 H 0.77860 0.82310 1.08330
H44 H 0.63210 0.88940 0.98620
H45 H 0.60240 0.87320 1.05520
H46 H 0.54640 0.82850 0.96780
#END
