
#######################################################################
#
#                 Cambridge Crystallographic Data Centre
#                                CCDC
#
#######################################################################
#
# If this CIF has been generated from an entry in the Cambridge
# Structural Database, then it will include bibliographic, chemical,
# crystal, experimental, refinement or atomic coordinate data resulting
# from the CCDC's data processing and validation procedures.
#
#######################################################################

data_CSD_CIF_DAWYEI
_audit_creation_date 2017-05-22
_audit_creation_method CSD-ConQuest-V1
_database_code_CSD DAWYEI
_database_code_depnum_ccdc_archive 'CCDC 1539657'
_chemical_formula_sum 'C26 H20 N2 O7'
_chemical_formula_moiety
;
C26 H20 N2 O7
;
_journal_coden_Cambridge 179
_journal_volume 56
_journal_year 2017
_journal_page_first 7213
_journal_name_full 'Angew.Chem.,Int.Ed. '
loop_
_publ_author_name
"Ren-Zhe Li"
"Hua Tang"
"Ke R.Yang"
"Li-Qiang Wan"
"Xia Zhang"
"Jie Liu"
"Zhengyan Fu"
"Dawen Niu"
_chemical_name_systematic
;
3-[(1-phenylprop-2-yn-1-yl)oxy]-1,2,3,4-tetrahydronaphthalen-2-yl 
3,5-dinitrobenzoate
;
_cell_volume   1123.008
_exptl_crystal_colour 'colorless'
_exptl_crystal_density_diffrn 1.397
_exptl_special_details
;
Absolute configuration

;
_exptl_crystal_description 'block'
_diffrn_ambient_temperature 294.4
#These two values have been output from a single CSD field.
_refine_ls_R_factor_gt 0.0464
_refine_ls_wR_factor_gt 0.0464
_symmetry_cell_setting monoclinic
_symmetry_space_group_name_H-M 'P 21'
_symmetry_Int_Tables_number 4
loop_
_symmetry_equiv_pos_site_id
_symmetry_equiv_pos_as_xyz
1 x,y,z
2 -x,1/2+y,-z
_cell_length_a 7.69760(17)
_cell_length_b 7.2406(2)
_cell_length_c 20.1619(5)
_cell_angle_alpha 90
_cell_angle_beta 92.051(2)
_cell_angle_gamma 90
_cell_formula_units_Z 2
loop_
_atom_type_symbol
_atom_type_radius_bond
C 0.68
H 0.23
N 0.68
O 0.68
loop_
_atom_site_label
_atom_site_type_symbol
_atom_site_fract_x
_atom_site_fract_y
_atom_site_fract_z
O1 O 0.47779(19) 0.5505(3) 0.30666(9)
O2 O 0.2402(2) 0.3852(3) 0.21636(9)
O3 O 0.0762(3) 0.1334(4) 0.19490(13)
O4 O 0.1733(3) 0.9054(5) 0.06544(15)
N1 N 0.0178(3) 0.8797(5) 0.06222(13)
O5 O -0.0881(4) 0.9935(5) 0.04119(16)
O6 O -0.5038(4) 0.2801(6) 0.09349(17)
C1 C 0.7549(3) 0.7185(4) 0.31661(13)
N2 N -0.4480(3) 0.4172(7) 0.06781(15)
C2 C 0.5637(3) 0.7207(4) 0.29422(13)
H1 H 0.50850 0.81230 0.32240
C3 C 0.3617(3) 0.2790(4) 0.25802(13)
H2 H 0.39040 0.16400 0.23520
C4 C 0.5242(3) 0.3950(4) 0.26707(12)
H3 H 0.56400 0.43650 0.22390
C5 C 0.8881(3) 0.7618(4) 0.27598(15)
H4 H 0.86370 0.79630 0.23220
C6 C -0.0010(3) 0.4208(4) 0.14462(12)
C7 C 0.0605(3) 0.5904(5) 0.12411(12)
H5 H 0.17190 0.62960 0.13660
C8 C 0.5992(3) 0.1880(4) 0.36440(13)
C9 C 0.1083(4) 0.2946(5) 0.18755(14)
C10 C 0.2858(3) 0.2335(4) 0.32418(14)
H6 H 0.19640 0.14010 0.31780
H7 H 0.23160 0.34320 0.34180
C11 C 0.4230(3) 0.1636(4) 0.37405(13)
C12 C -0.2137(4) 0.6475(6) 0.06492(13)
H8 H -0.28450 0.72320 0.03830
C13 C 0.7937(4) 0.6706(5) 0.38192(14)
H9 H 0.70410 0.64300 0.41010
C14 C 0.5315(3) 0.7850(4) 0.22568(16)
C15 C 0.7186(4) 0.1245(5) 0.41244(17)
H10 H 0.83670 0.14270 0.40670
O7 O -0.5304(4) 0.5103(7) 0.0283(2)
C16 C 0.6632(3) 0.2750(4) 0.30192(14)
H11 H 0.69830 0.17850 0.27180
H12 H 0.76440 0.35020 0.31290
C17 C -0.0479(3) 0.7002(5) 0.08449(13)
C18 C -0.1665(4) 0.3628(5) 0.12518(13)
H13 H -0.20720 0.24780 0.13800
C19 C -0.2702(3) 0.4788(6) 0.08632(14)
C20 C 1.0968(3) 0.7046(5) 0.36430(18)
H14 H 1.21170 0.69880 0.38010
C21 C 0.3705(4) 0.0733(5) 0.43095(14)
H15 H 0.25260 0.05680 0.43770
C22 C 1.0593(3) 0.7541(5) 0.30006(18)
H16 H 1.14910 0.78300 0.27220
C23 C 0.9629(4) 0.6632(6) 0.40560(17)
H17 H 0.98740 0.63030 0.44950
C24 C 0.4918(5) 0.0078(5) 0.47753(15)
H18 H 0.45520 -0.05450 0.51490
C25 C 0.6648(5) 0.0346(6) 0.46880(16)
H19 H 0.74620 -0.00730 0.50050
C26 C 0.5010(5) 0.8428(6) 0.17219(19)
H20 H 0.47690 0.88860 0.12980
#END
