
#######################################################################
#
#                 Cambridge Crystallographic Data Centre
#                                CCDC
#
#######################################################################
#
# If this CIF has been generated from an entry in the Cambridge
# Structural Database, then it will include bibliographic, chemical,
# crystal, experimental, refinement or atomic coordinate data resulting
# from the CCDC's data processing and validation procedures.
#
#######################################################################

data_CSD_CIF_DAXBOW
_audit_creation_date 2017-05-22
_audit_creation_method CSD-ConQuest-V1
_database_code_CSD DAXBOW
_database_code_depnum_ccdc_archive 'CCDC 1537495'
_chemical_formula_sum 'C8 H3 N11 O5'
_chemical_formula_moiety
;
C8 H3 N11 O5
;
_journal_coden_Cambridge 1699
_journal_volume 5
_journal_year 2017
_journal_page_first 11063
_journal_name_full 'J.Mater.Chem.A '
loop_
_publ_author_name
"Qi Sun"
"Cheng Shen"
"Xin Li"
"Qiuhan Lin"
"Ming Lu"
_chemical_name_systematic
;
3-(4-{[4-(5-amino-1,2,4-oxadiazol-3-yl)-1,2,5-oxadiazol-3-yl]diazenyl}-1,2,5-o
xadiazol-3-yl)-1,2,4-oxadiazol-5(4H)-one
;
_cell_volume   2462.560
_exptl_crystal_density_diffrn 1.798
_exptl_crystal_description 'plate'
_diffrn_ambient_temperature 173
#These two values have been output from a single CSD field.
_refine_ls_R_factor_gt 0.0607
_refine_ls_wR_factor_gt 0.0607
_symmetry_cell_setting orthorhombic
_symmetry_space_group_name_H-M 'P b c a'
_symmetry_Int_Tables_number 61
loop_
_symmetry_equiv_pos_site_id
_symmetry_equiv_pos_as_xyz
1 x,y,z
2 1/2-x,-y,1/2+z
3 -x,1/2+y,1/2-z
4 1/2+x,1/2-y,-z
5 -x,-y,-z
6 -1/2+x,y,-1/2-z
7 x,-1/2-y,-1/2+z
8 -1/2-x,-1/2+y,z
_cell_length_a 11.5408(8)
_cell_length_b 11.6206(8)
_cell_length_c 18.3621(12)
_cell_angle_alpha 90
_cell_angle_beta 90
_cell_angle_gamma 90
_cell_formula_units_Z 8
loop_
_atom_type_symbol
_atom_type_radius_bond
C 0.68
H 0.23
N 0.68
O 0.68
loop_
_atom_site_label
_atom_site_type_symbol
_atom_site_fract_x
_atom_site_fract_y
_atom_site_fract_z
C1 C 0.2048(3) 0.1129(3) 0.29418(18)
C2 C 0.2490(3) 0.0209(3) 0.33820(17)
C3 C 0.2207(3) -0.0280(3) 0.40973(17)
C4 C 0.1615(3) -0.0519(3) 0.52189(18)
C5 C -0.0174(3) 0.2838(3) 0.36479(18)
C6 C -0.0609(3) 0.3364(3) 0.42843(18)
C7 C -0.0282(3) 0.3177(3) 0.50427(19)
C8 C 0.0334(3) 0.2385(3) 0.59801(19)
N1 N 0.1148(3) 0.1945(2) 0.29965(15)
N2 N 0.0720(2) 0.1989(2) 0.36162(14)
N3 N 0.2638(3) 0.1188(3) 0.23369(15)
N4 N 0.3359(3) -0.0256(3) 0.30299(16)
N5 N 0.2619(3) -0.1281(3) 0.42698(15)
N6 N 0.1597(2) 0.0213(3) 0.46454(15)
H1 H 0.126(3) 0.084(3) 0.4616(18)
N7 N -0.0692(3) 0.3254(3) 0.30799(16)
N8 N -0.1402(3) 0.4107(3) 0.41027(17)
N9 N -0.0567(3) 0.3918(3) 0.55432(16)
N10 N 0.0283(2) 0.2212(2) 0.52731(15)
N11 N 0.0771(4) 0.1707(3) 0.64844(18)
H2 H 0.092(4) 0.105(4) 0.633(2)
H3 H 0.079(4) 0.199(4) 0.694(2)
O1 O 0.3453(2) 0.0352(2) 0.23880(13)
O2 O 0.2257(2) -0.1445(2) 0.50024(12)
O3 O 0.1169(2) -0.0459(2) 0.58093(12)
O4 O -0.1469(2) 0.4043(2) 0.33484(14)
O5 O -0.0137(2) 0.3380(2) 0.61894(13)
#END
