
#######################################################################
#
#                 Cambridge Crystallographic Data Centre
#                                CCDC
#
#######################################################################
#
# If this CIF has been generated from an entry in the Cambridge
# Structural Database, then it will include bibliographic, chemical,
# crystal, experimental, refinement or atomic coordinate data resulting
# from the CCDC's data processing and validation procedures.
#
#######################################################################

data_CSD_CIF_DAXREC
_audit_creation_date 2017-05-22
_audit_creation_method CSD-ConQuest-V1
_database_code_CSD DAXREC
_database_code_depnum_ccdc_archive 'CCDC 1521413'
_chemical_formula_sum 'C19 H14 N2 O4'
_chemical_formula_moiety
;
C19 H14 N2 O4
;
_journal_coden_Cambridge 35
_journal_volume 82
_journal_year 2017
_journal_page_first 5263
_journal_name_full 'J.Org.Chem. '
loop_
_publ_author_name
"Yanan Xie"
"Xiaowei Wu"
"Chunpu Li"
"Jiang Wang"
"Jian Li"
"Hong Liu"
_chemical_name_systematic
;
2-(hydroxy(4-nitrophenyl)methyl)-1-methyl-3H-pyrrolo[1,2-a]indol-3-one
;
_cell_volume   1529.306
_exptl_crystal_colour 'red'
_exptl_crystal_density_diffrn 1.452
_exptl_crystal_description 'block'
_diffrn_ambient_temperature 170
#These two values have been output from a single CSD field.
_refine_ls_R_factor_gt 0.0482
_refine_ls_wR_factor_gt 0.0482
_symmetry_cell_setting monoclinic
_symmetry_space_group_name_H-M 'P 21/n'
_symmetry_Int_Tables_number 14
loop_
_symmetry_equiv_pos_site_id
_symmetry_equiv_pos_as_xyz
1 x,y,z
2 1/2-x,1/2+y,1/2-z
3 -x,-y,-z
4 -1/2+x,-1/2-y,-1/2+z
_cell_length_a 13.456(4)
_cell_length_b 7.520(2)
_cell_length_c 15.678(4)
_cell_angle_alpha 90
_cell_angle_beta 105.424(6)
_cell_angle_gamma 90
_cell_formula_units_Z 4
loop_
_atom_type_symbol
_atom_type_radius_bond
C 0.68
H 0.23
N 0.68
O 0.68
loop_
_atom_site_label
_atom_site_type_symbol
_atom_site_fract_x
_atom_site_fract_y
_atom_site_fract_z
O1 O 0.74469(10) 0.8270(2) 0.19891(9)
O2 O 0.60438(12) 1.12881(19) 0.35445(11)
H1 H 0.63650 1.20830 0.33510
N1 N 0.58044(12) 0.8031(2) 0.10335(11)
O3 O 0.63103(14) 0.3000(2) 0.59251(12)
O4 O 0.62287(14) 0.5150(3) 0.68122(12)
N2 N 0.62589(13) 0.4580(3) 0.60867(13)
C1 C 0.65076(14) 0.8404(2) 0.18300(13)
C2 C 0.47178(15) 0.7384(3) -0.02921(14)
C3 C 0.57707(15) 0.7401(3) 0.01846(13)
C4 C 0.58879(15) 0.8996(3) 0.24283(14)
C5 C 0.62749(14) 0.8277(3) 0.40593(13)
C6 C 0.48034(14) 0.8376(3) 0.10868(14)
C7 C 0.62413(14) 0.5872(3) 0.53813(14)
C8 C 0.65438(16) 0.6847(3) -0.01822(14)
H2 H 0.72470 0.68570 0.01480
C9 C 0.41256(15) 0.8001(3) 0.03014(14)
H3 H 0.33970 0.81200 0.01630
C10 C 0.48730(15) 0.8966(3) 0.19829(14)
C11 C 0.63945(16) 0.9593(3) 0.33574(14)
H4 H 0.71490 0.97040 0.34110
C12 C 0.63439(15) 0.6458(3) 0.39205(14)
H5 H 0.64060 0.60460 0.33640
C13 C 0.63237(15) 0.5243(3) 0.45733(14)
H6 H 0.63650 0.40040 0.44710
C14 C 0.61689(16) 0.8858(3) 0.48752(15)
H7 H 0.61060 1.00930 0.49770
C15 C 0.44504(17) 0.6811(3) -0.11635(14)
H8 H 0.37490 0.68000 -0.14990
C16 C 0.52171(18) 0.6259(3) -0.15366(15)
H9 H 0.50400 0.58590 -0.21330
C17 C 0.62476(18) 0.6279(3) -0.10519(15)
H10 H 0.67600 0.58920 -0.13260
C18 C 0.61541(17) 0.7651(3) 0.55394(15)
H11 H 0.60850 0.80500 0.60960
C19 C 0.39603(16) 0.9436(3) 0.23077(16)
H12 H 0.41600 0.94480 0.29560
H13 H 0.34150 0.85550 0.20940
H14 H 0.37070 1.06160 0.20860
#END
