
#######################################################################
#
#                 Cambridge Crystallographic Data Centre
#                                CCDC
#
#######################################################################
#
# If this CIF has been generated from an entry in the Cambridge
# Structural Database, then it will include bibliographic, chemical,
# crystal, experimental, refinement or atomic coordinate data resulting
# from the CCDC's data processing and validation procedures.
#
#######################################################################

data_CSD_CIF_DAYHIX
_audit_creation_date 2017-05-23
_audit_creation_method CSD-ConQuest-V1
_database_code_CSD DAYHIX
_database_code_depnum_ccdc_archive 'CCDC 1536511'
_chemical_formula_sum 'C18 H18 N4 O4'
_chemical_formula_moiety
;
C18 H18 N4 O4
;
_journal_coden_Cambridge 24
_journal_volume 58
_journal_year 2017
_journal_page_first 2441
_journal_name_full 'Tetrahedron Lett. '
loop_
_publ_author_name
"S.M.Ruatta"
"M.C.Murguia"
"C.R.de Arellano"
"S.Fustero"
_chemical_name_systematic
;
1-t-butyl-5-(furan-2-yl)-N-(4-nitrophenyl)-1H-pyrazole-3-carboxamide
;
_cell_volume   1732.496
_exptl_crystal_colour 'colorless'
_exptl_crystal_density_diffrn 1.359
_exptl_crystal_description 'needle'
_exptl_crystal_preparation 'isopropanol'
_diffrn_ambient_temperature 120
#These two values have been output from a single CSD field.
_refine_ls_R_factor_gt 0.0594
_refine_ls_wR_factor_gt 0.0594
_symmetry_cell_setting monoclinic
_symmetry_space_group_name_H-M 'P 21/c'
_symmetry_Int_Tables_number 14
loop_
_symmetry_equiv_pos_site_id
_symmetry_equiv_pos_as_xyz
1 x,y,z
2 -x,1/2+y,1/2-z
3 -x,-y,-z
4 x,-1/2-y,-1/2+z
_cell_length_a 14.057(3)
_cell_length_b 13.869(3)
_cell_length_c 8.9331(18)
_cell_angle_alpha 90
_cell_angle_beta 95.85(3)
_cell_angle_gamma 90
_cell_formula_units_Z 4
loop_
_atom_type_symbol
_atom_type_radius_bond
C 0.68
H 0.23
N 0.68
O 0.68
loop_
_atom_site_label
_atom_site_type_symbol
_atom_site_fract_x
_atom_site_fract_y
_atom_site_fract_z
O1 O 0.23699(9) 0.29801(9) 0.66904(16)
C1 C 0.26381(13) 0.23663(13) 0.5845(2)
N1 N 0.32766(11) 0.25350(11) 0.48284(18)
H1 H 0.3402(16) 0.2041(13) 0.431(2)
N2 N 0.20374(11) -0.01078(10) 0.53080(17)
N3 N 0.25102(11) 0.06892(10) 0.49386(18)
C2 C 0.22684(13) 0.13734(13) 0.5886(2)
C3 C 0.16308(13) 0.10236(13) 0.6856(2)
H2 H 0.13580 0.13680 0.76260
C4 C 0.14828(13) 0.00769(13) 0.6458(2)
C5 C 0.21168(14) -0.09944(13) 0.4373(2)
C6 C 0.21347(16) -0.18895(14) 0.5389(3)
H3 H 0.26280 -0.18100 0.62370
H4 H 0.22770 -0.24620 0.48090
H5 H 0.15100 -0.19680 0.57700
C7 C 0.12657(17) -0.10184(15) 0.3177(2)
H6 H 0.06720 -0.10300 0.36640
H7 H 0.13020 -0.15970 0.25560
H8 H 0.12750 -0.04430 0.25410
C8 C 0.30526(17) -0.09458(14) 0.3658(3)
H9 H 0.30490 -0.03780 0.30050
H10 H 0.31240 -0.15290 0.30600
H11 H 0.35880 -0.09000 0.44490
O2 O 0.01209(9) -0.10126(9) 0.63126(16)
C9 C 0.08675(13) -0.05861(13) 0.7182(2)
C10 C 0.08173(16) -0.07983(16) 0.8641(3)
H12 H 0.12440 -0.05890 0.94700
C11 C 0.00006(16) -0.13974(16) 0.8702(3)
H13 H -0.02210 -0.16700 0.95780
C12 C -0.03934(16) -0.15018(14) 0.7288(3)
H14 H -0.09540 -0.18660 0.69980
C13 C 0.36214(13) 0.34261(12) 0.4389(2)
C14 C 0.42490(13) 0.34230(13) 0.3275(2)
H15 H 0.44630 0.28260 0.29110
C15 C 0.45614(14) 0.42717(13) 0.2697(2)
H16 H 0.49800 0.42660 0.19270
C16 C 0.42539(13) 0.51342(13) 0.3258(2)
C17 C 0.36579(14) 0.51596(13) 0.4392(2)
H17 H 0.34650 0.57610 0.47710
C18 C 0.33405(14) 0.43059(13) 0.4977(2)
H18 H 0.29370 0.43170 0.57670
N4 N 0.45833(13) 0.60364(12) 0.2653(2)
O3 O 0.51535(12) 0.60030(11) 0.1696(2)
O4 O 0.42788(12) 0.67973(10) 0.3132(2)
#END
