
#######################################################################
#
#                 Cambridge Crystallographic Data Centre
#                                CCDC
#
#######################################################################
#
# If this CIF has been generated from an entry in the Cambridge
# Structural Database, then it will include bibliographic, chemical,
# crystal, experimental, refinement or atomic coordinate data resulting
# from the CCDC's data processing and validation procedures.
#
#######################################################################

data_CSD_CIF_DAYPUP01
_audit_creation_date 2007-05-29
_audit_creation_method CSD-ConQuest-V1
_database_code_CSD DAYPUP01
_database_code_depnum_ccdc_archive 'CCDC 619183'
_chemical_formula_sum 'C16 H14 N4 O4'
_chemical_formula_moiety
;
C16 H14 N4 O4
;
_journal_coden_Cambridge 968
_journal_volume 4
_journal_year 2001
_journal_page_first 435
_journal_name_full 'Ciencia UANL '
loop_
_publ_author_name
"E.O.Solis"
"C.R.de Barbarin"
"P.E.de Cota"
"B.N.Martinez"
_chemical_name_systematic
;
N,N'-bis(2-Nitrobenzylidene)-1,2-diaminoethane
;
_cell_volume    772.926
_exptl_crystal_colour 'yellow'
_exptl_crystal_density_diffrn 1.402
_exptl_crystal_description 'prismatic'
_exptl_crystal_preparation 'methanol/water'
_diffrn_ambient_temperature 298
#These two values have been output from a single CSD field.
_refine_ls_R_factor_gt 0.0738
_refine_ls_wR_factor_gt 0.0738
_symmetry_cell_setting monoclinic
_symmetry_space_group_name_H-M 'P 21/c'
_symmetry_Int_Tables_number 14
loop_
_symmetry_equiv_pos_site_id
_symmetry_equiv_pos_as_xyz
1 x,y,z
2 -x,1/2+y,1/2-z
3 -x,-y,-z
4 x,-1/2-y,-1/2+z
_cell_length_a 7.429(1)
_cell_length_b 15.503(2)
_cell_length_c 7.083(1)
_cell_angle_alpha 90
_cell_angle_beta 108.65(2)
_cell_angle_gamma 90
_cell_formula_units_Z 2
loop_
_atom_type_symbol
_atom_type_radius_bond
C 0.68
H 0.23
N 0.68
O 0.68
loop_
_atom_site_label
_atom_site_type_symbol
_atom_site_fract_x
_atom_site_fract_y
_atom_site_fract_z
O1 O 0.1547(4) 0.64508(18) 0.0310(6)
O2 O 0.3805(4) 0.56590(16) 0.1904(5)
N1 N 0.3181(4) 0.63612(18) 0.1251(5)
N2 N 0.8976(4) 0.60477(17) 0.3876(4)
C1 C 0.4450(4) 0.71056(18) 0.1639(4)
C2 C 0.3611(5) 0.7911(2) 0.1392(5)
H1 H 0.22960 0.79650 0.09520
C3 C 0.4753(5) 0.8631(2) 0.1806(5)
H2 H 0.42080 0.91770 0.16500
C4 C 0.6700(5) 0.8546(2) 0.2451(5)
H3 H 0.74680 0.90340 0.27430
C5 C 0.7509(5) 0.7739(2) 0.2663(5)
H4 H 0.88260 0.76910 0.30760
C6 C 0.6414(4) 0.69941(19) 0.2277(4)
C7 C 0.7412(5) 0.61500(19) 0.2528(5)
H5 H 0.68740 0.56940 0.16810
C8 C 0.9890(5) 0.52053(19) 0.4005(5)
H6 H 1.11290 0.52730 0.38390
H7 H 0.91290 0.48350 0.29450
O1B O 1.8453(4) 0.35492(18) 0.9690(6)
O2B O 1.6195(4) 0.43410(16) 0.8096(5)
N1B N 1.6819(4) 0.36388(18) 0.8749(5)
N2B N 1.1024(4) 0.39523(17) 0.6124(4)
C1B C 1.5550(4) 0.28944(18) 0.8361(4)
C2B C 1.6389(5) 0.2089(2) 0.8608(5)
H1B H 1.77040 0.20350 0.90480
C3B C 1.5247(5) 0.1369(2) 0.8194(5)
H2B H 1.57920 0.08230 0.83500
C4B C 1.3300(5) 0.1454(2) 0.7549(5)
H3B H 1.25320 0.09660 0.72570
C5B C 1.2491(5) 0.2261(2) 0.7337(5)
H4B H 1.11740 0.23090 0.69240
C6B C 1.3586(4) 0.30059(19) 0.7723(4)
C7B C 1.2588(5) 0.38500(19) 0.7472(5)
H5B H 1.31260 0.43060 0.83190
C8B C 1.0110(5) 0.47947(19) 0.5995(5)
H6B H 0.88710 0.47270 0.61610
H7B H 1.08710 0.51650 0.70550
#END
