
#######################################################################
#
#                 Cambridge Crystallographic Data Centre
#                                CCDC
#
#######################################################################
#
# If this CIF has been generated from an entry in the Cambridge
# Structural Database, then it will include bibliographic, chemical,
# crystal, experimental, refinement or atomic coordinate data resulting
# from the CCDC's data processing and validation procedures.
#
#######################################################################

data_CSD_CIF_DAYTON
_audit_creation_date 2006-02-13
_audit_creation_method CSD-ConQuest-V1
_database_code_CSD DAYTON
_database_code_depnum_ccdc_archive 'CCDC 293995'
_chemical_formula_sum 'C17 H19 N3 O4'
_chemical_formula_moiety
;
C17 H19 N3 O4
;
_journal_coeditor_code "IUCr SJ6156"
_journal_coden_Cambridge 1370
_journal_volume 61
_journal_year 2005
_journal_page_first o4091
_journal_name_full 'Acta Crystallogr.,Sect.E:Struct.Rep.Online '
loop_
_publ_author_name
"Jun Shi"
_chemical_name_systematic
;
(E)-1-(4-Methoxy-3-propoxybenzylidene)-2-(4-nitrophenyl)hydrazine
;
_cell_volume   1668.903
_exptl_crystal_colour 'red'
_exptl_crystal_density_diffrn 1.311
_exptl_crystal_description 'block'
_exptl_crystal_preparation 'acetonitrile'
_diffrn_ambient_temperature 294
#These two values have been output from a single CSD field.
_refine_ls_R_factor_gt 0.0531
_refine_ls_wR_factor_gt 0.0531
_symmetry_cell_setting monoclinic
_symmetry_space_group_name_H-M 'P 21/n'
_symmetry_Int_Tables_number 14
loop_
_symmetry_equiv_pos_site_id
_symmetry_equiv_pos_as_xyz
1 x,y,z
2 1/2-x,1/2+y,1/2-z
3 -x,-y,-z
4 -1/2+x,-1/2-y,-1/2+z
_cell_length_a 4.5854(13)
_cell_length_b 14.953(4)
_cell_length_c 24.363(7)
_cell_angle_alpha 90
_cell_angle_beta 92.475(5)
_cell_angle_gamma 90
_cell_formula_units_Z 4
loop_
_atom_type_symbol
_atom_type_radius_bond
C 0.68
H 0.23
N 0.68
O 0.68
loop_
_atom_site_label
_atom_site_type_symbol
_atom_site_fract_x
_atom_site_fract_y
_atom_site_fract_z
O1 O -0.3115(6) 0.70590(17) 0.44043(11)
O2 O 0.0195(6) 0.83684(18) 0.46965(12)
O3 O 1.5178(8) 1.0474(2) 0.76072(14)
O4 O 1.6403(7) 0.95794(19) 0.82653(13)
N1 N 0.5783(6) 0.7351(2) 0.64701(12)
N2 N 0.7559(7) 0.71780(19) 0.69173(12)
H1 H 0.75340 0.66550 0.70640
N3 N 1.4988(8) 0.9743(2) 0.78424(15)
C1 C 0.2182(8) 0.6800(2) 0.58211(15)
C2 C 0.2119(8) 0.7579(2) 0.55019(16)
H2 H 0.33060 0.80600 0.56060
C3 C 0.0348(8) 0.7644(3) 0.50413(16)
C4 C -0.1485(8) 0.6933(3) 0.48781(16)
C5 C -0.1444(8) 0.6162(3) 0.51870(17)
H3 H -0.26410 0.56830 0.50830
C6 C 0.0378(8) 0.6101(3) 0.56514(17)
H4 H 0.03950 0.55760 0.58560
C7 C 0.2479(9) 0.9010(3) 0.47377(16)
H5 H 0.43520 0.87140 0.47920
H6 H 0.22030 0.94070 0.50460
C8 C 0.2377(10) 0.9528(3) 0.42099(19)
H7 H 0.04380 0.97780 0.41480
H8 H 0.37490 1.00210 0.42420
C9 C 0.3101(12) 0.8963(3) 0.37269(19)
H9 H 0.49580 0.86790 0.37970
H10 H 0.31850 0.93320 0.34060
H11 H 0.16230 0.85140 0.36680
C10 C -0.4942(9) 0.6350(3) 0.42073(17)
H12 H -0.37660 0.58370 0.41310
H13 H -0.59890 0.65350 0.38770
H14 H -0.63030 0.61980 0.44810
C11 C 0.4127(8) 0.6715(3) 0.62985(16)
H15 H 0.41780 0.61760 0.64890
C12 C 0.9371(8) 0.7811(2) 0.71367(15)
C13 C 1.1099(8) 0.7619(3) 0.76046(15)
H16 H 1.10070 0.70530 0.77610
C14 C 1.2920(9) 0.8241(3) 0.78379(16)
H17 H 1.40570 0.81040 0.81520
C15 C 1.3064(8) 0.9086(3) 0.76011(15)
C16 C 1.1394(9) 0.9279(3) 0.71307(16)
H18 H 1.15340 0.98400 0.69690
C17 C 0.9549(9) 0.8659(3) 0.69015(16)
H19 H 0.84080 0.88000 0.65890
#END
