
#######################################################################
#
#                 Cambridge Crystallographic Data Centre
#                                CCDC
#
#######################################################################
#
# If this CIF has been generated from an entry in the Cambridge
# Structural Database, then it will include bibliographic, chemical,
# crystal, experimental, refinement or atomic coordinate data resulting
# from the CCDC's data processing and validation procedures.
#
#######################################################################

data_CSD_CIF_DAYVIK
_audit_creation_date 2012-11-16
_audit_creation_method CSD-ConQuest-V1
_database_code_CSD DAYVIK
_database_code_depnum_ccdc_archive 'CCDC 873487'
_chemical_formula_sum 'C26 H25 N5 O4'
_chemical_formula_moiety
;
C26 H25 N5 O4
;
_journal_coden_Cambridge 182
_journal_volume 48
_journal_year 2012
_journal_page_first 9834
_journal_name_full 'Chem.Commun. '
loop_
_publ_author_name
"C.L.Sutherell"
"S.Thompson"
"R.T.W.Scott"
"A.D.Hamilton"
_chemical_name_systematic
;
(S)-4-methyl-1-(3-((S)-5-methyl-2-oxo-3-phenylimidazolidin-1-yl)phenyl)-3-(3-n
itrophenyl)imidazolidin-2-one
;
_chemical_name_common
;
4-Methyl-3-(3-(4-methyl-3-(3-nitrophenyl)-2-oxoimidazolidin-1-yl)phenyl)-1-phe
nylimidazolidin-2-one
;
_chemical_melting_point 481
_cell_volume   1128.287
_exptl_crystal_colour 'yellow'
_exptl_crystal_density_diffrn 1.388
_exptl_crystal_description 'block'
_diffrn_ambient_temperature 150
#These two values have been output from a single CSD field.
_refine_ls_R_factor_gt 0.0366
_refine_ls_wR_factor_gt 0.0366
_symmetry_cell_setting monoclinic
_symmetry_space_group_name_H-M 'P 21'
_symmetry_Int_Tables_number 4
loop_
_symmetry_equiv_pos_site_id
_symmetry_equiv_pos_as_xyz
1 x,y,z
2 -x,1/2+y,-z
_cell_length_a 11.1653(2)
_cell_length_b 5.4308(1)
_cell_length_c 19.3601(4)
_cell_angle_alpha 90
_cell_angle_beta 106.0293(7)
_cell_angle_gamma 90
_cell_formula_units_Z 2
loop_
_atom_type_symbol
_atom_type_radius_bond
C 0.68
H 0.23
N 0.68
O 0.68
loop_
_atom_site_label
_atom_site_type_symbol
_atom_site_fract_x
_atom_site_fract_y
_atom_site_fract_z
O1 O 0.79668(12) 0.2919(3) 0.34576(8)
C1 C 0.69693(17) 0.3807(4) 0.31281(10)
N1 N 0.62144(15) 0.5301(4) 0.33980(9)
C2 C 0.64404(17) 0.6017(4) 0.41262(11)
C3 C 0.58962(18) 0.8174(4) 0.42877(11)
C4 C 0.60685(17) 0.8809(4) 0.50020(11)
C5 C 0.67582(18) 0.7353(4) 0.55562(11)
C6 C 0.72977(16) 0.5184(4) 0.53952(10)
C7 C 0.71428(17) 0.4528(4) 0.46772(10)
N2 N 0.80010(14) 0.3617(4) 0.59424(9)
C8 C 0.90183(17) 0.2029(4) 0.58498(11)
C9 C 0.93793(19) 0.0571(4) 0.65577(11)
N3 N 0.87094(15) 0.1782(4) 0.70077(9)
C10 C 0.78478(16) 0.3453(4) 0.66204(10)
O2 O 0.70801(12) 0.4571(3) 0.68416(8)
C11 C 0.88899(18) 0.1167(4) 0.77384(11)
C12 C 0.8475(2) 0.2690(5) 0.82062(11)
C13 C 0.8723(2) 0.2061(5) 0.89268(12)
C14 C 0.9373(2) -0.0056(5) 0.91927(12)
C15 C 0.9787(2) -0.1554(5) 0.87357(13)
C16 C 0.9545(2) -0.0981(4) 0.80070(12)
C17 C 1.00890(19) 0.3526(5) 0.57344(13)
C18 C 0.5245(2) 0.6432(5) 0.28255(11)
C19 C 0.51730(18) 0.4738(5) 0.21814(11)
N4 N 0.64124(15) 0.3548(4) 0.23999(9)
C20 C 0.68206(19) 0.1926(4) 0.19434(11)
C21 C 0.64254(19) 0.2349(5) 0.12010(11)
C22 C 0.67874(19) 0.0701(5) 0.07540(11)
N5 N 0.63374(19) 0.1144(5) -0.00281(11)
O3 O 0.65388(18) -0.0440(5) -0.0430(1)
O4 O 0.5774(2) 0.3048(5) -0.02407(10)
C23 C 0.7525(2) -0.1316(5) 0.09923(12)
C24 C 0.7921(2) -0.1688(5) 0.17273(13)
C25 C 0.75760(19) -0.0103(5) 0.22007(12)
C26 C 0.4130(2) 0.2866(5) 0.20419(13)
H1 H 0.54220 0.91970 0.39130
H2 H 0.56930 1.02680 0.51150
H3 H 0.68750 0.78290 0.60420
H4 H 0.75200 0.30690 0.45650
H5 H 0.87090 0.09460 0.54560
H6 H 0.91180 -0.10940 0.64760
H7 H 1.02530 0.06250 0.67730
H8 H 0.80270 0.41510 0.80290
H9 H 0.84480 0.31110 0.92450
H10 H 0.95140 -0.04820 0.96850
H11 H 1.02500 -0.29920 0.89190
H12 H 0.98300 -0.20260 0.76910
H13 H 1.07230 0.24480 0.56750
H14 H 0.98010 0.45140 0.53160
H15 H 1.04160 0.45560 0.61390
H16 H 0.54750 0.80580 0.27340
H17 H 0.44710 0.64710 0.29410
H18 H 0.51060 0.56970 0.17620
H19 H 0.59270 0.37400 0.10110
H20 H 0.77510 -0.23990 0.06640
H21 H 0.84520 -0.30440 0.19100
H22 H 0.78440 -0.04100 0.27030
H23 H 0.41480 0.18860 0.16380
H24 H 0.33540 0.36980 0.19480
H25 H 0.42340 0.18400 0.24520
#END
