
#######################################################################
#
#                 Cambridge Crystallographic Data Centre
#                                CCDC
#
#######################################################################
#
# If this CIF has been generated from an entry in the Cambridge
# Structural Database, then it will include bibliographic, chemical,
# crystal, experimental, refinement or atomic coordinate data resulting
# from the CCDC's data processing and validation procedures.
#
#######################################################################

data_CSD_CIF_DAYWIK
_audit_creation_date 2006-02-13
_audit_creation_method CSD-ConQuest-V1
_database_code_CSD DAYWIK
_database_code_depnum_ccdc_archive 'CCDC 294005'
_chemical_formula_sum 'C21 H17 N5 O8'
_chemical_formula_moiety
;
C21 H17 N5 O8
;
_journal_coeditor_code "IUCr SU6241"
_journal_coden_Cambridge 1370
_journal_volume 61
_journal_year 2005
_journal_page_first o4177
_journal_name_full 'Acta Crystallogr.,Sect.E:Struct.Rep.Online '
loop_
_publ_author_name
"Chun-Hua Diao"
"Zhi Fan"
"Ming Yu"
"Xin Chen"
"Zuo-Liang Jing"
_chemical_name_systematic
;
(E)-1-(2,4-Dinitrophenyl)-2-(2-(2-(2-nitrophenoxy)ethoxy)benzylidene)hydrazine
;
_cell_volume   1054.048
_exptl_crystal_colour 'red'
_exptl_crystal_density_diffrn 1.473
_exptl_crystal_description 'block'
_exptl_crystal_preparation 'acetonitrile'
_diffrn_ambient_temperature 294
_refine_special_details
;
One nitro O atom is disordered over two equal sites.

;
#These two values have been output from a single CSD field.
_refine_ls_R_factor_gt 0.0505
_refine_ls_wR_factor_gt 0.0505
_symmetry_cell_setting triclinic
_symmetry_space_group_name_H-M 'P -1'
_symmetry_Int_Tables_number 2
loop_
_symmetry_equiv_pos_site_id
_symmetry_equiv_pos_as_xyz
1 x,y,z
2 -x,-y,-z
_cell_length_a 7.953(3)
_cell_length_b 11.686(5)
_cell_length_c 12.524(5)
_cell_angle_alpha 65.107(6)
_cell_angle_beta 87.463(7)
_cell_angle_gamma 86.980(8)
_cell_formula_units_Z 2
loop_
_atom_type_symbol
_atom_type_radius_bond
C 0.68
H 0.23
N 0.68
O 0.68
loop_
_atom_site_label
_atom_site_type_symbol
_atom_site_fract_x
_atom_site_fract_y
_atom_site_fract_z
O1 O 0.6600(5) 0.0907(3) 0.2036(3)
O2 O 0.8789(11) 0.1805(8) 0.1616(7)
O3? O 0.9310(9) 0.1084(8) 0.1917(7)
O4 O 0.7379(3) -0.1064(2) 0.42224(18)
O5 O 0.5633(3) -0.2690(2) 0.37195(19)
O6 O 0.3088(4) 0.2530(2) 0.1409(2)
O7 O 0.1713(4) 0.4261(3) 0.0491(3)
O8 O -0.0731(3) 0.5287(2) -0.3156(2)
O9 O -0.1247(3) 0.3837(2) -0.3715(2)
N1 N 0.7912(5) 0.1163(3) 0.2371(3)
N2 N 0.3211(3) -0.0528(2) 0.0871(2)
N3 N 0.2968(3) 0.0684(2) 0.0760(2)
H1 H 0.34250 0.09120 0.12460
N4 N 0.2174(4) 0.3212(3) 0.0606(3)
N5 N -0.0666(3) 0.4192(3) -0.3023(2)
C1 C 0.7967(4) 0.1063(3) 0.3564(3)
C2 C 0.8389(4) 0.2107(3) 0.3720(3)
H2 H 0.86680 0.28460 0.30740
C3 C 0.8396(5) 0.2050(4) 0.4824(4)
H3 H 0.86610 0.27510 0.49460
C4 C 0.8001(5) 0.0928(5) 0.5766(4)
H4 H 0.79910 0.08910 0.65230
C5 C 0.7622(5) -0.0134(4) 0.5620(3)
H5 H 0.73660 -0.08760 0.62690
C6 C 0.7626(4) -0.0082(3) 0.4489(3)
C7 C 0.6896(4) -0.2238(3) 0.5138(3)
H6 H 0.57930 -0.21450 0.54620
H7 H 0.77000 -0.25250 0.57670
C8 C 0.6859(4) -0.3159(3) 0.4603(3)
H8 H 0.79550 -0.32370 0.42620
H9 H 0.65630 -0.39830 0.51960
C9 C 0.5405(4) -0.3279(3) 0.3004(3)
C10 C 0.5882(4) -0.4519(3) 0.3272(3)
H10 H 0.64760 -0.50020 0.39480
C11 C 0.5453(5) -0.5024(3) 0.2509(4)
H11 H 0.57660 -0.58600 0.26810
C12 C 0.4578(5) -0.4330(3) 0.1499(4)
H12 H 0.42780 -0.46990 0.10100
C13 C 0.4150(4) -0.3079(3) 0.1224(3)
H13 H 0.35800 -0.25980 0.05360
C14 C 0.4565(4) -0.2532(3) 0.1966(3)
C15 C 0.4173(4) -0.1222(3) 0.1706(3)
H14 H 0.46380 -0.08710 0.21630
C16 C 0.2014(4) 0.1521(3) -0.0108(2)
C17 C 0.1633(4) 0.2767(3) -0.0237(3)
C18 C 0.0735(4) 0.3624(3) -0.1172(3)
H15 H 0.05120 0.44420 -0.12420
C19 C 0.0175(4) 0.3263(3) -0.1993(2)
C20 C 0.0455(4) 0.2032(3) -0.1877(3)
H16 H 0.00300 0.17860 -0.24260
C21 C 0.1353(4) 0.1187(3) -0.0958(2)
H17 H 0.15360 0.03660 -0.08890
#END
