
#######################################################################
#
#                 Cambridge Crystallographic Data Centre
#                                CCDC
#
#######################################################################
#
# If this CIF has been generated from an entry in the Cambridge
# Structural Database, then it will include bibliographic, chemical,
# crystal, experimental, refinement or atomic coordinate data resulting
# from the CCDC's data processing and validation procedures.
#
#######################################################################

data_CSD_CIF_DAYYUY
_audit_creation_date 2006-02-13
_audit_creation_method CSD-ConQuest-V1
_database_code_CSD DAYYUY
_database_code_depnum_ccdc_archive 'CCDC 294019'
_chemical_formula_sum 'C12 H11 N1 O4'
_chemical_formula_moiety
;
C12 H11 N1 O4
;
_journal_coeditor_code "IUCr WK6067"
_journal_coden_Cambridge 1370
_journal_volume 61
_journal_year 2005
_journal_page_first o4351
_journal_name_full 'Acta Crystallogr.,Sect.E:Struct.Rep.Online '
loop_
_publ_author_name
"Wei-Ming Xu"
"Xiu-Rong Hu"
"Jian-Ming Gu"
_chemical_name_systematic
;
4-(2-Nitrovinyl)-2,3,6,7-tetrahydrobenzo(1,2-b;4,5-b')difuran
;
_cell_volume   1071.022
_exptl_crystal_colour 'red'
_exptl_crystal_density_diffrn 1.446
_exptl_crystal_description 'prism'
_exptl_crystal_preparation 'ethanol'
_diffrn_ambient_temperature 296.0
#These two values have been output from a single CSD field.
_refine_ls_R_factor_gt 0.0447
_refine_ls_wR_factor_gt 0.0447
_symmetry_cell_setting monoclinic
_symmetry_space_group_name_H-M 'P 21/n'
_symmetry_Int_Tables_number 14
loop_
_symmetry_equiv_pos_site_id
_symmetry_equiv_pos_as_xyz
1 x,y,z
2 1/2-x,1/2+y,1/2-z
3 -x,-y,-z
4 -1/2+x,-1/2-y,-1/2+z
_cell_length_a 10.220(9)
_cell_length_b 9.204(6)
_cell_length_c 11.386(7)
_cell_angle_alpha 90
_cell_angle_beta 90.08(3)
_cell_angle_gamma 90
_cell_formula_units_Z 4
loop_
_atom_type_symbol
_atom_type_radius_bond
C 0.68
H 0.23
N 0.68
O 0.68
loop_
_atom_site_label
_atom_site_type_symbol
_atom_site_fract_x
_atom_site_fract_y
_atom_site_fract_z
O1 O 0.48223(14) 0.44117(17) 0.26108(11)
O2 O 0.09195(17) 0.62119(19) 0.55278(14)
O3 O 0.59403(16) 0.07866(17) 0.59434(12)
O4 O 0.70896(18) 0.05862(19) 0.43530(13)
N1 N 0.62045(19) 0.1148(2) 0.49311(17)
C1 C 0.3650(2) 0.4082(2) 0.44643(16)
C2 C 0.3835(2) 0.4785(2) 0.33819(17)
C3 C 0.4655(2) 0.5331(3) 0.1565(2)
C4 C 0.3569(2) 0.6404(2) 0.18072(19)
C5 C 0.3062(2) 0.5918(2) 0.29823(18)
C6 C 0.2053(2) 0.6441(2) 0.3665(2)
C7 C 0.1872(2) 0.5781(2) 0.4747(2)
C8 C 0.1177(2) 0.5426(3) 0.6607(2)
C9 C 0.2087(2) 0.4159(2) 0.63085(19)
C10 C 0.2619(2) 0.4633(2) 0.51358(17)
C11 C 0.4460(2) 0.2908(2) 0.49053(16)
C12 C 0.5466(2) 0.2288(2) 0.43634(17)
H1 H 0.44190 0.47290 0.08980
H2 H 0.54630 0.58420 0.13970
H3 H 0.28910 0.63570 0.12120
H4 H 0.39070 0.73870 0.18520
H5 H 0.15220 0.72010 0.34140
H6 H 0.03610 0.50520 0.69200
H7 H 0.15850 0.60570 0.71830
H8 H 0.16180 0.32460 0.62420
H9 H 0.27870 0.40580 0.68790
H10 H 0.42680 0.25510 0.56490
H11 H 0.56840 0.25980 0.36110
#END
