
#######################################################################
#
#                 Cambridge Crystallographic Data Centre
#                                CCDC
#
#######################################################################
#
# If this CIF has been generated from an entry in the Cambridge
# Structural Database, then it will include bibliographic, chemical,
# crystal, experimental, refinement or atomic coordinate data resulting
# from the CCDC's data processing and validation procedures.
#
#######################################################################

data_CSD_CIF_DAZKAR
_audit_creation_date 2006-05-05
_audit_creation_method CSD-ConQuest-V1
_database_code_CSD DAZKAR
_database_code_depnum_ccdc_archive 'CCDC 265697'
_chemical_formula_sum 'C29 H44 N2 O6'
_chemical_formula_moiety
;
C29 H44 N2 O6
;
_journal_coden_Cambridge 200
_journal_volume 71
_journal_year 2006
_journal_page_first 12
_journal_name_full 'Steroids '
loop_
_publ_author_name
"Y.Lopez"
"R.Santillan"
"N.Farfan"
_chemical_name_systematic
;
(25S)-3\b-acetoxy-5\b-23-nitrimino-22,26-epoxyfurostane
;
_cell_volume   1447.110
_exptl_crystal_colour 'colorless'
_exptl_crystal_density_diffrn 1.186
_exptl_crystal_description 'Needle'
_exptl_crystal_preparation 'ethyl acetate/hexane'
_diffrn_ambient_temperature 293
#These two values have been output from a single CSD field.
_refine_ls_R_factor_gt 0.0763
_refine_ls_wR_factor_gt 0.0763
_symmetry_cell_setting monoclinic
_symmetry_space_group_name_H-M 'P 21'
_symmetry_Int_Tables_number 4
loop_
_symmetry_equiv_pos_site_id
_symmetry_equiv_pos_as_xyz
1 x,y,z
2 -x,1/2+y,-z
_cell_length_a 12.727(3)
_cell_length_b 7.2252(14)
_cell_length_c 16.811(3)
_cell_angle_alpha 90
_cell_angle_beta 110.59(3)
_cell_angle_gamma 90
_cell_formula_units_Z 2
loop_
_atom_type_symbol
_atom_type_radius_bond
C 0.68
H 0.23
N 0.68
O 0.68
loop_
_atom_site_label
_atom_site_type_symbol
_atom_site_fract_x
_atom_site_fract_y
_atom_site_fract_z
C1 C 0.4963(5) 0.3479(9) 0.8745(3)
H1 H 0.44800 0.24330 0.85340
H2 H 0.45800 0.43890 0.89570
H3 H 0.56300 0.30870 0.91950
C2 C 0.7795(6) 0.753(1) 1.0377(4)
H4 H 0.75030 0.82180 1.07410
H5 H 0.85960 0.74300 1.06390
H6 H 0.74700 0.63150 1.02850
O1 O -0.2859(5) 0.4737(9) 0.2068(3)
C3 C -0.2684(6) 0.260(1) 0.1072(4)
H7 H -0.21130 0.17230 0.10820
H8 H -0.27800 0.34740 0.06220
H9 H -0.33780 0.19610 0.09790
C4 C 0.3433(4) 0.5427(6) 0.5774(3)
H10 H 0.27900 0.59220 0.58990
O2 O 0.5827(3) 0.6994(5) 0.7495(2)
O3 O -0.1394(4) 0.2991(8) 0.2426(3)
C5 C 0.4336(5) 0.6923(8) 0.6067(3)
H11 H 0.49810 0.66200 0.59120
H12 H 0.40450 0.81230 0.58330
N1 N 0.7620(4) 0.4062(9) 0.8680(3)
C6 C 0.3902(4) 0.3885(7) 0.6419(3)
C7 C 0.1008(5) 0.4321(7) 0.3227(3)
H13 H 0.07920 0.38450 0.26450
O4 O 0.5696(3) 0.7062(5) 0.8853(2)
C8 C 0.2022(4) 0.3361(7) 0.4748(3)
H14 H 0.14330 0.39910 0.48950
C9 C 0.6035(4) 0.6011(8) 0.8261(3)
C10 C 0.1471(4) 0.2684(7) 0.3822(3)
C11 C 0.2959(4) 0.4813(7) 0.4851(3)
H15 H 0.35600 0.42360 0.46990
C12 C 0.4284(4) 0.4977(6) 0.7256(3)
H16 H 0.36350 0.51440 0.74350
C13 C 0.2971(5) 0.2471(8) 0.6324(3)
H17 H 0.23890 0.30340 0.64910
H18 H 0.32760 0.14290 0.66980
C14 C 0.7298(5) 0.5736(10) 0.8636(3)
C15 C 0.2458(5) 0.1778(9) 0.5397(3)
H19 H 0.30230 0.10850 0.52580
H20 H 0.18430 0.09430 0.53510
C16 C 0.0494(5) 0.1340(9) 0.3725(4)
H21 H 0.02460 0.08290 0.31550
H22 H 0.07760 0.03230 0.41190
C17 C 0.1919(6) 0.5798(9) 0.3327(4)
H23 H 0.24860 0.53000 0.31240
H24 H 0.15830 0.68640 0.29790
C18 C -0.2343(6) 0.3597(10) 0.1902(4)
C19 C -0.0482(5) 0.2134(12) 0.3871(4)
H25 H -0.02590 0.25600 0.44550
H26 H -0.10490 0.11830 0.37890
C20 C 0.2477(5) 0.6416(7) 0.4252(3)
H27 H 0.30740 0.72840 0.42890
H28 H 0.19280 0.70560 0.44310
C21 C 0.4627(4) 0.6879(8) 0.7023(3)
H29 H 0.42280 0.78640 0.72010
C22 C 0.4891(5) 0.2900(8) 0.6280(4)
H30 H 0.51640 0.19340 0.66940
H31 H 0.54810 0.37750 0.63380
H32 H 0.46460 0.23740 0.57200
C23 C -0.0075(7) 0.5166(11) 0.3321(4)
H33 H 0.01320 0.58230 0.38570
H34 H -0.03960 0.60590 0.28690
C24 C 0.7967(6) 0.7436(9) 0.8949(4)
H35 H 0.79460 0.82020 0.84690
H36 H 0.87430 0.71030 0.92560
C25 C 0.5281(4) 0.4316(7) 0.8027(3)
H37 H 0.56770 0.33610 0.78280
C26 C -0.0971(5) 0.3709(14) 0.3288(4)
H38 H -0.15820 0.42790 0.34290
O5 O 0.9194(5) 0.3452(11) 0.9792(4)
O6 O 0.9347(5) 0.4077(13) 0.8584(4)
N2 N 0.8815(5) 0.3838(12) 0.9054(5)
C27 C 0.6257(6) 0.8820(9) 0.9079(4)
H39 H 0.59510 0.94910 0.94470
H40 H 0.61310 0.95520 0.85700
C28 C 0.2318(5) 0.1605(9) 0.3530(4)
H41 H 0.26110 0.05820 0.39070
H42 H 0.29210 0.24110 0.35390
H43 H 0.19470 0.11520 0.29630
C29 C 0.7507(6) 0.8523(9) 0.9530(4)
H44 H 0.78730 0.97380 0.96350
#END
