
#######################################################################
#
#                 Cambridge Crystallographic Data Centre
#                                CCDC
#
#######################################################################
#
# If this CIF has been generated from an entry in the Cambridge
# Structural Database, then it will include bibliographic, chemical,
# crystal, experimental, refinement or atomic coordinate data resulting
# from the CCDC's data processing and validation procedures.
#
#######################################################################

data_CSD_CIF_DAZQUR
_audit_creation_date 2006-05-05
_audit_creation_method CSD-ConQuest-V1
_database_code_CSD DAZQUR
_database_code_depnum_ccdc_archive 'CCDC 271098'
_chemical_formula_sum 'C23 H31 N1 O8'
_chemical_formula_moiety
;
C23 H31 N1 O8
;
_journal_coden_Cambridge 1090
_journal_volume 16
_journal_year 2005
_journal_page_first 3897
_journal_name_full 'Tetrahedron:Asymm. '
loop_
_publ_author_name
"M.I.Torres-Sanchez"
"P.Borrachero"
"F.Cabrera-Escribano"
"M.Gomez-Guillen"
"M.Angulo-Alvarez"
"M.J.Dianez"
"M.D.Estrada"
"A.Lopez-Castro"
"S.Perez-Garrido"
_chemical_name_systematic
;
Methyl 
(2R,3R,5R)-2-benzyl-3-(1,2:3,4-di-O-isopropylidene-\a-D-galacto-pentopyranos-5
-yl)isoxazolidine-5-carboxylate
;
_chemical_melting_point 375.15
_cell_volume   1183.176
_exptl_crystal_density_diffrn 1.262
_exptl_special_details
;
Melting point range 375.15-377.15K

;
_diffrn_ambient_temperature 293
#These two values have been output from a single CSD field.
_refine_ls_R_factor_gt 0.0702
_refine_ls_wR_factor_gt 0.0702
_symmetry_cell_setting monoclinic
_symmetry_space_group_name_H-M 'P 21'
_symmetry_Int_Tables_number 4
loop_
_symmetry_equiv_pos_site_id
_symmetry_equiv_pos_as_xyz
1 x,y,z
2 -x,1/2+y,-z
_cell_length_a 11.042(10)
_cell_length_b 9.458(10)
_cell_length_c 11.384(10)
_cell_angle_alpha 90
_cell_angle_beta 95.62(6)
_cell_angle_gamma 90
_cell_formula_units_Z 2
loop_
_atom_type_symbol
_atom_type_radius_bond
C 0.68
H 0.23
N 0.68
O 0.68
loop_
_atom_site_label
_atom_site_type_symbol
_atom_site_fract_x
_atom_site_fract_y
_atom_site_fract_z
O1 O 0.7601(5) -0.0087(7) -0.0952(5)
O2 O 0.8923(5) 0.4935(7) -0.1897(5)
O3 O 0.8174(6) 0.3654(6) 0.1691(5)
O4 O 0.6656(5) 0.4039(6) -0.0476(5)
O5 O 0.6898(5) 0.4748(8) -0.2364(5)
O6 O 0.5281(7) -0.0896(9) -0.3088(6)
N1 N 0.7658(7) 0.0433(7) 0.0253(5)
O7 O 0.8775(7) 0.5809(7) 0.1122(6)
O8 O 0.5584(7) -0.1971(7) -0.1383(6)
C1 C 0.7251(9) -0.0396(9) 0.2231(8)
C2 C 0.6435(8) 0.0317(9) -0.1589(7)
H1 H 0.65840 0.09080 -0.22680
C3 C 0.7217(9) -0.0739(10) 0.0950(9)
H2 H 0.77140 -0.15680 0.08560
H3 H 0.63880 -0.09670 0.06490
C4 C 0.7530(8) 0.2905(8) -0.0272(7)
H4 H 0.78310 0.26660 -0.10280
C5 C 0.6862(8) 0.1674(8) 0.0129(7)
H5 H 0.65670 0.18870 0.08940
C6 C 0.8577(8) 0.3457(8) 0.0533(8)
H6 H 0.92510 0.27790 0.05780
C7 C 0.5717(9) -0.0977(12) -0.2014(8)
C8 C 0.864(1) 0.4994(13) 0.2124(8)
C9 C 0.5769(9) 0.1162(10) -0.0751(8)
H7 H 0.52030 0.05820 -0.03590
H8 H 0.53360 0.19500 -0.11440
C10 C 0.6334(8) -0.0664(10) 0.2890(8)
H9 H 0.56190 -0.10080 0.24910
C11 C 0.7987(9) 0.4882(11) -0.2883(8)
C12 C 0.6332(12) -0.0493(14) 0.4043(11)
H10 H 0.56520 -0.07190 0.44300
C13 C 0.8395(9) 0.5451(10) -0.0937(8)
H11 H 0.84950 0.64810 -0.09380
C14 C 0.7417(14) 0.0053(14) 0.4671(9)
H12 H 0.74810 0.01870 0.54840
C15 C 0.8335(9) 0.0151(16) 0.2859(8)
H13 H 0.90130 0.03510 0.24630
C16 C 0.8189(12) 0.3622(15) -0.3640(9)
H14 H 0.80160 0.27720 -0.32230
H15 H 0.90200 0.36090 -0.38200
H16 H 0.76590 0.36800 -0.43590
C17 C 0.8361(10) 0.0371(15) 0.4011(9)
H17 H 0.90620 0.07640 0.43980
C18 C 0.7990(11) 0.6302(12) -0.3519(10)
H18 H 0.72450 0.64100 -0.40200
H19 H 0.86660 0.63400 -0.39880
H20 H 0.80620 0.70500 -0.29480
C19 C 0.704(1) 0.5147(11) -0.1163(8)
H21 H 0.65690 0.60030 -0.10440
C20 C 0.9905(10) 0.4763(15) 0.2804(9)
H22 H 0.98410 0.48310 0.36360
H23 H 1.04590 0.54710 0.25720
H24 H 1.02020 0.38430 0.26250
C21 C 0.7745(14) 0.5663(15) 0.2836(11)
H25 H 0.69830 0.57750 0.23600
H26 H 0.80410 0.65720 0.31030
H27 H 0.76290 0.50740 0.35040
C22 C 0.9026(9) 0.4907(11) 0.0205(9)
H28 H 0.99060 0.48750 0.01510
C23 C 0.4599(12) -0.2135(17) -0.3552(9)
H29 H 0.50210 -0.29790 -0.32790
H30 H 0.45280 -0.21090 -0.43990
H31 H 0.38030 -0.21300 -0.32820
#END
