
#######################################################################
#
#                 Cambridge Crystallographic Data Centre
#                                CCDC
#
#######################################################################
#
# If this CIF has been generated from an entry in the Cambridge
# Structural Database, then it will include bibliographic, chemical,
# crystal, experimental, refinement or atomic coordinate data resulting
# from the CCDC's data processing and validation procedures.
#
#######################################################################

data_CSD_CIF_DAZRUS
_audit_creation_date 2006-05-05
_audit_creation_method CSD-ConQuest-V1
_database_code_CSD DAZRUS
_database_code_depnum_ccdc_archive 'CCDC 285462'
_chemical_formula_sum 'C11 H12 N2 O6'
_chemical_formula_moiety
;
C11 H12 N2 O6
;
_journal_coden_Cambridge 1090
_journal_volume 16
_journal_year 2005
_journal_page_first 3599
_journal_name_full 'Tetrahedron:Asymm. '
loop_
_publ_author_name
"M.C.Kozlowski"
"E.S.DiVirgilio"
"K.Malolanarasimhan"
"C.A.Mulrooney"
_chemical_name_systematic
;
2-(Nitrato)-2-phenylmalonamic acid ethyl ester
;
_chemical_melting_point 389.15
_cell_volume   1248.871
_exptl_crystal_density_diffrn 1.427
_exptl_special_details
;
Melting point range 389.15-390.15K

;
_exptl_crystal_preparation 'ethyl acetate/hexanes'
_diffrn_ambient_temperature 143
#These two values have been output from a single CSD field.
_refine_ls_R_factor_gt 0.0401
_refine_ls_wR_factor_gt 0.0401
_symmetry_cell_setting triclinic
_symmetry_space_group_name_H-M 'P -1'
_symmetry_Int_Tables_number 2
loop_
_symmetry_equiv_pos_site_id
_symmetry_equiv_pos_as_xyz
1 x,y,z
2 -x,-y,-z
_cell_length_a 8.0249(13)
_cell_length_b 9.3073(15)
_cell_length_c 17.725(3)
_cell_angle_alpha 74.281(9)
_cell_angle_beta 78.771(10)
_cell_angle_gamma 84.695(11)
_cell_formula_units_Z 4
loop_
_atom_type_symbol
_atom_type_radius_bond
C 0.68
H 0.23
N 0.68
O 0.68
loop_
_atom_site_label
_atom_site_type_symbol
_atom_site_fract_x
_atom_site_fract_y
_atom_site_fract_z
C1 C 0.4510(2) 0.3415(2) 0.88251(9)
C2 C 0.4748(2) 0.4892(2) 0.81816(10)
C3 C 0.5264(2) 0.6114(2) 0.83731(12)
H1 H 0.5431(2) 0.6031(2) 0.88881(12)
C4 C 0.5530(3) 0.7453(2) 0.77980(15)
H2 H 0.5870(3) 0.8269(2) 0.79295(15)
C5 C 0.5296(3) 0.7586(2) 0.70353(14)
H3 H 0.5488(3) 0.8486(2) 0.66500(14)
C6 C 0.4779(3) 0.6389(3) 0.68432(13)
H4 H 0.4612(3) 0.6483(3) 0.63270(13)
C7 C 0.4503(2) 0.5041(2) 0.74090(11)
H5 H 0.4153(2) 0.4234(2) 0.72725(11)
C8 C 0.6267(2) 0.2879(2) 0.90389(10)
C9 C 0.8215(2) 0.2950(2) 0.98847(11)
H6 H 0.8472(2) 0.3671(2) 1.01474(11)
H7 H 0.9080(2) 0.2991(2) 0.94143(11)
C10 C 0.8234(3) 0.1423(2) 1.04332(13)
H8 H 0.9315(7) 0.1206(7) 1.0604(7)
H9 H 0.8052(18) 0.0706(3) 1.0161(3)
H10 H 0.7348(12) 0.1375(5) 1.0888(4)
C11 C 0.3597(2) 0.2304(2) 0.85439(9)
N1 N 0.4567(2) 0.1467(2) 0.81269(9)
H11 H 0.4111(2) 0.0882(2) 0.79310(9)
H12 H 0.5655(2) 0.1506(2) 0.80504(9)
N2 N 0.2927(2) 0.2601(2) 1.01442(9)
O1 O 0.73021(14) 0.22237(14) 0.86484(7)
O2 O 0.65319(14) 0.33322(13) 0.96499(7)
O3 O 0.20386(14) 0.23332(13) 0.86874(7)
O4 O 0.33660(14) 0.38281(13) 0.94798(7)
O5 O 0.3654(2) 0.1413(2) 1.01445(7)
O6 O 0.1849(2) 0.2949(2) 1.06423(8)
C12 C -0.0453(2) -0.0037(2) 0.34038(9)
C13 C -0.0288(2) 0.1658(2) 0.31678(10)
C14 C 0.0083(2) 0.2330(2) 0.37260(12)
H13 H 0.0190(2) 0.1755(2) 0.42338(12)
C15 C 0.0293(3) 0.3854(2) 0.35238(14)
H14 H 0.0532(3) 0.4301(2) 0.38983(14)
C16 C 0.0149(3) 0.4712(2) 0.27720(14)
H15 H 0.0302(3) 0.5735(2) 0.26372(14)
C17 C -0.0221(3) 0.4052(2) 0.22200(13)
H16 H -0.0326(3) 0.4634(2) 0.17131(13)
C18 C -0.0438(2) 0.2530(2) 0.24149(11)
H17 H -0.0686(2) 0.2091(2) 0.20386(11)
C19 C 0.1317(2) -0.0747(2) 0.35008(10)
C20 C 0.3247(2) -0.1732(2) 0.43927(12)
H18 H 0.3464(2) -0.1553(2) 0.48785(12)
H19 H 0.4109(2) -0.1247(2) 0.39564(12)
C21 C 0.3353(3) -0.3372(3) 0.44651(15)
H20 H 0.4452(8) -0.3775(4) 0.4573(10)
H21 H 0.3184(21) -0.3546(3) 0.3976(4)
H22 H 0.2490(13) -0.3850(3) 0.4893(6)
C22 C -0.1314(2) -0.0559(2) 0.28122(10)
N3 N -0.0318(2) -0.0926(2) 0.22011(8)
H23 H -0.0755(2) -0.1187(2) 0.18545(8)
H24 H 0.0768(2) -0.0905(2) 0.21496(8)
N4 N -0.2031(2) -0.1832(2) 0.44815(9)
O7 O 0.23862(14) -0.08732(14) 0.29388(7)
O8 O 0.15564(14) -0.10918(14) 0.42487(7)
O9 O -0.28718(15) -0.05538(15) 0.29380(7)
O10 O -0.16153(14) -0.03151(13) 0.41607(6)
O11 O -0.1258(2) -0.27464(15) 0.41667(8)
O12 O -0.3134(2) -0.1994(2) 0.50564(8)
#END
