
#######################################################################
#
#                 Cambridge Crystallographic Data Centre
#                                CCDC
#
#######################################################################
#
# If this CIF has been generated from an entry in the Cambridge
# Structural Database, then it will include bibliographic, chemical,
# crystal, experimental, refinement or atomic coordinate data resulting
# from the CCDC's data processing and validation procedures.
#
#######################################################################

data_CSD_CIF_DAZZEM
_audit_creation_date 2017-09-25
_audit_creation_method CSD-ConQuest-V1
_database_code_CSD DAZZEM
_database_code_depnum_ccdc_archive 'CCDC 897020'
_chemical_formula_sum 'C30 H26 N2 O12'
_chemical_formula_moiety
;
C30 H26 N2 O12
;
_journal_coden_Cambridge 1336
_journal_volume 14
_journal_year 2012
_journal_page_first 4878
_journal_name_full 'Org.Lett. '
loop_
_publ_author_name
"Kun Zhao"
"Gui-Juan Cheng"
"Hongzhi Yang"
"Hai Shang"
"Xinhao Zhang"
"Yun-Dong Wu"
"Yefeng Tang"
_chemical_name_systematic
;
7-oxo-1,2,5a,6,7,8,8a,10,11,12a-decahydro-3aH-furo[2',3':7,7a][1]benzofuro[2,3
-e][1]benzofuran-5,12b(5bH)-diyl bis(4-nitrobenzoate) unknown solvate
;
_cell_volume   1426.426
_exptl_crystal_colour 'colorless'
_exptl_crystal_density_diffrn 1.412
_exptl_crystal_description 'plate'
_diffrn_ambient_temperature 173
_refine_special_details
;
O11,O12 and O11A,O12A disordered over two sites with occupancies 0.577:0.423; 
Disordered solvent molecules were not modelled and the disordered density was 
taken into account using the SQUEEZE/PLATON procedure.
;
#These two values have been output from a single CSD field.
_refine_ls_R_factor_gt 0.0762
_refine_ls_wR_factor_gt 0.0762
_symmetry_cell_setting triclinic
_symmetry_space_group_name_H-M 'P -1'
_symmetry_Int_Tables_number 2
loop_
_symmetry_equiv_pos_site_id
_symmetry_equiv_pos_as_xyz
1 x,y,z
2 -x,-y,-z
_cell_length_a 9.210(3)
_cell_length_b 13.341(4)
_cell_length_c 13.832(5)
_cell_angle_alpha 109.554(4)
_cell_angle_beta 105.763(4)
_cell_angle_gamma 104.633(2)
_cell_formula_units_Z 2
loop_
_atom_type_symbol
_atom_type_radius_bond
C 0.68
H 0.23
N 0.68
O 0.68
loop_
_atom_site_label
_atom_site_type_symbol
_atom_site_fract_x
_atom_site_fract_y
_atom_site_fract_z
O1 O -0.2797(4) -0.1986(2) 0.7874(3)
O2 O -0.0469(5) -0.2139(3) 0.8408(4)
O3 O 0.3435(3) 0.3545(3) 0.9631(2)
O4 O 0.1058(3) 0.3445(2) 0.8493(2)
O5 O -0.0234(3) 0.5249(2) 0.8763(2)
O6 O 0.2099(3) 0.3541(2) 0.6838(2)
O7 O 0.1490(3) 0.2068(2) 0.4351(2)
O8 O 0.7122(3) 0.4377(3) 0.5814(2)
O9 O 0.2831(3) 0.6969(2) 0.7205(2)
O10 O 0.4144(4) 0.8168(2) 0.9022(2)
O11 O 0.5927(15) 1.1679(10) 0.6182(9)
O12 O 0.5580(15) 1.2678(8) 0.7631(8)
N1 N -0.1309(5) -0.1594(3) 0.8224(3)
N2 N 0.5569(5) 1.1740(4) 0.6936(4)
C1 C -0.0464(5) -0.0390(3) 0.8451(3)
C2 C 0.1155(5) 0.0142(4) 0.9094(4)
H1 H 0.17400 -0.02490 0.93970
C3 C 0.1942(5) 0.1284(4) 0.9302(3)
H2 H 0.30740 0.16800 0.97530
C4 C 0.1068(5) 0.1833(3) 0.8850(3)
C5 C -0.0571(5) 0.1267(4) 0.8192(4)
H3 H -0.11620 0.16490 0.78800
C6 C -0.1364(5) 0.0130(4) 0.7983(4)
H4 H -0.24950 -0.02720 0.75310
C7 C 0.2010(5) 0.3030(3) 0.9051(3)
C8 C 0.1811(4) 0.4572(3) 0.8525(3)
C9 C 0.2512(5) 0.5543(3) 0.9715(3)
H5 H 0.26990 0.52360 1.02780
H6 H 0.35530 0.61300 0.98650
C10 C 0.1188(5) 0.6053(4) 0.9731(4)
H7 H 0.09700 0.61570 1.04140
H8 H 0.15370 0.68080 0.97100
C11 C 0.0353(5) 0.4806(3) 0.7914(3)
H9 H -0.05040 0.40860 0.72700
C12 C 0.0925(5) 0.5722(3) 0.7550(3)
H10 H 0.02090 0.60820 0.73360
C13 C 0.2363(4) 0.6045(3) 0.7514(3)
C14 C 0.3626(4) 0.5546(3) 0.7717(3)
H11 H 0.46600 0.61310 0.83550
C15 C 0.3938(4) 0.5008(3) 0.6657(3)
H12 H 0.38570 0.54740 0.62240
C16 C 0.5609(4) 0.4893(3) 0.6927(3)
H13 H 0.64850 0.56690 0.73200
H14 H 0.57270 0.45120 0.74310
C17 C 0.5802(5) 0.4206(3) 0.5886(3)
C18 C 0.4265(5) 0.3322(3) 0.4932(3)
H15 H 0.45080 0.26760 0.44960
H16 H 0.38550 0.36660 0.44370
C19 C 0.2947(4) 0.2862(3) 0.5309(3)
H17 H 0.33230 0.24590 0.57600
C20 C 0.0196(5) 0.2445(4) 0.4392(4)
H18 H -0.04650 0.20500 0.47100
H19 H -0.05200 0.22860 0.36350
C21 C 0.0987(5) 0.3724(3) 0.5128(3)
H20 H 0.02680 0.40020 0.54720
H21 H 0.12700 0.41580 0.47050
C22 C 0.2520(4) 0.3827(3) 0.6007(3)
C23 C 0.2964(4) 0.4498(3) 0.7920(3)
H22 H 0.39000 0.43650 0.83530
C24 C 0.3735(5) 0.8012(3) 0.8058(3)
C25 C 0.4196(5) 0.8953(3) 0.7713(3)
C26 C 0.3974(5) 0.8734(3) 0.6622(3)
H23 H 0.35030 0.79670 0.60560
C27 C 0.4459(5) 0.9666(4) 0.6370(4)
H24 H 0.43560 0.95440 0.56330
C28 C 0.5085(5) 1.0760(4) 0.7209(4)
C29 C 0.5276(6) 1.0998(4) 0.8283(4)
H25 H 0.56900 1.17660 0.88390
C30 C 0.4839(5) 1.0070(3) 0.8525(4)
H26 H 0.49850 1.02040 0.92700
O13? O 0.521(2) 1.1451(14) 0.5900(11)
O14? O 0.632(2) 1.2714(11) 0.7622(12)
#END
