
#######################################################################
#
#                 Cambridge Crystallographic Data Centre
#                                CCDC
#
#######################################################################
#
# If this CIF has been generated from an entry in the Cambridge
# Structural Database, then it will include bibliographic, chemical,
# crystal, experimental, refinement or atomic coordinate data resulting
# from the CCDC's data processing and validation procedures.
#
#######################################################################

data_CSD_CIF_DCXPYO
_audit_creation_date 1978-02-24
_audit_creation_method CSD-ConQuest-V1
_database_code_CSD DCXPYO
_chemical_formula_sum 'C7 H5 N1 O5'
_chemical_formula_moiety
;
C7 H5 N1 O5
;
_journal_coeditor_code "IUCr A15179"
_journal_coden_Cambridge 107
_journal_volume 33
_journal_year 1977
_journal_page_first 3555
_journal_name_full 'Acta Crystallogr.,Sect.B:Struct.Crystallogr.Cryst.Chem. '
loop_
_publ_author_name
"U.Rychlewska"
"M.Gdaniec"
_chemical_name_systematic
;
2,6-Dicarboxypyridine N-oxide
;
_cell_volume   1492.505
_exptl_crystal_density_diffrn 1.63
_diffrn_ambient_temperature ?
_diffrn_special_details
;
The study was carried out at room temperature,in the range 283-303K

;
#These two values have been output from a single CSD field.
_refine_ls_R_factor_gt 0.049
_refine_ls_wR_factor_gt 0.049
_symmetry_cell_setting monoclinic
_symmetry_space_group_name_H-M 'P 21/c'
_symmetry_Int_Tables_number 14
loop_
_symmetry_equiv_pos_site_id
_symmetry_equiv_pos_as_xyz
1 x,y,z
2 -x,1/2+y,1/2-z
3 -x,-y,-z
4 x,-1/2-y,-1/2+z
_cell_length_a 9.825(1)
_cell_length_b 6.1868(8)
_cell_length_c 24.596(4)
_cell_angle_alpha 90
_cell_angle_beta 93.36(1)
_cell_angle_gamma 90
_cell_formula_units_Z 8
loop_
_atom_type_symbol
_atom_type_radius_bond
C 0.68
H 0.23
N 0.68
O 0.68
loop_
_atom_site_label
_atom_site_type_symbol
_atom_site_fract_x
_atom_site_fract_y
_atom_site_fract_z
C1 C 0.06880 -0.29260 0.14930
C2 C 0.10330 -0.35110 0.20240
C3 C 0.17560 -0.53700 0.21430
C4 C 0.21490 -0.66180 0.17190
C5 C 0.18030 -0.60700 0.11850
C6 C 0.22270 -0.75030 0.07300
C7 C -0.00810 -0.08480 0.13760
O1 O 0.06830 -0.37350 0.05660
O2 O 0.18470 -0.69410 0.02300
O3 O 0.28760 -0.91050 0.08400
O4 O -0.03830 -0.03380 0.08670
O5 O -0.03750 0.02930 0.17450
N1 N 0.10660 -0.42400 0.10810
H1 H 0.06900 -0.24700 0.23500
H2 H 0.20800 -0.57400 0.25700
H3 H 0.27800 -0.80000 0.18000
H4 H 0.11400 -0.55200 0.02600
H5 H -0.00300 -0.15300 0.06100
C8 C 0.32720 -0.21470 0.36930
C9 C 0.28340 -0.18820 0.42060
C10 C 0.31130 -0.34400 0.46000
C11 C 0.38470 -0.52320 0.44730
C12 C 0.43260 -0.54660 0.39650
C13 C 0.52130 -0.73810 0.38400
C14 C 0.29130 -0.04460 0.32640
O6 O 0.44670 -0.41450 0.30800
O7 O 0.56510 -0.75370 0.33520
O8 O 0.54760 -0.86910 0.41970
O9 O 0.33040 -0.08180 0.27710
O10 O 0.23010 0.11300 0.33870
N2 N 0.40190 -0.39250 0.35810
H6 H 0.22800 -0.04200 0.43000
H7 H 0.29100 -0.31900 0.49900
H8 H 0.41000 -0.64100 0.48100
H9 H 0.51700 -0.59700 0.30900
H10 H 0.39500 -0.23400 0.27700
#END
