
#######################################################################
#
#                 Cambridge Crystallographic Data Centre
#                                CCDC
#
#######################################################################
#
# If this CIF has been generated from an entry in the Cambridge
# Structural Database, then it will include bibliographic, chemical,
# crystal, experimental, refinement or atomic coordinate data resulting
# from the CCDC's data processing and validation procedures.
#
#######################################################################

data_CSD_CIF_DCXPYO01
_audit_creation_date 2014-07-11
_audit_creation_method CSD-ConQuest-V1
_database_code_CSD DCXPYO01
_database_code_depnum_ccdc_archive 'CCDC 751653'
_chemical_formula_sum 'C7 H5 N1 O5'
_chemical_formula_moiety
;
C7 H5 N1 O5
;
_journal_coden_Cambridge 1078
_journal_year 2009
_journal_name_full 'CSD Communication(Private Communication) '
loop_
_publ_author_name
"R.Venkatraman"
"F.R.Fronczek"
_chemical_name_systematic
;
2,6-dicarboxypyridine N-oxide
;
_cell_volume   1449.040
_exptl_crystal_colour 'colorless'
_exptl_crystal_density_diffrn 1.679
_exptl_crystal_description 'prism'
_diffrn_ambient_temperature 100
#These two values have been output from a single CSD field.
_refine_ls_R_factor_gt 0.034
_refine_ls_wR_factor_gt 0.034
_symmetry_cell_setting monoclinic
_symmetry_space_group_name_H-M 'P 21/c'
_symmetry_Int_Tables_number 14
loop_
_symmetry_equiv_pos_site_id
_symmetry_equiv_pos_as_xyz
1 x,y,z
2 -x,1/2+y,1/2-z
3 -x,-y,-z
4 x,-1/2-y,-1/2+z
_cell_length_a 9.6870(15)
_cell_length_b 6.1238(10)
_cell_length_c 24.470(3)
_cell_angle_alpha 90
_cell_angle_beta 93.397(7)
_cell_angle_gamma 90
_cell_formula_units_Z 8
loop_
_atom_type_symbol
_atom_type_radius_bond
C 0.68
H 0.23
N 0.68
O 0.68
loop_
_atom_site_label
_atom_site_type_symbol
_atom_site_fract_x
_atom_site_fract_y
_atom_site_fract_z
N1 N 0.39474(9) 0.57401(16) 0.39212(4)
O1 O 0.43344(9) 0.62619(14) 0.44421(3)
O2 O 0.53915(9) 0.97235(15) 0.41373(4)
H1 H 0.5098(18) 0.863(3) 0.4347(7)
O3 O 0.53927(9) 1.03391(14) 0.32462(4)
O4 O 0.31745(9) 0.29762(15) 0.47818(3)
H2 H 0.3651(17) 0.431(3) 0.4757(7)
O5 O 0.21420(9) 0.07705(15) 0.41665(4)
C1 C 0.43217(11) 0.70697(18) 0.35059(4)
C2 C 0.39819(12) 0.64701(19) 0.29694(5)
H3 H 0.4257(14) 0.742(2) 0.2682(6)
C3 C 0.32469(12) 0.4574(2) 0.28501(5)
H4 H 0.3023(15) 0.417(2) 0.2477(6)
C4 C 0.28476(11) 0.32981(19) 0.32804(5)
H5 H 0.2325(15) 0.201(2) 0.3218(6)
C5 C 0.32053(11) 0.38785(18) 0.38162(4)
C6 C 0.50976(11) 0.91851(19) 0.36217(5)
C7 C 0.27897(12) 0.24133(19) 0.42754(5)
N2 N 0.90274(10) 0.10525(16) 0.35780(4)
O6 O 0.94830(9) 0.07794(15) 0.30733(3)
O7 O 0.83038(10) 0.41581(16) 0.27496(4)
H6 H 0.8803(18) 0.286(3) 0.2778(7)
O8 O 0.73423(9) 0.62203(15) 0.33688(4)
O9 O 1.06646(10) -0.26643(16) 0.33628(4)
H7 H 1.0285(18) -0.149(3) 0.3157(7)
O10 O 1.04874(9) -0.37569(15) 0.42194(4)
C8 C 0.82838(11) 0.28785(19) 0.36879(4)
C9 C 0.78420(12) 0.3191(2) 0.42101(5)
H8 H 0.7333(15) 0.451(3) 0.4278(6)
C10 C 0.81049(12) 0.1638(2) 0.46128(5)
H9 H 0.7793(15) 0.185(2) 0.4975(6)
C11 C 0.88409(12) -0.0209(2) 0.44855(5)
H10 H 0.9025(15) -0.136(2) 0.4749(6)
C12 C 0.93269(11) -0.04851(19) 0.39699(5)
C13 C 0.79389(12) 0.4565(2) 0.32495(5)
C14 C 1.02173(12) -0.2451(2) 0.38592(5)
#END
