
#######################################################################
#
#                 Cambridge Crystallographic Data Centre
#                                CCDC
#
#######################################################################
#
# If this CIF has been generated from an entry in the Cambridge
# Structural Database, then it will include bibliographic, chemical,
# crystal, experimental, refinement or atomic coordinate data resulting
# from the CCDC's data processing and validation procedures.
#
#######################################################################

data_CSD_CIF_DEBPAE
_audit_creation_date 2017-09-25
_audit_creation_method CSD-ConQuest-V1
_database_code_CSD DEBPAE
_database_code_depnum_ccdc_archive 'CCDC 1545603'
_chemical_formula_sum 'C25 H22 N2 O6'
_chemical_formula_moiety
;
C25 H22 N2 O6
;
_journal_coden_Cambridge 1336
_journal_volume 19
_journal_year 2017
_journal_page_first 4896
_journal_name_full 'Org.Lett. '
loop_
_publ_author_name
"Yang Yuan"
"Bo Yu"
"Xing-Feng Bai"
"Zheng Xu"
"Zhan-Jiang Zheng"
"Yu-Ming Cui"
"Jian Cao"
"Li-Wen Xu"
_chemical_name_systematic
;
dimethyl 
N-[(naphthalen-2-yl)methylidene]-4-[(4-nitrophenyl)methylidene]-D-glutamate
;
_cell_volume   2318.557
_exptl_crystal_colour 'colorless'
_exptl_crystal_density_diffrn 1.279
_exptl_crystal_description 'block'
_diffrn_ambient_temperature 296
#These two values have been output from a single CSD field.
_refine_ls_R_factor_gt 0.0499
_refine_ls_wR_factor_gt 0.0499
_symmetry_cell_setting monoclinic
_symmetry_space_group_name_H-M 'P 21'
_symmetry_Int_Tables_number 4
loop_
_symmetry_equiv_pos_site_id
_symmetry_equiv_pos_as_xyz
1 x,y,z
2 -x,1/2+y,-z
_cell_length_a 11.5902(18)
_cell_length_b 7.8925(11)
_cell_length_c 25.534(4)
_cell_angle_alpha 90
_cell_angle_beta 96.954(3)
_cell_angle_gamma 90
_cell_formula_units_Z 4
loop_
_atom_type_symbol
_atom_type_radius_bond
C 0.68
H 0.23
N 0.68
O 0.68
loop_
_atom_site_label
_atom_site_type_symbol
_atom_site_fract_x
_atom_site_fract_y
_atom_site_fract_z
C1 C 0.2617(4) 0.3052(6) 0.8882(2)
C2 C 0.2410(3) 0.4911(5) 0.87963(15)
H1 H 0.15770 0.51230 0.87040
C3 C 0.3073(3) 0.5555(7) 0.83583(16)
H2 H 0.38960 0.53530 0.84590
H3 H 0.28370 0.49020 0.80420
C4 C 0.2898(3) 0.7403(6) 0.82317(14)
C5 C 0.3722(3) 0.8587(6) 0.82879(14)
H4 H 0.34900 0.96570 0.81650
C6 C 0.1708(4) 0.7859(9) 0.79951(15)
C7 C 0.2017(6) 0.0608(7) 0.9333(2)
H5 H 0.28120 0.04040 0.94730
H6 H 0.18120 -0.01030 0.90320
H7 H 0.15220 0.03560 0.95980
C8 C 0.0339(4) 1.0075(10) 0.7810(2)
H8 H -0.02150 0.94700 0.79900
H9 H 0.01910 0.98600 0.74380
H10 H 0.02700 1.12680 0.78740
C9 C 0.4951(3) 0.8448(5) 0.85175(14)
C10 C 0.5793(3) 0.9260(5) 0.82709(15)
H11 H 0.55730 0.98710 0.79640
C11 C 0.6944(3) 0.9183(5) 0.84695(15)
H12 H 0.75080 0.96890 0.82920
C12 C 0.7250(3) 0.8337(5) 0.89401(15)
C13 C 0.6434(3) 0.7582(6) 0.92075(15)
H13 H 0.66510 0.70500 0.95290
C14 C 0.5281(3) 0.7624(6) 0.89907(15)
H14 H 0.47210 0.70930 0.91650
C15 C 0.2080(3) 0.6220(5) 0.95867(15)
H15 H 0.12970 0.60800 0.94640
C16 C 0.2381(3) 0.6977(5) 1.01051(14)
C17 C 0.1531(3) 0.7488(5) 1.03987(15)
H16 H 0.07560 0.73560 1.02610
C18 C 0.1796(3) 0.8208(5) 1.09034(15)
C19 C 0.0939(4) 0.8750(7) 1.12129(17)
H17 H 0.01600 0.86260 1.10810
C20 C 0.1220(5) 0.9453(8) 1.17004(19)
H18 H 0.06390 0.98190 1.18950
C21 C 0.2389(5) 0.9615(7) 1.19025(18)
H19 H 0.25880 1.00750 1.22360
C22 C 0.3224(5) 0.9111(7) 1.16183(18)
H20 H 0.39970 0.92350 1.17610
C23 C 0.2975(3) 0.8399(6) 1.11112(15)
C24 C 0.3831(3) 0.7837(7) 1.08074(18)
H21 H 0.46090 0.79370 1.09440
C25 C 0.3558(3) 0.7155(6) 1.03224(15)
H22 H 0.41470 0.68010 1.01300
N1 N 0.2819(2) 0.5747(4) 0.92972(11)
N2 N 0.8480(3) 0.8246(5) 0.91603(16)
O1 O 0.3352(3) 0.2258(5) 0.8712(2)
O2 O 0.1876(3) 0.2374(4) 0.91788(13)
O3 O 0.0992(3) 0.6846(6) 0.78140(14)
O4 O 0.1500(2) 0.9517(6) 0.80049(12)
O5 O 0.9210(2) 0.8804(6) 0.89033(13)
O6 O 0.8723(3) 0.7614(6) 0.95936(15)
C26 C 0.2468(4) -0.2951(7) 0.6084(2)
C27 C 0.2603(3) -0.1079(6) 0.61675(16)
H23 H 0.34280 -0.08040 0.62570
C28 C 0.1924(4) -0.0468(7) 0.66073(18)
H24 H 0.11040 -0.06860 0.65040
H25 H 0.21640 -0.11270 0.69220
C29 C 0.2079(3) 0.1376(8) 0.67393(15)
C30 C 0.1240(3) 0.2548(7) 0.66918(15)
H26 H 0.14630 0.36270 0.68110
C31 C 0.3261(4) 0.1863(13) 0.69857(17)
C32 C 0.3140(6) -0.5374(7) 0.5666(2)
H27 H 0.23460 -0.56520 0.55450
H28 H 0.34020 -0.60410 0.59720
H29 H 0.36150 -0.56110 0.53920
C33 C 0.4565(4) 0.4115(14) 0.7230(3)
H30 H 0.51100 0.38880 0.69840
H31 H 0.48040 0.35320 0.75560
H32 H 0.45390 0.53110 0.72950
C34 C 0.0002(3) 0.2356(6) 0.64739(15)
C35 C -0.0840(3) 0.3099(6) 0.67389(17)
H33 H -0.06180 0.36930 0.70490
C36 C -0.1997(3) 0.2974(7) 0.65514(17)
H34 H -0.25590 0.34500 0.67370
C37 C -0.2307(3) 0.2141(6) 0.60896(17)
C38 C -0.1509(3) 0.1430(6) 0.58064(17)
H35 H -0.17410 0.08910 0.54870
C39 C -0.0345(3) 0.1526(6) 0.60044(16)
H36 H 0.02090 0.10270 0.58190
C40 C 0.2886(3) 0.0254(5) 0.53738(15)
H37 H 0.36720 0.02040 0.55010
C41 C 0.2558(3) 0.0939(5) 0.48468(15)
C42 C 0.3383(3) 0.1494(5) 0.45521(16)
H38 H 0.41590 0.14550 0.46960
C43 C 0.3102(3) 0.2125(6) 0.40360(16)
C44 C 0.3935(4) 0.2702(8) 0.37215(19)
H39 H 0.47160 0.26870 0.38590
C45 C 0.3636(5) 0.3275(10) 0.3226(2)
H40 H 0.42050 0.36700 0.30290
C46 C 0.2475(6) 0.3275(9) 0.3010(2)
H41 H 0.22730 0.36500 0.26660
C47 C 0.1636(5) 0.2734(7) 0.32947(19)
H42 H 0.08640 0.27430 0.31440
C48 C 0.1917(4) 0.2157(6) 0.38173(16)
C49 C 0.1077(4) 0.1578(6) 0.41268(18)
H43 H 0.02970 0.15900 0.39870
C50 C 0.1378(3) 0.1001(6) 0.46264(17)
H44 H 0.08030 0.06420 0.48250
N3 N 0.2163(3) -0.0272(4) 0.56640(12)
N4 N -0.3556(3) 0.2025(6) 0.58799(19)
O7 O 0.3225(3) -0.3578(5) 0.58021(14)
O8 O 0.1764(4) -0.3791(6) 0.6261(3)
O9 O 0.3991(3) 0.0804(8) 0.71424(13)
O10 O 0.3428(3) 0.3533(9) 0.70144(15)
O11 O -0.4267(3) 0.2554(6) 0.61503(16)
O12 O -0.3813(3) 0.1410(7) 0.54488(17)
#END
