
#######################################################################
#
#                 Cambridge Crystallographic Data Centre
#                                CCDC
#
#######################################################################
#
# If this CIF has been generated from an entry in the Cambridge
# Structural Database, then it will include bibliographic, chemical,
# crystal, experimental, refinement or atomic coordinate data resulting
# from the CCDC's data processing and validation procedures.
#
#######################################################################

data_CSD_CIF_DEBTEL
_audit_creation_date 2012-11-07
_audit_creation_method CSD-ConQuest-V1
_database_code_CSD DEBTEL
_database_code_depnum_ccdc_archive 'CCDC 865048'
_chemical_formula_sum 'C18 H29 N1 O8'
_chemical_formula_moiety
;
C18 H29 N1 O8
;
_journal_coden_Cambridge 179
_journal_volume 51
_journal_year 2012
_journal_page_first 5114
_journal_name_full 'Angew.Chem.,Int.Ed. '
loop_
_publ_author_name
"V.R.Pattabiraman"
"A.O.Ogunkoya"
"J.W.Bode"
_chemical_name_systematic
;
Ethyl 
2-(6-(2,2-dimethyl-1,3-dioxolan-4-yl)-2,2-dimethyltetrahydrofuro[3,4-d][1,3]di
oxol-4-yl)-1,2-oxazolidine-3-carboxylate
;
_cell_volume   1905.861
_exptl_crystal_colour 'colorless'
_exptl_crystal_density_diffrn 1.35
_exptl_crystal_description 'rod'
_diffrn_ambient_temperature 100
#These two values have been output from a single CSD field.
_refine_ls_R_factor_gt 0.0423
_refine_ls_wR_factor_gt 0.0423
_symmetry_cell_setting monoclinic
_symmetry_space_group_name_H-M 'P 21'
_symmetry_Int_Tables_number 4
loop_
_symmetry_equiv_pos_site_id
_symmetry_equiv_pos_as_xyz
1 x,y,z
2 -x,1/2+y,-z
_cell_length_a 5.4637(5)
_cell_length_b 36.261(4)
_cell_length_c 9.623(1)
_cell_angle_alpha 90
_cell_angle_beta 91.485(3)
_cell_angle_gamma 90
_cell_formula_units_Z 4
loop_
_atom_type_symbol
_atom_type_radius_bond
C 0.68
H 0.23
N 0.68
O 0.68
loop_
_atom_site_label
_atom_site_type_symbol
_atom_site_fract_x
_atom_site_fract_y
_atom_site_fract_z
O1 O -0.2834(3) 0.60417(5) 0.2524(2)
O2 O -0.5555(3) 0.61723(5) 0.0797(2)
O3 O -0.4148(3) 0.53673(5) 0.06730(19)
O4 O -0.3335(4) 0.57302(5) -0.2747(2)
O5 O -0.1166(3) 0.45453(6) -0.2117(2)
O6 O 0.1282(4) 0.50752(6) 0.4303(2)
O7 O -0.1668(3) 0.49018(6) 0.2736(2)
O8 O 0.1189(4) 0.50197(6) -0.1411(3)
N1 N -0.2768(4) 0.55036(6) -0.1535(2)
C1 C -0.4480(5) 0.56146(8) -0.0445(3)
H1 H -0.617(5) 0.5598(8) -0.069(3)
C2 C -0.3607(5) 0.59861(8) 0.0115(3)
H2 H -0.295(5) 0.6120(9) -0.064(3)
C3 C -0.1785(5) 0.58858(8) 0.1299(3)
H3 H -0.018(5) 0.5962(9) 0.123(3)
C4 C -0.4505(5) 0.63207(8) 0.2047(3)
C5 C -0.1868(5) 0.54620(8) 0.1362(3)
H4 H -0.047(4) 0.5367(7) 0.083(3)
C6 C -0.4998(6) 0.55204(9) -0.3619(3)
H5 H -0.489(5) 0.5636(8) -0.456(3)
H6 H -0.662(6) 0.5537(9) -0.322(3)
C7 C -0.3960(6) 0.51345(9) -0.3520(3)
H7 H -0.254(5) 0.5115(8) -0.411(3)
H8 H -0.522(8) 0.4960(13) -0.373(4)
C8 C -0.3122(5) 0.51176(8) -0.1984(3)
H9 H -0.436(5) 0.5002(7) -0.142(3)
C9 C -0.0761(5) 0.49043(9) -0.1782(3)
C10 C 0.0957(6) 0.43062(9) -0.1982(4)
H10 H 0.225(6) 0.4399(10) -0.262(4)
H11 H 0.156(7) 0.4299(11) -0.083(5)
C11 C 0.0154(7) 0.39327(9) -0.2500(4)
H12 H -0.036(6) 0.3947(11) -0.364(4)
H13 H 0.141(7) 0.3755(11) -0.235(4)
H14 H -0.144(7) 0.3841(11) -0.196(4)
C12 C -0.3159(5) 0.66785(8) 0.1767(3)
H15 H -0.195(6) 0.6633(9) 0.101(4)
H16 H -0.215(5) 0.6779(9) 0.269(3)
H17 H -0.437(6) 0.6874(11) 0.146(4)
C13 C -0.6465(6) 0.63709(9) 0.3104(3)
H18 H -0.729(5) 0.6144(9) 0.338(3)
H19 H -0.565(6) 0.6458(10) 0.398(4)
H20 H -0.762(7) 0.6566(12) 0.275(4)
C14 C -0.1790(5) 0.52975(8) 0.2797(3)
H21 H -0.334(5) 0.5364(9) 0.331(3)
C15 C 0.0514(5) 0.54082(8) 0.3629(3)
H22 H 0.188(5) 0.5510(8) 0.297(3)
H23 H 0.006(7) 0.5607(12) 0.428(4)
C16 C 0.0575(5) 0.47849(8) 0.3366(3)
C17 C 0.2482(6) 0.47223(10) 0.2282(4)
H24 H 0.421(6) 0.4659(10) 0.281(3)
H25 H 0.290(5) 0.4926(10) 0.178(3)
H26 H 0.191(6) 0.4518(12) 0.164(4)
C18 C 0.0122(7) 0.44469(9) 0.4226(4)
H27 H -0.100(6) 0.4509(10) 0.493(4)
H28 H -0.030(6) 0.4229(11) 0.356(4)
H29 H 0.168(8) 0.4358(13) 0.475(5)
O9 O 0.2141(3) 0.69666(5) 0.6653(2)
O10 O -0.0476(3) 0.68055(5) 0.8309(2)
O11 O 0.0946(3) 0.76197(5) 0.8513(2)
O12 O 0.1447(4) 0.72331(6) 1.1943(2)
O13 O 0.2645(3) 0.84040(6) 1.0168(2)
O14 O 0.6439(4) 0.79172(6) 0.5034(2)
O15 O 0.4126(4) 0.81008(5) 0.6863(2)
O16 O 0.5617(4) 0.80730(7) 1.1219(3)
N2 N 0.2065(4) 0.74760(7) 1.0790(2)
C19 C 0.1455(5) 0.69939(8) 0.9053(3)
H30 H 0.223(5) 0.6840(9) 0.984(3)
C20 C 0.3267(5) 0.71015(8) 0.7905(3)
H31 H 0.498(5) 0.6992(8) 0.805(3)
C21 C 0.3279(5) 0.75207(8) 0.7950(3)
H32 H 0.452(6) 0.7594(9) 0.863(3)
C22 C 0.0556(5) 0.66749(8) 0.7056(3)
C23 C 0.0527(5) 0.73619(8) 0.9593(3)
H33 H -0.124(5) 0.7378(8) 0.981(3)
C24 C 0.1431(5) 0.78570(8) 1.1223(3)
H34 H -0.014(5) 0.7932(9) 1.075(3)
C25 C 0.1077(6) 0.78269(9) 1.2790(3)
H35 H 0.264(6) 0.7829(9) 1.328(3)
H36 H -0.003(5) 0.8015(9) 1.310(3)
C26 C -0.0006(6) 0.74464(9) 1.2878(3)
H37 H -0.170(7) 0.7452(11) 1.250(4)
H38 H 0.019(6) 0.7316(10) 1.380(4)
C27 C 0.3517(5) 0.81141(8) 1.0883(3)
C28 C 0.4433(7) 0.86801(10) 0.9792(4)
H39 H 0.507(6) 0.8811(10) 1.078(4)
H40 H 0.582(6) 0.8569(10) 0.945(4)
C29 C 0.3150(8) 0.89315(11) 0.8765(5)
H41 H 0.266(8) 0.8783(14) 0.789(5)
H42 H 0.452(8) 0.9125(13) 0.839(5)
H43 H 0.176(8) 0.9019(14) 0.914(5)
C30 C -0.1435(6) 0.66244(9) 0.5964(3)
H44 H -0.067(5) 0.6559(9) 0.504(3)
H45 H -0.263(6) 0.6439(11) 0.631(4)
H46 H -0.240(6) 0.6848(11) 0.573(4)
C31 C 0.1989(6) 0.63204(9) 0.7326(3)
H47 H 0.087(5) 0.6114(9) 0.766(3)
H48 H 0.285(5) 0.6233(9) 0.647(3)
H49 H 0.330(6) 0.6347(10) 0.810(4)
C32 C 0.3580(5) 0.77197(8) 0.6590(3)
H50 H 0.207(5) 0.7714(8) 0.601(3)
C33 C 0.5805(6) 0.75953(9) 0.5797(3)
H51 H 0.534(6) 0.7395(10) 0.508(4)
H52 H 0.737(6) 0.7521(9) 0.644(3)
C34 C 0.5868(5) 0.82298(8) 0.5882(3)
C35 C 0.4739(7) 0.85180(9) 0.4952(4)
H53 H 0.434(6) 0.8738(10) 0.553(4)
H54 H 0.332(6) 0.8437(9) 0.451(3)
H55 H 0.588(6) 0.8558(10) 0.420(4)
C36 C 0.8111(6) 0.83643(11) 0.6674(4)
H56 H 0.929(6) 0.8424(11) 0.602(4)
H57 H 0.748(7) 0.8599(12) 0.724(4)
H58 H 0.877(5) 0.8170(9) 0.731(3)
#END
