
#######################################################################
#
#                 Cambridge Crystallographic Data Centre
#                                CCDC
#
#######################################################################
#
# If this CIF has been generated from an entry in the Cambridge
# Structural Database, then it will include bibliographic, chemical,
# crystal, experimental, refinement or atomic coordinate data resulting
# from the CCDC's data processing and validation procedures.
#
#######################################################################

data_CSD_CIF_DECCOG
_audit_creation_date 2017-09-25
_audit_creation_method CSD-ConQuest-V1
_database_code_CSD DECCOG
_database_code_depnum_ccdc_archive 'CCDC 1555169'
_chemical_formula_sum 'C23 H21 N5 O4'
_chemical_formula_moiety
;
C23 H21 N5 O4
;
_journal_coden_Cambridge 1295
_journal_volume 84
_journal_year 2017
_journal_page_first 103
_journal_name_full 'Inorg.Chem.Commun. '
loop_
_publ_author_name
"B.Panunzi"
"F.Borbone"
"A.Capobianco"
"S.Concilio"
"R.Diana"
"A.Peluso"
"S.Piotto"
"Angela Tuzi"
"A.Velardo"
"U.Caruso"
_chemical_name_systematic
;
2-(1,3-benzoxazol-2-yl)-5-(diethylamino)-4-[(4-nitrophenyl)diazenyl]phenol
;
_cell_volume   2015.828
_exptl_crystal_colour 'red'
_exptl_crystal_density_diffrn 1.422
_exptl_crystal_description 'block'
_diffrn_ambient_temperature 173
#These two values have been output from a single CSD field.
_refine_ls_R_factor_gt 0.0506
_refine_ls_wR_factor_gt 0.0506
_symmetry_cell_setting monoclinic
_symmetry_space_group_name_H-M 'P 21/c'
_symmetry_Int_Tables_number 14
loop_
_symmetry_equiv_pos_site_id
_symmetry_equiv_pos_as_xyz
1 x,y,z
2 -x,1/2+y,1/2-z
3 -x,-y,-z
4 x,-1/2-y,-1/2+z
_cell_length_a 8.6040(6)
_cell_length_b 19.117(2)
_cell_length_c 12.267(3)
_cell_angle_alpha 90
_cell_angle_beta 92.474(13)
_cell_angle_gamma 90
_cell_formula_units_Z 4
loop_
_atom_type_symbol
_atom_type_radius_bond
C 0.68
H 0.23
N 0.68
O 0.68
loop_
_atom_site_label
_atom_site_type_symbol
_atom_site_fract_x
_atom_site_fract_y
_atom_site_fract_z
C1 C 0.4105(2) -0.21759(10) -0.36120(15)
C2 C 0.4507(2) -0.26989(11) -0.43291(18)
H1 H 0.40895 -0.27116 -0.50585
C3 C 0.5535(2) -0.31986(12) -0.39392(19)
H2 H 0.58285 -0.35665 -0.44085
C4 C 0.6161(3) -0.31788(11) -0.28679(19)
H3 H 0.68751 -0.35320 -0.26305
C5 C 0.5773(2) -0.26625(11) -0.21497(18)
H4 H 0.61938 -0.26446 -0.14215
C6 C 0.4733(2) -0.21745(10) -0.25582(16)
C7 C 0.3158(2) -0.12975(10) -0.27980(15)
C8 C 0.2353(2) -0.06683(9) -0.25264(15)
C9 C 0.1533(2) -0.02866(10) -0.33583(15)
C10 C 0.0775(2) 0.03186(10) -0.31182(16)
H5 H 0.02549 0.05687 -0.36949
C11 C 0.0735(2) 0.05860(9) -0.20524(15)
C12 C 0.1613(2) 0.02123(9) -0.12218(15)
C13 C 0.2379(2) -0.03983(9) -0.14857(15)
H6 H 0.29475 -0.06414 -0.09231
C14 C 0.2645(2) 0.04358(10) 0.15757(15)
C15 C 0.3697(2) 0.01205(10) 0.23066(16)
H7 H 0.43292 -0.02534 0.20722
C16 C 0.3832(2) 0.03472(10) 0.33734(16)
H8 H 0.45542 0.01351 0.38792
C17 C 0.2897(2) 0.08865(10) 0.36884(16)
C18 C 0.1832(2) 0.12066(11) 0.29773(17)
H9 H 0.11945 0.15765 0.32180
C19 C 0.1714(2) 0.09796(10) 0.19159(16)
H10 H 0.09924 0.11951 0.14129
C20 C -0.0555(3) 0.16445(11) -0.28023(18)
H11 H 0.02188 0.16079 -0.33742
H12 H -0.05616 0.21360 -0.25487
C21 C -0.2127(3) 0.14697(13) -0.3296(2)
H13 H -0.21207 0.09904 -0.35789
H14 H -0.23863 0.17954 -0.38931
H15 H -0.29046 0.15089 -0.27381
C22 C -0.0749(2) 0.13778(11) -0.08513(17)
H16 H -0.06321 0.09794 -0.03387
H17 H -0.18762 0.14606 -0.09905
C23 C -0.0031(3) 0.20196(11) -0.0323(2)
H18 H 0.10870 0.19437 -0.01877
H19 H -0.05189 0.21095 0.03710
H20 H -0.01951 0.24227 -0.08075
N1 N 0.31021(18) -0.16072(8) -0.37380(13)
N2 N -0.0056(2) 0.11904(8) -0.18764(14)
N3 N 0.17477(18) 0.04979(8) -0.01669(12)
N4 N 0.25756(19) 0.01480(8) 0.05055(13)
N5 N 0.3033(2) 0.11312(9) 0.48150(14)
O1 O 0.41195(15) -0.16090(7) -0.20204(10)
O2 O 0.14652(19) -0.05063(8) -0.43998(11)
O3 O 0.4046(2) 0.08857(9) 0.54198(13)
O4 O 0.21177(19) 0.15776(9) 0.51025(12)
H21 H 0.191(3) -0.0911(14) -0.442(2)
#END
