
#######################################################################
#
#                 Cambridge Crystallographic Data Centre
#                                CCDC
#
#######################################################################
#
# If this CIF has been generated from an entry in the Cambridge
# Structural Database, then it will include bibliographic, chemical,
# crystal, experimental, refinement or atomic coordinate data resulting
# from the CCDC's data processing and validation procedures.
#
#######################################################################

data_CSD_CIF_DECDUL
_audit_creation_date 2006-05-05
_audit_creation_method CSD-ConQuest-V1
_database_code_CSD DECDUL
_database_code_depnum_ccdc_archive 'CCDC 287213'
_chemical_formula_sum 'C22 H26 N1 O1'
_chemical_formula_moiety
;
C22 H26 N1 O1
;
_journal_coden_Cambridge 485
_journal_volume 44
_journal_year 2006
_journal_page_first 1926
_journal_name_full 'J.Polym.Sci.,Part A:Polym.Chem. '
loop_
_publ_author_name
"O.Lagrille"
"N.R.Cameron"
"P.A.Lovell"
"R.Blanchard"
"A.E.Goeta"
"R.Koch"
_chemical_name_systematic
;
2,2,5-Trimethyl-4-(9-phenanthryl)-3-azahexane-3-oxide
;
_cell_volume   3619.098
_exptl_crystal_colour 'yellow'
_exptl_crystal_density_diffrn 1.176
_exptl_crystal_description 'irregular'
_exptl_crystal_preparation 'methanol'
_diffrn_ambient_temperature 120
#These two values have been output from a single CSD field.
_refine_ls_R_factor_gt 0.0533
_refine_ls_wR_factor_gt 0.0533
_symmetry_cell_setting monoclinic
_symmetry_space_group_name_H-M 'P 21/n'
_symmetry_Int_Tables_number 14
loop_
_symmetry_equiv_pos_site_id
_symmetry_equiv_pos_as_xyz
1 x,y,z
2 1/2-x,1/2+y,1/2-z
3 -x,-y,-z
4 -1/2+x,-1/2-y,-1/2+z
_cell_length_a 10.5010(8)
_cell_length_b 22.1973(17)
_cell_length_c 16.1856(12)
_cell_angle_alpha 90
_cell_angle_beta 106.409(2)
_cell_angle_gamma 90
_cell_formula_units_Z 8
loop_
_atom_type_symbol
_atom_type_radius_bond
C 0.68
H 0.23
N 0.68
O 0.68
loop_
_atom_site_label
_atom_site_type_symbol
_atom_site_fract_x
_atom_site_fract_y
_atom_site_fract_z
O1 O 0.74680(11) 0.17807(5) 0.87042(8)
N1 N 0.63047(12) 0.19950(5) 0.86280(8)
C1 C 0.54571(13) 0.32012(6) 0.99594(9)
C2 C 0.41362(14) 0.30520(6) 0.99365(9)
H1 H 0.38060 0.26610 0.97530
C3 C 0.33237(15) 0.34603(7) 1.01745(10)
H2 H 0.24430 0.33490 1.01570
C4 C 0.37843(15) 0.40395(7) 1.04435(10)
H3 H 0.32130 0.43230 1.05980
C5 C 0.50638(14) 0.41966(6) 1.04828(9)
H4 H 0.53700 0.45900 1.06680
C6 C 0.59364(14) 0.37867(6) 1.02537(9)
C7 C 0.72994(14) 0.39509(6) 1.03158(9)
C8 C 0.78716(15) 0.45066(6) 1.06587(9)
H5 H 0.73500 0.47930 1.08550
C9 C 0.91689(15) 0.46376(7) 1.07118(10)
H6 H 0.95370 0.50120 1.09480
C10 C 0.99574(15) 0.42253(7) 1.0422(1)
H7 H 1.08540 0.43210 1.04580
C11 C 0.94307(14) 0.36850(7) 1.00865(10)
H8 H 0.99620 0.34080 0.98820
C12 C 0.81064(14) 0.35340(6) 1.00404(9)
C13 C 0.75836(14) 0.29547(6) 0.97363(9)
H9 H 0.81370 0.26800 0.95490
C14 C 0.63347(14) 0.27813(6) 0.97039(9)
C15 C 0.59218(14) 0.21363(6) 0.94195(9)
H10 H 0.49350 0.21050 0.92870
C16 C 0.65635(15) 0.16762(6) 1.01411(10)
H11 H 0.75500 0.17050 1.02650
C17 C 0.61985(17) 0.18307(7) 1.09648(10)
H12 H 0.66080 0.15380 1.14140
H13 H 0.52320 0.18180 1.08520
H14 H 0.65210 0.22360 1.11570
C18 C 0.61501(18) 0.10310(7) 0.98655(12)
H15 H 0.65720 0.07540 1.03350
H16 H 0.64300 0.09300 0.93540
H17 H 0.51830 0.09950 0.97310
C19 C 0.53672(15) 0.20883(7) 0.77596(10)
C20 C 0.43641(18) 0.15717(8) 0.75787(11)
H18 H 0.38580 0.15800 0.80030
H19 H 0.48350 0.11870 0.76190
H20 H 0.37560 0.16170 0.69990
C21 C 0.61547(18) 0.20749(8) 0.70973(11)
H21 H 0.67980 0.24060 0.72120
H22 H 0.55450 0.21200 0.65180
H23 H 0.66250 0.16900 0.71370
C22 C 0.46607(19) 0.26937(8) 0.77162(11)
H24 H 0.53180 0.30190 0.78340
H25 H 0.41660 0.27030 0.81470
H26 H 0.40450 0.27480 0.71400
O2 O -0.28829(11) -0.15950(5) 0.03191(8)
N2 N -0.17220(13) -0.13762(5) 0.03834(8)
C23 C -0.22119(15) -0.05689(6) 0.16453(9)
H27 H -0.29370 -0.07910 0.12940
C24 C -0.24881(14) -0.00526(6) 0.20950(9)
C25 C -0.38107(15) 0.01136(7) 0.20315(10)
H28 H -0.45220 -0.01080 0.16650
C26 C -0.40805(16) 0.05922(7) 0.24928(10)
H29 H -0.49730 0.07020 0.24450
C27 C -0.30291(17) 0.09167(7) 0.30335(10)
H30 H -0.32130 0.12410 0.33650
C28 C -0.17353(16) 0.07721(6) 0.30916(10)
H31 H -0.10370 0.10030 0.34550
C29 C -0.14239(14) 0.02862(6) 0.26196(9)
C30 C -0.00706(14) 0.01142(6) 0.26563(9)
C31 C 0.10311(15) 0.04477(6) 0.31413(9)
H32 H 0.08850 0.07930 0.34490
C32 C 0.23082(15) 0.02857(7) 0.31803(10)
H33 H 0.30340 0.05170 0.35130
C33 C 0.25392(15) -0.02216(7) 0.27294(10)
H34 H 0.34230 -0.03330 0.27540
C34 C 0.14904(15) -0.05602(6) 0.22506(9)
H35 H 0.16610 -0.09040 0.19490
C35 C 0.01602(14) -0.04059(6) 0.21997(9)
C36 C -0.09605(14) -0.07553(6) 0.16986(9)
C37 C -0.07610(14) -0.13392(6) 0.12484(9)
H36 H 0.01520 -0.13320 0.11740
C38 C -0.08835(15) -0.19105(6) 0.17634(10)
H37 H -0.18300 -0.19520 0.17670
C39 C -0.00229(18) -0.18732(7) 0.26899(11)
H38 H -0.01260 -0.22430 0.29960
H39 H -0.02960 -0.15260 0.29730
H40 H 0.09090 -0.18270 0.26990
C40 C -0.05109(17) -0.24651(7) 0.13209(12)
H41 H -0.05900 -0.28270 0.16500
H42 H 0.04060 -0.24250 0.12930
H43 H -0.11100 -0.24980 0.07360
C41 C -0.15533(18) -0.10591(7) -0.03944(10)
C42 C -0.1935(3) -0.15031(11) -0.11390(14)
H44 H -0.13340 -0.18500 -0.10120
H45 H -0.18670 -0.13060 -0.16670
H46 H -0.28490 -0.16400 -0.12180
C43 C -0.0118(2) -0.08561(9) -0.02440(13)
H47 H 0.04680 -0.12080 -0.01280
H48 H 0.01270 -0.05820 0.02500
H49 H -0.00270 -0.06470 -0.07580
C44 C -0.2476(2) -0.05137(10) -0.05763(13)
H50 H -0.33960 -0.06480 -0.06720
H51 H -0.23890 -0.03050 -0.10910
H52 H -0.22360 -0.02390 -0.00830
#END
