
#######################################################################
#
#                 Cambridge Crystallographic Data Centre
#                                CCDC
#
#######################################################################
#
# If this CIF has been generated from an entry in the Cambridge
# Structural Database, then it will include bibliographic, chemical,
# crystal, experimental, refinement or atomic coordinate data resulting
# from the CCDC's data processing and validation procedures.
#
#######################################################################

data_CSD_CIF_DECKIF
_audit_creation_date 2000-02-17
_audit_creation_method CSD-ConQuest-V1
_database_code_CSD DECKIF
_database_code_depnum_ccdc_archive 'CCDC 138196'
_database_code_depnum_ccdc_journal 207/360
_chemical_formula_sum 'C21 H21 N1 O1'
_chemical_formula_moiety
;
C21 H21 N1 O1
;
_journal_coden_Cambridge 207
_journal_year 1999
_journal_page_first 3443
_journal_name_full 'J.Chem.Soc.,Perkin Trans.1 '
loop_
_publ_author_name
"J.C.A.Hunt"
"C.Lloyd"
"C.J.Moody"
"A.M.Z.Slawin"
"A.K.Takle"
_chemical_name_systematic
;
(+-)-O-(1-Phenylbutyl)-2-naphthaldehyde oxime
;
_cell_volume   1650.237
_exptl_crystal_colour 'colorless'
_exptl_crystal_density_diffrn 1.221
_exptl_crystal_description 'plate'
_diffrn_ambient_temperature ?
_diffrn_special_details
;
The study was carried out at room temperature,in the range 283-303K

;
#These two values have been output from a single CSD field.
_refine_ls_R_factor_gt 0.0352
_refine_ls_wR_factor_gt 0.0352
_symmetry_cell_setting monoclinic
_symmetry_space_group_name_H-M 'P 21/c'
_symmetry_Int_Tables_number 14
loop_
_symmetry_equiv_pos_site_id
_symmetry_equiv_pos_as_xyz
1 x,y,z
2 x,1/2-y,1/2+z
3 -x,-y,-z
4 -x,-1/2+y,-1/2-z
_cell_length_a 18.514(2)
_cell_length_b 7.606(2)
_cell_length_c 12.166(1)
_cell_angle_alpha 90
_cell_angle_beta 105.58(1)
_cell_angle_gamma 90
_cell_formula_units_Z 4
loop_
_atom_type_symbol
_atom_type_radius_bond
C 0.68
H 0.23
N 0.68
O 0.68
loop_
_atom_site_label
_atom_site_type_symbol
_atom_site_fract_x
_atom_site_fract_y
_atom_site_fract_z
O1 O 0.19822(8) 0.2515(2) -0.0108(1)
N1 N 0.2497(1) 0.3225(3) -0.0673(2)
C1 C 0.4467(1) 0.2428(3) -0.0230(2)
C2 C 0.5095(1) 0.2884(3) -0.0625(2)
C3 C 0.3756(1) 0.2943(3) -0.0785(2)
C4 C 0.3642(1) 0.3939(3) -0.1803(2)
C5 C 0.4234(1) 0.4408(3) -0.2199(2)
C6 C 0.4976(1) 0.3905(3) -0.1630(2)
C7 C 0.5603(1) 0.4380(3) -0.2021(2)
C8 C 0.6305(1) 0.3868(4) -0.1456(2)
C9 C 0.6420(1) 0.2868(4) -0.0464(2)
C10 C 0.5832(1) 0.2384(3) -0.0053(2)
C11 C 0.3134(1) 0.2498(3) -0.0307(2)
C12 C 0.1369(1) 0.3743(3) -0.0203(2)
C13 C 0.0697(1) 0.2662(3) -0.0147(2)
C14 C 0.0429(1) 0.1363(3) -0.1114(2)
C15 C 0.0115(2) 0.2214(4) -0.2263(2)
C16 C 0.1587(1) 0.5124(3) 0.0726(2)
C17 C 0.1831(1) 0.4657(3) 0.1867(2)
C18 C 0.2024(1) 0.5912(4) 0.2713(2)
C19 C 0.1986(1) 0.7680(4) 0.2424(2)
C20 C 0.1748(1) 0.8155(3) 0.1297(2)
C21 C 0.1544(1) 0.6900(3) 0.0446(2)
H1 H 0.45420 0.17410 0.04430
H2 H 0.31490 0.42790 -0.22090
H3 H 0.41470 0.50920 -0.28760
H4 H 0.55310 0.50700 -0.26930
H5 H 0.67190 0.41900 -0.17350
H6 H 0.69140 0.25200 -0.00680
H7 H 0.59210 0.17030 0.06250
H8 H 0.32080 0.16520 0.02860
H9 H 0.12650 0.43070 -0.09260
H10 H 0.02960 0.34460 -0.01530
H11 H 0.08240 0.20240 0.05500
H12 H 0.00480 0.06540 -0.09500
H13 H 0.08410 0.06440 -0.11530
H14 H -0.00280 0.13290 -0.28320
H15 H 0.04860 0.29470 -0.24340
H16 H -0.03110 0.29020 -0.22480
H17 H 0.18660 0.34480 0.20710
H18 H 0.21830 0.55670 0.34910
H19 H 0.21230 0.85530 0.30010
H20 H 0.17220 0.93660 0.10980
H21 H 0.13750 0.72520 -0.03290
#END
