
#######################################################################
#
#                 Cambridge Crystallographic Data Centre
#                                CCDC
#
#######################################################################
#
# If this CIF has been generated from an entry in the Cambridge
# Structural Database, then it will include bibliographic, chemical,
# crystal, experimental, refinement or atomic coordinate data resulting
# from the CCDC's data processing and validation procedures.
#
#######################################################################

data_CSD_CIF_DEDWEO
_audit_creation_date 1986-07-02
_audit_creation_method CSD-ConQuest-V1
_database_code_CSD DEDWEO
_chemical_formula_sum 'C19 H13 N1 O1'
_chemical_formula_moiety
;
C19 H13 N1 O1
;
_journal_coden_Cambridge 207
_journal_year 1985
_journal_page_first 1837
_journal_name_full 'J.Chem.Soc.,Perkin Trans.1 '
loop_
_publ_author_name
"C.P.Falshaw"
"N.A.Hashi"
"G.A.Taylor"
_chemical_name_systematic
;
N-Fluoren-9-ylidene-phenylamine-N-oxide
;
_cell_volume   1350.926
_exptl_crystal_density_diffrn 1.35
_diffrn_ambient_temperature ?
_diffrn_special_details
;
The study was carried out at room temperature,in the range 283-303K

;
#These two values have been output from a single CSD field.
_refine_ls_R_factor_gt 0.0522
_refine_ls_wR_factor_gt 0.0522
_symmetry_cell_setting monoclinic
_symmetry_space_group_name_H-M 'P 21/c'
_symmetry_Int_Tables_number 14
loop_
_symmetry_equiv_pos_site_id
_symmetry_equiv_pos_as_xyz
1 x,y,z
2 -x,1/2+y,1/2-z
3 -x,-y,-z
4 x,-1/2-y,-1/2+z
_cell_length_a 5.205(4)
_cell_length_b 23.492(7)
_cell_length_c 11.232(6)
_cell_angle_alpha 90
_cell_angle_beta 100.38(1)
_cell_angle_gamma 90
_cell_formula_units_Z 4
loop_
_atom_type_symbol
_atom_type_radius_bond
C 0.68
H 0.23
N 0.68
O 0.68
loop_
_atom_site_label
_atom_site_type_symbol
_atom_site_fract_x
_atom_site_fract_y
_atom_site_fract_z
C1 C 1.0059(7) 0.1466(1) 0.3605(3)
C2 C 1.1946(7) 0.1804(1) 0.4303(4)
C3 C 1.4039(8) 0.1553(2) 0.5044(4)
C4 C 1.4256(8) 0.0963(2) 0.5112(4)
C5 C 1.2399(8) 0.0620(2) 0.4440(4)
C6 C 1.0303(7) 0.0866(1) 0.3690(3)
C7 C 0.8100(8) 0.0609(2) 0.2876(4)
C8 C 0.7466(9) 0.0039(2) 0.2658(4)
C9 C 0.520(1) -0.0090(2) 0.1852(5)
C10 C 0.3621(9) 0.0335(2) 0.1285(4)
C11 C 0.4277(8) 0.0912(2) 0.1494(4)
C12 C 0.6503(8) 0.1038(1) 0.2286(4)
C13 C 0.7697(7) 0.1586(2) 0.2718(4)
C14 C 0.7935(7) 0.2617(1) 0.2795(4)
C15 C 0.7147(8) 0.2864(2) 0.3776(4)
C16 C 0.8169(9) 0.3386(2) 0.4176(4)
C17 C 0.9975(9) 0.3651(2) 0.3590(4)
C18 C 1.0721(9) 0.3397(2) 0.2611(4)
C19 C 0.9739(8) 0.2872(2) 0.2194(4)
N1 N 0.6763(6) 0.2082(1) 0.2314(3)
O1 O 0.4731(6) 0.2140(1) 0.1483(3)
H1 H 1.17730 0.22330 0.42680
H2 H 1.54370 0.18040 0.55370
H3 H 1.57990 0.07780 0.56850
H4 H 1.25390 0.01920 0.44940
H5 H 0.86670 -0.02730 0.30730
H6 H 0.46600 -0.05010 0.16900
H7 H 0.19800 0.02260 0.06800
H8 H 0.30190 0.12250 0.10770
H9 H 0.58710 0.26550 0.42140
H10 H 0.75920 0.35840 0.48980
H11 H 1.07480 0.40310 0.39030
H12 H 1.20210 0.36040 0.21800
H13 H 1.02840 0.26780 0.14530
#END
