
#######################################################################
#
#                 Cambridge Crystallographic Data Centre
#                                CCDC
#
#######################################################################
#
# If this CIF has been generated from an entry in the Cambridge
# Structural Database, then it will include bibliographic, chemical,
# crystal, experimental, refinement or atomic coordinate data resulting
# from the CCDC's data processing and validation procedures.
#
#######################################################################

data_CSD_CIF_DEDYIX
_audit_creation_date 2017-09-26
_audit_creation_method CSD-ConQuest-V1
_database_code_CSD DEDYIX
_database_code_depnum_ccdc_archive 'CCDC 1560312'
_chemical_formula_sum 'C24 H20 N2 O5'
_chemical_formula_moiety
;
C24 H20 N2 O5
;
_journal_coden_Cambridge 1748
_journal_volume 5
_journal_year 2018
_journal_page_first 32
_journal_name_full 'Org.Chem.Front. '
loop_
_publ_author_name
"Sai Ruan"
"Xiaobin Lin"
"Lihua Xie"
"Lili Lin"
"Xiaoming Feng"
"Xiaohua Liu"
_chemical_name_systematic
;
N-[3-benzyl-4-(nitromethyl)-2-oxo-3,4-dihydro-2H-1-benzopyran-3-yl]benzamide
;
_cell_volume   2057.493
_exptl_crystal_colour 'light colorless'
_exptl_crystal_density_diffrn 1.344
_exptl_special_details
;
Absolute configuration

;
_exptl_crystal_description 'block'
_diffrn_ambient_temperature 135
#These two values have been output from a single CSD field.
_refine_ls_R_factor_gt 0.0414
_refine_ls_wR_factor_gt 0.0414
_symmetry_cell_setting monoclinic
_symmetry_space_group_name_H-M 'P 21'
_symmetry_Int_Tables_number 4
loop_
_symmetry_equiv_pos_site_id
_symmetry_equiv_pos_as_xyz
1 x,y,z
2 -x,1/2+y,-z
_cell_length_a 10.31419(17)
_cell_length_b 19.2062(3)
_cell_length_c 11.0205(2)
_cell_angle_alpha 90
_cell_angle_beta 109.532(2)
_cell_angle_gamma 90
_cell_formula_units_Z 4
loop_
_atom_type_symbol
_atom_type_radius_bond
C 0.68
H 0.23
N 0.68
O 0.68
loop_
_atom_site_label
_atom_site_type_symbol
_atom_site_fract_x
_atom_site_fract_y
_atom_site_fract_z
O1 O 0.44099(17) 0.54308(10) 0.81722(18)
O2 O 0.49714(19) 0.35629(10) 0.91658(17)
O3 O 0.57590(19) 0.44978(10) 1.03127(18)
N1 N 0.6594(2) 0.51330(11) 0.8440(2)
H1 H 0.74440 0.52760 0.85880
O4 O 0.5173(3) 0.43709(15) 0.3723(2)
N2 N 0.5018(3) 0.45851(15) 0.4707(2)
O5 O 0.4128(3) 0.49916(19) 0.4734(3)
C1 C 0.5598(2) 0.56104(13) 0.8306(2)
C2 C 0.4737(2) 0.34891(14) 0.6902(3)
C3 C 0.5964(3) 0.63685(14) 0.8300(2)
C4 C 0.5641(2) 0.41852(13) 0.9349(2)
C5 C 0.7160(3) 0.66002(15) 0.8113(3)
H2 H 0.78250 0.62740 0.80480
C6 C 0.5340(2) 0.42118(13) 0.6969(2)
H3 H 0.45510 0.45450 0.67740
C7 C 0.8682(2) 0.40368(14) 1.0034(2)
C8 C 0.6312(2) 0.43874(13) 0.8347(2)
C9 C 0.4567(3) 0.32075(14) 0.7991(3)
C10 C 0.9792(3) 0.44904(15) 1.0323(3)
H4 H 0.98930 0.47880 0.96720
C11 C 0.7382(3) 0.73073(16) 0.8021(3)
H5 H 0.82000 0.74630 0.78940
C12 C 0.6420(3) 0.77868(15) 0.8115(3)
H6 H 0.65660 0.82700 0.80310
C13 C 0.5244(3) 0.75590(15) 0.8330(3)
H7 H 0.45890 0.78880 0.84100
C14 C 1.0756(3) 0.45140(17) 1.1553(3)
H8 H 1.15060 0.48300 1.17420
C15 C 0.7682(3) 0.39758(14) 0.8671(3)
H9 H 0.74550 0.34770 0.84910
H10 H 0.81590 0.41320 0.80740
C16 C 0.6035(3) 0.43426(16) 0.5969(3)
H11 H 0.67600 0.47000 0.62970
H12 H 0.64800 0.39080 0.58260
C17 C 0.4234(3) 0.31095(15) 0.5762(3)
H13 H 0.43470 0.32840 0.49970
C18 C 0.8565(3) 0.36042(16) 1.1005(3)
H14 H 0.78110 0.32910 1.08250
C19 C 0.5017(3) 0.68557(15) 0.8430(3)
H15 H 0.42110 0.67030 0.85880
C20 C 0.3925(3) 0.25752(15) 0.7988(3)
H16 H 0.38410 0.23900 0.87570
C21 C 1.0626(3) 0.40793(19) 1.2502(3)
H17 H 1.12920 0.40940 1.33410
C22 C 0.9535(3) 0.36238(18) 1.2237(3)
H18 H 0.94450 0.33250 1.28910
C23 C 0.3571(3) 0.24781(17) 0.5735(3)
H19 H 0.32270 0.22250 0.49510
C24 C 0.3410(3) 0.22184(16) 0.6836(3)
H20 H 0.29400 0.17900 0.68060
O6 O -0.10971(18) 0.52706(10) 0.72475(18)
O7 O -0.16809(17) 0.54273(11) 0.51667(17)
O8 O 0.01563(18) 0.66191(10) 0.79983(18)
O9 O 0.3269(2) 0.72989(12) 0.4962(2)
O10 O 0.2024(2) 0.75136(12) 0.6139(2)
N3 N 0.2519(2) 0.71191(13) 0.5558(2)
N4 N 0.1539(2) 0.57490(11) 0.7775(2)
H21 H 0.23010 0.55140 0.81480
C25 C 0.1162(2) 0.62457(13) 0.8467(2)
C26 C -0.0730(2) 0.54330(13) 0.6367(2)
C27 C -0.1349(3) 0.56372(13) 0.4084(2)
C28 C 0.2040(2) 0.62968(14) 0.9856(2)
C29 C -0.0201(3) 0.60430(13) 0.4208(2)
C30 C 0.1858(3) 0.68678(15) 1.0555(3)
H22 H 0.12160 0.72200 1.01410
C31 C 0.0770(2) 0.62013(13) 0.5548(2)
H23 H 0.04180 0.66240 0.58660
C32 C -0.0015(3) 0.62724(14) 0.3080(3)
H24 H 0.07560 0.65560 0.31310
C33 C 0.1881(3) 0.41139(15) 0.7999(3)
H25 H 0.26500 0.44010 0.84220
C34 C 0.1068(3) 0.42630(14) 0.6736(3)
C35 C 0.0751(2) 0.55892(13) 0.6454(2)
C36 C -0.2255(3) 0.54317(15) 0.2909(3)
H26 H -0.30090 0.51350 0.28600
C37 C 0.2243(3) 0.63506(14) 0.5606(3)
H27 H 0.28890 0.61530 0.64110
H28 H 0.24150 0.61170 0.48740
C38 C -0.0035(3) 0.38302(15) 0.6135(3)
H29 H -0.05930 0.39200 0.52700
C39 C -0.2045(3) 0.56667(15) 0.1800(3)
H30 H -0.26620 0.55340 0.09800
C40 C 0.1331(3) 0.49069(14) 0.6065(2)
H31 H 0.09130 0.48410 0.51230
H32 H 0.23360 0.49600 0.62650
C41 C 0.2608(3) 0.69264(16) 1.1853(3)
H33 H 0.24830 0.73200 1.23230
C42 C -0.0937(3) 0.60940(16) 0.1883(3)
H34 H -0.08100 0.62650 0.11220
C43 C 0.3539(3) 0.64147(18) 1.2466(3)
H35 H 0.40490 0.64560 1.33570
C44 C 0.2986(3) 0.57840(16) 1.0481(3)
H36 H 0.31220 0.53920 1.00130
C45 C 0.1578(3) 0.35499(16) 0.8643(3)
H37 H 0.21390 0.34540 0.95050
C46 C 0.3726(3) 0.58442(18) 1.1781(3)
H38 H 0.43650 0.54920 1.22020
C47 C 0.0471(4) 0.31296(16) 0.8043(3)
H39 H 0.02580 0.27470 0.84890
C48 C -0.0331(3) 0.32672(16) 0.6786(3)
H40 H -0.10900 0.29740 0.63640
#END
