
#######################################################################
#
#                 Cambridge Crystallographic Data Centre
#                                CCDC
#
#######################################################################
#
# If this CIF has been generated from an entry in the Cambridge
# Structural Database, then it will include bibliographic, chemical,
# crystal, experimental, refinement or atomic coordinate data resulting
# from the CCDC's data processing and validation procedures.
#
#######################################################################

data_CSD_CIF_DEFGIE
_audit_creation_date 1986-07-02
_audit_creation_method CSD-ConQuest-V1
_database_code_CSD DEFGIE
_chemical_formula_sum 'C8 H10 N4 O2'
_chemical_formula_moiety
;
C8 H10 N4 O2
;
_journal_coeditor_code "IUCr A25060"
_journal_coden_Cambridge 591
_journal_volume 41
_journal_year 1985
_journal_page_first 1543
_journal_name_full 'Acta Crystallogr.,Sect.C:Cryst.Struct.Commun. '
loop_
_publ_author_name
"R.Kuroda"
"D.E.V.Wilman"
_chemical_name_systematic
;
3-(4-Carbamoylphenyl)-1-methyltriazene 1-oxide
;
_cell_volume    949.337
_exptl_crystal_colour 'colorless'
_exptl_crystal_density_diffrn 1.359
_exptl_special_details
;
antitumour agent

;
_diffrn_ambient_temperature ?
_diffrn_special_details
;
The study was carried out at room temperature,in the range 283-303K

;
#These two values have been output from a single CSD field.
_refine_ls_R_factor_gt 0.037
_refine_ls_wR_factor_gt 0.037
_symmetry_cell_setting monoclinic
_symmetry_space_group_name_H-M 'P 21/a'
_symmetry_Int_Tables_number 14
loop_
_symmetry_equiv_pos_site_id
_symmetry_equiv_pos_as_xyz
1 x,y,z
2 1/2-x,1/2+y,-z
3 -x,-y,-z
4 -1/2+x,-1/2-y,z
_cell_length_a 9.708(2)
_cell_length_b 6.7806(5)
_cell_length_c 14.707(2)
_cell_angle_alpha 90
_cell_angle_beta 101.30(1)
_cell_angle_gamma 90
_cell_formula_units_Z 4
loop_
_atom_type_symbol
_atom_type_radius_bond
C 0.68
H 0.23
N 0.68
O 0.68
loop_
_atom_site_label
_atom_site_type_symbol
_atom_site_fract_x
_atom_site_fract_y
_atom_site_fract_z
O1 O 0.6931(2) 0.5859(3) 0.9888(1)
O2 O 0.6392(2) -0.3617(3) 0.5740(1)
N1 N 0.6504(2) 0.3561(3) 0.8532(2)
N2 N 0.5664(2) 0.5144(3) 0.8469(2)
N3 N 0.5956(2) 0.6236(3) 0.9184(2)
N4 N 0.4074(2) -0.3034(4) 0.5489(2)
C1 C 0.6193(3) 0.2102(4) 0.7846(2)
C2 C 0.7088(3) 0.0510(4) 0.7900(2)
C3 C 0.6825(3) -0.0989(4) 0.7259(2)
C4 C 0.5634(2) -0.0946(4) 0.6561(2)
C5 C 0.4743(3) 0.0666(4) 0.6505(2)
C6 C 0.5024(3) 0.2198(4) 0.7134(2)
C7 C 0.5078(3) 0.7985(4) 0.9204(2)
C8 C 0.5376(3) -0.2629(4) 0.5895(2)
H1 H 0.724(3) 0.330(5) 0.914(2)
H2 H 0.790(2) 0.044(4) 0.838(2)
H3 H 0.740(3) -0.217(4) 0.729(2)
H4 H 0.389(3) -0.416(5) 0.498(2)
H5 H 0.339(3) -0.239(4) 0.558(2)
H6 H 0.387(2) 0.070(4) 0.601(2)
H7 H 0.445(2) 0.334(4) 0.712(2)
H8 H 0.580(3) 0.903(5) 0.942(2)
H9 H 0.437(3) 0.773(5) 0.960(2)
H10 H 0.451(4) 0.826(6) 0.856(3)
#END
