
#######################################################################
#
#                 Cambridge Crystallographic Data Centre
#                                CCDC
#
#######################################################################
#
# If this CIF has been generated from an entry in the Cambridge
# Structural Database, then it will include bibliographic, chemical,
# crystal, experimental, refinement or atomic coordinate data resulting
# from the CCDC's data processing and validation procedures.
#
#######################################################################

data_CSD_CIF_DEFLEF
_audit_creation_date 1986-07-02
_audit_creation_method CSD-ConQuest-V1
_database_code_CSD DEFLEF
_chemical_formula_sum 'C8 H8 N6 O8'
_chemical_formula_moiety
;
C8 H8 N6 O8
;
_journal_coeditor_code "IUCr A25114"
_journal_coden_Cambridge 591
_journal_volume 41
_journal_year 1985
_journal_page_first 1680
_journal_name_full 'Acta Crystallogr.,Sect.C:Cryst.Struct.Commun. '
loop_
_publ_author_name
"J.Boileau"
"E.Wimmer"
"M.Pierrot"
"A.Baldy"
"R.Gallo"
_chemical_name_systematic
;
1,4-Diacetyl-3,6-dinitrotetrahydroimidazo(4,5-d)imidazole-2,5(1H,3H)-dione
;
_chemical_name_common
;
3,6-Diacetyl-1,4-dinitro-glycoluril
;
_cell_volume   1226.173
_exptl_crystal_density_diffrn 1.712
_diffrn_ambient_temperature ?
_diffrn_special_details
;
The study was carried out at room temperature,in the range 283-303K

;
#These two values have been output from a single CSD field.
_refine_ls_R_factor_gt 0.05
_refine_ls_wR_factor_gt 0.05
_symmetry_cell_setting orthorhombic
_symmetry_space_group_name_H-M 'P 21 21 21'
_symmetry_Int_Tables_number 19
loop_
_symmetry_equiv_pos_site_id
_symmetry_equiv_pos_as_xyz
1 x,y,z
2 1/2+x,1/2-y,-z
3 -x,1/2+y,1/2-z
4 1/2-x,-y,1/2+z
_cell_length_a 6.858(2)
_cell_length_b 9.638(3)
_cell_length_c 18.551(5)
_cell_angle_alpha 90
_cell_angle_beta 90
_cell_angle_gamma 90
_cell_formula_units_Z 4
loop_
_atom_type_symbol
_atom_type_radius_bond
C 0.68
H 0.23
N 0.68
O 0.68
loop_
_atom_site_label
_atom_site_type_symbol
_atom_site_fract_x
_atom_site_fract_y
_atom_site_fract_z
C1 C 0.4600(6) 0.2091(5) 0.6688(2)
N1 N 0.6721(6) 0.2093(4) 0.6553(2)
N2 N 0.7897(7) 0.3122(5) 0.6857(3)
O1 O 0.7088(7) 0.4195(4) 0.7002(2)
O2 O 0.9563(7) 0.2840(6) 0.6956(4)
C2 C 0.7499(7) 0.0799(5) 0.6353(3)
O3 O 0.9178(5) 0.0532(4) 0.6254(2)
N3 N 0.5887(6) -0.0079(4) 0.6284(2)
C3 C 0.5956(9) -0.1543(5) 0.6426(3)
C4 C 0.794(1) -0.2248(6) 0.6284(4)
O4 O 0.4526(6) -0.2110(4) 0.6632(2)
C5 C 0.4061(7) 0.0655(5) 0.6366(2)
N4 N 0.3279(6) 0.1086(4) 0.5665(2)
N5 N 0.2466(7) 0.0096(5) 0.5206(2)
O5 O 0.2535(8) -0.1089(4) 0.5418(2)
O6 O 0.1797(8) 0.0493(5) 0.4633(2)
C6 C 0.2798(7) 0.2511(5) 0.5615(2)
O7 O 0.1900(7) 0.3072(4) 0.5149(2)
N6 N 0.3551(6) 0.3102(4) 0.6250(2)
C7 C 0.2933(7) 0.4396(5) 0.6545(3)
C8 C 0.202(1) 0.5423(6) 0.6032(3)
O8 O 0.3198(7) 0.4604(4) 0.7173(2)
H1 H 0.316(6) 0.006(4) 0.664(2)
H2 H 0.428(7) 0.229(5) 0.721(2)
H3 H 0.079(7) 0.500(4) 0.586(2)
H4 H 0.186(6) 0.631(5) 0.631(2)
H5 H 0.289(7) 0.537(4) 0.566(2)
#END
