
#######################################################################
#
#                 Cambridge Crystallographic Data Centre
#                                CCDC
#
#######################################################################
#
# If this CIF has been generated from an entry in the Cambridge
# Structural Database, then it will include bibliographic, chemical,
# crystal, experimental, refinement or atomic coordinate data resulting
# from the CCDC's data processing and validation procedures.
#
#######################################################################

data_CSD_CIF_DEFYAP
_audit_creation_date 2006-05-05
_audit_creation_method CSD-ConQuest-V1
_database_code_CSD DEFYAP
_database_code_depnum_ccdc_archive 'CCDC 601129'
_chemical_formula_sum 'C23 H23 N3 O5'
_chemical_formula_moiety
;
C23 H23 N3 O5
;
_journal_coeditor_code "IUCr BV2002"
_journal_coden_Cambridge 1370
_journal_volume 62
_journal_year 2006
_journal_page_first o1016
_journal_name_full 'Acta Crystallogr.,Sect.E:Struct.Rep.Online '
loop_
_publ_author_name
"I.Dilovic"
"D.Matkovic-Calogovic"
"I.Kos"
"M.Birus"
"M.J.Mladar-Takac"
_chemical_name_systematic
;
N,N',N''-Tribenzyloxyiminodicarbonic diamide
;
_chemical_melting_point 351
_cell_volume   2177.887
_exptl_crystal_colour 'colorless'
_exptl_crystal_density_diffrn 1.285
_exptl_special_details
;
Melting point range 351-353K

;
_exptl_crystal_description 'prism'
_exptl_crystal_preparation 'diethyl ether'
_diffrn_ambient_temperature 295
#These two values have been output from a single CSD field.
_refine_ls_R_factor_gt 0.0475
_refine_ls_wR_factor_gt 0.0475
_symmetry_cell_setting triclinic
_symmetry_space_group_name_H-M 'P -1'
_symmetry_Int_Tables_number 2
loop_
_symmetry_equiv_pos_site_id
_symmetry_equiv_pos_as_xyz
1 x,y,z
2 -x,-y,-z
_cell_length_a 8.9947(17)
_cell_length_b 13.820(3)
_cell_length_c 18.714(3)
_cell_angle_alpha 100.763(14)
_cell_angle_beta 90.447(14)
_cell_angle_gamma 107.227(16)
_cell_formula_units_Z 4
loop_
_atom_type_symbol
_atom_type_radius_bond
C 0.68
H 0.23
N 0.68
O 0.68
loop_
_atom_site_label
_atom_site_type_symbol
_atom_site_fract_x
_atom_site_fract_y
_atom_site_fract_z
C1 C 0.4860(2) 0.57202(17) -0.13221(13)
C2 C 0.2960(2) 0.55625(15) 0.00449(11)
C3 C 0.0713(3) 0.32353(16) 0.01483(15)
C4 C 0.1639(2) 0.54097(15) 0.12038(10)
C5 C 0.3502(3) 0.6692(2) 0.28214(12)
C6 C 0.6071(2) 0.67069(15) -0.13750(11)
C7 C 0.6322(3) 0.75761(17) -0.08268(13)
C8 C 0.7485(3) 0.8466(2) -0.08613(17)
C9 C 0.8413(4) 0.8500(3) -0.14379(19)
C10 C 0.8465(3) 0.6692(2) 0.26311(13)
C11 C 0.6657(2) 0.54022(15) 0.39007(10)
C12 C 0.5708(3) 0.32404(16) 0.43819(14)
C13 C 0.8005(2) 0.55752(14) 0.51134(11)
C14 C 0.9866(2) 0.57550(17) 0.65548(14)
C15 C 0.8234(2) 0.75369(16) 0.22898(11)
C16 C 0.9016(3) 0.8559(2) 0.25854(14)
C17 C 0.8760(4) 0.9340(2) 0.22820(17)
C18 C 0.7740(4) 0.9109(2) 0.16821(16)
C19 C 0.8189(3) 0.7653(3) -0.19797(17)
C20 C 0.7008(3) 0.6755(2) -0.19610(13)
C21 C -0.0805(2) 0.24652(14) -0.01588(12)
C22 C -0.1172(3) 0.2190(2) -0.08933(15)
C23 C -0.2575(4) 0.1470(3) -0.1173(2)
C24 C -0.3603(4) 0.1024(2) -0.0721(3)
C25 C -0.3278(4) 0.1304(2) 0.0010(3)
C26 C -0.1889(3) 0.2022(2) 0.02929(17)
C27 C 0.3336(2) 0.75402(16) 0.34099(11)
C28 C 0.2335(3) 0.73244(18) 0.39478(12)
C29 C 0.2161(3) 0.8098(2) 0.44873(15)
C30 C 0.2976(4) 0.9092(2) 0.44898(17)
C31 C 0.3974(4) 0.9323(2) 0.3955(2)
C32 C 0.4166(4) 0.8551(2) 0.34166(16)
C33 C 0.6968(3) 0.81077(18) 0.13857(14)
C34 C 0.7204(3) 0.73266(17) 0.16947(12)
C35 C 0.4146(2) 0.25025(14) 0.44407(11)
C36 C 0.3153(3) 0.20360(19) 0.38248(15)
C37 C 0.1716(4) 0.1358(2) 0.3875(2)
C38 C 0.1223(4) 0.1158(2) 0.4530(2)
C39 C 0.2174(4) 0.1615(2) 0.5148(2)
C40 C 0.3642(3) 0.22897(18) 0.51034(14)
C41 C 1.1113(2) 0.67332(15) 0.68792(11)
C42 C 1.2052(3) 0.6782(2) 0.74839(13)
C43 C 1.3267(3) 0.7666(2) 0.77465(16)
C44 C 1.3539(3) 0.8505(2) 0.74203(17)
C45 C 1.2599(3) 0.8466(2) 0.68295(16)
C46 C 1.1403(3) 0.75911(17) 0.65572(13)
N1 N 0.2589(2) 0.52505(13) -0.06847(9)
N2 N 0.19127(17) 0.50087(12) 0.04792(8)
N3 N 0.2936(2) 0.60930(15) 0.15788(10)
N4 N 0.7960(2) 0.60574(14) 0.37012(10)
N5 N 0.69409(17) 0.50026(11) 0.45207(8)
N6 N 0.7617(2) 0.53005(13) 0.57628(9)
O1 O 0.34687(15) 0.59685(10) -0.10859(7)
O2 O 0.41561(16) 0.62236(11) 0.03163(8)
O3 O 0.05955(14) 0.42515(9) 0.01034(7)
O4 O 0.03898(17) 0.50977(12) 0.14511(8)
O5 O 0.26213(17) 0.67409(12) 0.21962(7)
O6 O 0.76378(17) 0.67237(11) 0.32762(8)
O7 O 0.53865(16) 0.51079(12) 0.35762(8)
O8 O 0.56165(14) 0.42660(9) 0.46911(7)
O9 O 0.92132(16) 0.62112(11) 0.50195(8)
O10 O 0.85086(15) 0.60281(10) 0.63599(7)
H1 H 0.517(3) 0.5341(16) -0.0950(13)
H2 H 0.461(2) 0.5185(17) -0.1790(14)
H3 H 0.159(3) 0.5010(17) -0.0853(13)
H4 H 0.088(3) 0.3217(16) 0.0636(14)
H5 H 0.159(3) 0.314(2) -0.0191(16)
H6 H 0.364(3) 0.6430(18) 0.1318(14)
H7 H 0.463(3) 0.6852(18) 0.2689(13)
H8 H 0.302(4) 0.597(3) 0.292(2)
H9 H 0.573(3) 0.7568(16) -0.0432(13)
H10 H 0.762(3) 0.902(2) -0.0496(15)
H11 H 0.912(4) 0.907(3) -0.1469(19)
H12 H 0.955(4) 0.689(2) 0.2827(16)
H13 H 0.797(4) 0.593(3) 0.2309(18)
H14 H 0.868(3) 0.6376(18) 0.4076(14)
H15 H 0.659(3) 0.3140(17) 0.4673(13)
H16 H 0.595(3) 0.3225(16) 0.3861(14)
H17 H 0.660(3) 0.5108(16) 0.5854(12)
H18 H 0.958(3) 0.5300(18) 0.6917(14)
H19 H 1.022(3) 0.5338(17) 0.6078(14)
H20 H 0.972(3) 0.871(2) 0.3017(18)
H21 H 0.932(3) 1.007(2) 0.2506(15)
H22 H 0.760(3) 0.970(2) 0.1496(18)
H23 H 0.885(4) 0.767(2) -0.2421(18)
H24 H 0.684(3) 0.614(2) -0.2345(16)
H25 H -0.046(3) 0.264(2) -0.1203(16)
H26 H -0.285(4) 0.132(2) -0.169(2)
H27 H -0.456(5) 0.053(3) -0.095(2)
H28 H -0.401(4) 0.104(3) 0.036(2)
H29 H -0.155(3) 0.226(2) 0.0819(18)
H30 H 0.172(3) 0.660(2) 0.3955(13)
H31 H 0.153(3) 0.794(2) 0.4846(17)
H32 H 0.281(3) 0.959(2) 0.4869(18)
H33 H 0.449(4) 0.999(3) 0.3928(18)
H34 H 0.484(3) 0.869(2) 0.3038(17)
H35 H 0.624(3) 0.796(2) 0.0966(16)
H36 H 0.666(2) 0.6627(17) 0.1484(12)
H37 H 0.352(3) 0.221(2) 0.3340(16)
H38 H 0.102(4) 0.108(3) 0.343(2)
H39 H 0.017(4) 0.067(2) 0.4551(15)
H40 H 0.191(3) 0.151(2) 0.5615(17)
H41 H 0.431(3) 0.2619(16) 0.5524(13)
H42 H 1.188(3) 0.622(2) 0.7716(16)
H43 H 1.388(3) 0.7679(19) 0.8147(16)
H44 H 1.429(4) 0.913(2) 0.7600(17)
H45 H 1.273(3) 0.9088(19) 0.6651(14)
H46 H 1.079(3) 0.7568(17) 0.6146(14)
#END
