
#######################################################################
#
#                 Cambridge Crystallographic Data Centre
#                                CCDC
#
#######################################################################
#
# If this CIF has been generated from an entry in the Cambridge
# Structural Database, then it will include bibliographic, chemical,
# crystal, experimental, refinement or atomic coordinate data resulting
# from the CCDC's data processing and validation procedures.
#
#######################################################################

data_CSD_CIF_DEGBEZ
_audit_creation_date 2017-09-26
_audit_creation_method CSD-ConQuest-V1
_database_code_CSD DEGBEZ
_database_code_depnum_ccdc_archive 'CCDC 1518002'
_chemical_formula_sum 'C26 H20 N4 O8'
_chemical_formula_moiety
;
C26 H20 N4 O8
;
_journal_coden_Cambridge 2066
_journal_volume 2
_journal_year 2017
_journal_page_first 6023
_journal_name_full 'ACS Omega '
loop_
_publ_author_name
"S.Langis-Barsetti"
"T.Maris"
"J.D.Wuest"
_chemical_name_systematic
;
dibenzyl (4,8-dinitronaphthalene-1,5-diyl)biscarbamate
;
_cell_volume   1276.408
_exptl_crystal_colour 'colorless'
_exptl_crystal_density_diffrn 1.344
_exptl_crystal_description 'lozenge'
_diffrn_ambient_temperature 150.2
_refine_special_details
;
C10A,C11A,C12A,C13A,C7A,C8A,C9A and C10D,C11D,C12D,C13D,C7D,C8D,C9D and 
C10C,C11C,C12C,C13C,C7C,C8C,C9C and C10B,C11B,C12B,C13B,C7B,C8B,C9B 
disordered over four sites with occupancies 0.319:0.254:0.246:0.181.
;
#These two values have been output from a single CSD field.
_refine_ls_R_factor_gt 0.1112
_refine_ls_wR_factor_gt 0.1112
_symmetry_cell_setting monoclinic
_symmetry_space_group_name_H-M 'P 21/c'
_symmetry_Int_Tables_number 14
loop_
_symmetry_equiv_pos_site_id
_symmetry_equiv_pos_as_xyz
1 x,y,z
2 -x,1/2+y,1/2-z
3 -x,-y,-z
4 x,-1/2-y,-1/2+z
_cell_length_a 21.374(2)
_cell_length_b 5.9585(5)
_cell_length_c 10.0311(8)
_cell_angle_alpha 90
_cell_angle_beta 92.402(4)
_cell_angle_gamma 90
_cell_formula_units_Z 2
loop_
_atom_type_symbol
_atom_type_radius_bond
C 0.68
H 0.23
N 0.68
O 0.68
loop_
_atom_site_label
_atom_site_type_symbol
_atom_site_fract_x
_atom_site_fract_y
_atom_site_fract_z
N1 N 0.37496(15) 0.7146(4) 0.5746(3)
H1 H 0.35539 0.70682 0.49804
N2 N 0.36771(17) 0.2707(4) 0.4935(3)
O1 O 0.36252(12) 0.7685(4) 0.7964(2)
O2 O 0.28106(15) 0.7679(5) 0.6463(3)
O3 O 0.32680(14) 0.2396(4) 0.4063(3)
O4 O 0.35996(15) 0.2515(4) 0.6134(2)
C1 C 0.54319(18) 0.8356(5) 0.6276(3)
H2 H 0.56898 0.94066 0.67105
C2 C 0.47869(17) 0.8398(5) 0.6449(3)
H3 H 0.46155 0.94642 0.70040
C3 C 0.44077(17) 0.6862(5) 0.5798(3)
C4 C 0.46710(15) 0.5017(5) 0.5102(2)
C5 C 0.43166(17) 0.3216(5) 0.4524(3)
C6 C 0.34131(19) 0.7530(5) 0.6827(4)
C7 C 0.2422(7) 0.889(3) 0.732(2)
H4 H 0.26707 1.00625 0.77543
H5 H 0.22850 0.78829 0.80058
C8 C 0.1856(3) 0.9949(18) 0.6649(9)
C9 C 0.0772(3) 0.976(3) 0.5908(15)
H6 H 0.03829 0.90572 0.59221
C10 C 0.1275(4) 0.890(2) 0.6671(11)
H7 H 0.12234 0.76361 0.71948
H8 H 0.23224 1.25430 0.58515
H9 H 0.14819 1.39640 0.45788
H10 H 0.05121 1.22211 0.46141
C11 C 0.1934(5) 1.184(2) 0.5866(12)
C12 C 0.1430(7) 1.270(2) 0.5103(14)
C13 C 0.0849(5) 1.165(3) 0.5124(14)
C14? C 0.2474(11) 0.834(7) 0.743(4)
H11? H 0.25755 0.98663 0.76956
H12? H 0.25176 0.73549 0.81932
C15? C 0.1834(7) 0.819(4) 0.6767(16)
C16? C 0.1695(6) 0.945(4) 0.5629(16)
H13? H 0.20038 1.03236 0.52567
C17? C 0.1093(8) 0.942(4) 0.5046(17)
H14? H 0.09999 1.02637 0.42839
C18? C 0.0631(6) 0.812(4) 0.560(2)
H15? H 0.02288 0.80939 0.52114
C19? C 0.0771(8) 0.685(4) 0.674(3)
H16? H 0.04616 0.59840 0.71118
C20? C 0.1372(10) 0.689(4) 0.732(2)
H17? H 0.14655 0.60438 0.80846
C21? C 0.2349(8) 0.722(6) 0.790(2)
H18? H 0.24834 0.58600 0.83662
H19? H 0.23951 0.84713 0.85192
C22? C 0.1684(5) 0.701(3) 0.7400(16)
C23? C 0.1195(6) 0.807(3) 0.8017(17)
H20? H 0.12798 0.91596 0.86642
C24? C 0.0578(5) 0.751(3) 0.7667(19)
H21? H 0.02510 0.82222 0.80798
C25? C 0.0451(5) 0.588(4) 0.670(2)
H22? H 0.00385 0.55087 0.64651
C26? C 0.0940(7) 0.482(3) 0.6082(17)
H23? H 0.08546 0.37326 0.54349
C27? C 0.1556(6) 0.538(3) 0.6432(15)
H24? H 0.18833 0.46699 0.60192
C28? C 0.2346(12) 0.752(6) 0.762(3)
H25? H 0.25631 0.69168 0.84057
H26? H 0.22005 0.90169 0.78311
C29? C 0.1750(6) 0.595(3) 0.7219(18)
C30? C 0.1174(7) 0.698(3) 0.737(2)
H27? H 0.11533 0.83775 0.77734
C31? C 0.0627(6) 0.591(3) 0.692(2)
H28? H 0.02411 0.65941 0.70168
C32? C 0.0657(6) 0.381(3) 0.631(2)
H29? H 0.02916 0.30976 0.60095
C33? C 0.1234(8) 0.279(2) 0.616(2)
H30? H 0.12543 0.13845 0.57587
C34? C 0.1781(6) 0.385(3) 0.662(2)
H31? H 0.21664 0.31679 0.65153
N1B N 0.62504(15) 0.2854(4) 0.4254(3)
H1B H 0.64461 0.29318 0.50196
N2B N 0.63229(17) 0.7293(4) 0.5065(3)
O1B O 0.63748(12) 0.2315(4) 0.2036(2)
O2B O 0.71894(15) 0.2321(5) 0.3537(3)
O3B O 0.67320(14) 0.7604(4) 0.5937(3)
O4B O 0.64004(15) 0.7485(4) 0.3866(2)
C1B C 0.45681(18) 0.1644(5) 0.3724(3)
H2B H 0.43102 0.05934 0.32895
C2B C 0.52131(17) 0.1602(5) 0.3551(3)
H3B H 0.53845 0.05358 0.29960
C3B C 0.55923(17) 0.3138(5) 0.4202(3)
C4B C 0.53290(15) 0.4983(5) 0.4898(2)
C5B C 0.56834(17) 0.6784(5) 0.5476(3)
C6B C 0.65869(19) 0.2470(5) 0.3173(4)
C7B C 0.7578(7) 0.111(3) 0.268(2)
H4B H 0.73293 -0.00625 0.22457
H5B H 0.77150 0.21171 0.19942
C8B C 0.8144(3) 0.0051(18) 0.3351(9)
C9B C 0.9228(3) 0.024(3) 0.4092(15)
H6B H 0.96171 0.09428 0.40779
C10B C 0.8725(4) 0.110(2) 0.3329(11)
H7B H 0.87766 0.23639 0.28052
H8B H 0.76776 -0.25430 0.41485
H9B H 0.85181 -0.39640 0.54212
H10B H 0.94878 -0.22211 0.53859
C11B C 0.8066(5) -0.184(2) 0.4134(12)
C12B C 0.8570(7) -0.270(2) 0.4897(14)
C13B C 0.9151(5) -0.165(3) 0.4876(14)
#END
