
#######################################################################
#
#                 Cambridge Crystallographic Data Centre
#                                CCDC
#
#######################################################################
#
# If this CIF has been generated from an entry in the Cambridge
# Structural Database, then it will include bibliographic, chemical,
# crystal, experimental, refinement or atomic coordinate data resulting
# from the CCDC's data processing and validation procedures.
#
#######################################################################

data_CSD_CIF_DEGBEX
_audit_creation_date 2006-05-05
_audit_creation_method CSD-ConQuest-V1
_database_code_CSD DEGBEX
_database_code_depnum_ccdc_archive 'CCDC 601142'
_chemical_formula_sum 'C30 H25 N5 O4'
_chemical_formula_moiety
;
C30 H25 N5 O4
;
_journal_coeditor_code "IUCr CI6750"
_journal_coden_Cambridge 1370
_journal_volume 62
_journal_year 2006
_journal_page_first o917
_journal_name_full 'Acta Crystallogr.,Sect.E:Struct.Rep.Online '
loop_
_publ_author_name
"Xiao-Chen Yan"
"Hai-Bo Wang"
"Zhi-Qian Liu"
_chemical_name_systematic
;
1-Acetyl-3,3-bis(3-(2-methylphenyl)-1,2,4-oxadiazol-5-yl)-1H-indolin-2(3H)-one
;
_cell_volume   2622.730
_exptl_crystal_colour 'colorless'
_exptl_crystal_density_diffrn 1.316
_exptl_crystal_description 'block'
_exptl_crystal_preparation 'ethanol'
_diffrn_ambient_temperature 293
#These two values have been output from a single CSD field.
_refine_ls_R_factor_gt 0.0668
_refine_ls_wR_factor_gt 0.0668
_symmetry_cell_setting monoclinic
_symmetry_space_group_name_H-M 'P 21/c'
_symmetry_Int_Tables_number 14
loop_
_symmetry_equiv_pos_site_id
_symmetry_equiv_pos_as_xyz
1 x,y,z
2 -x,1/2+y,1/2-z
3 -x,-y,-z
4 x,-1/2-y,-1/2+z
_cell_length_a 11.680(2)
_cell_length_b 12.234(2)
_cell_length_c 18.396(4)
_cell_angle_alpha 90
_cell_angle_beta 93.85(3)
_cell_angle_gamma 90
_cell_formula_units_Z 4
loop_
_atom_type_symbol
_atom_type_radius_bond
C 0.68
H 0.23
N 0.68
O 0.68
loop_
_atom_site_label
_atom_site_type_symbol
_atom_site_fract_x
_atom_site_fract_y
_atom_site_fract_z
O1 O 0.96848(18) 0.5258(2) 0.18722(13)
O2 O 0.58841(18) 0.54239(18) 0.07950(12)
O3 O 0.6494(3) 0.8469(2) -0.00570(16)
O4 O 0.43250(18) 0.6889(2) 0.29942(11)
N1 N 1.0462(2) 0.5553(3) 0.13436(17)
N2 N 0.86902(18) 0.6141(2) 0.10125(14)
N3 N 0.41117(19) 0.6927(2) 0.18048(13)
N4 N 0.3372(2) 0.7581(3) 0.28072(14)
N5 N 0.63447(18) 0.72749(19) 0.08589(12)
C1 C 1.0914(4) 0.7664(4) -0.1016(2)
H1 H 1.11510 0.80390 -0.14200
C2 C 0.9807(4) 0.7793(3) -0.0811(2)
H2 H 0.92890 0.82390 -0.10790
C3 C 0.9483(3) 0.7248(3) -0.02023(18)
H3 H 0.87390 0.73310 -0.00590
C4 C 1.0251(2) 0.6571(2) 0.02048(17)
C5 C 1.1375(3) 0.6437(3) -0.00172(18)
C6 C 1.1666(3) 0.6992(4) -0.0631(2)
H4 H 1.24010 0.69060 -0.07890
C7 C 1.2241(3) 0.5710(3) 0.0377(2)
H5 H 1.29200 0.56760 0.01120
H6 H 1.19260 0.49890 0.04170
H7 H 1.24310 0.59980 0.08550
C8 C 0.9836(2) 0.6069(2) 0.08563(16)
C9 C 0.8660(2) 0.5634(3) 0.16148(17)
C10 C 0.7672(2) 0.5386(3) 0.20532(17)
H8 H 0.79320 0.53930 0.25650
H9 H 0.73980 0.46550 0.19340
C11 C 0.6658(2) 0.6204(2) 0.19283(15)
C12 C 0.6235(2) 0.6211(2) 0.11297(16)
C13 C 0.6788(2) 0.7965(2) 0.14334(18)
C14 C 0.6988(3) 0.9080(3) 0.1422(2)
H10 H 0.68590 0.94860 0.09970
C15 C 0.7383(3) 0.9557(4) 0.2064(3)
H11 H 0.75300 1.03050 0.20690
C16 C 0.7572(3) 0.8978(4) 0.2702(3)
H12 H 0.78410 0.93310 0.31270
C17 C 0.7362(3) 0.7875(4) 0.2706(2)
H13 H 0.74810 0.74740 0.31330
C18 C 0.6973(2) 0.7372(3) 0.20685(17)
C19 C 0.5619(4) 0.6800(3) -0.03975(19)
H14 H 0.54550 0.71570 -0.08580
H15 H 0.49160 0.65470 -0.02140
H16 H 0.61190 0.61900 -0.04610
C20 C 0.6182(3) 0.7580(3) 0.01246(19)
C21 C 0.5695(2) 0.5789(3) 0.23925(17)
H17 H 0.54450 0.50740 0.22180
H18 H 0.59960 0.57090 0.28940
C22 C 0.4689(2) 0.6545(2) 0.23648(16)
C23 C 0.3291(2) 0.7567(2) 0.21075(15)
C24 C 0.3715(3) 0.8873(3) 0.0770(2)
H19 H 0.43010 0.89280 0.11600
H20 H 0.37340 0.95100 0.04670
H21 H 0.38470 0.82330 0.04850
C25 C 0.2561(3) 0.8789(3) 0.10815(18)
C26 C 0.1631(3) 0.9355(3) 0.0751(2)
H22 H 0.17430 0.97860 0.03450
C27 C 0.0559(3) 0.9295(3) 0.1005(2)
H23 H -0.00450 0.96770 0.07690
C28 C 0.0372(3) 0.8684(3) 0.1596(2)
H24 H -0.03590 0.86440 0.17660
C29 C 0.1270(2) 0.8120(3) 0.19460(18)
H25 H 0.11430 0.77050 0.23560
C30 C 0.2370(2) 0.8165(2) 0.16906(16)
#END
