
#######################################################################
#
#                 Cambridge Crystallographic Data Centre
#                                CCDC
#
#######################################################################
#
# If this CIF has been generated from an entry in the Cambridge
# Structural Database, then it will include bibliographic, chemical,
# crystal, experimental, refinement or atomic coordinate data resulting
# from the CCDC's data processing and validation procedures.
#
#######################################################################

data_CSD_CIF_DEGCEY
_audit_creation_date 2006-05-05
_audit_creation_method CSD-ConQuest-V1
_database_code_CSD DEGCEY
_database_code_depnum_ccdc_archive 'CCDC 601147'
_chemical_formula_sum 'C16 H13 N1 O4'
_chemical_formula_moiety
;
C16 H13 N1 O4
;
_journal_coeditor_code "IUCr CI6757"
_journal_coden_Cambridge 1370
_journal_volume 62
_journal_year 2006
_journal_page_first o896
_journal_name_full 'Acta Crystallogr.,Sect.E:Struct.Rep.Online '
loop_
_publ_author_name
"P.S.Patil"
"J.Bee-Jan Teh"
"H.-K.Fun"
"I.A.Razak"
"S.M.Dharmaprakash"
_chemical_name_systematic
;
3-(4-Methoxyphenyl)-1-(4-nitrophenyl)prop-2-en-1-one
;
_cell_volume   1298.902
_exptl_crystal_colour 'yellow'
_exptl_crystal_density_diffrn 1.449
_exptl_crystal_description 'block'
_exptl_crystal_preparation 'acetone'
_diffrn_ambient_temperature ?
_diffrn_special_details
;
The study was carried out at room temperature,in the range 283-303K

;
#These two values have been output from a single CSD field.
_refine_ls_R_factor_gt 0.0349
_refine_ls_wR_factor_gt 0.0349
_symmetry_cell_setting orthorhombic
_symmetry_space_group_name_H-M 'P 21 21 21'
_symmetry_Int_Tables_number 19
loop_
_symmetry_equiv_pos_site_id
_symmetry_equiv_pos_as_xyz
1 x,y,z
2 1/2-x,-y,1/2+z
3 -x,1/2+y,1/2-z
4 1/2+x,1/2-y,-z
_cell_length_a 3.8765(1)
_cell_length_b 12.9341(2)
_cell_length_c 25.9060(5)
_cell_angle_alpha 90
_cell_angle_beta 90
_cell_angle_gamma 90
_cell_formula_units_Z 4
loop_
_atom_type_symbol
_atom_type_radius_bond
C 0.68
H 0.23
N 0.68
O 0.68
loop_
_atom_site_label
_atom_site_type_symbol
_atom_site_fract_x
_atom_site_fract_y
_atom_site_fract_z
O1 O 0.6403(4) -0.27796(9) 0.22026(4)
O2 O 0.4397(5) -0.39845(8) 0.27006(5)
O3 O -0.3158(3) -0.04627(8) 0.42950(4)
O4 O -0.3233(3) 0.60111(7) 0.41986(4)
N1 N 0.4760(4) -0.30697(9) 0.25816(5)
C1 C 0.1437(4) -0.05452(10) 0.30714(5)
H1 H 0.12800 0.01410 0.29670
C2 C 0.2986(4) -0.12702(10) 0.27478(5)
H2 H 0.38940 -0.10770 0.24300
C3 C 0.3133(4) -0.22904(10) 0.29147(5)
C4 C 0.1855(5) -0.26107(10) 0.33886(5)
H3 H 0.19990 -0.32990 0.34910
C5 C 0.0361(4) -0.18755(10) 0.37044(5)
H4 H -0.05000 -0.20720 0.40250
C6 C 0.0119(4) -0.08409(10) 0.35511(5)
C7 C -0.1647(4) -0.01081(10) 0.39167(5)
C8 C -0.1495(4) 0.10163(10) 0.38147(5)
H5 H -0.02530 0.12720 0.35350
C9 C -0.3188(4) 0.16629(10) 0.41335(5)
H6 H -0.44740 0.13500 0.43930
C10 C -0.3266(4) 0.27903(10) 0.41244(5)
C11 C -0.4791(4) 0.32974(10) 0.45424(5)
H7 H -0.58210 0.29030 0.48000
C12 C -0.4829(4) 0.43672(10) 0.45886(5)
H8 H -0.58120 0.46850 0.48750
C13 C -0.3360(4) 0.49509(10) 0.41952(5)
C14 C -0.1888(4) 0.44696(10) 0.37629(5)
H9 H -0.09660 0.48680 0.34980
C15 C -0.1805(4) 0.34024(10) 0.37303(5)
H10 H -0.07800 0.30860 0.34470
C16 C -0.4742(5) 0.65134(11) 0.46364(6)
H11 H -0.45140 0.72490 0.46000
H12 H -0.35830 0.62930 0.49450
H13 H -0.71420 0.63350 0.46580
#END
