
#######################################################################
#
#                 Cambridge Crystallographic Data Centre
#                                CCDC
#
#######################################################################
#
# If this CIF has been generated from an entry in the Cambridge
# Structural Database, then it will include bibliographic, chemical,
# crystal, experimental, refinement or atomic coordinate data resulting
# from the CCDC's data processing and validation procedures.
#
#######################################################################

data_CSD_CIF_DEGCAW
_audit_creation_date 2017-09-26
_audit_creation_method CSD-ConQuest-V1
_database_code_CSD DEGCAW
_database_code_depnum_ccdc_archive 'CCDC 1451523'
_chemical_formula_sum 'C238 H226 N40 O44'
_chemical_formula_moiety
;
C238 H226 N40 O44
;
_journal_coden_Cambridge 1441
_journal_volume 10
_journal_year 2017
_journal_page_first 51
_journal_name_full 'Nature Chemistry '
loop_
_publ_author_name
"Soumen De"
"Bo Chi"
"T.Granier"
"Ting Qi"
"V.Maurizot"
"Ivan Huc"
_chemical_name_systematic
;
N,N'-((2,2'-(2,5-diisobutoxyterephthaloyl)bis(hydrazine-1-carbonyl))bis(4-isob
utoxyquinoline-2,8-diyl))bis(8-(4-hydroxy-8-(8-(4-hydroxy-6-((8-(8-(4-hydroxy-
8-(4-isobutoxy-8-nitroquinoline-2-carboxamido)quinoline-2-carboxamido)-4-isobu
toxyquinoline-2-carboxamido)-4-isobutoxyquinoline-2-carboxamido)methyl)picolin
amido)-4-isobutoxyquinoline-2-carboxamido)quinoline-2-carboxamido)-4-isobutoxy
quinoline-2-carboxamide) unknown solvate
;
_cell_volume  27842.466
_exptl_crystal_density_diffrn 1.038
_exptl_crystal_description 'thin plate'
_exptl_crystal_preparation 'chloroform/toluene/acetonitrile'
_diffrn_ambient_temperature 100
_refine_special_details
;
CD_10,CE1_10,CE2_10,CG_10,OB_10 and CD_10,CE1_10,CE2_10,CG_10,OB_10 
disordered over two sites with occupancies 0.503:0.497; 
CD_16,CE1_16,CE2_16,CG_16,OB_16 and CD_16,CE1_16,CE2_16,CG_16,OB_16 
disordered over two sites with occupancies 0.782:0.218; CD_4,CE1_4,CE2_4,CG_4 
and CD_4,CE1_4,CE2_4,CG_4 disordered over two sites with occupancies 
0.806:0.194; CD_6,CE1_6,CE2_6,CG_6,OB_6 and CD_6,CE1_6,CE2_6,CG_6,OB_6 
disordered over two sites with occupancies 0.676:0.324; 
CJ_10,CK_10,CM1_10,CM2_10,OI_10 and CJ_10,CK_10,CM1_10,CM2_10,OI_10 
disordered over two sites with occupancies 0.676:0.324; Disordered solvent 
molecules were not modelled and the disordered density was taken into account 
using the SQUEEZE/PLATON procedure.
;
#These two values have been output from a single CSD field.
_refine_ls_R_factor_gt 0.1048
_refine_ls_wR_factor_gt 0.1048
_symmetry_cell_setting monoclinic
_symmetry_space_group_name_H-M 'P 21/n'
_symmetry_Int_Tables_number 14
loop_
_symmetry_equiv_pos_site_id
_symmetry_equiv_pos_as_xyz
1 x,y,z
2 1/2-x,1/2+y,1/2-z
3 -x,-y,-z
4 -1/2+x,-1/2-y,-1/2+z
_cell_length_a 27.392(6)
_cell_length_b 35.870(7)
_cell_length_c 28.337(6)
_cell_angle_alpha 90
_cell_angle_beta 90.14(3)
_cell_angle_gamma 90
_cell_formula_units_Z 4
loop_
_atom_type_symbol
_atom_type_radius_bond
C 0.68
H 0.23
N 0.68
O 0.68
loop_
_atom_site_label
_atom_site_type_symbol
_atom_site_fract_x
_atom_site_fract_y
_atom_site_fract_z
O1 O 0.61864(12) 0.42765(8) 0.38675(12)
O2 O 0.61704(9) 0.37282(7) 0.35588(9)
N1 N 0.61791(10) 0.40694(9) 0.35172(13)
C1 C 0.61812(11) 0.42439(9) 0.30652(15)
C2 C 0.62838(13) 0.46224(11) 0.30520(18)
H1 H 0.63340 0.47540 0.33390
C3 C 0.63135(15) 0.48097(10) 0.26291(19)
H2 H 0.63840 0.50690 0.26290
C4 C 0.62440(13) 0.46305(10) 0.22101(18)
H3 H 0.62710 0.47640 0.19220
C5 C 0.61311(11) 0.42436(8) 0.22046(14)
C6 C 0.60879(10) 0.40474(9) 0.26391(13)
C7 C 0.60569(11) 0.40412(9) 0.17781(13)
C8 C 0.5942(1) 0.36742(8) 0.17945(12)
H4 H 0.58960 0.35350 0.15130
C9 C 0.58926(10) 0.35045(8) 0.22405(12)
N2 N 0.59570(8) 0.36767(7) 0.26426(10)
C10 C 0.57758(10) 0.30997(8) 0.22646(12)
O3 O 0.61257(8) 0.42448(6) 0.13831(10)
O4 O 0.57380(8) 0.29071(6) 0.19127(8)
C11 C 0.60743(14) 0.40561(11) 0.09426(15)
H5 H 0.57290 0.39860 0.08910
H6 H 0.62730 0.38250 0.09440
C12 C 0.62441(19) 0.43133(12) 0.05516(18)
H7 H 0.65880 0.43890 0.06240
C13 C 0.6246(3) 0.41020(16) 0.00899(19)
H8 H 0.64530 0.38800 0.01210
H9 H 0.59120 0.40260 0.00100
H10 H 0.63750 0.42630 -0.01600
C14 C 0.5933(3) 0.46628(15) 0.0540(2)
H11 H 0.59470 0.47860 0.08480
H12 H 0.60570 0.48320 0.02970
H13 H 0.55940 0.45960 0.04670
N3 N 0.57224(8) 0.29746(6) 0.27157(9)
H14 H 0.57310 0.31460 0.29380
C15 C 0.56559(10) 0.26088(7) 0.28700(11)
C16 C 0.56765(12) 0.22965(8) 0.25847(13)
H15 H 0.57300 0.23250 0.22560
C17 C 0.56206(14) 0.19434(8) 0.27708(14)
H16 H 0.56290 0.17340 0.25650
C18 C 0.55529(13) 0.18877(8) 0.32415(13)
H17 H 0.55230 0.16420 0.33620
C19 C 0.55277(11) 0.21931(7) 0.35484(12)
C20 C 0.55705(10) 0.25640(7) 0.33671(11)
C21 C 0.54655(12) 0.21599(7) 0.40468(12)
C22 C 0.54330(13) 0.24740(8) 0.43142(12)
H18 H 0.53980 0.24540 0.46470
C23 C 0.54504(11) 0.28273(7) 0.41012(12)
N4 N 0.55214(8) 0.28737(6) 0.36369(9)
C24 C 0.53633(11) 0.31612(7) 0.43939(13)
O5 O 0.54329(10) 0.18123(5) 0.42239(9)
H19 H 0.53910 0.18240 0.45170
O6 O 0.53676(8) 0.31429(5) 0.48302(9)
N5 N 0.52669(9) 0.34753(6) 0.41477(9)
H20 H 0.52470 0.34430 0.38400
C25 C 0.51942(11) 0.38418(7) 0.42970(12)
C26 C 0.52465(13) 0.39721(8) 0.47477(13)
H21 H 0.53140 0.38040 0.49980
C27 C 0.52010(16) 0.43546(8) 0.48404(14)
H22 H 0.52240 0.44400 0.51570
C28 C 0.51240(14) 0.46084(8) 0.44881(13)
H23 H 0.51050 0.48670 0.45600
C29 C 0.50730(11) 0.44863(8) 0.40210(12)
C30 C 0.50812(10) 0.40974(7) 0.39274(11)
C31 C 0.50259(12) 0.47235(7) 0.36213(13)
C32 C 0.49619(11) 0.45782(8) 0.31834(13)
H24 H 0.49320 0.47360 0.29160
C33 C 0.4941(1) 0.41880(7) 0.31359(11)
N6 N 0.50004(8) 0.39515(6) 0.34907(9)
C34 C 0.48378(10) 0.40163(8) 0.26655(12)
O7 O 0.50589(10) 0.50947(5) 0.37195(9)
O8 O 0.48692(8) 0.41939(6) 0.22956(8)
C35 C 0.51074(15) 0.53506(8) 0.33316(15)
H25 H 0.48030 0.53520 0.31420
H26 H 0.53790 0.52710 0.31250
C36 C 0.52045(19) 0.57289(9) 0.35151(16)
H27 H 0.54950 0.57160 0.37290
C37 C 0.5318(2) 0.59981(10) 0.31237(18)
H28 H 0.53810 0.62460 0.32570
H29 H 0.56080 0.59130 0.29530
H30 H 0.50400 0.60110 0.29060
C38 C 0.4771(2) 0.5864(1) 0.38022(17)
H31 H 0.48380 0.61150 0.39230
H32 H 0.44790 0.58700 0.36010
H33 H 0.47160 0.56940 0.40680
N7 N 0.47169(8) 0.36501(6) 0.26892(9)
H34 H 0.46900 0.35640 0.29790
C39 C 0.46283(10) 0.33875(8) 0.23428(12)
C40 C 0.46559(11) 0.34590(9) 0.18590(13)
H35 H 0.47260 0.37030 0.17480
C41 C 0.45803(12) 0.3171(1) 0.15421(14)
H36 H 0.45920 0.32220 0.12130
C42 C 0.44877(13) 0.28076(10) 0.16917(14)
H37 H 0.44430 0.26140 0.14670
C43 C 0.44611(11) 0.27298(9) 0.21783(12)
C44 C 0.45157(10) 0.30224(8) 0.25049(12)
C45 C 0.43837(12) 0.23673(9) 0.23583(14)
C46 C 0.43502(12) 0.23148(9) 0.28401(14)
H38 H 0.43070 0.20730 0.29690
C47 C 0.43818(10) 0.26285(8) 0.31334(12)
N8 N 0.44681(8) 0.29696(6) 0.29835(10)
C48 C 0.43056(11) 0.25716(8) 0.36485(12)
O9 O 0.43528(11) 0.20923(7) 0.20332(10)
O10 O 0.42748(8) 0.22526(6) 0.38164(8)
C49 C 0.4295(6) 0.17156(18) 0.2201(4)
H39 H 0.39710 0.16840 0.23490
H40 H 0.45490 0.16560 0.24380
C50 C 0.4344(5) 0.1458(2) 0.1766(3)
H41 H 0.43040 0.11960 0.18830
C51 C 0.3911(4) 0.1539(2) 0.1457(4)
H42 H 0.36100 0.15120 0.16410
H43 H 0.39340 0.17940 0.13350
H44 H 0.39050 0.13630 0.11920
C52 C 0.4847(5) 0.1482(3) 0.1554(4)
H45 H 0.50920 0.14230 0.17950
H46 H 0.48730 0.13040 0.12930
H47 H 0.49020 0.17350 0.14360
N9 N 0.42599(9) 0.28721(6) 0.39173(10)
H48 H 0.42710 0.30950 0.37890
C53 C 0.41913(12) 0.28331(8) 0.44194(12)
H49 H 0.44740 0.26950 0.45500
H50 H 0.38970 0.26790 0.44740
C54 C 0.41376(10) 0.31877(7) 0.46862(13)
C55 C 0.41818(11) 0.31695(8) 0.51727(12)
H51 H 0.42590 0.29390 0.53200
N10 N 0.40389(9) 0.35062(7) 0.44547(10)
C56 C 0.39746(11) 0.38144(8) 0.47220(14)
C57 C 0.38721(12) 0.41769(9) 0.44771(15)
O11 O 0.38492(11) 0.44680(6) 0.47001(11)
C58 C 0.40071(11) 0.38180(8) 0.52084(13)
H52 H 0.39580 0.40430 0.53800
C59 C 0.41137(11) 0.34847(8) 0.54450(14)
O12 O 0.41462(9) 0.34821(6) 0.59165(9)
H53 H 0.42110 0.32650 0.60100
N11 N 0.38068(9) 0.41548(7) 0.40006(12)
H54 H 0.37840 0.39280 0.38830
C60 C 0.37723(11) 0.44431(9) 0.36780(15)
C61 C 0.38113(15) 0.48181(9) 0.37969(19)
H55 H 0.38450 0.48920 0.41170
C62 C 0.38005(17) 0.50841(11) 0.3435(2)
H56 H 0.38160 0.53400 0.35200
C63 C 0.37694(17) 0.49989(12) 0.2972(2)
H57 H 0.37770 0.51900 0.27400
C64 C 0.37252(13) 0.46181(10) 0.28373(17)
C65 C 0.37063(11) 0.43423(9) 0.31896(15)
C66 C 0.36903(14) 0.45027(12) 0.23559(17)
C67 C 0.36204(12) 0.41364(12) 0.22592(15)
H58 H 0.36080 0.40520 0.19420
C68 C 0.35676(11) 0.3884(1) 0.26294(14)
N12 N 0.36225(8) 0.39768(7) 0.30855(11)
C69 C 0.34395(11) 0.34965(10) 0.25241(14)
O13 O 0.34292(8) 0.33767(8) 0.21147(10)
O14 O 0.3749(6) 0.4748(3) 0.1997(4)
C70 C 0.3787(8) 0.4618(4) 0.1513(4)
H59 H 0.35020 0.44600 0.14330
H60 H 0.40870 0.44670 0.14750
C71 C 0.3805(9) 0.4958(3) 0.1179(4)
H61 H 0.40850 0.51200 0.12750
C72 C 0.3892(15) 0.4824(5) 0.0682(5)
H62 H 0.41920 0.46760 0.06730
H63 H 0.36150 0.46710 0.05790
H64 H 0.39250 0.50400 0.04720
C73 C 0.3336(9) 0.5191(4) 0.1195(7)
H65 H 0.32800 0.52770 0.15190
H66 H 0.33690 0.54060 0.09850
H67 H 0.30590 0.50370 0.10920
N13 N 0.33169(9) 0.32927(7) 0.29081(10)
H68 H 0.33110 0.34160 0.31760
C74 C 0.31998(10) 0.29191(9) 0.29393(12)
C75 C 0.32036(12) 0.26654(11) 0.25775(14)
H69 H 0.32660 0.27470 0.22650
C76 C 0.31178(12) 0.22898(11) 0.26633(14)
H70 H 0.31110 0.21200 0.24060
C77 C 0.30432(12) 0.21601(10) 0.31103(14)
H71 H 0.30080 0.19000 0.31640
C78 C 0.30180(11) 0.24096(8) 0.34914(12)
C79 C 0.30823(10) 0.27970(8) 0.34097(12)
C80 C 0.29430(11) 0.22999(8) 0.39693(13)
C81 C 0.29041(11) 0.25674(8) 0.43099(13)
H72 H 0.28480 0.24980 0.46290
C82 C 0.29481(10) 0.29473(8) 0.41876(12)
N14 N 0.30360(8) 0.30604(6) 0.37491(10)
C83 C 0.28744(11) 0.32325(8) 0.45590(14)
O15 O 0.29130(9) 0.19328(6) 0.40634(9)
H73 H 0.28610 0.19020 0.43530
O16 O 0.28693(8) 0.31459(6) 0.49787(9)
N15 N 0.28130(9) 0.35868(7) 0.44029(11)
H74 H 0.28400 0.36180 0.40960
C84 C 0.27122(12) 0.39099(9) 0.46611(15)
C85 C 0.27324(14) 0.39254(10) 0.51485(16)
H75 H 0.28160 0.37070 0.53210
C86 C 0.26315(16) 0.42575(12) 0.53957(19)
H76 H 0.26400 0.42610 0.57310
C87 C 0.25215(16) 0.45714(13) 0.5151(2)
H77 H 0.24600 0.47960 0.53180
C88 C 0.24974(13) 0.45705(10) 0.4662(2)
C89 C 0.25944(12) 0.42313(9) 0.44073(16)
C90 C 0.23921(17) 0.48890(12) 0.4406(2)
C91 C 0.23885(15) 0.4867(1) 0.3919(2)
H78 H 0.23280 0.50840 0.37350
C92 C 0.24751(12) 0.45223(10) 0.36975(18)
N16 N 0.25662(9) 0.42115(7) 0.39282(14)
C93 C 0.24540(14) 0.45327(14) 0.3185(2)
O17 O 0.22825(16) 0.51941(9) 0.4655(2)
O18 O 0.24629(12) 0.48262(10) 0.29658(16)
C94 C 0.2175(4) 0.55310(16) 0.4414(3)
H79 H 0.19420 0.54830 0.41540
H80 H 0.24780 0.56360 0.42770
C95 C 0.1949(6) 0.5813(2) 0.4773(5)
H81 H 0.16320 0.57200 0.49010
C96 C 0.2330(6) 0.5867(3) 0.5168(5)
H82 H 0.23760 0.56310 0.53370
H83 H 0.26410 0.59460 0.50300
H84 H 0.22150 0.60580 0.53890
C97 C 0.1887(9) 0.6191(3) 0.4516(5)
H85 H 0.16460 0.61640 0.42620
H86 H 0.17750 0.63800 0.47400
H87 H 0.22000 0.62680 0.43820
N17 N 0.24179(11) 0.41971(12) 0.29529(15)
H88 H 0.24120 0.39990 0.31360
C98 C 0.23892(17) 0.4124(2) 0.2479(2)
C99 C 0.24760(18) 0.4392(2) 0.2139(2)
H89 H 0.25520 0.46400 0.22300
C100 C 0.2452(2) 0.4297(3) 0.1652(3)
H90 H 0.25090 0.44870 0.14250
C101 C 0.2349(2) 0.3943(3) 0.1494(3)
H91 H 0.23410 0.38820 0.11670
C102 C 0.22571(19) 0.3675(3) 0.1847(3)
C103 C 0.22773(15) 0.3767(2) 0.2317(2)
C104 C 0.2132(2) 0.3308(3) 0.1715(3)
C105 C 0.2019(2) 0.3035(3) 0.2061(3)
H92 H 0.19290 0.27870 0.19810
C106 C 0.20493(16) 0.3159(2) 0.2531(2)
N18 N 0.21680(13) 0.35008(15) 0.26702(17)
C107 C 0.19371(17) 0.28829(17) 0.2889(3)
O19 O 0.18721(13) 0.25387(12) 0.2844(2)
O20 O 0.21213(16) 0.3252(2) 0.1248(2)
C108 C 0.1912(4) 0.2948(4) 0.1045(4)
H93 H 0.15840 0.29020 0.11790
H94 H 0.21160 0.27230 0.10970
C109 C 0.1874(5) 0.3046(5) 0.0477(4)
H95 H 0.17050 0.28360 0.03120
C110 C 0.1587(3) 0.3436(4) 0.0357(4)
H96 H 0.12550 0.34250 0.04850
H97 H 0.17630 0.36450 0.05000
H98 H 0.15710 0.34700 0.00140
C111 C 0.2374(4) 0.3098(6) 0.0263(4)
H99 H 0.25710 0.28750 0.03200
H100 H 0.23410 0.31390 -0.00770
H101 H 0.25330 0.33150 0.04080
C112 C 0.1273(6) 0.3273(3) 0.6630(6)
H102 H 0.12320 0.30010 0.66260
H103 H 0.12990 0.33590 0.69570
H104 H 0.09910 0.33910 0.64780
C113 C 0.1738(5) 0.3377(3) 0.6362(4)
H105 H 0.20280 0.32520 0.65080
C114 C 0.1801(6) 0.3795(2) 0.6368(5)
H106 H 0.18410 0.38800 0.66940
H107 H 0.20910 0.38630 0.61850
H108 H 0.15130 0.39130 0.62280
C115 C 0.1678(8) 0.3252(4) 0.5850(6)
H109 H 0.13640 0.33430 0.57190
H110 H 0.19480 0.33490 0.56540
O21 O 0.1686(3) 0.2857(3) 0.5863(4)
C116 C 0.16878(13) 0.26884(12) 0.5430(2)
C117 C 0.16994(13) 0.22977(10) 0.5428(2)
C118 C 0.16916(12) 0.21200(11) 0.4990(2)
H111 H 0.16890 0.18550 0.49820
C119 C 0.17510(14) 0.20496(12) 0.5836(2)
O22 O 0.17724(10) 0.17055(7) 0.58097(15)
N19 N 0.17931(14) 0.22098(11) 0.6269(2)
H112 H 0.17670 0.24530 0.63030
C120 C 0.16900(13) 0.28825(11) 0.5004(2)
H113 H 0.16840 0.31470 0.50120
C121 C 0.17007(12) 0.27045(10) 0.4568(2)
C122 C 0.17542(13) 0.29541(11) 0.4162(2)
O23 O 0.17757(11) 0.32942(7) 0.41897(14)
N20 N 0.17996(14) 0.27955(11) 0.3722(2)
H114 H 0.17760 0.25530 0.36860
C123 C 0.16878(13) 0.23140(11) 0.4564(2)
O24 O 0.1674(6) 0.2127(3) 0.4143(4)
C124 C 0.1612(6) 0.1735(3) 0.4130(5)
H115 H 0.13140 0.16690 0.43070
H116 H 0.18930 0.16160 0.42910
C125 C 0.1573(9) 0.1588(4) 0.3652(6)
H117 H 0.19040 0.16870 0.35740
C126 C 0.1768(6) 0.1192(2) 0.3649(4)
H118 H 0.18890 0.11270 0.39640
H119 H 0.15050 0.10200 0.35600
H120 H 0.20340 0.11720 0.34200
C127 C 0.1369(13) 0.1762(5) 0.3238(8)
H121 H 0.13960 0.15920 0.29690
H122 H 0.10240 0.18210 0.32930
H123 H 0.15470 0.19930 0.31690
N21 N 0.24138(11) 0.08099(12) 0.70505(15)
H124 H 0.24050 0.10070 0.68650
C128 C 0.23880(16) 0.0888(2) 0.7519(2)
C129 C 0.24805(17) 0.0611(2) 0.7871(2)
H125 H 0.25590 0.03630 0.77820
C130 C 0.2454(2) 0.0706(3) 0.8342(3)
H126 H 0.25100 0.05160 0.85680
C131 C 0.2352(3) 0.1059(3) 0.8506(3)
H127 H 0.23450 0.11190 0.88320
C132 C 0.22586(19) 0.1327(3) 0.8141(3)
C133 C 0.22718(16) 0.1238(2) 0.7685(2)
C134 C 0.2137(2) 0.1686(3) 0.8289(3)
C135 C 0.2028(2) 0.1954(3) 0.7945(3)
H128 H 0.19440 0.22020 0.80300
C136 C 0.20472(16) 0.1841(2) 0.7466(2)
N22 N 0.21673(13) 0.15039(16) 0.73294(17)
C137 C 0.19324(19) 0.21209(19) 0.7111(3)
O25 O 0.21253(18) 0.1742(3) 0.8757(2)
O26 O 0.18714(14) 0.24589(12) 0.7155(2)
C138 C 0.1904(4) 0.2050(4) 0.8965(4)
H129 H 0.15760 0.20940 0.88280
H130 H 0.21050 0.22770 0.89210
C139 C 0.1864(4) 0.1939(4) 0.9534(4)
H131 H 0.17090 0.21490 0.97100
C140 C 0.1579(3) 0.1553(4) 0.9655(3)
H132 H 0.12400 0.15720 0.95480
H133 H 0.17400 0.13450 0.94940
H134 H 0.15860 0.15110 0.99970
C141 C 0.2392(5) 0.1880(6) 0.9717(5)
H135 H 0.25860 0.21040 0.96540
H136 H 0.23850 0.18320 1.00570
H137 H 0.25390 0.16660 0.95550
N23 N 0.28106(9) 0.14102(6) 0.56009(11)
H138 H 0.28400 0.13800 0.59080
C142 C 0.27069(11) 0.10899(8) 0.53407(14)
C143 C 0.27243(14) 0.10712(10) 0.48515(15)
H139 H 0.27990 0.12890 0.46750
C144 C 0.26344(16) 0.07392(12) 0.46160(19)
H140 H 0.26540 0.07330 0.42810
C145 C 0.25205(16) 0.04263(14) 0.4851(2)
H141 H 0.24550 0.02030 0.46820
C146 C 0.24984(13) 0.04281(10) 0.5343(2)
C147 C 0.25899(11) 0.07683(9) 0.55923(16)
C148 C 0.23920(17) 0.01103(12) 0.5605(3)
C149 C 0.23832(15) 0.01349(10) 0.6083(2)
H142 H 0.23160 -0.00800 0.62680
C150 C 0.24739(13) 0.04788(10) 0.63042(18)
N24 N 0.25656(9) 0.07916(7) 0.60752(13)
C151 C 0.24511(14) 0.04744(14) 0.6816(2)
O27 O 0.22861(18) -0.01963(9) 0.5349(2)
O28 O 0.24586(13) 0.01806(10) 0.70467(16)
C152 C 0.2149(4) -0.05263(17) 0.5574(4)
H143 H 0.18900 -0.04720 0.58080
H144 H 0.24330 -0.06310 0.57450
C153 C 0.1961(6) -0.0812(2) 0.5218(5)
H145 H 0.16250 -0.07560 0.50980
C154 C 0.2324(6) -0.0867(3) 0.4838(5)
H146 H 0.22000 -0.10510 0.46120
H147 H 0.23820 -0.06300 0.46760
H148 H 0.26310 -0.09570 0.49750
C155 C 0.1999(8) -0.1196(3) 0.5484(5)
H149 H 0.17720 -0.11970 0.57510
H150 H 0.19160 -0.13980 0.52660
H151 H 0.23340 -0.12300 0.56000
N25 N 0.33139(9) 0.17058(7) 0.70925(10)
H152 H 0.33060 0.15820 0.68240
C156 C 0.31997(10) 0.20812(9) 0.70606(12)
C157 C 0.32025(12) 0.23298(11) 0.74221(14)
H153 H 0.32610 0.22460 0.77350
C158 C 0.31195(13) 0.27105(11) 0.73367(15)
H154 H 0.31190 0.28800 0.75940
C159 C 0.30394(12) 0.28412(10) 0.68888(14)
H155 H 0.29990 0.31010 0.68360
C160 C 0.30167(10) 0.25894(8) 0.65066(12)
C161 C 0.30794(10) 0.22055(8) 0.65914(12)
C162 C 0.29403(11) 0.27003(8) 0.60346(13)
C163 C 0.29001(11) 0.24276(8) 0.56897(12)
H156 H 0.28440 0.24960 0.53700
C164 C 0.29416(11) 0.20541(8) 0.58131(12)
N26 N 0.30391(9) 0.19384(7) 0.62519(10)
C165 C 0.28724(11) 0.17631(8) 0.54400(14)
O29 O 0.29106(9) 0.30658(6) 0.59387(9)
H157 H 0.28590 0.30960 0.56490
O30 O 0.28680(8) 0.18520(6) 0.50226(9)
N27 N 0.38026(9) 0.08475(7) 0.59993(12)
H158 H 0.37820 0.10740 0.61170
C166 C 0.37656(12) 0.05557(9) 0.63229(15)
C167 C 0.38050(14) 0.01819(9) 0.62026(18)
H159 H 0.38410 0.01100 0.58820
C168 C 0.37906(17) -0.00887(11) 0.6561(2)
H160 H 0.37980 -0.03440 0.64740
C169 C 0.37663(17) -0.00012(12) 0.7027(2)
H161 H 0.37780 -0.01920 0.72590
C170 C 0.37230(13) 0.03793(10) 0.71642(18)
C171 C 0.37028(11) 0.06573(9) 0.68046(15)
C172 C 0.36890(14) 0.04957(13) 0.76391(18)
C173 C 0.36200(12) 0.08652(12) 0.77461(16)
H162 H 0.36060 0.09500 0.80640
C174 C 0.35706(11) 0.11129(10) 0.73651(14)
N28 N 0.36191(9) 0.10233(7) 0.69124(12)
C175 C 0.34367(11) 0.15021(10) 0.74776(14)
O31 O 0.37243(14) 0.02229(10) 0.79708(15)
O32 O 0.34259(8) 0.16210(8) 0.78864(10)
C176 C 0.3740(4) 0.0318(2) 0.8446(2)
H163 H 0.34500 0.04730 0.85180
H164 H 0.40330 0.04730 0.85020
C177 C 0.3751(7) -0.0002(3) 0.8782(4)
H165 H 0.40320 -0.01710 0.87110
C178 C 0.3768(9) 0.0124(3) 0.9287(4)
H166 H 0.37750 -0.00940 0.94950
H167 H 0.40620 0.02750 0.93390
H168 H 0.34780 0.02740 0.93560
C179 C 0.3260(6) -0.0202(3) 0.8688(5)
H169 H 0.32330 -0.04190 0.88950
H170 H 0.29900 -0.00300 0.87510
H171 H 0.32470 -0.02830 0.83580
N29 N 0.42578(9) 0.21267(6) 0.60842(10)
H172 H 0.42720 0.19040 0.62130
C180 C 0.41890(12) 0.21664(8) 0.55804(12)
H173 H 0.44720 0.23040 0.54510
H174 H 0.38950 0.23210 0.55250
C181 C 0.41337(10) 0.18117(7) 0.53113(13)
C182 C 0.41775(11) 0.18307(8) 0.48335(13)
H175 H 0.42560 0.20620 0.46880
N30 N 0.40294(9) 0.14933(7) 0.55413(10)
C183 C 0.39719(11) 0.11857(8) 0.52789(13)
C184 C 0.38672(13) 0.08258(9) 0.55177(15)
O33 O 0.38378(10) 0.05331(6) 0.52992(10)
C185 C 0.40051(11) 0.11819(8) 0.47916(13)
H176 H 0.39590 0.09560 0.46210
C186 C 0.41073(11) 0.15123(8) 0.45538(13)
O34 O 0.41412(8) 0.15168(6) 0.40810(9)
H177 H 0.42030 0.17340 0.39900
N31 N 0.47158(8) 0.13506(6) 0.73081(9)
H178 H 0.46840 0.14360 0.70190
C187 C 0.46301(10) 0.16126(9) 0.76574(12)
C188 C 0.46561(11) 0.15395(9) 0.81369(12)
H179 H 0.47230 0.12940 0.82460
C189 C 0.45826(13) 0.18306(10) 0.84586(14)
H180 H 0.45940 0.17790 0.87870
C190 C 0.44941(13) 0.21895(10) 0.83096(14)
H181 H 0.44550 0.23840 0.85340
C191 C 0.44622(11) 0.22681(9) 0.78242(13)
C192 C 0.45178(10) 0.19796(8) 0.74924(12)
C193 C 0.43845(12) 0.26321(9) 0.76410(14)
C194 C 0.43463(12) 0.26832(9) 0.71647(13)
H182 H 0.42970 0.29250 0.70370
C195 C 0.43804(10) 0.23734(8) 0.68684(12)
N32 N 0.44669(8) 0.20291(6) 0.70197(10)
C196 C 0.42989(10) 0.24303(8) 0.63525(12)
O35 O 0.42732(8) 0.27478(5) 0.61839(8)
O36 O 0.4361(4) 0.29044(17) 0.7976(3)
C197 C 0.4280(5) 0.32792(19) 0.7809(3)
H183 H 0.39490 0.33030 0.76710
H184 H 0.45230 0.33450 0.75640
C198 C 0.4334(4) 0.3534(2) 0.8238(3)
H185 H 0.42880 0.37940 0.81190
C199 C 0.3891(5) 0.3449(2) 0.8538(4)
H186 H 0.35950 0.34710 0.83460
H187 H 0.39160 0.31950 0.86630
H188 H 0.38760 0.36260 0.88010
C200 C 0.4844(5) 0.3520(3) 0.8449(4)
H189 H 0.50840 0.35830 0.82050
H190 H 0.48680 0.37000 0.87080
H191 H 0.49090 0.32690 0.85690
N33 N 0.52637(9) 0.15266(6) 0.58494(9)
H192 H 0.52450 0.15590 0.61570
C201 C 0.51897(11) 0.11614(7) 0.56999(12)
C202 C 0.52434(13) 0.10269(8) 0.52496(13)
H193 H 0.53110 0.11950 0.49990
C203 C 0.52004(16) 0.06475(9) 0.51534(14)
H194 H 0.52250 0.05630 0.48370
C204 C 0.51221(14) 0.03904(8) 0.55121(13)
H195 H 0.51040 0.01320 0.54420
C205 C 0.50703(12) 0.05168(8) 0.59811(12)
C206 C 0.5077(1) 0.09014(7) 0.60718(12)
C207 C 0.50217(12) 0.02734(7) 0.63744(13)
C208 C 0.49603(11) 0.04238(8) 0.68158(13)
H196 H 0.49340 0.02670 0.70850
C209 C 0.49365(10) 0.08117(7) 0.68641(11)
N34 N 0.50003(8) 0.10484(6) 0.65052(9)
C210 C 0.48415(10) 0.09816(8) 0.73345(12)
O37 O 0.50571(10) -0.00925(5) 0.62803(9)
O38 O 0.48687(8) 0.08049(6) 0.77020(8)
C211 C 0.51010(16) -0.03460(8) 0.66670(15)
H197 H 0.47950 -0.03470 0.68530
H198 H 0.53710 -0.02670 0.68770
C212 C 0.5201(2) -0.07319(9) 0.64754(17)
H199 H 0.54920 -0.07220 0.62640
C213 C 0.5306(2) -0.10031(10) 0.68864(19)
H200 H 0.55880 -0.09140 0.70670
H201 H 0.50200 -0.10160 0.70930
H202 H 0.53750 -0.12520 0.67600
C214 C 0.4767(2) -0.08688(10) 0.61975(17)
H203 H 0.48350 -0.11190 0.60750
H204 H 0.44800 -0.08780 0.64030
H205 H 0.47030 -0.06990 0.59340
N35 N 0.57223(8) 0.20285(6) 0.72842(9)
H206 H 0.57320 0.18570 0.70620
C215 C 0.56568(10) 0.23908(7) 0.71301(11)
C216 C 0.56726(12) 0.27029(8) 0.74188(13)
H207 H 0.57200 0.26740 0.77490
C217 C 0.56203(14) 0.30584(8) 0.72285(14)
H208 H 0.56310 0.32680 0.74330
C218 C 0.55547(13) 0.31145(8) 0.67574(13)
H209 H 0.55280 0.33610 0.66370
C219 C 0.55266(11) 0.28072(7) 0.64492(12)
C220 C 0.55674(10) 0.24371(7) 0.66341(11)
C221 C 0.54608(12) 0.28395(7) 0.59530(12)
C222 C 0.54252(13) 0.25260(8) 0.56863(12)
H210 H 0.53870 0.25450 0.53540
C223 C 0.54452(11) 0.21749(7) 0.59015(12)
N36 N 0.55174(8) 0.21266(6) 0.63618(9)
C224 C 0.53590(11) 0.18368(7) 0.56054(12)
O39 O 0.54318(10) 0.31885(5) 0.57745(9)
H211 H 0.53860 0.31770 0.54820
O40 O 0.53628(8) 0.18566(5) 0.51723(9)
N37 N 0.61744(10) 0.09313(9) 0.64817(13)
C225 C 0.61770(11) 0.07579(9) 0.69361(15)
C226 C 0.62860(13) 0.03784(11) 0.69523(18)
H212 H 0.63400 0.02460 0.66670
C227 C 0.63164(14) 0.01928(10) 0.7376(2)
H213 H 0.63890 -0.00660 0.73760
C228 C 0.62457(13) 0.03692(10) 0.77947(17)
H214 H 0.62720 0.02360 0.80840
C229 C 0.61316(10) 0.07556(8) 0.77938(14)
C230 C 0.60883(10) 0.09526(8) 0.73595(13)
C231 C 0.60582(10) 0.09597(8) 0.82254(13)
C232 C 0.59423(10) 0.13258(8) 0.82048(12)
H215 H 0.58960 0.14660 0.84850
C233 C 0.58924(10) 0.14934(8) 0.77625(12)
N38 N 0.59571(8) 0.13222(6) 0.73548(10)
C234 C 0.57744(10) 0.19012(8) 0.77359(12)
O41 O 0.61263(8) 0.07587(6) 0.8620(1)
O42 O 0.57386(8) 0.20942(6) 0.80895(8)
C235 C 0.60741(14) 0.09451(10) 0.90608(15)
H216 H 0.57280 0.10160 0.91090
H217 H 0.62730 0.11750 0.90630
C236 C 0.62390(19) 0.06902(13) 0.94495(18)
H218 H 0.65830 0.06150 0.93800
C237 C 0.6242(2) 0.09089(15) 0.99182(18)
H219 H 0.63490 0.07450 1.01750
H220 H 0.64660 0.11210 0.98930
H221 H 0.59120 0.10000 0.99850
C238 C 0.5932(3) 0.03372(15) 0.9460(2)
H222 H 0.60460 0.01750 0.97160
H223 H 0.55890 0.04030 0.95130
H224 H 0.59630 0.02060 0.91580
O43 O 0.61690(8) 0.12692(7) 0.64429(9)
O44 O 0.61805(12) 0.07294(8) 0.61294(12)
N39 N 0.18821(13) 0.30201(12) 0.3345(2)
H225 H 0.19020 0.32620 0.33910
N40 N 0.18784(13) 0.19840(13) 0.6656(2)
H226 H 0.18990 0.17420 0.66110
C239? C 0.4266(13) 0.1721(5) 0.2192(10)
H227? H 0.39990 0.17200 0.24270
H228? H 0.45640 0.16210 0.23460
C240? C 0.4126(16) 0.1474(7) 0.1774(12)
H229? H 0.37830 0.15340 0.16810
C241? C 0.4453(19) 0.1546(9) 0.1353(12)
H230? H 0.44460 0.18120 0.12750
H231? H 0.47880 0.14710 0.14300
H232? H 0.43350 0.14020 0.10820
C242? C 0.416(2) 0.1058(6) 0.1864(13)
H233? H 0.39580 0.09910 0.21340
H234? H 0.40500 0.09220 0.15840
H235? H 0.45030 0.09910 0.19310
O45? O 0.3686(10) 0.4813(6) 0.2089(7)
C243? C 0.3659(10) 0.4731(7) 0.1597(8)
H236? H 0.34390 0.45160 0.15430
H237? H 0.39870 0.46650 0.14770
C244? C 0.3467(10) 0.5069(9) 0.1338(10)
H238? H 0.36930 0.52820 0.14020
C245? C 0.2943(11) 0.5191(7) 0.1464(11)
H239? H 0.28550 0.54110 0.12780
H240? H 0.27150 0.49880 0.13940
H241? H 0.29270 0.52520 0.18010
C246? C 0.3487(10) 0.4979(9) 0.0808(9)
H242? H 0.33650 0.51920 0.06270
H243? H 0.38250 0.49260 0.07170
H244? H 0.32840 0.47600 0.07420
C247? C 0.1309(11) 0.3821(4) 0.6297(9)
H245? H 0.15890 0.39770 0.62120
H246? H 0.10640 0.38310 0.60450
H247? H 0.11660 0.39120 0.65920
C248? C 0.1482(8) 0.3408(4) 0.6365(8)
H248? H 0.17470 0.33830 0.66070
C249? C 0.1021(9) 0.3192(7) 0.6497(10)
H249? H 0.09080 0.32720 0.68090
H250? H 0.07650 0.32410 0.62620
H251? H 0.10930 0.29240 0.65030
C250? C 0.1639(11) 0.3271(5) 0.5876(9)
H252? H 0.14010 0.33600 0.56380
H253? H 0.19610 0.33800 0.57980
O46? O 0.1671(7) 0.2876(4) 0.5852(6)
O47? O 0.1702(11) 0.2154(5) 0.4133(6)
C251? C 0.1754(11) 0.1752(5) 0.4163(7)
H254? H 0.14850 0.16390 0.43470
H255? H 0.20700 0.16820 0.43080
C252? C 0.1730(7) 0.1638(6) 0.3646(7)
H256? H 0.17800 0.13620 0.36270
C253? C 0.2115(9) 0.1826(7) 0.3344(9)
H257? H 0.20820 0.17410 0.30160
H258? H 0.20720 0.20970 0.33570
H259? H 0.24410 0.17600 0.34620
C254? C 0.1214(6) 0.1728(4) 0.3460(6)
H260? H 0.09710 0.16050 0.36590
H261? H 0.11620 0.19980 0.34680
H262? H 0.11820 0.16390 0.31350
O48? O 0.4333(15) 0.2915(6) 0.7948(10)
C255? C 0.435(3) 0.3292(7) 0.7781(13)
H263? H 0.41600 0.33160 0.74860
H264? H 0.46940 0.33630 0.77120
C256? C 0.4143(19) 0.3545(7) 0.8160(13)
H265? H 0.37940 0.34740 0.82100
C257? C 0.442(3) 0.3491(11) 0.8625(13)
H266? H 0.42760 0.36560 0.88650
H267? H 0.43830 0.32320 0.87280
H268? H 0.47610 0.35510 0.85820
C258? C 0.4159(15) 0.3964(6) 0.8041(12)
H269? H 0.40180 0.41070 0.83020
H270? H 0.44990 0.40410 0.79930
H271? H 0.39710 0.40110 0.77520
#END
