
#######################################################################
#
#                 Cambridge Crystallographic Data Centre
#                                CCDC
#
#######################################################################
#
# If this CIF has been generated from an entry in the Cambridge
# Structural Database, then it will include bibliographic, chemical,
# crystal, experimental, refinement or atomic coordinate data resulting
# from the CCDC's data processing and validation procedures.
#
#######################################################################

data_CSD_CIF_DEGLEH
_audit_creation_date 2006-05-05
_audit_creation_method CSD-ConQuest-V1
_database_code_CSD DEGLEH
_database_code_depnum_ccdc_archive 'CCDC 601183'
_chemical_formula_sum 'C14 H18 N4 O2'
_chemical_formula_moiety
;
C14 H18 N4 O2
;
_journal_coeditor_code "IUCr HG6295"
_journal_coden_Cambridge 1370
_journal_volume 62
_journal_year 2006
_journal_page_first o922
_journal_name_full 'Acta Crystallogr.,Sect.E:Struct.Rep.Online '
loop_
_publ_author_name
"M.Akkurt"
"S.O.Yildirim"
"H.Kucukbay"
"N.Sireci"
"H.-K.Fun"
_chemical_name_systematic
;
5-Nitro-1-(2-piperidinoethyl)-1H-benzimidazole
;
_chemical_melting_point 435
_cell_volume    716.611
_exptl_crystal_colour 'colorless'
_exptl_crystal_density_diffrn 1.271
_exptl_special_details
;
Melting point range 435-436K
potential biological and pharmacological activity
;
_exptl_crystal_description 'needle'
_exptl_crystal_preparation 'ethanol'
_diffrn_ambient_temperature 273
#These two values have been output from a single CSD field.
_refine_ls_R_factor_gt 0.0723
_refine_ls_wR_factor_gt 0.0723
_symmetry_cell_setting triclinic
_symmetry_space_group_name_H-M 'P -1'
_symmetry_Int_Tables_number 2
loop_
_symmetry_equiv_pos_site_id
_symmetry_equiv_pos_as_xyz
1 x,y,z
2 -x,-y,-z
_cell_length_a 6.3202(2)
_cell_length_b 10.1321(4)
_cell_length_c 12.4362(5)
_cell_angle_alpha 104.109(3)
_cell_angle_beta 103.953(2)
_cell_angle_gamma 102.546(2)
_cell_formula_units_Z 2
loop_
_atom_type_symbol
_atom_type_radius_bond
C 0.68
H 0.23
N 0.68
O 0.68
loop_
_atom_site_label
_atom_site_type_symbol
_atom_site_fract_x
_atom_site_fract_y
_atom_site_fract_z
O1 O 0.5400(5) 1.4151(3) 0.1259(3)
O2 O 0.2147(6) 1.4509(2) 0.1255(3)
N1 N 0.3450(5) 1.3771(3) 0.1301(2)
N2 N 0.0507(3) 0.83331(18) 0.14889(16)
N3 N 0.3842(3) 0.8900(2) 0.1135(2)
N4 N 0.0840(4) 0.7633(2) 0.36832(18)
C1 C 0.0927(3) 0.9724(2) 0.15094(18)
C2 C -0.0315(4) 1.0688(3) 0.1683(2)
C3 C 0.0553(5) 1.2022(3) 0.1620(2)
C4 C 0.2613(5) 1.2344(2) 0.1375(2)
C5 C 0.3875(4) 1.1413(3) 0.1201(2)
C6 C 0.3008(4) 1.0069(2) 0.1277(2)
C7 C 0.2315(4) 0.7916(3) 0.1272(2)
C8 C -0.1420(4) 0.7480(3) 0.1717(2)
C9 C -0.1170(5) 0.7873(3) 0.2996(3)
C10 C 0.1623(7) 0.8536(4) 0.4889(3)
C11 C 0.3823(11) 0.8374(6) 0.5542(5)
C12 C 0.3623(10) 0.6850(5) 0.5494(4)
C13 C 0.2623(11) 0.5892(6) 0.4252(4)
C14 C 0.0474(7) 0.6150(3) 0.3638(4)
H1 H -0.169(5) 1.041(3) 0.178(2)
H2 H -0.011(4) 1.295(2) 0.1742(18)
H3 H 0.523(5) 1.160(3) 0.101(2)
H4 H 0.236(4) 0.693(3) 0.124(2)
H5 H -0.284(5) 0.767(3) 0.133(2)
H6 H -0.140(4) 0.647(3) 0.138(2)
H7 H -0.254(5) 0.733(3) 0.308(3)
H8 H -0.107(4) 0.886(3) 0.323(2)
H9 H 0.043(6) 0.816(4) 0.532(3)
H10 H 0.196(7) 0.946(5) 0.480(4)
H11 H 0.448(8) 0.907(5) 0.631(4)
H12 H 0.477(9) 0.860(6) 0.510(5)
H13 H 0.497(7) 0.670(4) 0.587(4)
H14 H 0.259(8) 0.656(5) 0.586(4)
H15 H 0.352(8) 0.614(5) 0.386(4)
H16 H 0.224(7) 0.498(5) 0.425(3)
H17 H -0.003(6) 0.558(4) 0.286(3)
H18 H -0.067(8) 0.594(5) 0.405(4)
#END
