
#######################################################################
#
#                 Cambridge Crystallographic Data Centre
#                                CCDC
#
#######################################################################
#
# If this CIF has been generated from an entry in the Cambridge
# Structural Database, then it will include bibliographic, chemical,
# crystal, experimental, refinement or atomic coordinate data resulting
# from the CCDC's data processing and validation procedures.
#
#######################################################################

data_CSD_CIF_DEHPAK
_audit_creation_date 2017-09-27
_audit_creation_method CSD-ConQuest-V1
_database_code_CSD DEHPAK
_database_code_depnum_ccdc_archive 'CCDC 1569190'
_chemical_formula_sum 'C30 H27 N3 O6'
_chemical_formula_moiety
;
C30 H27 N3 O6
;
_journal_coden_Cambridge 177
_journal_volume 15
_journal_year 2017
_journal_page_first 8418
_journal_name_full 'Org.Biomol.Chem. '
loop_
_publ_author_name
"S.Hessam M.Mehr"
"H.Oshima"
"V.Carta"
"B.O.Patrick"
"N.G.White"
"M.J.MacLachlan"
_chemical_name_systematic
;
2,4,6-tris{[(benzyloxy)imino]methyl}benzene-1,3,5-triol
;
_cell_volume   5081.897
_exptl_crystal_colour 'yellow'
_exptl_crystal_density_diffrn 1.374
_exptl_crystal_description 'rod'
_diffrn_ambient_temperature 90
#These two values have been output from a single CSD field.
_refine_ls_R_factor_gt 0.0451
_refine_ls_wR_factor_gt 0.0451
_symmetry_cell_setting tetragonal
_symmetry_space_group_name_H-M 'I -4'
_symmetry_Int_Tables_number 82
loop_
_symmetry_equiv_pos_site_id
_symmetry_equiv_pos_as_xyz
1 x,y,z
2 1/2+x,1/2+y,1/2+z
3 y,-x,-z
4 1/2+y,1/2-x,1/2-z
5 -y,x,-z
6 1/2-y,1/2+x,1/2-z
7 -x,-y,z
8 1/2-x,1/2-y,1/2+z
_cell_length_a 33.094(4)
_cell_length_b 33.094(4)
_cell_length_c 4.6401(7)
_cell_angle_alpha 90
_cell_angle_beta 90
_cell_angle_gamma 90
_cell_formula_units_Z 8
loop_
_atom_type_symbol
_atom_type_radius_bond
C 0.68
H 0.23
N 0.68
O 0.68
loop_
_atom_site_label
_atom_site_type_symbol
_atom_site_fract_x
_atom_site_fract_y
_atom_site_fract_z
C1 C 0.23282(9) 0.50777(9) 0.8047(6)
C2 C 0.26295(9) 0.51120(9) 0.5928(6)
C3 C 0.27731(8) 0.47740(9) 0.4396(6)
C4 C 0.26063(9) 0.43938(9) 0.5044(6)
C5 C 0.23063(9) 0.43456(9) 0.7150(6)
C6 C 0.21715(9) 0.46909(10) 0.8633(6)
O1 O 0.27743(6) 0.54825(6) 0.5407(5)
O2 O 0.27434(6) 0.40766(6) 0.3507(5)
O3 O 0.18803(6) 0.46352(7) 1.0616(5)
C7 C 0.22027(9) 0.54339(10) 0.9632(7)
N1 N 0.19235(8) 0.54105(9) 1.1526(6)
O4 O 0.18674(7) 0.57808(8) 1.2978(5)
C8 C 0.14911(10) 0.57628(13) 1.4541(8)
C9 C 0.11327(10) 0.5788(1) 1.2590(7)
C10 C 0.09014(11) 0.54525(10) 1.1934(10)
C11 C 0.05753(11) 0.54838(12) 1.0083(12)
C12 C 0.04823(11) 0.58475(13) 0.8839(9)
C13 C 0.07042(11) 0.61798(11) 0.9494(9)
C14 C 0.1024(1) 0.61524(9) 1.1333(8)
C15 C 0.30774(9) 0.48100(9) 0.2161(6)
N2 N 0.32331(7) 0.51538(7) 0.1557(5)
O5 O 0.35035(6) 0.51280(6) -0.0740(5)
C16 C 0.36499(9) 0.55279(9) -0.1434(6)
C17 C 0.39419(9) 0.56905(9) 0.0741(6)
C18 C 0.38917(9) 0.60754(9) 0.1918(7)
C19 C 0.4168(1) 0.62297(9) 0.3841(7)
C20 C 0.44974(9) 0.60012(9) 0.4696(7)
C21 C 0.45481(9) 0.56150(9) 0.3534(7)
C22 C 0.42777(9) 0.54634(9) 0.1591(7)
C23 C 0.21319(10) 0.39549(10) 0.7831(7)
N3 N 0.22016(8) 0.36483(8) 0.6210(6)
O6 O 0.20209(7) 0.32937(7) 0.7287(5)
C24 C 0.19693(14) 0.30188(12) 0.4923(9)
C25 C 0.18722(10) 0.26061(10) 0.6074(8)
C26 C 0.20828(11) 0.22737(11) 0.5062(8)
C27 C 0.19910(11) 0.18874(10) 0.6026(8)
C28 C 0.16899(11) 0.18337(11) 0.8003(8)
C29 C 0.14794(10) 0.21626(12) 0.9070(9)
C30 C 0.1568(1) 0.25462(11) 0.8064(8)
H1 H 0.23310 0.56800 0.92770
H2 H 0.14910 0.59950 1.58480
H3 H 0.14840 0.55070 1.57160
H4 H 0.09700 0.52080 1.27690
H5 H 0.04220 0.52630 0.96470
H6 H 0.02680 0.58680 0.75270
H7 H 0.06320 0.64270 0.85690
H8 H 0.11730 0.63830 1.17830
H9 H 0.31550 0.45810 0.11010
H10 H 0.37800 0.55010 -0.32760
H11 H 0.34200 0.57020 -0.16490
H12 H 0.36680 0.62250 0.13370
H13 H 0.41320 0.64900 0.46000
H14 H 0.46810 0.61060 0.60730
H15 H 0.47730 0.54580 0.40720
H16 H 0.43170 0.52090 0.07670
H17 H 0.19670 0.39240 0.94980
H18 H 0.22200 0.30160 0.37500
H19 H 0.17410 0.31240 0.37160
H20 H 0.22910 0.23060 0.36680
H21 H 0.21310 0.16660 0.53120
H22 H 0.16320 0.15720 0.86400
H23 H 0.12860 0.21240 1.05040
H24 H 0.14220 0.27690 0.87640
H25 H 0.2627(10) 0.3868(8) 0.395(9)
H26 H 0.1826(12) 0.4841(9) 1.154(9)
H27 H 0.2925(10) 0.5469(12) 0.400(6)
#END
