
#######################################################################
#
#                 Cambridge Crystallographic Data Centre
#                                CCDC
#
#######################################################################
#
# If this CIF has been generated from an entry in the Cambridge
# Structural Database, then it will include bibliographic, chemical,
# crystal, experimental, refinement or atomic coordinate data resulting
# from the CCDC's data processing and validation procedures.
#
#######################################################################

data_CSD_CIF_DEJKAG
_audit_creation_date 2013-02-01
_audit_creation_method CSD-ConQuest-V1
_database_code_CSD DEJKAG
_database_code_depnum_ccdc_archive 'CCDC 880616'
_chemical_formula_sum 'C28 H38 N2 O2'
_chemical_formula_moiety
;
C28 H38 N2 O2
;
_journal_coden_Cambridge 179
_journal_volume 51
_journal_year 2012
_journal_page_first 8816
_journal_name_full 'Angew.Chem.,Int.Ed. '
loop_
_publ_author_name
"Bing Han"
"Xiu-Long Yang"
"Ran Fang"
"Wei Yu"
"Chao Wang"
"Xiao-Yong Duan"
"Shuai Liu"
_chemical_name_systematic
;
4,4-Dimethyl-5-phenyl-2-(phenyl((2,2,6,6-tetramethylpiperidin-1-yl)oxy)methyl)
-3,4-dihydro-2H-pyrrole-1-oxide
;
_chemical_melting_point 444.15
_cell_volume   2459.591
_exptl_crystal_colour 'colorless'
_exptl_crystal_density_diffrn 1.174
_exptl_special_details
;
Melting point range 444.15-446.15K

;
_exptl_crystal_description 'block'
_diffrn_ambient_temperature 293
#These two values have been output from a single CSD field.
_refine_ls_R_factor_gt 0.052
_refine_ls_wR_factor_gt 0.052
_symmetry_cell_setting monoclinic
_symmetry_space_group_name_H-M 'P 21/c'
_symmetry_Int_Tables_number 14
loop_
_symmetry_equiv_pos_site_id
_symmetry_equiv_pos_as_xyz
1 x,y,z
2 -x,1/2+y,1/2-z
3 -x,-y,-z
4 x,-1/2-y,-1/2+z
_cell_length_a 14.032(6)
_cell_length_b 17.655(7)
_cell_length_c 10.352(4)
_cell_angle_alpha 90
_cell_angle_beta 106.449(4)
_cell_angle_gamma 90
_cell_formula_units_Z 4
loop_
_atom_type_symbol
_atom_type_radius_bond
C 0.68
H 0.23
N 0.68
O 0.68
loop_
_atom_site_label
_atom_site_type_symbol
_atom_site_fract_x
_atom_site_fract_y
_atom_site_fract_z
C1 C 0.21910(19) -0.13918(14) 0.3927(3)
H1 H 0.20950 -0.12690 0.47540
C2 C 0.17549(19) -0.20301(15) 0.3265(3)
H2 H 0.13580 -0.23320 0.36390
C3 C 0.1900(2) -0.22254(16) 0.2060(3)
H3 H 0.15990 -0.26570 0.16100
C4 C 0.2490(2) -0.17844(17) 0.1517(3)
H4 H 0.26000 -0.19220 0.07040
C5 C 0.29203(19) -0.11389(16) 0.2170(3)
H5 H 0.33160 -0.08410 0.17900
C6 C 0.27727(16) -0.09272(13) 0.3381(2)
C7 C 0.31787(16) -0.02204(13) 0.4073(2)
C8 C 0.29704(16) 0.05685(13) 0.3528(2)
C9 C 0.34949(18) 0.10684(14) 0.4759(2)
H6 H 0.39870 0.13910 0.45400
H7 H 0.30130 0.13870 0.50100
C10 C 0.39940(16) 0.05384(12) 0.5915(2)
H8 H 0.47160 0.05950 0.61110
C11 C 0.37162(15) 0.06121(13) 0.7227(2)
H9 H 0.38330 0.01200 0.76820
C12 C 0.43190(15) 0.11912(13) 0.8180(2)
C13 C 0.46141(17) 0.10310(14) 0.9541(2)
H10 H 0.44280 0.05730 0.98410
C14 C 0.51776(18) 0.15330(15) 1.0462(3)
H11 H 0.53690 0.14120 1.13740
C15 C 0.54569(18) 0.22109(16) 1.0037(3)
H12 H 0.58400 0.25500 1.06570
C16 C 0.51680(18) 0.23858(14) 0.8691(3)
H13 H 0.53490 0.28480 0.83990
C17 C 0.46093(17) 0.18791(14) 0.7768(2)
H14 H 0.44250 0.20010 0.68560
C18 C 0.34068(19) 0.07293(15) 0.2361(2)
H15 H 0.41040 0.06140 0.26320
H16 H 0.33140 0.12540 0.21170
H17 H 0.30770 0.04210 0.16030
C19 C 0.18492(17) 0.06996(15) 0.3069(3)
H18 H 0.15450 0.03410 0.23780
H19 H 0.17150 0.12040 0.27210
H20 H 0.15830 0.06360 0.38210
C20 C 0.16696(17) -0.00159(13) 0.7830(2)
C21 C 0.1094(2) 0.00073(16) 0.8880(3)
H21 H 0.06940 -0.04480 0.87950
H22 H 0.15650 0.00050 0.97710
C22 C 0.0427(2) 0.06867(17) 0.8760(3)
H23 H -0.00840 0.06760 0.79040
H24 H 0.01060 0.06820 0.94770
C23 C 0.1048(2) 0.13870(16) 0.8858(3)
H25 H 0.15190 0.14080 0.97470
H26 H 0.06200 0.18270 0.87620
C24 C 0.16177(17) 0.14302(14) 0.7804(3)
C25 C 0.24424(19) -0.06424(14) 0.8235(3)
H27 H 0.27530 -0.07190 0.75300
H28 H 0.21250 -0.11030 0.83830
H29 H 0.29360 -0.05010 0.90490
C26 C 0.09748(19) -0.02109(16) 0.6445(2)
H30 H 0.03860 0.00950 0.62750
H31 H 0.07960 -0.07360 0.64240
H32 H 0.13050 -0.01140 0.57680
C27 C 0.0908(2) 0.15927(17) 0.6403(3)
H33 H 0.12470 0.15070 0.57310
H34 H 0.06910 0.21100 0.63600
H35 H 0.03420 0.12630 0.62420
C28 C 0.2345(2) 0.20850(15) 0.8187(4)
H36 H 0.28590 0.19580 0.89900
H37 H 0.20000 0.25290 0.83460
H38 H 0.26350 0.21810 0.74680
N1 N 0.37096(13) -0.02280(11) 0.53276(19)
N2 N 0.22113(13) 0.07188(10) 0.79203(18)
O1 O 0.26572(10) 0.07423(9) 0.68110(14)
O2 O 0.40138(13) -0.08108(9) 0.60767(17)
#END
