
#######################################################################
#
#                 Cambridge Crystallographic Data Centre
#                                CCDC
#
#######################################################################
#
# If this CIF has been generated from an entry in the Cambridge
# Structural Database, then it will include bibliographic, chemical,
# crystal, experimental, refinement or atomic coordinate data resulting
# from the CCDC's data processing and validation procedures.
#
#######################################################################

data_CSD_CIF_DEJWOG
_audit_creation_date 2013-02-01
_audit_creation_method CSD-ConQuest-V1
_database_code_CSD DEJWOG
_database_code_depnum_ccdc_archive 'CCDC 875113'
_chemical_formula_sum 'C30 H46 N2 O16'
_chemical_formula_moiety
;
C30 H46 N2 O16
;
_journal_coden_Cambridge 1220
_journal_volume 18
_journal_year 2012
_journal_page_first 11976
_journal_name_full 'Chem.-Eur.J. '
loop_
_publ_author_name
"R.Beniazza"
"V.Desvergnes"
"E.Girard"
"B.Kauffmann"
"M.Berlande"
"Y.Landais"
_chemical_name_systematic
;
4-(Acetoxy(t-butoxycarbonyl)amino)-6-((t-butoxycarbonyl)amino)-5-(1,2-diacetox
yethyl)cyclohexane-1,2,3-triyl triacetate
;
_cell_volume   7573.272
_exptl_crystal_colour 'colorless'
_exptl_crystal_density_diffrn 1.21
_diffrn_ambient_temperature 213
#These two values have been output from a single CSD field.
_refine_ls_R_factor_gt 0.1171
_refine_ls_wR_factor_gt 0.1171
_symmetry_cell_setting monoclinic
_symmetry_space_group_name_H-M 'C 2/c'
_symmetry_Int_Tables_number 15
loop_
_symmetry_equiv_pos_site_id
_symmetry_equiv_pos_as_xyz
1 x,y,z
2 -x,y,1/2-z
3 1/2+x,1/2+y,z
4 1/2-x,1/2+y,1/2-z
5 -x,-y,-z
6 x,-y,-1/2+z
7 -1/2-x,-1/2-y,-z
8 -1/2+x,-1/2-y,-1/2+z
_cell_length_a 29.766(7)
_cell_length_b 12.691(3)
_cell_length_c 22.587(5)
_cell_angle_alpha 90
_cell_angle_beta 117.429(14)
_cell_angle_gamma 90
_cell_formula_units_Z 8
loop_
_atom_type_symbol
_atom_type_radius_bond
C 0.68
H 0.23
N 0.68
O 0.68
loop_
_atom_site_label
_atom_site_type_symbol
_atom_site_fract_x
_atom_site_fract_y
_atom_site_fract_z
O1 O 0.22388(14) 0.8714(3) 0.07037(18)
O2 O 0.09776(14) 1.0725(3) -0.00934(19)
O3 O 0.25493(15) 1.2545(3) 0.16453(19)
O4 O 0.12768(14) 1.0414(3) 0.14124(18)
N1 N 0.14703(17) 1.1339(4) 0.1264(2)
N2 N 0.26748(18) 1.1401(4) 0.0626(2)
H1 H 0.24270 1.18200 0.04040
O5 O 0.08073(15) 1.2114(3) 0.1289(2)
O6 O 0.31759(15) 1.2352(4) 0.0329(2)
O7 O 0.12764(16) 1.3004(4) 0.0901(2)
O8 O 0.14814(16) 0.9208(3) -0.0514(2)
C1 C 0.17435(19) 1.1100(4) 0.0880(2)
H2 H 0.17600 1.17500 0.06560
O9 O 0.34950(14) 1.1029(3) 0.1076(2)
C2 C 0.2565(2) 1.1522(4) 0.1937(3)
C3 C 0.3125(2) 1.1637(5) 0.0657(3)
C4 C 0.22930(19) 1.0750(4) 0.1347(2)
H3 H 0.22650 1.00820 0.15450
C5 C 0.2280(2) 0.9679(4) 0.0388(3)
H4 H 0.24570 0.95440 0.01220
C6 C 0.2574(2) 1.0489(4) 0.0939(3)
H5 H 0.29000 1.01740 0.12440
C7 C 0.1177(2) 1.2233(5) 0.1124(3)
C8 C 0.1464(2) 1.0284(5) 0.0346(3)
O10 O 0.32765(17) 1.1632(4) 0.3003(2)
C9 C 0.1745(2) 1.0045(5) -0.0056(3)
O11 O 0.1695(2) 1.0899(4) 0.2485(2)
C10 C 0.2601(3) 0.7984(6) 0.0832(4)
C11 C 0.1431(2) 1.0285(6) 0.2083(3)
O12 O 0.2359(2) 1.3354(4) 0.2393(3)
C12 C 0.2410(3) 1.3379(6) 0.1901(4)
O13 O 0.05841(19) 0.9229(5) -0.0091(3)
C13 C 0.1238(3) 0.9290(6) 0.2200(3)
H6 H 0.10530 0.89280 0.17840
H7 H 0.10180 0.94290 0.23960
H8 H 0.15160 0.88600 0.24970
C14 C 0.3108(2) 1.1174(6) 0.2351(3)
H9 H 0.31290 1.04110 0.23820
H10 H 0.33170 1.14180 0.21520
C15 C 0.3771(3) 1.1701(7) 0.3385(4)
C16 C 0.2503(3) 0.7018(5) 0.1127(4)
H11 H 0.21860 0.70890 0.11390
H12 H 0.27700 0.69240 0.15720
H13 H 0.24890 0.64180 0.08610
C17 C 0.2339(3) 1.4323(5) 0.1462(4)
H14 H 0.24140 1.41320 0.11060
H15 H 0.25620 1.48780 0.17210
H16 H 0.19950 1.45620 0.12790
C18 C 0.0566(3) 1.0108(7) -0.0287(4)
C19 C 0.4016(2) 1.1079(8) 0.1177(4)
O14 O 0.2960(2) 0.8154(5) 0.0739(4)
C20 C 0.1293(3) 0.9366(8) -0.1153(4)
C21 C 0.0524(3) 1.3047(6) 0.1326(3)
C22 C 0.0100(3) 1.0668(7) -0.0749(5)
H17 H 0.01880 1.13250 -0.08790
H18 H -0.01040 1.08010 -0.05300
H19 H -0.00860 1.02420 -0.11370
O15 O 0.4073(2) 1.1494(6) 0.3193(4)
C23 C 0.1039(3) 0.8460(7) -0.1565(4)
H20 H 0.09310 0.86280 -0.20250
H21 H 0.07500 0.82780 -0.15040
H22 H 0.12690 0.78740 -0.14380
C24 C 0.0168(3) 1.2564(7) 0.1552(5)
H23 H 0.03590 1.22690 0.19900
H24 H -0.00260 1.20180 0.12470
H25 H -0.00570 1.30960 0.15650
C25 C 0.4270(3) 1.0231(7) 0.1693(4)
H26 H 0.42560 1.04150 0.20960
H27 H 0.46180 1.01660 0.17840
H28 H 0.41000 0.95720 0.15280
O16 O 0.1370(5) 1.0168(7) -0.1344(3)
C26 C 0.0884(4) 1.3788(8) 0.1835(5)
H29 H 0.10500 1.34380 0.22580
H30 H 0.07010 1.43880 0.18710
H31 H 0.11320 1.40170 0.17030
C27 C 0.4221(3) 1.2178(9) 0.1459(8)
H32 H 0.42110 1.22730 0.18750
H33 H 0.40160 1.27070 0.11480
H34 H 0.45640 1.22410 0.15320
C28 C 0.0251(4) 1.3543(8) 0.0660(5)
H35 H 0.04890 1.38930 0.05500
H36 H 0.00130 1.40470 0.06650
H37 H 0.00750 1.30110 0.03320
C29 C 0.3891(3) 1.2094(9) 0.4070(4)
H38 H 0.35830 1.21900 0.41000
H39 H 0.40680 1.27540 0.41500
H40 H 0.41010 1.15890 0.43970
C30 C 0.4022(4) 1.0827(12) 0.0555(5)
H41 H 0.38610 1.13840 0.02390
H42 H 0.38430 1.01790 0.03810
H43 H 0.43660 1.07530 0.06320
H44 H 0.1371(13) 0.963(3) 0.0504(17)
H45 H 0.168(2) 1.068(4) -0.039(3)
#END
