
#######################################################################
#
#                 Cambridge Crystallographic Data Centre
#                                CCDC
#
#######################################################################
#
# If this CIF has been generated from an entry in the Cambridge
# Structural Database, then it will include bibliographic, chemical,
# crystal, experimental, refinement or atomic coordinate data resulting
# from the CCDC's data processing and validation procedures.
#
#######################################################################

data_CSD_CIF_DEKBOK
_audit_creation_date 2000-02-23
_audit_creation_method CSD-ConQuest-V1
_database_code_CSD DEKBOK
_database_code_depnum_ccdc_archive 'CCDC 1138444'
_database_code_depnum_ccdc_journal 188/155
_chemical_formula_sum 'C12 H17 N1 O2'
_chemical_formula_moiety
;
C12 H17 N1 O2
;
_journal_coden_Cambridge 188
_journal_year 1999
_journal_page_first 877
_journal_name_full 'J.Chem.Soc.,Perkin Trans.2 '
loop_
_publ_author_name
"S.M.A.Hashmi"
"M.I.M.Wazeer"
"M.S.Hussain"
"J.H.Reibenspies"
"H.P.Perzanowski"
"S.A.Ali"
_chemical_name_systematic
;
3-Hydroxy-4,4-dimethyl-6-phenyl-1,3-oxazinane
;
_cell_volume   1113.443
_exptl_crystal_density_diffrn 1.236
_diffrn_ambient_temperature ?
_diffrn_special_details
;
The study was carried out at room temperature,in the range 283-303K

;
#These two values have been output from a single CSD field.
_refine_ls_R_factor_gt 0.0515
_refine_ls_wR_factor_gt 0.0515
_symmetry_cell_setting monoclinic
_symmetry_space_group_name_H-M 'P 21/c'
_symmetry_Int_Tables_number 14
loop_
_symmetry_equiv_pos_site_id
_symmetry_equiv_pos_as_xyz
1 x,y,z
2 -x,1/2+y,1/2-z
3 -x,-y,-z
4 x,-1/2-y,-1/2+z
_cell_length_a 6.9582(14)
_cell_length_b 12.532(3)
_cell_length_c 12.885(3)
_cell_angle_alpha 90
_cell_angle_beta 97.70(3)
_cell_angle_gamma 90
_cell_formula_units_Z 4
loop_
_atom_type_symbol
_atom_type_radius_bond
C 0.68
H 0.23
N 0.68
O 0.68
loop_
_atom_site_label
_atom_site_type_symbol
_atom_site_fract_x
_atom_site_fract_y
_atom_site_fract_z
O1 O 0.6420(2) 0.0698(1) 0.2742(1)
O2 O 0.9895(2) 0.0883(1) 0.4082(1)
N1 N 0.9051(2) -0.0174(1) 0.3830(1)
C1 C 0.9866(3) -0.0583(2) 0.2887(2)
C2 C 0.9141(3) 0.0119(2) 0.1927(2)
C3 C 0.6980(3) 0.0293(2) 0.1780(2)
C4 C 0.6986(3) 0.0000(2) 0.3596(2)
C5 C 0.9241(4) -0.1749(2) 0.2733(2)
C6 C 1.2057(3) -0.0555(2) 0.3119(2)
C7 C 0.6196(3) 0.1082(2) 0.0925(2)
C8 C 0.4304(3) 0.1427(2) 0.0873(2)
C9 C 0.3531(4) 0.2148(2) 0.0108(2)
C10 C 0.4629(4) 0.2538(2) -0.0611(2)
C11 C 0.6493(4) 0.2199(2) -0.0576(2)
C12 C 0.7275(4) 0.1468(2) 0.0183(2)
H1 H 0.94710 0.11230 0.45990
H2 H 0.97850 0.08060 0.20060
H3 H 0.95020 -0.02160 0.13030
H4 H 0.63400 -0.03960 0.16260
H5 H 0.63570 -0.06840 0.34460
H6 H 0.65180 0.02880 0.42150
H7 H 0.97170 -0.21510 0.33480
H8 H 0.97620 -0.20390 0.21400
H9 H 0.78510 -0.17890 0.26140
H10 H 1.24830 0.01710 0.32180
H11 H 1.26060 -0.08610 0.25420
H12 H 1.24700 -0.09570 0.37430
H13 H 0.35330 0.11740 0.13560
H14 H 0.22490 0.23680 0.00850
H15 H 0.41090 0.30260 -0.11150
H16 H 0.72530 0.24570 -0.10620
H17 H 0.85470 0.12370 0.01880
#END
