
#######################################################################
#
#                 Cambridge Crystallographic Data Centre
#                                CCDC
#
#######################################################################
#
# If this CIF has been generated from an entry in the Cambridge
# Structural Database, then it will include bibliographic, chemical,
# crystal, experimental, refinement or atomic coordinate data resulting
# from the CCDC's data processing and validation procedures.
#
#######################################################################

data_CSD_CIF_DEKPUH
_audit_creation_date 2017-09-28
_audit_creation_method CSD-ConQuest-V1
_database_code_CSD DEKPUH
_database_code_depnum_ccdc_archive 'CCDC 1549797'
_chemical_formula_sum 'C14 H19 N1 O5'
_chemical_formula_moiety
;
C14 H19 N1 O5
;
_journal_coden_Cambridge 4
_journal_volume 139
_journal_year 2017
_journal_page_first 12422
_journal_name_full 'J.Am.Chem.Soc. '
loop_
_publ_author_name
"S.N.Good"
"R.J.Sharpe"
"J.S.Johnson"
_chemical_name_systematic
;
t-butyl 
1,4-dimethyl-3-oxo-6H-spiro[5-oxa-6-azabicyclo[2.2.2]oct-7-ene-2,2'-oxirane]-6
-carboxylate
;
_cell_volume   1437.828
_exptl_crystal_colour 'colorless'
_exptl_crystal_density_diffrn 1.299
_exptl_crystal_description 'plate'
_diffrn_ambient_temperature 100
_refine_special_details
;
The structure is disordered.

;
#These two values have been output from a single CSD field.
_refine_ls_R_factor_gt 0.0486
_refine_ls_wR_factor_gt 0.0486
_symmetry_cell_setting triclinic
_symmetry_space_group_name_H-M 'P -1'
_symmetry_Int_Tables_number 2
loop_
_symmetry_equiv_pos_site_id
_symmetry_equiv_pos_as_xyz
1 x,y,z
2 -x,-y,-z
_cell_length_a 11.2220(5)
_cell_length_b 11.5293(6)
_cell_length_c 13.0311(7)
_cell_angle_alpha 75.367(3)
_cell_angle_beta 64.510(2)
_cell_angle_gamma 72.713(2)
_cell_formula_units_Z 4
loop_
_atom_type_symbol
_atom_type_radius_bond
C 0.68
H 0.23
N 0.68
O 0.68
loop_
_atom_site_label
_atom_site_type_symbol
_atom_site_fract_x
_atom_site_fract_y
_atom_site_fract_z
C1 C -0.1770(4) 0.7424(4) 0.6649(4)
C2 C -0.3026(3) 0.7383(4) 0.7705(3)
H1 H -0.28940 0.66140 0.82160
H2 H -0.37790 0.74300 0.74940
H3 H -0.32300 0.80790 0.81010
C3 C -0.1446(4) 0.6415(3) 0.5920(4)
H4 H -0.13460 0.56060 0.63840
H5 H -0.06020 0.64670 0.52480
H6 H -0.21840 0.65350 0.56650
C4 C -0.1768(11) 0.8648(7) 0.5889(8)
H7 H -0.19280 0.92880 0.63340
H8 H -0.24840 0.88310 0.55950
H9 H -0.08900 0.86210 0.52440
C5 C -0.0434(3) 0.7798(3) 0.7556(2)
C6 C 0.2789(5) 0.6745(5) 0.6173(5)
C7 C 0.3703(4) 0.6692(3) 0.6775(3)
C8 C 0.2855(3) 0.7337(3) 0.7822(3)
C9 C 0.3010(3) 0.6776(2) 0.8906(2)
H10 H 0.22050 0.69050 0.96260
H11 H 0.36400 0.59690 0.89270
C10 C 0.1530(4) 0.8173(3) 0.7735(4)
C11 C 0.1868(7) 0.8823(5) 0.6504(6)
H12 H 0.16770 0.96920 0.63170
C12 C 0.2453(6) 0.8076(5) 0.5713(5)
H13 H 0.26430 0.83630 0.49200
C13 C 0.0790(5) 0.8992(4) 0.8665(5)
H14 H 0.00470 0.95990 0.85030
H15 H 0.14180 0.94150 0.86830
H16 H 0.04260 0.84910 0.94110
C14 C 0.3305(5) 0.5841(4) 0.5333(4)
H17 H 0.34950 0.50050 0.57260
H18 H 0.41350 0.60200 0.46980
H19 H 0.26180 0.59140 0.50310
N1 N 0.0731(3) 0.7273(3) 0.7833(3)
O1 O -0.0575(3) 0.7091(2) 0.6968(2)
O2 O 0.1616(3) 0.6337(2) 0.7154(3)
O3 O 0.3573(3) 0.7821(3) 0.8226(3)
O4 O 0.4888(2) 0.6219(3) 0.6494(2)
O5 O -0.12010(18) 0.87170(18) 0.79044(15)
C15 C 0.3014(7) 0.7525(6) 0.2037(5)
C16 C 0.2903(4) 0.6267(3) 0.1964(4)
H20 H 0.36670 0.59460 0.12970
H21 H 0.20550 0.63390 0.18830
H22 H 0.29170 0.57070 0.26650
C17 C 0.3168(15) 0.8395(9) 0.0901(10)
H23 H 0.32830 0.91810 0.09630
H24 H 0.23580 0.85300 0.07380
H25 H 0.39610 0.80280 0.02760
C18 C 0.1787(4) 0.8095(4) 0.3017(4)
H26 H 0.16900 0.75330 0.37380
H27 H 0.09720 0.82420 0.28580
H28 H 0.19110 0.88750 0.30840
C19 C 0.5389(3) 0.6875(2) 0.1716(2)
C20 C 0.6355(7) 0.8611(5) 0.2785(7)
C21 C 0.7754(3) 0.8041(3) 0.2808(3)
C22 C 0.8463(6) 0.7069(5) 0.2042(5)
C23 C 0.9440(3) 0.6010(3) 0.2328(3)
H29 H 0.95470 0.59420 0.30580
H30 H 0.95510 0.52190 0.20950
C24 C 0.7666(10) 0.7058(8) 0.1328(7)
C25 C 0.7293(11) 0.8392(7) 0.0794(9)
H31 H 0.75460 0.86510 -0.00100
C26 C 0.6578(9) 0.9150(7) 0.1576(8)
H32 H 0.62280 0.99920 0.13680
C27 C 0.8460(8) 0.6143(7) 0.0474(6)
H33 H 0.84780 0.53050 0.08900
H34 H 0.93870 0.62650 0.00520
H35 H 0.80250 0.62700 -0.00680
C28 C 0.5437(6) 0.9405(5) 0.3692(6)
H36 H 0.45570 0.97180 0.36240
H37 H 0.58350 1.00950 0.35940
H38 H 0.53170 0.89220 0.44520
N2 N 0.6347(7) 0.6758(5) 0.2199(7)
O6 O 0.4150(5) 0.7411(4) 0.2374(3)
O7 O 0.5830(5) 0.7463(5) 0.3117(4)
O8 O 0.9885(2) 0.7009(2) 0.1429(2)
O9 O 0.8244(5) 0.8320(3) 0.3354(4)
O10 O 0.5699(2) 0.64616(19) 0.08540(18)
C29? C 0.3135(16) 0.7407(16) 0.1756(12)
C30? C 0.1912(11) 0.7477(12) 0.2819(10)
H39? H 0.20260 0.67510 0.33810
H40? H 0.11310 0.75100 0.26490
H41? H 0.17630 0.82180 0.31340
C31? C 0.3457(11) 0.6328(10) 0.1107(13)
H42? H 0.36130 0.55480 0.15970
H43? H 0.42690 0.63770 0.04020
H44? H 0.26930 0.63750 0.09090
C32? C 0.327(3) 0.854(2) 0.093(2)
H45? H 0.32630 0.91890 0.12910
H46? H 0.25090 0.87950 0.06760
H47? H 0.41190 0.83910 0.02600
C33? C 0.4540(6) 0.7818(6) 0.2592(5)
C34? C 0.7785(17) 0.6812(15) 0.1165(14)
C35? C 0.8265(14) 0.5921(13) 0.0353(12)
H48? H 0.84220 0.50850 0.07570
H49? H 0.91110 0.60720 -0.02770
H50? H 0.75810 0.60170 0.00420
C36? C 0.8663(13) 0.6766(11) 0.1789(11)
C37? C 0.7844(7) 0.7393(8) 0.2828(6)
C38? C 0.8004(6) 0.6809(6) 0.3899(5)
H51? H 0.72020 0.69240 0.46240
H52? H 0.86400 0.60030 0.39050
C39? C 0.6487(14) 0.8224(10) 0.2784(12)
C40? C 0.5771(12) 0.9008(10) 0.3699(13)
H53? H 0.50240 0.96180 0.35450
H54? H 0.64000 0.94280 0.37200
H55? H 0.54120 0.84990 0.44420
C41? C 0.6818(18) 0.8857(14) 0.1521(17)
H56? H 0.65990 0.97220 0.13160
C42? C 0.741(2) 0.8108(14) 0.0776(18)
H57? H 0.76080 0.84020 -0.00160
N3? N 0.5732(11) 0.729(1) 0.2868(9)
O11? O 0.4372(10) 0.7095(8) 0.2062(7)
O12? O 0.3792(4) 0.8749(4) 0.2910(4)
O13? O 0.6602(10) 0.6383(7) 0.2165(10)
O14? O 0.9888(5) 0.6323(7) 0.1461(6)
O15? O 0.8552(9) 0.7858(7) 0.3238(9)
C43? C -0.2068(11) 0.7637(10) 0.7129(8)
C44? C -0.2180(8) 0.6384(7) 0.7012(8)
H58? H -0.13160 0.59840 0.64710
H59? H -0.28920 0.65010 0.67270
H60? H -0.24040 0.58670 0.77640
C45? C -0.180(4) 0.837(2) 0.592(3)
H61? H -0.16590 0.91740 0.58980
H62? H -0.25860 0.84840 0.57200
H63? H -0.09990 0.79210 0.53580
C46? C -0.3240(7) 0.8229(8) 0.8046(6)
H64? H -0.34100 0.76610 0.87680
H65? H -0.40350 0.84530 0.78460
H66? H -0.30570 0.89700 0.81350
C47? C 0.0356(10) 0.6875(8) 0.6774(7)
C48? C 0.1363(15) 0.8609(11) 0.7843(14)
C49? C 0.0482(18) 0.9404(14) 0.8701(18)
H67? H -0.03930 0.97230 0.86260
H68? H 0.08940 1.00900 0.85900
H69? H 0.03500 0.89370 0.94690
C50? C 0.2787(8) 0.8014(10) 0.7799(7)
C51? C 0.3433(12) 0.7054(10) 0.7086(12)
C52? C 0.4428(9) 0.6000(8) 0.7329(10)
H70? H 0.45710 0.59230 0.80440
H71? H 0.45130 0.52120 0.71040
C53? C 0.264(2) 0.7069(16) 0.6333(18)
C54? C 0.3372(17) 0.6165(13) 0.5529(13)
H72? H 0.28850 0.62490 0.50360
H73? H 0.34360 0.53350 0.59620
H74? H 0.42830 0.63090 0.50530
C55? C 0.224(2) 0.8377(16) 0.5887(19)
H75? H 0.24570 0.86490 0.50880
C56? C 0.158(2) 0.9125(18) 0.6623(19)
H76? H 0.12470 0.99680 0.64020
N4? N 0.1325(14) 0.6771(11) 0.7262(13)
O16? O -0.0868(8) 0.7443(7) 0.7436(6)
O17? O 0.0653(6) 0.6428(6) 0.5936(6)
O18? O 0.0840(9) 0.7471(9) 0.8161(8)
O19? O 0.3300(12) 0.8316(8) 0.8321(11)
O20? O 0.4874(6) 0.6976(7) 0.6430(6)
#END
