
#######################################################################
#
#                 Cambridge Crystallographic Data Centre
#                                CCDC
#
#######################################################################
#
# If this CIF has been generated from an entry in the Cambridge
# Structural Database, then it will include bibliographic, chemical,
# crystal, experimental, refinement or atomic coordinate data resulting
# from the CCDC's data processing and validation procedures.
#
#######################################################################

data_CSD_CIF_DEKYUO
_audit_creation_date 2006-09-26
_audit_creation_method CSD-ConQuest-V1
_database_code_CSD DEKYUO
_database_code_depnum_ccdc_archive 'CCDC 194929'
_chemical_formula_sum 'C8 H6 N2 O6'
_chemical_formula_moiety
;
C8 H6 N2 O6
;
_journal_coden_Cambridge 119
_journal_volume 789
_journal_year 2006
_journal_page_first 81
_journal_name_full 'J.Mol.Struct. '
loop_
_publ_author_name
"M.West-Nielsen"
"P.M.Dominiak"
"K.Wozniak"
"P.E.Hansen"
_chemical_name_systematic
;
2-Hydroxy-3,5-dinitroacetophenone
;
_cell_volume   1857.792
_exptl_crystal_density_diffrn 1.617
_diffrn_ambient_temperature 293
#These two values have been output from a single CSD field.
_refine_ls_R_factor_gt 0.0695
_refine_ls_wR_factor_gt 0.0695
_symmetry_cell_setting orthorhombic
_symmetry_space_group_name_H-M 'P b c a'
_symmetry_Int_Tables_number 61
loop_
_symmetry_equiv_pos_site_id
_symmetry_equiv_pos_as_xyz
1 x,y,z
2 1/2-x,-y,1/2+z
3 -x,1/2+y,1/2-z
4 1/2+x,1/2-y,-z
5 -x,-y,-z
6 -1/2+x,y,-1/2-z
7 x,-1/2-y,-1/2+z
8 -1/2-x,-1/2+y,z
_cell_length_a 9.785(2)
_cell_length_b 12.858(3)
_cell_length_c 14.766(3)
_cell_angle_alpha 90
_cell_angle_beta 90
_cell_angle_gamma 90
_cell_formula_units_Z 8
loop_
_atom_type_symbol
_atom_type_radius_bond
C 0.68
H 0.23
N 0.68
O 0.68
loop_
_atom_site_label
_atom_site_type_symbol
_atom_site_fract_x
_atom_site_fract_y
_atom_site_fract_z
O1 O 0.3264(3) 0.9750(3) 0.5039(2)
O2 O 0.2287(3) 1.0979(2) 0.3850(2)
O3 O 0.1073(3) 1.1743(3) 0.2334(3)
O4 O 0.2747(3) 1.2286(3) 0.1522(2)
O5 O 0.6223(3) 0.8243(3) 0.1516(2)
O6 O 0.5050(4) 0.9016(3) 0.0472(2)
N1 N 0.2235(4) 1.1667(3) 0.2052(3)
N2 N 0.5338(4) 0.8852(3) 0.1270(3)
C1 C 0.3869(4) 0.9604(3) 0.3505(3)
C2 C 0.3054(4) 1.0462(3) 0.3251(3)
C3 C 0.3057(4) 1.0775(3) 0.2340(3)
C4 C 0.3820(4) 1.0274(3) 0.1696(3)
C5 C 0.4574(4) 0.9430(3) 0.1964(3)
C6 C 0.4623(4) 0.9088(3) 0.2843(3)
C7 C 0.3859(4) 0.9231(4) 0.4451(3)
C8 C 0.4550(7) 0.8247(5) 0.4700(4)
H1 H 0.382(3) 1.053(3) 0.111(3)
H2 H 0.523(3) 0.857(2) 0.2994(19)
H3 H 0.454(5) 0.819(5) 0.532(4)
H4 H 0.405(4) 0.763(4) 0.444(3)
H5 H 0.555(6) 0.822(5) 0.445(5)
H6 H 0.256(5) 1.069(4) 0.442(4)
#END
