
#######################################################################
#
#                 Cambridge Crystallographic Data Centre
#                                CCDC
#
#######################################################################
#
# If this CIF has been generated from an entry in the Cambridge
# Structural Database, then it will include bibliographic, chemical,
# crystal, experimental, refinement or atomic coordinate data resulting
# from the CCDC's data processing and validation procedures.
#
#######################################################################

data_CSD_CIF_DEKZEZ
_audit_creation_date 2006-09-26
_audit_creation_method CSD-ConQuest-V1
_database_code_CSD DEKZEZ
_database_code_depnum_ccdc_archive 'CCDC 194931'
_chemical_formula_sum 'C8 H6 N2 O7'
_chemical_formula_moiety
;
C8 H6 N2 O7
;
_journal_coden_Cambridge 119
_journal_volume 789
_journal_year 2006
_journal_page_first 81
_journal_name_full 'J.Mol.Struct. '
loop_
_publ_author_name
"M.West-Nielsen"
"P.M.Dominiak"
"K.Wozniak"
"P.E.Hansen"
_chemical_name_systematic
;
2,6-Dihydroxy-3,5-dinitroacetophenone
;
_cell_volume    948.049
_exptl_crystal_density_diffrn 1.697
_diffrn_ambient_temperature 293
#These two values have been output from a single CSD field.
_refine_ls_R_factor_gt 0.0485
_refine_ls_wR_factor_gt 0.0485
_symmetry_cell_setting monoclinic
_symmetry_space_group_name_H-M 'P 21/c'
_symmetry_Int_Tables_number 14
loop_
_symmetry_equiv_pos_site_id
_symmetry_equiv_pos_as_xyz
1 x,y,z
2 -x,1/2+y,1/2-z
3 -x,-y,-z
4 x,-1/2-y,-1/2+z
_cell_length_a 8.9500(18)
_cell_length_b 16.240(3)
_cell_length_c 6.5600(13)
_cell_angle_alpha 90
_cell_angle_beta 96.12(3)
_cell_angle_gamma 90
_cell_formula_units_Z 4
loop_
_atom_type_symbol
_atom_type_radius_bond
C 0.68
H 0.23
N 0.68
O 0.68
loop_
_atom_site_label
_atom_site_type_symbol
_atom_site_fract_x
_atom_site_fract_y
_atom_site_fract_z
O1 O 0.4061(3) -0.08752(17) 0.2483(5)
O2 O 0.1114(3) 0.1024(2) 0.2913(5)
O3 O 0.0817(3) 0.25867(18) 0.3346(5)
O4 O 0.2590(3) 0.34117(18) 0.2649(5)
O5 O 0.7337(3) 0.23584(19) 0.1044(5)
O6 O 0.8105(3) 0.13137(19) 0.2902(5)
O7 O 0.6082(3) 0.0127(2) 0.2267(5)
N1 N 0.2108(4) 0.2713(2) 0.2885(5)
N2 N 0.7107(4) 0.1749(2) 0.2056(6)
C1 C 0.3544(4) 0.0538(2) 0.2560(6)
C2 C 0.2546(4) 0.1197(3) 0.2724(6)
C3 C 0.3089(5) 0.2013(2) 0.2667(6)
C4 C 0.4581(5) 0.2179(3) 0.2415(6)
C5 C 0.5542(4) 0.1539(2) 0.2300(6)
C6 C 0.5078(4) 0.0720(2) 0.2394(6)
C7 C 0.3081(5) -0.0332(3) 0.2485(6)
C8 C 0.1466(6) -0.0607(4) 0.2369(12)
H1 H 0.489(4) 0.274(2) 0.237(5)
H2 H 0.108(5) -0.043(3) 0.387(8)
H3 H 0.147(5) -0.118(3) 0.234(7)
H4 H 0.100(6) -0.030(3) 0.124(9)
H5 H 0.063(6) 0.151(3) 0.302(8)
H6 H 0.562(5) -0.037(3) 0.230(7)
#END
