
#######################################################################
#
#                 Cambridge Crystallographic Data Centre
#                                CCDC
#
#######################################################################
#
# If this CIF has been generated from an entry in the Cambridge
# Structural Database, then it will include bibliographic, chemical,
# crystal, experimental, refinement or atomic coordinate data resulting
# from the CCDC's data processing and validation procedures.
#
#######################################################################

data_CSD_CIF_DELQIV
_audit_creation_date 2006-09-26
_audit_creation_method CSD-ConQuest-V1
_database_code_CSD DELQIV
_database_code_depnum_ccdc_archive 'CCDC 618196'
_chemical_formula_sum 'C14 H12 N2 O6'
_chemical_formula_moiety
;
C14 H12 N2 O6
;
_journal_coeditor_code "IUCr FB2009"
_journal_coden_Cambridge 1370
_journal_volume 62
_journal_year 2006
_journal_page_first o3440
_journal_name_full 'Acta Crystallogr.,Sect.E:Struct.Rep.Online '
loop_
_publ_author_name
"M.S.Butt"
"M.K.Rauf"
"M.Bolte"
"Z.Akhter"
"M.Zafar-uz-Zaman"
_chemical_name_systematic
;
1,2-bis(p-Nitrophenoxy)ethane
;
_chemical_melting_point 432
_cell_volume    686.848
_exptl_crystal_colour 'light yellow'
_exptl_crystal_density_diffrn 1.471
_exptl_crystal_description 'block'
_exptl_crystal_preparation 'ethanol'
_diffrn_ambient_temperature 173
#These two values have been output from a single CSD field.
_refine_ls_R_factor_gt 0.0361
_refine_ls_wR_factor_gt 0.0361
_symmetry_cell_setting monoclinic
_symmetry_space_group_name_H-M 'P 21/n'
_symmetry_Int_Tables_number 14
loop_
_symmetry_equiv_pos_site_id
_symmetry_equiv_pos_as_xyz
1 x,y,z
2 1/2-x,1/2+y,1/2-z
3 -x,-y,-z
4 -1/2+x,-1/2-y,-1/2+z
_cell_length_a 9.1465(12)
_cell_length_b 7.3137(7)
_cell_length_c 10.2852(13)
_cell_angle_alpha 90
_cell_angle_beta 93.353(10)
_cell_angle_gamma 90
_cell_formula_units_Z 2
loop_
_atom_type_symbol
_atom_type_radius_bond
C 0.68
H 0.23
N 0.68
O 0.68
loop_
_atom_site_label
_atom_site_type_symbol
_atom_site_fract_x
_atom_site_fract_y
_atom_site_fract_z
N1 N 0.32402(10) 0.57146(14) 0.80918(9)
O1 O 0.82156(8) 0.59629(11) 0.51718(7)
O2 O 0.21184(9) 0.64765(14) 0.76280(9)
O3 O 0.32999(9) 0.48898(12) 0.91408(8)
C1 C 0.70374(11) 0.58452(14) 0.59315(10)
C2 C 0.58574(11) 0.70123(14) 0.55763(10)
H1 H 0.59160 0.78240 0.48600
C3 C 0.46058(11) 0.69710(15) 0.62798(10)
H2 H 0.37920 0.77320 0.60410
C4 C 0.45655(11) 0.57869(15) 0.73473(10)
C5 C 0.57319(12) 0.46538(16) 0.77235(11)
H3 H 0.56830 0.38790 0.84610
C6 C 0.69805(11) 0.46696(16) 0.70017(11)
H4 H 0.77840 0.38890 0.72350
C7 C 0.94301(11) 0.47511(15) 0.54757(11)
H5 H 0.91250 0.34590 0.53630
H6 H 0.98210 0.49330 0.63850
N1B N 1.67598(10) 0.42854(14) 0.19082(9)
O1B O 1.17844(8) 0.40371(11) 0.48282(7)
O2B O 1.78816(9) 0.35235(14) 0.23720(9)
O3B O 1.67001(9) 0.51102(12) 0.08592(8)
C1B C 1.29626(11) 0.41548(14) 0.40685(10)
C2B C 1.41426(11) 0.29877(14) 0.44237(10)
H1B H 1.40840 0.21760 0.51400
C3B C 1.53942(11) 0.30290(15) 0.37202(10)
H2B H 1.62080 0.22680 0.39590
C4B C 1.54345(11) 0.42131(15) 0.26527(10)
C5B C 1.42681(12) 0.53462(16) 0.22765(11)
H3B H 1.43170 0.61210 0.15390
C6B C 1.30195(11) 0.53304(16) 0.29983(11)
H4B H 1.22160 0.61110 0.27650
C7B C 1.05699(11) 0.52489(15) 0.45243(11)
H5B H 1.08750 0.65410 0.46370
H6B H 1.01790 0.50670 0.36150
#END
