
#######################################################################
#
#                 Cambridge Crystallographic Data Centre
#                                CCDC
#
#######################################################################
#
# If this CIF has been generated from an entry in the Cambridge
# Structural Database, then it will include bibliographic, chemical,
# crystal, experimental, refinement or atomic coordinate data resulting
# from the CCDC's data processing and validation procedures.
#
#######################################################################

data_CSD_CIF_DELWUN
_audit_creation_date 2006-09-26
_audit_creation_method CSD-ConQuest-V1
_database_code_CSD DELWUN
_database_code_depnum_ccdc_archive 'CCDC 618223'
_chemical_formula_sum 'C22 H24 N1 O3'
_chemical_formula_moiety
;
C22 H24 N1 O3
;
_journal_coeditor_code "IUCr HG2069"
_journal_coden_Cambridge 1370
_journal_volume 62
_journal_year 2006
_journal_page_first o3535
_journal_name_full 'Acta Crystallogr.,Sect.E:Struct.Rep.Online '
loop_
_publ_author_name
"D.J.Keddie"
"S.E.Bottle"
"J.K.Clegg"
"J.C.McMurtrie"
_chemical_name_systematic
;
5-((E)-2-(4-Methoxycarbonylphenyl)ethenyl)-1,1,3,3-tetramethylisoindolin-2-ylo
xyl
;
_cell_volume   3810.452
_exptl_crystal_colour 'orange'
_exptl_crystal_density_diffrn 1.222
_exptl_crystal_description 'prism'
_exptl_crystal_preparation 'hexane/ethyl acetate'
_diffrn_ambient_temperature 150
#These two values have been output from a single CSD field.
_refine_ls_R_factor_gt 0.0423
_refine_ls_wR_factor_gt 0.0423
_symmetry_cell_setting monoclinic
_symmetry_space_group_name_H-M 'P 21/c'
_symmetry_Int_Tables_number 14
loop_
_symmetry_equiv_pos_site_id
_symmetry_equiv_pos_as_xyz
1 x,y,z
2 -x,1/2+y,1/2-z
3 -x,-y,-z
4 x,-1/2-y,-1/2+z
_cell_length_a 11.6300(19)
_cell_length_b 13.432(2)
_cell_length_c 24.407(4)
_cell_angle_alpha 90
_cell_angle_beta 91.976(3)
_cell_angle_gamma 90
_cell_formula_units_Z 8
loop_
_atom_type_symbol
_atom_type_radius_bond
C 0.68
H 0.23
N 0.68
O 0.68
loop_
_atom_site_label
_atom_site_type_symbol
_atom_site_fract_x
_atom_site_fract_y
_atom_site_fract_z
C1 C 0.74238(13) 0.12505(10) 0.01326(6)
H1 H 0.70860 0.07980 0.03980
H2 H 0.82640 0.11930 0.01570
H3 H 0.71460 0.10740 -0.02380
C2 C 0.60044(11) 0.24054(9) 0.04040(5)
C3 C 0.57677(10) 0.34646(8) 0.05318(5)
C4 C 0.65291(10) 0.42168(9) 0.03975(5)
H4 H 0.72210 0.40580 0.02210
C5 C 0.62778(11) 0.51969(9) 0.05206(5)
H5 H 0.67970 0.57070 0.04220
C6 C 0.52751(10) 0.54518(9) 0.07876(5)
C7 C 0.45158(10) 0.46872(9) 0.09206(5)
H6 H 0.38290 0.48420 0.11030
C8 C 0.47530(11) 0.37104(9) 0.07902(5)
H7 H 0.42220 0.32010 0.08770
C9 C 0.50773(11) 0.64986(9) 0.09150(5)
H8 H 0.55300 0.69700 0.07280
C10 C 0.43308(11) 0.68659(9) 0.12646(5)
H9 H 0.38710 0.64040 0.14550
C11 C 0.41639(10) 0.79283(9) 0.13784(5)
C12 C 0.45656(11) 0.86724(9) 0.10279(5)
H10 H 0.49610 0.84840 0.07100
C13 C 0.43990(11) 0.96711(9) 0.11353(5)
H11 H 0.46710 1.01660 0.08940
C14 C 0.38257(10) 0.99384(8) 0.16044(5)
C15 C 0.3433(1) 0.92137(9) 0.19593(5)
C16 C 0.35867(10) 0.82133(9) 0.18466(5)
H12 H 0.33010 0.77220 0.20870
C17 C 0.35312(10) 1.09736(9) 0.17893(5)
C18 C 0.28657(10) 0.96697(9) 0.24446(5)
C19 C 0.45937(11) 1.15927(10) 0.19520(6)
H13 H 0.43520 1.22170 0.21210
H14 H 0.50290 1.17400 0.16250
H15 H 0.50810 1.12170 0.22140
C20 C 0.27628(12) 1.15185(10) 0.13674(6)
H16 H 0.20770 1.11160 0.12810
H17 H 0.31880 1.16280 0.10330
H18 H 0.25300 1.21620 0.15170
C21 C 0.35830(12) 0.95505(11) 0.29766(5)
H19 H 0.43630 0.98010 0.29240
H20 H 0.36190 0.88450 0.30780
H21 H 0.32270 0.99290 0.32690
C22 C 0.16318(10) 0.93211(10) 0.25168(5)
H22 H 0.12700 0.97350 0.27930
H23 H 0.16350 0.86250 0.26370
H24 H 0.11980 0.93790 0.21670
N1 N 0.28650(9) 1.07339(7) 0.22797(4)
O1 O 0.70928(8) 0.22629(6) 0.02532(4)
O2 O 0.53100(8) 0.17422(6) 0.04366(4)
O3 O 0.24384(8) 1.14092(7) 0.25790(4)
C23 C 0.24493(13) 0.16217(11) -0.01483(7)
H25 H 0.21410 0.10690 0.00640
H26 H 0.32920 0.15910 -0.01340
H27 H 0.21660 0.15720 -0.05300
C24 C 0.10243(11) 0.25675(9) 0.02896(5)
C25 C 0.07198(10) 0.35591(9) 0.05109(5)
C26 C 0.14768(11) 0.43643(9) 0.05096(5)
H28 H 0.22200 0.42840 0.03660
C27 C 0.11552(11) 0.52776(9) 0.07154(5)
H29 H 0.16790 0.58200 0.07100
C28 C 0.00655(11) 0.54129(9) 0.09313(5)
C29 C -0.06735(11) 0.45933(10) 0.09407(5)
H30 H -0.14080 0.46640 0.10950
C30 C -0.03586(11) 0.36821(9) 0.07311(5)
H31 H -0.08800 0.31380 0.07370
C31 C -0.03247(11) 0.63669(9) 0.11476(5)
H32 H -0.09760 0.63500 0.13720
C32 C 0.01421(11) 0.72544(9) 0.10610(5)
H33 H 0.07940 0.72760 0.08370
C33 C -0.02650(11) 0.82043(9) 0.12817(5)
C34 C 0.00864(11) 0.91006(10) 0.10448(5)
H34 H 0.05930 0.90810 0.07480
C35 C -0.02868(11) 1.00158(9) 0.12331(5)
H35 H -0.00490 1.06150 0.10640
C36 C -0.1013(1) 1.00399(9) 0.16718(5)
C37 C -0.13699(10) 0.91561(9) 0.19101(5)
C38 C -0.10091(10) 0.82427(9) 0.17215(5)
H36 H -0.12620 0.76460 0.18880
C39 C -0.14744(11) 1.09361(9) 0.19647(5)
C40 C -0.2138(1) 0.93370(9) 0.23844(5)
C41 C -0.05240(12) 1.15668(10) 0.22393(7)
H37 H -0.08660 1.20440 0.24900
H38 H -0.01090 1.19280 0.19580
H39 H 0.00120 1.11330 0.24460
C42 C -0.22777(12) 1.15779(10) 0.16052(6)
H40 H -0.28780 1.11580 0.14340
H41 H -0.18370 1.19010 0.13200
H42 H -0.26350 1.20870 0.18310
C43 C -0.16226(12) 0.89458(10) 0.29258(5)
H43 H -0.08510 0.92250 0.29880
H44 H -0.15730 0.82180 0.29110
H45 H -0.21130 0.91430 0.32260
C44 C -0.33550(11) 0.89411(10) 0.22772(6)
H46 H -0.38360 0.91210 0.25840
H47 H -0.33310 0.82150 0.22410
H48 H -0.36800 0.92330 0.19380
N2 N -0.21517(10) 1.04383(8) 0.23898(5)
O4 O 0.20795(8) 0.25552(7) 0.00813(4)
O5 O 0.04020(8) 0.18485(7) 0.02971(4)
O6 O -0.27231(10) 1.09305(7) 0.27333(4)
#END
