
#######################################################################
#
#                 Cambridge Crystallographic Data Centre
#                                CCDC
#
#######################################################################
#
# If this CIF has been generated from an entry in the Cambridge
# Structural Database, then it will include bibliographic, chemical,
# crystal, experimental, refinement or atomic coordinate data resulting
# from the CCDC's data processing and validation procedures.
#
#######################################################################

data_CSD_CIF_DELXOH
_audit_creation_date 1986-07-24
_audit_creation_method CSD-ConQuest-V1
_database_code_CSD DELXOH
_chemical_formula_sum 'C17 H14 N2 O6'
_chemical_formula_moiety
;
C17 H14 N2 O6
;
_journal_coeditor_code "IUCr A25099"
_journal_coden_Cambridge 591
_journal_volume 41
_journal_year 1985
_journal_page_first 1638
_journal_name_full 'Acta Crystallogr.,Sect.C:Cryst.Struct.Commun. '
loop_
_publ_author_name
"J.M.M.Smits"
"J.H.Noordik"
"H.E.L.Depre"
"R.C.W.Zwanenburg"
"A.J.H.Klunder"
_chemical_name_systematic
;
Tetracyclo(5.3.0.0^2,5,^.0^4,8^)dec-9-en-3-yl 3,5-dinitrobenzoate
;
_cell_volume    769.533
_exptl_crystal_density_diffrn 1.48
_diffrn_ambient_temperature ?
_diffrn_special_details
;
The study was carried out at room temperature,in the range 283-303K

;
#These two values have been output from a single CSD field.
_refine_ls_R_factor_gt 0.032
_refine_ls_wR_factor_gt 0.032
_symmetry_cell_setting triclinic
_symmetry_space_group_name_H-M 'P -1'
_symmetry_Int_Tables_number 2
loop_
_symmetry_equiv_pos_site_id
_symmetry_equiv_pos_as_xyz
1 x,y,z
2 -x,-y,-z
_cell_length_a 6.428(2)
_cell_length_b 9.912(3)
_cell_length_c 12.455(3)
_cell_angle_alpha 94.74(3)
_cell_angle_beta 92.64(3)
_cell_angle_gamma 102.79(3)
_cell_formula_units_Z 2
loop_
_atom_type_symbol
_atom_type_radius_bond
C 0.68
H 0.23
N 0.68
O 0.68
loop_
_atom_site_label
_atom_site_type_symbol
_atom_site_fract_x
_atom_site_fract_y
_atom_site_fract_z
C1 C 0.2810(4) 0.1315(2) 0.8930(2)
C2 C 0.4478(3) 0.1690(2) 0.9854(2)
C3 C 0.3885(3) 0.1335(2) 1.0868(2)
C4 C 0.5394(3) 0.1683(2) 1.1726(2)
C5 C 0.7471(4) 0.2360(2) 1.1614(2)
C6 C 0.8010(3) 0.2704(2) 1.0603(2)
C7 C 0.6560(3) 0.2389(2) 0.9718(2)
C8 C 0.2065(3) 0.1431(2) 0.7072(2)
C9 C 0.0573(3) 0.2399(2) 0.6910(2)
C10 C 0.0505(4) 0.1847(3) 0.5693(2)
C11 C 0.2852(4) 0.1702(2) 0.5967(2)
C12 C 0.0617(5) 0.3049(3) 0.5033(2)
C13 C 0.1721(3) 0.3966(2) 0.6902(2)
C14 C 0.2382(4) 0.3994(3) 0.5730(2)
C15 C 0.4180(4) 0.3219(3) 0.5884(2)
C16 C 0.5278(4) 0.3954(2) 0.6924(2)
C17 C 0.3877(4) 0.4382(2) 0.7522(2)
N1 N 0.4763(4) 0.1331(2) 1.2808(2)
N2 N 1.0215(3) 0.3451(2) 1.0460(2)
O1 O 0.0967(2) 0.0812(2) 0.9044(1)
O2 O 0.3618(2) 0.1626(1) 0.7998(1)
O3 O 0.2915(3) 0.0825(3) 1.2915(1)
O4 O 0.6137(3) 0.1571(2) 1.3540(1)
O5 O 1.1463(3) 0.3716(2) 1.1257(2)
O6 O 1.0670(3) 0.3774(2) 0.9559(2)
H1 H 0.250(3) 0.091(2) 1.098(2)
H2 H 0.847(3) 0.257(2) 1.221(2)
H3 H 0.693(3) 0.264(2) 0.906(2)
H4 H 0.122(3) 0.047(2) 0.707(2)
H5 H -0.073(3) 0.226(2) 0.728(2)
H6 H -0.052(3) 0.099(2) 0.551(2)
H7 H 0.341(3) 0.103(2) 0.558(2)
H8 H -0.069(3) 0.342(2) 0.501(2)
H9 H 0.101(3) 0.285(2) 0.431(2)
H10 H 0.074(3) 0.455(2) 0.708(2)
H11 H 0.288(3) 0.489(2) 0.557(2)
H12 H 0.514(3) 0.321(2) 0.528(2)
H13 H 0.670(3) 0.400(2) 0.716(2)
H14 H 0.404(3) 0.482(2) 0.826(2)
#END
