
#######################################################################
#
#                 Cambridge Crystallographic Data Centre
#                                CCDC
#
#######################################################################
#
# If this CIF has been generated from an entry in the Cambridge
# Structural Database, then it will include bibliographic, chemical,
# crystal, experimental, refinement or atomic coordinate data resulting
# from the CCDC's data processing and validation procedures.
#
#######################################################################

data_CSD_CIF_DEMMOX
_audit_creation_date 1986-07-24
_audit_creation_method CSD-ConQuest-V1
_database_code_CSD DEMMOX
_chemical_formula_sum 'C15 H24 N2 O4'
_chemical_formula_moiety
;
C15 H24 N2 O4
;
_journal_coden_Cambridge 188
_journal_year 1985
_journal_page_first 971
_journal_name_full 'J.Chem.Soc.,Perkin Trans.2 '
loop_
_publ_author_name
"A.A.Freer"
"D.K.MacAlpine"
"J.A.Peacock"
"A.L.Porte"
_chemical_name_systematic
;
4,11,11-Trimethyl-8-methylene-4,5-dinitrobicyclo(7.2.0)undecane
;
_chemical_name_common
;
Dinitrocaryophyllene
;
_chemical_melting_point 400.15
_cell_volume    814.035
_exptl_crystal_colour 'colorless'
_exptl_crystal_density_diffrn 1.21
_diffrn_ambient_temperature ?
_diffrn_special_details
;
The study was carried out at room temperature,in the range 283-303K

;
#These two values have been output from a single CSD field.
_refine_ls_R_factor_gt 0.036
_refine_ls_wR_factor_gt 0.036
_symmetry_cell_setting monoclinic
_symmetry_space_group_name_H-M 'P 21'
_symmetry_Int_Tables_number 4
loop_
_symmetry_equiv_pos_site_id
_symmetry_equiv_pos_as_xyz
1 x,y,z
2 -x,1/2+y,-z
_cell_length_a 6.405(4)
_cell_length_b 12.991(2)
_cell_length_c 9.797(3)
_cell_angle_alpha 90
_cell_angle_beta 93.04(4)
_cell_angle_gamma 90
_cell_formula_units_Z 2
loop_
_atom_type_symbol
_atom_type_radius_bond
C 0.68
H 0.23
N 0.68
O 0.68
loop_
_atom_site_label
_atom_site_type_symbol
_atom_site_fract_x
_atom_site_fract_y
_atom_site_fract_z
O1 O 0.6751(4) 0.2558(4) 0.0968(3)
O2 O 0.5048(6) 0.2564(4) 0.2778(3)
O3 O 0.7293(4) 0.4683(4) -0.0594(4)
O4 O 0.5878(6) 0.4907(4) 0.1311(4)
N1 N 0.5216(5) 0.2752(3) 0.1590(3)
N2 N 0.5921(5) 0.4541(4) 0.0187(4)
C1 C 0.1328(5) 0.24240 -0.2550(3)
C2 C 0.0645(6) 0.2276(4) -0.1088(3)
C3 C 0.2371(8) 0.2199(4) 0.0050(4)
C4 C 0.3271(5) 0.3177(4) 0.0740(3)
C5 C 0.4071(5) 0.3907(4) -0.0342(3)
C6 C 0.2416(6) 0.4672(4) -0.0903(4)
C7 C 0.2809(7) 0.5063(4) -0.2333(4)
C8 C 0.2827(5) 0.4215(4) -0.3372(3)
C9 C 0.1064(6) 0.3458(4) -0.3366(3)
C10 C 0.0516(8) 0.2794(5) -0.4639(4)
C11 C 0.0041(6) 0.1872(4) -0.3734(3)
C12 C -0.2278(7) 0.1800(6) -0.3496(6)
C13 C 0.0867(10) 0.0831(5) -0.4125(6)
C14 C 0.1789(7) 0.3655(5) 0.1704(4)
C15 C 0.4348(7) 0.4162(5) -0.4223(4)
H1 H 0.281(5) 0.221(3) -0.263(3)
H2 H 0.462(4) 0.349(2) -0.101(3)
H3 H -0.008(7) 0.378(4) -0.311(4)
H4 H -0.003(6) 0.164(3) -0.107(4)
H5 H -0.043(7) 0.278(4) -0.091(4)
H6 H 0.204(5) 0.173(3) 0.079(4)
H7 H 0.343(7) 0.185(5) -0.028(5)
H8 H 0.242(5) 0.522(3) -0.025(4)
H9 H 0.103(6) 0.434(3) -0.098(3)
H10 H 0.391(7) 0.544(4) -0.232(4)
H11 H 0.184(6) 0.554(3) -0.256(4)
H12 H -0.040(9) 0.298(4) -0.525(6)
H13 H 0.180(8) 0.264(4) -0.512(4)
H14 H -0.302(7) 0.155(3) -0.432(4)
H15 H -0.288(8) 0.242(5) -0.317(5)
H16 H -0.260(9) 0.137(5) -0.269(6)
H17 H 0.036(9) 0.056(5) -0.487(6)
H18 H 0.066(9) 0.033(6) -0.332(6)
H19 H 0.21(1) 0.096(5) -0.446(6)
H20 H 0.157(7) 0.313(4) 0.229(5)
H21 H 0.234(8) 0.412(4) 0.224(5)
H22 H 0.057(6) 0.390(3) 0.116(4)
H23 H 0.433(8) 0.355(5) -0.493(6)
H24 H 0.547(7) 0.470(4) -0.413(4)
#END
