
#######################################################################
#
#                 Cambridge Crystallographic Data Centre
#                                CCDC
#
#######################################################################
#
# If this CIF has been generated from an entry in the Cambridge
# Structural Database, then it will include bibliographic, chemical,
# crystal, experimental, refinement or atomic coordinate data resulting
# from the CCDC's data processing and validation procedures.
#
#######################################################################

data_CSD_CIF_DEMNUE
_audit_creation_date 1986-07-23
_audit_creation_method CSD-ConQuest-V1
_database_code_CSD DEMNUE
_chemical_formula_sum 'C10 H14 N2 O5'
_chemical_formula_moiety
;
C10 H14 N2 O5
;
_journal_coden_Cambridge 154
_journal_volume 38
_journal_year 1985
_journal_page_first 587
_journal_name_full 'Aust.J.Chem. '
loop_
_publ_author_name
"M.P.Hartshorn"
"J.M.Readman"
"W.T.Robinson"
"J.Vaughan"
_chemical_name_systematic
;
2,4,6,6-Tetramethyl-r-2,t-5-dinitrocyclohex-3-enone
;
_chemical_melting_point 345.15
_cell_volume   1201.469
_exptl_crystal_colour 'colorless'
_exptl_crystal_density_diffrn 1.33
_exptl_special_details
;
Melts with decomposition.

;
_diffrn_ambient_temperature ?
_diffrn_special_details
;
The study was carried out at room temperature,in the range 283-303K

;
#These two values have been output from a single CSD field.
_refine_ls_R_factor_gt 0.052
_refine_ls_wR_factor_gt 0.052
_symmetry_cell_setting triclinic
_symmetry_space_group_name_H-M 'P -1'
_symmetry_Int_Tables_number 2
loop_
_symmetry_equiv_pos_site_id
_symmetry_equiv_pos_as_xyz
1 x,y,z
2 -x,-y,-z
_cell_length_a 6.440(1)
_cell_length_b 13.919(2)
_cell_length_c 14.413(2)
_cell_angle_alpha 68.91(1)
_cell_angle_beta 85.37(1)
_cell_angle_gamma 88.07(1)
_cell_formula_units_Z 4
loop_
_atom_type_symbol
_atom_type_radius_bond
C 0.68
H 0.23
N 0.68
O 0.68
loop_
_atom_site_label
_atom_site_type_symbol
_atom_site_fract_x
_atom_site_fract_y
_atom_site_fract_z
C1 C 0.2551(4) 0.4038(2) 0.2895(2)
C2 C 0.2204(4) 0.4854(2) 0.3404(2)
C3 C 0.0799(4) 0.5714(2) 0.2887(2)
C4 C 0.0181(4) 0.5917(2) 0.1983(2)
C5 C 0.0787(4) 0.5208(2) 0.1421(2)
C6 C 0.1171(4) 0.4084(2) 0.2087(2)
C7 C 0.4273(4) 0.5235(3) 0.3570(2)
C8 C -0.1080(5) 0.6848(2) 0.1448(2)
C9 C 0.2091(5) 0.3455(2) 0.1469(2)
C10 C -0.0947(4) 0.3631(2) 0.2585(2)
N1 N 0.1132(4) 0.4238(2) 0.4444(2)
N2 N 0.2736(4) 0.5633(7) 0.0752(2)
O1 O 0.3831(3) 0.3375(2) 0.3203(2)
O2 O -0.0755(3) 0.4266(2) 0.4546(1)
O3 O 0.2236(4) 0.3762(2) 0.5098(2)
O4 O 0.4363(3) 0.5557(2) 0.1147(2)
O5 O 0.2578(4) 0.6030(2) -0.0135(2)
H1 H 0.0297(4) 0.6156(2) 0.3237(2)
H2 H -0.0374(4) 0.5190(2) 0.1050(2)
H3 H 0.49750 0.56220 0.29380
H4 H 0.51200 0.46570 0.39180
H5 H 0.40310 0.56670 0.39590
H6 H -0.03490 0.72370 0.08250
H7 H -0.12970 0.72670 0.18500
H8 H -0.24020 0.66360 0.13260
H9 H 0.11790 0.34960 0.09610
H10 H 0.22400 0.27490 0.18960
H11 H 0.34310 0.37250 0.11630
H12 H -0.18580 0.36490 0.20830
H13 H -0.15480 0.40280 0.29640
H14 H -0.07630 0.29310 0.30220
C11 C 0.2413(4) -0.1159(2) 0.2789(2)
C12 C 0.2857(4) -0.0357(2) 0.1727(2)
C13 C 0.4319(4) 0.0472(2) 0.1668(2)
C14 C 0.4943(4) 0.0644(2) 0.2445(2)
C15 C 0.4270(4) -0.0045(2) 0.3488(2)
C16 C 0.3771(4) -0.1152(2) 0.3603(2)
C17 C 0.0822(5) 0.0074(3) 0.1262(2)
C18 C 0.6309(4) 0.1529(2) 0.2351(2)
C19 C 0.5864(5) -0.1669(2) 0.3457(2)
C20 C 0.2729(6) -0.1759(3) 0.4638(2)
N3 N 0.3896(4) -0.0981(2) 0.1115(2)
N4 N 0.2387(4) 0.0446(2) 0.3836(2)
O6 O 0.1093(4) -0.1796(2) 0.2929(2)
O7 O 0.5765(3) -0.0945(2) 0.0950(2)
O8 O 0.2788(5) -0.1443(3) 0.0789(3)
O9 O 0.2557(4) 0.0788(2) 0.4493(2)
O10 O 0.0787(4) 0.0474(2) 0.3443(2)
H15 H 0.4849(4) 0.0914(2) 0.1018(2)
H16 H 0.5425(4) -0.0107(2) 0.3887(2)
H17 H 0.01280 0.04730 0.16170
H18 H -0.00580 -0.04850 0.13000
H19 H 0.11140 0.05030 0.05760
H20 H 0.55980 0.19580 0.26690
H21 H 0.66330 0.19250 0.16580
H22 H 0.75750 0.12700 0.26650
H23 H 0.56240 -0.23650 0.35130
H24 H 0.67580 -0.16690 0.39580
H25 H 0.65150 -0.12940 0.28090
H26 H 0.35930 -0.17360 0.51420
H27 H 0.25490 -0.24620 0.46990
H28 H 0.13950 -0.14590 0.47190
#END
