
#######################################################################
#
#                 Cambridge Crystallographic Data Centre
#                                CCDC
#
#######################################################################
#
# If this CIF has been generated from an entry in the Cambridge
# Structural Database, then it will include bibliographic, chemical,
# crystal, experimental, refinement or atomic coordinate data resulting
# from the CCDC's data processing and validation procedures.
#
#######################################################################

data_CSD_CIF_DEMNOY
_audit_creation_date 1986-07-23
_audit_creation_method CSD-ConQuest-V1
_database_code_CSD DEMNOY
_chemical_formula_sum 'C10 H13 N3 O7'
_chemical_formula_moiety
;
C10 H13 N3 O7
;
_journal_coden_Cambridge 154
_journal_volume 38
_journal_year 1985
_journal_page_first 587
_journal_name_full 'Aust.J.Chem. '
loop_
_publ_author_name
"M.P.Hartshorn"
"J.M.Readman"
"W.T.Robinson"
"J.Vaughan"
_chemical_name_systematic
;
2,4,5,6-Tetramethyl-r-4,t-5,t-6-trinitrocyclohex-2-enone
;
_chemical_melting_point 381.15
_cell_volume   1290.586
_exptl_crystal_colour 'colorless'
_exptl_crystal_density_diffrn 1.48
_exptl_special_details
;
Melts with decomposition.

;
_diffrn_ambient_temperature ?
_diffrn_special_details
;
The study was carried out at room temperature,in the range 283-303K

;
#These two values have been output from a single CSD field.
_refine_ls_R_factor_gt 0.063
_refine_ls_wR_factor_gt 0.063
loop_
_citation_database_id_CSD
_citation_special_details
HAXVUX "is a stereoisomer of this entry"
HAXWAE "is a stereoisomer of this entry"
_symmetry_cell_setting monoclinic
_symmetry_space_group_name_H-M 'P 21/n'
_symmetry_Int_Tables_number 14
loop_
_symmetry_equiv_pos_site_id
_symmetry_equiv_pos_as_xyz
1 x,y,z
2 1/2-x,1/2+y,1/2-z
3 -x,-y,-z
4 -1/2+x,-1/2-y,-1/2+z
_cell_length_a 11.924(3)
_cell_length_b 8.491(1)
_cell_length_c 13.016(2)
_cell_angle_alpha 90
_cell_angle_beta 101.67(2)
_cell_angle_gamma 90
_cell_formula_units_Z 4
loop_
_atom_type_symbol
_atom_type_radius_bond
C 0.68
H 0.23
N 0.68
O 0.68
loop_
_atom_site_label
_atom_site_type_symbol
_atom_site_fract_x
_atom_site_fract_y
_atom_site_fract_z
C1 C 0.0684(3) 0.6237(4) 0.6487(3)
C2 C 0.0877(3) 0.7876(5) 0.6227(3)
C3 C 0.0685(3) 0.9042(4) 0.6847(3)
C4 C 0.0357(3) 0.8880(4) 0.7895(3)
C5 C 0.0218(3) 0.7108(4) 0.8247(3)
C6 C -0.0122(3) 0.6045(4) 0.7274(3)
C7 C 0.1332(4) 0.8143(6) 0.5250(3)
C8 C 0.1199(3) 0.9829(4) 0.8714(3)
C9 C -0.0581(4) 0.6905(5) 0.9011(3)
C10 C -0.1321(3) 0.6291(6) 0.6656(4)
N1 N -0.0795(3) 0.9759(4) 0.7831(3)
N2 N 0.1440(3) 0.6690(4) 0.8812(3)
N3 N -0.0007(4) 0.4307(4) 0.7636(3)
O1 O 0.0982(2) 0.5123(3) 0.6049(2)
O2 O -0.1415(2) 0.9930(3) 0.6973(2)
O3 O -0.1019(3) 1.0273(4) 0.8640(3)
O4 O 0.1633(3) 0.6562(4) 0.9758(2)
O5 O 0.2160(2) 0.6551(4) 0.8273(2)
O6 O 0.0745(4) 0.3939(4) 0.8359(3)
O7 O -0.0725(5) 0.3397(5) 0.7204(4)
H1 H 0.07640 1.00940 0.66010
H2 H 0.14230 0.71490 0.49250
H3 H 0.20590 0.86660 0.54250
H4 H 0.08040 0.87860 0.47730
H5 H 0.19470 0.93650 0.88080
H6 H 0.09460 0.98200 0.93690
H7 H 0.12300 1.08950 0.84760
H8 H -0.13470 0.71770 0.86690
H9 H -0.03390 0.75810 0.96050
H10 H -0.05620 0.58300 0.92400
H11 H -0.18560 0.61660 0.71110
H12 H -0.14830 0.55300 0.61000
H13 H -0.13890 0.73320 0.63630
#END
