
#######################################################################
#
#                 Cambridge Crystallographic Data Centre
#                                CCDC
#
#######################################################################
#
# If this CIF has been generated from an entry in the Cambridge
# Structural Database, then it will include bibliographic, chemical,
# crystal, experimental, refinement or atomic coordinate data resulting
# from the CCDC's data processing and validation procedures.
#
#######################################################################

data_CSD_CIF_DEMPAM
_audit_creation_date 1986-07-23
_audit_creation_method CSD-ConQuest-V1
_database_code_CSD DEMPAM
_chemical_formula_sum 'C10 H14 N2 O5'
_chemical_formula_moiety
;
C10 H14 N2 O5
;
_journal_coden_Cambridge 154
_journal_volume 38
_journal_year 1985
_journal_page_first 587
_journal_name_full 'Aust.J.Chem. '
loop_
_publ_author_name
"M.P.Hartshorn"
"J.M.Readman"
"W.T.Robinson"
"J.Vaughan"
_chemical_name_systematic
;
2,4,6,6-Tetramethyl-r-4,t-5-dinitrocyclohex-2-enone
;
_chemical_melting_point 353.15
_cell_volume   1190.638
_exptl_crystal_colour 'colorless'
_exptl_crystal_density_diffrn 1.35
_exptl_special_details
;
Melts with decomposition.
z(O142)=.3790 not .3709

;
_diffrn_ambient_temperature ?
_diffrn_special_details
;
The study was carried out at room temperature,in the range 283-303K

;
#These two values have been output from a single CSD field.
_refine_ls_R_factor_gt 0.071
_refine_ls_wR_factor_gt 0.071
_symmetry_cell_setting monoclinic
_symmetry_space_group_name_H-M 'P c'
_symmetry_Int_Tables_number 7
loop_
_symmetry_equiv_pos_site_id
_symmetry_equiv_pos_as_xyz
1 x,y,z
2 x,-y,1/2+z
_cell_length_a 11.549(4)
_cell_length_b 6.705(2)
_cell_length_c 15.376(9)
_cell_angle_alpha 90
_cell_angle_beta 90.32(4)
_cell_angle_gamma 90
_cell_formula_units_Z 4
loop_
_atom_type_symbol
_atom_type_radius_bond
C 0.68
H 0.23
N 0.68
O 0.68
loop_
_atom_site_label
_atom_site_type_symbol
_atom_site_fract_x
_atom_site_fract_y
_atom_site_fract_z
C1 C 0.3917(8) 0.5863(14) -0.0438(6)
C2 C 0.4590(7) 0.4468(14) 0.0106(6)
C3 C 0.4331(7) 0.4108(13) 0.0939(6)
C4 C 0.3295(7) 0.4963(12) 0.1378(6)
C5 C 0.2460(7) 0.6074(13) 0.0753(6)
C6 C 0.3048(6) 0.7208(13) -0.0011(6)
C7 C 0.5614(8) 0.3439(16) -0.0332(6)
C8 C 0.2677(8) 0.3380(16) 0.1934(6)
C9 C 0.2144(9) 0.7960(16) -0.0628(6)
C10 C 0.3723(9) 0.8984(14) 0.0344(7)
N1 N 0.3728(6) 0.6527(12) 0.2041(5)
N2 N 0.1599(6) 0.4583(12) 0.0372(5)
O1 O 0.4118(6) 0.6027(11) -0.1202(4)
O2 O 0.3015(7) 0.7558(12) 0.2406(5)
O3 O 0.4758(6) 0.6571(11) 0.2209(4)
O4 O 0.1981(6) 0.3333(11) -0.0125(4)
O5 O 0.0589(5) 0.4749(12) 0.0597(5)
H1 H 0.4838(7) 0.3259(13) 0.1270(6)
H2 H 0.2086(7) 0.7078(13) 0.1097(6)
H3 H 0.56700 0.38830 -0.09240
H4 H 0.54970 0.20220 -0.03220
H5 H 0.63150 0.37630 -0.00260
H6 H 0.23770 0.23450 0.15650
H7 H 0.20520 0.39960 0.22430
H8 H 0.32170 0.28170 0.23420
H9 H 0.17000 0.68520 -0.08420
H10 H 0.25080 0.86280 -0.11060
H11 H 0.16410 0.88740 -0.03320
H12 H 0.31970 0.98790 0.06270
H13 H 0.40970 0.96640 -0.01270
H14 H 0.42960 0.85360 0.07550
C11 C 0.7101(7) 0.9315(13) 0.1827(6)
C12 C 0.7109(8) 0.9764(14) 0.2785(6)
C13 C 0.7935(8) 0.9077(17) 0.3269(6)
C14 C 0.9028(8) 0.8114(14) 0.2949(6)
C15 C 0.9144(7) 0.8012(13) 0.1958(5)
C16 C 0.7974(9) 0.7835(15) 0.1461(6)
C17 C 0.6101(9) 1.0960(17) 0.3107(7)
C18 C 1.0092(8) 0.9051(18) 0.3396(7)
C19 C 0.8145(11) 0.8047(20) 0.0484(6)
C20 C 0.7470(8) 0.5733(14) 0.1634(8)
N3 N 0.9082(8) 0.5885(14) 0.3270(6)
N4 N 0.9710(7) 0.9920(14) 0.1683(6)
O6 O 0.6397(6) 1.0132(11) 0.1332(5)
O7 O 0.9863(8) 0.4850(12) 0.3024(6)
O8 O 0.8362(8) 0.5361(15) 0.3790(6)
O9 O 0.9198(7) 1.1454(11) 0.1724(5)
O10 O 1.0688(6) 0.9763(11) 0.1376(6)
H15 H 0.7841(9) 0.9184(17) 0.3887(6)
H16 H 0.9579(7) 0.6836(13) 0.1819(6)
H17 H 0.56140 1.13140 0.26230
H18 H 0.63780 1.21490 0.33860
H19 H 0.56650 1.01830 0.35150
H20 H 1.01390 1.04390 0.32470
H21 H 1.07820 0.83830 0.32090
H22 H 1.00160 0.89160 0.40140
H23 H 0.74070 0.79670 0.01960
H24 H 0.86370 0.69950 0.02790
H25 H 0.84960 0.93130 0.03620
H26 H 0.79880 0.47450 0.14070
H27 H 0.67310 0.56190 0.13500
H28 H 0.73790 0.55310 0.22480
#END
