
#######################################################################
#
#                 Cambridge Crystallographic Data Centre
#                                CCDC
#
#######################################################################
#
# If this CIF has been generated from an entry in the Cambridge
# Structural Database, then it will include bibliographic, chemical,
# crystal, experimental, refinement or atomic coordinate data resulting
# from the CCDC's data processing and validation procedures.
#
#######################################################################

data_CSD_CIF_DEMPIU
_audit_creation_date 1986-07-23
_audit_creation_method CSD-ConQuest-V1
_database_code_CSD DEMPIU
_chemical_formula_sum 'C10 H14 N2 O6'
_chemical_formula_moiety
;
C10 H14 N2 O6
;
_journal_coden_Cambridge 154
_journal_volume 38
_journal_year 1985
_journal_page_first 587
_journal_name_full 'Aust.J.Chem. '
loop_
_publ_author_name
"M.P.Hartshorn"
"J.M.Readman"
"W.T.Robinson"
"J.Vaughan"
_chemical_name_systematic
;
c-6-Hydroxy-2,4,5,6-tetramethyl-r-2,c-5-dinitrocyclohex-3-enone
;
_chemical_melting_point 353.15
_cell_volume   1180.288
_exptl_crystal_colour 'colorless'
_exptl_crystal_density_diffrn 1.45
_exptl_special_details
;
Melts with decomposition.

;
_diffrn_ambient_temperature ?
_diffrn_special_details
;
The study was carried out at room temperature,in the range 283-303K

;
#These two values have been output from a single CSD field.
_refine_ls_R_factor_gt 0.059
_refine_ls_wR_factor_gt 0.059
_symmetry_cell_setting monoclinic
_symmetry_space_group_name_H-M 'P 21/c'
_symmetry_Int_Tables_number 14
loop_
_symmetry_equiv_pos_site_id
_symmetry_equiv_pos_as_xyz
1 x,y,z
2 -x,1/2+y,1/2-z
3 -x,-y,-z
4 x,-1/2-y,-1/2+z
_cell_length_a 12.715(4)
_cell_length_b 8.620(2)
_cell_length_c 10.784(3)
_cell_angle_alpha 90
_cell_angle_beta 93.05(3)
_cell_angle_gamma 90
_cell_formula_units_Z 4
loop_
_atom_type_symbol
_atom_type_radius_bond
C 0.68
H 0.23
N 0.68
O 0.68
loop_
_atom_site_label
_atom_site_type_symbol
_atom_site_fract_x
_atom_site_fract_y
_atom_site_fract_z
C1 C 0.8579(2) 0.4615(4) 0.1780(3)
C2 C 0.8059(2) 0.3860(4) 0.2952(3)
C3 C 0.6944(2) 0.4398(4) 0.3194(3)
C4 C 0.6442(2) 0.5441(4) 0.2558(3)
C5 C 0.6959(2) 0.6211(4) 0.1411(3)
C6 C 0.8174(2) 0.6204(4) 0.1430(3)
C7 C 0.8729(3) 0.4140(4) 0.4064(3)
C8 C 0.5334(3) 0.5916(5) 0.2925(4)
C9 C 0.6535(3) 0.7801(4) 0.1156(4)
C10 C 0.8529(3) 0.7400(4) 0.2367(3)
N1 N 0.8051(2) 0.2109(3) 0.2677(3)
N2 N 0.6695(2) 0.5146(4) 0.0297(3)
O1 O 0.9313(2) 0.4030(3) 0.1216(2)
O2 O 0.7277(2) 0.1569(3) 0.2235(3)
O3 O 0.8830(2) 0.1368(3) 0.2884(4)
O4 O 0.7073(3) 0.3845(3) 0.0289(2)
O5 O 0.6156(3) 0.5652(4) -0.0495(3)
O6 O 0.8590(2) 0.6610(3) 0.0229(2)
H1 H 0.6597(2) 0.3923(4) 0.3867(3)
H2 H 0.92160 0.59520 0.00050
H3 H 0.87400 0.52300 0.42470
H4 H 0.94310 0.37910 0.39310
H5 H 0.84580 0.35830 0.47500
H6 H 0.48380 0.57450 0.22360
H7 H 0.53340 0.69940 0.31480
H8 H 0.51380 0.53040 0.36200
H9 H 0.67090 0.84610 0.18540
H10 H 0.57830 0.77500 0.10190
H11 H 0.68400 0.82150 0.04300
H12 H 0.82560 0.71500 0.31550
H13 H 0.82730 0.84010 0.21020
H14 H 0.92840 0.74170 0.24440
#END
