
#######################################################################
#
#                 Cambridge Crystallographic Data Centre
#                                CCDC
#
#######################################################################
#
# If this CIF has been generated from an entry in the Cambridge
# Structural Database, then it will include bibliographic, chemical,
# crystal, experimental, refinement or atomic coordinate data resulting
# from the CCDC's data processing and validation procedures.
#
#######################################################################

data_CSD_CIF_DEMRAO
_audit_creation_date 1986-07-24
_audit_creation_method CSD-ConQuest-V1
_database_code_CSD DEMRAO
_chemical_formula_sum 'C11 H17 N1 O4'
_chemical_formula_moiety
;
C11 H17 N1 O4
;
_journal_coden_Cambridge 10
_journal_volume 68
_journal_year 1985
_journal_page_first 1033
_journal_name_full 'Helv.Chim.Acta '
loop_
_publ_author_name
"T.Aono"
"J.H.Bieri"
"M.Hesse"
"K.Kostova"
"A.Lorenzi-Riatsch"
"Y.Nakashita"
"R.Prewo"
_chemical_name_systematic
;
cis-7-Hydroxy-1-nitrobicyclo(5.4.0)undecan-9-one
;
_cell_volume   1166.110
_exptl_crystal_density_diffrn 1.29
_diffrn_ambient_temperature ?
_diffrn_special_details
;
The study was carried out at room temperature,in the range 283-303K

;
#These two values have been output from a single CSD field.
_refine_ls_R_factor_gt 0.086
_refine_ls_wR_factor_gt 0.086
_symmetry_cell_setting monoclinic
_symmetry_space_group_name_H-M 'P 21/c'
_symmetry_Int_Tables_number 14
loop_
_symmetry_equiv_pos_site_id
_symmetry_equiv_pos_as_xyz
1 x,y,z
2 -x,1/2+y,1/2-z
3 -x,-y,-z
4 x,-1/2-y,-1/2+z
_cell_length_a 8.708(1)
_cell_length_b 11.540(1)
_cell_length_c 12.585(1)
_cell_angle_alpha 90
_cell_angle_beta 112.77(1)
_cell_angle_gamma 90
_cell_formula_units_Z 4
loop_
_atom_type_symbol
_atom_type_radius_bond
C 0.68
H 0.23
N 0.68
O 0.68
loop_
_atom_site_label
_atom_site_type_symbol
_atom_site_fract_x
_atom_site_fract_y
_atom_site_fract_z
C1 C 0.4009(4) 0.4109(3) 0.1633(3)
N1 N 0.4182(7) 0.5281(3) 0.1094(3)
O1 O 0.5622(5) 0.5627(3) 0.1297(3)
O2 O 0.2983(6) 0.5811(3) 0.0548(3)
C2 C 0.2804(5) 0.3413(3) 0.0616(3)
C3 C 0.2054(6) 0.2323(4) 0.0897(4)
C4 C 0.0520(7) 0.2487(6) 0.1125(5)
C5 C 0.0673(6) 0.3205(5) 0.2167(4)
C6 C 0.1511(5) 0.4401(4) 0.2272(4)
C7 C 0.3402(4) 0.4414(3) 0.2620(3)
O3 O 0.4028(3) 0.5555(2) 0.2988(2)
C8 C 0.4268(4) 0.3615(3) 0.3662(3)
C9 C 0.6097(4) 0.3826(3) 0.4139(3)
O4 O 0.6902(3) 0.4000(3) 0.5156(2)
C10 C 0.6889(5) 0.3852(4) 0.3271(3)
C11 C 0.5710(4) 0.3500(3) 0.2087(3)
H1 H 0.16650 0.38980 0.01250
H2 H 0.3444(42) 0.3222(31) 0.0069(29)
H3 H 0.1830(41) 0.1812(29) 0.0284(28)
H4 H 0.2877(60) 0.1987(40) 0.1612(42)
H5 H -0.0022(58) 0.1835(42) 0.1092(37)
H6 H -0.0278(57) 0.2894(41) 0.0483(39)
H7 H -0.027(6) 0.3410(44) 0.2178(40)
H8 H 0.1222(58) 0.2870(44) 0.2931(41)
H9 H 0.1420(42) 0.4851(32) 0.2908(28)
H10 H 0.1056(62) 0.4799(46) 0.1542(43)
H11 H 0.3753(42) 0.5683(30) 0.3499(30)
H12 H 0.3827(36) 0.3763(25) 0.4258(24)
H13 H 0.4089(33) 0.2870(24) 0.3468(22)
H14 H 0.7294(54) 0.4671(38) 0.3204(34)
H15 H 0.7809(46) 0.3411(30) 0.3505(28)
H16 H 0.5430(38) 0.2676(31) 0.2098(26)
H17 H 0.6262(41) 0.3558(31) 0.1531(28)
#END
