
#######################################################################
#
#                 Cambridge Crystallographic Data Centre
#                                CCDC
#
#######################################################################
#
# If this CIF has been generated from an entry in the Cambridge
# Structural Database, then it will include bibliographic, chemical,
# crystal, experimental, refinement or atomic coordinate data resulting
# from the CCDC's data processing and validation procedures.
#
#######################################################################

data_CSD_CIF_DEMRES
_audit_creation_date 1986-07-24
_audit_creation_method CSD-ConQuest-V1
_database_code_CSD DEMRES
_chemical_formula_sum 'C10 H15 N1 O4'
_chemical_formula_moiety
;
C10 H15 N1 O4
;
_journal_coden_Cambridge 10
_journal_volume 68
_journal_year 1985
_journal_page_first 1033
_journal_name_full 'Helv.Chim.Acta '
loop_
_publ_author_name
"T.Aono"
"J.H.Bieri"
"M.Hesse"
"K.Kostova"
"A.Lorenzi-Riatsch"
"Y.Nakashita"
"R.Prewo"
_chemical_name_systematic
;
1-Hydroxy-2-acetyl-4-nitro-cyclo-oct-1-ene
;
_cell_volume   1006.411
_exptl_crystal_density_diffrn 1.41
_diffrn_ambient_temperature 130
#These two values have been output from a single CSD field.
_refine_ls_R_factor_gt 0.056
_refine_ls_wR_factor_gt 0.056
_symmetry_cell_setting monoclinic
_symmetry_space_group_name_H-M 'P 21/c'
_symmetry_Int_Tables_number 14
loop_
_symmetry_equiv_pos_site_id
_symmetry_equiv_pos_as_xyz
1 x,y,z
2 -x,1/2+y,1/2-z
3 -x,-y,-z
4 x,-1/2-y,-1/2+z
_cell_length_a 9.278(1)
_cell_length_b 9.210(1)
_cell_length_c 11.890(1)
_cell_angle_alpha 90
_cell_angle_beta 97.88(1)
_cell_angle_gamma 90
_cell_formula_units_Z 4
loop_
_atom_type_symbol
_atom_type_radius_bond
C 0.68
H 0.23
N 0.68
O 0.68
loop_
_atom_site_label
_atom_site_type_symbol
_atom_site_fract_x
_atom_site_fract_y
_atom_site_fract_z
C1 C 0.3373(1) 0.4572(1) 0.1739(1)
O1 O 0.3493(1) 0.6002(1) 0.1712(1)
C2 C 0.2026(1) 0.3894(1) 0.1587(1)
C3 C 0.1925(1) 0.2258(1) 0.1521(1)
C4 C 0.1858(1) 0.1759(1) 0.0289(1)
N1 N 0.1776(1) 0.0111(1) 0.0218(1)
O2 O 0.1282(1) -0.0416(1) -0.0706(1)
O3 O 0.2226(1) -0.0614(1) 0.1056(1)
C5 C 0.3154(1) 0.2216(1) -0.0311(1)
C6 C 0.4676(1) 0.1900(1) 0.0332(1)
C7 C 0.5454(1) 0.3186(1) 0.0964(1)
C8 C 0.4804(1) 0.3791(1) 0.1991(1)
C9 C 0.0734(1) 0.4776(1) 0.1493(1)
O4 O 0.0803(1) 0.6150(1) 0.1452(1)
C10 C -0.0735(1) 0.4094(1) 0.1472(1)
H1 H 0.2325(28) 0.6409(31) 0.1521(22)
H2 H 0.2815(14) 0.1789(14) 0.1997(11)
H3 H 0.1061(15) 0.1918(15) 0.1833(11)
H4 H 0.0934(14) 0.2085(14) -0.0169(11)
H5 H 0.3025(14) 0.3275(14) -0.0481(11)
H6 H 0.3016(14) 0.1720(14) -0.1066(11)
H7 H 0.4624(15) 0.1053(15) 0.0877(12)
H8 H 0.5283(16) 0.1572(17) -0.0236(12)
H9 H 0.5540(15) 0.3961(15) 0.0404(12)
H10 H 0.6494(15) 0.2889(14) 0.1285(11)
H11 H 0.4740(15) 0.2990(15) 0.2512(12)
H12 H 0.5513(16) 0.4493(15) 0.2397(12)
H13 H -0.0923(18) 0.3372(19) 0.0837(15)
H14 H -0.0775(19) 0.3531(19) 0.2182(15)
H15 H -0.1483(19) 0.4848(18) 0.1419(14)
#END
