
#######################################################################
#
#                 Cambridge Crystallographic Data Centre
#                                CCDC
#
#######################################################################
#
# If this CIF has been generated from an entry in the Cambridge
# Structural Database, then it will include bibliographic, chemical,
# crystal, experimental, refinement or atomic coordinate data resulting
# from the CCDC's data processing and validation procedures.
#
#######################################################################

data_CSD_CIF_DEMRUI
_audit_creation_date 1986-07-24
_audit_creation_method CSD-ConQuest-V1
_database_code_CSD DEMRUI
_chemical_formula_sum 'C12 H19 N1 O4'
_chemical_formula_moiety
;
C12 H19 N1 O4
;
_journal_coden_Cambridge 10
_journal_volume 68
_journal_year 1985
_journal_page_first 1033
_journal_name_full 'Helv.Chim.Acta '
loop_
_publ_author_name
"T.Aono"
"J.H.Bieri"
"M.Hesse"
"K.Kostova"
"A.Lorenzi-Riatsch"
"Y.Nakashita"
"R.Prewo"
_chemical_name_systematic
;
1-Hydroxy-2-acetyl-4-nitro-cyclodec-1-ene
;
_cell_volume   2415.586
_exptl_crystal_density_diffrn 1.33
_diffrn_ambient_temperature 130
#These two values have been output from a single CSD field.
_refine_ls_R_factor_gt 0.067
_refine_ls_wR_factor_gt 0.067
_symmetry_cell_setting monoclinic
_symmetry_space_group_name_H-M 'C 2/c'
_symmetry_Int_Tables_number 15
loop_
_symmetry_equiv_pos_site_id
_symmetry_equiv_pos_as_xyz
1 x,y,z
2 1/2+x,1/2+y,z
3 -x,y,1/2-z
4 1/2-x,1/2+y,1/2-z
5 -x,-y,-z
6 -1/2-x,-1/2-y,-z
7 x,-y,-1/2+z
8 -1/2+x,-1/2-y,-1/2+z
_cell_length_a 31.904(18)
_cell_length_b 5.065(2)
_cell_length_c 15.321(7)
_cell_angle_alpha 90
_cell_angle_beta 102.66(3)
_cell_angle_gamma 90
_cell_formula_units_Z 8
loop_
_atom_type_symbol
_atom_type_radius_bond
C 0.68
H 0.23
N 0.68
O 0.68
loop_
_atom_site_label
_atom_site_type_symbol
_atom_site_fract_x
_atom_site_fract_y
_atom_site_fract_z
C1 C 0.1574(1) 0.4056(3) -0.0636(1)
O1 O 0.1836(1) 0.2728(3) -0.1029(1)
C2 C 0.1138(1) 0.3463(3) -0.0800(1)
C3 C 0.0827(1) 0.4901(3) -0.0345(1)
C4 C 0.0718(1) 0.3306(3) 0.0424(1)
N1 N 0.0423(1) 0.4898(3) 0.0881(1)
O2 O 0.0288(1) 0.3804(3) 0.1474(1)
O3 O 0.0326(1) 0.7147(3) 0.0635(1)
C5 C 0.1100(1) 0.2339(3) 0.1137(1)
C6 C 0.1373(1) 0.4491(4) 0.1683(1)
C7 C 0.1848(1) 0.3699(5) 0.2004(1)
C8 C 0.2096(1) 0.3038(4) 0.1281(1)
C9 C 0.2181(1) 0.5281(4) 0.0675(1)
C10 C 0.1796(1) 0.6233(3) -0.0049(1)
C11 C 0.0978(1) 0.1456(4) -0.1450(1)
O4 O 0.1232(1) 0.0102(3) -0.1807(1)
C12 C 0.0508(1) 0.0937(5) -0.1776(1)
H1 H 0.1653(9) 0.1257(58) -0.1406(17)
H2 H 0.0573(6) 0.5244(36) -0.0773(11)
H3 H 0.0930(6) 0.6658(40) -0.0143(12)
H4 H 0.0550(5) 0.1836(34) 0.0207(11)
H5 H 0.1273(5) 0.1311(37) 0.0815(11)
H6 H 0.1004(6) 0.1115(37) 0.1542(11)
H7 H 0.1354(6) 0.6092(37) 0.1356(11)
H8 H 0.1253(7) 0.4883(43) 0.2224(13)
H9 H 0.1996(7) 0.5105(45) 0.2397(14)
H10 H 0.1876(7) 0.2158(45) 0.2419(14)
H11 H 0.2371(7) 0.2328(42) 0.1598(13)
H12 H 0.1856(6) 0.1502(41) 0.0898(13)
H13 H 0.2292(6) 0.687(4) 0.1042(13)
H14 H 0.2396(6) 0.4672(41) 0.0371(12)
H15 H 0.1907(7) 0.7456(41) -0.0440(14)
H16 H 0.1599(6) 0.7223(37) 0.0204(11)
H17 H 0.0462(8) -0.0549(50) -0.2187(16)
H18 H 0.0383(9) 0.2505(59) -0.2015(18)
H19 H 0.0364(8) 0.0565(51) -0.1299(16)
#END
