
#######################################################################
#
#                 Cambridge Crystallographic Data Centre
#                                CCDC
#
#######################################################################
#
# If this CIF has been generated from an entry in the Cambridge
# Structural Database, then it will include bibliographic, chemical,
# crystal, experimental, refinement or atomic coordinate data resulting
# from the CCDC's data processing and validation procedures.
#
#######################################################################

data_CSD_CIF_DENSAN01
_audit_creation_date 2014-08-06
_audit_creation_method CSD-ConQuest-V1
_database_code_CSD DENSAN01
_database_code_depnum_ccdc_archive 'CCDC 1018250'
_chemical_formula_sum 'C10 H14 N2 O1'
_chemical_formula_moiety
;
C10 H14 N2 O1
;
_journal_coden_Cambridge 1078
_journal_year 2014
_journal_name_full 'CSD Communication(Private Communication) '
loop_
_publ_author_name
"S.Murru"
"R.S.Srivastava"
"F.R.Fronczek"
_chemical_name_systematic
;
N,N-diethyl-p-nitrosoaniline
;
_cell_volume   1935.201
_exptl_crystal_colour 'yellow'
_exptl_crystal_density_diffrn 1.223
_exptl_crystal_description 'lath'
_exptl_crystal_preparation 'dichloromethane/ diethyl ether'
_diffrn_ambient_temperature 105
_refine_special_details
;
N1,O1 and N1A,O1A disordered over two sites with occupancies 0.790:0.210; 
N3,O2 and N3A,O2A disordered over two sites with occupancies 0.696:0.304.
;
#These two values have been output from a single CSD field.
_refine_ls_R_factor_gt 0.0494
_refine_ls_wR_factor_gt 0.0494
_symmetry_cell_setting monoclinic
_symmetry_space_group_name_H-M 'P 21/n'
_symmetry_Int_Tables_number 14
loop_
_symmetry_equiv_pos_site_id
_symmetry_equiv_pos_as_xyz
1 x,y,z
2 1/2-x,1/2+y,1/2-z
3 -x,-y,-z
4 -1/2+x,-1/2-y,-1/2+z
_cell_length_a 13.6918(6)
_cell_length_b 9.9048(5)
_cell_length_c 14.2888(7)
_cell_angle_alpha 90
_cell_angle_beta 92.950(4)
_cell_angle_gamma 90
_cell_formula_units_Z 8
loop_
_atom_type_symbol
_atom_type_radius_bond
C 0.68
H 0.23
N 0.68
O 0.68
loop_
_atom_site_label
_atom_site_type_symbol
_atom_site_fract_x
_atom_site_fract_y
_atom_site_fract_z
O1 O 0.56306(18) 0.18579(18) 0.30304(13)
N1 N 0.4740(2) 0.2024(3) 0.2833(2)
N2 N 0.22011(10) 0.20724(15) 0.57674(10)
C1 C 0.41774(14) 0.20079(18) 0.36360(13)
C2 C 0.44987(14) 0.18375(18) 0.45758(13)
H1 H 0.51750 0.17030 0.47280
C3 C 0.38588(13) 0.18608(18) 0.52774(13)
H2 H 0.40980 0.17520 0.59090
C4 C 0.28369(13) 0.20464(17) 0.50768(12)
C5 C 0.25229(14) 0.22114(18) 0.41186(12)
H3 H 0.18480 0.23420 0.39550
C6 C 0.31806(14) 0.21848(19) 0.34305(13)
H4 H 0.29510 0.22900 0.27960
C7 C 0.25336(14) 0.20138(19) 0.67614(12)
H5 H 0.20420 0.24610 0.71410
H6 H 0.31550 0.25210 0.68510
C8 C 0.26897(15) 0.0586(2) 0.71114(14)
H7 H 0.20750 0.00820 0.70340
H8 H 0.29060 0.06040 0.77760
H9 H 0.31900 0.01450 0.67510
C9 C 0.11406(13) 0.21756(19) 0.55870(14)
H10 H 0.08080 0.17120 0.60960
H11 H 0.09550 0.17080 0.49920
C10 C 0.07916(14) 0.3626(2) 0.55251(15)
H12 H 0.10020 0.41060 0.61000
H13 H 0.00760 0.36440 0.54490
H14 H 0.10710 0.40670 0.49860
O2? O 0.4817(8) 0.2010(11) 0.2295(7)
N3? N 0.5045(11) 0.1884(13) 0.3160(8)
O3 O 0.40315(19) 0.2056(3) 0.89404(17)
N4 N 0.4287(3) 0.3143(4) 0.8593(3)
N5 N 0.69243(11) 0.28010(14) 0.57324(10)
C11 C 0.49805(13) 0.2876(2) 0.78848(12)
C12 C 0.53901(14) 0.1657(2) 0.76031(13)
H15 H 0.52170 0.08400 0.79020
C13 C 0.60370(13) 0.16214(19) 0.69035(13)
H16 H 0.63140 0.07840 0.67300
C14 C 0.62989(13) 0.28250(18) 0.64334(12)
C15 C 0.58752(13) 0.40495(19) 0.67287(12)
H17 H 0.60350 0.48720 0.64310
C16 C 0.52400(14) 0.4062(2) 0.74368(13)
H18 H 0.49710 0.48960 0.76270
C17 C 0.73435(14) 0.15530(19) 0.53744(13)
H19 H 0.74680 0.16720 0.47030
H20 H 0.68650 0.08110 0.54250
C18 C 0.82898(14) 0.1165(2) 0.59031(15)
H21 H 0.87260 0.19490 0.59470
H22 H 0.86060 0.04340 0.55700
H23 H 0.81490 0.08600 0.65350
C19 C 0.72411(14) 0.40370(19) 0.52737(14)
H24 H 0.78930 0.38860 0.50230
H25 H 0.73040 0.47720 0.57420
C20 C 0.65270(16) 0.4466(2) 0.44798(14)
H26 H 0.64420 0.37270 0.40270
H27 H 0.67840 0.52620 0.41670
H28 H 0.58950 0.46870 0.47330
O4? O 0.4005(5) 0.3601(8) 0.8933(5)
N6? N 0.4395(9) 0.2537(10) 0.8601(9)
#END
