
#######################################################################
#
#                 Cambridge Crystallographic Data Centre
#                                CCDC
#
#######################################################################
#
# If this CIF has been generated from an entry in the Cambridge
# Structural Database, then it will include bibliographic, chemical,
# crystal, experimental, refinement or atomic coordinate data resulting
# from the CCDC's data processing and validation procedures.
#
#######################################################################

data_CSD_CIF_DENVAT
_audit_creation_date 1986-07-24
_audit_creation_method CSD-ConQuest-V1
_database_code_CSD DENVAT
_chemical_formula_sum 'C10 H15 N1 O3'
_chemical_formula_moiety
;
C10 H15 N1 O3
;
_journal_coden_Cambridge 619
_journal_volume 5
_journal_year 1985
_journal_page_first 57
_journal_name_full 'Fenz.Kex.Yu Huax.Yanjiu '
loop_
_publ_author_name
"Leng Hengjin"
"Wang Zutao"
"Liu Jiyun"
_chemical_name_systematic
;
1,6-Dimethyl-8-hydroxy-8-azabicyclo(4.3.0)nonane-7,9-dione
;
_chemical_name_common
;
Deoxygen-bridged N-hydroxycantharidinimide
;
_chemical_melting_point 353.15
_cell_volume   2113.205
_exptl_crystal_density_diffrn 1.238
_exptl_special_details
;
Melting point range 353.15-355.15K
antitumour drug
H4' is deleted for suspected coordinate error
;
_diffrn_ambient_temperature ?
_diffrn_special_details
;
The study was carried out at room temperature,in the range 283-303K

;
#These two values have been output from a single CSD field.
_refine_ls_R_factor_gt 0.0903
_refine_ls_wR_factor_gt 0.0903
_symmetry_cell_setting orthorhombic
_symmetry_space_group_name_H-M 'P b 21 a'
_symmetry_Int_Tables_number 29
loop_
_symmetry_equiv_pos_site_id
_symmetry_equiv_pos_as_xyz
1 x,y,z
2 1/2-x,1/2+y,z
3 1/2+x,y,-z
4 -x,1/2+y,-z
_cell_length_a 13.723
_cell_length_b 13.275
_cell_length_c 11.6
_cell_angle_alpha 90
_cell_angle_beta 90
_cell_angle_gamma 90
_cell_formula_units_Z 8
loop_
_atom_type_symbol
_atom_type_radius_bond
C 0.68
H 0.23
N 0.68
O 0.68
loop_
_atom_site_label
_atom_site_type_symbol
_atom_site_fract_x
_atom_site_fract_y
_atom_site_fract_z
N1 N 0.4729(2) 0.1867(1) 0.38300
O1 O 0.3701(3) 0.0928(4) 0.2685(2)
O2 O 0.5359(4) 0.2128(1) 0.2974(4)
O3 O 0.55600 0.2613(4) 0.5358(1)
C1 C 0.3513(7) 0.1030(8) 0.4842(4)
C2 C 0.3994(2) 0.0021(9) 0.5148(4)
C3 C 0.3983(6) -0.0205(9) 0.6430(6)
C4 C 0.4517(3) 0.0594(5) 0.7164(6)
C5 C 0.4020(2) 0.1621(1) 0.6917(6)
C6 C 0.3892(4) 0.1877(1) 0.5605(1)
C7 C 0.4826(7) 0.2159(3) 0.5004(6)
C8 C 0.3921(9) 0.1269(6) 0.3634(10)
C9 C 0.2387(9) 0.0929(1) 0.4764(6)
C10 C 0.3296(9) 0.2824(6) 0.5522(4)
N2 N 0.3826(1) -0.0192(1) 0.0558(1)
O4 O 0.4775(3) -0.1024(7) 0.1847(3)
O5 O 0.4342(7) 0.0702(4) 0.0583(3)
O6 O 0.2660(2) 0.0334(5) -0.0788(4)
C11 C 0.3308(3) -0.1793(8) 0.1000(3)
C12 C 0.2668(10) -0.1883(10) 0.2108(10)
C13 C 0.1925(15) -0.1062(8) 0.2186(7)
C14 C 0.1206(7) -0.1044(15) 0.1196(20)
C15 C 0.16870 -0.1568(4) 0.0052(3)
C16 C 0.2767(4) -0.1417(11) -0.0124(8)
C17 C 0.2995(11) -0.0264(11) -0.0126(10)
C18 C 0.4084(4) -0.1003(5) 0.1208(1)
C19 C 0.3827(1) -0.2816(5) 0.0802(9)
C20 C 0.3135(7) -0.1928(6) -0.1222(6)
H1 H 0.469(18) 0.002(1) 0.492(18)
H2 H 0.366(8) -0.025(12) 0.439(14)
H3 H 0.435(13) -0.095(9) 0.663(20)
H4 H 0.320(14) -0.023(1) 0.660(3)
H5 H 0.535(15) 0.062(7) 0.698(5)
H6 H 0.434(14) 0.035(29) 0.793(25)
H7 H 0.436(13) 0.232(19) 0.731(7)
H8 H 0.613(10) 0.217(6) 0.257(13)
H9 H 0.310(11) -0.148(19) 0.279(20)
H10 H 0.223(9) -0.247(4) 0.222(5)
H11 H 0.234(14) -0.040(7) 0.225(1)
H12 H 0.151(4) -0.120(7) 0.301(1)
H13 H 0.045(10) -0.148(3) 0.150(7)
H14 H 0.148(8) -0.246(8) -0.011(7)
H15 H 0.336(18) 0.174(12) 0.733(3)
H16 H 0.216(13) 0.160(14) 0.458(13)
H17 H 0.205(13) 0.062(16) 0.556(6)
H18 H 0.221(8) 0.047(12) 0.415(17)
H19 H 0.335(13) 0.304(9) 0.461(7)
H20 H 0.365(8) 0.340(18) 0.594(6)
H21 H 0.273(18) 0.276(1) 0.59(1)
H22 H 0.123(10) -0.113(10) -0.075(9)
H23 H 0.395(4) -0.280(6) 0.177(7)
H24 H 0.415(5) -0.266(3) -0.003(2)
H25 H 0.36(1) -0.360(9) 0.036(10)
H26 H 0.397(8) -0.189(9) -0.09(1)
H27 H 0.270(3) -0.200(6) -0.183(10)
H28 H 0.312(6) -0.273(1) -0.134(3)
H29 H 0.484(9) 0.113(8) 0.006(3)
#END
