
#######################################################################
#
#                 Cambridge Crystallographic Data Centre
#                                CCDC
#
#######################################################################
#
# If this CIF has been generated from an entry in the Cambridge
# Structural Database, then it will include bibliographic, chemical,
# crystal, experimental, refinement or atomic coordinate data resulting
# from the CCDC's data processing and validation procedures.
#
#######################################################################

data_CSD_CIF_DEQQUO
_audit_creation_date 2018-02-08
_audit_creation_method CSD-ConQuest-V1
_database_code_CSD DEQQUO
_database_code_depnum_ccdc_archive 'CCDC 1822904'
_chemical_formula_sum 'C19 H23 N3 O5'
_chemical_formula_moiety
;
C19 H23 N3 O5
;
_journal_coden_Cambridge 35
_journal_volume 83
_journal_year 2018
_journal_page_first 1558
_journal_name_full 'J.Org.Chem. '
loop_
_publ_author_name
"S.S.Prasad"
"S.Baskaran"
_chemical_name_systematic
;
2,2-dimethyl-4,5,7a,8,10b,10c-hexahydro-2H,3aH,7H-[1,3]dioxolo[4,5-g][1,2]oxaz
olo[3,4-a]indolizin-4-yl phenylcarbamate
;
_cell_volume   1882.523
_exptl_crystal_colour 'colorless'
_exptl_crystal_density_diffrn 1.317
_exptl_crystal_description 'rectangular'
_diffrn_ambient_temperature 296
#These two values have been output from a single CSD field.
_refine_ls_R_factor_gt 0.0319
_refine_ls_wR_factor_gt 0.0319
_symmetry_cell_setting orthorhombic
_symmetry_space_group_name_H-M 'P 21 21 21'
_symmetry_Int_Tables_number 19
loop_
_symmetry_equiv_pos_site_id
_symmetry_equiv_pos_as_xyz
1 x,y,z
2 1/2-x,-y,1/2+z
3 -x,1/2+y,1/2-z
4 1/2+x,1/2-y,-z
_cell_length_a 6.5854(2)
_cell_length_b 16.3469(5)
_cell_length_c 17.4873(4)
_cell_angle_alpha 90
_cell_angle_beta 90
_cell_angle_gamma 90
_cell_formula_units_Z 4
loop_
_atom_type_symbol
_atom_type_radius_bond
C 0.68
H 0.23
N 0.68
O 0.68
loop_
_atom_site_label
_atom_site_type_symbol
_atom_site_fract_x
_atom_site_fract_y
_atom_site_fract_z
C1 C 1.5373(6) 0.9860(2) 0.22897(18)
H1 H 1.61370 0.94100 0.25070
H2 H 1.52710 0.97840 0.17410
C2 C 1.3290(5) 0.99244(18) 0.26509(14)
H3 H 1.23030 1.01560 0.22920
C3 C 1.2344(5) 0.92415(19) 0.31242(15)
H4 H 1.14660 0.88970 0.28170
H5 H 1.33720 0.89060 0.33680
C4 C 1.0329(4) 0.92793(16) 0.43328(14)
H6 H 1.13960 0.91070 0.46790
H7 H 0.95990 0.87980 0.41600
C5 C 0.8896(4) 0.98658(16) 0.47304(13)
H8 H 0.76860 0.99320 0.44100
C6 C 0.9773(3) 1.07033(16) 0.48874(13)
H9 H 0.86680 1.10880 0.49930
C7 C 1.2312(4) 1.14278(16) 0.54675(14)
C8 C 1.1138(4) 1.10524(14) 0.42664(13)
H10 H 1.03300 1.13000 0.38570
C9 C 1.2489(3) 1.03825(14) 0.39552(12)
H11 H 1.33410 1.01760 0.43720
C10 C 1.3805(4) 1.05207(15) 0.32669(12)
C11 C 0.6613(3) 0.90420(15) 0.54562(13)
C12 C 0.4765(3) 0.82439(14) 0.64365(12)
C13 C 0.3131(4) 0.80073(17) 0.59982(15)
H12 H 0.31010 0.81260 0.54780
C14 C 0.1542(4) 0.75941(19) 0.63328(17)
H13 H 0.04290 0.74440 0.60370
C15 C 0.1574(5) 0.74012(19) 0.70919(17)
H14 H 0.04810 0.71310 0.73150
C16 C 0.3229(5) 0.76099(19) 0.75207(16)
H15 H 0.32740 0.74670 0.80350
C17 C 0.4829(4) 0.80283(17) 0.72003(13)
H16 H 0.59500 0.81660 0.74970
C18 C 1.1373(5) 1.21087(19) 0.59335(17)
H17 H 0.99770 1.21760 0.57880
H18 H 1.20960 1.26090 0.58410
H19 H 1.14480 1.19740 0.64670
C19 C 1.4455(4) 1.1236(2) 0.57132(17)
H20 H 1.44520 1.10530 0.62350
H21 H 1.52760 1.17200 0.56700
H22 H 1.50030 1.08150 0.53910
N1 N 1.5466(3) 1.08927(14) 0.31912(11)
N2 N 1.1184(3) 0.97159(12) 0.36868(11)
N3 N 0.6410(3) 0.87045(15) 0.61562(12)
O1 O 1.6308(3) 1.06362(13) 0.24707(10)
O2 O 0.8274(2) 0.95287(12) 0.54576(9)
O3 O 0.5521(3) 0.89495(12) 0.49137(9)
O4 O 1.1147(2) 1.06937(10) 0.55186(9)
O5 O 1.2252(3) 1.16574(10) 0.46699(9)
H23 H 0.725(4) 0.8843(18) 0.6500(15)
#END
