
#######################################################################
#
#                 Cambridge Crystallographic Data Centre
#                                CCDC
#
#######################################################################
#
# If this CIF has been generated from an entry in the Cambridge
# Structural Database, then it will include bibliographic, chemical,
# crystal, experimental, refinement or atomic coordinate data resulting
# from the CCDC's data processing and validation procedures.
#
#######################################################################

data_CSD_CIF_DEQROJ
_audit_creation_date 2018-02-08
_audit_creation_method CSD-ConQuest-V1
_database_code_CSD DEQROJ
_database_code_depnum_ccdc_archive 'CCDC 1822906'
_chemical_formula_sum 'C22 H29 N3 O5'
_chemical_formula_moiety
;
C22 H29 N3 O5
;
_journal_coden_Cambridge 35
_journal_volume 83
_journal_year 2018
_journal_page_first 1558
_journal_name_full 'J.Org.Chem. '
loop_
_publ_author_name
"S.S.Prasad"
"S.Baskaran"
_chemical_name_systematic
;
1-(3a,9,9-trimethyl-3,3a,4,5,7,7a,10a,10b-octahydro-9H-[1,3]dioxolo[4,5-a][1,2
]oxazolo[4,3-g]indolizin-7-yl)ethyl phenylcarbamate
;
_cell_volume   2204.637
_exptl_crystal_colour 'colorless'
_exptl_crystal_density_diffrn 1.252
_exptl_crystal_description 'Rectangular'
_diffrn_ambient_temperature 296
#These two values have been output from a single CSD field.
_refine_ls_R_factor_gt 0.0421
_refine_ls_wR_factor_gt 0.0421
_symmetry_cell_setting orthorhombic
_symmetry_space_group_name_H-M 'P 21 21 21'
_symmetry_Int_Tables_number 19
loop_
_symmetry_equiv_pos_site_id
_symmetry_equiv_pos_as_xyz
1 x,y,z
2 1/2-x,-y,1/2+z
3 -x,1/2+y,1/2-z
4 1/2+x,1/2-y,-z
_cell_length_a 10.8260(4)
_cell_length_b 10.8361(4)
_cell_length_c 18.7930(6)
_cell_angle_alpha 90
_cell_angle_beta 90
_cell_angle_gamma 90
_cell_formula_units_Z 4
loop_
_atom_type_symbol
_atom_type_radius_bond
C 0.68
H 0.23
N 0.68
O 0.68
loop_
_atom_site_label
_atom_site_type_symbol
_atom_site_fract_x
_atom_site_fract_y
_atom_site_fract_z
C1 C 0.3527(4) 0.0737(4) 0.73195(18)
H1 H 0.29640 0.13520 0.74360
C2 C 0.4028(5) -0.0026(5) 0.7848(2)
H2 H 0.37900 0.00840 0.83190
C3 C 0.4859(5) -0.0929(5) 0.7681(3)
H3 H 0.51980 -0.14210 0.80360
C4 C 0.5184(4) -0.1097(4) 0.6992(2)
H4 H 0.57320 -0.17260 0.68750
C5 C 0.4720(4) -0.0356(3) 0.6460(2)
H5 H 0.49690 -0.04730 0.59920
C6 C 0.3886(3) 0.0559(3) 0.66247(16)
C7 C 0.3509(3) 0.1333(3) 0.54023(17)
C8 C 0.2761(3) 0.2388(3) 0.43629(15)
H6 H 0.29700 0.15900 0.41490
C9 C 0.3645(3) 0.3373(3) 0.40898(15)
H7 H 0.44940 0.30630 0.41220
C10 C 0.3619(4) 0.2787(3) 0.28024(16)
H8 H 0.31810 0.20310 0.29170
H9 H 0.44950 0.26030 0.27840
C11 C 0.3188(4) 0.3273(3) 0.20817(17)
H10 H 0.22990 0.33820 0.20920
H11 H 0.33790 0.26690 0.17170
C12 C 0.3803(3) 0.4507(3) 0.18886(16)
C13 C 0.3097(5) 0.5301(4) 0.1362(2)
H12 H 0.34950 0.52870 0.08990
H13 H 0.22560 0.50060 0.13090
C14 C 0.3731(3) 0.5341(3) 0.25196(15)
C15 C 0.4058(3) 0.4865(3) 0.32375(15)
H14 H 0.49470 0.46960 0.32540
C16 C 0.3696(3) 0.5605(3) 0.38881(16)
H15 H 0.29200 0.60510 0.38120
C17 C 0.4948(4) 0.6085(4) 0.48382(19)
C18 C 0.3560(3) 0.4620(3) 0.44708(15)
H16 H 0.27800 0.47080 0.47300
C19 C 0.1412(4) 0.2664(4) 0.42385(18)
H17 H 0.09200 0.20030 0.44260
H18 H 0.12630 0.27440 0.37370
H19 H 0.11970 0.34210 0.44740
C20 C 0.5150(4) 0.4333(4) 0.16578(19)
H20 H 0.55110 0.51230 0.15580
H21 H 0.51780 0.38290 0.12380
H22 H 0.56030 0.39380 0.20330
C21 C 0.6312(4) 0.6192(6) 0.4929(3)
H23 H 0.65370 0.59300 0.54000
H24 H 0.65580 0.70350 0.48620
H25 H 0.67200 0.56800 0.45850
C22 C 0.4249(5) 0.6900(4) 0.5341(2)
H26 H 0.33790 0.68210 0.52530
H27 H 0.44960 0.77420 0.52710
H28 H 0.44250 0.66580 0.58220
N1 N 0.3382(3) 0.1377(3) 0.61199(14)
N2 N 0.3355(3) 0.6434(3) 0.24024(13)
N3 N 0.3380(3) 0.3713(2) 0.33495(12)
O1 O 0.4035(2) 0.0563(2) 0.50536(12)
O2 O 0.2924(2) 0.2320(2) 0.51290(11)
O3 O 0.3108(3) 0.6534(2) 0.16542(11)
O4 O 0.4641(3) 0.6404(2) 0.41293(12)
O5 O 0.4597(3) 0.4844(2) 0.49191(12)
H29 H 0.293(3) 0.201(3) 0.6282(18)
#END
