
#######################################################################
#
#                 Cambridge Crystallographic Data Centre
#                                CCDC
#
#######################################################################
#
# If this CIF has been generated from an entry in the Cambridge
# Structural Database, then it will include bibliographic, chemical,
# crystal, experimental, refinement or atomic coordinate data resulting
# from the CCDC's data processing and validation procedures.
#
#######################################################################

data_CSD_CIF_DERBAG
_audit_creation_date 2018-02-08
_audit_creation_method CSD-ConQuest-V1
_database_code_CSD DERBAG
_database_code_depnum_ccdc_archive 'CCDC 1583343'
_chemical_formula_sum 'C18 H17 N1 O2'
_chemical_formula_moiety
;
C18 H17 N1 O2
;
_journal_coden_Cambridge 35
_journal_volume 83
_journal_year 2018
_journal_page_first 1614
_journal_name_full 'J.Org.Chem. '
loop_
_publ_author_name
"H.Tanimoto"
"Sho Ueda"
"T.Morimoto"
"K.Kakiuchi"
_chemical_name_systematic
;
2-(diphenylmethylidene)-N-hydroxyoxan-3-imine
;
_cell_volume   2922.907
_exptl_crystal_colour 'colorless'
_exptl_crystal_density_diffrn 1.269
_exptl_crystal_description 'prism'
_diffrn_ambient_temperature 123
#These two values have been output from a single CSD field.
_refine_ls_R_factor_gt 0.0517
_refine_ls_wR_factor_gt 0.0517
_symmetry_cell_setting triclinic
_symmetry_space_group_name_H-M 'P -1'
_symmetry_Int_Tables_number 2
loop_
_symmetry_equiv_pos_site_id
_symmetry_equiv_pos_as_xyz
1 x,y,z
2 -x,-y,-z
_cell_length_a 10.7260(2)
_cell_length_b 17.1030(3)
_cell_length_c 17.9943(3)
_cell_angle_alpha 69.762(5)
_cell_angle_beta 72.864(5)
_cell_angle_gamma 75.943(5)
_cell_formula_units_Z 8
loop_
_atom_type_symbol
_atom_type_radius_bond
C 0.68
H 0.23
N 0.68
O 0.68
loop_
_atom_site_label
_atom_site_type_symbol
_atom_site_fract_x
_atom_site_fract_y
_atom_site_fract_z
O1 O 0.44928(10) 0.38810(6) 0.79487(6)
O2 O 0.55753(11) 0.40194(6) 0.52563(6)
H1 H 0.56848 0.43899 0.48016
N1 N 0.48537(11) 0.44008(7) 0.58636(7)
C1 C 0.39482(13) 0.41973(8) 0.72735(8)
C2 C 0.47233(13) 0.38728(8) 0.65780(8)
C3 C 0.53497(16) 0.29601(8) 0.67604(9)
H2 H 0.60811 0.28781 0.62938
H3 H 0.46876 0.26069 0.68382
C4 C 0.58841(15) 0.26824(9) 0.75293(9)
H4 H 0.61071 0.20596 0.77110
H5 H 0.67005 0.29216 0.74061
C5 C 0.48761(15) 0.29759(9) 0.81947(9)
H6 H 0.40862 0.27026 0.83435
H7 H 0.52440 0.28031 0.86820
C6 C 0.28473(13) 0.47788(8) 0.72902(8)
C7 C 0.21621(13) 0.51327(8) 0.66052(8)
C8 C 0.18397(13) 0.60057(8) 0.62912(8)
H8 H 0.20281 0.63665 0.65304
C9 C 0.12450(14) 0.63555(9) 0.56313(9)
H9 H 0.10470 0.69509 0.54168
C10 C 0.09434(15) 0.58346(10) 0.52890(9)
H10 H 0.05532 0.60709 0.48331
C11 C 0.12137(15) 0.49656(10) 0.56148(9)
H11 H 0.09894 0.46077 0.53875
C12 C 0.18094(14) 0.46148(9) 0.62704(9)
H12 H 0.19786 0.40189 0.64931
C13 C 0.22638(13) 0.51160(8) 0.79985(8)
C14 C 0.30371(15) 0.53908(9) 0.83326(8)
H13 H 0.39673 0.53323 0.81257
C15 C 0.24623(17) 0.57494(9) 0.89650(9)
H14 H 0.29997 0.59442 0.91782
C16 C 0.11112(17) 0.58238(9) 0.92848(9)
H15 H 0.07214 0.60658 0.97186
C17 C 0.03320(16) 0.55433(9) 0.89684(9)
H16 H -0.05938 0.55853 0.91909
C18 C 0.09014(14) 0.52000(9) 0.83251(8)
H17 H 0.03558 0.50201 0.81049
O3 O 0.88479(10) -0.12356(6) 0.79916(6)
O4 O 1.04053(10) -0.10051(6) 0.52689(6)
H18 H 1.06147 -0.06430 0.48175
N2 N 0.96978(11) -0.05972(7) 0.58581(7)
C19 C 0.85618(13) -0.08127(8) 0.72428(8)
C20 C 0.93755(13) -0.11356(8) 0.65566(8)
C21 C 0.98039(15) -0.20702(8) 0.67054(8)
H19 H 1.07730 -0.21907 0.65038
H20 H 0.93796 -0.22733 0.64020
C22 C 0.94246(16) -0.25343(9) 0.76099(9)
H21 H 0.84746 -0.25841 0.77750
H22 H 0.99422 -0.31093 0.77267
C23 C 0.97098(16) -0.20389(9) 0.80771(9)
H23 H 0.95821 -0.23672 0.86602
H24 H 1.06412 -0.19447 0.78708
C24 C 0.75693(13) -0.01502(8) 0.71923(8)
C25 C 0.70726(12) 0.02743(8) 0.64356(8)
C26 C 0.69281(13) 0.11503(8) 0.61144(8)
H25 H 0.71513 0.14717 0.63806
C27 C 0.64621(15) 0.15618(9) 0.54095(9)
H26 H 0.63712 0.21591 0.51977
C28 C 0.61309(15) 0.10994(11) 0.50172(9)
H27 H 0.58221 0.13763 0.45326
C29 C 0.62547(15) 0.02281(10) 0.53387(10)
H28 H 0.60316 -0.00913 0.50706
C30 C 0.67011(14) -0.01818(9) 0.60480(9)
H29 H 0.67539 -0.07768 0.62706
C31 C 0.68620(14) 0.01734(8) 0.78993(8)
C32 C 0.75216(18) 0.03219(9) 0.83839(9)
H30 H 0.84592 0.02076 0.82718
C33 C 0.6820(2) 0.0637(1) 0.90331(10)
H31 H 0.72819 0.07354 0.93606
C34 C 0.5455(2) 0.08073(10) 0.92031(9)
H32 H 0.49805 0.10164 0.96499
C35 C 0.47844(19) 0.06732(11) 0.87234(11)
H33 H 0.38470 0.07920 0.88371
C36 C 0.54816(16) 0.03645(10) 0.80739(10)
H34 H 0.50132 0.02810 0.77411
O5 O 0.13751(10) 0.62540(6) 0.30654(5)
O6 O 0.30536(10) 0.64906(6) 0.03535(6)
H35 H 0.32296 0.68561 -0.00998
N3 N 0.22888(11) 0.68879(7) 0.09407(7)
C37 C 0.10980(13) 0.66651(8) 0.23132(7)
C38 C 0.19440(13) 0.63437(8) 0.16328(8)
C39 C 0.23886(15) 0.54100(8) 0.17854(8)
H36 H 0.33607 0.52944 0.15945
H37 H 0.19860 0.52011 0.14754
C40 C 0.19876(16) 0.49498(9) 0.26884(9)
H38 H 0.10401 0.48956 0.28424
H39 H 0.25095 0.43765 0.28117
C41 C 0.22379(15) 0.54493(9) 0.31620(9)
H40 H 0.20902 0.51231 0.37461
H41 H 0.31695 0.55436 0.29693
C42 C 0.01027(13) 0.73255(8) 0.22495(8)
C43 C -0.04004(12) 0.77207(8) 0.14919(8)
C44 C -0.05582(13) 0.85961(8) 0.11442(8)
H42 H -0.03378 0.89381 0.13904
C45 C -0.10359(14) 0.89719(9) 0.04395(9)
H43 H -0.11353 0.95675 0.02074
C46 C -0.13669(15) 0.84808(10) 0.00758(9)
H44 H -0.16804 0.87360 -0.04090
C47 C -0.12359(15) 0.76139(10) 0.04264(9)
H45 H -0.14644 0.72744 0.01810
C48 C -0.07734(14) 0.72367(9) 0.11333(9)
H46 H -0.07106 0.66432 0.13748
C49 C -0.06005(14) 0.76762(8) 0.29386(8)
C50 C 0.00830(18) 0.78369(9) 0.34069(9)
H47 H 0.10183 0.76970 0.33036
C51 C -0.0600(2) 0.82022(10) 0.40266(10)
H48 H -0.01259 0.83147 0.43391
C52 C -0.1959(2) 0.84009(10) 0.41878(10)
H49 H -0.24195 0.86460 0.46126
C53 C -0.2651(2) 0.82428(10) 0.37304(11)
H50 H -0.35874 0.83748 0.38435
C54 C -0.19749(16) 0.78911(9) 0.31057(10)
H51 H -0.24550 0.77950 0.27866
O7 O 0.70569(10) 0.14327(6) 0.28474(6)
O8 O 0.78937(10) 0.15085(6) 0.01727(6)
H52 H 0.80141 0.18725 -0.02857
N4 N 0.72622(11) 0.19100(7) 0.07761(7)
C55 C 0.64702(13) 0.17322(8) 0.21887(8)
C56 C 0.71956(13) 0.13957(8) 0.14951(8)
C57 C 0.78332(15) 0.04842(8) 0.16802(8)
H53 H 0.85368 0.03972 0.12034
H54 H 0.71661 0.01235 0.17878
C58 C 0.84277(14) 0.02288(9) 0.24240(8)
H55 H 0.86673 -0.03927 0.26115
H56 H 0.92417 0.04791 0.22719
C59 C 0.74533(15) 0.05272(9) 0.30997(8)
H57 H 0.66638 0.02480 0.32731
H58 H 0.78547 0.03647 0.35723
C60 C 0.53594(13) 0.23071(8) 0.22226(8)
C61 C 0.46440(13) 0.26633(8) 0.15521(8)
C62 C 0.43338(13) 0.35376(8) 0.12403(8)
H59 H 0.45408 0.38944 0.14763
C63 C 0.37254(14) 0.38932(9) 0.05884(8)
H60 H 0.35391 0.44892 0.03735
C64 C 0.33918(14) 0.33776(10) 0.02533(9)
H61 H 0.29933 0.36178 -0.01990
C65 C 0.36434(14) 0.25065(10) 0.05826(9)
H62 H 0.33922 0.21521 0.03636
C66 C 0.42586(14) 0.21505(9) 0.12288(9)
H63 H 0.44185 0.15544 0.14525
C67 C 0.47928(13) 0.26344(8) 0.29384(8)
C68 C 0.55517(15) 0.29768(9) 0.32208(8)
H64 H 0.64615 0.29864 0.29647
C69 C 0.49862(17) 0.33050(9) 0.38755(9)
H65 H 0.55087 0.35458 0.40566
C70 C 0.36688(17) 0.32820(9) 0.42629(9)
H66 H 0.32889 0.34973 0.47150
C71 C 0.29096(16) 0.29441(9) 0.39884(9)
H67 H 0.20048 0.29251 0.42538
C72 C 0.34621(14) 0.26317(8) 0.33260(8)
H68 H 0.29243 0.24129 0.31345
#END
