
#######################################################################
#
#                 Cambridge Crystallographic Data Centre
#                                CCDC
#
#######################################################################
#
# If this CIF has been generated from an entry in the Cambridge
# Structural Database, then it will include bibliographic, chemical,
# crystal, experimental, refinement or atomic coordinate data resulting
# from the CCDC's data processing and validation procedures.
#
#######################################################################

data_CSD_CIF_DERGIR
_audit_creation_date 2006-12-20
_audit_creation_method CSD-ConQuest-V1
_database_code_CSD DERGIR
_database_code_depnum_ccdc_archive 'CCDC 630937'
_chemical_formula_sum 'C20 H26 N4 O6'
_chemical_formula_moiety
;
C20 H26 N4 O6
;
_journal_coden_Cambridge 1291
_journal_year 2006
_journal_page_first 4003
_journal_name_full 'Eur.J.Org.Chem. '
loop_
_publ_author_name
"Jing He"
"K.Tchabanenko"
"R.M.Adlington"
"A.R.Cowley"
"J.E.Baldwin"
_chemical_name_systematic
;
4-(N-(2,4-Dinitrophenyl)hydrazono)-2-methyl-perhydronaphthalene-1-carboxylic 
acid ethyl ester
;
_cell_volume   2038.774
_exptl_crystal_colour 'orange'
_exptl_crystal_density_diffrn 1.363
_exptl_crystal_description 'octahedron'
_diffrn_ambient_temperature 150
#These two values have been output from a single CSD field.
_refine_ls_R_factor_gt 0.0394
_refine_ls_wR_factor_gt 0.0394
_symmetry_cell_setting monoclinic
_symmetry_space_group_name_H-M 'P 21/c'
_symmetry_Int_Tables_number 14
loop_
_symmetry_equiv_pos_site_id
_symmetry_equiv_pos_as_xyz
1 x,y,z
2 -x,1/2+y,1/2-z
3 -x,-y,-z
4 x,-1/2-y,-1/2+z
_cell_length_a 12.6942(2)
_cell_length_b 11.4021(3)
_cell_length_c 15.3269(7)
_cell_angle_alpha 90
_cell_angle_beta 113.2169(7)
_cell_angle_gamma 90
_cell_formula_units_Z 4
loop_
_atom_type_symbol
_atom_type_radius_bond
C 0.68
H 0.23
N 0.68
O 0.68
loop_
_atom_site_label
_atom_site_type_symbol
_atom_site_fract_x
_atom_site_fract_y
_atom_site_fract_z
C1 C -0.15145(14) 0.39292(15) 0.14174(12)
C2 C -0.03938(14) 0.37416(16) 0.12612(12)
C3 C 0.03072(14) 0.27626(17) 0.19356(14)
C4 C 0.05257(13) 0.30911(15) 0.29424(13)
C5 C -0.05499(13) 0.32463(15) 0.31232(12)
C6 C -0.03393(15) 0.35112(18) 0.41540(14)
C7 C -0.14691(16) 0.36101(19) 0.42880(15)
C8 C -0.22362(16) 0.45358(19) 0.36227(15)
C9 C -0.24435(14) 0.42858(17) 0.25943(14)
C10 C -0.13175(14) 0.41993(15) 0.24484(12)
C11 C -0.22120(15) 0.48748(16) 0.07460(13)
O1 O -0.23425(14) 0.58557(13) 0.09653(11)
O2 O -0.26478(12) 0.44924(13) -0.01505(9)
C12 C -0.32573(19) 0.5367(2) -0.08728(15)
C13 C -0.44812(19) 0.5466(2) -0.09969(18)
C14 C 0.03172(16) 0.48576(19) 0.13878(14)
N1 N 0.14853(11) 0.32963(13) 0.36333(10)
N2 N 0.24611(11) 0.31678(13) 0.34463(11)
C15 C 0.34965(13) 0.32641(14) 0.41624(12)
C16 C 0.45396(13) 0.30832(14) 0.40344(11)
C17 C 0.55995(13) 0.32812(15) 0.47630(12)
C18 C 0.56454(13) 0.36377(15) 0.56294(12)
C19 C 0.46446(15) 0.37640(16) 0.58065(12)
C20 C 0.36005(14) 0.35821(16) 0.50860(13)
N3 N 0.45494(12) 0.26966(14) 0.31389(10)
O3 O 0.54765(11) 0.25766(15) 0.30699(10)
O4 O 0.3627(1) 0.24894(14) 0.24636(9)
N4 N 0.67497(12) 0.39186(13) 0.63785(11)
O5 O 0.67739(12) 0.42200(16) 0.71532(10)
O6 O 0.76136(10) 0.38618(12) 0.61975(10)
H1 H 0.2438(17) 0.2886(19) 0.2887(16)
H2 H -0.19490 0.31730 0.12750
H3 H -0.06070 0.35050 0.05850
H4 H 0.10550 0.26630 0.18690
H5 H -0.01320 0.20100 0.17690
H6 H -0.09530 0.24720 0.29870
H7 H 0.00870 0.42690 0.43440
H8 H 0.01300 0.28650 0.45660
H9 H -0.13040 0.38360 0.49600
H10 H -0.18710 0.28350 0.41460
H11 H -0.29890 0.45450 0.36880
H12 H -0.18600 0.53200 0.38040
H13 H -0.29180 0.49330 0.21880
H14 H -0.28670 0.35270 0.24010
H15 H -0.09270 0.49790 0.26010
H16 H -0.28760 0.61460 -0.06740
H17 H -0.32270 0.51310 -0.14910
H18 H -0.48760 0.60670 -0.14930
H19 H -0.45180 0.57050 -0.03820
H20 H -0.48690 0.46900 -0.11990
H21 H 0.10260 0.46770 0.12780
H22 H 0.05350 0.51640 0.20480
H23 H -0.01440 0.54620 0.09210
H24 H 0.63200 0.31650 0.46560
H25 H 0.46970 0.39850 0.64540
H26 H 0.28910 0.36760 0.52140
#END
