
#######################################################################
#
#                 Cambridge Crystallographic Data Centre
#                                CCDC
#
#######################################################################
#
# If this CIF has been generated from an entry in the Cambridge
# Structural Database, then it will include bibliographic, chemical,
# crystal, experimental, refinement or atomic coordinate data resulting
# from the CCDC's data processing and validation procedures.
#
#######################################################################

data_CSD_CIF_DESBEJ
_audit_creation_date 2006-12-20
_audit_creation_method CSD-ConQuest-V1
_database_code_CSD DESBEJ
_database_code_depnum_ccdc_archive 'CCDC 628032'
_chemical_formula_sum 'C8 H9 N1 O3'
_chemical_formula_moiety
;
C8 H9 N1 O3
;
_journal_coeditor_code "IUCr OB2079"
_journal_coden_Cambridge 1370
_journal_volume 62
_journal_year 2006
_journal_page_first o4955
_journal_name_full 'Acta Crystallogr.,Sect.E:Struct.Rep.Online '
loop_
_publ_author_name
"N.Vembu"
"A.Linden"
"J.Lee"
"J.G.Kelly"
"K.B.Nolan"
"M.Devocelle"
_chemical_name_systematic
;
2-Methoxybenzohydroxamic acid
;
_cell_volume   1575.094
_exptl_crystal_colour 'orange'
_exptl_crystal_density_diffrn 1.41
_exptl_crystal_description 'prism'
_exptl_crystal_preparation 'methanol'
_diffrn_ambient_temperature 160.0
#These two values have been output from a single CSD field.
_refine_ls_R_factor_gt 0.0599
_refine_ls_wR_factor_gt 0.0599
_symmetry_cell_setting monoclinic
_symmetry_space_group_name_H-M 'P 21/c'
_symmetry_Int_Tables_number 14
loop_
_symmetry_equiv_pos_site_id
_symmetry_equiv_pos_as_xyz
1 x,y,z
2 -x,1/2+y,1/2-z
3 -x,-y,-z
4 x,-1/2-y,-1/2+z
_cell_length_a 11.1348(4)
_cell_length_b 16.7669(6)
_cell_length_c 8.8110(3)
_cell_angle_alpha 90
_cell_angle_beta 106.761(2)
_cell_angle_gamma 90
_cell_formula_units_Z 8
loop_
_atom_type_symbol
_atom_type_radius_bond
C 0.68
H 0.23
N 0.68
O 0.68
loop_
_atom_site_label
_atom_site_type_symbol
_atom_site_fract_x
_atom_site_fract_y
_atom_site_fract_z
C1 C 0.46877(17) 0.67641(11) -0.0589(2)
C2 C 0.52475(18) 0.74741(11) -0.0887(2)
C3 C 0.6290(2) 0.74394(15) -0.1456(3)
C4 C 0.6764(2) 0.67180(16) -0.1742(3)
C5 C 0.6213(2) 0.60167(15) -0.1493(3)
C6 C 0.5179(2) 0.60461(13) -0.0919(2)
C7 C 0.36093(18) 0.67076(11) 0.0098(2)
N1 N 0.31835(16) 0.73676(11) 0.0562(2)
O1 O 0.31837(15) 0.60465(8) 0.0319(2)
O2 O 0.21762(15) 0.73401(10) 0.1197(2)
O3 O 0.47187(14) 0.81691(8) -0.06089(19)
C8 C 0.5254(3) 0.89086(15) -0.0897(4)
H1 H 0.664(3) 0.7882(16) -0.160(3)
H2 H 0.751(3) 0.6713(16) -0.214(3)
H3 H 0.654(2) 0.5536(15) -0.172(3)
H4 H 0.476(2) 0.5547(13) -0.072(3)
H5 H 0.332(2) 0.7856(17) 0.027(3)
H6 H 0.221(3) 0.6870(19) 0.182(4)
H7 H 0.523(3) 0.8932(16) -0.197(4)
H8 H 0.608(3) 0.8954(15) -0.014(3)
H9 H 0.471(3) 0.9292(16) -0.068(3)
C9 C 0.84116(17) 0.99531(11) 0.0469(2)
C10 C 0.89664(17) 0.91915(11) 0.0632(2)
C11 C 0.9001(2) 0.87640(13) -0.0711(3)
C12 C 0.8467(2) 0.90831(15) -0.2205(3)
C13 C 0.7883(2) 0.98150(15) -0.2390(3)
C14 C 0.7875(2) 1.02484(14) -0.1056(3)
C15 C 0.84024(17) 1.05009(12) 0.1806(2)
N2 N 0.89328(16) 1.02345(10) 0.3272(2)
O4 O 0.79011(14) 1.11748(9) 0.15592(17)
O5 O 0.91361(15) 1.07628(9) 0.45575(17)
O6 O 0.94344(13) 0.88957(8) 0.21257(17)
C16 C 1.0065(3) 0.81425(14) 0.2352(4)
H10 H 0.943(2) 0.8233(14) -0.052(3)
H11 H 0.850(3) 0.8753(17) -0.310(4)
H12 H 0.748(2) 1.0040(15) -0.347(3)
H13 H 0.745(3) 1.0815(17) -0.120(3)
H14 H 0.944(3) 0.9699(17) 0.348(3)
H15 H 0.830(4) 1.091(2) 0.461(4)
H16 H 1.079(3) 0.8135(17) 0.193(4)
H17 H 1.030(2) 0.8052(13) 0.343(3)
H18 H 0.949(3) 0.7721(17) 0.175(3)
#END
