
#######################################################################
#
#                 Cambridge Crystallographic Data Centre
#                                CCDC
#
#######################################################################
#
# If this CIF has been generated from an entry in the Cambridge
# Structural Database, then it will include bibliographic, chemical,
# crystal, experimental, refinement or atomic coordinate data resulting
# from the CCDC's data processing and validation procedures.
#
#######################################################################

data_CSD_CIF_DESJOA
_audit_creation_date 1986-07-24
_audit_creation_method CSD-ConQuest-V1
_database_code_CSD DESJOA
_chemical_formula_sum 'C21 H14 N4 O8'
_chemical_formula_moiety
;
C21 H14 N4 O8
;
_journal_coden_Cambridge 35
_journal_volume 50
_journal_year 1985
_journal_page_first 5245
_journal_name_full 'J.Org.Chem. '
loop_
_publ_author_name
"J.M.Masnovi"
"J.K.Kochi"
_chemical_name_systematic
;
9-Nitro-9-phenyl-10-trinitromethyl-9,10-dihydroanthracene
;
_cell_volume   1895.723
_exptl_crystal_colour 'colorless'
_exptl_crystal_density_diffrn 1.578
_exptl_special_details
;
The space group is P21/n not P21/m

;
_diffrn_ambient_temperature 111.15
#These two values have been output from a single CSD field.
_refine_ls_R_factor_gt 0.0465
_refine_ls_wR_factor_gt 0.0465
_symmetry_cell_setting monoclinic
_symmetry_space_group_name_H-M 'P 21/n'
_symmetry_Int_Tables_number 14
loop_
_symmetry_equiv_pos_site_id
_symmetry_equiv_pos_as_xyz
1 x,y,z
2 1/2-x,1/2+y,1/2-z
3 -x,-y,-z
4 -1/2+x,-1/2-y,-1/2+z
_cell_length_a 9.119(4)
_cell_length_b 13.211(6)
_cell_length_c 16.037(7)
_cell_angle_alpha 90
_cell_angle_beta 101.12(2)
_cell_angle_gamma 90
_cell_formula_units_Z 4
loop_
_atom_type_symbol
_atom_type_radius_bond
C 0.68
H 0.23
N 0.68
O 0.68
loop_
_atom_site_label
_atom_site_type_symbol
_atom_site_fract_x
_atom_site_fract_y
_atom_site_fract_z
C1 C -0.2527(3) 0.8550(2) 0.4518(2)
C2 C -0.3586(4) 0.9304(3) 0.4267(2)
C3 C -0.3220(4) 1.0179(3) 0.3891(2)
C4 C -0.1782(4) 1.0334(3) 0.3772(2)
C5 C -0.0711(4) 0.9606(2) 0.4037(2)
C6 C -0.1075(3) 0.8706(2) 0.4398(2)
C7 C 0.0122(4) 0.7910(2) 0.4669(2)
C8 C -0.0185(3) 0.7280(2) 0.5409(2)
C9 C 0.1011(4) 0.6879(2) 0.5991(2)
C10 C 0.0779(4) 0.6294(2) 0.6662(2)
C11 C -0.0662(4) 0.6126(2) 0.6782(2)
C12 C -0.1847(4) 0.6549(2) 0.6227(2)
C13 C -0.1629(3) 0.7121(2) 0.5536(2)
C14 C -0.2942(3) 0.7561(2) 0.4912(2)
C15 C -0.3696(3) 0.6796(2) 0.4251(2)
C16 C -0.3604(4) 0.5760(3) 0.4427(2)
C17 C -0.4300(4) 0.5064(3) 0.3841(2)
C18 C -0.5105(4) 0.5380(3) 0.3072(2)
C19 C -0.5199(4) 0.6404(3) 0.2882(2)
C20 C -0.4507(4) 0.7099(3) 0.3470(2)
C21 C 0.0476(3) 0.7283(2) 0.3908(2)
N1 N -0.0825(3) 0.7070(2) 0.3177(2)
O1 O -0.1364(3) 0.7824(2) 0.2808(2)
O2 O -0.1209(3) 0.6212(2) 0.3007(2)
N2 N 0.1603(3) 0.7834(2) 0.3456(2)
O3 O 0.2394(3) 0.8479(2) 0.3847(2)
O4 O 0.1631(3) 0.7540(2) 0.2742(2)
N3 N 0.1230(3) 0.6294(2) 0.4204(2)
O5 O 0.2554(3) 0.6228(2) 0.4208(2)
O6 O 0.0436(3) 0.5656(2) 0.4444(2)
N4 N -0.4074(3) 0.7884(2) 0.5488(2)
O7 O -0.3627(3) 0.8534(2) 0.6031(1)
O8 O -0.5286(3) 0.7486(2) 0.5391(2)
H1 H -0.458(4) 0.919(2) 0.435(2)
H2 H -0.393(3) 1.067(2) 0.372(2)
H3 H -0.152(3) 1.094(2) 0.352(2)
H4 H 0.025(4) 0.974(3) 0.397(2)
H5 H 0.107(3) 0.826(2) 0.485(2)
H6 H 0.193(4) 0.702(2) 0.590(2)
H7 H 0.162(3) 0.606(2) 0.704(2)
H8 H -0.085(3) 0.571(2) 0.725(2)
H9 H -0.283(4) 0.643(2) 0.635(2)
H10 H -0.305(3) 0.555(2) 0.494(2)
H11 H -0.422(4) 0.438(3) 0.398(2)
H12 H -0.561(4) 0.489(3) 0.268(2)
H13 H -0.573(4) 0.661(3) 0.235(2)
H14 H -0.456(4) 0.781(3) 0.331(2)
#END
