
#######################################################################
#
#                 Cambridge Crystallographic Data Centre
#                                CCDC
#
#######################################################################
#
# If this CIF has been generated from an entry in the Cambridge
# Structural Database, then it will include bibliographic, chemical,
# crystal, experimental, refinement or atomic coordinate data resulting
# from the CCDC's data processing and validation procedures.
#
#######################################################################

data_CSD_CIF_DESPAT
_audit_creation_date 2007-03-29
_audit_creation_method CSD-ConQuest-V1
_database_code_CSD DESPAT
_database_code_depnum_ccdc_archive 'CCDC 631794'
_chemical_formula_sum 'C24 H41 N1 O3'
_chemical_formula_moiety
;
C24 H41 N1 O3
;
_journal_coden_Cambridge 1122
_journal_volume 24
_journal_year 2006
_journal_page_first 205
_journal_name_full 'Chin.J.Chem. '
loop_
_publ_author_name
"Ming-An Wang"
"Guang-Zhong Tu"
"Zu-Chao Ma"
"Ning Zhang"
"Dao-Quan Wang"
_chemical_name_systematic
;
2-(2'-oxo-3'-oximidocyclododecyl)cyclododecanone
;
_chemical_melting_point 442.15
_cell_volume   4725.633
_exptl_crystal_density_diffrn 1.101
_exptl_special_details
;
Melting point range 442.15-444.15K

;
_diffrn_ambient_temperature 293
#These two values have been output from a single CSD field.
_refine_ls_R_factor_gt 0.0415
_refine_ls_wR_factor_gt 0.0415
_symmetry_cell_setting monoclinic
_symmetry_space_group_name_H-M 'C 2/c'
_symmetry_Int_Tables_number 15
loop_
_symmetry_equiv_pos_site_id
_symmetry_equiv_pos_as_xyz
1 x,y,z
2 -x,y,1/2-z
3 1/2+x,1/2+y,z
4 1/2-x,1/2+y,1/2-z
5 -x,-y,-z
6 x,-y,-1/2+z
7 -1/2-x,-1/2-y,-z
8 -1/2+x,-1/2-y,-1/2+z
_cell_length_a 11.942(1)
_cell_length_b 15.419(1)
_cell_length_c 25.774(2)
_cell_angle_alpha 90
_cell_angle_beta 95.292(2)
_cell_angle_gamma 90
_cell_formula_units_Z 8
loop_
_atom_type_symbol
_atom_type_radius_bond
C 0.68
H 0.23
N 0.68
O 0.68
loop_
_atom_site_label
_atom_site_type_symbol
_atom_site_fract_x
_atom_site_fract_y
_atom_site_fract_z
O1 O 0.8502(1) -0.0088(1) 0.1312(1)
O2 O 0.6547(1) -0.0318(1) 0.2099(1)
O3 O 0.9252(1) 0.0200(1) 0.3410(1)
N1 N 0.8902(1) -0.0241(1) 0.2951(1)
C1 C 0.7688(1) -0.1446(1) 0.1529(1)
C2 C 0.7780(1) -0.0634(1) 0.1207(1)
C3 C 0.6946(1) -0.0521(1) 0.0734(1)
C4 C 0.7361(2) 0.0047(1) 0.0303(1)
C5 C 0.8400(2) -0.0296(1) 0.0072(1)
C6 C 0.8245(2) -0.1148(1) -0.0219(1)
C7 C 0.9337(2) -0.1540(1) -0.0373(1)
C8 C 1.0113(2) -0.1879(1) 0.0080(1)
C9 C 0.9686(2) -0.2709(1) 0.0327(1)
C10 C 1.0032(2) -0.2812(1) 0.0905(1)
C11 C 0.9539(2) -0.2134(1) 0.1257(1)
C12 C 0.8270(1) -0.2202(1) 0.1266(1)
C13 C 0.8107(1) -0.1294(1) 0.2101(1)
C14 C 0.7439(1) -0.0570(1) 0.2319(1)
C15 C 0.7842(1) -0.0146(1) 0.2826(1)
C16 C 0.7014(1) 0.0344(1) 0.3119(1)
C17 C 0.6232(1) -0.0265(1) 0.3376(1)
C18 C 0.6826(2) -0.0846(1) 0.3790(1)
C19 C 0.6106(2) -0.1588(1) 0.3965(1)
C20 C 0.5832(2) -0.2266(1) 0.3548(1)
C21 C 0.6836(2) -0.2804(1) 0.3426(1)
C22 C 0.6773(2) -0.3182(1) 0.2882(1)
C23 C 0.6866(2) -0.2504(1) 0.2454(1)
C24 C 0.8035(1) -0.2110(1) 0.2445(1)
H1 H 0.68870 -0.15910 0.15180
H2 H 0.62630 -0.02680 0.08440
H3 H 0.67560 -0.10890 0.05890
H4 H 0.67590 0.01060 0.00260
H5 H 0.75260 0.06210 0.04440
H6 H 0.86470 0.01370 -0.01660
H7 H 0.89950 -0.03670 0.03510
H8 H 0.77420 -0.10570 -0.05310
H9 H 0.78900 -0.15600 -0.00010
H10 H 0.91550 -0.20120 -0.06140
H11 H 0.97350 -0.11020 -0.05540
H12 H 1.02110 -0.14330 0.03450
H13 H 1.08440 -0.19960 -0.00410
H14 H 0.88710 -0.27160 0.02730
H15 H 0.99600 -0.32050 0.01450
H16 H 1.08460 -0.27850 0.09600
H17 H 0.98040 -0.33840 0.10120
H18 H 0.98890 -0.22020 0.16100
H19 H 0.97240 -0.15590 0.11380
H20 H 0.81040 -0.27350 0.14430
H21 H 0.79380 -0.22500 0.09090
H22 H 0.88960 -0.11130 0.21170
H23 H 0.65730 0.07250 0.28810
H24 H 0.74200 0.07000 0.33840
H25 H 0.58400 -0.06260 0.31100
H26 H 0.56720 0.00780 0.35340
H27 H 0.70730 -0.04950 0.40910
H28 H 0.74910 -0.10880 0.36550
H29 H 0.64980 -0.18650 0.42670
H30 H 0.54090 -0.13520 0.40700
H31 H 0.55230 -0.19790 0.32310
H32 H 0.52570 -0.26500 0.36600
H33 H 0.75040 -0.24450 0.34770
H34 H 0.69260 -0.32770 0.36750
H35 H 0.60640 -0.34870 0.28150
H36 H 0.73730 -0.36020 0.28660
H37 H 0.66550 -0.27730 0.21190
H38 H 0.63330 -0.20420 0.25000
H39 H 0.85320 -0.25490 0.23250
H40 H 0.83130 -0.19610 0.28000
H41 H 0.9968(13) 0.0134(11) 0.3440(6)
#END
