
#######################################################################
#
#                 Cambridge Crystallographic Data Centre
#                                CCDC
#
#######################################################################
#
# If this CIF has been generated from an entry in the Cambridge
# Structural Database, then it will include bibliographic, chemical,
# crystal, experimental, refinement or atomic coordinate data resulting
# from the CCDC's data processing and validation procedures.
#
#######################################################################

data_CSD_CIF_DESTUQ
_audit_creation_date 1986-09-02
_audit_creation_method CSD-ConQuest-V1
_database_code_CSD DESTUQ
_database_code_depnum_ccdc_archive 'CCDC 1139208'
_chemical_formula_sum 'C20 H29 N1 O5'
_chemical_formula_moiety
;
C20 H29 N1 O5
;
_journal_coden_Cambridge 207
_journal_year 1985
_journal_page_first 2753
_journal_name_full 'J.Chem.Soc.,Perkin Trans.1 '
loop_
_publ_author_name
"M.J.Fray"
"R.H.Jones"
"E.J.Thomas"
_chemical_name_systematic
;
(3RS,4SR,5RS)-2-Benzyl-4-methoxycarbonyl-5-methyl-3-((4RS)-2,2,5,5-tetramethyl
-1,3-dioxolan-4-yl)isoxazolidine
;
_chemical_melting_point 346.65
_cell_volume   1018.520
_exptl_crystal_density_diffrn 1.18
_exptl_special_details
;
Melting point range 346.65-347.15K

;
_diffrn_ambient_temperature ?
_diffrn_special_details
;
The study was carried out at room temperature,in the range 283-303K

;
#These two values have been output from a single CSD field.
_refine_ls_R_factor_gt 0.05
_refine_ls_wR_factor_gt 0.05
_symmetry_cell_setting triclinic
_symmetry_space_group_name_H-M 'P -1'
_symmetry_Int_Tables_number 2
loop_
_symmetry_equiv_pos_site_id
_symmetry_equiv_pos_as_xyz
1 x,y,z
2 -x,-y,-z
_cell_length_a 11.549(2)
_cell_length_b 6.563(1)
_cell_length_c 14.146(2)
_cell_angle_alpha 101.44(1)
_cell_angle_beta 90.38(1)
_cell_angle_gamma 103.89(1)
_cell_formula_units_Z 2
loop_
_atom_type_symbol
_atom_type_radius_bond
C 0.68
H 0.23
N 0.68
O 0.68
loop_
_atom_site_label
_atom_site_type_symbol
_atom_site_fract_x
_atom_site_fract_y
_atom_site_fract_z
O1 O 0.1917(1) 0.8117(2) 0.80562(9)
N1 N 0.1210(1) 0.5940(2) 0.77386(9)
C1 C 0.2042(1) 0.4657(2) 0.79178(9)
C2 C 0.2869(1) 0.6014(2) 0.87987(9)
C3 C 0.2562(1) 0.8217(2) 0.8941(1)
C4 C 0.2779(1) 0.4333(2) 0.70346(9)
O2 O 0.36710(8) 0.3314(2) 0.72573(6)
C5 C 0.4126(1) 0.2506(2) 0.6357(1)
O3 O 0.32110(9) 0.2302(2) 0.56340(7)
C6 C 0.2176(1) 0.2867(2) 0.6089(1)
C7 C 0.5239(1) 0.4089(3) 0.6160(1)
C8 C 0.4345(2) 0.0357(3) 0.6397(1)
C9 C 0.1288(2) 0.0848(4) 0.6229(1)
C10 C 0.1657(2) 0.4023(4) 0.5431(1)
C11 C 0.2718(1) 0.5141(2) 0.9709(1)
O4 O 0.1848(1) 0.3942(2) 0.99136(9)
O5 O 0.3711(1) 0.5937(2) 1.02809(8)
C12 C 0.3700(2) 0.5319(4) 1.1203(1)
C13 C 0.3640(2) 1.0118(3) 0.9072(2)
C14 C 0.0148(1) 0.5635(3) 0.8325(1)
C15 C -0.0736(1) 0.3580(3) 0.7870(1)
C16 C -0.0956(2) 0.1875(4) 0.8323(2)
C17 C -0.1759(3) -0.0033(5) 0.7879(3)
C18 C -0.2331(2) -0.0188(6) 0.6987(3)
C19 C -0.2103(2) 0.1513(6) 0.6543(2)
C20 C -0.1314(2) 0.3404(4) 0.6980(2)
H1 H 0.1595(13) 0.3280(23) 0.8028(11)
H2 H 0.3697(14) 0.6177(26) 0.8646(12)
H3 H 0.2038(15) 0.8321(28) 0.9489(12)
H4 H 0.3145(13) 0.5741(23) 0.6898(11)
H5 H 0.5106(16) 0.5546(29) 0.6211(13)
H6 H 0.5460(16) 0.3660(28) 0.5511(13)
H7 H 0.5924(16) 0.4168(28) 0.6622(13)
H8 H 0.5015(18) 0.0492(30) 0.6916(14)
H9 H 0.3631(17) -0.0274(29) 0.5755(14)
H10 H 0.0543(16) 0.1168(27) 0.6475(13)
H11 H 0.1106(16) -0.0166(28) 0.5615(13)
H12 H 0.1616(16) 0.0189(28) 0.6691(13)
H13 H 0.1365(17) 0.3027(30) 0.4804(14)
H14 H 0.0963(18) 0.4513(31) 0.5745(14)
H15 H 0.2236(17) 0.5282(31) 0.5319(14)
H16 H 0.3530(21) 0.3733(35) 1.1135(15)
H17 H 0.4498(19) 0.5896(36) 1.1510(15)
H18 H 0.3132(20) 0.5838(35) 1.1624(15)
H19 H 0.4047(19) 1.0389(34) 0.9716(16)
H20 H 0.3370(19) 1.1423(34) 0.9009(16)
H21 H 0.4212(19) 0.9814(33) 0.8565(16)
H22 H -0.0249(15) 0.6875(28) 0.8322(12)
H23 H 0.0351(15) 0.5606(28) 0.9030(13)
H24 H -0.0489(24) 0.1962(29) 0.8939(18)
H25 H -0.1905(24) -0.1239(35) 0.8206(16)
H26 H -0.2861(25) -0.1516(36) 0.6667(15)
H27 H -0.2542(24) 0.1408(29) 0.5919(18)
H28 H -0.1116(23) 0.4681(35) 0.6644(15)
#END
