
#######################################################################
#
#                 Cambridge Crystallographic Data Centre
#                                CCDC
#
#######################################################################
#
# If this CIF has been generated from an entry in the Cambridge
# Structural Database, then it will include bibliographic, chemical,
# crystal, experimental, refinement or atomic coordinate data resulting
# from the CCDC's data processing and validation procedures.
#
#######################################################################

data_CSD_CIF_DESVAY
_audit_creation_date 1986-09-02
_audit_creation_method CSD-ConQuest-V1
_database_code_CSD DESVAY
_chemical_formula_sum 'C23 H27 N1 O3'
_chemical_formula_moiety
;
C23 H27 N1 O3
;
_journal_coden_Cambridge 207
_journal_year 1985
_journal_page_first 2763
_journal_name_full 'J.Chem.Soc.,Perkin Trans.1 '
loop_
_publ_author_name
"M.J.Fray"
"E.J.Thomas"
"D.J.Williams"
_chemical_name_systematic
;
(1RS,4RS,5RS,6RS,9SR)-8-Benzyl-4-ethyl-1,5-dimethyl-9-phenyl-3,7-dioxa-8-azabi
cyclo(4.3.0)nonan-2-one
;
_chemical_melting_point 397.15
_cell_volume   2036.961
_exptl_crystal_density_diffrn 1.2
_exptl_special_details
;
Melting point range 397.15-398.15K

;
_diffrn_ambient_temperature ?
_diffrn_special_details
;
The study was carried out at room temperature,in the range 283-303K

;
#These two values have been output from a single CSD field.
_refine_ls_R_factor_gt 0.041
_refine_ls_wR_factor_gt 0.041
_symmetry_cell_setting monoclinic
_symmetry_space_group_name_H-M 'P 21/c'
_symmetry_Int_Tables_number 14
loop_
_symmetry_equiv_pos_site_id
_symmetry_equiv_pos_as_xyz
1 x,y,z
2 -x,1/2+y,1/2-z
3 -x,-y,-z
4 x,-1/2-y,-1/2+z
_cell_length_a 11.501(2)
_cell_length_b 9.439(1)
_cell_length_c 19.587(3)
_cell_angle_alpha 90
_cell_angle_beta 106.67(1)
_cell_angle_gamma 90
_cell_formula_units_Z 4
loop_
_atom_type_symbol
_atom_type_radius_bond
C 0.68
N 0.68
O 0.68
loop_
_atom_site_label
_atom_site_type_symbol
_atom_site_fract_x
_atom_site_fract_y
_atom_site_fract_z
C1 C 0.1764(2) 0.6019(2) 0.1371(1)
C2 C 0.1020(2) 0.6376(2) 0.0618(1)
O1 O -0.0036(1) 0.6715(2) 0.0478(1)
O2 O 0.1539(1) 0.6387(1) 0.0089(1)
C3 C 0.2708(2) 0.5707(2) 0.0160(1)
C4 C 0.2850(2) 0.4472(2) 0.0670(1)
C5 C 0.2844(2) 0.5024(2) 0.1390(1)
O3 O 0.3927(1) 0.5803(2) 0.1736(1)
N1 N 0.3601(1) 0.7284(2) 0.1579(1)
C6 C 0.2439(2) 0.7375(2) 0.1736(1)
C7 C 0.0932(2) 0.5418(3) 0.1774(1)
C8 C 0.2685(2) 0.5328(3) -0.0592(1)
C9 C 0.2570(3) 0.6586(3) -0.1077(1)
C10 C 0.3984(2) 0.3593(3) 0.0727(2)
C11 C 0.4569(2) 0.8089(3) 0.2072(1)
C12 C 0.5662(2) 0.8199(3) 0.1804(1)
C13 C 0.6668(2) 0.7374(3) 0.2074(1)
C14 C 0.7655(3) 0.7453(3) 0.1826(2)
C15 C 0.7666(3) 0.8358(3) 0.1299(2)
C16 C 0.6689(3) 0.9211(4) 0.1005(2)
C17 C 0.5666(3) 0.9136(4) 0.1270(2)
C18 C 0.1806(2) 0.8767(2) 0.1493(1)
C19 C 0.1951(2) 0.9469(2) 0.0905(1)
C20 C 0.1335(2) 1.0705(3) 0.0666(1)
C21 C 0.0553(2) 1.1259(3) 0.1013(1)
C22 C 0.0409(2) 1.0580(3) 0.1597(1)
C23 C 0.1031(2) 0.9338(3) 0.1843(1)
#END
