
#######################################################################
#
#                 Cambridge Crystallographic Data Centre
#                                CCDC
#
#######################################################################
#
# If this CIF has been generated from an entry in the Cambridge
# Structural Database, then it will include bibliographic, chemical,
# crystal, experimental, refinement or atomic coordinate data resulting
# from the CCDC's data processing and validation procedures.
#
#######################################################################

data_CSD_CIF_DETGOX
_audit_creation_date 1986-09-02
_audit_creation_method CSD-ConQuest-V1
_database_code_CSD DETGOX
_database_code_depnum_ccdc_archive 'CCDC 1139283'
_chemical_formula_sum 'C11 H12 N2 O3'
_chemical_formula_moiety
;
C11 H12 N2 O3
;
_journal_coeditor_code "IUCr A25154"
_journal_coden_Cambridge 591
_journal_volume 41
_journal_year 1985
_journal_page_first 1776
_journal_name_full 'Acta Crystallogr.,Sect.C:Cryst.Struct.Commun. '
loop_
_publ_author_name
"Chuen-Her Ueng"
"P.L.Lee"
"Y.Wang"
"Mou-Yung Yeh"
_chemical_name_systematic
;
3-(p-Isopropoxyphenyl)sydnone
;
_cell_volume    544.464
_exptl_crystal_density_diffrn 1.34
_diffrn_ambient_temperature ?
_diffrn_special_details
;
The study was carried out at room temperature,in the range 283-303K

;
#These two values have been output from a single CSD field.
_refine_ls_R_factor_gt 0.041
_refine_ls_wR_factor_gt 0.041
_symmetry_cell_setting triclinic
_symmetry_space_group_name_H-M 'P -1'
_symmetry_Int_Tables_number 2
loop_
_symmetry_equiv_pos_site_id
_symmetry_equiv_pos_as_xyz
1 x,y,z
2 -x,-y,-z
_cell_length_a 6.916(1)
_cell_length_b 8.089(1)
_cell_length_c 10.820(2)
_cell_angle_alpha 108.49(1)
_cell_angle_beta 82.89(1)
_cell_angle_gamma 108.42(1)
_cell_formula_units_Z 2
loop_
_atom_type_symbol
_atom_type_radius_bond
C 0.68
H 0.23
N 0.68
O 0.68
loop_
_atom_site_label
_atom_site_type_symbol
_atom_site_fract_x
_atom_site_fract_y
_atom_site_fract_z
C1 C 0.9012(3) 0.3407(2) 0.1178(2)
C2 C 1.0011(3) 0.2292(3) 0.1397(2)
C3 C 1.1629(3) 0.3067(3) 0.2214(2)
C4 C 1.2250(3) 0.4939(3) 0.2817(2)
C5 C 1.1186(3) 0.6024(3) 0.2624(2)
C6 C 0.9563(3) 0.5258(2) 0.1786(2)
C7 C 0.5864(3) 0.3316(3) 0.0239(2)
C8 C 0.4677(3) 0.2139(3) -0.0830(2)
C9 C 1.4483(3) 0.7398(3) 0.4442(2)
C10 C 1.3082(4) 0.7463(3) 0.5622(2)
C11 C 1.6681(4) 0.7825(3) 0.4746(2)
N1 N 0.7368(3) 0.2632(2) 0.0275(1)
N2 N 0.7355(3) 0.1108(2) -0.0647(2)
O1 O 0.5654(2) 0.0752(2) -0.1351(1)
O2 O 0.3192(2) 0.2068(2) -0.1355(2)
O3 O 1.3948(2) 0.5557(2) 0.3545(1)
H1 H 0.95150 0.09310 0.09970
H2 H 1.24470 0.23340 0.24010
H3 H 1.15880 0.73630 0.30740
H4 H 0.88180 0.60620 0.16050
H5 H 0.56430 0.43860 0.09780
H6 H 1.43300 0.82650 0.39200
H7 H 1.16040 0.71090 0.53850
H8 H 1.33310 0.87400 0.62690
H9 H 1.31900 0.66140 0.60360
H10 H 1.70660 0.90330 0.54170
H11 H 1.76910 0.77810 0.39130
H12 H 1.70580 0.68210 0.49810
#END
