
#######################################################################
#
#                 Cambridge Crystallographic Data Centre
#                                CCDC
#
#######################################################################
#
# If this CIF has been generated from an entry in the Cambridge
# Structural Database, then it will include bibliographic, chemical,
# crystal, experimental, refinement or atomic coordinate data resulting
# from the CCDC's data processing and validation procedures.
#
#######################################################################

data_CSD_CIF_DETPUO
_audit_creation_date 2007-03-29
_audit_creation_method CSD-ConQuest-V1
_database_code_CSD DETPUO
_database_code_depnum_ccdc_archive 'CCDC 606887'
_chemical_formula_sum 'C13 H21 N1 O1'
_chemical_formula_moiety
;
C13 H21 N1 O1
;
_journal_coden_Cambridge 1291
_journal_year 2006
_journal_page_first 5485
_journal_name_full 'Eur.J.Org.Chem. '
loop_
_publ_author_name
"M.Marradi"
"A.Brandi"
"J.Magull"
"H.Schill"
"A.de Meijere"
_chemical_name_systematic
;
(3aR*,5aS*,6aS*)-3-t-Butyl-3,3a,4,5,5a,6-hexahydro-spiro((cyclopropa(2,3)cyclo
penta(1,2-c)isoxazole)-1,1'-cyclopropane)
;
_chemical_melting_point 327.15
_cell_volume   1182.135
_exptl_crystal_colour 'colorless'
_exptl_crystal_density_diffrn 1.165
_exptl_special_details
;
Melting point range 327.15-328.15K

;
_diffrn_ambient_temperature 133
#These two values have been output from a single CSD field.
_refine_ls_R_factor_gt 0.0396
_refine_ls_wR_factor_gt 0.0396
_symmetry_cell_setting triclinic
_symmetry_space_group_name_H-M 'P -1'
_symmetry_Int_Tables_number 2
loop_
_symmetry_equiv_pos_site_id
_symmetry_equiv_pos_as_xyz
1 x,y,z
2 -x,-y,-z
_cell_length_a 9.0976(8)
_cell_length_b 10.3784(9)
_cell_length_c 13.1544(13)
_cell_angle_alpha 104.445(7)
_cell_angle_beta 100.171(7)
_cell_angle_gamma 90.419(7)
_cell_formula_units_Z 4
loop_
_atom_type_symbol
_atom_type_radius_bond
C 0.68
H 0.23
N 0.68
O 0.68
loop_
_atom_site_label
_atom_site_type_symbol
_atom_site_fract_x
_atom_site_fract_y
_atom_site_fract_z
C1 C 0.26597(17) 0.60409(15) 0.13550(12)
O1 O 0.16733(12) 0.58401(11) 0.20336(9)
N1 N 0.18276(14) 0.70449(13) 0.2962(1)
C2 C 0.28292(17) 0.80288(15) 0.27266(12)
H1 H 0.22550 0.86600 0.23660
C3 C 0.39825(18) 0.87603(17) 0.37043(13)
H2 H 0.35440 0.89270 0.43590
H3 H 0.43280 0.96250 0.36140
C4 C 0.5289(2) 0.78347(19) 0.37763(15)
H4 H 0.62550 0.83600 0.40380
H5 H 0.51740 0.72720 0.42670
C5 C 0.52221(18) 0.69859(17) 0.26530(14)
H6 H 0.56350 0.60820 0.25520
C6 C 0.51016(18) 0.76632(17) 0.17484(14)
H7 H 0.52880 0.86430 0.19380
H8 H 0.54350 0.71790 0.10860
C7 C 0.37234(17) 0.71307(15) 0.20034(12)
C8 C 0.2051(2) 0.58865(17) 0.01941(13)
H9 H 0.25030 0.64670 -0.01750
H10 H 0.09670 0.56630 -0.00610
C9 C 0.3011(2) 0.48387(17) 0.05725(13)
H11 H 0.25100 0.39770 0.05430
H12 H 0.40450 0.47810 0.04300
C10 C 0.02648(17) 0.74332(16) 0.30245(13)
C11 C 0.03651(19) 0.86700(18) 0.39544(14)
H13 H 0.09390 0.84860 0.46020
H14 H -0.06440 0.89070 0.40700
H15 H 0.08650 0.94120 0.37890
C12 C -0.06020(19) 0.77207(18) 0.20033(14)
H16 H -0.01070 0.84790 0.18570
H17 H -0.16260 0.79330 0.20960
H18 H -0.06280 0.69350 0.14040
C13 C -0.05366(19) 0.62913(18) 0.32851(15)
H19 H 0.00680 0.60580 0.39010
H20 H -0.06800 0.55150 0.26680
H21 H -0.15120 0.65690 0.34540
C14 C 0.30457(17) 1.10215(15) 0.12839(12)
O2 O 0.44201(12) 1.08418(10) 0.19184(9)
N2 N 0.47463(14) 1.20101(12) 0.28787(10)
C15 C 0.36158(17) 1.29913(15) 0.26872(12)
H22 H 0.39850 1.36520 0.23400
C16 C 0.29943(18) 1.36652(17) 0.36887(13)
H23 H 0.25870 1.45300 0.36270
H24 H 0.37900 1.38240 0.43320
C17 C 0.1751(2) 1.27002(19) 0.37590(14)
H25 H 0.21470 1.21130 0.42210
H26 H 0.09310 1.31970 0.40540
C18 C 0.12009(18) 1.18961(17) 0.26288(13)
H27 H 0.07390 1.09810 0.25110
C19 C 0.08193(17) 1.26147(17) 0.17515(14)
H28 H 0.01260 1.21450 0.10910
H29 H 0.07320 1.35910 0.19670
C20 C 0.23390(16) 1.20909(15) 0.19661(12)
C21 C 0.2979(2) 1.08554(17) 0.01132(13)
H30 H 0.39070 1.06390 -0.01740
H31 H 0.23110 1.14240 -0.02430
C22 C 0.22597(19) 0.98072(17) 0.05292(13)
H32 H 0.11540 0.97370 0.04220
H33 H 0.27500 0.89520 0.04910
C23 C 0.63361(17) 1.24397(16) 0.29348(12)
C24 C 0.72823(18) 1.12708(18) 0.31055(14)
H34 H 0.70030 1.09510 0.36900
H35 H 0.83430 1.15660 0.32870
H36 H 0.71060 1.05480 0.24490
C25 C 0.66343(19) 1.28301(17) 0.19382(14)
H37 H 0.61020 1.36300 0.18670
H38 H 0.62820 1.20980 0.13050
H39 H 0.77100 1.30130 0.20050
C26 C 0.67364(19) 1.36176(18) 0.39147(14)
H40 H 0.61120 1.43580 0.38160
H41 H 0.77930 1.39000 0.40080
H42 H 0.65620 1.33510 0.45490
#END
