
#######################################################################
#
#                 Cambridge Crystallographic Data Centre
#                                CCDC
#
#######################################################################
#
# If this CIF has been generated from an entry in the Cambridge
# Structural Database, then it will include bibliographic, chemical,
# crystal, experimental, refinement or atomic coordinate data resulting
# from the CCDC's data processing and validation procedures.
#
#######################################################################

data_CSD_CIF_DETQUP
_audit_creation_date 2007-03-29
_audit_creation_method CSD-ConQuest-V1
_database_code_CSD DETQUP
_database_code_depnum_ccdc_archive 'CCDC 604935'
_chemical_formula_sum 'C30 H28 N2 O4'
_chemical_formula_moiety
;
C30 H28 N2 O4
;
_journal_coden_Cambridge 16
_journal_volume 63
_journal_year 2007
_journal_page_first 652
_journal_name_full 'Tetrahedron '
loop_
_publ_author_name
"M.Tanaka"
"T.Haino"
"K.Ideta"
"K.Kubo"
"A.Mori"
"Y.Fukazawa"
_chemical_name_systematic
;
3-(4-(4-Heptyloxybenzoyloxy)phenyl)-5-(4-cyanophenyl)isoxazole
;
_cell_volume   2488.595
_exptl_crystal_density_diffrn 1.283
_diffrn_ambient_temperature 273.2
#These two values have been output from a single CSD field.
_refine_ls_R_factor_gt 0.0926
_refine_ls_wR_factor_gt 0.0926
_symmetry_cell_setting monoclinic
_symmetry_space_group_name_H-M 'P 21'
_symmetry_Int_Tables_number 4
loop_
_symmetry_equiv_pos_site_id
_symmetry_equiv_pos_as_xyz
1 x,y,z
2 -x,1/2+y,-z
_cell_length_a 8.222(6)
_cell_length_b 5.964(5)
_cell_length_c 50.82(4)
_cell_angle_alpha 90
_cell_angle_beta 93.00(1)
_cell_angle_gamma 90
_cell_formula_units_Z 4
loop_
_atom_type_symbol
_atom_type_radius_bond
C 0.68
H 0.23
N 0.68
O 0.68
loop_
_atom_site_label
_atom_site_type_symbol
_atom_site_fract_x
_atom_site_fract_y
_atom_site_fract_z
O1 O 0.4469(5) 0.2475(8) -0.05303(9)
O2 O 0.7464(6) 0.2518(10) -0.1633(1)
O3 O 0.3750(5) 0.5995(9) -0.0649(1)
O4 O 0.093(2) -0.794(2) -0.4354(2)
O5 O 0.027(2) -0.443(2) -0.4481(2)
O6 O -0.2913(9) -0.445(1) -0.3383(2)
O7 O 0.0737(6) 0.2199(10) 0.0819(1)
O8 O 0.449(2) -0.412(2) -0.5809(2)
N1 N 0.885(1) 0.401(3) -0.6683(2)
N2 N -0.339(1) -0.597(1) 0.1701(2)
N3 N 0.1400(8) 0.311(1) 0.0596(1)
N4 N 0.374(2) -0.501(2) -0.5579(3)
C1 C 0.2104(6) 0.186(1) 0.0166(1)
C2 C 0.5340(7) 0.377(1) -0.0932(1)
C3 C 0.0296(8) 0.003(1) 0.0764(2)
C4 C 0.2927(7) 0.386(1) 0.0121(1)
C5 C 0.2795(7) 0.045(1) -0.0259(1)
C6 C 0.3606(7) 0.248(1) -0.0302(1)
C7 C 0.4476(7) 0.430(1) -0.0689(1)
C8 C 0.6777(8) 0.122(1) -0.1202(2)
C9 C -0.0512(7) -0.113(1) 0.0974(1)
C10 C 0.3673(7) 0.415(1) -0.0117(1)
C11 C 0.2023(7) 0.025(1) -0.0028(1)
C12 C 0.1416(7) 0.151(1) 0.0420(1)
C13 C 0.5343(8) 0.536(1) -0.1126(1)
C14 C 0.6064(8) 0.484(1) -0.1364(2)
C15 C -0.1888(8) -0.450(1) 0.1103(2)
C16 C -0.2047(8) -0.359(1) 0.1352(2)
C17 C -0.1422(9) -0.144(2) 0.1405(2)
C18 C -0.1091(8) -0.331(1) 0.0918(1)
C19 C -0.0638(8) -0.026(1) 0.1219(2)
C20 C 0.865(1) 0.042(2) -0.1968(2)
C21 C 0.7987(9) 0.028(2) -0.1703(2)
C22 C 0.892(1) -0.192(2) -0.2078(2)
C23 C -0.142(2) -0.680(2) -0.3659(3)
C24 C -0.329(2) -0.221(2) -0.3318(3)
C25 C -0.514(1) 0.220(2) -0.2534(2)
C26 C -0.508(1) -0.003(2) -0.2678(2)
C27 C 0.034(3) -0.617(2) -0.4298(4)
C28 C 0.594(2) -0.171(3) -0.6221(3)
C29 C 0.961(1) -0.195(2) -0.2348(2)
C30 C 1.048(1) -0.422(3) -0.2742(2)
C31 C 0.372(2) -0.332(3) -0.5428(3)
C32 C 0.132(2) -0.607(2) -0.4883(3)
C33 C -0.207(2) -0.469(2) -0.3623(2)
C34 C -0.062(2) -0.730(3) -0.3867(4)
C35 C 0.738(2) 0.164(3) -0.6336(3)
C36 C -0.212(2) -0.318(2) -0.3821(3)
C37 C -0.403(1) -0.235(2) -0.3039(2)
C38 C 0.569(2) -0.066(3) -0.5963(3)
C39 C 0.637(2) 0.135(3) -0.5911(4)
C40 C -0.057(2) -0.564(3) -0.4078(3)
C41 C 0.710(2) 0.254(3) -0.6101(4)
C42 C -0.434(1) -0.009(3) -0.2938(2)
C43 C 0.816(2) 0.293(2) -0.6528(3)
C44 C 0.495(2) -0.201(3) -0.5761(4)
C45 C 0.971(1) -0.414(2) -0.2472(2)
C46 C -0.579(2) 0.437(2) -0.2142(3)
C47 C 0.213(3) -0.236(3) -0.4749(4)
C48 C 0.136(3) -0.429(3) -0.4697(3)
C49 C 0.677(2) -0.043(3) -0.6406(3)
C50 C 0.290(3) -0.204(3) -0.4985(3)
C51 C -0.586(1) 0.218(2) -0.2271(3)
C52 C -0.130(2) -0.364(3) -0.4045(3)
C53 C 1.048(2) -0.635(3) -0.2884(3)
C54 C 0.443(3) -0.147(3) -0.5520(4)
C55 C 0.289(3) -0.370(3) -0.5170(4)
C56 C 0.227(2) -0.569(3) -0.5109(3)
C57 C 0.0706(8) -0.049(1) 0.0522(2)
C58 C 0.6051(7) 0.169(1) -0.0969(1)
C59 C 0.6817(8) 0.282(1) -0.1395(2)
C60 C -0.2873(9) -0.489(2) 0.1551(2)
H1 H 0.29530 0.50490 0.02490
H2 H 0.27670 -0.06430 -0.03860
H3 H 0.72170 -0.02800 -0.12280
H4 H 0.43010 0.54640 -0.01460
H5 H 0.14800 -0.11100 0.00030
H6 H 0.47840 0.67740 -0.11030
H7 H 0.61370 0.59930 -0.14990
H8 H -0.23290 -0.59000 0.10670
H9 H -0.14870 -0.08270 0.15750
H10 H -0.09630 -0.39230 0.07420
H11 H -0.01550 0.12130 0.12560
H12 H -0.15660 -0.78770 -0.35050
H13 H 0.54770 -0.31950 -0.62630
H14 H 0.08040 -0.75790 -0.48410
H15 H -0.01060 -0.87170 -0.39000
H16 H -0.27690 -0.18030 -0.38070
H17 H 0.60590 0.21550 -0.57570
H18 H 0.75830 0.41450 -0.60460
H19 H 0.20310 -0.09170 -0.46080
H20 H 0.70030 -0.11300 -0.65920
H21 H 0.37050 -0.07100 -0.50200
H22 H -0.13770 -0.24470 -0.41900
H23 H 0.48300 -0.00810 -0.54440
H24 H 0.22960 -0.69360 -0.52480
H25 H 0.05890 -0.19450 0.04350
H26 H 0.60250 0.06680 -0.08280
H27 H 0.78830 0.12260 -0.20820
H28 H 0.96360 0.13240 -0.19540
H29 H 0.87880 -0.02900 -0.15730
H30 H 0.70680 -0.07300 -0.17020
H31 H 0.97880 -0.26010 -0.19580
H32 H 0.80130 -0.27390 -0.20760
H33 H -0.23850 -0.11810 -0.33110
H34 H -0.41170 -0.15520 -0.34400
H35 H -0.40290 0.27550 -0.25160
H36 H -0.57150 0.33270 -0.26510
H37 H -0.46510 -0.11270 -0.25570
H38 H -0.63020 -0.05190 -0.27010
H39 H 0.89220 -0.08910 -0.24570
H40 H 1.06900 -0.12120 -0.23410
H41 H 0.99390 -0.31470 -0.28620
H42 H 1.15960 -0.38060 -0.27230
H43 H -0.49920 -0.32100 -0.30470
H44 H -0.32380 -0.30890 -0.29190
H45 H -0.50320 0.07950 -0.30660
H46 H -0.33430 0.08250 -0.29150
H47 H 1.02660 -0.51940 -0.23550
H48 H 0.85760 -0.47740 -0.24970
H49 H -0.70140 0.16060 -0.23030
H50 H -0.53340 0.09940 -0.21690
H51 H -0.47450 0.49570 -0.21020
H52 H -0.64280 0.55670 -0.22350
H53 H -0.63290 0.43730 -0.19630
H54 H 0.93240 -0.68120 -0.29180
H55 H 1.09260 -0.62240 -0.30510
H56 H 1.09910 -0.74600 -0.27820
#END
