
#######################################################################
#
#                 Cambridge Crystallographic Data Centre
#                                CCDC
#
#######################################################################
#
# If this CIF has been generated from an entry in the Cambridge
# Structural Database, then it will include bibliographic, chemical,
# crystal, experimental, refinement or atomic coordinate data resulting
# from the CCDC's data processing and validation procedures.
#
#######################################################################

data_CSD_CIF_DETWAA
_audit_creation_date 2000-02-23
_audit_creation_method CSD-ConQuest-V1
_database_code_CSD DETWAA
_database_code_depnum_ccdc_archive 'CCDC 132672'
_chemical_formula_sum 'C15 H30 N2 O2'
_chemical_formula_moiety
;
C15 H30 N2 O2
;
_journal_coden_Cambridge 644
_journal_volume 54
_journal_year 1999
_journal_page_first 1371
_journal_name_full 'Z.Naturforsch.,B:Chem.Sci. '
loop_
_publ_author_name
"H.Hommer"
"H.Noth"
"W.Ponikwar"
"S.Rojas-Lima"
_chemical_name_systematic
;
meso-2,2'-bis(1-Hydroxy-2,5,5-trimethylpyrolidinyl)methane
;
_cell_volume   1603.936
_exptl_crystal_colour 'colorless'
_exptl_crystal_density_diffrn 1.12
_exptl_crystal_description 'prism'
_diffrn_ambient_temperature 193
#These two values have been output from a single CSD field.
_refine_ls_R_factor_gt 0.06
_refine_ls_wR_factor_gt 0.06
_symmetry_cell_setting triclinic
_symmetry_space_group_name_H-M 'P -1'
_symmetry_Int_Tables_number 2
loop_
_symmetry_equiv_pos_site_id
_symmetry_equiv_pos_as_xyz
1 x,y,z
2 -x,-y,-z
_cell_length_a 9.982(4)
_cell_length_b 12.311(4)
_cell_length_c 14.616(5)
_cell_angle_alpha 80.94(1)
_cell_angle_beta 74.76(1)
_cell_angle_gamma 68.06(1)
_cell_formula_units_Z 4
loop_
_atom_type_symbol
_atom_type_radius_bond
C 0.68
H 0.23
N 0.68
O 0.68
loop_
_atom_site_label
_atom_site_type_symbol
_atom_site_fract_x
_atom_site_fract_y
_atom_site_fract_z
O1 O 0.2307(3) 0.24123(19) 0.23492(15)
H1 H 0.337(5) 0.220(4) 0.221(3)
O2 O 0.5913(3) 0.2210(2) 0.23987(15)
H2 H 0.520(5) 0.293(4) 0.233(3)
O3 O 0.0323(3) 0.4629(2) 0.20708(17)
H3 H 0.099(6) 0.393(5) 0.218(3)
O4 O 0.3946(2) 0.44635(18) 0.21865(13)
H4 H 0.301(5) 0.468(4) 0.203(3)
N1 N 0.2287(3) 0.1244(2) 0.26770(15)
N2 N 0.5262(3) 0.1440(2) 0.21852(15)
N3 N 0.1085(3) 0.5435(2) 0.19996(15)
N4 N 0.3621(2) 0.5495(2) 0.26830(14)
C1 C 0.0955(3) 0.1072(3) 0.2533(2)
C2 C 0.0682(4) 0.0203(3) 0.3379(2)
H5 H -0.02520 0.05650 0.38150
H6 H 0.06560 -0.04910 0.31590
C3 C 0.1980(4) -0.0122(3) 0.3869(2)
H7 H 0.16750 -0.02960 0.45460
H8 H 0.28010 -0.07950 0.35970
C4 C 0.2402(3) 0.0979(3) 0.36760(19)
C5 C -0.0392(4) 0.2179(3) 0.2527(3)
H9 H -0.06060 0.25830 0.30870
H10 H -0.12270 0.19740 0.25160
H11 H -0.01980 0.26790 0.19730
C6 C 0.1400(4) 0.0519(4) 0.1590(2)
H12 H 0.05690 0.03850 0.14790
H13 H 0.22030 -0.02140 0.16080
H14 H 0.17070 0.10380 0.10870
C7 C 0.1320(4) 0.1904(3) 0.4359(2)
H15 H 0.03320 0.19160 0.44270
H16 H 0.13710 0.26610 0.41110
H17 H 0.15770 0.17170 0.49680
C8 C 0.3989(3) 0.0784(3) 0.37606(18)
H18 H 0.41980 0.01880 0.42740
H19 H 0.39460 0.15050 0.39760
C9 C 0.5368(3) 0.0434(3) 0.29314(18)
C10 C 0.5556(4) -0.0576(3) 0.2349(2)
H20 H 0.64860 -0.12110 0.23750
H21 H 0.47530 -0.08780 0.26020
C11 C 0.5538(4) -0.0075(3) 0.1328(2)
H22 H 0.62130 -0.06530 0.08820
H23 H 0.45500 0.01690 0.12130
C12 C 0.6034(3) 0.0973(3) 0.12265(19)
C13 C 0.5418(4) 0.1919(3) 0.0487(2)
H24 H 0.43620 0.21250 0.06130
H25 H 0.58520 0.16280 -0.01350
H26 H 0.56520 0.26000 0.05160
C14 C 0.7716(3) 0.0615(3) 0.1004(2)
H27 H 0.81130 0.04140 0.03550
H28 H 0.81160 -0.00510 0.14170
H29 H 0.79780 0.12570 0.11010
C15 C 0.6704(3) 0.0136(3) 0.3379(2)
H30 H 0.75820 0.00470 0.28850
H31 H 0.68200 -0.05830 0.37690
H32 H 0.65440 0.07580 0.37610
C16 C 0.1007(3) 0.6181(3) 0.1087(2)
C17 C 0.1385(4) 0.7175(3) 0.1333(2)
H33 H 0.24490 0.69610 0.12370
H34 H 0.10140 0.78830 0.09400
C18 C 0.0637(4) 0.7363(3) 0.2373(2)
H35 H -0.03070 0.80040 0.24310
H36 H 0.12560 0.75510 0.26900
C19 C 0.0402(3) 0.6205(3) 0.28244(19)
C20 C -0.0507(4) 0.6626(4) 0.0826(2)
H37 H -0.12010 0.72090 0.12500
H38 H -0.08510 0.59820 0.08800
H39 H -0.04170 0.69650 0.01850
C21 C 0.2170(4) 0.5481(4) 0.0299(2)
H40 H 0.21690 0.59590 -0.02880
H41 H 0.19540 0.48020 0.02360
H42 H 0.31270 0.52370 0.04460
C22 C -0.1255(3) 0.6409(3) 0.3200(2)
H43 H -0.17530 0.66920 0.26840
H44 H -0.16670 0.69790 0.36700
H45 H -0.13810 0.56840 0.34800
C23 C 0.1149(3) 0.5577(3) 0.36578(19)
H46 H 0.10830 0.47990 0.37570
H47 H 0.05300 0.59890 0.42190
C24 C 0.2762(3) 0.5411(3) 0.36576(18)
C25 C 0.2953(4) 0.6411(3) 0.4052(2)
H48 H 0.27600 0.63290 0.47410
H49 H 0.22910 0.71670 0.38560
C26 C 0.4574(4) 0.6285(3) 0.3623(2)
H50 H 0.52010 0.57900 0.40440
H51 H 0.46870 0.70470 0.35200
C27 C 0.4992(3) 0.5721(3) 0.2671(2)
C28 C 0.5219(4) 0.6574(3) 0.1817(2)
H52 H 0.43730 0.72860 0.18760
H53 H 0.53370 0.62250 0.12440
H54 H 0.60900 0.67470 0.17920
C29 C 0.6382(4) 0.4629(3) 0.2597(2)
H55 H 0.62380 0.40750 0.31200
H56 H 0.72070 0.48410 0.26150
H57 H 0.65770 0.42830 0.20100
C30 C 0.3391(4) 0.4254(3) 0.4226(2)
H58 H 0.43290 0.41920 0.43300
H59 H 0.35230 0.36080 0.38780
H60 H 0.27150 0.42360 0.48280
#END
