
#######################################################################
#
#                 Cambridge Crystallographic Data Centre
#                                CCDC
#
#######################################################################
#
# If this CIF has been generated from an entry in the Cambridge
# Structural Database, then it will include bibliographic, chemical,
# crystal, experimental, refinement or atomic coordinate data resulting
# from the CCDC's data processing and validation procedures.
#
#######################################################################

data_CSD_CIF_DEVBOY
_audit_creation_date 2018-02-09
_audit_creation_method CSD-ConQuest-V1
_database_code_CSD DEVBOY
_database_code_depnum_ccdc_archive 'CCDC 1563858'
_chemical_formula_sum 'C17 H15 N1 O5'
_chemical_formula_moiety
;
C17 H15 N1 O5
;
_journal_coden_Cambridge 1220
_journal_volume 23
_journal_year 2017
_journal_page_first 17667
_journal_name_full 'Chem.-Eur.J. '
loop_
_publ_author_name
"O.Bakulina"
"A.Bannykh"
"D.Dar'in"
"M.Krasavin"
_chemical_name_systematic
;
2-hydroxy-3-(4-methoxyphenyl)-1-oxo-1,2,3,4-tetrahydroisoquinoline-4-carboxyli
c acid
;
_cell_volume   2829.363
_exptl_crystal_colour 'colorless'
_exptl_crystal_density_diffrn 1.471
_exptl_crystal_description 'prism'
_diffrn_ambient_temperature 100
#These two values have been output from a single CSD field.
_refine_ls_R_factor_gt 0.0367
_refine_ls_wR_factor_gt 0.0367
_symmetry_cell_setting orthorhombic
_symmetry_space_group_name_H-M 'P b c a'
_symmetry_Int_Tables_number 61
loop_
_symmetry_equiv_pos_site_id
_symmetry_equiv_pos_as_xyz
1 x,y,z
2 1/2-x,-y,1/2+z
3 -x,1/2+y,1/2-z
4 1/2+x,1/2-y,-z
5 -x,-y,-z
6 -1/2+x,y,-1/2-z
7 x,-1/2-y,-1/2+z
8 -1/2-x,-1/2+y,z
_cell_length_a 10.2608(4)
_cell_length_b 12.9569(4)
_cell_length_c 21.2817(7)
_cell_angle_alpha 90
_cell_angle_beta 90
_cell_angle_gamma 90
_cell_formula_units_Z 8
loop_
_atom_type_symbol
_atom_type_radius_bond
C 0.68
H 0.23
N 0.68
O 0.68
loop_
_atom_site_label
_atom_site_type_symbol
_atom_site_fract_x
_atom_site_fract_y
_atom_site_fract_z
O1 O 0.66827(9) 0.27463(7) 0.38333(4)
O2 O 0.13597(9) 0.75001(7) 0.44679(4)
O3 O 0.72882(9) 0.57498(7) 0.40278(4)
H1 H 0.74860 0.63220 0.38930
O4 O 0.76799(10) 0.59975(7) 0.27881(4)
O5 O 0.53893(10) 0.21344(7) 0.30729(5)
H2 H 0.59460 0.16820 0.30470
N1 N 0.65672(10) 0.52214(8) 0.35741(5)
C1 C 0.49974(12) 0.41597(9) 0.27109(6)
C2 C 0.35097(12) 0.52152(9) 0.44961(6)
H3 H 0.36220 0.45970 0.47110
C3 C 0.43549(12) 0.54608(10) 0.40082(5)
C4 C 0.57856(12) 0.28524(10) 0.34644(6)
C5 C 0.23250(12) 0.67992(9) 0.43450(5)
C6 C 0.68076(12) 0.53975(9) 0.29645(6)
C7 C 0.41784(12) 0.63931(10) 0.36900(5)
H4 H 0.47380 0.65700 0.33640
C8 C 0.59435(12) 0.48617(9) 0.25102(6)
C9 C 0.24969(13) 0.58736(10) 0.46703(5)
H5 H 0.19430 0.56980 0.49990
C10 C 0.49750(12) 0.38425(9) 0.33943(6)
H6 H 0.40720 0.36740 0.35040
C11 C 0.31748(12) 0.70575(9) 0.38563(5)
H7 H 0.30670 0.76770 0.36420
C12 C 0.60899(13) 0.50873(10) 0.18722(6)
H8 H 0.67320 0.55450 0.17400
C13 C 0.41722(12) 0.37063(10) 0.22705(6)
H9 H 0.35320 0.32450 0.24010
C14 C 0.54327(12) 0.47007(9) 0.38405(6)
H10 H 0.57140 0.43690 0.42320
C15 C 0.43032(13) 0.39417(10) 0.16364(6)
H11 H 0.37450 0.36430 0.13440
C16 C 0.52685(13) 0.46234(10) 0.14372(6)
H12 H 0.53630 0.47680 0.10120
C17 C 0.04929(14) 0.72741(11) 0.49745(6)
H13 H 0.00560 0.66320 0.48940
H14 H -0.01400 0.78160 0.50120
H15 H 0.09790 0.72220 0.53590
#END
