
#######################################################################
#
#                 Cambridge Crystallographic Data Centre
#                                CCDC
#
#######################################################################
#
# If this CIF has been generated from an entry in the Cambridge
# Structural Database, then it will include bibliographic, chemical,
# crystal, experimental, refinement or atomic coordinate data resulting
# from the CCDC's data processing and validation procedures.
#
#######################################################################

data_CSD_CIF_DEVBUE
_audit_creation_date 2018-02-09
_audit_creation_method CSD-ConQuest-V1
_database_code_CSD DEVBUE
_database_code_depnum_ccdc_archive 'CCDC 1563859'
_chemical_formula_sum 'C18 H17 N1 O5'
_chemical_formula_moiety
;
C18 H17 N1 O5
;
_journal_coden_Cambridge 1220
_journal_volume 23
_journal_year 2017
_journal_page_first 17667
_journal_name_full 'Chem.-Eur.J. '
loop_
_publ_author_name
"O.Bakulina"
"A.Bannykh"
"D.Dar'in"
"M.Krasavin"
_chemical_name_systematic
;
2-methoxy-3-(4-methoxyphenyl)-1-oxo-1,2,3,4-tetrahydroisoquinoline-4-carboxyli
c acid
;
_cell_volume   1588.728
_exptl_crystal_colour 'colorless'
_exptl_crystal_density_diffrn 1.368
_exptl_crystal_description 'prism'
_diffrn_ambient_temperature 100
#These two values have been output from a single CSD field.
_refine_ls_R_factor_gt 0.0482
_refine_ls_wR_factor_gt 0.0482
_symmetry_cell_setting monoclinic
_symmetry_space_group_name_H-M 'P 21/c'
_symmetry_Int_Tables_number 14
loop_
_symmetry_equiv_pos_site_id
_symmetry_equiv_pos_as_xyz
1 x,y,z
2 -x,1/2+y,1/2-z
3 -x,-y,-z
4 x,-1/2-y,-1/2+z
_cell_length_a 8.7062(5)
_cell_length_b 10.9760(4)
_cell_length_c 16.6273(6)
_cell_angle_alpha 90
_cell_angle_beta 90.824(4)
_cell_angle_gamma 90
_cell_formula_units_Z 4
loop_
_atom_type_symbol
_atom_type_radius_bond
C 0.68
H 0.23
N 0.68
O 0.68
loop_
_atom_site_label
_atom_site_type_symbol
_atom_site_fract_x
_atom_site_fract_y
_atom_site_fract_z
O1 O 0.32683(14) 0.72484(10) 0.18824(6)
O2 O 0.55897(13) 0.63727(9) 0.27698(6)
O3 O 0.48820(14) 1.07454(9) 0.38832(7)
H1 H 0.55300 1.11800 0.36740
O4 O 0.14990(15) 0.37354(10) 0.56497(7)
N1 N 0.46223(15) 0.72785(11) 0.30621(7)
O5 O 0.67001(17) 0.93455(12) 0.38254(13)
C1 C 0.23075(17) 0.84490(12) 0.29629(8)
C2 C 0.34237(18) 0.76005(12) 0.25860(8)
C3 C 0.26277(17) 0.89787(12) 0.37103(8)
C4 C 0.37513(17) 0.64201(12) 0.43558(8)
C5 C 0.46665(18) 0.74039(12) 0.39372(8)
H2 H 0.57400 0.73280 0.41160
C6 C 0.15535(18) 0.97718(13) 0.40401(9)
H3 H 0.17540 1.01320 0.45370
C7 C 0.41332(17) 0.87020(12) 0.41295(8)
H4 H 0.39690 0.87520 0.47100
C8 C 0.09406(18) 0.87088(14) 0.25526(9)
H5 H 0.07380 0.83560 0.20540
C9 C 0.38544(18) 0.63381(13) 0.51923(8)
H6 H 0.44540 0.68970 0.54770
C10 C 0.01932(19) 1.00269(14) 0.36337(10)
H7 H -0.05160 1.05560 0.38580
C11 C 0.21879(18) 0.45976(13) 0.51849(9)
C12 C -0.01165(18) 0.94936(14) 0.28897(10)
H8 H -0.10340 0.96640 0.26190
C13 C 0.28589(19) 0.55748(14) 0.39480(9)
H9 H 0.27840 0.56140 0.33900
C14 C 0.30831(19) 0.54441(13) 0.56038(9)
H10 H 0.31600 0.54050 0.61620
C15 C 0.53854(19) 0.96205(14) 0.39152(9)
C16 C 0.2068(2) 0.46642(14) 0.43552(10)
H11 H 0.14650 0.41070 0.40720
C17 C 0.7016(2) 0.69259(16) 0.25236(10)
H12 H 0.68180 0.74750 0.20850
H13 H 0.77140 0.63020 0.23550
H14 H 0.74610 0.73670 0.29670
C18 C 0.0601(2) 0.28336(16) 0.52492(13)
H15 H 0.12200 0.24200 0.48620
H16 H -0.02560 0.32150 0.49800
H17 H 0.02310 0.22570 0.56350
#END
