
#######################################################################
#
#                 Cambridge Crystallographic Data Centre
#                                CCDC
#
#######################################################################
#
# If this CIF has been generated from an entry in the Cambridge
# Structural Database, then it will include bibliographic, chemical,
# crystal, experimental, refinement or atomic coordinate data resulting
# from the CCDC's data processing and validation procedures.
#
#######################################################################

data_CSD_CIF_DEVWOR
_audit_creation_date 2007-03-29
_audit_creation_method CSD-ConQuest-V1
_database_code_CSD DEVWOR
_database_code_depnum_ccdc_archive 'CCDC 619681'
_chemical_formula_sum 'C13 H10 N2 O3'
_chemical_formula_moiety
;
C13 H10 N2 O3
;
_journal_coden_Cambridge 1200
_journal_volume 15
_journal_year 2007
_journal_page_first 1298
_journal_name_full 'Bioorg.Med.Chem. '
loop_
_publ_author_name
"G.L.Grunewald"
"M.R.Seim"
"R.C.Regier"
"K.R.Criscione"
_chemical_name_systematic
;
7-Nitro-3,4-dihydrobenz[h]isoquinolin-1(2H)-one
;
_chemical_melting_point 457.15
_cell_volume   1049.480
_exptl_crystal_colour 'colorless'
_exptl_crystal_density_diffrn 1.533
_exptl_special_details
;
Melting point range 457.15-459.15K

;
_exptl_crystal_description 'Rectangular plate'
_exptl_crystal_preparation 'chloroform/hexanes'
_diffrn_ambient_temperature 100
#These two values have been output from a single CSD field.
_refine_ls_R_factor_gt 0.0622
_refine_ls_wR_factor_gt 0.0622
_symmetry_cell_setting monoclinic
_symmetry_space_group_name_H-M 'P 21/c'
_symmetry_Int_Tables_number 14
loop_
_symmetry_equiv_pos_site_id
_symmetry_equiv_pos_as_xyz
1 x,y,z
2 -x,1/2+y,1/2-z
3 -x,-y,-z
4 x,-1/2-y,-1/2+z
_cell_length_a 5.240(2)
_cell_length_b 19.238(7)
_cell_length_c 10.472(4)
_cell_angle_alpha 90
_cell_angle_beta 96.199(8)
_cell_angle_gamma 90
_cell_formula_units_Z 4
loop_
_atom_type_symbol
_atom_type_radius_bond
C 0.68
H 0.23
N 0.68
O 0.68
loop_
_atom_site_label
_atom_site_type_symbol
_atom_site_fract_x
_atom_site_fract_y
_atom_site_fract_z
O1 O 0.3647(4) 0.08114(12) 0.0586(2)
O2 O -0.1652(5) 0.20649(13) 0.6284(2)
O3 O -0.1844(5) 0.30843(13) 0.5390(2)
N1 N 0.2954(5) -0.02858(16) 0.1200(3)
H1 H 0.387(6) -0.0396(17) 0.059(3)
N2 N -0.1151(5) 0.24704(17) 0.5423(3)
C1 C 0.2740(6) 0.0408(2) 0.1337(3)
C2 C 0.1303(6) 0.06348(19) 0.2430(3)
C3 C -0.0404(6) 0.01850(18) 0.2894(3)
C4 C -0.0556(7) -0.05517(19) 0.2423(4)
H2 H -0.122(6) -0.0772(16) 0.305(3)
H3 H -0.194(7) -0.0611(18) 0.158(4)
C5 C 0.2056(7) -0.0784(2) 0.2088(3)
H4 H 0.357(8) -0.0884(19) 0.308(4)
H5 H 0.191(6) -0.1217(18) 0.168(3)
C6 C -0.2041(7) 0.0406(2) 0.3806(3)
H6 H -0.319(6) 0.0020(17) 0.402(3)
C7 C -0.1890(6) 0.10665(19) 0.4288(3)
H7 H -0.306(6) 0.1238(15) 0.495(3)
C8 C -0.0004(6) 0.15341(19) 0.3914(3)
C9 C 0.1588(6) 0.13279(18) 0.2946(3)
C10 C 0.0358(6) 0.22230(18) 0.4414(3)
C11 C 0.2119(7) 0.2676(2) 0.4037(3)
H8 H 0.208(7) 0.308(2) 0.438(4)
C12 C 0.3668(7) 0.2460(2) 0.3113(4)
H9 H 0.482(6) 0.2760(16) 0.268(3)
C13 C 0.3434(6) 0.18138(19) 0.2563(3)
H10 H 0.470(5) 0.1674(14) 0.192(3)
#END
