
#######################################################################
#
#                 Cambridge Crystallographic Data Centre
#                                CCDC
#
#######################################################################
#
# If this CIF has been generated from an entry in the Cambridge
# Structural Database, then it will include bibliographic, chemical,
# crystal, experimental, refinement or atomic coordinate data resulting
# from the CCDC's data processing and validation procedures.
#
#######################################################################

data_CSD_CIF_DEWMAW
_audit_creation_date 2018-02-11
_audit_creation_method CSD-ConQuest-V1
_database_code_CSD DEWMAW
_database_code_depnum_ccdc_archive 'CCDC 1571552'
_chemical_formula_sum 'C5 H8 N4 O2'
_chemical_formula_moiety
;
C5 H8 N4 O2
;
_journal_coden_Cambridge 119
_journal_volume 1161
_journal_year 2018
_journal_page_first 320
_journal_name_full 'J.Mol.Struct. '
loop_
_publ_author_name
"A.Regiec"
"P.Wojciechowski"
"A.Pietraszko"
"M.Maczynski"
_chemical_name_systematic
;
5-amino-3-methyl-1,2-oxazole-4-carbohydrazide
;
_chemical_name_common
;
5-amino-3-methyl-4-isoxazolecarbohydrazide
;
_cell_volume   1384.573
_exptl_crystal_density_diffrn 1.498
_exptl_crystal_description 'needle'
_diffrn_ambient_temperature 293
#These two values have been output from a single CSD field.
_refine_ls_R_factor_gt 0.0401
_refine_ls_wR_factor_gt 0.0401
_symmetry_cell_setting monoclinic
_symmetry_space_group_name_H-M 'P 21/c'
_symmetry_Int_Tables_number 14
loop_
_symmetry_equiv_pos_site_id
_symmetry_equiv_pos_as_xyz
1 x,y,z
2 -x,1/2+y,1/2-z
3 -x,-y,-z
4 x,-1/2-y,-1/2+z
_cell_length_a 9.4490(19)
_cell_length_b 7.2680(15)
_cell_length_c 20.189(4)
_cell_angle_alpha 90
_cell_angle_beta 93.01(3)
_cell_angle_gamma 90
_cell_formula_units_Z 8
loop_
_atom_type_symbol
_atom_type_radius_bond
C 0.68
H 0.23
N 0.68
O 0.68
loop_
_atom_site_label
_atom_site_type_symbol
_atom_site_fract_x
_atom_site_fract_y
_atom_site_fract_z
N1 N -0.10155(4) 0.40709(6) -0.16996(2)
O1 O -0.24218(3) 0.48156(5) -0.175774(16)
C1 C -0.29817(5) 0.46901(7) -0.11636(2)
C2 C -0.20175(5) 0.39160(6) -0.07073(2)
C3 C -0.08188(5) 0.35504(7) -0.10846(2)
N2 N -0.42979(4) 0.52882(7) -0.11252(2)
C4 C -0.23255(5) 0.36581(7) -0.00175(2)
O2 O -0.34403(4) 0.42486(6) 0.019524(17)
C5 C 0.05475(5) 0.26504(8) -0.08787(3)
N3 N -0.13797(4) 0.27800(6) 0.039055(18)
N4 N -0.16295(5) 0.25050(7) 0.10675(2)
H1 H -0.4799(6) 0.5612(7) -0.1487(2)
H2 H -0.4662(5) 0.5238(7) -0.0745(2)
H3 H -0.0570(5) 0.2379(7) 0.0286(2)
H4 H 0.0981(6) 0.3237(7) -0.0512(3)
H5 H -0.2539(6) 0.2241(9) 0.1068(3)
H6 H -0.1548(10) 0.3516(10) 0.1280(4)
H7 H 0.1155(6) 0.2664(8) -0.1244(3)
H8 H 0.0368(6) 0.1344(7) -0.0765(3)
O3 O 0.24338(4) -0.03253(6) 0.269640(16)
N5 N 0.38866(5) -0.08695(7) 0.26335(2)
C6 C 0.41478(5) -0.05599(7) 0.20140(2)
C7 C 0.29513(5) 0.01427(7) 0.16425(2)
C8 C 0.19120(5) 0.02634(7) 0.21017(2)
C9 C 0.56090(6) -0.09474(9) 0.18089(3)
C10 C 0.26777(5) 0.06936(7) 0.09517(2)
O4 O 0.15146(3) 0.13149(5) 0.075474(16)
N6 N 0.05875(5) 0.08168(7) 0.20656(2)
N7 N 0.37321(4) 0.05125(6) 0.053381(19)
N8 N 0.35452(4) 0.10915(6) -0.013370(19)
H9 H 0.0075(6) 0.0866(8) 0.2426(3)
H10 H 0.4529(5) -0.0048(7) 0.0615(3)
H11 H 0.0205(6) 0.1233(8) 0.1687(3)
H12 H 0.5617(6) -0.1775(7) 0.1437(3)
H13 H 0.6036(7) 0.0184(8) 0.1670(3)
H14 H 0.2665(6) 0.0767(8) -0.0273(3)
H15 H 0.3540(7) 0.2321(8) -0.0140(3)
H16 H 0.6206(6) -0.1407(9) 0.2162(3)
#END
