
#######################################################################
#
#                 Cambridge Crystallographic Data Centre
#                                CCDC
#
#######################################################################
#
# If this CIF has been generated from an entry in the Cambridge
# Structural Database, then it will include bibliographic, chemical,
# crystal, experimental, refinement or atomic coordinate data resulting
# from the CCDC's data processing and validation procedures.
#
#######################################################################

data_CSD_CIF_DEWYUZ
_audit_creation_date 1986-09-02
_audit_creation_method CSD-ConQuest-V1
_database_code_CSD DEWYUZ
_chemical_formula_sum 'C20 H21 N1 O4'
_chemical_formula_moiety
;
C20 H21 N1 O4
;
_journal_coden_Cambridge 35
_journal_volume 50
_journal_year 1985
_journal_page_first 4838
_journal_name_full 'J.Org.Chem. '
loop_
_publ_author_name
"D.J.Hodgson"
"U.Rychlewska"
"E.L.Eliel"
"M.Manoharan"
"D.E.Knox"
"E.M.Olefirowicz"
_chemical_name_systematic
;
t-1-Methyl-c-1-phenyl-r-2-((p-nitrobenzoyl)-oxy)-cyclohexane
;
_chemical_melting_point 385.15
_cell_volume   1739.400
_exptl_crystal_colour 'colorless'
_exptl_crystal_density_diffrn 1.3
_exptl_special_details
;
Melting point range 385.15-386.15K

;
_diffrn_ambient_temperature ?
_diffrn_special_details
;
The study was carried out at room temperature,in the range 283-303K

;
#These two values have been output from a single CSD field.
_refine_ls_R_factor_gt 0.057
_refine_ls_wR_factor_gt 0.057
_symmetry_cell_setting monoclinic
_symmetry_space_group_name_H-M 'P 21/a'
_symmetry_Int_Tables_number 14
loop_
_symmetry_equiv_pos_site_id
_symmetry_equiv_pos_as_xyz
1 x,y,z
2 1/2-x,1/2+y,-z
3 -x,-y,-z
4 -1/2+x,-1/2-y,z
_cell_length_a 14.950(4)
_cell_length_b 7.457(4)
_cell_length_c 16.759(3)
_cell_angle_alpha 90
_cell_angle_beta 111.41(2)
_cell_angle_gamma 90
_cell_formula_units_Z 4
loop_
_atom_type_symbol
_atom_type_radius_bond
C 0.68
N 0.68
O 0.68
loop_
_atom_site_label
_atom_site_type_symbol
_atom_site_fract_x
_atom_site_fract_y
_atom_site_fract_z
O1 O 0.4629(2) 0.1339(4) 0.7615(2)
O2 O 0.6044(2) 0.0560(5) 0.8597(2)
O3 O 0.4412(2) 0.4156(6) 1.1623(2)
O4 O 0.2991(2) 0.4079(7) 1.0712(2)
N1 N 0.3843(3) 0.3830(7) 1.0915(2)
C1 C 0.3883(3) 0.0034(7) 0.6229(3)
C2 C 0.4887(3) 0.0463(7) 0.6957(2)
C3 C 0.5476(3) 0.1771(7) 0.6646(3)
C4 C 0.4956(3) 0.3419(7) 0.6214(3)
C5 C 0.4003(3) 0.2999(8) 0.5511(3)
C6 C 0.3388(3) 0.1767(7) 0.5829(3)
C7 C 0.4089(3) -0.1114(8) 0.5539(3)
C8 C 0.3303(3) -0.1082(7) 0.6627(2)
C9 C 0.2515(3) -0.0432(8) 0.6776(3)
C10 C 0.2044(3) -0.1450(9) 0.7180(3)
C11 C 0.2334(3) -0.3140(9) 0.7442(3)
C12 C 0.3106(4) -0.3853(8) 0.7295(3)
C13 C 0.3577(3) -0.2804(8) 0.6887(3)
C14 C 0.5257(3) 0.1194(7) 0.8416(3)
C15 C 0.4869(3) 0.1860(7) 0.9050(3)
C16 C 0.3895(3) 0.2177(7) 0.8843(3)
C17 C 0.3547(3) 0.2776(8) 0.9451(3)
C18 C 0.4193(3) 0.3089(7) 1.0261(3)
C19 C 0.5153(3) 0.2784(7) 1.0497(3)
C20 C 0.5489(3) 0.2169(7) 0.9880(3)
#END
