
#######################################################################
#
#                 Cambridge Crystallographic Data Centre
#                                CCDC
#
#######################################################################
#
# If this CIF has been generated from an entry in the Cambridge
# Structural Database, then it will include bibliographic, chemical,
# crystal, experimental, refinement or atomic coordinate data resulting
# from the CCDC's data processing and validation procedures.
#
#######################################################################

data_CSD_CIF_DEXDUH
_audit_creation_date 2013-06-16
_audit_creation_method CSD-ConQuest-V1
_database_code_CSD DEXDUH
_database_code_depnum_ccdc_archive 'CCDC 913818'
_chemical_formula_sum 'C22 H30 N2 O5'
_chemical_formula_moiety
;
C22 H30 N2 O5
;
_journal_coden_Cambridge 1220
_journal_volume 19
_journal_year 2013
_journal_page_first 9127
_journal_name_full 'Chem.-Eur.J. '
loop_
_publ_author_name
"A.Cannillo"
"S.Norsikian"
"P.Retailleau"
"M.-E.T.H.Dau"
"B.I.Iorga"
"J.-M.Beau"
_chemical_name_systematic
;
((3R,3aR,6R,7aS)-3-((S)-1-hydroxyhexyl)-6-(hydroxymethyl)-3,3a,7,7a-tetrahydro
-1H-isoindol-2(6H)-yl)(4-nitrophenyl)methanone
;
_cell_volume   2164.484
_exptl_crystal_colour 'colorless'
_exptl_crystal_density_diffrn 1.235
_exptl_special_details
;
Absolute configuration

;
_exptl_crystal_description 'block'
_diffrn_ambient_temperature 193
_refine_special_details
;
C10,C11,C12,C13 and C10B,C11B,C12B,C13B disordered over two sites with 
occupancies 0.651:0.349.
;
#These two values have been output from a single CSD field.
_refine_ls_R_factor_gt 0.0573
_refine_ls_wR_factor_gt 0.0573
_symmetry_cell_setting orthorhombic
_symmetry_space_group_name_H-M 'P 21 21 21'
_symmetry_Int_Tables_number 19
loop_
_symmetry_equiv_pos_site_id
_symmetry_equiv_pos_as_xyz
1 x,y,z
2 1/2-x,-y,1/2+z
3 1/2+x,1/2-y,-z
4 -x,1/2+y,1/2-z
_cell_length_a 5.6685(2)
_cell_length_b 17.9710(8)
_cell_length_c 21.2478(14)
_cell_angle_alpha 90
_cell_angle_beta 90
_cell_angle_gamma 90
_cell_formula_units_Z 4
loop_
_atom_type_symbol
_atom_type_radius_bond
C 0.68
H 0.23
N 0.68
O 0.68
loop_
_atom_site_label
_atom_site_type_symbol
_atom_site_fract_x
_atom_site_fract_y
_atom_site_fract_z
O1 O 0.1380(5) 0.82285(13) 0.78136(10)
O2 O 0.4672(5) 0.87041(17) 1.08827(11)
O3 O 0.6457(4) 0.77364(14) 0.63667(11)
H1 H 0.71160 0.80520 0.65990
O4 O 0.8035(7) 0.9042(3) 1.05241(13)
O5 O 0.1777(6) 0.38469(13) 0.79371(14)
H2 H 0.05770 0.38050 0.77070
N1 N 0.6066(7) 0.87871(19) 1.04563(14)
N2 N 0.4400(4) 0.74286(14) 0.76284(10)
C1 C 0.3426(6) 0.71766(15) 0.70161(13)
H3 H 0.16770 0.71230 0.70560
C2 C 0.6436(6) 0.69831(16) 0.78128(15)
H4 H 0.65850 0.69550 0.82760
H5 H 0.79140 0.71870 0.76340
C3 C 0.4454(7) 0.57601(18) 0.79766(15)
H6 H 0.30590 0.60460 0.81190
H7 H 0.54270 0.56460 0.83510
C4 C 0.3631(7) 0.50308(18) 0.76763(16)
H8 H 0.50490 0.47180 0.75860
C5 C 0.2411(8) 0.51990(18) 0.70647(15)
H9 H 0.13290 0.48440 0.69030
C6 C 0.2769(7) 0.5814(2) 0.67428(16)
H10 H 0.18610 0.58910 0.63730
C7 C 0.3961(6) 0.77261(19) 0.64957(14)
H11 H 0.34590 0.82340 0.66340
C8 C 0.2712(7) 0.7535(2) 0.58852(14)
H12 H 0.10260 0.74470 0.59810
H13 H 0.33730 0.70620 0.57250
C9 C 0.286(4) 0.8112(5) 0.5361(6)
H14 H 0.45130 0.82830 0.53250
H15 H 0.24300 0.78700 0.49590
C10 C 0.1294(18) 0.8780(5) 0.5454(5)
H16 H 0.18580 0.90580 0.58280
H17 H -0.03240 0.86040 0.55470
C11 C 0.1186(17) 0.9309(4) 0.4903(4)
H18 H 0.06000 0.90330 0.45320
H19 H 0.00210 0.97030 0.50000
C12 C 0.344(2) 0.9666(8) 0.4736(6)
H20 H 0.31900 1.00110 0.43850
H21 H 0.45830 0.92840 0.46110
H22 H 0.40480 0.99410 0.51000
C13 C 0.2043(8) 0.46083(18) 0.81271(18)
H23 H 0.27260 0.46270 0.85560
H24 H 0.04750 0.48500 0.81410
C14 C 0.3255(6) 0.79197(16) 0.79872(13)
C15 C 0.4136(5) 0.81065(16) 0.86304(12)
C16 C 0.6292(7) 0.84387(17) 0.87271(14)
H25 H 0.73560 0.85080 0.83870
C17 C 0.6893(7) 0.86712(18) 0.93306(13)
H26 H 0.83540 0.89160 0.94030
C18 C 0.5390(7) 0.85481(18) 0.98141(13)
C19 C 0.3261(7) 0.8202(2) 0.97364(14)
H27 H 0.22530 0.81090 1.00850
C20 C 0.2621(7) 0.79899(18) 0.91332(15)
H28 H 0.11310 0.77630 0.90630
C21 C 0.5858(6) 0.62254(19) 0.75318(15)
H29 H 0.73590 0.59610 0.74260
C22 C 0.4520(7) 0.64021(17) 0.69234(14)
H30 H 0.57050 0.64400 0.65760
H31? H 0.09840 0.75500 0.59520
H32? H 0.31440 0.70240 0.57550
C23? C 0.339(8) 0.8090(12) 0.5358(13)
H33? H 0.51280 0.80820 0.53030
H34? H 0.26760 0.79220 0.49570
C24? C 0.261(5) 0.8895(11) 0.5489(12)
H35? H 0.08610 0.88730 0.55060
H36? H 0.31300 0.89990 0.59240
C25? C 0.316(4) 0.9610(12) 0.5119(7)
H37? H 0.24740 1.00420 0.53430
H38? H 0.48960 0.96810 0.51050
C26? C 0.221(5) 0.9591(15) 0.4449(8)
H39? H 0.28210 1.00200 0.42150
H40? H 0.04850 0.96110 0.44590
H41? H 0.27190 0.91310 0.42430
#END
