
#######################################################################
#
#                 Cambridge Crystallographic Data Centre
#                                CCDC
#
#######################################################################
#
# If this CIF has been generated from an entry in the Cambridge
# Structural Database, then it will include bibliographic, chemical,
# crystal, experimental, refinement or atomic coordinate data resulting
# from the CCDC's data processing and validation procedures.
#
#######################################################################

data_CSD_CIF_DEXFET
_audit_creation_date 2013-06-16
_audit_creation_method CSD-ConQuest-V1
_database_code_CSD DEXFET
_database_code_depnum_ccdc_archive 'CCDC 913816'
_chemical_formula_sum 'C22 H30 N2 O4'
_chemical_formula_moiety
;
C22 H30 N2 O4
;
_journal_coden_Cambridge 1220
_journal_volume 19
_journal_year 2013
_journal_page_first 9127
_journal_name_full 'Chem.-Eur.J. '
loop_
_publ_author_name
"A.Cannillo"
"S.Norsikian"
"P.Retailleau"
"M.-E.T.H.Dau"
"B.I.Iorga"
"J.-M.Beau"
_chemical_name_systematic
;
((3R,3aR,7aS)-3-((S)-1-hydroxyhexyl)-5-methyl-3,3a,7,7a-tetrahydro-1H-isoindol
-2(6H)-yl)(4-nitrophenyl)methanone
;
_cell_volume   4947.493
_exptl_crystal_colour 'colorless'
_exptl_crystal_density_diffrn 1.167
_exptl_special_details
;
Absolute configuration

;
_exptl_crystal_description 'bipyramid'
_exptl_crystal_preparation 'ether'
_diffrn_ambient_temperature 203
#These two values have been output from a single CSD field.
_refine_ls_R_factor_gt 0.044
_refine_ls_wR_factor_gt 0.044
_symmetry_cell_setting rhombohedral
_symmetry_space_group_name_H-M 'R 3'
_symmetry_Int_Tables_number 146
loop_
_symmetry_equiv_pos_site_id
_symmetry_equiv_pos_as_xyz
1 x,y,z
2 -y,x-y,z
3 -x+y,-x,z
4 2/3+x,1/3+y,1/3+z
5 2/3-y,1/3+x-y,1/3+z
6 2/3-x+y,1/3-x,1/3+z
7 1/3+x,2/3+y,2/3+z
8 1/3-y,2/3+x-y,2/3+z
9 1/3-x+y,2/3-x,2/3+z
_cell_length_a 21.3178(9)
_cell_length_b 21.3178(9)
_cell_length_c 12.5710(8)
_cell_angle_alpha 90
_cell_angle_beta 90
_cell_angle_gamma 120
_cell_formula_units_Z 9
loop_
_atom_type_symbol
_atom_type_radius_bond
C 0.68
H 0.23
N 0.68
O 0.68
loop_
_atom_site_label
_atom_site_type_symbol
_atom_site_fract_x
_atom_site_fract_y
_atom_site_fract_z
O1 O 0.37414(9) 0.03646(8) 1.05859(13)
O2 O 0.42346(9) 0.13069(9) 0.74702(12)
H1 H 0.38300 0.09370 0.74220
O3 O 0.01052(16) -0.1081(2) 1.1983(2)
O4 O -0.01095(14) -0.1419(2) 1.0378(2)
N1 N 0.35866(9) 0.11408(9) 0.95588(13)
N2 N 0.03012(15) -0.10711(19) 1.1081(2)
C1 C 0.43695(11) 0.15806(11) 0.93566(16)
H2 H 0.46350 0.15720 0.99970
C2 C 0.32220(12) 0.15488(12) 0.92783(19)
H3 H 0.27820 0.13910 0.97030
H4 H 0.30960 0.14970 0.85210
C3 C 0.38043(13) 0.24802(13) 1.0727(2)
H5 H 0.33550 0.24740 1.09180
H6 H 0.38240 0.20990 1.11350
C4 C 0.44471(15) 0.32097(15) 1.1024(2)
H7 H 0.43690 0.35950 1.07470
H8 H 0.44790 0.32540 1.18010
C5 C 0.51492(13) 0.33113(12) 1.05966(19)
C6 C 0.51579(12) 0.29196(12) 0.97770(17)
H9 H 0.56120 0.30010 0.95440
C7 C 0.33316(11) 0.05565(11) 1.01862(15)
C8 C 0.25353(12) 0.01346(11) 1.04016(16)
C9 C 0.22967(14) -0.00294(14) 1.14490(18)
H10 H 0.26360 0.01260 1.20060
C10 C 0.15701(16) -0.04155(16) 1.1673(2)
H11 H 0.14080 -0.05180 1.23810
C11 C 0.10799(14) -0.06510(16) 1.0843(2)
C12 C 0.45834(12) 0.12716(13) 0.84140(17)
H12 H 0.44270 0.07580 0.85630
C13 C 0.53929(13) 0.16783(15) 0.8219(2)
H13 H 0.56410 0.17420 0.89000
H14 H 0.55330 0.21610 0.79450
C14 C 0.56538(16) 0.13058(19) 0.7438(2)
H15 H 0.53560 0.11780 0.67930
H16 H 0.61540 0.16500 0.72340
C15 C 0.5623(2) 0.0628(2) 0.7873(3)
H17 H 0.51360 0.03080 0.81530
H18 H 0.59630 0.07650 0.84680
C16 C 0.5805(3) 0.0199(3) 0.7049(5)
H19 H 0.57530 -0.02370 0.73930
H20 H 0.54500 0.00430 0.64690
C17 C 0.6520(3) 0.0601(4) 0.6601(4)
H21 H 0.68720 0.08200 0.71700
H22 H 0.65470 0.09780 0.61380
H23 H 0.66240 0.02770 0.61940
C18 C 0.58265(15) 0.38860(15) 1.1113(2)
H24 H 0.58130 0.37860 1.18680
H25 H 0.58630 0.43540 1.10120
H26 H 0.62430 0.38910 1.07940
C19 C 0.37949(13) 0.23236(12) 0.9547(2)
H27 H 0.37130 0.26690 0.91270
C20 C 0.45010(12) 0.23589(11) 0.91962(17)
H28 H 0.45700 0.24730 0.84270
C21 C 0.20315(12) -0.01186(13) 0.95804(17)
H29 H 0.21900 -0.00160 0.88710
C22 C 0.12998(13) -0.05199(14) 0.97976(19)
H30 H 0.09590 -0.07000 0.92430
#END
