
#######################################################################
#
#                 Cambridge Crystallographic Data Centre
#                                CCDC
#
#######################################################################
#
# If this CIF has been generated from an entry in the Cambridge
# Structural Database, then it will include bibliographic, chemical,
# crystal, experimental, refinement or atomic coordinate data resulting
# from the CCDC's data processing and validation procedures.
#
#######################################################################

data_CSD_CIF_DEXJAU
_audit_creation_date 2018-02-12
_audit_creation_method CSD-ConQuest-V1
_database_code_CSD DEXJAU
_database_code_depnum_ccdc_archive 'CCDC 1823577'
_chemical_formula_sum 'C8 H6 N2 O3'
_chemical_formula_moiety
;
C8 H6 N2 O3
;
_journal_coden_Cambridge 1078
_journal_year 2018
_journal_name_full 'CSD Communication(Private Communication) '
loop_
_publ_author_name
"S.Sagdinc"
_chemical_name_systematic
;
5-nitro-1,3-dihydro-2H-indol-2-one
;
_cell_volume    769.635
_exptl_special_details
;
Only minimal cif details have been deposited at CCDC

;
_diffrn_ambient_temperature ?
_diffrn_special_details
;
The study was carried out at room temperature,in the range 283-303K

;
_symmetry_cell_setting monoclinic
_symmetry_space_group_name_H-M 'P 21/n'
_symmetry_Int_Tables_number 14
loop_
_symmetry_equiv_pos_site_id
_symmetry_equiv_pos_as_xyz
1 x,y,z
2 1/2-x,1/2+y,1/2-z
3 -x,-y,-z
4 -1/2+x,-1/2-y,-1/2+z
_cell_length_a 6.1997(4)
_cell_length_b 10.8692(7)
_cell_length_c 11.6685(8)
_cell_angle_alpha 90
_cell_angle_beta 101.814(4)
_cell_angle_gamma 90
_cell_formula_units_Z 4
loop_
_atom_type_symbol
_atom_type_radius_bond
C 0.68
H 0.23
N 0.68
O 0.68
loop_
_atom_site_label
_atom_site_type_symbol
_atom_site_fract_x
_atom_site_fract_y
_atom_site_fract_z
C1 C 0.2340(2) 0.57685(13) 0.40567(12)
H1 H 0.10610 0.55080 0.42830
C2 C 0.3887(2) 0.64857(13) 0.47883(12)
C3 C 0.5815(3) 0.68875(14) 0.44869(13)
H2 H 0.68220 0.73540 0.50110
C4 C 0.6232(3) 0.65919(14) 0.34034(13)
H3 H 0.75050 0.68610 0.31760
C5 C 0.4688(2) 0.58806(13) 0.26667(12)
C6 C 0.2771(2) 0.54583(13) 0.29871(12)
C7 C 0.1508(3) 0.47016(15) 0.20084(13)
H4 H 0.00610 0.50490 0.17110
H5 H 0.13430 0.38610 0.22570
C8 C 0.2919(3) 0.47585(14) 0.11023(13)
N1 N 0.4720(2) 0.54595(12) 0.15440(11)
N2 N 0.3452(2) 0.68171(12) 0.59279(11)
O1 O 0.4911(2) 0.73265(12) 0.66377(10)
O2 O 0.1640(2) 0.65772(14) 0.61321(12)
O3 O 0.2547(2) 0.42750(12) 0.01378(10)
H6 H 0.568(3) 0.5607(18) 0.1099(16)
#END
