
#######################################################################
#
#                 Cambridge Crystallographic Data Centre
#                                CCDC
#
#######################################################################
#
# If this CIF has been generated from an entry in the Cambridge
# Structural Database, then it will include bibliographic, chemical,
# crystal, experimental, refinement or atomic coordinate data resulting
# from the CCDC's data processing and validation procedures.
#
#######################################################################

data_CSD_CIF_DEXQUV
_audit_creation_date 2018-02-12
_audit_creation_method CSD-ConQuest-V1
_database_code_CSD DEXQUV
_database_code_depnum_ccdc_archive 'CCDC 1539842'
_chemical_formula_sum 'C18 H19 N4 O3'
_chemical_formula_moiety
;
C18 H19 N4 O3
;
_journal_coden_Cambridge 16
_journal_volume 70
_journal_year 2017
_journal_page_first 1317
_journal_name_full 'Tetrahedron '
loop_
_publ_author_name
"V.Romanov"
"A.Vorobev"
"I.Bagryanskaya"
"D.Parkhomenko"
"E.Tretyakov"
_chemical_name_systematic
;
2-(9-hydroxypyrazolo[1,5-a]quinolin-3-yl)-4,4,5,5-tetramethyl-4,5-dihydro-1H-i
midazole-3-oxide-1-oxyl radical
;
_chemical_melting_point 346
_cell_volume   3344.791
_exptl_crystal_colour 'black'
_exptl_crystal_density_diffrn 1.348
_exptl_crystal_description 'prism-needle'
_diffrn_ambient_temperature 297
#These two values have been output from a single CSD field.
_refine_ls_R_factor_gt 0.0668
_refine_ls_wR_factor_gt 0.0668
_symmetry_cell_setting monoclinic
_symmetry_space_group_name_H-M 'P 21/n'
_symmetry_Int_Tables_number 14
loop_
_symmetry_equiv_pos_site_id
_symmetry_equiv_pos_as_xyz
1 x,y,z
2 1/2-x,1/2+y,1/2-z
3 -x,-y,-z
4 -1/2+x,-1/2-y,-1/2+z
_cell_length_a 16.196(2)
_cell_length_b 11.341(1)
_cell_length_c 18.305(2)
_cell_angle_alpha 90
_cell_angle_beta 95.84(1)
_cell_angle_gamma 90
_cell_formula_units_Z 8
loop_
_atom_type_symbol
_atom_type_radius_bond
C 0.68
H 0.23
N 0.68
O 0.68
loop_
_atom_site_label
_atom_site_type_symbol
_atom_site_fract_x
_atom_site_fract_y
_atom_site_fract_z
N1 N 0.56160(19) 0.5139(3) 0.15772(17)
C1 C 0.5712(2) 0.6299(3) 0.15552(19)
N2 N 0.64552(18) 0.6571(3) 0.19147(18)
O1 O 0.67829(18) 0.7598(2) 0.19688(19)
C2 C 0.6365(2) 0.4504(3) 0.1932(2)
N3 N 0.4148(2) 0.7694(3) 0.02730(17)
O2 O 0.49817(17) 0.4562(2) 0.12981(18)
O3 O 0.3233(2) 0.9235(3) -0.05072(19)
H1 H 0.34500 0.85950 -0.04050
C3 C 0.6881(2) 0.5539(3) 0.2278(2)
N4 N 0.44372(17) 0.8636(3) 0.06863(16)
C4 C 0.6740(3) 0.3888(5) 0.1322(3)
H2 H 0.72250 0.34640 0.15190
H3 H 0.68910 0.44590 0.09720
H4 H 0.63440 0.33460 0.10850
C5 C 0.6095(3) 0.3618(4) 0.2476(3)
H5 H 0.65730 0.32110 0.27050
H6 H 0.57210 0.30600 0.22250
H7 H 0.58200 0.40190 0.28450
C6 C 0.7768(3) 0.5530(5) 0.2157(4)
H8 H 0.80330 0.48560 0.23960
H9 H 0.80280 0.62370 0.23550
H10 H 0.78200 0.54900 0.16400
C7 C 0.6795(4) 0.5705(5) 0.3089(3)
H11 H 0.62180 0.57130 0.31670
H12 H 0.70460 0.64390 0.32520
H13 H 0.70680 0.50680 0.33630
C8 C 0.5128(2) 0.7095(3) 0.11626(19)
C9 C 0.5024(2) 0.8306(3) 0.12460(19)
C10 C 0.5332(2) 0.9196(3) 0.1739(2)
H14 H 0.57120 0.90080 0.21380
C11 C 0.5079(3) 1.0308(4) 0.1633(2)
H15 H 0.52850 1.08800 0.19660
C12 C 0.4502(2) 1.0658(3) 0.1026(2)
C13 C 0.4249(3) 1.1822(4) 0.0901(3)
H16 H 0.44580 1.24140 0.12190
C14 C 0.3694(3) 1.2096(4) 0.0310(3)
H17 H 0.35420 1.28780 0.02220
C15 C 0.3359(3) 1.1231(4) -0.0151(3)
H18 H 0.29750 1.14330 -0.05440
C16 C 0.3582(2) 1.0069(4) -0.0044(2)
C17 C 0.4164(2) 0.9782(3) 0.0552(2)
C18 C 0.4567(2) 0.6778(3) 0.0562(2)
H19 H 0.44960 0.60110 0.03870
N5 N 1.0736(2) 0.9528(3) 0.1374(2)
C19 C 1.0749(2) 0.8371(3) 0.1443(2)
O4 O 1.0165(2) 1.0122(3) 0.1014(3)
N6 N 1.1432(2) 0.8093(3) 0.1884(2)
O5 O 1.1653(3) 0.7067(3) 0.2087(3)
C20 C 1.1455(2) 1.0163(3) 0.1775(2)
N7 N 0.8959(2) 0.7089(3) 0.03567(19)
O6 O 0.78327(19) 0.5666(3) -0.0284(2)
H20 H 0.81210 0.62590 -0.02960
C21 C 1.1963(2) 0.9108(3) 0.2125(2)
N8 N 0.93369(18) 0.6101(3) 0.06525(17)
C22 C 1.1097(3) 1.0972(4) 0.2321(3)
H21 H 1.15380 1.13990 0.25940
H22 H 1.08060 1.05110 0.26530
H23 H 1.07190 1.15180 0.20630
C23 C 1.1865(3) 1.0878(5) 0.1227(3)
H24 H 1.23300 1.12950 0.14720
H25 H 1.14750 1.14330 0.09950
H26 H 1.20550 1.03650 0.08620
C24 C 1.2070(3) 0.9113(4) 0.2944(3)
H27 H 1.24130 0.97670 0.31150
H28 H 1.23270 0.83900 0.31190
H29 H 1.15370 0.91860 0.31270
C25 C 1.2796(3) 0.8938(5) 0.1821(3)
H30 H 1.31560 0.95860 0.19710
H31 H 1.27140 0.89060 0.12950
H32 H 1.30440 0.82150 0.20070
C26 C 1.0120(2) 0.7581(3) 0.1096(2)
C27 C 1.0045(2) 0.6358(3) 0.11035(19)
C28 C 1.0487(3) 0.5390(4) 0.1429(2)
H33 H 1.09670 0.55190 0.17440
C29 C 1.0221(3) 0.4283(4) 0.1289(2)
H34 H 1.05300 0.36610 0.15040
C30 C 0.9481(3) 0.4022(4) 0.0820(2)
C31 C 0.9199(3) 0.2886(4) 0.0675(3)
H35 H 0.94960 0.22500 0.08860
C32 C 0.8486(3) 0.2692(4) 0.0223(3)
H36 H 0.83010 0.19250 0.01300
C33 C 0.8044(3) 0.3625(4) -0.0094(2)
H37 H 0.75590 0.34770 -0.03990
C34 C 0.8297(3) 0.4771(4) 0.0027(2)
C35 C 0.9030(2) 0.4974(3) 0.0498(2)
C36 C 0.9430(3) 0.7979(4) 0.0620(2)
H38 H 0.93210 0.87670 0.05080
#END
