
#######################################################################
#
#                 Cambridge Crystallographic Data Centre
#                                CCDC
#
#######################################################################
#
# If this CIF has been generated from an entry in the Cambridge
# Structural Database, then it will include bibliographic, chemical,
# crystal, experimental, refinement or atomic coordinate data resulting
# from the CCDC's data processing and validation procedures.
#
#######################################################################

data_CSD_CIF_DEXVAE
_audit_creation_date 2007-03-29
_audit_creation_method CSD-ConQuest-V1
_database_code_CSD DEXVAE
_database_code_depnum_ccdc_archive 'CCDC 636121'
_chemical_formula_sum 'C15 H14 N2 O4'
_chemical_formula_moiety
;
C15 H14 N2 O4
;
_journal_coeditor_code "IUCr AT2204"
_journal_coden_Cambridge 1370
_journal_volume 63
_journal_year 2007
_journal_page_first o752
_journal_name_full 'Acta Crystallogr.,Sect.E:Struct.Rep.Online '
loop_
_publ_author_name
"Yu-Liang Zhang"
"Xiao-Hui Li"
_chemical_name_systematic
;
N-Benzyl-2-(4-nitrophenoxy)acetamide
;
_cell_volume   1378.948
_exptl_crystal_colour 'yellow'
_exptl_crystal_density_diffrn 1.379
_exptl_crystal_description 'block'
_exptl_crystal_preparation 'methanol'
_diffrn_ambient_temperature 298
#These two values have been output from a single CSD field.
_refine_ls_R_factor_gt 0.0481
_refine_ls_wR_factor_gt 0.0481
_symmetry_cell_setting triclinic
_symmetry_space_group_name_H-M 'P -1'
_symmetry_Int_Tables_number 2
loop_
_symmetry_equiv_pos_site_id
_symmetry_equiv_pos_as_xyz
1 x,y,z
2 -x,-y,-z
_cell_length_a 5.821(2)
_cell_length_b 8.960(3)
_cell_length_c 26.909(3)
_cell_angle_alpha 96.397(3)
_cell_angle_beta 92.116(3)
_cell_angle_gamma 98.070(3)
_cell_formula_units_Z 4
loop_
_atom_type_symbol
_atom_type_radius_bond
C 0.68
H 0.23
N 0.68
O 0.68
loop_
_atom_site_label
_atom_site_type_symbol
_atom_site_fract_x
_atom_site_fract_y
_atom_site_fract_z
O1 O 0.4420(3) 0.16512(17) 0.25666(6)
O2 O 0.5887(3) 0.44600(17) 0.17662(6)
O3 O 0.5393(4) 0.7992(3) -0.00817(7)
O4 O 0.1953(4) 0.6789(2) -0.01445(8)
O5 O 0.0881(3) 0.60285(18) 0.23664(7)
O6 O 0.5682(3) 0.83668(18) 0.30762(6)
O7 O 0.5059(4) 1.2628(3) 0.50351(8)
O8 O 0.1608(5) 1.1455(3) 0.49740(9)
N1 N 0.7641(3) 0.33481(19) 0.25186(6)
H1 H 0.82330 0.41340 0.23850
N2 N 0.3885(5) 0.7093(2) 0.00606(8)
N3 N 0.1875(3) 0.8564(2) 0.24511(7)
H2 H 0.29450 0.93100 0.25540
N4 N 0.3558(5) 1.1666(3) 0.48283(9)
C1 C 0.5497(4) 0.2709(2) 0.23749(8)
C2 C 0.4319(4) 0.3317(2) 0.19511(8)
H3 H 0.38130 0.25010 0.16850
H4 H 0.29600 0.37380 0.20670
C3 C 0.5256(4) 0.5045(2) 0.13427(8)
C4 C 0.3091(4) 0.4720(3) 0.11031(9)
H5 H 0.19320 0.40550 0.12250
C5 C 0.2659(4) 0.5392(3) 0.06799(9)
H6 H 0.12020 0.51820 0.05130
C6 C 0.4383(4) 0.6371(2) 0.05063(8)
C7 C 0.6552(4) 0.6713(3) 0.07424(9)
H7 H 0.77000 0.73880 0.06210
C8 C 0.6990(4) 0.6031(2) 0.11628(9)
H8 H 0.84550 0.62340 0.13260
C9 C 0.9033(4) 0.2774(2) 0.28921(8)
H9 H 1.05170 0.26320 0.27560
H10 H 0.82590 0.17860 0.29540
C10 C 0.9478(4) 0.3771(2) 0.33854(8)
C11 C 1.1432(4) 0.3710(3) 0.36829(10)
H11 H 1.25080 0.30920 0.35700
C12 C 1.1807(5) 0.4558(3) 0.41473(11)
H12 H 1.31240 0.44970 0.43460
C13 C 1.0262(6) 0.5483(3) 0.43159(10)
H13 H 1.05290 0.60600 0.46270
C14 C 0.8323(5) 0.5557(3) 0.40251(11)
H14 H 0.72570 0.61810 0.41390
C15 C 0.7940(4) 0.4706(3) 0.35620(9)
H15 H 0.66150 0.47670 0.33660
C16 C 0.2190(4) 0.7182(3) 0.25354(8)
C17 C 0.4291(4) 0.7004(3) 0.28526(9)
H16 H 0.37760 0.64070 0.31180
H17 H 0.52670 0.64250 0.26470
C18 C 0.5048(4) 0.9079(3) 0.35164(9)
C19 C 0.6704(4) 1.0218(3) 0.37482(9)
H18 H 0.81450 1.04160 0.36120
C20 C 0.6227(5) 1.1060(3) 0.41794(10)
H19 H 0.73340 1.18350 0.43360
C21 C 0.4104(5) 1.0746(3) 0.43764(9)
C22 C 0.2469(4) 0.9583(3) 0.41602(9)
H20 H 0.10540 0.93630 0.43050
C23 C 0.2947(4) 0.8733(3) 0.37211(9)
H21 H 0.18560 0.79410 0.35690
C24 C -0.0198(4) 0.8876(3) 0.21925(8)
H22 H -0.09190 0.95860 0.24130
H23 H -0.12810 0.79400 0.21310
C25 C 0.0165(4) 0.9513(2) 0.17036(8)
C26 C 0.1980(4) 0.9251(2) 0.14061(8)
H24 H 0.30760 0.86760 0.15120
C27 C 0.2186(4) 0.9833(3) 0.09516(9)
H25 H 0.34280 0.96610 0.07560
C28 C 0.0560(5) 1.0664(3) 0.07896(9)
H26 H 0.06890 1.10420 0.04820
C29 C -0.1246(5) 1.0936(3) 0.10784(10)
H27 H -0.23440 1.15040 0.09700
C30 C -0.1436(4) 1.0367(3) 0.15312(9)
H28 H -0.26700 1.05600 0.17270
#END
