
#######################################################################
#
#                 Cambridge Crystallographic Data Centre
#                                CCDC
#
#######################################################################
#
# If this CIF has been generated from an entry in the Cambridge
# Structural Database, then it will include bibliographic, chemical,
# crystal, experimental, refinement or atomic coordinate data resulting
# from the CCDC's data processing and validation procedures.
#
#######################################################################

data_CSD_CIF_DEYRUV
_audit_creation_date 2007-07-03
_audit_creation_method CSD-ConQuest-V1
_database_code_CSD DEYRUV
_database_code_depnum_ccdc_archive 'CCDC 642891'
_chemical_formula_sum 'C16 H16 N2 O2'
_chemical_formula_moiety
;
C16 H16 N2 O2
;
_journal_coeditor_code "IUCr AT2207"
_journal_coden_Cambridge 1370
_journal_volume 63
_journal_year 2007
_journal_page_first o1611
_journal_name_full 'Acta Crystallogr.,Sect.E:Struct.Rep.Online '
loop_
_publ_author_name
"Xiu-Ying Yang"
"Yu-Feng Li"
"Jian Zheng"
"Fang-Fang Jian"
_chemical_name_systematic
;
N-(1-(4-Nitrophenyl)ethylidene)-3,5-dimethylaniline
;
_cell_volume   1457.587
_exptl_crystal_colour 'yellow'
_exptl_crystal_density_diffrn 1.223
_exptl_crystal_description 'block'
_exptl_crystal_preparation 'ethanol'
_diffrn_ambient_temperature 293
#These two values have been output from a single CSD field.
_refine_ls_R_factor_gt 0.0645
_refine_ls_wR_factor_gt 0.0645
_symmetry_cell_setting monoclinic
_symmetry_space_group_name_H-M 'P 21/c'
_symmetry_Int_Tables_number 14
loop_
_symmetry_equiv_pos_site_id
_symmetry_equiv_pos_as_xyz
1 x,y,z
2 -x,1/2+y,1/2-z
3 -x,-y,-z
4 x,-1/2-y,-1/2+z
_cell_length_a 8.5850(17)
_cell_length_b 7.1820(14)
_cell_length_c 23.786(5)
_cell_angle_alpha 90
_cell_angle_beta 96.35(3)
_cell_angle_gamma 90
_cell_formula_units_Z 4
loop_
_atom_type_symbol
_atom_type_radius_bond
C 0.68
H 0.23
N 0.68
O 0.68
loop_
_atom_site_label
_atom_site_type_symbol
_atom_site_fract_x
_atom_site_fract_y
_atom_site_fract_z
C1 C 0.1433(4) 1.0886(5) -0.05903(13)
C2 C 0.2483(4) 1.1680(5) -0.01796(15)
H1 H 0.27290 1.29380 -0.01960
C3 C 0.3165(3) 1.0583(5) 0.02560(13)
H2 H 0.38750 1.11080 0.05350
C4 C 0.2800(3) 0.8691(4) 0.02827(12)
C5 C 0.1750(4) 0.7935(4) -0.01451(12)
H3 H 0.15090 0.66730 -0.01360
C6 C 0.1061(4) 0.9022(5) -0.05809(12)
H4 H 0.03580 0.85050 -0.08640
C7 C 0.3722(4) 0.4621(4) 0.12301(12)
C8 C 0.5295(4) 0.4046(4) 0.13398(13)
H5 H 0.60240 0.44220 0.11010
C9 C 0.5760(3) 0.2922(4) 0.18014(13)
C10 C 0.4628(3) 0.2340(4) 0.21488(12)
H6 H 0.49260 0.15780 0.24580
C11 C 0.3051(3) 0.2893(4) 0.20349(13)
C12 C 0.2619(3) 0.4008(4) 0.15772(13)
H7 H 0.15760 0.43600 0.14970
C13 C 0.3459(3) 0.7516(4) 0.07781(12)
C14 C 0.4314(5) 0.8501(5) 0.12721(14)
H8 H 0.46910 0.76070 0.15550
H9 H 0.36170 0.93560 0.14280
H10 H 0.51850 0.91720 0.11510
C15 C 0.1860(4) 0.2223(5) 0.24078(14)
H11 H 0.23710 0.14750 0.27080
H12 H 0.10790 0.14920 0.21880
H13 H 0.13710 0.32740 0.25650
C16 C 0.7449(4) 0.2316(5) 0.19295(15)
H14 H 0.75560 0.15480 0.22620
H15 H 0.81060 0.33940 0.19930
H16 H 0.77580 0.16220 0.16150
N1 N 0.0686(3) 1.2085(5) -0.10508(13)
N2 N 0.3202(3) 0.5776(3) 0.07516(10)
O1 O 0.1035(3) 1.3728(5) -0.10528(13)
O2 O -0.0281(3) 1.1373(4) -0.14001(11)
#END
