
#######################################################################
#
#                 Cambridge Crystallographic Data Centre
#                                CCDC
#
#######################################################################
#
# If this CIF has been generated from an entry in the Cambridge
# Structural Database, then it will include bibliographic, chemical,
# crystal, experimental, refinement or atomic coordinate data resulting
# from the CCDC's data processing and validation procedures.
#
#######################################################################

data_CSD_CIF_DEZRAD01
_audit_creation_date 2013-06-16
_audit_creation_method CSD-ConQuest-V1
_database_code_CSD DEZRAD01
_database_code_depnum_ccdc_archive 'CCDC 899502'
_chemical_formula_sum 'C15 H11 N3 O3'
_chemical_formula_moiety
;
C15 H11 N3 O3
;
_journal_coden_Cambridge 643
_journal_volume 228
_journal_year 2013
_journal_page_first 77
_journal_name_full 'Z.Krist.Cryst.Mater. '
loop_
_publ_author_name
"T.C.Baddeley"
"R.A.Howie"
"G.M.de Lima"
"J.L.Wardell"
"S.M.S.V.Wardell"
_chemical_name_systematic
;
2-(3-Nitrophenyl)-5-phenyl-2,4-dihydro-3H-pyrazol-3-one
;
_chemical_name_common
;
Phenyl-1-(3-nitrophenyl)-4,5-dihydro-1H-pyrazol-5-one
;
_cell_volume    635.757
_exptl_crystal_colour 'green'
_exptl_crystal_density_diffrn 1.469
_exptl_special_details
;
P-1 polymorph

;
_exptl_crystal_description 'block'
_diffrn_ambient_temperature 120
#These two values have been output from a single CSD field.
_refine_ls_R_factor_gt 0.0481
_refine_ls_wR_factor_gt 0.0481
_symmetry_cell_setting triclinic
_symmetry_space_group_name_H-M 'P -1'
_symmetry_Int_Tables_number 2
loop_
_symmetry_equiv_pos_site_id
_symmetry_equiv_pos_as_xyz
1 x,y,z
2 -x,-y,-z
_cell_length_a 7.1042(3)
_cell_length_b 7.1200(2)
_cell_length_c 13.5241(6)
_cell_angle_alpha 78.613(3)
_cell_angle_beta 87.337(2)
_cell_angle_gamma 71.473(3)
_cell_formula_units_Z 2
loop_
_atom_type_symbol
_atom_type_radius_bond
C 0.68
H 0.23
N 0.68
O 0.68
loop_
_atom_site_label
_atom_site_type_symbol
_atom_site_fract_x
_atom_site_fract_y
_atom_site_fract_z
N1 N 0.51479(16) 0.72196(16) 0.02816(8)
O1 O 0.03255(14) 0.83154(16) -0.06445(7)
C1 C 0.41684(19) 0.88776(19) -0.14432(10)
N2 N 0.36531(16) 0.80307(17) -0.04752(8)
C2 C 0.54997(19) 0.55878(19) 0.20355(10)
N3 N 0.18112(18) 1.13737(18) -0.39580(9)
O2 O 0.00607(15) 1.16677(18) -0.37256(8)
C3 C 0.43536(19) 0.65268(19) 0.10934(10)
C4 C 0.5595(2) 0.4122(2) 0.38111(11)
H1 H 0.49310 0.37260 0.44030
C5 C 0.4544(2) 0.4998(2) 0.29101(10)
H2 H 0.31570 0.52000 0.28880
O3 O 0.23505(17) 1.18103(18) -0.48256(8)
C6 C 0.6127(2) 0.88592(19) -0.16253(10)
H3 H 0.70920 0.83230 -0.10940
C7 C 0.27408(19) 0.97113(19) -0.22133(10)
H4 H 0.13990 0.97560 -0.20980
C8 C 0.3340(2) 1.04737(19) -0.31536(10)
C9 C 0.22051(19) 0.6790(2) 0.0949(1)
H5 H 0.13620 0.76530 0.13960
H6 H 0.19540 0.54730 0.10760
C10 C 0.5270(2) 1.0443(2) -0.33721(11)
H7 H 0.56310 1.09560 -0.40310
C11 C 0.18487(19) 0.7806(2) -0.01451(10)
C12 C 0.6660(2) 0.9626(2) -0.25832(11)
H8 H 0.79970 0.95930 -0.27030
C13 C 0.7542(2) 0.5279(2) 0.20774(11)
H9 H 0.82120 0.56700 0.14870
C14 C 0.8589(2) 0.4402(2) 0.29811(11)
H10 H 0.99760 0.41970 0.30070
C15 C 0.7625(2) 0.3822(2) 0.38485(11)
H11 H 0.83500 0.32220 0.44650
#END
