
#######################################################################
#
#                 Cambridge Crystallographic Data Centre
#                                CCDC
#
#######################################################################
#
# If this CIF has been generated from an entry in the Cambridge
# Structural Database, then it will include bibliographic, chemical,
# crystal, experimental, refinement or atomic coordinate data resulting
# from the CCDC's data processing and validation procedures.
#
#######################################################################

data_CSD_CIF_DEZRAD
_audit_creation_date 2013-06-16
_audit_creation_method CSD-ConQuest-V1
_database_code_CSD DEZRAD
_database_code_depnum_ccdc_archive 'CCDC 899503'
_chemical_formula_sum 'C15 H11 N3 O3'
_chemical_formula_moiety
;
C15 H11 N3 O3
;
_journal_coden_Cambridge 643
_journal_volume 228
_journal_year 2013
_journal_page_first 77
_journal_name_full 'Z.Krist.Cryst.Mater. '
loop_
_publ_author_name
"T.C.Baddeley"
"R.A.Howie"
"G.M.de Lima"
"J.L.Wardell"
"S.M.S.V.Wardell"
_chemical_name_systematic
;
2-(3-Nitrophenyl)-5-phenyl-2,4-dihydro-3H-pyrazol-3-one
;
_chemical_name_common
;
3-Phenyl-1-(3-nitrophenyl)-4,5-dihydro-1H-pyrazol-5-one
;
_cell_volume    623.131
_exptl_crystal_colour 'yellow'
_exptl_crystal_density_diffrn 1.499
_exptl_special_details
;
Pn polymorph

;
_exptl_crystal_description 'rod'
_diffrn_ambient_temperature 120
#These two values have been output from a single CSD field.
_refine_ls_R_factor_gt 0.0663
_refine_ls_wR_factor_gt 0.0663
_symmetry_cell_setting monoclinic
_symmetry_space_group_name_H-M 'P n'
_symmetry_Int_Tables_number 7
loop_
_symmetry_equiv_pos_site_id
_symmetry_equiv_pos_as_xyz
1 x,y,z
2 1/2+x,-y,1/2+z
_cell_length_a 4.9858(2)
_cell_length_b 5.3804(4)
_cell_length_c 23.2857(17)
_cell_angle_alpha 90
_cell_angle_beta 94.000(4)
_cell_angle_gamma 90
_cell_formula_units_Z 2
loop_
_atom_type_symbol
_atom_type_radius_bond
C 0.68
H 0.23
N 0.68
O 0.68
loop_
_atom_site_label
_atom_site_type_symbol
_atom_site_fract_x
_atom_site_fract_y
_atom_site_fract_z
O1 O 0.9593(4) 0.4317(4) 0.49027(8)
C1 C 0.7515(5) 0.3747(5) 0.57555(11)
C2 C 0.5901(5) 0.5781(5) 0.56368(12)
H1 H 0.60560 0.67430 0.52990
O2 O 0.8553(4) -0.1585(4) 0.71177(9)
C3 C 0.5529(5) 0.2942(5) 0.66400(11)
N1 N 0.3406(4) 0.2316(4) 0.75232(9)
C4 C 0.1559(4) 0.0995(5) 0.83987(11)
C5 C 0.3376(4) 0.0706(5) 0.79320(12)
N2 N 0.9450(4) 0.3034(5) 0.53348(10)
C6 C 0.7427(5) 0.2289(5) 0.62464(11)
H2 H 0.85980 0.09100 0.63130
C7 C -0.1989(5) 0.1469(5) 0.92698(11)
H3 H -0.32050 0.16240 0.95640
C8 C 0.3817(5) 0.4959(5) 0.65260(12)
H4 H 0.25030 0.53600 0.67870
O3 O 1.0860(4) 0.1172(4) 0.54354(9)
C9 C 0.4015(5) 0.6380(6) 0.60353(13)
H5 H 0.28660 0.77730 0.59680
N3 N 0.5326(4) 0.1541(4) 0.71483(10)
C10 C 0.1544(5) -0.0759(5) 0.88393(12)
H6 H 0.27610 -0.21190 0.88450
C11 C -0.0246(5) -0.0531(5) 0.92716(12)
H7 H -0.02670 -0.17490 0.95670
C12 C -0.1965(5) 0.3259(5) 0.88368(12)
H8 H -0.31520 0.46390 0.88400
C13 C -0.0214(5) 0.3030(5) 0.84022(11)
H9 H -0.02120 0.42470 0.81070
C14 C 0.5330(5) -0.1379(5) 0.78714(12)
H10 H 0.43950 -0.29930 0.78150
H11 H 0.66370 -0.14900 0.82100
C15 C 0.6683(5) -0.0595(5) 0.73361(12)
#END
