
#######################################################################
#
#                 Cambridge Crystallographic Data Centre
#                                CCDC
#
#######################################################################
#
# If this CIF has been generated from an entry in the Cambridge
# Structural Database, then it will include bibliographic, chemical,
# crystal, experimental, refinement or atomic coordinate data resulting
# from the CCDC's data processing and validation procedures.
#
#######################################################################

data_CSD_CIF_DEZTAD
_audit_creation_date 1986-09-02
_audit_creation_method CSD-ConQuest-V1
_database_code_CSD DEZTAD
_chemical_formula_sum 'C14 H12 N2 O3'
_chemical_formula_moiety
;
C14 H12 N2 O3
;
_journal_coden_Cambridge 35
_journal_volume 50
_journal_year 1985
_journal_page_first 3502
_journal_name_full 'J.Org.Chem. '
loop_
_publ_author_name
"R.F.Abdulla"
"D.B.Boyd"
"N.D.Jones"
"J.K.Swartzendruber"
_chemical_name_systematic
;
p-Nitrophenacyl-aniline
;
_cell_volume   1220.159
_exptl_crystal_colour 'scarlet'
_exptl_crystal_density_diffrn 1.395
_diffrn_ambient_temperature ?
_diffrn_special_details
;
The study was carried out at room temperature,in the range 283-303K

;
#These two values have been output from a single CSD field.
_refine_ls_R_factor_gt 0.065
_refine_ls_wR_factor_gt 0.065
_symmetry_cell_setting monoclinic
_symmetry_space_group_name_H-M 'P 21/c'
_symmetry_Int_Tables_number 14
loop_
_symmetry_equiv_pos_site_id
_symmetry_equiv_pos_as_xyz
1 x,y,z
2 -x,1/2+y,1/2-z
3 -x,-y,-z
4 x,-1/2-y,-1/2+z
_cell_length_a 6.130(1)
_cell_length_b 13.301(3)
_cell_length_c 14.992(4)
_cell_angle_alpha 90
_cell_angle_beta 93.45(2)
_cell_angle_gamma 90
_cell_formula_units_Z 4
loop_
_atom_type_symbol
_atom_type_radius_bond
C 0.68
H 0.23
N 0.68
O 0.68
loop_
_atom_site_label
_atom_site_type_symbol
_atom_site_fract_x
_atom_site_fract_y
_atom_site_fract_z
C1 C 0.8846(3) 0.7637(2) 0.4559(1)
C2 C 0.8793(4) 0.8669(2) 0.4583(2)
C3 C 0.6909(4) 0.9177(2) 0.4288(2)
C4 C 0.5093(4) 0.8645(2) 0.3974(1)
C5 C 0.5120(3) 0.7610(2) 0.3951(1)
C6 C 0.7009(2) 0.7091(2) 0.4249(1)
N1 N 0.7109(3) 0.6057(2) 0.4250(2)
C7 C 0.5473(3) 0.5410(2) 0.3859(1)
C8 C 0.6189(3) 0.4329(1) 0.3965(1)
O1 O 0.7942(3) 0.4130(1) 0.4342(1)
C9 C 0.4695(3) 0.3513(2) 0.3611(1)
C10 C 0.2664(4) 0.3711(2) 0.3192(1)
C11 C 0.1291(3) 0.2938(2) 0.2893(1)
C12 C 0.2023(3) 0.1961(1) 0.3032(1)
N2 N 0.0606(3) 0.1127(1) 0.2730(1)
O2 O 0.1299(3) 0.0263(1) 0.2817(1)
O3 O -0.1208(3) 0.1319(1) 0.2399(1)
C13 C 0.4046(3) 0.1741(1) 0.3431(1)
C14 C 0.5400(3) 0.2526(2) 0.3723(1)
H1 H 1.01590 0.72880 0.47560
H2 H 1.00530 0.90390 0.48030
H3 H 0.68700 0.98990 0.43020
H4 H 0.37940 0.90000 0.37690
H5 H 0.38470 0.72460 0.37310
H6 H 0.79970 0.58180 0.44220
H7 H 0.41360 0.55070 0.41500
H8 H 0.52430 0.55650 0.32350
H9 H 0.22010 0.43960 0.31070
H10 H -0.01140 0.30730 0.26000
H11 H 0.45140 0.10560 0.35060
H12 H 0.68190 0.23870 0.40020
#END
