
#######################################################################
#
#                 Cambridge Crystallographic Data Centre
#                                CCDC
#
#######################################################################
#
# If this CIF has been generated from an entry in the Cambridge
# Structural Database, then it will include bibliographic, chemical,
# crystal, experimental, refinement or atomic coordinate data resulting
# from the CCDC's data processing and validation procedures.
#
#######################################################################

data_CSD_CIF_DIBFEA
_audit_creation_date 2007-07-03
_audit_creation_method CSD-ConQuest-V1
_database_code_CSD DIBFEA
_database_code_depnum_ccdc_archive 'CCDC 615397'
_chemical_formula_sum 'C17 H18 N2 O3'
_chemical_formula_moiety
;
C17 H18 N2 O3
;
_journal_coden_Cambridge 177
_journal_volume 5
_journal_year 2007
_journal_page_first 1062
_journal_name_full 'Org.Biomol.Chem. '
loop_
_publ_author_name
"S.L.Cockroft"
"J.Perkins"
"C.Zonta"
"H.Adams"
"S.E.Spey"
"C.M.R.Low"
"J.G.Vinter"
"K.R.Lawson"
"C.J.Urch"
"C.A.Hunter"
_chemical_name_systematic
;
N-(2,6-Dimethyl-4-nitrophenyl)-2,6-dimethylbenzamide
;
_chemical_melting_point 503.15
_cell_volume   1548.717
_exptl_crystal_colour 'yellow'
_exptl_crystal_density_diffrn 1.279
_exptl_special_details
;
Melts with decomposition.

;
_exptl_crystal_description 'plate'
_exptl_crystal_preparation 'petroleum ether/dichloromethane'
_diffrn_ambient_temperature 150
#These two values have been output from a single CSD field.
_refine_ls_R_factor_gt 0.059
_refine_ls_wR_factor_gt 0.059
_symmetry_cell_setting monoclinic
_symmetry_space_group_name_H-M 'P 21/c'
_symmetry_Int_Tables_number 14
loop_
_symmetry_equiv_pos_site_id
_symmetry_equiv_pos_as_xyz
1 x,y,z
2 -x,1/2+y,1/2-z
3 -x,-y,-z
4 x,-1/2-y,-1/2+z
_cell_length_a 22.145(3)
_cell_length_b 4.8085(6)
_cell_length_c 14.6170(18)
_cell_angle_alpha 90
_cell_angle_beta 95.725(3)
_cell_angle_gamma 90
_cell_formula_units_Z 4
loop_
_atom_type_symbol
_atom_type_radius_bond
C 0.68
H 0.23
N 0.68
O 0.68
loop_
_atom_site_label
_atom_site_type_symbol
_atom_site_fract_x
_atom_site_fract_y
_atom_site_fract_z
N1 N -0.24031(13) 0.5520(6) 0.41341(19)
H1 H -0.25040 0.72270 0.42060
N2 N 0.00575(15) 0.3907(8) 0.3631(2)
O1 O -0.27469(11) 0.1100(5) 0.41202(19)
O2 O 0.03440(12) 0.2024(7) 0.4047(2)
O3 O 0.02848(12) 0.5562(6) 0.3126(2)
C1 C -0.28419(16) 0.3606(8) 0.4141(3)
C2 C -0.17844(15) 0.4973(7) 0.4018(2)
C3 C -0.14220(16) 0.3330(7) 0.4648(3)
C4 C -0.08163(16) 0.2924(8) 0.4491(3)
H2 H -0.05670 0.17880 0.48800
C5 C -0.05912(16) 0.4214(8) 0.3757(3)
C6 C -0.09431(16) 0.5841(8) 0.3145(3)
H3 H -0.07740 0.66950 0.26590
C7 C -0.15511(16) 0.6202(7) 0.3256(3)
C8 C -0.34770(16) 0.4730(7) 0.4160(3)
C9 C -0.38935(17) 0.4137(8) 0.3396(3)
C10 C -0.44810(18) 0.5182(9) 0.3376(3)
H4 H -0.47630 0.48170 0.28750
C11 C -0.46427(19) 0.6753(11) 0.4096(4)
H5 H -0.50330 0.74760 0.40730
C12 C -0.4241(2) 0.7269(10) 0.4843(4)
H6 H -0.43650 0.82950 0.53310
C13 C -0.36474(17) 0.6287(8) 0.4890(3)
C14 C -0.16483(16) 0.2066(8) 0.5487(3)
H7 H -0.19710 0.31850 0.56810
H8 H -0.13230 0.19810 0.59720
H9 H -0.17960 0.02220 0.53470
C15 C -0.19477(18) 0.7900(9) 0.2567(3)
H10 H -0.20750 0.95610 0.28580
H11 H -0.22980 0.68300 0.23440
H12 H -0.17230 0.83900 0.20630
C16 C -0.37307(18) 0.2368(9) 0.2608(3)
H13 H -0.37270 0.04460 0.27870
H14 H -0.33360 0.28870 0.24480
H15 H -0.40250 0.26410 0.20880
C17 C -0.32144(18) 0.6897(9) 0.5730(3)
H16 H -0.29710 0.52820 0.58870
H17 H -0.34410 0.73740 0.62340
H18 H -0.29560 0.84230 0.56020
#END
