
#######################################################################
#
#                 Cambridge Crystallographic Data Centre
#                                CCDC
#
#######################################################################
#
# If this CIF has been generated from an entry in the Cambridge
# Structural Database, then it will include bibliographic, chemical,
# crystal, experimental, refinement or atomic coordinate data resulting
# from the CCDC's data processing and validation procedures.
#
#######################################################################

data_CSD_CIF_DIBFIE
_audit_creation_date 2007-07-02
_audit_creation_method CSD-ConQuest-V1
_database_code_CSD DIBFIE
_database_code_depnum_ccdc_archive 'CCDC 615398'
_chemical_formula_sum 'C24 H22 N4 O6'
_chemical_formula_moiety
;
C24 H22 N4 O6
;
_journal_coden_Cambridge 177
_journal_volume 5
_journal_year 2007
_journal_page_first 1062
_journal_name_full 'Org.Biomol.Chem. '
loop_
_publ_author_name
"S.L.Cockroft"
"J.Perkins"
"C.Zonta"
"H.Adams"
"S.E.Spey"
"C.M.R.Low"
"J.G.Vinter"
"K.R.Lawson"
"C.J.Urch"
"C.A.Hunter"
_chemical_name_systematic
;
N,N'-bis(2,6-Dimethyl-4-nitrophenyl)isophthalamide
;
_chemical_melting_point 523.15
_cell_volume   2896.703
_exptl_crystal_colour 'colorless'
_exptl_crystal_density_diffrn 1.06
_exptl_special_details
;
Melts above 523.15K

;
_exptl_crystal_description 'Block'
_diffrn_ambient_temperature 150
_refine_special_details
;
Large void space, possible disorder.

;
#These two values have been output from a single CSD field.
_refine_ls_R_factor_gt 0.0507
_refine_ls_wR_factor_gt 0.0507
_symmetry_cell_setting monoclinic
_symmetry_space_group_name_H-M 'P 21/c'
_symmetry_Int_Tables_number 14
loop_
_symmetry_equiv_pos_site_id
_symmetry_equiv_pos_as_xyz
1 x,y,z
2 -x,1/2+y,1/2-z
3 -x,-y,-z
4 x,-1/2-y,-1/2+z
_cell_length_a 15.0670(17)
_cell_length_b 12.8503(14)
_cell_length_c 15.5065(17)
_cell_angle_alpha 90
_cell_angle_beta 105.241(2)
_cell_angle_gamma 90
_cell_formula_units_Z 4
loop_
_atom_type_symbol
_atom_type_radius_bond
C 0.68
H 0.23
N 0.68
O 0.68
loop_
_atom_site_label
_atom_site_type_symbol
_atom_site_fract_x
_atom_site_fract_y
_atom_site_fract_z
O1 O 0.62609(8) 0.40229(8) 0.37637(8)
O2 O 0.97889(13) 0.41441(14) 0.73170(12)
O3 O 1.05235(10) 0.52591(16) 0.67235(12)
O4 O 0.37499(8) 0.29380(8) 0.11856(8)
O5 O 0.21696(10) 0.08397(10) -0.29878(9)
O6 O 0.08252(9) 0.14058(11) -0.29676(9)
N1 N 0.65536(9) 0.57199(9) 0.41423(9)
H1 H 0.63700 0.63700 0.40480
N2 N 0.98215(13) 0.48056(15) 0.67553(12)
N3 N 0.32780(9) 0.41596(10) 0.01090(9)
H2 H 0.32610 0.48270 -0.00220
N4 N 0.16643(11) 0.14075(11) -0.26897(9)
C1 C 0.48202(11) 0.44891(11) 0.23044(11)
H3 H 0.50660 0.38040 0.23700
C2 C 0.40586(10) 0.47137(11) 0.16032(10)
C3 C 0.36758(11) 0.57057(11) 0.15317(11)
H4 H 0.31440 0.58600 0.10640
C4 C 0.40684(11) 0.64634(11) 0.21397(11)
H5 H 0.38030 0.71390 0.20870
C5 C 0.48425(11) 0.62567(12) 0.28261(11)
H6 H 0.51110 0.67900 0.32360
C6 C 0.52284(10) 0.52616(11) 0.29148(10)
C7 C 0.60501(11) 0.49555(12) 0.36394(11)
C8 C 0.73736(10) 0.54955(11) 0.48196(10)
C9 C 0.73278(11) 0.49033(12) 0.55670(11)
C10 C 0.81506(13) 0.46729(13) 0.61950(11)
H7 H 0.81490 0.42550 0.67000
C11 C 0.89642(12) 0.50511(14) 0.60819(12)
C12 C 0.90054(11) 0.56627(13) 0.53701(12)
H8 H 0.95800 0.59250 0.53220
C13 C 0.82055(11) 0.58970(12) 0.47198(11)
C14 C 0.64320(13) 0.45560(15) 0.57192(13)
H9 H 0.59510 0.50610 0.54520
H10 H 0.64920 0.45070 0.63630
H11 H 0.62670 0.38730 0.54420
C15 C 0.82286(13) 0.65497(14) 0.39275(13)
H12 H 0.78330 0.71600 0.39050
H13 H 0.80070 0.61400 0.33800
H14 H 0.88610 0.67770 0.39780
C16 C 0.36767(10) 0.38613(12) 0.09500(11)
C17 C 0.28772(11) 0.34296(11) -0.0586(1)
C18 C 0.34455(11) 0.28072(13) -0.09481(11)
C19 C 0.30392(12) 0.21447(12) -0.16488(11)
H15 H 0.34080 0.17180 -0.19170
C20 C 0.20950(12) 0.21161(12) -0.19484(10)
C21 C 0.15265(12) 0.27370(12) -0.15999(11)
H16 H 0.08780 0.27020 -0.18320
C22 C 0.19203(11) 0.34170(12) -0.09011(11)
C23 C 0.44780(12) 0.28536(16) -0.06147(14)
H17 H 0.46820 0.35770 -0.06170
H18 H 0.47540 0.24360 -0.10060
H19 H 0.46700 0.25780 -0.00050
C24 C 0.13247(13) 0.41086(15) -0.05128(13)
H20 H 0.14270 0.39540 0.01250
H21 H 0.06770 0.39870 -0.08220
H22 H 0.14800 0.48380 -0.05870
#END
