
#######################################################################
#
#                 Cambridge Crystallographic Data Centre
#                                CCDC
#
#######################################################################
#
# If this CIF has been generated from an entry in the Cambridge
# Structural Database, then it will include bibliographic, chemical,
# crystal, experimental, refinement or atomic coordinate data resulting
# from the CCDC's data processing and validation procedures.
#
#######################################################################

data_CSD_CIF_DIBKUX
_audit_creation_date 2018-06-26
_audit_creation_method CSD-ConQuest-V1
_database_code_CSD DIBKUX
_database_code_depnum_ccdc_archive 'CCDC 1848630'
_chemical_formula_sum 'C15 H14 N2 O6'
_chemical_formula_moiety
;
C15 H14 N2 O6
;
_journal_coden_Cambridge 1336
_journal_volume 20
_journal_year 2018
_journal_page_first 4144
_journal_name_full 'Org.Lett. '
loop_
_publ_author_name
"G.A.Brito"
"F.Della-Felice"
"Guoshun Luo"
"A.S.Burns"
"R.A.Pilli"
"S.D.Rychnovsky"
"M.J.Krische"
_chemical_name_systematic
;
4,4-dimethylhex-5-en-1-yn-3-yl 3,5-dinitrobenzoate
;
_cell_volume   1565.109
_exptl_crystal_colour 'colorless'
_exptl_crystal_density_diffrn 1.351
_exptl_special_details
;
Absolute configuration

;
_exptl_crystal_description 'plate'
_diffrn_ambient_temperature 223
_refine_special_details
;
C12,C13,C14,C15 and C12A,C13A,C14A,C15A disordered over two sites with 
occupancies 0.6:0.4.
;
#These two values have been output from a single CSD field.
_refine_ls_R_factor_gt 0.0354
_refine_ls_wR_factor_gt 0.0354
_symmetry_cell_setting orthorhombic
_symmetry_space_group_name_H-M 'P 21 21 21'
_symmetry_Int_Tables_number 19
loop_
_symmetry_equiv_pos_site_id
_symmetry_equiv_pos_as_xyz
1 x,y,z
2 1/2-x,-y,1/2+z
3 -x,1/2+y,1/2-z
4 1/2+x,1/2-y,-z
_cell_length_a 6.2389(1)
_cell_length_b 9.5497(1)
_cell_length_c 26.2692(4)
_cell_angle_alpha 90
_cell_angle_beta 90
_cell_angle_gamma 90
_cell_formula_units_Z 4
loop_
_atom_type_symbol
_atom_type_radius_bond
C 0.68
H 0.23
N 0.68
O 0.68
loop_
_atom_site_label
_atom_site_type_symbol
_atom_site_fract_x
_atom_site_fract_y
_atom_site_fract_z
C1 C 0.4530(3) 0.57160(18) 0.26223(7)
C2 C 0.2650(3) 0.64584(18) 0.27003(7)
H1 H 0.22389 0.67343 0.30296
C3 C 0.1396(3) 0.67840(17) 0.22849(7)
C4 C 0.1918(4) 0.6385(2) 0.17944(8)
H2 H 0.10345 0.66052 0.15159
C5 C 0.3801(3) 0.56474(19) 0.17343(7)
C6 C 0.5112(3) 0.53028(19) 0.21340(7)
H3 H 0.63827 0.47959 0.20788
C7 C 0.6044(3) 0.53553(18) 0.30416(7)
C8 C 0.6738(4) 0.5475(3) 0.39287(8)
H4 H 0.76327 0.46433 0.38544
C9 C 0.8118(4) 0.6685(3) 0.39736(9)
C10 C 0.9254(4) 0.7668(4) 0.40041(11)
H5 H 1.01596 0.84522 0.40284
C11 C 0.5377(5) 0.5174(3) 0.44051(9)
C12 C 0.4327(11) 0.3780(6) 0.4338(2)
H6 H 0.52089 0.29825 0.43465
C13 C 0.2311(14) 0.3591(11) 0.4268(5)
H7 H 0.13792 0.43644 0.42569
H8 H 0.17663 0.26802 0.42284
C14 C 0.3892(14) 0.6356(8) 0.4531(4)
H9 H 0.30084 0.65684 0.42375
H10 H 0.47230 0.71761 0.46235
H11 H 0.29833 0.60885 0.48147
C15 C 0.7064(14) 0.5006(8) 0.4855(2)
H12 H 0.63225 0.47276 0.51639
H13 H 0.77867 0.58921 0.49119
H14 H 0.81095 0.42972 0.47651
N1 N -0.0566(3) 0.76194(17) 0.23618(8)
N2 N 0.4464(4) 0.5240(2) 0.12145(8)
O1 O -0.0838(3) 0.81562(19) 0.27744(6)
O2 O -0.1804(3) 0.7737(2) 0.20052(8)
O3 O 0.3280(4) 0.5543(2) 0.08629(7)
O4 O 0.6165(4) 0.4632(3) 0.11667(8)
O5 O 0.7754(2) 0.48204(17) 0.29704(6)
O6 O 0.5283(2) 0.57151(17) 0.34978(5)
C16? C 0.3542(15) 0.4193(9) 0.4214(4)
H15? H 0.27422 0.45126 0.39334
C17? C 0.301(3) 0.3007(12) 0.4396(6)
H16? H 0.37583 0.26367 0.46759
H17? H 0.18744 0.25007 0.42499
C18? C 0.428(2) 0.6564(11) 0.4569(5)
H18? H 0.32879 0.63802 0.48457
H19? H 0.34989 0.69537 0.42822
H20? H 0.53580 0.72264 0.46807
C19? C 0.666(2) 0.4548(14) 0.4819(4)
H21? H 0.74447 0.37486 0.46882
H22? H 0.57134 0.42460 0.50905
H23? H 0.76592 0.52377 0.49489
#END
