
#######################################################################
#
#                 Cambridge Crystallographic Data Centre
#                                CCDC
#
#######################################################################
#
# If this CIF has been generated from an entry in the Cambridge
# Structural Database, then it will include bibliographic, chemical,
# crystal, experimental, refinement or atomic coordinate data resulting
# from the CCDC's data processing and validation procedures.
#
#######################################################################

data_CSD_CIF_DIBRUE
_audit_creation_date 2018-06-26
_audit_creation_method CSD-ConQuest-V1
_database_code_CSD DIBRUE
_database_code_depnum_ccdc_archive 'CCDC 1851331'
_chemical_formula_sum 'C8 H2 N14 O8'
_chemical_formula_moiety
;
C8 H2 N14 O8
;
_journal_coden_Cambridge 1078
_journal_year 2018
_journal_name_full 'CSD Communication(Private Communication) '
loop_
_publ_author_name
"qian wang"
_chemical_name_systematic
;
4,4'-[diazene-1,2-diylbis(1,3,4-oxadiazole-5,2-diyl)]bis(N-nitro-1,2,5-oxadiaz
ol-3-amine)
;
_cell_volume    793.362
_exptl_crystal_colour 'yellow'
_exptl_crystal_density_diffrn 1.768
_exptl_crystal_description 'Block'
_diffrn_ambient_temperature 296
#These two values have been output from a single CSD field.
_refine_ls_R_factor_gt 0.0394
_refine_ls_wR_factor_gt 0.0394
_symmetry_cell_setting monoclinic
_symmetry_space_group_name_H-M 'P 21/c'
_symmetry_Int_Tables_number 14
loop_
_symmetry_equiv_pos_site_id
_symmetry_equiv_pos_as_xyz
1 x,y,z
2 -x,1/2+y,1/2-z
3 -x,-y,-z
4 x,-1/2-y,-1/2+z
_cell_length_a 10.2812(11)
_cell_length_b 7.4941(8)
_cell_length_c 11.3241(13)
_cell_angle_alpha 90
_cell_angle_beta 114.592(3)
_cell_angle_gamma 90
_cell_formula_units_Z 2
loop_
_atom_type_symbol
_atom_type_radius_bond
C 0.68
H 0.23
N 0.68
O 0.68
loop_
_atom_site_label
_atom_site_type_symbol
_atom_site_fract_x
_atom_site_fract_y
_atom_site_fract_z
C1 C 0.47300(18) 0.5080(2) 0.83835(16)
C2 C 0.33445(18) 0.4316(2) 0.65076(15)
C3 C 0.21656(18) 0.3408(2) 0.54853(15)
C4 C 0.16614(19) 0.3563(2) 0.41132(16)
N1 N 0.52543(17) 0.5740(2) 0.76256(14)
N2 N 0.43294(16) 0.5236(2) 0.63753(13)
N3 N 0.53446(15) 0.5359(2) 0.97182(13)
N4 N 0.0654(2) 0.2398(3) 0.35613(15)
N5 N 0.14495(18) 0.2156(3) 0.57454(14)
N6 N 0.21567(18) 0.4600(2) 0.33786(14)
H1 H 0.24130 0.41060 0.28240
N7 N 0.22386(18) 0.6415(2) 0.35348(16)
O1 O 0.35090(12) 0.41437(15) 0.77513(10)
O2 O 0.05176(18) 0.1500(2) 0.45645(13)
O3 O 0.26260(19) 0.7205(2) 0.28005(18)
O4 O 0.1938(2) 0.7037(2) 0.43735(15)
C1B C 0.52700(18) 0.4920(2) 1.16165(16)
C2B C 0.66555(18) 0.5684(2) 1.34924(15)
C3B C 0.78344(18) 0.6592(2) 1.45147(15)
C4B C 0.83386(19) 0.6437(2) 1.58868(16)
N1B N 0.47457(17) 0.4260(2) 1.23744(14)
N2B N 0.56706(16) 0.4764(2) 1.36247(13)
N3B N 0.46554(15) 0.4641(2) 1.02818(13)
N4B N 0.9346(2) 0.7602(3) 1.64387(15)
N5B N 0.85505(18) 0.7844(3) 1.42546(14)
N6B N 0.78433(18) 0.5400(2) 1.66214(14)
H1B H 0.75870 0.58940 1.71760
N7B N 0.77614(18) 0.3585(2) 1.64652(16)
O1B O 0.64910(12) 0.58563(15) 1.22487(10)
O2B O 0.94824(18) 0.8500(2) 1.54355(13)
O3B O 0.73740(19) 0.2795(2) 1.71995(18)
O4B O 0.8062(2) 0.2963(2) 1.56265(15)
#END
