
#######################################################################
#
#                 Cambridge Crystallographic Data Centre
#                                CCDC
#
#######################################################################
#
# If this CIF has been generated from an entry in the Cambridge
# Structural Database, then it will include bibliographic, chemical,
# crystal, experimental, refinement or atomic coordinate data resulting
# from the CCDC's data processing and validation procedures.
#
#######################################################################

data_CSD_CIF_DICBUO
_audit_creation_date 2013-06-17
_audit_creation_method CSD-ConQuest-V1
_database_code_CSD DICBUO
_database_code_depnum_ccdc_archive 'CCDC 886750'
_chemical_formula_sum 'C18 H19 N3 O3'
_chemical_formula_moiety
;
C18 H19 N3 O3
;
_journal_coden_Cambridge 4
_journal_volume 134
_journal_year 2012
_journal_page_first 18193
_journal_name_full 'J.Am.Chem.Soc. '
loop_
_publ_author_name
"D.Best"
"S.Kujawa"
"Hon Wai Lam"
_chemical_name_systematic
;
2-(6-Nitro-1,3-benzoxazol-2-yl)-1-phenylpentan-1-amine
;
_cell_volume   1673.332
_exptl_crystal_colour 'colorless'
_exptl_crystal_density_diffrn 1.291
_exptl_special_details
;
Absolute configuration

;
_exptl_crystal_description 'block'
_diffrn_ambient_temperature 120
#These two values have been output from a single CSD field.
_refine_ls_R_factor_gt 0.0245
_refine_ls_wR_factor_gt 0.0245
_symmetry_cell_setting orthorhombic
_symmetry_space_group_name_H-M 'P 21 21 21'
_symmetry_Int_Tables_number 19
loop_
_symmetry_equiv_pos_site_id
_symmetry_equiv_pos_as_xyz
1 x,y,z
2 1/2-x,-y,1/2+z
3 -x,1/2+y,1/2-z
4 1/2+x,1/2-y,-z
_cell_length_a 5.91759(3)
_cell_length_b 11.50337(5)
_cell_length_c 24.58172(11)
_cell_angle_alpha 90
_cell_angle_beta 90
_cell_angle_gamma 90
_cell_formula_units_Z 4
loop_
_atom_type_symbol
_atom_type_radius_bond
C 0.68
H 0.23
N 0.68
O 0.68
loop_
_atom_site_label
_atom_site_type_symbol
_atom_site_fract_x
_atom_site_fract_y
_atom_site_fract_z
O1 O 0.25729(12) 0.28477(6) 0.13193(3)
O2 O 0.60896(17) -0.00990(9) 0.26326(4)
O3 O 0.3860(2) -0.15637(8) 0.25346(5)
N1 N 0.12024(15) 0.29350(7) -0.00627(3)
H1 H 0.178(2) 0.295(1) -0.0403(5)
H2 H -0.032(2) 0.2837(10) -0.0080(5)
N2 N -0.09210(15) 0.22096(7) 0.11051(3)
N3 N 0.44153(19) -0.05613(9) 0.24393(4)
C1 C 0.05580(17) 0.30282(8) 0.10534(4)
C2 C 0.22842(18) 0.17808(8) 0.15658(4)
C3 C 0.37783(19) 0.11975(9) 0.18976(4)
H3 H 0.52240 0.14930 0.19930
C4 C 0.2958(2) 0.01323(9) 0.20790(4)
C5 C 0.0851(2) -0.03200(9) 0.19457(4)
H4 H 0.04050 -0.10560 0.20850
C6 C -0.0596(2) 0.02962(9) 0.16124(4)
H5 H -0.20340 -0.00030 0.15130
C7 C 0.01494(18) 0.13796(8) 0.14284(4)
C8 C 0.03397(17) 0.41275(8) 0.07368(4)
H6 H -0.12870 0.42110 0.06330
C9 C 0.17223(17) 0.40437(8) 0.02018(4)
H7 H 0.33610 0.40360 0.03010
C10 C 0.13066(17) 0.51069(8) -0.01521(4)
C11 C -0.07129(19) 0.52372(9) -0.04367(4)
H8 H -0.18430 0.46530 -0.04120
C12 C -0.1091(2) 0.62165(10) -0.07569(4)
H9 H -0.24740 0.62980 -0.09490
C13 C 0.0550(2) 0.70735(10) -0.07953(5)
H10 H 0.02980 0.77380 -0.10160
C14 C 0.2551(2) 0.69576(10) -0.05115(5)
H11 H 0.36700 0.75480 -0.05330
C15 C 0.29291(19) 0.59770(9) -0.01936(4)
H12 H 0.43150 0.59000 -0.00020
C16 C 0.09741(19) 0.51929(8) 0.10795(4)
H13 H 0.25190 0.50830 0.12250
H14 H 0.09970 0.58870 0.08410
C17 C -0.0631(3) 0.54155(9) 0.15503(4)
H15 H -0.04850 0.47790 0.18190
H16 H -0.22050 0.54140 0.14140
C18 C -0.0149(3) 0.65732(10) 0.18285(5)
H17 H -0.02410 0.72020 0.15610
H18 H 0.13700 0.65560 0.19870
H19 H -0.12650 0.67050 0.21160
#END
