
#######################################################################
#
#                 Cambridge Crystallographic Data Centre
#                                CCDC
#
#######################################################################
#
# If this CIF has been generated from an entry in the Cambridge
# Structural Database, then it will include bibliographic, chemical,
# crystal, experimental, refinement or atomic coordinate data resulting
# from the CCDC's data processing and validation procedures.
#
#######################################################################

data_CSD_CIF_DICPUA01
_audit_creation_date 1988-03-22
_audit_creation_method CSD-ConQuest-V1
_database_code_CSD DICPUA01
_database_code_depnum_ccdc_archive 'CCDC 1140287'
_chemical_formula_sum 'C8 H6 N2 O2'
_chemical_formula_moiety
;
C8 H6 N2 O2
;
_journal_coden_Cambridge 41
_journal_volume 32
_journal_year 1987
_journal_page_first 359
_journal_name_full 'Kristallografiya(Russ.)(Crystallogr.Rep.) '
loop_
_publ_author_name
"A.A.Espenbetov"
"Yu.T.Struchkov"
"T.I.Godovikov"
"L.I.Khmel'nitskii"
_chemical_name_systematic
;
3-Phenyl-1,2,5-oxadiazole 2-oxide
;
_cell_volume    378.639
_exptl_crystal_density_diffrn 1.423
_diffrn_ambient_temperature ?
_diffrn_special_details
;
The study was carried out at room temperature,in the range 283-303K

;
#These two values have been output from a single CSD field.
_refine_ls_R_factor_gt 0.0382
_refine_ls_wR_factor_gt 0.0382
_symmetry_cell_setting triclinic
_symmetry_space_group_name_H-M 'P -1'
_symmetry_Int_Tables_number 2
loop_
_symmetry_equiv_pos_site_id
_symmetry_equiv_pos_as_xyz
1 x,y,z
2 -x,-y,-z
_cell_length_a 6.4390(9)
_cell_length_b 7.010(1)
_cell_length_c 9.155(2)
_cell_angle_alpha 74.75(2)
_cell_angle_beta 72.01(2)
_cell_angle_gamma 82.49(3)
_cell_formula_units_Z 2
loop_
_atom_type_symbol
_atom_type_radius_bond
C 0.68
H 0.23
N 0.68
O 0.68
loop_
_atom_site_label
_atom_site_type_symbol
_atom_site_fract_x
_atom_site_fract_y
_atom_site_fract_z
O1 O 0.3719(2) 0.3003(2) -0.4082(1)
O2 O 0.5036(2) 0.2198(2) -0.1948(2)
N1 N 0.3375(2) 0.2578(2) -0.2400(2)
C1 C 0.1265(2) 0.2726(2) -0.1720(2)
C2 C 0.0283(3) 0.3235(3) -0.2962(2)
N2 N 0.1715(3) 0.3408(3) -0.4345(2)
C3 C 0.0254(3) 0.2431(2) -0.0009(2)
C4 C -0.1982(3) 0.2737(3) 0.0555(2)
C5 C -0.2985(4) 0.2488(3) 0.2173(2)
C6 C -0.1736(4) 0.1946(3) 0.3208(3)
C7 C 0.0458(4) 0.1632(3) 0.2659(2)
C8 C 0.1502(3) 0.1862(3) 0.1051(2)
H1 H -0.115(3) 0.350(3) -0.293(2)
H2 H -0.293(3) 0.316(3) -0.016(2)
H3 H -0.450(4) 0.275(3) 0.248(2)
H4 H -0.245(4) 0.180(3) 0.431(3)
H5 H 0.146(3) 0.123(3) 0.335(3)
H6 H 0.303(3) 0.159(3) 0.068(2)
#END
