
#######################################################################
#
#                 Cambridge Crystallographic Data Centre
#                                CCDC
#
#######################################################################
#
# If this CIF has been generated from an entry in the Cambridge
# Structural Database, then it will include bibliographic, chemical,
# crystal, experimental, refinement or atomic coordinate data resulting
# from the CCDC's data processing and validation procedures.
#
#######################################################################

data_CSD_CIF_DICPUA
_audit_creation_date 1986-09-02
_audit_creation_method CSD-ConQuest-V1
_database_code_CSD DICPUA
_database_code_depnum_ccdc_archive 'CCDC 1140286'
_chemical_formula_sum 'C8 H6 N2 O2'
_chemical_formula_moiety
;
C8 H6 N2 O2
;
_journal_coeditor_code "IUCr A25458"
_journal_coden_Cambridge 622
_journal_volume 42
_journal_year 1986
_journal_page_first 84
_journal_name_full 'Acta Crystallogr.,Sect.B:Struct.Sci. '
loop_
_publ_author_name
"M.Calleri"
"G.Ranghino"
"P.Ugliengo"
"D.Viterbo"
_chemical_name_systematic
;
3-Phenylfuroxan
;
_chemical_melting_point 380
_cell_volume    378.879
_exptl_crystal_colour 'colorless'
_exptl_crystal_density_diffrn 1.42
_diffrn_ambient_temperature ?
_diffrn_special_details
;
The study was carried out at room temperature,in the range 283-303K

;
#These two values have been output from a single CSD field.
_refine_ls_R_factor_gt 0.051
_refine_ls_wR_factor_gt 0.051
_symmetry_cell_setting triclinic
_symmetry_space_group_name_H-M 'P -1'
_symmetry_Int_Tables_number 2
loop_
_symmetry_equiv_pos_site_id
_symmetry_equiv_pos_as_xyz
1 x,y,z
2 -x,-y,-z
_cell_length_a 6.438(1)
_cell_length_b 7.017(2)
_cell_length_c 9.151(1)
_cell_angle_alpha 74.75(1)
_cell_angle_beta 72.05(1)
_cell_angle_gamma 82.50(1)
_cell_formula_units_Z 2
loop_
_atom_type_symbol
_atom_type_radius_bond
C 0.68
H 0.23
N 0.68
O 0.68
loop_
_atom_site_label
_atom_site_type_symbol
_atom_site_fract_x
_atom_site_fract_y
_atom_site_fract_z
C1 C -0.1260(2) 0.2277(2) 0.1716(2)
C2 C -0.0290(2) 0.1763(2) 0.2972(2)
C3 C -0.0266(2) 0.2570(2) 0.0018(2)
C4 C -0.1500(3) 0.3144(2) -0.1055(2)
C5 C -0.0475(3) 0.3368(3) -0.2657(2)
C6 C 0.1748(3) 0.3049(3) -0.3218(2)
C7 C 0.2991(3) 0.2502(3) -0.2166(2)
C8 C 0.1994(2) 0.2266(2) -0.0561(2)
N1 N -0.3383(2) 0.2415(2) 0.2407(2)
N2 N -0.1713(2) 0.1600(2) 0.4344(2)
O1 O -0.3722(2) 0.1993(2) 0.4084(1)
O2 O -0.5041(2) 0.2801(2) 0.1951(2)
H1 H 0.1251(22) 0.1578(28) 0.2904(22)
H2 H -0.3090(22) 0.3486(27) -0.0617(22)
H3 H -0.1393(27) 0.3779(29) -0.3418(20)
H4 H 0.2496(28) 0.3123(30) -0.4323(17)
H5 H 0.4609(22) 0.2290(29) -0.2599(22)
H6 H 0.2916(28) 0.1782(28) 0.0178(20)
#END
