
#######################################################################
#
#                 Cambridge Crystallographic Data Centre
#                                CCDC
#
#######################################################################
#
# If this CIF has been generated from an entry in the Cambridge
# Structural Database, then it will include bibliographic, chemical,
# crystal, experimental, refinement or atomic coordinate data resulting
# from the CCDC's data processing and validation procedures.
#
#######################################################################

data_CSD_CIF_DICPAJ
_audit_creation_date 2018-06-26
_audit_creation_method CSD-ConQuest-V1
_database_code_CSD DICPAJ
_database_code_depnum_ccdc_archive 'CCDC 1851220'
_chemical_formula_sum 'C20 H13 N1 O3'
_chemical_formula_moiety
;
C20 H13 N1 O3
;
_journal_coden_Cambridge 1078
_journal_year 2018
_journal_name_full 'CSD Communication(Private Communication) '
loop_
_publ_author_name
"N.Panda"
"I.Mattan"
"C.S.Purohit"
_chemical_name_systematic
;
2-nitro-10-phenyldibenzo[b,f]oxepine
;
_cell_volume    756.297
_exptl_crystal_colour 'yellow'
_exptl_crystal_density_diffrn 1.385
_exptl_crystal_description 'needle'
_diffrn_ambient_temperature 293
#These two values have been output from a single CSD field.
_refine_ls_R_factor_gt 0.0426
_refine_ls_wR_factor_gt 0.0426
_symmetry_cell_setting monoclinic
_symmetry_space_group_name_H-M 'P 21'
_symmetry_Int_Tables_number 4
loop_
_symmetry_equiv_pos_site_id
_symmetry_equiv_pos_as_xyz
1 x,y,z
2 -x,1/2+y,-z
_cell_length_a 7.2086(2)
_cell_length_b 12.6711(4)
_cell_length_c 8.3699(3)
_cell_angle_alpha 90
_cell_angle_beta 98.408(3)
_cell_angle_gamma 90
_cell_formula_units_Z 2
loop_
_atom_type_symbol
_atom_type_radius_bond
C 0.68
H 0.23
N 0.68
O 0.68
loop_
_atom_site_label
_atom_site_type_symbol
_atom_site_fract_x
_atom_site_fract_y
_atom_site_fract_z
O1 O 0.1321(2) 0.67919(12) 0.4664(2)
N1 N -0.1449(3) 0.3526(2) 0.0550(3)
O2 O -0.1909(4) 0.3717(2) -0.0878(3)
O3 O -0.1469(5) 0.2641(2) 0.1112(4)
C1 C 0.0635(3) 0.59692(19) 0.3659(3)
C2 C -0.0318(3) 0.4172(2) 0.3267(3)
H1 H -0.05120 0.35000 0.36590
C3 C 0.1080(3) 0.4735(2) 0.6024(3)
H2 H 0.03510 0.42720 0.65310
C4 C -0.0782(3) 0.4393(2) 0.1644(3)
C5 C 0.3199(3) 0.4771(2) 0.8609(3)
C6 C 0.0446(3) 0.49679(19) 0.4316(3)
C7 C 0.3252(3) 0.66669(19) 0.5153(3)
C8 C 0.2633(3) 0.51340(18) 0.6927(3)
C9 C 0.0124(4) 0.6181(2) 0.2037(3)
H3 H 0.02630 0.68580 0.16440
C10 C -0.0594(4) 0.5384(2) 0.0996(3)
H4 H -0.09390 0.55110 -0.01020
C11 C 0.3963(4) 0.5480(3) 0.9804(3)
H5 H 0.41300 0.61830 0.95380
C12 C 0.3903(3) 0.58801(19) 0.6259(3)
C13 C 0.4477(4) 0.5144(3) 1.1390(4)
H6 H 0.49750 0.56240 1.21780
C14 C 0.4447(4) 0.7355(2) 0.4521(3)
H7 H 0.39700 0.78730 0.37870
C15 C 0.7060(4) 0.6486(3) 0.6077(4)
H8 H 0.83470 0.64230 0.63930
C16 C 0.5854(4) 0.5805(2) 0.6689(3)
H9 H 0.63450 0.52800 0.74060
C17 C 0.6371(4) 0.7261(3) 0.5000(4)
H10 H 0.71900 0.77210 0.45920
C18 C 0.2993(4) 0.3719(3) 0.9049(4)
H11 H 0.25080 0.32310 0.82680
C19 C 0.3499(5) 0.3392(3) 1.0625(5)
H12 H 0.33350 0.26910 1.09040
C20 C 0.4253(5) 0.4110(4) 1.1794(4)
H13 H 0.46070 0.38880 1.28530
#END
