
#######################################################################
#
#                 Cambridge Crystallographic Data Centre
#                                CCDC
#
#######################################################################
#
# If this CIF has been generated from an entry in the Cambridge
# Structural Database, then it will include bibliographic, chemical,
# crystal, experimental, refinement or atomic coordinate data resulting
# from the CCDC's data processing and validation procedures.
#
#######################################################################

data_CSD_CIF_DICREN
_audit_creation_date 2007-07-03
_audit_creation_method CSD-ConQuest-V1
_database_code_CSD DICREN
_database_code_depnum_ccdc_archive 'CCDC 287175'
_chemical_formula_sum 'C21 H31 N5 O6'
_chemical_formula_moiety
;
C21 H31 N5 O6
;
_journal_coden_Cambridge 35
_journal_volume 72
_journal_year 2007
_journal_page_first 2077
_journal_name_full 'J.Org.Chem. '
loop_
_publ_author_name
"J.Comelles"
"A.Pericas"
"M.Moreno-Maas"
"A.Vallribera"
"G.Drudis-Sol"
"A.Lledos"
"T.Parella"
"A.Roglans"
"S.Garcia-Granda"
"L.Roces-Fernandez"
_chemical_name_systematic
;
t-Butyl 
1-(t-butoxycarbonylhydrazino)-2-(4-nitrophenylhydrazono)cyclopentane-1-carboxy
late
;
_cell_volume   1245.217
_exptl_crystal_colour 'colorless'
_exptl_crystal_density_diffrn 1.199
_exptl_crystal_description 'prismatic'
_diffrn_ambient_temperature 293
#These two values have been output from a single CSD field.
_refine_ls_R_factor_gt 0.0889
_refine_ls_wR_factor_gt 0.0889
loop_
_citation_database_id_CSD
_citation_special_details
DICREN01 "is a reinterpretation of this cif"
_symmetry_cell_setting triclinic
_symmetry_space_group_name_H-M 'P 1'
_symmetry_Int_Tables_number 1
loop_
_symmetry_equiv_pos_site_id
_symmetry_equiv_pos_as_xyz
1 x,y,z
_cell_length_a 9.1937(5)
_cell_length_b 11.5288(6)
_cell_length_c 12.5921(7)
_cell_angle_alpha 87.648(1)
_cell_angle_beta 80.507(1)
_cell_angle_gamma 71.088(1)
_cell_formula_units_Z 2
loop_
_atom_type_symbol
_atom_type_radius_bond
C 0.68
H 0.23
N 0.68
O 0.68
loop_
_atom_site_label
_atom_site_type_symbol
_atom_site_fract_x
_atom_site_fract_y
_atom_site_fract_z
C1 C 0.8593(16) 0.322(2) 0.8352(13)
H1 H 0.89630 0.39110 0.82480
H2 H 0.84620 0.30290 0.91040
H3 H 0.76120 0.34110 0.81000
C2 C 0.4263(15) 0.462(2) -0.1614(8)
H4 H 0.50820 0.45910 -0.12170
H5 H 0.44320 0.50030 -0.22960
H6 H 0.42610 0.38070 -0.17300
C3 C 0.904(2) 0.145(2) 0.7958(14)
H7 H 0.80930 0.17340 0.76610
H8 H 0.88030 0.14090 0.87270
H9 H 0.96540 0.06520 0.76690
N1 N 0.3972(6) 0.3549(5) 0.4718(5)
C4 C 0.4846(8) 0.1738(6) 0.5805(5)
C5 C 0.7921(8) 0.7946(7) 0.0321(6)
N2 N 0.7797(6) 0.4517(5) 0.1266(5)
H10 H 0.72480 0.41800 0.09760
N3 N 0.4825(6) 0.2936(6) 0.5510(4)
H11 H 0.53380 0.32900 0.58190
N4 N 0.8629(6) 0.3942(5) 0.2035(4)
C6 C 0.7862(6) 0.5645(5) 0.0970(5)
C7 C 0.8469(7) 0.2911(6) 0.2404(5)
N5 N 0.4671(9) -0.1672(7) 0.6855(5)
C8 C 0.8587(7) 0.6294(6) 0.1500(6)
H12 H 0.90440 0.59540 0.20950
O1 O 1.2094(5) 0.2211(4) 0.3077(4)
C9 C 0.8689(9) 0.1283(7) 0.3680(7)
H13 H 0.95180 0.05420 0.38050
H14 H 0.79740 0.15300 0.43510
O2 O 0.5332(9) -0.2126(6) 0.7602(6)
O3 O 0.0562(5) 0.5277(4) 0.3690(4)
N6 N 0.9075(6) 0.3192(4) 0.4126(4)
H15 H 0.84210 0.39190 0.41210
N7 N 0.3538(6) 0.4196(5) 0.2656(4)
H16 H 0.41040 0.34480 0.27260
N8 N 0.2784(6) 0.4639(5) 0.1758(5)
H17 H 0.17820 0.48910 0.18550
C10 C 0.4119(7) 0.4547(6) 0.4406(5)
O4 O 0.7719(6) 0.3047(5) 0.6235(4)
C11 C 0.4041(7) 0.1172(6) 0.5284(5)
H18 H 0.35420 0.15550 0.47170
N9 N 0.9910(7) 0.2771(5) 0.4967(4)
H19 H 1.09100 0.24850 0.48540
C12 C 0.3224(7) 0.5206(6) 0.3481(5)
C13 C 0.5136(9) 0.5246(7) 0.4682(8)
H20 H 0.47770 0.55970 0.54030
H21 H 0.62110 0.47240 0.46300
C14 C 0.1510(7) 0.5656(7) 0.3961(6)
O5 O 0.1225(6) 0.6556(4) 0.4663(5)
C15 C 0.9381(7) 0.2329(5) 0.3272(6)
O6 O 0.4938(5) 0.4490(6) 0.0560(4)
C16 C 1.1130(8) 0.1819(5) 0.2831(5)
C17 C 0.3991(7) 0.0037(7) 0.5618(6)
H22 H 0.34930 -0.03770 0.52620
O7 O 1.1425(5) 0.0932(5) 0.2112(5)
O8 O 1.0125(5) 0.2531(5) 0.6668(4)
O9 O 0.2515(6) 0.4900(5) 0.0088(4)
C18 C 0.5541(7) 0.1230(5) 0.6661(5)
H23 H 0.60220 0.16590 0.70160
C19 C 0.8628(8) 0.7427(6) 0.1149(5)
H24 H 0.91500 0.78350 0.14880
C20 C 0.3559(10) 0.4685(6) 0.0750(4)
C21 C 0.4711(8) -0.0498(6) 0.6514(6)
C22 C 0.7074(8) 0.6230(7) 0.0120(6)
H25 H 0.65150 0.58500 -0.02140
C23 C 0.5535(8) 0.0132(7) 0.6988(5)
H26 H 0.60810 -0.02350 0.75390
C24 C 0.9102(7) 0.2829(5) 0.5955(6)
C25 C 0.7148(7) 0.7404(6) -0.0217(5)
H27 H 0.66780 0.77910 -0.07940
C26 C 1.1290(11) 0.1893(11) 0.8213(8)
H28 H 1.17400 0.25240 0.79870
H29 H 1.20130 0.11110 0.79600
H30 H 1.10600 0.18950 0.89850
O10 O 0.8832(9) 0.9603(6) 0.0324(6)
C27 C 0.2783(11) 0.5331(11) -0.1009(7)
C28 C 1.4022(12) -0.0323(9) 0.2327(9)
H31 H 1.35790 -0.09100 0.26860
H32 H 1.40800 0.02380 0.28490
H33 H 1.50500 -0.07410 0.19560
C29 C -0.0913(12) 0.6202(11) 0.5945(8)
H34 H -0.10320 0.56230 0.54670
H35 H -0.18910 0.65860 0.63960
H36 H -0.01470 0.57850 0.63850
O11 O 0.3957(11) -0.2178(6) 0.6411(6)
O12 O 0.7203(8) 0.9703(6) -0.0751(6)
C30 C 1.3012(11) 0.0377(9) 0.1528(8)
N10 N 0.7996(8) 0.9169(6) -0.0065(6)
C31 C 0.4965(14) 0.6211(11) 0.3866(9)
H37 H 0.45970 0.70020 0.42320
H38 H 0.59840 0.61230 0.34520
C32 C -0.0376(9) 0.7195(8) 0.5275(8)
C33 C 0.7522(7) 0.2203(6) 0.2103(5)
H39 H 0.78240 0.19620 0.13490
H40 H 0.64240 0.26800 0.22320
C34 C 0.3934(8) 0.6208(6) 0.3143(6)
H41 H 0.44970 0.60540 0.24130
H42 H 0.31220 0.69970 0.31660
C35 C 1.2604(14) -0.0589(12) 0.0846(13)
H43 H 1.19350 -0.01580 0.03480
H44 H 1.20840 -0.10520 0.13260
H45 H 1.35480 -0.11360 0.04560
C36 C 0.2883(9) 0.6736(6) -0.0713(8)
H46 H 0.19480 0.71870 -0.02470
H47 H 0.29920 0.71810 -0.13660
H48 H 0.37650 0.66290 -0.03590
C37 C -0.1475(10) 0.7825(10) 0.4470(9)
H49 H -0.10970 0.84280 0.40750
H50 H -0.25020 0.82170 0.48550
H51 H -0.15080 0.72230 0.39780
C38 C 1.3603(15) 0.1267(12) 0.0899(9)
H52 H 1.29110 0.16590 0.04020
H53 H 1.46190 0.08560 0.05070
H54 H 1.36680 0.18730 0.13740
C39 C -0.0216(12) 0.8087(11) 0.6004(10)
H55 H 0.01470 0.86860 0.55900
H56 H 0.05180 0.76730 0.64660
H57 H -0.12090 0.84880 0.64320
C40 C 0.7858(13) 0.1058(9) 0.2835(8)
H58 H 0.68890 0.09320 0.31620
H59 H 0.84950 0.03320 0.24140
C41 C 0.9751(9) 0.2137(12) 0.7733(6)
C42 C 0.1378(12) 0.5541(14) -0.1413(8)
H60 H 0.05150 0.59420 -0.08690
H61 H 0.12940 0.47720 -0.16090
H62 H 0.13700 0.60510 -0.20350
#END
