
#######################################################################
#
#                 Cambridge Crystallographic Data Centre
#                                CCDC
#
#######################################################################
#
# If this CIF has been generated from an entry in the Cambridge
# Structural Database, then it will include bibliographic, chemical,
# crystal, experimental, refinement or atomic coordinate data resulting
# from the CCDC's data processing and validation procedures.
#
#######################################################################

data_CSD_CIF_DICRAI01
_audit_creation_date 1988-03-22
_audit_creation_method CSD-ConQuest-V1
_database_code_CSD DICRAI01
_database_code_depnum_ccdc_archive 'CCDC 1140290'
_chemical_formula_sum 'C8 H6 N2 O2'
_chemical_formula_moiety
;
C8 H6 N2 O2
;
_journal_coden_Cambridge 41
_journal_volume 32
_journal_year 1987
_journal_page_first 359
_journal_name_full 'Kristallografiya(Russ.)(Crystallogr.Rep.) '
loop_
_publ_author_name
"A.A.Espenbetov"
"Yu.T.Struchkov"
"T.I.Godovikov"
"L.I.Khmel'nitskii"
_chemical_name_systematic
;
4-Phenyl-1,2,5-oxadiazole 2-oxide
;
_cell_volume    365.811
_exptl_crystal_density_diffrn 1.472
_diffrn_ambient_temperature 153.15
#These two values have been output from a single CSD field.
_refine_ls_R_factor_gt 0.038
_refine_ls_wR_factor_gt 0.038
_symmetry_cell_setting triclinic
_symmetry_space_group_name_H-M 'P -1'
_symmetry_Int_Tables_number 2
loop_
_symmetry_equiv_pos_site_id
_symmetry_equiv_pos_as_xyz
1 x,y,z
2 -x,-y,-z
_cell_length_a 5.783(2)
_cell_length_b 7.424(2)
_cell_length_c 9.396(3)
_cell_angle_alpha 108.27(2)
_cell_angle_beta 102.61(2)
_cell_angle_gamma 97.03(2)
_cell_formula_units_Z 2
loop_
_atom_type_symbol
_atom_type_radius_bond
C 0.68
H 0.23
N 0.68
O 0.68
loop_
_atom_site_label
_atom_site_type_symbol
_atom_site_fract_x
_atom_site_fract_y
_atom_site_fract_z
O1 O 0.0284(2) 0.3933(2) -0.3691(2)
O2 O 0.2444(3) 0.2879(2) -0.5454(2)
N1 N 0.2541(3) 0.3953(2) -0.4126(2)
C1 C 0.4228(4) 0.5155(3) -0.2914(2)
C2 C 0.3144(3) 0.5901(2) -0.1704(2)
N2 N 0.0808(3) 0.5180(2) -0.2169(2)
C3 C 0.4348(3) 0.7261(2) -0.0121(2)
C4 C 0.3101(4) 0.7606(3) 0.1023(2)
C5 C 0.4221(4) 0.8916(3) 0.2503(2)
C6 C 0.6597(4) 0.9888(3) 0.2869(2)
C7 C 0.7859(4) 0.9538(3) 0.1747(2)
C8 C 0.6733(3) 0.8230(3) 0.0260(2)
H1 H 0.578(4) 0.542(3) -0.297(3)
H2 H 0.146(4) 0.686(3) 0.076(2)
H3 H 0.331(4) 0.915(3) 0.326(3)
H4 H 0.735(4) 1.080(3) 0.390(2)
H5 H 0.955(4) 1.029(3) 0.203(2)
H6 H 0.753(4) 0.801(3) -0.049(2)
#END
