
#######################################################################
#
#                 Cambridge Crystallographic Data Centre
#                                CCDC
#
#######################################################################
#
# If this CIF has been generated from an entry in the Cambridge
# Structural Database, then it will include bibliographic, chemical,
# crystal, experimental, refinement or atomic coordinate data resulting
# from the CCDC's data processing and validation procedures.
#
#######################################################################

data_CSD_CIF_DICREN01
_audit_creation_date 2010-03-08
_audit_creation_method CSD-ConQuest-V1
_database_code_CSD DICREN01
_database_code_depnum_ccdc_archive 'CCDC 760398'
_chemical_formula_sum 'C21 H31 N5 O6'
_chemical_formula_moiety
;
C21 H31 N5 O6
;
_journal_coeditor_code "IUCr BK5088"
_journal_coden_Cambridge 622
_journal_volume 65
_journal_year 2009
_journal_page_first 782
_journal_name_full 'Acta Crystallogr.,Sect.B:Struct.Sci. '
loop_
_publ_author_name
"R.E.Marsh"
_chemical_name_systematic
;
t-Butyl 
1-(t-butoxycarbonylhydrazino)-2-(4-nitrophenylhydrazono)cyclopentane-1-carboxy
late
;
_cell_volume   1245.217
_exptl_crystal_colour 'colorless'
_exptl_crystal_density_diffrn 1.199
_exptl_crystal_description 'prismatic'
_diffrn_ambient_temperature 293
loop_
_citation_database_id_CSD
_citation_special_details
DICREN "is reinterpreted by this entry"
_symmetry_cell_setting triclinic
_symmetry_space_group_name_H-M 'P -1'
_symmetry_Int_Tables_number 2
loop_
_symmetry_equiv_pos_site_id
_symmetry_equiv_pos_as_xyz
1 x,y,z
2 -x,-y,-z
_cell_length_a 9.1937(5)
_cell_length_b 11.5288(6)
_cell_length_c 12.5921(7)
_cell_angle_alpha 87.648(1)
_cell_angle_beta 80.507(1)
_cell_angle_gamma 71.088(1)
_cell_formula_units_Z 2
loop_
_atom_type_symbol
_atom_type_radius_bond
C 0.68
H 0.23
N 0.68
O 0.68
loop_
_atom_site_label
_atom_site_type_symbol
_atom_site_fract_x
_atom_site_fract_y
_atom_site_fract_z
C1 C 0.30780 0.35620 0.48960
C2 C 0.21750 0.41820 0.39990
C3 C 0.11930 0.34780 0.37100
H1 H 0.15240 0.31820 0.29730
H2 H 0.01060 0.39780 0.38010
C4 C 0.14460 0.24240 0.44840
H3 H 0.19490 0.16650 0.40910
H4 H 0.04520 0.24040 0.48550
C5 C 0.23780 0.25380 0.52680
H5 H 0.31980 0.17720 0.53200
H6 H 0.17380 0.27380 0.59690
C6 C 0.48100 0.30820 0.44350
O1 O 0.57660 0.34670 0.46940
O2 O 0.51000 0.21880 0.37240
C7 C 0.66940 0.15910 0.31260
C8 C 0.77480 0.09260 0.39280
H7 H 0.73380 0.03310 0.43060
H8 H 0.77940 0.15080 0.44360
H9 H 0.87760 0.05210 0.35500
C9 C 0.72580 0.25320 0.24770
H10 H 0.73500 0.31250 0.29540
H11 H 0.82550 0.21350 0.20560
H12 H 0.65290 0.29370 0.20080
C10 C 0.64100 0.06620 0.24120
H13 H 0.57080 0.10840 0.19410
H14 H 0.59680 0.01310 0.28680
H15 H 0.73780 0.01880 0.20120
N1 N 0.27680 0.44980 0.57350
H16 H 0.21580 0.52360 0.56980
N2 N 0.35630 0.40660 0.66040
H17 H 0.45640 0.37970 0.65000
C11 C 0.27720 0.40720 0.76020
O3 O 0.13900 0.42780 0.78380
O4 O 0.38050 0.38160 0.82900
C12 C 0.34840 0.34030 0.93710
C13 C 0.49560 0.31760 0.98130
H18 H 0.48270 0.28980 1.05320
H19 H 0.57760 0.25700 0.93850
H20 H 0.52040 0.39150 0.98030
C14 C 0.21650 0.43000 0.99830
H21 H 0.23510 0.50520 0.99890
H22 H 0.12650 0.44100 0.96580
H23 H 0.20150 0.40130 1.07000
C15 C 0.30780 0.23570 0.93360
H24 H 0.21640 0.25520 0.90100
H25 H 0.29060 0.21140 1.00460
H26 H 0.38530 0.17320 0.89580
N3 N 0.23280 0.51960 0.36580
N4 N 0.14860 0.57900 0.28780
H27 H 0.09550 0.54450 0.25780
C16 C 0.15080 0.69540 0.25820
C17 C 0.22730 0.75610 0.31080
H28 H 0.27510 0.72000 0.36890
C18 C 0.23180 0.86950 0.27660
H29 H 0.28280 0.91060 0.31130
C19 C 0.16050 0.92220 0.19040
C20 C 0.08060 0.86360 0.13980
H30 H 0.02980 0.90130 0.08340
C21 C 0.07660 0.75000 0.17300
H31 H 0.02460 0.70960 0.13850
N5 N 0.16620 1.04200 0.15400
O5 O 0.09360 1.09140 0.08240
O6 O 0.24380 1.08900 0.19560
#END
