
#######################################################################
#
#                 Cambridge Crystallographic Data Centre
#                                CCDC
#
#######################################################################
#
# If this CIF has been generated from an entry in the Cambridge
# Structural Database, then it will include bibliographic, chemical,
# crystal, experimental, refinement or atomic coordinate data resulting
# from the CCDC's data processing and validation procedures.
#
#######################################################################

data_CSD_CIF_DIDHIJ
_audit_creation_date 2013-06-17
_audit_creation_method CSD-ConQuest-V1
_database_code_CSD DIDHIJ
_database_code_depnum_ccdc_archive 'CCDC 870593'
_chemical_formula_sum 'C8 H16 N2 O3'
_chemical_formula_moiety
;
C8 H16 N2 O3
;
_journal_coden_Cambridge 1003
_journal_volume 43
_journal_year 2013
_journal_page_first 306
_journal_name_full 'J.Chem.Cryst. '
loop_
_publ_author_name
"J.R.Deschamps"
"L.F.Cannizzo"
"N.A.Straessler"
_chemical_name_systematic
;
(1-t-Butyl-3-nitroazetidin-3-yl)methanol
;
_cell_volume   2029.601
_exptl_crystal_colour 'colorless'
_exptl_crystal_density_diffrn 1.232
_exptl_crystal_description 'bipyramid'
_diffrn_ambient_temperature 223
#These two values have been output from a single CSD field.
_refine_ls_R_factor_gt 0.0674
_refine_ls_wR_factor_gt 0.0674
_symmetry_cell_setting monoclinic
_symmetry_space_group_name_H-M 'P 21/n'
_symmetry_Int_Tables_number 14
loop_
_symmetry_equiv_pos_site_id
_symmetry_equiv_pos_as_xyz
1 x,y,z
2 1/2-x,1/2+y,1/2-z
3 -x,-y,-z
4 -1/2+x,-1/2-y,-1/2+z
_cell_length_a 9.2580(4)
_cell_length_b 11.2204(5)
_cell_length_c 19.8238(9)
_cell_angle_alpha 90
_cell_angle_beta 99.737(2)
_cell_angle_gamma 90
_cell_formula_units_Z 8
loop_
_atom_type_symbol
_atom_type_radius_bond
C 0.68
H 0.23
N 0.68
O 0.68
loop_
_atom_site_label
_atom_site_type_symbol
_atom_site_fract_x
_atom_site_fract_y
_atom_site_fract_z
C1 C 0.91903(16) 0.36311(15) 0.36235(8)
N1 N 1.04792(18) 0.40304(16) 0.33053(10)
O1 O 1.0646(2) 0.35260(18) 0.27801(10)
O2 O 1.1274(2) 0.4802(2) 0.35758(12)
C2 C 0.88785(18) 0.43701(16) 0.42254(9)
H1 H 0.89940 0.39280 0.46580
H2 H 0.94160 0.51260 0.42830
N2 N 0.73278(14) 0.44948(12) 0.38809(6)
C3 C 0.77181(17) 0.40608(15) 0.32245(8)
H3 H 0.78080 0.46960 0.28950
H4 H 0.70870 0.34170 0.30100
C4 C 0.6626(2) 0.56879(16) 0.39056(10)
C5 C 0.6623(3) 0.5953(2) 0.46545(13)
H5 H 0.61730 0.52950 0.48590
H6 H 0.60710 0.66760 0.46950
H7 H 0.76230 0.60560 0.48890
C6 C 0.5071(3) 0.5567(2) 0.35253(15)
H8 H 0.50880 0.52900 0.30630
H9 H 0.45860 0.63350 0.35090
H10 H 0.45440 0.49970 0.37600
C7 C 0.7433(3) 0.66771(19) 0.35943(16)
H11 H 0.73450 0.65500 0.31050
H12 H 0.84600 0.66690 0.38020
H13 H 0.70070 0.74420 0.36780
C8 C 0.93525(17) 0.23090(15) 0.37493(8)
H14 H 0.85130 0.20040 0.39380
H15 H 0.93930 0.18920 0.33190
O3 O 1.06586(13) 0.21152(11) 0.42158(6)
H16 H 1.10870 0.15220 0.40950
C9 C 1.07880(17) 0.60702(15) 0.13298(8)
N3 N 0.94187(18) 0.56268(17) 0.15671(11)
O4 O 0.9143(2) 0.60569(19) 0.20917(10)
O5 O 0.8662(2) 0.4886(2) 0.12286(13)
C10 C 1.12611(18) 0.53640(16) 0.07502(9)
H17 H 1.07340 0.46100 0.06520
H18 H 1.12520 0.58280 0.03310
N4 N 1.27451(13) 0.52253(12) 0.11677(6)
C11 C 1.21997(17) 0.56500(16) 0.17887(8)
H19 H 1.27830 0.62980 0.20290
H20 H 1.20460 0.50110 0.21060
C12 C 1.34668(19) 0.40358(15) 0.11730(9)
C13 C 1.2528(3) 0.3029(2) 0.13738(17)
H21 H 1.15750 0.30450 0.10820
H22 H 1.24090 0.31270 0.18470
H23 H 1.30010 0.22720 0.13200
C14 C 1.4887(3) 0.4114(2) 0.16669(15)
H24 H 1.55060 0.47190 0.15120
H25 H 1.53830 0.33500 0.16900
H26 H 1.46900 0.43250 0.21170
C15 C 1.3753(3) 0.3818(2) 0.04575(12)
H27 H 1.43690 0.44490 0.03290
H28 H 1.28310 0.38060 0.01420
H29 H 1.42450 0.30570 0.04410
C16 C 1.06112(18) 0.73982(16) 0.12227(9)
H30 H 1.04930 0.77870 0.16530
H31 H 1.14830 0.77300 0.10720
O6 O 0.93619(13) 0.76043(12) 0.07206(6)
H32 H 0.89030 0.81860 0.08340
#END
