
#######################################################################
#
#                 Cambridge Crystallographic Data Centre
#                                CCDC
#
#######################################################################
#
# If this CIF has been generated from an entry in the Cambridge
# Structural Database, then it will include bibliographic, chemical,
# crystal, experimental, refinement or atomic coordinate data resulting
# from the CCDC's data processing and validation procedures.
#
#######################################################################

data_CSD_CIF_DIDNIQ
_audit_creation_date 2018-06-26
_audit_creation_method CSD-ConQuest-V1
_database_code_CSD DIDNIQ
_database_code_depnum_ccdc_archive 'CCDC 1821837'
_chemical_formula_sum 'C18 H5 N9 O18'
_chemical_formula_moiety
;
C18 H5 N9 O18
;
_journal_coden_Cambridge 993
_journal_year 2018
_journal_name_full 'Jisuanji yu Yingyong Huaxue(Chin.)(Computers Appl.Chem.) '
loop_
_publ_author_name
"Yang Feng"
"Dang Xin"
"Li Yongxiang"
"Guo Hengjie"
"Chai Xiaoxiao"
_chemical_name_systematic
;
1^2^,1^4^,1^6^,2^2^,2^4^,2^6^,3^2^,3^4^,3^6^-nonanitro-1^1^,2^1^:2^3^,3^1^-ter
phenyl
;
_cell_volume   4645.985
_exptl_crystal_density_diffrn 1.817
_exptl_crystal_description 'block'
_diffrn_ambient_temperature 296
#These two values have been output from a single CSD field.
_refine_ls_R_factor_gt 0.0709
_refine_ls_wR_factor_gt 0.0709
_symmetry_cell_setting orthorhombic
_symmetry_space_group_name_H-M 'P b c a'
_symmetry_Int_Tables_number 61
loop_
_symmetry_equiv_pos_site_id
_symmetry_equiv_pos_as_xyz
1 x,y,z
2 1/2-x,-y,1/2+z
3 -x,1/2+y,1/2-z
4 1/2+x,1/2-y,-z
5 -x,-y,-z
6 -1/2+x,y,-1/2-z
7 x,-1/2-y,-1/2+z
8 -1/2-x,-1/2+y,z
_cell_length_a 16.8223(11)
_cell_length_b 11.9573(6)
_cell_length_c 23.0972(14)
_cell_angle_alpha 90
_cell_angle_beta 90
_cell_angle_gamma 90
_cell_formula_units_Z 8
loop_
_atom_type_symbol
_atom_type_radius_bond
C 0.68
H 0.23
N 0.68
O 0.68
loop_
_atom_site_label
_atom_site_type_symbol
_atom_site_fract_x
_atom_site_fract_y
_atom_site_fract_z
C1 C -0.0463(3) 0.8296(4) 0.91426(19)
C2 C 0.0344(3) 0.8133(4) 0.90796(19)
C3 C 0.0735(3) 0.8880(4) 0.87040(19)
C4 C 0.0342(3) 0.9721(4) 0.83909(18)
C5 C -0.0476(3) 0.9766(4) 0.84536(19)
C6 C -0.0888(3) 0.9090(4) 0.88311(19)
H1 H -0.14350 0.91620 0.88760
C7 C 0.1090(3) 0.7370(4) 0.99595(19)
C8 C 0.0802(3) 0.7240(4) 0.93945(19)
C9 C 0.0990(3) 0.6211(4) 0.91327(19)
C10 C 0.1441(3) 0.5393(4) 0.9393(2)
H2 H 0.15630 0.47300 0.92030
C11 C 0.1707(3) 0.5601(4) 0.9950(2)
C12 C 0.1531(3) 0.6562(4) 1.0246(2)
H3 H 0.17000 0.66690 1.06250
C13 C 0.1107(3) 1.1521(4) 0.8210(2)
C14 C 0.0813(3) 1.0496(4) 0.80050(19)
C15 C 0.1008(3) 1.0244(4) 0.74306(19)
C16 C 0.1499(3) 1.0909(4) 0.7097(2)
H4 H 0.16330 1.07040 0.67210
C17 C 0.1781(3) 1.1875(4) 0.7333(2)
C18 C 0.1585(3) 1.2217(4) 0.7883(2)
H5 H 0.17680 1.28940 0.80300
N1 N -0.0941(2) 0.7600(4) 0.95444(18)
N2 N 0.0945(2) 0.8407(3) 1.02895(17)
N3 N 0.0703(3) 0.5967(3) 0.85426(18)
N4 N 0.2217(2) 0.4757(3) 1.0230(2)
N5 N 0.1601(3) 0.8774(4) 0.86398(18)
N6 N 0.0909(3) 1.1931(4) 0.87964(18)
N7 N 0.0654(3) 0.9258(3) 0.71398(17)
N8 N 0.2327(3) 1.2596(4) 0.6991(2)
N9 N -0.0962(2) 1.0558(3) 0.81136(16)
O1 O -0.1555(2) 0.7995(3) 0.97268(17)
O2 O -0.0690(2) 0.6675(3) 0.96631(19)
O3 O 0.1054(3) 0.8359(3) 1.08100(15)
O4 O 0.0738(3) 0.9242(3) 1.00303(15)
O5 O 0.0127(3) 0.6468(3) 0.83615(16)
O6 O 0.1058(3) 0.5249(4) 0.82707(17)
O7 O 0.2492(3) 0.4024(3) 0.99217(18)
O8 O 0.2341(3) 0.4860(3) 1.07525(17)
O9 O 0.1866(3) 0.7846(4) 0.8547(2)
O10 O 0.2001(2) 0.9612(4) 0.8675(2)
O11 O 0.0981(4) 1.2908(4) 0.8892(2)
O12 O 0.0668(3) 1.1270(4) 0.91531(16)
O13 O 0.0235(3) 0.8636(3) 0.74195(17)
O14 O 0.0772(3) 0.9151(3) 0.66197(16)
O15 O 0.2340(3) 1.2448(4) 0.64661(18)
O16 O 0.2708(3) 1.3290(4) 0.7253(2)
O17 O -0.0640(2) 1.1406(3) 0.79358(17)
O18 O -0.1652(2) 1.0326(3) 0.80400(17)
#END
