
#######################################################################
#
#                 Cambridge Crystallographic Data Centre
#                                CCDC
#
#######################################################################
#
# If this CIF has been generated from an entry in the Cambridge
# Structural Database, then it will include bibliographic, chemical,
# crystal, experimental, refinement or atomic coordinate data resulting
# from the CCDC's data processing and validation procedures.
#
#######################################################################

data_CSD_CIF_DIDYOE
_audit_creation_date 1986-10-23
_audit_creation_method CSD-ConQuest-V1
_database_code_CSD DIDYOE
_database_code_depnum_ccdc_archive 'CCDC 1140424'
_chemical_formula_sum 'C7 H11 N1 O5'
_chemical_formula_moiety
;
C7 H11 N1 O5
;
_journal_coden_Cambridge 16
_journal_volume 41
_journal_year 1985
_journal_page_first 5569
_journal_name_full 'Tetrahedron '
loop_
_publ_author_name
"K.B.G.Torssell"
"A.C.Hazell"
"R.G.Hazell"
_chemical_name_systematic
;
5-(1',2'-Dihydroxy-2'-methoxycarbonylethyl)-isoxazoline
;
_chemical_melting_point 404.15
_cell_volume    872.059
_exptl_crystal_density_diffrn 1.369
_exptl_special_details
;
Melting point range 404.15-406.15K
Formula reported as C9 H11 N1 O4 should be C7 H11 N1 O5. dx and volume 
published as 1.369 and 956.9; we calculate 1.44 and 872.06. a=20.552 not 
22.552
;
_diffrn_ambient_temperature ?
_diffrn_special_details
;
The study was carried out at room temperature,in the range 283-303K

;
#These two values have been output from a single CSD field.
_refine_ls_R_factor_gt 0.046
_refine_ls_wR_factor_gt 0.046
_symmetry_cell_setting monoclinic
_symmetry_space_group_name_H-M 'P 21/n'
_symmetry_Int_Tables_number 14
loop_
_symmetry_equiv_pos_site_id
_symmetry_equiv_pos_as_xyz
1 x,y,z
2 1/2-x,1/2+y,1/2-z
3 -x,-y,-z
4 -1/2+x,-1/2-y,-1/2+z
_cell_length_a 20.552(9)
_cell_length_b 9.026(5)
_cell_length_c 4.708(2)
_cell_angle_alpha 90
_cell_angle_beta 93.11(3)
_cell_angle_gamma 90
_cell_formula_units_Z 4
loop_
_atom_type_symbol
_atom_type_radius_bond
C 0.68
H 0.23
N 0.68
O 0.68
loop_
_atom_site_label
_atom_site_type_symbol
_atom_site_fract_x
_atom_site_fract_y
_atom_site_fract_z
O1 O 0.2102(2) 0.3968(4) 0.2632(8)
O2 O 0.0937(2) 0.5085(4) 0.7827(8)
O3 O 0.0379(2) 0.4065(4) 0.2571(8)
O4 O 0.0696(2) 0.1339(4) 0.7807(9)
O5 O -0.0206(2) 0.2373(4) 0.5856(8)
N1 N 0.2759(2) 0.3965(7) 0.3591(13)
C1 C 0.2832(3) 0.4974(10) 0.5402(19)
C2 C 0.2261(3) 0.5833(8) 0.6066(15)
C3 C 0.1749(2) 0.4999(7) 0.4330(11)
C4 C 0.1283(2) 0.4115(6) 0.6059(11)
C5 C 0.0806(2) 0.3167(6) 0.4248(12)
C6 C 0.0428(2) 0.2182(6) 0.6170(12)
C7 C -0.0586(4) 0.1504(11) 0.7782(21)
H1 H 0.062(3) 0.546(6) 0.676(13)
H2 H 0.052(3) 0.443(8) 0.086(16)
H3 H 0.322(3) 0.507(7) 0.640(13)
H4 H 0.221(2) 0.580(6) 0.806(12)
H5 H 0.231(3) 0.688(7) 0.529(13)
H6 H 0.151(2) 0.563(5) 0.297(10)
H7 H 0.154(2) 0.356(4) 0.739(10)
H8 H 0.104(2) 0.253(5) 0.307(10)
H9 H -0.095(3) 0.152(6) 0.672(13)
H10 H -0.056(4) 0.193(11) 0.972(21)
H11 H -0.046(3) 0.04(1) 0.742(18)
#END
