
#######################################################################
#
#                 Cambridge Crystallographic Data Centre
#                                CCDC
#
#######################################################################
#
# If this CIF has been generated from an entry in the Cambridge
# Structural Database, then it will include bibliographic, chemical,
# crystal, experimental, refinement or atomic coordinate data resulting
# from the CCDC's data processing and validation procedures.
#
#######################################################################

data_CSD_CIF_DIFJOR
_audit_creation_date 1986-10-23
_audit_creation_method CSD-ConQuest-V1
_database_code_CSD DIFJOR
_chemical_formula_sum 'C41 H31 N1 O11'
_chemical_formula_moiety
;
C41 H31 N1 O11
;
_journal_coden_Cambridge 10
_journal_volume 68
_journal_year 1985
_journal_page_first 2254
_journal_name_full 'Helv.Chim.Acta '
loop_
_publ_author_name
"D.Beer"
"A.Vasella"
_chemical_name_systematic
;
D-Gluconohydroximo-1,5-lactone 1-N-2',3',4',6'-pentabenzoate
;
_chemical_melting_point 442.15
_cell_volume   1794.501
_exptl_crystal_colour 'colorless'
_exptl_crystal_density_diffrn 1.32
_exptl_special_details
;
Melting point range 442.15-443.15K

;
_diffrn_ambient_temperature 133.15
#These two values have been output from a single CSD field.
_refine_ls_R_factor_gt 0.054
_refine_ls_wR_factor_gt 0.054
_symmetry_cell_setting triclinic
_symmetry_space_group_name_H-M 'P 1'
_symmetry_Int_Tables_number 1
loop_
_symmetry_equiv_pos_site_id
_symmetry_equiv_pos_as_xyz
1 x,y,z
_cell_length_a 10.241(1)
_cell_length_b 13.527(1)
_cell_length_c 14.653(1)
_cell_angle_alpha 66.98(1)
_cell_angle_beta 88.22(1)
_cell_angle_gamma 74.54(1)
_cell_formula_units_Z 2
loop_
_atom_type_symbol
_atom_type_radius_bond
C 0.68
H 0.23
N 0.68
O 0.68
loop_
_atom_site_label
_atom_site_type_symbol
_atom_site_fract_x
_atom_site_fract_y
_atom_site_fract_z
C1 C 0.7573(2) 0.6838(2) 0.9434(1)
N1 N 0.7036(2) 0.6551(1) 1.0258(1)
O1 O 0.7353(2) 0.5349(1) 1.0765(1)
C2 C 0.7313(2) 0.8076(1) 0.8816(1)
O2 O 0.6117(1) 0.8710(1) 0.90682(9)
C3 C 0.7117(2) 0.8329(1) 0.7722(1)
O3 O 0.7135(1) 0.9472(1) 0.71709(9)
C4 C 0.8289(2) 0.7572(1) 0.7444(1)
O4 O 0.7985(1) 0.7815(1) 0.64064(9)
C5 C 0.8360(2) 0.6352(1) 0.8066(1)
O5 O 0.8464(1) 0.6129(1) 0.91205(9)
C6 C 0.9611(2) 0.5547(2) 0.7920(2)
O6 O 0.9592(2) 0.4416(1) 0.8507(1)
C7 C 0.8217(2) 0.4967(2) 1.1599(1)
O7 O 0.8876(2) 0.5504(1) 1.1745(1)
C8 C 0.8192(2) 0.3814(2) 1.2274(1)
C9 C 0.7321(3) 0.3279(2) 1.2087(2)
C10 C 0.7307(3) 0.2218(2) 1.2772(2)
C11 C 0.8155(3) 0.1710(2) 1.3636(2)
C12 C 0.9018(3) 0.2244(2) 1.3828(2)
C13 C 0.9040(2) 0.3302(2) 1.3152(2)
C14 C 0.6282(2) 0.8966(1) 0.9863(1)
O8 O 0.7374(1) 0.8721(1) 1.0308(1)
C15 C 0.4971(2) 0.9541(1) 1.0112(1)
C16 C 0.4917(2) 0.9529(2) 1.1067(1)
C17 C 0.3699(2) 1.0014(2) 1.1359(2)
C18 C 0.2542(2) 1.0524(2) 1.0702(2)
C19 C 0.2599(2) 1.0550(2) 0.9741(2)
C20 C 0.3808(2) 1.0054(2) 0.9447(1)
C21 C 0.6053(2) 1.0158(1) 0.6519(1)
O9 O 0.5115(2) 0.9852(1) 0.6362(1)
C22 C 0.6171(2) 1.1321(2) 0.6025(1)
C23 C 0.7284(3) 1.1623(2) 0.6232(2)
C24 C 0.7333(3) 1.2728(2) 0.5740(2)
C25 C 0.6270(3) 1.3510(2) 0.5060(2)
C26 C 0.5184(3) 1.3204(2) 0.4854(2)
C27 C 0.5120(2) 1.2106(2) 0.5334(2)
C28 C 0.9009(2) 0.7958(1) 0.5803(1)
O10 O 1.0180(1) 0.7699(1) 0.6117(1)
C29 C 0.8518(2) 0.8460(2) 0.4740(1)
C30 C 0.7139(2) 0.8891(2) 0.4426(1)
C31 C 0.6737(3) 0.9391(2) 0.3414(2)
C32 C 0.7705(3) 0.9460(2) 0.2721(2)
C33 C 0.9067(3) 0.9032(2) 0.3031(2)
C34 C 0.9493(2) 0.8520(2) 0.4041(1)
C35 C 0.8942(2) 0.3944(2) 0.8067(2)
O11 O 0.8509(3) 0.4390(2) 0.7208(1)
C36 C 0.8855(2) 0.2828(2) 0.8783(2)
C37 C 0.8578(4) 0.2102(3) 0.8415(2)
C38 C 0.8506(5) 0.1049(3) 0.9059(2)
C39 C 0.8674(3) 0.0736(2) 1.0070(2)
C40 C 0.8929(2) 0.1459(2) 1.0440(2)
C41 C 0.9033(2) 0.2506(2) 0.9801(2)
C42 C 0.1929(2) 0.9891(1) 0.6550(1)
N2 N 0.1760(2) 1.0562(1) 0.6985(1)
O12 O 0.1572(2) 1.1666(1) 0.62321(9)
C43 C 0.2146(2) 0.8657(1) 0.7161(1)
O13 O 0.2470(1) 0.8361(1) 0.81859(8)
C44 C 0.3326(2) 0.7991(1) 0.6792(1)
O14 O 0.3404(1) 0.6824(1) 0.72978(9)
C45 C 0.3041(2) 0.8315(1) 0.5687(1)
O15 O 0.4263(1) 0.7755(1) 0.53699(9)
C46 C 0.2824(2) 0.9576(1) 0.5121(1)
O16 O 0.1818(1) 1.0211(1) 0.55523(9)
C47 C 0.2275(2) 1.0001(2) 0.4053(1)
O17 O 0.2501(2) 1.1082(1) 0.35461(9)
C48 C 0.1608(2) 1.2427(2) 0.6619(1)
O18 O 0.1687(2) 1.2225(1) 0.7487(1)
C49 C 0.1551(2) 1.3524(2) 0.5807(1)
C50 C 0.1498(2) 1.3701(2) 0.4802(1)
C51 C 0.1488(2) 1.4743(2) 0.4081(1)
C52 C 0.1536(2) 1.5605(2) 0.4362(1)
C53 C 0.1588(2) 1.5431(2) 0.5360(2)
C54 C 0.1591(2) 1.4391(2) 0.6084(1)
C55 C 0.1427(2) 0.8279(1) 0.8777(1)
O19 O 0.0264(2) 0.8517(2) 0.8449(1)
C56 C 0.1893(2) 0.7848(2) 0.9843(1)
C57 C 0.0918(2) 0.7701(2) 1.0536(1)
C58 C 0.1322(2) 0.7274(2) 1.1546(2)
C59 C 0.2682(3) 0.6998(2) 1.1855(1)
C60 C 0.3657(2) 0.7140(2) 1.1167(1)
C61 C 0.3265(2) 0.7564(2) 1.0157(1)
C62 C 0.4436(2) 0.6199(1) 0.8025(1)
O20 O 0.5255(1) 0.6577(1) 0.8251(1)
C63 C 0.4417(2) 0.5015(1) 0.8505(1)
C64 C 0.3515(2) 0.4597(2) 0.8163(2)
C65 C 0.3544(3) 0.3476(2) 0.8643(2)
C66 C 0.4462(3) 0.2779(2) 0.9459(2)
C67 C 0.5354(2) 0.3188(2) 0.9799(2)
C68 C 0.5337(2) 0.4306(2) 0.9326(2)
C69 C 0.4106(2) 0.7381(1) 0.4652(1)
O21 O 0.3014(1) 0.7502(1) 0.4274(1)
C70 C 0.5442(2) 0.6871(1) 0.4370(1)
C71 C 0.6591(2) 0.6303(2) 0.5044(1)
C72 C 0.7814(2) 0.5877(2) 0.4708(2)
C73 C 0.7885(2) 0.6045(2) 0.3717(2)
C74 C 0.6751(2) 0.6619(2) 0.3042(2)
C75 C 0.5513(2) 0.7020(2) 0.3374(1)
C76 C 0.1842(2) 1.1685(2) 0.2629(1)
O22 O 0.1066(2) 1.1367(1) 0.2288(1)
C77 C 0.2224(2) 1.2744(2) 0.2113(1)
C78 C 0.1551(3) 1.3469(2) 0.1182(2)
C79 C 0.1876(3) 1.4470(2) 0.0670(2)
C80 C 0.2850(3) 1.4734(2) 0.1066(2)
C81 C 0.3515(3) 1.4026(2) 0.1992(2)
C82 C 0.3201(2) 1.3022(2) 0.2522(2)
H1 H 0.809(2) 0.827(2) 0.891(2)
H2 H 0.631(2) 0.824(2) 0.757(2)
H3 H 0.915(2) 0.772(2) 0.753(1)
H4 H 0.761(2) 0.615(2) 0.792(2)
H5 H 1.034(2) 0.569(2) 0.815(2)
H6 H 0.957(2) 0.568(2) 0.726(2)
H7 H 0.665(3) 0.364(2) 1.154(2)
H8 H 0.670(4) 0.183(3) 1.264(3)
H9 H 0.815(3) 0.098(2) 1.411(2)
H10 H 0.960(3) 0.186(2) 1.443(2)
H11 H 0.960(3) 0.376(2) 1.323(2)
H12 H 0.573(2) 0.911(2) 1.152(2)
H13 H 0.364(3) 0.999(2) 1.206(2)
H14 H 0.174(2) 1.085(2) 1.090(2)
H15 H 0.179(3) 1.092(2) 0.926(2)
H16 H 0.382(2) 1.003(2) 0.880(2)
H17 H 0.801(3) 1.105(2) 0.676(2)
H18 H 0.806(3) 1.293(3) 0.590(2)
H19 H 0.632(4) 1.429(3) 0.478(3)
H20 H 0.443(3) 1.378(3) 0.434(2)
H21 H 0.429(3) 1.190(2) 0.522(2)
H22 H 0.642(2) 0.888(2) 0.492(2)
H23 H 0.574(3) 0.971(2) 0.322(2)
H24 H 0.735(3) 0.987(3) 0.204(2)
H25 H 0.970(3) 0.903(2) 0.256(2)
H26 H 1.047(3) 0.813(2) 0.426(2)
H27 H 0.844(4) 0.241(3) 0.766(3)
H28 H 0.837(4) 0.057(3) 0.884(3)
H29 H 0.858(3) 0.000(2) 1.052(2)
H30 H 0.905(3) 0.128(2) 1.110(2)
H31 H 0.922(3) 0.304(2) 1.007(2)
H32 H 0.133(2) 0.848(2) 0.705(2)
H33 H 0.418(2) 0.813(2) 0.692(1)
H34 H 0.232(2) 0.806(2) 0.556(1)
H35 H 0.368(2) 0.971(2) 0.513(1)
H36 H 0.139(2) 1.005(2) 0.400(2)
H37 H 0.280(2) 0.956(2) 0.376(2)
H38 H 0.144(3) 1.309(2) 0.461(2)
H39 H 0.148(2) 1.482(2) 0.339(2)
H40 H 0.147(2) 1.634(2) 0.383(2)
H41 H 0.164(2) 1.603(2) 0.562(2)
H42 H 0.154(2) 1.430(2) 0.675(2)
H43 H 0.000(2) 0.786(2) 1.033(2)
H44 H 0.063(3) 0.716(2) 1.202(2)
H45 H 0.296(3) 0.675(2) 1.255(2)
H46 H 0.452(3) 0.699(2) 1.135(2)
H47 H 0.389(2) 0.765(2) 0.969(2)
H48 H 0.294(3) 0.507(3) 0.759(2)
H49 H 0.293(3) 0.317(3) 0.840(2)
H50 H 0.449(3) 0.202(2) 0.980(2)
H51 H 0.593(3) 0.274(2) 1.038(2)
H52 H 0.592(2) 0.461(2) 0.961(2)
H53 H 0.648(3) 0.618(2) 0.573(2)
H54 H 0.855(3) 0.543(2) 0.520(2)
H55 H 0.882(3) 0.580(3) 0.350(2)
H56 H 0.686(3) 0.674(2) 0.236(2)
H57 H 0.476(2) 0.743(2) 0.293(2)
H58 H 0.093(3) 1.325(2) 0.092(2)
H59 H 0.132(3) 1.505(3) 0.001(2)
H60 H 0.308(3) 1.544(2) 0.071(2)
H61 H 0.421(3) 1.423(3) 0.223(2)
H62 H 0.360(3) 1.253(2) 0.315(2)
#END
