
#######################################################################
#
#                 Cambridge Crystallographic Data Centre
#                                CCDC
#
#######################################################################
#
# If this CIF has been generated from an entry in the Cambridge
# Structural Database, then it will include bibliographic, chemical,
# crystal, experimental, refinement or atomic coordinate data resulting
# from the CCDC's data processing and validation procedures.
#
#######################################################################

data_CSD_CIF_DIFPUF
_audit_creation_date 2013-06-17
_audit_creation_method CSD-ConQuest-V1
_database_code_CSD DIFPUF
_database_code_depnum_ccdc_archive 'CCDC 806881'
_chemical_formula_sum 'C13 H8 N4 O4'
_chemical_formula_moiety
;
C13 H8 N4 O4
;
_journal_coden_Cambridge 440
_journal_volume 37
_journal_year 2013
_journal_page_first 2384
_journal_name_full 'New J.Chem. '
loop_
_publ_author_name
"I.Alkorta"
"F.P.Cossio"
"J.Elguero"
"N.Fresno"
"L.Hernandez-Folgado"
"S.Garcia-Granda"
"L.Menendez-Taboada"
"R.Perez-Fernandez"
"F.Reviriego"
"L.Vazquez-Vinuela"
_chemical_name_systematic
;
2-(2,4-Dinitrophenyl)-2H-indazole
;
_cell_volume   2459.395
_exptl_crystal_colour 'colorless'
_exptl_crystal_density_diffrn 1.535
_diffrn_ambient_temperature 298
#These two values have been output from a single CSD field.
_refine_ls_R_factor_gt 0.0599
_refine_ls_wR_factor_gt 0.0599
_symmetry_cell_setting monoclinic
_symmetry_space_group_name_H-M 'P 21/c'
_symmetry_Int_Tables_number 14
loop_
_symmetry_equiv_pos_site_id
_symmetry_equiv_pos_as_xyz
1 x,y,z
2 -x,1/2+y,1/2-z
3 -x,-y,-z
4 x,-1/2-y,-1/2+z
_cell_length_a 7.2107(6)
_cell_length_b 24.0635(17)
_cell_length_c 14.4077(11)
_cell_angle_alpha 90
_cell_angle_beta 100.334(17)
_cell_angle_gamma 90
_cell_formula_units_Z 8
loop_
_atom_type_symbol
_atom_type_radius_bond
C 0.68
H 0.23
N 0.68
O 0.68
loop_
_atom_site_label
_atom_site_type_symbol
_atom_site_fract_x
_atom_site_fract_y
_atom_site_fract_z
C1 C 0.7397(6) 0.30330(16) 0.4763(3)
C2 C 0.8063(6) 0.34369(18) 0.5449(3)
H1 H 0.86630 0.33350 0.60520
C3 C 0.7800(7) 0.39801(19) 0.5203(3)
H2 H 0.82330 0.42530 0.56460
C4 C 0.6874(7) 0.4142(2) 0.4281(4)
H3 H 0.67120 0.45180 0.41440
C5 C 0.6227(7) 0.37671(19) 0.3603(3)
H4 H 0.56550 0.38790 0.30020
C6 C 0.6454(6) 0.31892(17) 0.3842(3)
C7 C 0.5956(6) 0.27024(18) 0.3381(3)
H5 H 0.53140 0.26620 0.27640
N1 N 0.6579(4) 0.22883(14) 0.3996(2)
N2 N 0.7473(5) 0.24747(14) 0.4857(2)
C8 C 0.6431(5) 0.17119(17) 0.3827(3)
C9 C 0.6374(6) 0.15187(19) 0.2906(3)
H6 H 0.64330 0.17700 0.24220
C10 C 0.6230(6) 0.09572(19) 0.2712(3)
H7 H 0.61850 0.08300 0.20990
C11 C 0.6153(6) 0.05894(18) 0.3429(3)
N3 N 0.6003(6) -0.00041(17) 0.3224(3)
O1 O 0.5811(6) -0.03244(15) 0.3857(3)
O2 O 0.6056(7) -0.01502(17) 0.2424(3)
C12 C 0.6231(5) 0.07642(18) 0.4345(3)
H8 H 0.61780 0.05090 0.48240
C13 C 0.6387(5) 0.13185(17) 0.4537(3)
N4 N 0.6476(5) 0.14745(14) 0.5539(2)
O3 O 0.5186(5) 0.17411(15) 0.5756(2)
O4 O 0.7828(5) 0.12937(15) 0.6087(2)
C14 C 0.8512(5) 0.87630(16) 0.6905(3)
C15 C 0.8486(6) 0.91826(18) 0.7582(3)
H9 H 0.83060 0.90950 0.81890
C16 C 0.8728(6) 0.97173(19) 0.7335(3)
H10 H 0.87120 0.99960 0.77800
C17 C 0.9006(6) 0.98629(19) 0.6418(3)
H11 H 0.91520 1.02350 0.62710
C18 C 0.9063(6) 0.94675(18) 0.5745(3)
H12 H 0.92540 0.95660 0.51450
C19 C 0.8827(5) 0.89056(18) 0.5981(3)
C20 C 0.8810(5) 0.84017(16) 0.5525(3)
H13 H 0.89850 0.83450 0.49070
N5 N 0.8494(4) 0.80051(13) 0.6139(2)
N6 N 0.8296(5) 0.82138(14) 0.7003(2)
C21 C 0.8312(5) 0.74293(16) 0.5965(3)
C22 C 0.7581(6) 0.72478(17) 0.5050(3)
H14 H 0.72280 0.75070 0.45720
C23 C 0.7381(6) 0.66951(17) 0.4851(3)
H15 H 0.69080 0.65770 0.42400
C24 C 0.7879(6) 0.63154(17) 0.5557(3)
N7 N 0.7709(6) 0.57175(16) 0.5349(3)
O5 O 0.6871(6) 0.55826(14) 0.4562(2)
O6 O 0.8374(6) 0.53876(14) 0.5953(3)
C25 C 0.8567(6) 0.64715(17) 0.6477(3)
H16 H 0.88760 0.62080 0.69520
C26 C 0.8781(5) 0.70298(17) 0.6668(2)
N8 N 0.9532(5) 0.71817(15) 0.7650(2)
O7 O 1.1026(4) 0.74244(15) 0.7823(2)
O8 O 0.8596(5) 0.70376(17) 0.8235(2)
#END
