
#######################################################################
#
#                 Cambridge Crystallographic Data Centre
#                                CCDC
#
#######################################################################
#
# If this CIF has been generated from an entry in the Cambridge
# Structural Database, then it will include bibliographic, chemical,
# crystal, experimental, refinement or atomic coordinate data resulting
# from the CCDC's data processing and validation procedures.
#
#######################################################################

data_CSD_CIF_DIFPUF01
_audit_creation_date 2013-06-17
_audit_creation_method CSD-ConQuest-V1
_database_code_CSD DIFPUF01
_database_code_depnum_ccdc_archive 'CCDC 806880'
_chemical_formula_sum 'C13 H8 N4 O4'
_chemical_formula_moiety
;
C13 H8 N4 O4
;
_journal_coden_Cambridge 440
_journal_volume 37
_journal_year 2013
_journal_page_first 2384
_journal_name_full 'New J.Chem. '
loop_
_publ_author_name
"I.Alkorta"
"F.P.Cossio"
"J.Elguero"
"N.Fresno"
"L.Hernandez-Folgado"
"S.Garcia-Granda"
"L.Menendez-Taboada"
"R.Perez-Fernandez"
"F.Reviriego"
"L.Vazquez-Vinuela"
_chemical_name_systematic
;
2-(2,4-Dinitrophenyl)-2H-indazole
;
_cell_volume   2398.961
_exptl_crystal_colour 'colorless'
_exptl_crystal_density_diffrn 1.574
_exptl_crystal_description 'prism'
_diffrn_ambient_temperature 120
#These two values have been output from a single CSD field.
_refine_ls_R_factor_gt 0.0469
_refine_ls_wR_factor_gt 0.0469
_symmetry_cell_setting monoclinic
_symmetry_space_group_name_H-M 'P 21/c'
_symmetry_Int_Tables_number 14
loop_
_symmetry_equiv_pos_site_id
_symmetry_equiv_pos_as_xyz
1 x,y,z
2 -x,1/2+y,1/2-z
3 -x,-y,-z
4 x,-1/2-y,-1/2+z
_cell_length_a 7.0730(5)
_cell_length_b 24.0840(16)
_cell_length_c 14.3289(10)
_cell_angle_alpha 90
_cell_angle_beta 100.633(7)
_cell_angle_gamma 90
_cell_formula_units_Z 8
loop_
_atom_type_symbol
_atom_type_radius_bond
C 0.68
H 0.23
N 0.68
O 0.68
loop_
_atom_site_label
_atom_site_type_symbol
_atom_site_fract_x
_atom_site_fract_y
_atom_site_fract_z
C1 C 0.7368(3) 0.30364(10) 0.47816(18)
C2 C 0.8049(4) 0.34415(10) 0.54796(18)
H1 H 0.86740 0.33380 0.61000
C3 C 0.7774(4) 0.39887(11) 0.52266(19)
H2 H 0.81970 0.42680 0.56860
C4 C 0.6868(4) 0.41498(11) 0.4292(2)
H3 H 0.67270 0.45340 0.41440
C5 C 0.6202(4) 0.37705(10) 0.36101(18)
H4 H 0.56050 0.38830 0.29900
C6 C 0.6429(3) 0.3199(1) 0.38542(17)
C7 C 0.5924(3) 0.27055(10) 0.33746(18)
H5 H 0.52780 0.26640 0.27360
N1 N 0.6546(3) 0.22929(8) 0.40068(14)
N2 N 0.7451(3) 0.24789(8) 0.48777(14)
C8 C 0.6407(3) 0.17175(10) 0.38309(17)
C9 C 0.6348(3) 0.15279(10) 0.29077(18)
H6 H 0.64050 0.17880 0.24150
C10 C 0.6207(3) 0.09648(11) 0.26975(19)
H7 H 0.61640 0.08370 0.20670
C11 C 0.6129(3) 0.05938(10) 0.34249(18)
N3 N 0.5981(3) -0.00024(9) 0.32118(16)
O1 O 0.5767(3) -0.03236(8) 0.38500(14)
O2 O 0.6072(3) -0.01443(8) 0.24025(15)
C12 C 0.6225(3) 0.07605(10) 0.43535(18)
H8 H 0.61920 0.04980 0.48450
C13 C 0.6370(3) 0.13254(10) 0.45447(17)
N4 N 0.6495(3) 0.14743(8) 0.55580(15)
O3 O 0.5181(3) 0.17322(8) 0.57906(13)
O4 O 0.7903(3) 0.12925(8) 0.61073(13)
C14 C 0.8559(3) 0.87647(9) 0.69022(17)
C15 C 0.8534(3) 0.9184(1) 0.75954(17)
H9 H 0.83630 0.90930 0.82200
C16 C 0.8763(3) 0.97206(10) 0.73398(18)
H10 H 0.87660 1.00060 0.77980
C17 C 0.8999(3) 0.98664(10) 0.64072(19)
H11 H 0.91270 1.02470 0.62540
C18 C 0.9045(3) 0.94725(10) 0.57259(18)
H12 H 0.92130 0.95730 0.51050
C19 C 0.8835(3) 0.8908(1) 0.59721(16)
C20 C 0.8819(3) 0.84047(10) 0.55021(17)
H13 H 0.89830 0.83480 0.48660
N5 N 0.8524(3) 0.80095(8) 0.61313(13)
N6 N 0.8351(3) 0.82131(8) 0.70040(13)
C21 C 0.8340(3) 0.74321(9) 0.59512(16)
C22 C 0.7584(3) 0.72536(10) 0.50299(17)
H14 H 0.72200 0.75190 0.45400
C23 C 0.7362(3) 0.66967(10) 0.48265(17)
H15 H 0.68480 0.65770 0.41990
C24 C 0.7897(3) 0.63107(10) 0.55471(17)
N7 N 0.7698(3) 0.57194(8) 0.53234(15)
O5 O 0.6840(3) 0.55857(8) 0.45312(13)
O6 O 0.8398(3) 0.53869(7) 0.59382(14)
C25 C 0.8611(3) 0.64706(10) 0.64682(17)
H16 H 0.89480 0.62030 0.69580
C26 C 0.8821(3) 0.70315(10) 0.66578(16)
N8 N 0.9577(3) 0.71823(8) 0.76557(14)
O7 O 1.1113(3) 0.74241(7) 0.78384(13)
O8 O 0.8597(3) 0.70327(8) 0.82330(12)
#END
