
#######################################################################
#
#                 Cambridge Crystallographic Data Centre
#                                CCDC
#
#######################################################################
#
# If this CIF has been generated from an entry in the Cambridge
# Structural Database, then it will include bibliographic, chemical,
# crystal, experimental, refinement or atomic coordinate data resulting
# from the CCDC's data processing and validation procedures.
#
#######################################################################

data_CSD_CIF_DIFQUF
_audit_creation_date 2007-11-02
_audit_creation_method CSD-ConQuest-V1
_database_code_CSD DIFQUF
_database_code_depnum_ccdc_archive 'CCDC 638056'
_chemical_formula_sum 'C16 H17 N1 O4'
_chemical_formula_moiety
;
C16 H17 N1 O4
;
_journal_coden_Cambridge 1088
_journal_volume 2007
_journal_year 2007
_journal_page_first 1720
_journal_name_full 'Synlett '
loop_
_publ_author_name
"S.Tanaka"
"M.Yasuda"
"A.Baba"
_chemical_name_systematic
;
2-Methyl-2-phenyl-3-(4-nitrophenyl)propane-1,3-diol
;
_chemical_melting_point 412.15
_cell_volume   1389.315
_exptl_crystal_colour 'colorless'
_exptl_crystal_density_diffrn 1.373
_exptl_special_details
;
Melting point range 412.15-415.15K

;
_exptl_crystal_description 'prismatic'
_diffrn_ambient_temperature 296.2
#These two values have been output from a single CSD field.
_refine_ls_R_factor_gt 0.0482
_refine_ls_wR_factor_gt 0.0482
_symmetry_cell_setting monoclinic
_symmetry_space_group_name_H-M 'C c'
_symmetry_Int_Tables_number 9
loop_
_symmetry_equiv_pos_site_id
_symmetry_equiv_pos_as_xyz
1 x,y,z
2 x,-y,1/2+z
3 1/2+x,1/2+y,z
4 1/2+x,1/2-y,1/2+z
_cell_length_a 10.692(2)
_cell_length_b 18.451(3)
_cell_length_c 8.530(3)
_cell_angle_alpha 90
_cell_angle_beta 124.35(2)
_cell_angle_gamma 90
_cell_formula_units_Z 4
loop_
_atom_type_symbol
_atom_type_radius_bond
C 0.68
H 0.23
N 0.68
O 0.68
loop_
_atom_site_label
_atom_site_type_symbol
_atom_site_fract_x
_atom_site_fract_y
_atom_site_fract_z
O1 O 1.062(2) 0.2418(1) 0.933(2)
O2 O 0.708(2) 0.0831(2) 0.054(2)
O3 O 0.540(2) 0.0358(2) 0.088(2)
O4 O 1.338(2) 0.1802(2) 1.093(2)
N1 N 0.657(2) 0.0707(2) 0.148(2)
C1 C 0.991(2) 0.1733(2) 0.919(2)
C2 C 0.902(2) 0.1457(2) 0.717(2)
C3 C 0.956(2) 0.1563(2) 0.604(2)
C4 C 0.877(2) 0.1317(2) 0.417(2)
C5 C 0.741(2) 0.0975(2) 0.346(2)
C6 C 0.681(2) 0.0869(2) 0.452(2)
C7 C 0.763(2) 0.1122(2) 0.638(2)
C8 C 1.118(2) 0.1197(2) 1.066(2)
C9 C 1.248(2) 0.1147(2) 1.041(2)
C10 C 1.048(2) 0.0443(2) 1.031(2)
C11 C 1.185(2) 0.1427(2) 1.273(2)
C12 C 1.287(2) 0.0960(2) 1.420(2)
C13 C 1.354(2) 0.1134(3) 1.609(2)
C14 C 1.320(2) 0.1781(3) 1.656(2)
C15 C 1.219(2) 0.2259(3) 1.513(2)
C16 C 1.152(2) 0.2084(2) 1.324(2)
H1 H 0.93470 0.19800 1.00240
H2 H 0.990(6) 0.278(3) 0.850(8)
H3 H 1.04800 0.18130 0.65900
H4 H 0.91790 0.13840 0.34530
H5 H 0.58650 0.06290 0.40200
H6 H 0.72360 0.10650 0.71720
H7 H 1.022(6) 0.018(3) 0.913(7)
H8 H 0.94450 0.03440 1.02690
H9 H 1.128(5) 0.007(2) 1.145(6)
H10 H 1.32900 0.06020 1.12100
H11 H 1.22410 0.08430 0.90900
H12 H 1.25960 0.22210 1.03070
H13 H 1.31320 0.05110 1.39180
H14 H 1.42290 0.07980 1.71010
H15 H 1.36660 0.19110 1.78960
H16 H 1.19480 0.27040 1.54990
H17 H 1.08440 0.24060 1.23210
#END
