
#######################################################################
#
#                 Cambridge Crystallographic Data Centre
#                                CCDC
#
#######################################################################
#
# If this CIF has been generated from an entry in the Cambridge
# Structural Database, then it will include bibliographic, chemical,
# crystal, experimental, refinement or atomic coordinate data resulting
# from the CCDC's data processing and validation procedures.
#
#######################################################################

data_CSD_CIF_DIFRAM
_audit_creation_date 2007-11-02
_audit_creation_method CSD-ConQuest-V1
_database_code_CSD DIFRAM
_database_code_depnum_ccdc_archive 'CCDC 638057'
_chemical_formula_sum 'C32 H28 N2 O8'
_chemical_formula_moiety
;
C32 H28 N2 O8
;
_journal_coden_Cambridge 1088
_journal_volume 2007
_journal_year 2007
_journal_page_first 1720
_journal_name_full 'Synlett '
loop_
_publ_author_name
"S.Tanaka"
"M.Yasuda"
"A.Baba"
_chemical_name_systematic
;
4-Benzyl-2-methyl-2-phenylbutane-1,3-diyl bis(4-nitrobenzoate)
;
_chemical_melting_point 386.15
_cell_volume   2859.694
_exptl_crystal_colour 'colorless'
_exptl_crystal_density_diffrn 1.321
_exptl_special_details
;
Melting point range 386.15-389.15K

;
_exptl_crystal_description 'platelet'
_diffrn_ambient_temperature 296.2
#These two values have been output from a single CSD field.
_refine_ls_R_factor_gt 0.0571
_refine_ls_wR_factor_gt 0.0571
_symmetry_cell_setting triclinic
_symmetry_space_group_name_H-M 'P -1'
_symmetry_Int_Tables_number 2
loop_
_symmetry_equiv_pos_site_id
_symmetry_equiv_pos_as_xyz
1 x,y,z
2 -x,-y,-z
_cell_length_a 7.4796(2)
_cell_length_b 13.3074(4)
_cell_length_c 29.2586(9)
_cell_angle_alpha 85.2803(6)
_cell_angle_beta 86.2613(9)
_cell_angle_gamma 80.6356(8)
_cell_formula_units_Z 4
loop_
_atom_type_symbol
_atom_type_radius_bond
C 0.68
H 0.23
N 0.68
O 0.68
loop_
_atom_site_label
_atom_site_type_symbol
_atom_site_fract_x
_atom_site_fract_y
_atom_site_fract_z
O1 O 0.8080(2) 0.1476(1) 0.17809(6)
O2 O 0.5494(3) 0.2553(2) 0.18855(8)
O3 O 1.0715(4) 0.6434(2) 0.1675(1)
O4 O 1.3064(4) 0.5346(2) 0.1556(1)
O5 O 0.9719(2) 0.0422(1) 0.10285(5)
O6 O 0.7261(2) 0.1375(1) 0.07248(7)
O7 O 1.2379(3) 0.5274(2) 0.03899(10)
O8 O 1.4751(3) 0.4236(2) 0.05814(9)
N1 N 1.1450(4) 0.5574(2) 0.16225(10)
N2 N 1.3151(4) 0.4425(2) 0.05058(9)
C1 C 0.7081(4) 0.0621(2) 0.1832(1)
C2 C 0.7110(4) 0.2405(2) 0.18179(9)
C3 C 0.8274(4) 0.3215(2) 0.17705(8)
C4 C 1.0142(4) 0.2993(2) 0.17751(9)
C5 C 1.1181(4) 0.3761(2) 0.17272(10)
C6 C 1.0328(4) 0.4754(2) 0.16775(9)
C7 C 0.8482(5) 0.5006(2) 0.1677(1)
C8 C 0.7461(4) 0.4233(2) 0.1718(1)
C9 C 0.8332(3) -0.0367(2) 0.17189(8)
C10 C 1.0115(5) -0.0458(3) 0.1958(1)
C11 C 0.7247(3) -0.1222(2) 0.18918(9)
C12 C 0.7617(5) -0.1807(3) 0.2297(1)
C13 C 0.6590(6) -0.2551(3) 0.2452(1)
C14 C 0.5214(5) -0.2741(3) 0.2214(2)
C15 C 0.4812(4) -0.2182(3) 0.1816(1)
C16 C 0.5813(4) -0.1422(2) 0.1660(1)
C17 C 0.8724(3) -0.0406(2) 0.11945(9)
C18 C 0.8829(3) 0.1260(2) 0.08132(8)
C19 C 1.0027(3) 0.2055(2) 0.07091(8)
C20 C 1.1874(3) 0.1855(2) 0.07644(9)
C21 C 1.2921(4) 0.2621(2) 0.06932(9)
C22 C 1.2073(3) 0.3591(2) 0.05655(9)
C23 C 1.0237(4) 0.3811(2) 0.04986(9)
C24 C 0.9219(4) 0.3041(2) 0.05711(9)
C25 C 0.9902(4) -0.1362(2) 0.1042(1)
C26 C 0.9644(4) -0.1542(3) 0.0543(1)
C27 C 0.7899(3) -0.1935(2) 0.04952(9)
C28 C 0.7805(4) -0.2955(2) 0.0611(1)
C29 C 0.6198(5) -0.3335(3) 0.0589(1)
C30 C 0.4674(4) -0.2698(3) 0.0450(1)
C31 C 0.4744(4) -0.1692(3) 0.0335(1)
C32 C 0.6345(4) -0.1314(2) 0.03549(10)
H1 H 0.663(3) 0.053(2) 0.2136(9)
H2 H 0.599(4) 0.073(2) 0.1618(9)
H3 H 0.620(3) 0.438(2) 0.1721(8)
H4 H 0.795(3) 0.569(2) 0.1627(9)
H5 H 1.242(4) 0.364(2) 0.1734(9)
H6 H 1.067(3) 0.229(2) 0.1813(8)
H7 H 0.984(3) -0.032(2) 0.2262(9)
H8 H 1.096(3) 0.002(2) 0.1818(9)
H9 H 1.082(4) -0.115(2) 0.1944(9)
H10 H 0.855(4) -0.167(2) 0.2451(10)
H11 H 0.678(5) -0.281(3) 0.271(1)
H12 H 0.458(4) -0.318(2) 0.230(1)
H13 H 0.392(4) -0.231(2) 0.162(1)
H14 H 0.549(3) -0.105(2) 0.1378(9)
H15 H 0.753(2) -0.027(1) 0.1049(6)
H16 H 0.796(3) 0.316(2) 0.0535(8)
H17 H 0.963(3) 0.450(2) 0.0422(9)
H18 H 1.422(3) 0.246(2) 0.0733(8)
H19 H 1.236(3) 0.116(2) 0.0845(8)
H20 H 1.112(3) -0.130(2) 0.1091(7)
H21 H 0.965(3) -0.189(2) 0.1232(7)
H22 H 0.965(3) -0.088(2) 0.0343(9)
H23 H 1.055(3) -0.200(2) 0.0441(8)
H24 H 0.642(3) -0.065(2) 0.0264(9)
H25 H 0.358(4) -0.121(2) 0.0204(10)
H26 H 0.356(4) -0.296(2) 0.0430(9)
H27 H 0.618(3) -0.399(2) 0.0659(9)
H28 H 0.885(4) -0.334(2) 0.0699(9)
O9 O 0.5988(2) 0.1473(1) 0.45925(6)
O10 O 0.3701(2) 0.1104(1) 0.50775(6)
O11 O 1.1435(3) 0.1750(2) 0.63277(8)
O12 O 0.9381(3) 0.1383(2) 0.68287(8)
O13 O 0.7427(2) 0.2990(1) 0.40082(6)
O14 O 0.5044(2) 0.3824(1) 0.44048(6)
O15 O 1.3234(3) 0.3626(2) 0.56213(8)
O16 O 1.1020(3) 0.4338(2) 0.60436(9)
N3 N 0.9936(4) 0.1524(2) 0.6436(1)
N4 N 1.1636(4) 0.3940(2) 0.56968(10)
C33 C 0.4864(4) 0.1454(2) 0.42066(9)
C34 C 0.5231(4) 0.1278(2) 0.50110(9)
C35 C 0.6512(3) 0.1304(2) 0.53762(9)
C36 C 0.8363(4) 0.1249(2) 0.5281(1)
C37 C 0.9502(4) 0.1315(2) 0.5627(1)
C38 C 0.8743(4) 0.1430(2) 0.60627(9)
C39 C 0.6925(4) 0.1467(2) 0.6172(1)
C40 C 0.5807(4) 0.1408(2) 0.58233(10)
C41 C 0.5974(3) 0.1624(2) 0.37546(9)
C42 C 0.7799(5) 0.0906(3) 0.3772(1)
C43 C 0.4761(4) 0.1379(2) 0.33870(9)
C44 C 0.3242(4) 0.2061(3) 0.3257(1)
C45 C 0.2178(5) 0.1866(4) 0.2921(1)
C46 C 0.2538(6) 0.0955(4) 0.2715(1)
C47 C 0.3996(7) 0.0262(4) 0.2842(1)
C48 C 0.5112(5) 0.0472(3) 0.3171(1)
C49 C 0.6278(3) 0.2740(2) 0.36630(9)
C50 C 0.6639(3) 0.3506(2) 0.43635(9)
C51 C 0.7980(3) 0.3631(2) 0.46969(9)
C52 C 0.9838(4) 0.3358(2) 0.4613(1)
C53 C 1.1038(4) 0.3460(2) 0.4939(1)
C54 C 1.0350(3) 0.3827(2) 0.53494(9)
C55 C 0.8526(4) 0.4118(2) 0.5442(1)
C56 C 0.7338(4) 0.4013(2) 0.51128(9)
C57 C 0.7230(4) 0.2973(3) 0.3199(1)
C58 C 0.7222(5) 0.4112(3) 0.3074(1)
C59 C 0.5340(4) 0.4713(2) 0.30609(9)
C60 C 0.4092(5) 0.4481(3) 0.2775(1)
C61 C 0.2341(5) 0.5007(3) 0.2776(1)
C62 C 0.1813(6) 0.5797(3) 0.3050(1)
C63 C 0.3047(7) 0.6041(3) 0.3326(1)
C64 C 0.4773(6) 0.5513(3) 0.3339(1)
H29 H 0.375(3) 0.196(2) 0.4237(7)
H30 H 0.444(3) 0.072(2) 0.4228(8)
H31 H 0.880(3) 0.115(2) 0.4965(9)
H32 H 1.071(4) 0.128(2) 0.5568(9)
H33 H 0.635(4) 0.159(2) 0.651(1)
H34 H 0.457(3) 0.141(2) 0.5890(8)
H35 H 0.858(4) 0.117(2) 0.3978(10)
H36 H 0.759(4) 0.018(2) 0.385(1)
H37 H 0.844(4) 0.084(2) 0.344(1)
H38 H 0.619(3) 0.002(2) 0.3220(7)
H39 H 0.423(4) -0.044(3) 0.271(1)
H40 H 0.183(4) 0.075(3) 0.241(1)
H41 H 0.111(4) 0.232(2) 0.282(1)
H42 H 0.301(3) 0.265(2) 0.3406(8)
H43 H 0.516(3) 0.320(1) 0.3689(6)
H44 H 1.029(3) 0.310(2) 0.4339(8)
H45 H 1.223(4) 0.328(2) 0.4880(9)
H46 H 0.813(3) 0.436(2) 0.5725(9)
H47 H 0.609(3) 0.417(2) 0.5189(8)
H48 H 0.672(4) 0.263(2) 0.295(1)
H49 H 0.843(3) 0.265(2) 0.3209(8)
H50 H 0.792(3) 0.436(2) 0.3283(9)
H51 H 0.783(4) 0.421(2) 0.276(1)
H52 H 0.445(4) 0.397(2) 0.258(1)
H53 H 0.142(4) 0.478(2) 0.258(1)
H54 H 0.043(6) 0.619(3) 0.303(1)
H55 H 0.263(4) 0.656(3) 0.350(1)
H56 H 0.562(4) 0.567(2) 0.3504(10)
#END
