
#######################################################################
#
#                 Cambridge Crystallographic Data Centre
#                                CCDC
#
#######################################################################
#
# If this CIF has been generated from an entry in the Cambridge
# Structural Database, then it will include bibliographic, chemical,
# crystal, experimental, refinement or atomic coordinate data resulting
# from the CCDC's data processing and validation procedures.
#
#######################################################################

data_CSD_CIF_DIFVOF
_audit_creation_date 2013-06-17
_audit_creation_method CSD-ConQuest-V1
_database_code_CSD DIFVOF
_database_code_depnum_ccdc_archive 'CCDC 779190'
_chemical_formula_sum 'C15 H18 N5 O2'
_chemical_formula_moiety
;
C15 H18 N5 O2
;
_journal_coden_Cambridge 369
_journal_volume 37
_journal_year 2012
_journal_page_first 743
_journal_name_full 'Transition Met.Chem. '
loop_
_publ_author_name
"You-Juan Zhang"
"Jun-Jie Wang"
"Qiang Huang"
"Jing Chen"
_chemical_name_systematic
;
4,4,5,5-Tetramethyl-2-(2-phenyl-2H-1,2,3-triazol-4-yl)-4,5-dihydro-1H-imidazol
e-1-oxyl-3-oxide
;
_cell_volume   1540.317
_exptl_crystal_colour 'colorless'
_exptl_crystal_density_diffrn 1.295
_exptl_crystal_description 'prismatic'
_diffrn_ambient_temperature 291
#These two values have been output from a single CSD field.
_refine_ls_R_factor_gt 0.0645
_refine_ls_wR_factor_gt 0.0645
_symmetry_cell_setting orthorhombic
_symmetry_space_group_name_H-M 'P 21 21 21'
_symmetry_Int_Tables_number 19
loop_
_symmetry_equiv_pos_site_id
_symmetry_equiv_pos_as_xyz
1 x,y,z
2 1/2-x,-y,1/2+z
3 -x,1/2+y,1/2-z
4 1/2+x,1/2-y,-z
_cell_length_a 6.0411(12)
_cell_length_b 11.947(2)
_cell_length_c 21.342(4)
_cell_angle_alpha 90
_cell_angle_beta 90
_cell_angle_gamma 90
_cell_formula_units_Z 4
loop_
_atom_type_symbol
_atom_type_radius_bond
C 0.68
H 0.23
N 0.68
O 0.68
loop_
_atom_site_label
_atom_site_type_symbol
_atom_site_fract_x
_atom_site_fract_y
_atom_site_fract_z
O1 O -0.0229(5) 1.1143(2) 0.11465(14)
O2 O 0.3920(6) 0.8510(2) 0.22196(14)
N1 N -0.1764(6) 0.7834(3) 0.05884(17)
N2 N -0.0046(5) 0.7212(2) 0.07726(13)
N3 N 0.1403(5) 0.7721(2) 0.11483(14)
N4 N 0.1124(5) 1.0708(2) 0.15367(14)
N5 N 0.3097(5) 0.9450(2) 0.20403(14)
C1 C 0.2171(8) 0.5528(3) 0.07158(18)
H1 H 0.32910 0.58950 0.09330
C2 C 0.2429(10) 0.4415(4) 0.0528(2)
H2 H 0.37390 0.40380 0.06160
C3 C 0.0748(11) 0.3876(4) 0.0212(3)
H3 H 0.09200 0.31340 0.00900
C4 C -0.1166(10) 0.4433(4) 0.0078(2)
H4 H -0.22920 0.40640 -0.01350
C5 C -0.1464(8) 0.5556(3) 0.02581(18)
H5 H -0.27650 0.59370 0.01650
C6 C 0.0225(7) 0.6066(3) 0.05734(15)
C7 C -0.1403(8) 0.8816(3) 0.08628(19)
H6 H -0.22980 0.94460 0.08250
C8 C 0.0523(6) 0.8750(3) 0.12134(16)
C9 C 0.1597(6) 0.9606(3) 0.15884(16)
C10 C 0.2662(6) 1.1412(3) 0.19306(18)
C11 C 0.3565(6) 1.0515(3) 0.24027(17)
C12 C 0.1344(7) 1.2372(3) 0.2228(2)
H7 H 0.08580 1.28780 0.19070
H8 H 0.22690 1.27660 0.25200
H9 H 0.00810 1.20740 0.24440
C13 C 0.4386(8) 1.1890(3) 0.1492(2)
H10 H 0.37050 1.24290 0.12200
H11 H 0.50190 1.12980 0.12460
H12 H 0.55290 1.22480 0.17320
C14 C 0.2269(8) 1.0431(4) 0.3014(2)
H13 H 0.29230 0.98680 0.32760
H14 H 0.07620 1.02330 0.29250
H15 H 0.23080 1.11390 0.32260
C15 C 0.6024(7) 1.0599(3) 0.2536(2)
H16 H 0.64430 1.00260 0.28280
H17 H 0.63490 1.13200 0.27120
H18 H 0.68360 1.05050 0.21530
#END
