
#######################################################################
#
#                 Cambridge Crystallographic Data Centre
#                                CCDC
#
#######################################################################
#
# If this CIF has been generated from an entry in the Cambridge
# Structural Database, then it will include bibliographic, chemical,
# crystal, experimental, refinement or atomic coordinate data resulting
# from the CCDC's data processing and validation procedures.
#
#######################################################################

data_CSD_CIF_DIFZUO
_audit_creation_date 2007-11-02
_audit_creation_method CSD-ConQuest-V1
_database_code_CSD DIFZUO
_database_code_depnum_ccdc_archive 'CCDC 642121'
_chemical_formula_sum 'C31 H33 N1 O4'
_chemical_formula_moiety
;
C31 H33 N1 O4
;
_journal_coden_Cambridge 16
_journal_volume 63
_journal_year 2007
_journal_page_first 7816
_journal_name_full 'Tetrahedron '
loop_
_publ_author_name
"N.A.Kulkarni"
"Ching-Fa Yao"
"Kwunmin Chen"
_chemical_name_systematic
;
1-(hydroxy(diphenyl)methyl)-2-(2-(benzyloxyimino)-1-oxoethyoxy)-7,7-dimethylbi
cyclo[2.2.1]heptane
;
_cell_volume   5188.063
_exptl_crystal_colour 'colorless'
_exptl_crystal_density_diffrn 1.238
_exptl_crystal_description 'prism'
_diffrn_ambient_temperature 200
#These two values have been output from a single CSD field.
_refine_ls_R_factor_gt 0.0681
_refine_ls_wR_factor_gt 0.0681
_symmetry_cell_setting orthorhombic
_symmetry_space_group_name_H-M 'P 21 21 21'
_symmetry_Int_Tables_number 19
loop_
_symmetry_equiv_pos_site_id
_symmetry_equiv_pos_as_xyz
1 x,y,z
2 1/2-x,-y,1/2+z
3 1/2+x,1/2-y,-z
4 -x,1/2+y,1/2-z
_cell_length_a 10.6150(1)
_cell_length_b 11.0210(2)
_cell_length_c 44.3470(7)
_cell_angle_alpha 90
_cell_angle_beta 90
_cell_angle_gamma 90
_cell_formula_units_Z 8
loop_
_atom_type_symbol
_atom_type_radius_bond
C 0.68
H 0.23
N 0.68
O 0.68
loop_
_atom_site_label
_atom_site_type_symbol
_atom_site_fract_x
_atom_site_fract_y
_atom_site_fract_z
O1 O 0.9274(2) 0.0254(2) 0.72174(6)
H1 H 0.93650 0.01780 0.70350
O2 O 0.8312(2) 0.0586(2) 0.66508(6)
O3 O 0.7074(3) -0.0522(4) 0.63451(9)
O4 O 1.1212(2) -0.1545(2) 0.64615(7)
O5 O 0.6746(2) -0.4649(3) 0.54283(7)
H2 H 0.66700 -0.46350 0.56120
O6 O 0.5249(2) -0.4204(3) 0.59124(7)
O7 O 0.4435(3) -0.3050(3) 0.62817(8)
O8 O 0.8607(3) -0.4079(3) 0.63007(7)
N1 N 1.0205(3) -0.0822(3) 0.65503(8)
N2 N 0.7458(3) -0.4122(3) 0.61505(8)
C1 C 0.7958(3) 0.0358(3) 0.72862(9)
C2 C 0.7418(3) 0.1497(3) 0.71123(9)
C3 C 0.7255(3) 0.1296(3) 0.67677(9)
H3 H 0.64810 0.08660 0.67330
C4 C 0.7247(4) 0.2584(3) 0.66332(9)
H4 H 0.79640 0.26840 0.65040
H5 H 0.64890 0.27060 0.65190
C5 C 0.7299(4) 0.3396(3) 0.69133(10)
H6 H 0.74740 0.42360 0.68740
C6 C 0.6025(4) 0.3278(3) 0.70782(10)
H7 H 0.59730 0.38910 0.72310
H8 H 0.53460 0.33810 0.69370
C7 C 0.6097(3) 0.1977(3) 0.72109(10)
H9 H 0.54620 0.14550 0.71280
H10 H 0.60390 0.19700 0.74270
C8 C 0.8211(4) 0.2723(3) 0.71260(9)
C9 C 0.9557(4) 0.2698(3) 0.69992(10)
H11 H 0.99230 0.34910 0.70180
H12 H 0.95300 0.24720 0.67900
H13 H 1.00580 0.21220 0.71090
C10 C 0.8273(4) 0.3334(3) 0.7441(1)
H14 H 0.87600 0.40650 0.74260
H15 H 0.86690 0.27900 0.75810
H16 H 0.74400 0.35260 0.75110
C11 C 0.7906(3) 0.0496(3) 0.76310(9)
C12 C 0.8983(3) 0.0788(3) 0.77962(10)
H17 H 0.97640 0.09250 0.76930
C13 C 0.8955(4) 0.0901(3) 0.8104(1)
H18 H 0.97020 0.11180 0.82140
C14 C 0.7837(4) 0.0707(3) 0.82625(10)
H19 H 0.78190 0.07750 0.84780
C15 C 0.6757(4) 0.0405(3) 0.80993(9)
H20 H 0.59800 0.02670 0.82050
C16 C 0.6805(3) 0.0291(3) 0.77907(9)
H21 H 0.60440 0.00760 0.76870
C17 C 0.7325(3) -0.0861(3) 0.72047(9)
C18 C 0.6072(3) -0.1012(3) 0.71194(10)
H22 H 0.55350 -0.03200 0.70920
C19 C 0.5559(4) -0.2152(3) 0.70741(10)
H23 H 0.46990 -0.22300 0.70100
C20 C 0.6282(4) -0.3169(3) 0.71153(10)
H24 H 0.59200 -0.39610 0.70900
C21 C 0.7526(4) -0.3043(4) 0.72001(13)
H25 H 0.80240 -0.37610 0.72280
C22 C 0.8037(4) -0.1897(3) 0.72403(12)
H26 H 0.89100 -0.18260 0.72940
C23 C 0.8083(4) -0.0296(4) 0.64545(10)
C24 C 0.9239(4) -0.0993(4) 0.63864(11)
H27 H 0.92800 -0.15710 0.62250
C25 C 1.2276(4) -0.1289(4) 0.66573(11)
H28 H 1.20010 -0.13610 0.68630
H29 H 1.29380 -0.18630 0.66190
C26 C 1.2791(4) -0.0042(4) 0.66113(11)
C27 C 1.2428(4) 0.0903(4) 0.67900(12)
H30 H 1.18690 0.07650 0.69570
C28 C 1.2857(5) 0.2057(4) 0.67366(14)
H31 H 1.25970 0.27040 0.68680
C29 C 1.3643(5) 0.2264(5) 0.65018(14)
H32 H 1.39120 0.30760 0.64570
C30 C 1.4056(5) 0.1325(5) 0.63176(14)
H33 H 1.46440 0.15060 0.61590
C31 C 1.3623(4) 0.0178(4) 0.63735(12)
H34 H 1.38810 -0.04860 0.62480
C32 C 0.5777(4) -0.3914(4) 0.5293(1)
C33 C 0.4456(4) -0.4432(4) 0.53957(10)
C34 C 0.4113(4) -0.4093(4) 0.57236(10)
H35 H 0.38100 -0.32730 0.57310
C35 C 0.3085(4) -0.5017(5) 0.58146(12)
H36 H 0.33680 -0.55020 0.59810
H37 H 0.23440 -0.45760 0.58720
C36 C 0.2902(4) -0.5744(5) 0.55294(12)
H38 H 0.24450 -0.64870 0.55590
C37 C 0.2231(4) -0.4915(5) 0.52993(12)
H39 H 0.19580 -0.54070 0.51330
H40 H 0.15120 -0.45470 0.53940
C38 C 0.3280(4) -0.4006(4) 0.52148(11)
H41 H 0.30680 -0.31930 0.52730
H42 H 0.34740 -0.40240 0.50030
C39 C 0.4232(4) -0.5873(4) 0.53972(11)
C40 C 0.4216(5) -0.6461(4) 0.50829(12)
H43 H 0.40760 -0.73170 0.51050
H44 H 0.50180 -0.63270 0.49890
H45 H 0.35630 -0.61170 0.49600
C41 C 0.5076(5) -0.6677(4) 0.55970(13)
H46 H 0.48310 -0.75110 0.55750
H47 H 0.49950 -0.64390 0.58040
H48 H 0.59370 -0.65820 0.55340
C42 C 0.6024(4) -0.4021(4) 0.49526(10)
C43 C 0.6770(4) -0.4959(4) 0.48388(11)
H49 H 0.71190 -0.55470 0.49750
C44 C 0.7044(4) -0.5060(5) 0.45342(11)
H50 H 0.75070 -0.57520 0.44640
C45 C 0.6600(5) -0.4215(5) 0.43339(12)
H51 H 0.68230 -0.42680 0.41250
C46 C 0.5877(5) -0.3288(5) 0.44421(12)
H52 H 0.55510 -0.26900 0.43050
C47 C 0.5583(4) -0.3179(4) 0.47474(11)
H53 H 0.50510 -0.25290 0.48150
C48 C 0.5998(4) -0.2575(4) 0.53918(10)
C49 C 0.5115(4) -0.1664(4) 0.53710(14)
H54 H 0.42950 -0.18360 0.52900
C50 C 0.5390(5) -0.0492(5) 0.54612(16)
H55 H 0.47610 0.01290 0.54430
C51 C 0.6547(5) -0.0198(5) 0.55754(14)
H56 H 0.67160 0.06130 0.56430
C52 C 0.7432(5) -0.1073(5) 0.55914(12)
H57 H 0.82610 -0.08800 0.56640
C53 C 0.7187(4) -0.2252(4) 0.55038(10)
H58 H 0.78350 -0.28550 0.55210
C54 C 0.5307(4) -0.3576(4) 0.61726(10)
C55 C 0.6579(4) -0.3646(4) 0.63052(11)
H59 H 0.67760 -0.33600 0.65040
C56 C 0.9594(4) -0.4417(4) 0.60918(12)
H60 H 0.94730 -0.40030 0.59040
H61 H 1.03950 -0.41940 0.61760
C57 C 0.9648(4) -0.5757(4) 0.60209(10)
C58 C 0.9016(5) -0.6210(5) 0.57705(12)
H62 H 0.85770 -0.56690 0.56370
C59 C 0.9054(5) -0.7464(5) 0.57103(14)
H63 H 0.85890 -0.77970 0.55440
C60 C 0.9714(5) -0.8230(5) 0.58928(14)
H64 H 0.97270 -0.90870 0.58540
C61 C 1.0366(4) -0.7780(4) 0.61322(12)
H65 H 1.08630 -0.83250 0.62520
C62 C 1.0317(4) -0.6554(4) 0.6200(1)
H66 H 1.07500 -0.62590 0.63750
#END
