
#######################################################################
#
#                 Cambridge Crystallographic Data Centre
#                                CCDC
#
#######################################################################
#
# If this CIF has been generated from an entry in the Cambridge
# Structural Database, then it will include bibliographic, chemical,
# crystal, experimental, refinement or atomic coordinate data resulting
# from the CCDC's data processing and validation procedures.
#
#######################################################################

data_CSD_CIF_DIFZAU
_audit_creation_date 2007-11-02
_audit_creation_method CSD-ConQuest-V1
_database_code_CSD DIFZAU
_database_code_depnum_ccdc_archive 'CCDC 642117'
_chemical_formula_sum 'C25 H27 N3 O3'
_chemical_formula_moiety
;
C25 H27 N3 O3
;
_journal_coden_Cambridge 16
_journal_volume 63
_journal_year 2007
_journal_page_first 7816
_journal_name_full 'Tetrahedron '
loop_
_publ_author_name
"N.A.Kulkarni"
"Ching-Fa Yao"
"Kwunmin Chen"
_chemical_name_systematic
;
8,8-dimethyl-2-phenyl-1-(2-(benzyloxyimino)-1-oxoethyl)octahydro-3H-3a,6-metha
noindazol-3-one
;
_cell_volume   2228.196
_exptl_crystal_colour 'colorless'
_exptl_crystal_density_diffrn 1.245
_exptl_crystal_description 'prism'
_diffrn_ambient_temperature 293
#These two values have been output from a single CSD field.
_refine_ls_R_factor_gt 0.0449
_refine_ls_wR_factor_gt 0.0449
_symmetry_cell_setting orthorhombic
_symmetry_space_group_name_H-M 'P 21 21 21'
_symmetry_Int_Tables_number 19
loop_
_symmetry_equiv_pos_site_id
_symmetry_equiv_pos_as_xyz
1 x,y,z
2 1/2-x,-y,1/2+z
3 1/2+x,1/2-y,-z
4 -x,1/2+y,1/2-z
_cell_length_a 9.1750(2)
_cell_length_b 10.3510(2)
_cell_length_c 23.4620(5)
_cell_angle_alpha 90
_cell_angle_beta 90
_cell_angle_gamma 90
_cell_formula_units_Z 4
loop_
_atom_type_symbol
_atom_type_radius_bond
C 0.68
H 0.23
N 0.68
O 0.68
loop_
_atom_site_label
_atom_site_type_symbol
_atom_site_fract_x
_atom_site_fract_y
_atom_site_fract_z
O1 O 0.44156(15) 0.84395(16) 0.71140(6)
O2 O 0.05842(14) 0.85515(13) 0.85641(6)
O3 O 0.15963(19) 0.53711(14) 0.98041(6)
N1 N 0.26744(15) 0.79946(14) 0.77902(6)
N2 N 0.26369(14) 0.74254(13) 0.83429(5)
N3 N 0.18699(18) 0.58967(15) 0.92669(6)
C1 C 0.40976(18) 0.81018(17) 0.75946(7)
C2 C 0.50837(17) 0.77663(17) 0.80757(7)
C3 C 0.41310(17) 0.69963(16) 0.84926(7)
H1 H 0.42460 0.60910 0.84170
C4 C 0.4788(2) 0.73269(19) 0.90815(8)
H2 H 0.49350 0.65490 0.92960
H3 H 0.41260 0.78830 0.92820
C5 C 0.6211(2) 0.8007(2) 0.89049(9)
H4 H 0.66720 0.83720 0.92350
C6 C 0.7172(2) 0.7045(2) 0.8577(1)
H5 H 0.71790 0.62290 0.87710
H6 H 0.81470 0.73770 0.85560
C7 C 0.6450(2) 0.6961(2) 0.79802(9)
H7 H 0.70160 0.73380 0.76790
H8 H 0.61690 0.61000 0.78750
C8 C 0.5672(2) 0.89336(18) 0.84328(8)
C9 C 0.6895(2) 0.9687(2) 0.81344(11)
H9 H 0.72230 1.03920 0.83670
H10 H 0.76910 0.91050 0.80660
H11 H 0.65410 1.00150 0.77770
C10 C 0.4526(2) 0.99229(19) 0.86163(10)
H12 H 0.49720 1.06040 0.88330
H13 H 0.40740 1.02800 0.82830
H14 H 0.38020 0.95010 0.88460
C11 C 0.14577(18) 0.77972(16) 0.74180(7)
C12 C 0.1154(2) 0.87370(19) 0.70160(9)
H15 H 0.17270 0.95120 0.70080
C13 C 0.0028(3) 0.8528(2) 0.6633(1)
H16 H -0.01940 0.91830 0.63560
C14 C -0.0767(2) 0.7407(2) 0.66518(9)
H17 H -0.15260 0.72560 0.63790
C15 C -0.0461(2) 0.6481(2) 0.70539(9)
H18 H -0.10280 0.57030 0.70720
C16 C 0.06458(19) 0.66790(16) 0.74422(8)
H19 H 0.08520 0.60470 0.77300
C17 C 0.15205(18) 0.77652(17) 0.86940(7)
C18 C 0.1409(2) 0.70413(19) 0.92351(8)
H20 H 0.09830 0.74400 0.95640
C19 C 0.2215(3) 0.4077(2) 0.98301(11)
H21 H 0.18460 0.35640 0.95210
H22 H 0.19430 0.36890 1.01850
C20 C 0.3842(3) 0.40693(18) 0.98008(9)
C21 C 0.4565(3) 0.3699(2) 0.93099(9)
H23 H 0.40260 0.34190 0.89810
C22 C 0.6056(4) 0.3711(2) 0.92752(12)
H24 H 0.65350 0.34370 0.89310
C23 C 0.6856(4) 0.4111(2) 0.97400(13)
H25 H 0.79000 0.41530 0.97250
C24 C 0.6155(4) 0.4485(3) 1.02346(12)
H26 H 0.67400 0.47420 1.05550
C25 C 0.4673(4) 0.4457(2) 1.02630(9)
H27 H 0.42140 0.47150 1.06120
#END
