
#######################################################################
#
#                 Cambridge Crystallographic Data Centre
#                                CCDC
#
#######################################################################
#
# If this CIF has been generated from an entry in the Cambridge
# Structural Database, then it will include bibliographic, chemical,
# crystal, experimental, refinement or atomic coordinate data resulting
# from the CCDC's data processing and validation procedures.
#
#######################################################################

data_CSD_CIF_DIGPOZ
_audit_creation_date 2007-11-02
_audit_creation_method CSD-ConQuest-V1
_database_code_CSD DIGPOZ
_database_code_depnum_ccdc_archive 'CCDC 656477'
_chemical_formula_sum 'C47 H54 N2 O13'
_chemical_formula_moiety
;
C47 H54 N2 O13
;
_journal_coden_Cambridge 35
_journal_volume 72
_journal_year 2007
_journal_page_first 4644
_journal_name_full 'J.Org.Chem. '
loop_
_publ_author_name
"M.Juhl"
"R.Monrad"
"I.Sotofte"
"D.Tanner"
_chemical_name_systematic
;
6-Acetyl-8-(2-((4-nitrobenzoyl)oxy)ethyl)-7-(3-((4-methoxybenzyl)oxy)propyl)-1
-(methoxymethoxy)-3,4b-dimethyl-1,4,4a,4b,5,6,8a,9,10,10a-decahydrophenanthren
-9-yl 4-nitrobenzoate
;
_cell_volume   4368.096
_exptl_crystal_colour 'colorless'
_exptl_crystal_density_diffrn 1.3
_exptl_special_details
;
data for compounds 35 and 39 are swapped in the supporting information

;
_exptl_crystal_description 'block'
_exptl_crystal_preparation 'diethyl ether'
_diffrn_ambient_temperature 120
#These two values have been output from a single CSD field.
_refine_ls_R_factor_gt 0.0758
_refine_ls_wR_factor_gt 0.0758
_symmetry_cell_setting orthorhombic
_symmetry_space_group_name_H-M 'P 21 21 21'
_symmetry_Int_Tables_number 19
loop_
_symmetry_equiv_pos_site_id
_symmetry_equiv_pos_as_xyz
1 x,y,z
2 1/2-x,-y,1/2+z
3 -x,1/2+y,1/2-z
4 1/2+x,1/2-y,-z
_cell_length_a 6.8902(5)
_cell_length_b 15.6556(12)
_cell_length_c 40.494(3)
_cell_angle_alpha 90
_cell_angle_beta 90
_cell_angle_gamma 90
_cell_formula_units_Z 4
loop_
_atom_type_symbol
_atom_type_radius_bond
C 0.68
H 0.23
N 0.68
O 0.68
loop_
_atom_site_label
_atom_site_type_symbol
_atom_site_fract_x
_atom_site_fract_y
_atom_site_fract_z
C1 C 0.8572(13) 0.6916(5) 0.1926(2)
C2 C 0.7573(13) 0.7754(5) 0.1979(2)
H1 H 0.81080 0.80310 0.21760
H2 H 0.61800 0.76580 0.20100
H3 H 0.77790 0.81220 0.17860
C3 C 0.9965(13) 0.6631(5) 0.2123(2)
H4 H 1.03320 0.69790 0.23050
C4 C 1.1007(12) 0.5790(5) 0.2078(2)
H5 H 1.05830 0.53860 0.22560
O1 O 1.3097(8) 0.5918(4) 0.21034(13)
C5 C 1.3906(14) 0.5698(6) 0.2414(2)
H6 H 1.35010 0.51110 0.24730
H7 H 1.53390 0.57050 0.23970
O2 O 1.3320(9) 0.6264(4) 0.26650(15)
C6 C 1.4185(15) 0.7098(6) 0.2640(2)
H8 H 1.56020 0.70430 0.26410
H9 H 1.37740 0.74490 0.28270
H10 H 1.37690 0.73700 0.24330
C7 C 1.0612(12) 0.5385(5) 0.17420(19)
H11 H 1.14780 0.56650 0.15760
C8 C 0.8522(11) 0.5483(5) 0.16251(19)
H12 H 0.76860 0.51610 0.17840
C9 C 0.7853(13) 0.6418(4) 0.1634(2)
H13 H 0.83020 0.67040 0.14290
H14 H 0.64170 0.64310 0.16330
C10 C 1.1139(13) 0.4432(5) 0.1757(2)
H15 H 1.25440 0.43810 0.18040
H16 H 1.04290 0.41680 0.19430
C11 C 1.0694(12) 0.3936(5) 0.14471(19)
H17 H 1.17020 0.40460 0.12750
C12 C 0.8649(12) 0.4082(5) 0.13060(19)
H18 H 0.77140 0.38510 0.14720
C13 C 0.8262(11) 0.5058(5) 0.12818(18)
C14 C 0.9634(12) 0.5471(5) 0.10232(18)
H19 H 1.09840 0.54020 0.10950
H20 H 0.93310 0.60800 0.10020
H21 H 0.94530 0.51900 0.08090
C15 C 0.6110(11) 0.5156(5) 0.11766(18)
H22 H 0.58100 0.57720 0.11550
H23 H 0.52750 0.49220 0.13540
C16 C 0.5588(12) 0.4704(4) 0.08474(18)
H24 H 0.41950 0.45300 0.08650
C17 C 0.5714(12) 0.5350(5) 0.05663(19)
O3 O 0.7102(9) 0.5343(3) 0.03658(13)
C18 C 0.4123(13) 0.5984(5) 0.0530(2)
H25 H 0.45990 0.64820 0.04080
H26 H 0.36810 0.61650 0.07490
H27 H 0.30390 0.57240 0.04100
C19 C 0.6732(12) 0.3902(5) 0.07811(18)
C20 C 0.8206(11) 0.3633(4) 0.09799(18)
C21 C 1.2462(13) 0.2625(5) 0.15557(19)
O4 O 1.0732(8) 0.3027(3) 0.15510(12)
O5 O 1.3970(9) 0.2957(4) 0.14576(15)
C22 C 1.2337(12) 0.1757(5) 0.16929(19)
C23 C 1.3909(13) 0.1227(5) 0.1655(2)
H28 H 1.50180 0.14180 0.15370
C24 C 1.3871(13) 0.0402(6) 0.1792(2)
H29 H 1.49420 0.00260 0.17650
C25 C 1.2262(13) 0.0150(5) 0.1965(2)
N1 N 1.2237(14) -0.0697(5) 0.2121(2)
O6 O 1.0974(11) -0.0860(4) 0.23257(18)
O7 O 1.3465(13) -0.1213(5) 0.2034(2)
C26 C 1.0642(13) 0.0664(5) 0.20036(19)
H30 H 0.95480 0.04690 0.21250
C27 C 1.0654(13) 0.1476(5) 0.18611(19)
H31 H 0.95460 0.18350 0.18770
C28 C 0.9294(12) 0.2831(5) 0.0892(2)
H32 H 1.06320 0.28650 0.09800
H33 H 0.93760 0.27790 0.06480
C29 C 0.8282(12) 0.2045(4) 0.1033(2)
H34 H 0.79170 0.21460 0.12660
H35 H 0.70900 0.19180 0.09060
O8 O 0.9647(8) 0.1329(3) 0.10100(13)
C30 C 0.8968(13) 0.0583(5) 0.1126(2)
O9 O 0.7330(9) 0.0508(3) 0.12306(16)
C31 C 1.0407(12) -0.0114(5) 0.11254(19)
C32 C 1.2317(12) -0.0015(5) 0.10189(19)
H36 H 1.27430 0.05250 0.09400
C33 C 1.3604(12) -0.0697(5) 0.10261(18)
H37 H 1.48960 -0.06440 0.09470
C34 C 1.2908(12) -0.1458(5) 0.1155(2)
N2 N 1.4218(12) -0.2200(5) 0.11627(18)
O10 O 1.5955(10) -0.2089(4) 0.10820(16)
O11 O 1.3562(9) -0.2896(4) 0.12505(17)
C35 C 1.1050(12) -0.1585(5) 0.1267(2)
H38 H 1.06410 -0.21230 0.13510
C36 C 0.9801(13) -0.0894(5) 0.1254(2)
H39 H 0.85110 -0.09540 0.13330
C37 C 0.6009(12) 0.3405(5) 0.04815(19)
H40 H 0.69650 0.29560 0.04240
H41 H 0.58960 0.37960 0.02900
C38 C 0.4029(11) 0.2988(5) 0.0549(2)
H42 H 0.40270 0.27430 0.07740
H43 H 0.30040 0.34310 0.05390
C39 C 0.3567(12) 0.2291(4) 0.0302(2)
H44 H 0.22160 0.20900 0.03320
H45 H 0.37070 0.25100 0.00740
O12 O 0.4901(8) 0.1602(3) 0.03573(13)
C40 C 0.4685(13) 0.0940(5) 0.0116(2)
H46 H 0.49960 0.11650 -0.01060
H47 H 0.33270 0.07340 0.01150
C41 C 0.6033(12) 0.0216(5) 0.02003(19)
C42 C 0.8030(12) 0.0377(5) 0.0248(2)
H48 H 0.85110 0.09440 0.02340
C43 C 0.9285(14) -0.0288(5) 0.03163(19)
H49 H 1.06250 -0.01720 0.03490
C44 C 0.8612(13) -0.1124(6) 0.0338(2)
O13 O 0.9991(10) -0.1734(4) 0.04017(15)
C45 C 0.9326(16) -0.2588(5) 0.0438(3)
H50 H 0.82000 -0.25980 0.05860
H51 H 1.03660 -0.29400 0.05320
H52 H 0.89540 -0.28160 0.02220
C46 C 0.6664(13) -0.1295(5) 0.0289(2)
H53 H 0.61930 -0.18640 0.03010
C47 C 0.5401(13) -0.0622(5) 0.0221(2)
H54 H 0.40640 -0.07420 0.01870
#END
