
#######################################################################
#
#                 Cambridge Crystallographic Data Centre
#                                CCDC
#
#######################################################################
#
# If this CIF has been generated from an entry in the Cambridge
# Structural Database, then it will include bibliographic, chemical,
# crystal, experimental, refinement or atomic coordinate data resulting
# from the CCDC's data processing and validation procedures.
#
#######################################################################

data_CSD_CIF_DIHHEK
_audit_creation_date 2018-06-27
_audit_creation_method CSD-ConQuest-V1
_database_code_CSD DIHHEK
_database_code_depnum_ccdc_archive 'CCDC 1845225'
_chemical_formula_sum 'C29 H26 N2 O3'
_chemical_formula_moiety
;
C29 H26 N2 O3
;
_journal_coden_Cambridge 177
_journal_volume 16
_journal_year 2018
_journal_page_first 4996
_journal_name_full 'Org.Biomol.Chem. '
loop_
_publ_author_name
"Yulong Xu"
"Hao Chen"
"Wei Li"
"Qiong Xie"
"Linqian Yu"
"Liming Shao"
_chemical_name_systematic
;
methyl 
1-((4,4-dimethyl-3-phenyl-4,5-dihydro-1,2-oxazol-5-yl)methyl)-4-phenylisoquino
line-3-carboxylate
;
_cell_volume   4713.290
_exptl_crystal_colour 'white'
_exptl_crystal_density_diffrn 1.27
_exptl_crystal_description 'block'
_diffrn_ambient_temperature 301.9
#These two values have been output from a single CSD field.
_refine_ls_R_factor_gt 0.051
_refine_ls_wR_factor_gt 0.051
_symmetry_cell_setting orthorhombic
_symmetry_space_group_name_H-M 'P b c a'
_symmetry_Int_Tables_number 61
loop_
_symmetry_equiv_pos_site_id
_symmetry_equiv_pos_as_xyz
1 x,y,z
2 1/2-x,-y,1/2+z
3 -x,1/2+y,1/2-z
4 1/2+x,1/2-y,-z
5 -x,-y,-z
6 -1/2+x,y,-1/2-z
7 x,-1/2-y,-1/2+z
8 -1/2-x,-1/2+y,z
_cell_length_a 10.1449(2)
_cell_length_b 11.6133(3)
_cell_length_c 40.0056(9)
_cell_angle_alpha 90
_cell_angle_beta 90
_cell_angle_gamma 90
_cell_formula_units_Z 8
loop_
_atom_type_symbol
_atom_type_radius_bond
C 0.68
H 0.23
N 0.68
O 0.68
loop_
_atom_site_label
_atom_site_type_symbol
_atom_site_fract_x
_atom_site_fract_y
_atom_site_fract_z
O1 O 0.53645(16) 0.44550(12) 0.69760(3)
O2 O 0.33103(17) 0.60843(15) 0.58402(5)
O3 O 0.36627(16) 0.42261(14) 0.57466(4)
N1 N 0.55927(19) 0.44288(14) 0.73253(4)
N2 N 0.56648(16) 0.45194(14) 0.62202(4)
C1 C 0.6953(2) 0.39970(17) 0.79498(5)
H1 H 0.72303 0.46711 0.78459
C2 C 0.7260(2) 0.3810(2) 0.82824(5)
H2 H 0.77518 0.43522 0.83993
C3 C 0.6840(2) 0.2825(2) 0.84409(5)
H3 H 0.70311 0.27089 0.86658
C4 C 0.6132(2) 0.2006(2) 0.82646(5)
H4 H 0.58516 0.13375 0.83711
C5 C 0.5840(2) 0.21790(17) 0.79311(5)
H5 H 0.53767 0.16193 0.78134
C6 C 0.62344(18) 0.31877(15) 0.77691(4)
C7 C 0.59140(19) 0.34069(15) 0.74124(4)
C8 C 0.59175(19) 0.25410(14) 0.71287(4)
C9 C 0.4670(2) 0.17968(18) 0.71345(5)
H6 H 0.46965 0.12919 0.73244
H7 H 0.46246 0.13481 0.69333
H8 H 0.39082 0.22842 0.71494
C10 C 0.7143(2) 0.17759(18) 0.71308(5)
H9 H 0.79164 0.22482 0.71471
H10 H 0.71753 0.13356 0.69279
H11 H 0.71055 0.12631 0.73188
C11 C 0.58145(19) 0.33886(15) 0.68302(5)
H12 H 0.51428 0.31062 0.66744
C12 C 0.7063(2) 0.36382(18) 0.66384(5)
H13 H 0.74082 0.29228 0.65489
H14 H 0.77158 0.39514 0.67904
C13 C 0.68510(19) 0.44801(16) 0.63535(4)
C14 C 0.79101(19) 0.51710(16) 0.62330(4)
C15 C 0.9215(2) 0.50894(18) 0.63588(5)
H15 H 0.94032 0.45665 0.65283
C16 C 1.0194(2) 0.5766(2) 0.62346(5)
H16 H 1.10432 0.57062 0.63206
C17 C 0.9931(2) 0.6551(2) 0.59788(6)
H17 H 1.06051 0.70149 0.58971
C18 C 0.8702(2) 0.66443(18) 0.58482(5)
H18 H 0.85489 0.71628 0.56753
C19 C 0.76474(19) 0.59633(15) 0.59710(4)
C20 C 0.63403(19) 0.60204(15) 0.58357(4)
C21 C 0.54216(19) 0.52749(16) 0.59662(4)
C22 C 0.4025(2) 0.52655(17) 0.58464(5)
C23 C 0.2323(3) 0.4097(2) 0.56277(7)
H19 H 0.21911 0.45782 0.54354
H20 H 0.17194 0.43195 0.58010
H21 H 0.21687 0.33079 0.55679
C24 C 0.60272(19) 0.68189(16) 0.55567(4)
C25 C 0.6120(2) 0.80009(18) 0.55971(6)
H22 H 0.63489 0.83016 0.58046
C26 C 0.5878(3) 0.8738(2) 0.53337(7)
H23 H 0.59579 0.95289 0.53636
C27 C 0.5521(3) 0.8309(2) 0.50295(7)
H24 H 0.53553 0.88067 0.48523
C28 C 0.5407(3) 0.7144(3) 0.49852(6)
H25 H 0.51540 0.68516 0.47784
C29 C 0.5668(3) 0.6399(2) 0.52478(5)
H26 H 0.55996 0.56086 0.52152
#END
