
#######################################################################
#
#                 Cambridge Crystallographic Data Centre
#                                CCDC
#
#######################################################################
#
# If this CIF has been generated from an entry in the Cambridge
# Structural Database, then it will include bibliographic, chemical,
# crystal, experimental, refinement or atomic coordinate data resulting
# from the CCDC's data processing and validation procedures.
#
#######################################################################

data_CSD_CIF_DIHIXL10
_audit_creation_date 1979-11-16
_audit_creation_method CSD-ConQuest-V1
_database_code_CSD DIHIXL10
_chemical_formula_sum 'C4 H4 N2 O2'
_chemical_formula_moiety
;
C4 H4 N2 O2
;
_journal_coden_Cambridge 16
_journal_volume 35
_journal_year 1979
_journal_page_first 1267
_journal_name_full 'Tetrahedron '
loop_
_publ_author_name
"A.Ohsawa"
"H.Arai"
"H.Igeta"
"T.Akimoto"
"A.Tsuji"
_chemical_name_systematic
;
3a,6a-Dihydro-isoxazolo(5,4)isoxazole
;
_cell_volume    480.687
_diffrn_ambient_temperature ?
_diffrn_special_details
;
The study was carried out at room temperature,in the range 283-303K

;
#These two values have been output from a single CSD field.
_refine_ls_R_factor_gt 0.06
_refine_ls_wR_factor_gt 0.06
_symmetry_cell_setting monoclinic
_symmetry_space_group_name_H-M 'P 21/n'
_symmetry_Int_Tables_number 14
loop_
_symmetry_equiv_pos_site_id
_symmetry_equiv_pos_as_xyz
1 x,y,z
2 1/2-x,1/2+y,1/2-z
3 -x,-y,-z
4 -1/2+x,-1/2-y,-1/2+z
_cell_length_a 8.24
_cell_length_b 11.18
_cell_length_c 5.35
_cell_angle_alpha 90
_cell_angle_beta 102.76
_cell_angle_gamma 90
_cell_formula_units_Z 4
loop_
_atom_type_symbol
_atom_type_radius_bond
C 0.68
H 0.23
N 0.68
O 0.68
loop_
_atom_site_label
_atom_site_type_symbol
_atom_site_fract_x
_atom_site_fract_y
_atom_site_fract_z
C1 C 0.05810 0.15980 1.06510
C2 C -0.00410 0.28610 1.03420
C3 C 0.03010 0.31820 0.78020
C4 C 0.16060 0.41040 0.85410
O1 O 0.09710 0.20990 0.68970
O2 O 0.10020 0.36440 1.21920
N1 N 0.11510 0.12200 0.88140
N2 N 0.20090 0.43300 1.08980
H1 H 0.05600 0.10500 1.19500
H2 H -0.12100 0.29300 1.05300
H3 H -0.06000 0.34800 0.63200
H4 H 0.21100 0.45900 0.72600
#END
