
#######################################################################
#
#                 Cambridge Crystallographic Data Centre
#                                CCDC
#
#######################################################################
#
# If this CIF has been generated from an entry in the Cambridge
# Structural Database, then it will include bibliographic, chemical,
# crystal, experimental, refinement or atomic coordinate data resulting
# from the CCDC's data processing and validation procedures.
#
#######################################################################

data_CSD_CIF_DIHNOY
_audit_creation_date 2007-11-02
_audit_creation_method CSD-ConQuest-V1
_database_code_CSD DIHNOY
_database_code_depnum_ccdc_archive 'CCDC 647523'
_chemical_formula_sum 'C14 H12 N2 O3'
_chemical_formula_moiety
;
C14 H12 N2 O3
;
_journal_coden_Cambridge 1336
_journal_volume 9
_journal_year 2007
_journal_page_first 2767
_journal_name_full 'Org.Lett. '
loop_
_publ_author_name
"P.De"
"Nonappa"
"K.Pandurangan"
"U.Maitra"
"S.Wailes"
_chemical_name_systematic
;
O-(4-Nitrophenyl)acetophenone oxime
;
_chemical_melting_point 354.15
_cell_volume   1247.117
_exptl_crystal_colour 'colorless'
_exptl_crystal_density_diffrn 1.365
_exptl_special_details
;
Melting point range 354.15-357.15K

;
_exptl_crystal_description 'Block'
_diffrn_ambient_temperature 290
#These two values have been output from a single CSD field.
_refine_ls_R_factor_gt 0.06
_refine_ls_wR_factor_gt 0.06
_symmetry_cell_setting monoclinic
_symmetry_space_group_name_H-M 'P 21/n'
_symmetry_Int_Tables_number 14
loop_
_symmetry_equiv_pos_site_id
_symmetry_equiv_pos_as_xyz
1 x,y,z
2 1/2-x,1/2+y,1/2-z
3 -x,-y,-z
4 -1/2+x,-1/2-y,-1/2+z
_cell_length_a 7.356(3)
_cell_length_b 6.447(3)
_cell_length_c 26.303(10)
_cell_angle_alpha 90
_cell_angle_beta 91.214(7)
_cell_angle_gamma 90
_cell_formula_units_Z 4
loop_
_atom_type_symbol
_atom_type_radius_bond
C 0.68
H 0.23
N 0.68
O 0.68
loop_
_atom_site_label
_atom_site_type_symbol
_atom_site_fract_x
_atom_site_fract_y
_atom_site_fract_z
O1 O 0.1233(3) 0.2236(3) 0.07468(6)
C1 C 0.0584(3) 0.1671(4) 0.15545(9)
N1 N 0.1095(3) 0.3079(3) 0.12499(8)
C2 C 0.3034(3) 0.6177(4) -0.03510(9)
C3 C 0.1874(3) 0.3628(4) 0.04034(9)
C4 C 0.0314(3) 0.2338(4) 0.20871(9)
O2 O 0.4130(3) 0.9284(3) -0.06474(8)
C5 C 0.2518(3) 0.5587(4) 0.05268(10)
H1 H 0.25550 0.60360 0.08630
O3 O 0.3664(3) 0.6857(3) -0.11904(8)
C6 C 0.2424(3) 0.4211(4) -0.04755(10)
H2 H 0.24130 0.37560 -0.08110
N2 N 0.3645(3) 0.7514(4) -0.07557(9)
C7 C 0.3100(3) 0.6855(4) 0.01425(9)
H3 H 0.35400 0.81740 0.02180
C8 C 0.1837(4) 0.2946(4) -0.00947(9)
H4 H 0.14120 0.16220 -0.01720
C9 C 0.0766(4) 0.1047(4) 0.24873(10)
H5 H 0.12430 -0.02600 0.24230
C10 C -0.0425(4) 0.4271(4) 0.21905(11)
H6 H -0.07490 0.51590 0.19250
C11 C -0.0676(4) 0.4872(5) 0.26876(13)
H7 H -0.11830 0.61610 0.27570
C12 C 0.0227(5) -0.0541(4) 0.14132(11)
H8 H 0.01190 -0.06590 0.10500
H9 H -0.08830 -0.09930 0.15640
H10 H 0.12140 -0.13910 0.15350
C13 C 0.0522(4) 0.1666(5) 0.29803(11)
H11 H 0.08370 0.07800 0.32470
C14 C -0.0182(4) 0.3575(6) 0.30801(12)
H12 H -0.03280 0.39990 0.34150
#END
