
#######################################################################
#
#                 Cambridge Crystallographic Data Centre
#                                CCDC
#
#######################################################################
#
# If this CIF has been generated from an entry in the Cambridge
# Structural Database, then it will include bibliographic, chemical,
# crystal, experimental, refinement or atomic coordinate data resulting
# from the CCDC's data processing and validation procedures.
#
#######################################################################

data_CSD_CIF_DIHXIE
_audit_creation_date 2018-06-27
_audit_creation_method CSD-ConQuest-V1
_database_code_CSD DIHXIE
_database_code_depnum_ccdc_archive 'CCDC 1819876'
_chemical_formula_sum 'C32 H23 N1 O4'
_chemical_formula_moiety
;
C32 H23 N1 O4
;
_journal_coden_Cambridge 2066
_journal_volume 3
_journal_year 2018
_journal_page_first 5406
_journal_name_full 'ACS Omega '
loop_
_publ_author_name
"Ren-Yin Yang"
"Jing Sun"
"Chao-Guo Yan"
_chemical_name_systematic
;
6-(4-nitrophenyl)-3,4-diphenylspiro[cyclohex-3-ene-1,2'-indene]-1',3'-dione
;
_cell_volume   1250.983
_exptl_crystal_colour 'yellow'
_exptl_crystal_density_diffrn 1.289
_exptl_crystal_description 'block'
_diffrn_ambient_temperature 296
#These two values have been output from a single CSD field.
_refine_ls_R_factor_gt 0.0518
_refine_ls_wR_factor_gt 0.0518
_symmetry_cell_setting triclinic
_symmetry_space_group_name_H-M 'P -1'
_symmetry_Int_Tables_number 2
loop_
_symmetry_equiv_pos_site_id
_symmetry_equiv_pos_as_xyz
1 x,y,z
2 -x,-y,-z
_cell_length_a 10.1699(12)
_cell_length_b 11.6903(14)
_cell_length_c 12.6092(14)
_cell_angle_alpha 96.819(4)
_cell_angle_beta 108.525(3)
_cell_angle_gamma 113.464(3)
_cell_formula_units_Z 2
loop_
_atom_type_symbol
_atom_type_radius_bond
C 0.68
H 0.23
N 0.68
O 0.68
loop_
_atom_site_label
_atom_site_type_symbol
_atom_site_fract_x
_atom_site_fract_y
_atom_site_fract_z
C1 C 0.6463(2) 0.89226(19) 1.13456(17)
C2 C 0.7013(2) 0.91169(19) 1.26183(16)
C3 C 0.7694(2) 1.0253(2) 1.3507(2)
H1 H 0.78230 1.10370 1.33460
C4 C 0.8171(3) 1.0181(3) 1.4634(2)
H2 H 0.86410 1.09330 1.52450
C5 C 0.7969(3) 0.9014(3) 1.4882(2)
H3 H 0.83050 0.89990 1.56550
C6 C 0.7281(3) 0.7877(3) 1.40050(19)
H4 H 0.71390 0.70920 1.41690
C7 C 0.6809(2) 0.7952(2) 1.28687(16)
C8 C 0.6091(2) 0.69102(19) 1.17793(16)
C9 C 0.5814(2) 0.74875(17) 1.07497(15)
C10 C 0.4040(2) 0.68242(17) 0.99438(15)
H5 H 0.37290 0.59020 0.96480
C11 C 0.3018(2) 0.68846(18) 1.05754(15)
C12 C 0.2740(3) 0.7944(2) 1.07605(18)
H6 H 0.32250 0.86590 1.05180
C13 C 0.1755(3) 0.7955(2) 1.12990(18)
H7 H 0.15800 0.86720 1.14250
C14 C 0.1038(2) 0.6888(2) 1.16451(16)
C15 C 0.1295(3) 0.5832(2) 1.14944(18)
H8 H 0.08150 0.51250 1.17490
C16 C 0.2279(2) 0.5838(2) 1.09573(18)
H9 H 0.24570 0.51200 1.08460
C17 C 0.6710(2) 0.72570(19) 1.00361(16)
H10 H 0.77990 0.79060 1.04330
H11 H 0.66700 0.64140 1.00350
C18 C 0.6136(2) 0.73004(17) 0.87949(16)
C19 C 0.7112(2) 0.71742(19) 0.81644(17)
C20 C 0.8695(3) 0.7999(2) 0.8573(2)
H12 H 0.91820 0.86640 0.92630
C21 C 0.9571(3) 0.7848(3) 0.7964(3)
H13 H 1.06340 0.84170 0.82440
C22 C 0.8877(4) 0.6873(3) 0.6964(3)
H14 H 0.94640 0.67790 0.65570
C23 C 0.7325(3) 0.6033(3) 0.6555(2)
H15 H 0.68530 0.53620 0.58720
C24 C 0.6455(3) 0.6174(2) 0.71506(18)
H16 H 0.53980 0.55850 0.68680
C25 C 0.3757(2) 0.73410(19) 0.88877(16)
H17 H 0.26760 0.68120 0.83430
H18 H 0.39140 0.82200 0.91350
C26 C 0.4801(2) 0.73489(17) 0.82716(16)
C27 C 0.4270(2) 0.74480(19) 0.70607(16)
C28 C 0.5214(3) 0.8436(2) 0.6738(2)
H19 H 0.61870 0.90610 0.72930
C29 C 0.4743(4) 0.8516(3) 0.5607(3)
H20 H 0.53990 0.91850 0.54030
C30 C 0.3313(4) 0.7609(4) 0.4790(2)
H21 H 0.29980 0.76560 0.40260
C31 C 0.2346(3) 0.6636(3) 0.5093(2)
H22 H 0.13670 0.60250 0.45360
C32 C 0.2812(3) 0.6554(2) 0.62190(18)
H23 H 0.21400 0.58910 0.64180
N1 N -0.0015(2) 0.6900(3) 1.22176(17)
O1 O 0.65607(17) 0.97691(13) 1.08588(13)
O2 O 0.57749(17) 0.57819(13) 1.16909(12)
O3 O -0.0119(2) 0.7899(2) 1.24360(16)
O4 O -0.0720(2) 0.5910(2) 1.24558(19)
#END
