
#######################################################################
#
#                 Cambridge Crystallographic Data Centre
#                                CCDC
#
#######################################################################
#
# If this CIF has been generated from an entry in the Cambridge
# Structural Database, then it will include bibliographic, chemical,
# crystal, experimental, refinement or atomic coordinate data resulting
# from the CCDC's data processing and validation procedures.
#
#######################################################################

data_CSD_CIF_DIHYAX
_audit_creation_date 2018-06-27
_audit_creation_method CSD-ConQuest-V1
_database_code_CSD DIHYAX
_database_code_depnum_ccdc_archive 'CCDC 1831464'
_chemical_formula_sum 'C18 H21 N1 O6'
_chemical_formula_moiety
;
C18 H21 N1 O6
;
_journal_coden_Cambridge 1048
_journal_volume 20
_journal_year 2018
_journal_page_first 3318
_journal_name_full 'Green Chemistry '
loop_
_publ_author_name
"Yinling Wang"
"Yiman Du"
"Jianghua He"
"Yuetao Zhang"
_chemical_name_systematic
;
3-(3,4-dimethoxyphenyl)-3-(hydroxyimino)-2-(2-methoxyphenoxy)propan-1-ol
;
_cell_volume    875.808
_exptl_crystal_colour 'colorless'
_exptl_crystal_density_diffrn 1.317
_exptl_crystal_description 'block'
_diffrn_ambient_temperature 296
#These two values have been output from a single CSD field.
_refine_ls_R_factor_gt 0.0476
_refine_ls_wR_factor_gt 0.0476
_symmetry_cell_setting triclinic
_symmetry_space_group_name_H-M 'P -1'
_symmetry_Int_Tables_number 2
loop_
_symmetry_equiv_pos_site_id
_symmetry_equiv_pos_as_xyz
1 x,y,z
2 -x,-y,-z
_cell_length_a 8.9121(4)
_cell_length_b 10.6028(6)
_cell_length_c 10.6070(6)
_cell_angle_alpha 107.362(2)
_cell_angle_beta 95.433(2)
_cell_angle_gamma 110.176(2)
_cell_formula_units_Z 2
loop_
_atom_type_symbol
_atom_type_radius_bond
C 0.68
H 0.23
N 0.68
O 0.68
loop_
_atom_site_label
_atom_site_type_symbol
_atom_site_fract_x
_atom_site_fract_y
_atom_site_fract_z
C1 C 0.12295(16) 0.70464(14) 0.65118(13)
C2 C 0.16426(19) 0.62038(16) 0.71621(15)
H1 H 0.27380 0.63540 0.74040
C3 C 0.0460(2) 0.51565(17) 0.74512(18)
C4 C -0.1194(2) 0.49245(16) 0.70961(17)
C5 C -0.16110(19) 0.57278(17) 0.64303(17)
H2 H -0.27090 0.55590 0.61670
C6 C -0.04095(18) 0.67906(17) 0.61456(15)
H3 H -0.07120 0.73330 0.57050
C7 C 0.25547(16) 0.81601(15) 0.62277(13)
C8 C 0.23625(15) 0.94763(15) 0.60560(13)
H4 H 0.34560 1.02430 0.62890
C9 C 0.15783(17) 0.91805(16) 0.46111(13)
H5 H 0.20380 0.86240 0.39850
H6 H 0.04080 0.86330 0.44320
C10 C 0.21180(16) 1.06446(14) 0.82905(13)
C11 C 0.11597(18) 1.11814(15) 0.91032(14)
C12 C 0.1757(2) 1.18491(17) 1.04858(15)
H7 H 0.11270 1.22020 1.10280
C13 C 0.3299(2) 1.19938(19) 1.10669(16)
H8 H 0.36940 1.24380 1.19990
C14 C 0.4243(2) 1.14866(18) 1.02753(17)
H9 H 0.52780 1.15960 1.06710
C15 C 0.36572(18) 1.08072(16) 0.88787(15)
H10 H 0.43000 1.04640 0.83440
C16 C -0.1282(2) 1.1648(2) 0.91604(18)
H11 H -0.15520 1.12610 0.98590
H12 H -0.22710 1.14590 0.85580
H13 H -0.06650 1.26660 0.95620
C17 C 0.2417(4) 0.4485(4) 0.8432(5)
H14 H 0.28430 0.43120 0.76270
H15 H 0.24810 0.38200 0.88600
H16 H 0.30490 0.54490 0.90440
C18 C -0.3925(3) 0.3751(2) 0.7285(3)
H17 H -0.39690 0.46520 0.77820
H18 H -0.45440 0.30260 0.76140
H19 H -0.43820 0.34830 0.63410
N1 N 0.38988(14) 0.79744(14) 0.61571(13)
O1 O 0.07738(19) 0.43006(17) 0.8087(2)
O2 O -0.22727(17) 0.38880(14) 0.74581(16)
O3 O 0.50757(13) 0.91306(13) 0.59480(14)
H20 H 0.59230 0.89920 0.59050
O4 O 0.18820(12) 1.05233(11) 0.44275(10)
H21 H 0.12030 1.04040 0.37790
O5 O 0.13996(11) 0.99897(11) 0.69318(9)
O6 O -0.03233(13) 1.09871(12) 0.84183(10)
#END
