
#######################################################################
#
#                 Cambridge Crystallographic Data Centre
#                                CCDC
#
#######################################################################
#
# If this CIF has been generated from an entry in the Cambridge
# Structural Database, then it will include bibliographic, chemical,
# crystal, experimental, refinement or atomic coordinate data resulting
# from the CCDC's data processing and validation procedures.
#
#######################################################################

data_CSD_CIF_DIJJUE
_audit_creation_date 2018-06-27
_audit_creation_method CSD-ConQuest-V1
_database_code_CSD DIJJUE
_database_code_depnum_ccdc_archive 'CCDC 1552709'
_chemical_formula_sum 'C23 H21 N1 O5'
_chemical_formula_moiety
;
C23 H21 N1 O5
;
_journal_coden_Cambridge 119
_journal_volume 1173
_journal_year 2018
_journal_page_first 300
_journal_name_full 'J.Mol.Struct. '
loop_
_publ_author_name
"S.Madan Kumar"
"B.N.Lakshminarayana"
"S.Nagaraju"
"Sushma"
"S.Ananda"
"B.C.Manjunath"
"N.K.Loknath"
"K.Byrappa"
_chemical_name_systematic
;
1,3-dimethoxy-5-(2-{4-[(4-nitrophenyl)methoxy]phenyl}ethenyl)benzene
;
_cell_volume   3927.534
_exptl_crystal_density_diffrn 1.324
_diffrn_ambient_temperature 293
#These two values have been output from a single CSD field.
_refine_ls_R_factor_gt 0.0694
_refine_ls_wR_factor_gt 0.0694
_symmetry_cell_setting monoclinic
_symmetry_space_group_name_H-M 'P 21/c'
_symmetry_Int_Tables_number 14
loop_
_symmetry_equiv_pos_site_id
_symmetry_equiv_pos_as_xyz
1 x,y,z
2 -x,1/2+y,1/2-z
3 -x,-y,-z
4 x,-1/2-y,-1/2+z
_cell_length_a 32.6130(12)
_cell_length_b 7.1894(3)
_cell_length_c 16.7673(6)
_cell_angle_alpha 90
_cell_angle_beta 92.539(3)
_cell_angle_gamma 90
_cell_formula_units_Z 8
loop_
_atom_type_symbol
_atom_type_radius_bond
C 0.68
H 0.23
N 0.68
O 0.68
loop_
_atom_site_label
_atom_site_type_symbol
_atom_site_fract_x
_atom_site_fract_y
_atom_site_fract_z
O1 O 1.17238(8) 0.5912(4) 1.21952(15)
O2 O 1.01346(5) 0.7053(3) 0.91310(11)
O3 O 0.82348(6) 0.5317(3) 0.34474(11)
O4 O 0.73266(7) 0.6670(3) 0.54822(11)
O5 O 1.12420(8) 0.7616(4) 1.26508(13)
N1 N 1.13930(9) 0.6703(4) 1.21240(16)
C1 C 0.98574(7) 0.6936(4) 0.84964(15)
C2 C 0.84952(9) 0.5721(4) 0.47495(16)
H1 H 0.87530 0.54460 0.45640
C3 C 0.96046(9) 0.6005(4) 0.72048(16)
H2 H 0.96420 0.53810 0.67270
C4 C 0.80683(10) 0.6479(4) 0.58102(15)
H3 H 0.80380 0.67570 0.63460
C5 C 0.81535(8) 0.5722(4) 0.42186(15)
C6 C 0.79060(9) 0.5385(5) 0.28710(16)
H4 H 0.80050 0.50950 0.23550
H5 H 0.77890 0.66100 0.28610
H6 H 0.77010 0.44950 0.30050
C7 C 0.77240(9) 0.6425(4) 0.52851(16)
C8 C 1.07278(7) 0.6236(4) 0.99120(14)
C9 C 1.05549(8) 0.7071(4) 1.05592(16)
H7 H 1.02890 0.75340 1.05070
C10 C 0.72456(12) 0.6914(6) 0.63043(19)
H8 H 0.69550 0.70220 0.63620
H9 H 0.73790 0.80240 0.65010
H10 H 0.73480 0.58620 0.66040
C11 C 0.91891(9) 0.7864(4) 0.80168(19)
H11 H 0.89470 0.85070 0.80970
C12 C 1.11223(8) 0.5543(4) 1.00027(16)
H12 H 1.12420 0.49830 0.95710
C13 C 0.88768(10) 0.6918(5) 0.67396(19)
H13 H 0.86490 0.75930 0.68890
C14 C 0.99191(8) 0.5998(4) 0.77962(15)
H14 H 1.01640 0.53750 0.77200
C15 C 1.04992(8) 0.6008(4) 0.91232(15)
H15 H 1.06670 0.64380 0.86970
H16 H 1.04350 0.47060 0.90310
C16 C 0.84560(9) 0.6117(4) 0.55332(17)
C17 C 1.11630(8) 0.6524(4) 1.13499(15)
C18 C 0.94943(8) 0.7871(4) 0.86048(18)
H17 H 0.94570 0.85080 0.90790
C19 C 0.77667(8) 0.6070(4) 0.44770(14)
H18 H 0.75400 0.60690 0.41210
C20 C 1.07732(9) 0.7228(4) 1.12845(16)
H19 H 1.06570 0.77990 1.17180
C21 C 0.88399(10) 0.6113(4) 0.60738(18)
H20 H 0.90660 0.54660 0.59010
C22 C 0.92328(8) 0.6932(4) 0.73151(18)
C23 C 1.13414(8) 0.5670(4) 1.07244(17)
H21 H 1.16050 0.51830 1.07840
O6 O 0.68215(8) 0.5982(4) 0.31223(15)
O7 O 0.32346(6) 0.5335(3) 1.11536(10)
O8 O 0.24179(5) 0.7140(3) 0.87971(11)
O9 O 0.51992(6) 0.7171(3) 0.58401(12)
O10 O 0.63340(8) 0.7598(4) 0.25505(13)
N2 N 0.64807(9) 0.6697(4) 0.31146(16)
C24 C 0.49534(8) 0.6117(4) 0.71160(16)
H22 H 0.51960 0.54830 0.72470
C25 C 0.56108(8) 0.6896(4) 0.44621(17)
H23 H 0.53370 0.72590 0.44420
C26 C 0.38750(8) 0.6168(4) 0.86580(16)
H24 H 0.40980 0.54890 0.88650
C27 C 0.39205(8) 0.7038(4) 0.79754(16)
H25 H 0.36970 0.77480 0.77950
C28 C 0.42373(8) 0.7998(4) 0.67391(16)
H26 H 0.39970 0.86440 0.66060
C29 C 0.61923(9) 0.5659(4) 0.51845(19)
H27 H 0.63140 0.51930 0.56560
C30 C 0.42700(7) 0.7052(4) 0.74599(15)
C31 C 0.62375(8) 0.6492(4) 0.38278(16)
C32 C 0.58349(8) 0.7046(4) 0.37885(17)
H28 H 0.57160 0.75150 0.33160
C33 C 0.64205(9) 0.5783(4) 0.45165(19)
H29 H 0.66930 0.53960 0.45300
C34 C 0.29003(10) 0.5531(6) 1.16509(17)
H30 H 0.29850 0.52000 1.21880
H31 H 0.26810 0.47290 1.14650
H32 H 0.28070 0.67990 1.16380
C35 C 0.35027(8) 0.6181(4) 0.91180(15)
C36 C 0.49081(8) 0.7058(4) 0.64003(16)
C37 C 0.55502(8) 0.6009(4) 0.59114(18)
H33 H 0.54670 0.47240 0.59760
H34 H 0.57200 0.63670 0.63750
C38 C 0.57873(8) 0.6212(4) 0.51691(16)
C39 C 0.35237(8) 0.5716(4) 0.99200(15)
H35 H 0.37730 0.53470 1.01620
C40 C 0.31773(8) 0.5796(4) 1.03631(14)
C41 C 0.46374(8) 0.6122(4) 0.76365(15)
H36 H 0.46710 0.54870 0.81180
C42 C 0.28009(8) 0.6296(4) 1.00173(15)
H37 H 0.25690 0.63590 1.03190
C43 C 0.20475(8) 0.6819(4) 0.91849(17)
H38 H 0.20400 0.75870 0.96520
H39 H 0.20330 0.55340 0.93370
H40 H 0.18190 0.71170 0.88280
C44 C 0.27781(7) 0.6699(4) 0.92104(15)
C45 C 0.31220(8) 0.6667(4) 0.87672(15)
H41 H 0.31010 0.69720 0.82280
C46 C 0.45489(8) 0.8008(4) 0.62167(17)
H42 H 0.45180 0.86580 0.57380
#END
