
#######################################################################
#
#                 Cambridge Crystallographic Data Centre
#                                CCDC
#
#######################################################################
#
# If this CIF has been generated from an entry in the Cambridge
# Structural Database, then it will include bibliographic, chemical,
# crystal, experimental, refinement or atomic coordinate data resulting
# from the CCDC's data processing and validation procedures.
#
#######################################################################

data_CSD_CIF_DIJNIU
_audit_creation_date 2007-11-02
_audit_creation_method CSD-ConQuest-V1
_database_code_CSD DIJNIU
_database_code_depnum_ccdc_archive 'CCDC 610295'
_chemical_formula_sum 'C20 H24 N2 O5'
_chemical_formula_moiety
;
C20 H24 N2 O5
;
_journal_coden_Cambridge 35
_journal_volume 72
_journal_year 2007
_journal_page_first 5270
_journal_name_full 'J.Org.Chem. '
loop_
_publ_author_name
"F.F.Fleming"
"Guoqing Wei"
"Zhiyu Zhang"
"O.W.Steward"
_chemical_name_systematic
;
(1R*,2S*,3S*)-3-Cyano-1,2-dimethyl-3-pivaloylcyclopentyl 4-nitrobenzoate
;
_chemical_melting_point 414.15
_cell_volume    965.962
_exptl_crystal_colour 'colorless'
_exptl_crystal_density_diffrn 1.28
_exptl_special_details
;
Melting point range 414.15-415.65K

;
_exptl_crystal_description 'needle'
_exptl_crystal_preparation 'ethyl acetate/hexanes'
_diffrn_ambient_temperature 296
#These two values have been output from a single CSD field.
_refine_ls_R_factor_gt 0.0647
_refine_ls_wR_factor_gt 0.0647
_symmetry_cell_setting triclinic
_symmetry_space_group_name_H-M 'P -1'
_symmetry_Int_Tables_number 2
loop_
_symmetry_equiv_pos_site_id
_symmetry_equiv_pos_as_xyz
1 x,y,z
2 -x,-y,-z
_cell_length_a 7.028(3)
_cell_length_b 10.388(4)
_cell_length_c 13.769(5)
_cell_angle_alpha 103.738(5)
_cell_angle_beta 97.890(5)
_cell_angle_gamma 90.954(5)
_cell_formula_units_Z 2
loop_
_atom_type_symbol
_atom_type_radius_bond
C 0.68
H 0.23
N 0.68
O 0.68
loop_
_atom_site_label
_atom_site_type_symbol
_atom_site_fract_x
_atom_site_fract_y
_atom_site_fract_z
C1 C 0.3336(3) 0.2250(2) 0.89366(19)
C2 C 0.3127(4) 0.1335(2) 0.78619(19)
H1 H 0.36370 0.04870 0.79390
C3 C 0.4546(4) 0.1946(2) 0.7333(2)
C4 C 0.6239(4) 0.2455(3) 0.8163(2)
H2 H 0.72170 0.18050 0.81330
H3 H 0.68050 0.32720 0.80770
C5 C 0.5499(4) 0.2698(4) 0.9162(2)
H4 H 0.56630 0.36320 0.95030
H5 H 0.61950 0.21940 0.95910
C6 C 0.2149(5) 0.3392(3) 0.8938(2)
C7 C 0.2856(4) 0.1492(2) 0.9725(2)
C8 C 0.2429(4) 0.2201(3) 1.0771(2)
C9 C 0.0266(5) 0.2409(3) 1.0665(3)
H6 H -0.00460 0.29910 1.02260
H7 H -0.00830 0.27960 1.13170
H8 H -0.04300 0.15700 1.03850
C10 C 0.2879(8) 0.1292(4) 1.1478(3)
H9 H 0.21940 0.04500 1.11940
H10 H 0.24940 0.16850 1.21210
H11 H 0.42360 0.11660 1.15660
C11 C 0.3506(6) 0.3543(4) 1.1200(2)
H12 H 0.48650 0.34310 1.12410
H13 H 0.31950 0.39210 1.18630
H14 H 0.31350 0.41240 1.07670
C12 C 0.1092(4) 0.1018(3) 0.7317(2)
H15 H 0.04800 0.18290 0.72830
H16 H 0.03860 0.05360 0.76780
H17 H 0.11200 0.04900 0.66460
C13 C 0.5031(5) 0.1005(3) 0.6379(2)
H18 H 0.39250 0.08520 0.58650
H19 H 0.53960 0.01770 0.65260
H20 H 0.60760 0.13920 0.61460
C14 C 0.4347(4) 0.3927(3) 0.66437(19)
C15 C 0.2973(4) 0.4931(2) 0.64152(18)
C16 C 0.1080(4) 0.4893(3) 0.65799(19)
H21 H 0.06320 0.42400 0.68640
C17 C -0.0150(4) 0.5820(3) 0.63251(19)
H22 H -0.14250 0.58020 0.64370
C18 C 0.0547(4) 0.6769(2) 0.59039(18)
C19 C 0.2419(4) 0.6840(3) 0.5738(2)
H23 H 0.28560 0.74970 0.54540
C20 C 0.3640(4) 0.5915(3) 0.6002(2)
H24 H 0.49190 0.59500 0.59010
N1 N 0.1230(6) 0.4275(3) 0.8920(2)
N2 N -0.0788(4) 0.7720(2) 0.55860(17)
O1 O 0.3517(2) 0.30613(16) 0.70543(13)
O2 O 0.5983(3) 0.3914(2) 0.64772(16)
O3 O -0.2427(4) 0.7688(2) 0.5777(2)
O4 O -0.0202(4) 0.8471(2) 0.51264(19)
O5 O 0.2845(4) 0.02972(18) 0.94837(17)
#END
