
#######################################################################
#
#                 Cambridge Crystallographic Data Centre
#                                CCDC
#
#######################################################################
#
# If this CIF has been generated from an entry in the Cambridge
# Structural Database, then it will include bibliographic, chemical,
# crystal, experimental, refinement or atomic coordinate data resulting
# from the CCDC's data processing and validation procedures.
#
#######################################################################

data_CSD_CIF_DIJNUG
_audit_creation_date 2007-11-02
_audit_creation_method CSD-ConQuest-V1
_database_code_CSD DIJNUG
_database_code_depnum_ccdc_archive 'CCDC 610297'
_chemical_formula_sum 'C18 H20 N2 O4'
_chemical_formula_moiety
;
C18 H20 N2 O4
;
_journal_coden_Cambridge 35
_journal_volume 72
_journal_year 2007
_journal_page_first 5270
_journal_name_full 'J.Org.Chem. '
loop_
_publ_author_name
"F.F.Fleming"
"Guoqing Wei"
"Zhiyu Zhang"
"O.W.Steward"
_chemical_name_systematic
;
(1S*,2S*,3S*)-3-Allyl-3-cyano-1,2-dimethylcyclopentyl 4-nitrobenzoate
;
_chemical_melting_point 388
_cell_volume   1765.231
_exptl_crystal_colour 'colorless'
_exptl_crystal_density_diffrn 1.236
_exptl_special_details
;
Melting point range 388-389K

;
_exptl_crystal_description 'plate'
_exptl_crystal_preparation 'ethyl acetate/hexanes'
_diffrn_ambient_temperature 296
#These two values have been output from a single CSD field.
_refine_ls_R_factor_gt 0.0494
_refine_ls_wR_factor_gt 0.0494
_symmetry_cell_setting monoclinic
_symmetry_space_group_name_H-M 'P 21/c'
_symmetry_Int_Tables_number 14
loop_
_symmetry_equiv_pos_site_id
_symmetry_equiv_pos_as_xyz
1 x,y,z
2 -x,1/2+y,1/2-z
3 -x,-y,-z
4 x,-1/2-y,-1/2+z
_cell_length_a 7.7823(2)
_cell_length_b 18.2549(4)
_cell_length_c 12.5769(3)
_cell_angle_alpha 90
_cell_angle_beta 98.899(1)
_cell_angle_gamma 90
_cell_formula_units_Z 4
loop_
_atom_type_symbol
_atom_type_radius_bond
C 0.68
H 0.23
N 0.68
O 0.68
loop_
_atom_site_label
_atom_site_type_symbol
_atom_site_fract_x
_atom_site_fract_y
_atom_site_fract_z
C1 C -0.1370(3) 0.36816(15) 0.5702(2)
C2 C 0.0321(4) 0.32457(16) 0.6045(2)
H1 H 0.01980 0.27960 0.56150
C3 C 0.0261(4) 0.30072(15) 0.7202(3)
C4 C -0.1664(4) 0.28551(18) 0.7206(3)
H2 H -0.18970 0.23350 0.71170
H3 H -0.19930 0.30090 0.78850
C5 C -0.2692(4) 0.32762(19) 0.6290(3)
H4 H -0.34580 0.36250 0.65630
H5 H -0.33940 0.29440 0.58010
C6 C -0.1195(4) 0.4436(2) 0.6109(2)
C7 C -0.1907(4) 0.37017(19) 0.4471(2)
H6 H -0.09850 0.39320 0.41530
H7 H -0.20270 0.32030 0.42040
C8 C -0.3580(5) 0.4105(2) 0.4104(3)
H8 H -0.36160 0.45960 0.42960
C9 C -0.4897(6) 0.3850(3) 0.3577(4)
H9 H -0.49240 0.33610 0.33650
H10 H -0.58710 0.41440 0.33880
C10 C 0.1993(4) 0.3604(2) 0.5822(3)
H11 H 0.22040 0.40420 0.62450
H12 H 0.18850 0.37260 0.50720
H13 H 0.29460 0.32710 0.60080
C11 C 0.1489(5) 0.23811(17) 0.7594(3)
H14 H 0.26670 0.25310 0.75800
H15 H 0.12210 0.19640 0.71340
H16 H 0.13520 0.22530 0.83170
C12 C 0.0861(4) 0.37088(17) 0.8889(3)
C13 C 0.1687(3) 0.44035(16) 0.9329(2)
C14 C 0.2049(4) 0.4491(2) 1.0429(3)
H17 H 0.17380 0.41250 1.08780
C15 C 0.2860(4) 0.5109(2) 1.0869(3)
H18 H 0.31150 0.51640 1.16120
C16 C 0.3288(4) 0.56412(18) 1.0201(3)
C17 C 0.2922(4) 0.55840(17) 0.9103(3)
H19 H 0.32080 0.59600 0.86630
C18 C 0.2119(4) 0.49567(16) 0.8668(2)
H20 H 0.18660 0.49050 0.79240
N1 N -0.1113(4) 0.50230(17) 0.6417(2)
N2 N 0.4247(4) 0.6300(2) 1.0659(3)
O1 O 0.0830(2) 0.36688(9) 0.78279(16)
O2 O 0.0306(3) 0.32519(13) 0.94336(19)
O3 O 0.4688(4) 0.63217(18) 1.1627(3)
O4 O 0.4587(5) 0.67704(17) 1.0049(3)
#END
