
#######################################################################
#
#                 Cambridge Crystallographic Data Centre
#                                CCDC
#
#######################################################################
#
# If this CIF has been generated from an entry in the Cambridge
# Structural Database, then it will include bibliographic, chemical,
# crystal, experimental, refinement or atomic coordinate data resulting
# from the CCDC's data processing and validation procedures.
#
#######################################################################

data_CSD_CIF_DIJVEY
_audit_creation_date 2007-11-02
_audit_creation_method CSD-ConQuest-V1
_database_code_CSD DIJVEY
_database_code_depnum_ccdc_archive 'CCDC 633219'
_chemical_formula_sum 'C76 H37 N1 O12'
_chemical_formula_moiety
;
C76 H37 N1 O12
;
_journal_coden_Cambridge 16
_journal_volume 63
_journal_year 2007
_journal_page_first 9120
_journal_name_full 'Tetrahedron '
loop_
_publ_author_name
"Zhenshan Jia"
"Qianyan Zhang"
"Yuliang Li"
"Liangbing Gan"
"Bo Zheng"
"Gu Yuan"
"Shiwei Zhang"
"Daoben Zhu"
_chemical_name_systematic
;
43,46,51,54-tetrakis(t-Butylperoxy)-58-hydroxy-60-nitrato-C60fullerene
;
_cell_volume   5118.379
_exptl_crystal_colour 'red'
_exptl_crystal_density_diffrn 1.5
_exptl_crystal_description 'block'
_diffrn_ambient_temperature 293
#These two values have been output from a single CSD field.
_refine_ls_R_factor_gt 0.0495
_refine_ls_wR_factor_gt 0.0495
_symmetry_cell_setting monoclinic
_symmetry_space_group_name_H-M 'P 21/c'
_symmetry_Int_Tables_number 14
loop_
_symmetry_equiv_pos_site_id
_symmetry_equiv_pos_as_xyz
1 x,y,z
2 -x,1/2+y,1/2-z
3 -x,-y,-z
4 x,-1/2-y,-1/2+z
_cell_length_a 18.928(4)
_cell_length_b 14.323(3)
_cell_length_c 19.360(4)
_cell_angle_alpha 90
_cell_angle_beta 102.79(3)
_cell_angle_gamma 90
_cell_formula_units_Z 4
loop_
_atom_type_symbol
_atom_type_radius_bond
C 0.68
H 0.23
N 0.68
O 0.68
loop_
_atom_site_label
_atom_site_type_symbol
_atom_site_fract_x
_atom_site_fract_y
_atom_site_fract_z
O1 O 0.38511(11) 0.87913(14) 0.34354(10)
H1 H 0.4293(18) 0.848(2) 0.3730(17)
O2 O 0.44527(10) 0.69996(15) 0.48224(10)
O3 O 0.47812(10) 0.73778(15) 0.42544(11)
O4 O 0.30665(11) 0.86930(14) 0.57800(9)
O5 O 0.38423(11) 0.84246(15) 0.59018(10)
O6 O 0.16441(12) 1.02259(14) 0.41746(11)
O7 O 0.21115(12) 1.04227(15) 0.48553(12)
O8 O 0.20855(10) 0.95623(13) 0.21811(9)
O9 O 0.19104(11) 1.04081(13) 0.25472(10)
O10 O 0.38856(10) 0.74036(14) 0.25726(10)
O11 O 0.45252(13) 0.82776(19) 0.20111(13)
O12 O 0.33931(13) 0.86625(17) 0.19344(11)
C1 C -0.00239(15) 0.5441(2) 0.32212(15)
C2 C 0.04278(17) 0.4890(2) 0.28613(16)
C3 C 0.09219(18) 0.4350(2) 0.33882(17)
C4 C 0.07682(17) 0.4567(2) 0.40764(16)
C5 C 0.01860(15) 0.5240(2) 0.39658(15)
C6 C 0.01940(15) 0.5950(2) 0.44598(16)
C7 C -0.00136(15) 0.6888(2) 0.42144(16)
C8 C -0.02208(14) 0.7085(2) 0.34953(16)
C9 C -0.02210(14) 0.6341(2) 0.29885(16)
C10 C 0.00187(15) 0.6744(2) 0.23897(15)
C11 C 0.04572(17) 0.6210(2) 0.20477(15)
C12 C 0.06643(17) 0.5266(2) 0.22878(15)
C13 C 0.14098(19) 0.5122(2) 0.22307(15)
C14 C 0.18776(18) 0.4604(2) 0.27338(16)
C15 C 0.16343(19) 0.42043(19) 0.33322(17)
C16 C 0.22226(17) 0.4276(2) 0.39472(17)
C17 C 0.20810(17) 0.4482(2) 0.46099(16)
C18 C 0.13374(17) 0.4636(2) 0.46693(16)
C19 C 0.13419(16) 0.5372(2) 0.51798(15)
C20 C 0.07841(16) 0.6026(2) 0.50712(14)
C21 C 0.09397(15) 0.6998(2) 0.52030(14)
C22 C 0.04565(15) 0.7534(2) 0.46821(15)
C23 C 0.07084(15) 0.8335(2) 0.44085(15)
C24 C 0.04902(15) 0.85376(19) 0.36639(15)
C25 C 0.00297(14) 0.7929(2) 0.32132(15)
C26 C 0.01806(15) 0.7715(2) 0.25402(15)
C27 C 0.07769(15) 0.8130(2) 0.23457(14)
C28 C 0.12341(16) 0.7578(2) 0.20006(13)
C29 C 0.10738(17) 0.6644(2) 0.18444(14)
C30 C 0.16543(18) 0.5979(2) 0.19520(14)
C31 C 0.23644(17) 0.6287(2) 0.22133(14)
C32 C 0.28507(16) 0.5753(2) 0.27362(15)
C33 C 0.26197(17) 0.4917(2) 0.29931(16)
C34 C 0.28303(17) 0.4719(2) 0.37396(17)
C35 C 0.32632(15) 0.5351(2) 0.41835(16)
C36 C 0.31211(16) 0.5563(2) 0.48742(15)
C37 C 0.25381(17) 0.5127(2) 0.50733(15)
C38 C 0.20826(17) 0.5680(2) 0.54303(14)
C39 C 0.22378(16) 0.6615(2) 0.55479(13)
C40 C 0.16578(16) 0.7296(2) 0.54310(13)
C41 C 0.18998(15) 0.8146(2) 0.51632(14)
C42 C 0.14381(15) 0.86519(19) 0.46617(14)
C43 C 0.16704(15) 0.92294(18) 0.40827(14)
C44 C 0.10783(15) 0.90015(18) 0.34380(15)
C45 C 0.12207(14) 0.88002(19) 0.27934(14)
C46 C 0.19859(15) 0.88123(19) 0.26455(14)
C47 C 0.19757(15) 0.7903(2) 0.22345(13)
C48 C 0.25287(15) 0.7263(2) 0.23375(13)
C49 C 0.33157(15) 0.6382(2) 0.32074(15)
C50 C 0.35237(14) 0.6184(2) 0.39119(16)
C51 C 0.36881(14) 0.6927(2) 0.44908(14)
C52 C 0.33050(15) 0.6518(2) 0.50463(14)
C53 C 0.28660(15) 0.7039(2) 0.53654(13)
C54 C 0.27205(15) 0.8078(2) 0.52220(13)
C55 C 0.28740(14) 0.82982(19) 0.45112(13)
C56 C 0.23784(14) 0.88625(18) 0.39654(14)
C57 C 0.25431(14) 0.87330(18) 0.33292(14)
C58 C 0.32565(14) 0.81598(19) 0.34380(14)
C59 C 0.33288(14) 0.78115(19) 0.41989(13)
C60 C 0.32414(15) 0.7366(2) 0.28814(14)
C61 C 0.54603(17) 0.6870(3) 0.4268(2)
C62 C 0.59750(18) 0.7022(3) 0.4979(2)
H2 H 0.60270 0.76800 0.50740
H3 H 0.64390 0.67600 0.49690
H4 H 0.57850 0.67250 0.53430
C63 C 0.5712(2) 0.7367(3) 0.3671(2)
H5 H 0.53430 0.73230 0.32430
H6 H 0.61490 0.70790 0.35990
H7 H 0.58050 0.80120 0.37930
C64 C 0.5305(2) 0.5851(3) 0.4098(2)
H8 H 0.51170 0.55670 0.44690
H9 H 0.57440 0.55410 0.40580
H10 H 0.49540 0.57980 0.36580
C65 C 0.42761(18) 0.9283(2) 0.60166(17)
C66 C 0.50375(18) 0.8864(3) 0.6103(2)
H11 H 0.51320 0.84480 0.65020
H12 H 0.53900 0.93570 0.61790
H13 H 0.50660 0.85250 0.56820
C67 C 0.4179(2) 0.9765(3) 0.66860(17)
H14 H 0.36990 1.00200 0.66110
H15 H 0.45280 1.02580 0.68050
H16 H 0.42490 0.93210 0.70670
C68 C 0.40945(19) 0.9903(2) 0.53715(17)
H17 H 0.41480 0.95570 0.49620
H18 H 0.44160 1.04300 0.54360
H19 H 0.36040 1.01180 0.53060
C69 C 0.1724(2) 1.1098(2) 0.5216(2)
C70 C 0.1044(2) 1.0683(3) 0.53520(19)
H20 H 0.07030 1.05930 0.49100
H21 H 0.08410 1.10970 0.56470
H22 H 0.11510 1.00930 0.55870
C71 C 0.1610(3) 1.1990(2) 0.4804(2)
H23 H 0.20640 1.22040 0.47200
H24 H 0.14160 1.24540 0.50690
H25 H 0.12760 1.18860 0.43600
C72 C 0.2281(2) 1.1170(3) 0.5925(2)
H26 H 0.23640 1.05610 0.61350
H27 H 0.20980 1.15770 0.62380
H28 H 0.27270 1.14150 0.58440
C73 C 0.24141(17) 1.1140(2) 0.24587(17)
C74 C 0.2327(2) 1.1330(2) 0.16776(18)
H29 H 0.25080 1.08080 0.14580
H30 H 0.25930 1.18810 0.16140
H31 H 0.18230 1.14210 0.14640
C75 C 0.3184(2) 1.0867(3) 0.2819(2)
H32 H 0.31970 1.06770 0.32980
H33 H 0.35000 1.13930 0.28230
H34 H 0.33410 1.03600 0.25660
C76 C 0.2150(2) 1.1961(2) 0.2831(2)
H35 H 0.16840 1.21580 0.25650
H36 H 0.24880 1.24680 0.28640
H37 H 0.21110 1.17750 0.32970
N1 N 0.39304(17) 0.8198(2) 0.21324(14)
#END
