
#######################################################################
#
#                 Cambridge Crystallographic Data Centre
#                                CCDC
#
#######################################################################
#
# If this CIF has been generated from an entry in the Cambridge
# Structural Database, then it will include bibliographic, chemical,
# crystal, experimental, refinement or atomic coordinate data resulting
# from the CCDC's data processing and validation procedures.
#
#######################################################################

data_CSD_CIF_DIKSOG
_audit_creation_date 2007-11-02
_audit_creation_method CSD-ConQuest-V1
_database_code_CSD DIKSOG
_database_code_depnum_ccdc_archive 'CCDC 661801'
_chemical_formula_sum 'C17 H14 N4 O4'
_chemical_formula_moiety
;
C17 H14 N4 O4
;
_journal_coeditor_code "IUCr SK3149"
_journal_coden_Cambridge 591
_journal_volume 63
_journal_year 2007
_journal_page_first o510
_journal_name_full 'Acta Crystallogr.,Sect.C:Cryst.Struct.Commun. '
loop_
_publ_author_name
"J.Portilla"
"E.G.Mata"
"J.Cobo"
"J.N.Low"
"C.Glidewell"
_chemical_name_systematic
;
Methyl 3-nitro-4-((5-phenyl-1H-pyrazol-3-yl)amino)benzoate
;
_chemical_melting_point 530
_cell_volume   2988.050
_exptl_crystal_colour 'orange'
_exptl_crystal_density_diffrn 1.504
_exptl_special_details
;
Melting point range 530-531K

;
_exptl_crystal_description 'lath'
_diffrn_ambient_temperature 120
#These two values have been output from a single CSD field.
_refine_ls_R_factor_gt 0.0479
_refine_ls_wR_factor_gt 0.0479
_symmetry_cell_setting monoclinic
_symmetry_space_group_name_H-M 'C 2/c'
_symmetry_Int_Tables_number 15
loop_
_symmetry_equiv_pos_site_id
_symmetry_equiv_pos_as_xyz
1 x,y,z
2 1/2+x,1/2+y,z
3 -x,y,1/2-z
4 1/2-x,1/2+y,1/2-z
5 -x,-y,-z
6 -1/2-x,-1/2-y,-z
7 x,-y,-1/2+z
8 -1/2+x,-1/2-y,-1/2+z
_cell_length_a 31.0506(4)
_cell_length_b 5.4210(11)
_cell_length_c 20.7251(12)
_cell_angle_alpha 90
_cell_angle_beta 121.071(6)
_cell_angle_gamma 90
_cell_formula_units_Z 8
loop_
_atom_type_symbol
_atom_type_radius_bond
C 0.68
H 0.23
N 0.68
O 0.68
loop_
_atom_site_label
_atom_site_type_symbol
_atom_site_fract_x
_atom_site_fract_y
_atom_site_fract_z
N1 N 0.59810(6) 0.7513(3) 0.60667(8)
N2 N 0.63253(6) 0.7928(3) 0.68076(8)
C1 C 0.66832(6) 0.6152(3) 0.71231(9)
C2 C 0.70897(6) 0.6193(3) 0.79170(9)
C3 C 0.74389(7) 0.4276(4) 0.82041(10)
C4 C 0.78193(7) 0.4238(4) 0.89564(10)
C5 C 0.78548(7) 0.6121(4) 0.94348(10)
C6 C 0.75135(7) 0.8050(4) 0.91523(10)
C7 C 0.71360(7) 0.8107(4) 0.84023(10)
C8 C 0.65743(7) 0.4485(3) 0.65562(10)
C9 C 0.61378(6) 0.5413(3) 0.59205(9)
C10 C 0.54722(6) 0.4771(3) 0.45658(9)
C11 C 0.52986(6) 0.3312(3) 0.39047(9)
N3 N 0.59048(6) 0.4223(3) 0.52237(8)
N4 N 0.55736(5) 0.1186(3) 0.38848(8)
O1 O 0.59647(5) 0.0523(3) 0.44756(7)
O2 O 0.54173(5) 0.0068(2) 0.32903(7)
C12 C 0.48594(6) 0.3880(3) 0.32318(10)
C13 C 0.45787(6) 0.5917(3) 0.31831(9)
C14 C 0.41265(7) 0.6645(3) 0.24683(10)
O3 O 0.38721(5) 0.8454(3) 0.23954(7)
O4 O 0.40194(5) 0.5128(2) 0.18978(7)
C15 C 0.35970(7) 0.5849(4) 0.1172(1)
C16 C 0.47383(7) 0.7361(3) 0.38303(10)
C17 C 0.51666(7) 0.6817(3) 0.44995(10)
H1 H 0.62770 0.91600 0.70340
H2 H 0.74160 0.29770 0.78800
H3 H 0.80550 0.29230 0.91440
H4 H 0.81110 0.60880 0.99520
H5 H 0.75390 0.93490 0.94780
H6 H 0.69070 0.94510 0.82150
H7 H 0.67540 0.30280 0.65880
H8 H 0.60410 0.28330 0.52130
H9 H 0.47520 0.28560 0.28030
H10 H 0.32960 0.60180 0.12090
H11 H 0.35380 0.45860 0.07970
H12 H 0.36710 0.74290 0.10200
H13 H 0.45440 0.87540 0.38030
H14 H 0.52610 0.78270 0.49270
#END
