
#######################################################################
#
#                 Cambridge Crystallographic Data Centre
#                                CCDC
#
#######################################################################
#
# If this CIF has been generated from an entry in the Cambridge
# Structural Database, then it will include bibliographic, chemical,
# crystal, experimental, refinement or atomic coordinate data resulting
# from the CCDC's data processing and validation procedures.
#
#######################################################################

data_CSD_CIF_DIKXEB
_audit_creation_date 2007-11-02
_audit_creation_method CSD-ConQuest-V1
_database_code_CSD DIKXEB
_database_code_depnum_ccdc_archive 'CCDC 661822'
_chemical_formula_sum 'C2 H3 N3 O7'
_chemical_formula_moiety
;
C2 H3 N3 O7
;
_journal_coeditor_code "IUCr GD3132"
_journal_coden_Cambridge 591
_journal_volume 63
_journal_year 2007
_journal_page_first o562
_journal_name_full 'Acta Crystallogr.,Sect.C:Cryst.Struct.Commun. '
loop_
_publ_author_name
"M.Gobel"
"T.M.Klapotke"
_chemical_name_systematic
;
2,2,2-Trinitroethanol
;
_cell_volume   1308.143
_exptl_crystal_colour 'colorless'
_exptl_crystal_density_diffrn 1.839
_exptl_crystal_description 'rectangular block'
_diffrn_ambient_temperature 100
#These two values have been output from a single CSD field.
_refine_ls_R_factor_gt 0.0371
_refine_ls_wR_factor_gt 0.0371
_symmetry_cell_setting monoclinic
_symmetry_space_group_name_H-M 'P 21/c'
_symmetry_Int_Tables_number 14
loop_
_symmetry_equiv_pos_site_id
_symmetry_equiv_pos_as_xyz
1 x,y,z
2 -x,1/2+y,1/2-z
3 -x,-y,-z
4 x,-1/2-y,-1/2+z
_cell_length_a 6.1242(4)
_cell_length_b 18.8223(7)
_cell_length_c 11.7466(4)
_cell_angle_alpha 90
_cell_angle_beta 104.962(3)
_cell_angle_gamma 90
_cell_formula_units_Z 8
loop_
_atom_type_symbol
_atom_type_radius_bond
C 0.68
H 0.23
N 0.68
O 0.68
loop_
_atom_site_label
_atom_site_type_symbol
_atom_site_fract_x
_atom_site_fract_y
_atom_site_fract_z
O1 O 0.94856(17) 0.50873(6) 0.65952(9)
O2 O 0.7249(2) 0.52193(7) 0.96383(9)
O3 O 0.98458(18) 0.39204(5) 0.51176(10)
O4 O 0.37822(18) 0.49841(7) 0.58701(9)
O5 O 0.5593(2) 0.59748(6) 0.64030(11)
O6 O 0.42030(19) 0.56930(6) 0.85155(11)
O7 O 0.6094(2) 0.26156(7) 0.35581(13)
O8 O 0.6780(2) 0.27685(7) 0.54540(13)
O9 O 0.4273(2) 0.41015(7) 0.80177(12)
N1 N 0.5928(2) 0.53496(7) 0.86947(11)
O10 O 0.9989(3) 0.31780(7) 0.29317(11)
O11 O 1.2578(2) 0.19336(7) 0.58624(12)
O12 O 0.6921(3) 0.38411(6) 0.71691(13)
O13 O 0.9261(2) 0.14714(6) 0.51249(12)
O14 O 1.0882(2) 0.20648(7) 0.31610(11)
N2 N 0.7320(2) 0.26878(6) 0.45388(13)
N3 N 1.0275(2) 0.26249(7) 0.34772(11)
N4 N 1.0633(2) 0.19535(7) 0.52822(12)
N5 N 0.51551(19) 0.53558(7) 0.65338(10)
C1 C 1.1083(3) 0.32899(8) 0.54122(13)
C2 C 0.6582(2) 0.50200(7) 0.76524(11)
C3 C 0.9103(2) 0.51155(9) 0.77233(12)
C4 C 0.9858(2) 0.26599(7) 0.46923(12)
N6 N 0.5856(2) 0.42467(7) 0.76224(11)
H1 H 0.987(3) 0.4737(9) 0.8252(14)
H2 H 1.257(3) 0.3310(9) 0.5296(15)
H3 H 0.950(3) 0.5574(9) 0.8028(16)
H4 H 1.121(3) 0.3183(9) 0.6220(15)
H5 H 1.015(3) 0.4105(9) 0.4560(16)
H6 H 0.944(3) 0.4678(11) 0.6369(18)
#END
