
#######################################################################
#
#                 Cambridge Crystallographic Data Centre
#                                CCDC
#
#######################################################################
#
# If this CIF has been generated from an entry in the Cambridge
# Structural Database, then it will include bibliographic, chemical,
# crystal, experimental, refinement or atomic coordinate data resulting
# from the CCDC's data processing and validation procedures.
#
#######################################################################

data_CSD_CIF_DIMNAN01
_audit_creation_date 2004-01-20
_audit_creation_method CSD-ConQuest-V1
_database_code_CSD DIMNAN01
_database_code_depnum_ccdc_archive 'CCDC 220699'
_chemical_formula_sum 'C8 H10 N2 O2'
_chemical_formula_moiety
;
C8 H10 N2 O2
;
_journal_coden_Cambridge 119
_journal_volume 604
_journal_year 2002
_journal_page_first 73
_journal_name_full 'J.Mol.Struct. '
loop_
_publ_author_name
"O.Ya.Borbulevych"
"R.D.Clark"
"A.Romero"
"Li Tan"
"M.Yu.Antipin"
"V.N.Nesterov"
"B.H.Cardelino"
"C.E.Moore"
"M.Sanghadasa"
"T.V.Timofeeva"
_chemical_name_systematic
;
N,N-dimethyl-4-nitroaniline
;
_cell_volume    389.307
_exptl_crystal_density_diffrn 1.418
_exptl_crystal_preparation 'acetonitrile'
_diffrn_ambient_temperature 110
#These two values have been output from a single CSD field.
_refine_ls_R_factor_gt 0.0521
_refine_ls_wR_factor_gt 0.0521
_symmetry_cell_setting monoclinic
_symmetry_space_group_name_H-M 'P 21'
_symmetry_Int_Tables_number 4
loop_
_symmetry_equiv_pos_site_id
_symmetry_equiv_pos_as_xyz
1 x,y,z
2 -x,1/2+y,-z
_cell_length_a 3.8681(13)
_cell_length_b 10.485(3)
_cell_length_c 9.599(3)
_cell_angle_alpha 90
_cell_angle_beta 90.056(7)
_cell_angle_gamma 90
_cell_formula_units_Z 2
loop_
_atom_type_symbol
_atom_type_radius_bond
C 0.68
H 0.23
N 0.68
O 0.68
loop_
_atom_site_label
_atom_site_type_symbol
_atom_site_fract_x
_atom_site_fract_y
_atom_site_fract_z
N1 N -0.4600(3) -0.86624(11) -0.68104(10)
N2 N -0.0570(3) -0.86604(13) -1.23973(11)
O1 O 0.0910(3) -0.96178(12) -1.28679(11)
O2 O -0.1101(3) -0.76934(12) -1.31093(11)
C1 C -0.3620(3) -0.86701(12) -0.81685(12)
C2 C -0.4336(3) -0.76145(11) -0.90486(13)
H1 H -0.5456(51) -0.6868(20) -0.8701(20)
C3 C -0.3422(3) -0.76280(11) -1.04285(13)
H2 H -0.3804(47) -0.6945(20) -1.1010(19)
C4 C -0.1684(3) -0.86751(12) -1.09710(12)
C5 C -0.0892(3) -0.97186(11) -1.01313(13)
H3 H 0.0416(70) -1.0414(23) -1.0475(25)
C6 C -0.1851(3) -0.97204(11) -0.87495(13)
H4 H -0.1190(59) -1.0452(23) -0.8238(24)
C7 C -0.6114(4) -0.75388(14) -0.61919(15)
H5 H -0.4678(67) -0.6773(25) -0.6300(26)
H6 H -0.6760(59) -0.7690(25) -0.5210(24)
H7 H -0.8156(70) -0.7245(28) -0.6663(28)
C8 C -0.3917(4) -0.97623(14) -0.59252(14)
H8 H -0.4793(66) -1.0458(24) -0.6273(25)
H9 H -0.4933(70) -0.9616(27) -0.5016(25)
H10 H -0.1475(65) -0.9918(23) -0.5793(27)
#END
