
#######################################################################
#
#                 Cambridge Crystallographic Data Centre
#                                CCDC
#
#######################################################################
#
# If this CIF has been generated from an entry in the Cambridge
# Structural Database, then it will include bibliographic, chemical,
# crystal, experimental, refinement or atomic coordinate data resulting
# from the CCDC's data processing and validation procedures.
#
#######################################################################

data_CSD_CIF_DIQGOZ
_audit_creation_date 2000-06-05
_audit_creation_method CSD-ConQuest-V1
_database_code_CSD DIQGOZ
_database_code_depnum_ccdc_archive 'CCDC 135066'
_chemical_formula_sum 'C14 H13 N1 O3'
_chemical_formula_moiety
;
C14 H13 N1 O3
;
_journal_coden_Cambridge 98
_journal_volume 64
_journal_year 1999
_journal_page_first 1797
_journal_name_full 'Collect.Czech.Chem.Commun. '
loop_
_publ_author_name
"T.M.Krygowski"
"B.Stepien"
"R.Anulewicz-Ostrowska"
"M.K.Cyranski"
"S.J.Grabowski"
"Z.Rozwadowski"
"T.Dziembowska"
_chemical_name_systematic
;
N-(3,5-Dichloro-2-hydroxybenzylidene)aniline oxide
;
_cell_volume   1185.926
_exptl_crystal_density_diffrn 1.362
_diffrn_ambient_temperature ?
_diffrn_special_details
;
The study was carried out at room temperature,in the range 283-303K

;
#These two values have been output from a single CSD field.
_refine_ls_R_factor_gt 0.0556
_refine_ls_wR_factor_gt 0.0556
_symmetry_cell_setting monoclinic
_symmetry_space_group_name_H-M 'P 21/n'
_symmetry_Int_Tables_number 14
loop_
_symmetry_equiv_pos_site_id
_symmetry_equiv_pos_as_xyz
1 x,y,z
2 1/2+x,1/2-y,1/2+z
3 -x,-y,-z
4 -1/2-x,-1/2+y,-1/2-z
_cell_length_a 8.906(2)
_cell_length_b 10.832(2)
_cell_length_c 12.493(2)
_cell_angle_alpha 90
_cell_angle_beta 100.26(3)
_cell_angle_gamma 90
_cell_formula_units_Z 4
loop_
_atom_type_symbol
_atom_type_radius_bond
C 0.68
H 0.23
N 0.68
O 0.68
loop_
_atom_site_label
_atom_site_type_symbol
_atom_site_fract_x
_atom_site_fract_y
_atom_site_fract_z
C1 C -0.2794(2) 0.2807(2) 0.7818(2)
C2 C -0.1753(2) 0.2737(2) 0.8800(2)
O1 O -0.1981(2) 0.2072(2) 0.96580(13)
H1 H -0.3102(40) 0.2052(31) 0.9639(27)
C3 C -0.0340(2) 0.3359(2) 0.8882(2)
O2 O 0.0567(2) 0.3305(2) 0.98837(13)
C4 C 0.1954(3) 0.3992(3) 1.0027(2)
H2 H 0.2494(3) 0.3886(3) 1.0758(2)
H3 H 0.1727(3) 0.4851(3) 0.9896(2)
H4 H 0.2574(3) 0.3703(3) 0.9524(2)
C5 C 0.0028(3) 0.3959(2) 0.7998(2)
H5 H 0.0968(3) 0.4351(2) 0.8056(2)
C6 C -0.0990(3) 0.3988(2) 0.7018(2)
H6 H -0.0724(3) 0.4390(2) 0.6421(2)
C7 C -0.2385(3) 0.3425(2) 0.6928(2)
H7 H -0.3065(3) 0.3453(2) 0.6271(2)
C8 C -0.4313(2) 0.2266(2) 0.7621(2)
H8 H -0.4801(26) 0.2123(21) 0.6863(20)
N1 N -0.5184(2) 0.2032(2) 0.83232(13)
O3 O -0.4781(2) 0.2234(2) 0.93746(13)
C9 C -0.6709(2) 0.1516(2) 0.8010(2)
C10 C -0.7276(3) 0.0804(2) 0.8754(2)
H9 H -0.6701(3) 0.0666(2) 0.9441(2)
C11 C -0.8720(3) 0.0293(2) 0.8468(2)
H10 H -0.9121(3) -0.0189(2) 0.8965(2)
C12 C -0.9555(3) 0.0498(2) 0.7454(2)
H11 H -1.0521(3) 0.0152(2) 0.7264(2)
C13 C -0.8979(3) 0.1208(2) 0.6718(2)
H12 H -0.9553(3) 0.1339(2) 0.6030(2)
C14 C -0.7542(2) 0.1736(2) 0.6993(2)
H13 H -0.7151(2) 0.2228(2) 0.6498(2)
#END
