
#######################################################################
#
#                 Cambridge Crystallographic Data Centre
#                                CCDC
#
#######################################################################
#
# If this CIF has been generated from an entry in the Cambridge
# Structural Database, then it will include bibliographic, chemical,
# crystal, experimental, refinement or atomic coordinate data resulting
# from the CCDC's data processing and validation procedures.
#
#######################################################################

data_CSD_CIF_DIRRUR
_audit_creation_date 1986-11-20
_audit_creation_method CSD-ConQuest-V1
_database_code_CSD DIRRUR
_database_code_depnum_ccdc_archive 'CCDC 1141584'
_chemical_formula_sum 'C23 H29 N1 O13'
_chemical_formula_moiety
;
C23 H29 N1 O13
;
_journal_coeditor_code "IUCr A25646"
_journal_coden_Cambridge 591
_journal_volume 42
_journal_year 1986
_journal_page_first 241
_journal_name_full 'Acta Crystallogr.,Sect.C:Cryst.Struct.Commun. '
loop_
_publ_author_name
"M.J.Dianez"
"A.Lopez-Castro"
"R.Marquez"
_chemical_name_systematic
;
(1R,2S,3R,4S,3'R)-1-(2,3,4,5,6,7-Hexahydro-2-hydroximino-4-oxo-3-benzo(b)furyl
)-1,2,3,4,5-pentanepentayl penta-acetate
;
_cell_volume   2528.984
_exptl_crystal_colour 'colorless'
_exptl_crystal_density_diffrn 1.38
_diffrn_ambient_temperature ?
_diffrn_special_details
;
The study was carried out at room temperature,in the range 283-303K

;
#These two values have been output from a single CSD field.
_refine_ls_R_factor_gt 0.07
_refine_ls_wR_factor_gt 0.07
_symmetry_cell_setting orthorhombic
_symmetry_space_group_name_H-M 'P 21 21 21'
_symmetry_Int_Tables_number 19
loop_
_symmetry_equiv_pos_site_id
_symmetry_equiv_pos_as_xyz
1 x,y,z
2 1/2+x,1/2-y,-z
3 -x,1/2+y,1/2-z
4 1/2-x,-y,1/2+z
_cell_length_a 10.669(1)
_cell_length_b 28.112(2)
_cell_length_c 8.432(1)
_cell_angle_alpha 90
_cell_angle_beta 90
_cell_angle_gamma 90
_cell_formula_units_Z 4
loop_
_atom_type_symbol
_atom_type_radius_bond
C 0.68
H 0.23
N 0.68
O 0.68
loop_
_atom_site_label
_atom_site_type_symbol
_atom_site_fract_x
_atom_site_fract_y
_atom_site_fract_z
O1 O 1.1055(5) 0.8656(2) 0.2612(6)
C1 C 0.9949(7) 0.8524(2) 0.3383(8)
N1 N 0.9467(6) 0.8124(2) 0.3268(8)
O2 O 1.0180(6) 0.7833(2) 0.2263(7)
C2 C 0.9414(7) 0.8957(2) 0.4252(8)
C3 C 1.0406(8) 0.9828(3) 0.4178(9)
O3 O 0.9669(6) 1.0018(2) 0.5071(8)
C4 C 1.1410(9) 1.0101(3) 0.3281(12)
C5 C 1.2585(10) 0.9827(3) 0.2911(13)
C6 C 1.2308(8) 0.9360(3) 0.2092(10)
C7 C 1.1253(7) 0.9133(2) 0.2910(9)
C8 C 1.0401(7) 0.9320(2) 0.3834(8)
C9 C 0.9150(6) 0.8915(2) 0.6042(7)
C10 C 0.7833(6) 0.8747(2) 0.6418(7)
C11 C 0.7513(6) 0.8798(2) 0.8185(7)
C12 C 0.6220(6) 0.8599(2) 0.8586(7)
C13 C 0.5834(7) 0.8706(3) 1.0279(8)
O4 O 1.0036(4) 0.8597(2) 0.6786(5)
O5 O 1.0862(7) 0.9197(2) 0.8182(10)
C14 C 1.0806(7) 0.8779(3) 0.7893(9)
C15 C 1.1527(7) 0.8406(3) 0.8721(10)
O6 O 0.7691(4) 0.8251(2) 0.6056(5)
O7 O 0.6427(6) 0.8430(2) 0.4015(7)
C16 C 0.6964(7) 0.8143(3) 0.4781(9)
C17 C 0.6904(9) 0.7619(3) 0.4549(11)
O8 O 0.7570(5) 0.9310(2) 0.8459(6)
O9 O 0.8566(8) 0.9206(3) 1.0764(8)
C18 C 0.8215(8) 0.9456(3) 0.9728(10)
C19 C 0.8396(10) 0.9983(4) 0.9656(15)
O10 O 0.5325(4) 0.8806(2) 0.7488(6)
O11 O 0.4453(5) 0.8093(2) 0.7035(8)
C20 C 0.3746(9) 0.8764(3) 0.5570(11)
C21 C 0.4516(7) 0.8518(3) 0.6770(9)
O12 O 0.4698(5) 0.8453(2) 1.0682(6)
O13 O 0.5842(6) 0.7787(2) 1.0819(7)
C22 C 0.4869(8) 0.7981(3) 1.0985(9)
C23 C 0.366(1) 0.7746(4) 1.1457(14)
H1 H 0.92400 0.92500 0.65100
H2 H 0.57800 0.90600 1.05000
H3 H 0.65400 0.86300 1.10800
H4 H 0.85000 0.90300 0.38800
H5 H 0.62400 0.82400 0.85100
H6 H 0.81300 0.86200 0.88600
H7 H 1.09500 0.81600 0.92300
H8 H 1.20600 0.82100 0.79100
H9 H 1.21200 0.85200 0.95400
H10 H 0.77800 0.74800 0.43600
H11 H 0.65500 0.74500 0.55000
H12 H 0.63800 0.75300 0.35900
H13 H 0.32400 0.90300 0.60600
H14 H 0.42900 0.89100 0.47100
H15 H 0.31100 0.85500 0.49900
H16 H 1.30100 0.91400 0.20200
H17 H 1.21800 0.94000 0.09100
H18 H 1.30800 0.97800 0.39800
H19 H 1.32400 1.00300 0.24000
H20 H 0.72600 0.89500 0.57400
H21 H 0.88300 1.00900 0.86200
H22 H 0.75100 1.01600 0.95900
H23 H 0.88300 1.01200 1.05600
H24 H 1.10800 1.02400 0.22700
H25 H 1.16200 1.04200 0.38500
H26 H 0.32500 0.79000 1.24100
H27 H 0.29700 0.77800 1.05500
H28 H 0.37200 0.74000 1.16500
H29 H 1.06800 0.78000 0.32000
#END
