
#######################################################################
#
#                 Cambridge Crystallographic Data Centre
#                                CCDC
#
#######################################################################
#
# If this CIF has been generated from an entry in the Cambridge
# Structural Database, then it will include bibliographic, chemical,
# crystal, experimental, refinement or atomic coordinate data resulting
# from the CCDC's data processing and validation procedures.
#
#######################################################################

data_CSD_CIF_DIRYAE
_audit_creation_date 1986-11-20
_audit_creation_method CSD-ConQuest-V1
_database_code_CSD DIRYAE
_database_code_depnum_ccdc_archive 'CCDC 1141617'
_chemical_formula_sum 'C14 H17 N1 O3'
_chemical_formula_moiety
;
C14 H17 N1 O3
;
_journal_coden_Cambridge 16
_journal_volume 41
_journal_year 1985
_journal_page_first 3455
_journal_name_full 'Tetrahedron '
loop_
_publ_author_name
"P.M.Wovkulich"
"M.R.Uskokovic"
_chemical_name_systematic
;
1\a,5\a-2-(1-Phenylethyl)-4-methyl-3,6-dioxa-2-azabicyclo(3.3.0)octan-7-one
;
_chemical_melting_point 411.15
_cell_volume   1326.398
_exptl_crystal_density_diffrn 1.238
_exptl_special_details
;
Melting point range 411.15-411.65K

;
_diffrn_ambient_temperature ?
_diffrn_special_details
;
The study was carried out at room temperature,in the range 283-303K

;
#These two values have been output from a single CSD field.
_refine_ls_R_factor_gt 0.044
_refine_ls_wR_factor_gt 0.044
loop_
_citation_database_id_CSD
_citation_special_details
DIRYEI "is a stereoisomer of this entry"
_symmetry_cell_setting orthorhombic
_symmetry_space_group_name_H-M 'P 21 21 21'
_symmetry_Int_Tables_number 19
loop_
_symmetry_equiv_pos_site_id
_symmetry_equiv_pos_as_xyz
1 x,y,z
2 1/2+x,1/2-y,-z
3 -x,1/2+y,1/2-z
4 1/2-x,-y,1/2+z
_cell_length_a 9.016(2)
_cell_length_b 9.383(2)
_cell_length_c 15.679(3)
_cell_angle_alpha 90
_cell_angle_beta 90
_cell_angle_gamma 90
_cell_formula_units_Z 4
loop_
_atom_type_symbol
_atom_type_radius_bond
C 0.68
H 0.23
N 0.68
O 0.68
loop_
_atom_site_label
_atom_site_type_symbol
_atom_site_fract_x
_atom_site_fract_y
_atom_site_fract_z
O1 O 0.4423(3) 0.7813(3) 0.1286(1)
O2 O 0.0825(3) 0.9007(3) 0.1633(2)
O3 O -0.0052(4) 1.0263(3) 0.2720(2)
N1 N 0.4171(3) 0.8151(3) 0.2201(2)
C1 C 0.3111(4) 0.8386(4) 0.0894(2)
C2 C 0.1890(4) 0.7891(4) 0.1475(2)
C3 C 0.2657(4) 0.7574(4) 0.2328(2)
C4 C 0.1773(4) 0.8409(5) 0.2972(2)
C5 C 0.0756(5) 0.9331(4) 0.2471(3)
C6 C 0.3049(5) 0.7858(6) -0.0017(3)
C7 C 0.5312(4) 0.7317(3) 0.2666(2)
C8 C 0.6854(4) 0.7834(5) 0.2423(2)
C9 C 0.4988(4) 0.7481(3) 0.3600(2)
C10 C 0.4412(5) 0.6359(4) 0.4073(3)
C11 C 0.4024(6) 0.6558(6) 0.4931(3)
C12 C 0.4239(6) 0.7863(6) 0.5305(3)
C13 C 0.4823(5) 0.8961(5) 0.4854(3)
C14 C 0.5203(5) 0.8779(4) 0.4011(2)
H1 H 0.31800 0.94900 0.08900
H2 H 0.13700 0.70100 0.12300
H3 H 0.26700 0.65200 0.24700
H4 H 0.12300 0.77600 0.33700
H5 H 0.24800 0.90200 0.33300
H6 H 0.29300 0.67700 0.00000
H7 H 0.39500 0.80900 -0.03400
H8 H 0.21400 0.82500 -0.03100
H9 H 0.52100 0.62700 0.25100
H10 H 0.70100 0.88600 0.25900
H11 H 0.70200 0.77600 0.17900
H12 H 0.76600 0.72400 0.27100
H13 H 0.42900 0.53800 0.37900
H14 H 0.35800 0.57200 0.53000
H15 H 0.39600 0.80300 0.59300
H16 H 0.49500 0.99500 0.51500
H17 H 0.56700 0.96500 0.36800
#END
