
#######################################################################
#
#                 Cambridge Crystallographic Data Centre
#                                CCDC
#
#######################################################################
#
# If this CIF has been generated from an entry in the Cambridge
# Structural Database, then it will include bibliographic, chemical,
# crystal, experimental, refinement or atomic coordinate data resulting
# from the CCDC's data processing and validation procedures.
#
#######################################################################

data_CSD_CIF_DITYAI
_audit_creation_date 2013-11-12
_audit_creation_method CSD-ConQuest-V1
_database_code_CSD DITYAI
_database_code_depnum_ccdc_archive 'CCDC 964196'
_chemical_formula_sum 'C11 H20 N4 O1'
_chemical_formula_moiety
;
C11 H20 N4 O1
;
_journal_coden_Cambridge 222
_journal_volume 43
_journal_year 2014
_journal_page_first 1651
_journal_name_full 'Dalton Trans. '
loop_
_publ_author_name
"E.Theuergarten"
"T.Bannenberg"
"M.D.Walter"
"D.Holschumacher"
"M.Freytag"
"C.G.Daniliuc"
"P.G.Jones"
"M.Tamm"
_chemical_name_systematic
;
1,3-Di-t-butyl-N-nitroso-1,3-dihydro-2H-imidazol-2-imine
;
_cell_volume   1204.449
_exptl_crystal_colour 'yellow'
_exptl_crystal_density_diffrn 1.237
_exptl_crystal_description 'prism'
_diffrn_ambient_temperature 100
_refine_special_details
;
N4,O and N4',O' disordered over two sites with occupancies 0.902:0.098.

;
#These two values have been output from a single CSD field.
_refine_ls_R_factor_gt 0.0356
_refine_ls_wR_factor_gt 0.0356
_symmetry_cell_setting monoclinic
_symmetry_space_group_name_H-M 'P 21/n'
_symmetry_Int_Tables_number 14
loop_
_symmetry_equiv_pos_site_id
_symmetry_equiv_pos_as_xyz
1 x,y,z
2 1/2-x,1/2+y,1/2-z
3 -x,-y,-z
4 -1/2+x,-1/2-y,-1/2+z
_cell_length_a 9.2956(2)
_cell_length_b 11.7049(2)
_cell_length_c 11.2144(2)
_cell_angle_alpha 90
_cell_angle_beta 99.208(2)
_cell_angle_gamma 90
_cell_formula_units_Z 4
loop_
_atom_type_symbol
_atom_type_radius_bond
C 0.68
H 0.23
N 0.68
O 0.68
loop_
_atom_site_label
_atom_site_type_symbol
_atom_site_fract_x
_atom_site_fract_y
_atom_site_fract_z
N1 N 0.09593(8) 0.45566(7) 0.31169(7)
N2 N -0.10075(8) 0.50197(7) 0.18486(7)
N3 N 0.06092(10) 0.65649(7) 0.27635(8)
N4 N -0.04233(13) 0.71486(9) 0.32030(11)
O1 O -0.01179(10) 0.81880(7) 0.33767(9)
C1 C 0.01769(10) 0.54492(8) 0.25812(8)
C2 C 0.02221(12) 0.35595(9) 0.27501(9)
H1 H 0.05200 0.28080 0.29960
C3 C -0.09923(11) 0.38421(9) 0.19837(9)
H2 H -0.17110 0.33260 0.16030
C4 C 0.23531(10) 0.46378(9) 0.40098(9)
C5 C 0.20553(11) 0.52921(9) 0.51226(9)
H3 H 0.16770 0.60530 0.48800
H4 H 0.29620 0.53670 0.56980
H5 H 0.13350 0.48760 0.55040
C6 C 0.35015(11) 0.52248(11) 0.33943(10)
H6 H 0.36870 0.47640 0.27050
H7 H 0.44060 0.53060 0.39710
H8 H 0.31500 0.59820 0.31110
C7 C 0.28506(12) 0.34267(10) 0.43809(10)
H9 H 0.21120 0.30540 0.47800
H10 H 0.37760 0.34600 0.49390
H11 H 0.29830 0.29890 0.36610
C8 C -0.21489(10) 0.56433(9) 0.09730(9)
C9 C -0.14721(12) 0.66507(11) 0.04032(11)
H12 H -0.12180 0.72510 0.10100
H13 H -0.21720 0.69520 -0.02700
H14 H -0.05910 0.63970 0.01030
C10 C -0.33748(11) 0.60123(10) 0.16404(10)
H15 H -0.38010 0.53370 0.19660
H16 H -0.41270 0.64110 0.10800
H17 H -0.29860 0.65260 0.23040
C11 C -0.27641(12) 0.48103(11) -0.0030(1)
H18 H -0.19670 0.45050 -0.04110
H19 H -0.34600 0.52110 -0.06370
H20 H -0.32600 0.41810 0.03140
N5? N 0.0297(14) 0.7461(10) 0.3141(10)
O2? O -0.0766(11) 0.7124(9) 0.370(1)
#END
