
#######################################################################
#
#                 Cambridge Crystallographic Data Centre
#                                CCDC
#
#######################################################################
#
# If this CIF has been generated from an entry in the Cambridge
# Structural Database, then it will include bibliographic, chemical,
# crystal, experimental, refinement or atomic coordinate data resulting
# from the CCDC's data processing and validation procedures.
#
#######################################################################

data_CSD_CIF_DIVYIQ
_audit_creation_date 1987-02-04
_audit_creation_method CSD-ConQuest-V1
_database_code_CSD DIVYIQ
_chemical_formula_sum 'C14 H17 N1 O3'
_chemical_formula_moiety
;
C14 H17 N1 O3
;
_journal_coeditor_code "IUCr A25729"
_journal_coden_Cambridge 591
_journal_volume 42
_journal_year 1986
_journal_page_first 452
_journal_name_full 'Acta Crystallogr.,Sect.C:Cryst.Struct.Commun. '
loop_
_publ_author_name
"T.Hata"
"S.Sato"
"C.Tamura"
_chemical_name_systematic
;
(E)-4-(2-Hydroxyimino-cyclopentylmethyl)-phenylacetic acid
;
_cell_volume   1288.304
_exptl_crystal_colour 'colorless'
_exptl_crystal_density_diffrn 1.28
_diffrn_ambient_temperature ?
_diffrn_special_details
;
The study was carried out at room temperature,in the range 283-303K

;
#These two values have been output from a single CSD field.
_refine_ls_R_factor_gt 0.0597
_refine_ls_wR_factor_gt 0.0597
_symmetry_cell_setting monoclinic
_symmetry_space_group_name_H-M 'P 21/c'
_symmetry_Int_Tables_number 14
loop_
_symmetry_equiv_pos_site_id
_symmetry_equiv_pos_as_xyz
1 x,y,z
2 -x,1/2+y,1/2-z
3 -x,-y,-z
4 x,-1/2-y,-1/2+z
_cell_length_a 10.428(2)
_cell_length_b 12.039(2)
_cell_length_c 10.889(1)
_cell_angle_alpha 90
_cell_angle_beta 109.54(12)
_cell_angle_gamma 90
_cell_formula_units_Z 4
loop_
_atom_type_symbol
_atom_type_radius_bond
C 0.68
H 0.31
N 0.68
O 0.68
loop_
_atom_site_label
_atom_site_type_symbol
_atom_site_fract_x
_atom_site_fract_y
_atom_site_fract_z
C1 C -0.1839(4) 0.3231(3) 0.3142(4)
C2 C -0.1741(5) 0.2387(3) 0.2329(4)
C3 C -0.0563(5) 0.2240(4) 0.2036(5)
C4 C 0.0548(4) 0.2923(4) 0.2541(4)
C5 C 0.0455(5) 0.3772(4) 0.3355(4)
C6 C -0.0742(4) 0.3916(4) 0.3646(4)
C7 C -0.3135(5) 0.3333(4) 0.3471(6)
C8 C -0.3419(4) 0.4460(3) 0.3887(5)
O1 O -0.3678(4) 0.4638(3) 0.4861(4)
O2 O -0.3387(4) 0.5267(3) 0.3114(3)
C9 C 0.1854(6) 0.2734(6) 0.2236(6)
C10 C 0.1959(5) 0.3416(4) 0.1138(5)
C11 C 0.1930(8) 0.4639(4) 0.1163(8)
C12 C 0.2560(9) 0.5061(5) 0.0221(9)
C13 C 0.3620(6) 0.4181(4) 0.0201(6)
C14 C 0.3181(4) 0.3164(3) 0.0725(4)
N1 N 0.3690(3) 0.2202(3) 0.0828(3)
O3 O 0.4773(3) 0.2159(3) 0.0330(3)
H1 H -0.267(4) 0.187(4) 0.193(4)
H2 H -0.053(5) 0.159(4) 0.148(5)
H3 H 0.128(4) 0.434(4) 0.379(4)
H4 H -0.070(4) 0.459(4) 0.426(4)
H5 H -0.307(5) 0.285(4) 0.415(5)
H6 H -0.412(6) 0.308(5) 0.275(6)
H7 H -0.357(7) 0.602(6) 0.343(7)
H8 H 0.192(5) 0.193(4) 0.203(4)
H9 H 0.286(7) 0.313(6) 0.296(6)
H10 H 0.074(8) 0.335(6) 0.021(7)
H11 H 0.282(7) 0.454(7) 0.221(8)
H12 H 0.095(6) 0.499(5) 0.106(5)
H13 H 0.278(6) 0.575(5) 0.028(6)
H14 H 0.154(9) 0.507(7) -0.094(9)
H15 H 0.364(4) 0.404(4) -0.060(4)
H16 H 0.454(5) 0.450(4) 0.086(5)
H17 H 0.485(7) 0.138(6) 0.035(6)
#END
