
#######################################################################
#
#                 Cambridge Crystallographic Data Centre
#                                CCDC
#
#######################################################################
#
# If this CIF has been generated from an entry in the Cambridge
# Structural Database, then it will include bibliographic, chemical,
# crystal, experimental, refinement or atomic coordinate data resulting
# from the CCDC's data processing and validation procedures.
#
#######################################################################

data_CSD_CIF_DIWFEU
_audit_creation_date 1987-02-04
_audit_creation_method CSD-ConQuest-V1
_database_code_CSD DIWFEU
_chemical_formula_sum 'C12 H10 N2 O2'
_chemical_formula_moiety
;
C12 H10 N2 O2
;
_journal_coeditor_code "IUCr A25722"
_journal_coden_Cambridge 591
_journal_volume 42
_journal_year 1986
_journal_page_first 432
_journal_name_full 'Acta Crystallogr.,Sect.C:Cryst.Struct.Commun. '
loop_
_publ_author_name
"H.H.Sutherland"
"Z.Ali-Adib"
_chemical_name_systematic
;
4'-Nitro-2-biphenylamine
;
_cell_volume   2088.443
_exptl_crystal_colour 'orange'
_exptl_crystal_density_diffrn 1.36
_diffrn_ambient_temperature ?
_diffrn_special_details
;
The study was carried out at room temperature,in the range 283-303K

;
#These two values have been output from a single CSD field.
_refine_ls_R_factor_gt 0.102
_refine_ls_wR_factor_gt 0.102
_symmetry_cell_setting monoclinic
_symmetry_space_group_name_H-M 'C 2/c'
_symmetry_Int_Tables_number 15
loop_
_symmetry_equiv_pos_site_id
_symmetry_equiv_pos_as_xyz
1 x,y,z
2 1/2+x,1/2+y,z
3 -x,y,1/2-z
4 1/2-x,1/2+y,1/2-z
5 -x,-y,-z
6 -1/2-x,-1/2-y,-z
7 x,-y,-1/2+z
8 -1/2+x,-1/2-y,-1/2+z
_cell_length_a 20.66(5)
_cell_length_b 7.86(3)
_cell_length_c 13.29(1)
_cell_angle_alpha 90
_cell_angle_beta 104.6(2)
_cell_angle_gamma 90
_cell_formula_units_Z 8
loop_
_atom_type_symbol
_atom_type_radius_bond
C 0.68
H 0.23
N 0.68
O 0.68
loop_
_atom_site_label
_atom_site_type_symbol
_atom_site_fract_x
_atom_site_fract_y
_atom_site_fract_z
C1 C 0.4193(3) 0.3602(9) 0.3640(4)
C2 C 0.4876(3) 0.4010(9) 0.3829(5)
C3 C 0.5360(3) 0.276(1) 0.3941(5)
C4 C 0.5156(3) 0.1078(9) 0.3852(5)
C5 C 0.4491(3) 0.0612(8) 0.3651(5)
C6 C 0.4019(3) 0.1886(10) 0.3566(5)
C7 C 0.3693(3) 0.4956(9) 0.3521(5)
C8 C 0.3675(3) 0.6224(10) 0.2765(5)
C9 C 0.3208(4) 0.7512(10) 0.2587(6)
C10 C 0.2739(4) 0.7552(11) 0.3167(6)
C11 C 0.2730(3) 0.6335(11) 0.3918(6)
C12 C 0.3212(3) 0.5015(10) 0.4093(5)
N1 N 0.5655(3) -0.0259(10) 0.3972(4)
N2 N 0.3192(3) 0.3798(10) 0.4849(5)
O1 O 0.5471(3) -0.1737(8) 0.3811(4)
O2 O 0.6249(3) 0.0142(8) 0.4257(5)
H1 H 0.502(4) 0.529(11) 0.388(6)
H2 H 0.592(6) 0.312(17) 0.408(10)
H3 H 0.435(4) -0.073(13) 0.356(7)
H4 H 0.350(6) 0.154(16) 0.344(9)
H5 H 0.403(5) 0.617(15) 0.231(9)
H6 H 0.321(6) 0.848(16) 0.198(10)
H7 H 0.239(6) 0.853(16) 0.305(9)
H8 H 0.235(5) 0.639(14) 0.437(8)
H9 H 0.358(7) 0.293(19) 0.512(10)
H10 H 0.280(8) 0.386(21) 0.511(13)
#END
