
#######################################################################
#
#                 Cambridge Crystallographic Data Centre
#                                CCDC
#
#######################################################################
#
# If this CIF has been generated from an entry in the Cambridge
# Structural Database, then it will include bibliographic, chemical,
# crystal, experimental, refinement or atomic coordinate data resulting
# from the CCDC's data processing and validation procedures.
#
#######################################################################

data_CSD_CIF_DIWHIB
_audit_creation_date 2008-05-01
_audit_creation_method CSD-ConQuest-V1
_database_code_CSD DIWHIB
_database_code_depnum_ccdc_archive 'CCDC 681551'
_chemical_formula_sum 'C5 H4 N6 O15'
_chemical_formula_moiety
;
C5 H4 N6 O15
;
_journal_coeditor_code "IUCr GD3179"
_journal_coden_Cambridge 591
_journal_volume 64
_journal_year 2008
_journal_page_first o58
_journal_name_full 'Acta Crystallogr.,Sect.C:Cryst.Struct.Commun. '
loop_
_publ_author_name
"M.Gobel"
"T.M.Klapotke"
_chemical_name_systematic
;
bis(2,2,2-Trinitroethyl) carbonate
;
_cell_volume   2610.815
_exptl_crystal_colour 'colorless'
_exptl_crystal_density_diffrn 1.975
_exptl_crystal_description 'triangular plate'
_exptl_crystal_preparation 'chloroform'
_diffrn_ambient_temperature 100.0
#These two values have been output from a single CSD field.
_refine_ls_R_factor_gt 0.0272
_refine_ls_wR_factor_gt 0.0272
_symmetry_cell_setting orthorhombic
_symmetry_space_group_name_H-M 'P b c a'
_symmetry_Int_Tables_number 61
loop_
_symmetry_equiv_pos_site_id
_symmetry_equiv_pos_as_xyz
1 x,y,z
2 1/2-x,-y,1/2+z
3 -x,1/2+y,1/2-z
4 1/2+x,1/2-y,-z
5 -x,-y,-z
6 -1/2+x,y,-1/2-z
7 x,-1/2-y,-1/2+z
8 -1/2-x,-1/2+y,z
_cell_length_a 10.8828(2)
_cell_length_b 11.4746(2)
_cell_length_c 20.9073(4)
_cell_angle_alpha 90
_cell_angle_beta 90
_cell_angle_gamma 90
_cell_formula_units_Z 8
loop_
_atom_type_symbol
_atom_type_radius_bond
C 0.68
H 0.23
N 0.68
O 0.68
loop_
_atom_site_label
_atom_site_type_symbol
_atom_site_fract_x
_atom_site_fract_y
_atom_site_fract_z
H1 H 0.3686(10) 0.2456(11) 0.5439(6)
H2 H 0.4240(12) 0.1334(10) 0.5126(6)
H3 H 0.4584(11) -0.1715(11) 0.7031(6)
H4 H 0.5670(12) -0.1028(10) 0.6729(6)
C1 C 0.43634(9) 0.02260(9) 0.60920(5)
C2 C 0.36168(10) 0.16376(9) 0.53759(5)
C3 C 0.24022(9) 0.14251(8) 0.50397(5)
C4 C 0.49053(11) -0.09783(9) 0.69622(5)
C5 C 0.51345(9) -0.04047(9) 0.76071(5)
N1 N 0.22602(8) 0.01774(7) 0.48014(4)
N2 N 0.12991(8) 0.16707(8) 0.54660(4)
N3 N 0.22827(8) 0.22014(7) 0.44539(4)
N4 N 0.59469(8) 0.06766(8) 0.75644(4)
N5 N 0.57242(9) -0.12303(8) 0.80806(4)
N6 N 0.39188(8) 0.00038(8) 0.78950(4)
O1 O 0.52104(7) -0.00527(6) 0.57650(4)
O2 O 0.40148(7) -0.02641(6) 0.66476(3)
O3 O 0.35593(7) 0.10894(6) 0.59871(3)
O4 O 0.24523(8) -0.05702(6) 0.52031(4)
O5 O 0.19703(7) 0.00315(7) 0.42498(4)
O6 O 0.04168(7) 0.10346(7) 0.54118(4)
O7 O 0.14032(7) 0.25140(6) 0.58146(4)
O8 O 0.12754(7) 0.26055(7) 0.43389(4)
O9 O 0.32251(7) 0.23232(6) 0.41497(4)
O10 O 0.58438(8) 0.12474(7) 0.70779(4)
O11 O 0.65962(8) 0.08911(7) 0.80214(4)
O12 O 0.64279(8) -0.19342(7) 0.78468(4)
O13 O 0.54623(8) -0.11084(7) 0.86410(4)
O14 O 0.31547(7) -0.07659(7) 0.79429(4)
O15 O 0.38146(8) 0.10227(7) 0.80339(4)
#END
