
#######################################################################
#
#                 Cambridge Crystallographic Data Centre
#                                CCDC
#
#######################################################################
#
# If this CIF has been generated from an entry in the Cambridge
# Structural Database, then it will include bibliographic, chemical,
# crystal, experimental, refinement or atomic coordinate data resulting
# from the CCDC's data processing and validation procedures.
#
#######################################################################

data_CSD_CIF_DIWKAX
_audit_creation_date 2014-04-28
_audit_creation_method CSD-ConQuest-V1
_database_code_CSD DIWKAX
_database_code_depnum_ccdc_archive 'CCDC 1000052'
_database_code_depnum_ccdc_journal 2013_0021
_chemical_formula_sum 'C23 H14 N2 O2'
_chemical_formula_moiety
;
C23 H14 N2 O2
;
_journal_coden_Cambridge 1267
_journal_volume 229
_journal_year 2014
_journal_page_first 7
_journal_name_full 'Z.Kristallogr.-New Cryst.Struct. '
loop_
_publ_author_name
"Zhong-Xun Wei"
"Zong-Xian Wang"
_chemical_name_systematic
;
1-(2-nitrophenyl)-N-(pyren-1-yl)methanimine
;
_cell_volume    837.750
_exptl_crystal_colour 'yellow'
_exptl_crystal_density_diffrn 1.389
_exptl_crystal_description 'Block'
_diffrn_ambient_temperature 293
#These two values have been output from a single CSD field.
_refine_ls_R_factor_gt 0.0525
_refine_ls_wR_factor_gt 0.0525
_symmetry_cell_setting triclinic
_symmetry_space_group_name_H-M 'P -1'
_symmetry_Int_Tables_number 2
loop_
_symmetry_equiv_pos_site_id
_symmetry_equiv_pos_as_xyz
1 x,y,z
2 -x,-y,-z
_cell_length_a 7.198(2)
_cell_length_b 8.086(2)
_cell_length_c 14.794(5)
_cell_angle_alpha 101.741(5)
_cell_angle_beta 91.919(5)
_cell_angle_gamma 95.605(5)
_cell_formula_units_Z 2
loop_
_atom_type_symbol
_atom_type_radius_bond
C 0.68
H 0.23
N 0.68
O 0.68
loop_
_atom_site_label
_atom_site_type_symbol
_atom_site_fract_x
_atom_site_fract_y
_atom_site_fract_z
O1 O 0.0894(4) -0.5029(2) 0.26465(14)
O2 O 0.0899(3) -0.5975(2) 0.12117(13)
N1 N 0.2321(3) -0.0518(2) 0.40718(12)
N2 N 0.1101(3) -0.4810(2) 0.18813(15)
C1 C 0.2267(3) -0.0579(3) 0.50164(14)
C2 C 0.2800(3) 0.0963(3) 0.56536(13)
C3 C 0.3373(3) 0.2516(3) 0.53747(15)
H1 H 0.34140 0.25240 0.47480
C4 C 0.3855(3) 0.3968(3) 0.59980(14)
H2 H 0.42250 0.49540 0.57910
C5 C 0.3816(3) 0.4038(3) 0.69699(14)
C6 C 0.4290(3) 0.5532(3) 0.76313(16)
H3 H 0.46820 0.65310 0.74410
C7 C 0.4185(3) 0.5551(3) 0.85661(16)
H4 H 0.44880 0.65620 0.89960
C8 C 0.3635(3) 0.4084(3) 0.88609(15)
H5 H 0.35780 0.41150 0.94910
C9 C 0.3161(3) 0.2545(3) 0.82343(14)
C10 C 0.2570(3) 0.1005(3) 0.85177(15)
H6 H 0.25190 0.10080 0.91450
C11 C 0.2085(3) -0.0448(3) 0.79011(15)
H7 H 0.16960 -0.14280 0.81100
C12 C 0.2154(3) -0.0522(3) 0.69289(14)
C13 C 0.1620(3) -0.2012(3) 0.62727(16)
H8 H 0.12100 -0.30020 0.64680
C14 C 0.1689(3) -0.2036(3) 0.53410(15)
H9 H 0.13420 -0.30490 0.49190
C15 C 0.2744(3) 0.0982(3) 0.66146(13)
C16 C 0.3243(3) 0.2525(3) 0.72739(13)
C17 C 0.2056(4) -0.1761(3) 0.34611(16)
H10 H 0.18280 -0.28130 0.36210
C18 C 0.2071(3) -0.1706(3) 0.24732(14)
C19 C 0.1633(3) -0.3089(3) 0.17302(14)
C20 C 0.1660(3) -0.2918(3) 0.08213(15)
H11 H 0.13750 -0.38620 0.03440
C21 C 0.2107(4) -0.1349(3) 0.06288(16)
H12 H 0.21130 -0.12200 0.00180
C22 C 0.2548(4) 0.0037(3) 0.13371(16)
H13 H 0.28640 0.11010 0.12040
C23 C 0.2525(3) -0.0138(3) 0.22376(15)
H14 H 0.28210 0.08190 0.27070
#END
