
#######################################################################
#
#                 Cambridge Crystallographic Data Centre
#                                CCDC
#
#######################################################################
#
# If this CIF has been generated from an entry in the Cambridge
# Structural Database, then it will include bibliographic, chemical,
# crystal, experimental, refinement or atomic coordinate data resulting
# from the CCDC's data processing and validation procedures.
#
#######################################################################

data_CSD_CIF_DIWNED
_audit_creation_date 2008-05-01
_audit_creation_method CSD-ConQuest-V1
_database_code_CSD DIWNED
_database_code_depnum_ccdc_archive 'CCDC 684492'
_chemical_formula_sum 'C20 H14 N6 O2'
_chemical_formula_moiety
;
C20 H14 N6 O2
;
_journal_coeditor_code "IUCr SU2046"
_journal_coden_Cambridge 1370
_journal_volume 64
_journal_year 2008
_journal_page_first o689
_journal_name_full 'Acta Crystallogr.,Sect.E:Struct.Rep.Online '
loop_
_publ_author_name
"Xin-Ying Zhang"
"Xiao-Yan Li"
"Xia Wang"
"Xue-Sen Fan"
"Gui-Rong Qu"
_chemical_name_systematic
;
6-Amino-3-methyl-4-(4-nitrophenyl)-1-phenylpyrazolo(3,4-b)pyridine-5-carbonitr
ile
;
_cell_volume   3620.935
_exptl_crystal_colour 'yellow'
_exptl_crystal_density_diffrn 1.359
_exptl_crystal_description 'block'
_exptl_crystal_preparation 'ethanol'
_diffrn_ambient_temperature 294
#These two values have been output from a single CSD field.
_refine_ls_R_factor_gt 0.0418
_refine_ls_wR_factor_gt 0.0418
_symmetry_cell_setting monoclinic
_symmetry_space_group_name_H-M 'C 2/c'
_symmetry_Int_Tables_number 15
loop_
_symmetry_equiv_pos_site_id
_symmetry_equiv_pos_as_xyz
1 x,y,z
2 1/2+x,1/2+y,z
3 -x,y,1/2-z
4 1/2-x,1/2+y,1/2-z
5 -x,-y,-z
6 -1/2-x,-1/2-y,-z
7 x,-y,-1/2+z
8 -1/2+x,-1/2-y,-1/2+z
_cell_length_a 16.470(11)
_cell_length_b 9.742(7)
_cell_length_c 23.46(2)
_cell_angle_alpha 90
_cell_angle_beta 105.857(8)
_cell_angle_gamma 90
_cell_formula_units_Z 8
loop_
_atom_type_symbol
_atom_type_radius_bond
C 0.68
H 0.23
N 0.68
O 0.68
loop_
_atom_site_label
_atom_site_type_symbol
_atom_site_fract_x
_atom_site_fract_y
_atom_site_fract_z
C1 C 0.14291(11) 0.3249(2) 0.22385(8)
C2 C 0.13161(11) 0.17956(19) 0.22657(8)
C3 C 0.12907(11) 0.06720(19) 0.18900(8)
C4 C 0.11731(12) -0.0608(2) 0.21136(8)
C5 C 0.10829(12) -0.0751(2) 0.27046(8)
C6 C 0.11882(11) 0.1536(2) 0.28254(8)
C7 C 0.16473(14) 0.4076(2) 0.17675(9)
H1 H 0.11710 0.41090 0.14240
H2 H 0.21170 0.36630 0.16650
H3 H 0.17950 0.49920 0.19100
C8 C 0.11094(16) -0.1792(2) 0.17454(10)
C9 C 0.13676(11) 0.08314(19) 0.12762(8)
C10 C 0.06928(13) 0.1307(3) 0.08327(9)
H4 H 0.01870 0.15100 0.09190
C11 C 0.07559(14) 0.1485(2) 0.02644(9)
H5 H 0.03000 0.18080 -0.00340
C12 C 0.15017(13) 0.11769(19) 0.01483(8)
C13 C 0.21832(13) 0.0685(2) 0.05755(9)
H6 H 0.26840 0.04710 0.04840
C14 C 0.21111(12) 0.0516(2) 0.11416(8)
H7 H 0.25680 0.01840 0.14370
C15 C 0.11107(11) 0.3128(2) 0.36614(8)
C16 C 0.14851(12) 0.2328(2) 0.41484(9)
H8 H 0.17920 0.15500 0.41070
C17 C 0.13988(13) 0.2697(2) 0.47001(9)
H9 H 0.16400 0.21550 0.50290
C18 C 0.09585(14) 0.3862(3) 0.47639(10)
H10 H 0.09100 0.41110 0.51360
C19 C 0.05918(14) 0.4654(2) 0.42781(11)
H11 H 0.02940 0.54400 0.43220
C20 C 0.06610(12) 0.4293(2) 0.37226(10)
H12 H 0.04080 0.48280 0.33940
N1 N 0.12015(10) 0.27857(17) 0.30914(7)
N2 N 0.13518(10) 0.38354(17) 0.27275(7)
N3 N 0.10738(10) 0.03211(17) 0.30563(6)
N4 N 0.1045(2) -0.2721(2) 0.14393(10)
N5 N 0.10113(12) -0.20117(18) 0.29226(8)
H13 H 0.09620 -0.21020 0.32760
H14 H 0.10150 -0.27260 0.27080
N6 N 0.15858(14) 0.14160(19) -0.04520(8)
O1 O 0.22406(12) 0.1080(2) -0.05634(7)
O2 O 0.09960(14) 0.1956(2) -0.08097(7)
#END
