
#######################################################################
#
#                 Cambridge Crystallographic Data Centre
#                                CCDC
#
#######################################################################
#
# If this CIF has been generated from an entry in the Cambridge
# Structural Database, then it will include bibliographic, chemical,
# crystal, experimental, refinement or atomic coordinate data resulting
# from the CCDC's data processing and validation procedures.
#
#######################################################################

data_CSD_CIF_DIWPEF
_audit_creation_date 2008-04-30
_audit_creation_method CSD-ConQuest-V1
_database_code_CSD DIWPEF
_database_code_depnum_ccdc_archive 'CCDC 684497'
_chemical_formula_sum 'C22 H24 N2 O10'
_chemical_formula_moiety
;
C22 H24 N2 O10
;
_journal_coeditor_code "IUCr PV2070"
_journal_coden_Cambridge 1370
_journal_volume 64
_journal_year 2008
_journal_page_first o694
_journal_name_full 'Acta Crystallogr.,Sect.E:Struct.Rep.Online '
loop_
_publ_author_name
"S.N.Ali"
"S.Begum"
"M.A.Winnik"
"A.J.Lough"
_chemical_name_systematic
;
2,5-Dimethylhexane-2,5-diyl bis(4-nitrophenyl) dicarbonate
;
_cell_volume   1121.918
_exptl_crystal_colour 'colorless'
_exptl_crystal_density_diffrn 1.41
_exptl_crystal_description 'needle'
_exptl_crystal_preparation 'dichloromethane'
_diffrn_ambient_temperature 150
#These two values have been output from a single CSD field.
_refine_ls_R_factor_gt 0.0502
_refine_ls_wR_factor_gt 0.0502
_symmetry_cell_setting triclinic
_symmetry_space_group_name_H-M 'P -1'
_symmetry_Int_Tables_number 2
loop_
_symmetry_equiv_pos_site_id
_symmetry_equiv_pos_as_xyz
1 x,y,z
2 -x,-y,-z
_cell_length_a 8.1829(4)
_cell_length_b 11.7024(5)
_cell_length_c 11.8928(6)
_cell_angle_alpha 92.717(3)
_cell_angle_beta 98.886(2)
_cell_angle_gamma 92.952(3)
_cell_formula_units_Z 2
loop_
_atom_type_symbol
_atom_type_radius_bond
C 0.68
H 0.23
N 0.68
O 0.68
loop_
_atom_site_label
_atom_site_type_symbol
_atom_site_fract_x
_atom_site_fract_y
_atom_site_fract_z
O1 O 0.45560(16) 0.14403(11) 0.12248(12)
O2 O 0.19552(18) 0.20327(12) 0.11199(15)
O3 O 0.40180(16) 0.30199(10) 0.04414(12)
O4 O 0.3070(2) -0.32743(12) 0.32493(14)
O5 O 0.33546(19) -0.21668(14) 0.47827(13)
N1 N 0.3299(2) -0.23269(14) 0.37471(15)
C1 C 0.4142(2) 0.05054(15) 0.18498(16)
C2 C 0.3979(3) 0.06818(16) 0.29791(18)
H1 H 0.40710 0.14370 0.33230
C3 C 0.3682(2) -0.02484(17) 0.36098(17)
H2 H 0.35690 -0.01460 0.43910
C4 C 0.3553(2) -0.13300(15) 0.30750(16)
C5 C 0.3715(2) -0.15112(16) 0.19471(16)
H3 H 0.36210 -0.22650 0.16020
C6 C 0.4016(2) -0.05742(16) 0.13248(17)
H4 H 0.41350 -0.06760 0.05450
C7 C 0.3338(2) 0.21770(15) 0.09375(17)
C8 C 0.3008(2) 0.39869(15) 0.00122(17)
C9 C 0.2301(3) 0.45775(16) 0.09795(18)
H5 H 0.13590 0.41060 0.11570
H6 H 0.19300 0.53270 0.07510
H7 H 0.31580 0.46810 0.16560
C10 C 0.1670(3) 0.35357(17) -0.09497(19)
H8 H 0.08440 0.30540 -0.06460
H9 H 0.21640 0.30800 -0.15080
H10 H 0.11330 0.41800 -0.13190
C11 C 0.4289(2) 0.47525(15) -0.04470(16)
H11 H 0.47520 0.43030 -0.10370
H12 H 0.37220 0.53930 -0.08220
O6 O 0.96232(16) -0.15529(11) 0.35566(12)
O7 O 0.70189(17) -0.19261(12) 0.39066(14)
O8 O 0.91508(15) -0.30493(10) 0.44521(11)
O9 O 0.8268(2) 0.33919(12) 0.20273(13)
O10 O 0.82071(18) 0.25161(11) 0.03819(12)
N2 N 0.8330(2) 0.25233(13) 0.14248(14)
C12 C 0.9163(2) -0.05454(15) 0.30242(17)
C13 C 0.9283(2) -0.05045(15) 0.18834(17)
H13 H 0.95750 -0.11590 0.14710
C14 C 0.8973(2) 0.05059(15) 0.13453(16)
H14 H 0.90310 0.05530 0.05570
C15 C 0.8580(2) 0.14393(14) 0.19799(16)
C16 C 0.8458(2) 0.14058(16) 0.31213(16)
H15 H 0.81840 0.20640 0.35350
C17 C 0.8747(2) 0.03886(16) 0.36517(17)
H16 H 0.86590 0.03350 0.44350
C18 C 0.8420(2) -0.21728(15) 0.39835(17)
C19 C 0.8149(2) -0.39774(15) 0.49142(16)
C20 C 0.6938(2) -0.45765(16) 0.39468(18)
H17 H 0.60580 -0.40660 0.36930
H18 H 0.64500 -0.52780 0.42110
H19 H 0.75210 -0.47730 0.33100
C21 C 0.7291(3) -0.34772(17) 0.58539(18)
H20 H 0.63990 -0.30110 0.55210
H21 H 0.80950 -0.29980 0.63960
H22 H 0.68250 -0.41010 0.62510
C22 C 0.9494(2) -0.47459(15) 0.54251(16)
H23 H 1.02570 -0.42940 0.60310
H24 H 0.89650 -0.53810 0.57870
O1A O 0.54440(16) 0.85597(11) -0.12248(12)
O2A O 0.80448(18) 0.79673(12) -0.11199(15)
O3A O 0.59820(16) 0.69801(10) -0.04414(12)
O4A O 0.6930(2) 1.32743(12) -0.32493(14)
O5A O 0.66454(19) 1.21668(14) -0.47827(13)
N1A N 0.6701(2) 1.23269(14) -0.37471(15)
C1A C 0.5858(2) 0.94946(15) -0.18498(16)
C2A C 0.6021(3) 0.93182(16) -0.29791(18)
H1A H 0.59290 0.85630 -0.33230
C3A C 0.6318(2) 1.02484(17) -0.36098(17)
H2A H 0.64310 1.01460 -0.43910
C4A C 0.6447(2) 1.13300(15) -0.30750(16)
C5A C 0.6285(2) 1.15112(16) -0.19471(16)
H3A H 0.63790 1.22650 -0.16020
C6A C 0.5984(2) 1.05742(16) -0.13248(17)
H4A H 0.58650 1.06760 -0.05450
C7A C 0.6662(2) 0.78230(15) -0.09375(17)
C8A C 0.6992(2) 0.60131(15) -0.00122(17)
C9A C 0.7699(3) 0.54225(16) -0.09795(18)
H5A H 0.86410 0.58940 -0.11570
H6A H 0.80700 0.46730 -0.07510
H7A H 0.68420 0.53190 -0.16560
C10A C 0.8330(3) 0.64643(17) 0.09497(19)
H8A H 0.91560 0.69460 0.06460
H9A H 0.78360 0.69200 0.15080
H10A H 0.88670 0.58200 0.13190
C11A C 0.5711(2) 0.52475(15) 0.04470(16)
H11A H 0.52480 0.56970 0.10370
H12A H 0.62780 0.46070 0.08220
O6A O 1.03768(16) -0.84471(11) 0.64434(12)
O7A O 1.29811(17) -0.80739(12) 0.60934(14)
O8A O 1.08492(15) -0.69507(10) 0.55479(11)
O9A O 1.1732(2) -1.33919(12) 0.79727(13)
O10A O 1.17929(18) -1.25161(11) 0.96181(12)
N2A N 1.1670(2) -1.25233(13) 0.85752(14)
C12A C 1.0837(2) -0.94546(15) 0.69758(17)
C13A C 1.0717(2) -0.94955(15) 0.81166(17)
H13A H 1.04250 -0.88410 0.85290
C14A C 1.1027(2) -1.05059(15) 0.86547(16)
H14A H 1.09690 -1.05530 0.94430
C15A C 1.1420(2) -1.14393(14) 0.80201(16)
C16A C 1.1542(2) -1.14058(16) 0.68787(16)
H15A H 1.18160 -1.20640 0.64650
C17A C 1.1253(2) -1.03886(16) 0.63483(17)
H16A H 1.13410 -1.03350 0.55650
C18A C 1.1580(2) -0.78272(15) 0.60165(17)
C19A C 1.1851(2) -0.60226(15) 0.50858(16)
C20A C 1.3062(2) -0.54235(16) 0.60532(18)
H17A H 1.39420 -0.59340 0.63070
H18A H 1.35500 -0.47220 0.57890
H19A H 1.24790 -0.52270 0.66900
C21A C 1.2709(3) -0.65228(17) 0.41461(18)
H20A H 1.36010 -0.69890 0.44790
H21A H 1.19050 -0.70020 0.36040
H22A H 1.31750 -0.58990 0.37490
C22A C 1.0506(2) -0.52541(15) 0.45749(16)
H23A H 0.97430 -0.57060 0.39690
H24A H 1.10350 -0.46190 0.42130
#END
