
#######################################################################
#
#                 Cambridge Crystallographic Data Centre
#                                CCDC
#
#######################################################################
#
# If this CIF has been generated from an entry in the Cambridge
# Structural Database, then it will include bibliographic, chemical,
# crystal, experimental, refinement or atomic coordinate data resulting
# from the CCDC's data processing and validation procedures.
#
#######################################################################

data_CSD_CIF_DIWWEL01
_audit_creation_date 1987-02-04
_audit_creation_method CSD-ConQuest-V1
_database_code_CSD DIWWEL01
_chemical_formula_sum 'C12 H12 N2 O2'
_chemical_formula_moiety
;
C12 H12 N2 O2
;
_journal_coden_Cambridge 10
_journal_volume 69
_journal_year 1986
_journal_page_first 255
_journal_name_full 'Helv.Chim.Acta '
loop_
_publ_author_name
"M.Egli"
"J.D.Wallis"
"J.D.Dunitz"
_chemical_name_systematic
;
N,N-Dimethyl-8-nitro-naphthaleneamine
;
_cell_volume   6472.355
_exptl_crystal_colour 'beige'
_exptl_crystal_density_diffrn 1.33
_exptl_special_details
;
monoclinic C2/c polymorph

;
_diffrn_ambient_temperature 104
#These two values have been output from a single CSD field.
_refine_ls_R_factor_gt 0.051
_refine_ls_wR_factor_gt 0.051
_symmetry_cell_setting monoclinic
_symmetry_space_group_name_H-M 'C 2/c'
_symmetry_Int_Tables_number 15
loop_
_symmetry_equiv_pos_site_id
_symmetry_equiv_pos_as_xyz
1 x,y,z
2 1/2+x,1/2+y,z
3 -x,y,1/2-z
4 1/2-x,1/2+y,1/2-z
5 -x,-y,-z
6 -1/2-x,-1/2-y,-z
7 x,-y,-1/2+z
8 -1/2+x,-1/2-y,-1/2+z
_cell_length_a 33.15(2)
_cell_length_b 8.272(3)
_cell_length_c 26.09(1)
_cell_angle_alpha 90
_cell_angle_beta 115.22(5)
_cell_angle_gamma 90
_cell_formula_units_Z 24
loop_
_atom_type_symbol
_atom_type_radius_bond
C 0.68
H 0.23
N 0.68
O 0.68
loop_
_atom_site_label
_atom_site_type_symbol
_atom_site_fract_x
_atom_site_fract_y
_atom_site_fract_z
C1 C 0.2150(2) 0.0043(6) 0.5432(2)
C2 C 0.2111(2) 0.0387(6) 0.4903(2)
C3 C 0.1944(2) 0.1905(7) 0.4662(2)
C4 C 0.1843(2) 0.3027(7) 0.4971(2)
C5 C 0.1769(2) 0.3839(6) 0.5839(2)
C6 C 0.1796(2) 0.3483(7) 0.6358(2)
C7 C 0.1904(2) 0.1913(6) 0.6579(2)
C8 C 0.2002(1) 0.0720(6) 0.6283(2)
C9 C 0.2014(1) 0.1111(6) 0.5760(2)
C10 C 0.1873(1) 0.2677(6) 0.5517(2)
C11 C 0.1655(2) -0.1844(7) 0.6197(3)
C12 C 0.2282(2) -0.1193(8) 0.7073(2)
O1 O 0.2782(1) -0.1260(5) 0.6076(2)
O2 O 0.2242(1) -0.2753(4) 0.5483(2)
N1 N 0.2402(1) -0.1437(5) 0.5692(2)
N2 N 0.2076(1) -0.0926(5) 0.6459(2)
H1 H 0.219(1) -0.041(5) 0.469(2)
H2 H 0.193(2) 0.215(6) 0.426(2)
H3 H 0.177(1) 0.408(6) 0.483(2)
H4 H 0.170(1) 0.489(6) 0.566(2)
H5 H 0.172(2) 0.423(8) 0.662(2)
H6 H 0.190(2) 0.162(6) 0.695(2)
H7 H 0.172(2) -0.303(8) 0.631(2)
H8 H 0.156(2) -0.174(7) 0.580(2)
H9 H 0.138(2) -0.154(8) 0.638(2)
H10 H 0.256(2) -0.067(8) 0.724(2)
H11 H 0.236(2) -0.236(7) 0.717(2)
H12 H 0.208(2) -0.098(6) 0.728(2)
C13 C 0.0627(1) -0.0920(5) 0.4773(2)
C14 C 0.0581(2) -0.0376(6) 0.5237(2)
C15 C 0.0602(2) 0.1303(7) 0.5345(2)
C16 C 0.0655(2) 0.2349(7) 0.4981(2)
C17 C 0.0755(2) 0.2890(6) 0.4108(2)
C18 C 0.0804(2) 0.2363(6) 0.3647(2)
C19 C 0.0813(2) 0.0694(6) 0.3548(2)
C20 C 0.0775(2) -0.0425(6) 0.3913(2)
C21 C 0.0703(1) 0.0096(6) 0.4383(2)
C22 C 0.0706(1) 0.1799(6) 0.4495(2)
C23 C 0.1275(2) -0.2672(7) 0.4077(3)
C24 C 0.0566(2) -0.2681(7) 0.3251(2)
O3 O 0.0206(1) -0.3201(4) 0.4355(1)
O4 O 0.0889(1) -0.3550(4) 0.4977(2)
N3 N 0.0574(1) -0.2702(5) 0.4683(2)
N4 N 0.0803(1) -0.2130(5) 0.3837(2)
H13 H 0.052(1) -0.108(6) 0.548(2)
H14 H 0.056(2) 0.166(6) 0.568(2)
H15 H 0.068(1) 0.340(6) 0.506(2)
H16 H 0.077(2) 0.398(7) 0.421(2)
H17 H 0.083(2) 0.311(6) 0.338(2)
H18 H 0.087(1) 0.034(5) 0.323(2)
H19 H 0.132(2) -0.388(7) 0.407(2)
H20 H 0.141(2) -0.237(7) 0.447(2)
H21 H 0.146(2) -0.222(6) 0.384(2)
H22 H 0.027(2) -0.231(6) 0.311(2)
H23 H 0.057(2) -0.387(7) 0.323(2)
H24 H 0.072(2) -0.236(7) 0.296(2)
C25 C 0.3468(2) 0.2438(6) 0.7214(2)
C26 C 0.3082(2) 0.2981(6) 0.6780(2)
C27 C 0.3012(2) 0.4659(6) 0.6699(2)
C28 C 0.3320(2) 0.5715(7) 0.7053(2)
C29 C 0.4044(2) 0.6268(7) 0.7864(2)
C30 C 0.4436(2) 0.5727(7) 0.8282(2)
C31 C 0.4516(2) 0.4052(6) 0.8374(2)
C32 C 0.4211(2) 0.2936(6) 0.8047(2)
C33 C 0.3802(1) 0.3469(6) 0.7594(2)
C34 C 0.3722(2) 0.5156(6) 0.7505(2)
C35 C 0.4332(2) 0.0717(7) 0.8701(3)
C36 C 0.4638(2) 0.0615(7) 0.8007(3)
O5 O 0.3697(1) -0.0012(4) 0.6992(1)
O6 O 0.3346(1) -0.0053(4) 0.7531(2)
N5 N 0.3515(1) 0.0640(5) 0.7257(2)
N6 N 0.4279(1) 0.1220(5) 0.8141(2)
H25 H 0.286(2) 0.218(6) 0.651(2)
H26 H 0.271(2) 0.506(7) 0.638(2)
H27 H 0.328(2) 0.688(7) 0.699(2)
H28 H 0.397(2) 0.746(8) 0.778(2)
H29 H 0.467(2) 0.643(8) 0.854(3)
H30 H 0.479(2) 0.370(7) 0.867(2)
H31 H 0.431(2) -0.051(7) 0.872(2)
H32 H 0.407(2) 0.102(7) 0.880(2)
H33 H 0.456(2) 0.108(8) 0.900(3)
H34 H 0.464(2) -0.054(8) 0.799(2)
H35 H 0.492(2) 0.098(7) 0.827(2)
H36 H 0.460(2) 0.103(6) 0.761(2)
#END
