
#######################################################################
#
#                 Cambridge Crystallographic Data Centre
#                                CCDC
#
#######################################################################
#
# If this CIF has been generated from an entry in the Cambridge
# Structural Database, then it will include bibliographic, chemical,
# crystal, experimental, refinement or atomic coordinate data resulting
# from the CCDC's data processing and validation procedures.
#
#######################################################################

data_CSD_CIF_DIWWEL02
_audit_creation_date 1987-02-04
_audit_creation_method CSD-ConQuest-V1
_database_code_CSD DIWWEL02
_chemical_formula_sum 'C12 H12 N2 O2'
_chemical_formula_moiety
;
C12 H12 N2 O2
;
_journal_coden_Cambridge 10
_journal_volume 69
_journal_year 1986
_journal_page_first 255
_journal_name_full 'Helv.Chim.Acta '
loop_
_publ_author_name
"M.Egli"
"J.D.Wallis"
"J.D.Dunitz"
_chemical_name_systematic
;
N,N-Dimethyl-8-nitro-naphthaleneamine
;
_cell_volume   1679.735
_exptl_crystal_colour 'reddish'
_exptl_crystal_density_diffrn 1.28
_exptl_special_details
;
monoclinic Pn polymorph

;
_diffrn_ambient_temperature ?
_diffrn_special_details
;
The study was carried out at room temperature,in the range 283-303K

;
#These two values have been output from a single CSD field.
_refine_ls_R_factor_gt 0.049
_refine_ls_wR_factor_gt 0.049
_symmetry_cell_setting monoclinic
_symmetry_space_group_name_H-M 'P n'
_symmetry_Int_Tables_number 7
loop_
_symmetry_equiv_pos_site_id
_symmetry_equiv_pos_as_xyz
1 x,y,z
2 1/2+x,-y,1/2+z
_cell_length_a 8.429(3)
_cell_length_b 21.053(2)
_cell_length_c 10.199(2)
_cell_angle_alpha 90
_cell_angle_beta 111.86(3)
_cell_angle_gamma 90
_cell_formula_units_Z 6
loop_
_atom_type_symbol
_atom_type_radius_bond
C 0.68
H 0.23
N 0.68
O 0.68
loop_
_atom_site_label
_atom_site_type_symbol
_atom_site_fract_x
_atom_site_fract_y
_atom_site_fract_z
C1 C 0.1032(6) 0.9551(2) 0.0448(6)
C2 C 0.1016(8) 0.9910(3) -0.0649(6)
C3 C 0.2424(8) 0.9899(3) -0.1067(7)
C4 C 0.3786(8) 0.9521(3) -0.0364(6)
C5 C 0.5226(7) 0.8746(3) 0.1484(7)
C6 C 0.5227(8) 0.8367(3) 0.2542(7)
C7 C 0.3846(7) 0.8357(3) 0.2984(7)
C8 C 0.2450(6) 0.8743(2) 0.2354(5)
C9 C 0.2391(6) 0.9140(2) 0.1217(5)
C10 C 0.3828(6) 0.9144(2) 0.0772(5)
C11 C 0.013(2) 0.8159(6) 0.254(2)
C12 C 0.143(1) 0.9001(8) 0.418(1)
O1 O -0.0571(9) 1.0002(3) 0.1570(7)
O2 O -0.1694(6) 0.9229(4) 0.0123(6)
N1 N -0.0543(7) 0.9591(3) 0.0770(6)
N2 N 0.1030(5) 0.8745(2) 0.2788(4)
H1 H 0.010(8) 1.023(3) -0.103(6)
H2 H 0.229(7) 1.015(3) -0.189(7)
H3 H 0.473(7) 0.954(2) -0.061(5)
H4 H 0.607(8) 0.878(3) 0.124(6)
H5 H 0.623(8) 0.811(3) 0.305(6)
H6 H 0.386(7) 0.814(3) 0.382(6)
H7 H -0.03280 0.80590 0.14170
H8 H 0.10030 0.77890 0.31070
H9 H -0.09480 0.81600 0.28650
H10 H 0.24390 0.87190 0.49170
H11 H 0.16860 0.94840 0.41870
H12 H 0.03530 0.90030 0.45070
C13 C 0.1863(6) 0.1924(2) 0.2381(5)
C14 C 0.2032(7) 0.1402(3) 0.1672(7)
C15 C 0.3649(8) 0.1220(3) 0.1742(7)
C16 C 0.5038(8) 0.1553(3) 0.2527(7)
C17 C 0.6371(9) 0.2431(3) 0.4127(8)
C18 C 0.6227(9) 0.2944(4) 0.4874(9)
C19 C 0.4622(8) 0.3153(3) 0.4823(7)
C20 C 0.3154(7) 0.2830(2) 0.4044(6)
C21 C 0.3258(6) 0.2295(2) 0.3242(5)
C22 C 0.4906(6) 0.2090(2) 0.3296(6)
C23 C 0.134(1) 0.2879(4) 0.5356(9)
C24 C 0.099(2) 0.3648(5) 0.353(1)
O3 O -0.0589(7) 0.2485(3) 0.1225(6)
O4 O -0.0592(7) 0.1812(3) 0.2838(8)
N3 N 0.0092(7) 0.2099(3) 0.2152(7)
N4 N 0.1505(6) 0.3001(2) 0.4028(5)
H13 H 0.097(7) 0.111(2) 0.120(6)
H14 H 0.364(9) 0.088(3) 0.117(8)
H15 H 0.616(7) 0.145(2) 0.257(6)
H16 H 0.752(7) 0.225(2) 0.415(5)
H17 H 0.71(1) 0.322(4) 0.536(9)
H18 H 0.451(8) 0.355(3) 0.541(7)
H19 H 0.15480 0.23780 0.55920
H20 H 0.23020 0.31500 0.61680
H21 H 0.00980 0.30080 0.53440
H22 H -0.02570 0.37040 0.35580
H23 H 0.09540 0.36590 0.24720
H24 H 0.19120 0.39400 0.42240
C25 C 0.2307(6) 0.3656(2) 0.9253(5)
C26 C 0.3206(9) 0.3180(3) 1.0092(7)
C27 C 0.4927(9) 0.3086(3) 1.0268(8)
C28 C 0.5678(7) 0.3458(3) 0.9595(7)
C29 C 0.5532(8) 0.4342(3) 0.7992(7)
C30 C 0.4663(9) 0.4820(3) 0.7144(8)
C31 C 0.2972(9) 0.4928(3) 0.6958(7)
C32 C 0.2125(6) 0.4576(2) 0.7628(5)
C33 C 0.3014(6) 0.4065(2) 0.8506(5)
C34 C 0.4751(7) 0.3950(2) 0.8700(6)
C35 C 0.0088(9) 0.5332(3) 0.784(1)
C36 C -0.082(1) 0.4535(5) 0.6067(8)
O5 O -0.0544(6) 0.3394(2) 0.8245(6)
O6 O 0.0244(6) 0.4030(2) 1.0020(5)
N5 N 0.0522(6) 0.3708(3) 0.9149(6)
N6 N 0.0370(6) 0.4689(2) 0.7457(5)
H25 H 0.263(8) 0.292(3) 1.050(6)
H26 H 0.547(8) 0.278(3) 1.096(7)
H27 H 0.682(7) 0.339(2) 0.961(6)
H28 H 0.667(8) 0.427(2) 0.815(6)
H29 H 0.517(8) 0.506(3) 0.669(7)
H30 H 0.235(7) 0.521(3) 0.644(6)
H31 H 0.08930 0.54120 0.89360
H32 H 0.04330 0.56620 0.71830
H33 H -0.12250 0.54170 0.77160
H34 H -0.05280 0.48210 0.53080
H35 H -0.06760 0.40380 0.58680
H36 H -0.21340 0.46190 0.59400
#END
