
#######################################################################
#
#                 Cambridge Crystallographic Data Centre
#                                CCDC
#
#######################################################################
#
# If this CIF has been generated from an entry in the Cambridge
# Structural Database, then it will include bibliographic, chemical,
# crystal, experimental, refinement or atomic coordinate data resulting
# from the CCDC's data processing and validation procedures.
#
#######################################################################

data_CSD_CIF_DIWXIS
_audit_creation_date 2014-04-29
_audit_creation_method CSD-ConQuest-V1
_database_code_CSD DIWXIS
_database_code_depnum_ccdc_archive 'CCDC 985820'
_chemical_formula_sum 'C25 H22 N2 O3'
_chemical_formula_moiety
;
C25 H22 N2 O3
;
_journal_coden_Cambridge 1475
_journal_volume 5
_journal_year 2014
_journal_page_first 2732
_journal_name_full 'Chemical Science '
loop_
_publ_author_name
"R.Alam"
"A.Das"
"Genping Huang"
"L.Eriksson"
"F.Himo"
"K.J.Szabo"
_chemical_name_systematic
;
(4-Nitrophenyl)(1-(1-phenylprop-2-en-1-yl)-3,4-dihydroisoquinolin-2(1H)-yl)met
hanone
;
_cell_volume   4124.526
_exptl_crystal_colour 'colorless'
_exptl_crystal_density_diffrn 1.283
_exptl_crystal_description 'prism'
_diffrn_ambient_temperature 293
#These two values have been output from a single CSD field.
_refine_ls_R_factor_gt 0.0507
_refine_ls_wR_factor_gt 0.0507
_symmetry_cell_setting orthorhombic
_symmetry_space_group_name_H-M 'P b c a'
_symmetry_Int_Tables_number 61
loop_
_symmetry_equiv_pos_site_id
_symmetry_equiv_pos_as_xyz
1 x,y,z
2 1/2-x,-y,1/2+z
3 -x,1/2+y,1/2-z
4 1/2+x,1/2-y,-z
5 -x,-y,-z
6 -1/2+x,y,-1/2-z
7 x,-1/2-y,-1/2+z
8 -1/2-x,-1/2+y,z
_cell_length_a 12.8758(3)
_cell_length_b 17.5058(4)
_cell_length_c 18.2986(4)
_cell_angle_alpha 90
_cell_angle_beta 90
_cell_angle_gamma 90
_cell_formula_units_Z 8
loop_
_atom_type_symbol
_atom_type_radius_bond
C 0.68
H 0.23
N 0.68
O 0.68
loop_
_atom_site_label
_atom_site_type_symbol
_atom_site_fract_x
_atom_site_fract_y
_atom_site_fract_z
C1 C 0.94164(12) 0.16343(9) 0.35167(9)
H1 H 0.97070 0.12990 0.31400
N1 N 0.84455(10) 0.12891(8) 0.37650(7)
C2 C 0.77584(14) 0.18077(10) 0.41598(10)
H2 H 0.81310 0.20440 0.45610
H3 H 0.71750 0.15260 0.43590
C3 C 0.73734(14) 0.24142(11) 0.36405(12)
H4 H 0.68720 0.21900 0.33080
H5 H 0.70240 0.28120 0.39160
C4 C 0.82480(14) 0.27623(10) 0.32066(10)
C5 C 0.92131(13) 0.24025(10) 0.31636(9)
C6 C 0.99998(15) 0.27539(11) 0.27659(9)
H6 H 1.06490 0.25230 0.27410
C7 C 0.98386(17) 0.34364(12) 0.24085(11)
H7 H 1.03770 0.36650 0.21490
C8 C 0.88808(18) 0.37760(11) 0.24371(11)
H8 H 0.87620 0.42300 0.21870
C9 C 0.80973(17) 0.34455(11) 0.28349(11)
H9 H 0.74520 0.36830 0.28560
C10 C 1.02359(13) 0.16831(10) 0.41531(9)
H10 H 1.01860 0.21940 0.43700
C11 C 1.00339(14) 0.11104(11) 0.47463(9)
H11 H 1.00000 0.05980 0.46150
C12 C 0.9904(2) 0.12830(17) 0.54328(12)
H12 H 0.9775(19) 0.0902(9) 0.5788(10)
H13 H 0.988(2) 0.1799(6) 0.5581(12)
C13 C 1.13338(13) 0.15855(10) 0.38641(9)
C14 C 1.20643(15) 0.21588(11) 0.39326(11)
H14 H 1.18850 0.26170 0.41570
C15 C 1.30629(17) 0.20558(15) 0.36687(13)
H15 H 1.35470 0.24470 0.37130
C16 C 1.33433(17) 0.13840(16) 0.33436(12)
H16 H 1.40150 0.13180 0.31680
C17 C 1.26341(17) 0.08106(15) 0.32773(12)
H17 H 1.28250 0.03520 0.30590
C18 C 1.16314(15) 0.09074(11) 0.35333(10)
H18 H 1.11520 0.05130 0.34830
C19 C 0.82949(13) 0.05352(10) 0.36584(9)
O1 O 0.89399(10) 0.01229(7) 0.33639(8)
C20 C 0.72950(14) 0.01844(10) 0.39176(10)
C21 C 0.63523(15) 0.03528(11) 0.35999(12)
H19 H 0.63080 0.07360 0.32490
C22 C 0.54708(16) -0.00479(12) 0.38026(14)
H20 H 0.48340 0.00550 0.35840
C23 C 0.55530(16) -0.05976(11) 0.43300(13)
C24 C 0.64724(18) -0.07715(12) 0.46597(12)
H21 H 0.65080 -0.11460 0.50190
C25 C 0.73472(16) -0.03783(11) 0.44468(11)
H22 H 0.79830 -0.04930 0.46620
N2 N 0.46135(18) -0.10291(12) 0.45448(15)
O2 O 0.47029(16) -0.15174(11) 0.50188(12)
O3 O 0.38049(16) -0.08801(12) 0.42400(16)
#END
