
#######################################################################
#
#                 Cambridge Crystallographic Data Centre
#                                CCDC
#
#######################################################################
#
# If this CIF has been generated from an entry in the Cambridge
# Structural Database, then it will include bibliographic, chemical,
# crystal, experimental, refinement or atomic coordinate data resulting
# from the CCDC's data processing and validation procedures.
#
#######################################################################

data_CSD_CIF_DIWYUE
_audit_creation_date 2008-04-30
_audit_creation_method CSD-ConQuest-V1
_database_code_CSD DIWYUE
_database_code_depnum_ccdc_archive 'CCDC 683890'
_database_code_depnum_ccdc_journal 1267/2128
_chemical_formula_sum 'C22 H19 N3 O3'
_chemical_formula_moiety
;
C22 H19 N3 O3
;
_journal_coden_Cambridge 1267
_journal_volume 223
_journal_year 2008
_journal_page_first 23
_journal_name_full 'Z.Kristallogr.-New Cryst.Struct. '
loop_
_publ_author_name
"Junyan Wang"
"D.M.Johnson"
"E.R.T.Tiekink"
_chemical_name_systematic
;
2-Benzyl-3-(benzylamino)-6-nitroisoindolin-1-one
;
_cell_volume    913.689
_exptl_crystal_colour 'pale yellow'
_exptl_crystal_density_diffrn 1.357
_exptl_crystal_description 'prism'
_exptl_crystal_preparation 'methanol'
_diffrn_ambient_temperature 153
#These two values have been output from a single CSD field.
_refine_ls_R_factor_gt 0.04
_refine_ls_wR_factor_gt 0.04
_symmetry_cell_setting triclinic
_symmetry_space_group_name_H-M 'P -1'
_symmetry_Int_Tables_number 2
loop_
_symmetry_equiv_pos_site_id
_symmetry_equiv_pos_as_xyz
1 x,y,z
2 -x,-y,-z
_cell_length_a 7.1365(17)
_cell_length_b 7.8158(9)
_cell_length_c 17.465(2)
_cell_angle_alpha 81.047(15)
_cell_angle_beta 77.18(2)
_cell_angle_gamma 75.305(17)
_cell_formula_units_Z 2
loop_
_atom_type_symbol
_atom_type_radius_bond
C 0.68
H 0.23
N 0.68
O 0.68
loop_
_atom_site_label
_atom_site_type_symbol
_atom_site_fract_x
_atom_site_fract_y
_atom_site_fract_z
O1 O 0.45605(13) 0.98833(13) 0.74768(6)
O2 O 0.89117(15) 0.69114(17) 0.47909(7)
O3 O 0.72235(16) 0.65589(17) 0.39805(6)
N1 N 0.14001(15) 0.98503(14) 0.73723(6)
N2 N 0.73470(16) 0.69719(15) 0.46109(7)
N3 N -0.10033(15) 0.83848(14) 0.70257(6)
H1 H -0.21580 0.89130 0.72850
C1 C 0.33944(18) 0.95694(16) 0.71256(8)
C2 C 0.38251(17) 0.88425(15) 0.63469(7)
C3 C 0.56252(18) 0.82358(16) 0.58546(7)
H2 H 0.68500 0.82500 0.59800
C4 C 0.55111(18) 0.76103(17) 0.51698(7)
C5 C 0.3750(2) 0.75634(19) 0.49693(8)
H3 H 0.37570 0.71110 0.44940
C6 C 0.1984(2) 0.8182(2) 0.54672(8)
H4 H 0.07590 0.81640 0.53430
C7 C 0.20574(18) 0.88251(17) 0.61505(7)
C8 C 0.03439(18) 0.95379(17) 0.67834(8)
H5 H -0.03870 1.07160 0.65660
C9 C 0.03564(19) 1.07672(17) 0.80653(8)
H6 H -0.08710 1.15860 0.79410
H7 H 0.11910 1.14950 0.81810
C10 C -0.0169(2) 0.95287(17) 0.87946(8)
C11 C 0.1316(2) 0.84532(19) 0.91666(9)
H8 H 0.26550 0.84810 0.89540
C12 C 0.0852(3) 0.7342(2) 0.98452(9)
H9 H 0.18730 0.66140 1.00970
C13 C -0.1092(3) 0.7292(2) 1.01555(9)
H10 H -0.14070 0.65280 1.06200
C14 C -0.2574(2) 0.8348(2) 0.97914(9)
H11 H -0.39110 0.83150 1.00060
C15 C -0.2114(2) 0.94629(19) 0.91093(9)
H12 H -0.31390 1.01840 0.88580
C16 C -0.02371(19) 0.66077(17) 0.74062(8)
H13 H 0.01940 0.67140 0.78940
H14 H 0.09140 0.59690 0.70460
C17 C -0.18470(18) 0.55876(16) 0.76030(8)
C18 C -0.2935(2) 0.54538(19) 0.83646(8)
H15 H -0.26240 0.59640 0.87670
C19 C -0.4475(2) 0.4580(2) 0.85463(9)
H16 H -0.52140 0.45030 0.90700
C20 C -0.4935(2) 0.3825(2) 0.79702(9)
H17 H -0.59900 0.32310 0.80940
C21 C -0.3852(2) 0.39392(19) 0.72111(9)
H18 H -0.41610 0.34160 0.68130
C22 C -0.2316(2) 0.48118(18) 0.70263(8)
H19 H -0.15790 0.48800 0.65020
#END
