
#######################################################################
#
#                 Cambridge Crystallographic Data Centre
#                                CCDC
#
#######################################################################
#
# If this CIF has been generated from an entry in the Cambridge
# Structural Database, then it will include bibliographic, chemical,
# crystal, experimental, refinement or atomic coordinate data resulting
# from the CCDC's data processing and validation procedures.
#
#######################################################################

data_CSD_CIF_DIXGIA
_audit_creation_date 2000-06-05
_audit_creation_method CSD-ConQuest-V1
_database_code_CSD DIXGIA
_database_code_depnum_ccdc_archive 'CCDC 129639'
_database_code_depnum_ccdc_journal 188/212
_chemical_formula_sum 'C8 H14 N2 O2'
_chemical_formula_moiety
;
C8 H14 N2 O2
;
_journal_coden_Cambridge 188
_journal_year 2000
_journal_page_first 501
_journal_name_full 'J.Chem.Soc.,Perkin Trans.2 '
loop_
_publ_author_name
"A.W.Marsman"
"C.A.van Walree"
"R.W.A.Havenith"
"L.W.Jenneskens"
"M.Lutz"
"A.L.Spek"
"E.T.G.Lutz"
"J.H.van der Maas"
_chemical_name_systematic
;
(E,E)-2,2-Dimethylcyclohexane-1,3-dione dioxime
;
_chemical_melting_point 473.15
_cell_volume    927.297
_exptl_crystal_colour 'colorless'
_exptl_crystal_density_diffrn 1.219
_exptl_special_details
;
Melts with decomposition.

;
_exptl_crystal_description 'block'
_exptl_crystal_preparation 'acetone'
_diffrn_ambient_temperature 150
_refine_special_details
;
Atoms C3 and C4 of the cyclohexane ring, together with their associated 
hydrogen atoms are disordered over two sets of positions with occupancies 
;
#These two values have been output from a single CSD field.
_refine_ls_R_factor_gt 0.036
_refine_ls_wR_factor_gt 0.036
_symmetry_cell_setting orthorhombic
_symmetry_space_group_name_H-M 'P n m a'
_symmetry_Int_Tables_number 62
loop_
_symmetry_equiv_pos_site_id
_symmetry_equiv_pos_as_xyz
1 x,y,z
2 1/2+x,y,1/2-z
3 1/2-x,1/2+y,1/2+z
4 x,1/2-y,z
5 -x,-y,-z
6 -1/2-x,-y,-1/2+z
7 -1/2+x,-1/2-y,-1/2-z
8 -x,-1/2+y,-z
_cell_length_a 10.0872(2)
_cell_length_b 11.7970(2)
_cell_length_c 7.7925(2)
_cell_angle_alpha 90
_cell_angle_beta 90
_cell_angle_gamma 90
_cell_formula_units_Z 4
loop_
_atom_type_symbol
_atom_type_radius_bond
C 0.68
H 0.23
N 0.68
O 0.68
loop_
_atom_site_label
_atom_site_type_symbol
_atom_site_fract_x
_atom_site_fract_y
_atom_site_fract_z
C1 C 0.26492(17) 0.14086(15) 0.2043(2)
H1 H 0.23490 0.07470 0.13640
H2 H 0.36050 0.13130 0.22930
C2 C 0.2429(2) 0.25000 0.1018(3)
H3 H 0.30370 0.25000 0.00200
H4 H 0.15110 0.25000 0.05690
O1 O 0.08073(9) -0.01633(7) 0.31809(10)
H5 H 0.0168(18) -0.0526(14) 0.376(2)
N1 N 0.10557(8) 0.07580(7) 0.42974(11)
C3 C 0.21831(13) 0.25000 0.48240(19)
C4 C 0.18777(10) 0.14734(8) 0.36986(13)
C5 C 0.13836(16) 0.25000 0.64855(19)
C6 C 0.36764(16) 0.25000 0.5305(3)
H6 H 0.04610 0.25000 0.62110
H7 H 0.16340 0.31550 0.71650
H8 H 0.38920 0.31650 0.59820
H9 H 0.42620 0.25000 0.42220
C7? C 0.2248(3) 0.1426(2) 0.1792(4)
H10? H 0.28250 0.07610 0.15880
H11? H 0.14320 0.13240 0.11030
C8? C 0.2967(4) 0.25000 0.1188(6)
H12? H 0.30200 0.25000 -0.00800
H13? H 0.38830 0.25000 0.16450
C1C C 0.26492(17) 0.35914(15) 0.2043(2)
H1C H 0.23490 0.42530 0.13640
H2C H 0.36050 0.36870 0.22930
C4C C 0.18777(10) 0.35266(8) 0.36986(13)
N1C N 0.10557(8) 0.42420(7) 0.42974(11)
O1C O 0.08073(9) 0.51633(7) 0.31809(10)
H5C H 0.0168(18) 0.5526(14) 0.376(2)
H7C H 0.16340 0.18450 0.71650
H8C H 0.38920 0.18350 0.59820
#END
