
#######################################################################
#
#                 Cambridge Crystallographic Data Centre
#                                CCDC
#
#######################################################################
#
# If this CIF has been generated from an entry in the Cambridge
# Structural Database, then it will include bibliographic, chemical,
# crystal, experimental, refinement or atomic coordinate data resulting
# from the CCDC's data processing and validation procedures.
#
#######################################################################

data_CSD_CIF_DIYRIM
_audit_creation_date 1986-11-20
_audit_creation_method CSD-ConQuest-V1
_database_code_CSD DIYRIM
_chemical_formula_sum 'C21 H29 N1 O7'
_chemical_formula_moiety
;
C21 H29 N1 O7
;
_journal_coden_Cambridge 10
_journal_volume 68
_journal_year 1985
_journal_page_first 1730
_journal_name_full 'Helv.Chim.Acta '
loop_
_publ_author_name
"R.Huber"
"A.Knierzinger"
"J.-P.Obrecht"
"A.Vasella"
_chemical_name_systematic
;
N-(2,3:5,6-Di-O-isopropylidene-\a-D-mannofuranosyl)-2-benzyloxyethylimine 
N-oxide
;
_chemical_melting_point 410.15
_cell_volume   2106.287
_exptl_crystal_colour 'colorless'
_exptl_crystal_density_diffrn 1.28
_exptl_special_details
;
c is reported as 29.409 in the text and as 26.409 in the deposited material. 
The latter is correct
;
_diffrn_ambient_temperature 133.15
#These two values have been output from a single CSD field.
_refine_ls_R_factor_gt 0.074
_refine_ls_wR_factor_gt 0.074
_symmetry_cell_setting orthorhombic
_symmetry_space_group_name_H-M 'P 21 21 21'
_symmetry_Int_Tables_number 19
loop_
_symmetry_equiv_pos_site_id
_symmetry_equiv_pos_as_xyz
1 x,y,z
2 1/2+x,1/2-y,-z
3 -x,1/2+y,1/2-z
4 1/2-x,-y,1/2+z
_cell_length_a 5.1320(7)
_cell_length_b 15.541(2)
_cell_length_c 26.409(3)
_cell_angle_alpha 90
_cell_angle_beta 90
_cell_angle_gamma 90
_cell_formula_units_Z 4
loop_
_atom_type_symbol
_atom_type_radius_bond
C 0.68
H 0.23
N 0.68
O 0.68
loop_
_atom_site_label
_atom_site_type_symbol
_atom_site_fract_x
_atom_site_fract_y
_atom_site_fract_z
C1 C 0.7688(7) 0.2873(2) 0.2946(1)
N1 N 0.6362(6) 0.2197(2) 0.3252(1)
O1 O 0.3813(5) 0.2221(2) 0.32474(9)
C2 C 0.6472(7) 0.3744(2) 0.3061(1)
O2 O 0.8421(5) 0.4395(1) 0.30142(9)
C3 C 0.4594(7) 0.3921(2) 0.2616(1)
O3 O 0.5530(5) 0.4704(1) 0.23979(9)
C4 C 0.4961(7) 0.3156(2) 0.2260(1)
O4 O 0.7321(5) 0.2721(2) 0.24259(9)
C5 C 0.5250(8) 0.3387(2) 0.1704(1)
O5 O 0.5096(6) 0.2613(2) 0.14191(9)
C6 C 0.7809(9) 0.3782(3) 0.1533(1)
O6 O 0.8051(8) 0.3453(2) 0.1028(1)
C7 C 0.7724(8) 0.1642(2) 0.3499(1)
C8 C 0.6372(9) 0.0961(2) 0.3799(2)
O7 O 0.8323(7) 0.0397(2) 0.3986(1)
C9 C 0.762(2) -0.0079(3) 0.4407(2)
C10 C 0.732(1) 0.0465(4) 0.4887(2)
C11 C 0.551(2) 0.0223(4) 0.5232(2)
C12 C 0.525(2) 0.0642(6) 0.5669(2)
C13 C 0.666(1) 0.1320(5) 0.5787(2)
C14 C 0.841(2) 0.1650(6) 0.5451(3)
C15 C 0.880(1) 0.1146(6) 0.4981(3)
C16 C 0.7162(8) 0.5110(2) 0.2770(1)
C17 C 0.9169(8) 0.5650(3) 0.2502(2)
C18 C 0.5581(9) 0.5607(2) 0.3151(2)
C19 C 0.6892(8) 0.2646(3) 0.1008(1)
C20 C 0.889(1) 0.1927(3) 0.1077(3)
C21 C 0.543(1) 0.2533(5) 0.0523(2)
H1 H 0.957(6) 0.287(2) 0.301(1)
H2 H 0.56(1) 0.377(3) 0.340(2)
H3 H 0.302(6) 0.391(2) 0.270(1)
H4 H 0.351(7) 0.278(2) 0.228(1)
H5 H 0.396(9) 0.372(3) 0.161(2)
H6 H 0.908(8) 0.364(2) 0.171(1)
H7 H 0.789(9) 0.436(3) 0.154(1)
H8 H 0.99(1) 0.174(3) 0.353(2)
H9 H 0.526(8) 0.122(2) 0.406(1)
H10 H 0.480(9) 0.060(3) 0.357(2)
H11 H 0.598(2) -0.0351(3) 0.4338(2)
H12 H 0.892(2) -0.0511(3) 0.4465(2)
H13 H 0.439(2) -0.0258(4) 0.5162(2)
H14 H 0.399(2) 0.0442(6) 0.5910(2)
H15 H 0.645(1) 0.1583(5) 0.6113(2)
H16 H 0.932(2) 0.2179(6) 0.5514(3)
H17 H 1.013(1) 0.1312(6) 0.4744(3)
H18 H 1.03(1) 0.592(3) 0.273(2)
H19 H 1.02(1) 0.527(3) 0.229(2)
H20 H 0.845(9) 0.610(3) 0.233(2)
H21 H 0.49(1) 0.603(3) 0.302(2)
H22 H 0.445(8) 0.519(2) 0.322(1)
H23 H 0.679(9) 0.587(3) 0.345(2)
H24 H 0.801(1) 0.1388(3) 0.1120(3)
H25 H 0.993(1) 0.2045(3) 0.1372(3)
H26 H 1.000(1) 0.1897(3) 0.0785(3)
H27 H 0.470(1) 0.1964(5) 0.0507(2)
H28 H 0.661(1) 0.2614(5) 0.0245(2)
H29 H 0.405(1) 0.2949(5) 0.0501(2)
#END
