
#######################################################################
#
#                 Cambridge Crystallographic Data Centre
#                                CCDC
#
#######################################################################
#
# If this CIF has been generated from an entry in the Cambridge
# Structural Database, then it will include bibliographic, chemical,
# crystal, experimental, refinement or atomic coordinate data resulting
# from the CCDC's data processing and validation procedures.
#
#######################################################################

data_CSD_CIF_DIZREL
_audit_creation_date 2014-05-02
_audit_creation_method CSD-ConQuest-V1
_database_code_CSD DIZREL
_database_code_depnum_ccdc_archive 'CCDC 984686'
_chemical_formula_sum 'C31 H21 N3 O3'
_chemical_formula_moiety
;
C31 H21 N3 O3
;
_journal_coden_Cambridge 35
_journal_volume 79
_journal_year 2014
_journal_page_first 3963
_journal_name_full 'J.Org.Chem. '
loop_
_publ_author_name
"S.Allu"
"K.C.Kumara Swamy"
_chemical_name_systematic
;
4-(4-methylphenyl)-3-(4-nitrophenyl)-2-(quinolin-8-yl)isoquinolin-1(2H)-one
;
_cell_volume   2432.644
_exptl_crystal_colour 'colorless'
_exptl_crystal_density_diffrn 1.32
_exptl_crystal_description 'needle'
_diffrn_ambient_temperature 298
#These two values have been output from a single CSD field.
_refine_ls_R_factor_gt 0.0736
_refine_ls_wR_factor_gt 0.0736
_symmetry_cell_setting monoclinic
_symmetry_space_group_name_H-M 'P 21/n'
_symmetry_Int_Tables_number 14
loop_
_symmetry_equiv_pos_site_id
_symmetry_equiv_pos_as_xyz
1 x,y,z
2 1/2-x,1/2+y,1/2-z
3 -x,-y,-z
4 -1/2+x,-1/2-y,-1/2+z
_cell_length_a 9.5537(15)
_cell_length_b 16.927(3)
_cell_length_c 15.612(3)
_cell_angle_alpha 90
_cell_angle_beta 105.520(3)
_cell_angle_gamma 90
_cell_formula_units_Z 4
loop_
_atom_type_symbol
_atom_type_radius_bond
C 0.68
H 0.23
N 0.68
O 0.68
loop_
_atom_site_label
_atom_site_type_symbol
_atom_site_fract_x
_atom_site_fract_y
_atom_site_fract_z
C1 C 1.3381(4) 0.2335(2) 0.3032(3)
N1 N 0.8968(3) 0.37447(19) 0.1267(2)
C2 C 0.6451(4) 0.3485(3) 0.0570(2)
O1 O 0.7467(3) 0.47688(18) 0.0759(2)
C3 C 1.0684(4) 0.2726(2) 0.2020(3)
C4 C 0.8116(4) 0.2409(2) 0.1216(3)
C5 C 0.6688(4) 0.2677(2) 0.0734(2)
C6 C 0.8388(4) 0.1553(2) 0.1409(3)
C7 C 1.1795(4) 0.2632(2) 0.1637(3)
H1 H 1.16240 0.27040 0.10270
C8 C 1.0210(5) 0.4314(3) 0.1540(4)
C9 C 0.5519(4) 0.2157(3) 0.0416(3)
H2 H 0.56510 0.16170 0.05150
C10 C 0.9189(4) 0.2943(2) 0.1476(3)
C11 C 0.4190(4) 0.2442(3) -0.0038(3)
H3 H 0.34260 0.20900 -0.02430
C12 C 0.7616(4) 0.4053(3) 0.0859(3)
C13 C 1.2303(4) 0.2423(2) 0.3437(3)
H4 H 1.24830 0.23570 0.40490
N2 N 1.4852(4) 0.2136(2) 0.3563(3)
C14 C 1.0963(5) 0.4494(3) 0.0972(3)
H5 H 1.07200 0.42780 0.04040
N3 N 0.9641(4) 0.4365(2) 0.2939(3)
C15 C 0.5067(4) 0.3753(3) 0.0106(3)
H6 H 0.49090 0.42910 0.00040
O2 O 1.5772(4) 0.1997(3) 0.3194(3)
O3 O 1.5077(4) 0.2127(3) 0.4361(3)
C16 C 1.3168(4) 0.2431(2) 0.2135(3)
H7 H 1.39250 0.23630 0.18710
C17 C 0.8207(4) 0.1227(3) 0.2180(3)
H8 H 0.79100 0.15460 0.25830
C18 C 1.0937(4) 0.2611(2) 0.2925(3)
H9 H 1.01770 0.26610 0.31890
C19 C 0.3950(4) 0.3237(3) -0.0198(3)
H10 H 0.30380 0.34200 -0.05100
C20 C 0.8456(5) 0.0436(3) 0.2363(3)
H11 H 0.83270 0.02340 0.28910
C21 C 0.8807(4) 0.1064(3) 0.0835(3)
H12 H 0.89370 0.12660 0.03080
C22 C 0.9046(5) 0.0267(3) 0.1024(4)
H13 H 0.93230 -0.00580 0.06170
C23 C 1.2206(6) 0.5048(3) 0.1257(4)
H14 H 1.27600 0.51880 0.08730
C24 C 1.2510(6) 0.5346(3) 0.2104(4)
H15 H 1.32850 0.56920 0.23040
C25 C 1.1947(6) 0.5390(3) 0.3527(5)
H16 H 1.27130 0.57370 0.37480
C26 C 0.8881(5) -0.0053(3) 0.1802(4)
C27 C 1.1132(8) 0.5150(4) 0.4061(5)
H17 H 1.13310 0.53200 0.46480
C28 C 1.0033(7) 0.4662(4) 0.3720(4)
H18 H 0.94760 0.45170 0.41000
C29 C 1.0472(5) 0.4595(3) 0.2376(4)
C30 C 1.1673(5) 0.5134(2) 0.2661(4)
C31 C 0.9160(6) -0.0925(3) 0.2009(4)
H19 H 0.99270 -0.09830 0.25470
H20 H 0.94360 -0.11770 0.15280
H21 H 0.82910 -0.11670 0.20840
#END
