
#######################################################################
#
#                 Cambridge Crystallographic Data Centre
#                                CCDC
#
#######################################################################
#
# If this CIF has been generated from an entry in the Cambridge
# Structural Database, then it will include bibliographic, chemical,
# crystal, experimental, refinement or atomic coordinate data resulting
# from the CCDC's data processing and validation procedures.
#
#######################################################################

data_CSD_CIF_DMBNBZ10
_audit_creation_date 1977-02-08
_audit_creation_method CSD-ConQuest-V1
_database_code_CSD DMBNBZ10
_database_code_depnum_ccdc_archive 'CCDC 1142533'
_chemical_formula_sum 'C13 H16 N2 O6'
_chemical_formula_moiety
;
C13 H16 N2 O6
;
_journal_coeditor_code "IUCr A13497"
_journal_coden_Cambridge 107
_journal_volume 32
_journal_year 1976
_journal_page_first 1953
_journal_name_full 'Acta Crystallogr.,Sect.B:Struct.Crystallogr.Cryst.Chem. '
loop_
_publ_author_name
"M.Sax"
"M.Rodrigues"
"G.Blank"
"M.K.Wood"
"J.Pletcher"
_chemical_name_systematic
;
2,2-Dimethylbutyl 3,5-dinitrobenzoate
;
_cell_volume   1526.235
_diffrn_ambient_temperature ?
_diffrn_special_details
;
The study was carried out at room temperature,in the range 283-303K

;
_refine_special_details
;
TERMINAL 5-CARBON CHAIN OF MOLECULE B IS DISORDERED.

;
#These two values have been output from a single CSD field.
_refine_ls_R_factor_gt 0.08
_refine_ls_wR_factor_gt 0.08
_symmetry_cell_setting triclinic
_symmetry_space_group_name_H-M 'P -1'
_symmetry_Int_Tables_number 2
loop_
_symmetry_equiv_pos_site_id
_symmetry_equiv_pos_as_xyz
1 x,y,z
2 -x,-y,-z
_cell_length_a 11.347(5)
_cell_length_b 11.906(5)
_cell_length_c 13.198(5)
_cell_angle_alpha 95.04(5)
_cell_angle_beta 111.32(5)
_cell_angle_gamma 109.05(5)
_cell_formula_units_Z 4
loop_
_atom_type_symbol
_atom_type_radius_bond
C 0.68
H 0.23
N 0.68
O 0.68
loop_
_atom_site_label
_atom_site_type_symbol
_atom_site_fract_x
_atom_site_fract_y
_atom_site_fract_z
C1 C 0.35020 0.28590 0.42840
C2 C 0.45430 0.35850 0.53550
C3 C 0.41840 0.36400 0.62350
C4 C 0.28540 0.30600 0.61280
C5 C 0.18720 0.23620 0.50700
C6 C 0.21490 0.22240 0.41330
C7 C 0.39070 0.28130 0.33370
C8 C 0.31750 0.20450 0.14020
H1 H 0.14000 0.16900 0.34400
H2 H 0.25400 0.31100 0.67000
H3 H 0.55000 0.40200 0.55600
N1 N 0.53080 0.43900 0.73760
N2 N 0.04190 0.16880 0.49110
O1 O 0.28500 0.21520 0.23620
O2 O 0.50930 0.33440 0.34680
O3 O 0.64930 0.48730 0.74750
O4 O 0.49750 0.44920 0.81450
O5 O 0.01760 0.18510 0.57330
O6 O -0.04440 0.10560 0.39830
C9 C 0.28450 -0.16690 0.39500
C10 C 0.17810 -0.35390 -0.09390
C11 C 0.10000 -0.49420 -0.16230
C12 C 0.09510 -0.29050 -0.15860
C13 C 0.32020 -0.30060 -0.08850
C14 C 0.32740 -0.07090 0.48710
C15 C 0.32340 -0.09740 0.58480
C16 C 0.27620 -0.21640 0.59490
C17 C 0.23330 -0.30960 0.50090
C18 C 0.23820 -0.28720 0.40300
C19 C 0.29290 -0.13500 0.29020
C20 C 0.25010 -0.21780 0.10300
C21 C 0.18390 -0.34680 0.02530
H4 H 0.35800 -0.00500 0.48200
H5 H 0.20400 -0.35400 0.34700
H6 H 0.36400 -0.17800 0.12400
H7 H 0.20000 -0.15200 0.06700
H8 H 0.26900 -0.23400 0.65400
H9 H 0.23300 -0.40800 0.06700
H10 H 0.08400 -0.39000 0.01000
N3 N 0.37380 0.00560 0.68710
N4 N 0.18360 -0.43790 0.51000
O7 O 0.24430 -0.23600 0.20910
O8 O 0.33900 -0.03040 0.28240
O9 O 0.40590 0.11010 0.67230
O10 O 0.38320 -0.02000 0.77250
O11 O 0.15740 -0.46010 0.58930
O12 O 0.17270 -0.51710 0.43680
#END
