
#######################################################################
#
#                 Cambridge Crystallographic Data Centre
#                                CCDC
#
#######################################################################
#
# If this CIF has been generated from an entry in the Cambridge
# Structural Database, then it will include bibliographic, chemical,
# crystal, experimental, refinement or atomic coordinate data resulting
# from the CCDC's data processing and validation procedures.
#
#######################################################################

data_CSD_CIF_DMNPPO
_audit_creation_date 1979-01-19
_audit_creation_method CSD-ConQuest-V1
_database_code_CSD DMNPPO
_database_code_depnum_ccdc_archive 'CCDC 1142723'
_chemical_formula_sum 'C12 H12 N2 O4'
_chemical_formula_moiety
;
C12 H12 N2 O4
;
_journal_coden_Cambridge 10
_journal_volume 61
_journal_year 1978
_journal_page_first 2176
_journal_name_full 'Helv.Chim.Acta '
loop_
_publ_author_name
"R.E.Rosenfield Junior"
"J.D.Dunitz"
_chemical_name_systematic
;
1,3-Dimethyl-3-(2'-nitrophenyl)-pyrrolidine-2,5-dione
;
_cell_volume   1187.338
_exptl_crystal_density_diffrn 1.389
_diffrn_ambient_temperature ?
_diffrn_special_details
;
The study was carried out at room temperature,in the range 283-303K

;
#These two values have been output from a single CSD field.
_refine_ls_R_factor_gt 0.034
_refine_ls_wR_factor_gt 0.034
_symmetry_cell_setting monoclinic
_symmetry_space_group_name_H-M 'P 21/c'
_symmetry_Int_Tables_number 14
loop_
_symmetry_equiv_pos_site_id
_symmetry_equiv_pos_as_xyz
1 x,y,z
2 -x,1/2+y,1/2-z
3 -x,-y,-z
4 x,-1/2-y,-1/2+z
_cell_length_a 16.043(2)
_cell_length_b 5.913(1)
_cell_length_c 13.807(2)
_cell_angle_alpha 90
_cell_angle_beta 114.97(1)
_cell_angle_gamma 90
_cell_formula_units_Z 4
loop_
_atom_type_symbol
_atom_type_radius_bond
C 0.68
H 0.23
N 0.68
O 0.68
loop_
_atom_site_label
_atom_site_type_symbol
_atom_site_fract_x
_atom_site_fract_y
_atom_site_fract_z
N1 N 0.13930 -0.43860 -0.04590
C1 C 0.11900 -0.55660 -0.14640
C2 C 0.22640 -0.42650 0.03660
C3 C 0.21840 -0.31360 0.13180
C4 C 0.12260 -0.20170 0.08040
C5 C 0.07620 -0.30700 -0.02860
C6 C 0.29710 -0.15040 0.19330
C7 C 0.34520 -0.01660 0.15070
C8 C 0.41790 0.12230 0.21160
C9 C 0.44360 0.13800 0.32010
C10 C 0.39700 0.01360 0.36560
C11 C 0.32690 -0.13010 0.30390
C12 C 0.21620 -0.51450 0.20220
O1 O 0.29470 -0.50520 0.03400
O2 O -0.00270 -0.28230 -0.09260
N2 N 0.31930 -0.00840 0.03510
O3 O 0.23750 -0.01810 -0.02540
O4 O 0.38020 0.01160 0.00510
H1 H 0.09800 -0.45400 -0.20100
H2 H 0.17300 -0.62200 -0.14300
H3 H 0.07000 -0.65200 -0.16000
H4 H 0.08500 -0.23200 0.12200
H5 H 0.12800 -0.04100 0.06900
H6 H 0.44700 0.20300 0.17900
H7 H 0.49300 0.23500 0.36200
H8 H 0.41200 0.02100 0.43900
H9 H 0.29800 -0.21800 0.33800
H10 H 0.17100 -0.62400 0.15700
H11 H 0.27500 -0.58400 0.23600
H12 H 0.19600 -0.46400 0.25800
#END
