
#######################################################################
#
#                 Cambridge Crystallographic Data Centre
#                                CCDC
#
#######################################################################
#
# If this CIF has been generated from an entry in the Cambridge
# Structural Database, then it will include bibliographic, chemical,
# crystal, experimental, refinement or atomic coordinate data resulting
# from the CCDC's data processing and validation procedures.
#
#######################################################################

data_CSD_CIF_DMTOXB
_audit_creation_date 1981-02-05
_audit_creation_method CSD-ConQuest-V1
_database_code_CSD DMTOXB
_database_code_depnum_ccdc_archive 'CCDC 1142895'
_chemical_formula_sum 'C14 H19 N1 O1'
_chemical_formula_moiety
;
C14 H19 N1 O1
;
_journal_coden_Cambridge 54
_journal_volume 88
_journal_year 1979
_journal_page_first 1019
_journal_name_full 'Bull.Soc.Chim.Belg. '
loop_
_publ_author_name
"J.P.Declercq"
"G.Germain"
"M.van Meerssche"
"M.Hajek"
"K.Volka"
_chemical_name_systematic
;
(Z)-Diamantan-3-one-oxime
;
_cell_volume   1150.026
_exptl_crystal_density_diffrn 1.25
_diffrn_ambient_temperature ?
_diffrn_special_details
;
The study was carried out at room temperature,in the range 283-303K

;
#These two values have been output from a single CSD field.
_refine_ls_R_factor_gt 0.064
_refine_ls_wR_factor_gt 0.064
loop_
_citation_database_id_CSD
_citation_special_details
DMTOXA "is a stereoisomer of this entry"
_symmetry_cell_setting monoclinic
_symmetry_space_group_name_H-M 'P 21/n'
_symmetry_Int_Tables_number 14
loop_
_symmetry_equiv_pos_site_id
_symmetry_equiv_pos_as_xyz
1 x,y,z
2 1/2-x,1/2+y,1/2-z
3 -x,-y,-z
4 -1/2+x,-1/2-y,-1/2+z
_cell_length_a 14.407(4)
_cell_length_b 12.083(4)
_cell_length_c 6.616(3)
_cell_angle_alpha 90
_cell_angle_beta 93.10(2)
_cell_angle_gamma 90
_cell_formula_units_Z 4
loop_
_atom_type_symbol
_atom_type_radius_bond
C 0.68
H 0.23
N 0.68
O 0.68
loop_
_atom_site_label
_atom_site_type_symbol
_atom_site_fract_x
_atom_site_fract_y
_atom_site_fract_z
C1 C 0.31260 0.36670 0.70160
C2 C 0.25440 0.39440 0.50470
C3 C 0.15530 0.36230 0.53160
C4 C 0.14210 0.24250 0.58060
C5 C 0.17900 0.17380 0.40630
C6 C 0.28110 0.20220 0.37960
C7 C 0.29250 0.32520 0.33080
C8 C 0.39490 0.35440 0.30790
C9 C 0.45080 0.32570 0.50200
C10 C 0.44180 0.20320 0.54970
C11 C 0.33980 0.17620 0.57560
C12 C 0.30160 0.24390 0.74960
C13 C 0.19920 0.21680 0.77740
C14 C 0.41500 0.39540 0.67580
N1 N 0.08410 0.42400 0.51450
O1 O 0.10510 0.53480 0.46380
H1 H 0.29530 0.41450 0.80360
H2 H 0.25470 0.46910 0.48300
H3 H 0.07900 0.22590 0.60350
H4 H 0.17630 0.09160 0.43900
H5 H 0.13760 0.19930 0.27130
H6 H 0.30460 0.15670 0.25670
H7 H 0.25200 0.34290 0.21270
H8 H 0.39500 0.43450 0.27490
H9 H 0.42010 0.31030 0.18650
H10 H 0.51210 0.34600 0.48870
H11 H 0.47720 0.18500 0.68780
H12 H 0.45980 0.15940 0.42830
H13 H 0.33600 0.09820 0.60080
H14 H 0.33870 0.23010 0.87730
H15 H 0.19040 0.13650 0.81950
H16 H 0.17750 0.26000 0.88880
H17 H 0.41780 0.48400 0.63000
H18 H 0.45520 0.37380 0.81610
H19 H 0.04580 0.55560 0.46240
#END
