
#######################################################################
#
#                 Cambridge Crystallographic Data Centre
#                                CCDC
#
#######################################################################
#
# If this CIF has been generated from an entry in the Cambridge
# Structural Database, then it will include bibliographic, chemical,
# crystal, experimental, refinement or atomic coordinate data resulting
# from the CCDC's data processing and validation procedures.
#
#######################################################################

data_CSD_CIF_DMXCYT
_audit_creation_date 1977-05-06
_audit_creation_method CSD-ConQuest-V1
_database_code_CSD DMXCYT
_database_code_depnum_ccdc_archive 'CCDC 1142928'
_chemical_formula_sum 'C6 H9 N3 O2'
_chemical_formula_moiety
;
C6 H9 N3 O2
;
_journal_coden_Cambridge 113
_journal_volume 447
_journal_year 1976
_journal_page_first 274
_journal_name_full 'Biochim.Biophys.Acta '
loop_
_publ_author_name
"D.Shugar"
"C.P.Huber"
"G.I.Birnbaum"
_chemical_name_systematic
;
1,5-Dimethyl-N^4^-hydroxycytosine
;
_chemical_melting_point 487.15
_cell_volume    748.745
_exptl_crystal_density_diffrn 1.376
_exptl_special_details
;
Melting point range 487.15-488.15K

;
_diffrn_ambient_temperature ?
_diffrn_special_details
;
The study was carried out at room temperature,in the range 283-303K

;
#These two values have been output from a single CSD field.
_refine_ls_R_factor_gt 0.053
_refine_ls_wR_factor_gt 0.053
_symmetry_cell_setting monoclinic
_symmetry_space_group_name_H-M 'P 21/c'
_symmetry_Int_Tables_number 14
loop_
_symmetry_equiv_pos_site_id
_symmetry_equiv_pos_as_xyz
1 x,y,z
2 -x,1/2+y,1/2-z
3 -x,-y,-z
4 x,-1/2-y,-1/2+z
_cell_length_a 7.368(2)
_cell_length_b 12.096(3)
_cell_length_c 9.192(4)
_cell_angle_alpha 90
_cell_angle_beta 113.94(3)
_cell_angle_gamma 90
_cell_formula_units_Z 4
loop_
_atom_type_symbol
_atom_type_radius_bond
C 0.68
H 0.23
N 0.68
O 0.68
loop_
_atom_site_label
_atom_site_type_symbol
_atom_site_fract_x
_atom_site_fract_y
_atom_site_fract_z
N1 N 0.24690 0.42370 0.04400
C1 C 0.26450 0.52010 -0.02580
O1 O 0.28040 0.52190 -0.15300
N2 N 0.26440 0.61440 0.05610
C2 C 0.25850 0.61890 0.20490
N3 N 0.26710 0.71080 0.27820
O2 O 0.28430 0.79820 0.18200
C3 C 0.23760 0.51430 0.27270
C4 C 0.23390 0.42360 0.18970
C5 C 0.25060 0.31900 -0.03390
C6 C 0.21980 0.51210 0.42860
H1 H 0.27500 0.67500 0.00700
H2 H 0.28600 0.84900 0.24100
H3 H 0.21600 0.35700 0.22600
H4 H 0.19200 0.32900 -0.14400
H5 H 0.13900 0.27600 -0.04100
H6 H 0.37100 0.28100 0.01900
H7 H 0.32900 0.54000 0.52500
H8 H 0.19800 0.44400 0.45400
H9 H 0.11000 0.55300 0.41800
#END
