
#######################################################################
#
#                 Cambridge Crystallographic Data Centre
#                                CCDC
#
#######################################################################
#
# If this CIF has been generated from an entry in the Cambridge
# Structural Database, then it will include bibliographic, chemical,
# crystal, experimental, refinement or atomic coordinate data resulting
# from the CCDC's data processing and validation procedures.
#
#######################################################################

data_CSD_CIF_DMXZHX
_audit_creation_date 1974-05-08
_audit_creation_method CSD-ConQuest-V1
_database_code_CSD DMXZHX
_database_code_depnum_ccdc_archive 'CCDC 1142940'
_chemical_formula_sum 'C14 H24 N2 O4'
_chemical_formula_moiety
;
C14 H24 N2 O4
;
_journal_coeditor_code "IUCr A10409"
_journal_coden_Cambridge 107
_journal_volume 29
_journal_year 1973
_journal_page_first 2959
_journal_name_full 'Acta Crystallogr.,Sect.B:Struct.Crystallogr.Cryst.Chem. '
loop_
_publ_author_name
"W.B.Gleason"
_chemical_name_systematic
;
1,4-bis-Spiro(4',4'-dimethyloxazolidine-N-oxyl)cyclohexane
;
_cell_volume    751.541
_exptl_crystal_density_diffrn 1.25
_diffrn_ambient_temperature ?
_diffrn_special_details
;
The study was carried out at room temperature,in the range 283-303K

;
#These two values have been output from a single CSD field.
_refine_ls_R_factor_gt 0.147
_refine_ls_wR_factor_gt 0.147
_symmetry_cell_setting monoclinic
_symmetry_space_group_name_H-M 'P 21/a'
_symmetry_Int_Tables_number 14
loop_
_symmetry_equiv_pos_site_id
_symmetry_equiv_pos_as_xyz
1 x,y,z
2 1/2-x,1/2+y,-z
3 -x,-y,-z
4 -1/2+x,-1/2-y,z
_cell_length_a 10.539(11)
_cell_length_b 5.662(6)
_cell_length_c 12.766(13)
_cell_angle_alpha 90
_cell_angle_beta 99.4(1)
_cell_angle_gamma 90
_cell_formula_units_Z 2
loop_
_atom_type_symbol
_atom_type_radius_bond
C 0.68
N 0.68
O 0.68
loop_
_atom_site_label
_atom_site_type_symbol
_atom_site_fract_x
_atom_site_fract_y
_atom_site_fract_z
C1 C 0.47500 -0.46300 0.38500
C2 C 0.42100 -0.68400 0.43600
C3 C 0.60000 -0.37000 0.44900
C4 C 0.31300 -0.28800 0.26500
C5 C 0.40000 -0.40300 0.19300
C6 C 0.47500 -0.23200 0.13300
C7 C 0.32400 -0.58100 0.12000
N1 N 0.50000 -0.52600 0.27500
O1 O 0.58500 -0.66700 0.25600
O2 O 0.37800 -0.28800 0.36500
C3B C 0.40000 -0.63000 0.55100
C2B C 0.57900 -0.31600 0.56400
C1B C 0.52500 -0.53700 0.61500
N1B N 0.50000 -0.47400 0.72500
O2B O 0.62200 -0.71200 0.63500
C5B C 0.60000 -0.59700 0.80700
O1B O 0.41500 -0.33300 0.74400
C4B C 0.68700 -0.71200 0.73500
C6B C 0.52500 -0.76800 0.86700
C7B C 0.67600 -0.41900 0.88000
#END
