
#######################################################################
#
#                 Cambridge Crystallographic Data Centre
#                                CCDC
#
#######################################################################
#
# If this CIF has been generated from an entry in the Cambridge
# Structural Database, then it will include bibliographic, chemical,
# crystal, experimental, refinement or atomic coordinate data resulting
# from the CCDC's data processing and validation procedures.
#
#######################################################################

data_CSD_CIF_DNBENZ13
_audit_creation_date 2003-02-20
_audit_creation_method CSD-ConQuest-V1
_database_code_CSD DNBENZ13
_database_code_depnum_ccdc_archive 'CCDC 201617'
_chemical_formula_sum 'C6 H4 N2 O4'
_chemical_formula_moiety
;
C6 H4 N2 O4
;
_journal_coeditor_code "IUCr NS0009"
_journal_coden_Cambridge 622
_journal_volume 58
_journal_year 2002
_journal_page_first 998
_journal_name_full 'Acta Crystallogr.,Sect.B:Struct.Sci. '
loop_
_publ_author_name
"G.Wojcik"
"I.Mossakowska"
"J.Holband"
"W.Bartkowiak"
_chemical_name_systematic
;
1,3-Dinitrobenzene
;
_chemical_name_common
;
m-Dinitrobenzene
;
_chemical_melting_point 364
_cell_volume    690.149
_exptl_crystal_colour 'colorless'
_exptl_crystal_density_diffrn 1.618
_exptl_crystal_description 'prism'
_exptl_crystal_preparation 'methanol'
_diffrn_ambient_temperature 160.0
#These two values have been output from a single CSD field.
_refine_ls_R_factor_gt 0.054
_refine_ls_wR_factor_gt 0.054
_symmetry_cell_setting orthorhombic
_symmetry_space_group_name_H-M 'P n a 21'
_symmetry_Int_Tables_number 33
loop_
_symmetry_equiv_pos_site_id
_symmetry_equiv_pos_as_xyz
1 x,y,z
2 -x,-y,1/2+z
3 1/2+x,1/2-y,z
4 1/2-x,1/2+y,1/2+z
_cell_length_a 14.052(4)
_cell_length_b 13.224(4)
_cell_length_c 3.714(1)
_cell_angle_alpha 90
_cell_angle_beta 90
_cell_angle_gamma 90
_cell_formula_units_Z 4
loop_
_atom_type_symbol
_atom_type_radius_bond
C 0.68
H 0.23
N 0.68
O 0.68
loop_
_atom_site_label
_atom_site_type_symbol
_atom_site_fract_x
_atom_site_fract_y
_atom_site_fract_z
C1 C 0.36491(18) 0.63742(18) 0.1775(8)
C2 C 0.44928(17) 0.6793(2) 0.2991(8)
H1 H 0.49830 0.64010 0.39270
C3 C 0.45593(18) 0.7836(2) 0.2724(8)
C4 C 0.3837(2) 0.8442(2) 0.1412(9)
H2 H 0.39090 0.91400 0.12900
C5 C 0.29996(19) 0.7981(2) 0.0279(9)
H3 H 0.25010 0.83750 -0.05870
C6 C 0.29026(17) 0.6937(2) 0.0434(8)
H4 H 0.23470 0.66250 -0.03500
N1 N 0.35429(18) 0.52676(18) 0.1913(8)
N2 N 0.54545(17) 0.8311(2) 0.3934(9)
O1 O 0.28720(19) 0.48880(18) 0.0329(10)
O2 O 0.41256(18) 0.47775(17) 0.3635(8)
O3 O 0.59988(16) 0.7797(2) 0.5720(9)
O4 O 0.5604(2) 0.9186(2) 0.3036(11)
#END
