
#######################################################################
#
#                 Cambridge Crystallographic Data Centre
#                                CCDC
#
#######################################################################
#
# If this CIF has been generated from an entry in the Cambridge
# Structural Database, then it will include bibliographic, chemical,
# crystal, experimental, refinement or atomic coordinate data resulting
# from the CCDC's data processing and validation procedures.
#
#######################################################################

data_CSD_CIF_DNBENZ12
_audit_creation_date 2003-02-20
_audit_creation_method CSD-ConQuest-V1
_database_code_CSD DNBENZ12
_database_code_depnum_ccdc_archive 'CCDC 201616'
_chemical_formula_sum 'C6 H4 N2 O4'
_chemical_formula_moiety
;
C6 H4 N2 O4
;
_journal_coeditor_code "IUCr NS0009"
_journal_coden_Cambridge 622
_journal_volume 58
_journal_year 2002
_journal_page_first 998
_journal_name_full 'Acta Crystallogr.,Sect.B:Struct.Sci. '
loop_
_publ_author_name
"G.Wojcik"
"I.Mossakowska"
"J.Holband"
"W.Bartkowiak"
_chemical_name_systematic
;
1,3-Dinitrobenzene
;
_chemical_name_common
;
m-Dinitrobenzene
;
_chemical_melting_point 364
_cell_volume    685.017
_exptl_crystal_colour 'colorless'
_exptl_crystal_density_diffrn 1.63
_exptl_special_details
;
Cif has cell temperature of 130.0 K and main diffraction temperature of 293 K

;
_exptl_crystal_description 'prism'
_exptl_crystal_preparation 'methanol'
_diffrn_ambient_temperature 130
#These two values have been output from a single CSD field.
_refine_ls_R_factor_gt 0.0561
_refine_ls_wR_factor_gt 0.0561
_symmetry_cell_setting orthorhombic
_symmetry_space_group_name_H-M 'P n a 21'
_symmetry_Int_Tables_number 33
loop_
_symmetry_equiv_pos_site_id
_symmetry_equiv_pos_as_xyz
1 x,y,z
2 -x,-y,1/2+z
3 1/2+x,1/2-y,z
4 1/2-x,1/2+y,1/2+z
_cell_length_a 14.040(4)
_cell_length_b 13.208(4)
_cell_length_c 3.694(1)
_cell_angle_alpha 90
_cell_angle_beta 90
_cell_angle_gamma 90
_cell_formula_units_Z 4
loop_
_atom_type_symbol
_atom_type_radius_bond
C 0.68
H 0.23
N 0.68
O 0.68
loop_
_atom_site_label
_atom_site_type_symbol
_atom_site_fract_x
_atom_site_fract_y
_atom_site_fract_z
C1 C 0.36493(17) 0.63705(17) 0.1135(8)
C2 C 0.44924(16) 0.67942(18) -0.0072(8)
H1 H 0.49850 0.64030 -0.10100
C3 C 0.45566(17) 0.78366(18) 0.0203(8)
C4 C 0.38288(19) 0.84386(19) 0.1526(8)
H2 H 0.39000 0.91380 0.16680
C5 C 0.29903(18) 0.7976(2) 0.2638(9)
H3 H 0.24880 0.83680 0.34950
C6 C 0.28984(16) 0.69346(19) 0.2476(8)
H4 H 0.23420 0.66200 0.32540
N1 N 0.35452(16) 0.52611(16) 0.0997(8)
N2 N 0.54514(16) 0.83197(19) -0.0992(8)
O1 O 0.28751(18) 0.48792(17) 0.2605(9)
O2 O 0.41332(16) 0.47723(15) -0.0721(8)
O3 O 0.59999(15) 0.7809(2) -0.2807(8)
O4 O 0.56027(18) 0.91928(16) -0.0059(10)
#END
