
#######################################################################
#
#                 Cambridge Crystallographic Data Centre
#                                CCDC
#
#######################################################################
#
# If this CIF has been generated from an entry in the Cambridge
# Structural Database, then it will include bibliographic, chemical,
# crystal, experimental, refinement or atomic coordinate data resulting
# from the CCDC's data processing and validation procedures.
#
#######################################################################

data_CSD_CIF_DNBENZ10
_audit_creation_date 1971-12-31
_audit_creation_method CSD-ConQuest-V1
_database_code_CSD DNBENZ10
_chemical_formula_sum 'C6 H4 N2 O4'
_chemical_formula_moiety
;
C6 H4 N2 O4
;
_journal_coeditor_code "IUCr A05223"
_journal_coden_Cambridge 1
_journal_volume 21
_journal_year 1966
_journal_page_first 285
_journal_name_full 'Acta Crystallogr. '
loop_
_publ_author_name
"J.Trotter"
"C.S.Williston"
_chemical_name_systematic
;
m-Dinitrobenzene
;
_cell_volume    708.808
_diffrn_ambient_temperature ?
_diffrn_special_details
;
The study was carried out at room temperature,in the range 283-303K

;
#These two values have been output from a single CSD field.
_refine_ls_R_factor_gt 0.097
_refine_ls_wR_factor_gt 0.097
_symmetry_cell_setting orthorhombic
_symmetry_space_group_name_H-M 'P b n 21'
_symmetry_Int_Tables_number 33
loop_
_symmetry_equiv_pos_site_id
_symmetry_equiv_pos_as_xyz
1 x,y,z
2 1/2-x,1/2+y,z
3 1/2+x,1/2-y,1/2+z
4 -x,-y,1/2+z
_cell_length_a 13.257
_cell_length_b 14.048
_cell_length_c 3.806
_cell_angle_alpha 90
_cell_angle_beta 90
_cell_angle_gamma 90
_cell_formula_units_Z 4
loop_
_atom_type_symbol
_atom_type_radius_bond
C 0.68
H 0.20
N 0.68
O 0.68
loop_
_atom_site_label
_atom_site_type_symbol
_atom_site_fract_x
_atom_site_fract_y
_atom_site_fract_z
C1 C 0.13990 0.36520 -0.02980
C2 C 0.18000 0.44930 -0.14730
C3 C 0.28280 0.45760 -0.11980
C4 C 0.34500 0.38600 -0.00370
C5 C 0.30000 0.30420 0.12570
C6 C 0.19710 0.29340 0.11010
H1 H 0.13900 0.48900 -0.36000
H2 H 0.40900 0.39900 0.02900
H3 H 0.32600 0.24600 0.08000
H4 H 0.16400 0.23900 0.14100
N1 N 0.02880 0.35310 -0.04160
N2 N 0.32970 0.54690 -0.25060
O1 O -0.00670 0.28500 0.12680
O2 O -0.02000 0.41080 -0.19860
O3 O 0.27560 0.60090 -0.41330
O4 O 0.41610 0.56270 -0.15120
#END
