
#######################################################################
#
#                 Cambridge Crystallographic Data Centre
#                                CCDC
#
#######################################################################
#
# If this CIF has been generated from an entry in the Cambridge
# Structural Database, then it will include bibliographic, chemical,
# crystal, experimental, refinement or atomic coordinate data resulting
# from the CCDC's data processing and validation procedures.
#
#######################################################################

data_CSD_CIF_DNBZIL
_audit_creation_date 1979-05-25
_audit_creation_method CSD-ConQuest-V1
_database_code_CSD DNBZIL
_chemical_formula_sum 'C14 H8 N2 O6'
_chemical_formula_moiety
;
C14 H8 N2 O6
;
_journal_coeditor_code "IUCr A17300"
_journal_coden_Cambridge 107
_journal_volume 35
_journal_year 1979
_journal_page_first 483
_journal_name_full 'Acta Crystallogr.,Sect.B:Struct.Crystallogr.Cryst.Chem. '
loop_
_publ_author_name
"M.Kimura"
"R.E.McCluney"
"W.H.Watson"
_chemical_name_systematic
;
4,4'-Dinitrobenzil
;
_chemical_melting_point 483
_cell_volume    645.799
_exptl_crystal_density_diffrn 1.861
_exptl_special_details
;
Melting point range 483-5K

;
_diffrn_ambient_temperature ?
_diffrn_special_details
;
The study was carried out at room temperature,in the range 283-303K

;
#These two values have been output from a single CSD field.
_refine_ls_R_factor_gt 0.059
_refine_ls_wR_factor_gt 0.059
_symmetry_cell_setting triclinic
_symmetry_space_group_name_H-M 'P -1'
_symmetry_Int_Tables_number 2
loop_
_symmetry_equiv_pos_site_id
_symmetry_equiv_pos_as_xyz
1 x,y,z
2 -x,-y,-z
_cell_length_a 7.829(4)
_cell_length_b 13.467(8)
_cell_length_c 7.187(5)
_cell_angle_alpha 94.07(5)
_cell_angle_beta 59.14(4)
_cell_angle_gamma 87.35(5)
_cell_formula_units_Z 2
loop_
_atom_type_symbol
_atom_type_radius_bond
C 0.68
H 0.23
N 0.68
O 0.68
loop_
_atom_site_label
_atom_site_type_symbol
_atom_site_fract_x
_atom_site_fract_y
_atom_site_fract_z
O1 O 0.56720 0.70440 0.43440
C1 C 0.58150 0.71940 0.59400
C2 C 0.64320 0.63870 0.68510
C3 C 0.69030 0.54210 0.57960
C4 C 0.75650 0.46600 0.65310
C5 C 0.77190 0.48900 0.83300
C6 C 0.72630 0.58300 0.94140
C7 C 0.66130 0.65940 0.86490
N1 N 0.84590 0.40790 0.91270
O2 O 0.91510 0.32990 0.79610
O3 O 0.82920 0.42350 1.08990
O4 O 0.37540 0.84090 0.88790
C8 C 0.52490 0.82640 0.70820
C9 C 0.64560 0.90820 0.59180
C10 C 0.58390 1.00630 0.69180
C11 C 0.69100 1.08410 0.59140
C12 C 0.86190 1.06200 0.38860
C13 C 0.92950 0.96620 0.28590
C14 C 0.81930 0.88840 0.38780
N2 N 0.97980 1.14490 0.27970
O5 O 0.91850 1.22950 0.36900
O6 O 1.13680 1.12490 0.10590
H1 H 0.67900 0.53100 0.46400
H2 H 0.78500 0.40000 0.57900
H3 H 0.74400 0.59900 1.06500
H4 H 0.63400 0.72400 0.93800
H5 H 0.47300 1.01600 0.82300
H6 H 0.65500 1.15000 0.65600
H7 H 1.04400 0.95500 0.15500
H8 H 0.85700 0.82200 0.31500
#END
