
#######################################################################
#
#                 Cambridge Crystallographic Data Centre
#                                CCDC
#
#######################################################################
#
# If this CIF has been generated from an entry in the Cambridge
# Structural Database, then it will include bibliographic, chemical,
# crystal, experimental, refinement or atomic coordinate data resulting
# from the CCDC's data processing and validation procedures.
#
#######################################################################

data_CSD_CIF_DNBZPY02
_audit_creation_date 2003-06-05
_audit_creation_method CSD-ConQuest-V1
_database_code_CSD DNBZPY02
_database_code_depnum_ccdc_archive 'CCDC 205041'
_chemical_formula_sum 'C12 H9 N3 O4'
_chemical_formula_moiety
;
C12 H9 N3 O4
;
_journal_coden_Cambridge 4
_journal_volume 124
_journal_year 2002
_journal_page_first 8540
_journal_name_full 'J.Am.Chem.Soc. '
loop_
_publ_author_name
"P.Naumov"
"A.Sekine"
"H.Uekusa"
"Y.Ohashi"
_chemical_name_systematic
;
2-(2',4'-Dinitrobenzyl)pyridine
;
_cell_volume   1142.349
_exptl_crystal_colour 'colorless'
_exptl_crystal_density_diffrn 1.507
_diffrn_ambient_temperature 75
#These two values have been output from a single CSD field.
_refine_ls_R_factor_gt 0.0333
_refine_ls_wR_factor_gt 0.0333
_symmetry_cell_setting monoclinic
_symmetry_space_group_name_H-M 'P 21/c'
_symmetry_Int_Tables_number 14
loop_
_symmetry_equiv_pos_site_id
_symmetry_equiv_pos_as_xyz
1 x,y,z
2 -x,1/2+y,1/2-z
3 -x,-y,-z
4 x,-1/2-y,-1/2+z
_cell_length_a 9.9666(1)
_cell_length_b 15.2076(2)
_cell_length_c 7.6800(1)
_cell_angle_alpha 90
_cell_angle_beta 101.079(1)
_cell_angle_gamma 90
_cell_formula_units_Z 4
loop_
_atom_type_symbol
_atom_type_radius_bond
C 0.68
H 0.23
N 0.68
O 0.68
loop_
_atom_site_label
_atom_site_type_symbol
_atom_site_fract_x
_atom_site_fract_y
_atom_site_fract_z
O1 O 0.95897(7) -0.14648(5) 0.10145(10)
O2 O 0.86461(8) -0.25427(5) 0.21906(10)
O3 O 0.45509(9) -0.37272(5) -0.14157(11)
O4 O 0.33184(9) -0.29068(6) -0.34389(12)
N1 N 0.76187(9) -0.03451(6) 0.30271(11)
N2 N 0.85942(9) -0.19134(6) 0.11736(11)
N3 N 0.42813(9) -0.30210(6) -0.21856(12)
C1 C 0.78095(11) -0.00982(7) 0.47439(13)
H1 H 0.74680 -0.04720 0.55490
C2 C 0.84728(10) 0.06675(7) 0.54066(13)
H2 H 0.85740 0.08150 0.66270
C3 C 0.89867(10) 0.12140(7) 0.42380(14)
H3 H 0.94570 0.17400 0.46470
C4 C 0.87976(10) 0.09744(7) 0.24560(13)
H4 H 0.91390 0.13340 0.16280
C5 C 0.80964(9) 0.01940(6) 0.19067(12)
C6 C 0.7821(1) -0.00431(6) -0.00571(12)
C7 C 0.69244(10) -0.08431(6) -0.05432(12)
C8 C 0.72597(9) -0.17050(7) 0.00401(12)
C9 C 0.64051(10) -0.24203(7) -0.04417(13)
H5 H 0.66530 -0.29940 -0.00050
C10 C 0.51724(10) -0.22627(7) -0.15887(13)
C11 C 0.47727(10) -0.14311(7) -0.22115(13)
H6 H 0.39240 -0.13420 -0.29990
C12 C 0.5644(1) -0.07294(6) -0.16564(13)
H7 H 0.53630 -0.01530 -0.20440
H8 H 0.86680 -0.01400 -0.04660
H9 H 0.73920 0.04330 -0.06910
#END
