
#######################################################################
#
#                 Cambridge Crystallographic Data Centre
#                                CCDC
#
#######################################################################
#
# If this CIF has been generated from an entry in the Cambridge
# Structural Database, then it will include bibliographic, chemical,
# crystal, experimental, refinement or atomic coordinate data resulting
# from the CCDC's data processing and validation procedures.
#
#######################################################################

data_CSD_CIF_DNBZFX01
_audit_creation_date 2005-02-17
_audit_creation_method CSD-ConQuest-V1
_database_code_CSD DNBZFX01
_database_code_depnum_ccdc_archive 'CCDC 213710'
_chemical_formula_sum 'C6 H2 N4 O6'
_chemical_formula_moiety
;
C6 H2 N4 O6
;
_journal_coden_Cambridge 584
_journal_volume 24
_journal_year 2004
_journal_page_first 205
_journal_name_full 'Youji Huaxue(Chin.)(Chin.J.Org.Chem.) '
loop_
_publ_author_name
"Yan-Ling Miao"
"Tong-Lai Zhang"
"Xiao-Jing Qiao"
"Jian-Guo Zhang"
"Kai-Bei Yu"
_chemical_name_systematic
;
4,6-Dinitrobenzofurazan-1-oxide
;
_chemical_name_common
;
4,6-Dinitrobenzofuroxan
;
_chemical_melting_point 446.15
_cell_volume    426.894
_exptl_crystal_density_diffrn 1.759
_diffrn_ambient_temperature 288
#These two values have been output from a single CSD field.
_refine_ls_R_factor_gt 0.0483
_refine_ls_wR_factor_gt 0.0483
_symmetry_cell_setting monoclinic
_symmetry_space_group_name_H-M 'P 21'
_symmetry_Int_Tables_number 4
loop_
_symmetry_equiv_pos_site_id
_symmetry_equiv_pos_as_xyz
1 x,y,z
2 -x,1/2+y,-z
_cell_length_a 7.408(2)
_cell_length_b 6.185(1)
_cell_length_c 9.796(2)
_cell_angle_alpha 90
_cell_angle_beta 107.99(2)
_cell_angle_gamma 90
_cell_formula_units_Z 2
loop_
_atom_type_symbol
_atom_type_radius_bond
C 0.68
H 0.23
N 0.68
O 0.68
loop_
_atom_site_label
_atom_site_type_symbol
_atom_site_fract_x
_atom_site_fract_y
_atom_site_fract_z
O1 O -0.3494(5) -0.0569(7) 0.2685(4)
O2 O -0.5345(5) 0.1884(9) 0.1167(4)
O3 O 0.2113(6) -0.1237(7) 0.4952(4)
O4 O 0.4283(5) 0.1115(8) 0.4992(4)
O5 O 0.2427(6) 0.7166(8) 0.1718(4)
O6 O -0.0520(6) 0.7945(6) 0.0710(4)
N1 N -0.3762(5) 0.1333(7) 0.1906(4)
N2 N -0.1538(7) -0.0769(8) 0.3468(4)
N3 N 0.2678(6) 0.0461(7) 0.4584(4)
N4 N 0.0752(6) 0.6816(6) 0.1438(4)
C1 C -0.0691(6) 0.0985(6) 0.3107(4)
C2 C 0.1209(5) 0.1720(7) 0.3538(4)
C3 C 0.1680(5) 0.3600(7) 0.3006(3)
H1 H 0.29340 0.40710 0.32760
C4 C 0.0246(5) 0.4802(6) 0.2051(4)
C5 C -0.1615(5) 0.4230(7) 0.1593(4)
H2 H -0.25420 0.50570 0.09480
C6 C -0.2018(5) 0.2299(7) 0.2170(4)
#END
