
#######################################################################
#
#                 Cambridge Crystallographic Data Centre
#                                CCDC
#
#######################################################################
#
# If this CIF has been generated from an entry in the Cambridge
# Structural Database, then it will include bibliographic, chemical,
# crystal, experimental, refinement or atomic coordinate data resulting
# from the CCDC's data processing and validation procedures.
#
#######################################################################

data_CSD_CIF_DNEIBA
_audit_creation_date 1975-08-29
_audit_creation_method CSD-ConQuest-V1
_database_code_CSD DNEIBA
_chemical_formula_sum 'C9 H8 N4 O5'
_chemical_formula_moiety
;
C9 H8 N4 O5
;
_journal_coeditor_code "IUCr A12102"
_journal_coden_Cambridge 107
_journal_volume 31
_journal_year 1975
_journal_page_first 1121
_journal_name_full 'Acta Crystallogr.,Sect.B:Struct.Crystallogr.Cryst.Chem. '
loop_
_publ_author_name
"J.Iball"
"S.N.Scrimgeour"
"B.C.Williams"
_chemical_name_systematic
;
2,4-Dinitro-5-ethyleneimino-benzamide
;
_cell_volume    525.372
_exptl_crystal_density_diffrn 1.593
_diffrn_ambient_temperature ?
_diffrn_special_details
;
The study was carried out at room temperature,in the range 283-303K

;
#These two values have been output from a single CSD field.
_refine_ls_R_factor_gt 0.074
_refine_ls_wR_factor_gt 0.074
_symmetry_cell_setting triclinic
_symmetry_space_group_name_H-M 'P -1'
_symmetry_Int_Tables_number 2
loop_
_symmetry_equiv_pos_site_id
_symmetry_equiv_pos_as_xyz
1 x,y,z
2 -x,-y,-z
_cell_length_a 9.945(5)
_cell_length_b 8.989(5)
_cell_length_c 7.633(5)
_cell_angle_alpha 116.53
_cell_angle_beta 99.64
_cell_angle_gamma 110.83
_cell_formula_units_Z 2
loop_
_atom_type_symbol
_atom_type_radius_bond
C 0.68
H 0.23
N 0.68
O 0.68
loop_
_atom_site_label
_atom_site_type_symbol
_atom_site_fract_x
_atom_site_fract_y
_atom_site_fract_z
C1 C 0.12050 0.24760 -0.49770
C2 C 0.01890 0.25050 -0.38980
C3 C -0.12060 0.24450 -0.46320
C4 C -0.16010 0.23970 -0.65250
C5 C -0.06460 0.24070 -0.76170
C6 C 0.07390 0.24290 -0.68670
C7 C 0.41230 0.38340 -0.32900
C8 C 0.34020 0.32760 -0.19870
C9 C -0.21640 0.26280 -0.32800
H1 H 0.05800 0.25400 -0.26700
H2 H -0.27100 0.01700 -0.36700
H3 H -0.32300 0.13300 -0.22500
H4 H -0.10000 0.23100 -0.89600
H5 H 0.42500 0.49800 -0.31200
H6 H 0.48100 0.36000 -0.37300
H7 H 0.31300 0.40600 -0.10800
H8 H 0.36700 0.25600 -0.14800
N1 N 0.24940 0.23050 -0.42810
N2 N 0.15870 0.21950 -0.82750
N3 N -0.31230 0.21780 -0.74820
N4 N -0.27450 0.11890 -0.30270
O1 O -0.22940 0.40520 -0.24480
O2 O -0.41930 0.14440 -0.70690
O3 O -0.32490 0.27150 -0.86990
O4 O 0.28750 0.23710 -0.76530
O5 O 0.09320 0.17500 -1.00790
#END
