
#######################################################################
#
#                 Cambridge Crystallographic Data Centre
#                                CCDC
#
#######################################################################
#
# If this CIF has been generated from an entry in the Cambridge
# Structural Database, then it will include bibliographic, chemical,
# crystal, experimental, refinement or atomic coordinate data resulting
# from the CCDC's data processing and validation procedures.
#
#######################################################################

data_CSD_CIF_DNITBZ11
_audit_creation_date 1980-08-06
_audit_creation_method CSD-ConQuest-V1
_database_code_CSD DNITBZ11
_database_code_depnum_ccdc_archive 'CCDC 1142967'
_chemical_formula_sum 'C6 H4 N2 O4'
_chemical_formula_moiety
;
C6 H4 N2 O4
;
_journal_coeditor_code "IUCr A18663"
_journal_coden_Cambridge 107
_journal_volume 36
_journal_year 1980
_journal_page_first 586
_journal_name_full 'Acta Crystallogr.,Sect.B:Struct.Crystallogr.Cryst.Chem. '
loop_
_publ_author_name
"F.di Rienzo"
"A.Domenicano"
"L.Riva di Sanseverino"
_chemical_name_systematic
;
p-Dinitrobenzene
;
_chemical_melting_point 445.15
_cell_volume    345.025
_exptl_crystal_colour 'pale yellow'
_exptl_crystal_density_diffrn 1.618
_exptl_special_details
;
Melting point range 445.15-447.15K

;
_diffrn_ambient_temperature ?
_diffrn_special_details
;
The study was carried out at room temperature,in the range 283-303K

;
#These two values have been output from a single CSD field.
_refine_ls_R_factor_gt 0.0408
_refine_ls_wR_factor_gt 0.0408
_symmetry_cell_setting monoclinic
_symmetry_space_group_name_H-M 'P 21/n'
_symmetry_Int_Tables_number 14
loop_
_symmetry_equiv_pos_site_id
_symmetry_equiv_pos_as_xyz
1 x,y,z
2 1/2-x,1/2+y,1/2-z
3 -x,-y,-z
4 -1/2+x,-1/2-y,-1/2+z
_cell_length_a 11.134
_cell_length_b 5.459
_cell_length_c 5.681
_cell_angle_alpha 90
_cell_angle_beta 92.26
_cell_angle_gamma 90
_cell_formula_units_Z 2
loop_
_atom_type_symbol
_atom_type_radius_bond
C 0.68
H 0.23
N 0.68
O 0.68
loop_
_atom_site_label
_atom_site_type_symbol
_atom_site_fract_x
_atom_site_fract_y
_atom_site_fract_z
O1 O 0.12257 0.46114 0.38013
O2 O 0.22066 0.47058 0.06034
N1 N 0.14236 0.38916 0.18254
C1 C 0.06794 0.18552 0.08674
C2 C -0.03146 0.11672 0.20710
C3 C 0.10152 0.07449 -0.11810
H1 H -0.05200 0.19400 0.34400
H2 H 0.17200 0.11300 -0.19700
C3B C -0.10152 -0.07449 0.11810
C2B C 0.03146 -0.11672 -0.20710
C1B C -0.06794 -0.18552 -0.08674
H2B H -0.17200 -0.11300 0.19700
H1B H 0.05200 -0.19400 -0.34400
N1B N -0.14236 -0.38916 -0.18254
O1B O -0.12257 -0.46114 -0.38013
O2B O -0.22066 -0.47058 -0.06034
#END
