
#######################################################################
#
#                 Cambridge Crystallographic Data Centre
#                                CCDC
#
#######################################################################
#
# If this CIF has been generated from an entry in the Cambridge
# Structural Database, then it will include bibliographic, chemical,
# crystal, experimental, refinement or atomic coordinate data resulting
# from the CCDC's data processing and validation procedures.
#
#######################################################################

data_CSD_CIF_DNITBZ02
_audit_creation_date 1994-02-15
_audit_creation_method CSD-ConQuest-V1
_database_code_CSD DNITBZ02
_database_code_depnum_ccdc_archive 'CCDC 1142965'
_chemical_formula_sum 'C6 H4 N2 O4'
_chemical_formula_moiety
;
C6 H4 N2 O4
;
_journal_coeditor_code "IUCr AS0633"
_journal_coden_Cambridge 622
_journal_volume 49
_journal_year 1993
_journal_page_first 1031
_journal_name_full 'Acta Crystallogr.,Sect.B:Struct.Sci. '
loop_
_publ_author_name
"M.Tonogaki"
"T.Kawata"
"S.Ohba"
"Y.Iwata"
"I.Shibuya"
_chemical_name_systematic
;
p-Dinitrobenzene
;
_cell_volume    333.510
_exptl_crystal_density_diffrn 1.67
_diffrn_ambient_temperature 120
_refine_special_details
;
high-order refinement

;
#These two values have been output from a single CSD field.
_refine_ls_R_factor_gt 0.03
_refine_ls_wR_factor_gt 0.03
_symmetry_cell_setting monoclinic
_symmetry_space_group_name_H-M 'P 21/n'
_symmetry_Int_Tables_number 14
loop_
_symmetry_equiv_pos_site_id
_symmetry_equiv_pos_as_xyz
1 x,y,z
2 1/2-x,1/2+y,1/2-z
3 -x,-y,-z
4 -1/2+x,-1/2-y,-1/2+z
_cell_length_a 10.941(2)
_cell_length_b 5.3813(5)
_cell_length_c 5.6684(4)
_cell_angle_alpha 90
_cell_angle_beta 92.116(8)
_cell_angle_gamma 90
_cell_formula_units_Z 2
loop_
_atom_type_symbol
_atom_type_radius_bond
C 0.68
H 0.23
N 0.68
O 0.68
loop_
_atom_site_label
_atom_site_type_symbol
_atom_site_fract_x
_atom_site_fract_y
_atom_site_fract_z
O1 O 0.12327(4) 0.46411(9) 0.38947(9)
O2 O 0.22211(4) 0.48358(8) 0.06472(8)
N1 N 0.14335(3) 0.39430(6) 0.18830(7)
C1 C 0.06864(3) 0.18934(6) 0.08987(7)
C2 C -0.03256(4) 0.11346(7) 0.21224(7)
C3 C 0.10316(4) 0.08109(7) -0.12015(7)
H1 H -0.0542(9) 0.1934(17) 0.3586(15)
H2 H 0.1725(9) 0.1338(20) -0.1967(17)
C3B C -0.10316(4) -0.08109(7) 0.12015(7)
C2B C 0.03256(4) -0.11346(7) -0.21224(7)
C1B C -0.06864(3) -0.18934(6) -0.08987(7)
H2B H -0.1725(9) -0.1338(20) 0.1967(17)
H1B H 0.0542(9) -0.1934(17) -0.3586(15)
N1B N -0.14335(3) -0.39430(6) -0.18830(7)
O1B O -0.12327(4) -0.46411(9) -0.38947(9)
O2B O -0.22211(4) -0.48358(8) -0.06472(8)
#END
