
#######################################################################
#
#                 Cambridge Crystallographic Data Centre
#                                CCDC
#
#######################################################################
#
# If this CIF has been generated from an entry in the Cambridge
# Structural Database, then it will include bibliographic, chemical,
# crystal, experimental, refinement or atomic coordinate data resulting
# from the CCDC's data processing and validation procedures.
#
#######################################################################

data_CSD_CIF_DNNAPH
_audit_creation_date 1971-12-31
_audit_creation_method CSD-ConQuest-V1
_database_code_CSD DNNAPH
_chemical_formula_sum 'C10 H6 N2 O4'
_chemical_formula_moiety
;
C10 H6 N2 O4
;
_journal_coeditor_code "IUCr A02741"
_journal_coden_Cambridge 1
_journal_volume 13
_journal_year 1960
_journal_page_first 95
_journal_name_full 'Acta Crystallogr. '
loop_
_publ_author_name
"J.Trotter"
_chemical_name_systematic
;
1,5-Dinitronaphthalene
;
_cell_volume    458.678
_diffrn_ambient_temperature ?
_diffrn_special_details
;
The study was carried out at room temperature,in the range 283-303K

;
#These two values have been output from a single CSD field.
_refine_ls_R_factor_gt 0.088
_refine_ls_wR_factor_gt 0.088
_symmetry_cell_setting monoclinic
_symmetry_space_group_name_H-M 'P 21/a'
_symmetry_Int_Tables_number 14
loop_
_symmetry_equiv_pos_site_id
_symmetry_equiv_pos_as_xyz
1 x,y,z
2 1/2-x,1/2+y,-z
3 -x,-y,-z
4 -1/2+x,-1/2-y,z
_cell_length_a 7.76
_cell_length_b 16.32
_cell_length_c 3.7
_cell_angle_alpha 90
_cell_angle_beta 101.8
_cell_angle_gamma 90
_cell_formula_units_Z 2
loop_
_atom_type_symbol
_atom_type_radius_bond
C 0.68
N 0.68
O 0.68
loop_
_atom_site_label
_atom_site_type_symbol
_atom_site_fract_x
_atom_site_fract_y
_atom_site_fract_z
C1 C 0.08700 0.01600 0.07800
C2 C 0.11700 0.09900 -0.01700
C3 C -0.00900 0.15200 -0.20900
C4 C -0.18200 0.12100 -0.31900
C5 C 0.21300 -0.04100 0.25600
N1 N 0.29500 0.13600 0.09200
O1 O 0.41800 0.09700 0.02800
O2 O 0.30700 0.20000 0.27100
C1B C -0.08700 -0.01600 -0.07800
C5B C -0.21300 0.04100 -0.25600
C4B C 0.18200 -0.12100 0.31900
C2B C -0.11700 -0.09900 0.01700
C3B C 0.00900 -0.15200 0.20900
N1B N -0.29500 -0.13600 -0.09200
O1B O -0.41800 -0.09700 -0.02800
O2B O -0.30700 -0.20000 -0.27100
#END
