
#######################################################################
#
#                 Cambridge Crystallographic Data Centre
#                                CCDC
#
#######################################################################
#
# If this CIF has been generated from an entry in the Cambridge
# Structural Database, then it will include bibliographic, chemical,
# crystal, experimental, refinement or atomic coordinate data resulting
# from the CCDC's data processing and validation procedures.
#
#######################################################################

data_CSD_CIF_DNNEPH10
_audit_creation_date 1972-03-21
_audit_creation_method CSD-ConQuest-V1
_database_code_CSD DNNEPH10
_database_code_depnum_ccdc_archive 'CCDC 1142975'
_chemical_formula_sum 'C10 H6 N2 O2'
_chemical_formula_moiety
;
C10 H6 N2 O2
;
_journal_coeditor_code "IUCr A08230"
_journal_coden_Cambridge 107
_journal_volume 27
_journal_year 1971
_journal_page_first 1310
_journal_name_full 'Acta Crystallogr.,Sect.B:Struct.Crystallogr.Cryst.Chem. '
loop_
_publ_author_name
"C.K.Prout"
"T.S.Cameron"
"R.M.A.Dunn"
"O.J.R.Hodder"
"D.Viterbo"
_chemical_name_systematic
;
1,8-Dinitroso-naphthalene
;
_cell_volume    816.814
_exptl_crystal_density_diffrn 1.513
_diffrn_ambient_temperature ?
_diffrn_special_details
;
The study was carried out at room temperature,in the range 283-303K

;
#These two values have been output from a single CSD field.
_refine_ls_R_factor_gt 0.078
_refine_ls_wR_factor_gt 0.078
_symmetry_cell_setting monoclinic
_symmetry_space_group_name_H-M 'P 1 1 21/b'
_symmetry_Int_Tables_number 14
loop_
_symmetry_equiv_pos_site_id
_symmetry_equiv_pos_as_xyz
1 x,y,z
2 -x,1/2-y,1/2+z
3 -x,-y,-z
4 x,-1/2+y,-1/2-z
_cell_length_a 13.13(3)
_cell_length_b 16.01(3)
_cell_length_c 3.89(1)
_cell_angle_alpha 90
_cell_angle_beta 90
_cell_angle_gamma 92.7(3)
_cell_formula_units_Z 4
loop_
_atom_type_symbol
_atom_type_radius_bond
C 0.68
H 0.20
N 0.68
O 0.68
loop_
_atom_site_label
_atom_site_type_symbol
_atom_site_fract_x
_atom_site_fract_y
_atom_site_fract_z
C1 C 0.33420 -0.56630 -0.16390
C2 C 0.16180 -0.54870 0.08430
C3 C 0.36190 -0.48460 -0.07700
C4 C 0.28610 -0.43490 0.09880
C5 C 0.18970 -0.46470 0.18310
C6 C 0.06730 -0.59300 0.12520
C7 C 0.05600 -0.67480 -0.00550
C8 C 0.13450 -0.72030 -0.18630
C9 C 0.22570 -0.67880 -0.21570
C10 C 0.23760 -0.59640 -0.08340
H1 H 0.43700 -0.46030 -0.14090
H2 H 0.30440 -0.36970 0.16500
H3 H 0.15090 -0.41550 0.33470
H4 H -0.00410 -0.57520 0.25280
H5 H -0.01680 -0.70550 0.02720
H6 H 0.12370 -0.78430 -0.29420
N1 N 0.38480 -0.63320 -0.35100
N2 N 0.32030 -0.70090 -0.38310
O1 O 0.47380 -0.63440 -0.48190
O2 O 0.34430 -0.76770 -0.54500
#END
