
#######################################################################
#
#                 Cambridge Crystallographic Data Centre
#                                CCDC
#
#######################################################################
#
# If this CIF has been generated from an entry in the Cambridge
# Structural Database, then it will include bibliographic, chemical,
# crystal, experimental, refinement or atomic coordinate data resulting
# from the CCDC's data processing and validation procedures.
#
#######################################################################

data_CSD_CIF_DNOPHL03
_audit_creation_date 2017-01-24
_audit_creation_method CSD-ConQuest-V1
_database_code_CSD DNOPHL03
_database_code_depnum_ccdc_archive 'CCDC 1020006'
_chemical_formula_sum 'C6 H4 N2 O5'
_chemical_formula_moiety
;
C6 H4 N2 O5
;
_journal_coden_Cambridge 1078
_journal_year 2016
_journal_name_full 'CSD Communication(Private Communication) '
loop_
_publ_author_name
"P.Muthuraja"
"S.Balachandar"
"M.Sethuram"
"T.Shanmugavadivu"
"M.Dhandapani"
_chemical_name_systematic
;
2,4-dinitrophenol
;
_cell_volume    731.455
_exptl_crystal_colour 'yellow'
_exptl_crystal_density_diffrn 1.672
_exptl_crystal_description 'prism'
_diffrn_ambient_temperature 273
#These two values have been output from a single CSD field.
_refine_ls_R_factor_gt 0.0432
_refine_ls_wR_factor_gt 0.0432
_symmetry_cell_setting orthorhombic
_symmetry_space_group_name_H-M 'P 21 21 21'
_symmetry_Int_Tables_number 19
loop_
_symmetry_equiv_pos_site_id
_symmetry_equiv_pos_as_xyz
1 x,y,z
2 1/2-x,-y,1/2+z
3 -x,1/2+y,1/2-z
4 1/2+x,1/2-y,-z
_cell_length_a 5.1731(16)
_cell_length_b 6.0936(19)
_cell_length_c 23.204(7)
_cell_angle_alpha 90
_cell_angle_beta 90
_cell_angle_gamma 90
_cell_formula_units_Z 4
loop_
_atom_type_symbol
_atom_type_radius_bond
C 0.68
H 0.23
N 0.68
O 0.68
loop_
_atom_site_label
_atom_site_type_symbol
_atom_site_fract_x
_atom_site_fract_y
_atom_site_fract_z
O1 O 0.6318(5) 0.6782(4) 0.09051(9)
H1 H 0.50610 0.72000 0.10900
C1 C 0.9299(5) 0.3715(5) 0.09142(10)
N1 N 0.9555(5) -0.1011(4) 0.19126(11)
O2 O 1.1501(5) -0.1899(4) 0.17378(13)
O3 O 0.8244(5) -0.1740(4) 0.23055(10)
C2 C 1.0087(5) 0.1759(5) 0.11671(11)
H2 H 1.14920 0.09790 0.10240
C3 C 0.6615(5) 0.2140(4) 0.18557(11)
H3 H 0.57230 0.15920 0.21730
C4 C 0.7178(6) 0.4894(4) 0.11242(11)
O4 O 1.2655(5) 0.3479(4) 0.02656(10)
N2 N 1.0783(5) 0.4510(5) 0.04229(10)
C5 C 0.5871(5) 0.4052(5) 0.16016(11)
H4 H 0.44620 0.48140 0.17490
O5 O 1.0065(5) 0.6193(4) 0.01848(11)
C6 C 0.8731(5) 0.1022(4) 0.16330(11)
#END
