
#######################################################################
#
#                 Cambridge Crystallographic Data Centre
#                                CCDC
#
#######################################################################
#
# If this CIF has been generated from an entry in the Cambridge
# Structural Database, then it will include bibliographic, chemical,
# crystal, experimental, refinement or atomic coordinate data resulting
# from the CCDC's data processing and validation procedures.
#
#######################################################################

data_CSD_CIF_DNPBUB
_audit_creation_date 1973-05-10
_audit_creation_method CSD-ConQuest-V1
_database_code_CSD DNPBUB
_database_code_depnum_ccdc_archive 'CCDC 1142978'
_chemical_formula_sum 'C24 H32 N2 O5'
_chemical_formula_moiety
;
C24 H32 N2 O5
;
_journal_coden_Cambridge 15
_journal_volume 50
_journal_year 1972
_journal_page_first 2972
_journal_name_full 'Can.J.Chem. '
loop_
_publ_author_name
"E.A.H.Griffith"
"W.D.Chandler"
"B.E.Robertson"
_chemical_name_systematic
;
2-(2',4'-Dinitrophenoxy)-1,3,5-tri-t-butylbenzene
;
_chemical_melting_point 420.15
_cell_volume   1169.104
_exptl_crystal_density_diffrn 1.2
_exptl_special_details
;
Melting point range 420.15-421.15K

;
_diffrn_ambient_temperature ?
_diffrn_special_details
;
The study was carried out at room temperature,in the range 283-303K

;
#These two values have been output from a single CSD field.
_refine_ls_R_factor_gt 0.053
_refine_ls_wR_factor_gt 0.053
_symmetry_cell_setting triclinic
_symmetry_space_group_name_H-M 'P -1'
_symmetry_Int_Tables_number 2
loop_
_symmetry_equiv_pos_site_id
_symmetry_equiv_pos_as_xyz
1 x,y,z
2 -x,-y,-z
_cell_length_a 12.16(3)
_cell_length_b 10.564(17)
_cell_length_c 10.684(16)
_cell_angle_alpha 119.23(10)
_cell_angle_beta 96.06(15)
_cell_angle_gamma 96.55(15)
_cell_formula_units_Z 2
loop_
_atom_type_symbol
_atom_type_radius_bond
C 0.68
H 0.20
N 0.68
O 0.68
loop_
_atom_site_label
_atom_site_type_symbol
_atom_site_fract_x
_atom_site_fract_y
_atom_site_fract_z
C1 C 0.22360 0.28400 -0.48510
C2 C 0.24540 0.55090 0.04270
C3 C 0.22910 0.39780 -0.03000
C4 C 0.25470 0.31390 -0.16820
C5 C 0.39580 0.63090 -0.21820
C6 C 0.33910 0.61210 -0.36340
C7 C 0.50790 0.57630 -0.23630
C8 C 0.42260 0.79860 -0.10800
C9 C 0.21360 0.64280 0.19380
C10 C 0.32010 0.75100 0.30310
C11 C 0.16900 0.54740 0.25310
C12 C 0.23530 0.20070 -0.63200
C13 C 0.12720 0.73130 0.18030
C14 C 0.24560 0.14400 -0.23840
C15 C 0.14850 0.05720 -0.37000
C16 C 0.35720 0.10130 -0.28280
C17 C 0.22420 0.09570 -0.12690
C18 C 0.15060 0.17570 -0.74450
C19 C 0.05650 0.23530 -0.71000
C20 C 0.04050 0.31360 -0.56660
C21 C 0.12410 0.33640 -0.45630
C22 C 0.29390 0.39190 -0.23240
C23 C 0.32480 0.54750 -0.15980
C24 C 0.29620 0.62130 -0.02270
H1 H 0.19500 0.34900 0.01300
H2 H 0.26400 0.62200 -0.36300
H3 H 0.49000 0.46900 -0.30700
H4 H 0.34800 0.84200 -0.09200
H5 H 0.35600 0.82200 0.26800
H6 H 0.22700 0.48500 0.25900
H7 H 0.05600 0.63100 0.12900
H8 H 0.07300 0.08300 -0.33700
H9 H 0.35800 0.00200 -0.31100
H10 H 0.14600 0.10300 -0.11000
H11 H 0.34000 0.51400 -0.44600
H12 H 0.54700 0.59500 -0.14000
H13 H 0.45800 0.81900 -0.01600
H14 H 0.38400 0.69500 0.31500
H15 H 0.15000 0.60500 0.34500
H16 H 0.16400 0.79900 0.14900
H17 H 0.16600 0.07300 -0.45300
H18 H 0.32800 0.11900 -0.35300
H19 H 0.28800 0.15700 -0.03200
H20 H 0.16400 0.12200 -0.83300
H21 H 0.38500 0.67800 -0.38200
H22 H 0.56300 0.63300 -0.26300
H23 H 0.47400 0.84400 -0.14300
H24 H 0.30200 0.80300 0.39500
H25 H 0.08800 0.49300 0.18700
H26 H 0.10700 0.78700 0.26900
H27 H 0.13600 -0.04700 -0.39700
H28 H 0.42500 0.16800 -0.19900
H29 H 0.22900 -0.00700 -0.16900
H30 H -0.03200 0.35100 -0.54400
H31 H 0.11100 0.38400 -0.36500
H32 H 0.31600 0.72000 0.02100
N1 N 0.33460 0.13630 -0.67500
N2 N -0.03010 0.21770 -0.82730
O1 O 0.32850 0.04370 -0.80240
O2 O 0.41970 0.17920 -0.58640
O3 O -0.11170 0.27340 -0.79350
O4 O -0.01310 0.15190 -0.95190
O5 O 0.30990 0.30990 -0.38000
#END
