
#######################################################################
#
#                 Cambridge Crystallographic Data Centre
#                                CCDC
#
#######################################################################
#
# If this CIF has been generated from an entry in the Cambridge
# Structural Database, then it will include bibliographic, chemical,
# crystal, experimental, refinement or atomic coordinate data resulting
# from the CCDC's data processing and validation procedures.
#
#######################################################################

data_CSD_CIF_DNPETY
_audit_creation_date 1971-12-31
_audit_creation_method CSD-ConQuest-V1
_database_code_CSD DNPETY
_chemical_formula_sum 'C14 H10 N2 O4'
_chemical_formula_moiety
;
C14 H10 N2 O4
;
_journal_coden_Cambridge 88
_journal_year 1971
_journal_page_first 1180
_journal_name_full 'J.Chem.Soc.B '
loop_
_publ_author_name
"G.Casalone"
"M.Simonetta"
_chemical_name_systematic
;
1,1-Di-(p-nitrophenyl)ethylene
;
_chemical_melting_point 448.15
_cell_volume   1274.406
_exptl_crystal_density_diffrn 1.407
_diffrn_ambient_temperature ?
_diffrn_special_details
;
The study was carried out at room temperature,in the range 283-303K

;
#These two values have been output from a single CSD field.
_refine_ls_R_factor_gt 0.079
_refine_ls_wR_factor_gt 0.079
_symmetry_cell_setting monoclinic
_symmetry_space_group_name_H-M 'P 21/c'
_symmetry_Int_Tables_number 14
loop_
_symmetry_equiv_pos_site_id
_symmetry_equiv_pos_as_xyz
1 x,y,z
2 -x,1/2+y,1/2-z
3 -x,-y,-z
4 x,-1/2-y,-1/2+z
_cell_length_a 7.978(1)
_cell_length_b 19.386(1)
_cell_length_c 8.304(1)
_cell_angle_alpha 90
_cell_angle_beta 97.12(1)
_cell_angle_gamma 90
_cell_formula_units_Z 4
loop_
_atom_type_symbol
_atom_type_radius_bond
C 0.68
N 0.68
O 0.68
loop_
_atom_site_label
_atom_site_type_symbol
_atom_site_fract_x
_atom_site_fract_y
_atom_site_fract_z
C1 C -0.48790 0.27380 0.27890
C2 C -0.38010 0.42090 0.29750
C3 C -0.35610 0.48950 0.33900
C4 C -0.26220 0.50530 0.48470
C5 C -0.18960 0.45500 0.58820
C6 C -0.21310 0.38670 0.54320
C7 C -0.34040 0.29430 0.35530
C8 C -0.19890 0.24510 0.39450
C9 C -0.22770 0.17820 0.44720
C10 C -0.09820 0.13050 0.47190
C11 C 0.06230 0.15110 0.44430
C12 C 0.09580 0.21700 0.39700
C13 C -0.03450 0.26380 0.37220
C14 C -0.30990 0.36820 0.39880
N1 N 0.19990 0.10050 0.46210
N2 N -0.23840 0.57790 0.53130
O1 O 0.16520 0.04010 0.47200
O2 O 0.34470 0.12120 0.46500
O3 O -0.27870 0.62220 0.43110
O4 O -0.17930 0.59140 0.66840
#END
