
#######################################################################
#
#                 Cambridge Crystallographic Data Centre
#                                CCDC
#
#######################################################################
#
# If this CIF has been generated from an entry in the Cambridge
# Structural Database, then it will include bibliographic, chemical,
# crystal, experimental, refinement or atomic coordinate data resulting
# from the CCDC's data processing and validation procedures.
#
#######################################################################

data_CSD_CIF_DNPHOL
_audit_creation_date 1976-05-02
_audit_creation_method CSD-ConQuest-V1
_database_code_CSD DNPHOL
_chemical_formula_sum 'C6 H4 N2 O5'
_chemical_formula_moiety
;
C6 H4 N2 O5
;
_journal_coeditor_code "IUCr A13052"
_journal_coden_Cambridge 107
_journal_volume 32
_journal_year 1976
_journal_page_first 102
_journal_name_full 'Acta Crystallogr.,Sect.B:Struct.Crystallogr.Cryst.Chem. '
loop_
_publ_author_name
"F.Iwasaki"
"M.Saito"
"A.Aihara"
_chemical_name_systematic
;
2,6-Dinitrophenol
;
_chemical_melting_point 337.15
_cell_volume    716.872
_exptl_crystal_density_diffrn 1.706
_diffrn_ambient_temperature ?
_diffrn_special_details
;
The study was carried out at room temperature,in the range 283-303K

;
#These two values have been output from a single CSD field.
_refine_ls_R_factor_gt 0.041
_refine_ls_wR_factor_gt 0.041
_symmetry_cell_setting orthorhombic
_symmetry_space_group_name_H-M 'P 21 n b'
_symmetry_Int_Tables_number 33
loop_
_symmetry_equiv_pos_site_id
_symmetry_equiv_pos_as_xyz
1 x,y,z
2 1/2+x,1/2-y,1/2+z
3 x,1/2+y,1/2-z
4 1/2+x,-y,-z
_cell_length_a 11.943(9)
_cell_length_b 12.430(9)
_cell_length_c 4.829(6)
_cell_angle_alpha 90
_cell_angle_beta 90
_cell_angle_gamma 90
_cell_formula_units_Z 4
loop_
_atom_type_symbol
_atom_type_radius_bond
C 0.68
H 0.23
N 0.68
O 0.68
loop_
_atom_site_label
_atom_site_type_symbol
_atom_site_fract_x
_atom_site_fract_y
_atom_site_fract_z
C1 C 0.08870 0.15080 -0.47860
C2 C 0.17670 0.21300 -0.37360
C3 C 0.28450 0.20430 -0.47510
C4 C 0.30830 0.13130 -0.68480
C5 C 0.22570 0.06800 -0.78840
C6 C 0.11680 0.07830 -0.68910
H1 H -0.05100 0.12700 -0.47500
H2 H 0.34100 0.25800 -0.42700
H3 H 0.38000 0.12400 -0.73700
H4 H 0.24300 0.02400 -0.93700
N1 N 0.15900 0.29190 -0.15020
N2 N 0.03140 0.01210 -0.82090
O1 O -0.01530 0.16380 -0.38150
O2 O 0.07210 0.29000 -0.01950
O3 O 0.23420 0.35620 -0.10620
O4 O 0.05810 -0.04770 -1.00860
O5 O -0.06690 0.02060 -0.73970
#END
