
#######################################################################
#
#                 Cambridge Crystallographic Data Centre
#                                CCDC
#
#######################################################################
#
# If this CIF has been generated from an entry in the Cambridge
# Structural Database, then it will include bibliographic, chemical,
# crystal, experimental, refinement or atomic coordinate data resulting
# from the CCDC's data processing and validation procedures.
#
#######################################################################

data_CSD_CIF_DNPXBB
_audit_creation_date 1976-05-02
_audit_creation_method CSD-ConQuest-V1
_database_code_CSD DNPXBB
_database_code_depnum_ccdc_archive 'CCDC 1142989'
_chemical_formula_sum 'C16 H16 N2 O5'
_chemical_formula_moiety
;
C16 H16 N2 O5
;
_journal_coden_Cambridge 15
_journal_volume 53
_journal_year 1975
_journal_page_first 2093
_journal_name_full 'Can.J.Chem. '
loop_
_publ_author_name
"K.Gurtu"
"W.D.Chandler"
"B.E.Robertson"
_chemical_name_systematic
;
2-(2',6'-Dinitrophenoxy)-t-butylbenzene
;
_chemical_melting_point 388.15
_cell_volume   3198.018
_exptl_crystal_density_diffrn 1.34
_exptl_special_details
;
Melting point range 388.15-391.15K
Y-COORD. OF H3' (H3 MOL.2) GIVEN AS .549 IN TABLE 1 SHOULD BE .543
;
_diffrn_ambient_temperature ?
_diffrn_special_details
;
The study was carried out at room temperature,in the range 283-303K

;
_refine_special_details
;
THE OXYGEN ATOMS OF TWO NITRO GROUPS IN ONE OF THE MOLECULES ARE DISORDERED.

;
#These two values have been output from a single CSD field.
_refine_ls_R_factor_gt 0.057
_refine_ls_wR_factor_gt 0.057
_symmetry_cell_setting monoclinic
_symmetry_space_group_name_H-M 'P 21/c'
_symmetry_Int_Tables_number 14
loop_
_symmetry_equiv_pos_site_id
_symmetry_equiv_pos_as_xyz
1 x,y,z
2 -x,1/2+y,1/2-z
3 -x,-y,-z
4 x,-1/2-y,-1/2+z
_cell_length_a 13.949(3)
_cell_length_b 9.652(2)
_cell_length_c 23.806(4)
_cell_angle_alpha 90
_cell_angle_beta 93.82(4)
_cell_angle_gamma 90
_cell_formula_units_Z 8
loop_
_atom_type_symbol
_atom_type_radius_bond
C 0.68
H 0.29
N 0.68
O 0.68
loop_
_atom_site_label
_atom_site_type_symbol
_atom_site_fract_x
_atom_site_fract_y
_atom_site_fract_z
C1 C 0.32360 0.32520 0.09490
C2 C 0.64430 -0.14570 0.12810
C3 C 0.65410 -0.05550 0.08500
C4 C 0.59080 0.05370 0.07870
C5 C 0.37250 0.46050 0.11320
C6 C 0.41510 0.44980 0.17430
C7 C 0.45130 0.49740 0.07380
C8 C 0.30080 0.58150 0.11160
C9 C 0.37140 0.19840 0.09430
C10 C 0.32910 0.07720 0.07620
C11 C 0.23270 0.07580 0.05740
C12 C 0.18340 0.19680 0.05740
C13 C 0.22640 0.31660 0.07570
C14 C 0.52100 0.07970 0.11600
C15 C 0.51430 -0.01490 0.15900
C16 C 0.57390 -0.12870 0.16500
H1 H 0.68000 -0.22200 0.13300
H2 H 0.70400 -0.06200 0.05800
H3 H 0.46700 0.38000 0.17800
H4 H 0.36200 0.41800 0.19900
H5 H 0.43700 0.53800 0.18700
H6 H 0.50000 0.42900 0.07400
H7 H 0.42000 0.50200 0.03300
H8 H 0.47500 0.58900 0.08300
H9 H 0.24700 0.55900 0.13600
H10 H 0.33400 0.66700 0.12400
H11 H 0.27300 0.59800 0.07200
H12 H 0.36100 -0.00500 0.07800
H13 H 0.20400 -0.01400 0.04500
H14 H 0.11900 0.19600 0.04200
H15 H 0.19300 0.40200 0.07900
H16 H 0.56200 -0.19000 0.19400
N1 N 0.44320 0.00580 0.20100
N2 N 0.59850 0.14530 0.03040
O1 O 0.47030 0.20040 0.11130
O2 O 0.43270 0.12100 0.21980
O3 O 0.40110 -0.09700 0.21530
O4 O 0.52510 0.17210 0.00220
O5 O 0.67770 0.18390 0.01970
C17 C 0.16900 -0.17530 0.36410
C18 C -0.16600 -0.61730 0.31240
C19 C -0.09530 -0.63780 0.35350
C20 C -0.03060 -0.53340 0.36850
C21 C 0.13050 -0.06950 0.40460
C22 C 0.04050 0.00410 0.37510
C23 C 0.20510 0.04240 0.42020
C24 C 0.10440 -0.13860 0.45920
C25 C 0.11510 -0.28640 0.34220
C26 C 0.14970 -0.38200 0.30590
C27 C 0.24270 -0.37160 0.28970
C28 C 0.29800 -0.26470 0.31020
C29 C 0.26270 -0.16970 0.34600
C30 C -0.03520 -0.40690 0.34150
C31 C -0.10880 -0.38980 0.29990
C32 C -0.17350 -0.49340 0.28610
H17 H -0.21000 -0.69000 0.30000
H18 H -0.08800 -0.72000 0.37500
H19 H 0.02200 0.06000 0.39900
H20 H 0.09200 0.07200 0.33700
H21 H -0.02000 -0.09000 0.36000
H22 H 0.24200 0.08700 0.38100
H23 H 0.17600 0.10300 0.44500
H24 H 0.26400 0.00400 0.43600
H25 H 0.05000 -0.20500 0.45200
H26 H 0.16000 -0.19100 0.47800
H27 H 0.08600 -0.06800 0.48500
H28 H 0.11200 -0.45700 0.29000
H29 H 0.26400 -0.43700 0.26300
H30 H 0.36300 -0.25700 0.29900
H31 H 0.29800 -0.09100 0.36100
H32 H -0.22100 -0.46900 0.25700
N3 N 0.04040 -0.55850 0.41520
N4 N -0.11920 -0.25910 0.26850
O6 O 0.02070 -0.29690 0.35910
#END
