
#######################################################################
#
#                 Cambridge Crystallographic Data Centre
#                                CCDC
#
#######################################################################
#
# If this CIF has been generated from an entry in the Cambridge
# Structural Database, then it will include bibliographic, chemical,
# crystal, experimental, refinement or atomic coordinate data resulting
# from the CCDC's data processing and validation procedures.
#
#######################################################################

data_CSD_CIF_DNTANT
_audit_creation_date 1971-12-31
_audit_creation_method CSD-ConQuest-V1
_database_code_CSD DNTANT
_chemical_formula_sum 'C14 H8 N2 O4'
_chemical_formula_moiety
;
C14 H8 N2 O4
;
_journal_coeditor_code "IUCr A02484"
_journal_coden_Cambridge 1
_journal_volume 12
_journal_year 1959
_journal_page_first 232
_journal_name_full 'Acta Crystallogr. '
loop_
_publ_author_name
"J.Trotter"
_chemical_name_systematic
;
9,10-Dinitroanthracene
;
_cell_volume    278.586
_exptl_crystal_density_diffrn 1.589
_exptl_special_details
;
AVERAGE BONDS ONLY ARE GIVEN

;
_diffrn_ambient_temperature ?
_diffrn_special_details
;
The study was carried out at room temperature,in the range 283-303K

;
#These two values have been output from a single CSD field.
_refine_ls_R_factor_gt 0.17
_refine_ls_wR_factor_gt 0.17
_symmetry_cell_setting triclinic
_symmetry_space_group_name_H-M 'P -1'
_symmetry_Int_Tables_number 2
loop_
_symmetry_equiv_pos_site_id
_symmetry_equiv_pos_as_xyz
1 x,y,z
2 -x,-y,-z
_cell_length_a 3.95(1)
_cell_length_b 8.68(2)
_cell_length_c 8.76(2)
_cell_angle_alpha 106.77(17)
_cell_angle_beta 98.98(17)
_cell_angle_gamma 98.02(17)
_cell_formula_units_Z 1
loop_
_atom_type_symbol
_atom_type_radius_bond
C 0.68
N 0.68
O 0.68
loop_
_atom_site_label
_atom_site_type_symbol
_atom_site_fract_x
_atom_site_fract_y
_atom_site_fract_z
C1 C 0.62100 0.37020 0.29830
C2 C 0.42130 0.31880 0.14550
C3 C 0.21580 0.16030 0.06540
C4 C 0.00860 0.10060 -0.09060
C5 C 0.19310 0.05790 0.17000
C6 C 0.40060 0.11660 0.32910
C7 C 0.60580 0.26620 0.39410
N1 N 0.02810 0.21010 -0.18780
O1 O -0.07460 0.34160 -0.14430
O2 O 0.15710 0.17410 -0.31080
C5A C -0.19310 -0.05790 -0.17000
C4A C -0.00860 -0.10060 0.09060
C3A C -0.21580 -0.16030 -0.06540
C6A C -0.40060 -0.11660 -0.32910
N1A N -0.02810 -0.21010 0.18780
C2A C -0.42130 -0.31880 -0.14550
C7A C -0.60580 -0.26620 -0.39410
O1A O 0.07460 -0.34160 0.14430
O2A O -0.15710 -0.17410 0.31080
C1A C -0.62100 -0.37020 -0.29830
#END
