
#######################################################################
#
#                 Cambridge Crystallographic Data Centre
#                                CCDC
#
#######################################################################
#
# If this CIF has been generated from an entry in the Cambridge
# Structural Database, then it will include bibliographic, chemical,
# crystal, experimental, refinement or atomic coordinate data resulting
# from the CCDC's data processing and validation procedures.
#
#######################################################################

data_CSD_CIF_DNTNAP10
_audit_creation_date 1971-12-31
_audit_creation_method CSD-ConQuest-V1
_database_code_CSD DNTNAP10
_chemical_formula_sum 'C10 H6 N2 O4'
_chemical_formula_moiety
;
C10 H6 N2 O4
;
_journal_coden_Cambridge 82
_journal_volume 6
_journal_year 1965
_journal_page_first 729
_journal_name_full 'Zh.Strukt.Khim.(Russ.)(J.Struct.Chem.) '
loop_
_publ_author_name
"Z.A.Akopyan"
"A.I.Kitaigorodskij"
"Yu.T.Struchkov"
_chemical_name_systematic
;
1,8-Dinitronaphthalene
;
_cell_volume    911.397
_exptl_special_details
;
orthorhombic polymorph

;
_diffrn_ambient_temperature ?
_diffrn_special_details
;
The study was carried out at room temperature,in the range 283-303K

;
#These two values have been output from a single CSD field.
_refine_ls_R_factor_gt 0.165
_refine_ls_wR_factor_gt 0.165
_symmetry_cell_setting orthorhombic
_symmetry_space_group_name_H-M 'P 21 21 21'
_symmetry_Int_Tables_number 19
loop_
_symmetry_equiv_pos_site_id
_symmetry_equiv_pos_as_xyz
1 x,y,z
2 1/2+x,1/2-y,-z
3 -x,1/2+y,1/2-z
4 1/2-x,-y,1/2+z
_cell_length_a 11.352
_cell_length_b 14.934
_cell_length_c 5.376
_cell_angle_alpha 90
_cell_angle_beta 90
_cell_angle_gamma 90
_cell_formula_units_Z 4
loop_
_atom_type_symbol
_atom_type_radius_bond
C 0.68
H 0.20
N 0.68
O 0.68
loop_
_atom_site_label
_atom_site_type_symbol
_atom_site_fract_x
_atom_site_fract_y
_atom_site_fract_z
C1 C -0.39980 -0.35240 0.11870
C2 C -0.49580 -0.49490 0.01660
C3 C -0.34040 -0.39070 0.30740
C4 C -0.36120 -0.48290 0.36010
C5 C -0.43530 -0.53220 0.22290
C6 C -0.57510 -0.54750 -0.12560
C7 C -0.63520 -0.51570 -0.31910
C8 C -0.62980 -0.42160 -0.37310
C9 C -0.56110 -0.36770 -0.22750
C10 C -0.48190 -0.40280 -0.03670
H1 H -0.27900 -0.35300 0.41600
H2 H -0.31600 -0.51400 0.51600
H3 H -0.44900 -0.60100 0.27000
H4 H -0.58700 -0.61700 -0.07500
H5 H -0.68700 -0.56000 -0.43400
H6 H -0.67900 -0.39400 -0.52600
N1 N -0.36190 -0.26340 0.03320
N2 N -0.57640 -0.27040 -0.26340
O1 O -0.34390 -0.24970 -0.18950
O2 O -0.34170 -0.20580 0.19300
O3 O -0.59170 -0.24570 -0.48050
O4 O -0.58030 -0.22280 -0.07410
#END
