
#######################################################################
#
#                 Cambridge Crystallographic Data Centre
#                                CCDC
#
#######################################################################
#
# If this CIF has been generated from an entry in the Cambridge
# Structural Database, then it will include bibliographic, chemical,
# crystal, experimental, refinement or atomic coordinate data resulting
# from the CCDC's data processing and validation procedures.
#
#######################################################################

data_CSD_CIF_DOBDAB
_audit_creation_date 2014-05-02
_audit_creation_method CSD-ConQuest-V1
_database_code_CSD DOBDAB
_database_code_depnum_ccdc_archive 'CCDC 951425'
_chemical_formula_sum 'C16 H14 N2 O3'
_chemical_formula_moiety
;
C16 H14 N2 O3
;
_journal_coden_Cambridge 440
_journal_volume 38
_journal_year 2014
_journal_page_first 3062
_journal_name_full 'New J.Chem. '
loop_
_publ_author_name
"P.K.Gupta"
"M.K.Hussain"
"M.Asad"
"Ruchir Kant"
"R.Mahar"
"S.K.Shukla"
"K.Hajela"
_chemical_name_systematic
;
5-(2,3-dimethoxyphenyl)-3-phenyl-1,2,4-oxadiazole
;
_cell_volume   2841.614
_exptl_crystal_colour 'colorless'
_exptl_crystal_density_diffrn 1.32
_exptl_crystal_description 'Block'
_diffrn_ambient_temperature 293
#These two values have been output from a single CSD field.
_refine_ls_R_factor_gt 0.0479
_refine_ls_wR_factor_gt 0.0479
_symmetry_cell_setting monoclinic
_symmetry_space_group_name_H-M 'P 21/c'
_symmetry_Int_Tables_number 14
loop_
_symmetry_equiv_pos_site_id
_symmetry_equiv_pos_as_xyz
1 x,y,z
2 -x,1/2+y,1/2-z
3 -x,-y,-z
4 x,-1/2-y,-1/2+z
_cell_length_a 16.558(5)
_cell_length_b 11.363(4)
_cell_length_c 17.351(4)
_cell_angle_alpha 90
_cell_angle_beta 119.49(2)
_cell_angle_gamma 90
_cell_formula_units_Z 8
loop_
_atom_type_symbol
_atom_type_radius_bond
C 0.68
H 0.23
N 0.68
O 0.68
loop_
_atom_site_label
_atom_site_type_symbol
_atom_site_fract_x
_atom_site_fract_y
_atom_site_fract_z
O1 O 0.59706(10) 0.90101(11) 0.99842(10)
O2 O 0.68037(9) 0.70801(11) 1.09316(9)
O3 O 0.66588(10) 0.52362(12) 1.1811(1)
N1 N 0.57788(13) 0.99390(15) 0.93774(12)
N2 N 0.45495(10) 0.87322(13) 0.88970(11)
C1 C 0.51559(12) 0.73190(15) 1.01352(12)
C2 C 0.42762(13) 0.69195(16) 0.99458(13)
C3 C 0.41937(14) 0.59738(17) 1.03955(14)
C4 C 0.49780(14) 0.53988(16) 1.10418(14)
C5 C 0.58491(13) 0.57656(16) 1.12258(13)
C6 C 0.59455(13) 0.67417(15) 1.07829(13)
C7 C 0.52051(12) 0.83402(15) 0.96513(12)
C8 C 0.49325(13) 0.97228(15) 0.87530(13)
C9 C 0.44463(13) 1.04718(15) 0.79666(12)
C10 C 0.36270(14) 1.00832(18) 0.72371(13)
C11 C 0.31825(15) 1.0777(2) 0.64960(15)
C12 C 0.35331(17) 1.1862(2) 0.64633(16)
C13 C 0.43336(17) 1.22620(19) 0.71835(16)
C14 C 0.47955(14) 1.15756(17) 0.79343(14)
C15 C 0.66309(18) 0.4352(2) 1.23802(18)
C16 C 0.74186(15) 0.7518(2) 1.18030(17)
H1 H 0.37470 0.72960 0.95150
H2 H 0.36080 0.57150 1.02670
H3 H 0.49150 0.47680 1.13490
H4 H 0.33820 0.93530 0.72530
H5 H 0.26390 1.05110 0.60110
H6 H 0.32300 1.23230 0.59570
H7 H 0.45660 1.30000 0.71650
H8 H 0.53380 1.18500 0.84170
H9 H 0.72500 0.40900 1.27810
H10 H 0.62660 0.37000 1.20320
H11 H 0.63580 0.46720 1.27110
H12 H 0.79690 0.78260 1.18230
H13 H 0.75840 0.68900 1.22240
H14 H 0.71150 0.81320 1.19450
O4 O 0.08483(10) 0.60044(12) 0.59607(11)
O5 O 0.17019(9) 0.79123(11) 0.57586(9)
O6 O 0.15707(9) 0.95798(13) 0.46187(9)
N3 N 0.06335(12) 0.50778(14) 0.63772(13)
N4 N -0.06083(11) 0.62473(13) 0.56089(11)
C17 C 0.00517(12) 0.76441(15) 0.49781(12)
C18 C -0.08244(14) 0.80319(16) 0.43227(14)
C19 C -0.08965(14) 0.89425(17) 0.37716(14)
C20 C -0.01132(14) 0.94740(17) 0.38437(14)
C21 C 0.07563(13) 0.91101(16) 0.44896(13)
C22 C 0.08447(12) 0.81986(15) 0.50701(12)
C23 C 0.00747(12) 0.66498(15) 0.55193(12)
C24 C -0.02340(13) 0.52724(15) 0.61407(12)
C25 C -0.07516(13) 0.45189(15) 0.64352(12)
C26 C -0.16334(15) 0.48425(17) 0.62602(14)
C27 C -0.21196(17) 0.4153(2) 0.65507(16)
C28 C -0.17336(19) 0.3151(2) 0.70091(17)
C29 C -0.08618(18) 0.28025(19) 0.71768(15)
C30 C -0.03681(15) 0.34786(17) 0.68886(13)
C31 C 0.15224(17) 1.0471(2) 0.40084(18)
C32 C 0.22931(15) 0.7277(2) 0.55159(16)
H15 H -0.13570 0.76720 0.42610
H16 H -0.14800 0.92040 0.33450
H17 H -0.01700 1.00770 0.34580
H18 H -0.19000 0.55290 0.59450
H19 H -0.27100 0.43770 0.64320
H20 H -0.20570 0.26940 0.72120
H21 H -0.06060 0.21090 0.74860
H22 H 0.02160 0.32390 0.69970
H23 H 0.21390 1.07150 0.41620
H24 H 0.11800 1.11340 0.40380
H25 H 0.12170 1.01570 0.34180
H26 H 0.29200 0.72980 0.59970
H27 H 0.22660 0.76330 0.50020
H28 H 0.20890 0.64740 0.53860
#END
