
#######################################################################
#
#                 Cambridge Crystallographic Data Centre
#                                CCDC
#
#######################################################################
#
# If this CIF has been generated from an entry in the Cambridge
# Structural Database, then it will include bibliographic, chemical,
# crystal, experimental, refinement or atomic coordinate data resulting
# from the CCDC's data processing and validation procedures.
#
#######################################################################

data_CSD_CIF_DOBJEK
_audit_creation_date 2008-09-09
_audit_creation_method CSD-ConQuest-V1
_database_code_CSD DOBJEK
_database_code_depnum_ccdc_archive 'CCDC 663249'
_chemical_formula_sum 'C12 H12 N4 O1'
_chemical_formula_moiety
;
C12 H12 N4 O1
;
_journal_coden_Cambridge 1366
_journal_volume 350
_journal_year 2008
_journal_page_first 869
_journal_name_full 'Adv.Synth.Catal. '
loop_
_publ_author_name
"J.A.K.Howard"
"G.Ilyashenko"
"H.A.Sparkes"
"A.Whiting"
"A.R.Wright"
_chemical_name_systematic
;
N,N'-bis(6-methylpyridin-2-yl)diazene N-oxide
;
_chemical_melting_point 358.15
_cell_volume    561.769
_exptl_crystal_colour 'orange'
_exptl_crystal_density_diffrn 1.349
_exptl_special_details
;
Melting point range 358.15-360.15K

;
_exptl_crystal_description 'block'
_exptl_crystal_preparation 'diethyl ether'
_diffrn_ambient_temperature 100
_refine_special_details
;
The N-oxide O atom is disordered over the two diazene sites with occupancies 
of 0.65:0.35.
;
#These two values have been output from a single CSD field.
_refine_ls_R_factor_gt 0.0412
_refine_ls_wR_factor_gt 0.0412
_symmetry_cell_setting monoclinic
_symmetry_space_group_name_H-M 'P 21'
_symmetry_Int_Tables_number 4
loop_
_symmetry_equiv_pos_site_id
_symmetry_equiv_pos_as_xyz
1 x,y,z
2 -x,1/2+y,-z
_cell_length_a 6.2863(1)
_cell_length_b 12.3951(3)
_cell_length_c 7.8106(2)
_cell_angle_alpha 90
_cell_angle_beta 112.623(1)
_cell_angle_gamma 90
_cell_formula_units_Z 2
loop_
_atom_type_symbol
_atom_type_radius_bond
C 0.68
H 0.23
N 0.68
O 0.68
loop_
_atom_site_label
_atom_site_type_symbol
_atom_site_fract_x
_atom_site_fract_y
_atom_site_fract_z
O1 O 0.2407(4) 0.3156(2) 0.2660(4)
O2? O -0.2341(7) 0.1409(4) 0.2277(6)
N1 N -0.2200(3) 0.12965(18) -0.1033(2)
N2 N -0.0652(3) 0.19114(19) 0.1994(3)
N3 N 0.0698(3) 0.26570(19) 0.2941(2)
N4 N 0.2202(3) 0.32888(18) 0.5972(2)
C1 C -0.0244(4) 0.1547(2) 0.0370(3)
C2 C 0.1947(4) 0.1432(2) 0.0363(3)
H1 H 0.32860 0.16130 0.14160
C3 C 0.2094(4) 0.1042(2) -0.1251(3)
H2 H 0.35530 0.09480 -0.13310
C4 C 0.0087(4) 0.0792(2) -0.2746(3)
H3 H 0.01560 0.05260 -0.38640
C5 C -0.2027(4) 0.0933(2) -0.2599(3)
C6 C -0.4270(4) 0.0708(3) -0.4191(3)
H4 H -0.50840 0.01250 -0.38490
H5 H -0.39640 0.04930 -0.52810
H6 H -0.52250 0.13610 -0.44780
C7 C 0.0275(3) 0.3022(2) 0.4550(3)
C8 C -0.1930(4) 0.3104(2) 0.4524(3)
H7 H -0.32430 0.29080 0.34610
C9 C -0.2138(4) 0.3487(2) 0.6126(3)
H8 H -0.36140 0.35630 0.61800
C10 C -0.0165(4) 0.3755(2) 0.7645(3)
H9 H -0.02750 0.40170 0.87510
C11 C 0.2001(4) 0.3634(2) 0.7528(3)
C12 C 0.4204(4) 0.3874(3) 0.9141(3)
H10 H 0.51890 0.32320 0.94410
H11 H 0.38560 0.40780 1.02180
H12 H 0.50050 0.44700 0.88190
#END
