
#######################################################################
#
#                 Cambridge Crystallographic Data Centre
#                                CCDC
#
#######################################################################
#
# If this CIF has been generated from an entry in the Cambridge
# Structural Database, then it will include bibliographic, chemical,
# crystal, experimental, refinement or atomic coordinate data resulting
# from the CCDC's data processing and validation procedures.
#
#######################################################################

data_CSD_CIF_DOCHOS10
_audit_creation_date 1990-06-28
_audit_creation_method CSD-ConQuest-V1
_database_code_CSD DOCHOS10
_chemical_formula_sum 'C14 H26 N2 O2'
_chemical_formula_moiety
;
C14 H26 N2 O2
;
_journal_coden_Cambridge 35
_journal_volume 55
_journal_year 1990
_journal_page_first 132
_journal_name_full 'J.Org.Chem. '
loop_
_publ_author_name
"D.A.Oare"
"M.A.Henderson"
"M.A.Sanner"
"C.H.Heathcock"
_chemical_name_systematic
;
(3RS,1'RS)-3-(4',4'-Dimethyl-1'-ethyl-3'-(hydroxyimino)pentyl)-1-methyl-2-pyrr
olidinone
;
_chemical_melting_point 417.15
_cell_volume   1510.837
_exptl_crystal_colour 'colorless'
_exptl_crystal_density_diffrn 1.118
_exptl_special_details
;
Melting point range 417.15-418.15K
Vol. given as 1834.6, we find 1508.46. Beta is 90.774, not 101.304
;
_diffrn_ambient_temperature ?
_diffrn_special_details
;
The study was carried out at room temperature,in the range 283-303K

;
_symmetry_cell_setting monoclinic
_symmetry_space_group_name_H-M 'P 21/n'
_symmetry_Int_Tables_number 14
loop_
_symmetry_equiv_pos_site_id
_symmetry_equiv_pos_as_xyz
1 x,y,z
2 1/2-x,1/2+y,1/2-z
3 -x,-y,-z
4 -1/2+x,-1/2-y,-1/2+z
_cell_length_a 7.1792(6)
_cell_length_b 13.9024(17)
_cell_length_c 15.1388(24)
_cell_angle_alpha 90
_cell_angle_beta 90.774(9)
_cell_angle_gamma 90
_cell_formula_units_Z 4
loop_
_atom_type_symbol
_atom_type_radius_bond
C 0.68
H 0.23
N 0.68
O 0.68
loop_
_atom_site_label
_atom_site_type_symbol
_atom_site_fract_x
_atom_site_fract_y
_atom_site_fract_z
O1 O 0.2219(2) -0.33528(8) 0.31788(9)
O2 O 0.3516(2) 0.00691(8) 0.07934(8)
N1 N 0.2365(2) -0.2500(1) 0.3680(1)
N2 N 0.2312(2) -0.0902(1) -0.02890(9)
C1 C 0.2517(2) -0.1750(1) 0.3200(1)
C2 C 0.2489(2) -0.1762(1) 0.2202(1)
C3 C 0.4405(2) -0.1758(1) 0.1756(1)
C4 C 0.4195(2) -0.1652(1) 0.0753(1)
C5 C 0.3318(2) -0.0725(1) 0.0445(1)
C6 C 0.3070(3) -0.2415(1) 0.0254(1)
C7 C 0.2433(3) -0.1897(2) -0.0574(1)
C8 C 0.1610(3) -0.0162(2) -0.0875(2)
C9 C 0.2528(3) -0.0799(1) 0.3696(1)
C10 C 0.3975(4) -0.0107(2) 0.3341(2)
C11 C 0.2900(4) -0.0945(2) 0.4678(1)
C12 C 0.0577(4) -0.0357(2) 0.3583(2)
C13 C 0.5594(3) -0.2624(1) 0.2015(1)
C14 C 0.7639(3) -0.2513(2) 0.1814(2)
H1 H 0.20900 -0.39650 0.35550
H2 H 0.18010 -0.12080 0.20030
H3 H 0.18260 -0.23240 0.20130
H4 H 0.50640 -0.12060 0.19700
H5 H 0.54820 -0.17040 0.06100
H6 H 0.20440 -0.26330 0.06000
H7 H 0.38280 -0.29630 0.01190
H8 H 0.12400 -0.21270 -0.07670
H9 H 0.32980 -0.19680 -0.10310
H10 H 0.16100 0.04490 -0.05940
H11 H 0.23470 -0.01250 -0.13950
H12 H 0.03460 -0.03070 -0.10590
H13 H 0.39690 0.04750 0.36390
H14 H 0.51820 -0.04010 0.33800
H15 H 0.37100 0.00030 0.27180
H16 H 0.28850 -0.03320 0.49810
H17 H 0.19660 -0.13410 0.49330
H18 H 0.40860 -0.12300 0.47750
H19 H 0.05540 0.02400 0.38930
H20 H -0.03090 -0.07800 0.38200
H21 H 0.51320 -0.31810 0.17110
H22 H 0.54750 -0.27370 0.26390
H23 H 0.83190 -0.30670 0.19870
H24 H 0.77880 -0.24100 0.11950
H25 H 0.81310 -0.19660 0.21240
#END
