
#######################################################################
#
#                 Cambridge Crystallographic Data Centre
#                                CCDC
#
#######################################################################
#
# If this CIF has been generated from an entry in the Cambridge
# Structural Database, then it will include bibliographic, chemical,
# crystal, experimental, refinement or atomic coordinate data resulting
# from the CCDC's data processing and validation procedures.
#
#######################################################################

data_CSD_CIF_DOCHEI
_audit_creation_date 1987-02-04
_audit_creation_method CSD-ConQuest-V1
_database_code_CSD DOCHEI
_chemical_formula_sum 'C14 H27 N1 O3'
_chemical_formula_moiety
;
C14 H27 N1 O3
;
_journal_coden_Cambridge 35
_journal_volume 50
_journal_year 1985
_journal_page_first 3019
_journal_name_full 'J.Org.Chem. '
loop_
_publ_author_name
"C.H.Heathcock"
"M.A.Henderson"
"D.A.Hoare"
"M.A.Sanner"
_chemical_name_systematic
;
3-t-Butyl-5-hydroxyimino-2,6,6-trimethylheptanoic acid
;
_cell_volume   3117.102
_exptl_crystal_density_diffrn 1.1
_diffrn_ambient_temperature ?
_diffrn_special_details
;
The study was carried out at room temperature,in the range 283-303K

;
_symmetry_cell_setting monoclinic
_symmetry_space_group_name_H-M 'P 21/c'
_symmetry_Int_Tables_number 14
loop_
_symmetry_equiv_pos_site_id
_symmetry_equiv_pos_as_xyz
1 x,y,z
2 -x,1/2+y,1/2-z
3 -x,-y,-z
4 x,-1/2-y,-1/2+z
_cell_length_a 17.110(2)
_cell_length_b 15.7836(16)
_cell_length_c 12.3850(18)
_cell_angle_alpha 90
_cell_angle_beta 111.257(10)
_cell_angle_gamma 90
_cell_formula_units_Z 8
loop_
_atom_type_symbol
_atom_type_radius_bond
C 0.68
H 0.23
N 0.68
O 0.68
loop_
_atom_site_label
_atom_site_type_symbol
_atom_site_fract_x
_atom_site_fract_y
_atom_site_fract_z
O1 O 0.28770(9) 0.0143(1) 0.3547(1)
O2 O 0.1733(1) 0.0601(1) 0.0759(1)
O3 O 0.31210(9) 0.0548(1) 0.1276(1)
O4 O 0.25104(9) 0.2146(1) 0.3733(1)
O5 O 0.31305(9) 0.2186(1) 0.1491(1)
O6 O 0.1752(1) 0.2254(1) 0.1016(2)
N1 N 0.2068(1) 0.0434(1) 0.3418(2)
N2 N 0.3340(1) 0.1839(1) 0.4033(1)
C1 C 0.2400(1) 0.0195(2) 0.1056(2)
C2 C 0.2397(1) -0.0761(2) 0.1102(2)
C3 C 0.1624(1) -0.1119(1) 0.1323(2)
C4 C 0.1659(1) -0.0985(2) 0.2583(2)
C5 C 0.1493(1) -0.0107(1) 0.2938(2)
C6 C 0.0623(1) 0.0155(2) 0.2855(2)
C7 C 0.0570(2) 0.1107(2) 0.3053(3)
C8 C 0.0411(2) -0.0316(2) 0.3787(2)
C9 C -0.0032(2) -0.0052(2) 0.1678(2)
C10 C 0.3250(2) -0.1123(2) 0.1840(3)
C11 C 0.1406(2) -0.2058(2) 0.0929(2)
C12 C 0.1532(2) -0.2228(2) -0.0219(2)
C13 C 0.1910(2) -0.2712(2) 0.1817(3)
C14 C 0.0475(2) -0.2208(2) 0.0696(3)
C15 C 0.2494(1) 0.2579(2) 0.1442(2)
C16 C 0.2536(1) 0.3493(2) 0.1802(2)
C17 C 0.3419(1) 0.3741(1) 0.2667(2)
C18 C 0.3637(1) 0.3351(2) 0.3893(2)
C19 C 0.3866(1) 0.2419(2) 0.4077(2)
C20 C 0.4773(1) 0.2125(2) 0.4448(2)
C21 C 0.4854(2) 0.1169(2) 0.4661(3)
C22 C 0.5282(2) 0.2509(3) 0.5609(3)
C23 C 0.5143(2) 0.2384(2) 0.3557(3)
C24 C 0.1790(2) 0.3757(2) 0.2117(3)
C25 C 0.3601(1) 0.4719(2) 0.2745(2)
C26 C 0.4550(2) 0.4850(2) 0.3162(2)
C27 C 0.3271(2) 0.5197(2) 0.3574(2)
C28 C 0.3237(2) 0.5138(2) 0.1548(2)
H1 H 0.31640 0.06250 0.38870
H2 H 0.31660 0.11620 0.12790
H3 H 0.21480 0.16600 0.35940
H4 H 0.16900 0.16660 0.07730
H5 H 0.23180 -0.09690 0.03490
H6 H 0.11720 -0.07860 0.08310
H7 H 0.22050 -0.11450 0.30870
H8 H 0.12560 -0.13520 0.26940
H9 H 0.00170 0.12480 0.29960
H10 H 0.09530 0.12510 0.38040
H11 H 0.07080 0.14120 0.24860
H12 H -0.01370 -0.01590 0.37450
H13 H 0.04260 -0.09090 0.36680
H14 H 0.08050 -0.01720 0.45280
H15 H -0.05690 0.01200 0.16610
H16 H 0.00970 0.02400 0.10950
H17 H -0.00340 -0.06450 0.15470
H18 H 0.32190 -0.17230 0.18420
H19 H 0.36560 -0.09530 0.15250
H20 H 0.34060 -0.09160 0.26090
H21 H 0.13980 -0.28010 -0.04380
H22 H 0.11800 -0.18640 -0.08000
H23 H 0.21030 -0.21240 -0.01170
H24 H 0.17410 -0.32640 0.15140
H25 H 0.24870 -0.26370 0.19620
H26 H 0.18040 -0.26410 0.25110
H27 H 0.03390 -0.27800 0.04560
H28 H 0.03690 -0.21070 0.13840
H29 H 0.01490 -0.18370 0.01030
H30 H 0.24740 0.38390 0.11480
H31 H 0.37850 0.34930 0.23360
H32 H 0.31640 0.34360 0.41080
H33 H 0.41000 0.36620 0.44010
H34 H 0.54270 0.10140 0.47920
H35 H 0.46350 0.09790 0.51210
H36 H 0.45470 0.09160 0.38320
H37 H 0.58470 0.23210 0.58400
H38 H 0.52630 0.31070 0.55540
H39 H 0.50560 0.23310 0.61730
H40 H 0.57080 0.21970 0.37970
H41 H 0.48270 0.21330 0.28300
H42 H 0.51240 0.29830 0.34790
H43 H 0.18440 0.43360 0.23350
H44 H 0.12880 0.36790 0.14600
H45 H 0.17710 0.34180 0.27380
H46 H 0.46700 0.54390 0.32150
H47 H 0.48070 0.45960 0.39040
H48 H 0.47610 0.45950 0.26300
H49 H 0.34030 0.57820 0.35740
H50 H 0.26790 0.51310 0.33230
H51 H 0.35250 0.49750 0.43340
H52 H 0.33550 0.57270 0.16200
H53 H 0.34820 0.48900 0.10470
H54 H 0.26460 0.50540 0.12350
#END
