
#######################################################################
#
#                 Cambridge Crystallographic Data Centre
#                                CCDC
#
#######################################################################
#
# If this CIF has been generated from an entry in the Cambridge
# Structural Database, then it will include bibliographic, chemical,
# crystal, experimental, refinement or atomic coordinate data resulting
# from the CCDC's data processing and validation procedures.
#
#######################################################################

data_CSD_CIF_DOCJEK
_audit_creation_date 1987-02-04
_audit_creation_method CSD-ConQuest-V1
_database_code_CSD DOCJEK
_chemical_formula_sum 'C15 H20 N2 O2'
_chemical_formula_moiety
;
C15 H20 N2 O2
;
_journal_coden_Cambridge 35
_journal_volume 50
_journal_year 1985
_journal_page_first 3019
_journal_name_full 'J.Org.Chem. '
loop_
_publ_author_name
"C.H.Heathcock"
"M.A.Henderson"
"D.A.Hoare"
"M.A.Sanner"
_chemical_name_systematic
;
3-(3-Hydroxyimino-1-methyl-3-phenyl-propyl)-N-methyl-2-pyrrolidone
;
_cell_volume   1437.136
_exptl_crystal_density_diffrn 1.2
_diffrn_ambient_temperature ?
_diffrn_special_details
;
The study was carried out at room temperature,in the range 283-303K

;
_symmetry_cell_setting monoclinic
_symmetry_space_group_name_H-M 'C c'
_symmetry_Int_Tables_number 9
loop_
_symmetry_equiv_pos_site_id
_symmetry_equiv_pos_as_xyz
1 x,y,z
2 1/2+x,1/2+y,z
3 x,-y,1/2+z
4 1/2+x,1/2-y,1/2+z
_cell_length_a 8.8993(10)
_cell_length_b 15.1685(15)
_cell_length_c 10.8165(13)
_cell_angle_alpha 90
_cell_angle_beta 100.177(9)
_cell_angle_gamma 90
_cell_formula_units_Z 4
loop_
_atom_type_symbol
_atom_type_radius_bond
C 0.68
H 0.23
N 0.68
O 0.68
loop_
_atom_site_label
_atom_site_type_symbol
_atom_site_fract_x
_atom_site_fract_y
_atom_site_fract_z
O1 O 0.50000 0.6092(1) 0.50000
O2 O 0.1460(2) 0.2662(1) 0.5289(2)
N1 N 0.3450(2) 0.6201(1) 0.4550(2)
N2 N 0.3749(3) 0.2303(1) 0.6485(2)
C1 C 0.0535(3) 0.6022(2) 0.2980(3)
C2 C -0.1021(3) 0.6102(2) 0.2517(3)
C3 C -0.2060(3) 0.5746(2) 0.3154(3)
C4 C -0.1576(3) 0.5299(2) 0.4252(3)
C5 C -0.0039(3) 0.5196(2) 0.4701(3)
C6 C 0.1052(3) 0.5566(2) 0.4088(3)
C7 C 0.2696(3) 0.5489(1) 0.4603(2)
C8 C 0.3345(3) 0.4620(1) 0.5103(2)
C9 C 0.3308(3) 0.3922(2) 0.4078(2)
C10 C 0.3854(3) 0.3024(2) 0.4615(2)
C11 C 0.5471(3) 0.2960(2) 0.5362(3)
C12 C 0.5374(3) 0.2342(2) 0.6432(3)
C13 C 0.2873(3) 0.2653(2) 0.5479(3)
C14 C 0.3193(5) 0.1813(2) 0.7443(4)
C15 C 0.4214(4) 0.4211(2) 0.3079(3)
H1 H 0.55470 0.66800 0.50000
H2 H 0.12500 0.62860 0.25370
H3 H -0.13600 0.64020 0.17460
H4 H -0.31280 0.58160 0.28390
H5 H -0.23080 0.50600 0.47100
H6 H 0.02780 0.48710 0.54500
H7 H 0.27680 0.44090 0.57050
H8 H 0.43730 0.47060 0.54980
H9 H 0.22630 0.38610 0.36930
H10 H 0.38010 0.27050 0.38540
H11 H 0.58210 0.35220 0.56670
H12 H 0.61390 0.27250 0.48520
H13 H 0.59310 0.25740 0.72030
H14 H 0.57540 0.17780 0.62880
H15 H 0.21060 0.18650 0.73290
H16 H 0.34630 0.12130 0.74050
H17 H 0.36190 0.20460 0.82500
H18 H 0.38520 0.47640 0.27570
H19 H 0.52580 0.42450 0.34420
H20 H 0.40740 0.37840 0.24210
#END
