
#######################################################################
#
#                 Cambridge Crystallographic Data Centre
#                                CCDC
#
#######################################################################
#
# If this CIF has been generated from an entry in the Cambridge
# Structural Database, then it will include bibliographic, chemical,
# crystal, experimental, refinement or atomic coordinate data resulting
# from the CCDC's data processing and validation procedures.
#
#######################################################################

data_CSD_CIF_DOCJAG
_audit_creation_date 1987-02-04
_audit_creation_method CSD-ConQuest-V1
_database_code_CSD DOCJAG
_chemical_formula_sum 'C17 H24 N2 O2'
_chemical_formula_moiety
;
C17 H24 N2 O2
;
_journal_coden_Cambridge 35
_journal_volume 50
_journal_year 1985
_journal_page_first 3019
_journal_name_full 'J.Org.Chem. '
loop_
_publ_author_name
"C.H.Heathcock"
"M.A.Henderson"
"D.A.Hoare"
"M.A.Sanner"
_chemical_name_systematic
;
N-(5-Hydroxyimino-2,3-dimethyl-1-oxo-5-phenyl-pentyl)-pyrrolidine
;
_cell_volume   1629.778
_exptl_crystal_density_diffrn 1.18
_diffrn_ambient_temperature ?
_diffrn_special_details
;
The study was carried out at room temperature,in the range 283-303K

;
_symmetry_cell_setting monoclinic
_symmetry_space_group_name_H-M 'P 21/c'
_symmetry_Int_Tables_number 14
loop_
_symmetry_equiv_pos_site_id
_symmetry_equiv_pos_as_xyz
1 x,y,z
2 -x,1/2+y,1/2-z
3 -x,-y,-z
4 x,-1/2-y,-1/2+z
_cell_length_a 8.1136(8)
_cell_length_b 12.4232(13)
_cell_length_c 16.5662(14)
_cell_angle_alpha 90
_cell_angle_beta 102.573(8)
_cell_angle_gamma 90
_cell_formula_units_Z 4
loop_
_atom_type_symbol
_atom_type_radius_bond
C 0.68
H 0.23
N 0.68
O 0.68
loop_
_atom_site_label
_atom_site_type_symbol
_atom_site_fract_x
_atom_site_fract_y
_atom_site_fract_z
O1 O 0.1267(2) 0.2950(1) 0.18890(8)
O2 O 0.6509(2) -0.0436(1) 0.27287(9)
N1 N 0.0772(2) 0.2434(1) 0.05621(9)
N2 N 0.6548(2) 0.0284(1) 0.3379(1)
C1 C 0.0442(3) 0.1656(2) -0.0123(1)
C2 C -0.0032(3) 0.2352(2) -0.0888(1)
C3 C 0.0684(3) 0.3431(2) -0.0643(1)
C4 C 0.0652(3) 0.3545(2) 0.0255(1)
C5 C 0.1062(2) 0.2216(2) 0.1369(1)
C6 C 0.1049(3) 0.1050(2) 0.1639(1)
C7 C 0.2321(2) 0.0855(2) 0.2458(1)
C8 C 0.4135(3) 0.1104(2) 0.2380(1)
C9 C 0.5384(2) 0.1011(2) 0.3191(1)
C10 C 0.5321(2) 0.1771(2) 0.3871(1)
C11 C 0.5749(3) 0.1454(2) 0.4694(1)
C12 C 0.5692(3) 0.2178(2) 0.5322(1)
C13 C 0.5214(3) 0.3215(2) 0.5145(1)
C14 C 0.4785(3) 0.3537(2) 0.4337(2)
C15 C 0.4826(3) 0.2830(2) 0.3704(1)
C16 C -0.0749(3) 0.0783(2) 0.1695(2)
C17 C 0.2223(3) -0.0292(2) 0.2766(1)
H1 H 0.14330 0.12360 -0.01350
H2 H -0.04440 0.11660 -0.00730
H3 H 0.03870 0.20690 -0.13240
H4 H -0.12470 0.24010 -0.10470
H5 H 0.18060 0.34790 -0.07230
H6 H 0.00180 0.39840 -0.09630
H7 H 0.15780 0.39630 0.05540
H8 H -0.03760 0.38730 0.03360
H9 H 0.14200 0.05560 0.12410
H10 H 0.20390 0.13270 0.28740
H11 H 0.44500 0.06250 0.19810
H12 H 0.41860 0.18290 0.21660
H13 H 0.61120 0.07150 0.48250
H14 H 0.59540 0.19290 0.58930
H15 H 0.52100 0.37390 0.55760
H16 H 0.44390 0.42730 0.42230
H17 H 0.44960 0.30500 0.31400
H18 H -0.08650 0.00580 0.18670
H19 H -0.10810 0.12510 0.21010
H20 H -0.15310 0.08980 0.11810
H21 H 0.29800 -0.03810 0.32970
H22 H 0.10930 -0.04290 0.28450
H23 H 0.24830 -0.07830 0.23890
H24 H 0.75000 -0.08400 0.29100
#END
