
#######################################################################
#
#                 Cambridge Crystallographic Data Centre
#                                CCDC
#
#######################################################################
#
# If this CIF has been generated from an entry in the Cambridge
# Structural Database, then it will include bibliographic, chemical,
# crystal, experimental, refinement or atomic coordinate data resulting
# from the CCDC's data processing and validation procedures.
#
#######################################################################

data_CSD_CIF_DOCXAV
_audit_creation_date 2008-09-09
_audit_creation_method CSD-ConQuest-V1
_database_code_CSD DOCXAV
_database_code_depnum_ccdc_archive 'CCDC 626923'
_chemical_formula_sum 'C25 H22 N2 O4'
_chemical_formula_moiety
;
C25 H22 N2 O4
;
_journal_coden_Cambridge 211
_journal_volume 61
_journal_year 2008
_journal_page_first 781
_journal_name_full 'J.Coord.Chem. '
loop_
_publ_author_name
"Wen-Kui Dong"
"Jin-Gui Duan"
_chemical_name_systematic
;
1,1'-(3,7-Dioxa-2,8-diazanona-1,8-diene-1,9-diyl)dinaphthalen-2,2'-diol
;
_chemical_name_common
;
1,1'-((1,3-Propylene)dioxybis(nitrilomethylidyne))dinaphth-2,2'-diol
;
_chemical_melting_point 433.15
_cell_volume   1024.971
_exptl_crystal_density_diffrn 1.343
_exptl_special_details
;
Melting point range 433.15-434.15K

;
_exptl_crystal_preparation 'ethanol'
_diffrn_ambient_temperature 298
#These two values have been output from a single CSD field.
_refine_ls_R_factor_gt 0.0491
_refine_ls_wR_factor_gt 0.0491
_symmetry_cell_setting monoclinic
_symmetry_space_group_name_H-M 'C 2'
_symmetry_Int_Tables_number 5
loop_
_symmetry_equiv_pos_site_id
_symmetry_equiv_pos_as_xyz
1 x,y,z
2 -x,y,-z
3 1/2+x,1/2+y,z
4 1/2-x,1/2+y,-z
_cell_length_a 31.850(3)
_cell_length_b 4.666(2)
_cell_length_c 6.899(3)
_cell_angle_alpha 90
_cell_angle_beta 91.396(3)
_cell_angle_gamma 90
_cell_formula_units_Z 2
loop_
_atom_type_symbol
_atom_type_radius_bond
C 0.68
H 0.23
N 0.68
O 0.68
loop_
_atom_site_label
_atom_site_type_symbol
_atom_site_fract_x
_atom_site_fract_y
_atom_site_fract_z
N1 N 0.56199(10) 0.7482(10) 0.7854(5)
O1 O 0.55106(8) 0.9314(7) 0.6320(4)
O2 O 0.55766(8) 0.5106(8) 1.1197(4)
H1 H 0.55040 0.61810 1.03090
C1 C 0.51247(11) 1.0729(10) 0.6755(6)
H2 H 0.51630 1.19420 0.78880
H3 H 0.49080 0.93300 0.70170
C2 C 0.50000 1.2522(16) 0.50000
H4 H 0.47660 1.37470 0.53300
H5 H 0.52340 1.37470 0.46700
C3 C 0.59540(13) 0.6091(10) 0.7564(6)
H6 H 0.60960 0.63910 0.64190
C4 C 0.61221(12) 0.4044(10) 0.8960(6)
C5 C 0.59298(13) 0.3690(12) 1.0711(7)
C6 C 0.60888(14) 0.1749(12) 1.2110(6)
H7 H 0.59510 0.15030 1.32710
C7 C 0.64374(14) 0.0264(14) 1.1771(7)
H8 H 0.65430 -0.09750 1.27190
C8 C 0.66479(13) 0.0523(12) 1.0022(7)
C9 C 0.64896(13) 0.2414(11) 0.8590(6)
C10 C 0.67043(13) 0.2549(13) 0.6843(7)
H9 H 0.66030 0.37570 0.58660
C11 C 0.70539(14) 0.0982(13) 0.6530(8)
H10 H 0.71900 0.11440 0.53590
C12 C 0.72108(13) -0.0881(13) 0.7963(9)
H11 H 0.74510 -0.19600 0.77460
C13 C 0.70112(14) -0.1104(12) 0.9669(8)
H12 H 0.71150 -0.23460 1.06190
N1A N 0.43801(10) 0.7482(10) 0.2146(5)
O1A O 0.44894(8) 0.9314(7) 0.3680(4)
O2A O 0.44234(8) 0.5106(8) -0.1197(4)
H1A H 0.44960 0.61810 -0.03090
C1A C 0.48753(11) 1.0729(10) 0.3245(6)
H2A H 0.48370 1.19420 0.21120
H3A H 0.50920 0.93300 0.29830
C3A C 0.40460(13) 0.6091(10) 0.2436(6)
H6A H 0.39040 0.63910 0.35810
C4A C 0.38779(12) 0.4044(10) 0.1040(6)
C5A C 0.40702(13) 0.3690(12) -0.0711(7)
C6A C 0.39112(14) 0.1749(12) -0.2110(6)
H7A H 0.40490 0.15030 -0.32710
C7A C 0.35626(14) 0.0264(14) -0.1771(7)
H8A H 0.34570 -0.09750 -0.27190
C8A C 0.33521(13) 0.0523(12) -0.0022(7)
C9A C 0.35104(13) 0.2414(11) 0.1410(6)
C10A C 0.32957(13) 0.2549(13) 0.3157(7)
H9A H 0.33970 0.37570 0.41340
C11A C 0.29461(14) 0.0982(13) 0.3470(8)
H10A H 0.28100 0.11440 0.46410
C12A C 0.27892(13) -0.0881(13) 0.2037(9)
H11A H 0.25490 -0.19600 0.22540
C13A C 0.29888(14) -0.1104(12) 0.0331(8)
H12A H 0.28850 -0.23460 -0.06190
#END
