
#######################################################################
#
#                 Cambridge Crystallographic Data Centre
#                                CCDC
#
#######################################################################
#
# If this CIF has been generated from an entry in the Cambridge
# Structural Database, then it will include bibliographic, chemical,
# crystal, experimental, refinement or atomic coordinate data resulting
# from the CCDC's data processing and validation procedures.
#
#######################################################################

data_CSD_CIF_DODBOO
_audit_creation_date 2008-09-09
_audit_creation_method CSD-ConQuest-V1
_database_code_CSD DODBOO
_database_code_depnum_ccdc_archive 'CCDC 626924'
_chemical_formula_sum 'C24 H20 N2 O4'
_chemical_formula_moiety
;
C24 H20 N2 O4
;
_journal_coden_Cambridge 211
_journal_volume 61
_journal_year 2008
_journal_page_first 1306
_journal_name_full 'J.Coord.Chem. '
loop_
_publ_author_name
"Wen-Kui Dong"
"Jin-Gui Duan"
"Lan-Qin Chai"
"Gai-Lan Liu"
"Hui-Lu Wu"
_chemical_name_systematic
;
1,1'-(3,6-Dioxa-2,7-diazaocta-1,7-diene-1,8-diyl)dinaphthalen-2,2'-diol
;
_chemical_name_common
;
1,1'-(Ethylenedioxybis(nitrilomethylidyne))dinaphth-2,2'-diol
;
_chemical_melting_point 430.65
_cell_volume   1961.143
_exptl_crystal_colour 'pearl-colored'
_exptl_crystal_density_diffrn 1.356
_exptl_special_details
;
Melting point range 430.65-431.65K

;
_exptl_crystal_description 'needle'
_exptl_crystal_preparation 'ethanol'
_diffrn_ambient_temperature 293
#These two values have been output from a single CSD field.
_refine_ls_R_factor_gt 0.0481
_refine_ls_wR_factor_gt 0.0481
_symmetry_cell_setting monoclinic
_symmetry_space_group_name_H-M 'P 21/c'
_symmetry_Int_Tables_number 14
loop_
_symmetry_equiv_pos_site_id
_symmetry_equiv_pos_as_xyz
1 x,y,z
2 -x,1/2+y,1/2-z
3 -x,-y,-z
4 x,-1/2-y,-1/2+z
_cell_length_a 14.608(3)
_cell_length_b 4.6696(19)
_cell_length_c 28.751(3)
_cell_angle_alpha 90
_cell_angle_beta 90.464(3)
_cell_angle_gamma 90
_cell_formula_units_Z 4
loop_
_atom_type_symbol
_atom_type_radius_bond
C 0.68
H 0.23
N 0.68
O 0.68
loop_
_atom_site_label
_atom_site_type_symbol
_atom_site_fract_x
_atom_site_fract_y
_atom_site_fract_z
N1 N 0.12019(16) 0.7146(6) 0.56146(9)
N2 N 0.31892(18) 0.4627(6) 0.43712(9)
O1 O 0.18790(14) 0.5211(5) 0.54699(7)
O2 O 0.32046(14) 0.3353(5) 0.48163(7)
O3 O -0.03387(15) 0.9908(5) 0.56422(8)
H1 H 0.00320 0.87490 0.55420
O4 O 0.29111(14) 0.5002(5) 0.34744(7)
H2 H 0.28190 0.44140 0.37390
C1 C 0.1607(2) 0.3936(7) 0.50393(11)
H3 H 0.15230 0.53960 0.48030
H4 H 0.10340 0.29110 0.50750
C2 C 0.2353(2) 0.1914(7) 0.49031(11)
H5 H 0.24430 0.05220 0.51490
H6 H 0.21650 0.08870 0.46250
C3 C 0.1432(2) 0.8385(7) 0.59917(11)
H7 H 0.19910 0.79250 0.61300
C4 C 0.0852(2) 1.0490(7) 0.62129(10)
C5 C 0.0001(2) 1.1137(8) 0.60373(11)
C6 C -0.0582(2) 1.3116(8) 0.62554(13)
H8 H -0.11580 1.35040 0.61300
C7 C -0.0303(2) 1.4441(8) 0.66461(13)
H9 H -0.06940 1.57380 0.67890
C8 C 0.0571(2) 1.3914(7) 0.68457(11)
C9 C 0.1156(2) 1.1903(7) 0.66299(10)
C10 C 0.2013(2) 1.1397(7) 0.68442(11)
H10 H 0.24160 1.01090 0.67080
C11 C 0.2267(2) 1.2750(8) 0.72468(12)
H11 H 0.28350 1.23690 0.73810
C12 C 0.1677(3) 1.4697(9) 0.74567(12)
H12 H 0.18460 1.55830 0.77340
C13 C 0.0862(3) 1.5296(8) 0.72578(12)
H13 H 0.04830 1.66490 0.73950
C14 C 0.3866(2) 0.6331(7) 0.43249(11)
H14 H 0.42400 0.67020 0.45810
C15 C 0.40710(19) 0.7700(7) 0.38867(10)
C16 C 0.3601(2) 0.6925(7) 0.34830(11)
C17 C 0.3843(2) 0.8096(8) 0.30493(11)
H15 H 0.35320 0.75320 0.27810
C18 C 0.4522(2) 1.0020(8) 0.30220(11)
H16 H 0.46710 1.07740 0.27330
C19 C 0.5019(2) 1.0941(7) 0.34192(11)
C20 C 0.47897(19) 0.9749(7) 0.38567(10)
C21 C 0.5305(2) 1.0724(7) 0.42440(11)
H17 H 0.51800 0.99710 0.45360
C22 C 0.5977(2) 1.2721(8) 0.42048(12)
H18 H 0.63000 1.33130 0.44680
C23 C 0.6186(2) 1.3888(8) 0.37715(12)
H19 H 0.66460 1.52530 0.37450
C24 C 0.5714(2) 1.3018(7) 0.33891(11)
H20 H 0.58520 1.38100 0.31010
#END
