
#######################################################################
#
#                 Cambridge Crystallographic Data Centre
#                                CCDC
#
#######################################################################
#
# If this CIF has been generated from an entry in the Cambridge
# Structural Database, then it will include bibliographic, chemical,
# crystal, experimental, refinement or atomic coordinate data resulting
# from the CCDC's data processing and validation procedures.
#
#######################################################################

data_CSD_CIF_DODPOD
_audit_creation_date 2014-05-05
_audit_creation_method CSD-ConQuest-V1
_database_code_CSD DODPOD
_database_code_depnum_ccdc_archive 'CCDC 1000993'
_chemical_formula_sum 'C22 H30 N2 O6'
_chemical_formula_moiety
;
C22 H30 N2 O6
;
_journal_coden_Cambridge 4
_journal_volume 135
_journal_year 2013
_journal_page_first 14052
_journal_name_full 'J.Am.Chem.Soc. '
loop_
_publ_author_name
"P.E.Gormisky"
"M.Christina White"
_chemical_name_systematic
;
2-(2-(4-methylcyclohexyl)propyl)cyclopentyl 3,5-dinitrobenzoate
;
_cell_volume   1109.505
_exptl_crystal_colour 'colorless'
_exptl_crystal_density_diffrn 1.253
_exptl_special_details
;
Absolute configuration
The data crystal was mounted using oil (Parantone-N, Exxon) to a 0.3 mm 
cryo-loop (Hampton Research) with the (4 -1 -2) scattering planes roughly 
normal to the spindle axis
;
_exptl_crystal_description 'Needle'
_diffrn_ambient_temperature 193
_refine_special_details
;
O6 and O6B disordered over two sites with occupancies 0.70:0.30.

;
#These two values have been output from a single CSD field.
_refine_ls_R_factor_gt 0.0389
_refine_ls_wR_factor_gt 0.0389
_symmetry_cell_setting monoclinic
_symmetry_space_group_name_H-M 'P 21'
_symmetry_Int_Tables_number 4
loop_
_symmetry_equiv_pos_site_id
_symmetry_equiv_pos_as_xyz
1 x,y,z
2 -x,1/2+y,-z
_cell_length_a 9.8498(3)
_cell_length_b 5.9404(2)
_cell_length_c 18.9767(7)
_cell_angle_alpha 90
_cell_angle_beta 92.249(2)
_cell_angle_gamma 90
_cell_formula_units_Z 2
loop_
_atom_type_symbol
_atom_type_radius_bond
C 0.68
H 0.23
N 0.68
O 0.68
loop_
_atom_site_label
_atom_site_type_symbol
_atom_site_fract_x
_atom_site_fract_y
_atom_site_fract_z
O1 O 0.18361(14) 0.2810(3) 0.17788(7)
O2 O 0.13901(18) -0.0097(3) 0.10475(9)
O3 O -0.2777(2) 0.0347(4) -0.04259(11)
O4 O -0.42242(17) 0.3020(4) -0.02874(10)
O5 O -0.30473(17) 0.9138(3) 0.13127(10)
O6 O -0.126(2) 0.883(2) 0.2004(12)
N1 N -0.3139(2) 0.2102(4) -0.01581(10)
N2 N -0.20552(18) 0.8123(3) 0.15416(10)
C1 C 0.3012(2) 0.1642(4) 0.21033(11)
H1 H 0.28370 -0.00010 0.21710
C2 C 0.3309(2) 0.2852(4) 0.27993(11)
H2 H 0.39750 0.19150 0.30820
C3 C 0.4048(2) 0.4985(5) 0.25708(14)
H3 H 0.46240 0.55990 0.29650
H4 H 0.33900 0.61550 0.24100
C4 C 0.4921(3) 0.4215(6) 0.19619(15)
H5 H 0.49320 0.53800 0.15890
H6 H 0.58670 0.39250 0.21340
C5 C 0.4269(3) 0.2071(6) 0.16797(14)
H7 H 0.49110 0.07950 0.17340
H8 H 0.40100 0.22410 0.11730
C6 C 0.1123(2) 0.1726(4) 0.12833(10)
C7 C -0.0122(2) 0.3023(4) 0.10528(10)
C8 C -0.0992(2) 0.2102(4) 0.05358(11)
H9 H -0.07580 0.07440 0.03060
C9 C -0.2193(2) 0.3177(4) 0.03603(10)
C10 C -0.25777(19) 0.5171(4) 0.06681(10)
H10 H -0.34080 0.59010 0.05380
C11 C -0.1679(2) 0.6042(4) 0.11781(11)
C12 C -0.0467(2) 0.5020(4) 0.13782(10)
H11 H 0.01190 0.56720 0.17320
C13 C 0.2092(2) 0.3269(4) 0.32517(11)
H12 H 0.14950 0.43870 0.30080
H13 H 0.24240 0.39520 0.37020
C14 C 0.1231(2) 0.1209(4) 0.34231(11)
H14 H 0.09340 0.04820 0.29670
C15 C -0.0053(2) 0.1864(4) 0.38120(11)
H15 H 0.02450 0.26510 0.42570
C16 C -0.0985(2) 0.3469(4) 0.33875(13)
H16 H -0.04770 0.48610 0.32840
H17 H -0.12540 0.27540 0.29320
C17 C -0.2260(2) 0.4087(4) 0.37753(14)
H18 H -0.19930 0.49400 0.42070
H19 H -0.28350 0.50830 0.34700
C18 C -0.3084(2) 0.2056(5) 0.39784(12)
H20 H -0.34120 0.12860 0.35350
C19 C -0.2177(3) 0.0428(5) 0.43942(13)
H21 H -0.26970 -0.09600 0.44860
H22 H -0.19150 0.11130 0.48550
C20 C -0.0890(3) -0.0199(4) 0.40151(13)
H23 H -0.11470 -0.10590 0.35830
H24 H -0.03210 -0.11890 0.43250
C21 C 0.2097(3) -0.0490(5) 0.38454(14)
H25 H 0.15790 -0.18820 0.39030
H26 H 0.23430 0.01400 0.43100
H27 H 0.29240 -0.08170 0.35940
C22 C -0.4317(3) 0.2711(6) 0.43883(14)
H28 H -0.48640 0.13680 0.44750
H29 H -0.48650 0.38030 0.41150
H30 H -0.40180 0.33830 0.48400
O7? O -0.154(4) 0.851(8) 0.2131(14)
#END
