
#######################################################################
#
#                 Cambridge Crystallographic Data Centre
#                                CCDC
#
#######################################################################
#
# If this CIF has been generated from an entry in the Cambridge
# Structural Database, then it will include bibliographic, chemical,
# crystal, experimental, refinement or atomic coordinate data resulting
# from the CCDC's data processing and validation procedures.
#
#######################################################################

data_CSD_CIF_DODPAP
_audit_creation_date 2014-05-05
_audit_creation_method CSD-ConQuest-V1
_database_code_CSD DODPAP
_database_code_depnum_ccdc_archive 'CCDC 1000990'
_chemical_formula_sum 'C20 H15 N1 O3'
_chemical_formula_moiety
;
C20 H15 N1 O3
;
_journal_coden_Cambridge 4
_journal_volume 135
_journal_year 2013
_journal_page_first 14048
_journal_name_full 'J.Am.Chem.Soc. '
loop_
_publ_author_name
"Qing-Long Xu"
"Hongyin Gao"
"M.Yousufuddin"
"D.H.Ess"
"L.Kurti"
_chemical_name_systematic
;
4-nitro-3',4'-dihydro-1,2'-binaphthalen-1'(2'H)-one
;
_cell_volume    741.202
_exptl_crystal_colour 'brown'
_exptl_crystal_density_diffrn 1.422
_exptl_crystal_description 'prism'
_diffrn_ambient_temperature 100
#These two values have been output from a single CSD field.
_refine_ls_R_factor_gt 0.0732
_refine_ls_wR_factor_gt 0.0732
_symmetry_cell_setting triclinic
_symmetry_space_group_name_H-M 'P 1'
_symmetry_Int_Tables_number 1
loop_
_symmetry_equiv_pos_site_id
_symmetry_equiv_pos_as_xyz
1 x,y,z
_cell_length_a 7.1761(15)
_cell_length_b 10.402(2)
_cell_length_c 10.811(2)
_cell_angle_alpha 97.229(3)
_cell_angle_beta 101.480(3)
_cell_angle_gamma 107.079(3)
_cell_formula_units_Z 2
loop_
_atom_type_symbol
_atom_type_radius_bond
C 0.68
H 0.23
N 0.68
O 0.68
loop_
_atom_site_label
_atom_site_type_symbol
_atom_site_fract_x
_atom_site_fract_y
_atom_site_fract_z
O1 O 0.5474(4) 0.1362(3) 0.4216(3)
O2 O 0.0328(5) -0.2205(3) -0.2381(2)
O3 O 0.2018(5) -0.3408(3) -0.1505(3)
N1 N 0.1301(4) -0.2469(3) -0.1439(3)
C1 C 0.4077(5) 0.1789(3) 0.4257(3)
C2 C 0.4246(5) 0.2926(3) 0.5313(3)
C3 C 0.5955(5) 0.3376(3) 0.6354(3)
H1 H 0.69830 0.29700 0.63660
C4 C 0.6153(5) 0.4407(4) 0.7365(3)
H2 H 0.73090 0.47070 0.80700
C5 C 0.4637(5) 0.5006(3) 0.7341(3)
H3 H 0.47580 0.57070 0.80360
C6 C 0.2964(5) 0.4583(3) 0.6308(3)
H4 H 0.19600 0.50110 0.62970
C7 C 0.2721(5) 0.3533(3) 0.5275(3)
C8 C 0.0889(5) 0.3086(3) 0.4160(3)
H5 H 0.04980 0.38950 0.39830
H6 H -0.02450 0.24360 0.43900
C9 C 0.1286(5) 0.2397(3) 0.2950(3)
H7 H 0.23070 0.30750 0.26570
H8 H 0.00310 0.20480 0.22530
C10 C 0.2047(5) 0.1197(3) 0.3246(3)
H9 H 0.10790 0.06340 0.36760
C11 C 0.2061(4) 0.0231(3) 0.2076(3)
C12 C 0.2135(5) 0.0682(4) 0.0943(3)
H10 H 0.23660 0.16270 0.09320
C13 C 0.1875(5) -0.0233(3) -0.0210(3)
H11 H 0.18500 0.00830 -0.09980
C14 C 0.1660(5) -0.1579(3) -0.0176(3)
C15 C 0.1729(4) -0.2116(3) 0.0977(3)
C16 C 0.1556(5) -0.3497(3) 0.1060(3)
H12 H 0.14500 -0.41260 0.03110
C17 C 0.1540(5) -0.3934(3) 0.2200(3)
H13 H 0.14450 -0.48590 0.22360
C18 C 0.1665(5) -0.3027(3) 0.3329(3)
H14 H 0.16310 -0.33440 0.41130
C19 C 0.1834(4) -0.1680(3) 0.3282(3)
H15 H 0.19150 -0.10760 0.40420
C20 C 0.1892(4) -0.1176(3) 0.2131(3)
O4 O 1.0288(4) 0.9932(3) 0.5574(2)
O5 O 0.7253(4) 0.3361(3) 0.1957(3)
O6 O 0.5454(4) 0.3986(3) 0.0439(3)
N2 N 0.6470(4) 0.4180(3) 0.1560(3)
C21 C 0.8775(5) 0.9841(3) 0.5973(3)
C22 C 0.8860(5) 1.0817(3) 0.7142(3)
C23 C 1.0615(5) 1.1950(3) 0.7663(3)
H16 H 1.17260 1.20660 0.72850
C24 C 1.0744(5) 1.2908(4) 0.8732(3)
H17 H 1.19230 1.36830 0.90760
C25 C 0.9095(5) 1.2706(4) 0.9289(3)
H18 H 0.91670 1.33440 1.00230
C26 C 0.7358(5) 1.1581(3) 0.8777(3)
H19 H 0.62620 1.14580 0.91700
C27 C 0.7197(5) 1.0626(3) 0.7694(3)
C28 C 0.5280(5) 0.9426(3) 0.7129(3)
H20 H 0.42960 0.97260 0.65600
H21 H 0.46880 0.91040 0.78330
C29 C 0.5688(5) 0.8242(3) 0.6357(3)
H22 H 0.44040 0.74930 0.59520
H23 H 0.65620 0.78750 0.69410
C30 C 0.6723(5) 0.8751(3) 0.5311(3)
H24 H 0.58860 0.92350 0.48350
C31 C 0.6849(5) 0.7633(3) 0.4313(3)
C32 C 0.6925(5) 0.6402(4) 0.4645(3)
H25 H 0.70260 0.63030 0.55150
C33 C 0.6855(4) 0.5297(3) 0.3721(3)
H26 H 0.69070 0.44600 0.39650
C34 C 0.6710(4) 0.5439(3) 0.2466(3)
C35 C 0.6717(4) 0.6681(3) 0.2046(3)
C36 C 0.6746(5) 0.6904(4) 0.0776(3)
H27 H 0.67170 0.61780 0.01370
C37 C 0.6814(5) 0.8149(4) 0.0461(3)
H28 H 0.68280 0.82760 -0.03920
C38 C 0.6863(5) 0.9249(4) 0.1398(3)
H29 H 0.68980 1.01070 0.11700
C39 C 0.6862(5) 0.9076(3) 0.2630(3)
H30 H 0.68910 0.98210 0.32490
C40 C 0.6817(4) 0.7804(3) 0.3011(3)
#END
