
#######################################################################
#
#                 Cambridge Crystallographic Data Centre
#                                CCDC
#
#######################################################################
#
# If this CIF has been generated from an entry in the Cambridge
# Structural Database, then it will include bibliographic, chemical,
# crystal, experimental, refinement or atomic coordinate data resulting
# from the CCDC's data processing and validation procedures.
#
#######################################################################

data_CSD_CIF_DOFTEZ
_audit_creation_date 2014-05-05
_audit_creation_method CSD-ConQuest-V1
_database_code_CSD DOFTEZ
_database_code_depnum_ccdc_archive 'CCDC 1001080'
_chemical_formula_sum 'C20 H19 N1 O6'
_chemical_formula_moiety
;
C20 H19 N1 O6
;
_journal_coden_Cambridge 4
_journal_volume 135
_journal_year 2013
_journal_page_first 15342
_journal_name_full 'J.Am.Chem.Soc. '
loop_
_publ_author_name
"G.L.Lackner"
"K.W.Quasdorf"
"L.E.Overman"
_chemical_name_systematic
;
Adamantan-1-yl ((1,3-dioxo-1,3-dihydro-2H-isoindol-2-yl)oxy)(oxo)acetate
;
_cell_volume   3449.755
_exptl_crystal_colour 'colorless'
_exptl_crystal_density_diffrn 1.422
_exptl_crystal_description 'prism'
_diffrn_ambient_temperature 143
#These two values have been output from a single CSD field.
_refine_ls_R_factor_gt 0.0363
_refine_ls_wR_factor_gt 0.0363
_symmetry_cell_setting monoclinic
_symmetry_space_group_name_H-M 'P 21/c'
_symmetry_Int_Tables_number 14
loop_
_symmetry_equiv_pos_site_id
_symmetry_equiv_pos_as_xyz
1 x,y,z
2 -x,1/2+y,1/2-z
3 -x,-y,-z
4 x,-1/2-y,-1/2+z
_cell_length_a 18.6748(11)
_cell_length_b 7.0415(4)
_cell_length_c 26.4106(16)
_cell_angle_alpha 90
_cell_angle_beta 96.6267(7)
_cell_angle_gamma 90
_cell_formula_units_Z 8
loop_
_atom_type_symbol
_atom_type_radius_bond
C 0.68
H 0.23
N 0.68
O 0.68
loop_
_atom_site_label
_atom_site_type_symbol
_atom_site_fract_x
_atom_site_fract_y
_atom_site_fract_z
O1 O 0.12497(6) 0.57875(15) 0.12991(4)
O2 O 0.17793(6) 0.29866(15) 0.28604(4)
O3 O 0.16892(6) 0.23898(14) 0.17721(4)
O4 O 0.27990(6) 0.36781(15) 0.17346(4)
O5 O 0.31127(5) 0.06154(14) 0.11744(4)
O6 O 0.19131(5) -0.00639(15) 0.10663(4)
N1 N 0.15150(8) 0.40131(18) 0.20277(5)
C1 C 0.12695(8) 0.5637(2) 0.17522(5)
C2 C 0.10722(7) 0.69445(19) 0.21534(5)
C3 C 0.07673(8) 0.8732(2) 0.21084(6)
C4 C 0.06308(8) 0.9626(2) 0.25570(6)
C5 C 0.08000(8) 0.8768(2) 0.30275(6)
C6 C 0.11072(8) 0.6967(2) 0.30703(6)
C7 C 0.12358(7) 0.6075(2) 0.26260(5)
C8 C 0.15492(7) 0.4163(2) 0.25565(5)
C9 C 0.23678(8) 0.2495(2) 0.16104(5)
C10 C 0.24295(8) 0.08132(19) 0.12428(5)
C11 C 0.33453(7) -0.08255(19) 0.08132(5)
C12 C 0.31024(8) -0.2823(2) 0.09327(5)
C13 C 0.34288(8) -0.4208(2) 0.05725(5)
C14 C 0.31616(8) -0.3691(2) 0.00194(5)
C15 C 0.33972(7) -0.1670(2) -0.00922(5)
C16 C 0.42211(8) -0.1532(2) -0.00086(6)
C17 C 0.44900(8) -0.2057(2) 0.05441(6)
C18 C 0.41638(8) -0.0674(2) 0.09013(6)
C19 C 0.30739(7) -0.0276(2) 0.02674(5)
C20 C 0.42524(8) -0.4078(2) 0.06549(6)
H1 H 0.0640(9) 0.933(2) 0.1783(7)
H2 H 0.0429(9) 1.088(3) 0.2538(6)
H3 H 0.0715(9) 0.944(3) 0.3320(7)
H4 H 0.1232(9) 0.634(2) 0.3400(6)
H5 H 0.2559(8) -0.291(2) 0.0876(6)
H6 H 0.3275(8) -0.312(2) 0.1280(6)
H7 H 0.3284(8) -0.549(2) 0.0642(5)
H8 H 0.3361(8) -0.463(2) -0.0214(6)
H9 H 0.2632(9) -0.376(2) -0.0041(6)
H10 H 0.3231(7) -0.133(2) -0.0444(5)
H11 H 0.4364(8) -0.021(2) -0.0078(6)
H12 H 0.4439(8) -0.241(2) -0.0244(6)
H13 H 0.5019(9) -0.194(2) 0.0600(6)
H14 H 0.4333(8) -0.096(2) 0.1261(6)
H15 H 0.4300(8) 0.066(2) 0.0830(6)
H16 H 0.3223(8) 0.104(2) 0.0203(5)
H17 H 0.2538(8) -0.033(2) 0.0216(5)
H18 H 0.4430(8) -0.441(2) 0.1004(6)
H19 H 0.4457(9) -0.500(2) 0.0428(6)
O7 O -0.18717(5) 0.84065(15) 0.46807(4)
O8 O -0.03669(6) 0.77912(16) 0.61680(4)
O9 O -0.17884(5) 0.87733(14) 0.57552(4)
O10 O -0.19794(5) 0.56167(14) 0.58553(4)
O11 O -0.27336(5) 0.95278(13) 0.63670(3)
O12 O -0.33231(6) 0.67817(15) 0.61386(4)
N2 N -0.12267(6) 0.82588(18) 0.54805(4)
C21 C -0.13142(7) 0.81815(19) 0.49463(5)
C22 C -0.05728(7) 0.77616(18) 0.48258(5)
C23 C -0.03273(8) 0.7531(2) 0.43574(5)
C24 C 0.04021(8) 0.7143(2) 0.43558(6)
C25 C 0.08614(8) 0.6983(2) 0.48054(6)
C26 C 0.06116(7) 0.71899(19) 0.52776(5)
C27 C -0.01137(7) 0.75821(18) 0.52763(5)
C28 C -0.05349(7) 0.78669(19) 0.57156(5)
C29 C -0.21466(7) 0.7211(2) 0.59155(5)
C30 C -0.28176(7) 0.78348(19) 0.61615(5)
C31 C -0.32959(7) 1.03551(19) 0.66605(5)
C32 C -0.29596(8) 1.2228(2) 0.68492(6)
C33 C -0.34828(8) 1.3267(2) 0.71627(6)
C34 C -0.36194(9) 1.2027(3) 0.76146(6)
C35 C -0.39472(9) 1.0132(2) 0.74238(6)
C36 C -0.46554(8) 1.0495(2) 0.70867(6)
C37 C -0.45165(7) 1.1741(2) 0.66346(5)
C38 C -0.39925(7) 1.0718(2) 0.63181(5)
C39 C -0.34235(8) 0.9092(2) 0.71083(5)
C40 C -0.41922(8) 1.3634(2) 0.68275(6)
H20 H -0.0654(9) 0.763(2) 0.4044(7)
H21 H 0.0592(9) 0.695(2) 0.4040(7)
H22 H 0.1362(9) 0.671(2) 0.4785(6)
H23 H 0.0925(8) 0.708(2) 0.5592(6)
H24 H -0.2854(9) 1.301(2) 0.6552(6)
H25 H -0.2504(9) 1.195(2) 0.7071(6)
H26 H -0.3277(9) 1.444(2) 0.7279(6)
H27 H -0.3957(9) 1.268(3) 0.7817(7)
H28 H -0.3162(10) 1.179(3) 0.7839(7)
H29 H -0.4041(9) 0.935(2) 0.7710(6)
H30 H -0.4992(9) 1.114(2) 0.7289(6)
H31 H -0.4872(9) 0.927(3) 0.6965(6)
H32 H -0.4979(8) 1.198(2) 0.6422(6)
H33 H -0.4200(8) 0.948(2) 0.6186(6)
H34 H -0.3886(8) 1.153(2) 0.6033(6)
H35 H -0.2963(9) 0.887(2) 0.7312(6)
H36 H -0.3637(9) 0.782(3) 0.6985(6)
H37 H -0.4540(8) 1.431(2) 0.7021(6)
H38 H -0.4119(8) 1.445(2) 0.6539(6)
#END
