
#######################################################################
#
#                 Cambridge Crystallographic Data Centre
#                                CCDC
#
#######################################################################
#
# If this CIF has been generated from an entry in the Cambridge
# Structural Database, then it will include bibliographic, chemical,
# crystal, experimental, refinement or atomic coordinate data resulting
# from the CCDC's data processing and validation procedures.
#
#######################################################################

data_CSD_CIF_DOHCUY
_audit_creation_date 1987-03-27
_audit_creation_method CSD-ConQuest-V1
_database_code_CSD DOHCUY
_chemical_formula_sum 'C13 H18 N2 O4'
_chemical_formula_moiety
;
C13 H18 N2 O4
;
_journal_coeditor_code "IUCr A25792"
_journal_coden_Cambridge 591
_journal_volume 42
_journal_year 1986
_journal_page_first 610
_journal_name_full 'Acta Crystallogr.,Sect.C:Cryst.Struct.Commun. '
loop_
_publ_author_name
"K.Padmanabhan"
"V.Ramamurthy"
"K.Venkatesan"
"M.N.Ponnuswamy"
"J.Trotter"
_chemical_name_systematic
;
1-t-Butyl-3,4,5-trimethyl-2,6-dinitrobenzene
;
_cell_volume   1396.405
_exptl_crystal_density_diffrn 1.267
_diffrn_ambient_temperature ?
_diffrn_special_details
;
The study was carried out at room temperature,in the range 283-303K

;
#These two values have been output from a single CSD field.
_refine_ls_R_factor_gt 0.059
_refine_ls_wR_factor_gt 0.059
_symmetry_cell_setting monoclinic
_symmetry_space_group_name_H-M 'P 21/n'
_symmetry_Int_Tables_number 14
loop_
_symmetry_equiv_pos_site_id
_symmetry_equiv_pos_as_xyz
1 x,y,z
2 1/2-x,1/2+y,1/2-z
3 -x,-y,-z
4 -1/2+x,-1/2-y,-1/2+z
_cell_length_a 9.610(1)
_cell_length_b 14.619(1)
_cell_length_c 11.006(1)
_cell_angle_alpha 90
_cell_angle_beta 115.43(1)
_cell_angle_gamma 90
_cell_formula_units_Z 4
loop_
_atom_type_symbol
_atom_type_radius_bond
C 0.68
H 0.23
N 0.68
O 0.68
loop_
_atom_site_label
_atom_site_type_symbol
_atom_site_fract_x
_atom_site_fract_y
_atom_site_fract_z
C1 C 1.1205(2) 0.1762(1) 0.3964(2)
C2 C 1.0886(2) 0.0967(1) 0.3182(2)
C3 C 0.9589(2) 0.0409(1) 0.2817(2)
C4 C 0.8500(2) 0.0638(1) 0.3272(2)
C5 C 0.8747(2) 0.1395(1) 0.4103(2)
C6 C 1.0059(2) 0.1918(1) 0.4399(2)
C7 C 1.2661(2) 0.2373(2) 0.4341(2)
C8 C 1.2335(4) 0.3399(2) 0.4477(3)
C9 C 1.3289(3) 0.2369(2) 0.3262(3)
C10 C 1.3926(3) 0.2028(2) 0.5660(3)
C11 C 0.7602(3) 0.1645(2) 0.4652(2)
C12 C 0.7041(3) 0.0076(2) 0.2865(3)
C13 C 0.9370(3) -0.0428(2) 0.1946(3)
N1 N 1.0188(2) 0.2693(1) 0.5303(2)
N2 N 1.1980(2) 0.0634(1) 0.2659(2)
O1 O 1.0998(3) 0.2584(1) 0.6499(2)
O2 O 0.9411(3) 0.3376(1) 0.4818(2)
O3 O 1.1685(2) 0.0784(2) 0.1490(2)
O4 O 1.3087(2) 0.0195(2) 0.3436(2)
H1 H 1.220(1) 0.343(1) 0.546(1)
H2 H 1.130(1) 0.357(1) 0.364(1)
H3 H 1.314(1) 0.373(1) 0.442(1)
H4 H 1.248(1) 0.266(1) 0.231(1)
H5 H 1.413(1) 0.278(1) 0.352(1)
H6 H 1.386(1) 0.165(1) 0.322(1)
H7 H 1.426(1) 0.138(1) 0.547(1)
H8 H 1.347(1) 0.215(1) 0.639(1)
H9 H 1.479(1) 0.241(1) 0.597(1)
H10 H 0.680(1) 0.191(1) 0.406(1)
H11 H 0.724(1) 0.119(1) 0.495(1)
H12 H 0.815(1) 0.199(1) 0.552(1)
H13 H 0.625(1) 0.046(1) 0.245(1)
H14 H 0.720(1) -0.047(1) 0.248(1)
H15 H 0.687(1) -0.017(1) 0.357(1)
H16 H 0.844(1) -0.030(1) 0.098(1)
H17 H 1.027(1) -0.065(1) 0.184(1)
H18 H 0.937(1) -0.096(1) 0.235(1)
#END
