
#######################################################################
#
#                 Cambridge Crystallographic Data Centre
#                                CCDC
#
#######################################################################
#
# If this CIF has been generated from an entry in the Cambridge
# Structural Database, then it will include bibliographic, chemical,
# crystal, experimental, refinement or atomic coordinate data resulting
# from the CCDC's data processing and validation procedures.
#
#######################################################################

data_CSD_CIF_DOHCUY01
_audit_creation_date 1996-10-31
_audit_creation_method CSD-ConQuest-V1
_database_code_CSD DOHCUY01
_database_code_depnum_ccdc_archive 'CCDC 1143565'
_chemical_formula_sum 'C13 H18 N2 O4'
_chemical_formula_moiety
;
C13 H18 N2 O4
;
_journal_coden_Cambridge 54
_journal_volume 104
_journal_year 1995
_journal_page_first 81
_journal_name_full 'Bull.Soc.Chim.Belg. '
loop_
_publ_author_name
"D.J.A.De Ridder"
"H.Schenk"
_chemical_name_systematic
;
1-t-Butyl-3,4,5-trimethyl-2,6-dinitrobenzene
;
_chemical_name_common
;
Musk tibetene
;
_chemical_melting_point 411.15
_cell_volume   1386.164
_exptl_crystal_density_diffrn 1.28
_diffrn_ambient_temperature ?
_diffrn_special_details
;
The study was carried out at room temperature,in the range 283-303K

;
#These two values have been output from a single CSD field.
_refine_ls_R_factor_gt 0.051
_refine_ls_wR_factor_gt 0.051
_symmetry_cell_setting monoclinic
_symmetry_space_group_name_H-M 'P 21/n'
_symmetry_Int_Tables_number 14
loop_
_symmetry_equiv_pos_site_id
_symmetry_equiv_pos_as_xyz
1 x,y,z
2 1/2-x,1/2+y,1/2-z
3 -x,-y,-z
4 -1/2+x,-1/2-y,-1/2+z
_cell_length_a 9.5893(6)
_cell_length_b 14.5860(16)
_cell_length_c 10.9846(8)
_cell_angle_alpha 90
_cell_angle_beta 115.55(7)
_cell_angle_gamma 90
_cell_formula_units_Z 4
loop_
_atom_type_symbol
_atom_type_radius_bond
C 0.68
N 0.68
O 0.68
loop_
_atom_site_label
_atom_site_type_symbol
_atom_site_fract_x
_atom_site_fract_y
_atom_site_fract_z
C1 C 0.3783(2) 0.1764(1) 0.6028(2)
C2 C 0.4929(2) 0.1927(1) 0.5586(2)
C3 C 0.6245(2) 0.1399(2) 0.5883(2)
C4 C 0.6493(3) 0.0636(2) 0.6714(2)
C5 C 0.5402(3) 0.0408(1) 0.7179(2)
C6 C 0.4101(2) 0.0972(2) 0.6809(2)
C7 C 0.2317(3) 0.2379(2) 0.5648(2)
C8 C 0.1053(4) 0.2032(3) 0.4314(4)
C9 C 0.1678(4) 0.2366(3) 0.6714(4)
C10 C 0.2639(5) 0.3400(2) 0.5505(4)
C11 C 0.7386(4) 0.1648(3) 0.5325(3)
C12 C 0.7953(4) 0.0075(3) 0.7121(4)
C13 C 0.5617(5) -0.0434(2) 0.8046(4)
N1 N 0.4799(3) 0.2705(2) 0.4679(2)
N2 N 0.3009(3) 0.0635(2) 0.7334(2)
O1 O 0.3965(3) 0.2598(2) 0.3479(2)
O2 O 0.5587(3) 0.3385(1) 0.5165(3)
O3 O 0.3310(3) 0.0783(2) 0.8514(2)
O4 O 0.1887(3) 0.0199(2) 0.6555(3)
#END
