
#######################################################################
#
#                 Cambridge Crystallographic Data Centre
#                                CCDC
#
#######################################################################
#
# If this CIF has been generated from an entry in the Cambridge
# Structural Database, then it will include bibliographic, chemical,
# crystal, experimental, refinement or atomic coordinate data resulting
# from the CCDC's data processing and validation procedures.
#
#######################################################################

data_CSD_CIF_DOJGUF
_audit_creation_date 2009-02-19
_audit_creation_method CSD-ConQuest-V1
_database_code_CSD DOJGUF
_database_code_depnum_ccdc_archive 'CCDC 677320'
_chemical_formula_sum 'C11 H15 N1 O3'
_chemical_formula_moiety
;
C11 H15 N1 O3
;
_journal_coden_Cambridge 1094
_journal_volume 19
_journal_year 2008
_journal_page_first 637
_journal_name_full 'Struct.Chem. '
loop_
_publ_author_name
"W.Przychodzen"
"J.Chojnacki"
_chemical_name_systematic
;
(E)-N-Isopropyl-4-methoxybenzohydroxamic acid
;
_chemical_melting_point 394.15
_cell_volume   1068.295
_exptl_crystal_colour 'colorless'
_exptl_crystal_density_diffrn 1.301
_exptl_special_details
;
Melting point range 394.15-395.15K

;
_exptl_crystal_description 'prism'
_exptl_crystal_preparation 'ethyl acetate'
_diffrn_ambient_temperature 293
#These two values have been output from a single CSD field.
_refine_ls_R_factor_gt 0.0381
_refine_ls_wR_factor_gt 0.0381
_symmetry_cell_setting monoclinic
_symmetry_space_group_name_H-M 'P 21/c'
_symmetry_Int_Tables_number 14
loop_
_symmetry_equiv_pos_site_id
_symmetry_equiv_pos_as_xyz
1 x,y,z
2 -x,1/2+y,1/2-z
3 -x,-y,-z
4 x,-1/2-y,-1/2+z
_cell_length_a 7.111(1)
_cell_length_b 5.500(1)
_cell_length_c 27.616(6)
_cell_angle_alpha 90
_cell_angle_beta 98.47(3)
_cell_angle_gamma 90
_cell_formula_units_Z 4
loop_
_atom_type_symbol
_atom_type_radius_bond
C 0.68
H 0.23
N 0.68
O 0.68
loop_
_atom_site_label
_atom_site_type_symbol
_atom_site_fract_x
_atom_site_fract_y
_atom_site_fract_z
O1 O 0.5445(3) 1.1881(3) 0.88857(8)
O2 O 0.4586(3) 0.6096(3) 0.92917(7)
H1 H 0.48840 0.48430 0.91610
O3 O -0.2677(3) 0.8725(4) 0.78778(8)
N1 N 0.5656(3) 0.8045(4) 0.91500(8)
C1 C 0.2751(3) 0.9388(5) 0.86472(9)
C2 C 0.2313(3) 0.7383(5) 0.83473(10)
H2 H 0.32370 0.62090 0.83250
C3 C 0.0523(4) 0.7106(5) 0.80812(10)
H3 H 0.02500 0.57620 0.78790
C4 C -0.0857(4) 0.8829(5) 0.81169(9)
C5 C -0.0435(4) 1.0850(5) 0.84098(9)
H4 H -0.13660 1.20140 0.84340
C6 C 0.1354(4) 1.1140(5) 0.86650(9)
H5 H 0.16380 1.25300 0.88530
C7 C 0.4700(3) 0.9868(5) 0.89048(10)
C8 C 0.7552(3) 0.8300(5) 0.94388(10)
H6 H 0.81510 0.97410 0.93190
C9 C 0.7432(4) 0.8698(7) 0.99736(11)
H7 H 0.67450 0.73800 1.00940
H8 H 0.67840 1.02000 1.00130
H9 H 0.86920 0.87670 1.01550
C10 C 0.8763(4) 0.6124(6) 0.93555(12)
H10 H 0.82460 0.46940 0.94860
H11 H 1.00380 0.63790 0.95170
H12 H 0.87730 0.59150 0.90110
C11 C -0.3213(4) 0.6644(6) 0.75921(14)
H13 H -0.23950 0.64710 0.73470
H14 H -0.45050 0.68150 0.74370
H15 H -0.31030 0.52310 0.77980
#END
