
#######################################################################
#
#                 Cambridge Crystallographic Data Centre
#                                CCDC
#
#######################################################################
#
# If this CIF has been generated from an entry in the Cambridge
# Structural Database, then it will include bibliographic, chemical,
# crystal, experimental, refinement or atomic coordinate data resulting
# from the CCDC's data processing and validation procedures.
#
#######################################################################

data_CSD_CIF_DOJHAM
_audit_creation_date 2009-02-19
_audit_creation_method CSD-ConQuest-V1
_database_code_CSD DOJHAM
_database_code_depnum_ccdc_archive 'CCDC 677321'
_chemical_formula_sum 'C10 H11 N3 O6'
_chemical_formula_moiety
;
C10 H11 N3 O6
;
_journal_coden_Cambridge 1094
_journal_volume 19
_journal_year 2008
_journal_page_first 637
_journal_name_full 'Struct.Chem. '
loop_
_publ_author_name
"W.Przychodzen"
"J.Chojnacki"
_chemical_name_systematic
;
(E)-N-Isopropyl-3,5-dinitrobenzohydroxamic acid
;
_chemical_melting_point 430.15
_cell_volume   1208.716
_exptl_crystal_colour 'colorless'
_exptl_crystal_density_diffrn 1.479
_exptl_special_details
;
Melting point range 430.15-432.15K

;
_exptl_crystal_description 'prism'
_exptl_crystal_preparation 'ethyl acetate'
_diffrn_ambient_temperature 293
#These two values have been output from a single CSD field.
_refine_ls_R_factor_gt 0.0419
_refine_ls_wR_factor_gt 0.0419
_symmetry_cell_setting monoclinic
_symmetry_space_group_name_H-M 'P 21/c'
_symmetry_Int_Tables_number 14
loop_
_symmetry_equiv_pos_site_id
_symmetry_equiv_pos_as_xyz
1 x,y,z
2 -x,1/2+y,1/2-z
3 -x,-y,-z
4 x,-1/2-y,-1/2+z
_cell_length_a 5.565(1)
_cell_length_b 22.403(4)
_cell_length_c 9.764(2)
_cell_angle_alpha 90
_cell_angle_beta 96.81(3)
_cell_angle_gamma 90
_cell_formula_units_Z 4
loop_
_atom_type_symbol
_atom_type_radius_bond
C 0.68
H 0.23
N 0.68
O 0.68
loop_
_atom_site_label
_atom_site_type_symbol
_atom_site_fract_x
_atom_site_fract_y
_atom_site_fract_z
N1 N 0.8195(5) 0.36715(12) 0.2807(3)
N2 N 1.1597(6) 0.14979(15) 0.4271(3)
N3 N 0.3921(6) 0.12814(16) 0.1344(3)
O1 O 0.4561(4) 0.34413(11) 0.3418(3)
O2 O 0.9999(5) 0.34612(10) 0.2052(3)
H1 H 1.13190 0.34890 0.25200
O3 O 1.3099(4) 0.18203(12) 0.4896(3)
O4 O 1.1816(6) 0.09615(12) 0.4177(3)
O5 O 0.1957(5) 0.15030(14) 0.0928(3)
O6 O 0.4454(6) 0.07613(13) 0.1160(3)
C1 C 0.7032(5) 0.26302(14) 0.2923(4)
C2 C 0.9096(6) 0.23721(15) 0.3623(3)
H2 H 1.02580 0.26070 0.41300
C3 C 0.9388(6) 0.17692(15) 0.3555(3)
C4 C 0.7749(6) 0.13989(15) 0.2798(4)
H3 H 0.80020 0.09890 0.27520
C5 C 0.5726(6) 0.16656(15) 0.2118(4)
C6 C 0.5322(6) 0.22689(15) 0.2187(4)
H4 H 0.39060 0.24340 0.17410
C7 C 0.6508(6) 0.32821(15) 0.3050(4)
C8 C 0.7824(6) 0.43237(14) 0.2766(4)
H5 H 0.66990 0.44210 0.34340
C9 C 1.0179(7) 0.46432(17) 0.3218(5)
H6 H 1.08910 0.44840 0.40840
H7 H 0.98720 0.50620 0.33180
H8 H 1.12690 0.45870 0.25370
C10 C 0.6685(9) 0.45210(18) 0.1384(5)
H9 H 0.77680 0.44420 0.07090
H10 H 0.63540 0.49410 0.14060
H11 H 0.52010 0.43070 0.11450
#END
