
#######################################################################
#
#                 Cambridge Crystallographic Data Centre
#                                CCDC
#
#######################################################################
#
# If this CIF has been generated from an entry in the Cambridge
# Structural Database, then it will include bibliographic, chemical,
# crystal, experimental, refinement or atomic coordinate data resulting
# from the CCDC's data processing and validation procedures.
#
#######################################################################

data_CSD_CIF_DOJLAQ
_audit_creation_date 2009-02-19
_audit_creation_method CSD-ConQuest-V1
_database_code_CSD DOJLAQ
_database_code_depnum_ccdc_archive 'CCDC 673923'
_chemical_formula_sum 'C4 H6 N2 O2'
_chemical_formula_moiety
;
C4 H6 N2 O2
;
_journal_coden_Cambridge 644
_journal_volume 63
_journal_year 2008
_journal_page_first 447
_journal_name_full 'Z.Naturforsch.,B:Chem.Sci. '
loop_
_publ_author_name
"G.Laus"
"A.Schwarzler"
"G.Bentivoglio"
"M.Hummel"
"V.Kahlenberg"
"K.Wurst"
"E.Kristeva"
"J.Schutz"
"H.Kopacka"
"C.Kreutz"
"G.Bonn"
"Y.Andriyko"
"G.Nauer"
"H.Schottenberger"
_chemical_name_systematic
;
1-Hydroxy-2-methylimidazole-3-oxide
;
_cell_volume   1030.235
_exptl_crystal_colour 'colorless'
_exptl_crystal_density_diffrn 1.471
_diffrn_ambient_temperature 233
#These two values have been output from a single CSD field.
_refine_ls_R_factor_gt 0.066
_refine_ls_wR_factor_gt 0.066
_symmetry_cell_setting monoclinic
_symmetry_space_group_name_H-M 'P 21/c'
_symmetry_Int_Tables_number 14
loop_
_symmetry_equiv_pos_site_id
_symmetry_equiv_pos_as_xyz
1 x,y,z
2 -x,1/2+y,1/2-z
3 -x,-y,-z
4 x,-1/2-y,-1/2+z
_cell_length_a 9.5820(4)
_cell_length_b 11.1913(5)
_cell_length_c 9.7178(3)
_cell_angle_alpha 90
_cell_angle_beta 98.650(2)
_cell_angle_gamma 90
_cell_formula_units_Z 8
loop_
_atom_type_symbol
_atom_type_radius_bond
C 0.68
H 0.23
N 0.68
O 0.68
loop_
_atom_site_label
_atom_site_type_symbol
_atom_site_fract_x
_atom_site_fract_y
_atom_site_fract_z
N1 N 0.4048(3) 0.2925(2) 0.1119(3)
N2 N 0.3913(3) 0.4818(2) 0.1178(3)
O1 O 0.3909(3) 0.1774(2) 0.0678(3)
O2 O 0.3582(3) 0.5976(2) 0.0799(3)
H1 H 0.27640 0.61250 0.09310
N3 N 0.1057(3) -0.0322(3) -0.2693(3)
N4 N 0.1200(3) 0.0674(3) -0.0822(3)
O3 O 0.1201(3) -0.1208(2) -0.3631(3)
O4 O 0.1506(3) 0.1009(3) 0.0531(3)
H2 H 0.23260 0.12680 0.06860
C1 C 0.3518(3) 0.3869(3) 0.0386(4)
C2 C 0.4779(4) 0.3281(3) 0.2379(4)
H3 H 0.52480 0.27820 0.30790
C3 C 0.4693(4) 0.4481(3) 0.2415(4)
H4 H 0.50890 0.49870 0.31430
C4 C 0.2656(4) 0.3872(4) -0.0995(4)
H5 H 0.29230 0.32020 -0.15330
H6 H 0.28080 0.46120 -0.14700
H7 H 0.16670 0.38030 -0.08960
C5 C 0.1542(4) -0.0350(3) -0.1356(4)
C6 C 0.0372(4) 0.0754(3) -0.3029(4)
H8 H -0.00620 0.09990 -0.39160
C7 C 0.0448(4) 0.1369(3) -0.1858(4)
H9 H 0.00650 0.21300 -0.17490
C8 C 0.2318(5) -0.1344(4) -0.0590(5)
H10 H 0.20100 -0.20950 -0.10320
H11 H 0.21320 -0.13460 0.03640
H12 H 0.33220 -0.12430 -0.05980
#END
