
#######################################################################
#
#                 Cambridge Crystallographic Data Centre
#                                CCDC
#
#######################################################################
#
# If this CIF has been generated from an entry in the Cambridge
# Structural Database, then it will include bibliographic, chemical,
# crystal, experimental, refinement or atomic coordinate data resulting
# from the CCDC's data processing and validation procedures.
#
#######################################################################

data_CSD_CIF_DOJNAS
_audit_creation_date 2009-02-19
_audit_creation_method CSD-ConQuest-V1
_database_code_CSD DOJNAS
_database_code_depnum_ccdc_archive 'CCDC 673933'
_chemical_formula_sum 'C5 H8 N2 O1'
_chemical_formula_moiety
;
C5 H8 N2 O1
;
_journal_coden_Cambridge 644
_journal_volume 63
_journal_year 2008
_journal_page_first 447
_journal_name_full 'Z.Naturforsch.,B:Chem.Sci. '
loop_
_publ_author_name
"G.Laus"
"A.Schwarzler"
"G.Bentivoglio"
"M.Hummel"
"V.Kahlenberg"
"K.Wurst"
"E.Kristeva"
"J.Schutz"
"H.Kopacka"
"C.Kreutz"
"G.Bonn"
"Y.Andriyko"
"G.Nauer"
"H.Schottenberger"
_chemical_name_systematic
;
1,2-Dimethylimidazole-3-oxide
;
_cell_volume    552.986
_exptl_crystal_colour 'colorless'
_exptl_crystal_density_diffrn 1.346
_exptl_special_details
;
extremely hygroscopic and deliquescent

;
_diffrn_ambient_temperature 173
#These two values have been output from a single CSD field.
_refine_ls_R_factor_gt 0.0443
_refine_ls_wR_factor_gt 0.0443
_symmetry_cell_setting monoclinic
_symmetry_space_group_name_H-M 'P 21/n'
_symmetry_Int_Tables_number 14
loop_
_symmetry_equiv_pos_site_id
_symmetry_equiv_pos_as_xyz
1 x,y,z
2 1/2-x,1/2+y,1/2-z
3 -x,-y,-z
4 -1/2+x,-1/2-y,-1/2+z
_cell_length_a 7.243(2)
_cell_length_b 6.9901(14)
_cell_length_c 11.268(3)
_cell_angle_alpha 90
_cell_angle_beta 104.23(2)
_cell_angle_gamma 90
_cell_formula_units_Z 4
loop_
_atom_type_symbol
_atom_type_radius_bond
C 0.68
H 0.23
N 0.68
O 0.68
loop_
_atom_site_label
_atom_site_type_symbol
_atom_site_fract_x
_atom_site_fract_y
_atom_site_fract_z
N1 N 0.81998(18) 0.0534(2) 0.57830(13)
C1 C 0.6565(3) -0.2439(3) 0.47328(19)
H1 H 0.51880 -0.24690 0.46570
H2 H 0.72220 -0.31080 0.54820
H3 H 0.68500 -0.30700 0.40220
C2 C 0.7890(2) 0.2454(2) 0.42004(18)
H4 H 0.79640 0.35260 0.36950
O1 O 0.61002(18) 0.0276(2) 0.26871(12)
N2 N 0.70150(19) 0.0732(2) 0.38302(13)
C3 C 0.8624(2) 0.2324(3) 0.54252(17)
H5 H 0.93080 0.32940 0.59420
C4 C 0.8650(3) -0.0171(3) 0.70374(17)
H6 H 0.74780 -0.02630 0.73210
H7 H 0.95350 0.07140 0.75660
H8 H 0.92400 -0.14370 0.70700
C5 C 0.7218(2) -0.0433(2) 0.47900(16)
#END
