
#######################################################################
#
#                 Cambridge Crystallographic Data Centre
#                                CCDC
#
#######################################################################
#
# If this CIF has been generated from an entry in the Cambridge
# Structural Database, then it will include bibliographic, chemical,
# crystal, experimental, refinement or atomic coordinate data resulting
# from the CCDC's data processing and validation procedures.
#
#######################################################################

data_CSD_CIF_DOKNIC
_audit_creation_date 2014-09-19
_audit_creation_method CSD-ConQuest-V1
_database_code_CSD DOKNIC
_database_code_depnum_ccdc_archive 'CCDC 987215'
_chemical_formula_sum 'C55 H56 N2 O3'
_chemical_formula_moiety
;
C55 H56 N2 O3
;
_journal_coden_Cambridge 182
_journal_volume 50
_journal_year 2014
_journal_page_first 13477
_journal_name_full 'Chem.Commun. '
loop_
_publ_author_name
"Yu-Mo Zhang"
"Xiaojun Wang"
"Wen Li"
"Weiran Zhang"
"Minjie Li"
"Sean Xiao-An Zhang"
_chemical_name_systematic
;
1-(7-((4-(Dibenzylamino)phenyl)ethynyl)-9,9-dihexyl-9H-fluoren-2-yl)-2-(4-nitr
ophenyl)ethanone
;
_cell_volume   2226.949
_exptl_crystal_density_diffrn 1.183
_diffrn_ambient_temperature 295
#These two values have been output from a single CSD field.
_refine_ls_R_factor_gt 0.1624
_refine_ls_wR_factor_gt 0.1624
_symmetry_cell_setting triclinic
_symmetry_space_group_name_H-M 'P -1'
_symmetry_Int_Tables_number 2
loop_
_symmetry_equiv_pos_site_id
_symmetry_equiv_pos_as_xyz
1 x,y,z
2 -x,-y,-z
_cell_length_a 10.881(8)
_cell_length_b 14.131(7)
_cell_length_c 16.395(9)
_cell_angle_alpha 69.740(17)
_cell_angle_beta 77.21(2)
_cell_angle_gamma 71.67(2)
_cell_formula_units_Z 2
loop_
_atom_type_symbol
_atom_type_radius_bond
C 0.68
H 0.23
N 0.68
O 0.68
loop_
_atom_site_label
_atom_site_type_symbol
_atom_site_fract_x
_atom_site_fract_y
_atom_site_fract_z
C1 C 0.388(1) 0.3755(7) 0.7985(5)
C2 C 0.2516(12) 0.3980(8) 0.8164(6)
H1 H 0.20070 0.46420 0.79060
C3 C 0.193(1) 0.3207(11) 0.8728(8)
H2 H 0.10260 0.33460 0.88420
C4 C 0.2679(13) 0.2255(9) 0.9112(6)
H3 H 0.22890 0.17450 0.95060
C5 C 0.3989(11) 0.2038(8) 0.8926(6)
H4 H 0.44960 0.13760 0.91870
C6 C 0.4585(10) 0.2787(8) 0.8353(6)
H5 H 0.54880 0.26190 0.82200
C7 C 0.4482(11) 0.4637(7) 0.7389(6)
H6 H 0.40260 0.49870 0.68750
H7 H 0.43520 0.51430 0.76960
C8 C 0.6792(10) 0.4346(7) 0.7583(5)
H8 H 0.75080 0.37200 0.76350
H9 H 0.63710 0.43420 0.81710
C9 C 0.7342(14) 0.5268(9) 0.7197(6)
C10 C 0.8599(13) 0.5189(9) 0.7264(7)
H10 H 0.90980 0.45430 0.75640
C11 C 0.9182(15) 0.6012(12) 0.6914(9)
H11 H 1.00650 0.59180 0.69210
C12 C 0.840(2) 0.6944(13) 0.6567(10)
H12 H 0.87500 0.75190 0.63840
C13 C 0.7110(18) 0.7120(9) 0.6458(9)
H13 H 0.66130 0.77790 0.61800
C14 C 0.6593(13) 0.6229(10) 0.6799(8)
H14 H 0.57300 0.63040 0.67490
C15 C 0.6301(10) 0.3916(6) 0.6379(5)
C16 C 0.7608(9) 0.3625(6) 0.6067(5)
H15 H 0.82290 0.36810 0.63450
C17 C 0.8001(9) 0.3260(6) 0.5360(5)
H16 H 0.88890 0.30550 0.51740
C18 C 0.7117(10) 0.3182(6) 0.4908(5)
C19 C 0.5816(12) 0.3460(7) 0.5227(6)
H17 H 0.51980 0.34110 0.49430
C20 C 0.5407(10) 0.3806(7) 0.5949(6)
H18 H 0.45220 0.39690 0.61560
C21 C 0.7539(9) 0.2812(6) 0.4156(5)
C22 C 0.7801(9) 0.2551(6) 0.3512(5)
C23 C 0.8069(9) 0.2239(5) 0.2732(5)
C24 C 0.9187(9) 0.2333(6) 0.2148(5)
H19 H 0.97820 0.26050 0.22660
C25 C 0.9443(8) 0.2041(6) 0.1409(5)
H20 H 1.02170 0.20840 0.10360
C26 C 0.8523(8) 0.1677(5) 0.1218(5)
C27 C 0.7401(8) 0.1573(5) 0.1797(5)
C28 C 0.7153(8) 0.1863(5) 0.2546(4)
H21 H 0.63870 0.18090 0.29250
C29 C 0.8489(7) 0.1368(5) 0.0462(5)
C30 C 0.9303(8) 0.1403(6) -0.0317(5)
H22 H 1.00530 0.16290 -0.04110
C31 C 0.9023(8) 0.1111(6) -0.0949(5)
H23 H 0.95660 0.11580 -0.14780
C32 C 0.7924(8) 0.0742(5) -0.0803(4)
C33 C 0.7106(7) 0.0688(5) -0.0008(4)
H24 H 0.63860 0.04220 0.01020
C34 C 0.7362(7) 0.1027(5) 0.0610(4)
C35 C 0.7593(8) 0.0413(6) -0.1484(5)
C36 C 0.8325(9) 0.0711(7) -0.2388(5)
H25 H 0.82480 0.14550 -0.25650
H26 H 0.92410 0.03550 -0.23540
C37 C 0.7901(10) 0.0477(6) -0.3093(5)
C38 C 0.8828(11) -0.0068(7) -0.3625(7)
H27 H 0.96860 -0.03490 -0.35020
C39 C 0.8468(18) -0.0190(8) -0.4337(6)
H28 H 0.90680 -0.05460 -0.47010
C40 C 0.719(2) 0.0239(11) -0.4478(8)
C41 C 0.6298(14) 0.0760(11) -0.3975(7)
H29 H 0.54420 0.10430 -0.41010
C42 C 0.6653(10) 0.0871(7) -0.3283(5)
H30 H 0.60280 0.12260 -0.29280
C43 C 0.6577(7) 0.1113(5) 0.1478(4)
C44 C 0.6404(7) 0.0066(5) 0.2130(4)
H31 H 0.59200 0.01900 0.26730
H32 H 0.58830 -0.01990 0.18950
C45 C 0.7644(8) -0.0749(5) 0.2332(5)
H33 H 0.81930 -0.04700 0.25310
H34 H 0.81010 -0.09120 0.17980
C46 C 0.7446(9) -0.1745(6) 0.3022(5)
H35 H 0.69480 -0.15710 0.35430
H36 H 0.69260 -0.20340 0.28080
C47 C 0.8669(10) -0.2573(7) 0.3277(7)
H37 H 0.91890 -0.23090 0.35140
H38 H 0.91810 -0.27620 0.27660
C48 C 0.8299(15) -0.3569(9) 0.3992(10)
H39 H 0.74420 -0.33230 0.42900
H40 H 0.81990 -0.40010 0.36740
C49 C 0.901(3) -0.417(2) 0.4583(15)
H41 H 0.98820 -0.44110 0.43160
H42 H 0.86630 -0.47580 0.49120
H43 H 0.90290 -0.37960 0.49680
C50 C 0.5181(9) 0.1855(7) 0.1336(6)
H44 H 0.47250 0.15420 0.10970
H45 H 0.47070 0.19000 0.19020
C51 C 0.5145(12) 0.2919(9) 0.0754(8)
H46 H 0.55940 0.28920 0.01780
H47 H 0.55880 0.32490 0.09860
C52 C 0.3597(16) 0.3618(11) 0.0673(10)
H48 H 0.31310 0.32690 0.04770
H49 H 0.31610 0.36980 0.12380
C53 C 0.362(2) 0.4602(16) 0.0061(17)
H50 H 0.39670 0.45100 -0.05130
H51 H 0.42050 0.48860 0.02190
C54 C 0.211(3) 0.5498(14) -0.001(2)
H52 H 0.20160 0.60080 0.02880
H53 H 0.19480 0.58570 -0.06120
C55 C 0.138(2) 0.493(3) 0.037(2)
H54 H 0.18640 0.42740 0.07160
H55 H 0.10050 0.48140 -0.00540
H56 H 0.06940 0.52570 0.07440
N1 N 0.5865(9) 0.4292(6) 0.7105(4)
N2 N 0.692(3) 0.012(2) -0.5284(10)
O1 O 0.6759(7) -0.0047(4) -0.1301(3)
O2 O 0.5732(19) 0.0730(16) -0.5461(9)
O3 O 0.757(3) -0.0394(13) -0.5653(9)
#END
