
#######################################################################
#
#                 Cambridge Crystallographic Data Centre
#                                CCDC
#
#######################################################################
#
# If this CIF has been generated from an entry in the Cambridge
# Structural Database, then it will include bibliographic, chemical,
# crystal, experimental, refinement or atomic coordinate data resulting
# from the CCDC's data processing and validation procedures.
#
#######################################################################

data_CSD_CIF_DOKRUQ
_audit_creation_date 1987-04-27
_audit_creation_method CSD-ConQuest-V1
_database_code_CSD DOKRUQ
_chemical_formula_sum 'C8 H9 N3 O8'
_chemical_formula_moiety
;
C8 H9 N3 O8
;
_journal_coden_Cambridge 154
_journal_volume 38
_journal_year 1985
_journal_page_first 1693
_journal_name_full 'Aust.J.Chem. '
loop_
_publ_author_name
"M.P.Hartshorn"
"J.M.Readman"
"W.T.Robinson"
"J.Vaughan"
"A.R.Whyte"
_chemical_name_systematic
;
6-Hydroxy-2,6-dimethyl-2,4,5-trinitrocyclohex-3-enone
;
_chemical_melting_point 393.15
_cell_volume   2267.306
_exptl_crystal_colour 'colorless'
_exptl_crystal_density_diffrn 1.61
_exptl_special_details
;
Melts with decomposition.

;
_diffrn_ambient_temperature ?
_diffrn_special_details
;
The study was carried out at room temperature,in the range 283-303K

;
#These two values have been output from a single CSD field.
_refine_ls_R_factor_gt 0.046
_refine_ls_wR_factor_gt 0.046
_symmetry_cell_setting orthorhombic
_symmetry_space_group_name_H-M 'P n a 21'
_symmetry_Int_Tables_number 33
loop_
_symmetry_equiv_pos_site_id
_symmetry_equiv_pos_as_xyz
1 x,y,z
2 1/2-x,1/2+y,1/2+z
3 1/2+x,1/2-y,z
4 -x,-y,1/2+z
_cell_length_a 26.606(3)
_cell_length_b 6.1685(8)
_cell_length_c 13.815(2)
_cell_angle_alpha 90
_cell_angle_beta 90
_cell_angle_gamma 90
_cell_formula_units_Z 8
loop_
_atom_type_symbol
_atom_type_radius_bond
C 0.68
H 0.23
N 0.68
O 0.68
loop_
_atom_site_label
_atom_site_type_symbol
_atom_site_fract_x
_atom_site_fract_y
_atom_site_fract_z
C1 C 0.2875(3) 1.0174(14) 0.52470
C2 C 0.3145(4) 0.9586(17) 0.6261(7)
C3 C 0.3566(3) 0.8058(15) 0.6131(7)
C4 C 0.3760(3) 0.7670(14) 0.5298(8)
C5 C 0.3573(3) 0.8293(16) 0.4330(8)
C6 C 0.3006(3) 0.8784(16) 0.4389(7)
C7 C 0.3259(3) 1.1603(16) 0.6824(7)
C8 C 0.2725(3) 0.6587(15) 0.4452(7)
N1 N 0.2732(3) 0.8389(14) 0.6833(5)
N2 N 0.4222(2) 0.6292(11) 0.5267(5)
N3 N 0.3816(3) 1.0576(13) 0.4077(5)
O1 O 0.2552(2) 1.1496(10) 0.5250(5)
O2 O 0.2869(2) 0.9839(11) 0.3511(5)
O3 O 0.2742(3) 0.6435(11) 0.6838(6)
O4 O 0.2432(2) 0.9426(14) 0.7287(6)
O5 O 0.4348(2) 0.5424(12) 0.6013(6)
O6 O 0.4432(2) 0.6102(11) 0.4455(5)
O7 O 0.4089(2) 1.0675(12) 0.3394(5)
O8 O 0.3699(2) 1.2157(10) 0.4588(4)
H1 H 0.36990(32) 0.7329(14) 0.66890(72)
H2 H 0.36481(30) 0.7158(15) 0.38771(80)
H3 H 0.35152(33) 1.2416(15) 0.64960(75)
H4 H 0.33745(33) 1.1218(15) 0.74594(75)
H5 H 0.29602(33) 1.2468(15) 0.68764(75)
H6 H 0.28155(29) 0.5864(15) 0.50421(73)
H7 H 0.28167(29) 0.5697(15) 0.39099(73)
H8 H 0.23687(29) 0.6837(15) 0.44432(73)
C9 C 0.3753(3) 0.4756(15) 1.0612(7)
C10 C 0.4066(3) 0.5263(16) 0.9712(7)
C11 C 0.4503(3) 0.6769(15) 0.9916(7)
C12 C 0.4634(3) 0.7195(14) 1.0801(8)
C13 C 0.4393(3) 0.6468(15) 1.1735(6)
C14 C 0.3831(3) 0.6051(16) 1.1508(7)
C15 C 0.4251(3) 0.3159(15) 0.9210(5)
C16 C 0.3565(3) 0.8336(13) 1.1355(6)
N4 N 0.3714(4) 0.6493(18) 0.8985(7)
N5 N 0.5098(2) 0.8676(11) 1.0954(6)
N6 N 0.4628(2) 0.4252(12) 1.1994(5)
O9 O 0.3435(2) 0.3400(9) 1.0576(4)
O10 O 0.3637(2) 0.5069(11) 1.2345(4)
O11 O 0.3780(4) 0.8334(14) 0.8813(8)
O12 O 0.3385(3) 0.5325(14) 0.8612(7)
O13 O 0.5266(2) 0.9557(11) 1.0226(6)
O14 O 0.5261(2) 0.8772(11) 1.1785(6)
O15 O 0.4877(2) 0.4289(12) 1.2724(5)
O16 O 0.4526(2) 0.2784(10) 1.1458(5)
H9 H 0.46838(30) 0.7411(15) 0.93878(69)
H10 H 0.44374(27) 0.7506(15) 1.22460(64)
H11 H 0.44679(29) 0.2377(14) 0.96415(55)
H12 H 0.44318(29) 0.3528(14) 0.86324(55)
H13 H 0.39671(29) 0.2270(14) 0.90458(55)
H14 H 0.36957(27) 0.9013(13) 1.07829(63)
H15 H 0.36291(27) 0.9244(13) 1.19056(63)
H16 H 0.32091(27) 0.8127(13) 1.12856(63)
#END
