
#######################################################################
#
#                 Cambridge Crystallographic Data Centre
#                                CCDC
#
#######################################################################
#
# If this CIF has been generated from an entry in the Cambridge
# Structural Database, then it will include bibliographic, chemical,
# crystal, experimental, refinement or atomic coordinate data resulting
# from the CCDC's data processing and validation procedures.
#
#######################################################################

data_CSD_CIF_DOKSAX
_audit_creation_date 1987-04-27
_audit_creation_method CSD-ConQuest-V1
_database_code_CSD DOKSAX
_chemical_formula_sum 'C8 H10 N2 O7'
_chemical_formula_moiety
;
C8 H10 N2 O7
;
_journal_coden_Cambridge 154
_journal_volume 38
_journal_year 1985
_journal_page_first 1693
_journal_name_full 'Aust.J.Chem. '
loop_
_publ_author_name
"M.P.Hartshorn"
"J.M.Readman"
"W.T.Robinson"
"J.Vaughan"
"A.R.Whyte"
_chemical_name_systematic
;
2,6-Dihydroxy-2,6-dimethyl-4,5-dinitrocyclohex-3-enone
;
_chemical_melting_point 426.15
_cell_volume   2072.319
_exptl_crystal_colour 'colorless'
_exptl_crystal_density_diffrn 1.58
_exptl_special_details
;
Melts with decomposition.

;
_diffrn_ambient_temperature ?
_diffrn_special_details
;
The study was carried out at room temperature,in the range 283-303K

;
#These two values have been output from a single CSD field.
_refine_ls_R_factor_gt 0.053
_refine_ls_wR_factor_gt 0.053
_symmetry_cell_setting monoclinic
_symmetry_space_group_name_H-M 'P 21/c'
_symmetry_Int_Tables_number 14
loop_
_symmetry_equiv_pos_site_id
_symmetry_equiv_pos_as_xyz
1 x,y,z
2 -x,1/2+y,1/2-z
3 -x,-y,-z
4 x,-1/2-y,-1/2+z
_cell_length_a 5.804(3)
_cell_length_b 25.47(1)
_cell_length_c 14.05(2)
_cell_angle_alpha 90
_cell_angle_beta 93.84(7)
_cell_angle_gamma 90
_cell_formula_units_Z 8
loop_
_atom_type_symbol
_atom_type_radius_bond
C 0.68
H 0.23
N 0.68
O 0.68
loop_
_atom_site_label
_atom_site_type_symbol
_atom_site_fract_x
_atom_site_fract_y
_atom_site_fract_z
C1 C -0.1882(7) -0.0475(2) 0.2406(3)
C2 C -0.1165(8) -0.0221(2) 0.3369(3)
C3 C 0.0181(7) 0.0272(2) 0.3255(3)
C4 C 0.0424(7) 0.0499(2) 0.2427(3)
C5 C -0.0572(7) 0.0298(2) 0.1499(3)
C6 C -0.0766(7) -0.0303(2) 0.1522(3)
C7 C -0.3227(8) -0.0122(2) 0.3946(4)
C8 C 0.1640(8) -0.0546(2) 0.1551(4)
N1 N 0.1655(6) 0.1002(1) 0.2402(3)
N2 N -0.3017(6) 0.0512(1) 0.1312(3)
O1 O -0.3199(5) -0.0840(1) 0.2380(3)
O2 O 0.0443(6) -0.0580(1) 0.3874(3)
O3 O -0.2087(5) -0.0441(1) 0.0684(2)
O4 O 0.1495(5) 0.1246(1) 0.1654(2)
O5 O 0.2723(5) 0.1150(1) 0.3132(2)
O6 O -0.4411(5) 0.0379(1) 0.1879(2)
O7 O -0.3429(6) 0.0793(1) 0.0627(3)
H1 H 0.0911(7) 0.0432(2) 0.3816(3)
H2 H 0.0408(7) 0.0405(2) 0.1010(3)
H3 H -0.42650 0.01160 0.36040
H4 H -0.27250 0.00290 0.45500
H5 H -0.40070 -0.04470 0.40470
H6 H 0.24980 -0.04470 0.21310
H7 H 0.24270 -0.04220 0.10140
H8 H 0.15070 -0.09210 0.15220
C9 C 0.3870(7) 0.3016(2) 0.4377(3)
C10 C 0.4151(7) 0.2866(2) 0.3340(3)
C11 C 0.5399(7) 0.2358(2) 0.3249(3)
C12 C 0.5891(7) 0.2038(2) 0.3966(3)
C13 C 0.5298(7) 0.2127(2) 0.4964(3)
C14 C 0.5198(7) 0.2718(2) 0.5171(3)
C15 C 0.1802(7) 0.2852(2) 0.2790(3)
C16 C 0.7648(8) 0.2936(2) 0.5264(4)
N3 N 0.7059(6) 0.1541(1) 0.3774(3)
N4 N 0.2934(6) 0.1889(1) 0.5090(3)
O8 O 0.2720(5) 0.3393(1) 0.4578(2)
O9 O 0.5676(5) 0.3250(1) 0.2957(2)
O10 O 0.4093(5) 0.2780(1) 0.6029(2)
O11 O 0.7254(6) 0.1220(1) 0.4420(2)
O12 O 0.7733(5) 0.1480(1) 0.2976(2)
O13 O 0.1277(5) 0.2085(1) 0.4637(2)
O14 O 0.2821(6) 0.1523(1) 0.5631(3)
H9 H 0.5866(7) 0.2259(2) 0.2631(3)
H10 H 0.6448(7) 0.1965(2) 0.5391(3)
H11 H 0.08400 0.25930 0.30630
H12 H 0.01990 0.27650 0.21350
H13 H 0.10890 0.31910 0.28240
H14 H 0.83650 0.28870 0.46750
H15 H 0.85200 0.27540 0.57660
H16 H 0.76040 0.33040 0.54120
#END
