
#######################################################################
#
#                 Cambridge Crystallographic Data Centre
#                                CCDC
#
#######################################################################
#
# If this CIF has been generated from an entry in the Cambridge
# Structural Database, then it will include bibliographic, chemical,
# crystal, experimental, refinement or atomic coordinate data resulting
# from the CCDC's data processing and validation procedures.
#
#######################################################################

data_CSD_CIF_DOKSIG
_audit_creation_date 2009-02-19
_audit_creation_method CSD-ConQuest-V1
_database_code_CSD DOKSIG
_database_code_depnum_ccdc_archive 'CCDC 717288'
_chemical_formula_sum 'C10 H11 N3 O3'
_chemical_formula_moiety
;
C10 H11 N3 O3
;
_journal_coeditor_code "IUCr AT2663"
_journal_coden_Cambridge 1370
_journal_volume 65
_journal_year 2009
_journal_page_first o74
_journal_name_full 'Acta Crystallogr.,Sect.E:Struct.Rep.Online '
loop_
_publ_author_name
"Yu-Feng Li"
"Lian-Cai Du"
"Fang-Fang Jian"
_chemical_name_systematic
;
N'-(1-(4-Nitrophenyl)ethylidene)acetohydrazide
;
_cell_volume   1090.769
_exptl_crystal_colour 'yellow'
_exptl_crystal_density_diffrn 1.347
_exptl_crystal_description 'block'
_exptl_crystal_preparation 'ethanol'
_diffrn_ambient_temperature 273
#These two values have been output from a single CSD field.
_refine_ls_R_factor_gt 0.0516
_refine_ls_wR_factor_gt 0.0516
_symmetry_cell_setting triclinic
_symmetry_space_group_name_H-M 'P -1'
_symmetry_Int_Tables_number 2
loop_
_symmetry_equiv_pos_site_id
_symmetry_equiv_pos_as_xyz
1 x,y,z
2 -x,-y,-z
_cell_length_a 8.4453(17)
_cell_length_b 9.5438(19)
_cell_length_c 14.820(3)
_cell_angle_alpha 72.66(3)
_cell_angle_beta 77.37(3)
_cell_angle_gamma 75.59(3)
_cell_formula_units_Z 4
loop_
_atom_type_symbol
_atom_type_radius_bond
C 0.68
H 0.23
N 0.68
O 0.68
loop_
_atom_site_label
_atom_site_type_symbol
_atom_site_fract_x
_atom_site_fract_y
_atom_site_fract_z
N1 N 0.6357(2) 0.18317(19) 0.43057(12)
N2 N 0.6040(2) 0.3087(2) 0.46328(13)
C1 C 0.7190(3) -0.0804(3) 0.37732(16)
H1 H 0.79130 -0.05770 0.40760
O1 O 0.6882(2) 0.4455(2) 0.53613(14)
C2 C 0.5290(2) 0.1642(2) 0.38741(14)
C3 C 0.5727(3) 0.0223(2) 0.35793(14)
C4 C 0.6510(3) -0.2475(3) 0.30826(16)
C5 C 0.7587(3) -0.2144(3) 0.35260(17)
H2 H 0.85670 -0.28140 0.36570
C6 C 0.4685(3) -0.0151(3) 0.31179(16)
H3 H 0.37080 0.05160 0.29750
N3 N 0.6913(3) -0.3924(2) 0.28399(15)
C7 C 0.7182(3) 0.3345(3) 0.50456(18)
O2 O 0.5902(3) -0.4215(2) 0.24812(16)
O3 O 0.8220(3) -0.4769(2) 0.30177(14)
C8 C 0.3713(3) 0.2712(3) 0.36615(19)
H4 H 0.36140 0.35680 0.38980
H5 H 0.27940 0.22290 0.39670
H6 H 0.37190 0.30280 0.29820
C9 C 0.5074(3) -0.1501(3) 0.28661(17)
H7 H 0.43700 -0.17380 0.25560
N4 N 0.3467(2) 0.3952(2) 0.09154(13)
O4 O -0.0396(2) 0.6256(2) 0.07168(13)
N5 N 0.1929(2) 0.4531(2) 0.06573(15)
C10 C 0.6576(3) 0.3176(2) 0.14039(15)
H8 H 0.58930 0.40610 0.15070
C11 C 0.4436(3) 0.2916(2) 0.05675(15)
C12 C 0.9053(3) 0.1382(3) 0.15882(16)
C13 C 0.6075(3) 0.2378(2) 0.09008(15)
C14 C 0.7135(3) 0.1075(3) 0.07434(17)
H9 H 0.68340 0.05340 0.04020
C15 C 0.8052(3) 0.2683(2) 0.17494(16)
H10 H 0.83690 0.32220 0.20870
C16 C 0.8626(3) 0.0568(3) 0.10851(18)
H11 H 0.93270 -0.03070 0.09770
C17 C 0.0951(3) 0.5678(3) 0.09904(17)
N6 N 1.0610(3) 0.0837(3) 0.19712(18)
C18 C 0.1551(3) 0.6207(3) 0.16819(19)
H12 H 0.07410 0.70250 0.18560
H13 H 0.25740 0.65340 0.13900
H14 H 0.17240 0.54020 0.22440
C19 C 0.4032(3) 0.2229(3) -0.0121(2)
H15 H 0.29380 0.26950 -0.02640
H16 H 0.40840 0.11760 0.01600
H17 H 0.48160 0.23760 -0.07010
O5 O 1.0875(3) 0.1457(3) 0.2518(2)
O6 O 1.1593(3) -0.0208(3) 0.1728(2)
C20 C 0.8785(3) 0.2256(3) 0.5105(3)
H18 H 0.94740 0.25740 0.54100
H19 H 0.93310 0.22080 0.44710
H20 H 0.85820 0.12850 0.54700
H21 H 0.513(3) 0.378(3) 0.4600(17)
H22 H 0.162(3) 0.426(3) 0.0248(17)
#END
