
#######################################################################
#
#                 Cambridge Crystallographic Data Centre
#                                CCDC
#
#######################################################################
#
# If this CIF has been generated from an entry in the Cambridge
# Structural Database, then it will include bibliographic, chemical,
# crystal, experimental, refinement or atomic coordinate data resulting
# from the CCDC's data processing and validation procedures.
#
#######################################################################

data_CSD_CIF_DOKVUV01
_audit_creation_date 2012-07-11
_audit_creation_method CSD-ConQuest-V1
_database_code_CSD DOKVUV01
_database_code_depnum_ccdc_archive 'CCDC 886917'
_chemical_formula_sum 'C15 H14 N2 O4'
_chemical_formula_moiety
;
C15 H14 N2 O4
;
_journal_coeditor_code "IUCr IS5128"
_journal_coden_Cambridge 1370
_journal_volume 68
_journal_year 2012
_journal_page_first o1684
_journal_name_full 'Acta Crystallogr.,Sect.E:Struct.Rep.Online '
loop_
_publ_author_name
"Y.K.Yoon"
"E.Manogaran"
"M.A.Ali"
"S.Arshad"
"I.A.Razak"
_chemical_name_systematic
;
Ethyl 4-anilino-3-nitrobenzoate
;
_cell_volume   1348.962
_exptl_crystal_colour 'yellow'
_exptl_crystal_density_diffrn 1.41
_exptl_crystal_description 'block'
_diffrn_ambient_temperature 100
#These two values have been output from a single CSD field.
_refine_ls_R_factor_gt 0.0467
_refine_ls_wR_factor_gt 0.0467
_symmetry_cell_setting monoclinic
_symmetry_space_group_name_H-M 'P 21/c'
_symmetry_Int_Tables_number 14
loop_
_symmetry_equiv_pos_site_id
_symmetry_equiv_pos_as_xyz
1 x,y,z
2 -x,1/2+y,1/2-z
3 -x,-y,-z
4 x,-1/2-y,-1/2+z
_cell_length_a 10.6464(2)
_cell_length_b 9.9178(2)
_cell_length_c 14.7885(2)
_cell_angle_alpha 90
_cell_angle_beta 120.244(1)
_cell_angle_gamma 90
_cell_formula_units_Z 4
loop_
_atom_type_symbol
_atom_type_radius_bond
C 0.68
H 0.23
N 0.68
O 0.68
loop_
_atom_site_label
_atom_site_type_symbol
_atom_site_fract_x
_atom_site_fract_y
_atom_site_fract_z
O1 O 0.28632(10) -0.12818(8) 0.76247(7)
O2 O 0.46453(10) 0.00161(9) 0.76921(7)
O3 O 0.66947(10) 0.34436(10) 1.03221(8)
O4 O 0.5597(1) 0.42674(9) 1.10945(8)
N1 N 0.33488(11) 0.29963(10) 1.09858(8)
N2 N 0.56820(11) 0.34349(10) 1.05006(8)
C1 C 0.46344(13) 0.16060(11) 0.92632(9)
H1 H 0.53530 0.17640 0.90950
C2 C 0.45671(12) 0.24143(11) 1.00074(9)
C3 C 0.34771(13) 0.22195(11) 1.02854(9)
C4 C 0.24935(13) 0.11392(12) 0.97700(9)
H2 H 0.17670 0.09680 0.99290
C5 C 0.25813(13) 0.03416(12) 0.90452(10)
H3 H 0.19240 -0.03620 0.87300
C6 C 0.36523(13) 0.05748(11) 0.87723(9)
C7 C 0.37913(13) -0.02319(12) 0.79882(10)
C8 C 0.29118(15) -0.20792(13) 0.68146(11)
H4 H 0.38260 -0.25630 0.71070
H5 H 0.28250 -0.14970 0.62590
C9 C 0.16782(18) -0.30447(14) 0.63980(12)
H6 H 0.16770 -0.35820 0.58580
H7 H 0.07800 -0.25550 0.61140
H8 H 0.17800 -0.36200 0.69530
C10 C 0.23046(13) 0.27774(12) 1.13077(10)
C11 C 0.11792(14) 0.37011(13) 1.10012(11)
H9 H 0.10900 0.44180 1.05670
C12 C 0.01887(15) 0.35537(14) 1.13428(12)
H10 H -0.05590 0.41760 1.11430
C13 C 0.03126(15) 0.24804(14) 1.19810(12)
H11 H -0.03590 0.23740 1.22020
C14 C 0.14412(16) 0.15626(14) 1.22907(12)
H12 H 0.15280 0.08460 1.27240
C15 C 0.24447(15) 0.17090(12) 1.19555(11)
H13 H 0.32020 0.10950 1.21650
H14 H 0.3899(19) 0.3693(16) 1.1227(13)
#END
