
#######################################################################
#
#                 Cambridge Crystallographic Data Centre
#                                CCDC
#
#######################################################################
#
# If this CIF has been generated from an entry in the Cambridge
# Structural Database, then it will include bibliographic, chemical,
# crystal, experimental, refinement or atomic coordinate data resulting
# from the CCDC's data processing and validation procedures.
#
#######################################################################

data_CSD_CIF_DOKYEH
_audit_creation_date 1987-03-27
_audit_creation_method CSD-ConQuest-V1
_database_code_CSD DOKYEH
_chemical_formula_sum 'C19 H15 N3 O2'
_chemical_formula_moiety
;
C19 H15 N3 O2
;
_journal_coden_Cambridge 188
_journal_year 1986
_journal_page_first 215
_journal_name_full 'J.Chem.Soc.,Perkin Trans.2 '
loop_
_publ_author_name
"M.G.B.Drew"
"G.R.Willey"
_chemical_name_systematic
;
Benzophenone 2-nitrophenylhydrazone
;
_chemical_melting_point 438.15
_cell_volume   1633.503
_exptl_crystal_colour 'red'
_exptl_crystal_density_diffrn 1.29
_exptl_special_details
;
Melting point range 438.15-439.15K

;
_diffrn_ambient_temperature ?
_diffrn_special_details
;
The study was carried out at room temperature,in the range 283-303K

;
#These two values have been output from a single CSD field.
_refine_ls_R_factor_gt 0.074
_refine_ls_wR_factor_gt 0.074
_symmetry_cell_setting monoclinic
_symmetry_space_group_name_H-M 'P 21/a'
_symmetry_Int_Tables_number 14
loop_
_symmetry_equiv_pos_site_id
_symmetry_equiv_pos_as_xyz
1 x,y,z
2 1/2-x,1/2+y,-z
3 -x,-y,-z
4 -1/2+x,-1/2-y,z
_cell_length_a 12.074(5)
_cell_length_b 12.771(8)
_cell_length_c 11.998(8)
_cell_angle_alpha 90
_cell_angle_beta 118.0(1)
_cell_angle_gamma 90
_cell_formula_units_Z 4
loop_
_atom_type_symbol
_atom_type_radius_bond
C 0.68
H 0.23
N 0.68
O 0.68
loop_
_atom_site_label
_atom_site_type_symbol
_atom_site_fract_x
_atom_site_fract_y
_atom_site_fract_z
C1 C -0.2678(9) 0.0189(8) -0.0713(9)
C2 C -0.1729(9) -0.0424(7) 0.0194(9)
C3 C -0.0534(6) 0.0015(5) 0.1094(7)
C4 C -0.0331(6) 0.1109(5) 0.1101(7)
C5 C -0.1363(7) 0.1714(6) 0.0187(7)
C6 C -0.2513(8) 0.1260(7) -0.0697(9)
N1 N 0.0828(6) 0.1588(5) 0.1945(6)
N2 N 0.0969(5) 0.2655(4) 0.1877(5)
C7 C 0.2095(6) 0.3052(5) 0.2671(7)
C8 C 0.2190(6) 0.4218(5) 0.2599(7)
C9 C 0.1173(8) 0.4836(6) 0.1730(8)
C10 C 0.1281(8) 0.5918(7) 0.1731(9)
C11 C 0.2393(9) 0.6423(7) 0.2569(9)
C12 C 0.3408(10) 0.5827(8) 0.339(1)
C13 C 0.3338(9) 0.4742(7) 0.3436(10)
C14 C 0.3221(6) 0.2416(5) 0.3609(7)
C15 C 0.4143(7) 0.2037(6) 0.3341(9)
C16 C 0.5164(8) 0.1473(6) 0.4214(10)
C17 C 0.5357(7) 0.1274(6) 0.5414(9)
C18 C 0.4466(8) 0.1652(8) 0.5686(9)
C19 C 0.3409(8) 0.2213(7) 0.4803(8)
N3 N 0.0435(7) -0.0683(5) 0.2028(8)
O1 O 0.0218(7) -0.1633(5) 0.1916(8)
O2 O 0.1468(7) -0.0324(5) 0.2888(7)
H1 H -0.3487(72) -0.0175(56) -0.1319(66)
H2 H -0.1668(68) -0.1146(67) 0.0210(68)
H3 H -0.1171(70) 0.2443(65) 0.0217(67)
H4 H -0.3190(74) 0.1771(55) -0.1333(75)
H5 H 0.1527(78) 0.1284(56) 0.2504(76)
H6 H 0.0265(92) 0.4436(64) 0.1186(88)
H7 H 0.0557(89) 0.6250(67) 0.1094(90)
H8 H 0.2511(77) 0.7157(79) 0.2698(83)
H9 H 0.4103(93) 0.6102(71) 0.3899(96)
H10 H 0.4144(93) 0.4358(66) 0.3899(90)
H11 H 0.4044(70) 0.2165(61) 0.2569(74)
H12 H 0.5785(77) 0.118(6) 0.4143(73)
H13 H 0.6072(80) 0.0931(61) 0.6024(78)
H14 H 0.4597(72) 0.1547(59) 0.6551(80)
H15 H 0.2691(73) 0.2507(58) 0.4960(67)
#END
