
#######################################################################
#
#                 Cambridge Crystallographic Data Centre
#                                CCDC
#
#######################################################################
#
# If this CIF has been generated from an entry in the Cambridge
# Structural Database, then it will include bibliographic, chemical,
# crystal, experimental, refinement or atomic coordinate data resulting
# from the CCDC's data processing and validation procedures.
#
#######################################################################

data_CSD_CIF_DOKZIN
_audit_creation_date 2009-02-19
_audit_creation_method CSD-ConQuest-V1
_database_code_CSD DOKZIN
_database_code_depnum_ccdc_archive 'CCDC 717320'
_chemical_formula_sum 'C8 H12 N4 O4'
_chemical_formula_moiety
;
C8 H12 N4 O4
;
_journal_coeditor_code "IUCr HG2452"
_journal_coden_Cambridge 1370
_journal_volume 65
_journal_year 2009
_journal_page_first o116
_journal_name_full 'Acta Crystallogr.,Sect.E:Struct.Rep.Online '
loop_
_publ_author_name
"Gui-Yun Duan"
"Cheng-Cai Xia"
"Yu-Liang Xiao"
_chemical_name_systematic
;
2-(2-Methyl-5-nitro-1H-imidazol-1-yl)ethyl N-methylcarbamate
;
_cell_volume   1080.111
_exptl_crystal_colour 'yellow'
_exptl_crystal_density_diffrn 1.403
_exptl_crystal_description 'Block'
_exptl_crystal_preparation 'methanol'
_diffrn_ambient_temperature 273
#These two values have been output from a single CSD field.
_refine_ls_R_factor_gt 0.0312
_refine_ls_wR_factor_gt 0.0312
_symmetry_cell_setting monoclinic
_symmetry_space_group_name_H-M 'P 21/n'
_symmetry_Int_Tables_number 14
loop_
_symmetry_equiv_pos_site_id
_symmetry_equiv_pos_as_xyz
1 x,y,z
2 1/2-x,1/2+y,1/2-z
3 -x,-y,-z
4 -1/2+x,-1/2-y,-1/2+z
_cell_length_a 9.6959(12)
_cell_length_b 7.2898(9)
_cell_length_c 15.589(2)
_cell_angle_alpha 90
_cell_angle_beta 101.400(2)
_cell_angle_gamma 90
_cell_formula_units_Z 4
loop_
_atom_type_symbol
_atom_type_radius_bond
C 0.68
H 0.23
N 0.68
O 0.68
loop_
_atom_site_label
_atom_site_type_symbol
_atom_site_fract_x
_atom_site_fract_y
_atom_site_fract_z
O1 O 0.41899(13) 0.31179(19) 0.60227(7)
O2 O 0.62309(12) 0.35345(19) 0.56977(8)
O3 O 0.06913(10) 0.38773(15) 0.39251(7)
O4 O -0.13394(10) 0.24805(16) 0.40569(7)
N1 N 0.45446(13) 0.11166(19) 0.33518(8)
N2 N 0.32310(11) 0.14897(15) 0.43564(7)
N3 N 0.50075(13) 0.29867(17) 0.55195(8)
N4 N -0.11627(13) 0.41147(18) 0.28483(8)
H1 H -0.06020 0.47390 0.25980
C1 C 0.45604(14) 0.21818(18) 0.46825(9)
C2 C 0.53355(15) 0.1938(2) 0.40604(10)
H2 H 0.62720 0.22830 0.41110
C3 C 0.32821(15) 0.0863(2) 0.35445(9)
C4 C 0.20850(19) -0.0011(3) 0.29424(12)
H3 H 0.23560 -0.02870 0.23970
H4 H 0.12970 0.08120 0.28410
H5 H 0.18280 -0.11250 0.32000
C5 C 0.20058(15) 0.1428(2) 0.47777(10)
H6 H 0.23010 0.09910 0.53730
H7 H 0.13260 0.05620 0.44670
C6 C 0.13134(15) 0.3268(2) 0.4792(1)
H8 H 0.05910 0.31910 0.51410
H9 H 0.20070 0.41590 0.50640
C7 C -0.06789(14) 0.34081(19) 0.36319(9)
C8 C -0.26021(17) 0.3868(2) 0.24023(11)
H10 H -0.27340 0.26320 0.21900
H11 H -0.28110 0.47050 0.19180
H12 H -0.32190 0.41040 0.28010
#END
