
#######################################################################
#
#                 Cambridge Crystallographic Data Centre
#                                CCDC
#
#######################################################################
#
# If this CIF has been generated from an entry in the Cambridge
# Structural Database, then it will include bibliographic, chemical,
# crystal, experimental, refinement or atomic coordinate data resulting
# from the CCDC's data processing and validation procedures.
#
#######################################################################

data_CSD_CIF_DOLQIE
_audit_creation_date 2000-11-28
_audit_creation_method CSD-ConQuest-V1
_database_code_CSD DOLQIE
_chemical_formula_sum 'C29 H32 N4 O9'
_chemical_formula_moiety
;
C29 H32 N4 O9
;
_journal_coden_Cambridge 241
_journal_year 1998
_journal_page_first 1135
_journal_name_full 'Chem.Lett. '
loop_
_publ_author_name
"S.Tanaka"
"K.Seguchi"
_chemical_name_systematic
;
6-(Ethoxycarbonyl)-5-(ethoxycarbonylmethyl)-5-hydroxy-9-methoxy-4a-(1-(methoxy
imino)ethyl)-2-phenylpyrrolidino(1',2'-3,4)(2',3'-b)(1,3,5)triazino(4,5-a)indo
line-1,3-dione
;
_chemical_melting_point 439.15
_cell_volume   1477.201
_exptl_crystal_colour 'colorless'
_exptl_crystal_density_diffrn 1.305
_exptl_special_details
;
Melting point range 439.15-440.15K

;
_exptl_crystal_description 'plate'
_exptl_crystal_preparation 'ethanol'
_diffrn_ambient_temperature ?
_diffrn_special_details
;
The study was carried out at room temperature,in the range 283-303K

;
#These two values have been output from a single CSD field.
_refine_ls_R_factor_gt 0.043
_refine_ls_wR_factor_gt 0.043
_symmetry_cell_setting triclinic
_symmetry_space_group_name_H-M 'P -1'
_symmetry_Int_Tables_number 2
loop_
_symmetry_equiv_pos_site_id
_symmetry_equiv_pos_as_xyz
1 x,y,z
2 -x,-y,-z
_cell_length_a 12.171(5)
_cell_length_b 12.372(5)
_cell_length_c 10.431(2)
_cell_angle_alpha 92.21(2)
_cell_angle_beta 109.75(2)
_cell_angle_gamma 89.19(3)
_cell_formula_units_Z 2
loop_
_atom_type_symbol
_atom_type_radius_bond
C 0.68
H 0.23
N 0.68
O 0.68
loop_
_atom_site_label
_atom_site_type_symbol
_atom_site_fract_x
_atom_site_fract_y
_atom_site_fract_z
O1 O 0.0711(2) 0.0803(2) 0.6629(2)
O2 O 0.3021(2) 0.3665(2) 0.8490(2)
O3 O 0.6780(2) 0.4724(2) 0.7614(3)
O4 O 0.3534(2) 0.0553(2) 0.7588(2)
O5 O 0.3528(2) -0.1243(2) 0.7506(2)
O6 O -0.0693(2) 0.3819(2) 0.3428(3)
O7 O 0.1247(2) 0.0381(2) 0.3414(2)
O8 O 0.3417(2) 0.0908(2) 0.2299(3)
O9 O 0.3654(2) -0.0576(2) 0.3536(2)
N1 N 0.2854(2) 0.3119(2) 0.6319(2)
N2 N 0.1569(2) 0.2461(2) 0.7309(3)
N3 N 0.1714(2) 0.1551(2) 0.5387(3)
N4 N 0.0101(2) 0.3007(2) 0.4100(3)
C1 C 0.5828(3) 0.4146(3) 0.6813(3)
C2 C 0.5933(3) 0.3704(3) 0.5617(4)
C3 C 0.5028(3) 0.3098(3) 0.4718(3)
C4 C 0.4029(3) 0.2938(2) 0.5023(3)
C5 C 0.3946(3) 0.3392(2) 0.6225(3)
C6 C 0.4830(3) 0.4014(3) 0.7150(3)
C7 C 0.2540(3) 0.3137(3) 0.7463(3)
C8 C 0.1276(3) 0.1537(3) 0.6422(3)
C9 C 0.2116(3) 0.2559(2) 0.5061(3)
C10 C 0.2967(3) 0.2259(3) 0.4289(3)
C11 C 0.3168(3) 0.1036(2) 0.4488(3)
C12 C 0.2065(3) 0.0594(2) 0.4718(3)
C13 C 0.1053(3) 0.2579(3) 0.8373(3)
C14 C 0.1340(3) 0.1886(3) 0.9431(4)
C15 C 0.0824(4) 0.2052(4) 1.0433(4)
C16 C 0.0072(4) 0.2878(4) 1.0368(4)
C17 C -0.0206(4) 0.3567(4) 0.9312(5)
C18 C 0.0305(3) 0.3411(3) 0.8311(4)
C19 C 0.6757(4) 0.5215(4) 0.8856(5)
C20 C 0.2292(3) -0.0416(3) 0.5572(3)
C21 C 0.3178(3) -0.0280(3) 0.6981(3)
C22 C 0.4357(4) -0.1229(4) 0.8906(4)
C23 C 0.4705(6) -0.2321(5) 0.9288(6)
C24 C 0.1137(3) 0.3320(3) 0.4314(3)
C25 C 0.1469(3) 0.4376(3) 0.3920(5)
C26 C -0.1843(4) 0.3413(5) 0.3096(6)
C27 C 0.3416(3) 0.0472(3) 0.3306(3)
C28 C 0.3720(3) -0.1248(3) 0.2379(4)
C29 C 0.2547(5) -0.1592(5) 0.1488(6)
H1 H 0.509(3) 0.280(3) 0.391(4)
H2 H 0.667(3) 0.380(3) 0.544(4)
H3 H 0.470(3) 0.433(3) 0.801(4)
H4 H 0.754(3) 0.561(3) 0.929(4)
H5 H 0.670(3) 0.460(3) 0.950(4)
H6 H 0.603(3) 0.576(3) 0.863(4)
H7 H 0.190(3) 0.136(3) 0.949(4)
H8 H 0.097(3) 0.155(3) 1.105(4)
H9 H -0.037(3) 0.307(3) 1.103(4)
H10 H -0.073(3) 0.418(3) 0.929(4)
H11 H 0.013(3) 0.390(3) 0.765(4)
H12 H 0.265(3) 0.238(3) 0.334(4)
H13 H 0.383(3) 0.093(3) 0.534(4)
H14 H 0.062(3) 0.011(3) 0.349(4)
H15 H 0.410(3) -0.078(3) 0.190(4)
H16 H 0.426(3) -0.183(3) 0.284(4)
H17 H 0.261(3) -0.207(3) 0.077(4)
H18 H 0.201(3) -0.094(3) 0.119(4)
H19 H 0.219(3) -0.189(3) 0.206(4)
H20 H 0.157(3) -0.065(3) 0.568(4)
H21 H 0.505(3) -0.075(3) 0.897(4)
H22 H 0.385(3) -0.085(3) 0.939(4)
H23 H 0.397(3) -0.272(3) 0.920(4)
H24 H 0.515(3) -0.230(3) 1.019(4)
H25 H 0.483(3) -0.278(3) 0.873(4)
H26 H 0.225(3) 0.449(3) 0.414(4)
H27 H 0.100(3) 0.455(3) 0.298(4)
H28 H 0.115(3) 0.497(3) 0.439(4)
H29 H -0.237(3) 0.400(3) 0.271(4)
H30 H -0.192(3) 0.280(3) 0.253(4)
H31 H -0.196(3) 0.327(3) 0.404(4)
H32 H 0.253(3) -0.094(3) 0.506(4)
#END
