
#######################################################################
#
#                 Cambridge Crystallographic Data Centre
#                                CCDC
#
#######################################################################
#
# If this CIF has been generated from an entry in the Cambridge
# Structural Database, then it will include bibliographic, chemical,
# crystal, experimental, refinement or atomic coordinate data resulting
# from the CCDC's data processing and validation procedures.
#
#######################################################################

data_CSD_CIF_DOLQOK
_audit_creation_date 2000-11-28
_audit_creation_method CSD-ConQuest-V1
_database_code_CSD DOLQOK
_chemical_formula_sum 'C31 H30 N4 O7'
_chemical_formula_moiety
;
C31 H30 N4 O7
;
_journal_coden_Cambridge 241
_journal_year 1998
_journal_page_first 1135
_journal_name_full 'Chem.Lett. '
loop_
_publ_author_name
"S.Tanaka"
"K.Seguchi"
_chemical_name_systematic
;
2,5-Diphenyl-5-(ethoxycarbonylmethyl)-9-methoxy-4a-(1-(methoxyimino)ethyl)(1,3
)-oxazolidino(3',4'-3,4)(4',5'-b)(1,3,5)triazino(4,5-a)indoline-1,3-dione
;
_chemical_melting_point 436.15
_cell_volume   2876.806
_exptl_crystal_colour 'colorless'
_exptl_crystal_density_diffrn 1.317
_exptl_special_details
;
Melting point range 436.15-437.15K

;
_exptl_crystal_description 'needles'
_exptl_crystal_preparation 'ethanol'
_diffrn_ambient_temperature ?
_diffrn_special_details
;
The study was carried out at room temperature,in the range 283-303K

;
#These two values have been output from a single CSD field.
_refine_ls_R_factor_gt 0.069
_refine_ls_wR_factor_gt 0.069
_symmetry_cell_setting monoclinic
_symmetry_space_group_name_H-M 'P 21/c'
_symmetry_Int_Tables_number 14
loop_
_symmetry_equiv_pos_site_id
_symmetry_equiv_pos_as_xyz
1 x,y,z
2 -x,1/2+y,1/2-z
3 -x,-y,-z
4 x,-1/2-y,-1/2+z
_cell_length_a 9.627(6)
_cell_length_b 20.901(8)
_cell_length_c 14.775(5)
_cell_angle_alpha 90
_cell_angle_beta 104.61(4)
_cell_angle_gamma 90
_cell_formula_units_Z 4
loop_
_atom_type_symbol
_atom_type_radius_bond
C 0.68
H 0.23
N 0.68
O 0.68
loop_
_atom_site_label
_atom_site_type_symbol
_atom_site_fract_x
_atom_site_fract_y
_atom_site_fract_z
O1 O 0.5619(5) 0.1753(3) 0.3728(3)
O2 O 0.7202(6) 0.0361(3) 0.5856(3)
O3 O 0.5852(6) 0.2063(3) 0.7241(3)
O4 O 1.1005(6) 0.2060(3) 0.6197(4)
O5 O 0.2449(6) 0.3784(3) 0.5543(4)
O6 O 0.4021(5) 0.1049(3) 0.5302(4)
O7 O 0.2751(6) 0.1236(3) 0.3829(4)
N1 N 0.6983(6) 0.1321(4) 0.5072(4)
N2 N 0.7074(6) 0.1296(4) 0.6651(4)
N3 N 0.6347(6) 0.2228(3) 0.5843(4)
N4 N 0.9606(7) 0.1772(4) 0.5848(4)
C1 C 0.7079(8) 0.0930(5) 0.5848(5)
C2 C 0.6361(8) 0.1876(5) 0.6637(5)
C3 C 0.7143(8) 0.1990(5) 0.5183(5)
C4 C 0.6351(8) 0.2285(4) 0.4228(5)
C5 C 0.5335(8) 0.2747(4) 0.4480(5)
C6 C 0.441(1) 0.3192(5) 0.3946(5)
C7 C 0.346(1) 0.3530(5) 0.4321(6)
C8 C 0.3425(9) 0.3432(4) 0.5254(5)
C9 C 0.4369(8) 0.3003(4) 0.5812(5)
C10 C 0.5291(8) 0.2680(4) 0.5415(5)
C11 C 0.732(1) 0.0959(5) 0.7535(5)
C12 C 0.870(1) 0.1014(5) 0.8144(6)
C13 C 0.891(2) 0.0720(7) 0.9008(8)
C14 C 0.788(2) 0.0370(6) 0.9249(7)
C15 C 0.654(1) 0.0317(5) 0.8631(8)
C16 C 0.629(1) 0.0612(5) 0.7763(6)
C17 C 0.8705(8) 0.2229(5) 0.5543(6)
C18 C 0.900(1) 0.2905(6) 0.5552(6)
C19 C 1.195(1) 0.1538(6) 0.6628(6)
C20 C 0.2408(9) 0.3715(5) 0.6491(6)
C21 C 0.6238(8) 0.1156(4) 0.4073(5)
C22 C 0.4961(8) 0.0690(4) 0.4039(5)
C23 C 0.3862(9) 0.0993(5) 0.4462(6)
C24 C 0.174(1) 0.1628(6) 0.4188(6)
C25 C 0.081(1) 0.1980(6) 0.3423(8)
C26 C 0.7232(8) 0.0896(4) 0.3546(5)
C27 C 0.837(1) 0.0502(5) 0.3933(6)
C28 C 0.920(1) 0.0239(6) 0.3398(8)
C29 C 0.893(1) 0.0345(6) 0.2473(8)
C30 C 0.779(1) 0.0713(6) 0.2073(6)
C31 C 0.696(1) 0.1000(5) 0.2595(6)
H1 H 0.69950 0.24840 0.39140
H2 H 0.44360 0.32710 0.33180
H3 H 0.28320 0.38310 0.39460
H4 H 0.43700 0.29360 0.64510
H5 H 0.94530 0.12330 0.79680
H6 H 0.98100 0.07650 0.94430
H7 H 0.80750 0.01650 0.98390
H8 H 0.57970 0.00860 0.87940
H9 H 0.53800 0.05720 0.73290
H10 H 0.93390 0.30490 0.61780
H11 H 0.97200 0.29820 0.52230
H12 H 0.81540 0.31300 0.52540
H13 H 1.15910 0.13580 0.71170
H14 H 1.19500 0.12200 0.61690
H15 H 1.28830 0.16970 0.68710
H16 H 0.16800 0.39820 0.66090
H17 H 0.22170 0.32820 0.66030
H18 H 0.33130 0.38360 0.68820
H19 H 0.45220 0.05830 0.34060
H20 H 0.53120 0.03120 0.43770
H21 H 0.11990 0.13700 0.44850
H22 H 0.22770 0.19350 0.46220
H23 H 0.86020 0.04160 0.45860
H24 H 0.99700 -0.00310 0.36830
H25 H 0.95270 0.01720 0.21130
H26 H 0.75450 0.07670 0.14150
H27 H 0.62080 0.12800 0.22960
H28 H 0.13580 0.22550 0.31470
H29 H 0.03320 0.16700 0.29640
H30 H 0.01240 0.22050 0.36460
#END
