
#######################################################################
#
#                 Cambridge Crystallographic Data Centre
#                                CCDC
#
#######################################################################
#
# If this CIF has been generated from an entry in the Cambridge
# Structural Database, then it will include bibliographic, chemical,
# crystal, experimental, refinement or atomic coordinate data resulting
# from the CCDC's data processing and validation procedures.
#
#######################################################################

data_CSD_CIF_DOLTAZ
_audit_creation_date 1987-03-27
_audit_creation_method CSD-ConQuest-V1
_database_code_CSD DOLTAZ
_chemical_formula_sum 'C8 H5 N3 O4'
_chemical_formula_moiety
;
C8 H5 N3 O4
;
_journal_coeditor_code "IUCr A25776"
_journal_coden_Cambridge 591
_journal_volume 42
_journal_year 1986
_journal_page_first 573
_journal_name_full 'Acta Crystallogr.,Sect.C:Cryst.Struct.Commun. '
loop_
_publ_author_name
"O.Simonsen"
_chemical_name_systematic
;
3-Nitro-4-oxo-pyrido(1,2-a)pyrimidin-1-ium-2-olate
;
_cell_volume    799.147
_exptl_crystal_colour 'yellow-brown'
_exptl_crystal_density_diffrn 1.722
_diffrn_ambient_temperature ?
_diffrn_special_details
;
The study was carried out at room temperature,in the range 283-303K

;
#These two values have been output from a single CSD field.
_refine_ls_R_factor_gt 0.039
_refine_ls_wR_factor_gt 0.039
_symmetry_cell_setting monoclinic
_symmetry_space_group_name_H-M 'P 21/c'
_symmetry_Int_Tables_number 14
loop_
_symmetry_equiv_pos_site_id
_symmetry_equiv_pos_as_xyz
1 x,y,z
2 -x,1/2+y,1/2-z
3 -x,-y,-z
4 x,-1/2-y,-1/2+z
_cell_length_a 4.7663(6)
_cell_length_b 13.825(1)
_cell_length_c 12.205(2)
_cell_angle_alpha 90
_cell_angle_beta 96.45(1)
_cell_angle_gamma 90
_cell_formula_units_Z 4
loop_
_atom_type_symbol
_atom_type_radius_bond
C 0.68
H 0.23
N 0.68
O 0.68
loop_
_atom_site_label
_atom_site_type_symbol
_atom_site_fract_x
_atom_site_fract_y
_atom_site_fract_z
O1 O 0.2892(2) 0.5556(1) 0.3933(1)
O2 O -0.4428(3) 0.3420(1) 0.2503(1)
O3 O -0.3252(3) 0.5081(1) 0.1478(1)
O4 O -0.1839(3) 0.6165(1) 0.2686(1)
N1 N 0.2426(3) 0.4050(1) 0.4595(1)
N2 N -0.2069(3) 0.5319(1) 0.2387(1)
N3 N -0.1052(3) 0.2960(1) 0.3893(1)
C1 C 0.1536(3) 0.4792(1) 0.3875(1)
C2 C -0.0904(3) 0.4572(1) 0.3128(1)
C3 C -0.2318(3) 0.3674(1) 0.3073(1)
C4 C -0.2338(3) 0.2067(1) 0.3903(1)
C5 C -0.1377(4) 0.1390(1) 0.4649(2)
C6 C 0.0975(4) 0.1595(1) 0.5415(1)
C7 C 0.2274(3) 0.2473(1) 0.5401(1)
C8 C 0.1220(3) 0.3170(1) 0.4627(1)
H1 H 0.395(8) 0.420(3) 0.512(3)
H2 H -0.390(8) 0.200(3) 0.336(3)
H3 H -0.238(8) 0.080(3) 0.466(3)
H4 H 0.157(8) 0.113(3) 0.599(3)
H5 H 0.397(8) 0.265(3) 0.591(3)
#END
