
#######################################################################
#
#                 Cambridge Crystallographic Data Centre
#                                CCDC
#
#######################################################################
#
# If this CIF has been generated from an entry in the Cambridge
# Structural Database, then it will include bibliographic, chemical,
# crystal, experimental, refinement or atomic coordinate data resulting
# from the CCDC's data processing and validation procedures.
#
#######################################################################

data_CSD_CIF_DOMQUS
_audit_creation_date 2009-07-13
_audit_creation_method CSD-ConQuest-V1
_database_code_CSD DOMQUS
_database_code_depnum_ccdc_archive 'CCDC 690290'
_chemical_formula_sum 'C7 H7 N3 O4'
_chemical_formula_moiety
;
C7 H7 N3 O4
;
_journal_coden_Cambridge 222
_journal_year 2008
_journal_page_first 6933
_journal_name_full 'Dalton Trans. '
loop_
_publ_author_name
"D.Griffith"
"A.Chopra"
"H.Muller-Bunz"
"C.Marmion"
_chemical_name_systematic
;
2,6-Pyridinedihydroxamic acid
;
_cell_volume    749.811
_exptl_crystal_colour 'brown'
_exptl_crystal_density_diffrn 1.746
_exptl_crystal_description 'block'
_diffrn_ambient_temperature 100
#These two values have been output from a single CSD field.
_refine_ls_R_factor_gt 0.0344
_refine_ls_wR_factor_gt 0.0344
_symmetry_cell_setting orthorhombic
_symmetry_space_group_name_H-M 'P 21 21 21'
_symmetry_Int_Tables_number 19
loop_
_symmetry_equiv_pos_site_id
_symmetry_equiv_pos_as_xyz
1 x,y,z
2 1/2-x,-y,1/2+z
3 -x,1/2+y,1/2-z
4 1/2+x,1/2-y,-z
_cell_length_a 4.9425(5)
_cell_length_b 9.6524(9)
_cell_length_c 15.7170(15)
_cell_angle_alpha 90
_cell_angle_beta 90
_cell_angle_gamma 90
_cell_formula_units_Z 4
loop_
_atom_type_symbol
_atom_type_radius_bond
C 0.68
H 0.23
N 0.68
O 0.68
loop_
_atom_site_label
_atom_site_type_symbol
_atom_site_fract_x
_atom_site_fract_y
_atom_site_fract_z
N1 N 0.3276(3) 0.86271(12) 0.33818(7)
C1 C 0.5153(3) 0.86983(13) 0.39926(8)
C2 C 0.5062(3) 0.98980(13) 0.45978(8)
O1 O 0.6723(2) 0.99829(10) 0.51854(7)
N2 N 0.3030(3) 1.07763(12) 0.44807(7)
H1 H 0.194(6) 1.085(2) 0.4059(15)
O2 O 0.2655(2) 1.18215(11) 0.50793(7)
H2 H 0.393(7) 1.231(3) 0.506(2)
C3 C 0.7094(3) 0.76841(14) 0.41313(8)
H3 H 0.835(5) 0.779(2) 0.4554(13)
C4 C 0.7041(3) 0.65069(15) 0.36256(9)
H4 H 0.826(6) 0.579(2) 0.3712(14)
C5 C 0.5118(3) 0.64100(14) 0.29875(9)
H5 H 0.502(5) 0.565(2) 0.2632(13)
C6 C 0.3298(3) 0.74946(13) 0.28875(8)
C7 C 0.1195(3) 0.73882(14) 0.22055(8)
O3 O 0.0898(2) 0.63074(11) 0.17904(7)
N3 N -0.0251(3) 0.85432(13) 0.20957(7)
H6 H -0.013(6) 0.918(2) 0.2434(15)
O4 O -0.2519(2) 0.84890(11) 0.15754(7)
H7 H -0.215(6) 0.892(3) 0.1146(16)
#END
