
#######################################################################
#
#                 Cambridge Crystallographic Data Centre
#                                CCDC
#
#######################################################################
#
# If this CIF has been generated from an entry in the Cambridge
# Structural Database, then it will include bibliographic, chemical,
# crystal, experimental, refinement or atomic coordinate data resulting
# from the CCDC's data processing and validation procedures.
#
#######################################################################

data_CSD_CIF_DONTAB
_audit_creation_date 1987-03-27
_audit_creation_method CSD-ConQuest-V1
_database_code_CSD DONTAB
_chemical_formula_sum 'C7 H10 N2 O2'
_chemical_formula_moiety
;
C7 H10 N2 O2
;
_journal_coden_Cambridge 151
_journal_volume 29
_journal_year 1986
_journal_page_first 224
_journal_name_full 'J.Med.Chem. '
loop_
_publ_author_name
"L.Brehm"
"P.Krogsgaard-Larsen"
"K.Schaumburg"
"J.S.Johansen"
"E.Falch"
"D.R.Curtis"
_chemical_name_systematic
;
5,6,7,8-Tetrahydro-4H-isoxazolo(4,3-c)azepin-3-ol
;
_chemical_melting_point 475.15
_cell_volume    732.902
_exptl_crystal_colour 'colorless'
_exptl_crystal_density_diffrn 1.397
_exptl_special_details
;
Melts with decomposition.
antagonistic activity against glycine

;
_diffrn_ambient_temperature ?
_diffrn_special_details
;
The study was carried out at room temperature,in the range 283-303K

;
#These two values have been output from a single CSD field.
_refine_ls_R_factor_gt 0.041
_refine_ls_wR_factor_gt 0.041
_symmetry_cell_setting monoclinic
_symmetry_space_group_name_H-M 'P 21/n'
_symmetry_Int_Tables_number 14
loop_
_symmetry_equiv_pos_site_id
_symmetry_equiv_pos_as_xyz
1 x,y,z
2 1/2-x,1/2+y,1/2-z
3 -x,-y,-z
4 -1/2+x,-1/2-y,-1/2+z
_cell_length_a 7.022(4)
_cell_length_b 14.594(7)
_cell_length_c 7.567(4)
_cell_angle_alpha 90
_cell_angle_beta 109.07(4)
_cell_angle_gamma 90
_cell_formula_units_Z 4
loop_
_atom_type_symbol
_atom_type_radius_bond
C 0.68
H 0.23
N 0.68
O 0.68
loop_
_atom_site_label
_atom_site_type_symbol
_atom_site_fract_x
_atom_site_fract_y
_atom_site_fract_z
N1 N -0.3009(2) 0.6152(1) 0.6922(2)
O1 O -0.3509(1) 0.59245(7) 0.4988(2)
C1 C -0.1805(2) 0.60182(9) 0.4472(2)
C2 C -0.0260(2) 0.63206(8) 0.6036(2)
C3 C 0.1855(2) 0.6483(1) 0.6119(2)
N2 N 0.3329(1) 0.59571(9) 0.7668(2)
C4 C 0.3628(2) 0.6320(1) 0.9584(2)
C5 C 0.1924(2) 0.6108(1) 1.0344(2)
C6 C -0.0032(2) 0.6649(1) 0.9466(2)
C7 C -0.1090(2) 0.6386(8) 0.7481(2)
O2 O -0.1938(2) 0.5825(8) 0.2821(1)
H1 H 0.228(2) 0.713(1) 0.631(2)
H2 H 0.200(3) 0.627(1) 0.494(3)
H3 H 0.292(2) 0.538(1) 0.759(2)
H4 H 0.452(3) 0.597(1) 0.745(2)
H5 H 0.381(2) 0.700(1) 0.950(2)
H6 H 0.487(3) 0.604(1) 1.039(2)
H7 H 0.162(3) 0.544(1) 1.025(2)
H8 H 0.246(3) 0.627(1) 1.163(3)
H9 H 0.030(3) 0.730(1) 0.950(2)
H10 H -0.095(3) 0.655(1) 1.015(2)
#END
