
#######################################################################
#
#                 Cambridge Crystallographic Data Centre
#                                CCDC
#
#######################################################################
#
# If this CIF has been generated from an entry in the Cambridge
# Structural Database, then it will include bibliographic, chemical,
# crystal, experimental, refinement or atomic coordinate data resulting
# from the CCDC's data processing and validation procedures.
#
#######################################################################

data_CSD_CIF_DOPLOL02
_audit_creation_date 2014-09-25
_audit_creation_method CSD-ConQuest-V1
_database_code_CSD DOPLOL02
_database_code_depnum_ccdc_archive 'CCDC 955509'
_chemical_formula_sum 'C7 H6 N4 O5'
_chemical_formula_moiety
;
C7 H6 N4 O5
;
_journal_coden_Cambridge 1147
_journal_volume 14
_journal_year 2014
_journal_page_first 5064
_journal_name_full 'Cryst.Growth Des. '
loop_
_publ_author_name
"J.Prakasha Reddy"
"D.Swain"
"V.R.Pedireddi"
_chemical_name_systematic
;
4-amino-3,5-dinitrobenzamide
;
_cell_volume   1715.629
_exptl_crystal_colour 'yellow'
_exptl_crystal_density_diffrn 1.751
_exptl_special_details
;
polymorph II

;
_exptl_crystal_description 'block'
_diffrn_ambient_temperature 120
#These two values have been output from a single CSD field.
_refine_ls_R_factor_gt 0.0348
_refine_ls_wR_factor_gt 0.0348
_symmetry_cell_setting orthorhombic
_symmetry_space_group_name_H-M 'P b c a'
_symmetry_Int_Tables_number 61
loop_
_symmetry_equiv_pos_site_id
_symmetry_equiv_pos_as_xyz
1 x,y,z
2 1/2-x,-y,1/2+z
3 -x,1/2+y,1/2-z
4 1/2+x,1/2-y,-z
5 -x,-y,-z
6 -1/2+x,y,-1/2-z
7 x,-1/2-y,-1/2+z
8 -1/2-x,-1/2+y,z
_cell_length_a 9.9859(4)
_cell_length_b 10.7557(5)
_cell_length_c 15.9734(6)
_cell_angle_alpha 90
_cell_angle_beta 90
_cell_angle_gamma 90
_cell_formula_units_Z 8
loop_
_atom_type_symbol
_atom_type_radius_bond
C 0.68
H 0.23
N 0.68
O 0.68
loop_
_atom_site_label
_atom_site_type_symbol
_atom_site_fract_x
_atom_site_fract_y
_atom_site_fract_z
O1 O 1.11100(8) 0.53414(7) 0.41510(5)
O2 O 0.99260(8) 0.69232(8) 0.45377(5)
O3 O 0.47786(8) 0.61342(8) 0.44162(5)
O4 O 0.42050(8) 0.46420(8) 0.35873(5)
O5 O 0.94659(7) 0.20968(7) 0.24701(5)
N1 N 1.00268(9) 0.58759(8) 0.42252(5)
N2 N 0.73159(10) 0.66326(8) 0.46877(6)
N3 N 0.50640(9) 0.52588(8) 0.39465(5)
N4 N 0.72823(9) 0.19128(9) 0.21450(6)
C1 C 0.79826(10) 0.35562(9) 0.30903(6)
C2 C 0.90428(10) 0.42264(9) 0.34269(6)
C3 C 0.8825(1) 0.52462(9) 0.39340(6)
C4 C 0.75191(10) 0.56726(9) 0.41737(6)
C5 C 0.64668(10) 0.49490(9) 0.38074(6)
C6 C 0.66914(10) 0.39371(9) 0.32890(6)
C7 C 0.82946(10) 0.24665(9) 0.25442(6)
H1 H 0.5939(15) 0.3513(14) 0.3088(9)
H2 H 0.9934(15) 0.4006(14) 0.3314(9)
H3 H 0.7465(17) 0.1273(15) 0.1814(10)
H4 H 0.6513(18) 0.6845(15) 0.4834(10)
H5 H 0.6425(17) 0.2133(15) 0.2223(10)
H6 H 0.8007(18) 0.7039(16) 0.4890(11)
#END
