
#######################################################################
#
#                 Cambridge Crystallographic Data Centre
#                                CCDC
#
#######################################################################
#
# If this CIF has been generated from an entry in the Cambridge
# Structural Database, then it will include bibliographic, chemical,
# crystal, experimental, refinement or atomic coordinate data resulting
# from the CCDC's data processing and validation procedures.
#
#######################################################################

data_CSD_CIF_DOPLOL04
_audit_creation_date 2014-09-25
_audit_creation_method CSD-ConQuest-V1
_database_code_CSD DOPLOL04
_database_code_depnum_ccdc_archive 'CCDC 955511'
_chemical_formula_sum 'C7 H6 N4 O5'
_chemical_formula_moiety
;
C7 H6 N4 O5
;
_journal_coden_Cambridge 1147
_journal_volume 14
_journal_year 2014
_journal_page_first 5064
_journal_name_full 'Cryst.Growth Des. '
loop_
_publ_author_name
"J.Prakasha Reddy"
"D.Swain"
"V.R.Pedireddi"
_chemical_name_systematic
;
4-amino-3,5-dinitrobenzamide
;
_cell_volume   1740.498
_exptl_crystal_colour 'yellow'
_exptl_crystal_density_diffrn 1.726
_exptl_special_details
;
polymorph III

;
_exptl_crystal_description 'plate'
_diffrn_ambient_temperature 120
#These two values have been output from a single CSD field.
_refine_ls_R_factor_gt 0.0676
_refine_ls_wR_factor_gt 0.0676
_symmetry_cell_setting monoclinic
_symmetry_space_group_name_H-M 'P 21/c'
_symmetry_Int_Tables_number 14
loop_
_symmetry_equiv_pos_site_id
_symmetry_equiv_pos_as_xyz
1 x,y,z
2 -x,1/2+y,1/2-z
3 -x,-y,-z
4 x,-1/2-y,-1/2+z
_cell_length_a 8.3501(4)
_cell_length_b 8.8575(3)
_cell_length_c 23.695(1)
_cell_angle_alpha 90
_cell_angle_beta 96.711(3)
_cell_angle_gamma 90
_cell_formula_units_Z 8
loop_
_atom_type_symbol
_atom_type_radius_bond
C 0.68
H 0.23
N 0.68
O 0.68
loop_
_atom_site_label
_atom_site_type_symbol
_atom_site_fract_x
_atom_site_fract_y
_atom_site_fract_z
O1 O 0.6813(3) 0.3516(3) 0.48357(10)
O2 O 0.1454(3) 0.1683(3) 0.29194(11)
O3 O 0.0332(3) 0.3783(3) 0.26230(11)
O4 O 0.3197(3) 0.8618(3) 0.34696(12)
O5 O 0.5201(4) 0.8187(3) 0.41078(12)
N1 N 0.5545(4) 0.1336(3) 0.45701(13)
N2 N 0.1353(3) 0.3062(3) 0.29392(12)
N3 N 0.1504(4) 0.6360(3) 0.30033(13)
N4 N 0.4057(4) 0.7740(3) 0.37776(13)
C1 C 0.5706(4) 0.2828(4) 0.45455(14)
C2 C 0.4554(4) 0.3686(4) 0.41347(14)
C3 C 0.3432(4) 0.3009(4) 0.37346(13)
C4 C 0.2447(4) 0.3886(4) 0.33524(13)
C5 C 0.2497(4) 0.5510(4) 0.33488(14)
C6 C 0.3736(4) 0.6118(4) 0.37513(14)
C7 C 0.4703(4) 0.5246(4) 0.41307(14)
H1 H 0.64780 0.07490 0.48190
H2 H 0.48880 0.08280 0.43660
H3 H 0.33070 0.20420 0.36960
H4 H 0.06310 0.59280 0.27390
H5 H 0.15990 0.74890 0.30050
H6 H 0.54710 0.56840 0.43750
O6 O -0.2120(3) -0.0176(3) 0.53602(11)
O7 O 0.3683(3) 0.1305(3) 0.71310(11)
O8 O 0.4809(3) -0.0846(3) 0.73549(11)
O9 O 0.1897(3) -0.5510(3) 0.63693(12)
O10 O 0.0075(3) -0.4928(3) 0.56833(12)
N5 N -0.0676(3) 0.1943(3) 0.55522(13)
N6 N 0.3756(3) -0.0074(3) 0.70778(12)
N7 N 0.3376(3) -0.3351(3) 0.69949(12)
N8 N 0.1074(3) -0.4566(3) 0.60802(12)
C8 C -0.0905(4) 0.0457(4) 0.55966(14)
C9 C 0.0330(4) -0.0458(4) 0.59497(13)
C10 C 0.1519(4) 0.0133(4) 0.63435(14)
C11 C 0.2556(4) -0.0812(4) 0.66796(13)
C12 C 0.2464(4) -0.2425(4) 0.66472(13)
C13 C 0.1271(4) -0.2962(4) 0.62109(14)
C14 C 0.0246(4) -0.2013(4) 0.58800(14)
H7 H -0.16100 0.25110 0.53510
H8 H 0.03220 0.23070 0.56680
H9 H 0.16070 0.12960 0.63600
H10 H 0.43060 -0.28830 0.71620
H11 H 0.32390 -0.43150 0.70390
H12 H -0.04120 -0.24540 0.56370
#END
