
#######################################################################
#
#                 Cambridge Crystallographic Data Centre
#                                CCDC
#
#######################################################################
#
# If this CIF has been generated from an entry in the Cambridge
# Structural Database, then it will include bibliographic, chemical,
# crystal, experimental, refinement or atomic coordinate data resulting
# from the CCDC's data processing and validation procedures.
#
#######################################################################

data_CSD_CIF_DOPLOL03
_audit_creation_date 2014-09-25
_audit_creation_method CSD-ConQuest-V1
_database_code_CSD DOPLOL03
_database_code_depnum_ccdc_archive 'CCDC 955510'
_chemical_formula_sum 'C7 H6 N4 O5'
_chemical_formula_moiety
;
C7 H6 N4 O5
;
_journal_coden_Cambridge 1147
_journal_volume 14
_journal_year 2014
_journal_page_first 5064
_journal_name_full 'Cryst.Growth Des. '
loop_
_publ_author_name
"J.Prakasha Reddy"
"D.Swain"
"V.R.Pedireddi"
_chemical_name_systematic
;
4-amino-3,5-dinitrobenzamide
;
_cell_volume   1738.775
_exptl_crystal_colour 'yellow'
_exptl_crystal_density_diffrn 1.728
_exptl_special_details
;
polymorph III

;
_exptl_crystal_description 'plate'
_diffrn_ambient_temperature 120
#These two values have been output from a single CSD field.
_refine_ls_R_factor_gt 0.0411
_refine_ls_wR_factor_gt 0.0411
_symmetry_cell_setting monoclinic
_symmetry_space_group_name_H-M 'P 21/c'
_symmetry_Int_Tables_number 14
loop_
_symmetry_equiv_pos_site_id
_symmetry_equiv_pos_as_xyz
1 x,y,z
2 -x,1/2+y,1/2-z
3 -x,-y,-z
4 x,-1/2-y,-1/2+z
_cell_length_a 8.3403(8)
_cell_length_b 8.8604(9)
_cell_length_c 23.686(2)
_cell_angle_alpha 90
_cell_angle_beta 96.595(6)
_cell_angle_gamma 90
_cell_formula_units_Z 8
loop_
_atom_type_symbol
_atom_type_radius_bond
C 0.68
H 0.23
N 0.68
O 0.68
loop_
_atom_site_label
_atom_site_type_symbol
_atom_site_fract_x
_atom_site_fract_y
_atom_site_fract_z
O1 O 0.00707(16) 0.99268(14) 0.56781(6)
O2 O 0.18895(15) 1.05204(13) 0.63633(5)
O3 O 0.48106(13) 0.58643(14) 0.73544(5)
O4 O 0.36881(14) 0.37120(13) 0.71353(5)
O5 O -0.21297(14) 0.51783(13) 0.53607(5)
N1 N 0.10666(16) 0.95695(14) 0.60762(6)
N2 N 0.33722(17) 0.83654(16) 0.69933(6)
N3 N 0.37566(15) 0.50953(15) 0.70793(5)
N4 N -0.06751(17) 0.30631(15) 0.55534(6)
C1 C 0.03291(17) 0.54569(16) 0.59494(6)
C2 C 0.02427(17) 0.70161(17) 0.58800(6)
C3 C 0.12683(18) 0.79691(16) 0.62083(6)
C4 C 0.24638(17) 0.74462(17) 0.66453(6)
C5 C 0.25547(17) 0.58272(17) 0.66788(6)
C6 C 0.15210(17) 0.48740(17) 0.63464(6)
C7 C -0.09156(18) 0.45408(17) 0.55960(6)
H1 H 0.319(2) 0.928(2) 0.6962(8)
H2 H -0.140(3) 0.250(2) 0.5353(9)
H3 H 0.167(2) 0.384(2) 0.6412(8)
H4 H -0.052(2) 0.742(2) 0.5602(8)
H5 H 0.415(3) 0.802(3) 0.7233(10)
H6 H 0.017(3) 0.263(2) 0.5706(9)
O6 O 0.47800(16) 1.31830(14) 0.58911(5)
O7 O 0.67892(15) 1.36259(13) 0.65271(5)
O8 O 0.96702(14) 0.87936(13) 0.73778(5)
O9 O 0.85462(14) 0.66956(13) 0.70814(5)
O10 O 0.31875(13) 0.85146(12) 0.51656(5)
N5 N 0.59283(17) 1.27489(15) 0.62208(6)
N6 N 0.84967(17) 1.13679(17) 0.69968(6)
N7 N 0.86471(15) 0.80777(15) 0.70604(5)
N8 N 0.44595(18) 0.63378(15) 0.54300(6)
C8 C 0.54459(17) 0.86854(17) 0.58633(6)
C9 C 0.52921(18) 1.02487(17) 0.58695(6)
C10 C 0.62566(18) 1.11279(16) 0.62500(6)
C11 C 0.75023(17) 1.05162(17) 0.66504(6)
C12 C 0.75533(17) 0.88956(16) 0.66473(6)
C13 C 0.65685(17) 0.80163(17) 0.62651(6)
C14 C 0.42886(17) 0.78264(17) 0.54518(6)
H7 H 0.452(2) 1.070(2) 0.5624(8)
H8 H 0.929(3) 1.099(2) 0.7219(9)
H9 H 0.671(2) 0.691(2) 0.6296(7)
H10 H 0.372(3) 0.580(3) 0.5202(10)
H11 H 0.527(3) 0.589(3) 0.5608(10)
H12 H 0.840(3) 1.232(3) 0.6966(9)
#END
