
#######################################################################
#
#                 Cambridge Crystallographic Data Centre
#                                CCDC
#
#######################################################################
#
# If this CIF has been generated from an entry in the Cambridge
# Structural Database, then it will include bibliographic, chemical,
# crystal, experimental, refinement or atomic coordinate data resulting
# from the CCDC's data processing and validation procedures.
#
#######################################################################

data_CSD_CIF_DOPZIR
_audit_creation_date 1987-03-27
_audit_creation_method CSD-ConQuest-V1
_database_code_CSD DOPZIR
_database_code_depnum_ccdc_archive 'CCDC 622830'
_chemical_formula_sum 'C17 H24 N2 O4'
_chemical_formula_moiety
;
C17 H24 N2 O4
;
_journal_coden_Cambridge 24
_journal_volume 27
_journal_year 1986
_journal_page_first 2789
_journal_name_full 'Tetrahedron Lett. '
loop_
_publ_author_name
"W.A.Slusarchyk"
"T.Dejneka"
"J.Gougoutas"
"W.H.Koster"
"D.R.Kronenthal"
"M.Malley"
"M.G.Perri"
"F.L.Routh"
"J.E.Sundeen"
"E.R.Weaver"
"R.Zahler"
"J.D.Godfrey Junior"
"R.H.Mueller"
"D.J.Von Langen"
_chemical_name_systematic
;
1-Benzyloxy-4-t-butoxycarbonylamino-3,3-dimethyl-azetidin-2-one
;
_cell_volume   1832.054
_exptl_special_details
;
published cell c value is 10.55 and space group P21/n

;
_diffrn_ambient_temperature ?
_diffrn_special_details
;
The study was carried out at room temperature,in the range 283-303K

;
#These two values have been output from a single CSD field.
_refine_ls_R_factor_gt 0.22
_refine_ls_wR_factor_gt 0.22
_symmetry_cell_setting monoclinic
_symmetry_space_group_name_H-M 'P 21/c'
_symmetry_Int_Tables_number 14
loop_
_symmetry_equiv_pos_site_id
_symmetry_equiv_pos_as_xyz
1 x,y,z
2 -x,1/2+y,1/2-z
3 -x,-y,-z
4 x,-1/2-y,-1/2+z
_cell_length_a 18.09
_cell_length_b 19.292
_cell_length_c 5.275
_cell_angle_alpha 90
_cell_angle_beta 95.63
_cell_angle_gamma 90
_cell_formula_units_Z 4
loop_
_atom_type_symbol
_atom_type_radius_bond
C 0.68
H 0.23
N 0.68
O 0.68
loop_
_atom_site_label
_atom_site_type_symbol
_atom_site_fract_x
_atom_site_fract_y
_atom_site_fract_z
N1 N 0.81063 0.61835 0.58179
C1 C 0.86189 0.65171 0.70481
C2 C 0.92376 0.61487 0.58552
C3 C 0.85574 0.57872 0.42133
O1 O 0.73868 0.63126 0.53171
O2 O 0.86764 0.70405 0.84071
N2 N 0.84237 0.50426 0.45747
C4 C 0.97789 0.65473 0.43984
C5 C 0.96697 0.56347 0.79977
C6 C 0.82259 0.46542 0.25217
O3 O 0.82103 0.48004 0.03616
O4 O 0.80479 0.39948 0.33391
C7 C 0.77867 0.33985 0.14052
C8 C 0.71504 0.36801 -0.00260
C9 C 0.75647 0.28636 0.33802
C10 C 0.84190 0.32700 0.00955
C11 C 0.69102 0.59830 0.72103
C12 C 0.61170 0.60810 0.62770
C13 C 0.57940 0.56800 0.42750
C14 C 0.50500 0.57710 0.34080
C15 C 0.56950 0.65740 0.74100
C16 C 0.49510 0.66660 0.65450
C17 C 0.46280 0.62640 0.45450
H1 H 0.84906 0.48331 0.62998
H2 H 1.01134 0.53678 0.71742
H3 H 0.98978 0.59383 0.96085
H4 H 0.92821 0.52602 0.86191
H5 H 1.01745 0.61923 0.37043
H6 H 0.94794 0.68105 0.28076
H7 H 1.00694 0.69235 0.56431
H8 H 0.84925 0.59227 0.22173
H9 H 0.69285 0.33053 -0.14196
H10 H 0.67345 0.38037 0.12386
H11 H 0.73046 0.41452 -0.09846
H12 H 0.73625 0.23980 0.24085
H13 H 0.80432 0.27402 0.46906
H14 H 0.71334 0.30791 0.44200
H15 H 0.82948 0.28640 -0.12909
H16 H 0.85683 0.37370 -0.08616
H17 H 0.88764 0.31109 0.14394
H18 H 0.70328 0.54361 0.73763
H19 H 0.70247 0.62271 0.90495
H20 H 0.48290 0.54970 0.20410
H21 H 0.60830 0.53440 0.35010
H22 H 0.41190 0.63270 0.39530
H23 H 0.46620 0.70020 0.73180
H24 H 0.59160 0.68490 0.87780
#END
