
#######################################################################
#
#                 Cambridge Crystallographic Data Centre
#                                CCDC
#
#######################################################################
#
# If this CIF has been generated from an entry in the Cambridge
# Structural Database, then it will include bibliographic, chemical,
# crystal, experimental, refinement or atomic coordinate data resulting
# from the CCDC's data processing and validation procedures.
#
#######################################################################

data_CSD_CIF_DOPZOX
_audit_creation_date 1987-03-27
_audit_creation_method CSD-ConQuest-V1
_database_code_CSD DOPZOX
_database_code_depnum_ccdc_archive 'CCDC 622831'
_chemical_formula_sum 'C18 H28 N2 O5'
_chemical_formula_moiety
;
C18 H28 N2 O5
;
_journal_coden_Cambridge 24
_journal_volume 27
_journal_year 1986
_journal_page_first 2789
_journal_name_full 'Tetrahedron Lett. '
loop_
_publ_author_name
"W.A.Slusarchyk"
"T.Dejneka"
"J.Gougoutas"
"W.H.Koster"
"D.R.Kronenthal"
"M.Malley"
"M.G.Perri"
"F.L.Routh"
"J.E.Sundeen"
"E.R.Weaver"
"R.Zahler"
"J.D.Godfrey Junior"
"R.H.Mueller"
"D.J.Von Langen"
_chemical_name_systematic
;
N-Benzyloxy-3-t-butoxycarbonylamino-3-methoxy-2,2-dimethyl-propanamide
;
_cell_volume   1976.577
_diffrn_ambient_temperature ?
_diffrn_special_details
;
The study was carried out at room temperature,in the range 283-303K

;
#These two values have been output from a single CSD field.
_refine_ls_R_factor_gt 0.0655
_refine_ls_wR_factor_gt 0.0655
_symmetry_cell_setting monoclinic
_symmetry_space_group_name_H-M 'P 21/c'
_symmetry_Int_Tables_number 14
loop_
_symmetry_equiv_pos_site_id
_symmetry_equiv_pos_as_xyz
1 x,y,z
2 -x,1/2+y,1/2-z
3 -x,-y,-z
4 x,-1/2-y,-1/2+z
_cell_length_a 11.5569
_cell_length_b 19.1013
_cell_length_c 9.9096
_cell_angle_alpha 90
_cell_angle_beta 115.371
_cell_angle_gamma 90
_cell_formula_units_Z 4
loop_
_atom_type_symbol
_atom_type_radius_bond
C 0.68
H 0.23
N 0.68
O 0.68
loop_
_atom_site_label
_atom_site_type_symbol
_atom_site_fract_x
_atom_site_fract_y
_atom_site_fract_z
N1 N 0.99810 0.24810 1.06680
C1 C 0.94330 0.21370 0.93710
C2 C 0.73310 0.16010 0.80150
C3 C 0.86350 0.15060 0.93680
O1 O 1.09980 0.30420 1.08840
O2 O 0.96270 0.22990 0.82980
N2 N 0.66700 0.22270 0.81110
C4 C 0.93130 0.08670 0.91110
C5 C 0.84560 0.13990 1.07940
C6 C 0.59610 0.26030 0.68610
O3 O 0.60120 0.25360 0.56800
O4 O 0.52420 0.30660 0.71680
C7 C 0.41810 0.34340 0.59550
C8 C 0.47060 0.39520 0.52520
C9 C 0.33050 0.29340 0.48300
C10 C 0.35110 0.37870 0.67750
C11 C 1.01310 0.35370 1.03990
C12 C 1.12800 0.41740 1.05810
C13 C 1.17280 0.42080 0.95100
C14 C 1.24000 0.47920 0.94060
C15 C 1.25810 0.53250 1.03740
C16 C 1.21700 0.52900 1.14640
C17 C 1.15300 0.47080 1.15720
O5 O 0.66170 0.09860 0.79640
C18 C 0.54040 0.09490 0.67220
H1 H 0.75000 0.16790 0.69530
H2 H 0.66790 0.21480 0.91790
H3 H 0.94530 0.09960 0.80670
H4 H 1.01520 0.07850 0.99310
H5 H 0.88440 0.04370 0.89590
H6 H 0.94530 0.13280 1.16790
H7 H 0.80660 0.08200 1.05660
H8 H 0.80660 0.18170 1.11130
H9 H 0.41600 0.43160 0.47070
H10 H 0.49690 0.37220 0.45390
H11 H 0.54750 0.41770 0.59740
H12 H 1.16280 0.38020 0.88570
H13 H 1.26710 0.48320 0.85830
H14 H 1.30870 0.57360 1.03200
H15 H 1.23490 0.56800 1.21850
H16 H 1.12410 0.46860 1.23530
H17 H 0.49990 0.14840 0.69330
H18 H 0.52920 0.10160 0.55660
H19 H 0.49270 0.05160 0.66400
H20 H 0.25000 0.31640 0.38860
H21 H 0.35940 0.25000 0.41600
H22 H 0.27730 0.39840 0.63870
H23 H 0.97260 0.36520 1.11130
H24 H 0.32010 0.26600 0.55810
H25 H 0.40870 0.41840 0.73380
H26 H 0.35090 0.34790 0.75310
H27 H 0.93460 0.34480 0.94690
H28 H 0.94530 0.25000 1.14060
#END
