
#######################################################################
#
#                 Cambridge Crystallographic Data Centre
#                                CCDC
#
#######################################################################
#
# If this CIF has been generated from an entry in the Cambridge
# Structural Database, then it will include bibliographic, chemical,
# crystal, experimental, refinement or atomic coordinate data resulting
# from the CCDC's data processing and validation procedures.
#
#######################################################################

data_CSD_CIF_DOPZOZ
_audit_creation_date 2014-09-26
_audit_creation_method CSD-ConQuest-V1
_database_code_CSD DOPZOZ
_database_code_depnum_ccdc_archive 'CCDC 977732'
_chemical_formula_sum 'C11 H12 N6 O2'
_chemical_formula_moiety
;
C11 H12 N6 O2
;
_journal_coeditor_code "IUCr su2778"
_journal_coden_Cambridge 1370
_journal_volume 70
_journal_year 2014
_journal_page_first 224
_journal_name_full 'Acta Crystallogr.,Sect.E:Struct.Rep.Online '
loop_
_publ_author_name
"S.Patil"
"A.Bugarin"
_chemical_name_systematic
;
1,3-Dimethyl-2-(3-(3-nitrophenyl)triaz-2-en-1-ylidene)-2,3-dihydro-1H-imidazol
e
;
_cell_volume   2374.085
_exptl_crystal_colour 'orange'
_exptl_crystal_density_diffrn 1.456
_exptl_crystal_description 'prism'
_diffrn_ambient_temperature 103
#These two values have been output from a single CSD field.
_refine_ls_R_factor_gt 0.0488
_refine_ls_wR_factor_gt 0.0488
_symmetry_cell_setting monoclinic
_symmetry_space_group_name_H-M 'P 21/c'
_symmetry_Int_Tables_number 14
loop_
_symmetry_equiv_pos_site_id
_symmetry_equiv_pos_as_xyz
1 x,y,z
2 -x,1/2+y,1/2-z
3 -x,-y,-z
4 x,-1/2-y,-1/2+z
_cell_length_a 14.0377(5)
_cell_length_b 12.9071(5)
_cell_length_c 14.2995(5)
_cell_angle_alpha 90
_cell_angle_beta 113.6050(8)
_cell_angle_gamma 90
_cell_formula_units_Z 8
loop_
_atom_type_symbol
_atom_type_radius_bond
C 0.68
H 0.23
N 0.68
O 0.68
loop_
_atom_site_label
_atom_site_type_symbol
_atom_site_fract_x
_atom_site_fract_y
_atom_site_fract_z
O1 O 1.41154(5) 0.17070(6) 0.07592(6)
O2 O 1.35616(5) 0.32803(5) 0.07112(6)
N1 N 0.69882(5) 0.35407(5) 0.09704(5)
N2 N 0.74421(5) 0.19273(5) 0.09668(5)
N3 N 0.86553(5) 0.33461(5) 0.09907(5)
N4 N 0.93463(4) 0.26313(5) 0.10078(4)
N5 N 1.01715(5) 0.30405(5) 0.09846(5)
N6 N 1.34736(5) 0.23387(6) 0.07898(5)
C1 C 0.64415(5) 0.19428(6) 0.09429(6)
H1 H 0.60290 0.13540 0.09270
C2 C 0.61618(5) 0.29407(6) 0.09470(6)
H2 H 0.55190 0.31860 0.09360
C3 C 0.77707(5) 0.29211(5) 0.09821(5)
C4 C 0.79822(6) 0.09749(6) 0.09254(6)
H3 H 0.81490 0.09870 0.03220
H4 H 0.75350 0.03790 0.08840
H5 H 0.86260 0.09180 0.15420
C5 C 0.70332(7) 0.46623(6) 0.09997(8)
H6 H 0.74480 0.48920 0.16990
H7 H 0.63280 0.49430 0.07740
H8 H 0.73540 0.49100 0.05460
C6 C 1.09080(5) 0.22826(5) 0.10102(5)
C7 C 1.08081(6) 0.12097(5) 0.11242(6)
H9 H 1.02000 0.09490 0.11800
C8 C 1.15869(6) 0.05259(6) 0.11562(6)
H10 H 1.15120 -0.01940 0.12490
C9 C 1.24754(6) 0.08873(6) 0.10535(6)
H11 H 1.30090 0.04260 0.10710
C10 C 1.25535(5) 0.19462(6) 0.09241(5)
C11 C 1.18020(5) 0.26503(5) 0.09144(5)
H12 H 1.18930 0.33710 0.08440
O3 O 0.37570(6) 0.04437(6) 0.82832(7)
O4 O 0.28471(5) 0.17434(6) 0.84106(6)
N7 N 1.02372(4) 0.23808(5) 0.84318(5)
N8 N 0.94498(5) 0.37758(5) 0.86112(5)
N9 N 0.86200(5) 0.20437(5) 0.84779(5)
N10 N 0.77639(4) 0.25054(5) 0.84548(5)
N11 N 0.70763(5) 0.18431(5) 0.84484(5)
N12 N 0.36319(5) 0.13767(6) 0.83579(6)
C12 C 1.08846(5) 0.32082(6) 0.84914(6)
H13 H 1.15470 0.31740 0.84590
C13 C 1.03999(6) 0.40748(6) 0.86051(6)
H14 H 1.06600 0.47620 0.86690
C14 C 0.93575(5) 0.27292(5) 0.85061(5)
C15 C 1.04585(5) 0.12916(6) 0.83482(6)
H15 H 1.06100 0.09460 0.90030
H16 H 1.10610 0.12310 0.81690
H17 H 0.98540 0.09640 0.78170
C16 C 0.87328(6) 0.45063(6) 0.87669(7)
H18 H 0.80880 0.45370 0.81490
H19 H 0.90520 0.51950 0.89120
H20 H 0.85760 0.42770 0.93430
C17 C 0.61624(5) 0.23313(5) 0.84061(5)
C18 C 0.59905(6) 0.34078(6) 0.83778(6)
H21 H 0.65160 0.38700 0.83740
C19 C 0.50599(6) 0.37999(6) 0.83552(7)
H22 H 0.49580 0.45280 0.83380
C20 C 0.42745(6) 0.31436(6) 0.83575(6)
H23 H 0.36410 0.34100 0.83520
C21 C 0.44519(5) 0.20858(6) 0.83684(6)
C22 C 0.53703(5) 0.16660(6) 0.83938(6)
H24 H 0.54610 0.09360 0.84030
#END
