
#######################################################################
#
#                 Cambridge Crystallographic Data Centre
#                                CCDC
#
#######################################################################
#
# If this CIF has been generated from an entry in the Cambridge
# Structural Database, then it will include bibliographic, chemical,
# crystal, experimental, refinement or atomic coordinate data resulting
# from the CCDC's data processing and validation procedures.
#
#######################################################################

data_CSD_CIF_DORBES
_audit_creation_date 2009-07-12
_audit_creation_method CSD-ConQuest-V1
_database_code_CSD DORBES
_database_code_depnum_ccdc_archive 'CCDC 719290'
_chemical_formula_sum 'C20 H20 N2 O9'
_chemical_formula_moiety
;
C20 H20 N2 O9
;
_journal_coden_Cambridge 4
_journal_volume 130
_journal_year 2008
_journal_page_first 17236
_journal_name_full 'J.Am.Chem.Soc. '
loop_
_publ_author_name
"Xiaobo Wan"
"M.M.Joullie"
_chemical_name_systematic
;
N-(7,8-Dimethoxy-2-oxo-2H-chromen-3-yl)-4a,5,8-trihydroxy-4a,5,8,8a-tetrahydro
-4H-1,2-benzoxazine-3-carboxamide
;
_chemical_name_common
;
Trichodermamide A
;
_cell_volume   4803.691
_exptl_crystal_density_diffrn 1.196
_exptl_special_details
;
We calculate 11% voids in the crystal structure

;
_diffrn_ambient_temperature 143
_refine_special_details
;
Large void space, possible disorder.

;
#These two values have been output from a single CSD field.
_refine_ls_R_factor_gt 0.0531
_refine_ls_wR_factor_gt 0.0531
_symmetry_cell_setting orthorhombic
_symmetry_space_group_name_H-M 'I 2 2 2'
_symmetry_Int_Tables_number 23
loop_
_symmetry_equiv_pos_site_id
_symmetry_equiv_pos_as_xyz
1 x,y,z
2 x,-y,-z
3 -x,y,-z
4 -x,-y,z
5 1/2+x,1/2+y,1/2+z
6 1/2+x,1/2-y,1/2-z
7 1/2-x,1/2+y,1/2-z
8 1/2-x,1/2-y,1/2+z
_cell_length_a 10.9542(12)
_cell_length_b 13.6868(17)
_cell_length_c 32.040(4)
_cell_angle_alpha 90
_cell_angle_beta 90
_cell_angle_gamma 90
_cell_formula_units_Z 8
loop_
_atom_type_symbol
_atom_type_radius_bond
C 0.68
H 0.23
N 0.68
O 0.68
loop_
_atom_site_label
_atom_site_type_symbol
_atom_site_fract_x
_atom_site_fract_y
_atom_site_fract_z
C1 C 0.8892(2) 0.3824(2) 0.12857(7)
H1 H 0.96910 0.41400 0.12630
C2 C 0.8997(2) 0.2831(2) 0.10748(8)
H2 H 0.83230 0.24120 0.11670
C3 C 0.8963(3) 0.2927(2) 0.06083(8)
H3 H 0.92030 0.23910 0.04500
C4 C 0.8616(3) 0.3722(2) 0.04092(8)
H4 H 0.85860 0.37040 0.01190
C5 C 0.8270(3) 0.4645(2) 0.06222(8)
H5 H 0.89660 0.50930 0.06040
C6 C 0.7976(2) 0.44942(19) 0.10821(8)
C7 C 0.6705(2) 0.4053(2) 0.11457(8)
H6 H 0.60830 0.45150 0.10590
H7 H 0.66190 0.34640 0.09800
C8 C 0.6560(2) 0.38200(19) 0.15989(7)
C9 C 0.5292(2) 0.37961(19) 0.17666(8)
C10 C 0.4081(2) 0.3755(2) 0.24166(8)
C11 C 0.4284(2) 0.3631(2) 0.28621(8)
C12 C 0.2944(2) 0.38521(19) 0.22672(8)
H8 H 0.28260 0.39590 0.19830
C13 C 0.1906(2) 0.37939(19) 0.25394(8)
C14 C 0.0706(2) 0.3836(2) 0.24051(8)
H9 H 0.05460 0.39120 0.21220
C15 C -0.0256(2) 0.3768(2) 0.26799(8)
H10 H -0.10560 0.37950 0.25830
C16 C -0.0019(2) 0.3659(2) 0.31089(8)
C17 C 0.1170(2) 0.3618(2) 0.32540(8)
C18 C 0.2116(2) 0.3690(2) 0.29675(8)
C19 C -0.2152(2) 0.3578(3) 0.32738(10)
H11 H -0.23430 0.41950 0.31470
H12 H -0.26750 0.34750 0.35100
H13 H -0.22740 0.30630 0.30750
C20 C 0.1620(7) 0.4248(4) 0.39294(13)
H14 H 0.24510 0.44600 0.39000
H15 H 0.14680 0.40700 0.42150
H16 H 0.10800 0.47680 0.38500
N1 N 0.74185(19) 0.36664(19) 0.18653(7)
N2 N 0.51755(19) 0.37624(17) 0.21897(6)
H17 H 0.58410 0.37440 0.23320
O1 O 0.86367(15) 0.36990(17) 0.17298(5)
O2 O 1.01341(19) 0.23754(17) 0.11778(6)
H18 H 1.00760 0.21060 0.14050
O3 O 0.7249(2) 0.51051(19) 0.04277(6)
H19 H 0.71300 0.48570 0.01980
O4 O 0.80679(19) 0.54047(15) 0.13026(7)
H20 H 0.73950 0.56670 0.13120
O5 O 0.44209(17) 0.38401(16) 0.15279(6)
O6 O 0.52800(16) 0.35429(17) 0.30235(6)
O7 O 0.32962(14) 0.36248(14) 0.31210(5)
O8 O -0.09011(16) 0.35803(17) 0.34077(6)
O9 O 0.14153(18) 0.34295(16) 0.36689(6)
#END
