
#######################################################################
#
#                 Cambridge Crystallographic Data Centre
#                                CCDC
#
#######################################################################
#
# If this CIF has been generated from an entry in the Cambridge
# Structural Database, then it will include bibliographic, chemical,
# crystal, experimental, refinement or atomic coordinate data resulting
# from the CCDC's data processing and validation procedures.
#
#######################################################################

data_CSD_CIF_DORJAW
_audit_creation_date 2009-07-13
_audit_creation_method CSD-ConQuest-V1
_database_code_CSD DORJAW
_database_code_depnum_ccdc_archive 'CCDC 645980'
_chemical_formula_sum 'C17 H16 N4 O6'
_chemical_formula_moiety
;
C17 H16 N4 O6
;
_journal_coden_Cambridge 1291
_journal_year 2009
_journal_page_first 687
_journal_name_full 'Eur.J.Org.Chem. '
loop_
_publ_author_name
"M.D.H.Bhiuyan"
"A.B.Mahon"
"P.Jensen"
"J.K.Clegg"
"A.C.Try"
_chemical_name_systematic
;
(+-)-4,10-Dimethoxy-2,8-dinitro-6H,12H-5,11-methanodibenzo(b,f)(1,5)diazocine
;
_chemical_name_common
;
(+-)-3,11-Dimethoxy-5,13-dinitro-1,9-diazatetracyclo[7.7.1.0$2,7!.0$10,15!]hep
tadeca-2,4,6,10,12,14-hexaene
;
_chemical_melting_point ?
_cell_volume   1582.378
_exptl_crystal_colour 'yellow'
_exptl_crystal_density_diffrn 1.563
_exptl_special_details
;
Decomposes above 563.15K

;
_exptl_crystal_description 'prism'
_exptl_crystal_preparation 'dichloromethane'
_diffrn_ambient_temperature 150
#These two values have been output from a single CSD field.
_refine_ls_R_factor_gt 0.0336
_refine_ls_wR_factor_gt 0.0336
_symmetry_cell_setting monoclinic
_symmetry_space_group_name_H-M 'P 21/c'
_symmetry_Int_Tables_number 14
loop_
_symmetry_equiv_pos_site_id
_symmetry_equiv_pos_as_xyz
1 x,y,z
2 -x,1/2+y,1/2-z
3 -x,-y,-z
4 x,-1/2-y,-1/2+z
_cell_length_a 9.3903(7)
_cell_length_b 12.8546(10)
_cell_length_c 13.6541(10)
_cell_angle_alpha 90
_cell_angle_beta 106.243(1)
_cell_angle_gamma 90
_cell_formula_units_Z 4
loop_
_atom_type_symbol
_atom_type_radius_bond
C 0.68
H 0.23
N 0.68
O 0.68
loop_
_atom_site_label
_atom_site_type_symbol
_atom_site_fract_x
_atom_site_fract_y
_atom_site_fract_z
O1 O -0.28204(10) 0.56273(8) -0.13678(7)
O2 O -0.09043(11) 0.66170(8) -0.11753(7)
O3 O -0.24173(9) 0.42504(6) 0.21366(6)
O4 O 0.49746(9) 0.62794(7) 0.34983(7)
O5 O 0.49853(11) 0.16921(7) 0.40827(8)
O6 O 0.69131(10) 0.26296(8) 0.41123(8)
N1 N -0.16939(11) 0.60381(8) -0.08344(7)
N2 N 0.21906(10) 0.61980(8) 0.36314(7)
N3 N -0.00792(10) 0.52153(8) 0.34006(7)
N4 N 0.55817(12) 0.25350(9) 0.40326(7)
C1 C -0.00504(12) 0.63435(9) 0.08797(9)
H1 H 0.04930 0.68260 0.05980
C2 C -0.12664(12) 0.58324(9) 0.02672(8)
C3 C -0.21042(12) 0.51179(9) 0.06352(8)
H2 H -0.29330 0.47780 0.01890
C4 C -0.16881(12) 0.49184(8) 0.16752(8)
C5 C -0.37425(13) 0.37842(10) 0.15005(9)
H3 H -0.44340 0.43310 0.11640
H4 H -0.42060 0.33550 0.19200
H5 H -0.34930 0.33480 0.09840
C6 C -0.04478(12) 0.54268(8) 0.23316(8)
C7 C 0.03635(12) 0.61347(8) 0.19256(9)
C8 C 0.17224(12) 0.66678(9) 0.26091(9)
H6 H 0.25470 0.66210 0.22910
H7 H 0.15000 0.74130 0.26720
C9 C 0.08770(12) 0.60355(10) 0.39825(9)
H8 H 0.03080 0.66930 0.39130
H9 H 0.11870 0.58430 0.47140
C10 C 0.07012(12) 0.42148(9) 0.36764(9)
H10 H 0.02340 0.36860 0.31590
H11 H 0.05910 0.39800 0.43420
C11 C 0.23440(12) 0.42922(9) 0.37448(8)
C12 C 0.29881(12) 0.52527(9) 0.36602(8)
C13 C 0.44816(12) 0.53091(9) 0.36304(8)
C14 C 0.64556(13) 0.63699(11) 0.34182(10)
H12 H 0.71570 0.61400 0.40570
H13 H 0.66580 0.70970 0.32880
H14 H 0.65670 0.59350 0.28550
C15 C 0.53342(12) 0.44171(9) 0.37504(8)
H15 H 0.63440 0.44440 0.37460
C16 C 0.46691(13) 0.34781(9) 0.38770(8)
C17 C 0.31983(13) 0.33889(9) 0.38608(8)
H16 H 0.27780 0.27290 0.39270
#END
