
#######################################################################
#
#                 Cambridge Crystallographic Data Centre
#                                CCDC
#
#######################################################################
#
# If this CIF has been generated from an entry in the Cambridge
# Structural Database, then it will include bibliographic, chemical,
# crystal, experimental, refinement or atomic coordinate data resulting
# from the CCDC's data processing and validation procedures.
#
#######################################################################

data_CSD_CIF_DORJEA
_audit_creation_date 2009-07-13
_audit_creation_method CSD-ConQuest-V1
_database_code_CSD DORJEA
_database_code_depnum_ccdc_archive 'CCDC 645981'
_chemical_formula_sum 'C17 H16 N4 O4'
_chemical_formula_moiety
;
C17 H16 N4 O4
;
_journal_coden_Cambridge 1291
_journal_year 2009
_journal_page_first 687
_journal_name_full 'Eur.J.Org.Chem. '
loop_
_publ_author_name
"M.D.H.Bhiuyan"
"A.B.Mahon"
"P.Jensen"
"J.K.Clegg"
"A.C.Try"
_chemical_name_systematic
;
(+-)-4,10-Dimethyl-1,7-dinitro-6H,12H-5,11-methanodibenzo(b,f)(1,5)diazocine
;
_chemical_name_common
;
(+-)-3,11-Dimethyl-6,14-dinitro-1,9-diazatetracyclo[7.7.1.0$2,7!.0$10,15!]hept
adeca-2,4,6,10,12,14-hexaene
;
_chemical_melting_point ?
_cell_volume   1493.797
_exptl_crystal_colour 'yellow'
_exptl_crystal_density_diffrn 1.513
_exptl_special_details
;
Decomposes above 547.15K

;
_exptl_crystal_description 'prism'
_exptl_crystal_preparation 'dichloromethane/ethyl acetate'
_diffrn_ambient_temperature 150
#These two values have been output from a single CSD field.
_refine_ls_R_factor_gt 0.0361
_refine_ls_wR_factor_gt 0.0361
_symmetry_cell_setting monoclinic
_symmetry_space_group_name_H-M 'P 21/n'
_symmetry_Int_Tables_number 14
loop_
_symmetry_equiv_pos_site_id
_symmetry_equiv_pos_as_xyz
1 x,y,z
2 1/2-x,1/2+y,1/2-z
3 -x,-y,-z
4 -1/2+x,-1/2-y,-1/2+z
_cell_length_a 8.3118(15)
_cell_length_b 14.586(3)
_cell_length_c 12.386(2)
_cell_angle_alpha 90
_cell_angle_beta 95.854(3)
_cell_angle_gamma 90
_cell_formula_units_Z 4
loop_
_atom_type_symbol
_atom_type_radius_bond
C 0.68
H 0.23
N 0.68
O 0.68
loop_
_atom_site_label
_atom_site_type_symbol
_atom_site_fract_x
_atom_site_fract_y
_atom_site_fract_z
C1 C -0.21850(18) 0.33645(10) 0.35281(11)
H1 H -0.30530 0.33100 0.40040
H2 H -0.12890 0.29590 0.37900
H3 H -0.25970 0.31890 0.27870
C2 C -0.15964(14) 0.43375(8) 0.35326(9)
C3 C 0.00244(13) 0.45507(8) 0.33839(8)
C4 C 0.05948(13) 0.54596(8) 0.34611(8)
C5 C -0.05224(14) 0.61319(8) 0.36951(9)
C6 C -0.21323(15) 0.59463(9) 0.37961(9)
H4 H -0.28630 0.64260 0.39220
C7 C -0.26541(15) 0.50475(9) 0.3710(1)
H5 H -0.37580 0.49120 0.37730
C8 C 0.23218(13) 0.56674(8) 0.32209(9)
H6 H 0.23140 0.62050 0.27330
H7 H 0.29810 0.58260 0.39060
C9 C 0.27757(14) 0.40667(8) 0.33347(9)
H8 H 0.30890 0.41830 0.41150
H9 H 0.34480 0.35560 0.31040
C10 C 0.07611(14) 0.34450(7) 0.20604(9)
H10 H -0.04210 0.34030 0.18630
H11 H 0.12140 0.28180 0.20390
C11 C 0.15022(13) 0.40418(7) 0.12283(9)
C12 C 0.11745(13) 0.39268(7) 0.01005(9)
C13 C 0.17649(13) 0.45112(8) -0.06442(9)
H12 H 0.15080 0.44160 -0.14010
C14 C 0.27367(14) 0.52381(8) -0.02691(9)
H13 H 0.31300 0.56490 -0.07760
C15 C 0.31491(13) 0.53790(7) 0.08347(9)
C16 C 0.25386(13) 0.47702(7) 0.15803(9)
C17 C 0.42568(14) 0.61610(8) 0.12049(10)
H14 H 0.49790 0.62930 0.06470
H15 H 0.49010 0.59920 0.18830
H16 H 0.36100 0.67060 0.13260
N1 N -0.00346(14) 0.70943(7) 0.38324(8)
N2 N 0.10714(12) 0.38099(6) 0.31705(8)
N3 N 0.30670(11) 0.48866(7) 0.27114(8)
N4 N 0.01853(12) 0.31565(6) -0.03565(8)
O1 O -0.10960(14) 0.76772(7) 0.38281(9)
O2 O 0.14084(13) 0.72788(7) 0.39625(9)
O3 O -0.01648(12) 0.25365(6) 0.02460(8)
O4 O -0.02316(11) 0.31496(6) -0.13373(7)
#END
