
#######################################################################
#
#                 Cambridge Crystallographic Data Centre
#                                CCDC
#
#######################################################################
#
# If this CIF has been generated from an entry in the Cambridge
# Structural Database, then it will include bibliographic, chemical,
# crystal, experimental, refinement or atomic coordinate data resulting
# from the CCDC's data processing and validation procedures.
#
#######################################################################

data_CSD_CIF_DORJOK
_audit_creation_date 2009-07-13
_audit_creation_method CSD-ConQuest-V1
_database_code_CSD DORJOK
_database_code_depnum_ccdc_archive 'CCDC 689493'
_chemical_formula_sum 'C24 H22 N2 O4'
_chemical_formula_moiety
;
C24 H22 N2 O4
;
_journal_coden_Cambridge 1291
_journal_year 2009
_journal_page_first 699
_journal_name_full 'Eur.J.Org.Chem. '
loop_
_publ_author_name
"F.F.Fleming"
"Wang Liu"
_chemical_name_systematic
;
(2R*,4R*)-2-Cyano-2-methyl-4-(naphthalen-1-yl)pentyl 4-nitrobenzoate
;
_chemical_melting_point 419.15
_cell_volume   2074.733
_exptl_crystal_colour 'colorless'
_exptl_crystal_density_diffrn 1.288
_exptl_special_details
;
Melting point range 419.15-420.15K

;
_exptl_crystal_description 'needle'
_diffrn_ambient_temperature 296
#These two values have been output from a single CSD field.
_refine_ls_R_factor_gt 0.0424
_refine_ls_wR_factor_gt 0.0424
_symmetry_cell_setting monoclinic
_symmetry_space_group_name_H-M 'P 21/c'
_symmetry_Int_Tables_number 14
loop_
_symmetry_equiv_pos_site_id
_symmetry_equiv_pos_as_xyz
1 x,y,z
2 -x,1/2+y,1/2-z
3 -x,-y,-z
4 x,-1/2-y,-1/2+z
_cell_length_a 10.2400(5)
_cell_length_b 19.0776(9)
_cell_length_c 10.6227(5)
_cell_angle_alpha 90
_cell_angle_beta 91.207(3)
_cell_angle_gamma 90
_cell_formula_units_Z 4
loop_
_atom_type_symbol
_atom_type_radius_bond
C 0.72
H 0.23
N 0.68
O 0.68
loop_
_atom_site_label
_atom_site_type_symbol
_atom_site_fract_x
_atom_site_fract_y
_atom_site_fract_z
O1 O 0.2161(2) 0.95837(14) 0.1674(3)
O2 O 0.1659(3) 1.05490(15) 0.0588(3)
C1 C -0.1016(3) 0.76331(17) 0.2330(3)
H1 H -0.04090 0.73600 0.18240
C2 C 0.3841(4) 1.0379(2) 0.1343(3)
C3 C 0.0744(3) 0.86199(17) 0.2130(3)
C4 C -0.0700(3) 0.84061(18) 0.2117(3)
H2 H -0.11330 0.86770 0.27590
H3 H -0.10820 0.85430 0.13100
C5 C 0.4751(4) 0.9905(2) 0.1818(3)
H4 H 0.44910 0.94510 0.20070
C6 C 0.6387(5) 1.0765(3) 0.1754(4)
C7 C -0.2649(4) 0.6789(2) 0.1288(3)
C8 C 0.4249(5) 1.1052(2) 0.1047(3)
H5 H 0.36580 1.13710 0.06980
C9 C 0.0815(4) 0.9358(2) 0.1609(4)
H6 H 0.04960 0.93660 0.07430
H7 H 0.02780 0.96710 0.20990
C10 C -0.2384(4) 0.7446(2) 0.1873(3)
C11 C 0.1583(4) 0.8136(2) 0.1325(4)
H8 H 0.24330 0.83400 0.12320
H9 H 0.11740 0.80790 0.05100
H10 H 0.16670 0.76880 0.17280
C12 C 0.2450(4) 1.0194(2) 0.1145(4)
C13 C 0.1322(4) 0.8628(2) 0.3411(5)
N1 N 0.7743(5) 1.0983(3) 0.2041(4)
O3 O 0.8020(4) 1.1590(3) 0.1897(4)
C14 C 0.5523(5) 1.1246(2) 0.1271(4)
H11 H 0.57970 1.16990 0.10950
C15 C -0.0820(4) 0.7400(2) 0.3689(3)
H12 H -0.14380 0.76350 0.42080
H13 H 0.00510 0.75140 0.39710
H14 H -0.09490 0.69020 0.37450
C16 C -0.3921(6) 0.6631(3) 0.0828(4)
C17 C 0.6026(4) 1.0097(3) 0.2014(4)
H15 H 0.66350 0.97750 0.23200
C18 C -0.4685(5) 0.7727(3) 0.1628(6)
H16 H -0.53600 0.80410 0.17730
C19 C -0.3413(4) 0.7887(2) 0.2051(4)
H17 H -0.32650 0.83090 0.24690
O4 O 0.8497(4) 1.0538(3) 0.2456(5)
N2 N 0.1806(4) 0.8644(2) 0.4385(4)
C20 C -0.1667(5) 0.6265(2) 0.1139(3)
H18 H -0.08210 0.63500 0.14370
C21 C -0.4937(5) 0.7123(4) 0.1014(5)
H19 H -0.57780 0.70280 0.07110
C22 C -0.4185(7) 0.5987(4) 0.0229(5)
H20 H -0.50190 0.58910 -0.00910
C23 C -0.3224(10) 0.5510(4) 0.0122(5)
H21 H -0.34080 0.50820 -0.02580
C24 C -0.1955(7) 0.5646(3) 0.0569(5)
H22 H -0.13060 0.53110 0.04760
#END
