
#######################################################################
#
#                 Cambridge Crystallographic Data Centre
#                                CCDC
#
#######################################################################
#
# If this CIF has been generated from an entry in the Cambridge
# Structural Database, then it will include bibliographic, chemical,
# crystal, experimental, refinement or atomic coordinate data resulting
# from the CCDC's data processing and validation procedures.
#
#######################################################################

data_CSD_CIF_DORKAW
_audit_creation_date 1987-04-28
_audit_creation_method CSD-ConQuest-V1
_database_code_CSD DORKAW
_chemical_formula_sum 'C11 H19 N1 O1'
_chemical_formula_moiety
;
C11 H19 N1 O1
;
_journal_coden_Cambridge 35
_journal_volume 51
_journal_year 1986
_journal_page_first 2408
_journal_name_full 'J.Org.Chem. '
loop_
_publ_author_name
"H.O.House"
"G.S.Nomura"
"D.VanDerveer"
"J.E.Wissinger"
_chemical_name_systematic
;
trans-4-Hydroxyimino-10-methyl-perhydroazulene
;
_chemical_melting_point 419.15
_cell_volume   1057.081
_exptl_crystal_colour 'colorless'
_exptl_crystal_density_diffrn 1.14
_exptl_special_details
;
Melting point range 419.15-420.15K

;
_diffrn_ambient_temperature ?
_diffrn_special_details
;
The study was carried out at room temperature,in the range 283-303K

;
#These two values have been output from a single CSD field.
_refine_ls_R_factor_gt 0.065
_refine_ls_wR_factor_gt 0.065
_symmetry_cell_setting monoclinic
_symmetry_space_group_name_H-M 'P 21/n'
_symmetry_Int_Tables_number 14
loop_
_symmetry_equiv_pos_site_id
_symmetry_equiv_pos_as_xyz
1 x,y,z
2 1/2-x,1/2+y,1/2-z
3 -x,-y,-z
4 -1/2+x,-1/2-y,-1/2+z
_cell_length_a 6.718(2)
_cell_length_b 12.358(4)
_cell_length_c 12.766(5)
_cell_angle_alpha 90
_cell_angle_beta 94.14(3)
_cell_angle_gamma 90
_cell_formula_units_Z 4
loop_
_atom_type_symbol
_atom_type_radius_bond
C 0.68
H 0.23
N 0.68
O 0.68
loop_
_atom_site_label
_atom_site_type_symbol
_atom_site_fract_x
_atom_site_fract_y
_atom_site_fract_z
C1 C 0.6635(6) -0.0687(4) 0.2539(3)
C2 C 0.4953(7) 0.0122(4) 0.2245(4)
C3 C 0.3376(6) -0.0080(3) 0.3040(3)
C4 C 0.2738(5) -0.1535(3) 0.4395(3)
C5 C 0.3167(6) -0.2530(4) 0.5038(3)
C6 C 0.4482(7) -0.3424(3) 0.4660(3)
C7 C 0.6629(7) -0.3112(4) 0.4518(4)
C8 C 0.6918(6) -0.2473(4) 0.3517(3)
C9 C 0.5994(5) -0.1352(3) 0.3485(3)
C10 C 0.3674(5) -0.1274(3) 0.3380(3)
C11 C 0.2734(6) -0.2022(4) 0.2509(3)
O1 O 0.0592(4) -0.1118(2) 0.5615(2)
N1 N 0.1474(4) -0.0835(2) 0.4672(2)
H1 H 0.69990 -0.11840 0.19630
H2 H 0.79820 -0.02490 0.28120
H3 H 0.55040 0.09420 0.23100
H4 H 0.43290 -0.00210 0.14540
H5 H 0.35660 0.03360 0.37410
H6 H 0.20330 0.02250 0.27360
H7 H 0.34010 -0.22540 0.59050
H8 H 0.17360 -0.29020 0.52200
H9 H 0.45410 -0.39590 0.51930
H10 H 0.38350 -0.37410 0.38620
H11 H 0.75980 -0.38530 0.45970
H12 H 0.74690 -0.25930 0.52400
H13 H 0.85080 -0.24260 0.35930
H14 H 0.62900 -0.29090 0.27560
H15 H 0.64870 -0.09110 0.42250
H16 H 0.32950 -0.18430 0.17930
H17 H 0.12210 -0.18560 0.22660
H18 H 0.31040 -0.28870 0.26550
H19 H -0.08650 -0.06160 0.56720
#END
