
#######################################################################
#
#                 Cambridge Crystallographic Data Centre
#                                CCDC
#
#######################################################################
#
# If this CIF has been generated from an entry in the Cambridge
# Structural Database, then it will include bibliographic, chemical,
# crystal, experimental, refinement or atomic coordinate data resulting
# from the CCDC's data processing and validation procedures.
#
#######################################################################

data_CSD_CIF_DORKOK
_audit_creation_date 1987-04-28
_audit_creation_method CSD-ConQuest-V1
_database_code_CSD DORKOK
_chemical_formula_sum 'C20 H21 N1 O3'
_chemical_formula_moiety
;
C20 H21 N1 O3
;
_journal_coden_Cambridge 35
_journal_volume 51
_journal_year 1986
_journal_page_first 2351
_journal_name_full 'J.Org.Chem. '
loop_
_publ_author_name
"D.Mackay"
"E.G.Neeland"
"N.J.Taylor"
_chemical_name_systematic
;
(+-)-4-(5-Methyl-3-phenyl-1,4,2-dioxazol-5-yl)-4-p-tolyl-2-butanone
;
_chemical_melting_point 356.15
_cell_volume    860.803
_exptl_crystal_density_diffrn 1.248
_exptl_special_details
;
Melting point range 356.15-356.65K

;
_diffrn_ambient_temperature ?
_diffrn_special_details
;
The study was carried out at room temperature,in the range 283-303K

;
#These two values have been output from a single CSD field.
_refine_ls_R_factor_gt 0.031
_refine_ls_wR_factor_gt 0.031
_symmetry_cell_setting triclinic
_symmetry_space_group_name_H-M 'P -1'
_symmetry_Int_Tables_number 2
loop_
_symmetry_equiv_pos_site_id
_symmetry_equiv_pos_as_xyz
1 x,y,z
2 -x,-y,-z
_cell_length_a 6.101(1)
_cell_length_b 10.652(1)
_cell_length_c 14.552(2)
_cell_angle_alpha 106.69(1)
_cell_angle_beta 101.22(1)
_cell_angle_gamma 100.20(1)
_cell_formula_units_Z 2
loop_
_atom_type_symbol
_atom_type_radius_bond
C 0.68
H 0.23
N 0.68
O 0.68
loop_
_atom_site_label
_atom_site_type_symbol
_atom_site_fract_x
_atom_site_fract_y
_atom_site_fract_z
C1 C 0.2339(5) 0.1240(3) 0.4485(2)
C2 C 0.4061(3) 0.0616(2) 0.4033(1)
C3 C 0.3070(3) -0.0582(2) 0.3092(1)
C4 C 0.4821(3) -0.0960(2) 0.2500(1)
C5 C 0.4893(3) -0.0228(2) 0.1731(1)
O1 O 0.6951(2) -0.0318(1) 0.13947(9)
N1 N 0.8627(2) 0.0936(1) 0.1920(1)
C6 C 0.7547(3) 0.1737(2) 0.2362(1)
O2 O 0.5281(2) 0.1206(1) 0.22455(9)
O3 O 0.6109(2) 0.1027(1) 0.4420(1)
C7 C 0.4506(3) -0.2468(1) 0.2035(1)
C8 C 0.2378(3) -0.3354(2) 0.1524(1)
C9 C 0.2172(3) -0.4724(2) 0.1092(1)
C10 C 0.4079(3) -0.5257(2) 0.1150(1)
C11 C 0.6185(3) -0.4386(2) 0.1673(1)
C12 C 0.6399(3) -0.3016(2) 0.2107(1)
C13 C 0.3851(5) -0.6746(2) 0.0659(2)
C14 C 0.2844(4) -0.0663(2) 0.0845(1)
C15 C 0.8527(3) 0.3167(2) 0.2939(1)
C16 C 0.7296(4) 0.3890(2) 0.3504(1)
C17 C 0.8221(4) 0.5251(2) 0.4035(2)
C18 C 1.0355(4) 0.5885(2) 0.4001(2)
C19 C 1.1587(4) 0.5169(2) 0.3438(2)
C20 C 1.0681(3) 0.3814(2) 0.2910(2)
H1 H 0.311(5) 0.179(3) 0.516(2)
H2 H 0.182(5) 0.178(3) 0.411(2)
H3 H 0.105(6) 0.051(4) 0.447(3)
H4 H 0.167(3) -0.044(2) 0.267(1)
H5 H 0.247(3) -0.131(2) 0.332(1)
H6 H 0.639(3) -0.061(1) 0.298(1)
H7 H 0.094(3) -0.302(2) 0.145(1)
H8 H 0.064(3) -0.534(2) 0.075(1)
H9 H 0.751(3) -0.474(2) 0.173(1)
H10 H 0.791(3) -0.241(2) 0.247(1)
H11 H 0.514(5) -0.704(3) 0.087(2)
H12 H 0.340(6) -0.702(3) -0.001(3)
H13 H 0.267(3) -0.728(3) 0.081(2)
H14 H 0.312(3) -0.004(2) 0.046(2)
H15 H 0.137(4) -0.062(2) 0.104(2)
H16 H 0.272(3) -0.159(2) 0.045(1)
H17 H 0.575(3) 0.342(2) 0.353(1)
H18 H 0.731(4) 0.573(2) 0.446(2)
H19 H 1.105(3) 0.685(2) 0.438(2)
H20 H 1.315(4) 0.560(2) 0.338(2)
H21 H 1.150(3) 0.327(2) 0.251(1)
#END
