
#######################################################################
#
#                 Cambridge Crystallographic Data Centre
#                                CCDC
#
#######################################################################
#
# If this CIF has been generated from an entry in the Cambridge
# Structural Database, then it will include bibliographic, chemical,
# crystal, experimental, refinement or atomic coordinate data resulting
# from the CCDC's data processing and validation procedures.
#
#######################################################################

data_CSD_CIF_DORYOA
_audit_creation_date 2014-09-29
_audit_creation_method CSD-ConQuest-V1
_database_code_CSD DORYOA
_database_code_depnum_ccdc_archive 'CCDC 1014096'
_chemical_formula_sum 'C6 H4 N10 O8'
_chemical_formula_moiety
;
C6 H4 N10 O8
;
_journal_coden_Cambridge 1699
_journal_volume 2
_journal_year 2014
_journal_page_first 18097
_journal_name_full 'J.Mater.Chem.A '
loop_
_publ_author_name
"Chuan Li"
"Lixuan Liang"
"Kai Wang"
"Chengming Bian"
"Jun Zhang"
"Zhiming Zhou"
_chemical_name_systematic
;
3,3',5,5'-tetranitro-1'H-1,4'-bipyrazole-1',4-diamine
;
_cell_volume   1219.676
_exptl_crystal_colour 'orange'
_exptl_crystal_density_diffrn 1.874
_exptl_crystal_description 'Prism'
_diffrn_ambient_temperature 153
#These two values have been output from a single CSD field.
_refine_ls_R_factor_gt 0.0561
_refine_ls_wR_factor_gt 0.0561
_symmetry_cell_setting monoclinic
_symmetry_space_group_name_H-M 'P 21/n'
_symmetry_Int_Tables_number 14
loop_
_symmetry_equiv_pos_site_id
_symmetry_equiv_pos_as_xyz
1 x,y,z
2 1/2-x,1/2+y,1/2-z
3 -x,-y,-z
4 -1/2+x,-1/2-y,-1/2+z
_cell_length_a 10.6525(18)
_cell_length_b 10.1569(17)
_cell_length_c 11.3404(19)
_cell_angle_alpha 90
_cell_angle_beta 96.259(2)
_cell_angle_gamma 90
_cell_formula_units_Z 4
loop_
_atom_type_symbol
_atom_type_radius_bond
C 0.68
H 0.23
N 0.68
O 0.68
loop_
_atom_site_label
_atom_site_type_symbol
_atom_site_fract_x
_atom_site_fract_y
_atom_site_fract_z
O1 O 0.22915(15) 0.32475(18) 0.41143(15)
O2 O 0.42753(16) 0.38324(17) 0.43070(14)
O3 O 0.17655(17) 0.05174(18) 0.82340(16)
O4 O 0.36850(18) 0.01340(18) 0.89942(15)
O5 O 0.52402(19) 0.0978(2) 0.42634(16)
O6 O 0.7051(2) 0.12927(19) 0.36047(17)
O7 O 0.54510(16) 0.43670(17) 0.81521(15)
O8 O 0.74439(19) 0.4807(2) 0.84768(17)
N1 N 0.46876(15) 0.23834(16) 0.63909(14)
N2 N 0.45708(16) 0.16732(16) 0.73678(14)
N3 N 0.13723(18) 0.1821(3) 0.5990(2)
N4 N 0.78152(18) 0.27737(18) 0.54588(17)
N5 N 0.78636(16) 0.35066(17) 0.64194(16)
N6 N 0.9029(2) 0.4035(2) 0.6823(2)
N7 N 0.33661(17) 0.32569(18) 0.46558(16)
N8 N 0.29139(18) 0.06294(18) 0.82593(17)
N9 N 0.6281(2) 0.14719(19) 0.43207(17)
N10 N 0.65235(17) 0.42943(18) 0.79091(16)
C1 C 0.35321(18) 0.2552(2) 0.57222(18)
C2 C 0.26104(19) 0.1924(2) 0.63133(19)
C3 C 0.33462(19) 0.1419(2) 0.73206(18)
C4 C 0.6649(2) 0.23217(19) 0.53119(18)
C5 C 0.59071(18) 0.27525(18) 0.61786(16)
C6 C 0.67395(18) 0.35363(19) 0.68891(17)
H1 H 0.109(2) 0.218(2) 0.5335(14)
H2 H 0.093(3) 0.136(3) 0.641(2)
H3 H 0.880(4) 0.449(3) 0.742(2)
H4 H 0.930(3) 0.441(3) 0.6205(19)
#END
