
#######################################################################
#
#                 Cambridge Crystallographic Data Centre
#                                CCDC
#
#######################################################################
#
# If this CIF has been generated from an entry in the Cambridge
# Structural Database, then it will include bibliographic, chemical,
# crystal, experimental, refinement or atomic coordinate data resulting
# from the CCDC's data processing and validation procedures.
#
#######################################################################

data_CSD_CIF_DORYUF
_audit_creation_date 2009-07-13
_audit_creation_method CSD-ConQuest-V1
_database_code_CSD DORYUF
_database_code_depnum_ccdc_archive 'CCDC 720179'
_chemical_formula_sum 'C24 H21 N1 O4'
_chemical_formula_moiety
;
C24 H21 N1 O4
;
_journal_coden_Cambridge 1336
_journal_volume 10
_journal_year 2008
_journal_page_first 5609
_journal_name_full 'Org.Lett. '
loop_
_publ_author_name
"J.H.Rigby"
"S.B.Laurent"
"Z.Kamal"
"M.J.Heeg"
_chemical_name_systematic
;
(8-Benzylidenebicyclo[4.2.1]nona-2,4-dien-7-yl)methyl 4-nitrobenzoate
;
_chemical_melting_point 378.15
_cell_volume   1925.879
_exptl_crystal_colour 'pale yellow'
_exptl_crystal_density_diffrn 1.336
_exptl_crystal_description 'plates'
_exptl_crystal_preparation 'diethyl ether/hexanes'
_diffrn_ambient_temperature 100
#These two values have been output from a single CSD field.
_refine_ls_R_factor_gt 0.0515
_refine_ls_wR_factor_gt 0.0515
_symmetry_cell_setting monoclinic
_symmetry_space_group_name_H-M 'P 21/c'
_symmetry_Int_Tables_number 14
loop_
_symmetry_equiv_pos_site_id
_symmetry_equiv_pos_as_xyz
1 x,y,z
2 -x,1/2+y,1/2-z
3 -x,-y,-z
4 x,-1/2-y,-1/2+z
_cell_length_a 21.6415(15)
_cell_length_b 7.7284(5)
_cell_length_c 11.7898(8)
_cell_angle_alpha 90
_cell_angle_beta 102.402(4)
_cell_angle_gamma 90
_cell_formula_units_Z 4
loop_
_atom_type_symbol
_atom_type_radius_bond
C 0.68
H 0.23
N 0.68
O 0.68
loop_
_atom_site_label
_atom_site_type_symbol
_atom_site_fract_x
_atom_site_fract_y
_atom_site_fract_z
C1 C 0.14197(8) 0.6709(2) 0.06244(14)
H1 H 0.09790 0.62380 0.04240
C2 C 0.14391(8) 0.8313(2) 0.13482(14)
H2 H 0.11120 0.84310 0.17650
C3 C 0.18624(8) 0.9593(2) 0.14752(15)
H3 H 0.17910 1.05120 0.19660
C4 C 0.24194(8) 0.9790(2) 0.09705(15)
H4 H 0.26310 1.08710 0.11010
C5 C 0.26682(9) 0.8638(3) 0.03484(16)
H5 H 0.30510 0.89600 0.01350
C6 C 0.24042(8) 0.6886(2) -0.00486(15)
H6 H 0.25990 0.64810 -0.06970
C7 C 0.24960(8) 0.5461(2) 0.09112(14)
H7 H 0.25590 0.43280 0.05440
C8 C 0.18683(7) 0.5377(2) 0.13232(14)
C9 C 0.16779(8) 0.6937(2) -0.04777(14)
H8 H 0.15400 0.80560 -0.08580
H9 H 0.15320 0.59880 -0.10350
C10 C 0.17830(8) 0.4314(2) 0.21734(14)
H10 H 0.21350 0.35850 0.24660
C11 C 0.30440(8) 0.5740(3) 0.19309(14)
H11 H 0.29790 0.68110 0.23520
H12 H 0.30800 0.47540 0.24770
C12 C 0.12457(8) 0.4065(2) 0.27375(14)
C13 C 0.13396(8) 0.2987(2) 0.37159(14)
H13 H 0.17330 0.24040 0.39540
C14 C 0.08713(8) 0.2750(2) 0.43466(15)
H14 H 0.09480 0.20170 0.50090
C15 C 0.02971(8) 0.3576(2) 0.40119(15)
H15 H -0.00220 0.34220 0.44450
C16 C 0.01868(8) 0.4633(2) 0.30398(16)
H16 H -0.02100 0.51950 0.28020
C17 C 0.06526(8) 0.4875(2) 0.24143(15)
H17 H 0.05690 0.56060 0.17510
O1 O 0.36189(5) 0.58849(16) 0.14697(10)
C18 C 0.41602(8) 0.5841(2) 0.22623(14)
O2 O 0.41948(5) 0.56274(17) 0.32919(10)
C19 C 0.47238(8) 0.6102(2) 0.17375(14)
C20 C 0.53138(8) 0.5595(2) 0.23765(14)
H18 H 0.53440 0.50330 0.31030
C21 C 0.58566(8) 0.5900(2) 0.19633(14)
H19 H 0.62590 0.55380 0.23900
C22 C 0.57945(8) 0.6744(2) 0.09143(14)
C23 C 0.52151(8) 0.7257(2) 0.02514(14)
H20 H 0.51890 0.78310 -0.04700
C24 C 0.46756(8) 0.6914(2) 0.06652(14)
H21 H 0.42720 0.72320 0.02190
N1 N 0.63734(7) 0.71606(19) 0.04964(12)
O3 O 0.68867(6) 0.68168(19) 0.11311(11)
O4 O 0.63126(6) 0.78423(19) -0.04598(11)
#END
