
#######################################################################
#
#                 Cambridge Crystallographic Data Centre
#                                CCDC
#
#######################################################################
#
# If this CIF has been generated from an entry in the Cambridge
# Structural Database, then it will include bibliographic, chemical,
# crystal, experimental, refinement or atomic coordinate data resulting
# from the CCDC's data processing and validation procedures.
#
#######################################################################

data_CSD_CIF_DOSTIQ
_audit_creation_date 2014-09-30
_audit_creation_method CSD-ConQuest-V1
_database_code_CSD DOSTIQ
_database_code_depnum_ccdc_archive 'CCDC 1002299'
_chemical_formula_sum 'C18 H24 N4 O5'
_chemical_formula_moiety
;
C18 H24 N4 O5
;
_journal_coden_Cambridge 177
_journal_volume 12
_journal_year 2014
_journal_page_first 8888
_journal_name_full 'Org.Biomol.Chem. '
loop_
_publ_author_name
"R.Majer"
"O.Konechnaya"
"I.Delso"
"T.Tejero"
"O.A.Attanasi"
"S.Santeusanio"
"P.Merino"
_chemical_name_systematic
;
(2S,3S,3aR,4S)-ethyl 
4-(benzyloxy)-2-((E)-carbamoyldiazenyl)-2-methylhexahydropyrrolo[1,2-b]isoxazo
le-3-carboxylate
;
_chemical_name_common
;
ethyl 
4-(benzyloxy)-2-(carbamoyldiazenyl)-2-methylhexahydropyrrolo[1,2-b][1,2]oxazol
e-3-carboxylate
;
_chemical_melting_point 359
_cell_volume   1905.064
_exptl_crystal_description 'block'
_diffrn_ambient_temperature 150
#These two values have been output from a single CSD field.
_refine_ls_R_factor_gt 0.073
_refine_ls_wR_factor_gt 0.073
_symmetry_cell_setting orthorhombic
_symmetry_space_group_name_H-M 'P 21 21 21'
_symmetry_Int_Tables_number 19
loop_
_symmetry_equiv_pos_site_id
_symmetry_equiv_pos_as_xyz
1 x,y,z
2 1/2-x,-y,1/2+z
3 1/2+x,1/2-y,-z
4 -x,1/2+y,1/2-z
_cell_length_a 9.0217(7)
_cell_length_b 13.8727(15)
_cell_length_c 15.2216(13)
_cell_angle_alpha 90
_cell_angle_beta 90
_cell_angle_gamma 90
_cell_formula_units_Z 4
loop_
_atom_type_symbol
_atom_type_radius_bond
C 0.68
H 0.23
N 0.68
O 0.68
loop_
_atom_site_label
_atom_site_type_symbol
_atom_site_fract_x
_atom_site_fract_y
_atom_site_fract_z
O1 O 0.0988(3) 0.0891(2) 0.5867(2)
O2 O 0.2526(3) 0.3632(3) 0.4486(2)
O3 O 0.0226(3) 0.3741(3) 0.3928(2)
O4 O 0.1349(3) 0.4165(2) 0.6534(2)
O5 O -0.3612(3) 0.3119(3) 0.7384(2)
N1 N 0.2005(4) 0.3215(3) 0.6673(3)
N2 N -0.1251(4) 0.3879(3) 0.6553(2)
N3 N -0.2305(4) 0.3599(3) 0.6113(3)
N4 N -0.4820(3) 0.3607(3) 0.6150(2)
H1 H -0.56990 0.35060 0.63480
H2 H -0.46980 0.38260 0.56270
C1 C 0.1464(5) 0.2796(4) 0.7509(3)
H3 H 0.04780 0.30260 0.76500
H4 H 0.21290 0.29430 0.79910
C2 C 0.1457(5) 0.1720(4) 0.7304(3)
H5 H 0.24540 0.14590 0.72860
H6 H 0.08740 0.13620 0.77290
C3 C 0.0742(5) 0.1712(4) 0.6408(3)
H7 H -0.03270 0.18170 0.64710
C4 C 0.1437(4) 0.2583(4) 0.5952(3)
H8 H 0.22770 0.23630 0.55960
C5 C 0.0433(4) 0.3216(4) 0.5384(3)
H9 H -0.04800 0.28690 0.52360
C6 C -0.0174(5) 0.5057(3) 0.5550(3)
H10 H -0.10370 0.50230 0.51830
H11 H 0.06730 0.52210 0.52000
H12 H -0.03180 0.55400 0.59940
C7 C 0.0083(4) 0.4075(4) 0.5990(3)
C8 C 0.1197(5) 0.3543(4) 0.4563(3)
C9 C 0.0436(5) 0.0011(4) 0.6250(4)
H13 H -0.05450 0.01170 0.64920
H14 H 0.10850 -0.01960 0.67220
C10 C 0.0372(5) -0.0748(4) 0.5554(3)
C11 C 0.1385(6) -0.1487(4) 0.5506(4)
H15 H 0.21250 -0.15360 0.59290
C12 C 0.1317(7) -0.2158(4) 0.4836(4)
H16 H 0.20050 -0.26570 0.48150
C13 C 0.0236(6) -0.2094(4) 0.4199(4)
H17 H 0.01930 -0.25470 0.37490
C14 C -0.0770(5) -0.1361(4) 0.4233(4)
H18 H -0.15010 -0.13130 0.38050
C15 C -0.0706(5) -0.0690(4) 0.4900(4)
H19 H -0.13930 -0.01910 0.49150
C16 C -0.3656(5) 0.3423(4) 0.6650(3)
C17 C 0.0994(6) 0.5204(4) 0.3174(4)
H20 H 0.13920 0.54480 0.26330
H21 H 0.16540 0.53600 0.36480
H22 H 0.00430 0.54920 0.32810
C18 C 0.0825(5) 0.4131(4) 0.3111(3)
H23 H 0.01670 0.39740 0.26280
H24 H 0.17830 0.38410 0.29930
#END
