
#######################################################################
#
#                 Cambridge Crystallographic Data Centre
#                                CCDC
#
#######################################################################
#
# If this CIF has been generated from an entry in the Cambridge
# Structural Database, then it will include bibliographic, chemical,
# crystal, experimental, refinement or atomic coordinate data resulting
# from the CCDC's data processing and validation procedures.
#
#######################################################################

data_CSD_CIF_DOSVOY
_audit_creation_date 2014-09-30
_audit_creation_method CSD-ConQuest-V1
_database_code_CSD DOSVOY
_database_code_depnum_ccdc_archive 'CCDC 1024204'
_chemical_formula_sum 'C12 H8 N2 O2'
_chemical_formula_moiety
;
C12 H8 N2 O2
;
_journal_coeditor_code "IUCr ky3061"
_journal_coden_Cambridge 1777
_journal_volume 70
_journal_year 2014
_journal_page_first 987
_journal_name_full 'Acta Crystallogr.,Sect.C:Cryst.Struct.Chem. '
loop_
_publ_author_name
"K.Gajda"
"B.Zarychta"
"K.Kopka"
"Z.Daszkiewicz"
"K.Ejsmont"
_chemical_name_systematic
;
9-nitro-9H-carbazole
;
_cell_volume   1855.447
_exptl_crystal_colour 'yellow'
_exptl_crystal_density_diffrn 1.519
_exptl_special_details
;
recrytalization from ethanol

;
_exptl_crystal_description 'plate'
_diffrn_ambient_temperature 100
#These two values have been output from a single CSD field.
_refine_ls_R_factor_gt 0.034
_refine_ls_wR_factor_gt 0.034
_symmetry_cell_setting orthorhombic
_symmetry_space_group_name_H-M 'P b c a'
_symmetry_Int_Tables_number 61
loop_
_symmetry_equiv_pos_site_id
_symmetry_equiv_pos_as_xyz
1 x,y,z
2 1/2-x,-y,1/2+z
3 -x,1/2+y,1/2-z
4 1/2+x,1/2-y,-z
5 -x,-y,-z
6 -1/2+x,y,-1/2-z
7 x,-1/2-y,-1/2+z
8 -1/2-x,-1/2+y,z
_cell_length_a 14.7742(7)
_cell_length_b 7.2681(3)
_cell_length_c 17.2792(8)
_cell_angle_alpha 90
_cell_angle_beta 90
_cell_angle_gamma 90
_cell_formula_units_Z 8
loop_
_atom_type_symbol
_atom_type_radius_bond
C 0.68
H 0.23
N 0.68
O 0.68
loop_
_atom_site_label
_atom_site_type_symbol
_atom_site_fract_x
_atom_site_fract_y
_atom_site_fract_z
C1 C 0.20019(12) 0.2788(2) 0.69948(10)
H1 H 0.24320 0.31450 0.73580
C2 C 0.10767(12) 0.2906(2) 0.71459(10)
H2 H 0.08850 0.33360 0.76250
C3 C 0.04371(11) 0.2400(2) 0.66019(11)
H3 H -0.01750 0.24930 0.67210
C4 C 0.06968(11) 0.1759(2) 0.58872(10)
H4 H 0.02650 0.14350 0.55200
C5 C 0.16127(11) 0.1604(2) 0.57218(9)
C6 C 0.20890(11) 0.0991(2) 0.50338(9)
C7 C 0.17843(11) 0.0336(2) 0.43260(9)
H5 H 0.11670 0.02490 0.42250
C8 C 0.24072(11) -0.0183(2) 0.3775(1)
H6 H 0.22100 -0.06230 0.32990
C9 C 0.33310(12) -0.0052(2) 0.39268(10)
H7 H 0.37400 -0.04180 0.35480
C10 C 0.36570(11) 0.0606(2) 0.46245(10)
H8 H 0.42750 0.06920 0.47220
C11 C 0.30204(11) 0.1130(2) 0.51729(9)
N1 N 0.31168(9) 0.18282(18) 0.59387(8)
C12 C 0.2246(1) 0.2116(2) 0.62784(10)
N2 N 0.39241(10) 0.22425(19) 0.62893(9)
O1 O 0.46097(7) 0.21016(17) 0.58992(8)
O2 O 0.38957(9) 0.27288(18) 0.69655(7)
#END
