
#######################################################################
#
#                 Cambridge Crystallographic Data Centre
#                                CCDC
#
#######################################################################
#
# If this CIF has been generated from an entry in the Cambridge
# Structural Database, then it will include bibliographic, chemical,
# crystal, experimental, refinement or atomic coordinate data resulting
# from the CCDC's data processing and validation procedures.
#
#######################################################################

data_CSD_CIF_DOTJUR
_audit_creation_date 1987-04-28
_audit_creation_method CSD-ConQuest-V1
_database_code_CSD DOTJUR
_chemical_formula_sum 'C15 H27 N1 O1'
_chemical_formula_moiety
;
C15 H27 N1 O1
;
_journal_coden_Cambridge 35
_journal_volume 51
_journal_year 1986
_journal_page_first 2416
_journal_name_full 'J.Org.Chem. '
loop_
_publ_author_name
"H.O.House"
"G.S.Nomura"
"D.VanDerveer"
_chemical_name_systematic
;
6-anti-t-Butyl-cis-10-methyl-perhydroazulen-4-one oxime
;
_chemical_melting_point 424.15
_cell_volume   1469.609
_exptl_crystal_colour 'colorless'
_exptl_crystal_density_diffrn 1.072
_exptl_special_details
;
Melting point range 424.15-425.15K

;
_diffrn_ambient_temperature ?
_diffrn_special_details
;
The study was carried out at room temperature,in the range 283-303K

;
#These two values have been output from a single CSD field.
_refine_ls_R_factor_gt 0.089
_refine_ls_wR_factor_gt 0.089
_symmetry_cell_setting monoclinic
_symmetry_space_group_name_H-M 'P 21/n'
_symmetry_Int_Tables_number 14
loop_
_symmetry_equiv_pos_site_id
_symmetry_equiv_pos_as_xyz
1 x,y,z
2 1/2-x,1/2+y,1/2-z
3 -x,-y,-z
4 -1/2+x,-1/2-y,-1/2+z
_cell_length_a 6.585(3)
_cell_length_b 15.731(7)
_cell_length_c 14.193(6)
_cell_angle_alpha 90
_cell_angle_beta 91.67(3)
_cell_angle_gamma 90
_cell_formula_units_Z 4
loop_
_atom_type_symbol
_atom_type_radius_bond
C 0.68
H 0.23
N 0.68
O 0.68
loop_
_atom_site_label
_atom_site_type_symbol
_atom_site_fract_x
_atom_site_fract_y
_atom_site_fract_z
C1 C 0.983(2) 0.1899(6) 0.3789(8)
C2 C 0.999(2) 0.1731(6) 0.4849(8)
C3 C 0.936(1) 0.2576(6) 0.5249(6)
C4 C 0.793(1) 0.3853(6) 0.4370(6)
C5 C 0.978(1) 0.4155(5) 0.3854(6)
C6 C 0.927(1) 0.4260(5) 0.2800(6)
C7 C 0.903(1) 0.3394(6) 0.2321(7)
C8 C 0.737(2) 0.2831(6) 0.2715(6)
C9 C 0.780(1) 0.2381(5) 0.3663(7)
C10 C 0.762(1) 0.2917(5) 0.4592(7)
C11 C 0.556(1) 0.2770(6) 0.5023(8)
C12 C 1.083(1) 0.4859(6) 0.2307(6)
C13 C 1.081(2) 0.5741(6) 0.2780(8)
C14 C 1.019(2) 0.4960(7) 0.1271(7)
C15 C 1.299(1) 0.4494(6) 0.2384(8)
O1 O 0.6923(8) 0.5236(4) 0.4383(4)
N1 N 0.655(1) 0.4373(5) 0.4631(5)
H1 H 0.95430 0.13530 0.33490
H2 H 1.06360 0.25290 0.34010
H3 H 0.90590 0.11790 0.50050
H4 H 1.146(2) 0.1558(6) 0.5151(8)
H5 H 0.882(1) 0.2492(6) 0.5955(6)
H6 H 1.063(1) 0.3013(6) 0.5264(6)
H7 H 1.01350 0.46320 0.42700
H8 H 1.10270 0.36410 0.40220
H9 H 0.77470 0.44570 0.27700
H10 H 1.05480 0.30190 0.24510
H11 H 0.863(1) 0.3526(6) 0.1592(7)
H12 H 0.72090 0.22570 0.22320
H13 H 0.56640 0.29240 0.28590
H14 H 0.66550 0.18150 0.37750
H15 H 0.531(1) 0.3244(6) 0.5559(8)
H16 H 0.552(1) 0.2145(6) 0.5336(8)
H17 H 0.438(1) 0.2819(6) 0.4481(8)
H18 H 1.126(2) 0.5680(6) 0.3514(8)
H19 H 0.929(2) 0.6004(6) 0.2723(8)
H20 H 1.185(2) 0.6158(6) 0.2432(8)
H21 H 1.020(2) 0.4346(7) 0.0930(7)
H22 H 1.124(2) 0.5380(7) 0.0929(7)
H23 H 0.868(2) 0.5226(7) 0.1220(7)
H24 H 1.343(1) 0.4424(6) 0.3118(8)
H25 H 1.403(1) 0.4921(6) 0.2046(8)
H26 H 1.302(1) 0.3881(6) 0.2042(8)
H27 H 0.72720 0.58090 0.47650
#END
