
#######################################################################
#
#                 Cambridge Crystallographic Data Centre
#                                CCDC
#
#######################################################################
#
# If this CIF has been generated from an entry in the Cambridge
# Structural Database, then it will include bibliographic, chemical,
# crystal, experimental, refinement or atomic coordinate data resulting
# from the CCDC's data processing and validation procedures.
#
#######################################################################

data_CSD_CIF_DOTKAY
_audit_creation_date 1987-04-28
_audit_creation_method CSD-ConQuest-V1
_database_code_CSD DOTKAY
_chemical_formula_sum 'C14 H25 N1 O1'
_chemical_formula_moiety
;
C14 H25 N1 O1
;
_journal_coden_Cambridge 35
_journal_volume 51
_journal_year 1986
_journal_page_first 2416
_journal_name_full 'J.Org.Chem. '
loop_
_publ_author_name
"H.O.House"
"G.S.Nomura"
"D.VanDerveer"
_chemical_name_systematic
;
6-syn-t-Butyl-perhydroazulen-cis-4-one oxime
;
_chemical_melting_point 445.15
_cell_volume   1389.889
_exptl_crystal_density_diffrn 1.066
_exptl_special_details
;
Melting point range 445.15-446.15K
H34 removed

;
_diffrn_ambient_temperature ?
_diffrn_special_details
;
The study was carried out at room temperature,in the range 283-303K

;
#These two values have been output from a single CSD field.
_refine_ls_R_factor_gt 0.091
_refine_ls_wR_factor_gt 0.091
_symmetry_cell_setting monoclinic
_symmetry_space_group_name_H-M 'P 21/c'
_symmetry_Int_Tables_number 14
loop_
_symmetry_equiv_pos_site_id
_symmetry_equiv_pos_as_xyz
1 x,y,z
2 -x,1/2+y,1/2-z
3 -x,-y,-z
4 x,-1/2-y,-1/2+z
_cell_length_a 11.318(4)
_cell_length_b 10.509(4)
_cell_length_c 12.350(4)
_cell_angle_alpha 90
_cell_angle_beta 108.88(3)
_cell_angle_gamma 90
_cell_formula_units_Z 4
loop_
_atom_type_symbol
_atom_type_radius_bond
C 0.68
H 0.23
N 0.68
O 0.68
loop_
_atom_site_label
_atom_site_type_symbol
_atom_site_fract_x
_atom_site_fract_y
_atom_site_fract_z
C1 C 0.2363(5) 0.2893(9) 0.4383(6)
C2 C 0.3093(6) 0.3070(9) 0.3611(6)
C3 C 0.2180(5) 0.3433(8) 0.2486(5)
C4 C -0.0203(5) 0.3217(5) 0.1611(4)
C5 C -0.1424(5) 0.2706(4) 0.1647(4)
C6 C -0.1981(4) 0.3570(4) 0.2361(4)
C7 C -0.1223(5) 0.3482(5) 0.3631(4)
C8 C 0.0187(5) 0.3752(6) 0.3964(4)
C9 C 0.0980(5) 0.2731(5) 0.3687(4)
C10 C 0.0990(5) 0.2737(5) 0.2436(4)
C11 C -0.3395(5) 0.3355(5) 0.2116(5)
C12 C -0.4084(5) 0.3671(8) 0.0852(7)
C13 C -0.3683(6) 0.1988(7) 0.2356(9)
C14 C -0.3884(6) 0.4265(7) 0.2847(9)
N1 N -0.0117(4) 0.4076(4) 0.0897(3)
O1 O -0.1287(3) 0.4473(3) 0.0141(3)
H1 H 0.26100 0.32380 0.52690
H2 H 0.2817(5) 0.2054(9) 0.4833(6)
H3 H 0.39830 0.32040 0.36710
H4 H 0.3718(6) 0.2340(9) 0.4089(6)
H5 H 0.25360 0.35740 0.18450
H6 H 0.1866(5) 0.4407(8) 0.2334(5)
H7 H -0.12490 0.16980 0.19940
H8 H -0.18530 0.26550 0.06910
H9 H -0.17330 0.46010 0.21240
H10 H -0.15250 0.41410 0.41040
H11 H -0.13950 0.24240 0.38480
H12 H 0.05460 0.41580 0.48060
H13 H 0.00730 0.48280 0.35920
H14 H 0.07990 0.17690 0.40450
H15 H 0.11880 0.17260 0.22160
H16 H -0.49720 0.36390 0.05510
H17 H -0.36890 0.45530 0.06440
H18 H -0.46040 0.18270 0.21190
H19 H -0.32760 0.18410 0.33260
H20 H -0.3288(6) 0.1349(7) 0.1880(9)
H21 H -0.49540 0.41210 0.25580
H22 H -0.34110 0.51410 0.26870
H23 H -0.3692(6) 0.4191(7) 0.3760(9)
H24 H -0.10320 0.52220 -0.04420
#END
