
#######################################################################
#
#                 Cambridge Crystallographic Data Centre
#                                CCDC
#
#######################################################################
#
# If this CIF has been generated from an entry in the Cambridge
# Structural Database, then it will include bibliographic, chemical,
# crystal, experimental, refinement or atomic coordinate data resulting
# from the CCDC's data processing and validation procedures.
#
#######################################################################

data_CSD_CIF_DOTTOV
_audit_creation_date 1987-04-28
_audit_creation_method CSD-ConQuest-V1
_database_code_CSD DOTTOV
_database_code_depnum_ccdc_archive 'CCDC 1144595'
_chemical_formula_sum 'C23 H26 N2 O5'
_chemical_formula_moiety
;
C23 H26 N2 O5
;
_journal_coeditor_code "IUCr A25893"
_journal_coden_Cambridge 591
_journal_volume 42
_journal_year 1986
_journal_page_first 884
_journal_name_full 'Acta Crystallogr.,Sect.C:Cryst.Struct.Commun. '
loop_
_publ_author_name
"C.K.Schauer"
"O.P.Anderson"
"N.R.Natale"
"D.A.Quincy"
_chemical_name_systematic
;
Diethyl 
2,6-dimethyl-4-(5-methyl-3-phenylisoxazol-4-yl)-1,4-dihydropyridine-3,5-dicarb
oxylate
;
_cell_volume   4231.094
_exptl_crystal_density_diffrn 1.29
_exptl_special_details
;
calcium antagonist activity

;
_diffrn_ambient_temperature 140
#These two values have been output from a single CSD field.
_refine_ls_R_factor_gt 0.052
_refine_ls_wR_factor_gt 0.052
_symmetry_cell_setting orthorhombic
_symmetry_space_group_name_H-M 'P b c a'
_symmetry_Int_Tables_number 61
loop_
_symmetry_equiv_pos_site_id
_symmetry_equiv_pos_as_xyz
1 x,y,z
2 1/2-x,-y,1/2+z
3 1/2+x,1/2-y,-z
4 -x,1/2+y,1/2-z
5 -x,-y,-z
6 -1/2+x,y,-1/2-z
7 -1/2-x,-1/2+y,z
8 x,-1/2-y,-1/2+z
_cell_length_a 8.828(3)
_cell_length_b 17.181(5)
_cell_length_c 27.896(7)
_cell_angle_alpha 90
_cell_angle_beta 90
_cell_angle_gamma 90
_cell_formula_units_Z 8
loop_
_atom_type_symbol
_atom_type_radius_bond
C 0.68
H 0.23
N 0.68
O 0.68
loop_
_atom_site_label
_atom_site_type_symbol
_atom_site_fract_x
_atom_site_fract_y
_atom_site_fract_z
C1 C 0.9233(3) 0.4226(1) 0.1699(1)
C2 C 0.9847(3) 0.3503(1) 0.1671(1)
C3 C 0.9719(3) 0.3013(1) 0.1216(1)
C4 C 0.9321(3) 0.3526(1) 0.0786(1)
C5 C 0.8745(3) 0.4249(1) 0.0844(1)
C6 C 0.9177(3) 0.4740(1) 0.2132(1)
C7 C 0.8193(3) 0.4794(2) 0.0461(1)
C8 C 1.0634(3) 0.3184(1) 0.2087(1)
C9 C 1.2244(3) 0.2193(2) 0.2380(1)
C10 C 1.3128(3) 0.1516(2) 0.2201(1)
C11 C 0.9494(3) 0.3198(1) 0.0305(1)
C12 C 1.0132(4) 0.2047(2) -0.0129(1)
C13 C 0.8859(5) 0.1536(3) -0.0202(2)
C14 C 0.8567(3) 0.2364(1) 0.1282(1)
C15 C 0.7050(3) 0.2465(1) 0.1340(1)
C16 C 0.8759(3) 0.1536(1) 0.1315(1)
C17 C 1.0105(3) 0.1023(1) 0.1294(1)
C18 C 1.0086(3) 0.0332(1) 0.1561(1)
C19 C 1.1258(3) -0.0194(1) 0.1522(1)
C20 C 1.2467(3) -0.0050(2) 0.1223(1)
C21 C 1.2518(3) 0.0643(2) 0.0968(1)
C22 C 1.1354(3) 0.1175(1) 0.1005(1)
C23 C 0.6023(3) 0.3146(1) 0.1374(1)
N1 N 0.8622(2) 0.4561(1) 0.1296(1)
N2 N 0.7457(2) 0.1183(1) 0.1378(1)
O1 O 1.0686(3) 0.3462(1) 0.2485(1)
O2 O 1.1376(2) 0.2517(1) 0.1984(1)
O3 O 0.9265(3) 0.3515(1) -0.0069(1)
O4 O 0.9997(3) 0.2465(1) 0.0318(1)
O5 O 0.6354(2) 0.1766(1) 0.1393(1)
H1 H 1.06830 0.27760 0.11530
H2 H 1.01570 0.48130 0.22740
H3 H 0.85010 0.45190 0.23640
H4 H 0.87880 0.52320 0.20260
H5 H 0.78590 0.45140 0.01830
H6 H 0.90000 0.51410 0.03740
H7 H 0.73640 0.50890 0.05900
H8 H 1.29220 0.25810 0.25040
H9 H 1.15680 0.20270 0.26290
H10 H 1.37010 0.12980 0.24610
H11 H 1.38080 0.16930 0.19560
H12 H 1.24640 0.11270 0.20720
H13 H 1.10460 0.17440 -0.01240
H14 H 1.01760 0.24150 -0.03880
H15 H 0.90640 0.12030 -0.04700
H16 H 0.80300 0.18760 -0.02780
H17 H 0.85990 0.12240 0.00720
H18 H 0.92510 0.02250 0.17710
H19 H 1.12320 -0.06660 0.17070
H20 H 1.32670 -0.04250 0.11910
H21 H 1.33680 0.07520 0.07640
H22 H 1.14060 0.16550 0.08290
H23 H 0.62790 0.35000 0.11200
H24 H 0.61720 0.33980 0.16780
H25 H 0.49820 0.29930 0.13430
H26 H 0.8248(29) 0.5033(15) 0.1337(9)
#END
