
#######################################################################
#
#                 Cambridge Crystallographic Data Centre
#                                CCDC
#
#######################################################################
#
# If this CIF has been generated from an entry in the Cambridge
# Structural Database, then it will include bibliographic, chemical,
# crystal, experimental, refinement or atomic coordinate data resulting
# from the CCDC's data processing and validation procedures.
#
#######################################################################

data_CSD_CIF_DOTVIS
_audit_creation_date 2009-07-13
_audit_creation_method CSD-ConQuest-V1
_database_code_CSD DOTVIS
_database_code_depnum_ccdc_archive 'CCDC 704978'
_chemical_formula_sum 'C18 H18 N2 O5'
_chemical_formula_moiety
;
C18 H18 N2 O5
;
_journal_coden_Cambridge 179
_journal_volume 48
_journal_year 2009
_journal_page_first 1279
_journal_name_full 'Angew.Chem.,Int.Ed. '
loop_
_publ_author_name
"Cheng Zhong"
"Yunfeng Chen"
"J.L.Petersen"
"N.G.Akhmedov"
"Xiaodong Shi"
_chemical_name_systematic
;
trans-4-Nitro-3-(4-nitrophenyl)-5-phenyl-5-hexen-1-ol
;
_cell_volume   1720.114
_exptl_crystal_colour 'colorless'
_exptl_crystal_density_diffrn 1.322
_diffrn_ambient_temperature 293
#These two values have been output from a single CSD field.
_refine_ls_R_factor_gt 0.0422
_refine_ls_wR_factor_gt 0.0422
loop_
_citation_database_id_CSD
_citation_special_details
DOSFEX "is a stereoisomer of this entry"
_symmetry_cell_setting orthorhombic
_symmetry_space_group_name_H-M 'P c a 21'
_symmetry_Int_Tables_number 29
loop_
_symmetry_equiv_pos_site_id
_symmetry_equiv_pos_as_xyz
1 x,y,z
2 -x,-y,1/2+z
3 1/2+x,-y,z
4 1/2-x,y,1/2+z
_cell_length_a 19.0583(14)
_cell_length_b 7.2883(6)
_cell_length_c 12.3836(9)
_cell_angle_alpha 90
_cell_angle_beta 90
_cell_angle_gamma 90
_cell_formula_units_Z 4
loop_
_atom_type_symbol
_atom_type_radius_bond
C 0.68
H 0.23
N 0.68
O 0.68
loop_
_atom_site_label
_atom_site_type_symbol
_atom_site_fract_x
_atom_site_fract_y
_atom_site_fract_z
O1 O 0.74868(15) 0.5890(3) 0.59414(16)
O2 O 0.79623(11) 0.6226(3) 0.43830(18)
O3 O 1.04573(12) 0.0899(4) 0.68579(18)
O4 O 1.09421(10) 0.1037(4) 0.5299(2)
O5 O 0.79804(9) 0.0725(3) 0.18876(12)
H1 H 0.82610 0.01920 0.14950
N1 N 0.75949(11) 0.5392(3) 0.50183(16)
N2 N 1.04317(12) 0.1116(3) 0.5885(2)
C1 C 0.65600(11) 0.4201(3) 0.40746(17)
C2 C 0.72383(10) 0.3629(3) 0.46435(16)
H2 H 0.71180 0.28940 0.52790
C3 C 0.77429(10) 0.2525(3) 0.39344(16)
H3 H 0.78280 0.32350 0.32750
C4 C 0.73982(12) 0.0703(3) 0.36015(19)
H4 H 0.73200 -0.00340 0.42420
H5 H 0.69450 0.09590 0.32800
C5 C 0.78343(13) -0.0383(4) 0.28099(19)
H6 H 0.82700 -0.07600 0.31480
H7 H 0.75820 -0.14770 0.25910
C6 C 0.65861(13) 0.5003(5) 0.3127(2)
H8 H 0.61740 0.53610 0.27850
H9 H 0.70170 0.52120 0.27970
C7 C 0.58827(11) 0.3845(3) 0.46250(19)
C8 C 0.57942(13) 0.4155(4) 0.57306(18)
H10 H 0.61740 0.45130 0.61510
C9 C 0.51396(14) 0.3928(4) 0.6200(2)
H11 H 0.50830 0.41560 0.69340
C10 C 0.45741(15) 0.3374(4) 0.5600(2)
H12 H 0.41360 0.32450 0.59220
C11 C 0.46585(14) 0.3011(4) 0.4520(2)
H13 H 0.42790 0.26040 0.41130
C12 C 0.53063(13) 0.3247(4) 0.4037(2)
H14 H 0.53570 0.30010 0.33040
C13 C 0.84509(11) 0.2192(3) 0.44776(16)
C14 C 0.90604(11) 0.2366(4) 0.38779(18)
H15 H 0.90310 0.27260 0.31590
C15 C 0.97114(12) 0.2017(4) 0.4326(2)
H16 H 1.01180 0.21270 0.39160
C16 C 0.97423(12) 0.1504(3) 0.5390(2)
C17 C 0.91511(13) 0.1313(4) 0.60116(19)
H17 H 0.91860 0.09620 0.67320
C18 C 0.85007(12) 0.1650(4) 0.55497(17)
H18 H 0.80960 0.15120 0.59610
#END
