
#######################################################################
#
#                 Cambridge Crystallographic Data Centre
#                                CCDC
#
#######################################################################
#
# If this CIF has been generated from an entry in the Cambridge
# Structural Database, then it will include bibliographic, chemical,
# crystal, experimental, refinement or atomic coordinate data resulting
# from the CCDC's data processing and validation procedures.
#
#######################################################################

data_CSD_CIF_DOVCAT
_audit_creation_date 2009-10-09
_audit_creation_method CSD-ConQuest-V1
_database_code_CSD DOVCAT
_database_code_depnum_ccdc_archive 'CCDC 716971'
_chemical_formula_sum 'C2 H2 N6 O1'
_chemical_formula_moiety
;
C2 H2 N6 O1
;
_journal_coden_Cambridge 577
_journal_volume 15
_journal_year 2007
_journal_page_first 710
_journal_name_full 'Hecheng Huaxue(Chin.)(Chin.J.Synth.Chem.) '
loop_
_publ_author_name
"Hong-zhen Li"
"Ming Huang"
"Jin-shan Li"
"Bi-bo Cheng"
"Xiao-qing Zhou"
_chemical_name_systematic
;
4-Azido-1,2,5-oxadiazol-3-amine
;
_cell_volume    504.573
_exptl_crystal_density_diffrn 1.66
_diffrn_ambient_temperature 291
#These two values have been output from a single CSD field.
_refine_ls_R_factor_gt 0.0768
_refine_ls_wR_factor_gt 0.0768
_symmetry_cell_setting monoclinic
_symmetry_space_group_name_H-M 'P 21/c'
_symmetry_Int_Tables_number 14
loop_
_symmetry_equiv_pos_site_id
_symmetry_equiv_pos_as_xyz
1 x,y,z
2 -x,1/2+y,1/2-z
3 -x,-y,-z
4 x,-1/2-y,-1/2+z
_cell_length_a 5.3288(16)
_cell_length_b 10.722(3)
_cell_length_c 8.942(2)
_cell_angle_alpha 90
_cell_angle_beta 99.03(2)
_cell_angle_gamma 90
_cell_formula_units_Z 4
loop_
_atom_type_symbol
_atom_type_radius_bond
C 0.68
H 0.23
N 0.68
O 0.68
loop_
_atom_site_label
_atom_site_type_symbol
_atom_site_fract_x
_atom_site_fract_y
_atom_site_fract_z
O1 O 0.3272(7) 0.7326(3) 0.4148(4)
N1 N 0.1882(8) 0.4198(3) 0.3371(5)
N2 N 0.1945(7) 0.6232(3) 0.4385(4)
N3 N 0.4890(7) 0.7099(3) 0.3130(4)
N4 N 0.5810(7) 0.5270(3) 0.1757(4)
N5 N 0.7406(6) 0.5860(3) 0.1170(3)
N6 N 0.8929(8) 0.6254(3) 0.0546(5)
C1 C 0.2747(8) 0.5385(3) 0.3530(4)
C2 C 0.4619(7) 0.5929(3) 0.2752(4)
H1 H 0.287(12) 0.377(5) 0.271(7)
H2 H 0.076(9) 0.393(4) 0.397(5)
#END
