
#######################################################################
#
#                 Cambridge Crystallographic Data Centre
#                                CCDC
#
#######################################################################
#
# If this CIF has been generated from an entry in the Cambridge
# Structural Database, then it will include bibliographic, chemical,
# crystal, experimental, refinement or atomic coordinate data resulting
# from the CCDC's data processing and validation procedures.
#
#######################################################################

data_CSD_CIF_DOVCIB
_audit_creation_date 2009-10-09
_audit_creation_method CSD-ConQuest-V1
_database_code_CSD DOVCIB
_database_code_depnum_ccdc_archive 'CCDC 600943'
_chemical_formula_sum 'C24 H19 N3 O6'
_chemical_formula_moiety
;
C24 H19 N3 O6
;
_journal_coden_Cambridge 1122
_journal_volume 25
_journal_year 2007
_journal_page_first 1044
_journal_name_full 'Chin.J.Chem. '
loop_
_publ_author_name
"Li-Qiong Wang"
"Yan-Hong Liu"
"Jian-Guo Zhang"
"Tong-Lai Zhang"
"Li Yang"
"Xiao-Jing Qiao"
"Xiao-Chun Hu"
"Jin-Yu Guo"
_chemical_name_systematic
;
2,4-bis(2-(4-methylphenyl)vinyl)-1,3,5-trinitrobenzene
;
_chemical_melting_point 431.55
_cell_volume   1084.771
_exptl_crystal_colour 'orange'
_exptl_crystal_density_diffrn 1.364
_exptl_crystal_description 'block'
_exptl_crystal_preparation 'acetone'
_diffrn_ambient_temperature 293
#These two values have been output from a single CSD field.
_refine_ls_R_factor_gt 0.0415
_refine_ls_wR_factor_gt 0.0415
_symmetry_cell_setting triclinic
_symmetry_space_group_name_H-M 'P -1'
_symmetry_Int_Tables_number 2
loop_
_symmetry_equiv_pos_site_id
_symmetry_equiv_pos_as_xyz
1 x,y,z
2 -x,-y,-z
_cell_length_a 9.328(1)
_cell_length_b 11.1953(12)
_cell_length_c 12.3666(14)
_cell_angle_alpha 116.108(1)
_cell_angle_beta 95.146(2)
_cell_angle_gamma 105.523(1)
_cell_formula_units_Z 2
loop_
_atom_type_symbol
_atom_type_radius_bond
C 0.68
H 0.23
N 0.68
O 0.68
loop_
_atom_site_label
_atom_site_type_symbol
_atom_site_fract_x
_atom_site_fract_y
_atom_site_fract_z
O1 O 0.67829(15) 0.55366(16) 0.71962(12)
O2 O 0.70939(16) 0.44715(16) 0.82507(14)
O3 O 0.39955(16) 0.82163(16) 1.11533(13)
O4 O 0.55559(17) 0.8814(2) 1.28236(13)
O5 O 1.07756(15) 1.06402(15) 1.28717(13)
O6 O 1.15101(14) 1.01590(14) 1.11762(13)
N1 N 0.70495(16) 0.55050(19) 0.81598(15)
N2 N 0.52299(18) 0.83814(16) 1.17236(15)
N3 N 1.05693(17) 0.99536(16) 1.17513(15)
C1 C 1.2926(2) 0.7966(2) 0.82416(17)
H1 H 1.31340 0.83770 0.91020
C2 C 1.4120(2) 0.7995(2) 0.76665(18)
H2 H 1.51220 0.84420 0.81470
C3 C 1.3866(2) 0.7375(2) 0.63925(19)
C4 C 1.5181(2) 0.7397(3) 0.5760(2)
H3 H 1.60780 0.81830 0.63240
H4 H 1.49130 0.74910 0.50410
H5 H 1.53880 0.65300 0.55140
C5 C 1.2368(2) 0.6758(2) 0.57130(18)
H6 H 1.21650 0.63380 0.48530
C6 C 1.1162(2) 0.6751(2) 0.62839(17)
H7 H 1.01640 0.63480 0.58020
C7 C 1.14117(19) 0.73317(18) 0.75578(16)
C8 C 1.01036(19) 0.73271(17) 0.81266(16)
H8 H 0.91770 0.71520 0.76350
C9 C 1.01014(19) 0.75459(17) 0.92662(16)
H9 H 1.09710 0.75790 0.97250
C10 C 0.88246(18) 0.77424(17) 0.98676(15)
C11 C 0.73165(18) 0.68073(17) 0.93382(14)
C12 C 0.60528(18) 0.69212(17) 0.98634(15)
C13 C 0.64223(18) 0.80885(18) 1.10489(15)
C14 C 0.78839(18) 0.90294(18) 1.16586(15)
H10 H 0.80830 0.97680 1.24610
C15 C 0.90443(18) 0.88593(17) 1.10627(15)
C16 C 0.44984(19) 0.58705(18) 0.93022(16)
H11 H 0.39430 0.57430 0.98550
C17 C 0.3788(2) 0.5086(2) 0.81219(18)
H12 H 0.43350 0.51900 0.75570
C18 C 0.22191(19) 0.40623(19) 0.76059(16)
C19 C 0.1775(2) 0.3072(3) 0.63665(18)
H13 H 0.24760 0.30670 0.58770
C20 C 0.0322(2) 0.2094(3) 0.58375(19)
H14 H 0.00620 0.14330 0.49990
C21 C -0.0761(2) 0.2067(2) 0.65210(18)
C22 C -0.2369(2) 0.1015(3) 0.5922(2)
H15 H -0.27550 0.07350 0.65000
H16 H -0.23600 0.01980 0.51990
H17 H -0.30140 0.14420 0.56870
C23 C -0.0327(2) 0.3054(2) 0.77609(18)
H18 H -0.10350 0.30610 0.82450
C24 C 0.1138(2) 0.40329(19) 0.82999(17)
H19 H 0.14030 0.46820 0.91420
#END
