
#######################################################################
#
#                 Cambridge Crystallographic Data Centre
#                                CCDC
#
#######################################################################
#
# If this CIF has been generated from an entry in the Cambridge
# Structural Database, then it will include bibliographic, chemical,
# crystal, experimental, refinement or atomic coordinate data resulting
# from the CCDC's data processing and validation procedures.
#
#######################################################################

data_CSD_CIF_DOVGUR
_audit_creation_date 2009-10-09
_audit_creation_method CSD-ConQuest-V1
_database_code_CSD DOVGUR
_database_code_depnum_ccdc_archive 'CCDC 704059'
_chemical_formula_sum 'C18 H21 N1 O5'
_chemical_formula_moiety
;
C18 H21 N1 O5
;
_journal_coden_Cambridge 177
_journal_volume 7
_journal_year 2009
_journal_page_first 747
_journal_name_full 'Org.Biomol.Chem. '
loop_
_publ_author_name
"A.C.Evans"
"D.A.Longbottom"
"M.Matsuoka"
"J.E.Davies"
"R.Turner"
"V.Franckevicius"
"S.V.Ley"
_chemical_name_systematic
;
2-(3a,9b-Dihydro-3H-chromeno[4,3-c]isoxazol-1(4H)-ylcarbonyl)cyclohexanecarbox
ylic acid
;
_chemical_name_common
;
(+)-(1S,2R)-2-((3aR,9bS)-3,3a,4,9b-tetrahydro-1H-chromeno[4,3-c]isoxazole-1-yl
carbonyl)cyclohexanecarboxylic acid
;
_chemical_melting_point 424.15
_cell_volume    828.115
_exptl_crystal_colour 'colorless'
_exptl_crystal_density_diffrn 1.329
_exptl_special_details
;
Melting point range 424.15-425.15K

;
_exptl_crystal_description 'block'
_diffrn_ambient_temperature 180
#These two values have been output from a single CSD field.
_refine_ls_R_factor_gt 0.0385
_refine_ls_wR_factor_gt 0.0385
_symmetry_cell_setting monoclinic
_symmetry_space_group_name_H-M 'P 21'
_symmetry_Int_Tables_number 4
loop_
_symmetry_equiv_pos_site_id
_symmetry_equiv_pos_as_xyz
1 x,y,z
2 -x,1/2+y,-z
_cell_length_a 9.0302(3)
_cell_length_b 8.0096(3)
_cell_length_c 12.1640(4)
_cell_angle_alpha 90
_cell_angle_beta 109.737(1)
_cell_angle_gamma 90
_cell_formula_units_Z 2
loop_
_atom_type_symbol
_atom_type_radius_bond
C 0.68
H 0.23
N 0.68
O 0.68
loop_
_atom_site_label
_atom_site_type_symbol
_atom_site_fract_x
_atom_site_fract_y
_atom_site_fract_z
O1 O 1.3058(2) 0.6255(3) 0.57244(16)
O2 O 0.87076(18) 0.5450(2) 0.31164(14)
O3 O 1.03462(17) 0.3445(2) 0.12564(14)
O4 O 0.8523(3) 0.4336(3) -0.16511(17)
O5 O 0.8057(2) 0.6231(2) -0.04612(18)
H1 H 0.861(3) 0.691(4) -0.086(3)
N1 N 0.9799(2) 0.4483(3) 0.27792(16)
C1 C 1.3206(3) 0.4614(4) 0.5447(2)
C2 C 1.4242(3) 0.3599(5) 0.6297(2)
H2 H 1.48570 0.40590 0.70290
C3 C 1.4371(3) 0.1937(5) 0.6075(3)
H3 H 1.50680 0.12480 0.66580
C4 C 1.3494(3) 0.1254(4) 0.5008(3)
H4 H 1.35660 0.00960 0.48650
C5 C 1.2513(3) 0.2273(4) 0.4153(2)
H5 H 1.19340 0.18110 0.34130
C6 C 1.2357(2) 0.3971(4) 0.43582(19)
C7 C 1.1401(3) 0.5122(3) 0.33913(19)
H6 H 1.19570 0.52490 0.28110
C8 C 1.1110(3) 0.6873(3) 0.3807(2)
H7 H 1.17270 0.77370 0.35530
C9 C 1.1511(3) 0.6906(4) 0.5121(2)
H8 H 1.14490 0.80690 0.53760
H9 H 1.07250 0.62360 0.53330
C10 C 0.9353(3) 0.7115(3) 0.3184(2)
H10 H 0.89010 0.78650 0.36350
H11 H 0.91440 0.75890 0.23940
C11 C 0.9336(2) 0.3931(3) 0.16543(18)
C12 C 0.7581(2) 0.3845(3) 0.09973(18)
H12 H 0.71180 0.49590 0.10640
C13 C 0.6804(3) 0.2536(3) 0.1554(2)
H13 H 0.71310 0.27340 0.24060
H14 H 0.56460 0.26560 0.12240
C14 C 0.7260(3) 0.0775(4) 0.1333(3)
H15 H 0.84130 0.06340 0.16930
H16 H 0.67440 -0.00390 0.16990
C15 C 0.6770(3) 0.0437(4) 0.0037(3)
H17 H 0.56110 0.05220 -0.03130
H18 H 0.70770 -0.07140 -0.00900
C16 C 0.7524(3) 0.1659(3) -0.0568(3)
H19 H 0.70970 0.14690 -0.14220
H20 H 0.86730 0.14550 -0.03060
C17 C 0.7223(2) 0.3475(3) -0.03063(19)
H21 H 0.60670 0.36580 -0.06880
C18 C 0.8017(3) 0.4692(4) -0.0881(2)
#END
