
#######################################################################
#
#                 Cambridge Crystallographic Data Centre
#                                CCDC
#
#######################################################################
#
# If this CIF has been generated from an entry in the Cambridge
# Structural Database, then it will include bibliographic, chemical,
# crystal, experimental, refinement or atomic coordinate data resulting
# from the CCDC's data processing and validation procedures.
#
#######################################################################

data_CSD_CIF_DOVHAY
_audit_creation_date 2009-10-09
_audit_creation_method CSD-ConQuest-V1
_database_code_CSD DOVHAY
_database_code_depnum_ccdc_archive 'CCDC 704060'
_chemical_formula_sum 'C18 H23 N1 O5'
_chemical_formula_moiety
;
C18 H23 N1 O5
;
_journal_coden_Cambridge 177
_journal_volume 7
_journal_year 2009
_journal_page_first 747
_journal_name_full 'Org.Biomol.Chem. '
loop_
_publ_author_name
"A.C.Evans"
"D.A.Longbottom"
"M.Matsuoka"
"J.E.Davies"
"R.Turner"
"V.Franckevicius"
"S.V.Ley"
_chemical_name_systematic
;
Methyl 
5-(3a,9b-dihydro-3H-chromeno[4,3-c]isoxazol-1(4H)-yl)-2,4-dimethyl-5-oxopentan
oate
;
_chemical_name_common
;
methyl 
2,4-dimethyl-5-oxo-5-(3,3a,4,9b-tetrahydro-1H-chromeno[4,3-c]isoxazol-1-yl)pen
tanoate
;
_cell_volume    841.596
_exptl_crystal_colour 'colorless'
_exptl_crystal_density_diffrn 1.316
_diffrn_ambient_temperature 180
#These two values have been output from a single CSD field.
_refine_ls_R_factor_gt 0.042
_refine_ls_wR_factor_gt 0.042
_symmetry_cell_setting monoclinic
_symmetry_space_group_name_H-M 'P 21'
_symmetry_Int_Tables_number 4
loop_
_symmetry_equiv_pos_site_id
_symmetry_equiv_pos_as_xyz
1 x,y,z
2 -x,1/2+y,-z
_cell_length_a 7.6843(2)
_cell_length_b 10.9358(3)
_cell_length_c 10.2015(3)
_cell_angle_alpha 90
_cell_angle_beta 100.974(2)
_cell_angle_gamma 90
_cell_formula_units_Z 2
loop_
_atom_type_symbol
_atom_type_radius_bond
C 0.68
H 0.23
N 0.68
O 0.68
loop_
_atom_site_label
_atom_site_type_symbol
_atom_site_fract_x
_atom_site_fract_y
_atom_site_fract_z
O1 O 0.0897(2) 0.51919(15) 0.60784(14)
O2 O 0.1498(2) 0.66687(16) 0.91612(15)
C1 C 0.1180(2) 0.5854(2) 0.83310(18)
O3 O -0.1719(2) 0.5175(2) 1.21343(16)
C2 C 0.0416(3) 0.46104(19) 0.85821(18)
H1 H -0.05670 0.44150 0.78180
O4 O -0.4216(3) 0.5981(2) 1.09515(18)
C3 C 0.1850(3) 0.3629(2) 0.8653(3)
H2 H 0.22800 0.36110 0.78080
H3 H 0.13520 0.28290 0.88100
H4 H 0.28360 0.38190 0.93850
C4 C -0.0337(2) 0.4622(2) 0.98682(19)
H5 H -0.04600 0.37680 1.01600
H6 H 0.05150 0.50400 1.05760
C5 C -0.2134(2) 0.5258(2) 0.97160(18)
H7 H -0.20370 0.60780 0.93020
C6 C -0.3607(3) 0.4539(3) 0.8815(3)
H8 H -0.47140 0.50070 0.86910
H9 H -0.37730 0.37510 0.92320
H10 H -0.32760 0.43990 0.79460
C7 C -0.2628(3) 0.5449(2) 1.1071(2)
C8 C -0.4859(5) 0.6208(3) 1.2173(3)
H11 H -0.60930 0.64840 1.19570
H12 H -0.41290 0.68400 1.26930
H13 H -0.47890 0.54520 1.26970
N1 N 0.1688(2) 0.60056(16) 0.71117(16)
C9 C -0.0436(3) 0.5940(2) 0.5266(2)
H14 H -0.14620 0.60710 0.57080
H15 H -0.08560 0.55630 0.43810
O5 O 0.2810(2) 0.80715(18) 0.41010(16)
C10 C 0.0532(3) 0.7134(2) 0.5139(2)
H16 H -0.03210 0.78330 0.49790
C11 C 0.1621(3) 0.7064(3) 0.4047(2)
H17 H 0.23070 0.62920 0.41420
H18 H 0.08150 0.70530 0.31660
C12 C 0.4029(3) 0.8104(2) 0.5280(2)
C13 C 0.5683(3) 0.8614(2) 0.5237(3)
H19 H 0.59230 0.89460 0.44290
C14 C 0.6974(3) 0.8630(2) 0.6395(3)
H20 H 0.81030 0.89790 0.63810
C15 C 0.6618(3) 0.8136(2) 0.7574(3)
H21 H 0.75190 0.81200 0.83540
C16 C 0.4953(3) 0.7669(2) 0.7611(2)
H22 H 0.47080 0.73590 0.84270
C17 C 0.3626(3) 0.76479(19) 0.6462(2)
C18 C 0.1758(3) 0.72447(19) 0.65284(18)
H23 H 0.12290 0.78450 0.70800
#END
