
#######################################################################
#
#                 Cambridge Crystallographic Data Centre
#                                CCDC
#
#######################################################################
#
# If this CIF has been generated from an entry in the Cambridge
# Structural Database, then it will include bibliographic, chemical,
# crystal, experimental, refinement or atomic coordinate data resulting
# from the CCDC's data processing and validation procedures.
#
#######################################################################

data_CSD_CIF_DOVSEM
_audit_creation_date 1987-04-28
_audit_creation_method CSD-ConQuest-V1
_database_code_CSD DOVSEM
_database_code_depnum_ccdc_archive 'CCDC 1144678'
_chemical_formula_sum 'C21 H15 N3 O1'
_chemical_formula_moiety
;
C21 H15 N3 O1
;
_journal_coden_Cambridge 194
_journal_volume 34
_journal_year 1986
_journal_page_first 109
_journal_name_full 'Chem.Pharm.Bull. '
loop_
_publ_author_name
"A.Ohsawa"
"H.Arai"
"H.Ohnishi"
"T.Kaihoh"
"K.Yamaguchi"
"H.Igeta"
"Y.Iitaka"
_chemical_name_systematic
;
4,5,6-Triphenyl-1,2,3-triazine 2-oxide
;
_chemical_melting_point 573.15
_cell_volume   1637.545
_exptl_special_details
;
Author has supplied missing coordinates for C6

;
_diffrn_ambient_temperature ?
_diffrn_special_details
;
The study was carried out at room temperature,in the range 283-303K

;
#These two values have been output from a single CSD field.
_refine_ls_R_factor_gt 0.085
_refine_ls_wR_factor_gt 0.085
_symmetry_cell_setting monoclinic
_symmetry_space_group_name_H-M 'I 2/a'
_symmetry_Int_Tables_number 15
loop_
_symmetry_equiv_pos_site_id
_symmetry_equiv_pos_as_xyz
1 x,y,z
2 1/2-x,y,-z
3 -x,1/2+y,1/2-z
4 1/2+x,1/2+y,1/2+z
5 -x,-y,-z
6 -1/2+x,-y,z
7 x,-1/2-y,-1/2+z
8 -1/2-x,-1/2-y,-1/2-z
_cell_length_a 11.861(6)
_cell_length_b 11.954(6)
_cell_length_c 11.554(6)
_cell_angle_alpha 90
_cell_angle_beta 91.62(1)
_cell_angle_gamma 90
_cell_formula_units_Z 4
loop_
_atom_type_symbol
_atom_type_radius_bond
C 0.68
N 0.68
O 0.68
loop_
_atom_site_label
_atom_site_type_symbol
_atom_site_fract_x
_atom_site_fract_y
_atom_site_fract_z
O1 O 0.25000 -0.0861(3) 0.00000
N1 N 0.25000 0.0190(4) 0.00000
C1 C 0.25000 0.2453(5) 0.00000
C2 C 0.25000 0.3699(5) 0.00000
C3 C 0.25000 0.6023(6) 0.00000
N2 N 0.1745(3) 0.0702(3) 0.0664(3)
C4 C 0.1754(3) 0.1827(3) 0.0662(3)
C5 C 0.1558(4) 0.4280(4) -0.0443(4)
C6 C 0.1559(4) 0.5449(4) -0.0441(5)
C7 C 0.0905(3) 0.2290(3) 0.1444(5)
C8 C 0.1148(4) 0.3206(4) 0.2163(4)
C9 C 0.0349(5) 0.3554(4) 0.2959(4)
C10 C -0.0684(5) 0.2994(5) 0.3027(5)
C11 C -0.0933(4) 0.2101(5) 0.2299(5)
C12 C -0.0139(4) 0.1745(4) 0.1500(4)
N2A N 0.3255(3) 0.0702(3) -0.0664(3)
C4A C 0.3246(3) 0.1827(3) -0.0662(3)
C5A C 0.3442(4) 0.4280(4) 0.0443(4)
C6A C 0.3441(4) 0.5449(4) 0.0441(5)
C7A C 0.4095(3) 0.2290(3) -0.1444(5)
C8A C 0.3852(4) 0.3206(4) -0.2163(4)
C12A C 0.5139(4) 0.1745(4) -0.1500(4)
C9A C 0.4651(5) 0.3554(4) -0.2959(4)
C11A C 0.5933(4) 0.2101(5) -0.2299(5)
C10A C 0.5684(5) 0.2994(5) -0.3027(5)
#END
