
#######################################################################
#
#                 Cambridge Crystallographic Data Centre
#                                CCDC
#
#######################################################################
#
# If this CIF has been generated from an entry in the Cambridge
# Structural Database, then it will include bibliographic, chemical,
# crystal, experimental, refinement or atomic coordinate data resulting
# from the CCDC's data processing and validation procedures.
#
#######################################################################

data_CSD_CIF_DOVXAP
_audit_creation_date 2015-03-02
_audit_creation_method CSD-ConQuest-V1
_database_code_CSD DOVXAP
_database_code_depnum_ccdc_archive 'CCDC 1025969'
_chemical_formula_sum 'C15 H19 N2 O4'
_chemical_formula_moiety
;
C15 H19 N2 O4
;
_journal_coden_Cambridge 222
_journal_volume 44
_journal_year 2015
_journal_page_first 6118
_journal_name_full 'Dalton Trans. '
loop_
_publ_author_name
"Lei-Lei Li"
"Shuang Liu"
"Yuan Zhang"
"Wei Shi"
"Peng Cheng"
_chemical_name_systematic
;
(2-(4-(methoxycarbonyl)phenyl)-4,4,5,5-tetramethyl-3-oxido-4,5-dihydro-1H-imid
azol-1-yl)oxidanyl radical
;
_cell_volume   1486.873
_exptl_crystal_density_diffrn 1.301
_diffrn_ambient_temperature 130.7
#These two values have been output from a single CSD field.
_refine_ls_R_factor_gt 0.0406
_refine_ls_wR_factor_gt 0.0406
_symmetry_cell_setting triclinic
_symmetry_space_group_name_H-M 'P -1'
_symmetry_Int_Tables_number 2
loop_
_symmetry_equiv_pos_site_id
_symmetry_equiv_pos_as_xyz
1 x,y,z
2 -x,-y,-z
_cell_length_a 9.5761(6)
_cell_length_b 10.1949(7)
_cell_length_c 15.8509(10)
_cell_angle_alpha 102.611(6)
_cell_angle_beta 96.527(5)
_cell_angle_gamma 96.021(5)
_cell_formula_units_Z 4
loop_
_atom_type_symbol
_atom_type_radius_bond
C 0.68
H 0.23
N 0.68
O 0.68
loop_
_atom_site_label
_atom_site_type_symbol
_atom_site_fract_x
_atom_site_fract_y
_atom_site_fract_z
O1 O 0.50663(11) 0.42178(12) 0.27934(8)
O2 O -0.21012(12) 0.33447(12) 0.40126(7)
O3 O 0.00677(11) -0.05391(12) 0.37162(7)
N1 N -0.08765(13) 0.02641(13) 0.38137(8)
N2 N -0.19000(13) 0.21152(14) 0.39808(8)
C1 C 0.06528(15) 0.23819(16) 0.37568(9)
C2 C 0.24161(16) 0.43455(17) 0.42627(10)
H1 H 0.27670 0.51530 0.46680
C3 C 0.26425(16) 0.26556(17) 0.29821(10)
H2 H 0.31390 0.23400 0.25240
C4 C 0.14033(16) 0.18990(17) 0.30742(10)
H3 H 0.10730 0.10730 0.26830
C5 C 0.11669(16) 0.36048(17) 0.43491(10)
H4 H 0.06690 0.39260 0.48050
C6 C -0.06776(15) 0.16014(16) 0.38478(9)
C7 C 0.44391(17) 0.47686(18) 0.34760(11)
C8 C -0.29213(17) 0.14498(18) 0.51733(10)
H5 H -0.19840 0.13940 0.54380
H6 H -0.35930 0.08220 0.53420
H7 H -0.31440 0.23540 0.53640
C9 C 0.31480(16) 0.38837(17) 0.35705(10)
O4 O 0.48584(15) 0.58711(14) 0.39396(10)
C10 C -0.29893(15) 0.10982(16) 0.41819(9)
C11 C -0.24113(15) -0.02505(17) 0.38167(9)
C12 C -0.44549(16) 0.12390(19) 0.37515(11)
H8 H -0.47050 0.21120 0.40070
H9 H -0.51390 0.05410 0.38400
H10 H -0.44440 0.11530 0.31370
C13 C -0.30050(17) -0.09235(18) 0.28652(10)
H11 H -0.29390 -0.02620 0.25190
H12 H -0.39800 -0.12920 0.28290
H13 H -0.24680 -0.16390 0.26510
C14 C -0.24942(17) -0.12900(18) 0.43757(11)
H14 H -0.20480 -0.20530 0.41230
H15 H -0.34700 -0.15870 0.44020
H16 H -0.20170 -0.08850 0.49550
C15 C 0.63303(19) 0.5029(2) 0.26698(13)
H17 H 0.66490 0.46050 0.21360
H18 H 0.70620 0.51000 0.31510
H19 H 0.61170 0.59180 0.26400
O5 O 0.07599(12) 0.93601(12) 0.13552(7)
O6 O -0.66465(11) 0.77607(13) -0.09964(7)
O7 O -0.13222(12) 0.49202(12) 0.09635(8)
N3 N 0.05668(13) 0.81043(14) 0.13700(8)
O8 O -0.53029(12) 0.92834(14) -0.14939(8)
N4 N -0.04401(13) 0.60117(14) 0.12066(8)
C16 C -0.41896(16) 0.80772(17) -0.05300(9)
C17 C -0.06106(16) 0.72177(17) 0.10165(9)
C18 C -0.16853(17) 0.84945(17) 0.0003(1)
H20 H -0.07930 0.89640 0.00180
C19 C -0.32006(16) 0.67961(17) 0.04459(10)
H21 H -0.33210 0.61310 0.07600
C20 C -0.43553(16) 0.70753(17) -0.00631(10)
H22 H -0.52460 0.65910 -0.00930
C21 C -0.18530(16) 0.75108(17) 0.04901(9)
C22 C 0.04396(17) 0.61950(19) 0.27337(10)
H23 H 0.00060 0.70040 0.28940
H24 H 0.12550 0.62270 0.31540
H25 H -0.02290 0.54170 0.27200
C23 C -0.54111(17) 0.84513(18) -0.10626(10)
C24 C -0.28486(17) 0.87682(18) -0.0501(1)
H26 H -0.27310 0.94220 -0.08240
C25 C 0.08975(16) 0.60944(17) 0.18273(10)
C26 C 0.17488(16) 0.74173(17) 0.17194(9)
C27 C 0.15859(19) 0.48266(19) 0.15556(11)
H27 H 0.10010 0.40610 0.16470
H28 H 0.25010 0.49300 0.18980
H29 H 0.16930 0.46850 0.09490
C28 C 0.25713(17) 0.83332(18) 0.2554(1)
H30 H 0.30890 0.91020 0.24190
H31 H 0.32220 0.78370 0.28200
H32 H 0.19220 0.86390 0.29500
C29 C 0.27197(18) 0.7190(2) 0.10123(11)
H33 H 0.21920 0.66300 0.04820
H34 H 0.34960 0.67500 0.12010
H35 H 0.30800 0.80480 0.09100
C30 C -0.79040(18) 0.8042(2) -0.14959(12)
H36 H -0.78300 0.77930 -0.21080
H37 H -0.79830 0.89920 -0.13300
H38 H -0.87290 0.75270 -0.13800
#END
