
#######################################################################
#
#                 Cambridge Crystallographic Data Centre
#                                CCDC
#
#######################################################################
#
# If this CIF has been generated from an entry in the Cambridge
# Structural Database, then it will include bibliographic, chemical,
# crystal, experimental, refinement or atomic coordinate data resulting
# from the CCDC's data processing and validation procedures.
#
#######################################################################

data_CSD_CIF_DOWJEF
_audit_creation_date 2009-10-09
_audit_creation_method CSD-ConQuest-V1
_database_code_CSD DOWJEF
_database_code_depnum_ccdc_archive 'CCDC 725029'
_chemical_formula_sum 'C8 H7 N3 O2'
_chemical_formula_moiety
;
C8 H7 N3 O2
;
_journal_coden_Cambridge 35
_journal_volume 74
_journal_year 2009
_journal_page_first 1621
_journal_name_full 'J.Org.Chem. '
loop_
_publ_author_name
"D.S.Bohle"
"I.Perepichka"
_chemical_name_systematic
;
3-oxo-5-amino-4-phenyl-1,2,3-oxadiazole
;
_cell_volume    798.882
_exptl_crystal_colour 'colorless'
_exptl_crystal_density_diffrn 1.473
_exptl_special_details
;
Unusually high study temperature given in both the supporting information and 
the deposited CIF although no comment on the temperature was made
;
_exptl_crystal_description 'block'
_exptl_crystal_preparation 'acetone/ether'
_diffrn_ambient_temperature 373
#These two values have been output from a single CSD field.
_refine_ls_R_factor_gt 0.0364
_refine_ls_wR_factor_gt 0.0364
_symmetry_cell_setting monoclinic
_symmetry_space_group_name_H-M 'P 21/n'
_symmetry_Int_Tables_number 14
loop_
_symmetry_equiv_pos_site_id
_symmetry_equiv_pos_as_xyz
1 x,y,z
2 1/2-x,1/2+y,1/2-z
3 -x,-y,-z
4 -1/2+x,-1/2-y,-1/2+z
_cell_length_a 7.3570(11)
_cell_length_b 12.3496(18)
_cell_length_c 9.3845(14)
_cell_angle_alpha 90
_cell_angle_beta 110.454(2)
_cell_angle_gamma 90
_cell_formula_units_Z 4
loop_
_atom_type_symbol
_atom_type_radius_bond
C 0.68
H 0.23
N 0.68
O 0.68
loop_
_atom_site_label
_atom_site_type_symbol
_atom_site_fract_x
_atom_site_fract_y
_atom_site_fract_z
N1 N 0.07599(13) 0.79208(8) 0.70989(11)
N2 N 0.08691(15) 0.73585(8) 0.59478(12)
O1 O 0.02181(12) 0.89193(7) 0.68988(10)
O2 O 0.15056(12) 0.63381(7) 0.65785(10)
C1 C 0.17558(16) 0.63540(9) 0.80691(13)
N3 N 0.23940(15) 0.54497(8) 0.88883(13)
C2 C 0.12574(16) 0.73560(9) 0.84524(13)
C3 C 0.12204(16) 0.77713(9) 0.98988(13)
C4 C 0.16969(17) 0.88444(9) 1.03529(14)
H1 H 0.19810 0.93290 0.97020
C5 C 0.17453(17) 0.91851(10) 1.17737(14)
H2 H 0.20510 0.99010 1.20680
C6 C 0.13387(18) 0.84631(10) 1.27635(14)
H3 H 0.13940 0.86920 1.37220
C7 C 0.08512(17) 0.74003(10) 1.23121(14)
H4 H 0.05740 0.69170 1.29690
C8 C 0.07748(17) 0.70543(9) 1.08860(14)
H5 H 0.04270 0.63440 1.05840
H6 H 0.302(3) 0.5576(13) 0.988(2)
H7 H 0.294(2) 0.4946(14) 0.848(2)
#END
