
#######################################################################
#
#                 Cambridge Crystallographic Data Centre
#                                CCDC
#
#######################################################################
#
# If this CIF has been generated from an entry in the Cambridge
# Structural Database, then it will include bibliographic, chemical,
# crystal, experimental, refinement or atomic coordinate data resulting
# from the CCDC's data processing and validation procedures.
#
#######################################################################

data_CSD_CIF_DOWQIR
_audit_creation_date 2015-03-02
_audit_creation_method CSD-ConQuest-V1
_database_code_CSD DOWQIR
_database_code_depnum_ccdc_archive 'CCDC 988568'
_chemical_formula_sum 'C7 H8 N2 O2'
_chemical_formula_moiety
;
C7 H8 N2 O2
;
_journal_coden_Cambridge 1147
_journal_volume 14
_journal_year 2014
_journal_page_first 5737
_journal_name_full 'Cryst.Growth Des. '
loop_
_publ_author_name
"K.Gajda"
"Z.Daszkiewicz"
"E.Kozubek"
"K.Ejsmont"
"B.Zarychta"
_chemical_name_systematic
;
N-Methyl-3-nitrophenylaniline
;
_cell_volume    714.777
_exptl_crystal_colour 'orange'
_exptl_crystal_density_diffrn 1.414
_exptl_crystal_description 'plate'
_diffrn_ambient_temperature 150
#These two values have been output from a single CSD field.
_refine_ls_R_factor_gt 0.039
_refine_ls_wR_factor_gt 0.039
_symmetry_cell_setting monoclinic
_symmetry_space_group_name_H-M 'P 21/c'
_symmetry_Int_Tables_number 14
loop_
_symmetry_equiv_pos_site_id
_symmetry_equiv_pos_as_xyz
1 x,y,z
2 -x,1/2+y,1/2-z
3 -x,-y,-z
4 x,-1/2-y,-1/2+z
_cell_length_a 6.9742(7)
_cell_length_b 12.7802(13)
_cell_length_c 8.2930(8)
_cell_angle_alpha 90
_cell_angle_beta 104.76(1)
_cell_angle_gamma 90
_cell_formula_units_Z 4
loop_
_atom_type_symbol
_atom_type_radius_bond
C 0.68
H 0.23
N 0.68
O 0.68
loop_
_atom_site_label
_atom_site_type_symbol
_atom_site_fract_x
_atom_site_fract_y
_atom_site_fract_z
O1 O 0.63516(17) 0.13075(9) -0.14281(13)
O2 O 0.33124(18) 0.1228(1) -0.29001(13)
N1 N 0.5956(2) 0.12302(14) 0.44916(16)
H1 H 0.543(2) 0.1205(13) 0.529(2)
N2 N 0.4565(2) 0.12667(11) -0.15485(16)
C1 C 0.4642(2) 0.12230(14) 0.29633(18)
C2 C 0.5271(2) 0.12692(13) 0.14942(19)
H2 H 0.66130 0.13110 0.15320
C3 C 0.3854(2) 0.12508(14) -0.00224(18)
C4 C 0.1852(2) 0.11992(14) -0.01736(19)
H3 H 0.09420 0.11920 -0.12110
C5 C 0.1252(2) 0.11583(14) 0.1293(2)
H4 H -0.00950 0.11250 0.12390
C6 C 0.2588(2) 0.11660(13) 0.2820(2)
H5 H 0.21330 0.11330 0.37790
C7 C 0.8067(2) 0.12830(16) 0.4734(2)
H6 H 0.87020 0.12760 0.59060
H7 H 0.84050 0.19170 0.42490
H8 H 0.85060 0.06920 0.42100
#END
