
#######################################################################
#
#                 Cambridge Crystallographic Data Centre
#                                CCDC
#
#######################################################################
#
# If this CIF has been generated from an entry in the Cambridge
# Structural Database, then it will include bibliographic, chemical,
# crystal, experimental, refinement or atomic coordinate data resulting
# from the CCDC's data processing and validation procedures.
#
#######################################################################

data_CSD_CIF_DOXGON
_audit_creation_date 2009-10-09
_audit_creation_method CSD-ConQuest-V1
_database_code_CSD DOXGON
_database_code_depnum_ccdc_archive 'CCDC 697004'
_chemical_formula_sum 'C12 H13 N3 O4'
_chemical_formula_moiety
;
C12 H13 N3 O4
;
_journal_coden_Cambridge 579
_journal_volume 28
_journal_year 2009
_journal_page_first 1049
_journal_name_full 'Organometallics '
loop_
_publ_author_name
"I.V.Shishkov"
"F.Rominger"
"P.Hofmann"
_chemical_name_systematic
;
t-Butyl diazo(4-nitrophenyl)acetate
;
_chemical_melting_point 391.15
_cell_volume   1251.519
_exptl_crystal_colour 'yellow'
_exptl_crystal_density_diffrn 1.397
_exptl_special_details
;
Melting point range 391.15-392.15K

;
_exptl_crystal_description 'irregular'
_exptl_crystal_preparation 'ethyl acetate/hexane'
_diffrn_ambient_temperature 100
#These two values have been output from a single CSD field.
_refine_ls_R_factor_gt 0.0537
_refine_ls_wR_factor_gt 0.0537
_symmetry_cell_setting monoclinic
_symmetry_space_group_name_H-M 'P 21/c'
_symmetry_Int_Tables_number 14
loop_
_symmetry_equiv_pos_site_id
_symmetry_equiv_pos_as_xyz
1 x,y,z
2 -x,1/2+y,1/2-z
3 -x,-y,-z
4 x,-1/2-y,-1/2+z
_cell_length_a 9.067(3)
_cell_length_b 12.732(4)
_cell_length_c 10.946(3)
_cell_angle_alpha 90
_cell_angle_beta 97.935(7)
_cell_angle_gamma 90
_cell_formula_units_Z 4
loop_
_atom_type_symbol
_atom_type_radius_bond
C 0.68
H 0.23
N 0.68
O 0.68
loop_
_atom_site_label
_atom_site_type_symbol
_atom_site_fract_x
_atom_site_fract_y
_atom_site_fract_z
O1 O 0.99954(17) 0.32289(11) 0.91845(14)
O2 O 0.94381(16) 0.14956(10) 0.88781(13)
O3 O 0.43157(18) 0.57701(12) 1.27350(14)
O4 O 0.57943(19) 0.68472(12) 1.19828(16)
N1 N 0.69612(19) 0.16595(13) 0.96329(15)
N2 N 0.6279(2) 0.09225(14) 0.95709(17)
N3 N 0.5321(2) 0.59597(14) 1.21229(16)
C1 C 0.7743(2) 0.25456(15) 0.96987(18)
C2 C 0.9180(2) 0.24837(15) 0.92237(18)
C3 C 1.0888(2) 0.12092(16) 0.84711(19)
C4 C 1.0688(3) 0.00419(17) 0.8220(2)
C5 C 1.1062(3) 0.1802(2) 0.7294(2)
C6 C 1.2139(3) 0.14068(18) 0.9514(2)
C7 C 0.7146(2) 0.34335(15) 1.03181(18)
C8 C 0.5988(2) 0.32638(16) 1.10326(19)
C9 C 0.5399(2) 0.40834(16) 1.16288(18)
C10 C 0.5965(2) 0.50839(15) 1.15130(18)
C11 C 0.7109(2) 0.52765(16) 1.08275(19)
C12 C 0.7697(2) 0.44512(16) 1.02295(19)
H1 H 1.160(3) -0.0249(17) 0.796(2)
H2 H 0.988(3) -0.011(2) 0.761(3)
H3 H 1.048(3) -0.033(2) 0.898(3)
H4 H 1.120(3) 0.257(2) 0.742(2)
H5 H 1.020(3) 0.1693(19) 0.671(3)
H6 H 1.192(3) 0.152(2) 0.695(3)
H7 H 1.229(3) 0.214(2) 0.970(2)
H8 H 1.190(3) 0.1059(19) 1.026(3)
H9 H 1.304(3) 0.112(2) 0.928(3)
H10 H 0.562(3) 0.259(2) 1.114(2)
H11 H 0.460(3) 0.3971(19) 1.210(2)
H12 H 0.746(3) 0.5967(19) 1.076(2)
H13 H 0.850(3) 0.4612(18) 0.975(2)
#END
