
#######################################################################
#
#                 Cambridge Crystallographic Data Centre
#                                CCDC
#
#######################################################################
#
# If this CIF has been generated from an entry in the Cambridge
# Structural Database, then it will include bibliographic, chemical,
# crystal, experimental, refinement or atomic coordinate data resulting
# from the CCDC's data processing and validation procedures.
#
#######################################################################

data_CSD_CIF_DOXGUT
_audit_creation_date 2009-10-09
_audit_creation_method CSD-ConQuest-V1
_database_code_CSD DOXGUT
_database_code_depnum_ccdc_archive 'CCDC 697005'
_chemical_formula_sum 'C14 H18 N4 O3'
_chemical_formula_moiety
;
C14 H18 N4 O3
;
_journal_coden_Cambridge 579
_journal_volume 28
_journal_year 2009
_journal_page_first 1049
_journal_name_full 'Organometallics '
loop_
_publ_author_name
"I.V.Shishkov"
"F.Rominger"
"P.Hofmann"
_chemical_name_systematic
;
2-Diazo-N,N-di-isopropyl-2-(4-nitrophenyl)acetamide
;
_chemical_melting_point 360.15
_cell_volume   3051.086
_exptl_crystal_colour 'yellow'
_exptl_crystal_density_diffrn 1.264
_exptl_special_details
;
Melting point range 360.15-361.15K

;
_exptl_crystal_description 'polyhedron'
_exptl_crystal_preparation 'light petroleum'
_diffrn_ambient_temperature 200
#These two values have been output from a single CSD field.
_refine_ls_R_factor_gt 0.0444
_refine_ls_wR_factor_gt 0.0444
_symmetry_cell_setting monoclinic
_symmetry_space_group_name_H-M 'P 21/c'
_symmetry_Int_Tables_number 14
loop_
_symmetry_equiv_pos_site_id
_symmetry_equiv_pos_as_xyz
1 x,y,z
2 -x,1/2+y,1/2-z
3 -x,-y,-z
4 x,-1/2-y,-1/2+z
_cell_length_a 18.164(3)
_cell_length_b 12.3328(19)
_cell_length_c 13.978(3)
_cell_angle_alpha 90
_cell_angle_beta 102.993(5)
_cell_angle_gamma 90
_cell_formula_units_Z 8
loop_
_atom_type_symbol
_atom_type_radius_bond
C 0.68
H 0.23
N 0.68
O 0.68
loop_
_atom_site_label
_atom_site_type_symbol
_atom_site_fract_x
_atom_site_fract_y
_atom_site_fract_z
C1 C -0.26618(18) 0.6615(3) 0.6798(3)
N1 N -0.26048(15) 0.6759(2) 0.7749(3)
N2 N -0.25573(18) 0.6881(3) 0.8568(3)
C2 C -0.34475(19) 0.6594(3) 0.6172(3)
O1 O -0.35971(12) 0.5924(2) 0.5509(2)
N3 N -0.39674(14) 0.7282(2) 0.6407(2)
N4 N 0.01038(18) 0.6109(2) 0.5589(3)
O2 O 0.06813(14) 0.59296(19) 0.6230(2)
O3 O 0.01088(13) 0.62455(19) 0.4717(2)
C3 C -0.37755(19) 0.8328(3) 0.6930(3)
H1 H -0.32120 0.83680 0.71300
C4 C -0.40686(19) 0.8381(3) 0.7865(3)
H2 H -0.46210 0.84320 0.76960
H3 H -0.38580 0.90200 0.82470
H4 H -0.39160 0.77250 0.82560
C5 C -0.40381(18) 0.9287(3) 0.6255(3)
H5 H -0.38420 0.92160 0.56600
H6 H -0.38500 0.99610 0.65950
H7 H -0.45920 0.93010 0.60760
C6 C -0.47816(18) 0.7073(3) 0.5986(3)
H8 H -0.50680 0.76300 0.62740
C7 C -0.50154(19) 0.7210(3) 0.4875(3)
H9 H -0.48320 0.79090 0.46900
H10 H -0.55680 0.71870 0.46660
H11 H -0.47980 0.66230 0.45560
C8 C -0.50125(19) 0.5976(3) 0.6321(3)
H12 H -0.47450 0.54000 0.60550
H13 H -0.55590 0.58780 0.60830
H14 H -0.48830 0.59430 0.70400
C9 C -0.19649(19) 0.6407(2) 0.6485(3)
C10 C -0.12804(19) 0.6280(2) 0.7166(3)
H15 H -0.12780 0.62660 0.78470
C11 C -0.06101(19) 0.6175(3) 0.6877(3)
H16 H -0.01480 0.61040 0.73520
C12 C -0.06166(19) 0.6173(2) 0.5891(3)
C13 C -0.12865(19) 0.6264(2) 0.5187(3)
H17 H -0.12860 0.62450 0.45070
C14 C -0.19518(19) 0.6382(3) 0.5491(3)
H18 H -0.24130 0.64480 0.50140
C15 C 0.10912(19) 0.8493(3) 0.5496(3)
N5 N 0.10362(15) 0.8292(2) 0.4559(3)
N6 N 0.09985(18) 0.8126(3) 0.3741(3)
C16 C 0.18729(19) 0.8696(3) 0.6090(3)
O4 O 0.19759(12) 0.9524(2) 0.65942(19)
N7 N 0.24253(14) 0.7985(2) 0.6024(2)
N8 N -0.16330(18) 0.9132(2) 0.6789(3)
O5 O -0.21898(15) 0.9487(2) 0.6199(2)
O6 O -0.16442(14) 0.8877(2) 0.7639(2)
C17 C 0.22770(19) 0.6866(3) 0.5643(3)
H19 H 0.17170 0.67760 0.54350
C18 C 0.2601(2) 0.6675(3) 0.4739(3)
H20 H 0.24230 0.72440 0.42530
H21 H 0.24350 0.59660 0.44540
H22 H 0.31540 0.66910 0.49300
C19 C 0.2567(2) 0.6035(3) 0.6453(3)
H23 H 0.31170 0.60970 0.66700
H24 H 0.24360 0.53030 0.61980
H25 H 0.23340 0.61710 0.70090
C20 C 0.32259(18) 0.8296(3) 0.6432(3)
H26 H 0.35410 0.76820 0.62820
C21 C 0.3414(2) 0.8416(3) 0.7550(3)
H27 H 0.31690 0.90690 0.77310
H28 H 0.39620 0.84770 0.77900
H29 H 0.32300 0.77790 0.78450
C22 C 0.34453(19) 0.9285(3) 0.5906(3)
H30 H 0.33200 0.91570 0.51960
H31 H 0.39890 0.94150 0.61280
H32 H 0.31670 0.99200 0.60570
C23 C 0.03917(18) 0.8683(2) 0.5819(3)
C24 C -0.02991(18) 0.8807(2) 0.5151(3)
H33 H -0.03160 0.87720 0.44670
C25 C -0.09568(19) 0.8977(2) 0.5462(3)
H34 H -0.14210 0.90840 0.49990
C26 C -0.09321(19) 0.8991(3) 0.6453(3)
C27 C -0.02574(19) 0.8857(2) 0.7143(3)
H35 H -0.02480 0.88630 0.78250
C28 C 0.04021(19) 0.8713(2) 0.6815(3)
H36 H 0.08690 0.86330 0.72800
#END
