
#######################################################################
#
#                 Cambridge Crystallographic Data Centre
#                                CCDC
#
#######################################################################
#
# If this CIF has been generated from an entry in the Cambridge
# Structural Database, then it will include bibliographic, chemical,
# crystal, experimental, refinement or atomic coordinate data resulting
# from the CCDC's data processing and validation procedures.
#
#######################################################################

data_CSD_CIF_DOXVIX
_audit_creation_date 2015-03-03
_audit_creation_method CSD-ConQuest-V1
_database_code_CSD DOXVIX
_database_code_depnum_ccdc_archive 'CCDC 910510'
_chemical_formula_sum 'C31 H27 N3 O4'
_chemical_formula_moiety
;
C31 H27 N3 O4
;
_journal_coden_Cambridge 1037
_journal_volume 15
_journal_year 2014
_journal_page_first 271-5
_journal_name_full 'ARKIVOC '
loop_
_publ_author_name
"G.Ragaite"
"V.Martynaitis"
"K.Redeckas"
"V.Voiciuk"
"Mikas Vengris"
"A.Sackus"
_chemical_name_systematic
;
N-benzyl-22,22-dimethyl-8-nitro-2-oxa-15-azahexacyclo[11.9.1.0^1,15^.0^3,12^.0
^6,11^.0^16,21^]tricosa-3(12),4,6(11),7,9,16,18,20-octaene-14-carboxamide
;
_chemical_name_common
;
(7aR*,14R*,15S*)-N-benzyl-8,8-dimethyl-3-nitro-14,15-dihydro-8H-7a,15-methanon
aphtho[1',2':6,7][1,3]oxazepino[3,2-a]indole-14-carboxamide
;
_cell_volume   2505.867
_exptl_crystal_colour 'yellow'
_exptl_crystal_density_diffrn 1.34
_exptl_crystal_description 'needle'
_diffrn_ambient_temperature 193
#These two values have been output from a single CSD field.
_refine_ls_R_factor_gt 0.058
_refine_ls_wR_factor_gt 0.058
_symmetry_cell_setting monoclinic
_symmetry_space_group_name_H-M 'P 21/a'
_symmetry_Int_Tables_number 14
loop_
_symmetry_equiv_pos_site_id
_symmetry_equiv_pos_as_xyz
1 x,y,z
2 1/2-x,1/2+y,-z
3 -x,-y,-z
4 -1/2+x,-1/2-y,z
_cell_length_a 9.2161(3)
_cell_length_b 18.9062(8)
_cell_length_c 14.7370(7)
_cell_angle_alpha 90
_cell_angle_beta 102.609(2)
_cell_angle_gamma 90
_cell_formula_units_Z 4
loop_
_atom_type_symbol
_atom_type_radius_bond
C 0.68
H 0.23
N 0.68
O 0.68
loop_
_atom_site_label
_atom_site_type_symbol
_atom_site_fract_x
_atom_site_fract_y
_atom_site_fract_z
O1 O -0.1344(3) 0.20165(17) 0.5245(2)
O2 O 0.2063(3) 0.14431(16) 0.8265(2)
N1 N 0.0422(3) 0.2663(2) 0.4755(2)
C1 C 0.2587(4) 0.3534(2) 0.9151(3)
N2 N 0.1537(4) 0.15596(19) 0.6627(3)
O3 O 0.3410(4) 0.56690(19) 0.9728(3)
C2 C -0.0089(4) 0.2299(2) 0.5389(3)
C3 C 0.3448(5) 0.2978(3) 0.9632(3)
C4 C 0.0628(4) 0.3941(3) 0.7857(3)
C5 C 0.1308(4) 0.2668(2) 0.8005(3)
C6 C 0.1489(4) 0.3377(2) 0.8324(3)
C7 C 0.0974(4) 0.2267(2) 0.6348(3)
C8 C 0.0942(5) 0.0456(2) 0.7269(3)
C9 C 0.2753(5) 0.1083(3) 0.5386(3)
C10 C 0.2071(4) 0.1031(2) 0.6126(3)
C11 C 0.0629(5) 0.1883(3) 0.2933(4)
C12 C 0.2176(4) 0.2143(2) 0.8511(3)
C13 C 0.3252(5) 0.2299(3) 0.9329(3)
C14 C 0.0173(4) 0.2441(2) 0.7148(3)
C15 C 0.0987(4) 0.1282(2) 0.7403(3)
C16 C 0.0343(4) 0.2592(3) 0.3068(3)
C17 C 0.1745(5) 0.2186(3) 0.1658(3)
C18 C -0.0402(4) 0.1713(3) 0.7383(3)
N3 N 0.2178(5) 0.5491(2) 0.9290(3)
C19 C 0.1856(4) 0.0375(3) 0.6526(3)
C20 C 0.1328(5) 0.1677(3) 0.2227(4)
C21 C 0.2355(5) -0.0233(3) 0.6187(4)
C22 C 0.1949(5) 0.4756(3) 0.8971(3)
C23 C -0.0657(5) 0.0222(3) 0.6848(4)
O4 O 0.1115(4) 0.5897(2) 0.9089(3)
C24 C 0.2814(5) 0.4242(3) 0.9445(3)
C25 C 0.0751(5) 0.3087(3) 0.2490(3)
C26 C 0.3076(6) -0.0188(3) 0.5452(4)
C27 C 0.0834(5) 0.4617(3) 0.8174(3)
C28 C -0.0451(5) 0.2806(3) 0.3816(3)
C29 C 0.3243(5) 0.0464(3) 0.5053(4)
C30 C 0.1534(6) 0.0049(3) 0.8157(4)
C31 C 0.1450(5) 0.2883(3) 0.1783(3)
H1 H -0.00496 0.38347 0.72915
H2 H 0.02156 0.49884 0.78555
H3 H 0.35750 0.43505 0.99841
H4 H 0.03269 0.15390 0.33268
H5 H 0.15269 0.11861 0.21428
H6 H 0.22310 0.20466 0.11730
H7 H 0.17333 0.32393 0.13819
H8 H 0.05373 0.35765 0.25777
H9 H 0.27328 0.15325 0.50186
H10 H -0.06334 0.28184 0.69989
H11 H 0.37193 0.04730 0.45309
H12 H 0.22097 -0.06789 0.64649
H13 H -0.06857 -0.02889 0.67646
H14 H -0.09957 0.04481 0.62406
H15 H -0.12978 0.03531 0.72576
H16 H 0.14738 -0.04509 0.80233
H17 H 0.09488 0.01571 0.86143
H18 H 0.25588 0.01771 0.84043
H19 H 0.38410 0.19279 0.96716
H20 H 0.41902 0.30790 1.01826
H21 H -0.07031 0.17441 0.79670
H22 H -0.12471 0.15801 0.69040
H23 H 0.19969 0.25238 0.64017
H24 H -0.13829 0.25493 0.37247
H25 H -0.06569 0.33183 0.37527
H26 H 0.14066 0.28469 0.49049
H27 H 0.34576 -0.06082 0.52210
#END
