
#######################################################################
#
#                 Cambridge Crystallographic Data Centre
#                                CCDC
#
#######################################################################
#
# If this CIF has been generated from an entry in the Cambridge
# Structural Database, then it will include bibliographic, chemical,
# crystal, experimental, refinement or atomic coordinate data resulting
# from the CCDC's data processing and validation procedures.
#
#######################################################################

data_CSD_CIF_DOXZOF
_audit_creation_date 1987-04-28
_audit_creation_method CSD-ConQuest-V1
_database_code_CSD DOXZOF
_chemical_formula_sum 'C8 H7 N1 O1'
_chemical_formula_moiety
;
C8 H7 N1 O1
;
_journal_coeditor_code "IUCr A25871"
_journal_coden_Cambridge 591
_journal_volume 42
_journal_year 1986
_journal_page_first 824
_journal_name_full 'Acta Crystallogr.,Sect.C:Cryst.Struct.Commun. '
loop_
_publ_author_name
"B.Viossat"
"N.Rodier"
"J.Andrieux"
"M.Plat"
_chemical_name_systematic
;
2H-Benzocyclobuten-1-one oxime
;
_cell_volume    682.198
_exptl_crystal_density_diffrn 1.296
_diffrn_ambient_temperature ?
_diffrn_special_details
;
The study was carried out at room temperature,in the range 283-303K

;
#These two values have been output from a single CSD field.
_refine_ls_R_factor_gt 0.039
_refine_ls_wR_factor_gt 0.039
_symmetry_cell_setting monoclinic
_symmetry_space_group_name_H-M 'P 21/c'
_symmetry_Int_Tables_number 14
loop_
_symmetry_equiv_pos_site_id
_symmetry_equiv_pos_as_xyz
1 x,y,z
2 -x,1/2+y,1/2-z
3 -x,-y,-z
4 x,-1/2-y,-1/2+z
_cell_length_a 15.349(4)
_cell_length_b 5.2595(8)
_cell_length_c 8.704(1)
_cell_angle_alpha 90
_cell_angle_beta 103.86(2)
_cell_angle_gamma 90
_cell_formula_units_Z 4
loop_
_atom_type_symbol
_atom_type_radius_bond
C 0.68
H 0.23
N 0.68
O 0.68
loop_
_atom_site_label
_atom_site_type_symbol
_atom_site_fract_x
_atom_site_fract_y
_atom_site_fract_z
O1 O 0.08883(8) 0.7755(3) 0.2609(2)
N1 N 0.06990(9) 0.5650(3) 0.3478(2)
C1 C 0.1420(1) 0.4835(4) 0.4375(2)
C2 C 0.1600(1) 0.2596(4) 0.5520(2)
C3 C 0.2574(1) 0.3474(4) 0.5818(2)
C4 C 0.3442(1) 0.2994(4) 0.6651(2)
C5 C 0.4090(1) 0.4628(4) 0.6371(2)
C6 C 0.3888(1) 0.6621(4) 0.5324(2)
C7 C 0.3019(1) 0.7116(4) 0.4477(2)
C8 C 0.2378(1) 0.5479(4) 0.4768(2)
H1 H 0.039(1) 0.846(4) 0.224(2)
H2 H 0.130(1) 0.279(3) 0.642(2)
H3 H 0.146(1) 0.094(4) 0.502(2)
H4 H 0.359(1) 0.155(4) 0.738(2)
H5 H 0.472(1) 0.442(4) 0.693(2)
H6 H 0.437(1) 0.768(4) 0.515(2)
H7 H 0.286(1) 0.844(4) 0.374(2)
#END
