
#######################################################################
#
#                 Cambridge Crystallographic Data Centre
#                                CCDC
#
#######################################################################
#
# If this CIF has been generated from an entry in the Cambridge
# Structural Database, then it will include bibliographic, chemical,
# crystal, experimental, refinement or atomic coordinate data resulting
# from the CCDC's data processing and validation procedures.
#
#######################################################################

data_CSD_CIF_DOYCID
_audit_creation_date 1987-04-28
_audit_creation_method CSD-ConQuest-V1
_database_code_CSD DOYCID
_database_code_depnum_ccdc_archive 'CCDC 1144927'
_chemical_formula_sum 'C6 H3 N5 O6'
_chemical_formula_moiety
;
C6 H3 N5 O6
;
_journal_coeditor_code "IUCr A25833"
_journal_coden_Cambridge 591
_journal_volume 42
_journal_year 1986
_journal_page_first 724
_journal_name_full 'Acta Crystallogr.,Sect.C:Cryst.Struct.Commun. '
loop_
_publ_author_name
"H.L.Ammon"
"Dechun Zhang"
_chemical_name_systematic
;
4-Amino-5,7-dinitrobenz(1,2-c)(1,2,5)oxadiazole-3-oxide
;
_cell_volume    838.379
_exptl_crystal_colour 'light tan'
_exptl_crystal_density_diffrn 1.91
_exptl_special_details
;
insensitive explosive action

;
_diffrn_ambient_temperature ?
_diffrn_special_details
;
The study was carried out at room temperature,in the range 283-303K

;
_refine_special_details
;
Both molecules are disordered; N1 and N6, N1' and N6' have occupancies of 
0.62, 0.38, 0.66, 0.34 respectively. N6 and N6' are not retained.
;
#These two values have been output from a single CSD field.
_refine_ls_R_factor_gt 0.079
_refine_ls_wR_factor_gt 0.079
_symmetry_cell_setting monoclinic
_symmetry_space_group_name_H-M 'P 21'
_symmetry_Int_Tables_number 4
loop_
_symmetry_equiv_pos_site_id
_symmetry_equiv_pos_as_xyz
1 x,y,z
2 -x,1/2+y,-z
_cell_length_a 11.959(7)
_cell_length_b 9.863(6)
_cell_length_c 7.180(4)
_cell_angle_alpha 90
_cell_angle_beta 98.131(1)
_cell_angle_gamma 90
_cell_formula_units_Z 4
loop_
_atom_type_symbol
_atom_type_radius_bond
C 0.68
N 0.68
O 0.68
loop_
_atom_site_label
_atom_site_type_symbol
_atom_site_fract_x
_atom_site_fract_y
_atom_site_fract_z
C1 C 0.1698(7) 0.248(1) 0.301(1)
C2 C 0.0897(7) 0.129(1) 0.300(1)
C3 C 0.1056(6) 0.070(1) 0.485(1)
C4 C 0.1862(8) 0.110(1) 0.643(1)
C5 C 0.2582(6) 0.2145(9) 0.632(1)
C6 C 0.2491(7) 0.289(1) 0.446(1)
N1 N 0.303(1) 0.387(1) 0.393(2)
N2 N 0.1752(7) 0.319(1) 0.143(1)
N3 N 0.0201(5) 0.0959(8) 0.1530(9)
N4 N 0.0417(7) -0.038(1) 0.531(1)
N5 N 0.3353(6) 0.265(1) 0.775(1)
O1 O 0.2591(7) 0.418(1) 0.192(1)
O2 O 0.1106(6) 0.314(1) -0.0052(8)
O3 O -0.0224(6) -0.104(1) 0.412(1)
O4 O 0.0583(6) -0.0884(9) 0.702(1)
O5 O 0.3372(6) 0.205(1) 0.933(1)
O6 O 0.3970(6) 0.357(1) 0.7620(9)
C7 C -0.3371(6) 0.2565(9) 0.306(1)
C8 C -0.4045(7) 0.361(1) 0.321(1)
C9 C -0.3942(7) 0.424(1) 0.495(1)
C10 C -0.3180(9) 0.379(1) 0.650(1)
C11 C -0.2449(7) 0.269(1) 0.621(1)
C12 C -0.2505(6) 0.209(1) 0.460(1)
N6 N -0.193(1) 0.101(2) 0.388(2)
N7 N -0.3328(6) 0.1715(1) 0.153(1)
N8 N -0.4805(7) 0.411(1) 0.174(1)
N9 N -0.4543(6) 0.546(1) 0.531(1)
N10 N -0.1558(7) 0.245(1) 0.796(1)
O7 O -0.2474(7) 0.081(1) 0.184(1)
O8 O -0.3834(5) 0.172(1) -0.007(1)
O9 O -0.5182(6) 0.6023(8) 0.4162(9)
O10 O -0.4324(7) 0.579(1) 0.703(1)
O11 O -0.1510(7) 0.305(1) 0.932(1)
O12 O -0.0912(6) 0.145(1) 0.760(1)
#END
