
#######################################################################
#
#                 Cambridge Crystallographic Data Centre
#                                CCDC
#
#######################################################################
#
# If this CIF has been generated from an entry in the Cambridge
# Structural Database, then it will include bibliographic, chemical,
# crystal, experimental, refinement or atomic coordinate data resulting
# from the CCDC's data processing and validation procedures.
#
#######################################################################

data_CSD_CIF_DOZHIL
_audit_creation_date 2015-03-03
_audit_creation_method CSD-ConQuest-V1
_database_code_CSD DOZHIL
_database_code_depnum_ccdc_archive 'CCDC 989312'
_chemical_formula_sum 'C28 H31 N3 O4'
_chemical_formula_moiety
;
C28 H31 N3 O4
;
_journal_coden_Cambridge 1500
_journal_volume 5
_journal_year 2015
_journal_page_first 23519
_journal_name_full 'RSC Advances '
loop_
_publ_author_name
"T.R.Sutariya"
"B.M.Labana"
"B.D.Parmar"
"N.J.Parmar"
"R.Kant"
"V.K.Gupta"
_chemical_name_systematic
;
1,5,11b-trimethyl-5-(4-methylpent-3-en-1-yl)-10-nitro-3-phenyl-3,5a,6,11b-tetr
ahydro-5H-chromeno[4',3':4,5]pyrano[2,3-c]pyrazole
;
_cell_volume   2443.286
_exptl_crystal_colour 'white'
_exptl_crystal_density_diffrn 1.287
_exptl_crystal_description 'block'
_diffrn_ambient_temperature 293
#These two values have been output from a single CSD field.
_refine_ls_R_factor_gt 0.0549
_refine_ls_wR_factor_gt 0.0549
_symmetry_cell_setting monoclinic
_symmetry_space_group_name_H-M 'P 21/n'
_symmetry_Int_Tables_number 14
loop_
_symmetry_equiv_pos_site_id
_symmetry_equiv_pos_as_xyz
1 x,y,z
2 1/2-x,1/2+y,1/2-z
3 -x,-y,-z
4 -1/2+x,-1/2-y,-1/2+z
_cell_length_a 10.0801(7)
_cell_length_b 15.4384(13)
_cell_length_c 15.7805(13)
_cell_angle_alpha 90
_cell_angle_beta 95.780(7)
_cell_angle_gamma 90
_cell_formula_units_Z 4
loop_
_atom_type_symbol
_atom_type_radius_bond
C 0.68
H 0.23
N 0.68
O 0.68
loop_
_atom_site_label
_atom_site_type_symbol
_atom_site_fract_x
_atom_site_fract_y
_atom_site_fract_z
O1 O 0.5623(2) 0.49064(16) 0.1023(2)
O2 O 0.7658(3) 0.47894(14) 0.0762(2)
C1 C 1.0638(2) 0.24220(16) 0.04791(16)
N1 N 1.16481(17) 0.21973(13) 0.10437(14)
N2 N 1.12836(16) 0.14237(13) 0.13816(13)
C2 C 1.00538(19) 0.11847(15) 0.10144(15)
O3 O 0.95102(13) 0.04276(10) 0.12077(11)
C3 C 0.80845(19) 0.03696(15) 0.09088(16)
C4 C 0.7904(2) 0.07039(15) -0.00181(15)
H1 H 0.85150 0.03610 -0.03290
C5 C 0.6527(2) 0.05564(16) -0.04747(17)
H2 H 0.65520 0.06720 -0.10770
H3 H 0.62850 -0.00470 -0.04140
O4 O 0.55209(14) 0.10912(11) -0.01575(12)
C6 C 0.5858(2) 0.19214(16) 0.00554(16)
C7 C 0.4808(2) 0.24314(19) 0.02809(18)
H4 H 0.39570 0.21960 0.02670
C8 C 0.5019(2) 0.32681(19) 0.05199(18)
H5 H 0.43210 0.36120 0.06690
C9 C 0.6286(3) 0.35951(17) 0.05363(17)
C10 C 0.7344(2) 0.30937(17) 0.03304(17)
H6 H 0.81940 0.33330 0.03540
C11 C 0.7149(2) 0.22432(15) 0.00907(15)
C12 C 0.8302(2) 0.16651(15) -0.01353(15)
C13 C 0.9585(2) 0.18073(15) 0.04320(15)
C14 C 1.0766(2) 0.32553(17) 0.00214(19)
H7 H 1.02560 0.36940 0.02730
H8 H 1.04370 0.31850 -0.05670
H9 H 1.16860 0.34250 0.00630
C15 C 1.2164(2) 0.10219(17) 0.20218(16)
C16 C 1.1741(3) 0.0386(2) 0.2531(2)
H10 H 1.08610 0.01970 0.24570
C17 C 1.2627(3) 0.0026(2) 0.3156(2)
H11 H 1.23400 -0.04130 0.34980
C18 C 1.3926(3) 0.0303(2) 0.3282(2)
H12 H 1.45150 0.00580 0.37060
C19 C 1.4333(2) 0.0935(2) 0.27817(19)
H13 H 1.52130 0.11250 0.28630
C20 C 1.3468(2) 0.1306(2) 0.21490(17)
H14 H 1.37620 0.17460 0.18110
C21 C 0.7320(2) 0.08597(16) 0.15392(16)
H15 H 0.75420 0.06290 0.21010
H16 H 0.63800 0.07970 0.13820
H17 H 0.75560 0.14620 0.15330
N3 N 0.6544(3) 0.44895(18) 0.07891(19)
C22 C 0.8540(2) 0.18373(19) -0.10624(17)
H18 H 0.88050 0.24290 -0.11230
H19 H 0.77320 0.17300 -0.14240
H20 H 0.92310 0.14610 -0.12220
C23 C 0.7785(2) -0.05995(15) 0.09385(17)
H21 H 0.83050 -0.08890 0.05380
H22 H 0.68520 -0.06840 0.07400
C24 C 0.8061(2) -0.10497(17) 0.18042(19)
H23 H 0.90150 -0.10820 0.19620
H24 H 0.76650 -0.07190 0.22370
C25 C 0.7482(3) -0.19432(18) 0.1752(2)
H25 H 0.79900 -0.23700 0.15210
C26 C 0.6341(3) -0.21865(19) 0.19950(19)
C27 C 0.5465(3) -0.1622(3) 0.2466(2)
H26 H 0.56820 -0.16990 0.30670
H27 H 0.45500 -0.17770 0.23140
H28 H 0.56000 -0.10280 0.23190
C28 C 0.5780(4) -0.3067(2) 0.1811(2)
H29 H 0.63850 -0.33970 0.15060
H30 H 0.49380 -0.30180 0.14700
H31 H 0.56540 -0.33550 0.23360
#END
