
#######################################################################
#
#                 Cambridge Crystallographic Data Centre
#                                CCDC
#
#######################################################################
#
# If this CIF has been generated from an entry in the Cambridge
# Structural Database, then it will include bibliographic, chemical,
# crystal, experimental, refinement or atomic coordinate data resulting
# from the CCDC's data processing and validation procedures.
#
#######################################################################

data_CSD_CIF_DOZMIQ
_audit_creation_date 2015-03-03
_audit_creation_method CSD-ConQuest-V1
_database_code_CSD DOZMIQ
_database_code_depnum_ccdc_archive 'CCDC 933861'
_chemical_formula_sum 'C17 H24 N2 O3'
_chemical_formula_moiety
;
C17 H24 N2 O3
;
_journal_coden_Cambridge 1336
_journal_volume 16
_journal_year 2014
_journal_page_first 6306
_journal_name_full 'Org.Lett. '
loop_
_publ_author_name
"Hong Yan"
"Guangwei Rong"
"Defu Liu"
"Yang Zheng"
"Jie Chen"
"Jincheng Mao"
_chemical_name_systematic
;
2,2,6,6-tetramethyl-1-((2-nitro-1-phenylvinyl)oxy)piperidine
;
_cell_volume   1715.891
_exptl_crystal_density_diffrn 1.178
_diffrn_ambient_temperature 293
#These two values have been output from a single CSD field.
_refine_ls_R_factor_gt 0.0625
_refine_ls_wR_factor_gt 0.0625
_symmetry_cell_setting monoclinic
_symmetry_space_group_name_H-M 'P 21'
_symmetry_Int_Tables_number 4
loop_
_symmetry_equiv_pos_site_id
_symmetry_equiv_pos_as_xyz
1 x,y,z
2 -x,1/2+y,-z
_cell_length_a 10.770(2)
_cell_length_b 14.240(3)
_cell_length_c 11.190(2)
_cell_angle_alpha 90
_cell_angle_beta 91.00(3)
_cell_angle_gamma 90
_cell_formula_units_Z 4
loop_
_atom_type_symbol
_atom_type_radius_bond
C 0.68
H 0.23
N 0.68
O 0.68
loop_
_atom_site_label
_atom_site_type_symbol
_atom_site_fract_x
_atom_site_fract_y
_atom_site_fract_z
N1 N 0.4021(3) 0.5671(3) 0.4360(3)
O1 O 0.4395(3) 0.5291(2) 0.5547(2)
C1 C 0.6303(4) 0.6081(4) 0.5291(4)
H1 H 0.60360 0.62730 0.45340
C2 C 0.5161(4) 0.5549(4) 0.8136(4)
H2 H 0.47060 0.61000 0.80410
C3 C 0.5912(4) 0.4306(4) 0.9394(5)
H3 H 0.59790 0.40180 1.01380
O2 O 0.8163(3) 0.6784(3) 0.4983(4)
C4 C 0.3244(6) 0.5179(5) 0.2407(5)
H4 H 0.38270 0.55760 0.19920
H5 H 0.30530 0.46460 0.18960
C5 C 0.3851(4) 0.4827(3) 0.3567(4)
C6 C 0.3456(5) 0.7181(4) 0.5227(5)
H6 H 0.38020 0.70220 0.59970
H7 H 0.28050 0.76350 0.53200
H8 H 0.40940 0.74420 0.47380
C7 C 0.5532(4) 0.5549(3) 0.5937(4)
C8 C 0.5147(5) 0.4472(4) 0.3265(5)
H9 H 0.55530 0.42430 0.39780
H10 H 0.56230 0.49770 0.29370
H11 H 0.50790 0.39740 0.26910
C9 C 0.6348(5) 0.4314(4) 0.7291(4)
H12 H 0.67070 0.40300 0.66330
C10 C 0.5715(4) 0.5140(3) 0.7164(4)
O3 O 0.7865(4) 0.6173(4) 0.6720(4)
C11 C 0.3117(5) 0.4013(4) 0.4127(5)
H13 H 0.35260 0.38150 0.48530
H14 H 0.30760 0.34960 0.35760
H15 H 0.22910 0.42200 0.43000
C12 C 0.2927(4) 0.6297(4) 0.4628(4)
N2 N 0.7510(4) 0.6369(3) 0.5698(4)
C13 C 0.5282(4) 0.5133(4) 0.9271(4)
H16 H 0.49360 0.54200 0.99340
C14 C 0.2067(6) 0.5726(5) 0.2623(5)
H17 H 0.14620 0.53260 0.30050
H18 H 0.17150 0.59420 0.18680
C15 C 0.6449(5) 0.3901(4) 0.8414(5)
H19 H 0.68870 0.33410 0.85040
C16 C 0.2366(5) 0.6554(4) 0.3412(5)
H20 H 0.16100 0.69090 0.35350
H21 H 0.29420 0.69600 0.30010
C17 C 0.1942(5) 0.5866(4) 0.5451(5)
H22 H 0.15980 0.53130 0.50820
H23 H 0.12930 0.63150 0.55790
H24 H 0.23230 0.57010 0.62040
O4 O 0.9394(3) 0.8311(2) 0.9455(3)
C18 C 0.8854(4) 0.8781(3) 1.1424(4)
C19 C 0.6936(5) 0.7732(4) 0.9542(5)
H25 H 0.73010 0.79100 0.87990
H26 H 0.65810 0.82740 0.99130
H27 H 0.62990 0.72730 0.93930
C20 C 1.0154(4) 0.8049(4) 0.6847(4)
H28 H 0.96920 0.75010 0.69260
C21 C 1.1311(4) 0.7518(4) 0.9705(4)
H29 H 1.10700 0.73190 1.04570
C22 C 0.7930(4) 0.7315(4) 1.0365(5)
C23 C 1.1351(5) 0.9289(4) 0.7709(5)
H30 H 1.17170 0.95750 0.83740
C24 C 0.8117(5) 0.9581(4) 1.0882(5)
H31 H 0.72910 0.93700 1.06880
H32 H 0.85130 0.97930 1.01690
H33 H 0.80780 1.00880 1.14450
C25 C 1.0714(4) 0.8459(3) 0.7840(4)
O5 O 1.3158(3) 0.6818(3) 1.0013(3)
C26 C 0.8237(5) 0.8428(4) 1.2585(5)
H34 H 0.88280 0.80400 1.30240
H35 H 0.80470 0.89660 1.30810
N3 N 0.9026(3) 0.7940(3) 1.0642(3)
C27 C 1.0529(4) 0.8043(3) 0.9058(4)
N4 N 1.2510(4) 0.7247(3) 0.9287(4)
O6 O 1.2858(4) 0.7431(4) 0.8277(4)
C28 C 1.1452(5) 0.9707(4) 0.6582(5)
H36 H 1.18890 1.02650 0.64970
C29 C 1.0287(5) 0.8465(4) 0.5726(4)
H37 H 0.99470 0.81730 0.50530
C30 C 1.0905(4) 0.9288(4) 0.5604(5)
H38 H 1.09570 0.95680 0.48560
C31 C 0.7055(6) 0.7866(5) 1.2370(5)
H39 H 0.64290 0.82560 1.19810
H40 H 0.67310 0.76470 1.31240
C32 C 0.7372(5) 0.7032(5) 1.1575(5)
H41 H 0.79600 0.66320 1.19990
H42 H 0.66240 0.66680 1.14240
C33 C 1.0157(5) 0.9136(4) 1.1734(5)
H43 H 1.06370 0.86360 1.20840
H44 H 1.01040 0.96460 1.22910
H45 H 1.05500 0.93500 1.10200
C34 C 0.8454(5) 0.6434(4) 0.9768(5)
H46 H 0.88020 0.66000 0.90130
H47 H 0.77990 0.59850 0.96440
H48 H 0.90890 0.61640 1.02750
#END
