
#######################################################################
#
#                 Cambridge Crystallographic Data Centre
#                                CCDC
#
#######################################################################
#
# If this CIF has been generated from an entry in the Cambridge
# Structural Database, then it will include bibliographic, chemical,
# crystal, experimental, refinement or atomic coordinate data resulting
# from the CCDC's data processing and validation procedures.
#
#######################################################################

data_CSD_CIF_DOZXEW
_audit_creation_date 2009-10-09
_audit_creation_method CSD-ConQuest-V1
_database_code_CSD DOZXEW
_database_code_depnum_ccdc_archive 'CCDC 723621'
_chemical_formula_sum 'C8 H7 N1 O3'
_chemical_formula_moiety
;
C8 H7 N1 O3
;
_journal_coden_Cambridge 35
_journal_volume 74
_journal_year 2009
_journal_page_first 1275
_journal_name_full 'J.Org.Chem. '
loop_
_publ_author_name
"A.Ito"
"H.Muratake"
"K.Shudo"
_chemical_name_systematic
;
5-(Methoxyimino)-3,6-cycloheptadiene-1,2-dione
;
_chemical_melting_point 396.15
_cell_volume    745.623
_exptl_crystal_colour 'colorless'
_exptl_crystal_density_diffrn 1.471
_exptl_special_details
;
Melting point range 396.15-398.15K

;
_exptl_crystal_description 'prismatic'
_exptl_crystal_preparation 'dichloromethane/hexane'
_diffrn_ambient_temperature 90
_refine_special_details
;
The methoxyimino group is disordered over two sites.

;
#These two values have been output from a single CSD field.
_refine_ls_R_factor_gt 0.0516
_refine_ls_wR_factor_gt 0.0516
_symmetry_cell_setting monoclinic
_symmetry_space_group_name_H-M 'P 21/c'
_symmetry_Int_Tables_number 14
loop_
_symmetry_equiv_pos_site_id
_symmetry_equiv_pos_as_xyz
1 x,y,z
2 -x,1/2+y,1/2-z
3 -x,-y,-z
4 x,-1/2-y,-1/2+z
_cell_length_a 7.6917(11)
_cell_length_b 6.6864(10)
_cell_length_c 14.498(2)
_cell_angle_alpha 90
_cell_angle_beta 90.221(2)
_cell_angle_gamma 90
_cell_formula_units_Z 4
loop_
_atom_type_symbol
_atom_type_radius_bond
C 0.68
H 0.23
N 0.68
O 0.68
loop_
_atom_site_label
_atom_site_type_symbol
_atom_site_fract_x
_atom_site_fract_y
_atom_site_fract_z
C1 C -0.2651(2) 0.2566(2) 0.65799(11)
C2 C -0.3919(2) 0.3509(3) 0.72749(12)
C3 C -0.3533(3) 0.3765(3) 0.82521(12)
H1 H -0.44700 0.42650 0.86100
C4 C -0.2079(3) 0.3409(3) 0.87224(12)
H2 H -0.21800 0.35670 0.93710
C5 C -0.0375(3) 0.2825(3) 0.84137(13)
C6 C 0.0217(2) 0.2728(3) 0.74570(15)
H3 H 0.14410 0.27170 0.73720
C7 C -0.0749(2) 0.2652(3) 0.66806(12)
H4 H -0.01140 0.26540 0.61200
C8 C 0.3198(3) 0.1746(4) 0.97982(16)
H5 H 0.333(3) 0.299(3) 1.0061(15)
H6 H 0.439(3) 0.123(4) 0.9562(17)
H7 H 0.270(3) 0.084(4) 1.0211(17)
N1 N 0.0570(3) 0.2490(3) 0.91621(15)
O1 O -0.32903(17) 0.1809(2) 0.58955(8)
O2 O -0.53313(16) 0.4014(2) 0.69709(10)
O3 O 0.2213(2) 0.1885(3) 0.89236(12)
N2? N 0.1511(12) 0.2461(12) 0.8646(5)
O4? O 0.1310(8) 0.2287(10) 0.9622(4)
#END
