
#######################################################################
#
#                 Cambridge Crystallographic Data Centre
#                                CCDC
#
#######################################################################
#
# If this CIF has been generated from an entry in the Cambridge
# Structural Database, then it will include bibliographic, chemical,
# crystal, experimental, refinement or atomic coordinate data resulting
# from the CCDC's data processing and validation procedures.
#
#######################################################################

data_CSD_CIF_DOZXIA
_audit_creation_date 2009-10-09
_audit_creation_method CSD-ConQuest-V1
_database_code_CSD DOZXIA
_database_code_depnum_ccdc_archive 'CCDC 723622'
_chemical_formula_sum 'C12 H15 N1 O5'
_chemical_formula_moiety
;
C12 H15 N1 O5
;
_journal_coden_Cambridge 35
_journal_volume 74
_journal_year 2009
_journal_page_first 1275
_journal_name_full 'J.Org.Chem. '
loop_
_publ_author_name
"A.Ito"
"H.Muratake"
"K.Shudo"
_chemical_name_systematic
;
N-Methoxy-8,11,12,15-tetraoxatricyclo[5.4.4.0^1,7^]pentadeca-2,5-dien-4-imine
;
_chemical_melting_point 371.15
_cell_volume   1168.724
_exptl_crystal_colour 'colorless'
_exptl_crystal_density_diffrn 1.439
_exptl_special_details
;
Melting point range 371.15-373.15K

;
_exptl_crystal_description 'plate'
_exptl_crystal_preparation 'ether/hexane'
_diffrn_ambient_temperature 90
#These two values have been output from a single CSD field.
_refine_ls_R_factor_gt 0.0381
_refine_ls_wR_factor_gt 0.0381
_symmetry_cell_setting monoclinic
_symmetry_space_group_name_H-M 'P 21/c'
_symmetry_Int_Tables_number 14
loop_
_symmetry_equiv_pos_site_id
_symmetry_equiv_pos_as_xyz
1 x,y,z
2 -x,1/2+y,1/2-z
3 -x,-y,-z
4 x,-1/2-y,-1/2+z
_cell_length_a 12.4729(13)
_cell_length_b 6.9341(7)
_cell_length_c 14.2423(15)
_cell_angle_alpha 90
_cell_angle_beta 108.414(2)
_cell_angle_gamma 90
_cell_formula_units_Z 4
loop_
_atom_type_symbol
_atom_type_radius_bond
C 0.68
H 0.23
N 0.68
O 0.68
loop_
_atom_site_label
_atom_site_type_symbol
_atom_site_fract_x
_atom_site_fract_y
_atom_site_fract_z
C1 C 0.30141(11) 0.17856(18) 0.53361(9)
C2 C 0.33765(10) 0.09505(18) 0.64040(9)
C3 C 0.32394(11) 0.2302(2) 0.71930(9)
C4 C 0.22921(11) 0.31449(19) 0.72216(10)
C5 C 0.11967(11) 0.31444(18) 0.64324(10)
C6 C 0.10764(11) 0.30442(19) 0.53776(10)
C7 C 0.18337(11) 0.25797(19) 0.49339(10)
C8 C 0.49220(11) 0.2644(2) 0.55392(10)
C9 C 0.52746(11) 0.18572(19) 0.65786(10)
C10 C 0.24468(12) -0.1393(2) 0.47255(10)
C11 C 0.28032(12) -0.2194(2) 0.57611(11)
C12 C -0.07256(11) 0.3632(2) 0.77262(11)
N1 N 0.02362(10) 0.33972(17) 0.65910(8)
O1 O 0.37553(8) 0.32652(13) 0.52571(7)
O2 O 0.45241(7) 0.03343(13) 0.66536(7)
O3 O 0.31161(8) 0.02744(13) 0.46778(7)
O4 O 0.27324(8) -0.07002(13) 0.64487(7)
O5 O 0.03734(8) 0.35247(15) 0.76014(7)
H1 H 0.39030 0.25800 0.77270
H2 H 0.23270 0.38150 0.78120
H3 H 0.03470 0.33580 0.49430
H4 H 0.15850 0.27870 0.42390
H5 H 0.50090 0.16340 0.50770
H6 H 0.54110 0.37470 0.55030
H7 H 0.60570 0.13570 0.67560
H8 H 0.52590 0.29030 0.70480
H9 H 0.25430 -0.23910 0.42620
H10 H 0.16380 -0.10310 0.45240
H11 H 0.23060 -0.32840 0.57980
H12 H 0.35880 -0.26790 0.59390
H13 H -0.06430 0.39440 0.84170
H14 H -0.11100 0.23880 0.75540
H15 H -0.11720 0.46380 0.72930
#END
