
#######################################################################
#
#                 Cambridge Crystallographic Data Centre
#                                CCDC
#
#######################################################################
#
# If this CIF has been generated from an entry in the Cambridge
# Structural Database, then it will include bibliographic, chemical,
# crystal, experimental, refinement or atomic coordinate data resulting
# from the CCDC's data processing and validation procedures.
#
#######################################################################

data_CSD_CIF_DPBFOO10
_audit_creation_date 1973-04-16
_audit_creation_method CSD-ConQuest-V1
_database_code_CSD DPBFOO10
_chemical_formula_sum 'C16 H17 N1 O3'
_chemical_formula_moiety
;
C16 H17 N1 O3
;
_journal_coeditor_code "IUCr A09376"
_journal_coden_Cambridge 107
_journal_volume 28
_journal_year 1972
_journal_page_first 3190
_journal_name_full 'Acta Crystallogr.,Sect.B:Struct.Crystallogr.Cryst.Chem. '
loop_
_publ_author_name
"N.D.Jones"
"M.O.Chaney"
_chemical_name_systematic
;
6,7-Dihydro-6,6-dimethyl-3-phenylbenzofuran-2,4(3H,5H)-dione 2-oxime
;
_chemical_melting_point 443.15
_cell_volume   1373.743
_exptl_crystal_density_diffrn 1.312
_exptl_special_details
;
Melts with decomposition.

;
_diffrn_ambient_temperature ?
_diffrn_special_details
;
The study was carried out at room temperature,in the range 283-303K

;
#These two values have been output from a single CSD field.
_refine_ls_R_factor_gt 0.044
_refine_ls_wR_factor_gt 0.044
loop_
_citation_database_id_CSD
_citation_special_details
WUTCOE "is a stereoisomer of this entry"
_symmetry_cell_setting monoclinic
_symmetry_space_group_name_H-M 'P 21/n'
_symmetry_Int_Tables_number 14
loop_
_symmetry_equiv_pos_site_id
_symmetry_equiv_pos_as_xyz
1 x,y,z
2 1/2-x,1/2+y,1/2-z
3 -x,-y,-z
4 -1/2+x,-1/2-y,-1/2+z
_cell_length_a 13.158(2)
_cell_length_b 8.657(2)
_cell_length_c 12.205(2)
_cell_angle_alpha 90
_cell_angle_beta 98.84(1)
_cell_angle_gamma 90
_cell_formula_units_Z 4
loop_
_atom_type_symbol
_atom_type_radius_bond
C 0.68
H 0.20
N 0.68
O 0.68
loop_
_atom_site_label
_atom_site_type_symbol
_atom_site_fract_x
_atom_site_fract_y
_atom_site_fract_z
C1 C -0.49400 0.37660 0.33860
C2 C -0.77090 0.76380 0.03500
C3 C -0.58060 0.73270 0.04510
C4 C -0.37900 0.39970 0.33750
C5 C -0.34370 0.47630 0.25160
C6 C -0.23840 0.49370 0.25060
C7 C -0.16830 0.43160 0.33490
C8 C -0.20290 0.35610 0.42090
C9 C -0.53660 0.23590 0.27260
C10 C -0.30810 0.33750 0.42250
C11 C -0.61540 0.43610 0.18380
C12 C -0.68890 0.51210 0.09550
C13 C -0.67360 0.68710 0.09950
C14 C -0.65870 0.74200 0.22150
C15 C -0.57270 0.66130 0.29750
C16 C -0.56180 0.49990 0.27490
H1 H -0.51300 0.36600 0.42600
H2 H -0.67900 0.47900 0.02100
H3 H -0.76100 0.48500 0.11400
H4 H -0.76600 0.88000 0.04400
H5 H -0.83700 0.73100 0.06800
H6 H -0.77300 0.72600 -0.04900
H7 H -0.57100 0.84700 0.05100
H8 H -0.58500 0.68400 -0.03100
H9 H -0.51500 0.67300 0.08200
H10 H -0.64500 0.86000 0.23000
H11 H -0.72200 0.70400 0.26000
H12 H -0.40000 0.53700 0.18900
H13 H -0.21300 0.54900 0.18500
H14 H -0.08900 0.43800 0.33300
H15 H -0.15600 0.31300 0.48200
H16 H -0.33100 0.28900 0.48600
H17 H -0.47800 -0.06000 0.39900
N1 N -0.53410 0.09210 0.28800
O1 O -0.47440 0.05300 0.38960
O2 O -0.51910 0.72800 0.37430
O3 O -0.59820 0.28120 0.17370
#END
