
#######################################################################
#
#                 Cambridge Crystallographic Data Centre
#                                CCDC
#
#######################################################################
#
# If this CIF has been generated from an entry in the Cambridge
# Structural Database, then it will include bibliographic, chemical,
# crystal, experimental, refinement or atomic coordinate data resulting
# from the CCDC's data processing and validation procedures.
#
#######################################################################

data_CSD_CIF_DPISOX
_audit_creation_date 1979-09-20
_audit_creation_method CSD-ConQuest-V1
_database_code_CSD DPISOX
_chemical_formula_sum 'C15 H11 N1 O1'
_chemical_formula_moiety
;
C15 H11 N1 O1
;
_journal_coden_Cambridge 189
_journal_volume 8
_journal_year 1979
_journal_page_first 415
_journal_name_full 'Cryst.Struct.Commun. '
loop_
_publ_author_name
"G.Pelizzi"
"P.Tarasconi"
"G.Ponticelli"
_chemical_name_systematic
;
3,5-Diphenyl-isoxazole
;
_cell_volume   1110.748
_exptl_crystal_density_diffrn 1.323
_diffrn_ambient_temperature ?
_diffrn_special_details
;
The study was carried out at room temperature,in the range 283-303K

;
_refine_special_details
;
The N and O atoms are statistically interchanged between 2 positions related 
by a 2-fold axis.
;
#These two values have been output from a single CSD field.
_refine_ls_R_factor_gt 0.0463
_refine_ls_wR_factor_gt 0.0463
_symmetry_cell_setting monoclinic
_symmetry_space_group_name_H-M 'C 2/c'
_symmetry_Int_Tables_number 15
loop_
_symmetry_equiv_pos_site_id
_symmetry_equiv_pos_as_xyz
1 x,y,z
2 1/2+x,1/2+y,z
3 -x,y,1/2-z
4 1/2-x,1/2+y,1/2-z
5 -x,-y,-z
6 -1/2-x,-1/2-y,-z
7 x,-y,-1/2+z
8 -1/2+x,-1/2-y,-1/2+z
_cell_length_a 27.302(12)
_cell_length_b 5.734(2)
_cell_length_c 7.417(5)
_cell_angle_alpha 90
_cell_angle_beta 106.94(4)
_cell_angle_gamma 90
_cell_formula_units_Z 4
loop_
_atom_type_symbol
_atom_type_radius_bond
C 0.68
H 0.23
N 0.68
loop_
_atom_site_label
_atom_site_type_symbol
_atom_site_fract_x
_atom_site_fract_y
_atom_site_fract_z
N1 N 0.02600 0.43050 0.25300
C1 C 0.13210 0.53960 0.33820
C2 C 0.19460 0.79430 0.27400
C3 C 0.10660 0.91120 0.19070
C4 C 0.00000 0.79980 0.25000
C5 C 0.09370 0.70020 0.26100
C6 C 0.18200 0.58560 0.34510
C7 C 0.15670 0.95480 0.19700
C8 C 0.04050 0.65250 0.25450
H1 H 0.20900 0.47500 0.39500
H2 H 0.16600 1.09000 0.15700
H3 H 0.00000 0.97300 0.25000
H4 H 0.12300 0.39700 0.38700
H5 H 0.23000 0.83800 0.28200
H6 H 0.08100 1.02200 0.14700
N1B N -0.02600 0.43050 0.24700
C8B C -0.04050 0.65250 0.24550
C5B C -0.09370 0.70020 0.23900
C1B C -0.13210 0.53960 0.16180
C6B C -0.18200 0.58560 0.15490
C2B C -0.19460 0.79430 0.22600
C7B C -0.15670 0.95480 0.30300
C3B C -0.10660 0.91120 0.30930
H6B H -0.08100 1.02200 0.35300
H2B H -0.16600 1.09000 0.34300
H5B H -0.23000 0.83800 0.21800
H1B H -0.20900 0.47500 0.10500
H4B H -0.12300 0.39700 0.11300
#END
