
#######################################################################
#
#                 Cambridge Crystallographic Data Centre
#                                CCDC
#
#######################################################################
#
# If this CIF has been generated from an entry in the Cambridge
# Structural Database, then it will include bibliographic, chemical,
# crystal, experimental, refinement or atomic coordinate data resulting
# from the CCDC's data processing and validation procedures.
#
#######################################################################

data_CSD_CIF_DUCRUQ
_audit_creation_date 2015-03-04
_audit_creation_method CSD-ConQuest-V1
_database_code_CSD DUCRUQ
_database_code_depnum_ccdc_archive 'CCDC 953412'
_chemical_formula_sum 'C11 H13 N1 O7'
_chemical_formula_moiety
;
C11 H13 N1 O7
;
_journal_coden_Cambridge 1003
_journal_volume 45
_journal_year 2015
_journal_page_first 1
_journal_name_full 'J.Chem.Cryst. '
loop_
_publ_author_name
"Jean Fotie"
"A.Olvera"
"S.K.Ayer"
"H.Djieutedjeu"
"P.F.P.Poudeu"
_chemical_name_systematic
;
methyl 3,4,5-trimethoxy-2-nitrobenzoate
;
_cell_volume   4818.963
_exptl_crystal_colour 'colorless'
_exptl_crystal_density_diffrn 1.502
_exptl_crystal_description 'needles'
_diffrn_ambient_temperature 293
#These two values have been output from a single CSD field.
_refine_ls_R_factor_gt 0.0324
_refine_ls_wR_factor_gt 0.0324
_symmetry_cell_setting monoclinic
_symmetry_space_group_name_H-M 'C 2/c'
_symmetry_Int_Tables_number 15
loop_
_symmetry_equiv_pos_site_id
_symmetry_equiv_pos_as_xyz
1 x,y,z
2 -x,y,1/2-z
3 1/2+x,1/2+y,z
4 1/2-x,1/2+y,1/2-z
5 -x,-y,-z
6 x,-y,-1/2+z
7 -1/2-x,-1/2-y,-z
8 -1/2+x,-1/2-y,-1/2+z
_cell_length_a 20.520(4)
_cell_length_b 9.7438(19)
_cell_length_c 24.434(5)
_cell_angle_alpha 90
_cell_angle_beta 99.46(3)
_cell_angle_gamma 90
_cell_formula_units_Z 16
loop_
_atom_type_symbol
_atom_type_radius_bond
C 0.68
H 0.23
N 0.68
O 0.68
loop_
_atom_site_label
_atom_site_type_symbol
_atom_site_fract_x
_atom_site_fract_y
_atom_site_fract_z
O1 O -0.00532(4) 0.27930(7) -0.13261(3)
O2 O 0.05386(3) 0.46412(7) -0.14970(3)
O3 O 0.16712(3) 0.31263(7) -0.30757(3)
O4 O 0.16029(4) 0.02450(7) -0.30654(3)
O5 O 0.09617(4) -0.10268(7) -0.23425(3)
O6 O 0.16499(4) 0.51977(7) -0.21172(3)
O7 O 0.07067(4) 0.53203(7) -0.26667(3)
N1 N 0.11418(4) 0.46893(8) -0.23691(3)
C1 C 0.10651(4) 0.31965(9) -0.23284(3)
C2 C 0.07096(4) 0.25794(9) -0.19576(3)
C3 C 0.06721(4) 0.11475(9) -0.19547(4)
H1 H 0.0456(7) 0.0737(14) -0.1696(5)
C4 C 0.09742(5) 0.03639(9) -0.23186(4)
C5 C 0.13114(5) 0.10134(9) -0.27046(4)
C6 C 0.13631(4) 0.24394(9) -0.27018(4)
C7 C 0.03532(4) 0.33270(9) -0.15618(3)
C8 C 0.01905(5) 0.54423(10) -0.11386(4)
H2 H -0.0227(8) 0.5638(16) -0.1322(6)
H3 H 0.0187(7) 0.4947(14) -0.0795(6)
H4 H 0.0454(7) 0.6284(16) -0.1059(6)
C9 C 0.23860(5) 0.30619(11) -0.29479(4)
H5 H 0.2548(7) 0.3554(14) -0.3239(6)
H6 H 0.2536(7) 0.3510(14) -0.2580(6)
H7 H 0.2536(7) 0.2126(15) -0.2938(6)
C10 C 0.12147(7) 0.01175(15) -0.36038(5)
H8 H 0.1456(8) -0.0417(16) -0.3838(6)
H9 H 0.1068(10) 0.097(2) -0.3763(8)
H10 H 0.0751(12) -0.040(2) -0.3556(9)
C11 C 0.06738(6) -0.17275(10) -0.19249(4)
H11 H 0.0910(7) -0.1474(14) -0.1557(6)
H12 H 0.0209(7) -0.1566(14) -0.1959(6)
H13 H 0.0737(7) -0.2685(16) -0.1998(6)
O8 O 0.22109(4) 0.03984(7) -0.11198(3)
O9 O 0.27253(4) 0.23421(7) -0.13106(3)
O10 O 0.08461(3) 0.21603(7) 0.03141(3)
O11 O 0.09625(3) 0.49482(7) 0.02952(3)
O12 O 0.17111(4) 0.61752(7) -0.04144(3)
O13 O 0.08984(4) 0.00654(7) -0.06584(3)
O14 O 0.17559(4) -0.02352(8) -0.00282(4)
N2 N 0.13925(4) 0.04804(8) -0.03552(3)
C12 C 0.15353(4) 0.19627(9) -0.03732(4)
C13 C 0.19471(4) 0.25140(9) -0.07158(4)
C14 C 0.20190(5) 0.39380(9) -0.07244(4)
H14 H 0.2285(7) 0.4317(14) -0.0972(5)
C15 C 0.16944(5) 0.47827(9) -0.03990(4)
C16 C 0.13060(4) 0.42068(9) -0.00329(4)
C17 C 0.12198(4) 0.27773(9) -0.00301(3)
C18 C 0.22987(5) 0.16231(9) -0.10668(4)
C19 C 0.31092(6) 0.15663(11) -0.16500(5)
H15 H 0.2803(7) 0.1062(15) -0.1945(6)
H16 H 0.3396(8) 0.0972(16) -0.1413(6)
H17 H 0.3354(7) 0.2241(15) -0.1827(6)
C20 C 0.01445(5) 0.22544(11) 0.01132(4)
H18 H 0.0043(7) 0.1814(15) -0.0256(6)
H19 H -0.0063(7) 0.1771(15) 0.0377(6)
H20 H -0.0004(7) 0.3224(15) 0.0090(5)
C21 C 0.12789(5) 0.61318(10) 0.05884(4)
H21 H 0.1741(7) 0.5964(14) 0.0710(5)
H22 H 0.1215(7) 0.6933(14) 0.0347(5)
H23 H 0.1059(7) 0.6267(13) 0.0909(5)
C22 C 0.20686(5) 0.68111(10) -0.08039(4)
H24 H 0.1885(7) 0.6527(14) -0.1182(6)
H25 H 0.2006(7) 0.7781(16) -0.0763(6)
H26 H 0.2535(7) 0.6609(14) -0.0719(6)
#END
