
#######################################################################
#
#                 Cambridge Crystallographic Data Centre
#                                CCDC
#
#######################################################################
#
# If this CIF has been generated from an entry in the Cambridge
# Structural Database, then it will include bibliographic, chemical,
# crystal, experimental, refinement or atomic coordinate data resulting
# from the CCDC's data processing and validation procedures.
#
#######################################################################

data_CSD_CIF_DUCRIE
_audit_creation_date 2015-03-04
_audit_creation_method CSD-ConQuest-V1
_database_code_CSD DUCRIE
_database_code_depnum_ccdc_archive 'CCDC 951426'
_chemical_formula_sum 'C20 H25 N3 O4'
_chemical_formula_moiety
;
C20 H25 N3 O4
;
_journal_coden_Cambridge 960
_journal_volume 81
_journal_year 2015
_journal_page_first 57
_journal_name_full 'J.Inclusion Phenom.Macrocyclic Chem. '
loop_
_publ_author_name
"M.Angeles Farran"
"D.S.Maria"
"M.Angeles Garcia"
"R.M.Claramunt"
"G.J.Clarkson"
_chemical_name_systematic
;
9-t-butyl-2-(2,4-dinitrophenyl)-2-azatricyclo[5.3.1.0^3,8^]undec-9-ene
;
_cell_volume   1917.918
_exptl_crystal_colour 'pale orange'
_exptl_crystal_density_diffrn 1.286
_exptl_crystal_description 'rectangular block'
_diffrn_ambient_temperature 210
#These two values have been output from a single CSD field.
_refine_ls_R_factor_gt 0.0539
_refine_ls_wR_factor_gt 0.0539
_symmetry_cell_setting triclinic
_symmetry_space_group_name_H-M 'P -1'
_symmetry_Int_Tables_number 2
loop_
_symmetry_equiv_pos_site_id
_symmetry_equiv_pos_as_xyz
1 x,y,z
2 -x,-y,-z
_cell_length_a 11.4885(2)
_cell_length_b 12.6257(2)
_cell_length_c 14.7269(2)
_cell_angle_alpha 65.327(1)
_cell_angle_beta 81.496(1)
_cell_angle_gamma 84.185(1)
_cell_formula_units_Z 4
loop_
_atom_type_symbol
_atom_type_radius_bond
C 0.68
H 0.23
N 0.68
O 0.68
loop_
_atom_site_label
_atom_site_type_symbol
_atom_site_fract_x
_atom_site_fract_y
_atom_site_fract_z
O1 O 0.25502(17) 0.05092(16) 0.05244(13)
O2 O 0.26929(18) -0.13678(17) 0.10228(14)
O3 O 0.43783(16) -0.29481(15) 0.42472(14)
O4 O 0.3725(2) -0.22521(19) 0.53440(16)
N1 N 0.04816(15) 0.06582(14) 0.20051(12)
N2 N 0.25120(17) -0.04802(18) 0.11839(15)
N3 N 0.37621(18) -0.22472(18) 0.45032(17)
C1 C 0.00061(19) 0.02996(18) 0.12881(16)
H1 H 0.05360 -0.03010 0.11540
C2 C -0.1191(2) -0.01566(18) 0.17370(16)
H2 H -0.13840 -0.09150 0.18610
C3 C -0.1961(2) 0.05892(19) 0.19470(17)
C4 C -0.1405(2) 0.17278(18) 0.17009(16)
H3 H -0.19890 0.22620 0.18800
C5 C -0.0962(2) 0.22954(18) 0.05687(17)
H4 H -0.16450 0.24750 0.01820
C6 C -0.0120(2) 0.13882(19) 0.03155(17)
H5 H -0.04410 0.11850 -0.01690
H6 H 0.06520 0.17170 0.00150
C7 C -0.03353(18) 0.14868(16) 0.22962(15)
H7 H -0.06000 0.11210 0.30270
C8 C 0.0262(2) 0.26177(18) 0.20425(16)
H8 H -0.02850 0.31340 0.22640
H9 H 0.09510 0.24420 0.24100
C9 C 0.0649(2) 0.3243(2) 0.09223(18)
H10 H 0.09530 0.40000 0.07830
H11 H 0.12880 0.27810 0.07200
C10 C -0.0365(3) 0.34286(19) 0.03113(18)
H12 H -0.00690 0.37620 -0.04060
H13 H -0.09470 0.39890 0.04370
C11 C -0.3247(2) 0.0392(2) 0.2358(2)
C12 C -0.4005(2) 0.1329(3) 0.1610(2)
H14 H -0.37880 0.20960 0.15080
H15 H -0.48300 0.12270 0.18750
H16 H -0.38750 0.12540 0.09730
C13 C -0.3468(3) 0.0478(3) 0.3377(2)
H17 H -0.29810 -0.01110 0.38430
H18 H -0.42910 0.03550 0.36410
H19 H -0.32720 0.12460 0.32930
C14 C -0.3573(3) -0.0813(3) 0.2498(3)
H20 H -0.34380 -0.08730 0.18550
H21 H -0.43980 -0.09250 0.27620
H22 H -0.30920 -0.14060 0.29660
C15 C 0.13823(18) 0.00865(16) 0.25361(15)
C16 C 0.22712(18) -0.06197(17) 0.22319(16)
C17 C 0.30312(18) -0.13808(18) 0.28635(17)
H23 H 0.35540 -0.18810 0.26560
C18 C 0.30172(19) -0.14019(18) 0.38100(17)
C19 C 0.2282(2) -0.06166(19) 0.40953(17)
H24 H 0.23290 -0.05870 0.47160
C20 C 0.14945(19) 0.01111(18) 0.34757(16)
H25 H 0.10140 0.06420 0.36770
O5 O 0.03945(14) -0.48112(14) 0.25080(13)
O6 O -0.03482(16) -0.30510(15) 0.19908(13)
O7 O -0.08012(15) -0.13436(14) 0.43867(13)
O8 O 0.01982(16) -0.20685(16) 0.56713(13)
N4 N 0.26731(15) -0.47986(14) 0.31854(13)
N5 N 0.02716(16) -0.38458(16) 0.25313(13)
N6 N -0.00859(17) -0.20595(17) 0.48923(15)
C21 C 0.29126(19) -0.43434(19) 0.20659(16)
H26 H 0.22880 -0.37650 0.17420
C22 C 0.40912(19) -0.38029(19) 0.17599(16)
H27 H 0.41910 -0.30200 0.13100
C23 C 0.49834(19) -0.45123(18) 0.21724(16)
C24 C 0.45749(19) -0.57050(18) 0.28731(18)
H28 H 0.52490 -0.62170 0.31790
C25 C 0.3990(2) -0.6232(2) 0.2267(2)
H29 H 0.45890 -0.62970 0.17340
C26 C 0.2996(2) -0.5375(2) 0.1760(2)
H30 H 0.22470 -0.57670 0.19730
H31 H 0.31630 -0.50950 0.10270
C27 C 0.36376(18) -0.56035(18) 0.36984(17)
H32 H 0.39870 -0.52750 0.40950
C28 C 0.3181(2) -0.68092(18) 0.43912(17)
H33 H 0.25440 -0.67310 0.48840
H34 H 0.38180 -0.73020 0.47590
C29 C 0.2723(3) -0.7397(2) 0.3796(2)
H35 H 0.25350 -0.82000 0.42550
H36 H 0.19900 -0.69840 0.35430
C30 C 0.3560(3) -0.7425(2) 0.2930(2)
H37 H 0.31660 -0.77160 0.25380
H38 H 0.42330 -0.79600 0.31810
C31 C 0.62713(19) -0.4227(2) 0.20116(18)
C32 C 0.6486(2) -0.3004(2) 0.1198(2)
H39 H 0.62800 -0.29550 0.05660
H40 H 0.73110 -0.28410 0.11210
H41 H 0.60050 -0.24370 0.13910
C33 C 0.6620(2) -0.4305(2) 0.3004(2)
H42 H 0.61530 -0.37320 0.31980
H43 H 0.74490 -0.41530 0.29180
H44 H 0.64780 -0.50810 0.35240
C34 C 0.7041(2) -0.5108(3) 0.1692(3)
H45 H 0.69390 -0.58880 0.22160
H46 H 0.78620 -0.49180 0.15840
H47 H 0.68090 -0.50760 0.10730
C35 C 0.18590(18) -0.43210(17) 0.36812(15)
C36 C 0.08261(18) -0.36665(17) 0.32824(15)
C37 C 0.01926(18) -0.29240(18) 0.36699(16)
H48 H -0.04310 -0.24380 0.33470
C38 C 0.04923(19) -0.29109(18) 0.45337(16)
C39 C 0.1347(2) -0.37049(19) 0.50588(16)
H49 H 0.14740 -0.37620 0.56940
C40 C 0.19989(19) -0.43987(18) 0.46504(16)
H50 H 0.25570 -0.49440 0.50210
#END
