
#######################################################################
#
#                 Cambridge Crystallographic Data Centre
#                                CCDC
#
#######################################################################
#
# If this CIF has been generated from an entry in the Cambridge
# Structural Database, then it will include bibliographic, chemical,
# crystal, experimental, refinement or atomic coordinate data resulting
# from the CCDC's data processing and validation procedures.
#
#######################################################################

data_CSD_CIF_DUDHOB
_audit_creation_date 2015-03-04
_audit_creation_method CSD-ConQuest-V1
_database_code_CSD DUDHOB
_database_code_depnum_ccdc_archive 'CCDC 988862'
_chemical_formula_sum 'C12 H13 N5 O4'
_chemical_formula_moiety
;
C12 H13 N5 O4
;
_journal_coden_Cambridge 603
_journal_volume 34
_journal_year 2015
_journal_page_first 26
_journal_name_full 'Jiegou Huaxue(Chin.)(Chin.J.Struct.Chem.) '
loop_
_publ_author_name
"N.A.Muhammad"
"A.Y.Khawaja"
"N.T.Muhammad"
"A.Ifzan"
"M.Murtaza"
_chemical_name_systematic
;
t-butyl 1-(5-nitropyridin-2-yl)-1H-1,2,3-triazole-4-carboxylate
;
_cell_volume   1407.394
_exptl_crystal_density_diffrn 1.375
_diffrn_ambient_temperature 296
#These two values have been output from a single CSD field.
_refine_ls_R_factor_gt 0.0558
_refine_ls_wR_factor_gt 0.0558
_symmetry_cell_setting monoclinic
_symmetry_space_group_name_H-M 'P 21/c'
_symmetry_Int_Tables_number 14
loop_
_symmetry_equiv_pos_site_id
_symmetry_equiv_pos_as_xyz
1 x,y,z
2 -x,1/2+y,1/2-z
3 -x,-y,-z
4 x,-1/2-y,-1/2+z
_cell_length_a 6.8854(5)
_cell_length_b 21.783(2)
_cell_length_c 9.3986(8)
_cell_angle_alpha 90
_cell_angle_beta 93.239(4)
_cell_angle_gamma 90
_cell_formula_units_Z 4
loop_
_atom_type_symbol
_atom_type_radius_bond
C 0.68
H 0.23
N 0.68
O 0.68
loop_
_atom_site_label
_atom_site_type_symbol
_atom_site_fract_x
_atom_site_fract_y
_atom_site_fract_z
O1 O 0.2832(2) 0.14117(7) 0.52424(16)
O2 O 0.2435(3) 0.04472(8) 0.43905(19)
O3 O 0.1971(4) -0.16302(11) 1.4039(3)
O4 O 0.2338(3) -0.22807(11) 1.2366(3)
N1 N 0.2738(3) 0.10166(8) 0.7985(2)
N2 N 0.2687(3) 0.07017(8) 0.9157(2)
N3 N 0.2517(2) 0.00981(7) 0.87928(18)
N4 N 0.2348(2) -0.09307(9) 0.93743(19)
N5 N 0.2188(3) -0.17620(12) 1.2797(3)
C1 C 0.4579(4) 0.15127(12) 0.3050(3)
H1 H 0.44370 0.10830 0.28360
H2 H 0.57510 0.15770 0.36340
H3 H 0.46470 0.17400 0.21790
C2 C 0.0945(4) 0.16029(14) 0.2991(3)
H4 H 0.08680 0.11750 0.27540
H5 H 0.08900 0.18420 0.21320
H6 H -0.01250 0.17120 0.35530
C3 C 0.3041(5) 0.23895(13) 0.4281(3)
H7 H 0.30550 0.26450 0.34480
H8 H 0.42310 0.24450 0.48490
H9 H 0.19590 0.25010 0.48280
C4 C 0.2851(3) 0.17300(11) 0.3838(3)
C5 C 0.2610(3) 0.08150(11) 0.5355(2)
C6 C 0.2599(3) 0.06175(10) 0.6864(2)
C7 C 0.2457(3) 0.00361(10) 0.7364(2)
H10 H 0.23420 -0.03250 0.68380
C8 C 0.2433(2) -0.03609(10) 0.9865(2)
C9 C 0.2436(3) -0.01956(11) 1.1286(2)
H11 H 0.24950 0.02140 1.15670
C10 C 0.2347(3) -0.06595(11) 1.2263(2)
H12 H 0.23410 -0.05740 1.32320
C11 C 0.2269(3) -0.12535(11) 1.1781(2)
C12 C 0.2279(3) -0.13787(11) 1.0345(3)
H13 H 0.22360 -0.17850 1.00420
#END
