
#######################################################################
#
#                 Cambridge Crystallographic Data Centre
#                                CCDC
#
#######################################################################
#
# If this CIF has been generated from an entry in the Cambridge
# Structural Database, then it will include bibliographic, chemical,
# crystal, experimental, refinement or atomic coordinate data resulting
# from the CCDC's data processing and validation procedures.
#
#######################################################################

data_CSD_CIF_DUDMUL
_audit_creation_date 2009-10-09
_audit_creation_method CSD-ConQuest-V1
_database_code_CSD DUDMUL
_database_code_depnum_ccdc_archive 'CCDC 747244'
_chemical_formula_sum 'C10 H15 N1 O1'
_chemical_formula_moiety
;
C10 H15 N1 O1
;
_journal_coeditor_code "IUCr HB5034"
_journal_coden_Cambridge 1370
_journal_volume 65
_journal_year 2009
_journal_page_first o2149
_journal_name_full 'Acta Crystallogr.,Sect.E:Struct.Rep.Online '
loop_
_publ_author_name
"Xian-You Yuan"
"Min Zhang"
"Seik Weng Ng"
_chemical_name_systematic
;
N-Hydroxy-1-(4-isopropenyl-1-cyclohexen-1-yl)methanimine
;
_chemical_name_common
;
4-(1-Methylvinyl)cyclohexene-1-carbaldehyde oxime; Perillartine
;
_chemical_melting_point 374
_cell_volume    488.252
_exptl_crystal_colour 'colorless'
_exptl_crystal_density_diffrn 1.124
_exptl_special_details
;
Melting point range 374-375K

;
_exptl_crystal_description 'block'
_exptl_crystal_preparation 'ethyl acetate'
_diffrn_ambient_temperature 293
_refine_special_details
;
An isopropenyl group is disordered equally over two sites.

;
#These two values have been output from a single CSD field.
_refine_ls_R_factor_gt 0.0433
_refine_ls_wR_factor_gt 0.0433
loop_
_citation_database_id_CSD
_citation_special_details
VEJROR "is a racemate of this entry"
_symmetry_cell_setting triclinic
_symmetry_space_group_name_H-M 'P 1'
_symmetry_Int_Tables_number 1
loop_
_symmetry_equiv_pos_site_id
_symmetry_equiv_pos_as_xyz
1 x,y,z
_cell_length_a 7.2679(6)
_cell_length_b 8.1702(7)
_cell_length_c 8.9426(8)
_cell_angle_alpha 105.150(1)
_cell_angle_beta 95.658(1)
_cell_angle_gamma 104.602(1)
_cell_formula_units_Z 2
loop_
_atom_type_symbol
_atom_type_radius_bond
C 0.68
H 0.23
N 0.68
O 0.68
loop_
_atom_site_label
_atom_site_type_symbol
_atom_site_fract_x
_atom_site_fract_y
_atom_site_fract_z
O1 O 0.5000(4) 0.5002(4) 0.5001(3)
O2 O 0.7482(4) 0.9157(4) 0.6717(4)
N1 N 0.4289(4) 0.6405(4) 0.4831(3)
N2 N 0.8170(4) 0.7770(4) 0.6971(3)
C1 C 0.2564(5) 0.5857(4) 0.4097(4)
H1 H 0.19320 0.46490 0.37750
C2 C 0.1551(5) 0.7069(4) 0.3745(4)
C3 C -0.0246(5) 0.6464(4) 0.2976(4)
H2 H -0.08360 0.52510 0.27060
C4 C -0.1401(5) 0.7574(4) 0.2510(4)
H3 H -0.23860 0.76430 0.31610
H4 H -0.20480 0.70100 0.14250
C5 C -0.0167(5) 0.9448(4) 0.2672(4)
H5 H 0.05720 0.93630 0.18090
C6 C 0.1263(6) 1.0142(4) 0.4182(6)
H6 H 0.05720 1.01760 0.50580
H7 H 0.20130 1.13450 0.42910
C7 C 0.2618(6) 0.9016(5) 0.4248(5)
H8 H 0.35520 0.92370 0.35670
H9 H 0.33200 0.93540 0.53140
C8 C -0.1413(5) 1.0638(4) 0.2484(4)
C9 C -0.2394(18) 1.127(2) 0.3557(11)
H10 H -0.31340 1.19990 0.33660
H11 H -0.23420 1.09940 0.45010
C10 C -0.1478(19) 1.1072(18) 0.0954(12)
H12 H -0.21240 1.00170 0.01070
H13 H -0.01860 1.15410 0.07970
H14 H -0.21670 1.19360 0.09790
C11 C 0.9893(5) 0.8319(4) 0.7688(4)
H15 H 1.05530 0.95180 0.79530
C12 C 1.0866(5) 0.7107(4) 0.8108(4)
C13 C 1.2696(5) 0.7692(4) 0.8782(5)
H16 H 1.33070 0.88980 0.90170
C14 C 1.3864(5) 0.6556(4) 0.9198(5)
H17 H 1.40610 0.67630 1.03280
H18 H 1.51210 0.68890 0.88990
C15 C 1.2887(4) 0.4597(4) 0.8383(4)
H19 H 1.29490 0.43910 0.72620
C16 C 1.0754(4) 0.4179(4) 0.8527(5)
H20 H 1.01340 0.29210 0.80530
H21 H 1.06400 0.44750 0.96310
C17 C 0.9742(5) 0.5210(4) 0.7724(5)
H22 H 0.95230 0.46710 0.65940
H23 H 0.84920 0.51370 0.80410
C18 C 1.3935(4) 0.3442(4) 0.8964(4)
C19 C 1.4889(6) 0.2566(5) 0.8038(5)
H24 H 1.55480 0.18660 0.84010
H25 H 1.49040 0.26460 0.70210
C20 C 1.3869(7) 0.3355(6) 1.0597(5)
H26 H 1.45000 0.25090 1.07860
H27 H 1.25480 0.29980 1.07330
H28 H 1.45160 0.45000 1.13280
H29 H 0.599(5) 0.568(5) 0.568(5)
H30 H 0.641(4) 0.866(5) 0.609(5)
C21? C -0.208(2) 1.157(2) 0.3937(11)
C22? C -0.1413(5) 1.0638(4) 0.2484(4)
C23? C -0.1960(17) 1.0794(19) 0.1074(12)
H31? H -0.27650 1.23500 0.36830
H32? H -0.09810 1.22360 0.47470
H33? H -0.29220 1.07020 0.43030
H34? H -0.27720 1.14870 0.09640
H35? H -0.15290 1.02100 0.02000
#END
