
#######################################################################
#
#                 Cambridge Crystallographic Data Centre
#                                CCDC
#
#######################################################################
#
# If this CIF has been generated from an entry in the Cambridge
# Structural Database, then it will include bibliographic, chemical,
# crystal, experimental, refinement or atomic coordinate data resulting
# from the CCDC's data processing and validation procedures.
#
#######################################################################

data_CSD_CIF_DUDZIL04
_audit_creation_date 2014-07-07
_audit_creation_method CSD-ConQuest-V1
_database_code_CSD DUDZIL04
_database_code_depnum_ccdc_archive 'CCDC 1012401'
_chemical_formula_sum 'C13 H10 N2 O3'
_chemical_formula_moiety
;
C13 H10 N2 O3
;
_journal_coden_Cambridge 1078
_journal_year 2014
_journal_name_full 'CSD Communication(Private Communication) '
loop_
_publ_author_name
"A.Aditya Prasad"
"V.Meenatchi"
"SP.Meenakshisundaram"
_chemical_name_systematic
;
(2-amino-5-nitrophenyl)(phenyl)methanone
;
_chemical_name_common
;
2-amino-5-nitrobenzophenone
;
_chemical_melting_point 443.15
_cell_volume   1111.406
_exptl_crystal_colour 'light yellow'
_exptl_crystal_density_diffrn 1.448
_exptl_special_details
;
polymorph I
contribution from Department of Chemstry, Annamalai University, Chidambaram, 
Tamilnadu, India
;
_exptl_crystal_description 'block'
_exptl_crystal_preparation 'methanol'
_diffrn_ambient_temperature 273.1
#These two values have been output from a single CSD field.
_refine_ls_R_factor_gt 0.035
_refine_ls_wR_factor_gt 0.035
_symmetry_cell_setting monoclinic
_symmetry_space_group_name_H-M 'P 21/c'
_symmetry_Int_Tables_number 14
loop_
_symmetry_equiv_pos_site_id
_symmetry_equiv_pos_as_xyz
1 x,y,z
2 -x,1/2+y,1/2-z
3 -x,-y,-z
4 x,-1/2-y,-1/2+z
_cell_length_a 7.8765(12)
_cell_length_b 11.1455(17)
_cell_length_c 12.7301(19)
_cell_angle_alpha 90
_cell_angle_beta 96.008(2)
_cell_angle_gamma 90
_cell_formula_units_Z 4
loop_
_atom_type_symbol
_atom_type_radius_bond
C 0.68
H 0.23
N 0.68
O 0.68
loop_
_atom_site_label
_atom_site_type_symbol
_atom_site_fract_x
_atom_site_fract_y
_atom_site_fract_z
O1 O 0.80883(12) -0.05398(8) 0.46607(7)
O2 O 0.36730(15) 0.40286(10) 0.43744(8)
N1 N 0.73464(16) -0.03526(11) 0.66905(10)
N2 N 0.36653(14) 0.37108(10) 0.52967(8)
O3 O 0.28060(15) 0.42339(10) 0.59123(9)
C1 C 0.46792(15) 0.26923(11) 0.56701(9)
C2 C 0.76672(15) 0.05150(11) 0.45669(9)
C3 C 0.66104(15) 0.11085(11) 0.53075(9)
C4 C 0.82787(14) 0.12416(10) 0.36893(9)
C5 C 0.56669(15) 0.21211(11) 0.49919(9)
C6 C 0.65223(15) 0.06498(11) 0.63471(9)
C7 C 0.82022(16) 0.07566(12) 0.26814(10)
C8 C 0.55528(16) 0.12903(12) 0.70293(9)
C9 C 0.88974(17) 0.13669(13) 0.18863(10)
C10 C 0.46411(16) 0.22818(12) 0.67052(10)
C11 C 0.97943(18) 0.29365(13) 0.30968(11)
C12 C 0.90598(17) 0.23445(12) 0.3890(1)
C13 C 0.97137(17) 0.24504(13) 0.20951(11)
H1 H 0.5658(16) 0.2418(12) 0.4315(11)
H2 H 0.3956(18) 0.2708(13) 0.7150(11)
H3 H 1.037(2) 0.3676(15) 0.3282(13)
H4 H 0.9123(19) 0.2703(14) 0.4600(13)
H5 H 0.882(2) 0.1018(13) 0.1182(14)
H6 H 0.795(2) -0.0748(15) 0.6266(16)
H7 H 0.742(2) -0.0494(15) 0.7341(15)
H8 H 0.7655(17) -0.0015(14) 0.2548(11)
H9 H 1.0217(19) 0.2852(14) 0.1506(13)
H10 H 0.5546(18) 0.0993(12) 0.7731(13)
#END
