
#######################################################################
#
#                 Cambridge Crystallographic Data Centre
#                                CCDC
#
#######################################################################
#
# If this CIF has been generated from an entry in the Cambridge
# Structural Database, then it will include bibliographic, chemical,
# crystal, experimental, refinement or atomic coordinate data resulting
# from the CCDC's data processing and validation procedures.
#
#######################################################################

data_CSD_CIF_DUDZIL01
_audit_creation_date 1998-08-02
_audit_creation_method CSD-ConQuest-V1
_database_code_CSD DUDZIL01
_database_code_depnum_ccdc_archive 'CCDC 130053'
_chemical_formula_sum 'C13 H10 N2 O3'
_chemical_formula_moiety
;
C13 H10 N2 O3
;
_journal_coeditor_code "IUCr BM1214"
_journal_coden_Cambridge 591
_journal_volume 54
_journal_year 1998
_journal_page_first 856
_journal_name_full 'Acta Crystallogr.,Sect.C:Cryst.Struct.Commun. '
loop_
_publ_author_name
"P.J.Cox"
"A.T.Md.Anisuzzaman"
"R.H.Pryce-Jones"
"G.G.Skellern"
"A.J.Florence"
"N.Shankland"
_chemical_name_systematic
;
2-Amino-5-nitrobenzophenone
;
_cell_volume   1091.813
_exptl_crystal_colour 'yellow'
_exptl_crystal_density_diffrn 1.474
_exptl_special_details
;
2 polymorph

;
_exptl_crystal_description 'needle'
_exptl_crystal_preparation 'aqueous'
_diffrn_ambient_temperature 150
#These two values have been output from a single CSD field.
_refine_ls_R_factor_gt 0.0378
_refine_ls_wR_factor_gt 0.0378
_symmetry_cell_setting monoclinic
_symmetry_space_group_name_H-M 'P 21/c'
_symmetry_Int_Tables_number 14
loop_
_symmetry_equiv_pos_site_id
_symmetry_equiv_pos_as_xyz
1 x,y,z
2 -x,1/2+y,1/2-z
3 -x,-y,-z
4 x,-1/2-y,-1/2+z
_cell_length_a 5.7358(15)
_cell_length_b 14.693(2)
_cell_length_c 13.1120(12)
_cell_angle_alpha 90
_cell_angle_beta 98.87(4)
_cell_angle_gamma 90
_cell_formula_units_Z 4
loop_
_atom_type_symbol
_atom_type_radius_bond
C 0.68
H 0.23
N 0.68
O 0.68
loop_
_atom_site_label
_atom_site_type_symbol
_atom_site_fract_x
_atom_site_fract_y
_atom_site_fract_z
O1 O -0.5359(3) 0.41489(11) 0.05411(12)
O2 O 0.4664(3) 0.15099(11) 0.01306(13)
O3 O 0.4238(3) 0.21949(11) 0.15571(13)
N1 N -0.4736(3) 0.35760(13) -0.13255(14)
H1 H -0.5190(3) 0.34549(13) -0.19671(14)
H2 H -0.5581(3) 0.39209(13) -0.09989(14)
N2 N 0.3572(3) 0.20151(13) 0.0632(2)
C1 C -0.1887(4) 0.34144(14) 0.0220(2)
C2 C -0.2716(4) 0.32282(15) -0.0836(2)
C3 C -0.1347(4) 0.26626(15) -0.1384(2)
H3 H -0.1835(4) 0.25601(15) -0.2084(2)
C4 C 0.0677(4) 0.22643(15) -0.0905(2)
H4 H 0.1551(4) 0.18875(15) -0.1273(2)
C5 C 0.1412(4) 0.24266(14) 0.0130(2)
C6 C 0.0188(4) 0.29928(14) 0.0677(2)
H5 H 0.0750(4) 0.31002(14) 0.1370(2)
C7 C -0.3247(4) 0.39855(15) 0.0832(2)
C8 C -0.2108(4) 0.43948(14) 0.1819(2)
C9 C 0.0056(4) 0.48268(15) 0.1928(2)
H6 H 0.0940(4) 0.48134(15) 0.1390(2)
C10 C 0.0911(4) 0.5278(2) 0.2832(2)
H7 H 0.2356(4) 0.5577(2) 0.2895(2)
C11 C -0.0351(4) 0.5290(2) 0.3634(2)
H8 H 0.0243(4) 0.5593(2) 0.4242(2)
C12 C -0.2514(4) 0.4852(2) 0.3547(2)
H9 H -0.3370(4) 0.4852(2) 0.4094(2)
C13 C -0.3368(4) 0.4418(2) 0.2639(2)
H10 H -0.4831(4) 0.4133(2) 0.2572(2)
#END
