
#######################################################################
#
#                 Cambridge Crystallographic Data Centre
#                                CCDC
#
#######################################################################
#
# If this CIF has been generated from an entry in the Cambridge
# Structural Database, then it will include bibliographic, chemical,
# crystal, experimental, refinement or atomic coordinate data resulting
# from the CCDC's data processing and validation procedures.
#
#######################################################################

data_CSD_CIF_DUFKIZ
_audit_creation_date 2010-02-16
_audit_creation_method CSD-ConQuest-V1
_database_code_CSD DUFKIZ
_database_code_depnum_ccdc_archive 'CCDC 702603'
_chemical_formula_sum 'C37 H41 N8 O2'
_chemical_formula_moiety
;
C37 H41 N8 O2
;
_journal_coden_Cambridge 222
_journal_year 2009
_journal_page_first 3559
_journal_name_full 'Dalton Trans. '
loop_
_publ_author_name
"Zhengliang Lu"
"T.Ladrak"
"O.Roubeau"
"J.van der Toorn"
"S.J.Teat"
"C.Massera"
"P.Gamez"
"J.Reedijk"
_chemical_name_systematic
;
4-(2-(4'-Methyl-2,2'-bipyridin-4-yl)ethoxy)-6-((2,2,6,6-tetramethyl-1-oxylpipe
ridin-4-yl)amino)-N,N-diphenyl-1,3,5-triazin-2-amine
;
_cell_volume   1699.430
_exptl_crystal_colour 'pink'
_exptl_crystal_density_diffrn 1.231
_exptl_crystal_description 'prismatic'
_diffrn_ambient_temperature 293
#These two values have been output from a single CSD field.
_refine_ls_R_factor_gt 0.054
_refine_ls_wR_factor_gt 0.054
_symmetry_cell_setting triclinic
_symmetry_space_group_name_H-M 'P -1'
_symmetry_Int_Tables_number 2
loop_
_symmetry_equiv_pos_site_id
_symmetry_equiv_pos_as_xyz
1 x,y,z
2 -x,-y,-z
_cell_length_a 10.8803(15)
_cell_length_b 11.5566(15)
_cell_length_c 15.819(2)
_cell_angle_alpha 97.708(2)
_cell_angle_beta 108.723(2)
_cell_angle_gamma 110.203(2)
_cell_formula_units_Z 2
loop_
_atom_type_symbol
_atom_type_radius_bond
C 0.68
H 0.23
N 0.68
O 0.68
loop_
_atom_site_label
_atom_site_type_symbol
_atom_site_fract_x
_atom_site_fract_y
_atom_site_fract_z
N1 N 0.42978(16) 0.33947(14) 1.01111(10)
N2 N 0.21029(15) 0.19134(14) 0.88718(10)
N3 N 0.31553(16) 0.12671(14) 1.01815(11)
N4 N 0.10859(16) -0.01512(14) 0.8939(1)
N5 N 0.5815(2) -0.06960(18) 1.41416(13)
N6 N 0.45174(18) -0.29396(18) 1.19293(13)
N7 N 0.31135(17) 0.40261(15) 0.89037(10)
N8 N 0.01928(18) 0.41179(16) 0.64128(11)
O1 O 0.52650(14) 0.27280(12) 1.13110(9)
O2 O -0.08047(17) 0.39813(17) 0.56469(10)
C1 C 0.31702(19) 0.30851(17) 0.92989(12)
C2 C 0.4174(2) 0.24316(18) 1.04921(13)
C3 C 0.21559(19) 0.10537(17) 0.93414(13)
C4 C -0.0074(2) -0.04012(17) 0.80753(13)
C5 C -0.0106(3) -0.1015(2) 0.72627(17)
C6 C -0.1227(4) -0.1240(3) 0.6435(2)
C7 C -0.2282(3) -0.0873(3) 0.6424(2)
C8 C -0.2253(3) -0.0270(3) 0.7228(2)
C9 C -0.1145(2) -0.0029(2) 0.80598(17)
C10 C 0.1070(2) -0.11918(17) 0.93488(12)
C11 C -0.0138(3) -0.1931(2) 0.94495(15)
C12 C -0.0143(3) -0.2920(2) 0.98592(17)
C13 C 0.1047(3) -0.3155(2) 1.01711(16)
C14 C 0.2248(3) -0.2433(2) 1.00524(16)
C15 C 0.2255(3) -0.1461(2) 0.96389(15)
C16 C 0.5101(3) 0.1792(3) 1.1839(2)
C17 C 0.6491(3) 0.1960(3) 1.2485(2)
C18 C 0.6287(2) 0.1036(2) 1.30782(16)
C19 C 0.6568(3) 0.1458(3) 1.39990(17)
C20 C 0.6334(3) 0.0572(3) 1.44935(19)
C21 C 0.5518(2) -0.1115(2) 1.32386(14)
C22 C 0.5753(2) -0.0273(2) 1.27036(17)
C23 C 0.4928(2) -0.2522(2) 1.28521(15)
C24 C 0.4784(2) -0.3360(2) 1.34037(18)
C25 C 0.4208(2) -0.4664(2) 1.30174(19)
C26 C 0.3771(2) -0.5085(3) 1.2061(2)
C27 C 0.3956(3) -0.4203(3) 1.1565(2)
C28 C 0.4048(3) -0.5596(2) 1.3594(2)
H1 H 0.49330 -0.56730 1.38620
H2 H 0.33140 -0.64180 1.32090
H3 H 0.37960 -0.52900 1.40810
C29 C 0.1947(2) 0.38124(18) 0.80356(12)
C30 C 0.2426(2) 0.3931(2) 0.72461(14)
C31 C 0.1196(2) 0.35430(19) 0.63142(13)
C32 C -0.0068(2) 0.44142(19) 0.72615(14)
C33 C 0.1266(2) 0.4735(2) 0.81241(14)
C34 C -0.0420(3) 0.5581(2) 0.72532(17)
H4 H 0.03590 0.62830 0.72370
H5 H -0.05750 0.58190 0.78030
H6 H -0.12670 0.53770 0.67150
C35 C -0.1335(2) 0.3269(2) 0.72249(17)
H7 H -0.21110 0.30110 0.66340
H8 H -0.16240 0.35040 0.77100
H9 H -0.10660 0.25700 0.73080
C36 C 0.0386(3) 0.2093(2) 0.59513(15)
H10 H 0.00520 0.17650 0.64000
H11 H 0.10060 0.17220 0.58460
H12 H -0.04130 0.18770 0.53790
C37 C 0.1756(3) 0.4063(2) 0.56136(15)
H13 H 0.09750 0.38080 0.50250
H14 H 0.24230 0.37280 0.55460
H15 H 0.22220 0.49830 0.58280
H16 H 0.070(2) -0.112(2) 0.7298(16)
H17 H -0.120(3) -0.164(3) 0.594(2)
H18 H -0.313(3) -0.108(3) 0.581(2)
H19 H 0.389(2) 0.4818(19) 0.9201(13)
H20 H -0.304(3) 0.001(2) 0.7239(17)
H21 H -0.117(2) 0.032(2) 0.8633(16)
H22 H -0.096(2) -0.1728(19) 0.9245(14)
H23 H -0.095(3) -0.335(2) 0.9972(16)
H24 H 0.101(2) -0.386(2) 1.0470(15)
H25 H 0.311(3) -0.259(2) 1.0253(15)
H26 H 0.308(2) -0.0984(17) 0.9546(12)
H27 H 0.456(4) 0.189(3) 1.227(2)
H28 H 0.463(4) 0.109(3) 1.147(2)
H29 H 0.700(3) 0.295(3) 1.288(2)
H30 H 0.698(4) 0.175(3) 1.202(2)
H31 H 0.692(2) 0.240(2) 1.4287(16)
H32 H 0.652(3) 0.083(2) 1.5146(18)
H33 H 0.550(2) -0.066(2) 1.2080(15)
H34 H 0.504(2) -0.3030(19) 1.4041(14)
H35 H 0.329(2) -0.603(2) 1.1755(14)
H36 H 0.366(3) -0.447(2) 1.0878(18)
H37 H 0.1228(16) 0.2934(15) 0.7934(10)
H38 H 0.320(2) 0.4795(19) 0.7381(13)
H39 H 0.293(2) 0.338(2) 0.7222(13)
H40 H 0.094(2) 0.4651(17) 0.8654(14)
H41 H 0.200(2) 0.563(2) 0.8217(13)
#END
