
#######################################################################
#
#                 Cambridge Crystallographic Data Centre
#                                CCDC
#
#######################################################################
#
# If this CIF has been generated from an entry in the Cambridge
# Structural Database, then it will include bibliographic, chemical,
# crystal, experimental, refinement or atomic coordinate data resulting
# from the CCDC's data processing and validation procedures.
#
#######################################################################

data_CSD_CIF_DUFPAX
_audit_creation_date 2015-03-05
_audit_creation_method CSD-ConQuest-V1
_database_code_CSD DUFPAX
_database_code_depnum_ccdc_archive 'CCDC 1052355'
_chemical_formula_sum 'C21 H23 N1 O1'
_chemical_formula_moiety
;
C21 H23 N1 O1
;
_journal_coden_Cambridge 119
_journal_volume 1108
_journal_year 2016
_journal_page_first 209
_journal_name_full 'J.Mol.Struct. '
loop_
_publ_author_name
"S.Eryilmaz"
"M.Gul"
"E.Inkaya"
"M.Tas"
_chemical_name_systematic
;
2,9,9-Trimethyl-5-(2-naphthyl)-3-oxa-4-azatricyclo[6.1.1.0^2,6^]dec-4-ene
;
_cell_volume   1751.937
_exptl_crystal_colour 'colorless'
_exptl_crystal_density_diffrn 1.158
_exptl_crystal_description 'block'
_diffrn_ambient_temperature 296
#These two values have been output from a single CSD field.
_refine_ls_R_factor_gt 0.0725
_refine_ls_wR_factor_gt 0.0725
_symmetry_cell_setting orthorhombic
_symmetry_space_group_name_H-M 'P 21 21 21'
_symmetry_Int_Tables_number 19
loop_
_symmetry_equiv_pos_site_id
_symmetry_equiv_pos_as_xyz
1 x,y,z
2 1/2-x,-y,1/2+z
3 1/2+x,1/2-y,-z
4 -x,1/2+y,1/2-z
_cell_length_a 11.0375(8)
_cell_length_b 11.2112(8)
_cell_length_c 14.1578(8)
_cell_angle_alpha 90
_cell_angle_beta 90
_cell_angle_gamma 90
_cell_formula_units_Z 4
loop_
_atom_type_symbol
_atom_type_radius_bond
C 0.68
H 0.23
N 0.68
O 0.68
loop_
_atom_site_label
_atom_site_type_symbol
_atom_site_fract_x
_atom_site_fract_y
_atom_site_fract_z
N1 N -0.3852(4) -0.5006(4) -0.1995(3)
O1 O -0.4002(4) -0.4874(4) -0.2967(3)
C1 C -0.3843(5) -0.5482(5) -0.0043(4)
H1 H -0.33780 -0.48500 -0.02660
C2 C -0.3828(6) -0.5746(5) 0.0892(4)
H2 H -0.33260 -0.53170 0.12950
C3 C -0.4557(5) -0.6654(5) 0.1258(3)
C4 C -0.4590(7) -0.6902(7) 0.2251(4)
H3 H -0.41110 -0.64690 0.26680
C5 C -0.5341(7) -0.7789(8) 0.2575(5)
H4 H -0.53820 -0.79460 0.32200
C6 C -0.6032(7) -0.8446(7) 0.1957(5)
H5 H -0.65190 -0.90550 0.21910
C7 C -0.6018(6) -0.8223(5) 0.0992(4)
H6 H -0.65100 -0.86640 0.05890
C8 C -0.5266(5) -0.7336(5) 0.0631(4)
C9 C -0.5231(5) -0.7048(5) -0.0353(3)
H7 H -0.56900 -0.74950 -0.07750
C10 C -0.4551(5) -0.6146(5) -0.0681(3)
C11 C -0.4561(5) -0.5832(4) -0.1681(3)
C12 C -0.5356(4) -0.6392(4) -0.2426(3)
H8 H -0.52010 -0.72520 -0.24430
C13 C -0.4819(5) -0.5815(4) -0.3323(3)
C14 C -0.4023(6) -0.6648(5) -0.3884(4)
H9 H -0.34460 -0.70180 -0.34700
H10 H -0.36020 -0.62050 -0.43620
H11 H -0.45140 -0.72510 -0.41760
C15 C -0.5770(5) -0.5199(4) -0.3908(4)
H12 H -0.54640 -0.48150 -0.44830
C16 C -0.6502(6) -0.4370(5) -0.3246(5)
H13 H -0.60550 -0.40920 -0.26990
H14 H -0.69100 -0.37190 -0.35650
C17 C -0.6739(5) -0.6179(5) -0.2271(3)
H15 H -0.71460 -0.69440 -0.22270
H16 H -0.68570 -0.57640 -0.16770
C18 C -0.7307(5) -0.5460(5) -0.3056(4)
H17 H -0.81710 -0.52860 -0.29760
C19 C -0.6942(5) -0.5931(5) -0.4045(4)
C20 C -0.6903(6) -0.7280(5) -0.4182(4)
H18 H -0.65070 -0.74610 -0.47690
H19 H -0.77140 -0.75890 -0.41940
H20 H -0.64630 -0.76390 -0.36710
C21 C -0.7739(7) -0.5411(6) -0.4847(5)
H21 H -0.77040 -0.45560 -0.48290
H22 H -0.85620 -0.56670 -0.47620
H23 H -0.74450 -0.56880 -0.54460
#END
