
#######################################################################
#
#                 Cambridge Crystallographic Data Centre
#                                CCDC
#
#######################################################################
#
# If this CIF has been generated from an entry in the Cambridge
# Structural Database, then it will include bibliographic, chemical,
# crystal, experimental, refinement or atomic coordinate data resulting
# from the CCDC's data processing and validation procedures.
#
#######################################################################

data_CSD_CIF_DUGMUN
_audit_creation_date 1987-06-11
_audit_creation_method CSD-ConQuest-V1
_database_code_CSD DUGMUN
_chemical_formula_sum 'C8 H6 N2 O1'
_chemical_formula_moiety
;
C8 H6 N2 O1
;
_journal_coden_Cambridge 82
_journal_volume 27
_journal_year 1986
_journal_page_first 180-1
_journal_name_full 'Zh.Strukt.Khim.(Russ.)(J.Struct.Chem.) '
loop_
_publ_author_name
"A.A.Espenbetov"
"Yu.T.Struchkov"
"L.V.Rybakova"
_chemical_name_systematic
;
(Z)-Hydroxy-imino-phenyl-acetonitrile
;
_cell_volume    715.936
_exptl_crystal_density_diffrn 1.356
_diffrn_ambient_temperature 213.15
#These two values have been output from a single CSD field.
_refine_ls_R_factor_gt 0.045
_refine_ls_wR_factor_gt 0.045
loop_
_citation_database_id_CSD
_citation_special_details
RIJLUT "is a stereoisomer of this entry"
_symmetry_cell_setting monoclinic
_symmetry_space_group_name_H-M 'P 21/c'
_symmetry_Int_Tables_number 14
loop_
_symmetry_equiv_pos_site_id
_symmetry_equiv_pos_as_xyz
1 x,y,z
2 -x,1/2+y,1/2-z
3 -x,-y,-z
4 x,-1/2-y,-1/2+z
_cell_length_a 8.714(5)
_cell_length_b 11.022(5)
_cell_length_c 8.297(3)
_cell_angle_alpha 90
_cell_angle_beta 116.05(4)
_cell_angle_gamma 90
_cell_formula_units_Z 4
loop_
_atom_type_symbol
_atom_type_radius_bond
C 0.68
H 0.23
N 0.68
O 0.68
loop_
_atom_site_label
_atom_site_type_symbol
_atom_site_fract_x
_atom_site_fract_y
_atom_site_fract_z
O1 O 0.9747(4) 0.9836(3) 0.1850(4)
N1 N 0.8142(4) 0.9929(3) 0.0434(4)
N2 N 0.8555(4) 0.7136(3) 0.2376(4)
C1 C 0.7240(5) 0.8970(3) 0.0245(5)
C2 C 0.7961(5) 0.7947(4) 0.1455(5)
C3 C 0.5517(5) 0.8867(3) -0.1201(5)
C4 C 0.4894(6) 0.9735(4) -0.2569(5)
C5 C 0.3274(5) 0.9636(4) -0.3911(5)
C6 C 0.2225(6) 0.8686(4) -0.3947(5)
C7 C 0.2823(5) 0.7827(4) -0.2599(5)
C8 C 0.4454(5) 0.7921(4) -0.1234(5)
H1 H 1.030(7) 1.046(5) 0.190(7)
H2 H 0.574(5) 1.032(4) -0.253(5)
H3 H 0.275(5) 1.021(4) -0.498(5)
H4 H 0.098(5) 0.863(3) -0.489(5)
H5 H 0.198(5) 0.723(4) -0.265(5)
H6 H 0.489(4) 0.731(3) -0.030(4)
#END
