
#######################################################################
#
#                 Cambridge Crystallographic Data Centre
#                                CCDC
#
#######################################################################
#
# If this CIF has been generated from an entry in the Cambridge
# Structural Database, then it will include bibliographic, chemical,
# crystal, experimental, refinement or atomic coordinate data resulting
# from the CCDC's data processing and validation procedures.
#
#######################################################################

data_CSD_CIF_DUGXOS
_audit_creation_date 2000-11-28
_audit_creation_method CSD-ConQuest-V1
_database_code_CSD DUGXOS
_database_code_depnum_ccdc_archive 'CCDC 144113'
_chemical_formula_sum 'C18 H24 N2 O7'
_chemical_formula_moiety
;
C18 H24 N2 O7
;
_journal_coden_Cambridge 10
_journal_volume 83
_journal_year 2000
_journal_page_first 2452
_journal_name_full 'Helv.Chim.Acta '
loop_
_publ_author_name
"A.Schwogler"
"V.Gramlich"
"T.Carell"
_chemical_name_systematic
;
N-(5'-O-Acetyl-2',3'-O-isopropylidene-\a-D-ribofuranosyl)-4,5-dimethyl-2-nitro
benzenamine
;
_chemical_melting_point 430.15
_cell_volume    966.989
_exptl_crystal_colour 'yellow'
_exptl_crystal_density_diffrn 1.306
_exptl_special_details
;
Melting point range 430.15-434.15K

;
_exptl_crystal_description 'needles'
_exptl_crystal_preparation 'ethanol'
_diffrn_ambient_temperature ?
_diffrn_special_details
;
The study was carried out at room temperature,in the range 283-303K

;
#These two values have been output from a single CSD field.
_refine_ls_R_factor_gt 0.029
_refine_ls_wR_factor_gt 0.029
_symmetry_cell_setting monoclinic
_symmetry_space_group_name_H-M 'P 21'
_symmetry_Int_Tables_number 4
loop_
_symmetry_equiv_pos_site_id
_symmetry_equiv_pos_as_xyz
1 x,y,z
2 -x,1/2+y,-z
_cell_length_a 9.133(11)
_cell_length_b 9.852(12)
_cell_length_c 11.247(12)
_cell_angle_alpha 90
_cell_angle_beta 107.15(8)
_cell_angle_gamma 90
_cell_formula_units_Z 2
loop_
_atom_type_symbol
_atom_type_radius_bond
C 0.68
H 0.23
N 0.68
O 0.68
loop_
_atom_site_label
_atom_site_type_symbol
_atom_site_fract_x
_atom_site_fract_y
_atom_site_fract_z
O1 O 0.3765(3) 0.3137(3) 0.7878(3)
O2 O 0.4431(4) -0.0525(4) 0.7612(3)
O3 O 0.1235(3) 0.2742(3) 0.5302(2)
N1 N 0.3466(4) 0.1436(3) 0.5990(3)
H1 H 0.3961(4) 0.1268(3) 0.6795(3)
O4 O -0.0525(4) 0.4355(4) 0.3308(3)
O5 O 0.1357(5) 0.3705(4) 0.2525(3)
N2 N 0.4182(4) -0.1383(5) 0.6779(4)
O6 O 0.4378(5) -0.2605(4) 0.7011(3)
O7 O 0.1579(3) 0.4251(4) 0.7731(3)
C1 C 0.3296(4) 0.0402(4) 0.5147(4)
C2 C 0.3623(5) -0.0975(5) 0.5488(4)
C3 C 0.3393(4) -0.1990(4) 0.4589(5)
H2 H 0.3639(4) -0.2909(4) 0.4857(5)
C4 C 0.2829(5) -0.1733(5) 0.3335(5)
C5 C 0.2518(5) -0.0350(5) 0.2973(4)
C6 C 0.2735(5) 0.0633(5) 0.3851(4)
H3 H 0.2492(5) 0.1549(5) 0.3573(4)
C7 C 0.2887(5) 0.2777(4) 0.5640(4)
H4 H 0.3207(5) 0.3086(4) 0.4946(4)
C8 C 0.3379(5) 0.3789(5) 0.6700(4)
H5 H 0.4198(5) 0.4358(5) 0.6618(4)
C9 C 0.1934(5) 0.4613(5) 0.6627(4)
H6 H 0.2099(5) 0.5571(5) 0.6578(4)
C10 C 0.0738(5) 0.4087(4) 0.5489(4)
H7 H -0.0229(5) 0.4032(4) 0.5662(4)
C11 C 0.0564(5) 0.4959(5) 0.4366(4)
H8 H 0.0219(5) 0.5847(5) 0.4511(4)
H9 H 0.1535(5) 0.5052(5) 0.4206(4)
C12 C 0.2586(6) -0.2854(5) 0.2390(5)
H10 H 0.2856(6) -0.3708(5) 0.2808(5)
H11 H 0.1529(6) -0.2873(5) 0.1902(5)
H12 H 0.3217(6) -0.2696(5) 0.1856(5)
C13 C 0.1921(6) -0.0001(6) 0.1625(4)
H13 H 0.1769(6) 0.0962(6) 0.1533(4)
H14 H 0.2647(6) -0.0285(6) 0.1208(4)
H15 H 0.0963(6) -0.0458(6) 0.1266(4)
C14 C 0.0012(8) 0.3723(5) 0.2460(5)
C15 C -0.1218(7) 0.3029(6) 0.1499(4)
H16 H -0.0886(19) 0.2868(39) 0.0777(16)
H17 H -0.2119(16) 0.3588(20) 0.1276(28)
H18 H -0.1449(35) 0.2178(21) 0.1820(15)
C16 C 0.2922(6) 0.3767(6) 0.8615(4)
C17 C 0.2520(7) 0.2704(7) 0.9423(5)
H19 H 0.1866(44) 0.2035(26) 0.8909(5)
H20 H 0.1996(46) 0.3121(10) 0.9954(30)
H21 H 0.3439(9) 0.2276(33) 0.9924(32)
C18 C 0.3862(7) 0.4924(6) 0.9346(5)
H22 H 0.4086(41) 0.5566(22) 0.8782(5)
H23 H 0.4802(22) 0.4575(8) 0.9891(29)
H24 H 0.3292(20) 0.5365(27) 0.9829(30)
#END
