
#######################################################################
#
#                 Cambridge Crystallographic Data Centre
#                                CCDC
#
#######################################################################
#
# If this CIF has been generated from an entry in the Cambridge
# Structural Database, then it will include bibliographic, chemical,
# crystal, experimental, refinement or atomic coordinate data resulting
# from the CCDC's data processing and validation procedures.
#
#######################################################################

data_CSD_CIF_DUHPEB
_audit_creation_date 1987-06-02
_audit_creation_method CSD-ConQuest-V1
_database_code_CSD DUHPEB
_chemical_formula_sum 'C19 H15 N3 O8'
_chemical_formula_moiety
;
C19 H15 N3 O8
;
_journal_coden_Cambridge 154
_journal_volume 38
_journal_year 1985
_journal_page_first 1613
_journal_name_full 'Aust.J.Chem. '
loop_
_publ_author_name
"M.P.Hartshorn"
"R.J.Martyn"
"W.T.Robinson"
"K.H.Sutton"
"J.Vaughan"
"J.M.White"
_chemical_name_systematic
;
r-4-Hydroxy-4-methyl-c-5,c-6-dinitro-2-(2'-nitrophenyl)-6-phenylcyclohex-2-eno
ne
;
_chemical_melting_point 441.65
_cell_volume   3634.499
_exptl_crystal_colour 'colorless'
_exptl_crystal_density_diffrn 1.51
_exptl_special_details
;
Melts with decomposition.
Z for O72 is given as 1.8722 in the paper and as 1.0301 in the supplementary 
data; the latter is believed to be correct
;
_diffrn_ambient_temperature 173
#These two values have been output from a single CSD field.
_refine_ls_R_factor_gt 0.1
_refine_ls_wR_factor_gt 0.1
_symmetry_cell_setting orthorhombic
_symmetry_space_group_name_H-M 'P b c a'
_symmetry_Int_Tables_number 61
loop_
_symmetry_equiv_pos_site_id
_symmetry_equiv_pos_as_xyz
1 x,y,z
2 1/2-x,-y,1/2+z
3 1/2+x,1/2-y,-z
4 -x,1/2+y,1/2-z
5 -x,-y,-z
6 -1/2+x,y,-1/2-z
7 -1/2-x,-1/2+y,z
8 x,-1/2-y,-1/2+z
_cell_length_a 14.841(4)
_cell_length_b 13.951(3)
_cell_length_c 17.554(6)
_cell_angle_alpha 90
_cell_angle_beta 90
_cell_angle_gamma 90
_cell_formula_units_Z 8
loop_
_atom_type_symbol
_atom_type_radius_bond
C 0.68
H 0.23
N 0.68
O 0.68
loop_
_atom_site_label
_atom_site_type_symbol
_atom_site_fract_x
_atom_site_fract_y
_atom_site_fract_z
C1 C 0.4920(9) 0.0364(8) 1.2150(7)
C2 C 0.5599(8) 0.0098(7) 1.1532(8)
C3 C 0.5946(8) -0.0770(8) 1.1503(8)
C4 C 0.5741(8) -0.1579(8) 1.2013(7)
C5 C 0.4889(9) -0.1384(8) 1.2541(9)
C6 C 0.4856(8) -0.0356(7) 1.2815(7)
C7 C 0.5374(9) 0.1464(8) 1.0565(8)
C8 C 0.5727(9) 0.2192(8) 1.0133(8)
C9 C 0.6649(9) 0.2449(9) 1.0211(8)
C10 C 0.7138(9) 0.1917(8) 1.0714(8)
C11 C 0.6805(8) 0.1188(8) 1.1119(7)
C12 C 0.5920(8) 0.0906(8) 1.1058(7)
C13 C 0.6550(7) -0.1859(8) 1.2515(7)
C14 C 0.6297(6) 0.0465(5) 1.3283(4)
C15 C 0.6983(6) 0.0553(5) 1.3821(4)
C16 C 0.6964(6) -0.0004(5) 1.4481(4)
C17 C 0.6260(6) -0.0648(5) 1.4602(4)
C18 C 0.5574(6) -0.0736(5) 1.4063(4)
C19 C 0.5592(6) -0.0179(5) 1.3404(4)
N1 N 0.4054(7) -0.1621(8) 1.2060(6)
N2 N 0.3957(7) -0.0162(9) 1.3252(6)
N3 N 0.4420(7) 0.1208(7) 1.0452(5)
O1 O 0.4522(5) 0.1125(6) 1.2130(4)
O2 O 0.5526(5) -0.2375(6) 1.1529(5)
O3 O 0.3709(6) -0.2392(7) 1.2131(5)
O4 O 0.3777(5) -0.0977(6) 1.1634(5)
O5 O 0.3418(6) -0.0814(7) 1.3293(6)
O6 O 0.3887(6) 0.0625(7) 1.3517(5)
O7 O 0.4203(6) 0.0378(6) 1.0496(5)
O8 O 0.3918(6) 0.1872(7) 1.0301(6)
H1 H 0.53510 0.25270 0.97760
H2 H 0.69110 0.29670 0.99270
H3 H 0.77620 0.20750 1.07810
H4 H 0.71950 0.08520 1.14630
H5 H 0.67050 -0.13300 1.28400
H6 H 0.70550 -0.20150 1.21970
H7 H 0.63940 -0.24040 1.28220
H8 H 0.63100 0.08480 1.28280
H9 H 0.74670 0.09960 1.37380
H10 H 0.74360 0.00560 1.48520
H11 H 0.62470 -0.10320 1.50560
H12 H 0.50890 -0.11790 1.41470
H13 H 0.4789(70) -0.1913(45) 1.2880(43)
H14 H 0.5597(76) -0.2980(39) 1.1783(57)
#END
