
#######################################################################
#
#                 Cambridge Crystallographic Data Centre
#                                CCDC
#
#######################################################################
#
# If this CIF has been generated from an entry in the Cambridge
# Structural Database, then it will include bibliographic, chemical,
# crystal, experimental, refinement or atomic coordinate data resulting
# from the CCDC's data processing and validation procedures.
#
#######################################################################

data_CSD_CIF_DUHPUR
_audit_creation_date 1987-06-02
_audit_creation_method CSD-ConQuest-V1
_database_code_CSD DUHPUR
_chemical_formula_sum 'C19 H16 N2 O6'
_chemical_formula_moiety
;
C19 H16 N2 O6
;
_journal_coden_Cambridge 154
_journal_volume 38
_journal_year 1985
_journal_page_first 1613
_journal_name_full 'Aust.J.Chem. '
loop_
_publ_author_name
"M.P.Hartshorn"
"R.J.Martyn"
"W.T.Robinson"
"K.H.Sutton"
"J.Vaughan"
"J.M.White"
_chemical_name_systematic
;
t-6-Hydroxy-4-methyl-r-4,t-5-dinitro-2,6-diphenylcyclohex-2-enone
;
_chemical_melting_point 408.15
_cell_volume   3521.851
_exptl_crystal_colour 'colorless'
_exptl_crystal_density_diffrn 1.39
_exptl_special_details
;
Melts with decomposition.

;
_diffrn_ambient_temperature ?
_diffrn_special_details
;
The study was carried out at room temperature,in the range 283-303K

;
#These two values have been output from a single CSD field.
_refine_ls_R_factor_gt 0.058
_refine_ls_wR_factor_gt 0.058
_symmetry_cell_setting monoclinic
_symmetry_space_group_name_H-M 'P 21/c'
_symmetry_Int_Tables_number 14
loop_
_symmetry_equiv_pos_site_id
_symmetry_equiv_pos_as_xyz
1 x,y,z
2 -x,1/2+y,1/2-z
3 -x,-y,-z
4 x,-1/2-y,-1/2+z
_cell_length_a 7.725(1)
_cell_length_b 27.317(3)
_cell_length_c 16.844(2)
_cell_angle_alpha 90
_cell_angle_beta 97.77(2)
_cell_angle_gamma 90
_cell_formula_units_Z 8
loop_
_atom_type_symbol
_atom_type_radius_bond
C 0.68
H 0.23
N 0.68
O 0.68
loop_
_atom_site_label
_atom_site_type_symbol
_atom_site_fract_x
_atom_site_fract_y
_atom_site_fract_z
C1 C -0.0411(5) 0.0812(2) 0.0697(3)
C2 C -0.2316(5) 0.0855(2) 0.0721(2)
C3 C -0.2867(5) 0.1047(2) 0.1373(3)
C4 C -0.1740(6) 0.1276(2) 0.2063(2)
C5 C 0.0207(6) 0.1309(2) 0.1959(3)
C6 C 0.0844(5) 0.0885(2) 0.1481(3)
C7 C -0.3541(5) 0.0714(2) 0.0004(2)
C8 C -0.4972(6) 0.1013(2) -0.0241(3)
C9 C -0.6133(7) 0.0893(2) -0.0910(3)
C10 C -0.5879(7) 0.0475(2) -0.1342(3)
C11 C -0.4482(6) 0.0177(2) -0.1109(3)
C12 C -0.3299(6) 0.0294(2) -0.0439(3)
C13 C -0.2499(6) 0.1764(2) 0.2293(3)
C14 C 0.1055(6) 0.0421(2) 0.1991(3)
C15 C 0.2183(7) 0.0440(2) 0.2711(3)
C16 C 0.2452(8) 0.0018(2) 0.3180(4)
C17 C 0.1634(7) -0.0408(2) 0.2929(3)
C18 C 0.0577(7) -0.0436(2) 0.2208(3)
C19 C 0.0269(6) -0.0015(2) 0.1745(3)
N1 N -0.1803(6) 0.0940(2) 0.2811(2)
N2 N 0.0510(5) 0.1780(1) 0.1529(3)
O1 O 0.0221(4) 0.0717(1) 0.0092(2)
O2 O -0.2792(5) 0.0591(1) 0.2738(2)
O3 O -0.0906(5) 0.1060(1) 0.3436(2)
O4 O -0.0219(5) 0.1843(1) 0.0850(2)
O5 O 0.1515(5) 0.2071(1) 0.1893(2)
O6 O 0.2506(4) 0.1030(1) 0.1273(2)
H1 H -0.51540 0.13040 0.00570
H2 H -0.71180 0.11010 -0.10760
H3 H -0.66880 0.03940 -0.13070
H4 H -0.43170 -0.01140 -0.14080
H5 H -0.23120 0.00860 -0.02810
H6 H -0.24990 0.19920 0.18600
H7 H -0.18010 0.18910 0.27630
H8 H -0.36750 0.17150 0.24030
H9 H 0.27690 0.07390 0.28820
H10 H 0.32140 0.00280 0.36890
H11 H 0.18010 -0.06930 0.32630
H12 H 0.00570 -0.07410 0.20250
H13 H -0.05010 -0.00300 0.12430
H14 H -0.4105(43) 0.1074(12) 0.1374(19)
H15 H 0.0919(46) 0.1359(12) 0.2475(20)
H16 H 0.2479(71) 0.0939(20) 0.0629(33)
C20 C 0.4954(6) 0.1978(2) 0.6552(3)
C21 C 0.6800(6) 0.1814(2) 0.6602(3)
C22 C 0.7418(6) 0.1687(2) 0.5928(3)
C23 C 0.6497(6) 0.1747(2) 0.5093(3)
C24 C 0.4673(6) 0.1973(2) 0.5057(3)
C25 C 0.3735(6) 0.1857(2) 0.5784(3)
C26 C 0.7925(6) 0.1816(2) 0.7391(3)
C27 C 0.9680(6) 0.1939(2) 0.7429(3)
C28 C 1.0753(7) 0.1955(2) 0.8151(3)
C29 C 1.0089(7) 0.1850(2) 0.8860(3)
C30 C 0.8365(6) 0.1723(3) 0.8823(3)
C31 C 0.7274(6) 0.1709(2) 0.8104(3)
C32 C 0.7666(6) 0.2017(2) 0.4577(3)
C33 C 0.3190(6) 0.1316(2) 0.5773(3)
C34 C 0.2083(6) 0.1148(2) 0.5117(3)
C35 C 0.1551(7) 0.0655(2) 0.5081(3)
C36 C 0.2139(7) 0.0341(2) 0.5689(3)
C37 C 0.3214(7) 0.0510(2) 0.6341(3)
C38 C 0.3733(6) 0.0995(2) 0.6387(3)
N3 N 0.6217(6) 0.1230(2) 0.4705(3)
N4 N 0.4811(5) 0.2523(1) 0.4988(2)
O7 O 0.4395(4) 0.2201(1) 0.7086(2)
O8 O 0.5380(5) 0.1212(1) 0.4040(2)
O9 O 0.6911(6) 0.0886(1) 0.5067(2)
O10 O 0.4268(5) 0.2709(1) 0.4350(2)
O11 O 0.5473(5) 0.2753(1) 0.5576(2)
O12 O 0.2211(4) 0.2148(1) 0.5721(2)
H17 H 1.01520 0.20140 0.69450
H18 H 1.19640 0.20380 0.81650
H19 H 1.08270 0.18660 0.93660
H20 H 0.79060 0.16430 0.93080
H21 H 0.60630 0.16260 0.80950
H22 H 0.70650 0.23430 0.47800
H23 H 0.70940 0.20340 0.40350
H24 H 0.87530 0.18450 0.45900
H25 H 0.16780 0.13670 0.46860
H26 H 0.07710 0.05400 0.46270
H27 H 0.17970 0.00030 0.56590
H28 H 0.36140 0.02910 0.67720
H29 H 0.44800 0.11090 0.68530
H30 H 0.8665(50) 0.1594(14) 0.5922(22)
H31 H 0.4051(42) 0.1875(11) 0.4585(19)
H32 H 0.2381(61) 0.2330(17) 0.6156(27)
#END
