
#######################################################################
#
#                 Cambridge Crystallographic Data Centre
#                                CCDC
#
#######################################################################
#
# If this CIF has been generated from an entry in the Cambridge
# Structural Database, then it will include bibliographic, chemical,
# crystal, experimental, refinement or atomic coordinate data resulting
# from the CCDC's data processing and validation procedures.
#
#######################################################################

data_CSD_CIF_DUHPIF
_audit_creation_date 1987-06-02
_audit_creation_method CSD-ConQuest-V1
_database_code_CSD DUHPIF
_chemical_formula_sum 'C19 H16 N2 O6'
_chemical_formula_moiety
;
C19 H16 N2 O6
;
_journal_coden_Cambridge 154
_journal_volume 38
_journal_year 1985
_journal_page_first 1613
_journal_name_full 'Aust.J.Chem. '
loop_
_publ_author_name
"M.P.Hartshorn"
"R.J.Martyn"
"W.T.Robinson"
"K.H.Sutton"
"J.Vaughan"
"J.M.White"
_chemical_name_systematic
;
r-4-Hydroxy-4-methyl-c-5,c-6-dinitro-2,6-diphenylcyclohex-2-enone
;
_chemical_melting_point 443.15
_cell_volume   1783.862
_exptl_crystal_colour 'colorless'
_exptl_crystal_density_diffrn 1.37
_exptl_special_details
;
Melts with decomposition.

;
_diffrn_ambient_temperature ?
_diffrn_special_details
;
The study was carried out at room temperature,in the range 283-303K

;
#These two values have been output from a single CSD field.
_refine_ls_R_factor_gt 0.055
_refine_ls_wR_factor_gt 0.055
_symmetry_cell_setting monoclinic
_symmetry_space_group_name_H-M 'P 21/c'
_symmetry_Int_Tables_number 14
loop_
_symmetry_equiv_pos_site_id
_symmetry_equiv_pos_as_xyz
1 x,y,z
2 -x,1/2+y,1/2-z
3 -x,-y,-z
4 x,-1/2-y,-1/2+z
_cell_length_a 7.354(2)
_cell_length_b 13.823(4)
_cell_length_c 17.779(6)
_cell_angle_alpha 90
_cell_angle_beta 99.24(3)
_cell_angle_gamma 90
_cell_formula_units_Z 4
loop_
_atom_type_symbol
_atom_type_radius_bond
C 0.68
H 0.23
N 0.68
O 0.68
loop_
_atom_site_label
_atom_site_type_symbol
_atom_site_fract_x
_atom_site_fract_y
_atom_site_fract_z
C1 C -0.0602(8) 0.0077(4) 0.7125(3)
C2 C -0.2333(8) 0.0340(4) 0.6638(3)
C3 C -0.2937(8) 0.1251(4) 0.6622(3)
C4 C -0.2001(10) 0.2105(4) 0.7030(3)
C5 C 0.0029(10) 0.1861(4) 0.7368(3)
C6 C 0.022(1) 0.0840(4) 0.7730(3)
C7 C -0.3402(8) -0.0440(4) 0.6175(3)
C8 C -0.2566(10) -0.1024(14) 0.5701(3)
C9 C -0.3600(9) -0.1726(4) 0.5252(4)
C10 C -0.5400(9) -0.1807(41) 0.5286(4)
C11 C -0.6302(12) -0.1219(5) 0.5720(4)
C12 C -0.5242(9) -0.0522(4) 0.6178(4)
C13 C -0.3101(9) 0.2482(4) 0.7625(4)
C14 C -0.0676(8) 0.0776(4) 0.8449(3)
C15 C -0.0028(9) 0.1405(4) 0.9045(3)
C16 C -0.079(1) 0.1386(5) 0.9704(4)
C17 C -0.2121(10) 0.0723(5) 0.9778(4)
C18 C -0.275(1) 0.0090(5) 0.9196(4)
C19 C -0.1994(8) 0.0109(4) 0.8523(3)
O1 O 0.0123(6) -0.0706(3) 0.7115(2)
O2 O -0.1965(6) 0.2827(3) 0.6454(2)
O3 O 0.1187(7) 0.1271(3) 0.6299(3)
O4 O 0.1984(6) 0.2723(3) 0.6690(3)
O5 O 0.2658(6) -0.0138(3) 0.8329(3)
O6 O 0.3419(8) 0.1173(4) 0.7827(4)
N1 N 0.1164(8) 0.1949(3) 0.6738(3)
N2 N 0.2280(7) 0.0608(4) 0.7977(3)
H1 H -0.12780 -0.09490 0.56790
H2 H -0.30280 -0.21410 0.49260
H3 H -0.60900 -0.23050 0.49900
H4 H -0.76050 -0.12760 0.57130
H5 H -0.58290 -0.01010 0.64960
H6 H -0.31270 0.19990 0.80110
H7 H -0.43360 0.26250 0.73850
H8 H -0.25310 0.30590 0.78520
H9 H 0.09360 0.18580 0.89980
H10 H -0.03670 0.18070 1.01130
H11 H -0.26370 0.07050 1.02410
H12 H -0.37070 -0.03640 0.92530
H13 H -0.23990 -0.03420 0.81200
H14 H 0.00438(48) 0.2314(23) 0.7727(18)
H15 H -0.4012(57) 0.1435(28) 0.6299(23)
H16 H -0.1778(76) 0.3351(37) 0.6722(31)
#END
