
#######################################################################
#
#                 Cambridge Crystallographic Data Centre
#                                CCDC
#
#######################################################################
#
# If this CIF has been generated from an entry in the Cambridge
# Structural Database, then it will include bibliographic, chemical,
# crystal, experimental, refinement or atomic coordinate data resulting
# from the CCDC's data processing and validation procedures.
#
#######################################################################

data_CSD_CIF_DUHRAZ
_audit_creation_date 1987-06-02
_audit_creation_method CSD-ConQuest-V1
_database_code_CSD DUHRAZ
_chemical_formula_sum 'C18 H14 N2 O7'
_chemical_formula_moiety
;
C18 H14 N2 O7
;
_journal_coden_Cambridge 154
_journal_volume 38
_journal_year 1985
_journal_page_first 1613
_journal_name_full 'Aust.J.Chem. '
loop_
_publ_author_name
"M.P.Hartshorn"
"R.J.Martyn"
"W.T.Robinson"
"K.H.Sutton"
"J.Vaughan"
"J.M.White"
_chemical_name_systematic
;
r-2,c-6-Dihydroxy-4,c-5-dinitro-2,6-diphenylcyclohex-3-enone
;
_chemical_melting_point 434.15
_cell_volume   3424.116
_exptl_crystal_colour 'colorless'
_exptl_crystal_density_diffrn 1.44
_exptl_special_details
;
Melts with decomposition.

;
_diffrn_ambient_temperature 140
#These two values have been output from a single CSD field.
_refine_ls_R_factor_gt 0.062
_refine_ls_wR_factor_gt 0.062
_symmetry_cell_setting orthorhombic
_symmetry_space_group_name_H-M 'P 21 21 21'
_symmetry_Int_Tables_number 19
loop_
_symmetry_equiv_pos_site_id
_symmetry_equiv_pos_as_xyz
1 x,y,z
2 1/2+x,1/2-y,-z
3 -x,1/2+y,1/2-z
4 1/2-x,-y,1/2+z
_cell_length_a 13.185(2)
_cell_length_b 13.951(5)
_cell_length_c 18.615(5)
_cell_angle_alpha 90
_cell_angle_beta 90
_cell_angle_gamma 90
_cell_formula_units_Z 8
loop_
_atom_type_symbol
_atom_type_radius_bond
C 0.68
H 0.23
N 0.68
O 0.68
loop_
_atom_site_label
_atom_site_type_symbol
_atom_site_fract_x
_atom_site_fract_y
_atom_site_fract_z
C1 C 0.3345(6) 0.6688(5) 0.1673(4)
C2 C 0.4317(6) 0.6152(6) 0.1492(4)
C3 C 0.4318(7) 0.5205(6) 0.1858(4)
C4 C 0.3590(7) 0.4862(6) 0.2222(5)
C5 C 0.2577(7) 0.5331(6) 0.2349(5)
C6 C 0.2363(6) 0.6099(6) 0.1774(4)
C7 C 0.4389(5) 0.6051(3) 0.0690(3)
C8 C 0.4452(5) 0.6882(3) 0.0276(3)
C9 C 0.4501(5) 0.6818(3) -0.0471(3)
C10 C 0.4487(5) 0.5923(3) -0.0804(3)
C11 C 0.4424(5) 0.5091(3) -0.0390(3)
C12 C 0.4375(5) 0.5155(3) 0.0357(3)
C13 C 0.2032(5) 0.5659(3) 0.1064(3)
C14 C 0.1886(5) 0.6300(3) 0.0499(3)
C15 C 0.1552(5) 0.5966(3) -0.0167(3)
C16 C 0.1365(5) 0.4992(3) -0.0267(3)
C17 C 0.1511(5) 0.4350(3) 0.0298(3)
C18 C 0.1844(5) 0.4684(3) 0.0964(3)
O1 O 0.3319(4) 0.7552(4) 0.1740(3)
O2 O 0.5155(4) 0.6667(4) 0.1759(4)
O3 O 0.4488(6) 0.3476(5) 0.2469(5)
O4 O 0.3041(7) 0.3658(5) 0.2978(4)
O5 O 0.1985(7) 0.5772(7) 0.3483(4)
O6 O 0.3390(6) 0.6391(5) 0.3141(4)
O7 O 0.1592(4) 0.6683(4) 0.2048(3)
N1 N 0.3718(7) 0.3927(5) 0.2580(4)
N2 N 0.2656(8) 0.5886(7) 0.3064(5)
H1 H 0.5182(4) 0.7258(4) 0.1534(4)
H2 H 0.1434(4) 0.7176(4) 0.1706(3)
H3 H 0.49200 0.48210 0.18160
H4 H 0.20590 0.48470 0.23440
H5 H 0.44610 0.74990 0.05050
H6 H 0.45440 0.73900 -0.07560
H7 H 0.45210 0.58780 -0.13180
H8 H 0.44140 0.44750 -0.06190
H9 H 0.43310 0.45830 0.06420
H10 H 0.20150 0.69710 0.05680
H11 H 0.14520 0.64080 -0.05560
H12 H 0.11350 0.47620 -0.07250
H13 H 0.13820 0.36790 0.02290
H14 H 0.19440 0.42430 0.13530
C19 C -0.0849(6) 0.5082(6) 0.2236(5)
C20 C -0.1626(7) 0.4261(6) 0.2326(4)
C21 C -0.2587(7) 0.4640(6) 0.2629(4)
C22 C -0.2788(7) 0.5555(6) 0.2727(5)
C23 C -0.2096(7) 0.6357(6) 0.2547(5)
C24 C -0.1258(7) 0.6066(6) 0.2012(4)
C25 C -0.1749(4) 0.3742(6) 0.1618(4)
C26 C -0.0919(4) 0.3239(6) 0.1346(4)
C27 C -0.0983(4) 0.2794(6) 0.0677(4)
C28 C -0.1877(4) 0.2852(6) 0.0279(4)
C29 C -0.2707(4) 0.3355(6) 0.0550(4)
C30 C -0.2643(4) 0.3801(6) 0.1219(4)
C31 C -0.1644(3) 0.6005(4) 0.1240(3)
C32 C -0.0968(3) 0.5639(4) 0.0732(3)
C33 C -0.1265(3) 0.5550(4) 0.0016(3)
C34 C -0.2238(3) 0.5828(4) -0.0193(3)
C35 C -0.2914(3) 0.6194(4) 0.0314(3)
C36 C -0.2617(3) 0.6282(4) 0.1031(3)
O8 O 0.0045(4) 0.4945(4) 0.2325(4)
O9 O -0.1240(5) 0.3628(4) 0.2851(4)
O10 O -0.4365(5) 0.5204(5) 0.3236(4)
O11 O -0.3760(5) 0.6655(5) 0.3325(4)
O12 O -0.1575(6) 0.7546(5) 0.3357(5)
O13 O -0.1168(6) 0.6087(6) 0.3594(4)
O14 O -0.0486(4) 0.6767(4) 0.2071(4)
N3 N -0.3723(6) 0.5813(6) 0.3126(4)
N4 N -0.1585(7) 0.6700(6) 0.3229(5)
H15 H -0.0613(5) 0.3357(4) 0.2685(4)
H16 H 0.0057(4) 0.6613(4) 0.1747(4)
H17 H -0.31000 0.41850 0.27630
H18 H -0.25000 0.68490 0.23270
H19 H -0.03040 0.31990 0.16210
H20 H -0.04120 0.24470 0.04900
H21 H -0.19210 0.25460 -0.01820
H22 H -0.33230 0.33960 0.02760
H23 H -0.32150 0.41470 0.14060
H24 H -0.02990 0.54480 0.08760
H25 H -0.08000 0.52990 -0.03330
H26 H -0.24420 0.57670 -0.06860
H27 H -0.35830 0.63850 0.01710
H28 H -0.30820 0.65340 0.13800
#END
