
#######################################################################
#
#                 Cambridge Crystallographic Data Centre
#                                CCDC
#
#######################################################################
#
# If this CIF has been generated from an entry in the Cambridge
# Structural Database, then it will include bibliographic, chemical,
# crystal, experimental, refinement or atomic coordinate data resulting
# from the CCDC's data processing and validation procedures.
#
#######################################################################

data_CSD_CIF_DUHXIO
_audit_creation_date 2010-02-16
_audit_creation_method CSD-ConQuest-V1
_database_code_CSD DUHXIO
_database_code_depnum_ccdc_archive 'CCDC 758251'
_chemical_formula_sum 'C18 H29 N1 O3'
_chemical_formula_moiety
;
C18 H29 N1 O3
;
_journal_coeditor_code "IUCr CV2628"
_journal_coden_Cambridge 1370
_journal_volume 65
_journal_year 2009
_journal_page_first o3034
_journal_name_full 'Acta Crystallogr.,Sect.E:Struct.Rep.Online '
loop_
_publ_author_name
"Xi-Gui Yue"
_chemical_name_systematic
;
1-(Dodecyloxy)-4-nitrobenzene
;
_cell_volume   1810.294
_exptl_crystal_colour 'colorless'
_exptl_crystal_density_diffrn 1.128
_exptl_crystal_description 'block'
_exptl_crystal_preparation '95% ethanol'
_diffrn_ambient_temperature 291
#These two values have been output from a single CSD field.
_refine_ls_R_factor_gt 0.0679
_refine_ls_wR_factor_gt 0.0679
_symmetry_cell_setting triclinic
_symmetry_space_group_name_H-M 'P -1'
_symmetry_Int_Tables_number 2
loop_
_symmetry_equiv_pos_site_id
_symmetry_equiv_pos_as_xyz
1 x,y,z
2 -x,-y,-z
_cell_length_a 5.615(3)
_cell_length_b 16.064(7)
_cell_length_c 21.390(12)
_cell_angle_alpha 72.190(15)
_cell_angle_beta 87.290(18)
_cell_angle_gamma 80.240(16)
_cell_formula_units_Z 4
loop_
_atom_type_symbol
_atom_type_radius_bond
C 0.68
H 0.23
N 0.68
O 0.68
loop_
_atom_site_label
_atom_site_type_symbol
_atom_site_fract_x
_atom_site_fract_y
_atom_site_fract_z
C1 C 1.1633(6) -0.1114(2) 0.98321(16)
C2 C 0.9771(7) -0.1433(2) 0.96353(19)
H1 H 0.93920 -0.19820 0.98770
C3 C 0.8480(7) -0.0939(2) 0.90832(17)
H2 H 0.72430 -0.11590 0.89430
C4 C 0.9005(6) -0.0111(2) 0.87311(16)
C5 C 1.0903(6) 0.0201(2) 0.89214(17)
H3 H 1.12900 0.07480 0.86780
C6 C 1.2222(7) -0.0301(2) 0.94732(17)
H4 H 1.35040 -0.00940 0.96050
C7 C 0.7796(7) 0.1225(2) 0.78507(17)
H5 H 0.93560 0.12400 0.76360
H6 H 0.76790 0.15820 0.81470
C8 C 0.5811(7) 0.1577(2) 0.73523(17)
H7 H 0.57870 0.22090 0.71580
H8 H 0.42830 0.14980 0.75750
C9 C 0.5996(7) 0.1151(2) 0.68065(17)
H9 H 0.60230 0.05190 0.69980
H10 H 0.75110 0.12360 0.65780
C10 C 0.3935(7) 0.1523(2) 0.63141(17)
H11 H 0.24260 0.14270 0.65430
H12 H 0.38860 0.21580 0.61320
C11 C 0.4119(7) 0.1121(2) 0.57567(18)
H13 H 0.56190 0.12250 0.55240
H14 H 0.41900 0.04860 0.59390
C12 C 0.2058(7) 0.1482(2) 0.52735(18)
H15 H 0.19920 0.21180 0.50920
H16 H 0.05610 0.13810 0.55080
C13 C 0.2195(7) 0.1091(2) 0.47143(19)
H17 H 0.36890 0.11940 0.44790
H18 H 0.22700 0.04550 0.48960
C14 C 0.0136(7) 0.1446(3) 0.42319(19)
H19 H 0.00650 0.20810 0.40480
H20 H -0.13600 0.13440 0.44670
C15 C 0.0286(8) 0.1047(3) 0.3678(2)
H21 H 0.03990 0.04100 0.38630
H22 H 0.17670 0.11600 0.34380
C16 C -0.1797(8) 0.1382(3) 0.3197(2)
H23 H -0.32770 0.12730 0.34390
H24 H -0.19020 0.20190 0.30110
C17 C -0.1683(9) 0.0991(4) 0.2650(2)
H25 H -0.14570 0.03510 0.28350
H26 H -0.02660 0.11380 0.23890
C18 C -0.3825(8) 0.1275(3) 0.2203(2)
H27 H -0.51840 0.10350 0.24340
H28 H -0.34710 0.10620 0.18300
H29 H -0.42000 0.19100 0.20580
C19 C 1.5593(7) -0.3938(2) 0.92787(16)
C20 C 1.6746(7) -0.4774(2) 0.93077(16)
H30 H 1.82180 -0.50020 0.95260
C21 C 1.5700(7) -0.5274(2) 0.90099(17)
H31 H 1.64700 -0.58390 0.90220
C22 C 1.3504(7) -0.4930(2) 0.86934(16)
C23 C 1.2366(7) -0.4080(2) 0.86619(18)
H32 H 1.09050 -0.38460 0.84380
C24 C 1.3406(7) -0.3587(2) 0.89620(17)
H33 H 1.26420 -0.30220 0.89510
C25 C 1.3257(7) -0.6272(2) 0.84394(18)
H34 H 1.33440 -0.66280 0.88970
H35 H 1.48700 -0.63190 0.82560
C26 C 1.1596(7) -0.6589(2) 0.80708(17)
H36 H 0.99770 -0.64980 0.82440
H37 H 1.20900 -0.72210 0.81500
C27 C 1.1516(7) -0.6140(2) 0.73391(17)
H38 H 1.31340 -0.62270 0.71650
H39 H 1.10050 -0.55080 0.72580
C28 C 0.9838(7) -0.6477(2) 0.69766(17)
H40 H 1.03240 -0.71120 0.70730
H41 H 0.82170 -0.63750 0.71470
C29 C 0.9752(7) -0.6064(2) 0.62407(17)
H42 H 1.13680 -0.61650 0.60680
H43 H 0.92560 -0.54280 0.61420
C30 C 0.8054(7) -0.6419(2) 0.58938(17)
H44 H 0.85320 -0.70560 0.60010
H45 H 0.64350 -0.63070 0.60620
C31 C 0.7980(7) -0.6027(2) 0.51597(18)
H46 H 0.95970 -0.61380 0.49900
H47 H 0.74950 -0.53910 0.50510
C32 C 0.6273(7) -0.6392(2) 0.48198(17)
H48 H 0.67490 -0.70300 0.49350
H49 H 0.46570 -0.62760 0.49880
C33 C 0.6188(7) -0.6017(2) 0.40820(17)
H50 H 0.77980 -0.61410 0.39120
H51 H 0.57330 -0.53780 0.39660
C34 C 0.4454(7) -0.6375(2) 0.37487(18)
H52 H 0.49050 -0.70140 0.38680
H53 H 0.28440 -0.62490 0.39180
C35 C 0.4363(8) -0.6012(3) 0.30168(19)
H54 H 0.59720 -0.61370 0.28470
H55 H 0.39030 -0.53740 0.28960
C36 C 0.2635(8) -0.6377(3) 0.2690(2)
H56 H 0.10160 -0.62210 0.28300
H57 H 0.30560 -0.70110 0.28100
H58 H 0.27350 -0.61320 0.22220
N1 N 1.2958(6) -0.1617(2) 1.04342(15)
N2 N 1.6664(7) -0.3418(3) 0.96029(16)
O1 O 1.2231(5) -0.22878(19) 1.07737(14)
O2 O 1.4686(5) -0.13502(17) 1.05870(13)
O3 O 0.7542(5) 0.03322(15) 0.82063(12)
O4 O 1.5594(6) -0.2675(2) 0.95704(17)
O5 O 1.8548(6) -0.37346(19) 0.99037(15)
O6 O 1.2305(4) -0.53613(15) 0.83828(12)
#END
