
#######################################################################
#
#                 Cambridge Crystallographic Data Centre
#                                CCDC
#
#######################################################################
#
# If this CIF has been generated from an entry in the Cambridge
# Structural Database, then it will include bibliographic, chemical,
# crystal, experimental, refinement or atomic coordinate data resulting
# from the CCDC's data processing and validation procedures.
#
#######################################################################

data_CSD_CIF_DUHYAH
_audit_creation_date 2010-02-16
_audit_creation_method CSD-ConQuest-V1
_database_code_CSD DUHYAH
_database_code_depnum_ccdc_archive 'CCDC 758254'
_chemical_formula_sum 'C14 H11 N1 O4'
_chemical_formula_moiety
;
C14 H11 N1 O4
;
_journal_coeditor_code "IUCr PV2221"
_journal_coden_Cambridge 1370
_journal_volume 65
_journal_year 2009
_journal_page_first o3038
_journal_name_full 'Acta Crystallogr.,Sect.E:Struct.Rep.Online '
loop_
_publ_author_name
"U.Bibi"
"H.M.Siddiqi"
"M.Bolte"
"Z.Akhter"
_chemical_name_systematic
;
4-Nitrophenyl 2-methylbenzoate
;
_chemical_melting_point 336
_cell_volume   2404.972
_exptl_crystal_colour 'colorless'
_exptl_crystal_density_diffrn 1.421
_exptl_special_details
;
Melting point range 336-344K

;
_exptl_crystal_description 'block'
_exptl_crystal_preparation 'n-hexane'
_diffrn_ambient_temperature 173
#These two values have been output from a single CSD field.
_refine_ls_R_factor_gt 0.0322
_refine_ls_wR_factor_gt 0.0322
_symmetry_cell_setting orthorhombic
_symmetry_space_group_name_H-M 'P 21 21 21'
_symmetry_Int_Tables_number 19
loop_
_symmetry_equiv_pos_site_id
_symmetry_equiv_pos_as_xyz
1 x,y,z
2 1/2-x,-y,1/2+z
3 -x,1/2+y,1/2-z
4 1/2+x,1/2-y,-z
_cell_length_a 11.4748(7)
_cell_length_b 14.3608(8)
_cell_length_c 14.5944(9)
_cell_angle_alpha 90
_cell_angle_beta 90
_cell_angle_gamma 90
_cell_formula_units_Z 8
loop_
_atom_type_symbol
_atom_type_radius_bond
C 0.68
H 0.23
N 0.68
O 0.68
loop_
_atom_site_label
_atom_site_type_symbol
_atom_site_fract_x
_atom_site_fract_y
_atom_site_fract_z
O1 O 0.16002(13) 0.61145(10) 0.13451(12)
O2 O -0.01252(14) 0.62719(11) 0.06228(12)
O3 O 0.20623(17) 0.17957(12) 0.15433(18)
O4 O 0.04224(17) 0.19478(12) 0.22316(14)
N1 N 0.12619(18) 0.22748(13) 0.18336(14)
C1 C 0.07279(19) 0.66283(14) 0.09413(15)
C2 C 0.14470(18) 0.51564(14) 0.14478(14)
C3 C 0.0478(2) 0.47887(15) 0.18780(15)
H1 H -0.01340 0.51840 0.20810
C4 C 0.04139(19) 0.38314(15) 0.20091(15)
H2 H -0.02420 0.35590 0.23030
C5 C 0.13290(19) 0.32834(15) 0.17014(15)
C6 C 0.23122(19) 0.36492(15) 0.12783(15)
H3 H 0.29290 0.32570 0.10800
C7 C 0.23633(19) 0.46020(15) 0.11547(15)
H4 H 0.30240 0.48760 0.08700
C8 C 0.10142(19) 0.76401(15) 0.09643(15)
C9 C 0.0246(2) 0.82974(15) 0.05781(15)
C10 C 0.0559(2) 0.92345(16) 0.06402(16)
H5 H 0.00540 0.96920 0.03890
C11 C 0.1581(3) 0.95161(16) 0.10555(17)
H6 H 0.17670 1.01600 0.10880
C12 C 0.2334(2) 0.88691(17) 0.14233(17)
H7 H 0.30430 0.90620 0.17010
C13 C 0.2045(2) 0.79333(16) 0.13842(16)
H8 H 0.25540 0.74850 0.16460
C14 C -0.0882(2) 0.80479(18) 0.01122(19)
H9 H -0.14380 0.78150 0.05680
H10 H -0.07380 0.75640 -0.03480
H11 H -0.12050 0.86020 -0.01870
O5 O 0.17914(14) 0.15192(10) 0.86948(12)
O6 O 0.02001(17) 0.18630(13) 0.95339(14)
O7 O -0.00192(18) -0.24935(12) 0.77876(14)
O8 O 0.16863(19) -0.28107(13) 0.83276(17)
N2 N 0.09144(18) -0.22567(13) 0.81235(14)
C15 C 0.1056(2) 0.21228(16) 0.91421(16)
C16 C 0.15008(19) 0.05831(15) 0.86021(15)
C17 C 0.0438(2) 0.03078(15) 0.82310(16)
H12 H -0.01430 0.07550 0.80860
C18 C 0.0245(2) -0.06321(15) 0.80779(14)
H13 H -0.04750 -0.08420 0.78310
C19 C 0.1119(2) -0.12599(15) 0.82913(15)
C20 C 0.2179(2) -0.09892(16) 0.86513(16)
H14 H 0.27640 -0.14360 0.87880
C21 C 0.23671(19) -0.00483(17) 0.88083(16)
H15 H 0.30870 0.01590 0.90560
C22 C 0.1498(2) 0.30931(16) 0.90502(15)
C23 C 0.0759(2) 0.38603(17) 0.91703(16)
C24 C 0.1220(2) 0.47552(17) 0.90166(17)
H16 H 0.07270 0.52830 0.90760
C25 C 0.2374(3) 0.48793(17) 0.87809(18)
H17 H 0.26640 0.54900 0.86800
C26 C 0.3114(2) 0.41263(18) 0.86902(18)
H18 H 0.39130 0.42180 0.85450
C27 C 0.2678(2) 0.32367(16) 0.88133(16)
H19 H 0.31790 0.27160 0.87380
C28 C -0.0493(2) 0.3775(2) 0.9429(2)
H20 H -0.08910 0.33660 0.89920
H21 H -0.08580 0.43920 0.94180
H22 H -0.05550 0.35120 1.00460
#END
