
#######################################################################
#
#                 Cambridge Crystallographic Data Centre
#                                CCDC
#
#######################################################################
#
# If this CIF has been generated from an entry in the Cambridge
# Structural Database, then it will include bibliographic, chemical,
# crystal, experimental, refinement or atomic coordinate data resulting
# from the CCDC's data processing and validation procedures.
#
#######################################################################

data_CSD_CIF_DUJBUG
_audit_creation_date 2010-02-16
_audit_creation_method CSD-ConQuest-V1
_database_code_CSD DUJBUG
_database_code_depnum_ccdc_archive 'CCDC 758268'
_chemical_formula_sum 'C7 H5 N1 O4'
_chemical_formula_moiety
;
C7 H5 N1 O4
;
_journal_coeditor_code "IUCr DN2510"
_journal_coden_Cambridge 1370
_journal_volume 65
_journal_year 2009
_journal_page_first o3056
_journal_name_full 'Acta Crystallogr.,Sect.E:Struct.Rep.Online '
loop_
_publ_author_name
"H.Tanak"
"M.Macit"
"M.Yavuz"
"S.Isik"
_chemical_name_systematic
;
2-Hydroxy-5-nitrobenzaldehyde
;
_cell_volume    710.324
_exptl_crystal_colour 'red'
_exptl_crystal_density_diffrn 1.563
_exptl_crystal_description 'prism'
_exptl_crystal_preparation 'ethanol'
_diffrn_ambient_temperature 296
#These two values have been output from a single CSD field.
_refine_ls_R_factor_gt 0.0503
_refine_ls_wR_factor_gt 0.0503
_symmetry_cell_setting monoclinic
_symmetry_space_group_name_H-M 'P 21/n'
_symmetry_Int_Tables_number 14
loop_
_symmetry_equiv_pos_site_id
_symmetry_equiv_pos_as_xyz
1 x,y,z
2 1/2-x,1/2+y,1/2-z
3 -x,-y,-z
4 -1/2+x,-1/2-y,-1/2+z
_cell_length_a 7.2580(17)
_cell_length_b 8.3960(13)
_cell_length_c 11.704(3)
_cell_angle_alpha 90
_cell_angle_beta 95.165(18)
_cell_angle_gamma 90
_cell_formula_units_Z 4
loop_
_atom_type_symbol
_atom_type_radius_bond
C 0.68
H 0.23
N 0.68
O 0.68
loop_
_atom_site_label
_atom_site_type_symbol
_atom_site_fract_x
_atom_site_fract_y
_atom_site_fract_z
O1 O 0.4340(3) -0.1006(2) 0.25586(14)
O2 O 0.3658(3) -0.3022(2) 0.15003(16)
O3 O 0.1019(3) 0.2346(2) -0.19209(14)
H1 H 0.130(4) 0.336(4) -0.162(3)
O4 O 0.2251(3) 0.4736(2) -0.06415(16)
N1 N 0.3709(3) -0.1591(2) 0.16564(16)
C1 C 0.3019(3) -0.0545(2) 0.07198(17)
C2 C 0.2232(3) -0.1209(2) -0.03011(17)
H2 H 0.21540 -0.23090 -0.03850
C3 C 0.1574(3) -0.0228(3) -0.11799(18)
H3 H 0.10370 -0.06590 -0.18630
C4 C 0.1711(3) 0.1417(2) -0.10464(18)
C5 C 0.2551(3) 0.2073(2) -0.00295(17)
C6 C 0.3190(3) 0.1067(2) 0.08585(17)
H4 H 0.37300 0.14850 0.15440
C7 C 0.2771(3) 0.3784(3) 0.0104(2)
H5 H 0.33380 0.41720 0.07920
#END
