
#######################################################################
#
#                 Cambridge Crystallographic Data Centre
#                                CCDC
#
#######################################################################
#
# If this CIF has been generated from an entry in the Cambridge
# Structural Database, then it will include bibliographic, chemical,
# crystal, experimental, refinement or atomic coordinate data resulting
# from the CCDC's data processing and validation procedures.
#
#######################################################################

data_CSD_CIF_DUJMAW
_audit_creation_date 1987-06-03
_audit_creation_method CSD-ConQuest-V1
_database_code_CSD DUJMAW
_chemical_formula_sum 'C14 H19 N3 O4'
_chemical_formula_moiety
;
C14 H19 N3 O4
;
_journal_coden_Cambridge 423
_journal_volume 244
_journal_year 1986
_journal_page_first 2165
_journal_name_full 'J.Chem.Res. '
loop_
_publ_author_name
"P.L'Haridon"
"A.Le Rouzic"
_chemical_name_systematic
;
4,8-Dimethyl-10-p-nitrophenyl-4,8-diaza-1,5-dioxadecalin
;
_cell_volume   1473.525
_exptl_crystal_density_diffrn 1.32
_exptl_special_details
;
C21-H211 reported as 0.98; we calculate 0.75

;
_diffrn_ambient_temperature ?
_diffrn_special_details
;
The study was carried out at room temperature,in the range 283-303K

;
#These two values have been output from a single CSD field.
_refine_ls_R_factor_gt 0.069
_refine_ls_wR_factor_gt 0.069
_symmetry_cell_setting triclinic
_symmetry_space_group_name_H-M 'P -1'
_symmetry_Int_Tables_number 2
loop_
_symmetry_equiv_pos_site_id
_symmetry_equiv_pos_as_xyz
1 x,y,z
2 -x,-y,-z
_cell_length_a 9.105(9)
_cell_length_b 11.882(8)
_cell_length_c 13.744(10)
_cell_angle_alpha 83.08(5)
_cell_angle_beta 86.64(5)
_cell_angle_gamma 89.40(4)
_cell_formula_units_Z 4
loop_
_atom_type_symbol
_atom_type_radius_bond
C 0.68
H 0.23
N 0.68
O 0.68
loop_
_atom_site_label
_atom_site_type_symbol
_atom_site_fract_x
_atom_site_fract_y
_atom_site_fract_z
O1 O 0.2981(8) 0.3129(5) -0.1170(4)
O2 O 0.4680(9) 0.4197(5) -0.0762(5)
O3 O 0.3675(5) -0.1593(4) 0.3722(3)
O4 O 0.5325(5) 0.0534(4) 0.3516(3)
O5 O 0.9398(8) 0.1054(5) -0.0852(5)
O6 O 0.7937(8) 0.2394(6) -0.1307(4)
O7 O 0.8647(6) 0.5394(4) 0.3791(4)
O8 O 1.0163(5) 0.3268(4) 0.3496(3)
N1 N 0.3972(8) 0.3331(5) -0.0645(4)
N2 N 0.2334(5) 0.0075(4) 0.3366(4)
N3 N 0.6008(6) -0.0750(5) 0.2400(4)
N4 N 0.8815(8) 0.1945(5) -0.0753(5)
N5 N 0.7220(6) 0.3942(4) 0.3343(4)
N6 N 1.0947(6) 0.4884(5) 0.2487(4)
C1 C 0.4862(7) 0.0010(5) 0.2694(4)
C2 C 0.3433(7) -0.0650(5) 0.2991(5)
C3 C 0.4765(9) -0.2349(6) 0.3349(6)
C4 C 0.6168(9) -0.1761(6) 0.3151(5)
C5 C 0.4186(8) 0.1152(6) 0.3978(5)
C6 C 0.2789(8) 0.0507(6) 0.4241(5)
C7 C 0.7405(8) -0.0212(7) 0.2109(6)
C8 C 0.0902(8) -0.0481(6) 0.3508(6)
C9 C 0.4626(7) 0.0909(5) 0.1818(4)
C10 C 0.3927(8) 0.0611(5) 0.1007(5)
C11 C 0.3708(8) 0.1398(6) 0.0207(5)
C12 C 0.4221(8) 0.2471(6) 0.0203(5)
C13 C 0.4987(8) 0.2803(6) 0.0959(5)
C14 C 0.5157(8) 0.2002(6) 0.1769(5)
C15 C 0.9784(7) 0.4095(5) 0.2702(5)
C16 C 0.8371(7) 0.4711(5) 0.3025(5)
C17 C 0.7611(9) 0.3165(6) 0.4190(5)
C18 C 0.8979(9) 0.2537(6) 0.3892(5)
C19 C 0.976(1) 0.6209(7) 0.3498(6)
C20 C 1.1159(9) 0.5588(7) 0.3284(6)
C21 C 0.5818(9) 0.4510(7) 0.3533(6)
C22 C 1.2349(9) 0.4393(7) 0.2144(6)
C23 C 0.9538(7) 0.3521(5) 0.1780(5)
C24 C 1.0056(8) 0.2446(6) 0.1680(5)
C25 C 0.9846(9) 0.1927(6) 0.0873(6)
C26 C 0.9130(8) 0.2504(6) 0.0117(5)
C27 C 0.8620(9) 0.3566(6) 0.0178(5)
C28 C 0.8859(8) 0.4095(6) 0.0992(5)
H1 H 0.307(6) -0.098(4) 0.242(4)
H2 H 0.438(6) -0.264(4) 0.273(4)
H3 H 0.478(6) -0.302(5) 0.388(4)
H4 H 0.679(6) -0.229(5) 0.282(4)
H5 H 0.662(6) -0.158(5) 0.374(4)
H6 H 0.806(6) -0.078(5) 0.190(4)
H7 H 0.745(6) 0.041(5) 0.152(4)
H8 H 0.787(6) 0.026(4) 0.266(4)
H9 H 0.361(6) -0.014(5) 0.103(4)
H10 H 0.328(6) 0.113(4) -0.037(4)
H11 H 0.539(6) 0.357(4) 0.087(4)
H12 H 0.572(6) 0.219(4) 0.229(4)
H13 H 0.406(6) 0.188(5) 0.353(4)
H14 H 0.462(6) 0.130(4) 0.453(4)
H15 H 0.202(5) 0.112(5) 0.438(4)
H16 H 0.291(6) -0.009(5) 0.473(4)
H17 H 0.028(6) 0.006(5) 0.372(4)
H18 H 0.061(6) -0.070(4) 0.287(4)
H19 H 0.098(6) -0.120(5) 0.404(4)
H20 H 0.818(6) 0.515(5) 0.248(4)
H21 H 0.688(6) 0.253(5) 0.441(4)
H22 H 0.789(6) 0.364(5) 0.455(4)
H23 H 0.880(6) 0.200(5) 0.334(4)
H24 H 0.940(6) 0.214(5) 0.447(4)
H25 H 0.587(6) 0.392(5) 0.379(4)
H26 H 0.581(6) 0.493(5) 0.411(4)
H27 H 0.544(6) 0.497(5) 0.286(4)
H28 H 0.980(6) 0.663(4) 0.406(4)
H29 H 0.954(6) 0.677(5) 0.282(4)
H30 H 1.135(6) 0.506(5) 0.391(4)
H31 H 1.190(6) 0.602(5) 0.305(4)
H32 H 1.312(6) 0.497(5) 0.204(4)
H33 H 1.278(6) 0.375(5) 0.264(4)
H34 H 1.226(6) 0.403(4) 0.152(4)
H35 H 1.042(6) 0.205(4) 0.221(4)
H36 H 1.022(6) 0.121(5) 0.080(4)
H37 H 0.819(6) 0.391(4) -0.033(4)
H38 H 0.864(6) 0.484(5) 0.101(4)
#END
