
#######################################################################
#
#                 Cambridge Crystallographic Data Centre
#                                CCDC
#
#######################################################################
#
# If this CIF has been generated from an entry in the Cambridge
# Structural Database, then it will include bibliographic, chemical,
# crystal, experimental, refinement or atomic coordinate data resulting
# from the CCDC's data processing and validation procedures.
#
#######################################################################

data_CSD_CIF_DUJQOP
_audit_creation_date 2010-02-16
_audit_creation_method CSD-ConQuest-V1
_database_code_CSD DUJQOP
_database_code_depnum_ccdc_archive 'CCDC 758428'
_chemical_formula_sum 'C7 H6 N2 O4'
_chemical_formula_moiety
;
C7 H6 N2 O4
;
_journal_coeditor_code "IUCr HB5244"
_journal_coden_Cambridge 1370
_journal_volume 65
_journal_year 2009
_journal_page_first o3260
_journal_name_full 'Acta Crystallogr.,Sect.E:Struct.Rep.Online '
loop_
_publ_author_name
"A.R.Raza"
"M.N.Tahir"
"B.Nisar"
"M.Danish"
"M.S.Iqbal"
_chemical_name_systematic
;
2-Hydroxy-5-nitrobenzamide
;
_cell_volume    775.687
_exptl_crystal_colour 'light yellow'
_exptl_crystal_density_diffrn 1.56
_exptl_crystal_description 'prisms'
_diffrn_ambient_temperature 296
#These two values have been output from a single CSD field.
_refine_ls_R_factor_gt 0.0367
_refine_ls_wR_factor_gt 0.0367
_symmetry_cell_setting monoclinic
_symmetry_space_group_name_H-M 'P 21/n'
_symmetry_Int_Tables_number 14
loop_
_symmetry_equiv_pos_site_id
_symmetry_equiv_pos_as_xyz
1 x,y,z
2 1/2-x,1/2+y,1/2-z
3 -x,-y,-z
4 -1/2+x,-1/2-y,-1/2+z
_cell_length_a 5.1803(3)
_cell_length_b 11.1037(8)
_cell_length_c 13.7214(10)
_cell_angle_alpha 90
_cell_angle_beta 100.642(4)
_cell_angle_gamma 90
_cell_formula_units_Z 4
loop_
_atom_type_symbol
_atom_type_radius_bond
C 0.68
H 0.23
N 0.68
O 0.68
loop_
_atom_site_label
_atom_site_type_symbol
_atom_site_fract_x
_atom_site_fract_y
_atom_site_fract_z
O1 O 0.5646(2) 0.40418(9) 0.31899(9)
O2 O 0.2337(2) 0.46688(9) 0.42269(9)
O3 O 0.1375(2) -0.09501(9) 0.42368(9)
O4 O 0.4447(2) -0.15349(9) 0.34804(9)
N1 N 0.0539(3) 0.33482(11) 0.51407(10)
N2 N 0.3188(2) -0.07405(10) 0.37931(8)
C1 C 0.3227(2) 0.26057(11) 0.39880(9)
C2 C 0.5024(3) 0.28970(12) 0.33611(10)
C3 C 0.6220(3) 0.19813(14) 0.28969(11)
C4 C 0.5642(3) 0.07915(13) 0.30371(10)
C5 C 0.3840(2) 0.05179(11) 0.36410(9)
C6 C 0.2636(2) 0.13973(11) 0.41112(9)
C7 C 0.1992(3) 0.36003(11) 0.44683(10)
H1 H 0.48184 0.44981 0.34877
H2 H -0.032(4) 0.3969(16) 0.5380(14)
H3 H 0.028(3) 0.2603(18) 0.5307(13)
H4 H 0.74118 0.21799 0.24920
H5 H 0.64399 0.01822 0.27341
H6 H 0.14354 0.11839 0.45083
#END
