
#######################################################################
#
#                 Cambridge Crystallographic Data Centre
#                                CCDC
#
#######################################################################
#
# If this CIF has been generated from an entry in the Cambridge
# Structural Database, then it will include bibliographic, chemical,
# crystal, experimental, refinement or atomic coordinate data resulting
# from the CCDC's data processing and validation procedures.
#
#######################################################################

data_CSD_CIF_DUJRIK
_audit_creation_date 2010-02-16
_audit_creation_method CSD-ConQuest-V1
_database_code_CSD DUJRIK
_database_code_depnum_ccdc_archive 'CCDC 758432'
_chemical_formula_sum 'C29 H47 N1 O4'
_chemical_formula_moiety
;
C29 H47 N1 O4
;
_journal_coeditor_code "IUCr JJ2015"
_journal_coden_Cambridge 1370
_journal_volume 65
_journal_year 2009
_journal_page_first o3265
_journal_name_full 'Acta Crystallogr.,Sect.E:Struct.Rep.Online '
loop_
_publ_author_name
"M.-G.Hernandez Linares"
"J.Sandoval Ramirez"
"S.Meza Reyes"
"S.Montiel Smith"
"S.Bernes"
_chemical_name_systematic
;
(20S,2''S)-20-[4'-(3''-Hydroxy-2''-methylpropyl)-3'-methylisoxazol-5'-yl]-5\b-
pregnan-3\b,16\b-diol
;
_chemical_melting_point 500
_cell_volume   1405.662
_exptl_crystal_colour 'colorless'
_exptl_crystal_density_diffrn 1.119
_exptl_crystal_description 'needle'
_exptl_crystal_preparation 'acetone'
_diffrn_ambient_temperature 296
#These two values have been output from a single CSD field.
_refine_ls_R_factor_gt 0.0352
_refine_ls_wR_factor_gt 0.0352
_symmetry_cell_setting monoclinic
_symmetry_space_group_name_H-M 'P 21'
_symmetry_Int_Tables_number 4
loop_
_symmetry_equiv_pos_site_id
_symmetry_equiv_pos_as_xyz
1 x,y,z
2 -x,1/2+y,-z
_cell_length_a 6.5540(8)
_cell_length_b 30.131(4)
_cell_length_c 7.1971(10)
_cell_angle_alpha 90
_cell_angle_beta 98.500(13)
_cell_angle_gamma 90
_cell_formula_units_Z 2
loop_
_atom_type_symbol
_atom_type_radius_bond
C 0.68
H 0.23
N 0.68
O 0.68
loop_
_atom_site_label
_atom_site_type_symbol
_atom_site_fract_x
_atom_site_fract_y
_atom_site_fract_z
C1 C 0.6068(5) 0.66437(9) 0.3655(4)
H1 H 0.71080 0.68740 0.36890
H2 H 0.54380 0.66080 0.23570
C2 C 0.4435(5) 0.67967(10) 0.4788(5)
H3 H 0.33220 0.65810 0.46690
H4 H 0.38680 0.70770 0.42930
C3 C 0.5310(6) 0.68522(11) 0.6842(5)
H5 H 0.41850 0.69220 0.75510
C4 C 0.6348(6) 0.64271(11) 0.7600(5)
H6 H 0.53050 0.61990 0.76160
H7 H 0.69910 0.64760 0.88870
C5 C 0.7976(5) 0.62606(10) 0.6460(4)
H8 H 0.90720 0.64840 0.65650
C6 C 0.8957(7) 0.58263(12) 0.7296(5)
H9 H 1.01920 0.57650 0.67450
H10 H 0.93640 0.58640 0.86380
C7 C 0.7507(7) 0.54323(11) 0.6954(5)
H11 H 0.63480 0.54770 0.76290
H12 H 0.82270 0.51660 0.74430
C8 C 0.6706(5) 0.53673(9) 0.4874(4)
H13 H 0.78840 0.53030 0.42210
C9 C 0.5657(5) 0.57996(9) 0.4041(4)
H14 H 0.45310 0.58610 0.47600
C10 C 0.7136(4) 0.62065(9) 0.4332(4)
C11 C 0.4650(5) 0.57340(9) 0.1993(4)
H15 H 0.38370 0.59950 0.15930
H16 H 0.57290 0.57110 0.12100
C12 C 0.3259(5) 0.53243(9) 0.1663(4)
H17 H 0.28000 0.52900 0.03270
H18 H 0.20490 0.53680 0.22720
C13 C 0.4376(4) 0.48992(8) 0.2428(4)
C14 C 0.5181(5) 0.49856(9) 0.4517(4)
H19 H 0.39780 0.50710 0.50980
C15 C 0.5816(6) 0.45203(10) 0.5279(4)
H20 H 0.71320 0.44330 0.49310
H21 H 0.59070 0.45100 0.66350
C16 C 0.4078(5) 0.42238(9) 0.4337(4)
H22 H 0.30740 0.41960 0.52130
C17 C 0.2987(4) 0.44850(9) 0.2579(4)
H23 H 0.16900 0.45970 0.29230
C18 C 0.6125(5) 0.47874(10) 0.1303(4)
H24 H 0.71160 0.50240 0.14320
H25 H 0.55670 0.47510 0.00010
H26 H 0.67840 0.45170 0.17720
C19 C 0.8950(5) 0.61529(13) 0.3227(6)
H27 H 0.84340 0.61230 0.19130
H28 H 0.97250 0.58930 0.36550
H29 H 0.98270 0.64090 0.34200
C20 C 0.2387(5) 0.41917(9) 0.0833(4)
H30 H 0.36540 0.40670 0.04780
C21 C 0.1250(5) 0.44472(10) -0.0881(5)
H31 H 0.07560 0.42410 -0.18610
H32 H 0.21840 0.46530 -0.13310
H33 H 0.01050 0.46060 -0.05150
C22 C 0.1037(4) 0.38157(9) 0.1246(4)
O1 O -0.0587(3) 0.39290(7) 0.2120(4)
N1 N -0.1752(4) 0.35417(10) 0.2322(4)
C23 C -0.0791(5) 0.32195(10) 0.1605(4)
C24 C 0.1011(4) 0.33757(9) 0.0881(4)
C25 C -0.1567(5) 0.27556(11) 0.1658(5)
H34 H -0.27180 0.27480 0.23400
H35 H -0.04870 0.25680 0.22680
H36 H -0.19940 0.26520 0.03990
C26 C 0.2554(4) 0.31208(9) -0.0033(4)
H37 H 0.24990 0.28120 0.03340
H38 H 0.39220 0.32310 0.04460
C27 C 0.2250(5) 0.31457(10) -0.2173(4)
H39 H 0.21550 0.34590 -0.25450
C28 C 0.0285(6) 0.2913(2) -0.3036(6)
H40 H 0.01670 0.29250 -0.43810
H41 H -0.08820 0.30590 -0.26410
H42 H 0.03250 0.26090 -0.26330
C29 C 0.4103(5) 0.29436(10) -0.2882(4)
H43 H 0.53250 0.31070 -0.23510
H44 H 0.42660 0.26410 -0.24290
O2 O 0.3985(5) 0.29406(8) -0.4864(3)
H45 H 0.411(8) 0.3187(17) -0.533(7)
O3 O 0.4750(3) 0.37840(6) 0.3970(3)
H46 H 0.584(6) 0.3790(14) 0.345(5)
O4 O 0.6814(5) 0.71965(8) 0.7127(4)
H47 H 0.633(9) 0.743(2) 0.640(8)
#END
