
#######################################################################
#
#                 Cambridge Crystallographic Data Centre
#                                CCDC
#
#######################################################################
#
# If this CIF has been generated from an entry in the Cambridge
# Structural Database, then it will include bibliographic, chemical,
# crystal, experimental, refinement or atomic coordinate data resulting
# from the CCDC's data processing and validation procedures.
#
#######################################################################

data_CSD_CIF_DUJSIL
_audit_creation_date 2010-02-16
_audit_creation_method CSD-ConQuest-V1
_database_code_CSD DUJSIL
_database_code_depnum_ccdc_archive 'CCDC 758438'
_chemical_formula_sum 'C15 H13 N3 O4'
_chemical_formula_moiety
;
C15 H13 N3 O4
;
_journal_coeditor_code "IUCr WN2369"
_journal_coden_Cambridge 1370
_journal_volume 65
_journal_year 2009
_journal_page_first o3272
_journal_name_full 'Acta Crystallogr.,Sect.E:Struct.Rep.Online '
loop_
_publ_author_name
"Hong-Yan Ban"
"Cong-Ming Li"
_chemical_name_systematic
;
(E)-2-Methoxy-N'-(4-nitrobenzylidene)benzohydrazide
;
_cell_volume   1410.956
_exptl_crystal_colour 'colorless'
_exptl_crystal_density_diffrn 1.409
_exptl_crystal_description 'block'
_exptl_crystal_preparation 'methanol'
_diffrn_ambient_temperature 298
#These two values have been output from a single CSD field.
_refine_ls_R_factor_gt 0.0467
_refine_ls_wR_factor_gt 0.0467
_symmetry_cell_setting monoclinic
_symmetry_space_group_name_H-M 'P 21/c'
_symmetry_Int_Tables_number 14
loop_
_symmetry_equiv_pos_site_id
_symmetry_equiv_pos_as_xyz
1 x,y,z
2 -x,1/2+y,1/2-z
3 -x,-y,-z
4 x,-1/2-y,-1/2+z
_cell_length_a 11.1843(2)
_cell_length_b 11.3718(3)
_cell_length_c 13.0519(2)
_cell_angle_alpha 90
_cell_angle_beta 121.792(2)
_cell_angle_gamma 90
_cell_formula_units_Z 4
loop_
_atom_type_symbol
_atom_type_radius_bond
C 0.68
H 0.23
N 0.68
O 0.68
loop_
_atom_site_label
_atom_site_type_symbol
_atom_site_fract_x
_atom_site_fract_y
_atom_site_fract_z
N1 N 0.02468(14) 0.74628(13) 0.11097(11)
N2 N 0.10276(15) 0.75892(13) 0.23349(11)
N3 N -0.37828(15) 0.80034(14) -0.46112(12)
O1 O 0.18128(13) 0.87506(11) 0.43486(10)
O2 O 0.16350(19) 0.56837(12) 0.25823(12)
O3 O -0.36814(16) 0.71210(14) -0.50895(11)
O4 O -0.45977(16) 0.87945(13) -0.51687(11)
C1 C -0.12755(16) 0.82699(14) -0.08248(13)
C2 C -0.13227(17) 0.72335(14) -0.14102(14)
H1 H -0.08040 0.65870 -0.09580
C3 C -0.21222(17) 0.71486(15) -0.26456(14)
H2 H -0.21480 0.64540 -0.30320
C4 C -0.28832(16) 0.81139(14) -0.32966(13)
C5 C -0.28638(18) 0.91571(15) -0.27587(15)
H3 H -0.33890 0.97980 -0.32190
C6 C -0.20458(18) 0.92326(15) -0.15175(15)
H4 H -0.20090 0.99360 -0.11390
C7 C -0.04485(17) 0.83471(15) 0.04892(14)
H5 H -0.04320 0.90440 0.08700
C8 C 0.17233(18) 0.66437(16) 0.30264(14)
C9 C 0.26280(16) 0.68339(15) 0.43602(13)
C10 C 0.26528(17) 0.78298(15) 0.49941(13)
C11 C 0.35310(19) 0.78490(18) 0.62478(15)
H6 H 0.35280 0.85000 0.66780
C12 C 0.4398(2) 0.6917(2) 0.68511(16)
H7 H 0.49820 0.69440 0.76860
C13 C 0.4412(2) 0.5949(2) 0.62399(16)
H8 H 0.50150 0.53260 0.66530
C14 C 0.35239(19) 0.59045(17) 0.50043(15)
H9 H 0.35230 0.52380 0.45910
C15 C 0.1754(2) 0.97515(17) 0.49824(18)
H10 H 0.14740 0.95070 0.55300
H11 H 0.10830 1.03060 0.44170
H12 H 0.26650 1.01140 0.54260
H13 H 0.102(2) 0.8277(12) 0.2684(17)
#END
