
#######################################################################
#
#                 Cambridge Crystallographic Data Centre
#                                CCDC
#
#######################################################################
#
# If this CIF has been generated from an entry in the Cambridge
# Structural Database, then it will include bibliographic, chemical,
# crystal, experimental, refinement or atomic coordinate data resulting
# from the CCDC's data processing and validation procedures.
#
#######################################################################

data_CSD_CIF_DUJTOR
_audit_creation_date 1987-06-03
_audit_creation_method CSD-ConQuest-V1
_database_code_CSD DUJTOR
_database_code_depnum_ccdc_archive 'CCDC 1146297'
_chemical_formula_sum 'C21 H18 N4 O14'
_chemical_formula_moiety
;
C21 H18 N4 O14
;
_journal_coden_Cambridge 388
_journal_volume 21
_journal_year 1985
_journal_page_first 2032
_journal_name_full 'Zh.Org.Khim.(Russ.)(Russ.J.Org.Chem.) '
loop_
_publ_author_name
"O.E.Kompan"
"M.Yu.Antipin"
"Yu.T.Struchkov"
"I.E.Mikhailov"
"G.A.Dushenko"
"L.P.Olekhnovich"
"V.I.Minkin"
_chemical_name_systematic
;
Pentamethyl 
5-(2,4-dinitrophenylazo)-1,2,3,4,5-cyclopentadiene-pentacarboxylate
;
_cell_volume   1182.981
_diffrn_ambient_temperature 153.15
#These two values have been output from a single CSD field.
_refine_ls_R_factor_gt 0.036
_refine_ls_wR_factor_gt 0.036
_symmetry_cell_setting triclinic
_symmetry_space_group_name_H-M 'P -1'
_symmetry_Int_Tables_number 2
loop_
_symmetry_equiv_pos_site_id
_symmetry_equiv_pos_as_xyz
1 x,y,z
2 -x,-y,-z
_cell_length_a 8.583(1)
_cell_length_b 10.402(2)
_cell_length_c 14.375(2)
_cell_angle_alpha 94.99(1)
_cell_angle_beta 101.97(1)
_cell_angle_gamma 107.36(1)
_cell_formula_units_Z 2
loop_
_atom_type_symbol
_atom_type_radius_bond
C 0.68
H 0.23
N 0.68
O 0.68
loop_
_atom_site_label
_atom_site_type_symbol
_atom_site_fract_x
_atom_site_fract_y
_atom_site_fract_z
C1 C 0.5274(2) 0.9381(1) 0.7483(1)
C2 C 0.6002(2) 0.9371(1) 0.8401(1)
C3 C 0.4918(2) 0.8208(1) 0.8745(1)
C4 C 0.3538(2) 0.7556(1) 0.8038(1)
C5 C 0.3561(2) 0.8300(1) 0.7178(1)
C6 C 0.5901(2) 1.0268(1) 0.6787(1)
C7 C 0.7573(2) 1.0467(1) 0.8927(1)
C8 C 0.5368(2) 0.7749(1) 0.9697(1)
C9 C 0.2058(2) 0.6376(1) 0.8032(1)
C10 C 0.2182(2) 0.9005(2) 0.7017(1)
C11 C 0.7683(2) 1.0605(2) 0.5719(1)
C12 C 0.9403(2) 1.1561(2) 1.0415(1)
C13 C 0.4361(2) 0.6977(2) 1.1016(1)
C14 C 0.1051(2) 0.4289(2) 0.8582(1)
C15 C 0.1138(2) 1.0578(2) 0.7738(1)
C16 C 0.3114(2) 0.5697(1) 0.5252(1)
C17 C 0.3854(2) 0.6416(1) 0.4598(1)
C18 C 0.3727(2) 0.5761(1) 0.3695(1)
C19 C 0.2912(2) 0.4370(1) 0.3474(1)
C20 C 0.2225(2) 0.3600(1) 0.4111(1)
C21 C 0.2321(2) 0.4292(1) 0.4993(1)
O1 O 0.5365(1) 1.1167(1) 0.6553(1)
O2 O 0.8344(1) 1.1331(1) 0.8532(1)
O3 O 0.6628(1) 0.7479(1) 0.9967(1)
O4 O 0.0654(1) 0.6299(1) 0.7621(1)
O5 O 0.1168(1) 0.8820(1) 0.6269(1)
O6 O 0.7010(1) 0.9859(1) 0.6434(1)
O7 O 0.7969(1) 1.0421(1) 0.9863(1)
O8 O 0.4165(1) 0.7637(1) 1.0169(1)
O9 O 0.2466(1) 0.5453(1) 0.8526(1)
O10 O 0.2334(1) 0.9823(1) 0.7811(1)
O11 O 0.2250(1) 0.2427(1) 0.2367(1)
O12 O 0.3128(2) 0.4367(1) 0.1903(1)
O13 O 0.0540(2) 0.3910(1) 0.6013(1)
O14 O 0.1898(2) 0.2487(1) 0.5825(1)
N1 N 0.3220(2) 0.6331(1) 0.6204(4)
N2 N 0.3395(2) 0.7561(1) 0.6222(1)
N3 N 0.2755(2) 0.3670(1) 0.2510(1)
N4 N 0.1528(2) 0.3508(1) 0.5666(1)
H1 H 0.680(2) 1.048(2) 0.518(1)
H2 H 0.849(2) 1.018(2) 0.555(1)
H3 H 0.817(2) 1.154(2) 0.600(1)
H4 H 0.922(2) 1.246(1) 1.031(1)
H5 H 1.034(2) 1.152(2) 1.022(1)
H6 H 0.947(2) 1.146(2) 1.109(1)
H7 H 0.336(2) 0.688(2) 1.123(1)
H8 H 0.446(2) 0.613(2) 1.083(1)
H9 H 0.532(3) 0.753(2) 1.151(1)
H10 H 0.048(2) 0.378(2) 0.793(1)
H11 H 0.030(2) 0.464(2) 0.888(1)
H12 H 0.155(2) 0.374(2) 0.897(1)
H13 H -0.002(2) 0.990(2) 0.755(1)
H14 H 0.138(1) 1.111(2) 0.838(1)
H15 H 0.136(2) 1.122(2) 0.724(1)
H16 H 0.445(2) 0.737(1) 0.479(1)
H17 H 0.418(2) 0.624(1) 0.323(1)
H18 H 0.168(2) 0.264(1) 0.395(1)
#END
