
#######################################################################
#
#                 Cambridge Crystallographic Data Centre
#                                CCDC
#
#######################################################################
#
# If this CIF has been generated from an entry in the Cambridge
# Structural Database, then it will include bibliographic, chemical,
# crystal, experimental, refinement or atomic coordinate data resulting
# from the CCDC's data processing and validation procedures.
#
#######################################################################

data_CSD_CIF_DUMPAC
_audit_creation_date 1987-06-03
_audit_creation_method CSD-ConQuest-V1
_database_code_CSD DUMPAC
_chemical_formula_sum 'C7 H14 N4 O5'
_chemical_formula_moiety
;
C7 H14 N4 O5
;
_journal_coeditor_code "IUCr A26008"
_journal_coden_Cambridge 591
_journal_volume 42
_journal_year 1986
_journal_page_first 1161
_journal_name_full 'Acta Crystallogr.,Sect.C:Cryst.Struct.Commun. '
loop_
_publ_author_name
"C.George"
"R.Gilardi"
_chemical_name_systematic
;
3,3-bis(Methyl-nitramino-methyl)-oxetane
;
_chemical_melting_point 402
_cell_volume   1077.172
_exptl_crystal_density_diffrn 1.444
_exptl_special_details
;
Melting point range 402-404K

;
_diffrn_ambient_temperature ?
_diffrn_special_details
;
The study was carried out at room temperature,in the range 283-303K

;
#These two values have been output from a single CSD field.
_refine_ls_R_factor_gt 0.049
_refine_ls_wR_factor_gt 0.049
_symmetry_cell_setting monoclinic
_symmetry_space_group_name_H-M 'P 21/c'
_symmetry_Int_Tables_number 14
loop_
_symmetry_equiv_pos_site_id
_symmetry_equiv_pos_as_xyz
1 x,y,z
2 -x,1/2+y,1/2-z
3 -x,-y,-z
4 x,-1/2-y,-1/2+z
_cell_length_a 14.106(4)
_cell_length_b 6.472(2)
_cell_length_c 11.963(3)
_cell_angle_alpha 90
_cell_angle_beta 99.50(3)
_cell_angle_gamma 90
_cell_formula_units_Z 4
loop_
_atom_type_symbol
_atom_type_radius_bond
C 0.68
H 0.23
N 0.68
O 0.68
loop_
_atom_site_label
_atom_site_type_symbol
_atom_site_fract_x
_atom_site_fract_y
_atom_site_fract_z
O1 O 0.3012(1) 0.2147(2) 0.3583(2)
C1 C 0.2672(2) 0.3480(4) 0.2636(3)
C2 C 0.2486(1) 0.5222(2) 0.3438(1)
C3 C 0.3107(1) 0.3876(3) 0.4340(2)
C4 C 0.2822(1) 0.7397(2) 0.3246(1)
C5 C 0.1424(1) 0.5238(3) 0.3547(1)
N1 N 0.3792(1) 0.7545(2) 0.2972(1)
C6 C 0.4589(1) 0.8264(3) 0.3801(2)
N2 N 0.3872(1) 0.7783(3) 0.1882(1)
O2 O 0.3171(1) 0.7359(3) 0.1161(1)
O3 O 0.4649(1) 0.8355(2) 0.1660(1)
N3 N 0.1168(1) 0.6698(2) 0.4374(1)
C7 C 0.0820(2) 0.8764(4) 0.4060(2)
N4 N 0.1034(1) 0.6041(3) 0.5395(1)
O4 O 0.0726(1) 0.7294(3) 0.6026(1)
O5 O 0.1229(1) 0.4240(3) 0.5647(1)
H1 H 0.314(2) 0.380(4) 0.220(2)
H2 H 0.210(2) 0.298(4) 0.212(2)
H3 H 0.282(2) 0.362(3) 0.511(2)
H4 H 0.387(1) 0.439(3) 0.451(2)
H5 H 0.239(1) 0.807(2) 0.266(1)
H6 H 0.285(1) 0.815(2) 0.395(1)
H7 H 0.121(1) 0.386(3) 0.373(1)
H8 H 0.105(1) 0.562(3) 0.285(1)
H9 H 0.468(2) 0.981(3) 0.370(2)
H10 H 0.441(2) 0.800(3) 0.452(2)
H11 H 0.510(2) 0.763(3) 0.368(2)
H12 H 0.015(2) 0.888(4) 0.415(2)
H13 H 0.091(2) 0.894(4) 0.329(2)
H14 H 0.121(2) 0.965(4) 0.454(2)
#END
