
#######################################################################
#
#                 Cambridge Crystallographic Data Centre
#                                CCDC
#
#######################################################################
#
# If this CIF has been generated from an entry in the Cambridge
# Structural Database, then it will include bibliographic, chemical,
# crystal, experimental, refinement or atomic coordinate data resulting
# from the CCDC's data processing and validation procedures.
#
#######################################################################

data_CSD_CIF_DUMSAG
_audit_creation_date 2010-04-08
_audit_creation_method CSD-ConQuest-V1
_database_code_CSD DUMSAG
_database_code_depnum_ccdc_archive 'CCDC 765081'
_chemical_formula_sum 'C9 H8 N2 O6'
_chemical_formula_moiety
;
C9 H8 N2 O6
;
_journal_coeditor_code "IUCr HB5296"
_journal_coden_Cambridge 1370
_journal_volume 66
_journal_year 2010
_journal_page_first o288
_journal_name_full 'Acta Crystallogr.,Sect.E:Struct.Rep.Online '
loop_
_publ_author_name
"A.R.Raza"
"A.Saddiqa"
"M.N.Tahir"
"M.Danish"
"M.S.Iqbal"
_chemical_name_systematic
;
Methyl 2-methyl-3,5-dinitrobenzoate
;
_cell_volume   1043.300
_exptl_crystal_colour 'colorless'
_exptl_crystal_density_diffrn 1.529
_exptl_crystal_description 'needle'
_exptl_crystal_preparation 'chloroform'
_diffrn_ambient_temperature 296
#These two values have been output from a single CSD field.
_refine_ls_R_factor_gt 0.0407
_refine_ls_wR_factor_gt 0.0407
_symmetry_cell_setting orthorhombic
_symmetry_space_group_name_H-M 'P 21 21 21'
_symmetry_Int_Tables_number 19
loop_
_symmetry_equiv_pos_site_id
_symmetry_equiv_pos_as_xyz
1 x,y,z
2 1/2-x,-y,1/2+z
3 1/2+x,1/2-y,-z
4 -x,1/2+y,1/2-z
_cell_length_a 6.7948(5)
_cell_length_b 8.8478(8)
_cell_length_c 17.3539(17)
_cell_angle_alpha 90
_cell_angle_beta 90
_cell_angle_gamma 90
_cell_formula_units_Z 4
loop_
_atom_type_symbol
_atom_type_radius_bond
C 0.68
H 0.23
N 0.68
O 0.68
loop_
_atom_site_label
_atom_site_type_symbol
_atom_site_fract_x
_atom_site_fract_y
_atom_site_fract_z
O1 O 0.7519(3) 0.6592(2) 0.08307(14)
O2 O 0.9455(3) 0.4581(2) 0.07824(14)
O3 O 0.4935(4) -0.0440(3) 0.14759(15)
O4 O 0.2279(3) 0.0187(2) 0.08784(14)
O5 O 0.0268(4) 0.4613(3) 0.26197(17)
O6 O 0.1892(3) 0.6626(3) 0.23914(14)
N1 N 0.3765(4) 0.0489(3) 0.12346(13)
N2 N 0.1635(3) 0.5275(3) 0.23353(14)
C1 C 0.6122(3) 0.4298(3) 0.11981(14)
C2 C 0.5898(3) 0.2738(3) 0.10750(14)
C3 C 0.4175(4) 0.2112(3) 0.13733(14)
C4 C 0.2759(4) 0.2888(3) 0.17786(15)
C5 C 0.3090(4) 0.4397(3) 0.18916(15)
C6 C 0.4714(4) 0.5114(3) 0.16018(15)
C7 C 0.7890(4) 0.5130(3) 0.09141(16)
C8 C 0.9151(5) 0.7524(3) 0.0570(3)
C9 C 0.7325(4) 0.1820(3) 0.06173(17)
H1 H 0.16360 0.24127 0.19659
H2 H 0.48749 0.61477 0.16753
H3 H 1.02426 0.74060 0.09162
H4 H 0.87514 0.85644 0.05607
H5 H 0.95366 0.72162 0.00616
H6 H 0.83335 0.14382 0.09519
H7 H 0.79104 0.24423 0.02263
H8 H 0.66471 0.09904 0.03793
#END
