
#######################################################################
#
#                 Cambridge Crystallographic Data Centre
#                                CCDC
#
#######################################################################
#
# If this CIF has been generated from an entry in the Cambridge
# Structural Database, then it will include bibliographic, chemical,
# crystal, experimental, refinement or atomic coordinate data resulting
# from the CCDC's data processing and validation procedures.
#
#######################################################################

data_CSD_CIF_DUNCAS
_audit_creation_date 2015-07-20
_audit_creation_method CSD-ConQuest-V1
_database_code_CSD DUNCAS
_database_code_depnum_ccdc_archive 'CCDC 1062820'
_chemical_formula_sum 'C20 H20 N2 O4'
_chemical_formula_moiety
;
C20 H20 N2 O4
;
_journal_coden_Cambridge 4
_journal_volume 137
_journal_year 2015
_journal_page_first 7306
_journal_name_full 'J.Am.Chem.Soc. '
loop_
_publ_author_name
"Allen Y.Hong"
"C.D.Vanderwal"
_chemical_name_systematic
;
methyl 
5-acetyl-6-oxa-7,13-diazahexacyclo[10.7.0.0^1,8^.0^3,7^.0^5,10^.0^14,19^]nonad
eca-11,14,16,18-tetraene-11-carboxylate
;
_cell_volume   1689.861
_exptl_crystal_colour 'yellow'
_exptl_crystal_density_diffrn 1.385
_exptl_crystal_description 'irregular'
_diffrn_ambient_temperature 133
#These two values have been output from a single CSD field.
_refine_ls_R_factor_gt 0.0476
_refine_ls_wR_factor_gt 0.0476
_symmetry_cell_setting monoclinic
_symmetry_space_group_name_H-M 'P 21/c'
_symmetry_Int_Tables_number 14
loop_
_symmetry_equiv_pos_site_id
_symmetry_equiv_pos_as_xyz
1 x,y,z
2 -x,1/2+y,1/2-z
3 -x,-y,-z
4 x,-1/2-y,-1/2+z
_cell_length_a 6.0850(4)
_cell_length_b 23.7722(15)
_cell_length_c 11.9955(7)
_cell_angle_alpha 90
_cell_angle_beta 103.1258(8)
_cell_angle_gamma 90
_cell_formula_units_Z 4
loop_
_atom_type_symbol
_atom_type_radius_bond
C 0.68
H 0.23
N 0.68
O 0.68
loop_
_atom_site_label
_atom_site_type_symbol
_atom_site_fract_x
_atom_site_fract_y
_atom_site_fract_z
O1 O 0.3808(2) 0.64478(5) 0.52373(10)
O2 O 0.7111(3) 0.52774(6) 0.61768(13)
O3 O 0.9742(2) 0.59788(5) 0.86529(12)
O4 O 1.1971(2) 0.67436(5) 0.90485(11)
N1 N 1.0406(2) 0.77228(6) 0.77700(12)
N2 N 0.4408(2) 0.70145(6) 0.49691(12)
C1 C 0.8839(3) 0.73283(7) 0.72908(14)
C2 C 0.4775(3) 0.73689(7) 0.60589(14)
H1 H 0.36640 0.76850 0.59550
C3 C 0.6665(3) 0.69368(8) 0.46854(15)
C4 C 0.7943(3) 0.74652(8) 0.51384(15)
C5 C 0.7216(3) 0.76036(7) 0.62770(14)
C6 C 0.7654(3) 0.82176(8) 0.65497(15)
C7 C 0.6525(4) 0.86930(8) 0.60709(18)
C8 C 0.7395(4) 0.92187(9) 0.6460(2)
C9 C 0.9403(4) 0.92597(8) 0.72852(18)
C10 C 1.0580(3) 0.87817(8) 0.77606(16)
C11 C 0.9645(3) 0.82637(7) 0.73905(15)
C12 C 0.4481(3) 0.69940(8) 0.70355(15)
C13 C 0.6262(3) 0.65256(7) 0.71566(15)
C14 C 0.8559(3) 0.67915(7) 0.76142(14)
C15 C 0.3246(4) 0.54105(9) 0.6219(2)
C16 C 0.5540(3) 0.55984(8) 0.61087(16)
C17 C 0.5885(3) 0.62259(7) 0.59545(15)
C18 C 0.7596(3) 0.63733(8) 0.52458(16)
C19 C 1.0254(3) 0.65228(7) 0.85006(14)
C20 C 1.1398(4) 0.56771(10) 0.9487(2)
H2 H 1.147(4) 0.7666(9) 0.8373(19)
H3 H 0.645(3) 0.6923(9) 0.3862(19)
H4 H 0.741(4) 0.7784(10) 0.457(2)
H5 H 0.959(4) 0.7421(9) 0.5252(18)
H6 H 0.515(4) 0.8655(9) 0.550(2)
H7 H 0.662(4) 0.9559(11) 0.615(2)
H8 H 0.999(4) 0.962(1) 0.756(2)
H9 H 1.190(4) 0.8800(9) 0.8333(19)
H10 H 0.288(4) 0.6846(9) 0.6878(17)
H11 H 0.469(3) 0.7217(8) 0.7750(17)
H12 H 0.600(3) 0.6249(9) 0.7730(18)
H13 H 0.327(4) 0.5011(12) 0.646(2)
H14 H 0.220(5) 0.5441(12) 0.548(2)
H15 H 0.274(4) 0.5671(11) 0.677(2)
H16 H 0.759(4) 0.6084(9) 0.4643(19)
H17 H 0.910(4) 0.6420(8) 0.5696(18)
H18 H 1.085(5) 0.5292(13) 0.940(2)
H19 H 1.150(4) 0.5838(10) 1.021(2)
H20 H 1.292(4) 0.5700(11) 0.926(2)
#END
