
#######################################################################
#
#                 Cambridge Crystallographic Data Centre
#                                CCDC
#
#######################################################################
#
# If this CIF has been generated from an entry in the Cambridge
# Structural Database, then it will include bibliographic, chemical,
# crystal, experimental, refinement or atomic coordinate data resulting
# from the CCDC's data processing and validation procedures.
#
#######################################################################

data_CSD_CIF_DUNCEW
_audit_creation_date 2015-07-20
_audit_creation_method CSD-ConQuest-V1
_database_code_CSD DUNCEW
_database_code_depnum_ccdc_archive 'CCDC 1062821'
_chemical_formula_sum 'C20 H20 N2 O5'
_chemical_formula_moiety
;
C20 H20 N2 O5
;
_journal_coden_Cambridge 4
_journal_volume 137
_journal_year 2015
_journal_page_first 7306
_journal_name_full 'J.Am.Chem.Soc. '
loop_
_publ_author_name
"Allen Y.Hong"
"C.D.Vanderwal"
_chemical_name_systematic
;
methyl 
5-acetyl-11-hydroxy-6-oxa-7,13-diazahexacyclo[10.7.0.0^1,8^.0^3,7^.0^5,10^.0^1
4,19^]nonadeca-12,14,16,18-tetraene-11-carboxylate
;
_cell_volume    864.344
_exptl_crystal_colour 'colorless'
_exptl_crystal_density_diffrn 1.415
_exptl_crystal_description 'prism'
_diffrn_ambient_temperature 133
#These two values have been output from a single CSD field.
_refine_ls_R_factor_gt 0.0412
_refine_ls_wR_factor_gt 0.0412
_symmetry_cell_setting triclinic
_symmetry_space_group_name_H-M 'P -1'
_symmetry_Int_Tables_number 2
loop_
_symmetry_equiv_pos_site_id
_symmetry_equiv_pos_as_xyz
1 x,y,z
2 -x,-y,-z
_cell_length_a 8.3551(7)
_cell_length_b 8.8733(8)
_cell_length_c 12.5301(11)
_cell_angle_alpha 76.5162(10)
_cell_angle_beta 74.1344(10)
_cell_angle_gamma 80.8092(11)
_cell_formula_units_Z 2
loop_
_atom_type_symbol
_atom_type_radius_bond
C 0.68
H 0.23
N 0.68
O 0.68
loop_
_atom_site_label
_atom_site_type_symbol
_atom_site_fract_x
_atom_site_fract_y
_atom_site_fract_z
O1 O 0.98162(12) 0.75415(11) 0.51624(8)
O2 O 0.64027(14) 0.93970(12) 0.62197(9)
O3 O 0.63236(12) 0.70643(11) 0.58192(8)
O4 O 0.81836(13) 0.39854(11) 0.86599(8)
O5 O 0.48709(13) 0.43529(12) 0.76093(10)
N1 N 1.01609(14) 0.95219(13) 0.64523(9)
N2 N 0.88235(16) 0.50044(13) 0.9159(1)
C1 C 0.94578(16) 0.82656(15) 0.69512(11)
C2 C 1.02639(18) 0.57650(15) 0.82777(12)
C3 C 0.7409(2) 0.62400(17) 0.93549(12)
C4 C 0.8244(2) 0.77152(17) 0.91371(12)
C5 C 0.97742(18) 0.75548(15) 0.81220(11)
C6 C 1.10260(17) 0.86055(15) 0.81244(11)
C7 C 1.19064(19) 0.86133(17) 0.89115(13)
C8 C 1.28632(19) 0.98498(17) 0.87146(13)
C9 C 1.28918(18) 1.10610(16) 0.77792(12)
C10 C 1.20075(18) 1.10533(16) 0.69888(12)
C11 C 1.10875(17) 0.98038(15) 0.71749(11)
C12 C 1.05181(17) 0.52063(15) 0.71788(12)
C13 C 0.88808(16) 0.56401(14) 0.67916(11)
C14 C 0.87589(16) 0.74064(15) 0.62842(11)
C15 C 0.7251(2) 0.25432(18) 0.71559(15)
H1 H 0.64340 0.18730 0.71430
H2 H 0.79150 0.19960 0.76920
H3 H 0.79920 0.27990 0.63970
C16 C 0.63541(18) 0.40103(16) 0.75152(11)
C17 C 0.74112(17) 0.50449(15) 0.78174(11)
C18 C 0.63694(19) 0.62284(17) 0.85135(12)
C19 C 0.70193(17) 0.80972(15) 0.61275(11)
C20 C 0.4667(2) 0.7557(2) 0.56327(16)
H4 H 0.994(3) 0.854(3) 0.4849(18)
H5 H 1.126(2) 0.5484(19) 0.8584(14)
H6 H 0.675(2) 0.598(2) 1.0138(15)
H7 H 0.865(2) 0.777(2) 0.9802(16)
H8 H 0.746(2) 0.865(2) 0.8988(14)
H9 H 1.184(2) 0.781(2) 0.9591(15)
H10 H 1.352(2) 0.987(2) 0.9253(15)
H11 H 1.354(2) 1.192(2) 0.7690(14)
H12 H 1.205(2) 1.188(2) 0.6309(15)
H13 H 1.0824(19) 0.4114(19) 0.7293(13)
H14 H 1.145(2) 0.5713(18) 0.6588(14)
H15 H 0.8964(19) 0.5120(17) 0.6159(13)
H16 H 0.527(2) 0.583(2) 0.8911(15)
H17 H 0.616(2) 0.727(2) 0.8071(14)
H18 H 0.437(3) 0.669(2) 0.5431(17)
H19 H 0.469(2) 0.845(2) 0.5016(18)
H20 H 0.392(3) 0.779(2) 0.6307(19)
#END
