
#######################################################################
#
#                 Cambridge Crystallographic Data Centre
#                                CCDC
#
#######################################################################
#
# If this CIF has been generated from an entry in the Cambridge
# Structural Database, then it will include bibliographic, chemical,
# crystal, experimental, refinement or atomic coordinate data resulting
# from the CCDC's data processing and validation procedures.
#
#######################################################################

data_CSD_CIF_DUNDIA
_audit_creation_date 2010-03-19
_audit_creation_method CSD-ConQuest-V1
_database_code_CSD DUNDIA
_database_code_depnum_ccdc_archive 'CCDC 765121'
_chemical_formula_sum 'C8 H8 N10 O10'
_chemical_formula_moiety
;
C8 H8 N10 O10
;
_journal_coeditor_code "IUCr FL2282"
_journal_coden_Cambridge 1370
_journal_volume 66
_journal_year 2010
_journal_page_first o338
_journal_name_full 'Acta Crystallogr.,Sect.E:Struct.Rep.Online '
loop_
_publ_author_name
"Huaxiong Chen"
"Rui Shi"
"Shusen Chen"
"Shaohua Jin"
"Lijie Li"
"Yanshan Shi"
_chemical_name_systematic
;
4,10-Diformyl-2,6,8,12-tetranitro-2,4,6,8,10,12-hexaazatetracyclo[5.5.0.0^3,11
^.0^5,9^]dodecane
;
_chemical_name_common
;
4,10-Diformyl-2,6,8,12-tetranitro-2,4,6,8,10,12-hexaazaisowurtzitane
;
_cell_volume   1419.488
_exptl_crystal_colour 'colorless'
_exptl_crystal_density_diffrn 1.891
_exptl_crystal_description 'prism'
_diffrn_ambient_temperature 93
#These two values have been output from a single CSD field.
_refine_ls_R_factor_gt 0.0405
_refine_ls_wR_factor_gt 0.0405
_symmetry_cell_setting orthorhombic
_symmetry_space_group_name_H-M 'P 21 21 21'
_symmetry_Int_Tables_number 19
loop_
_symmetry_equiv_pos_site_id
_symmetry_equiv_pos_as_xyz
1 x,y,z
2 1/2-x,-y,1/2+z
3 -x,1/2+y,1/2-z
4 1/2+x,1/2-y,-z
_cell_length_a 8.7794(15)
_cell_length_b 12.715(2)
_cell_length_c 12.716(2)
_cell_angle_alpha 90
_cell_angle_beta 90
_cell_angle_gamma 90
_cell_formula_units_Z 4
loop_
_atom_type_symbol
_atom_type_radius_bond
C 0.68
H 0.23
N 0.68
O 0.68
loop_
_atom_site_label
_atom_site_type_symbol
_atom_site_fract_x
_atom_site_fract_y
_atom_site_fract_z
O1 O 0.4082(3) 0.85128(17) 0.61717(16)
O2 O 0.3469(3) 0.90661(16) 0.77458(17)
O3 O 0.0964(3) 0.53590(17) 0.52348(15)
O4 O -0.0683(2) 0.49964(16) 0.64766(17)
O5 O 0.6678(2) 0.63739(16) 0.65467(17)
O6 O 0.6745(2) 0.61863(16) 0.82517(17)
O7 O 0.4006(3) 0.41001(17) 0.57581(16)
O8 O 0.3173(3) 0.33820(16) 0.72066(18)
O9 O 0.4078(2) 0.73460(18) 1.03162(16)
O10 O 0.0492(3) 0.40004(17) 0.91506(17)
N1 N 0.2201(3) 0.77417(18) 0.70425(19)
N2 N 0.0774(3) 0.64219(18) 0.66086(18)
N3 N 0.4504(3) 0.65013(19) 0.74559(18)
N4 N 0.2978(3) 0.51090(18) 0.70091(18)
N5 N 0.2786(3) 0.70758(17) 0.87793(18)
N6 N 0.1089(3) 0.55208(18) 0.82910(18)
N7 N 0.3337(3) 0.84824(18) 0.69836(19)
N8 N 0.0326(3) 0.55254(19) 0.60750(19)
N9 N 0.6093(3) 0.63184(18) 0.7414(2)
N10 N 0.3446(3) 0.41296(19) 0.66374(19)
C1 C 0.2262(3) 0.6855(2) 0.6321(2)
H1 H 0.22810 0.70930 0.55720
C2 C 0.1599(3) 0.7422(2) 0.8080(2)
H2 H 0.09840 0.79980 0.84040
C3 C 0.0559(3) 0.6462(2) 0.7767(2)
H3 H -0.05300 0.66060 0.79470
C4 C 0.3630(3) 0.6075(2) 0.6572(2)
H4 H 0.42810 0.59370 0.59420
C5 C 0.3705(3) 0.6206(2) 0.8431(2)
H5 H 0.44510 0.59990 0.89890
C6 C 0.2672(3) 0.5255(2) 0.8130(2)
H6 H 0.29580 0.46130 0.85400
C7 C 0.3069(4) 0.7593(2) 0.9714(2)
H7 H 0.24390 0.81730 0.98950
C8 C 0.0109(4) 0.4835(2) 0.8771(2)
H8 H -0.09370 0.50250 0.88100
#END
