
#######################################################################
#
#                 Cambridge Crystallographic Data Centre
#                                CCDC
#
#######################################################################
#
# If this CIF has been generated from an entry in the Cambridge
# Structural Database, then it will include bibliographic, chemical,
# crystal, experimental, refinement or atomic coordinate data resulting
# from the CCDC's data processing and validation procedures.
#
#######################################################################

data_CSD_CIF_DUNQOT
_audit_creation_date 2010-04-08
_audit_creation_method CSD-ConQuest-V1
_database_code_CSD DUNQOT
_database_code_depnum_ccdc_archive 'CCDC 765160'
_chemical_formula_sum 'C12 H12 N2 O6'
_chemical_formula_moiety
;
C12 H12 N2 O6
;
_journal_coeditor_code "IUCr SU2157"
_journal_coden_Cambridge 1370
_journal_volume 66
_journal_year 2010
_journal_page_first o396
_journal_name_full 'Acta Crystallogr.,Sect.E:Struct.Rep.Online '
loop_
_publ_author_name
"I.Caracelli"
"P.J.S.Moran"
"L.Hinoue"
"J.Zukerman-Schpector"
"E.R.T.Tiekink"
_chemical_name_systematic
;
Ethyl (E)-2-methoxyimino-2-(4-nitrobenzoyl)acetate
;
_chemical_melting_point 367.6
_cell_volume    629.619
_exptl_crystal_colour 'pale-yellow'
_exptl_crystal_density_diffrn 1.478
_exptl_special_details
;
Melting point range 367.6-368.0K

;
_exptl_crystal_description 'block'
_diffrn_ambient_temperature 100
#These two values have been output from a single CSD field.
_refine_ls_R_factor_gt 0.031
_refine_ls_wR_factor_gt 0.031
_symmetry_cell_setting triclinic
_symmetry_space_group_name_H-M 'P -1'
_symmetry_Int_Tables_number 2
loop_
_symmetry_equiv_pos_site_id
_symmetry_equiv_pos_as_xyz
1 x,y,z
2 -x,-y,-z
_cell_length_a 7.5197(1)
_cell_length_b 7.5793(1)
_cell_length_c 12.3338(2)
_cell_angle_alpha 83.264(1)
_cell_angle_beta 73.731(1)
_cell_angle_gamma 68.939(1)
_cell_formula_units_Z 2
loop_
_atom_type_symbol
_atom_type_radius_bond
C 0.68
H 0.23
N 0.68
O 0.68
loop_
_atom_site_label
_atom_site_type_symbol
_atom_site_fract_x
_atom_site_fract_y
_atom_site_fract_z
C1 C 0.95878(16) 0.26376(14) 0.48218(9)
C2 C 0.77279(16) 0.24949(15) 0.51100(9)
H1 H 0.72410 0.20000 0.58100
C3 C 0.66149(16) 0.31060(15) 0.43316(9)
H2 H 0.53700 0.30030 0.44980
C4 C 0.73587(16) 0.38808(14) 0.32919(9)
C5 C 0.92289(16) 0.40168(15) 0.30321(9)
H3 H 0.97110 0.45390 0.23410
C6 C 1.03760(16) 0.33776(15) 0.37975(9)
H4 H 1.16360 0.34440 0.36280
C7 C 0.60888(16) 0.45924(14) 0.24893(9)
C8 C 0.67583(15) 0.57310(15) 0.14594(9)
C9 C 0.75507(16) 0.49578(15) 0.02915(9)
C10 C 0.81887(17) 0.23916(16) -0.08355(9)
H5 H 0.95880 0.21690 -0.11330
H6 H 0.74940 0.32370 -0.13530
C11 C 0.78050(19) 0.05568(16) -0.07074(10)
H7 H 0.82550 -0.00290 -0.14300
H8 H 0.64160 0.07940 -0.04160
H9 H 0.84990 -0.02680 -0.01940
C12 C 0.55476(19) 1.00856(16) 0.2588(1)
H10 H 0.47590 1.07820 0.20840
H11 H 0.68270 1.02090 0.23360
H12 H 0.49200 1.05750 0.33360
N1 N 0.65628(13) 0.74693(13) 0.15091(8)
N2 N 1.07936(14) 0.19686(13) 0.56457(8)
O1 O 0.74864(12) 0.32311(11) 0.02858(6)
O2 O 0.81359(14) 0.58238(12) -0.05260(7)
O3 O 0.45219(12) 0.43609(11) 0.26469(7)
O4 O 0.57531(12) 0.81146(11) 0.26006(6)
O5 O 1.00183(13) 0.15085(13) 0.65930(7)
O6 O 1.25168(13) 0.18865(13) 0.53367(7)
#END
