
#######################################################################
#
#                 Cambridge Crystallographic Data Centre
#                                CCDC
#
#######################################################################
#
# If this CIF has been generated from an entry in the Cambridge
# Structural Database, then it will include bibliographic, chemical,
# crystal, experimental, refinement or atomic coordinate data resulting
# from the CCDC's data processing and validation procedures.
#
#######################################################################

data_CSD_CIF_DUPJAA
_audit_creation_date 2010-03-19
_audit_creation_method CSD-ConQuest-V1
_database_code_CSD DUPJAA
_database_code_depnum_ccdc_archive 'CCDC 765222'
_chemical_formula_sum 'C23 H25 N1 O4'
_chemical_formula_moiety
;
C23 H25 N1 O4
;
_journal_coeditor_code "IUCr RZ2409"
_journal_coden_Cambridge 1370
_journal_volume 66
_journal_year 2010
_journal_page_first o478
_journal_name_full 'Acta Crystallogr.,Sect.E:Struct.Rep.Online '
loop_
_publ_author_name
"XiaoFeng Zhou"
_chemical_name_systematic
;
6,8-di-t-butyl-3-(4-nitrophenyl)-2H-chromen-2-one
;
_cell_volume   4101.311
_exptl_crystal_colour 'yellow'
_exptl_crystal_density_diffrn 1.229
_exptl_crystal_description 'block'
_exptl_crystal_preparation 'ethanol'
_diffrn_ambient_temperature 293
#These two values have been output from a single CSD field.
_refine_ls_R_factor_gt 0.0463
_refine_ls_wR_factor_gt 0.0463
_symmetry_cell_setting orthorhombic
_symmetry_space_group_name_H-M 'P b c a'
_symmetry_Int_Tables_number 61
loop_
_symmetry_equiv_pos_site_id
_symmetry_equiv_pos_as_xyz
1 x,y,z
2 1/2-x,-y,1/2+z
3 -x,1/2+y,1/2-z
4 1/2+x,1/2-y,-z
5 -x,-y,-z
6 -1/2+x,y,-1/2-z
7 x,-1/2-y,-1/2+z
8 -1/2-x,-1/2+y,z
_cell_length_a 14.6463(13)
_cell_length_b 11.8634(10)
_cell_length_c 23.604(2)
_cell_angle_alpha 90
_cell_angle_beta 90
_cell_angle_gamma 90
_cell_formula_units_Z 8
loop_
_atom_type_symbol
_atom_type_radius_bond
C 0.68
H 0.23
N 0.68
O 0.68
loop_
_atom_site_label
_atom_site_type_symbol
_atom_site_fract_x
_atom_site_fract_y
_atom_site_fract_z
O1 O 0.14469(8) 0.87691(10) 0.19264(5)
C1 C 0.04378(11) 0.96286(14) 0.12603(7)
C2 C 0.05769(11) 0.88906(14) 0.17099(7)
N1 N 0.50655(12) 1.22755(18) 0.01632(8)
O2 O 0.49270(12) 1.31945(18) -0.00487(8)
C3 C -0.01328(11) 0.82746(14) 0.19572(7)
O3 O 0.58048(12) 1.18104(17) 0.01503(9)
C4 C -0.09936(11) 0.84849(14) 0.17326(7)
H1 H -0.14860 0.81070 0.18930
C5 C -0.11757(11) 0.92252(14) 0.12817(7)
C6 C -0.04451(11) 0.97845(14) 0.10493(7)
H2 H -0.05390 1.02740 0.07470
C7 C 0.00116(12) 0.74480(15) 0.24487(8)
C8 C 0.07354(17) 0.65680(19) 0.22987(11)
H3 H 0.12990 0.69400 0.22080
H4 H 0.05340 0.61370 0.19780
H5 H 0.08280 0.60750 0.26160
C9 C 0.02893(15) 0.8108(2) 0.29770(8)
H6 H 0.08430 0.85160 0.29020
H7 H 0.03860 0.75950 0.32860
H8 H -0.01870 0.86300 0.30750
C10 C -0.08682(14) 0.68095(18) 0.25937(9)
H9 H -0.10620 0.63800 0.22710
H10 H -0.13370 0.73380 0.26950
H11 H -0.07570 0.63100 0.29060
C11 C -0.21566(11) 0.94186(15) 0.10840(7)
C12 C -0.26345(13) 0.82947(18) 0.09799(10)
H12 H -0.23160 0.78860 0.06900
H13 H -0.32520 0.84300 0.08610
H14 H -0.26370 0.78620 0.13230
C13 C -0.26683(13) 1.00688(19) 0.15457(9)
H15 H -0.23710 1.07780 0.16110
H16 H -0.26690 0.96370 0.18900
H17 H -0.32860 1.01990 0.14260
C14 C -0.21945(13) 1.0105(2) 0.05374(9)
H18 H -0.18950 1.08160 0.05950
H19 H -0.28200 1.02320 0.04340
H20 H -0.18920 0.96990 0.02400
C15 C 0.12116(11) 1.02005(14) 0.10272(7)
H21 H 0.11230 1.06840 0.07220
C16 C 0.20632(11) 1.00669(14) 0.12319(7)
C17 C 0.22005(12) 0.93221(17) 0.17162(8)
C18 C 0.28618(11) 1.06494(15) 0.09819(7)
C19 C 0.37009(12) 1.01170(16) 0.09219(8)
H22 H 0.37760 0.93890 0.10600
C20 C 0.44247(12) 1.06487(18) 0.06604(8)
H23 H 0.49840 1.02860 0.06230
C21 C 0.43052(12) 1.17234(16) 0.04563(7)
C22 C 0.34929(13) 1.22816(16) 0.05115(8)
H24 H 0.34250 1.30110 0.03730
C23 C 0.27740(12) 1.17399(16) 0.07773(8)
H25 H 0.22210 1.21150 0.08200
O4 O 0.29087(9) 0.91451(14) 0.19558(6)
#END
