
#######################################################################
#
#                 Cambridge Crystallographic Data Centre
#                                CCDC
#
#######################################################################
#
# If this CIF has been generated from an entry in the Cambridge
# Structural Database, then it will include bibliographic, chemical,
# crystal, experimental, refinement or atomic coordinate data resulting
# from the CCDC's data processing and validation procedures.
#
#######################################################################

data_CSD_CIF_DUPJUU
_audit_creation_date 2010-03-19
_audit_creation_method CSD-ConQuest-V1
_database_code_CSD DUPJUU
_database_code_depnum_ccdc_archive 'CCDC 765226'
_chemical_formula_sum 'C11 H14 N4 O4'
_chemical_formula_moiety
;
C11 H14 N4 O4
;
_journal_coeditor_code "IUCr FJ2271"
_journal_coden_Cambridge 1370
_journal_volume 66
_journal_year 2010
_journal_page_first o483
_journal_name_full 'Acta Crystallogr.,Sect.E:Struct.Rep.Online '
loop_
_publ_author_name
"P.D.Neunfeldt"
"A.R.Duval"
"W.Cunico"
"S.M.S.V.Wardell"
"E.R.T.Tiekink"
"J.L.Wardell"
_chemical_name_systematic
;
(E)-1-(2,4-Dinitrophenyl)-2-pentylidenehydrazine
;
_chemical_melting_point 371
_cell_volume   2519.190
_exptl_crystal_colour 'yellow'
_exptl_crystal_density_diffrn 1.404
_exptl_special_details
;
Melting point range 371-372K

;
_exptl_crystal_description 'needle'
_exptl_crystal_preparation 'ethanol'
_diffrn_ambient_temperature 120
#These two values have been output from a single CSD field.
_refine_ls_R_factor_gt 0.078
_refine_ls_wR_factor_gt 0.078
_symmetry_cell_setting monoclinic
_symmetry_space_group_name_H-M 'C 2/c'
_symmetry_Int_Tables_number 15
loop_
_symmetry_equiv_pos_site_id
_symmetry_equiv_pos_as_xyz
1 x,y,z
2 -x,y,1/2-z
3 1/2+x,1/2+y,z
4 1/2-x,1/2+y,1/2-z
5 -x,-y,-z
6 x,-y,-1/2+z
7 -1/2-x,-1/2-y,-z
8 -1/2+x,-1/2-y,-1/2+z
_cell_length_a 31.162(3)
_cell_length_b 4.4930(4)
_cell_length_c 18.7329(14)
_cell_angle_alpha 90
_cell_angle_beta 106.159(4)
_cell_angle_gamma 90
_cell_formula_units_Z 8
loop_
_atom_type_symbol
_atom_type_radius_bond
C 0.68
H 0.23
N 0.68
O 0.68
loop_
_atom_site_label
_atom_site_type_symbol
_atom_site_fract_x
_atom_site_fract_y
_atom_site_fract_z
O1 O 0.04985(11) -0.5722(7) 0.23571(16)
O2 O 0.1177(1) -0.4264(8) 0.24360(16)
O3 O -0.0334(1) -0.1033(7) 0.37999(16)
O4 O -0.00644(9) 0.2652(7) 0.45386(15)
N1 N 0.07910(11) 0.3841(8) 0.49031(18)
H1 H 0.0551(14) 0.401(10) 0.505(2)
N2 N 0.11897(11) 0.5276(8) 0.52633(18)
N3 N 0.08254(13) -0.4163(9) 0.26201(19)
N4 N -0.00244(11) 0.0661(8) 0.41033(19)
C1 C 0.07833(13) 0.2003(10) 0.4333(2)
C2 C 0.04022(13) 0.0353(10) 0.3940(2)
C3 C 0.04158(14) -0.1701(9) 0.3391(2)
H2 H 0.01610 -0.28680 0.31590
C4 C 0.08074(14) -0.2003(10) 0.3192(2)
C5 C 0.11852(14) -0.0324(10) 0.3534(2)
H3 H 0.14500 -0.05280 0.33810
C6 C 0.11736(14) 0.1613(10) 0.4090(2)
H4 H 0.14340 0.27330 0.43210
C7 C 0.11826(14) 0.6629(11) 0.5855(2)
H5 H 0.0922(15) 0.660(11) 0.604(2)
C8 C 0.15800(14) 0.8254(11) 0.6307(2)
H6 H 0.16930 0.72070 0.67880
H7 H 0.14850 1.02660 0.64150
C9 C 0.19629(14) 0.8581(12) 0.5957(2)
H8 H 0.20410 0.65930 0.58020
H9 H 0.18630 0.98300 0.55050
C10 C 0.23763(15) 0.9966(13) 0.6476(3)
H10 H 0.22930 1.18960 0.66550
H11 H 0.24850 0.86540 0.69140
C11 C 0.27528(16) 1.0479(14) 0.6126(3)
H12 H 0.28260 0.86020 0.59210
H13 H 0.30160 1.12160 0.65030
H14 H 0.26600 1.19510 0.57270
#END
