
#######################################################################
#
#                 Cambridge Crystallographic Data Centre
#                                CCDC
#
#######################################################################
#
# If this CIF has been generated from an entry in the Cambridge
# Structural Database, then it will include bibliographic, chemical,
# crystal, experimental, refinement or atomic coordinate data resulting
# from the CCDC's data processing and validation procedures.
#
#######################################################################

data_CSD_CIF_DUPJAZ
_audit_creation_date 1987-06-30
_audit_creation_method CSD-ConQuest-V1
_database_code_CSD DUPJAZ
_chemical_formula_sum 'C14 H13 N1 O3'
_chemical_formula_moiety
;
C14 H13 N1 O3
;
_journal_coeditor_code "IUCr A26086"
_journal_coden_Cambridge 591
_journal_volume 42
_journal_year 1986
_journal_page_first 1365
_journal_name_full 'Acta Crystallogr.,Sect.C:Cryst.Struct.Commun. '
loop_
_publ_author_name
"P.G.Jones"
"M.R.Edwards"
"A.J.Kirby"
_chemical_name_systematic
;
1-Phenylethyl 4-nitrophenyl ether
;
_chemical_melting_point 339
_cell_volume   1272.228
_exptl_crystal_colour 'pale yellow'
_exptl_crystal_density_diffrn 1.27
_exptl_special_details
;
Melting point range 339-341K

;
_diffrn_ambient_temperature ?
_diffrn_special_details
;
The study was carried out at room temperature,in the range 283-303K

;
#These two values have been output from a single CSD field.
_refine_ls_R_factor_gt 0.06
_refine_ls_wR_factor_gt 0.06
_symmetry_cell_setting triclinic
_symmetry_space_group_name_H-M 'P -1'
_symmetry_Int_Tables_number 2
loop_
_symmetry_equiv_pos_site_id
_symmetry_equiv_pos_as_xyz
1 x,y,z
2 -x,-y,-z
_cell_length_a 10.268(4)
_cell_length_b 11.115(5)
_cell_length_c 12.303(5)
_cell_angle_alpha 112.15(3)
_cell_angle_beta 91.94(3)
_cell_angle_gamma 100.18(3)
_cell_formula_units_Z 4
loop_
_atom_type_symbol
_atom_type_radius_bond
C 0.68
H 0.23
N 0.68
O 0.68
loop_
_atom_site_label
_atom_site_type_symbol
_atom_site_fract_x
_atom_site_fract_y
_atom_site_fract_z
O1 O 0.0379(2) 0.3803(2) 0.0873(2)
C1 C 0.0779(3) 0.2705(3) -0.0045(2)
C2 C -0.0455(3) 0.1626(3) -0.0522(3)
C3 C 0.1225(2) 0.5003(2) 0.1327(2)
C4 C 0.2363(3) 0.5340(2) 0.0851(2)
C5 C 0.3136(3) 0.6592(3) 0.1395(3)
C6 C 0.2791(3) 0.7488(2) 0.2399(2)
C7 C 0.1659(3) 0.7166(3) 0.2874(3)
C8 C 0.0867(3) 0.5926(3) 0.2339(3)
N1 N 0.3629(2) 0.8806(2) 0.2970(2)
O2 O 0.4661(2) 0.9065(2) 0.2562(2)
O3 O 0.3265(2) 0.9595(2) 0.3845(2)
C9 C 0.1874(3) 0.2241(2) 0.0442(2)
C10 C 0.1786(3) 0.2046(3) 0.1480(3)
C11 C 0.2731(3) 0.1531(3) 0.1885(3)
C12 C 0.3779(3) 0.1208(3) 0.1250(3)
C13 C 0.3897(3) 0.1416(3) 0.0229(3)
C14 C 0.2949(3) 0.1934(3) -0.0179(3)
O4 O 0.3007(2) 0.6249(2) 0.5919(2)
C15 C 0.2774(3) 0.7422(3) 0.6815(3)
C16 C 0.2483(4) 0.7114(4) 0.7894(3)
C17 C 0.3798(3) 0.6320(3) 0.5059(3)
C18 C 0.4694(3) 0.7432(3) 0.5139(3)
C19 C 0.5514(3) 0.7350(3) 0.4260(3)
C20 C 0.5392(3) 0.6175(3) 0.3314(2)
C21 C 0.4462(3) 0.5074(3) 0.3209(3)
C22 C 0.3680(3) 0.5150(3) 0.4090(3)
N2 N 0.6237(3) 0.6092(3) 0.2372(2)
O5 O 0.7203(3) 0.6984(3) 0.2561(3)
O6 O 0.5943(3) 0.5141(3) 0.1440(2)
C23 C 0.1648(3) 0.7901(3) 0.6387(3)
C24 C 0.0503(2) 0.7030(4) 0.5763(3)
C25 C -0.0547(3) 0.7505(4) 0.5433(3)
C26 C -0.0442(4) 0.8827(4) 0.5740(3)
C27 C 0.0685(4) 0.9681(4) 0.6345(4)
C28 C 0.1732(4) 0.9222(3) 0.6667(3)
H1 H 0.13780 0.29610 -0.06550
H2 H -0.02580 0.09190 -0.11960
H3 H -0.11640 0.19670 -0.07560
H4 H -0.07220 0.12960 0.00700
H5 H 0.26080 0.47100 0.01480
H6 H 0.39260 0.68400 0.10680
H7 H 0.14220 0.78040 0.35770
H8 H 0.00660 0.56940 0.26590
H9 H 0.10570 0.22760 0.19310
H10 H 0.26570 0.13960 0.26080
H11 H 0.44320 0.08340 0.15220
H12 H 0.46390 0.12010 -0.02080
H13 H 0.30360 0.20840 -0.08950
H14 H 0.35400 0.81300 0.70130
H15 H 0.23290 0.78930 0.85210
H16 H 0.32000 0.68070 0.81600
H17 H 0.16910 0.64320 0.76690
H18 H 0.47490 0.82570 0.58000
H19 H 0.61650 0.81100 0.43140
H20 H 0.43680 0.42640 0.25240
H21 H 0.30410 0.43820 0.40380
H22 H 0.04310 0.60950 0.55540
H23 H -0.13430 0.68950 0.49880
H24 H -0.11740 0.91540 0.55250
H25 H 0.07530 1.06150 0.65520
H26 H 0.25320 0.98420 0.70900
#END
