
#######################################################################
#
#                 Cambridge Crystallographic Data Centre
#                                CCDC
#
#######################################################################
#
# If this CIF has been generated from an entry in the Cambridge
# Structural Database, then it will include bibliographic, chemical,
# crystal, experimental, refinement or atomic coordinate data resulting
# from the CCDC's data processing and validation procedures.
#
#######################################################################

data_CSD_CIF_DUQRIS
_audit_creation_date 2015-07-22
_audit_creation_method CSD-ConQuest-V1
_database_code_CSD DUQRIS
_database_code_depnum_ccdc_archive 'CCDC 1060735'
_chemical_formula_sum 'C20 H20 N2 O4'
_chemical_formula_moiety
;
C20 H20 N2 O4
;
_journal_coden_Cambridge 574
_journal_volume 122
_journal_year 2015
_journal_page_first 302
_journal_name_full 'Dyes Pigm. '
loop_
_publ_author_name
"Sisi Wang"
"Pengchong Xue"
"Panpan Wang"
"Boqi Yao"
"Kechang Li"
"BaiJun Liu"
_chemical_name_systematic
;
3-(4-butoxy-3-methoxyphenyl)-2-(4-nitrophenyl)acrylonitrile
;
_cell_volume   1801.665
_exptl_crystal_colour 'yellow'
_exptl_crystal_density_diffrn 1.299
_exptl_crystal_description 'block'
_diffrn_ambient_temperature 293
#These two values have been output from a single CSD field.
_refine_ls_R_factor_gt 0.0502
_refine_ls_wR_factor_gt 0.0502
_symmetry_cell_setting triclinic
_symmetry_space_group_name_H-M 'P -1'
_symmetry_Int_Tables_number 2
loop_
_symmetry_equiv_pos_site_id
_symmetry_equiv_pos_as_xyz
1 x,y,z
2 -x,-y,-z
_cell_length_a 7.6575(5)
_cell_length_b 13.7460(9)
_cell_length_c 18.0512(12)
_cell_angle_alpha 107.207(6)
_cell_angle_beta 95.492(5)
_cell_angle_gamma 92.441(5)
_cell_formula_units_Z 4
loop_
_atom_type_symbol
_atom_type_radius_bond
C 0.68
H 0.23
N 0.68
O 0.68
loop_
_atom_site_label
_atom_site_type_symbol
_atom_site_fract_x
_atom_site_fract_y
_atom_site_fract_z
C1 C 1.1089(3) 0.20899(16) -0.09845(13)
H1 H 1.11300 0.22680 -0.14420
C2 C 1.1346(3) 0.11162(16) -0.09748(13)
C3 C 0.6988(3) 0.72781(14) 0.61642(12)
H2 H 0.81120 0.76150 0.61430
H3 H 0.61010 0.75140 0.58510
C4 C 1.1044(3) 0.15653(15) 0.03758(12)
H4 H 1.10710 0.13890 0.08360
C5 C 1.1343(3) 0.08410(16) -0.03044(13)
H5 H 1.15400 0.01770 -0.03080
C6 C 0.6568(3) 0.75904(15) 0.70030(12)
H6 H 0.64590 0.83140 0.71790
H7 H 0.74970 0.74180 0.73270
H8 H 0.54810 0.72370 0.70340
C7 C 0.7689(3) 0.17474(14) 0.38631(13)
H9 H 0.72740 0.14620 0.42450
H10 H 0.88620 0.15580 0.37770
H11 H 0.69270 0.14910 0.33820
C8 C 1.0767(3) 0.28062(16) -0.03012(12)
H12 H 1.05880 0.34710 -0.03020
C9 C 0.8161(3) 0.33748(14) 0.36477(11)
C10 C 1.0666(3) 0.43617(17) 0.11778(12)
C11 C 0.7064(3) 0.61303(14) 0.58088(11)
H13 H 0.78630 0.58740 0.61450
H14 H 0.59060 0.57920 0.57690
C12 C 1.0704(3) 0.25520(14) 0.03861(11)
C13 C 0.8676(3) 0.50400(14) 0.35024(11)
H15 H 0.86840 0.57470 0.36990
C14 C 0.9153(3) 0.46039(14) 0.27611(11)
H16 H 0.94970 0.50220 0.24710
C15 C 1.0291(3) 0.33047(14) 0.11170(11)
C16 C 0.8598(2) 0.29485(14) 0.29076(11)
H17 H 0.85470 0.22410 0.27040
C17 C 0.8189(2) 0.44426(14) 0.39544(11)
C18 C 0.9123(2) 0.35537(14) 0.24468(11)
C19 C 0.9593(2) 0.30086(14) 0.16838(11)
H18 H 0.93680 0.23050 0.15560
C20 C 0.7680(3) 0.58924(14) 0.50112(11)
H19 H 0.68900 0.61530 0.46740
H20 H 0.88470 0.62190 0.50500
N1 N 1.1603(3) 0.03220(16) -0.17016(13)
N2 N 1.0986(3) 0.51864(14) 0.11950(12)
O1 O 1.1499(4) -0.05533(14) -0.17115(12)
O2 O 1.2019(4) 0.05760(14) -0.22420(11)
O3 O 0.76924(19) 0.28398(9) 0.41388(8)
O4 O 0.77141(18) 0.48035(9) 0.46868(7)
C21 C 0.6231(3) 0.08877(18) 0.90074(12)
C22 C 0.8534(3) -0.24112(15) 0.29710(12)
H21 H 0.87590 -0.31210 0.28130
H22 H 0.95260 -0.20130 0.28970
H23 H 0.75060 -0.23100 0.26620
C23 C 0.7018(3) 0.01938(16) 0.65404(13)
H24 H 0.71610 -0.05030 0.63660
C24 C 0.8238(3) -0.20804(14) 0.38228(12)
H25 H 0.92660 -0.22070 0.41290
H26 H 0.72440 -0.24930 0.38930
C25 C 0.6838(3) 0.33975(14) 0.60125(12)
H27 H 0.68880 0.36630 0.55790
H28 H 0.78350 0.36820 0.63930
H29 H 0.57750 0.35780 0.62450
C26 C 0.6597(3) 0.22501(14) 0.70642(12)
H30 H 0.64490 0.29460 0.72390
C27 C 0.6575(3) 0.16779(15) 0.75944(12)
C28 C 0.6359(3) 0.37097(15) 0.99686(12)
H31 H 0.67990 0.39560 0.95910
C29 C 0.6787(3) 0.06429(16) 0.73094(13)
H32 H 0.67720 0.02440 0.76450
C30 C 0.6343(3) 0.22350(15) 0.83941(12)
H33 H 0.62680 0.29320 0.84790
C31 C 0.6215(3) 0.19416(14) 0.90382(12)
C32 C 0.6077(3) 0.43867(15) 1.06699(12)
H34 H 0.63170 0.50850 1.07660
C33 C 0.7521(3) -0.06970(14) 0.49646(12)
H35 H 0.64650 -0.10870 0.50020
H36 H 0.84920 -0.08710 0.52760
C34 C 0.5423(3) 0.23153(15) 1.04055(12)
H37 H 0.52370 0.16170 1.03250
C35 C 0.5124(3) 0.29923(15) 1.11096(12)
H38 H 0.47170 0.27540 1.14980
C36 C 0.7044(3) 0.07570(14) 0.60217(12)
C37 C 0.7888(3) -0.09589(13) 0.41295(11)
H39 H 0.89040 -0.05380 0.40900
H40 H 0.68880 -0.08180 0.38150
C38 C 0.5434(3) 0.40154(15) 1.12295(12)
C39 C 0.6001(3) 0.26649(15) 0.98116(11)
C40 C 0.6832(3) 0.18065(14) 0.62952(11)
N3 N 0.6218(4) 0.00593(16) 0.90094(13)
N4 N 0.5063(2) 0.47496(15) 1.19643(11)
O5 O 0.4383(3) 0.44184(13) 1.24347(10)
O6 O 0.5446(2) 0.56559(12) 1.20689(10)
O7 O 0.6863(2) 0.23139(9) 0.57476(8)
O8 O 0.72921(19) 0.03780(9) 0.52564(8)
#END
