
#######################################################################
#
#                 Cambridge Crystallographic Data Centre
#                                CCDC
#
#######################################################################
#
# If this CIF has been generated from an entry in the Cambridge
# Structural Database, then it will include bibliographic, chemical,
# crystal, experimental, refinement or atomic coordinate data resulting
# from the CCDC's data processing and validation procedures.
#
#######################################################################

data_CSD_CIF_DUSCEA
_audit_creation_date 2010-10-12
_audit_creation_method CSD-ConQuest-V1
_database_code_CSD DUSCEA
_database_code_depnum_ccdc_archive 'CCDC 788303'
_chemical_formula_sum 'C16 H11 N3 O3'
_chemical_formula_moiety
;
C16 H11 N3 O3
;
_journal_coeditor_code "IUCr JH2173"
_journal_coden_Cambridge 1370
_journal_volume 66
_journal_year 2010
_journal_page_first o1892
_journal_name_full 'Acta Crystallogr.,Sect.E:Struct.Rep.Online '
loop_
_publ_author_name
"T.Shibahara"
"K.Takano"
"M.Takahashi"
"M.Yamasaki"
_chemical_name_systematic
;
4-Nitro-6-[(8-quinolylamino)methylidene]cyclohexa-2,4-dien-1-one
;
_chemical_name_common
;
4-Nitro-2-((quinolin-8-yliminio)methyl)phenolate
;
_cell_volume   1297.067
_exptl_crystal_colour 'orange'
_exptl_crystal_density_diffrn 1.502
_exptl_crystal_description 'block'
_diffrn_ambient_temperature 93
#These two values have been output from a single CSD field.
_refine_ls_R_factor_gt 0.0431
_refine_ls_wR_factor_gt 0.0431
_symmetry_cell_setting triclinic
_symmetry_space_group_name_H-M 'P -1'
_symmetry_Int_Tables_number 2
loop_
_symmetry_equiv_pos_site_id
_symmetry_equiv_pos_as_xyz
1 x,y,z
2 -x,-y,-z
_cell_length_a 7.1583(6)
_cell_length_b 8.2978(7)
_cell_length_c 22.040(2)
_cell_angle_alpha 87.432(9)
_cell_angle_beta 86.258(12)
_cell_angle_gamma 83.518(11)
_cell_formula_units_Z 4
loop_
_atom_type_symbol
_atom_type_radius_bond
C 0.68
H 0.23
N 0.68
O 0.68
loop_
_atom_site_label
_atom_site_type_symbol
_atom_site_fract_x
_atom_site_fract_y
_atom_site_fract_z
O1 O 0.43832(13) 0.62852(12) -0.07215(4)
O2 O 1.19749(13) 0.87041(12) -0.17075(4)
O3 O 1.17251(13) 0.96692(12) -0.08065(4)
O4 O -0.16904(14) 0.93926(13) 0.67941(5)
O5 O -0.10119(15) 1.04935(12) 0.59061(5)
O6 O 0.25414(13) 0.33488(11) 0.55531(4)
N1 N 1.11180(15) 0.89084(13) -0.12067(5)
N2 N 0.42381(15) 0.75275(13) 0.03868(5)
N3 N 0.09322(15) 0.63056(13) 0.06404(5)
N4 N -0.09901(15) 0.93035(14) 0.62653(5)
N5 N 0.33339(14) 0.46786(13) 0.44950(5)
N6 N 0.48679(15) 0.16726(13) 0.42680(5)
C1 C 0.58855(18) 0.69178(16) -0.08436(6)
C2 C 0.69123(19) 0.68063(16) -0.14301(6)
C3 C 0.85732(19) 0.74407(16) -0.15485(6)
C4 C 0.93538(18) 0.82506(16) -0.10854(6)
C5 C 0.84328(18) 0.84505(16) -0.05262(6)
C6 C 0.67036(18) 0.78176(16) -0.03944(6)
C7 C 0.58246(18) 0.80688(16) 0.01895(6)
C8 C 0.33581(18) 0.77655(16) 0.09739(6)
C9 C 0.40980(18) 0.85949(16) 0.14119(6)
C10 C 0.31248(18) 0.88074(16) 0.19822(6)
C11 C 0.14418(18) 0.81891(16) 0.21149(6)
C12 C 0.06553(18) 0.73253(16) 0.16752(6)
C13 C 0.16067(18) 0.71080(15) 0.10943(6)
C14 C -0.10795(18) 0.66561(17) 0.17778(6)
C15 C -0.17462(19) 0.58457(17) 0.13279(6)
C16 C -0.06864(18) 0.57026(16) 0.07644(6)
C17 C 0.17001(18) 0.47021(16) 0.57108(6)
C18 C 0.07574(19) 0.49201(17) 0.63044(6)
C19 C -0.01010(18) 0.63861(17) 0.64786(6)
C20 C -0.01113(18) 0.77500(16) 0.60666(6)
C21 C 0.07089(18) 0.76247(16) 0.54887(6)
C22 C 0.16227(18) 0.61281(16) 0.52996(6)
C23 C 0.24603(18) 0.60299(16) 0.47035(6)
C24 C 0.41639(17) 0.44225(16) 0.39051(6)
C25 C 0.41950(18) 0.56114(16) 0.34503(6)
C26 C 0.50404(18) 0.52268(17) 0.28730(6)
C27 C 0.58376(18) 0.36854(16) 0.27533(6)
C28 C 0.58052(17) 0.24344(16) 0.32126(6)
C29 C 0.49608(17) 0.27981(16) 0.37962(6)
C30 C 0.65786(19) 0.08012(17) 0.31225(6)
C31 C 0.64855(19) -0.03123(17) 0.35941(6)
C32 C 0.56198(19) 0.01744(16) 0.41627(6)
H1 H 0.64080 0.62710 -0.17440
H2 H 0.36770 0.69740 0.01350
H3 H 0.92110 0.73440 -0.19390
H4 H 0.89610 0.90180 -0.02260
H5 H 0.34120 0.38350 0.47520
H6 H 0.64270 0.86750 0.04600
H7 H 0.52670 0.90240 0.13290
H8 H 0.36410 0.93890 0.22810
H9 H 0.08040 0.83420 0.25030
H10 H -0.17740 0.67720 0.21580
H11 H -0.29030 0.53850 0.13920
H12 H -0.11710 0.51360 0.04550
H13 H 0.07360 0.40120 0.65820
H14 H -0.06930 0.64970 0.68750
H15 H 0.06590 0.85480 0.52170
H16 H 0.23870 0.69780 0.44450
H17 H 0.36480 0.66860 0.35260
H18 H 0.50590 0.60520 0.25600
H19 H 0.64130 0.34540 0.23620
H20 H 0.71530 0.04900 0.27380
H21 H 0.69980 -0.14080 0.35420
H22 H 0.55770 -0.06190 0.44860
#END
