
#######################################################################
#
#                 Cambridge Crystallographic Data Centre
#                                CCDC
#
#######################################################################
#
# If this CIF has been generated from an entry in the Cambridge
# Structural Database, then it will include bibliographic, chemical,
# crystal, experimental, refinement or atomic coordinate data resulting
# from the CCDC's data processing and validation procedures.
#
#######################################################################

data_CSD_CIF_DUSFIH
_audit_creation_date 2010-10-12
_audit_creation_method CSD-ConQuest-V1
_database_code_CSD DUSFIH
_database_code_depnum_ccdc_archive 'CCDC 788314'
_chemical_formula_sum 'C12 H14 N2 O2'
_chemical_formula_moiety
;
C12 H14 N2 O2
;
_journal_coeditor_code "IUCr JH2164"
_journal_coden_Cambridge 1370
_journal_volume 66
_journal_year 2010
_journal_page_first o1906
_journal_name_full 'Acta Crystallogr.,Sect.E:Struct.Rep.Online '
loop_
_publ_author_name
"Jian-Ye Li"
"Tao Sun"
"Ai-You Hao"
"Hongwei Qiao"
"Feifei Xin"
_chemical_name_systematic
;
2-Isopropyl-3-methylquinoxaline 1,4-dioxide
;
_cell_volume   1089.435
_exptl_crystal_colour 'colorless'
_exptl_crystal_density_diffrn 1.331
_exptl_crystal_description 'block'
_exptl_crystal_preparation 'methanol'
_diffrn_ambient_temperature 296
#These two values have been output from a single CSD field.
_refine_ls_R_factor_gt 0.0568
_refine_ls_wR_factor_gt 0.0568
_symmetry_cell_setting orthorhombic
_symmetry_space_group_name_H-M 'P n m a'
_symmetry_Int_Tables_number 62
loop_
_symmetry_equiv_pos_site_id
_symmetry_equiv_pos_as_xyz
1 x,y,z
2 1/2-x,-y,1/2+z
3 -x,1/2+y,-z
4 1/2+x,1/2-y,1/2-z
5 -x,-y,-z
6 -1/2+x,y,-1/2-z
7 x,-1/2-y,z
8 -1/2-x,-1/2+y,-1/2+z
_cell_length_a 13.3879(10)
_cell_length_b 6.8462(6)
_cell_length_c 11.8861(9)
_cell_angle_alpha 90
_cell_angle_beta 90
_cell_angle_gamma 90
_cell_formula_units_Z 4
loop_
_atom_type_symbol
_atom_type_radius_bond
C 0.68
H 0.23
N 0.68
O 0.68
loop_
_atom_site_label
_atom_site_type_symbol
_atom_site_fract_x
_atom_site_fract_y
_atom_site_fract_z
C1 C 0.9509(2) 0.25000 1.1853(3)
H1 H 0.90260 0.25000 1.24160
C2 C 1.0499(3) 0.25000 1.2128(4)
H2 H 1.06890 0.25000 1.28800
C3 C 1.1212(2) 0.25000 1.1306(4)
H3 H 1.18830 0.25000 1.15100
C4 C 1.0962(2) 0.25000 1.0186(4)
H4 H 1.14540 0.25000 0.96330
C5 C 0.99369(19) 0.25000 0.9893(2)
C6 C 0.92245(18) 0.25000 1.0730(2)
C7 C 0.79331(18) 0.25000 0.9352(2)
C8 C 0.8664(2) 0.25000 0.8500(2)
C9 C 0.8419(3) 0.25000 0.7287(3)
H5 H 0.90230 0.25000 0.68450
H6 H 0.80340 0.13550 0.70990
C10 C 0.6836(2) 0.25000 0.9063(3)
H7 H 0.67980 0.25000 0.82400
C11 C 0.63084(17) 0.0655(4) 0.9452(2)
H8 H 0.66570 -0.04680 0.91690
H9 H 0.56360 0.06520 0.91730
H10 H 0.62990 0.06150 1.02590
N1 N 0.82094(15) 0.25000 1.04424(19)
N2 N 0.96482(17) 0.25000 0.8772(2)
O1 O 0.75580(15) 0.25000 1.12490(18)
O2 O 1.03357(18) 0.25000 0.8002(2)
H6F H 0.80340 0.36450 0.70990
C11F C 0.63084(17) 0.4345(4) 0.9452(2)
H8F H 0.66570 0.54680 0.91690
H9F H 0.56360 0.43480 0.91730
H10F H 0.62990 0.43850 1.02590
#END
