
#######################################################################
#
#                 Cambridge Crystallographic Data Centre
#                                CCDC
#
#######################################################################
#
# If this CIF has been generated from an entry in the Cambridge
# Structural Database, then it will include bibliographic, chemical,
# crystal, experimental, refinement or atomic coordinate data resulting
# from the CCDC's data processing and validation procedures.
#
#######################################################################

data_CSD_CIF_DUSNUB
_audit_creation_date 2010-09-14
_audit_creation_method CSD-ConQuest-V1
_database_code_CSD DUSNUB
_database_code_depnum_ccdc_archive 'CCDC 788351'
_chemical_formula_sum 'C13 H11 N3 O2'
_chemical_formula_moiety
;
C13 H11 N3 O2
;
_journal_coeditor_code "IUCr HB5534"
_journal_coden_Cambridge 1370
_journal_volume 66
_journal_year 2010
_journal_page_first o1955
_journal_name_full 'Acta Crystallogr.,Sect.E:Struct.Rep.Online '
loop_
_publ_author_name
"H.A.Shad"
"M.N.Tahir"
"M.I.Tariq"
"M.Sarfraz"
"S.Ahmad"
_chemical_name_systematic
;
(E)-1-(2-Nitrobenzylidene)-2-phenylhydrazine
;
_cell_volume   4710.843
_exptl_crystal_colour 'violet'
_exptl_crystal_density_diffrn 1.361
_exptl_crystal_description 'prism'
_diffrn_ambient_temperature 296
#These two values have been output from a single CSD field.
_refine_ls_R_factor_gt 0.0446
_refine_ls_wR_factor_gt 0.0446
_symmetry_cell_setting orthorhombic
_symmetry_space_group_name_H-M 'P b c a'
_symmetry_Int_Tables_number 61
loop_
_symmetry_equiv_pos_site_id
_symmetry_equiv_pos_as_xyz
1 x,y,z
2 1/2-x,-y,1/2+z
3 1/2+x,1/2-y,-z
4 -x,1/2+y,1/2-z
5 -x,-y,-z
6 -1/2+x,y,-1/2-z
7 -1/2-x,-1/2+y,z
8 x,-1/2-y,-1/2+z
_cell_length_a 19.4021(13)
_cell_length_b 12.1065(7)
_cell_length_c 20.0554(11)
_cell_angle_alpha 90
_cell_angle_beta 90
_cell_angle_gamma 90
_cell_formula_units_Z 16
loop_
_atom_type_symbol
_atom_type_radius_bond
C 0.68
H 0.23
N 0.68
O 0.68
loop_
_atom_site_label
_atom_site_type_symbol
_atom_site_fract_x
_atom_site_fract_y
_atom_site_fract_z
O1 O -0.02767(9) 0.48801(15) -0.11736(8)
O2 O -0.03824(10) 0.64989(16) -0.15815(9)
N1 N 0.12471(9) 0.27574(14) -0.00241(8)
N2 N 0.12334(8) 0.38691(13) 0.00220(8)
N3 N -0.01209(9) 0.58595(18) -0.11891(9)
C1 C 0.15768(10) 0.21311(16) 0.04626(10)
C2 C 0.15290(12) 0.09962(17) 0.04246(10)
C3 C 0.18603(12) 0.03400(19) 0.08869(12)
C4 C 0.22378(12) 0.0800(2) 0.13901(11)
C5 C 0.22787(12) 0.1929(2) 0.14304(11)
C6 C 0.19503(11) 0.26019(18) 0.0974(1)
C7 C 0.08784(11) 0.44017(16) -0.04126(10)
C8 C 0.0842(1) 0.56020(16) -0.03663(9)
C9 C 0.03909(11) 0.62879(17) -0.07170(9)
C10 C 0.03841(13) 0.74245(19) -0.06341(12)
C11 C 0.08391(15) 0.79155(19) -0.02040(13)
C12 C 0.12983(13) 0.7266(2) 0.01410(12)
C13 C 0.13014(11) 0.61467(18) 0.00641(10)
H1 H 0.10513 0.24344 -0.03557
H2 H 0.12723 0.06716 0.00856
H3 H 0.18261 -0.04244 0.08555
H4 H 0.24630 0.03560 0.16995
H5 H 0.25332 0.22489 0.17727
H6 H 0.19807 0.33661 0.10112
H7 H 0.06484 0.40278 -0.07511
H8 H 0.00707 0.78539 -0.08706
H9 H 0.08374 0.86777 -0.01461
H10 H 0.16112 0.75952 0.04309
H11 H 0.16181 0.57300 0.03047
O3 O 0.53109(9) 0.28838(15) 0.13060(9)
O4 O 0.52867(11) 0.44681(16) 0.08338(9)
N4 N 0.37407(9) 0.07450(14) 0.24028(8)
N5 N 0.38069(8) 0.18402(13) 0.25032(8)
N6 N 0.51143(10) 0.38409(18) 0.12819(9)
C14 C 0.3394(1) 0.00973(16) 0.28709(10)
C15 C 0.30960(11) 0.05488(18) 0.34361(10)
C16 C 0.27540(12) -0.0131(2) 0.38795(11)
C17 C 0.27064(12) -0.1249(2) 0.37713(12)
C18 C 0.30009(12) -0.16936(18) 0.32096(12)
C19 C 0.33432(11) -0.10272(17) 0.27593(11)
C20 C 0.41511(10) 0.23954(16) 0.20722(10)
C21 C 0.42235(10) 0.35828(16) 0.21663(9)
C22 C 0.46637(10) 0.42733(17) 0.18061(10)
C23 C 0.47060(12) 0.53979(18) 0.19184(11)
C24 C 0.43038(13) 0.58790(19) 0.23970(12)
C25 C 0.38560(12) 0.5228(2) 0.27580(11)
C26 C 0.38167(11) 0.41148(18) 0.26445(10)
H12 H 0.39117 0.04455 0.20509
H13 H 0.31260 0.13038 0.35166
H14 H 0.25524 0.01739 0.42579
H15 H 0.24775 -0.16993 0.40748
H16 H 0.29697 -0.24492 0.31318
H17 H 0.35401 -0.13356 0.23798
H18 H 0.43505 0.20467 0.17068
H19 H 0.50081 0.58273 0.16684
H20 H 0.43318 0.66341 0.24777
H21 H 0.35776 0.55483 0.30822
H22 H 0.35083 0.36969 0.28943
#END
