
#######################################################################
#
#                 Cambridge Crystallographic Data Centre
#                                CCDC
#
#######################################################################
#
# If this CIF has been generated from an entry in the Cambridge
# Structural Database, then it will include bibliographic, chemical,
# crystal, experimental, refinement or atomic coordinate data resulting
# from the CCDC's data processing and validation procedures.
#
#######################################################################

data_CSD_CIF_DUSNUB01
_audit_creation_date 2016-06-09
_audit_creation_method CSD-ConQuest-V1
_database_code_CSD DUSNUB01
_database_code_depnum_ccdc_archive 'CCDC 1050239'
_chemical_formula_sum 'C13 H11 N3 O2'
_chemical_formula_moiety
;
C13 H11 N3 O2
;
_journal_coden_Cambridge 1268
_journal_volume 20
_journal_year 2015
_journal_page_first 9929
_journal_name_full 'Molecules '
loop_
_publ_author_name
"Y.Toledano-Magana"
"J.C.Garcia-Ramos"
"M.Navarro-Olivarria"
"M.Flores-Alamo"
"M.Manzanera-Estrada"
"L.Ortiz-Frade"
"R.Galindo-Murillo"
"L.Ruiz-Azuara"
"R.Ma Melendrez-Luevano"
"B.M.Cabrera-Vivas"
_chemical_name_systematic
;
(E)-1-(2-nitrobenzylidene)-2-phenylhydrazine
;
_cell_volume   4548.028
_exptl_crystal_colour 'red'
_exptl_crystal_density_diffrn 1.409
_exptl_crystal_description 'block'
_diffrn_ambient_temperature 130
#These two values have been output from a single CSD field.
_refine_ls_R_factor_gt 0.0444
_refine_ls_wR_factor_gt 0.0444
_symmetry_cell_setting orthorhombic
_symmetry_space_group_name_H-M 'P b c a'
_symmetry_Int_Tables_number 61
loop_
_symmetry_equiv_pos_site_id
_symmetry_equiv_pos_as_xyz
1 x,y,z
2 1/2-x,-y,1/2+z
3 1/2+x,1/2-y,-z
4 -x,1/2+y,1/2-z
5 -x,-y,-z
6 -1/2+x,y,-1/2-z
7 -1/2-x,-1/2+y,z
8 x,-1/2-y,-1/2+z
_cell_length_a 19.0466(8)
_cell_length_b 12.0301(6)
_cell_length_c 19.8489(7)
_cell_angle_alpha 90
_cell_angle_beta 90
_cell_angle_gamma 90
_cell_formula_units_Z 16
loop_
_atom_type_symbol
_atom_type_radius_bond
C 0.68
H 0.23
N 0.68
O 0.68
loop_
_atom_site_label
_atom_site_type_symbol
_atom_site_fract_x
_atom_site_fract_y
_atom_site_fract_z
C1 C 0.66013(7) 0.00945(13) 0.78782(7)
C2 C 0.66546(8) -0.10422(13) 0.77605(8)
H1 H 0.64550 -0.13550 0.73650
C3 C 0.69976(8) -0.17196(14) 0.82182(8)
H2 H 0.70300 -0.24960 0.81350
C4 C 0.72934(8) -0.12743(15) 0.87961(8)
H3 H 0.75280 -0.17400 0.91100
C5 C 0.72430(8) -0.01441(15) 0.89095(7)
H4 H 0.74490 0.01650 0.93030
C6 C 0.68987(8) 0.05467(14) 0.84605(7)
H5 H 0.68650 0.13210 0.85470
C7 C 0.58460(7) 0.24225(13) 0.70732(7)
H6 H 0.56450 0.20770 0.66890
C8 C 0.57759(7) 0.36172(13) 0.71847(7)
C9 C 0.61878(7) 0.41287(14) 0.76836(7)
H7 H 0.65020 0.36850 0.79400
C10 C 0.61517(8) 0.52516(14) 0.78127(7)
H8 H 0.64380 0.55650 0.81560
C11 C 0.57031(8) 0.59290(14) 0.74483(8)
H9 H 0.56750 0.67020 0.75430
C12 C 0.52992(8) 0.54692(13) 0.69479(7)
H10 H 0.49930 0.59260 0.66900
C13 C 0.53378(7) 0.43358(13) 0.68189(7)
O1 O 0.46860(6) 0.29593(10) 0.62763(6)
O2 O 0.47322(7) 0.45855(11) 0.58232(6)
N1 N 0.62584(6) 0.07526(11) 0.74049(6)
N2 N 0.61895(6) 0.18507(11) 0.75131(6)
N3 N 0.48896(6) 0.39296(12) 0.62714(6)
H11 H 0.6034(9) 0.0435(15) 0.7060(9)
C14 C 0.65690(7) 0.70869(13) 0.54806(7)
C15 C 0.65187(8) 0.59355(13) 0.54327(7)
H12 H 0.62580 0.56070 0.50760
C16 C 0.68487(8) 0.52691(14) 0.59047(8)
H13 H 0.68140 0.44840 0.58690
C17 C 0.72281(8) 0.57330(14) 0.64273(7)
H14 H 0.74580 0.52720 0.67470
C18 C 0.72678(8) 0.68786(15) 0.64778(7)
H15 H 0.75230 0.72030 0.68390
C19 C 0.69414(7) 0.75596(14) 0.60110(7)
H16 H 0.69720 0.83450 0.60530
C20 C 0.58787(7) 0.93838(13) 0.45951(7)
H17 H 0.56390 0.90090 0.42420
C21 C 0.58527(7) 1.05927(13) 0.46535(7)
C22 C 0.63211(8) 1.11219(14) 0.50983(7)
H18 H 0.66490 1.06810 0.53410
C23 C 0.63214(8) 1.22505(14) 0.51943(8)
H19 H 0.66470 1.25740 0.54990
C24 C 0.58517(9) 1.29247(14) 0.48504(8)
H20 H 0.58500 1.37050 0.49230
C25 C 0.53898(8) 1.24508(14) 0.44038(8)
H21 H 0.50670 1.29040 0.41630
C26 C 0.53952(7) 1.13058(13) 0.43043(7)
O3 O 0.47084(6) 0.99109(10) 0.38218(5)
O4 O 0.46194(6) 1.15672(11) 0.34220(6)
N4 N 0.62448(7) 0.77268(11) 0.49843(6)
N5 N 0.62358(6) 0.88400(11) 0.50363(6)
N6 N 0.48757(6) 1.08976(12) 0.38179(6)
H22 H 0.6006(9) 0.7390(15) 0.4659(8)
#END
