
#######################################################################
#
#                 Cambridge Crystallographic Data Centre
#                                CCDC
#
#######################################################################
#
# If this CIF has been generated from an entry in the Cambridge
# Structural Database, then it will include bibliographic, chemical,
# crystal, experimental, refinement or atomic coordinate data resulting
# from the CCDC's data processing and validation procedures.
#
#######################################################################

data_CSD_CIF_DUSTER
_audit_creation_date 2010-08-24
_audit_creation_method CSD-ConQuest-V1
_database_code_CSD DUSTER
_database_code_depnum_ccdc_archive 'CCDC 788373'
_chemical_formula_sum 'C21 H17 N1 O2'
_chemical_formula_moiety
;
C21 H17 N1 O2
;
_journal_coeditor_code "IUCr EZ2222"
_journal_coden_Cambridge 1370
_journal_volume 66
_journal_year 2010
_journal_page_first o1986
_journal_name_full 'Acta Crystallogr.,Sect.E:Struct.Rep.Online '
loop_
_publ_author_name
"C.Rizzoli"
"P.Astolfi"
"E.Marku"
"L.Greci"
_chemical_name_systematic
;
3-Benzyl-3-hydroxy-2-phenyl-3H-indole 1-oxide
;
_chemical_melting_point 473.15
_cell_volume   1672.450
_exptl_crystal_colour 'pale yellow'
_exptl_crystal_density_diffrn 1.252
_exptl_special_details
;
Melting point range 473.15-474.15K

;
_exptl_crystal_description 'block'
_exptl_crystal_preparation 'ethanol'
_diffrn_ambient_temperature 294
#These two values have been output from a single CSD field.
_refine_ls_R_factor_gt 0.0528
_refine_ls_wR_factor_gt 0.0528
_symmetry_cell_setting triclinic
_symmetry_space_group_name_H-M 'P -1'
_symmetry_Int_Tables_number 2
loop_
_symmetry_equiv_pos_site_id
_symmetry_equiv_pos_as_xyz
1 x,y,z
2 -x,-y,-z
_cell_length_a 11.635(2)
_cell_length_b 11.971(2)
_cell_length_c 12.063(3)
_cell_angle_alpha 84.773(5)
_cell_angle_beta 88.882(6)
_cell_angle_gamma 88.635(6)
_cell_formula_units_Z 4
loop_
_atom_type_symbol
_atom_type_radius_bond
C 0.68
H 0.23
N 0.68
O 0.68
loop_
_atom_site_label
_atom_site_type_symbol
_atom_site_fract_x
_atom_site_fract_y
_atom_site_fract_z
O1 O 0.46993(13) 0.1907(1) 0.43394(10)
O2 O 0.54286(11) -0.16774(9) 0.33565(11)
H1 H 0.534(2) -0.172(2) 0.410(2)
O3 O 0.03259(14) 0.68855(10) 0.44282(11)
O4 O -0.00423(11) 0.33865(9) 0.32592(12)
H2 H -0.013(2) 0.328(2) 0.407(2)
N1 N 0.52177(13) 0.10469(10) 0.39161(11)
N2 N -0.00636(14) 0.60551(10) 0.39494(11)
C1 C 0.64142(16) 0.08049(13) 0.40690(13)
C2 C 0.7148(2) 0.14275(16) 0.45982(15)
H3 H 0.69200 0.20850 0.49040
C3 C 0.8267(2) 0.10075(19) 0.46471(17)
H4 H 0.88150 0.14010 0.49950
C4 C 0.86049(19) 0.0018(2) 0.41950(17)
H5 H 0.93630 -0.02390 0.42610
C5 C 0.78426(17) -0.05788(16) 0.36581(16)
H6 H 0.80610 -0.12360 0.33480
C6 C 0.67341(15) -0.01605(13) 0.35970(13)
C7 C 0.57370(14) -0.05489(12) 0.30169(13)
C8 C 0.47831(15) 0.02996(12) 0.33305(12)
C9 C 0.36031(15) 0.03120(13) 0.30073(13)
C10 C 0.28318(18) 0.12083(16) 0.31429(16)
H7 H 0.30740 0.18340 0.34710
C11 C 0.1726(2) 0.1165(2) 0.2795(2)
H8 H 0.12140 0.17590 0.28850
C12 C 0.1379(2) 0.0260(2) 0.23201(19)
H9 H 0.06230 0.02350 0.20870
C13 C 0.21224(19) -0.06358(19) 0.21721(19)
H10 H 0.18660 -0.12530 0.18390
C14 C 0.32193(17) -0.06139(15) 0.25114(16)
H11 H 0.37190 -0.12170 0.24140
C15 C 0.60383(16) -0.04876(14) 0.17393(14)
H12 H 0.66980 -0.09790 0.16300
H13 H 0.53960 -0.07730 0.13570
C16 C 0.63050(16) 0.06764(15) 0.12009(13)
C17 C 0.5463(2) 0.13279(18) 0.06942(16)
H14 H 0.47160 0.10670 0.06930
C18 C 0.5709(3) 0.2378(2) 0.0179(2)
H15 H 0.51220 0.27980 -0.01830
C19 C 0.6775(3) 0.2818(2) 0.0181(2)
H16 H 0.69150 0.35320 -0.01600
C20 C 0.7618(3) 0.2195(2) 0.0687(2)
H17 H 0.83560 0.24750 0.07060
C21 C 0.7385(2) 0.1121(2) 0.11877(17)
H18 H 0.79820 0.06930 0.15230
C22 C -0.12773(16) 0.58215(13) 0.40787(13)
C23 C -0.2149(2) 0.63966(15) 0.46520(15)
H19 H -0.19880 0.70360 0.50000
C24 C -0.3243(2) 0.59772(18) 0.46771(17)
H20 H -0.38380 0.63310 0.50450
C25 C -0.34455(18) 0.5030(2) 0.41531(17)
H21 H -0.41830 0.47440 0.41800
C26 C -0.25587(17) 0.44760(17) 0.35706(16)
H22 H -0.27170 0.38390 0.32190
C27 C -0.14607(15) 0.48919(14) 0.35319(13)
C28 C -0.03287(15) 0.45255(13) 0.29552(14)
C29 C 0.05241(15) 0.53448(12) 0.33312(13)
C30 C 0.17631(16) 0.53540(13) 0.30252(13)
C31 C 0.22917(17) 0.44455(16) 0.25119(16)
H23 H 0.18450 0.38400 0.23780
C32 C 0.34565(19) 0.4425(2) 0.22003(19)
H24 H 0.37690 0.38140 0.18650
C33 C 0.41384(19) 0.5308(2) 0.23898(19)
H25 H 0.49140 0.53060 0.21880
C34 C 0.3640(2) 0.62003(19) 0.28893(19)
H26 H 0.40970 0.68010 0.30170
C35 C 0.24684(18) 0.62393(15) 0.32136(16)
H27 H 0.21690 0.68530 0.35520
C36 C -0.03763(17) 0.46461(16) 0.16720(15)
H28 H 0.03890 0.45110 0.13720
H29 H -0.08720 0.40750 0.14360
C37 C -0.08058(18) 0.5768(2) 0.11951(14)
C38 C -0.1895(2) 0.5879(3) 0.0830(2)
H30 H -0.23810 0.52700 0.08900
C39 C -0.2281(3) 0.6934(4) 0.0360(3)
H31 H -0.30220 0.70110 0.00830
C40 C -0.1597(4) 0.7850(3) 0.0297(2)
H32 H -0.18780 0.85450 0.00010
C41 C -0.0534(3) 0.7740(3) 0.0660(2)
H33 H -0.00580 0.83560 0.06160
C42 C -0.0136(2) 0.6711(2) 0.11025(19)
H34 H 0.06160 0.66440 0.13510
#END
