
#######################################################################
#
#                 Cambridge Crystallographic Data Centre
#                                CCDC
#
#######################################################################
#
# If this CIF has been generated from an entry in the Cambridge
# Structural Database, then it will include bibliographic, chemical,
# crystal, experimental, refinement or atomic coordinate data resulting
# from the CCDC's data processing and validation procedures.
#
#######################################################################

data_CSD_CIF_DUSZOI
_audit_creation_date 2015-11-18
_audit_creation_method CSD-ConQuest-V1
_database_code_CSD DUSZOI
_database_code_depnum_ccdc_archive 'CCDC 1403298'
_chemical_formula_sum 'C10 H11 N1 O1'
_chemical_formula_moiety
;
C10 H11 N1 O1
;
_journal_coden_Cambridge 917
_journal_volume 11
_journal_year 2015
_journal_page_first 1503
_journal_name_full 'Beilstein J.Org.Chem. '
loop_
_publ_author_name
"S.Kotha"
"O.Ravikumar"
"J.Majhi"
_chemical_name_systematic
;
(3aS,4R,7S,7aR,Z)-3a,4,7,7a-Tetrahydro-1H-4,7-methanoinden-1-one oxime
;
_chemical_melting_point 363.15
_cell_volume   2481.245
_exptl_crystal_colour 'colorless'
_exptl_crystal_density_diffrn 1.295
_exptl_crystal_preparation 'ethyl acetate'
_diffrn_ambient_temperature 100
#These two values have been output from a single CSD field.
_refine_ls_R_factor_gt 0.0568
_refine_ls_wR_factor_gt 0.0568
_symmetry_cell_setting monoclinic
_symmetry_space_group_name_H-M 'P 21/c'
_symmetry_Int_Tables_number 14
loop_
_symmetry_equiv_pos_site_id
_symmetry_equiv_pos_as_xyz
1 x,y,z
2 -x,1/2+y,1/2-z
3 -x,-y,-z
4 x,-1/2-y,-1/2+z
_cell_length_a 6.081(2)
_cell_length_b 21.357(11)
_cell_length_c 19.131(8)
_cell_angle_alpha 90
_cell_angle_beta 92.969(7)
_cell_angle_gamma 90
_cell_formula_units_Z 12
loop_
_atom_type_symbol
_atom_type_radius_bond
C 0.68
H 0.23
N 0.68
O 0.68
loop_
_atom_site_label
_atom_site_type_symbol
_atom_site_fract_x
_atom_site_fract_y
_atom_site_fract_z
O1 O 1.2706(3) 0.51338(10) 0.17176(11)
H1 H 1.38510 0.52850 0.19160
N1 N 1.1595(4) 0.47692(12) 0.21983(13)
C1 C 1.0167(5) 0.43034(15) 0.05851(15)
H2 H 1.13470 0.45720 0.03980
C2 C 0.8841(5) 0.45937(15) 0.11796(15)
H3 H 0.84730 0.50410 0.10750
C3 C 0.7134(5) 0.36966(15) 0.05832(16)
H4 H 0.58140 0.34600 0.03940
C4 C 0.6705(5) 0.41846(15) 0.11701(16)
H5 H 0.53780 0.44440 0.10390
C5 C 0.9087(5) 0.33010(15) 0.08379(16)
H6 H 0.90390 0.28730 0.09730
C6 C 1.0867(5) 0.36560(15) 0.08388(16)
H7 H 1.23240 0.35290 0.09740
C7 C 0.8359(5) 0.41342(15) 0.23165(16)
H8 H 0.86050 0.40240 0.27950
C8 C 0.8241(5) 0.41245(16) 0.00613(16)
H9 H 0.73170 0.44880 -0.00860
H10 H 0.87340 0.38970 -0.03530
C9 C 0.9819(5) 0.45240(14) 0.19195(15)
C10 C 0.6621(5) 0.39545(16) 0.19076(16)
H11 H 0.54540 0.37060 0.20690
O2 O 0.7442(3) 0.55449(11) 0.30734(11)
H12 H 0.67290 0.52820 0.32980
N2 N 0.6253(4) 0.56944(13) 0.24430(13)
C11 C 1.1681(5) 0.72656(15) 0.25603(16)
H13 H 1.21040 0.76150 0.28790
H14 H 1.30020 0.70290 0.24340
C12 C 0.7273(5) 0.60968(14) 0.20820(15)
C13 C 0.7747(5) 0.67224(15) 0.11209(16)
H15 H 0.74560 0.69240 0.06830
C14 C 0.7946(5) 0.72958(15) 0.28114(16)
H16 H 0.67860 0.73100 0.31250
C15 C 0.8164(5) 0.76713(15) 0.22637(16)
H17 H 0.71940 0.80000 0.21180
C16 C 0.9531(5) 0.63842(14) 0.22192(15)
H18 H 1.06860 0.60510 0.22430
C17 C 0.6363(5) 0.63242(15) 0.14071(15)
H19 H 0.49720 0.62050 0.12000
C18 C 1.0239(5) 0.74779(15) 0.19162(16)
H20 H 1.09020 0.78010 0.16130
C19 C 0.9827(5) 0.68161(15) 0.15716(16)
H21 H 1.11390 0.66820 0.13150
C20 C 0.9869(5) 0.68409(15) 0.28485(16)
H22 H 1.02220 0.66440 0.33150
O3 O 0.7216(3) 0.94895(11) 0.14231(11)
H23 H 0.76070 0.96410 0.18150
N3 N 0.4945(4) 0.95974(13) 0.12846(13)
C21 C 0.6548(5) 0.83816(14) 0.03582(15)
H24 H 0.79630 0.83670 0.06480
C22 C 0.3178(5) 0.79123(14) 0.01119(16)
H25 H 0.18170 0.76980 0.01390
C23 C 0.1862(5) 0.91902(15) -0.02447(16)
H26 H 0.05320 0.91890 -0.05280
C24 C 0.4304(5) 0.93736(14) 0.06840(15)
C25 C 0.4626(5) 0.80285(15) 0.06426(16)
H27 H 0.44800 0.79110 0.11170
C26 C 0.2034(5) 0.94301(15) 0.03977(16)
H28 H 0.08570 0.96110 0.06350
C27 C 0.4102(5) 0.81852(14) -0.05408(16)
H29 H 0.35000 0.80060 -0.09940
C28 C 0.5656(5) 0.90478(14) 0.01557(15)
H30 H 0.68800 0.93240 0.00110
C29 C 0.3982(5) 0.89219(14) -0.04759(15)
H31 H 0.44530 0.91310 -0.09110
C30 C 0.6584(5) 0.80910(16) -0.03809(16)
H32 H 0.75030 0.83310 -0.06990
H33 H 0.70220 0.76450 -0.03730
#END
