
#######################################################################
#
#                 Cambridge Crystallographic Data Centre
#                                CCDC
#
#######################################################################
#
# If this CIF has been generated from an entry in the Cambridge
# Structural Database, then it will include bibliographic, chemical,
# crystal, experimental, refinement or atomic coordinate data resulting
# from the CCDC's data processing and validation procedures.
#
#######################################################################

data_CSD_CIF_DUTBAW
_audit_creation_date 2010-08-30
_audit_creation_method CSD-ConQuest-V1
_database_code_CSD DUTBAW
_database_code_depnum_ccdc_archive 'CCDC 788401'
_chemical_formula_sum 'C15 H18 N2 O4'
_chemical_formula_moiety
;
C15 H18 N2 O4
;
_journal_coeditor_code "IUCr BT5294"
_journal_coden_Cambridge 1370
_journal_volume 66
_journal_year 2010
_journal_page_first o2019
_journal_name_full 'Acta Crystallogr.,Sect.E:Struct.Rep.Online '
loop_
_publ_author_name
"A.M.Asiri"
"S.A.Khan"
"K.W.Tan"
"S.W.Ng"
_chemical_name_systematic
;
3,4-Dimethyl-N-(2,4,5-trimethoxybenzylidene)-1,2-isoxazol-5-amine
;
_cell_volume    718.203
_exptl_crystal_colour 'yellow'
_exptl_crystal_density_diffrn 1.342
_exptl_crystal_description 'prism'
_exptl_crystal_preparation 'methanol'
_diffrn_ambient_temperature 100
#These two values have been output from a single CSD field.
_refine_ls_R_factor_gt 0.0455
_refine_ls_wR_factor_gt 0.0455
_symmetry_cell_setting triclinic
_symmetry_space_group_name_H-M 'P -1'
_symmetry_Int_Tables_number 2
loop_
_symmetry_equiv_pos_site_id
_symmetry_equiv_pos_as_xyz
1 x,y,z
2 -x,-y,-z
_cell_length_a 6.6502(5)
_cell_length_b 10.9012(8)
_cell_length_c 11.2582(8)
_cell_angle_alpha 63.463(1)
_cell_angle_beta 83.078(1)
_cell_angle_gamma 79.985(1)
_cell_formula_units_Z 2
loop_
_atom_type_symbol
_atom_type_radius_bond
C 0.68
H 0.23
N 0.68
O 0.68
loop_
_atom_site_label
_atom_site_type_symbol
_atom_site_fract_x
_atom_site_fract_y
_atom_site_fract_z
O1 O 0.73187(15) 0.64886(10) 0.4096(1)
O2 O 0.14017(16) 0.97942(10) 0.20733(9)
O3 O -0.06033(15) 0.89581(10) 0.43158(9)
O4 O 0.72778(15) 0.3585(1) 0.86306(9)
N1 N 0.42768(18) 0.50963(11) 0.76624(11)
N2 N 0.79017(19) 0.25984(12) 0.99100(11)
C1 C 0.4264(2) 0.66108(13) 0.53406(13)
C2 C 0.5358(2) 0.70964(14) 0.41095(13)
C3 C 0.4429(2) 0.81575(14) 0.29816(13)
H1 H 0.51600 0.84700 0.21440
C4 C 0.2442(2) 0.87494(13) 0.30920(13)
C5 C 0.1333(2) 0.82831(14) 0.43353(13)
C6 C 0.2246(2) 0.72188(14) 0.54297(13)
H2 H 0.14980 0.68890 0.62610
C7 C 0.8522(2) 0.69800(16) 0.28703(14)
H3 H 0.99050 0.64680 0.30130
H4 H 0.85920 0.79680 0.25550
H5 H 0.78910 0.68400 0.22050
C8 C 0.2345(2) 1.02354(15) 0.07629(13)
H6 H 0.14270 1.09820 0.01260
H7 H 0.26230 0.94540 0.05300
H8 H 0.36320 1.05720 0.07360
C9 C -0.1756(2) 0.85422(16) 0.55545(14)
H9 H -0.30940 0.91160 0.54260
H10 H -0.10210 0.86570 0.61950
H11 H -0.19440 0.75690 0.58940
C10 C 0.5224(2) 0.55118(14) 0.65057(13)
H12 H 0.65730 0.50890 0.64190
C11 C 0.5270(2) 0.40739(13) 0.87469(13)
C12 C 0.4552(2) 0.34506(13) 1.00327(13)
C13 C 0.2444(2) 0.36953(15) 1.05885(14)
H13 H 0.16630 0.44970 0.99080
H14 H 0.25270 0.38740 1.13600
H15 H 0.17620 0.28760 1.08620
C14 C 0.6264(2) 0.25434(13) 1.07118(13)
C15 C 0.6394(2) 0.15920(15) 1.21572(14)
H16 H 0.77540 0.10460 1.23230
H17 H 0.53540 0.09690 1.24280
H18 H 0.61610 0.21350 1.26700
#END
