
#######################################################################
#
#                 Cambridge Crystallographic Data Centre
#                                CCDC
#
#######################################################################
#
# If this CIF has been generated from an entry in the Cambridge
# Structural Database, then it will include bibliographic, chemical,
# crystal, experimental, refinement or atomic coordinate data resulting
# from the CCDC's data processing and validation procedures.
#
#######################################################################

data_CSD_CIF_DUTKOU
_audit_creation_date 2015-11-18
_audit_creation_method CSD-ConQuest-V1
_database_code_CSD DUTKOU
_database_code_depnum_ccdc_archive 'CCDC 1428616'
_chemical_formula_sum 'C27 H39 N1 O3'
_chemical_formula_moiety
;
C27 H39 N1 O3
;
_journal_coden_Cambridge 1291
_journal_year 2016
_journal_page_first 83
_journal_name_full 'Eur.J.Org.Chem. '
loop_
_publ_author_name
"S.J.Edeson"
"E.J.M.Maduli"
"S.Swanson"
"P.A.Procopiou"
"J.P.A.Harrity"
_chemical_name_systematic
;
2,2-dicyclohexyl-1-(cyclohexyloxy)-5-methoxy-1,2-dihydro-3H-indol-3-one
;
_chemical_name_common
;
2,2-dicyclohexyl-1-(cyclohexyloxy)-5-methoxyindolin-3-one
;
_chemical_melting_point 446
_cell_volume   1166.621
_exptl_crystal_colour 'yellow'
_exptl_crystal_density_diffrn 1.212
_exptl_special_details
;
Melting point range 446-449K

;
_exptl_crystal_description 'block'
_exptl_crystal_preparation '2-propanol'
_diffrn_ambient_temperature 296
#These two values have been output from a single CSD field.
_refine_ls_R_factor_gt 0.0712
_refine_ls_wR_factor_gt 0.0712
_symmetry_cell_setting triclinic
_symmetry_space_group_name_H-M 'P -1'
_symmetry_Int_Tables_number 2
loop_
_symmetry_equiv_pos_site_id
_symmetry_equiv_pos_as_xyz
1 x,y,z
2 -x,-y,-z
_cell_length_a 9.3163(7)
_cell_length_b 10.7518(8)
_cell_length_c 11.6696(8)
_cell_angle_alpha 91.064(4)
_cell_angle_beta 90.960(4)
_cell_angle_gamma 93.268(4)
_cell_formula_units_Z 2
loop_
_atom_type_symbol
_atom_type_radius_bond
C 0.68
H 0.23
N 0.68
O 0.68
loop_
_atom_site_label
_atom_site_type_symbol
_atom_site_fract_x
_atom_site_fract_y
_atom_site_fract_z
O1 O 0.23717(19) 0.47558(17) 0.75778(16)
O2 O 0.3939(2) 0.11574(19) 0.35609(18)
O3 O -0.0109(2) 0.07945(17) 0.69725(17)
N1 N 0.1386(2) 0.3897(2) 0.69611(18)
C1 C 0.2390(3) 0.8648(3) 0.7000(3)
H1 H 0.21230 0.95030 0.70820
H2 H 0.31950 0.86350 0.64830
C2 C 0.2845(3) 0.8174(3) 0.8164(3)
H3 H 0.20790 0.82730 0.87050
H4 H 0.36890 0.86630 0.84470
C3 C 0.3185(3) 0.6801(2) 0.8078(2)
H5 H 0.40140 0.67120 0.75970
H6 H 0.34180 0.65020 0.88340
C4 C 0.1904(3) 0.6023(2) 0.7571(2)
H7 H 0.10870 0.60820 0.80830
C5 C 0.2124(3) 0.3290(2) 0.6089(2)
C6 C 0.1651(3) 0.2042(2) 0.5943(2)
C7 C 0.2178(3) 0.1270(3) 0.5087(2)
H8 H 0.18230 0.04490 0.49810
C8 C 0.3252(3) 0.1782(3) 0.4405(2)
C9 C 0.3668(3) -0.0159(3) 0.3479(3)
H9 H 0.38550 -0.05190 0.42090
H10 H 0.42850 -0.04980 0.29160
H11 H 0.26820 -0.03470 0.32550
C10 C 0.1128(3) 0.7854(3) 0.6488(3)
H12 H 0.08960 0.81500 0.57310
H13 H 0.02940 0.79340 0.69640
C11 C 0.1482(3) 0.6478(3) 0.6401(3)
H14 H 0.06500 0.59820 0.61050
H15 H 0.22660 0.63850 0.58750
C12 C 0.0626(3) 0.2909(2) 0.7664(2)
C13 C 0.0637(3) 0.1755(2) 0.6851(2)
C14 C -0.0958(3) 0.3200(2) 0.7856(2)
H16 H -0.14420 0.24300 0.81290
C15 C -0.1208(3) 0.4213(3) 0.8760(2)
H17 H -0.07610 0.40010 0.94810
H18 H -0.07650 0.50010 0.85180
C16 C -0.2815(3) 0.4342(3) 0.8927(3)
H19 H -0.32420 0.35690 0.92150
H20 H -0.29500 0.49950 0.94940
C17 C -0.3572(3) 0.4654(3) 0.7813(3)
H21 H -0.32060 0.54630 0.75570
H22 H -0.45940 0.46940 0.79400
C18 C -0.3323(3) 0.3668(3) 0.6897(3)
H23 H -0.37600 0.39040 0.61790
H24 H -0.37840 0.28790 0.71190
C19 C -0.1724(3) 0.3510(3) 0.6725(2)
H25 H -0.12820 0.42730 0.64250
H26 H -0.16060 0.28460 0.61660
C20 C 0.1495(3) 0.2668(2) 0.8784(2)
H27 H 0.16090 0.34610 0.92130
C21 C 0.3016(3) 0.2231(3) 0.8561(2)
H28 H 0.29400 0.14350 0.81520
H29 H 0.35300 0.28280 0.80820
C22 C 0.3860(3) 0.2098(3) 0.9685(2)
H30 H 0.47920 0.17850 0.95180
H31 H 0.40190 0.29110 1.00530
C23 C 0.3073(3) 0.1219(3) 1.0500(3)
H32 H 0.35960 0.12200 1.12260
H33 H 0.30320 0.03790 1.01810
C24 C 0.1548(3) 0.1618(3) 1.0701(2)
H34 H 0.15930 0.24180 1.11010
H35 H 0.10450 0.10160 1.11810
C25 C 0.0710(3) 0.1720(3) 0.9566(2)
H36 H -0.02480 0.19820 0.97190
H37 H 0.06190 0.09100 0.91820
C26 C 0.3190(3) 0.3803(3) 0.5390(2)
H38 H 0.35200 0.46320 0.54780
C27 C 0.3737(3) 0.3041(3) 0.4565(2)
H39 H 0.44540 0.33690 0.40950
#END
