
#######################################################################
#
#                 Cambridge Crystallographic Data Centre
#                                CCDC
#
#######################################################################
#
# If this CIF has been generated from an entry in the Cambridge
# Structural Database, then it will include bibliographic, chemical,
# crystal, experimental, refinement or atomic coordinate data resulting
# from the CCDC's data processing and validation procedures.
#
#######################################################################

data_CSD_CIF_DUTQOZ
_audit_creation_date 2010-08-30
_audit_creation_method CSD-ConQuest-V1
_database_code_CSD DUTQOZ
_database_code_depnum_ccdc_archive 'CCDC 788464'
_chemical_formula_sum 'C12 H8 N2 O4'
_chemical_formula_moiety
;
C12 H8 N2 O4
;
_journal_coeditor_code "IUCr WN2400"
_journal_coden_Cambridge 1370
_journal_volume 66
_journal_year 2010
_journal_page_first o2106
_journal_name_full 'Acta Crystallogr.,Sect.E:Struct.Rep.Online '
loop_
_publ_author_name
"Xiao-Jun Zhao"
"Cheng-Jun Hao"
_chemical_name_systematic
;
3-Nitro-5-(4-pyridinio)benzoate
;
_cell_volume   4268.514
_exptl_crystal_colour 'colorless'
_exptl_crystal_density_diffrn 1.52
_exptl_crystal_description 'needle'
_diffrn_ambient_temperature 298
#These two values have been output from a single CSD field.
_refine_ls_R_factor_gt 0.0483
_refine_ls_wR_factor_gt 0.0483
_symmetry_cell_setting orthorhombic
_symmetry_space_group_name_H-M 'F d d 2'
_symmetry_Int_Tables_number 43
loop_
_symmetry_equiv_pos_site_id
_symmetry_equiv_pos_as_xyz
1 x,y,z
2 -x,-y,z
3 1/4+x,1/4-y,1/4+z
4 1/4-x,1/4+y,1/4+z
5 x,1/2+y,1/2+z
6 -x,1/2-y,1/2+z
7 1/4+x,3/4-y,3/4+z
8 1/4-x,3/4+y,3/4+z
9 1/2+x,y,1/2+z
10 1/2-x,-y,1/2+z
11 3/4+x,1/4-y,3/4+z
12 3/4-x,1/4+y,3/4+z
13 1/2+x,1/2+y,z
14 1/2-x,1/2-y,z
15 3/4+x,3/4-y,1/4+z
16 3/4-x,3/4+y,1/4+z
_cell_length_a 16.1215(14)
_cell_length_b 37.126(3)
_cell_length_c 7.1317(8)
_cell_angle_alpha 90
_cell_angle_beta 90
_cell_angle_gamma 90
_cell_formula_units_Z 16
loop_
_atom_type_symbol
_atom_type_radius_bond
C 0.68
H 0.23
N 0.68
O 0.68
loop_
_atom_site_label
_atom_site_type_symbol
_atom_site_fract_x
_atom_site_fract_y
_atom_site_fract_z
N1 N -0.0034(3) 0.07102(12) 0.9143(9)
N2 N 0.3542(3) -0.05673(10) 0.8083(7)
H1 H 0.38360 -0.07600 0.81090
O1 O 0.3097(2) 0.13480(9) 0.5977(7)
O2 O 0.2043(2) 0.16759(9) 0.7037(7)
O3 O -0.0420(2) 0.09929(10) 0.9147(9)
O4 O -0.0331(2) 0.04219(10) 0.9681(8)
C1 C 0.2386(4) 0.13874(13) 0.6766(9)
C2 C 0.2001(3) 0.10398(12) 0.7393(8)
C3 C 0.1187(3) 0.10352(12) 0.7997(8)
H2 H 0.08810 0.12470 0.80460
C4 C 0.0835(3) 0.07138(12) 0.8524(9)
C5 C 0.1277(3) 0.03937(12) 0.8486(8)
H3 H 0.10200 0.01790 0.88220
C6 C 0.2104(3) 0.03957(11) 0.7944(7)
C7 C 0.2461(3) 0.07216(11) 0.7400(8)
H4 H 0.30150 0.07270 0.70350
C8 C 0.2731(3) -0.05830(13) 0.7825(8)
H5 H 0.24800 -0.08070 0.76850
C9 C 0.2244(3) -0.02788(12) 0.7757(8)
H6 H 0.16750 -0.03000 0.75800
C10 C 0.2600(3) 0.00589(12) 0.7950(8)
C11 C 0.3461(3) 0.00687(12) 0.8235(9)
H7 H 0.37340 0.02880 0.83780
C12 C 0.3890(3) -0.02476(13) 0.8300(9)
H8 H 0.44590 -0.02380 0.85070
#END
