
#######################################################################
#
#                 Cambridge Crystallographic Data Centre
#                                CCDC
#
#######################################################################
#
# If this CIF has been generated from an entry in the Cambridge
# Structural Database, then it will include bibliographic, chemical,
# crystal, experimental, refinement or atomic coordinate data resulting
# from the CCDC's data processing and validation procedures.
#
#######################################################################

data_CSD_CIF_DUTRIT01
_audit_creation_date 2013-04-24
_audit_creation_method CSD-ConQuest-V1
_database_code_CSD DUTRIT01
_database_code_depnum_ccdc_archive 'CCDC 920011'
_database_code_depnum_ccdc_journal 1267/3854
_chemical_formula_sum 'C15 H11 N1 O4'
_chemical_formula_moiety
;
C15 H11 N1 O4
;
_journal_coden_Cambridge 1267
_journal_volume 227
_journal_year 2012
_journal_page_first 501
_journal_name_full 'Z.Kristallogr.-New Cryst.Struct. '
loop_
_publ_author_name
"Yunhui Sun"
"Huihui Chen"
"Hongyu Chen"
"Duxia Cao"
"Zhiqiang Liu"
_chemical_name_systematic
;
2-(4-Nitrophenyl)-2,3-dihydro-4H-chromen-4-one
;
_cell_volume    635.771
_exptl_crystal_colour 'colorless'
_exptl_crystal_density_diffrn 1.406
_exptl_crystal_description 'plate'
_diffrn_ambient_temperature 293
#These two values have been output from a single CSD field.
_refine_ls_R_factor_gt 0.0503
_refine_ls_wR_factor_gt 0.0503
_symmetry_cell_setting triclinic
_symmetry_space_group_name_H-M 'P -1'
_symmetry_Int_Tables_number 2
loop_
_symmetry_equiv_pos_site_id
_symmetry_equiv_pos_as_xyz
1 x,y,z
2 -x,-y,-z
_cell_length_a 7.791(5)
_cell_length_b 8.452(5)
_cell_length_c 9.977(5)
_cell_angle_alpha 90.780(5)
_cell_angle_beta 104.066(5)
_cell_angle_gamma 93.562(5)
_cell_formula_units_Z 2
loop_
_atom_type_symbol
_atom_type_radius_bond
C 0.68
H 0.23
N 0.68
O 0.68
loop_
_atom_site_label
_atom_site_type_symbol
_atom_site_fract_x
_atom_site_fract_y
_atom_site_fract_z
C1 C -0.1124(3) 0.4405(2) 0.1693(2)
C2 C -0.2937(3) 0.4130(3) 0.1184(2)
H1 H -0.37050 0.48710 0.13440
C3 C -0.3593(3) 0.2746(3) 0.0438(2)
H2 H -0.48110 0.25550 0.00970
C4 C -0.2465(3) 0.1638(3) 0.0190(2)
H3 H -0.29170 0.07020 -0.03060
C5 C -0.0676(3) 0.1938(3) 0.0684(2)
H4 H 0.00850 0.11990 0.05090
C6 C 0.0035(3) 0.3318(2) 0.1442(2)
C7 C 0.1965(3) 0.3647(3) 0.1927(2)
C8 C 0.2534(3) 0.5218(2) 0.2668(2)
H5 H 0.27090 0.60090 0.20090
H6 H 0.36550 0.51390 0.33400
C9 C 0.1158(3) 0.5731(2) 0.3394(2)
H7 H 0.10560 0.49550 0.40960
C10 C 0.1672(3) 0.7340(2) 0.4108(2)
C11 C 0.2777(3) 0.7438(3) 0.5416(2)
H8 H 0.31470 0.65130 0.58580
C12 C 0.3344(3) 0.8886(3) 0.6084(2)
H9 H 0.40940 0.89460 0.69670
C13 C 0.2780(3) 1.0232(2) 0.5417(2)
C14 C 0.1672(3) 1.0181(3) 0.4121(2)
H10 H 0.13000 1.11110 0.36880
C15 C 0.1118(3) 0.8722(3) 0.3469(2)
H11 H 0.03620 0.86700 0.25880
N1 N 0.3372(3) 1.1790(2) 0.6116(2)
O1 O -0.05367(17) 0.57852(16) 0.24519(14)
O2 O 0.30267(19) 0.27282(19) 0.17265(18)
O3 O 0.4172(3) 1.1820(2) 0.73233(19)
O4 O 0.3041(2) 1.2986(2) 0.54596(19)
#END
