
#######################################################################
#
#                 Cambridge Crystallographic Data Centre
#                                CCDC
#
#######################################################################
#
# If this CIF has been generated from an entry in the Cambridge
# Structural Database, then it will include bibliographic, chemical,
# crystal, experimental, refinement or atomic coordinate data resulting
# from the CCDC's data processing and validation procedures.
#
#######################################################################

data_CSD_CIF_DUVVOG
_audit_creation_date 2010-08-15
_audit_creation_method CSD-ConQuest-V1
_database_code_CSD DUVVOG
_database_code_depnum_ccdc_archive 'CCDC 790354'
_chemical_formula_sum 'C21 H32 N2 O9'
_chemical_formula_moiety
;
C21 H32 N2 O9
;
_journal_coden_Cambridge 1220
_journal_volume 15
_journal_year 2009
_journal_page_first 12470
_journal_name_full 'Chem.-Eur.J. '
loop_
_publ_author_name
"E.Dumez"
"A.-C.Durand"
"M.Guillaume"
"P.-Y.Roger"
"R.Faure"
"J.-M.Pons"
"G.Herbette"
"J.-P.Dulcere"
"D.Bonne"
"J.Rodriguez"
_chemical_name_systematic
;
dimethyl 
2-(3-(t-butoxycarbonyl)-2,2-dimethyloxazolidin-4-yl)-3-methyl-4-methylene-3-ni
trocyclopentane-1,1-dicarboxylate
;
_cell_volume   4630.959
_exptl_crystal_colour 'colorless'
_exptl_crystal_density_diffrn 1.309
_exptl_crystal_description 'prism'
_diffrn_ambient_temperature 293
#These two values have been output from a single CSD field.
_refine_ls_R_factor_gt 0.0624
_refine_ls_wR_factor_gt 0.0624
_symmetry_cell_setting monoclinic
_symmetry_space_group_name_H-M 'C 2/c'
_symmetry_Int_Tables_number 15
loop_
_symmetry_equiv_pos_site_id
_symmetry_equiv_pos_as_xyz
1 x,y,z
2 -x,y,1/2-z
3 1/2+x,1/2+y,z
4 1/2-x,1/2+y,1/2-z
5 -x,-y,-z
6 x,-y,-1/2+z
7 -1/2-x,-1/2-y,-z
8 -1/2+x,-1/2-y,-1/2+z
_cell_length_a 19.021(8)
_cell_length_b 7.712(5)
_cell_length_c 31.814(2)
_cell_angle_alpha 90
_cell_angle_beta 97.105
_cell_angle_gamma 90
_cell_formula_units_Z 8
loop_
_atom_type_symbol
_atom_type_radius_bond
C 0.68
H 0.23
N 0.68
O 0.68
loop_
_atom_site_label
_atom_site_type_symbol
_atom_site_fract_x
_atom_site_fract_y
_atom_site_fract_z
O1 O 0.68358(8) 0.8286(3) 0.96133(4)
O2 O 0.56540(8) 0.9215(3) 0.84572(5)
O3 O 0.67439(8) 0.9566(2) 0.82446(4)
O4 O 0.93156(10) 0.7803(3) 0.96106(5)
O5 O 0.88457(8) 1.0226(2) 0.93140(5)
O6 O 0.85709(10) 0.9128(3) 0.82161(6)
O7 O 0.96161(9) 0.9103(3) 0.86128(6)
O8 O 0.67015(15) 0.3827(4) 0.88405(9)
O9 O 0.68903(12) 0.5449(3) 0.83251(7)
N1 N 0.66559(9) 0.8726(3) 0.89076(5)
N2 N 0.70465(13) 0.4916(3) 0.86760(8)
C1 C 0.62745(12) 0.8727(4) 0.92914(6)
C2 C 0.74285(11) 0.8922(3) 0.90224(6)
H1 H 0.75700 1.00400 0.89130
C3 C 0.74637(12) 0.9069(3) 0.95073(6)
H2 H 0.78780 0.84710 0.96450
H3 H 0.74870 1.02750 0.95940
C4 C 0.78592(10) 0.7484(3) 0.88339(6)
H4 H 0.77270 0.75840 0.85270
C5 C 0.86874(11) 0.7689(3) 0.88963(6)
C6 C 0.89780(14) 0.5816(3) 0.88686(9)
H5 H 0.92970 0.57460 0.86540
H6 H 0.92330 0.54680 0.91380
C7 C 0.83504(14) 0.4681(3) 0.87555(7)
C8 C 0.77319(13) 0.5552(3) 0.89312(7)
C9 C 0.57258(15) 0.7322(5) 0.92842(8)
H7 H 0.55640 0.72400 0.95580
H8 H 0.59300 0.62360 0.92150
H9 H 0.53330 0.75930 0.90750
C10 C 0.59756(15) 1.0513(4) 0.93744(9)
H10 H 0.63530 1.13470 0.94060
H11 H 0.57520 1.04770 0.96290
H12 H 0.56330 1.08380 0.91400
C11 C 0.62945(12) 0.9186(3) 0.85244(6)
C12 C 0.64700(13) 0.9957(3) 0.77979(6)
C13 C 0.60777(16) 0.8383(4) 0.76003(8)
H13 H 0.56660 0.81680 0.77390
H14 H 0.63840 0.73900 0.76320
H15 H 0.59350 0.85950 0.73050
C14 C 0.60140(17) 1.1569(4) 0.77772(9)
H16 H 0.62610 1.24720 0.79420
H17 H 0.55780 1.13150 0.78880
H18 H 0.59130 1.19410 0.74880
C15 C 0.71420(15) 1.0268(4) 0.76016(8)
H19 H 0.74410 0.92630 0.76420
H20 H 0.73860 1.12540 0.77340
H21 H 0.70260 1.04840 0.73040
C16 C 0.77282(16) 0.5048(3) 0.93954(8)
H22 H 0.76650 0.38170 0.94160
H23 H 0.73470 0.56340 0.95080
H24 H 0.81700 0.53760 0.95540
C17 C 0.83333(19) 0.3219(4) 0.85422(9)
H25 H 0.87430 0.28010 0.84460
H26 H 0.79120 0.26030 0.84880
C18 C 0.89938(11) 0.8541(3) 0.93160(7)
C19 C 0.90767(15) 1.1181(4) 0.96964(8)
H27 H 0.95700 1.09590 0.97820
H28 H 0.88070 1.08190 0.99170
H29 H 0.90060 1.23980 0.96450
C20 C 0.89304(12) 0.8745(3) 0.85335(7)
C21 C 0.99370(15) 0.9964(4) 0.82792(9)
H30 H 0.98490 1.11880 0.82900
H31 H 0.97360 0.95160 0.80090
H32 H 1.04390 0.97580 0.83180
#END
