
#######################################################################
#
#                 Cambridge Crystallographic Data Centre
#                                CCDC
#
#######################################################################
#
# If this CIF has been generated from an entry in the Cambridge
# Structural Database, then it will include bibliographic, chemical,
# crystal, experimental, refinement or atomic coordinate data resulting
# from the CCDC's data processing and validation procedures.
#
#######################################################################

data_CSD_CIF_DUWKOX
_audit_creation_date 2015-11-19
_audit_creation_method CSD-ConQuest-V1
_database_code_CSD DUWKOX
_database_code_depnum_ccdc_archive 'CCDC 1043246'
_chemical_formula_sum 'C19 H24 N2 O2'
_chemical_formula_moiety
;
C19 H24 N2 O2
;
_journal_coden_Cambridge 16
_journal_volume 72
_journal_year 2016
_journal_page_first 1276
_journal_name_full 'Tetrahedron '
loop_
_publ_author_name
"Hua Jiang"
"Yun-Bao Liu"
"Yong Li"
"Li Li"
"Shuang-Gang Ma"
"Jing Qu"
"Shi-Shan Yu"
_chemical_name_systematic
;
2-(5-oxido-1,2,3,4,6,7,12,12b-octahydroindolo[2,3-a]quinolizin-2-yl)but-3-en-1
-ol
;
_chemical_name_common
;
(3S,4S,15S,20R)-antirhine N4-oxide
;
_cell_volume    801.158
_exptl_crystal_colour 'colorless'
_exptl_crystal_density_diffrn 1.295
_exptl_special_details
;
Absolute configuration

;
_exptl_crystal_description 'Prism'
_diffrn_ambient_temperature 293
#These two values have been output from a single CSD field.
_refine_ls_R_factor_gt 0.0322
_refine_ls_wR_factor_gt 0.0322
_symmetry_cell_setting monoclinic
_symmetry_space_group_name_H-M 'P 21'
_symmetry_Int_Tables_number 4
loop_
_symmetry_equiv_pos_site_id
_symmetry_equiv_pos_as_xyz
1 x,y,z
2 -x,1/2+y,-z
_cell_length_a 8.6816(3)
_cell_length_b 10.2853(3)
_cell_length_c 9.6236(3)
_cell_angle_alpha 90
_cell_angle_beta 111.201(4)
_cell_angle_gamma 90
_cell_formula_units_Z 2
loop_
_atom_type_symbol
_atom_type_radius_bond
C 0.68
H 0.23
N 0.68
O 0.68
loop_
_atom_site_label
_atom_site_type_symbol
_atom_site_fract_x
_atom_site_fract_y
_atom_site_fract_z
N1 N 0.68666(15) 0.50097(12) 0.17747(13)
H1 H 0.67370 0.48160 0.08700
N2 N 0.54044(15) 0.84185(12) 0.20484(14)
O1 O 0.40987(12) 0.92042(10) 0.11730(11)
O2 O 1.10489(13) 0.80846(13) 0.05881(13)
H2 H 1.19820 0.83950 0.08620
C1 C 0.63980(17) 0.61516(15) 0.22532(16)
C2 C 0.54008(18) 0.71679(14) 0.11843(16)
H3 H 0.42580 0.68560 0.07750
C3 C 0.50867(18) 0.81128(15) 0.34656(16)
H4 H 0.40310 0.76730 0.32010
H5 H 0.50080 0.89230 0.39510
C4 C 0.64150(19) 0.72674(15) 0.45689(16)
H6 H 0.73970 0.77830 0.50600
H7 H 0.60200 0.69380 0.53240
C5 C 0.68273(17) 0.61563(16) 0.37630(16)
C6 C 0.76012(18) 0.49250(16) 0.42892(16)
C7 C 0.82455(18) 0.43285(17) 0.56932(16)
H8 H 0.82810 0.47720 0.65460
C8 C 0.88283(18) 0.30655(17) 0.57836(18)
H9 H 0.92400 0.26560 0.67070
C9 C 0.88098(19) 0.23925(16) 0.45137(19)
H10 H 0.92200 0.15490 0.46110
C10 C 0.81897(17) 0.29610(16) 0.31094(17)
H11 H 0.81790 0.25140 0.22660
C11 C 0.75829(17) 0.42310(16) 0.30126(16)
C12 C 0.59432(17) 0.74356(14) -0.01337(15)
H12 H 0.51090 0.79610 -0.08620
H13 H 0.60220 0.66180 -0.06050
C13 C 0.76088(17) 0.81382(14) 0.03305(16)
H14 H 0.84270 0.75920 0.10690
C14 C 0.74748(18) 0.94117(15) 0.11003(17)
H15 H 0.85250 0.98650 0.14110
H16 H 0.66480 0.99640 0.04020
C15 C 0.70048(17) 0.91559(15) 0.24479(16)
H17 H 0.78780 0.86620 0.31770
H18 H 0.69020 0.99790 0.28990
C16 C 0.7335(2) 1.01155(17) -0.29389(19)
C17 C 0.69927(18) 0.91078(16) -0.22601(16)
H19 H 0.58950 0.88410 -0.25930
C18 C 0.82025(18) 0.83356(15) -0.09910(17)
H20 H 0.82740 0.74690 -0.13860
C19 C 0.99337(19) 0.89169(16) -0.04868(17)
H21 H 1.02760 0.90140 -0.13350
H22 H 0.99350 0.97700 -0.00570
H23 H 0.655(2) 1.057(2) -0.375(2)
H24 H 0.844(3) 1.042(3) -0.264(3)
#END
