
#######################################################################
#
#                 Cambridge Crystallographic Data Centre
#                                CCDC
#
#######################################################################
#
# If this CIF has been generated from an entry in the Cambridge
# Structural Database, then it will include bibliographic, chemical,
# crystal, experimental, refinement or atomic coordinate data resulting
# from the CCDC's data processing and validation procedures.
#
#######################################################################

data_CSD_CIF_DUWRES
_audit_creation_date 1987-06-30
_audit_creation_method CSD-ConQuest-V1
_database_code_CSD DUWRES
_chemical_formula_sum 'C11 H21 N3 O2'
_chemical_formula_moiety
;
C11 H21 N3 O2
;
_journal_coden_Cambridge 10
_journal_volume 69
_journal_year 1986
_journal_page_first 298
_journal_name_full 'Helv.Chim.Acta '
loop_
_publ_author_name
"B.Hostettler"
"J.P.Obrecht"
"R.Prewo"
"J.H.Bieri"
"H.Heimgartner"
_chemical_name_systematic
;
3-Dimethylamino-5,6,7,8-tetrahydro-4,4,7,7-tetramethyl-4H-1,2,5-oxadiazocin-6-
one
;
_chemical_melting_point 356.15
_cell_volume   1250.409
_exptl_crystal_colour 'colorless'
_exptl_crystal_density_diffrn 1.21
_exptl_special_details
;
Melting point range 356.15-358.15K

;
_diffrn_ambient_temperature 133.15
#These two values have been output from a single CSD field.
_refine_ls_R_factor_gt 0.046
_refine_ls_wR_factor_gt 0.046
_symmetry_cell_setting monoclinic
_symmetry_space_group_name_H-M 'P 21/c'
_symmetry_Int_Tables_number 14
loop_
_symmetry_equiv_pos_site_id
_symmetry_equiv_pos_as_xyz
1 x,y,z
2 -x,1/2+y,1/2-z
3 -x,-y,-z
4 x,-1/2-y,-1/2+z
_cell_length_a 10.842(1)
_cell_length_b 10.152(1)
_cell_length_c 11.365(1)
_cell_angle_alpha 90
_cell_angle_beta 91.642(6)
_cell_angle_gamma 90
_cell_formula_units_Z 4
loop_
_atom_type_symbol
_atom_type_radius_bond
C 0.68
H 0.23
N 0.68
O 0.68
loop_
_atom_site_label
_atom_site_type_symbol
_atom_site_fract_x
_atom_site_fract_y
_atom_site_fract_z
O1 O 0.3836(1) 0.4025(1) 0.2658(1)
N1 N 0.3502(1) 0.5039(1) 0.1811(1)
C1 C 0.2329(1) 0.5254(1) 0.1665(1)
N2 N 0.2032(1) 0.6203(1) 0.0814(1)
C2 C 0.1257(1) 0.4511(1) 0.2260(1)
N3 N 0.1620(1) 0.3108(1) 0.2397(1)
H1 H 0.2020(9) 0.2961(11) 0.3134(8)
C3 C 0.2207(1) 0.2498(1) 0.1483(1)
O2 O 0.1872(1) 0.2633(1) 0.0452(1)
C4 C 0.3402(1) 0.1785(1) 0.1847(1)
C5 C 0.4344(1) 0.2924(1) 0.2041(1)
H2 H 0.5046(12) 0.2539(12) 0.2548(12)
H3 H 0.4638(10) 0.3243(11) 0.129(1)
C6 C 0.3038(1) 0.6633(1) 0.0077(1)
H4 H 0.3459(10) 0.5859(11) -0.0223(9)
H5 H 0.3611(10) 0.7220(12) 0.0544(10)
H6 H 0.2732(11) 0.7144(12) -0.0616(10)
C7 C 0.1298(1) 0.7335(1) 0.1172(1)
H7 H 0.0705(10) 0.7069(11) 0.1713(9)
H8 H 0.0842(13) 0.7713(16) 0.0487(13)
H9 H 0.1820(11) 0.8040(13) 0.1491(10)
C8 C 0.0042(1) 0.4556(1) 0.1541(1)
H10 H -0.0547(10) 0.3938(12) 0.1897(10)
H11 H 0.0146(10) 0.4208(10) 0.0755(9)
H12 H -0.0312(10) 0.5453(12) 0.1469(10)
C9 C 0.1092(1) 0.5062(1) 0.3504(1)
H13 H 0.1851(10) 0.5066(12) 0.3943(9)
H14 H 0.0517(11) 0.4512(13) 0.3927(11)
H15 H 0.0796(10) 0.5998(11) 0.3485(10)
C10 C 0.3856(1) 0.0902(1) 0.0861(1)
H16 H 0.3888(11) 0.1350(13) 0.0087(11)
H17 H 0.3309(12) 0.0135(15) 0.0713(12)
H18 H 0.4721(15) 0.0589(12) 0.1093(11)
C11 C 0.3299(1) 0.0979(1) 0.2979(1)
H19 H 0.3104(10) 0.1519(12) 0.370(1)
H20 H 0.4109(10) 0.0560(11) 0.317(1)
H21 H 0.2644(10) 0.0275(12) 0.294(1)
#END
