
#######################################################################
#
#                 Cambridge Crystallographic Data Centre
#                                CCDC
#
#######################################################################
#
# If this CIF has been generated from an entry in the Cambridge
# Structural Database, then it will include bibliographic, chemical,
# crystal, experimental, refinement or atomic coordinate data resulting
# from the CCDC's data processing and validation procedures.
#
#######################################################################

data_CSD_CIF_DUWWIB
_audit_creation_date 1987-06-30
_audit_creation_method CSD-ConQuest-V1
_database_code_CSD DUWWIB
_chemical_formula_sum 'C29 H23 N3 O4'
_chemical_formula_moiety
;
C29 H23 N3 O4
;
_journal_coden_Cambridge 4
_journal_volume 108
_journal_year 1986
_journal_page_first 6579
_journal_name_full 'J.Am.Chem.Soc. '
loop_
_publ_author_name
"F.Brisse"
"G.Durocher"
"S.Gauthier"
"D.Gravel"
"R.Marques"
"C.Vergelati"
"B.Zelent"
_chemical_name_systematic
;
9-(3-(N-Carbazolyl)propyl)-9-methyl-2,7-dinitrofluorene
;
_chemical_melting_point 533.15
_cell_volume   2373.437
_exptl_crystal_colour 'yellow-orange'
_exptl_crystal_density_diffrn 1.314
_exptl_special_details
;
Melting point range 533.15-535.15K

;
_diffrn_ambient_temperature ?
_diffrn_special_details
;
The study was carried out at room temperature,in the range 283-303K

;
#These two values have been output from a single CSD field.
_refine_ls_R_factor_gt 0.045
_refine_ls_wR_factor_gt 0.045
_symmetry_cell_setting monoclinic
_symmetry_space_group_name_H-M 'P 21/n'
_symmetry_Int_Tables_number 14
loop_
_symmetry_equiv_pos_site_id
_symmetry_equiv_pos_as_xyz
1 x,y,z
2 1/2-x,1/2+y,1/2-z
3 -x,-y,-z
4 -1/2+x,-1/2-y,-1/2+z
_cell_length_a 12.557(5)
_cell_length_b 12.594(5)
_cell_length_c 15.254(3)
_cell_angle_alpha 90
_cell_angle_beta 100.30(2)
_cell_angle_gamma 90
_cell_formula_units_Z 4
loop_
_atom_type_symbol
_atom_type_radius_bond
C 0.68
H 0.23
N 0.68
O 0.68
loop_
_atom_site_label
_atom_site_type_symbol
_atom_site_fract_x
_atom_site_fract_y
_atom_site_fract_z
O1 O 0.9860(3) -0.1289(3) 0.6109(2)
O2 O 0.9756(4) -0.2493(3) 0.5131(2)
O3 O 0.3742(3) 0.0608(3) 0.0332(2)
O4 O 0.3455(3) 0.2116(3) 0.0914(2)
N1 N 0.9508(3) -0.1647(4) 0.5382(2)
N2 N 0.3929(3) 0.1266(3) 0.0912(2)
C1 C 0.7619(3) -0.0733(3) 0.3417(2)
C2 C 0.7220(3) 0.0182(3) 0.3742(2)
C3 C 0.6351(3) 0.0602(3) 0.3068(2)
C4 C 0.6248(3) -0.0051(3) 0.2330(2)
C5 C 0.8395(3) -0.1341(3) 0.3939(3)
C6 C 0.8745(3) -0.0986(4) 0.4786(3)
C7 C 0.8397(3) -0.0061(4) 0.5114(3)
C8 C 0.7609(3) 0.0543(4) 0.4588(3)
C9 C 0.5681(3) 0.1466(3) 0.3092(3)
C10 C 0.4900(3) 0.1697(4) 0.2379(3)
C11 C 0.4814(3) 0.1039(4) 0.1658(3)
C12 C 0.5458(3) 0.0173(3) 0.1604(3)
C13 C 0.7067(3) -0.0942(3) 0.2469(2)
C14 C 0.6512(4) -0.2035(4) 0.2380(3)
C15 C 0.7870(3) -0.0876(3) 0.1827(2)
C16 C 0.8485(3) 0.0159(3) 0.1853(3)
C17 C 0.9128(4) 0.0292(3) 0.1118(3)
N3 N 0.9987(3) -0.0491(3) 0.1132(2)
C18 C 1.1014(3) -0.0438(4) 0.1648(3)
C19 C 1.1632(3) -0.1294(4) 0.1449(3)
C20 C 1.0960(3) -0.1895(3) 0.0772(3)
C21 C 0.9955(3) -0.1371(3) 0.0598(3)
C22 C 1.1424(4) 0.0327(4) 0.2263(3)
C23 C 1.2480(5) 0.0201(5) 0.2680(3)
C24 C 1.3105(4) -0.0642(5) 0.2495(3)
C25 C 1.2701(4) -0.1400(4) 0.1884(3)
C26 C 1.1091(4) -0.2811(4) 0.0299(3)
C27 C 1.0259(4) -0.3183(4) -0.0316(3)
C28 C 0.9281(4) -0.2633(4) -0.0492(3)
C29 C 0.9112(3) -0.1738(4) -0.0035(3)
H1 H 0.869(2) -0.198(3) 0.373(2)
H2 H 0.868(3) 0.020(3) 0.573(2)
H3 H 0.735(3) 0.114(3) 0.482(2)
H4 H 0.570(2) 0.189(2) 0.360(2)
H5 H 0.443(2) 0.229(3) 0.236(2)
H6 H 0.538(3) -0.029(3) 0.112(2)
H7 H 0.614(2) -0.208(3) 0.182(2)
H8 H 0.704(2) -0.262(2) 0.252(2)
H9 H 0.593(3) -0.207(3) 0.278(2)
H10 H 0.837(2) -0.153(3) 0.194(2)
H11 H 0.747(2) -0.102(2) 0.129(2)
H12 H 0.890(3) 0.022(3) 0.241(2)
H13 H 0.791(3) 0.072(3) 0.179(2)
H14 H 0.864(3) 0.021(3) 0.053(2)
H15 H 0.949(2) 0.105(2) 0.118(2)
H16 H 1.105(3) 0.089(3) 0.241(2)
H17 H 1.278(3) 0.073(3) 0.308(2)
H18 H 1.382(3) -0.075(3) 0.278(2)
H19 H 1.313(3) -0.202(3) 0.170(2)
H20 H 1.174(2) -0.320(3) 0.042(2)
H21 H 1.027(3) -0.380(3) -0.066(2)
H22 H 0.871(3) -0.293(3) -0.091(2)
H23 H 0.841(3) -0.139(3) -0.016(2)
#END
