
#######################################################################
#
#                 Cambridge Crystallographic Data Centre
#                                CCDC
#
#######################################################################
#
# If this CIF has been generated from an entry in the Cambridge
# Structural Database, then it will include bibliographic, chemical,
# crystal, experimental, refinement or atomic coordinate data resulting
# from the CCDC's data processing and validation procedures.
#
#######################################################################

data_CSD_CIF_DUWXIE
_audit_creation_date 2015-11-19
_audit_creation_method CSD-ConQuest-V1
_database_code_CSD DUWXIE
_database_code_depnum_ccdc_archive 'CCDC 1053197'
_chemical_formula_sum 'C42 H31 N1 O2'
_chemical_formula_moiety
;
C42 H31 N1 O2
;
_journal_coden_Cambridge 1695
_journal_volume 3
_journal_year 2015
_journal_page_first 12328
_journal_name_full 'J.Mater.Chem.C '
loop_
_publ_author_name
"Yi Wang"
"Ivan Zhang"
"Binhong Yu"
"Xiaofeng Fang"
"Xing Su"
"Yu-Mo Zhang"
"Ting Zhang"
"Bing Yang"
"Minjie Li"
"Sean Xiao-An Zhang"
_chemical_name_systematic
;
1-Nitro-4-(2-(4-(2-(4-(triphenylvinyl)phenyl)vinyl)phenyl)vinyl)benzene
;
_cell_volume   3081.854
_exptl_crystal_colour 'yellow'
_exptl_crystal_density_diffrn 1.254
_exptl_crystal_description 'block'
_diffrn_ambient_temperature 153
_refine_special_details
;
C35,C36 and C35',C36' disordered over two sites with occupancies 0.60:0.40; 
O4 and O4' disordered over two sites with occupancies 0.50:0.50.
;
#These two values have been output from a single CSD field.
_refine_ls_R_factor_gt 0.0674
_refine_ls_wR_factor_gt 0.0674
_symmetry_cell_setting triclinic
_symmetry_space_group_name_H-M 'P -1'
_symmetry_Int_Tables_number 2
loop_
_symmetry_equiv_pos_site_id
_symmetry_equiv_pos_as_xyz
1 x,y,z
2 -x,-y,-z
_cell_length_a 9.396(5)
_cell_length_b 17.959(6)
_cell_length_c 18.690(7)
_cell_angle_alpha 79.896(14)
_cell_angle_beta 83.610(15)
_cell_angle_gamma 86.117(15)
_cell_formula_units_Z 4
loop_
_atom_type_symbol
_atom_type_radius_bond
C 0.68
H 0.23
N 0.68
O 0.68
loop_
_atom_site_label
_atom_site_type_symbol
_atom_site_fract_x
_atom_site_fract_y
_atom_site_fract_z
C1 C 0.0916(4) 0.75957(18) 0.2057(2)
H1 H 0.12830 0.73490 0.24960
C2 C -0.0315(4) 0.8065(2) 0.2088(2)
H2 H -0.07820 0.81410 0.25490
C3 C -0.0867(4) 0.8424(2) 0.1458(2)
H3 H -0.17070 0.87480 0.14840
C4 C -0.0192(4) 0.8309(2) 0.0784(2)
H4 H -0.05670 0.85550 0.03470
C5 C 0.1031(4) 0.78342(18) 0.07497(19)
H5 H 0.14740 0.77470 0.02880
C6 C 0.1620(3) 0.74841(17) 0.13812(17)
C7 C 0.2978(3) 0.70070(17) 0.13139(17)
C8 C 0.2912(3) 0.63908(17) 0.08758(17)
C9 C 0.1925(4) 0.58356(18) 0.11178(19)
H6 H 0.12860 0.58650 0.15450
C10 C 0.1864(4) 0.52356(19) 0.07390(19)
H7 H 0.11930 0.48560 0.09120
C11 C 0.2777(4) 0.5194(2) 0.0115(2)
H8 H 0.27450 0.47820 -0.01390
C12 C 0.3738(4) 0.5754(2) -0.01408(19)
H9 H 0.43470 0.57330 -0.05790
C13 C 0.3820(4) 0.63460(19) 0.02380(18)
H10 H 0.44960 0.67230 0.00630
C14 C 0.5455(4) 0.58292(18) 0.17378(18)
H11 H 0.45630 0.56040 0.18960
C15 C 0.6688(4) 0.5373(2) 0.16766(19)
H12 H 0.66440 0.48390 0.18020
C16 C 0.7988(4) 0.5693(2) 0.14326(18)
H13 H 0.88340 0.53790 0.13760
C17 C 0.8048(4) 0.6470(2) 0.12722(19)
H14 H 0.89420 0.66920 0.11110
C18 C 0.6814(4) 0.6931(2) 0.13447(19)
H15 H 0.68700 0.74660 0.12390
C19 C 0.5495(3) 0.66132(18) 0.15719(17)
C20 C 0.4158(4) 0.71190(18) 0.16226(17)
C21 C 0.4214(3) 0.77350(18) 0.20555(18)
C22 C 0.4701(4) 0.7572(2) 0.2750(2)
H16 H 0.50940 0.70780 0.29150
C23 C 0.4629(4) 0.8103(2) 0.3201(2)
H17 H 0.49650 0.79690 0.36700
C24 C 0.4075(4) 0.8827(2) 0.2983(2)
C25 C 0.3659(4) 0.9020(2) 0.2265(2)
H18 H 0.33240 0.95230 0.20910
C26 C 0.3737(4) 0.84781(19) 0.1812(2)
H19 H 0.34610 0.86160 0.13310
C27 C 0.3972(5) 0.9365(3) 0.3497(3)
H20 H 0.43350 0.91890 0.39550
C28 C 0.3453(5) 1.0036(2) 0.3393(3)
H21 H 0.30780 1.01940 0.29360
C29 C 0.3333(4) 1.0626(2) 0.3880(2)
C30 C 0.3406(5) 1.0493(3) 0.4629(3)
H22 H 0.36020 0.99920 0.48730
C31 C 0.3200(5) 1.1075(3) 0.5024(3)
H23 H 0.32740 1.09690 0.55350
C32 C 0.2885(5) 1.1812(3) 0.4697(3)
C33 C 0.2864(5) 1.1952(2) 0.3940(3)
H24 H 0.27000 1.24550 0.36940
C34 C 0.3081(5) 1.1360(2) 0.3546(2)
H25 H 0.30540 1.14660 0.30310
C35 C 0.2591(7) 1.2309(3) 0.5268(5)
H26 H 0.26400 1.21110 0.57710
C36 C 0.2263(8) 1.3027(3) 0.5048(6)
H27 H 0.22050 1.32120 0.45430
C37 C 0.1971(5) 1.3571(3) 0.5604(3)
C38 C 0.1843(5) 1.3461(2) 0.6360(3)
H28 H 0.20060 1.29670 0.66270
C39 C 0.1482(5) 1.4059(3) 0.6733(3)
H29 H 0.13680 1.39760 0.72520
C40 C 0.1291(4) 1.4768(2) 0.6344(2)
C41 C 0.1457(5) 1.4903(2) 0.5589(2)
H30 H 0.13610 1.54020 0.53220
C42 C 0.1765(5) 1.4294(3) 0.5238(2)
H31 H 0.18390 1.43770 0.47190
N1 N 0.0852(5) 1.5403(2) 0.6724(2)
O1 O 0.1074(8) 1.6016(2) 0.6422(3)
O2 O 0.0195(4) 1.5261(2) 0.73330(18)
C43? C 0.2550(11) 1.2671(10) 0.4813(6)
H32? H 0.25170 1.30780 0.44140
C44? C 0.2322(11) 1.2780(9) 0.5501(8)
H33? H 0.23810 1.23760 0.59010
C45 C 0.6901(3) 0.19216(19) 0.12353(19)
H34 H 0.69910 0.24490 0.10680
C46 C 0.8109(4) 0.1437(2) 0.1226(2)
H35 H 0.90210 0.16340 0.10530
C47 C 0.7996(4) 0.0670(2) 0.14676(19)
H36 H 0.88290 0.03390 0.14620
C48 C 0.6667(4) 0.03847(19) 0.17186(19)
H37 H 0.65830 -0.01430 0.18870
C49 C 0.5465(4) 0.08712(18) 0.17223(18)
H38 H 0.45530 0.06720 0.18900
C50 C 0.5557(3) 0.16459(18) 0.14857(17)
C51 C 0.4252(3) 0.21732(17) 0.15290(18)
C52 C 0.3039(3) 0.20348(17) 0.12580(17)
C53 C 0.2945(3) 0.13988(17) 0.08488(18)
C54 C 0.3813(4) 0.13369(19) 0.02012(18)
H39 H 0.44880 0.17100 0.00070
C55 C 0.3695(4) 0.0733(2) -0.01608(19)
H40 H 0.42730 0.07040 -0.06070
C56 C 0.2746(4) 0.0177(2) 0.0122(2)
H41 H 0.26940 -0.02430 -0.01190
C57 C 0.1872(4) 0.0234(2) 0.0757(2)
H42 H 0.12110 -0.01460 0.09500
C58 C 0.1955(4) 0.08431(18) 0.11144(19)
H43 H 0.13330 0.08830 0.15440
C59 C 0.1072(4) 0.28786(19) 0.0726(2)
H44 H 0.15510 0.28430 0.02570
C60 C -0.0190(4) 0.3324(2) 0.0781(2)
H45 H -0.05590 0.35990 0.03530
C61 C -0.0907(4) 0.3368(2) 0.1459(3)
H46 H -0.17590 0.36810 0.15000
C62 C -0.0387(4) 0.2958(2) 0.2074(2)
H47 H -0.08980 0.29760 0.25400
C63 C 0.0885(4) 0.2517(2) 0.2022(2)
H48 H 0.12370 0.22370 0.24520
C64 C 0.1642(3) 0.24846(18) 0.13435(18)
C65 C 0.4367(3) 0.28121(18) 0.19302(18)
C66 C 0.3599(4) 0.35087(18) 0.17858(18)
H49 H 0.30560 0.36100 0.13770
C67 C 0.3611(4) 0.40509(19) 0.22240(19)
H50 H 0.30470 0.45090 0.21190
C68 C 0.4433(4) 0.39446(18) 0.28213(19)
C69 C 0.5311(4) 0.32819(19) 0.29167(19)
H51 H 0.59480 0.32090 0.32860
C70 C 0.5278(4) 0.27281(19) 0.24878(19)
H52 H 0.58850 0.22830 0.25730
C71 C 0.4414(4) 0.44972(19) 0.33039(18)
H53 H 0.51720 0.44560 0.36080
C72 C 0.3416(4) 0.50611(19) 0.33567(18)
H54 H 0.26530 0.50810 0.30590
C73 C 0.3350(4) 0.56486(18) 0.38127(19)
C74 C 0.2155(4) 0.6161(2) 0.3806(2)
H55 H 0.14190 0.61170 0.35070
C75 C 0.2030(4) 0.6730(2) 0.4227(2)
H56 H 0.12100 0.70700 0.42110
C76 C 0.3080(4) 0.6812(2) 0.46731(19)
C77 C 0.4265(4) 0.6304(2) 0.46769(19)
H57 H 0.50000 0.63480 0.49760
C78 C 0.4400(4) 0.5738(2) 0.4256(2)
H58 H 0.52260 0.54030 0.42700
C79 C 0.3007(5) 0.7427(2) 0.5120(2)
H59 H 0.38330 0.74820 0.53540
C80 C 0.1912(5) 0.7894(2) 0.5219(3)
H60 H 0.10910 0.78270 0.49880
C81 C 0.1795(5) 0.8514(3) 0.5647(3)
C82 C 0.0546(5) 0.8966(3) 0.5647(4)
H61 H -0.02000 0.88600 0.53810
C83 C 0.0357(5) 0.9564(4) 0.6019(4)
H62 H -0.05130 0.98660 0.60170
C84 C 0.1437(5) 0.9716(3) 0.6393(3)
C85 C 0.2713(5) 0.9304(2) 0.6403(2)
H63 H 0.34610 0.94350 0.66540
C86 C 0.2893(5) 0.8686(2) 0.6035(2)
H64 H 0.37590 0.83820 0.60470
N2 N 0.1223(5) 1.0376(3) 0.6745(3)
O3 O 0.2256(4) 1.06778(18) 0.68814(17)
O4 O -0.0008(6) 1.0387(4) 0.7162(4)
O5? O 0.0192(9) 1.0926(5) 0.6488(5)
#END
