
#######################################################################
#
#                 Cambridge Crystallographic Data Centre
#                                CCDC
#
#######################################################################
#
# If this CIF has been generated from an entry in the Cambridge
# Structural Database, then it will include bibliographic, chemical,
# crystal, experimental, refinement or atomic coordinate data resulting
# from the CCDC's data processing and validation procedures.
#
#######################################################################

data_CSD_CIF_DUXCEF
_audit_creation_date 2010-12-14
_audit_creation_method CSD-ConQuest-V1
_database_code_CSD DUXCEF
_database_code_depnum_ccdc_archive 'CCDC 756618'
_chemical_formula_sum 'C20 H13 N3 O3'
_chemical_formula_moiety
;
C20 H13 N3 O3
;
_journal_coden_Cambridge 16
_journal_volume 66
_journal_year 2010
_journal_page_first 1208
_journal_name_full 'Tetrahedron '
loop_
_publ_author_name
"Jing Wang"
"Zhenxing He"
"Xiaopeng Chen"
"Wangze Song"
"Ping Lu"
"Yanguang Wang"
_chemical_name_systematic
;
N-Benzoyl-2-phenyl-5-nitrobenzimidazole
;
_chemical_melting_point 419.15
_cell_volume    824.190
_exptl_crystal_colour 'greenish'
_exptl_crystal_density_diffrn 1.383
_exptl_special_details
;
Melting point range 419.15-420.15K

;
_exptl_crystal_description 'block'
_diffrn_ambient_temperature 293
#These two values have been output from a single CSD field.
_refine_ls_R_factor_gt 0.0362
_refine_ls_wR_factor_gt 0.0362
_symmetry_cell_setting triclinic
_symmetry_space_group_name_H-M 'P -1'
_symmetry_Int_Tables_number 2
loop_
_symmetry_equiv_pos_site_id
_symmetry_equiv_pos_as_xyz
1 x,y,z
2 -x,-y,-z
_cell_length_a 7.9366(4)
_cell_length_b 8.8982(5)
_cell_length_c 12.0137(7)
_cell_angle_alpha 90.537(4)
_cell_angle_beta 102.147(5)
_cell_angle_gamma 96.163(5)
_cell_formula_units_Z 2
loop_
_atom_type_symbol
_atom_type_radius_bond
C 0.68
H 0.23
N 0.68
O 0.68
loop_
_atom_site_label
_atom_site_type_symbol
_atom_site_fract_x
_atom_site_fract_y
_atom_site_fract_z
N1 N 0.28528(14) 0.68863(12) 0.92618(9)
N2 N 0.30125(15) 0.93307(13) 0.87713(9)
C1 C 0.25748(17) 0.92130(15) 0.98363(11)
C2 C 0.25010(17) 0.77160(16) 1.01689(11)
C3 C 0.36922(18) 0.76304(15) 0.73771(11)
O1 O 0.10182(15) 1.22552(16) 1.18586(11)
O2 O 0.30686(16) 0.46437(12) 1.01194(9)
C4 C 0.31611(17) 0.79613(16) 0.84520(11)
C5 C 0.21980(18) 1.03382(17) 1.05137(12)
H1 H 0.22380 1.13420 1.03040
N3 N 0.12835(17) 1.10168(19) 1.22530(13)
C6 C 0.17599(18) 0.98861(17) 1.15194(12)
C7 C 0.27665(18) 0.52829(16) 0.92318(12)
O3 O 0.11493(17) 1.06811(15) 1.32195(10)
C8 C 0.1698(2) 0.84031(19) 1.18588(13)
H2 H 0.14070 0.81650 1.25520
C9 C 0.3035(2) 0.31914(17) 0.79646(14)
H3 H 0.38870 0.28890 0.85490
C10 C 0.2062(2) 0.72809(18) 1.11862(12)
H4 H 0.20170 0.62780 1.14010
C11 C 0.0908(2) 0.48703(16) 0.72666(13)
H5 H 0.03600 0.57180 0.73690
C12 C 0.2945(2) 0.83549(17) 0.64101(12)
H6 H 0.20860 0.89770 0.64440
C13 C 0.22329(19) 0.44609(15) 0.81159(12)
C14 C 0.0408(2) 0.40091(19) 0.62667(14)
H7 H -0.05110 0.42520 0.57040
C15 C 0.49710(19) 0.67086(17) 0.73249(13)
H8 H 0.54890 0.62290 0.79720
C16 C 0.3465(2) 0.8161(2) 0.54045(13)
H9 H 0.29690 0.86590 0.47610
C17 C 0.5474(2) 0.6504(2) 0.63056(15)
H10 H 0.63240 0.58760 0.62640
C18 C 0.1269(3) 0.2793(2) 0.61035(16)
H11 H 0.09680 0.22450 0.54140
C19 C 0.2569(3) 0.23812(19) 0.69482(18)
H12 H 0.31370 0.15500 0.68330
C20 C 0.4721(3) 0.7228(2) 0.53509(15)
H13 H 0.50630 0.70850 0.46670
#END
