
#######################################################################
#
#                 Cambridge Crystallographic Data Centre
#                                CCDC
#
#######################################################################
#
# If this CIF has been generated from an entry in the Cambridge
# Structural Database, then it will include bibliographic, chemical,
# crystal, experimental, refinement or atomic coordinate data resulting
# from the CCDC's data processing and validation procedures.
#
#######################################################################

data_CSD_CIF_DUXFOS
_audit_creation_date 2010-12-14
_audit_creation_method CSD-ConQuest-V1
_database_code_CSD DUXFOS
_database_code_depnum_ccdc_archive 'CCDC 741762'
_chemical_formula_sum 'C14 H17 N1 O2'
_chemical_formula_moiety
;
C14 H17 N1 O2
;
_journal_coden_Cambridge 16
_journal_volume 66
_journal_year 2010
_journal_page_first 1821
_journal_name_full 'Tetrahedron '
loop_
_publ_author_name
"M.Buchlovic"
"S.Man"
"K.Kislitson"
"C.Mathod"
"M.Potacek"
_chemical_name_systematic
;
(E)-2-Hydroxy-3,3-dimethyl-5-(2-phenylvinyl)-3,4-dihydro-2H-1\l^5^-pyrrole 
1-oxide
;
_chemical_melting_point 450.15
_cell_volume   3825.364
_exptl_crystal_density_diffrn 1.201
_exptl_special_details
;
Melting point range 450.15-452.15K

;
_diffrn_ambient_temperature 120
_refine_special_details
;
The hydroxy groups are disordered over two sites with occupancies of 
0.638:0.362 and 0.509:0.491.
;
#These two values have been output from a single CSD field.
_refine_ls_R_factor_gt 0.0467
_refine_ls_wR_factor_gt 0.0467
_symmetry_cell_setting monoclinic
_symmetry_space_group_name_H-M 'P 21/c'
_symmetry_Int_Tables_number 14
loop_
_symmetry_equiv_pos_site_id
_symmetry_equiv_pos_as_xyz
1 x,y,z
2 -x,1/2+y,1/2-z
3 -x,-y,-z
4 x,-1/2-y,-1/2+z
_cell_length_a 13.1495(11)
_cell_length_b 15.9687(16)
_cell_length_c 18.2731(18)
_cell_angle_alpha 90
_cell_angle_beta 94.462(9)
_cell_angle_gamma 90
_cell_formula_units_Z 12
loop_
_atom_type_symbol
_atom_type_radius_bond
C 0.68
H 0.23
N 0.68
O 0.68
loop_
_atom_site_label
_atom_site_type_symbol
_atom_site_fract_x
_atom_site_fract_y
_atom_site_fract_z
O1 O 0.61039(16) 0.07029(13) 0.10994(12)
O2 O 0.80289(16) 0.14226(14) 0.14982(12)
H1 H 0.84130 0.10850 0.13000
N1 N 0.63040(19) 0.14936(16) 0.09969(13)
C1 C 0.7382(2) 0.17994(19) 0.09656(18)
H2 H 0.76210 0.16810 0.04700
C2 C 0.7269(2) 0.2750(2) 0.10672(18)
C3 C 0.6159(2) 0.29060(19) 0.07554(19)
H3 H 0.58430 0.33650 0.10230
H4 H 0.61320 0.30490 0.02270
C4 C 0.5631(2) 0.20911(19) 0.08717(16)
C5 C 0.4558(2) 0.1939(2) 0.08444(17)
H5 H 0.43360 0.13760 0.08840
C6 C 0.3846(2) 0.2537(2) 0.07672(17)
H6 H 0.40770 0.30920 0.06970
C7 C 0.2748(2) 0.2416(2) 0.07811(17)
C8 C 0.2099(2) 0.3114(2) 0.07104(18)
H7 H 0.23780 0.36560 0.06500
C9 C 0.1060(3) 0.3017(2) 0.07280(19)
H8 H 0.06290 0.34950 0.06860
C10 C 0.0636(3) 0.2230(2) 0.0807(2)
H9 H -0.00820 0.21650 0.08110
C11 C 0.1268(3) 0.1545(2) 0.0880(2)
H10 H 0.09830 0.10050 0.09400
C12 C 0.2307(3) 0.1630(2) 0.0869(2)
H11 H 0.27310 0.11490 0.09210
C13 C 0.8027(3) 0.3250(2) 0.0644(2)
H12 H 0.87150 0.31840 0.08840
H13 H 0.78370 0.38440 0.06390
H14 H 0.80140 0.30420 0.01390
C14 C 0.7375(3) 0.2981(2) 0.1886(2)
H15 H 0.80580 0.28300 0.20960
H16 H 0.68630 0.26760 0.21420
H17 H 0.72710 0.35850 0.19410
N2 N -0.37947(19) 0.02467(17) 0.41285(14)
O3 O -0.35276(17) -0.00527(16) 0.47823(12)
O4 O -0.5494(2) -0.0243(2) 0.40949(17)
H18 H -0.57040 -0.00890 0.44960
C15 C -0.4906(2) 0.0329(3) 0.38564(18)
C16 C -0.4834(2) 0.0358(2) 0.30223(17)
C17 C -0.3787(2) 0.0762(2) 0.29585(17)
H19 H -0.34720 0.05550 0.25180
H20 H -0.38470 0.13800 0.29280
C18 C -0.3177(2) 0.05070(19) 0.36397(16)
C19 C -0.2100(2) 0.04995(18) 0.37812(17)
H21 H -0.18210 0.03610 0.42610
C20 C -0.1461(2) 0.0678(2) 0.32702(18)
H22 H -0.17580 0.08470 0.28030
C21 C -0.0343(2) 0.0636(2) 0.33612(17)
C22 C 0.0220(2) 0.0598(3) 0.27481(19)
H23 H -0.01200 0.06370 0.22710
C23 C 0.1266(3) 0.0505(3) 0.2826(2)
H24 H 0.16390 0.04750 0.24020
C24 C 0.1774(3) 0.0456(2) 0.3514(2)
H25 H 0.24920 0.03770 0.35650
C25 C 0.1233(3) 0.0522(2) 0.41254(19)
H26 H 0.15830 0.05090 0.46000
C26 C 0.0190(2) 0.0606(2) 0.40535(18)
H27 H -0.01740 0.06440 0.44810
C27 C -0.4799(3) -0.0542(3) 0.2721(2)
H28 H -0.54590 -0.08150 0.27660
H29 H -0.42630 -0.08590 0.30030
H30 H -0.46520 -0.05260 0.22040
C28 C -0.5688(3) 0.0844(3) 0.2632(2)
H31 H -0.56940 0.14150 0.28290
H32 H -0.63390 0.05700 0.27050
H33 H -0.55890 0.08660 0.21060
O5 O 0.90146(17) 0.01987(15) 0.09018(13)
O6 O 0.7359(4) -0.0413(3) 0.1668(2)
H34 H 0.70300 -0.00560 0.14090
N3 N 0.88582(19) -0.05798(18) 0.10768(14)
C29 C 0.7820(3) -0.0855(3) 0.1284(2)
C30 C 0.8033(2) -0.1739(2) 0.15851(18)
C31 C 0.9019(3) -0.2007(2) 0.1256(2)
H35 H 0.94590 -0.23370 0.16140
H36 H 0.88700 -0.23440 0.08060
C32 C 0.9514(2) -0.1194(2) 0.10853(17)
C33 C 1.0558(2) -0.1043(2) 0.09455(17)
H37 H 1.07230 -0.05170 0.07420
C34 C 1.1310(2) -0.1592(2) 0.10831(17)
H38 H 1.11200 -0.21280 0.12520
C35 C 1.2395(2) -0.1462(2) 0.10025(17)
C36 C 1.3087(3) -0.2105(2) 0.11819(19)
H39 H 1.28480 -0.26230 0.13600
C37 C 1.4122(3) -0.2001(2) 0.11042(19)
H40 H 1.45810 -0.24480 0.12280
C38 C 1.4491(3) -0.1257(2) 0.08504(18)
H41 H 1.52000 -0.11870 0.08010
C39 C 1.3809(3) -0.0607(2) 0.06676(19)
H42 H 1.40540 -0.00910 0.04910
C40 C 1.2789(3) -0.0708(2) 0.07416(18)
H43 H 1.23360 -0.02590 0.06140
C41 C 0.7152(3) -0.2335(3) 0.1383(3)
H44 H 0.65300 -0.21220 0.15790
H45 H 0.73130 -0.28900 0.15910
H46 H 0.70470 -0.23790 0.08470
C42 C 0.8222(3) -0.1683(3) 0.2418(2)
H47 H 0.76180 -0.14480 0.26250
H48 H 0.88110 -0.13210 0.25440
H49 H 0.83570 -0.22440 0.26200
H50? H -0.56440 0.06130 0.45460
H51? H 0.70750 -0.10000 0.04450
O7? O -0.5358(5) 0.0853(4) 0.4208(3)
O8? O 0.7111(3) -0.0641(3) 0.0782(2)
#END
