
#######################################################################
#
#                 Cambridge Crystallographic Data Centre
#                                CCDC
#
#######################################################################
#
# If this CIF has been generated from an entry in the Cambridge
# Structural Database, then it will include bibliographic, chemical,
# crystal, experimental, refinement or atomic coordinate data resulting
# from the CCDC's data processing and validation procedures.
#
#######################################################################

data_CSD_CIF_DUXFUY
_audit_creation_date 2010-12-14
_audit_creation_method CSD-ConQuest-V1
_database_code_CSD DUXFUY
_database_code_depnum_ccdc_archive 'CCDC 741763'
_chemical_formula_sum 'C29 H29 N1 O6'
_chemical_formula_moiety
;
C29 H29 N1 O6
;
_journal_coden_Cambridge 16
_journal_volume 66
_journal_year 2010
_journal_page_first 1821
_journal_name_full 'Tetrahedron '
loop_
_publ_author_name
"M.Buchlovic"
"S.Man"
"K.Kislitson"
"C.Mathod"
"M.Potacek"
_chemical_name_systematic
;
(E)-Dimethyl 
6-methoxy-5,5-dimethyl-3a-(2-(9-phenanthryl)vinyl)-3a,4,5,6-tetrahydropyrrolo[
1,2-b][1,2]oxazole-2,3-dicarboxylate
;
_chemical_melting_point 399.15
_cell_volume   1242.408
_exptl_crystal_density_diffrn 1.303
_exptl_special_details
;
Melting point range 399.15-400.15K

;
_diffrn_ambient_temperature 120
#These two values have been output from a single CSD field.
_refine_ls_R_factor_gt 0.0323
_refine_ls_wR_factor_gt 0.0323
_symmetry_cell_setting triclinic
_symmetry_space_group_name_H-M 'P -1'
_symmetry_Int_Tables_number 2
loop_
_symmetry_equiv_pos_site_id
_symmetry_equiv_pos_as_xyz
1 x,y,z
2 -x,-y,-z
_cell_length_a 9.7709(4)
_cell_length_b 10.1498(5)
_cell_length_c 14.1963(7)
_cell_angle_alpha 86.646(4)
_cell_angle_beta 80.430(4)
_cell_angle_gamma 63.516(4)
_cell_formula_units_Z 2
loop_
_atom_type_symbol
_atom_type_radius_bond
C 0.68
H 0.23
N 0.68
O 0.68
loop_
_atom_site_label
_atom_site_type_symbol
_atom_site_fract_x
_atom_site_fract_y
_atom_site_fract_z
O1 O 0.47158(10) 0.06465(9) 0.24724(6)
O2 O 0.76238(11) 0.11235(10) 0.24860(7)
O3 O 0.24451(12) 0.09702(10) 0.01229(7)
O4 O 0.21439(11) 0.33141(10) 0.00667(6)
O5 O 0.48060(12) -0.19042(10) 0.13453(7)
O6 O 0.24548(11) -0.06602(10) 0.22148(7)
N1 N 0.49778(13) 0.19876(11) 0.23073(7)
C1 C 0.06932(15) 0.55313(13) 0.35504(8)
C2 C -0.06423(16) 0.57019(13) 0.32768(9)
H1 H -0.05750 0.51930 0.27170
C3 C -0.21409(16) 0.66038(13) 0.37848(9)
C4 C -0.34909(16) 0.67113(14) 0.34824(9)
H2 H -0.34040 0.62280 0.29070
C5 C -0.49248(17) 0.74999(15) 0.40034(10)
H3 H -0.58240 0.75660 0.37890
C6 C -0.50565(17) 0.82074(15) 0.48537(10)
H4 H -0.60460 0.87340 0.52260
C7 C -0.37668(16) 0.81458(14) 0.51534(9)
H5 H -0.38830 0.86490 0.57270
C8 C -0.22691(16) 0.73530(13) 0.46323(9)
C9 C -0.08668(16) 0.72558(13) 0.49262(9)
C10 C -0.09173(17) 0.80341(14) 0.57371(9)
H6 H -0.18920 0.86630 0.60900
C11 C 0.04087(18) 0.78995(15) 0.60238(10)
H7 H 0.03460 0.84260 0.65740
C12 C 0.18581(18) 0.69873(15) 0.55077(10)
H8 H 0.27780 0.68900 0.57100
C13 C 0.19458(17) 0.62332(14) 0.47075(9)
H9 H 0.29330 0.56280 0.43570
C14 C 0.06068(15) 0.63395(13) 0.43969(9)
C15 C 0.21991(16) 0.44538(13) 0.30439(9)
H10 H 0.30000 0.39290 0.34130
C16 C 0.25156(15) 0.41641(13) 0.21091(9)
H11 H 0.17840 0.48060 0.17270
C17 C 0.39460(15) 0.28952(13) 0.16048(8)
C18 C 0.50035(16) 0.33577(14) 0.08561(9)
H12 H 0.52060 0.28650 0.02320
H13 H 0.45100 0.44370 0.07690
C19 C 0.65211(16) 0.28672(14) 0.12651(9)
C20 C 0.65934(15) 0.15032(14) 0.18267(9)
H14 H 0.69040 0.06570 0.13800
C21 C 0.39476(15) 0.06070(13) 0.17694(9)
C22 C 0.34878(15) 0.17927(13) 0.12254(9)
C23 C 0.64100(18) 0.40550(15) 0.19343(10)
H15 H 0.73660 0.36970 0.22110
H16 H 0.55280 0.42790 0.24480
H17 H 0.62650 0.49480 0.15720
C24 C 0.79317(18) 0.24546(17) 0.04856(11)
H18 H 0.88680 0.21150 0.07810
H19 H 0.78170 0.33180 0.00970
H20 H 0.80160 0.16660 0.00790
C25 C 0.79225(18) -0.02601(15) 0.29257(11)
H21 H 0.86700 -0.04730 0.33630
H22 H 0.83470 -0.10370 0.24320
H23 H 0.69550 -0.02200 0.32830
C26 C 0.37975(16) -0.08021(14) 0.17350(9)
C27 C 0.2205(2) -0.19762(19) 0.22536(13)
H24 H 0.14620 -0.19250 0.28240
H25 H 0.31890 -0.28500 0.22810
H26 H 0.17940 -0.20390 0.16820
C28 C 0.26605(15) 0.19436(14) 0.04231(9)
C29 C 0.14176(18) 0.35172(17) -0.07724(10)
H27 H 0.10670 0.45400 -0.09780
H28 H 0.05280 0.32950 -0.06210
H29 H 0.21650 0.28550 -0.12870
#END
