
#######################################################################
#
#                 Cambridge Crystallographic Data Centre
#                                CCDC
#
#######################################################################
#
# If this CIF has been generated from an entry in the Cambridge
# Structural Database, then it will include bibliographic, chemical,
# crystal, experimental, refinement or atomic coordinate data resulting
# from the CCDC's data processing and validation procedures.
#
#######################################################################

data_CSD_CIF_DUXTIZ01
_audit_creation_date 1988-09-21
_audit_creation_method CSD-ConQuest-V1
_database_code_CSD DUXTIZ01
_chemical_formula_sum 'C2 H4 N2 O4'
_chemical_formula_moiety
;
C2 H4 N2 O4
;
_journal_coden_Cambridge 582
_journal_volume 17
_journal_year 1987
_journal_page_first 545
_journal_name_full 'J.Crystallogr.Spectrosc.Res. '
loop_
_publ_author_name
"A.S.Begum"
"V.K.Jain"
"C.L.Khetrapal"
"N.C.Shivaprakash"
_chemical_name_systematic
;
Oxalohydroxamic acid
;
_cell_volume    215.057
_exptl_crystal_density_diffrn 1.84
_exptl_special_details
;
Atom H1 deleted because of suspected coordinate error

;
_diffrn_ambient_temperature ?
_diffrn_special_details
;
The study was carried out at room temperature,in the range 283-303K

;
#These two values have been output from a single CSD field.
_refine_ls_R_factor_gt 0.035
_refine_ls_wR_factor_gt 0.035
_symmetry_cell_setting monoclinic
_symmetry_space_group_name_H-M 'P 21/c'
_symmetry_Int_Tables_number 14
loop_
_symmetry_equiv_pos_site_id
_symmetry_equiv_pos_as_xyz
1 x,y,z
2 -x,1/2+y,1/2-z
3 -x,-y,-z
4 x,-1/2-y,-1/2+z
_cell_length_a 5.208(1)
_cell_length_b 3.864(1)
_cell_length_c 11.482(1)
_cell_angle_alpha 90
_cell_angle_beta 111.45(2)
_cell_angle_gamma 90
_cell_formula_units_Z 2
loop_
_atom_type_symbol
_atom_type_radius_bond
C 0.68
H 0.23
N 0.68
O 0.68
loop_
_atom_site_label
_atom_site_type_symbol
_atom_site_fract_x
_atom_site_fract_y
_atom_site_fract_z
C1 C -0.0020(4) -0.0894(5) 0.0590(2)
O1 O 0.2604(3) -0.1715(4) 0.2706(1)
N1 N 0.2195(3) -0.0121(5) 0.1572(1)
O2 O -0.1946(3) -0.2765(4) 0.0573(1)
H1 H 0.221(5) -0.018(8) 0.317(3)
C1B C 0.0020(4) 0.0894(5) -0.0590(2)
N1B N -0.2195(3) 0.0121(5) -0.1572(1)
O2B O 0.1946(3) 0.2765(4) -0.0573(1)
O1B O -0.2604(3) 0.1715(4) -0.2706(1)
H1B H -0.221(5) 0.018(8) -0.317(3)
#END
