
#######################################################################
#
#                 Cambridge Crystallographic Data Centre
#                                CCDC
#
#######################################################################
#
# If this CIF has been generated from an entry in the Cambridge
# Structural Database, then it will include bibliographic, chemical,
# crystal, experimental, refinement or atomic coordinate data resulting
# from the CCDC's data processing and validation procedures.
#
#######################################################################

data_CSD_CIF_DUYGEK
_audit_creation_date 2010-12-14
_audit_creation_method CSD-ConQuest-V1
_database_code_CSD DUYGEK
_database_code_depnum_ccdc_archive 'CCDC 786786'
_chemical_formula_sum 'C19 H24 N2 O2'
_chemical_formula_moiety
;
C19 H24 N2 O2
;
_journal_coden_Cambridge 4
_journal_volume 132
_journal_year 2010
_journal_page_first 1953
_journal_name_full 'J.Am.Chem.Soc. '
loop_
_publ_author_name
"Pil Seok Chae"
"I.A.Guzei"
"S.H.Gellman"
_chemical_name_systematic
;
N-(3-(Dimethylnitroryl)propyl)-2,2-diphenylacetamide
;
_cell_volume   1694.858
_exptl_crystal_colour 'colorless'
_exptl_crystal_density_diffrn 1.224
_exptl_crystal_description 'needle'
_diffrn_ambient_temperature 100
#These two values have been output from a single CSD field.
_refine_ls_R_factor_gt 0.033
_refine_ls_wR_factor_gt 0.033
_symmetry_cell_setting monoclinic
_symmetry_space_group_name_H-M 'P 21/n'
_symmetry_Int_Tables_number 14
loop_
_symmetry_equiv_pos_site_id
_symmetry_equiv_pos_as_xyz
1 x,y,z
2 1/2-x,1/2+y,1/2-z
3 -x,-y,-z
4 -1/2+x,-1/2-y,-1/2+z
_cell_length_a 9.254(4)
_cell_length_b 13.696(6)
_cell_length_c 13.783(7)
_cell_angle_alpha 90
_cell_angle_beta 104.02(3)
_cell_angle_gamma 90
_cell_formula_units_Z 4
loop_
_atom_type_symbol
_atom_type_radius_bond
C 0.68
H 0.23
N 0.68
O 0.68
loop_
_atom_site_label
_atom_site_type_symbol
_atom_site_fract_x
_atom_site_fract_y
_atom_site_fract_z
O1 O 0.01950(8) 0.55884(6) 0.67443(6)
O2 O 0.45856(8) 0.56569(6) 0.32106(5)
N1 N 0.17023(10) 0.54604(7) 0.71422(7)
N2 N 0.24467(11) 0.54074(7) 0.37052(6)
H1 H 0.1551(18) 0.5202(10) 0.3532(11)
C1 C 0.21506(16) 0.60412(11) 0.80826(9)
H2 H 0.1554(17) 0.5800(11) 0.8542(11)
H3 H 0.3231(19) 0.5938(12) 0.8374(12)
H4 H 0.1855(17) 0.6728(12) 0.7888(12)
C2 C 0.20421(15) 0.44090(9) 0.73798(10)
H5 H 0.1526(17) 0.4228(11) 0.7901(12)
H6 H 0.1620(16) 0.4021(11) 0.6770(11)
H7 H 0.311(2) 0.4304(11) 0.7587(12)
C3 C 0.25758(12) 0.58274(8) 0.64208(8)
H8 H 0.2386(14) 0.6539(10) 0.6379(10)
H9 H 0.3617(16) 0.5712(9) 0.6723(10)
C4 C 0.20966(13) 0.53547(8) 0.54020(8)
H10 H 0.2194(15) 0.4638(11) 0.5452(10)
H11 H 0.1058(16) 0.5504(9) 0.5115(10)
C5 C 0.30441(12) 0.57418(8) 0.47274(8)
H12 H 0.4068(16) 0.5522(9) 0.4961(10)
H13 H 0.3049(15) 0.6466(10) 0.4744(10)
C6 C 0.32583(12) 0.54254(7) 0.30239(7)
C7 C 0.23822(12) 0.51570(8) 0.19622(8)
H14 H 0.1449(14) 0.4874(9) 0.2027(9)
C8 C 0.20224(12) 0.60672(8) 0.13147(7)
C9 C 0.06271(12) 0.61489(8) 0.06521(8)
H15 H -0.0115(16) 0.5633(10) 0.0626(10)
C10 C 0.02698(13) 0.69472(8) 0.00163(8)
H16 H -0.0706(16) 0.6975(10) -0.0438(11)
C11 C 0.13063(13) 0.76895(8) 0.00440(8)
H17 H 0.1045(15) 0.8231(10) -0.0403(10)
C12 C 0.26889(13) 0.76280(8) 0.07137(8)
H18 H 0.3421(15) 0.8144(10) 0.0771(10)
C13 C 0.30509(13) 0.68202(8) 0.13421(8)
H19 H 0.4025(15) 0.6786(9) 0.1808(10)
C14 C 0.31753(11) 0.43585(7) 0.15175(8)
C15 C 0.34905(12) 0.44348(8) 0.05825(8)
H20 H 0.3264(15) 0.5043(11) 0.021(1)
C16 C 0.41132(12) 0.36528(8) 0.01810(8)
H21 H 0.4312(15) 0.3720(9) -0.0471(10)
C17 C 0.44381(13) 0.27876(8) 0.07095(9)
H22 H 0.4892(15) 0.224(1) 0.0428(10)
C18 C 0.41464(13) 0.27094(8) 0.16507(9)
H23 H 0.4375(16) 0.2105(11) 0.2040(11)
C19 C 0.35241(13) 0.34851(8) 0.20487(8)
H24 H 0.3308(15) 0.3415(10) 0.2706(11)
#END
