
#######################################################################
#
#                 Cambridge Crystallographic Data Centre
#                                CCDC
#
#######################################################################
#
# If this CIF has been generated from an entry in the Cambridge
# Structural Database, then it will include bibliographic, chemical,
# crystal, experimental, refinement or atomic coordinate data resulting
# from the CCDC's data processing and validation procedures.
#
#######################################################################

data_CSD_CIF_DUYGIO
_audit_creation_date 2010-12-14
_audit_creation_method CSD-ConQuest-V1
_database_code_CSD DUYGIO
_database_code_depnum_ccdc_archive 'CCDC 786787'
_chemical_formula_sum 'C20 H26 N2 O2'
_chemical_formula_moiety
;
C20 H26 N2 O2
;
_journal_coden_Cambridge 4
_journal_volume 132
_journal_year 2010
_journal_page_first 1953
_journal_name_full 'J.Am.Chem.Soc. '
loop_
_publ_author_name
"Pil Seok Chae"
"I.A.Guzei"
"S.H.Gellman"
_chemical_name_systematic
;
N-(3-(Dimethylnitroryl)propyl)-3,3-diphenylpropanamide
;
_cell_volume   1879.720
_exptl_crystal_colour 'colorless'
_exptl_crystal_density_diffrn 1.153
_exptl_crystal_description 'block'
_diffrn_ambient_temperature 100
#These two values have been output from a single CSD field.
_refine_ls_R_factor_gt 0.0508
_refine_ls_wR_factor_gt 0.0508
_symmetry_cell_setting monoclinic
_symmetry_space_group_name_H-M 'P 21/c'
_symmetry_Int_Tables_number 14
loop_
_symmetry_equiv_pos_site_id
_symmetry_equiv_pos_as_xyz
1 x,y,z
2 -x,1/2+y,1/2-z
3 -x,-y,-z
4 x,-1/2-y,-1/2+z
_cell_length_a 8.5108(10)
_cell_length_b 8.158(1)
_cell_length_c 27.118(3)
_cell_angle_alpha 90
_cell_angle_beta 93.295(2)
_cell_angle_gamma 90
_cell_formula_units_Z 4
loop_
_atom_type_symbol
_atom_type_radius_bond
C 0.68
H 0.23
N 0.68
O 0.68
loop_
_atom_site_label
_atom_site_type_symbol
_atom_site_fract_x
_atom_site_fract_y
_atom_site_fract_z
O1 O -0.00734(9) -0.14961(12) 0.29756(3)
O2 O 0.48967(10) 0.07415(12) 0.17749(3)
N1 N 0.14203(11) -0.21935(13) 0.30333(4)
N2 N 0.28881(12) 0.18824(13) 0.21758(4)
H1 H 0.194(2) 0.228(2) 0.2140(6)
C1 C 0.14157(16) -0.38348(17) 0.27904(6)
H2 H 0.06560 -0.45500 0.29430
H3 H 0.24690 -0.43200 0.28310
H4 H 0.11200 -0.37120 0.24380
C2 C 0.18715(15) -0.2383(2) 0.35683(5)
H5 H 0.17920 -0.13200 0.37340
H6 H 0.29570 -0.27840 0.36090
H7 H 0.11630 -0.31690 0.37150
C3 C 0.25930(14) -0.11177(15) 0.27907(4)
H8 H 0.23050 -0.10600 0.24320
H9 H 0.36470 -0.16290 0.28320
C4 C 0.26831(14) 0.06031(15) 0.29967(4)
H10 H 0.31810 0.05770 0.33360
H11 H 0.16070 0.10500 0.30150
C5 C 0.36377(14) 0.17167(16) 0.26726(4)
H12 H 0.37430 0.28130 0.28270
H13 H 0.47070 0.12560 0.26500
C6 C 0.35615(13) 0.13342(14) 0.17716(4)
C7 C 0.25436(13) 0.14424(15) 0.12942(4)
H14 H 0.16010 0.21110 0.13510
H15 H 0.21830 0.03290 0.11970
C8 C 0.34188(13) 0.22029(15) 0.08693(4)
H16 H 0.44440 0.16090 0.08580
C9 C 0.38079(13) 0.40094(15) 0.09428(4)
C10 C 0.30254(15) 0.50300(16) 0.12634(5)
H17 H 0.22080 0.46000 0.14500
C11 C 0.34451(17) 0.66821(16) 0.13101(5)
H18 H 0.29120 0.73640 0.15300
C12 C 0.46238(18) 0.73387(17) 0.10409(5)
H19 H 0.49080 0.84600 0.10780
C13 C 0.53915(17) 0.63371(17) 0.07148(5)
H20 H 0.61890 0.67810 0.05230
C14 C 0.49910(15) 0.46902(17) 0.06696(5)
H21 H 0.55300 0.40150 0.04490
C15 C 0.25087(14) 0.18819(15) 0.03776(4)
C16 C 0.12768(17) 0.28798(18) 0.02047(5)
H22 H 0.09920 0.38070 0.03920
C17 C 0.04549(19) 0.2530(2) -0.02420(6)
H23 H -0.03950 0.32120 -0.03560
C18 C 0.08677(18) 0.1197(2) -0.05203(5)
H24 H 0.03250 0.09820 -0.08300
C19 C 0.20680(18) 0.01802(19) -0.03483(5)
H25 H 0.23390 -0.07530 -0.05350
C20 C 0.28815(16) 0.05216(16) 0.00983(5)
H26 H 0.37070 -0.01870 0.02150
#END
