
#######################################################################
#
#                 Cambridge Crystallographic Data Centre
#                                CCDC
#
#######################################################################
#
# If this CIF has been generated from an entry in the Cambridge
# Structural Database, then it will include bibliographic, chemical,
# crystal, experimental, refinement or atomic coordinate data resulting
# from the CCDC's data processing and validation procedures.
#
#######################################################################

data_CSD_CIF_DUYHAH
_audit_creation_date 2010-12-14
_audit_creation_method CSD-ConQuest-V1
_database_code_CSD DUYHAH
_database_code_depnum_ccdc_archive 'CCDC 786790'
_chemical_formula_sum 'C21 H36 N2 O3'
_chemical_formula_moiety
;
C21 H36 N2 O3
;
_journal_coden_Cambridge 4
_journal_volume 132
_journal_year 2010
_journal_page_first 1953
_journal_name_full 'J.Am.Chem.Soc. '
loop_
_publ_author_name
"Pil Seok Chae"
"I.A.Guzei"
"S.H.Gellman"
_chemical_name_systematic
;
N-(3-(Dimethylnitroryl)propyl)-2-(4-(2,4,4-trimethylpentan-2-yl)phenoxy)acetam
ide
;
_cell_volume   2063.928
_exptl_crystal_colour 'colorless'
_exptl_crystal_density_diffrn 1.173
_exptl_crystal_description 'plate'
_diffrn_ambient_temperature 100
_refine_special_details
;
C3,C4 and C3A,C4A disordered over two sites with occupancies 0.50:0.50.

;
#These two values have been output from a single CSD field.
_refine_ls_R_factor_gt 0.0406
_refine_ls_wR_factor_gt 0.0406
_symmetry_cell_setting monoclinic
_symmetry_space_group_name_H-M 'P 21/c'
_symmetry_Int_Tables_number 14
loop_
_symmetry_equiv_pos_site_id
_symmetry_equiv_pos_as_xyz
1 x,y,z
2 -x,1/2+y,1/2-z
3 -x,-y,-z
4 x,-1/2-y,-1/2+z
_cell_length_a 21.9485(11)
_cell_length_b 9.9954(5)
_cell_length_c 9.5235(5)
_cell_angle_alpha 90
_cell_angle_beta 98.939(3)
_cell_angle_gamma 90
_cell_formula_units_Z 4
loop_
_atom_type_symbol
_atom_type_radius_bond
C 0.68
H 0.23
N 0.68
O 0.68
loop_
_atom_site_label
_atom_site_type_symbol
_atom_site_fract_x
_atom_site_fract_y
_atom_site_fract_z
O1 O 0.87117(5) 0.33313(10) -0.06845(10)
O2 O 0.94142(5) 0.80245(11) -0.04128(12)
O3 O 0.81579(4) 0.61347(9) 0.03871(10)
N1 N 0.87509(6) 0.27230(12) -0.19830(12)
N2 N 0.91385(6) 0.58579(12) -0.08731(13)
H1 H 0.88790 0.52130 -0.07470
C1 C 0.89404(11) 0.13215(18) -0.17331(18)
H2 H 0.86410 0.08590 -0.12400
H3 H 0.93490 0.12900 -0.11470
H4 H 0.89570 0.08810 -0.26460
C2 C 0.81438(9) 0.2763(3) -0.28870(18)
H5 H 0.78500 0.22270 -0.24500
H6 H 0.81780 0.23980 -0.38270
H7 H 0.79990 0.36910 -0.29870
C3 C 0.93267(14) 0.3163(3) -0.2591(3)
H8 H 0.96930 0.29470 -0.18820
H9 H 0.93530 0.26160 -0.34470
C4 C 0.93680(13) 0.4627(3) -0.2997(3)
H10 H 0.89520 0.49310 -0.34310
H11 H 0.96390 0.46970 -0.37340
C5 C 0.96185(7) 0.56119(16) -0.17453(16)
H12 H 0.99850 0.52160 -0.11540
H13 H 0.97440 0.64680 -0.21390
C6 C 0.90880(7) 0.70404(14) -0.02689(14)
C7 C 0.86021(7) 0.71701(14) 0.06932(15)
H14 H 0.87990 0.71100 0.16990
H15 H 0.83970 0.80520 0.05450
C8 C 0.76495(6) 0.61802(13) 0.10588(13)
C9 C 0.71676(7) 0.53416(13) 0.05083(13)
H16 H 0.72080 0.47730 -0.02710
C10 C 0.66277(6) 0.53310(13) 0.10894(13)
H17 H 0.62980 0.47680 0.06820
C11 C 0.65526(6) 0.61243(12) 0.22591(13)
C12 C 0.70449(6) 0.69534(13) 0.27896(13)
H18 H 0.70090 0.75090 0.35820
C13 C 0.75868(6) 0.70007(13) 0.22062(14)
H19 H 0.79110 0.75880 0.25880
C14 C 0.59664(6) 0.61035(13) 0.29539(13)
C15 C 0.57162(6) 0.75402(14) 0.29856(15)
H20 H 0.56340 0.78950 0.20150
H21 H 0.60220 0.81050 0.35660
H22 H 0.53330 0.75350 0.33960
C16 C 0.54526(7) 0.52686(16) 0.20965(15)
H23 H 0.50940 0.52470 0.25950
H24 H 0.56010 0.43550 0.19910
H25 H 0.53340 0.56700 0.11550
C17 C 0.61084(6) 0.56622(13) 0.45358(13)
H26 H 0.64230 0.62920 0.50090
H27 H 0.57280 0.58300 0.49480
C18 C 0.63300(7) 0.42440(13) 0.50247(15)
C19 C 0.68987(7) 0.37885(15) 0.44179(15)
H28 H 0.70400 0.29270 0.48390
H29 H 0.72270 0.44550 0.46400
H30 H 0.67940 0.36910 0.33850
C20 C 0.65043(9) 0.43246(17) 0.66497(16)
H31 H 0.61420 0.45930 0.70680
H32 H 0.68330 0.49860 0.68940
H33 H 0.66480 0.34470 0.70220
C21 C 0.58186(8) 0.31964(16) 0.4694(2)
H34 H 0.54360 0.35440 0.49670
H35 H 0.59400 0.23770 0.52300
H36 H 0.57520 0.29980 0.36740
C22? C 0.90906(14) 0.3625(3) -0.2893(3)
C23? C 0.96927(12) 0.4099(2) -0.2040(3)
H37? H 0.91750 0.31270 -0.37410
H38? H 0.88300 0.44060 -0.32210
H39? H 0.97820 0.35990 -0.11340
H40? H 1.00370 0.39540 -0.25820
H41? H 0.94810 0.60290 -0.26590
H42? H 1.00020 0.58940 -0.11740
#END
