
#######################################################################
#
#                 Cambridge Crystallographic Data Centre
#                                CCDC
#
#######################################################################
#
# If this CIF has been generated from an entry in the Cambridge
# Structural Database, then it will include bibliographic, chemical,
# crystal, experimental, refinement or atomic coordinate data resulting
# from the CCDC's data processing and validation procedures.
#
#######################################################################

data_CSD_CIF_DUYHOV
_audit_creation_date 2010-12-14
_audit_creation_method CSD-ConQuest-V1
_database_code_CSD DUYHOV
_database_code_depnum_ccdc_archive 'CCDC 786793'
_chemical_formula_sum 'C24 H42 N2 O2'
_chemical_formula_moiety
;
C24 H42 N2 O2
;
_journal_coden_Cambridge 4
_journal_volume 132
_journal_year 2010
_journal_page_first 1953
_journal_name_full 'J.Am.Chem.Soc. '
loop_
_publ_author_name
"Pil Seok Chae"
"I.A.Guzei"
"S.H.Gellman"
_chemical_name_systematic
;
N-(3-(Dimethylnitroryl)propyl)-3-pentyl-3-phenyloctanamide
;
_cell_volume   2375.033
_exptl_crystal_colour 'colorless'
_exptl_crystal_density_diffrn 1.092
_exptl_crystal_description 'plate'
_diffrn_ambient_temperature 100
#These two values have been output from a single CSD field.
_refine_ls_R_factor_gt 0.0474
_refine_ls_wR_factor_gt 0.0474
_symmetry_cell_setting monoclinic
_symmetry_space_group_name_H-M 'P 21/c'
_symmetry_Int_Tables_number 14
loop_
_symmetry_equiv_pos_site_id
_symmetry_equiv_pos_as_xyz
1 x,y,z
2 -x,1/2+y,1/2-z
3 -x,-y,-z
4 x,-1/2-y,-1/2+z
_cell_length_a 12.526(3)
_cell_length_b 18.183(4)
_cell_length_c 11.157(2)
_cell_angle_alpha 90
_cell_angle_beta 110.83(3)
_cell_angle_gamma 90
_cell_formula_units_Z 4
loop_
_atom_type_symbol
_atom_type_radius_bond
C 0.68
H 0.23
N 0.68
O 0.68
loop_
_atom_site_label
_atom_site_type_symbol
_atom_site_fract_x
_atom_site_fract_y
_atom_site_fract_z
O1 O 0.10289(8) 0.74969(4) -0.10978(8)
O2 O 0.02445(8) 1.00449(5) 0.27866(9)
N1 N 0.07261(9) 0.82050(5) -0.15725(10)
N2 N 0.03092(9) 0.88052(6) 0.25611(9)
H1 H 0.04930 0.83820 0.29660
C1 C 0.00616(13) 0.81755(7) -0.29849(12)
H2 H 0.05320 0.79510 -0.34250
H3 H -0.01510 0.86750 -0.33110
H4 H -0.06310 0.78810 -0.31420
C2 C 0.17858(12) 0.86465(8) -0.13437(14)
H5 H 0.22560 0.86330 -0.04300
H6 H 0.15790 0.91570 -0.16080
H7 H 0.22180 0.84390 -0.18440
C3 C -0.00185(10) 0.85582(7) -0.09298(11)
H8 H -0.07070 0.82510 -0.10820
H9 H -0.02720 0.90460 -0.13220
C4 C 0.05925(10) 0.86533(7) 0.05058(11)
H10 H 0.11350 0.90690 0.06660
H11 H 0.10340 0.82030 0.08660
C5 C -0.02594(11) 0.88000(7) 0.11743(11)
H12 H -0.06360 0.92800 0.08890
H13 H -0.08560 0.84140 0.09310
C6 C 0.0565(1) 0.94293(6) 0.32481(11)
C7 C 0.1289(1) 0.93237(6) 0.46546(11)
H14 H 0.13790 0.87900 0.48400
H15 H 0.08780 0.95360 0.51850
C8 C 0.25005(10) 0.96823(6) 0.50604(11)
C9 C 0.30868(11) 0.94833(6) 0.41010(11)
H16 H 0.26090 0.96770 0.32500
H17 H 0.38270 0.97450 0.43650
C10 C 0.33128(11) 0.86685(7) 0.39440(12)
H18 H 0.25850 0.83920 0.36920
H19 H 0.38320 0.84690 0.47710
C11 C 0.38532(11) 0.85718(7) 0.29202(12)
H20 H 0.33300 0.87810 0.21040
H21 H 0.45720 0.88580 0.31800
C12 C 0.41139(12) 0.77801(7) 0.26865(14)
H22 H 0.33890 0.75010 0.23480
H23 H 0.45870 0.75540 0.35120
C13 C 0.47415(13) 0.77193(8) 0.17418(14)
H24 H 0.42520 0.79070 0.09030
H25 H 0.49280 0.72030 0.16590
H26 H 0.54470 0.80090 0.20570
C14 C 0.31724(10) 0.93599(7) 0.64133(11)
H27 H 0.27470 0.94810 0.69840
H28 H 0.31770 0.88180 0.63380
C15 C 0.44048(11) 0.96176(7) 0.70636(12)
H29 H 0.44190 1.01600 0.71370
H30 H 0.48540 0.94780 0.65270
C16 C 0.49549(11) 0.92800(7) 0.83989(12)
H31 H 0.44640 0.93860 0.89040
H32 H 0.49820 0.87390 0.83090
C17 C 0.61601(12) 0.95569(9) 0.91449(13)
H33 H 0.61410 1.00980 0.92320
H34 H 0.66610 0.94420 0.86560
C18 C 0.66628(12) 0.92118(9) 1.04798(13)
H35 H 0.61570 0.93110 1.09590
H36 H 0.74180 0.94240 1.09380
H37 H 0.67360 0.86790 1.03970
C19 C 0.24366(10) 1.05289(6) 0.51857(11)
C20 C 0.29460(11) 1.10209(7) 0.45831(12)
H38 H 0.32920 1.08350 0.40120
C21 C 0.29570(11) 1.17782(7) 0.48026(13)
H39 H 0.33140 1.20990 0.43870
C22 C 0.24518(11) 1.20632(7) 0.56212(13)
H40 H 0.24710 1.25770 0.57830
C23 C 0.19142(11) 1.15872(7) 0.62048(12)
H41 H 0.15460 1.17770 0.67510
C24 C 0.19147(10) 1.08325(7) 0.59895(11)
H42 H 0.15500 1.05150 0.64010
#END
