
#######################################################################
#
#                 Cambridge Crystallographic Data Centre
#                                CCDC
#
#######################################################################
#
# If this CIF has been generated from an entry in the Cambridge
# Structural Database, then it will include bibliographic, chemical,
# crystal, experimental, refinement or atomic coordinate data resulting
# from the CCDC's data processing and validation procedures.
#
#######################################################################

data_CSD_CIF_DUYRIY
_audit_creation_date 1987-07-16
_audit_creation_method CSD-ConQuest-V1
_database_code_CSD DUYRIY
_database_code_depnum_ccdc_archive 'CCDC 1147555'
_chemical_formula_sum 'C12 H10 N4 O8'
_chemical_formula_moiety
;
C12 H10 N4 O8
;
_journal_coden_Cambridge 48
_journal_volume 119
_journal_year 1986
_journal_page_first 3782
_journal_name_full 'Chem.Ber. '
loop_
_publ_author_name
"L.A.Paquette"
"K.Nakamura"
"P.Engel"
_chemical_name_systematic
;
5,5,11,11-Tetranitrohexacyclo(5.4.1.0^2,6^.0^3,10^.0^4,8^.0^9,12^)dodecane
;
_chemical_name_common
;
Tetranitro-1,3-bis(homopentaprismane)
;
_chemical_melting_point 508.15
_cell_volume   1291.501
_exptl_crystal_colour 'colorless'
_exptl_crystal_density_diffrn 1.73
_exptl_special_details
;
Melting point range 508.15-509.15K
In bond table C11-H12 should read C11-C12

;
_diffrn_ambient_temperature 150.15
#These two values have been output from a single CSD field.
_refine_ls_R_factor_gt 0.07
_refine_ls_wR_factor_gt 0.07
_symmetry_cell_setting triclinic
_symmetry_space_group_name_H-M 'P -1'
_symmetry_Int_Tables_number 2
loop_
_symmetry_equiv_pos_site_id
_symmetry_equiv_pos_as_xyz
1 x,y,z
2 -x,-y,-z
_cell_length_a 9.566(6)
_cell_length_b 11.708(6)
_cell_length_c 11.853(6)
_cell_angle_alpha 76.75(5)
_cell_angle_beta 89.39(5)
_cell_angle_gamma 88.15(5)
_cell_formula_units_Z 4
loop_
_atom_type_symbol
_atom_type_radius_bond
C 0.68
H 0.23
N 0.68
O 0.68
loop_
_atom_site_label
_atom_site_type_symbol
_atom_site_fract_x
_atom_site_fract_y
_atom_site_fract_z
O1 O 0.8606(4) 0.4372(4) 0.4528(4)
O2 O 1.0388(4) 0.4852(3) 0.3443(4)
O3 O 0.9155(4) 0.1601(4) 0.5767(3)
O4 O 1.1001(4) 0.2595(4) 0.5798(3)
O5 O 0.8796(3) 0.4155(3) -0.0292(3)
O6 O 1.0847(4) 0.3841(3) -0.0946(3)
O7 O 0.9082(4) 0.1609(3) -0.0957(3)
O8 O 1.1098(3) 0.0907(3) -0.0262(3)
N1 N 0.9604(5) 0.4143(3) 0.4001(3)
N2 N 1.0014(5) 0.2306(3) 0.5316(3)
N3 N 0.9857(3) 0.3559(3) -0.0315(3)
N4 N 1.0066(4) 0.1558(3) -0.0308(3)
C1 C 0.9883(4) 0.2853(3) 0.4036(3)
C2 C 0.8754(4) 0.2344(3) 0.3414(3)
C3 C 0.9030(4) 0.2974(3) 0.2148(3)
C4 C 0.8807(4) 0.2081(3) 0.1405(3)
C5 C 0.9978(4) 0.2371(3) 0.0516(3)
C6 C 1.1194(4) 0.2278(3) 0.1354(3)
C7 C 1.0680(4) 0.3120(3) 0.2096(3)
C8 C 1.1136(4) 0.2576(3) 0.3344(3)
C9 C 0.9338(4) 0.1103(3) 0.3451(3)
C10 C 0.9371(4) 0.0933(3) 0.2196(3)
C11 C 1.1003(4) 0.1074(3) 0.2169(3)
C12 C 1.0970(4) 0.1257(3) 0.3416(3)
H1 H 0.774(4) 0.239(4) 0.367(3)
H2 H 0.845(4) 0.376(4) 0.182(3)
H3 H 0.783(4) 0.209(3) 0.108(3)
H4 H 1.215(4) 0.242(4) 0.098(3)
H5 H 1.092(4) 0.395(4) 0.180(3)
H6 H 1.208(4) 0.282(4) 0.360(3)
H7 H 0.902(5) 0.038(4) 0.409(4)
H8 H 0.897(4) 0.022(4) 0.201(4)
H9 H 1.160(4) 0.040(4) 0.204(3)
H10 H 1.153(4) 0.070(4) 0.399(3)
O9 O 0.5774(4) 0.3782(3) 0.3800(3)
O10 O 0.3861(4) 0.4573(3) 0.4220(3)
O11 O 0.5869(3) 0.4444(3) 0.1043(3)
O12 O 0.3733(4) 0.4073(3) 0.1544(3)
O13 O 0.6037(4) 0.8504(4) 0.4759(3)
O14 O 0.3932(4) 0.9202(4) 0.4564(3)
O15 O 0.6185(4) 1.0693(3) 0.2648(4)
O16 O 0.4312(5) 1.0708(3) 0.1688(5)
N5 N 0.4829(4) 0.4493(3) 0.3590(3)
N6 N 0.4826(4) 0.4553(3) 0.1593(3)
N7 N 0.5019(4) 0.8871(3) 0.4194(3)
N8 N 0.5176(4) 1.0228(3) 0.2365(3)
C13 C 0.4873(4) 0.5360(3) 0.2427(3)
C14 C 0.6127(4) 0.6148(3) 0.2265(3)
C15 C 0.5781(4) 0.6938(3) 0.3109(3)
C16 C 0.6221(4) 0.8189(3) 0.2523(3)
C17 C 0.5066(4) 0.8920(3) 0.2904(3)
C18 C 0.3808(4) 0.8343(3) 0.2492(3)
C19 C 0.4121(4) 0.7045(3) 0.3092(3)
C20 C 0.3708(4) 0.6301(3) 0.2241(3)
C21 C 0.5782(4) 0.6987(4) 0.1098(3)
C22 C 0.5839(4) 0.8262(4) 0.1256(3)
C23 C 0.4202(4) 0.8358(3) 0.1238(3)
C24 C 0.4143(4) 0.7086(3) 0.1081(3)
H11 H 0.705(4) 0.573(4) 0.240(3)
H12 H 0.627(4) 0.663(4) 0.387(3)
H13 H 0.714(4) 0.837(4) 0.271(3)
H14 H 0.287(4) 0.865(4) 0.263(3)
H15 H 0.365(4) 0.678(4) 0.387(3)
H16 H 0.269(5) 0.603(4) 0.229(4)
H17 H 0.638(5) 0.678(4) 0.044(4)
H18 H 0.638(5) 0.884(4) 0.067(4)
H19 H 0.370(4) 0.900(4) 0.066(4)
H20 H 0.358(5) 0.693(4) 0.035(4)
#END
