
#######################################################################
#
#                 Cambridge Crystallographic Data Centre
#                                CCDC
#
#######################################################################
#
# If this CIF has been generated from an entry in the Cambridge
# Structural Database, then it will include bibliographic, chemical,
# crystal, experimental, refinement or atomic coordinate data resulting
# from the CCDC's data processing and validation procedures.
#
#######################################################################

data_CSD_CIF_DUYREU
_audit_creation_date 1987-07-16
_audit_creation_method CSD-ConQuest-V1
_database_code_CSD DUYREU
_database_code_depnum_ccdc_archive 'CCDC 1147554'
_chemical_formula_sum 'C12 H11 N3 O6'
_chemical_formula_moiety
;
C12 H11 N3 O6
;
_journal_coden_Cambridge 48
_journal_volume 119
_journal_year 1986
_journal_page_first 3782
_journal_name_full 'Chem.Ber. '
loop_
_publ_author_name
"L.A.Paquette"
"K.Nakamura"
"P.Engel"
_chemical_name_systematic
;
5,5,11-Trinitrohexacyclo(5.4.1.0^2,6^.0^3,10^.0^4,8^.0^9,12^)dodecane
;
_chemical_name_common
;
Trinitro-1,3-bis(homopentaprismane)
;
_chemical_melting_point 423.15
_cell_volume   1149.562
_exptl_crystal_colour 'colorless'
_exptl_crystal_density_diffrn 1.69
_exptl_special_details
;
Melting point range 423.15-423.65K

;
_diffrn_ambient_temperature 150.15
#These two values have been output from a single CSD field.
_refine_ls_R_factor_gt 0.06
_refine_ls_wR_factor_gt 0.06
_symmetry_cell_setting monoclinic
_symmetry_space_group_name_H-M 'P 21/c'
_symmetry_Int_Tables_number 14
loop_
_symmetry_equiv_pos_site_id
_symmetry_equiv_pos_as_xyz
1 x,y,z
2 -x,1/2+y,1/2-z
3 -x,-y,-z
4 x,-1/2-y,-1/2+z
_cell_length_a 8.203(5)
_cell_length_b 11.969(8)
_cell_length_c 12.323(6)
_cell_angle_alpha 90
_cell_angle_beta 108.17(4)
_cell_angle_gamma 90
_cell_formula_units_Z 4
loop_
_atom_type_symbol
_atom_type_radius_bond
C 0.68
H 0.23
N 0.68
O 0.68
loop_
_atom_site_label
_atom_site_type_symbol
_atom_site_fract_x
_atom_site_fract_y
_atom_site_fract_z
C1 C 0.0665(4) 0.7924(3) 0.3089(3)
C2 C 0.2153(4) 0.8370(2) 0.2724(2)
C3 C 0.3348(4) 0.7349(2) 0.2912(2)
C4 C 0.5194(4) 0.7774(3) 0.3401(3)
C5 C 0.6106(4) 0.6922(3) 0.4318(3)
C6 C 0.4741(4) 0.6892(3) 0.4929(3)
C7 C 0.3024(4) 0.6731(2) 0.3966(2)
C8 C 0.1681(4) 0.7479(2) 0.4264(2)
C9 C 0.3073(4) 0.9118(2) 0.3749(3)
C10 C 0.4972(4) 0.8746(2) 0.4165(3)
C11 C 0.4657(4) 0.8140(3) 0.5219(2)
C12 C 0.2749(4) 0.8507(2) 0.4800(2)
O1 O -0.0136(4) 0.6802(3) 0.1433(2)
O2 O -0.1519(4) 0.6608(3) 0.2636(3)
O3 O -0.1483(5) 0.9160(3) 0.2159(3)
O4 O -0.0849(4) 0.9087(3) 0.3980(2)
O5 O 0.5407(4) 0.5402(2) 0.3044(3)
O6 O 0.7678(4) 0.5287(3) 0.4479(3)
N1 N -0.0407(3) 0.7036(2) 0.2312(2)
N2 N -0.0662(4) 0.8811(2) 0.3088(3)
N3 N 0.6419(4) 0.5789(2) 0.3900(3)
H1 H 0.191(5) 0.874(3) 0.194(3)
H2 H 0.319(5) 0.684(3) 0.223(3)
H3 H 0.569(5) 0.799(3) 0.279(3)
H4 H 0.730(5) 0.715(3) 0.484(3)
H5 H 0.493(5) 0.635(3) 0.561(3)
H6 H 0.267(5) 0.593(3) 0.382(3)
H7 H 0.097(5) 0.714(4) 0.478(3)
H8 H 0.282(5) 0.994(3) 0.365(3)
H9 H 0.588(5) 0.936(3) 0.425(3)
H10 H 0.531(5) 0.838(4) 0.602(4)
H11 H 0.228(5) 0.896(3) 0.534(3)
#END
