
#######################################################################
#
#                 Cambridge Crystallographic Data Centre
#                                CCDC
#
#######################################################################
#
# If this CIF has been generated from an entry in the Cambridge
# Structural Database, then it will include bibliographic, chemical,
# crystal, experimental, refinement or atomic coordinate data resulting
# from the CCDC's data processing and validation procedures.
#
#######################################################################

data_CSD_CIF_DUZFEK
_audit_creation_date 2011-01-04
_audit_creation_method CSD-ConQuest-V1
_database_code_CSD DUZFEK
_database_code_depnum_ccdc_archive 'CCDC 761049'
_chemical_formula_sum 'C19 H19 N5 O5'
_chemical_formula_moiety
;
C19 H19 N5 O5
;
_journal_coden_Cambridge 16
_journal_volume 66
_journal_year 2010
_journal_page_first 2427
_journal_name_full 'Tetrahedron '
loop_
_publ_author_name
"Yehua Su"
"Zhen Jiang"
"Deng Hong"
"Ping Lu"
"Yanguang Wang"
"Xianfu Lin"
_chemical_name_systematic
;
Ethyl 
ethyl-(3-(4-nitrophenyl)-5-oxo-1-phenyl-1,5-dihydro-4H-1,2,4-triazol-4-yl)carb
amate
;
_chemical_melting_point 388.15
_cell_volume   1914.621
_exptl_crystal_colour 'colorless'
_exptl_crystal_density_diffrn 1.379
_exptl_special_details
;
Melting point range 388.15-390.15K

;
_exptl_crystal_description 'prismatic'
_diffrn_ambient_temperature 293
#These two values have been output from a single CSD field.
_refine_ls_R_factor_gt 0.0483
_refine_ls_wR_factor_gt 0.0483
_symmetry_cell_setting monoclinic
_symmetry_space_group_name_H-M 'P 21/n'
_symmetry_Int_Tables_number 14
loop_
_symmetry_equiv_pos_site_id
_symmetry_equiv_pos_as_xyz
1 x,y,z
2 1/2-x,1/2+y,1/2-z
3 -x,-y,-z
4 -1/2+x,-1/2-y,-1/2+z
_cell_length_a 9.9394(11)
_cell_length_b 16.4239(17)
_cell_length_c 11.7360(12)
_cell_angle_alpha 90
_cell_angle_beta 92.034(2)
_cell_angle_gamma 90
_cell_formula_units_Z 4
loop_
_atom_type_symbol
_atom_type_radius_bond
C 0.68
H 0.23
N 0.68
O 0.68
loop_
_atom_site_label
_atom_site_type_symbol
_atom_site_fract_x
_atom_site_fract_y
_atom_site_fract_z
N1 N 0.07134(14) 0.17196(8) 0.74108(12)
N2 N 0.16156(15) 0.23226(8) 0.77384(12)
N3 N 0.25222(15) 0.11225(7) 0.80458(12)
N4 N 0.34811(15) 0.05260(8) 0.82549(13)
N5 N 0.74026(19) 0.36766(11) 0.95066(17)
O1 O 0.07600(14) 0.02904(7) 0.74104(13)
O2 O 0.76178(19) 0.43235(10) 0.90340(17)
O3 O 0.81760(18) 0.33745(11) 1.02145(17)
O4 O 0.39759(15) -0.06243(8) 0.92014(12)
O5 O 0.23253(14) 0.02025(7) 0.97969(11)
C1 C 0.1249(2) 0.0958(1) 0.75871(15)
C2 C 0.26910(18) 0.19567(9) 0.81140(14)
C3 C 0.39105(17) 0.23815(9) 0.85074(14)
C4 C 0.41102(19) 0.31743(10) 0.81272(16)
H1 H 0.34700 0.34160 0.76400
C5 C 0.52375(19) 0.36006(10) 0.84633(16)
H2 H 0.53700 0.41290 0.82070
C6 C 0.61681(19) 0.32354(10) 0.91833(16)
C7 C 0.5986(2) 0.24631(11) 0.96016(16)
H3 H 0.66160 0.22330 1.01100
C8 C 0.48559(19) 0.20397(10) 0.92541(15)
H4 H 0.47240 0.15150 0.95250
C9 C -0.05935(18) 0.19289(10) 0.69790(14)
C10 C -0.1423(2) 0.13592(12) 0.64688(17)
H5 H -0.11390 0.08220 0.64090
C11 C -0.2678(2) 0.15841(15) 0.60445(18)
H6 H -0.32420 0.11960 0.57050
C12 C -0.3100(2) 0.23700(17) 0.61184(19)
H7 H -0.39470 0.25200 0.58280
C13 C -0.2267(2) 0.29394(14) 0.66247(19)
H8 H -0.25550 0.34770 0.66730
C14 C -0.1013(2) 0.27316(12) 0.70624(18)
H9 H -0.04560 0.31220 0.74080
C15 C 0.4401(2) 0.03384(11) 0.73454(17)
H10 H 0.52410 0.01420 0.76900
H11 H 0.45940 0.08380 0.69420
C16 C 0.3894(2) -0.02771(13) 0.65010(19)
H12 H 0.37040 -0.07770 0.68870
H13 H 0.45650 -0.03720 0.59480
H14 H 0.30860 -0.00780 0.61240
C17 C 0.3287(2) -0.00222(10) 0.91069(15)
C18 C 0.1967(3) -0.04050(12) 1.06300(17)
H15 H 0.15250 -0.01410 1.12540
H16 H 0.27790 -0.06630 1.09370
C19 C 0.1060(3) -0.10348(13) 1.0122(2)
H17 H 0.02260 -0.07870 0.98720
H18 H 0.08890 -0.14440 1.06820
H19 H 0.14790 -0.12810 0.94820
#END
