
#######################################################################
#
#                 Cambridge Crystallographic Data Centre
#                                CCDC
#
#######################################################################
#
# If this CIF has been generated from an entry in the Cambridge
# Structural Database, then it will include bibliographic, chemical,
# crystal, experimental, refinement or atomic coordinate data resulting
# from the CCDC's data processing and validation procedures.
#
#######################################################################

data_CSD_CIF_DUZFOU
_audit_creation_date 2011-01-04
_audit_creation_method CSD-ConQuest-V1
_database_code_CSD DUZFOU
_database_code_depnum_ccdc_archive 'CCDC 761051'
_chemical_formula_sum 'C29 H23 N5 O5'
_chemical_formula_moiety
;
C29 H23 N5 O5
;
_journal_coden_Cambridge 16
_journal_volume 66
_journal_year 2010
_journal_page_first 2427
_journal_name_full 'Tetrahedron '
loop_
_publ_author_name
"Yehua Su"
"Zhen Jiang"
"Deng Hong"
"Ping Lu"
"Yanguang Wang"
"Xianfu Lin"
_chemical_name_systematic
;
Benzyl 
benzyl-(3-(4-nitrophenyl)-5-oxo-1-phenyl-1,5-dihydro-4H-1,2,4-triazol-4-yl)car
bamate
;
_chemical_melting_point 410.15
_cell_volume   5059.014
_exptl_crystal_colour 'colorless'
_exptl_crystal_density_diffrn 1.369
_exptl_special_details
;
Melting point range 410.15-411.15K

;
_exptl_crystal_description 'prismatic'
_diffrn_ambient_temperature 293
#These two values have been output from a single CSD field.
_refine_ls_R_factor_gt 0.0431
_refine_ls_wR_factor_gt 0.0431
_symmetry_cell_setting orthorhombic
_symmetry_space_group_name_H-M 'P b c a'
_symmetry_Int_Tables_number 61
loop_
_symmetry_equiv_pos_site_id
_symmetry_equiv_pos_as_xyz
1 x,y,z
2 1/2-x,-y,1/2+z
3 -x,1/2+y,1/2-z
4 1/2+x,1/2-y,-z
5 -x,-y,-z
6 -1/2+x,y,-1/2-z
7 x,-1/2-y,-1/2+z
8 -1/2-x,-1/2+y,z
_cell_length_a 23.7174(19)
_cell_length_b 8.9936(7)
_cell_length_c 23.7173(19)
_cell_angle_alpha 90
_cell_angle_beta 90
_cell_angle_gamma 90
_cell_formula_units_Z 8
loop_
_atom_type_symbol
_atom_type_radius_bond
C 0.68
H 0.23
N 0.68
O 0.68
loop_
_atom_site_label
_atom_site_type_symbol
_atom_site_fract_x
_atom_site_fract_y
_atom_site_fract_z
N1 N 0.06326(5) 0.71849(15) 0.48200(6)
N2 N 0.04149(6) 0.82351(15) 0.51842(6)
N3 N 0.13317(5) 0.80389(15) 0.52973(6)
N4 N 0.18803(5) 0.83794(16) 0.54398(6)
N5 N 0.05184(9) 1.2783(2) 0.72743(7)
O1 O 0.15291(5) 0.61245(14) 0.46688(5)
O2 O 0.09061(8) 1.3611(2) 0.74091(7)
O3 O 0.00619(9) 1.2786(2) 0.75068(7)
O4 O 0.26249(5) 0.77894(16) 0.59843(6)
O5 O 0.17651(5) 0.67992(14) 0.61568(5)
C1 C 0.12036(7) 0.6989(2) 0.48901(7)
C2 C 0.08410(7) 0.87528(18) 0.54663(7)
C3 C 0.07783(7) 0.98199(18) 0.59253(7)
C4 C 0.02473(8) 0.9972(2) 0.61665(8)
H1 H -0.00530 0.94160 0.60280
C5 C 0.01613(8) 1.0937(2) 0.66081(8)
H2 H -0.01940 1.10340 0.67700
C6 C 0.06074(8) 1.1754(2) 0.68049(7)
C7 C 0.11318(8) 1.1641(2) 0.65736(8)
H3 H 0.14270 1.22180 0.67110
C8 C 0.12195(7) 1.0666(2) 0.61357(8)
H4 H 0.15770 1.05740 0.59790
C9 C 0.02624(7) 0.63599(18) 0.44691(7)
C10 C -0.03092(8) 0.6404(2) 0.45752(7)
H5 H -0.04510 0.69950 0.48640
C11 C -0.06694(9) 0.5562(2) 0.42475(9)
H6 H -0.10550 0.55840 0.43170
C12 C -0.04619(10) 0.4698(2) 0.38225(10)
H7 H -0.07050 0.41170 0.36080
C13 C 0.01016(11) 0.4686(2) 0.37124(9)
H8 H 0.02400 0.41080 0.34180
C14 C 0.04724(8) 0.5524(2) 0.40344(8)
H9 H 0.08570 0.55180 0.39570
C15 C 0.22299(8) 0.9165(2) 0.50180(9)
H10 H 0.24680 0.84490 0.48270
H11 H 0.24730 0.98670 0.52110
C16 C 0.18874(7) 0.9977(2) 0.45918(8)
C17 C 0.16818(8) 1.1375(2) 0.47010(9)
H12 H 0.17570 1.18170 0.50470
C18 C 0.13667(10) 1.2136(3) 0.43094(11)
H13 H 0.12360 1.30870 0.43900
C19 C 0.12467(10) 1.1497(4) 0.38070(12)
H14 H 0.10310 1.20110 0.35440
C20 C 0.14358(11) 1.0134(4) 0.36869(10)
H15 H 0.13490 0.97020 0.33420
C21 C 0.17635(9) 0.9356(2) 0.40766(9)
H16 H 0.18980 0.84140 0.39870
C22 C 0.21311(8) 0.7641(2) 0.58739(8)
C23 C 0.19718(9) 0.6138(2) 0.66793(9)
H17 H 0.23610 0.58380 0.66300
H18 H 0.17530 0.52560 0.67650
C24 C 0.19328(8) 0.7198(2) 0.71597(8)
C25 C 0.23893(10) 0.7504(4) 0.74904(11)
H19 H 0.27360 0.70670 0.74100
C26 C 0.23389(15) 0.8466(5) 0.79462(13)
H20 H 0.26520 0.86760 0.81680
C27 C 0.18364(17) 0.9098(4) 0.80695(13)
H21 H 0.18020 0.97320 0.83770
C28 C 0.13873(13) 0.8801(3) 0.77439(12)
H22 H 0.10410 0.92370 0.78250
C29 C 0.1436(1) 0.7865(3) 0.72949(10)
H23 H 0.11200 0.76750 0.70740
#END
