
#######################################################################
#
#                 Cambridge Crystallographic Data Centre
#                                CCDC
#
#######################################################################
#
# If this CIF has been generated from an entry in the Cambridge
# Structural Database, then it will include bibliographic, chemical,
# crystal, experimental, refinement or atomic coordinate data resulting
# from the CCDC's data processing and validation procedures.
#
#######################################################################

data_CSD_CIF_DUZPIX
_audit_creation_date 1987-06-30
_audit_creation_method CSD-ConQuest-V1
_database_code_CSD DUZPIX
_chemical_formula_sum 'C20 H24 N2 O6'
_chemical_formula_moiety
;
C20 H24 N2 O6
;
_journal_coden_Cambridge 10
_journal_volume 69
_journal_year 1986
_journal_page_first 659
_journal_name_full 'Helv.Chim.Acta '
loop_
_publ_author_name
"G.G.G.Manzardo"
"M.Karpf"
"A.S.Dreiding"
_chemical_name_systematic
;
((1RS,2SR,3SR,4RS,5RS)-1,3,4-Trimethyl-4-vinylbicyclo(3.3.0)octan-2-yl) 
3,5-dinitrobenzoate
;
_chemical_melting_point 373.15
_cell_volume   1984.382
_exptl_crystal_colour 'colorless'
_exptl_special_details
;
Melting point range 373.15-374.65K

;
_diffrn_ambient_temperature ?
_diffrn_special_details
;
The study was carried out at room temperature,in the range 283-303K

;
#These two values have been output from a single CSD field.
_refine_ls_R_factor_gt 0.071
_refine_ls_wR_factor_gt 0.071
_symmetry_cell_setting monoclinic
_symmetry_space_group_name_H-M 'P 21/c'
_symmetry_Int_Tables_number 14
loop_
_symmetry_equiv_pos_site_id
_symmetry_equiv_pos_as_xyz
1 x,y,z
2 -x,1/2+y,1/2-z
3 -x,-y,-z
4 x,-1/2-y,-1/2+z
_cell_length_a 17.925
_cell_length_b 12.773
_cell_length_c 8.689
_cell_angle_alpha 90
_cell_angle_beta 94.07
_cell_angle_gamma 90
_cell_formula_units_Z 4
loop_
_atom_type_symbol
_atom_type_radius_bond
C 0.68
H 0.23
N 0.68
O 0.68
loop_
_atom_site_label
_atom_site_type_symbol
_atom_site_fract_x
_atom_site_fract_y
_atom_site_fract_z
C1 C 0.8303(3) -0.0207(4) 0.4849(5)
C2 C 0.7729(3) 0.0631(4) 0.4291(5)
C3 C 0.8142(3) 0.1331(4) 0.3231(6)
C4 C 0.8666(3) 0.0589(4) 0.2391(6)
C5 C 0.8933(3) -0.0160(4) 0.3710(6)
C6 C 0.9112(4) -0.1283(5) 0.3322(7)
C7 C 0.8635(5) -0.1989(6) 0.4221(9)
C8 C 0.8029(3) -0.1352(5) 0.4834(7)
C9 C 0.8610(3) 0.0127(6) 0.6487(6)
O1 O 0.7082(2) 0.0149(2) 0.3439(3)
C10 C 0.6407(3) 0.0514(4) 0.3660(5)
O2 O 0.6279(2) 0.1244(3) 0.4486(4)
C11 C 0.5819(2) -0.0071(4) 0.2740(5)
C12 C 0.5985(3) -0.0850(4) 0.1710(5)
C13 C 0.5405(3) -0.1354(4) 0.0919(5)
C14 C 0.4665(3) -0.1147(4) 0.1109(6)
C15 C 0.4514(2) -0.0361(4) 0.2115(5)
C16 C 0.5070(3) 0.0191(4) 0.2932(5)
N1 N 0.5595(3) -0.2191(4) -0.0177(5)
O3 O 0.6240(3) -0.2322(4) -0.0411(6)
O4 O 0.5082(3) -0.2637(4) -0.0855(5)
N2 N 0.3731(3) -0.0050(4) 0.2334(6)
O5 O 0.3253(2) -0.0568(4) 0.1579(5)
O6 O 0.3618(2) 0.0622(4) 0.3209(5)
C17 C 0.7666(3) 0.2073(5) 0.2221(7)
C18 C 0.8265(3) 0.0063(5) 0.0984(6)
C19 C 0.9331(3) 0.1240(5) 0.1892(6)
C20 C 0.9564(4) 0.1324(6) 0.0522(7)
H1 H 0.759(3) 0.094(4) 0.528(6)
H2 H 0.846(3) 0.175(4) 0.391(6)
H3 H 0.943(3) 0.021(4) 0.424(6)
H4 H 0.976(3) -0.134(4) 0.370(6)
H5 H 0.898(3) -0.136(4) 0.213(6)
H6 H 0.837(3) -0.254(4) 0.351(6)
H7 H 0.899(3) -0.223(4) 0.542(6)
H8 H 0.794(3) -0.165(4) 0.590(6)
H9 H 0.752(3) -0.157(4) 0.396(6)
H10 H 0.896(3) -0.039(4) 0.665(6)
H11 H 0.821(3) 0.015(4) 0.718(6)
H12 H 0.881(3) 0.082(4) 0.649(6)
H13 H 0.651(3) -0.101(4) 0.138(6)
H14 H 0.419(3) -0.161(4) 0.052(6)
H15 H 0.494(3) 0.065(4) 0.377(6)
H16 H 0.736(3) 0.163(4) 0.163(6)
H17 H 0.798(3) 0.244(4) 0.160(6)
H18 H 0.741(3) 0.259(4) 0.292(6)
H19 H 0.781(3) -0.036(4) 0.126(6)
H20 H 0.805(3) 0.054(4) 0.030(6)
H21 H 0.858(3) -0.047(4) 0.034(6)
H22 H 0.962(3) 0.164(4) 0.294(6)
H23 H 1.001(3) 0.171(4) 0.038(6)
H24 H 0.933(3) 0.079(4) -0.045(6)
#END
