
#######################################################################
#
#                 Cambridge Crystallographic Data Centre
#                                CCDC
#
#######################################################################
#
# If this CIF has been generated from an entry in the Cambridge
# Structural Database, then it will include bibliographic, chemical,
# crystal, experimental, refinement or atomic coordinate data resulting
# from the CCDC's data processing and validation procedures.
#
#######################################################################

data_CSD_CIF_DZHPDO
_audit_creation_date 1978-11-29
_audit_creation_method CSD-ConQuest-V1
_database_code_CSD DZHPDO
_database_code_depnum_ccdc_archive 'CCDC 1147749'
_chemical_formula_sum 'C5 H8 N2 O2'
_chemical_formula_moiety
;
C5 H8 N2 O2
;
_journal_coeditor_code "IUCr A16328"
_journal_coden_Cambridge 107
_journal_volume 34
_journal_year 1978
_journal_page_first 2602
_journal_name_full 'Acta Crystallogr.,Sect.B:Struct.Crystallogr.Cryst.Chem. '
loop_
_publ_author_name
"K.Prout"
"V.P.Stothard"
"D.J.Watkin"
_chemical_name_systematic
;
2,3-Diazabicyclo(2.2.1)hept-2-ene 2,3-dioxide
;
_cell_volume    596.545
_exptl_crystal_density_diffrn 1.42
_diffrn_ambient_temperature ?
_diffrn_special_details
;
The study was carried out at room temperature,in the range 283-303K

;
#These two values have been output from a single CSD field.
_refine_ls_R_factor_gt 0.043
_refine_ls_wR_factor_gt 0.043
_symmetry_cell_setting monoclinic
_symmetry_space_group_name_H-M 'P 21/c'
_symmetry_Int_Tables_number 14
loop_
_symmetry_equiv_pos_site_id
_symmetry_equiv_pos_as_xyz
1 x,y,z
2 -x,1/2+y,1/2-z
3 -x,-y,-z
4 x,-1/2-y,-1/2+z
_cell_length_a 8.62(1)
_cell_length_b 6.72(1)
_cell_length_c 10.44(1)
_cell_angle_alpha 90
_cell_angle_beta 99.45(1)
_cell_angle_gamma 90
_cell_formula_units_Z 4
loop_
_atom_type_symbol
_atom_type_radius_bond
C 0.68
H 0.23
N 0.68
O 0.68
loop_
_atom_site_label
_atom_site_type_symbol
_atom_site_fract_x
_atom_site_fract_y
_atom_site_fract_z
O1 O 0.73560 0.18240 0.04840
O2 O 0.81030 0.49840 -0.09020
N1 N 0.77420 0.34950 0.09730
N2 N 0.81130 0.50150 0.03100
C1 C 0.75920 0.42350 0.22990
C2 C 0.60780 0.55120 0.21030
C3 C 0.65400 0.73050 0.13220
C4 C 0.82320 0.67930 0.11720
C5 C 0.88810 0.58140 0.24620
H1 H 0.76400 0.31100 0.29400
H2 H 0.58600 0.59400 0.29600
H3 H 0.52100 0.47100 0.16200
H4 H 0.58700 0.75500 0.05400
H5 H 0.65200 0.85800 0.17700
H6 H 0.88300 0.78900 0.08200
H7 H 0.99500 0.53300 0.25000
H8 H 0.88500 0.67000 0.32100
#END
