
#######################################################################
#
#                 Cambridge Crystallographic Data Centre
#                                CCDC
#
#######################################################################
#
# If this CIF has been generated from an entry in the Cambridge
# Structural Database, then it will include bibliographic, chemical,
# crystal, experimental, refinement or atomic coordinate data resulting
# from the CCDC's data processing and validation procedures.
#
#######################################################################

data_CSD_CIF_EACBIT
_audit_creation_date 1993-12-13
_audit_creation_method CSD-ConQuest-V1
_database_code_CSD EACBIT
_chemical_formula_sum 'C11 H10 N2 O1'
_chemical_formula_moiety
;
C11 H10 N2 O1
;
_journal_coden_Cambridge 35
_journal_volume 58
_journal_year 1993
_journal_page_first 2075
_journal_name_full 'J.Org.Chem. '
loop_
_publ_author_name
"C.Trione"
"L.M.Toledo"
"S.D.Kuduk"
"F.W.Fowler"
"D.S.Grierson"
_chemical_name_systematic
;
N-Methoxy-2-cyano-4-phenyl-1-aza-1,3-butadiene
;
_chemical_melting_point 351.15
_cell_volume   1032.569
_exptl_crystal_colour 'colorless'
_exptl_crystal_density_diffrn 1.198
_exptl_special_details
;
Melting point range 351.15-352.15K

;
_diffrn_ambient_temperature ?
_diffrn_special_details
;
The study was carried out at room temperature,in the range 283-303K

;
#These two values have been output from a single CSD field.
_refine_ls_R_factor_gt 0.085
_refine_ls_wR_factor_gt 0.085
_symmetry_cell_setting monoclinic
_symmetry_space_group_name_H-M 'P 21/c'
_symmetry_Int_Tables_number 14
loop_
_symmetry_equiv_pos_site_id
_symmetry_equiv_pos_as_xyz
1 x,y,z
2 -x,1/2+y,1/2-z
3 -x,-y,-z
4 x,-1/2-y,-1/2+z
_cell_length_a 6.814(1)
_cell_length_b 8.490(1)
_cell_length_c 17.924(3)
_cell_angle_alpha 90
_cell_angle_beta 95.25(1)
_cell_angle_gamma 90
_cell_formula_units_Z 4
loop_
_atom_type_symbol
_atom_type_radius_bond
C 0.68
H 0.23
N 0.68
O 0.68
loop_
_atom_site_label
_atom_site_type_symbol
_atom_site_fract_x
_atom_site_fract_y
_atom_site_fract_z
O1 O 0.2176(9) 0.4842(7) 0.5566(4)
N1 N 0.392(1) 0.467(1) 0.6003(4)
N2 N 0.380(1) 0.182(1) 0.4626(6)
C1 C 0.498(1) 0.351(1) 0.5808(6)
C2 C 0.683(1) 0.318(1) 0.6209(5)
C3 C 0.806(1) 0.202(1) 0.6108(5)
C4 C 0.995(1) 0.170(1) 0.6524(6)
C5 C 1.052(2) 0.254(1) 0.7175(7)
C6 C 1.235(2) 0.220(1) 0.7559(6)
C7 C 1.357(2) 0.112(2) 0.7295(8)
C8 C 1.305(2) 0.029(1) 0.6657(9)
C9 C 1.120(1) 0.058(1) 0.6279(5)
C10 C 0.430(2) 0.258(1) 0.5137(6)
C11 C 0.109(1) 0.611(1) 0.5872(6)
H1 H 0.72860 0.38780 0.66480
H2 H 0.77170 0.12720 0.57130
H3 H 1.07400 -0.00180 0.58100
H4 H 1.39160 -0.05150 0.64540
H5 H 1.48340 0.08680 0.75500
H6 H 1.28650 0.27800 0.80140
H7 H 0.97270 0.33230 0.74050
H8 H 0.18150 0.70560 0.59250
H9 H 0.05300 0.58550 0.63160
H10 H -0.00770 0.63730 0.54970
#END
