
#######################################################################
#
#                 Cambridge Crystallographic Data Centre
#                                CCDC
#
#######################################################################
#
# If this CIF has been generated from an entry in the Cambridge
# Structural Database, then it will include bibliographic, chemical,
# crystal, experimental, refinement or atomic coordinate data resulting
# from the CCDC's data processing and validation procedures.
#
#######################################################################

data_CSD_CIF_EAFWEN
_audit_creation_date 1994-07-28
_audit_creation_method CSD-ConQuest-V1
_database_code_CSD EAFWEN
_chemical_formula_sum 'C23 H23 N1 O5'
_chemical_formula_moiety
;
C23 H23 N1 O5
;
_journal_coden_Cambridge 35
_journal_volume 59
_journal_year 1994
_journal_page_first 324
_journal_name_full 'J.Org.Chem. '
loop_
_publ_author_name
"J.A.Marshall"
"Byung-chan Yu"
_chemical_name_systematic
;
rel-(2R,3R)-2-(2-Propenyl)-11-methyl-13-oxabicyclo(8.2.1) 
trideca-10,12-dien-4-yn-3-yl p-nitrobenzoate
;
_chemical_melting_point 365.15
_cell_volume   1019.700
_exptl_crystal_colour 'yellow-green'
_exptl_special_details
;
Melting point range 365.15-366.15K

;
_diffrn_ambient_temperature ?
_diffrn_special_details
;
The study was carried out at room temperature,in the range 283-303K

;
#These two values have been output from a single CSD field.
_refine_ls_R_factor_gt 0.1112
_refine_ls_wR_factor_gt 0.1112
_symmetry_cell_setting triclinic
_symmetry_space_group_name_H-M 'P -1'
_symmetry_Int_Tables_number 2
loop_
_symmetry_equiv_pos_site_id
_symmetry_equiv_pos_as_xyz
1 x,y,z
2 -x,-y,-z
_cell_length_a 12.374(3)
_cell_length_b 14.872(30)
_cell_length_c 5.607(3)
_cell_angle_alpha 90.80(5)
_cell_angle_beta 98.65(3)
_cell_angle_gamma 91.25(4)
_cell_formula_units_Z 2
loop_
_atom_type_symbol
_atom_type_radius_bond
C 0.68
N 0.68
O 0.68
loop_
_atom_site_label
_atom_site_type_symbol
_atom_site_fract_x
_atom_site_fract_y
_atom_site_fract_z
C1 C 1.23435(41) 0.23976(33) 0.26209(96)
C2 C 1.12480(38) 0.27886(33) 0.27560(89)
C3 C 1.06111(37) 0.21284(33) 0.42052(92)
C4 C 1.07317(41) 0.11875(36) 0.36377(97)
C5 C 1.09228(42) 0.04348(37) 0.3155(10)
C6 C 1.12443(50) -0.04771(40) 0.2614(12)
C7 C 1.23930(48) -0.04762(40) 0.1880(11)
C8 C 1.24177(60) -0.00513(49) -0.0622(11)
C9 C 1.33595(67) 0.06006(52) -0.0662(14)
C10 C 1.33009(49) 0.13647(41) 0.1021(13)
C11 C 1.39334(44) 0.16873(36) 0.3095(14)
C12 C 1.33039(42) 0.23429(37) 0.4110(11)
C13 C 1.50404(50) 0.13649(49) 0.4207(18)
C14 C 1.12313(42) 0.37467(34) 0.3703(10)
C15 C 1.05776(58) 0.43168(41) 0.2379(12)
C16 C 1.18444(55) 0.39657(44) 0.6045(13)
C17 C 0.89648(41) 0.28047(33) 0.51312(95)
C18 C 0.78561(37) 0.30922(33) 0.40128(90)
C19 C 0.74193(44) 0.28199(43) 0.1715(11)
C20 C 0.63812(48) 0.30755(47) 0.0725(11)
C21 C 0.58179(40) 0.36302(38) 0.2024(11)
C22 C 0.62324(45) 0.39233(40) 0.4260(12)
C23 C 0.72677(48) 0.36466(45) 0.5292(11)
O1 O 1.23392(31) 0.18329(27) 0.07131(70)
O2 O 0.94521(26) 0.23382(25) 0.35592(63)
O3 O 0.93587(35) 0.29929(34) 0.71705(73)
O4 O 0.43956(45) 0.36832(53) -0.1070(12)
O5 O 0.42480(38) 0.44277(38) 0.2062(12)
N1 N 0.47388(38) 0.39351(35) 0.0928(12)
#END
