
#######################################################################
#
#                 Cambridge Crystallographic Data Centre
#                                CCDC
#
#######################################################################
#
# If this CIF has been generated from an entry in the Cambridge
# Structural Database, then it will include bibliographic, chemical,
# crystal, experimental, refinement or atomic coordinate data resulting
# from the CCDC's data processing and validation procedures.
#
#######################################################################

data_CSD_CIF_EBADAO
_audit_creation_date 2011-11-29
_audit_creation_method CSD-ConQuest-V1
_database_code_CSD EBADAO
_database_code_depnum_ccdc_archive 'CCDC 848640'
_chemical_formula_sum 'C38 H41 N3 O7'
_chemical_formula_moiety
;
C38 H41 N3 O7
;
_journal_coden_Cambridge 1336
_journal_volume 13
_journal_year 2011
_journal_page_first 4786
_journal_name_full 'Org.Lett. '
loop_
_publ_author_name
"Zhihui Zhang"
"V.Baubet"
"C.Ventocilla"
"Chaomei Xiang"
"N.Dahmane"
"J.D.Winkler"
_chemical_name_systematic
;
(2-(3-(Benzyloxy)-13-methyl-6,7,8,9,11,12,13,14,15,16-decahydrospiro[cyclopent
a[a]phenanthrene-17,2'-oxetan]-4'-yl)pyrrolidin-1-yl)(3,5-dinitrophenyl)methan
one
;
_cell_volume   1651.721
_exptl_crystal_density_diffrn 1.31
_diffrn_ambient_temperature 143
_diffrn_special_details
;
twin

;
#These two values have been output from a single CSD field.
_refine_ls_R_factor_gt 0.0504
_refine_ls_wR_factor_gt 0.0504
_symmetry_cell_setting triclinic
_symmetry_space_group_name_H-M 'P 1'
_symmetry_Int_Tables_number 1
loop_
_symmetry_equiv_pos_site_id
_symmetry_equiv_pos_as_xyz
1 x,y,z
_cell_length_a 7.1374(3)
_cell_length_b 10.4915(5)
_cell_length_c 23.5245(12)
_cell_angle_alpha 96.570(3)
_cell_angle_beta 91.750(3)
_cell_angle_gamma 108.864(2)
_cell_formula_units_Z 2
loop_
_atom_type_symbol
_atom_type_radius_bond
C 0.68
H 0.23
N 0.68
O 0.68
loop_
_atom_site_label
_atom_site_type_symbol
_atom_site_fract_x
_atom_site_fract_y
_atom_site_fract_z
C1 C 0.6816(9) 0.6305(7) 0.8145(3)
C2 C 0.5955(13) 0.4911(8) 0.8110(3)
H1 H 0.56020 0.43940 0.77510
C3 C 0.5611(15) 0.4279(8) 0.8589(3)
H2 H 0.50280 0.33400 0.85570
C4 C 0.6133(13) 0.5038(9) 0.9123(3)
H3 H 0.59150 0.46050 0.94500
C5 C 0.6958(12) 0.6407(10) 0.9176(3)
H4 H 0.72950 0.69120 0.95380
C6 C 0.7294(11) 0.7048(8) 0.8688(3)
H5 H 0.78480 0.79890 0.87250
C7 C 0.7288(10) 0.6949(8) 0.7614(3)
H6 H 0.82610 0.78480 0.77090
H7 H 0.78550 0.64120 0.73540
C8 C 0.5709(9) 0.7454(7) 0.6807(3)
C9 C 0.7536(9) 0.8068(7) 0.6587(3)
H8 H 0.87270 0.82330 0.68010
C10 C 0.7503(9) 0.8424(8) 0.6030(3)
H9 H 0.87090 0.88590 0.58850
C11 C 0.5772(8) 0.8168(6) 0.5681(3)
C12 C 0.5841(8) 0.8469(7) 0.5063(3)
H10 H 0.57380 0.93790 0.50660
C13 C 0.7767(9) 0.8496(7) 0.4798(3)
H11 H 0.80110 0.76550 0.48430
H12 H 0.88500 0.92350 0.50070
C14 C 0.7768(9) 0.8672(7) 0.4167(3)
H13 H 0.77510 0.95770 0.41240
H14 H 0.89750 0.85810 0.40160
C15 C 0.5989(9) 0.7629(7) 0.3828(3)
C16 C 0.5531(10) 0.7802(6) 0.3212(3)
C17 C 0.3380(9) 0.6845(7) 0.3070(3)
H15 H 0.27060 0.71740 0.27850
H16 H 0.33530 0.59350 0.29250
C18 C 0.2407(10) 0.6855(8) 0.3637(3)
H17 H 0.13650 0.72580 0.36180
H18 H 0.18400 0.59380 0.37320
C19 C 0.4077(9) 0.7707(7) 0.4082(3)
H19 H 0.41160 0.86490 0.40820
C20 C 0.3966(8) 0.7449(6) 0.4701(3)
H20 H 0.39780 0.65240 0.47210
C21 C 0.2121(9) 0.7593(8) 0.4971(3)
H21 H 0.21450 0.85250 0.49810
H22 H 0.09510 0.70150 0.47340
C22 C 0.1982(9) 0.7215(8) 0.5570(3)
H23 H 0.13100 0.62440 0.55470
H24 H 0.11650 0.76670 0.57750
C23 C 0.3941(9) 0.7569(6) 0.5914(3)
C24 C 0.3950(9) 0.7222(6) 0.6472(3)
H25 H 0.27440 0.68240 0.66240
C25 C 0.6202(10) 0.6198(7) 0.3825(3)
H26 H 0.64520 0.60510 0.42120
H27 H 0.72880 0.61440 0.36040
H28 H 0.49990 0.55150 0.36590
C26 C 0.5933(10) 0.9235(7) 0.3034(3)
H29 H 0.47500 0.94300 0.29170
H30 H 0.68070 0.99670 0.33060
C27 C 0.6967(10) 0.8734(8) 0.2539(3)
H31 H 0.61170 0.84880 0.21820
C28 C 0.9121(10) 0.9570(8) 0.2436(3)
H32 H 0.96660 1.02840 0.27610
C29 C 1.0444(12) 0.8742(10) 0.2356(5)
H33 H 0.96830 0.78040 0.22170
H34 H 1.11720 0.87710 0.27140
C30 C 1.1865(12) 0.9372(9) 0.1913(4)
H35 H 1.29680 1.01430 0.20920
H36 H 1.23780 0.87100 0.17110
C31 C 1.0556(12) 0.9810(9) 0.1514(3)
H37 H 1.13350 1.05700 0.13290
H38 H 0.98370 0.90680 0.12220
C32 C 0.8374(10) 1.1161(8) 0.1864(3)
C33 C 0.8588(10) 1.1883(8) 0.1331(3)
C34 C 0.8955(10) 1.3238(8) 0.1383(4)
H39 H 0.91340 1.37460 0.17430
C35 C 0.9062(11) 1.3863(9) 0.0885(4)
C36 C 0.8787(15) 1.3191(11) 0.0362(4)
H40 H 0.88320 1.36330 0.00390
C37 C 0.8421(17) 1.1770(12) 0.0313(4)
C38 C 0.8233(14) 1.1092(10) 0.0791(4)
H41 H 0.78850 1.01510 0.07550
N1 N 0.9184(8) 1.0211(6) 0.1895(2)
N2 N 0.9461(14) 1.5338(10) 0.0950(5)
N3 N 0.840(2) 1.0844(15) -0.0260(6)
O1 O 0.5514(6) 0.7051(5) 0.73388(19)
O2 O 0.6909(7) 0.7542(5) 0.2799(2)
O3 O 0.7459(8) 1.1549(6) 0.2252(2)
O4 O 0.9778(15) 1.5943(8) 0.1405(4)
O5 O 0.9472(13) 1.5854(9) 0.0505(4)
O6 O 0.7627(18) 0.9769(12) -0.0287(4)
O7 O 0.912(3) 1.1506(17) -0.0660(5)
C39 C 0.433(1) 0.4097(8) 0.1494(3)
C40 C 0.4571(12) 0.5452(8) 0.1526(3)
H42 H 0.48180 0.59870 0.18810
C41 C 0.4447(14) 0.6031(9) 0.1029(3)
H43 H 0.46450 0.69570 0.10500
C42 C 0.4029(11) 0.5221(9) 0.0505(3)
H44 H 0.38860 0.55920 0.01720
C43 C 0.3825(11) 0.3881(8) 0.0475(3)
H45 H 0.35940 0.33490 0.01190
C44 C 0.3955(10) 0.3298(8) 0.0963(3)
H46 H 0.37940 0.23770 0.09370
C45 C 0.4493(10) 0.3464(9) 0.2038(3)
H47 H 0.46320 0.25760 0.19420
H48 H 0.56430 0.40360 0.22840
C46 C 0.2711(9) 0.2938(7) 0.2874(3)
C47 C 0.4009(9) 0.2364(7) 0.3078(3)
H49 H 0.49830 0.22130 0.28520
C48 C 0.3854(9) 0.2008(7) 0.3629(3)
H50 H 0.47110 0.15870 0.37640
C49 C 0.2491(9) 0.2253(6) 0.3979(3)
C50 C 0.2446(9) 0.1949(7) 0.4607(3)
H51 H 0.14610 0.10460 0.46070
C51 C 0.4412(9) 0.1864(7) 0.4833(3)
H52 H 0.54660 0.26860 0.47750
H53 H 0.46640 0.11040 0.46130
C52 C 0.4470(9) 0.1686(7) 0.5483(2)
H54 H 0.35880 0.07920 0.55350
H55 H 0.58050 0.17570 0.56160
C53 C 0.3828(9) 0.2785(6) 0.5840(3)
C54 C 0.3383(9) 0.2576(7) 0.6466(3)
C55 C 0.2229(10) 0.3541(7) 0.6618(3)
H56 H 0.31300 0.44430 0.67590
H57 H 0.13370 0.32230 0.69130
C56 C 0.1048(9) 0.3569(7) 0.6065(3)
H58 H 0.13660 0.44880 0.59700
H59 H -0.03700 0.32000 0.61030
C57 C 0.1728(9) 0.2660(6) 0.5604(3)
H60 H 0.08800 0.17190 0.56130
C58 C 0.1699(8) 0.2934(6) 0.4976(3)
H61 H 0.25910 0.38580 0.49560
C59 C -0.0388(9) 0.2827(7) 0.4748(3)
H62 H -0.08800 0.34300 0.49980
H63 H -0.12780 0.19060 0.47480
C60 C -0.0362(10) 0.3213(9) 0.4131(3)
H64 H -0.16710 0.27650 0.39380
H65 H -0.00970 0.41850 0.41550
C61 C 0.1158(8) 0.2840(7) 0.3767(3)
C62 C 0.1266(9) 0.3155(7) 0.3207(3)
H66 H 0.03550 0.35160 0.30580
C63 C 0.5419(9) 0.4202(7) 0.5846(3)
H67 H 0.48910 0.48930 0.59980
H68 H 0.57790 0.43340 0.54620
H69 H 0.65720 0.42570 0.60810
C64 C 0.2468(9) 0.1136(7) 0.6640(3)
H70 H 0.11280 0.09370 0.67610
H71 H 0.25850 0.04090 0.63650
C65 C 0.4078(9) 0.1623(7) 0.7128(3)
H72 H 0.35470 0.18900 0.74840
C66 C 0.5430(9) 0.0825(7) 0.7238(3)
H73 H 0.52980 0.01370 0.69060
C67 C 0.7613(10) 0.1699(8) 0.7356(3)
H74 H 0.77400 0.26140 0.75250
H75 H 0.82990 0.17460 0.70050
C68 C 0.8452(10) 0.0971(8) 0.7778(3)
H76 H 0.87910 0.02230 0.75790
H77 H 0.96190 0.15940 0.80020
C69 C 0.6760(9) 0.0467(8) 0.8152(3)
H78 H 0.68170 -0.03350 0.83100
H79 H 0.67860 0.11630 0.84640
C70 C 0.3205(10) -0.0839(7) 0.7788(3)
C71 C 0.2893(9) -0.1500(7) 0.8325(3)
C72 C 0.2227(9) -0.2920(7) 0.8267(3)
H80 H 0.20470 -0.34290 0.79070
C73 C 0.1841(10) -0.3553(7) 0.8756(3)
C74 C 0.2067(11) -0.2848(9) 0.9298(3)
H81 H 0.17980 -0.32900 0.96220
C75 C 0.2707(13) -0.1468(9) 0.9334(3)
C76 C 0.3119(11) -0.0790(8) 0.8864(3)
H82 H 0.35540 0.01550 0.89110
N4 N 0.4974(7) 0.0142(6) 0.7761(2)
N5 N 0.1155(11) -0.5033(7) 0.8700(3)
N6 N 0.2906(17) -0.0708(9) 0.9907(3)
O8 O 0.2715(7) 0.3344(5) 0.23237(18)
O9 O 0.5143(6) 0.2832(4) 0.68545(18)
O10 O 0.1908(7) -0.1169(5) 0.7399(2)
O11 O 0.0871(12) -0.5661(6) 0.8206(3)
O12 O 0.0902(12) -0.5600(7) 0.9128(3)
O13 O 0.330(2) 0.0560(12) 0.9942(3)
O14 O 0.2841(19) -0.1261(9) 1.0317(3)
#END
