
#######################################################################
#
#                 Cambridge Crystallographic Data Centre
#                                CCDC
#
#######################################################################
#
# If this CIF has been generated from an entry in the Cambridge
# Structural Database, then it will include bibliographic, chemical,
# crystal, experimental, refinement or atomic coordinate data resulting
# from the CCDC's data processing and validation procedures.
#
#######################################################################

data_CSD_CIF_EBAWAF
_audit_creation_date 2001-10-02
_audit_creation_method CSD-ConQuest-V1
_database_code_CSD EBAWAF
_chemical_formula_sum 'C22 H26 N2 O2'
_chemical_formula_moiety
;
C22 H26 N2 O2
;
_journal_coden_Cambridge 24
_journal_volume 41
_journal_year 2000
_journal_page_first 5373
_journal_name_full 'Tetrahedron Lett. '
loop_
_publ_author_name
"Y.Kazuta"
"S.Shuto"
"A.Matsuda"
_chemical_name_systematic
;
1-(N,N-Diethylaminocarbonyl)-1-phenyl-2-(benzyliminomethyl)cyclopropane 
N'-oxide
;
_cell_volume   1981.425
_exptl_crystal_colour 'colorless'
_exptl_crystal_density_diffrn 1.175
_exptl_crystal_description 'block'
_diffrn_ambient_temperature ?
_diffrn_special_details
;
The study was carried out at room temperature,in the range 283-303K

;
#These two values have been output from a single CSD field.
_refine_ls_R_factor_gt 0.05
_refine_ls_wR_factor_gt 0.05
_symmetry_cell_setting orthorhombic
_symmetry_space_group_name_H-M 'P 21 21 21'
_symmetry_Int_Tables_number 19
loop_
_symmetry_equiv_pos_site_id
_symmetry_equiv_pos_as_xyz
1 x,y,z
2 1/2-x,-y,1/2+z
3 1/2+x,1/2-y,-z
4 -x,1/2+y,1/2-z
_cell_length_a 10.093(2)
_cell_length_b 19.840(4)
_cell_length_c 9.895(2)
_cell_angle_alpha 90
_cell_angle_beta 90
_cell_angle_gamma 90
_cell_formula_units_Z 4
loop_
_atom_type_symbol
_atom_type_radius_bond
C 0.68
H 0.23
N 0.68
O 0.68
loop_
_atom_site_label
_atom_site_type_symbol
_atom_site_fract_x
_atom_site_fract_y
_atom_site_fract_z
O1 O 0.83401(5) 0.23426(3) 0.91277(6)
O2 O 1.13291(6) 0.06876(3) 1.27964(6)
N1 N 0.94947(6) 0.22704(3) 0.96880(7)
N2 N 1.11645(5) 0.02982(3) 1.06666(7)
C1 C 1.20405(9) 0.20378(5) 0.7627(1)
C2 C 1.2433(1) 0.18127(7) 0.6360(2)
C3 C 1.1805(1) 0.20222(8) 0.5224(2)
C4 C 1.0764(1) 0.24646(7) 0.5323(1)
C5 C 1.0348(1) 0.26890(5) 0.6583(1)
C6 C 1.09874(7) 0.24761(3) 0.77419(9)
C7 C 1.05642(7) 0.27068(4) 0.91218(9)
C8 C 0.97637(7) 0.18536(4) 1.0638(1)
C9 C 0.87591(8) 0.14039(4) 1.1226(1)
C10 C 0.87516(9) 0.12827(4) 1.2716(1)
C11 C 0.91706(7) 0.07228(4) 1.18013(8)
C12 C 1.06611(7) 0.05728(3) 1.17995(8)
C13 C 1.25878(7) 0.01351(4) 1.0652(1)
C14 C 1.34181(8) 0.07338(5) 1.0285(1)
C15 C 1.04702(7) 0.02210(4) 0.93746(8)
C16 C 1.0232(1) -0.05036(5) 0.9001(1)
C17 C 0.82976(7) 0.01075(4) 1.16853(7)
C18 C 0.86360(9) -0.04610(4) 1.2406(1)
C19 C 0.7842(1) -0.10361(5) 1.2361(1)
C20 C 0.6715(1) -0.10419(5) 1.1592(1)
C21 C 0.63756(9) -0.04828(5) 1.0863(1)
C22 C 0.71619(8) 0.00917(4) 1.0906(1)
H1 H 0.96512 0.04640 0.92926
H2 H 1.03022 0.31668 0.89858
H3 H 0.94720 -0.04740 1.28686
H4 H 0.95637 -0.06896 0.95819
H5 H 1.32751 0.11498 1.07580
H6 H 0.96697 -0.05456 0.82229
H7 H 1.26928 -0.02259 1.00151
H8 H 1.06527 0.18416 1.09824
H9 H 0.79701 0.14369 1.06893
H10 H 0.79886 0.11897 1.32646
H11 H 0.82547 -0.14171 1.27836
H12 H 1.09552 0.04390 0.86636
H13 H 0.69629 0.05097 1.04634
H14 H 0.61695 -0.14259 1.14003
H15 H 0.93176 0.15827 1.32126
H16 H 1.24735 0.18808 0.84320
H17 H 1.12552 0.27028 0.97888
H18 H 1.33111 0.08538 0.93520
H19 H 1.27608 -0.00259 1.15501
H20 H 0.55376 -0.04818 1.04036
H21 H 1.43381 0.06748 1.04990
H22 H 1.31879 0.15207 0.64295
H23 H 1.04324 0.26426 0.44874
H24 H 1.08726 -0.08609 0.89769
H25 H 0.97842 0.30786 0.65852
H26 H 1.20490 0.18245 0.43738
#END
