
#######################################################################
#
#                 Cambridge Crystallographic Data Centre
#                                CCDC
#
#######################################################################
#
# If this CIF has been generated from an entry in the Cambridge
# Structural Database, then it will include bibliographic, chemical,
# crystal, experimental, refinement or atomic coordinate data resulting
# from the CCDC's data processing and validation procedures.
#
#######################################################################

data_CSD_CIF_EBFIOZ
_audit_creation_date 1980-09-26
_audit_creation_method CSD-ConQuest-V1
_database_code_CSD EBFIOZ
_chemical_formula_sum 'C15 H18 N2 O3'
_chemical_formula_moiety
;
C15 H18 N2 O3
;
_journal_coden_Cambridge 24
_journal_volume 21
_journal_year 1980
_journal_page_first 1779
_journal_name_full 'Tetrahedron Lett. '
loop_
_publ_author_name
"A.D.de Wit"
"W.P.Trompenaars"
"D.N.Reinhoudt"
"S.Harkema"
"G.J.van Hummel"
_chemical_name_systematic
;
N,N-Diethyl-3,3a-dihydro-3-methyl-benzofuro(3,2-c)isoxazole-3-carboxamide
;
_cell_volume   2871.422
_exptl_crystal_density_diffrn 1.27
_diffrn_ambient_temperature ?
_diffrn_special_details
;
The study was carried out at room temperature,in the range 283-303K

;
#These two values have been output from a single CSD field.
_refine_ls_R_factor_gt 0.113
_refine_ls_wR_factor_gt 0.113
_symmetry_cell_setting monoclinic
_symmetry_space_group_name_H-M 'P 21/c'
_symmetry_Int_Tables_number 14
loop_
_symmetry_equiv_pos_site_id
_symmetry_equiv_pos_as_xyz
1 x,y,z
2 -x,1/2+y,1/2-z
3 -x,-y,-z
4 x,-1/2-y,-1/2+z
_cell_length_a 9.1946(2)
_cell_length_b 21.3392(8)
_cell_length_c 14.6348(6)
_cell_angle_alpha 90
_cell_angle_beta 90.101(3)
_cell_angle_gamma 90
_cell_formula_units_Z 8
loop_
_atom_type_symbol
_atom_type_radius_bond
C 0.68
N 0.68
O 0.68
loop_
_atom_site_label
_atom_site_type_symbol
_atom_site_fract_x
_atom_site_fract_y
_atom_site_fract_z
C1 C 0.19330 0.59480 0.48110
C2 C 0.69510 0.42000 0.01740
C3 C 0.08720 0.62690 0.41360
C4 C -0.19890 0.57080 0.27940
C5 C 0.30730 0.38620 0.21380
C6 C 0.66260 0.34620 0.12420
C7 C 0.76550 0.36920 0.05830
C8 C 0.41410 0.35450 0.14980
C9 C 0.54900 0.39610 0.13740
C10 C 0.75250 0.45380 -0.05520
C11 C -0.05010 0.58680 0.39990
C12 C -0.16120 0.63800 0.39200
C13 C -0.25790 0.54290 0.20120
C14 C -0.26810 0.61940 0.32570
C15 C 0.90240 0.34940 0.02760
C16 C -0.46720 0.61410 0.22010
C17 C 0.11070 0.39020 0.32410
C18 C -0.40310 0.64240 0.29790
C19 C 0.38910 0.59220 0.59210
C20 C -0.39670 0.56550 0.17330
C21 C 0.16060 0.64600 0.32430
C22 C 0.34140 0.33430 0.06010
C23 C 0.31070 0.69690 0.52500
C24 C -0.02950 0.40160 0.26870
C25 C 0.96280 0.38300 -0.04600
C26 C 0.19810 0.28490 0.26620
C27 C 0.89070 0.43400 -0.08660
C28 C 0.25440 0.25550 0.35510
C29 C 0.25780 0.72980 0.61190
C30 C 0.53440 0.58150 0.54100
N1 N 0.28930 0.62830 0.53120
N2 N 0.21560 0.35380 0.26750
N3 N 0.63040 0.29230 0.15790
N4 N -0.12520 0.69120 0.42640
O1 O 0.55900 0.43290 0.05410
O2 O -0.06450 0.55470 0.31300
O3 O 0.18690 0.53690 0.48320
O4 O 0.30760 0.44450 0.21260
O5 O 0.48210 0.30050 0.19460
O6 O 0.02390 0.68240 0.46000
#END
