
#######################################################################
#
#                 Cambridge Crystallographic Data Centre
#                                CCDC
#
#######################################################################
#
# If this CIF has been generated from an entry in the Cambridge
# Structural Database, then it will include bibliographic, chemical,
# crystal, experimental, refinement or atomic coordinate data resulting
# from the CCDC's data processing and validation procedures.
#
#######################################################################

data_CSD_CIF_EBIVET
_audit_creation_date 2016-11-30
_audit_creation_method CSD-ConQuest-V1
_database_code_CSD EBIVET
_database_code_depnum_ccdc_archive 'CCDC 995484'
_chemical_formula_sum 'C17 H22 N2 O8'
_chemical_formula_moiety
;
C17 H22 N2 O8
;
_journal_coden_Cambridge 1078
_journal_year 2016
_journal_name_full 'CSD Communication(Private Communication) '
loop_
_publ_author_name
"J.I.Martinez"
"L.Villar"
"Uxue Uria"
"L.Carrillo"
"E.Reyes"
"J.L.Vicario"
_chemical_name_systematic
;
ethyl 4-hydroxy-2-(2-methoxyphenyl)-4-methyl-1,3-dinitrocyclohexanecarboxylate
;
_cell_volume    906.565
_exptl_crystal_colour 'colorless'
_exptl_crystal_density_diffrn 1.401
_exptl_special_details
;
Absolute configuration

;
_exptl_crystal_description 'prism'
_diffrn_ambient_temperature 100
_refine_special_details
;
C8A,C9A,O4A and C8B,C9B,O4B disordered over two sites with occupancies 
0.776:0.224.
;
#These two values have been output from a single CSD field.
_refine_ls_R_factor_gt 0.0265
_refine_ls_wR_factor_gt 0.0265
_symmetry_cell_setting monoclinic
_symmetry_space_group_name_H-M 'P 21'
_symmetry_Int_Tables_number 4
loop_
_symmetry_equiv_pos_site_id
_symmetry_equiv_pos_as_xyz
1 x,y,z
2 -x,1/2+y,-z
_cell_length_a 7.5301(2)
_cell_length_b 9.6615(2)
_cell_length_c 12.4838(2)
_cell_angle_alpha 90
_cell_angle_beta 93.462(2)
_cell_angle_gamma 90
_cell_formula_units_Z 2
loop_
_atom_type_symbol
_atom_type_radius_bond
C 0.68
H 0.23
N 0.68
O 0.68
loop_
_atom_site_label
_atom_site_type_symbol
_atom_site_fract_x
_atom_site_fract_y
_atom_site_fract_z
O1 O 1.06406(13) 0.06175(12) 0.44066(8)
N1 N 0.98718(17) 0.12979(13) 0.06555(9)
O2 O 0.99662(14) -0.11725(11) 0.24559(8)
O3 O 0.49404(13) 0.18061(14) 0.33188(8)
O4 O 0.87230(14) 0.18115(13) 0.00545(8)
C1 C 0.62815(19) 0.17719(17) 0.38855(11)
O5 O 1.10259(15) 0.04968(12) 0.03689(8)
O6 O 0.90616(14) 0.41136(11) 0.16607(8)
H1 H 0.91810 0.43800 0.10290
O7 O 0.6406(3) 0.2010(3) 0.49470(12)
N2 N 0.90653(15) 0.05003(13) 0.41220(9)
O8 O 0.81376(14) -0.05019(12) 0.43044(8)
C2 C 0.9085(2) 0.30603(15) 0.37601(10)
H2 H 0.82260 0.38150 0.35880
H3 H 0.93700 0.30830 0.45440
C3 C 0.5609(2) -0.00867(18) 0.14030(12)
H4 H 0.49560 0.07490 0.13000
C4 C 0.73285(19) -0.00402(16) 0.19025(11)
C5 C 0.81698(18) 0.16837(16) 0.34816(10)
C6 C 0.5793(2) -0.25414(19) 0.11870(13)
H5 H 0.52670 -0.33910 0.09530
C7 C 0.99412(18) 0.16704(15) 0.18277(10)
H6 H 1.08510 0.10740 0.22190
C8 C 1.0884(2) -0.24183(18) 0.27623(14)
H7 H 1.11330 -0.29480 0.21190
H8 H 1.01430 -0.29740 0.32170
H9 H 1.20060 -0.21880 0.31610
C9 C 0.8279(2) -0.12868(16) 0.20078(11)
C10 C 1.2158(2) 0.35530(17) 0.14160(12)
H10 H 1.19310 0.34200 0.06420
H11 H 1.31300 0.29440 0.16790
H12 H 1.24890 0.45190 0.15600
C11 C 0.81009(18) 0.13535(15) 0.22529(10)
H13 H 0.72770 0.20590 0.19100
C12 C 1.04902(19) 0.32058(15) 0.19854(11)
C13 C 1.07787(19) 0.33671(15) 0.32008(11)
H14 H 1.17300 0.27270 0.34710
H15 H 1.11720 0.43240 0.33710
C14 C 0.7517(2) -0.25337(18) 0.16593(12)
H16 H 0.81680 -0.33730 0.17430
C15 C 0.4842(2) -0.1327(2) 0.10559(13)
H17 H 0.36690 -0.13390 0.07300
C16 C 0.4763(3) 0.2092(4) 0.55054(18)
H18 H 0.37670 0.23630 0.49950
H19 H 0.48840 0.28020 0.60760
C17 C 0.4385(5) 0.0729(3) 0.5984(4)
H20 H 0.41980 0.00390 0.54120
H21 H 0.33110 0.07960 0.63870
H22 H 0.53930 0.04490 0.64680
C18? C 0.4594(12) 0.1498(16) 0.5435(7)
H23? H 0.36730 0.10590 0.49480
H24? H 0.42000 0.24460 0.56080
O9? O 0.6307(12) 0.1533(12) 0.4941(4)
C19? C 0.4909(12) 0.0667(10) 0.6430(8)
H25? H 0.52620 -0.02740 0.62410
H26? H 0.38150 0.06310 0.68150
H27? H 0.58580 0.10960 0.68880
#END
