
#######################################################################
#
#                 Cambridge Crystallographic Data Centre
#                                CCDC
#
#######################################################################
#
# If this CIF has been generated from an entry in the Cambridge
# Structural Database, then it will include bibliographic, chemical,
# crystal, experimental, refinement or atomic coordinate data resulting
# from the CCDC's data processing and validation procedures.
#
#######################################################################

data_CSD_CIF_EBOJUD
_audit_creation_date 2016-11-30
_audit_creation_method CSD-ConQuest-V1
_database_code_CSD EBOJUD
_database_code_depnum_ccdc_archive 'CCDC 1514260'
_chemical_formula_sum 'C23 H14 N4 O7'
_chemical_formula_moiety
;
C23 H14 N4 O7
;
_journal_coeditor_code "wm5340"
_journal_coden_Cambridge 1828
_journal_volume 72
_journal_year 2016
_journal_page_first 1852
_journal_name_full 'Acta Crystallogr.,Sect.E:Cryst.Commun. '
loop_
_publ_author_name
"Y.Koysal"
"H.Bulbul"
"I.O.Ilhan"
"N.Akin"
"N.Dege"
_chemical_name_systematic
;
4-benzoyl-3-((2,4-dinitrophenyl)hydrazono)-5-phenylfuran-2(3H)-one
;
_cell_volume   2040.022
_exptl_crystal_colour 'red'
_exptl_crystal_density_diffrn 1.492
_exptl_crystal_description 'stick'
_diffrn_ambient_temperature 293
#These two values have been output from a single CSD field.
_refine_ls_R_factor_gt 0.0385
_refine_ls_wR_factor_gt 0.0385
_symmetry_cell_setting monoclinic
_symmetry_space_group_name_H-M 'P 21/c'
_symmetry_Int_Tables_number 14
loop_
_symmetry_equiv_pos_site_id
_symmetry_equiv_pos_as_xyz
1 x,y,z
2 -x,1/2+y,1/2-z
3 -x,-y,-z
4 x,-1/2-y,-1/2+z
_cell_length_a 20.7156(11)
_cell_length_b 6.3660(3)
_cell_length_c 16.0288(7)
_cell_angle_alpha 90
_cell_angle_beta 105.183(4)
_cell_angle_gamma 90
_cell_formula_units_Z 4
loop_
_atom_type_symbol
_atom_type_radius_bond
C 0.68
H 0.23
N 0.68
O 0.68
loop_
_atom_site_label
_atom_site_type_symbol
_atom_site_fract_x
_atom_site_fract_y
_atom_site_fract_z
N1 N 0.25724(8) 0.8002(2) 0.43332(9)
C1 C 0.21265(9) 0.5758(3) 0.1812(1)
H1 H 0.25493 0.63208 0.20482
C2 C 0.19729(8) 0.3763(2) 0.20527(9)
C3 C 0.16531(11) 0.6908(3) 0.12232(11)
H2 H 0.17594 0.82340 0.10552
C4 C 0.10245(12) 0.6093(4) 0.08846(12)
H3 H 0.07057 0.68763 0.04908
C5 C 0.08647(10) 0.4138(4) 0.11232(12)
H4 H 0.04367 0.36034 0.08972
C6 C 0.13366(9) 0.2962(3) 0.16968(10)
H5 H 0.12289 0.16216 0.18476
C7 C 0.37944(10) -0.0410(3) 0.26118(12)
H6 H 0.33836 -0.00831 0.22334
C8 C 0.41433(11) -0.2150(3) 0.24598(14)
H7 H 0.39647 -0.29919 0.19808
C9 C 0.47493(11) -0.2648(3) 0.30065(14)
H8 H 0.49745 -0.38514 0.29114
C10 C 0.50228(11) -0.1372(4) 0.36932(13)
H9 H 0.54415 -0.16865 0.40545
C11 C 0.46834(9) 0.0374(3) 0.38542(11)
H10 H 0.48776 0.12386 0.43199
C12 C 0.40534(8) 0.0861(3) 0.33289(10)
C13 C 0.36878(9) 0.2643(3) 0.35482(9)
C14 C 0.30514(8) 0.3394(2) 0.32797(9)
C15 C 0.24688(8) 0.2423(2) 0.26518(9)
C16 C 0.30221(9) 0.5239(2) 0.37966(9)
C17 C 0.36975(9) 0.5505(3) 0.43806(11)
C18 C 0.20589(9) 0.9389(3) 0.42466(9)
C19 C 0.21248(8) 1.1297(3) 0.47072(9)
C20 C 0.16058(10) 1.2723(3) 0.45749(11)
H11 H 0.16587 1.39796 0.48810
C21 C 0.10175(10) 1.2270(3) 0.39934(11)
C22 C 0.09279(9) 1.0401(3) 0.35364(11)
H12 H 0.05200 1.01089 0.31446
C23 C 0.14385(9) 0.8990(3) 0.36622(10)
H13 H 0.13741 0.77354 0.33540
N2 N 0.24959(7) 0.6356(2) 0.37783(8)
N3 N 0.04722(10) 1.3806(3) 0.38399(13)
N4 N 0.27400(8) 1.1906(3) 0.53243(9)
O1 O 0.23927(6) 0.05224(18) 0.26464(7)
O2 O 0.40819(6) 0.38975(19) 0.42049(7)
O3 O 0.39113(6) 0.6791(2) 0.49284(8)
O4 O -0.00184(9) 1.3482(3) 0.32419(12)
O5 O 0.05355(10) 1.5319(3) 0.43157(14)
O6 O 0.27748(8) 1.3652(2) 0.56528(9)
O7 O 0.32091(7) 1.0674(3) 0.54951(9)
H14 H 0.2963(10) 0.827(3) 0.4674(12)
#END
