
#######################################################################
#
#                 Cambridge Crystallographic Data Centre
#                                CCDC
#
#######################################################################
#
# If this CIF has been generated from an entry in the Cambridge
# Structural Database, then it will include bibliographic, chemical,
# crystal, experimental, refinement or atomic coordinate data resulting
# from the CCDC's data processing and validation procedures.
#
#######################################################################

data_CSD_CIF_EBOWIC
_audit_creation_date 2004-11-16
_audit_creation_method CSD-ConQuest-V1
_database_code_CSD EBOWIC
_database_code_depnum_ccdc_archive 'CCDC 206598'
_chemical_formula_sum 'C17 H17 N1 O3'
_chemical_formula_moiety
;
C17 H17 N1 O3
;
_journal_coden_Cambridge 1291
_journal_year 2004
_journal_page_first 2783
_journal_name_full 'Eur.J.Org.Chem. '
loop_
_publ_author_name
"F.von Nussbaum"
"R.Hanke"
"T.Fahrig"
"J.Benet-Buchholz"
_chemical_name_systematic
;
(1R,6R,9R)-1-methyl-11-phenyl-5,12-dioxa-11-azatetracyclo 
(7.3.1.0^3,10^.0^6,10^)tridec-2-en-4-one
;
_cell_volume   1389.617
_exptl_crystal_colour 'colorless'
_exptl_crystal_density_diffrn 1.354
_exptl_crystal_description 'plate'
_diffrn_ambient_temperature 153
#These two values have been output from a single CSD field.
_refine_ls_R_factor_gt 0.0359
_refine_ls_wR_factor_gt 0.0359
_symmetry_cell_setting orthorhombic
_symmetry_space_group_name_H-M 'P 21 21 21'
_symmetry_Int_Tables_number 19
loop_
_symmetry_equiv_pos_site_id
_symmetry_equiv_pos_as_xyz
1 x,y,z
2 1/2-x,-y,1/2+z
3 -x,1/2+y,1/2-z
4 1/2+x,1/2-y,-z
_cell_length_a 8.9290(2)
_cell_length_b 9.0771(2)
_cell_length_c 17.1453(4)
_cell_angle_alpha 90
_cell_angle_beta 90
_cell_angle_gamma 90
_cell_formula_units_Z 4
loop_
_atom_type_symbol
_atom_type_radius_bond
C 0.68
H 0.23
N 0.68
O 0.68
loop_
_atom_site_label
_atom_site_type_symbol
_atom_site_fract_x
_atom_site_fract_y
_atom_site_fract_z
N1 N -0.19392(11) -0.27335(11) -0.06244(6)
O1 O 0.01237(10) -0.29544(11) -0.23451(5)
O2 O -0.14666(12) -0.41090(12) -0.31492(5)
C1 C -0.10739(13) -0.38318(14) -0.24943(7)
C2 C -0.16949(13) -0.43192(13) -0.17413(6)
O3 O -0.29502(10) -0.38143(10) -0.02831(5)
C3 C -0.28363(14) -0.51587(13) -0.15159(7)
H1 H -0.3563(19) -0.5627(17) -0.1851(9)
C4 C -0.28845(14) -0.52985(13) -0.06422(7)
C5 C -0.13783(14) -0.59473(15) -0.03727(8)
H2 H -0.116(2) -0.6971(19) -0.0643(10)
H3 H -0.144(2) -0.6105(19) 0.0182(10)
C6 C -0.01709(14) -0.48001(14) -0.05570(7)
H4 H 0.0134(18) -0.4297(18) -0.0083(9)
C7 C 0.12321(15) -0.52519(17) -0.10094(9)
H5 H 0.198(2) -0.5795(19) -0.0687(11)
H6 H 0.094(2) -0.591(2) -0.1444(10)
C8 C 0.18436(15) -0.37639(17) -0.12922(8)
H7 H 0.2551(19) -0.3829(19) -0.173(1)
H8 H 0.2342(18) -0.3269(16) -0.0880(9)
C9 C 0.04584(14) -0.28449(15) -0.15081(7)
H9 H 0.056(2) -0.179(2) -0.1378(10)
C10 C -0.08481(13) -0.36161(13) -0.10915(7)
C11 C -0.42333(16) -0.60921(17) -0.03205(8)
H10 H -0.520(2) -0.562(2) -0.0526(12)
H11 H -0.427(2) -0.708(2) -0.0503(12)
H12 H -0.419(2) -0.611(2) 0.0238(12)
C12 C -0.28332(14) -0.16935(13) -0.10600(6)
C13 C -0.43310(14) -0.19245(15) -0.12370(7)
H13 H -0.485(2) -0.284(2) -0.1094(11)
C14 C -0.51602(16) -0.08228(15) -0.16006(8)
H14 H -0.625(2) -0.0995(18) -0.1685(9)
C15 C -0.44933(17) 0.05043(16) -0.18025(8)
H15 H -0.508(2) 0.128(2) -0.2041(10)
C16 C -0.29952(18) 0.07250(15) -0.16328(8)
H16 H -0.252(2) 0.163(2) -0.1767(11)
C17 C -0.21686(15) -0.03446(14) -0.12534(8)
H17 H -0.112(2) -0.022(2) -0.1102(11)
#END
