
#######################################################################
#
#                 Cambridge Crystallographic Data Centre
#                                CCDC
#
#######################################################################
#
# If this CIF has been generated from an entry in the Cambridge
# Structural Database, then it will include bibliographic, chemical,
# crystal, experimental, refinement or atomic coordinate data resulting
# from the CCDC's data processing and validation procedures.
#
#######################################################################

data_CSD_CIF_EBOZED
_audit_creation_date 2016-12-01
_audit_creation_method CSD-ConQuest-V1
_database_code_CSD EBOZED
_database_code_depnum_ccdc_archive 'CCDC 1042551'
_chemical_formula_sum 'C20 H14 N4 O5'
_chemical_formula_moiety
;
C20 H14 N4 O5
;
_journal_coden_Cambridge 1078
_journal_year 2016
_journal_name_full 'CSD Communication(Private Communication) '
loop_
_publ_author_name
"Atanu Jana"
_chemical_name_systematic
;
2-((2,4-dinitrophenyl)hydrazono)-1,2-diphenylethanone
;
_cell_volume   1781.145
_exptl_crystal_colour 'orange'
_exptl_crystal_density_diffrn 1.456
_exptl_crystal_description 'block'
_diffrn_ambient_temperature 100
#These two values have been output from a single CSD field.
_refine_ls_R_factor_gt 0.0468
_refine_ls_wR_factor_gt 0.0468
_symmetry_cell_setting monoclinic
_symmetry_space_group_name_H-M 'P 21/c'
_symmetry_Int_Tables_number 14
loop_
_symmetry_equiv_pos_site_id
_symmetry_equiv_pos_as_xyz
1 x,y,z
2 -x,1/2+y,1/2-z
3 -x,-y,-z
4 x,-1/2-y,-1/2+z
_cell_length_a 8.2131(3)
_cell_length_b 23.8543(11)
_cell_length_c 9.0919(5)
_cell_angle_alpha 90
_cell_angle_beta 90.663(5)
_cell_angle_gamma 90
_cell_formula_units_Z 4
loop_
_atom_type_symbol
_atom_type_radius_bond
C 0.68
H 0.23
N 0.68
O 0.68
loop_
_atom_site_label
_atom_site_type_symbol
_atom_site_fract_x
_atom_site_fract_y
_atom_site_fract_z
O1 O 0.3536(2) 0.27969(7) 0.32979(19)
O2 O 0.2675(2) 0.21195(7) 0.1916(2)
O3 O 0.2605(2) 0.02499(7) 0.3673(2)
O4 O 0.3516(2) 0.00707(7) 0.5871(2)
O5 O 0.5973(2) 0.37015(7) 0.4758(2)
N1 N 0.3393(2) 0.22911(8) 0.3021(2)
N2 N 0.3336(2) 0.03856(8) 0.4806(2)
N3 N 0.5780(2) 0.25728(8) 0.5313(2)
H1 H 0.55470 0.28240 0.46660
N4 N 0.6736(2) 0.26997(8) 0.6493(2)
C1 C 0.4077(3) 0.18851(9) 0.4042(3)
C2 C 0.3520(3) 0.13378(10) 0.3890(3)
H2 H 0.28230 0.12390 0.31190
C3 C 0.4020(3) 0.09462(10) 0.4902(3)
C4 C 0.5107(3) 0.10786(10) 0.6032(3)
H3 H 0.54220 0.08060 0.67110
C5 C 0.5712(3) 0.16117(10) 0.6141(3)
H4 H 0.64790 0.16950 0.68700
C6 C 0.5190(3) 0.20382(10) 0.5166(3)
C7 C 0.7442(3) 0.31860(9) 0.6557(3)
C8 C 0.8374(3) 0.33108(10) 0.7917(3)
C9 C 0.8448(3) 0.38593(10) 0.8460(3)
H5 H 0.79580 0.41490 0.79320
C10 C 0.9243(3) 0.39742(10) 0.9775(3)
H6 H 0.92690 0.43390 1.01350
C11 C 1.0000(3) 0.35479(10) 1.0559(3)
H7 H 1.05320 0.36260 1.14440
C12 C 0.9963(3) 0.30011(11) 1.0018(3)
H8 H 1.04870 0.27150 1.05330
C13 C 0.9147(3) 0.28838(9) 0.8716(3)
H9 H 0.91120 0.25170 0.83670
C14 C 0.7306(3) 0.36162(10) 0.5335(3)
C15 C 0.8797(3) 0.38988(10) 0.4809(3)
C16 C 1.0345(3) 0.36872(10) 0.5142(3)
H10 H 1.04500 0.33690 0.57270
C17 C 1.1717(3) 0.39461(10) 0.4608(3)
H11 H 1.27420 0.38010 0.48260
C18 C 1.1569(3) 0.44227(11) 0.3749(3)
H12 H 1.24970 0.46010 0.34040
C19 C 1.0042(3) 0.46353(10) 0.3401(3)
H13 H 0.99480 0.49540 0.28180
C20 C 0.8658(3) 0.43747(10) 0.3920(3)
H14 H 0.76350 0.45160 0.36770
#END
