
#######################################################################
#
#                 Cambridge Crystallographic Data Centre
#                                CCDC
#
#######################################################################
#
# If this CIF has been generated from an entry in the Cambridge
# Structural Database, then it will include bibliographic, chemical,
# crystal, experimental, refinement or atomic coordinate data resulting
# from the CCDC's data processing and validation procedures.
#
#######################################################################

data_CSD_CIF_EBUDOX
_audit_creation_date 2016-12-01
_audit_creation_method CSD-ConQuest-V1
_database_code_CSD EBUDOX
_database_code_depnum_ccdc_archive 'CCDC 1495029'
_chemical_formula_sum 'C21 H19 N1 O5'
_chemical_formula_moiety
;
C21 H19 N1 O5
;
_journal_coden_Cambridge 1336
_journal_volume 18
_journal_year 2016
_journal_page_first 5876
_journal_name_full 'Org.Lett. '
loop_
_publ_author_name
"Zi-Sheng Chen"
"Xiao-Yan Huang"
"Jin-Ming Gao"
"Kegong Ji"
_chemical_name_systematic
;
ethyl 2-(3-(4-nitrophenyl)prop-2-en-1-yl)-1-oxoindane-2-carboxylate
;
_cell_volume   3733.998
_exptl_crystal_colour 'light yellow'
_exptl_crystal_density_diffrn 1.3
_exptl_crystal_description 'block'
_diffrn_ambient_temperature 296.1
_refine_special_details
;
C20,C21 and C20',C21' disordered over two sites with occupancies 0.55:0.45.

;
#These two values have been output from a single CSD field.
_refine_ls_R_factor_gt 0.0642
_refine_ls_wR_factor_gt 0.0642
_symmetry_cell_setting monoclinic
_symmetry_space_group_name_H-M 'C 2/c'
_symmetry_Int_Tables_number 15
loop_
_symmetry_equiv_pos_site_id
_symmetry_equiv_pos_as_xyz
1 x,y,z
2 -x,y,1/2-z
3 1/2+x,1/2+y,z
4 1/2-x,1/2+y,1/2-z
5 -x,-y,-z
6 x,-y,-1/2+z
7 -1/2-x,-1/2-y,-z
8 -1/2+x,-1/2-y,-1/2+z
_cell_length_a 24.915(13)
_cell_length_b 10.604(5)
_cell_length_c 15.390(8)
_cell_angle_alpha 90
_cell_angle_beta 113.315(9)
_cell_angle_gamma 90
_cell_formula_units_Z 8
loop_
_atom_type_symbol
_atom_type_radius_bond
C 0.68
H 0.23
N 0.68
O 0.68
loop_
_atom_site_label
_atom_site_type_symbol
_atom_site_fract_x
_atom_site_fract_y
_atom_site_fract_z
N1 N 0.2230(3) 0.4889(5) 0.4759(3)
O1 O 0.2065(2) 0.5895(5) 0.4995(2)
O2 O 0.2699(2) 0.4451(5) 0.5081(3)
O3 O -0.10078(11) 0.0652(2) -0.15336(19)
O4 O 0.00895(11) 0.3705(3) -0.1087(2)
C1 C 0.08323(16) 0.4181(3) 0.2735(2)
H1 H 0.04780 0.45780 0.23940
C2 C 0.1245(2) 0.4793(4) 0.3474(3)
H2 H 0.11700 0.55940 0.36460
C3 C 0.1760(2) 0.4228(4) 0.3954(2)
C4 C 0.18871(18) 0.3044(4) 0.3725(3)
H3 H 0.22500 0.26780 0.40600
C5 C 0.14645(16) 0.2407(3) 0.2985(2)
H4 H 0.15410 0.15980 0.28290
C6 C 0.09295(14) 0.2962(3) 0.2475(2)
C7 C 0.04888(15) 0.2276(3) 0.1687(2)
H5 H 0.05810 0.14510 0.15910
C8 C -0.00196(15) 0.2699(3) 0.1105(2)
H6 H -0.01180 0.35230 0.11890
C9 C -0.04541(15) 0.1952(3) 0.0314(2)
H7 H -0.08050 0.18340 0.04340
H8 H -0.02920 0.11260 0.02930
C10 C -0.06167(13) 0.2602(3) -0.0649(2)
C11 C -0.09363(13) 0.3874(3) -0.0729(2)
H9 H -0.10090 0.40330 -0.01650
H10 H -0.07060 0.45630 -0.08160
C12 C -0.15016(12) 0.3735(3) -0.1580(2)
C13 C -0.19475(14) 0.4606(3) -0.1954(2)
H11 H -0.19270 0.53880 -0.16690
C14 C -0.24224(15) 0.4281(4) -0.2758(2)
H12 H -0.27250 0.48590 -0.30180
C15 C -0.24642(15) 0.3122(4) -0.3192(2)
H13 H -0.27870 0.29370 -0.37430
C16 C -0.20316(14) 0.2249(3) -0.2814(2)
H14 H -0.20560 0.14640 -0.30960
C17 C -0.15552(12) 0.2561(3) -0.1998(2)
C18 C -0.10617(14) 0.1776(3) -0.1442(2)
C19 C -0.00755(15) 0.2752(4) -0.0859(2)
O5 O 0.02118(13) 0.1682(2) -0.0736(3)
C20 C 0.0935(10) 0.1715(13) -0.0454(12)
H15 H 0.10960 0.25580 -0.04010
H16 H 0.11610 0.12050 0.00920
C21 C 0.0809(7) 0.1061(15) -0.1425(8)
H17 H 0.06510 0.16680 -0.19250
H18 H 0.05330 0.03900 -0.15190
H19 H 0.11660 0.07240 -0.14270
C22? C 0.0663(4) 0.1724(10) -0.1173(14)
H20? H 0.05450 0.11900 -0.17290
H21? H 0.07140 0.25790 -0.13520
C23? C 0.1116(12) 0.133(3) -0.055(2)
H22? H 0.14060 0.12090 -0.08080
H23? H 0.10400 0.05460 -0.03120
H24? H 0.12550 0.19370 -0.00460
#END
