
#######################################################################
#
#                 Cambridge Crystallographic Data Centre
#                                CCDC
#
#######################################################################
#
# If this CIF has been generated from an entry in the Cambridge
# Structural Database, then it will include bibliographic, chemical,
# crystal, experimental, refinement or atomic coordinate data resulting
# from the CCDC's data processing and validation procedures.
#
#######################################################################

data_CSD_CIF_ECAFOF
_audit_creation_date 2012-01-09
_audit_creation_method CSD-ConQuest-V1
_database_code_CSD ECAFOF
_database_code_depnum_ccdc_archive 'CCDC 831117'
_chemical_formula_sum 'C26 H32 N4 O6'
_chemical_formula_moiety
;
C26 H32 N4 O6
;
_journal_coden_Cambridge 182
_journal_volume 47
_journal_year 2011
_journal_page_first 10770
_journal_name_full 'Chem.Commun. '
loop_
_publ_author_name
"Ma.-A.Cano-Herrera"
"L.D.Miranda"
_chemical_name_systematic
;
N-t-Butyl-2-(4,5-dimethoxy-13-methyl-10-oxo-11,13-diazatricyclo[7.3.1.0^2,7^]t
rideca-2,4,6-trien-11-yl)-2-(2-nitrophenyl)acetamide
;
_chemical_melting_point 471.15
_cell_volume   2686.001
_exptl_crystal_colour 'colorless'
_exptl_crystal_density_diffrn 1.228
_exptl_special_details
;
Melting point range 471.15-472.15K

;
_exptl_crystal_description 'prism'
_diffrn_ambient_temperature 298
_refine_special_details
;
C15A and C15 disordered over two sites with occupancies 0.55:0.45; O2 and O2A 
disordered over two sites with occupancies 0.880:0.120.
;
#These two values have been output from a single CSD field.
_refine_ls_R_factor_gt 0.0812
_refine_ls_wR_factor_gt 0.0812
_symmetry_cell_setting orthorhombic
_symmetry_space_group_name_H-M 'P 21 21 21'
_symmetry_Int_Tables_number 19
loop_
_symmetry_equiv_pos_site_id
_symmetry_equiv_pos_as_xyz
1 x,y,z
2 1/2-x,-y,1/2+z
3 -x,1/2+y,1/2-z
4 1/2+x,1/2-y,-z
_cell_length_a 12.5407(19)
_cell_length_b 13.946(2)
_cell_length_c 15.358(2)
_cell_angle_alpha 90
_cell_angle_beta 90
_cell_angle_gamma 90
_cell_formula_units_Z 4
loop_
_atom_type_symbol
_atom_type_radius_bond
C 0.68
H 0.23
N 0.68
O 0.68
loop_
_atom_site_label
_atom_site_type_symbol
_atom_site_fract_x
_atom_site_fract_y
_atom_site_fract_z
O1 O 0.1557(4) 0.9469(3) 0.2864(3)
O2 O 0.3316(3) 0.8280(3) 0.2096(2)
O3 O -0.0198(3) 0.8040(3) 0.0633(3)
O4 O 0.1703(3) 0.3389(3) 0.1247(3)
C1 C 0.0666(10) 0.2916(15) 0.123(2)
H1 H 0.06900 0.23480 0.15810
H2 H 0.04930 0.27440 0.06390
H3 H 0.01310 0.33440 0.14500
O5 O 0.3588(3) 0.3938(3) 0.0882(3)
C2 C 0.1735(4) 0.8561(3) 0.1243(3)
H4 H 0.10330 0.86290 0.15180
N1 N 0.1580(3) 0.7989(3) 0.0454(2)
C3 C 0.2528(4) 0.7635(3) -0.0002(3)
H5 H 0.30380 0.73980 0.04210
H6 H 0.28600 0.81610 -0.03150
C4 C 0.2256(4) 0.6838(3) -0.0641(3)
H7 H 0.28650 0.67460 -0.10320
N2 N 0.1352(3) 0.7179(3) -0.1156(3)
C5 C 0.0404(4) 0.7159(4) -0.0590(4)
H8 H -0.01940 0.74300 -0.09180
C6 C 0.0575(4) 0.7770(4) 0.0206(4)
C7 C 0.0087(4) 0.6149(4) -0.0297(4)
H9 H -0.04360 0.61950 0.01660
H10 H -0.02390 0.58120 -0.07810
C8 C 0.1037(4) 0.5589(4) 0.0021(4)
C9 C 0.0894(4) 0.4737(4) 0.0487(4)
H11 H 0.02080 0.45230 0.06070
C10 C 0.1746(5) 0.4219(4) 0.0766(4)
C11 C 0.2787(4) 0.4522(4) 0.0584(4)
C12 C 0.2918(4) 0.5355(3) 0.0129(3)
H12 H 0.36060 0.55650 0.00070
C13 C 0.2055(4) 0.5903(3) -0.0159(3)
C14 C 0.4662(4) 0.4222(5) 0.0707(5)
H13 H 0.47680 0.42640 0.00890
H14 H 0.51440 0.37560 0.09460
H15 H 0.47960 0.48360 0.09670
C15 C 0.2440(5) 0.7994(4) 0.1884(3)
N3 N 0.2018(4) 0.7173(3) 0.2151(3)
H16 H 0.1349(18) 0.702(4) 0.199(4)
C16 C 0.2476(6) 0.6511(4) 0.2802(4)
C17 C 0.2541(6) 0.7035(4) 0.3673(3)
H17 H 0.29320 0.76210 0.36000
H18 H 0.28970 0.66360 0.40910
H19 H 0.18340 0.71770 0.38750
C18 C 0.3553(7) 0.6153(5) 0.2496(5)
H20 H 0.34720 0.58250 0.19510
H21 H 0.38420 0.57210 0.29210
H22 H 0.40270 0.66880 0.24230
C19 C 0.1673(8) 0.5689(4) 0.2882(4)
H23 H 0.09850 0.59440 0.30270
H24 H 0.19010 0.52560 0.33310
H25 H 0.16310 0.53520 0.23380
C20 C 0.2144(4) 0.9560(3) 0.1072(3)
C21 C 0.2477(5) 1.0186(4) 0.1725(3)
C22 C 0.2889(6) 1.1081(4) 0.1563(4)
H26 H 0.31100 1.14740 0.20180
C23 C 0.2966(6) 1.1385(4) 0.0707(5)
H27 H 0.32440 1.19870 0.05800
C24 C 0.2638(5) 1.0809(4) 0.0062(4)
H28 H 0.26800 1.10200 -0.05110
C25 C 0.2246(4) 0.9920(4) 0.0233(3)
H29 H 0.20370 0.95360 -0.02320
N4 N 0.2318(6) 0.9944(4) 0.2657(3)
O6 O 0.3066(6) 1.0209(5) 0.3153(3)
C26 C 0.1204(5) 0.6669(4) -0.1973(4)
H30 H 0.18310 0.67380 -0.23260
H31 H 0.06010 0.69300 -0.22760
H32 H 0.10820 0.60010 -0.18560
C27? C 0.0732(16) 0.317(2) 0.173(2)
H33? H 0.08250 0.25740 0.20380
H34? H 0.01480 0.31040 0.13280
H35? H 0.05840 0.36720 0.21340
O7? O 0.204(4) 1.058(2) 0.319(2)
#END
