
#######################################################################
#
#                 Cambridge Crystallographic Data Centre
#                                CCDC
#
#######################################################################
#
# If this CIF has been generated from an entry in the Cambridge
# Structural Database, then it will include bibliographic, chemical,
# crystal, experimental, refinement or atomic coordinate data resulting
# from the CCDC's data processing and validation procedures.
#
#######################################################################

data_CSD_CIF_ECALEC
_audit_creation_date 2016-12-06
_audit_creation_method CSD-ConQuest-V1
_database_code_CSD ECALEC
_database_code_depnum_ccdc_archive 'CCDC 1520382'
_chemical_formula_sum 'C15 H12 N2 O1'
_chemical_formula_moiety
;
C15 H12 N2 O1
;
_journal_coden_Cambridge 1336
_journal_volume 18
_journal_year 2016
_journal_page_first 5928
_journal_name_full 'Org.Lett. '
loop_
_publ_author_name
"Bingxiang Yuan"
"Fuming Zhang"
"Zhuomei Li"
"Shenghua Yang"
"Rulong Yan"
_chemical_name_systematic
;
1,3-diphenylpyrazole 2-oxide
;
_cell_volume   1805.234
_exptl_crystal_colour 'light yellow'
_exptl_crystal_density_diffrn 1.304
_exptl_crystal_description 'block'
_diffrn_ambient_temperature 292.8
#These two values have been output from a single CSD field.
_refine_ls_R_factor_gt 0.1199
_refine_ls_wR_factor_gt 0.1199
_symmetry_cell_setting hexagonal
_symmetry_space_group_name_H-M 'P 65'
_symmetry_Int_Tables_number 170
loop_
_symmetry_equiv_pos_site_id
_symmetry_equiv_pos_as_xyz
1 x,y,z
2 x-y,x,5/6+z
3 -y,x-y,2/3+z
4 -x,-y,1/2+z
5 -x+y,-x,1/3+z
6 y,-x+y,1/6+z
_cell_length_a 6.1726(13)
_cell_length_b 6.1726(13)
_cell_length_c 54.71(3)
_cell_angle_alpha 90
_cell_angle_beta 90
_cell_angle_gamma 120
_cell_formula_units_Z 6
loop_
_atom_type_symbol
_atom_type_radius_bond
C 0.68
H 0.23
N 0.68
O 0.68
loop_
_atom_site_label
_atom_site_type_symbol
_atom_site_fract_x
_atom_site_fract_y
_atom_site_fract_z
O1 O 0.0117(13) 0.005(2) 0.1397(2)
N1 N 0.2515(13) 0.1304(18) 0.1403(2)
N2 N 0.4011(17) 0.070(2) 0.12590(18)
C1 C 0.094(3) 0.300(3) 0.1852(3)
H1 H 0.00610 0.12660 0.18370
C2 C 0.018(3) 0.422(4) 0.2018(3)
H2 H -0.11150 0.33190 0.21280
C3 C 0.138(3) 0.674(4) 0.2012(2)
H3 H 0.06420 0.75360 0.20910
C4 C 0.343(4) 0.807(3) 0.1908(3)
H4 H 0.43670 0.97680 0.19450
C5 C 0.434(3) 0.700(3) 0.1732(3)
H5 H 0.57460 0.80010 0.16380
C6 C 0.307(2) 0.447(3) 0.1708(2)
C7 C 0.398(2) 0.333(2) 0.1541(2)
C8 C 0.651(3) 0.402(3) 0.1487(3)
H6 H 0.79420 0.53610 0.15530
C9 C 0.643(2) 0.234(2) 0.1320(3)
H7 H 0.78150 0.23190 0.12570
C10 C 0.307(2) -0.142(2) 0.1088(2)
C11 C 0.098(2) -0.209(3) 0.0951(2)
H8 H 0.01010 -0.12340 0.09700
C12 C 0.015(3) -0.406(3) 0.0782(3)
H9 H -0.13310 -0.45380 0.06980
C13 C 0.142(3) -0.534(4) 0.0736(2)
H10 H 0.09670 -0.65150 0.06110
C14 C 0.357(3) -0.467(3) 0.0903(2)
H11 H 0.43810 -0.55980 0.08970
C15 C 0.439(3) -0.272(2) 0.1064(2)
H12 H 0.58140 -0.22590 0.11570
#END
