
#######################################################################
#
#                 Cambridge Crystallographic Data Centre
#                                CCDC
#
#######################################################################
#
# If this CIF has been generated from an entry in the Cambridge
# Structural Database, then it will include bibliographic, chemical,
# crystal, experimental, refinement or atomic coordinate data resulting
# from the CCDC's data processing and validation procedures.
#
#######################################################################

data_CSD_CIF_ECEGEY
_audit_creation_date 2002-01-23
_audit_creation_method CSD-ConQuest-V1
_database_code_CSD ECEGEY
_chemical_formula_sum 'C17 H17 N3 O5'
_chemical_formula_moiety
;
C17 H17 N3 O5
;
_journal_coden_Cambridge 119
_journal_volume 523
_journal_year 2000
_journal_page_first 149
_journal_name_full 'J.Mol.Struct. '
loop_
_publ_author_name
"G.Ermondi"
"S.Visentin"
"D.Boschi"
"R.Fruttero"
"A.Gasco"
_chemical_name_systematic
;
4-(5-Benzofurazanyl)-2,6-dimethyl-3,5-bis(methoxycarbonyl)-1,4-dihydropyridine
;
_cell_volume   1641.967
_exptl_crystal_colour 'yellow'
_exptl_crystal_density_diffrn 1.389
_exptl_special_details
;
calcium ion antagonist

;
_exptl_crystal_description 'prism'
_diffrn_ambient_temperature 298
#These two values have been output from a single CSD field.
_refine_ls_R_factor_gt 0.044
_refine_ls_wR_factor_gt 0.044
_symmetry_cell_setting monoclinic
_symmetry_space_group_name_H-M 'P 21/c'
_symmetry_Int_Tables_number 14
loop_
_symmetry_equiv_pos_site_id
_symmetry_equiv_pos_as_xyz
1 x,y,z
2 -x,1/2+y,1/2-z
3 -x,-y,-z
4 x,-1/2-y,-1/2+z
_cell_length_a 10.537(5)
_cell_length_b 15.936(5)
_cell_length_c 11.022(5)
_cell_angle_alpha 90
_cell_angle_beta 117.48(2)
_cell_angle_gamma 90
_cell_formula_units_Z 4
loop_
_atom_type_symbol
_atom_type_radius_bond
C 0.68
N 0.68
O 0.68
loop_
_atom_site_label
_atom_site_type_symbol
_atom_site_fract_x
_atom_site_fract_y
_atom_site_fract_z
N1 N -0.0954(3) 0.2920(2) 0.1151(2)
C1 C 0.0321(3) 0.3149(2) 0.2252(3)
C2 C 0.0915(3) 0.2639(2) 0.3357(3)
C3 C 0.0258(3) 0.1790(2) 0.3343(3)
C4 C -0.1315(3) 0.1767(2) 0.2295(3)
C5 C -0.1830(3) 0.2291(2) 0.1206(3)
C6 C 0.1095(3) 0.1096(2) 0.3070(3)
C7 C 0.0946(4) 0.1014(2) 0.1703(3)
C8 C 0.1661(4) 0.0429(3) 0.1364(4)
C9 C 0.2584(4) -0.0117(2) 0.2422(4)
C10 C 0.2737(3) -0.0039(2) 0.3763(4)
C11 C 0.1968(3) 0.0579(2) 0.4087(3)
N2 N 0.3659(4) -0.0605(2) 0.4564(4)
O1 O 0.4075(3) -0.1032(2) 0.3716(4)
N3 N 0.3410(4) -0.0733(2) 0.2393(4)
C12 C 0.0876(4) 0.3981(2) 0.2088(3)
C13 C 0.2246(3) 0.2872(2) 0.4563(3)
O2 O 0.3064(3) 0.3420(2) 0.4644(2)
O3 O 0.2483(2) 0.2371(2) 0.5635(2)
C14 C 0.3783(4) 0.2518(3) 0.6877(3)
C15 C -0.2159(3) 0.1155(2) 0.2599(3)
O4 O -0.1784(2) 0.0868(2) 0.3732(2)
O5 O -0.3378(2) 0.0922(2) 0.1542(2)
C16 C -0.4286(4) 0.0356(3) 0.1821(4)
C17 C -0.3284(3) 0.2287(2) -0.0009(3)
#END
