
#######################################################################
#
#                 Cambridge Crystallographic Data Centre
#                                CCDC
#
#######################################################################
#
# If this CIF has been generated from an entry in the Cambridge
# Structural Database, then it will include bibliographic, chemical,
# crystal, experimental, refinement or atomic coordinate data resulting
# from the CCDC's data processing and validation procedures.
#
#######################################################################

data_CSD_CIF_ECEGIC
_audit_creation_date 2002-01-23
_audit_creation_method CSD-ConQuest-V1
_database_code_CSD ECEGIC
_chemical_formula_sum 'C17 H17 N3 O6'
_chemical_formula_moiety
;
C17 H17 N3 O6
;
_journal_coden_Cambridge 119
_journal_volume 523
_journal_year 2000
_journal_page_first 149
_journal_name_full 'J.Mol.Struct. '
loop_
_publ_author_name
"G.Ermondi"
"S.Visentin"
"D.Boschi"
"R.Fruttero"
"A.Gasco"
_chemical_name_systematic
;
4-(5-Benzofurazanyl-1-oxide)-2,6-dimethyl-3,5-bis(methoxycarbonyl)-1,4-dihydro
pyridine
;
_cell_volume   1647.863
_exptl_crystal_colour 'yellow'
_exptl_crystal_density_diffrn 1.448
_exptl_special_details
;
calcium ion antagonist

;
_exptl_crystal_description 'prism'
_diffrn_ambient_temperature 298
#These two values have been output from a single CSD field.
_refine_ls_R_factor_gt 0.0659
_refine_ls_wR_factor_gt 0.0659
_symmetry_cell_setting monoclinic
_symmetry_space_group_name_H-M 'P 21/c'
_symmetry_Int_Tables_number 14
loop_
_symmetry_equiv_pos_site_id
_symmetry_equiv_pos_as_xyz
1 x,y,z
2 -x,1/2+y,1/2-z
3 -x,-y,-z
4 x,-1/2-y,-1/2+z
_cell_length_a 7.347(2)
_cell_length_b 14.256(3)
_cell_length_c 16.001(2)
_cell_angle_alpha 90
_cell_angle_beta 100.50(2)
_cell_angle_gamma 90
_cell_formula_units_Z 4
loop_
_atom_type_symbol
_atom_type_radius_bond
C 0.68
N 0.68
O 0.68
loop_
_atom_site_label
_atom_site_type_symbol
_atom_site_fract_x
_atom_site_fract_y
_atom_site_fract_z
N1 N 0.6412(6) 0.3419(3) 0.5570(3)
C1 C 0.5276(7) 0.3419(4) 0.6142(3)
C2 C 0.3436(7) 0.3127(4) 0.5860(3)
C3 C 0.2648(7) 0.3173(4) 0.4907(3)
C4 C 0.3938(7) 0.3716(4) 0.4440(3)
C5 C 0.5752(7) 0.3790(4) 0.4774(3)
C6 C 0.2270(7) 0.2175(4) 0.4574(3)
C7 C 0.3817(8) 0.1580(4) 0.4488(3)
C8 C 0.3612(9) 0.0682(4) 0.4238(3)
C9 C 0.1783(10) 0.0329(4) 0.4085(4)
C10 C 0.0237(9) 0.0889(4) 0.4146(3)
C11 C 0.0525(8) 0.1838(4) 0.4407(4)
N2 N -0.1432(10) 0.0420(4) 0.3966(3)
O1 O -0.0861(8) -0.0477(4) 0.3789(3)
N3 N 0.1091(11) -0.0526(4) 0.3870(3)
O2 O 0.1789(9) -0.1261(4) 0.3790(4)
C12 C 0.6306(7) 0.3111(4) 0.7041(3)
C13 C 0.7231(7) 0.4276(4) 0.4391(4)
C14 C 0.2030(7) 0.3051(4) 0.6396(3)
O3 O 0.0443(5) 0.3274(3) 0.6162(2)
O4 O 0.2649(5) 0.2726(3) 0.7175(2)
C15 C 0.1306(8) 0.2641(5) 0.7725(4)
C16 C 0.3127(8) 0.4160(4) 0.3624(4)
O5 O 0.3933(6) 0.4560(3) 0.3138(3)
O6 O 0.1275(5) 0.4060(3) 0.3465(2)
C17 C 0.0290(9) 0.4470(5) 0.2691(4)
#END
