
#######################################################################
#
#                 Cambridge Crystallographic Data Centre
#                                CCDC
#
#######################################################################
#
# If this CIF has been generated from an entry in the Cambridge
# Structural Database, then it will include bibliographic, chemical,
# crystal, experimental, refinement or atomic coordinate data resulting
# from the CCDC's data processing and validation procedures.
#
#######################################################################

data_CSD_CIF_ECETUE
_audit_creation_date 2017-10-12
_audit_creation_method CSD-ConQuest-V1
_database_code_CSD ECETUE
_database_code_depnum_ccdc_archive 'CCDC 1569990'
_chemical_formula_sum 'C21 H20 N2 O8'
_chemical_formula_moiety
;
C21 H20 N2 O8
;
_journal_coden_Cambridge 1500
_journal_volume 7
_journal_year 2017
_journal_page_first 48019
_journal_name_full 'RSC Advances '
loop_
_publ_author_name
"Meilin Zhu"
"Zhen Yang"
"Huimin Feng"
"Qi Gan"
"Qian Che"
"Tianjiao Zhu"
"Qianqun Gu"
"Bingnan Han"
"Dehai Li"
_chemical_name_systematic
;
N-(7,8-dimethoxy-2-oxo-2H-1-benzopyran-3-yl)-7,8-dihydroxy-N-methyl-8,8a-dihyd
ro-7H-1,2-benzoxazine-3-carboxamide
;
_cell_volume   2101.349
_exptl_crystal_colour 'colorless'
_exptl_crystal_density_diffrn 1.345
_exptl_special_details
;
Absolute configuration

;
_exptl_crystal_description 'block'
_diffrn_ambient_temperature 295
_refine_special_details
;
C11',O7 and C11,O7' disordered over two sites with occupancies 0.709:0.291.

;
#These two values have been output from a single CSD field.
_refine_ls_R_factor_gt 0.0459
_refine_ls_wR_factor_gt 0.0459
_symmetry_cell_setting monoclinic
_symmetry_space_group_name_H-M 'C 2'
_symmetry_Int_Tables_number 5
loop_
_symmetry_equiv_pos_site_id
_symmetry_equiv_pos_as_xyz
1 x,y,z
2 -x,y,-z
3 1/2+x,1/2+y,z
4 1/2-x,1/2+y,-z
_cell_length_a 18.7697(4)
_cell_length_b 4.8938(1)
_cell_length_c 22.9053(5)
_cell_angle_alpha 90
_cell_angle_beta 92.860(2)
_cell_angle_gamma 90
_cell_formula_units_Z 4
loop_
_atom_type_symbol
_atom_type_radius_bond
C 0.68
H 0.23
N 0.68
O 0.68
loop_
_atom_site_label
_atom_site_type_symbol
_atom_site_fract_x
_atom_site_fract_y
_atom_site_fract_z
O1 O 0.28225(10) 0.2204(5) 0.65346(9)
O2 O 0.47827(9) 0.5893(5) 0.60288(9)
H1 H 0.50970 0.51440 0.62320
O3 O 0.42829(11) 0.0860(5) 0.65212(9)
H2 H 0.44460 -0.05920 0.64090
O4 O 0.09779(11) 0.8120(7) 0.63371(10)
N1 N 0.22543(12) 0.3640(6) 0.67788(11)
N2 N 0.13715(12) 0.7782(6) 0.72792(11)
O5 O 0.23228(13) 0.5123(8) 0.86023(11)
C1 C 0.33381(12) 0.3977(6) 0.62815(11)
H3 H 0.35470 0.51980 0.65830
C2 C 0.20483(12) 0.5768(7) 0.64901(11)
C3 C 0.14257(13) 0.7342(7) 0.67081(13)
C4 C 0.29650(12) 0.5633(6) 0.58086(10)
C5 C 0.23199(13) 0.6543(6) 0.59354(11)
H4 H 0.20540 0.76410 0.56740
C6 C 0.39130(13) 0.2181(6) 0.60482(12)
H5 H 0.36860 0.07860 0.57950
C7 C 0.44037(13) 0.3897(6) 0.56848(12)
H6 H 0.47490 0.26850 0.55080
O6 O 0.12113(15) 0.4588(10) 0.82756(14)
C8 C 0.19402(14) 0.7310(8) 0.77073(13)
C9 C 0.31646(15) 0.7631(8) 0.80656(12)
C10 C 0.33217(14) 0.6191(7) 0.52767(11)
H7 H 0.30780 0.71320 0.49760
C11 C 0.39914(15) 0.5389(7) 0.52074(12)
H8 H 0.42050 0.57620 0.48580
C12 C 0.25982(15) 0.8339(7) 0.76582(14)
H9 H 0.26840 0.95320 0.73540
C13 C 0.17785(17) 0.5591(11) 0.81944(15)
C14 C 0.30083(17) 0.6014(10) 0.85349(14)
C15 C 0.38740(17) 0.8460(11) 0.80133(15)
H10 H 0.39910 0.95430 0.76980
O7 O 0.46984(17) 0.5333(15) 0.93196(14)
C16 C 0.43972(18) 0.7698(13) 0.84191(15)
H11 H 0.48660 0.82620 0.83800
C17 C 0.3522(2) 0.5256(13) 0.89574(17)
C18 C 0.4224(2) 0.6076(15) 0.88904(15)
C19 C 0.07270(19) 0.9196(12) 0.74598(19)
H12 H 0.07490 1.10880 0.73510
H13 H 0.06980 0.90520 0.78760
H14 H 0.03130 0.83710 0.72700
C20 C 0.5421(3) 0.617(3) 0.9283(3)
H15 H 0.55830 0.57110 0.89040
H16 H 0.57120 0.52460 0.95780
H17 H 0.54560 0.81050 0.93410
O8 O 0.3306(2) 0.4535(12) 0.95054(16)
C21 C 0.3260(11) 0.182(3) 0.9548(6)
H18 H 0.31110 0.13390 0.99300
H19 H 0.37180 0.10220 0.94890
H20 H 0.29190 0.11470 0.92570
O9? O 0.3478(6) 0.2687(15) 0.9248(4)
C22? C 0.310(3) 0.326(8) 0.9734(17)
H21? H 0.30480 0.16140 0.99560
H22? H 0.26430 0.39710 0.96150
H23? H 0.33610 0.45840 0.99710
#END
