
#######################################################################
#
#                 Cambridge Crystallographic Data Centre
#                                CCDC
#
#######################################################################
#
# If this CIF has been generated from an entry in the Cambridge
# Structural Database, then it will include bibliographic, chemical,
# crystal, experimental, refinement or atomic coordinate data resulting
# from the CCDC's data processing and validation procedures.
#
#######################################################################

data_CSD_CIF_ECIBIB
_audit_creation_date 2002-01-23
_audit_creation_method CSD-ConQuest-V1
_database_code_CSD ECIBIB
_database_code_depnum_ccdc_archive 'CCDC 145594'
_chemical_formula_sum 'C7 H8 N2 O2'
_chemical_formula_moiety
;
C7 H8 N2 O2
;
_journal_coden_Cambridge 82
_journal_volume 42
_journal_year 2001
_journal_page_first 611
_journal_name_full 'Zh.Strukt.Khim.(Russ.)(J.Struct.Chem.) '
loop_
_publ_author_name
"V.V.Prezhdo"
"A.S.Bykova"
"T.Glowiak"
"A.Koll"
"J.Kyziol"
_chemical_name_systematic
;
N-Methyl-N-nitroaniline
;
_cell_volume   1538.851
_exptl_crystal_description 'parallelepiped'
_exptl_crystal_preparation 'dichloromethane'
_diffrn_ambient_temperature ?
_diffrn_special_details
;
The study was carried out at room temperature,in the range 283-303K

;
#These two values have been output from a single CSD field.
_refine_ls_R_factor_gt 0.062
_refine_ls_wR_factor_gt 0.062
_symmetry_cell_setting orthorhombic
_symmetry_space_group_name_H-M 'P b c a'
_symmetry_Int_Tables_number 61
loop_
_symmetry_equiv_pos_site_id
_symmetry_equiv_pos_as_xyz
1 x,y,z
2 1/2-x,-y,1/2+z
3 1/2+x,1/2-y,-z
4 -x,1/2+y,1/2-z
5 -x,-y,-z
6 -1/2+x,y,-1/2-z
7 -1/2-x,-1/2+y,z
8 x,-1/2-y,-1/2+z
_cell_length_a 8.822(2)
_cell_length_b 10.939(3)
_cell_length_c 15.946(2)
_cell_angle_alpha 90
_cell_angle_beta 90
_cell_angle_gamma 90
_cell_formula_units_Z 8
loop_
_atom_type_symbol
_atom_type_radius_bond
C 0.68
H 0.23
N 0.68
O 0.68
loop_
_atom_site_label
_atom_site_type_symbol
_atom_site_fract_x
_atom_site_fract_y
_atom_site_fract_z
O1 O 0.1835(2) 0.58991(15) 0.11037(10)
O2 O 0.1727(2) 0.5455(2) -0.02208(11)
N1 N 0.0436(3) 0.7028(2) 0.02585(10)
N2 N 0.1369(3) 0.6075(2) 0.03890(12)
C1 C -0.0180(2) 0.7642(2) 0.09774(12)
C2 C 0.0234(2) 0.8837(2) 0.11166(15)
C3 C -0.0393(4) 0.9453(3) 0.1785(2)
C4 C -0.1401(4) 0.8880(3) 0.23015(15)
C5 C -0.1805(4) 0.7684(3) 0.21592(14)
C6 C -0.1197(3) 0.7060(2) 0.14915(13)
C7 C -0.0168(4) 0.7216(3) -0.05741(13)
H1 H 0.09300 0.92200 0.07700
H2 H -0.01300 1.02600 0.18900
H3 H -0.18200 0.93000 0.27500
H4 H -0.24900 0.73000 0.25200
H5 H -0.14700 0.62500 0.13900
H6 H -0.05400 0.80400 -0.06200
H7 H -0.09800 0.66500 -0.06700
H8 H 0.06200 0.70900 -0.09800
#END
