
#######################################################################
#
#                 Cambridge Crystallographic Data Centre
#                                CCDC
#
#######################################################################
#
# If this CIF has been generated from an entry in the Cambridge
# Structural Database, then it will include bibliographic, chemical,
# crystal, experimental, refinement or atomic coordinate data resulting
# from the CCDC's data processing and validation procedures.
#
#######################################################################

data_CSD_CIF_ECIGAY
_audit_creation_date 2002-01-23
_audit_creation_method CSD-ConQuest-V1
_database_code_CSD ECIGAY
_database_code_depnum_ccdc_archive 'CCDC 172925'
_chemical_formula_sum 'C12 H19 N4 O2'
_chemical_formula_moiety
;
C12 H19 N4 O2
;
_journal_coden_Cambridge 367
_journal_volume 27
_journal_year 2001
_journal_page_first 387
_journal_name_full 'Koord.Khim.(Russ.)(Coord.Chem.) '
loop_
_publ_author_name
"G.V.Romanenko"
"S.V.Fokin"
"S.F.Vasilevskii"
"E.V.Tret'yakov"
"Yu.G.Shvedenkov"
"V.I.Ovcharenko"
_chemical_name_systematic
;
2-(2,5-Dimethylpyrazol-3-yl)-4,4,5,5-tetramethylimidazolidine-3-oxide-1-oxyl 
radical
;
_chemical_melting_point 398.15
_cell_volume   1345.161
_exptl_crystal_colour 'dark blue'
_exptl_crystal_density_diffrn 1.241
_exptl_crystal_description 'prism'
_exptl_crystal_preparation 'diethyl ether/heptane'
_diffrn_ambient_temperature 295
#These two values have been output from a single CSD field.
_refine_ls_R_factor_gt 0.0401
_refine_ls_wR_factor_gt 0.0401
_symmetry_cell_setting monoclinic
_symmetry_space_group_name_H-M 'P 21/c'
_symmetry_Int_Tables_number 14
loop_
_symmetry_equiv_pos_site_id
_symmetry_equiv_pos_as_xyz
1 x,y,z
2 x,1/2-y,1/2+z
3 -x,-y,-z
4 -x,-1/2+y,-1/2-z
_cell_length_a 9.652(1)
_cell_length_b 14.786(1)
_cell_length_c 10.080(1)
_cell_angle_alpha 90
_cell_angle_beta 110.76(1)
_cell_angle_gamma 90
_cell_formula_units_Z 4
loop_
_atom_type_symbol
_atom_type_radius_bond
C 0.68
H 0.23
N 0.68
O 0.68
loop_
_atom_site_label
_atom_site_type_symbol
_atom_site_fract_x
_atom_site_fract_y
_atom_site_fract_z
O1 O 0.41560(17) -0.10222(11) 0.10711(14)
N1 N 0.30920(16) -0.08168(10) -0.00699(14)
C1 C 0.23729(18) -0.15047(12) -0.12009(17)
C2 C 0.1215(3) -0.19811(18) -0.0742(3)
H1 H 0.170(3) -0.2224(16) 0.014(3)
H2 H 0.081(3) -0.2482(17) -0.140(3)
H3 H 0.049(3) -0.1532(16) -0.067(2)
C3 C 0.3518(3) -0.21654(17) -0.1314(3)
H4 H 0.393(3) -0.2509(16) -0.039(2)
H5 H 0.426(3) -0.1844(16) -0.153(2)
H6 H 0.304(3) -0.2615(18) -0.200(3)
C4 C 0.16915(18) -0.08683(11) -0.24886(17)
C5 C 0.0217(2) -0.11737(15) -0.3553(2)
H7 H -0.047(3) -0.1252(15) -0.307(2)
H8 H 0.033(3) -0.1780(17) -0.390(2)
H9 H -0.011(3) -0.0762(17) -0.434(3)
C6 C 0.2773(3) -0.06134(17) -0.3233(2)
H10 H 0.230(2) -0.0121(16) -0.392(2)
H11 H 0.294(2) -0.1126(17) -0.373(2)
H12 H 0.373(3) -0.0382(14) -0.250(2)
N2 N 0.14914(14) -0.00263(9) -0.17449(14)
O2 O 0.06646(14) 0.06275(8) -0.24145(13)
C7 C 0.24112(17) -0.00109(11) -0.03774(17)
C8 C 0.26382(18) 0.07581(11) 0.05553(17)
C9 C 0.25815(19) 0.16475(12) 0.01493(18)
H13 H 0.246(2) 0.1920(12) -0.074(2)
N3 N 0.28731(15) 0.21529(10) 0.13145(13)
C10 C 0.3004(3) 0.31288(13) 0.1431(2)
H14 H 0.304(3) 0.3344(16) 0.056(3)
H15 H 0.384(3) 0.3286(14) 0.220(2)
H16 H 0.210(3) 0.3399(17) 0.156(2)
N4 N 0.30972(16) 0.1639(1) 0.24920(14)
C11 C 0.29594(18) 0.07878(12) 0.20434(17)
C12 C 0.3091(3) 0.00353(16) 0.3072(2)
H17 H 0.324(3) 0.0263(18) 0.403(3)
H18 H 0.383(3) -0.0405(17) 0.310(3)
H19 H 0.220(3) -0.032(2) 0.285(3)
#END
