
#######################################################################
#
#                 Cambridge Crystallographic Data Centre
#                                CCDC
#
#######################################################################
#
# If this CIF has been generated from an entry in the Cambridge
# Structural Database, then it will include bibliographic, chemical,
# crystal, experimental, refinement or atomic coordinate data resulting
# from the CCDC's data processing and validation procedures.
#
#######################################################################

data_CSD_CIF_ECIJUV
_audit_creation_date 2002-01-23
_audit_creation_method CSD-ConQuest-V1
_database_code_CSD ECIJUV
_database_code_depnum_ccdc_archive 'CCDC 173941'
_chemical_formula_sum 'C14 H21 N3 O5'
_chemical_formula_moiety
;
C14 H21 N3 O5
;
_journal_coden_Cambridge 1336
_journal_volume 3
_journal_year 2001
_journal_page_first 2911
_journal_name_full 'Org.Lett. '
loop_
_publ_author_name
"F.Hughes Junior"
"R.B.Grossman"
_chemical_name_systematic
;
Ethyl 2-cyano-3-(acetylmethyl)-1,4-dimethyl-4-nitropiperidine-2-carboxylate
;
_cell_volume   1586.778
_exptl_crystal_colour 'colorless'
_exptl_crystal_density_diffrn 1.303
_exptl_crystal_description 'fractured rod'
_diffrn_ambient_temperature 173
#These two values have been output from a single CSD field.
_refine_ls_R_factor_gt 0.0435
_refine_ls_wR_factor_gt 0.0435
_symmetry_cell_setting orthorhombic
_symmetry_space_group_name_H-M 'P 21 21 21'
_symmetry_Int_Tables_number 19
loop_
_symmetry_equiv_pos_site_id
_symmetry_equiv_pos_as_xyz
1 x,y,z
2 1/2-x,-y,1/2+z
3 1/2+x,1/2-y,-z
4 -x,1/2+y,1/2-z
_cell_length_a 6.5630(4)
_cell_length_b 10.7480(6)
_cell_length_c 22.4950(12)
_cell_angle_alpha 90
_cell_angle_beta 90
_cell_angle_gamma 90
_cell_formula_units_Z 4
loop_
_atom_type_symbol
_atom_type_radius_bond
C 0.68
H 0.23
N 0.68
O 0.68
loop_
_atom_site_label
_atom_site_type_symbol
_atom_site_fract_x
_atom_site_fract_y
_atom_site_fract_z
N1 N 0.2942(3) 0.86638(19) 0.88044(9)
C1 C 0.2348(4) 0.7442(2) 0.85678(12)
H1 H 0.30630 0.67860 0.87870
H2 H 0.27110 0.73940 0.81460
H3 H 0.08740 0.73310 0.86130
C2 C 0.5078(4) 0.8951(2) 0.86994(10)
C3 C 0.5606(4) 1.0286(2) 0.89295(10)
H4 H 0.47730 1.08790 0.86880
N2 N 0.4903(4) 1.1893(2) 0.96973(10)
O1 O 0.4883(4) 1.26093(17) 0.92811(9)
O2 O 0.4796(4) 1.22276(18) 1.02129(8)
C4 C 0.4956(4) 1.0468(2) 0.9581(1)
C5 C 0.2743(4) 1.0062(2) 0.96629(11)
H5 H 0.23800 1.01020 1.00900
H6 H 0.18350 1.06370 0.94440
C6 C 0.2431(4) 0.8743(2) 0.94355(10)
H7 H 0.33020 0.81630 0.96640
H8 H 0.09930 0.84950 0.94950
O3 O 0.7227(3) 0.85713(17) 0.78542(8)
C7 C 0.5604(5) 0.8928(2) 0.80297(11)
O4 O 0.4121(3) 0.93807(16) 0.77032(7)
C8 C 0.4530(6) 0.9435(3) 0.70634(11)
H9 H 0.49840 0.86130 0.69160
H10 H 0.56070 1.00540 0.69770
C9 C 0.2577(7) 0.9804(3) 0.67745(14)
H11 H 0.22140 1.06500 0.68970
H12 H 0.14970 0.92270 0.68950
H13 H 0.27370 0.97760 0.63420
N3 N 0.7318(4) 0.7215(2) 0.92082(9)
C10 C 0.6422(4) 0.7990(2) 0.89769(11)
C11 C 0.7840(4) 1.0627(2) 0.88200(11)
H14 H 0.83180 1.11530 0.91530
H15 H 0.86600 0.98540 0.88230
O5 O 0.6891(3) 1.15899(16) 0.79054(8)
C12 C 0.8245(4) 1.1308(2) 0.82434(12)
C13 C 1.0433(5) 1.1618(3) 0.81277(14)
H16 H 1.05370 1.21140 0.77630
H17 H 1.12160 1.08480 0.80810
H18 H 1.09790 1.20960 0.84630
C14 C 0.6347(4) 0.9911(2) 1.00498(11)
H19 H 0.77150 1.02660 1.00090
H20 H 0.64130 0.90070 0.99970
H21 H 0.58090 1.01010 1.04460
#END
