
#######################################################################
#
#                 Cambridge Crystallographic Data Centre
#                                CCDC
#
#######################################################################
#
# If this CIF has been generated from an entry in the Cambridge
# Structural Database, then it will include bibliographic, chemical,
# crystal, experimental, refinement or atomic coordinate data resulting
# from the CCDC's data processing and validation procedures.
#
#######################################################################

data_CSD_CIF_ECIQIQ
_audit_creation_date 2002-01-23
_audit_creation_method CSD-ConQuest-V1
_database_code_CSD ECIQIQ
_database_code_depnum_ccdc_archive 'CCDC 164244'
_chemical_formula_sum 'C17 H16 N2 O4'
_chemical_formula_moiety
;
C17 H16 N2 O4
;
_journal_coden_Cambridge 1145
_journal_volume 11
_journal_year 2001
_journal_page_first 2271
_journal_name_full 'J.Mater.Chem. '
loop_
_publ_author_name
"A.J.Kay"
"A.D.Woolhouse"
"G.J.Gainsford"
"T.G.Haskell"
"C.P.Wyss"
"S.M.Giffin"
"I.T.McKinnie"
"T.H.Barnes"
_chemical_name_systematic
;
4-[1-(2,3-Dihydroxypropyl)pyridin-4(1H)-ylidene]-3-phenyl-isoxazol-5(4H)-one
;
_chemical_melting_point 520.15
_cell_volume    727.296
_exptl_crystal_colour 'pale yellow'
_exptl_crystal_density_diffrn 1.426
_exptl_special_details
;
Melting point range 520.15-523.15K

;
_exptl_crystal_description 'block'
_exptl_crystal_preparation 'acetone/hexane'
_diffrn_ambient_temperature 158
_refine_special_details
;
C1-C2 are disordered over two sites with occupancies 0.535:0.465.

;
#These two values have been output from a single CSD field.
_refine_ls_R_factor_gt 0.0392
_refine_ls_wR_factor_gt 0.0392
_symmetry_cell_setting triclinic
_symmetry_space_group_name_H-M 'P -1'
_symmetry_Int_Tables_number 2
loop_
_symmetry_equiv_pos_site_id
_symmetry_equiv_pos_as_xyz
1 x,y,z
2 -x,-y,-z
_cell_length_a 7.987(2)
_cell_length_b 10.300(3)
_cell_length_c 10.806(3)
_cell_angle_alpha 118.308(4)
_cell_angle_beta 106.121(4)
_cell_angle_gamma 94.752(4)
_cell_formula_units_Z 2
loop_
_atom_type_symbol
_atom_type_radius_bond
C 0.68
H 0.23
N 0.68
O 0.68
loop_
_atom_site_label
_atom_site_type_symbol
_atom_site_fract_x
_atom_site_fract_y
_atom_site_fract_z
O1 O 0.25988(16) 0.57479(13) 1.54128(12)
H1 H 0.279(3) 0.570(2) 1.620(2)
O2 O 0.57027(16) 0.89004(12) 1.58879(13)
H2 H 0.616(3) 0.856(2) 1.521(2)
O3 O 0.32766(13) 0.56722(10) 0.80035(10)
O4 O 0.27749(13) 0.31197(10) 0.64991(10)
N1 N 0.22183(14) 0.67494(12) 1.30292(11)
N2 N 0.23771(15) 0.17622(12) 0.65622(12)
C1 C 0.2172(2) 0.77492(17) 1.45556(15)
H3 H 0.100(2) 0.7365(19) 1.4515(18)
H4 H 0.228(2) 0.8799(19) 1.4726(18)
C2 C 0.15598(17) 0.52143(14) 1.23113(14)
H5 H 0.10120 0.48030 1.27680
C3 C 0.16706(17) 0.42517(13) 1.09448(13)
H6 H 0.12160 0.31830 1.04750
C4 C 0.24560(15) 0.48273(13) 1.02186(13)
C5 C 0.30747(16) 0.64389(14) 1.09864(14)
H7 H 0.35770 0.68890 1.05370
C6 C 0.29576(17) 0.73526(14) 1.23653(14)
H8 H 0.34010 0.84260 1.28660
C7 C 0.25792(16) 0.38612(13) 0.87753(13)
C8 C 0.22556(16) 0.22344(13) 0.78921(13)
C9 C 0.29285(17) 0.43917(14) 0.78490(13)
C10 C 0.18952(16) 0.10395(13) 0.82632(13)
C11 C 0.30317(17) 0.11584(14) 0.95826(14)
H9 H 0.40080 0.20340 1.02820
C12 C 0.27265(19) -0.00122(16) 0.98656(16)
H10 H 0.34890 0.00740 1.07640
C13 C 0.13085(19) -0.13065(15) 0.88351(17)
H11 H 0.11170 -0.21060 0.90270
C14 C 0.01746(19) -0.14314(15) 0.75284(16)
H12 H -0.07930 -0.23140 0.68290
C15 C 0.04576(17) -0.02582(14) 0.72421(14)
H13 H -0.03270 -0.03410 0.63530
C16 C 0.4297(4) 0.6598(3) 1.5660(3)
H14 H 0.47010 0.60280 1.48080
H15 H 0.52270 0.68010 1.66000
C17 C 0.3980(4) 0.8077(4) 1.5784(3)
H16 H 0.38400 0.86950 1.67770
C18? C 0.5179(4) 0.7448(3) 1.5785(3)
H17? H 0.59720 0.74470 1.66690
H18? H 0.52320 0.65890 1.48560
C19? C 0.3257(4) 0.7339(4) 1.5751(3)
H19? H 0.32690 0.80950 1.67710
#END
