
#######################################################################
#
#                 Cambridge Crystallographic Data Centre
#                                CCDC
#
#######################################################################
#
# If this CIF has been generated from an entry in the Cambridge
# Structural Database, then it will include bibliographic, chemical,
# crystal, experimental, refinement or atomic coordinate data resulting
# from the CCDC's data processing and validation procedures.
#
#######################################################################

data_CSD_CIF_ECIQAK
_audit_creation_date 2013-03-18
_audit_creation_method CSD-ConQuest-V1
_database_code_CSD ECIQAK
_database_code_depnum_ccdc_archive 'CCDC 905452'
_chemical_formula_sum 'C31 H21 N1 O5'
_chemical_formula_moiety
;
C31 H21 N1 O5
;
_journal_coden_Cambridge 177
_journal_volume 10
_journal_year 2012
_journal_page_first 9344
_journal_name_full 'Org.Biomol.Chem. '
loop_
_publ_author_name
"V.O.Iaroshenko"
"I.Savych"
"A.Villinger"
"V.Ya.Sosnovskikh"
"P.Langer"
_chemical_name_systematic
;
4-(2-Hydroxybenzoyl)-2,6-diphenyl-3-(4-nitrophenyl)phenol
;
_chemical_melting_point 504.15
_cell_volume  10010.229
_exptl_crystal_colour 'yellow'
_exptl_crystal_density_diffrn 1.294
_exptl_special_details
;
Melting point range 504.15-508.15K

;
_exptl_crystal_description 'needle'
_diffrn_ambient_temperature 173
#These two values have been output from a single CSD field.
_refine_ls_R_factor_gt 0.0519
_refine_ls_wR_factor_gt 0.0519
_symmetry_cell_setting orthorhombic
_symmetry_space_group_name_H-M 'F d d 2'
_symmetry_Int_Tables_number 43
loop_
_symmetry_equiv_pos_site_id
_symmetry_equiv_pos_as_xyz
1 x,y,z
2 -x,-y,z
3 1/4+x,1/4-y,1/4+z
4 1/4-x,1/4+y,1/4+z
5 x,1/2+y,1/2+z
6 -x,1/2-y,1/2+z
7 1/4+x,3/4-y,3/4+z
8 1/4-x,3/4+y,3/4+z
9 1/2+x,y,1/2+z
10 1/2-x,-y,1/2+z
11 3/4+x,1/4-y,3/4+z
12 3/4-x,1/4+y,3/4+z
13 1/2+x,1/2+y,z
14 1/2-x,1/2-y,z
15 3/4+x,3/4-y,1/4+z
16 3/4-x,3/4+y,1/4+z
_cell_length_a 36.4369(12)
_cell_length_b 40.2125(14)
_cell_length_c 6.8319(2)
_cell_angle_alpha 90
_cell_angle_beta 90
_cell_angle_gamma 90
_cell_formula_units_Z 16
loop_
_atom_type_symbol
_atom_type_radius_bond
C 0.68
H 0.23
N 0.68
O 0.68
loop_
_atom_site_label
_atom_site_type_symbol
_atom_site_fract_x
_atom_site_fract_y
_atom_site_fract_z
N1 N 0.23319(6) 0.16983(6) 0.9819(3)
O1 O 0.34352(5) 0.09378(4) 0.5395(2)
O2 O 0.32236(5) 0.03426(4) 0.4629(2)
O3 O 0.40295(5) 0.22094(4) 0.1082(2)
O4 O 0.24100(5) 0.18187(6) 1.1408(3)
O5 O 0.20255(5) 0.15924(5) 0.9416(3)
C1 C 0.38683(6) 0.19268(6) 0.1760(3)
C2 C 0.36137(6) 0.19382(5) 0.3313(3)
C3 C 0.34443(6) 0.16443(6) 0.3927(3)
C4 C 0.35269(6) 0.13456(5) 0.2952(3)
C5 C 0.37752(6) 0.13454(5) 0.1401(3)
H1 H 0.38240 0.11420 0.07450
C6 C 0.39542(6) 0.16313(5) 0.0777(3)
C7 C 0.35227(6) 0.22704(6) 0.4181(3)
C8 C 0.37647(7) 0.24304(6) 0.5420(4)
H2 H 0.39930 0.23290 0.57340
C9 C 0.36775(8) 0.27383(7) 0.6210(4)
H3 H 0.38470 0.28470 0.70540
C10 C 0.33503(9) 0.28870(7) 0.5782(4)
H4 H 0.32920 0.30980 0.63210
C11 C 0.31039(10) 0.27284(8) 0.4561(4)
H5 H 0.28750 0.28300 0.42630
C12 C 0.31911(8) 0.24208(7) 0.3772(4)
H6 H 0.30200 0.23120 0.29380
C13 C 0.31613(6) 0.16523(5) 0.5504(3)
C14 C 0.32337(6) 0.17935(6) 0.7332(3)
H7 H 0.34710 0.18800 0.76040
C15 C 0.29635(6) 0.18080(6) 0.8746(3)
H8 H 0.30120 0.19050 0.99860
C16 C 0.26219(6) 0.16789(6) 0.8330(3)
C17 C 0.25411(6) 0.15335(6) 0.6550(3)
H9 H 0.23040 0.14440 0.62990
C18 C 0.28129(6) 0.15209(6) 0.5145(3)
H10 H 0.27620 0.14210 0.39130
C19 C 0.33886(6) 0.10194(6) 0.3668(3)
C20 C 0.32028(6) 0.07922(6) 0.2282(3)
C21 C 0.31273(6) 0.04631(6) 0.2842(3)
C22 C 0.29493(7) 0.02506(6) 0.1551(4)
H11 H 0.29020 0.00270 0.19220
C23 C 0.28412(6) 0.03628(6) -0.0262(4)
H12 H 0.27210 0.02150 -0.11360
C24 C 0.29059(6) 0.06891(6) -0.0831(3)
H13 H 0.28260 0.07660 -0.20750
C25 C 0.30871(6) 0.08999(6) 0.0429(3)
H14 H 0.31350 0.11220 0.00360
C26 C 0.42064(6) 0.16209(6) -0.0929(3)
C27 C 0.41210(6) 0.14261(6) -0.2550(3)
H15 H 0.39040 0.12950 -0.25460
C28 C 0.43506(7) 0.14219(7) -0.4176(3)
H16 H 0.42910 0.12860 -0.52680
C29 C 0.46642(7) 0.16137(7) -0.4216(3)
H17 H 0.48160 0.16170 -0.53470
C30 C 0.47562(7) 0.18017(7) -0.2597(4)
H18 H 0.49750 0.19300 -0.26060
C31 C 0.45319(6) 0.18051(6) -0.0958(3)
H19 H 0.46000 0.19330 0.01530
H20 H 0.3998(9) 0.2367(8) 0.193(5)
H21 H 0.3325(10) 0.0516(10) 0.536(6)
#END
