
#######################################################################
#
#                 Cambridge Crystallographic Data Centre
#                                CCDC
#
#######################################################################
#
# If this CIF has been generated from an entry in the Cambridge
# Structural Database, then it will include bibliographic, chemical,
# crystal, experimental, refinement or atomic coordinate data resulting
# from the CCDC's data processing and validation procedures.
#
#######################################################################

data_CSD_CIF_ECUMUN
_audit_creation_date 2017-10-16
_audit_creation_method CSD-ConQuest-V1
_database_code_CSD ECUMUN
_database_code_depnum_ccdc_archive 'CCDC 1491708'
_chemical_formula_sum 'C22 H21 N1 O1'
_chemical_formula_moiety
;
C22 H21 N1 O1
;
_journal_coden_Cambridge 1336
_journal_volume 19
_journal_year 2017
_journal_page_first 5086
_journal_name_full 'Org.Lett. '
loop_
_publ_author_name
"Lewei Zheng"
"Fei Gao"
"Chao Yang"
"Guo-Lin Gao"
"Yating Zhao"
"Yuan Gao"
"Wujiong Xia"
_chemical_name_systematic
;
5-methyl-2,3,4-triphenyl-1,2-oxazolidine
;
_cell_volume    879.820
_exptl_crystal_colour 'colorless'
_exptl_crystal_density_diffrn 1.191
_exptl_crystal_description 'block'
_diffrn_ambient_temperature 293
#These two values have been output from a single CSD field.
_refine_ls_R_factor_gt 0.0495
_refine_ls_wR_factor_gt 0.0495
_symmetry_cell_setting triclinic
_symmetry_space_group_name_H-M 'P -1'
_symmetry_Int_Tables_number 2
loop_
_symmetry_equiv_pos_site_id
_symmetry_equiv_pos_as_xyz
1 x,y,z
2 -x,-y,-z
_cell_length_a 8.4694(7)
_cell_length_b 9.9145(8)
_cell_length_c 11.0455(8)
_cell_angle_alpha 104.210(7)
_cell_angle_beta 93.496(6)
_cell_angle_gamma 100.126(7)
_cell_formula_units_Z 2
loop_
_atom_type_symbol
_atom_type_radius_bond
C 0.68
H 0.23
N 0.68
O 0.68
loop_
_atom_site_label
_atom_site_type_symbol
_atom_site_fract_x
_atom_site_fract_y
_atom_site_fract_z
O1 O 0.02310(15) 0.30909(15) 0.41623(12)
N1 N -0.14362(18) 0.29712(16) 0.44321(13)
C1 C -0.2454(2) 0.25463(19) 0.32893(17)
C2 C -0.4078(2) 0.2024(2) 0.32877(19)
H1 H -0.44770 0.18970 0.40260
C3 C -0.5108(3) 0.1690(3) 0.2196(2)
H2 H -0.61990 0.13410 0.22070
C4 C -0.4551(3) 0.1865(3) 0.1095(2)
H3 H -0.52550 0.16330 0.03620
C5 C -0.2937(3) 0.2389(3) 0.1089(2)
H4 H -0.25480 0.25140 0.03470
C6 C -0.1889(3) 0.2732(2) 0.21769(18)
H5 H -0.08010 0.30890 0.21630
C7 C -0.2722(2) 0.2640(2) 0.63128(17)
C8 C -0.3718(3) 0.1689(3) 0.6797(2)
H6 H -0.37430 0.07230 0.64920
C9 C -0.4671(3) 0.2137(4) 0.7718(2)
H7 H -0.53300 0.14770 0.80300
C10 C -0.4649(3) 0.3541(4) 0.8171(2)
H8 H -0.52860 0.38460 0.88000
C11 C -0.3682(3) 0.4520(3) 0.7698(2)
H9 H -0.36780 0.54830 0.80010
C12 C -0.2712(2) 0.4067(2) 0.67653(19)
H10 H -0.20580 0.47270 0.64490
C13 C 0.0445(2) 0.2178(2) 0.72214(17)
C14 C 0.0716(3) 0.3433(2) 0.81537(19)
H11 H 0.06600 0.42770 0.79430
C15 C 0.1069(3) 0.3453(3) 0.9401(2)
H12 H 0.12420 0.43070 1.00180
C16 C 0.1166(3) 0.2225(3) 0.9727(2)
H13 H 0.14050 0.22410 1.05640
C17 C 0.0908(3) 0.0976(3) 0.8818(2)
H14 H 0.09710 0.01370 0.90350
C18 C 0.0554(3) 0.0954(2) 0.7579(2)
H15 H 0.03830 0.00940 0.69690
C19 C -0.1663(2) 0.2086(2) 0.53365(16)
H16 H -0.21700 0.11120 0.48770
C20 C 0.0106(2) 0.2109(2) 0.58438(17)
H17 H 0.03790 0.12210 0.53740
C21 C 0.1077(2) 0.3286(2) 0.53746(19)
H18 H 0.10430 0.42200 0.59230
C22 C 0.2785(3) 0.3147(4) 0.5184(3)
H19 H 0.27910 0.22470 0.46110
H20 H 0.33670 0.32080 0.59750
H21 H 0.32890 0.38970 0.48430
#END
