
#######################################################################
#
#                 Cambridge Crystallographic Data Centre
#                                CCDC
#
#######################################################################
#
# If this CIF has been generated from an entry in the Cambridge
# Structural Database, then it will include bibliographic, chemical,
# crystal, experimental, refinement or atomic coordinate data resulting
# from the CCDC's data processing and validation procedures.
#
#######################################################################

data_CSD_CIF_ECUPIE
_audit_creation_date 2017-10-16
_audit_creation_method CSD-ConQuest-V1
_database_code_CSD ECUPIE
_database_code_depnum_ccdc_archive 'CCDC 1548727'
_chemical_formula_sum 'C21 H22 N2 O4'
_chemical_formula_moiety
;
C21 H22 N2 O4
;
_journal_coden_Cambridge 1336
_journal_volume 19
_journal_year 2017
_journal_page_first 5034
_journal_name_full 'Org.Lett. '
loop_
_publ_author_name
"Y.Liu"
"A.De Nisi"
"A.Cerveri"
"M.Monari"
"M.Bandini"
_chemical_name_systematic
;
1-(4-hydroxy-4-(4-nitrophenyl)-2-phenylbut-1-en-1-yl)piperidin-2-one
;
_cell_volume   1867.612
_exptl_crystal_colour 'colorless'
_exptl_crystal_density_diffrn 1.303
_exptl_crystal_description 'block'
_diffrn_ambient_temperature 296
#These two values have been output from a single CSD field.
_refine_ls_R_factor_gt 0.0855
_refine_ls_wR_factor_gt 0.0855
_symmetry_cell_setting monoclinic
_symmetry_space_group_name_H-M 'P 21/n'
_symmetry_Int_Tables_number 14
loop_
_symmetry_equiv_pos_site_id
_symmetry_equiv_pos_as_xyz
1 x,y,z
2 1/2-x,1/2+y,1/2-z
3 -x,-y,-z
4 -1/2+x,-1/2-y,-1/2+z
_cell_length_a 5.6474(14)
_cell_length_b 15.192(4)
_cell_length_c 21.790(5)
_cell_angle_alpha 90
_cell_angle_beta 92.561(7)
_cell_angle_gamma 90
_cell_formula_units_Z 4
loop_
_atom_type_symbol
_atom_type_radius_bond
C 0.68
H 0.23
N 0.68
O 0.68
loop_
_atom_site_label
_atom_site_type_symbol
_atom_site_fract_x
_atom_site_fract_y
_atom_site_fract_z
O1 O 0.8843(4) 0.57687(14) 0.27393(10)
O2 O 0.5266(4) 0.94030(14) 0.30114(11)
N1 N 0.7768(4) 0.82674(16) 0.30596(12)
C1 C 0.6077(5) 0.50611(17) 0.33922(13)
C2 C 0.4866(5) 0.69220(18) 0.17855(14)
C3 C 0.6425(5) 0.56408(18) 0.28411(13)
H1 H 0.56600 0.53660 0.24770
C4 C 0.5708(5) 0.71735(19) 0.24155(14)
C5 C 0.6985(6) 0.9037(2) 0.32654(15)
C6 C 0.5322(5) 0.65462(18) 0.29375(13)
H2 H 0.36320 0.64760 0.29850
H3 H 0.59970 0.67990 0.33150
C7 C 0.6187(5) 0.7120(2) 0.12887(15)
H4 H 0.76420 0.74000 0.13510
C8 C 0.6723(5) 0.7951(2) 0.24966(15)
H5 H 0.67580 0.83210 0.21570
C9 C 0.4099(5) 0.4536(2) 0.34247(15)
H6 H 0.30200 0.45090 0.30900
C10 C 0.5333(8) 0.4081(2) 0.44201(16)
C11 C 0.7707(6) 0.5049(2) 0.38780(15)
H7 H 0.90860 0.53800 0.38570
C12 C 0.2743(5) 0.6495(2) 0.16726(16)
H8 H 0.18160 0.63470 0.19990
N2 N 0.4917(11) 0.3598(2) 0.49901(18)
C13 C 1.0037(6) 0.7864(2) 0.32714(16)
H9 H 1.12730 0.80500 0.30050
H10 H 0.99030 0.72290 0.32440
C14 C 0.1975(6) 0.6287(2) 0.10834(19)
H11 H 0.05360 0.59980 0.10150
C15 C 1.0611(6) 0.9086(2) 0.39993(18)
H12 H 1.17620 0.93660 0.37460
H13 H 1.10130 0.92290 0.44250
C16 C 0.3690(7) 0.4053(2) 0.39394(18)
H14 H 0.23260 0.37140 0.39620
C17 C 0.3294(6) 0.6498(2) 0.06018(17)
H15 H 0.27600 0.63590 0.02040
C18 C 0.5398(7) 0.6911(3) 0.07036(16)
H16 H 0.63130 0.70550 0.03740
C19 C 0.8190(6) 0.9427(2) 0.38275(17)
H17 H 0.83030 1.00580 0.37680
H18 H 0.71890 0.93290 0.41710
O3 O 0.2919(11) 0.3311(3) 0.50535(16)
C20 C 0.7346(7) 0.4559(3) 0.43949(17)
H19 H 0.84640 0.45560 0.47210
O4 O 0.6494(9) 0.3551(3) 0.53756(19)
C21 C 1.0712(7) 0.8114(2) 0.39137(18)
H20 H 1.23060 0.79080 0.40170
H21 H 0.96460 0.78320 0.41900
H22 H 0.941(7) 0.536(3) 0.2548(18)
#END
