
#######################################################################
#
#                 Cambridge Crystallographic Data Centre
#                                CCDC
#
#######################################################################
#
# If this CIF has been generated from an entry in the Cambridge
# Structural Database, then it will include bibliographic, chemical,
# crystal, experimental, refinement or atomic coordinate data resulting
# from the CCDC's data processing and validation procedures.
#
#######################################################################

data_CSD_CIF_ECUXUW
_audit_creation_date 2006-05-29
_audit_creation_method CSD-ConQuest-V1
_database_code_CSD ECUXUW
_database_code_depnum_ccdc_archive 'CCDC 257823'
_chemical_formula_sum 'C4 H5 N3 O6'
_chemical_formula_moiety
;
C4 H5 N3 O6
;
_journal_coden_Cambridge 206
_journal_volume 35
_journal_year 2005
_journal_page_first 2709
_journal_name_full 'Synth.Commun. '
loop_
_publ_author_name
"R.Duddu"
"P.R.Dave"
"R.Damavarapu"
"R.Surapaneni"
"R.Gilardi"
_chemical_name_systematic
;
1,1,3-trinitrocyclobutane
;
_chemical_melting_point 371
_cell_volume    713.195
_exptl_crystal_colour 'colorless'
_exptl_crystal_density_diffrn 1.78
_exptl_special_details
;
Melting point range 371-373K

;
_exptl_crystal_description 'chunk'
_exptl_crystal_preparation 'ethyl acetate/hexane'
_diffrn_ambient_temperature 103
#These two values have been output from a single CSD field.
_refine_ls_R_factor_gt 0.0302
_refine_ls_wR_factor_gt 0.0302
_symmetry_cell_setting monoclinic
_symmetry_space_group_name_H-M 'P 21/c'
_symmetry_Int_Tables_number 14
loop_
_symmetry_equiv_pos_site_id
_symmetry_equiv_pos_as_xyz
1 x,y,z
2 -x,1/2+y,1/2-z
3 -x,-y,-z
4 x,-1/2-y,-1/2+z
_cell_length_a 11.5549(10)
_cell_length_b 5.7020(5)
_cell_length_c 11.2972(10)
_cell_angle_alpha 90
_cell_angle_beta 106.630(1)
_cell_angle_gamma 90
_cell_formula_units_Z 4
loop_
_atom_type_symbol
_atom_type_radius_bond
C 0.68
H 0.23
N 0.68
O 0.68
loop_
_atom_site_label
_atom_site_type_symbol
_atom_site_fract_x
_atom_site_fract_y
_atom_site_fract_z
C1 C 0.29490(9) 0.37786(17) 0.65724(9)
N1 N 0.32563(8) 0.12349(15) 0.64004(8)
O1 O 0.27925(7) -0.01974(14) 0.69282(7)
O2 O 0.39236(7) 0.07872(14) 0.57655(7)
N2 N 0.36050(8) 0.51617(15) 0.58331(8)
O3 O 0.46472(7) 0.57055(15) 0.63595(8)
O4 O 0.30545(7) 0.56006(14) 0.47598(7)
C2 C 0.31683(9) 0.44200(18) 0.79402(9)
H1 H 0.3405(12) 0.604(2) 0.8072(12)
H2 H 0.3697(12) 0.344(2) 0.8519(12)
C3 C 0.17934(9) 0.40417(18) 0.77289(9)
H3 H 0.1595(12) 0.262(2) 0.8031(13)
N3 N 0.11900(8) 0.58957(16) 0.82884(8)
O5 O 0.11475(7) 0.55407(15) 0.93476(7)
O6 O 0.07920(7) 0.76503(14) 0.76845(7)
C4 C 0.15833(9) 0.41705(19) 0.63223(9)
H4 H 0.1063(13) 0.304(3) 0.5821(13)
H5 H 0.1366(12) 0.573(3) 0.6008(12)
#END
