
#######################################################################
#
#                 Cambridge Crystallographic Data Centre
#                                CCDC
#
#######################################################################
#
# If this CIF has been generated from an entry in the Cambridge
# Structural Database, then it will include bibliographic, chemical,
# crystal, experimental, refinement or atomic coordinate data resulting
# from the CCDC's data processing and validation procedures.
#
#######################################################################

data_CSD_CIF_ECUYUX
_audit_creation_date 2006-05-29
_audit_creation_method CSD-ConQuest-V1
_database_code_CSD ECUYUX
_database_code_depnum_ccdc_archive 'CCDC 262062'
_chemical_formula_sum 'C21 H15 N3 O5'
_chemical_formula_moiety
;
C21 H15 N3 O5
;
_journal_coden_Cambridge 504
_journal_volume 61
_journal_year 2006
_journal_page_first 4
_journal_name_full 'Pharmazie '
loop_
_publ_author_name
"K.Gorlitzer"
"C.Enge"
"P.G.Jones"
_chemical_name_systematic
;
methyl 2-methyl-4-(2-nitrophenyl)pyrido[2,3-b][1,5]benzoxazepin-3-carboxylate
;
_cell_volume   1808.657
_exptl_crystal_colour 'brown'
_exptl_crystal_density_diffrn 1.43
_exptl_crystal_description 'tablet'
_diffrn_ambient_temperature 133
#These two values have been output from a single CSD field.
_refine_ls_R_factor_gt 0.0408
_refine_ls_wR_factor_gt 0.0408
_symmetry_cell_setting monoclinic
_symmetry_space_group_name_H-M 'P 21/n'
_symmetry_Int_Tables_number 14
loop_
_symmetry_equiv_pos_site_id
_symmetry_equiv_pos_as_xyz
1 x,y,z
2 1/2-x,1/2+y,1/2-z
3 -x,-y,-z
4 -1/2+x,-1/2-y,-1/2+z
_cell_length_a 11.2798(6)
_cell_length_b 8.0138(4)
_cell_length_c 20.1417(12)
_cell_angle_alpha 90
_cell_angle_beta 96.591(4)
_cell_angle_gamma 90
_cell_formula_units_Z 4
loop_
_atom_type_symbol
_atom_type_radius_bond
C 0.68
H 0.23
N 0.68
O 0.68
loop_
_atom_site_label
_atom_site_type_symbol
_atom_site_fract_x
_atom_site_fract_y
_atom_site_fract_z
N1 N 0.20102(10) 0.17721(14) 0.22456(5)
C1 C 0.11997(12) 0.21196(16) 0.26644(6)
C2 C 0.15393(12) 0.24392(15) 0.33442(6)
C3 C 0.36015(12) 0.21163(15) 0.31425(6)
C4 C 0.27550(12) 0.24552(15) 0.35829(6)
C5 C 0.48762(12) 0.19481(17) 0.33936(7)
H1 H 0.50300 0.16500 0.38520
N2 N 0.58059(11) 0.21378(15) 0.30955(6)
C6 C 0.57518(12) 0.26616(17) 0.24233(7)
C7 C 0.67224(13) 0.3583(2) 0.22491(8)
H2 H 0.73710 0.38140 0.25800
C8 C 0.67580(14) 0.41645(19) 0.16055(8)
H3 H 0.74200 0.48050 0.15000
C9 C 0.58255(14) 0.38122(19) 0.11139(8)
H4 H 0.58490 0.42080 0.06710
C10 C 0.48589(14) 0.28797(19) 0.12712(7)
H5 H 0.42200 0.26340 0.09360
C11 C 0.48282(13) 0.23080(17) 0.19182(7)
O1 O 0.38933(9) 0.12404(12) 0.20291(5)
C12 C 0.31506(12) 0.17636(16) 0.24834(6)
C13 C -0.00706(13) 0.2154(2) 0.23395(7)
H6 H -0.03290 0.33150 0.22690
H7 H -0.05870 0.15950 0.26300
H8 H -0.01220 0.15770 0.19080
C14 C 0.06575(12) 0.26971(17) 0.38395(7)
O2 O 0.07815(9) 0.21255(15) 0.43957(5)
O3 O -0.02717(9) 0.36311(14) 0.35980(5)
C15 C -0.11652(15) 0.3922(2) 0.40476(9)
H9 H -0.15590 0.28670 0.41330
H10 H -0.17590 0.47180 0.38430
H11 H -0.07820 0.43790 0.44700
C16 C 0.31510(11) 0.30626(15) 0.42767(6)
C17 C 0.33869(12) 0.20802(15) 0.48490(6)
C18 C 0.36865(12) 0.27513(17) 0.54790(6)
H12 H 0.38470 0.20450 0.58570
C19 C 0.37488(12) 0.44663(17) 0.55489(6)
H13 H 0.39530 0.49490 0.59770
C20 C 0.35124(12) 0.54776(16) 0.49923(7)
H14 H 0.35490 0.66560 0.50420
C21 C 0.32234(11) 0.47876(16) 0.43628(6)
H15 H 0.30730 0.55000 0.39850
N3 N 0.32743(12) 0.02621(14) 0.48029(6)
O4 O 0.32850(13) -0.04130(13) 0.42607(5)
O5 O 0.31706(14) -0.05077(14) 0.53193(6)
#END
