
#######################################################################
#
#                 Cambridge Crystallographic Data Centre
#                                CCDC
#
#######################################################################
#
# If this CIF has been generated from an entry in the Cambridge
# Structural Database, then it will include bibliographic, chemical,
# crystal, experimental, refinement or atomic coordinate data resulting
# from the CCDC's data processing and validation procedures.
#
#######################################################################

data_CSD_CIF_EDARUX
_audit_creation_date 2007-09-06
_audit_creation_method CSD-ConQuest-V1
_database_code_CSD EDARUX
_database_code_depnum_ccdc_archive 'CCDC 617556'
_chemical_formula_sum 'C25 H16 N2 O2'
_chemical_formula_moiety
;
C25 H16 N2 O2
;
_journal_coden_Cambridge 580
_journal_volume 26
_journal_year 2007
_journal_page_first 1793
_journal_name_full 'Polyhedron '
loop_
_publ_author_name
"T.Ishida"
"M.Ooishi"
"N.Ishii"
"H.Mori"
"T.Nogami"
_chemical_name_systematic
;
9,9'(10H,10'H)-spirobiacridine-10,10'-dioxyl
;
_chemical_melting_point 499.15
_cell_volume    922.210
_exptl_crystal_colour 'brown'
_exptl_crystal_density_diffrn 1.355
_exptl_special_details
;
Melting point range 499.15-500.15K

;
_exptl_crystal_description 'platelet'
_diffrn_ambient_temperature 293
#These two values have been output from a single CSD field.
_refine_ls_R_factor_gt 0.0443
_refine_ls_wR_factor_gt 0.0443
_symmetry_cell_setting triclinic
_symmetry_space_group_name_H-M 'P -1'
_symmetry_Int_Tables_number 2
loop_
_symmetry_equiv_pos_site_id
_symmetry_equiv_pos_as_xyz
1 x,y,z
2 -x,-y,-z
_cell_length_a 8.4741(14)
_cell_length_b 9.0232(17)
_cell_length_c 13.534(2)
_cell_angle_alpha 96.599(15)
_cell_angle_beta 93.736(14)
_cell_angle_gamma 115.254(14)
_cell_formula_units_Z 2
loop_
_atom_type_symbol
_atom_type_radius_bond
C 0.68
H 0.23
N 0.68
O 0.68
loop_
_atom_site_label
_atom_site_type_symbol
_atom_site_fract_x
_atom_site_fract_y
_atom_site_fract_z
O1 O -0.18597(17) -0.13834(14) 0.04197(9)
O2 O 0.42881(19) 0.64947(18) 0.50794(10)
N1 N -0.08883(17) -0.01369(16) 0.10999(9)
N2 N 0.33678(18) 0.53307(17) 0.4351(1)
C1 C -0.1311(2) 0.12051(19) 0.12783(11)
C2 C -0.2779(2) 0.1166(2) 0.07122(14)
C3 C -0.3200(2) 0.2464(3) 0.08729(19)
C4 C -0.2189(2) 0.3828(3) 0.1584(2)
C5 C -0.0745(2) 0.3869(2) 0.21415(16)
C6 C -0.02808(19) 0.25725(19) 0.20067(11)
C7 C 0.12819(18) 0.26631(18) 0.26790(11)
C8 C 0.1647(2) 0.11635(18) 0.23911(11)
C9 C 0.3097(2) 0.1090(2) 0.28873(13)
C10 C 0.3465(2) -0.0247(2) 0.26592(17)
C11 C 0.2364(2) -0.1564(2) 0.19329(16)
C12 C 0.0931(2) -0.1533(2) 0.14244(13)
C13 C 0.0573(2) -0.01655(18) 0.16456(11)
C14 C 0.1856(2) 0.3969(2) 0.45340(12)
C15 C 0.1394(2) 0.3938(2) 0.55086(12)
C16 C -0.0060(3) 0.2634(2) 0.57060(16)
C17 C -0.1102(3) 0.1348(2) 0.49502(16)
C18 C -0.0648(2) 0.1387(2) 0.39858(14)
C19 C 0.0840(2) 0.2680(2) 0.37604(12)
C20 C 0.29110(19) 0.42344(18) 0.25711(11)
C21 C 0.3460(2) 0.4449(2) 0.16248(12)
C22 C 0.4937(2) 0.5845(2) 0.14978(13)
C23 C 0.5882(2) 0.7037(2) 0.23153(14)
C24 C 0.5378(2) 0.6871(2) 0.32518(14)
C25 C 0.3874(2) 0.54644(19) 0.33796(12)
H1 H -0.341(2) 0.022(2) 0.0201(14)
H2 H -0.421(3) 0.242(2) 0.0492(17)
H3 H -0.243(3) 0.477(3) 0.1715(19)
H4 H -0.006(2) 0.482(2) 0.2643(14)
H5 H 0.387(2) 0.204(2) 0.3400(14)
H6 H 0.457(2) -0.021(2) 0.3029(14)
H7 H 0.261(2) -0.246(2) 0.1739(14)
H8 H 0.012(2) -0.245(2) 0.0910(13)
H9 H 0.217(2) 0.488(2) 0.6038(14)
H10 H -0.033(2) 0.264(2) 0.6337(17)
H11 H -0.218(2) 0.052(2) 0.5081(15)
H12 H -0.139(2) 0.042(2) 0.3416(15)
H13 H 0.281(2) 0.356(2) 0.1042(13)
H14 H 0.537(2) 0.600(2) 0.0825(14)
H15 H 0.693(2) 0.801(2) 0.2254(13)
H16 H 0.596(2) 0.772(2) 0.3870(15)
#END
