
#######################################################################
#
#                 Cambridge Crystallographic Data Centre
#                                CCDC
#
#######################################################################
#
# If this CIF has been generated from an entry in the Cambridge
# Structural Database, then it will include bibliographic, chemical,
# crystal, experimental, refinement or atomic coordinate data resulting
# from the CCDC's data processing and validation procedures.
#
#######################################################################

data_CSD_CIF_EDASOR
_audit_creation_date 2002-01-23
_audit_creation_method CSD-ConQuest-V1
_database_code_CSD EDASOR
_database_code_depnum_ccdc_archive 'CCDC 175352'
_chemical_formula_sum 'C13 H9 N5 O2'
_chemical_formula_moiety
;
C13 H9 N5 O2
;
_journal_coeditor_code "IUCr BT6074"
_journal_coden_Cambridge 1370
_journal_volume 57
_journal_year 2001
_journal_page_first o919
_journal_name_full 'Acta Crystallogr.,Sect.E:Struct.Rep.Online '
loop_
_publ_author_name
"J.G.O'Brien"
"K.E.Grousnick"
"R.G.Baughman"
_chemical_name_systematic
;
2-Cyano-2'-nitrodiazoaminobenzene
;
_cell_volume    635.203
_exptl_crystal_colour 'yellow'
_exptl_crystal_density_diffrn 1.397
_exptl_crystal_description 'triangular plate'
_exptl_crystal_preparation 'diethyl ether/chloroform'
_diffrn_ambient_temperature 293
#These two values have been output from a single CSD field.
_refine_ls_R_factor_gt 0.0581
_refine_ls_wR_factor_gt 0.0581
_symmetry_cell_setting triclinic
_symmetry_space_group_name_H-M 'P -1'
_symmetry_Int_Tables_number 2
loop_
_symmetry_equiv_pos_site_id
_symmetry_equiv_pos_as_xyz
1 x,y,z
2 -x,-y,-z
_cell_length_a 7.208(1)
_cell_length_b 8.0106(12)
_cell_length_c 12.256(2)
_cell_angle_alpha 79.099(7)
_cell_angle_beta 74.695(4)
_cell_angle_gamma 69.379(6)
_cell_formula_units_Z 2
loop_
_atom_type_symbol
_atom_type_radius_bond
C 0.68
H 0.23
N 0.68
O 0.68
loop_
_atom_site_label
_atom_site_type_symbol
_atom_site_fract_x
_atom_site_fract_y
_atom_site_fract_z
O1 O 0.3083(5) 0.6944(3) -0.2649(2)
O2 O 0.2033(5) 0.5725(3) -0.1002(2)
N1 N 0.2658(4) 0.5679(4) -0.2040(2)
N2 N 0.2488(4) 0.2286(3) -0.0713(2)
H1 H 0.2288(4) 0.3225(3) -0.0344(2)
N3 N 0.2477(4) 0.0702(3) -0.0127(2)
N4 N 0.2169(4) 0.0749(3) 0.0928(2)
N5 N 0.1155(6) 0.1816(5) 0.3704(3)
C1 C 0.2831(4) 0.2480(4) -0.1885(2)
C2 C 0.2911(4) 0.4098(4) -0.2553(2)
C3 C 0.3264(5) 0.4244(4) -0.3731(3)
H2 H 0.3310(5) 0.5365(4) -0.4171(3)
C4 C 0.3542(5) 0.2809(4) -0.4278(3)
H3 H 0.3799(5) 0.2912(4) -0.5093(3)
C5 C 0.3464(5) 0.1190(4) -0.3631(3)
H4 H 0.3648(5) 0.0184(4) -0.4012(3)
C6 C 0.3139(5) 0.1017(4) -0.2468(3)
H5 H 0.3096(5) -0.0111(4) -0.2040(3)
C7 C 0.2128(5) -0.0914(4) 0.1567(2)
C8 C 0.1724(5) -0.0952(4) 0.2751(3)
C9 C 0.1613(5) -0.2514(4) 0.3447(3)
H6 H 0.1352(5) -0.2532(4) 0.4258(3)
C10 C 0.1906(5) -0.4028(5) 0.2980(3)
H7 H 0.1793(5) -0.5098(5) 0.3466(3)
C11 C 0.2325(6) -0.4011(4) 0.1813(3)
H8 H 0.2538(6) -0.5083(4) 0.1492(3)
C12 C 0.2428(5) -0.2470(4) 0.1107(3)
H9 H 0.2725(5) -0.2468(4) 0.0296(3)
C13 C 0.1418(5) 0.0627(5) 0.3260(3)
#END
