
#######################################################################
#
#                 Cambridge Crystallographic Data Centre
#                                CCDC
#
#######################################################################
#
# If this CIF has been generated from an entry in the Cambridge
# Structural Database, then it will include bibliographic, chemical,
# crystal, experimental, refinement or atomic coordinate data resulting
# from the CCDC's data processing and validation procedures.
#
#######################################################################

data_CSD_CIF_EDASEH
_audit_creation_date 2002-01-23
_audit_creation_method CSD-ConQuest-V1
_database_code_CSD EDASEH
_database_code_depnum_ccdc_archive 'CCDC 175350'
_chemical_formula_sum 'C5 H6 N4 O7'
_chemical_formula_moiety
;
C5 H6 N4 O7
;
_journal_coeditor_code "IUCr OM6044"
_journal_coden_Cambridge 1370
_journal_volume 57
_journal_year 2001
_journal_page_first o913
_journal_name_full 'Acta Crystallogr.,Sect.E:Struct.Rep.Online '
loop_
_publ_author_name
"R.D.Gilardi"
"R.J.Butcher"
_chemical_name_systematic
;
2,5-Dinitro-7,9-dioxa-2,5-diazabicyclo(4.3.0)nonan-8-one
;
_cell_volume    850.613
_exptl_crystal_colour 'colorless'
_exptl_crystal_density_diffrn 1.828
_exptl_crystal_description 'plate'
_diffrn_ambient_temperature 293
_refine_special_details
;
C3 and C4 are each disordered over two positions with occupancies 
;
#These two values have been output from a single CSD field.
_refine_ls_R_factor_gt 0.0455
_refine_ls_wR_factor_gt 0.0455
_symmetry_cell_setting orthorhombic
_symmetry_space_group_name_H-M 'P n a 21'
_symmetry_Int_Tables_number 33
loop_
_symmetry_equiv_pos_site_id
_symmetry_equiv_pos_as_xyz
1 x,y,z
2 -x,-y,1/2+z
3 1/2+x,1/2-y,z
4 1/2-x,1/2+y,1/2+z
_cell_length_a 14.609(2)
_cell_length_b 8.4266(12)
_cell_length_c 6.9097(8)
_cell_angle_alpha 90
_cell_angle_beta 90
_cell_angle_gamma 90
_cell_formula_units_Z 4
loop_
_atom_type_symbol
_atom_type_radius_bond
C 0.68
H 0.23
N 0.68
O 0.68
loop_
_atom_site_label
_atom_site_type_symbol
_atom_site_fract_x
_atom_site_fract_y
_atom_site_fract_z
C1 C 0.3886(3) 0.1680(5) 0.2406(8)
H1 H 0.40020 0.19270 0.37700
N1 N 0.3125(3) 0.2561(6) 0.1730(7)
C2 C 0.3059(5) 0.290(1) -0.0363(10)
H2 H 0.30650 0.19190 -0.10970
H3 H 0.24940 0.34600 -0.06450
C3 C 0.3848(5) 0.3879(9) -0.0876(13)
H4 H 0.38100 0.48950 -0.02210
H5 H 0.38530 0.40710 -0.22600
N2 N 0.4697(3) 0.3044(5) -0.0293(8)
C4 C 0.4766(3) 0.1917(5) 0.1218(8)
H6 H 0.52760 0.21920 0.20770
O1 O 0.4915(3) 0.0358(4) 0.0382(8)
C5 C 0.4323(3) -0.0699(6) 0.1083(8)
O2 O 0.4364(3) -0.2070(4) 0.0759(7)
O3 O 0.3697(2) 0.0002(4) 0.2185(6)
C6? C 0.3122(7) 0.3628(17) 0.0065(15)
H7? H 0.25210 0.36170 -0.05320
H8? H 0.32460 0.47020 0.04970
C7? C 0.3807(5) 0.3159(17) -0.1359(12)
H9? H 0.38480 0.39440 -0.23830
H10? H 0.36490 0.21440 -0.19290
N3 N 0.2585(3) 0.3273(6) 0.3134(9)
O4 O 0.2037(3) 0.4269(5) 0.2554(9)
O5 O 0.2681(3) 0.2838(7) 0.4779(8)
N4 N 0.5444(3) 0.3976(5) -0.0631(8)
O6 O 0.5339(3) 0.5113(5) -0.1697(8)
O7 O 0.6160(3) 0.3612(5) 0.0127(7)
#END
