
#######################################################################
#
#                 Cambridge Crystallographic Data Centre
#                                CCDC
#
#######################################################################
#
# If this CIF has been generated from an entry in the Cambridge
# Structural Database, then it will include bibliographic, chemical,
# crystal, experimental, refinement or atomic coordinate data resulting
# from the CCDC's data processing and validation procedures.
#
#######################################################################

data_CSD_CIF_EDAYIR
_audit_creation_date 2002-01-23
_audit_creation_method CSD-ConQuest-V1
_database_code_CSD EDAYIR
_database_code_depnum_ccdc_archive 'CCDC 175375'
_chemical_formula_sum 'C16 H14 N4 O4'
_chemical_formula_moiety
;
C16 H14 N4 O4
;
_journal_coeditor_code "IUCr TK6038"
_journal_coden_Cambridge 1370
_journal_volume 57
_journal_year 2001
_journal_page_first o980
_journal_name_full 'Acta Crystallogr.,Sect.E:Struct.Rep.Online '
loop_
_publ_author_name
"D.W.Jeffery"
"R.H.Prager"
"M.R.Taylor"
_chemical_name_systematic
;
Ethyl 6-nitro-2-phenylaminoimidazo(1,2-a)pyridine-3-carboxylate
;
_chemical_melting_point 473
_cell_volume    739.198
_exptl_crystal_colour 'yellow'
_exptl_crystal_density_diffrn 1.466
_exptl_special_details
;
Melting point range 473-475K

;
_exptl_crystal_description 'plate'
_exptl_crystal_preparation 'ethanol'
_diffrn_ambient_temperature 168
#These two values have been output from a single CSD field.
_refine_ls_R_factor_gt 0.052
_refine_ls_wR_factor_gt 0.052
_symmetry_cell_setting triclinic
_symmetry_space_group_name_H-M 'P -1'
_symmetry_Int_Tables_number 2
loop_
_symmetry_equiv_pos_site_id
_symmetry_equiv_pos_as_xyz
1 x,y,z
2 -x,-y,-z
_cell_length_a 7.868(4)
_cell_length_b 8.489(4)
_cell_length_c 12.281(6)
_cell_angle_alpha 104.38(1)
_cell_angle_beta 92.30(1)
_cell_angle_gamma 110.07(1)
_cell_formula_units_Z 2
loop_
_atom_type_symbol
_atom_type_radius_bond
C 0.68
H 0.23
N 0.68
O 0.68
loop_
_atom_site_label
_atom_site_type_symbol
_atom_site_fract_x
_atom_site_fract_y
_atom_site_fract_z
O1 O -0.2799(2) 0.2258(2) 0.41191(14)
O2 O -0.1648(2) 0.5073(2) 0.44612(13)
O3 O 0.3638(2) 0.87524(19) 0.11382(12)
O4 O 0.1937(2) 0.83149(18) 0.25432(12)
N1 N 0.1324(2) 0.3158(2) -0.00132(14)
N2 N -0.1906(2) 0.3598(3) 0.38705(16)
N3 N 0.3374(2) 0.5649(2) -0.05142(15)
N4 N 0.0750(2) 0.4668(2) 0.16308(14)
C1 C 0.2267(3) 0.4901(3) 0.01771(18)
C2 C 0.1960(3) 0.5902(3) 0.11813(17)
C3 C 0.0016(3) 0.4851(3) 0.26123(18)
C4 C -0.1143(3) 0.3379(3) 0.28145(18)
C5 C -0.1617(3) 0.1717(3) 0.20586(19)
C6 C -0.0836(3) 0.1543(3) 0.1095(2)
C7 C 0.0402(3) 0.3024(3) 0.08636(18)
C8 C 0.2604(3) 0.7766(3) 0.15997(19)
C9 C 0.2431(3) 1.0191(3) 0.2992(2)
C10 C 0.1466(3) 1.0451(3) 0.4000(2)
C11 C 0.3876(3) 0.4878(3) -0.15353(17)
C12 C 0.5070(3) 0.6015(3) -0.20474(19)
C13 C 0.5639(3) 0.5360(3) -0.3044(2)
C14 C 0.5046(3) 0.3576(3) -0.35488(19)
C15 C 0.3852(3) 0.2461(3) -0.30422(19)
C16 C 0.3249(3) 0.3085(3) -0.20435(18)
H1 H 0.38760 0.68500 -0.02772
H2 H 0.03002 0.59664 0.31390
H3 H -0.24704 0.07252 0.22192
H4 H -0.11255 0.04201 0.05760
H5 H 0.54904 0.72409 -0.17082
H6 H 0.64531 0.61410 -0.33914
H7 H 0.54558 0.31297 -0.42348
H8 H 0.34349 0.12360 -0.33866
H9 H 0.24138 0.23001 -0.17079
H10 H 0.37155 1.07461 0.32075
H11 H 0.20506 1.06541 0.24390
H12 H 0.17466 1.16653 0.43268
H13 H 0.18506 0.99741 0.45431
H14 H 0.01857 0.98822 0.37748
#END
