
#######################################################################
#
#                 Cambridge Crystallographic Data Centre
#                                CCDC
#
#######################################################################
#
# If this CIF has been generated from an entry in the Cambridge
# Structural Database, then it will include bibliographic, chemical,
# crystal, experimental, refinement or atomic coordinate data resulting
# from the CCDC's data processing and validation procedures.
#
#######################################################################

data_CSD_CIF_EDEPOT
_audit_creation_date 2007-09-06
_audit_creation_method CSD-ConQuest-V1
_database_code_CSD EDEPOT
_database_code_depnum_ccdc_archive 'CCDC 638439'
_chemical_formula_sum 'C17 H15 N1 O4'
_chemical_formula_moiety
;
C17 H15 N1 O4
;
_journal_coeditor_code "IUCr RN2024"
_journal_coden_Cambridge 1370
_journal_volume 63
_journal_year 2007
_journal_page_first o2998
_journal_name_full 'Acta Crystallogr.,Sect.E:Struct.Rep.Online '
loop_
_publ_author_name
"Zhi-Ming Chen"
"Zhi-Hui Ming"
"Xiao-Chao Li"
"Wen-Jing Yin"
_chemical_name_systematic
;
2-(4-Nitrophenyl)-6-phenyl-tetrahydropyran-4-one
;
_cell_volume   1453.228
_exptl_crystal_colour 'colorless'
_exptl_crystal_density_diffrn 1.359
_exptl_crystal_description 'block'
_exptl_crystal_preparation 'isopropanol'
_diffrn_ambient_temperature 297
#These two values have been output from a single CSD field.
_refine_ls_R_factor_gt 0.0591
_refine_ls_wR_factor_gt 0.0591
_symmetry_cell_setting monoclinic
_symmetry_space_group_name_H-M 'P 21/c'
_symmetry_Int_Tables_number 14
loop_
_symmetry_equiv_pos_site_id
_symmetry_equiv_pos_as_xyz
1 x,y,z
2 -x,1/2+y,1/2-z
3 -x,-y,-z
4 x,-1/2-y,-1/2+z
_cell_length_a 9.2600(9)
_cell_length_b 12.8916(13)
_cell_length_c 12.7775(13)
_cell_angle_alpha 90
_cell_angle_beta 107.687(2)
_cell_angle_gamma 90
_cell_formula_units_Z 4
loop_
_atom_type_symbol
_atom_type_radius_bond
C 0.68
H 0.23
N 0.68
O 0.68
loop_
_atom_site_label
_atom_site_type_symbol
_atom_site_fract_x
_atom_site_fract_y
_atom_site_fract_z
C1 C 0.3243(2) -0.05513(14) 0.50653(15)
C2 C 0.3514(2) -0.04291(16) 0.62812(15)
H1 H 0.45250 -0.06750 0.66690
H2 H 0.27960 -0.08590 0.65010
C3 C 0.33546(18) 0.06908(14) 0.66173(13)
H3 H 0.42170 0.10940 0.65470
C4 C 0.1998(2) 0.01033(14) 0.43415(14)
H4 H 0.10290 -0.02220 0.42710
H5 H 0.21200 0.01450 0.36150
C5 C 0.20058(18) 0.12006(12) 0.48042(12)
H6 H 0.29390 0.15520 0.47930
C6 C 0.06664(18) 0.18476(12) 0.41745(13)
C7 C 0.0284(2) 0.19518(16) 0.30406(14)
H7 H 0.08590 0.16180 0.26590
C8 C -0.0948(2) 0.25493(18) 0.24774(16)
H8 H -0.12050 0.26000 0.17170
C9 C -0.1792(2) 0.30658(17) 0.30196(17)
H9 H -0.26160 0.34670 0.26340
C10 C -0.1407(2) 0.29846(17) 0.41438(17)
H10 H -0.19680 0.33390 0.45220
C11 C -0.0194(2) 0.23804(14) 0.47138(14)
H11 H 0.00490 0.23300 0.54740
C12 C 0.32876(18) 0.07859(13) 0.77805(13)
C13 C 0.2117(2) 0.03365(16) 0.80840(15)
H12 H 0.13720 -0.00340 0.75660
C14 C 0.2036(2) 0.04282(16) 0.91396(16)
H13 H 0.12450 0.01280 0.93400
C15 C 0.3157(2) 0.09764(14) 0.98874(14)
C16 C 0.4319(2) 0.14434(16) 0.96140(15)
H14 H 0.50580 0.18170 1.01340
C17 C 0.4372(2) 0.13482(16) 0.85523(15)
H15 H 0.51490 0.16680 0.83530
N1 N 0.3074(3) 0.10890(15) 1.10141(14)
O1 O 0.39561(16) -0.11576(11) 0.46943(12)
O2 O 0.19867(12) 0.11280(9) 0.59157(8)
O3 O 0.2121(3) 0.05888(17) 1.12795(16)
O4 O 0.3959(3) 0.16859(16) 1.16297(13)
#END
