
#######################################################################
#
#                 Cambridge Crystallographic Data Centre
#                                CCDC
#
#######################################################################
#
# If this CIF has been generated from an entry in the Cambridge
# Structural Database, then it will include bibliographic, chemical,
# crystal, experimental, refinement or atomic coordinate data resulting
# from the CCDC's data processing and validation procedures.
#
#######################################################################

data_CSD_CIF_EDEROV
_audit_creation_date 2007-09-06
_audit_creation_method CSD-ConQuest-V1
_database_code_CSD EDEROV
_database_code_depnum_ccdc_archive 'CCDC 651509'
_chemical_formula_sum 'C12 H11 N1 O2'
_chemical_formula_moiety
;
C12 H11 N1 O2
;
_journal_coeditor_code "IUCr CV2244"
_journal_coden_Cambridge 1370
_journal_volume 63
_journal_year 2007
_journal_page_first o3010
_journal_name_full 'Acta Crystallogr.,Sect.E:Struct.Rep.Online '
loop_
_publ_author_name
"Zheng-Feng Xie"
"Xue-Xia Mo"
"Xue-Li Mo"
"Fang-Ming Liu"
_chemical_name_systematic
;
1-(5-Methyl-3-phenylisoxazol-4-yl)ethanone
;
_chemical_melting_point 336
_cell_volume   1055.320
_exptl_crystal_colour 'colorless'
_exptl_crystal_density_diffrn 1.266
_exptl_special_details
;
belongs to a group of compounds which exhibit anticonvulsant, antibacterial, 
antiasthmatic and other pharmacological activities
;
_exptl_crystal_description 'prism'
_exptl_crystal_preparation 'ethanol'
_diffrn_ambient_temperature 293
#These two values have been output from a single CSD field.
_refine_ls_R_factor_gt 0.0613
_refine_ls_wR_factor_gt 0.0613
_symmetry_cell_setting monoclinic
_symmetry_space_group_name_H-M 'P 21/n'
_symmetry_Int_Tables_number 14
loop_
_symmetry_equiv_pos_site_id
_symmetry_equiv_pos_as_xyz
1 x,y,z
2 1/2-x,1/2+y,1/2-z
3 -x,-y,-z
4 -1/2+x,-1/2-y,-1/2+z
_cell_length_a 14.090(3)
_cell_length_b 5.2504(11)
_cell_length_c 14.280(3)
_cell_angle_alpha 90
_cell_angle_beta 92.60(3)
_cell_angle_gamma 90
_cell_formula_units_Z 4
loop_
_atom_type_symbol
_atom_type_radius_bond
C 0.68
H 0.23
N 0.68
O 0.68
loop_
_atom_site_label
_atom_site_type_symbol
_atom_site_fract_x
_atom_site_fract_y
_atom_site_fract_z
O1 O 0.25512(14) 0.1587(4) 0.82721(12)
O2 O 0.46364(16) 0.6933(5) 0.89829(16)
N1 N 0.19230(16) 0.2155(5) 0.89941(16)
C1 C 0.1178(3) 0.6683(8) 1.0260(2)
H1 H 0.10110 0.73830 0.96780
C2 C 0.0734(3) 0.7530(11) 1.1046(3)
H2 H 0.02860 0.88280 1.09890
C3 C 0.0946(3) 0.6488(8) 1.1894(2)
H3 H 0.06260 0.70040 1.24170
C4 C 0.1624(4) 0.4698(8) 1.1971(2)
H4 H 0.17930 0.40150 1.25560
C5 C 0.2073(4) 0.3863(7) 1.1188(2)
H5 H 0.25350 0.26020 1.12500
C6 C 0.18481(17) 0.4861(5) 1.03262(16)
C7 C 0.23385(16) 0.3934(5) 0.94913(15)
C8 C 0.32306(15) 0.4644(4) 0.91255(14)
C9 C 0.39362(17) 0.6557(5) 0.94341(16)
C10 C 0.3788(2) 0.8049(6) 1.0298(2)
H6 H 0.43070 0.92160 1.04040
H7 H 0.37590 0.69130 1.08230
H8 H 0.32040 0.89840 1.02260
C11 C 0.33123(17) 0.3083(5) 0.83683(15)
C12 C 0.4041(2) 0.2697(6) 0.76707(18)
H9 H 0.38310 0.14070 0.72320
H10 H 0.46260 0.21710 0.79840
H11 H 0.41410 0.42640 0.73420
#END
