
#######################################################################
#
#                 Cambridge Crystallographic Data Centre
#                                CCDC
#
#######################################################################
#
# If this CIF has been generated from an entry in the Cambridge
# Structural Database, then it will include bibliographic, chemical,
# crystal, experimental, refinement or atomic coordinate data resulting
# from the CCDC's data processing and validation procedures.
#
#######################################################################

data_CSD_CIF_EDEWUA
_audit_creation_date 2002-06-25
_audit_creation_method CSD-ConQuest-V1
_database_code_CSD EDEWUA
_database_code_depnum_ccdc_archive 'CCDC 174071'
_chemical_formula_sum 'C18 H23 N3 O3'
_chemical_formula_moiety
;
C18 H23 N3 O3
;
_journal_coden_Cambridge 392
_journal_volume 57
_journal_year 2002
_journal_page_first 439
_journal_name_full 'Heterocycles '
loop_
_publ_author_name
"R.Artali"
"D.Barlocco"
"G.Bombieri"
"F.Meneghetti"
_chemical_name_systematic
;
8-p-Nitrocinnamyl-3-propionyl-3,8-diazabicyclo(3.2.1)octane
;
_cell_volume    865.851
_exptl_crystal_density_diffrn 1.263
_diffrn_ambient_temperature 293
#These two values have been output from a single CSD field.
_refine_ls_R_factor_gt 0.0603
_refine_ls_wR_factor_gt 0.0603
_symmetry_cell_setting triclinic
_symmetry_space_group_name_H-M 'P -1'
_symmetry_Int_Tables_number 2
loop_
_symmetry_equiv_pos_site_id
_symmetry_equiv_pos_as_xyz
1 x,y,z
2 -x,-y,-z
_cell_length_a 7.257(5)
_cell_length_b 8.174(5)
_cell_length_c 14.999(5)
_cell_angle_alpha 93.390(5)
_cell_angle_beta 92.800(5)
_cell_angle_gamma 102.360(5)
_cell_formula_units_Z 2
loop_
_atom_type_symbol
_atom_type_radius_bond
C 0.68
H 0.23
N 0.68
O 0.68
loop_
_atom_site_label
_atom_site_type_symbol
_atom_site_fract_x
_atom_site_fract_y
_atom_site_fract_z
N1 N 0.2667(3) 1.2965(2) 0.60783(13)
N2 N 0.1029(2) 0.35666(18) 0.25289(10)
N3 N -0.2174(2) 0.11652(19) 0.18066(11)
O1 O 0.2429(3) 1.2587(2) 0.68420(12)
O2 O 0.2935(3) 1.4413(2) 0.58662(14)
O3 O -0.5328(2) 0.0318(2) 0.16074(12)
C1 C 0.2666(2) 1.1625(2) 0.53820(13)
C2 C 0.2176(3) 0.9983(2) 0.55971(14)
C3 C 0.2200(3) 0.8722(2) 0.49512(13)
C4 C 0.2708(2) 0.9090(2) 0.40889(12)
C5 C 0.3183(3) 1.0769(2) 0.38998(14)
C6 C 0.3165(3) 1.2048(3) 0.45409(15)
C7 C 0.2792(3) 0.7797(2) 0.33782(13)
C8 C 0.2483(3) 0.6162(2) 0.34360(14)
C9 C 0.2695(3) 0.4946(3) 0.26790(15)
C10 C 0.1191(3) 0.2412(2) 0.17586(13)
C11 C -0.0275(3) 0.0811(2) 0.18259(17)
C12 C -0.2364(3) 0.2695(2) 0.23296(16)
C13 C -0.0684(3) 0.4125(2) 0.22264(12)
C14 C -0.0446(3) 0.4496(3) 0.12448(15)
C15 C 0.0782(3) 0.3298(3) 0.09190(15)
C16 C -0.3755(3) 0.0055(2) 0.14861(13)
C17 C -0.3533(4) -0.1509(3) 0.0952(2)
C18 C -0.5343(5) -0.2490(4) 0.0481(2)
H1 H 0.189(3) 0.976(3) 0.6173(16)
H2 H 0.190(3) 0.758(3) 0.5096(14)
H3 H 0.349(3) 1.101(3) 0.3307(15)
H4 H 0.351(4) 1.319(3) 0.4415(16)
H5 H 0.308(3) 0.823(3) 0.2815(15)
H6 H 0.215(3) 0.567(3) 0.4008(15)
H7 H 0.296(3) 0.559(3) 0.2152(16)
H8 H 0.379(3) 0.443(3) 0.2824(15)
H9 H 0.242(3) 0.215(3) 0.1798(14)
H10 H -0.004(3) 0.032(3) 0.2413(16)
H11 H -0.029(3) -0.001(3) 0.1327(14)
H12 H -0.243(3) 0.251(3) 0.2971(15)
H13 H -0.353(3) 0.295(3) 0.2100(14)
H14 H -0.082(3) 0.509(3) 0.2611(14)
H15 H 0.018(3) 0.568(3) 0.1196(15)
H16 H -0.169(3) 0.433(3) 0.0902(15)
H17 H 0.193(4) 0.392(3) 0.0685(16)
H18 H 0.010(4) 0.252(3) 0.0426(17)
H19 H -0.306(4) -0.220(4) 0.134(2)
H20 H -0.270(5) -0.126(4) 0.051(2)
H21 H -0.642(7) -0.270(6) 0.085(3)
H22 H -0.522(6) -0.359(5) 0.025(3)
H23 H -0.592(7) -0.188(6) 0.001(3)
#END
