
#######################################################################
#
#                 Cambridge Crystallographic Data Centre
#                                CCDC
#
#######################################################################
#
# If this CIF has been generated from an entry in the Cambridge
# Structural Database, then it will include bibliographic, chemical,
# crystal, experimental, refinement or atomic coordinate data resulting
# from the CCDC's data processing and validation procedures.
#
#######################################################################

data_CSD_CIF_EDIKOU
_audit_creation_date 2017-10-16
_audit_creation_method CSD-ConQuest-V1
_database_code_CSD EDIKOU
_database_code_depnum_ccdc_archive 'CCDC 908349'
_chemical_formula_sum 'C19 H25 N1 O4'
_chemical_formula_moiety
;
C19 H25 N1 O4
;
_journal_coden_Cambridge 40
_journal_volume 110
_journal_year 2017
_journal_page_first 4206
_journal_name_full 'Proc.Nat.Acad.Sci.USA '
loop_
_publ_author_name
"T.Ohwadaa"
"N.Tania"
"Y.Sakamakia"
"Y.Kabasawaa"
"Yuko Otania"
"M.Kawahatab"
"K.Yamaguch"
_chemical_name_systematic
;
methyl 7-(hydroxyimino)-12-methoxypodocarpa-8,11,13-trien-15-oate
;
_cell_volume   3506.644
_exptl_crystal_colour 'colorless'
_exptl_crystal_density_diffrn 1.256
_exptl_crystal_description 'prismatic'
_diffrn_ambient_temperature 173
#These two values have been output from a single CSD field.
_refine_ls_R_factor_gt 0.0427
_refine_ls_wR_factor_gt 0.0427
_symmetry_cell_setting orthorhombic
_symmetry_space_group_name_H-M 'P 21 21 21'
_symmetry_Int_Tables_number 19
loop_
_symmetry_equiv_pos_site_id
_symmetry_equiv_pos_as_xyz
1 x,y,z
2 1/2+x,1/2-y,-z
3 -x,1/2+y,1/2-z
4 1/2-x,-y,1/2+z
_cell_length_a 7.507(5)
_cell_length_b 7.609(4)
_cell_length_c 61.39(3)
_cell_angle_alpha 90
_cell_angle_beta 90
_cell_angle_gamma 90
_cell_formula_units_Z 8
loop_
_atom_type_symbol
_atom_type_radius_bond
C 0.68
H 0.23
N 0.68
O 0.68
loop_
_atom_site_label
_atom_site_type_symbol
_atom_site_fract_x
_atom_site_fract_y
_atom_site_fract_z
C1 C 0.1512(4) -0.0686(4) 0.09075(4)
C2 C 0.0947(4) -0.0167(4) 0.06872(4)
C3 C 0.1610(4) -0.1070(4) 0.05040(5)
C4 C 0.3072(4) -0.2473(4) 0.05244(5)
C5 C 0.4183(4) -0.2070(4) 0.07313(4)
H1 H 0.46610 -0.08590 0.07070
C6 C 0.3037(4) -0.1914(4) 0.09366(5)
H2 H 0.25750 -0.30900 0.09760
H3 H 0.37890 -0.14950 0.10590
C7 C 0.4310(4) -0.2373(5) 0.03245(5)
H4 H 0.36350 -0.27420 0.01940
H5 H 0.46790 -0.11360 0.03030
C8 C 0.5979(4) -0.3518(5) 0.03444(5)
H6 H 0.56280 -0.47720 0.03440
H7 H 0.67570 -0.33140 0.02170
C9 C 0.7007(4) -0.3113(5) 0.05512(5)
H8 H 0.74950 -0.19080 0.05410
H9 H 0.80250 -0.39350 0.05620
C10 C 0.5884(4) -0.3256(4) 0.07585(5)
C11 C -0.0333(4) 0.1149(4) 0.06557(5)
H10 H -0.07460 0.17890 0.07790
C12 C -0.1018(5) 0.1551(4) 0.04525(5)
H11 H -0.18720 0.24600 0.04350
C13 C -0.0418(4) 0.0584(4) 0.02753(5)
C14 C 0.0884(4) -0.0688(4) 0.03015(5)
H12 H 0.12920 -0.13170 0.01770
C15 C 0.2153(5) -0.4288(4) 0.05319(6)
H13 H 0.13920 -0.44270 0.04030
H14 H 0.14230 -0.43730 0.06640
H15 H 0.30590 -0.52140 0.05330
C16 C 0.5499(4) -0.5185(4) 0.08037(5)
C17 C 0.3933(6) -0.7237(4) 0.10160(6)
H16 H 0.33220 -0.76970 0.08870
H17 H 0.31300 -0.72920 0.11420
H18 H 0.49960 -0.79450 0.10450
C18 C 0.7022(4) -0.2578(5) 0.09498(5)
H19 H 0.81490 -0.32260 0.09550
H20 H 0.63750 -0.27530 0.10870
H21 H 0.72660 -0.13230 0.09300
C19 C -0.2384(6) 0.2077(6) 0.00315(6)
H22 H -0.34230 0.17860 0.01210
H23 H -0.27270 0.20830 -0.01230
H24 H -0.19360 0.32410 0.00720
N1 N 0.0591(4) -0.0084(3) 0.10694(4)
O1 O 0.1238(3) -0.0683(3) 0.12730(3)
O2 O 0.6084(4) -0.6403(3) 0.07015(4)
O3 O 0.4449(3) -0.5430(3) 0.09778(3)
O4 O -0.1025(3) 0.0799(3) 0.00657(3)
H25 H 0.033(7) -0.018(6) 0.1365(7)
C20 C 0.7282(4) 0.1767(4) 0.16024(5)
C21 C 0.7631(4) 0.1136(4) 0.18249(4)
C22 C 0.6599(4) 0.1755(4) 0.20001(5)
C23 C 0.5199(4) 0.3214(4) 0.19734(5)
C24 C 0.5686(4) 0.4310(4) 0.17689(4)
H26 H 0.69240 0.47370 0.17980
C25 C 0.5864(5) 0.3126(4) 0.15670(5)
H27 H 0.47120 0.25390 0.15380
H28 H 0.61720 0.38530 0.14390
C26 C 0.5262(6) 0.4454(4) 0.21738(5)
H29 H 0.48400 0.38010 0.23030
H30 H 0.65140 0.48010 0.22010
C27 C 0.4141(7) 0.6105(4) 0.21474(5)
H31 H 0.43010 0.68670 0.22770
H32 H 0.28670 0.57760 0.21380
C28 C 0.4666(6) 0.7117(4) 0.19433(5)
H33 H 0.58970 0.75590 0.19610
H34 H 0.38710 0.81480 0.19280
C29 C 0.4568(5) 0.6026(4) 0.17336(5)
C30 C 0.8914(5) -0.0149(4) 0.18634(5)
H35 H 0.96270 -0.05430 0.17450
C31 C 0.9190(5) -0.0872(5) 0.20668(5)
H36 H 1.00900 -0.17310 0.20890
C32 C 0.8120(5) -0.0313(4) 0.22378(5)
C33 C 0.6847(5) 0.0985(4) 0.22033(5)
H37 H 0.61250 0.13550 0.23220
C34 C 0.3344(5) 0.2353(5) 0.19590(6)
H38 H 0.32890 0.15990 0.18300
H39 H 0.24310 0.32700 0.19480
H40 H 0.31330 0.16430 0.20900
C35 C 0.2614(5) 0.5766(4) 0.16731(5)
C36 C 0.0592(5) 0.4802(6) 0.14037(8)
H41 H -0.01960 0.43050 0.15150
H42 H 0.05530 0.40650 0.12730
H43 H 0.01970 0.59940 0.13670
C37 C 0.5382(5) 0.7124(4) 0.15481(5)
H44 H 0.47600 0.82530 0.15380
H45 H 0.52580 0.64870 0.14100
H46 H 0.66470 0.73300 0.15780
C38 C 0.9530(6) -0.2250(6) 0.24893(6)
H47 H 0.93030 -0.32790 0.23970
H48 H 0.94730 -0.25930 0.26430
H49 H 1.07160 -0.17780 0.24570
N2 N 0.8209(4) 0.1087(4) 0.14464(4)
O5 O 0.7716(3) 0.1758(3) 0.12389(3)
O6 O 0.1365(4) 0.6395(4) 0.17680(4)
O7 O 0.2408(3) 0.4864(4) 0.14867(4)
O8 O 0.8227(4) -0.0945(3) 0.24467(3)
H50 H 0.854(7) 0.112(6) 0.1158(7)
#END
