
#######################################################################
#
#                 Cambridge Crystallographic Data Centre
#                                CCDC
#
#######################################################################
#
# If this CIF has been generated from an entry in the Cambridge
# Structural Database, then it will include bibliographic, chemical,
# crystal, experimental, refinement or atomic coordinate data resulting
# from the CCDC's data processing and validation procedures.
#
#######################################################################

data_CSD_CIF_EDIKUA
_audit_creation_date 2017-10-16
_audit_creation_method CSD-ConQuest-V1
_database_code_CSD EDIKUA
_database_code_depnum_ccdc_archive 'CCDC 908348'
_chemical_formula_sum 'C12 H15 N1 O1'
_chemical_formula_moiety
;
C12 H15 N1 O1
;
_journal_coden_Cambridge 40
_journal_volume 110
_journal_year 2017
_journal_page_first 4206
_journal_name_full 'Proc.Nat.Acad.Sci.USA '
loop_
_publ_author_name
"T.Ohwadaa"
"N.Tania"
"Y.Sakamakia"
"Y.Kabasawaa"
"Yuko Otania"
"M.Kawahatab"
"K.Yamaguch"
_chemical_name_systematic
;
N-hydroxy-5,8-dimethyl-3,4-dihydronaphthalen-1(2H)-imine
;
_cell_volume   1023.314
_exptl_crystal_colour 'colorless'
_exptl_crystal_density_diffrn 1.228
_exptl_crystal_description 'prismatic'
_diffrn_ambient_temperature 173
#These two values have been output from a single CSD field.
_refine_ls_R_factor_gt 0.0411
_refine_ls_wR_factor_gt 0.0411
_symmetry_cell_setting monoclinic
_symmetry_space_group_name_H-M 'P 21/a'
_symmetry_Int_Tables_number 14
loop_
_symmetry_equiv_pos_site_id
_symmetry_equiv_pos_as_xyz
1 x,y,z
2 1/2-x,1/2+y,-z
3 -x,-y,-z
4 -1/2+x,-1/2-y,z
_cell_length_a 15.442(8)
_cell_length_b 7.223(4)
_cell_length_c 9.230(3)
_cell_angle_alpha 90
_cell_angle_beta 96.28(4)
_cell_angle_gamma 90
_cell_formula_units_Z 4
loop_
_atom_type_symbol
_atom_type_radius_bond
C 0.68
H 0.23
N 0.68
O 0.68
loop_
_atom_site_label
_atom_site_type_symbol
_atom_site_fract_x
_atom_site_fract_y
_atom_site_fract_z
C1 C 0.85642(11) 0.1956(2) -0.13767(18)
C2 C 0.79227(11) 0.0926(2) -0.23907(18)
C3 C 0.70381(11) 0.1386(2) -0.23474(18)
C4 C 0.68112(12) 0.3090(3) -0.1519(2)
H1 H 0.67850 0.27730 -0.04810
H2 H 0.62320 0.35570 -0.19230
C5 C 0.74945(12) 0.4580(2) -0.1639(2)
H3 H 0.73260 0.57230 -0.11500
H4 H 0.75330 0.48710 -0.26780
C6 C 0.83744(12) 0.3909(3) -0.0932(2)
H5 H 0.88370 0.47420 -0.12150
H6 H 0.83830 0.39660 0.01410
C7 C 0.81613(12) -0.0485(2) -0.33212(19)
C8 C 0.74977(13) -0.1482(3) -0.41103(19)
H7 H 0.76440 -0.24290 -0.47540
C9 C 0.66303(13) -0.1127(3) -0.3980(2)
H8 H 0.61950 -0.18820 -0.44900
C10 C 0.63829(11) 0.0309(3) -0.31194(19)
C11 C 0.90884(13) -0.0941(3) -0.3567(2)
H9 H 0.93200 -0.18770 -0.28600
H10 H 0.94460 0.01810 -0.34430
H11 H 0.91010 -0.14220 -0.45580
C12 C 0.54327(12) 0.0677(3) -0.2995(2)
H12 H 0.50770 -0.02680 -0.35410
H13 H 0.52750 0.19020 -0.33960
H14 H 0.53280 0.06340 -0.19680
N1 N 0.92357(9) 0.1059(2) -0.08068(16)
O1 O 0.97715(9) 0.21579(19) 0.01958(15)
H15 H 1.016(2) 0.118(5) 0.062(4)
#END
