
#######################################################################
#
#                 Cambridge Crystallographic Data Centre
#                                CCDC
#
#######################################################################
#
# If this CIF has been generated from an entry in the Cambridge
# Structural Database, then it will include bibliographic, chemical,
# crystal, experimental, refinement or atomic coordinate data resulting
# from the CCDC's data processing and validation procedures.
#
#######################################################################

data_CSD_CIF_EDMBOX
_audit_creation_date 1978-02-24
_audit_creation_method CSD-ConQuest-V1
_database_code_CSD EDMBOX
_chemical_formula_sum 'C10 H14 N2 O1'
_chemical_formula_moiety
;
C10 H14 N2 O1
;
_journal_coden_Cambridge 16
_journal_volume 33
_journal_year 1977
_journal_page_first 2535
_journal_name_full 'Tetrahedron '
loop_
_publ_author_name
"H.Gozlan"
"R.Michelot"
"C.Riche"
"R.Rips"
_chemical_name_systematic
;
(E)-N,N,4-Trimethylbenzamidoxime
;
_chemical_melting_point 360.15
_cell_volume   1016.431
_diffrn_ambient_temperature ?
_diffrn_special_details
;
The study was carried out at room temperature,in the range 283-303K

;
#These two values have been output from a single CSD field.
_refine_ls_R_factor_gt 0.054
_refine_ls_wR_factor_gt 0.054
_symmetry_cell_setting monoclinic
_symmetry_space_group_name_H-M 'P 21/n'
_symmetry_Int_Tables_number 14
loop_
_symmetry_equiv_pos_site_id
_symmetry_equiv_pos_as_xyz
1 x,y,z
2 1/2-x,1/2+y,1/2-z
3 -x,-y,-z
4 -1/2+x,-1/2-y,-1/2+z
_cell_length_a 7.512(4)
_cell_length_b 10.393(6)
_cell_length_c 13.636(8)
_cell_angle_alpha 90
_cell_angle_beta 107.3(1)
_cell_angle_gamma 90
_cell_formula_units_Z 4
loop_
_atom_type_symbol
_atom_type_radius_bond
C 0.68
H 0.23
N 0.68
O 0.68
loop_
_atom_site_label
_atom_site_type_symbol
_atom_site_fract_x
_atom_site_fract_y
_atom_site_fract_z
C1 C 0.39970 0.25320 -0.41150
C2 C 0.53970 0.32790 -0.42950
C3 C 0.72260 0.31160 -0.37120
C4 C 0.77200 0.22310 -0.29280
C5 C 0.63170 0.14950 -0.27370
C6 C 0.44890 0.16360 -0.33220
C7 C 0.20290 0.26820 -0.47580
C8 C 0.97390 0.20940 -0.23010
C9 C 0.21730 0.07030 -0.57180
C10 C -0.08030 0.17300 -0.58490
N1 N 0.11330 0.15910 -0.52570
N2 N 0.10800 0.37380 -0.48570
O1 O 0.20560 0.47260 -0.41790
H1 H 0.50900 0.38900 -0.48600
H2 H 0.81100 0.36100 -0.38000
H3 H 0.66600 0.08900 -0.21800
H4 H 0.35400 0.10800 -0.32000
H5 H 1.01300 0.24900 -0.16400
H6 H 1.05600 0.21300 -0.27300
H7 H 0.99200 0.13700 -0.21000
H8 H 0.17000 -0.01300 -0.57600
H9 H 0.33400 0.05700 -0.52300
H10 H 0.21100 0.09800 -0.63700
H11 H -0.14700 0.20900 -0.54100
H12 H -0.10300 0.21400 -0.64700
H13 H -0.12900 0.09500 -0.60700
H14 H 0.11700 0.54000 -0.44000
#END
