
#######################################################################
#
#                 Cambridge Crystallographic Data Centre
#                                CCDC
#
#######################################################################
#
# If this CIF has been generated from an entry in the Cambridge
# Structural Database, then it will include bibliographic, chemical,
# crystal, experimental, refinement or atomic coordinate data resulting
# from the CCDC's data processing and validation procedures.
#
#######################################################################

data_CSD_CIF_EDOCOQ
_audit_creation_date 2007-09-06
_audit_creation_method CSD-ConQuest-V1
_database_code_CSD EDOCOQ
_database_code_depnum_ccdc_archive 'CCDC 601022'
_chemical_formula_sum 'C18 H25 N1 O4'
_chemical_formula_moiety
;
C18 H25 N1 O4
;
_journal_coden_Cambridge 35
_journal_volume 71
_journal_year 2006
_journal_page_first 947
_journal_name_full 'J.Org.Chem. '
loop_
_publ_author_name
"T.Inokuchi"
"H.Kawafuchi"
_chemical_name_systematic
;
(3E)-4-furan-2-yl-3-(((2,2,6,6-tetramethylpiperidin-1-yl)oxy)carbonyl)but-3-en
-2-one
;
_cell_volume   1787.732
_exptl_crystal_colour 'colorless'
_exptl_crystal_density_diffrn 1.187
_exptl_crystal_description 'block'
_diffrn_ambient_temperature 150.2
#These two values have been output from a single CSD field.
_refine_ls_R_factor_gt 0.0895
_refine_ls_wR_factor_gt 0.0895
_symmetry_cell_setting triclinic
_symmetry_space_group_name_H-M 'P -1'
_symmetry_Int_Tables_number 2
loop_
_symmetry_equiv_pos_site_id
_symmetry_equiv_pos_as_xyz
1 x,y,z
2 -x,-y,-z
_cell_length_a 8.268(1)
_cell_length_b 22.444(3)
_cell_length_c 9.7559(6)
_cell_angle_alpha 89.994(4)
_cell_angle_beta 99.071(5)
_cell_angle_gamma 90.032(2)
_cell_formula_units_Z 4
loop_
_atom_type_symbol
_atom_type_radius_bond
C 0.68
H 0.23
N 0.68
O 0.68
loop_
_atom_site_label
_atom_site_type_symbol
_atom_site_fract_x
_atom_site_fract_y
_atom_site_fract_z
O1 O -0.2774(2) 0.40592(7) 0.7791(1)
O2 O -0.0888(3) 0.31401(9) 0.6274(2)
O3 O -0.3004(3) 0.4152(1) 0.2471(2)
O4 O -0.0709(2) 0.36046(6) 0.3222(1)
O5 O 0.2227(2) 0.09425(7) 1.2790(1)
O6 O 0.4111(3) 0.18590(9) 1.1277(2)
O7 O 0.1996(3) 0.0848(1) 0.7476(2)
O8 O 0.4291(2) 0.13957(6) 0.8222(1)
N1 N -0.0437(2) 0.35385(7) 0.1777(1)
N2 N 0.4565(2) 0.14622(7) 0.6779(1)
C1 C -0.3463(4) 0.4190(1) 0.8938(3)
C2 C -0.4877(4) 0.4449(1) 0.8595(3)
C3 C -0.5166(3) 0.4504(1) 0.7117(3)
C4 C -0.3855(2) 0.42523(9) 0.6675(2)
C5 C -0.3495(3) 0.4178(1) 0.5296(2)
C6 C -0.2180(2) 0.39366(9) 0.4890(2)
C7 C -0.0784(3) 0.3644(1) 0.5879(2)
C8 C 0.0670(4) 0.4023(2) 0.6329(3)
C9 C -0.2068(3) 0.3923(1) 0.3375(2)
C10 C 0.1176(3) 0.3821(1) 0.1716(2)
C11 C 0.1492(4) 0.3712(2) 0.0222(3)
C12 C 0.1418(5) 0.3063(2) -0.0170(3)
C13 C -0.0223(5) 0.2822(1) -0.0021(3)
C14 C -0.0677(3) 0.28940(9) 0.1444(2)
C15 C 0.0270(5) 0.2452(1) 0.2475(3)
C16 C 0.2635(4) 0.3588(2) 0.2780(4)
C17 C -0.2505(4) 0.2770(2) 0.1380(3)
C18 C 0.0940(6) 0.4483(2) 0.1899(4)
C19 C 0.1538(4) 0.0808(1) 1.3944(3)
C20 C 0.0115(4) 0.0549(1) 1.3591(3)
C21 C -0.0178(3) 0.0497(1) 1.2110(3)
C22 C 0.1139(2) 0.07492(9) 1.1678(2)
C23 C 0.1503(3) 0.0823(1) 1.0293(2)
C24 C 0.2824(2) 0.10654(10) 0.9890(2)
C25 C 0.4214(3) 0.13549(10) 1.0885(2)
C26 C 0.5687(4) 0.0985(2) 1.1316(3)
C27 C 0.2940(3) 0.1079(1) 0.8382(2)
C28 C 0.4322(3) 0.21047(9) 0.6448(2)
C29 C 0.4778(5) 0.2180(1) 0.4985(3)
C30 C 0.6413(5) 0.1933(2) 0.4831(3)
C31 C 0.6488(4) 0.1296(2) 0.5226(3)
C32 C 0.6187(3) 0.1183(1) 0.6720(2)
C33 C 0.7634(4) 0.1411(2) 0.7787(4)
C34 C 0.5942(6) 0.0518(2) 0.6908(4)
C35 C 0.2483(4) 0.2225(2) 0.6398(4)
C36 C 0.5283(5) 0.2545(1) 0.7479(3)
H1 H -0.281(4) 0.411(1) 0.989(4)
H2 H -0.564(5) 0.459(2) 0.937(4)
H3 H -0.585(4) 0.464(2) 0.672(3)
H4 H -0.437(3) 0.435(1) 0.462(3)
H5 H -0.319(5) 0.311(2) 0.088(4)
H6 H -0.292(5) 0.280(2) 0.217(4)
H7 H -0.269(5) 0.234(2) 0.095(4)
H8 H 0.007(5) 0.255(2) 0.339(4)
H9 H 0.153(5) 0.252(2) 0.250(4)
H10 H 0.107(6) 0.456(2) 0.278(5)
H11 H -0.005(6) 0.463(2) 0.150(5)
H12 H 0.188(6) 0.471(2) 0.168(4)
H13 H 0.081(4) 0.398(2) -0.041(4)
H14 H 0.261(5) 0.382(2) 0.023(4)
H15 H 0.163(5) 0.305(2) -0.107(5)
H16 H 0.227(5) 0.284(2) 0.038(5)
H17 H -0.033(4) 0.239(2) -0.025(4)
H18 H -0.106(4) 0.306(2) -0.080(4)
H19 H -0.001(5) 0.203(2) 0.218(4)
H20 H 0.222(4) 0.091(1) 1.481(4)
H21 H -0.049(5) 0.042(2) 1.427(4)
H22 H -0.102(4) 0.032(1) 1.151(3)
H23 H 0.065(3) 0.064(1) 0.959(3)
H24 H 0.765(5) 0.120(2) 0.528(4)
H25 H 0.584(5) 0.106(2) 0.463(4)
H26 H 0.661(5) 0.195(2) 0.396(5)
H27 H 0.713(5) 0.218(2) 0.534(5)
H28 H 0.467(5) 0.256(2) 0.481(4)
H29 H 0.391(5) 0.196(2) 0.424(4)
H30 H 0.487(5) 0.289(2) 0.741(4)
H31 H 0.658(5) 0.253(2) 0.752(4)
H32 H 0.507(5) 0.240(2) 0.836(4)
H33 H 0.225(5) 0.260(2) 0.611(4)
H34 H 0.207(5) 0.222(2) 0.736(4)
H35 H 0.177(5) 0.190(2) 0.596(4)
H36 H 0.497(6) 0.031(2) 0.626(5)
H37 H 0.693(5) 0.033(2) 0.668(4)
H38 H 0.582(5) 0.040(2) 0.782(5)
H39 H 0.547(4) 0.057(2) 1.080(4)
H40 H 0.663(4) 0.125(2) 1.172(3)
H41 H 0.545(4) 0.077(2) 1.192(4)
H42 H 0.742(5) 0.141(2) 0.879(5)
H43 H 0.856(6) 0.129(2) 0.779(4)
H44 H 0.820(5) 0.186(2) 0.743(4)
H45 H 0.135(5) 0.403(2) 0.626(4)
H46 H 0.043(4) 0.448(2) 0.594(4)
H47 H 0.059(4) 0.422(2) 0.743(4)
H48 H 0.312(5) 0.309(2) 0.249(4)
H49 H 0.356(6) 0.378(2) 0.272(4)
H50 H 0.243(5) 0.366(2) 0.373(5)
#END
