
#######################################################################
#
#                 Cambridge Crystallographic Data Centre
#                                CCDC
#
#######################################################################
#
# If this CIF has been generated from an entry in the Cambridge
# Structural Database, then it will include bibliographic, chemical,
# crystal, experimental, refinement or atomic coordinate data resulting
# from the CCDC's data processing and validation procedures.
#
#######################################################################

data_CSD_CIF_EFAHOK
_audit_creation_date 2013-01-14
_audit_creation_method CSD-ConQuest-V1
_database_code_CSD EFAHOK
_database_code_depnum_ccdc_archive 'CCDC 914292'
_chemical_formula_sum 'C20 H17 N1 O3'
_chemical_formula_moiety
;
C20 H17 N1 O3
;
_journal_coeditor_code "IUCr BG2475"
_journal_coden_Cambridge 1370
_journal_volume 68
_journal_year 2012
_journal_page_first o3293
_journal_name_full 'Acta Crystallogr.,Sect.E:Struct.Rep.Online '
loop_
_publ_author_name
"B.Miroslaw"
"A.E.Koziol"
"M.Pakosinska-Parys"
"M.Struga"
_chemical_name_systematic
;
17-Hydroxy-1,8-dimethyl-17-azapentacyclo[6.6.5.0^2,7^.0^9,14^.0^15,19^]nonadec
a-2,4,6,9(14),10,12-hexaene-16,18-dione
;
_cell_volume   1558.355
_exptl_crystal_colour 'colorless'
_exptl_crystal_density_diffrn 1.361
_exptl_crystal_description 'prism'
_diffrn_ambient_temperature 100
#These two values have been output from a single CSD field.
_refine_ls_R_factor_gt 0.0363
_refine_ls_wR_factor_gt 0.0363
_symmetry_cell_setting monoclinic
_symmetry_space_group_name_H-M 'P 21/n'
_symmetry_Int_Tables_number 14
loop_
_symmetry_equiv_pos_site_id
_symmetry_equiv_pos_as_xyz
1 x,y,z
2 1/2-x,1/2+y,1/2-z
3 -x,-y,-z
4 -1/2+x,-1/2-y,-1/2+z
_cell_length_a 13.904(1)
_cell_length_b 8.104(1)
_cell_length_c 13.946(1)
_cell_angle_alpha 90
_cell_angle_beta 97.39(1)
_cell_angle_gamma 90
_cell_formula_units_Z 4
loop_
_atom_type_symbol
_atom_type_radius_bond
C 0.68
H 0.23
N 0.68
O 0.68
loop_
_atom_site_label
_atom_site_type_symbol
_atom_site_fract_x
_atom_site_fract_y
_atom_site_fract_z
N1 N 0.28230(8) 0.37858(13) 0.63969(8)
O1 O 0.23524(7) 0.61166(12) 0.71225(6)
O2 O 0.30265(7) 0.15262(11) 0.54480(7)
O3 O 0.36001(7) 0.34569(12) 0.70937(7)
H1 H 0.3338(15) 0.258(3) 0.7443(15)
C1 C 0.22513(9) 0.51497(16) 0.64443(9)
C2 C 0.25875(10) 0.27735(16) 0.55890(9)
C3 C 0.17056(9) 0.35563(16) 0.49956(9)
H2 H 0.11290 0.28180 0.49990
C4 C 0.15350(9) 0.51968(15) 0.55294(9)
H3 H 0.08590 0.52170 0.57020
C5 C 0.16945(10) 0.67321(16) 0.48659(9)
C6 C 0.09511(9) 0.64834(16) 0.39688(9)
C7 C 0.02301(10) 0.76017(17) 0.36135(10)
H4 H 0.01720 0.86230 0.39360
C8 C -0.04079(10) 0.72243(19) 0.27836(11)
H5 H -0.08940 0.79940 0.25380
C9 C -0.0331(1) 0.5725(2) 0.2319(1)
H6 H -0.07710 0.54640 0.17610
C10 C 0.03931(10) 0.45948(19) 0.2670(1)
H7 H 0.04420 0.35680 0.23510
C11 C 0.10405(9) 0.49792(17) 0.34867(9)
C12 C 0.18898(10) 0.38987(16) 0.39219(9)
C13 C 0.27923(10) 0.49978(16) 0.40301(9)
C14 C 0.36774(10) 0.45997(18) 0.37202(10)
H8 H 0.37460 0.36010 0.33790
C15 C 0.44605(10) 0.56721(19) 0.39128(10)
H9 H 0.50650 0.54000 0.37040
C16 C 0.43639(10) 0.71368(19) 0.44081(10)
H10 H 0.49030 0.78610 0.45340
C17 C 0.34813(10) 0.75541(17) 0.47223(10)
H11 H 0.34170 0.85590 0.50590
C18 C 0.26956(10) 0.64801(16) 0.45364(9)
C19 C 0.15742(11) 0.83661(16) 0.53834(10)
H12 H 0.09390 0.83910 0.56180
H13 H 0.16190 0.92820 0.49320
H14 H 0.20870 0.84740 0.59320
C20 C 0.19871(11) 0.22982(17) 0.33594(10)
H15 H 0.21020 0.25620 0.26980
H16 H 0.13890 0.16540 0.33420
H17 H 0.25330 0.16540 0.36780
#END
