
#######################################################################
#
#                 Cambridge Crystallographic Data Centre
#                                CCDC
#
#######################################################################
#
# If this CIF has been generated from an entry in the Cambridge
# Structural Database, then it will include bibliographic, chemical,
# crystal, experimental, refinement or atomic coordinate data resulting
# from the CCDC's data processing and validation procedures.
#
#######################################################################

data_CSD_CIF_EFAKUR
_audit_creation_date 2002-04-09
_audit_creation_method CSD-ConQuest-V1
_database_code_CSD EFAKUR
_database_code_depnum_ccdc_archive 'CCDC 171367'
_chemical_formula_sum 'C23 H29 N1 O9'
_chemical_formula_moiety
;
C23 H29 N1 O9
;
_journal_coden_Cambridge 179
_journal_volume 40
_journal_year 2001
_journal_page_first 4763
_journal_name_full 'Angew.Chem.,Int.Ed. '
loop_
_publ_author_name
"D.J.Dixon"
"S.V.Ley"
"F.Rodriguez"
_chemical_name_systematic
;
4-(5,6-Dimethoxy-5,6-dimethyl-3-oxo-1,4-dioxan-2-yl)-3-(2-nitrocyclohexyl)chro
man-2-one
;
_cell_volume   2285.788
_exptl_crystal_density_diffrn 1.347
_diffrn_ambient_temperature 180
#These two values have been output from a single CSD field.
_refine_ls_R_factor_gt 0.0524
_refine_ls_wR_factor_gt 0.0524
_symmetry_cell_setting monoclinic
_symmetry_space_group_name_H-M 'P 21/n'
_symmetry_Int_Tables_number 14
loop_
_symmetry_equiv_pos_site_id
_symmetry_equiv_pos_as_xyz
1 x,y,z
2 1/2+x,1/2-y,1/2+z
3 -x,-y,-z
4 -1/2-x,-1/2+y,-1/2-z
_cell_length_a 14.6048(6)
_cell_length_b 7.9540(4)
_cell_length_c 19.9249(9)
_cell_angle_alpha 90
_cell_angle_beta 99.051(3)
_cell_angle_gamma 90
_cell_formula_units_Z 4
loop_
_atom_type_symbol
_atom_type_radius_bond
C 0.68
H 0.23
N 0.68
O 0.68
loop_
_atom_site_label
_atom_site_type_symbol
_atom_site_fract_x
_atom_site_fract_y
_atom_site_fract_z
O1 O 0.08550(9) -0.1703(2) 0.56427(7)
O2 O 0.18893(8) -0.02783(15) 0.63370(6)
O3 O 0.19068(9) 0.22533(15) 0.53587(6)
O4 O 0.12584(10) 0.2950(2) 0.63174(6)
O5 O 0.33165(9) 0.0761(2) 0.61708(7)
O6 O 0.20680(12) 0.4209(2) 0.39648(7)
O7 O 0.30093(10) 0.2072(2) 0.42322(7)
O8 O 0.02767(12) 0.3612(2) 0.27822(8)
O9 O 0.13874(12) 0.4605(2) 0.23043(8)
N1 N 0.10287(13) 0.3480(2) 0.25930(8)
C1 C 0.13365(13) -0.0472(2) 0.57361(9)
C2 C 0.12848(13) 0.0884(2) 0.52004(9)
H1 H 0.06403(13) 0.1348(2) 0.51302(9)
C3 C 0.20902(14) 0.2679(2) 0.60603(9)
C4 C 0.25305(13) 0.1150(2) 0.64519(9)
C5 C 0.2731(2) 0.4179(3) 0.61057(10)
H2 H 0.2419(4) 0.5109(6) 0.5839(6)
H3 H 0.3296(5) 0.3876(6) 0.5926(7)
H4 H 0.2893(8) 0.4525(12) 0.65815(13)
C6 C 0.2703(2) 0.1368(3) 0.72163(9)
H5 H 0.2891(9) 0.0290(4) 0.74330(9)
H6 H 0.2133(3) 0.1758(15) 0.73689(12)
H7 H 0.3196(6) 0.2198(12) 0.73419(10)
C7 C 0.0692(2) 0.4328(3) 0.60264(12)
H8 H 0.0994(6) 0.5394(3) 0.6175(7)
H9 H 0.0084(4) 0.4273(12) 0.6176(7)
H10 H 0.061(1) 0.4257(12) 0.55296(12)
C8 C 0.38325(15) -0.0684(3) 0.64482(11)
H11 H 0.4172(8) -0.0410(6) 0.6899(3)
H12 H 0.4273(7) -0.1013(11) 0.6148(4)
H13 H 0.3405(2) -0.1617(6) 0.6487(7)
C9 C 0.14638(13) 0.0148(2) 0.45177(8)
H14 H 0.09946(13) -0.0754(2) 0.43811(8)
C10 C 0.13436(13) 0.1502(2) 0.39564(8)
H15 H 0.07582(13) 0.2133(2) 0.39831(8)
C11 C 0.2134(2) 0.2725(3) 0.40641(9)
C12 C 0.24140(13) -0.0621(2) 0.45570(8)
C13 C 0.31321(14) 0.0374(3) 0.44070(9)
C14 C 0.4014(2) -0.0262(4) 0.44238(11)
H16 H 0.4497(2) 0.0440(4) 0.43156(11)
C15 C 0.4190(2) -0.1917(4) 0.45981(11)
H17 H 0.4799(2) -0.2355(4) 0.46156(11)
C16 C 0.3490(2) -0.2946(3) 0.47475(10)
H18 H 0.3613(2) -0.4088(3) 0.4869(1)
C17 C 0.26058(14) -0.2299(3) 0.47188(9)
H19 H 0.21199(14) -0.3014(3) 0.48113(9)
C18 C 0.12608(13) 0.0695(2) 0.32376(9)
H20 H 0.17153(13) -0.0254(2) 0.32873(9)
C19 C 0.15512(13) 0.1840(2) 0.26899(9)
H21 H 0.22238(13) 0.2109(2) 0.28252(9)
C20 C 0.14353(15) 0.0962(3) 0.19992(10)
H22 H 0.15669(15) 0.1775(3) 0.16503(10)
H23 H 0.18925(15) 0.0038(3) 0.20176(10)
C21 C 0.0470(2) 0.0254(3) 0.1793(1)
H24 H 0.0436(2) -0.0339(3) 0.1353(1)
H25 H 0.0015(2) 0.1186(3) 0.17332(10)
C22 C 0.0229(2) -0.0957(3) 0.23278(10)
H26 H 0.0652(2) -0.1936(3) 0.23574(10)
H27 H -0.0412(2) -0.1371(3) 0.21901(10)
C23 C 0.03092(15) -0.0123(3) 0.3025(1)
H28 H 0.02068(15) -0.0977(3) 0.33669(10)
H29 H -0.01795(15) 0.0744(3) 0.30133(10)
#END
