
#######################################################################
#
#                 Cambridge Crystallographic Data Centre
#                                CCDC
#
#######################################################################
#
# If this CIF has been generated from an entry in the Cambridge
# Structural Database, then it will include bibliographic, chemical,
# crystal, experimental, refinement or atomic coordinate data resulting
# from the CCDC's data processing and validation procedures.
#
#######################################################################

data_CSD_CIF_EFAQIN
_audit_creation_date 2013-01-14
_audit_creation_method CSD-ConQuest-V1
_database_code_CSD EFAQIN
_database_code_depnum_ccdc_archive 'CCDC 914326'
_chemical_formula_sum 'C10 H20 N4 O3'
_chemical_formula_moiety
;
C10 H20 N4 O3
;
_journal_coeditor_code "IUCr ZJ2096"
_journal_coden_Cambridge 1370
_journal_volume 68
_journal_year 2012
_journal_page_first o3347
_journal_name_full 'Acta Crystallogr.,Sect.E:Struct.Rep.Online '
loop_
_publ_author_name
"S.Sreenivasa"
"K.E.Manojkumar"
"P.A.Suchetan"
"N.R.Mohan"
"B.S.Palakshamurthy"
_chemical_name_systematic
;
(E)-t-Butyl 4-(N'-hydroxycarbamimidoyl)piperazine-1-carboxylate
;
_chemical_melting_point 463
_cell_volume    639.468
_exptl_crystal_colour 'colorless'
_exptl_crystal_density_diffrn 1.269
_exptl_crystal_description 'prism'
_diffrn_ambient_temperature 300
#These two values have been output from a single CSD field.
_refine_ls_R_factor_gt 0.0444
_refine_ls_wR_factor_gt 0.0444
_symmetry_cell_setting triclinic
_symmetry_space_group_name_H-M 'P -1'
_symmetry_Int_Tables_number 2
loop_
_symmetry_equiv_pos_site_id
_symmetry_equiv_pos_as_xyz
1 x,y,z
2 -x,-y,-z
_cell_length_a 8.1923(17)
_cell_length_b 8.7859(16)
_cell_length_c 9.714(2)
_cell_angle_alpha 109.451(7)
_cell_angle_beta 99.540(7)
_cell_angle_gamma 96.474(7)
_cell_formula_units_Z 2
loop_
_atom_type_symbol
_atom_type_radius_bond
C 0.68
H 0.23
N 0.68
O 0.68
loop_
_atom_site_label
_atom_site_type_symbol
_atom_site_fract_x
_atom_site_fract_y
_atom_site_fract_z
C1 C -0.0609(3) 0.4383(3) 0.7235(3)
H1 H -0.15040 0.35920 0.72580
H2 H 0.02750 0.46550 0.81070
H3 H -0.01770 0.39310 0.63540
C2 C -0.1275(2) 0.5921(2) 0.7215(2)
O1 O 0.02502(15) 0.69800(15) 0.71797(16)
C3 C 0.0186(2) 0.8470(2) 0.7099(2)
N1 N 0.17149(18) 0.92339(18) 0.70828(17)
C4 C 0.3293(2) 0.8718(2) 0.7533(2)
H4 H 0.30940 0.75390 0.72910
H5 H 0.37050 0.92410 0.86060
C5 C 0.4601(2) 0.9178(2) 0.6738(2)
H6 H 0.56520 0.88710 0.70810
H7 H 0.42300 0.85740 0.56720
N2 N 0.48827(18) 1.09515(18) 0.70205(16)
C6 C 0.5834(2) 1.1978(2) 0.8426(2)
C7 C -0.1871(3) 0.6755(3) 0.8630(3)
H8 H -0.28580 0.60760 0.86600
H9 H -0.21330 0.77960 0.86400
H10 H -0.09990 0.69210 0.94860
O2 O -0.10816(16) 0.90611(16) 0.70148(16)
N3 N 0.7249(2) 1.1515(2) 0.8972(2)
C8 C 0.3302(2) 1.1390(2) 0.6480(2)
H11 H 0.29630 1.08300 0.54050
H12 H 0.34810 1.25610 0.66820
C9 C 0.1884(2) 1.0956(2) 0.7193(2)
H13 H 0.21140 1.16660 0.82360
H14 H 0.08350 1.11340 0.66930
C10 C -0.2609(3) 0.5532(3) 0.5819(3)
H15 H -0.35860 0.48460 0.58590
H16 H -0.21850 0.49680 0.49600
H17 H -0.29070 0.65330 0.57470
O3 O 0.6559(2) 1.42316(18) 1.05009(17)
H18 H 0.62360 1.50710 1.09510
N4 N 0.5327(2) 1.33013(19) 0.91361(19)
H19 H 0.776(3) 1.084(3) 0.835(3)
H20 H 0.789(3) 1.232(3) 0.986(3)
#END
