
#######################################################################
#
#                 Cambridge Crystallographic Data Centre
#                                CCDC
#
#######################################################################
#
# If this CIF has been generated from an entry in the Cambridge
# Structural Database, then it will include bibliographic, chemical,
# crystal, experimental, refinement or atomic coordinate data resulting
# from the CCDC's data processing and validation procedures.
#
#######################################################################

data_CSD_CIF_EFAWIT01
_audit_creation_date 2013-08-20
_audit_creation_method CSD-ConQuest-V1
_database_code_CSD EFAWIT01
_database_code_depnum_ccdc_archive 'CCDC 956724'
_chemical_formula_sum 'C14 H16 N6 O2'
_chemical_formula_moiety
;
C14 H16 N6 O2
;
_journal_coeditor_code "IUCr fk2070"
_journal_coden_Cambridge 1370
_journal_volume 69
_journal_year 2013
_journal_page_first o765
_journal_name_full 'Acta Crystallogr.,Sect.E:Struct.Rep.Online '
loop_
_publ_author_name
"M.O.Plutenko"
"R.D.Lampeka"
"M.Haukka"
"E.Nordlander"
_chemical_name_systematic
;
2-(3,5-Dimethyl-1H-pyrazol-1-yl)-2-(hydroxyimino)-N'-(1-(pyridin-2-yl)ethylide
ne)acetohydrazide
;
_cell_volume   2969.745
_exptl_crystal_colour 'colorless'
_exptl_crystal_density_diffrn 1.343
_exptl_special_details
;
polymorph II

;
_exptl_crystal_description 'block'
_diffrn_ambient_temperature 100
#These two values have been output from a single CSD field.
_refine_ls_R_factor_gt 0.0378
_refine_ls_wR_factor_gt 0.0378
_symmetry_cell_setting monoclinic
_symmetry_space_group_name_H-M 'P 21/n'
_symmetry_Int_Tables_number 14
loop_
_symmetry_equiv_pos_site_id
_symmetry_equiv_pos_as_xyz
1 x,y,z
2 1/2-x,1/2+y,1/2-z
3 -x,-y,-z
4 -1/2+x,-1/2-y,-1/2+z
_cell_length_a 19.4734(4)
_cell_length_b 7.7679(2)
_cell_length_c 19.8042(4)
_cell_angle_alpha 90
_cell_angle_beta 97.552(1)
_cell_angle_gamma 90
_cell_formula_units_Z 8
loop_
_atom_type_symbol
_atom_type_radius_bond
C 0.68
H 0.23
N 0.68
O 0.68
loop_
_atom_site_label
_atom_site_type_symbol
_atom_site_fract_x
_atom_site_fract_y
_atom_site_fract_z
O1 O 0.23337(4) 0.28795(10) 0.54568(4)
O2 O 0.24501(3) 0.03509(9) 0.75693(3)
H1 H 0.2117(9) -0.025(2) 0.7803(8)
N1 N 0.09028(4) 0.25022(10) 0.52885(4)
H2 H 0.1179(7) 0.1554(19) 0.6202(7)
N2 N 0.13341(4) 0.20263(11) 0.58605(4)
N3 N 0.20653(4) 0.08553(10) 0.69785(4)
N4 N 0.31385(4) 0.18287(9) 0.66691(4)
N5 N 0.34090(4) 0.3413(1) 0.68560(4)
N6 N -0.08655(4) 0.22180(11) 0.46263(4)
C1 C 0.00368(5) 0.38205(12) 0.41941(4)
H3 H 0.05000 0.42350 0.42600
C2 C -0.04025(5) 0.42371(13) 0.36098(5)
H4 H -0.02420 0.49110 0.32620
C3 C -0.10829(5) 0.36503(14) 0.35412(5)
H5 H -0.13990 0.39150 0.31470
C4 C -0.12863(5) 0.26698(14) 0.40633(5)
H6 H -0.17540 0.22920 0.40200
C5 C -0.02103(4) 0.27821(12) 0.46846(4)
C6 C 0.02508(4) 0.22338(12) 0.53059(4)
C7 C -0.00595(5) 0.14381(14) 0.58873(5)
H7 H 0.00140 0.22040 0.62840
H8 H 0.01630 0.03260 0.60040
H9 H -0.05570 0.12660 0.57540
C8 C 0.20300(4) 0.22472(11) 0.58951(4)
C9 C 0.24134(4) 0.16000(11) 0.65548(4)
C10 C 0.40910(4) 0.31716(12) 0.69744(4)
C11 C 0.45625(5) 0.46298(13) 0.72087(5)
H10 H 0.42900 0.55860 0.73570
H11 H 0.48070 0.50120 0.68330
H12 H 0.49000 0.42490 0.75900
C12 C 0.42576(4) 0.14436(12) 0.68606(4)
H13 H 0.47080 0.09520 0.69040
C13 C 0.36410(5) 0.06078(11) 0.66743(4)
C14 C 0.34846(6) -0.12230(12) 0.64969(5)
H14 H 0.32540 -0.12960 0.60270
H15 H 0.31800 -0.16970 0.68070
H16 H 0.39170 -0.18840 0.65400
O3 O 0.45992(4) 0.18904(10) 0.25984(4)
O4 O 0.24039(3) -0.02793(9) 0.25464(3)
H17 H 0.2170(9) -0.087(2) 0.2888(9)
N7 N 0.47175(4) 0.22400(11) 0.40050(4)
H18 H 0.3769(8) 0.131(2) 0.3781(7)
N8 N 0.41368(4) 0.16597(11) 0.36033(4)
N9 N 0.30122(4) 0.02189(10) 0.29165(4)
N10 N 0.33140(4) 0.11492(9) 0.18502(4)
N11 N 0.31523(4) 0.27505(9) 0.15885(4)
N12 N 0.53482(4) 0.25441(12) 0.57576(4)
C15 C 0.58299(5) 0.37652(12) 0.48087(5)
H19 H 0.57860 0.39910 0.43340
C16 C 0.64057(5) 0.43270(14) 0.52371(5)
H20 H 0.67680 0.49240 0.50590
C17 C 0.64462(5) 0.40039(15) 0.59324(5)
H21 H 0.68340 0.43780 0.62390
C18 C 0.59051(5) 0.31215(15) 0.61631(5)
H22 H 0.59300 0.29130 0.66380
C19 C 0.53144(5) 0.28602(12) 0.50876(5)
C20 C 0.46937(5) 0.21770(12) 0.46535(5)
C21 C 0.41019(5) 0.14593(15) 0.49801(5)
H23 H 0.36830 0.21320 0.48360
H24 H 0.42130 0.15200 0.54770
H25 H 0.40230 0.02570 0.48410
C22 C 0.41232(5) 0.15523(11) 0.29161(4)
C23 C 0.34393(4) 0.09303(11) 0.25621(4)
C24 C 0.30610(4) 0.25375(12) 0.09149(4)
C25 C 0.28426(5) 0.40217(13) 0.04578(5)
H26 H 0.26840 0.49660 0.07270
H27 H 0.24640 0.36620 0.01110
H28 H 0.32360 0.44110 0.02360
C26 C 0.31770(5) 0.08076(12) 0.07453(4)
H29 H 0.31550 0.03330 0.03010
C27 C 0.33293(5) -0.00536(11) 0.13529(4)
C28 C 0.34777(6) -0.18986(13) 0.15142(6)
H30 H 0.39180 -0.19950 0.18150
H31 H 0.35090 -0.25330 0.10920
H32 H 0.31040 -0.23830 0.17420
#END
