
#######################################################################
#
#                 Cambridge Crystallographic Data Centre
#                                CCDC
#
#######################################################################
#
# If this CIF has been generated from an entry in the Cambridge
# Structural Database, then it will include bibliographic, chemical,
# crystal, experimental, refinement or atomic coordinate data resulting
# from the CCDC's data processing and validation procedures.
#
#######################################################################

data_CSD_CIF_EFAWIT
_audit_creation_date 2013-01-14
_audit_creation_method CSD-ConQuest-V1
_database_code_CSD EFAWIT
_database_code_depnum_ccdc_archive 'CCDC 914350'
_chemical_formula_sum 'C14 H16 N6 O2'
_chemical_formula_moiety
;
C14 H16 N6 O2
;
_journal_coeditor_code "IUCr RZ5011"
_journal_coden_Cambridge 1370
_journal_volume 68
_journal_year 2012
_journal_page_first o3381
_journal_name_full 'Acta Crystallogr.,Sect.E:Struct.Rep.Online '
loop_
_publ_author_name
"M.O.Plutenko"
"R.D.Lampeka"
"M.Haukka"
"E.Nordlander"
_chemical_name_systematic
;
2-(3,5-Dimethyl-1H-pyrazol-1-yl)-2-(hydroxyimino)-N'-(1-(pyridin-2-yl)ethylide
ne)acetohydrazide
;
_cell_volume   1477.321
_exptl_crystal_colour 'colorless'
_exptl_crystal_density_diffrn 1.35
_exptl_special_details
;
polymorph I

;
_exptl_crystal_description 'block'
_exptl_crystal_preparation 'methanol'
_diffrn_ambient_temperature 100
_diffrn_special_details
;
twin

;
#These two values have been output from a single CSD field.
_refine_ls_R_factor_gt 0.0315
_refine_ls_wR_factor_gt 0.0315
_symmetry_cell_setting monoclinic
_symmetry_space_group_name_H-M 'C c'
_symmetry_Int_Tables_number 9
loop_
_symmetry_equiv_pos_site_id
_symmetry_equiv_pos_as_xyz
1 x,y,z
2 x,-y,1/2+z
3 1/2+x,1/2+y,z
4 1/2+x,1/2-y,1/2+z
_cell_length_a 24.5792(6)
_cell_length_b 7.5795(2)
_cell_length_c 8.3072(2)
_cell_angle_alpha 90
_cell_angle_beta 107.335(1)
_cell_angle_gamma 90
_cell_formula_units_Z 4
loop_
_atom_type_symbol
_atom_type_radius_bond
C 0.68
H 0.23
N 0.68
O 0.68
loop_
_atom_site_label
_atom_site_type_symbol
_atom_site_fract_x
_atom_site_fract_y
_atom_site_fract_z
O1 O 0.36481(4) 0.69023(11) 0.54259(10)
O2 O 0.22703(4) 0.54704(12) 0.05549(11)
H1 H 0.22250 0.45970 -0.01650
N1 N 0.56071(4) 0.19215(14) 0.65828(13)
N2 N 0.42935(4) 0.41283(13) 0.53143(12)
N3 N 0.38561(4) 0.46283(14) 0.39135(11)
H2 H 0.37780 0.41530 0.29370
N4 N 0.27952(4) 0.51059(13) 0.16581(12)
N5 N 0.26314(4) 0.76793(12) 0.30874(11)
N6 N 0.21438(4) 0.73146(13) 0.35109(11)
C1 C 0.51137(5) 0.25530(15) 0.67204(14)
C2 C 0.50044(5) 0.27091(17) 0.82763(15)
H3 H 0.46480 0.31420 0.83330
C3 C 0.54243(6) 0.22232(18) 0.97295(16)
H4 H 0.53600 0.23180 1.07990
C4 C 0.59418(5) 0.15935(17) 0.96004(15)
H5 H 0.62400 0.12620 1.05750
C5 C 0.60086(5) 0.14650(17) 0.80058(15)
H6 H 0.63600 0.10260 0.79160
C6 C 0.46826(5) 0.30868(16) 0.51196(14)
C7 C 0.47343(6) 0.24075(18) 0.34765(15)
H7 H 0.44670 0.14280 0.30840
H8 H 0.51240 0.19940 0.36340
H9 H 0.46450 0.33570 0.26380
C8 C 0.35246(5) 0.59735(15) 0.41689(13)
C9 C 0.29671(5) 0.62508(16) 0.28350(13)
C10 C 0.19299(5) 0.88846(16) 0.37111(14)
C11 C 0.13847(6) 0.89937(19) 0.41554(17)
H10 H 0.10830 0.94590 0.31920
H11 H 0.14350 0.97800 0.51260
H12 H 0.12780 0.78150 0.44400
C12 C 0.22777(6) 1.02525(16) 0.34214(16)
H13 H 0.22160 1.14850 0.34780
C13 C 0.27257(5) 0.94425(15) 0.30399(15)
C14 C 0.32359(6) 1.01682(18) 0.26595(17)
H14 H 0.35550 1.02280 0.37000
H15 H 0.31510 1.13550 0.21820
H16 H 0.33380 0.94010 0.18460
#END
