
#######################################################################
#
#                 Cambridge Crystallographic Data Centre
#                                CCDC
#
#######################################################################
#
# If this CIF has been generated from an entry in the Cambridge
# Structural Database, then it will include bibliographic, chemical,
# crystal, experimental, refinement or atomic coordinate data resulting
# from the CCDC's data processing and validation procedures.
#
#######################################################################

data_CSD_CIF_EFAXOY
_audit_creation_date 2002-04-09
_audit_creation_method CSD-ConQuest-V1
_database_code_CSD EFAXOY
_database_code_depnum_ccdc_archive 'CCDC 182030'
_chemical_formula_sum 'C16 H21 N3 O7'
_chemical_formula_moiety
;
C16 H21 N3 O7
;
_journal_coeditor_code "IUCr TA1354"
_journal_coden_Cambridge 591
_journal_volume 58
_journal_year 2002
_journal_page_first o94
_journal_name_full 'Acta Crystallogr.,Sect.C:Cryst.Struct.Commun. '
loop_
_publ_author_name
"M.Spiniello"
"J.M.White"
_chemical_name_systematic
;
trans-2-(4-t-butylcyclohexyloxy)-1,3,5-trinitrobenzene
;
_chemical_melting_point 381
_cell_volume   1779.056
_exptl_crystal_colour 'dark brown'
_exptl_crystal_density_diffrn 1.375
_exptl_special_details
;
Melting point range 381-383K

;
_exptl_crystal_description 'slab'
_exptl_crystal_preparation 'pentane'
_diffrn_ambient_temperature 130.0
#These two values have been output from a single CSD field.
_refine_ls_R_factor_gt 0.047
_refine_ls_wR_factor_gt 0.047
loop_
_citation_database_id_CSD
_citation_special_details
EFAXIS "is a stereoisomer of this entry"
_symmetry_cell_setting monoclinic
_symmetry_space_group_name_H-M 'P 21/c'
_symmetry_Int_Tables_number 14
loop_
_symmetry_equiv_pos_site_id
_symmetry_equiv_pos_as_xyz
1 x,y,z
2 x,1/2-y,1/2+z
3 -x,-y,-z
4 -x,-1/2+y,-1/2-z
_cell_length_a 14.950(3)
_cell_length_b 8.349(1)
_cell_length_c 14.292(5)
_cell_angle_alpha 90
_cell_angle_beta 94.22(3)
_cell_angle_gamma 90
_cell_formula_units_Z 4
loop_
_atom_type_symbol
_atom_type_radius_bond
C 0.68
H 0.23
N 0.68
O 0.68
loop_
_atom_site_label
_atom_site_type_symbol
_atom_site_fract_x
_atom_site_fract_y
_atom_site_fract_z
O1 O 0.84872(10) 0.1190(2) 0.40551(11)
O2 O 0.85703(12) 0.4082(2) 0.52717(13)
O3 O 0.90399(12) 0.2361(2) 0.63250(12)
O4 O 1.23900(12) 0.3059(2) 0.55036(14)
O5 O 1.26771(13) 0.2012(3) 0.41659(16)
O6 O 1.02665(12) -0.0020(2) 0.20675(11)
O7 O 0.91774(12) -0.1046(2) 0.27963(12)
N1 N 0.90506(13) 0.2977(2) 0.55517(14)
N2 N 1.21651(14) 0.2425(3) 0.47530(17)
N3 N 0.97976(14) -0.0092(3) 0.27382(14)
C1 C 0.79426(16) 0.1531(3) 0.31599(16)
H1 H 0.83380 0.14640 0.26260
C2 C 0.75570(16) 0.3191(3) 0.31971(17)
H2 H 0.80480 0.39870 0.32640
H3 H 0.71940 0.32900 0.37460
C3 C 0.69676(16) 0.3517(3) 0.22938(18)
H4 H 0.73500 0.35390 0.17570
H5 H 0.66840 0.45830 0.23380
C4 C 0.62307(16) 0.2244(3) 0.21108(17)
H6 H 0.58510 0.22870 0.26580
C5 C 0.66574(16) 0.0585(3) 0.21249(17)
H7 H 0.70380 0.04880 0.15900
H8 H 0.61790 -0.02340 0.20470
C6 C 0.72289(16) 0.0265(3) 0.30392(17)
H9 H 0.68470 0.02900 0.35760
H10 H 0.75090 -0.08070 0.30160
C7 C 0.55888(17) 0.2578(4) 0.12176(17)
C8 C 0.6077(2) 0.2401(4) 0.03194(18)
H11 H 0.63010 0.13030 0.02730
H12 H 0.65820 0.31520 0.03350
H13 H 0.56610 0.26350 -0.02260
C9 C 0.4801(2) 0.1405(5) 0.1184(2)
H14 H 0.50200 0.03170 0.10840
H15 H 0.43630 0.16980 0.06690
H16 H 0.45150 0.14490 0.17790
C10 C 0.5215(2) 0.4271(4) 0.12585(19)
H17 H 0.49640 0.44410 0.18650
H18 H 0.47430 0.44170 0.07530
H19 H 0.56970 0.50460 0.11840
C11 C 0.93706(16) 0.1490(3) 0.41285(16)
C12 C 0.97072(15) 0.2353(3) 0.49202(15)
C13 C 1.05979(16) 0.2654(3) 0.51559(16)
H20 H 1.07910 0.31950 0.57190
C14 C 1.12021(16) 0.2127(3) 0.45307(17)
C15 C 1.09264(16) 0.1314(3) 0.37222(17)
H21 H 1.13490 0.09930 0.32950
C16 C 1.00252(15) 0.0973(3) 0.35411(16)
#END
