
#######################################################################
#
#                 Cambridge Crystallographic Data Centre
#                                CCDC
#
#######################################################################
#
# If this CIF has been generated from an entry in the Cambridge
# Structural Database, then it will include bibliographic, chemical,
# crystal, experimental, refinement or atomic coordinate data resulting
# from the CCDC's data processing and validation procedures.
#
#######################################################################

data_CSD_CIF_EFICEC
_audit_creation_date 2008-11-20
_audit_creation_method CSD-ConQuest-V1
_database_code_CSD EFICEC
_database_code_depnum_ccdc_archive 'CCDC 689486'
_chemical_formula_sum 'C21 H24 N2 O4'
_chemical_formula_moiety
;
C21 H24 N2 O4
;
_journal_coden_Cambridge 16
_journal_volume 64
_journal_year 2008
_journal_page_first 7477
_journal_name_full 'Tetrahedron '
loop_
_publ_author_name
"F.F.Fleming"
"Yunjing Wei"
"Wang Liu"
"Zhiyu Zhang"
_chemical_name_systematic
;
7a-Cyano-octahydro-4-methyl-1-(prop-1-en-2-yl)-1H-inden-4-yl 4-nitrobenzoate
;
_chemical_melting_point 376
_cell_volume   1008.323
_exptl_crystal_colour 'colorless'
_exptl_crystal_density_diffrn 1.207
_exptl_special_details
;
Melting point range 376-378K

;
_exptl_crystal_description 'plate'
_diffrn_ambient_temperature 296
#These two values have been output from a single CSD field.
_refine_ls_R_factor_gt 0.0404
_refine_ls_wR_factor_gt 0.0404
loop_
_citation_database_id_CSD
_citation_special_details
EFUPUR "is a stereoisomer of this entry"
_symmetry_cell_setting triclinic
_symmetry_space_group_name_H-M 'P -1'
_symmetry_Int_Tables_number 2
loop_
_symmetry_equiv_pos_site_id
_symmetry_equiv_pos_as_xyz
1 x,y,z
2 -x,-y,-z
_cell_length_a 7.1608(2)
_cell_length_b 9.4129(2)
_cell_length_c 15.5648(3)
_cell_angle_alpha 101.594(1)
_cell_angle_beta 99.066(1)
_cell_angle_gamma 94.482(1)
_cell_formula_units_Z 2
loop_
_atom_type_symbol
_atom_type_radius_bond
C 0.68
H 0.23
N 0.68
O 0.68
loop_
_atom_site_label
_atom_site_type_symbol
_atom_site_fract_x
_atom_site_fract_y
_atom_site_fract_z
O1 O 0.27262(19) 0.66855(16) 0.30083(9)
C1 C 0.1813(3) 0.8986(2) 0.35596(14)
C2 C 0.3947(3) 0.5483(3) 0.29897(14)
O2 O 0.4962(2) 0.8400(2) 0.38990(12)
C3 C 0.2246(3) 0.4185(2) 0.13913(13)
C4 C 0.2712(3) 0.4163(3) 0.23848(14)
H1 H 0.34760 0.33480 0.24110
C5 C 0.2139(4) 1.0243(3) 0.42172(16)
H2 H 0.33080 1.04730 0.46000
C6 C 0.3353(3) 0.8013(3) 0.35126(14)
C7 C 0.0084(3) 0.8659(3) 0.29881(16)
H3 H -0.01480 0.78040 0.25490
C8 C -0.1305(4) 0.9592(3) 0.30637(19)
H4 H -0.24560 0.93950 0.26670
C9 C -0.0948(4) 1.0808(3) 0.37338(17)
C10 C 0.0977(3) 0.5306(3) 0.12375(14)
C11 C 0.0740(4) 1.1166(3) 0.43121(17)
H5 H 0.09450 1.20090 0.47600
C12 C 0.4047(3) 0.4511(3) 0.10270(16)
H6 H 0.37120 0.46260 0.04180
H7 H 0.48100 0.37040 0.10260
N1 N -0.2461(4) 1.1795(3) 0.3827(2)
C13 C 0.0978(3) 0.2681(3) 0.10079(16)
H8 H 0.01330 0.27530 0.04620
O3 O -0.3799(4) 1.1627(3) 0.3225(2)
C14 C 0.0808(4) 0.3646(3) 0.26004(17)
H9 H 0.00990 0.44640 0.27680
H10 H 0.09910 0.31350 0.30840
N2 N -0.0057(4) 0.6122(3) 0.10726(14)
C15 C 0.5676(3) 0.5803(3) 0.25738(17)
H11 H 0.63820 0.67160 0.29150
H12 H 0.64980 0.50390 0.26160
C16 C 0.2131(4) 0.1417(3) 0.07850(19)
O4 O -0.2249(5) 1.2719(4) 0.4496(2)
C17 C 0.5188(4) 0.5906(3) 0.16033(19)
H13 H 0.63550 0.60890 0.13800
H14 H 0.44570 0.67220 0.15620
C18 C 0.4458(4) 0.5236(3) 0.39298(16)
H15 H 0.53240 0.60430 0.42890
H16 H 0.50490 0.43520 0.39120
H17 H 0.33240 0.51560 0.41820
C19 C -0.0235(4) 0.2617(3) 0.17390(19)
H18 H -0.14780 0.29180 0.15630
H19 H -0.04090 0.16280 0.18280
C20 C 0.2519(5) 0.1094(4) -0.0131(2)
H20 H 0.33680 0.18780 -0.02130
H21 H 0.13480 0.09920 -0.05460
H22 H 0.30960 0.02020 -0.02320
C21 C 0.2729(5) 0.0627(4) 0.1363(3)
H23 H 0.34110 -0.01530 0.11950
H24 H 0.24670 0.08490 0.19390
#END
