
#######################################################################
#
#                 Cambridge Crystallographic Data Centre
#                                CCDC
#
#######################################################################
#
# If this CIF has been generated from an entry in the Cambridge
# Structural Database, then it will include bibliographic, chemical,
# crystal, experimental, refinement or atomic coordinate data resulting
# from the CCDC's data processing and validation procedures.
#
#######################################################################

data_CSD_CIF_EFNBZE
_audit_creation_date 1975-08-29
_audit_creation_method CSD-ConQuest-V1
_database_code_CSD EFNBZE
_chemical_formula_sum 'C31 H21 N1 O4'
_chemical_formula_moiety
;
C31 H21 N1 O4
;
_journal_coden_Cambridge 189
_journal_volume 4
_journal_year 1975
_journal_page_first 311
_journal_name_full 'Cryst.Struct.Commun. '
loop_
_publ_author_name
"R.L.Harlow"
"S.H.Simonsen"
_chemical_name_systematic
;
(E)-1-Phenyl-1-(3,5-diphenyl-2-furyl)-2-(3-nitrobenzoyl)ethylene
;
_cell_volume   1181.203
_exptl_crystal_density_diffrn 1.324
_diffrn_ambient_temperature 243.15
#These two values have been output from a single CSD field.
_refine_ls_R_factor_gt 0.075
_refine_ls_wR_factor_gt 0.075
_symmetry_cell_setting triclinic
_symmetry_space_group_name_H-M 'P -1'
_symmetry_Int_Tables_number 2
loop_
_symmetry_equiv_pos_site_id
_symmetry_equiv_pos_as_xyz
1 x,y,z
2 -x,-y,-z
_cell_length_a 11.475(5)
_cell_length_b 12.505(6)
_cell_length_c 9.211(3)
_cell_angle_alpha 100.05(4)
_cell_angle_beta 107.16(4)
_cell_angle_gamma 104.04(3)
_cell_formula_units_Z 2
loop_
_atom_type_symbol
_atom_type_radius_bond
C 0.68
H 0.23
N 0.68
O 0.68
loop_
_atom_site_label
_atom_site_type_symbol
_atom_site_fract_x
_atom_site_fract_y
_atom_site_fract_z
C1 C 0.34500 -0.39550 0.20840
C2 C 0.26520 -0.32110 0.17840
C3 C 0.13210 -0.36630 0.12600
C4 C 0.05600 -0.29680 0.08650
C5 C 0.11310 -0.18220 0.09950
C6 C 0.24630 -0.13700 0.15190
C7 C 0.32230 -0.20640 0.19130
C8 C 0.47120 -0.38230 0.23900
C9 C 0.61860 -0.50650 0.29170
C10 C 0.68890 -0.47930 0.19580
C11 C 0.80480 -0.50240 0.21920
C12 C 0.85050 -0.55260 0.33850
C13 C 0.78020 -0.57980 0.43440
C14 C 0.66430 -0.55670 0.41100
C15 C 0.49180 -0.48760 0.25750
C16 C 0.40510 -0.75410 0.23240
C17 C 0.45340 -0.76900 0.11090
C18 C 0.53260 -0.83740 0.10950
C19 C 0.56350 -0.89090 0.22960
C20 C 0.51520 -0.87600 0.35110
C21 C 0.43600 -0.80760 0.35250
C22 C 0.37350 -0.56110 0.23590
C23 C 0.04250 -0.85510 0.31750
C24 C -0.05150 -0.96180 0.26770
C25 C -0.13170 -0.98270 0.35150
C26 C -0.12480 -0.90330 0.48050
C27 C -0.03180 -0.79840 0.52850
C28 C 0.05170 -0.77430 0.44720
C29 C 0.32320 -0.67890 0.23810
C30 C 0.20650 -0.71480 0.25020
C31 C 0.13400 -0.83460 0.23000
H1 H 0.09100 -0.44860 0.11660
H2 H -0.03960 -0.32930 0.04890
H3 H 0.05850 -0.13230 0.07120
H4 H 0.28730 -0.05460 0.16120
H5 H 0.41800 -0.17390 0.22900
H6 H 0.53400 -0.31400 0.24800
H7 H 0.65610 -0.44320 0.11010
H8 H 0.85530 -0.48290 0.15030
H9 H 0.93370 -0.56920 0.35540
H10 H 0.81300 -0.61590 0.52010
H11 H 0.61380 -0.57620 0.47990
H12 H 0.43120 -0.73060 0.02470
H13 H 0.56730 -0.81810 0.02230
H14 H 0.62040 -0.94000 0.22860
H15 H 0.53740 -0.91440 0.43730
H16 H 0.40130 -0.79690 0.43680
H17 H -0.05900 -1.01900 0.18200
H18 H -0.18100 -0.92600 0.53700
H19 H -0.02200 -0.74300 0.61900
H20 H 0.12000 -0.70200 0.48300
H21 H 0.16200 -0.66000 0.27000
N1 N -0.22820 -1.09680 0.30130
O1 O 0.28320 -0.50470 0.20490
O2 O 0.14300 -0.91490 0.14290
O3 O -0.21740 -1.17410 0.21000
O4 O -0.31420 -1.10820 0.35720
#END
