
#######################################################################
#
#                 Cambridge Crystallographic Data Centre
#                                CCDC
#
#######################################################################
#
# If this CIF has been generated from an entry in the Cambridge
# Structural Database, then it will include bibliographic, chemical,
# crystal, experimental, refinement or atomic coordinate data resulting
# from the CCDC's data processing and validation procedures.
#
#######################################################################

data_CSD_CIF_EFOFOV
_audit_creation_date 2008-11-20
_audit_creation_method CSD-ConQuest-V1
_database_code_CSD EFOFOV
_database_code_depnum_ccdc_archive 'CCDC 691817'
_database_code_depnum_ccdc_journal 1135/316
_chemical_formula_sum 'C15 H9 N5 O6'
_chemical_formula_moiety
;
C15 H9 N5 O6
;
_journal_coden_Cambridge 1135
_journal_volume 18
_journal_year 2008
_journal_page_first 200
_journal_name_full 'Mendeleev Commun. '
loop_
_publ_author_name
"I.V.Fedyanin"
"K.A.Lyssenko"
"V.V.Melnikov"
"I.G.Ilina"
"M.Yu.Antipina"
_chemical_name_systematic
;
5,7-Dinitro-N-(4-nitrophenyl)-8-quinolinamine
;
_cell_volume   1495.236
_exptl_crystal_colour 'light yellow'
_exptl_crystal_density_diffrn 1.578
_exptl_crystal_description 'prism'
_exptl_crystal_preparation 'acetonitrile'
_diffrn_ambient_temperature 120
#These two values have been output from a single CSD field.
_refine_ls_R_factor_gt 0.0412
_refine_ls_wR_factor_gt 0.0412
_symmetry_cell_setting orthorhombic
_symmetry_space_group_name_H-M 'P n a 21'
_symmetry_Int_Tables_number 33
loop_
_symmetry_equiv_pos_site_id
_symmetry_equiv_pos_as_xyz
1 x,y,z
2 -x,-y,1/2+z
3 1/2+x,1/2-y,z
4 1/2-x,1/2+y,1/2+z
_cell_length_a 26.016(4)
_cell_length_b 4.7351(7)
_cell_length_c 12.1378(18)
_cell_angle_alpha 90
_cell_angle_beta 90
_cell_angle_gamma 90
_cell_formula_units_Z 4
loop_
_atom_type_symbol
_atom_type_radius_bond
C 0.68
H 0.23
N 0.68
O 0.68
loop_
_atom_site_label
_atom_site_type_symbol
_atom_site_fract_x
_atom_site_fract_y
_atom_site_fract_z
O1 O -0.03186(9) -0.2579(5) 0.1045(2)
O2 O -0.07547(8) 0.0578(6) 0.1924(3)
O3 O -0.00030(9) 0.6806(4) 0.4302(2)
O4 O 0.07547(7) 0.8554(4) 0.39975(17)
O5 O 0.19889(16) 0.6518(10) 0.8026(3)
O6 O 0.24333(12) 1.0025(10) 0.7303(4)
N1 N 0.15252(9) 0.1660(5) 0.1298(2)
N2 N -0.03474(9) -0.0408(5) 0.1582(2)
N3 N 0.04215(8) 0.6745(4) 0.38542(17)
N4 N 0.14726(9) 0.5002(5) 0.29968(19)
H1 H 0.1730(13) 0.463(7) 0.260(3)
N5 N 0.21368(13) 0.7959(11) 0.7235(4)
C1 C 0.15826(13) -0.0061(7) 0.0451(3)
H2 H 0.19080 -0.02600 0.01430
C2 C 0.11745(14) -0.1602(7) -0.0002(3)
H3 H 0.12320 -0.28060 -0.05940
C3 C 0.06927(12) -0.1331(6) 0.0429(2)
H4 H 0.04200 -0.23510 0.01330
C4 C 0.06098(11) 0.0516(5) 0.1331(2)
C5 C 0.01301(10) 0.1081(6) 0.1867(2)
C6 C 0.00909(10) 0.3031(6) 0.2682(2)
H5 H -0.02290 0.34040 0.29930
C7 C 0.05248(10) 0.4495(5) 0.3063(2)
C8 C 0.10179(10) 0.3928(5) 0.2655(2)
C9 C 0.10456(10) 0.1970(5) 0.1730(2)
C10 C 0.16198(9) 0.5765(5) 0.4073(2)
C11 C 0.14149(10) 0.4405(6) 0.4987(2)
H6 H 0.11660 0.30130 0.48980
C12 C 0.15830(12) 0.5133(7) 0.6034(2)
H7 H 0.14460 0.42670 0.66550
C13 C 0.19588(12) 0.7172(9) 0.6130(3)
C14 C 0.21712(11) 0.8501(8) 0.5242(4)
H8 H 0.24260 0.98560 0.53400
C15 C 0.20034(11) 0.7811(6) 0.4196(3)
H9 H 0.21440 0.86940 0.35810
#END
