
#######################################################################
#
#                 Cambridge Crystallographic Data Centre
#                                CCDC
#
#######################################################################
#
# If this CIF has been generated from an entry in the Cambridge
# Structural Database, then it will include bibliographic, chemical,
# crystal, experimental, refinement or atomic coordinate data resulting
# from the CCDC's data processing and validation procedures.
#
#######################################################################

data_CSD_CIF_EFOVEC
_audit_creation_date 2014-06-20
_audit_creation_method CSD-ConQuest-V1
_database_code_CSD EFOVEC
_database_code_depnum_ccdc_archive 'CCDC 1008298'
_chemical_formula_sum 'C43 H28 N4 O3'
_chemical_formula_moiety
;
C43 H28 N4 O3
;
_journal_coeditor_code "IUCr gz3266"
_journal_coden_Cambridge 1777
_journal_volume 70
_journal_year 2014
_journal_page_first 707
_journal_name_full 'Acta Crystallogr.,Sect.C:Cryst.Struct.Chem. '
loop_
_publ_author_name
"M.Zeller"
"S.Banerjee"
"C.Bruckner"
_chemical_name_systematic
;
2,7,12,17-tetraphenyl-4-oxa-21,22,23,24-tetraazapentacyclo[16.2.1.1^3,6^.1^8,1
1^.1^13,16^]tetracosa-1(20),2,6(24),7,9,11,13(22),14,16,18-decaen-5-one 
22-oxide
;
_cell_volume    793.189
_exptl_crystal_colour 'black'
_exptl_crystal_density_diffrn 1.358
_exptl_crystal_description 'block'
_diffrn_ambient_temperature 100
_refine_special_details
;
The structure is disordered.

;
#These two values have been output from a single CSD field.
_refine_ls_R_factor_gt 0.0584
_refine_ls_wR_factor_gt 0.0584
_symmetry_cell_setting triclinic
_symmetry_space_group_name_H-M 'P -1'
_symmetry_Int_Tables_number 2
loop_
_symmetry_equiv_pos_site_id
_symmetry_equiv_pos_as_xyz
1 x,y,z
2 -x,-y,-z
_cell_length_a 6.3512(12)
_cell_length_b 10.405(2)
_cell_length_c 12.464(2)
_cell_angle_alpha 95.548(3)
_cell_angle_beta 99.348(3)
_cell_angle_gamma 100.200(3)
_cell_formula_units_Z 1
loop_
_atom_type_symbol
_atom_type_radius_bond
C 0.68
H 0.23
N 0.68
O 0.68
loop_
_atom_site_label
_atom_site_type_symbol
_atom_site_fract_x
_atom_site_fract_y
_atom_site_fract_z
C1 C -0.3131(3) 0.4285(2) 0.66082(19)
N1 N -0.132(2) 0.5132(16) 0.6439(7)
C2 C -0.160(2) 0.5349(17) 0.8218(11)
N2 N -0.132(2) 0.5132(16) 0.6439(7)
C3 C -0.2990(17) 0.4309(11) 0.7796(9)
H1 H -0.39300 0.37500 0.81510
H2 H -0.08470 0.55300 0.90640
C4 C -0.0261(3) 0.5819(2) 0.74314(18)
C5 C 0.1760(3) 0.6717(2) 0.76366(19)
C6 C 0.3127(3) 0.6980(2) 0.68682(19)
N3 N 0.2750(5) 0.6423(3) 0.5795(3)
H3 H 0.16010 0.58250 0.54750
C7 C 0.5221(9) 0.7860(6) 0.7068(4)
H4 H 0.59100 0.83890 0.77400
H5 H 0.74170 0.82380 0.60260
N4 N 0.2750(5) 0.6423(3) 0.5795(3)
N5 N 0.2750(5) 0.6423(3) 0.5795(3)
C8 C 0.605(4) 0.766(4) 0.6199(18)
C9 C 0.4418(3) 0.6931(2) 0.52916(18)
C10 C 0.4587(3) 0.6664(2) 0.41797(19)
C11 C 0.2558(4) 0.7396(2) 0.87888(19)
C12 C 0.1378(4) 0.8249(3) 0.9251(2)
H6 H 0.00590 0.83870 0.88400
C13 C 0.2131(5) 0.8894(3) 1.0309(2)
H7 H 0.13130 0.94640 1.06200
C14 C 0.4048(5) 0.8716(3) 1.0910(2)
H8 H 0.45630 0.91710 1.16290
C15 C 0.5222(5) 0.7875(3) 1.0464(2)
H9 H 0.65490 0.77530 1.08780
C16 C 0.4476(4) 0.7206(3) 0.9414(2)
H10 H 0.52810 0.66150 0.91210
C17 C 0.6396(3) 0.7525(2) 0.37954(18)
C18 C 0.6600(4) 0.8896(2) 0.39499(19)
H11 H 0.55910 0.92740 0.43000
C19 C 0.8262(4) 0.9711(2) 0.3597(2)
H12 H 0.83900 1.06400 0.37100
C20 C 0.9736(4) 0.9164(2) 0.3079(2)
H13 H 1.08750 0.97190 0.28390
C21 C 0.9545(4) 0.7808(2) 0.2912(2)
H14 H 1.05460 0.74350 0.25520
C22 C 0.7888(4) 0.6994(2) 0.3272(2)
H15 H 0.77720 0.60660 0.31600
N6? N -0.132(2) 0.5132(16) 0.6439(7)
H16? H -0.09170 0.52180 0.58030
C23? C -0.314(2) 0.4428(17) 0.7792(9)
H17? H -0.41920 0.39590 0.81460
C24? C -0.137(3) 0.535(2) 0.8287(9)
H18? H -0.09440 0.56350 0.90520
N7? N 0.254(3) 0.673(2) 0.574(2)
O1? O 0.0475(14) 0.6399(9) 0.5187(8)
C25? C 0.541(2) 0.759(2) 0.7114(11)
H19? H 0.62580 0.78810 0.78260
C26? C 0.613(3) 0.769(4) 0.6156(14)
H20? H 0.74970 0.81570 0.60640
O2? O -0.3357(16) 0.4401(12) 0.7628(7)
O3? O -0.156(4) 0.574(2) 0.8167(17)
C27? C -0.336(3) 0.475(2) 0.7706(17)
O4? O -0.468(5) 0.441(3) 0.821(2)
N8? N -0.149(5) 0.524(3) 0.6446(12)
O5? O -0.1322(7) 0.5743(4) 0.5521(3)
O6? O 0.589(4) 0.786(3) 0.5993(18)
O7? O 0.517(4) 0.771(3) 0.7143(17)
C28? C -0.129(2) 0.5267(14) 0.8297(8)
C29? C 0.6032(11) 0.7794(10) 0.6122(5)
C30? C 0.517(4) 0.790(2) 0.6983(17)
O8? O -0.1305(10) 0.5544(7) 0.9180(5)
O9? O 0.630(2) 0.8609(12) 0.7705(11)
O10? O 0.786(6) 0.815(4) 0.619(4)
C1A C 0.3131(3) 0.5715(2) 0.33918(19)
N1A N 0.132(2) 0.4868(16) 0.3561(7)
C2A C 0.160(2) 0.4651(17) 0.1782(11)
N1A* N 0.132(2) 0.4868(16) 0.3561(7)
C3A C 0.2990(17) 0.5691(11) 0.2204(9)
H1A H 0.39300 0.62500 0.18490
H2A H 0.08470 0.44700 0.09360
C4A C 0.0261(3) 0.4181(2) 0.25686(18)
C5A C -0.1760(3) 0.3283(2) 0.23634(19)
C6A C -0.3127(3) 0.3020(2) 0.31318(19)
N3A N -0.2750(5) 0.3577(3) 0.4205(3)
H3A H -0.16010 0.41750 0.45250
C7A C -0.5221(9) 0.2140(6) 0.2932(4)
H4A H -0.59100 0.16110 0.22600
H5A H -0.74170 0.17620 0.39740
N3A* N -0.2750(5) 0.3577(3) 0.4205(3)
N3A** N -0.2750(5) 0.3577(3) 0.4205(3)
C8A C -0.605(4) 0.234(4) 0.3801(18)
C9A C -0.4418(3) 0.3069(2) 0.47084(18)
C10A C -0.4587(3) 0.3336(2) 0.58203(19)
C11A C -0.2558(4) 0.2604(2) 0.12112(19)
C12A C -0.1378(4) 0.1751(3) 0.0749(2)
H6A H -0.00590 0.16130 0.11600
C13A C -0.2131(5) 0.1106(3) -0.0309(2)
H7A H -0.13130 0.05360 -0.06200
C14A C -0.4048(5) 0.1284(3) -0.0910(2)
H8A H -0.45630 0.08290 -0.16290
C15A C -0.5222(5) 0.2125(3) -0.0464(2)
H9A H -0.65490 0.22470 -0.08780
C16A C -0.4476(4) 0.2794(3) 0.0586(2)
H10A H -0.52810 0.33850 0.08790
C17A C -0.6396(3) 0.2475(2) 0.62046(18)
C18A C -0.6600(4) 0.1104(2) 0.60501(19)
H11A H -0.55910 0.07260 0.57000
C19A C -0.8262(4) 0.0289(2) 0.6403(2)
H12A H -0.83900 -0.06400 0.62900
C20A C -0.9736(4) 0.0836(2) 0.6921(2)
H13A H -1.08750 0.02810 0.71610
C21A C -0.9545(4) 0.2192(2) 0.7088(2)
H14A H -1.05460 0.25650 0.74480
C22A C -0.7888(4) 0.3006(2) 0.6728(2)
H15A H -0.77720 0.39340 0.68400
#END
