
#######################################################################
#
#                 Cambridge Crystallographic Data Centre
#                                CCDC
#
#######################################################################
#
# If this CIF has been generated from an entry in the Cambridge
# Structural Database, then it will include bibliographic, chemical,
# crystal, experimental, refinement or atomic coordinate data resulting
# from the CCDC's data processing and validation procedures.
#
#######################################################################

data_CSD_CIF_EFUCAK
_audit_creation_date 2008-11-20
_audit_creation_method CSD-ConQuest-V1
_database_code_CSD EFUCAK
_database_code_depnum_ccdc_archive 'CCDC 639125'
_chemical_formula_sum 'C9 H11 N7 O7'
_chemical_formula_moiety
;
C9 H11 N7 O7
;
_journal_coden_Cambridge 82
_journal_volume 49
_journal_year 2008
_journal_page_first 187
_journal_name_full 'Zh.Strukt.Khim.(Russ.)(J.Struct.Chem.) '
loop_
_publ_author_name
"V.V.Bakharev"
"A.A.Gidaspov"
"I.A.Litvinov"
"E.V.Mironova"
_chemical_name_systematic
;
2-Methoxy-4-pyrrolidinyl-6-trinitromethyl-1,3,5-triazine
;
_cell_volume    710.873
_exptl_crystal_colour 'colorless'
_exptl_crystal_density_diffrn 1.538
_exptl_crystal_description 'prism'
_exptl_crystal_preparation 'dichloroethane'
_diffrn_ambient_temperature 295
_refine_special_details
;
The oxygen atoms of two nitro groups are each disordered over two sites with 
occupancies of 0.739:0.261 and 0.587:0.413 respectively.
;
#These two values have been output from a single CSD field.
_refine_ls_R_factor_gt 0.0472
_refine_ls_wR_factor_gt 0.0472
_symmetry_cell_setting triclinic
_symmetry_space_group_name_H-M 'P -1'
_symmetry_Int_Tables_number 2
loop_
_symmetry_equiv_pos_site_id
_symmetry_equiv_pos_as_xyz
1 x,y,z
2 -x,-y,-z
_cell_length_a 8.536(1)
_cell_length_b 9.378(2)
_cell_length_c 9.7401(8)
_cell_angle_alpha 79.13(1)
_cell_angle_beta 73.974(8)
_cell_angle_gamma 72.76(1)
_cell_formula_units_Z 2
loop_
_atom_type_symbol
_atom_type_radius_bond
C 0.68
H 0.23
N 0.68
O 0.68
loop_
_atom_site_label
_atom_site_type_symbol
_atom_site_fract_x
_atom_site_fract_y
_atom_site_fract_z
N1 N -0.1283(2) -0.00875(19) 0.89094(18)
O1 O -0.1649(2) -0.24522(17) 0.96691(18)
N2 N -0.0719(2) 0.2195(2) 0.7999(2)
N3 N 0.0688(2) -0.2288(2) 0.8001(2)
C1 C -0.0237(3) 0.0719(2) 0.8016(2)
N4 N 0.1266(2) 0.0097(2) 0.71438(19)
C2 C -0.0748(3) -0.1543(2) 0.8846(2)
C3 C 0.1567(3) -0.1362(2) 0.7221(2)
N5 N 0.4725(3) -0.1831(3) 0.6536(3)
C4 C 0.3207(3) -0.2108(3) 0.6222(2)
C5 C -0.2334(3) 0.3007(3) 0.8854(3)
H1 H -0.25020 0.25890 0.98570
H2 H -0.32720 0.29810 0.84890
C6 C -0.3258(3) -0.1788(3) 1.0562(3)
H3 H -0.37760 -0.25660 1.10990
H4 H -0.39720 -0.11320 0.99690
H5 H -0.30990 -0.12210 1.12150
O2 O 0.2927(3) -0.4309(3) 0.5683(3)
C7 C 0.0211(3) 0.3217(3) 0.7014(3)
H6 H 0.04760 0.29980 0.60290
H7 H 0.12490 0.31500 0.72770
N6 N 0.3496(3) -0.3821(3) 0.6426(3)
N7 N 0.3167(3) -0.1579(3) 0.4645(2)
O3? O 0.4369(15) -0.1118(19) 0.3988(12)
O4? O 0.179(3) -0.139(4) 0.450(4)
O5 O 0.4390(5) -0.2113(7) 0.3743(4)
O6 O 0.1913(9) -0.0789(10) 0.4362(13)
O7 O 0.4201(4) -0.4497(3) 0.7352(3)
C8 C -0.2142(4) 0.4576(3) 0.8666(4)
H8 H -0.32280 0.53060 0.87240
H9 H -0.16390 0.47050 0.93980
C9 C -0.1014(4) 0.4754(3) 0.7207(4)
H10 H -0.04150 0.55030 0.71480
H11 H -0.16600 0.50550 0.64750
O8? O 0.473(3) -0.182(2) 0.771(3)
O9? O 0.5684(9) -0.1322(12) 0.546(1)
O10 O 0.449(2) -0.1383(15) 0.769(2)
O11 O 0.6132(6) -0.2383(9) 0.5757(7)
#END
