
#######################################################################
#
#                 Cambridge Crystallographic Data Centre
#                                CCDC
#
#######################################################################
#
# If this CIF has been generated from an entry in the Cambridge
# Structural Database, then it will include bibliographic, chemical,
# crystal, experimental, refinement or atomic coordinate data resulting
# from the CCDC's data processing and validation procedures.
#
#######################################################################

data_CSD_CIF_EGABEU
_audit_creation_date 2009-04-10
_audit_creation_method CSD-ConQuest-V1
_database_code_CSD EGABEU
_database_code_depnum_ccdc_archive 'CCDC 687371'
_chemical_formula_sum 'C16 H23 N1 O2'
_chemical_formula_moiety
;
C16 H23 N1 O2
;
_journal_coden_Cambridge 1336
_journal_volume 10
_journal_year 2008
_journal_page_first 4113
_journal_name_full 'Org.Lett. '
loop_
_publ_author_name
"Haifeng Duan"
"Xiaohua Sun"
"Wenyan Liao"
"J.L.Petersen"
"Xiaodong Shi"
_chemical_name_systematic
;
4-Methyl-3,5-dicyclohexenyl-4,5-dihydroisoxazole N-oxide
;
_chemical_melting_point 399.15
_cell_volume   2923.378
_exptl_crystal_colour 'colorless'
_exptl_crystal_density_diffrn 1.188
_exptl_special_details
;
Melting point range 399.15-401.15K

;
_diffrn_ambient_temperature 293
_refine_special_details
;
The two cyclohexene groups are disordered over two sites with occupancies 
0.539:0.461 and 0.593:0.407, respectively.
;
#These two values have been output from a single CSD field.
_refine_ls_R_factor_gt 0.0478
_refine_ls_wR_factor_gt 0.0478
_symmetry_cell_setting orthorhombic
_symmetry_space_group_name_H-M 'P b c a'
_symmetry_Int_Tables_number 61
loop_
_symmetry_equiv_pos_site_id
_symmetry_equiv_pos_as_xyz
1 x,y,z
2 1/2-x,-y,1/2+z
3 -x,1/2+y,1/2-z
4 1/2+x,1/2-y,-z
5 -x,-y,-z
6 -1/2+x,y,-1/2-z
7 x,-1/2-y,-1/2+z
8 -1/2-x,-1/2+y,z
_cell_length_a 6.4956(5)
_cell_length_b 18.0854(16)
_cell_length_c 24.885(2)
_cell_angle_alpha 90
_cell_angle_beta 90
_cell_angle_gamma 90
_cell_formula_units_Z 8
loop_
_atom_type_symbol
_atom_type_radius_bond
C 0.68
H 0.23
N 0.68
O 0.68
loop_
_atom_site_label
_atom_site_type_symbol
_atom_site_fract_x
_atom_site_fract_y
_atom_site_fract_z
O1 O 0.55834(16) 0.76695(8) 0.87857(6)
O2 O 0.35720(16) 0.72466(7) 0.81168(5)
N1 N 0.37719(18) 0.76099(7) 0.86303(5)
C1 C 0.1992(2) 0.78178(8) 0.88217(6)
C2 C 0.0330(2) 0.76367(9) 0.84240(6)
H1 H -0.08500 0.74140 0.86080
C3 C 0.1415(2) 0.70554(9) 0.80736(6)
H2 H 0.09800 0.71240 0.77000
C4 C 0.1743(2) 0.81949(9) 0.93333(7)
C5 C 0.3581(19) 0.8339(6) 0.9695(4)
H3 H 0.43680 0.78860 0.97310
H4 H 0.44610 0.87050 0.95260
C6 C 0.2994(7) 0.8606(5) 1.0241(2)
H5 H 0.41650 0.88560 1.04010
H6 H 0.26640 0.81840 1.04650
C7 C 0.1187(12) 0.9126(4) 1.0236(3)
H7 H 0.09610 0.93180 1.05960
H8 H 0.14800 0.95400 1.00010
C8 C -0.071(2) 0.8738(7) 1.0047(7)
H9 H -0.18300 0.90880 1.00060
H10 H -0.11240 0.83660 1.03060
C9 C -0.0226(8) 0.8377(6) 0.9512(4)
H11 H -0.13260 0.82690 0.92860
C10? C 0.352(2) 0.8512(6) 0.9618(5)
H12? H 0.43870 0.87560 0.93550
H13? H 0.43070 0.81090 0.97710
C11? C 0.3052(9) 0.9051(5) 1.0055(3)
H14? H 0.28310 0.95360 0.98990
H15? H 0.42290 0.90840 1.02940
C12? C 0.1159(17) 0.8833(7) 1.0379(4)
H16? H 0.08240 0.92160 1.06380
H17? H 0.14120 0.83760 1.05720
C13? C -0.0620(19) 0.8731(10) 0.9978(7)
H18? H -0.17420 0.84840 1.01620
H19? H -0.11090 0.92170 0.98730
C14? C -0.0144(15) 0.8313(8) 0.9488(5)
H20? H -0.12200 0.81270 0.92820
C15 C -0.0355(3) 0.83132(10) 0.81085(8)
H21 H -0.08830 0.86790 0.83520
H22 H -0.14130 0.81740 0.78590
H23 H 0.07970 0.85140 0.79160
C16 C 0.1011(2) 0.62670(9) 0.82321(6)
C17 C -0.1129(16) 0.5982(5) 0.8136(4)
H24 H -0.20890 0.63060 0.83190
H25 H -0.14170 0.60170 0.77540
C18 C -0.1537(15) 0.5230(5) 0.8307(4)
H26 H -0.25970 0.50220 0.80770
H27 H -0.20700 0.52400 0.86710
C19 C 0.0323(9) 0.4728(2) 0.8291(3)
H28 H -0.00330 0.42500 0.84420
H29 H 0.07470 0.46520 0.79220
C20 C 0.2019(12) 0.5049(5) 0.8596(5)
H30 H 0.32500 0.47580 0.85340
H31 H 0.16970 0.50220 0.89760
C21 C 0.247(2) 0.5859(5) 0.8446(6)
H32 H 0.37630 0.60590 0.85080
C22? C -0.095(3) 0.5989(9) 0.7992(6)
H33? H -0.09450 0.60900 0.76090
H34? H -0.20970 0.62520 0.81500
C23? C -0.123(3) 0.5159(8) 0.8082(5)
H35? H -0.26980 0.50570 0.80950
H36? H -0.06800 0.49010 0.77720
C24? C -0.0247(14) 0.4839(4) 0.8584(5)
H37? H -0.03730 0.43050 0.85750
H38? H -0.09860 0.50170 0.88970
C25? C 0.207(2) 0.5048(9) 0.8640(8)
H39? H 0.25360 0.49560 0.90040
H40? H 0.28940 0.47560 0.83950
C26? C 0.225(3) 0.5831(9) 0.8511(8)
H41? H 0.34160 0.60610 0.86470
#END
