
#######################################################################
#
#                 Cambridge Crystallographic Data Centre
#                                CCDC
#
#######################################################################
#
# If this CIF has been generated from an entry in the Cambridge
# Structural Database, then it will include bibliographic, chemical,
# crystal, experimental, refinement or atomic coordinate data resulting
# from the CCDC's data processing and validation procedures.
#
#######################################################################

data_CSD_CIF_EGAFAU
_audit_creation_date 2009-04-10
_audit_creation_method CSD-ConQuest-V1
_database_code_CSD EGAFAU
_database_code_depnum_ccdc_archive 'CCDC 689191'
_chemical_formula_sum 'C3 H5 N1 O3'
_chemical_formula_moiety
;
C3 H5 N1 O3
;
_journal_coden_Cambridge 24
_journal_volume 49
_journal_year 2008
_journal_page_first 5777
_journal_name_full 'Tetrahedron Lett. '
loop_
_publ_author_name
"C.A.D.Sousa"
"M.L.C.Vale"
"J.E.Rodriguez-Borges"
"X.Garcia-Mera"
"J.Rodriguez-Otero"
_chemical_name_systematic
;
Methyl (2Z)-(hydroxyimino)ethanoate
;
_chemical_name_common
;
Methyl glyoxylate oxime
;
_cell_volume   1375.736
_exptl_crystal_colour 'colorless'
_exptl_crystal_density_diffrn 1.493
_exptl_crystal_description 'prism'
_diffrn_ambient_temperature 100
#These two values have been output from a single CSD field.
_refine_ls_R_factor_gt 0.0347
_refine_ls_wR_factor_gt 0.0347
_symmetry_cell_setting monoclinic
_symmetry_space_group_name_H-M 'P 21/n'
_symmetry_Int_Tables_number 14
loop_
_symmetry_equiv_pos_site_id
_symmetry_equiv_pos_as_xyz
1 x,y,z
2 1/2-x,1/2+y,1/2-z
3 -x,-y,-z
4 -1/2+x,-1/2-y,-1/2+z
_cell_length_a 3.8279(1)
_cell_length_b 22.0805(4)
_cell_length_c 16.2767(3)
_cell_angle_alpha 90
_cell_angle_beta 90.109(1)
_cell_angle_gamma 90
_cell_formula_units_Z 12
loop_
_atom_type_symbol
_atom_type_radius_bond
C 0.68
H 0.23
N 0.68
O 0.68
loop_
_atom_site_label
_atom_site_type_symbol
_atom_site_fract_x
_atom_site_fract_y
_atom_site_fract_z
O1 O 1.2190(2) 0.09060(4) 0.28820(6)
N1 N 1.1943(3) 0.15255(4) 0.29589(6)
C1 C 1.0132(3) 0.16800(5) 0.35818(7)
H1 H 0.91180 0.13970 0.39310
C2 C 0.9754(3) 0.23401(5) 0.37114(7)
O2 O 1.0899(2) 0.27323(4) 0.32644(5)
O3 O 0.7990(2) 0.24561(4) 0.43968(5)
C3 C 0.7470(3) 0.30941(6) 0.45713(8)
H2 H 0.61480 0.32760 0.41340
H3 H 0.96970 0.32910 0.46160
H4 H 0.62210 0.31370 0.50790
O4 O -0.0664(3) 0.24247(4) 0.68328(6)
N2 N 0.0187(3) 0.18216(4) 0.66849(6)
C4 C 0.1965(3) 0.17598(5) 0.60340(7)
H5 H 0.25620 0.20980 0.57230
C5 C 0.3095(3) 0.11464(5) 0.57675(7)
O5 O 0.4812(2) 0.10646(4) 0.51559(5)
O6 O 0.2032(2) 0.07109(4) 0.62755(5)
C6 C 0.3192(3) 0.01051(5) 0.60726(8)
H6 H 0.56980 0.00910 0.60820
H7 H 0.23670 -0.00010 0.55340
H8 H 0.22790 -0.01760 0.64670
O7 O 0.7413(2) 0.15401(4) 0.12080(6)
N3 N 0.6208(3) 0.09746(4) 0.14358(6)
C7 C 0.7355(3) 0.05601(5) 0.09626(7)
H9 H 0.87900 0.06580 0.05220
C8 C 0.6383(3) -0.00793(5) 0.11208(7)
O8 O 0.7205(2) -0.04835(4) 0.06620(5)
O9 O 0.4557(2) -0.01520(4) 0.18128(5)
C9 C 0.3602(3) -0.07716(5) 0.20102(8)
H10 H 0.23570 -0.09470 0.15560
H11 H 0.21410 -0.07750 0.24890
H12 H 0.56760 -0.10030 0.21160
H13 H 1.342(5) 0.0873(8) 0.2453(12)
H14 H 0.635(5) 0.1799(9) 0.1509(12)
H15 H -0.173(6) 0.2397(9) 0.7281(13)
#END
