
#######################################################################
#
#                 Cambridge Crystallographic Data Centre
#                                CCDC
#
#######################################################################
#
# If this CIF has been generated from an entry in the Cambridge
# Structural Database, then it will include bibliographic, chemical,
# crystal, experimental, refinement or atomic coordinate data resulting
# from the CCDC's data processing and validation procedures.
#
#######################################################################

data_CSD_CIF_EGAFIC
_audit_creation_date 2009-04-10
_audit_creation_method CSD-ConQuest-V1
_database_code_CSD EGAFIC
_database_code_depnum_ccdc_archive 'CCDC 689200'
_chemical_formula_sum 'C15 H13 N3 O8'
_chemical_formula_moiety
;
C15 H13 N3 O8
;
_journal_coden_Cambridge 24
_journal_volume 49
_journal_year 2008
_journal_page_first 5777
_journal_name_full 'Tetrahedron Lett. '
loop_
_publ_author_name
"C.A.D.Sousa"
"M.L.C.Vale"
"J.E.Rodriguez-Borges"
"X.Garcia-Mera"
"J.Rodriguez-Otero"
_chemical_name_systematic
;
(+-)-Methyl 
(1R,4R,5R)-(3-(3,5-dinitrobenzoyl)-2-oxa-3-azabicyclo(3.3.0)oct-7-ene)-4-carbo
xylate
;
_chemical_melting_point 333.15
_cell_volume   1526.347
_exptl_crystal_colour 'colorless'
_exptl_crystal_density_diffrn 1.581
_exptl_special_details
;
Melting point range 333.15-335.15K

;
_exptl_crystal_description 'prism'
_diffrn_ambient_temperature 100
#These two values have been output from a single CSD field.
_refine_ls_R_factor_gt 0.0474
_refine_ls_wR_factor_gt 0.0474
_symmetry_cell_setting triclinic
_symmetry_space_group_name_H-M 'P -1'
_symmetry_Int_Tables_number 2
loop_
_symmetry_equiv_pos_site_id
_symmetry_equiv_pos_as_xyz
1 x,y,z
2 -x,-y,-z
_cell_length_a 8.7157(3)
_cell_length_b 10.8269(3)
_cell_length_c 17.0677(5)
_cell_angle_alpha 79.881(1)
_cell_angle_beta 77.773(1)
_cell_angle_gamma 78.281(1)
_cell_formula_units_Z 4
loop_
_atom_type_symbol
_atom_type_radius_bond
C 0.68
H 0.23
N 0.68
O 0.68
loop_
_atom_site_label
_atom_site_type_symbol
_atom_site_fract_x
_atom_site_fract_y
_atom_site_fract_z
C1 C 0.9942(2) 0.18394(19) 0.38593(13)
C2 C 1.0752(2) 0.2818(2) 0.34588(13)
H1 H 1.09920 0.29560 0.28960
C3 C 1.1195(2) 0.35814(19) 0.39127(13)
N1 N 1.2051(2) 0.46174(17) 0.34844(11)
O1 O 1.2230(2) 0.48129(16) 0.2746(1)
O2 O 1.25526(19) 0.52204(15) 0.38914(10)
C4 C 1.0872(2) 0.34329(19) 0.47509(13)
H2 H 1.12010 0.39460 0.50440
C5 C 1.0029(2) 0.24721(19) 0.51215(13)
N2 N 0.9606(2) 0.22901(17) 0.60139(11)
O3 O 1.0221(2) 0.28525(15) 0.63892(10)
O4 O 0.8644(2) 0.15906(15) 0.63199(10)
C6 C 0.9546(2) 0.1685(2) 0.47014(13)
H3 H 0.89640 0.10590 0.49770
C7 C 0.9295(3) 0.0975(2) 0.34540(13)
O5 O 0.81962(18) 0.04407(14) 0.38263(9)
N3 N 0.9857(2) 0.08830(17) 0.26587(11)
O6 O 1.13586(18) 0.11886(14) 0.22609(9)
C8 C 1.2273(3) -0.0039(2) 0.20221(14)
H4 H 1.27800 -0.05630 0.24580
C9 C 1.3444(3) 0.0181(2) 0.12586(14)
H5 H 1.43850 0.04840 0.12230
C10 C 1.2969(3) -0.0111(2) 0.06383(14)
H6 H 1.35610 -0.00570 0.01160
C11 C 1.1382(3) -0.0538(2) 0.08611(14)
H7 H 1.14340 -0.13430 0.06730
H8 H 1.05710 0.00930 0.06350
C12 C 1.1035(3) -0.0680(2) 0.17955(13)
H9 H 1.11970 -0.15860 0.20160
C13 C 0.9406(3) -0.0004(2) 0.22286(13)
H10 H 0.88920 -0.06350 0.26260
C14 C 0.8278(3) 0.0653(2) 0.16619(14)
O7 O 0.7600(2) 0.00814(17) 0.13342(10)
O8 O 0.8140(2) 0.19225(16) 0.15572(10)
C15 C 0.7075(4) 0.2615(3) 0.10190(17)
H11 H 0.74760 0.23950 0.04840
H12 H 0.70090 0.35140 0.10070
H13 H 0.60340 0.23940 0.12100
C16 C 0.6061(2) 0.36166(19) 0.38716(13)
C17 C 0.5616(2) 0.2795(2) 0.34533(13)
H14 H 0.58630 0.28810 0.28910
C18 C 0.4798(2) 0.1845(2) 0.38893(13)
N4 N 0.4341(2) 0.09760(17) 0.34395(12)
O9 O 0.4812(2) 0.10687(17) 0.27083(10)
O10 O 0.35044(19) 0.02069(15) 0.38273(10)
C19 C 0.4382(2) 0.16728(19) 0.47197(13)
H15 H 0.37990 0.10490 0.49970
C20 C 0.4885(2) 0.2484(2) 0.51171(13)
N5 N 0.4501(2) 0.23228(17) 0.60065(11)
O11 O 0.3526(2) 0.16400(16) 0.63497(10)
O12 O 0.5182(2) 0.28796(15) 0.63533(10)
C21 C 0.5721(2) 0.3436(2) 0.47166(13)
H16 H 0.60550 0.39510 0.50070
C22 C 0.7027(3) 0.4644(2) 0.34872(13)
O13 O 0.78205(18) 0.50231(14) 0.38786(9)
N6 N 0.7092(2) 0.50775(18) 0.26884(11)
O14 O 0.59327(19) 0.49161(14) 0.22645(9)
C23 C 0.5203(3) 0.6231(2) 0.19852(14)
H17 H 0.43380 0.65870 0.23950
C24 C 0.4685(3) 0.6268(2) 0.12065(15)
H18 H 0.37770 0.59840 0.11570
C25 C 0.5688(3) 0.6761(3) 0.05900(16)
H19 H 0.55600 0.68600 0.00540
C26 C 0.7046(3) 0.7143(3) 0.08449(15)
H20 H 0.71370 0.80210 0.06280
H21 H 0.80450 0.65980 0.06660
C27 C 0.6601(3) 0.6973(2) 0.17758(14)
H22 H 0.62510 0.78090 0.19620
C28 C 0.7859(3) 0.6152(2) 0.22667(14)
H23 H 0.80120 0.66400 0.26680
C29 C 0.9452(3) 0.5754(2) 0.17384(14)
O15 O 1.0372(2) 0.64757(16) 0.14466(11)
O16 O 0.9688(2) 0.45359(16) 0.1619(1)
C30 C 1.1169(3) 0.4105(3) 0.10927(16)
H24 H 1.12340 0.46440 0.05800
H25 H 1.12020 0.32440 0.10120
H26 H 1.20520 0.41420 0.13370
#END
