
#######################################################################
#
#                 Cambridge Crystallographic Data Centre
#                                CCDC
#
#######################################################################
#
# If this CIF has been generated from an entry in the Cambridge
# Structural Database, then it will include bibliographic, chemical,
# crystal, experimental, refinement or atomic coordinate data resulting
# from the CCDC's data processing and validation procedures.
#
#######################################################################

data_CSD_CIF_EGAZIX
_audit_creation_date 2014-06-23
_audit_creation_method CSD-ConQuest-V1
_database_code_CSD EGAZIX
_database_code_depnum_ccdc_archive 'CCDC 1005572'
_chemical_formula_sum 'C21 H18 N2 O5'
_chemical_formula_moiety
;
C21 H18 N2 O5
;
_journal_coden_Cambridge 182
_journal_volume 50
_journal_year 2014
_journal_page_first 8539
_journal_name_full 'Chem.Commun. '
loop_
_publ_author_name
"Shen Liu"
"Wenteng Chen"
"Jing Luo"
"Yongping Yu"
_chemical_name_systematic
;
methyl 2'-amino-4''-methoxy-4-nitro-1,1':3',1''-terphenyl-4'-carboxylate
;
_cell_volume   3666.342
_exptl_crystal_colour 'yellow'
_exptl_crystal_density_diffrn 1.371
_exptl_crystal_description 'platelet'
_diffrn_ambient_temperature 293.1
#These two values have been output from a single CSD field.
_refine_ls_R_factor_gt 0.0482
_refine_ls_wR_factor_gt 0.0482
_symmetry_cell_setting monoclinic
_symmetry_space_group_name_H-M 'C 2/c'
_symmetry_Int_Tables_number 15
loop_
_symmetry_equiv_pos_site_id
_symmetry_equiv_pos_as_xyz
1 x,y,z
2 -x,y,1/2-z
3 1/2+x,1/2+y,z
4 1/2-x,1/2+y,1/2-z
5 -x,-y,-z
6 x,-y,-1/2+z
7 -1/2-x,-1/2-y,-z
8 -1/2+x,-1/2-y,-1/2+z
_cell_length_a 34.026(3)
_cell_length_b 8.1856(7)
_cell_length_c 13.2003(9)
_cell_angle_alpha 90
_cell_angle_beta 94.279(7)
_cell_angle_gamma 90
_cell_formula_units_Z 8
loop_
_atom_type_symbol
_atom_type_radius_bond
C 0.68
H 0.23
N 0.68
O 0.68
loop_
_atom_site_label
_atom_site_type_symbol
_atom_site_fract_x
_atom_site_fract_y
_atom_site_fract_z
O1 O 0.47652(5) -0.1607(2) 0.63725(13)
O2 O 0.42900(5) 0.0103(2) 0.62926(15)
O3 O 0.66492(10) 0.9755(3) 0.6447(2)
O4 O 0.66225(6) 0.9356(2) 0.48255(15)
O5 O 0.71942(5) 0.5066(2) 0.17873(11)
N1 N 0.46395(6) -0.0214(3) 0.63095(12)
N2 N 0.59678(6) 0.3767(2) 0.44383(14)
H1 H 0.5778(8) 0.307(3) 0.4406(18)
H2 H 0.6104(8) 0.383(3) 0.392(2)
C1 C 0.55784(6) 0.1997(3) 0.61216(14)
H3 H 0.58450 0.17570 0.60970
C2 C 0.53147(6) 0.0743(3) 0.62050(13)
H4 H 0.54000 -0.03370 0.62420
C3 C 0.49213(6) 0.1126(3) 0.62323(13)
C4 C 0.47873(6) 0.2702(3) 0.62028(14)
H5 H 0.45210 0.29270 0.62330
C5 C 0.50556(6) 0.3948(3) 0.61275(14)
H6 H 0.49680 0.50250 0.61120
C6 C 0.54553(6) 0.3622(2) 0.60736(13)
C7 C 0.57409(6) 0.4967(2) 0.59654(13)
C8 C 0.57688(6) 0.6235(3) 0.66625(15)
H7 H 0.56030 0.62430 0.71910
C9 C 0.60347(6) 0.7476(3) 0.65914(15)
H8 H 0.60520 0.82990 0.70790
C10 C 0.62807(6) 0.7513(2) 0.57898(15)
C11 C 0.62636(5) 0.6263(2) 0.50702(13)
C12 C 0.59892(5) 0.4988(2) 0.51561(13)
C13 C 0.65395(7) 0.8960(3) 0.5739(2)
C14 C 0.68307(10) 1.0846(3) 0.4674(3)
H9 H 0.68580 1.10000 0.39620
H10 H 0.70870 1.07900 0.50280
H11 H 0.66870 1.17450 0.49310
C15 C 0.65319(5) 0.6104(2) 0.42257(13)
C16 C 0.64377(6) 0.6733(3) 0.32606(15)
H12 H 0.62190 0.74080 0.31490
C17 C 0.66641(6) 0.6371(3) 0.24655(15)
H13 H 0.65970 0.67990 0.18230
C18 C 0.69903(6) 0.5373(2) 0.26217(14)
C19 C 0.70915(6) 0.4761(3) 0.35738(15)
H14 H 0.73120 0.40980 0.36860
C20 C 0.68625(6) 0.5138(2) 0.43662(14)
H15 H 0.69340 0.47270 0.50100
C21 C 0.74647(9) 0.3738(4) 0.1856(2)
H16 H 0.75440 0.34810 0.11910
H17 H 0.73410 0.28020 0.21320
H18 H 0.76920 0.40360 0.22900
#END
