
#######################################################################
#
#                 Cambridge Crystallographic Data Centre
#                                CCDC
#
#######################################################################
#
# If this CIF has been generated from an entry in the Cambridge
# Structural Database, then it will include bibliographic, chemical,
# crystal, experimental, refinement or atomic coordinate data resulting
# from the CCDC's data processing and validation procedures.
#
#######################################################################

data_CSD_CIF_EGEHAA
_audit_creation_date 2009-04-10
_audit_creation_method CSD-ConQuest-V1
_database_code_CSD EGEHAA
_database_code_depnum_ccdc_archive 'CCDC 694822'
_chemical_formula_sum 'C6 H8 N6 O16'
_chemical_formula_moiety
;
C6 H8 N6 O16
;
_journal_coden_Cambridge 179
_journal_volume 47
_journal_year 2008
_journal_page_first 8307
_journal_name_full 'Angew.Chem.,Int.Ed. '
loop_
_publ_author_name
"D.E.Chavez"
"M.A.Hiskey"
"D.L.Naud"
"D.Parrish"
_chemical_name_systematic
;
3,4-dideoxy-3,4-dinitro-1,2,5,6-tetra-O-nitrohexitol
;
_chemical_name_common
;
1,3,4-tris(nitrooxy)-2,3-bis[(nitrooxy)methyl]butan-2-yl nitrate
;
_chemical_melting_point 358.15
_cell_volume   1456.012
_exptl_crystal_colour 'colorless'
_exptl_crystal_density_diffrn 1.917
_exptl_special_details
;
Melting point range 358.15-359.15K
explosive

;
_exptl_crystal_description 'plate'
_exptl_crystal_preparation 'isopropanol'
_diffrn_ambient_temperature 103
#These two values have been output from a single CSD field.
_refine_ls_R_factor_gt 0.0412
_refine_ls_wR_factor_gt 0.0412
_symmetry_cell_setting monoclinic
_symmetry_space_group_name_H-M 'P 21/n'
_symmetry_Int_Tables_number 14
loop_
_symmetry_equiv_pos_site_id
_symmetry_equiv_pos_as_xyz
1 x,y,z
2 1/2-x,1/2+y,1/2-z
3 -x,-y,-z
4 -1/2+x,-1/2-y,-1/2+z
_cell_length_a 8.1228(6)
_cell_length_b 23.0560(16)
_cell_length_c 8.5072(6)
_cell_angle_alpha 90
_cell_angle_beta 113.953(1)
_cell_angle_gamma 90
_cell_formula_units_Z 4
loop_
_atom_type_symbol
_atom_type_radius_bond
C 0.68
H 0.23
N 0.68
O 0.68
loop_
_atom_site_label
_atom_site_type_symbol
_atom_site_fract_x
_atom_site_fract_y
_atom_site_fract_z
C1 C 0.3106(3) 0.15335(8) 0.2841(2)
H1 H 0.40690 0.12870 0.27660
H2 H 0.21010 0.15610 0.16900
N1 N 0.4058(2) 0.24720(8) 0.2294(2)
O1 O 0.37814(18) 0.21002(6) 0.35093(16)
O2 O 0.4691(2) 0.29278(7) 0.2920(2)
O3 O 0.3626(2) 0.22831(7) 0.08681(19)
C2 C 0.2455(3) 0.12963(8) 0.4183(2)
C3 C 0.0831(2) 0.16413(8) 0.4143(2)
H3 H 0.03230 0.14650 0.49100
H4 H 0.11680 0.20480 0.45000
N2 N -0.2237(2) 0.17208(6) 0.2102(2)
N3 N 0.1787(2) 0.06721(7) 0.35965(18)
O4 O -0.04380(18) 0.16109(6) 0.23681(16)
O5 O -0.32082(19) 0.17439(6) 0.05993(16)
O6 O -0.25771(18) 0.17758(6) 0.33453(16)
O7 O 0.04983(19) 0.04993(6) 0.38442(17)
O8 O 0.26263(19) 0.03895(6) 0.29415(16)
C4 C 0.4015(3) 0.12367(8) 0.6040(2)
C5 C 0.5761(3) 0.10270(8) 0.5966(2)
H5 H 0.55600 0.06640 0.52930
H6 H 0.62530 0.13240 0.54340
N4 N 0.8765(2) 0.08342(7) 0.7944(2)
N5 N 0.4363(2) 0.18453(7) 0.68798(19)
O9 O 0.69715(18) 0.09295(6) 0.77366(15)
O10 O 0.97780(19) 0.07707(6) 0.94193(17)
O11 O 0.90526(18) 0.08279(6) 0.66608(17)
O12 O 0.57213(19) 0.21060(6) 0.70311(17)
O13 O 0.32275(19) 0.20225(6) 0.73681(16)
C6 C 0.3484(3) 0.08714(8) 0.7299(2)
H7 H 0.42840 0.09590 0.85090
H8 H 0.22210 0.09480 0.71200
N6 N 0.3409(2) -0.01196(7) 0.7992(2)
O14 O 0.37042(19) 0.02792(5) 0.68764(16)
O15 O 0.3622(2) -0.06122(6) 0.76550(18)
O16 O 0.3017(2) 0.00706(6) 0.91129(17)
#END
