
#######################################################################
#
#                 Cambridge Crystallographic Data Centre
#                                CCDC
#
#######################################################################
#
# If this CIF has been generated from an entry in the Cambridge
# Structural Database, then it will include bibliographic, chemical,
# crystal, experimental, refinement or atomic coordinate data resulting
# from the CCDC's data processing and validation procedures.
#
#######################################################################

data_CSD_CIF_EGEQUC
_audit_creation_date 2002-12-11
_audit_creation_method CSD-ConQuest-V1
_database_code_CSD EGEQUC
_chemical_formula_sum 'C18 H17 N3 O5'
_chemical_formula_moiety
;
C18 H17 N3 O5
;
_journal_coden_Cambridge 151
_journal_volume 45
_journal_year 2002
_journal_page_first 1697
_journal_name_full 'J.Med.Chem. '
loop_
_publ_author_name
"Le Wang"
"K.W.Woods"
"Qun Li"
"K.J.Barr"
"R.W.McCroskey"
"S.M.Hannick"
"L.Gherke"
"R.B.Credo"
"Yu-Hua Hui"
"K.Marsh"
"R.Warner"
"J.Y.Lee"
"N.Zielinski-Mozng"
"D.Frost"
"S.H.Rosenberg"
"H.L.Sham"
_chemical_name_systematic
;
2-(4-Nitrophenyl)-1-(3,4,5-trimethoxyphenyl)imidazole
;
_cell_volume    866.897
_exptl_crystal_colour 'yellow'
_exptl_crystal_density_diffrn 1.361
_diffrn_ambient_temperature 296.15
#These two values have been output from a single CSD field.
_refine_ls_R_factor_gt 0.045
_refine_ls_wR_factor_gt 0.045
_symmetry_cell_setting triclinic
_symmetry_space_group_name_H-M 'P -1'
_symmetry_Int_Tables_number 2
loop_
_symmetry_equiv_pos_site_id
_symmetry_equiv_pos_as_xyz
1 x,y,z
2 -x,-y,-z
_cell_length_a 9.364(3)
_cell_length_b 11.047(4)
_cell_length_c 8.688(3)
_cell_angle_alpha 92.13(3)
_cell_angle_beta 99.55(3)
_cell_angle_gamma 78.00(3)
_cell_formula_units_Z 2
loop_
_atom_type_symbol
_atom_type_radius_bond
C 0.68
H 0.23
N 0.68
O 0.68
loop_
_atom_site_label
_atom_site_type_symbol
_atom_site_fract_x
_atom_site_fract_y
_atom_site_fract_z
O1 O 0.1346(2) 0.9266(2) 0.4139(3)
O2 O 0.2233(2) 1.1125(2) 0.2875(3)
O3 O 0.4909(2) 1.0802(2) 0.2092(3)
O4 O 0.1212(3) 0.3135(3) -0.1403(3)
O5 O 0.0309(3) 0.5088(3) -0.1827(3)
N1 N 0.1233(3) 0.4235(4) -0.1157(3)
N2 N 0.6086(3) 0.6555(2) 0.3896(3)
N3 N 0.6987(3) 0.4535(2) 0.3943(3)
C1 C 0.2413(3) 0.4566(3) -0.0007(4)
C2 C 0.2665(3) 0.5744(3) 0.0030(3)
C3 C 0.3782(3) 0.6048(3) 0.1114(3)
C4 C 0.4630(3) 0.5174(3) 0.2203(3)
C5 C 0.4343(3) 0.3991(3) 0.2127(3)
C6 C 0.3249(4) 0.3671(3) 0.1029(4)
C7 C 0.5861(3) 0.5420(3) 0.3344(3)
C8 C 0.5093(3) 0.7745(3) 0.3646(3)
C9 C 0.3701(3) 0.7878(3) 0.4061(3)
C10 C 0.2732(3) 0.9021(3) 0.3763(3)
C11 C 0.3170(4) 0.9973(3) 0.3107(4)
C12 C 0.4581(4) 0.9817(3) 0.2734(3)
C13 C 0.5559(3) 0.8681(3) 0.3007(3)
C14 C 0.7419(3) 0.6371(3) 0.4878(3)
C15 C 0.7945(3) 0.5127(3) 0.4880(3)
C16 C 0.0738(4) 0.8264(3) 0.4509(5)
C17 C 0.1017(4) 1.1173(3) 0.1639(5)
C18 C 0.6350(4) 1.0699(3) 0.1724(4)
H1 H 0.20730 0.63470 -0.06880
H2 H 0.39800 0.68580 0.11240
H3 H 0.49170 0.33860 0.28520
H4 H 0.30720 0.28530 0.09830
H5 H 0.34180 0.72190 0.45280
H6 H 0.65280 0.85580 0.27550
H7 H 0.78770 0.69820 0.54370
H8 H 0.88600 0.47240 0.54590
H9 H -0.02310 0.85700 0.47360
H10 H 0.06930 0.77130 0.36440
H11 H 0.13430 0.78400 0.53910
H12 H 0.04370 1.19890 0.15570
H13 H 0.13770 1.09460 0.06880
H14 H 0.04280 1.06140 0.18520
H15 H 0.70600 1.05220 0.26460
H16 H 0.65300 1.00520 0.09870
H17 H 0.64250 1.14580 0.12930
#END
