
#######################################################################
#
#                 Cambridge Crystallographic Data Centre
#                                CCDC
#
#######################################################################
#
# If this CIF has been generated from an entry in the Cambridge
# Structural Database, then it will include bibliographic, chemical,
# crystal, experimental, refinement or atomic coordinate data resulting
# from the CCDC's data processing and validation procedures.
#
#######################################################################

data_CSD_CIF_EGIHAD
_audit_creation_date 2002-12-11
_audit_creation_method CSD-ConQuest-V1
_database_code_CSD EGIHAD
_database_code_depnum_ccdc_archive 'CCDC 193117'
_chemical_formula_sum 'C14 H28 N2 O3'
_chemical_formula_moiety
;
C14 H28 N2 O3
;
_journal_coden_Cambridge 4
_journal_volume 124
_journal_year 2002
_journal_page_first 9966
_journal_name_full 'J.Am.Chem.Soc. '
loop_
_publ_author_name
"Dan Yang"
"Yu-Hui Zhang"
"Nian-Yong Zhu"
_chemical_name_systematic
;
3-(((2,2-Dimethylpropanoyl)amino)oxy)-N-isobutyl-2,2-dimethylpropanamide
;
_cell_volume   3421.365
_exptl_crystal_colour 'colorless'
_exptl_crystal_density_diffrn 1.058
_exptl_crystal_description 'prism'
_diffrn_ambient_temperature 293
_refine_special_details
;
The t-butyl and isopropyl groups are all equally disordered over two sites.

;
#These two values have been output from a single CSD field.
_refine_ls_R_factor_gt 0.0573
_refine_ls_wR_factor_gt 0.0573
_symmetry_cell_setting monoclinic
_symmetry_space_group_name_H-M 'P 21/n'
_symmetry_Int_Tables_number 14
loop_
_symmetry_equiv_pos_site_id
_symmetry_equiv_pos_as_xyz
1 x,y,z
2 1/2-x,1/2+y,1/2-z
3 -x,-y,-z
4 -1/2+x,-1/2-y,-1/2+z
_cell_length_a 11.294(2)
_cell_length_b 18.588(4)
_cell_length_c 16.301(3)
_cell_angle_alpha 90
_cell_angle_beta 91.20(3)
_cell_angle_gamma 90
_cell_formula_units_Z 8
loop_
_atom_type_symbol
_atom_type_radius_bond
C 0.68
H 0.23
N 0.68
O 0.68
loop_
_atom_site_label
_atom_site_type_symbol
_atom_site_fract_x
_atom_site_fract_y
_atom_site_fract_z
O1 O 0.32727(18) 0.20623(14) 0.25083(16)
O2 O 0.18541(17) 0.10293(11) 0.29745(14)
O3 O -0.10794(19) 0.23633(13) 0.31641(15)
N1 N 0.3004(2) 0.08882(19) 0.2702(2)
N2 N 0.0883(3) 0.24565(16) 0.30017(18)
C1 C 0.3679(3) 0.1456(2) 0.2536(2)
C2 C 0.4975(3) 0.1294(2) 0.2353(3)
C3 C -0.0126(3) 0.2096(2) 0.29426(19)
C4 C -0.0143(3) 0.13380(18) 0.2580(2)
C5 C 0.1056(3) 0.10788(17) 0.2286(2)
H1 H 0.09720 0.06120 0.20260
H2 H 0.13630 0.14140 0.18870
C6 C 0.0993(3) 0.3176(2) 0.3337(3)
H3 H 0.02060 0.33600 0.34410
H4 H 0.13440 0.34840 0.29280
C7 C 0.1706(7) 0.3224(3) 0.4097(4)
H5 H 0.24640 0.30010 0.39620
C8 C 0.4991(11) 0.0637(10) 0.1777(9)
H6 H 0.45490 0.07450 0.12830
H7 H 0.46410 0.02320 0.20450
H8 H 0.57940 0.05250 0.16430
C9 C 0.5583(9) 0.1104(10) 0.3100(8)
H9 H 0.63970 0.10020 0.29880
H10 H 0.52200 0.06860 0.33320
H11 H 0.55410 0.14970 0.34800
C10 C 0.5418(12) 0.1950(8) 0.1887(17)
H12 H 0.49680 0.20030 0.13850
H13 H 0.62390 0.18880 0.17660
H14 H 0.53240 0.23730 0.22180
C11 C -0.0969(3) 0.1351(2) 0.1823(2)
H15 H -0.09970 0.08810 0.15790
H16 H -0.06780 0.16910 0.14320
H17 H -0.17510 0.14890 0.19830
C12 C -0.0617(3) 0.0822(2) 0.3236(2)
H18 H -0.06440 0.03420 0.30200
H19 H -0.13990 0.09690 0.33840
H20 H -0.01030 0.08350 0.37120
C13 C 0.1206(14) 0.2744(7) 0.4754(6)
H21 H 0.16900 0.27790 0.52440
H22 H 0.11960 0.22550 0.45650
H23 H 0.04130 0.28940 0.48710
C14 C 0.2003(13) 0.4038(9) 0.4214(8)
H24 H 0.25020 0.40980 0.46930
H25 H 0.12820 0.43040 0.42800
H26 H 0.24060 0.42120 0.37410
H27 H 0.153(3) 0.2186(18) 0.286(2)
H28 H 0.325(3) 0.0484(19) 0.283(2)
O4 O 0.0977(2) 0.20936(12) 0.02895(15)
O5 O 0.24383(17) 0.31217(11) -0.01436(14)
O6 O 0.1490(2) 0.45211(14) 0.17344(16)
N3 N 0.2480(2) 0.24309(15) -0.04912(19)
N4 N 0.0869(2) 0.35008(18) 0.11538(19)
C15 C 0.1657(3) 0.19604(18) -0.0268(2)
C16 C 0.1640(3) 0.12423(19) -0.0714(2)
C17 C 0.1711(3) 0.3979(2) 0.1322(2)
C18 C 0.2965(3) 0.38546(17) 0.1028(2)
C19 C 0.3143(3) 0.31348(17) 0.0602(2)
H29 H 0.39720 0.30710 0.04780
H30 H 0.29050 0.27460 0.09600
C20 C -0.0354(3) 0.35847(19) 0.1392(2)
H31 H -0.03850 0.39510 0.18150
H32 H -0.06150 0.31360 0.16330
C21 C -0.1189(4) 0.3781(4) 0.0732(3)
H33 H -0.08890 0.42740 0.06870
C22 C 0.204(2) 0.0685(6) -0.0127(7)
H34 H 0.20280 0.02250 -0.03930
H35 H 0.15110 0.06750 0.03290
H36 H 0.28240 0.07930 0.00660
C23 C 0.0285(8) 0.1084(8) -0.0933(12)
H37 H 0.02210 0.06370 -0.12240
H38 H -0.00280 0.14660 -0.12700
H39 H -0.01550 0.10550 -0.04370
C24 C 0.2262(18) 0.1195(7) -0.1496(10)
H40 H 0.21720 0.07190 -0.17180
H41 H 0.30880 0.12960 -0.14040
H42 H 0.19320 0.15390 -0.18760
C25 C 0.3795(3) 0.3860(2) 0.1787(2)
H43 H 0.45950 0.37790 0.16200
H44 H 0.35660 0.34860 0.21570
H45 H 0.37450 0.43170 0.20570
C26 C 0.3283(3) 0.44756(18) 0.0457(2)
H46 H 0.40700 0.44060 0.02600
H47 H 0.32470 0.49220 0.07530
H48 H 0.27330 0.44890 0.00010
C27 C -0.1170(12) 0.3628(9) -0.0049(9)
H49 H -0.18790 0.38060 -0.03140
H50 H -0.11250 0.31160 -0.01190
H51 H -0.04920 0.38500 -0.02890
C28 C -0.2439(19) 0.4008(13) 0.1029(15)
H52 H -0.24190 0.40590 0.16160
H53 H -0.30080 0.36470 0.08740
H54 H -0.26590 0.44590 0.07820
H55 H 0.293(3) 0.2406(19) -0.098(2)
H56 H 0.101(3) 0.314(2) 0.082(2)
H57? H 0.23790 0.34120 0.37940
C29? C 0.5282(18) 0.1599(15) 0.1575(16)
H58? H 0.48570 0.20410 0.14910
H59? H 0.50770 0.12670 0.11440
H60? H 0.61180 0.16920 0.15710
C30? C 0.5385(11) 0.0557(8) 0.237(2)
H61? H 0.61950 0.05400 0.22000
H62? H 0.49050 0.02740 0.19960
H63? H 0.53270 0.03680 0.29120
C31? C 0.5713(11) 0.1744(16) 0.2966(17)
H64? H 0.55540 0.22450 0.28770
H65? H 0.65400 0.16510 0.28880
H66? H 0.55080 0.16160 0.35150
C32? C 0.2362(13) 0.2835(8) 0.4498(9)
H67? H 0.26970 0.31010 0.49510
H68? H 0.29860 0.26640 0.41570
H69? H 0.19210 0.24330 0.47010
C33? C 0.1530(19) 0.3993(11) 0.4538(10)
H70? H 0.10010 0.42850 0.42110
H71? H 0.22820 0.42310 0.45950
H72? H 0.12020 0.39220 0.50710
H73? H -0.11530 0.33400 0.04050
C34? C 0.0891(16) 0.0731(6) -0.0281(11)
H74? H 0.08720 0.02820 -0.05730
H75? H 0.01020 0.09210 -0.02510
H76? H 0.12070 0.06560 0.02630
C35? C 0.123(3) 0.1392(7) -0.1574(10)
H77? H 0.11980 0.09510 -0.18800
H78? H 0.17650 0.17190 -0.18280
H79? H 0.04500 0.16030 -0.15680
C36? C 0.2921(9) 0.0923(6) -0.0743(19)
H80? H 0.29020 0.04740 -0.10330
H81? H 0.32180 0.08460 -0.01940
H82? H 0.34290 0.12540 -0.10200
C37? C -0.0851(11) 0.4278(8) 0.0134(10)
H83? H -0.14840 0.43370 -0.02620
H84? H -0.01580 0.41050 -0.01350
H85? H -0.06780 0.47320 0.03900
C38? C -0.2451(15) 0.3692(12) 0.1079(11)
H86? H -0.24400 0.33220 0.14910
H87? H -0.29930 0.35610 0.06430
H88? H -0.26980 0.41380 0.13190
#END
