
#######################################################################
#
#                 Cambridge Crystallographic Data Centre
#                                CCDC
#
#######################################################################
#
# If this CIF has been generated from an entry in the Cambridge
# Structural Database, then it will include bibliographic, chemical,
# crystal, experimental, refinement or atomic coordinate data resulting
# from the CCDC's data processing and validation procedures.
#
#######################################################################

data_CSD_CIF_EGIHEH
_audit_creation_date 2002-12-11
_audit_creation_method CSD-ConQuest-V1
_database_code_CSD EGIHEH
_database_code_depnum_ccdc_archive 'CCDC 193118'
_chemical_formula_sum 'C21 H39 N3 O5'
_chemical_formula_moiety
;
C21 H39 N3 O5
;
_journal_coden_Cambridge 4
_journal_volume 124
_journal_year 2002
_journal_page_first 9966
_journal_name_full 'J.Am.Chem.Soc. '
loop_
_publ_author_name
"Dan Yang"
"Yu-Hui Zhang"
"Nian-Yong Zhu"
_chemical_name_systematic
;
N-Cyclohexyl-N'-(3-(((2,2-dimethylpropanoyl)amino)oxy)-2,2-dimethylpropanoyl)-
2-methylalaninamide
;
_cell_volume   1196.369
_exptl_crystal_colour 'colorless'
_exptl_crystal_density_diffrn 1.148
_exptl_crystal_description 'prism'
_diffrn_ambient_temperature 301
#These two values have been output from a single CSD field.
_refine_ls_R_factor_gt 0.0509
_refine_ls_wR_factor_gt 0.0509
_symmetry_cell_setting monoclinic
_symmetry_space_group_name_H-M 'P 21'
_symmetry_Int_Tables_number 4
loop_
_symmetry_equiv_pos_site_id
_symmetry_equiv_pos_as_xyz
1 x,y,z
2 -x,1/2+y,-z
_cell_length_a 5.7650(12)
_cell_length_b 19.431(4)
_cell_length_c 10.821(2)
_cell_angle_alpha 90
_cell_angle_beta 99.26(3)
_cell_angle_gamma 90
_cell_formula_units_Z 2
loop_
_atom_type_symbol
_atom_type_radius_bond
C 0.68
H 0.23
N 0.68
O 0.68
loop_
_atom_site_label
_atom_site_type_symbol
_atom_site_fract_x
_atom_site_fract_y
_atom_site_fract_z
O1 O -0.4003(4) 0.55958(11) 0.8483(2)
O2 O 0.1199(3) 0.40671(9) 0.87715(18)
O3 O -0.1079(4) 0.32277(13) 0.7074(2)
O4 O 0.2704(3) 0.20314(9) 0.97121(16)
O5 O 0.5132(4) 0.30608(11) 1.0832(2)
N1 N -0.3261(5) 0.46327(14) 0.7512(2)
N2 N 0.1949(4) 0.33922(12) 0.8631(2)
N3 N 0.4545(4) 0.19240(13) 1.0720(2)
C1 C -0.2971(5) 0.50415(13) 0.8498(3)
C2 C -0.1356(5) 0.48237(14) 0.9707(2)
C3 C -0.0395(5) 0.40972(15) 0.9670(3)
H1 H 0.04230 0.39700 1.04930
H2 H -0.16780 0.37760 0.94360
C4 C 0.0642(6) 0.53447(16) 0.9954(3)
H3 H 0.00020 0.58000 0.99760
H4 H 0.15810 0.53170 0.92990
H5 H 0.16020 0.52450 1.07440
C5 C -0.2842(7) 0.4833(2) 1.0773(3)
H6 H -0.34900 0.52850 1.08360
H7 H -0.18660 0.47170 1.15500
H8 H -0.40950 0.45050 1.05970
C6 C -0.4665(6) 0.48251(16) 0.6314(3)
H9 H -0.58520 0.51590 0.64800
C7 C -0.5914(9) 0.4213(2) 0.5696(4)
H10 H -0.69830 0.40320 0.62230
H11 H -0.47790 0.38570 0.55980
C8 C -0.7285(9) 0.4397(3) 0.4423(4)
H12 H -0.79570 0.39810 0.40190
H13 H -0.85720 0.47000 0.45380
C9 C -0.584(1) 0.4738(3) 0.3595(4)
H14 H -0.68490 0.48920 0.28410
H15 H -0.47330 0.44080 0.33520
C10 C -0.4534(15) 0.5334(4) 0.4208(5)
H16 H -0.56310 0.57030 0.42920
H17 H -0.34370 0.54980 0.36830
C11 C -0.3206(10) 0.5155(3) 0.5482(4)
H18 H -0.19250 0.48470 0.53790
H19 H -0.25260 0.55720 0.58790
C12 C 0.0678(5) 0.30089(15) 0.7747(2)
C13 C 0.1645(5) 0.22882(15) 0.7533(2)
C14 C 0.3602(5) 0.20551(14) 0.8556(2)
H20 H 0.41560 0.16030 0.83590
H21 H 0.49110 0.23740 0.86240
C15 C 0.2679(6) 0.23240(19) 0.6316(3)
H22 H 0.14820 0.24670 0.56430
H23 H 0.32550 0.18780 0.61310
H24 H 0.39490 0.26490 0.64100
C16 C -0.0379(5) 0.17759(19) 0.7409(3)
H25 H -0.16160 0.19270 0.67640
H26 H -0.09620 0.17470 0.81900
H27 H 0.01660 0.13310 0.71960
C17 C 0.5550(5) 0.24888(14) 1.1291(3)
C18 C 0.7262(5) 0.23741(15) 1.2502(3)
C19 C 0.5905(10) 0.2341(7) 1.3532(4)
H28 H 0.47610 0.19790 1.33740
H29 H 0.51210 0.27720 1.35970
H30 H 0.69430 0.22490 1.43010
C20 C 0.8658(10) 0.1697(3) 1.2489(6)
H31 H 0.95410 0.17060 1.18090
H32 H 0.75870 0.13150 1.23830
H33 H 0.97140 0.16490 1.32660
C21 C 0.9034(13) 0.2946(3) 1.2644(6)
H34 H 0.99190 0.29290 1.19650
H35 H 1.00800 0.28940 1.34240
H36 H 0.82380 0.33800 1.26340
H37 H 0.454(7) 0.152(2) 1.098(4)
H38 H -0.259(5) 0.4306(18) 0.749(3)
H39 H 0.294(6) 0.3247(19) 0.931(3)
#END
