
#######################################################################
#
#                 Cambridge Crystallographic Data Centre
#                                CCDC
#
#######################################################################
#
# If this CIF has been generated from an entry in the Cambridge
# Structural Database, then it will include bibliographic, chemical,
# crystal, experimental, refinement or atomic coordinate data resulting
# from the CCDC's data processing and validation procedures.
#
#######################################################################

data_CSD_CIF_EGISOE
_audit_creation_date 2014-06-23
_audit_creation_method CSD-ConQuest-V1
_database_code_CSD EGISOE
_database_code_depnum_ccdc_archive 'CCDC 936483'
_chemical_formula_sum 'C16 H12 N2 O4'
_chemical_formula_moiety
;
C16 H12 N2 O4
;
_journal_coden_Cambridge 35
_journal_volume 79
_journal_year 2014
_journal_page_first 5420
_journal_name_full 'J.Org.Chem. '
loop_
_publ_author_name
"D.Dev"
"N.B.Palakurthy"
"K.Thalluri"
"J.Chandra"
"B.Mandal"
_chemical_name_systematic
;
ethyl cyano((2-naphthoyloxy)imino)acetate
;
_cell_volume   1469.992
_exptl_crystal_colour 'colorless'
_exptl_crystal_density_diffrn 1.339
_exptl_crystal_description 'block'
_diffrn_ambient_temperature 296
#These two values have been output from a single CSD field.
_refine_ls_R_factor_gt 0.0562
_refine_ls_wR_factor_gt 0.0562
_symmetry_cell_setting orthorhombic
_symmetry_space_group_name_H-M 'P 21 21 21'
_symmetry_Int_Tables_number 19
loop_
_symmetry_equiv_pos_site_id
_symmetry_equiv_pos_as_xyz
1 x,y,z
2 1/2-x,-y,1/2+z
3 1/2+x,1/2-y,-z
4 -x,1/2+y,1/2-z
_cell_length_a 5.9579(4)
_cell_length_b 8.2268(7)
_cell_length_c 29.991(2)
_cell_angle_alpha 90
_cell_angle_beta 90
_cell_angle_gamma 90
_cell_formula_units_Z 4
loop_
_atom_type_symbol
_atom_type_radius_bond
C 0.68
H 0.23
N 0.68
O 0.68
loop_
_atom_site_label
_atom_site_type_symbol
_atom_site_fract_x
_atom_site_fract_y
_atom_site_fract_z
C1 C 0.4064(5) 0.5223(4) 0.51073(12)
C2 C 0.6616(6) 0.5311(4) 0.44724(12)
H1 H 0.79510 0.49990 0.43360
C3 C 0.5148(5) 0.6287(4) 0.42454(11)
C4 C 0.6146(5) 0.4773(4) 0.49059(11)
C5 C 0.7662(6) 0.3823(4) 0.51558(13)
H2 H 0.90140 0.35040 0.50280
C6 C 0.5156(6) 0.3813(5) 0.57788(14)
H3 H 0.48510 0.35010 0.60710
C7 C 0.5632(6) 0.7004(5) 0.38075(13)
C8 C 0.2544(5) 0.6181(4) 0.48560(13)
H4 H 0.11620 0.64490 0.49800
C9 C 0.3046(6) 0.6716(4) 0.44411(13)
H5 H 0.20300 0.73580 0.42850
C10 C 0.3611(7) 0.4709(5) 0.55469(13)
H6 H 0.22530 0.49810 0.56800
C11 C 0.7179(7) 0.3365(5) 0.55813(13)
H7 H 0.82090 0.27470 0.57410
C12 C 1.0247(6) 0.6666(5) 0.31284(13)
C13 C 1.1251(7) 0.5241(6) 0.33201(13)
C14 C 1.1386(8) 0.7516(6) 0.27400(14)
C15 C 1.4474(9) 0.7290(7) 0.22423(15)
H8 H 1.43400 0.84630 0.22240
H9 H 1.60440 0.70270 0.22880
C16 C 1.3735(13) 0.6588(9) 0.1840(2)
H10 H 1.35510 0.54380 0.18790
H11 H 1.48250 0.67870 0.16100
H12 H 1.23260 0.70630 0.17550
O1 O 0.4512(5) 0.7959(4) 0.36059(10)
O2 O 0.7697(4) 0.6447(3) 0.36480(8)
O3 O 1.3149(5) 0.6693(4) 0.26235(10)
O4 O 1.0690(7) 0.8714(5) 0.25755(12)
N1 N 0.8455(6) 0.7310(4) 0.32717(11)
N2 N 1.2004(7) 0.4126(5) 0.34841(13)
#END
