
#######################################################################
#
#                 Cambridge Crystallographic Data Centre
#                                CCDC
#
#######################################################################
#
# If this CIF has been generated from an entry in the Cambridge
# Structural Database, then it will include bibliographic, chemical,
# crystal, experimental, refinement or atomic coordinate data resulting
# from the CCDC's data processing and validation procedures.
#
#######################################################################

data_CSD_CIF_EGIVUM
_audit_creation_date 2009-04-10
_audit_creation_method CSD-ConQuest-V1
_database_code_CSD EGIVUM
_database_code_depnum_ccdc_archive 'CCDC 693408'
_chemical_formula_sum 'C18 H20 N4 O5'
_chemical_formula_moiety
;
C18 H20 N4 O5
;
_journal_coden_Cambridge 1200
_journal_volume 16
_journal_year 2008
_journal_page_first 9780
_journal_name_full 'Bioorg.Med.Chem. '
loop_
_publ_author_name
"A.Stefanachi"
"O.Nicolotti"
"F.Leonetti"
"S.Cellamare"
"F.Campagna"
"M.I.Loza"
"J.M.Brea"
"F.Mazza"
"E.Gavuzzo"
"A.Carotti"
_chemical_name_systematic
;
1,3-Di-n-propyl-8-(p-nitrophenyl)-9-hydroxy-9-deazaxanthine
;
_chemical_melting_point 523.15
_cell_volume   1807.343
_exptl_crystal_density_diffrn 1.369
_exptl_special_details
;
Melts above 523.15K
evaluated as a ligand of recombinant human adenosine receptors (hARs)
;
_exptl_crystal_preparation 'methanol'
_diffrn_ambient_temperature 293
#These two values have been output from a single CSD field.
_refine_ls_R_factor_gt 0.078
_refine_ls_wR_factor_gt 0.078
_symmetry_cell_setting monoclinic
_symmetry_space_group_name_H-M 'P 21/n'
_symmetry_Int_Tables_number 14
loop_
_symmetry_equiv_pos_site_id
_symmetry_equiv_pos_as_xyz
1 x,y,z
2 1/2-x,1/2+y,1/2-z
3 -x,-y,-z
4 -1/2+x,-1/2-y,-1/2+z
_cell_length_a 8.576
_cell_length_b 10.365
_cell_length_c 20.342
_cell_angle_alpha 90
_cell_angle_beta 91.77
_cell_angle_gamma 90
_cell_formula_units_Z 4
loop_
_atom_type_symbol
_atom_type_radius_bond
C 0.68
H 0.23
N 0.68
O 0.68
loop_
_atom_site_label
_atom_site_type_symbol
_atom_site_fract_x
_atom_site_fract_y
_atom_site_fract_z
C1 C 0.6303(5) 0.0591(5) 0.3898(2)
N1 N 0.7038(4) -0.0234(4) 0.4332(2)
O1 O 0.3900(4) 0.1006(4) 0.4386(2)
N2 N 0.4402(5) 0.1901(4) 0.3386(2)
O2 O 0.9942(4) 0.0099(4) 0.3124(2)
C2 C 0.8483(5) -0.0521(5) 0.4101(2)
C3 C 0.4811(6) 0.1147(5) 0.3938(3)
C4 C 0.8652(6) 0.0115(5) 0.3510(3)
N3 N 0.6757(6) 0.1552(5) 0.2854(3)
O3 O 0.4837(5) 0.2777(5) 0.2382(2)
C5 C 0.5327(7) 0.2120(6) 0.2847(3)
C6 C 0.9564(6) -0.1400(5) 0.4441(2)
C7 C 0.7272(6) 0.0807(5) 0.3380(3)
C8 C 0.2859(6) 0.2559(6) 0.3352(3)
C9 C 1.1139(7) -0.1336(7) 0.4329(3)
C10 C 1.2167(7) -0.2169(8) 0.4649(4)
C11 C 0.9027(8) -0.2310(9) 0.4861(4)
C12 C 1.1631(8) -0.3016(8) 0.5085(4)
C13 C 0.2990(7) 0.3966(6) 0.3557(4)
C14 C 0.873(1) 0.2539(9) 0.2345(4)
C15 C 0.773(1) 0.1567(8) 0.2154(5)
N4 N 1.274(1) -0.3855(9) 0.5454(4)
C16 C 0.1595(8) 0.4752(7) 0.3301(4)
C17 C 0.984(1) 0.238(1) 0.1646(5)
O4 O 1.4056(9) -0.3844(8) 0.5304(4)
C18 C 1.007(1) -0.314(1) 0.5185(5)
O5 O 1.231(1) -0.448(1) 0.5864(7)
H1 H 0.827(1) 0.0771(8) 0.2074(5)
H2 H 0.708(1) 0.1780(8) 0.1778(5)
H3 H 0.1695(8) 0.5638(7) 0.3433(4)
H4 H 0.1541(8) 0.4701(7) 0.2830(4)
H5 H 0.0661(8) 0.4395(7) 0.3476(4)
H6 H 0.3044(7) 0.4018(6) 0.4028(4)
H7 H 0.3923(7) 0.4323(6) 0.3382(4)
H8 H 0.2439(6) 0.2518(6) 0.2910(3)
H9 H 0.2172(6) 0.2122(6) 0.3642(3)
H10 H 0.6618(4) -0.0555(4) 0.4732(2)
H11 H 1.1514(7) -0.0714(7) 0.4022(3)
H12 H 1.3264(7) -0.2131(8) 0.4570(4)
H13 H 0.7922(8) -0.2393(9) 0.4912(4)
H14 H 0.971(1) -0.380(1) 0.5472(5)
H15 H 0.823(1) 0.3364(9) 0.2369(4)
H16 H 0.931(1) 0.2377(9) 0.2749(4)
H17 H 1.067(1) 0.300(1) 0.1660(5)
H18 H 1.027(1) 0.153(1) 0.1638(5)
H19 H 0.919(1) 0.251(1) 0.1258(5)
H20 H 0.9833(4) -0.0853(4) 0.2851(2)
#END
