
#######################################################################
#
#                 Cambridge Crystallographic Data Centre
#                                CCDC
#
#######################################################################
#
# If this CIF has been generated from an entry in the Cambridge
# Structural Database, then it will include bibliographic, chemical,
# crystal, experimental, refinement or atomic coordinate data resulting
# from the CCDC's data processing and validation procedures.
#
#######################################################################

data_CSD_CIF_EGOMUJ
_audit_creation_date 2009-04-10
_audit_creation_method CSD-ConQuest-V1
_database_code_CSD EGOMUJ
_database_code_depnum_ccdc_archive 'CCDC 710623'
_chemical_formula_sum 'C24 H27 N5 O9'
_chemical_formula_moiety
;
C24 H27 N5 O9
;
_journal_coden_Cambridge 1336
_journal_volume 10
_journal_year 2008
_journal_page_first 4585
_journal_name_full 'Org.Lett. '
loop_
_publ_author_name
"Di Zhu"
"Min Lu"
"Pei Juan Chua"
"Bin Tan"
"Fei Wang"
"Xinhao Yang"
"Guofu Zhong"
_chemical_name_systematic
;
Diethyl 
(6-((2-(2,4-dinitrophenyl)hydrazinylidene)methyl)-2-phenyl-1,2-oxazinan-3-yl)p
ropanedioate
;
_cell_volume   2523.680
_exptl_crystal_colour 'yellow'
_exptl_crystal_density_diffrn 1.394
_exptl_crystal_description 'block'
_diffrn_ambient_temperature 173
_refine_special_details
;
Parts of various ethoxycarbonyl groups are disordered.

;
#These two values have been output from a single CSD field.
_refine_ls_R_factor_gt 0.0574
_refine_ls_wR_factor_gt 0.0574
_symmetry_cell_setting triclinic
_symmetry_space_group_name_H-M 'P 1'
_symmetry_Int_Tables_number 1
loop_
_symmetry_equiv_pos_site_id
_symmetry_equiv_pos_as_xyz
1 x,y,z
_cell_length_a 10.8521(4)
_cell_length_b 11.1482(4)
_cell_length_c 21.2318(7)
_cell_angle_alpha 82.573(2)
_cell_angle_beta 86.637(2)
_cell_angle_gamma 82.618(2)
_cell_formula_units_Z 4
loop_
_atom_type_symbol
_atom_type_radius_bond
C 0.68
H 0.23
N 0.68
O 0.68
loop_
_atom_site_label
_atom_site_type_symbol
_atom_site_fract_x
_atom_site_fract_y
_atom_site_fract_z
C1 C 0.4367(4) 1.1109(4) 1.0444(2)
H1 H 0.46360 1.05720 1.08080
C2 C 0.4647(5) 1.2302(4) 1.0359(2)
H2 H 0.51130 1.25730 1.06670
C3 C 0.4262(5) 1.3100(4) 0.9837(2)
H3 H 0.44700 1.39100 0.97810
C4 C 0.3570(5) 1.2710(4) 0.9398(2)
H4 H 0.32780 1.32610 0.90430
C5 C 0.3297(4) 1.1512(4) 0.9469(2)
H5 H 0.28380 1.12430 0.91580
C6 C 0.3695(4) 1.0705(3) 0.99962(19)
C7 C 0.3416(4) 0.8711(3) 0.9604(2)
H6 H 0.31280 0.91940 0.91980
C8 C 0.4790(4) 0.8180(4) 0.9493(2)
H7 H 0.52240 0.81450 0.98990
C9 C 0.5491(5) 0.8995(4) 0.8958(3)
C10 C 0.7422(7) 0.9178(7) 0.8442(4)
H8 H 0.71400 1.00640 0.83850
H9 H 0.83070 0.90620 0.85520
C11 C 0.7309(7) 0.8693(8) 0.7859(3)
H10 H 0.74920 0.78030 0.79270
H11 H 0.78980 0.90260 0.75360
H12 H 0.64600 0.89180 0.77140
C12 C 0.4923(4) 0.6928(4) 0.9305(2)
C13? C 0.508(3) 0.5804(17) 0.8379(13)
H13? H 0.43540 0.56990 0.81410
H14? H 0.52170 0.50900 0.87080
C14? C 0.622(3) 0.5789(19) 0.7921(10)
H15? H 0.60740 0.64500 0.75710
H16? H 0.63630 0.50050 0.77490
H17? H 0.69490 0.59020 0.81470
C15 C 0.4934(14) 0.5665(7) 0.8508(5)
H18 H 0.42430 0.52060 0.86850
H19 H 0.57300 0.52060 0.86540
C16 C 0.4933(11) 0.5871(8) 0.7791(4)
H20 H 0.55940 0.63640 0.76270
H21 H 0.41270 0.62990 0.76570
H22 H 0.50770 0.50840 0.76230
C17 C 0.2497(4) 0.7777(3) 0.98142(19)
H23 H 0.16380 0.81850 0.97590
H24 H 0.26350 0.71220 0.95350
C18 C 0.2624(4) 0.7206(3) 1.0505(2)
H25 H 0.18700 0.68160 1.06490
H26 H 0.33460 0.65640 1.05310
C19 C 0.2797(3) 0.8144(3) 1.09421(19)
H27 H 0.30870 0.76920 1.13550
C20 C 0.1692(3) 0.9031(3) 1.10857(18)
H28 H 0.18120 0.98480 1.11210
C21 C -0.1486(3) 0.9458(3) 1.14450(17)
C22 C -0.1819(3) 0.8264(3) 1.14613(18)
H29 H -0.12080 0.76270 1.13500
C23 C -0.3012(4) 0.8008(3) 1.16355(18)
H30 H -0.32200 0.72020 1.16520
C24 C -0.3907(3) 0.8952(3) 1.17870(18)
C25 C -0.3650(3) 1.0123(3) 1.17550(17)
H31 H -0.42810 1.07520 1.18540
C26 C -0.2450(4) 1.0387(3) 1.15748(17)
C27 C 0.7805(5) 0.2428(4) 0.9757(2)
H32 H 0.70940 0.30230 0.97460
C28 C 0.7661(6) 0.1217(5) 0.9738(3)
H33 H 0.68530 0.09900 0.97120
C29 C 0.8681(8) 0.0338(4) 0.9756(3)
H34 H 0.85810 -0.04940 0.97480
C30 C 0.9826(8) 0.0682(5) 0.9785(3)
H35 H 1.05310 0.00820 0.97830
C31 C 1.0001(6) 0.1874(4) 0.9817(3)
H36 H 1.08120 0.20840 0.98560
C32 C 0.8966(4) 0.2774(3) 0.97909(19)
C33 C 1.0150(4) 0.4581(4) 0.9484(2)
H37 H 1.09360 0.40020 0.95020
C34 C 0.9839(5) 0.4954(5) 0.8776(2)
H38 H 0.89870 0.54150 0.87460
C35 C 0.9903(6) 0.3789(6) 0.8455(3)
C36 C 0.8728(15) 0.2560(9) 0.7960(7)
H39 H 0.90270 0.18210 0.82460
H40 H 0.92090 0.25650 0.75490
C37 C 0.7345(16) 0.2648(14) 0.787(1)
H41 H 0.68940 0.27060 0.82800
H42 H 0.71610 0.19210 0.76960
H43 H 0.70850 0.33750 0.75740
C38? C 0.870(6) 0.2388(13) 0.818(3)
H44? H 0.83650 0.19780 0.85860
H45? H 0.95400 0.19670 0.80920
C39? C 0.786(6) 0.229(5) 0.765(2)
H46? H 0.70100 0.22180 0.78210
H47? H 0.81680 0.15700 0.74380
H48? H 0.78510 0.30230 0.73360
C40 C 1.0792(6) 0.5724(6) 0.8434(3)
C41 C 1.0896(18) 0.7689(13) 0.7751(6)
H49 H 1.03170 0.81750 0.74460
H50 H 1.15950 0.72620 0.75130
C42 C 1.136(2) 0.848(2) 0.8188(6)
H51 H 1.06890 0.87210 0.84920
H52 H 1.16300 0.92060 0.79370
H53 H 1.20620 0.80200 0.84190
C43? C 1.1249(18) 0.7610(18) 0.8004(14)
H54? H 1.15240 0.75310 0.75560
H55? H 1.19730 0.73330 0.82710
C44? C 1.081(3) 0.894(2) 0.8068(17)
H56? H 1.00580 0.92000 0.78250
H57? H 1.14610 0.94380 0.79040
H58? H 1.06120 0.90310 0.85170
C45 C 1.0334(5) 0.5667(5) 0.9831(2)
H59 H 1.07230 0.53590 1.02410
H60 H 1.09090 0.61720 0.95710
C46 C 0.9119(5) 0.6453(4) 0.9957(2)
H61 H 0.88440 0.69420 0.95560
H62 H 0.92480 0.70230 1.02620
C47 C 0.8115(4) 0.5671(3) 1.0228(2)
H63 H 0.73040 0.62070 1.02460
C48 C 0.8335(4) 0.4998(3) 1.08750(19)
H64 H 0.78960 0.43230 1.10180
C49 C 1.0051(3) 0.4761(3) 1.22261(18)
C50 C 1.0796(3) 0.5740(3) 1.20799(18)
H65 H 1.07100 0.62390 1.16830
C51 C 1.1619(3) 0.5978(3) 1.2489(2)
H66 H 1.20870 0.66450 1.23830
C52 C 1.1777(4) 0.5229(3) 1.3073(2)
C53 C 1.1130(4) 0.4254(3) 1.3227(2)
H67 H 1.12680 0.37370 1.36150
C54 C 1.0269(4) 0.4021(3) 1.28140(19)
C55 C -0.0301(4) 0.7310(4) 0.4677(2)
H68 H 0.04560 0.68070 0.46060
C56 C -0.1418(5) 0.6812(4) 0.4770(3)
H69 H -0.14130 0.59580 0.47750
C57 C -0.2524(5) 0.7528(5) 0.4853(3)
H70 H -0.32800 0.71740 0.49130
C58 C -0.2532(5) 0.8774(5) 0.4849(3)
H71 H -0.32980 0.92740 0.49060
C59 C -0.1435(4) 0.9292(4) 0.4762(2)
H72 H -0.14490 1.01480 0.47520
C60 C -0.0307(4) 0.8557(3) 0.46900(19)
C61 C 0.1139(4) 0.9602(3) 0.51996(18)
H73 H 0.04300 1.01950 0.53310
C62 C 0.1370(4) 0.8556(3) 0.5765(2)
H74 H 0.17980 0.78090 0.55940
C63 C 0.0144(5) 0.8260(4) 0.6100(2)
C64 C -0.0971(6) 0.6648(5) 0.6560(3)
H75 H -0.16760 0.69590 0.62840
H76 H -0.11510 0.69650 0.69740
C65 C -0.0826(8) 0.5312(6) 0.6653(4)
H77 H -0.06920 0.50040 0.62400
H78 H -0.15790 0.50300 0.68690
H79 H -0.01090 0.50090 0.69140
C66 C 0.2174(4) 0.8912(4) 0.6246(2)
C67 C 0.4242(5) 0.8722(5) 0.6600(3)
H80 H 0.40670 0.83910 0.70470
H81 H 0.41930 0.96200 0.65730
C68 C 0.5494(5) 0.8200(5) 0.6377(3)
H82 H 0.55350 0.73110 0.64130
H83 H 0.61250 0.84190 0.66390
H84 H 0.56500 0.85250 0.59330
C69 C 0.2255(4) 1.0318(3) 0.4992(2)
H85 H 0.19720 1.10510 0.46970
H86 H 0.25730 1.05920 0.53700
C70 C 0.3303(4) 0.9554(4) 0.4666(2)
H87 H 0.37300 0.89400 0.49860
H88 H 0.39180 1.00850 0.44650
C71 C 0.2805(4) 0.8913(4) 0.4162(2)
H89 H 0.34910 0.82980 0.40280
C72 C 0.2385(4) 0.9728(4) 0.35727(19)
H90 H 0.17370 0.95300 0.33380
C73 C 0.3174(3) 1.2212(3) 0.25374(19)
C74 C 0.4160(4) 1.2539(3) 0.2857(2)
H91 H 0.43400 1.21340 0.32690
C75 C 0.4870(4) 1.3425(3) 0.2591(2)
H92 H 0.55460 1.36120 0.28110
C76 C 0.4584(4) 1.4043(3) 0.19987(19)
C77 C 0.3641(4) 1.3782(3) 0.16638(19)
H93 H 0.34700 1.42100 0.12560
C78 C 0.2932(3) 1.2877(3) 0.19315(19)
C79 C 0.9122(5) 0.3426(4) 0.4963(3)
H94 H 0.87720 0.38440 0.45840
C80 C 1.0322(6) 0.3593(5) 0.5111(3)
H95 H 1.07820 0.41320 0.48370
C81 C 1.0838(6) 0.2967(6) 0.5660(4)
H96 H 1.16450 0.30930 0.57690
C82 C 1.0172(6) 0.2157(5) 0.6049(3)
H97 H 1.05470 0.17030 0.64140
C83 C 0.8995(5) 0.2000(4) 0.5922(3)
H98 H 0.85500 0.14550 0.62010
C84 C 0.8432(5) 0.2645(4) 0.5373(2)
C85 C 0.6353(5) 0.2002(4) 0.5696(2)
H99 H 0.67750 0.12220 0.59140
C86 C 0.6042(5) 0.2844(4) 0.6225(2)
H100 H 0.68630 0.29350 0.63920
C87 C 0.5427(6) 0.4141(4) 0.6046(2)
C88 C 0.3584(10) 0.5378(8) 0.5701(5)
H101 H 0.36350 0.58650 0.60540
H102 H 0.27000 0.52890 0.56510
C89 C 0.4154(9) 0.6010(7) 0.5072(4)
H103 H 0.36910 0.68180 0.49650
H104 H 0.41020 0.55140 0.47280
H105 H 0.50270 0.60940 0.51300
C90? C 0.409(3) 0.5443(17) 0.5531(19)
H106? H 0.46480 0.56050 0.51510
H107? H 0.41600 0.60380 0.58320
C91? C 0.276(2) 0.540(2) 0.5364(15)
H108? H 0.24070 0.61990 0.51640
H109? H 0.22630 0.51660 0.57520
H110? H 0.27410 0.47920 0.50690
C92 C 0.5347(6) 0.2184(4) 0.6776(2)
O1? O 0.503(4) 0.309(2) 0.7133(12)
C93? C 0.448(6) 0.246(4) 0.7700(14)
H111? H 0.43810 0.29920 0.80440
H112? H 0.50310 0.17120 0.78450
C94? C 0.321(5) 0.213(6) 0.755(3)
H113? H 0.25720 0.28270 0.76050
H114? H 0.30100 0.14250 0.78460
H115? H 0.32310 0.19430 0.71150
O2 O 0.4543(9) 0.2938(5) 0.7094(3)
C95 C 0.3789(12) 0.2416(9) 0.7623(4)
H116 H 0.35010 0.30430 0.79070
H117 H 0.42980 0.17380 0.78720
C96 C 0.2684(12) 0.1952(11) 0.7385(6)
H118 H 0.23010 0.25590 0.70550
H119 H 0.20770 0.18080 0.77380
H120 H 0.29540 0.11880 0.72070
C97 C 0.5249(5) 0.1637(4) 0.5365(2)
H121 H 0.54900 0.08110 0.52390
H122 H 0.45390 0.15880 0.56780
C98 C 0.4805(4) 0.2501(3) 0.4770(2)
H123 H 0.43880 0.20440 0.44920
H124 H 0.41920 0.31680 0.49020
C99 C 0.5894(4) 0.3043(3) 0.43967(19)
H125 H 0.55340 0.37640 0.41060
C100 C 0.6725(4) 0.2247(3) 0.39984(19)
H126 H 0.75400 0.24470 0.38840
C101 C 0.7183(3) -0.0472(3) 0.33336(17)
C102 C 0.6008(3) -0.0918(3) 0.34488(19)
H127 H 0.52960 -0.03740 0.35480
C103 C 0.5886(3) -0.2120(3) 0.34193(18)
H128 H 0.50940 -0.24030 0.34900
C104 C 0.6931(4) -0.2921(3) 0.32844(19)
C105 C 0.8074(4) -0.2523(3) 0.31395(18)
H129 H 0.87760 -0.30790 0.30400
C106 C 0.8186(3) -0.1297(3) 0.31404(19)
N1 N 0.3280(3) 0.9535(3) 1.00974(16)
N2 N 0.0602(3) 0.8729(3) 1.11623(15)
N3 N -0.0291(3) 0.9661(3) 1.13143(15)
H130 H -0.00780 1.03930 1.13260
N4 N -0.2253(3) 1.1648(3) 1.15234(16)
N5 N -0.5156(3) 0.8673(3) 1.20023(16)
N6 N 0.9166(3) 0.3976(3) 0.98538(16)
N7 N 0.9101(3) 0.5309(3) 1.12408(16)
N8 N 0.9209(3) 0.4583(3) 1.18215(15)
H131 H 0.87250 0.40060 1.19240
N9 N 0.9573(3) 0.3008(3) 1.30270(16)
N10 N 1.2640(4) 0.5503(4) 1.35172(19)
N11 N 0.0799(3) 0.9143(3) 0.46187(16)
N12 N 0.2900(3) 1.0683(3) 0.33904(16)
N13 N 0.2515(3) 1.1327(3) 0.28176(16)
H132 H 0.18530 1.11610 0.26410
N14 N 0.1979(3) 1.2602(3) 0.15419(18)
N15 N 0.5380(3) 1.4945(3) 0.17086(18)
N16 N 0.7246(4) 0.2419(3) 0.52043(17)
N17 N 0.6392(3) 0.1305(3) 0.38033(15)
N18 N 0.7292(3) 0.0693(3) 0.34270(16)
H133 H 0.79230 0.10550 0.32520
N19 N 0.9395(3) -0.0928(3) 0.29562(17)
N20 N 0.6819(3) -0.4211(3) 0.33195(17)
O3 O 0.4999(5) 0.9830(4) 0.8642(2)
O4 O 0.6684(4) 0.8587(4) 0.8965(2)
O5 O 0.4767(4) 0.6925(3) 0.87080(17)
O6 O 0.5143(4) 0.6020(3) 0.96865(19)
O7 O 0.3766(2) 0.8852(2) 1.06703(13)
O8 O -0.1193(3) 1.1933(2) 1.14035(15)
O9 O -0.3154(3) 1.2426(3) 1.15965(19)
O10 O -0.5969(3) 0.9536(3) 1.20775(16)
O11 O -0.5331(3) 0.7601(3) 1.21093(15)
O12 O 1.0780(5) 0.3073(6) 0.8409(3)
O13 O 0.8796(5) 0.3691(4) 0.8254(2)
O14 O 1.1892(4) 0.5408(6) 0.8401(3)
O15 O 1.0243(4) 0.6807(4) 0.8200(2)
O16 O 0.8017(3) 0.4780(2) 0.98045(14)
O17 O 1.3076(3) 0.6465(3) 1.34088(18)
O18 O 1.2868(5) 0.4755(4) 1.3982(2)
O19 O 0.9809(3) 0.2400(3) 1.35393(15)
O20 O 0.8752(3) 0.2794(2) 1.26895(14)
O21 O -0.0711(3) 0.8994(3) 0.62270(18)
O22 O 0.0179(3) 0.7063(3) 0.62635(16)
O23 O 0.1821(4) 0.9573(3) 0.66434(17)
O24 O 0.3336(3) 0.8382(3) 0.61829(16)
O25 O 0.1803(3) 0.8261(2) 0.44361(14)
O26 O 0.1399(3) 1.1720(3) 0.17405(16)
O27 O 0.1741(3) 1.3254(3) 0.10429(16)
O28 O 0.5140(3) 1.5488(3) 0.11904(19)
O29 O 0.6283(3) 1.5095(3) 0.19977(16)
O30 O 0.5925(5) 0.5009(3) 0.6125(3)
O31 O 0.4308(4) 0.4186(3) 0.58283(17)
O32 O 0.5486(4) 0.1110(3) 0.69131(17)
O33 O 0.6657(3) 0.3487(2) 0.48261(14)
O34 O 0.5777(3) -0.4518(3) 0.33882(16)
O35 O 0.7769(3) -0.4928(3) 0.3288(2)
O36 O 1.0270(3) -0.1711(3) 0.28764(19)
O37 O 0.9510(3) 0.0171(2) 0.28779(16)
#END
