
#######################################################################
#
#                 Cambridge Crystallographic Data Centre
#                                CCDC
#
#######################################################################
#
# If this CIF has been generated from an entry in the Cambridge
# Structural Database, then it will include bibliographic, chemical,
# crystal, experimental, refinement or atomic coordinate data resulting
# from the CCDC's data processing and validation procedures.
#
#######################################################################

data_CSD_CIF_EGOTOK
_audit_creation_date 2009-04-10
_audit_creation_method CSD-ConQuest-V1
_database_code_CSD EGOTOK
_database_code_depnum_ccdc_archive 'CCDC 697056'
_chemical_formula_sum 'C18 H24 N4 O8'
_chemical_formula_moiety
;
C18 H24 N4 O8
;
_journal_coden_Cambridge 1336
_journal_volume 10
_journal_year 2008
_journal_page_first 4537
_journal_name_full 'Org.Lett. '
loop_
_publ_author_name
"K.L.Bridgwood"
"C.C.Tzschucke"
"M.O'Brien"
"S.Wittrock"
"J.M.Goodman"
"J.E.Davies"
"A.W.J.Logan"
"M.R.M.Huttl"
"S.V.Ley"
_chemical_name_systematic
;
(2R,5S,6S)-1-((2-Allyl-5,6-dimethoxy-5,6-dimethyl-1,4-dioxan-2-yl)methylene)-2
-(2,4-dinitrophenyl)hydrazine
;
_chemical_melting_point 384.15
_cell_volume    999.410
_exptl_crystal_colour 'colorless'
_exptl_crystal_density_diffrn 1.41
_exptl_special_details
;
Melting point range 384.15-386.15K

;
_exptl_crystal_description 'block'
_exptl_crystal_preparation 'ethanol'
_diffrn_ambient_temperature 180
#These two values have been output from a single CSD field.
_refine_ls_R_factor_gt 0.0476
_refine_ls_wR_factor_gt 0.0476
_symmetry_cell_setting triclinic
_symmetry_space_group_name_H-M 'P 1'
_symmetry_Int_Tables_number 1
loop_
_symmetry_equiv_pos_site_id
_symmetry_equiv_pos_as_xyz
1 x,y,z
_cell_length_a 7.2898(2)
_cell_length_b 9.3886(2)
_cell_length_c 15.9051(6)
_cell_angle_alpha 91.007(1)
_cell_angle_beta 97.177(1)
_cell_angle_gamma 111.934(1)
_cell_formula_units_Z 2
loop_
_atom_type_symbol
_atom_type_radius_bond
C 0.68
H 0.23
N 0.68
O 0.68
loop_
_atom_site_label
_atom_site_type_symbol
_atom_site_fract_x
_atom_site_fract_y
_atom_site_fract_z
C1 C -0.3414(6) 0.5081(4) 0.3891(2)
H1 H -0.28960 0.59560 0.43160
H2 H -0.47650 0.44110 0.39790
H3 H -0.34530 0.54580 0.33210
O1 O -0.2140(3) 0.4230(2) 0.39732(12)
C2 C -0.2345(4) 0.3226(3) 0.32658(17)
C3 C -0.4485(4) 0.2108(3) 0.30065(19)
H4 H -0.53080 0.26730 0.27820
H5 H -0.50080 0.15800 0.35030
H6 H -0.45210 0.13470 0.25680
C4 C -0.0884(4) 0.2418(3) 0.35406(18)
C5 C -0.0965(5) 0.1924(4) 0.4443(2)
H7 H -0.00660 0.13740 0.45710
H8 H -0.23330 0.12440 0.45010
H9 H -0.05460 0.28350 0.48390
O2 O -0.1410(3) 0.1176(2) 0.29241(14)
C6 C -0.0277(6) 0.0220(4) 0.3005(3)
H10 H -0.08340 -0.06260 0.25620
H11 H -0.03350 -0.02000 0.35650
H12 H 0.11150 0.08310 0.29440
O3 O 0.1136(3) 0.3452(2) 0.35319(13)
C7 C 0.1479(4) 0.4051(3) 0.27237(19)
H13 H 0.11310 0.31900 0.22880
H14 H 0.29120 0.46990 0.27420
C8 C 0.0230(4) 0.5004(3) 0.24825(17)
O4 O -0.1855(3) 0.4062(2) 0.25246(12)
C9 C 0.0916(5) 0.6524(3) 0.30333(19)
H15 H 0.00390 0.70790 0.28400
H16 H 0.07420 0.62830 0.36290
C10 C 0.3038(5) 0.7568(4) 0.3012(2)
H17 H 0.34350 0.78520 0.24730
C11 C 0.4380(6) 0.8115(4) 0.3680(3)
H18 H 0.40360 0.78550 0.42290
H19 H 0.57030 0.87730 0.36180
C12 C 0.0170(4) 0.5232(3) 0.15418(18)
H20 H 0.00070 0.44000 0.11530
N1 N 0.0337(4) 0.6533(3) 0.12709(16)
N2 N 0.0129(4) 0.6628(3) 0.04007(15)
H21 H 0.00320 0.58560 0.00530
C13 C 0.0083(4) 0.7971(3) 0.01041(18)
C14 C 0.0537(5) 0.9258(3) 0.0685(2)
H22 H 0.09300 0.91860 0.12700
C15 C 0.0419(5) 1.0598(4) 0.0421(2)
H23 H 0.07050 1.14410 0.08220
C16 C -0.0121(5) 1.0734(3) -0.0437(2)
C17 C -0.0537(4) 0.9541(3) -0.10291(18)
H24 H -0.08780 0.96510 -0.16140
C18 C -0.0450(4) 0.8162(3) -0.07591(18)
N3 N -0.0989(4) 0.6913(3) -0.14143(16)
O5 O -0.0671(4) 0.5745(2) -0.12309(15)
O6 O -0.1751(4) 0.7063(3) -0.21199(14)
N4 N -0.0278(4) 1.2161(3) -0.07134(17)
O7 O 0.0106(4) 1.3220(3) -0.01683(15)
O8 O -0.0750(5) 1.2256(3) -0.14656(15)
C19 C -0.1096(5) -0.1432(4) 0.5781(2)
H25 H -0.16540 -0.22320 0.53130
H26 H -0.18200 -0.07370 0.57400
H27 H -0.12280 -0.19130 0.63240
O9 O 0.0973(3) -0.0578(2) 0.57326(13)
C20 C 0.2109(4) 0.0355(3) 0.64660(17)
C21 C 0.1189(5) 0.1461(4) 0.6752(2)
H28 H -0.01570 0.08750 0.68830
H29 H 0.11110 0.21350 0.62970
H30 H 0.20200 0.20870 0.72600
C22 C 0.4222(4) 0.1183(3) 0.62147(19)
C23 C 0.4153(5) 0.1770(4) 0.5331(2)
H31 H 0.55140 0.23780 0.52250
H32 H 0.33600 0.24160 0.52910
H33 H 0.35410 0.08950 0.49070
O10 O 0.5221(3) 0.2358(2) 0.68675(14)
C24 C 0.7224(5) 0.3351(4) 0.6778(2)
H34 H 0.79440 0.38370 0.73360
H35 H 0.71860 0.41480 0.63940
H36 H 0.79070 0.27460 0.65440
O11 O 0.5208(3) 0.0138(2) 0.61759(13)
C25 C 0.5384(4) -0.0542(3) 0.69635(19)
H37 H 0.61130 0.02780 0.74200
H38 H 0.61610 -0.12030 0.69200
C26 C 0.3326(4) -0.1507(3) 0.71891(18)
O12 O 0.2155(3) -0.0554(2) 0.71787(12)
C27 C 0.2236(5) -0.3000(4) 0.6613(2)
H39 H 0.10920 -0.36730 0.68810
H40 H 0.16870 -0.27330 0.60640
C28 C 0.3489(7) -0.3903(4) 0.6435(3)
H41 H 0.42220 -0.41540 0.69060
C29 C 0.3629(8) -0.4358(5) 0.5680(3)
H42 H 0.29140 -0.41250 0.51960
H43 H 0.44470 -0.49250 0.56100
C30 C 0.3644(5) -0.1799(3) 0.81179(19)
H44 H 0.36690 -0.10600 0.85400
N5 N 0.3876(4) -0.3004(3) 0.83386(16)
N6 N 0.4307(4) -0.3117(3) 0.92020(16)
H45 H 0.43900 -0.23790 0.95710
C31 C 0.4597(4) -0.4391(3) 0.94649(19)
C32 C 0.4442(5) -0.5579(4) 0.8864(2)
H46 H 0.41090 -0.54750 0.82780
C33 C 0.4757(5) -0.6873(3) 0.9105(2)
H47 H 0.46570 -0.76480 0.86890
C34 C 0.5226(5) -0.7041(3) 0.9965(2)
C35 C 0.5398(4) -0.5937(3) 1.05820(19)
H48 H 0.57270 -0.60660 1.11650
C36 C 0.5079(4) -0.4627(3) 1.03328(18)
O13 O 0.5178(5) -0.2262(3) 1.08275(16)
N7 N 0.5326(4) -0.3481(3) 1.10146(16)
N8 N 0.5577(4) -0.8408(3) 1.02245(18)
O14 O 0.5654(5) -0.3777(3) 1.17443(15)
O15 O 0.5371(5) -0.9405(3) 0.96726(16)
O16 O 0.6102(6) -0.8501(3) 1.09695(18)
#END
