
#######################################################################
#
#                 Cambridge Crystallographic Data Centre
#                                CCDC
#
#######################################################################
#
# If this CIF has been generated from an entry in the Cambridge
# Structural Database, then it will include bibliographic, chemical,
# crystal, experimental, refinement or atomic coordinate data resulting
# from the CCDC's data processing and validation procedures.
#
#######################################################################

data_CSD_CIF_EGOWEE
_audit_creation_date 2014-06-24
_audit_creation_method CSD-ConQuest-V1
_database_code_CSD EGOWEE
_database_code_depnum_ccdc_archive 'CCDC 901611'
_chemical_formula_sum 'C17 H27 N1 O3'
_chemical_formula_moiety
;
C17 H27 N1 O3
;
_journal_coden_Cambridge 780
_journal_volume 89
_journal_year 2013
_journal_page_first 257
_journal_name_full 'Fitoterapia '
loop_
_publ_author_name
"Dong-Hai Lai"
"Zhong-Duo Yang"
"Wei-Wei Xue"
"Jie Sheng"
"Yin Shi"
"Xiao-Jun Yao"
_chemical_name_systematic
;
8-Ethyl-11-methyldodecahydroazepino[3,2,1-hi]furo[3,2-e]indol-10(2H)-one 
3-oxide
;
_cell_volume   3744.511
_exptl_crystal_colour 'colorless'
_exptl_crystal_density_diffrn 1.041
_exptl_crystal_description 'block'
_diffrn_ambient_temperature 296
_refine_special_details
;
The SQUEEZE/PLATON program has been used to model some disorder.

;
#These two values have been output from a single CSD field.
_refine_ls_R_factor_gt 0.093
_refine_ls_wR_factor_gt 0.093
_symmetry_cell_setting orthorhombic
_symmetry_space_group_name_H-M 'P 21 21 21'
_symmetry_Int_Tables_number 19
loop_
_symmetry_equiv_pos_site_id
_symmetry_equiv_pos_as_xyz
1 x,y,z
2 1/2-x,-y,1/2+z
3 -x,1/2+y,1/2-z
4 1/2+x,1/2-y,-z
_cell_length_a 8.606(6)
_cell_length_b 14.489(11)
_cell_length_c 30.03(2)
_cell_angle_alpha 90
_cell_angle_beta 90
_cell_angle_gamma 90
_cell_formula_units_Z 8
loop_
_atom_type_symbol
_atom_type_radius_bond
C 0.68
H 0.23
N 0.68
O 0.68
loop_
_atom_site_label
_atom_site_type_symbol
_atom_site_fract_x
_atom_site_fract_y
_atom_site_fract_z
C1 C 0.5385(8) -0.1115(4) 0.2176(2)
C2 C 0.4373(7) -0.1051(5) 0.2576(2)
H1 H 0.39840 -0.16730 0.26390
C3 C 0.5535(7) -0.0801(4) 0.2951(2)
H2 H 0.51910 -0.10520 0.32370
C4 C 0.6982(8) -0.1296(5) 0.27876(19)
H3 H 0.68730 -0.19480 0.28680
C5 C 0.5823(7) 0.0258(4) 0.29856(18)
H4 H 0.59280 0.05080 0.26840
C6 C 0.4655(9) 0.0857(5) 0.3242(3)
H5 H 0.39410 0.04740 0.34100
H6 H 0.40620 0.12410 0.30390
C7 C 0.5656(8) 0.1456(5) 0.3557(2)
H7 H 0.53060 0.20930 0.35490
H8 H 0.55740 0.12330 0.38600
N1 N 0.7291(6) 0.1391(3) 0.33989(16)
C8 C 0.7647(9) 0.2088(4) 0.3039(2)
H9 H 0.69960 0.19600 0.27830
H10 H 0.73840 0.26990 0.31470
C9 C 0.9306(10) 0.2085(5) 0.2895(3)
H11 H 0.99400 0.19140 0.31490
H12 H 0.95880 0.27110 0.28130
C10 C 0.9728(8) 0.1457(5) 0.2512(2)
H13 H 1.08440 0.13670 0.25140
H14 H 0.94660 0.17690 0.22360
C11 C 0.8956(7) 0.0520(4) 0.25101(19)
H15 H 0.95680 0.01060 0.23260
H16 H 0.79410 0.05780 0.23730
C12 C 0.8756(7) 0.0081(4) 0.29702(18)
H17 H 0.96820 0.02160 0.31480
C13 C 0.7351(7) 0.0387(3) 0.32258(18)
H18 H 0.73010 -0.00080 0.34900
C14 C 0.8562(7) -0.0990(4) 0.2939(2)
H19 H 0.93120 -0.12110 0.27180
C15 C 0.2980(8) -0.0442(5) 0.2493(3)
H20 H 0.23630 -0.04060 0.27590
H21 H 0.23680 -0.06980 0.22560
H22 H 0.33240 0.01650 0.24110
C16 C 0.8943(8) -0.1481(5) 0.3385(2)
H23 H 0.82300 -0.12630 0.36120
H24 H 0.87770 -0.21390 0.33500
C17 C 1.0625(10) -0.1316(5) 0.3545(3)
H25 H 1.13390 -0.15120 0.33190
H26 H 1.08090 -0.16630 0.38120
H27 H 1.07740 -0.06710 0.36050
O1 O 0.5019(5) -0.1078(3) 0.17836(14)
O2 O 0.6903(5) -0.1238(3) 0.23028(13)
O3 O 0.8326(5) 0.1501(3) 0.37483(14)
C18 C 0.5433(8) 0.1621(4) 0.1643(2)
C19 C 0.4331(7) 0.1541(4) 0.1254(2)
H28 H 0.39710 0.21660 0.11840
C20 C 0.5412(7) 0.1255(4) 0.0884(2)
H29 H 0.50200 0.14890 0.05990
C21 C 0.6890(7) 0.1787(4) 0.10159(18)
H30 H 0.67710 0.24360 0.09320
C22 C 0.5660(6) 0.0218(4) 0.08520(19)
H31 H 0.57490 -0.00380 0.11530
C23 C 0.4494(9) -0.0357(5) 0.0586(3)
H32 H 0.37300 -0.06260 0.07840
H33 H 0.39570 0.00310 0.03720
C24 C 0.5365(9) -0.1099(6) 0.0350(3)
H34 H 0.50200 -0.17000 0.04510
H35 H 0.51870 -0.10570 0.00320
N2 N 0.7030(7) -0.0973(4) 0.04490(16)
C25 C 0.7299(14) -0.1655(6) 0.0836(4)
H36 H 0.65340 -0.15150 0.10640
H37 H 0.70600 -0.22680 0.07250
C26 C 0.8771(14) -0.1708(6) 0.1052(4)
H38 H 0.94940 -0.18760 0.08170
H39 H 0.86970 -0.22460 0.12430
C27 C 0.9608(9) -0.1015(5) 0.1320(3)
H40 H 1.06750 -0.09850 0.12170
H41 H 0.96250 -0.12200 0.16280
C28 C 0.8900(8) -0.0032(4) 0.1303(2)
H42 H 0.79170 -0.00400 0.14610
H43 H 0.95880 0.03840 0.14610
C29 C 0.8619(7) 0.0358(4) 0.08385(19)
H44 H 0.95190 0.01950 0.06550
C30 C 0.7149(8) 0.0010(5) 0.05948(19)
H45 H 0.70820 0.03770 0.03210
C31 C 0.8481(6) 0.1421(4) 0.08371(19)
H46 H 0.92660 0.16420 0.10480
C32 C 0.2904(8) 0.0964(5) 0.1347(2)
H47 H 0.32140 0.03540 0.14340
H48 H 0.22740 0.09310 0.10840
H49 H 0.23170 0.12430 0.15840
C33 C 0.8870(9) 0.1896(5) 0.0385(2)
H50 H 0.82440 0.16170 0.01530
H51 H 0.85890 0.25430 0.04040
C34 C 1.0482(11) 0.1825(8) 0.0264(3)
H52 H 1.11140 0.20620 0.05010
H53 H 1.06680 0.21750 -0.00020
H54 H 1.07410 0.11900 0.02120
O4 O 0.5100(6) 0.1616(3) 0.20328(16)
O5 O 0.6870(5) 0.1710(3) 0.15049(14)
O6 O 0.7880(6) -0.1099(4) 0.00730(16)
#END
