
#######################################################################
#
#                 Cambridge Crystallographic Data Centre
#                                CCDC
#
#######################################################################
#
# If this CIF has been generated from an entry in the Cambridge
# Structural Database, then it will include bibliographic, chemical,
# crystal, experimental, refinement or atomic coordinate data resulting
# from the CCDC's data processing and validation procedures.
#
#######################################################################

data_CSD_CIF_EGUFAN
_audit_creation_date 2002-12-11
_audit_creation_method CSD-ConQuest-V1
_database_code_CSD EGUFAN
_database_code_depnum_ccdc_archive 'CCDC 184077'
_chemical_formula_sum 'C25 H28 N2 O8'
_chemical_formula_moiety
;
C25 H28 N2 O8
;
_journal_coden_Cambridge 35
_journal_volume 67
_journal_year 2002
_journal_page_first 7004
_journal_name_full 'J.Org.Chem. '
loop_
_publ_author_name
"B.Alcaide"
"P.Almendros"
"J.M.Alonso"
"M.F.Aly"
"C.Pardo"
"E.Saez"
"M.R.Torres"
_chemical_name_systematic
;
(+)-Dimethyl 
3-(1-(4-methoxyphenyl)-3-methoxy-2-oxoazetidin-4-yl)-2-benzyl-1,2-oxazolidine-
4,5-dicarboxylate
;
_chemical_melting_point 414.15
_cell_volume   1229.280
_exptl_crystal_colour 'colorless'
_exptl_crystal_density_diffrn 1.309
_exptl_special_details
;
Melting point range 414.15-416.15K

;
_exptl_crystal_description 'prismatic'
_exptl_crystal_preparation 'ethyl acetate/n-hexane'
_diffrn_ambient_temperature 293
#These two values have been output from a single CSD field.
_refine_ls_R_factor_gt 0.042
_refine_ls_wR_factor_gt 0.042
_symmetry_cell_setting monoclinic
_symmetry_space_group_name_H-M 'P 21'
_symmetry_Int_Tables_number 4
loop_
_symmetry_equiv_pos_site_id
_symmetry_equiv_pos_as_xyz
1 x,y,z
2 -x,1/2+y,-z
_cell_length_a 12.4382(14)
_cell_length_b 5.8976(7)
_cell_length_c 16.8160(19)
_cell_angle_alpha 90
_cell_angle_beta 94.767(3)
_cell_angle_gamma 90
_cell_formula_units_Z 2
loop_
_atom_type_symbol
_atom_type_radius_bond
C 0.68
H 0.23
N 0.68
O 0.68
loop_
_atom_site_label
_atom_site_type_symbol
_atom_site_fract_x
_atom_site_fract_y
_atom_site_fract_z
N1 N 0.6901(3) 0.8485(7) 0.6171(2)
C1 C 0.6242(4) 1.0133(10) 0.5856(3)
C2 C 0.5245(4) 0.8738(9) 0.5990(3)
H1 H 0.48320 0.82560 0.55190
C3 C 0.6032(4) 0.7011(9) 0.6401(3)
H2 H 0.59940 0.55870 0.62350
C4 C 0.5987(4) 0.6685(9) 0.7300(3)
H3 H 0.59840 0.82060 0.75600
N2 N 0.6888(3) 0.5182(7) 0.7588(2)
O1 O 0.6381(3) 0.2994(6) 0.77079(18)
C5 C 0.5287(4) 0.3313(10) 0.7888(3)
H4 H 0.48730 0.20600 0.76690
C6 C 0.4927(4) 0.5539(8) 0.7486(3)
H5 H 0.44930 0.53890 0.70350
C7 C 0.8040(4) 0.8238(10) 0.6189(3)
C8 C 0.8712(5) 0.9953(10) 0.6496(3)
H6 H 0.84210 1.12440 0.67130
C9 C 0.9816(5) 0.9745(10) 0.6480(4)
H7 H 1.02680 1.09040 0.66800
C10 C 1.0244(4) 0.7836(11) 0.6171(3)
C11 C 0.9590(4) 0.6085(10) 0.5888(3)
H8 H 0.98860 0.47770 0.56880
C12 C 0.8484(4) 0.6297(10) 0.5906(3)
H9 H 0.80360 0.51110 0.57240
O2 O 1.1348(3) 0.7814(8) 0.6178(3)
C13 C 1.1848(5) 0.5791(14) 0.5939(4)
H10 H 1.16170 0.45420 0.62490
H11 H 1.26170 0.59470 0.60230
H12 H 1.16480 0.55160 0.53830
O3 O 0.6422(3) 1.1967(7) 0.5555(2)
O4 O 0.4482(3) 0.9632(6) 0.64767(19)
C14 C 0.3672(4) 1.0939(11) 0.6060(3)
H13 H 0.39960 1.22060 0.58120
H14 H 0.31770 1.14810 0.64250
H15 H 0.32920 1.00220 0.56570
C15 C 0.7459(4) 0.5957(9) 0.8356(3)
H16 H 0.69700 0.58900 0.87760
H17 H 0.76880 0.75180 0.83040
C16 C 0.8427(5) 0.448(1) 0.8575(3)
C17 C 0.8411(5) 0.2828(13) 0.9151(4)
H18 H 0.77930 0.26040 0.94170
C18 C 0.9307(7) 0.1509(15) 0.9333(5)
H19 H 0.92810 0.03930 0.97220
C19 C 1.0221(7) 0.1774(15) 0.8969(5)
H20 H 1.08170 0.08640 0.91080
C20 C 1.0263(5) 0.3387(18) 0.8397(5)
H21 H 1.08840 0.35670 0.81320
C21 C 0.9357(6) 0.4791(12) 0.8206(3)
H22 H 0.93930 0.59330 0.78280
C22 C 0.5117(5) 0.3164(10) 0.8779(3)
O5 O 0.5803(3) 0.2914(8) 0.9307(2)
O6 O 0.4058(3) 0.3214(7) 0.8854(2)
C23 C 0.3728(4) 0.2973(13) 0.9653(3)
H23 H 0.38410 0.14360 0.98290
H24 H 0.29770 0.33460 0.96560
H25 H 0.41460 0.39760 1.00060
C24 C 0.4268(5) 0.7069(10) 0.7988(3)
O7 O 0.4626(3) 0.8204(8) 0.8529(2)
O8 O 0.3206(3) 0.6946(7) 0.7733(2)
C25 C 0.2500(4) 0.8294(14) 0.8202(4)
H26 H 0.25090 0.76790 0.87310
H27 H 0.17770 0.82530 0.79520
H28 H 0.27510 0.98330 0.82300
#END
