
#######################################################################
#
#                 Cambridge Crystallographic Data Centre
#                                CCDC
#
#######################################################################
#
# If this CIF has been generated from an entry in the Cambridge
# Structural Database, then it will include bibliographic, chemical,
# crystal, experimental, refinement or atomic coordinate data resulting
# from the CCDC's data processing and validation procedures.
#
#######################################################################

data_CSD_CIF_EGURIH
_audit_creation_date 2002-12-11
_audit_creation_method CSD-ConQuest-V1
_database_code_CSD EGURIH
_database_code_depnum_ccdc_archive 'CCDC 183875'
_chemical_formula_sum 'C12 H11 N3 O7'
_chemical_formula_moiety
;
C12 H11 N3 O7
;
_journal_coden_Cambridge 24
_journal_volume 43
_journal_year 2002
_journal_page_first 6177
_journal_name_full 'Tetrahedron Lett. '
loop_
_publ_author_name
"D.J.Aitken"
"C.Gauzy"
"E.Pereira"
_chemical_name_systematic
;
2-(3,5-Dinitrobenzoylamino)cyclobutane-1-carboxylic acid
;
_chemical_melting_point 493.15
_cell_volume   2652.431
_exptl_crystal_density_diffrn 1.549
_exptl_special_details
;
Melting point range 493.15-495.15K

;
_diffrn_ambient_temperature 293
#These two values have been output from a single CSD field.
_refine_ls_R_factor_gt 0.054
_refine_ls_wR_factor_gt 0.054
_symmetry_cell_setting orthorhombic
_symmetry_space_group_name_H-M 'P 21 21 21'
_symmetry_Int_Tables_number 19
loop_
_symmetry_equiv_pos_site_id
_symmetry_equiv_pos_as_xyz
1 x,y,z
2 1/2-x,-y,1/2+z
3 1/2+x,1/2-y,-z
4 -x,1/2+y,1/2-z
_cell_length_a 8.723(1)
_cell_length_b 14.435(1)
_cell_length_c 21.065(1)
_cell_angle_alpha 90
_cell_angle_beta 90
_cell_angle_gamma 90
_cell_formula_units_Z 8
loop_
_atom_type_symbol
_atom_type_radius_bond
C 0.68
H 0.23
N 0.68
O 0.68
loop_
_atom_site_label
_atom_site_type_symbol
_atom_site_fract_x
_atom_site_fract_y
_atom_site_fract_z
O1 O 0.2973(7) 0.0984(3) 0.3277(2)
N1 N 0.2772(7) -0.1251(3) 0.3126(2)
H1 H 0.36650 -0.10470 0.30230
C1 C 0.1271(8) -0.0062(4) 0.3809(3)
H2 H 0.01560 -0.01150 0.38500
O2 O 0.0773(6) 0.0556(3) 0.2802(2)
H3 H 0.11570 0.07900 0.24850
N2 N 0.5065(7) -0.0724(4) 0.0855(3)
C2 C 0.2139(8) -0.1006(4) 0.3744(3)
H4 H 0.15210 -0.15150 0.39160
O3 O 0.0770(6) -0.2139(3) 0.2820(2)
N3 N 0.3310(8) -0.3928(4) 0.0968(3)
C3 C 0.3277(9) -0.0663(4) 0.4232(3)
H5 H 0.42100 -0.04140 0.40500
H6 H 0.35070 -0.11130 0.45610
O4 O 0.4828(6) 0.0081(3) 0.1010(2)
C4 C 0.2132(9) 0.0076(5) 0.4437(3)
H7 H 0.25790 0.06880 0.44840
H8 H 0.15380 -0.00910 0.48090
O5 O 0.5936(6) -0.0931(3) 0.0425(2)
C5 C 0.1804(10) 0.0573(5) 0.3286(3)
O6 O 0.2504(6) -0.4497(3) 0.1240(2)
C6 C 0.2013(9) -0.1782(4) 0.2714(3)
O7 O 0.3994(7) -0.4070(3) 0.0473(2)
C7 C 0.2810(8) -0.1958(5) 0.2087(3)
C8 C 0.3586(8) -0.1255(4) 0.1773(3)
H9 H 0.36150 -0.06590 0.19400
C9 C 0.4326(8) -0.1461(4) 0.1198(3)
C10 C 0.4284(8) -0.2332(4) 0.0945(3)
H10 H 0.47980 -0.24610 0.05680
C11 C 0.3475(8) -0.3013(4) 0.1252(3)
C12 C 0.2725(9) -0.2834(5) 0.1824(3)
H11 H 0.21730 -0.32990 0.20260
O8 O 0.2098(6) 0.1285(3) 0.1785(2)
N4 N 0.2240(7) 0.3510(3) 0.1870(2)
H12 H 0.13380 0.33110 0.19630
C13 C 0.3764(9) 0.2312(4) 0.1237(3)
H13 H 0.48780 0.23750 0.11950
O9 O 0.4257(6) 0.1729(3) 0.2260(2)
H14 H 0.38770 0.14580 0.25630
N5 N 0.1593(7) 0.6146(4) 0.4046(3)
C14 C 0.2907(8) 0.3247(4) 0.1266(3)
H15 H 0.35490 0.37480 0.10980
O10 O 0.4232(6) 0.4401(3) 0.2199(2)
N6 N -0.0071(7) 0.2937(4) 0.4140(3)
C15 C 0.1797(9) 0.2894(4) 0.0758(3)
H16 H 0.16390 0.33240 0.04100
H17 H 0.08270 0.26760 0.09260
O11 O 0.2419(6) 0.6734(3) 0.3796(2)
C16 C 0.2939(9) 0.2115(4) 0.0607(3)
H18 H 0.35640 0.22340 0.02350
H19 H 0.24750 0.15050 0.05860
O12 O 0.0852(7) 0.6286(3) 0.4527(2)
C17 C 0.3288(9) 0.1710(4) 0.1774(3)
O13 O 0.0282(6) 0.2145(3) 0.4005(2)
C18 C 0.2975(9) 0.4051(4) 0.2289(3)
O14 O -0.1031(6) 0.3147(3) 0.4540(2)
C19 C 0.2155(8) 0.4199(5) 0.2905(3)
C20 C 0.2209(8) 0.5086(4) 0.3180(3)
H20 H 0.27580 0.55580 0.29830
C21 C 0.1447(9) 0.5255(5) 0.3742(3)
C22 C 0.0673(8) 0.4562(4) 0.4052(3)
H21 H 0.01670 0.46800 0.44330
C23 C 0.0661(8) 0.3689(4) 0.3790(3)
C24 C 0.1392(8) 0.3505(4) 0.3215(3)
H22 H 0.13610 0.29120 0.30430
#END
