
#######################################################################
#
#                 Cambridge Crystallographic Data Centre
#                                CCDC
#
#######################################################################
#
# If this CIF has been generated from an entry in the Cambridge
# Structural Database, then it will include bibliographic, chemical,
# crystal, experimental, refinement or atomic coordinate data resulting
# from the CCDC's data processing and validation procedures.
#
#######################################################################

data_CSD_CIF_EHAKEF
_audit_creation_date 2014-06-25
_audit_creation_method CSD-ConQuest-V1
_database_code_CSD EHAKEF
_database_code_depnum_ccdc_archive 'CCDC 977848'
_chemical_formula_sum 'C27 H18 N4 O4'
_chemical_formula_moiety
;
C27 H18 N4 O4
;
_journal_coden_Cambridge 1291
_journal_year 2014
_journal_page_first 4759
_journal_name_full 'Eur.J.Org.Chem. '
loop_
_publ_author_name
"L.Copey"
"L.Jean-Gerard"
"E.Framery"
"G.Pilet"
"B.Andrioletti"
_chemical_name_systematic
;
2-(2-nitrophenyl)-5-((5-(2-nitrophenyl)-2H-pyrrol-2-ylidene)(phenyl)methyl)-1H
-pyrrole
;
_cell_volume   2289.870
_exptl_crystal_colour 'red'
_exptl_crystal_density_diffrn 1.344
_exptl_crystal_description 'cubic'
_diffrn_ambient_temperature 293
#These two values have been output from a single CSD field.
_refine_ls_R_factor_gt 0.0465
_refine_ls_wR_factor_gt 0.0465
_symmetry_cell_setting monoclinic
_symmetry_space_group_name_H-M 'C 2/c'
_symmetry_Int_Tables_number 15
loop_
_symmetry_equiv_pos_site_id
_symmetry_equiv_pos_as_xyz
1 x,y,z
2 1/2+x,1/2+y,z
3 -x,y,1/2-z
4 1/2-x,1/2+y,1/2-z
5 -x,-y,-z
6 -1/2-x,-1/2-y,-z
7 x,-y,-1/2+z
8 -1/2+x,-1/2-y,-1/2+z
_cell_length_a 13.1772(14)
_cell_length_b 12.3257(7)
_cell_length_c 14.9321(14)
_cell_angle_alpha 90
_cell_angle_beta 109.234(12)
_cell_angle_gamma 90
_cell_formula_units_Z 4
loop_
_atom_type_symbol
_atom_type_radius_bond
C 0.68
H 0.23
N 0.68
O 0.68
loop_
_atom_site_label
_atom_site_type_symbol
_atom_site_fract_x
_atom_site_fract_y
_atom_site_fract_z
O1 O 0.74098(14) 0.47858(13) 0.82489(10)
N1 N 0.67904(15) 0.55088(13) 0.78911(11)
O2 O 0.6338(2) 0.60433(16) 0.83205(14)
C1 C 0.66161(14) 0.57969(14) 0.68986(12)
C2 C 0.63964(14) 0.49995(14) 0.62030(12)
C3 C 0.63519(15) 0.53449(18) 0.53007(13)
C4 C 0.64961(16) 0.64187(19) 0.51168(14)
C5 C 0.66714(16) 0.71891(17) 0.58148(14)
C6 C 0.67420(16) 0.68809(14) 0.67228(13)
C7 C 0.61407(14) 0.38678(14) 0.63507(12)
N2 N 0.56113(11) 0.35989(10) 0.69388(10)
C8 C 0.54856(14) 0.24842(13) 0.69203(13)
C9 C 0.59577(16) 0.20672(15) 0.62641(15)
C10 C 0.63548(17) 0.29226(17) 0.59065(15)
C11 C 0.50000 0.19486(18) 0.75000
C12 C 0.50000 0.0735(2) 0.75000
C13 C 0.4398(2) 0.01757(19) 0.6700(3)
C14 C 0.4400(3) -0.0957(2) 0.6703(4)
C15 C 0.50000 -0.1494(4) 0.75000
H1 H 0.62120 0.48020 0.48080
H2 H 0.64590 0.66210 0.44730
H3 H 0.67490 0.79600 0.56650
H4 H 0.68850 0.74120 0.72470
H5 H 0.59860 0.13110 0.60940
H6 H 0.67250 0.28850 0.54340
H7 H 0.39640 0.06010 0.61240
H8 H 0.39640 -0.13440 0.61280
H9 H 0.50000 -0.22580 0.75000
H10? H 0.54110 0.40610 0.73040
O1B O 0.25902(14) 0.47858(13) 0.67511(10)
N1B N 0.32096(15) 0.55088(13) 0.71089(11)
O2B O 0.3662(2) 0.60433(16) 0.66795(14)
C1B C 0.33839(14) 0.57969(14) 0.81014(12)
C2B C 0.36036(14) 0.49995(14) 0.87970(12)
C3B C 0.36481(15) 0.53449(18) 0.96993(13)
C4B C 0.35039(16) 0.64187(19) 0.98832(14)
C5B C 0.33286(16) 0.71891(17) 0.91852(14)
C6B C 0.32580(16) 0.68809(14) 0.82772(13)
C7B C 0.38593(14) 0.38678(14) 0.86493(12)
N2B N 0.43887(11) 0.35989(10) 0.80612(10)
C8B C 0.45144(14) 0.24842(13) 0.80797(13)
C9B C 0.40423(16) 0.20672(15) 0.87359(15)
C10B C 0.36452(17) 0.29226(17) 0.90935(15)
C13B C 0.5602(2) 0.01757(19) 0.8300(3)
C14B C 0.5600(3) -0.0957(2) 0.8297(4)
H1B H 0.37880 0.48020 1.01920
H2B H 0.35410 0.66210 1.05270
H3B H 0.32510 0.79600 0.93350
H4B H 0.31150 0.74120 0.77530
H5B H 0.40140 0.13110 0.89060
H6B H 0.32750 0.28850 0.95660
H7B H 0.60360 0.06010 0.88760
H8B H 0.60360 -0.13440 0.88720
#END
