
#######################################################################
#
#                 Cambridge Crystallographic Data Centre
#                                CCDC
#
#######################################################################
#
# If this CIF has been generated from an entry in the Cambridge
# Structural Database, then it will include bibliographic, chemical,
# crystal, experimental, refinement or atomic coordinate data resulting
# from the CCDC's data processing and validation procedures.
#
#######################################################################

data_CSD_CIF_EHALUV
_audit_creation_date 2009-04-10
_audit_creation_method CSD-ConQuest-V1
_database_code_CSD EHALUV
_database_code_depnum_ccdc_archive 'CCDC 707229'
_chemical_formula_sum 'C15 H17 N2 O1'
_chemical_formula_moiety
;
C15 H17 N2 O1
;
_journal_coden_Cambridge 9
_journal_volume 47
_journal_year 2008
_journal_page_first 8859
_journal_name_full 'Inorg.Chem. '
loop_
_publ_author_name
"A.Okazawa"
"Y.Nagaichi"
"T.Nogami"
"T.Ishida"
_chemical_name_systematic
;
t-butyl 5-phenyl-2-pyridyl nitroxide
;
_chemical_name_common
;
(t-butyl(5-phenylpyridin-2-yl)amino)oxidanyl
;
_chemical_melting_point 360.65
_cell_volume   1289.109
_exptl_crystal_colour 'red'
_exptl_crystal_density_diffrn 1.243
_exptl_special_details
;
Melting point range 360.65-361.65K

;
_exptl_crystal_description 'platelet'
_diffrn_ambient_temperature 100.
#These two values have been output from a single CSD field.
_refine_ls_R_factor_gt 0.0351
_refine_ls_wR_factor_gt 0.0351
_symmetry_cell_setting monoclinic
_symmetry_space_group_name_H-M 'P 21/c'
_symmetry_Int_Tables_number 14
loop_
_symmetry_equiv_pos_site_id
_symmetry_equiv_pos_as_xyz
1 x,y,z
2 -x,1/2+y,1/2-z
3 -x,-y,-z
4 x,-1/2-y,-1/2+z
_cell_length_a 10.8007(3)
_cell_length_b 11.3559(3)
_cell_length_c 11.2283(3)
_cell_angle_alpha 90
_cell_angle_beta 110.6004(13)
_cell_angle_gamma 90
_cell_formula_units_Z 4
loop_
_atom_type_symbol
_atom_type_radius_bond
C 0.68
H 0.23
N 0.68
O 0.68
loop_
_atom_site_label
_atom_site_type_symbol
_atom_site_fract_x
_atom_site_fract_y
_atom_site_fract_z
O1 O 0.82631(9) 0.83578(8) 0.22674(9)
N1 N 0.66619(10) 0.56434(10) 0.16573(10)
N2 N 0.74393(10) 0.75565(10) 0.23246(11)
C1 C 0.76740(12) 0.64035(12) 0.19890(12)
C2 C 0.89434(13) 0.61171(13) 0.20108(13)
C3 C 0.91510(13) 0.50021(13) 0.16444(13)
C4 C 0.81140(12) 0.41851(12) 0.12567(13)
C5 C 0.69046(13) 0.45673(13) 0.12990(13)
C6 C 0.82712(12) 0.29979(13) 0.07916(13)
C7 C 0.90196(13) 0.28429(13) 0.00096(13)
C8 C 0.91537(14) 0.17409(13) -0.04600(14)
C9 C 0.85396(13) 0.07721(13) -0.01636(14)
C10 C 0.78098(13) 0.09055(13) 0.06241(14)
C11 C 0.76785(12) 0.20073(13) 0.11006(14)
C12 C 0.63370(12) 0.79044(13) 0.27912(13)
C13 C 0.63149(17) 0.70517(16) 0.38293(15)
C14 C 0.50262(14) 0.78979(16) 0.16657(15)
C15 C 0.66302(16) 0.91464(15) 0.33314(16)
H1 H 0.9604(11) 0.6714(11) 0.2273(12)
H2 H 1.0034(12) 0.4763(11) 0.1677(12)
H3 H 0.6143(12) 0.4010(12) 0.1034(12)
H4 H 0.9416(11) 0.3531(12) -0.0226(12)
H5 H 0.9667(12) 0.1670(12) -0.0974(13)
H6 H 0.8617(11) -0.0018(12) -0.0502(13)
H7 H 0.7416(11) 0.0213(12) 0.0866(12)
H8 H 0.7202(12) 0.2120(11) 0.1659(13)
H9 H 0.7189(14) 0.7049(14) 0.4512(14)
H10 H 0.5680(13) 0.7353(12) 0.4221(13)
H11 H 0.6086(13) 0.6227(14) 0.3511(14)
H12 H 0.4790(12) 0.7099(13) 0.1283(14)
H13 H 0.5067(13) 0.8465(14) 0.0975(15)
H14 H 0.4301(13) 0.8212(12) 0.1962(13)
H15 H 0.5929(13) 0.9345(13) 0.3665(14)
H16 H 0.7497(14) 0.9152(13) 0.4055(15)
H17 H 0.6685(13) 0.9736(14) 0.2681(15)
#END
