
#######################################################################
#
#                 Cambridge Crystallographic Data Centre
#                                CCDC
#
#######################################################################
#
# If this CIF has been generated from an entry in the Cambridge
# Structural Database, then it will include bibliographic, chemical,
# crystal, experimental, refinement or atomic coordinate data resulting
# from the CCDC's data processing and validation procedures.
#
#######################################################################

data_CSD_CIF_EHAQIP
_audit_creation_date 2016-03-18
_audit_creation_method CSD-ConQuest-V1
_database_code_CSD EHAQIP
_database_code_depnum_ccdc_archive 'CCDC 1429167'
_chemical_formula_sum 'C23 H27 N3 O5'
_chemical_formula_moiety
;
C23 H27 N3 O5
;
_journal_coden_Cambridge 179
_journal_volume 55
_journal_year 2016
_journal_page_first 3081
_journal_name_full 'Angew.Chem.,Int.Ed. '
loop_
_publ_author_name
"Siu Min Tan"
"A.C.Willis"
"M.N.Paddon-Row"
"M.S.Sherburn"
_chemical_name_systematic
;
2-methyl-7-(morpholin-4-yl)-6-nitro-5-phenyl-3a,4,4a,5,6,7,9,9a-octahydro-1H-b
enzo[f]isoindole-1,3(2H)-dione
;
_cell_volume   4266.691
_exptl_crystal_colour 'yellow'
_exptl_crystal_density_diffrn 1.325
_exptl_crystal_description 'plate'
_diffrn_ambient_temperature 200
#These two values have been output from a single CSD field.
_refine_ls_R_factor_gt 0.0635
_refine_ls_wR_factor_gt 0.0635
_symmetry_cell_setting orthorhombic
_symmetry_space_group_name_H-M 'P b c a'
_symmetry_Int_Tables_number 61
loop_
_symmetry_equiv_pos_site_id
_symmetry_equiv_pos_as_xyz
1 x,y,z
2 1/2+x,1/2-y,-z
3 -x,1/2+y,1/2-z
4 1/2-x,-y,1/2+z
5 -x,-y,-z
6 -1/2-x,-1/2+y,z
7 x,-1/2-y,-1/2+z
8 -1/2+x,y,-1/2-z
_cell_length_a 17.9722(5)
_cell_length_b 9.5299(3)
_cell_length_c 24.9116(6)
_cell_angle_alpha 90
_cell_angle_beta 90
_cell_angle_gamma 90
_cell_formula_units_Z 8
loop_
_atom_type_symbol
_atom_type_radius_bond
C 0.68
H 0.23
N 0.68
O 0.68
loop_
_atom_site_label
_atom_site_type_symbol
_atom_site_fract_x
_atom_site_fract_y
_atom_site_fract_z
C1 C 0.61607(15) 0.5169(3) 0.49301(10)
C2 C 0.57009(15) 0.6481(3) 0.48699(11)
C3 C 0.54877(15) 0.7026(3) 0.44039(11)
C4 C 0.50359(16) 0.8345(3) 0.43689(11)
C5 C 0.54734(16) 0.9515(3) 0.40781(11)
C6 C 0.49081(17) 1.0536(3) 0.38600(12)
N1 N 0.48273(13) 1.0284(3) 0.33184(9)
C7 C 0.53535(17) 0.9364(3) 0.31220(12)
C8 C 0.58797(16) 0.8997(3) 0.35752(11)
C9 C 0.61871(15) 0.7500(3) 0.35651(11)
C10 C 0.56987(15) 0.6431(3) 0.3866(1)
C11 C 0.60388(15) 0.4943(3) 0.39238(10)
C12 C 0.65719(16) 0.4927(3) 0.44009(10)
N2 N 0.66754(12) 0.5123(2) 0.53899(8)
C13 C 0.72179(16) 0.6264(4) 0.54059(12)
C14 C 0.77437(18) 0.6001(4) 0.58717(14)
O1 O 0.73628(15) 0.5974(3) 0.63686(9)
C15 C 0.6823(2) 0.4878(4) 0.63576(13)
C16 C 0.62819(17) 0.5066(3) 0.59019(11)
O2 O 0.45440(13) 1.1388(2) 0.41070(9)
C17 C 0.42513(17) 1.0947(3) 0.29882(12)
O3 O 0.53961(12) 0.8990(2) 0.26582(8)
C18 C 0.63800(16) 0.4311(3) 0.34206(10)
C19 C 0.60005(17) 0.3257(3) 0.31565(11)
C20 C 0.6306(2) 0.2605(3) 0.27091(12)
C21 C 0.69914(19) 0.3014(3) 0.25211(12)
C22 C 0.73700(17) 0.4075(3) 0.27743(11)
C23 C 0.70701(16) 0.4721(3) 0.32217(11)
N3 N 0.69547(18) 0.3520(3) 0.44322(9)
O4 O 0.76370(15) 0.3528(3) 0.44320(8)
O5 O 0.65718(15) 0.2475(3) 0.44564(9)
H1 H 0.58140 0.43750 0.49810
H2 H 0.55560 0.69410 0.51840
H3 H 0.48880 0.86660 0.47270
H4 H 0.45790 0.81530 0.41660
H5 H 0.58200 0.99910 0.43200
H6 H 0.63050 0.96320 0.35190
H7 H 0.66780 0.74990 0.37400
H8 H 0.62530 0.72010 0.31920
H9 H 0.52480 0.63310 0.36450
H10 H 0.56260 0.43290 0.40310
H11 H 0.69540 0.56600 0.43540
H12 H 0.69690 0.71830 0.54540
H13 H 0.75020 0.62920 0.50630
H14 H 0.80920 0.68040 0.58870
H15 H 0.80050 0.51070 0.58100
H16 H 0.65580 0.49190 0.66950
H17 H 0.70920 0.39670 0.63290
H18 H 0.59960 0.59320 0.59550
H19 H 0.59420 0.42360 0.58980
H20 H 0.41560 1.04000 0.26820
H21 H 0.43900 1.18490 0.28760
H22 H 0.38050 1.10460 0.31840
H23 H 0.55310 0.29620 0.32870
H24 H 0.60440 0.18800 0.25360
H25 H 0.72020 0.25810 0.22220
H26 H 0.78360 0.43630 0.26430
H27 H 0.73330 0.54400 0.33910
#END
