
#######################################################################
#
#                 Cambridge Crystallographic Data Centre
#                                CCDC
#
#######################################################################
#
# If this CIF has been generated from an entry in the Cambridge
# Structural Database, then it will include bibliographic, chemical,
# crystal, experimental, refinement or atomic coordinate data resulting
# from the CCDC's data processing and validation procedures.
#
#######################################################################

data_CSD_CIF_EHAQOV
_audit_creation_date 2016-03-18
_audit_creation_method CSD-ConQuest-V1
_database_code_CSD EHAQOV
_database_code_depnum_ccdc_archive 'CCDC 1429168'
_chemical_formula_sum 'C21 H25 N3 O4'
_chemical_formula_moiety
;
C21 H25 N3 O4
;
_journal_coden_Cambridge 179
_journal_volume 55
_journal_year 2016
_journal_page_first 3081
_journal_name_full 'Angew.Chem.,Int.Ed. '
loop_
_publ_author_name
"Siu Min Tan"
"A.C.Willis"
"M.N.Paddon-Row"
"M.S.Sherburn"
_chemical_name_systematic
;
8-methyl-1-(morpholin-4-yl)-3-phenyl-3,4,6,6a,9a,9b-hexahydro[1,2]oxazino[5,4-
e]isoindole-7,9(1H,8H)-dione
;
_cell_volume   3794.937
_exptl_crystal_colour 'pale yellow'
_exptl_crystal_density_diffrn 1.342
_exptl_crystal_description 'plate'
_diffrn_ambient_temperature 200
#These two values have been output from a single CSD field.
_refine_ls_R_factor_gt 0.0408
_refine_ls_wR_factor_gt 0.0408
_symmetry_cell_setting monoclinic
_symmetry_space_group_name_H-M 'C 2/c'
_symmetry_Int_Tables_number 15
loop_
_symmetry_equiv_pos_site_id
_symmetry_equiv_pos_as_xyz
1 x,y,z
2 1/2+x,1/2+y,z
3 -x,y,1/2-z
4 1/2-x,1/2+y,1/2-z
5 -x,-y,-z
6 -1/2-x,-1/2-y,-z
7 x,-y,-1/2+z
8 -1/2+x,-1/2-y,-1/2+z
_cell_length_a 20.0999(5)
_cell_length_b 11.4598(2)
_cell_length_c 16.6843(3)
_cell_angle_alpha 90
_cell_angle_beta 99.0782(13)
_cell_angle_gamma 90
_cell_formula_units_Z 8
loop_
_atom_type_symbol
_atom_type_radius_bond
C 0.68
H 0.23
N 0.68
O 0.68
loop_
_atom_site_label
_atom_site_type_symbol
_atom_site_fract_x
_atom_site_fract_y
_atom_site_fract_z
C1 C 0.25852(6) 0.34760(11) 0.27943(7)
O1 O 0.28487(4) 0.35623(8) 0.20308(5)
N1 N 0.35247(5) 0.30956(9) 0.21940(6)
C2 C 0.39409(6) 0.40663(12) 0.25464(8)
C3 C 0.37152(6) 0.44469(11) 0.33240(7)
C4 C 0.41220(7) 0.50191(11) 0.39019(8)
C5 C 0.38478(8) 0.55195(12) 0.46103(8)
C6 C 0.33938(6) 0.46386(11) 0.49588(7)
C7 C 0.38306(6) 0.37431(11) 0.54541(7)
N2 N 0.36652(5) 0.26500(9) 0.51420(6)
C8 C 0.31325(6) 0.26682(11) 0.45075(7)
C9 C 0.29303(6) 0.39282(11) 0.43101(7)
C10 C 0.29840(6) 0.42954(10) 0.34244(7)
N3 N 0.18752(5) 0.37092(9) 0.26508(6)
C11 C 0.14990(6) 0.27552(12) 0.21962(8)
C12 C 0.07499(7) 0.29545(14) 0.21369(9)
O2 O 0.05536(5) 0.40478(10) 0.17594(6)
C13 C 0.09114(7) 0.49687(14) 0.22153(9)
C14 C 0.16659(7) 0.48303(12) 0.22602(8)
C15 C 0.36877(6) 0.25685(11) 0.14814(7)
C16 C 0.43596(7) 0.24275(16) 0.13867(9)
C17 C 0.45261(8) 0.18441(16) 0.07185(9)
C18 C 0.40378(8) 0.13938(12) 0.01345(9)
C19 C 0.33722(8) 0.15116(12) 0.02311(9)
C20 C 0.31939(7) 0.20942(12) 0.08958(8)
O3 O 0.42671(5) 0.39230(9) 0.60338(6)
C21 C 0.39837(8) 0.15814(12) 0.54827(9)
O4 O 0.28710(6) 0.17853(8) 0.42009(6)
H1 H 0.26500 0.26580 0.29740
H2 H 0.44130 0.38070 0.26690
H3 H 0.39050 0.47090 0.21550
H4 H 0.45940 0.51430 0.38500
H5 H 0.42120 0.57630 0.50350
H6 H 0.35710 0.62140 0.44370
H7 H 0.31290 0.50480 0.53230
H8 H 0.24510 0.40030 0.43800
H9 H 0.27730 0.50710 0.33400
H10 H 0.16110 0.20140 0.24920
H11 H 0.16270 0.26790 0.16500
H12 H 0.06320 0.29280 0.26990
H13 H 0.04850 0.23490 0.17920
H14 H 0.07760 0.57130 0.19260
H15 H 0.07840 0.49800 0.27700
H16 H 0.18980 0.54790 0.25810
H17 H 0.17770 0.48640 0.17090
H18 H 0.47140 0.27410 0.17870
H19 H 0.49900 0.17640 0.06660
H20 H 0.41540 0.10020 -0.03390
H21 H 0.30260 0.11850 -0.01670
H22 H 0.27350 0.21850 0.09560
H23 H 0.39390 0.09930 0.50500
H24 H 0.37510 0.12920 0.59290
H25 H 0.44590 0.17480 0.56910
#END
