
#######################################################################
#
#                 Cambridge Crystallographic Data Centre
#                                CCDC
#
#######################################################################
#
# If this CIF has been generated from an entry in the Cambridge
# Structural Database, then it will include bibliographic, chemical,
# crystal, experimental, refinement or atomic coordinate data resulting
# from the CCDC's data processing and validation procedures.
#
#######################################################################

data_CSD_CIF_EHAYIV
_audit_creation_date 2002-12-11
_audit_creation_method CSD-ConQuest-V1
_database_code_CSD EHAYIV
_database_code_depnum_ccdc_archive 'CCDC 187438'
_chemical_formula_sum 'C12 H15 N1 O2'
_chemical_formula_moiety
;
C12 H15 N1 O2
;
_journal_coden_Cambridge 179
_journal_volume 41
_journal_year 2002
_journal_page_first 2986
_journal_name_full 'Angew.Chem.,Int.Ed. '
loop_
_publ_author_name
"N.Momiyama"
"H.Yamamoto"
_chemical_name_systematic
;
N-(2-Oxocyclohexyloxy)aniline
;
_cell_volume   2312.327
_exptl_crystal_colour 'colorless'
_exptl_crystal_description 'cube'
_diffrn_ambient_temperature 298
#These two values have been output from a single CSD field.
_refine_ls_R_factor_gt 0.041
_refine_ls_wR_factor_gt 0.041
_symmetry_cell_setting orthorhombic
_symmetry_space_group_name_H-M 'P b c 21'
_symmetry_Int_Tables_number 29
loop_
_symmetry_equiv_pos_site_id
_symmetry_equiv_pos_as_xyz
1 x,y,z
2 -x,-y,1/2+z
3 -x,1/2+y,z
4 x,1/2-y,1/2+z
_cell_length_a 8.193
_cell_length_b 11.856
_cell_length_c 23.805
_cell_angle_alpha 90
_cell_angle_beta 90
_cell_angle_gamma 90
_cell_formula_units_Z 8
loop_
_atom_type_symbol
_atom_type_radius_bond
C 0.68
H 0.23
N 0.68
O 0.68
loop_
_atom_site_label
_atom_site_type_symbol
_atom_site_fract_x
_atom_site_fract_y
_atom_site_fract_z
O1 O 0.69847(7) 0.11711(5) 0.23700
O2 O 0.7500(1) 0.27392(5) 0.15713(5)
N1 N 0.62586(8) 0.20982(6) 0.26755(5)
C1 C 0.6646(1) 0.19473(7) 0.14361(6)
C2 C 0.6170(1) 0.10450(7) 0.18501(6)
C3 C 0.5907(2) -0.02958(8) 0.10332(7)
C4 C 0.5755(2) 0.0525(1) 0.40041(7)
C5 C 0.6165(1) 0.26975(9) 0.36344(6)
C6 C 0.5945(1) 0.07223(9) 0.34369(7)
C7 C 0.6161(1) 0.18316(8) 0.32472(5)
C8 C 0.6442(2) 0.06221(9) 0.06257(7)
C9 C 0.5979(2) 0.1789(1) 0.08580(7)
C10 C 0.5738(2) 0.1384(1) 0.43860(8)
C11 C 0.6636(1) -0.01245(7) 0.16092(7)
C12 C 0.5964(2) 0.2478(1) 0.41959(7)
H1 H 0.498(1) 0.1124(7) 0.1893(6)
H2 H 0.635(1) -0.0563(9) 0.1925(7)
H3 H 0.786(1) -0.0121(8) 0.1642(5)
H4 H 0.577(1) -0.025(1) 0.4133(6)
H5 H 0.784(2) 0.0540(8) 0.0603(5)
H6 H 0.648(1) 0.230(1) 0.0565(7)
H7 H 0.689(1) 0.2782(8) 0.2647(6)
H8 H 0.473(2) -0.0298(9) 0.1073(7)
H9 H 0.555(2) 0.309(1) 0.4516(9)
H10 H 0.583(1) 0.055(1) 0.0286(7)
H11 H 0.563(2) 0.116(1) 0.4794(8)
H12 H 0.625(1) 0.347(1) 0.3512(7)
H13 H 0.593(1) 0.006(1) 0.3117(6)
H14 H 0.645(1) -0.104(1) 0.0858(6)
H15 H 0.458(2) 0.184(1) 0.0894(7)
O3 O 0.19942(6) 0.11974(5) 0.18585(3)
N2 N 0.11960(9) 0.03126(6) 0.15412(5)
O4 O 0.23199(9) -0.03905(5) 0.26561(5)
C13 C 0.1158(1) 0.13575(7) 0.23731(6)
C14 C 0.1159(1) 0.05974(8) 0.09730(6)
C15 C 0.1516(1) 0.04282(7) 0.27867(6)
C16 C 0.0823(2) 0.06143(9) 0.33587(6)
C17 C 0.0965(1) 0.26904(9) 0.31899(7)
C18 C 0.1043(1) -0.02805(9) 0.05826(6)
C19 C 0.1386(2) 0.1753(1) 0.35952(7)
C20 C 0.1706(1) 0.24949(8) 0.26135(6)
C21 C 0.1139(1) 0.1705(1) 0.07849(7)
C22 C 0.0876(2) -0.0044(1) 0.00195(8)
C23 C 0.1018(2) 0.1918(1) 0.02159(8)
C24 C 0.0855(2) 0.1060(1) -0.01676(9)
H16 H 0.001(1) 0.1379(7) 0.2261(6)
H17 H 0.129(1) 0.236(1) 0.1097(6)
H18 H -0.042(2) 0.2780(9) 0.3114(7)
H19 H 0.098(2) -0.063(1) -0.0244(8)
H20 H 0.121(2) -0.114(1) 0.0661(8)
H21 H 0.130(2) 0.308(1) 0.2396(9)
H22 H 0.122(1) -0.006(1) 0.3579(6)
H23 H 0.175(1) -0.0347(8) 0.1646(5)
H24 H 0.280(2) 0.2461(9) 0.2678(7)
H25 H 0.070(2) 0.114(1) -0.0631(9)
H26 H -0.039(2) 0.058(1) 0.3330(7)
H27 H 0.130(2) 0.342(1) 0.3307(8)
H28 H 0.084(2) 0.277(2) 0.004(1)
H29 H 0.267(2) 0.1673(9) 0.3675(6)
H30 H 0.065(2) 0.195(1) 0.3982(9)
#END
