
#######################################################################
#
#                 Cambridge Crystallographic Data Centre
#                                CCDC
#
#######################################################################
#
# If this CIF has been generated from an entry in the Cambridge
# Structural Database, then it will include bibliographic, chemical,
# crystal, experimental, refinement or atomic coordinate data resulting
# from the CCDC's data processing and validation procedures.
#
#######################################################################

data_CSD_CIF_EHECEZ
_audit_creation_date 2002-12-11
_audit_creation_method CSD-ConQuest-V1
_database_code_CSD EHECEZ
_database_code_depnum_ccdc_archive 'CCDC 179064'
_chemical_formula_sum 'C16 H16 N2 O6'
_chemical_formula_moiety
;
C16 H16 N2 O6
;
_journal_coden_Cambridge 15
_journal_volume 80
_journal_year 2002
_journal_page_first 671
_journal_name_full 'Can.J.Chem. '
loop_
_publ_author_name
"F.Effenberger"
"J.Roos"
"C.Kobler"
"H.Buehler"
_chemical_name_systematic
;
trans-4-Acetoxy-1-(4-nitrobenzoyloxy)-cyclohexanecarbonitrile
;
_chemical_melting_point 446.15
_cell_volume   1629.110
_exptl_crystal_density_diffrn 1.355
_diffrn_ambient_temperature 293
#These two values have been output from a single CSD field.
_refine_ls_R_factor_gt 0.0597
_refine_ls_wR_factor_gt 0.0597
_symmetry_cell_setting monoclinic
_symmetry_space_group_name_H-M 'P 21/c'
_symmetry_Int_Tables_number 14
loop_
_symmetry_equiv_pos_site_id
_symmetry_equiv_pos_as_xyz
1 x,y,z
2 -x,1/2+y,1/2-z
3 -x,-y,-z
4 x,-1/2-y,-1/2+z
_cell_length_a 10.923(3)
_cell_length_b 6.436(2)
_cell_length_c 23.184(3)
_cell_angle_alpha 90
_cell_angle_beta 91.721(14)
_cell_angle_gamma 90
_cell_formula_units_Z 4
loop_
_atom_type_symbol
_atom_type_radius_bond
C 0.68
H 0.23
N 0.68
O 0.68
loop_
_atom_site_label
_atom_site_type_symbol
_atom_site_fract_x
_atom_site_fract_y
_atom_site_fract_z
C1 C 0.8047(3) 0.2838(5) 0.1920(1)
O1 O 0.5574(2) 0.2716(4) 0.3303(1)
N1 N 0.7983(4) 0.6885(6) 0.1840(2)
N2 N 1.2355(3) -0.2926(6) -0.0151(1)
C2 C 0.6741(3) 0.2036(5) 0.1818(1)
O2 O 0.6194(3) 0.0233(6) 0.3918(1)
O3 O 0.8739(2) 0.1850(3) 0.1470(1)
C3 C 0.5913(3) 0.2706(6) 0.2297(1)
O4 O 1.0387(2) 0.3877(4) 0.1626(1)
C4 C 0.6421(3) 0.1979(6) 0.2877(1)
C5 C 0.7689(3) 0.2834(6) 0.2990(1)
O5 O 1.3351(3) -0.2379(5) -0.0319(1)
C6 C 0.8544(3) 0.2172(6) 0.2516(1)
O6 O 1.1851(3) -0.4535(5) -0.0306(1)
C7 C 0.8068(3) 0.5117(6) 0.1859(2)
C8 C 0.5546(3) 0.1680(7) 0.3804(2)
C9 C 0.4627(4) 0.2548(8) 0.4192(2)
C10 C 0.9909(3) 0.2414(5) 0.1395(1)
C11 C 1.0514(3) 0.1002(5) 0.0986(1)
C12 C 1.1648(3) 0.1605(6) 0.0775(1)
C13 C 1.2248(3) 0.0319(6) 0.0403(2)
C14 C 1.1730(3) -0.1560(6) 0.0252(1)
C15 C 1.0617(3) -0.2206(5) 0.0458(1)
C16 C 1.0012(3) -0.0910(5) 0.0828(1)
H1 H 0.6418(3) 0.2562(5) 0.1452(1)
H2 H 0.6753(3) 0.0531(5) 0.1797(1)
H3 H 0.5842(3) 0.4209(6) 0.2297(1)
H4 H 0.5102(3) 0.2128(6) 0.2229(1)
H5 H 0.6448(3) 0.0457(6) 0.2884(1)
H6 H 0.8006(3) 0.2334(6) 0.3360(1)
H7 H 0.7653(3) 0.4339(6) 0.3007(1)
H8 H 0.8639(3) 0.0673(6) 0.2524(1)
H9 H 0.9344(3) 0.2790(6) 0.2587(1)
H10 H 0.4220(4) 0.3701(8) 0.4007(2)
H11 H 0.5027(4) 0.3010(8) 0.4543(2)
H12 H 0.4036(4) 0.1496(8) 0.4278(2)
H13? H 0.4635(4) 0.1770(8) 0.4546(2)
H14? H 0.3828(4) 0.2462(8) 0.4009(2)
H15? H 0.4819(4) 0.3975(8) 0.4274(2)
H16 H 1.1995(3) 0.2869(6) 0.0886(1)
H17 H 1.2995(3) 0.0716(6) 0.0255(2)
H18 H 1.0285(3) -0.3483(5) 0.0350(1)
H19 H 0.9264(3) -0.1316(5) 0.0973(1)
#END
