
#######################################################################
#
#                 Cambridge Crystallographic Data Centre
#                                CCDC
#
#######################################################################
#
# If this CIF has been generated from an entry in the Cambridge
# Structural Database, then it will include bibliographic, chemical,
# crystal, experimental, refinement or atomic coordinate data resulting
# from the CCDC's data processing and validation procedures.
#
#######################################################################

data_CSD_CIF_EHECAV
_audit_creation_date 2002-12-11
_audit_creation_method CSD-ConQuest-V1
_database_code_CSD EHECAV
_database_code_depnum_ccdc_archive 'CCDC 169991'
_chemical_formula_sum 'C15 H16 N2 O5'
_chemical_formula_moiety
;
C15 H16 N2 O5
;
_journal_coden_Cambridge 15
_journal_volume 80
_journal_year 2002
_journal_page_first 671
_journal_name_full 'Can.J.Chem. '
loop_
_publ_author_name
"F.Effenberger"
"J.Roos"
"C.Kobler"
"H.Buhler"
_chemical_name_systematic
;
trans-4-Methoxy-1-(4-nitrobenzoyloxy)cyclohexanecarbonitrile
;
_chemical_melting_point 419.15
_cell_volume   1531.338
_exptl_crystal_density_diffrn 1.32
_exptl_special_details
;
The space group is P21/n, not P21/c

;
_diffrn_ambient_temperature 293
#These two values have been output from a single CSD field.
_refine_ls_R_factor_gt 0.0586
_refine_ls_wR_factor_gt 0.0586
_symmetry_cell_setting monoclinic
_symmetry_space_group_name_H-M 'P 21/n'
_symmetry_Int_Tables_number 14
loop_
_symmetry_equiv_pos_site_id
_symmetry_equiv_pos_as_xyz
1 x,y,z
2 1/2-x,1/2+y,1/2-z
3 -x,-y,-z
4 -1/2+x,-1/2-y,-1/2+z
_cell_length_a 6.9275(12)
_cell_length_b 7.1416(13)
_cell_length_c 30.957(4)
_cell_angle_alpha 90
_cell_angle_beta 90.952(12)
_cell_angle_gamma 90
_cell_formula_units_Z 4
loop_
_atom_type_symbol
_atom_type_radius_bond
C 0.58
H 0.12
N 0.68
O 0.68
loop_
_atom_site_label
_atom_site_type_symbol
_atom_site_fract_x
_atom_site_fract_y
_atom_site_fract_z
C1 C 0.7074(3) 0.4408(3) 0.1402(1)
O1 O 0.4554(3) 0.6661(3) 0.2529(1)
N1 N 1.0391(4) 0.6066(5) 0.1534(1)
O2 O 0.7180(2) 0.3192(2) 0.1024(1)
C2 C 0.5456(3) 0.5848(4) 0.1359(1)
N2 N 0.7527(4) -0.1248(4) -0.0753(1)
O3 O 0.7296(6) -0.0625(4) -0.1111(1)
O4 O 0.7619(4) -0.2893(3) -0.0682(1)
C3 C 0.5174(4) 0.6895(4) 0.1783(1)
O5 O 0.7968(3) 0.5581(3) 0.0588(1)
C4 C 0.4759(4) 0.5564(4) 0.2148(1)
C5 C 0.6354(4) 0.4126(4) 0.2195(1)
C6 C 0.6685(4) 0.3076(4) 0.1776(1)
C7 C 0.3448(5) 0.5785(5) 0.2848(1)
C8 C 0.8974(4) 0.5336(4) 0.1468(1)
C9 C 0.7618(4) 0.3954(4) 0.0640(1)
C10 C 0.7600(3) 0.2529(3) 0.0288(1)
C11 C 0.7441(3) 0.0623(3) 0.0364(1)
C12 C 0.7433(3) -0.0623(4) 0.0025(1)
C13 C 0.7575(3) 0.0078(4) -0.0387(1)
C14 C 0.7748(4) 0.1949(4) -0.0476(1)
C15 C 0.7771(4) 0.3179(4) -0.0134(1)
H1 H 0.5764(3) 0.6736(4) 0.1134(1)
H2 H 0.4264(3) 0.5221(4) 0.1277(1)
H3 H 0.6330(4) 0.7608(4) 0.1852(1)
H4 H 0.4110(4) 0.7769(4) 0.1749(1)
H5 H 0.3539(4) 0.4916(4) 0.2085(1)
H6 H 0.6018(4) 0.3239(4) 0.2419(1)
H7 H 0.7539(4) 0.4748(4) 0.2284(1)
H8 H 0.5557(4) 0.2323(4) 0.1707(1)
H9 H 0.7776(4) 0.2238(4) 0.1814(1)
H10 H 0.3365(5) 0.6591(5) 0.3095(1)
H11 H 0.4050(5) 0.4627(5) 0.2932(1)
H12 H 0.2175(5) 0.5539(5) 0.2735(1)
H13 H 0.7339(3) 0.0184(3) 0.0646(1)
H14 H 0.7334(3) -0.1905(4) 0.0073(1)
H15 H 0.7847(4) 0.2375(4) -0.0758(1)
H16 H 0.7902(4) 0.4456(4) -0.0185(1)
#END
