
#######################################################################
#
#                 Cambridge Crystallographic Data Centre
#                                CCDC
#
#######################################################################
#
# If this CIF has been generated from an entry in the Cambridge
# Structural Database, then it will include bibliographic, chemical,
# crystal, experimental, refinement or atomic coordinate data resulting
# from the CCDC's data processing and validation procedures.
#
#######################################################################

data_CSD_CIF_EHEVAO
_audit_creation_date 2003-09-29
_audit_creation_method CSD-ConQuest-V1
_database_code_CSD EHEVAO
_database_code_depnum_ccdc_archive 'CCDC 202203'
_chemical_formula_sum 'C14 H8 N6 O4'
_chemical_formula_moiety
;
C14 H8 N6 O4
;
_journal_coden_Cambridge 10
_journal_volume 86
_journal_year 2003
_journal_page_first 1205
_journal_name_full 'Helv.Chim.Acta '
loop_
_publ_author_name
"L.Infantes"
"M.F.Mahon"
"L.Male"
"P.R.Raithby"
"S.J.Teat"
"J.Sauer"
"N.Jagerovic"
"J.Elguero"
"S.Motherwell"
_chemical_name_systematic
;
3,6-bis(3-Nitrophenyl)-1,2,4,5-tetrazine
;
_cell_volume   2008.633
_exptl_crystal_colour 'pink'
_exptl_crystal_density_diffrn 1.608
_exptl_crystal_description 'needle'
_diffrn_ambient_temperature 150
_diffrn_radiation_probe x-ray
_diffrn_source synchrotron
#These two values have been output from a single CSD field.
_refine_ls_R_factor_gt 0.05
_refine_ls_wR_factor_gt 0.05
_symmetry_cell_setting monoclinic
_symmetry_space_group_name_H-M 'P 21/c'
_symmetry_Int_Tables_number 14
loop_
_symmetry_equiv_pos_site_id
_symmetry_equiv_pos_as_xyz
1 x,y,z
2 -x,1/2+y,1/2-z
3 -x,-y,-z
4 x,-1/2-y,-1/2+z
_cell_length_a 7.7749(5)
_cell_length_b 9.9265(7)
_cell_length_c 26.0786(15)
_cell_angle_alpha 90
_cell_angle_beta 93.635(4)
_cell_angle_gamma 90
_cell_formula_units_Z 6
loop_
_atom_type_symbol
_atom_type_radius_bond
C 0.68
H 0.23
N 0.68
O 0.68
loop_
_atom_site_label
_atom_site_type_symbol
_atom_site_fract_x
_atom_site_fract_y
_atom_site_fract_z
C1 C -0.2409(2) 0.67265(19) 0.26277(7)
C2 C -0.3041(2) 0.7943(2) 0.27861(8)
H1 H -0.41630 0.82360 0.26720
C3 C -0.1997(3) 0.8728(2) 0.31171(8)
H2 H -0.24090 0.95680 0.32330
C4 C -0.0351(3) 0.82936(19) 0.32800(8)
H3 H 0.03540 0.88350 0.35080
C5 C 0.0268(2) 0.70591(18) 0.31075(7)
C6 C -0.0777(2) 0.62591(19) 0.27770(7)
H4 H -0.03800 0.54170 0.26580
C7 C 0.2013(2) 0.65773(19) 0.32795(7)
C8 C 0.5024(2) 0.57134(19) 0.35822(7)
C9 C 0.6755(2) 0.52143(18) 0.37600(7)
C10 C 0.7722(2) 0.58980(19) 0.41479(7)
H5 H 0.72600 0.66790 0.42990
C11 C 0.9354(3) 0.5445(2) 0.43146(8)
H6 H 0.99930 0.59120 0.45810
C12 C 1.0052(2) 0.4320(2) 0.40946(8)
H7 H 1.11710 0.40080 0.42040
C13 C 0.9071(2) 0.36609(18) 0.37089(7)
C14 C 0.7428(2) 0.40679(18) 0.35401(7)
H8 H 0.67790 0.35780 0.32820
N1 N -0.3531(2) 0.58637(18) 0.22925(7)
N2 N 0.2947(2) 0.73308(16) 0.36248(6)
N3 N 0.4500(2) 0.68878(16) 0.37777(6)
N4 N 0.2534(2) 0.54062(18) 0.30885(7)
N5 N 0.4088(2) 0.49625(17) 0.32431(7)
N6 N 0.9819(2) 0.24861(16) 0.34627(7)
O1 O -0.49312(19) 0.63183(17) 0.21294(7)
O2 O -0.30412(19) 0.47270(15) 0.21962(6)
O3 O 0.8870(2) 0.17968(16) 0.31799(7)
O4 O 1.13618(19) 0.22638(16) 0.35436(6)
C15 C 0.7183(2) 0.02987(19) 0.48536(8)
C16 C 0.6436(3) -0.02275(19) 0.44031(8)
H9 H 0.66660 -0.11280 0.43050
C17 C 0.5343(3) 0.0583(2) 0.40957(8)
H10 H 0.48190 0.02390 0.37840
C18 C 0.5018(3) 0.18917(19) 0.42438(8)
H11 H 0.42680 0.24440 0.40320
C19 C 0.5783(2) 0.24092(18) 0.47024(7)
C20 C 0.6895(2) 0.16053(18) 0.50130(7)
H12 H 0.74360 0.19440 0.53230
C21 C 0.5374(2) 0.37900(18) 0.48609(7)
N7 N 0.8303(2) -0.05783(16) 0.51867(7)
N8 N 0.3999(2) 0.43953(15) 0.46227(6)
N9 N 0.6392(2) 0.43701(15) 0.52368(6)
O5 O 0.8405(2) -0.17719(14) 0.50701(6)
O6 O 0.90771(19) -0.00736(15) 0.55628(6)
N9B N 0.3608(2) 0.56299(15) 0.47632(6)
C21B C 0.4626(2) 0.62100(18) 0.51391(7)
C19B C 0.4217(2) 0.75908(18) 0.52976(7)
C18B C 0.4982(3) 0.81083(19) 0.57562(8)
C17B C 0.4657(3) 0.9417(2) 0.59043(8)
C16B C 0.3564(3) 1.02275(19) 0.55969(8)
C15B C 0.2817(2) 0.97013(19) 0.51464(8)
C20B C 0.3105(2) 0.83947(18) 0.49870(7)
H12B H 0.25640 0.80560 0.46770
N7B N 0.1697(2) 1.05783(16) 0.48133(7)
O5B O 0.1595(2) 1.17719(14) 0.49299(6)
O6B O 0.09229(19) 1.00736(15) 0.44372(6)
H9B H 0.33340 1.11280 0.56950
H10B H 0.51810 0.97610 0.62160
H11B H 0.57320 0.75560 0.59680
N8B N 0.6001(2) 0.56047(15) 0.53773(6)
#END
