
#######################################################################
#
#                 Cambridge Crystallographic Data Centre
#                                CCDC
#
#######################################################################
#
# If this CIF has been generated from an entry in the Cambridge
# Structural Database, then it will include bibliographic, chemical,
# crystal, experimental, refinement or atomic coordinate data resulting
# from the CCDC's data processing and validation procedures.
#
#######################################################################

data_CSD_CIF_EHIMUF
_audit_creation_date 2016-03-18
_audit_creation_method CSD-ConQuest-V1
_database_code_CSD EHIMUF
_database_code_depnum_ccdc_archive 'CCDC 1407223'
_chemical_formula_sum 'C7 H4 N2 O7'
_chemical_formula_moiety
;
C7 H4 N2 O7
;
_journal_coden_Cambridge 1220
_journal_volume 22
_journal_year 2016
_journal_page_first 2582
_journal_name_full 'Chem.-Eur.J. '
loop_
_publ_author_name
"N.-D.H.Gamage"
"B.Stiasny"
"J.Stierstorfer"
"P.D.Martin"
"T.M.Klapotke"
"C.H.Winter"
_chemical_name_systematic
;
3,5-Dinitrobenzenecarboperoxoic acid
;
_cell_volume   1737.632
_exptl_crystal_colour 'colorless'
_exptl_crystal_density_diffrn 1.748
_exptl_crystal_description 'columnar'
_diffrn_ambient_temperature 100
#These two values have been output from a single CSD field.
_refine_ls_R_factor_gt 0.0362
_refine_ls_wR_factor_gt 0.0362
_symmetry_cell_setting orthorhombic
_symmetry_space_group_name_H-M 'P 21 21 21'
_symmetry_Int_Tables_number 19
loop_
_symmetry_equiv_pos_site_id
_symmetry_equiv_pos_as_xyz
1 x,y,z
2 1/2+x,1/2-y,-z
3 -x,1/2+y,1/2-z
4 1/2-x,-y,1/2+z
_cell_length_a 6.4707(7)
_cell_length_b 10.8839(10)
_cell_length_c 24.673(2)
_cell_angle_alpha 90
_cell_angle_beta 90
_cell_angle_gamma 90
_cell_formula_units_Z 8
loop_
_atom_type_symbol
_atom_type_radius_bond
C 0.68
H 0.23
N 0.68
O 0.68
loop_
_atom_site_label
_atom_site_type_symbol
_atom_site_fract_x
_atom_site_fract_y
_atom_site_fract_z
O1 O -0.0016(4) 1.3664(2) 0.9805(1)
H1 H -0.075(7) 1.400(4) 0.953(2)
O2 O -0.0497(4) 1.23858(19) 0.97046(9)
O3 O 0.4672(4) 0.8390(2) 0.84961(10)
O4 O 0.2342(4) 1.2369(2) 0.91715(9)
O5 O -0.4656(4) 0.8779(2) 0.98978(10)
O6 O -0.3773(4) 0.7069(2) 0.95204(9)
O7 O 0.2862(4) 0.6751(2) 0.86420(9)
N1 N 0.3154(4) 0.7850(3) 0.8677(1)
N2 N -0.3463(4) 0.8144(2) 0.96279(10)
C1 C 0.0920(5) 1.1856(3) 0.93832(12)
C2 C 0.0496(5) 1.0516(3) 0.93222(12)
C3 C 0.1966(5) 0.9827(3) 0.90429(12)
H2 H 0.31910 1.01990 0.89090
C4 C 0.1598(5) 0.8591(3) 0.89655(12)
C5 C -0.1296(5) 0.9973(3) 0.95156(12)
H3 H -0.23060 1.04410 0.97040
C6 C -0.1568(5) 0.8732(3) 0.94265(11)
C7 C -0.0157(5) 0.8003(3) 0.91545(12)
H4 H -0.03800 0.71490 0.91000
O8 O 1.1393(4) 0.7821(2) 0.75555(10)
O9 O 0.5482(4) 0.4216(2) 0.87652(10)
O10 O 0.5712(4) 0.3746(3) 0.93167(10)
H5 H 0.442(9) 0.330(5) 0.935(2)
O11 O 0.8616(3) 0.5028(2) 0.89385(8)
O12 O 0.1896(4) 0.4973(2) 0.70958(10)
O13 O 0.3162(4) 0.6248(3) 0.65166(10)
O14 O 0.9450(5) 0.8411(3) 0.68928(10)
N3 N 0.9795(4) 0.7776(3) 0.72923(11)
N4 N 0.3222(5) 0.5691(3) 0.69462(11)
C8 C 0.8196(5) 0.6895(3) 0.74575(12)
C9 C 0.8443(5) 0.6266(3) 0.79416(12)
H6 H 0.96500 0.63750 0.81550
C10 C 0.6892(5) 0.5478(3) 0.81060(12)
C11 C 0.7134(5) 0.4890(3) 0.86483(12)
C12 C 0.5164(5) 0.5277(3) 0.77822(12)
H7 H 0.41040 0.47260 0.78920
C13 C 0.5038(5) 0.5900(3) 0.72979(12)
C14 C 0.6502(5) 0.6732(3) 0.71241(13)
H8 H 0.63540 0.71700 0.67930
#END
