
#######################################################################
#
#                 Cambridge Crystallographic Data Centre
#                                CCDC
#
#######################################################################
#
# If this CIF has been generated from an entry in the Cambridge
# Structural Database, then it will include bibliographic, chemical,
# crystal, experimental, refinement or atomic coordinate data resulting
# from the CCDC's data processing and validation procedures.
#
#######################################################################

data_CSD_CIF_EHOMOF
_audit_creation_date 2016-03-21
_audit_creation_method CSD-ConQuest-V1
_database_code_CSD EHOMOF
_database_code_depnum_ccdc_archive 'CCDC 1449860'
_chemical_formula_sum 'C25 H22 N2 O4'
_chemical_formula_moiety
;
C25 H22 N2 O4
;
_journal_coden_Cambridge 182
_journal_volume 52
_journal_year 2016
_journal_page_first 5144
_journal_name_full 'Chem.Commun. '
loop_
_publ_author_name
"Nan-Nan Wang"
"Wen-Juan Hao"
"Tian-Shu Zhang"
"Guigen Li"
"Ya-Nan Wu"
"Shu-Jiang Tu"
"Bo Jiang"
_chemical_name_systematic
;
2-((1-(4-methylphenyl)-3-(methyl(phenyl)amino)-1-oxopropan-2-yl)oxy)-1H-isoind
ole-1,3(2H)-dione
;
_cell_volume   2146.668
_exptl_crystal_colour 'yellow'
_exptl_crystal_density_diffrn 1.282
_exptl_crystal_description 'block'
_diffrn_ambient_temperature 298
#These two values have been output from a single CSD field.
_refine_ls_R_factor_gt 0.0468
_refine_ls_wR_factor_gt 0.0468
_symmetry_cell_setting monoclinic
_symmetry_space_group_name_H-M 'P 21/c'
_symmetry_Int_Tables_number 14
loop_
_symmetry_equiv_pos_site_id
_symmetry_equiv_pos_as_xyz
1 x,y,z
2 -x,1/2+y,1/2-z
3 -x,-y,-z
4 x,-1/2-y,-1/2+z
_cell_length_a 11.398(6)
_cell_length_b 11.272(5)
_cell_length_c 16.887(8)
_cell_angle_alpha 90
_cell_angle_beta 98.340(7)
_cell_angle_gamma 90
_cell_formula_units_Z 4
loop_
_atom_type_symbol
_atom_type_radius_bond
C 0.68
H 0.23
N 0.68
O 0.68
loop_
_atom_site_label
_atom_site_type_symbol
_atom_site_fract_x
_atom_site_fract_y
_atom_site_fract_z
N1 N 0.33108(16) 0.65408(19) 0.16565(12)
N2 N 0.32897(19) 0.83138(19) 0.37312(12)
O1 O 0.37778(13) 0.75089(14) 0.20933(9)
O2 O 0.14563(15) 0.65874(17) 0.20413(11)
O3 O 0.49292(15) 0.61437(17) 0.10394(10)
O4 O 0.59090(16) 0.57234(17) 0.30989(12)
C1 C 0.2142(2) 0.6178(2) 0.16429(15)
C2 C 0.3914(2) 0.5959(2) 0.11162(14)
C3 C 0.3044(2) 0.5102(2) 0.07234(14)
C4 C 0.2009(2) 0.5213(2) 0.10450(14)
C5 C 0.1066(3) 0.4500(3) 0.08010(18)
H1 H 0.03700 0.45630 0.10250
C6 C 0.1173(3) 0.3679(3) 0.0211(2)
H2 H 0.05350 0.31890 0.00290
C7 C 0.2206(3) 0.3575(3) -0.01120(17)
H3 H 0.22570 0.30110 -0.05080
C8 C 0.3166(2) 0.4289(3) 0.01400(15)
H4 H 0.38670 0.42220 -0.00770
C9 C 0.4394(2) 0.8196(2) 0.34154(15)
H5 H 0.50350 0.81150 0.38570
H6 H 0.45340 0.89150 0.31270
C10 C 0.4416(2) 0.7140(2) 0.28577(14)
H7 H 0.39720 0.64910 0.30620
C11 C 0.5671(2) 0.6701(2) 0.28158(14)
C12 C 0.6584(2) 0.7432(2) 0.25140(13)
C13 C 0.7750(2) 0.7061(2) 0.26778(15)
H8 H 0.79330 0.63810 0.29830
C14 C 0.8642(2) 0.7680(3) 0.23983(16)
H9 H 0.94200 0.74150 0.25210
C15 C 0.8406(2) 0.8688(3) 0.19388(16)
C16 C 0.7244(2) 0.9052(2) 0.17752(14)
H10 H 0.70640 0.97280 0.14650
C17 C 0.6339(2) 0.8445(2) 0.20571(14)
H11 H 0.55620 0.87170 0.19400
C18 C 0.9385(2) 0.9369(3) 0.16363(18)
H12 H 0.96150 1.00240 0.19880
H13 H 0.91100 0.96610 0.11080
H14 H 1.00530 0.88560 0.16200
C19 C 0.2994(2) 0.7489(2) 0.42758(15)
C20 C 0.3834(3) 0.6741(3) 0.46938(16)
H15 H 0.46110 0.67680 0.45860
C21 C 0.3550(4) 0.5969(3) 0.52584(18)
H16 H 0.41360 0.54870 0.55320
C22 C 0.2422(4) 0.5894(3) 0.5427(2)
H17 H 0.22320 0.53720 0.58150
C23 C 0.1575(3) 0.6604(3) 0.5012(2)
H18 H 0.07960 0.65500 0.51140
C24 C 0.1848(3) 0.7399(3) 0.44456(17)
H19 H 0.12570 0.78790 0.41760
C25 C 0.2374(2) 0.9020(2) 0.32712(16)
H20 H 0.18130 0.85060 0.29610
H21 H 0.27250 0.95370 0.29190
H22 H 0.19770 0.94850 0.36280
#END
