
#######################################################################
#
#                 Cambridge Crystallographic Data Centre
#                                CCDC
#
#######################################################################
#
# If this CIF has been generated from an entry in the Cambridge
# Structural Database, then it will include bibliographic, chemical,
# crystal, experimental, refinement or atomic coordinate data resulting
# from the CCDC's data processing and validation procedures.
#
#######################################################################

data_CSD_CIF_EHOMIY
_audit_creation_date 2011-04-06
_audit_creation_method CSD-ConQuest-V1
_database_code_CSD EHOMIY
_database_code_depnum_ccdc_archive 'CCDC 787014'
_database_code_depnum_ccdc_journal 1267/3176
_chemical_formula_sum 'C18 H18 N4 O6'
_chemical_formula_moiety
;
C18 H18 N4 O6
;
_journal_coden_Cambridge 1267
_journal_volume 225
_journal_year 2010
_journal_page_first 685
_journal_name_full 'Z.Kristallogr.-New Cryst.Struct. '
loop_
_publ_author_name
"Lan-Qin Chai"
"Yu-Li Zhang"
"Xiao-Qin Ding"
_chemical_name_systematic
;
2,2'-dinitro-2,2'-[(1,4-butylene)dioxybis(nitrilomethylidyne)]dibenzene
;
_chemical_name_common
;
N,N'-(Butane-1,4-diylbis(oxy))bis(1-(2-nitrophenyl)methanimine)
;
_cell_volume    895.763
_exptl_crystal_colour 'colorless'
_exptl_crystal_density_diffrn 1.432
_exptl_crystal_description 'prism'
_diffrn_ambient_temperature 113
#These two values have been output from a single CSD field.
_refine_ls_R_factor_gt 0.0392
_refine_ls_wR_factor_gt 0.0392
_symmetry_cell_setting monoclinic
_symmetry_space_group_name_H-M 'P 21/c'
_symmetry_Int_Tables_number 14
loop_
_symmetry_equiv_pos_site_id
_symmetry_equiv_pos_as_xyz
1 x,y,z
2 -x,1/2+y,1/2-z
3 -x,-y,-z
4 x,-1/2-y,-1/2+z
_cell_length_a 4.668(4)
_cell_length_b 15.112(13)
_cell_length_c 12.756(11)
_cell_angle_alpha 90
_cell_angle_beta 95.459(10)
_cell_angle_gamma 90
_cell_formula_units_Z 2
loop_
_atom_type_symbol
_atom_type_radius_bond
C 0.68
H 0.23
N 0.68
O 0.68
loop_
_atom_site_label
_atom_site_type_symbol
_atom_site_fract_x
_atom_site_fract_y
_atom_site_fract_z
O1 O -0.3506(3) 0.23138(7) 0.33471(7)
O2 O -0.5600(2) 0.19776(6) 0.47354(8)
O3 O -0.0096(2) 0.45771(6) 0.19376(7)
N1 N -0.3737(3) 0.23670(8) 0.42948(9)
N2 N 0.1045(3) 0.42424(8) 0.29079(8)
C1 C -0.1642(3) 0.29040(9) 0.49400(11)
C2 C -0.0229(3) 0.36007(9) 0.44858(10)
C3 C 0.1861(3) 0.40437(9) 0.51424(11)
H1 H 0.28520 0.45140 0.48770
C4 C 0.2486(4) 0.3793(1) 0.61873(11)
H2 H 0.39180 0.40890 0.66070
C5 C 0.1010(4) 0.31107(11) 0.66092(11)
H3 H 0.14180 0.29550 0.73130
C6 C -0.1076(3) 0.26598(10) 0.59837(11)
H4 H -0.20870 0.21980 0.62600
C7 C -0.0964(3) 0.39168(8) 0.34017(10)
H5 H -0.28390 0.38800 0.30850
C8 C 0.2231(3) 0.48554(10) 0.1353(1)
H6 H 0.33640 0.43480 0.11760
H7 H 0.34770 0.52630 0.17690
C9 C 0.0929(3) 0.53037(9) 0.03637(9)
H8 H 0.24680 0.55380 -0.00160
H9 H -0.02300 0.57990 0.05580
O1B O 0.3506(3) 0.76862(7) -0.33471(7)
O2B O 0.5600(2) 0.80224(6) -0.47354(8)
O3B O 0.0096(2) 0.54229(6) -0.19376(7)
N1B N 0.3737(3) 0.76330(8) -0.42948(9)
N2B N -0.1045(3) 0.57576(8) -0.29079(8)
C1B C 0.1642(3) 0.70960(9) -0.49400(11)
C2B C 0.0229(3) 0.63993(9) -0.44858(10)
C3B C -0.1861(3) 0.59563(9) -0.51424(11)
H1B H -0.28520 0.54860 -0.48770
C4B C -0.2486(4) 0.6207(1) -0.61873(11)
H2B H -0.39180 0.59110 -0.66070
C5B C -0.1010(4) 0.68893(11) -0.66092(11)
H3B H -0.14180 0.70450 -0.73130
C6B C 0.1076(3) 0.73402(10) -0.59837(11)
H4B H 0.20870 0.78020 -0.62600
C7B C 0.0964(3) 0.60832(8) -0.34017(10)
H5B H 0.28390 0.61200 -0.30850
C8B C -0.2231(3) 0.51446(10) -0.1353(1)
H6B H -0.33640 0.56520 -0.11760
H7B H -0.34770 0.47370 -0.17690
C9B C -0.0929(3) 0.46963(9) -0.03637(9)
H8B H -0.24680 0.44620 0.00160
H9B H 0.02300 0.42010 -0.05580
#END
