
#######################################################################
#
#                 Cambridge Crystallographic Data Centre
#                                CCDC
#
#######################################################################
#
# If this CIF has been generated from an entry in the Cambridge
# Structural Database, then it will include bibliographic, chemical,
# crystal, experimental, refinement or atomic coordinate data resulting
# from the CCDC's data processing and validation procedures.
#
#######################################################################

data_CSD_CIF_EHOYAD
_audit_creation_date 2016-03-21
_audit_creation_method CSD-ConQuest-V1
_database_code_CSD EHOYAD
_database_code_depnum_ccdc_archive 'CCDC 1405238'
_chemical_formula_sum 'C16 H19 N1 O5'
_chemical_formula_moiety
;
C16 H19 N1 O5
;
_journal_coden_Cambridge 35
_journal_volume 81
_journal_year 2016
_journal_page_first 2612
_journal_name_full 'J.Org.Chem. '
loop_
_publ_author_name
"Hyeonjeong Choe"
"Thuy Trang Pham"
"Joo Yun Lee"
"M.Latif"
"H.Park"
"Young Kee Kang"
"Jongkook Lee"
_chemical_name_systematic
;
3,5-dihydroxy-11-methyl-10,16-dioxa-17-azatricyclo[13.2.1.0^2,7^]octadeca-1(17
),2,4,6-tetraen-9-one
;
_cell_volume    727.877
_exptl_crystal_colour 'silver'
_exptl_crystal_density_diffrn 1.393
_exptl_crystal_description 'block'
_exptl_crystal_preparation 'ethyl acetate'
_diffrn_ambient_temperature 100
#These two values have been output from a single CSD field.
_refine_ls_R_factor_gt 0.0341
_refine_ls_wR_factor_gt 0.0341
_symmetry_cell_setting monoclinic
_symmetry_space_group_name_H-M 'P 21'
_symmetry_Int_Tables_number 4
loop_
_symmetry_equiv_pos_site_id
_symmetry_equiv_pos_as_xyz
1 x,y,z
2 -x,1/2+y,-z
_cell_length_a 7.2483(2)
_cell_length_b 7.3559(2)
_cell_length_c 13.6601(3)
_cell_angle_alpha 90
_cell_angle_beta 92.012(2)
_cell_angle_gamma 90
_cell_formula_units_Z 2
loop_
_atom_type_symbol
_atom_type_radius_bond
C 0.68
H 0.23
N 0.68
O 0.68
loop_
_atom_site_label
_atom_site_type_symbol
_atom_site_fract_x
_atom_site_fract_y
_atom_site_fract_z
C1 C 0.10869(19) 0.31021(18) 0.70048(10)
C2 C 0.00244(18) 0.19286(19) 0.62766(10)
H1 H -0.10970 0.25880 0.60420
H2 H -0.03760 0.08060 0.66080
C3 C 0.11489(19) 0.14182(17) 0.54077(11)
C4 C 0.04750(19) 0.19124(18) 0.44867(10)
H3 H -0.07060 0.24660 0.44160
C5 C 0.15091(19) 0.16072(18) 0.36603(11)
C6 C 0.32472(19) 0.08173(19) 0.37612(11)
H4 H 0.39650 0.06210 0.32020
C7 C 0.39276(18) 0.03173(18) 0.46865(11)
C8 C 0.28758(18) 0.05494(17) 0.55245(10)
C9 C 0.36182(18) -0.00218(17) 0.64984(10)
C10 C 0.55442(19) 0.03162(19) 0.69031(10)
H5 H 0.58500 0.16280 0.68980
H6 H 0.64690 -0.03580 0.65290
C11 C 0.54428(19) -0.0409(2) 0.79507(10)
H7 H 0.63290 -0.14440 0.80320
C12 C 0.5859(2) 0.0972(2) 0.87591(11)
H8 H 0.71820 0.13010 0.87420
H9 H 0.56620 0.03790 0.93970
C13 C 0.4720(2) 0.2727(2) 0.87131(11)
H10 H 0.45500 0.30980 0.80190
H11 H 0.54270 0.37000 0.90590
C14 C 0.2811(2) 0.2571(2) 0.91644(11)
H12 H 0.23530 0.13120 0.90730
H13 H 0.29470 0.27990 0.98780
C15 C 0.13786(19) 0.3886(2) 0.87249(10)
H14 H 0.20010 0.50060 0.84850
C16 C -0.0132(2) 0.4398(2) 0.94134(11)
H15 H -0.09930 0.52420 0.90820
H16 H 0.04180 0.49820 0.99990
H17 H -0.07970 0.33010 0.96040
O1 O 0.04276(14) 0.29359(14) 0.78976(7)
O2 O 0.23685(13) 0.40921(14) 0.68129(7)
O3 O 0.08737(14) 0.21143(13) 0.27473(7)
H18 H -0.01850 0.25690 0.27840
O4 O 0.56353(14) -0.04212(14) 0.48285(8)
H19 H 0.61480 -0.05070 0.42880
O5 O 0.35547(13) -0.11237(14) 0.80114(7)
N1 N 0.25823(16) -0.08272(16) 0.71100(9)
#END
