
#######################################################################
#
#                 Cambridge Crystallographic Data Centre
#                                CCDC
#
#######################################################################
#
# If this CIF has been generated from an entry in the Cambridge
# Structural Database, then it will include bibliographic, chemical,
# crystal, experimental, refinement or atomic coordinate data resulting
# from the CCDC's data processing and validation procedures.
#
#######################################################################

data_CSD_CIF_EHUVOU
_audit_creation_date 2016-03-21
_audit_creation_method CSD-ConQuest-V1
_database_code_CSD EHUVOU
_database_code_depnum_ccdc_archive 'CCDC 1437384'
_chemical_formula_sum 'C19 H20 N2 O3'
_chemical_formula_moiety
;
C19 H20 N2 O3
;
_journal_coden_Cambridge 4
_journal_volume 138
_journal_year 2016
_journal_page_first 3282
_journal_name_full 'J.Am.Chem.Soc. '
loop_
_publ_author_name
"J.Izquierdo"
"A.Landa"
"I.Bastida"
"R.Lopez"
"M.Oiarbide"
"C.Palomo"
_chemical_name_systematic
;
(R)-2-(1-Cyano-5-hydroxy-5-methyl-4-oxo-1-phenylhexyl)pyridine 1-oxide
;
_cell_volume    837.313
_exptl_crystal_colour 'colorless'
_exptl_crystal_density_diffrn 1.287
_exptl_special_details
;
Absolute configuration

;
_exptl_crystal_description 'plate'
_diffrn_ambient_temperature 100
#These two values have been output from a single CSD field.
_refine_ls_R_factor_gt 0.0368
_refine_ls_wR_factor_gt 0.0368
_symmetry_cell_setting monoclinic
_symmetry_space_group_name_H-M 'P 21'
_symmetry_Int_Tables_number 4
loop_
_symmetry_equiv_pos_site_id
_symmetry_equiv_pos_as_xyz
1 x,y,z
2 -x,1/2+y,-z
_cell_length_a 6.47304(18)
_cell_length_b 15.3437(3)
_cell_length_c 8.7824(2)
_cell_angle_alpha 90
_cell_angle_beta 106.276(3)
_cell_angle_gamma 90
_cell_formula_units_Z 2
loop_
_atom_type_symbol
_atom_type_radius_bond
C 0.68
H 0.23
N 0.68
O 0.68
loop_
_atom_site_label
_atom_site_type_symbol
_atom_site_fract_x
_atom_site_fract_y
_atom_site_fract_z
O1 O 1.2370(3) 0.57477(12) 0.6760(2)
O2 O 0.4573(3) 0.41373(12) 0.0477(2)
O3 O 0.6053(4) 0.24097(12) 0.3215(2)
N1 N 1.0658(3) 0.54869(13) 0.7151(3)
N2 N 1.2022(4) 0.48246(17) 0.3512(3)
C1 C 1.0801(4) 0.53115(16) 0.8696(3)
H1 H 1.21390 0.53870 0.94790
C2 C 0.9047(4) 0.50280(18) 0.9144(3)
H2 H 0.91860 0.48970 1.02250
C3 C 0.7071(4) 0.49327(16) 0.8019(3)
H3 H 0.58310 0.47590 0.83180
C4 C 0.6962(4) 0.50991(16) 0.6439(3)
H4 H 0.56250 0.50340 0.56490
C5 C 0.8755(4) 0.53568(15) 0.5995(3)
C6 C 0.8787(4) 0.55453(15) 0.4300(3)
C7 C 0.6869(4) 0.51171(16) 0.3052(3)
H5 H 0.55090 0.53510 0.31950
H6 H 0.69350 0.52870 0.19790
C8 C 0.6816(4) 0.41208(16) 0.3144(3)
H7 H 0.82930 0.38920 0.33150
H8 H 0.63130 0.39480 0.40660
C9 C 0.5364(4) 0.37171(16) 0.1664(3)
C10 C 0.4889(4) 0.27348(17) 0.1698(3)
C11 C 0.2481(5) 0.2631(2) 0.1488(4)
H9 H 0.21300 0.20100 0.15070
H10 H 0.16760 0.28840 0.04700
H11 H 0.20910 0.29320 0.23520
C12 C 0.5572(6) 0.22906(19) 0.0363(3)
H12 H 0.71200 0.23730 0.05280
H13 H 0.47820 0.25470 -0.06560
H14 H 0.52510 0.16660 0.03590
C13 C 0.8694(5) 0.65375(16) 0.4012(3)
C14 C 0.7041(5) 0.70071(19) 0.4364(3)
H15 H 0.60590 0.67190 0.48210
C15 C 0.6827(6) 0.7893(2) 0.4048(4)
H16 H 0.57050 0.82110 0.42960
C16 C 0.8234(6) 0.83118(19) 0.3377(4)
H17 H 0.80690 0.89170 0.31490
C17 C 0.9880(6) 0.7857(2) 0.3035(4)
H18 H 1.08550 0.81500 0.25790
C18 C 1.0122(5) 0.6968(2) 0.3354(3)
H19 H 1.12650 0.66560 0.31210
C19 C 1.0730(4) 0.51647(17) 0.3977(3)
H20 H 0.672(5) 0.1980(16) 0.308(4)
#END
