
#######################################################################
#
#                 Cambridge Crystallographic Data Centre
#                                CCDC
#
#######################################################################
#
# If this CIF has been generated from an entry in the Cambridge
# Structural Database, then it will include bibliographic, chemical,
# crystal, experimental, refinement or atomic coordinate data resulting
# from the CCDC's data processing and validation procedures.
#
#######################################################################

data_CSD_CIF_EHUZAJ
_audit_creation_date 2011-03-31
_audit_creation_method CSD-ConQuest-V1
_database_code_CSD EHUZAJ
_database_code_depnum_ccdc_archive 'CCDC 808249'
_chemical_formula_sum 'C22 H29 N1 O4'
_chemical_formula_moiety
;
C22 H29 N1 O4
;
_journal_coden_Cambridge 469
_journal_volume 73
_journal_year 2010
_journal_page_first 1250
_journal_name_full 'J.Nat.Prod. '
loop_
_publ_author_name
"M.Kumarihamy"
"F.R.Fronczek"
"D.Ferreira"
"M.Jacob"
"S.I.Khan"
"N.P.D.Nanayakkara"
_chemical_name_systematic
;
1,4-dihydroxy-3-((2R,3R,5S,6R)-6-((R)-1-methylpropyl)-3,5-dimethyltetrahydro-2
H-pyran-2-yl)-5-phenylpyridin-2(1H)-one
;
_chemical_melting_point 493
_cell_volume   4066.528
_exptl_crystal_colour 'colorless'
_exptl_crystal_density_diffrn 1.213
_exptl_special_details
;
Absolute configuration

;
_diffrn_ambient_temperature 90
#These two values have been output from a single CSD field.
_refine_ls_R_factor_gt 0.038
_refine_ls_wR_factor_gt 0.038
_symmetry_cell_setting monoclinic
_symmetry_space_group_name_H-M 'P 21'
_symmetry_Int_Tables_number 4
loop_
_symmetry_equiv_pos_site_id
_symmetry_equiv_pos_as_xyz
1 x,y,z
2 -x,1/2+y,-z
_cell_length_a 11.1427(9)
_cell_length_b 13.0004(10)
_cell_length_c 28.073(2)
_cell_angle_alpha 90
_cell_angle_beta 90.430(5)
_cell_angle_gamma 90
_cell_formula_units_Z 8
loop_
_atom_type_symbol
_atom_type_radius_bond
C 0.68
H 0.23
N 0.68
O 0.68
loop_
_atom_site_label
_atom_site_type_symbol
_atom_site_fract_x
_atom_site_fract_y
_atom_site_fract_z
O1 O 0.53378(13) 1.23282(11) 0.42970(5)
H1 H 0.539(3) 1.233(2) 0.4618(12)
O2 O 0.49789(12) 1.03706(11) 0.45515(5)
O3 O 0.12259(12) 1.04079(11) 0.37391(5)
H2 H 0.138(2) 0.980(2) 0.3773(10)
O4 O 0.23268(11) 0.87075(9) 0.39203(4)
N1 N 0.42789(15) 1.18242(13) 0.41810(5)
C1 C 0.41688(16) 1.07999(15) 0.43169(6)
C2 C 0.30760(16) 1.03255(14) 0.41662(6)
C3 C 0.22331(17) 1.08574(14) 0.39001(6)
C4 C 0.23834(18) 1.19341(14) 0.37949(6)
C5 C 0.34304(18) 1.23665(15) 0.39420(6)
H3 H 0.35720 1.30720 0.38750
C6 C 0.14105(18) 1.25667(14) 0.35766(7)
C7 C 0.1075(2) 1.34880(16) 0.37926(7)
H4 H 0.14900 1.37170 0.40700
C8 C 0.0141(2) 1.40752(16) 0.36066(8)
H5 H -0.00750 1.47020 0.37580
C9 C -0.0480(2) 1.37572(16) 0.32037(8)
H6 H -0.11240 1.41560 0.30790
C10 C -0.01450(19) 1.28426(16) 0.29839(7)
H7 H -0.05610 1.26170 0.27060
C11 C 0.07939(18) 1.22582(14) 0.31675(7)
H8 H 0.10190 1.16390 0.30120
C12 C 0.28613(16) 0.92284(14) 0.43252(6)
H9 H 0.36490 0.88990 0.44040
C13 C 0.20343(16) 0.91651(14) 0.47621(6)
H10 H 0.13080 0.95960 0.46980
C14 C 0.16261(17) 0.80538(15) 0.48422(6)
H11 H 0.23170 0.76430 0.49580
H12 H 0.10060 0.80440 0.50930
C15 C 0.11157(17) 0.75559(14) 0.43908(7)
H13 H 0.04000 0.79620 0.42850
C16 C 0.20740(17) 0.76325(14) 0.40053(6)
H14 H 0.28230 0.73040 0.41310
C17 C 0.26639(18) 0.95839(16) 0.52074(7)
H15 H 0.21270 0.95240 0.54810
H16 H 0.28710 1.03090 0.51580
H17 H 0.33970 0.91880 0.52690
C18 C 0.0716(2) 0.64504(16) 0.44837(7)
H18 H 0.02740 0.61910 0.42060
H19 H 0.01960 0.64330 0.47640
H20 H 0.14230 0.60180 0.45420
C19 C 0.17882(18) 0.71509(14) 0.35206(7)
H21 H 0.16410 0.64010 0.35740
C20 C 0.28863(19) 0.72431(16) 0.31972(7)
H22 H 0.30530 0.79710 0.31360
H23 H 0.27240 0.68900 0.28950
H24 H 0.35830 0.69270 0.33540
C21 C 0.06482(19) 0.75995(16) 0.32877(7)
H25 H -0.00150 0.75680 0.35200
H26 H 0.07910 0.83330 0.32120
C22 C 0.0260(2) 0.70437(18) 0.28336(8)
H27 H 0.08590 0.71560 0.25850
H28 H -0.05180 0.73130 0.27260
H29 H 0.01880 0.63050 0.28980
O5 O -0.09248(13) 0.98366(12) 0.06604(5)
H30 H -0.063(3) 0.988(2) 0.0344(12)
O6 O -0.02807(12) 0.79013(11) 0.04510(5)
O7 O 0.25880(12) 0.79653(11) 0.17096(5)
H31 H 0.245(3) 0.731(2) 0.1658(10)
O8 O 0.17334(12) 0.62442(10) 0.13864(4)
N2 N 0.00108(14) 0.93508(13) 0.08991(6)
C23 C 0.02653(16) 0.83374(15) 0.07836(6)
C24 C 0.11776(16) 0.78683(15) 0.10696(6)
C25 C 0.17314(16) 0.83995(15) 0.14324(6)
C26 C 0.14463(17) 0.94559(15) 0.15274(6)
C27 C 0.05708(18) 0.98838(15) 0.12477(6)
H32 H 0.03490 1.05800 0.13000
C28 C 0.20908(17) 1.00852(15) 0.18883(7)
C29 C 0.2437(2) 1.10944(15) 0.17776(7)
H33 H 0.22570 1.13680 0.14720
C30 C 0.3040(2) 1.16971(16) 0.21104(8)
H34 H 0.32710 1.23780 0.20300
C31 C 0.33041(19) 1.13129(16) 0.25565(7)
H35 H 0.37180 1.17260 0.27830
C32 C 0.29610(19) 1.03172(16) 0.26729(7)
H36 H 0.31400 1.00510 0.29800
C33 C 0.23590(17) 0.97097(15) 0.23424(7)
H37 H 0.21270 0.90310 0.24260
C34 C 0.15317(16) 0.67760(14) 0.09424(6)
H38 H 0.08540 0.64390 0.07670
C35 C 0.26653(16) 0.67394(15) 0.06343(6)
H39 H 0.33090 0.71450 0.07990
C36 C 0.30969(17) 0.56247(15) 0.05868(7)
H40 H 0.25210 0.52390 0.03840
H41 H 0.38840 0.56190 0.04250
C37 C 0.32214(17) 0.50785(15) 0.10679(7)
H42 H 0.38490 0.54390 0.12620
C38 C 0.20196(17) 0.51671(14) 0.13226(6)
H43 H 0.13910 0.48620 0.11090
C39 C 0.24467(19) 0.72114(17) 0.01449(7)
H44 H 0.31870 0.71790 -0.00410
H45 H 0.22010 0.79310 0.01810
H46 H 0.18110 0.68280 -0.00210
C40 C 0.3600(2) 0.39588(16) 0.09997(8)
H47 H 0.29360 0.35720 0.08550
H48 H 0.38060 0.36570 0.13100
H49 H 0.43000 0.39300 0.07910
C41 C 0.19094(19) 0.46553(15) 0.18106(7)
H50 H 0.20940 0.39090 0.17670
C42 C 0.0610(2) 0.47277(17) 0.19779(7)
H51 H 0.05180 0.43350 0.22730
H52 H 0.00750 0.44450 0.17320
H53 H 0.04040 0.54500 0.20360
C43 C 0.2813(2) 0.50769(17) 0.21748(7)
H54 H 0.36300 0.50130 0.20420
H55 H 0.26510 0.58180 0.22230
C44 C 0.2788(2) 0.45389(17) 0.26595(8)
H56 H 0.20120 0.46640 0.28110
H57 H 0.34330 0.48110 0.28620
H58 H 0.29020 0.37980 0.26150
O9 O 0.38144(12) 0.56168(11) 0.46737(5)
H59 H 0.422(3) 0.559(2) 0.4960(11)
O10 O 0.48407(11) 0.74638(10) 0.47935(4)
O11 O 0.71927(13) 0.68976(11) 0.34105(5)
H60 H 0.723(2) 0.757(2) 0.346(1)
O12 O 0.68155(12) 0.87303(9) 0.37306(4)
N3 N 0.47134(14) 0.59617(12) 0.43733(5)
C45 C 0.51852(16) 0.69338(14) 0.44504(6)
C46 C 0.60671(16) 0.72376(14) 0.41122(6)
C47 C 0.63697(16) 0.66117(14) 0.37350(6)
C48 C 0.58366(17) 0.56147(14) 0.36756(6)
C49 C 0.50134(17) 0.53384(14) 0.40111(6)
H61 H 0.46400 0.46830 0.39870
C50 C 0.61102(17) 0.48889(15) 0.32807(7)
C51 C 0.61642(19) 0.38332(15) 0.33740(7)
H62 H 0.61040 0.35940 0.36930
C52 C 0.6304(2) 0.31324(17) 0.30072(9)
H63 H 0.63240 0.24170 0.30760
C53 C 0.6414(2) 0.34637(18) 0.25426(9)
H64 H 0.64970 0.29800 0.22910
C54 C 0.6401(2) 0.45151(19) 0.24453(8)
H65 H 0.65010 0.47500 0.21280
C55 C 0.6244(2) 0.52221(17) 0.28109(7)
H66 H 0.62270 0.59370 0.27410
C56 C 0.66225(16) 0.82875(14) 0.41933(6)
H67 H 0.60430 0.87270 0.43720
C57 C 0.78217(16) 0.82600(14) 0.44658(6)
H68 H 0.84040 0.78400 0.42790
C58 C 0.82962(17) 0.93603(15) 0.44982(7)
H69 H 0.91040 0.93450 0.46470
H70 H 0.77650 0.97610 0.47100
C59 C 0.83798(17) 0.99162(14) 0.40189(7)
H71 H 0.90350 0.95940 0.38280
C60 C 0.71965(17) 0.97992(14) 0.37470(7)
H72 H 0.65700 1.01990 0.39210
C61 C 0.77108(18) 0.77898(16) 0.49600(7)
H73 H 0.85000 0.77830 0.51160
H74 H 0.74100 0.70840 0.49320
H75 H 0.71520 0.81990 0.51500
C62 C 0.86751(19) 1.10536(15) 0.40945(7)
H76 H 0.88950 1.13650 0.37890
H77 H 0.93480 1.11170 0.43200
H78 H 0.79720 1.14080 0.42230
C63 C 0.71905(18) 1.01579(14) 0.32271(6)
H79 H 0.75070 1.08770 0.32220
C64 C 0.59078(19) 1.01907(16) 0.30403(7)
H80 H 0.55880 0.94900 0.30210
H81 H 0.58950 1.05040 0.27230
H82 H 0.54130 1.06000 0.32570
C65 C 0.80098(18) 0.94961(15) 0.29026(7)
H83 H 0.82200 0.88550 0.30740
H84 H 0.75480 0.93000 0.26140
C66 C 0.91572(19) 1.00189(18) 0.27501(8)
H85 H 0.89630 1.06620 0.25840
H86 H 0.96000 0.95640 0.25360
H87 H 0.96520 1.01700 0.30320
O13 O 1.09385(13) 0.33244(13) 0.03904(5)
H88 H 1.074(3) 0.321(2) 0.0069(12)
O14 O 1.00213(12) 0.51692(11) 0.01653(5)
O15 O 0.66661(12) 0.44756(12) 0.11507(5)
H89 H 0.660(3) 0.507(3) 0.1123(10)
O16 O 0.73534(12) 0.63432(10) 0.09824(5)
N4 N 0.98264(14) 0.36319(14) 0.05563(6)
C67 C 0.94255(17) 0.46111(16) 0.04349(7)
C68 C 0.83082(17) 0.48915(15) 0.06463(6)
C69 C 0.76939(17) 0.42096(15) 0.09302(6)
C70 C 0.81126(18) 0.31795(16) 0.10062(6)
C71 C 0.91929(19) 0.29419(16) 0.08099(6)
H90 H 0.95090 0.22690 0.08530
C72 C 0.7386(2) 0.23723(16) 0.12427(6)
C73 C 0.7905(2) 0.16796(18) 0.15642(7)
H91 H 0.87230 0.17520 0.16560
C74 C 0.7211(3) 0.0877(2) 0.17499(8)
H92 H 0.75710 0.03960 0.19620
C75 C 0.6026(3) 0.07741(18) 0.16317(8)
H93 H 0.55640 0.02320 0.17640
C76 C 0.5501(2) 0.14647(17) 0.13172(8)
H94 H 0.46770 0.14000 0.12340
C77 C 0.6184(2) 0.22508(16) 0.11244(7)
H95 H 0.58210 0.27170 0.09060
C78 C 0.78315(16) 0.59573(15) 0.05389(6)
H96 H 0.85110 0.64070 0.04370
C79 C 0.68507(17) 0.59711(15) 0.01521(7)
H97 H 0.61950 0.54920 0.02490
C80 C 0.63325(18) 0.70587(15) 0.01170(7)
H98 H 0.56390 0.70520 -0.01050
H99 H 0.69480 0.75220 -0.00170
C81 C 0.59272(17) 0.74858(15) 0.05984(7)
H100 H 0.52550 0.70500 0.07180
C82 C 0.69773(17) 0.74087(14) 0.09499(7)
H101 H 0.76600 0.78150 0.08180
C83 C 0.73366(19) 0.56159(17) -0.03289(7)
H102 H 0.66950 0.56490 -0.05690
H103 H 0.76260 0.49060 -0.03010
H104 H 0.79990 0.60650 -0.04240
C84 C 0.5475(2) 0.85946(17) 0.05475(9)
H105 H 0.50890 0.88080 0.08440
H106 H 0.48940 0.86330 0.02840
H107 H 0.61540 0.90510 0.04810
C85 C 0.67622(17) 0.77750(15) 0.14621(7)
H108 H 0.65440 0.85200 0.14450
C86 C 0.79332(19) 0.7697(2) 0.17480(8)
H109 H 0.81760 0.69740 0.17720
H110 H 0.78120 0.79760 0.20680
H111 H 0.85620 0.80900 0.15870
C87 C 0.57258(18) 0.72182(16) 0.17085(7)
H112 H 0.50250 0.72030 0.14900
H113 H 0.59670 0.64980 0.17710
C88 C 0.5349(2) 0.77134(17) 0.21766(7)
H114 H 0.60290 0.77100 0.24000
H115 H 0.46810 0.73240 0.23130
H116 H 0.50950 0.84240 0.21180
#END
