
#######################################################################
#
#                 Cambridge Crystallographic Data Centre
#                                CCDC
#
#######################################################################
#
# If this CIF has been generated from an entry in the Cambridge
# Structural Database, then it will include bibliographic, chemical,
# crystal, experimental, refinement or atomic coordinate data resulting
# from the CCDC's data processing and validation procedures.
#
#######################################################################

data_CSD_CIF_EINACN10
_audit_creation_date 1974-03-25
_audit_creation_method CSD-ConQuest-V1
_database_code_CSD EINACN10
_chemical_formula_sum 'C10 H12 N2 O3'
_chemical_formula_moiety
;
C10 H12 N2 O3
;
_journal_coden_Cambridge 189
_journal_volume 2
_journal_year 1973
_journal_page_first 573
_journal_name_full 'Cryst.Struct.Commun. '
loop_
_publ_author_name
"F.Plana"
"C.Miravitlles"
"J.L.Brianso"
"M.Font-Altaba"
_chemical_name_systematic
;
4-Ethoxy-isonitrosoacetanilide
;
_cell_volume   1031.378
_exptl_special_details
;
Dx was reported as 1.307; we calculate 1.34

;
_diffrn_ambient_temperature ?
_diffrn_special_details
;
The study was carried out at room temperature,in the range 283-303K

;
#These two values have been output from a single CSD field.
_refine_ls_R_factor_gt 0.069
_refine_ls_wR_factor_gt 0.069
_symmetry_cell_setting monoclinic
_symmetry_space_group_name_H-M 'P 21/c'
_symmetry_Int_Tables_number 14
loop_
_symmetry_equiv_pos_site_id
_symmetry_equiv_pos_as_xyz
1 x,y,z
2 -x,1/2+y,1/2-z
3 -x,-y,-z
4 x,-1/2-y,-1/2+z
_cell_length_a 11.788
_cell_length_b 9.999
_cell_length_c 8.895
_cell_angle_alpha 90
_cell_angle_beta 100.35
_cell_angle_gamma 90
_cell_formula_units_Z 4
loop_
_atom_type_symbol
_atom_type_radius_bond
C 0.68
H 0.20
N 0.68
O 0.68
loop_
_atom_site_label
_atom_site_type_symbol
_atom_site_fract_x
_atom_site_fract_y
_atom_site_fract_z
C1 C 0.30880 -0.02564 -0.45728
C2 C 0.52891 -0.27559 -0.53009
C3 C 0.29585 0.02303 -0.31538
C4 C 0.20676 0.10915 -0.30079
C5 C 0.12769 0.14657 -0.43362
C6 C 0.13902 0.09612 -0.57339
C7 C 0.23017 0.01090 -0.58655
C8 C -0.04923 0.25917 -0.53447
C9 C -0.13382 0.34805 -0.47173
C10 C 0.43642 -0.17377 -0.57789
H1 H 0.57220 -0.30280 -0.42060
H2 H 0.34990 -0.01400 -0.22070
H3 H 0.19270 0.13260 -0.19040
H4 H 0.07950 0.13140 -0.64580
H5 H 0.23890 -0.04510 -0.66620
H6 H -0.07720 0.15540 -0.60000
H7 H -0.01450 0.29190 -0.63550
H8 H -0.11690 0.41470 -0.45490
H9 H -0.19740 0.35100 -0.49330
H10 H -0.12400 0.27370 -0.39080
H11 H 0.43290 -0.13550 -0.35420
H12 H 0.62140 -0.49630 -0.67240
N1 N 0.40117 -0.11718 -0.45780
N2 N 0.54683 -0.35693 -0.63450
O1 O 0.04202 0.23257 -0.40833
O2 O 0.39722 -0.15161 -0.71256
O3 O 0.63130 -0.45045 -0.57741
#END
