
#######################################################################
#
#                 Cambridge Crystallographic Data Centre
#                                CCDC
#
#######################################################################
#
# If this CIF has been generated from an entry in the Cambridge
# Structural Database, then it will include bibliographic, chemical,
# crystal, experimental, refinement or atomic coordinate data resulting
# from the CCDC's data processing and validation procedures.
#
#######################################################################

data_CSD_CIF_EJEJOS
_audit_creation_date 2003-09-30
_audit_creation_method CSD-ConQuest-V1
_database_code_CSD EJEJOS
_database_code_depnum_ccdc_archive 'CCDC 217156'
_chemical_formula_sum 'C18 H11 N5 O2'
_chemical_formula_moiety
;
C18 H11 N5 O2
;
_journal_coeditor_code "IUCr GG1166"
_journal_coden_Cambridge 591
_journal_volume 59
_journal_year 2003
_journal_page_first o403
_journal_name_full 'Acta Crystallogr.,Sect.C:Cryst.Struct.Commun. '
loop_
_publ_author_name
"Miao Du"
"Xiao-Jun Zhao"
_chemical_name_systematic
;
cis,cis-5-Nitro-2,3-bis(pyrid-2-yl)quinoxaline
;
_cell_volume   1581.917
_exptl_crystal_colour 'light yellow'
_exptl_crystal_density_diffrn 1.383
_exptl_crystal_description 'block'
_exptl_crystal_preparation 'ethanol'
_diffrn_ambient_temperature 293
#These two values have been output from a single CSD field.
_refine_ls_R_factor_gt 0.046
_refine_ls_wR_factor_gt 0.046
_symmetry_cell_setting triclinic
_symmetry_space_group_name_H-M 'P -1'
_symmetry_Int_Tables_number 2
loop_
_symmetry_equiv_pos_site_id
_symmetry_equiv_pos_as_xyz
1 x,y,z
2 -x,-y,-z
_cell_length_a 10.942(4)
_cell_length_b 11.630(4)
_cell_length_c 12.906(4)
_cell_angle_alpha 104.615(6)
_cell_angle_beta 93.419(6)
_cell_angle_gamma 93.292(6)
_cell_formula_units_Z 4
loop_
_atom_type_symbol
_atom_type_radius_bond
C 0.68
H 0.23
N 0.68
O 0.68
loop_
_atom_site_label
_atom_site_type_symbol
_atom_site_fract_x
_atom_site_fract_y
_atom_site_fract_z
O1 O 0.4294(2) 0.6747(2) 1.08972(19)
O2 O 0.5001(3) 0.8310(2) 1.21246(17)
O3 O 0.1138(2) 0.74721(19) 0.62915(15)
O4 O 0.06350(19) 0.90419(18) 0.74291(14)
N1 N 0.69236(19) 0.72762(17) 0.69946(15)
N2 N 0.44151(19) 0.65551(16) 0.57717(14)
N3 N 0.50281(18) 0.75969(17) 0.91000(14)
N4 N 0.37466(17) 0.88717(16) 0.78519(14)
N5 N 0.4451(3) 0.7826(3) 1.1257(2)
N6 N -0.1694(2) 0.68801(19) 0.20064(18)
N7 N 0.0942(2) 0.66360(19) 0.10761(17)
N8 N 0.02787(17) 0.79157(16) 0.43310(15)
N9 N 0.13996(17) 0.91742(16) 0.30006(14)
N10 N 0.1023(2) 0.8542(2) 0.65775(17)
C1 C 0.7932(3) 0.6752(3) 0.6662(2)
H1 H 0.83710 0.70460 0.61780
C2 C 0.8362(3) 0.5812(3) 0.6986(3)
H2 H 0.90660 0.54720 0.67200
C3 C 0.7733(3) 0.5377(2) 0.7714(3)
H3 H 0.80090 0.47430 0.79580
C4 C 0.6685(3) 0.5897(2) 0.8076(2)
H4 H 0.62390 0.56200 0.85670
C5 C 0.6307(2) 0.6842(2) 0.76925(17)
C6 C 0.5223(2) 0.74853(18) 0.80856(17)
C7 C 0.4487(2) 0.80544(19) 0.74314(17)
C8 C 0.44550(19) 0.77232(19) 0.62358(16)
C9 C 0.4420(2) 0.8578(2) 0.56684(17)
H5 H 0.44530 0.93830 0.60230
C10 C 0.4335(2) 0.8214(2) 0.45626(19)
H6 H 0.43080 0.87710 0.41580
C11 C 0.4291(2) 0.7030(2) 0.40711(19)
H7 H 0.42360 0.67640 0.33260
C12 C 0.4329(3) 0.6235(2) 0.46985(19)
H8 H 0.42920 0.54260 0.43560
C13 C 0.3632(2) 0.9095(2) 0.89369(18)
C14 C 0.2934(2) 1.0035(2) 0.94439(19)
H9 H 0.25840 1.05170 0.90500
C15 C 0.2778(2) 1.0231(3) 1.0506(2)
H10 H 0.23240 1.08530 1.08390
C16 C 0.3289(3) 0.9512(3) 1.1105(2)
H11 H 0.31740 0.96530 1.18340
C17 C 0.3959(3) 0.8598(3) 1.0623(2)
C18 C 0.4190(2) 0.8380(2) 0.95236(17)
C19 C -0.2706(3) 0.6166(3) 0.1665(3)
H12 H -0.31770 0.62610 0.10720
C20 C -0.3093(4) 0.5295(4) 0.2142(4)
H13 H -0.38040 0.48100 0.18690
C21 C -0.2428(4) 0.5144(3) 0.3021(4)
H14 H -0.26810 0.45610 0.33570
C22 C -0.1367(3) 0.5881(2) 0.3404(2)
H15 H -0.08910 0.58070 0.40020
C23 C -0.1040(2) 0.6729(2) 0.2865(2)
C24 C 0.0024(2) 0.76154(19) 0.32819(18)
C25 C 0.0666(2) 0.8208(2) 0.25985(17)
C26 C 0.0606(2) 0.7737(2) 0.14047(18)
C27 C 0.0304(2) 0.8431(2) 0.07255(19)
H16 H 0.00790 0.92020 0.09960
C28 C 0.0340(3) 0.7967(3) -0.0359(2)
H17 H 0.01190 0.84110 -0.08380
C29 C 0.0703(3) 0.6851(3) -0.0721(2)
H18 H 0.07610 0.65220 -0.14500
C30 C 0.0982(3) 0.6223(3) 0.0012(3)
H19 H 0.12170 0.54530 -0.02450
C31 C 0.1589(2) 0.95605(19) 0.40967(17)
C32 C 0.2310(2) 1.0631(2) 0.45571(18)
H20 H 0.26400 1.10760 0.41210
C33 C 0.2522(2) 1.1012(2) 0.56463(19)
H21 H 0.29750 1.17320 0.59520
C34 C 0.2064(2) 1.0329(2) 0.63080(19)
H22 H 0.22130 1.05960 0.70500
C35 C 0.1407(2) 0.9281(2) 0.58696(18)
C36 C 0.1098(2) 0.8871(2) 0.47499(17)
#END
