
#######################################################################
#
#                 Cambridge Crystallographic Data Centre
#                                CCDC
#
#######################################################################
#
# If this CIF has been generated from an entry in the Cambridge
# Structural Database, then it will include bibliographic, chemical,
# crystal, experimental, refinement or atomic coordinate data resulting
# from the CCDC's data processing and validation procedures.
#
#######################################################################

data_CSD_CIF_EJEPUE
_audit_creation_date 2003-09-30
_audit_creation_method CSD-ConQuest-V1
_database_code_CSD EJEPUE
_database_code_depnum_ccdc_archive 'CCDC 219565'
_chemical_formula_sum 'C12 H9 N5 O4'
_chemical_formula_moiety
;
C12 H9 N5 O4
;
_journal_coeditor_code "IUCr FG1694"
_journal_coden_Cambridge 591
_journal_volume 59
_journal_year 2003
_journal_page_first o426
_journal_name_full 'Acta Crystallogr.,Sect.C:Cryst.Struct.Commun. '
loop_
_publ_author_name
"M.Horner"
"L.Bresolin"
"J.Bordinhao"
"E.Hartmann"
"J.Strahle"
_chemical_name_systematic
;
1,3-bis(4-Nitrophenyl)triazene
;
_chemical_melting_point 506
_cell_volume   1291.235
_exptl_crystal_colour 'yellow'
_exptl_crystal_density_diffrn 1.478
_exptl_crystal_description 'column'
_exptl_crystal_preparation 'tetrahydrofuran/n-hexane'
_diffrn_ambient_temperature 293
#These two values have been output from a single CSD field.
_refine_ls_R_factor_gt 0.0384
_refine_ls_wR_factor_gt 0.0384
_symmetry_cell_setting monoclinic
_symmetry_space_group_name_H-M 'P 21/c'
_symmetry_Int_Tables_number 14
loop_
_symmetry_equiv_pos_site_id
_symmetry_equiv_pos_as_xyz
1 x,y,z
2 x,1/2-y,1/2+z
3 -x,-y,-z
4 -x,-1/2+y,-1/2-z
_cell_length_a 13.452(1)
_cell_length_b 13.671(2)
_cell_length_c 7.034(2)
_cell_angle_alpha 90
_cell_angle_beta 93.442(11)
_cell_angle_gamma 90
_cell_formula_units_Z 4
loop_
_atom_type_symbol
_atom_type_radius_bond
C 0.68
H 0.23
N 0.68
O 0.68
loop_
_atom_site_label
_atom_site_type_symbol
_atom_site_fract_x
_atom_site_fract_y
_atom_site_fract_z
O1 O 0.43782(12) 0.22721(11) 0.6682(3)
O2 O 0.29617(13) 0.23236(11) 0.5167(3)
O3 O 0.02435(16) 1.14876(15) 0.2175(3)
O4 O -0.06985(12) 1.02428(15) 0.1625(3)
N1 N 0.37270(12) 0.68066(11) 0.6245(2)
H1 H 0.42250 0.71000 0.68210
N2 N 0.29723(12) 0.73297(11) 0.5438(2)
N3 N 0.30850(11) 0.82373(12) 0.5707(2)
N4 N 0.36748(14) 0.27316(12) 0.5958(3)
N5 N 0.00714(15) 1.06165(18) 0.2267(3)
C1 C 0.37069(13) 0.57963(13) 0.6154(3)
C2 C 0.44457(13) 0.52635(14) 0.7164(3)
H2 H 0.49440 0.55890 0.78880
C3 C 0.44430(14) 0.42656(15) 0.7097(3)
H3 H 0.49390 0.39080 0.77600
C4 C 0.36885(14) 0.37937(13) 0.6027(3)
C5 C 0.29484(15) 0.43071(15) 0.5030(3)
H4 H 0.24450 0.39750 0.43320
C6 C 0.29546(14) 0.53064(14) 0.5068(3)
H5 H 0.24630 0.56590 0.43780
C7 C 0.22772(14) 0.87928(14) 0.4845(3)
C8 C 0.14358(15) 0.83812(16) 0.3894(3)
H6 H 0.13650 0.77050 0.38210
C9 C 0.07145(15) 0.89813(17) 0.3070(3)
H7 H 0.01500 0.87170 0.24390
C10 C 0.08370(14) 0.99785(16) 0.3189(3)
C11 C 0.16511(15) 1.04029(14) 0.4127(3)
H8 H 0.17140 1.10800 0.41950
C12 C 0.23734(14) 0.97985(15) 0.4966(3)
H9 H 0.29290 1.00700 0.56170
#END
