
#######################################################################
#
#                 Cambridge Crystallographic Data Centre
#                                CCDC
#
#######################################################################
#
# If this CIF has been generated from an entry in the Cambridge
# Structural Database, then it will include bibliographic, chemical,
# crystal, experimental, refinement or atomic coordinate data resulting
# from the CCDC's data processing and validation procedures.
#
#######################################################################

data_CSD_CIF_EJEYAV
_audit_creation_date 2016-03-22
_audit_creation_method CSD-ConQuest-V1
_database_code_CSD EJEYAV
_database_code_depnum_ccdc_archive 'CCDC 1451360'
_chemical_formula_sum 'C14 H21 N5 O3'
_chemical_formula_moiety
;
C14 H21 N5 O3
;
_journal_coden_Cambridge 24
_journal_volume 57
_journal_year 2016
_journal_page_first 1949
_journal_name_full 'Tetrahedron Lett. '
loop_
_publ_author_name
"I.Efimov"
"N.Beliaev"
"T.Beryozkina"
"P.Slepukhin"
"V.Bakulev"
_chemical_name_systematic
;
1-cyclopentyl-N-(1-methyl-4-nitro-1H-imidazol-5-yl)-1-(morpholin-4-yl)methanim
ine
;
_cell_volume   1528.927
_exptl_crystal_colour 'yellow'
_exptl_crystal_density_diffrn 1.335
_exptl_crystal_description 'prism'
_diffrn_ambient_temperature 293
_refine_special_details
;
C1,C3,C6,C7 and C1A,C3A,C6A,C7A disordered over two sites with occupancies 
0.70:0.30; C12 and C12A disordered over two sites with occupancies 0.50:0.50.
;
#These two values have been output from a single CSD field.
_refine_ls_R_factor_gt 0.0407
_refine_ls_wR_factor_gt 0.0407
_symmetry_cell_setting monoclinic
_symmetry_space_group_name_H-M 'P 21/n'
_symmetry_Int_Tables_number 14
loop_
_symmetry_equiv_pos_site_id
_symmetry_equiv_pos_as_xyz
1 x,y,z
2 1/2-x,1/2+y,1/2-z
3 -x,-y,-z
4 -1/2+x,-1/2-y,-1/2+z
_cell_length_a 8.9358(10)
_cell_length_b 13.7998(17)
_cell_length_c 12.9038(18)
_cell_angle_alpha 90
_cell_angle_beta 106.082(11)
_cell_angle_gamma 90
_cell_formula_units_Z 4
loop_
_atom_type_symbol
_atom_type_radius_bond
C 0.68
H 0.23
N 0.68
O 0.68
loop_
_atom_site_label
_atom_site_type_symbol
_atom_site_fract_x
_atom_site_fract_y
_atom_site_fract_z
O1 O 0.02908(19) 0.33216(11) 0.74740(13)
N1 N 0.04623(18) 0.60804(11) 0.63623(13)
O2 O 0.27233(19) 0.35750(11) 0.82426(13)
N2 N 0.1443(2) 0.38567(14) 0.76949(14)
C1 C 0.2006(3) 0.61477(19) 0.69108(18)
O3 O -0.5609(2) 0.25647(13) 0.53618(15)
N3 N 0.25425(16) 0.53959(14) 0.74712(14)
N4 N -0.36820(18) 0.41192(12) 0.62198(13)
C2 C 0.1285(2) 0.47977(15) 0.72829(16)
N5 N -0.14907(17) 0.48832(11) 0.61485(12)
C3 C -0.0037(2) 0.52029(14) 0.66094(14)
C4 C -0.2423(2) 0.46315(13) 0.67206(15)
C5 C -0.2195(2) 0.49710(14) 0.78575(15)
C6 C -0.3406(2) 0.57027(14) 0.80099(16)
H1 H -0.31120 0.63580 0.78800
H2 H -0.44250 0.55630 0.75260
C7 C -0.3405(3) 0.5572(2) 0.9169(2)
H3 H -0.43410 0.58180 0.93010
H4 H -0.25270 0.59020 0.96340
C8 C -0.2065(3) 0.42184(17) 0.87440(17)
H5 H -0.10330 0.41820 0.92260
H6 H -0.23530 0.35930 0.84240
C9 C -0.0452(2) 0.67753(15) 0.56133(17)
H7 H -0.14570 0.68420 0.57390
H8 H -0.05760 0.65550 0.48890
H9 H 0.00690 0.73910 0.57150
C10 C -0.3287(9) 0.4558(6) 0.9349(6)
H10 H -0.42860 0.42440 0.90520
H11 H -0.29210 0.44140 1.01140
C11 C -0.4011(6) 0.3871(3) 0.5069(4)
H12 H -0.31460 0.40560 0.47930
H13 H -0.49420 0.42010 0.46510
C12 C -0.4238(7) 0.2799(3) 0.5008(5)
H14 H -0.43820 0.25780 0.42730
H15 H -0.33290 0.24780 0.54670
C13 C -0.5023(5) 0.3891(2) 0.6599(4)
H16 H -0.59420 0.42250 0.61700
H17 H -0.48420 0.40810 0.73470
C14 C -0.5233(9) 0.2800(3) 0.6479(5)
H18 H -0.42800 0.24730 0.68650
H19 H -0.60620 0.25890 0.67780
H20 H -0.1222(18) 0.5308(12) 0.8034(13)
H21 H 0.2550(17) 0.6688(12) 0.6841(13)
C15? C -0.3446(12) 0.3418(11) 0.5346(9)
H22? H -0.28600 0.37270 0.49070
H23? H -0.28960 0.28390 0.56710
C16? C -0.5028(12) 0.3182(10) 0.4698(9)
H24? H -0.56590 0.37620 0.45200
H25? H -0.50100 0.28560 0.40350
C17? C -0.4456(10) 0.3423(11) 0.6918(8)
H26? H -0.38380 0.28410 0.71370
H27? H -0.45730 0.37520 0.75550
C18? C -0.5909(13) 0.3202(13) 0.6203(10)
H28? H -0.64310 0.37910 0.58820
H29? H -0.65630 0.28750 0.65810
C19? C -0.2452(10) 0.4779(9) 0.9653(7)
H30? H -0.30030 0.43670 1.00340
H31? H -0.15060 0.50110 1.01620
#END
