
#######################################################################
#
#                 Cambridge Crystallographic Data Centre
#                                CCDC
#
#######################################################################
#
# If this CIF has been generated from an entry in the Cambridge
# Structural Database, then it will include bibliographic, chemical,
# crystal, experimental, refinement or atomic coordinate data resulting
# from the CCDC's data processing and validation procedures.
#
#######################################################################

data_CSD_CIF_EJEYID
_audit_creation_date 2016-03-22
_audit_creation_method CSD-ConQuest-V1
_database_code_CSD EJEYID
_database_code_depnum_ccdc_archive 'CCDC 1451362'
_chemical_formula_sum 'C11 H17 N5 O2'
_chemical_formula_moiety
;
C11 H17 N5 O2
;
_journal_coden_Cambridge 24
_journal_volume 57
_journal_year 2016
_journal_page_first 1949
_journal_name_full 'Tetrahedron Lett. '
loop_
_publ_author_name
"I.Efimov"
"N.Beliaev"
"T.Beryozkina"
"P.Slepukhin"
"V.Bakulev"
_chemical_name_systematic
;
N-(1-methyl-4-nitro-1H-imidazol-5-yl)-1-(piperidin-1-yl)ethanimine
;
_cell_volume   1264.934
_exptl_crystal_colour 'orange'
_exptl_crystal_density_diffrn 1.319
_exptl_crystal_description 'prism'
_diffrn_ambient_temperature 293
#These two values have been output from a single CSD field.
_refine_ls_R_factor_gt 0.041
_refine_ls_wR_factor_gt 0.041
_symmetry_cell_setting monoclinic
_symmetry_space_group_name_H-M 'P 21/c'
_symmetry_Int_Tables_number 14
loop_
_symmetry_equiv_pos_site_id
_symmetry_equiv_pos_as_xyz
1 x,y,z
2 -x,1/2+y,1/2-z
3 -x,-y,-z
4 x,-1/2-y,-1/2+z
_cell_length_a 11.865(2)
_cell_length_b 6.5325(7)
_cell_length_c 16.459(3)
_cell_angle_alpha 90
_cell_angle_beta 97.451(15)
_cell_angle_gamma 90
_cell_formula_units_Z 4
loop_
_atom_type_symbol
_atom_type_radius_bond
C 0.68
H 0.23
N 0.68
O 0.68
loop_
_atom_site_label
_atom_site_type_symbol
_atom_site_fract_x
_atom_site_fract_y
_atom_site_fract_z
N1 N 0.55170(14) -0.1113(2) 0.39185(11)
O1 O 0.73846(14) 0.4415(2) 0.34361(9)
C1 C 0.50120(18) -0.2957(3) 0.41947(14)
H1 H 0.43640 -0.33280 0.38120
H2 H 0.47770 -0.27220 0.47230
H3 H 0.55600 -0.40450 0.42330
O2 O 0.80884(13) 0.2956(2) 0.45666(9)
N2 N 0.73866(16) 0.3031(3) 0.39418(11)
C2 C 0.5167(2) -0.0027(4) 0.32313(15)
N3 N 0.57722(15) 0.1558(3) 0.31423(9)
C3 C 0.86912(14) -0.1798(3) 0.45215(10)
H4 H 0.83100 -0.12830 0.40120
H5 H 0.88080 -0.32450 0.44760
H6 H 0.94120 -0.11250 0.46470
C4 C 0.65710(15) 0.1494(3) 0.38121(11)
N4 N 0.69363(14) -0.0783(2) 0.50561(9)
N5 N 0.84546(13) -0.1708(2) 0.59632(9)
C5 C 0.64486(16) -0.0157(3) 0.43111(11)
C6 C 0.94305(17) -0.2994(4) 0.61936(12)
H7 H 0.99450 -0.23230 0.66170
H8 H 0.98320 -0.32070 0.57230
C7 C 0.90749(19) -0.5013(3) 0.65016(11)
H9 H 0.97440 -0.58210 0.66900
H10 H 0.86330 -0.57520 0.60590
C8 C 0.8375(2) -0.4726(3) 0.71952(12)
H11 H 0.80730 -0.60380 0.73390
H12 H 0.88570 -0.42080 0.76720
C9 C 0.74107(18) -0.3259(3) 0.69638(12)
H13 H 0.68610 -0.38810 0.65500
H14 H 0.70330 -0.29780 0.74410
C10 C 0.78217(18) -0.1304(3) 0.66428(11)
H15 H 0.71790 -0.04260 0.64620
H16 H 0.83050 -0.06010 0.70750
C11 C 0.79825(17) -0.1394(3) 0.51882(11)
H17 H 0.4582(14) -0.044(3) 0.2891(11)
#END
