
#######################################################################
#
#                 Cambridge Crystallographic Data Centre
#                                CCDC
#
#######################################################################
#
# If this CIF has been generated from an entry in the Cambridge
# Structural Database, then it will include bibliographic, chemical,
# crystal, experimental, refinement or atomic coordinate data resulting
# from the CCDC's data processing and validation procedures.
#
#######################################################################

data_CSD_CIF_EKAHOP
_audit_creation_date 2016-04-20
_audit_creation_method CSD-ConQuest-V1
_database_code_CSD EKAHOP
_database_code_depnum_ccdc_archive 'CCDC 1434337'
_chemical_formula_sum 'C12 H12 N2 O3'
_chemical_formula_moiety
;
C12 H12 N2 O3
;
_journal_coden_Cambridge 179
_journal_volume 55
_journal_year 2016
_journal_page_first 3997
_journal_name_full 'Angew.Chem.,Int.Ed. '
loop_
_publ_author_name
"C.Kesornpun"
"T.Aree"
"C.Mahidol"
"S.Ruchirawat"
"P.Kittakoop"
_chemical_name_systematic
;
3-(4-nitrophenyl)-4,5,6,6a-tetrahydro-3aH-cyclopenta[d][1,2]oxazole
;
_cell_volume   1087.594
_exptl_crystal_colour 'colorless'
_exptl_crystal_density_diffrn 1.418
_exptl_crystal_description 'rod'
_diffrn_ambient_temperature 296
#These two values have been output from a single CSD field.
_refine_ls_R_factor_gt 0.0501
_refine_ls_wR_factor_gt 0.0501
_symmetry_cell_setting monoclinic
_symmetry_space_group_name_H-M 'P 21/c'
_symmetry_Int_Tables_number 14
loop_
_symmetry_equiv_pos_site_id
_symmetry_equiv_pos_as_xyz
1 x,y,z
2 -x,1/2+y,1/2-z
3 -x,-y,-z
4 x,-1/2-y,-1/2+z
_cell_length_a 5.4148(4)
_cell_length_b 9.5485(6)
_cell_length_c 21.1836(14)
_cell_angle_alpha 90
_cell_angle_beta 96.783(2)
_cell_angle_gamma 90
_cell_formula_units_Z 4
loop_
_atom_type_symbol
_atom_type_radius_bond
C 0.68
H 0.23
N 0.68
O 0.68
loop_
_atom_site_label
_atom_site_type_symbol
_atom_site_fract_x
_atom_site_fract_y
_atom_site_fract_z
C1 C 0.3213(2) 0.44045(14) 0.40307(6)
C2 C 0.4328(3) 0.46663(15) 0.34250(6)
H1 H 0.60740 0.49550 0.35050
C3 C 0.3946(3) 0.34495(17) 0.29437(7)
H2 H 0.52690 0.34280 0.26730
H3 H 0.39020 0.25570 0.31610
C4 C 0.1462(3) 0.37594(18) 0.25593(8)
H4 H 0.00940 0.34490 0.27820
H5 H 0.13380 0.33070 0.21470
C5 C 0.1465(3) 0.53438(17) 0.24916(7)
H6 H 0.24350 0.56320 0.21570
H7 H -0.02150 0.57010 0.23970
C6 C 0.2644(3) 0.58534(15) 0.31339(7)
H8 H 0.35840 0.67200 0.30960
C7 C 0.4153(2) 0.34070(14) 0.45320(6)
C8 C 0.6287(3) 0.26197(16) 0.44760(7)
H9 H 0.71160 0.27250 0.41190
C9 C 0.7184(3) 0.16833(16) 0.49478(7)
H10 H 0.86010 0.11550 0.49100
C10 C 0.5930(3) 0.15499(15) 0.54759(6)
C11 C 0.3813(3) 0.23189(16) 0.55475(7)
H11 H 0.29970 0.22110 0.59070
C12 C 0.2940(3) 0.32471(16) 0.50752(6)
H12 H 0.15260 0.37740 0.51180
N1 N 0.1261(2) 0.51290(14) 0.40892(6)
N2 N 0.6895(3) 0.05644(14) 0.59774(6)
O1 O 0.0749(2) 0.60252(12) 0.35651(5)
O2 O 0.8730(3) -0.01276(16) 0.59042(6)
O3 O 0.5816(3) 0.04817(15) 0.64509(6)
#END
