
#######################################################################
#
#                 Cambridge Crystallographic Data Centre
#                                CCDC
#
#######################################################################
#
# If this CIF has been generated from an entry in the Cambridge
# Structural Database, then it will include bibliographic, chemical,
# crystal, experimental, refinement or atomic coordinate data resulting
# from the CCDC's data processing and validation procedures.
#
#######################################################################

data_CSD_CIF_EKAHEF
_audit_creation_date 2016-04-20
_audit_creation_method CSD-ConQuest-V1
_database_code_CSD EKAHEF
_database_code_depnum_ccdc_archive 'CCDC 1434335'
_chemical_formula_sum 'C17 H20 N2 O3'
_chemical_formula_moiety
;
C17 H20 N2 O3
;
_journal_coden_Cambridge 179
_journal_volume 55
_journal_year 2016
_journal_page_first 3997
_journal_name_full 'Angew.Chem.,Int.Ed. '
loop_
_publ_author_name
"C.Kesornpun"
"T.Aree"
"C.Mahidol"
"S.Ruchirawat"
"P.Kittakoop"
_chemical_name_systematic
;
2,9,9-trimethyl-5-(4-nitrophenyl)-3-oxa-4-azatricyclo[6.1.1.0^2,6^]dec-4-ene
;
_cell_volume   1542.350
_exptl_crystal_colour 'colorless'
_exptl_crystal_density_diffrn 1.293
_exptl_special_details
;
Absolute configuration

;
_exptl_crystal_description 'thin plate'
_diffrn_ambient_temperature 296
#These two values have been output from a single CSD field.
_refine_ls_R_factor_gt 0.0576
_refine_ls_wR_factor_gt 0.0576
loop_
_citation_database_id_CSD
_citation_special_details
EKAHAB "is a stereoisomer of this entry"
_symmetry_cell_setting orthorhombic
_symmetry_space_group_name_H-M 'P 21 21 21'
_symmetry_Int_Tables_number 19
loop_
_symmetry_equiv_pos_site_id
_symmetry_equiv_pos_as_xyz
1 x,y,z
2 1/2+x,1/2-y,-z
3 -x,1/2+y,1/2-z
4 1/2-x,-y,1/2+z
_cell_length_a 6.3851(2)
_cell_length_b 7.6268(2)
_cell_length_c 31.6718(8)
_cell_angle_alpha 90
_cell_angle_beta 90
_cell_angle_gamma 90
_cell_formula_units_Z 4
loop_
_atom_type_symbol
_atom_type_radius_bond
C 0.68
H 0.23
N 0.68
O 0.68
loop_
_atom_site_label
_atom_site_type_symbol
_atom_site_fract_x
_atom_site_fract_y
_atom_site_fract_z
C1 C 0.5487(7) 0.3567(6) 0.67474(13)
C2 C 0.6350(7) 0.3698(6) 0.63064(12)
H1 H 0.75180 0.28720 0.62780
C3 C 0.7121(8) 0.5542(6) 0.61845(13)
H2 H 0.69550 0.63200 0.64240
H3 H 0.86010 0.54870 0.61170
C4 C 0.5928(9) 0.6301(6) 0.58059(15)
H4 H 0.63670 0.74770 0.57180
C5 C 0.5746(8) 0.4934(6) 0.54457(13)
C6 C 0.3835(7) 0.4238(6) 0.57029(14)
H5 H 0.26540 0.38330 0.55310
C7 C 0.4482(7) 0.3004(6) 0.60513(12)
C8 C 0.3582(9) 0.6085(7) 0.58865(17)
H6 H 0.27020 0.68560 0.57200
H7 H 0.31910 0.61100 0.61820
C9 C 0.4983(10) 0.5787(7) 0.50272(15)
H8 H 0.37420 0.64630 0.50810
H9 H 0.46760 0.48860 0.48250
H10 H 0.60590 0.65390 0.49180
C10 C 0.7612(9) 0.3825(7) 0.53394(15)
H11 H 0.81380 0.32840 0.55920
H12 H 0.86830 0.45470 0.52170
H13 H 0.72090 0.29330 0.51410
C11 C 0.4689(9) 0.1116(6) 0.59115(14)
H14 H 0.33780 0.07180 0.57980
H15 H 0.50690 0.04010 0.61490
H16 H 0.57540 0.10290 0.56980
C12 C 0.6710(6) 0.3799(6) 0.71387(13)
C13 C 0.8756(7) 0.4327(7) 0.71294(13)
H17 H 0.93920 0.45370 0.68700
C14 C 0.9902(8) 0.4558(6) 0.74941(14)
H18 H 1.12810 0.49500 0.74840
C15 C 0.8946(7) 0.4191(6) 0.78732(12)
C16 C 0.6933(7) 0.3644(7) 0.78986(14)
H19 H 0.63270 0.34160 0.81600
C17 C 0.5787(7) 0.3427(6) 0.75318(14)
H20 H 0.44090 0.30350 0.75450
N1 N 0.3541(6) 0.3219(6) 0.67680(11)
N2 N 1.0202(7) 0.4364(5) 0.82630(12)
O1 O 0.2727(5) 0.2992(5) 0.63613(9)
O2 O 1.2017(7) 0.4820(6) 0.82319(11)
O3 O 0.9369(6) 0.3987(6) 0.85969(10)
#END
