
#######################################################################
#
#                 Cambridge Crystallographic Data Centre
#                                CCDC
#
#######################################################################
#
# If this CIF has been generated from an entry in the Cambridge
# Structural Database, then it will include bibliographic, chemical,
# crystal, experimental, refinement or atomic coordinate data resulting
# from the CCDC's data processing and validation procedures.
#
#######################################################################

data_CSD_CIF_EKAJAD
_audit_creation_date 2016-04-20
_audit_creation_method CSD-ConQuest-V1
_database_code_CSD EKAJAD
_database_code_depnum_ccdc_archive 'CCDC 1434339'
_chemical_formula_sum 'C16 H12 N2 O3'
_chemical_formula_moiety
;
C16 H12 N2 O3
;
_journal_coden_Cambridge 179
_journal_volume 55
_journal_year 2016
_journal_page_first 3997
_journal_name_full 'Angew.Chem.,Int.Ed. '
loop_
_publ_author_name
"C.Kesornpun"
"T.Aree"
"C.Mahidol"
"S.Ruchirawat"
"P.Kittakoop"
_chemical_name_systematic
;
3-(4-nitrophenyl)-4,8b-dihydro-3aH-indeno[2,1-d][1,2]oxazole
;
_cell_volume    655.321
_exptl_crystal_colour 'colorless'
_exptl_crystal_density_diffrn 1.42
_exptl_crystal_description 'rod'
_diffrn_ambient_temperature 296
#These two values have been output from a single CSD field.
_refine_ls_R_factor_gt 0.0631
_refine_ls_wR_factor_gt 0.0631
_symmetry_cell_setting triclinic
_symmetry_space_group_name_H-M 'P -1'
_symmetry_Int_Tables_number 2
loop_
_symmetry_equiv_pos_site_id
_symmetry_equiv_pos_as_xyz
1 x,y,z
2 -x,-y,-z
_cell_length_a 6.9126(4)
_cell_length_b 7.8420(5)
_cell_length_c 12.7841(9)
_cell_angle_alpha 100.400(2)
_cell_angle_beta 92.546(2)
_cell_angle_gamma 105.012(2)
_cell_formula_units_Z 2
loop_
_atom_type_symbol
_atom_type_radius_bond
C 0.68
H 0.23
N 0.68
O 0.68
loop_
_atom_site_label
_atom_site_type_symbol
_atom_site_fract_x
_atom_site_fract_y
_atom_site_fract_z
C1 C 0.0249(2) 0.6527(2) 0.67724(12)
C2 C 0.0812(2) 0.5772(2) 0.77040(13)
H1 H 0.11800 0.46480 0.74650
C3 C 0.2429(3) 0.7108(3) 0.85396(14)
H2 H 0.34700 0.65610 0.87280
H3 H 0.30440 0.81830 0.82720
C4 C 0.1304(3) 0.7548(2) 0.94854(13)
C5 C 0.2038(4) 0.8737(3) 1.04510(15)
H4 H 0.33920 0.93680 1.05800
C6 C 0.0738(5) 0.8967(3) 1.12088(17)
H5 H 0.12180 0.97640 1.18550
C7 C -0.1265(5) 0.8040(4) 1.10289(18)
H6 H -0.21250 0.82170 1.15520
C8 C -0.2009(4) 0.6847(3) 1.00769(17)
H7 H -0.33620 0.62120 0.99560
C9 C -0.0705(3) 0.6610(2) 0.93038(13)
C10 C -0.1173(3) 0.5430(2) 0.82225(14)
H8 H -0.16860 0.41590 0.82660
C11 C 0.1566(2) 0.7032(2) 0.59442(12)
C12 C 0.3463(2) 0.6741(2) 0.59584(13)
H9 H 0.39150 0.62770 0.65130
C13 C 0.4689(2) 0.7134(2) 0.51598(13)
H10 H 0.59580 0.69350 0.51730
C14 C 0.4004(2) 0.7819(2) 0.43491(12)
C15 C 0.2135(3) 0.8150(2) 0.43116(13)
H11 H 0.17020 0.86260 0.37580
C16 C 0.0934(2) 0.7760(2) 0.51104(14)
H12 H -0.03230 0.79840 0.50980
N1 N -0.1556(2) 0.6663(2) 0.67156(11)
N2 N 0.5309(2) 0.8207(2) 0.34972(11)
O1 O -0.25668(17) 0.59912(19) 0.75438(10)
O2 O 0.6942(2) 0.7875(2) 0.35369(11)
O3 O 0.4707(2) 0.8842(2) 0.27860(11)
#END
