
#######################################################################
#
#                 Cambridge Crystallographic Data Centre
#                                CCDC
#
#######################################################################
#
# If this CIF has been generated from an entry in the Cambridge
# Structural Database, then it will include bibliographic, chemical,
# crystal, experimental, refinement or atomic coordinate data resulting
# from the CCDC's data processing and validation procedures.
#
#######################################################################

data_CSD_CIF_EKAVUJ
_audit_creation_date 2016-04-20
_audit_creation_method CSD-ConQuest-V1
_database_code_CSD EKAVUJ
_database_code_depnum_ccdc_archive 'CCDC 1442759'
_chemical_formula_sum 'C22 H25 N3 O8'
_chemical_formula_moiety
;
C22 H25 N3 O8
;
_journal_coden_Cambridge 692
_journal_volume 48
_journal_year 2016
_journal_page_first 2619
_journal_name_full 'Synthesis '
loop_
_publ_author_name
"Shi Chen"
"M.Mondal"
"A.A.Ibrahim"
"K.A.Wheeler"
"N.J.Kerrigan"
_chemical_name_systematic
;
(-)-(2S,3R,4R)-1-(Methoxy(methyl)amino)-2-methyl-1-oxo-4-phenylhexan-3-yl 
3,5-dinitrobenzoate
;
_chemical_melting_point 427.15
_cell_volume   2290.446
_exptl_crystal_colour 'colorless'
_exptl_crystal_density_diffrn 1.332
_exptl_special_details
;
Melting point range 427.15-430.15K

;
_exptl_crystal_description 'block'
_exptl_crystal_preparation 'acetone/hexane'
_diffrn_ambient_temperature 100
#These two values have been output from a single CSD field.
_refine_ls_R_factor_gt 0.0267
_refine_ls_wR_factor_gt 0.0267
_symmetry_cell_setting orthorhombic
_symmetry_space_group_name_H-M 'P 21 21 21'
_symmetry_Int_Tables_number 19
loop_
_symmetry_equiv_pos_site_id
_symmetry_equiv_pos_as_xyz
1 x,y,z
2 1/2-x,-y,1/2+z
3 1/2+x,1/2-y,-z
4 -x,1/2+y,1/2-z
_cell_length_a 7.8737(1)
_cell_length_b 12.6008(2)
_cell_length_c 23.0857(4)
_cell_angle_alpha 90
_cell_angle_beta 90
_cell_angle_gamma 90
_cell_formula_units_Z 4
loop_
_atom_type_symbol
_atom_type_radius_bond
C 0.68
H 0.23
N 0.68
O 0.68
loop_
_atom_site_label
_atom_site_type_symbol
_atom_site_fract_x
_atom_site_fract_y
_atom_site_fract_z
O1 O 0.42743(18) 0.27233(11) 0.10393(6)
O2 O 0.08936(16) 0.43620(11) 0.14293(6)
O3 O 0.37112(14) 0.59448(9) 0.13632(5)
O4 O 0.44593(17) 0.48697(10) 0.21037(5)
O5 O 0.1945(3) 0.61122(12) 0.39923(7)
O6 O 0.1743(2) 0.77973(12) 0.41415(6)
O7 O 0.3323(2) 0.9701(1) 0.17542(5)
O8 O 0.1686(2) 1.01366(11) 0.24707(7)
N1 N 0.2741(2) 0.30259(12) 0.13056(7)
N2 N 0.2000(3) 0.70353(13) 0.38290(7)
N3 N 0.2557(2) 0.95054(12) 0.22043(6)
C1 C 0.2091(2) 0.39921(14) 0.11623(7)
C2 C 0.2932(2) 0.45866(13) 0.06630(7)
H1 H 0.34070 0.40560 0.03840
C3 C 0.4412(2) 0.52271(13) 0.09258(7)
H2 H 0.52340 0.47300 0.11140
C4 C 0.5368(2) 0.59597(14) 0.05090(7)
H3 H 0.45170 0.64410 0.03240
C5 C 0.6249(3) 0.53282(15) 0.00235(8)
H4 H 0.70780 0.48290 0.01960
H5 H 0.53920 0.49070 -0.01900
C6 C 0.7163(3) 0.60647(18) -0.03959(9)
H6 H 0.63380 0.65410 -0.05780
H7 H 0.77330 0.56420 -0.06950
H8 H 0.80080 0.64850 -0.01850
C7 C 0.1637(2) 0.52759(14) 0.03451(8)
H9 H 0.06410 0.48470 0.02450
H10 H 0.21490 0.55580 -0.00100
H11 H 0.12900 0.58650 0.05960
C8 C 0.6597(2) 0.66450(13) 0.08529(7)
C9 C 0.7927(2) 0.62005(14) 0.11669(8)
H12 H 0.81110 0.54560 0.11520
C10 C 0.8985(3) 0.68269(16) 0.15003(9)
H13 H 0.98850 0.65100 0.17130
C11 C 0.8738(3) 0.79182(16) 0.15258(9)
H14 H 0.94560 0.83480 0.17590
C12 C 0.7440(3) 0.83726(15) 0.12091(8)
H15 H 0.72750 0.91190 0.12190
C13 C 0.6379(2) 0.77396(14) 0.08769(8)
H16 H 0.54870 0.80590 0.06620
C14 C 0.2492(3) 0.25553(16) 0.18737(9)
H17 H 0.33800 0.28070 0.21380
H18 H 0.25530 0.17810 0.18420
H19 H 0.13760 0.27610 0.20240
C15 C 0.3936(4) 0.18682(17) 0.06454(10)
H20 H 0.34390 0.12710 0.08580
H21 H 0.49990 0.16420 0.04620
H22 H 0.31390 0.21080 0.03470
C16 C 0.3904(2) 0.56912(13) 0.19212(7)
C17 C 0.3338(2) 0.65941(14) 0.22967(7)
C18 C 0.2947(2) 0.63948(14) 0.28738(7)
H23 H 0.30430 0.57000 0.30300
C19 C 0.2415(2) 0.72327(15) 0.32144(7)
C20 C 0.2257(2) 0.82615(14) 0.30125(7)
H24 H 0.18680 0.88240 0.32530
C21 C 0.2701(2) 0.84211(14) 0.24409(7)
C22 C 0.3236(2) 0.76200(14) 0.20762(7)
H25 H 0.35260 0.77650 0.16850
#END
