
#######################################################################
#
#                 Cambridge Crystallographic Data Centre
#                                CCDC
#
#######################################################################
#
# If this CIF has been generated from an entry in the Cambridge
# Structural Database, then it will include bibliographic, chemical,
# crystal, experimental, refinement or atomic coordinate data resulting
# from the CCDC's data processing and validation procedures.
#
#######################################################################

data_CSD_CIF_EKEMEM
_audit_creation_date 2003-11-07
_audit_creation_method CSD-ConQuest-V1
_database_code_CSD EKEMEM
_database_code_depnum_ccdc_archive 'CCDC 221080'
_chemical_formula_sum 'C12 H12 N2 O5'
_chemical_formula_moiety
;
C12 H12 N2 O5
;
_journal_coeditor_code "IUCr SK1656"
_journal_coden_Cambridge 591
_journal_volume 59
_journal_year 2003
_journal_page_first o514
_journal_name_full 'Acta Crystallogr.,Sect.C:Cryst.Struct.Commun. '
loop_
_publ_author_name
"S.Thamotharan"
"V.Parthasarathi"
"R.Malik"
"D.P.Jindal"
"P.Piplani"
"A.Linden"
_chemical_name_systematic
;
1-(2-(4-Nitrophenoxy)acetyl)pyrrolidin-2-one
;
_chemical_melting_point 413
_cell_volume    582.175
_exptl_crystal_colour 'colorless'
_exptl_crystal_density_diffrn 1.507
_exptl_special_details
;
Melting point range 413-415K
potential antiamnesic agent

;
_exptl_crystal_description 'prism'
_exptl_crystal_preparation 'methanol'
_diffrn_ambient_temperature 160
#These two values have been output from a single CSD field.
_refine_ls_R_factor_gt 0.0427
_refine_ls_wR_factor_gt 0.0427
_symmetry_cell_setting triclinic
_symmetry_space_group_name_H-M 'P -1'
_symmetry_Int_Tables_number 2
loop_
_symmetry_equiv_pos_site_id
_symmetry_equiv_pos_as_xyz
1 x,y,z
2 -x,-y,-z
_cell_length_a 5.2813(1)
_cell_length_b 8.7367(2)
_cell_length_c 12.9843(3)
_cell_angle_alpha 80.4656(14)
_cell_angle_beta 81.4302(12)
_cell_angle_gamma 83.883(1)
_cell_formula_units_Z 2
loop_
_atom_type_symbol
_atom_type_radius_bond
C 0.68
H 0.23
N 0.68
O 0.68
loop_
_atom_site_label
_atom_site_type_symbol
_atom_site_fract_x
_atom_site_fract_y
_atom_site_fract_z
O1 O -0.15309(15) 0.34954(9) 0.54930(6)
O2 O -0.22285(16) 0.44936(10) 0.73114(6)
O3 O 0.42580(16) 0.1359(1) 0.71998(6)
O4 O 0.04202(18) 0.03989(11) 0.13850(7)
O5 O -0.28845(19) 0.20168(11) 0.10914(7)
N1 N 0.13145(17) 0.31977(10) 0.79120(7)
N2 N -0.12317(19) 0.14158(11) 0.16452(7)
C1 C -0.1311(2) 0.29202(12) 0.45630(8)
C2 C 0.0669(2) 0.18582(12) 0.42193(8)
H1 H 0.19830 0.14730 0.46450
C3 C 0.0712(2) 0.13667(12) 0.32514(9)
H2 H 0.20580 0.06520 0.30030
C4 C -0.1245(2) 0.19388(12) 0.26572(8)
C5 C -0.3230(2) 0.29975(12) 0.29858(8)
H3 H -0.45460 0.33720 0.25600
C6 C -0.3259(2) 0.34963(12) 0.39422(8)
H4 H -0.45930 0.42270 0.41790
C7 C 0.0375(2) 0.28918(13) 0.61578(8)
H5 H 0.20950 0.31720 0.58070
H6 H 0.04050 0.17430 0.63200
C8 C -0.0330(2) 0.36052(12) 0.71558(8)
C9 C 0.3410(2) 0.20721(12) 0.79208(8)
C10 C 0.4296(2) 0.19012(13) 0.89878(9)
H7 H 0.61960 0.17880 0.89250
H8 H 0.36140 0.09830 0.94580
C11 C 0.3218(2) 0.34010(13) 0.94052(9)
H9 H 0.44330 0.42190 0.91850
H10 H 0.28470 0.32230 1.01840
C12 C 0.0746(2) 0.38539(13) 0.89048(8)
H11 H -0.07410 0.33930 0.93610
H12 H 0.03860 0.50000 0.87680
#END
