
#######################################################################
#
#                 Cambridge Crystallographic Data Centre
#                                CCDC
#
#######################################################################
#
# If this CIF has been generated from an entry in the Cambridge
# Structural Database, then it will include bibliographic, chemical,
# crystal, experimental, refinement or atomic coordinate data resulting
# from the CCDC's data processing and validation procedures.
#
#######################################################################

data_CSD_CIF_EKUHUP
_audit_creation_date 2016-04-25
_audit_creation_method CSD-ConQuest-V1
_database_code_CSD EKUHUP
_database_code_depnum_ccdc_archive 'CCDC 1407653'
_chemical_formula_sum 'C16 H12 N2 O1'
_chemical_formula_moiety
;
C16 H12 N2 O1
;
_journal_coden_Cambridge 1490
_journal_volume 7
_journal_year 2016
_journal_page_first 11188
_journal_name_full 'Nat.Commun. '
loop_
_publ_author_name
"Xiao-Qiang Hu"
"Xiaotian Qi"
"Jia-Rong Chen"
"Quan-Qing Zhao"
"Qiang Wei"
"Yu Lan"
"Wen-Jing Xiao"
_chemical_name_systematic
;
3,5-diphenylpyridazine 1-oxide
;
_cell_volume   1290.936
_exptl_crystal_colour 'colorless'
_exptl_crystal_density_diffrn 1.277
_exptl_crystal_description 'block'
_diffrn_ambient_temperature 296
_refine_special_details
;
C25,N4 and C25',N4' disordered over two sites with occupancies 0.58:0.42; 
C8',N2' and C8,N2 disordered over two sites with occupancies 0.504:0.496.
;
#These two values have been output from a single CSD field.
_refine_ls_R_factor_gt 0.0654
_refine_ls_wR_factor_gt 0.0654
_symmetry_cell_setting triclinic
_symmetry_space_group_name_H-M 'P -1'
_symmetry_Int_Tables_number 2
loop_
_symmetry_equiv_pos_site_id
_symmetry_equiv_pos_as_xyz
1 x,y,z
2 -x,-y,-z
_cell_length_a 7.145(4)
_cell_length_b 7.145(4)
_cell_length_c 25.382(13)
_cell_angle_alpha 93.500(6)
_cell_angle_beta 93.500(6)
_cell_angle_gamma 90.03
_cell_formula_units_Z 4
loop_
_atom_type_symbol
_atom_type_radius_bond
C 0.68
H 0.23
N 0.68
O 0.68
loop_
_atom_site_label
_atom_site_type_symbol
_atom_site_fract_x
_atom_site_fract_y
_atom_site_fract_z
C1 C 0.3482(4) 0.1972(4) 0.09805(10)
C2 C 0.1738(4) 0.1159(4) 0.10030(12)
H1 H 0.10520 0.07820 0.06920
C3 C 0.0999(5) 0.0900(5) 0.14882(13)
H2 H -0.01730 0.03430 0.15000
C4 C 0.2005(6) 0.1469(5) 0.19514(14)
H3 H 0.15110 0.13040 0.22760
C5 C 0.3734(5) 0.2278(5) 0.19309(13)
H4 H 0.44170 0.26580 0.22430
C6 C 0.4467(4) 0.2533(4) 0.14525(12)
H5 H 0.56410 0.30890 0.14440
C7 C 0.4282(4) 0.2247(3) 0.04661(10)
N1 N 0.607(2) 0.221(2) 0.0453(4)
C8 C 0.613(3) 0.277(7) -0.0456(8)
H6 H 0.67700 0.29690 -0.07560
C9 C 0.4094(3) 0.2753(3) -0.04606(10)
C10 C 0.3189(4) 0.2492(3) 0.00006(10)
H7 H 0.18870 0.24810 -0.00020
C11 C 0.3057(4) 0.3025(4) -0.09788(10)
C12 C 0.3857(5) 0.2490(4) -0.14493(12)
H8 H 0.50380 0.19420 -0.14410
C13 C 0.2905(6) 0.2766(5) -0.19314(13)
H9 H 0.34430 0.23940 -0.22450
C14 C 0.1165(5) 0.3592(5) -0.19441(13)
H10 H 0.05350 0.37940 -0.22670
C15 C 0.0366(5) 0.4112(5) -0.14863(13)
H11 H -0.08170 0.46560 -0.14980
C16 C 0.1296(4) 0.3844(4) -0.09989(12)
H12 H 0.07380 0.42120 -0.06880
N2 N 0.6984(3) 0.2500(3) -0.00002(10)
O1 O 0.8750(3) 0.2489(4) 0.00009(9)
C17? C 0.633(3) 0.225(3) 0.0455(8)
H13? H 0.71060 0.20720 0.07550
N3? N 0.587(3) 0.276(5) -0.0456(7)
C18 C 0.1965(4) 0.6948(4) 0.59770(12)
C19 C 0.1201(5) 0.8731(5) 0.59973(14)
H14 H 0.08620 0.92950 0.56850
C20 C 0.0938(5) 0.9682(6) 0.64808(17)
H15 H 0.04090 1.08710 0.64920
C21 C 0.1464(7) 0.8857(9) 0.69426(17)
H16 H 0.13040 0.95050 0.72660
C22 C 0.2218(6) 0.7099(9) 0.69330(16)
H17 H 0.25610 0.65570 0.72480
C23 C 0.2471(5) 0.6127(6) 0.64558(14)
H18 H 0.29780 0.49280 0.64500
C24 C 0.2236(4) 0.5905(4) 0.54608(11)
C25 C 0.213(5) 0.386(3) 0.5474(9)
H19 H 0.18350 0.32290 0.57690
N4 N 0.282(2) 0.390(2) 0.4564(6)
C26 C 0.2764(4) 0.5713(4) 0.45394(11)
C27 C 0.2504(4) 0.6800(4) 0.49998(11)
H20 H 0.25080 0.81020 0.50000
C28 C 0.3043(4) 0.6530(4) 0.40241(12)
C29 C 0.2539(5) 0.5487(6) 0.35504(14)
H21 H 0.20280 0.42910 0.35570
C30 C 0.2810(6) 0.6255(8) 0.30698(16)
H22 H 0.24880 0.55640 0.27550
C31 C 0.3560(7) 0.8050(9) 0.30573(17)
H23 H 0.37220 0.85620 0.27350
C32 C 0.4057(5) 0.9061(6) 0.35200(17)
H24 H 0.45730 1.02530 0.35110
C33 C 0.3797(5) 0.8318(5) 0.40037(13)
H25 H 0.41290 0.90200 0.43160
N5 N 0.2506(4) 0.3003(3) 0.50010(11)
O2 O 0.2483(4) 0.1214(3) 0.50006(11)
N6? N 0.230(6) 0.414(3) 0.5434(9)
C34? C 0.273(4) 0.366(3) 0.4519(10)
H26? H 0.28500 0.29010 0.42120
#END
