
#######################################################################
#
#                 Cambridge Crystallographic Data Centre
#                                CCDC
#
#######################################################################
#
# If this CIF has been generated from an entry in the Cambridge
# Structural Database, then it will include bibliographic, chemical,
# crystal, experimental, refinement or atomic coordinate data resulting
# from the CCDC's data processing and validation procedures.
#
#######################################################################

data_CSD_CIF_EKUKEC
_audit_creation_date 2016-04-25
_audit_creation_method CSD-ConQuest-V1
_database_code_CSD EKUKEC
_database_code_depnum_ccdc_archive 'CCDC 1418748'
_chemical_formula_sum 'C4 H7 N5 O3'
_chemical_formula_moiety
;
C4 H7 N5 O3
;
_journal_coden_Cambridge 1290
_journal_year 2015
_journal_page_first 4628
_journal_name_full 'Eur.J.Inorg.Chem. '
loop_
_publ_author_name
"D.Fischer"
"T.M.Klapotke"
"J.Stierstorfer"
_chemical_name_systematic
;
1-((ethoxycarbonyl)oxy)-1H-tetrazol-5-amine
;
_cell_volume    780.816
_exptl_crystal_colour 'colorless'
_exptl_crystal_density_diffrn 1.473
_exptl_crystal_description 'plate'
_diffrn_ambient_temperature 173
#These two values have been output from a single CSD field.
_refine_ls_R_factor_gt 0.0358
_refine_ls_wR_factor_gt 0.0358
_symmetry_cell_setting monoclinic
_symmetry_space_group_name_H-M 'P 21'
_symmetry_Int_Tables_number 4
loop_
_symmetry_equiv_pos_site_id
_symmetry_equiv_pos_as_xyz
1 x,y,z
2 -x,1/2+y,-z
_cell_length_a 8.6849(6)
_cell_length_b 8.1983(5)
_cell_length_c 11.6084(7)
_cell_angle_alpha 90
_cell_angle_beta 109.146(7)
_cell_angle_gamma 90
_cell_formula_units_Z 4
loop_
_atom_type_symbol
_atom_type_radius_bond
C 0.68
H 0.23
N 0.68
O 0.68
loop_
_atom_site_label
_atom_site_type_symbol
_atom_site_fract_x
_atom_site_fract_y
_atom_site_fract_z
O1 O 0.2634(2) 0.2665(2) 0.14445(16)
O2 O 0.4414(3) 0.0563(3) 0.2193(2)
O3 O 0.4566(2) 0.2258(3) 0.06943(16)
N1 N 0.1888(3) 0.2109(3) 0.22484(19)
N2 N 0.2331(3) 0.2671(3) 0.3410(2)
N3 N 0.1412(3) 0.1869(3) 0.38809(19)
N4 N 0.0392(3) 0.0814(3) 0.30754(19)
N5 N 0.0037(3) 0.0209(4) 0.0982(2)
C1 C 0.0724(3) 0.0974(3) 0.2040(2)
C2 C 0.3996(3) 0.1681(3) 0.1519(2)
C3 C 0.5977(3) 0.1369(4) 0.0560(3)
H1 H 0.69700 0.17040 0.11900
H2 H 0.58380 0.02050 0.06350
C4 C 0.6075(5) 0.1752(6) -0.0650(3)
H3 H 0.51230 0.13410 -0.12680
H4 H 0.70300 0.12540 -0.07380
H5 H 0.61340 0.29130 -0.07360
H6 H -0.054(4) -0.053(5) 0.097(3)
H7 H 0.045(5) 0.031(5) 0.043(3)
O4 O 0.8891(2) 0.4415(2) 0.39856(16)
O5 O 0.6152(3) 0.3976(3) 0.3203(2)
O6 O 0.7807(3) 0.2773(4) 0.49243(19)
N6 N 0.8719(3) 0.5280(3) 0.29370(19)
N7 N 0.8883(3) 0.4522(3) 0.1948(2)
N8 N 0.8867(3) 0.5696(3) 0.1207(2)
N9 N 0.8719(3) 0.7193(3) 0.16871(19)
N10 N 0.8434(3) 0.7987(3) 0.3594(2)
C5 C 0.8638(3) 0.6905(3) 0.2800(2)
C6 C 0.7411(3) 0.3706(4) 0.3963(2)
C7 C 0.6469(5) 0.1900(8) 0.5180(3)
H8 H 0.54320 0.22920 0.46350
H9 H 0.65450 0.07440 0.50290
C8 C 0.6532(8) 0.2128(10) 0.6354(5)
H10 H 0.76380 0.20150 0.68850
H11 H 0.58620 0.13290 0.65650
H12 H 0.61420 0.32010 0.64430
H13 H 0.864(4) 0.760(5) 0.430(3)
H14 H 0.892(4) 0.906(5) 0.352(3)
#END
