
#######################################################################
#
#                 Cambridge Crystallographic Data Centre
#                                CCDC
#
#######################################################################
#
# If this CIF has been generated from an entry in the Cambridge
# Structural Database, then it will include bibliographic, chemical,
# crystal, experimental, refinement or atomic coordinate data resulting
# from the CCDC's data processing and validation procedures.
#
#######################################################################

data_CSD_CIF_EKUMOM01
_audit_creation_date 2004-04-07
_audit_creation_method CSD-ConQuest-V1
_database_code_CSD EKUMOM01
_database_code_depnum_ccdc_archive 'CCDC 228241'
_chemical_formula_sum 'C12 H13 N5 O6'
_chemical_formula_moiety
;
C12 H13 N5 O6
;
_journal_coeditor_code "IUCr HB6002"
_journal_coden_Cambridge 1370
_journal_volume 59
_journal_year 2003
_journal_page_first o1956
_journal_name_full 'Acta Crystallogr.,Sect.E:Struct.Rep.Online '
loop_
_publ_author_name
"De-Suo Yang"
"Yi-Zhi Li"
"Long-Min Wu"
_chemical_name_systematic
;
(2,4-Dinitrophenyl)-(1-nitrocyclohexyl)diazene
;
_cell_volume   1477.791
_exptl_crystal_colour 'colorless'
_exptl_crystal_density_diffrn 1.453
_exptl_crystal_description 'block'
_exptl_crystal_preparation 'hexane/ethyl acetate'
_diffrn_ambient_temperature 293
_refine_special_details
;
The O atoms of one nitro group are disordered over two positions with 
occupancies of 0.57:0.43.
;
#These two values have been output from a single CSD field.
_refine_ls_R_factor_gt 0.0487
_refine_ls_wR_factor_gt 0.0487
_symmetry_cell_setting monoclinic
_symmetry_space_group_name_H-M 'P 21/c'
_symmetry_Int_Tables_number 14
loop_
_symmetry_equiv_pos_site_id
_symmetry_equiv_pos_as_xyz
1 x,y,z
2 x,1/2-y,1/2+z
3 -x,-y,-z
4 -x,-1/2+y,-1/2-z
_cell_length_a 11.282(2)
_cell_length_b 13.033(2)
_cell_length_c 10.162(1)
_cell_angle_alpha 90
_cell_angle_beta 98.50(1)
_cell_angle_gamma 90
_cell_formula_units_Z 4
loop_
_atom_type_symbol
_atom_type_radius_bond
C 0.68
H 0.23
N 0.68
O 0.68
loop_
_atom_site_label
_atom_site_type_symbol
_atom_site_fract_x
_atom_site_fract_y
_atom_site_fract_z
O1 O 0.87669(17) 0.54489(16) 0.68623(19)
O2 O 0.99002(17) 0.43034(16) 0.61948(18)
O3 O 0.8410(3) 0.2309(3) 0.2173(4)
O4 O 0.6653(12) 0.2008(12) 0.2082(15)
O5 O 0.44840(17) 0.38398(16) -0.11070(19)
O6 O 0.42954(17) 0.23316(16) -0.03275(19)
N1 N 0.8956(2) 0.47701(18) 0.6106(2)
N2 N 0.7499(3) 0.2595(2) 0.2345(3)
N3 N 0.53801(19) 0.37311(16) 0.18282(19)
N4 N 0.43320(19) 0.39521(16) 0.1931(2)
N5 N 0.4121(2) 0.3253(2) -0.0332(2)
C1 C 0.7287(2) 0.3460(2) 0.3192(2)
C2 C 0.8196(2) 0.3708(2) 0.4202(2)
H1 H 0.89140 0.33460 0.43270
C3 C 0.7997(2) 0.45060(19) 0.5016(2)
C4 C 0.6952(2) 0.5062(2) 0.4842(2)
H2 H 0.68410 0.55960 0.54180
C5 C 0.6069(2) 0.48164(19) 0.3802(2)
H3 H 0.53690 0.52020 0.36570
C6 C 0.6217(2) 0.39975(18) 0.2974(2)
C7 C 0.3451(2) 0.37087(19) 0.0750(2)
C8 C 0.2587(2) 0.2917(2) 0.1167(3)
H4 H 0.22930 0.31520 0.19650
H5 H 0.30120 0.22770 0.13750
C9 C 0.1530(3) 0.2728(2) 0.0077(3)
H6 H 0.18100 0.24010 -0.06780
H7 H 0.09670 0.22660 0.04080
C10 C 0.0898(3) 0.3727(2) -0.0369(3)
H8 H 0.02490 0.35890 -0.10850
H9 H 0.05560 0.40230 0.03660
C11 C 0.1763(3) 0.4485(2) -0.0842(3)
H10 H 0.13470 0.51230 -0.10940
H11 H 0.20580 0.42120 -0.16200
C12 C 0.2819(2) 0.4694(2) 0.0255(3)
H12 H 0.33860 0.51460 -0.00860
H13 H 0.25310 0.50380 0.09920
O7? O 0.8133(4) 0.2856(4) 0.1471(5)
O8? O 0.7004(15) 0.1817(16) 0.2363(19)
#END
