
#######################################################################
#
#                 Cambridge Crystallographic Data Centre
#                                CCDC
#
#######################################################################
#
# If this CIF has been generated from an entry in the Cambridge
# Structural Database, then it will include bibliographic, chemical,
# crystal, experimental, refinement or atomic coordinate data resulting
# from the CCDC's data processing and validation procedures.
#
#######################################################################

data_CSD_CIF_ELARIU
_audit_creation_date 2016-04-25
_audit_creation_method CSD-ConQuest-V1
_database_code_CSD ELARIU
_database_code_depnum_ccdc_archive 'CCDC 1427573'
_chemical_formula_sum 'C9 H11 N1 O2'
_chemical_formula_moiety
;
C9 H11 N1 O2
;
_journal_coden_Cambridge 151
_journal_volume 59
_journal_year 2016
_journal_page_first 3183
_journal_name_full 'J.Med.Chem. '
loop_
_publ_author_name
"P.Lassalas"
"Bryant Gay"
"C.Lasfargeas"
"M.J.James"
"Van Tran"
"K.G.Vijayendran"
"K.R.Brunden"
"M.C.Kozlowski"
"C.J.Thomas"
"A.B.Smith III"
"D.M.Huryn"
"C.Ballatore"
_chemical_name_systematic
;
N-hydroxy-3-phenylpropanamide
;
_cell_volume   1675.663
_exptl_crystal_density_diffrn 1.31
_exptl_crystal_description 'plate'
_diffrn_ambient_temperature 100
#These two values have been output from a single CSD field.
_refine_ls_R_factor_gt 0.0952
_refine_ls_wR_factor_gt 0.0952
_symmetry_cell_setting monoclinic
_symmetry_space_group_name_H-M 'P 21/c'
_symmetry_Int_Tables_number 14
loop_
_symmetry_equiv_pos_site_id
_symmetry_equiv_pos_as_xyz
1 x,y,z
2 -x,1/2+y,1/2-z
3 -x,-y,-z
4 x,-1/2-y,-1/2+z
_cell_length_a 8.5765(7)
_cell_length_b 5.1612(4)
_cell_length_c 37.856(4)
_cell_angle_alpha 90
_cell_angle_beta 90.365(4)
_cell_angle_gamma 90
_cell_formula_units_Z 8
loop_
_atom_type_symbol
_atom_type_radius_bond
C 0.68
H 0.23
N 0.68
O 0.68
loop_
_atom_site_label
_atom_site_type_symbol
_atom_site_fract_x
_atom_site_fract_y
_atom_site_fract_z
O1 O 0.8944(4) 0.9256(6) 0.23598(9)
H1 H 0.94060 0.81400 0.22470
O2 O 0.9621(4) 1.0867(7) 0.30297(9)
N1 N 0.8318(4) 0.8159(8) 0.26626(10)
H2 H 0.76820 0.68790 0.26430
C1 C 0.8674(5) 0.9027(10) 0.29736(13)
C2 C 0.7830(5) 0.7735(10) 0.32740(13)
H3 H 0.72830 0.62250 0.31840
H4 H 0.70560 0.89240 0.33660
C3 C 0.8904(5) 0.6900(12) 0.35740(13)
H5 H 0.96370 0.56280 0.34860
H6 H 0.94970 0.83890 0.36550
C4 C 0.8041(5) 0.5758(10) 0.38820(13)
C5 C 0.7035(6) 0.3669(11) 0.38329(15)
H7 H 0.68830 0.29910 0.36080
C6 C 0.6269(6) 0.2608(12) 0.41135(16)
H8 H 0.56110 0.12020 0.40750
C7 C 0.6437(5) 0.3537(11) 0.44444(15)
H9 H 0.58970 0.27980 0.46310
C8 C 0.7417(7) 0.5584(12) 0.44991(15)
H10 H 0.75570 0.62470 0.47260
C9 C 0.8208(6) 0.6683(12) 0.42153(15)
H11 H 0.88660 0.80860 0.42560
O3 O 0.6217(4) 0.3952(7) 0.25521(9)
H12 H 0.56990 0.28970 0.26630
O4 O 0.5248(4) 0.6359(7) 0.19716(9)
N2 N 0.6513(4) 0.2997(8) 0.22191(10)
H13 H 0.69710 0.15290 0.21920
C10 C 0.6078(5) 0.4386(10) 0.19438(13)
C11 C 0.6587(5) 0.3443(9) 0.15878(12)
H14 H 0.56990 0.27120 0.14630
H15 H 0.73610 0.20880 0.16170
C12 C 0.7272(5) 0.564(1) 0.13722(13)
H16 H 0.65580 0.70950 0.13830
H17 H 0.82360 0.61800 0.14850
C13 C 0.7611(5) 0.5105(9) 0.09899(13)
C14 C 0.6948(5) 0.3035(10) 0.08032(14)
H18 H 0.63330 0.18360 0.09220
C15 C 0.7198(6) 0.2754(10) 0.04457(14)
H19 H 0.67370 0.13840 0.03240
C16 C 0.8136(6) 0.4510(11) 0.02650(14)
H20 H 0.83010 0.43260 0.00240
C17 C 0.8813(5) 0.6516(10) 0.04486(14)
H21 H 0.94480 0.76860 0.03310
C18 C 0.8563(5) 0.6814(10) 0.08043(13)
H22 H 0.90380 0.81810 0.09240
#END
