
#######################################################################
#
#                 Cambridge Crystallographic Data Centre
#                                CCDC
#
#######################################################################
#
# If this CIF has been generated from an entry in the Cambridge
# Structural Database, then it will include bibliographic, chemical,
# crystal, experimental, refinement or atomic coordinate data resulting
# from the CCDC's data processing and validation procedures.
#
#######################################################################

data_CSD_CIF_ELATOC
_audit_creation_date 2016-04-25
_audit_creation_method CSD-ConQuest-V1
_database_code_CSD ELATOC
_database_code_depnum_ccdc_archive 'CCDC 1428038'
_chemical_formula_sum 'C10 H10 N2 O2'
_chemical_formula_moiety
;
C10 H10 N2 O2
;
_journal_coden_Cambridge 151
_journal_volume 59
_journal_year 2016
_journal_page_first 3183
_journal_name_full 'J.Med.Chem. '
loop_
_publ_author_name
"P.Lassalas"
"Bryant Gay"
"C.Lasfargeas"
"M.J.James"
"Van Tran"
"K.G.Vijayendran"
"K.R.Brunden"
"M.C.Kozlowski"
"C.J.Thomas"
"A.B.Smith III"
"D.M.Huryn"
"C.Ballatore"
_chemical_name_systematic
;
3-(2-phenylethyl)-1,2,4-oxadiazol-5(4H)-one
;
_cell_volume   1831.347
_exptl_crystal_density_diffrn 1.38
_diffrn_ambient_temperature 100
#These two values have been output from a single CSD field.
_refine_ls_R_factor_gt 0.056
_refine_ls_wR_factor_gt 0.056
_symmetry_cell_setting monoclinic
_symmetry_space_group_name_H-M 'P 21/n'
_symmetry_Int_Tables_number 14
loop_
_symmetry_equiv_pos_site_id
_symmetry_equiv_pos_as_xyz
1 x,y,z
2 1/2-x,1/2+y,1/2-z
3 -x,-y,-z
4 -1/2+x,-1/2-y,-1/2+z
_cell_length_a 7.9823(4)
_cell_length_b 5.9450(3)
_cell_length_c 38.598(2)
_cell_angle_alpha 90
_cell_angle_beta 91.058(3)
_cell_angle_gamma 90
_cell_formula_units_Z 8
loop_
_atom_type_symbol
_atom_type_radius_bond
C 0.68
H 0.23
N 0.68
O 0.68
loop_
_atom_site_label
_atom_site_type_symbol
_atom_site_fract_x
_atom_site_fract_y
_atom_site_fract_z
C1 C 0.7902(3) 0.9573(4) 0.40116(6)
C2 C 0.7096(3) 0.9073(4) 0.36968(6)
H1 H 0.65050 0.77330 0.36730
C3 C 0.7168(3) 1.0545(5) 0.34212(6)
H2 H 0.66340 1.01850 0.32120
C4 C 0.8028(3) 1.2547(5) 0.34541(6)
H3 H 0.80750 1.35390 0.32680
C5 C 0.8819(3) 1.3073(4) 0.37656(6)
H4 H 0.94010 1.44220 0.37890
C6 C 0.8751(3) 1.1610(4) 0.40422(6)
H5 H 0.92780 1.19880 0.42510
C7 C 0.7926(3) 0.7846(4) 0.42994(6)
H6 H 0.89750 0.70260 0.42920
H7 H 0.70280 0.67770 0.42560
C8 C 0.7734(3) 0.8806(4) 0.46617(6)
H8 H 0.85830 0.99480 0.47020
H9 H 0.66450 0.95180 0.46780
C9 C 0.7897(3) 0.7037(4) 0.49325(6)
C10 C 0.7400(3) 0.3924(4) 0.52199(6)
N1 N 0.7032(2) 0.5057(3) 0.49255(5)
H10 H 0.63670 0.46100 0.47620
N2 N 0.8861(3) 0.7208(4) 0.52034(5)
O1 O 0.8550(2) 0.5172(3) 0.53962(4)
O2 O 0.6862(2) 0.2151(3) 0.53236(4)
C11 C 0.6895(3) 0.1424(4) 0.70174(6)
C12 C 0.6397(3) -0.0174(4) 0.72552(6)
H11 H 0.69460 -0.15520 0.72670
C13 C 0.5081(3) 0.0263(5) 0.74769(6)
H12 H 0.47620 -0.08180 0.76370
C14 C 0.4250(3) 0.2293(5) 0.74602(6)
H13 H 0.33680 0.25830 0.76080
C15 C 0.4732(3) 0.3891(4) 0.72234(6)
H14 H 0.41720 0.52620 0.72110
C16 C 0.6051(3) 0.3463(4) 0.70027(6)
H15 H 0.63700 0.45520 0.68440
C17 C 0.8391(3) 0.1015(5) 0.67895(6)
H16 H 0.87910 -0.05050 0.68300
H17 H 0.92810 0.20370 0.68600
C18 C 0.8049(3) 0.1316(4) 0.64002(6)
H18 H 0.74240 0.26980 0.63640
H19 H 0.91110 0.14740 0.62840
C19 C 0.7100(3) -0.0570(4) 0.62375(6)
C20 C 0.5762(3) -0.2503(4) 0.58335(6)
N3 N 0.6571(2) -0.0560(3) 0.58981(5)
H20 H 0.67300 0.05050 0.57520
N4 N 0.6686(2) -0.2387(4) 0.63933(5)
O3 O 0.5805(2) -0.3695(3) 0.61321(4)
O4 O 0.5095(2) -0.3176(3) 0.55678(4)
#END
