
#######################################################################
#
#                 Cambridge Crystallographic Data Centre
#                                CCDC
#
#######################################################################
#
# If this CIF has been generated from an entry in the Cambridge
# Structural Database, then it will include bibliographic, chemical,
# crystal, experimental, refinement or atomic coordinate data resulting
# from the CCDC's data processing and validation procedures.
#
#######################################################################

data_CSD_CIF_ELEJUB
_audit_creation_date 2011-05-12
_audit_creation_method CSD-ConQuest-V1
_database_code_CSD ELEJUB
_database_code_depnum_ccdc_archive 'CCDC 712154'
_chemical_formula_sum 'C16 H16 N2 O4'
_chemical_formula_moiety
;
C16 H16 N2 O4
;
_journal_coden_Cambridge 440
_journal_volume 35
_journal_year 2011
_journal_page_first 156
_journal_name_full 'New J.Chem. '
loop_
_publ_author_name
"O.Dominguez"
"B.Rodriguez-Molina"
"M.Rodriguez"
"A.Ariza"
"N.Farfan"
"R.Santillan"
_chemical_name_systematic
;
2-(((1S,2R)-(1-Hydroxy-1-phenylpropan-2-yl)iminio)methyl)-4-nitrophenolate
;
_cell_volume    764.379
_exptl_crystal_colour 'yellow'
_exptl_crystal_density_diffrn 1.305
_exptl_crystal_description 'prism'
_diffrn_ambient_temperature 293
#These two values have been output from a single CSD field.
_refine_ls_R_factor_gt 0.0613
_refine_ls_wR_factor_gt 0.0613
_symmetry_cell_setting triclinic
_symmetry_space_group_name_H-M 'P 1'
_symmetry_Int_Tables_number 1
loop_
_symmetry_equiv_pos_site_id
_symmetry_equiv_pos_as_xyz
1 x,y,z
_cell_length_a 6.1083(2)
_cell_length_b 10.3445(4)
_cell_length_c 12.3439(5)
_cell_angle_alpha 93.254(2)
_cell_angle_beta 100.417(2)
_cell_angle_gamma 92.940(2)
_cell_formula_units_Z 2
loop_
_atom_type_symbol
_atom_type_radius_bond
C 0.68
H 0.23
N 0.68
O 0.68
loop_
_atom_site_label
_atom_site_type_symbol
_atom_site_fract_x
_atom_site_fract_y
_atom_site_fract_z
H1 H 0.703(4) 0.725(4) 0.454(3)
H2 H 1.472(9) 1.489(5) 0.740(4)
H3 H 0.884(11) 0.674(7) 0.707(6)
H4 H 1.436(11) 1.491(6) 0.510(6)
C1 C 1.6254(7) 1.6552(4) 0.8845(3)
C2 C 1.7464(7) 1.7573(4) 0.9587(4)
H5 H 1.88320 1.79050 0.94600
C3 C 1.6656(7) 1.8064(4) 1.0469(3)
H6 H 1.74770 1.87220 1.09370
C4 C 1.4587(6) 1.7586(4) 1.0679(3)
C5 C 1.3351(6) 1.6618(4) 1.0004(3)
H7 H 1.19890 1.63080 1.01540
C6 C 1.4136(6) 1.6093(4) 0.9086(3)
C7 C 1.2800(7) 1.5089(4) 0.8384(3)
H8 H 1.14480 1.47990 0.85580
C8 C 1.2225(8) 1.3529(4) 0.6751(3)
H9 H 1.07130 1.33680 0.68960
C9 C 1.2116(7) 1.4017(4) 0.5592(3)
H10 H 1.12150 1.47750 0.55210
C10 C 1.1118(4) 1.2980(3) 0.4698(2)
C11 C 1.2504(4) 1.2177(3) 0.4232(3)
H11 H 1.40410 1.22770 0.44680
C12 C 1.1592(5) 1.1223(3) 0.3412(3)
H12 H 1.25190 1.06860 0.31000
C13 C 0.9295(6) 1.1073(4) 0.3060(3)
H13 H 0.86850 1.04350 0.25110
C14 C 0.7909(4) 1.1876(5) 0.3526(4)
H14 H 0.63720 1.17760 0.32900
C15 C 0.8821(4) 1.2829(4) 0.4345(3)
H15 H 0.78940 1.33670 0.46580
C16 C 1.3491(12) 1.2323(5) 0.6915(5)
H16 H 1.37620 1.21570 0.76840
H17 H 1.48880 1.24430 0.66700
H18 H 1.26300 1.16000 0.64960
N1 N 1.3772(6) 1.8134(3) 1.1619(3)
N2 N 1.3406(6) 1.4576(3) 0.7520(3)
O1 O 1.7017(5) 1.6082(3) 0.8028(3)
O2 O 1.4354(5) 1.4400(3) 0.5536(3)
O3 O 1.1932(6) 1.7747(3) 1.1777(3)
O4 O 1.4968(6) 1.8934(4) 1.2262(4)
C17 C 0.5348(6) 0.5592(4) 0.3168(3)
C18 C 0.4055(7) 0.4582(4) 0.2459(4)
H19 H 0.26760 0.42940 0.26030
C19 C 0.4794(7) 0.4040(4) 0.1586(4)
H20 H 0.39190 0.33860 0.11350
C20 C 0.6860(7) 0.4449(4) 0.1352(3)
C21 C 0.8225(6) 0.5396(4) 0.2017(3)
H21 H 0.96120 0.56440 0.18600
C22 C 0.7502(6) 0.5978(4) 0.2929(3)
C23 C 0.8967(6) 0.6921(4) 0.3643(3)
H22 H 1.03900 0.71090 0.35010
C24 C 0.9648(7) 0.8448(4) 0.5323(3)
H23 H 0.91690 0.93170 0.51630
C25 C 0.8985(6) 0.8104(3) 0.6417(3)
H24 H 0.73520 0.80170 0.62990
C26 C 0.9772(4) 0.9144(2) 0.73415(19)
C27 C 1.1817(4) 0.9106(3) 0.8045(2)
H25 H 1.27700 0.84600 0.79290
C28 C 1.2437(5) 1.0033(3) 0.8922(2)
H26 H 1.38050 1.00070 0.93930
C29 C 1.1013(6) 1.0998(3) 0.9096(2)
H27 H 1.14280 1.16180 0.96830
C30 C 0.8969(6) 1.1037(3) 0.8393(3)
H28 H 0.80160 1.16830 0.85090
C31 C 0.8348(4) 1.0110(3) 0.7515(3)
H29 H 0.69800 1.01360 0.70440
C32 C 1.2133(7) 0.8442(5) 0.5325(4)
H30 H 1.26260 0.75900 0.54590
H31 H 1.29200 0.90530 0.58950
H32 H 1.24240 0.86800 0.46220
N3 N 0.7605(6) 0.3873(4) 0.0390(3)
N4 N 0.8366(6) 0.7510(3) 0.4468(3)
O5 O 0.4618(5) 0.6144(3) 0.3983(2)
O6 O 0.9780(5) 0.6878(3) 0.6657(3)
O7 O 0.6301(6) 0.3114(4) -0.0234(3)
O8 O 0.9473(6) 0.4176(4) 0.0223(3)
#END
