
#######################################################################
#
#                 Cambridge Crystallographic Data Centre
#                                CCDC
#
#######################################################################
#
# If this CIF has been generated from an entry in the Cambridge
# Structural Database, then it will include bibliographic, chemical,
# crystal, experimental, refinement or atomic coordinate data resulting
# from the CCDC's data processing and validation procedures.
#
#######################################################################

data_CSD_CIF_ELEJUB01
_audit_creation_date 2012-11-16
_audit_creation_method CSD-ConQuest-V1
_database_code_CSD ELEJUB01
_database_code_depnum_ccdc_archive 'CCDC 727008'
_chemical_formula_sum 'C16 H16 N2 O4'
_chemical_formula_moiety
;
C16 H16 N2 O4
;
_journal_coden_Cambridge 973
_journal_volume 79
_journal_year 2011
_journal_page_first 177
_journal_name_full 'Chem.Biol.Drug.Des. '
loop_
_publ_author_name
"M.M.Tamizh"
"D.Kesavan"
"P.M.Sivakumar"
"K.Mereiter"
"M.Deepa"
"K.Kirchner"
"M.Doble"
"R.Karvembu"
_chemical_name_systematic
;
6-(((1-Hydroxy-1-phenylpropan-2-yl)amino)methylene)-4-nitrocyclohexa-2,4-dien-
1-one
;
_cell_volume    740.771
_exptl_crystal_colour 'yellow'
_exptl_crystal_density_diffrn 1.346
_exptl_crystal_description 'block'
_diffrn_ambient_temperature 100
#These two values have been output from a single CSD field.
_refine_ls_R_factor_gt 0.0321
_refine_ls_wR_factor_gt 0.0321
_symmetry_cell_setting triclinic
_symmetry_space_group_name_H-M 'P 1'
_symmetry_Int_Tables_number 1
loop_
_symmetry_equiv_pos_site_id
_symmetry_equiv_pos_as_xyz
1 x,y,z
_cell_length_a 6.0305(5)
_cell_length_b 10.2143(9)
_cell_length_c 12.2730(11)
_cell_angle_alpha 92.325(1)
_cell_angle_beta 100.757(1)
_cell_angle_gamma 92.917(1)
_cell_formula_units_Z 2
loop_
_atom_type_symbol
_atom_type_radius_bond
C 0.68
H 0.23
N 0.68
O 0.68
loop_
_atom_site_label
_atom_site_type_symbol
_atom_site_fract_x
_atom_site_fract_y
_atom_site_fract_z
O1 O 0.62410(13) 0.49127(7) 0.70198(6)
O2 O 0.35392(12) 0.32982(7) 0.45213(6)
H1 H 0.35490 0.38190 0.40100
N1 N 0.25771(14) 0.34211(8) 0.65206(7)
H2 H 0.386(2) 0.3727(16) 0.6397(14)
C1 C 0.54754(15) 0.54031(9) 0.78404(7)
C2 C 0.66944(16) 0.64354(9) 0.85643(8)
H3 H 0.80990 0.67820 0.84230
C3 C 0.58912(16) 0.69367(9) 0.94551(8)
H4 H 0.67480 0.76130 0.99300
C4 C 0.37974(15) 0.64517(9) 0.96689(7)
C5 C 0.25149(15) 0.54680(8) 0.89957(7)
H5 H 0.10990 0.51550 0.91480
C6 C 0.33223(14) 0.49357(9) 0.80854(7)
C7 C 0.19462(16) 0.39322(9) 0.73852(8)
H6 H 0.05410 0.36370 0.75600
C8 C 0.2663(2) 0.11439(10) 0.59219(9)
H7 H 0.41370 0.12810 0.57040
H8 H 0.17990 0.04110 0.54680
H9 H 0.28850 0.09420 0.67070
C9 C 0.13698(16) 0.23849(9) 0.57449(8)
H10 H -0.01970 0.22210 0.58890
C10 C 0.12683(15) 0.28983(9) 0.45706(8)
H11 H 0.03250 0.36780 0.44890
C11 C 0.02776(15) 0.18595(9) 0.36714(7)
C12 C 0.16832(17) 0.10152(10) 0.32379(9)
H12 H 0.32670 0.10910 0.35150
C13 C 0.07935(19) 0.00639(11) 0.24052(9)
H13 H 0.17650 -0.05040 0.21150
C14 C -0.1518(2) -0.00512(12) 0.20023(9)
H14 H -0.21340 -0.07010 0.14360
C15 C -0.29327(19) 0.07837(12) 0.24272(10)
H15 H -0.45160 0.07040 0.21490
C16 C -0.20387(17) 0.17399(10) 0.32605(9)
H16 H -0.30130 0.23090 0.35470
N2 N 0.29616(13) 0.70051(8) 1.06044(7)
O3 O 0.41879(15) 0.78299(9) 1.12369(8)
O4 O 0.10669(12) 0.66338(8) 1.07542(6)
O5 O 0.37600(12) 0.50878(7) 0.29788(6)
O6 O 0.90253(12) 0.57622(7) 0.56610(6)
H17 H 0.83890 0.54420 0.61510
N3 N 0.75467(14) 0.64507(8) 0.34506(6)
H18 H 0.614(2) 0.6264(17) 0.3459(15)
C17 C 0.44984(15) 0.45193(9) 0.21729(7)
C18 C 0.31859(15) 0.34824(9) 0.14913(8)
H19 H 0.17760 0.31820 0.16580
C19 C 0.39163(16) 0.29126(10) 0.06044(8)
H20 H 0.30020 0.22380 0.01520
C20 C 0.60264(15) 0.33285(9) 0.03647(8)
C21 C 0.74116(15) 0.42880(9) 0.10152(7)
H21 H 0.88450 0.45410 0.08490
C22 C 0.66853(15) 0.48869(9) 0.19242(7)
C23 C 0.81899(16) 0.58371(9) 0.26303(8)
H22 H 0.96720 0.60170 0.24940
C24 C 1.14097(16) 0.73578(10) 0.43231(9)
H23 H 1.19170 0.64820 0.45010
H24 H 1.22200 0.80060 0.48870
H25 H 1.17210 0.75720 0.35930
C25 C 0.88832(15) 0.73778(9) 0.43043(7)
H26 H 0.84040 0.82830 0.41400
C26 C 0.81976(15) 0.70073(9) 0.54077(7)
H27 H 0.65090 0.69130 0.52800
C27 C 0.89797(15) 0.80397(9) 0.63409(7)
C28 C 1.10548(17) 0.80019(9) 0.70612(8)
H28 H 1.20570 0.73430 0.69480
C29 C 1.1664(2) 0.89270(11) 0.79476(9)
H29 H 1.30850 0.88980 0.84320
C30 C 1.0210(2) 0.98894(12) 0.81266(10)
H30 H 1.06190 1.05060 0.87410
C31 C 0.8158(2) 0.99472(13) 0.74046(10)
H31 H 0.71690 1.06140 0.75140
C32 C 0.75511(17) 0.90236(11) 0.65175(9)
H32 H 0.61420 0.90660 0.60260
N4 N 0.67339(14) 0.27367(8) -0.05951(7)
O7 O 0.53848(15) 0.19603(9) -0.12113(7)
O8 O 0.86421(13) 0.30391(8) -0.07683(7)
#END
