
#######################################################################
#
#                 Cambridge Crystallographic Data Centre
#                                CCDC
#
#######################################################################
#
# If this CIF has been generated from an entry in the Cambridge
# Structural Database, then it will include bibliographic, chemical,
# crystal, experimental, refinement or atomic coordinate data resulting
# from the CCDC's data processing and validation procedures.
#
#######################################################################

data_CSD_CIF_ELENUG
_audit_creation_date 2016-04-25
_audit_creation_method CSD-ConQuest-V1
_database_code_CSD ELENUG
_database_code_depnum_ccdc_archive 'CCDC 883297'
_chemical_formula_sum 'C16 H25 N1 O7'
_chemical_formula_moiety
;
C16 H25 N1 O7
;
_journal_coden_Cambridge 1088
_journal_volume 25
_journal_year 2014
_journal_page_first 1616
_journal_name_full 'Synlett '
loop_
_publ_author_name
"D.Benadikova"
"M.Medvecky"
"A.Filipova"
"Jan Moncol"
"M.Gembicky"
"N.Pronayova"
"R.Fischer"
_chemical_name_systematic
;
4-(2,2-dimethyl-1,3-dioxolan-4-yl)-2,2-dimethylhexahydro[1,3]dioxolo[3,4]pyrro
lo[1,2-b][1,2]oxazol-7-yl acetate
;
_cell_volume    881.879
_exptl_crystal_colour 'colorless'
_exptl_crystal_density_diffrn 1.293
_exptl_special_details
;
Absolute configuration

;
_exptl_crystal_description 'block'
_diffrn_ambient_temperature 100
#These two values have been output from a single CSD field.
_refine_ls_R_factor_gt 0.0255
_refine_ls_wR_factor_gt 0.0255
_symmetry_cell_setting monoclinic
_symmetry_space_group_name_H-M 'P 21'
_symmetry_Int_Tables_number 4
loop_
_symmetry_equiv_pos_site_id
_symmetry_equiv_pos_as_xyz
1 x,y,z
2 -x,1/2+y,-z
_cell_length_a 8.6080(5)
_cell_length_b 9.8530(6)
_cell_length_c 10.6720(6)
_cell_angle_alpha 90
_cell_angle_beta 103.018(2)
_cell_angle_gamma 90
_cell_formula_units_Z 2
loop_
_atom_type_symbol
_atom_type_radius_bond
C 0.68
H 0.23
N 0.68
O 0.68
loop_
_atom_site_label
_atom_site_type_symbol
_atom_site_fract_x
_atom_site_fract_y
_atom_site_fract_z
O1 O -0.00847(11) 0.13355(11) 0.27423(9)
O2 O -0.13880(11) 0.37312(12) 0.09233(9)
O3 O -0.24041(11) 0.37935(12) 0.26903(9)
O4 O 0.23364(11) 0.48725(12) 0.46231(9)
O5 O 0.40475(11) 0.34219(12) 0.58585(10)
O6 O 0.16537(11) -0.01712(12) 0.20487(9)
O7 O -0.03272(12) -0.17090(13) 0.18494(11)
N1 N 0.10870(14) 0.23904(13) 0.33722(11)
C1 C 0.04874(17) 0.09049(16) 0.16869(14)
C2 C 0.13444(18) 0.20991(16) 0.12397(14)
C3 C 0.12845(16) 0.31900(16) 0.22417(13)
C4 C -0.01040(16) 0.42086(15) 0.19134(13)
C5 C -0.08082(16) 0.42602(15) 0.31243(13)
C6 C 0.01843(15) 0.32618(15) 0.40848(13)
C7 C 0.13442(16) 0.39837(15) 0.51662(13)
C8 C 0.25228(16) 0.30493(16) 0.60626(13)
C9 C 0.39119(17) 0.47877(16) 0.54227(14)
C10 C 0.51242(18) 0.50224(17) 0.46224(16)
C11 C 0.4085(2) 0.57715(18) 0.65420(17)
C12 C -0.28269(16) 0.39860(16) 0.13382(13)
C13 C -0.34071(18) 0.54213(17) 0.10141(16)
C14 C -0.40410(19) 0.29313(17) 0.07581(15)
C15 C 0.10719(17) -0.14462(16) 0.20718(13)
C16 C 0.23862(19) -0.24666(17) 0.23877(17)
H1 H -0.04130 0.05940 0.09800
H2 H 0.07860 0.24020 0.03690
H3 H 0.24580 0.18620 0.12280
H4 H 0.23220 0.36910 0.24550
H5 H 0.02710 0.51240 0.17020
H6 H -0.07700 0.51990 0.34870
H7 H -0.05490 0.26830 0.44620
H8 H 0.07330 0.45270 0.56840
H9 H 0.24750 0.31950 0.69700
H10 H 0.22870 0.20840 0.58390
H11 H 0.61990 0.49090 0.51610
H12 H 0.50050 0.59450 0.42710
H13 H 0.49550 0.43650 0.39150
H14 H 0.32290 0.56130 0.69940
H15 H 0.40180 0.67050 0.62170
H16 H 0.51200 0.56320 0.71370
H17 H -0.43170 0.56080 0.13980
H18 H -0.37340 0.55240 0.00780
H19 H -0.25440 0.60610 0.13570
H20 H -0.35890 0.20240 0.09670
H21 H -0.43300 0.30450 -0.01780
H22 H -0.49940 0.30360 0.11070
H23 H 0.21410 -0.31300 0.30000
H24 H 0.33890 -0.20060 0.27700
H25 H 0.24900 -0.29340 0.16000
#END
