
#######################################################################
#
#                 Cambridge Crystallographic Data Centre
#                                CCDC
#
#######################################################################
#
# If this CIF has been generated from an entry in the Cambridge
# Structural Database, then it will include bibliographic, chemical,
# crystal, experimental, refinement or atomic coordinate data resulting
# from the CCDC's data processing and validation procedures.
#
#######################################################################

data_CSD_CIF_ELIGUD
_audit_creation_date 2016-04-26
_audit_creation_method CSD-ConQuest-V1
_database_code_CSD ELIGUD
_database_code_depnum_ccdc_archive 'CCDC 1451185'
_chemical_formula_sum 'C6 H4 N10 O10'
_chemical_formula_moiety
;
C6 H4 N10 O10
;
_journal_coden_Cambridge 1699
_journal_volume 4
_journal_year 2016
_journal_page_first 7430
_journal_name_full 'J.Mater.Chem.A '
loop_
_publ_author_name
"Jiaheng Zhang"
"Ping Yin"
"L.A.Mitchell"
"D.A.Parrish"
"J.M.Shreeve"
_chemical_name_systematic
;
(5,5'-Dinitro-2H,2'H-3,3'-bi-1,2,4-triazole-2,2'-diyl)bis(methylene) dinitrate
;
_cell_volume    672.182
_exptl_crystal_colour 'colorless'
_exptl_crystal_density_diffrn 1.859
_exptl_crystal_description 'plate'
_diffrn_ambient_temperature 296
#These two values have been output from a single CSD field.
_refine_ls_R_factor_gt 0.0333
_refine_ls_wR_factor_gt 0.0333
_symmetry_cell_setting triclinic
_symmetry_space_group_name_H-M 'P -1'
_symmetry_Int_Tables_number 2
loop_
_symmetry_equiv_pos_site_id
_symmetry_equiv_pos_as_xyz
1 x,y,z
2 -x,-y,-z
_cell_length_a 6.4891(3)
_cell_length_b 8.1203(4)
_cell_length_c 13.7172(7)
_cell_angle_alpha 98.647(1)
_cell_angle_beta 92.085(1)
_cell_angle_gamma 109.154(2)
_cell_formula_units_Z 2
loop_
_atom_type_symbol
_atom_type_radius_bond
C 0.68
H 0.23
N 0.68
O 0.68
loop_
_atom_site_label
_atom_site_type_symbol
_atom_site_fract_x
_atom_site_fract_y
_atom_site_fract_z
N1 N -0.0674(2) 0.17712(16) 0.07767(9)
C1 C 0.0302(2) 0.09593(19) 0.01363(11)
N2 N 0.1998(2) 0.21665(16) -0.02012(9)
N3 N 0.2171(2) 0.38154(16) 0.02481(9)
C2 C 0.0542(2) 0.34618(19) 0.08077(11)
N4 N 0.0133(2) 0.48776(17) 0.14687(10)
O1 O 0.1235(2) 0.63999(15) 0.14180(9)
O2 O -0.1243(3) 0.44517(18) 0.20417(11)
C3 C 0.3617(3) 0.1968(2) -0.08830(12)
H1 H 0.50740 0.25170 -0.05410
H2 H 0.33830 0.07200 -0.10910
O3 O 0.34883(19) 0.27483(15) -0.17300(8)
N5 N 0.1760(2) 0.1682(2) -0.24664(10)
O4 O 0.0395(2) 0.04478(17) -0.22359(10)
O5 O 0.1930(3) 0.2233(2) -0.3231(1)
N6 N 0.5168(2) 0.31474(18) 0.40927(9)
C4 C 0.4771(2) 0.4591(2) 0.44803(11)
N7 N 0.3840(2) 0.52066(17) 0.37803(9)
N8 N 0.3584(2) 0.41165(18) 0.28970(9)
C5 C 0.4413(3) 0.2948(2) 0.31450(11)
N9 N 0.4553(2) 0.14985(19) 0.24122(10)
O6 O 0.4019(2) 0.14698(19) 0.15499(9)
O7 O 0.5223(3) 0.0423(2) 0.27167(10)
C6 C 0.3268(3) 0.6802(2) 0.38375(12)
H3 H 0.44390 0.78100 0.42050
H4 H 0.30180 0.70380 0.31790
O8 O 0.1310(2) 0.64885(16) 0.43357(10)
N10 N 0.1248(3) 0.8020(2) 0.49703(13)
O9 O 0.2540(3) 0.94105(18) 0.48910(13)
O10 O -0.0184(3) 0.7686(2) 0.54982(15)
N1A N 0.0674(2) -0.17712(16) -0.07767(9)
C1A C -0.0302(2) -0.09593(19) -0.01363(11)
N2A N -0.1998(2) -0.21665(16) 0.02012(9)
N3A N -0.2171(2) -0.38154(16) -0.02481(9)
C2A C -0.0542(2) -0.34618(19) -0.08077(11)
N4A N -0.0133(2) -0.48776(17) -0.14687(10)
O1A O -0.1235(2) -0.63999(15) -0.14180(9)
O2A O 0.1243(3) -0.44517(18) -0.20417(11)
C3A C -0.3617(3) -0.1968(2) 0.08830(12)
H1A H -0.50740 -0.25170 0.05410
H2A H -0.33830 -0.07200 0.10910
O3A O -0.34883(19) -0.27483(15) 0.17300(8)
N5A N -0.1760(2) -0.1682(2) 0.24664(10)
O4A O -0.0395(2) -0.04478(17) 0.22359(10)
O5A O -0.1930(3) -0.2233(2) 0.3231(1)
N6A N 0.4832(2) 0.68526(18) 0.59073(9)
C4A C 0.5229(2) 0.5409(2) 0.55197(11)
N7A N 0.6160(2) 0.47934(17) 0.62197(9)
N8A N 0.6416(2) 0.58835(18) 0.71030(9)
C5A C 0.5587(3) 0.7052(2) 0.68550(11)
N9A N 0.5447(2) 0.85015(19) 0.75878(10)
O6A O 0.5981(2) 0.85302(19) 0.84501(9)
O7A O 0.4777(3) 0.9577(2) 0.72833(10)
C6A C 0.6732(3) 0.3198(2) 0.61625(12)
H3A H 0.55610 0.21900 0.57950
H4A H 0.69820 0.29620 0.68210
O8A O 0.8690(2) 0.35115(16) 0.56643(10)
N10A N 0.8752(3) 0.1980(2) 0.50297(13)
O9A O 0.7460(3) 0.05895(18) 0.51090(13)
O10A O 1.0184(3) 0.2314(2) 0.45018(15)
#END
