
#######################################################################
#
#                 Cambridge Crystallographic Data Centre
#                                CCDC
#
#######################################################################
#
# If this CIF has been generated from an entry in the Cambridge
# Structural Database, then it will include bibliographic, chemical,
# crystal, experimental, refinement or atomic coordinate data resulting
# from the CCDC's data processing and validation procedures.
#
#######################################################################

data_CSD_CIF_ELIGEN01
_audit_creation_date 2016-09-07
_audit_creation_method CSD-ConQuest-V1
_database_code_CSD ELIGEN01
_database_code_depnum_ccdc_archive 'CCDC 1410323'
_chemical_formula_sum 'C6 H4 N8 O10'
_chemical_formula_moiety
;
C6 H4 N8 O10
;
_journal_coden_Cambridge 1500
_journal_volume 6
_journal_year 2016
_journal_page_first 84760
_journal_name_full 'RSC Advances '
loop_
_publ_author_name
"Yanan Li"
"Yuanjie Shu"
"Bozhou Wang"
"Shengyong Zhang"
"Lianjie Zhai"
_chemical_name_systematic
;
(3,6-dinitropyrazolo[4,3-c]pyrazole-1,4-diyl)bis(methylene) dinitrate
;
_chemical_name_common
;
1,4-dinitroxymethyl-3,6-dinitropyrazolo[4,3-c]pyrazole
;
_cell_volume    632.801
_exptl_crystal_colour 'yellowish'
_exptl_crystal_density_diffrn 1.827
_exptl_special_details
;
triclinic P-1 polymorph

;
_exptl_crystal_description 'block'
_diffrn_ambient_temperature 296
#These two values have been output from a single CSD field.
_refine_ls_R_factor_gt 0.0872
_refine_ls_wR_factor_gt 0.0872
_symmetry_cell_setting triclinic
_symmetry_space_group_name_H-M 'P -1'
_symmetry_Int_Tables_number 2
loop_
_symmetry_equiv_pos_site_id
_symmetry_equiv_pos_as_xyz
1 x,y,z
2 -x,-y,-z
_cell_length_a 7.743(4)
_cell_length_b 8.302(5)
_cell_length_c 10.605(6)
_cell_angle_alpha 85.500(11)
_cell_angle_beta 78.807(10)
_cell_angle_gamma 71.153(9)
_cell_formula_units_Z 2
loop_
_atom_type_symbol
_atom_type_radius_bond
C 0.68
H 0.23
N 0.68
O 0.68
loop_
_atom_site_label
_atom_site_type_symbol
_atom_site_fract_x
_atom_site_fract_y
_atom_site_fract_z
N1 N 0.2108(8) 0.7077(8) 0.7135(6)
N2 N 0.2149(7) 0.5207(7) 0.5533(5)
N3 N 0.3369(6) 0.4274(6) 0.4569(5)
N4 N 0.2782(12) 0.0661(10) 0.4507(8)
O1 O 0.0434(7) 0.7416(8) 0.7467(6)
O2 O 0.3083(7) 0.7656(8) 0.7636(5)
O3 O 0.3641(8) 0.1649(8) 0.3612(6)
O4 O 0.3373(15) -0.0723(10) 0.4496(11)
O5 O 0.1532(14) 0.1568(14) 0.5175(10)
C1 C 0.3066(8) 0.5941(8) 0.6093(6)
C2 C 0.5078(7) 0.4473(7) 0.4509(5)
C3 C 0.2729(9) 0.3451(7) 0.3697(7)
H1 H 0.29160 0.39620 0.28490
H2 H 0.14070 0.36560 0.39720
N5 N 0.2718(9) 0.3881(9) -0.0138(7)
N6 N 0.1915(6) 0.0633(6) -0.0470(5)
N7 N 0.2691(6) -0.0429(6) 0.0427(5)
N8 N 0.1903(9) -0.2418(7) 0.2003(6)
O6 O 0.3468(8) 0.2893(8) 0.0594(5)
O7 O 0.2175(11) 0.5405(9) -0.0133(9)
O8 O 0.2302(6) 0.3292(6) -0.1213(5)
O9 O 0.3469(7) -0.2947(7) 0.2226(6)
O10 O 0.0615(7) -0.2907(7) 0.2555(5)
C4 C 0.3018(8) 0.1482(8) -0.1329(6)
H3 H 0.30710 0.11850 -0.22050
H4 H 0.42730 0.10890 -0.11530
C5 C 0.0175(7) 0.0560(7) -0.0475(5)
C6 C 0.1439(8) -0.1156(7) 0.1005(6)
N1A N 0.7892(8) 0.2923(8) 0.2865(6)
N2A N 0.7851(7) 0.4793(7) 0.4467(5)
N3A N 0.6631(6) 0.5726(6) 0.5431(5)
N4A N 0.7218(12) 0.9339(10) 0.5493(8)
O1A O 0.9566(7) 0.2584(8) 0.2533(6)
O2A O 0.6917(7) 0.2344(8) 0.2364(5)
O3A O 0.6359(8) 0.8351(8) 0.6388(6)
O4A O 0.6627(15) 1.0723(10) 0.5504(11)
O5A O 0.8468(14) 0.8432(14) 0.4825(10)
C1A C 0.6934(8) 0.4059(8) 0.3907(6)
C2A C 0.4922(7) 0.5527(7) 0.5491(5)
C3A C 0.7271(9) 0.6549(7) 0.6303(7)
H1A H 0.70840 0.60380 0.71510
H2A H 0.85930 0.63440 0.60280
N5A N -0.2718(9) -0.3881(9) 0.0138(7)
N6A N -0.1915(6) -0.0633(6) 0.0470(5)
N7A N -0.2691(6) 0.0429(6) -0.0427(5)
N8A N -0.1903(9) 0.2418(7) -0.2003(6)
O6A O -0.3468(8) -0.2893(8) -0.0594(5)
O7A O -0.2175(11) -0.5405(9) 0.0133(9)
O8A O -0.2302(6) -0.3292(6) 0.1213(5)
O9A O -0.3469(7) 0.2947(7) -0.2226(6)
O10A O -0.0615(7) 0.2907(7) -0.2555(5)
C4A C -0.3018(8) -0.1482(8) 0.1329(6)
H3A H -0.30710 -0.11850 0.22050
H4A H -0.42730 -0.10890 0.11530
C5A C -0.0175(7) -0.0560(7) 0.0475(5)
C6A C -0.1439(8) 0.1156(7) -0.1005(6)
#END
