
#######################################################################
#
#                 Cambridge Crystallographic Data Centre
#                                CCDC
#
#######################################################################
#
# If this CIF has been generated from an entry in the Cambridge
# Structural Database, then it will include bibliographic, chemical,
# crystal, experimental, refinement or atomic coordinate data resulting
# from the CCDC's data processing and validation procedures.
#
#######################################################################

data_CSD_CIF_ELIHUC
_audit_creation_date 2004-01-09
_audit_creation_method CSD-ConQuest-V1
_database_code_CSD ELIHUC
_database_code_depnum_ccdc_archive 'CCDC 225860'
_chemical_formula_sum 'C18 H17 N3 O6'
_chemical_formula_moiety
;
C18 H17 N3 O6
;
_journal_coeditor_code "IUCr CM6058"
_journal_coden_Cambridge 1370
_journal_volume 59
_journal_year 2003
_journal_page_first o1570
_journal_name_full 'Acta Crystallogr.,Sect.E:Struct.Rep.Online '
loop_
_publ_author_name
"V.Vrabel"
"S.Marchalin"
"J.Kozisek"
_chemical_name_systematic
;
Isopropyl 
2-methyl-4-(3-nitrophenyl)-5,7-dioxo-4,5,6,7-tetrahydro-1H-pyrrolo(3,4-b)pyrid
ine-3-carboxylate
;
_cell_volume    849.972
_exptl_crystal_colour 'yellow'
_exptl_crystal_density_diffrn 1.451
_exptl_crystal_description 'prism'
_exptl_crystal_preparation 'ethanol'
_diffrn_ambient_temperature 293
#These two values have been output from a single CSD field.
_refine_ls_R_factor_gt 0.0599
_refine_ls_wR_factor_gt 0.0599
_symmetry_cell_setting triclinic
_symmetry_space_group_name_H-M 'P -1'
_symmetry_Int_Tables_number 2
loop_
_symmetry_equiv_pos_site_id
_symmetry_equiv_pos_as_xyz
1 x,y,z
2 -x,-y,-z
_cell_length_a 8.555(3)
_cell_length_b 9.445(2)
_cell_length_c 11.322(4)
_cell_angle_alpha 83.76(2)
_cell_angle_beta 72.52(3)
_cell_angle_gamma 77.18(2)
_cell_formula_units_Z 2
loop_
_atom_type_symbol
_atom_type_radius_bond
C 0.68
H 0.23
N 0.68
O 0.68
loop_
_atom_site_label
_atom_site_type_symbol
_atom_site_fract_x
_atom_site_fract_y
_atom_site_fract_z
O1 O 0.7852(3) 0.47354(19) 0.57144(17)
O2 O 0.8935(2) 0.32963(17) 0.70457(16)
O3 O 0.5892(3) 0.1351(2) 1.22031(17)
O4 O 0.8341(3) 0.0584(3) 1.1124(2)
O5 O 0.8806(2) -0.21698(18) 0.73356(16)
O6 O 0.6814(3) -0.17335(19) 0.39741(17)
N1 N 0.7148(3) 0.1096(2) 0.44099(18)
H1 H 0.67820 0.10930 0.37820
N2 N 0.6905(4) 0.1058(3) 1.1217(2)
N3 N 0.7846(3) -0.2351(2) 0.56719(19)
H2 H 0.79050 -0.32750 0.57210
C1 C 0.7403(3) 0.2307(3) 0.4757(2)
C2 C 0.7937(3) 0.2306(2) 0.5751(2)
C3 C 0.8223(3) 0.1022(2) 0.6638(2)
H3 H 0.93670 0.08560 0.67020
C4 C 0.8284(4) -0.1637(3) 0.6489(2)
C5 C 0.7319(4) -0.1474(3) 0.4795(3)
C6 C 0.8012(3) -0.0177(3) 0.6060(2)
C7 C 0.7487(3) -0.0091(3) 0.5077(2)
C8 C 0.7038(4) 0.3505(3) 0.3902(2)
H4 H 0.71600 0.43880 0.41810
H5 H 0.59120 0.36010 0.38660
H6 H 0.78000 0.33190 0.30920
C9 C 0.8209(4) 0.3580(3) 0.6132(2)
C10 C 0.9057(4) 0.4451(3) 0.7696(3)
H7 H 0.93410 0.52640 0.71130
C11 C 0.7395(4) 0.4918(3) 0.8609(3)
H8 H 0.65670 0.52740 0.81760
H9 H 0.74500 0.56770 0.90860
H10 H 0.70980 0.41060 0.91520
C12 C 1.0421(4) 0.3875(3) 0.8290(3)
H11 H 1.01410 0.30730 0.88540
H12 H 1.05540 0.46280 0.87350
H13 H 1.14480 0.35520 0.76630
C13 C 0.6984(4) 0.1246(2) 0.7912(2)
C14 C 0.7518(3) 0.1009(2) 0.8964(2)
H14 H 0.86450 0.06770 0.89070
C15 C 0.6365(4) 0.1271(3) 1.0091(2)
C16 C 0.4705(4) 0.1738(3) 1.0237(2)
H15 H 0.39560 0.19110 1.10180
C17 C 0.4167(4) 0.1946(3) 0.9194(2)
H16 H 0.30340 0.22570 0.92640
C18 C 0.5303(4) 0.1696(3) 0.8035(2)
H17 H 0.49240 0.18350 0.73350
#END
