
#######################################################################
#
#                 Cambridge Crystallographic Data Centre
#                                CCDC
#
#######################################################################
#
# If this CIF has been generated from an entry in the Cambridge
# Structural Database, then it will include bibliographic, chemical,
# crystal, experimental, refinement or atomic coordinate data resulting
# from the CCDC's data processing and validation procedures.
#
#######################################################################

data_CSD_CIF_ELINIW
_audit_creation_date 2004-02-24
_audit_creation_method CSD-ConQuest-V1
_database_code_CSD ELINIW
_chemical_formula_sum 'C22 H27 N1 O6'
_chemical_formula_moiety
;
C22 H27 N1 O6
;
_journal_coden_Cambridge 603
_journal_volume 22
_journal_year 2003
_journal_page_first 363
_journal_name_full 'Jiegou Huaxue(Chin.)(Chin.J.Struct.Chem.) '
loop_
_publ_author_name
"Hai-Hong Huang"
"Xiang Zhang"
"Zi-Yun Lin"
"Yun-Shan Wu"
"Yang Lu"
"Qing-Hua Chen"
_chemical_name_systematic
;
(3aS,6R,6aR)-3-(3,4-Methylenedioxyphenyl)-6-menthyloxy-6,6a-dihydrofuro(3,4-d)
isoxazol-4(3aH)-one
;
_chemical_melting_point 397.15
_cell_volume   2096.772
_exptl_crystal_density_diffrn 1.272
_exptl_special_details
;
Melting point range 397.15-399.15K

;
_diffrn_ambient_temperature ?
_diffrn_special_details
;
The study was carried out at room temperature,in the range 283-303K

;
#These two values have been output from a single CSD field.
_refine_ls_R_factor_gt 0.073
_refine_ls_wR_factor_gt 0.073
_symmetry_cell_setting orthorhombic
_symmetry_space_group_name_H-M 'P 21 21 21'
_symmetry_Int_Tables_number 19
loop_
_symmetry_equiv_pos_site_id
_symmetry_equiv_pos_as_xyz
1 x,y,z
2 1/2-x,-y,1/2+z
3 1/2+x,1/2-y,-z
4 -x,1/2+y,1/2-z
_cell_length_a 6.2600(3)
_cell_length_b 10.7300(11)
_cell_length_c 31.2160(25)
_cell_angle_alpha 90
_cell_angle_beta 90
_cell_angle_gamma 90
_cell_formula_units_Z 4
loop_
_atom_type_symbol
_atom_type_radius_bond
C 0.68
N 0.68
O 0.68
loop_
_atom_site_label
_atom_site_type_symbol
_atom_site_fract_x
_atom_site_fract_y
_atom_site_fract_z
O1 O 0.5819(14) 0.3849(8) 0.2470(2)
O2 O 0.1508(17) 0.6563(10) 0.1808(3)
O3 O 0.7427(1) 0.5128(8) 0.1498(2)
O4 O -0.3012(17) 0.4435(10) 0.3622(3)
O5 O 0.3768(14) 0.5073(9) 0.1601(2)
O6 O -0.4226(18) 0.6455(12) 0.3540(3)
N1 N 0.3941(18) 0.4008(9) 0.2720(3)
C1 C 0.3117(16) 0.5044(8) 0.2643(3)
C2 C 0.4361(18) 0.5809(11) 0.2303(2)
C3 C 0.3010(22) 0.5927(14) 0.1883(3)
C4 C 0.5834(18) 0.4561(12) 0.1725(3)
C5 C 0.6125(19) 0.4958(11) 0.2197(3)
C6 C 0.7571(23) 0.4731(11) 0.1043(3)
C7 C 0.8879(28) 0.3540(15) 0.1026(4)
C8 C 0.9169(30) 0.3093(14) 0.0565(4)
C9 C 1.0210(32) 0.4135(16) 0.0316(4)
C10 C 0.8997(32) 0.5343(14) 0.0345(3)
C11 C 0.8651(23) 0.5789(15) 0.0803(4)
C12 C 1.0473(37) 0.1886(16) 0.0535(5)
C13 C 0.7463(26) 0.7042(16) 0.0853(5)
C14 C 0.5144(33) 0.7028(21) 0.0669(6)
C15 C 0.8781(39) 0.8134(14) 0.0675(6)
C16 C 0.1142(18) 0.5469(12) 0.2862(2)
C17 C 0.0077(22) 0.4614(11) 0.3144(3)
C18 C -0.1690(21) 0.5060(15) 0.3346(4)
C19 C -0.2384(19) 0.6256(15) 0.3293(4)
C20 C -0.1370(22) 0.7114(12) 0.3037(4)
C21 C 0.0427(19) 0.6721(9) 0.2821(3)
C22 C -0.4633(27) 0.5297(17) 0.3740(5)
#END
