
#######################################################################
#
#                 Cambridge Crystallographic Data Centre
#                                CCDC
#
#######################################################################
#
# If this CIF has been generated from an entry in the Cambridge
# Structural Database, then it will include bibliographic, chemical,
# crystal, experimental, refinement or atomic coordinate data resulting
# from the CCDC's data processing and validation procedures.
#
#######################################################################

data_CSD_CIF_ELOVEH
_audit_creation_date 2011-03-04
_audit_creation_method CSD-ConQuest-V1
_database_code_CSD ELOVEH
_database_code_depnum_ccdc_archive 'CCDC 685042'
_chemical_formula_sum 'C36 H32 N2 O10'
_chemical_formula_moiety
;
C36 H32 N2 O10
;
_journal_coden_Cambridge 41
_journal_volume 54
_journal_year 2009
_journal_page_first 37
_journal_name_full 'Kristallografiya(Russ.)(Crystallogr.Rep.) '
loop_
_publ_author_name
"I.G.Ovchinnikova"
"O.V.Fedorova"
"P.A.Slepukhin"
"I.A.Litvinov"
"G.L.Rusinov"
_chemical_name_systematic
;
3,3'-(ethane-1,2-diylbis(oxyethane-2,1-diyloxy-2,1-phenylene))bis(1-(2-nitroph
enyl)prop-2-en-1-one)
;
_cell_volume   1579.272
_exptl_crystal_colour 'yellow'
_exptl_crystal_density_diffrn 1.372
_exptl_crystal_description 'prism'
_diffrn_ambient_temperature 295
#These two values have been output from a single CSD field.
_refine_ls_R_factor_gt 0.0377
_refine_ls_wR_factor_gt 0.0377
_symmetry_cell_setting monoclinic
_symmetry_space_group_name_H-M 'P 21/n'
_symmetry_Int_Tables_number 14
loop_
_symmetry_equiv_pos_site_id
_symmetry_equiv_pos_as_xyz
1 x,y,z
2 1/2-x,1/2+y,1/2-z
3 -x,-y,-z
4 -1/2+x,-1/2-y,-1/2+z
_cell_length_a 7.6286(5)
_cell_length_b 17.9398(10)
_cell_length_c 11.5890(3)
_cell_angle_alpha 90
_cell_angle_beta 95.287(4)
_cell_angle_gamma 90
_cell_formula_units_Z 2
loop_
_atom_type_symbol
_atom_type_radius_bond
C 0.68
H 0.23
N 0.68
O 0.68
loop_
_atom_site_label
_atom_site_type_symbol
_atom_site_fract_x
_atom_site_fract_y
_atom_site_fract_z
O1 O 0.26274(10) 0.02320(4) 0.67327(6)
C1 C 0.03460(13) -0.20403(5) 0.79847(8)
O2 O 0.00482(10) -0.23924(4) 0.60216(7)
C2 C 0.27456(13) 0.03012(6) 0.55777(8)
O3 O 0.11307(11) 0.03620(5) 0.88291(6)
C3 C 0.05743(13) -0.19170(6) 0.67247(9)
C4 C 0.21250(13) -0.03016(6) 0.48898(8)
C5 C 0.16435(13) -0.19139(5) 0.88857(8)
C6 C 0.14207(13) -0.09880(6) 0.53375(9)
N1 N 0.34545(12) -0.17746(5) 0.86219(8)
C7 C 0.13038(14) -0.11991(6) 0.64271(9)
O4 O 0.40292(10) -0.21587(5) 0.78739(7)
O5 O 0.42982(11) -0.12957(5) 0.91633(7)
C8 C 0.34532(14) 0.09225(7) 0.50803(10)
H1 H 0.38490 0.13240 0.55410
C9 C 0.22189(15) -0.02452(7) 0.36921(9)
H2 H 0.17780 -0.06300 0.32130
C10 C -0.13123(15) -0.22265(6) 0.82939(10)
H3 H -0.22110 -0.23260 0.77160
C11 C 0.28747(18) 0.05932(8) 0.86914(10)
C12 C 0.09249(17) 0.01386(8) 0.99837(9)
C13 C 0.3013(2) 0.08519(7) 0.74827(10)
C14 C 0.13300(17) -0.19537(6) 1.00335(9)
H4 H 0.22260 -0.18640 1.06170
C15 C 0.29511(16) 0.03696(8) 0.32093(10)
H5 H 0.30250 0.03940 0.24140
C16 C -0.16549(18) -0.22675(6) 0.94284(12)
H6 H -0.27800 -0.23890 0.96140
C17 C 0.35665(16) 0.09424(8) 0.39056(11)
H7 H 0.40720 0.13540 0.35790
C18 C -0.03449(19) -0.21300(7) 1.02977(11)
H8 H -0.05900 -0.21560 1.10680
H9 H 0.1002(13) -0.1362(6) 0.4776(8)
H10 H 0.1647(13) -0.0877(6) 0.7050(9)
H11 H 0.1809(16) -0.0269(7) 1.0242(10)
H12 H 0.3209(14) 0.1012(6) 0.9231(9)
H13 H 0.1164(15) 0.0586(6) 1.0541(9)
H14 H 0.4213(16) 0.1027(6) 0.7386(9)
H15 H 0.2118(16) 0.1253(7) 0.7258(9)
H16 H 0.3713(16) 0.0174(7) 0.8867(9)
O1B O -0.26274(10) -0.02320(4) 1.32673(6)
C1B C -0.03460(13) 0.20403(5) 1.20153(8)
O2B O -0.00482(10) 0.23924(4) 1.39784(7)
C2B C -0.27456(13) -0.03012(6) 1.44223(8)
O3B O -0.11307(11) -0.03620(5) 1.11709(6)
C3B C -0.05743(13) 0.19170(6) 1.32753(9)
C4B C -0.21250(13) 0.03016(6) 1.51102(8)
C5B C -0.16435(13) 0.19139(5) 1.11143(8)
C6B C -0.14207(13) 0.09880(6) 1.46625(9)
N1B N -0.34545(12) 0.17746(5) 1.13781(8)
C7B C -0.13038(14) 0.11991(6) 1.35729(9)
O4B O -0.40292(10) 0.21587(5) 1.21261(7)
O5B O -0.42982(11) 0.12957(5) 1.08367(7)
C8B C -0.34532(14) -0.09225(7) 1.49197(10)
H1B H -0.38490 -0.13240 1.44590
C9B C -0.22189(15) 0.02452(7) 1.63079(9)
H2B H -0.17780 0.06300 1.67870
C10B C 0.13123(15) 0.22265(6) 1.17061(10)
H3B H 0.22110 0.23260 1.22840
C11B C -0.28747(18) -0.05932(8) 1.13086(10)
C12B C -0.09249(17) -0.01386(8) 1.00163(9)
C13B C -0.3013(2) -0.08519(7) 1.25173(10)
C14B C -0.13300(17) 0.19537(6) 0.99665(9)
H4B H -0.22260 0.18640 0.93830
C15B C -0.29511(16) -0.03696(8) 1.67907(10)
H5B H -0.30250 -0.03940 1.75860
C16B C 0.16549(18) 0.22675(6) 1.05716(12)
H6B H 0.27800 0.23890 1.03860
C17B C -0.35665(16) -0.09424(8) 1.60944(11)
H7B H -0.40720 -0.13540 1.64210
C18B C 0.03449(19) 0.21300(7) 0.97023(11)
H8B H 0.05900 0.21560 0.89320
H9B H -0.1002(13) 0.1362(6) 1.5224(8)
H10B H -0.1647(13) 0.0877(6) 1.2950(9)
H11B H -0.1809(16) 0.0269(7) 0.9758(10)
H12B H -0.3209(14) -0.1012(6) 1.0769(9)
H13B H -0.1164(15) -0.0586(6) 0.9459(9)
H14B H -0.4213(16) -0.1027(6) 1.2614(9)
H15B H -0.2118(16) -0.1253(7) 1.2742(9)
H16B H -0.3713(16) -0.0174(7) 1.1133(9)
#END
