
#######################################################################
#
#                 Cambridge Crystallographic Data Centre
#                                CCDC
#
#######################################################################
#
# If this CIF has been generated from an entry in the Cambridge
# Structural Database, then it will include bibliographic, chemical,
# crystal, experimental, refinement or atomic coordinate data resulting
# from the CCDC's data processing and validation procedures.
#
#######################################################################

data_CSD_CIF_ELOVAD
_audit_creation_date 2011-03-04
_audit_creation_method CSD-ConQuest-V1
_database_code_CSD ELOVAD
_database_code_depnum_ccdc_archive 'CCDC 685041'
_chemical_formula_sum 'C32 H24 N2 O8'
_chemical_formula_moiety
;
C32 H24 N2 O8
;
_journal_coden_Cambridge 41
_journal_volume 54
_journal_year 2009
_journal_page_first 37
_journal_name_full 'Kristallografiya(Russ.)(Crystallogr.Rep.) '
loop_
_publ_author_name
"I.G.Ovchinnikova"
"O.V.Fedorova"
"P.A.Slepukhin"
"I.A.Litvinov"
"G.L.Rusinov"
_chemical_name_systematic
;
1,2-bis-(2-(1-(2-Nitrophenyl)-1-oxoprop-2-enyl)phenyloxy)ethane
;
_cell_volume   2781.469
_exptl_crystal_colour 'colorless'
_exptl_crystal_density_diffrn 1.348
_diffrn_ambient_temperature 295
#These two values have been output from a single CSD field.
_refine_ls_R_factor_gt 0.0426
_refine_ls_wR_factor_gt 0.0426
_symmetry_cell_setting monoclinic
_symmetry_space_group_name_H-M 'P 21/c'
_symmetry_Int_Tables_number 14
loop_
_symmetry_equiv_pos_site_id
_symmetry_equiv_pos_as_xyz
1 x,y,z
2 -x,1/2+y,1/2-z
3 -x,-y,-z
4 x,-1/2-y,-1/2+z
_cell_length_a 17.9416(18)
_cell_length_b 10.9703(8)
_cell_length_c 14.699(2)
_cell_angle_alpha 90
_cell_angle_beta 105.970(11)
_cell_angle_gamma 90
_cell_formula_units_Z 4
loop_
_atom_type_symbol
_atom_type_radius_bond
C 0.68
H 0.23
N 0.68
O 0.68
loop_
_atom_site_label
_atom_site_type_symbol
_atom_site_fract_x
_atom_site_fract_y
_atom_site_fract_z
O1 O 0.39894(7) 0.71141(13) 0.01695(10)
O2 O 0.27947(8) 0.28277(12) -0.34315(11)
C1 C 0.11101(10) 0.7040(2) -0.30689(16)
C2 C 0.38713(10) 0.68170(19) -0.19805(15)
O3 O 0.24847(8) 0.25918(13) -0.17321(11)
C3 C 0.23753(11) 0.49769(17) -0.42664(14)
H1 H 0.22620 0.48210 -0.36970
O4 O 0.08230(8) 0.70062(14) -0.52455(10)
C4 C 0.20772(11) 0.3870(2) -0.07051(15)
C5 C 0.30288(11) 0.43171(19) -0.44435(15)
C6 C 0.39459(10) 0.60328(18) -0.12259(14)
O5 O 0.28904(9) 0.79457(14) -0.16630(11)
C7 C 0.36575(11) 0.63166(19) -0.03747(14)
C8 C 0.10834(10) 0.61477(19) -0.37366(14)
C9 C 0.41823(12) 0.6585(2) -0.27211(15)
H2 H 0.41170 0.71330 -0.32200
C10 C 0.30331(11) 0.55969(18) -0.02135(14)
H3 H 0.28630 0.57670 0.03160
C11 C 0.32503(13) 0.3209(2) -0.39848(16)
N1 N 0.34349(11) 0.79519(18) -0.20061(14)
C12 C 0.26872(11) 0.46970(18) -0.07896(14)
H4 H 0.28630 0.45840 -0.13230
C13 C 0.43633(11) 0.49762(19) -0.12371(15)
H5 H 0.44260 0.44200 -0.07440
C14 C 0.12710(12) 0.63737(19) -0.46564(15)
O6 O 0.18954(10) 0.83092(15) -0.36458(13)
N2 N 0.14156(12) 0.8247(2) -0.32067(16)
C15 C 0.19292(11) 0.57774(18) -0.48431(14)
H6 H 0.20490 0.59660 -0.54040
C16 C 0.19738(13) 0.2792(2) -0.12376(17)
C17 C 0.42803(13) 0.3034(3) -0.4695(2)
H7 H 0.47090 0.26150 -0.47740
C18 C 0.38827(13) 0.2556(2) -0.41086(17)
H8 H 0.40290 0.18170 -0.38010
O7 O 0.36325(10) 0.88410(15) -0.23844(13)
C19 C 0.08534(12) 0.6866(2) -0.22797(16)
H9 H 0.08780 0.74940 -0.18480
C20 C 0.46885(12) 0.4731(2) -0.19660(18)
H10 H 0.49750 0.40220 -0.19550
C21 C 0.34473(12) 0.4744(2) -0.50352(15)
H11 H 0.33050 0.54790 -0.53510
C22 C 0.07870(11) 0.5025(2) -0.35664(16)
H12 H 0.07650 0.43870 -0.39890
C23 C 0.23872(13) 0.15960(19) -0.23881(16)
H13 H 0.18720 0.16150 -0.28260
H14 H 0.24550 0.08250 -0.20530
C24 C 0.05254(13) 0.4849(2) -0.2777(2)
H15 H 0.03210 0.40970 -0.26800
C25 C 0.45894(12) 0.5528(3) -0.27043(18)
H16 H 0.48010 0.53500 -0.32000
C26 C 0.15895(13) 0.4138(2) -0.01472(16)
H17 H 0.16640 0.48510 0.02090
C27 C 0.08989(15) 0.2297(3) -0.0656(2)
H18 H 0.04990 0.17640 -0.06440
C28 C 0.40706(13) 0.4111(3) -0.51714(17)
H19 H 0.43440 0.44080 -0.55780
C29 C 0.05625(14) 0.5756(3) -0.21422(18)
H20 H 0.03890 0.56210 -0.16100
O8 O 0.11809(10) 0.91239(16) -0.28604(15)
C30 C 0.13750(14) 0.2007(2) -0.12107(18)
H21 H 0.12970 0.12920 -0.15640
C31 C 0.29798(14) 0.1739(2) -0.29027(16)
H22 H 0.34920 0.17950 -0.24630
H23 H 0.29690 0.10500 -0.33200
C32 C 0.09846(13) 0.3343(3) -0.01155(18)
H24 H 0.06540 0.35140 0.02560
#END
