
#######################################################################
#
#                 Cambridge Crystallographic Data Centre
#                                CCDC
#
#######################################################################
#
# If this CIF has been generated from an entry in the Cambridge
# Structural Database, then it will include bibliographic, chemical,
# crystal, experimental, refinement or atomic coordinate data resulting
# from the CCDC's data processing and validation procedures.
#
#######################################################################

data_CSD_CIF_ELOXOS
_audit_creation_date 2004-02-24
_audit_creation_method CSD-ConQuest-V1
_database_code_CSD ELOXOS
_database_code_depnum_ccdc_archive 'CCDC 194635'
_chemical_formula_sum 'C5 H4 N2 O3'
_chemical_formula_moiety
;
C5 H4 N2 O3
;
_journal_coden_Cambridge 1037
_journal_volume 3
_journal_year 2002
_journal_page_first 198-11
_journal_name_full 'ARKIVOC '
loop_
_publ_author_name
"L.Forlani"
"G.Cristoni"
"C.Boga"
"P.E.Todesco"
"E.Del Vecchio"
"S.Selva"
"M.Monari"
_chemical_name_systematic
;
2-Hydroxy-5-nitropyridine
;
_cell_volume   1157.505
_exptl_crystal_colour 'colorless'
_exptl_crystal_density_diffrn 1.608
_exptl_crystal_description 'platelet'
_diffrn_ambient_temperature 293
#These two values have been output from a single CSD field.
_refine_ls_R_factor_gt 0.0417
_refine_ls_wR_factor_gt 0.0417
_symmetry_cell_setting orthorhombic
_symmetry_space_group_name_H-M 'P c a 21'
_symmetry_Int_Tables_number 29
loop_
_symmetry_equiv_pos_site_id
_symmetry_equiv_pos_as_xyz
1 x,y,z
2 -x,-y,1/2+z
3 1/2+x,-y,z
4 1/2-x,y,1/2+z
_cell_length_a 25.930(2)
_cell_length_b 3.8288(3)
_cell_length_c 11.6589(7)
_cell_angle_alpha 90
_cell_angle_beta 90
_cell_angle_gamma 90
_cell_formula_units_Z 8
loop_
_atom_type_symbol
_atom_type_radius_bond
C 0.68
H 0.23
N 0.68
O 0.68
loop_
_atom_site_label
_atom_site_type_symbol
_atom_site_fract_x
_atom_site_fract_y
_atom_site_fract_z
N1 N 0.49746(10) 0.8182(8) 0.5316(2)
H1 H 0.5279(13) 0.938(10) 0.554(3)
N2 N 0.37455(10) 0.5176(7) 0.6452(2)
O1 O 0.53456(8) 0.8032(7) 0.3556(2)
O2 O 0.33925(10) 0.3322(8) 0.6145(2)
O3 O 0.37687(10) 0.6479(7) 0.7411(2)
C1 C 0.49705(10) 0.7295(8) 0.4157(3)
C2 C 0.45118(11) 0.5601(8) 0.3770(3)
H2 H 0.44830 0.49750 0.30020
C3 C 0.41178(11) 0.4885(8) 0.4492(2)
H3 H 0.38240 0.37490 0.42280
C4 C 0.41596(11) 0.5889(8) 0.5653(3)
C5 C 0.45829(11) 0.7524(8) 0.6040(3)
H4 H 0.46050 0.81980 0.68050
N3 N 0.63056(10) 0.9752(7) 0.4612(2)
H5 H 0.6013(12) 0.910(8) 0.426(3)
N4 N 0.76776(10) 0.9704(8) 0.3961(3)
O4 O 0.58258(9) 1.1751(7) 0.6095(2)
O5 O 0.80643(9) 1.1193(8) 0.4304(2)
O6 O 0.76752(10) 0.7746(9) 0.3127(3)
C6 C 0.62605(12) 1.1358(8) 0.5661(3)
C7 C 0.67319(13) 1.2509(9) 0.6163(3)
H6 H 0.67240 1.36320 0.68700
C8 C 0.71903(12) 1.2011(8) 0.5638(3)
H7 H 0.74940 1.27820 0.59780
C9 C 0.72011(11) 1.0315(8) 0.4572(3)
C10 C 0.67591(11) 0.9211(8) 0.4068(3)
H8 H 0.67680 0.80990 0.33590
#END
