
#######################################################################
#
#                 Cambridge Crystallographic Data Centre
#                                CCDC
#
#######################################################################
#
# If this CIF has been generated from an entry in the Cambridge
# Structural Database, then it will include bibliographic, chemical,
# crystal, experimental, refinement or atomic coordinate data resulting
# from the CCDC's data processing and validation procedures.
#
#######################################################################

data_CSD_CIF_ELUKED
_audit_creation_date 2016-04-27
_audit_creation_method CSD-ConQuest-V1
_database_code_CSD ELUKED
_database_code_depnum_ccdc_archive 'CCDC 1042802'
_chemical_formula_sum 'C5 H9 N1 O1'
_chemical_formula_moiety
;
C5 H9 N1 O1
;
_journal_coden_Cambridge 371
_journal_year 2015
_journal_page_first 597
_journal_name_full 'Khim.Prir.Soedin(Russ.)(Chem.Nat.Compd.) '
loop_
_publ_author_name
"L.S.Kamalov"
"B.Tashkhodjaev"
"S.F.Aripova"
_chemical_name_systematic
;
N-hydroxycyclopentanimine
;
_cell_volume   2658.380
_exptl_crystal_colour 'colorless'
_exptl_crystal_density_diffrn 1.115
_exptl_crystal_description 'plate'
_diffrn_ambient_temperature 293
#These two values have been output from a single CSD field.
_refine_ls_R_factor_gt 0.0939
_refine_ls_wR_factor_gt 0.0939
_symmetry_cell_setting hexagonal
_symmetry_space_group_name_H-M 'P 63'
_symmetry_Int_Tables_number 173
loop_
_symmetry_equiv_pos_site_id
_symmetry_equiv_pos_as_xyz
1 x,y,z
2 -y,x-y,z
3 -x+y,-x,z
4 -x,-y,1/2+z
5 y,-x+y,1/2+z
6 x-y,x,1/2+z
_cell_length_a 19.843(3)
_cell_length_b 19.843(3)
_cell_length_c 7.7960(16)
_cell_angle_alpha 90
_cell_angle_beta 90
_cell_angle_gamma 120
_cell_formula_units_Z 18
loop_
_atom_type_symbol
_atom_type_radius_bond
C 0.68
H 0.23
N 0.68
O 0.68
loop_
_atom_site_label
_atom_site_type_symbol
_atom_site_fract_x
_atom_site_fract_y
_atom_site_fract_z
C1 C 0.1443(6) -0.0977(6) 0.7578(13)
N1 N 0.2215(6) -0.0508(5) 0.7440(12)
C2 C 0.0124(6) -0.1512(7) 0.784(2)
H1 H -0.01950 -0.15210 0.68910
H2 H -0.01610 -0.15800 0.88990
O1 O 0.2364(6) 0.0189(6) 0.760(2)
C3 C 0.0833(7) -0.0799(6) 0.787(3)
H3 H 0.09030 -0.05450 0.89730
H4 H 0.08370 -0.04550 0.69820
C4 C 0.0304(7) -0.2125(8) 0.765(4)
H5 H 0.00240 -0.24490 0.66780
H6 H 0.01430 -0.24500 0.86720
C5 C 0.1170(6) -0.1776(7) 0.739(4)
H7 H 0.13940 -0.19610 0.82440
H8 H 0.12850 -0.18940 0.62530
H9 H 0.289(2) 0.063(3) 0.743(12)
C6 C 0.5072(6) 0.3225(5) 0.680(2)
H10 H 0.53410 0.33220 0.78870
H11 H 0.53530 0.36800 0.60740
O2 O 0.4457(4) 0.0933(4) 0.5654(10)
C7 C 0.4246(6) 0.1864(6) 0.672(2)
C8 C 0.4261(7) 0.3048(6) 0.7058(18)
H12 H 0.42280 0.33470 0.80060
H13 H 0.40600 0.31620 0.60320
C9 C 0.5014(5) 0.2512(5) 0.5936(14)
H14 H 0.54510 0.24440 0.62320
H15 H 0.49800 0.25360 0.46990
C10 C 0.3839(6) 0.2229(7) 0.743(3)
H16 H 0.33200 0.19970 0.69500
H17 H 0.37910 0.21510 0.86660
N2 N 0.3946(4) 0.1123(4) 0.6601(16)
H18 H 0.440(4) 0.045(3) 0.597(12)
N3 N 0.3827(4) -0.0650(4) 0.6372(10)
C11 C 0.4878(6) -0.1738(6) 0.5963(19)
H19 H 0.50500 -0.19950 0.67610
H20 H 0.47670 -0.20010 0.48640
O3 O 0.3138(4) -0.1183(4) 0.7140(11)
C12 C 0.4300(6) -0.0937(6) 0.6201(16)
C13 C 0.4135(5) -0.1721(5) 0.6680(19)
H21 H 0.36610 -0.21180 0.61430
H22 H 0.40900 -0.17920 0.79140
C14 C 0.5475(5) -0.0892(6) 0.5783(18)
H23 H 0.57480 -0.06860 0.68580
H24 H 0.58520 -0.08190 0.49050
C15 C 0.5044(5) -0.0502(4) 0.5300(13)
H25 H 0.49650 -0.05240 0.40690
H26 H 0.53180 0.00380 0.56610
H27 H 0.307(4) -0.076(3) 0.687(12)
#END
