
#######################################################################
#
#                 Cambridge Crystallographic Data Centre
#                                CCDC
#
#######################################################################
#
# If this CIF has been generated from an entry in the Cambridge
# Structural Database, then it will include bibliographic, chemical,
# crystal, experimental, refinement or atomic coordinate data resulting
# from the CCDC's data processing and validation procedures.
#
#######################################################################

data_CSD_CIF_ELUREJ01
_audit_creation_date 2011-06-07
_audit_creation_method CSD-ConQuest-V1
_database_code_CSD ELUREJ01
_database_code_depnum_ccdc_archive 'CCDC 818425'
_chemical_formula_sum 'C21 H28 N2 O2'
_chemical_formula_moiety
;
C21 H28 N2 O2
;
_journal_coden_Cambridge 4
_journal_volume 132
_journal_year 2010
_journal_page_first 9598
_journal_name_full 'J.Am.Chem.Soc. '
loop_
_publ_author_name
"H.Nishimaki"
"T.Ishida"
_chemical_name_systematic
;
2',4',6'-Trimethylbiphenyl-3,5-diyl bis(t-butylnitroxide)
;
_chemical_melting_point 352
_cell_volume    978.268
_exptl_crystal_colour 'red'
_exptl_crystal_density_diffrn 1.156
_exptl_special_details
;
high temperature polymorph
undergoes a phase transition between 230 K and 280 K
;
_exptl_crystal_description 'platelet'
_diffrn_ambient_temperature 296
_refine_special_details
;
Three t-butyl methyl groups are disordered over two sites with occupancies 
0.54:0.46.
;
#These two values have been output from a single CSD field.
_refine_ls_R_factor_gt 0.0619
_refine_ls_wR_factor_gt 0.0619
_symmetry_cell_setting triclinic
_symmetry_space_group_name_H-M 'P -1'
_symmetry_Int_Tables_number 2
loop_
_symmetry_equiv_pos_site_id
_symmetry_equiv_pos_as_xyz
1 x,y,z
2 -x,-y,-z
_cell_length_a 9.4350(2)
_cell_length_b 10.4957(3)
_cell_length_c 11.8671(6)
_cell_angle_alpha 109.610(2)
_cell_angle_beta 93.870(3)
_cell_angle_gamma 114.433(5)
_cell_formula_units_Z 2
loop_
_atom_type_symbol
_atom_type_radius_bond
C 0.68
H 0.23
N 0.68
O 0.68
loop_
_atom_site_label
_atom_site_type_symbol
_atom_site_fract_x
_atom_site_fract_y
_atom_site_fract_z
O1 O -0.2200(3) 0.3098(3) 0.4005(2)
O2 O -0.1447(2) -0.0415(2) 0.02885(17)
N1 N -0.1551(3) 0.4154(2) 0.3609(2)
N2 N -0.0926(2) 0.0716(2) -0.0043(2)
C1 C -0.0583(3) 0.3918(3) 0.2742(2)
C2 C -0.1184(3) 0.2465(3) 0.1810(2)
C3 C -0.0292(3) 0.2225(3) 0.0940(2)
C4 C 0.1182(3) 0.3399(3) 0.1026(2)
C5 C 0.1806(3) 0.4855(3) 0.1981(2)
C6 C 0.0886(3) 0.5094(3) 0.2836(2)
C7 C 0.3406(3) 0.6105(3) 0.2091(2)
C8 C 0.3988(3) 0.6143(3) 0.1034(3)
C9 C 0.5479(4) 0.7322(4) 0.1146(3)
C10 C 0.6392(4) 0.8467(4) 0.2288(3)
C11 C 0.5852(3) 0.8454(3) 0.3352(3)
C12 C 0.4365(3) 0.7272(3) 0.3236(3)
C13 C -0.2319(3) 0.5172(3) 0.3669(2)
C14 C -0.1005(9) 0.6851(8) 0.4315(11)
C15 C -0.3512(12) 0.4933(13) 0.4453(10)
C16 C -0.3052(15) 0.4844(14) 0.2365(7)
C17 C -0.1811(3) 0.0422(3) -0.1297(2)
C18 C -0.0872(7) 0.1737(5) -0.1671(4)
C19 C -0.3473(5) 0.0267(6) -0.1194(4)
C20 C -0.1962(5) -0.1052(4) -0.2236(3)
C21 C 0.6868(5) 0.9701(5) 0.4595(5)
H1 H -0.217(3) 0.169(3) 0.178(2)
H2 H 0.179(3) 0.313(3) 0.040(2)
H3 H 0.128(3) 0.601(3) 0.345(2)
H4 H 0.334(3) 0.526(3) 0.015(2)
H5 H 0.586(3) 0.731(3) 0.031(2)
H6 H 0.732(3) 0.929(3) 0.242(2)
H7 H 0.406(3) 0.716(3) 0.393(3)
H8 H -0.09830 0.71410 0.51680
H9 H -0.12410 0.75010 0.40280
H10 H 0.00110 0.69390 0.41940
H11 H -0.45150 0.41570 0.39100
H12 H -0.35880 0.58460 0.48460
H13 H -0.32330 0.46160 0.50580
H14 H -0.22570 0.55270 0.21080
H15 H -0.39600 0.50220 0.23520
H16 H -0.33610 0.38220 0.18220
H17 H -0.071(3) 0.264(4) -0.112(3)
H18 H -0.152(4) 0.155(4) -0.235(3)
H19 H 0.028(7) 0.189(7) -0.163(5)
H20 H -0.411(5) -0.070(5) -0.103(3)
H21 H -0.422(5) -0.007(4) -0.204(4)
H22 H -0.337(4) 0.113(5) -0.066(3)
H23 H -0.092(4) -0.094(4) -0.234(3)
H24 H -0.259(4) -0.130(3) -0.302(3)
H25 H -0.256(4) -0.189(4) -0.199(3)
H26 H 0.796(7) 0.965(6) 0.466(5)
H27 H 0.648(5) 0.947(5) 0.515(4)
H28 H 0.720(5) 1.062(6) 0.460(4)
C22? C -0.240(2) 0.587(2) 0.5017(10)
C23? C -0.3968(16) 0.4042(16) 0.2774(19)
C24? C -0.142(2) 0.6385(19) 0.322(2)
H29? H -0.15790 0.59390 0.55830
H30? H -0.23360 0.68510 0.52230
H31? H -0.34150 0.51820 0.50540
H32? H -0.47500 0.43600 0.30110
H33? H -0.43150 0.30290 0.27160
H34? H -0.38300 0.40740 0.19970
H35? H -0.20810 0.66880 0.28530
H36? H -0.08010 0.61180 0.26770
H37? H -0.07230 0.72060 0.39710
#END
