
#######################################################################
#
#                 Cambridge Crystallographic Data Centre
#                                CCDC
#
#######################################################################
#
# If this CIF has been generated from an entry in the Cambridge
# Structural Database, then it will include bibliographic, chemical,
# crystal, experimental, refinement or atomic coordinate data resulting
# from the CCDC's data processing and validation procedures.
#
#######################################################################

data_CSD_CIF_ELUROT
_audit_creation_date 2011-06-07
_audit_creation_method CSD-ConQuest-V1
_database_code_CSD ELUROT
_database_code_depnum_ccdc_archive 'CCDC 818426'
_chemical_formula_sum 'C21 H28 N2 O3'
_chemical_formula_moiety
;
C21 H28 N2 O3
;
_journal_coden_Cambridge 4
_journal_volume 132
_journal_year 2010
_journal_page_first 9598
_journal_name_full 'J.Am.Chem.Soc. '
loop_
_publ_author_name
"H.Nishimaki"
"T.Ishida"
_chemical_name_systematic
;
3'-Methoxybiphenyl-3,5-diyl bis(t-butylnitroxide)
;
_chemical_melting_point 365
_cell_volume    993.285
_exptl_crystal_colour 'red'
_exptl_crystal_density_diffrn 1.192
_exptl_crystal_description 'platelet'
_diffrn_ambient_temperature 296
_refine_special_details
;
Three t-butyl methyl groups are disordered over two sites with occupancies 
0.72:0.28.
;
#These two values have been output from a single CSD field.
_refine_ls_R_factor_gt 0.0676
_refine_ls_wR_factor_gt 0.0676
_symmetry_cell_setting triclinic
_symmetry_space_group_name_H-M 'P -1'
_symmetry_Int_Tables_number 2
loop_
_symmetry_equiv_pos_site_id
_symmetry_equiv_pos_as_xyz
1 x,y,z
2 -x,-y,-z
_cell_length_a 9.747(4)
_cell_length_b 10.219(4)
_cell_length_c 11.139(4)
_cell_angle_alpha 83.48(4)
_cell_angle_beta 100.08(3)
_cell_angle_gamma 114.46(3)
_cell_formula_units_Z 2
loop_
_atom_type_symbol
_atom_type_radius_bond
C 0.68
H 0.23
N 0.68
O 0.68
loop_
_atom_site_label
_atom_site_type_symbol
_atom_site_fract_x
_atom_site_fract_y
_atom_site_fract_z
O1 O -0.0872(3) 0.2316(3) 0.4758(2)
O2 O -0.1443(2) -0.04595(19) 0.02469(19)
O3 O 0.6352(2) 0.7071(2) 0.4386(2)
N1 N -0.1485(2) 0.2415(2) 0.3663(2)
N2 N -0.0769(2) 0.0882(2) -0.0099(2)
C1 C -0.0575(3) 0.2599(3) 0.2719(2)
C2 C -0.1123(3) 0.1680(3) 0.1757(2)
C3 C -0.0205(3) 0.1878(2) 0.0875(2)
C4 C 0.1257(3) 0.2954(3) 0.0963(2)
C5 C 0.1827(3) 0.3869(2) 0.1940(2)
C6 C 0.0900(3) 0.3677(3) 0.2824(2)
C7 C 0.3391(3) 0.5039(2) 0.2025(2)
C8 C 0.4038(3) 0.5699(3) 0.0971(3)
C9 C 0.5442(3) 0.6831(3) 0.1055(3)
C10 C 0.6262(3) 0.7336(3) 0.2180(3)
C11 C 0.5650(3) 0.6679(3) 0.3225(3)
C12 C 0.4227(3) 0.5528(3) 0.3143(3)
C13 C -0.2853(3) 0.2759(3) 0.3503(3)
C14 C -0.246(2) 0.406(2) 0.4227(14)
C15 C -0.4105(14) 0.1495(19) 0.3970(17)
C16 C -0.3323(14) 0.3157(10) 0.2180(9)
C17 C -0.1374(3) 0.1327(3) -0.1352(2)
C18 C -0.0277(4) 0.2817(3) -0.1747(3)
C19 C -0.2915(4) 0.1325(5) -0.1250(4)
C20 C -0.1560(4) 0.0251(3) -0.2261(3)
C21 C 0.7741(4) 0.8302(4) 0.4525(4)
H1 H -0.213(3) 0.087(3) 0.170(2)
H2 H 0.187(2) 0.304(2) 0.037(2)
H3 H 0.125(2) 0.430(2) 0.353(2)
H4 H 0.347(3) 0.537(3) 0.018(2)
H5 H 0.580(3) 0.730(3) 0.037(2)
H6 H 0.718(3) 0.807(3) 0.221(2)
H7 H 0.391(3) 0.515(3) 0.384(3)
H8 H -0.05390 0.35260 -0.14850
H9 H -0.03400 0.28910 -0.26110
H10 H 0.07320 0.29640 -0.13910
H11 H -0.36940 0.04010 -0.14260
H12 H -0.30950 0.20250 -0.18150
H13 H -0.29160 0.15480 -0.04450
H14 H -0.06440 0.05460 -0.26010
H15 H -0.23710 0.02010 -0.28920
H16 H -0.17820 -0.06690 -0.18580
H17 H 0.85650 0.80250 0.45580
H18 H 0.78370 0.87430 0.52590
H19 H 0.77530 0.89640 0.38510
H20 H -0.46620 0.08640 0.33260
H21 H -0.47650 0.18050 0.42770
H22 H -0.36920 0.10030 0.46050
H23 H -0.27060 0.37620 0.50270
H24 H -0.30140 0.46050 0.38370
H25 H -0.13960 0.46450 0.42700
H26 H -0.28260 0.41670 0.20340
H27 H -0.43950 0.28770 0.20320
H28 H -0.30420 0.26730 0.16500
C22? C -0.219(2) 0.4319(18) 0.379(3)
C23? C -0.369(3) 0.200(4) 0.460(3)
C24? C -0.379(3) 0.209(6) 0.230(2)
#END
