
#######################################################################
#
#                 Cambridge Crystallographic Data Centre
#                                CCDC
#
#######################################################################
#
# If this CIF has been generated from an entry in the Cambridge
# Structural Database, then it will include bibliographic, chemical,
# crystal, experimental, refinement or atomic coordinate data resulting
# from the CCDC's data processing and validation procedures.
#
#######################################################################

data_CSD_CIF_ELUWUE
_audit_creation_date 2011-06-07
_audit_creation_method CSD-ConQuest-V1
_database_code_CSD ELUWUE
_database_code_depnum_ccdc_archive 'CCDC 818263'
_chemical_formula_sum 'C30 H21 N3 O6'
_chemical_formula_moiety
;
C30 H21 N3 O6
;
_journal_coden_Cambridge 1336
_journal_volume 12
_journal_year 2010
_journal_page_first 3651
_journal_name_full 'Org.Lett. '
loop_
_publ_author_name
"I.M.Jones"
"A.D.Hamilton"
_chemical_name_systematic
;
Methyl 2-((2-(benzoylamino)-6-((4-nitrobenzoyl)amino)phenyl)ethynyl)benzoate
;
_cell_volume   1244.690
_exptl_crystal_colour 'colorless'
_exptl_crystal_density_diffrn 1.386
_exptl_crystal_description 'platelet'
_diffrn_ambient_temperature 223.3
#These two values have been output from a single CSD field.
_refine_ls_R_factor_gt 0.0603
_refine_ls_wR_factor_gt 0.0603
_symmetry_cell_setting triclinic
_symmetry_space_group_name_H-M 'P -1'
_symmetry_Int_Tables_number 2
loop_
_symmetry_equiv_pos_site_id
_symmetry_equiv_pos_as_xyz
1 x,y,z
2 -x,-y,-z
_cell_length_a 8.2637(11)
_cell_length_b 12.0452(17)
_cell_length_c 13.7503(19)
_cell_angle_alpha 76.768(3)
_cell_angle_beta 80.817(3)
_cell_angle_gamma 69.691(3)
_cell_formula_units_Z 2
loop_
_atom_type_symbol
_atom_type_radius_bond
C 0.68
H 0.23
N 0.68
O 0.68
loop_
_atom_site_label
_atom_site_type_symbol
_atom_site_fract_x
_atom_site_fract_y
_atom_site_fract_z
O1 O 0.1822(3) 0.4080(2) 1.05467(16)
O2 O 0.2878(3) 0.5554(2) 1.01543(18)
O3 O 0.2828(2) 0.54034(15) 0.51840(13)
O4 O 0.6340(2) 0.1012(2) 0.15125(14)
O5 O 0.5176(2) 0.15076(14) 0.73865(11)
O6 O 0.6254(2) 0.05815(14) 0.88561(11)
N1 N 0.2444(3) 0.4776(2) 0.99372(18)
N2 N 0.3439(2) 0.33638(18) 0.55902(14)
N3 N 0.6273(2) 0.08077(18) 0.31765(15)
C1 C 0.2648(3) 0.4686(2) 0.88684(17)
C2 C 0.3739(3) 0.5206(2) 0.82088(18)
C3 C 0.3892(3) 0.5120(2) 0.72137(17)
C4 C 0.3005(2) 0.45014(18) 0.68991(15)
C5 C 0.1944(3) 0.3970(2) 0.75874(17)
C6 C 0.1750(3) 0.4068(2) 0.85808(18)
C7 C 0.3094(2) 0.4475(2) 0.58036(16)
C8 C 0.3525(2) 0.31290(19) 0.46188(15)
C9 C 0.4803(2) 0.20920(19) 0.43546(15)
C10 C 0.4950(2) 0.18579(19) 0.33794(15)
C11 C 0.3815(2) 0.2641(2) 0.26930(16)
C12 C 0.2542(3) 0.3636(2) 0.29812(17)
C13 C 0.2373(2) 0.3892(2) 0.39272(16)
C14 C 0.6943(3) 0.0457(2) 0.22884(18)
C15 C 0.8487(3) -0.0663(2) 0.23207(19)
C16 C 0.9300(3) -0.0955(2) 0.1404(2)
C17 C 1.0776(4) -0.1945(3) 0.1367(3)
C18 C 1.1452(4) -0.2640(3) 0.2231(3)
C19 C 1.0670(4) -0.2373(2) 0.3152(2)
C20 C 0.9176(3) -0.1383(2) 0.3194(2)
C21 C 0.5954(2) 0.12796(19) 0.50726(15)
C22 C 0.6856(2) 0.0609(2) 0.57060(16)
C23 C 0.7974(2) -0.02588(19) 0.64219(16)
C24 C 0.9384(3) -0.1153(2) 0.60650(19)
C25 C 1.0492(3) -0.2033(2) 0.6708(2)
C26 C 1.0213(3) -0.2029(2) 0.7719(2)
C27 C 0.8841(3) -0.1150(2) 0.80933(19)
C28 C 0.7698(2) -0.02483(19) 0.74581(16)
C29 C 0.6242(3) 0.0703(2) 0.78669(16)
C30 C 0.4915(3) 0.1491(2) 0.93153(18)
H1 H 0.43620 0.56080 0.84310
H2 H 0.46050 0.54850 0.67460
H3 H 0.13530 0.35400 0.73740
H4 H 0.10190 0.37190 0.90490
H5 H 0.39100 0.24970 0.20390
H6 H 0.17630 0.41560 0.25160
H7 H 0.14910 0.45750 0.41030
H8 H 0.88420 -0.04770 0.08050
H9 H 1.13150 -0.21390 0.07450
H10 H 1.24610 -0.33080 0.21990
H11 H 1.11430 -0.28560 0.37450
H12 H 0.86320 -0.12020 0.38190
H13 H 0.95820 -0.11560 0.53730
H14 H 1.14330 -0.26310 0.64560
H15 H 1.09620 -0.26320 0.81600
H16 H 0.86730 -0.11570 0.87870
H17 H 0.52030 0.14630 0.99790
H18 H 0.38200 0.13420 0.93690
H19 H 0.48190 0.22790 0.89070
H20 H 0.389(3) 0.277(2) 0.6065(18)
H21 H 0.675(3) 0.040(2) 0.368(2)
#END
