
#######################################################################
#
#                 Cambridge Crystallographic Data Centre
#                                CCDC
#
#######################################################################
#
# If this CIF has been generated from an entry in the Cambridge
# Structural Database, then it will include bibliographic, chemical,
# crystal, experimental, refinement or atomic coordinate data resulting
# from the CCDC's data processing and validation procedures.
#
#######################################################################

data_CSD_CIF_EMABOK
_audit_creation_date 2011-06-07
_audit_creation_method CSD-ConQuest-V1
_database_code_CSD EMABOK
_database_code_depnum_ccdc_archive 'CCDC 818267'
_chemical_formula_sum 'C42 H68 N6 O8'
_chemical_formula_moiety
;
C42 H68 N6 O8
;
_journal_coden_Cambridge 1336
_journal_volume 12
_journal_year 2010
_journal_page_first 3696
_journal_name_full 'Org.Lett. '
loop_
_publ_author_name
"O.Zeika"
"Yongjun Li"
"S.Jockusch"
"G.Parkin"
"A.Sattler"
"W.Sattler"
"N.J.Turro"
_chemical_name_systematic
;
1,1',1'',1'''-Tetraoxido-4,4',4'',4'''-((4-cyanopyridine-2,3,5,6-tetrayl)tetra
kis(oxy))tetrakis(2,2,6,6-tetramethylpiperidine) tetraradical
;
_cell_volume   4378.291
_exptl_crystal_colour 'orange'
_exptl_crystal_density_diffrn 1.191
_exptl_crystal_description 'block'
_exptl_crystal_preparation 'methanol'
_diffrn_ambient_temperature 125
#These two values have been output from a single CSD field.
_refine_ls_R_factor_gt 0.0412
_refine_ls_wR_factor_gt 0.0412
_symmetry_cell_setting monoclinic
_symmetry_space_group_name_H-M 'C 2/c'
_symmetry_Int_Tables_number 15
loop_
_symmetry_equiv_pos_site_id
_symmetry_equiv_pos_as_xyz
1 x,y,z
2 -x,y,1/2-z
3 1/2+x,1/2+y,z
4 1/2-x,1/2+y,1/2-z
5 -x,-y,-z
6 x,-y,-1/2+z
7 -1/2-x,-1/2-y,-z
8 -1/2+x,-1/2-y,-1/2+z
_cell_length_a 28.068(2)
_cell_length_b 11.6716(10)
_cell_length_c 16.1222(14)
_cell_angle_alpha 90
_cell_angle_beta 124.007(1)
_cell_angle_gamma 90
_cell_formula_units_Z 4
loop_
_atom_type_symbol
_atom_type_radius_bond
C 0.68
H 0.23
N 0.68
O 0.68
loop_
_atom_site_label
_atom_site_type_symbol
_atom_site_fract_x
_atom_site_fract_y
_atom_site_fract_z
O1 O 0.09950(3) 0.62142(6) 0.32843(5)
O2 O 0.14721(3) 1.04412(6) 0.24318(6)
O3 O 0.10224(3) 0.38610(6) 0.33176(5)
O4 O 0.20349(4) 0.27144(8) 0.13387(6)
N1 N 0.00000 0.62285(10) 0.25000
N2 N 0.13733(3) 0.94287(7) 0.26202(6)
N3 N 0.17956(4) 0.29970(8) 0.17950(6)
N4 N 0.00000 0.16498(12) 0.25000
C1 C 0.04893(4) 0.56521(8) 0.28759(7)
C2 C 0.05177(4) 0.44542(8) 0.28960(7)
C3 C 0.00000 0.38662(11) 0.25000
C4 C 0.16180(4) 0.91700(8) 0.36983(7)
C5 C 0.15777(4) 0.78794(8) 0.38234(7)
H1 H 0.18580 0.74730 0.37410
H2 H 0.16790 0.77240 0.45080
C6 C 0.09808(4) 0.74266(8) 0.30683(7)
H3 H 0.06890 0.78340 0.31330
C7 C 0.08492(4) 0.75810(8) 0.20257(7)
H4 H 0.04660 0.72520 0.15330
H5 H 0.11360 0.71510 0.19750
C8 C 0.08559(4) 0.88396(8) 0.17609(7)
C9 C 0.22512(4) 0.95189(9) 0.43107(8)
H6 H 0.22820 1.03480 0.42560
H7 H 0.24510 0.91190 0.40550
H8 H 0.24270 0.93130 0.50140
C10 C 0.12953(5) 0.98695(9) 0.40458(8)
H9 H 0.13160 1.06860 0.39270
H10 H 0.14720 0.97400 0.47620
H11 H 0.08920 0.96280 0.36700
C11 C 0.08997(5) 0.88971(10) 0.08573(8)
H12 H 0.09010 0.97000 0.06810
H13 H 0.05700 0.85030 0.02890
H14 H 0.12560 0.85260 0.10240
C12 C 0.03136(4) 0.94757(9) 0.15156(8)
H15 H 0.03570 1.02970 0.14470
H16 H 0.02570 0.93550 0.20560
H17 H -0.00200 0.91820 0.08870
C13 C 0.11905(4) 0.3405(1) 0.11485(8)
C14 C 0.09154(4) 0.33971(10) 0.17455(8)
H18 H 0.05470 0.38210 0.13650
H19 H 0.08290 0.25960 0.18200
C15 C 0.12949(4) 0.39286(8) 0.27700(7)
H20 H 0.13820 0.47440 0.27110
C16 C 0.18452(4) 0.32432(8) 0.33671(7)
H21 H 0.17510 0.24410 0.34210
H22 H 0.20860 0.35620 0.40520
C17 C 0.21870(4) 0.32598(8) 0.28853(7)
C18 C 0.08636(5) 0.25466(12) 0.02910(9)
H23 H 0.09200 0.17720 0.05650
H24 H 0.10090 0.25830 -0.01380
H25 H 0.04530 0.27350 -0.01040
C19 C 0.11744(6) 0.45929(12) 0.07255(9)
H26 H 0.13900 0.45730 0.04130
H27 H 0.13480 0.51570 0.12690
H28 H 0.07750 0.48080 0.02240
C20 C 0.26414(5) 0.2310(1) 0.33525(9)
H29 H 0.28710 0.23340 0.30670
H30 H 0.24510 0.15630 0.32120
H31 H 0.28930 0.24250 0.40780
C21 C 0.24771(5) 0.44227(9) 0.30185(9)
H32 H 0.26460 0.44350 0.26260
H33 H 0.27800 0.45400 0.37270
H34 H 0.21910 0.50350 0.27870
C22 C 0.00000 0.26314(12) 0.25000
O1A O -0.09950(3) 0.62142(6) 0.17157(5)
O2A O -0.14721(3) 1.04412(6) 0.25682(6)
O3A O -0.10224(3) 0.38610(6) 0.16824(5)
O4A O -0.20349(4) 0.27144(8) 0.36613(6)
N2A N -0.13733(3) 0.94287(7) 0.23798(6)
N3A N -0.17956(4) 0.29970(8) 0.32050(6)
C1A C -0.04893(4) 0.56521(8) 0.21241(7)
C2A C -0.05177(4) 0.44542(8) 0.21040(7)
C4A C -0.16180(4) 0.91700(8) 0.13017(7)
C5A C -0.15777(4) 0.78794(8) 0.11766(7)
H1A H -0.18580 0.74730 0.12590
H2A H -0.16790 0.77240 0.04920
C6A C -0.09808(4) 0.74266(8) 0.19317(7)
H3A H -0.06890 0.78340 0.18670
C7A C -0.08492(4) 0.75810(8) 0.29743(7)
H4A H -0.04660 0.72520 0.34670
H5A H -0.11360 0.71510 0.30250
C8A C -0.08559(4) 0.88396(8) 0.32391(7)
C9A C -0.22512(4) 0.95189(9) 0.06893(8)
H6A H -0.22820 1.03480 0.07440
H7A H -0.24510 0.91190 0.09450
H8A H -0.24270 0.93130 -0.00140
C10A C -0.12953(5) 0.98695(9) 0.09542(8)
H9A H -0.13160 1.06860 0.10730
H10A H -0.14720 0.97400 0.02380
H11A H -0.08920 0.96280 0.13300
C11A C -0.08997(5) 0.88971(10) 0.41427(8)
H12A H -0.09010 0.97000 0.43190
H13A H -0.05700 0.85030 0.47110
H14A H -0.12560 0.85260 0.39760
C12A C -0.03136(4) 0.94757(9) 0.34844(8)
H15A H -0.03570 1.02970 0.35530
H16A H -0.02570 0.93550 0.29440
H17A H 0.00200 0.91820 0.41130
C13A C -0.11905(4) 0.3405(1) 0.38515(8)
C14A C -0.09154(4) 0.33971(10) 0.32545(8)
H18A H -0.05470 0.38210 0.36350
H19A H -0.08290 0.25960 0.31800
C15A C -0.12949(4) 0.39286(8) 0.22300(7)
H20A H -0.13820 0.47440 0.22890
C16A C -0.18452(4) 0.32432(8) 0.16329(7)
H21A H -0.17510 0.24410 0.15790
H22A H -0.20860 0.35620 0.09480
C17A C -0.21870(4) 0.32598(8) 0.21147(7)
C18A C -0.08636(5) 0.25466(12) 0.47090(9)
H23A H -0.09200 0.17720 0.44350
H24A H -0.10090 0.25830 0.51380
H25A H -0.04530 0.27350 0.51040
C19A C -0.11744(6) 0.45929(12) 0.42745(9)
H26A H -0.13900 0.45730 0.45870
H27A H -0.13480 0.51570 0.37310
H28A H -0.07750 0.48080 0.47760
C20A C -0.26414(5) 0.2310(1) 0.16475(9)
H29A H -0.28710 0.23340 0.19330
H30A H -0.24510 0.15630 0.17880
H31A H -0.28930 0.24250 0.09220
C21A C -0.24771(5) 0.44227(9) 0.19815(9)
H32A H -0.26460 0.44350 0.23740
H33A H -0.27800 0.45400 0.12730
H34A H -0.21910 0.50350 0.22130
#END
