
#######################################################################
#
#                 Cambridge Crystallographic Data Centre
#                                CCDC
#
#######################################################################
#
# If this CIF has been generated from an entry in the Cambridge
# Structural Database, then it will include bibliographic, chemical,
# crystal, experimental, refinement or atomic coordinate data resulting
# from the CCDC's data processing and validation procedures.
#
#######################################################################

data_CSD_CIF_EMANUC
_audit_creation_date 2011-06-07
_audit_creation_method CSD-ConQuest-V1
_database_code_CSD EMANUC
_database_code_depnum_ccdc_archive 'CCDC 699259'
_chemical_formula_sum 'C46 H50 N2 O7'
_chemical_formula_moiety
;
C46 H50 N2 O7
;
_journal_coden_Cambridge 10
_journal_volume 93
_journal_year 2010
_journal_page_first 2297
_journal_name_full 'Helv.Chim.Acta '
loop_
_publ_author_name
"M.-P.Collin"
"A.Vasella"
_chemical_name_systematic
;
t-Butyl 
2-(benzylidene(hydroxy)-\l^5^-azanyl)-3,4,5-tris(benzyloxy)-6-((benzyloxy)meth
yl)piperidine-1-carboxylate
;
_chemical_name_common
;
2,3,4,6-Tetra-O-benzyl-5-((t-butoxycarbonyl)amino)-5-deoxy-1-N-(phenylmethylid
ene)-beta-D-glucopyranosylamine N-oxide
;
_chemical_melting_point 341.15
_cell_volume   4113.604
_exptl_crystal_colour 'colorless'
_exptl_crystal_density_diffrn 1.2
_exptl_special_details
;
Melting point range 341.15-343.15K

;
_exptl_crystal_description 'cube'
_exptl_crystal_preparation 'methanol/water'
_diffrn_ambient_temperature 220
#These two values have been output from a single CSD field.
_refine_ls_R_factor_gt 0.0398
_refine_ls_wR_factor_gt 0.0398
_symmetry_cell_setting orthorhombic
_symmetry_space_group_name_H-M 'P 21 21 21'
_symmetry_Int_Tables_number 19
loop_
_symmetry_equiv_pos_site_id
_symmetry_equiv_pos_as_xyz
1 x,y,z
2 1/2-x,-y,1/2+z
3 -x,1/2+y,1/2-z
4 1/2+x,1/2-y,-z
_cell_length_a 9.1192(11)
_cell_length_b 12.2196(12)
_cell_length_c 36.9155(16)
_cell_angle_alpha 90
_cell_angle_beta 90
_cell_angle_gamma 90
_cell_formula_units_Z 4
loop_
_atom_type_symbol
_atom_type_radius_bond
C 0.68
H 0.23
N 0.68
O 0.68
loop_
_atom_site_label
_atom_site_type_symbol
_atom_site_fract_x
_atom_site_fract_y
_atom_site_fract_z
O1 O 0.9468(2) 0.51697(14) 0.74030(5)
O2 O 1.04524(19) 0.68295(13) 0.75416(4)
O3 O 1.30415(18) 0.68035(15) 0.67947(5)
O4 O 1.08605(19) 0.88335(13) 0.64235(5)
O5 O 0.85008(19) 0.79232(15) 0.60316(5)
O6 O 0.69672(18) 0.62502(16) 0.65504(5)
O7 O 0.9987(2) 0.43471(14) 0.62408(5)
N1 N 1.0044(2) 0.64173(15) 0.69640(5)
N2 N 1.2254(2) 0.75311(16) 0.69569(5)
C1 C 1.0647(3) 0.7476(2) 0.68723(6)
H1 H 1.01360 0.80390 0.70180
C2 C 1.0410(3) 0.7734(2) 0.64735(7)
H2 H 1.10280 0.72450 0.63240
C3 C 0.8808(3) 0.7538(2) 0.63864(7)
H3 H 0.81990 0.79520 0.65610
C4 C 0.8454(3) 0.6324(2) 0.64224(7)
H4 H 0.85060 0.59870 0.61790
C5 C 0.9480(3) 0.5693(2) 0.66766(7)
H5 H 0.88640 0.51390 0.68000
C6 C 0.9953(3) 0.6062(2) 0.73166(7)
C7 C 1.0485(3) 0.6663(2) 0.79413(7)
C8 C 1.1218(4) 0.7709(2) 0.80625(8)
H6 H 1.06980 0.83310 0.79620
H7 H 1.22260 0.77170 0.79790
H8 H 1.12020 0.77510 0.83250
C9 C 0.8936(3) 0.6566(3) 0.80808(8)
H9 H 0.84640 0.59380 0.79700
H10 H 0.83950 0.72240 0.80210
H11 H 0.89530 0.64710 0.83420
C10 C 1.1407(4) 0.5677(2) 0.80376(8)
H12 H 1.23480 0.57270 0.79160
H13 H 1.09060 0.50160 0.79610
H14 H 1.15580 0.56560 0.82980
C11 C 1.2720(3) 0.8293(2) 0.71744(7)
H15 H 1.20140 0.87830 0.72640
C12 C 1.4221(3) 0.8461(2) 0.72923(7)
C13 C 1.5404(3) 0.7796(2) 0.71985(7)
H16 H 1.52670 0.72050 0.70390
C14 C 1.6778(3) 0.8009(3) 0.73397(8)
H17 H 1.75690 0.75490 0.72800
C15 C 1.7003(3) 0.8888(3) 0.75680(8)
H18 H 1.79440 0.90250 0.76620
C16 C 1.5862(3) 0.9559(3) 0.76575(8)
H19 H 1.60220 1.01630 0.78100
C17 C 1.4474(3) 0.9354(2) 0.75239(8)
H20 H 1.36920 0.98150 0.75890
C18 C 1.1527(4) 0.9067(3) 0.60804(8)
H21 H 1.07750 0.92960 0.59070
H22 H 1.20040 0.84070 0.59860
C19 C 1.2642(3) 0.9963(2) 0.61253(8)
C20 C 1.2674(4) 1.0846(2) 0.58940(9)
H23 H 1.19760 1.08970 0.57070
C21 C 1.3718(5) 1.1663(3) 0.59322(13)
H24 H 1.37350 1.22580 0.57710
C22 C 1.4704(5) 1.1600(4) 0.62010(15)
H25 H 1.54050 1.21570 0.62290
C23 C 1.4697(4) 1.0727(5) 0.64357(12)
H26 H 1.53940 1.06880 0.66230
C24 C 1.3672(4) 0.9910(3) 0.63974(9)
H27 H 1.36740 0.93130 0.65580
C25 C 0.7075(3) 0.8388(3) 0.59957(8)
H28 H 0.70810 0.91400 0.60880
H29 H 0.63720 0.79630 0.61390
C26 C 0.6617(3) 0.8389(3) 0.56066(9)
C27 C 0.7048(4) 0.7585(3) 0.53696(9)
H30 H 0.76880 0.70330 0.54500
C28 C 0.6559(5) 0.7571(5) 0.50139(11)
H31 H 0.68840 0.70270 0.48530
C29 C 0.5604(5) 0.8352(6) 0.49012(13)
H32 H 0.52790 0.83560 0.46600
C30 C 0.5123(5) 0.9118(5) 0.51330(15)
H33 H 0.44230 0.96310 0.50550
C31 C 0.5640(4) 0.9166(3) 0.54862(11)
H34 H 0.53240 0.97270 0.56420
C32 C 0.6247(3) 0.5244(3) 0.64564(9)
H35 H 0.54380 0.51160 0.66260
H36 H 0.69430 0.46380 0.64810
C33 C 0.5654(3) 0.5254(2) 0.60766(8)
C34 C 0.6212(4) 0.4603(3) 0.58085(11)
H37 H 0.70000 0.41310 0.58590
C35 C 0.5622(6) 0.4632(4) 0.54609(12)
H38 H 0.60050 0.41790 0.52780
C36 C 0.4473(5) 0.5331(4) 0.53858(12)
H39 H 0.40770 0.53620 0.51510
C37 C 0.3916(4) 0.5972(3) 0.56532(11)
H40 H 0.31250 0.64420 0.56030
C38 C 0.4497(3) 0.5938(3) 0.59940(9)
H41 H 0.41020 0.63900 0.61760
C39 C 1.0692(3) 0.5064(2) 0.64867(8)
H42 H 1.13440 0.55670 0.63570
H43 H 1.12740 0.46490 0.66630
C40 C 1.0974(3) 0.3671(3) 0.60459(8)
H44 H 1.14520 0.31550 0.62110
H45 H 1.17340 0.41200 0.59310
C41 C 1.0139(3) 0.3061(2) 0.57642(8)
C42 C 0.9260(4) 0.2204(3) 0.58557(11)
H46 H 0.91980 0.19850 0.60990
C43 C 0.8462(5) 0.1653(4) 0.55974(17)
H47 H 0.78580 0.10630 0.56640
C44 C 0.8553(7) 0.1972(6) 0.52407(19)
H48 H 0.79930 0.16210 0.50610
C45 C 0.9471(9) 0.2805(6) 0.51548(15)
H49 H 0.95800 0.30070 0.49110
C46 C 1.0239(5) 0.3356(4) 0.54135(10)
H50 H 1.08430 0.39460 0.53470
#END
