
#######################################################################
#
#                 Cambridge Crystallographic Data Centre
#                                CCDC
#
#######################################################################
#
# If this CIF has been generated from an entry in the Cambridge
# Structural Database, then it will include bibliographic, chemical,
# crystal, experimental, refinement or atomic coordinate data resulting
# from the CCDC's data processing and validation procedures.
#
#######################################################################

data_CSD_CIF_EMEDUW
_audit_creation_date 2011-06-07
_audit_creation_method CSD-ConQuest-V1
_database_code_CSD EMEDUW
_database_code_depnum_ccdc_archive 'CCDC 641436'
_chemical_formula_sum 'C15 H10 N2 O4'
_chemical_formula_moiety
;
C15 H10 N2 O4
;
_journal_coden_Cambridge 1003
_journal_volume 41
_journal_year 2011
_journal_page_first 545
_journal_name_full 'J.Chem.Cryst. '
loop_
_publ_author_name
"N.S.Radulovic"
"G.A.Bogdanovic"
"P.D.Blagojevic"
"V.S.Dekic"
"R.D.Vukicevic"
_chemical_name_systematic
;
3-nitro-4-phenylamino-chromen-2-one
;
_chemical_name_common
;
4-Anilino-3-nitro-2H-chromen-2-one
;
_cell_volume   1296.285
_exptl_crystal_colour 'yellow'
_exptl_crystal_density_diffrn 1.446
_exptl_crystal_description 'stick'
_diffrn_ambient_temperature 293
#These two values have been output from a single CSD field.
_refine_ls_R_factor_gt 0.0462
_refine_ls_wR_factor_gt 0.0462
_symmetry_cell_setting orthorhombic
_symmetry_space_group_name_H-M 'P 21 21 21'
_symmetry_Int_Tables_number 19
loop_
_symmetry_equiv_pos_site_id
_symmetry_equiv_pos_as_xyz
1 x,y,z
2 1/2-x,-y,1/2+z
3 1/2+x,1/2-y,-z
4 -x,1/2+y,1/2-z
_cell_length_a 4.9274(9)
_cell_length_b 14.725(3)
_cell_length_c 17.866(4)
_cell_angle_alpha 90
_cell_angle_beta 90
_cell_angle_gamma 90
_cell_formula_units_Z 4
loop_
_atom_type_symbol
_atom_type_radius_bond
C 0.68
H 0.23
N 0.68
O 0.68
loop_
_atom_site_label
_atom_site_type_symbol
_atom_site_fract_x
_atom_site_fract_y
_atom_site_fract_z
O1 O 0.6643(6) 0.18542(16) 0.14965(14)
O2 O 0.4130(7) 0.08681(16) 0.21038(15)
O3 O -0.0272(5) 0.2601(2) 0.30691(14)
N1 N 0.4091(8) 0.3987(2) 0.28487(17)
O4 O 0.2222(6) 0.14890(18) 0.34422(15)
N2 N 0.1798(7) 0.2143(2) 0.30322(16)
C1 C 0.4705(8) 0.3288(2) 0.24048(17)
C2 C 0.4796(9) 0.1655(3) 0.2052(2)
C3 C 0.6547(7) 0.3465(2) 0.17787(17)
C4 C 0.3842(7) 0.2398(2) 0.24884(19)
C5 C 0.2970(8) 0.3987(2) 0.3592(2)
C6 C 0.7484(9) 0.2736(2) 0.1355(2)
C7 C 0.7543(9) 0.4316(2) 0.15918(19)
H1 H 0.69760 0.48210 0.18620
C8 C 0.4083(8) 0.3434(3) 0.41335(19)
H2 H 0.54900 0.30380 0.40170
C9 C 0.9307(9) 0.2839(3) 0.0782(2)
H3 H 0.99150 0.23340 0.05170
C10 C 0.3062(10) 0.3482(3) 0.4855(2)
H4 H 0.37800 0.31130 0.52280
C11 C 0.0937(9) 0.4592(2) 0.3752(2)
H5 H 0.02340 0.49670 0.33810
C12 C 1.0232(9) 0.3693(3) 0.0601(2)
H6 H 1.14340 0.37740 0.02050
C13 C 0.9352(10) 0.4424(3) 0.1015(2)
H7 H 0.99940 0.50020 0.09010
C14 C 0.0979(12) 0.4078(3) 0.5021(3)
H8 H 0.02710 0.41030 0.55030
C15 C -0.004(1) 0.4633(3) 0.4468(3)
H9 H -0.14150 0.50420 0.45840
H10 H 0.448(8) 0.451(2) 0.2724(18)
#END
