
#######################################################################
#
#                 Cambridge Crystallographic Data Centre
#                                CCDC
#
#######################################################################
#
# If this CIF has been generated from an entry in the Cambridge
# Structural Database, then it will include bibliographic, chemical,
# crystal, experimental, refinement or atomic coordinate data resulting
# from the CCDC's data processing and validation procedures.
#
#######################################################################

data_CSD_CIF_EMEXAW
_audit_creation_date 2011-06-07
_audit_creation_method CSD-ConQuest-V1
_database_code_CSD EMEXAW
_database_code_depnum_ccdc_archive 'CCDC 782287'
_chemical_formula_sum 'C20 H16 N4 O4'
_chemical_formula_moiety
;
C20 H16 N4 O4
;
_journal_coden_Cambridge 1088
_journal_year 2010
_journal_page_first 2299
_journal_name_full 'Synlett '
loop_
_publ_author_name
"D.Ostrovskyi"
"V.O.Iaroshenko"
"A.Petrosyan"
"S.Dudkin"
"I.Ali"
"A.Villinger"
"A.Tolmachev"
"P.Langer"
_chemical_name_systematic
;
2-(3-(4-Methoxybenzyl)-6-nitro-3H-imidazo[4,5-b]pyridin-5-yl)phenol
;
_cell_volume   1793.622
_exptl_crystal_colour 'colorless'
_exptl_crystal_density_diffrn 1.394
_exptl_crystal_description 'block'
_diffrn_ambient_temperature 173
#These two values have been output from a single CSD field.
_refine_ls_R_factor_gt 0.0451
_refine_ls_wR_factor_gt 0.0451
_symmetry_cell_setting orthorhombic
_symmetry_space_group_name_H-M 'P 21 21 21'
_symmetry_Int_Tables_number 19
loop_
_symmetry_equiv_pos_site_id
_symmetry_equiv_pos_as_xyz
1 x,y,z
2 1/2-x,-y,1/2+z
3 -x,1/2+y,1/2-z
4 1/2+x,1/2-y,-z
_cell_length_a 7.0116(3)
_cell_length_b 11.7207(5)
_cell_length_c 21.8253(9)
_cell_angle_alpha 90
_cell_angle_beta 90
_cell_angle_gamma 90
_cell_formula_units_Z 4
loop_
_atom_type_symbol
_atom_type_radius_bond
C 0.68
H 0.23
N 0.68
O 0.68
loop_
_atom_site_label
_atom_site_type_symbol
_atom_site_fract_x
_atom_site_fract_y
_atom_site_fract_z
N1 N 0.88865(16) 0.37427(9) 0.70106(5)
N2 N 1.06161(16) 0.45558(10) 0.78624(5)
N3 N 0.85843(17) 0.5946(1) 0.81366(5)
N4 N 0.42962(18) 0.49482(10) 0.64243(6)
O1 O 1.21345(17) 0.08228(10) 0.99336(5)
O2 O 0.39542(17) 0.25938(9) 0.65764(5)
O3 O 0.28753(17) 0.53570(12) 0.66772(6)
O4 O 0.43979(18) 0.47328(9) 0.58782(5)
C1 C 0.91058(18) 0.44877(11) 0.74621(6)
C2 C 0.78435(19) 0.53629(11) 0.76372(6)
C3 C 1.0229(2) 0.54377(12) 0.82474(6)
H1 H 1.10650 0.56670 0.85670
C4 C 0.62031(19) 0.55031(11) 0.72955(6)
H2 H 0.52900 0.60780 0.73860
C5 C 0.59760(18) 0.47504(11) 0.68112(6)
C6 C 0.72881(19) 0.38668(11) 0.66769(6)
C7 C 0.7030(2) 0.29796(11) 0.61986(6)
C8 C 0.5369(2) 0.23129(12) 0.61823(6)
C9 C 0.8517(2) 0.27304(12) 0.57974(6)
H3 H 0.96490 0.31750 0.58090
C10 C 0.8363(3) 0.18373(13) 0.53788(7)
H4 H 0.93720 0.16840 0.51000
C11 C 0.6734(3) 0.11777(13) 0.53728(7)
H5 H 0.66330 0.05600 0.50930
C12 C 0.5247(2) 0.14053(12) 0.57694(7)
H6 H 0.41350 0.09420 0.57610
C13 C 1.2262(2) 0.37858(13) 0.78830(7)
H7 H 1.34470 0.42450 0.78900
H8 H 1.22790 0.33160 0.75060
C14 C 1.2234(2) 0.30091(12) 0.84341(6)
C15 C 1.3622(2) 0.31053(13) 0.88810(7)
H9 H 1.45810 0.36730 0.88390
C16 C 1.3650(2) 0.23908(13) 0.93920(7)
H10 H 1.46120 0.24720 0.96950
C17 C 1.2255(2) 0.15624(12) 0.94503(6)
C18 C 1.0841(2) 0.14512(12) 0.90046(7)
H11 H 0.98840 0.08820 0.90450
C19 C 1.0836(2) 0.21710(12) 0.85047(7)
H12 H 0.98660 0.20950 0.82030
C20 C 1.3588(3) 0.09004(18) 1.03886(9)
H13 H 1.35250 0.16490 1.05880
H14 H 1.48400 0.08050 1.01960
H15 H 1.33990 0.03010 1.06960
H16 H 0.303(3) 0.2114(18) 0.6558(9)
#END
