
#######################################################################
#
#                 Cambridge Crystallographic Data Centre
#                                CCDC
#
#######################################################################
#
# If this CIF has been generated from an entry in the Cambridge
# Structural Database, then it will include bibliographic, chemical,
# crystal, experimental, refinement or atomic coordinate data resulting
# from the CCDC's data processing and validation procedures.
#
#######################################################################

data_CSD_CIF_EMIGOY
_audit_creation_date 2016-05-24
_audit_creation_method CSD-ConQuest-V1
_database_code_CSD EMIGOY
_database_code_depnum_ccdc_archive 'CCDC 1411955'
_chemical_formula_sum 'C22 H25 N1 O4'
_chemical_formula_moiety
;
C22 H25 N1 O4
;
_journal_coden_Cambridge 4
_journal_volume 138
_journal_year 2016
_journal_page_first 6261
_journal_name_full 'J.Am.Chem.Soc. '
loop_
_publ_author_name
"Xuerong Yu"
"Fan Su"
"Chang Liu"
"Haosen Yuan"
"Shan Zhao"
"Zhiyao Zhou"
"Tianfei Quan"
"Tuoping Luo"
_chemical_name_systematic
;
(1-(but-2-en-2-yl)-4-methyl-3,4,5,6-tetrahydro-3aH-inden-3a-yl)methyl 
4-nitrobenzoate
;
_cell_volume    987.140
_exptl_crystal_density_diffrn 1.236
_exptl_crystal_preparation 'hexane/ ethyl acetate'
_diffrn_ambient_temperature 180
#These two values have been output from a single CSD field.
_refine_ls_R_factor_gt 0.0738
_refine_ls_wR_factor_gt 0.0738
_symmetry_cell_setting triclinic
_symmetry_space_group_name_H-M 'P -1'
_symmetry_Int_Tables_number 2
loop_
_symmetry_equiv_pos_site_id
_symmetry_equiv_pos_as_xyz
1 x,y,z
2 -x,-y,-z
_cell_length_a 6.8007(6)
_cell_length_b 10.8026(13)
_cell_length_c 14.4909(13)
_cell_angle_alpha 69.445(10)
_cell_angle_beta 88.471(8)
_cell_angle_gamma 82.126(9)
_cell_formula_units_Z 2
loop_
_atom_type_symbol
_atom_type_radius_bond
C 0.68
H 0.23
N 0.68
O 0.68
loop_
_atom_site_label
_atom_site_type_symbol
_atom_site_fract_x
_atom_site_fract_y
_atom_site_fract_z
C1 C 0.5211(4) 0.4507(3) 0.6559(2)
C2 C 0.4616(4) 0.3606(3) 0.6175(3)
H1 H 0.32770 0.34350 0.62350
C3 C 0.5955(5) 0.2955(3) 0.5707(2)
H2 H 0.55520 0.23460 0.54330
C4 C 0.7892(4) 0.3215(3) 0.5649(2)
C5 C 0.8534(4) 0.4086(3) 0.6039(2)
H3 H 0.98830 0.42350 0.59920
C6 C 0.7184(4) 0.4741(3) 0.6502(2)
H4 H 0.75970 0.53430 0.67780
C7 C 0.3690(5) 0.5226(3) 0.7019(2)
C8 C 0.3102(5) 0.6797(3) 0.7838(3)
H5 H 0.25590 0.61900 0.84430
H6 H 0.19810 0.72970 0.73780
C9 C 0.4223(5) 0.7768(3) 0.8096(3)
C10 C 0.4681(6) 0.8975(3) 0.7204(3)
H7 H 0.53600 0.95470 0.74710
C11 C 0.2751(6) 0.9812(4) 0.6704(3)
H8 H 0.20470 0.92770 0.64230
H9 H 0.30780 1.06010 0.61510
C12 C 0.1357(7) 1.0288(4) 0.7393(3)
H10 H 0.16250 1.11840 0.73500
H11 H -0.00290 1.03780 0.71610
C13 C 0.1543(6) 0.9386(3) 0.8450(3)
H12 H 0.06820 0.96080 0.89120
C14 C 0.2854(5) 0.8290(3) 0.8771(2)
C15 C 0.3441(6) 0.7462(4) 0.9787(3)
C16 C 0.5195(6) 0.6725(4) 0.9801(3)
H13 H 0.58500 0.61090 1.03850
C17 C 0.6017(5) 0.6982(4) 0.8788(3)
H14 H 0.64870 0.61340 0.86820
H15 H 0.71290 0.75160 0.86830
C18 C 0.6082(6) 0.8630(4) 0.6458(3)
H16 H 0.53980 0.81800 0.61060
H17 H 0.72620 0.80380 0.68050
H18 H 0.64840 0.94510 0.59850
C19 C 0.2234(8) 0.7518(5) 1.0655(3)
C20 C 0.0247(8) 0.6851(7) 1.0741(4)
H19 H 0.05770 0.59420 1.07370
H20 H -0.06500 0.73810 1.01820
H21 H -0.04070 0.68230 1.13580
C21 C 0.2721(12) 0.8022(6) 1.1254(4)
H22 H 0.18540 0.79930 1.17840
C22 C 0.4486(12) 0.8645(6) 1.1214(4)
H23 H 0.52280 0.86450 1.06250
H24 H 0.53200 0.81460 1.18040
H25 H 0.41070 0.95660 1.11870
N1 N 0.9333(4) 0.2543(3) 0.5136(2)
O1 O 0.1951(3) 0.5109(3) 0.7039(2)
O2 O 0.4460(3) 0.6028(2) 0.73819(19)
O3 O 0.8749(4) 0.1764(3) 0.4803(2)
O4 O 1.1042(3) 0.2796(2) 0.50755(19)
#END
