
#######################################################################
#
#                 Cambridge Crystallographic Data Centre
#                                CCDC
#
#######################################################################
#
# If this CIF has been generated from an entry in the Cambridge
# Structural Database, then it will include bibliographic, chemical,
# crystal, experimental, refinement or atomic coordinate data resulting
# from the CCDC's data processing and validation procedures.
#
#######################################################################

data_CSD_CIF_EMIPUM
_audit_creation_date 2011-06-07
_audit_creation_method CSD-ConQuest-V1
_database_code_CSD EMIPUM
_database_code_depnum_ccdc_archive 'CCDC 753980'
_chemical_formula_sum 'C14 H27 N1 O1'
_chemical_formula_moiety
;
C14 H27 N1 O1
;
_journal_coden_Cambridge 127
_journal_volume 68
_journal_year 2010
_journal_page_first 989
_journal_name_full 'Huaxue Xuebao(Chin.)(Acta Chim.Sinica) '
loop_
_publ_author_name
"Chunyan Zhang"
"Shoucong Chen"
"Daoquan Wang"
"Mingan Wang"
_chemical_name_systematic
;
2-Ethyl-N-hydroxycyclododecanimine
;
_cell_volume    719.806
_exptl_crystal_colour 'colorless'
_exptl_crystal_density_diffrn 1.04
_exptl_crystal_description 'block'
_diffrn_ambient_temperature 298
#These two values have been output from a single CSD field.
_refine_ls_R_factor_gt 0.059
_refine_ls_wR_factor_gt 0.059
_symmetry_cell_setting triclinic
_symmetry_space_group_name_H-M 'P -1'
_symmetry_Int_Tables_number 2
loop_
_symmetry_equiv_pos_site_id
_symmetry_equiv_pos_as_xyz
1 x,y,z
2 -x,-y,-z
_cell_length_a 8.7515(5)
_cell_length_b 9.3918(5)
_cell_length_c 10.3401(6)
_cell_angle_alpha 64.862(1)
_cell_angle_beta 86.955(1)
_cell_angle_gamma 70.206(1)
_cell_formula_units_Z 2
loop_
_atom_type_symbol
_atom_type_radius_bond
C 0.68
H 0.23
N 0.68
O 0.68
loop_
_atom_site_label
_atom_site_type_symbol
_atom_site_fract_x
_atom_site_fract_y
_atom_site_fract_z
C1 C 0.17392(19) 0.3827(2) 0.31229(17)
C2 C 0.3215(2) 0.2239(2) 0.35367(18)
H1 H 0.33530 0.16270 0.45870
C3 C 0.4763(2) 0.2649(2) 0.3073(2)
H2 H 0.56620 0.16110 0.32680
H3 H 0.46080 0.33370 0.20430
C4 C 0.5229(2) 0.3564(2) 0.3815(2)
H4 H 0.55570 0.28060 0.48250
H5 H 0.42730 0.45040 0.37530
C5 C 0.6613(2) 0.4219(3) 0.3183(3)
H6 H 0.70120 0.45320 0.38440
H7 H 0.75060 0.33190 0.30990
C6 C 0.6109(3) 0.5717(3) 0.1723(3)
H8 H 0.55570 0.54620 0.11050
H9 H 0.70830 0.58920 0.13000
C7 C 0.4987(3) 0.7339(3) 0.1767(3)
H10 H 0.43600 0.70590 0.25830
H11 H 0.56540 0.79080 0.19170
C8 C 0.3812(3) 0.8538(3) 0.0416(2)
H12 H 0.44370 0.87730 -0.04040
H13 H 0.32510 0.95880 0.04790
C9 C 0.2545(3) 0.7886(3) 0.0155(2)
H14 H 0.19490 0.86560 -0.07850
H15 H 0.31070 0.68100 0.01370
C10 C 0.1328(2) 0.7671(2) 0.1258(2)
H16 H 0.06460 0.87710 0.11710
H17 H 0.19230 0.70440 0.22100
C11 C 0.0234(2) 0.6773(2) 0.11175(19)
H18 H -0.02370 0.73030 0.01260
H19 H -0.06570 0.69190 0.17030
C12 C 0.1096(2) 0.4904(2) 0.15609(18)
H20 H 0.03400 0.44800 0.13170
H21 H 0.20040 0.47670 0.09910
C13 C 0.2944(2) 0.1100(2) 0.2923(2)
H22 H 0.27770 0.16970 0.18830
H23 H 0.39230 0.01130 0.31800
C14 C 0.1501(3) 0.0546(3) 0.3455(3)
H24 H 0.16010 0.00550 0.44860
H25 H 0.14800 -0.02680 0.31330
H26 H 0.05080 0.14990 0.30830
N1 N 0.09510(17) 0.43340(18) 0.40041(14)
O1 O 0.15511(19) 0.32599(19) 0.54602(14)
H27 H 0.093(2) 0.376(3) 0.593(2)
#END
