
#######################################################################
#
#                 Cambridge Crystallographic Data Centre
#                                CCDC
#
#######################################################################
#
# If this CIF has been generated from an entry in the Cambridge
# Structural Database, then it will include bibliographic, chemical,
# crystal, experimental, refinement or atomic coordinate data resulting
# from the CCDC's data processing and validation procedures.
#
#######################################################################

data_CSD_CIF_EMISUO
_audit_creation_date 2004-02-24
_audit_creation_method CSD-ConQuest-V1
_database_code_CSD EMISUO
_database_code_depnum_ccdc_archive 'CCDC 230848'
_chemical_formula_sum 'C18 H18 N6 O1'
_chemical_formula_moiety
;
C18 H18 N6 O1
;
_journal_coeditor_code "IUCr NA5007"
_journal_coden_Cambridge 622
_journal_volume 60
_journal_year 2004
_journal_page_first 76
_journal_name_full 'Acta Crystallogr.,Sect.B:Struct.Sci. '
loop_
_publ_author_name
"A.Quesada"
"A.Marchal"
"M.Melguizo"
"J.N.Low"
"C.Glidewell"
_chemical_name_systematic
;
2-Amino-4,6-bis(benzylamino)-5-nitrosopyrimidine
;
_chemical_melting_point 443
_cell_volume   1588.610
_exptl_crystal_colour 'purple'
_exptl_crystal_density_diffrn 1.398
_exptl_crystal_description 'plate'
_exptl_crystal_preparation 'acetonitrile/ethanol/water'
_diffrn_ambient_temperature 120
#These two values have been output from a single CSD field.
_refine_ls_R_factor_gt 0.0455
_refine_ls_wR_factor_gt 0.0455
_symmetry_cell_setting monoclinic
_symmetry_space_group_name_H-M 'P 21/c'
_symmetry_Int_Tables_number 14
loop_
_symmetry_equiv_pos_site_id
_symmetry_equiv_pos_as_xyz
1 x,y,z
2 x,1/2-y,1/2+z
3 -x,-y,-z
4 -x,-1/2+y,-1/2-z
_cell_length_a 12.9416(1)
_cell_length_b 6.6816(3)
_cell_length_c 20.0033(5)
_cell_angle_alpha 90
_cell_angle_beta 113.3020(12)
_cell_angle_gamma 90
_cell_formula_units_Z 4
loop_
_atom_type_symbol
_atom_type_radius_bond
C 0.68
H 0.23
N 0.68
O 0.68
loop_
_atom_site_label
_atom_site_type_symbol
_atom_site_fract_x
_atom_site_fract_y
_atom_site_fract_z
N1 N 0.33577(11) 0.84162(19) 0.20935(7)
C1 C 0.39878(13) 0.9984(2) 0.24680(8)
N2 N 0.50593(11) 0.9986(2) 0.25476(7)
N3 N 0.36605(11) 1.15517(19) 0.27714(7)
C2 C 0.25925(13) 1.1526(2) 0.27140(8)
N4 N 0.22099(11) 1.30115(19) 0.29972(7)
C3 C 0.29104(14) 1.4571(2) 0.34737(9)
C4 C 0.33596(13) 1.4021(3) 0.42764(8)
C5 C 0.36786(14) 1.2078(3) 0.45173(9)
C6 C 0.41066(15) 1.1621(3) 0.52538(9)
C7 C 0.42185(15) 1.3108(3) 0.57609(9)
C8 C 0.39044(15) 1.5049(3) 0.55276(9)
C9 C 0.34766(14) 1.5509(3) 0.47891(9)
C10 C 0.18352(13) 0.9904(2) 0.23483(8)
N5 N 0.08014(11) 1.0005(2) 0.23510(7)
O1 O 0.00954(10) 0.86113(17) 0.20251(6)
C11 C 0.22881(13) 0.8366(2) 0.20293(8)
N6 N 0.16166(11) 0.6876(2) 0.16666(7)
C12 C 0.18896(14) 0.5396(2) 0.12282(9)
C13 C 0.14731(13) 0.5977(2) 0.04300(9)
C14 C 0.14399(14) 0.4510(3) -0.00734(9)
C15 C 0.10857(15) 0.4990(3) -0.08063(9)
C16 C 0.07491(15) 0.6918(3) -0.10478(9)
C17 C 0.07738(15) 0.8381(3) -0.05510(9)
C18 C 0.11374(14) 0.7909(3) 0.01851(9)
H1 H 0.53180 0.90070 0.23620
H2 H 0.55090 1.09650 0.27860
H3 H 0.14820 1.30570 0.28890
H4 H 0.24630 1.58160 0.33960
H5 H 0.35530 1.48440 0.33370
H6 H 0.36030 1.10490 0.41730
H7 H 0.43230 1.02860 0.54110
H8 H 0.45090 1.27970 0.62650
H9 H 0.39810 1.60730 0.58740
H10 H 0.32630 1.68460 0.46340
H11 H 0.09560 0.67790 0.16940
H12 H 0.15510 0.40970 0.12690
H13 H 0.27160 0.52170 0.14240
H14 H 0.16600 0.31780 0.00850
H15 H 0.10740 0.39850 -0.11450
H16 H 0.05030 0.72360 -0.15500
H17 H 0.05420 0.97070 -0.07120
H18 H 0.11560 0.89210 0.05230
#END
