
#######################################################################
#
#                 Cambridge Crystallographic Data Centre
#                                CCDC
#
#######################################################################
#
# If this CIF has been generated from an entry in the Cambridge
# Structural Database, then it will include bibliographic, chemical,
# crystal, experimental, refinement or atomic coordinate data resulting
# from the CCDC's data processing and validation procedures.
#
#######################################################################

data_CSD_CIF_EMIVIF01
_audit_creation_date 2004-06-30
_audit_creation_method CSD-ConQuest-V1
_database_code_CSD EMIVIF01
_database_code_depnum_ccdc_archive 'CCDC 229048'
_chemical_formula_sum 'C21 H17 N3 O5'
_chemical_formula_moiety
;
C21 H17 N3 O5
;
_journal_coden_Cambridge 603
_journal_volume 23
_journal_year 2004
_journal_page_first 131
_journal_name_full 'Jiegou Huaxue(Chin.)(Chin.J.Struct.Chem.) '
loop_
_publ_author_name
"Xiang-Shan Wang"
"Da-Qing Shi"
"Shu-Jiang Tu"
_chemical_name_systematic
;
Ethyl 2-amino-4-(3-nitrophenyl)-4H-pyrano(3,2-h)quinoline-3-carboxylate
;
_chemical_melting_point 473.15
_cell_volume    918.959
_exptl_crystal_colour 'yellow'
_exptl_crystal_density_diffrn 1.414
_exptl_special_details
;
Melting point range 473.15-475.15K

;
_exptl_crystal_preparation 'dimethylformamide/water'
_diffrn_ambient_temperature 295
#These two values have been output from a single CSD field.
_refine_ls_R_factor_gt 0.0421
_refine_ls_wR_factor_gt 0.0421
_symmetry_cell_setting triclinic
_symmetry_space_group_name_H-M 'P -1'
_symmetry_Int_Tables_number 2
loop_
_symmetry_equiv_pos_site_id
_symmetry_equiv_pos_as_xyz
1 x,y,z
2 -x,-y,-z
_cell_length_a 7.886(1)
_cell_length_b 9.896(2)
_cell_length_c 12.575(3)
_cell_angle_alpha 77.81(2)
_cell_angle_beta 82.69(2)
_cell_angle_gamma 73.86(2)
_cell_formula_units_Z 2
loop_
_atom_type_symbol
_atom_type_radius_bond
C 0.68
H 0.23
N 0.68
O 0.68
loop_
_atom_site_label
_atom_site_type_symbol
_atom_site_fract_x
_atom_site_fract_y
_atom_site_fract_z
O1 O 0.14375(17) 0.03126(14) 0.62163(10)
O2 O 0.60516(18) 0.26179(15) 0.53623(10)
O3 O 0.4626(2) 0.25106(17) 0.39592(12)
O4 O 0.5623(3) 0.5938(2) 0.88706(16)
O5 O 0.7572(3) 0.4258(2) 0.82184(18)
N1 N -0.0619(2) -0.11285(17) 0.75624(13)
N2 N 0.2037(2) 0.11820(19) 0.44755(13)
H1 H 0.25880 0.16200 0.39380
H2 H 0.11950 0.08470 0.43580
N3 N 0.6042(3) 0.4892(2) 0.84338(16)
C1 C -0.1619(3) -0.1857(2) 0.82432(17)
H3 H -0.25530 -0.20380 0.79640
C2 C -0.1368(3) -0.2367(2) 0.93447(18)
H4 H -0.21130 -0.28750 0.97820
C3 C -0.0017(3) -0.2111(2) 0.97688(17)
H5 H 0.01680 -0.24410 1.05050
C4 C 0.1106(3) -0.13482(19) 0.90979(15)
C5 C 0.0742(2) -0.08718(19) 0.79902(15)
C6 C 0.1849(2) -0.00855(18) 0.72975(14)
C7 C 0.3183(2) 0.02622(18) 0.76762(14)
C8 C 0.3529(3) -0.0252(2) 0.87831(15)
H6 H 0.44610 -0.00480 0.90470
C9 C 0.2545(3) -0.1035(2) 0.94722(16)
H7 H 0.28160 -0.13670 1.01950
C10 C 0.2487(3) 0.10216(19) 0.54904(15)
C11 C 0.3788(2) 0.14985(19) 0.57856(14)
C12 C 0.4193(2) 0.12550(19) 0.69613(14)
H8 H 0.54610 0.07980 0.70100
C13 C 0.3768(2) 0.26414(18) 0.74076(14)
C14 C 0.5083(2) 0.3122(2) 0.77190(14)
H9 H 0.62620 0.26090 0.76500
C15 C 0.4627(3) 0.4372(2) 0.81344(15)
C16 C 0.2914(3) 0.5154(2) 0.82628(17)
H10 H 0.26410 0.59810 0.85590
C17 C 0.1603(3) 0.4686(2) 0.79435(17)
H11 H 0.04280 0.52070 0.80130
C18 C 0.2031(2) 0.34480(19) 0.75217(15)
H12 H 0.11330 0.31450 0.73080
C19 C 0.4808(3) 0.2234(2) 0.49406(16)
C20 C 0.7131(3) 0.3410(3) 0.46054(18)
H13 H 0.63850 0.42310 0.41640
H14 H 0.78860 0.28060 0.41250
C21 C 0.8222(3) 0.3888(3) 0.5256(2)
H15 H 0.74650 0.45550 0.56780
H16 H 0.90310 0.43420 0.47750
H17 H 0.88760 0.30750 0.57370
#END
