
#######################################################################
#
#                 Cambridge Crystallographic Data Centre
#                                CCDC
#
#######################################################################
#
# If this CIF has been generated from an entry in the Cambridge
# Structural Database, then it will include bibliographic, chemical,
# crystal, experimental, refinement or atomic coordinate data resulting
# from the CCDC's data processing and validation procedures.
#
#######################################################################

data_CSD_CIF_EMOMIC
_audit_creation_date 2004-03-25
_audit_creation_method CSD-ConQuest-V1
_database_code_CSD EMOMIC
_database_code_depnum_ccdc_journal 1003/6125
_chemical_formula_sum 'C27 H43 N1 O1'
_chemical_formula_moiety
;
C27 H43 N1 O1
;
_journal_coden_Cambridge 1003
_journal_volume 32
_journal_year 2002
_journal_page_first 325
_journal_name_full 'J.Chem.Cryst. '
loop_
_publ_author_name
"Rajnikant"
"V.K.Gupta"
"E.H.Khan"
"S.Shafi"
"Shafiullah"
"Dinesh"
_chemical_name_systematic
;
Cholest-3,5-diene-7-one oxime
;
_chemical_melting_point 470
_cell_volume   2510.845
_exptl_crystal_density_diffrn 1.052
_exptl_crystal_description 'plate-like'
_exptl_crystal_preparation 'petroleum ether'
_diffrn_ambient_temperature ?
_diffrn_special_details
;
The study was carried out at room temperature,in the range 283-303K

;
_refine_special_details
;
The side chain appears to be thermally disordered.

;
#These two values have been output from a single CSD field.
_refine_ls_R_factor_gt 0.075
_refine_ls_wR_factor_gt 0.075
_symmetry_cell_setting monoclinic
_symmetry_space_group_name_H-M 'P 21'
_symmetry_Int_Tables_number 4
loop_
_symmetry_equiv_pos_site_id
_symmetry_equiv_pos_as_xyz
1 x,y,z
2 -x,1/2+y,-z
_cell_length_a 14.302(2)
_cell_length_b 11.475(2)
_cell_length_c 15.919(3)
_cell_angle_alpha 90
_cell_angle_beta 106.04(1)
_cell_angle_gamma 90
_cell_formula_units_Z 4
loop_
_atom_type_symbol
_atom_type_radius_bond
C 0.68
N 0.68
O 0.68
loop_
_atom_site_label
_atom_site_type_symbol
_atom_site_fract_x
_atom_site_fract_y
_atom_site_fract_z
O1 O 0.2980(2) 0.8895(3) 0.5519(2)
N1 N 0.3050(2) 0.8020(3) 0.4918(2)
C1 C 0.5063(5) 0.4156(6) 0.6665(4)
C2 C 0.5814(6) 0.4311(6) 0.7545(4)
C3 C 0.5642(4) 0.5440(8) 0.7979(4)
C4 C 0.5114(3) 0.6316(7) 0.7543(3)
C5 C 0.4643(2) 0.6252(5) 0.6595(2)
C6 C 0.4046(3) 0.7101(5) 0.6205(3)
C7 C 0.3565(2) 0.7143(3) 0.5284(2)
C8 C 0.3734(2) 0.6149(3) 0.4706(2)
C9 C 0.4051(2) 0.5049(4) 0.5253(2)
C10 C 0.4900(2) 0.5247(4) 0.6095(3)
C11 C 0.4263(3) 0.4035(4) 0.4684(3)
C12 C 0.3437(3) 0.3788(4) 0.3884(3)
C13 C 0.3103(3) 0.4859(4) 0.3333(3)
C14 C 0.2851(3) 0.5828(4) 0.3923(3)
C15 C 0.2288(5) 0.6722(6) 0.3280(3)
C16 C 0.1769(8) 0.6054(8) 0.2480(5)
C17 C 0.2098(4) 0.4757(6) 0.2635(3)
C18 C 0.3883(4) 0.5286(6) 0.2903(4)
C19 C 0.5857(2) 0.5567(5) 0.5874(3)
C20 C 0.1978(5) 0.4089(7) 0.1784(4)
C21 C 0.2387(6) 0.2865(7) 0.1905(5)
C22 C 0.0806(7) 0.3992(12) 0.1254(5)
C23 C 0.0620(11) 0.3713(16) 0.0337(9)
C24 C -0.0436(10) 0.3297(16) -0.0151(10)
C25 C -0.1102(8) 0.4129(10) -0.0106(7)
C26 C -0.1279(10) 0.5081(16) -0.0672(10)
C27 C -0.2040(9) 0.3548(16) -0.0682(9)
O2 O 0.1811(2) 0.9405(3) 0.3537(2)
N2 N 0.1770(2) 1.0222(3) 0.4210(2)
C28 C -0.1795(3) 1.2146(6) 0.3311(3)
C29 C -0.2359(4) 1.2427(8) 0.2372(4)
C30 C -0.1901(4) 1.1955(9) 0.1721(4)
C31 C -0.0983(4) 1.1597(6) 0.1929(3)
C32 C -0.0338(3) 1.1655(4) 0.2818(3)
C33 C 0.0504(3) 1.1062(4) 0.3028(3)
C34 C 0.1145(2) 1.1024(4) 0.3924(2)
C35 C 0.0975(2) 1.1925(3) 0.4548(2)
C36 C -0.0142(2) 1.1974(4) 0.4421(3)
C37 C -0.0688(3) 1.2361(4) 0.3475(3)
C38 C -0.0432(3) 1.2668(5) 0.5129(3)
C39 C 0.0156(3) 1.2348(5) 0.6054(3)
C40 C 0.1246(3) 1.2510(4) 0.6176(3)
C41 C 0.1528(2) 1.1702(3) 0.5507(2)
C42 C 0.2639(3) 1.1791(4) 0.5784(3)
C43 C 0.2898(3) 1.1792(5) 0.6779(3)
C44 C 0.1939(3) 1.2041(5) 0.7036(3)
C45 C 0.1472(4) 1.3802(4) 0.6042(4)
C46 C -0.0508(4) 1.3660(5) 0.3308(4)
C47 C 0.2093(4) 1.2766(7) 0.7888(3)
C48 C 0.1157(6) 1.3011(11) 0.8123(5)
C49 C 0.2864(10) 1.2123(15) 0.8647(10)
C50 C 0.318(1) 1.2706(16) 0.9493(10)
C51 C 0.3909(10) 1.3680(16) 0.9401(10)
C52 C 0.4292(11) 1.4352(16) 1.0404(9)
C53 C 0.5335(10) 1.3989(16) 1.0691(9)
C54 C 0.4345(10) 1.5654(16) 1.0220(9)
#END
