
#######################################################################
#
#                 Cambridge Crystallographic Data Centre
#                                CCDC
#
#######################################################################
#
# If this CIF has been generated from an entry in the Cambridge
# Structural Database, then it will include bibliographic, chemical,
# crystal, experimental, refinement or atomic coordinate data resulting
# from the CCDC's data processing and validation procedures.
#
#######################################################################

data_CSD_CIF_EMOYIO
_audit_creation_date 2004-03-25
_audit_creation_method CSD-ConQuest-V1
_database_code_CSD EMOYIO
_database_code_depnum_ccdc_archive 'CCDC 192171'
_chemical_formula_sum 'C13 H16 N2 O4'
_chemical_formula_moiety
;
C13 H16 N2 O4
;
_journal_coden_Cambridge 35
_journal_volume 68
_journal_year 2003
_journal_page_first 6133
_journal_name_full 'J.Org.Chem. '
loop_
_publ_author_name
"P.D.Rege"
"F.Johnson"
_chemical_name_systematic
;
1,3-Dimethyl-3-(5'-methoxy-2'-nitrophenyl)pyrrolidin-2-one
;
_cell_volume   1300.061
_diffrn_ambient_temperature 293
#These two values have been output from a single CSD field.
_refine_ls_R_factor_gt 0.0667
_refine_ls_wR_factor_gt 0.0667
_symmetry_cell_setting monoclinic
_symmetry_space_group_name_H-M 'P 21'
_symmetry_Int_Tables_number 4
loop_
_symmetry_equiv_pos_site_id
_symmetry_equiv_pos_as_xyz
1 x,y,z
2 -x,1/2+y,-z
_cell_length_a 6.4238(8)
_cell_length_b 9.6564(12)
_cell_length_c 21.1332(25)
_cell_angle_alpha 90
_cell_angle_beta 97.376(2)
_cell_angle_gamma 90
_cell_formula_units_Z 4
loop_
_atom_type_symbol
_atom_type_radius_bond
C 0.68
H 0.23
N 0.68
O 0.68
loop_
_atom_site_label
_atom_site_type_symbol
_atom_site_fract_x
_atom_site_fract_y
_atom_site_fract_z
O1 O 0.42153 0.84802 0.65422
O2 O 0.05658 0.36681 1.06870
C1 C 0.17071 0.34348 1.02155
C2 C 0.13994 0.40686 0.96264
H1 H 0.03434 0.47279 0.95454
O3 O 0.94853 1.00189 0.43078
O4 O 0.57961 0.52368 0.84523
C3 C 0.57354 1.09238 0.56865
N1 N 0.36350 0.45801 0.75521
C4 C 0.42839 0.28057 0.93117
N2 N 0.63017 0.90526 0.74437
C5 C 0.58656 0.89188 0.68171
C6 C 0.73706 0.99451 0.58565
C7 C 0.26478 0.37427 0.91418
O5 O 0.50334 1.15694 0.66951
N3 N 0.43183 1.13459 0.61380
C8 C 0.41217 0.47862 0.81771
O6 O 0.49785 0.21195 0.83086
C9 C 0.21822 0.44443 0.85040
N4 N 0.56363 0.22891 0.88632
C10 C 0.82491 1.02578 0.47857
C11 C 0.78424 0.92224 0.65141
C12 C 0.10931 0.58759 0.85499
H2 H -0.03258 0.57383 0.89340
H3 H 0.10901 0.63654 0.81544
H4 H 0.18450 0.64062 0.88897
C13 C 0.85579 0.96651 0.53828
H5 H 0.96489 0.90320 0.54682
C14 C 0.88732 0.78092 0.64439
H6 H 0.90460 0.73431 0.68485
H7 H 1.02207 0.79378 0.63018
H8 H 0.79986 0.72614 0.61374
O7 O 0.25046 1.16475 0.59292
C15 C 0.15473 0.39847 0.73674
H9 H 0.16230 0.31926 0.70890
H10 H 0.06031 0.46658 0.71495
C16 C 0.45958 0.21885 0.99074
H11 H 0.56856 0.15576 1.00123
C17 C 0.53607 1.15025 0.50960
H12 H 0.42297 1.21014 0.50016
O8 O 0.74866 0.21309 0.90683
C18 C 0.66399 1.12118 0.46340
H13 H 0.64317 1.16387 0.42364
C19 C 0.08238 0.35566 0.79837
H14 H 0.10610 0.25754 0.80604
H15 H -0.05486 0.37516 0.79810
C20 C 0.49543 0.87142 0.79051
H16 H 0.41071 0.95036 0.79770
H17 H 0.57838 0.84548 0.82977
H18 H 0.40627 0.79558 0.77519
C21 C 0.33405 0.24895 1.03537
H19 H 0.35648 0.20676 1.07522
C22 C 0.50658 0.49608 0.71044
H20 H 0.64333 0.51320 0.73318
H21 H 0.45641 0.57829 0.68789
H22 H 0.51480 0.42199 0.68057
C23 C 0.91269 1.00896 0.70129
H23 H 1.06142 0.99038 0.70214
H24 H 0.88746 1.10692 0.69358
C24 C -0.11438 0.46249 1.05760
H25 H -0.06099 0.55336 1.05070
H26 H -0.18958 0.46408 1.09402
H27 H -0.20725 0.43421 1.02061
C25 C 1.11379 0.90277 0.44273
H28 H 1.21664 0.93584 0.47630
H29 H 1.17840 0.88944 0.40467
H30 H 1.05745 0.81638 0.45525
C26 C 0.83520 0.96336 0.76336
H31 H 0.92869 0.89466 0.78509
H32 H 0.82673 1.04176 0.79161
#END
