
#######################################################################
#
#                 Cambridge Crystallographic Data Centre
#                                CCDC
#
#######################################################################
#
# If this CIF has been generated from an entry in the Cambridge
# Structural Database, then it will include bibliographic, chemical,
# crystal, experimental, refinement or atomic coordinate data resulting
# from the CCDC's data processing and validation procedures.
#
#######################################################################

data_CSD_CIF_EMUDIA
_audit_creation_date 2011-06-07
_audit_creation_method CSD-ConQuest-V1
_database_code_CSD EMUDIA
_database_code_depnum_ccdc_archive 'CCDC 721113'
_chemical_formula_sum 'C14 H17 N3 O7'
_chemical_formula_moiety
;
C14 H17 N3 O7
;
_journal_coden_Cambridge 151
_journal_volume 53
_journal_year 2010
_journal_page_first 3227
_journal_name_full 'J.Med.Chem. '
loop_
_publ_author_name
"G.Wuitschik"
"E.M.Carreira"
"B.Wagner"
"H.Fischer"
"I.Parrilla"
"F.Schuler"
"M.Rogers-Evans"
"K.Muller"
_chemical_name_systematic
;
2-(3-(Dimethylamino)oxetan-3-yl)ethyl 3,5-dinitrobenzoate
;
_cell_volume    759.303
_exptl_crystal_colour 'colorless'
_exptl_crystal_density_diffrn 1.484
_exptl_crystal_description 'plate'
_diffrn_ambient_temperature 120
#These two values have been output from a single CSD field.
_refine_ls_R_factor_gt 0.0418
_refine_ls_wR_factor_gt 0.0418
_symmetry_cell_setting triclinic
_symmetry_space_group_name_H-M 'P -1'
_symmetry_Int_Tables_number 2
loop_
_symmetry_equiv_pos_site_id
_symmetry_equiv_pos_as_xyz
1 x,y,z
2 -x,-y,-z
_cell_length_a 6.7653(3)
_cell_length_b 9.3774(5)
_cell_length_c 12.9109(7)
_cell_angle_alpha 79.687(4)
_cell_angle_beta 85.141(4)
_cell_angle_gamma 70.490(5)
_cell_formula_units_Z 2
loop_
_atom_type_symbol
_atom_type_radius_bond
C 0.68
H 0.23
N 0.68
O 0.68
loop_
_atom_site_label
_atom_site_type_symbol
_atom_site_fract_x
_atom_site_fract_y
_atom_site_fract_z
O1 O 0.7751(3) 0.4276(2) 0.66849(15)
O2 O 0.3200(3) 0.83499(19) 0.79861(13)
O3 O 0.4972(3) 0.93299(19) 0.88999(13)
O4 O -0.3751(3) 1.1357(2) 0.68879(15)
O5 O -0.5787(3) 1.2942(2) 0.78619(15)
O6 O -0.2606(3) 1.4652(2) 1.04110(15)
O7 O 0.0373(3) 1.3184(2) 1.10267(16)
N1 N 0.9186(3) 0.7138(2) 0.54530(15)
N2 N -0.4088(4) 1.2057(2) 0.76324(18)
N3 N -0.1029(4) 1.3545(3) 1.04043(17)
C1 C 1.0628(6) 0.7711(4) 0.5898(3)
H1 H 1.111(5) 0.691(4) 0.658(3)
H2 H 1.156(5) 0.782(3) 0.537(2)
H3 H 0.986(5) 0.872(4) 0.615(2)
C2 C 0.8049(6) 0.8243(4) 0.4603(3)
H4 H 0.910(5) 0.846(3) 0.396(2)
H5 H 0.719(5) 0.929(3) 0.487(2)
H6 H 0.702(5) 0.783(3) 0.432(2)
C3 C 0.7892(4) 0.6548(3) 0.62470(18)
C4 C 0.9104(5) 0.5059(3) 0.6952(3)
H7 H 0.904(4) 0.505(3) 0.779(2)
H8 H 1.053(5) 0.463(3) 0.664(2)
C5 C 0.6878(5) 0.5508(3) 0.5834(2)
H9 H 0.531(4) 0.586(3) 0.5851(18)
H10 H 0.749(4) 0.527(3) 0.513(2)
C6 C 0.6290(4) 0.7772(3) 0.6816(2)
H11 H 0.718(4) 0.836(3) 0.7066(18)
H12 H 0.519(4) 0.850(3) 0.6265(19)
C7 C 0.5150(4) 0.7144(3) 0.7751(2)
H13 H 0.610(4) 0.665(3) 0.845(2)
H14 H 0.460(4) 0.628(3) 0.7614(19)
C8 C 0.3374(4) 0.9360(3) 0.85479(18)
C9 C 0.1301(4) 1.0540(3) 0.87044(18)
C10 C 0.1104(4) 1.1485(3) 0.9447(2)
H15 H 0.210(4) 1.139(3) 0.9821(19)
C11 C -0.0809(4) 1.2554(3) 0.96021(18)
C12 C -0.2543(4) 1.2752(3) 0.90426(19)
H16 H -0.375(4) 1.347(3) 0.9154(18)
C13 C -0.2301(4) 1.1814(3) 0.82989(19)
C14 C -0.0430(4) 1.0712(3) 0.8130(2)
H17 H -0.032(3) 1.012(2) 0.7666(17)
#END
