
#######################################################################
#
#                 Cambridge Crystallographic Data Centre
#                                CCDC
#
#######################################################################
#
# If this CIF has been generated from an entry in the Cambridge
# Structural Database, then it will include bibliographic, chemical,
# crystal, experimental, refinement or atomic coordinate data resulting
# from the CCDC's data processing and validation procedures.
#
#######################################################################

data_CSD_CIF_EMULEE
_audit_creation_date 2011-06-06
_audit_creation_method CSD-ConQuest-V1
_database_code_CSD EMULEE
_database_code_depnum_ccdc_archive 'CCDC 760996'
_chemical_formula_sum 'C19 H12 N2 O4'
_chemical_formula_moiety
;
C19 H12 N2 O4
;
_journal_coden_Cambridge 692
_journal_volume 2010
_journal_year 2010
_journal_page_first 3569
_journal_name_full 'Synthesis '
loop_
_publ_author_name
"H.J.Berthold"
"J.Thiem"
"A.Zaliani"
"T.Schotten"
_chemical_name_systematic
;
2,7-Dinitro-9,9-bis(prop-2-yn-1-yl)-9H-fluorene
;
_chemical_melting_point 464.15
_cell_volume   4729.828
_exptl_crystal_colour 'brown'
_exptl_crystal_density_diffrn 1.4
_exptl_crystal_description 'block'
_diffrn_ambient_temperature 100
#These two values have been output from a single CSD field.
_refine_ls_R_factor_gt 0.0478
_refine_ls_wR_factor_gt 0.0478
_symmetry_cell_setting monoclinic
_symmetry_space_group_name_H-M 'P 21/c'
_symmetry_Int_Tables_number 14
loop_
_symmetry_equiv_pos_site_id
_symmetry_equiv_pos_as_xyz
1 x,y,z
2 -x,1/2+y,1/2-z
3 -x,-y,-z
4 x,-1/2-y,-1/2+z
_cell_length_a 12.381(2)
_cell_length_b 30.584(5)
_cell_length_c 13.186(2)
_cell_angle_alpha 90
_cell_angle_beta 108.686(2)
_cell_angle_gamma 90
_cell_formula_units_Z 12
loop_
_atom_type_symbol
_atom_type_radius_bond
C 0.68
H 0.23
N 0.68
O 0.68
loop_
_atom_site_label
_atom_site_type_symbol
_atom_site_fract_x
_atom_site_fract_y
_atom_site_fract_z
O1 O 1.21363(11) -0.03156(5) 0.44473(11)
O2 O 1.09790(12) -0.08668(5) 0.41851(13)
O3 O 0.32557(12) 0.07715(5) 0.07959(13)
O4 O 0.38343(13) 0.14418(5) 0.10074(14)
N1 N 1.11650(13) -0.04724(5) 0.41755(13)
N2 N 0.40055(14) 0.10467(6) 0.11462(14)
C1 C 0.81967(15) -0.00592(6) 0.31340(14)
C2 C 0.64456(15) 0.03117(6) 0.23922(14)
C3 C 0.84071(15) 0.03939(6) 0.31952(14)
C4 C 0.73238(15) 0.06233(6) 0.27608(14)
C5 C 0.51515(15) 0.08943(6) 0.17512(14)
C6 C 0.66702(15) -0.04594(6) 0.16867(15)
H1 H 0.69430 -0.03170 0.11390
H2 H 0.71150 -0.07320 0.19130
C7 C 1.01936(15) -0.01732(6) 0.38284(14)
C8 C 0.53385(16) 0.04451(6) 0.18750(15)
H3 H 0.47350 0.02410 0.16170
C9 C 0.95148(16) 0.05604(6) 0.35693(14)
H4 H 0.96440 0.08670 0.36020
C10 C 0.90998(15) -0.03507(6) 0.34507(14)
H5 H 0.89790 -0.06580 0.34120
C11 C 1.04188(16) 0.02718(6) 0.38910(14)
H6 H 1.11810 0.03760 0.41500
C12 C 0.64258(15) -0.03417(6) 0.35272(15)
H7 H 0.65910 -0.01360 0.41370
H8 H 0.55870 -0.03660 0.32120
C13 C 0.70997(16) 0.10700(6) 0.26664(15)
H9 H 0.76920 0.12770 0.29530
C14 C 0.59925(16) 0.12063(6) 0.21453(15)
H10 H 0.58130 0.15090 0.20600
C15 C 0.54626(17) -0.05755(6) 0.11928(15)
C16 C 0.68912(16) -0.07722(6) 0.39285(15)
C17 C 0.72732(18) -0.11178(7) 0.42571(17)
H11 H 0.75800 -0.13960 0.45210
C18 C 0.44890(18) -0.06671(7) 0.07686(17)
H12 H 0.37110 -0.07400 0.04300
C19 C 0.69163(15) -0.01501(6) 0.26691(14)
O5 O 1.18767(13) -0.01946(4) 0.94312(12)
O6 O 1.03292(14) -0.05765(4) 0.87952(12)
O7 O 0.86367(14) 0.29685(5) 0.88198(13)
O8 O 0.68348(13) 0.28568(5) 0.79807(12)
N3 N 1.08326(16) -0.02266(5) 0.90412(13)
N4 N 0.78215(16) 0.27259(6) 0.84205(13)
C20 C 1.04274(15) 0.14135(6) 0.93432(14)
C21 C 1.00477(15) 0.09456(6) 0.90212(14)
C22 C 0.93058(15) 0.16589(6) 0.88971(14)
C23 C 0.88586(16) 0.09236(6) 0.85202(14)
C24 C 1.01431(17) 0.01777(6) 0.88600(14)
C25 C 1.13549(15) 0.15808(6) 0.88785(15)
H13 H 1.15970 0.18770 0.91640
H14 H 1.20280 0.13860 0.91240
C26 C 1.11718(16) 0.18896(6) 1.09952(15)
C27 C 1.09683(15) 0.15985(6) 0.77087(16)
C28 C 1.08770(16) 0.14428(6) 1.05920(14)
H15 H 1.02860 0.13270 1.08780
H16 H 1.15610 0.12550 1.08640
C29 C 0.91267(16) 0.21053(6) 0.88922(14)
H17 H 0.97390 0.23040 0.91780
C30 C 1.07059(16) 0.05713(6) 0.91982(14)
H18 H 1.15080 0.05820 0.95360
C31 C 0.80141(17) 0.22493(6) 0.84517(15)
C32 C 0.89757(17) 0.01464(6) 0.83617(15)
H19 H 0.86280 -0.01300 0.81430
C33 C 0.83975(16) 0.13681(6) 0.84476(14)
C34 C 0.83215(17) 0.05246(6) 0.81865(15)
H20 H 0.75200 0.05110 0.78440
C35 C 1.06415(17) 0.16159(6) 0.67623(17)
H21 H 1.03790 0.16300 0.60030
C36 C 0.72790(16) 0.15246(7) 0.80282(15)
H22 H 0.66610 0.13290 0.77440
C37 C 0.70917(17) 0.19724(7) 0.80368(15)
H23 H 0.63410 0.20870 0.77620
C38 C 1.13853(17) 0.22525(7) 1.13055(16)
H24 H 1.15570 0.25440 1.15550
O9 O 0.73018(13) 0.35526(5) 0.54836(12)
O10 O 0.88174(13) 0.32821(5) 0.66625(12)
O11 O 0.24861(15) 0.07233(5) 0.29564(14)
O12 O 0.37754(15) 0.02259(5) 0.35739(16)
N5 N 0.78682(15) 0.32433(6) 0.59784(13)
N6 N 0.34588(16) 0.06103(6) 0.34724(15)
C39 C 0.45761(15) 0.21956(6) 0.43326(15)
C40 C 0.57922(16) 0.23433(6) 0.49542(14)
C41 C 0.58453(16) 0.15813(6) 0.49215(15)
C42 C 0.47165(16) 0.17010(6) 0.43470(15)
C43 C 0.65157(16) 0.19800(6) 0.52747(15)
C44 C 0.42863(17) 0.09510(6) 0.39949(16)
C45 C 0.39246(17) 0.13844(6) 0.38538(15)
H25 H 0.31680 0.14590 0.34370
C46 C 0.73818(17) 0.28009(7) 0.57384(15)
C47 C 0.62189(16) 0.27623(6) 0.51935(14)
H26 H 0.57410 0.30120 0.49950
C48 C 0.37299(16) 0.23482(6) 0.49219(16)
H27 H 0.39890 0.22310 0.56600
H28 H 0.37520 0.26710 0.49720
C49 C 0.41861(16) 0.23528(6) 0.31521(15)
H29 H 0.47440 0.22500 0.28100
H30 H 0.34430 0.22160 0.27690
C50 C 0.53842(18) 0.08246(7) 0.45975(17)
H31 H 0.55840 0.05240 0.46910
C51 C 0.76787(16) 0.20300(7) 0.58150(15)
H32 H 0.81610 0.17820 0.60200
C52 C 0.61785(17) 0.11447(6) 0.50580(16)
H33 H 0.69390 0.10680 0.54610
C53 C 0.81155(17) 0.24479(7) 0.60466(15)
H34 H 0.89050 0.24920 0.64100
C54 C 0.25455(17) 0.22088(6) 0.43900(16)
C55 C 0.15977(18) 0.20961(7) 0.39421(17)
H35 H 0.08370 0.20060 0.35830
C56 C 0.40702(16) 0.28285(7) 0.30261(16)
C57 C 0.39911(19) 0.32127(7) 0.29322(18)
H36 H 0.39280 0.35210 0.28570
#END
