
#######################################################################
#
#                 Cambridge Crystallographic Data Centre
#                                CCDC
#
#######################################################################
#
# If this CIF has been generated from an entry in the Cambridge
# Structural Database, then it will include bibliographic, chemical,
# crystal, experimental, refinement or atomic coordinate data resulting
# from the CCDC's data processing and validation procedures.
#
#######################################################################

data_CSD_CIF_ENACIF
_audit_creation_date 2004-03-25
_audit_creation_method CSD-ConQuest-V1
_database_code_CSD ENACIF
_database_code_depnum_ccdc_archive 'CCDC 225549'
_chemical_formula_sum 'C24 H39 N3 O5'
_chemical_formula_moiety
;
C24 H39 N3 O5
;
_journal_coden_Cambridge 4
_journal_volume 125
_journal_year 2003
_journal_page_first 14452
_journal_name_full 'J.Am.Chem.Soc. '
loop_
_publ_author_name
"Dan Yang"
"Jin Qu"
"Wei Li"
"De-Ping Wang"
"Yi Ren"
"Yun-Dong Wu"
_chemical_name_systematic
;
2-Benzyl-N,6-di-isobutyl-10,10-dimethyl-5,9-dioxo-3,7-dioxa-4,8-diazaundecan-1
-amide
;
_chemical_melting_point 386.15
_cell_volume   1325.272
_exptl_crystal_colour 'colorless'
_exptl_crystal_density_diffrn 1.127
_exptl_special_details
;
Melting point range 386.15-389.15K

;
_exptl_crystal_description 'prism'
_exptl_crystal_preparation 'dichloromethane'
_diffrn_ambient_temperature 301.2
#These two values have been output from a single CSD field.
_refine_ls_R_factor_gt 0.0821
_refine_ls_wR_factor_gt 0.0821
_symmetry_cell_setting monoclinic
_symmetry_space_group_name_H-M 'P 21'
_symmetry_Int_Tables_number 4
loop_
_symmetry_equiv_pos_site_id
_symmetry_equiv_pos_as_xyz
1 x,y,z
2 -x,1/2+y,-z
_cell_length_a 9.175(2)
_cell_length_b 13.370(2)
_cell_length_c 11.119(2)
_cell_angle_alpha 90
_cell_angle_beta 103.68(2)
_cell_angle_gamma 90
_cell_formula_units_Z 2
loop_
_atom_type_symbol
_atom_type_radius_bond
C 0.68
H 0.23
N 0.68
O 0.68
loop_
_atom_site_label
_atom_site_type_symbol
_atom_site_fract_x
_atom_site_fract_y
_atom_site_fract_z
O1 O 0.0411(8) 0.01240 0.2403(6)
O2 O 0.3208(8) -0.2139(8) 0.3869(8)
O3 O 0.3553(10) -0.0326(8) 0.4971(8)
O4 O -0.0557(9) -0.1709(8) 0.1918(7)
O5 O 0.153(1) -0.3570(8) 0.592(1)
N1 N -0.068(1) -0.0277(8) 0.2995(9)
N2 N 0.233(1) -0.1301(9) 0.3433(9)
N3 N 0.290(1) -0.214(1) 0.620(1)
C1 C -0.221(2) -0.264(1) 0.352(1)
C2 C -0.310(2) -0.090(1) 0.385(2)
C3 C -0.383(2) -0.171(2) 0.170(2)
C4 C -0.260(1) -0.157(1) 0.299(1)
C5 C -0.122(1) -0.120(1) 0.253(1)
C6 C 0.174(1) 0.0419(9) 0.338(1)
C7 C 0.275(2) 0.096(1) 0.253(2)
C8 C 0.221(2) 0.191(1) 0.205(1)
C9 C 0.270(3) 0.276(2) 0.295(3)
C10 C 0.275(3) 0.217(2) 0.090(2)
C11 C 0.261(1) -0.044(1) 0.400(1)
C12 C 0.230(1) -0.294(1) 0.417(1)
C13 C 0.304(2) -0.390(1) 0.390(1)
C14 C 0.303(2) -0.404(1) 0.255(1)
C15 C 0.171(2) -0.389(2) 0.162(2)
C16 C 0.169(3) -0.404(2) 0.043(2)
C17 C 0.291(3) -0.434(1) 0.010(2)
C18 C 0.430(2) -0.448(1) 0.099(2)
C19 C 0.429(2) -0.437(1) 0.221(2)
C20 C 0.222(2) -0.293(1) 0.554(2)
C21 C 0.291(2) -0.199(2) 0.750(2)
C22 C 0.175(3) -0.140(2) 0.783(2)
C23 C 0.180(3) -0.126(2) 0.911(2)
C24 C 0.111(3) -0.056(2) 0.695(3)
H1 H -0.12550 0.02620 0.34940
H2 H 0.16770 -0.13250 0.28920
H3 H 0.33660 -0.16530 0.58320
H4 H -0.30270 -0.28880 0.38240
H5 H -0.20440 -0.30650 0.28840
H6 H -0.13350 -0.26160 0.41770
H7 H -0.23280 -0.08450 0.45970
H8 H -0.33070 -0.02610 0.34910
H9 H -0.39740 -0.11690 0.40460
H10 H -0.39940 -0.10840 0.12890
H11 H -0.34740 -0.21810 0.12060
H12 H -0.47370 -0.19400 0.18740
H13 H 0.14870 0.08730 0.39550
H14 H 0.37370 0.10440 0.30260
H15 H 0.27690 0.05330 0.18530
H16 H 0.11540 0.18870 0.18420
H17 H 0.37630 0.28120 0.31140
H18 H 0.22500 0.33510 0.25840
H19 H 0.24020 0.26150 0.36850
H20 H 0.38030 0.22350 0.10950
H21 H 0.24590 0.16460 0.03000
H22 H 0.22930 0.27750 0.05580
H23 H 0.13150 -0.29000 0.36540
H24 H 0.40610 -0.39000 0.43530
H25 H 0.25370 -0.44540 0.41520
H26 H 0.08190 -0.36620 0.18370
H27 H 0.07820 -0.39490 -0.01810
H28 H 0.28680 -0.44530 -0.07560
H29 H 0.51950 -0.46460 0.07390
H30 H 0.51690 -0.45190 0.28160
H31 H 0.28700 -0.26410 0.78330
H32 H 0.38390 -0.16870 0.78570
H33 H 0.09500 -0.18670 0.76380
H34 H 0.17450 -0.18960 0.94840
H35 H 0.27080 -0.09410 0.94970
H36 H 0.09710 -0.08650 0.91820
H37 H 0.16800 0.00290 0.71980
H38 H 0.11510 -0.07420 0.61420
H39 H 0.00980 -0.04480 0.69910
#END
