
#######################################################################
#
#                 Cambridge Crystallographic Data Centre
#                                CCDC
#
#######################################################################
#
# If this CIF has been generated from an entry in the Cambridge
# Structural Database, then it will include bibliographic, chemical,
# crystal, experimental, refinement or atomic coordinate data resulting
# from the CCDC's data processing and validation procedures.
#
#######################################################################

data_CSD_CIF_ENAKOU
_audit_creation_date 2011-06-07
_audit_creation_method CSD-ConQuest-V1
_database_code_CSD ENAKOU
_database_code_depnum_ccdc_archive 'CCDC 769328'
_chemical_formula_sum 'C20 H17 N1 O3'
_chemical_formula_moiety
;
C20 H17 N1 O3
;
_journal_coden_Cambridge 643
_journal_volume 226
_journal_year 2011
_journal_page_first 291
_journal_name_full 'Z.Krist.Cryst.Mater. '
loop_
_publ_author_name
"S.Kurjatschij"
"D.Eissmann"
"W.Seichter"
"E.Weber"
_chemical_name_systematic
;
4,4''-Dimethyl-5'-nitro-1,1':3',1''-terphenyl-2'-ol
;
_chemical_name_common
;
2,6-bis(4-Methylphenyl)-4-nitrophenol
;
_cell_volume   3237.476
_exptl_crystal_colour 'colorless'
_exptl_crystal_density_diffrn 1.31
_exptl_crystal_description 'plate'
_exptl_crystal_preparation 'aqueous ethanol'
_diffrn_ambient_temperature 143
#These two values have been output from a single CSD field.
_refine_ls_R_factor_gt 0.0521
_refine_ls_wR_factor_gt 0.0521
_symmetry_cell_setting monoclinic
_symmetry_space_group_name_H-M 'P 21/c'
_symmetry_Int_Tables_number 14
loop_
_symmetry_equiv_pos_site_id
_symmetry_equiv_pos_as_xyz
1 x,y,z
2 -x,1/2+y,1/2-z
3 -x,-y,-z
4 x,-1/2-y,-1/2+z
_cell_length_a 9.676(2)
_cell_length_b 12.673(3)
_cell_length_c 26.403(6)
_cell_angle_alpha 90
_cell_angle_beta 90.577(12)
_cell_angle_gamma 90
_cell_formula_units_Z 8
loop_
_atom_type_symbol
_atom_type_radius_bond
C 0.68
H 0.23
N 0.68
O 0.68
loop_
_atom_site_label
_atom_site_type_symbol
_atom_site_fract_x
_atom_site_fract_y
_atom_site_fract_z
O1 O 0.35983(15) -0.07644(12) 0.20299(5)
H1 H 0.39980 -0.07230 0.23130
O2 O -0.07367(18) 0.26100(14) 0.13655(6)
O3 O -0.02629(16) 0.31709(12) 0.21186(5)
N1 N -0.00812(19) 0.25565(15) 0.17621(6)
C1 C 0.0937(2) 0.17252(17) 0.18250(7)
C2 C 0.1119(2) 0.09998(17) 0.14416(7)
H2 H 0.06170 0.10750 0.11320
C3 C 0.2032(2) 0.01584(17) 0.15041(7)
C4 C 0.2702(2) 0.00554(17) 0.19757(7)
C5 C 0.2498(2) 0.07839(17) 0.23689(7)
C6 C 0.1632(2) 0.16378(18) 0.22821(7)
H3 H 0.15170 0.21600 0.25360
C7 C 0.3152(2) 0.06574(17) 0.28761(7)
C8 C 0.3838(2) 0.14955(18) 0.31072(7)
H4 H 0.39180 0.21510 0.29350
C9 C 0.4402(2) 0.13781(19) 0.35865(7)
H5 H 0.48860 0.19510 0.37380
C10 C 0.4274(2) 0.04331(19) 0.38511(7)
C11 C 0.3545(2) -0.03861(19) 0.36252(7)
H6 H 0.34240 -0.10290 0.38040
C12 C 0.2994(2) -0.02812(18) 0.31443(7)
H7 H 0.25020 -0.08530 0.29950
C13 C 0.4895(3) 0.0307(2) 0.43691(8)
H8 H 0.43460 -0.01980 0.45630
H9 H 0.49000 0.09910 0.45430
H10 H 0.58440 0.00470 0.43400
C14 C 0.2253(2) -0.05761(17) 0.10740(7)
C15 C 0.2331(2) -0.16654(17) 0.11334(7)
H11 H 0.23000 -0.19600 0.14640
C16 C 0.2452(2) -0.23290(18) 0.07176(7)
H12 H 0.24950 -0.30710 0.07680
C17 C 0.2512(2) -0.19237(19) 0.02301(8)
C18 C 0.2451(2) -0.0842(2) 0.01722(8)
H13 H 0.24980 -0.05480 -0.01580
C19 C 0.2322(2) -0.01763(18) 0.05844(7)
H14 H 0.22810 0.05650 0.05320
C20 C 0.2644(3) -0.2643(2) -0.02206(8)
H15 H 0.19320 -0.24650 -0.04730
H16 H 0.25260 -0.33770 -0.01120
H17 H 0.35600 -0.25560 -0.03700
O4 O 0.15293(16) 0.41122(12) 0.29112(5)
H18 H 0.11840 0.41330 0.26180
O5 O 0.57505(17) 0.75323(14) 0.36212(6)
O6 O 0.53127(16) 0.80938(12) 0.28645(5)
N2 N 0.51329(19) 0.74723(15) 0.32158(7)
C21 C 0.4152(2) 0.66093(18) 0.31390(7)
C22 C 0.3475(2) 0.65327(18) 0.26793(7)
H19 H 0.36100 0.70530 0.24250
C23 C 0.2595(2) 0.56892(17) 0.25912(7)
C24 C 0.2387(2) 0.49508(17) 0.29792(7)
C25 C 0.3055(2) 0.50382(18) 0.34538(7)
C26 C 0.3956(2) 0.58862(18) 0.35219(7)
H20 H 0.44390 0.59660 0.38350
C27 C 0.1876(2) 0.55777(17) 0.20947(7)
C28 C 0.0905(2) 0.63181(18) 0.19418(7)
H21 H 0.07280 0.69140 0.21500
C29 C 0.0192(2) 0.61969(18) 0.14901(7)
H22 H -0.04910 0.67000 0.13960
C30 C 0.0458(2) 0.53540(18) 0.11724(7)
C31 C 0.1472(2) 0.46437(19) 0.13168(8)
H23 H 0.16940 0.40760 0.10970
C32 C 0.2168(2) 0.47419(19) 0.17731(8)
H24 H 0.28480 0.42360 0.18670
C33 C -0.0320(3) 0.5230(2) 0.06813(8)
H25 H 0.01320 0.56470 0.04180
H26 H -0.12710 0.54780 0.07230
H27 H -0.03280 0.44850 0.05830
C34 C 0.2834(2) 0.42868(17) 0.38758(7)
C35 C 0.1527(2) 0.39188(18) 0.40029(7)
H28 H 0.07520 0.41120 0.37990
C36 C 0.1336(2) 0.32784(18) 0.44191(7)
H29 H 0.04320 0.30440 0.44990
C37 C 0.2439(2) 0.29707(18) 0.47231(7)
C38 C 0.3736(2) 0.33273(18) 0.45950(7)
H30 H 0.45110 0.31250 0.47970
C39 C 0.3936(2) 0.39726(18) 0.41793(7)
H31 H 0.48420 0.42040 0.41010
C40 C 0.2231(3) 0.2258(2) 0.51759(8)
H32 H 0.23210 0.15190 0.50710
H33 H 0.13070 0.23740 0.53140
H34 H 0.29300 0.24180 0.54360
#END
