
#######################################################################
#
#                 Cambridge Crystallographic Data Centre
#                                CCDC
#
#######################################################################
#
# If this CIF has been generated from an entry in the Cambridge
# Structural Database, then it will include bibliographic, chemical,
# crystal, experimental, refinement or atomic coordinate data resulting
# from the CCDC's data processing and validation procedures.
#
#######################################################################

data_CSD_CIF_ENAKAG
_audit_creation_date 2011-06-07
_audit_creation_method CSD-ConQuest-V1
_database_code_CSD ENAKAG
_database_code_depnum_ccdc_archive 'CCDC 690106'
_chemical_formula_sum 'C15 H15 N1 O3'
_chemical_formula_moiety
;
C15 H15 N1 O3
;
_journal_coden_Cambridge 1268
_journal_volume 16
_journal_year 2011
_journal_page_first 1192
_journal_name_full 'Molecules '
loop_
_publ_author_name
"A.R.da Silva"
"M.H.Herbst"
"A.B.B.Ferreira"
"A.M.da Silva"
"L.C.Visentin"
_chemical_name_systematic
;
(10E)-2,2-Dimethyl-3,4-dihydro-2H-benzo[g]chromene-5,10-dione 10-oxime
;
_chemical_name_common
;
(10E)-10-(Hydroxyimino)-2,2-dimethyl-2,3,4,10-tetrahydro-5H-benzo[g]chromen-5-
one
;
_chemical_melting_point 445.55
_cell_volume    641.362
_exptl_crystal_colour 'yellow'
_exptl_crystal_density_diffrn 1.332
_exptl_crystal_description 'block'
_exptl_crystal_preparation 'ethanol'
_diffrn_ambient_temperature 295
#These two values have been output from a single CSD field.
_refine_ls_R_factor_gt 0.039
_refine_ls_wR_factor_gt 0.039
_symmetry_cell_setting triclinic
_symmetry_space_group_name_H-M 'P -1'
_symmetry_Int_Tables_number 2
loop_
_symmetry_equiv_pos_site_id
_symmetry_equiv_pos_as_xyz
1 x,y,z
2 -x,-y,-z
_cell_length_a 6.6069(13)
_cell_length_b 9.6001(19)
_cell_length_c 10.176(2)
_cell_angle_alpha 91.47(3)
_cell_angle_beta 94.47(3)
_cell_angle_gamma 94.27(3)
_cell_formula_units_Z 2
loop_
_atom_type_symbol
_atom_type_radius_bond
C 0.68
H 0.23
N 0.68
O 0.68
loop_
_atom_site_label
_atom_site_type_symbol
_atom_site_fract_x
_atom_site_fract_y
_atom_site_fract_z
C1 C 0.3040(2) 0.63286(19) 0.08674(17)
C2 C 0.3592(2) 0.63187(15) 0.23498(16)
C3 C 0.5801(3) 0.6038(2) 0.2666(2)
C4 C 0.2153(4) 0.5331(2) 0.3049(2)
O1 O 0.32623(18) 1.11874(11) 0.49231(11)
N1 N 0.32296(18) 0.99931(12) 0.41313(12)
H1 H -0.013(3) 0.6032(19) 0.0740(17)
H2 H 0.317(3) 0.540(2) 0.0497(18)
H3 H 0.407(3) 0.6983(18) 0.0486(17)
H4 H 0.068(3) 0.7033(19) -0.037(2)
H5 H 0.437(4) 1.111(2) 0.540(2)
H6 H 0.615(3) 0.608(2) 0.356(3)
H7 H 0.604(3) 0.511(2) 0.2361(19)
H8 H 0.075(4) 0.566(2) 0.296(2)
H9 H 0.676(4) 0.675(3) 0.224(2)
H10 H 0.263(3) 0.532(2) 0.400(2)
H11 H 0.220(3) 0.441(2) 0.264(2)
O2 O 0.34672(15) 0.77394(10) 0.29046(10)
C5 C 0.1719(2) 0.97625(14) 0.32517(13)
C6 C 0.1881(2) 0.84616(14) 0.24632(14)
C7 C 0.0591(2) 0.80624(15) 0.13975(14)
C8 C -0.1146(2) 0.88588(16) 0.10497(14)
C9 C -0.0071(2) 1.05705(14) 0.29570(13)
O3 O -0.23317(18) 0.85064(13) 0.00816(12)
C10 C -0.1493(2) 1.00903(15) 0.19046(14)
C11 C -0.0489(2) 1.17530(15) 0.36925(16)
H12 H 0.04360 1.21040 0.43780
C12 C 0.0911(3) 0.67900(18) 0.05557(17)
C13 C -0.3272(2) 1.07613(17) 0.16525(16)
H13 H -0.42100 1.04290 0.09660
C14 C -0.2261(3) 1.24057(18) 0.34110(17)
H14 H -0.25080 1.31920 0.39090
C15 C -0.3665(3) 1.19108(18) 0.24037(17)
H15 H -0.48640 1.23470 0.22330
#END
