
#######################################################################
#
#                 Cambridge Crystallographic Data Centre
#                                CCDC
#
#######################################################################
#
# If this CIF has been generated from an entry in the Cambridge
# Structural Database, then it will include bibliographic, chemical,
# crystal, experimental, refinement or atomic coordinate data resulting
# from the CCDC's data processing and validation procedures.
#
#######################################################################

data_CSD_CIF_ENARAO
_audit_creation_date 2016-05-26
_audit_creation_method CSD-ConQuest-V1
_database_code_CSD ENARAO
_database_code_depnum_ccdc_archive 'CCDC 1435876'
_chemical_formula_sum 'C28 H32 N4 O2'
_chemical_formula_moiety
;
C28 H32 N4 O2
;
_journal_coden_Cambridge 1147
_journal_volume 16
_journal_year 2016
_journal_page_first 4051
_journal_name_full 'Cryst.Growth Des. '
loop_
_publ_author_name
"H.Akpinar"
"J.A.Schlueter"
"R.A.A.Cassaro"
"J.R.Friedman"
"P.M.Lahti"
_chemical_name_systematic
;
2,2'-anthracene-2,7-diylbis(4,4,5,5-tetramethyl-4,5-dihydro-1H-imidazol-1-oxyl
 radical)
;
_cell_volume   5016.345
_exptl_crystal_colour 'orange'
_exptl_crystal_density_diffrn 1.209
_exptl_crystal_description 'prism'
_diffrn_ambient_temperature 293
_refine_special_details
;
C2,C3,C4,C5,C6,C7,N1,N2,O1 and C2A,C3A,C4A,C5A,C6A,C7A,N1A,N2A,O1A disordered 
over two sites with occupancies 0.583:0.417.
;
#These two values have been output from a single CSD field.
_refine_ls_R_factor_gt 0.0481
_refine_ls_wR_factor_gt 0.0481
_symmetry_cell_setting tetragonal
_symmetry_space_group_name_H-M 'I -4'
_symmetry_Int_Tables_number 82
loop_
_symmetry_equiv_pos_site_id
_symmetry_equiv_pos_as_xyz
1 x,y,z
2 -x,-y,z
3 y,-x,-z
4 -y,x,-z
5 1/2+x,1/2+y,1/2+z
6 1/2-x,1/2-y,1/2+z
7 1/2+y,1/2-x,1/2-z
8 1/2-y,1/2+x,1/2-z
_cell_length_a 27.156(4)
_cell_length_b 27.156(4)
_cell_length_c 6.8023(14)
_cell_angle_alpha 90
_cell_angle_beta 90
_cell_angle_gamma 90
_cell_formula_units_Z 8
loop_
_atom_type_symbol
_atom_type_radius_bond
C 0.68
H 0.23
N 0.68
O 0.68
loop_
_atom_site_label
_atom_site_type_symbol
_atom_site_fract_x
_atom_site_fract_y
_atom_site_fract_z
C1 C 0.26105(12) 0.83328(11) 0.0532(6)
H1 H 0.26340 0.84570 0.18020
C2 C 0.21113(12) 0.80523(11) -0.2226(5)
C3 C 0.25396(12) 0.79576(11) -0.3264(6)
H2 H 0.25160 0.78290 -0.45270
C4 C 0.30044(12) 0.80482(11) -0.2480(5)
C5 C 0.39352(12) 0.82493(12) -0.0801(6)
C6 C 0.38923(12) 0.80556(13) -0.2746(5)
H3 H 0.41760 0.79970 -0.34780
C7 C 0.30420(11) 0.82400(11) -0.0535(5)
C8 C 0.35168(12) 0.83328(11) 0.0272(5)
H4 H 0.35430 0.84520 0.15490
C9 C 0.17045(12) 0.83441(12) 0.0814(6)
H5 H 0.17250 0.84700 0.20840
C10 C 0.21455(11) 0.82428(11) -0.0267(6)
C11 C 0.44324(12) 0.83659(13) -0.0101(5)
C12 C 0.34481(12) 0.79564(12) -0.3538(5)
H6 H 0.34310 0.78260 -0.48000
C13 C 0.16336(12) 0.79581(13) -0.3005(7)
H7 H 0.16040 0.78280 -0.42640
C14 C 0.12522(12) 0.82568(12) -0.0017(7)
C15 C 0.07819(13) 0.83557(13) 0.0983(7)
O1 O 0.42463(10) 0.85578(11) 0.3232(4)
C16 C 0.12235(13) 0.80536(13) -0.1959(6)
H8 H 0.09170 0.79870 -0.25050
N1 N 0.45452(10) 0.85068(11) 0.1822(4)
N2 N 0.48206(11) 0.83572(15) -0.1197(5)
C17 C 0.50871(12) 0.85196(15) 0.2115(6)
C18 C 0.57076(15) 0.8267(3) -0.0578(9)
H9 H 0.59820 0.83970 0.01440
H10 H 0.56590 0.79280 -0.02350
H11 H 0.57720 0.82930 -0.19620
C19 C 0.52161(17) 0.8039(2) 0.3128(9)
H12 H 0.55650 0.80260 0.33580
H13 H 0.50450 0.80190 0.43600
H14 H 0.51200 0.77680 0.23080
C20 C 0.52192(16) 0.89472(19) 0.3416(7)
H15 H 0.55690 0.89550 0.36050
H16 H 0.51140 0.92480 0.28090
H17 H 0.50590 0.89110 0.46660
C21 C 0.5301(2) 0.9094(2) -0.0751(8)
H18 H 0.55720 0.92450 -0.00740
H19 H 0.53610 0.91020 -0.21420
H20 H 0.50040 0.92710 -0.04620
C22 C 0.52471(14) 0.85588(19) -0.0075(6)
N3 N 0.0368(4) 0.8187(5) 0.040(3)
N4 N 0.0732(5) 0.8604(6) 0.261(3)
O2 O 0.1051(7) 0.8815(8) 0.347(3)
C23 C 0.0007(5) 0.8304(5) 0.200(2)
C24 C 0.0211(5) 0.8754(4) 0.303(2)
C25 C 0.0103(3) 0.9245(3) 0.203(2)
H21 H -0.02300 0.93410 0.23030
H22 H 0.03240 0.94910 0.25320
H23 H 0.01480 0.92120 0.06390
C26 C 0.0128(6) 0.8810(6) 0.5214(19)
H24 H -0.02080 0.89060 0.54490
H25 H 0.01920 0.85020 0.58580
H26 H 0.03450 0.90580 0.57220
C27 C -0.0486(5) 0.8381(8) 0.106(3)
H27 H -0.07250 0.84560 0.20610
H28 H -0.04680 0.86490 0.01450
H29 H -0.05830 0.80860 0.03840
C28 C -0.0034(5) 0.7856(4) 0.337(2)
H30 H 0.02780 0.77980 0.39930
H31 H -0.02790 0.79200 0.43590
H32 H -0.01270 0.75710 0.26240
N5? N 0.0733(5) 0.8652(4) 0.273(3)
O3? O 0.1097(6) 0.8874(5) 0.376(3)
C29? C 0.0068(8) 0.9076(8) 0.419(4)
H33? H -0.02690 0.90740 0.46200
H34? H 0.02790 0.91400 0.52950
H35? H 0.01120 0.93280 0.32200
C30? C 0.0125(6) 0.8172(8) 0.486(3)
H36? H -0.02190 0.81410 0.51590
H37? H 0.02470 0.78650 0.43630
H38? H 0.03020 0.82590 0.60300
C31? C 0.0197(7) 0.8574(6) 0.331(3)
C32? C -0.0059(6) 0.8466(6) 0.135(2)
N6? N 0.0371(5) 0.8252(11) 0.024(4)
C33? C -0.0273(6) 0.8922(7) 0.035(3)
H39? H -0.05450 0.90440 0.11060
H40? H -0.00240 0.91710 0.02550
H41? H -0.03850 0.88360 -0.09480
C34? C -0.0452(6) 0.8068(7) 0.134(3)
H42? H -0.07370 0.81840 0.20290
H43? H -0.05400 0.79920 0.00040
H44? H -0.03270 0.77780 0.19700
#END
