
#######################################################################
#
#                 Cambridge Crystallographic Data Centre
#                                CCDC
#
#######################################################################
#
# If this CIF has been generated from an entry in the Cambridge
# Structural Database, then it will include bibliographic, chemical,
# crystal, experimental, refinement or atomic coordinate data resulting
# from the CCDC's data processing and validation procedures.
#
#######################################################################

data_CSD_CIF_ENBILO
_audit_creation_date 1978-03-30
_audit_creation_method CSD-ConQuest-V1
_database_code_CSD ENBILO
_database_code_depnum_ccdc_archive 'CCDC 1149645'
_chemical_formula_sum 'C35 H45 N5 O4'
_chemical_formula_moiety
;
C35 H45 N5 O4
;
_journal_coden_Cambridge 182
_journal_year 1977
_journal_page_first 829
_journal_name_full 'Chem.Commun. '
loop_
_publ_author_name
"J.V.Bonfiglio"
"R.Bonnett"
"M.B.Hursthouse"
"K.M.A.Malik"
"S.C.Naithani"
_chemical_name_systematic
;
(4Z,10Z,15Z)-2,3,7,8,12,13,17,18-Octaethyl-5-nitrobilin-1,19(21H,24H)-dione
;
_cell_volume   1691.129
_exptl_crystal_density_diffrn 1.18
_diffrn_ambient_temperature ?
_diffrn_special_details
;
The study was carried out at room temperature,in the range 283-303K

;
#These two values have been output from a single CSD field.
_refine_ls_R_factor_gt 0.056
_refine_ls_wR_factor_gt 0.056
_symmetry_cell_setting triclinic
_symmetry_space_group_name_H-M 'P -1'
_symmetry_Int_Tables_number 2
loop_
_symmetry_equiv_pos_site_id
_symmetry_equiv_pos_as_xyz
1 x,y,z
2 -x,-y,-z
_cell_length_a 14.507
_cell_length_b 12.405
_cell_length_c 11.855
_cell_angle_alpha 116.59
_cell_angle_beta 67.96
_cell_angle_gamma 114.22
_cell_formula_units_Z 2
loop_
_atom_type_symbol
_atom_type_radius_bond
C 0.68
H 0.23
N 0.68
O 0.68
loop_
_atom_site_label
_atom_site_type_symbol
_atom_site_fract_x
_atom_site_fract_y
_atom_site_fract_z
C1 C 0.37560 -0.11540 -0.15070
H1 H 0.44330 -0.09330 -0.20490
O1 O -0.08110 0.17960 0.59780
C2 C -0.01830 0.15240 0.49580
C3 C -0.01960 0.13730 0.36490
C4 C 0.06660 0.11020 0.28120
C5 C 0.13120 0.11180 0.35550
N1 N 0.07400 0.13580 0.48300
H2 H 0.10410 0.14890 0.54680
C6 C 0.22640 0.09390 0.31030
N2 N 0.27450 0.09260 0.39710
O2 O 0.24430 0.13780 0.51380
O3 O 0.34670 0.04780 0.34950
C7 C 0.29350 0.07870 0.17940
C8 C 0.38260 0.16710 0.13980
C9 C 0.42730 0.10570 0.01010
C10 C 0.36470 -0.01810 -0.02740
N3 N 0.28360 -0.03290 0.07800
H3 H 0.22540 -0.11270 0.07450
C11 C -0.10830 0.16310 0.34450
H4 H -0.07500 0.20660 0.27140
H5 H -0.14110 0.22670 0.43500
C12 C -0.18600 0.05600 0.30440
H6 H -0.26390 0.05500 0.31670
H7 H -0.18190 0.04400 0.38700
H8 H -0.16620 -0.01990 0.21720
C13 C 0.09150 0.07820 0.13580
H9 H 0.02070 0.02070 0.10280
H10 H 0.14750 0.02550 0.08990
C14 C 0.13460 0.18930 0.09690
H11 H 0.15800 0.16620 -0.00710
H12 H 0.19900 0.25730 0.13930
H13 H 0.07030 0.22880 0.13600
C15 C 0.42130 0.30180 0.22360
H14 H 0.38500 0.30980 0.32380
H15 H 0.50450 0.32580 0.20780
C16 C 0.39830 0.39500 0.19650
H16 H 0.42410 0.49400 0.25190
H17 H 0.31440 0.36130 0.22370
H18 H 0.42320 0.38150 0.09430
C17 C 0.52370 0.16200 -0.07580
H19 H 0.56860 0.24790 -0.01570
H20 H 0.56870 0.09580 -0.13010
C18 C 0.49960 0.19270 -0.17160
H21 H 0.56890 0.23580 -0.23160
H22 H 0.45300 0.25700 -0.11430
H23 H 0.45530 0.10690 -0.23250
C19 C 0.30500 -0.22710 -0.19620
C20 C 0.32020 -0.32120 -0.32590
C21 C 0.22930 -0.41350 -0.33120
C22 C 0.15890 -0.37450 -0.20470
N4 N 0.20390 -0.26500 -0.12510
C23 C 0.05240 -0.44580 -0.17160
H24 H 0.02570 -0.52470 -0.23420
C24 C -0.01730 -0.40760 -0.06000
N5 N 0.00450 -0.29550 0.03930
H25 H 0.06360 -0.24500 0.04020
C25 C -0.12740 -0.47360 -0.01970
C26 C -0.16540 -0.40060 0.09980
C27 C -0.08020 -0.28440 0.14110
O4 O -0.08120 -0.19630 0.24400
C28 C 0.41890 -0.30780 -0.43050
H26 H 0.42240 -0.40070 -0.49850
H27 H 0.48430 -0.26250 -0.38610
C29 C 0.42580 -0.23130 -0.50360
H28 H 0.50020 -0.21750 -0.57190
H29 H 0.41330 -0.14080 -0.44020
H30 H 0.36490 -0.28690 -0.55570
C30 C 0.20080 -0.53290 -0.44250
H31 H 0.27130 -0.55320 -0.51000
H32 H 0.15480 -0.60900 -0.40530
C31 C 0.13890 -0.52240 -0.51370
H33 H 0.12020 -0.60540 -0.59660
H34 H 0.18380 -0.44210 -0.54470
H35 H 0.06800 -0.50550 -0.44430
C32 C -0.18140 -0.60070 -0.10380
H36 H -0.12890 -0.65800 -0.15230
H37 H -0.24940 -0.64460 -0.04300
C33 C -0.21470 -0.59190 -0.20470
H38 H -0.25110 -0.68140 -0.26980
H39 H -0.14920 -0.53950 -0.26030
H40 H -0.27020 -0.53890 -0.14760
C34 C -0.27260 -0.42110 0.18420
H41 H -0.26750 -0.38990 0.28320
H42 H -0.31370 -0.52050 0.15270
C35 C -0.33170 -0.35050 0.17880
H43 H -0.40630 -0.36490 0.24650
H44 H -0.34280 -0.39210 0.08130
H45 H -0.29310 -0.25060 0.20080
#END
