
#######################################################################
#
#                 Cambridge Crystallographic Data Centre
#                                CCDC
#
#######################################################################
#
# If this CIF has been generated from an entry in the Cambridge
# Structural Database, then it will include bibliographic, chemical,
# crystal, experimental, refinement or atomic coordinate data resulting
# from the CCDC's data processing and validation procedures.
#
#######################################################################

data_CSD_CIF_ENILES
_audit_creation_date 2004-03-25
_audit_creation_method CSD-ConQuest-V1
_database_code_CSD ENILES
_database_code_depnum_ccdc_archive 'CCDC 200612'
_chemical_formula_sum 'C27 H21 N1 O1'
_chemical_formula_moiety
;
C27 H21 N1 O1
;
_journal_coden_Cambridge 7
_journal_volume 76
_journal_year 2003
_journal_page_first 825
_journal_name_full 'Bull.Chem.Soc.Jpn. '
loop_
_publ_author_name
"G.Yamamoto"
"C.Agawa"
"M.Minoura"
_chemical_name_systematic
;
O-Benzyl-N-9-triptycylhydroxylamine
;
_chemical_melting_point 485.15
_cell_volume   1902.823
_exptl_crystal_density_diffrn 1.311
_exptl_special_details
;
Melting point range 485.15-486.15K

;
_exptl_crystal_preparation 'dichloromethane/hexane'
_diffrn_ambient_temperature 100
#These two values have been output from a single CSD field.
_refine_ls_R_factor_gt 0.0519
_refine_ls_wR_factor_gt 0.0519
_symmetry_cell_setting monoclinic
_symmetry_space_group_name_H-M 'P 21/c'
_symmetry_Int_Tables_number 14
loop_
_symmetry_equiv_pos_site_id
_symmetry_equiv_pos_as_xyz
1 x,y,z
2 x,1/2-y,1/2+z
3 -x,-y,-z
4 -x,-1/2+y,-1/2-z
_cell_length_a 8.234(6)
_cell_length_b 19.654(15)
_cell_length_c 12.149(10)
_cell_angle_alpha 90
_cell_angle_beta 104.574(12)
_cell_angle_gamma 90
_cell_formula_units_Z 4
loop_
_atom_type_symbol
_atom_type_radius_bond
C 0.68
H 0.23
N 0.68
O 0.68
loop_
_atom_site_label
_atom_site_type_symbol
_atom_site_fract_x
_atom_site_fract_y
_atom_site_fract_z
C1 C 0.37498(17) 0.17279(7) 0.70505(12)
C2 C 0.47838(17) 0.10706(8) 0.72117(12)
C3 C 0.52810(18) 0.07074(8) 0.63770(13)
H1 H 0.49590 0.08540 0.56070
C4 C 0.6251(2) 0.01290(9) 0.66726(14)
H2 H 0.65980 -0.01200 0.61020
C5 C 0.6717(2) -0.00891(9) 0.77832(15)
H3 H 0.73730 -0.04900 0.79740
C6 C 0.62279(19) 0.02765(8) 0.86287(14)
H4 H 0.65510 0.01280 0.93970
C7 C 0.52705(17) 0.08549(8) 0.83387(13)
C8 C 0.22812(18) 0.16046(7) 0.75929(13)
C9 C 0.06034(18) 0.17199(8) 0.70840(14)
H5 H 0.02590 0.18680 0.63160
C10 C -0.0575(2) 0.16151(9) 0.77148(15)
H6 H -0.17330 0.16860 0.73710
C11 C -0.0073(2) 0.14101(9) 0.88273(16)
H7 H -0.08860 0.13420 0.92490
C12 C 0.1617(2) 0.13010(8) 0.93453(14)
H8 H 0.19600 0.11620 1.01180
C13 C 0.27936(18) 0.13978(7) 0.87201(13)
C14 C 0.48304(17) 0.22496(8) 0.78380(12)
C15 C 0.52007(18) 0.28981(8) 0.75444(13)
H9 H 0.47860 0.30570 0.67870
C16 C 0.61858(18) 0.33176(8) 0.83676(14)
H10 H 0.64370 0.37670 0.81740
C17 C 0.67985(19) 0.30862(8) 0.94611(13)
H11 H 0.75020 0.33710 1.00120
C18 C 0.63957(18) 0.24368(8) 0.97664(13)
H12 H 0.68150 0.22790 1.05240
C19 C 0.53825(17) 0.20247(8) 0.89586(12)
C20 C 0.46949(18) 0.13311(8) 0.91531(12)
H13 H 0.50580 0.11790 0.99630
N1 N 0.32304(17) 0.20040(6) 0.59145(10)
O1 O 0.23323(12) 0.14746(5) 0.51828(9)
C21 C 0.1368(2) 0.17981(8) 0.41883(13)
H14 H 0.21170 0.20270 0.37820
H15 H 0.06240 0.21450 0.43950
C22 C 0.03403(18) 0.12680(8) 0.34415(13)
C23 C -0.01629(19) 0.13762(9) 0.22823(13)
H16 H 0.01990 0.17720 0.19620
C24 C -0.1190(2) 0.09111(9) 0.15889(14)
H17 H -0.15470 0.09920 0.07940
C25 C -0.1702(2) 0.03313(9) 0.20370(14)
H18 H -0.24050 0.00120 0.15540
C26 C -0.1192(2) 0.02158(8) 0.31898(14)
H19 H -0.15330 -0.01870 0.35030
C27 C -0.01873(19) 0.06832(8) 0.38899(13)
H20 H 0.01470 0.06050 0.46870
H21 H 0.418(2) 0.2046(9) 0.5667(15)
#END
