
#######################################################################
#
#                 Cambridge Crystallographic Data Centre
#                                CCDC
#
#######################################################################
#
# If this CIF has been generated from an entry in the Cambridge
# Structural Database, then it will include bibliographic, chemical,
# crystal, experimental, refinement or atomic coordinate data resulting
# from the CCDC's data processing and validation procedures.
#
#######################################################################

data_CSD_CIF_ENIMOD
_audit_creation_date 2004-03-25
_audit_creation_method CSD-ConQuest-V1
_database_code_CSD ENIMOD
_database_code_depnum_ccdc_archive 'CCDC 212011'
_chemical_formula_sum 'C25 H25 N1 O1'
_chemical_formula_moiety
;
C25 H25 N1 O1
;
_journal_coden_Cambridge 7
_journal_volume 76
_journal_year 2003
_journal_page_first 1801
_journal_name_full 'Bull.Chem.Soc.Jpn. '
loop_
_publ_author_name
"G.Yamamoto"
"C.Agawa"
"T.Ohno"
"M.Minoura"
"Y.Mazaki"
_chemical_name_systematic
;
N-(1,4-Dimethyl-9-triptycyl)-N-ethyl-O-methylhydroxylamine
;
_chemical_melting_point 440.15
_cell_volume   1895.010
_exptl_crystal_colour 'colorless'
_exptl_crystal_density_diffrn 1.246
_exptl_special_details
;
Melting point range 440.15-441.15K

;
_exptl_crystal_description 'prism'
_exptl_crystal_preparation 'dichloromethane/hexane'
_diffrn_ambient_temperature 100.2
#These two values have been output from a single CSD field.
_refine_ls_R_factor_gt 0.0773
_refine_ls_wR_factor_gt 0.0773
_symmetry_cell_setting monoclinic
_symmetry_space_group_name_H-M 'P 21/c'
_symmetry_Int_Tables_number 14
loop_
_symmetry_equiv_pos_site_id
_symmetry_equiv_pos_as_xyz
1 x,y,z
2 -x,1/2+y,1/2-z
3 -x,-y,-z
4 x,-1/2-y,-1/2+z
_cell_length_a 9.859(5)
_cell_length_b 18.557(9)
_cell_length_c 10.768(6)
_cell_angle_alpha 90
_cell_angle_beta 105.864(6)
_cell_angle_gamma 90
_cell_formula_units_Z 4
loop_
_atom_type_symbol
_atom_type_radius_bond
C 0.68
H 0.23
N 0.68
O 0.68
loop_
_atom_site_label
_atom_site_type_symbol
_atom_site_fract_x
_atom_site_fract_y
_atom_site_fract_z
O1 O 0.7810(1) 0.13187(6) 0.6640(1)
N1 N 0.8740(1) 0.13408(7) 0.5776(1)
C1 C 0.7864(2) 0.11150(9) 0.4487(2)
C2 C 0.8714(2) 0.11655(9) 0.3461(2)
C3 C 1.0024(2) 0.15063(10) 0.3565(2)
C4 C 1.0576(2) 0.1449(1) 0.2510(2)
C5 C 0.9872(2) 0.1105(1) 0.1374(2)
C6 C 0.8520(2) 0.0846(1) 0.1212(2)
C7 C 0.7951(2) 0.0885(1) 0.2255(2)
C8 C 0.6596(2) 0.16134(9) 0.3885(2)
C9 C 0.6171(2) 0.22214(9) 0.4412(2)
C10 C 0.4967(2) 0.2593(1) 0.3712(2)
C11 C 0.4194(2) 0.2357(1) 0.2524(2)
C12 C 0.4618(2) 0.1747(1) 0.1979(2)
C13 C 0.5829(2) 0.13765(10) 0.2655(2)
C14 C 0.7189(2) 0.03515(9) 0.4425(2)
C15 C 0.7120(2) -0.00781(9) 0.5466(2)
C16 C 0.6365(2) -0.07248(9) 0.5244(2)
C17 C 0.5666(2) -0.09371(9) 0.4002(2)
C18 C 0.5677(2) -0.0499(1) 0.2974(2)
C19 C 0.6424(2) 0.01397(9) 0.3183(2)
C20 C 0.6414(2) 0.0709(1) 0.2180(2)
C21 C 1.0837(2) 0.1986(1) 0.4664(2)
C22 C 0.7715(2) 0.0533(1) -0.0068(2)
C23 C 0.9931(2) 0.08359(9) 0.6323(2)
C24 C 1.0896(2) 0.1126(1) 0.7575(2)
C25 C 0.8010(2) 0.1941(1) 0.7443(2)
H1 H 1.14820 0.16610 0.25720
H2 H 1.03390 0.10510 0.06900
H3 H 0.67320 0.23910 0.52430
H4 H 0.46610 0.30110 0.41010
H5 H 0.33670 0.26140 0.20630
H6 H 0.40740 0.15700 0.11380
H7 H 0.76100 0.00740 0.63210
H8 H 0.63410 -0.10280 0.59630
H9 H 0.51790 -0.13860 0.38580
H10 H 0.51620 -0.06330 0.21160
H11 H 0.58900 0.05640 0.13170
H12 H 1.02990 0.22070 0.53440
H13 H 1.16190 0.17790 0.52510
H14 H 1.13670 0.23570 0.41720
H15 H 0.83340 0.05060 -0.07490
H16 H 0.69590 0.07240 -0.04020
H17 H 0.72120 0.01100 -0.00270
H18 H 1.03840 0.08220 0.55800
H19 H 0.96410 0.03750 0.66190
H20 H 1.12790 0.16680 0.74730
H21 H 1.18000 0.08340 0.77700
H22 H 1.03580 0.11490 0.83500
H23 H 0.69550 0.21580 0.73120
H24 H 0.87380 0.19450 0.83240
H25 H 0.84650 0.23180 0.69610
#END
