
#######################################################################
#
#                 Cambridge Crystallographic Data Centre
#                                CCDC
#
#######################################################################
#
# If this CIF has been generated from an entry in the Cambridge
# Structural Database, then it will include bibliographic, chemical,
# crystal, experimental, refinement or atomic coordinate data resulting
# from the CCDC's data processing and validation procedures.
#
#######################################################################

data_CSD_CIF_ENIVAY
_audit_creation_date 2004-03-25
_audit_creation_method CSD-ConQuest-V1
_database_code_CSD ENIVAY
_database_code_depnum_ccdc_archive 'CCDC 226998'
_chemical_formula_sum 'C17 H12 N2 O3'
_chemical_formula_moiety
;
C17 H12 N2 O3
;
_journal_coeditor_code "IUCr CI6290"
_journal_coden_Cambridge 1370
_journal_volume 59
_journal_year 2003
_journal_page_first o1762
_journal_name_full 'Acta Crystallogr.,Sect.E:Struct.Rep.Online '
loop_
_publ_author_name
"S.Thamotharan"
"V.Parthasarathi"
"R.K.Hunnur"
"P.S.Shinge"
"B.Badami"
"K.J.Schenk"
_chemical_name_systematic
;
3-(4-(1-Oxo-3-phenylprop-2-en-1-yl)phenyl)sydnone
;
_chemical_melting_point 471
_cell_volume   1414.769
_exptl_crystal_colour 'orange'
_exptl_crystal_density_diffrn 1.372
_exptl_special_details
;
sydnones are potent porphyrinogenic and antiinflammatory compounds

;
_exptl_crystal_description 'parallelepiped'
_exptl_crystal_preparation 'methanol-dioxane'
_diffrn_ambient_temperature 293
#These two values have been output from a single CSD field.
_refine_ls_R_factor_gt 0.0647
_refine_ls_wR_factor_gt 0.0647
_symmetry_cell_setting monoclinic
_symmetry_space_group_name_H-M 'P 21/c'
_symmetry_Int_Tables_number 14
loop_
_symmetry_equiv_pos_site_id
_symmetry_equiv_pos_as_xyz
1 x,y,z
2 x,1/2-y,1/2+z
3 -x,-y,-z
4 -x,-1/2+y,-1/2-z
_cell_length_a 7.5839(8)
_cell_length_b 7.9343(7)
_cell_length_c 23.543(2)
_cell_angle_alpha 90
_cell_angle_beta 92.954(8)
_cell_angle_gamma 90
_cell_formula_units_Z 4
loop_
_atom_type_symbol
_atom_type_radius_bond
C 0.68
H 0.23
N 0.68
O 0.68
loop_
_atom_site_label
_atom_site_type_symbol
_atom_site_fract_x
_atom_site_fract_y
_atom_site_fract_z
O1 O 1.0899(2) -0.28223(17) 0.12160(5)
O2 O 1.1013(3) -0.3692(2) 0.21334(7)
O3 O 0.6501(3) 0.6845(2) 0.07862(8)
N1 N 1.0321(2) -0.1456(2) 0.09022(6)
N2 N 0.96458(18) -0.04592(18) 0.12767(5)
C1 C 0.9747(3) -0.1044(2) 0.18094(7)
H1 H 0.93430 -0.05070 0.21290
C2 C 1.0569(3) -0.2603(2) 0.17958(7)
C3 C 0.8936(2) 0.1122(2) 0.10736(7)
C4 C 0.8591(3) 0.1319(3) 0.04943(7)
H2 H 0.87620 0.04290 0.02460
C5 C 0.7994(3) 0.2846(3) 0.02917(8)
H3 H 0.77880 0.29980 -0.00980
C6 C 0.7695(2) 0.4169(2) 0.06597(8)
C7 C 0.7979(3) 0.3902(3) 0.12435(9)
H4 H 0.77350 0.47650 0.14950
C8 C 0.8612(3) 0.2387(3) 0.14551(8)
H5 H 0.88150 0.22240 0.18440
C9 C 0.7033(3) 0.5842(3) 0.04496(10)
C10 C 0.7037(3) 0.6208(3) -0.01619(10)
H6 H 0.74880 0.54000 -0.04010
C11 C 0.6428(3) 0.7635(3) -0.03895(10)
H7 H 0.60310 0.84210 -0.01330
C12 C 0.6292(2) 0.8152(3) -0.09884(9)
C13 C 0.6753(3) 0.7086(3) -0.14187(10)
H8 H 0.71760 0.60130 -0.13290
C14 C 0.6597(3) 0.7578(4) -0.19761(12)
H9 H 0.69110 0.68370 -0.22600
C15 C 0.5979(4) 0.9164(4) -0.21212(12)
H10 H 0.58790 0.94970 -0.25000
C16 C 0.5512(3) 1.0249(3) -0.16961(13)
H11 H 0.50950 1.13210 -0.17890
C17 C 0.5661(3) 0.9754(3) -0.11373(11)
H12 H 0.53370 1.04930 -0.08540
#END
