
#######################################################################
#
#                 Cambridge Crystallographic Data Centre
#                                CCDC
#
#######################################################################
#
# If this CIF has been generated from an entry in the Cambridge
# Structural Database, then it will include bibliographic, chemical,
# crystal, experimental, refinement or atomic coordinate data resulting
# from the CCDC's data processing and validation procedures.
#
#######################################################################

data_CSD_CIF_ENIZAC
_audit_creation_date 2004-03-25
_audit_creation_method CSD-ConQuest-V1
_database_code_CSD ENIZAC
_database_code_depnum_ccdc_archive 'CCDC 225979'
_chemical_formula_sum 'C8 H5 N3 O4'
_chemical_formula_moiety
;
C8 H5 N3 O4
;
_journal_coden_Cambridge 1078
_journal_year 2003
_journal_name_full 'CSD Communication(Private Communication) '
loop_
_publ_author_name
"G.Mayer"
"W.Steglich"
"K.Polborn"
_chemical_name_systematic
;
2,6-dinitrobenzylnitrile
;
_cell_volume   1824.036
_exptl_crystal_colour 'colorless'
_exptl_crystal_density_diffrn 1.509
_exptl_special_details
;
contribution from Department Chemie, Universitat Munchen, Butenandtstr. 5-13, 
81377 Munchen, Germany
;
_exptl_crystal_description 'plate'
_diffrn_ambient_temperature 295
_refine_special_details
;
O atoms of a nitro group were refined over two sites with occupancies 
0.784:0.216.
;
#These two values have been output from a single CSD field.
_refine_ls_R_factor_gt 0.0601
_refine_ls_wR_factor_gt 0.0601
_symmetry_cell_setting orthorhombic
_symmetry_space_group_name_H-M 'P c c n'
_symmetry_Int_Tables_number 56
loop_
_symmetry_equiv_pos_site_id
_symmetry_equiv_pos_as_xyz
1 x,y,z
2 1/2+x,1/2+y,-z
3 1/2-x,y,1/2+z
4 x,1/2-y,1/2+z
5 -x,-y,-z
6 -1/2-x,-1/2-y,z
7 -1/2+x,-y,-1/2-z
8 -x,-1/2+y,-1/2-z
_cell_length_a 10.530(12)
_cell_length_b 11.506(5)
_cell_length_c 15.055(7)
_cell_angle_alpha 90
_cell_angle_beta 90
_cell_angle_gamma 90
_cell_formula_units_Z 8
loop_
_atom_type_symbol
_atom_type_radius_bond
C 0.68
H 0.23
N 0.68
O 0.68
loop_
_atom_site_label
_atom_site_type_symbol
_atom_site_fract_x
_atom_site_fract_y
_atom_site_fract_z
N1 N 0.9085(4) 0.0666(4) 0.2546(3)
N2 N 0.5160(4) 0.1833(3) 0.2602(3)
N3 N 0.7541(4) -0.0061(4) 0.5059(3)
O1 O 0.4080(3) 0.2160(3) 0.2426(2)
O2 O 0.5981(3) 0.1658(3) 0.2043(2)
O3 O 0.7328(7) -0.0471(6) 0.5788(6)
O4 O 0.8511(5) -0.0227(6) 0.4637(3)
O5? O 0.7554(30) -0.1070(22) 0.4670(14)
O6? O 0.7981(35) 0.0035(28) 0.5670(21)
C1 C 0.6354(3) 0.0806(3) 0.3787(2)
C2 C 0.5490(3) 0.1662(3) 0.3535(2)
C3 C 0.4926(4) 0.2408(4) 0.4134(3)
H1 H 0.4342(4) 0.2958(4) 0.3937(3)
C4 C 0.5222(4) 0.2341(4) 0.5014(3)
H2 H 0.4856(4) 0.2854(4) 0.5417(3)
C5 C 0.6065(4) 0.1512(4) 0.5302(3)
H3 H 0.6261(4) 0.1446(4) 0.5903(3)
C6 C 0.6611(3) 0.0786(3) 0.4696(3)
C7 C 0.6920(3) -0.0056(3) 0.3136(3)
H4 H 0.7027(3) -0.0801(3) 0.3427(3)
H5 H 0.6341(3) -0.0162(3) 0.2641(3)
C8 C 0.8138(4) 0.0342(3) 0.2805(3)
#END
