
#######################################################################
#
#                 Cambridge Crystallographic Data Centre
#                                CCDC
#
#######################################################################
#
# If this CIF has been generated from an entry in the Cambridge
# Structural Database, then it will include bibliographic, chemical,
# crystal, experimental, refinement or atomic coordinate data resulting
# from the CCDC's data processing and validation procedures.
#
#######################################################################

data_CSD_CIF_ENIZIK01
_audit_creation_date 2012-04-25
_audit_creation_method CSD-ConQuest-V1
_database_code_CSD ENIZIK01
_database_code_depnum_ccdc_archive 'CCDC 840779'
_chemical_formula_sum 'C23 H21 N2 O2'
_chemical_formula_moiety
;
C23 H21 N2 O2
;
_journal_coden_Cambridge 1350
_journal_volume 14
_journal_year 2012
_journal_page_first 1515
_journal_name_full 'CrystEngComm '
loop_
_publ_author_name
"H.Akpinar"
"J.T.Mague"
"M.A.Novak"
"J.A.Friedman"
"P.M.Lahti"
_chemical_name_systematic
;
2-(1-Pyrenyl)-4,4,5,5-tetramethyl-4,5-dihydro-1H-imidazole-3-oxide-1-oxyl
;
_cell_volume   3556.440
_exptl_crystal_colour 'blue'
_exptl_crystal_density_diffrn 1.335
_exptl_special_details
;
alpha polymorph
The unit cell length b is 7.4072 as reported in the .cif, not 7.4972 as 
published
;
_exptl_crystal_description 'plate'
_diffrn_ambient_temperature 100
#These two values have been output from a single CSD field.
_refine_ls_R_factor_gt 0.0723
_refine_ls_wR_factor_gt 0.0723
_symmetry_cell_setting monoclinic
_symmetry_space_group_name_H-M 'P 21/n'
_symmetry_Int_Tables_number 14
loop_
_symmetry_equiv_pos_site_id
_symmetry_equiv_pos_as_xyz
1 x,y,z
2 1/2-x,1/2+y,1/2-z
3 -x,-y,-z
4 -1/2+x,-1/2-y,-1/2+z
_cell_length_a 14.428(2)
_cell_length_b 7.4072(12)
_cell_length_c 33.289(5)
_cell_angle_alpha 90
_cell_angle_beta 91.483(2)
_cell_angle_gamma 90
_cell_formula_units_Z 8
loop_
_atom_type_symbol
_atom_type_radius_bond
C 0.68
H 0.23
N 0.68
O 0.68
loop_
_atom_site_label
_atom_site_type_symbol
_atom_site_fract_x
_atom_site_fract_y
_atom_site_fract_z
O1 O 0.20310(15) 0.4329(3) 0.10340(6)
O2 O -0.02934(16) 0.2864(3) 0.01008(7)
N1 N 0.12299(19) 0.4146(4) 0.08588(8)
N2 N 0.01315(19) 0.3389(4) 0.04237(8)
C1 C 0.1062(2) 0.3560(4) 0.04800(9)
C2 C 0.0348(2) 0.4770(4) 0.10484(9)
C3 C -0.0356(2) 0.3598(5) 0.08138(9)
C4 C 0.0381(2) 0.4479(5) 0.14990(9)
H1 H 0.05080 0.32040 0.15570
H2 H -0.02170 0.48160 0.16100
H3 H 0.08720 0.52280 0.16210
C5 C 0.0264(2) 0.6782(4) 0.09499(10)
H4 H 0.08280 0.74090 0.10430
H5 H -0.02720 0.72880 0.10850
H6 H 0.01830 0.69380 0.06590
C6 C -0.1306(2) 0.4419(5) 0.07506(10)
H7 H -0.12500 0.55780 0.06120
H8 H -0.15890 0.46100 0.10120
H9 H -0.16950 0.36010 0.05880
C7 C -0.0431(2) 0.1686(5) 0.09849(10)
H10 H -0.07580 0.09090 0.07900
H11 H -0.07740 0.17200 0.12350
H12 H 0.01920 0.12030 0.10390
C8 C 0.1747(2) 0.3045(5) 0.01866(9)
C9 C 0.1651(3) 0.1354(5) 0.00031(10)
H13 H 0.11530 0.05870 0.00720
C10 C 0.2272(2) 0.0799(5) -0.02764(10)
H14 H 0.21990 -0.03590 -0.03960
C11 C 0.3008(2) 0.1888(5) -0.03894(9)
C12 C 0.3661(3) 0.1356(5) -0.06812(10)
H15 H 0.36070 0.01910 -0.07990
C13 C 0.4348(3) 0.2444(5) -0.07954(10)
H16 H 0.47640 0.20410 -0.09930
C14 C 0.4464(2) 0.4213(5) -0.06235(10)
C15 C 0.5192(3) 0.5354(5) -0.07317(10)
H17 H 0.56190 0.49690 -0.09260
C16 C 0.5289(2) 0.7028(5) -0.05574(10)
H18 H 0.57890 0.77850 -0.06300
C17 C 0.4663(2) 0.7624(5) -0.02766(10)
H19 H 0.47340 0.87930 -0.01630
C18 C 0.3929(2) 0.6521(4) -0.01590(9)
C19 C 0.3274(2) 0.7081(5) 0.01306(9)
H20 H 0.33320 0.82500 0.02460
C20 C 0.2578(2) 0.6003(4) 0.02451(9)
H21 H 0.21510 0.64330 0.04350
C21 C 0.2468(2) 0.4207(5) 0.00840(9)
C22 C 0.3102(2) 0.3635(5) -0.02102(9)
C23 C 0.3835(2) 0.4787(4) -0.03313(9)
O3 O 0.41459(16) 0.6497(3) 0.15964(6)
O4 O 0.39078(15) 1.1046(3) 0.25399(6)
N3 N 0.38949(18) 0.7947(3) 0.17731(7)
N4 N 0.38207(19) 1.0135(4) 0.22131(8)
C24 C 0.4210(2) 0.8521(4) 0.21383(9)
C25 C 0.3109(2) 0.9108(4) 0.16177(9)
C26 C 0.3335(2) 1.0894(4) 0.18426(9)
C27 C 0.2226(2) 0.8174(5) 0.17529(10)
H22 H 0.22080 0.69360 0.16490
H23 H 0.16830 0.88390 0.16490
H24 H 0.22190 0.81470 0.20470
C28 C 0.3117(2) 0.9204(5) 0.11626(9)
H25 H 0.37310 0.95940 0.10770
H26 H 0.26490 1.00710 0.10670
H27 H 0.29780 0.80100 0.10500
C29 C 0.2505(2) 1.2001(5) 0.1955(1)
H28 H 0.20900 1.12630 0.21160
H29 H 0.21750 1.24060 0.17100
H30 H 0.27110 1.30530 0.21120
C30 C 0.4043(2) 1.2047(4) 0.16321(10)
H31 H 0.42710 1.29920 0.18160
H32 H 0.37520 1.26060 0.13940
H33 H 0.45620 1.12890 0.15510
C31 C 0.4824(2) 0.7478(4) 0.24082(9)
C32 C 0.4591(2) 0.5693(4) 0.24929(9)
H34 H 0.40560 0.51750 0.23670
C33 C 0.5123(2) 0.4669(4) 0.27557(9)
H35 H 0.49460 0.34580 0.28090
C34 C 0.5918(2) 0.5381(4) 0.29450(9)
C35 C 0.6492(2) 0.4372(5) 0.32189(9)
H36 H 0.63180 0.31700 0.32830
C36 C 0.7275(2) 0.5064(4) 0.33912(10)
H37 H 0.76420 0.43420 0.35690
C37 C 0.7552(2) 0.6877(4) 0.33062(9)
C38 C 0.8365(2) 0.7649(5) 0.34713(10)
H38 H 0.87380 0.69640 0.36550
C39 C 0.8636(2) 0.9378(5) 0.33733(10)
H39 H 0.91920 0.98650 0.34880
C40 C 0.8101(2) 1.0400(5) 0.31102(9)
H40 H 0.82960 1.15880 0.30450
C41 C 0.7275(2) 0.9721(4) 0.29372(9)
C42 C 0.6721(2) 1.0719(5) 0.26550(9)
H41 H 0.69100 1.19020 0.25830
C43 C 0.5935(2) 1.0037(4) 0.24860(9)
H42 H 0.55800 1.07520 0.23020
C44 C 0.5628(2) 0.8236(4) 0.25814(9)
C45 C 0.6175(2) 0.7196(4) 0.28573(9)
C46 C 0.6993(2) 0.7939(4) 0.30399(9)
#END
