
#######################################################################
#
#                 Cambridge Crystallographic Data Centre
#                                CCDC
#
#######################################################################
#
# If this CIF has been generated from an entry in the Cambridge
# Structural Database, then it will include bibliographic, chemical,
# crystal, experimental, refinement or atomic coordinate data resulting
# from the CCDC's data processing and validation procedures.
#
#######################################################################

data_CSD_CIF_ENIZIK
_audit_creation_date 2004-03-25
_audit_creation_method CSD-ConQuest-V1
_database_code_CSD ENIZIK
_database_code_depnum_ccdc_archive 'CCDC 226038'
_chemical_formula_sum 'C23 H21 N2 O2'
_chemical_formula_moiety
;
C23 H21 N2 O2
;
_journal_coden_Cambridge 1078
_journal_year 2003
_journal_name_full 'CSD Communication(Private Communication) '
loop_
_publ_author_name
"C.Mann"
"R.Gompper"
"K.Polborn"
_chemical_name_systematic
;
4,4,5,5-tetramethyl-2-(pyrenyl)-imidazoline-1-oxy-3-oxide
;
_chemical_name_common
;
2-pyrenylnitronylnitroxide
;
_cell_volume   3670.321
_exptl_crystal_colour 'black'
_exptl_crystal_density_diffrn 1.294
_exptl_special_details
;
alpha polymorph
contribution from Department Chemie, Universitat Munchen, Butenandtstr. 5-13, 
81377 Munchen, Germany
;
_exptl_crystal_description 'plate'
_diffrn_ambient_temperature 295
#These two values have been output from a single CSD field.
_refine_ls_R_factor_gt 0.0662
_refine_ls_wR_factor_gt 0.0662
_symmetry_cell_setting monoclinic
_symmetry_space_group_name_H-M 'P 21/n'
_symmetry_Int_Tables_number 14
loop_
_symmetry_equiv_pos_site_id
_symmetry_equiv_pos_as_xyz
1 x,y,z
2 1/2-x,1/2+y,1/2-z
3 -x,-y,-z
4 -1/2+x,-1/2-y,-1/2+z
_cell_length_a 14.573(2)
_cell_length_b 7.5077(12)
_cell_length_c 33.557(4)
_cell_angle_alpha 90
_cell_angle_beta 91.428(12)
_cell_angle_gamma 90
_cell_formula_units_Z 8
loop_
_atom_type_symbol
_atom_type_radius_bond
C 0.68
H 0.23
N 0.68
O 0.68
loop_
_atom_site_label
_atom_site_type_symbol
_atom_site_fract_x
_atom_site_fract_y
_atom_site_fract_z
O1 O 0.5838(2) -0.3550(4) 1.33953(9)
O2 O 0.6074(2) 0.0924(4) 1.24604(8)
N1 N 0.6086(2) -0.2125(5) 1.32195(10)
N2 N 0.6156(2) 0.0031(5) 1.27851(10)
C1 C 0.5771(3) -0.1561(6) 1.28594(11)
C2 C 0.6861(3) -0.0992(6) 1.33731(12)
C3 C 0.6654(3) 0.0761(6) 1.31495(11)
C4 C 0.6861(3) -0.0886(7) 1.38230(12)
H1 H 0.7316(16) -0.0041(32) 1.39134(13)
H2 H 0.7002(21) -0.2036(12) 1.39336(12)
H3 H 0.6267(8) -0.0512(41) 1.39078(13)
C5 C 0.7740(3) -0.1916(7) 1.32390(15)
H4 H 0.8265(3) -0.1256(25) 1.3335(9)
H5 H 0.7742(11) -0.1967(40) 1.29531(15)
H6 H 0.7764(11) -0.3103(17) 1.3345(8)
C6 C 0.5960(3) 0.1942(7) 1.33584(15)
H7 H 0.6258(6) 0.2543(34) 1.3578(6)
H8 H 0.5469(12) 0.1219(9) 1.3455(9)
H9 H 0.5716(17) 0.2806(29) 1.3173(3)
C7 C 0.7470(3) 0.1864(7) 1.30338(14)
H10 H 0.7792(13) 0.2268(36) 1.32700(14)
H11 H 0.7264(4) 0.2873(24) 1.2880(8)
H12 H 0.7874(11) 0.1153(14) 1.2878(8)
C8 C 0.5164(3) -0.2592(6) 1.25930(11)
C9 C 0.5389(3) -0.4339(6) 1.25065(12)
H13 H 0.5907(3) -0.4840(6) 1.26290(12)
C10 C 0.4870(3) -0.5356(6) 1.22449(13)
H14 H 0.5045(3) -0.6522(6) 1.21918(13)
C11 C 0.4081(3) -0.4649(5) 1.20576(12)
C12 C 0.3519(3) -0.5666(6) 1.17858(13)
H15 H 0.3686(3) -0.6831(6) 1.17273(13)
C13 C 0.2758(3) -0.4975(7) 1.16133(13)
H16 H 0.2408(3) -0.5671(7) 1.14380(13)
C14 C 0.2475(3) -0.3184(6) 1.16945(12)
C15 C 0.1676(3) -0.2440(8) 1.15288(14)
H17 H 0.1322(3) -0.3106(8) 1.13489(14)
C16 C 0.1397(3) -0.0740(8) 1.16251(15)
H18 H 0.0859(3) -0.0276(8) 1.15123(15)
C17 C 0.1918(3) 0.0268(7) 1.18886(13)
H19 H 0.1726(3) 0.1413(7) 1.19517(13)
C18 C 0.2728(3) -0.0394(6) 1.20627(12)
C19 C 0.3280(3) 0.0603(6) 1.23437(12)
H20 H 0.3100(3) 0.1751(6) 1.24112(12)
C20 C 0.4045(3) -0.0075(6) 1.25109(12)
H21 H 0.4378(3) 0.0615(6) 1.26934(12)
C21 C 0.4369(3) -0.1823(5) 1.24196(11)
C22 C 0.3016(3) -0.2141(6) 1.19644(11)
C23 C 0.3828(3) -0.2869(5) 1.21463(11)
O3 O 0.7039(2) -0.0827(5) 1.10236(9)
O4 O 0.4762(2) -0.2210(5) 1.00888(10)
N3 N 0.6248(2) -0.1014(5) 1.08497(10)
N4 N 0.5172(3) -0.1733(5) 1.04135(11)
C24 C 0.6097(3) -0.1543(6) 1.04727(13)
C25 C 0.5379(3) -0.0425(7) 1.10394(13)
C26 C 0.4687(3) -0.1580(7) 1.08016(14)
C27 C 0.5276(3) 0.1568(7) 1.0956(2)
H22 H 0.4744(14) 0.2013(12) 1.1087(9)
H23 H 0.5208(24) 0.1759(8) 1.0674(2)
H24 H 0.5812(11) 0.2183(9) 1.1055(9)
C28 C 0.5415(3) -0.0760(8) 1.14870(13)
H25 H 0.4833(9) -0.0460(44) 1.1598(2)
H26 H 0.5887(16) -0.0037(35) 1.1609(2)
H27 H 0.5546(23) -0.1994(12) 1.15368(13)
C29 C 0.3740(3) -0.0781(8) 1.0735(2)
H28 H 0.3433(10) -0.0720(47) 1.0985(2)
H29 H 0.3391(9) -0.1514(29) 1.0553(9)
H30 H 0.3796(3) 0.0395(21) 1.0627(11)
C30 C 0.4617(4) -0.3486(7) 1.0955(2)
H31 H 0.4277(22) -0.3497(10) 1.1197(6)
H32 H 0.5222(4) -0.3949(19) 1.1008(11)
H33 H 0.4309(23) -0.4212(13) 1.0758(5)
C31 C 0.6780(3) -0.1979(6) 1.01769(12)
C32 C 0.6715(4) -0.3635(7) 0.9987(2)
H34 H 0.6243(4) -0.4411(7) 1.0050(2)
C33 C 0.7344(4) -0.4125(7) 0.9709(2)
H35 H 0.7294(4) -0.5239(7) 0.9588(2)
C34 C 0.8053(3) -0.2996(6) 0.96022(13)
C35 C 0.8722(4) -0.3466(8) 0.9308(2)
H36 H 0.8686(4) -0.4579(8) 0.9187(2)
C36 C 0.9371(4) -0.2379(9) 0.9208(2)
H37 H 0.9785(4) -0.2739(9) 0.9018(2)
C37 C 0.9468(3) -0.0664(8) 0.93797(13)
C38 C 1.0168(4) 0.0529(9) 0.92850(15)
H38 H 1.0596(4) 0.0200(9) 0.90977(15)
C39 C 1.0236(4) 0.2164(9) 0.9461(2)
H39 H 1.0712(4) 0.2923(9) 0.9394(2)
C40 C 0.9608(4) 0.2711(7) 0.97382(15)
H40 H 0.9658(4) 0.3839(7) 0.98509(15)
C41 C 0.8896(3) 0.1568(6) 0.98503(13)
C42 C 0.8236(3) 0.2059(6) 1.01399(13)
H41 H 0.8276(3) 0.3181(6) 1.02566(13)
C43 C 0.7563(3) 0.0963(6) 1.02485(12)
H42 H 0.7146(3) 0.1338(6) 1.04363(12)
C44 C 0.7478(3) -0.0791(6) 1.00780(12)
C45 C 0.8827(3) -0.0122(6) 0.96722(12)
C46 C 0.8117(3) -0.1298(6) 0.97886(12)
#END
