
#######################################################################
#
#                 Cambridge Crystallographic Data Centre
#                                CCDC
#
#######################################################################
#
# If this CIF has been generated from an entry in the Cambridge
# Structural Database, then it will include bibliographic, chemical,
# crystal, experimental, refinement or atomic coordinate data resulting
# from the CCDC's data processing and validation procedures.
#
#######################################################################

data_CSD_CIF_ENUCEW
_audit_creation_date 2011-07-11
_audit_creation_method CSD-ConQuest-V1
_database_code_CSD ENUCEW
_database_code_depnum_ccdc_archive 'CCDC 726089'
_chemical_formula_sum 'C22 H16 N6 O2'
_chemical_formula_moiety
;
C22 H16 N6 O2
;
_journal_coden_Cambridge 10
_journal_volume 92
_journal_year 2009
_journal_page_first 2214
_journal_name_full 'Helv.Chim.Acta '
loop_
_publ_author_name
"J.E.Beves"
"E.C.Constable"
"C.E.Housecroft"
"M.Neuburger"
"S.Schaffner"
"J.A.Zampese"
_chemical_name_systematic
;
4'-(2-(4-Nitrobenzylidene)hydrazino)-2,2':6',2''-terpyridine
;
_cell_volume   3777.861
_exptl_crystal_colour 'orange'
_exptl_crystal_density_diffrn 1.394
_exptl_crystal_description 'block'
_diffrn_ambient_temperature 223
#These two values have been output from a single CSD field.
_refine_ls_R_factor_gt 0.0635
_refine_ls_wR_factor_gt 0.0635
_symmetry_cell_setting monoclinic
_symmetry_space_group_name_H-M 'P 21/c'
_symmetry_Int_Tables_number 14
loop_
_symmetry_equiv_pos_site_id
_symmetry_equiv_pos_as_xyz
1 x,y,z
2 -x,1/2+y,1/2-z
3 -x,-y,-z
4 x,-1/2-y,-1/2+z
_cell_length_a 19.617(4)
_cell_length_b 17.698(3)
_cell_length_c 11.301(2)
_cell_angle_alpha 90
_cell_angle_beta 105.66(3)
_cell_angle_gamma 90
_cell_formula_units_Z 8
loop_
_atom_type_symbol
_atom_type_radius_bond
C 0.68
H 0.23
N 0.68
O 0.68
loop_
_atom_site_label
_atom_site_type_symbol
_atom_site_fract_x
_atom_site_fract_y
_atom_site_fract_z
O1 O 0.47348(12) 0.10543(10) 0.2497(2)
O2 O 0.42579(13) 0.10399(11) 0.3995(2)
N1 N 0.45050(12) 0.13755(12) 0.3269(2)
C1 C 0.42283(13) 0.33402(13) 0.4143(2)
H1 H 0.40270 0.35960 0.46840
C2 C 0.45266(13) 0.21982(13) 0.3311(2)
N2 N 0.31693(10) 0.69837(11) 0.60318(18)
C3 C 0.45286(14) 0.45760(14) 0.3346(2)
C4 C 0.35818(12) 0.81456(13) 0.5345(2)
C5 C 0.38577(13) 0.68926(13) 0.4574(2)
H2 H 0.40840 0.71360 0.40560
C6 C 0.48405(13) 0.33626(14) 0.2561(2)
H3 H 0.50520 0.36300 0.20460
N3 N 0.41949(13) 0.56948(11) 0.3943(2)
C7 C 0.39980(15) 0.92207(14) 0.4669(3)
H4 H 0.42550 0.94510 0.41880
C8 C 0.32980(15) 0.93398(15) 0.6062(3)
H5 H 0.30800 0.96310 0.65390
C9 C 0.20038(15) 0.60001(17) 0.8221(3)
H6 H 0.17780 0.62920 0.86860
C10 C 0.22979(14) 0.48150(16) 0.7529(3)
H7 H 0.22680 0.42910 0.75450
C11 C 0.27181(13) 0.58837(14) 0.6823(2)
C12 C 0.45333(12) 0.37539(13) 0.3356(2)
C13 C 0.31392(13) 0.62254(13) 0.6040(2)
C14 C 0.35323(12) 0.73050(13) 0.5307(2)
C15 C 0.34719(13) 0.57645(13) 0.5373(2)
H8 H 0.34490 0.52410 0.54230
N4 N 0.26722(11) 0.51272(12) 0.6822(2)
C16 C 0.23908(14) 0.63362(15) 0.7513(2)
H9 H 0.24320 0.68590 0.74970
C17 C 0.19577(14) 0.52214(17) 0.8226(3)
H10 H 0.17000 0.49780 0.86950
C18 C 0.38411(13) 0.61096(13) 0.4625(2)
C19 C 0.42233(13) 0.25688(13) 0.4126(2)
H11 H 0.40210 0.22970 0.46500
N5 N 0.39627(11) 0.84684(11) 0.4656(2)
C20 C 0.32440(14) 0.85668(14) 0.6059(2)
H12 H 0.29850 0.83280 0.65290
N6 N 0.41850(11) 0.49318(11) 0.39889(19)
C21 C 0.36794(14) 0.96794(14) 0.5349(3)
H13 H 0.37210 1.02020 0.53270
C22 C 0.48351(13) 0.25827(13) 0.2530(2)
H14 H 0.50360 0.23220 0.19920
O3 O 0.01328(12) -0.20411(10) -0.20470(18)
O4 O 0.09579(12) -0.19961(10) -0.0350(2)
N7 N 0.05248(12) -0.16880(11) -0.1192(2)
C23 C 0.04736(13) -0.08666(13) -0.1190(2)
C24 C -0.00168(13) 0.02701(13) -0.2177(2)
H15 H -0.03180 0.05190 -0.28400
C25 C 0.14236(12) 0.42361(13) 0.1672(2)
C26 C 0.13874(12) 0.27008(13) 0.1823(2)
H16 H 0.13810 0.21780 0.19040
C27 C 0.14537(12) 0.50797(13) 0.1655(2)
C28 C 0.10513(14) 0.61837(14) 0.0659(3)
H17 H 0.07700 0.64330 -0.00250
C29 C 0.14454(14) 0.66182(14) 0.1612(3)
H18 H 0.14260 0.71430 0.15730
C30 C 0.17855(12) 0.31471(13) 0.2769(2)
C31 C 0.09975(12) 0.30513(13) 0.0749(2)
C32 C 0.03397(14) 0.15103(13) -0.1195(2)
C33 C 0.18687(14) 0.62540(14) 0.2625(3)
H19 H 0.21470 0.65300 0.32790
C34 C 0.29398(14) 0.21144(17) 0.6059(3)
H20 H 0.31870 0.18620 0.67670
C35 C 0.26348(14) 0.17246(16) 0.5000(3)
H21 H 0.26840 0.12020 0.50160
C36 C 0.25008(13) 0.32372(15) 0.4971(2)
H22 H 0.24480 0.37600 0.49350
C37 C 0.08600(13) 0.03027(13) -0.0219(2)
H23 H 0.11430 0.05760 0.04330
N8 N 0.10461(11) 0.54276(11) 0.06512(19)
C38 C 0.18738(13) 0.54757(13) 0.2655(2)
H24 H 0.21530 0.52190 0.33310
C39 C 0.00162(13) -0.05072(13) -0.2170(2)
H25 H -0.02660 -0.07850 -0.28170
C40 C 0.09001(13) -0.04702(13) -0.0211(2)
H26 H 0.12070 -0.07230 0.04390
C41 C 0.22075(12) 0.27989(14) 0.3940(2)
N9 N 0.06054(12) 0.26409(11) -0.0247(2)
C42 C 0.03987(12) 0.06862(12) -0.1195(2)
N10 N 0.06642(11) 0.18762(10) -0.02198(18)
C43 C 0.28703(14) 0.28936(18) 0.6047(3)
H27 H 0.30680 0.31780 0.67480
N11 N 0.18159(10) 0.39049(11) 0.27049(18)
N12 N 0.22715(11) 0.20441(12) 0.3945(2)
C44 C 0.10037(13) 0.38386(13) 0.0685(2)
H28 H 0.07330 0.40910 -0.00040
H29 H 0.0044(15) 0.1762(16) -0.197(3)
H30 H 0.4787(14) 0.4853(15) 0.283(3)
H31 H 0.4446(16) 0.5919(16) 0.350(3)
H32 H 0.0395(15) 0.2883(16) -0.097(3)
#END
