
#######################################################################
#
#                 Cambridge Crystallographic Data Centre
#                                CCDC
#
#######################################################################
#
# If this CIF has been generated from an entry in the Cambridge
# Structural Database, then it will include bibliographic, chemical,
# crystal, experimental, refinement or atomic coordinate data resulting
# from the CCDC's data processing and validation procedures.
#
#######################################################################

data_CSD_CIF_ENULIJ
_audit_creation_date 2011-06-29
_audit_creation_method CSD-ConQuest-V1
_database_code_CSD ENULIJ
_database_code_depnum_ccdc_archive 'CCDC 715313'
_chemical_formula_sum 'C13 H15 N1 O2'
_chemical_formula_moiety
;
C13 H15 N1 O2
;
_journal_coden_Cambridge 154
_journal_volume 62
_journal_year 2009
_journal_page_first 1695
_journal_name_full 'Aust.J.Chem. '
loop_
_publ_author_name
"J.Roth-Barton"
"J.M.White"
_chemical_name_systematic
;
1-Methoxy-3-phenyl-2-oxa-3-azabicyclo[2.2.2]oct-5-ene
;
_cell_volume   4468.856
_exptl_crystal_colour 'colorless'
_exptl_crystal_density_diffrn 1.292
_exptl_crystal_description 'block'
_diffrn_ambient_temperature 130
#These two values have been output from a single CSD field.
_refine_ls_R_factor_gt 0.0522
_refine_ls_wR_factor_gt 0.0522
_symmetry_cell_setting monoclinic
_symmetry_space_group_name_H-M 'P 21/c'
_symmetry_Int_Tables_number 14
loop_
_symmetry_equiv_pos_site_id
_symmetry_equiv_pos_as_xyz
1 x,y,z
2 -x,1/2+y,1/2-z
3 -x,-y,-z
4 x,-1/2-y,-1/2+z
_cell_length_a 18.5752(2)
_cell_length_b 17.4530(1)
_cell_length_c 15.0817(1)
_cell_angle_alpha 90
_cell_angle_beta 113.937(1)
_cell_angle_gamma 90
_cell_formula_units_Z 16
loop_
_atom_type_symbol
_atom_type_radius_bond
C 0.68
H 0.23
N 0.68
O 0.68
loop_
_atom_site_label
_atom_site_type_symbol
_atom_site_fract_x
_atom_site_fract_y
_atom_site_fract_z
O1 O 0.26636(8) 0.66351(7) 0.47477(10)
O2 O 0.36481(9) 0.57483(8) 0.53130(12)
N1 N 0.20174(10) 0.70208(9) 0.48682(13)
C1 C 0.22005(12) 0.78130(11) 0.50667(14)
C2 C 0.28116(13) 0.81610(12) 0.49042(15)
H1 H 0.31440 0.78680 0.47160
C3 C 0.17061(13) 0.82685(12) 0.53401(16)
H2 H 0.12950 0.80440 0.54480
C4 C 0.24345(15) 0.93988(12) 0.52963(17)
H3 H 0.25150 0.99250 0.53740
C5 C 0.23830(13) 0.53956(11) 0.51984(16)
H4 H 0.25550 0.49750 0.56570
H5 H 0.22800 0.51980 0.45570
C6 C 0.18241(14) 0.90546(12) 0.54511(16)
H6 H 0.14900 0.93520 0.56310
C7 C 0.18159(13) 0.65892(11) 0.55904(16)
H7 H 0.13630 0.68210 0.56650
C8 C 0.25332(15) 0.66021(12) 0.65349(16)
H8 H 0.25300 0.67880 0.71110
C9 C 0.29229(14) 0.89493(12) 0.50239(17)
H9 H 0.33340 0.91780 0.49190
C10 C 0.16308(13) 0.57628(11) 0.52095(17)
H10 H 0.12170 0.57650 0.45590
H11 H 0.14490 0.54680 0.56240
C11 C 0.30153(13) 0.60127(11) 0.54773(16)
C12 C 0.31683(14) 0.63222(12) 0.64628(16)
H12 H 0.36630 0.63180 0.69750
C13 C 0.43267(14) 0.62334(13) 0.56314(19)
H13 H 0.47300 0.59980 0.54790
H14 H 0.45180 0.63080 0.63200
H15 H 0.41870 0.67200 0.53090
O3 O 0.23343(8) 0.33488(7) 0.71904(10)
O4 O 0.13823(9) 0.42552(8) 0.68394(12)
N2 N 0.29776(10) 0.29360(9) 0.79234(12)
C14 C 0.28210(12) 0.21356(10) 0.78406(15)
C15 C 0.26469(13) 0.45423(11) 0.80463(16)
H16 H 0.24780 0.49440 0.83640
H17 H 0.27660 0.47710 0.75360
C16 C 0.22262(13) 0.18237(12) 0.70184(16)
H18 H 0.18850 0.21460 0.65420
C17 C 0.18260(14) 0.35873(12) 0.84134(17)
H19 H 0.13280 0.35880 0.84220
C18 C 0.31726(13) 0.32957(11) 0.88808(15)
H20 H 0.36170 0.30330 0.93860
C19 C 0.33258(13) 0.16371(11) 0.85493(16)
H21 H 0.37240 0.18350 0.91040
C20 C 0.33791(13) 0.41342(11) 0.87845(15)
H22 H 0.38040 0.41570 0.85680
H23 H 0.35520 0.43870 0.94090
C21 C 0.24544(15) 0.32676(11) 0.91024(16)
H24 H 0.24500 0.30500 0.96630
C22 C 0.20021(12) 0.39451(11) 0.76241(16)
C23 C 0.21409(15) 0.10358(13) 0.69074(19)
H25 H 0.17420 0.08350 0.63550
C24 C 0.32348(14) 0.08506(12) 0.84283(17)
H26 H 0.35740 0.05250 0.89010
C25 C 0.26397(14) 0.05447(12) 0.76050(18)
H27 H 0.25780 0.00170 0.75250
C26 C 0.06976(14) 0.37738(14) 0.6413(2)
H28 H 0.03010 0.40370 0.58780
H29 H 0.04960 0.36560 0.68910
H30 H 0.08390 0.33080 0.61850
O5 O 0.49820(8) 0.29924(7) 0.59692(10)
O6 O 0.59134(9) 0.39145(8) 0.66566(12)
N3 N 0.43273(10) 0.25572(9) 0.60073(12)
C27 C 0.45499(12) 0.17745(11) 0.61990(14)
C28 C 0.41169(13) 0.12768(11) 0.65266(15)
H31 H 0.37240 0.14690 0.66980
C29 C 0.45865(13) 0.41916(11) 0.63682(16)
H32 H 0.45170 0.43910 0.57380
H33 H 0.47040 0.46160 0.68210
C30 C 0.53474(13) 0.32806(11) 0.76792(15)
H34 H 0.58180 0.33010 0.82290
C31 C 0.52515(13) 0.36098(11) 0.67180(15)
C32 C 0.38356(14) 0.37747(12) 0.63001(16)
H35 H 0.36060 0.40440 0.66850
H36 H 0.34530 0.37690 0.56320
C33 C 0.52840(13) 0.06921(11) 0.60181(16)
H37 H 0.56770 0.04950 0.58500
C34 C 0.40370(13) 0.29501(11) 0.66724(15)
H38 H 0.35720 0.26890 0.66790
C35 C 0.46953(13) 0.29565(11) 0.76700(15)
H39 H 0.46520 0.27570 0.82180
C36 C 0.48552(14) 0.02007(11) 0.63374(16)
H40 H 0.49540 -0.03230 0.63790
C37 C 0.51373(12) 0.14751(11) 0.59448(15)
H41 H 0.54290 0.17990 0.57270
C38 C 0.42762(13) 0.05002(12) 0.65944(16)
H42 H 0.39900 0.01730 0.68160
C39 C 0.65965(14) 0.34313(13) 0.69980(19)
H43 H 0.70250 0.36920 0.69260
H44 H 0.64820 0.29660 0.66260
H45 H 0.67400 0.33120 0.76700
O7 O 0.00173(9) 0.69418(7) 0.59949(10)
O8 O -0.09482(9) 0.60456(8) 0.56793(12)
N4 N 0.0672(1) 0.73556(9) 0.67148(12)
C40 C -0.00999(13) 0.84620(12) 0.58288(16)
H46 H -0.04220 0.81410 0.53350
C41 C -0.03096(12) 0.63454(11) 0.64397(16)
C42 C 0.01814(15) 0.70211(12) 0.79288(17)
H47 H 0.01900 0.72430 0.84940
C43 C 0.04923(12) 0.81520(11) 0.66589(15)
C44 C 0.03356(13) 0.57467(11) 0.68197(17)
H48 H 0.04470 0.55400 0.62920
H49 H 0.01720 0.53290 0.71210
C45 C 0.10716(14) 0.61374(12) 0.75665(17)
H50 H 0.14990 0.61060 0.73540
H51 H 0.12360 0.58770 0.81860
C46 C 0.08897(14) 0.69809(12) 0.76816(16)
H52 H 0.13450 0.72340 0.81800
C47 C -0.02078(14) 0.92475(12) 0.57412(17)
H53 H -0.06000 0.94490 0.51830
C48 C 0.02597(15) 0.97404(12) 0.64724(17)
H54 H 0.01800 1.02670 0.64120
C49 C 0.09699(13) 0.86488(12) 0.73927(16)
H55 H 0.13700 0.84520 0.79470
C50 C -0.04547(14) 0.67062(11) 0.72539(17)
H56 H -0.09450 0.67090 0.72830
C51 C -0.16233(14) 0.65424(13) 0.5289(2)
H57 H -0.20380 0.62880 0.47650
H58 H -0.14820 0.70040 0.50530
H59 H -0.18000 0.66670 0.57880
C52 C 0.08452(15) 0.94312(12) 0.72910(17)
H60 H 0.11620 0.97560 0.77840
#END
