
#######################################################################
#
#                 Cambridge Crystallographic Data Centre
#                                CCDC
#
#######################################################################
#
# If this CIF has been generated from an entry in the Cambridge
# Structural Database, then it will include bibliographic, chemical,
# crystal, experimental, refinement or atomic coordinate data resulting
# from the CCDC's data processing and validation procedures.
#
#######################################################################

data_CSD_CIF_ENULAB
_audit_creation_date 2011-06-29
_audit_creation_method CSD-ConQuest-V1
_database_code_CSD ENULAB
_database_code_depnum_ccdc_archive 'CCDC 715311'
_chemical_formula_sum 'C12 H13 N1 O1'
_chemical_formula_moiety
;
C12 H13 N1 O1
;
_journal_coden_Cambridge 154
_journal_volume 62
_journal_year 2009
_journal_page_first 1695
_journal_name_full 'Aust.J.Chem. '
loop_
_publ_author_name
"J.Roth-Barton"
"J.M.White"
_chemical_name_systematic
;
3-Phenyl-2-oxa-3-azabicyclo[2.2.2]oct-5-ene
;
_cell_volume    968.562
_exptl_crystal_colour 'colorless'
_exptl_crystal_density_diffrn 1.284
_exptl_crystal_description 'block'
_diffrn_ambient_temperature 130
#These two values have been output from a single CSD field.
_refine_ls_R_factor_gt 0.0428
_refine_ls_wR_factor_gt 0.0428
_symmetry_cell_setting monoclinic
_symmetry_space_group_name_H-M 'P 21/c'
_symmetry_Int_Tables_number 14
loop_
_symmetry_equiv_pos_site_id
_symmetry_equiv_pos_as_xyz
1 x,y,z
2 -x,1/2+y,1/2-z
3 -x,-y,-z
4 x,-1/2-y,-1/2+z
_cell_length_a 9.5146(11)
_cell_length_b 12.2059(15)
_cell_length_c 8.6162(10)
_cell_angle_alpha 90
_cell_angle_beta 104.546(2)
_cell_angle_gamma 90
_cell_formula_units_Z 4
loop_
_atom_type_symbol
_atom_type_radius_bond
C 0.68
H 0.23
N 0.68
O 0.68
loop_
_atom_site_label
_atom_site_type_symbol
_atom_site_fract_x
_atom_site_fract_y
_atom_site_fract_z
C1 C 0.33894(13) 0.30064(10) 0.30599(14)
H1 H 0.37230 0.23810 0.37700
C2 C 0.34301(14) 0.40416(12) 0.40110(15)
H2 H 0.36980 0.40660 0.51250
C3 C 0.30447(14) 0.49157(12) 0.30940(17)
H3 H 0.30580 0.56240 0.34950
C4 C 0.25861(13) 0.46473(10) 0.13464(15)
H4 H 0.23170 0.53160 0.07110
C5 C 0.13128(14) 0.38452(11) 0.10299(16)
H5 H 0.09950 0.36770 -0.01050
H6 H 0.05030 0.41590 0.13710
C6 C 0.18560(14) 0.28014(11) 0.19965(16)
H7 H 0.12050 0.26110 0.26580
H8 H 0.18750 0.21970 0.12720
C7 C 0.58340(12) 0.34014(10) 0.27078(13)
C8 C 0.65729(13) 0.42912(10) 0.22827(15)
H9 H 0.60860 0.47930 0.15240
C9 C 0.80490(14) 0.44249(11) 0.30025(16)
H10 H 0.85410 0.50190 0.27160
C10 C 0.87922(14) 0.36910(12) 0.41324(16)
H11 H 0.97770 0.37860 0.46010
C11 C 0.80481(15) 0.28074(11) 0.45607(16)
H12 H 0.85370 0.23140 0.53310
C12 C 0.65843(14) 0.26550(11) 0.38517(15)
H13 H 0.61000 0.20560 0.41370
N1 N 0.43470(11) 0.31737(8) 0.19348(11)
O1 O 0.37623(9) 0.40707(7) 0.08561(10)
#END
