
#######################################################################
#
#                 Cambridge Crystallographic Data Centre
#                                CCDC
#
#######################################################################
#
# If this CIF has been generated from an entry in the Cambridge
# Structural Database, then it will include bibliographic, chemical,
# crystal, experimental, refinement or atomic coordinate data resulting
# from the CCDC's data processing and validation procedures.
#
#######################################################################

data_CSD_CIF_ENUQAH
_audit_creation_date 2016-06-23
_audit_creation_method CSD-ConQuest-V1
_database_code_CSD ENUQAH
_database_code_depnum_ccdc_archive 'CCDC 1431312'
_chemical_formula_sum 'C20 H19 N1 O4'
_chemical_formula_moiety
;
C20 H19 N1 O4
;
_journal_coden_Cambridge 177
_journal_volume 14
_journal_year 2016
_journal_page_first 3246
_journal_name_full 'Org.Biomol.Chem. '
loop_
_publ_author_name
"R.Bag"
"D.Sar"
"T.Punniyamurthy"
_chemical_name_systematic
;
2-((2-hydroxy-2-phenylcyclohexyl)oxy)-1H-isoindole-1,3(2H)-dione
;
_cell_volume   1776.896
_exptl_crystal_colour 'colorless'
_exptl_crystal_density_diffrn 1.261
_exptl_crystal_description 'Needle'
_exptl_crystal_preparation 'dichloromethane'
_diffrn_ambient_temperature 298
#These two values have been output from a single CSD field.
_refine_ls_R_factor_gt 0.0449
_refine_ls_wR_factor_gt 0.0449
_symmetry_cell_setting monoclinic
_symmetry_space_group_name_H-M 'C c'
_symmetry_Int_Tables_number 9
loop_
_symmetry_equiv_pos_site_id
_symmetry_equiv_pos_as_xyz
1 x,y,z
2 x,-y,1/2+z
3 1/2+x,1/2+y,z
4 1/2+x,1/2-y,1/2+z
_cell_length_a 14.19(3)
_cell_length_b 16.50(3)
_cell_length_c 7.736(15)
_cell_angle_alpha 90
_cell_angle_beta 101.18(3)
_cell_angle_gamma 90
_cell_formula_units_Z 4
loop_
_atom_type_symbol
_atom_type_radius_bond
C 0.68
H 0.23
N 0.68
O 0.68
loop_
_atom_site_label
_atom_site_type_symbol
_atom_site_fract_x
_atom_site_fract_y
_atom_site_fract_z
C1 C 0.33664(18) 0.51788(18) 0.0627(3)
C2 C 0.24675(17) 0.54129(17) -0.0624(3)
C3 C 0.25719(15) 0.39887(18) -0.0530(3)
C4 C 0.19985(17) 0.47032(17) -0.1307(3)
C5 C 0.11121(19) 0.4734(2) -0.2454(4)
H1 H 0.07960 0.42650 -0.29170
C6 C 0.2079(2) 0.6175(2) -0.1048(4)
H2 H 0.23980 0.66450 -0.05970
C7 C 0.0717(2) 0.5504(2) -0.2880(4)
H3 H 0.01270 0.55470 -0.36450
C8 C 0.1186(2) 0.6203(2) -0.2186(4)
H4 H 0.08980 0.67030 -0.24860
C9 C 0.52260(16) 0.28817(18) 0.2604(3)
C10 C 0.58474(18) 0.33977(19) 0.4041(3)
H5 H 0.54350 0.37500 0.45710
H6 H 0.61870 0.30440 0.49560
C11 C 0.47225(17) 0.34300(17) 0.1063(3)
H7 H 0.43960 0.30890 0.00910
C12 C 0.54135(18) 0.3999(2) 0.0391(4)
H8 H 0.50470 0.43780 -0.04340
H9 H 0.58150 0.36850 -0.02420
C13 C 0.6056(2) 0.4474(2) 0.1851(4)
H10 H 0.56690 0.48600 0.23540
H11 H 0.65270 0.47760 0.13560
C14 C 0.65760(17) 0.39147(19) 0.3308(4)
H12 H 0.69480 0.42370 0.42470
H13 H 0.70150 0.35650 0.28380
C15 C 0.44972(18) 0.23437(19) 0.3314(4)
C16 C 0.4063(2) 0.1702(3) 0.2286(5)
H14 H 0.42050 0.16100 0.11790
C17 C 0.4258(2) 0.2474(2) 0.4970(5)
H15 H 0.45370 0.29020 0.56680
C18 C 0.3405(3) 0.1192(3) 0.2925(7)
H16 H 0.31190 0.07600 0.22470
C19 C 0.3605(3) 0.1968(3) 0.5583(6)
H17 H 0.34560 0.20600 0.66850
C20 C 0.3189(3) 0.1343(4) 0.4582(8)
H18 H 0.27540 0.10100 0.50020
O1 O 0.39998(11) 0.38803(11) 0.1822(2)
O2 O 0.39499(14) 0.56004(13) 0.1564(3)
O3 O 0.58269(14) 0.23733(14) 0.1747(3)
O4 O 0.24199(13) 0.32667(14) -0.0721(3)
N1 N 0.33876(13) 0.43250(13) 0.0550(3)
H19 H 0.618(2) 0.219(2) 0.249(4)
#END
