
#######################################################################
#
#                 Cambridge Crystallographic Data Centre
#                                CCDC
#
#######################################################################
#
# If this CIF has been generated from an entry in the Cambridge
# Structural Database, then it will include bibliographic, chemical,
# crystal, experimental, refinement or atomic coordinate data resulting
# from the CCDC's data processing and validation procedures.
#
#######################################################################

data_CSD_CIF_ENUQAG
_audit_creation_date 2011-06-30
_audit_creation_method CSD-ConQuest-V1
_database_code_CSD ENUQAG
_database_code_depnum_ccdc_archive 'CCDC 746211'
_chemical_formula_sum 'C18 H17 N3 O4'
_chemical_formula_moiety
;
C18 H17 N3 O4
;
_journal_coden_Cambridge 154
_journal_volume 63
_journal_year 2010
_journal_page_first 445
_journal_name_full 'Aust.J.Chem. '
loop_
_publ_author_name
"N.J.Beattie"
"C.L.Francis"
"A.J.Liepa"
"G.P.Savage"
_chemical_name_systematic
;
Ethyl 
8-cyano-9-methyl-6-(2-methylphenyl)-7-oxo-1-oxa-2,6-diazaspiro[4.4]nona-2,8-di
ene-3-carboxylate
;
_cell_volume   3387.136
_exptl_crystal_colour 'colorless'
_exptl_crystal_density_diffrn 1.331
_exptl_crystal_description 'block'
_diffrn_ambient_temperature 123
#These two values have been output from a single CSD field.
_refine_ls_R_factor_gt 0.056
_refine_ls_wR_factor_gt 0.056
_symmetry_cell_setting monoclinic
_symmetry_space_group_name_H-M 'P 21/c'
_symmetry_Int_Tables_number 14
loop_
_symmetry_equiv_pos_site_id
_symmetry_equiv_pos_as_xyz
1 x,y,z
2 -x,1/2+y,1/2-z
3 -x,-y,-z
4 x,-1/2-y,-1/2+z
_cell_length_a 12.8038(2)
_cell_length_b 19.3724(3)
_cell_length_c 14.4035(2)
_cell_angle_alpha 90
_cell_angle_beta 108.545(1)
_cell_angle_gamma 90
_cell_formula_units_Z 8
loop_
_atom_type_symbol
_atom_type_radius_bond
C 0.68
H 0.23
N 0.68
O 0.68
loop_
_atom_site_label
_atom_site_type_symbol
_atom_site_fract_x
_atom_site_fract_y
_atom_site_fract_z
O1 O 0.36904(12) 0.21212(8) 1.11362(10)
O2 O 0.20130(12) 0.28104(7) 0.8133(1)
O3 O 0.23025(14) 0.12355(9) 0.59374(11)
O4 O 0.07797(14) 0.19067(11) 0.53904(13)
O5 O 0.13040(12) 0.77686(7) 0.21973(10)
O6 O 0.35932(11) 0.74512(7) 0.5135(1)
O7 O 0.27847(11) 0.55804(7) 0.66088(10)
O8 O 0.46013(12) 0.56804(8) 0.68095(11)
N1 N 0.29058(14) 0.20546(8) 0.94558(12)
N2 N 0.57098(18) 0.35978(12) 1.12791(17)
N3 N 0.14614(15) 0.25482(10) 0.71983(13)
N4 N 0.21575(13) 0.71919(8) 0.36460(11)
N5 N 0.0307(2) 0.93683(11) 0.33370(16)
N6 N 0.40802(14) 0.69079(9) 0.57678(12)
C1 C 0.35961(16) 0.23207(10) 1.03127(14)
C2 C 0.42142(17) 0.28878(10) 1.00204(15)
C3 C 0.39278(16) 0.29289(10) 0.90447(15)
C4 C 0.30168(16) 0.24057(10) 0.86014(14)
C5 C 0.31257(17) 0.19387(11) 0.77826(14)
H1 H 0.37620 0.20720 0.75720
H2 H 0.31960 0.14470 0.79820
C6 C 0.20572(18) 0.20774(12) 0.70017(15)
C7 C 0.22145(17) 0.14604(10) 0.93994(14)
C8 C 0.10789(18) 0.15582(12) 0.91934(16)
H3 H 0.07770 0.20110 0.91050
C9 C 0.03993(19) 0.09907(13) 0.91194(17)
H4 H -0.03740 0.10510 0.89650
C10 C 0.08515(19) 0.03388(13) 0.92712(16)
H5 H 0.03880 -0.00510 0.92300
C11 C 0.19702(19) 0.02471(11) 0.94816(15)
H6 H 0.22640 -0.02070 0.95830
C12 C 0.26886(17) 0.08065(11) 0.95505(14)
C13 C 0.38857(18) 0.06884(12) 0.97784(16)
H7 H 0.40770 0.07010 0.91720
H8 H 0.40800 0.02360 1.00910
H9 H 0.42930 0.10500 1.02230
C14 C 0.50385(18) 0.32839(12) 1.07238(17)
C15 C 0.43542(19) 0.33857(11) 0.84212(17)
H10 H 0.47350 0.37800 0.88090
H11 H 0.37390 0.35520 0.78670
H12 H 0.48700 0.31270 0.81760
C16 C 0.1615(2) 0.17391(14) 0.60167(17)
C17 C 0.1924(2) 0.08546(16) 0.50032(18)
H13 H 0.18110 0.11760 0.44450
H14 H 0.12190 0.06170 0.49350
C18 C 0.2813(3) 0.03309(16) 0.5018(2)
H15 H 0.25880 0.00650 0.44080
H16 H 0.29200 0.00180 0.55750
H17 H 0.35050 0.05720 0.50810
C19 C 0.15827(16) 0.77267(10) 0.30805(14)
C20 C 0.13797(16) 0.82296(10) 0.37885(14)
C21 C 0.18357(16) 0.80106(10) 0.47058(14)
C22 C 0.24021(15) 0.73258(10) 0.46837(13)
C23 C 0.21737(15) 0.67299(10) 0.52909(13)
H18 H 0.17680 0.68890 0.57330
H19 H 0.17550 0.63540 0.48680
C24 C 0.33260(16) 0.65074(10) 0.58538(13)
C25 C 0.24710(16) 0.65754(10) 0.32505(13)
C26 C 0.35746(16) 0.64728(11) 0.33442(15)
H20 H 0.41060 0.68140 0.36510
C27 C 0.38975(19) 0.58731(12) 0.29900(16)
H21 H 0.46510 0.58020 0.30510
C28 C 0.3122(2) 0.53790(12) 0.25474(15)
H22 H 0.33450 0.49610 0.23220
C29 C 0.20250(19) 0.54910(11) 0.24325(15)
H23 H 0.14980 0.51510 0.21140
C30 C 0.16694(17) 0.60932(10) 0.27742(14)
C31 C 0.04631(17) 0.62137(12) 0.26113(17)
H24 H 0.03630 0.63890 0.32160
H25 H 0.00610 0.57780 0.24260
H26 H 0.01800 0.65530 0.20860
C32 C 0.0772(2) 0.88578(12) 0.35151(15)
C33 C 0.18733(19) 0.83491(11) 0.56354(15)
H27 H 0.15290 0.88060 0.54970
H28 H 0.26420 0.84000 0.60500
H29 H 0.14740 0.80670 0.59760
C34 C 0.36701(17) 0.58818(10) 0.64875(14)
C35 C 0.30205(19) 0.49465(11) 0.71858(18)
H30 H 0.34390 0.50530 0.78770
H31 H 0.34670 0.46300 0.69250
C36 C 0.19502(19) 0.46201(12) 0.71215(19)
H32 H 0.20830 0.41920 0.75030
H33 H 0.15440 0.45160 0.64350
H34 H 0.15170 0.49370 0.73830
#END
