
#######################################################################
#
#                 Cambridge Crystallographic Data Centre
#                                CCDC
#
#######################################################################
#
# If this CIF has been generated from an entry in the Cambridge
# Structural Database, then it will include bibliographic, chemical,
# crystal, experimental, refinement or atomic coordinate data resulting
# from the CCDC's data processing and validation procedures.
#
#######################################################################

data_CSD_CIF_ENVFUR01
_audit_creation_date 1980-05-21
_audit_creation_method CSD-ConQuest-V1
_database_code_CSD ENVFUR01
_database_code_depnum_ccdc_archive 'CCDC 1149832'
_chemical_formula_sum 'C8 H10 N2 O3'
_chemical_formula_moiety
;
C8 H10 N2 O3
;
_journal_coden_Cambridge 82
_journal_volume 20
_journal_year 1979
_journal_page_first 556
_journal_name_full 'Zh.Strukt.Khim.(Russ.)(J.Struct.Chem.) '
loop_
_publ_author_name
"A.Kusa"
"T.N.Polynova"
"M.A.Porai-Koshits"
"Ya.Kovach"
"D.Vegkh"
_chemical_name_systematic
;
cis-(E)-1-(5-Nitro-2-furyl)-2-dimethylamino-ethylene
;
_chemical_name_common
;
cis-(E)-2-(2'-Dimethylamino-vinyl)-5-nitrofuran
;
_cell_volume   1773.337
_exptl_crystal_colour 'dark red'
_exptl_crystal_density_diffrn 1.365
_exptl_special_details
;
orthorhombic polymorph

;
_diffrn_ambient_temperature ?
_diffrn_special_details
;
The study was carried out at room temperature,in the range 283-303K

;
#These two values have been output from a single CSD field.
_refine_ls_R_factor_gt 0.092
_refine_ls_wR_factor_gt 0.092
_symmetry_cell_setting orthorhombic
_symmetry_space_group_name_H-M 'P b c a'
_symmetry_Int_Tables_number 61
loop_
_symmetry_equiv_pos_site_id
_symmetry_equiv_pos_as_xyz
1 x,y,z
2 1/2-x,-y,1/2+z
3 1/2+x,1/2-y,-z
4 -x,1/2+y,1/2-z
5 -x,-y,-z
6 -1/2+x,y,-1/2-z
7 -1/2-x,-1/2+y,z
8 x,-1/2-y,-1/2+z
_cell_length_a 23.01(1)
_cell_length_b 9.97(1)
_cell_length_c 7.73(1)
_cell_angle_alpha 90
_cell_angle_beta 90
_cell_angle_gamma 90
_cell_formula_units_Z 8
loop_
_atom_type_symbol
_atom_type_radius_bond
C 0.68
N 0.68
O 0.68
loop_
_atom_site_label
_atom_site_type_symbol
_atom_site_fract_x
_atom_site_fract_y
_atom_site_fract_z
O1 O 0.03000 0.44760 0.24380
O2 O 0.17630 0.37440 0.29460
O3 O 0.12290 0.54000 0.40380
N1 N 0.12960 0.43920 0.31620
N2 N -0.16530 0.38810 0.04090
C1 C -0.06760 0.42080 0.15100
C2 C -0.10880 0.35120 0.05480
C3 C -0.00980 0.36940 0.15360
C4 C 0.01740 0.25480 0.08470
C5 C 0.07670 0.26170 0.12950
C6 C 0.08210 0.37920 0.22520
C7 C -0.18770 0.50970 0.13030
C8 C -0.20390 0.30830 -0.06420
#END
