
#######################################################################
#
#                 Cambridge Crystallographic Data Centre
#                                CCDC
#
#######################################################################
#
# If this CIF has been generated from an entry in the Cambridge
# Structural Database, then it will include bibliographic, chemical,
# crystal, experimental, refinement or atomic coordinate data resulting
# from the CCDC's data processing and validation procedures.
#
#######################################################################

data_CSD_CIF_ENVFUR
_audit_creation_date 1980-05-21
_audit_creation_method CSD-ConQuest-V1
_database_code_CSD ENVFUR
_database_code_depnum_ccdc_archive 'CCDC 1149831'
_chemical_formula_sum 'C8 H10 N2 O3'
_chemical_formula_moiety
;
C8 H10 N2 O3
;
_journal_coden_Cambridge 82
_journal_volume 20
_journal_year 1979
_journal_page_first 556
_journal_name_full 'Zh.Strukt.Khim.(Russ.)(J.Struct.Chem.) '
loop_
_publ_author_name
"A.Kusa"
"T.N.Polynova"
"M.A.Porai-Koshits"
"Ya.Kovach"
"D.Vegkh"
_chemical_name_systematic
;
cis-(E)-1-(5-Nitro-2-furyl)-2-dimethylamino-ethylene
;
_chemical_name_common
;
cis-(E)-2-(2'-Dimethylamino-vinyl)-5-nitrofuran
;
_cell_volume    903.993
_exptl_crystal_colour 'dark violet'
_exptl_crystal_density_diffrn 1.347
_exptl_special_details
;
monoclinic polymorph

;
_diffrn_ambient_temperature ?
_diffrn_special_details
;
The study was carried out at room temperature,in the range 283-303K

;
#These two values have been output from a single CSD field.
_refine_ls_R_factor_gt 0.095
_refine_ls_wR_factor_gt 0.095
_symmetry_cell_setting monoclinic
_symmetry_space_group_name_H-M 'P 1 1 21/b'
_symmetry_Int_Tables_number 14
loop_
_symmetry_equiv_pos_site_id
_symmetry_equiv_pos_as_xyz
1 x,y,z
2 -x,1/2-y,1/2+z
3 -x,-y,-z
4 x,-1/2+y,-1/2-z
_cell_length_a 7.19(1)
_cell_length_b 14.97(1)
_cell_length_c 8.67(1)
_cell_angle_alpha 90
_cell_angle_beta 90
_cell_angle_gamma 104.37(2)
_cell_formula_units_Z 4
loop_
_atom_type_symbol
_atom_type_radius_bond
C 0.68
N 0.68
O 0.68
loop_
_atom_site_label
_atom_site_type_symbol
_atom_site_fract_x
_atom_site_fract_y
_atom_site_fract_z
O1 O 0.77570 0.45720 0.43920
O2 O 0.89420 0.35810 0.09990
O3 O 0.80830 0.29810 0.33100
N1 N 0.84660 0.36430 0.23580
N2 N 0.66210 0.69320 0.76820
C1 C 0.71400 0.57040 0.60570
C2 C 0.71350 0.66120 0.63540
C3 C 0.77150 0.54710 0.46440
C4 C 0.83510 0.59850 0.32520
C5 C 0.87850 0.53490 0.21110
C6 C 0.83910 0.45030 0.29210
C7 C 0.65120 0.78920 0.78450
C8 C 0.61120 0.63460 0.90680
#END
