
#######################################################################
#
#                 Cambridge Crystallographic Data Centre
#                                CCDC
#
#######################################################################
#
# If this CIF has been generated from an entry in the Cambridge
# Structural Database, then it will include bibliographic, chemical,
# crystal, experimental, refinement or atomic coordinate data resulting
# from the CCDC's data processing and validation procedures.
#
#######################################################################

data_CSD_CIF_EOISOX10
_audit_creation_date 1974-03-25
_audit_creation_method CSD-ConQuest-V1
_database_code_CSD EOISOX10
_chemical_formula_sum 'C10 H10 N2 O3'
_chemical_formula_moiety
;
C10 H10 N2 O3
;
_journal_coden_Cambridge 189
_journal_volume 2
_journal_year 1973
_journal_page_first 613
_journal_name_full 'Cryst.Struct.Commun. '
loop_
_publ_author_name
"F.Plana"
"J.L.Brianso"
"C.Miravitlles"
"M.Font-Altaba"
_chemical_name_systematic
;
N-Ethanol-\b-isatoxime
;
_cell_volume   1909.443
_exptl_crystal_density_diffrn 1.448
_exptl_special_details
;
y(C7)=.28786, not .26786

;
_diffrn_ambient_temperature ?
_diffrn_special_details
;
The study was carried out at room temperature,in the range 283-303K

;
#These two values have been output from a single CSD field.
_refine_ls_R_factor_gt 0.061
_refine_ls_wR_factor_gt 0.061
_symmetry_cell_setting orthorhombic
_symmetry_space_group_name_H-M 'P c a b'
_symmetry_Int_Tables_number 61
loop_
_symmetry_equiv_pos_site_id
_symmetry_equiv_pos_as_xyz
1 x,y,z
2 -x,1/2-y,1/2+z
3 1/2+x,-y,1/2-z
4 1/2-x,1/2+y,-z
5 -x,-y,-z
6 x,-1/2+y,-1/2-z
7 -1/2-x,y,-1/2+z
8 -1/2+x,-1/2-y,z
_cell_length_a 15.908
_cell_length_b 16.324
_cell_length_c 7.353
_cell_angle_alpha 90
_cell_angle_beta 90
_cell_angle_gamma 90
_cell_formula_units_Z 8
loop_
_atom_type_symbol
_atom_type_radius_bond
C 0.68
H 0.20
N 0.68
O 0.68
loop_
_atom_site_label
_atom_site_type_symbol
_atom_site_fract_x
_atom_site_fract_y
_atom_site_fract_z
C1 C 0.34690 0.28957 0.55692
C2 C 0.37334 0.14785 0.69774
C3 C 0.39336 0.08371 0.55546
C4 C 0.42757 0.31742 0.53722
C5 C 0.43692 0.39669 0.47083
C6 C 0.37015 0.44604 0.42146
C7 C 0.28815 0.41570 0.43946
C8 C 0.27638 0.33713 0.51077
C9 C 0.20225 0.28786 0.55228
C10 C 0.23313 0.20851 0.62875
H1 H 0.02950 0.36280 0.45780
H2 H 0.43290 0.18910 0.74720
H3 H 0.34040 0.12330 0.80980
H4 H 0.34000 0.06570 0.50470
H5 H 0.43040 0.03750 0.61680
H6 H 0.40350 0.14040 0.33290
H7 H 0.48120 0.28950 0.56160
H8 H 0.49820 0.42070 0.45350
H9 H 0.37430 0.50390 0.34910
H10 H 0.23660 0.45230 0.36940
N1 N 0.12256 0.29828 0.53318
N2 N 0.31872 0.21261 0.62790
O1 O 0.10526 0.37744 0.45963
O2 O 0.19278 0.14976 0.68648
O3 O 0.44072 0.11673 0.40943
#END
