
#######################################################################
#
#                 Cambridge Crystallographic Data Centre
#                                CCDC
#
#######################################################################
#
# If this CIF has been generated from an entry in the Cambridge
# Structural Database, then it will include bibliographic, chemical,
# crystal, experimental, refinement or atomic coordinate data resulting
# from the CCDC's data processing and validation procedures.
#
#######################################################################

data_CSD_CIF_EPAHOT
_audit_creation_date 2011-06-07
_audit_creation_method CSD-ConQuest-V1
_database_code_CSD EPAHOT
_database_code_depnum_ccdc_archive 'CCDC 825800'
_chemical_formula_sum 'C8 H5 N1 O3'
_chemical_formula_moiety
;
C8 H5 N1 O3
;
_journal_coden_Cambridge 1065
_journal_year 2007
_journal_page_first 371
_journal_name_full 'University of Southampton, Crystal Structure Report Archive '
loop_
_publ_author_name
"S.L.Huth"
"M.B.Hursthouse"
_chemical_name_systematic
;
5-(2-Furyl)-1,2-oxazole-3-carbaldehyde
;
_chemical_name_common
;
[5-(2-Furyl)isoxazole-3-yl]methylamine
;
_cell_volume    715.400
_exptl_crystal_colour 'colorless'
_exptl_crystal_density_diffrn 1.515
_exptl_crystal_description 'prism'
_diffrn_ambient_temperature 120
#These two values have been output from a single CSD field.
_refine_ls_R_factor_gt 0.0377
_refine_ls_wR_factor_gt 0.0377
_symmetry_cell_setting monoclinic
_symmetry_space_group_name_H-M 'P 21/c'
_symmetry_Int_Tables_number 14
loop_
_symmetry_equiv_pos_site_id
_symmetry_equiv_pos_as_xyz
1 x,y,z
2 -x,1/2+y,1/2-z
3 -x,-y,-z
4 x,-1/2-y,-1/2+z
_cell_length_a 8.1628(3)
_cell_length_b 7.9648(3)
_cell_length_c 11.0496(4)
_cell_angle_alpha 90
_cell_angle_beta 95.230(2)
_cell_angle_gamma 90
_cell_formula_units_Z 4
loop_
_atom_type_symbol
_atom_type_radius_bond
C 0.68
H 0.23
N 0.68
O 0.68
loop_
_atom_site_label
_atom_site_type_symbol
_atom_site_fract_x
_atom_site_fract_y
_atom_site_fract_z
C1 C 0.55974(15) 0.42477(17) 1.18226(12)
H1 H 0.56020 0.54400 1.17960
C2 C 0.64465(15) 0.33016(16) 1.09152(11)
C3 C 0.75119(15) 0.13815(15) 0.98297(11)
C4 C 0.66034(15) 0.15483(16) 1.07918(11)
H2 H 0.61750 0.06880 1.12690
C5 C 0.81050(15) -0.00798(16) 0.92428(11)
C6 C 0.93061(16) -0.14377(17) 0.78467(13)
H3 H 0.98800 -0.16730 0.71560
C7 C 0.87625(16) -0.26095(17) 0.85908(13)
H4 H 0.88790 -0.37910 0.85220
C8 C 0.79790(16) -0.17353(17) 0.95015(12)
H5 H 0.74690 -0.22160 1.01590
N1 N 0.71901(14) 0.41481(14) 1.00998(10)
O1 O 0.48943(12) 0.35473(12) 1.26000(8)
O2 O 0.78812(11) 0.29225(11) 0.93918(8)
O3 O 0.89187(11) 0.01457(12) 0.82225(8)
#END
