
#######################################################################
#
#                 Cambridge Crystallographic Data Centre
#                                CCDC
#
#######################################################################
#
# If this CIF has been generated from an entry in the Cambridge
# Structural Database, then it will include bibliographic, chemical,
# crystal, experimental, refinement or atomic coordinate data resulting
# from the CCDC's data processing and validation procedures.
#
#######################################################################

data_CSD_CIF_EPAHEJ
_audit_creation_date 2011-06-07
_audit_creation_method CSD-ConQuest-V1
_database_code_CSD EPAHEJ
_database_code_depnum_ccdc_archive 'CCDC 825798'
_chemical_formula_sum 'C5 H5 N1 O3'
_chemical_formula_moiety
;
C5 H5 N1 O3
;
_journal_coden_Cambridge 1065
_journal_year 2007
_journal_page_first 370
_journal_name_full 'University of Southampton, Crystal Structure Report Archive '
loop_
_publ_author_name
"S.L.Huth"
"M.B.Hursthouse"
_chemical_name_systematic
;
3-Methyl-1,2-oxazole-5-carboxylic acid
;
_cell_volume    548.140
_exptl_crystal_colour 'colorless'
_exptl_crystal_density_diffrn 1.54
_exptl_crystal_description 'cut block'
_diffrn_ambient_temperature 120
#These two values have been output from a single CSD field.
_refine_ls_R_factor_gt 0.0424
_refine_ls_wR_factor_gt 0.0424
_symmetry_cell_setting monoclinic
_symmetry_space_group_name_H-M 'P 21/c'
_symmetry_Int_Tables_number 14
loop_
_symmetry_equiv_pos_site_id
_symmetry_equiv_pos_as_xyz
1 x,y,z
2 -x,1/2+y,1/2-z
3 -x,-y,-z
4 x,-1/2-y,-1/2+z
_cell_length_a 6.2391(2)
_cell_length_b 13.8231(5)
_cell_length_c 6.4019(2)
_cell_angle_alpha 90
_cell_angle_beta 96.887(2)
_cell_angle_gamma 90
_cell_formula_units_Z 4
loop_
_atom_type_symbol
_atom_type_radius_bond
C 0.68
H 0.23
N 0.68
O 0.68
loop_
_atom_site_label
_atom_site_type_symbol
_atom_site_fract_x
_atom_site_fract_y
_atom_site_fract_z
C1 C 1.0295(2) 0.60587(10) 0.2366(2)
C2 C 0.9038(2) 0.51472(10) 0.2414(2)
C3 C 0.6936(2) 0.49382(11) 0.2462(2)
H1 H 0.57620 0.53770 0.24350
C4 C 0.6873(2) 0.39106(11) 0.2564(2)
C5 C 0.4977(3) 0.32643(12) 0.2671(3)
H2 H 0.54650 0.25910 0.28020
H3 H 0.39660 0.33380 0.13860
H4 H 0.42530 0.34390 0.38940
N1 N 0.8816(2) 0.35472(9) 0.25734(19)
O1 O 0.90225(18) 0.68229(8) 0.22822(19)
O2 O 1.22380(17) 0.60701(8) 0.24101(18)
O3 O 1.02390(17) 0.43276(7) 0.24737(17)
H5 H 0.980(4) 0.7352(14) 0.228(4)
#END
