
#######################################################################
#
#                 Cambridge Crystallographic Data Centre
#                                CCDC
#
#######################################################################
#
# If this CIF has been generated from an entry in the Cambridge
# Structural Database, then it will include bibliographic, chemical,
# crystal, experimental, refinement or atomic coordinate data resulting
# from the CCDC's data processing and validation procedures.
#
#######################################################################

data_CSD_CIF_EPAHOU
_audit_creation_date 2016-06-23
_audit_creation_method CSD-ConQuest-V1
_database_code_CSD EPAHOU
_database_code_depnum_ccdc_archive 'CCDC 1058790'
_chemical_formula_sum 'C60 H78 N6 O6'
_chemical_formula_moiety
;
C60 H78 N6 O6
;
_journal_coden_Cambridge 1695
_journal_volume 4
_journal_year 2016
_journal_page_first 6546
_journal_name_full 'J.Mater.Chem.C '
loop_
_publ_author_name
"S.K.Pathak"
"B.Pradhan"
"R.K.Gupta"
"M.Gupta"
"S.K.Pal"
"A.S.Achalkumar"
_chemical_name_systematic
;
5,5',5''-benzene-1,3,5-triyltris(3-(4-(decyloxy)phenyl)-1,2,4-oxadiazole)
;
_cell_volume   2830.399
_exptl_crystal_colour 'colorless'
_exptl_crystal_density_diffrn 1.149
_exptl_crystal_description 'needle'
_diffrn_ambient_temperature 296
#These two values have been output from a single CSD field.
_refine_ls_R_factor_gt 0.0674
_refine_ls_wR_factor_gt 0.0674
_symmetry_cell_setting triclinic
_symmetry_space_group_name_H-M 'P -1'
_symmetry_Int_Tables_number 2
loop_
_symmetry_equiv_pos_site_id
_symmetry_equiv_pos_as_xyz
1 x,y,z
2 -x,-y,-z
_cell_length_a 9.5084(6)
_cell_length_b 10.1887(6)
_cell_length_c 29.8085(17)
_cell_angle_alpha 87.885(4)
_cell_angle_beta 83.205(4)
_cell_angle_gamma 80.832(4)
_cell_formula_units_Z 2
loop_
_atom_type_symbol
_atom_type_radius_bond
C 0.68
H 0.23
N 0.68
O 0.68
loop_
_atom_site_label
_atom_site_type_symbol
_atom_site_fract_x
_atom_site_fract_y
_atom_site_fract_z
C1 C 0.3351(3) 0.5923(3) 0.38404(10)
C2 C 0.2664(3) 0.6779(3) 0.31163(10)
C3 C 0.5156(3) 1.1147(3) 0.35005(10)
C4 C 0.3826(3) 0.8088(3) 0.35767(10)
C5 C 0.4418(3) 0.9324(3) 0.36121(10)
C6 C 0.3899(3) 0.7068(3) 0.3909(1)
H1 H 0.43110 0.71640 0.41710
C7 C 0.3204(3) 0.7933(3) 0.31873(10)
H2 H 0.31480 0.86130 0.29700
C8 C 0.5421(3) 1.2389(3) 0.32672(10)
C9 C 0.5974(4) 1.4698(3) 0.27914(11)
C10 C 0.2732(3) 0.5773(3) 0.34473(10)
H3 H 0.23640 0.50000 0.34060
C11 C 0.6523(4) 1.4377(3) 0.31963(11)
H4 H 0.70740 1.49310 0.33130
C12 C 0.6250(4) 1.3229(3) 0.34279(11)
H5 H 0.66330 1.30140 0.36990
C13 C 0.5117(4) 1.3880(4) 0.26288(11)
H6 H 0.47230 1.41010 0.23600
C14 C 0.4850(4) 1.2745(3) 0.28648(11)
H7 H 0.42770 1.22050 0.27530
C15 C 0.5836(5) 1.8528(4) 0.22134(14)
H8 H 0.54800 1.90320 0.24840
H9 H 0.51510 1.79420 0.21740
C16 C 0.7113(4) 1.6654(4) 0.26566(13)
H10 H 0.80540 1.61470 0.26840
H11 H 0.67430 1.70650 0.29440
C17 C 0.7208(5) 1.7693(4) 0.22916(13)
H12 H 0.78640 1.82690 0.23660
H13 H 0.76190 1.72570 0.20120
C18 C 0.2988(7) 2.1770(7) 0.1216(3)
H14 H 0.25870 2.23770 0.14580
H15 H 0.23560 2.11110 0.12150
C19 C 0.4417(6) 2.0236(5) 0.17452(19)
H16 H 0.40710 2.07890 0.20050
H17 H 0.37670 1.95960 0.17370
C20 C 0.5861(5) 1.9493(5) 0.18155(15)
H18 H 0.64900 2.01260 0.18620
H19 H 0.62590 1.90050 0.15440
C21 C 0.4338(7) 2.1099(6) 0.1329(2)
H20 H 0.49420 2.17710 0.13530
H21 H 0.47730 2.05510 0.10750
C22 C 0.2923(8) 2.2546(7) 0.0779(3)
H22 H 0.34450 2.32820 0.07970
H23 H 0.34430 2.19750 0.05410
C23 C 0.1635(9) 2.3048(8) 0.0646(3)
H24 H 0.11210 2.36140 0.08850
H25 H 0.11160 2.23070 0.06320
C24 C 0.1518(9) 2.3770(7) 0.0243(3)
H26 H 0.19970 2.45300 0.02470
H27 H 0.05240 2.40610 0.02100
H28 H 0.19530 2.32180 -0.00060
C25 C 0.3238(3) 0.3019(3) 0.45264(9)
C26 C 0.2801(3) 0.1729(3) 0.46435(9)
C27 C 0.1992(3) -0.0753(3) 0.48486(10)
C28 C 0.3253(3) 0.0990(3) 0.50112(10)
H29 H 0.38310 0.13330 0.51940
C29 C 0.3416(3) 0.4813(3) 0.41647(10)
C30 C 0.2870(4) -0.0242(3) 0.51151(10)
H30 H 0.31980 -0.07280 0.53620
C31 C 0.1503(3) -0.0009(3) 0.44803(10)
H31 H 0.09050 -0.03390 0.43020
C32 C 0.1909(3) 0.1212(3) 0.43831(10)
H32 H 0.15800 0.17050 0.41370
C33 C 0.1924(4) -0.2729(3) 0.53084(11)
H33 H 0.15810 -0.22120 0.55770
H34 H 0.29580 -0.29580 0.52940
C34 C 0.1603(4) -0.4821(3) 0.57447(11)
H35 H 0.26360 -0.50120 0.57420
H36 H 0.12220 -0.43100 0.60120
C35 C 0.1327(4) -0.6934(3) 0.6203(1)
H37 H 0.08870 -0.64260 0.64660
H38 H 0.23550 -0.70980 0.62170
C36 C 0.1019(4) -0.6119(3) 0.57808(10)
H39 H 0.14250 -0.66460 0.55190
H40 H -0.00110 -0.59320 0.57740
C37 C 0.0774(4) -0.8261(3) 0.62207(10)
H41 H -0.02310 -0.80930 0.61720
H42 H 0.12860 -0.87940 0.59720
C38 C 0.1255(4) -0.3970(3) 0.5329(1)
H43 H 0.16050 -0.44800 0.50590
H44 H 0.02240 -0.37310 0.53370
C39 C 0.0916(4) -0.9070(3) 0.66551(10)
H45 H 0.04310 -0.85360 0.69070
H46 H 0.19220 -0.92830 0.66990
C40 C 0.0285(4) -1.0357(3) 0.66546(11)
H47 H -0.06790 -1.01440 0.65690
H48 H 0.08510 -1.09280 0.64240
C41 C 0.0221(5) -1.1122(4) 0.70936(13)
H49 H -0.03140 -1.05490 0.73280
H50 H 0.11870 -1.13830 0.71740
C42 C -0.0480(5) -1.2361(5) 0.70748(17)
H51 H -0.14030 -1.21190 0.69690
H52 H -0.05940 -1.27570 0.73710
H53 H 0.01140 -1.29860 0.68730
C43 C 0.0759(4) 0.7427(4) 0.16462(10)
C44 C 0.1272(4) 0.6831(4) 0.20659(11)
C45 C 0.2068(3) 0.6641(3) 0.26939(11)
C46 C 0.0506(4) 0.8779(4) 0.15852(11)
H54 H 0.07500 0.93230 0.17980
C47 C -0.0110(4) 0.9349(4) 0.12097(11)
H55 H -0.02780 1.02690 0.11730
C48 C -0.0179(4) 0.7195(4) 0.09471(12)
H56 H -0.03900 0.66490 0.07290
C49 C -0.0470(4) 0.8560(4) 0.08934(11)
C50 C 0.0417(4) 0.6644(4) 0.13201(12)
H57 H 0.05950 0.57240 0.13540
C51 C -0.2461(4) 1.0556(4) 0.00630(12)
H58 H -0.18460 1.01750 -0.01980
H59 H -0.32610 1.00660 0.01180
C52 C -0.3025(5) 1.1977(4) -0.00445(13)
H60 H -0.22230 1.24630 -0.01050
H61 H -0.36250 1.23620 0.02190
C53 C -0.1629(4) 1.0377(4) 0.04657(12)
H62 H -0.08330 1.08740 0.04200
H63 H -0.22430 1.07000 0.07350
C54 C -0.7047(5) 1.5401(4) -0.13774(14)
H64 H -0.77930 1.48510 -0.13130
H65 H -0.64870 1.50880 -0.16570
C55 C -0.3893(5) 1.2160(4) -0.04479(13)
H66 H -0.32840 1.17870 -0.07110
H67 H -0.46800 1.16540 -0.03890
C56 C -0.5409(5) 1.3743(4) -0.09408(14)
H68 H -0.48180 1.34340 -0.12160
H69 H -0.61510 1.31870 -0.08810
C57 C -0.4487(5) 1.3549(4) -0.05560(16)
H70 H -0.36950 1.40430 -0.06290
H71 H -0.50540 1.39350 -0.02870
C58 C -0.7749(6) 1.6760(5) -0.14609(18)
H72 H -0.70070 1.73160 -0.15200
H73 H -0.83280 1.70680 -0.11840
C59 C -0.6116(6) 1.5151(5) -0.10217(17)
H74 H -0.66730 1.54630 -0.07410
H75 H -0.53640 1.56950 -0.10870
C60 C -0.8665(6) 1.6998(5) -0.18279(16)
H76 H -0.82060 1.65050 -0.20880
H77 H -0.88180 1.79290 -0.19040
H78 H -0.95700 1.67140 -0.17320
O1 O 0.1549(2) -0.1963(2) 0.49140(7)
O2 O 0.5170(2) 0.9473(2) 0.39566(7)
O3 O 0.6160(3) 1.5800(2) 0.25322(7)
O4 O 0.1707(3) 0.5462(2) 0.26128(8)
N1 N 0.4095(3) 0.3570(3) 0.47487(9)
O5 O -0.1114(3) 0.8997(3) 0.05160(8)
O6 O 0.4225(2) 0.4786(2) 0.45061(7)
N2 N 0.2787(3) 0.3776(3) 0.41576(8)
N3 N 0.1827(3) 0.7517(3) 0.23755(9)
N4 N 0.5654(3) 1.0723(3) 0.38782(9)
N5 N 0.4368(3) 1.0305(3) 0.33230(8)
N6 N 0.1166(4) 0.5608(3) 0.21867(10)
#END
