
#######################################################################
#
#                 Cambridge Crystallographic Data Centre
#                                CCDC
#
#######################################################################
#
# If this CIF has been generated from an entry in the Cambridge
# Structural Database, then it will include bibliographic, chemical,
# crystal, experimental, refinement or atomic coordinate data resulting
# from the CCDC's data processing and validation procedures.
#
#######################################################################

data_CSD_CIF_EPATAR
_audit_creation_date 2011-05-17
_audit_creation_method CSD-ConQuest-V1
_database_code_CSD EPATAR
_database_code_depnum_ccdc_archive 'CCDC 757737'
_chemical_formula_sum 'C13 H11 N5 O4'
_chemical_formula_moiety
;
C13 H11 N5 O4
;
_journal_coden_Cambridge 462
_journal_volume 76
_journal_year 2010
_journal_page_first 46
_journal_name_full 'Ukr.Khim.Zh.(Russ.)(Ukrain.J.Chem.) '
loop_
_publ_author_name
"I.O.Lebedeva"
"M.V.Povstyanoy"
"V.M.Povstyanoy"
"A.B.Ryabitskii"
"O.G.Panasyuk"
_chemical_name_systematic
;
1-Methyl-4-(3-nitrophenyl)-4,6-dihydropyrimido[4,5-d]pyridazine-2,5(1H,3H)-dio
ne
;
_chemical_melting_point 253
_cell_volume    635.031
_exptl_crystal_colour 'yellow'
_exptl_crystal_density_diffrn 1.576
_diffrn_ambient_temperature 295
#These two values have been output from a single CSD field.
_refine_ls_R_factor_gt 0.0436
_refine_ls_wR_factor_gt 0.0436
_symmetry_cell_setting triclinic
_symmetry_space_group_name_H-M 'P -1'
_symmetry_Int_Tables_number 2
loop_
_symmetry_equiv_pos_site_id
_symmetry_equiv_pos_as_xyz
1 x,y,z
2 -x,-y,-z
_cell_length_a 7.9891(9)
_cell_length_b 8.2345(9)
_cell_length_c 10.5430(12)
_cell_angle_alpha 102.894(5)
_cell_angle_beta 109.131(5)
_cell_angle_gamma 91.500(4)
_cell_formula_units_Z 2
loop_
_atom_type_symbol
_atom_type_radius_bond
C 0.68
H 0.23
N 0.68
O 0.68
loop_
_atom_site_label
_atom_site_type_symbol
_atom_site_fract_x
_atom_site_fract_y
_atom_site_fract_z
O1 O 0.30203(19) 0.50472(18) 0.54511(15)
N1 N 0.5125(2) 0.3243(2) 0.57648(19)
N2 N -0.0210(2) 0.1683(2) 0.63730(19)
C1 C 0.2581(3) 0.2740(2) 0.6336(2)
N3 N 0.2299(2) 0.0303(2) 0.71567(18)
C2 C 0.3253(3) 0.1349(2) 0.6715(2)
N4 N 0.5861(2) 0.1919(2) 0.61769(18)
C3 C 0.3536(3) 0.3757(3) 0.5826(2)
C4 C 0.4970(3) 0.1000(3) 0.6645(2)
O2 O -0.0460(2) -0.0709(2) 0.70222(18)
C5 C 0.0828(3) 0.3212(2) 0.6438(2)
C6 C 0.0470(3) 0.0383(3) 0.6872(2)
C7 C -0.0391(3) 0.5560(3) 0.7690(2)
C8 C 0.0991(3) 0.4586(2) 0.7728(2)
C9 C -0.0334(3) 0.6740(3) 0.8858(2)
C10 C 0.1083(3) 0.7034(3) 1.0072(3)
C11 C 0.2418(3) 0.4843(3) 0.8957(2)
C12 C 0.3077(4) -0.1086(4) 0.7716(4)
O3 O -0.1806(3) 0.8803(3) 0.9774(2)
N5 N -0.1878(3) 0.7678(2) 0.8787(2)
O4 O -0.3193(3) 0.7275(2) 0.7738(2)
C13 C 0.2458(3) 0.6065(3) 1.0109(3)
H1 H 0.556(3) -0.003(2) 0.6924(19)
H2 H 0.224(4) -0.149(4) 0.810(3)
H3 H 0.323(4) -0.192(4) 0.700(3)
H4 H 0.427(5) -0.066(4) 0.843(3)
H5 H 0.576(4) 0.382(3) 0.537(3)
H6 H -0.140(4) 0.175(3) 0.626(2)
H7 H -0.134(3) 0.544(3) 0.684(2)
H8 H 0.108(3) 0.786(3) 1.081(2)
H9 H 0.347(3) 0.623(3) 1.096(3)
H10 H 0.344(3) 0.420(3) 0.904(2)
H11 H 0.018(3) 0.363(2) 0.562(2)
#END
