
#######################################################################
#
#                 Cambridge Crystallographic Data Centre
#                                CCDC
#
#######################################################################
#
# If this CIF has been generated from an entry in the Cambridge
# Structural Database, then it will include bibliographic, chemical,
# crystal, experimental, refinement or atomic coordinate data resulting
# from the CCDC's data processing and validation procedures.
#
#######################################################################

data_CSD_CIF_EPDSOX
_audit_creation_date 1981-03-19
_audit_creation_method CSD-ConQuest-V1
_database_code_CSD EPDSOX
_chemical_formula_sum 'C16 H27 N1 O1'
_chemical_formula_moiety
;
C16 H27 N1 O1
;
_journal_coden_Cambridge 35
_journal_volume 45
_journal_year 1980
_journal_page_first 3088
_journal_name_full 'J.Org.Chem. '
loop_
_publ_author_name
"J.W.Huffman"
"W.E.Swain"
"J.Jacobus"
"A.T.McPhail"
_chemical_name_systematic
;
(+)-11-Methyl-10-epieudesm-4-en-3-one-3-oxime
;
_chemical_melting_point 433.15
_cell_volume    761.301
_exptl_crystal_density_diffrn 1.088
_exptl_special_details
;
Melting point range 433.15-434.15K

;
_diffrn_ambient_temperature ?
_diffrn_special_details
;
The study was carried out at room temperature,in the range 283-303K

;
#These two values have been output from a single CSD field.
_refine_ls_R_factor_gt 0.068
_refine_ls_wR_factor_gt 0.068
_symmetry_cell_setting triclinic
_symmetry_space_group_name_H-M 'P -1'
_symmetry_Int_Tables_number 2
loop_
_symmetry_equiv_pos_site_id
_symmetry_equiv_pos_as_xyz
1 x,y,z
2 -x,-y,-z
_cell_length_a 6.290(3)
_cell_length_b 12.010(5)
_cell_length_c 10.341(5)
_cell_angle_alpha 85.20(2)
_cell_angle_beta 95.56(2)
_cell_angle_gamma 101.09(2)
_cell_formula_units_Z 2
loop_
_atom_type_symbol
_atom_type_radius_bond
C 0.68
H 0.23
N 0.68
O 0.68
loop_
_atom_site_label
_atom_site_type_symbol
_atom_site_fract_x
_atom_site_fract_y
_atom_site_fract_z
C1 C 0.27070 0.21840 0.02420
C2 C 0.51250 0.26260 0.05450
C3 C 0.59980 0.35550 -0.04250
C4 C 0.47870 0.36970 -0.17000
C5 C 0.30280 0.29400 -0.20620
C6 C 0.17070 0.31130 -0.33300
C7 C 0.02840 0.20450 -0.38370
C8 C -0.11630 0.14280 -0.28390
C9 C -0.03380 0.16430 -0.14380
C10 C 0.21670 0.18970 -0.11830
C11 C -0.08790 0.22390 -0.52090
C12 C -0.23970 0.11380 -0.56000
C13 C 0.07770 0.24920 -0.62130
C14 C 0.56670 0.47460 -0.25440
C15 C 0.31340 0.08740 -0.14370
C16 C -0.21260 0.31940 -0.52960
N1 N 0.77900 0.42500 -0.02160
O1 O 0.88490 0.40440 0.10250
H1 H 0.17100 0.28000 0.03700
H2 H 0.22500 0.14800 0.08100
H3 H 0.59200 0.20200 0.05500
H4 H 0.52200 0.28400 0.14400
H5 H 0.25600 0.35000 -0.39300
H6 H 0.04900 0.36700 -0.30300
H7 H 0.12700 0.14700 -0.39400
H8 H -0.11600 0.05000 -0.28300
H9 H -0.27800 0.15600 -0.31100
H10 H -0.08600 0.11200 -0.06500
H11 H -0.08800 0.23600 -0.10500
H12 H -0.29600 0.13000 -0.65400
H13 H -0.34000 0.10900 -0.51300
H14 H -0.13100 0.03900 -0.57100
H15 H -0.00500 0.25800 -0.70900
H16 H 0.15000 0.18800 -0.61600
H17 H 0.17600 0.31700 -0.61000
H18 H 0.59500 0.54000 -0.20900
H19 H 0.45900 0.50800 -0.31800
H20 H 0.63300 0.46300 -0.33100
H21 H 0.24100 0.02300 -0.09700
H22 H 0.48900 0.11300 -0.11600
H23 H 0.27100 0.07100 -0.23900
H24 H -0.28300 0.32700 -0.62000
H25 H -0.10500 0.40100 -0.52100
H26 H -0.31000 0.31500 -0.46200
#END
