
#######################################################################
#
#                 Cambridge Crystallographic Data Centre
#                                CCDC
#
#######################################################################
#
# If this CIF has been generated from an entry in the Cambridge
# Structural Database, then it will include bibliographic, chemical,
# crystal, experimental, refinement or atomic coordinate data resulting
# from the CCDC's data processing and validation procedures.
#
#######################################################################

data_CSD_CIF_EPNBCH10
_audit_creation_date 1983-06-14
_audit_creation_method CSD-ConQuest-V1
_database_code_CSD EPNBCH10
_database_code_depnum_ccdc_archive 'CCDC 1149992'
_chemical_formula_sum 'C20 H25 N1 O6'
_chemical_formula_moiety
;
C20 H25 N1 O6
;
_journal_coden_Cambridge 7
_journal_volume 55
_journal_year 1982
_journal_page_first 3429
_journal_name_full 'Bull.Chem.Soc.Jpn. '
loop_
_publ_author_name
"Y.Kitano"
"T.Kato"
"H.Kondo"
"T.Ashida"
_chemical_name_systematic
;
3-(1,4-Epoxy-2-hydroxy-2,6,6-trimethylcyclohexyl)-1-methyl-2-propyl-p-nitroben
zoate
;
_cell_volume    996.410
_exptl_crystal_colour 'colorless'
_exptl_crystal_density_diffrn 1.252
_diffrn_ambient_temperature ?
_diffrn_special_details
;
The study was carried out at room temperature,in the range 283-303K

;
#These two values have been output from a single CSD field.
_refine_ls_R_factor_gt 0.073
_refine_ls_wR_factor_gt 0.073
_chemical_compound_source
;
Japanese Suifu tobacco
;
_symmetry_cell_setting triclinic
_symmetry_space_group_name_H-M 'P -1'
_symmetry_Int_Tables_number 2
loop_
_symmetry_equiv_pos_site_id
_symmetry_equiv_pos_as_xyz
1 x,y,z
2 -x,-y,-z
_cell_length_a 11.618(1)
_cell_length_b 12.373(2)
_cell_length_c 7.934(1)
_cell_angle_alpha 108.43(1)
_cell_angle_beta 108.89(1)
_cell_angle_gamma 95.95(1)
_cell_formula_units_Z 2
loop_
_atom_type_symbol
_atom_type_radius_bond
C 0.68
H 0.23
N 0.68
O 0.68
loop_
_atom_site_label
_atom_site_type_symbol
_atom_site_fract_x
_atom_site_fract_y
_atom_site_fract_z
C1 C 0.51390 0.28220 0.70670
C2 C 0.51210 0.15330 0.59460
C3 C 0.62400 0.16920 0.54060
C4 C 0.59350 0.21510 0.37170
C5 C 0.60620 0.34500 0.47890
C6 C 0.62770 0.34960 0.68960
C7 C 0.68560 0.46800 0.83950
C8 C 0.80340 0.50700 0.96250
C9 C 0.85210 0.62820 1.10630
C10 C 0.92720 0.63470 1.30540
C11 C 0.54950 0.29970 0.92200
C12 C 0.38730 0.31600 0.63290
C13 C 0.71850 0.42060 0.47990
C14 C 0.88880 0.75290 0.94540
C15 C 0.98230 0.81780 0.90010
C16 C 1.10940 0.82680 0.98870
C17 C 1.19430 0.89350 0.95320
C18 C 1.15070 0.95060 0.82780
C19 C 1.02390 0.94210 0.73580
C20 C 0.94040 0.87600 0.77430
N1 N 1.24110 1.02230 0.79100
O1 O 0.71150 0.27230 0.69990
O2 O 0.49900 0.38500 0.39330
O3 O 0.93790 0.69390 1.05600
O4 O 0.77820 0.75300 0.88330
O5 O 1.35230 1.03580 0.88200
O6 O 1.20130 1.06410 0.66670
H1 H 0.51200 0.10400 0.68900
H2 H 0.41600 0.10200 0.48300
H3 H 0.67500 0.10700 0.52500
H4 H 0.65600 0.21100 0.33200
H5 H 0.50300 0.15800 0.25400
H6 H 0.63800 0.53000 0.83000
H7 H 0.85900 0.43600 0.96600
H8 H 0.79200 0.67800 1.11000
H9 H 0.97500 0.58500 1.30100
H10 H 0.86500 0.57200 1.33900
H11 H 0.96300 0.73200 1.38700
H12 H 0.55400 0.38200 0.99600
H13 H 0.49300 0.23500 0.93000
H14 H 0.63700 0.27800 0.95700
H15 H 0.39500 0.39500 0.69100
H16 H 0.33300 0.27600 0.65500
H17 H 0.37100 0.27900 0.47500
H18 H 0.78900 0.41400 0.53800
H19 H 0.71500 0.51100 0.55100
H20 H 0.72300 0.41300 0.36100
H21 H 1.12400 0.76800 1.07700
H22 H 1.29100 0.89700 1.00400
H23 H 0.97900 1.00700 0.65300
H24 H 0.85200 0.89300 0.75600
H25 H 0.50700 0.46800 0.46600
#END
