
#######################################################################
#
#                 Cambridge Crystallographic Data Centre
#                                CCDC
#
#######################################################################
#
# If this CIF has been generated from an entry in the Cambridge
# Structural Database, then it will include bibliographic, chemical,
# crystal, experimental, refinement or atomic coordinate data resulting
# from the CCDC's data processing and validation procedures.
#
#######################################################################

data_CSD_CIF_EPOVEL
_audit_creation_date 2011-06-24
_audit_creation_method CSD-ConQuest-V1
_database_code_CSD EPOVEL
_database_code_depnum_ccdc_archive 'CCDC 794861'
_chemical_formula_sum 'C15 H19 N1 O4'
_chemical_formula_moiety
;
C15 H19 N1 O4
;
_journal_coden_Cambridge 182
_journal_volume 47
_journal_year 2011
_journal_page_first 4358
_journal_name_full 'Chem.Commun. '
loop_
_publ_author_name
"T.Kano"
"A.Yamamoto"
"Sunhwa Song"
"K.Maruoka"
_chemical_name_systematic
;
Ethyl 3-ethyl-5-(hydroxymethyl)-4-phenyl-4,5-dihydro-1,2-oxazole-5-carboxylate
;
_cell_volume    724.139
_exptl_crystal_colour 'colorless'
_exptl_crystal_density_diffrn 1.272
_exptl_crystal_description 'prism'
_diffrn_ambient_temperature 96.1
#These two values have been output from a single CSD field.
_refine_ls_R_factor_gt 0.0446
_refine_ls_wR_factor_gt 0.0446
_symmetry_cell_setting monoclinic
_symmetry_space_group_name_H-M 'P 21'
_symmetry_Int_Tables_number 4
loop_
_symmetry_equiv_pos_site_id
_symmetry_equiv_pos_as_xyz
1 x,y,z
2 -x,1/2+y,-z
_cell_length_a 9.0974(10)
_cell_length_b 7.7565(9)
_cell_length_c 10.9278(14)
_cell_angle_alpha 90
_cell_angle_beta 110.101(3)
_cell_angle_gamma 90
_cell_formula_units_Z 2
loop_
_atom_type_symbol
_atom_type_radius_bond
C 0.68
H 0.23
N 0.68
O 0.68
loop_
_atom_site_label
_atom_site_type_symbol
_atom_site_fract_x
_atom_site_fract_y
_atom_site_fract_z
O1 O 0.80960(11) 0.69078(15) 0.48829(10)
O2 O 0.52145(11) 0.73834(17) 0.50005(12)
O3 O 0.41088(11) 0.57944(15) 0.31939(11)
O4 O 0.84606(12) 0.42619(15) 0.32381(12)
N1 N 0.89023(13) 0.82729(17) 0.45218(13)
C1 C 0.82487(15) 0.8643(2) 0.33195(15)
C2 C 0.68465(14) 0.75242(19) 0.26182(14)
C3 C 0.67941(15) 0.6347(2) 0.37573(14)
C4 C 0.88238(17) 1.0082(2) 0.26985(16)
C5 C 0.8972(2) 0.9614(2) 0.13960(19)
C6 C 0.53852(15) 0.8561(2) 0.19166(15)
C7 C 0.49634(17) 0.9949(2) 0.25273(16)
C8 C 0.35987(19) 1.0880(2) 0.19031(19)
C9 C 0.26532(16) 1.0407(2) 0.06508(17)
C10 C 0.30725(17) 0.9033(2) 0.00268(17)
C11 C 0.44373(15) 0.8107(2) 0.06554(15)
C12 C 0.53002(16) 0.6583(2) 0.40873(14)
C13 C 0.25807(17) 0.5999(2) 0.33389(17)
C14 C 0.13855(18) 0.5260(2) 0.2147(2)
C15 C 0.70609(16) 0.4455(2) 0.35201(16)
H1 H 0.70940 0.68330 0.19980
H2 H 0.98240 1.04260 0.32750
H3 H 0.81130 1.10180 0.25660
H4 H 0.79890 0.92260 0.08170
H5 H 0.97260 0.87230 0.15190
H6 H 0.92950 1.05990 0.10380
H7 H 0.56130 1.02690 0.33810
H8 H 0.33170 1.18260 0.23280
H9 H 0.17170 1.10270 0.02220
H10 H 0.24280 0.87230 -0.08310
H11 H 0.47230 0.71670 0.02260
H12 H 0.25610 0.54000 0.40910
H13 H 0.23720 0.71870 0.34170
H14 H 0.16690 0.41120 0.20210
H15 H 0.13370 0.59390 0.14110
H16 H 0.03910 0.52580 0.22510
H17 H 0.62040 0.40430 0.28040
H18 H 0.71380 0.38070 0.42770
H19 H 0.924(2) 0.412(2) 0.389(2)
#END
