
#######################################################################
#
#                 Cambridge Crystallographic Data Centre
#                                CCDC
#
#######################################################################
#
# If this CIF has been generated from an entry in the Cambridge
# Structural Database, then it will include bibliographic, chemical,
# crystal, experimental, refinement or atomic coordinate data resulting
# from the CCDC's data processing and validation procedures.
#
#######################################################################

data_CSD_CIF_EQALOZ
_audit_creation_date 2016-06-24
_audit_creation_method CSD-ConQuest-V1
_database_code_CSD EQALOZ
_database_code_depnum_ccdc_archive 'CCDC 1422763'
_chemical_formula_sum 'C40 H26 N2 O1'
_chemical_formula_moiety
;
C40 H26 N2 O1
;
_journal_coden_Cambridge 1500
_journal_volume 6
_journal_year 2016
_journal_page_first 60602
_journal_name_full 'RSC Advances '
loop_
_publ_author_name
"A.Mohammad"
"V.Mishra"
"P.Chandra"
"S.M.Mobin"
_chemical_name_systematic
;
dipentacyclo[6.6.6.0^2,7^.0^9,14^.0^15,20^]icosa-2,4,6,9,11,13,15,17,19-nonaen
-4-yldiazene oxide ditriptycene
;
_cell_volume   1417.078
_exptl_crystal_colour 'colorless'
_exptl_crystal_density_diffrn 1.29
_exptl_crystal_description 'block'
_diffrn_ambient_temperature 293
_refine_special_details
;
C10B,C12B,C16A,C18,C20B,C23,C34,C38,C42B,C4B,C5,C50,C56B,C57A,N2A,N3B,O1B and 
C10A,C12A,C16B,C20A,C39,C42A,C48,C4A,C52,C56A,C57B,C58,C59,C60,N2B,N3A,O1A 
disordered over two sites with occupancies 0.622:0.378.
;
#These two values have been output from a single CSD field.
_refine_ls_R_factor_gt 0.0527
_refine_ls_wR_factor_gt 0.0527
_symmetry_cell_setting triclinic
_symmetry_space_group_name_H-M 'P -1'
_symmetry_Int_Tables_number 2
loop_
_symmetry_equiv_pos_site_id
_symmetry_equiv_pos_as_xyz
1 x,y,z
2 -x,-y,-z
_cell_length_a 10.6315(7)
_cell_length_b 11.8390(9)
_cell_length_c 12.1481(8)
_cell_angle_alpha 87.279(6)
_cell_angle_beta 68.228(6)
_cell_angle_gamma 86.725(6)
_cell_formula_units_Z 2
loop_
_atom_type_symbol
_atom_type_radius_bond
C 0.68
H 0.23
N 0.68
O 0.68
loop_
_atom_site_label
_atom_site_type_symbol
_atom_site_fract_x
_atom_site_fract_y
_atom_site_fract_z
C1 C 0.2558(8) 0.7673(8) 0.6394(8)
C2 C 0.3296(7) 0.6668(8) 0.5995(7)
C3 C 0.2956(7) 0.5994(6) 0.5249(5)
H1 H 0.34500 0.53210 0.49820
C4 C 0.1879(7) 0.6324(5) 0.4903(5)
C5 C 0.1141(6) 0.7329(5) 0.5302(6)
H2 H 0.04210 0.75500 0.50700
C6 C 0.1481(7) 0.8004(6) 0.6047(8)
H3 H 0.09880 0.86760 0.63140
C7 C 0.10783(19) 0.22865(17) 0.03538(17)
H4 H 0.03440 0.23390 0.00470
C8 C 0.2473(2) 0.23480(17) -0.06290(17)
C9 C 0.1102(2) 0.11777(17) 0.10361(16)
C10 C 0.31640(19) 0.83229(16) 0.71506(16)
H5 H 0.26750 0.90420 0.74380
C11 C 0.31267(19) 0.74712(16) 0.81424(17)
C12 C 0.4658(2) 0.84510(16) 0.64071(17)
C13 C 0.5344(2) 0.74249(18) 0.59852(17)
C14 C 0.0205(2) 0.03135(19) 0.12772(18)
H6 H -0.05010 0.03690 0.09980
C15 C 0.0928(6) 0.3177(4) 0.1235(6)
C16 C 0.1930(6) 0.3137(4) 0.1716(6)
C17 C 0.1950(6) 0.3973(5) 0.2474(5)
H7 H 0.26210 0.39460 0.27950
C18 C 0.0967(6) 0.4850(4) 0.2751(4)
C19 C -0.0036(5) 0.4891(3) 0.2271(4)
H8 H -0.06930 0.54780 0.24570
C20 C -0.0055(5) 0.4055(4) 0.1513(5)
H9 H -0.07260 0.40820 0.11910
C21 C 0.3791(2) 0.64467(17) 0.77234(19)
C22 C 0.2757(2) 0.24825(19) -0.18309(18)
H10 H 0.20580 0.25580 -0.21180
C23 C 0.2969(14) 0.2158(10) 0.1232(10)
H11 H 0.36890 0.21100 0.15560
C24 C 0.2155(2) 0.10757(18) 0.14618(18)
C25 C 0.2519(2) 0.7637(2) 0.93516(18)
H12 H 0.20980 0.83320 0.96320
C26 C 0.3529(2) 0.22391(18) -0.02042(19)
C27 C 0.5345(2) 0.9439(2) 0.6143(2)
H13 H 0.49010 1.01260 0.64260
C28 C 0.6707(2) 0.7391(2) 0.5304(2)
H14 H 0.71600 0.67050 0.50310
C29 C 0.0363(3) -0.06365(19) 0.1938(2)
H15 H -0.02420 -0.12150 0.21030
C30 C 0.4856(2) 0.2251(2) -0.0984(2)
H16 H 0.55600 0.21720 -0.07030
C31 C 0.2315(3) 0.0131(2) 0.2106(2)
H17 H 0.30280 0.00690 0.23780
C32 C 0.6730(3) 0.9387(3) 0.5439(2)
H18 H 0.72050 1.00490 0.52460
C33 C 0.7393(3) 0.8378(3) 0.5029(2)
H19 H 0.83130 0.83600 0.45630
C34 C 0.4102(3) 0.2504(2) -0.2607(2)
H20 H 0.43010 0.26020 -0.34180
C35 C 0.3832(3) 0.5576(2) 0.8517(3)
H21 H 0.42790 0.48860 0.82480
C36 C 0.1408(3) -0.0729(2) 0.2351(2)
H22 H 0.15070 -0.13670 0.27930
C37 C 0.2546(3) 0.6763(2) 1.0134(2)
H23 H 0.21200 0.68620 1.09450
C38 C 0.5134(3) 0.2382(2) -0.2192(2)
H24 H 0.60290 0.23870 -0.27220
C39 C 0.3191(3) 0.5757(3) 0.9728(3)
H25 H 0.32050 0.51780 1.02680
C40 C 0.449(2) 0.6388(19) 0.641(2)
H26 H 0.49800 0.56670 0.61310
O1 O 0.0235(15) 0.6682(9) 0.3622(11)
N1 N 0.0960(3) 0.5717(3) 0.3573(4)
N2 N 0.1764(4) 0.5509(4) 0.4117(5)
H27? H 0.03250 0.23750 0.00720
H28? H 0.27120 0.90480 0.74630
C41? C 0.429(4) 0.650(3) 0.633(4)
H29? H 0.47310 0.57750 0.60060
C42? C 0.314(3) 0.2019(17) 0.0991(19)
H30? H 0.39180 0.19250 0.12470
C43? C 0.1147(10) 0.3279(8) 0.1143(10)
C44? C 0.0209(9) 0.4158(6) 0.1634(9)
H31? H -0.05190 0.43020 0.13920
C45? C 0.0359(8) 0.4821(5) 0.2488(7)
H32? H -0.02690 0.54090 0.28160
C46? C 0.1447(9) 0.4606(6) 0.2851(5)
C47? C 0.2386(9) 0.3727(7) 0.2360(8)
H33? H 0.31140 0.35830 0.26030
C48? C 0.2236(10) 0.3064(8) 0.1506(10)
C49? C 0.3213(12) 0.6834(14) 0.5850(12)
C50? C 0.2723(13) 0.6273(9) 0.5122(9)
H34? H 0.31510 0.56000 0.47780
C51? C 0.1593(12) 0.6717(8) 0.4908(8)
C52? C 0.0954(10) 0.7723(8) 0.5423(11)
H35? H 0.01980 0.80200 0.52800
C53? C 0.1444(13) 0.8284(10) 0.6150(14)
H36? H 0.10170 0.89570 0.64940
C54? C 0.2574(14) 0.7840(14) 0.6364(15)
N3? N 0.1804(7) 0.5223(6) 0.3630(7)
N4? N 0.1150(5) 0.6158(6) 0.4090(5)
O2? O 0.009(3) 0.6441(15) 0.3902(19)
#END
