
#######################################################################
#
#                 Cambridge Crystallographic Data Centre
#                                CCDC
#
#######################################################################
#
# If this CIF has been generated from an entry in the Cambridge
# Structural Database, then it will include bibliographic, chemical,
# crystal, experimental, refinement or atomic coordinate data resulting
# from the CCDC's data processing and validation procedures.
#
#######################################################################

data_CSD_CIF_EQASOG
_audit_creation_date 2016-06-25
_audit_creation_method CSD-ConQuest-V1
_database_code_CSD EQASOG
_database_code_depnum_ccdc_archive 'CCDC 1485400'
_chemical_formula_sum 'C14 H11 N3 O2'
_chemical_formula_moiety
;
C14 H11 N3 O2
;
_journal_coeditor_code "sj4047"
_journal_coden_Cambridge 1959
_journal_volume 1
_journal_year 2016
_journal_page_first x160961
_journal_name_full 'IUCrData '
loop_
_publ_author_name
"M.Naas"
"M.Benchidmi"
"E.M.Essassi"
"M.Saadi"
"L.El Ammari"
_chemical_name_systematic
;
1-methyl-5-nitro-3-phenyl-1H-indazole
;
_chemical_melting_point 396
_cell_volume   2457.689
_exptl_crystal_colour 'colorless'
_exptl_crystal_density_diffrn 1.369
_exptl_crystal_description 'block'
_diffrn_ambient_temperature 296
_diffrn_special_details
;
twin

;
#These two values have been output from a single CSD field.
_refine_ls_R_factor_gt 0.049
_refine_ls_wR_factor_gt 0.049
_symmetry_cell_setting orthorhombic
_symmetry_space_group_name_H-M 'P c a 21'
_symmetry_Int_Tables_number 29
loop_
_symmetry_equiv_pos_site_id
_symmetry_equiv_pos_as_xyz
1 x,y,z
2 -x,-y,1/2+z
3 1/2+x,-y,z
4 1/2-x,y,1/2+z
_cell_length_a 33.4769(17)
_cell_length_b 7.4977(3)
_cell_length_c 9.7916(4)
_cell_angle_alpha 90
_cell_angle_beta 90
_cell_angle_gamma 90
_cell_formula_units_Z 8
loop_
_atom_type_symbol
_atom_type_radius_bond
C 0.68
H 0.23
N 0.68
O 0.68
loop_
_atom_site_label
_atom_site_type_symbol
_atom_site_fract_x
_atom_site_fract_y
_atom_site_fract_z
C1 C 0.45757(13) 0.7758(5) 0.8046(5)
H1 H 0.44200 0.71540 0.74100
C2 C 0.49860(16) 0.7540(6) 0.8036(6)
H2 H 0.51050 0.68130 0.73820
C3 C 0.52212(14) 0.8402(7) 0.8998(6)
H3 H 0.54970 0.82470 0.89980
C4 C 0.50432(14) 0.9486(6) 0.9949(5)
H4 H 0.52000 1.00590 1.05990
C5 C 0.46349(12) 0.9737(5) 0.9955(4)
H5 H 0.45190 1.04880 1.06000
C6 C 0.43943(12) 0.8867(5) 0.8996(4)
C7 C 0.39618(12) 0.9148(5) 0.8928(4)
C8 C 0.36860(11) 0.9732(4) 0.9954(4)
C9 C 0.37031(13) 1.0185(4) 1.1343(4)
H6 H 0.39420 1.01380 1.18270
C10 C 0.33550(14) 1.0697(5) 1.1956(4)
C11 C 0.29892(13) 1.0770(6) 1.1283(5)
H7 H 0.27620 1.11390 1.17510
C12 C 0.29627(13) 1.0300(5) 0.9938(5)
H8 H 0.27200 1.03320 0.94730
C13 C 0.33147(11) 0.9771(5) 0.9290(4)
C14 C 0.30967(14) 0.9067(6) 0.6881(4)
H9 H 0.28350 0.93770 0.72040
H10 H 0.31720 0.98600 0.61550
H11 H 0.30950 0.78620 0.65480
N1 N 0.37717(10) 0.8847(4) 0.7771(3)
N2 N 0.33801(11) 0.9220(4) 0.7986(3)
N3 N 0.33657(14) 1.1181(5) 1.3406(4)
O1 O 0.36862(12) 1.1219(5) 1.4003(4)
O2 O 0.30487(11) 1.1535(6) 1.3978(4)
C15 C 0.06659(14) 0.6121(5) 0.7116(5)
H12 H 0.04430 0.61020 0.65510
C16 C 0.06358(16) 0.6833(7) 0.8421(6)
H13 H 0.03930 0.72830 0.87270
C17 C 0.09621(17) 0.6875(7) 0.9256(5)
H14 H 0.09410 0.73620 1.01270
C18 C 0.13218(16) 0.6199(6) 0.8814(4)
H15 H 0.15440 0.62330 0.93840
C19 C 0.13518(14) 0.5474(6) 0.7527(4)
H16 H 0.15940 0.50010 0.72400
C20 C 0.10261(12) 0.5436(5) 0.6649(4)
C21 C 0.10652(11) 0.4730(4) 0.5262(4)
C22 C 0.14088(11) 0.4648(4) 0.4399(4)
C23 C 0.18067(12) 0.5160(5) 0.4490(4)
H17 H 0.19090 0.56880 0.52750
C24 C 0.20434(13) 0.4850(5) 0.3366(5)
C25 C 0.19033(17) 0.4081(6) 0.2148(5)
H18 H 0.20770 0.38990 0.14200
C26 C 0.15079(16) 0.3597(5) 0.2040(4)
H19 H 0.14080 0.30850 0.12450
C27 C 0.12625(13) 0.3904(5) 0.3168(4)
C28 C 0.05914(16) 0.2949(6) 0.2328(5)
H20 H 0.03310 0.28630 0.27330
H21 H 0.05820 0.37580 0.15690
H22 H 0.06740 0.17930 0.20170
N4 N 0.07439(10) 0.4110(4) 0.4608(4)
N5 N 0.08741(11) 0.3607(4) 0.3338(4)
N6 N 0.24577(14) 0.5381(7) 0.3419(5)
O3 O 0.25797(11) 0.6241(6) 0.4405(5)
O4 O 0.26727(13) 0.4964(8) 0.2468(5)
#END
