
#######################################################################
#
#                 Cambridge Crystallographic Data Centre
#                                CCDC
#
#######################################################################
#
# If this CIF has been generated from an entry in the Cambridge
# Structural Database, then it will include bibliographic, chemical,
# crystal, experimental, refinement or atomic coordinate data resulting
# from the CCDC's data processing and validation procedures.
#
#######################################################################

data_CSD_CIF_EQAZAY
_audit_creation_date 2011-07-18
_audit_creation_method CSD-ConQuest-V1
_database_code_CSD EQAZAY
_database_code_depnum_ccdc_archive 'CCDC 766522'
_chemical_formula_sum 'C9 H18 N2 O2'
_chemical_formula_moiety
;
C9 H18 N2 O2
;
_journal_coden_Cambridge 1135
_journal_volume 20
_journal_year 2010
_journal_page_first 106
_journal_name_full 'Mendeleev Commun. '
loop_
_publ_author_name
"I.V.Vystorop"
"Y.V.Nelyubina"
"V.N.Voznesensky"
"Wen-Hua Sun"
"V.P.Lodygina"
"K.A.Lyssenko"
"R.G.Kostyanovsky"
_chemical_name_systematic
;
3-Hydroxy-5-isobutyl-2,2-dimethylimidazolidin-4-one
;
_cell_volume   4238.613
_exptl_crystal_colour 'colorless'
_exptl_crystal_density_diffrn 1.167
_exptl_crystal_description 'prism'
_diffrn_ambient_temperature 153
#These two values have been output from a single CSD field.
_refine_ls_R_factor_gt 0.0474
_refine_ls_wR_factor_gt 0.0474
_symmetry_cell_setting monoclinic
_symmetry_space_group_name_H-M 'C 2/c'
_symmetry_Int_Tables_number 15
loop_
_symmetry_equiv_pos_site_id
_symmetry_equiv_pos_as_xyz
1 x,y,z
2 -x,y,1/2-z
3 1/2+x,1/2+y,z
4 1/2-x,1/2+y,1/2-z
5 -x,-y,-z
6 x,-y,-1/2+z
7 -1/2-x,-1/2-y,-z
8 -1/2+x,-1/2-y,-1/2+z
_cell_length_a 14.8213(4)
_cell_length_b 14.8271(4)
_cell_length_c 19.4308(5)
_cell_angle_alpha 90
_cell_angle_beta 96.957(1)
_cell_angle_gamma 90
_cell_formula_units_Z 16
loop_
_atom_type_symbol
_atom_type_radius_bond
C 0.68
H 0.23
N 0.68
O 0.68
loop_
_atom_site_label
_atom_site_type_symbol
_atom_site_fract_x
_atom_site_fract_y
_atom_site_fract_z
O1 O 0.21102(7) -0.11394(7) 0.38901(6)
H1 H 0.26510 -0.14470 0.40530
N1 N 0.19701(8) 0.12086(8) 0.43175(6)
H2 H 0.25980 0.14100 0.44660
O2 O 0.15808(9) -0.08334(8) 0.52019(6)
C1 C 0.20245(10) 0.0503(1) 0.37886(8)
N2 N 0.21460(8) -0.03077(9) 0.42295(6)
C2 C 0.17606(10) -0.02208(11) 0.48214(8)
C3 C 0.15887(10) 0.07803(11) 0.49091(7)
H3 H 0.09310 0.08830 0.48550
C4 C 0.28289(12) 0.06553(13) 0.33949(9)
H4 H 0.33770 0.06570 0.37130
H5 H 0.27640 0.12250 0.31590
H6 H 0.28570 0.01810 0.30620
C5 C 0.11397(12) 0.04372(14) 0.33037(9)
H7 H 0.06400 0.03750 0.35720
H8 H 0.11620 -0.00780 0.30070
H9 H 0.10590 0.09730 0.30260
C6 C 0.20006(11) 0.12096(12) 0.55849(8)
H10 H 0.26440 0.10670 0.56500
H11 H 0.19470 0.18590 0.55330
C7 C 0.16086(13) 0.09480(13) 0.62405(8)
H12 H 0.16480 0.02910 0.62930
C8 C 0.06224(15) 0.1227(2) 0.62230(13)
H13 H 0.02620 0.09180 0.58520
H14 H 0.05700 0.18660 0.61510
H15 H 0.04100 0.10730 0.66560
C9 C 0.21716(17) 0.13829(17) 0.68598(10)
H16 H 0.27970 0.12120 0.68650
H17 H 0.19540 0.11830 0.72800
H18 H 0.21190 0.20270 0.68250
O3 O -0.09627(7) 0.72707(8) 0.60828(6)
H19 H -0.13480 0.77680 0.59320
N3 N 0.13186(8) 0.70810(9) 0.56539(6)
H20 H 0.14780 0.76610 0.54780
O4 O -0.08625(7) 0.65388(9) 0.47700(6)
C10 C 0.06963(10) 0.72136(11) 0.61818(8)
N4 N -0.01846(8) 0.72680(9) 0.57398(6)
C11 C -0.01899(10) 0.67863(11) 0.51487(8)
C12 C 0.08010(9) 0.66071(11) 0.50611(7)
H21 H 0.09150 0.59580 0.51160
C13 C 0.09040(12) 0.80749(14) 0.65796(9)
H22 H 0.08690 0.85740 0.62630
H23 H 0.15050 0.80420 0.68260
H24 H 0.04710 0.81580 0.69030
C14 C 0.07122(13) 0.64011(15) 0.66567(10)
H25 H 0.06520 0.58600 0.63830
H26 H 0.02180 0.64410 0.69320
H27 H 0.12770 0.63870 0.69560
C15 C 0.11203(11) 0.69071(12) 0.43869(8)
H28 H 0.17780 0.68600 0.44380
H29 H 0.09700 0.75410 0.43220
C16 C 0.07512(12) 0.64105(14) 0.37276(9)
H30 H 0.00860 0.64480 0.36740
C17 C 0.1020(2) 0.54339(18) 0.37534(15)
H31 H 0.07540 0.51390 0.41200
H32 H 0.16700 0.53860 0.38380
H33 H 0.08080 0.51520 0.33190
C18 C 0.10931(16) 0.6871(2) 0.31106(10)
H34 H 0.08540 0.65660 0.26920
H35 H 0.17450 0.68490 0.31600
H36 H 0.08960 0.74880 0.30900
#END
