
#######################################################################
#
#                 Cambridge Crystallographic Data Centre
#                                CCDC
#
#######################################################################
#
# If this CIF has been generated from an entry in the Cambridge
# Structural Database, then it will include bibliographic, chemical,
# crystal, experimental, refinement or atomic coordinate data resulting
# from the CCDC's data processing and validation procedures.
#
#######################################################################

data_CSD_CIF_EQEBIN
_audit_creation_date 2016-06-27
_audit_creation_method CSD-ConQuest-V1
_database_code_CSD EQEBIN
_database_code_depnum_ccdc_archive 'CCDC 1487695'
_chemical_formula_sum 'C12 H14 N2 O2'
_chemical_formula_moiety
;
C12 H14 N2 O2
;
_journal_coden_Cambridge 1078
_journal_year 2016
_journal_name_full 'CSD Communication(Private Communication) '
loop_
_publ_author_name
"A.Priyadharshini"
"S.Kalainathan"
_chemical_name_systematic
;
2,2,4-trimethyl-6-nitro-1,2-dihydroquinoline
;
_cell_volume   2239.556
_exptl_crystal_colour 'brown'
_exptl_crystal_density_diffrn 1.295
_exptl_crystal_description 'block'
_diffrn_ambient_temperature 296
#These two values have been output from a single CSD field.
_refine_ls_R_factor_gt 0.0495
_refine_ls_wR_factor_gt 0.0495
_symmetry_cell_setting orthorhombic
_symmetry_space_group_name_H-M 'P n a 21'
_symmetry_Int_Tables_number 33
loop_
_symmetry_equiv_pos_site_id
_symmetry_equiv_pos_as_xyz
1 x,y,z
2 -x,-y,1/2+z
3 1/2+x,1/2-y,z
4 1/2-x,1/2+y,1/2+z
_cell_length_a 16.5243(17)
_cell_length_b 8.215(1)
_cell_length_c 16.498(2)
_cell_angle_alpha 90
_cell_angle_beta 90
_cell_angle_gamma 90
_cell_formula_units_Z 8
loop_
_atom_type_symbol
_atom_type_radius_bond
C 0.68
H 0.23
N 0.68
O 0.68
loop_
_atom_site_label
_atom_site_type_symbol
_atom_site_fract_x
_atom_site_fract_y
_atom_site_fract_z
C1 C 0.1027(3) 0.7812(9) 0.6031(5)
C2 C 0.1721(4) 0.6913(10) 0.5871(5)
H1 H 0.16790 0.58280 0.57160
C3 C 0.2460(4) 0.7619(8) 0.5940(7)
H2 H 0.29240 0.70160 0.58340
C4 C 0.2526(3) 0.9250(7) 0.6172(4)
C5 C 0.1826(3) 1.0166(7) 0.6347(4)
C6 C 0.1082(3) 0.9414(9) 0.6267(4)
H3 H 0.06120 1.00000 0.63730
C7 C 0.1929(4) 1.1842(8) 0.6610(4)
C8 C 0.2658(5) 1.2491(8) 0.6638(7)
H4 H 0.26970 1.35610 0.68160
C9 C 0.3430(3) 1.1653(8) 0.6406(4)
C10 C 0.1189(5) 1.2790(9) 0.6839(6)
H5 H 0.08390 1.28840 0.63760
H6 H 0.13450 1.38560 0.70190
H7 H 0.09090 1.22370 0.72680
C11 C 0.3776(6) 1.2450(8) 0.5644(8)
H8 H 0.38890 1.35760 0.57520
H9 H 0.42660 1.19050 0.54900
H10 H 0.33890 1.23710 0.52110
C12 C 0.4032(4) 1.1722(10) 0.7093(5)
H11 H 0.41510 1.28370 0.72190
H12 H 0.38060 1.11990 0.75620
H13 H 0.45200 1.11730 0.69360
N1 N 0.0242(4) 0.7086(11) 0.5971(5)
N2 N 0.3261(3) 0.9942(6) 0.6230(4)
O1 O -0.0359(3) 0.7903(8) 0.6128(4)
O2 O 0.0196(3) 0.5652(8) 0.5754(4)
H14 H 0.370(5) 0.936(10) 0.616(5)
C13 C 0.3434(4) 0.6981(9) 0.3955(5)
C14 C 0.4107(4) 0.7921(9) 0.4129(5)
H15 H 0.40430 0.89990 0.42880
C15 C 0.4859(4) 0.7273(8) 0.4068(7)
H16 H 0.53100 0.79180 0.41720
C16 C 0.4962(3) 0.5643(7) 0.3850(4)
C17 C 0.4267(3) 0.4681(7) 0.3661(4)
C18 C 0.3522(3) 0.5396(8) 0.3719(4)
H17 H 0.30630 0.47890 0.35950
C19 C 0.4395(4) 0.3008(9) 0.3400(4)
C20 C 0.5139(5) 0.2405(8) 0.3380(7)
H18 H 0.51970 0.13330 0.32080
C21 C 0.5887(3) 0.3293(8) 0.3608(4)
C22 C 0.6479(4) 0.3285(11) 0.2895(5)
H19 H 0.66100 0.21820 0.27550
H20 H 0.62340 0.38140 0.24380
H21 H 0.69640 0.38540 0.30450
C23 C 0.6283(6) 0.2503(9) 0.4339(8)
H22 H 0.64080 0.13880 0.42170
H23 H 0.67730 0.30750 0.44710
H24 H 0.59200 0.25470 0.47930
C24 C 0.3670(4) 0.2013(9) 0.3155(6)
H25 H 0.33930 0.25460 0.27180
H26 H 0.33110 0.19030 0.36090
H27 H 0.38450 0.09540 0.29820
N3 N 0.2644(4) 0.7696(10) 0.3997(6)
N4 N 0.5702(3) 0.4984(6) 0.3803(4)
O3 O 0.2048(3) 0.6836(8) 0.3878(4)
O4 O 0.2577(3) 0.9158(7) 0.4163(4)
H28 H 0.615(4) 0.566(9) 0.387(5)
#END
