
#######################################################################
#
#                 Cambridge Crystallographic Data Centre
#                                CCDC
#
#######################################################################
#
# If this CIF has been generated from an entry in the Cambridge
# Structural Database, then it will include bibliographic, chemical,
# crystal, experimental, refinement or atomic coordinate data resulting
# from the CCDC's data processing and validation procedures.
#
#######################################################################

data_CSD_CIF_EQETUQ
_audit_creation_date 2011-06-16
_audit_creation_method CSD-ConQuest-V1
_database_code_CSD EQETUQ
_database_code_depnum_ccdc_archive 'CCDC 804332'
_chemical_formula_sum 'C19 H19 N3 O3'
_chemical_formula_moiety
;
C19 H19 N3 O3
;
_journal_coden_Cambridge 182
_journal_volume 47
_journal_year 2011
_journal_page_first 4938
_journal_name_full 'Chem.Commun. '
loop_
_publ_author_name
"N.Nishiwaki"
"S.Hirao"
"J.Sawayama"
"K.Saigo"
"K.Kobiro"
_chemical_name_systematic
;
6-Nitro-7,8a-diphenylhexahydroimidazo[1,2-a]pyridin-5(1H)-one
;
_chemical_melting_point 500.15
_cell_volume   1627.382
_exptl_crystal_colour 'colorless'
_exptl_special_details
;
Melting point range 500.15-503.15K

;
_exptl_crystal_description 'prismatic'
_diffrn_ambient_temperature 298.1
#These two values have been output from a single CSD field.
_refine_ls_R_factor_gt 0.0476
_refine_ls_wR_factor_gt 0.0476
_symmetry_cell_setting monoclinic
_symmetry_space_group_name_H-M 'P 21/c'
_symmetry_Int_Tables_number 14
loop_
_symmetry_equiv_pos_site_id
_symmetry_equiv_pos_as_xyz
1 x,y,z
2 -x,1/2+y,1/2-z
3 -x,-y,-z
4 x,-1/2-y,-1/2+z
_cell_length_a 11.510(5)
_cell_length_b 13.619(7)
_cell_length_c 11.172(4)
_cell_angle_alpha 90
_cell_angle_beta 111.68(3)
_cell_angle_gamma 90
_cell_formula_units_Z 4
loop_
_atom_type_symbol
_atom_type_radius_bond
C 0.68
H 0.23
N 0.68
O 0.68
loop_
_atom_site_label
_atom_site_type_symbol
_atom_site_fract_x
_atom_site_fract_y
_atom_site_fract_z
O1 O 0.5542(2) -0.03096(14) 0.3900(2)
O2 O 0.8089(2) 0.0545(2) 0.4810(2)
O3 O 0.7702(2) 0.0695(2) 0.6564(2)
N1 N 0.4404(2) 0.09630(17) 0.2763(2)
N2 N 0.4189(2) 0.1976(2) 0.1092(2)
N3 N 0.7440(2) 0.0804(2) 0.5405(2)
C1 C 0.4178(2) 0.2012(2) 0.2420(2)
C2 C 0.3731(4) 0.0366(2) 0.1607(3)
C3 C 0.5203(2) 0.2693(2) 0.3281(3)
C4 C 0.9364(3) 0.3799(2) 0.5240(3)
C5 C 0.0677(3) 0.3015(2) 0.2567(3)
C6 C 0.1222(3) 0.3510(2) 0.1828(3)
C7 C 0.1249(3) 0.2195(2) 0.3259(3)
C8 C 0.6475(2) 0.2195(2) 0.3918(2)
C9 C 0.5356(2) 0.0576(2) 0.3745(2)
C10 C 0.7437(2) 0.2907(2) 0.4767(2)
C11 C 0.6223(2) 0.1321(2) 0.4668(2)
C12 C 0.2921(2) 0.2340(2) 0.2454(2)
C13 C 0.7246(3) 0.3399(2) 0.5787(3)
C14 C 0.8117(3) 0.4083(2) 0.6518(3)
C15 C 0.3451(4) 0.1089(2) 0.0493(3)
C16 C 0.2369(3) 0.1848(2) 0.3201(3)
C17 C 0.8501(3) 0.3113(2) 0.4516(3)
C18 C 0.2344(3) 0.3175(2) 0.1789(3)
C19 C 0.9170(3) 0.4280(2) 0.6230(3)
H1 H 0.786(3) 0.439(2) 0.729(3)
H2 H 0.979(3) 0.476(2) 0.674(3)
H3 H 0.861(3) 0.274(2) 0.378(3)
H4 H 0.645(3) 0.326(2) 0.602(3)
H5 H 0.081(3) 0.178(2) 0.378(3)
H6 H 0.284(2) 0.122(2) 0.371(2)
H7 H 0.084(3) 0.409(2) 0.132(3)
H8 H 0.264(2) 0.351(2) 0.134(2)
H9 H 0.580(2) 0.153(2) 0.534(2)
H10 H 0.680(2) 0.191(2) 0.322(2)
H11 H -0.016(3) 0.326(2) 0.250(3)
H12 H 1.018(3) 0.391(2) 0.505(3)
H13 H 0.381(4) 0.086(3) -0.031(4)
H14 H 0.241(4) 0.129(3) 0.014(3)
H15 H 0.286(3) 0.003(2) 0.172(3)
H16 H 0.426(3) -0.013(3) 0.155(3)
H17 H 0.486(2) 0.297(2) 0.403(2)
H18 H 0.531(2) 0.319(2) 0.279(2)
H19 H 0.385(2) 0.248(2) 0.061(2)
#END
