
#######################################################################
#
#                 Cambridge Crystallographic Data Centre
#                                CCDC
#
#######################################################################
#
# If this CIF has been generated from an entry in the Cambridge
# Structural Database, then it will include bibliographic, chemical,
# crystal, experimental, refinement or atomic coordinate data resulting
# from the CCDC's data processing and validation procedures.
#
#######################################################################

data_CSD_CIF_EQIKUL
_audit_creation_date 2011-07-22
_audit_creation_method CSD-ConQuest-V1
_database_code_CSD EQIKUL
_database_code_depnum_ccdc_archive 'CCDC 798328'
_chemical_formula_sum 'C18 H17 N3 O3'
_chemical_formula_moiety
;
C18 H17 N3 O3
;
_journal_coden_Cambridge 16
_journal_volume 67
_journal_year 2011
_journal_page_first 3209
_journal_name_full 'Tetrahedron '
loop_
_publ_author_name
"M.Yildirim"
"Y.Durust"
_chemical_name_systematic
;
(R)-5-(R)-(2-Methyloxiran-2-yl)-3-(4-nitrophenyl)-1-phenyl-4,5-dihydro-1H-pyra
zole
;
_chemical_melting_point 428.15
_cell_volume   1542.889
_exptl_crystal_colour 'orange'
_exptl_crystal_density_diffrn 1.392
_exptl_special_details
;
Melting point range 428.15-430.15K

;
_exptl_crystal_description 'plate'
_diffrn_ambient_temperature 90
_diffrn_special_details
;
non-merohedral twin

;
#These two values have been output from a single CSD field.
_refine_ls_R_factor_gt 0.065
_refine_ls_wR_factor_gt 0.065
loop_
_citation_database_id_CSD
_citation_special_details
EQIKOF "is a stereoisomer of this entry"
_symmetry_cell_setting monoclinic
_symmetry_space_group_name_H-M 'P 21/c'
_symmetry_Int_Tables_number 14
loop_
_symmetry_equiv_pos_site_id
_symmetry_equiv_pos_as_xyz
1 x,y,z
2 -x,1/2+y,1/2-z
3 -x,-y,-z
4 x,-1/2-y,-1/2+z
_cell_length_a 17.0933(9)
_cell_length_b 9.9259(5)
_cell_length_c 9.3363(4)
_cell_angle_alpha 90
_cell_angle_beta 103.091(3)
_cell_angle_gamma 90
_cell_formula_units_Z 4
loop_
_atom_type_symbol
_atom_type_radius_bond
C 0.68
H 0.23
N 0.68
O 0.68
loop_
_atom_site_label
_atom_site_type_symbol
_atom_site_fract_x
_atom_site_fract_y
_atom_site_fract_z
C1 C 0.03763(13) 0.8862(2) 0.6491(2)
C2 C 0.04779(13) 0.7782(2) 0.5603(2)
H1 H 0.01460 0.70060 0.55280
C3 C 0.10766(13) 0.7874(2) 0.4833(2)
H2 H 0.11670 0.71420 0.42360
C4 C 0.15538(12) 0.9035(2) 0.4920(2)
C5 C 0.14432(13) 1.0094(2) 0.5845(2)
H3 H 0.17740 1.08720 0.59300
C6 C 0.08514(13) 1.0005(2) 0.6637(2)
H4 H 0.07730 1.07170 0.72700
C7 C 0.21694(13) 0.9151(2) 0.4050(2)
C8 C 0.25834(14) 1.0443(2) 0.3825(2)
H5 H 0.29100 1.07920 0.47650
H6 H 0.21920 1.11400 0.33660
C9 C 0.31180(13) 0.9999(2) 0.2781(2)
H7 H 0.36980 1.01250 0.32680
C10 C 0.34487(12) 0.7578(2) 0.2235(2)
C11 C 0.33968(13) 0.6224(2) 0.2625(2)
H8 H 0.30100 0.59500 0.31530
C12 C 0.39100(14) 0.5288(2) 0.2239(2)
H9 H 0.38690 0.43710 0.25050
C13 C 0.44854(13) 0.5651(3) 0.1471(2)
H10 H 0.48380 0.49990 0.12180
C14 C 0.45290(14) 0.6995(3) 0.1085(2)
H11 H 0.49120 0.72610 0.05440
C15 C 0.40297(14) 0.7954(2) 0.1469(2)
H12 H 0.40800 0.88710 0.12130
C16 C 0.29115(14) 1.0792(2) 0.1353(2)
C17 C 0.35521(15) 1.1471(2) 0.0808(3)
H13 H 0.41160 1.12670 0.13020
H14 H 0.34590 1.16440 -0.02620
C18 C 0.21276(14) 1.0474(3) 0.0311(3)
H15 H 0.17700 1.00250 0.08460
H16 H 0.22240 0.98790 -0.04690
H17 H 0.18770 1.13110 -0.01250
N1 N -0.02742(11) 0.8804(2) 0.72693(19)
N2 N 0.23826(11) 0.81221(19) 0.33880(18)
N3 N 0.29281(11) 0.85427(19) 0.2591(2)
O1 O -0.02999(10) 0.96681(18) 0.82063(17)
O2 O -0.0778(1) 0.79016(17) 0.69525(17)
O3 O 0.3069(1) 1.22151(16) 0.16327(17)
H18? H 0.21440 1.07850 -0.06780
H19? H 0.16900 1.09320 0.06370
H20? H 0.20370 0.94990 0.02930
#END
