
#######################################################################
#
#                 Cambridge Crystallographic Data Centre
#                                CCDC
#
#######################################################################
#
# If this CIF has been generated from an entry in the Cambridge
# Structural Database, then it will include bibliographic, chemical,
# crystal, experimental, refinement or atomic coordinate data resulting
# from the CCDC's data processing and validation procedures.
#
#######################################################################

data_CSD_CIF_EQIKOF
_audit_creation_date 2011-07-22
_audit_creation_method CSD-ConQuest-V1
_database_code_CSD EQIKOF
_database_code_depnum_ccdc_archive 'CCDC 798327'
_chemical_formula_sum 'C18 H17 N3 O3'
_chemical_formula_moiety
;
C18 H17 N3 O3
;
_journal_coden_Cambridge 16
_journal_volume 67
_journal_year 2011
_journal_page_first 3209
_journal_name_full 'Tetrahedron '
loop_
_publ_author_name
"M.Yildirim"
"Y.Durust"
_chemical_name_systematic
;
(R)-5-(S)-(2-Methyloxiran-2-yl)-3-(4-nitrophenyl)-1-phenyl-4,5-dihydro-1H-pyra
zole
;
_chemical_melting_point 425.15
_cell_volume    772.136
_exptl_crystal_colour 'orange'
_exptl_crystal_density_diffrn 1.391
_exptl_special_details
;
Melting point range 425.15-427.15K

;
_diffrn_ambient_temperature 90
#These two values have been output from a single CSD field.
_refine_ls_R_factor_gt 0.071
_refine_ls_wR_factor_gt 0.071
loop_
_citation_database_id_CSD
_citation_special_details
EQIKUL "is a stereoisomer of this entry"
_symmetry_cell_setting triclinic
_symmetry_space_group_name_H-M 'P -1'
_symmetry_Int_Tables_number 2
loop_
_symmetry_equiv_pos_site_id
_symmetry_equiv_pos_as_xyz
1 x,y,z
2 -x,-y,-z
_cell_length_a 6.2053(7)
_cell_length_b 10.8579(12)
_cell_length_c 11.8305(14)
_cell_angle_alpha 98.431(9)
_cell_angle_beta 91.549(9)
_cell_angle_gamma 101.223(9)
_cell_formula_units_Z 2
loop_
_atom_type_symbol
_atom_type_radius_bond
C 0.68
H 0.23
N 0.68
O 0.68
loop_
_atom_site_label
_atom_site_type_symbol
_atom_site_fract_x
_atom_site_fract_y
_atom_site_fract_z
O1 O -0.3948(6) 0.0454(4) 0.6817(3)
O2 O -0.0948(6) 0.0750(4) 0.7894(3)
O3 O 0.5314(7) 0.3029(4) -0.0366(3)
N1 N -0.1930(7) 0.0807(4) 0.6986(4)
N2 N 0.4971(7) 0.3383(4) 0.3592(4)
N3 N 0.5667(7) 0.3739(4) 0.2589(4)
C1 C -0.0660(8) 0.1304(5) 0.6088(5)
C2 C 0.1554(8) 0.1836(5) 0.6299(5)
H1 H 0.22460 0.18810 0.70340
C3 C 0.2744(8) 0.2298(5) 0.5436(5)
H2 H 0.42640 0.26640 0.55810
C4 C 0.1753(8) 0.2238(5) 0.4344(5)
C5 C -0.0514(8) 0.1686(5) 0.4160(5)
H3 H -0.12170 0.16280 0.34250
C6 C -0.1715(8) 0.1234(5) 0.5018(5)
H4 H -0.32410 0.08780 0.48870
C7 C 0.2977(8) 0.2730(5) 0.3428(5)
C8 C 0.2072(8) 0.2591(5) 0.2212(5)
H5 H 0.07760 0.29930 0.21730
H6 H 0.16460 0.16840 0.18680
C9 C 0.4002(8) 0.3284(5) 0.1603(5)
H7 H 0.35810 0.40270 0.13080
C10 C 0.7723(8) 0.4556(5) 0.2537(5)
C11 C 0.9232(8) 0.4811(5) 0.3491(5)
H8 H 0.88490 0.44780 0.41740
C12 C 1.1295(9) 0.5560(5) 0.3414(5)
H9 H 1.23230 0.57380 0.40550
C13 C 1.1887(9) 0.6052(5) 0.2430(5)
H10 H 1.33140 0.65480 0.23840
C14 C 1.0357(8) 0.5806(5) 0.1509(5)
H11 H 1.07370 0.61490 0.08300
C15 C 0.8278(9) 0.5068(5) 0.1563(5)
H12 H 0.72400 0.49170 0.09280
C16 C 0.4726(8) 0.2433(5) 0.0651(5)
C17 C 0.3282(9) 0.2111(6) -0.0413(5)
H13 H 0.32030 0.12670 -0.08790
H14 H 0.18910 0.24290 -0.04090
C18 C 0.6132(9) 0.1543(6) 0.0929(6)
H15 H 0.63400 0.09840 0.02290
H16 H 0.54180 0.10310 0.14810
H17 H 0.75660 0.20290 0.12590
#END
