
#######################################################################
#
#                 Cambridge Crystallographic Data Centre
#                                CCDC
#
#######################################################################
#
# If this CIF has been generated from an entry in the Cambridge
# Structural Database, then it will include bibliographic, chemical,
# crystal, experimental, refinement or atomic coordinate data resulting
# from the CCDC's data processing and validation procedures.
#
#######################################################################

data_CSD_CIF_EQOCET
_audit_creation_date 2011-07-11
_audit_creation_method CSD-ConQuest-V1
_database_code_CSD EQOCET
_database_code_depnum_ccdc_archive 'CCDC 810818'
_chemical_formula_sum 'C14 H14 N4 O7'
_chemical_formula_moiety
;
C14 H14 N4 O7
;
_journal_coden_Cambridge 177
_journal_volume 9
_journal_year 2011
_journal_page_first 3380
_journal_name_full 'Org.Biomol.Chem. '
loop_
_publ_author_name
"C.Goeschen"
"N.Wibowo"
"J.M.White"
"U.Wille"
_chemical_name_systematic
;
Methyl 
1-acetyl-3a,5-dinitro-1,2,3,3a,8,8a-hexahydropyrrolo[2,3-b]indole-2-carboxylat
e
;
_cell_volume    770.778
_exptl_crystal_colour 'colorless'
_exptl_crystal_density_diffrn 1.509
_exptl_crystal_description 'plate'
_diffrn_ambient_temperature 130
#These two values have been output from a single CSD field.
_refine_ls_R_factor_gt 0.057
_refine_ls_wR_factor_gt 0.057
_symmetry_cell_setting monoclinic
_symmetry_space_group_name_H-M 'P 21'
_symmetry_Int_Tables_number 4
loop_
_symmetry_equiv_pos_site_id
_symmetry_equiv_pos_as_xyz
1 x,y,z
2 -x,1/2+y,-z
_cell_length_a 6.3831(14)
_cell_length_b 7.837(3)
_cell_length_c 15.410(3)
_cell_angle_alpha 90
_cell_angle_beta 90.91(3)
_cell_angle_gamma 90
_cell_formula_units_Z 2
loop_
_atom_type_symbol
_atom_type_radius_bond
C 0.68
H 0.23
N 0.68
O 0.68
loop_
_atom_site_label
_atom_site_type_symbol
_atom_site_fract_x
_atom_site_fract_y
_atom_site_fract_z
O1 O 0.5418(10) 0.1796(10) 0.3188(4)
O2 O 0.2660(11) 0.4336(9) 0.4249(5)
O3 O 0.1387(11) 0.1711(10) 0.4557(5)
O4 O 0.5721(11) -0.0150(9) 0.2194(5)
O5 O 0.1775(12) 0.7080(8) 0.2274(5)
O6 O 0.2461(10) -0.1782(8) -0.1465(4)
N1 N 0.2754(13) 0.432(1) 0.1160(6)
H1 H 0.26750 0.53570 0.09790
N2 N 0.1230(15) 0.4352(10) 0.2606(6)
N3 N 0.4887(15) 0.1076(11) 0.2499(7)
N4 N 0.2454(13) -0.1791(11) -0.0659(7)
C1 C 0.0507(15) 0.2925(14) 0.3155(6)
H2 H -0.10130 0.30110 0.32250
C2 C 0.1587(16) 0.2900(16) 0.4059(6)
C3 C 0.2626(15) 0.2948(15) 0.0625(7)
C4 C 0.2916(16) 0.1817(13) 0.2060(7)
C5 C 0.2660(15) -0.0167(13) 0.0697(7)
H3 H 0.27180 -0.11890 0.10030
C6 C 0.2460(16) -0.0127(14) -0.0183(7)
C7 C 0.1010(16) 0.1320(11) 0.2624(7)
H4 H -0.01790 0.09980 0.22590
H5 H 0.13620 0.03720 0.30040
C8 C 0.2518(15) 0.2886(15) -0.0272(7)
H6 H 0.24980 0.38960 -0.05890
C9 C 0.3555(14) 0.4386(17) 0.5126(7)
H7 H 0.42880 0.54440 0.52110
H8 H 0.45130 0.34520 0.52030
H9 H 0.24530 0.42960 0.55400
C10 C 0.2772(16) 0.1410(13) 0.1116(7)
C11 C -0.1120(14) 0.6454(13) 0.3203(7)
H10 H -0.07530 0.63760 0.38080
H11 H -0.22150 0.56520 0.30690
H12 H -0.15990 0.75890 0.30730
C12 C 0.2442(15) 0.1373(13) -0.0692(7)
H13 H 0.23790 0.13210 -0.12940
C13 C 0.3035(18) 0.3864(11) 0.2064(8)
H14 H 0.43680 0.42830 0.23050
C14 C 0.073(2) 0.6064(14) 0.2678(9)
O7 O 0.2356(11) -0.3143(8) -0.0216(5)
#END
