
#######################################################################
#
#                 Cambridge Crystallographic Data Centre
#                                CCDC
#
#######################################################################
#
# If this CIF has been generated from an entry in the Cambridge
# Structural Database, then it will include bibliographic, chemical,
# crystal, experimental, refinement or atomic coordinate data resulting
# from the CCDC's data processing and validation procedures.
#
#######################################################################

data_CSD_CIF_EQOGEW
_audit_creation_date 2004-05-06
_audit_creation_method CSD-ConQuest-V1
_database_code_CSD EQOGEW
_database_code_depnum_ccdc_archive 'CCDC 191239'
_chemical_formula_sum 'C18 H19 N1 O2'
_chemical_formula_moiety
;
C18 H19 N1 O2
;
_journal_coden_Cambridge 16
_journal_volume 59
_journal_year 2003
_journal_page_first 9997
_journal_name_full 'Tetrahedron '
loop_
_publ_author_name
"H.A.Dondas"
"C.W.G.Fishwick"
"R.Grigg"
"M.Thornton-Pett"
_chemical_name_systematic
;
5,6,9,10-Tetrahydro-4'H-spiro(5,9-methanobenzo(8)annulene-11,8'-(7)oxa(1)azabi
cyclo(3.2.1)octan)-4'-one
;
_chemical_melting_point 454.15
_cell_volume   1392.267
_exptl_crystal_colour 'colorless'
_exptl_crystal_density_diffrn 1.342
_exptl_special_details
;
Melting point range 454.15-456.15K

;
_exptl_crystal_description 'prism'
_exptl_crystal_preparation 'hexane/dichloromethane'
_diffrn_ambient_temperature 293
#These two values have been output from a single CSD field.
_refine_ls_R_factor_gt 0.0485
_refine_ls_wR_factor_gt 0.0485
_symmetry_cell_setting triclinic
_symmetry_space_group_name_H-M 'P -1'
_symmetry_Int_Tables_number 2
loop_
_symmetry_equiv_pos_site_id
_symmetry_equiv_pos_as_xyz
1 x,y,z
2 -x,-y,-z
_cell_length_a 7.9484(2)
_cell_length_b 13.0733(3)
_cell_length_c 14.7801(3)
_cell_angle_alpha 113.051(2)
_cell_angle_beta 90.175(2)
_cell_angle_gamma 99.008(2)
_cell_formula_units_Z 4
loop_
_atom_type_symbol
_atom_type_radius_bond
C 0.68
H 0.23
N 0.68
O 0.68
loop_
_atom_site_label
_atom_site_type_symbol
_atom_site_fract_x
_atom_site_fract_y
_atom_site_fract_z
N1 N 1.1167(2) 0.76260(11) 0.11649(9)
O1 O 1.1994(2) 0.66406(10) 0.07177(9)
C1 C 1.2163(3) 0.64264(15) -0.03152(13)
H1 H 1.1614(3) 0.56653(15) -0.07301(13)
H2 H 1.3357(3) 0.65180(15) -0.04514(13)
C2 C 1.1290(2) 0.72897(12) -0.05050(11)
H3 H 1.0691(2) 0.69820(12) -0.11612(11)
C3 C 1.2538(2) 0.83583(14) -0.03136(13)
O2 O 1.2701(2) 0.88078(11) -0.08953(10)
C4 C 1.3553(2) 0.8809(2) 0.06595(14)
H4 H 1.3946(2) 0.9611(2) 0.08584(14)
H5 H 1.4552(2) 0.8448(2) 0.05805(14)
C5 C 1.2534(2) 0.8617(2) 0.14859(13)
H6 H 1.3328(2) 0.8547(2) 0.19495(13)
H7 H 1.2033(2) 0.9282(2) 0.18373(13)
C6 C 1.0043(2) 0.75513(12) 0.03342(10)
C7 C 0.8528(2) 0.65831(13) 0.01300(11)
H8 H 0.8975(2) 0.58754(13) -0.00620(11)
C8 C 0.7585(2) 0.6765(2) 0.10719(13)
H9 H 0.6486(2) 0.6268(2) 0.09026(13)
H10 H 0.8239(2) 0.6565(2) 0.15144(13)
C9 C 0.7316(2) 0.7957(2) 0.15896(13)
H11 H 0.6580(2) 0.8121(2) 0.20965(13)
C10 C 0.8071(2) 0.8787(2) 0.13613(12)
H12 H 0.7849(2) 0.9510(2) 0.17192(12)
C11 C 0.9277(2) 0.86267(12) 0.05502(11)
H13 H 1.0206(2) 0.92776(12) 0.07619(11)
C12 C 0.8346(2) 0.85380(13) -0.03971(12)
H14 H 0.7668(2) 0.91343(13) -0.02310(12)
H15 H 0.9187(2) 0.86560(13) -0.08362(12)
C13 C 0.7196(2) 0.74185(13) -0.09319(11)
C14 C 0.7325(2) 0.64891(12) -0.07064(11)
C15 C 0.6281(2) 0.54551(13) -0.12503(12)
H16 H 0.6366(2) 0.48315(13) -0.11078(12)
C16 C 0.5126(2) 0.5346(2) -0.19967(12)
H17 H 0.4435(2) 0.4655(2) -0.23495(12)
C17 C 0.4999(2) 0.6264(2) -0.22175(12)
H18 H 0.4227(2) 0.6193(2) -0.27210(12)
C18 C 0.6024(2) 0.7287(2) -0.16879(12)
H19 H 0.5930(2) 0.7904(2) -0.18389(12)
N2 N 0.5204(2) 0.76965(12) 0.61576(10)
O3 O 0.3852(2) 0.6711(1) 0.57451(9)
C19 C 0.3542(2) 0.64439(15) 0.47044(13)
H20 H 0.2390(2) 0.65266(15) 0.45633(13)
H21 H 0.3692(2) 0.56753(15) 0.43132(13)
C20 C 0.4849(2) 0.72803(13) 0.44764(11)
H22 H 0.5268(2) 0.69451(13) 0.38193(11)
C21 C 0.4134(2) 0.83339(14) 0.46300(13)
O4 O 0.4149(2) 0.87388(11) 0.40177(10)
C22 C 0.3391(3) 0.8826(2) 0.56080(15)
H23 H 0.2209(3) 0.8466(2) 0.55495(15)
H24 H 0.3404(3) 0.9623(2) 0.57775(15)
C23 C 0.4353(2) 0.8688(2) 0.64507(13)
H25 H 0.5207(2) 0.9359(2) 0.67732(13)
H26 H 0.3548(2) 0.8649(2) 0.69327(13)
C24 C 0.6256(2) 0.75769(12) 0.53115(10)
C25 C 0.7265(2) 0.66118(13) 0.51435(11)
H27 H 0.6451(2) 0.59094(13) 0.49808(11)
C26 C 0.8327(2) 0.6848(2) 0.60972(13)
H28 H 0.7581(2) 0.6682(2) 0.65579(13)
H29 H 0.9166(2) 0.6351(2) 0.59484(13)
C27 C 0.9221(2) 0.8043(2) 0.65702(13)
H30 H 1.0051(2) 0.8233(2) 0.70804(13)
C28 C 0.8888(2) 0.8844(2) 0.62974(12)
H31 H 0.9493(2) 0.9571(2) 0.66273(12)
C29 C 0.7579(2) 0.86404(12) 0.54797(11)
H32 H 0.6991(2) 0.92914(12) 0.56649(11)
C30 C 0.8429(2) 0.84856(13) 0.45120(12)
H33 H 0.7629(2) 0.85671(13) 0.40581(12)
H34 H 0.9412(2) 0.90798(13) 0.46471(12)
C31 C 0.9000(2) 0.73612(12) 0.40239(11)
C32 C 0.8402(2) 0.64680(12) 0.42961(11)
C33 C 0.8904(2) 0.54240(13) 0.37871(12)
H35 H 0.8504(2) 0.48217(13) 0.39593(12)
C34 C 0.9982(2) 0.52745(15) 0.30346(12)
H36 H 1.0309(2) 0.45761(15) 0.27054(12)
C35 C 1.0576(2) 0.6157(2) 0.27699(12)
H37 H 1.1301(2) 0.6057(2) 0.22609(12)
C36 C 1.0089(2) 0.71934(15) 0.32636(11)
H38 H 1.0496(2) 0.77890(15) 0.30841(11)
#END
