
#######################################################################
#
#                 Cambridge Crystallographic Data Centre
#                                CCDC
#
#######################################################################
#
# If this CIF has been generated from an entry in the Cambridge
# Structural Database, then it will include bibliographic, chemical,
# crystal, experimental, refinement or atomic coordinate data resulting
# from the CCDC's data processing and validation procedures.
#
#######################################################################

data_CSD_CIF_EQUKIK
_audit_creation_date 2004-05-06
_audit_creation_method CSD-ConQuest-V1
_database_code_CSD EQUKIK
_database_code_depnum_ccdc_archive 'CCDC 216443'
_chemical_formula_sum 'C20 H36 N4 O4'
_chemical_formula_moiety
;
C20 H36 N4 O4
;
_journal_coden_Cambridge 29
_journal_volume 629
_journal_year 2003
_journal_page_first 2291
_journal_name_full 'Z.Anorg.Allg.Chem. '
loop_
_publ_author_name
"C.Sommer"
"W.Ponikwar"
"W.Ponikwar"
"H.Noth"
"W.Beck"
_chemical_name_systematic
;
trans-N,N'-bis(2,2,6,6-Tetramethylpiperidin-4-yl N-oxide)oxamide
;
_cell_volume   2121.084
_exptl_crystal_colour 'orange'
_exptl_crystal_density_diffrn 1.242
_exptl_crystal_description 'needle'
_diffrn_ambient_temperature 293
#These two values have been output from a single CSD field.
_refine_ls_R_factor_gt 0.0574
_refine_ls_wR_factor_gt 0.0574
_symmetry_cell_setting monoclinic
_symmetry_space_group_name_H-M 'P 21/c'
_symmetry_Int_Tables_number 14
loop_
_symmetry_equiv_pos_site_id
_symmetry_equiv_pos_as_xyz
1 x,y,z
2 x,1/2-y,1/2+z
3 -x,-y,-z
4 -x,-1/2+y,-1/2-z
_cell_length_a 8.101(10)
_cell_length_b 24.32(3)
_cell_length_c 11.333(13)
_cell_angle_alpha 90
_cell_angle_beta 108.20(8)
_cell_angle_gamma 90
_cell_formula_units_Z 4
loop_
_atom_type_symbol
_atom_type_radius_bond
C 0.68
H 0.23
N 0.68
O 0.68
loop_
_atom_site_label
_atom_site_type_symbol
_atom_site_fract_x
_atom_site_fract_y
_atom_site_fract_z
O1 O 0.3390(3) 0.50585(11) -0.1437(2)
O2 O -0.2095(3) 0.32751(11) -0.2744(3)
O3 O 0.0076(4) 0.54765(11) -0.6122(2)
O4 O 0.7187(3) 0.68226(10) -0.2264(2)
N1 N 0.3766(4) 0.44054(11) 0.0061(3)
H1 H 0.463(4) 0.4343(14) 0.078(3)
N2 N -0.0741(4) 0.35435(11) -0.2120(3)
N3 N 0.1755(4) 0.54076(13) -0.4134(3)
H2 H 0.185(5) 0.5217(15) -0.348(3)
N4 N 0.5879(3) 0.65198(11) -0.2802(3)
C1 C 0.4177(4) 0.48609(14) -0.0425(3)
C2 C 0.2276(4) 0.40361(13) -0.0466(3)
H3 H 0.22620 0.37680 0.01760
C3 C 0.2404(4) 0.37214(14) -0.1582(3)
H4 H 0.35250 0.35400 -0.13700
H5 H 0.23370 0.39780 -0.22500
C4 C 0.0972(4) 0.32911(13) -0.2037(3)
C5 C -0.1018(5) 0.39633(13) -0.1238(3)
C6 C 0.0563(4) 0.43412(13) -0.0824(3)
H6 H 0.05250 0.45950 -0.14920
H7 H 0.05000 0.45560 -0.01180
C7 C 0.1285(5) 0.27956(14) -0.1159(4)
H8 H 0.03040 0.25530 -0.14160
H9 H 0.14400 0.29200 -0.03280
H10 H 0.23090 0.26040 -0.11840
C8 C 0.0886(5) 0.30990(16) -0.3330(3)
H11 H 0.00110 0.28200 -0.36020
H12 H 0.19920 0.29510 -0.33130
H13 H 0.05990 0.34040 -0.38950
C9 C -0.1348(5) 0.36691(16) -0.0133(4)
H14 H -0.03100 0.34810 0.03410
H15 H -0.22720 0.34080 -0.04350
H16 H -0.16670 0.39340 0.03840
C10 C -0.2611(5) 0.42968(16) -0.1929(4)
H17 H -0.24710 0.44390 -0.26830
H18 H -0.27460 0.45970 -0.14160
H19 H -0.36220 0.40660 -0.21250
C11 C 0.0483(4) 0.52542(13) -0.5113(3)
C12 C 0.2936(5) 0.58625(14) -0.4099(3)
H20 H 0.26120 0.60400 -0.49160
C13 C 0.2830(5) 0.62783(14) -0.3133(3)
H21 H 0.30030 0.60870 -0.23530
H22 H 0.16660 0.64310 -0.33830
C14 C 0.4124(4) 0.67509(14) -0.2912(3)
C15 C 0.6171(5) 0.60778(14) -0.3632(3)
C16 C 0.4763(5) 0.56456(14) -0.3788(3)
H23 H 0.48140 0.53940 -0.44400
H24 H 0.50210 0.54360 -0.30240
C17 C 0.3605(5) 0.71727(15) -0.3974(4)
H25 H 0.45460 0.74250 -0.38880
H26 H 0.25950 0.73710 -0.39420
H27 H 0.33500 0.69850 -0.47560
C18 C 0.4229(5) 0.70366(15) -0.1692(3)
H28 H 0.46150 0.67790 -0.10200
H29 H 0.31020 0.71740 -0.17310
H30 H 0.50370 0.73370 -0.15570
C19 C 0.7939(5) 0.58232(17) -0.2980(4)
H31 H 0.79990 0.57210 -0.21490
H32 H 0.88360 0.60850 -0.29520
H33 H 0.80950 0.55020 -0.34270
C20 C 0.6172(6) 0.63229(17) -0.4881(4)
H34 H 0.50170 0.64380 -0.53410
H35 H 0.65590 0.60500 -0.53480
H36 H 0.69400 0.66340 -0.47350
C1B C 0.5823(4) 0.51391(14) 0.0425(3)
O1B O 0.6610(3) 0.49415(11) 0.1437(2)
N1B N 0.6234(4) 0.55946(11) -0.0061(3)
H1B H 0.537(4) 0.5657(14) -0.078(3)
C2B C 0.7724(4) 0.59639(13) 0.0466(3)
H3B H 0.77380 0.62320 -0.01760
C3B C 0.7596(4) 0.62786(14) 0.1582(3)
H4B H 0.64750 0.64600 0.13700
H5B H 0.76630 0.60220 0.22500
C4B C 0.9028(4) 0.67089(13) 0.2037(3)
N2B N 1.0741(4) 0.64565(11) 0.2120(3)
O2B O 1.2095(3) 0.67249(11) 0.2744(3)
C5B C 1.1018(5) 0.60367(13) 0.1238(3)
C6B C 0.9437(4) 0.56588(13) 0.0824(3)
H6B H 0.94750 0.54050 0.14920
H7B H 0.95000 0.54440 0.01180
C9B C 1.1348(5) 0.63309(16) 0.0133(4)
H14B H 1.03100 0.65190 -0.03410
H15B H 1.22720 0.65920 0.04350
H16B H 1.16670 0.60660 -0.03840
C10B C 1.2611(5) 0.57032(16) 0.1929(4)
H17B H 1.24710 0.55610 0.26830
H18B H 1.27460 0.54030 0.14160
H19B H 1.36220 0.59340 0.21250
C7B C 0.8715(5) 0.72044(14) 0.1159(4)
H8B H 0.96960 0.74470 0.14160
H9B H 0.85600 0.70800 0.03280
H10B H 0.76910 0.73960 0.11840
C8B C 0.9114(5) 0.69010(16) 0.3330(3)
H11B H 0.99890 0.71800 0.36020
H12B H 0.80080 0.70490 0.33130
H13B H 0.94010 0.65960 0.38950
C11B C -0.0483(4) 0.47458(13) -0.4887(3)
O3B O -0.0076(4) 0.45235(11) -0.3878(2)
N3B N -0.1755(4) 0.45924(13) -0.5866(3)
H2B H -0.185(5) 0.4783(15) -0.652(3)
C12B C -0.2936(5) 0.41375(14) -0.5901(3)
H20B H -0.26120 0.39600 -0.50840
C13B C -0.2830(5) 0.37217(14) -0.6867(3)
H21B H -0.30030 0.39130 -0.76470
H22B H -0.16660 0.35690 -0.66170
C14B C -0.4124(4) 0.32491(14) -0.7088(3)
N4B N -0.5879(3) 0.34802(11) -0.7198(3)
O4B O -0.7187(3) 0.31774(10) -0.7736(2)
C15B C -0.6171(5) 0.39222(14) -0.6368(3)
C16B C -0.4763(5) 0.43544(14) -0.6212(3)
H23B H -0.48140 0.46060 -0.55600
H24B H -0.50210 0.45640 -0.69760
C19B C -0.7939(5) 0.41768(17) -0.7020(4)
H31B H -0.79990 0.42790 -0.78510
H32B H -0.88360 0.39150 -0.70480
H33B H -0.80950 0.44980 -0.65730
C20B C -0.6172(6) 0.36771(17) -0.5119(4)
H34B H -0.50170 0.35620 -0.46590
H35B H -0.65590 0.39500 -0.46520
H36B H -0.69400 0.33660 -0.52650
C17B C -0.3605(5) 0.28273(15) -0.6026(4)
H25B H -0.45460 0.25750 -0.61120
H26B H -0.25950 0.26290 -0.60580
H27B H -0.33500 0.30150 -0.52440
C18B C -0.4229(5) 0.29634(15) -0.8308(3)
H28B H -0.46150 0.32210 -0.89800
H29B H -0.31020 0.28260 -0.82690
H30B H -0.50370 0.26630 -0.84430
#END
