
#######################################################################
#
#                 Cambridge Crystallographic Data Centre
#                                CCDC
#
#######################################################################
#
# If this CIF has been generated from an entry in the Cambridge
# Structural Database, then it will include bibliographic, chemical,
# crystal, experimental, refinement or atomic coordinate data resulting
# from the CCDC's data processing and validation procedures.
#
#######################################################################

data_CSD_CIF_EQUMEK
_audit_creation_date 2016-07-29
_audit_creation_method CSD-ConQuest-V1
_database_code_CSD EQUMEK
_database_code_depnum_ccdc_archive 'CCDC 1496604'
_chemical_formula_sum 'C39 H24 N2 O5'
_chemical_formula_moiety
;
C39 H24 N2 O5
;
_journal_coden_Cambridge 1078
_journal_year 2016
_journal_name_full 'CSD Communication(Private Communication) '
loop_
_publ_author_name
"J.M.W.R.Goh"
_chemical_name_systematic
;
19-(4-nitrophenyl)-1,16-diphenyl-19-azahexacyclo[14.5.1.0^2,15^.0^3,8^.0^9,14^
.0^17,21^]docosa-2(15),3(8),4,6,9(14),10,12-heptaene-18,20,22-trione
;
_cell_volume   1432.397
_exptl_crystal_colour 'colorless'
_exptl_crystal_density_diffrn 1.393
_exptl_crystal_description 'plate'
_diffrn_ambient_temperature 130
#These two values have been output from a single CSD field.
_refine_ls_R_factor_gt 0.0463
_refine_ls_wR_factor_gt 0.0463
_symmetry_cell_setting triclinic
_symmetry_space_group_name_H-M 'P -1'
_symmetry_Int_Tables_number 2
loop_
_symmetry_equiv_pos_site_id
_symmetry_equiv_pos_as_xyz
1 x,y,z
2 -x,-y,-z
_cell_length_a 10.6718(14)
_cell_length_b 11.3171(15)
_cell_length_c 12.0634(16)
_cell_angle_alpha 89.630(2)
_cell_angle_beta 80.018(2)
_cell_angle_gamma 86.630(2)
_cell_formula_units_Z 2
loop_
_atom_type_symbol
_atom_type_radius_bond
C 0.68
H 0.23
N 0.68
O 0.68
loop_
_atom_site_label
_atom_site_type_symbol
_atom_site_fract_x
_atom_site_fract_y
_atom_site_fract_z
C1 C 0.18035(17) 0.82098(14) 0.39281(15)
H1 H 0.11810 0.83280 0.46460
C2 C 0.19567(16) 0.93949(15) 0.32271(15)
C3 C 0.30921(16) 0.91223(14) 0.22710(15)
C4 C 0.27497(17) 0.82806(15) 0.15764(15)
C5 C 0.13601(16) 0.79909(15) 0.19949(15)
C6 C 0.13486(17) 0.73109(14) 0.31358(15)
H2 H 0.04750 0.70620 0.34510
C7 C 0.09015(17) 0.92273(15) 0.25143(15)
C8 C 0.43722(17) 0.95024(15) 0.21397(15)
C9 C 0.47899(17) 1.02634(15) 0.29174(16)
H3 H 0.41960 1.05670 0.35440
C10 C 0.60278(17) 1.05678(16) 0.27829(17)
H4 H 0.62900 1.10720 0.33160
C11 C 0.69105(19) 1.01326(17) 0.18548(18)
H5 H 0.77660 1.03600 0.17520
C12 C 0.65491(18) 0.93840(17) 0.10968(17)
H6 H 0.71610 0.90950 0.04760
C13 C 0.52729(17) 0.90295(15) 0.12192(15)
C14 C 0.49119(17) 0.81345(16) 0.04876(15)
C15 C 0.58057(19) 0.75902(18) -0.03967(17)
H7 H 0.66300 0.78880 -0.05810
C16 C 0.5514(2) 0.66501(19) -0.09903(18)
H8 H 0.61340 0.63050 -0.15770
C17 C 0.43062(19) 0.61924(18) -0.07376(17)
H9 H 0.41200 0.55160 -0.11280
C18 C 0.33933(18) 0.67246(16) 0.00764(16)
H10 H 0.25670 0.64270 0.02280
C19 C 0.36650(17) 0.77114(15) 0.06948(15)
C20 C 0.18401(16) 1.05504(15) 0.38674(16)
C21 C 0.18747(17) 1.06195(16) 0.50076(16)
H11 H 0.19500 0.99130 0.54270
C22 C 0.18004(18) 1.17117(16) 0.55447(17)
H12 H 0.18490 1.17510 0.63220
C23 C 0.16547(18) 1.27493(16) 0.49357(18)
H13 H 0.15930 1.34960 0.53020
C24 C 0.15993(17) 1.26923(16) 0.37975(17)
H14 H 0.14900 1.33980 0.33850
C25 C 0.17044(17) 1.16021(15) 0.32654(16)
H15 H 0.16840 1.15650 0.24820
C26 C 0.05846(16) 0.75634(15) 0.11631(16)
C27 C 0.05771(18) 0.82012(17) 0.01681(17)
H16 H 0.10260 0.89040 0.00510
C28 C -0.00725(19) 0.78248(18) -0.06473(17)
H17 H -0.00400 0.82510 -0.13320
C29 C -0.07739(18) 0.68227(17) -0.04691(18)
H18 H -0.12250 0.65640 -0.10270
C30 C -0.08087(19) 0.62079(17) 0.05267(18)
H19 H -0.13070 0.55360 0.06610
C31 C -0.01219(17) 0.65614(16) 0.13378(17)
H20 H -0.01360 0.61180 0.20110
C32 C 0.30791(17) 0.76840(15) 0.41376(15)
C33 C 0.23195(17) 0.62696(15) 0.30366(15)
C34 C 0.44983(17) 0.58816(15) 0.35047(15)
C35 C 0.45050(17) 0.46726(15) 0.37127(15)
H21 H 0.37250 0.42980 0.39130
C36 C 0.56592(17) 0.40153(15) 0.36259(15)
H22 H 0.56820 0.31860 0.37560
C37 C 0.67732(17) 0.45946(15) 0.33455(15)
C38 C 0.67798(18) 0.57985(16) 0.31173(16)
H23 H 0.75620 0.61700 0.29140
C39 C 0.56315(17) 0.64470(16) 0.31905(16)
H24 H 0.56130 0.72700 0.30290
O1 O -0.00081(12) 0.98598(11) 0.23985(11)
O2 O 0.38129(12) 0.81183(10) 0.46549(11)
O3 O 0.22888(12) 0.53434(10) 0.25471(11)
O4 O 0.89618(14) 0.44701(13) 0.32666(17)
O5 O 0.80194(14) 0.28294(12) 0.33198(15)
N1 N 0.33120(14) 0.65724(12) 0.35900(13)
N2 N 0.80028(16) 0.39132(14) 0.33010(15)
#END
