
#######################################################################
#
#                 Cambridge Crystallographic Data Centre
#                                CCDC
#
#######################################################################
#
# If this CIF has been generated from an entry in the Cambridge
# Structural Database, then it will include bibliographic, chemical,
# crystal, experimental, refinement or atomic coordinate data resulting
# from the CCDC's data processing and validation procedures.
#
#######################################################################

data_CSD_CIF_EQURUF
_audit_creation_date 2016-07-29
_audit_creation_method CSD-ConQuest-V1
_database_code_CSD EQURUF
_database_code_depnum_ccdc_archive 'CCDC 1482424'
_chemical_formula_sum 'C18 H25 N2 O4'
_chemical_formula_moiety
;
C18 H25 N2 O4
;
_journal_coden_Cambridge 1220
_journal_volume 22
_journal_year 2016
_journal_page_first 12825
_journal_name_full 'Chem.-Eur.J. '
loop_
_publ_author_name
"T.Hauenschild"
"J.Reichenwallner"
"V.Enkelmann"
"D.Hinderberger"
_chemical_name_systematic
;
4-acetamidophenyl 2,2,6,6-tetramethylpiperidine-4-carboxylate N-oxy radical
;
_chemical_name_common
;
N-Acetyl-4-aminophenyl 2,2,6,6-tetramethylpiperidine-1-oxyl-4-carboxylate
;
_chemical_melting_point 427.5
_cell_volume   1799.271
_exptl_crystal_colour 'red'
_exptl_crystal_density_diffrn 1.227
_exptl_crystal_description 'prism'
_diffrn_ambient_temperature 120
#These two values have been output from a single CSD field.
_refine_ls_R_factor_gt 0.0612
_refine_ls_wR_factor_gt 0.0612
_symmetry_cell_setting monoclinic
_symmetry_space_group_name_H-M 'P 21/a'
_symmetry_Int_Tables_number 14
loop_
_symmetry_equiv_pos_site_id
_symmetry_equiv_pos_as_xyz
1 x,y,z
2 1/2-x,1/2+y,-z
3 -x,-y,-z
4 -1/2+x,-1/2-y,z
_cell_length_a 10.0822(8)
_cell_length_b 8.8681(5)
_cell_length_c 20.2511(9)
_cell_angle_alpha 90
_cell_angle_beta 96.427(3)
_cell_angle_gamma 90
_cell_formula_units_Z 4
loop_
_atom_type_symbol
_atom_type_radius_bond
C 0.68
H 0.23
N 0.68
O 0.68
loop_
_atom_site_label
_atom_site_type_symbol
_atom_site_fract_x
_atom_site_fract_y
_atom_site_fract_z
N1 N 0.30701(13) 0.39864(15) 0.47828(6)
N2 N 0.98071(8) 0.57672(9) 0.11756(5)
O1 O 0.17193(14) 0.59779(13) 0.46884(5)
O2 O 0.61177(8) 0.43758(8) 0.26352(4)
O3 O 0.67491(10) 0.67854(9) 0.28260(4)
O4 O 1.06784(7) 0.57707(8) 0.07605(4)
C1 C 0.86011(9) 0.67337(11) 0.09994(5)
C2 C 0.78433(10) 0.69003(11) 0.15989(5)
C3 C 0.76002(10) 0.54012(12) 0.19401(5)
C4 C 0.91060(11) 0.83024(12) 0.08124(6)
C5 C 0.42363(13) 0.52847(13) 0.31775(5)
C6 C 0.53413(12) 0.43813(11) 0.31761(5)
C7 C 0.68011(11) 0.56430(12) 0.25101(5)
C8 C 0.89594(11) 0.47143(13) 0.21862(6)
C9 C 0.77477(11) 0.60617(15) 0.03934(5)
C10 C 0.37954(14) 0.41797(13) 0.42091(6)
C11 C 0.34667(13) 0.51952(13) 0.36933(6)
C12 C 0.48883(14) 0.32623(14) 0.41898(6)
C13 C 0.98337(10) 0.44317(12) 0.16278(6)
C14 C 0.56707(14) 0.33431(14) 0.36756(6)
C15 C 1.12935(12) 0.42437(14) 0.19386(8)
C16 C 0.94055(13) 0.30216(14) 0.12278(8)
C17 C 0.16448(18) 0.42800(15) 0.56298(6)
C18 C 0.21685(18) 0.48299(18) 0.49825(7)
H1 H 0.83480 0.75290 0.19140
H2 H 0.70050 0.73590 0.14640
H3 H 0.71280 0.47420 0.16270
H4 H 0.83710 0.89570 0.06940
H5 H 0.96490 0.87060 0.11840
H6 H 0.96180 0.82090 0.04480
H7 H 0.40160 0.59760 0.28240
H8 H 0.94160 0.53810 0.25010
H9 H 0.88210 0.37750 0.23930
H10 H 0.69840 0.66780 0.02830
H11 H 0.82520 0.60090 0.00250
H12 H 0.74720 0.50770 0.05020
H13 H 0.26880 0.57990 0.36950
H14 H 0.50880 0.25520 0.45380
H15 H 0.64190 0.26980 0.36610
H16 H 1.13500 0.34010 0.22300
H17 H 1.15660 0.51280 0.21820
H18 H 1.18600 0.40850 0.16000
H19 H 0.94160 0.21850 0.15210
H20 H 1.00150 0.28470 0.09110
H21 H 0.85320 0.31470 0.10050
H22 H 0.09820 0.49740 0.57350
H23 H 0.23530 0.42600 0.59810
H24 H 0.12630 0.33030 0.55730
#END
