
#######################################################################
#
#                 Cambridge Crystallographic Data Centre
#                                CCDC
#
#######################################################################
#
# If this CIF has been generated from an entry in the Cambridge
# Structural Database, then it will include bibliographic, chemical,
# crystal, experimental, refinement or atomic coordinate data resulting
# from the CCDC's data processing and validation procedures.
#
#######################################################################

data_CSD_CIF_EQUSUE
_audit_creation_date 2004-05-06
_audit_creation_method CSD-ConQuest-V1
_database_code_CSD EQUSUE
_database_code_depnum_ccdc_archive 'CCDC 211265'
_chemical_formula_sum 'C31 H27 N1 O4'
_chemical_formula_moiety
;
C31 H27 N1 O4
;
_journal_coden_Cambridge 24
_journal_volume 45
_journal_year 2004
_journal_page_first 391
_journal_name_full 'Tetrahedron Lett. '
loop_
_publ_author_name
"O.Correc"
"K.Guillou"
"J.Hamelin"
"L.Paquin"
"F.Texier-Boullet"
"L.Toupet"
_chemical_name_systematic
;
trans-2-Benzoyl-4-nitro-1,3,5-triphenylcyclohexan-1-ol
;
_cell_volume   2468.449
_exptl_crystal_colour 'colorless'
_exptl_crystal_density_diffrn 1.285
_exptl_special_details
;
irradiated product

;
_exptl_crystal_description 'prism'
_exptl_crystal_preparation 'ethanol'
_diffrn_ambient_temperature 293
#These two values have been output from a single CSD field.
_refine_ls_R_factor_gt 0.0425
_refine_ls_wR_factor_gt 0.0425
_symmetry_cell_setting monoclinic
_symmetry_space_group_name_H-M 'P 21/c'
_symmetry_Int_Tables_number 14
loop_
_symmetry_equiv_pos_site_id
_symmetry_equiv_pos_as_xyz
1 x,y,z
2 x,1/2-y,1/2+z
3 -x,-y,-z
4 -x,-1/2+y,-1/2-z
_cell_length_a 17.554(9)
_cell_length_b 6.234(4)
_cell_length_c 22.628(9)
_cell_angle_alpha 90
_cell_angle_beta 94.54(4)
_cell_angle_gamma 90
_cell_formula_units_Z 4
loop_
_atom_type_symbol
_atom_type_radius_bond
C 0.68
H 0.23
N 0.68
O 0.68
loop_
_atom_site_label
_atom_site_type_symbol
_atom_site_fract_x
_atom_site_fract_y
_atom_site_fract_z
O1 O 0.84219(8) -0.1806(2) 0.46206(6)
O2 O 0.69051(8) -0.2724(2) 0.43716(7)
O3 O 0.79970(9) 0.4831(2) 0.36072(6)
O4 O 0.83135(9) 0.4252(3) 0.27246(6)
N1 N 0.82288(9) 0.3661(3) 0.32256(7)
C1 C 0.84143(10) 0.1374(3) 0.33873(8)
C2 C 0.90707(10) 0.1307(3) 0.38808(8)
C3 C 0.88035(11) 0.1775(3) 0.44938(8)
C4 C 0.8136(1) 0.0340(3) 0.46395(7)
C5 C 0.74535(10) 0.0654(3) 0.41647(7)
C6 C 0.76956(10) 0.0142(3) 0.35368(7)
C7 C 0.9734(1) 0.2676(3) 0.37029(8)
C8 C 0.99140(13) 0.4664(4) 0.39524(10)
C9 C 1.04893(14) 0.5905(5) 0.37416(11)
C10 C 1.08870(13) 0.5193(5) 0.32831(11)
C11 C 1.07202(12) 0.3229(4) 0.30354(10)
C12 C 1.01562(11) 0.1972(4) 0.32460(9)
C13 C 0.78776(10) 0.0881(3) 0.52534(8)
C14 C 0.75555(11) 0.2872(3) 0.53644(9)
C15 C 0.73124(12) 0.3355(4) 0.59127(9)
C16 C 0.73838(12) 0.1870(5) 0.63630(9)
C17 C 0.77076(13) -0.0080(5) 0.62634(9)
C18 C 0.79570(12) -0.0587(4) 0.57155(8)
C19 C 0.67855(11) -0.0810(3) 0.42773(8)
C20 C 0.59903(10) 0.0017(3) 0.42470(8)
C21 C 0.58006(12) 0.2113(4) 0.4383(1)
C22 C 0.50370(13) 0.2706(5) 0.43756(10)
C23 C 0.44671(14) 0.1246(5) 0.42255(10)
C24 C 0.46564(15) -0.0796(5) 0.40707(13)
C25 C 0.54043(13) -0.1424(4) 0.40865(11)
C26 C 0.70424(10) 0.0281(3) 0.30542(7)
C27 C 0.65631(11) 0.2039(4) 0.29841(9)
C28 C 0.59613(12) 0.2053(5) 0.25459(10)
C29 C 0.58345(14) 0.0309(5) 0.21829(10)
C30 C 0.63045(16) -0.1418(5) 0.22447(10)
C31 C 0.69097(13) -0.1450(4) 0.26744(9)
H1 H 0.8019(12) -0.261(3) 0.4568(9)
H2 H 0.8592(9) 0.084(3) 0.3018(8)
H3 H 0.9239(10) -0.014(3) 0.3885(7)
H4 H 0.9239(10) 0.145(3) 0.4803(7)
H5 H 0.8665(9) 0.329(3) 0.4529(7)
H6 H 0.7299(10) 0.210(3) 0.4191(7)
H7 H 0.7867(9) -0.133(3) 0.3544(7)
H8 H 0.9654(11) 0.519(3) 0.4264(9)
H9 H 1.0590(12) 0.723(4) 0.3924(9)
H10 H 1.1266(13) 0.603(3) 0.3129(9)
H11 H 1.1000(11) 0.271(3) 0.2730(9)
H12 H 1.0039(11) 0.063(3) 0.3075(8)
H13 H 0.7492(10) 0.389(3) 0.5049(8)
H14 H 0.7091(11) 0.467(3) 0.5972(8)
H15 H 0.7215(10) 0.225(3) 0.6719(9)
H16 H 0.7788(11) -0.111(3) 0.6570(9)
H17 H 0.8191(10) -0.198(3) 0.5655(8)
H18 H 0.6211(11) 0.314(3) 0.4481(8)
H19 H 0.4880(12) 0.410(4) 0.4486(9)
H20 H 0.3957(12) 0.169(3) 0.4231(8)
H21 H 0.4270(13) -0.180(4) 0.3954(9)
H22 H 0.5538(12) -0.284(4) 0.3999(9)
H23 H 0.6632(10) 0.319(3) 0.3229(8)
H24 H 0.5651(12) 0.326(3) 0.2531(8)
H25 H 0.5410(12) 0.035(3) 0.1894(9)
H26 H 0.6267(12) -0.259(4) 0.1996(10)
H27 H 0.7252(11) -0.270(3) 0.2724(8)
#END
