
#######################################################################
#
#                 Cambridge Crystallographic Data Centre
#                                CCDC
#
#######################################################################
#
# If this CIF has been generated from an entry in the Cambridge
# Structural Database, then it will include bibliographic, chemical,
# crystal, experimental, refinement or atomic coordinate data resulting
# from the CCDC's data processing and validation procedures.
#
#######################################################################

data_CSD_CIF_EQUTAL
_audit_creation_date 2004-05-06
_audit_creation_method CSD-ConQuest-V1
_database_code_CSD EQUTAL
_database_code_depnum_ccdc_archive 'CCDC 211266'
_chemical_formula_sum 'C21 H23 N1 O4'
_chemical_formula_moiety
;
C21 H23 N1 O4
;
_journal_coden_Cambridge 24
_journal_volume 45
_journal_year 2004
_journal_page_first 391
_journal_name_full 'Tetrahedron Lett. '
loop_
_publ_author_name
"O.Correc"
"K.Guillou"
"J.Hamelin"
"L.Paquin"
"F.Texier-Boullet"
"L.Toupet"
_chemical_name_systematic
;
cis-2-Acetyl-4-nitro-1-methyl-3,5-triphenylcyclohexan-1-ol
;
_cell_volume   3843.176
_exptl_crystal_colour 'colorless'
_exptl_crystal_density_diffrn 1.222
_exptl_special_details
;
irradiated product

;
_exptl_crystal_description 'block'
_exptl_crystal_preparation 'diethyl ether'
_diffrn_ambient_temperature 293
#These two values have been output from a single CSD field.
_refine_ls_R_factor_gt 0.0588
_refine_ls_wR_factor_gt 0.0588
loop_
_citation_database_id_CSD
_citation_special_details
IQOMOR "is a stereoisomer of this entry"
_symmetry_cell_setting monoclinic
_symmetry_space_group_name_H-M 'P 21/n'
_symmetry_Int_Tables_number 14
loop_
_symmetry_equiv_pos_site_id
_symmetry_equiv_pos_as_xyz
1 x,y,z
2 1/2-x,1/2+y,1/2-z
3 -x,-y,-z
4 -1/2+x,-1/2-y,-1/2+z
_cell_length_a 11.6335(2)
_cell_length_b 15.6087(3)
_cell_length_c 21.6113(5)
_cell_angle_alpha 90
_cell_angle_beta 101.6676(7)
_cell_angle_gamma 90
_cell_formula_units_Z 8
loop_
_atom_type_symbol
_atom_type_radius_bond
C 0.68
H 0.23
N 0.68
O 0.68
loop_
_atom_site_label
_atom_site_type_symbol
_atom_site_fract_x
_atom_site_fract_y
_atom_site_fract_z
O1 O 0.59553(11) 0.16844(9) 0.73251(8)
O2 O 0.50426(14) 0.05377(9) 0.74445(11)
O3 O 0.34417(15) 0.4033(1) 0.84240(9)
O4 O 0.34048(12) 0.39673(8) 0.70726(8)
H1 H 0.3513(17) 0.4233(13) 0.7441(10)
O5 O 0.49247(14) 0.69114(9) 0.75639(10)
O6 O 0.39872(11) 0.57442(9) 0.75831(8)
O7 O 0.65291(15) 0.34602(10) 0.64407(8)
O8 O 0.65136(11) 0.34664(8) 0.77803(7)
H2 H 0.6471(18) 0.3207(13) 0.7466(10)
N1 N 0.50663(12) 0.12970(9) 0.73558(8)
N2 N 0.48891(12) 0.61421(9) 0.75924(7)
C1 C 0.25086(14) 0.33523(10) 0.71069(9)
C2 C 0.27823(14) 0.28577(10) 0.77430(9)
H3 H 0.21770 0.24180 0.77330
C3 C 0.39881(14) 0.24052(10) 0.78351(8)
H4 H 0.45860 0.28380 0.78080
C4 C 0.39237(14) 0.17824(10) 0.72792(9)
H5 H 0.32870 0.13730 0.72840
C5 C 0.36922(14) 0.22442(11) 0.66404(9)
H6 H 0.43180 0.26660 0.66460
C6 C 0.25294(15) 0.27269(11) 0.65705(9)
H7 H 0.23860 0.30390 0.61740
H8 H 0.18990 0.23160 0.65540
C7 C 0.36991(16) 0.16374(12) 0.60948(9)
C8 C 0.4526(2) 0.17417(14) 0.57255(11)
H9 H 0.50830 0.21740 0.58210
C9 C 0.4536(3) 0.12106(17) 0.52153(13)
H10 H 0.51020 0.12850 0.49720
C10 C 0.3715(3) 0.05745(17) 0.50670(12)
H11 H 0.37160 0.02230 0.47200
C11 C 0.2888(3) 0.04580(17) 0.54334(15)
H12 H 0.23330 0.00240 0.53360
C12 C 0.28793(19) 0.09854(15) 0.59465(13)
H13 H 0.23210 0.09020 0.61940
C13 C 0.43339(15) 0.19531(12) 0.84649(9)
C14 C 0.53827(18) 0.21535(16) 0.88653(10)
H14 H 0.58680 0.25690 0.87460
C15 C 0.5723(2) 0.1741(2) 0.94444(13)
H15 H 0.64290 0.18860 0.97100
C16 C 0.5025(3) 0.11261(19) 0.96242(13)
H16 H 0.52570 0.08490 1.00100
C17 C 0.3984(3) 0.09190(17) 0.92341(14)
H17 H 0.35050 0.05020 0.93570
C18 C 0.3639(2) 0.13245(14) 0.86575(12)
H18 H 0.29320 0.11740 0.83950
C19 C 0.13205(17) 0.37986(13) 0.70130(11)
H19 H 0.13190 0.41930 0.73540
H20 H 0.07150 0.33790 0.70070
H21 H 0.11790 0.41050 0.66200
C20 C 0.27437(16) 0.34548(12) 0.82931(10)
C21 C 0.1793(2) 0.33091(19) 0.86536(12)
H22 H 0.18600 0.37230 0.89880
H23 H 0.18650 0.27430 0.88300
H24 H 0.10420 0.33680 0.83750
C22 C 0.74178(13) 0.40816(10) 0.77658(8)
C23 C 0.71539(13) 0.46174(10) 0.71511(8)
H25 H 0.77630 0.50580 0.71790
C24 C 0.59569(13) 0.50712(10) 0.70743(8)
H26 H 0.53550 0.46350 0.70860
C25 C 0.60259(13) 0.56583(10) 0.76523(8)
H27 H 0.66640 0.60710 0.76610
C26 C 0.62530(14) 0.51601(10) 0.82758(8)
H28 H 0.56200 0.47410 0.82600
C27 C 0.74071(14) 0.46736(11) 0.83270(8)
H29 H 0.75470 0.43360 0.87120
H30 H 0.80440 0.50830 0.83580
C28 C 0.56201(15) 0.55589(12) 0.64579(9)
C29 C 0.4625(2) 0.53252(18) 0.60330(11)
H31 H 0.41640 0.48770 0.61290
C30 C 0.4303(3) 0.5753(3) 0.54617(15)
H32 H 0.36340 0.55840 0.51750
C31 C 0.4951(3) 0.6412(2) 0.53188(14)
H33 H 0.47260 0.66940 0.49340
C32 C 0.5938(3) 0.66687(18) 0.57366(14)
H34 H 0.63790 0.71270 0.56380
C33 C 0.6276(2) 0.62403(14) 0.63081(12)
H35 H 0.69470 0.64130 0.65920
C34 C 0.62539(15) 0.57510(11) 0.88321(9)
C35 C 0.54038(17) 0.56616(13) 0.91925(10)
H36 H 0.48430 0.52320 0.90950
C36 C 0.5378(2) 0.62046(16) 0.96961(11)
H37 H 0.48020 0.61350 0.99340
C37 C 0.6193(2) 0.68433(16) 0.98462(12)
H38 H 0.61670 0.72120 1.01810
C38 C 0.7053(2) 0.69359(15) 0.94968(12)
H39 H 0.76180 0.73620 0.96010
C39 C 0.70795(19) 0.63975(13) 0.89928(11)
H40 H 0.76590 0.64690 0.87570
C40 C 0.85950(16) 0.36323(13) 0.78434(11)
H41 H 0.85930 0.32620 0.74890
H42 H 0.87310 0.32990 0.82250
H43 H 0.92060 0.40510 0.78660
C41 C 0.71852(15) 0.40633(12) 0.65719(9)
C42 C 0.8060(2) 0.42970(18) 0.61821(12)
H44 H 0.79960 0.39050 0.58340
H45 H 0.88360 0.42670 0.64380
H46 H 0.79090 0.48690 0.60230
#END
