
#######################################################################
#
#                 Cambridge Crystallographic Data Centre
#                                CCDC
#
#######################################################################
#
# If this CIF has been generated from an entry in the Cambridge
# Structural Database, then it will include bibliographic, chemical,
# crystal, experimental, refinement or atomic coordinate data resulting
# from the CCDC's data processing and validation procedures.
#
#######################################################################

data_CSD_CIF_EQUZIZ01
_audit_creation_date 2004-05-06
_audit_creation_method CSD-ConQuest-V1
_database_code_CSD EQUZIZ01
_database_code_depnum_ccdc_archive 'CCDC 204608'
_chemical_formula_sum 'C18 H18 N1 O5'
_chemical_formula_moiety
;
C18 H18 N1 O5
;
_journal_coden_Cambridge 1096
_journal_volume 15
_journal_year 2003
_journal_page_first 2861
_journal_name_full 'Chem.Mater. '
loop_
_publ_author_name
"L.M.Field"
"P.M.Lahti"
_chemical_name_systematic
;
4-(N-t-Butyl-N-aminoxyl)-1,1'-biphenyl-3',5'-dicarboxylic acid
;
_cell_volume   3310.636
_exptl_crystal_colour 'red'
_exptl_crystal_density_diffrn 1.318
_exptl_special_details
;
beta orthorhombic polymorph

;
_exptl_crystal_description 'needle'
_exptl_crystal_preparation 'THF/water'
_diffrn_ambient_temperature 298
#These two values have been output from a single CSD field.
_refine_ls_R_factor_gt 0.0637
_refine_ls_wR_factor_gt 0.0637
_symmetry_cell_setting orthorhombic
_symmetry_space_group_name_H-M 'P b c a'
_symmetry_Int_Tables_number 61
loop_
_symmetry_equiv_pos_site_id
_symmetry_equiv_pos_as_xyz
1 x,y,z
2 1/2+x,y,1/2-z
3 1/2-x,1/2+y,z
4 x,1/2-y,1/2+z
5 -x,-y,-z
6 -1/2-x,-y,-1/2+z
7 -1/2+x,-1/2-y,-z
8 -x,-1/2+y,-1/2-z
_cell_length_a 16.4458(3)
_cell_length_b 6.7793(1)
_cell_length_c 29.6942(6)
_cell_angle_alpha 90
_cell_angle_beta 90
_cell_angle_gamma 90
_cell_formula_units_Z 8
loop_
_atom_type_symbol
_atom_type_radius_bond
C 0.68
H 0.23
N 0.68
O 0.68
loop_
_atom_site_label
_atom_site_type_symbol
_atom_site_fract_x
_atom_site_fract_y
_atom_site_fract_z
O1 O 0.35415(9) 0.7287(3) 0.05751(6)
O2 O -0.07713(10) 0.7302(3) 0.05255(6)
O3 O -0.00913(10) 0.7561(3) -0.01180(6)
C1 C 0.13916(13) 0.7397(4) 0.03375(9)
C2 C 0.06552(13) 0.7355(4) 0.05617(8)
C3 C -0.01186(13) 0.7417(4) 0.03024(8)
O4 O 0.28857(11) 0.7511(3) -0.00778(6)
C4 C 0.28990(14) 0.7369(4) 0.03413(9)
C5 C 0.06354(14) 0.7218(4) 0.10275(8)
N1 N 0.12147(14) 0.6007(4) 0.31874(7)
C6 C 0.18144(17) 0.5342(4) 0.24612(8)
C7 C 0.21052(13) 0.7279(4) 0.05833(8)
C8 C 0.20837(14) 0.7107(4) 0.10482(8)
C9 C 0.13448(13) 0.7066(4) 0.12814(8)
C10 C 0.10756(18) 0.7531(4) 0.35434(9)
C11 C 0.18559(16) 0.5602(5) 0.20031(8)
C12 C 0.13140(14) 0.6828(4) 0.17754(8)
C13 C 0.12411(16) 0.6342(4) 0.27142(8)
C14 C 0.07266(16) 0.7741(5) 0.20339(9)
O5 O 0.13507(16) 0.4249(3) 0.33174(7)
C15 C 0.06901(18) 0.7536(4) 0.24951(9)
C16 C 0.1294(2) 0.9596(5) 0.33737(10)
C17 C 0.0184(2) 0.7439(5) 0.36772(13)
C18 C 0.1611(3) 0.7017(6) 0.39404(12)
H1 H 0.39390 0.73490 0.04090
H2 H -0.11600 0.73510 0.03530
H3 H 0.14080 0.75040 0.00250
H4 H 0.01360 0.72280 0.11740
H5 H 0.21750 0.44860 0.26030
H6 H 0.25690 0.70180 0.12080
H7 H 0.22560 0.49440 0.18410
H8 H 0.03410 0.85250 0.18910
H9 H 0.02940 0.82040 0.26590
H10 H 0.09490 0.99340 0.31250
H11 H 0.18510 0.96150 0.32780
H12 H 0.12180 1.05350 0.36120
H13 H -0.01480 0.77870 0.34240
H14 H 0.00850 0.83460 0.39190
H15 H 0.00520 0.61250 0.37730
H16 H 0.21720 0.70920 0.38520
H17 H 0.14900 0.57030 0.40400
H18 H 0.15120 0.79310 0.41810
#END
