
#######################################################################
#
#                 Cambridge Crystallographic Data Centre
#                                CCDC
#
#######################################################################
#
# If this CIF has been generated from an entry in the Cambridge
# Structural Database, then it will include bibliographic, chemical,
# crystal, experimental, refinement or atomic coordinate data resulting
# from the CCDC's data processing and validation procedures.
#
#######################################################################

data_CSD_CIF_EQUZIZ
_audit_creation_date 2004-05-06
_audit_creation_method CSD-ConQuest-V1
_database_code_CSD EQUZIZ
_database_code_depnum_ccdc_archive 'CCDC 204607'
_chemical_formula_sum 'C18 H18 N1 O5'
_chemical_formula_moiety
;
C18 H18 N1 O5
;
_journal_coden_Cambridge 1096
_journal_volume 15
_journal_year 2003
_journal_page_first 2861
_journal_name_full 'Chem.Mater. '
loop_
_publ_author_name
"L.M.Field"
"P.M.Lahti"
_chemical_name_systematic
;
4-(N-t-Butyl-N-aminoxyl)-1,1'-biphenyl-3',5'-dicarboxylic acid
;
_cell_volume   1635.682
_exptl_crystal_colour 'red'
_exptl_crystal_density_diffrn 1.333
_exptl_special_details
;
triclinic alpha polymorph

;
_exptl_crystal_description 'Cube'
_exptl_crystal_preparation 'THF/water'
_diffrn_ambient_temperature 298
#These two values have been output from a single CSD field.
_refine_ls_R_factor_gt 0.0796
_refine_ls_wR_factor_gt 0.0796
_symmetry_cell_setting triclinic
_symmetry_space_group_name_H-M 'P -1'
_symmetry_Int_Tables_number 2
loop_
_symmetry_equiv_pos_site_id
_symmetry_equiv_pos_as_xyz
1 x,y,z
2 -x,-y,-z
_cell_length_a 9.7834(3)
_cell_length_b 11.3596(4)
_cell_length_c 15.4740(6)
_cell_angle_alpha 80.3011(13)
_cell_angle_beta 81.2087(13)
_cell_angle_gamma 76.342(2)
_cell_formula_units_Z 4
loop_
_atom_type_symbol
_atom_type_radius_bond
C 0.68
H 0.23
N 0.68
O 0.68
loop_
_atom_site_label
_atom_site_type_symbol
_atom_site_fract_x
_atom_site_fract_y
_atom_site_fract_z
O1 O -0.0072(3) -0.2594(3) 0.63264(19)
O2 O 0.0680(3) -0.1565(3) 0.50624(19)
O3 O 0.3760(3) 0.1278(3) 0.49897(19)
O4 O 0.4503(4) 0.1465(3) 0.6240(2)
O5 O -0.0577(4) -0.2807(3) 1.4276(2)
O6 O -0.1278(3) -0.3915(3) 1.55147(18)
O7 O -0.4147(3) -0.6861(3) 1.5413(2)
O8 O -0.4848(3) -0.7038(3) 1.4147(2)
O9 O -0.1763(8) -0.2392(6) 0.8706(3)
O10 O 0.0520(4) -0.1965(5) 1.1862(2)
N1 N 0.1678(4) -0.1666(4) 1.1496(2)
N2 N -0.2335(5) -0.3284(5) 0.9039(3)
C1 C 0.0597(4) -0.1843(4) 0.5905(3)
C2 C 0.1396(4) -0.1219(4) 0.6360(3)
C3 C 0.2973(4) 0.0122(4) 0.6313(3)
C4 C 0.3797(4) 0.1006(4) 0.5818(3)
C5 C 0.2131(4) -0.0934(4) 0.7723(3)
C6 C 0.2076(4) -0.1170(4) 0.8699(3)
C7 C 0.1888(5) -0.1518(4) 1.0560(3)
C8 C 0.2664(5) -0.1537(5) 1.2107(3)
C9 C -0.1197(4) -0.3613(4) 1.4681(3)
C10 C -0.1901(4) -0.4259(4) 1.4180(3)
C11 C -0.3324(4) -0.5684(4) 1.4127(3)
C12 C -0.4158(4) -0.6594(4) 1.4587(3)
C13 C -0.2460(4) -0.4554(4) 1.2769(3)
C14 C -0.2380(4) -0.4244(4) 1.1795(3)
C15 C -0.2343(5) -0.3649(5) 0.9963(3)
C16 C -0.2805(5) -0.3881(5) 0.8395(3)
C17 C -0.4055(6) -0.4455(6) 0.8817(4)
C18 C -0.1548(7) -0.4827(7) 0.8054(5)
C19 C -0.3250(6) -0.2906(6) 0.7638(3)
C20 C 0.3246(13) -0.0388(9) 1.1795(6)
C21 C 0.1890(8) -0.1393(12) 1.2972(5)
C22 C 0.3883(8) -0.2575(8) 1.2111(6)
C23 C 0.3099(6) -0.1284(6) 1.0045(3)
C24 C 0.3177(5) -0.1103(6) 0.9136(3)
C25 C 0.0897(5) -0.1453(5) 0.9227(3)
C26 C 0.0804(5) -0.1618(5) 1.0132(3)
C27 C 0.2933(4) -0.0139(4) 0.7224(3)
C28 C 0.2195(4) -0.0426(4) 0.5876(3)
C29 C 0.1366(4) -0.1479(4) 0.7272(3)
C30 C -0.2404(5) -0.2757(5) 1.0479(3)
C31 C -0.2419(5) -0.3056(4) 1.1390(3)
C32 C -0.2274(5) -0.5128(4) 1.1263(3)
C33 C -0.2245(5) -0.4848(5) 1.0352(3)
C34 C -0.1800(4) -0.3980(4) 1.3268(3)
C35 C -0.2649(4) -0.5119(4) 1.4615(3)
C36 C -0.3224(4) -0.5399(4) 1.3218(3)
H1 H 0.02120 -0.19460 0.48640
H2 H 0.42560 0.17750 0.47920
H3 H -0.08570 -0.35090 1.57260
H4 H -0.46340 -0.73670 1.56030
H5 H -0.48230 -0.38340 0.90280
H6 H -0.37690 -0.50680 0.93020
H7 H -0.43570 -0.48250 0.83860
H8 H -0.07910 -0.44320 0.77860
H9 H -0.18260 -0.52140 0.76230
H10 H -0.12330 -0.54320 0.85360
H11 H -0.40400 -0.23020 0.78490
H12 H -0.35200 -0.32710 0.71920
H13 H -0.24740 -0.25230 0.73920
H14 H 0.37760 -0.04430 1.12230
H15 H 0.38540 -0.03100 1.22050
H16 H 0.24760 0.03150 1.17620
H17 H 0.10980 -0.07110 1.29210
H18 H 0.25030 -0.12490 1.33530
H19 H 0.15550 -0.21230 1.32140
H20 H 0.43480 -0.26180 1.15200
H21 H 0.35650 -0.33180 1.23330
H22 H 0.45350 -0.24700 1.24820
H23 H 0.38730 -0.12470 1.03140
H24 H 0.40010 -0.09290 0.88070
H25 H 0.01400 -0.15350 0.89620
H26 H -0.00150 -0.18010 1.04630
H27 H 0.34580 0.02270 0.75100
H28 H 0.22140 -0.02590 0.52660
H29 H 0.08310 -0.20230 0.75860
H30 H -0.24340 -0.19530 1.02180
H31 H -0.24550 -0.24480 1.17320
H32 H -0.22200 -0.59360 1.15210
H33 H -0.21600 -0.54630 1.00070
H34 H -0.12870 -0.34040 1.29840
H35 H -0.27010 -0.53170 1.52260
H36 H -0.36810 -0.57840 1.29010
#END
