
#######################################################################
#
#                 Cambridge Crystallographic Data Centre
#                                CCDC
#
#######################################################################
#
# If this CIF has been generated from an entry in the Cambridge
# Structural Database, then it will include bibliographic, chemical,
# crystal, experimental, refinement or atomic coordinate data resulting
# from the CCDC's data processing and validation procedures.
#
#######################################################################

data_CSD_CIF_EREMOE
_audit_creation_date 2011-06-29
_audit_creation_method CSD-ConQuest-V1
_database_code_CSD EREMOE
_database_code_depnum_ccdc_archive 'CCDC 715314'
_chemical_formula_sum 'C12 H15 N1 O1'
_chemical_formula_moiety
;
C12 H15 N1 O1
;
_journal_coden_Cambridge 154
_journal_volume 62
_journal_year 2009
_journal_page_first 1695
_journal_name_full 'Aust.J.Chem. '
loop_
_publ_author_name
"J.Roth-Barton"
"J.M.White"
_chemical_name_systematic
;
3-Phenyl-2-oxa-3-azabicyclo(2.2.2)octane
;
_chemical_melting_point 321.15
_cell_volume    978.291
_exptl_crystal_colour 'colorless'
_exptl_crystal_density_diffrn 1.285
_exptl_special_details
;
Melting point range 321.15-322.15K

;
_exptl_crystal_description 'block'
_diffrn_ambient_temperature 130
#These two values have been output from a single CSD field.
_refine_ls_R_factor_gt 0.0476
_refine_ls_wR_factor_gt 0.0476
_symmetry_cell_setting monoclinic
_symmetry_space_group_name_H-M 'P 21/c'
_symmetry_Int_Tables_number 14
loop_
_symmetry_equiv_pos_site_id
_symmetry_equiv_pos_as_xyz
1 x,y,z
2 -x,1/2+y,1/2-z
3 -x,-y,-z
4 x,-1/2-y,-1/2+z
_cell_length_a 9.5075(2)
_cell_length_b 11.4893(2)
_cell_length_c 9.2650(2)
_cell_angle_alpha 90
_cell_angle_beta 104.842(3)
_cell_angle_gamma 90
_cell_formula_units_Z 4
loop_
_atom_type_symbol
_atom_type_radius_bond
C 0.68
H 0.23
N 0.68
O 0.68
loop_
_atom_site_label
_atom_site_type_symbol
_atom_site_fract_x
_atom_site_fract_y
_atom_site_fract_z
O1 O 0.37010(13) 0.39622(12) 0.08412(14)
C1 C 0.6530(2) 0.42560(16) 0.2243(2)
H1 H 0.60790 0.47060 0.14210
N1 N 0.42767(16) 0.31350(13) 0.20386(17)
C2 C 0.6433(2) 0.27574(16) 0.4030(2)
H2 H 0.59130 0.22030 0.44120
C3 C 0.57346(19) 0.34170(16) 0.2781(2)
C4 C 0.7989(2) 0.44199(17) 0.2929(2)
H3 H 0.85090 0.49850 0.25660
C5 C 0.32329(19) 0.30136(16) 0.2978(2)
H4 H 0.35270 0.23650 0.36780
C6 C 0.3179(2) 0.41375(18) 0.3842(2)
H5 H 0.40690 0.42300 0.46270
H6 H 0.23660 0.41200 0.42940
C7 C 0.3003(2) 0.51503(17) 0.2721(2)
H7 H 0.22750 0.56930 0.28790
H8 H 0.39170 0.55640 0.28580
C8 C 0.7893(2) 0.29292(17) 0.4697(2)
H9 H 0.83490 0.24850 0.55240
C9 C 0.8688(2) 0.37548(17) 0.4150(2)
H10 H 0.96730 0.38600 0.45950
C10 C 0.2537(2) 0.46528(17) 0.1154(2)
H11 H 0.22930 0.52910 0.04310
C11 C 0.1226(2) 0.38547(18) 0.0976(2)
H12 H 0.08420 0.36440 -0.00640
H13 H 0.04650 0.42420 0.13190
C12 C 0.1751(2) 0.27605(18) 0.1926(2)
H14 H 0.10610 0.25580 0.24960
H15 H 0.18230 0.21100 0.12820
#END
