
#######################################################################
#
#                 Cambridge Crystallographic Data Centre
#                                CCDC
#
#######################################################################
#
# If this CIF has been generated from an entry in the Cambridge
# Structural Database, then it will include bibliographic, chemical,
# crystal, experimental, refinement or atomic coordinate data resulting
# from the CCDC's data processing and validation procedures.
#
#######################################################################

data_CSD_CIF_ERETAW
_audit_creation_date 2004-05-06
_audit_creation_method CSD-ConQuest-V1
_database_code_CSD ERETAW
_database_code_depnum_ccdc_archive 'CCDC 227397'
_database_code_depnum_ccdc_journal 1135/159
_chemical_formula_sum 'C6 H4 N8 O7'
_chemical_formula_moiety
;
C6 H4 N8 O7
;
_journal_coden_Cambridge 1135
_journal_year 2003
_journal_page_first 272
_journal_name_full 'Mendeleev Commun. '
loop_
_publ_author_name
"I.V.Ovchinnikov"
"M.A.Epishina"
"S.I.Molotov"
"Y.A.Strelenko"
"K.A.Lyssenko"
"N.N.Makhova"
_chemical_name_systematic
;
2-(3-Carboxamidofuroxan-4-yl)-4-nitro-5-carboxamido-2H-1,2,3-triazole 1-oxide
;
_chemical_melting_point 455.15
_cell_volume    564.529
_exptl_crystal_colour 'yellow'
_exptl_crystal_density_diffrn 1.766
_exptl_special_details
;
Melting point range 455.15-456.15K

;
_exptl_crystal_description 'prism'
_diffrn_ambient_temperature 293
#These two values have been output from a single CSD field.
_refine_ls_R_factor_gt 0.0422
_refine_ls_wR_factor_gt 0.0422
_symmetry_cell_setting triclinic
_symmetry_space_group_name_H-M 'P -1'
_symmetry_Int_Tables_number 2
loop_
_symmetry_equiv_pos_site_id
_symmetry_equiv_pos_as_xyz
1 x,y,z
2 -x,-y,-z
_cell_length_a 5.7312(11)
_cell_length_b 9.3394(19)
_cell_length_c 10.945(2)
_cell_angle_alpha 94.99(3)
_cell_angle_beta 101.96(3)
_cell_angle_gamma 97.34(3)
_cell_formula_units_Z 2
loop_
_atom_type_symbol
_atom_type_radius_bond
C 0.68
H 0.23
N 0.68
O 0.68
loop_
_atom_site_label
_atom_site_type_symbol
_atom_site_fract_x
_atom_site_fract_y
_atom_site_fract_z
O1 O 0.4636(2) 0.60681(12) 0.77716(13)
O2 O 0.8883(3) 0.78890(13) 0.50740(11)
O3 O 1.1533(3) 0.96352(13) 0.64928(12)
O4 O 0.3984(2) 0.17823(12) 0.88801(12)
O5 O 0.6705(3) 0.07099(14) 0.60820(14)
O6 O 0.8207(3) 0.10167(16) 0.80786(14)
O7 O 1.0262(2) 0.65206(11) 0.90033(10)
N1 N 0.7921(3) 0.37841(14) 0.64591(13)
N2 N 0.7109(3) 0.50472(13) 0.66638(13)
N3 N 0.5583(2) 0.49870(13) 0.74797(12)
N4 N 1.0243(3) 0.84783(14) 0.63608(12)
N5 N 0.7599(3) 0.65857(16) 0.51440(13)
N6 N 0.2521(3) 0.39091(16) 0.90701(14)
H1 H 0.248(4) 0.477(2) 0.8897(19)
H2 H 0.154(4) 0.356(2) 0.956(2)
N7 N 0.7274(3) 0.14225(14) 0.70965(14)
N8 N 1.2056(3) 0.88302(16) 0.90303(16)
H3 H 1.231(4) 0.958(2) 0.864(2)
H4 H 1.265(4) 0.882(3) 0.978(2)
C1 C 0.5395(3) 0.36177(15) 0.78023(13)
C2 C 0.6853(3) 0.29360(15) 0.71348(14)
C3 C 0.9682(3) 0.75075(15) 0.71130(14)
C4 C 0.8087(3) 0.63709(16) 0.63174(14)
C5 C 0.3870(3) 0.30354(15) 0.86433(13)
C6 C 1.0719(3) 0.76072(15) 0.84775(14)
#END
