
#######################################################################
#
#                 Cambridge Crystallographic Data Centre
#                                CCDC
#
#######################################################################
#
# If this CIF has been generated from an entry in the Cambridge
# Structural Database, then it will include bibliographic, chemical,
# crystal, experimental, refinement or atomic coordinate data resulting
# from the CCDC's data processing and validation procedures.
#
#######################################################################

data_CSD_CIF_ERGDPH
_audit_creation_date 1980-01-28
_audit_creation_method CSD-ConQuest-V1
_database_code_CSD ERGDPH
_database_code_depnum_ccdc_archive 'CCDC 1150105'
_chemical_formula_sum 'C34 H48 N4 O4'
_chemical_formula_moiety
;
C34 H48 N4 O4
;
_journal_coeditor_code "IUCr A17769"
_journal_coden_Cambridge 107
_journal_volume 35
_journal_year 1979
_journal_page_first 2122
_journal_name_full 'Acta Crystallogr.,Sect.B:Struct.Crystallogr.Cryst.Chem. '
loop_
_publ_author_name
"P.G.Jones"
"O.Kennard"
"S.Bellard"
"F.H.Allen"
_chemical_name_systematic
;
5\a-Ergosta-7,22-diene-3-one 2,4-dinitrophenylhydrazone
;
_cell_volume   1572.387
_exptl_crystal_colour 'orange'
_exptl_crystal_density_diffrn 1.218
_diffrn_ambient_temperature 243
#These two values have been output from a single CSD field.
_refine_ls_R_factor_gt 0.049
_refine_ls_wR_factor_gt 0.049
_symmetry_cell_setting monoclinic
_symmetry_space_group_name_H-M 'P 21'
_symmetry_Int_Tables_number 4
loop_
_symmetry_equiv_pos_site_id
_symmetry_equiv_pos_as_xyz
1 x,y,z
2 -x,1/2+y,-z
_cell_length_a 15.359
_cell_length_b 7.667
_cell_length_c 14.667
_cell_angle_alpha 90
_cell_angle_beta 114.44
_cell_angle_gamma 90
_cell_formula_units_Z 2
loop_
_atom_type_symbol
_atom_type_radius_bond
C 0.68
N 0.68
O 0.68
loop_
_atom_site_label
_atom_site_type_symbol
_atom_site_fract_x
_atom_site_fract_y
_atom_site_fract_z
C1 C 0.84690 0.91410 -0.09260
C2 C 0.76010 0.91130 -0.19420
C3 C 0.73760 0.73230 -0.23960
C4 C 0.75420 0.58010 -0.16980
C5 C 0.83680 0.59790 -0.06640
C6 C 0.83110 0.45330 0.00240
C7 C 0.90400 0.47720 0.10830
C8 C 0.95120 0.62450 0.14270
C9 C 0.93460 0.78730 0.07900
C10 C 0.84120 0.77760 -0.01880
C11 C 0.94130 0.95480 0.13940
C12 C 1.02540 0.96090 0.24260
C13 C 1.02640 0.80120 0.30470
C14 C 1.03230 0.64090 0.24580
C15 C 1.05570 0.49000 0.31890
C16 C 1.11690 0.57490 0.42180
C17 C 1.11770 0.77290 0.40310
C18 C 0.93620 0.79460 0.32560
C19 C 0.75270 0.81100 0.00270
C20 C 1.13130 0.88190 0.49590
C21 C 1.13630 1.07710 0.48090
C22 C 1.22170 0.82370 0.58300
C23 C 1.22910 0.75730 0.66840
C24 C 1.32060 0.69660 0.75170
C25 C 1.34710 0.79980 0.84910
C26 C 1.44700 0.75170 0.92640
C27 C 1.34060 0.99420 0.83300
C28 C 1.31590 0.50190 0.76820
C29 C 0.61640 0.82200 -0.49440
C30 C 0.57530 0.96510 -0.55840
C31 C 0.51960 0.94270 -0.66050
C32 C 0.50460 0.77810 -0.69820
C33 C 0.54340 0.63330 -0.63880
C34 C 0.59800 0.65440 -0.53820
N1 N 0.58580 1.14070 -0.52260
N2 N 0.44660 0.75510 -0.80570
N3 N 0.67030 0.84220 -0.39560
N4 N 0.69710 0.69820 -0.33290
O1 O 0.63760 1.17190 -0.43440
O2 O 0.54230 1.25630 -0.58180
O3 O 0.42400 0.88490 -0.85920
O4 O 0.42420 0.60700 -0.83690
#END
