
#######################################################################
#
#                 Cambridge Crystallographic Data Centre
#                                CCDC
#
#######################################################################
#
# If this CIF has been generated from an entry in the Cambridge
# Structural Database, then it will include bibliographic, chemical,
# crystal, experimental, refinement or atomic coordinate data resulting
# from the CCDC's data processing and validation procedures.
#
#######################################################################

data_CSD_CIF_ERILOI
_audit_creation_date 2016-08-01
_audit_creation_method CSD-ConQuest-V1
_database_code_CSD ERILOI
_database_code_depnum_ccdc_archive 'CCDC 1477461'
_chemical_formula_sum 'C19 H18 N2 O5'
_chemical_formula_moiety
;
C19 H18 N2 O5
;
_journal_coden_Cambridge 1500
_journal_volume 6
_journal_year 2016
_journal_page_first 72698
_journal_name_full 'RSC Advances '
loop_
_publ_author_name
"Qianqian Wu"
"Zian Wang"
"Jiale Li"
"Shuang Qiu"
"Duxia Cao"
"Zhiqiang Liu"
"Ruifang Guan"
_chemical_name_systematic
;
2-(4-(diethylamino)phenyl)-3-hydroxy-6-nitro-4H-chromen-4-one
;
_cell_volume    864.532
_exptl_crystal_density_diffrn 1.354
_diffrn_ambient_temperature 293.1
#These two values have been output from a single CSD field.
_refine_ls_R_factor_gt 0.0532
_refine_ls_wR_factor_gt 0.0532
_symmetry_cell_setting triclinic
_symmetry_space_group_name_H-M 'P -1'
_symmetry_Int_Tables_number 2
loop_
_symmetry_equiv_pos_site_id
_symmetry_equiv_pos_as_xyz
1 x,y,z
2 -x,-y,-z
_cell_length_a 7.0399(7)
_cell_length_b 7.3275(7)
_cell_length_c 17.4123(17)
_cell_angle_alpha 89.658(8)
_cell_angle_beta 82.561(8)
_cell_angle_gamma 76.168(8)
_cell_formula_units_Z 2
loop_
_atom_type_symbol
_atom_type_radius_bond
C 0.68
H 0.23
N 0.68
O 0.68
loop_
_atom_site_label
_atom_site_type_symbol
_atom_site_fract_x
_atom_site_fract_y
_atom_site_fract_z
O1 O 0.70795(17) 0.66873(17) 0.02772(7)
C1 C 0.7758(2) 0.5284(3) 0.07757(11)
C2 C 0.8001(2) 0.2910(3) -0.02479(11)
O2 O 0.8387(2) 0.12236(19) -0.04607(8)
O3 O 0.8943(2) 0.20528(19) 0.10017(8)
H1 H 0.94700 0.10860 0.07470
C3 C 0.8236(3) 0.3445(3) 0.05203(11)
C4 C 0.7334(2) 0.4453(3) -0.07547(11)
C5 C 0.6581(3) 0.5667(3) -0.19843(12)
C6 C 0.6925(2) 0.6292(3) -0.04709(11)
C7 C 0.7878(3) 0.6039(3) 0.15305(11)
C8 C 0.7146(3) 0.4156(3) -0.15337(12)
H2 H 0.74030 0.29410 -0.17410
C9 C 0.6181(3) 0.7511(3) -0.16966(12)
H3 H 0.58080 0.85150 -0.20180
C10 C 0.7733(3) 0.7962(3) 0.16439(11)
H4 H 0.75210 0.87570 0.12290
N1 N 0.6420(3) 0.5355(4) -0.28032(12)
C11 C 0.7893(3) 0.8710(3) 0.23435(12)
H5 H 0.78210 0.99900 0.23870
C12 C 0.8155(3) 0.4922(3) 0.21825(12)
H6 H 0.82650 0.36370 0.21330
C13 C 0.6344(3) 0.7830(3) -0.09330(12)
H7 H 0.60710 0.90490 -0.07290
C14 C 0.8165(3) 0.7594(3) 0.29994(12)
N2 N 0.8331(3) 0.8324(3) 0.37013(11)
O4 O 0.5862(3) 0.6722(3) -0.3191(1)
O5 O 0.6826(3) 0.3741(3) -0.30575(10)
C15 C 0.8268(3) 0.5667(3) 0.28923(12)
H8 H 0.84160 0.48800 0.33120
C16 C 0.8624(5) 0.7109(4) 0.43681(14)
H9 H 0.92600 0.76800 0.47310
H10 H 0.95000 0.59090 0.41940
C17 C 0.8448(4) 1.0296(4) 0.38026(15)
H11 H 0.80280 1.06840 0.43420
H12 H 0.75460 1.10960 0.34950
C18 C 1.0486(5) 1.0572(4) 0.3570(2)
H13 H 1.08530 1.03280 0.30230
H14 H 1.14030 0.97220 0.38470
H15 H 1.05070 1.18430 0.36910
C19 C 0.6736(6) 0.6779(6) 0.47762(18)
H16 H 0.60580 0.62870 0.44130
H17 H 0.59190 0.79450 0.49990
H18 H 0.70190 0.58950 0.51790
#END
