
#######################################################################
#
#                 Cambridge Crystallographic Data Centre
#                                CCDC
#
#######################################################################
#
# If this CIF has been generated from an entry in the Cambridge
# Structural Database, then it will include bibliographic, chemical,
# crystal, experimental, refinement or atomic coordinate data resulting
# from the CCDC's data processing and validation procedures.
#
#######################################################################

data_CSD_CIF_ERIQIF
_audit_creation_date 2004-05-06
_audit_creation_method CSD-ConQuest-V1
_database_code_CSD ERIQIF
_database_code_depnum_ccdc_archive 'CCDC 229944'
_chemical_formula_sum 'C35 H35 N5 O4'
_chemical_formula_moiety
;
C35 H35 N5 O4
;
_journal_coden_Cambridge 35
_journal_volume 68
_journal_year 2003
_journal_page_first 9907
_journal_name_full 'J.Org.Chem. '
loop_
_publ_author_name
"C.Rajadurai"
"A.Ivanova"
"V.Enkelmann"
"M.Baumgarten"
_chemical_name_systematic
;
3,5-bis(4-(1-Oxyl-3-oxo-4,4,5,5-tetramethylimidazolin-2-yl)phenylethynyl)pyrid
ine biradical
;
_cell_volume   3067.852
_exptl_crystal_colour 'blue'
_exptl_crystal_density_diffrn 1.272
_diffrn_ambient_temperature 293
#These two values have been output from a single CSD field.
_refine_ls_R_factor_gt 0.024
_refine_ls_wR_factor_gt 0.024
_symmetry_cell_setting monoclinic
_symmetry_space_group_name_H-M 'C 2/c'
_symmetry_Int_Tables_number 15
loop_
_symmetry_equiv_pos_site_id
_symmetry_equiv_pos_as_xyz
1 x,y,z
2 -x,y,1/2-z
3 1/2+x,1/2+y,z
4 1/2-x,1/2+y,1/2-z
5 -x,-y,-z
6 x,-y,-1/2+z
7 -1/2-x,-1/2-y,-z
8 -1/2+x,-1/2-y,-1/2+z
_cell_length_a 29.4916(1)
_cell_length_b 8.3957(6)
_cell_length_c 13.4508
_cell_angle_alpha 90
_cell_angle_beta 112.905(2)
_cell_angle_gamma 90
_cell_formula_units_Z 4
loop_
_atom_type_symbol
_atom_type_radius_bond
C 0.68
H 0.23
N 0.68
O 0.68
loop_
_atom_site_label
_atom_site_type_symbol
_atom_site_fract_x
_atom_site_fract_y
_atom_site_fract_z
O1 O 0.11744(12) 0.0129(3) 0.4125(3)
O2 O 0.19201(12) 0.4362(3) 0.3186(3)
N1 N 0.00000 1.0941(5) 0.75000
N2 N 0.14469(11) 0.0956(3) 0.3775(2)
N3 N 0.17894(11) 0.2949(3) 0.3309(2)
C1 C 0.01600(12) 0.8445(4) 0.6807(3)
C2 C 0.03499(13) 0.7606(4) 0.6123(3)
C3 C 0.05185(14) 0.6815(4) 0.5610(3)
C4 C 0.07370(12) 0.5756(4) 0.5086(3)
C5 C 0.12048(11) 0.3650(4) 0.4177(2)
C6 C 0.14667(12) 0.2550(4) 0.3749(2)
C7 C 0.17756(13) 0.0129(4) 0.3326(3)
C8 C 0.20088(13) 0.1557(4) 0.2961(3)
C9 C 0.01411(13) 1.0099(4) 0.6825(3)
C10 C 0.00000(7) 0.7613(6) 0.7500(7)
C11 C 0.08068(13) 0.4174(4) 0.5397(3)
C12 C 0.10343(14) 0.3131(4) 0.4955(3)
C13 C 0.11263(15) 0.5222(4) 0.3852(3)
C14 C 0.08914(15) 0.6264(5) 0.4287(3)
H1 H 0.02291(13) 1.0674(4) 0.6319(3)
H2 H 0.00000(7) 0.6482(6) 0.7500(7)
H3 H 0.06956(13) 0.3808(4) 0.5931(3)
H4 H 0.10761(14) 0.2048(4) 0.5175(3)
H5 H 0.12221(15) 0.5578(4) 0.3292(3)
H6 H 0.08374(15) 0.7342(5) 0.4056(3)
C15 C 0.21209(18) -0.0883(6) 0.4207(4)
H7 H 0.23342(18) -0.1439(6) 0.3950(4)
H8 H 0.23101(18) -0.0225(6) 0.4797(4)
H9 H 0.19388(18) -0.1628(6) 0.4436(4)
C16 C 0.14462(17) -0.0930(6) 0.2417(4)
H10 H 0.16395(17) -0.1480(6) 0.2104(4)
H11 H 0.12815(17) -0.1679(6) 0.2688(4)
H12 H 0.12104(17) -0.0284(6) 0.1885(4)
C17 C 0.25579(15) 0.1682(6) 0.3517(5)
H13 H 0.27104(15) 0.0816(6) 0.3313(5)
H14 H 0.26451(15) 0.1658(6) 0.4275(5)
H15 H 0.26654(15) 0.2656(6) 0.3323(5)
C18 C 0.1854(2) 0.1689(6) 0.1754(3)
H16 H 0.1987(2) 0.0823(6) 0.1501(3)
H17 H 0.1974(2) 0.2663(6) 0.1591(3)
H18 H 0.1505(2) 0.1669(6) 0.1411(3)
C9A C -0.01411(13) 1.0099(4) 0.8175(3)
C1A C -0.01600(12) 0.8445(4) 0.8193(3)
C2A C -0.03499(13) 0.7606(4) 0.8877(3)
C3A C -0.05185(14) 0.6815(4) 0.9390(3)
C4A C -0.07370(12) 0.5756(4) 0.9914(3)
C11A C -0.08068(13) 0.4174(4) 0.9603(3)
C12A C -0.10343(14) 0.3131(4) 1.0045(3)
C5A C -0.12048(11) 0.3650(4) 1.0823(2)
C6A C -0.14667(12) 0.2550(4) 1.1251(2)
N2A N -0.14469(11) 0.0956(3) 1.1225(2)
O1A O -0.11744(12) 0.0129(3) 1.0875(3)
C7A C -0.17756(13) 0.0129(4) 1.1674(3)
C8A C -0.20088(13) 0.1557(4) 1.2039(3)
N3A N -0.17894(11) 0.2949(3) 1.1691(2)
O2A O -0.19201(12) 0.4362(3) 1.1814(3)
C17A C -0.25579(15) 0.1682(6) 1.1483(5)
H13A H -0.27104(15) 0.0816(6) 1.1687(5)
H14A H -0.26451(15) 0.1658(6) 1.0725(5)
H15A H -0.26654(15) 0.2656(6) 1.1677(5)
C18A C -0.1854(2) 0.1689(6) 1.3246(3)
H16A H -0.1987(2) 0.0823(6) 1.3499(3)
H17A H -0.1974(2) 0.2663(6) 1.3409(3)
H18A H -0.1505(2) 0.1669(6) 1.3589(3)
C15A C -0.21209(18) -0.0883(6) 1.0793(4)
H7A H -0.23342(18) -0.1439(6) 1.1050(4)
H8A H -0.23101(18) -0.0225(6) 1.0203(4)
H9A H -0.19388(18) -0.1628(6) 1.0564(4)
C16A C -0.14462(17) -0.0930(6) 1.2583(4)
H10A H -0.16395(17) -0.1480(6) 1.2896(4)
H11A H -0.12815(17) -0.1679(6) 1.2312(4)
H12A H -0.12104(17) -0.0284(6) 1.3115(4)
C13A C -0.11263(15) 0.5222(4) 1.1148(3)
C14A C -0.08914(15) 0.6264(5) 1.0713(3)
H6A H -0.08374(15) 0.7342(5) 1.0944(3)
H5A H -0.12221(15) 0.5578(4) 1.1708(3)
H4A H -0.10761(14) 0.2048(4) 0.9825(3)
H3A H -0.06956(13) 0.3808(4) 0.9069(3)
H1A H -0.02291(13) 1.0674(4) 0.8681(3)
#END
