
#######################################################################
#
#                 Cambridge Crystallographic Data Centre
#                                CCDC
#
#######################################################################
#
# If this CIF has been generated from an entry in the Cambridge
# Structural Database, then it will include bibliographic, chemical,
# crystal, experimental, refinement or atomic coordinate data resulting
# from the CCDC's data processing and validation procedures.
#
#######################################################################

data_CSD_CIF_ERISED
_audit_creation_date 2004-05-06
_audit_creation_method CSD-ConQuest-V1
_database_code_CSD ERISED
_database_code_depnum_ccdc_archive 'CCDC 169990'
_chemical_formula_sum 'C17 H21 N1 O7'
_chemical_formula_moiety
;
C17 H21 N1 O7
;
_journal_coden_Cambridge 1078
_journal_year 2004
_journal_name_full 'CSD Communication(Private Communication) '
loop_
_publ_author_name
"F.Effenberger"
"J.Roos"
"C.Kobler"
"H.Buhler"
_chemical_name_systematic
;
Ethyl 4-methoxy-1-(4-nitrobenzoyloxy)cyclohexanecarboxylate
;
_cell_volume   1745.430
_exptl_crystal_density_diffrn 1.337
_diffrn_ambient_temperature 293
#These two values have been output from a single CSD field.
_refine_ls_R_factor_gt 0.0429
_refine_ls_wR_factor_gt 0.0429
_symmetry_cell_setting monoclinic
_symmetry_space_group_name_H-M 'P 21/c'
_symmetry_Int_Tables_number 14
loop_
_symmetry_equiv_pos_site_id
_symmetry_equiv_pos_as_xyz
1 x,y,z
2 -x,1/2+y,1/2-z
3 -x,-y,-z
4 x,-1/2-y,-1/2+z
_cell_length_a 13.7586(13)
_cell_length_b 13.642(2)
_cell_length_c 9.302(2)
_cell_angle_alpha 90
_cell_angle_beta 91.381(11)
_cell_angle_gamma 90
_cell_formula_units_Z 4
loop_
_atom_type_symbol
_atom_type_radius_bond
C 0.68
H 0.23
N 0.68
O 0.68
loop_
_atom_site_label
_atom_site_type_symbol
_atom_site_fract_x
_atom_site_fract_y
_atom_site_fract_z
O1 O 0.4307(1) 0.2632(1) 0.1878(1)
C1 C 0.2823(1) 0.0516(1) 0.1743(1)
O2 O 0.1787(1) -0.0585(1) 0.3061(1)
C2 C 0.2454(1) 0.1564(1) 0.1964(1)
O3 O 0.3136(1) 0.0010(1) 0.4125(1)
C3 C 0.2777(1) 0.2258(1) 0.0783(2)
O4 O 0.2277(1) 0.0171(1) 0.0482(1)
C4 C 0.3867(1) 0.2245(1) 0.0588(2)
O5 O 0.2919(1) -0.1350(1) 0.0608(1)
C5 C 0.4207(1) 0.1202(1) 0.0310(2)
C6 C 0.3920(1) 0.0518(1) 0.1517(1)
N1 N -0.0314(1) -0.1871(1) -0.4414(2)
O6 O -0.0394(1) -0.2740(1) -0.4679(2)
O7 O -0.0772(1) -0.1234(1) -0.5042(2)
C7 C 0.5296(1) 0.2875(2) 0.1758(2)
C8 C 0.2513(1) -0.0102(1) 0.3023(1)
C9 C 0.2886(1) -0.0473(2) 0.5454(2)
C10 C 0.3667(2) -0.0247(2) 0.6516(2)
C11 C 0.2353(1) -0.0772(1) 0.0086(1)
C12 C 0.1644(1) -0.1021(1) -0.1099(1)
C13 C 0.0969(1) -0.0352(1) -0.1638(2)
C14 C 0.0329(1) -0.0623(1) -0.2737(2)
C15 C 0.0372(1) -0.1569(1) -0.3252(2)
C16 C 0.1021(1) -0.2252(1) -0.2726(2)
C17 C 0.1668(1) -0.1967(1) -0.1646(2)
H1 H 0.1749(1) 0.1557(1) 0.1983(1)
H2 H 0.2695(1) 0.1805(1) 0.2886(1)
H3 H 0.2455(1) 0.2074(1) -0.0117(2)
H4 H 0.2575(1) 0.2919(1) 0.1015(2)
H5 H 0.4032(1) 0.2663(1) -0.0229(2)
H6 H 0.3922(1) 0.0970(1) -0.0591(2)
H7 H 0.4908(1) 0.1196(1) 0.0225(2)
H8 H 0.4251(1) 0.0719(1) 0.2402(1)
H9 H 0.4131(1) -0.0142(1) 0.1295(1)
H10 H 0.5540(1) 0.3128(2) 0.2659(2)
H11 H 0.5366(1) 0.3362(2) 0.1024(2)
H12 H 0.5657(1) 0.2299(2) 0.1509(2)
H13 H 0.2836(1) -0.1176(2) 0.5309(2)
H14 H 0.2266(1) -0.0234(2) 0.5787(2)
H15 H 0.3527(2) -0.0556(2) 0.7415(2)
H16 H 0.3708(2) 0.0450(2) 0.6650(2)
H17 H 0.4275(2) -0.0488(2) 0.6174(2)
H18 H 0.0947(1) 0.0279(1) -0.1262(2)
H19 H -0.0119(1) -0.0178(1) -0.3119(2)
H20 H 0.1026(1) -0.2888(1) -0.3086(2)
H21 H 0.2122(1) -0.2413(1) -0.1283(2)
#END
