
#######################################################################
#
#                 Cambridge Crystallographic Data Centre
#                                CCDC
#
#######################################################################
#
# If this CIF has been generated from an entry in the Cambridge
# Structural Database, then it will include bibliographic, chemical,
# crystal, experimental, refinement or atomic coordinate data resulting
# from the CCDC's data processing and validation procedures.
#
#######################################################################

data_CSD_CIF_EROCUK
_audit_creation_date 2011-07-18
_audit_creation_method CSD-ConQuest-V1
_database_code_CSD EROCUK
_database_code_depnum_ccdc_archive 'CCDC 828548'
_chemical_formula_sum 'C20 H21 N1 O6'
_chemical_formula_moiety
;
C20 H21 N1 O6
;
_journal_coeditor_code "IUCr HG5031"
_journal_coden_Cambridge 1370
_journal_volume 67
_journal_year 2011
_journal_page_first o1352
_journal_name_full 'Acta Crystallogr.,Sect.E:Struct.Rep.Online '
loop_
_publ_author_name
"T.Naicker"
"T.Govender"
"H.G.Kruger"
"G.E.M.Maguire"
_chemical_name_systematic
;
6,7-dimethoxy-3-(methoxycarbonyl)-1-(2-methoxyphenyl)-3,4-dihydroisoquinolin-2
-ium-2-olate
;
_chemical_melting_point 423
_cell_volume   1805.080
_exptl_crystal_colour 'colorless'
_exptl_crystal_density_diffrn 1.367
_exptl_crystal_description 'block'
_diffrn_ambient_temperature 173
#These two values have been output from a single CSD field.
_refine_ls_R_factor_gt 0.0531
_refine_ls_wR_factor_gt 0.0531
_symmetry_cell_setting monoclinic
_symmetry_space_group_name_H-M 'P 21/n'
_symmetry_Int_Tables_number 14
loop_
_symmetry_equiv_pos_site_id
_symmetry_equiv_pos_as_xyz
1 x,y,z
2 1/2-x,1/2+y,1/2-z
3 -x,-y,-z
4 -1/2+x,-1/2-y,-1/2+z
_cell_length_a 5.4765(1)
_cell_length_b 21.9984(6)
_cell_length_c 15.0007(4)
_cell_angle_alpha 90
_cell_angle_beta 92.774(2)
_cell_angle_gamma 90
_cell_formula_units_Z 4
loop_
_atom_type_symbol
_atom_type_radius_bond
C 0.68
H 0.23
N 0.68
O 0.68
loop_
_atom_site_label
_atom_site_type_symbol
_atom_site_fract_x
_atom_site_fract_y
_atom_site_fract_z
O1 O 0.2176(3) 0.22907(6) 0.35593(9)
O2 O 0.6006(2) -0.03624(6) 0.11617(9)
O3 O 0.2824(3) -0.10179(6) 0.19301(9)
O4 O 0.5317(3) 0.12825(8) 0.45676(10)
O5 O 0.2474(3) 0.07631(8) 0.52628(10)
O6 O 0.2093(3) 0.16305(7) 0.07924(9)
N1 N 0.2146(3) 0.17212(7) 0.33291(10)
C1 C 0.3125(3) 0.14938(8) 0.26149(11)
C2 C 0.3023(3) 0.08366(8) 0.24573(11)
C3 C 0.4608(3) 0.05630(8) 0.18643(11)
H1 H 0.57490 0.08060 0.15670
C4 C 0.4517(3) -0.00558(8) 0.17115(11)
C5 C 0.2793(3) -0.04178(8) 0.21365(12)
C6 C 0.1259(3) -0.01473(8) 0.27287(12)
H2 H 0.01150 -0.03900 0.30250
C7 C 0.1370(3) 0.04758(8) 0.28959(11)
C8 C -0.0255(3) 0.07830(8) 0.35355(12)
H3 H -0.07480 0.04880 0.39910
H4 H -0.17520 0.09320 0.32100
C9 C 0.1083(3) 0.13129(8) 0.39883(12)
H5 H -0.01070 0.15500 0.43350
C10 C 0.3260(4) 0.11235(9) 0.46255(13)
C11 C 0.4434(5) 0.06056(13) 0.59251(17)
H6 H 0.37800 0.03410 0.63820
H7 H 0.50860 0.09780 0.62060
H8 H 0.57440 0.03930 0.56290
C12 C 0.4564(3) 0.19020(8) 0.20530(12)
C13 C 0.6553(3) 0.22127(8) 0.24385(14)
H9 H 0.68810 0.21880 0.30650
C14 C 0.8070(4) 0.25591(9) 0.19251(17)
H10 H 0.94270 0.27700 0.21950
C15 C 0.7571(4) 0.25908(10) 0.10160(17)
H11 H 0.86160 0.28230 0.06600
C16 C 0.5593(4) 0.22943(10) 0.06094(15)
H12 H 0.52700 0.23280 -0.00170
C17 C 0.4075(4) 0.19452(8) 0.11258(13)
C18 C 0.1512(5) 0.16733(12) -0.01499(14)
H13 H 0.00590 0.14280 -0.03030
H14 H 0.28920 0.15230 -0.04790
H15 H 0.11870 0.20980 -0.03110
C19 C 0.7699(4) -0.00092(10) 0.06834(13)
H16 H 0.86500 -0.02780 0.03110
H17 H 0.88060 0.02070 0.11080
H18 H 0.68030 0.02860 0.03030
C20 C 0.0983(4) -0.13944(9) 0.22980(15)
H19 H 0.11910 -0.18150 0.21000
H20 H -0.06400 -0.12480 0.20940
H21 H 0.11400 -0.13780 0.29510
#END
