
#######################################################################
#
#                 Cambridge Crystallographic Data Centre
#                                CCDC
#
#######################################################################
#
# If this CIF has been generated from an entry in the Cambridge
# Structural Database, then it will include bibliographic, chemical,
# crystal, experimental, refinement or atomic coordinate data resulting
# from the CCDC's data processing and validation procedures.
#
#######################################################################

data_CSD_CIF_EROFEX
_audit_creation_date 2011-07-22
_audit_creation_method CSD-ConQuest-V1
_database_code_CSD EROFEX
_database_code_depnum_ccdc_archive 'CCDC 828555'
_chemical_formula_sum 'C6 H7 N3 O2'
_chemical_formula_moiety
;
C6 H7 N3 O2
;
_journal_coeditor_code "IUCr SJ5135"
_journal_coden_Cambridge 1370
_journal_volume 67
_journal_year 2011
_journal_page_first o1359
_journal_name_full 'Acta Crystallogr.,Sect.E:Struct.Rep.Online '
loop_
_publ_author_name
"R.Betz"
"T.Gerber"
_chemical_name_systematic
;
3-Nitrobenzene-1,2-diamine
;
_cell_volume    656.554
_exptl_crystal_colour 'red'
_exptl_crystal_density_diffrn 1.549
_exptl_crystal_description 'rod'
_exptl_crystal_preparation 'ethanol'
_diffrn_ambient_temperature 200
#These two values have been output from a single CSD field.
_refine_ls_R_factor_gt 0.0401
_refine_ls_wR_factor_gt 0.0401
_symmetry_cell_setting monoclinic
_symmetry_space_group_name_H-M 'P 21/c'
_symmetry_Int_Tables_number 14
loop_
_symmetry_equiv_pos_site_id
_symmetry_equiv_pos_as_xyz
1 x,y,z
2 -x,1/2+y,1/2-z
3 -x,-y,-z
4 x,-1/2-y,-1/2+z
_cell_length_a 13.2854(5)
_cell_length_b 3.7504(1)
_cell_length_c 16.3309(6)
_cell_angle_alpha 90
_cell_angle_beta 126.208(2)
_cell_angle_gamma 90
_cell_formula_units_Z 4
loop_
_atom_type_symbol
_atom_type_radius_bond
C 0.68
H 0.23
N 0.68
O 0.68
loop_
_atom_site_label
_atom_site_type_symbol
_atom_site_fract_x
_atom_site_fract_y
_atom_site_fract_z
O1 O 0.13915(10) 0.7321(4) 0.03335(7)
O2 O 0.30745(12) 1.0010(4) 0.07783(10)
N1 N 0.13706(12) 0.8731(4) 0.34249(9)
H1 H 0.1778(16) 0.888(5) 0.4092(10)
H2 H 0.1066(16) 0.649(4) 0.3250(14)
N2 N 0.07013(10) 0.7189(3) 0.15331(8)
H3 H 0.0209(14) 0.662(5) 0.1708(12)
H4 H 0.0458(15) 0.663(5) 0.0919(10)
N3 N 0.23536(11) 0.9000(3) 0.09715(8)
C1 C 0.22068(11) 0.9559(3) 0.31843(9)
C2 C 0.18152(10) 0.8773(3) 0.21809(8)
C3 C 0.26459(10) 0.9743(3) 0.19499(8)
C4 C 0.37907(11) 1.1429(3) 0.26574(11)
H5 H 0.43290 1.20600 0.24770
C5 C 0.41227(12) 1.2152(4) 0.36057(10)
H6 H 0.48950 1.32890 0.40910
C6 C 0.33235(12) 1.1214(4) 0.38622(9)
H7 H 0.35610 1.17390 0.45240
#END
