
#######################################################################
#
#                 Cambridge Crystallographic Data Centre
#                                CCDC
#
#######################################################################
#
# If this CIF has been generated from an entry in the Cambridge
# Structural Database, then it will include bibliographic, chemical,
# crystal, experimental, refinement or atomic coordinate data resulting
# from the CCDC's data processing and validation procedures.
#
#######################################################################

data_CSD_CIF_EROFUN
_audit_creation_date 2011-07-22
_audit_creation_method CSD-ConQuest-V1
_database_code_CSD EROFUN
_database_code_depnum_ccdc_archive 'CCDC 828558'
_chemical_formula_sum 'C28 H20 N4 O6'
_chemical_formula_moiety
;
C28 H20 N4 O6
;
_journal_coeditor_code "IUCr IM2283"
_journal_coden_Cambridge 1370
_journal_volume 67
_journal_year 2011
_journal_page_first o1363
_journal_name_full 'Acta Crystallogr.,Sect.E:Struct.Rep.Online '
loop_
_publ_author_name
"Z.Afrakssou"
"A.Haoudi"
"F.Capet"
"C.Rolando"
"L.El Ammari"
_chemical_name_systematic
;
rac-3-Allyl-1-((3-(4-nitrophenyl)-4,5-dihydro-1,2-oxazol-5-yl)methyl)-1H-anthr
a[1,2-d]imidazole-2,6,11(3H)-trione
;
_chemical_melting_point 471
_cell_volume   2360.410
_exptl_crystal_colour 'yellow'
_exptl_crystal_density_diffrn 1.431
_exptl_crystal_description 'prism'
_diffrn_ambient_temperature 296
#These two values have been output from a single CSD field.
_refine_ls_R_factor_gt 0.0396
_refine_ls_wR_factor_gt 0.0396
_symmetry_cell_setting monoclinic
_symmetry_space_group_name_H-M 'P 21/n'
_symmetry_Int_Tables_number 14
loop_
_symmetry_equiv_pos_site_id
_symmetry_equiv_pos_as_xyz
1 x,y,z
2 1/2-x,1/2+y,1/2-z
3 -x,-y,-z
4 -1/2+x,-1/2-y,-1/2+z
_cell_length_a 10.0780(3)
_cell_length_b 22.7094(6)
_cell_length_c 11.2729(3)
_cell_angle_alpha 90
_cell_angle_beta 113.809(1)
_cell_angle_gamma 90
_cell_formula_units_Z 4
loop_
_atom_type_symbol
_atom_type_radius_bond
C 0.68
H 0.23
N 0.68
O 0.68
loop_
_atom_site_label
_atom_site_type_symbol
_atom_site_fract_x
_atom_site_fract_y
_atom_site_fract_z
C1 C 0.6321(2) 0.82375(9) 0.19097(19)
C2 C 0.85135(19) 0.84194(8) 0.35084(17)
C3 C 0.81023(17) 0.89317(8) 0.27367(15)
C4 C 0.90411(17) 0.94182(7) 0.30538(15)
C5 C 1.04177(18) 0.93398(7) 0.40936(15)
C6 C 1.0776(2) 0.88249(8) 0.48157(16)
H1 H 1.16830 0.87940 0.54980
C7 C 0.9829(2) 0.83582(8) 0.45530(17)
H2 H 1.00640 0.80180 0.50550
C8 C 1.1555(2) 0.97997(8) 0.44241(17)
C9 C 1.1231(2) 1.03401(8) 0.36364(17)
C10 C 0.98508(19) 1.04342(7) 0.26723(16)
C11 C 0.86591(19) 1.00068(8) 0.24546(16)
C12 C 1.2303(2) 1.07627(9) 0.3858(2)
H3 H 1.32240 1.07030 0.45050
C13 C 1.2012(3) 1.12668(10) 0.3127(2)
H4 H 1.27300 1.15500 0.32920
C14 C 1.0663(3) 1.13554(9) 0.2151(2)
H5 H 1.04820 1.16920 0.16410
C15 C 0.9574(2) 1.09440(8) 0.19255(19)
H6 H 0.86580 1.10080 0.12750
C16 C 0.59135(18) 0.91052(8) 0.05248(16)
H7 H 0.59820 0.95270 0.06690
H8 H 0.49000 0.89950 0.02260
C17 C 0.64489(18) 0.89559(9) -0.05152(17)
H9 H 0.62230 0.85460 -0.07970
C18 C 0.58172(18) 0.93738(8) -0.16582(17)
H10 H 0.56280 0.91770 -0.24740
H11 H 0.49350 0.95600 -0.16950
C19 C 0.70447(18) 0.98060(8) -0.13153(16)
C20 C 0.69973(18) 1.03873(8) -0.18912(16)
C21 C 0.5711(2) 1.06028(9) -0.28290(18)
H12 H 0.48820 1.03700 -0.31200
C22 C 0.5655(2) 1.11605(9) -0.33315(19)
H13 H 0.47920 1.13050 -0.39550
C23 C 0.6886(2) 1.15008(8) -0.2904(2)
C24 C 0.8184(2) 1.12962(10) -0.1991(2)
H14 H 0.90110 1.15300 -0.17180
C25 C 0.8234(2) 1.07410(9) -0.14903(19)
H15 H 0.91060 1.05990 -0.08750
C26 C 0.7429(2) 0.74050(9) 0.3414(2)
H16 H 0.64420 0.72700 0.31760
H17 H 0.79230 0.73850 0.43510
C27 C 0.8169(2) 0.70030(9) 0.2829(2)
H18 H 0.82220 0.66080 0.30620
C28 C 0.8743(3) 0.71473(12) 0.2031(3)
H19 H 0.87180 0.75370 0.17680
H20 H 0.91820 0.68620 0.17200
N1 N 0.67395(14) 0.88059(7) 0.17487(13)
N2 N 0.73969(16) 0.80148(7) 0.30080(15)
N3 N 0.82302(15) 0.96221(7) -0.04143(14)
N4 N 0.6801(3) 1.20974(9) -0.3438(2)
O1 O 0.52115(15) 0.79872(6) 0.12021(14)
O2 O 0.73990(14) 1.01619(6) 0.18463(13)
O3 O 1.27476(15) 0.97262(6) 0.53085(13)
O4 O 0.80057(12) 0.90603(6) 0.00001(12)
O5 O 0.5638(2) 1.22624(8) -0.4262(2)
O6 O 0.7864(2) 1.24061(9) -0.3026(3)
#END
