
#######################################################################
#
#                 Cambridge Crystallographic Data Centre
#                                CCDC
#
#######################################################################
#
# If this CIF has been generated from an entry in the Cambridge
# Structural Database, then it will include bibliographic, chemical,
# crystal, experimental, refinement or atomic coordinate data resulting
# from the CCDC's data processing and validation procedures.
#
#######################################################################

data_CSD_CIF_EROKAY
_audit_creation_date 2011-07-22
_audit_creation_method CSD-ConQuest-V1
_database_code_CSD EROKAY
_database_code_depnum_ccdc_archive 'CCDC 828574'
_chemical_formula_sum 'C26 H36 N2 O2'
_chemical_formula_moiety
;
C26 H36 N2 O2
;
_journal_coeditor_code "IUCr BT5539"
_journal_coden_Cambridge 1370
_journal_volume 67
_journal_year 2011
_journal_page_first o1384
_journal_name_full 'Acta Crystallogr.,Sect.E:Struct.Rep.Online '
loop_
_publ_author_name
"D.Schollmeyer"
"H.Detert"
_chemical_name_systematic
;
N,N-Dihexyl-4-(2-(4-nitrophenyl)vinyl)aniline
;
_chemical_name_common
;
4-Dihexylamino-4'-nitrostilbene
;
_chemical_melting_point 351
_cell_volume   2380.620
_exptl_crystal_colour 'red'
_exptl_crystal_density_diffrn 1.14
_exptl_crystal_description 'plate'
_exptl_crystal_preparation 'chloroform/methanol'
_diffrn_ambient_temperature 173
_refine_special_details
;
C20B and C20C disordered over two sites with occupancies 0.72:0.28.

;
#These two values have been output from a single CSD field.
_refine_ls_R_factor_gt 0.082
_refine_ls_wR_factor_gt 0.082
_symmetry_cell_setting triclinic
_symmetry_space_group_name_H-M 'P -1'
_symmetry_Int_Tables_number 2
loop_
_symmetry_equiv_pos_site_id
_symmetry_equiv_pos_as_xyz
1 x,y,z
2 -x,-y,-z
_cell_length_a 9.6574(9)
_cell_length_b 11.4153(10)
_cell_length_c 23.604(2)
_cell_angle_alpha 93.297(3)
_cell_angle_beta 94.834(3)
_cell_angle_gamma 112.696(3)
_cell_formula_units_Z 4
loop_
_atom_type_symbol
_atom_type_radius_bond
C 0.68
H 0.23
N 0.68
O 0.68
loop_
_atom_site_label
_atom_site_type_symbol
_atom_site_fract_x
_atom_site_fract_y
_atom_site_fract_z
C1 C 0.7433(2) 0.6361(2) 0.55422(10)
C2 C 0.6830(3) 0.5037(2) 0.55662(11)
H1 H 0.63120 0.44940 0.52300
C3 C 0.6969(3) 0.4498(2) 0.60700(11)
H2 H 0.65650 0.35980 0.60780
C4 C 0.7708(3) 0.5296(2) 0.65599(11)
C5 C 0.8300(3) 0.6620(3) 0.65598(11)
H3 H 0.87840 0.71540 0.69020
C6 C 0.8169(3) 0.7144(2) 0.60510(11)
H4 H 0.85820 0.80450 0.60460
C7 C 0.7272(3) 0.6856(2) 0.49919(11)
H5 H 0.68000 0.62400 0.46730
C8 C 0.7720(3) 0.8085(2) 0.48902(11)
H6 H 0.82200 0.87020 0.52060
C9 C 0.7519(2) 0.8571(2) 0.43441(10)
C10 C 0.6745(3) 0.7776(2) 0.38404(11)
H7 H 0.63910 0.68770 0.38460
C11 C 0.6488(3) 0.8271(2) 0.33405(11)
H8 H 0.59530 0.77040 0.30130
C12 C 0.7001(3) 0.9604(2) 0.33048(11)
C13 C 0.7832(3) 1.0403(2) 0.38008(11)
H9 H 0.82320 1.13030 0.37920
C14 C 0.8068(3) 0.9889(2) 0.42997(11)
H10 H 0.86250 1.04540 0.46260
N1 N 0.6672(3) 1.0079(2) 0.28070(9)
C15 C 0.5310(3) 0.9287(3) 0.24208(12)
H11 H 0.47980 0.98400 0.22870
H12 H 0.46120 0.86500 0.26410
C16 C 0.5583(3) 0.8580(3) 0.18967(11)
H13 H 0.61240 0.92100 0.16370
H14 H 0.62380 0.81350 0.20220
C17 C 0.4126(3) 0.7616(3) 0.15729(12)
H15 H 0.34630 0.80610 0.14570
H16 H 0.35980 0.69790 0.18320
C18 C 0.4365(3) 0.6919(3) 0.10420(13)
H17 H 0.48560 0.75530 0.07760
H18 H 0.50610 0.65030 0.11560
C19 C 0.2913(4) 0.5916(4) 0.07301(16)
H19 H 0.22110 0.63280 0.06180
H20 H 0.24260 0.52750 0.09940
C20 C 0.3172(6) 0.5242(5) 0.0199(2)
H21 H 0.35590 0.58570 -0.00800
H22 H 0.22160 0.45620 0.00320
H23 H 0.39090 0.48710 0.03040
C21 C 0.7282(4) 1.1465(3) 0.27664(12)
H24 H 0.82410 1.18640 0.30230
H25 H 0.65620 1.18090 0.29050
C22 C 0.7578(3) 1.1851(3) 0.21672(13)
H26 H 0.66260 1.14280 0.19080
H27 H 0.78650 1.27830 0.21740
C23 C 0.8803(3) 1.1523(3) 0.19208(13)
H28 H 0.86470 1.06350 0.19870
H29 H 0.98020 1.20940 0.21210
C24 C 0.8794(4) 1.1664(4) 0.12703(16)
H30 H 0.95470 1.13660 0.11250
H31 H 0.77880 1.10960 0.10760
C25 C 0.9133(5) 1.2980(4) 0.11120(16)
H32 H 1.01380 1.35570 0.13050
H33 H 0.83740 1.32800 0.12490
C26 C 0.9124(7) 1.3054(6) 0.04722(19)
H34 H 0.99060 1.27960 0.03370
H35 H 0.93260 1.39320 0.03870
H36 H 0.81330 1.24820 0.02790
N2 N 0.7893(2) 0.4731(2) 0.70886(10)
O1 O 0.8486(3) 0.5447(2) 0.75293(9)
O2 O 0.7460(3) 0.3564(2) 0.7065(1)
C27 C 0.7306(3) 0.1556(2) 0.55379(10)
C28 C 0.8781(3) 0.1709(2) 0.57579(11)
H37 H 0.96210 0.22480 0.55850
C29 C 0.9028(3) 0.1091(2) 0.62198(11)
H38 H 1.00250 0.11980 0.63610
C30 C 0.7792(3) 0.0308(2) 0.6474(1)
C31 C 0.6329(3) 0.0132(2) 0.62734(11)
H39 H 0.54970 -0.04040 0.64510
C32 C 0.6098(3) 0.0750(2) 0.58092(11)
H40 H 0.50950 0.06260 0.56690
C33 C 0.6979(3) 0.2171(2) 0.50471(10)
H41 H 0.59430 0.19470 0.49180
C34 C 0.7989(3) 0.3022(2) 0.47587(10)
H42 H 0.90250 0.32540 0.48910
C35 C 0.7659(3) 0.3625(2) 0.42645(10)
C36 C 0.8844(3) 0.4518(2) 0.40158(11)
H43 H 0.98530 0.47350 0.41820
C37 C 0.8600(3) 0.5092(3) 0.35394(11)
H44 H 0.94410 0.56970 0.33910
C38 C 0.7125(3) 0.4798(2) 0.32682(11)
C39 C 0.5924(3) 0.3903(2) 0.35199(11)
H45 H 0.49140 0.36760 0.33530
C40 C 0.6190(3) 0.3355(2) 0.40022(11)
H46 H 0.53520 0.27750 0.41620
N3 N 0.6857(3) 0.5360(2) 0.27927(10)
C41 C 0.8077(4) 0.6393(3) 0.25697(14)
H47 H 0.88250 0.69120 0.28930
H48 H 0.76510 0.69530 0.23820
C42 C 0.8870(4) 0.5911(3) 0.21473(15)
H49 H 0.81400 0.54160 0.18150
H50 H 0.92910 0.53410 0.23290
C43 C 1.0185(4) 0.7074(4) 0.19407(18)
H51 H 1.08460 0.75910 0.22840
H52 H 1.07960 0.67280 0.17210
C44 C 0.9767(6) 0.7943(5) 0.1586(2)
H53 H 0.91550 0.82960 0.18010
H54 H 1.07020 0.86660 0.15230
C45 C 0.8959(6) 0.7375(5) 0.1057(3)
H55 H 0.79420 0.67600 0.11170
H56 H 0.94810 0.68930 0.08680
C46 C 0.8777(7) 0.8424(5) 0.0632(2)
H57 H 0.81360 0.88180 0.07910
H58 H 0.83120 0.79900 0.02530
H59 H 0.97750 0.90850 0.06020
C47 C 0.5380(3) 0.4863(3) 0.24494(12)
H60 H 0.53260 0.55150 0.22000
H61 H 0.45850 0.47120 0.27080
C48 C 0.5053(3) 0.3612(3) 0.20748(14)
H62 H 0.58470 0.37660 0.18160
H63 H 0.51160 0.29630 0.23250
C49 C 0.3527(4) 0.3085(4) 0.17207(16)
H64 H 0.34620 0.37270 0.14670
H65 H 0.27290 0.29280 0.19780
C50 C 0.3234(5) 0.1819(4) 0.13500(18)
H66 H 0.34020 0.12140 0.16040
H67 H 0.21570 0.14420 0.11890
C51 C 0.4170(5) 0.1923(5) 0.0872(2)
H68 H 0.52510 0.22680 0.10260
H69 H 0.40190 0.25270 0.06130
C52 C 0.3756(7) 0.0624(5) 0.0532(2)
H70 H 0.39010 0.00240 0.07880
H71 H 0.44060 0.07210 0.02260
H72 H 0.26970 0.02970 0.03660
N4 N 0.8047(3) -0.0349(2) 0.69623(10)
O3 O 0.9345(3) -0.0210(2) 0.71236(10)
O4 O 0.6945(3) -0.1038(2) 0.71804(10)
C53? C 1.0014(17) 0.8248(15) 0.0996(6)
H73? H 0.86620 0.76580 0.15900
H74? H 1.02180 0.87810 0.18170
H75? H 1.02290 0.75580 0.07990
H76? H 1.09350 0.90410 0.10120
H77? H 0.82650 0.88250 0.08700
H78? H 0.80490 0.75920 0.04560
H79? H 0.92070 0.89710 0.03330
#END
