
#######################################################################
#
#                 Cambridge Crystallographic Data Centre
#                                CCDC
#
#######################################################################
#
# If this CIF has been generated from an entry in the Cambridge
# Structural Database, then it will include bibliographic, chemical,
# crystal, experimental, refinement or atomic coordinate data resulting
# from the CCDC's data processing and validation procedures.
#
#######################################################################

data_CSD_CIF_EROYIU
_audit_creation_date 2011-07-18
_audit_creation_method CSD-ConQuest-V1
_database_code_CSD EROYIU
_database_code_depnum_ccdc_archive 'CCDC 828636'
_chemical_formula_sum 'C12 H10 N2 O3'
_chemical_formula_moiety
;
C12 H10 N2 O3
;
_journal_coeditor_code "IUCr CV5092"
_journal_coden_Cambridge 1370
_journal_volume 67
_journal_year 2011
_journal_page_first o1473
_journal_name_full 'Acta Crystallogr.,Sect.E:Struct.Rep.Online '
loop_
_publ_author_name
"Xu Chen"
"Ying Liu"
"Deng-Ke Liu"
"Ping-Bao Wang"
_chemical_name_systematic
;
1-(2-Nitrobenzyl)-1H-pyrrole-2-carbaldehyde
;
_cell_volume    531.971
_exptl_crystal_colour 'colorless'
_exptl_crystal_density_diffrn 1.437
_exptl_crystal_description 'prism'
_diffrn_ambient_temperature 113
#These two values have been output from a single CSD field.
_refine_ls_R_factor_gt 0.0371
_refine_ls_wR_factor_gt 0.0371
_symmetry_cell_setting triclinic
_symmetry_space_group_name_H-M 'P -1'
_symmetry_Int_Tables_number 2
loop_
_symmetry_equiv_pos_site_id
_symmetry_equiv_pos_as_xyz
1 x,y,z
2 -x,-y,-z
_cell_length_a 7.2643(8)
_cell_length_b 8.3072(10)
_cell_length_c 9.2570(12)
_cell_angle_alpha 104.10(2)
_cell_angle_beta 96.463(11)
_cell_angle_gamma 96.92(2)
_cell_formula_units_Z 2
loop_
_atom_type_symbol
_atom_type_radius_bond
C 0.68
H 0.23
N 0.68
O 0.68
loop_
_atom_site_label
_atom_site_type_symbol
_atom_site_fract_x
_atom_site_fract_y
_atom_site_fract_z
O1 O 0.73782(17) 0.83214(12) 0.55982(12)
O2 O 0.80539(16) 0.77297(12) 0.33569(12)
O3 O 0.39124(13) 0.35491(12) 0.08896(11)
N1 N 0.76728(15) 0.73149(14) 0.44833(13)
N2 N 0.78470(15) 0.30999(13) 0.04974(12)
C1 C 0.75954(17) 0.55405(15) 0.45094(15)
C2 C 0.73377(18) 0.52045(17) 0.58762(15)
H1 H 0.72090 0.60850 0.67140
C3 C 0.72705(19) 0.35811(18) 0.60071(16)
H2 H 0.70880 0.33340 0.69350
C4 C 0.74712(19) 0.23132(17) 0.47785(16)
H3 H 0.74490 0.11960 0.48690
C5 C 0.77038(18) 0.26669(16) 0.34158(16)
H4 H 0.78270 0.17770 0.25830
C6 C 0.77633(17) 0.42904(16) 0.32299(14)
C7 C 0.79970(19) 0.46275(15) 0.17131(14)
H5 H 0.70280 0.52930 0.14510
H6 H 0.92380 0.53110 0.18000
C8 C 0.93194(19) 0.24383(17) -0.00619(15)
H7 H 1.06050 0.28680 0.03000
C9 C 0.86490(19) 0.10454(17) -0.12366(15)
H8 H 0.93820 0.03510 -0.18290
C10 C 0.66954(19) 0.08388(15) -0.14002(15)
H9 H 0.58570 -0.00250 -0.21240
C11 C 0.61976(18) 0.21166(15) -0.03203(14)
C12 C 0.43411(19) 0.24082(17) -0.00666(15)
H10 H 0.33350 0.16350 -0.07080
#END
