
#######################################################################
#
#                 Cambridge Crystallographic Data Centre
#                                CCDC
#
#######################################################################
#
# If this CIF has been generated from an entry in the Cambridge
# Structural Database, then it will include bibliographic, chemical,
# crystal, experimental, refinement or atomic coordinate data resulting
# from the CCDC's data processing and validation procedures.
#
#######################################################################

data_CSD_CIF_ERSTNA
_audit_creation_date 1980-12-11
_audit_creation_method CSD-ConQuest-V1
_database_code_CSD ERSTNA
_chemical_formula_sum 'C27 H28 N2 O9'
_chemical_formula_moiety
;
C27 H28 N2 O9
;
_journal_coden_Cambridge 154
_journal_volume 33
_journal_year 1980
_journal_page_first 313
_journal_name_full 'Aust.J.Chem. '
loop_
_publ_author_name
"P.R.Jefferies"
"B.W.Skelton"
"B.Walter"
"A.H.White"
_chemical_name_systematic
;
3-(5-Methoxy-2,2,8,8-tetramethyl-2H,8H-benzo(1,2-b:5,4-b')dipyran-10-yl)-propy
l-3,5-dinitrobenzoate
;
_chemical_name_common
;
Eriostyl-3,5-dinitrobenzoate
;
_cell_volume   2702.715
_exptl_crystal_density_diffrn 1.29
_diffrn_ambient_temperature ?
_diffrn_special_details
;
The study was carried out at room temperature,in the range 283-303K

;
#These two values have been output from a single CSD field.
_refine_ls_R_factor_gt 0.048
_refine_ls_wR_factor_gt 0.048
_symmetry_cell_setting monoclinic
_symmetry_space_group_name_H-M 'P 21/n'
_symmetry_Int_Tables_number 14
loop_
_symmetry_equiv_pos_site_id
_symmetry_equiv_pos_as_xyz
1 x,y,z
2 1/2-x,1/2+y,1/2-z
3 -x,-y,-z
4 -1/2+x,-1/2-y,-1/2+z
_cell_length_a 19.331(4)
_cell_length_b 15.970(4)
_cell_length_c 8.766(4)
_cell_angle_alpha 90
_cell_angle_beta 92.91(3)
_cell_angle_gamma 90
_cell_formula_units_Z 4
loop_
_atom_type_symbol
_atom_type_radius_bond
C 0.68
H 0.23
N 0.68
O 0.68
loop_
_atom_site_label
_atom_site_type_symbol
_atom_site_fract_x
_atom_site_fract_y
_atom_site_fract_z
C1 C 0.42160 -0.05740 0.87810
H1 H 0.43700 -0.02400 0.97100
H2 H 0.38000 -0.07600 0.92600
H3 H 0.45600 -0.08600 0.84600
O1 O 0.39980 0.00790 0.77550
C2 C 0.36080 0.07120 0.83550
C3 C 0.29020 0.06030 0.85060
C4 C 0.25250 -0.01550 0.80370
H4 H 0.27800 -0.05600 0.75800
C5 C 0.18680 -0.02420 0.83430
H5 H 0.16000 -0.07900 0.79900
C6 C 0.15200 0.03890 0.93060
C7 C 0.16210 0.01750 1.09890
H6 H 0.13400 0.05700 1.16400
H7 H 0.13900 -0.03700 1.12800
H8 H 0.21500 0.01400 1.13200
C8 C 0.07710 0.04990 0.88250
H9 H 0.05300 0.00200 0.89900
H10 H 0.05700 0.09300 0.93700
H11 H 0.07000 0.06900 0.76600
O2 O 0.18170 0.12190 0.90920
C9 C 0.25170 0.12810 0.89930
C10 C 0.28050 0.20700 0.92680
C11 C 0.23590 0.27970 0.97080
H12 H 0.25900 0.33000 0.93800
C12 C 0.22740 0.28530 1.14120
H13 H 0.21800 0.23300 1.18100
C13 C 0.16810 0.34020 1.18230
H14 H 0.11900 0.32000 1.13100
O3 O 0.18250 0.42540 1.12960
C14 C 0.12960 0.47720 1.12660
O4 O 0.07270 0.46000 1.16280
C15 C 0.14790 0.56320 1.07200
C16 C 0.09420 0.61970 1.05150
H15 H 0.04600 0.60300 1.06500
C17 C 0.10950 0.70020 1.00200
N1 N 0.05240 0.76000 0.98180
O5 O -0.00640 0.73680 0.99900
O6 O 0.06730 0.83220 0.94740
C18 C 0.17540 0.72440 0.97330
H16 H 0.18400 0.78000 0.93700
C19 C 0.39340 0.14810 0.86790
C20 C 0.46640 0.16460 0.84930
H17 H 0.49400 0.12400 0.79500
C21 C 0.49380 0.23580 0.89620
H18 H 0.54100 0.24800 0.88800
C22 C 0.45300 0.29840 0.98030
C23 C 0.45970 0.28150 1.15200
H19 H 0.51000 0.28200 1.18700
H20 H 0.42700 0.32000 1.19800
H21 H 0.43700 0.22400 1.16200
C24 C 0.47270 0.38840 0.94570
H22 H 0.43600 0.42800 0.98200
H23 H 0.52300 0.39700 0.97600
H24 H 0.47200 0.39600 0.83600
O7 O 0.37950 0.29330 0.93250
C25 C 0.35190 0.21460 0.91260
H25 H 0.18700 0.27600 0.91700
H26 H 0.27200 0.31000 1.19100
H27 H 0.16200 0.34100 1.28500
C26 C 0.21440 0.58560 1.04320
H28 H 0.25300 0.55000 1.06200
C27 C 0.22720 0.66670 0.99450
N2 N 0.29840 0.69110 0.96610
O8 O 0.34420 0.63970 0.98880
O9 O 0.30850 0.76210 0.92020
#END
