
#######################################################################
#
#                 Cambridge Crystallographic Data Centre
#                                CCDC
#
#######################################################################
#
# If this CIF has been generated from an entry in the Cambridge
# Structural Database, then it will include bibliographic, chemical,
# crystal, experimental, refinement or atomic coordinate data resulting
# from the CCDC's data processing and validation procedures.
#
#######################################################################

data_CSD_CIF_ERUCAW
_audit_creation_date 2011-07-18
_audit_creation_method CSD-ConQuest-V1
_database_code_CSD ERUCAW
_database_code_depnum_ccdc_archive 'CCDC 828649'
_chemical_formula_sum 'C11 H10 N2 O4'
_chemical_formula_moiety
;
C11 H10 N2 O4
;
_journal_coeditor_code "IUCr RZ2595"
_journal_coden_Cambridge 1370
_journal_volume 67
_journal_year 2011
_journal_page_first o1489
_journal_name_full 'Acta Crystallogr.,Sect.E:Struct.Rep.Online '
loop_
_publ_author_name
"H.-K.Fun"
"W.-S.Loh"
"Nithinchandra"
"B.Kalluraya"
_chemical_name_systematic
;
1-(3-(4-Methoxyphenyl)-5-oxo-1,2,3-oxadiazol-3-ium-4(5H)-ylidene)ethanolate
;
_chemical_name_common
;
4-Acetyl-3-(4-methoxyphenyl)-1,2,3-oxadiazol-3-ium-5-olate; 
4-Acetyl-3-(p-anisyl)sydnone
;
_cell_volume   2123.428
_exptl_crystal_colour 'colorless'
_exptl_crystal_density_diffrn 1.465
_exptl_crystal_description 'block'
_diffrn_ambient_temperature 100
#These two values have been output from a single CSD field.
_refine_ls_R_factor_gt 0.0516
_refine_ls_wR_factor_gt 0.0516
_symmetry_cell_setting triclinic
_symmetry_space_group_name_H-M 'P -1'
_symmetry_Int_Tables_number 2
loop_
_symmetry_equiv_pos_site_id
_symmetry_equiv_pos_as_xyz
1 x,y,z
2 -x,-y,-z
_cell_length_a 9.6338(8)
_cell_length_b 10.0679(7)
_cell_length_c 22.4108(18)
_cell_angle_alpha 86.938(3)
_cell_angle_beta 78.049(2)
_cell_angle_gamma 89.891(2)
_cell_formula_units_Z 8
loop_
_atom_type_symbol
_atom_type_radius_bond
C 0.68
H 0.23
N 0.68
O 0.68
loop_
_atom_site_label
_atom_site_type_symbol
_atom_site_fract_x
_atom_site_fract_y
_atom_site_fract_z
O1 O 1.0268(2) 0.15731(17) 0.25992(8)
O2 O 0.9645(2) -0.02461(18) 0.21501(8)
O3 O 0.6205(2) -0.01215(17) 0.37893(8)
O4 O 0.6496(2) 0.30248(18) 0.57834(8)
N1 N 0.8745(2) 0.15265(19) 0.34312(9)
N2 N 0.9836(2) 0.2203(2) 0.31319(9)
C1 C 0.9400(3) 0.0439(2) 0.25844(11)
C2 C 0.8392(3) 0.0448(2) 0.31472(11)
C3 C 0.8143(3) 0.1951(2) 0.40338(10)
C4 C 0.7703(3) 0.3254(2) 0.41043(11)
H1 H 0.77650 0.38470 0.37670
C5 C 0.7164(3) 0.3658(2) 0.46930(11)
H2 H 0.68820 0.45330 0.47520
C6 C 0.7047(3) 0.2748(2) 0.51937(11)
C7 C 0.7513(3) 0.1440(2) 0.51073(11)
H3 H 0.74480 0.08390 0.54420
C8 C 0.8069(3) 0.1040(2) 0.45262(11)
H4 H 0.83870 0.01750 0.44670
C9 C 0.7135(3) -0.0400(2) 0.33564(11)
C10 C 0.7041(3) -0.1618(3) 0.30084(12)
H5 H 0.61420 -0.20530 0.31610
H6 H 0.77920 -0.22150 0.30590
H7 H 0.71290 -0.13660 0.25830
C11 C 0.5980(4) 0.4332(3) 0.59009(13)
H8 H 0.56180 0.43920 0.63310
H9 H 0.52350 0.45210 0.56840
H10 H 0.67390 0.49650 0.57670
O5 O 0.5532(2) 0.17633(18) 0.26742(8)
O6 O 0.4936(2) 0.0067(2) 0.21410(8)
O7 O 0.1346(2) -0.00518(17) 0.37277(8)
O8 O 0.1537(2) 0.31158(19) 0.58119(8)
N3 N 0.3873(2) 0.16804(19) 0.34621(9)
N4 N 0.5034(2) 0.2329(2) 0.32200(9)
C12 C 0.4621(3) 0.0700(3) 0.25912(11)
C13 C 0.3522(3) 0.0686(2) 0.31215(10)
C14 C 0.3205(3) 0.2046(2) 0.40707(10)
C15 C 0.4001(3) 0.1923(2) 0.45223(11)
H11 H 0.49200 0.15940 0.44350
C16 C 0.3403(3) 0.2297(2) 0.51025(11)
H12 H 0.39200 0.22250 0.54100
C17 C 0.2025(3) 0.2783(2) 0.52254(11)
C18 C 0.1239(3) 0.2905(2) 0.47659(11)
H13 H 0.03180 0.32290 0.48520
C19 C 0.1845(3) 0.2540(2) 0.41794(11)
H14 H 0.13420 0.26260 0.38670
C20 C 0.2298(3) -0.0198(2) 0.32851(11)
C21 C 0.2272(3) -0.1319(3) 0.28691(13)
H15 H 0.13890 -0.17980 0.29920
H16 H 0.30430 -0.19100 0.28940
H17 H 0.23660 -0.09640 0.24560
C22 C 0.0120(3) 0.3620(3) 0.59641(13)
H18 H -0.00970 0.38260 0.63860
H19 H -0.05380 0.29610 0.58940
H20 H 0.00470 0.44100 0.57140
O9 O 0.8181(2) 0.34109(18) 0.22984(8)
O10 O 0.6999(2) 0.50964(18) 0.28147(8)
O11 O 0.4962(2) 0.50729(17) 0.12143(8)
O12 O 0.7211(2) 0.17885(18) -0.08198(8)
N5 N 0.7281(2) 0.34063(19) 0.15082(9)
N6 N 0.8225(2) 0.2802(2) 0.17627(9)
C23 C 0.7148(3) 0.4441(2) 0.23698(11)
C24 C 0.6572(3) 0.4402(2) 0.18356(11)
C25 C 0.7212(3) 0.2989(2) 0.09044(10)
C26 C 0.8447(3) 0.3067(2) 0.04600(11)
H21 H 0.92840 0.33920 0.05450
C27 C 0.8406(3) 0.2648(2) -0.01181(11)
H22 H 0.92230 0.26880 -0.04240
C28 C 0.7146(3) 0.2170(2) -0.02389(11)
C29 C 0.5916(3) 0.2098(2) 0.02156(11)
H23 H 0.50740 0.17810 0.01320
C30 C 0.5956(3) 0.2503(2) 0.07946(11)
H24 H 0.51460 0.24480 0.11040
C31 C 0.5472(3) 0.5250(2) 0.16617(11)
C32 C 0.4988(3) 0.6369(3) 0.20708(12)
H25 H 0.41720 0.67800 0.19580
H26 H 0.57380 0.70150 0.20280
H27 H 0.47430 0.60250 0.24870
C33 C 0.5948(3) 0.1238(3) -0.09556(12)
H28 H 0.61420 0.09690 -0.13690
H29 H 0.52160 0.18960 -0.09060
H30 H 0.56400 0.04800 -0.06820
O13 O 0.7154(2) 0.66298(18) 0.76043(8)
O14 O 0.8187(2) 0.47850(19) 0.71668(8)
O15 O 1.0010(2) 0.48713(17) 0.88251(8)
O16 O 0.7767(2) 0.80695(17) 1.08041(8)
N7 N 0.7863(2) 0.65663(19) 0.84444(9)
N8 N 0.7072(2) 0.7257(2) 0.81382(9)
C34 C 0.8016(3) 0.5472(2) 0.75995(11)
C35 C 0.8471(3) 0.5475(2) 0.81658(11)
C36 C 0.7877(3) 0.6988(2) 0.90516(10)
C37 C 0.7475(3) 0.6070(2) 0.95461(11)
H31 H 0.72220 0.52040 0.94860
C38 C 0.7463(3) 0.6473(2) 1.01240(11)
H32 H 0.72120 0.58710 1.04580
C39 C 0.7827(3) 0.7790(2) 1.02127(11)
C40 C 0.8199(3) 0.8698(2) 0.97135(11)
H33 H 0.84230 0.95730 0.97720
C41 C 0.8236(3) 0.8285(2) 0.91230(11)
H34 H 0.84970 0.88770 0.87850
C42 C 0.9507(3) 0.4609(2) 0.83869(11)
C43 C 0.9925(3) 0.3386(3) 0.80422(13)
H35 H 1.06410 0.29200 0.82090
H36 H 1.02920 0.36360 0.76200
H37 H 0.91090 0.28180 0.80770
C44 C 0.8095(3) 0.9402(3) 1.09304(12)
H38 H 0.80060 0.94640 1.13630
H39 H 0.74490 1.00080 1.07880
H40 H 0.90490 0.96260 1.07250
#END
