
#######################################################################
#
#                 Cambridge Crystallographic Data Centre
#                                CCDC
#
#######################################################################
#
# If this CIF has been generated from an entry in the Cambridge
# Structural Database, then it will include bibliographic, chemical,
# crystal, experimental, refinement or atomic coordinate data resulting
# from the CCDC's data processing and validation procedures.
#
#######################################################################

data_CSD_CIF_ERUDAX
_audit_creation_date 2011-08-02
_audit_creation_method CSD-ConQuest-V1
_database_code_CSD ERUDAX
_database_code_depnum_ccdc_archive 'CCDC 828654'
_chemical_formula_sum 'C8 H8 N2 O4'
_chemical_formula_moiety
;
C8 H8 N2 O4
;
_journal_coeditor_code "IUCr CV5074"
_journal_coden_Cambridge 1370
_journal_volume 67
_journal_year 2011
_journal_page_first o1494
_journal_name_full 'Acta Crystallogr.,Sect.E:Struct.Rep.Online '
loop_
_publ_author_name
"Q.Cai"
"Z.Fei"
"L.Li"
_chemical_name_systematic
;
Methyl N-(4-nitrophenyl)carbamate
;
_cell_volume    434.044
_exptl_crystal_colour 'yellow'
_exptl_crystal_density_diffrn 1.501
_exptl_crystal_description 'block'
_diffrn_ambient_temperature 298
#These two values have been output from a single CSD field.
_refine_ls_R_factor_gt 0.0739
_refine_ls_wR_factor_gt 0.0739
_symmetry_cell_setting triclinic
_symmetry_space_group_name_H-M 'P -1'
_symmetry_Int_Tables_number 2
loop_
_symmetry_equiv_pos_site_id
_symmetry_equiv_pos_as_xyz
1 x,y,z
2 -x,-y,-z
_cell_length_a 7.4269(11)
_cell_length_b 8.1003(12)
_cell_length_c 8.5376(12)
_cell_angle_alpha 101.634(2)
_cell_angle_beta 97.914(2)
_cell_angle_gamma 116.660(2)
_cell_formula_units_Z 2
loop_
_atom_type_symbol
_atom_type_radius_bond
C 0.68
H 0.23
N 0.68
O 0.68
loop_
_atom_site_label
_atom_site_type_symbol
_atom_site_fract_x
_atom_site_fract_y
_atom_site_fract_z
C1 C 0.2798(6) 0.1171(5) 0.4095(4)
H1 H 0.40240 0.22830 0.48460
H2 H 0.28710 0.00230 0.41220
H3 H 0.15820 0.10950 0.44190
C2 C 0.2591(4) 0.2904(4) 0.2229(3)
C3 C 0.2433(4) 0.4234(4) -0.0116(3)
C4 C 0.2670(4) 0.5997(4) 0.0750(3)
H4 H 0.28530 0.63180 0.18910
C5 C 0.2633(4) 0.7260(4) -0.0091(3)
H5 H 0.27960 0.84450 0.04810
C6 C 0.2355(4) 0.6774(4) -0.1782(3)
C7 C 0.2141(5) 0.5042(4) -0.2666(3)
H6 H 0.19790 0.47390 -0.38040
C8 C 0.2173(4) 0.3786(4) -0.1826(3)
H7 H 0.20180 0.26070 -0.24050
N1 N 0.2288(4) 0.8111(4) -0.2670(3)
N2 N 0.2450(4) 0.2846(4) 0.0624(3)
O1 O 0.2673(4) 0.1340(3) 0.2437(2)
O2 O 0.2635(4) 0.4136(3) 0.3310(2)
O3 O 0.2327(4) 0.9584(3) -0.1911(3)
O4 O 0.2176(4) 0.7718(4) -0.4139(3)
H8 H 0.235(5) 0.187(5) 0.001(4)
#END
