
#######################################################################
#
#                 Cambridge Crystallographic Data Centre
#                                CCDC
#
#######################################################################
#
# If this CIF has been generated from an entry in the Cambridge
# Structural Database, then it will include bibliographic, chemical,
# crystal, experimental, refinement or atomic coordinate data resulting
# from the CCDC's data processing and validation procedures.
#
#######################################################################

data_CSD_CIF_ERUMAH
_audit_creation_date 2016-08-03
_audit_creation_method CSD-ConQuest-V1
_database_code_CSD ERUMAH
_database_code_depnum_ccdc_archive 'CCDC 1477487'
_chemical_formula_sum 'C26 H24 N2 O3'
_chemical_formula_moiety
;
C26 H24 N2 O3
;
_journal_coden_Cambridge 182
_journal_volume 52
_journal_year 2016
_journal_page_first 10415
_journal_name_full 'Chem.Commun. '
loop_
_publ_author_name
"Yuanyuan An"
"Hongguang Xia"
"Jie Wu"
_chemical_name_systematic
;
N-(benzyloxy)-2-methyl-2-((3-phenylisoquinolin-1-yl)oxy)propanamide
;
_cell_volume   4506.075
_exptl_crystal_colour 'colorless'
_exptl_crystal_density_diffrn 1.216
_exptl_crystal_description 'stick'
_diffrn_ambient_temperature 296
#These two values have been output from a single CSD field.
_refine_ls_R_factor_gt 0.0547
_refine_ls_wR_factor_gt 0.0547
_symmetry_cell_setting monoclinic
_symmetry_space_group_name_H-M 'C 2/c'
_symmetry_Int_Tables_number 15
loop_
_symmetry_equiv_pos_site_id
_symmetry_equiv_pos_as_xyz
1 x,y,z
2 -x,y,1/2-z
3 1/2+x,1/2+y,z
4 1/2-x,1/2+y,1/2-z
5 -x,-y,-z
6 x,-y,-1/2+z
7 -1/2-x,-1/2-y,-z
8 -1/2+x,-1/2-y,-1/2+z
_cell_length_a 38.327(12)
_cell_length_b 12.158(4)
_cell_length_c 9.715(3)
_cell_angle_alpha 90
_cell_angle_beta 95.510(6)
_cell_angle_gamma 90
_cell_formula_units_Z 8
loop_
_atom_type_symbol
_atom_type_radius_bond
C 0.68
H 0.23
N 0.68
O 0.68
loop_
_atom_site_label
_atom_site_type_symbol
_atom_site_fract_x
_atom_site_fract_y
_atom_site_fract_z
N1 N 0.34734(5) 0.74490(14) 0.04627(17)
N2 N 0.34148(6) 0.48840(16) 0.0357(2)
O1 O 0.29786(4) 0.65322(11) 0.09966(14)
O2 O 0.33419(5) 0.53407(16) -0.18762(16)
O3 O 0.37028(5) 0.42271(13) 0.01697(18)
C1 C 0.32425(5) 0.72590(15) 0.1326(2)
C2 C 0.32379(5) 0.77576(16) 0.2655(2)
C3 C 0.29931(6) 0.75083(18) 0.3590(2)
H1 H 0.28180 0.69930 0.33530
C4 C 0.30091(7) 0.8015(2) 0.4841(2)
H2 H 0.28450 0.78470 0.54570
C5 C 0.32714(8) 0.8788(2) 0.5201(3)
H3 H 0.32810 0.91350 0.60570
C6 C 0.35110(7) 0.9036(2) 0.4324(3)
H4 H 0.36840 0.95520 0.45830
C7 C 0.35035(6) 0.85239(17) 0.3012(2)
C8 C 0.37500(6) 0.87413(19) 0.2053(3)
H5 H 0.39250 0.92620 0.22650
C9 C 0.37345(6) 0.81961(16) 0.0820(2)
C10 C 0.29338(6) 0.60623(19) -0.0392(2)
C11 C 0.32543(6) 0.54107(18) -0.0702(2)
C12 C 0.40129(7) 0.4883(2) 0.0265(3)
H6 H 0.40580 0.51830 0.11900
H7 H 0.39860 0.54890 -0.03850
C13 C 0.43074(7) 0.4166(2) -0.0060(3)
C14 C 0.42705(8) 0.3454(3) -0.1159(3)
H8 H 0.40590 0.34250 -0.17150
C15 C 0.45401(11) 0.2790(3) -0.1444(4)
H9 H 0.45110 0.23090 -0.21910
C16 C 0.48499(11) 0.2823(4) -0.0651(5)
H10 H 0.50330 0.23700 -0.08610
C17 C 0.48951(9) 0.3509(4) 0.0445(4)
H11 H 0.51080 0.35290 0.09910
C18 C 0.46230(9) 0.4180(3) 0.0746(4)
H12 H 0.46530 0.46480 0.15050
C19 C 0.26249(7) 0.5278(2) -0.0310(3)
H13 H 0.26820 0.47450 0.04050
H14 H 0.25760 0.49080 -0.11810
H15 H 0.24220 0.56880 -0.01040
C20 C 0.28417(7) 0.6949(2) -0.1475(3)
H16 H 0.26560 0.73980 -0.11910
H17 H 0.27680 0.66090 -0.23460
H18 H 0.30440 0.73980 -0.15700
C21 C 0.39851(6) 0.83642(18) -0.0224(2)
C22 C 0.39316(7) 0.7860(2) -0.1517(3)
H19 H 0.37380 0.74060 -0.17140
C23 C 0.41604(9) 0.8023(2) -0.2509(3)
H20 H 0.41190 0.76790 -0.33640
C24 C 0.44473(8) 0.8685(3) -0.2247(4)
H21 H 0.46020 0.87900 -0.29160
C25 C 0.45040(7) 0.9193(3) -0.0989(4)
H22 H 0.46980 0.96480 -0.08050
C26 C 0.42764(7) 0.9036(2) 0.0008(3)
H23 H 0.43190 0.93890 0.08560
H24 H 0.3348(6) 0.489(2) 0.117(3)
#END
