
#######################################################################
#
#                 Cambridge Crystallographic Data Centre
#                                CCDC
#
#######################################################################
#
# If this CIF has been generated from an entry in the Cambridge
# Structural Database, then it will include bibliographic, chemical,
# crystal, experimental, refinement or atomic coordinate data resulting
# from the CCDC's data processing and validation procedures.
#
#######################################################################

data_CSD_CIF_ESECEL
_audit_creation_date 2011-07-21
_audit_creation_method CSD-ConQuest-V1
_database_code_CSD ESECEL
_database_code_depnum_ccdc_archive 'CCDC 813043'
_chemical_formula_sum 'C24 H24 N2 O11'
_chemical_formula_moiety
;
C24 H24 N2 O11
;
_journal_coden_Cambridge 179
_journal_volume 50
_journal_year 2011
_journal_page_first 5149
_journal_name_full 'Angew.Chem.,Int.Ed. '
loop_
_publ_author_name
"K.C.Nicolaou"
"V.A.Adsool"
"C.R.H.Hale"
_chemical_name_systematic
;
(+)-Methyl 
11-((3,5-dinitrobenzoyl)oxy)-12-methoxy-3-oxo-15-oxabicyclo[10.2.1]pentadeca-1
,6,13-triene-2-carboxylate
;
_cell_volume   2403.932
_exptl_crystal_colour 'colorless'
_exptl_crystal_density_diffrn 1.426
_exptl_crystal_description 'parallelepiped'
_diffrn_ambient_temperature 296
#These two values have been output from a single CSD field.
_refine_ls_R_factor_gt 0.0847
_refine_ls_wR_factor_gt 0.0847
loop_
_citation_database_id_CSD
_citation_special_details
ESEBUA "is a stereoisomer of this entry"
_symmetry_cell_setting monoclinic
_symmetry_space_group_name_H-M 'P 21'
_symmetry_Int_Tables_number 4
loop_
_symmetry_equiv_pos_site_id
_symmetry_equiv_pos_as_xyz
1 x,y,z
2 -x,1/2+y,-z
_cell_length_a 11.460(2)
_cell_length_b 10.523(2)
_cell_length_c 20.058(4)
_cell_angle_alpha 90
_cell_angle_beta 96.37(3)
_cell_angle_gamma 90
_cell_formula_units_Z 4
loop_
_atom_type_symbol
_atom_type_radius_bond
C 0.68
H 0.23
N 0.68
O 0.68
loop_
_atom_site_label
_atom_site_type_symbol
_atom_site_fract_x
_atom_site_fract_y
_atom_site_fract_z
O1 O 1.2378(4) -0.3433(4) 0.9749(2)
O2 O 1.0798(3) -0.1353(3) 0.96427(17)
O3 O 1.4090(4) 0.0489(5) 1.0048(3)
O4 O 1.4823(3) -0.1424(4) 0.9969(2)
O5 O 0.8419(3) 0.0490(3) 0.87810(18)
O6 O 0.7026(4) -0.0982(4) 0.8509(3)
O7 O 0.7466(4) 0.4936(5) 0.8537(3)
O8 O 0.5720(5) 0.5502(5) 0.8184(3)
O9 O 0.2584(4) 0.2465(6) 0.8231(3)
O10 O 0.3004(4) 0.0491(7) 0.8107(3)
O11 O 0.8952(3) -0.1008(3) 0.99242(18)
N1 N 0.6460(6) 0.4711(6) 0.8380(3)
N2 N 0.3275(5) 0.1619(7) 0.8212(3)
C1 C 1.2844(4) -0.1262(5) 0.9770(2)
C2 C 1.2881(4) -0.2581(5) 0.9501(3)
C3 C 1.3489(5) -0.2812(6) 0.8894(3)
H1 H 1.42350 -0.32250 0.90280
H2 H 1.36530 -0.20010 0.86940
C4 C 1.2786(5) -0.3622(6) 0.8373(3)
H3 H 1.31980 -0.36690 0.79770
H4 H 1.27330 -0.44770 0.85480
C5 C 1.1568(7) -0.3125(8) 0.8176(4)
H5 H 1.10130 -0.34370 0.84390
C6 C 1.1178(7) -0.2422(8) 0.7757(4)
H6 H 1.17230 -0.21120 0.74870
C7 C 0.9952(5) -0.1932(6) 0.7577(3)
H7 H 0.96970 -0.21340 0.71120
H8 H 0.94260 -0.23550 0.78530
C8 C 0.9880(5) -0.0533(6) 0.7676(3)
H9 H 0.90810 -0.02600 0.75390
H10 H 1.03840 -0.01180 0.73850
C9 C 1.0228(4) -0.0090(5) 0.8394(3)
H11 H 1.09830 -0.04570 0.85570
H12 H 1.03150 0.08270 0.83970
C10 C 0.9341(4) -0.0459(5) 0.8855(3)
H13 H 0.90090 -0.12900 0.87210
C11 C 0.9815(4) -0.0496(5) 0.9595(3)
C12 C 1.0372(5) 0.0710(5) 0.9872(3)
H14 H 0.99660 0.14510 0.99510
C13 C 1.1510(5) 0.0571(5) 0.9986(3)
H15 H 1.20400 0.11990 1.01450
C14 C 1.1809(5) -0.0710(5) 0.9827(3)
C15 C 1.3956(5) -0.0592(6) 0.9946(3)
C16 C 1.6005(5) -0.0969(7) 1.0094(4)
H16 H 1.61030 -0.02430 0.98150
H17 H 1.65380 -0.16270 0.99930
H18 H 1.61670 -0.07310 1.05570
C17 C 0.7337(5) 0.0091(7) 0.8602(3)
C18 C 0.6508(5) 0.1206(6) 0.8523(3)
C19 C 0.6881(5) 0.2440(6) 0.8536(3)
H19 H 0.76710 0.26440 0.86310
C20 C 0.6046(5) 0.3364(7) 0.8405(3)
C21 C 0.4862(5) 0.3098(8) 0.8295(3)
H20 H 0.43110 0.37430 0.82110
C22 C 0.4532(6) 0.1874(7) 0.8312(3)
C23 C 0.5327(5) 0.0913(7) 0.8412(3)
H21 H 0.50790 0.00720 0.84070
C24 C 0.9193(5) -0.1039(6) 1.0635(3)
H22 H 0.86160 -0.15540 1.08190
H23 H 0.91650 -0.01910 1.08090
H24 H 0.99600 -0.13920 1.07560
O12 O -0.2295(4) 0.2219(4) 0.5357(2)
O13 O -0.0743(3) 0.4174(3) 0.52504(19)
O14 O -0.3953(4) 0.6275(5) 0.5144(3)
O15 O -0.4739(4) 0.4375(4) 0.4948(2)
O16 O 0.1752(3) 0.5816(4) 0.61239(19)
O17 O 0.3226(4) 0.4534(5) 0.6464(3)
O18 O 0.2180(5) 1.0301(4) 0.6458(3)
O19 O 0.3869(5) 1.1135(5) 0.6687(3)
O20 O 0.7111(5) 0.6482(8) 0.6896(4)
O21 O 0.7268(4) 0.8518(7) 0.6851(3)
O22 O 0.1047(3) 0.4535(4) 0.4877(2)
N3 N 0.3235(5) 1.0241(6) 0.6573(3)
N4 N 0.6700(5) 0.7545(8) 0.6840(4)
C25 C -0.2772(5) 0.4398(6) 0.5256(3)
C26 C -0.2896(5) 0.3090(6) 0.5525(3)
C27 C -0.3734(5) 0.2893(6) 0.6042(3)
H25 H -0.40450 0.37100 0.61590
H26 H -0.43870 0.23770 0.58480
C28 C -0.3186(6) 0.2271(7) 0.6656(3)
H27 H -0.28250 0.14820 0.65360
H28 H -0.37900 0.20640 0.69410
C29 C -0.2280(7) 0.3083(8) 0.7039(3)
H29 H -0.25260 0.38960 0.71410
C30 C -0.1220(7) 0.2821(8) 0.7247(3)
H30 H -0.09790 0.19970 0.71640
C31 C -0.0321(6) 0.3653(8) 0.7602(3)
H31 H -0.03300 0.39520 0.80380
C32 C 0.0611(6) 0.3943(8) 0.7155(3)
H32 H 0.09110 0.31530 0.69920
H33 H 0.12560 0.43810 0.74120
C33 C 0.0141(5) 0.4767(6) 0.6558(3)
H34 H -0.06280 0.44580 0.63790
H35 H 0.00500 0.56320 0.67100
C34 C 0.0926(5) 0.4766(5) 0.6012(3)
H36 H 0.13580 0.39620 0.60190
C35 C 0.0276(5) 0.4996(6) 0.5300(3)
C36 C -0.0212(5) 0.6262(6) 0.5171(3)
H37 H 0.02250 0.70040 0.51510
C37 C -0.1382(5) 0.6195(5) 0.5087(3)
H38 H -0.18920 0.68690 0.49770
C38 C -0.1721(5) 0.4882(6) 0.5197(3)
C39 C -0.3851(6) 0.5166(7) 0.5129(4)
C40 C -0.5906(5) 0.4878(8) 0.4850(4)
H39 H -0.59720 0.55730 0.51530
H40 H -0.64570 0.42260 0.49340
H41 H -0.60720 0.51740 0.43960
C41 C 0.2842(6) 0.5557(7) 0.6359(4)
C42 C 0.3572(5) 0.6725(7) 0.6457(3)
C43 C 0.3045(5) 0.7936(7) 0.6421(3)
H42 H 0.22430 0.80370 0.63020
C44 C 0.3770(5) 0.8965(6) 0.6571(3)
C45 C 0.4940(6) 0.8867(7) 0.6714(3)
H43 H 0.54110 0.95800 0.68000
C46 C 0.5406(5) 0.7666(8) 0.6728(3)
C47 C 0.4746(6) 0.6600(7) 0.6616(3)
H44 H 0.50930 0.58010 0.66480
C48 C 0.0705(5) 0.4719(7) 0.4189(3)
H45 H -0.00630 0.43660 0.40720
H46 H 0.12550 0.43050 0.39330
H47 H 0.06890 0.56120 0.40900
#END
