
#######################################################################
#
#                 Cambridge Crystallographic Data Centre
#                                CCDC
#
#######################################################################
#
# If this CIF has been generated from an entry in the Cambridge
# Structural Database, then it will include bibliographic, chemical,
# crystal, experimental, refinement or atomic coordinate data resulting
# from the CCDC's data processing and validation procedures.
#
#######################################################################

data_CSD_CIF_ESECAH
_audit_creation_date 2011-07-21
_audit_creation_method CSD-ConQuest-V1
_database_code_CSD ESECAH
_database_code_depnum_ccdc_archive 'CCDC 813042'
_chemical_formula_sum 'C31 H28 N4 O16'
_chemical_formula_moiety
;
C31 H28 N4 O16
;
_journal_coden_Cambridge 179
_journal_volume 50
_journal_year 2011
_journal_page_first 5149
_journal_name_full 'Angew.Chem.,Int.Ed. '
loop_
_publ_author_name
"K.C.Nicolaou"
"V.A.Adsool"
"C.R.H.Hale"
_chemical_name_systematic
;
(+-)-Methyl 
3,11-bis((3,5-dinitrobenzoyl)oxy)-12-methoxy-15-oxatetracyclo[10.2.1.0^1,7^.0^
2,6^]pentadec-13-ene-2-carboxylate
;
_cell_volume   1569.006
_exptl_crystal_colour 'colorless'
_exptl_crystal_density_diffrn 1.508
_exptl_crystal_description 'parallelepiped'
_diffrn_ambient_temperature 296
#These two values have been output from a single CSD field.
_refine_ls_R_factor_gt 0.0872
_refine_ls_wR_factor_gt 0.0872
_symmetry_cell_setting triclinic
_symmetry_space_group_name_H-M 'P -1'
_symmetry_Int_Tables_number 2
loop_
_symmetry_equiv_pos_site_id
_symmetry_equiv_pos_as_xyz
1 x,y,z
2 -x,-y,-z
_cell_length_a 9.3356(19)
_cell_length_b 13.615(3)
_cell_length_c 14.058(3)
_cell_angle_alpha 62.20(3)
_cell_angle_beta 86.59(3)
_cell_angle_gamma 83.06(3)
_cell_formula_units_Z 2
loop_
_atom_type_symbol
_atom_type_radius_bond
C 0.68
H 0.23
N 0.68
O 0.68
loop_
_atom_site_label
_atom_site_type_symbol
_atom_site_fract_x
_atom_site_fract_y
_atom_site_fract_z
O1 O 0.6230(3) 0.18772(19) 0.60080(19)
O2 O 0.8701(3) 0.2305(2) 0.7893(2)
O3 O 0.8537(4) 0.2178(3) 0.9533(2)
O4 O 0.8636(4) 0.5886(3) 0.4769(3)
O5 O 0.8289(5) 0.7379(3) 0.4943(4)
O6 O 0.9150(6) 0.7101(4) 0.8400(5)
O7 O 0.8557(7) 0.5639(5) 0.9770(5)
O8 O 0.5699(3) 0.1494(3) 0.8494(2)
O9 O 0.5354(3) 0.0219(2) 0.7995(2)
O10 O 0.4900(3) 0.3557(2) 0.5084(2)
O11 O 0.6143(3) 0.3817(2) 0.3199(2)
O12 O 0.4407(4) 0.3547(3) 0.2356(2)
O13 O 0.2791(4) 0.6611(3) -0.1065(3)
O14 O 0.3762(6) 0.8133(3) -0.1757(3)
O15 O 0.7483(4) 0.8604(3) 0.0147(3)
O16 O 0.8113(4) 0.7296(3) 0.1705(3)
N1 N 0.8497(5) 0.6369(4) 0.5302(4)
N2 N 0.8877(7) 0.6161(5) 0.8825(6)
N3 N 0.3623(6) 0.7205(4) -0.1053(3)
N4 N 0.7397(4) 0.7682(4) 0.0888(3)
C1 C 0.8713(4) 0.1118(3) 0.8286(3)
H1 H 0.84610 0.07690 0.90520
C2 C 1.0145(4) 0.0589(3) 0.8139(3)
H2 H 1.07910 0.04190 0.87240
H3 H 1.05870 0.10740 0.74650
C3 C 0.9802(4) -0.0466(3) 0.8139(3)
H4 H 0.97560 -0.10640 0.88680
H5 H 1.05340 -0.07010 0.77460
C4 C 0.8352(4) -0.0180(3) 0.7595(3)
H6 H 0.77550 -0.08020 0.78830
C5 C 0.7637(4) 0.0867(3) 0.7679(3)
C6 C 0.7657(4) 0.1548(3) 0.6424(3)
C7 C 0.8332(5) 0.0486(3) 0.6361(3)
H7 H 0.93080 0.05680 0.60560
C8 C 0.7403(6) 0.0086(4) 0.5816(3)
H8 H 0.64240 0.01230 0.60790
H9 H 0.77220 -0.06950 0.60370
C9 C 0.7362(8) 0.0704(4) 0.4583(4)
H10 H 0.81810 0.03850 0.43230
H11 H 0.64990 0.05370 0.43590
C10 C 0.7380(6) 0.1974(4) 0.4001(3)
H12 H 0.82270 0.21420 0.42430
H13 H 0.75140 0.21990 0.32410
C11 C 0.6113(5) 0.2708(3) 0.4110(3)
H14 H 0.52090 0.24060 0.41200
C12 C 0.6186(5) 0.2923(3) 0.5078(3)
C13 C 0.7530(5) 0.3355(3) 0.5126(3)
H15 H 0.77540 0.40800 0.46840
C14 C 0.8365(4) 0.2580(3) 0.5875(3)
H16 H 0.92780 0.26670 0.60390
C15 C 0.8651(5) 0.2717(4) 0.8579(4)
C16 C 0.8709(5) 0.3943(3) 0.8021(4)
C17 C 0.8622(5) 0.4566(4) 0.6919(4)
H17 H 0.85570 0.42260 0.64850
C18 C 0.8636(5) 0.5701(4) 0.6478(4)
C19 C 0.8747(5) 0.6234(4) 0.7071(5)
H18 H 0.87540 0.70040 0.67520
C20 C 0.8848(5) 0.5589(4) 0.8160(5)
C21 C 0.8841(5) 0.4461(4) 0.8640(4)
H19 H 0.89260 0.40450 0.93830
C22 C 0.6138(5) 0.0893(3) 0.8118(3)
C23 C 0.3851(5) 0.0365(4) 0.8210(5)
H20 H 0.34890 0.11350 0.77960
H21 H 0.37110 0.01470 0.89620
H22 H 0.33420 -0.00890 0.80180
C24 C 0.4709(6) 0.3724(4) 0.6008(4)
H23 H 0.55020 0.40810 0.60660
H24 H 0.46720 0.30160 0.66370
H25 H 0.38230 0.41880 0.59460
C25 C 0.5232(5) 0.4115(4) 0.2407(3)
C26 C 0.5387(5) 0.5279(3) 0.1553(3)
C27 C 0.6335(5) 0.5932(4) 0.1625(3)
H26 H 0.69290 0.56580 0.22220
C28 C 0.6400(5) 0.6990(4) 0.0812(3)
C29 C 0.5524(5) 0.7426(4) -0.0076(3)
H27 H 0.55670 0.81500 -0.06230
C30 C 0.4603(5) 0.6764(4) -0.0120(3)
C31 C 0.4507(5) 0.5694(3) 0.0664(3)
H28 H 0.38660 0.52560 0.06010
#END
