
#######################################################################
#
#                 Cambridge Crystallographic Data Centre
#                                CCDC
#
#######################################################################
#
# If this CIF has been generated from an entry in the Cambridge
# Structural Database, then it will include bibliographic, chemical,
# crystal, experimental, refinement or atomic coordinate data resulting
# from the CCDC's data processing and validation procedures.
#
#######################################################################

data_CSD_CIF_ESEQEA
_audit_creation_date 2016-08-04
_audit_creation_method CSD-ConQuest-V1
_database_code_CSD ESEQEA
_database_code_depnum_ccdc_archive 'CCDC 1451256'
_chemical_formula_sum 'C24 H21 N1 O4'
_chemical_formula_moiety
;
C24 H21 N1 O4
;
_journal_coden_Cambridge 1220
_journal_volume 22
_journal_year 2016
_journal_page_first 6532
_journal_name_full 'Chem.-Eur.J. '
loop_
_publ_author_name
"Weidong Rao"
"J.W.Boyle"
"Philip Wai Hong Chan"
_chemical_name_systematic
;
2-methyl-4,5,6,11b-tetrahydro-3H-dicyclopenta[a,b]naphthalen-1-yl 
4-nitrobenzoate
;
_cell_volume   1889.623
_exptl_crystal_colour 'colorless'
_exptl_crystal_density_diffrn 1.362
_exptl_crystal_description 'plate'
_diffrn_ambient_temperature 103
#These two values have been output from a single CSD field.
_refine_ls_R_factor_gt 0.057
_refine_ls_wR_factor_gt 0.057
_symmetry_cell_setting monoclinic
_symmetry_space_group_name_H-M 'P 21/c'
_symmetry_Int_Tables_number 14
loop_
_symmetry_equiv_pos_site_id
_symmetry_equiv_pos_as_xyz
1 x,y,z
2 -x,1/2+y,1/2-z
3 -x,-y,-z
4 x,-1/2-y,-1/2+z
_cell_length_a 19.035(2)
_cell_length_b 7.6499(7)
_cell_length_c 12.9781(16)
_cell_angle_alpha 90
_cell_angle_beta 90.820(4)
_cell_angle_gamma 90
_cell_formula_units_Z 4
loop_
_atom_type_symbol
_atom_type_radius_bond
C 0.68
H 0.23
N 0.68
O 0.68
loop_
_atom_site_label
_atom_site_type_symbol
_atom_site_fract_x
_atom_site_fract_y
_atom_site_fract_z
C1 C 0.26480(9) 0.0562(2) 0.51434(14)
H1 H 0.21920 0.07470 0.54850
H2 H 0.25590 0.01890 0.44230
C2 C 0.30934(10) -0.0788(2) 0.57260(16)
H3 H 0.29920 -0.19830 0.54710
H4 H 0.29990 -0.07440 0.64740
C3 C 0.38608(10) -0.0278(2) 0.55124(16)
H5 H 0.41390 -0.02270 0.61620
H6 H 0.40810 -0.11320 0.50440
C4 C 0.38171(9) 0.1505(2) 0.50144(14)
C5 C 0.42929(9) 0.2368(2) 0.44764(15)
H7 H 0.47400 0.18480 0.43740
C6 C 0.41511(9) 0.4092(2) 0.40373(14)
C7 C 0.46955(10) 0.5111(3) 0.36424(15)
H8 H 0.51630 0.46790 0.36710
C8 C 0.45656(11) 0.6733(3) 0.32124(15)
H9 H 0.49420 0.74100 0.29530
C9 C 0.38869(11) 0.7367(3) 0.31601(15)
H10 H 0.37950 0.84750 0.28570
C10 C 0.33365(10) 0.6378(2) 0.35528(14)
H11 H 0.28710 0.68220 0.35140
C11 C 0.34583(9) 0.4758(2) 0.39993(12)
C12 C 0.28529(8) 0.3664(2) 0.44195(13)
H12 H 0.25800 0.31250 0.38370
C13 C 0.30982(8) 0.2231(2) 0.51825(13)
C14 C 0.30360(9) 0.3117(2) 0.62623(13)
H13 H 0.29070 0.22540 0.67960
H14 H 0.34820 0.36910 0.64700
C15 C 0.24619(8) 0.4436(2) 0.60967(13)
C16 C 0.20928(9) 0.5285(2) 0.69710(14)
H15 H 0.17190 0.60460 0.67010
H16 H 0.24290 0.59840 0.73750
H17 H 0.18880 0.43850 0.74120
C17 C 0.23669(8) 0.46846(19) 0.51003(13)
C18 C 0.12734(8) 0.5256(2) 0.43221(12)
C19 C 0.07678(8) 0.66731(19) 0.40487(12)
C20 C 0.00775(8) 0.6195(2) 0.38286(13)
H18 H -0.00510 0.49960 0.38290
C21 C -0.04247(8) 0.7462(2) 0.36088(13)
H19 H -0.08980 0.71510 0.34580
C22 C -0.02132(8) 0.91938(19) 0.36163(12)
C23 C 0.04685(8) 0.9712(2) 0.38242(12)
H20 H 0.05950 1.09140 0.38170
C24 C 0.09637(8) 0.84323(19) 0.40437(12)
H21 H 0.14370 0.87520 0.41910
N1 N -0.07488(7) 1.05503(17) 0.34052(11)
O1 O 0.18868(6) 0.59195(13) 0.46977(9)
O2 O 0.11557(6) 0.37211(14) 0.42505(10)
O3 O -0.13356(6) 1.00811(16) 0.31161(10)
O4 O -0.05750(6) 1.20823(14) 0.35275(10)
#END
