
#######################################################################
#
#                 Cambridge Crystallographic Data Centre
#                                CCDC
#
#######################################################################
#
# If this CIF has been generated from an entry in the Cambridge
# Structural Database, then it will include bibliographic, chemical,
# crystal, experimental, refinement or atomic coordinate data resulting
# from the CCDC's data processing and validation procedures.
#
#######################################################################

data_CSD_CIF_ESEQIE
_audit_creation_date 2016-08-04
_audit_creation_method CSD-ConQuest-V1
_database_code_CSD ESEQIE
_database_code_depnum_ccdc_archive 'CCDC 1451257'
_chemical_formula_sum 'C32 H25 N1 O4'
_chemical_formula_moiety
;
C32 H25 N1 O4
;
_journal_coden_Cambridge 1220
_journal_volume 22
_journal_year 2016
_journal_page_first 6532
_journal_name_full 'Chem.-Eur.J. '
loop_
_publ_author_name
"Weidong Rao"
"J.W.Boyle"
"Philip Wai Hong Chan"
_chemical_name_systematic
;
14-methyl-11,12,13,15a-tetrahydro-10H-dicyclopenta[a,b]triphenylen-15-yl 
4-nitrobenzoate
;
_cell_volume   2360.253
_exptl_crystal_colour 'orange'
_exptl_crystal_density_diffrn 1.372
_exptl_crystal_description 'block'
_diffrn_ambient_temperature 103
#These two values have been output from a single CSD field.
_refine_ls_R_factor_gt 0.0544
_refine_ls_wR_factor_gt 0.0544
_symmetry_cell_setting triclinic
_symmetry_space_group_name_H-M 'P -1'
_symmetry_Int_Tables_number 2
loop_
_symmetry_equiv_pos_site_id
_symmetry_equiv_pos_as_xyz
1 x,y,z
2 -x,-y,-z
_cell_length_a 11.552(2)
_cell_length_b 12.711(3)
_cell_length_c 16.719(3)
_cell_angle_alpha 102.517(7)
_cell_angle_beta 90.546(6)
_cell_angle_gamma 99.620(7)
_cell_formula_units_Z 4
loop_
_atom_type_symbol
_atom_type_radius_bond
C 0.68
H 0.23
N 0.68
O 0.68
loop_
_atom_site_label
_atom_site_type_symbol
_atom_site_fract_x
_atom_site_fract_y
_atom_site_fract_z
C1 C 0.7095(2) 0.4527(2) 0.03517(17)
C2 C 0.6589(2) 0.5383(2) 0.06319(17)
C3 C 0.6722(3) 0.6430(2) 0.03445(19)
H1 H 0.72560 0.63990 -0.01090
H2 H 0.70450 0.70420 0.07980
H3 H 0.59520 0.65350 0.01560
C4 C 0.5803(2) 0.5157(2) 0.13010(18)
H4 H 0.49660 0.50430 0.11140
H5 H 0.59510 0.57710 0.17880
C5 C 0.6117(2) 0.4091(2) 0.15056(18)
C6 C 0.5018(2) 0.3412(2) 0.17828(19)
H6 H 0.43330 0.33200 0.13980
H7 H 0.51660 0.26810 0.18280
C7 C 0.4819(2) 0.4114(2) 0.26306(19)
H8 H 0.44230 0.36500 0.29870
H9 H 0.43340 0.46680 0.25740
C8 C 0.6071(2) 0.4671(2) 0.29902(18)
H10 H 0.61300 0.54760 0.31490
H11 H 0.62780 0.43990 0.34750
C9 C 0.6856(2) 0.4350(2) 0.22945(17)
C10 C 0.7917(2) 0.4073(2) 0.23503(17)
H12 H 0.83410 0.42900 0.28660
C11 C 0.8457(2) 0.3449(2) 0.16499(17)
C12 C 0.9597(2) 0.3148(2) 0.17608(17)
C13 C 1.0294(2) 0.3568(2) 0.24959(19)
H13 H 1.00110 0.40600 0.29300
C14 C 1.1374(2) 0.3279(2) 0.2597(2)
H14 H 1.18270 0.35750 0.30970
C15 C 1.1803(3) 0.2554(3) 0.1968(2)
H15 H 1.25410 0.23440 0.20420
C16 C 1.1159(2) 0.2145(2) 0.12454(19)
H16 H 1.14650 0.16580 0.08190
C17 C 1.0044(2) 0.2429(2) 0.11118(18)
C18 C 0.9361(2) 0.1998(2) 0.03428(18)
C19 C 0.9746(3) 0.1258(2) -0.03148(19)
H17 H 1.04760 0.10270 -0.02530
C20 C 0.9095(3) 0.0864(2) -0.1039(2)
H18 H 0.93750 0.03650 -0.14710
C21 C 0.8021(3) 0.1195(2) -0.11424(19)
H19 H 0.75730 0.09300 -0.16470
C22 C 0.7615(3) 0.1907(2) -0.05098(18)
H20 H 0.68750 0.21170 -0.05820
C23 C 0.8264(2) 0.2336(2) 0.02439(17)
C24 C 0.7842(2) 0.3086(2) 0.09094(17)
C25 C 0.6755(2) 0.3563(2) 0.07489(17)
H21 H 0.61790 0.29880 0.03750
C26 C 0.7641(2) 0.4117(2) -0.10255(17)
C27 C 0.8666(2) 0.3924(2) -0.15365(18)
C28 C 0.8502(3) 0.3752(2) -0.23768(18)
H22 H 0.77680 0.38070 -0.26120
C29 C 0.9414(3) 0.3499(2) -0.28753(19)
H23 H 0.93230 0.33940 -0.34540
C30 C 1.0455(2) 0.3404(2) -0.2512(2)
C31 C 1.0641(2) 0.3576(2) -0.1677(2)
H24 H 1.13720 0.35080 -0.14460
C32 C 0.9737(2) 0.3849(2) -0.11827(19)
H25 H 0.98460 0.39850 -0.06030
N1 N 1.1411(2) 0.3100(2) -0.30439(18)
O1 O 0.79776(16) 0.44965(16) -0.02239(12)
O2 O 0.66354(18) 0.3936(2) -0.12804(14)
O3 O 1.23311(18) 0.29972(18) -0.27167(16)
O4 O 1.1244(2) 0.2958(2) -0.37889(16)
C33 C 0.5307(2) 1.0531(2) 0.68523(17)
C34 C 0.4940(2) 1.1460(2) 0.71634(17)
C35 C 0.5123(3) 1.2477(2) 0.68432(19)
H26 H 0.56020 1.23770 0.63600
H27 H 0.55280 1.30880 0.72680
H28 H 0.43600 1.26350 0.66900
C36 C 0.4311(2) 1.1364(2) 0.79293(18)
H29 H 0.35210 1.15620 0.79000
H30 H 0.47600 1.18520 0.84150
C37 C 0.4211(2) 1.0133(2) 0.79829(18)
C38 C 0.4475(3) 1.0039(2) 0.88655(18)
H31 H 0.51930 1.05550 0.91090
H32 H 0.45750 0.92860 0.88820
C39 C 0.3373(3) 1.0342(3) 0.93188(19)
H33 H 0.34840 1.11380 0.95600
H34 H 0.32090 0.99410 0.97630
C40 C 0.2354(3) 1.0001(2) 0.86531(19)
H35 H 0.17460 0.94210 0.87810
H36 H 0.19850 1.06350 0.86050
C41 C 0.2947(2) 0.9579(2) 0.78736(18)
C42 C 0.2524(2) 0.8735(2) 0.72670(18)
H37 H 0.17090 0.84410 0.72420
C43 C 0.3258(2) 0.8238(2) 0.66335(17)
C44 C 0.2732(2) 0.7362(2) 0.59559(17)
C45 C 0.1498(2) 0.7061(2) 0.58278(18)
H38 H 0.10050 0.74210 0.62060
C46 C 0.1000(3) 0.6267(3) 0.5177(2)
H39 H 0.01680 0.60780 0.51070
C47 C 0.1710(3) 0.5731(2) 0.4613(2)
H40 H 0.13600 0.51800 0.41570
C48 C 0.2907(3) 0.5997(2) 0.47147(19)
H41 H 0.33810 0.56240 0.43280
C49 C 0.3453(2) 0.6817(2) 0.53861(18)
C50 C 0.4721(2) 0.7091(2) 0.55226(18)
C51 C 0.5480(3) 0.6494(2) 0.50197(18)
H42 H 0.51530 0.59120 0.45760
C52 C 0.6673(3) 0.6738(2) 0.51596(19)
H43 H 0.71660 0.63300 0.48150
C53 C 0.7162(3) 0.7586(2) 0.58083(19)
H44 H 0.79910 0.77540 0.59050
C54 C 0.6457(2) 0.8181(2) 0.63083(18)
H45 H 0.68050 0.87520 0.67520
C55 C 0.5217(2) 0.7961(2) 0.61758(17)
C56 C 0.4456(2) 0.8565(2) 0.67069(17)
C57 C 0.5010(2) 0.9622(2) 0.73079(17)
H46 H 0.57440 0.95070 0.75740
C58 C 0.7102(2) 1.0696(2) 0.62180(18)
C59 C 0.7690(2) 1.0484(2) 0.54222(18)
C60 C 0.7162(2) 0.9741(2) 0.47244(18)
H47 H 0.63810 0.93650 0.47330
C61 C 0.7779(2) 0.9555(2) 0.40211(18)
H48 H 0.74450 0.90300 0.35470
C62 C 0.8900(2) 1.0151(2) 0.40221(18)
C63 C 0.9434(2) 1.0903(2) 0.46978(19)
H49 H 1.01990 1.13070 0.46760
C64 C 0.8822(2) 1.1053(2) 0.54103(18)
H50 H 0.91790 1.15470 0.58930
N2 N 0.9550(2) 0.9974(2) 0.32662(16)
O5 O 0.59208(16) 1.03606(15) 0.61236(12)
O6 O 0.76094(18) 1.1112(2) 0.68647(13)
O7 O 0.9243(2) 0.91295(18) 0.27487(14)
O8 O 1.03672(19) 1.06934(19) 0.31868(14)
#END
