
#######################################################################
#
#                 Cambridge Crystallographic Data Centre
#                                CCDC
#
#######################################################################
#
# If this CIF has been generated from an entry in the Cambridge
# Structural Database, then it will include bibliographic, chemical,
# crystal, experimental, refinement or atomic coordinate data resulting
# from the CCDC's data processing and validation procedures.
#
#######################################################################

data_CSD_CIF_ESIRUV
_audit_creation_date 2016-08-05
_audit_creation_method CSD-ConQuest-V1
_database_code_CSD ESIRUV
_database_code_depnum_ccdc_archive 'CCDC 1430399'
_chemical_formula_sum 'C19 H13 N3 O3'
_chemical_formula_moiety
;
C19 H13 N3 O3
;
_journal_coden_Cambridge 1441
_journal_volume 8
_journal_year 2016
_journal_page_first 1131
_journal_name_full 'Nature Chemistry '
loop_
_publ_author_name
"Gang He"
"Gang Lu"
"Zhengwei Guo"
"Peng Liu"
"Gong Chen"
_chemical_name_systematic
;
(2-(3-nitrophenyl)-7-azabicyclo[4.2.0]octa-1,3,5-trien-7-yl)(pyridin-2-yl)meth
anone
;
_cell_volume    765.772
_exptl_crystal_colour 'colorless'
_exptl_crystal_density_diffrn 1.437
_exptl_crystal_description 'Prism'
_exptl_crystal_preparation 'toluene/hexane'
_diffrn_ambient_temperature 293
#These two values have been output from a single CSD field.
_refine_ls_R_factor_gt 0.0458
_refine_ls_wR_factor_gt 0.0458
_symmetry_cell_setting triclinic
_symmetry_space_group_name_H-M 'P -1'
_symmetry_Int_Tables_number 2
loop_
_symmetry_equiv_pos_site_id
_symmetry_equiv_pos_as_xyz
1 x,y,z
2 -x,-y,-z
_cell_length_a 7.5649(15)
_cell_length_b 8.9773(18)
_cell_length_c 11.577(2)
_cell_angle_alpha 77.31(3)
_cell_angle_beta 88.90(3)
_cell_angle_gamma 86.76(3)
_cell_formula_units_Z 2
loop_
_atom_type_symbol
_atom_type_radius_bond
C 0.68
H 0.23
N 0.68
O 0.68
loop_
_atom_site_label
_atom_site_type_symbol
_atom_site_fract_x
_atom_site_fract_y
_atom_site_fract_z
O1 O 0.20349(17) 0.42555(14) 1.24333(10)
O2 O 0.6369(2) 0.88720(17) 0.41639(12)
O3 O 0.5218(2) 0.80351(18) 0.27604(11)
N1 N 0.21571(16) 0.41603(14) 1.05253(10)
N2 N 0.10809(19) 0.11584(16) 1.11365(11)
N3 N 0.5335(2) 0.80780(17) 0.38029(13)
C1 C 0.2067(2) 0.38106(17) 0.93142(12)
H1 H 0.08870 0.36410 0.90740
H2 H 0.29220 0.30210 0.91760
C2 C 0.26474(18) 0.54405(17) 0.88701(12)
C3 C 0.27005(18) 0.56450(17) 1.00186(13)
C4 C 0.3200(2) 0.69416(19) 1.03429(14)
H3 H 0.32460 0.70380 1.11250
C5 C 0.3631(2) 0.80992(19) 0.93810(14)
H4 H 0.39600 0.90240 0.95250
C6 C 0.3592(2) 0.79360(19) 0.82254(14)
H5 H 0.38910 0.87560 0.76250
C7 C 0.31187(18) 0.65787(17) 0.79143(13)
C8 C 0.31399(18) 0.64097(17) 0.66716(13)
C9 C 0.4195(2) 0.73110(18) 0.58202(13)
H6 H 0.48910 0.80310 0.60290
C10 C 0.4195(2) 0.71250(18) 0.46716(13)
C11 C 0.3228(2) 0.60637(18) 0.43071(13)
H7 H 0.32650 0.59570 0.35260
C12 C 0.2201(2) 0.5163(2) 0.51477(14)
H8 H 0.15360 0.44280 0.49340
C13 C 0.2146(2) 0.53391(19) 0.63047(14)
H9 H 0.14290 0.47280 0.68520
C14 C 0.18706(19) 0.35088(19) 1.16773(13)
C15 C 0.13650(19) 0.18845(18) 1.20022(13)
C16 C 0.1211(2) 0.1205(2) 1.31909(14)
H10 H 0.14290 0.17470 1.37670
C17 C 0.0730(3) -0.0285(2) 1.35060(16)
H11 H 0.06270 -0.07740 1.42990
C18 C 0.0408(2) -0.1032(2) 1.26318(15)
H12 H 0.00660 -0.20360 1.28180
C19 C 0.0596(2) -0.0278(2) 1.14717(15)
H13 H 0.03710 -0.08010 1.08850
#END
