
#######################################################################
#
#                 Cambridge Crystallographic Data Centre
#                                CCDC
#
#######################################################################
#
# If this CIF has been generated from an entry in the Cambridge
# Structural Database, then it will include bibliographic, chemical,
# crystal, experimental, refinement or atomic coordinate data resulting
# from the CCDC's data processing and validation procedures.
#
#######################################################################

data_CSD_CIF_ESOMOO
_audit_creation_date 2004-06-30
_audit_creation_method CSD-ConQuest-V1
_database_code_CSD ESOMOO
_database_code_depnum_ccdc_archive 'CCDC 208087'
_chemical_formula_sum 'C22 H23 N1 O4'
_chemical_formula_moiety
;
C22 H23 N1 O4
;
_journal_coden_Cambridge 1220
_journal_volume 9
_journal_year 2003
_journal_page_first 4339
_journal_name_full 'Chem.-Eur.J. '
loop_
_publ_author_name
"A.S.K.Hashmi"
"Li Ding"
"J.W.Bats"
"P.Fischer"
"W.Frey"
_chemical_name_systematic
;
1,5-Dimethyl-3-(2-methylprop-1-enyl)indan-4-yl 4-nitrobenzoate
;
_chemical_melting_point 415.15
_cell_volume   3838.687
_exptl_crystal_colour 'pale yellow'
_exptl_crystal_density_diffrn 1.265
_exptl_special_details
;
Melting point range 415.15-416.15K

;
_exptl_crystal_description 'plate'
_exptl_crystal_preparation 'dichloromethane/petroleum ether'
_diffrn_ambient_temperature 149
#These two values have been output from a single CSD field.
_refine_ls_R_factor_gt 0.0705
_refine_ls_wR_factor_gt 0.0705
_symmetry_cell_setting monoclinic
_symmetry_space_group_name_H-M 'C 2/c'
_symmetry_Int_Tables_number 15
loop_
_symmetry_equiv_pos_site_id
_symmetry_equiv_pos_as_xyz
1 x,y,z
2 1/2+x,1/2+y,z
3 x,-y,1/2+z
4 1/2+x,1/2-y,1/2+z
5 -x,-y,-z
6 -1/2-x,-1/2-y,-z
7 -x,y,-1/2-z
8 -1/2-x,-1/2+y,-1/2-z
_cell_length_a 20.258(5)
_cell_length_b 9.984(3)
_cell_length_c 19.207(4)
_cell_angle_alpha 90
_cell_angle_beta 98.83(2)
_cell_angle_gamma 90
_cell_formula_units_Z 8
loop_
_atom_type_symbol
_atom_type_radius_bond
C 0.68
H 0.23
N 0.68
O 0.68
loop_
_atom_site_label
_atom_site_type_symbol
_atom_site_fract_x
_atom_site_fract_y
_atom_site_fract_z
O1 O 0.27836(6) 0.71843(12) 0.11074(6)
O2 O 0.26175(7) 0.74727(14) 0.22295(6)
C1 C 0.32585(9) 0.61572(18) 0.13158(9)
C2 C 0.19610(8) 0.87263(18) 0.13196(9)
C3 C 0.35315(9) 0.38288(19) 0.12912(10)
C4 C 0.24774(9) 0.77388(19) 0.16163(9)
C5 C 0.30614(8) 0.48484(19) 0.11733(9)
C6 C 0.17166(9) 0.87815(19) 0.06038(9)
H1 H 0.18840 0.81810 0.02890
C7 C 0.12485(9) 1.0567(2) 0.15257(10)
H2 H 0.10910 1.11930 0.18340
C8 C 0.10140(9) 1.05837(19) 0.08154(10)
N1 N 0.05191(8) 1.16149(18) 0.05393(10)
C9 C 0.39084(9) 0.65011(19) 0.15966(9)
C10 C 0.12320(9) 0.97047(19) 0.03473(10)
H3 H 0.10540 0.97320 -0.01400
C11 C 0.17207(9) 0.9613(2) 0.17796(10)
H4 H 0.18810 0.95640 0.22700
C12 C 0.2476(1) 0.2779(2) 0.09815(10)
H5 H 0.23040 0.24990 0.14140
H6 H 0.22330 0.22760 0.05780
C13 C 0.43682(9) 0.5455(2) 0.1713(1)
H7 H 0.48190 0.56550 0.19020
C14 C 0.18092(9) 0.4845(2) 0.12029(10)
H8 H 0.18780 0.48420 0.17030
C15 C 0.23732(9) 0.4309(2) 0.08628(10)
H9 H 0.22850 0.45000 0.03460
O3 O 0.03568(9) 1.24333(16) 0.09511(9)
O4 O 0.02992(9) 1.16038(19) -0.00878(9)
C16 C 0.41909(9) 0.4134(2) 0.15629(10)
H10 H 0.45160 0.34430 0.16450
C17 C 0.32276(10) 0.2494(2) 0.10536(10)
H11 H 0.33380 0.22970 0.05740
C18 C 0.41107(10) 0.7926(2) 0.17689(11)
H12 H 0.38930 0.82410 0.21600
H13 H 0.39750 0.84910 0.13550
H14 H 0.45970 0.79730 0.19040
C19 C 0.12266(10) 0.5323(2) 0.08951(11)
C20 C 0.34550(12) 0.1327(2) 0.15280(12)
H15 H 0.39380 0.12100 0.15540
H16 H 0.32250 0.05120 0.13380
H17 H 0.33490 0.15010 0.20010
C21 C 0.10158(11) 0.5460(2) 0.01148(11)
H18 H 0.14060 0.53480 -0.01250
H19 H 0.08210 0.63500 0.00090
H20 H 0.06830 0.47730 -0.00490
C22 C 0.07039(11) 0.5769(3) 0.13264(13)
H21 H 0.08710 0.56350 0.18280
H22 H 0.02960 0.52430 0.11930
H23 H 0.06050 0.67210 0.12380
#END
