
#######################################################################
#
#                 Cambridge Crystallographic Data Centre
#                                CCDC
#
#######################################################################
#
# If this CIF has been generated from an entry in the Cambridge
# Structural Database, then it will include bibliographic, chemical,
# crystal, experimental, refinement or atomic coordinate data resulting
# from the CCDC's data processing and validation procedures.
#
#######################################################################

data_CSD_CIF_ESUHEH
_audit_creation_date 2016-08-29
_audit_creation_method CSD-ConQuest-V1
_database_code_CSD ESUHEH
_database_code_depnum_ccdc_archive 'CCDC 1401076'
_chemical_formula_sum 'C19 H15 N5 O3'
_chemical_formula_moiety
;
C19 H15 N5 O3
;
_journal_coden_Cambridge 917
_journal_volume 11
_journal_year 2015
_journal_page_first 2125
_journal_name_full 'Beilstein J.Org.Chem. '
loop_
_publ_author_name
"Mingxing Liu"
"Jiarong Li"
"Hongxin Chai"
"Kai Zhang"
"Deli Yang"
"Qi Zhang"
"Daxin Shi"
_chemical_name_systematic
;
4-ethoxy-6-(2-nitrophenyl)-1-phenyl-1H-pyrazolo[3,4-d]pyrimidine
;
_chemical_melting_point 397.15
_cell_volume    843.948
_exptl_crystal_colour 'brown'
_exptl_crystal_density_diffrn 1.422
_exptl_special_details
;
Melting point range 397.15-399.15K

;
_exptl_crystal_description 'block'
_exptl_crystal_preparation 'ethanol'
_diffrn_ambient_temperature 100.1
#These two values have been output from a single CSD field.
_refine_ls_R_factor_gt 0.0475
_refine_ls_wR_factor_gt 0.0475
_symmetry_cell_setting triclinic
_symmetry_space_group_name_H-M 'P -1'
_symmetry_Int_Tables_number 2
loop_
_symmetry_equiv_pos_site_id
_symmetry_equiv_pos_as_xyz
1 x,y,z
2 -x,-y,-z
_cell_length_a 8.2325(6)
_cell_length_b 10.3901(8)
_cell_length_c 10.9502(8)
_cell_angle_alpha 70.301(7)
_cell_angle_beta 85.173(6)
_cell_angle_gamma 73.167(7)
_cell_formula_units_Z 2
loop_
_atom_type_symbol
_atom_type_radius_bond
C 0.68
H 0.23
N 0.68
O 0.68
loop_
_atom_site_label
_atom_site_type_symbol
_atom_site_fract_x
_atom_site_fract_y
_atom_site_fract_z
O1 O 0.44959(15) 0.10116(13) 0.74532(12)
O2 O 0.66183(16) -0.37314(14) 0.90540(13)
O3 O 0.72908(16) -0.41519(15) 0.72367(13)
N1 N 0.23851(18) -0.20405(16) 0.99456(14)
N2 N 0.39251(18) -0.11673(16) 0.80058(14)
N3 N 0.16257(18) -0.04159(16) 1.12045(14)
N4 N 0.62816(19) -0.39908(16) 0.81103(15)
C1 C 0.2351(2) -0.08317(19) 1.01757(17)
C2 C 0.3830(2) 0.0016(2) 0.82595(17)
C3 C 0.3022(2) 0.0249(2) 0.93799(17)
C4 C 0.2980(2) -0.5503(2) 0.75172(18)
H1 H 0.29050 -0.62020 0.71910
C5 C 0.0803(2) -0.2522(2) 1.25793(18)
H2 H 0.12890 -0.30000 1.19990
C6 C 0.3179(2) -0.33597(19) 0.84683(17)
C7 C 0.0059(2) -0.0401(2) 1.31801(18)
H3 H 0.00550 0.05400 1.30080
N5 N 0.18266(19) 0.08969(17) 1.10891(15)
C8 C 0.3185(2) -0.2116(2) 0.88580(17)
C9 C -0.0685(2) -0.1098(2) 1.42941(19)
H4 H -0.11950 -0.06160 1.48660
C10 C 0.5655(2) 0.2100(2) 0.54239(19)
H5 H 0.61930 0.19550 0.46500
H6 H 0.63960 0.23590 0.58730
H7 H 0.46130 0.28480 0.51980
C11 C 0.5286(2) 0.0746(2) 0.62884(18)
H8 H 0.45280 0.04790 0.58480
H9 H 0.63290 -0.00210 0.65130
C12 C -0.0680(2) -0.2501(2) 1.45674(19)
H10 H -0.11710 -0.29640 1.53210
C13 C 0.0811(2) -0.1121(2) 1.23215(17)
C14 C 0.4518(2) -0.5232(2) 0.75406(18)
H11 H 0.54880 -0.57490 0.72370
C15 C 0.2646(2) 0.1287(2) 1.00058(18)
H12 H 0.29410 0.21380 0.96910
C16 C 0.0068(2) -0.3205(2) 1.37013(18)
H13 H 0.00770 -0.41470 1.38760
C17 C 0.4599(2) -0.4181(2) 0.80218(17)
C18 C 0.1542(2) -0.4728(2) 0.79823(18)
H14 H 0.05080 -0.49240 0.79840
C19 C 0.1646(2) -0.3664(2) 0.84449(18)
H15 H 0.06730 -0.31450 0.87450
#END
