
#######################################################################
#
#                 Cambridge Crystallographic Data Centre
#                                CCDC
#
#######################################################################
#
# If this CIF has been generated from an entry in the Cambridge
# Structural Database, then it will include bibliographic, chemical,
# crystal, experimental, refinement or atomic coordinate data resulting
# from the CCDC's data processing and validation procedures.
#
#######################################################################

data_CSD_CIF_ETATAU
_audit_creation_date 2004-06-30
_audit_creation_method CSD-ConQuest-V1
_database_code_CSD ETATAU
_database_code_depnum_ccdc_archive 'CCDC 233689'
_database_code_depnum_ccdc_journal 1267/1116
_chemical_formula_sum 'C21 H24 N2 O6'
_chemical_formula_moiety
;
C21 H24 N2 O6
;
_journal_coden_Cambridge 1267
_journal_volume 218
_journal_year 2003
_journal_page_first 471
_journal_name_full 'Z.Kristallogr.-New Cryst.Struct. '
loop_
_publ_author_name
"H.Euler"
"A.Kirfel"
"C.Valder"
"M.Neugebauer"
"M.Meier"
"N.A.Braun"
_chemical_name_systematic
;
(1R*,2S*,5S*,6S*,7R*)-6-(3,5-Dinitrobenzoyloxymethyl)-2,7-dimethyltricyclo(5.2
.2.0^1,5^)undec-8-ene
;
_cell_volume   2019.012
_exptl_crystal_colour 'colorless'
_exptl_crystal_density_diffrn 1.317
_exptl_crystal_description 'plate'
_diffrn_ambient_temperature 295
#These two values have been output from a single CSD field.
_refine_ls_R_factor_gt 0.0949
_refine_ls_wR_factor_gt 0.0949
_symmetry_cell_setting orthorhombic
_symmetry_space_group_name_H-M 'P 21 21 21'
_symmetry_Int_Tables_number 19
loop_
_symmetry_equiv_pos_site_id
_symmetry_equiv_pos_as_xyz
1 x,y,z
2 1/2-x,-y,1/2+z
3 1/2+x,1/2-y,-z
4 -x,1/2+y,1/2-z
_cell_length_a 6.285(2)
_cell_length_b 9.044(4)
_cell_length_c 35.52(2)
_cell_angle_alpha 90
_cell_angle_beta 90
_cell_angle_gamma 90
_cell_formula_units_Z 4
loop_
_atom_type_symbol
_atom_type_radius_bond
C 0.68
H 0.23
N 0.68
O 0.68
loop_
_atom_site_label
_atom_site_type_symbol
_atom_site_fract_x
_atom_site_fract_y
_atom_site_fract_z
N1 N 0.7384(16) 0.2060(13) 0.0826(3)
N2 N 0.7751(15) -0.2843(12) 0.0267(3)
O1 O 0.7674(12) 0.0627(8) -0.08300(18)
O2 O 0.7331(15) 0.2913(10) -0.06020(18)
O3 O 0.7652(15) -0.3580(9) -0.0015(3)
O4 O 0.790(2) -0.3316(10) 0.0589(3)
O5 O 0.7230(18) 0.1507(10) 0.1138(2)
O6 O 0.7424(18) 0.3401(12) 0.0786(2)
C1 C 0.5844(16) -0.2180(13) -0.1754(3)
C2 C 0.508(2) -0.3673(15) -0.1618(3)
H1 H 0.38650 -0.34910 -0.14520
C3 C 0.686(2) -0.4204(14) -0.1372(3)
H2 H 0.78660 -0.47890 -0.15170
H3 H 0.63170 -0.48060 -0.11680
C4 C 0.795(3) -0.2802(14) -0.1217(3)
H4 H 0.78440 -0.27710 -0.09450
H5 H 0.94450 -0.27870 -0.12860
C5 C 0.6787(17) -0.1491(12) -0.1392(2)
H6 H 0.55990 -0.12330 -0.12260
C6 C 0.8002(15) -0.0077(11) -0.1479(2)
H7 H 0.95170 -0.03030 -0.14480
C7 C 0.7672(16) 0.0323(11) -0.1894(3)
C8 C 0.8401(18) -0.0955(16) -0.2125(3)
H8 H 0.94050 -0.08430 -0.23150
C9 C 0.7563(19) -0.2232(16) -0.2048(3)
H9 H 0.79900 -0.31040 -0.21650
C10 C 0.4162(17) -0.1097(14) -0.1902(3)
H10 H 0.30170 -0.10020 -0.17210
H11 H 0.35670 -0.14670 -0.21360
C11 C 0.5211(18) 0.0429(15) -0.1970(3)
H12 H 0.45830 0.11570 -0.18030
H13 H 0.49620 0.07420 -0.22270
C12 C 0.434(3) -0.4767(16) -0.1918(3)
H14 H 0.33540 -0.54520 -0.18090
H15 H 0.55480 -0.52970 -0.20150
H16 H 0.36620 -0.42380 -0.21190
C13 C 0.874(2) 0.1783(15) -0.2011(3)
H17 H 0.90370 0.23610 -0.17910
H18 H 0.78000 0.23240 -0.21740
H19 H 1.00410 0.15740 -0.21410
C14 C 0.750(2) 0.1148(12) -0.1215(2)
H20 H 0.84890 0.19590 -0.12550
H21 H 0.60750 0.15070 -0.12620
C15 C 0.7499(18) 0.1570(14) -0.0553(3)
C16 C 0.7576(16) 0.0937(12) -0.0173(2)
C17 C 0.7663(14) -0.0631(13) -0.0128(3)
H22 H 0.77130 -0.12530 -0.03360
C18 C 0.7672(16) -0.1191(12) 0.0225(3)
C19 C 0.7581(16) -0.0388(13) 0.0547(3)
H23 H 0.76160 -0.08210 0.07840
C20 C 0.7432(17) 0.1139(13) 0.0495(2)
C21 C 0.7479(16) 0.1770(15) 0.0146(3)
H24 H 0.74440 0.27950 0.01260
H25? H 0.88820 0.18120 -0.22800
H26? H 1.01190 0.18490 -0.18970
H27? H 0.78780 0.25990 -0.19290
#END
