
#######################################################################
#
#                 Cambridge Crystallographic Data Centre
#                                CCDC
#
#######################################################################
#
# If this CIF has been generated from an entry in the Cambridge
# Structural Database, then it will include bibliographic, chemical,
# crystal, experimental, refinement or atomic coordinate data resulting
# from the CCDC's data processing and validation procedures.
#
#######################################################################

data_CSD_CIF_ETELOG
_audit_creation_date 2016-08-30
_audit_creation_method CSD-ConQuest-V1
_database_code_CSD ETELOG
_database_code_depnum_ccdc_archive 'CCDC 1484156'
_chemical_formula_sum 'C20 H15 N3 O3'
_chemical_formula_moiety
;
C20 H15 N3 O3
;
_journal_coden_Cambridge 1500
_journal_volume 6
_journal_year 2016
_journal_page_first 81943
_journal_name_full 'RSC Advances '
loop_
_publ_author_name
"H.Zali-Boeini"
"N.Norastehfar"
"H.Amiri Rudbari"
_chemical_name_systematic
;
2-(4-methoxyphenyl)-3-(4-nitrophenyl)imidazo[1,2-a]pyridine
;
_cell_volume    826.271
_exptl_crystal_density_diffrn 1.388
_exptl_crystal_description 'irregular'
_diffrn_ambient_temperature 298
#These two values have been output from a single CSD field.
_refine_ls_R_factor_gt 0.0331
_refine_ls_wR_factor_gt 0.0331
_symmetry_cell_setting triclinic
_symmetry_space_group_name_H-M 'P -1'
_symmetry_Int_Tables_number 2
loop_
_symmetry_equiv_pos_site_id
_symmetry_equiv_pos_as_xyz
1 x,y,z
2 -x,-y,-z
_cell_length_a 6.9694(14)
_cell_length_b 8.0346(16)
_cell_length_c 15.190(3)
_cell_angle_alpha 84.71(3)
_cell_angle_beta 77.42(3)
_cell_angle_gamma 87.21(3)
_cell_formula_units_Z 2
loop_
_atom_type_symbol
_atom_type_radius_bond
C 0.68
H 0.23
N 0.68
O 0.68
loop_
_atom_site_label
_atom_site_type_symbol
_atom_site_fract_x
_atom_site_fract_y
_atom_site_fract_z
O1 O 0.79145(16) 0.62427(14) 0.44470(7)
N1 N -0.07387(17) 0.98126(14) 0.22360(7)
C1 C 0.1627(2) 0.75141(19) 0.07995(9)
H1 H 0.15660 0.86000 0.05330
C2 C 0.0748(2) 0.86266(17) 0.23271(9)
C3 C 0.2198(2) 0.46037(18) 0.06590(9)
C4 C 0.3134(2) 0.82890(17) 0.34254(9)
C5 C 0.4665(2) 0.73775(18) 0.29123(9)
H2 H 0.46390 0.72210 0.23160
C6 C 0.6315(2) 0.69384(18) 0.41536(9)
N2 N 0.05182(18) 1.04636(15) 0.34029(8)
C7 C -0.0828(2) 1.08902(18) 0.29148(9)
C8 C 0.2095(2) 0.6198(2) 0.02568(9)
H3 H 0.23370 0.63900 -0.03700
C9 C 0.6209(2) 0.67069(19) 0.32712(10)
H4 H 0.71980 0.60890 0.29170
N3 N 0.26967(19) 0.32131(19) 0.00743(10)
C10 C -0.2068(2) 0.99541(19) 0.16835(10)
H5 H -0.20120 0.92010 0.12480
C11 C 0.1245(2) 0.72349(17) 0.17402(9)
C12 C 0.1358(2) 0.55968(18) 0.21236(9)
H6 H 0.11030 0.53910 0.27500
O2 O 0.3117(2) 0.35481(17) -0.07457(9)
O3 O 0.2641(2) 0.17861(17) 0.0434(1)
C13 C 0.1843(2) 0.42720(18) 0.15872(10)
H7 H 0.19270 0.31830 0.18460
C14 C 0.1492(2) 0.90691(18) 0.30472(9)
C15 C -0.2260(2) 1.2208(2) 0.29885(10)
H8 H -0.23220 1.29700 0.34190
C16 C 0.4814(2) 0.7856(2) 0.46699(10)
H9 H 0.48610 0.80360 0.52610
C17 C -0.3457(2) 1.1196(2) 0.17769(10)
H10 H -0.43680 1.12890 0.14080
C18 C 0.3251(2) 0.8502(2) 0.43095(9)
H11 H 0.22480 0.90970 0.46690
C19 C -0.3540(2) 1.2355(2) 0.24311(11)
H12 H -0.44790 1.32240 0.24780
C20 C 0.8075(3) 0.6513(3) 0.53450(13)
H13 H 0.80360 0.76930 0.54100
H14 H 0.92950 0.60280 0.54560
H15 H 0.70000 0.60010 0.57730
#END
