
#######################################################################
#
#                 Cambridge Crystallographic Data Centre
#                                CCDC
#
#######################################################################
#
# If this CIF has been generated from an entry in the Cambridge
# Structural Database, then it will include bibliographic, chemical,
# crystal, experimental, refinement or atomic coordinate data resulting
# from the CCDC's data processing and validation procedures.
#
#######################################################################

data_CSD_CIF_ETHBSD
_audit_creation_date 1971-12-31
_audit_creation_method CSD-ConQuest-V1
_database_code_CSD ETHBSD
_chemical_formula_sum 'C6 H6 N4 O4'
_chemical_formula_moiety
;
C6 H6 N4 O4
;
_journal_coeditor_code "IUCr A06800"
_journal_coden_Cambridge 107
_journal_volume 25
_journal_year 1969
_journal_page_first 1237
_journal_name_full 'Acta Crystallogr.,Sect.B:Struct.Crystallogr.Cryst.Chem. '
loop_
_publ_author_name
"H.Hope"
"W.E.Thiessen"
_chemical_name_systematic
;
3,3'-Ethylene-bis(sydnone)
;
_cell_volume   1611.899
_exptl_crystal_density_diffrn 1.63
_diffrn_ambient_temperature ?
_diffrn_special_details
;
The study was carried out at room temperature,in the range 283-303K

;
#These two values have been output from a single CSD field.
_refine_ls_R_factor_gt 0.024
_refine_ls_wR_factor_gt 0.024
_symmetry_cell_setting orthorhombic
_symmetry_space_group_name_H-M 'F d d 2'
_symmetry_Int_Tables_number 43
loop_
_symmetry_equiv_pos_site_id
_symmetry_equiv_pos_as_xyz
1 x,y,z
2 x,1/2+y,1/2+z
3 1/2+x,y,1/2+z
4 1/2+x,1/2+y,z
5 1/4-x,1/4+y,1/4+z
6 1/4-x,3/4+y,3/4+z
7 3/4-x,1/4+y,3/4+z
8 3/4-x,3/4+y,1/4+z
9 1/4+x,1/4-y,1/4+z
10 1/4+x,3/4-y,3/4+z
11 3/4+x,1/4-y,3/4+z
12 3/4+x,3/4-y,1/4+z
13 1/2-x,-y,1/2+z
14 1/2-x,1/2-y,z
15 -x,-y,z
16 -x,1/2-y,1/2+z
_cell_length_a 17.397(3)
_cell_length_b 7.364(4)
_cell_length_c 12.582(6)
_cell_angle_alpha 90
_cell_angle_beta 90
_cell_angle_gamma 90
_cell_formula_units_Z 8
loop_
_atom_type_symbol
_atom_type_radius_bond
C 0.68
H 0.20
N 0.68
O 0.68
loop_
_atom_site_label
_atom_site_type_symbol
_atom_site_fract_x
_atom_site_fract_y
_atom_site_fract_z
C1 C 0.02600 0.26330 0.33340
C2 C 0.09080 0.30670 0.27290
C3 C 0.00420 0.10140 0.50640
H1 H 0.03130 0.12880 0.56810
H2 H -0.02760 0.28910 0.32900
H3 H -0.04460 0.15520 0.50070
N1 N 0.12500 0.14300 0.42040
N2 N 0.05070 0.16950 0.41710
O1 O 0.15150 0.22730 0.33000
O2 O 0.10420 0.39020 0.19180
C3N C -0.00420 -0.10140 0.50640
H1N H -0.03130 -0.12880 0.56810
H3N H 0.04460 -0.15520 0.50070
N2N N -0.05070 -0.16950 0.41710
C1N C -0.02600 -0.26330 0.33340
N1N N -0.12500 -0.14300 0.42040
C2N C -0.09080 -0.30670 0.27290
H2N H 0.02760 -0.28910 0.32900
O1N O -0.15150 -0.22730 0.33000
O2N O -0.10420 -0.39020 0.19180
#END
