
#######################################################################
#
#                 Cambridge Crystallographic Data Centre
#                                CCDC
#
#######################################################################
#
# If this CIF has been generated from an entry in the Cambridge
# Structural Database, then it will include bibliographic, chemical,
# crystal, experimental, refinement or atomic coordinate data resulting
# from the CCDC's data processing and validation procedures.
#
#######################################################################

data_CSD_CIF_ETIBIS
_audit_creation_date 2004-06-30
_audit_creation_method CSD-ConQuest-V1
_database_code_CSD ETIBIS
_database_code_depnum_ccdc_archive 'CCDC 236093'
_chemical_formula_sum 'C11 H12 N2 O2'
_chemical_formula_moiety
;
C11 H12 N2 O2
;
_journal_coeditor_code "IUCr CI6338"
_journal_coden_Cambridge 1370
_journal_volume 60
_journal_year 2004
_journal_page_first o409
_journal_name_full 'Acta Crystallogr.,Sect.E:Struct.Rep.Online '
loop_
_publ_author_name
"Xianghong Huang"
"Qian-Feng Zhang"
"H.H.Y.Sung"
_chemical_name_systematic
;
6-Nitro-2-propyl-1H-indole
;
_cell_volume   1043.766
_exptl_crystal_colour 'light yellow'
_exptl_crystal_density_diffrn 1.3
_exptl_crystal_description 'block'
_exptl_crystal_preparation 'ethanol'
_diffrn_ambient_temperature 100
#These two values have been output from a single CSD field.
_refine_ls_R_factor_gt 0.0517
_refine_ls_wR_factor_gt 0.0517
_symmetry_cell_setting triclinic
_symmetry_space_group_name_H-M 'P -1'
_symmetry_Int_Tables_number 2
loop_
_symmetry_equiv_pos_site_id
_symmetry_equiv_pos_as_xyz
1 x,y,z
2 -x,-y,-z
_cell_length_a 8.229(2)
_cell_length_b 11.828(3)
_cell_length_c 12.088(3)
_cell_angle_alpha 67.403(4)
_cell_angle_beta 86.940(4)
_cell_angle_gamma 74.256(4)
_cell_formula_units_Z 4
loop_
_atom_type_symbol
_atom_type_radius_bond
C 0.68
H 0.23
N 0.68
O 0.68
loop_
_atom_site_label
_atom_site_type_symbol
_atom_site_fract_x
_atom_site_fract_y
_atom_site_fract_z
O1 O 0.7952(2) 0.53774(17) 0.20466(14)
O2 O 0.9550(2) 0.44383(16) 0.36947(15)
N1 N 0.5920(2) 0.60278(17) 0.66399(16)
H1 H 0.67510 0.56010 0.71950
N2 N 0.8216(3) 0.51688(19) 0.31127(18)
C1 C 0.4358(3) 0.6727(2) 0.6803(2)
C2 C 0.3401(3) 0.7278(2) 0.5730(2)
H2 H 0.22810 0.78200 0.55900
C3 C 0.4395(3) 0.6887(2) 0.48718(19)
C4 C 0.4113(3) 0.7095(2) 0.3666(2)
H3 H 0.30560 0.76080 0.32510
C5 C 0.5387(3) 0.6547(2) 0.3089(2)
H4 H 0.52260 0.66900 0.22680
C6 C 0.6922(3) 0.5775(2) 0.3732(2)
C7 C 0.7267(3) 0.5524(2) 0.4919(2)
H5 H 0.83190 0.49920 0.53300
C8 C 0.5978(3) 0.6100(2) 0.54776(19)
C9 C 0.3895(3) 0.6800(2) 0.7988(2)
H6 H 0.38850 0.59410 0.85660
H7 H 0.27340 0.73640 0.79010
C10 C 0.5075(3) 0.7291(2) 0.8505(2)
H8 H 0.51390 0.81300 0.79120
H9 H 0.62240 0.66990 0.86460
C11 C 0.4493(3) 0.7423(3) 0.9680(2)
H10 H 0.52900 0.77400 0.99760
H11 H 0.44500 0.65910 1.02770
H12 H 0.33650 0.80230 0.95430
O3 O 1.0916(2) 0.67913(17) 1.20003(15)
O4 O 1.1694(2) 0.53805(16) 1.12174(15)
N3 N 0.8769(2) 0.77012(18) 0.70143(16)
H13 H 0.92190 0.70210 0.68530
N4 N 1.0889(3) 0.6451(2) 1.11582(17)
C12 C 0.7741(3) 0.8825(2) 0.6231(2)
C13 C 0.7285(3) 0.9665(2) 0.6784(2)
H14 H 0.65770 1.05100 0.64410
C14 C 0.8061(3) 0.9048(2) 0.7970(2)
C15 C 0.8084(3) 0.9404(2) 0.8949(2)
H15 H 0.74700 1.02320 0.88920
C16 C 0.9000(3) 0.8548(2) 0.9991(2)
H16 H 0.90280 0.87830 1.06560
C17 C 0.9894(3) 0.7325(2) 1.0066(2)
C18 C 0.9894(3) 0.6920(2) 0.9134(2)
H17 H 1.04850 0.60820 0.92090
C19 C 0.8986(3) 0.7802(2) 0.80899(19)
C20 C 0.7279(3) 0.9004(2) 0.4985(2)
H18 H 0.64790 0.98560 0.45920
H19 H 0.66890 0.83630 0.50280
C21 C 0.8803(3) 0.8883(3) 0.4209(2)
H20 H 0.94330 0.94920 0.41960
H21 H 0.95730 0.80140 0.45700
C22 C 0.8263(4) 0.9146(3) 0.2925(2)
H22 H 0.92650 0.90620 0.24570
H23 H 0.75160 1.00120 0.25600
H24 H 0.76590 0.85340 0.29340
#END
