
#######################################################################
#
#                 Cambridge Crystallographic Data Centre
#                                CCDC
#
#######################################################################
#
# If this CIF has been generated from an entry in the Cambridge
# Structural Database, then it will include bibliographic, chemical,
# crystal, experimental, refinement or atomic coordinate data resulting
# from the CCDC's data processing and validation procedures.
#
#######################################################################

data_CSD_CIF_ETICIT
_audit_creation_date 2004-06-30
_audit_creation_method CSD-ConQuest-V1
_database_code_CSD ETICIT
_database_code_depnum_ccdc_archive 'CCDC 236098'
_chemical_formula_sum 'C13 H11 N1 O1'
_chemical_formula_moiety
;
C13 H11 N1 O1
;
_journal_coeditor_code "IUCr LH6171"
_journal_coden_Cambridge 1370
_journal_volume 60
_journal_year 2004
_journal_page_first o422
_journal_name_full 'Acta Crystallogr.,Sect.E:Struct.Rep.Online '
loop_
_publ_author_name
"C.Glidewell"
"J.N.Low"
"J.M.S.Skakle"
"J.L.Wardell"
_chemical_name_systematic
;
(E)-2-Phenylbenzaldehyde oxime
;
_chemical_melting_point 390
_cell_volume   2030.088
_exptl_crystal_colour 'colorless'
_exptl_crystal_density_diffrn 1.291
_exptl_special_details
;
Melting point range 390-391K

;
_exptl_crystal_description 'needle'
_exptl_crystal_preparation 'ethanol'
_diffrn_ambient_temperature 120
#These two values have been output from a single CSD field.
_refine_ls_R_factor_gt 0.0452
_refine_ls_wR_factor_gt 0.0452
_symmetry_cell_setting orthorhombic
_symmetry_space_group_name_H-M 'P c a 21'
_symmetry_Int_Tables_number 29
loop_
_symmetry_equiv_pos_site_id
_symmetry_equiv_pos_as_xyz
1 x,y,z
2 -x,-y,1/2+z
3 1/2+x,-y,z
4 1/2-x,y,1/2+z
_cell_length_a 14.3555(4)
_cell_length_b 4.4969(1)
_cell_length_c 31.4473(10)
_cell_angle_alpha 90
_cell_angle_beta 90
_cell_angle_gamma 90
_cell_formula_units_Z 8
loop_
_atom_type_symbol
_atom_type_radius_bond
C 0.68
H 0.23
N 0.68
O 0.68
loop_
_atom_site_label
_atom_site_type_symbol
_atom_site_fract_x
_atom_site_fract_y
_atom_site_fract_z
C1 C 0.7517(3) 0.4288(9) 0.33826(13)
C2 C 0.7584(2) 0.5864(9) 0.37654(12)
C3 C 0.8345(2) 0.7762(8) 0.38242(11)
C4 C 0.9017(2) 0.8108(8) 0.35128(11)
C5 C 0.8941(2) 0.6566(8) 0.31341(13)
C6 C 0.8208(4) 0.4677(8) 0.3070(2)
C7 C 0.6778(2) 0.2061(7) 0.33201(11)
N1 N 0.6569(2) 0.1075(7) 0.29523(9)
O1 O 0.58706(17) -0.1110(6) 0.29799(7)
C8 C 0.6879(3) 0.5642(9) 0.41035(16)
C9 C 0.5921(2) 0.5997(9) 0.40172(11)
C10 C 0.5270(3) 0.5976(10) 0.43404(12)
C11 C 0.5537(5) 0.5526(11) 0.4761(2)
C12 C 0.6486(6) 0.5143(8) 0.4854(2)
C13 C 0.7136(6) 0.5203(8) 0.4537(2)
C14 C 0.4999(3) 0.9255(9) 0.17603(13)
C15 C 0.4924(2) 1.0781(9) 0.13732(12)
C16 C 0.4167(2) 1.2694(8) 0.13112(11)
C17 C 0.3507(2) 1.3106(8) 0.16229(12)
C18 C 0.3581(2) 1.1612(8) 0.20038(13)
C19 C 0.4328(4) 0.9694(8) 0.2074(2)
C20 C 0.5735(2) 0.7037(7) 0.18216(11)
N2 N 0.5944(2) 0.6053(7) 0.21885(9)
O2 O 0.66503(17) 0.3880(5) 0.21622(7)
C21 C 0.5644(4) 1.0487(8) 0.10287(17)
C22 C 0.6583(2) 1.0950(9) 0.11154(12)
C23 C 0.7231(3) 1.0772(10) 0.07915(13)
C24 C 0.6950(5) 1.0156(8) 0.0380(2)
C25 C 0.6038(6) 0.9708(9) 0.0294(2)
C26 C 0.5375(5) 0.9891(8) 0.0624(2)
H1 H 0.84020 0.88350 0.40830
H2 H 0.95300 0.94030 0.35590
H3 H 0.93970 0.68190 0.29180
H4 H 0.81650 0.36080 0.28100
H5 H 0.64480 0.13390 0.35610
H6 H 0.58290 -0.20100 0.27470
H7 H 0.57210 0.62540 0.37320
H8 H 0.46310 0.62720 0.42750
H9 H 0.50850 0.54790 0.49820
H10 H 0.66780 0.48390 0.51400
H11 H 0.77750 0.49450 0.46070
H12 H 0.41080 1.37280 0.10490
H13 H 0.29990 1.44210 0.15750
H14 H 0.31240 1.18890 0.22190
H15 H 0.43790 0.86760 0.23370
H16 H 0.60650 0.63160 0.15810
H17 H 0.66570 0.28710 0.23870
H18 H 0.67790 1.13880 0.13970
H19 H 0.78730 1.10750 0.08520
H20 H 0.73980 1.00480 0.01580
H21 H 0.58440 0.92690 0.00120
H22 H 0.47330 0.95960 0.05620
#END
