
#######################################################################
#
#                 Cambridge Crystallographic Data Centre
#                                CCDC
#
#######################################################################
#
# If this CIF has been generated from an entry in the Cambridge
# Structural Database, then it will include bibliographic, chemical,
# crystal, experimental, refinement or atomic coordinate data resulting
# from the CCDC's data processing and validation procedures.
#
#######################################################################

data_CSD_CIF_ETIKEX
_audit_creation_date 2004-06-30
_audit_creation_method CSD-ConQuest-V1
_database_code_CSD ETIKEX
_database_code_depnum_ccdc_archive 'CCDC 238767'
_chemical_formula_sum 'C9 H11 N3 O2'
_chemical_formula_moiety
;
C9 H11 N3 O2
;
_journal_coeditor_code "IUCr CV6275"
_journal_coden_Cambridge 1370
_journal_volume 60
_journal_year 2004
_journal_page_first o515
_journal_name_full 'Acta Crystallogr.,Sect.E:Struct.Rep.Online '
loop_
_publ_author_name
"Y.Koysal"
"S.Isik"
"N.Sarikavakli"
"F.Erduran"
_chemical_name_systematic
;
anti-1-(Benzylamino)glyoxime
;
_chemical_melting_point 429
_cell_volume   1979.632
_exptl_crystal_colour 'yellow'
_exptl_crystal_density_diffrn 1.297
_exptl_crystal_description 'prism'
_exptl_crystal_preparation 'water/ethanol (1'
_diffrn_ambient_temperature 293
#These two values have been output from a single CSD field.
_refine_ls_R_factor_gt 0.0341
_refine_ls_wR_factor_gt 0.0341
_symmetry_cell_setting orthorhombic
_symmetry_space_group_name_H-M 'P b c a'
_symmetry_Int_Tables_number 61
loop_
_symmetry_equiv_pos_site_id
_symmetry_equiv_pos_as_xyz
1 x,y,z
2 1/2+x,y,1/2-z
3 1/2-x,1/2+y,z
4 x,1/2-y,1/2+z
5 -x,-y,-z
6 -1/2-x,-y,-1/2+z
7 -1/2+x,-1/2-y,-z
8 -x,-1/2+y,-1/2-z
_cell_length_a 11.6618(9)
_cell_length_b 8.8584(7)
_cell_length_c 19.163(2)
_cell_angle_alpha 90
_cell_angle_beta 90
_cell_angle_gamma 90
_cell_formula_units_Z 8
loop_
_atom_type_symbol
_atom_type_radius_bond
C 0.68
H 0.23
N 0.68
O 0.68
loop_
_atom_site_label
_atom_site_type_symbol
_atom_site_fract_x
_atom_site_fract_y
_atom_site_fract_z
O1 O 0.14330(9) 0.00228(13) -0.51572(7)
H1 H 0.10430 -0.07250 -0.52420
N1 N 0.47068(10) 0.24966(14) -0.54691(7)
C1 C 0.42702(13) 0.12017(18) -0.56430(8)
O2 O 0.58211(9) 0.26497(13) -0.57423(7)
H2 H 0.60850 0.34720 -0.56290
N2 N 0.24940(11) -0.01170(14) -0.54828(7)
N3 N 0.48424(11) 0.01693(15) -0.60172(7)
H3 H 0.55500 0.03690 -0.61020
C2 C 0.53391(14) -0.19577(18) -0.67379(8)
C3 C 0.31152(14) 0.10144(19) -0.53772(9)
H4 H 0.28130 0.17920 -0.51080
C4 C 0.44121(14) -0.12495(18) -0.62975(10)
H5 H 0.37350 -0.10670 -0.65790
H6 H 0.42040 -0.19230 -0.59190
C5 C 0.55686(16) -0.1436(2) -0.74013(10)
H7 H 0.51270 -0.06600 -0.75870
C6 C 0.59996(17) -0.3114(2) -0.64838(10)
H8 H 0.58580 -0.34890 -0.60390
C7 C 0.70875(19) -0.3178(3) -0.75312(14)
H9 H 0.76810 -0.35800 -0.77970
C8 C 0.64410(19) -0.2048(3) -0.77915(11)
H10 H 0.65860 -0.16810 -0.82370
C9 C 0.68741(18) -0.3730(3) -0.68810(13)
H11 H 0.73140 -0.45180 -0.67040
#END
