
#######################################################################
#
#                 Cambridge Crystallographic Data Centre
#                                CCDC
#
#######################################################################
#
# If this CIF has been generated from an entry in the Cambridge
# Structural Database, then it will include bibliographic, chemical,
# crystal, experimental, refinement or atomic coordinate data resulting
# from the CCDC's data processing and validation procedures.
#
#######################################################################

data_CSD_CIF_ETIRAC
_audit_creation_date 2016-08-31
_audit_creation_method CSD-ConQuest-V1
_database_code_CSD ETIRAC
_database_code_depnum_ccdc_archive 'CCDC 1474384'
_chemical_formula_sum 'C21 H28 N2 O6'
_chemical_formula_moiety
;
C21 H28 N2 O6
;
_journal_coden_Cambridge 182
_journal_volume 52
_journal_year 2016
_journal_page_first 11363
_journal_name_full 'Chem.Commun. '
loop_
_publ_author_name
"R.Eckermann"
"M.Breunig"
"T.Gaich"
_chemical_name_systematic
;
methyl 
1,2-diallyl-3-((methoxymethoxy)methyl)-3-(2-nitrophenyl)pyrrolidine-2-carboxyl
ate
;
_chemical_name_common
;
methyl 1,2-diallyl-3-((methoxymethoxy)methyl)-3-(2-nitrophenyl)prolinate
;
_chemical_melting_point 340
_cell_volume   2160.998
_exptl_crystal_colour 'colorless'
_exptl_crystal_density_diffrn 1.24
_exptl_crystal_description 'prism'
_diffrn_ambient_temperature 200
#These two values have been output from a single CSD field.
_refine_ls_R_factor_gt 0.0504
_refine_ls_wR_factor_gt 0.0504
_symmetry_cell_setting monoclinic
_symmetry_space_group_name_H-M 'P 21/n'
_symmetry_Int_Tables_number 14
loop_
_symmetry_equiv_pos_site_id
_symmetry_equiv_pos_as_xyz
1 x,y,z
2 1/2-x,1/2+y,1/2-z
3 -x,-y,-z
4 -1/2+x,-1/2-y,-1/2+z
_cell_length_a 12.5404(19)
_cell_length_b 9.1067(11)
_cell_length_c 19.609(3)
_cell_angle_alpha 90
_cell_angle_beta 105.204(5)
_cell_angle_gamma 90
_cell_formula_units_Z 4
loop_
_atom_type_symbol
_atom_type_radius_bond
C 0.68
H 0.23
N 0.68
O 0.68
loop_
_atom_site_label
_atom_site_type_symbol
_atom_site_fract_x
_atom_site_fract_y
_atom_site_fract_z
O1 O 0.62427(19) 0.0339(2) 0.24745(11)
O2 O 0.45546(15) 0.01700(17) 0.16268(8)
O3 O 0.22050(16) 0.38780(19) 0.00065(9)
O4 O 0.15913(18) 0.1769(2) -0.05183(9)
O5 O 0.5313(2) 0.6009(2) 0.16376(12)
O6 O 0.54434(18) 0.4088(2) 0.22661(10)
N1 N 0.15282(16) 0.2126(2) 0.11181(10)
N2 N 0.53032(18) 0.4686(2) 0.16987(11)
C1 C 0.6919(3) 0.0583(5) 0.2008(3)
H1 H 0.71660 -0.03630 0.18650
H2 H 0.75640 0.11680 0.22480
H3 H 0.64960 0.11100 0.15890
C2 C 0.5323(3) -0.0518(3) 0.21861(15)
H4 H 0.49560 -0.07650 0.25610
H5 H 0.55660 -0.14480 0.20130
C3 C 0.3964(2) 0.1322(2) 0.18540(12)
H6 H 0.44700 0.18760 0.22410
H7 H 0.33690 0.09000 0.20400
C4 C 0.34582(19) 0.2369(2) 0.12402(11)
C5 C 0.23590(19) 0.1709(2) 0.07422(11)
C6 C 0.0370(2) 0.1930(3) 0.07302(14)
H8 H 0.02810 0.09680 0.04870
H9 H 0.01590 0.27050 0.03650
C7 C -0.0384(2) 0.1999(3) 0.12057(16)
H10 H -0.02430 0.13560 0.16010
C8 C -0.1215(3) 0.2882(4) 0.11117(18)
H11 H -0.13760 0.35390 0.07210
H12 H -0.16660 0.28760 0.14330
C9 C 0.3019(2) 0.3754(2) 0.15532(13)
H13 H 0.33550 0.38130 0.20690
H14 H 0.32120 0.46570 0.13310
C10 C 0.1776(2) 0.3605(3) 0.14020(15)
H15 H 0.15350 0.37300 0.18400
H16 H 0.14010 0.43500 0.10530
C11 C 0.2322(2) 0.0013(2) 0.06292(12)
H17 H 0.17750 -0.02010 0.01760
H18 H 0.30530 -0.03060 0.05810
C12 C 0.2038(3) -0.0911(3) 0.11975(16)
H19 H 0.14790 -0.05420 0.13970
C13 C 0.2469(4) -0.2125(3) 0.1433(2)
H20 H 0.27930 -0.30370 0.16110
C14 C 0.2076(2) 0.2574(3) 0.00393(12)
C15 C 0.1214(4) 0.2568(4) -0.11798(15)
H21 H 0.06900 0.33320 -0.11280
H22 H 0.08500 0.18870 -0.15560
H23 H 0.18490 0.30230 -0.13010
C16 C 0.43525(18) 0.2715(2) 0.08552(11)
C17 C 0.4411(2) 0.1926(2) 0.02542(12)
H24 H 0.38810 0.11750 0.00880
C18 C 0.5197(2) 0.2183(3) -0.01105(13)
H25 H 0.52030 0.16040 -0.05120
C19 C 0.5974(2) 0.3276(3) 0.01061(14)
H26 H 0.65090 0.34650 -0.01470
C20 C 0.5960(2) 0.4085(3) 0.06941(14)
H27 H 0.64860 0.48450 0.08510
C21 C 0.5173(2) 0.3789(2) 0.10586(12)
#END
