
#######################################################################
#
#                 Cambridge Crystallographic Data Centre
#                                CCDC
#
#######################################################################
#
# If this CIF has been generated from an entry in the Cambridge
# Structural Database, then it will include bibliographic, chemical,
# crystal, experimental, refinement or atomic coordinate data resulting
# from the CCDC's data processing and validation procedures.
#
#######################################################################

data_CSD_CIF_ETIYUB
_audit_creation_date 2004-06-30
_audit_creation_method CSD-ConQuest-V1
_database_code_CSD ETIYUB
_database_code_depnum_ccdc_archive 'CCDC 238824'
_chemical_formula_sum 'C22 H20 N2 O3'
_chemical_formula_moiety
;
C22 H20 N2 O3
;
_journal_coeditor_code "IUCr DN6129"
_journal_coden_Cambridge 1370
_journal_volume 60
_journal_year 2004
_journal_page_first o676
_journal_name_full 'Acta Crystallogr.,Sect.E:Struct.Rep.Online '
loop_
_publ_author_name
"We-Ming Xu"
"Xiu-Rong Hu"
"Jian-Ming Gu"
"Xian Huang"
_chemical_name_systematic
;
5-(2-(3-(4-Methoxyphenyl)-4,5-dihydroisoxazol-5-yl)vinyl)-3-p-tolylisoxazole
;
_cell_volume   1878.516
_exptl_crystal_colour 'yellow'
_exptl_crystal_density_diffrn 1.274
_exptl_crystal_description 'platelet'
_exptl_crystal_preparation 'chloroform'
_diffrn_ambient_temperature 296.0
#These two values have been output from a single CSD field.
_refine_ls_R_factor_gt 0.048
_refine_ls_wR_factor_gt 0.048
_symmetry_cell_setting orthorhombic
_symmetry_space_group_name_H-M 'P c a 21'
_symmetry_Int_Tables_number 29
loop_
_symmetry_equiv_pos_site_id
_symmetry_equiv_pos_as_xyz
1 x,y,z
2 1/2-x,y,1/2+z
3 1/2+x,-y,z
4 -x,-y,1/2+z
_cell_length_a 9.9819(2)
_cell_length_b 22.3639(4)
_cell_length_c 8.4150(1)
_cell_angle_alpha 90
_cell_angle_beta 90
_cell_angle_gamma 90
_cell_formula_units_Z 4
loop_
_atom_type_symbol
_atom_type_radius_bond
C 0.68
H 0.23
N 0.68
O 0.68
loop_
_atom_site_label
_atom_site_type_symbol
_atom_site_fract_x
_atom_site_fract_y
_atom_site_fract_z
O1 O 0.9390(2) 0.28823(9) 0.3996(3)
O2 O 1.0014(2) 0.4842(1) 0.1209(3)
O3 O 0.8800(2) 0.79107(9) 0.5089(3)
N1 N 0.9517(3) 0.2276(1) 0.4441(3)
N2 N 1.0124(2) 0.5452(1) 0.1636(3)
C1 C 0.8815(5) -0.0614(1) 0.3767(6)
C2 C 0.8840(4) 0.0061(1) 0.3626(4)
C3 C 0.9774(4) 0.0398(2) 0.4437(5)
C4 C 0.9797(3) 0.1014(1) 0.4326(4)
C5 C 0.8882(3) 0.1318(1) 0.3400(4)
C6 C 0.7941(3) 0.0980(2) 0.2571(4)
C7 C 0.7932(4) 0.0363(2) 0.2716(5)
C8 C 0.8903(2) 0.1975(1) 0.3314(4)
C9 C 0.8392(3) 0.2361(1) 0.2148(4)
C10 C 0.8724(2) 0.2917(1) 0.2608(4)
C11 C 0.8531(3) 0.3506(1) 0.1925(4)
C12 C 0.8990(3) 0.4013(1) 0.2519(4)
C13 C 0.8749(3) 0.4604(1) 0.1784(4)
C14 C 0.8232(2) 0.5087(1) 0.2915(4)
C15 C 0.9164(2) 0.5592(1) 0.2564(3)
C16 C 0.9052(2) 0.6193(1) 0.3237(3)
C17 C 0.9904(2) 0.6657(1) 0.2760(4)
C18 C 0.9783(3) 0.7219(1) 0.3394(4)
C19 C 0.8827(3) 0.7335(1) 0.4545(4)
C20 C 0.7987(3) 0.6888(1) 0.5044(4)
C21 C 0.8103(3) 0.6323(1) 0.4392(4)
C22 C 0.7923(3) 0.8035(1) 0.6396(4)
H1 H 0.86780 -0.07170 0.49110
H2 H 0.80620 -0.07810 0.31220
H3 H 0.96820 -0.07870 0.33900
H4 H 1.04660 0.01860 0.50870
H5 H 1.04830 0.12510 0.49200
H6 H 0.72700 0.11960 0.19010
H7 H 0.72410 0.01240 0.21340
H8 H 0.78700 0.22430 0.11840
H9 H 0.80070 0.35330 0.09140
H10 H 0.95380 0.39930 0.35120
H11 H 0.81070 0.45600 0.08790
H12 H 0.72750 0.52000 0.27330
H13 H 0.83480 0.49490 0.40370
H14 H 1.06000 0.65720 0.19350
H15 H 1.03940 0.75460 0.30300
H16 H 0.72910 0.69740 0.58680
H17 H 0.74820 0.59960 0.47320
H18 H 0.79780 0.84680 0.66870
H19 H 0.69820 0.79350 0.60850
H20 H 0.81940 0.77850 0.73270
#END
