
#######################################################################
#
#                 Cambridge Crystallographic Data Centre
#                                CCDC
#
#######################################################################
#
# If this CIF has been generated from an entry in the Cambridge
# Structural Database, then it will include bibliographic, chemical,
# crystal, experimental, refinement or atomic coordinate data resulting
# from the CCDC's data processing and validation procedures.
#
#######################################################################

data_CSD_CIF_ETOMOP
_audit_creation_date 2004-06-30
_audit_creation_method CSD-ConQuest-V1
_database_code_CSD ETOMOP
_database_code_depnum_ccdc_archive 'CCDC 241241'
_chemical_formula_sum 'C13 H9 N1 O5'
_chemical_formula_moiety
;
C13 H9 N1 O5
;
_journal_coeditor_code "IUCr SK1719"
_journal_coden_Cambridge 591
_journal_volume 60
_journal_year 2004
_journal_page_first o361
_journal_name_full 'Acta Crystallogr.,Sect.C:Cryst.Struct.Commun. '
loop_
_publ_author_name
"C.Glidewell"
"J.N.Low"
"J.M.S.Skakle"
"J.L.Wardell"
_chemical_name_systematic
;
2-(4-Nitrophenoxy)benzoic acid
;
_chemical_melting_point 435
_cell_volume   1701.523
_exptl_crystal_colour 'colorless'
_exptl_crystal_density_diffrn 1.518
_exptl_special_details
;
Melting point range 435-437K

;
_exptl_crystal_description 'lath'
_exptl_crystal_preparation 'ethanol'
_diffrn_ambient_temperature 120
#These two values have been output from a single CSD field.
_refine_ls_R_factor_gt 0.0596
_refine_ls_wR_factor_gt 0.0596
_symmetry_cell_setting triclinic
_symmetry_space_group_name_H-M 'P -1'
_symmetry_Int_Tables_number 2
loop_
_symmetry_equiv_pos_site_id
_symmetry_equiv_pos_as_xyz
1 x,y,z
2 -x,-y,-z
_cell_length_a 7.8495(6)
_cell_length_b 14.0847(15)
_cell_length_c 17.2325(18)
_cell_angle_alpha 113.187(4)
_cell_angle_beta 98.515(6)
_cell_angle_gamma 96.400(7)
_cell_formula_units_Z 6
loop_
_atom_type_symbol
_atom_type_radius_bond
C 0.68
H 0.23
N 0.68
O 0.68
loop_
_atom_site_label
_atom_site_type_symbol
_atom_site_fract_x
_atom_site_fract_y
_atom_site_fract_z
C1 C 0.0187(4) 0.1229(3) -0.0777(2)
C2 C 0.1217(4) 0.0594(3) -0.0579(3)
C3 C 0.2194(5) 0.0945(3) 0.0254(3)
C4 C 0.2098(4) 0.1926(3) 0.0860(2)
C5 C 0.1044(4) 0.2551(3) 0.0661(2)
C6 C 0.0073(4) 0.2202(3) -0.0169(2)
N1 N -0.0840(4) 0.0867(3) -0.1663(2)
O1 O -0.0900(3) -0.0047(3) -0.21700(19)
O2 O -0.1585(3) 0.1489(2) -0.18541(17)
O3 O 0.2959(3) 0.2316(2) 0.17212(16)
C7 C 0.4668(4) 0.2191(3) 0.1929(2)
C8 C 0.5221(4) 0.2166(3) 0.2730(2)
C9 C 0.6955(4) 0.2054(3) 0.2947(2)
C10 C 0.8102(5) 0.1993(3) 0.2396(2)
C11 C 0.7506(5) 0.2027(3) 0.1621(3)
C12 C 0.5800(5) 0.2123(3) 0.1377(2)
C13 C 0.4122(4) 0.2223(3) 0.3364(2)
O4 O 0.4402(3) 0.1792(2) 0.38526(16)
O5 O 0.2868(3) 0.2771(2) 0.33782(17)
C14 C 0.6951(4) 0.4867(3) 0.9405(2)
C15 C 0.5916(4) 0.5564(3) 0.9325(2)
C16 C 0.4840(4) 0.5317(3) 0.8531(2)
C17 C 0.4823(4) 0.4370(3) 0.7847(2)
C18 C 0.5890(4) 0.3693(3) 0.7936(2)
C19 C 0.6959(4) 0.3930(3) 0.8722(2)
N2 N 0.8058(4) 0.5127(3) 1.0247(2)
O6 O 0.8254(3) 0.6029(2) 1.08152(16)
O7 O 0.8757(3) 0.4430(2) 1.03572(16)
O8 O 0.3813(3) 0.40673(19) 0.70293(15)
C20 C 0.2375(4) 0.4532(3) 0.6932(2)
C21 C 0.2178(4) 0.4952(3) 0.6321(2)
C22 C 0.0677(4) 0.5371(3) 0.6216(2)
C23 C -0.0600(4) 0.5360(3) 0.6696(2)
C24 C -0.0362(4) 0.4928(3) 0.7285(2)
C25 C 0.1107(4) 0.4507(3) 0.7408(2)
C26 C 0.3440(4) 0.4989(3) 0.5764(2)
O9 O 0.3275(3) 0.5521(2) 0.53363(17)
O10 O 0.4660(3) 0.4433(2) 0.57366(18)
C27 C 0.4107(4) 0.1204(3) 0.8066(2)
C28 C 0.2999(4) 0.1897(3) 0.8082(2)
C29 C 0.1912(4) 0.1766(3) 0.7321(2)
C30 C 0.2001(4) 0.0936(3) 0.6564(2)
C31 C 0.3143(4) 0.0262(3) 0.6548(2)
C32 C 0.4215(4) 0.0390(3) 0.7307(2)
N3 N 0.5205(4) 0.1341(3) 0.8876(2)
O11 O 0.5453(3) 0.2213(2) 0.94948(17)
O12 O 0.5826(3) 0.0590(2) 0.89088(17)
O13 O 0.0995(3) 0.07454(19) 0.57755(15)
C33 C -0.0347(4) 0.1314(3) 0.5753(2)
C34 C -0.0291(4) 0.2005(3) 0.5357(2)
C35 C -0.1677(4) 0.2546(3) 0.5351(2)
C36 C -0.3088(4) 0.2373(3) 0.5701(2)
C37 C -0.3178(4) 0.1630(3) 0.6031(2)
C38 C -0.1799(4) 0.1107(3) 0.6072(2)
C39 C 0.1095(4) 0.2182(3) 0.4896(2)
O14 O 0.0909(3) 0.2709(2) 0.44728(16)
O15 O 0.2432(3) 0.1729(2) 0.49515(18)
H1 H 0.12600 -0.00760 -0.10070
H2 H 0.29150 0.05200 0.04050
H3 H 0.09850 0.32160 0.10910
H4 H -0.06600 0.26230 -0.03190
H5 H 0.73530 0.20190 0.34810
H6 H 0.92810 0.19280 0.25530
H7 H 0.82870 0.19830 0.12410
H8 H 0.54110 0.21410 0.08350
H9 H 0.22760 0.27310 0.37360
H10 H 0.59390 0.62040 0.98050
H11 H 0.41260 0.57900 0.84560
H12 H 0.58910 0.30600 0.74530
H13 H 0.76840 0.34610 0.87920
H14 H 0.05230 0.56700 0.58090
H15 H -0.16180 0.56470 0.66180
H16 H -0.12280 0.49190 0.76150
H17 H 0.12470 0.42050 0.78130
H18 H 0.52710 0.44910 0.53910
H19 H 0.29770 0.24630 0.86110
H20 H 0.11280 0.22320 0.73200
H21 H 0.31940 -0.02910 0.60170
H22 H 0.50110 -0.00710 0.73070
H23 H -0.16460 0.30400 0.51020
H24 H -0.39980 0.27670 0.57130
H25 H -0.41910 0.14740 0.62320
H26 H -0.18460 0.06090 0.63170
H27 H 0.30250 0.17600 0.45920
#END
