
#######################################################################
#
#                 Cambridge Crystallographic Data Centre
#                                CCDC
#
#######################################################################
#
# If this CIF has been generated from an entry in the Cambridge
# Structural Database, then it will include bibliographic, chemical,
# crystal, experimental, refinement or atomic coordinate data resulting
# from the CCDC's data processing and validation procedures.
#
#######################################################################

data_CSD_CIF_ETUTIY
_audit_creation_date 2016-09-01
_audit_creation_method CSD-ConQuest-V1
_database_code_CSD ETUTIY
_database_code_depnum_ccdc_archive 'CCDC 1481780'
_chemical_formula_sum 'C14 H10 N4 O4'
_chemical_formula_moiety
;
C14 H10 N4 O4
;
_journal_coden_Cambridge 444
_journal_volume 86
_journal_year 2016
_journal_page_first 1769
_journal_name_full 'Zh.Obshch.Khim.(Russ.)(Russ.J.Gen.Chem.) '
loop_
_publ_author_name
"L.P.Yunnikova"
"V.V.Esenbaeva"
_chemical_name_systematic
;
5-nitro-3-(3-nitrophenyl)-3,4-dihydroquinazoline
;
_cell_volume   1279.305
_exptl_crystal_colour 'yellow'
_exptl_crystal_density_diffrn 1.549
_exptl_crystal_description 'plate'
_diffrn_ambient_temperature 295
_diffrn_special_details
;
twin

;
#These two values have been output from a single CSD field.
_refine_ls_R_factor_gt 0.0659
_refine_ls_wR_factor_gt 0.0659
_symmetry_cell_setting monoclinic
_symmetry_space_group_name_H-M 'P 21/n'
_symmetry_Int_Tables_number 14
loop_
_symmetry_equiv_pos_site_id
_symmetry_equiv_pos_as_xyz
1 x,y,z
2 1/2-x,1/2+y,1/2-z
3 -x,-y,-z
4 -1/2+x,-1/2-y,-1/2+z
_cell_length_a 14.909(6)
_cell_length_b 3.8772(11)
_cell_length_c 22.142(7)
_cell_angle_alpha 90
_cell_angle_beta 91.78(3)
_cell_angle_gamma 90
_cell_formula_units_Z 4
loop_
_atom_type_symbol
_atom_type_radius_bond
C 0.68
H 0.23
N 0.68
O 0.68
loop_
_atom_site_label
_atom_site_type_symbol
_atom_site_fract_x
_atom_site_fract_y
_atom_site_fract_z
O1 O 0.8396(2) 0.1234(9) 0.13007(14)
O2 O 1.1551(2) -0.045(1) 0.57793(14)
O3 O 0.9753(2) -0.0469(9) 0.12802(12)
N1 N 0.9143(2) 0.0957(9) 0.15354(14)
N2 N 1.10997(18) 0.2598(8) 0.33228(12)
O4 O 1.0836(2) 0.2801(10) 0.51642(13)
N3 N 1.26679(19) 0.2069(8) 0.32437(13)
C1 C 0.9304(2) 0.2364(9) 0.21460(15)
C2 C 1.2007(2) 0.1433(9) 0.42435(15)
N4 N 1.1464(3) 0.093(1) 0.52958(15)
C3 C 1.2724(2) 0.1059(9) 0.38577(16)
C4 C 1.0131(2) 0.1855(9) 0.24244(15)
H1 H 1.05870 0.07380 0.22250
C5 C 0.9561(2) 0.4617(10) 0.32996(15)
H2 H 0.96390 0.53620 0.36970
C6 C 1.1128(2) 0.2841(10) 0.39829(14)
H3 H 1.06320 0.15470 0.41430
H4 H 1.10620 0.52330 0.41020
C7 C 1.0268(2) 0.3059(9) 0.30156(15)
C8 C 1.3642(3) -0.1299(11) 0.46613(19)
H5 H 1.41860 -0.22420 0.47950
C9 C 0.8603(2) 0.3976(10) 0.24228(17)
H6 H 0.80530 0.43010 0.22210
C10 C 1.1883(3) 0.2659(10) 0.30132(15)
H7 H 1.18410 0.31690 0.26030
C11 C 0.8745(2) 0.5084(10) 0.30061(17)
H8 H 0.82830 0.61660 0.32050
C12 C 1.2155(2) 0.045(1) 0.48389(15)
C13 C 1.2948(3) -0.0927(10) 0.50610(18)
H9 H 1.30180 -0.15840 0.54640
C14 C 1.3529(2) -0.0288(10) 0.40723(18)
H10 H 1.40030 -0.05120 0.38120
#END
