
#######################################################################
#
#                 Cambridge Crystallographic Data Centre
#                                CCDC
#
#######################################################################
#
# If this CIF has been generated from an entry in the Cambridge
# Structural Database, then it will include bibliographic, chemical,
# crystal, experimental, refinement or atomic coordinate data resulting
# from the CCDC's data processing and validation procedures.
#
#######################################################################

data_CSD_CIF_EVACOU
_audit_creation_date 2011-09-22
_audit_creation_method CSD-ConQuest-V1
_database_code_CSD EVACOU
_database_code_depnum_ccdc_archive 'CCDC 834271'
_chemical_formula_sum 'C18 H17 N5 O4'
_chemical_formula_moiety
;
C18 H17 N5 O4
;
_journal_coeditor_code "IUCr IS2730"
_journal_coden_Cambridge 1370
_journal_volume 67
_journal_year 2011
_journal_page_first o1569
_journal_name_full 'Acta Crystallogr.,Sect.E:Struct.Rep.Online '
loop_
_publ_author_name
"A.Boudina"
"A.Baouid"
"M.Driss"
"E.H.Soumhi"
_chemical_name_systematic
;
Ethyl 
2-(2-methyl-1H-benzimidazol-1-yl)-2-(2-(4-nitrophenyl)hydrazinylidene)ethanoat
e
;
_cell_volume   1817.266
_exptl_crystal_colour 'yellow'
_exptl_crystal_density_diffrn 1.343
_exptl_crystal_description 'plate'
_diffrn_ambient_temperature 300
#These two values have been output from a single CSD field.
_refine_ls_R_factor_gt 0.0428
_refine_ls_wR_factor_gt 0.0428
_symmetry_cell_setting triclinic
_symmetry_space_group_name_H-M 'P -1'
_symmetry_Int_Tables_number 2
loop_
_symmetry_equiv_pos_site_id
_symmetry_equiv_pos_as_xyz
1 x,y,z
2 -x,-y,-z
_cell_length_a 8.269(3)
_cell_length_b 11.523(2)
_cell_length_c 19.853(6)
_cell_angle_alpha 87.44(2)
_cell_angle_beta 80.67(3)
_cell_angle_gamma 76.80(2)
_cell_formula_units_Z 4
loop_
_atom_type_symbol
_atom_type_radius_bond
C 0.68
H 0.23
N 0.68
O 0.68
loop_
_atom_site_label
_atom_site_type_symbol
_atom_site_fract_x
_atom_site_fract_y
_atom_site_fract_z
O1 O 1.1114(2) -0.22059(13) 0.65166(8)
O2 O 1.0965(2) -0.08283(15) 0.72248(9)
O3 O 0.3711(2) 0.25412(13) 0.32862(8)
O4 O 0.54009(18) 0.07952(12) 0.35251(7)
N1 N 1.0594(2) -0.11839(15) 0.67144(9)
N2 N 0.64051(19) 0.20284(12) 0.51891(8)
H1 H 0.60360 0.27570 0.53170
N3 N 0.59856(19) 0.16436(12) 0.46301(8)
N4 N 0.41859(18) 0.35473(12) 0.44852(7)
N5 N 0.33720(19) 0.55351(12) 0.44995(8)
C1 C 0.9503(2) -0.03414(16) 0.63150(9)
C2 C 0.8921(2) -0.07698(16) 0.57840(9)
H2 H 0.92240 -0.15780 0.56830
C3 C 0.7888(2) 0.00099(15) 0.54058(10)
H3 H 0.74810 -0.02700 0.50490
C4 C 0.7457(2) 0.12177(14) 0.55599(9)
C5 C 0.8045(3) 0.16319(16) 0.60991(10)
H4 H 0.77500 0.24400 0.62020
C6 C 0.9061(3) 0.08517(17) 0.64807(11)
H5 H 0.94460 0.11240 0.68460
C7 C 0.5006(2) 0.23631(15) 0.42798(9)
C8 C 0.4626(2) 0.19271(17) 0.36421(10)
C9 C 0.5146(3) 0.0271(2) 0.29101(11)
H6 H 0.56550 0.06430 0.25080
H7 H 0.39550 0.03780 0.28940
C10 C 0.5964(3) -0.1029(2) 0.29373(13)
H8 H 0.58400 -0.14120 0.25350
H9 H 0.54390 -0.13860 0.33340
H10 H 0.71380 -0.11210 0.29600
C11 C 0.2933(2) 0.38263(15) 0.50564(9)
C12 C 0.2219(2) 0.31282(17) 0.55511(10)
H11 H 0.25770 0.23020 0.55550
C13 C 0.0942(3) 0.3723(2) 0.60408(11)
H12 H 0.04340 0.32850 0.63820
C14 C 0.0407(3) 0.4952(2) 0.60341(11)
H13 H -0.04620 0.53210 0.63670
C15 C 0.1138(3) 0.56380(19) 0.55427(11)
H14 H 0.07730 0.64640 0.55400
C16 C 0.2435(2) 0.50651(15) 0.50501(10)
C17 C 0.4368(2) 0.46180(15) 0.41703(9)
C18 C 0.5558(3) 0.46803(18) 0.35304(10)
H15 H 0.50170 0.46180 0.31450
H16 H 0.65300 0.40370 0.35240
H17 H 0.58960 0.54260 0.35090
O5 O 0.7356(3) 0.28956(17) -0.17974(11)
O6 O 0.7618(2) 0.43406(17) -0.25022(9)
O7 O -0.25402(19) 0.73598(13) 0.15264(8)
O8 O -0.04397(17) 0.57184(12) 0.14022(7)
N6 N 0.6970(2) 0.39426(18) -0.19733(11)
N7 N 0.1779(2) 0.70257(13) -0.03046(8)
H18 H 0.15030 0.77650 -0.04180
N8 N 0.0946(2) 0.65968(13) 0.02521(8)
N9 N -0.10387(19) 0.84754(13) 0.04199(8)
N10 N -0.2019(2) 1.04477(14) 0.05012(9)
C19 C 0.5655(2) 0.47559(17) -0.15198(10)
C20 C 0.4804(3) 0.42932(18) -0.09549(11)
H19 H 0.50920 0.34840 -0.08530
C21 C 0.3523(3) 0.50385(17) -0.05419(10)
H20 H 0.29410 0.47320 -0.01610
C22 C 0.3101(2) 0.62482(15) -0.06951(9)
C23 C 0.3984(2) 0.66996(17) -0.12683(10)
H21 H 0.37110 0.75100 -0.13700
C24 C 0.5258(2) 0.59540(18) -0.16848(10)
H22 H 0.58400 0.62520 -0.20690
C25 C -0.0334(2) 0.72821(16) 0.06040(9)
C26 C -0.1234(3) 0.68024(17) 0.12275(10)
C27 C -0.1237(3) 0.52064(19) 0.20149(10)
H23 H -0.24070 0.52420 0.19860
H24 H -0.11910 0.56460 0.24140
C28 C -0.0312(3) 0.3948(2) 0.20676(13)
H25 H 0.08500 0.39230 0.20820
H26 H -0.03990 0.35150 0.16780
H27 H -0.07880 0.35930 0.24760
C29 C -0.1922(2) 0.88137(17) -0.01301(10)
C30 C -0.2235(3) 0.8165(2) -0.06471(11)
H28 H -0.18330 0.73440 -0.06800
C31 C -0.3176(3) 0.8807(3) -0.11099(13)
H29 H -0.33960 0.84080 -0.14700
C32 C -0.3802(3) 1.0024(3) -0.10548(15)
H30 H -0.44430 1.04210 -0.13740
C33 C -0.3497(3) 1.0659(2) -0.05372(14)
H31 H -0.39300 1.14770 -0.05020
C34 C -0.2524(2) 1.00450(18) -0.00674(11)
C35 C -0.1178(2) 0.95001(17) 0.07824(10)
C36 C -0.0474(3) 0.9487(2) 0.14211(11)
H32 H -0.02720 1.02580 0.14900
H33 H 0.05650 0.88990 0.13900
H34 H -0.12570 0.92960 0.17980
#END
