
#######################################################################
#
#                 Cambridge Crystallographic Data Centre
#                                CCDC
#
#######################################################################
#
# If this CIF has been generated from an entry in the Cambridge
# Structural Database, then it will include bibliographic, chemical,
# crystal, experimental, refinement or atomic coordinate data resulting
# from the CCDC's data processing and validation procedures.
#
#######################################################################

data_CSD_CIF_EVADIP
_audit_creation_date 2011-09-23
_audit_creation_method CSD-ConQuest-V1
_database_code_CSD EVADIP
_database_code_depnum_ccdc_archive 'CCDC 834276'
_chemical_formula_sum 'C16 H13 N1 O1'
_chemical_formula_moiety
;
C16 H13 N1 O1
;
_journal_coeditor_code "IUCr BT5513"
_journal_coden_Cambridge 1370
_journal_volume 67
_journal_year 2011
_journal_page_first o1575
_journal_name_full 'Acta Crystallogr.,Sect.E:Struct.Rep.Online '
loop_
_publ_author_name
"B.Balakrishnan"
"C.Praveen"
"P.R.Seshadri"
"P.T.Perumal"
_chemical_name_systematic
;
5-(3-Methylphenyl)-3-phenyl-1,2-oxazole
;
_cell_volume   1226.563
_exptl_crystal_colour 'colorless'
_exptl_crystal_density_diffrn 1.274
_exptl_crystal_description 'block'
_diffrn_ambient_temperature 293
#These two values have been output from a single CSD field.
_refine_ls_R_factor_gt 0.039
_refine_ls_wR_factor_gt 0.039
_symmetry_cell_setting orthorhombic
_symmetry_space_group_name_H-M 'P 21 21 21'
_symmetry_Int_Tables_number 19
loop_
_symmetry_equiv_pos_site_id
_symmetry_equiv_pos_as_xyz
1 x,y,z
2 1/2-x,-y,1/2+z
3 -x,1/2+y,1/2-z
4 1/2+x,1/2-y,-z
_cell_length_a 5.8052(2)
_cell_length_b 7.7010(3)
_cell_length_c 27.4363(8)
_cell_angle_alpha 90
_cell_angle_beta 90
_cell_angle_gamma 90
_cell_formula_units_Z 4
loop_
_atom_type_symbol
_atom_type_radius_bond
C 0.68
H 0.23
N 0.68
O 0.68
loop_
_atom_site_label
_atom_site_type_symbol
_atom_site_fract_x
_atom_site_fract_y
_atom_site_fract_z
N1 N 0.3214(3) 0.4492(3) 0.09265(7)
O1 O 0.3690(3) 0.3988(3) 0.14108(6)
C1 C 0.5947(4) 0.3630(3) 0.14404(8)
C2 C 0.6819(4) 0.3105(3) 0.19162(8)
C3 C 0.6336(4) 0.2897(3) 0.27920(8)
C4 C 0.5182(4) 0.4406(3) 0.06915(8)
C5 C 0.5545(4) 0.3395(3) 0.23393(8)
H1 H 0.41210 0.39410 0.23150
C6 C 0.8460(4) 0.2078(3) 0.28208(9)
H2 H 0.90160 0.17210 0.31230
C7 C 0.6941(4) 0.3875(3) 0.09969(8)
H3 H 0.84830 0.37180 0.09160
C8 C 0.7032(5) 0.4368(3) -0.01203(9)
H4 H 0.82570 0.37570 0.00150
C9 C 0.9760(5) 0.1786(3) 0.2408(1)
H5 H 1.11810 0.12370 0.24340
C10 C 0.8968(4) 0.2303(3) 0.19575(10)
H6 H 0.98630 0.21190 0.16810
C11 C 0.5200(4) 0.4874(3) 0.01707(8)
C12 C 0.3401(5) 0.5778(3) -0.00369(9)
H7 H 0.21620 0.61230 0.01550
C13 C 0.4918(5) 0.3241(4) 0.32435(9)
H8 H 0.48440 0.44690 0.33020
H9 H 0.56200 0.26790 0.35180
H10 H 0.33900 0.27950 0.31980
C14 C 0.3426(5) 0.6172(4) -0.05246(10)
H11 H 0.22080 0.67840 -0.06620
C15 C 0.5239(5) 0.5667(4) -0.08088(10)
H12 H 0.52480 0.59340 -0.11390
C16 C 0.7041(6) 0.4771(4) -0.06096(10)
H13 H 0.82720 0.44320 -0.08040
#END
