
#######################################################################
#
#                 Cambridge Crystallographic Data Centre
#                                CCDC
#
#######################################################################
#
# If this CIF has been generated from an entry in the Cambridge
# Structural Database, then it will include bibliographic, chemical,
# crystal, experimental, refinement or atomic coordinate data resulting
# from the CCDC's data processing and validation procedures.
#
#######################################################################

data_CSD_CIF_EVAWED
_audit_creation_date 2004-07-15
_audit_creation_method CSD-ConQuest-V1
_database_code_CSD EVAWED
_database_code_depnum_ccdc_archive 'CCDC 206086'
_chemical_formula_sum 'C19 H16 N2 O3'
_chemical_formula_moiety
;
C19 H16 N2 O3
;
_journal_coden_Cambridge 692
_journal_volume 2004
_journal_year 2004
_journal_page_first 26
_journal_name_full 'Synthesis '
loop_
_publ_author_name
"Mei-Hsiu Shih"
_chemical_name_systematic
;
1-[3-(4-methylphenyl)sydnon-4-yl]-3-(4-methylphenyl)prop-2-en-1-one
;
_chemical_melting_point 452.15
_cell_volume   3195.588
_exptl_crystal_colour 'yellow'
_exptl_crystal_density_diffrn 1.33
_exptl_special_details
;
Melting point range 452.15-454.15K

;
_exptl_crystal_description 'rod'
_diffrn_ambient_temperature 298
#These two values have been output from a single CSD field.
_refine_ls_R_factor_gt 0.043
_refine_ls_wR_factor_gt 0.043
_symmetry_cell_setting monoclinic
_symmetry_space_group_name_H-M 'C 2/c'
_symmetry_Int_Tables_number 15
loop_
_symmetry_equiv_pos_site_id
_symmetry_equiv_pos_as_xyz
1 x,y,z
2 -x,y,1/2-z
3 1/2+x,1/2+y,z
4 1/2-x,1/2+y,1/2-z
5 -x,-y,-z
6 x,-y,-1/2+z
7 -1/2-x,-1/2-y,-z
8 -1/2+x,-1/2-y,-1/2+z
_cell_length_a 31.00(1)
_cell_length_b 5.594(1)
_cell_length_c 18.643(2)
_cell_angle_alpha 90
_cell_angle_beta 98.72(2)
_cell_angle_gamma 90
_cell_formula_units_Z 8
loop_
_atom_type_symbol
_atom_type_radius_bond
C 0.68
N 0.68
O 0.68
loop_
_atom_site_label
_atom_site_type_symbol
_atom_site_fract_x
_atom_site_fract_y
_atom_site_fract_z
O1 O 0.41410(4) -0.2291(2) 0.75312(7)
O2 O 0.35644(4) 0.0153(3) 0.75929(8)
O3 O 0.41837(4) 0.3618(2) 0.58634(7)
N1 N 0.44686(4) -0.0475(2) 0.67695(7)
N2 N 0.45000(5) -0.2359(2) 0.71895(8)
C1 C 0.38849(6) -0.0225(3) 0.73220(1)
C2 C 0.41072(5) 0.0899(3) 0.67993(9)
C3 C 0.39679(5) 0.2924(3) 0.63223(9)
C4 C 0.35505(6) 0.4002(3) 0.6432(1)
C5 C 0.33728(5) 0.5811(3) 0.6036(1)
C6 C 0.29641(6) 0.7017(3) 0.61085(9)
C7 C 0.28447(7) 0.9073(4) 0.5714(1)
C8 C 0.24641(8) 1.0271(4) 0.5800(1)
C9 C 0.21909(7) 0.9474(4) 0.6260(1)
C10 C 0.23068(7) 0.7419(4) 0.6647(1)
C11 C 0.26854(7) 0.6208(4) 0.6573(1)
C12 C 0.17799(8) 1.0820(5) 0.6350(2)
C13 C 0.48398(5) -0.0070(3) 0.63953(8)
C14 C 0.50790(6) 0.2001(3) 0.65377(9)
C15 C 0.54530(5) 0.2278(3) 0.6233(1)
C16 C 0.55902(5) 0.0530(3) 0.57820(9)
C17 C 0.53377(6) -0.1505(3) 0.56488(9)
C18 C 0.49612(6) -0.1845(3) 0.59563(9)
C19 C 0.59984(6) 0.0888(4) 0.5448(1)
#END
