
#######################################################################
#
#                 Cambridge Crystallographic Data Centre
#                                CCDC
#
#######################################################################
#
# If this CIF has been generated from an entry in the Cambridge
# Structural Database, then it will include bibliographic, chemical,
# crystal, experimental, refinement or atomic coordinate data resulting
# from the CCDC's data processing and validation procedures.
#
#######################################################################

data_CSD_CIF_EVAZEG
_audit_creation_date 2004-07-16
_audit_creation_method CSD-ConQuest-V1
_database_code_CSD EVAZEG
_database_code_depnum_ccdc_archive 'CCDC 234334'
_chemical_formula_sum 'C13 H17 N3 O1'
_chemical_formula_moiety
;
C13 H17 N3 O1
;
_journal_coden_Cambridge 35
_journal_volume 69
_journal_year 2004
_journal_page_first 1598
_journal_name_full 'J.Org.Chem. '
loop_
_publ_author_name
"R.A.Stockman"
"A.Sinclair"
"L.G.Arini"
"P.Szeto"
"D.L.Hughes"
_chemical_name_systematic
;
7-(Cyanomethyl)octahydro-1H-cyclopenta(3,4)isoxazolo(2,3-a)pyridine-4-carbonit
rile
;
_chemical_melting_point 353.25
_cell_volume   4903.775
_exptl_crystal_colour 'colorless'
_exptl_crystal_density_diffrn 1.253
_exptl_special_details
;
Melting point range 353.25-354.85K
C2/c polymorph

;
_exptl_crystal_description 'plate'
_exptl_crystal_preparation 'hexane'
_diffrn_ambient_temperature 140
#These two values have been output from a single CSD field.
_refine_ls_R_factor_gt 0.0606
_refine_ls_wR_factor_gt 0.0606
loop_
_citation_database_id_CSD
_citation_special_details
BEQCUW "is a stereoisomer of this entry"
_symmetry_cell_setting monoclinic
_symmetry_space_group_name_H-M 'C 2/c'
_symmetry_Int_Tables_number 15
loop_
_symmetry_equiv_pos_site_id
_symmetry_equiv_pos_as_xyz
1 x,y,z
2 1/2+x,1/2+y,z
3 x,-y,1/2+z
4 1/2+x,1/2-y,1/2+z
5 -x,-y,-z
6 -1/2-x,-1/2-y,-z
7 -x,y,-1/2-z
8 -1/2-x,-1/2+y,-1/2-z
_cell_length_a 28.183(6)
_cell_length_b 9.3620(19)
_cell_length_c 18.789(4)
_cell_angle_alpha 90
_cell_angle_beta 98.44(3)
_cell_angle_gamma 90
_cell_formula_units_Z 16
loop_
_atom_type_symbol
_atom_type_radius_bond
C 0.68
H 0.23
N 0.68
O 0.68
loop_
_atom_site_label
_atom_site_type_symbol
_atom_site_fract_x
_atom_site_fract_y
_atom_site_fract_z
C1 C 0.40169(8) 0.4748(2) 0.58553(12)
N1 N 0.36444(6) 0.51748(18) 0.52506(10)
O1 O 0.37423(5) 0.66956(15) 0.51820(8)
C2 C 0.38403(8) 0.7268(2) 0.59160(12)
H1 H 0.35390 0.75870 0.60660
C3 C 0.40489(9) 0.6014(2) 0.64028(13)
H2 H 0.38560 0.58280 0.67860
C4 C 0.4579(1) 0.6114(3) 0.66985(17)
H3 H 0.46650 0.54270 0.70820
H4 H 0.46610 0.70650 0.68820
C5 C 0.4835(1) 0.5773(3) 0.6050(2)
H5 H 0.48750 0.66320 0.57760
H6 H 0.51480 0.53590 0.62070
C6 C 0.45160(9) 0.4720(3) 0.56012(16)
H7 H 0.46520 0.37680 0.56600
H8 H 0.44860 0.49780 0.50970
C7 C 0.39051(8) 0.3280(2) 0.61574(13)
H9 H 0.39800 0.25470 0.58260
H10 H 0.41140 0.31330 0.66100
C8 C 0.33885(9) 0.3092(3) 0.62823(13)
H11 H 0.33340 0.21070 0.64080
H12 H 0.33250 0.36950 0.66780
C9 C 0.30543(8) 0.3494(2) 0.56039(12)
H13 H 0.27240 0.33850 0.56820
H14 H 0.31090 0.28660 0.52130
C10 C 0.31460(8) 0.5044(2) 0.54045(12)
H15 H 0.31030 0.56690 0.58080
C11 C 0.28165(8) 0.5542(2) 0.47269(12)
H16 H 0.28970 0.65160 0.46170
H17 H 0.28690 0.49450 0.43240
C12 C 0.23094(9) 0.5474(2) 0.48181(12)
N2 N 0.19171(8) 0.5409(2) 0.49169(12)
C13 C 0.41598(9) 0.8508(3) 0.58882(13)
N3 N 0.44003(9) 0.9487(2) 0.58768(12)
C14 C 0.09739(8) 0.5130(2) 0.16424(12)
N4 N 0.14501(6) 0.51297(17) 0.2103(1)
O2 O 0.15486(6) 0.36050(15) 0.21942(8)
C15 C 0.13989(8) 0.2941(2) 0.14930(12)
H18 H 0.16690 0.29320 0.12190
C16 C 0.09908(8) 0.3877(2) 0.10965(12)
H19 H 0.10700 0.42240 0.06360
C17 C 0.04892(8) 0.3226(2) 0.10082(13)
H20 H 0.04950 0.22420 0.08480
H21 H 0.02690 0.37640 0.06630
C18 C 0.03415(9) 0.3312(3) 0.17625(13)
H22 H -0.00050 0.33590 0.17330
H23 H 0.04580 0.24880 0.20490
C19 C 0.05754(9) 0.4687(3) 0.20882(14)
H24 H 0.07130 0.45270 0.25860
H25 H 0.03370 0.54390 0.20740
C20 C 0.08647(9) 0.6590(2) 0.12901(13)
H26 H 0.05810 0.65070 0.09320
H27 H 0.07920 0.72590 0.16540
C21 C 0.12706(9) 0.7194(3) 0.09339(13)
H28 H 0.13200 0.66030 0.05270
H29 H 0.11900 0.81510 0.07590
C22 C 0.17241(9) 0.7229(2) 0.14792(13)
H30 H 0.16770 0.78480 0.18770
H31 H 0.19860 0.76120 0.12560
C23 C 0.18516(8) 0.5725(2) 0.17616(12)
H32 H 0.19010 0.51130 0.13550
C24 C 0.23061(8) 0.5680(3) 0.23225(14)
H33 H 0.23470 0.47210 0.25170
H34 H 0.25820 0.58930 0.20860
C25 C 0.22958(8) 0.6688(2) 0.29169(13)
N5 N 0.22911(7) 0.7499(2) 0.33736(12)
C26 C 0.12708(9) 0.1452(3) 0.16562(13)
N6 N 0.11805(9) 0.0311(2) 0.18082(13)
#END
