
#######################################################################
#
#                 Cambridge Crystallographic Data Centre
#                                CCDC
#
#######################################################################
#
# If this CIF has been generated from an entry in the Cambridge
# Structural Database, then it will include bibliographic, chemical,
# crystal, experimental, refinement or atomic coordinate data resulting
# from the CCDC's data processing and validation procedures.
#
#######################################################################

data_CSD_CIF_EVAZEG01
_audit_creation_date 2004-09-14
_audit_creation_method CSD-ConQuest-V1
_database_code_CSD EVAZEG01
_database_code_depnum_ccdc_archive 'CCDC 230766'
_chemical_formula_sum 'C13 H17 N3 O1'
_chemical_formula_moiety
;
C13 H17 N3 O1
;
_journal_coden_Cambridge 177
_journal_volume 2
_journal_year 2004
_journal_page_first 1258
_journal_name_full 'Org.Biomol.Chem. '
loop_
_publ_author_name
"H.T.Horsley"
"A.B.Holmes"
"J.E.Davies"
"J.M.Goodman"
"M.A.Silva"
"S.I.Pascu"
"I.Collins"
_chemical_name_systematic
;
(1R,5R,6S,9S)/(1S,5S,6R,9R)-9-Cyanomethyl-6-cyano-8-aza-7-oxatricyclo(6.4.0.0^
1,5^)dodecane
;
_chemical_melting_point 378.15
_cell_volume   2519.402
_exptl_crystal_colour 'white'
_exptl_crystal_density_diffrn 1.219
_exptl_special_details
;
Melting point range 378.15-380.15K
P21/n polymorph

;
_exptl_crystal_description 'needle'
_diffrn_ambient_temperature 240
#These two values have been output from a single CSD field.
_refine_ls_R_factor_gt 0.0443
_refine_ls_wR_factor_gt 0.0443
loop_
_citation_database_id_CSD
_citation_special_details
BEQCUW "is a stereoisomer of this entry"
_symmetry_cell_setting monoclinic
_symmetry_space_group_name_H-M 'P 21/n'
_symmetry_Int_Tables_number 14
loop_
_symmetry_equiv_pos_site_id
_symmetry_equiv_pos_as_xyz
1 x,y,z
2 1/2+x,1/2-y,1/2+z
3 -x,-y,-z
4 -1/2-x,-1/2+y,-1/2-z
_cell_length_a 12.610(3)
_cell_length_b 12.464(3)
_cell_length_c 16.763(3)
_cell_angle_alpha 90
_cell_angle_beta 107.01(3)
_cell_angle_gamma 90
_cell_formula_units_Z 8
loop_
_atom_type_symbol
_atom_type_radius_bond
C 0.68
H 0.23
N 0.68
O 0.68
loop_
_atom_site_label
_atom_site_type_symbol
_atom_site_fract_x
_atom_site_fract_y
_atom_site_fract_z
O1 O 0.6551(1) 0.50349(9) 0.25124(8)
O2 O 0.3449(1) 0.20685(9) 0.24537(8)
N1 N 0.30145(12) 0.10438(11) 0.26235(9)
N2 N 0.69687(13) 0.59896(11) 0.2209(1)
C1 C 0.53655(17) 0.45534(16) 0.32907(13)
C2 C 0.44281(15) 0.18272(14) 0.22012(12)
C3 C 0.55486(15) 0.53472(14) 0.26957(12)
C4 C 0.45692(17) 0.27450(16) 0.16860(13)
C5 C 0.31110(15) 0.03830(14) 0.19194(12)
C6 C 0.57213(16) 0.65267(13) 0.30014(12)
C7 C 0.68224(16) 0.68108(14) 0.28077(12)
C8 C 0.37184(16) 0.06950(15) 0.34551(12)
C9 C 0.42088(15) 0.07316(14) 0.17547(12)
C10 C 0.65290(16) 0.52344(17) 0.08029(12)
C11 C 0.30186(17) -0.08176(14) 0.20944(14)
C12 C 0.2406(2) 0.15293(15) 0.41238(13)
C13 C 0.35492(17) 0.14831(16) 0.41093(13)
C14 C 0.62906(17) 0.61480(15) 0.13378(12)
C15 C 0.77272(18) 0.66591(16) 0.36553(14)
C16 C 0.39367(18) 0.07902(16) 0.08063(13)
C17 C 0.37068(18) -0.11760(15) 0.29569(16)
N3 N 0.15129(19) 0.15726(16) 0.41462(14)
C18 C 0.6888(2) 0.79478(16) 0.24742(15)
C19 C 0.21956(16) 0.07132(16) 0.11147(13)
C20 C 0.27741(19) 0.12561(17) 0.05404(14)
N4 N 0.52142(18) 0.39129(17) 0.37317(13)
C21 C 0.6528(2) 0.72488(18) 0.10426(15)
C22 C 0.59706(19) 0.66863(16) 0.39373(13)
C23 C 0.76968(19) 0.51662(18) 0.08339(13)
C24 C 0.34460(18) -0.04641(16) 0.36043(14)
N5 N 0.85958(18) 0.5098(2) 0.08490(14)
C25 C 0.6211(2) 0.81079(17) 0.15773(16)
C26 C 0.7165(2) 0.6296(2) 0.42816(15)
N6 N 0.46798(17) 0.34536(15) 0.12903(13)
H1 H 0.51480 0.17570 0.26720
H2 H 0.48380 0.53440 0.22060
H3 H 0.50270 0.69670 0.27190
H4 H 0.45320 0.07030 0.34760
H5 H 0.48860 0.02510 0.19720
H6 H 0.60710 0.53420 0.02030
H7 H 0.62950 0.45290 0.09990
H8 H 0.32410 -0.12460 0.16540
H9 H 0.22080 -0.09920 0.20280
H10 H 0.40410 0.12740 0.46790
H11 H 0.37860 0.22320 0.39840
H12 H 0.54710 0.61340 0.12920
H13 H 0.81540 0.73490 0.38350
H14 H 0.83010 0.60980 0.35970
H15 H 0.44910 0.12750 0.06300
H16 H 0.39690 0.00670 0.05440
H17 H 0.45230 -0.11070 0.30010
H18 H 0.35560 -0.19510 0.30560
H19 H 0.76890 0.81220 0.25260
H20 H 0.66270 0.84720 0.28380
H21 H 0.16490 0.12180 0.12730
H22 H 0.17640 0.00620 0.08460
H23 H 0.27860 0.20710 0.06160
H24 H 0.23710 0.11090 -0.00660
H25 H 0.73610 0.73000 0.11080
H26 H 0.61250 0.73490 0.04390
H27 H 0.58940 0.74570 0.40940
H28 H 0.54440 0.62450 0.41720
H29 H 0.38850 -0.06940 0.41950
H30 H 0.26310 -0.05240 0.35750
H31 H 0.63520 0.88510 0.13790
H32 H 0.54000 0.80520 0.15260
H33 H 0.75280 0.66160 0.48560
H34 H 0.71870 0.54880 0.43500
#END
