
#######################################################################
#
#                 Cambridge Crystallographic Data Centre
#                                CCDC
#
#######################################################################
#
# If this CIF has been generated from an entry in the Cambridge
# Structural Database, then it will include bibliographic, chemical,
# crystal, experimental, refinement or atomic coordinate data resulting
# from the CCDC's data processing and validation procedures.
#
#######################################################################

data_CSD_CIF_EVETUV
_audit_creation_date 2011-08-22
_audit_creation_method CSD-ConQuest-V1
_database_code_CSD EVETUV
_database_code_depnum_ccdc_archive 'CCDC 834448'
_chemical_formula_sum 'C21 H17 N3 O2'
_chemical_formula_moiety
;
C21 H17 N3 O2
;
_journal_coeditor_code "IUCr YA2140"
_journal_coden_Cambridge 1370
_journal_volume 67
_journal_year 2011
_journal_page_first o1799
_journal_name_full 'Acta Crystallogr.,Sect.E:Struct.Rep.Online '
loop_
_publ_author_name
"R.Archana"
"E.Yamuna"
"K.J.R.Prasad"
"A.Thiruvalluvar"
"R.J.Butcher"
_chemical_name_systematic
;
9-Ethyl-N-(3-nitrobenzylidene)-9H-carbazol-3-amine
;
_chemical_melting_point 352
_cell_volume   1713.735
_exptl_crystal_colour 'pale orange'
_exptl_crystal_density_diffrn 1.331
_exptl_crystal_description 'block'
_diffrn_ambient_temperature 295
#These two values have been output from a single CSD field.
_refine_ls_R_factor_gt 0.08
_refine_ls_wR_factor_gt 0.08
_symmetry_cell_setting monoclinic
_symmetry_space_group_name_H-M 'P 21'
_symmetry_Int_Tables_number 4
loop_
_symmetry_equiv_pos_site_id
_symmetry_equiv_pos_as_xyz
1 x,y,z
2 -x,1/2+y,-z
_cell_length_a 8.1550(4)
_cell_length_b 13.5093(7)
_cell_length_c 16.0248(9)
_cell_angle_alpha 90
_cell_angle_beta 103.899(5)
_cell_angle_gamma 90
_cell_formula_units_Z 4
loop_
_atom_type_symbol
_atom_type_radius_bond
C 0.68
H 0.23
N 0.68
O 0.68
loop_
_atom_site_label
_atom_site_type_symbol
_atom_site_fract_x
_atom_site_fract_y
_atom_site_fract_z
O1 O -0.0282(8) 0.1393(7) 0.4830(4)
O2 O 0.1202(9) 0.1178(9) 0.6087(4)
N1 N 0.1053(9) 0.1305(6) 0.5327(4)
N2 N 0.1520(8) 0.1142(5) -0.1190(3)
N3 N 0.2402(7) 0.1332(5) 0.2351(3)
C1 C 0.3254(9) 0.0611(6) 0.0235(4)
C2 C 0.3430(9) 0.0681(6) 0.1102(5)
C3 C 0.2341(9) 0.1275(6) 0.1455(4)
C4 C 0.1066(8) 0.1804(6) 0.0897(4)
C5 C 0.0895(8) 0.1752(5) 0.0019(4)
C6 C -0.0291(8) 0.2176(5) -0.0709(4)
C7 C -0.1635(9) 0.2809(7) -0.0821(5)
C8 C -0.2614(10) 0.3017(7) -0.1638(5)
C9 C -0.2195(10) 0.2607(7) -0.2351(5)
C10 C -0.0813(10) 0.1994(6) -0.2275(4)
C11 C 0.0148(9) 0.1772(6) -0.1449(5)
C12 C 0.1988(8) 0.1136(5) -0.0308(4)
C13 C 0.3788(9) 0.1236(6) 0.2892(4)
C14 C 0.2434(11) 0.0668(7) -0.1766(5)
C15 C 0.3884(10) 0.1283(8) -0.1880(5)
C16 C 0.3893(8) 0.1261(6) 0.3828(4)
C17 C 0.2451(9) 0.1300(6) 0.4137(4)
C18 C 0.2603(9) 0.1313(6) 0.5004(5)
C19 C 0.4152(11) 0.1297(7) 0.5583(5)
C20 C 0.5585(10) 0.1295(8) 0.5269(5)
C21 C 0.5457(9) 0.1265(7) 0.4407(5)
O3 O 0.4490(7) 0.8842(5) 0.4146(4)
O4 O 0.6022(9) 0.8772(6) 0.5430(4)
N4 N 0.5850(9) 0.8824(5) 0.4656(4)
N5 N 0.6177(7) 0.9094(5) -0.1890(3)
N6 N 0.7154(7) 0.8953(5) 0.1660(4)
C22 C 0.7939(10) 0.9677(6) -0.0465(5)
C23 C 0.8102(9) 0.9611(7) 0.0408(4)
C24 C 0.7059(8) 0.8992(6) 0.0763(4)
C25 C 0.5824(8) 0.8446(5) 0.0241(4)
C26 C 0.5615(8) 0.8491(5) -0.0652(4)
C27 C 0.4411(8) 0.8060(6) -0.1376(4)
C28 C 0.3071(9) 0.7411(7) -0.1470(5)
C29 C 0.2099(10) 0.7211(8) -0.2275(5)
C30 C 0.2454(10) 0.7646(7) -0.3004(5)
C31 C 0.3792(10) 0.8263(7) -0.2938(4)
C32 C 0.4788(9) 0.8478(5) -0.2124(4)
C33 C 0.6670(9) 0.9118(6) -0.0994(4)
C34 C 0.8523(9) 0.9092(6) 0.2203(4)
C35 C 0.7073(11) 0.9593(6) -0.2463(5)
C36 C 0.8592(11) 0.9026(8) -0.2563(6)
C37 C 0.8645(9) 0.9048(6) 0.3131(5)
C38 C 0.7214(9) 0.8965(6) 0.3455(4)
C39 C 0.7393(9) 0.8892(6) 0.4328(4)
C40 C 0.8935(10) 0.8861(7) 0.4902(5)
C41 C 1.038(1) 0.8944(8) 0.4593(5)
C42 C 1.0220(9) 0.9035(7) 0.3711(5)
H1 H 0.39812 0.02142 0.00140
H2 H 0.42871 0.03277 0.14695
H3 H 0.03272 0.21936 0.11161
H4 H -0.18962 0.31035 -0.03446
H5 H -0.35475 0.34315 -0.17058
H6 H -0.28628 0.27474 -0.28952
H7 H -0.05286 0.17356 -0.27590
H8 H 0.47691 0.11483 0.27022
H9 H 0.16631 0.05586 -0.23212
H10 H 0.28490 0.00285 -0.15317
H11 H 0.34801 0.19211 -0.21020
H12 H 0.44259 0.09613 -0.22762
H13 H 0.46804 0.13625 -0.13358
H14 H 0.13894 0.13171 0.37583
H15 H 0.42308 0.12868 0.61717
H16 H 0.66446 0.13148 0.56485
H17 H 0.64332 0.12469 0.42032
H18 H 0.86486 1.00789 -0.06921
H19 H 0.89269 0.99862 0.07747
H20 H 0.51235 0.80448 0.04761
H21 H 0.28306 0.71125 -0.09897
H22 H 0.11890 0.67795 -0.23384
H23 H 0.17607 0.75097 -0.35428
H24 H 0.40379 0.85356 -0.34270
H25 H 0.94904 0.92260 0.20120
H26 H 0.74254 1.02441 -0.22340
H27 H 0.63074 0.96791 -0.30229
H28 H 0.94256 0.90199 -0.20260
H29 H 0.90551 0.93350 -0.29948
H30 H 0.82695 0.83581 -0.27327
H31 H 0.61443 0.89588 0.30842
H32 H 0.90132 0.87866 0.54867
H33 H 1.14430 0.89386 0.49703
H34 H 1.11889 0.90875 0.35045
#END
