
#######################################################################
#
#                 Cambridge Crystallographic Data Centre
#                                CCDC
#
#######################################################################
#
# If this CIF has been generated from an entry in the Cambridge
# Structural Database, then it will include bibliographic, chemical,
# crystal, experimental, refinement or atomic coordinate data resulting
# from the CCDC's data processing and validation procedures.
#
#######################################################################

data_CSD_CIF_EVEXAE
_audit_creation_date 2004-07-16
_audit_creation_method CSD-ConQuest-V1
_database_code_CSD EVEXAE
_database_code_depnum_ccdc_archive 'CCDC 235408'
_chemical_formula_sum 'C16 H13 N1 O5'
_chemical_formula_moiety
;
C16 H13 N1 O5
;
_journal_coden_Cambridge 4
_journal_volume 126
_journal_year 2004
_journal_page_first 3845
_journal_name_full 'J.Am.Chem.Soc. '
loop_
_publ_author_name
"P.Gilli"
"V.Bertolasi"
"L.Pretto"
"V.Ferretti"
"G.Gilli"
_chemical_name_systematic
;
(2Z)-3-hydroxy-1-(4-methoxyphenyl)-3-(3-nitrophenyl)-2-propen-1-one
;
_chemical_name_common
;
(2Z)-1-(4-methoxyphenyl)-3-(3-nitrophenyl)-1,3-propanedione enol
;
_cell_volume   1366.900
_exptl_crystal_colour 'yellow'
_exptl_crystal_density_diffrn 1.454
_exptl_crystal_description 'prism'
_diffrn_ambient_temperature 100
#These two values have been output from a single CSD field.
_refine_ls_R_factor_gt 0.0382
_refine_ls_wR_factor_gt 0.0382
_symmetry_cell_setting monoclinic
_symmetry_space_group_name_H-M 'P 21/n'
_symmetry_Int_Tables_number 14
loop_
_symmetry_equiv_pos_site_id
_symmetry_equiv_pos_as_xyz
1 x,y,z
2 1/2+x,1/2-y,1/2+z
3 -x,-y,-z
4 -1/2-x,-1/2+y,-1/2-z
_cell_length_a 7.1177(1)
_cell_length_b 15.9835(3)
_cell_length_c 12.2135(2)
_cell_angle_alpha 90
_cell_angle_beta 100.343(1)
_cell_angle_gamma 90
_cell_formula_units_Z 4
loop_
_atom_type_symbol
_atom_type_radius_bond
C 0.68
H 0.23
N 0.68
O 0.68
loop_
_atom_site_label
_atom_site_type_symbol
_atom_site_fract_x
_atom_site_fract_y
_atom_site_fract_z
O1 O -0.13486(11) 0.97351(5) 0.71036(6)
O2 O -0.15884(12) 1.12504(5) 0.69411(6)
O3 O 0.01540(11) 1.50415(5) 0.71307(7)
O4 O -0.14623(11) 1.41421(5) 0.60074(6)
O5 O 0.28182(12) 0.68224(5) 1.00803(6)
N1 N -0.03782(12) 1.43242(5) 0.68775(7)
C1 C -0.00199(14) 0.98066(6) 0.79700(8)
C2 C 0.06336(14) 1.06126(6) 0.83478(8)
C3 C -0.01990(14) 1.13164(6) 0.77958(8)
C4 C 0.04308(13) 1.21840(6) 0.81045(8)
C5 C 0.17182(15) 1.23663(6) 0.90804(8)
C6 C 0.23019(16) 1.31859(7) 0.93304(8)
C7 C 0.16124(15) 1.38329(6) 0.86130(8)
C8 C 0.03305(14) 1.36420(6) 0.76539(8)
C9 C -0.02805(13) 1.28350(6) 0.73803(8)
C10 C 0.07493(13) 0.90301(6) 0.85199(8)
C11 C 0.01636(14) 0.82624(6) 0.80135(8)
C12 C 0.08235(14) 0.75091(6) 0.85042(8)
C13 C 0.20929(14) 0.75200(6) 0.95175(8)
C14 C 0.27026(14) 0.82799(6) 1.00302(8)
C15 C 0.20322(14) 0.90276(6) 0.95385(8)
C16 C 0.22880(19) 0.60299(7) 0.9575(1)
H1 H -0.174(3) 1.0532(17) 0.6883(16)
H2 H 0.164(2) 1.0664(9) 0.8973(12)
H3 H 0.2213(19) 1.1926(9) 0.9617(12)
H4 H 0.317(2) 1.3323(9) 0.9992(13)
H5 H 0.201(2) 1.4417(10) 0.8744(13)
H6 H -0.118(2) 1.2719(9) 0.6709(13)
H7 H -0.068(2) 0.8254(9) 0.7309(12)
H8 H 0.0402(19) 0.6977(8) 0.8106(11)
H9 H 0.359(2) 0.8282(9) 1.0763(12)
H10 H 0.2456(19) 0.9552(9) 0.9932(12)
H11 H 0.092(2) 0.5936(9) 0.9474(12)
H12 H 0.269(2) 0.5987(9) 0.8852(13)
H13 H 0.298(2) 0.5614(11) 1.0084(14)
#END
