
#######################################################################
#
#                 Cambridge Crystallographic Data Centre
#                                CCDC
#
#######################################################################
#
# If this CIF has been generated from an entry in the Cambridge
# Structural Database, then it will include bibliographic, chemical,
# crystal, experimental, refinement or atomic coordinate data resulting
# from the CCDC's data processing and validation procedures.
#
#######################################################################

data_CSD_CIF_EVEXAE02
_audit_creation_date 2004-07-16
_audit_creation_method CSD-ConQuest-V1
_database_code_CSD EVEXAE02
_database_code_depnum_ccdc_archive 'CCDC 235410'
_chemical_formula_sum 'C16 H13 N1 O5'
_chemical_formula_moiety
;
C16 H13 N1 O5
;
_journal_coden_Cambridge 4
_journal_volume 126
_journal_year 2004
_journal_page_first 3845
_journal_name_full 'J.Am.Chem.Soc. '
loop_
_publ_author_name
"P.Gilli"
"V.Bertolasi"
"L.Pretto"
"V.Ferretti"
"G.Gilli"
_chemical_name_systematic
;
(2Z)-3-hydroxy-1-(4-methoxyphenyl)-3-(3-nitrophenyl)-2-propen-1-one
;
_chemical_name_common
;
(2Z)-3-hydroxy-1-(4-methoxyphenyl)-3-(3-nitrophenyl)-2-propen-1-one
;
_cell_volume   1414.652
_exptl_crystal_colour 'yellow'
_exptl_crystal_density_diffrn 1.405
_exptl_crystal_description 'prism'
_diffrn_ambient_temperature 295
#These two values have been output from a single CSD field.
_refine_ls_R_factor_gt 0.056
_refine_ls_wR_factor_gt 0.056
_symmetry_cell_setting monoclinic
_symmetry_space_group_name_H-M 'P 21/n'
_symmetry_Int_Tables_number 14
loop_
_symmetry_equiv_pos_site_id
_symmetry_equiv_pos_as_xyz
1 x,y,z
2 1/2+x,1/2-y,1/2+z
3 -x,-y,-z
4 -1/2-x,-1/2+y,-1/2-z
_cell_length_a 7.2913(1)
_cell_length_b 16.0408(3)
_cell_length_c 12.3333(2)
_cell_angle_alpha 90
_cell_angle_beta 101.273(1)
_cell_angle_gamma 90
_cell_formula_units_Z 4
loop_
_atom_type_symbol
_atom_type_radius_bond
C 0.68
H 0.19
N 0.68
O 0.68
loop_
_atom_site_label
_atom_site_type_symbol
_atom_site_fract_x
_atom_site_fract_y
_atom_site_fract_z
O1 O -0.1355(2) 0.97416(9) 0.71024(11)
O2 O -0.1542(2) 1.12604(9) 0.69215(12)
O3 O 0.0170(2) 1.50255(8) 0.71380(13)
O4 O -0.13978(19) 1.41393(8) 0.60110(11)
O5 O 0.2739(2) 0.68500(8) 1.00740(11)
N1 N -0.0339(2) 1.43146(9) 0.68789(13)
C1 C -0.0042(2) 0.9818(1) 0.79624(13)
C2 C 0.0598(2) 1.06175(10) 0.83217(13)
C3 C -0.0176(2) 1.13208(10) 0.77725(12)
C4 C 0.0461(2) 1.2182(1) 0.80781(12)
C5 C 0.1746(3) 1.23628(12) 0.90400(14)
C6 C 0.2333(3) 1.31714(13) 0.92901(16)
C7 C 0.1650(3) 1.38148(12) 0.85907(15)
C8 C 0.0373(2) 1.36312(10) 0.76436(13)
C9 C -0.0235(2) 1.28344(10) 0.73706(13)
C10 C 0.0702(2) 0.90456(10) 0.85171(12)
C11 C 0.0120(2) 0.82798(10) 0.80246(14)
C12 C 0.0766(2) 0.75373(11) 0.85133(14)
C13 C 0.2021(3) 0.75436(10) 0.95153(14)
C14 C 0.2622(3) 0.82979(11) 1.00162(14)
C15 C 0.1968(2) 0.90393(11) 0.95248(13)
C16 C 0.2210(5) 0.60593(14) 0.9583(2)
H1 H -0.172(5) 1.050(2) 0.683(2)
H2 H 0.156(3) 1.0672(11) 0.8929(16)
H3 H 0.225(3) 1.1928(13) 0.9538(17)
H4 H 0.320(3) 1.3329(15) 0.993(2)
H5 H 0.200(3) 1.4391(14) 0.8720(19)
H6 H -0.111(3) 1.2729(12) 0.6700(18)
H7 H -0.071(3) 0.8272(13) 0.7366(17)
H8 H 0.035(3) 0.7020(12) 0.8137(16)
H9 H 0.349(3) 0.8312(13) 1.0717(18)
H10 H 0.239(2) 0.9563(13) 0.9905(16)
H11 H 0.087(5) 0.5989(19) 0.953(3)
H12 H 0.257(4) 0.5997(17) 0.885(3)
H13 H 0.290(4) 0.562(2) 1.006(3)
#END
