
#######################################################################
#
#                 Cambridge Crystallographic Data Centre
#                                CCDC
#
#######################################################################
#
# If this CIF has been generated from an entry in the Cambridge
# Structural Database, then it will include bibliographic, chemical,
# crystal, experimental, refinement or atomic coordinate data resulting
# from the CCDC's data processing and validation procedures.
#
#######################################################################

data_CSD_CIF_EVEZEK
_audit_creation_date 2004-07-16
_audit_creation_method CSD-ConQuest-V1
_database_code_CSD EVEZEK
_database_code_depnum_ccdc_archive 'CCDC 226414'
_chemical_formula_sum 'C26 H28 N4 O5'
_chemical_formula_moiety
;
C26 H28 N4 O5
;
_journal_coden_Cambridge 4
_journal_volume 126
_journal_year 2004
_journal_page_first 3712
_journal_name_full 'J.Am.Chem.Soc. '
loop_
_publ_author_name
"Y.Yamamoto"
"J.Ishii"
"H.Nishiyama"
"K.Itoh"
_chemical_name_systematic
;
[6-butyl-4'-[N-(2,4-dinitrophenyl)ethanehydrazonoyl]-4-methylbiphenyl-2-yl]met
hanol
;
_cell_volume   2607.847
_exptl_crystal_colour 'red'
_exptl_crystal_density_diffrn 1.21
_exptl_crystal_preparation 'ethyl acetate/hexane'
_diffrn_ambient_temperature 173
#These two values have been output from a single CSD field.
_refine_ls_R_factor_gt 0.1098
_refine_ls_wR_factor_gt 0.1098
_symmetry_cell_setting triclinic
_symmetry_space_group_name_H-M 'P -1'
_symmetry_Int_Tables_number 2
loop_
_symmetry_equiv_pos_site_id
_symmetry_equiv_pos_as_xyz
1 x,y,z
2 -x,-y,-z
_cell_length_a 9.7951(9)
_cell_length_b 15.3104(13)
_cell_length_c 18.4426(17)
_cell_angle_alpha 101.362(2)
_cell_angle_beta 104.892(2)
_cell_angle_gamma 92.428(2)
_cell_formula_units_Z 4
loop_
_atom_type_symbol
_atom_type_radius_bond
C 0.68
H 0.23
N 0.68
O 0.68
loop_
_atom_site_label
_atom_site_type_symbol
_atom_site_fract_x
_atom_site_fract_y
_atom_site_fract_z
C1 C 0.1695(4) 0.9740(3) 0.1927(3)
C2 C 0.1808(5) 1.0568(3) 0.2420(3)
C3 C 0.1844(4) 1.1344(3) 0.2122(3)
H1 H 0.19360 1.19000 0.24520
C4 C 0.1747(4) 1.1307(3) 0.1364(3)
C5 C 0.1612(5) 1.0471(3) 0.0872(3)
H2 H 0.15400 1.04370 0.03540
C6 C 0.1583(5) 0.9687(3) 0.1146(3)
C7 C 0.1892(6) 1.0673(3) 0.3264(3)
H3 H 0.15140 1.01140 0.33440
H4 H 0.12920 1.11290 0.34020
C8 C 0.3369(7) 1.0922(4) 0.3797(4)
H5 H 0.39620 1.04500 0.36870
H6 H 0.37750 1.14660 0.37050
C9 C 0.3361(10) 1.1066(5) 0.4621(4)
H7 H 0.27250 1.15150 0.47210
H8 H 0.29930 1.05120 0.47150
C10 C 0.4737(13) 1.1346(8) 0.5144(6)
H9 H 0.53210 1.08590 0.51190
H10 H 0.46470 1.15240 0.56580
H11 H 0.51660 1.18420 0.50080
C11 C 0.1734(5) 1.2155(3) 0.1053(3)
H12 H 0.07700 1.22640 0.08400
H13 H 0.22250 1.20840 0.06590
H14 H 0.21980 1.26510 0.14610
C12 C 0.1505(7) 0.8791(4) 0.0464(6)
H15 H 0.07530 0.83500 0.04520
H16 H 0.13090 0.89520 -0.00330
C13 C 0.1683(4) 0.8887(3) 0.2204(3)
C14 C 0.0404(5) 0.8414(3) 0.2180(3)
H17 H -0.04540 0.86440 0.20020
C15 C 0.0407(5) 0.7617(3) 0.2415(3)
H18 H -0.04540 0.73140 0.23880
C16 C 0.1662(5) 0.7248(3) 0.2692(3)
C17 C 0.2927(5) 0.7715(3) 0.2710(3)
H19 H 0.37830 0.74830 0.28840
C18 C 0.2933(5) 0.8524(3) 0.2473(3)
H20 H 0.37930 0.88250 0.24970
C19 C 0.1644(5) 0.6370(3) 0.2914(3)
C20 C 0.3008(5) 0.6024(3) 0.3271(3)
H21 H 0.29520 0.58560 0.37380
H22 H 0.37770 0.64830 0.33820
H23 H 0.31680 0.55110 0.29200
C21 C -0.0895(5) 0.4701(3) 0.2939(3)
C22 C -0.1043(5) 0.3850(3) 0.3109(3)
C23 C -0.2331(5) 0.3461(3) 0.3121(3)
H24 H -0.23970 0.29050 0.32490
C24 C -0.3506(5) 0.3908(3) 0.2942(3)
C25 C -0.3433(5) 0.4738(3) 0.2741(3)
H25 H -0.42490 0.50260 0.26060
C26 C -0.2152(5) 0.5118(3) 0.2746(3)
H26 H -0.21030 0.56740 0.26170
N1 N 0.0408(4) 0.5951(2) 0.2785(2)
N2 N 0.0374(4) 0.5120(2) 0.2968(2)
H27 H 0.11440 0.48720 0.31000
N3 N 0.0174(4) 0.3330(3) 0.3277(3)
N4 N -0.4878(5) 0.3505(3) 0.2943(3)
N5 N 0.8043(4) 0.3576(2) 0.1160(2)
N6 N 0.8078(4) 0.4381(2) 0.0938(2)
H28 H 0.73050 0.46120 0.07700
N7 N 0.8305(4) 0.6149(2) 0.0576(2)
N8 N 1.3407(4) 0.6048(3) 0.1134(2)
O1 O 0.2738(10) 0.8462(5) 0.0618(4)
H29 H 0.28800 0.83090 0.10310
O2 O 0.1312(4) 0.3608(2) 0.3203(3)
O3 O 0.0004(4) 0.2630(2) 0.3481(2)
O4 O -0.4902(4) 0.2843(3) 0.3229(3)
O5 O -0.5953(4) 0.3836(3) 0.2650(3)
C27 C 0.6776(4) -0.0163(3) 0.2093(3)
C28 C 0.7074(5) -0.0151(3) 0.2872(3)
C29 C 0.7069(6) -0.0956(3) 0.3100(3)
H30 H 0.72720 -0.09460 0.36230
C30 C 0.6781(4) -0.1763(3) 0.2600(3)
C31 C 0.6478(5) -0.1765(3) 0.1827(3)
H31 H 0.62670 -0.23090 0.14720
C32 C 0.6482(5) -0.0969(3) 0.1565(3)
C33 C 0.7439(9) 0.0749(4) 0.3441(4)
H32 H 0.79310 0.11470 0.32220
H33 H 0.65510 0.09920 0.34700
C34 C 0.8280(7) 0.0799(4) 0.4218(4)
H34 H 0.91740 0.05630 0.41930
H35 H 0.77920 0.04030 0.44420
C35 C 0.8606(8) 0.1687(4) 0.4755(3)
H36 H 0.91320 0.20770 0.45440
H37 H 0.77140 0.19360 0.47630
C36 C 0.9403(15) 0.1727(7) 0.5545(6)
H38 H 0.87890 0.15130 0.58160
H39 H 0.97730 0.23340 0.57890
H40 H 1.01730 0.13580 0.55510
C37 C 0.6814(6) -0.2626(3) 0.2883(4)
H41 H 0.77820 -0.27450 0.30700
H42 H 0.63220 -0.31090 0.24690
H43 H 0.63600 -0.25710 0.32910
C38 C 0.6187(8) -0.0999(4) 0.0710(4)
H44 H 0.69420 -0.06410 0.06180
H45 H 0.61690 -0.16110 0.04360
C39 C 0.6765(4) 0.0703(3) 0.1820(3)
C40 C 0.7985(5) 0.1080(3) 0.1695(3)
H46 H 0.88030 0.07830 0.17680
C41 C 0.7999(5) 0.1879(3) 0.1468(3)
H47 H 0.88340 0.21250 0.14050
C42 C 0.6789(4) 0.2327(3) 0.1329(3)
C43 C 0.5559(4) 0.1947(3) 0.1463(3)
H48 H 0.47340 0.22350 0.13840
C44 C 0.5574(4) 0.1158(3) 0.1707(3)
H49 H 0.47570 0.09240 0.17980
C45 C 0.6799(4) 0.3187(3) 0.1077(3)
C46 C 0.5432(5) 0.3553(3) 0.0735(3)
H50 H 0.53220 0.40860 0.10810
H51 H 0.46490 0.31140 0.06550
H52 H 0.54560 0.36920 0.02530
C47 C 0.9348(4) 0.4802(3) 0.0988(2)
C48 C 0.9508(5) 0.5657(3) 0.0808(2)
C49 C 1.0835(5) 0.6057(3) 0.0849(2)
H53 H 1.09190 0.66080 0.07160
C50 C 1.2010(5) 0.5630(3) 0.1086(3)
C51 C 1.1909(5) 0.4800(3) 0.1277(3)
H54 H 1.27250 0.45220 0.14380
C52 C 1.0616(4) 0.4395(3) 0.1229(2)
H55 H 1.05600 0.38390 0.13560
O6 O 0.4847(7) -0.0660(3) 0.0426(3)
H56 H 0.45130 -0.08940 -0.00300
O7 O 0.7107(4) 0.5809(3) 0.0511(3)
O8 O 0.8496(4) 0.6883(2) 0.0435(2)
O9 O 1.3461(4) 0.6729(2) 0.0884(2)
O10 O 1.4452(4) 0.5709(2) 0.1441(3)
#END
