
#######################################################################
#
#                 Cambridge Crystallographic Data Centre
#                                CCDC
#
#######################################################################
#
# If this CIF has been generated from an entry in the Cambridge
# Structural Database, then it will include bibliographic, chemical,
# crystal, experimental, refinement or atomic coordinate data resulting
# from the CCDC's data processing and validation procedures.
#
#######################################################################

data_CSD_CIF_EVIKIE
_audit_creation_date 2011-08-04
_audit_creation_method CSD-ConQuest-V1
_database_code_CSD EVIKIE
_database_code_depnum_ccdc_archive 'CCDC 824105'
_chemical_formula_sum 'C10 H15 N1 O7'
_chemical_formula_moiety
;
C10 H15 N1 O7
;
_journal_coeditor_code "IUCr ZQ2104"
_journal_coden_Cambridge 1370
_journal_volume 67
_journal_year 2011
_journal_page_first o1673
_journal_name_full 'Acta Crystallogr.,Sect.E:Struct.Rep.Online '
loop_
_publ_author_name
"Qiurong Zhang"
"Pan Li"
"Xuebin Chen"
"Xiandong Wang"
"Hongmin Liu"
_chemical_name_systematic
;
3,6-Didehydro-5-hydroxy-1,2-O-isopropylidene-5-C-nitromethyl-\a-D-glucofuranos
e
;
_chemical_name_common
;
2,2-Dimethyl-6-(nitromethyl)hexahydrofuro[2',3':4,5]furo[2,3-d][1,3]dioxol-6-o
l
;
_cell_volume   1196.758
_exptl_crystal_colour 'white'
_exptl_crystal_density_diffrn 1.45
_exptl_crystal_description 'block'
_diffrn_ambient_temperature 291
_refine_special_details
;
O3 and O3A disordered over two sites with occupancies 0.695:0.305.

;
#These two values have been output from a single CSD field.
_refine_ls_R_factor_gt 0.0528
_refine_ls_wR_factor_gt 0.0528
_symmetry_cell_setting orthorhombic
_symmetry_space_group_name_H-M 'P 21 21 21'
_symmetry_Int_Tables_number 19
loop_
_symmetry_equiv_pos_site_id
_symmetry_equiv_pos_as_xyz
1 x,y,z
2 1/2-x,-y,1/2+z
3 1/2+x,1/2-y,-z
4 -x,1/2+y,1/2-z
_cell_length_a 5.63290(13)
_cell_length_b 8.36405(15)
_cell_length_c 25.4014(5)
_cell_angle_alpha 90
_cell_angle_beta 90
_cell_angle_gamma 90
_cell_formula_units_Z 4
loop_
_atom_type_symbol
_atom_type_radius_bond
C 0.68
H 0.23
N 0.68
O 0.68
loop_
_atom_site_label
_atom_site_type_symbol
_atom_site_fract_x
_atom_site_fract_y
_atom_site_fract_z
O1 O 0.8215(5) -0.0074(2) 0.86303(8)
O2 O 0.5738(5) 0.1567(3) 0.81809(9)
O3 O 0.4254(5) 0.4145(8) 0.92867(15)
O4 O 0.8877(4) 0.2199(2) 0.91272(11)
O5 O 1.0074(4) 0.4587(3) 0.97889(8)
H1 H 1.07(1) 0.374(6) 0.966(2)
O6 O 1.1140(5) 0.6590(3) 0.86098(10)
O7 O 1.2025(5) 0.7827(3) 0.93199(11)
N1 N 1.0673(5) 0.7059(3) 0.90501(9)
C1 C 0.7251(6) 0.1003(3) 0.89903(10)
H2 H 0.66930 0.04400 0.93050
C2 C 0.5231(5) 0.1803(4) 0.87177(13)
H3 H 0.36810 0.13750 0.88220
C3 C 0.5524(6) 0.3547(5) 0.88496(14)
H4 H 0.51200 0.41860 0.85390
C4 C 0.8110(5) 0.3724(3) 0.89597(11)
H5 H 0.90010 0.41200 0.86550
C5 C 0.8201(4) 0.4884(3) 0.94342(9)
C6 C 0.5819(5) 0.4568(4) 0.96985(11)
H6 H 0.59530 0.37040 0.99520
H7 H 0.52590 0.55180 0.98790
C7 C 0.7269(6) 0.0235(3) 0.81191(10)
C8 C 0.9245(10) 0.0693(8) 0.7760(2)
H8 H 1.04280 -0.01330 0.77610
H9 H 0.99400 0.16770 0.78790
H10 H 0.86400 0.08300 0.74100
C9 C 0.5948(9) -0.1217(5) 0.79390(18)
H11 H 0.45670 -0.13660 0.81550
H12 H 0.69580 -0.21380 0.79670
H13 H 0.54710 -0.10800 0.75790
C10 C 0.8305(5) 0.6646(3) 0.92708(11)
H14 H 0.70900 0.68560 0.90090
H15 H 0.79850 0.73150 0.95750
H16? H 0.47940 0.43250 0.86110
H17? H 0.60480 0.41200 1.00470
H18? H 0.49150 0.55500 0.97300
O8? O 0.4631(15) 0.3468(10) 0.93694(15)
#END
