
#######################################################################
#
#                 Cambridge Crystallographic Data Centre
#                                CCDC
#
#######################################################################
#
# If this CIF has been generated from an entry in the Cambridge
# Structural Database, then it will include bibliographic, chemical,
# crystal, experimental, refinement or atomic coordinate data resulting
# from the CCDC's data processing and validation procedures.
#
#######################################################################

data_CSD_CIF_EVIKUQ
_audit_creation_date 2011-08-04
_audit_creation_method CSD-ConQuest-V1
_database_code_CSD EVIKUQ
_database_code_depnum_ccdc_archive 'CCDC 783548'
_chemical_formula_sum 'C31 H27 N3 O2'
_chemical_formula_moiety
;
C31 H27 N3 O2
;
_journal_coeditor_code "IUCr JJ2089"
_journal_coden_Cambridge 1370
_journal_volume 67
_journal_year 2011
_journal_page_first o1686
_journal_name_full 'Acta Crystallogr.,Sect.E:Struct.Rep.Online '
loop_
_publ_author_name
"S.Natarajan"
"R.Mathews"
_chemical_name_systematic
;
3-Nitroso-2,4,6,8-tetraphenyl-3,7-diazabicyclo[3.3.1]nonan-9-one
;
_cell_volume   2527.799
_exptl_crystal_colour 'yellow'
_exptl_crystal_density_diffrn 1.244
_exptl_crystal_description 'block'
_diffrn_ambient_temperature 293
_refine_special_details
;
O2 and O3 disordered over two sites with occupancies 0.70:0.30.

;
#These two values have been output from a single CSD field.
_refine_ls_R_factor_gt 0.0811
_refine_ls_wR_factor_gt 0.0811
_symmetry_cell_setting monoclinic
_symmetry_space_group_name_H-M 'P 21/c'
_symmetry_Int_Tables_number 14
loop_
_symmetry_equiv_pos_site_id
_symmetry_equiv_pos_as_xyz
1 x,y,z
2 -x,1/2+y,1/2-z
3 -x,-y,-z
4 x,-1/2-y,-1/2+z
_cell_length_a 18.723(4)
_cell_length_b 8.8319(17)
_cell_length_c 15.806(3)
_cell_angle_alpha 90
_cell_angle_beta 104.728(3)
_cell_angle_gamma 90
_cell_formula_units_Z 4
loop_
_atom_type_symbol
_atom_type_radius_bond
C 0.68
H 0.23
N 0.68
O 0.68
loop_
_atom_site_label
_atom_site_type_symbol
_atom_site_fract_x
_atom_site_fract_y
_atom_site_fract_z
O1 O 0.16505(12) 0.9901(2) 0.43401(14)
O2 O 0.33486(19) 0.5848(4) 0.2575(2)
N1 N 0.27775(12) 0.6798(2) 0.34371(15)
N2 N 0.32788(19) 0.5919(4) 0.3247(3)
N3 N 0.35556(12) 0.9558(2) 0.38245(13)
H1 H 0.39330 0.92590 0.36530
C1 C 0.27407(15) 0.6783(3) 0.43486(18)
H2 H 0.31920 0.62900 0.46870
C2 C 0.34747(15) 0.9322(3) 0.47096(17)
H3 H 0.34190 1.03220 0.49530
C3 C 0.29317(15) 1.0350(3) 0.32634(18)
H4 H 0.28620 1.12940 0.35580
C4 C 0.22947(14) 0.7796(3) 0.27724(17)
H5 H 0.25500 0.79610 0.23110
C5 C 0.22234(15) 0.9354(3) 0.31808(18)
H6 H 0.17990 0.98870 0.28090
C6 C 0.27560(15) 0.8422(3) 0.46805(18)
H7 H 0.26790 0.84040 0.52710
C7 C 0.21246(16) 0.9267(3) 0.40905(19)
C8 C 0.20946(16) 0.5843(3) 0.44686(19)
C9 C 0.16836(19) 0.6217(4) 0.5048(2)
H8 H 0.17860 0.71080 0.53700
C10 C 0.1124(2) 0.5289(5) 0.5158(3)
H9 H 0.08560 0.55620 0.55550
C11 C 0.0954(2) 0.3983(5) 0.4698(4)
H10 H 0.05720 0.33670 0.47740
C12 C 0.1357(2) 0.3594(4) 0.4123(3)
H11 H 0.12480 0.27010 0.38050
C13 C 0.19191(18) 0.4497(3) 0.4006(2)
H12 H 0.21870 0.42070 0.36110
C14 C 0.15692(15) 0.7006(3) 0.23480(17)
C15 C 0.09218(17) 0.7261(4) 0.2579(2)
H13 H 0.09100 0.79700 0.30100
C16 C 0.0286(2) 0.6478(6) 0.2178(3)
H14 H -0.01460 0.66450 0.23520
C17 C 0.0291(2) 0.5462(5) 0.1529(3)
H15 H -0.01410 0.49590 0.12500
C18 C 0.0928(2) 0.5184(4) 0.1291(2)
H16 H 0.09340 0.44830 0.08530
C19 C 0.15639(18) 0.5950(4) 0.1703(2)
H17 H 0.19990 0.57480 0.15430
C20 C 0.30623(15) 1.0759(3) 0.23874(17)
C21 C 0.26664(17) 1.1952(3) 0.1924(2)
H18 H 0.23240 1.24680 0.21510
C22 C 0.27791(18) 1.2380(3) 0.1124(2)
H19 H 0.25070 1.31710 0.08100
C23 C 0.32896(18) 1.1636(3) 0.0797(2)
H20 H 0.33720 1.19320 0.02650
C24 C 0.36835(16) 1.0447(3) 0.12552(18)
H21 H 0.40330 0.99440 0.10330
C25 C 0.35600(15) 1.0001(3) 0.20431(18)
H22 H 0.38170 0.91800 0.23420
C26 C 0.41479(15) 0.8592(3) 0.53034(17)
C27 C 0.42814(19) 0.8818(4) 0.6201(2)
H23 H 0.39730 0.94570 0.64140
C28 C 0.4857(2) 0.8118(5) 0.6777(2)
H24 H 0.49320 0.82680 0.73760
C29 C 0.53198(19) 0.7201(4) 0.6469(3)
H25 H 0.57140 0.67290 0.68580
C30 C 0.52064(18) 0.6971(4) 0.5588(2)
H26 H 0.55250 0.63470 0.53810
C31 C 0.46200(17) 0.7664(3) 0.5005(2)
H27 H 0.45450 0.75010 0.44080
O3? O 0.3644(5) 0.5232(10) 0.3459(6)
#END
