
#######################################################################
#
#                 Cambridge Crystallographic Data Centre
#                                CCDC
#
#######################################################################
#
# If this CIF has been generated from an entry in the Cambridge
# Structural Database, then it will include bibliographic, chemical,
# crystal, experimental, refinement or atomic coordinate data resulting
# from the CCDC's data processing and validation procedures.
#
#######################################################################

data_CSD_CIF_EVINOM
_audit_creation_date 2004-07-15
_audit_creation_method CSD-ConQuest-V1
_database_code_CSD EVINOM
_database_code_depnum_ccdc_archive 'CCDC 239267'
_chemical_formula_sum 'C17 H12 N2 O3'
_chemical_formula_moiety
;
C17 H12 N2 O3
;
_journal_coeditor_code "IUCr OB6364"
_journal_coden_Cambridge 1370
_journal_volume 60
_journal_year 2004
_journal_page_first o826
_journal_name_full 'Acta Crystallogr.,Sect.E:Struct.Rep.Online '
loop_
_publ_author_name
"A.Ozek"
"S.Yuce"
"C.Albayrak"
"M.Odabasoglu"
"O.Buyukgungor"
_chemical_name_systematic
;
1-((4-Nitrophenylamino)methylene)naphthalen-2(1H)-one
;
_chemical_melting_point 492
_cell_volume   1338.767
_exptl_crystal_colour 'red'
_exptl_crystal_density_diffrn 1.45
_exptl_special_details
;
Melting point range 492-494K

;
_exptl_crystal_description 'plate'
_exptl_crystal_preparation 'acetone'
_diffrn_ambient_temperature 293
#These two values have been output from a single CSD field.
_refine_ls_R_factor_gt 0.0529
_refine_ls_wR_factor_gt 0.0529
_symmetry_cell_setting monoclinic
_symmetry_space_group_name_H-M 'P 21/c'
_symmetry_Int_Tables_number 14
loop_
_symmetry_equiv_pos_site_id
_symmetry_equiv_pos_as_xyz
1 x,y,z
2 -x,1/2+y,1/2-z
3 -x,-y,-z
4 x,-1/2-y,-1/2+z
_cell_length_a 8.0124(13)
_cell_length_b 7.3743(8)
_cell_length_c 22.690(4)
_cell_angle_alpha 90
_cell_angle_beta 93.043(13)
_cell_angle_gamma 90
_cell_formula_units_Z 4
loop_
_atom_type_symbol
_atom_type_radius_bond
C 0.68
H 0.23
N 0.68
O 0.68
loop_
_atom_site_label
_atom_site_type_symbol
_atom_site_fract_x
_atom_site_fract_y
_atom_site_fract_z
C1 C 0.5776(3) 0.2069(3) 0.64878(10)
C2 C 0.5888(3) 0.0278(3) 0.62517(11)
C3 C 0.6797(3) -0.1061(3) 0.65937(11)
H1 H 0.68700 -0.22360 0.64480
C4 C 0.7544(3) -0.0658(3) 0.71174(12)
H2 H 0.81220 -0.15670 0.73260
C5 C 0.7490(3) 0.1102(3) 0.73685(10)
C6 C 0.8305(3) 0.1483(4) 0.79160(12)
H3 H 0.88680 0.05580 0.81220
C7 C 0.8291(3) 0.3175(4) 0.81536(12)
H4 H 0.88410 0.34040 0.85170
C8 C 0.7452(3) 0.4550(3) 0.78494(11)
H5 H 0.74470 0.57120 0.80090
C9 C 0.6626(3) 0.4222(3) 0.73154(11)
H6 H 0.60620 0.51670 0.71200
C10 C 0.6613(3) 0.2493(3) 0.70575(9)
C11 C 0.4847(3) 0.3367(3) 0.61653(10)
H7 H 0.47500 0.45180 0.63280
C12 C 0.3194(3) 0.4316(3) 0.52997(10)
C13 C 0.3108(3) 0.6143(3) 0.54341(10)
H8 H 0.36690 0.65920 0.57730
C14 C 0.2189(3) 0.7296(3) 0.50659(10)
H9 H 0.21200 0.85230 0.51570
C15 C 0.1377(3) 0.6627(3) 0.45646(10)
C16 C 0.1468(3) 0.4826(3) 0.44164(10)
H10 H 0.09240 0.43940 0.40720
C17 C 0.2375(3) 0.3673(3) 0.47843(10)
H11 H 0.24430 0.24500 0.46890
N1 N 0.4106(2) 0.3061(2) 0.56483(8)
H12 H 0.41860 0.19820 0.55090
N2 N 0.0380(3) 0.7850(3) 0.41860(9)
O1 O 0.5206(2) -0.0165(2) 0.57448(8)
O2 O -0.0344(3) 0.7251(3) 0.37432(9)
O3 O 0.0306(3) 0.9452(3) 0.43287(9)
#END
