
#######################################################################
#
#                 Cambridge Crystallographic Data Centre
#                                CCDC
#
#######################################################################
#
# If this CIF has been generated from an entry in the Cambridge
# Structural Database, then it will include bibliographic, chemical,
# crystal, experimental, refinement or atomic coordinate data resulting
# from the CCDC's data processing and validation procedures.
#
#######################################################################

data_CSD_CIF_EVIQEF
_audit_creation_date 2004-07-16
_audit_creation_method CSD-ConQuest-V1
_database_code_CSD EVIQEF
_database_code_depnum_ccdc_archive 'CCDC 241679'
_chemical_formula_sum 'C15 H18 N6 O5'
_chemical_formula_moiety
;
C15 H18 N6 O5
;
_journal_coden_Cambridge 95
_journal_year 2003
_journal_page_first 1734
_journal_name_full 'Izv.Akad.Nauk SSSR,Ser.Khim.(Russ.)(Russ.Chem.Bull.) '
loop_
_publ_author_name
"S.I.Molotov"
"A.S.Kulikov"
"Yu.A.Strelenko"
"N.N.Makhova"
"K.A.Lyssenko"
_chemical_name_systematic
;
3-(2,4,6-Trimethylphenylazo)-4-(3-ethoxycarbonylureido)furoxan
;
_chemical_melting_point 445.15
_cell_volume    862.063
_exptl_crystal_density_diffrn 1.396
_exptl_special_details
;
Melting point range 445.15-446.15K

;
_exptl_crystal_preparation 'ethanol'
_diffrn_ambient_temperature 297
#These two values have been output from a single CSD field.
_refine_ls_R_factor_gt 0.0543
_refine_ls_wR_factor_gt 0.0543
_symmetry_cell_setting triclinic
_symmetry_space_group_name_H-M 'P -1'
_symmetry_Int_Tables_number 2
loop_
_symmetry_equiv_pos_site_id
_symmetry_equiv_pos_as_xyz
1 x,y,z
2 -x,-y,-z
_cell_length_a 7.300(2)
_cell_length_b 9.448(2)
_cell_length_c 13.555(3)
_cell_angle_alpha 99.70(3)
_cell_angle_beta 96.00(3)
_cell_angle_gamma 108.37(3)
_cell_formula_units_Z 2
loop_
_atom_type_symbol
_atom_type_radius_bond
C 0.68
H 0.23
N 0.68
O 0.68
loop_
_atom_site_label
_atom_site_type_symbol
_atom_site_fract_x
_atom_site_fract_y
_atom_site_fract_z
O1 O 0.1815(3) 0.6346(2) 0.15771(17)
N1 N 0.2080(4) 0.7181(3) 0.07683(19)
O2 O 0.2139(3) 0.6509(2) -0.00678(18)
N2 N 0.1791(4) 0.7340(3) 0.24555(18)
O3 O 0.0886(3) 0.8931(2) 0.41494(13)
N3 N 0.2023(4) 0.9939(2) 0.28224(18)
H1 H 0.23440 1.08240 0.26980
O4 O 0.2486(3) 1.2859(2) 0.30520(14)
N4 N 0.1259(3) 1.1397(2) 0.41709(15)
H2 H 0.06140 1.13520 0.47340
O5 O 0.1323(3) 1.3763(2) 0.43942(14)
N5 N 0.2375(3) 0.9805(2) 0.06897(18)
N6 N 0.2542(3) 0.9533(2) -0.02368(19)
C1 C 0.2164(4) 0.8595(3) 0.1161(2)
C2 C 0.1989(4) 0.8633(3) 0.2201(2)
C3 C 0.2738(4) 1.0693(3) -0.0765(2)
C4 C 0.2884(4) 1.0231(3) -0.1801(2)
C5 C 0.3105(4) 1.1253(4) -0.2405(2)
H3 H 0.32390 1.09420 -0.30740
C6 C 0.3146(5) 1.2746(4) -0.2088(2)
C7 C 0.2996(4) 1.3159(3) -0.1076(2)
H4 H 0.30340 1.41510 -0.08360
C8 C 0.2794(4) 1.2196(3) -0.0400(2)
C9 C 0.2827(5) 0.8630(3) -0.2209(2)
H5 H 0.29400 0.85100 -0.29160
H6 H 0.16090 0.79140 -0.21330
H7 H 0.38940 0.84450 -0.18400
C10 C 0.3337(5) 1.3847(4) -0.2784(2)
H8 H 0.33170 1.48030 -0.24170
H9 H 0.22660 1.34360 -0.33430
H10 H 0.45510 1.40040 -0.30360
C11 C 0.2673(5) 1.2805(3) 0.0682(2)
H11 H 0.27390 1.38500 0.07630
H12 H 0.37450 1.27440 0.11270
H13 H 0.14590 1.22090 0.08460
C12 C 0.1356(4) 0.9989(3) 0.3742(2)
C13 C 0.1790(4) 1.2711(3) 0.3823(2)
C14 C 0.1716(5) 1.5243(3) 0.4123(2)
H14 H 0.20820 1.51900 0.34540
H15 H 0.05440 1.55210 0.41030
C15 C 0.3290(6) 1.6391(4) 0.4862(3)
H16 H 0.35300 1.73670 0.46850
H17 H 0.44570 1.61260 0.48680
H18 H 0.29250 1.64380 0.55240
#END
