
#######################################################################
#
#                 Cambridge Crystallographic Data Centre
#                                CCDC
#
#######################################################################
#
# If this CIF has been generated from an entry in the Cambridge
# Structural Database, then it will include bibliographic, chemical,
# crystal, experimental, refinement or atomic coordinate data resulting
# from the CCDC's data processing and validation procedures.
#
#######################################################################

data_CSD_CIF_EVIWEM
_audit_creation_date 2011-10-03
_audit_creation_method CSD-ConQuest-V1
_database_code_CSD EVIWEM
_database_code_depnum_ccdc_archive 'CCDC 841283'
_chemical_formula_sum 'C19 H13 N3 O6'
_chemical_formula_moiety
;
C19 H13 N3 O6
;
_journal_coeditor_code "IUCr VM2109"
_journal_coden_Cambridge 1370
_journal_volume 67
_journal_year 2011
_journal_page_first o2116
_journal_name_full 'Acta Crystallogr.,Sect.E:Struct.Rep.Online '
loop_
_publ_author_name
"A.Tilborg"
"I.Boittiaux"
"B.Norberg"
"D.Lambert"
"J.Wouters"
_chemical_name_systematic
;
(2R)-3-(1H-indol-3-yl)-2-(4-nitro-1,3-dioxoisoindolin-2-yl)propanoic acid
;
_cell_volume    839.538
_exptl_crystal_colour 'yellow'
_exptl_crystal_density_diffrn 1.501
_exptl_crystal_description 'prism'
_diffrn_ambient_temperature 293
#These two values have been output from a single CSD field.
_refine_ls_R_factor_gt 0.0307
_refine_ls_wR_factor_gt 0.0307
_symmetry_cell_setting monoclinic
_symmetry_space_group_name_H-M 'P 21'
_symmetry_Int_Tables_number 4
loop_
_symmetry_equiv_pos_site_id
_symmetry_equiv_pos_as_xyz
1 x,y,z
2 -x,1/2+y,-z
_cell_length_a 7.0569(3)
_cell_length_b 15.5302(8)
_cell_length_c 7.6947(4)
_cell_angle_alpha 90
_cell_angle_beta 95.415(4)
_cell_angle_gamma 90
_cell_formula_units_Z 2
loop_
_atom_type_symbol
_atom_type_radius_bond
C 0.68
H 0.23
N 0.68
O 0.68
loop_
_atom_site_label
_atom_site_type_symbol
_atom_site_fract_x
_atom_site_fract_y
_atom_site_fract_z
C1 C 0.7937(3) 0.58969(13) 0.3293(3)
C2 C 0.8237(3) 0.64858(13) 0.4829(3)
C3 C 0.7949(3) 0.73572(14) 0.5072(3)
C4 C 0.8157(3) 0.77052(15) 0.6745(3)
H1 H 0.78810 0.82830 0.69130
C5 C 0.8772(3) 0.71950(17) 0.8159(3)
H2 H 0.89430 0.74370 0.92690
C6 C 0.9135(3) 0.63265(16) 0.7939(3)
H3 H 0.95810 0.59840 0.88810
C7 C 0.8815(3) 0.59866(14) 0.6286(3)
C8 C 0.8976(3) 0.50848(14) 0.5709(2)
C9 C 0.8329(3) 0.42945(12) 0.2879(3)
H4 H 0.90700 0.38540 0.35570
C10 C 0.6282(3) 0.39570(14) 0.2619(3)
H5 H 0.56550 0.40770 0.36610
H6 H 0.56010 0.42650 0.16560
C11 C 0.6167(3) 0.30101(14) 0.2249(3)
C12 C 0.5649(3) 0.26268(17) 0.0691(3)
H7 H 0.53550 0.29170 -0.03570
C13 C 0.6095(3) 0.15405(15) 0.2600(3)
C14 C 0.6192(3) 0.07499(16) 0.3441(4)
H8 H 0.59200 0.02410 0.28300
C15 C 0.6705(3) 0.07453(17) 0.5213(4)
H9 H 0.67790 0.02240 0.58100
C16 C 0.7115(3) 0.15063(19) 0.6124(4)
H10 H 0.74680 0.14820 0.73180
C17 C 0.7012(3) 0.22977(16) 0.5303(3)
H11 H 0.72940 0.28010 0.59280
C18 C 0.6472(3) 0.23231(14) 0.3505(3)
C19 C 0.9328(3) 0.44380(13) 0.1227(3)
N1 N 0.8488(2) 0.50773(11) 0.3922(2)
N2 N 0.5622(3) 0.17470(15) 0.0885(3)
N3 N 0.7496(3) 0.79406(12) 0.3599(3)
O1 O 0.7311(2) 0.60263(10) 0.18047(19)
O2 O 0.9409(2) 0.44385(10) 0.65541(19)
O3 O 1.0857(3) 0.47711(14) 0.1246(2)
O4 O 0.8377(3) 0.41420(14) -0.0186(2)
O5 O 0.8221(3) 0.77922(12) 0.2254(2)
O6 O 0.6475(3) 0.85593(12) 0.3807(3)
H12 H 0.913(5) 0.425(2) -0.120(5)
H13 H 0.525(6) 0.138(3) 0.008(5)
#END
