
#######################################################################
#
#                 Cambridge Crystallographic Data Centre
#                                CCDC
#
#######################################################################
#
# If this CIF has been generated from an entry in the Cambridge
# Structural Database, then it will include bibliographic, chemical,
# crystal, experimental, refinement or atomic coordinate data resulting
# from the CCDC's data processing and validation procedures.
#
#######################################################################

data_CSD_CIF_EVIXEM
_audit_creation_date 2004-07-16
_audit_creation_method CSD-ConQuest-V1
_database_code_CSD EVIXEM
_chemical_formula_sum 'C4 H5 N5 O3'
_chemical_formula_moiety
;
C4 H5 N5 O3
;
_journal_coden_Cambridge 82
_journal_volume 44
_journal_year 2003
_journal_page_first 967
_journal_name_full 'Zh.Strukt.Khim.(Russ.)(J.Struct.Chem.) '
loop_
_publ_author_name
"A.D.Vasil'ev"
"A.M.Astakhov"
"V.E.Zadov"
"M.S.Molokeev"
"O.V.Bindarovich"
"L.A.Kruglyakova"
"R.S.Stepanov"
_chemical_name_systematic
;
5-Acetylamino-3-nitro-1,2,4-triazole
;
_cell_volume   1442.021
_exptl_crystal_density_diffrn 1.576
_exptl_crystal_preparation 'ethyl acetate'
_diffrn_ambient_temperature 295
#These two values have been output from a single CSD field.
_refine_ls_R_factor_gt 0.0356
_refine_ls_wR_factor_gt 0.0356
_symmetry_cell_setting monoclinic
_symmetry_space_group_name_H-M 'P 21/c'
_symmetry_Int_Tables_number 14
loop_
_symmetry_equiv_pos_site_id
_symmetry_equiv_pos_as_xyz
1 x,y,z
2 -x,1/2+y,1/2-z
3 -x,-y,-z
4 x,-1/2-y,-1/2+z
_cell_length_a 8.2079(7)
_cell_length_b 13.096(1)
_cell_length_c 13.650(1)
_cell_angle_alpha 90
_cell_angle_beta 100.64(1)
_cell_angle_gamma 90
_cell_formula_units_Z 8
loop_
_atom_type_symbol
_atom_type_radius_bond
C 0.68
H 0.23
N 0.68
O 0.68
loop_
_atom_site_label
_atom_site_type_symbol
_atom_site_fract_x
_atom_site_fract_y
_atom_site_fract_z
N1 N 0.3418(2) -0.1068(1) 0.0823(1)
N2 N 0.1737(2) 0.3180(1) 0.0099(1)
N3 N 0.3564(2) -0.1612(1) 0.1680(1)
N4 N 0.1367(2) 0.4040(1) -0.0456(1)
N5 N 0.1620(2) -0.2595(1) 0.2388(1)
N6 N 0.2442(2) 0.5738(1) -0.0278(1)
N7 N 0.0936(2) -0.1699(1) 0.0797(1)
N8 N 0.3414(2) 0.4346(1) 0.0877(1)
N9 N 0.1255(2) -0.0669(1) -0.0580(1)
N10 N 0.3571(2) 0.2708(1) 0.1627(1)
C1 C 0.2049(2) -0.1957(1) 0.1606(1)
C2 C 0.2414(2) 0.4683(1) 0.0053(1)
C3 C 0.1862(2) -0.1125(1) 0.0310(1)
C4 C 0.2936(2) 0.3382(1) 0.0884(1)
C5 C 0.2179(2) -0.0118(1) -0.1125(1)
C6 C 0.3057(2) 0.1722(1) 0.1683(1)
C7 C 0.1306(2) 0.0241(1) -0.2118(1)
C8 C 0.3818(3) 0.1145(1) 0.2589(1)
O1 O 0.2765(2) -0.2935(1) 0.2998(1)
O2 O 0.1624(3) 0.5953(1) -0.1078(1)
O3 O 0.0155(2) -0.2743(1) 0.2384(1)
O4 O 0.3273(2) 0.6339(1) 0.0273(1)
O5 O 0.3633(2) 0.0048(1) -0.0797(1)
O6 O 0.2021(1) 0.1358(1) 0.1018(1)
H1 H 0.424(3) -0.078(2) 0.064(2)
H2 H 0.119(3) 0.263(2) -0.004(2)
H3 H 0.030(3) -0.082(2) -0.084(2)
H4 H 0.433(3) 0.293(2) 0.210(2)
H5 H 0.021(2) -0.0307(4) -0.2253(2)
H6 H 0.440(1) 0.1592(8) 0.3056(8)
H7 H 0.1901(8) 0.0022(3) -0.2619(7)
H8 H 0.454(1) 0.0656(9) 0.2420(3)
H9 H 0.1245(2) 0.097(1) -0.2118(1)
H10 H 0.299(1) 0.0825(6) 0.2859(5)
#END
