
#######################################################################
#
#                 Cambridge Crystallographic Data Centre
#                                CCDC
#
#######################################################################
#
# If this CIF has been generated from an entry in the Cambridge
# Structural Database, then it will include bibliographic, chemical,
# crystal, experimental, refinement or atomic coordinate data resulting
# from the CCDC's data processing and validation procedures.
#
#######################################################################

data_CSD_CIF_EVIYAL
_audit_creation_date 2016-09-28
_audit_creation_method CSD-ConQuest-V1
_database_code_CSD EVIYAL
_database_code_depnum_ccdc_archive 'CCDC 1415493'
_chemical_formula_sum 'C23 H26 N2 O6'
_chemical_formula_moiety
;
C23 H26 N2 O6
;
_journal_coden_Cambridge 214
_journal_volume 147
_journal_year 2016
_journal_page_first 1605
_journal_name_full 'Monatsh.Chem. '
loop_
_publ_author_name
"Dawei Zhang"
"Xiaodong Chen"
"Xue Guo"
"Yumin Zhang"
"Yaya Hou"
"Tianqi Zhao"
"Qiang Gu"
_chemical_name_systematic
;
diethyl 
4-(3-(2-methoxyphenyl)-1,2-oxazol-5-yl)-2,6-dimethyl-1,4-dihydropyridine-3,5-d
icarboxylate
;
_cell_volume   4521.016
_exptl_crystal_colour 'colorless'
_exptl_crystal_density_diffrn 1.253
_exptl_crystal_description 'block'
_diffrn_ambient_temperature 293
_refine_special_details
;
C10A,C9A and C10B,C9B disordered over two sites with occupancies 0.742:0.258.

;
#These two values have been output from a single CSD field.
_refine_ls_R_factor_gt 0.0683
_refine_ls_wR_factor_gt 0.0683
_symmetry_cell_setting orthorhombic
_symmetry_space_group_name_H-M 'P b c a'
_symmetry_Int_Tables_number 61
loop_
_symmetry_equiv_pos_site_id
_symmetry_equiv_pos_as_xyz
1 x,y,z
2 1/2-x,-y,1/2+z
3 -x,1/2+y,1/2-z
4 1/2+x,1/2-y,-z
5 -x,-y,-z
6 -1/2+x,y,-1/2-z
7 x,-1/2-y,-1/2+z
8 -1/2-x,-1/2+y,z
_cell_length_a 9.5042(19)
_cell_length_b 20.211(4)
_cell_length_c 23.536(5)
_cell_angle_alpha 90
_cell_angle_beta 90
_cell_angle_gamma 90
_cell_formula_units_Z 8
loop_
_atom_type_symbol
_atom_type_radius_bond
C 0.68
H 0.23
N 0.68
O 0.68
loop_
_atom_site_label
_atom_site_type_symbol
_atom_site_fract_x
_atom_site_fract_y
_atom_site_fract_z
C1 C 0.9070(11) 0.3554(5) 0.2033(3)
H1 H 0.99690 0.37740 0.19810
H2 H 0.91080 0.31200 0.18590
C2 C 0.7991(11) 0.3923(7) 0.1815(5)
H3 H 0.71090 0.37220 0.19130
H4 H 0.80780 0.39450 0.14090
H5 H 0.80300 0.43630 0.19700
C3 C 0.7511(3) 0.24390(12) 0.37676(11)
C4 C 0.8072(3) 0.29438(12) 0.34742(10)
C5 C 0.8718(3) 0.35222(11) 0.37968(10)
H6 H 0.94980 0.36970 0.35700
C6 C 0.9308(3) 0.32921(11) 0.43638(10)
C7 C 0.8686(3) 0.27775(11) 0.4633(1)
C8 C 0.6672(4) 0.18703(14) 0.35386(13)
H7 H 0.57770 0.20280 0.34060
H8 H 0.65300 0.15490 0.38340
H9 H 0.71730 0.16700 0.32290
C9 C 0.8949(3) 0.25441(14) 0.52269(12)
H10 H 0.97940 0.22850 0.52360
H11 H 0.81700 0.22790 0.53520
H12 H 0.90500 0.29190 0.54740
C10 C 0.8049(5) 0.29617(17) 0.28538(13)
C11 C 1.0430(3) 0.36729(12) 0.46239(13)
C12 C 1.1720(5) 0.46895(19) 0.4599(2)
H13 H 1.15780 0.47150 0.50060
H14 H 1.26720 0.45360 0.45280
C13 C 1.1515(5) 0.5326(2) 0.4347(2)
H15 H 1.17950 0.53120 0.39550
H16 H 1.20740 0.56480 0.45440
H17 H 1.05400 0.54460 0.43710
C14 C 0.7661(3) 0.40633(11) 0.38724(10)
C15 C 0.7408(3) 0.46421(12) 0.36099(11)
H18 H 0.79110 0.48260 0.33100
C16 C 0.6219(3) 0.49121(12) 0.38847(11)
C17 C 0.5482(3) 0.55542(12) 0.37991(12)
C18 C 0.5285(4) 0.58170(15) 0.32635(14)
C19 C 0.4546(4) 0.64122(17) 0.31913(18)
H19 H 0.44140 0.65880 0.28300
C20 C 0.4025(4) 0.67305(17) 0.3657(2)
H20 H 0.35240 0.71220 0.36100
C21 C 0.4222(4) 0.64873(16) 0.41887(19)
H21 H 0.38730 0.67140 0.45030
C22 C 0.4955(3) 0.58923(14) 0.42603(14)
H22 H 0.50880 0.57230 0.46240
C23 C 0.5707(7) 0.5708(3) 0.22592(17)
H23 H 0.47310 0.57220 0.21550
H24 H 0.62030 0.54210 0.20030
H25 H 0.60970 0.61460 0.22380
N1 N 0.7698(2) 0.24153(11) 0.43482(9)
O1 O 0.6689(2) 0.39725(9) 0.42782(8)
N2 N 0.5761(3) 0.45185(12) 0.42799(10)
O2 O 0.7549(4) 0.25498(14) 0.25438(10)
O3 O 0.8688(4) 0.35074(13) 0.26536(9)
O4 O 1.1062(2) 0.35429(10) 0.50605(10)
O5 O 1.0695(2) 0.4228(1) 0.43429(9)
O6 O 0.5840(4) 0.54649(14) 0.28239(10)
H26 H 0.733(3) 0.2097(13) 0.4506(11)
C24? C 0.8103(19) 0.3657(9) 0.2063(5)
H27? H 0.72060 0.34410 0.19990
H28? H 0.80030 0.41290 0.19990
C25? C 0.922(2) 0.3372(11) 0.1713(10)
H29? H 1.01110 0.34520 0.18890
H30? H 0.92000 0.35730 0.13440
H31? H 0.90680 0.29040 0.16770
#END
