
#######################################################################
#
#                 Cambridge Crystallographic Data Centre
#                                CCDC
#
#######################################################################
#
# If this CIF has been generated from an entry in the Cambridge
# Structural Database, then it will include bibliographic, chemical,
# crystal, experimental, refinement or atomic coordinate data resulting
# from the CCDC's data processing and validation procedures.
#
#######################################################################

data_CSD_CIF_EVIYEN
_audit_creation_date 2004-07-16
_audit_creation_method CSD-ConQuest-V1
_database_code_CSD EVIYEN
_chemical_formula_sum 'C11 H11 N1 O3'
_chemical_formula_moiety
;
C11 H11 N1 O3
;
_journal_coden_Cambridge 93
_journal_volume 391
_journal_year 2003
_journal_page_first 646
_journal_name_full 'Dokl.Akad.Nauk SSSR(Russ.)(Proc.Nat.Acad.Sci.USSR) '
loop_
_publ_author_name
"S.S.Mochalov"
"A.N.Fedotov"
"A.A.Borisenko"
"V.V.Tkachev"
"G.V.Shilov"
"A.N.Utenyshev"
"S.M.Aldoshin"
"N.S.Zefirov"
_chemical_name_systematic
;
3-Methoxy-4-nitro-1,1a,6,6a-tetrahydrocyclopropa(a)indene
;
_chemical_melting_point 345.15
_cell_volume    984.811
_exptl_crystal_density_diffrn 1.384
_exptl_special_details
;
Melting point range 345.15-346.15K

;
_diffrn_ambient_temperature 295
#These two values have been output from a single CSD field.
_refine_ls_R_factor_gt 0.057
_refine_ls_wR_factor_gt 0.057
_symmetry_cell_setting monoclinic
_symmetry_space_group_name_H-M 'P 21/n'
_symmetry_Int_Tables_number 14
loop_
_symmetry_equiv_pos_site_id
_symmetry_equiv_pos_as_xyz
1 x,y,z
2 1/2-x,1/2+y,1/2-z
3 -x,-y,-z
4 -1/2+x,-1/2-y,-1/2+z
_cell_length_a 6.809(1)
_cell_length_b 7.266(1)
_cell_length_c 19.966(4)
_cell_angle_alpha 90
_cell_angle_beta 94.46(2)
_cell_angle_gamma 90
_cell_formula_units_Z 4
loop_
_atom_type_symbol
_atom_type_radius_bond
C 0.68
N 0.68
O 0.68
loop_
_atom_site_label
_atom_site_type_symbol
_atom_site_fract_x
_atom_site_fract_y
_atom_site_fract_z
O1 O 0.0501(2) 0.2793(2) 0.0445(1)
C1 C -0.0741(3) 0.0816(3) 0.1254(1)
N1 N -0.2432(3) 0.2002(2) 0.1301(1)
C2 C -0.0606(3) -0.0724(3) 0.1666(1)
C3 C 0.0889(3) -0.1964(2) 0.1607(1)
C4 C 0.0682(3) 0.1200(2) 0.0799(1)
C5 C 0.2292(3) -0.1620(3) 0.1147(1)
C6 C 0.2208(3) -0.0049(3) 0.0754(1)
C7 C 0.3774(3) -0.3090(3) 0.1172(1)
O2 O -0.3118(2) 0.2833(3) 0.0810(1)
C8 C 0.1240(4) -0.3822(3) 0.1944(1)
C9 C 0.3157(3) -0.4468(3) 0.1690(1)
C10 C 0.1995(4) 0.3194(3) 0.0001(1)
O3 O -0.3179(3) 0.2082(3) 0.1828(1)
C11 C 0.4904(4) -0.3323(4) 0.1843(2)
#END
