
#######################################################################
#
#                 Cambridge Crystallographic Data Centre
#                                CCDC
#
#######################################################################
#
# If this CIF has been generated from an entry in the Cambridge
# Structural Database, then it will include bibliographic, chemical,
# crystal, experimental, refinement or atomic coordinate data resulting
# from the CCDC's data processing and validation procedures.
#
#######################################################################

data_CSD_CIF_EVODUO
_audit_creation_date 2004-07-16
_audit_creation_method CSD-ConQuest-V1
_database_code_CSD EVODUO
_database_code_depnum_ccdc_archive 'CCDC 241731'
_chemical_formula_sum 'C20 H31 N1 O3'
_chemical_formula_moiety
;
C20 H31 N1 O3
;
_journal_coden_Cambridge 444
_journal_volume 73
_journal_year 2003
_journal_page_first 1330
_journal_name_full 'Zh.Obshch.Khim.(Russ.)(Russ.J.Gen.Chem.) '
loop_
_publ_author_name
"V.A.Al'fonsov"
"O.V.Andreeva"
"G.A.Bakaleinik"
"D.V.Beskrovnyi"
"A.T.Gubaidullin"
"V.E.Kataev"
"G.I.Kovylyaeva"
"A.I.Konovalov"
"M.G.Korochkina"
"I.A.Litvinov"
"O.I.Militsina"
"I.Yu.Strobykina"
_chemical_name_systematic
;
16-Hydroximino-13-methyl-17-norkauran-18-carboxylic acid
;
_chemical_melting_point 520.15
_cell_volume   1888.063
_exptl_crystal_colour 'colorless'
_exptl_crystal_density_diffrn 1.173
_exptl_special_details
;
Absolute configuration

;
_exptl_crystal_description 'prism'
_exptl_crystal_preparation 'water/methanol'
_diffrn_ambient_temperature 295
#These two values have been output from a single CSD field.
_refine_ls_R_factor_gt 0.031
_refine_ls_wR_factor_gt 0.031
_symmetry_cell_setting orthorhombic
_symmetry_space_group_name_H-M 'P 21 21 21'
_symmetry_Int_Tables_number 19
loop_
_symmetry_equiv_pos_site_id
_symmetry_equiv_pos_as_xyz
1 x,y,z
2 1/2-x,-y,1/2+z
3 1/2+x,1/2-y,-z
4 -x,1/2+y,1/2-z
_cell_length_a 8.453(2)
_cell_length_b 14.795(4)
_cell_length_c 15.097(5)
_cell_angle_alpha 90
_cell_angle_beta 90
_cell_angle_gamma 90
_cell_formula_units_Z 4
loop_
_atom_type_symbol
_atom_type_radius_bond
C 0.68
H 0.23
N 0.68
O 0.68
loop_
_atom_site_label
_atom_site_type_symbol
_atom_site_fract_x
_atom_site_fract_y
_atom_site_fract_z
O1 O -0.1598(1) 0.00160(5) 0.54154(5)
O2 O -0.2013(1) 0.12451(5) 0.45926(4)
O3 O 0.4986(1) -0.04509(6) 0.83793(5)
N1 N 0.4672(1) 0.02620(7) 0.89794(5)
C1 C -0.0659(2) 0.27868(6) 0.67275(7)
C2 C -0.1687(2) 0.28709(7) 0.58993(6)
C3 C -0.3162(1) 0.22863(8) 0.59622(6)
C4 C -0.2805(1) 0.12846(7) 0.61341(6)
C5 C -0.1749(1) 0.12191(6) 0.69850(5)
C6 C -0.1426(1) 0.02631(6) 0.73414(6)
C7 C -0.0900(1) 0.03404(7) 0.83007(6)
C8 C 0.0618(1) 0.08881(6) 0.84121(6)
C9 C 0.0503(1) 0.18133(6) 0.79232(6)
C10 C -0.0209(1) 0.17999(6) 0.69654(6)
C11 C 0.2109(2) 0.23063(7) 0.79973(8)
C12 C 0.2786(2) 0.23014(8) 0.89406(8)
C13 C 0.2673(2) 0.13769(8) 0.94159(7)
C14 C 0.0939(1) 0.10847(8) 0.93959(6)
C15 C 0.2127(1) 0.03535(6) 0.81531(6)
C16 C 0.3346(1) 0.06395(7) 0.88276(6)
C17 C 0.3385(2) 0.1417(1) 1.03408(8)
C18 C -0.2085(1) 0.08627(7) 0.53070(6)
C19 C -0.4391(1) 0.0783(1) 0.62872(7)
C20 C 0.0972(1) 0.14537(7) 0.62677(6)
H1 H -0.105(3) -0.017(1) 0.481(1)
H2 H -0.243(1) 0.1542(7) 0.7459(6)
H3 H -0.023(1) 0.2109(7) 0.8246(7)
H4 H 0.031(2) 0.3167(9) 0.6619(7)
H5 H -0.126(2) 0.3036(8) 0.7237(6)
H6 H 0.570(2) -0.0735(9) 0.8686(7)
H7 H -0.122(2) 0.270(1) 0.5333(9)
H8 H -0.213(2) 0.346(1) 0.5839(8)
H9 H -0.384(2) 0.2303(8) 0.5425(7)
H10 H -0.386(2) 0.2469(8) 0.6473(6)
H11 H -0.064(2) -0.0048(8) 0.6939(7)
H12 H -0.238(1) -0.0103(8) 0.7326(6)
H13 H -0.176(2) 0.0630(8) 0.8664(6)
H14 H -0.072(2) -0.0263(8) 0.8579(6)
H15 H 0.199(2) 0.2961(9) 0.7775(8)
H16 H 0.290(2) 0.1948(9) 0.7559(8)
H17 H 0.216(2) 0.2749(9) 0.9314(8)
H18 H 0.394(2) 0.246(1) 0.8912(7)
H19 H 0.027(2) 0.1559(9) 0.9660(8)
H20 H 0.079(2) 0.0483(8) 0.9809(7)
H21 H 0.253(1) 0.0427(7) 0.7519(7)
H22 H 0.191(2) -0.0298(8) 0.8206(7)
H23 H 0.455(2) 0.160(1) 1.035(1)
H24 H 0.330(2) 0.076(1) 1.0653(8)
H25 H 0.279(2) 0.183(1) 1.0718(8)
H26 H -0.514(2) 0.093(1) 0.5794(8)
H27 H -0.481(2) 0.101(1) 0.6827(9)
H28 H -0.423(2) 0.0082(9) 0.6349(6)
H29 H 0.194(2) 0.175(1) 0.6270(6)
H30 H 0.125(2) 0.0804(9) 0.6362(7)
H31 H 0.062(1) 0.1525(8) 0.5593(7)
#END
