
#######################################################################
#
#                 Cambridge Crystallographic Data Centre
#                                CCDC
#
#######################################################################
#
# If this CIF has been generated from an entry in the Cambridge
# Structural Database, then it will include bibliographic, chemical,
# crystal, experimental, refinement or atomic coordinate data resulting
# from the CCDC's data processing and validation procedures.
#
#######################################################################

data_CSD_CIF_EVOWET
_audit_creation_date 2016-09-29
_audit_creation_method CSD-ConQuest-V1
_database_code_CSD EVOWET
_database_code_depnum_ccdc_archive 'CCDC 1469904'
_chemical_formula_sum 'C14 H24 N1 O4'
_chemical_formula_moiety
;
C14 H24 N1 O4
;
_journal_coden_Cambridge 580
_journal_volume 119
_journal_year 2016
_journal_page_first 293
_journal_name_full 'Polyhedron '
loop_
_publ_author_name
"A.V.Artemev"
"O.V.Vysotskaya"
"L.A.Oparina"
"A.S.Bogomyakov"
"S.S.Khutsishvili"
"I.V.Sterkhova"
"V.I.Ovcharenko"
"B.A.Trofimov"
_chemical_name_systematic
;
ethyl 3-((1-hydroxy-2,2,6,6-tetramethylpiperidin-4-yl)oxy)acrylate
;
_cell_volume   1504.878
_exptl_crystal_colour 'bronze'
_exptl_crystal_density_diffrn 1.193
_exptl_crystal_description 'Prism'
_diffrn_ambient_temperature 100
#These two values have been output from a single CSD field.
_refine_ls_R_factor_gt 0.0396
_refine_ls_wR_factor_gt 0.0396
_symmetry_cell_setting monoclinic
_symmetry_space_group_name_H-M 'P 21/c'
_symmetry_Int_Tables_number 14
loop_
_symmetry_equiv_pos_site_id
_symmetry_equiv_pos_as_xyz
1 x,y,z
2 -x,1/2+y,1/2-z
3 -x,-y,-z
4 x,-1/2-y,-1/2+z
_cell_length_a 11.4629(8)
_cell_length_b 7.6884(5)
_cell_length_c 17.1044(11)
_cell_angle_alpha 90
_cell_angle_beta 93.337(2)
_cell_angle_gamma 90
_cell_formula_units_Z 4
loop_
_atom_type_symbol
_atom_type_radius_bond
C 0.68
H 0.23
N 0.68
O 0.68
loop_
_atom_site_label
_atom_site_type_symbol
_atom_site_fract_x
_atom_site_fract_y
_atom_site_fract_z
O1 O -0.01395(6) 0.79343(9) 0.11187(4)
O2 O 0.37663(6) 0.40095(9) 0.07435(4)
O3 O 0.62262(6) -0.07636(9) 0.09516(4)
O4 O 0.57811(8) 0.04242(12) 0.21004(4)
N1 N 0.07881(6) 0.70161(10) 0.10531(4)
C1 C 0.07679(8) 0.52329(11) 0.14077(5)
C2 C 0.17651(8) 0.41466(11) 0.11009(5)
H1 H 0.18580 0.30750 0.14200
H2 H 0.15500 0.37930 0.05550
C3 C 0.29274(8) 0.50970(11) 0.11201(5)
H3 H 0.32070 0.53640 0.16720
C4 C 0.43706(8) 0.28712(12) 0.12053(5)
H4 H 0.43500 0.29610 0.17580
C5 C 0.50008(8) 0.16138(12) 0.08932(5)
H5 H 0.50000 0.15010 0.03400
C6 C 0.56901(8) 0.04134(12) 0.13923(5)
C7 C 0.69333(8) -0.20974(13) 0.13502(6)
H6 H 0.71920 -0.16900 0.18810
H7 H 0.76370 -0.23260 0.10570
C8 C 0.62354(9) -0.37451(14) 0.14097(6)
H8 H 0.55730 -0.35370 0.17350
H9 H 0.67340 -0.46610 0.16480
H10 H 0.59450 -0.41110 0.08850
C9 C 0.08514(9) 0.53872(13) 0.23040(5)
H11 H 0.16310 0.58050 0.24790
H12 H 0.07160 0.42450 0.25360
H13 H 0.02610 0.62100 0.24690
C10 C 0.18933(8) 0.80010(11) 0.09358(5)
C11 C 0.28124(8) 0.67505(12) 0.06397(5)
H14 H 0.25970 0.64440 0.00880
H15 H 0.35790 0.73480 0.06540
C12 C 0.16158(9) 0.94020(12) 0.03161(6)
H16 H 0.12900 0.88540 -0.01660
H17 H 0.23340 1.00250 0.02070
H18 H 0.10460 1.02230 0.05110
C13 C 0.23231(9) 0.88802(12) 0.17082(6)
H19 H 0.16760 0.95170 0.19250
H20 H 0.29570 0.96910 0.16080
H21 H 0.26100 0.79920 0.20830
C14 C -0.03983(9) 0.43855(13) 0.11442(6)
H22 H -0.10400 0.50370 0.13600
H23 H -0.04100 0.31820 0.13330
H24 H -0.04910 0.43950 0.05710
#END
