
#######################################################################
#
#                 Cambridge Crystallographic Data Centre
#                                CCDC
#
#######################################################################
#
# If this CIF has been generated from an entry in the Cambridge
# Structural Database, then it will include bibliographic, chemical,
# crystal, experimental, refinement or atomic coordinate data resulting
# from the CCDC's data processing and validation procedures.
#
#######################################################################

data_CSD_CIF_EVUZOM
_audit_creation_date 2016-09-29
_audit_creation_method CSD-ConQuest-V1
_database_code_CSD EVUZOM
_database_code_depnum_ccdc_archive 'CCDC 1507400'
_chemical_formula_sum 'C24 H17 N1 O6'
_chemical_formula_moiety
;
C24 H17 N1 O6
;
_journal_coden_Cambridge 4
_journal_volume 138
_journal_year 2016
_journal_page_first 12045
_journal_name_full 'J.Am.Chem.Soc. '
loop_
_publ_author_name
"Chong Liu"
"Chenjie Zeng"
"Tian-Yi Luo"
"A.D.Merg"
"Rongchao Jin"
"N.L.Rosi"
_chemical_name_systematic
;
methyl 4'-((4-(methoxycarbonyl)phenyl)ethynyl)-3'-nitrobiphenyl-4-carboxylate
;
_cell_volume   2004.969
_exptl_crystal_colour 'yellow'
_exptl_crystal_density_diffrn 1.376
_exptl_crystal_description 'plate'
_diffrn_ambient_temperature 240
#These two values have been output from a single CSD field.
_refine_ls_R_factor_gt 0.094
_refine_ls_wR_factor_gt 0.094
_symmetry_cell_setting monoclinic
_symmetry_space_group_name_H-M 'P 21/c'
_symmetry_Int_Tables_number 14
loop_
_symmetry_equiv_pos_site_id
_symmetry_equiv_pos_as_xyz
1 x,y,z
2 -x,1/2+y,1/2-z
3 -x,-y,-z
4 x,-1/2-y,-1/2+z
_cell_length_a 7.4170(4)
_cell_length_b 10.5890(6)
_cell_length_c 25.5745(16)
_cell_angle_alpha 90
_cell_angle_beta 93.439(5)
_cell_angle_gamma 90
_cell_formula_units_Z 4
loop_
_atom_type_symbol
_atom_type_radius_bond
C 0.68
H 0.23
N 0.68
O 0.68
loop_
_atom_site_label
_atom_site_type_symbol
_atom_site_fract_x
_atom_site_fract_y
_atom_site_fract_z
O1 O 0.0534(5) 0.4073(4) 0.16447(15)
O2 O 0.3794(5) 0.4051(4) 0.87041(15)
O3 O 0.4879(6) 0.5999(5) 0.86961(16)
O4 O 0.1521(6) 0.6067(5) 0.16251(17)
C1 C 0.3382(5) 0.5028(5) 0.67996(19)
C2 C 0.3924(5) 0.5051(5) 0.7891(2)
C3 C 0.1747(6) 0.4964(5) 0.3539(2)
C4 C 0.1312(5) 0.5038(5) 0.2448(2)
C5 C 0.3102(6) 0.5018(5) 0.6233(2)
C6 C 0.4154(6) 0.6074(5) 0.7064(2)
H1 H 0.44850 0.67860 0.68720
N1 N 0.1894(8) 0.7294(6) 0.5154(2)
C7 C 0.2893(6) 0.3994(5) 0.7102(2)
H2 H 0.23720 0.32810 0.69350
C8 C 0.2555(6) 0.5013(6) 0.5126(2)
C9 C 0.0814(6) 0.3969(5) 0.2720(2)
H3 H 0.03120 0.32740 0.25340
C10 C 0.4429(6) 0.6068(5) 0.7594(2)
H4 H 0.49740 0.67720 0.77630
C11 C 0.3154(6) 0.3999(5) 0.7632(2)
H5 H 0.28160 0.32930 0.78260
C12 C 0.1047(6) 0.3913(5) 0.3258(2)
H6 H 0.07400 0.31760 0.34370
C13 C 0.2197(6) 0.6050(5) 0.3260(2)
H7 H 0.26490 0.67640 0.34420
C14 C 0.1985(6) 0.6076(5) 0.2732(2)
H8 H 0.22990 0.68110 0.25520
C15 C 0.1142(7) 0.5143(7) 0.1871(3)
C16 C 0.4250(7) 0.5112(7) 0.8461(2)
C17 C 0.2005(6) 0.4939(5) 0.4097(2)
C18 C 0.2644(7) 0.6118(6) 0.5957(2)
H9 H 0.25070 0.68780 0.61410
C19 C 0.2386(7) 0.6108(6) 0.5414(2)
O5 O 0.2748(8) 0.7622(6) 0.4787(2)
O6 O 0.0683(9) 0.7902(6) 0.5321(3)
C20 C 0.2272(7) 0.4981(7) 0.4559(3)
C21 C 0.3261(7) 0.3934(6) 0.5937(3)
H10 H 0.35640 0.31740 0.61110
C22 C 0.2994(7) 0.3920(6) 0.5400(3)
H11 H 0.31130 0.31570 0.52180
C23 C 0.0387(9) 0.4080(8) 0.1076(3)
H12 H -0.00550 0.32670 0.09500
H13 H 0.15640 0.42410 0.09450
H14 H -0.04480 0.47370 0.09550
C24 C 0.4115(11) 0.4034(8) 0.9266(3)
H15 H 0.37440 0.32250 0.94010
H16 H 0.34260 0.47030 0.94190
H17 H 0.53920 0.41620 0.93550
#END
