
#######################################################################
#
#                 Cambridge Crystallographic Data Centre
#                                CCDC
#
#######################################################################
#
# If this CIF has been generated from an entry in the Cambridge
# Structural Database, then it will include bibliographic, chemical,
# crystal, experimental, refinement or atomic coordinate data resulting
# from the CCDC's data processing and validation procedures.
#
#######################################################################

data_CSD_CIF_EWEFOC
_audit_creation_date 2011-09-23
_audit_creation_method CSD-ConQuest-V1
_database_code_CSD EWEFOC
_database_code_depnum_ccdc_archive 'CCDC 805894'
_chemical_formula_sum 'C21 H21 N1 O4'
_chemical_formula_moiety
;
C21 H21 N1 O4
;
_journal_coden_Cambridge 1336
_journal_volume 13
_journal_year 2011
_journal_page_first 1920
_journal_name_full 'Org.Lett. '
loop_
_publ_author_name
"Xiaobing Zhang"
"Chunling Fu"
"Shengming Ma"
_chemical_name_systematic
;
3-Benzylidenehept-1-en-2-yl 4-nitrobenzoate
;
_cell_volume   1862.037
_exptl_crystal_colour 'colorless'
_exptl_crystal_density_diffrn 1.253
_exptl_crystal_description 'block'
_diffrn_ambient_temperature 173
#These two values have been output from a single CSD field.
_refine_ls_R_factor_gt 0.0608
_refine_ls_wR_factor_gt 0.0608
_symmetry_cell_setting monoclinic
_symmetry_space_group_name_H-M 'P 21/c'
_symmetry_Int_Tables_number 14
loop_
_symmetry_equiv_pos_site_id
_symmetry_equiv_pos_as_xyz
1 x,y,z
2 -x,1/2+y,1/2-z
3 -x,-y,-z
4 x,-1/2-y,-1/2+z
_cell_length_a 7.7254(7)
_cell_length_b 8.2025(7)
_cell_length_c 29.583(3)
_cell_angle_alpha 90
_cell_angle_beta 96.638(3)
_cell_angle_gamma 90
_cell_formula_units_Z 4
loop_
_atom_type_symbol
_atom_type_radius_bond
C 0.68
H 0.23
N 0.68
O 0.68
loop_
_atom_site_label
_atom_site_type_symbol
_atom_site_fract_x
_atom_site_fract_y
_atom_site_fract_z
N1 N 0.5836(3) 0.4527(3) -0.07885(8)
O1 O -0.0583(3) 0.2003(3) 0.02270(7)
O2 O 0.1737(2) 0.1243(2) 0.07100(6)
O3 O 0.5282(3) 0.5413(3) -0.11023(9)
O4 O 0.7379(3) 0.4224(3) -0.06943(8)
C1 C 0.4000(3) 0.2090(3) 0.01003(9)
H1 H 0.43780 0.13240 0.03320
C2 C 0.5180(3) 0.2708(3) -0.01738(9)
H2 H 0.63650 0.23710 -0.01360
C3 C 0.4582(3) 0.3830(3) -0.05043(9)
C4 C 0.2875(4) 0.4343(3) -0.05703(9)
H3 H 0.25030 0.51150 -0.08010
C5 C 0.1718(4) 0.3712(3) -0.02952(9)
H4 H 0.05350 0.40510 -0.03350
C6 C 0.2274(3) 0.2582(3) 0.00403(9)
C7 C 0.0967(4) 0.1925(3) 0.03255(9)
C8 C 0.0624(4) 0.0496(3) 0.09986(9)
C9 C 0.0502(4) -0.1113(4) 0.09658(12)
H5 H 0.111(4) -0.168(4) 0.0737(12)
H6 H -0.016(4) -0.169(4) 0.1178(11)
C10 C -0.0167(3) 0.1563(3) 0.13152(9)
C11 C 0.0443(4) 0.3102(3) 0.13761(9)
H7 H 0.13320 0.34060 0.11960
C12 C -0.0088(4) 0.4368(3) 0.16842(9)
C13 C 0.1210(5) 0.5485(4) 0.18591(11)
H8 H 0.23530 0.54120 0.17720
C14 C 0.0807(7) 0.6692(4) 0.21585(12)
H9 H 0.16910 0.74290 0.22790
C15 C -0.0831(7) 0.6841(5) 0.22833(12)
H10 H -0.10770 0.76630 0.24930
C16 C -0.2127(6) 0.5794(4) 0.21034(11)
H11 H -0.32770 0.59110 0.21830
C17 C -0.1753(5) 0.4569(4) 0.18062(10)
H12 H -0.26560 0.38540 0.16840
C18 C -0.1566(4) 0.0789(3) 0.15544(9)
H13 H -0.17910 0.14800 0.18160
H14 H -0.11520 -0.02860 0.16750
C19 C -0.3268(4) 0.0557(4) 0.12409(11)
H15 H -0.37900 0.16410 0.11670
H16 H -0.29990 0.00550 0.09530
C20 C -0.4591(5) -0.0493(5) 0.14429(13)
H17 H -0.55990 -0.06720 0.12100
H18 H -0.40610 -0.15700 0.15230
C21 C -0.5233(6) 0.0230(8) 0.18600(17)
H19 H -0.60810 -0.05090 0.19730
H20 H -0.57890 0.12830 0.17830
H21 H -0.42470 0.03880 0.20960
#END
