
#######################################################################
#
#                 Cambridge Crystallographic Data Centre
#                                CCDC
#
#######################################################################
#
# If this CIF has been generated from an entry in the Cambridge
# Structural Database, then it will include bibliographic, chemical,
# crystal, experimental, refinement or atomic coordinate data resulting
# from the CCDC's data processing and validation procedures.
#
#######################################################################

data_CSD_CIF_EWEVIM01
_audit_creation_date 2016-01-04
_audit_creation_method CSD-ConQuest-V1
_database_code_CSD EWEVIM01
_database_code_depnum_ccdc_archive 'CCDC 1028037'
_chemical_formula_sum 'C7 H6 N2 O4'
_chemical_formula_moiety
;
C7 H6 N2 O4
;
_journal_coden_Cambridge 1003
_journal_volume 46
_journal_year 2016
_journal_page_first 34
_journal_name_full 'J.Chem.Cryst. '
loop_
_publ_author_name
"S.M.S.V.Wardell"
"J.L.Wardell"
_chemical_name_systematic
;
2-amino-4-nitrobenzoic acid
;
_cell_volume    738.605
_exptl_crystal_colour 'orange'
_exptl_crystal_density_diffrn 1.638
_exptl_special_details
;
monoclinic B polymorph

;
_exptl_crystal_description 'Slab'
_diffrn_ambient_temperature 100
#These two values have been output from a single CSD field.
_refine_ls_R_factor_gt 0.0941
_refine_ls_wR_factor_gt 0.0941
_symmetry_cell_setting monoclinic
_symmetry_space_group_name_H-M 'P 21/c'
_symmetry_Int_Tables_number 14
loop_
_symmetry_equiv_pos_site_id
_symmetry_equiv_pos_as_xyz
1 x,y,z
2 -x,1/2+y,1/2-z
3 -x,-y,-z
4 x,-1/2-y,-1/2+z
_cell_length_a 4.039(4)
_cell_length_b 27.23(2)
_cell_length_c 7.284(7)
_cell_angle_alpha 90
_cell_angle_beta 112.783(15)
_cell_angle_gamma 90
_cell_formula_units_Z 4
loop_
_atom_type_symbol
_atom_type_radius_bond
C 0.68
H 0.23
N 0.68
O 0.68
loop_
_atom_site_label
_atom_site_type_symbol
_atom_site_fract_x
_atom_site_fract_y
_atom_site_fract_z
O1 O 1.0893(6) 0.00439(6) 0.2772(3)
H1 H 1.26330 -0.01450 0.34680
O2 O 1.4962(6) 0.05873(7) 0.4698(3)
O3 O 0.5386(7) 0.23677(7) -0.1713(3)
O4 O 0.0904(6) 0.18326(8) -0.3153(3)
N1 N 1.3947(7) 0.15426(8) 0.3848(3)
H2 H 1.46600 0.18550 0.38700
H3 H 1.53130 0.13320 0.47000
N2 N 0.4001(7) 0.19490(8) -0.1921(3)
C1 C 1.0166(8) 0.08749(9) 0.1911(4)
C2 C 1.1148(9) 0.13804(9) 0.2308(4)
C3 C 0.9028(8) 0.17288(9) 0.0969(4)
H4 H 0.95820 0.20690 0.11630
C4 C 0.6187(8) 0.15712(9) -0.0600(4)
C5 C 0.5223(8) 0.10785(9) -0.1048(4)
H5 H 0.32290 0.09870 -0.22140
C6 C 0.7253(9) 0.07389(10) 0.0252(4)
H6 H 0.66560 0.04010 0.00130
C7 C 1.2233(8) 0.04991(9) 0.3259(4)
#END
