
#######################################################################
#
#                 Cambridge Crystallographic Data Centre
#                                CCDC
#
#######################################################################
#
# If this CIF has been generated from an entry in the Cambridge
# Structural Database, then it will include bibliographic, chemical,
# crystal, experimental, refinement or atomic coordinate data resulting
# from the CCDC's data processing and validation procedures.
#
#######################################################################

data_CSD_CIF_EWEVIM02
_audit_creation_date 2016-01-04
_audit_creation_method CSD-ConQuest-V1
_database_code_CSD EWEVIM02
_database_code_depnum_ccdc_archive 'CCDC 1028039'
_chemical_formula_sum 'C7 H6 N2 O4'
_chemical_formula_moiety
;
C7 H6 N2 O4
;
_journal_coden_Cambridge 1003
_journal_volume 46
_journal_year 2016
_journal_page_first 34
_journal_name_full 'J.Chem.Cryst. '
loop_
_publ_author_name
"S.M.S.V.Wardell"
"J.L.Wardell"
_chemical_name_systematic
;
2-amino-4-nitrobenzoic acid
;
_cell_volume   2283.053
_exptl_crystal_colour 'orange'
_exptl_crystal_density_diffrn 1.59
_exptl_special_details
;
monoclinic C polymorph

;
_exptl_crystal_description 'Block'
_diffrn_ambient_temperature 240
#These two values have been output from a single CSD field.
_refine_ls_R_factor_gt 0.0425
_refine_ls_wR_factor_gt 0.0425
_symmetry_cell_setting monoclinic
_symmetry_space_group_name_H-M 'P 21/c'
_symmetry_Int_Tables_number 14
loop_
_symmetry_equiv_pos_site_id
_symmetry_equiv_pos_as_xyz
1 x,y,z
2 -x,1/2+y,1/2-z
3 -x,-y,-z
4 x,-1/2-y,-1/2+z
_cell_length_a 3.7105(1)
_cell_length_b 25.3092(8)
_cell_length_c 24.3555(17)
_cell_angle_alpha 90
_cell_angle_beta 93.459(7)
_cell_angle_gamma 90
_cell_formula_units_Z 12
loop_
_atom_type_symbol
_atom_type_radius_bond
C 0.68
H 0.23
N 0.68
O 0.68
loop_
_atom_site_label
_atom_site_type_symbol
_atom_site_fract_x
_atom_site_fract_y
_atom_site_fract_z
O1 O 0.4391(3) 0.26307(4) 0.01156(4)
H1 H 0.352(5) 0.2896(4) -0.0068(6)
O2 O 0.6316(3) 0.32875(4) 0.06680(4)
C1 C 1.0399(4) 0.21176(6) 0.18183(5)
H2 H 1.15230 0.21910 0.21660
O3 O 1.3284(4) 0.13114(5) 0.24225(5)
C2 C 0.7422(4) 0.23983(6) 0.09546(5)
C3 C 0.7119(4) 0.18675(6) 0.07992(6)
H3 H 0.60080 0.17840 0.04530
N1 N 0.9512(4) 0.30313(5) 0.16581(6)
H4 H 1.079(5) 0.3085(7) 0.1974(6)
H5 H 0.866(5) 0.3294(6) 0.1436(7)
C4 C 0.6020(4) 0.28117(6) 0.05738(5)
C5 C 0.9102(4) 0.25343(5) 0.14760(5)
N2 N 1.1454(4) 0.11885(5) 0.20133(5)
C6 C 1.0015(4) 0.16084(6) 0.16414(6)
C7 C 0.8389(4) 0.14644(6) 0.11345(6)
H6 H 0.81690 0.11090 0.10270
O4 O 1.0704(6) 0.07346(5) 0.18993(6)
O5 O 0.1573(3) 0.15977(4) 0.45032(4)
O6 O 0.3868(3) 0.09354(4) 0.50180(4)
H7 H 0.453(5) 0.1200(4) 0.5220(6)
O7 O -0.4897(4) -0.03400(5) 0.26712(5)
C8 C -0.2273(4) 0.04544(6) 0.33117(5)
H8 H -0.34890 0.05360 0.29720
C9 C 0.1329(4) 0.01801(6) 0.43024(6)
H9 H 0.25520 0.00890 0.46380
N3 N -0.1762(4) 0.13646(5) 0.35231(6)
H10 H -0.317(5) 0.1408(7) 0.3233(6)
H11 H -0.109(5) 0.1621(6) 0.3751(7)
N4 N -0.3031(4) -0.04711(5) 0.30730(5)
C10 C 0.0774(4) 0.07155(6) 0.41777(5)
C11 C -0.1650(4) -0.00593(6) 0.34587(5)
C12 C 0.0150(4) -0.02151(6) 0.39507(6)
H12 H 0.05360 -0.05730 0.40370
C13 C 0.2084(4) 0.11210(6) 0.45739(5)
C14 C -0.1079(4) 0.08625(6) 0.36728(5)
O8 O -0.2304(6) -0.09244(5) 0.31746(7)
O9 O 0.2900(3) 0.49212(4) 0.44052(4)
O10 O 0.3566(3) 0.43022(4) 0.50540(4)
H13 H 0.462(5) 0.4564(4) 0.5221(6)
O11 O -0.5518(4) 0.29646(5) 0.27714(5)
N5 N -0.4402(4) 0.28566(5) 0.32343(6)
C15 C -0.1351(4) 0.31450(6) 0.41081(6)
H14 H -0.15960 0.28030 0.42510
N6 N -0.0379(4) 0.46509(5) 0.34298(6)
H15 H -0.132(5) 0.4701(7) 0.3106(6)
H16 H 0.059(5) 0.4909(6) 0.3640(7)
C16 C 0.2447(4) 0.44643(6) 0.45566(5)
C17 C 0.0274(4) 0.35446(6) 0.44159(6)
H17 H 0.11550 0.34720 0.47780
C18 C 0.0660(4) 0.40555(5) 0.42086(5)
C19 C -0.2609(4) 0.32728(6) 0.35769(6)
C20 C -0.0660(4) 0.41738(6) 0.36618(5)
C21 C -0.2330(4) 0.37611(6) 0.33498(6)
H18 H -0.32430 0.38240 0.29870
O12 O -0.4835(5) 0.24253(5) 0.34401(7)
#END
