
#######################################################################
#
#                 Cambridge Crystallographic Data Centre
#                                CCDC
#
#######################################################################
#
# If this CIF has been generated from an entry in the Cambridge
# Structural Database, then it will include bibliographic, chemical,
# crystal, experimental, refinement or atomic coordinate data resulting
# from the CCDC's data processing and validation procedures.
#
#######################################################################

data_CSD_CIF_EWIFIZ
_audit_creation_date 2004-08-12
_audit_creation_method CSD-ConQuest-V1
_database_code_CSD EWIFIZ
_database_code_depnum_ccdc_archive 'CCDC 227999'
_chemical_formula_sum 'C19 H27 N5 O2'
_chemical_formula_moiety
;
C19 H27 N5 O2
;
_journal_coden_Cambridge 24
_journal_volume 45
_journal_year 2004
_journal_page_first 3059
_journal_name_full 'Tetrahedron Lett. '
loop_
_publ_author_name
"E.A.Lewis"
"C.C.Allan"
"R.W.Boyle"
"S.J.Archibald"
_chemical_name_systematic
;
cis-2-(4-Nitrobenzyl)-decahydro-3a,5a,8a,10a-tetraazapyrene
;
_cell_volume   1834.186
_exptl_crystal_colour 'yellow'
_exptl_crystal_density_diffrn 1.294
_exptl_crystal_description 'block'
_diffrn_ambient_temperature 150
#These two values have been output from a single CSD field.
_refine_ls_R_factor_gt 0.0924
_refine_ls_wR_factor_gt 0.0924
_symmetry_cell_setting monoclinic
_symmetry_space_group_name_H-M 'P 21/c'
_symmetry_Int_Tables_number 14
loop_
_symmetry_equiv_pos_site_id
_symmetry_equiv_pos_as_xyz
1 x,y,z
2 x,1/2-y,1/2+z
3 -x,-y,-z
4 -x,-1/2+y,-1/2-z
_cell_length_a 14.635(9)
_cell_length_b 8.517(6)
_cell_length_c 20.052(13)
_cell_angle_alpha 90
_cell_angle_beta 132.79(4)
_cell_angle_gamma 90
_cell_formula_units_Z 4
loop_
_atom_type_symbol
_atom_type_radius_bond
C 0.68
H 0.23
N 0.68
O 0.68
loop_
_atom_site_label
_atom_site_type_symbol
_atom_site_fract_x
_atom_site_fract_y
_atom_site_fract_z
C1 C 0.2363(7) -0.0358(8) 0.3926(5)
H1 H 0.19200 -0.07870 0.40870
H2 H 0.28480 -0.11990 0.39700
C2 C 0.1399(6) 0.0237(8) 0.2927(5)
H3 H 0.07450 -0.05610 0.25670
C3 C 0.0794(6) 0.1733(8) 0.2912(4)
H4 H 0.03450 0.22470 0.23310
H5 H 0.01850 0.14170 0.29410
C4 C 0.2329(5) 0.3885(7) 0.3514(5)
H6 H 0.17620 0.43710 0.29180
H7 H 0.29150 0.32420 0.35580
C5 C 0.3004(6) 0.5109(7) 0.4230(5)
H8 H 0.34630 0.57690 0.41490
H9 H 0.24050 0.57670 0.41630
C6 C 0.4469(5) 0.5651(8) 0.5831(5)
H10 H 0.38370 0.62620 0.57460
H11 H 0.49120 0.63500 0.57520
C7 C 0.5377(6) 0.5004(8) 0.6793(5)
H12 H 0.56820 0.58540 0.72220
H13 H 0.60840 0.45380 0.69160
C8 C 0.4742(5) 0.3757(8) 0.6919(5)
H14 H 0.53660 0.32240 0.74950
H15 H 0.41620 0.42670 0.69330
C9 C 0.4876(6) 0.1470(7) 0.6221(4)
H16 H 0.54510 0.09880 0.68180
H17 H 0.53590 0.20140 0.61230
C10 C 0.4101(6) 0.0239(8) 0.5517(4)
H18 H 0.46420 -0.05130 0.55650
H19 H 0.36370 -0.03160 0.56290
C11 C 0.2447(5) 0.2152(7) 0.4528(4)
H20 H 0.19100 0.16370 0.45910
C12 C 0.3227(5) 0.3369(6) 0.5290(4)
H21 H 0.26490 0.40060 0.52670
C13 C 0.1997(6) 0.0369(8) 0.2564(5)
H22 H 0.22360 -0.06750 0.25370
H23 H 0.27540 0.09790 0.29890
C14 C 0.1211(5) 0.1114(7) 0.1632(4)
C15 C 0.1708(6) 0.2186(8) 0.1417(5)
H24 H 0.25450 0.24530 0.18700
C16 C 0.1030(6) 0.2857(8) 0.0579(5)
H25 H 0.13880 0.35400 0.04490
C17 C -0.0218(6) 0.2464(7) -0.0063(4)
C18 C -0.0763(6) 0.1457(7) 0.0101(5)
H26 H -0.16110 0.12450 -0.03500
C19 C -0.0055(6) 0.0751(8) 0.0936(5)
H27 H -0.04190 0.00250 0.10420
N1 N 0.3222(5) 0.0891(6) 0.4589(4)
N2 N 0.1636(4) 0.2916(6) 0.3642(4)
N3 N 0.3873(4) 0.4443(6) 0.5150(4)
N4 N 0.4073(4) 0.2606(6) 0.6178(3)
N5 N -0.0968(7) 0.3159(7) -0.0958(5)
O1 O -0.2093(6) 0.2910(7) -0.1531(4)
O2 O -0.0462(5) 0.3993(7) -0.1129(4)
#END
