
#######################################################################
#
#                 Cambridge Crystallographic Data Centre
#                                CCDC
#
#######################################################################
#
# If this CIF has been generated from an entry in the Cambridge
# Structural Database, then it will include bibliographic, chemical,
# crystal, experimental, refinement or atomic coordinate data resulting
# from the CCDC's data processing and validation procedures.
#
#######################################################################

data_CSD_CIF_EWIHAV
_audit_creation_date 2016-10-01
_audit_creation_method CSD-ConQuest-V1
_database_code_CSD EWIHAV
_database_code_depnum_ccdc_archive 'CCDC 1506353'
_chemical_formula_sum 'C12 H22 N2 O2'
_chemical_formula_moiety
;
C12 H22 N2 O2
;
_journal_coeditor_code "hb4079"
_journal_coden_Cambridge 1959
_journal_volume 1
_journal_year 2016
_journal_page_first x161513
_journal_name_full 'IUCrData '
loop_
_publ_author_name
"K.Gajda"
"B.Dziuk"
"Z.Daszkiewicz"
"B.Zarychta"
_chemical_name_systematic
;
N-cyclohexyl-N-nitrocyclohexanamine
;
_cell_volume   1234.137
_exptl_crystal_colour 'colorless'
_exptl_crystal_density_diffrn 1.218
_exptl_crystal_description 'plate'
_diffrn_ambient_temperature 100
#These two values have been output from a single CSD field.
_refine_ls_R_factor_gt 0.034
_refine_ls_wR_factor_gt 0.034
_symmetry_cell_setting monoclinic
_symmetry_space_group_name_H-M 'P 21/n'
_symmetry_Int_Tables_number 14
loop_
_symmetry_equiv_pos_site_id
_symmetry_equiv_pos_as_xyz
1 x,y,z
2 1/2-x,1/2+y,1/2-z
3 -x,-y,-z
4 -1/2+x,-1/2-y,-1/2+z
_cell_length_a 5.9136(1)
_cell_length_b 19.1658(4)
_cell_length_c 10.8946(2)
_cell_angle_alpha 90
_cell_angle_beta 91.852(2)
_cell_angle_gamma 90
_cell_formula_units_Z 4
loop_
_atom_type_symbol
_atom_type_radius_bond
C 0.68
H 0.23
N 0.68
O 0.68
loop_
_atom_site_label
_atom_site_type_symbol
_atom_site_fract_x
_atom_site_fract_y
_atom_site_fract_z
O1 O 0.72029(16) 0.12483(4) 0.64176(8)
O2 O 0.64140(15) 0.23560(5) 0.64377(8)
N1 N 0.83491(16) 0.19259(5) 0.49004(9)
N2 N 0.72928(17) 0.18401(5) 0.59711(9)
C1 C 0.94810(19) 0.13124(6) 0.43775(10)
H1 H 0.88950 0.09010 0.47950
C2 C 0.8906(2) 0.12227(6) 0.30137(11)
H2 H 0.95190 0.16090 0.25560
H3 H 0.72770 0.12180 0.28770
C3 C 0.9913(2) 0.05376(6) 0.25735(12)
H4 H 0.91910 0.01510 0.29820
H5 H 0.96100 0.04890 0.16970
C4 C 1.2452(2) 0.05060(7) 0.28348(12)
H6 H 1.30100 0.00500 0.26060
H7 H 1.31940 0.08520 0.23370
C5 C 1.3044(2) 0.06395(6) 0.41772(12)
H8 H 1.46770 0.06570 0.42930
H9 H 1.24880 0.02570 0.46650
C6 C 1.20285(19) 0.13213(6) 0.46228(11)
H10 H 1.23560 0.13770 0.54950
H11 H 1.26930 0.17110 0.41970
C7 C 0.87648(19) 0.26368(6) 0.44305(11)
H12 H 0.96830 0.25720 0.37060
C8 C 0.6611(2) 0.30047(6) 0.39599(12)
H13 H 0.58200 0.27110 0.33610
H14 H 0.56170 0.30840 0.46370
C9 C 0.7201(2) 0.36990(6) 0.33712(12)
H15 H 0.80510 0.36140 0.26390
H16 H 0.58170 0.39400 0.31250
C10 C 0.8586(2) 0.41578(6) 0.42459(12)
H17 H 0.76870 0.42800 0.49430
H18 H 0.89880 0.45860 0.38310
C11 C 1.0727(2) 0.37853(6) 0.46953(12)
H19 H 1.15480 0.40810 0.52790
H20 H 1.16910 0.37030 0.40060
C12 C 1.0191(2) 0.30900(6) 0.53055(11)
H21 H 1.15880 0.28500 0.55290
H22 H 0.93740 0.31730 0.60490
#END
