
#######################################################################
#
#                 Cambridge Crystallographic Data Centre
#                                CCDC
#
#######################################################################
#
# If this CIF has been generated from an entry in the Cambridge
# Structural Database, then it will include bibliographic, chemical,
# crystal, experimental, refinement or atomic coordinate data resulting
# from the CCDC's data processing and validation procedures.
#
#######################################################################

data_CSD_CIF_EWIMUU
_audit_creation_date 2016-10-03
_audit_creation_method CSD-ConQuest-V1
_database_code_CSD EWIMUU
_database_code_depnum_ccdc_archive 'CCDC 1483063'
_chemical_formula_sum 'C32 H33 N3 O6'
_chemical_formula_moiety
;
C32 H33 N3 O6
;
_journal_coden_Cambridge 1291
_journal_year 2016
_journal_page_first 4470
_journal_name_full 'Eur.J.Org.Chem. '
loop_
_publ_author_name
"D.Beaudoin"
"F.Rominger"
"M.Mastalerz"
_chemical_name_systematic
;
12d-methyl-2,6,10-trinitro-4b,8b,12b-tripropyl-4b,8b,12b,12d-tetrahydrodibenzo
[2,3:4,5]pentaleno[1,6-ab]indene
;
_cell_volume  13605.322
_exptl_crystal_colour 'colorless'
_exptl_crystal_density_diffrn 1.356
_exptl_crystal_description 'polyhedron'
_diffrn_ambient_temperature 200
_refine_special_details
;
The structure is disordered.

;
#These two values have been output from a single CSD field.
_refine_ls_R_factor_gt 0.1152
_refine_ls_wR_factor_gt 0.1152
_symmetry_cell_setting monoclinic
_symmetry_space_group_name_H-M 'P 21/c'
_symmetry_Int_Tables_number 14
loop_
_symmetry_equiv_pos_site_id
_symmetry_equiv_pos_as_xyz
1 x,y,z
2 -x,1/2+y,1/2-z
3 -x,-y,-z
4 x,-1/2-y,-1/2+z
_cell_length_a 24.7839(19)
_cell_length_b 17.8729(13)
_cell_length_c 31.980(3)
_cell_angle_alpha 90
_cell_angle_beta 106.172(2)
_cell_angle_gamma 90
_cell_formula_units_Z 20
loop_
_atom_type_symbol
_atom_type_radius_bond
C 0.68
H 0.23
N 0.68
O 0.68
loop_
_atom_site_label
_atom_site_type_symbol
_atom_site_fract_x
_atom_site_fract_y
_atom_site_fract_z
C1 C 1.34329(19) 0.8304(2) 1.22884(15)
C2 C 1.40050(19) 0.7294(3) 1.20348(15)
C3 C 1.32822(19) 0.6923(2) 1.24271(14)
C4 C 1.37575(19) 0.7524(2) 1.24290(15)
C5 C 1.4206(2) 0.7567(3) 1.28614(14)
H1 H 1.44860 0.79430 1.28440
H2 H 1.40320 0.77060 1.30910
H3 H 1.43890 0.70780 1.29290
C6 C 1.3560(2) 0.8501(3) 1.18604(15)
C7 C 1.3876(2) 0.7960(3) 1.17263(15)
C8 C 1.4052(2) 0.8062(3) 1.13551(15)
H4 H 1.42720 0.76950 1.12640
C9 C 1.3897(2) 0.8713(3) 1.11232(17)
C10 C 1.3572(2) 0.9259(3) 1.12434(18)
H5 H 1.34680 0.96990 1.10740
C11 C 1.3404(2) 0.9149(3) 1.16157(17)
H6 H 1.31810 0.95150 1.17050
C12 C 1.3665(2) 0.6614(3) 1.18333(15)
C13 C 1.3285(2) 0.6388(3) 1.20565(15)
C14 C 1.2959(2) 0.5754(2) 1.19286(15)
H7 H 1.26940 0.56050 1.20780
C15 C 1.3024(2) 0.5342(3) 1.15811(17)
C16 C 1.3398(2) 0.5560(3) 1.13554(17)
H8 H 1.34340 0.52730 1.11150
C17 C 1.3718(2) 0.6193(3) 1.14787(16)
H9 H 1.39750 0.63440 1.13230
C18 C 1.27384(19) 0.7368(2) 1.23046(14)
C19 C 1.28170(19) 0.8118(2) 1.22181(14)
C20 C 1.23651(19) 0.8598(3) 1.20999(15)
H10 H 1.24160 0.91070 1.20360
C21 C 1.1835(2) 0.8324(3) 1.20765(15)
C22 C 1.1746(2) 0.7592(3) 1.21632(15)
H11 H 1.13790 0.74150 1.21460
C23 C 1.2203(2) 0.7117(3) 1.22770(15)
H12 H 1.21470 0.66070 1.23380
C24 C 1.3621(5) 0.8983(5) 1.2595(3)
H13 H 1.40340 0.90270 1.26580
H14 H 1.34560 0.94380 1.24320
C25 C 1.3478(3) 0.8991(4) 1.3024(2)
H15 H 1.30720 0.88880 1.29730
H16 H 1.36900 0.85910 1.32140
C26 C 1.3617(3) 0.9731(4) 1.3247(2)
H17 H 1.35200 0.97200 1.35240
H18 H 1.40200 0.98300 1.33030
H19 H 1.34020 1.01260 1.30610
C27 C 1.4628(2) 0.7023(5) 1.2149(3)
H20 H 1.46860 0.66490 1.23860
H21 H 1.46850 0.67630 1.18910
C28 C 1.5083(3) 0.7628(4) 1.2290(2)
H22 H 1.49680 0.80770 1.21060
H23 H 1.51180 0.77730 1.25950
C29 C 1.5643(3) 0.7365(4) 1.2255(2)
H24 H 1.59200 0.77660 1.23470
H25 H 1.57630 0.69260 1.24410
H26 H 1.56130 0.72310 1.19520
C30 C 1.3290(4) 0.6494(4) 1.2852(2)
H27 H 1.33300 0.68690 1.30870
H28 H 1.29180 0.62550 1.28080
C31 C 1.3741(3) 0.5887(4) 1.3021(2)
H29 H 1.37790 0.55830 1.27720
H30 H 1.41070 0.61320 1.31540
C32 C 1.3601(3) 0.5380(3) 1.3351(2)
H31 H 1.38980 0.50060 1.34480
H32 H 1.35700 0.56770 1.36010
H33 H 1.32420 0.51290 1.32190
N1 N 1.4100(2) 0.8864(4) 1.07387(17)
O1 O 1.4047(2) 0.9500(3) 1.05910(14)
O2 O 1.4325(3) 0.8349(3) 1.06019(17)
N2 N 1.2717(2) 0.4626(2) 1.14746(15)
O3 O 1.2915(2) 0.4173(2) 1.12761(16)
O4 O 1.2285(2) 0.4564(2) 1.15733(16)
N3 N 1.13558(18) 0.8838(3) 1.19787(15)
O5 O 1.09274(17) 0.8631(2) 1.20709(15)
O6 O 1.14035(17) 0.9442(2) 1.18278(14)
C33? C 1.3566(12) 0.8962(14) 1.2625(9)
H34? H 1.32570 0.93270 1.25190
H35? H 1.35160 0.87510 1.28980
C34? C 1.4094(8) 0.9423(10) 1.2761(7)
H36? H 1.42310 0.95040 1.25020
H37? H 1.43830 0.91260 1.29720
C35? C 1.4049(10) 1.0176(10) 1.2963(7)
H38? H 1.44160 1.04230 1.30390
H39? H 1.37740 1.04860 1.27550
H40? H 1.39270 1.01060 1.32270
C36? C 1.4659(5) 0.7259(13) 1.2128(9)
H41? H 1.47410 0.72230 1.18430
H42? H 1.48100 0.77460 1.22560
C37? C 1.4995(8) 0.6659(11) 1.2414(6)
H43? H 1.47480 0.62270 1.24180
H44? H 1.51330 0.68530 1.27150
C38? C 1.5490(9) 0.6399(13) 1.2264(8)
H45? H 1.56940 0.60090 1.24610
H46? H 1.53560 0.61960 1.19690
H47? H 1.57420 0.68230 1.22650
C39? C 1.3380(14) 0.6434(13) 1.2839(6)
H48? H 1.31250 0.59970 1.27670
H49? H 1.37700 0.62420 1.29130
C40? C 1.3291(11) 0.6807(12) 1.3235(6)
H50? H 1.36470 0.70400 1.34070
H51? H 1.30050 0.72060 1.31460
C41? C 1.3101(12) 0.6239(14) 1.3507(8)
H52? H 1.30430 0.64830 1.37660
H53? H 1.27470 0.60140 1.33370
H54? H 1.33870 0.58490 1.35970
C42? C 1.5262(6) 0.6955(8) 1.4478(5)
C43? C 1.5462(6) 0.8301(8) 1.4295(5)
C44? C 1.5985(6) 0.7220(8) 1.4074(5)
C45? C 1.5757(6) 0.7516(8) 1.4462(5)
C46? C 1.6194(9) 0.7579(17) 1.4903(6)
H55? H 1.60150 0.77650 1.51200
H56? H 1.63580 0.70850 1.49930
H57? H 1.64910 0.79260 1.48810
C47? C 1.4745(6) 0.7453(9) 1.4361(7)
C48? C 1.4843(6) 0.8174(9) 1.4240(8)
C49? C 1.4413(6) 0.8686(10) 1.4084(7)
H58? H 1.44770 0.91620 1.39750
C50? C 1.3886(7) 0.8459(10) 1.4099(8)
C51? C 1.3773(9) 0.7747(12) 1.4216(14)
H59? H 1.33980 0.76100 1.42010
C52? C 1.4203(7) 0.723(1) 1.4354(7)
H60? H 1.41300 0.67410 1.44420
C53? C 1.5565(9) 0.8409(9) 1.3853(5)
C54? C 1.5886(8) 0.7844(9) 1.3748(5)
C55? C 1.6038(9) 0.7836(10) 1.3361(5)
H61? H 1.62070 0.74140 1.32690
C56? C 1.5925(9) 0.8481(10) 1.3122(5)
C57? C 1.5561(16) 0.9012(16) 1.3196(8)
H62? H 1.53960 0.93650 1.29750
C58? C 1.5433(9) 0.9034(10) 1.3592(6)
H63? H 1.52630 0.94600 1.36790
C59? C 1.5612(8) 0.6557(10) 1.3888(6)
C60? C 1.5212(8) 0.6409(9) 1.4111(6)
C61? C 1.4816(8) 0.5840(9) 1.3981(6)
H64? H 1.45290 0.57670 1.41220
C62? C 1.4852(8) 0.5384(9) 1.3641(6)
C63? C 1.5242(17) 0.553(2) 1.3416(13)
H65? H 1.52340 0.52430 1.31640
C64? C 1.5644(8) 0.608(1) 1.3552(6)
H66? H 1.59390 0.61320 1.34170
C65? C 1.5302(10) 0.6547(11) 1.4914(6)
H67? H 1.53700 0.69330 1.51450
H68? H 1.49270 0.63290 1.48910
C66? C 1.5732(10) 0.5931(13) 1.5075(8)
H69? H 1.57440 0.56050 1.48280
H70? H 1.61080 0.61580 1.51920
C67? C 1.5597(12) 0.5466(12) 1.5422(8)
H71? H 1.58830 0.50760 1.55170
H72? H 1.55920 0.57840 1.56700
H73? H 1.52280 0.52320 1.53060
C68? C 1.5666(10) 0.9003(10) 1.4579(6)
H74? H 1.60780 0.90320 1.46330
H75? H 1.55050 0.94460 1.44020
C69? C 1.5543(13) 0.9083(13) 1.5013(7)
H76? H 1.57640 0.87080 1.52180
H77? H 1.51400 0.89820 1.49760
C70? C 1.5685(12) 0.9854(13) 1.5200(9)
H78? H 1.56000 0.98870 1.54810
H79? H 1.60860 0.99520 1.52420
H80? H 1.54620 1.02260 1.50000
C71? C 1.6607(6) 0.696(1) 1.4179(7)
H81? H 1.66690 0.65670 1.44060
H82? H 1.66630 0.67240 1.39140
C72? C 1.7058(8) 0.7553(12) 1.4332(8)
H83? H 1.69360 0.80210 1.41680
H84? H 1.71070 0.76580 1.46450
C73? C 1.7607(8) 0.7307(13) 1.4269(9)
H85? H 1.78880 0.77000 1.43710
H86? H 1.77310 0.68470 1.44350
H87? H 1.75610 0.72110 1.39590
N4? N 1.3427(7) 0.9004(11) 1.3987(9)
O7? O 1.2966(7) 0.8798(12) 1.3998(8)
O8? O 1.3486(7) 0.9583(9) 1.3808(6)
N5? N 1.6086(9) 0.8539(10) 1.2718(5)
O9? O 1.5980(15) 0.9110(13) 1.2507(8)
O10? O 1.6261(9) 0.7972(10) 1.2593(6)
N6? N 1.4480(6) 0.4740(8) 1.3517(5)
O11? O 1.4641(10) 0.4164(11) 1.3385(9)
O12? O 1.4001(6) 0.4796(9) 1.3544(5)
C74 C 1.5425(3) 0.6777(3) 1.43785(19)
C75 C 1.5385(3) 0.8200(3) 1.4382(2)
C76 C 1.6022(2) 0.7538(3) 1.3994(2)
C77 C 1.5806(3) 0.7505(4) 1.4418(2)
C78 C 1.6293(4) 0.7524(6) 1.4836(3)
H88 H 1.65120 0.79820 1.48430
H89 H 1.61430 0.75130 1.50890
H90 H 1.65350 0.70880 1.48440
C79 C 1.4829(2) 0.7073(3) 1.4304(2)
C80 C 1.4806(2) 0.7857(4) 1.4291(2)
C81 C 1.4299(2) 0.8221(4) 1.4206(2)
H91 H 1.42820 0.87520 1.41940
C82 C 1.3816(3) 0.7801(4) 1.4138(4)
C83 C 1.3830(3) 0.7027(4) 1.4157(2)
H92 H 1.34910 0.67520 1.41100
C84 C 1.4337(3) 0.6657(4) 1.4245(2)
H93 H 1.43510 0.61270 1.42640
C85 C 1.5430(3) 0.8606(3) 1.3979(2)
C86 C 1.5764(3) 0.8233(3) 1.3758(2)
C87 C 1.5851(3) 0.8520(3) 1.3382(2)
H94 H 1.60760 0.82680 1.32290
C88 C 1.5592(4) 0.9204(5) 1.3238(3)
C89 C 1.5243(3) 0.9565(4) 1.3433(2)
H95 H 1.50490 1.00050 1.33070
C90 C 1.5178(3) 0.9280(3) 1.3821(2)
H96 H 1.49620 0.95440 1.39750
C91 C 1.5781(3) 0.6834(3) 1.37461(18)
C92 C 1.5459(3) 0.6408(4) 1.3959(2)
C93 C 1.5233(3) 0.5727(3) 1.37924(19)
H97 H 1.50160 0.54390 1.39360
C94 C 1.5332(6) 0.5477(6) 1.3409(4)
C95 C 1.5628(3) 0.5904(3) 1.3183(2)
H98 H 1.56700 0.57340 1.29120
C96 C 1.5860(3) 0.6577(3) 1.33552(19)
H99 H 1.60730 0.68640 1.32080
C97 C 1.5569(3) 0.6193(3) 1.47516(17)
H100 H 1.53710 0.57230 1.46380
H101 H 1.59760 0.60890 1.48230
C98 C 1.5429(4) 0.6388(4) 1.5175(2)
H102 H 1.56870 0.67870 1.53260
H103 H 1.50420 0.65880 1.51030
C99 C 1.5473(4) 0.5743(4) 1.5475(2)
H104 H 1.53780 0.59060 1.57390
H105 H 1.52120 0.53490 1.53310
H106 H 1.58580 0.55480 1.55540
C100 C 1.5474(3) 0.8759(4) 1.4766(2)
H107 H 1.51340 0.90770 1.47110
H108 H 1.54950 0.84670 1.50330
C101 C 1.5981(3) 0.9274(4) 1.4861(3)
H109 H 1.63120 0.89980 1.50390
H110 H 1.60580 0.94080 1.45830
C102 C 1.5915(4) 0.9971(4) 1.5092(3)
H111 H 1.62570 1.02730 1.51420
H112 H 1.55950 1.02560 1.49150
H113 H 1.58500 0.98460 1.53720
C103 C 1.6665(2) 0.7557(3) 1.4057(2)
H114 H 1.67280 0.77140 1.37780
H115 H 1.68240 0.79520 1.42730
C104 C 1.7004(3) 0.6841(4) 1.4204(3)
H116 H 1.69160 0.66460 1.44670
H117 H 1.68860 0.64590 1.39730
C105 C 1.7621(3) 0.6952(5) 1.4304(3)
H118 H 1.78130 0.64750 1.43960
H119 H 1.77140 0.71330 1.40430
H120 H 1.77430 0.73200 1.45380
N7 N 1.3277(2) 0.8181(3) 1.40438(17)
O13 O 1.2850(2) 0.7812(3) 1.39223(17)
O14 O 1.3268(3) 0.8855(4) 1.4091(3)
N8 N 1.5695(3) 0.9508(4) 1.2840(2)
O15 O 1.5476(3) 1.0122(4) 1.2716(2)
O16 O 1.6022(3) 0.9236(3) 1.2670(2)
N9 N 1.5104(3) 0.4744(3) 1.32388(19)
O17 O 1.5237(3) 0.4509(3) 1.29219(17)
O18 O 1.4838(3) 0.4376(3) 1.3433(2)
C106 C 1.2065(2) 0.7498(3) 0.99675(15)
C107 C 1.1440(2) 0.6834(3) 1.03698(15)
C108 C 1.1429(2) 0.8265(3) 1.03122(16)
C109 C 1.1840(2) 0.7552(3) 1.03863(15)
C110 C 1.2313(2) 0.7607(3) 1.08115(15)
H121 H 1.21500 0.76400 1.10570
H122 H 1.25520 0.71630 1.08440
H123 H 1.25380 0.80560 1.08050
C111 C 1.1781(2) 0.6805(3) 0.97286(15)
C112 C 1.1464(2) 0.6430(3) 0.99609(15)
C113 C 1.1200(2) 0.5761(3) 0.98012(15)
H124 H 1.09820 0.54990 0.99550
C114 C 1.1262(2) 0.5483(3) 0.94122(15)
C115 C 1.1567(2) 0.5865(3) 0.91778(16)
H125 H 1.15910 0.56740 0.89070
C116 C 1.1835(2) 0.6522(3) 0.93379(15)
H126 H 1.20550 0.67800 0.91830
C117 C 1.0857(2) 0.7166(3) 1.03007(16)
C118 C 1.0848(2) 0.7934(3) 1.02533(16)
C119 C 1.0345(2) 0.8314(3) 1.01813(16)
H127 H 1.03330 0.88440 1.01590
C120 C 0.9864(2) 0.7907(3) 1.01425(17)
C121 C 0.9863(2) 0.7144(3) 1.01974(19)
H128 H 0.95240 0.68820 1.01800
C122 C 1.0371(2) 0.6769(3) 1.02791(17)
H129 H 1.03860 0.62420 1.03200
C123 C 1.1481(2) 0.8610(3) 0.98856(17)
C124 C 1.1832(2) 0.8209(3) 0.97060(16)
C125 C 1.1940(2) 0.8454(3) 0.93246(17)
H130 H 1.21870 0.81850 0.92000
C126 C 1.1678(3) 0.9100(3) 0.91311(18)
C127 C 1.1325(3) 0.9500(3) 0.93053(19)
H131 H 1.11510 0.99420 0.91660
C128 C 1.1224(2) 0.9255(3) 0.96890(18)
H132 H 1.09800 0.95290 0.98150
C129 C 1.2704(2) 0.7453(3) 1.00403(17)
H133 H 1.28820 0.78490 1.02500
H134 H 1.27850 0.75690 0.97610
C130 C 1.2987(2) 0.6699(3) 1.0210(2)
H135 H 1.28850 0.65600 1.04780
H136 H 1.28370 0.63080 0.99890
C131 C 1.3610(2) 0.6714(4) 1.0307(2)
H137 H 1.37620 0.62220 1.04120
H138 H 1.37140 0.68400 1.00410
H139 H 1.37630 0.70920 1.05300
C132 C 1.1587(2) 0.6300(3) 1.07594(15)
H140 H 1.19900 0.61710 1.08220
H141 H 1.13710 0.58330 1.06720
C133 C 1.1481(3) 0.6577(3) 1.11835(16)
H142 H 1.18180 0.68480 1.13570
H143 H 1.11630 0.69330 1.11130
C134 C 1.1354(3) 0.5963(3) 1.14468(17)
H144 H 1.12900 0.61670 1.17130
H145 H 1.10160 0.56990 1.12790
H146 H 1.16710 0.56130 1.15230
C135 C 1.1536(2) 0.8864(3) 1.06711(17)
H147 H 1.15660 0.86060 1.09500
H148 H 1.12000 0.91890 1.06110
C136 C 1.2053(2) 0.9375(3) 1.0737(2)
H149 H 1.23940 0.90880 1.08870
H150 H 1.20900 0.95250 1.04480
C137 C 1.2023(3) 1.0054(3) 1.0992(2)
H151 H 1.23630 1.03550 1.10230
H152 H 1.16920 1.03480 1.08420
H153 H 1.19950 0.99100 1.12810
N10 N 1.10195(19) 0.4756(2) 0.92514(14)
O19 O 1.10622(17) 0.4526(2) 0.89068(12)
O20 O 1.07902(18) 0.4407(2) 0.94804(13)
N11 N 0.9324(2) 0.8304(3) 1.00575(14)
O21 O 0.88936(17) 0.7933(2) 0.99732(14)
O22 O 0.93280(17) 0.8986(2) 1.00716(14)
N12 N 1.1805(3) 0.9383(3) 0.87367(16)
O23 O 1.1511(2) 0.9890(3) 0.85439(14)
O24 O 1.2194(3) 0.9101(3) 0.86291(16)
C138 C 0.9239(2) 0.6945(3) 0.84530(15)
C139 C 0.9451(2) 0.8299(3) 0.82967(15)
C140 C 0.9981(2) 0.7230(3) 0.80559(15)
C141 C 0.9740(2) 0.7504(3) 0.84433(15)
C142 C 1.0187(2) 0.7540(3) 0.88784(15)
H154 H 1.00170 0.77110 0.91040
H155 H 1.03500 0.70420 0.89540
H156 H 1.04820 0.78910 0.88580
C143 C 0.8715(2) 0.7429(3) 0.83289(14)
C144 C 0.8830(2) 0.8153(3) 0.82285(15)
C145 C 0.8392(2) 0.8673(3) 0.80960(16)
H157 H 0.84600 0.91720 0.80210
C146 C 0.7856(2) 0.8432(3) 0.80787(16)
C147 C 0.7735(2) 0.7723(3) 0.81834(16)
H158 H 0.73600 0.75830 0.81670
C148 C 0.8167(2) 0.7216(3) 0.83135(16)
H159 H 0.80930 0.67230 0.83930
C149 C 0.9574(2) 0.8454(3) 0.78603(16)
C150 C 0.9866(2) 0.7877(3) 0.77387(16)
C151 C 1.0030(2) 0.7926(3) 0.73528(16)
H160 H 1.02190 0.75290 0.72560
C152 C 0.9899(2) 0.8589(3) 0.71224(17)
C153 C 0.9615(2) 0.9181(3) 0.72350(18)
H161 H 0.95380 0.96210 0.70630
C154 C 0.9446(2) 0.9108(3) 0.76122(17)
H162 H 0.92440 0.95000 0.77010
C155 C 0.9624(2) 0.6557(3) 0.78712(15)
C156 C 0.9224(2) 0.6409(3) 0.80853(15)
C157 C 0.8856(2) 0.5810(3) 0.79580(15)
H163 H 0.85700 0.57100 0.80960
C158 C 0.8926(2) 0.5362(3) 0.76181(16)
C159 C 0.9331(2) 0.5491(3) 0.74070(16)
H164 H 0.93710 0.51640 0.71840
C160 C 0.9679(2) 0.6108(3) 0.75271(16)
H165 H 0.99500 0.62240 0.73780
C161 C 0.9259(2) 0.6525(3) 0.88853(16)
H166 H 0.93340 0.69000 0.91230
H167 H 0.88810 0.63160 0.88580
C162 C 0.9681(3) 0.5899(3) 0.90260(18)
H168 H 1.00660 0.61090 0.91170
H169 H 0.96560 0.55550 0.87780
C163 C 0.9567(3) 0.5467(3) 0.94045(17)
H170 H 0.98430 0.50630 0.94930
H171 H 0.95980 0.58060 0.96510
H172 H 0.91880 0.52540 0.93130
C164 C 0.9656(2) 0.8989(3) 0.85960(16)
H173 H 1.00700 0.90110 0.86620
H174 H 0.95060 0.94440 0.84260
C165 C 0.9509(3) 0.9033(3) 0.90181(17)
H175 H 0.97170 0.86430 0.92190
H176 H 0.91020 0.89420 0.89680
C166 C 0.9663(3) 0.9809(3) 0.92218(18)
H177 H 0.95670 0.98360 0.94990
H178 H 1.00670 0.98940 0.92740
H179 H 0.94540 1.01930 0.90230
C167 C 1.0615(2) 0.6990(3) 0.81708(17)
H180 H 1.06820 0.66250 0.84130
H181 H 1.06720 0.67210 0.79160
C168 C 1.1069(2) 0.7594(3) 0.8300(2)
H182 H 1.09450 0.80460 0.81200
H183 H 1.11240 0.77330 0.86090
C169 C 1.1613(2) 0.7322(3) 0.82394(18)
H184 H 1.18970 0.77170 0.83240
H185 H 1.17390 0.68800 0.84210
H186 H 1.15600 0.71920 0.79330
N13 N 0.7389(2) 0.8967(3) 0.79541(16)
O25 O 0.69421(19) 0.8800(3) 0.80054(18)
O26 O 0.74691(17) 0.9574(2) 0.77940(14)
N14 N 1.0105(2) 0.8684(4) 0.67280(17)
O27 O 1.01004(19) 0.9332(3) 0.65860(14)
O28 O 1.0277(2) 0.8117(3) 0.65826(15)
N15 N 0.8567(2) 0.4694(3) 0.74932(14)
O29 O 0.87726(19) 0.4143(2) 0.73753(13)
O30 O 0.80784(19) 0.4741(2) 0.75274(13)
C170 C 0.7408(2) 0.6901(3) 0.63977(15)
C171 C 0.7462(2) 0.8321(2) 0.63131(15)
C172 C 0.8090(2) 0.7466(3) 0.60084(15)
C173 C 0.7839(2) 0.7572(3) 0.64140(15)
C174 C 0.8296(2) 0.7623(3) 0.68486(15)
H187 H 0.85470 0.80430 0.68390
H188 H 0.81210 0.77020 0.70850
H189 H 0.85130 0.71570 0.69000
C175 C 0.6841(2) 0.7262(3) 0.63032(16)
C176 C 0.6864(2) 0.8029(3) 0.62377(15)
C177 C 0.6375(2) 0.8450(3) 0.61414(16)
H190 H 0.63850 0.89740 0.60930
C178 C 0.5873(2) 0.8088(3) 0.61172(17)
C179 C 0.5846(2) 0.7337(3) 0.61842(17)
H191 H 0.54950 0.71050 0.61670
C180 C 0.6330(2) 0.6918(3) 0.62768(18)
H192 H 0.63150 0.63940 0.63230
C181 C 0.7552(2) 0.8608(3) 0.58932(16)
C182 C 0.7888(2) 0.8150(3) 0.57271(15)
C183 C 0.8017(2) 0.8340(3) 0.53401(15)
H193 H 0.82470 0.80310 0.52190
C184 C 0.7789(2) 0.9002(3) 0.51441(16)
C185 C 0.7458(2) 0.9466(3) 0.53021(17)
H194 H 0.73130 0.99150 0.51540
C186 C 0.7337(2) 0.9267(3) 0.56847(17)
H195 H 0.71070 0.95810 0.58040
C187 C 0.7802(2) 0.6764(3) 0.57854(15)
C188 C 0.7441(2) 0.6450(3) 0.60025(15)
C189 C 0.7164(2) 0.5782(3) 0.58517(15)
H196 H 0.69250 0.55500 0.60000
C190 C 0.7249(2) 0.5469(3) 0.54779(16)
C191 C 0.7596(2) 0.5788(3) 0.52602(18)
H197 H 0.76430 0.55600 0.50040
C192 C 0.7876(2) 0.6437(3) 0.54145(16)
H198 H 0.81190 0.66600 0.52670
C193 C 0.7513(3) 0.6377(3) 0.67967(15)
H199 H 0.72660 0.59350 0.67140
H200 H 0.79060 0.61970 0.68670
C194 C 0.7417(3) 0.6718(4) 0.72095(18)
H201 H 0.77860 0.68550 0.74110
H202 H 0.71960 0.71840 0.71300
C195 C 0.7116(3) 0.6205(4) 0.7442(2)
H203 H 0.70690 0.64570 0.77020
H204 H 0.67470 0.60770 0.72480
H205 H 0.73370 0.57480 0.75290
C196 C 0.7560(2) 0.8938(3) 0.66700(16)
H206 H 0.72410 0.92930 0.65880
H207 H 0.75500 0.86980 0.69470
C197 C 0.8104(2) 0.9389(3) 0.67552(19)
H208 H 0.84120 0.90980 0.69520
H209 H 0.81980 0.94580 0.64760
C198 C 0.8072(3) 1.0142(3) 0.6955(2)
H210 H 0.84330 1.04010 0.70010
H211 H 0.77740 1.04390 0.67590
H212 H 0.79890 1.00780 0.72340
C199 C 0.8734(2) 0.7394(3) 0.60985(17)
H213 H 0.88260 0.74200 0.58170
H214 H 0.89120 0.78310 0.62730
C200 C 0.9002(3) 0.6684(3) 0.6335(2)
H215 H 0.90540 0.67510 0.66510
H216 H 0.87390 0.62610 0.62370
C201 C 0.9547(3) 0.6487(4) 0.6264(2)
H217 H 0.96910 0.60290 0.64250
H218 H 0.94990 0.64060 0.59530
H219 H 0.98150 0.68960 0.63680
N16 N 0.5360(2) 0.8544(3) 0.60349(17)
O31 O 0.49320(18) 0.8237(3) 0.60571(16)
O32 O 0.53799(19) 0.9196(3) 0.59431(19)
N17 N 0.7938(3) 0.9226(3) 0.47412(16)
O33 O 0.7716(2) 0.9809(2) 0.45630(13)
O34 O 0.8246(2) 0.8835(3) 0.46078(15)
N18 N 0.6972(2) 0.4745(3) 0.53279(16)
O35 O 0.70770(17) 0.4453(2) 0.50073(14)
O36 O 0.6656(2) 0.4478(2) 0.55123(14)
#END
