
#######################################################################
#
#                 Cambridge Crystallographic Data Centre
#                                CCDC
#
#######################################################################
#
# If this CIF has been generated from an entry in the Cambridge
# Structural Database, then it will include bibliographic, chemical,
# crystal, experimental, refinement or atomic coordinate data resulting
# from the CCDC's data processing and validation procedures.
#
#######################################################################

data_CSD_CIF_EWIXUD
_audit_creation_date 2004-08-12
_audit_creation_method CSD-ConQuest-V1
_database_code_CSD EWIXUD
_database_code_depnum_ccdc_archive 'CCDC 237116'
_chemical_formula_sum 'C13 H11 N1 O5'
_chemical_formula_moiety
;
C13 H11 N1 O5
;
_journal_coden_Cambridge 4
_journal_volume 126
_journal_year 2004
_journal_page_first 4118
_journal_name_full 'J.Am.Chem.Soc. '
loop_
_publ_author_name
"Cheol-Kyu Jung"
"Jian-Cheng Wang"
"M.J.Krische"
_chemical_name_systematic
;
Ethyl 2-(4-nitrophenyl)furan-3-carboxylate
;
_cell_volume   1200.899
_exptl_crystal_density_diffrn 1.445
_diffrn_ambient_temperature 153
#These two values have been output from a single CSD field.
_refine_ls_R_factor_gt 0.1504
_refine_ls_wR_factor_gt 0.1504
_symmetry_cell_setting monoclinic
_symmetry_space_group_name_H-M 'P 21/c'
_symmetry_Int_Tables_number 14
loop_
_symmetry_equiv_pos_site_id
_symmetry_equiv_pos_as_xyz
1 x,y,z
2 x,1/2-y,1/2+z
3 -x,-y,-z
4 -x,-1/2+y,-1/2-z
_cell_length_a 13.1593(3)
_cell_length_b 13.2888(6)
_cell_length_c 6.9813(6)
_cell_angle_alpha 90
_cell_angle_beta 100.367(3)
_cell_angle_gamma 90
_cell_formula_units_Z 4
loop_
_atom_type_symbol
_atom_type_radius_bond
C 0.68
H 0.23
N 0.68
O 0.68
loop_
_atom_site_label
_atom_site_type_symbol
_atom_site_fract_x
_atom_site_fract_y
_atom_site_fract_z
O1 O 0.32878(16) -0.03924(16) 0.1016(3)
C1 C 0.3466(2) 0.0612(2) 0.1328(5)
C2 C 0.2588(2) 0.1132(2) 0.0521(5)
C3 C 0.1850(3) 0.0394(3) -0.0299(5)
C4 C 0.2294(3) -0.0495(3) 0.0017(5)
C5 C 0.4508(2) 0.0845(2) 0.2385(5)
C6 C 0.5264(3) 0.0094(3) 0.2596(5)
C7 C 0.6249(3) 0.0262(3) 0.3601(5)
C8 C 0.6476(2) 0.1200(3) 0.4457(5)
C9 C 0.5752(3) 0.1950(3) 0.4283(5)
C10 C 0.4769(3) 0.1778(3) 0.3265(5)
N1 N 0.7513(2) 0.1388(2) 0.5563(4)
O2 O 0.76739(18) 0.21813(19) 0.6483(4)
O3 O 0.81802(18) 0.07403(19) 0.5564(4)
C11 C 0.2376(2) 0.2226(3) 0.0436(5)
O4 O 0.29509(17) 0.28938(17) 0.1135(4)
O5 O 0.14161(16) 0.23969(17) -0.0539(3)
C12 C 0.1074(3) 0.3448(3) -0.0616(7)
C13 C 0.0020(4) 0.3475(4) -0.1860(8)
H1 H 0.592(2) 0.254(2) 0.499(5)
H2 H 0.118(2) 0.055(2) -0.094(4)
H3 H -0.022(3) 0.414(3) -0.189(5)
H4 H 0.158(3) 0.391(3) -0.120(5)
H5 H 0.209(2) -0.117(3) -0.023(5)
H6 H 0.422(2) 0.229(2) 0.312(5)
H7 H 0.108(3) 0.362(3) 0.075(6)
H8 H 0.008(3) 0.334(3) -0.317(6)
H9 H -0.045(3) 0.302(3) -0.127(7)
H10 H 0.512(2) -0.052(2) 0.207(4)
H11 H 0.677(2) -0.019(2) 0.380(5)
#END
