
#######################################################################
#
#                 Cambridge Crystallographic Data Centre
#                                CCDC
#
#######################################################################
#
# If this CIF has been generated from an entry in the Cambridge
# Structural Database, then it will include bibliographic, chemical,
# crystal, experimental, refinement or atomic coordinate data resulting
# from the CCDC's data processing and validation procedures.
#
#######################################################################

data_CSD_CIF_EWIYAK
_audit_creation_date 2004-08-12
_audit_creation_method CSD-ConQuest-V1
_database_code_CSD EWIYAK
_database_code_depnum_ccdc_archive 'CCDC 237117'
_chemical_formula_sum 'C13 H16 N2 O1'
_chemical_formula_moiety
;
C13 H16 N2 O1
;
_journal_coden_Cambridge 4
_journal_volume 126
_journal_year 2004
_journal_page_first 4128
_journal_name_full 'J.Am.Chem.Soc. '
loop_
_publ_author_name
"Y.Yamamoto"
"H.Yamamoto"
_chemical_name_systematic
;
5-Methyl-3-(6-methyl-2-pyridyl)-2-oxa-3-azabicyclo[2.2.2]oct-5-ene
;
_cell_volume   1132.625
_exptl_crystal_density_diffrn 1.268
_diffrn_ambient_temperature 100
#These two values have been output from a single CSD field.
_refine_ls_R_factor_gt 0.0307
_refine_ls_wR_factor_gt 0.0307
_symmetry_cell_setting orthorhombic
_symmetry_space_group_name_H-M 'P n a 21'
_symmetry_Int_Tables_number 33
loop_
_symmetry_equiv_pos_site_id
_symmetry_equiv_pos_as_xyz
1 x,y,z
2 -x,-y,1/2+z
3 1/2+x,1/2-y,z
4 1/2-x,1/2+y,1/2+z
_cell_length_a 13.330(2)
_cell_length_b 7.2301(13)
_cell_length_c 11.752(2)
_cell_angle_alpha 90
_cell_angle_beta 90
_cell_angle_gamma 90
_cell_formula_units_Z 4
loop_
_atom_type_symbol
_atom_type_radius_bond
C 0.68
H 0.23
N 0.68
O 0.68
loop_
_atom_site_label
_atom_site_type_symbol
_atom_site_fract_x
_atom_site_fract_y
_atom_site_fract_z
C1 C 0.12082(10) -0.06525(17) 0.72731(12)
C2 C 0.1617(1) -0.12312(18) 0.62355(12)
H1 H 0.12360 -0.11900 0.55530
C3 C 0.25932(10) -0.18642(18) 0.62398(12)
H2 H 0.28990 -0.22590 0.55510
C4 C 0.31271(11) -0.19232(17) 0.72518(12)
H3 H 0.38000 -0.23560 0.72670
C5 C 0.26585(10) -0.13375(17) 0.82422(12)
C6 C 0.31854(11) -0.1429(2) 0.93706(13)
H4 H 0.30730 -0.02750 0.97890
H5 H 0.39060 -0.16020 0.92470
H6 H 0.29210 -0.24700 0.98120
C7 C -0.00770(9) 0.13862(18) 0.81348(12)
H7 H 0.01980 0.11630 0.89140
C8 C -0.12266(10) 0.14958(17) 0.81622(12)
H8 H -0.14420 0.25070 0.86760
H9 H -0.15070 0.03200 0.84540
C9 C -0.16180(11) 0.18622(19) 0.69441(12)
H10 H -0.20630 0.08430 0.66960
H11 H -0.20020 0.30340 0.69200
C10 C -0.06996(9) 0.19849(19) 0.61668(12)
H12 H -0.09110 0.22590 0.53680
C11 C 0.00005(11) 0.34475(18) 0.65879(13)
H13 H 0.01910 0.44860 0.61430
C12 C 0.03329(10) 0.31656(19) 0.76418(13)
C13 C 0.10293(10) 0.4351(2) 0.83124(13)
H14 H 0.11960 0.54610 0.78730
H15 H 0.16440 0.36590 0.84780
H16 H 0.07060 0.47120 0.90280
N1 N 0.01837(8) -0.01646(15) 0.73573(10)
N2 N 0.17068(8) -0.06970(15) 0.82591(10)
O1 O -0.02094(7) 0.01753(14) 0.62247(9)
#END
