
#######################################################################
#
#                 Cambridge Crystallographic Data Centre
#                                CCDC
#
#######################################################################
#
# If this CIF has been generated from an entry in the Cambridge
# Structural Database, then it will include bibliographic, chemical,
# crystal, experimental, refinement or atomic coordinate data resulting
# from the CCDC's data processing and validation procedures.
#
#######################################################################

data_CSD_CIF_EWIYEO
_audit_creation_date 2004-08-12
_audit_creation_method CSD-ConQuest-V1
_database_code_CSD EWIYEO
_database_code_depnum_ccdc_archive 'CCDC 237118'
_chemical_formula_sum 'C18 H18 N2 O1'
_chemical_formula_moiety
;
C18 H18 N2 O1
;
_journal_coden_Cambridge 4
_journal_volume 126
_journal_year 2004
_journal_page_first 4128
_journal_name_full 'J.Am.Chem.Soc. '
loop_
_publ_author_name
"Y.Yamamoto"
"H.Yamamoto"
_chemical_name_systematic
;
3-(6-Methyl-2-pyridyl)-5-phenyl-2-oxa-3-azabicyclo[2.2.2]oct-5-ene
;
_cell_volume   1445.841
_exptl_crystal_colour 'yellow'
_exptl_crystal_density_diffrn 1.279
_diffrn_ambient_temperature 100
#These two values have been output from a single CSD field.
_refine_ls_R_factor_gt 0.0561
_refine_ls_wR_factor_gt 0.0561
_symmetry_cell_setting triclinic
_symmetry_space_group_name_H-M 'P -1'
_symmetry_Int_Tables_number 2
loop_
_symmetry_equiv_pos_site_id
_symmetry_equiv_pos_as_xyz
1 x,y,z
2 -x,-y,-z
_cell_length_a 8.5846(18)
_cell_length_b 9.831(2)
_cell_length_c 17.870(4)
_cell_angle_alpha 86.769(4)
_cell_angle_beta 84.258(4)
_cell_angle_gamma 74.577(4)
_cell_formula_units_Z 4
loop_
_atom_type_symbol
_atom_type_radius_bond
C 0.68
H 0.23
N 0.68
O 0.68
loop_
_atom_site_label
_atom_site_type_symbol
_atom_site_fract_x
_atom_site_fract_y
_atom_site_fract_z
C1 C 0.0807(2) 0.7372(2) 0.07616(11)
H1 H 0.03440 0.83720 0.05900
C2 C -0.0548(3) 0.6653(2) 0.10120(12)
H2 H -0.12440 0.67020 0.05960
H3 H -0.12330 0.71430 0.14460
C3 C 0.0213(3) 0.5104(3) 0.12343(13)
H4 H -0.01870 0.48920 0.17550
H5 H -0.00720 0.44680 0.08920
C4 C 0.2043(3) 0.4896(2) 0.11755(12)
H6 H 0.25970 0.39010 0.13230
C5 C 0.2616(3) 0.5228(2) 0.03834(12)
H7 H 0.33870 0.45610 0.00790
C6 C 0.1946(2) 0.6549(2) 0.01438(11)
C7 C 0.2206(2) 0.7147(2) -0.06206(11)
C8 C 0.3476(2) 0.6460(2) -0.11282(11)
H8 H 0.42310 0.56270 -0.09670
C9 C 0.3656(3) 0.6965(2) -0.18593(12)
H9 H 0.45380 0.64870 -0.21940
C10 C 0.2554(3) 0.8172(2) -0.21076(12)
H10 H 0.26640 0.85100 -0.26140
C11 C 0.1298(3) 0.8876(2) -0.16149(12)
H11 H 0.05450 0.97070 -0.17800
C12 C 0.1130(3) 0.8374(2) -0.08755(11)
H12 H 0.02680 0.88750 -0.05390
C13 C 0.2949(2) 0.8026(2) 0.13891(11)
C14 C 0.4259(3) 0.7574(3) 0.18266(12)
H13 H 0.44420 0.67010 0.21040
C15 C 0.5276(3) 0.8440(3) 0.18418(13)
H14 H 0.61670 0.81810 0.21430
C16 C 0.4999(3) 0.9687(3) 0.14181(13)
H15 H 0.56920 1.02940 0.14260
C17 C 0.3696(3) 1.0038(2) 0.09810(13)
C18 C 0.3347(3) 1.1350(2) 0.04933(15)
H16 H 0.32510 1.11070 -0.00210
H17 H 0.42340 1.18060 0.04930
H18 H 0.23290 1.19980 0.06890
C19 C 0.6085(2) 0.7305(2) 0.41937(11)
H19 H 0.54560 0.82350 0.44010
C20 C 0.4935(3) 0.6500(2) 0.39377(12)
H20 H 0.42970 0.70550 0.35390
H21 H 0.41710 0.63450 0.43670
C21 C 0.5959(3) 0.5069(2) 0.36332(13)
H22 H 0.56610 0.42830 0.39320
H23 H 0.57680 0.49900 0.31020
C22 C 0.7730(3) 0.5011(2) 0.36951(12)
H24 H 0.84410 0.40870 0.35150
C23 C 0.8007(3) 0.5210(2) 0.44863(12)
H25 H 0.87620 0.45320 0.47610
C24 C 0.7109(2) 0.6422(2) 0.47781(11)
C25 C 0.7086(2) 0.6888(2) 0.55531(11)
C26 C 0.7879(3) 0.5952(2) 0.60968(12)
H26 H 0.84390 0.50150 0.59640
C27 C 0.7863(3) 0.6367(3) 0.68263(12)
H27 H 0.84230 0.57200 0.71860
C28 C 0.7034(3) 0.7719(2) 0.70334(12)
H28 H 0.70350 0.80060 0.75320
C29 C 0.6206(3) 0.8649(2) 0.65122(12)
H29 H 0.56080 0.95700 0.66560
C30 C 0.6244(2) 0.8242(2) 0.57753(11)
H30 H 0.56870 0.88980 0.54180
C31 C 0.8266(2) 0.8332(2) 0.36125(11)
C32 C 0.9754(3) 0.8106(2) 0.31800(12)
H31 H 1.01290 0.73300 0.28560
C33 C 1.0654(3) 0.9057(3) 0.32425(12)
H32 H 1.16650 0.89520 0.29520
C34 C 1.0091(3) 1.0159(2) 0.37257(12)
H33 H 1.07040 1.08190 0.37710
C35 C 0.8611(2) 1.0287(2) 0.41450(11)
C36 C 0.7934(3) 1.1440(2) 0.46922(13)
H34 H 0.70020 1.21210 0.44930
H35 H 0.87700 1.19180 0.47680
H36 H 0.75870 1.10350 0.51740
N1 N 0.1713(2) 0.73159(18) 0.14313(9)
N2 N 0.2667(2) 0.92193(18) 0.09698(10)
N3 N 0.7168(2) 0.75168(18) 0.35183(9)
N4 N 0.7699(2) 0.93870(17) 0.40833(9)
O1 O 0.23520(19) 0.58702(15) 0.16914(8)
O2 O 0.8066(2) 0.61690(16) 0.32111(8)
#END
