
#######################################################################
#
#                 Cambridge Crystallographic Data Centre
#                                CCDC
#
#######################################################################
#
# If this CIF has been generated from an entry in the Cambridge
# Structural Database, then it will include bibliographic, chemical,
# crystal, experimental, refinement or atomic coordinate data resulting
# from the CCDC's data processing and validation procedures.
#
#######################################################################

data_CSD_CIF_EWOXAP
_audit_creation_date 2004-08-12
_audit_creation_method CSD-ConQuest-V1
_database_code_CSD EWOXAP
_database_code_depnum_ccdc_archive 'CCDC 242317'
_chemical_formula_sum 'C14 H10 N2 O2'
_chemical_formula_moiety
;
C14 H10 N2 O2
;
_journal_coeditor_code "IUCr SU6100"
_journal_coden_Cambridge 1370
_journal_volume 60
_journal_year 2004
_journal_page_first o977
_journal_name_full 'Acta Crystallogr.,Sect.E:Struct.Rep.Online '
loop_
_publ_author_name
"G.B.Riddle"
"D.A.Grossie"
"K.Turnbull"
_chemical_name_systematic
;
3-(2-Biphenyl)sydnone
;
_chemical_melting_point 418
_cell_volume   1123.646
_exptl_crystal_colour 'colorless'
_exptl_crystal_density_diffrn 1.408
_exptl_crystal_description 'rectangle'
_exptl_crystal_preparation 'methylene chloride/hexane'
_diffrn_ambient_temperature 298
_diffrn_radiation_probe x-ray
_diffrn_source synchrotron
#These two values have been output from a single CSD field.
_refine_ls_R_factor_gt 0.0495
_refine_ls_wR_factor_gt 0.0495
_symmetry_cell_setting monoclinic
_symmetry_space_group_name_H-M 'P 21/n'
_symmetry_Int_Tables_number 14
loop_
_symmetry_equiv_pos_site_id
_symmetry_equiv_pos_as_xyz
1 x,y,z
2 1/2+x,1/2-y,1/2+z
3 -x,-y,-z
4 -1/2-x,-1/2+y,-1/2-z
_cell_length_a 11.012(15)
_cell_length_b 8.310(15)
_cell_length_c 12.941(15)
_cell_angle_alpha 90
_cell_angle_beta 108.406(15)
_cell_angle_gamma 90
_cell_formula_units_Z 4
loop_
_atom_type_symbol
_atom_type_radius_bond
C 0.68
H 0.23
N 0.68
O 0.68
loop_
_atom_site_label
_atom_site_type_symbol
_atom_site_fract_x
_atom_site_fract_y
_atom_site_fract_z
O1 O 0.44588(12) 1.14144(13) 1.10069(10)
O2 O 0.28415(12) 1.02296(13) 1.14705(10)
N1 N 0.21119(15) 0.88504(16) 1.12291(13)
C1 C 0.19971(15) 0.65566(17) 1.01464(13)
C2 C 0.17153(16) 0.38668(19) 1.06716(15)
H1 H 0.18050 0.30850 1.12050
C3 C 0.13860(15) 0.62399(17) 0.90473(14)
N2 N 0.25200(13) 0.81280(15) 1.05005(11)
C4 C 0.21655(16) 0.54137(18) 1.09574(14)
H2 H 0.25740 0.56800 1.16820
C5 C 0.09731(16) 0.46585(18) 0.87856(15)
H3 H 0.05840 0.43790 0.80600
C6 C 0.11319(16) 0.34974(19) 0.95864(15)
H4 H 0.08420 0.24550 0.93910
C7 C 0.34393(15) 0.88986(18) 1.02302(14)
H5 H 0.38240 0.85710 0.97210
C8 C 0.37117(16) 1.03043(18) 1.08679(14)
C9 C 0.11251(15) 0.74965(18) 0.81879(13)
C10 C 0.14163(16) 0.72250(19) 0.72304(14)
H6 H 0.17950 0.62600 0.71350
C11 C 0.11455(16) 0.8382(2) 0.64202(14)
H7 H 0.13450 0.81900 0.57840
C12 C 0.05779(16) 0.98262(19) 0.65513(14)
H8 H 0.04050 1.06050 0.60080
C13 C 0.02689(16) 1.01049(19) 0.74951(14)
H9 H -0.01210 1.10660 0.75810
C14 C 0.05423(16) 0.89503(18) 0.83104(14)
H10 H 0.03370 0.91430 0.89430
#END
