
#######################################################################
#
#                 Cambridge Crystallographic Data Centre
#                                CCDC
#
#######################################################################
#
# If this CIF has been generated from an entry in the Cambridge
# Structural Database, then it will include bibliographic, chemical,
# crystal, experimental, refinement or atomic coordinate data resulting
# from the CCDC's data processing and validation procedures.
#
#######################################################################

data_CSD_CIF_EWUFAD
_audit_creation_date 2004-08-12
_audit_creation_method CSD-ConQuest-V1
_database_code_CSD EWUFAD
_database_code_depnum_ccdc_archive 'CCDC 242345'
_chemical_formula_sum 'C18 H14 N2 O6'
_chemical_formula_moiety
;
C18 H14 N2 O6
;
_journal_coeditor_code "IUCr LH6221"
_journal_coden_Cambridge 1370
_journal_volume 60
_journal_year 2004
_journal_page_first o1057
_journal_name_full 'Acta Crystallogr.,Sect.E:Struct.Rep.Online '
loop_
_publ_author_name
"J.N.Low"
"J.Cobo"
"A.Ortiz"
"P.Cuervo"
"R.Abonia"
"C.Glidewell"
_chemical_name_systematic
;
rac-5-Acetyl-6-(4-nitrophenyl)-6,7-dihydro-5H-1,3-dioxolo(4,5-g)quinoline-8-on
e
;
_chemical_melting_point 483
_cell_volume   1512.911
_exptl_crystal_colour 'colorless'
_exptl_crystal_density_diffrn 1.556
_exptl_crystal_description 'plate'
_exptl_crystal_preparation 'aqueous ethanol'
_diffrn_ambient_temperature 120
#These two values have been output from a single CSD field.
_refine_ls_R_factor_gt 0.0415
_refine_ls_wR_factor_gt 0.0415
_symmetry_cell_setting orthorhombic
_symmetry_space_group_name_H-M 'P n a 21'
_symmetry_Int_Tables_number 33
loop_
_symmetry_equiv_pos_site_id
_symmetry_equiv_pos_as_xyz
1 x,y,z
2 -x,-y,1/2+z
3 1/2-x,1/2+y,1/2+z
4 1/2+x,1/2-y,z
_cell_length_a 6.5253(2)
_cell_length_b 21.4286(5)
_cell_length_c 10.8198(9)
_cell_angle_alpha 90
_cell_angle_beta 90
_cell_angle_gamma 90
_cell_formula_units_Z 4
loop_
_atom_type_symbol
_atom_type_radius_bond
C 0.68
H 0.23
N 0.68
O 0.68
loop_
_atom_site_label
_atom_site_type_symbol
_atom_site_fract_x
_atom_site_fract_y
_atom_site_fract_z
O1 O 0.5209(4) 0.45991(10) 0.5921(2)
C1 C 0.6518(5) 0.49285(15) 0.5084(4)
O2 O 0.5919(3) 0.55753(10) 0.5100(2)
C2 C 0.4110(4) 0.55944(14) 0.5736(3)
C3 C 0.2903(4) 0.61069(13) 0.5940(3)
C4 C 0.1148(4) 0.60062(12) 0.6658(2)
N1 N -0.0191(3) 0.65140(12) 0.6922(2)
C5 C -0.1005(4) 0.69175(13) 0.6047(3)
O3 O -0.2149(3) 0.7338(1) 0.63757(19)
C6 C -0.0541(5) 0.68171(14) 0.4710(3)
C7 C -0.1136(4) 0.65011(13) 0.8158(3)
C8 C 0.0432(4) 0.65684(13) 0.9186(3)
C9 C 0.2377(4) 0.68212(13) 0.8979(3)
C10 C 0.3740(4) 0.69024(13) 0.9951(3)
C11 C 0.3144(4) 0.67328(12) 1.1127(2)
N2 N 0.4578(4) 0.68102(11) 1.2154(2)
O4 O 0.3963(3) 0.67045(11) 1.3207(2)
O5 O 0.6331(3) 0.69795(11) 1.1920(2)
C12 C 0.1243(4) 0.64875(13) 1.1358(3)
C13 C -0.0106(4) 0.64056(13) 1.0388(3)
C14 C -0.2388(4) 0.59007(15) 0.8248(3)
C15 C -0.1070(5) 0.53365(14) 0.8006(3)
O6 O -0.1483(4) 0.48271(11) 0.8451(2)
C16 C 0.0733(4) 0.54239(13) 0.7194(3)
C17 C 0.2061(5) 0.49165(13) 0.6998(3)
C18 C 0.3695(4) 0.50171(13) 0.6255(3)
H1 H 0.63750 0.47560 0.42390
H2 H 0.79660 0.48860 0.53440
H3 H 0.32350 0.65060 0.56140
H4 H -0.17600 0.69130 0.42160
H5 H -0.01450 0.63810 0.45770
H6 H 0.05860 0.70920 0.44600
H7 H -0.21060 0.68610 0.82150
H8 H 0.27690 0.69390 0.81660
H9 H 0.50640 0.70720 0.98070
H10 H 0.08590 0.63750 1.21750
H11 H -0.14250 0.62350 1.05440
H12 H -0.29990 0.58680 0.90830
H13 H -0.35190 0.59140 0.76390
H14 H 0.18220 0.45220 0.73690
#END
