
#######################################################################
#
#                 Cambridge Crystallographic Data Centre
#                                CCDC
#
#######################################################################
#
# If this CIF has been generated from an entry in the Cambridge
# Structural Database, then it will include bibliographic, chemical,
# crystal, experimental, refinement or atomic coordinate data resulting
# from the CCDC's data processing and validation procedures.
#
#######################################################################

data_CSD_CIF_EWUMAK
_audit_creation_date 2004-09-20
_audit_creation_method CSD-ConQuest-V1
_database_code_CSD EWUMAK
_database_code_depnum_ccdc_archive 'CCDC 214942'
_chemical_formula_sum 'C18 H17 N1 O1'
_chemical_formula_moiety
;
C18 H17 N1 O1
;
_journal_coden_Cambridge 1003
_journal_volume 34
_journal_year 2004
_journal_page_first 103
_journal_name_full 'J.Chem.Cryst. '
loop_
_publ_author_name
"H.J.P.de Lijser"
"C.E.Dedeian"
"J.R.Sawyer"
"S.R.Herron"
"K.A.Kantardjieff"
_chemical_name_systematic
;
2,6-Diphenylcyclohex-2-en-1-one oxime
;
_cell_volume   1435.937
_exptl_crystal_density_diffrn 1.218
_exptl_crystal_description 'needle'
_exptl_crystal_preparation 'methanol'
_diffrn_ambient_temperature 293
#These two values have been output from a single CSD field.
_refine_ls_R_factor_gt 0.0679
_refine_ls_wR_factor_gt 0.0679
_symmetry_cell_setting monoclinic
_symmetry_space_group_name_H-M 'P 21/c'
_symmetry_Int_Tables_number 14
loop_
_symmetry_equiv_pos_site_id
_symmetry_equiv_pos_as_xyz
1 x,y,z
2 -x,1/2+y,1/2-z
3 -x,-y,-z
4 x,-1/2-y,-1/2+z
_cell_length_a 11.5269(11)
_cell_length_b 6.6724(6)
_cell_length_c 19.0105(18)
_cell_angle_alpha 90
_cell_angle_beta 100.863(3)
_cell_angle_gamma 90
_cell_formula_units_Z 4
loop_
_atom_type_symbol
_atom_type_radius_bond
C 0.68
H 0.23
N 0.68
O 0.68
loop_
_atom_site_label
_atom_site_type_symbol
_atom_site_fract_x
_atom_site_fract_y
_atom_site_fract_z
C1 C 0.1658(2) 0.2892(4) 0.05575(12)
C2 C 0.1288(2) 0.4467(4) 0.10214(13)
C3 C 0.1985(3) 0.6072(4) 0.11896(16)
H1 H 0.17590 0.70100 0.15000
C4 C 0.3090(3) 0.6466(4) 0.09200(17)
H2 H 0.37620 0.61570 0.12940
H3 H 0.31280 0.78780 0.08050
C5 C 0.3161(3) 0.5241(4) 0.02658(17)
H4 H 0.39520 0.53350 0.01640
H5 H 0.26160 0.57820 -0.01420
C6 C 0.2861(2) 0.3038(4) 0.03665(14)
H6 H 0.28270 0.23600 -0.00940
C7 C 0.0180(2) 0.4245(4) 0.13065(13)
C8 C -0.0093(2) 0.2473(5) 0.16312(14)
H7 H 0.04010 0.13660 0.16420
C9 C -0.1095(3) 0.2341(6) 0.19392(17)
H8 H -0.12690 0.11500 0.21520
C10 C -0.1823(3) 0.3964(7) 0.1929(2)
H9 H -0.24920 0.38750 0.21340
C11 C -0.1569(3) 0.5722(6) 0.1616(2)
H10 H -0.20650 0.68230 0.16120
C12 C -0.0580(3) 0.5864(5) 0.13062(16)
H11 H -0.04200 0.70620 0.10940
C13 C 0.3817(2) 0.2014(4) 0.09131(14)
C14 C 0.3692(2) 0.1496(4) 0.15985(15)
H12 H 0.29810 0.17500 0.17450
C15 C 0.4606(3) 0.0608(5) 0.20711(17)
H13 H 0.45040 0.02730 0.25300
C16 C 0.5663(3) 0.0218(5) 0.1865(2)
H14 H 0.62790 -0.03730 0.21840
C17 C 0.5799(3) 0.0707(5) 0.1188(2)
H15 H 0.65120 0.04400 0.10450
C18 C 0.4893(2) 0.1593(5) 0.07157(18)
H16 H 0.50020 0.19150 0.02570
N1 N 0.09129(17) 0.1496(3) 0.03318(11)
O1 O 0.13689(15) 0.0081(3) -0.00950(11)
H17 H 0.08540 -0.07360 -0.02530
#END
