
#######################################################################
#
#                 Cambridge Crystallographic Data Centre
#                                CCDC
#
#######################################################################
#
# If this CIF has been generated from an entry in the Cambridge
# Structural Database, then it will include bibliographic, chemical,
# crystal, experimental, refinement or atomic coordinate data resulting
# from the CCDC's data processing and validation procedures.
#
#######################################################################

data_CSD_CIF_EXAHUH
_audit_creation_date 2011-09-23
_audit_creation_method CSD-ConQuest-V1
_database_code_CSD EXAHUH
_database_code_depnum_ccdc_archive 'CCDC 803794'
_chemical_formula_sum 'C17 H16 N2 O7'
_chemical_formula_moiety
;
C17 H16 N2 O7
;
_journal_coden_Cambridge 1220
_journal_volume 17
_journal_year 2011
_journal_page_first 8098
_journal_name_full 'Chem.-Eur.J. '
loop_
_publ_author_name
"V.M.Marx"
"R.L.Stoddard"
"G.S.Heverly-Coulson"
"D.J.Burnell"
_chemical_name_systematic
;
1-Methyl-3-oxo-3,4,5,6,7,7a-hexahydro-3aH-inden-3a-yl 3,5-dinitrobenzoate
;
_cell_volume   1693.034
_exptl_crystal_colour 'colorless'
_exptl_crystal_density_diffrn 1.414
_exptl_crystal_description 'plate'
_diffrn_ambient_temperature 298.1
#These two values have been output from a single CSD field.
_refine_ls_R_factor_gt 0.0496
_refine_ls_wR_factor_gt 0.0496
_symmetry_cell_setting triclinic
_symmetry_space_group_name_H-M 'P -1'
_symmetry_Int_Tables_number 2
loop_
_symmetry_equiv_pos_site_id
_symmetry_equiv_pos_as_xyz
1 x,y,z
2 -x,-y,-z
_cell_length_a 10.9142(12)
_cell_length_b 11.9957(12)
_cell_length_c 13.3277(7)
_cell_angle_alpha 87.550(11)
_cell_angle_beta 76.214(11)
_cell_angle_gamma 89.882(15)
_cell_formula_units_Z 4
loop_
_atom_type_symbol
_atom_type_radius_bond
C 0.68
H 0.23
N 0.68
O 0.68
loop_
_atom_site_label
_atom_site_type_symbol
_atom_site_fract_x
_atom_site_fract_y
_atom_site_fract_z
O1 O 0.4621(2) 0.85280(19) 0.05862(16)
O2 O 0.45583(18) 0.86410(16) -0.10035(15)
O3 O 0.65500(17) 0.57448(16) -0.32956(13)
O4 O 0.6770(2) 0.41595(17) -0.25592(16)
O5 O 0.66337(13) 0.54200(12) 0.19615(10)
O6 O 0.77954(16) 0.42199(13) 0.08632(12)
O7 O 0.62519(19) 0.31101(16) 0.28220(16)
O8 O 0.2732(3) 1.0965(2) -0.25745(17)
O9 O 0.2072(2) 0.95995(19) -0.32894(14)
O10 O -0.05579(18) 0.67710(17) -0.10922(14)
O11 O -0.0828(2) 0.6822(2) 0.05366(16)
O12 O 0.15430(14) 0.93664(13) 0.20775(11)
O13 O 0.25035(17) 1.08494(13) 0.11219(13)
O14 O 0.0560(2) 1.14051(18) 0.31420(16)
N1 N 0.4855(2) 0.81772(17) -0.02741(17)
N2 N 0.65823(18) 0.51556(18) -0.25394(15)
N3 N 0.2193(2) 1.0075(2) -0.25353(16)
N4 N -0.0346(2) 0.71635(18) -0.03338(16)
C1 C 0.65795(18) 0.55917(16) 0.02119(15)
C2 C 0.59396(19) 0.65987(17) 0.03738(16)
C3 C 0.55480(19) 0.71110(17) -0.04453(16)
C4 C 0.57503(19) 0.66804(18) -0.14079(16)
C5 C 0.63701(18) 0.56752(18) -0.15316(15)
C6 C 0.67899(19) 0.51201(17) -0.07457(16)
C7 C 0.7080(2) 0.49881(18) 0.10338(16)
C8 C 0.71320(19) 0.49755(17) 0.28240(15)
C9 C 0.85207(19) 0.52774(18) 0.27073(15)
C10 C 0.8765(2) 0.6432(2) 0.30628(19)
C11 C 0.7888(3) 0.6725(2) 0.4081(2)
C12 C 0.6531(2) 0.6605(2) 0.4021(2)
C13 C 0.6258(2) 0.5418(2) 0.38046(17)
C14 C 0.7092(2) 0.37005(19) 0.29517(17)
C15 C 0.8203(2) 0.33976(19) 0.33165(17)
C16 C 0.8982(2) 0.42595(19) 0.32224(16)
C17 C 1.0232(2) 0.4262(2) 0.3482(2)
C18 C 0.15844(19) 0.94628(17) 0.03020(16)
C19 C 0.2039(2) 0.99733(17) -0.06673(17)
C20 C 0.17217(19) 0.95254(18) -0.15091(15)
C21 C 0.0956(2) 0.85991(18) -0.14284(15)
C22 C 0.0518(2) 0.81254(18) -0.04533(16)
C23 C 0.0813(2) 0.85295(18) 0.04208(15)
C24 C 0.1930(2) 0.99798(18) 0.12002(17)
C25 C 0.1876(2) 0.97482(18) 0.30028(16)
C26 C 0.1082(2) 0.9039(2) 0.39021(18)
C27 C 0.1618(2) 0.7897(2) 0.4044(2)
C28 C 0.2935(2) 0.8004(2) 0.4203(2)
C29 C 0.3782(2) 0.8565(2) 0.32501(19)
C30 C 0.3298(2) 0.96880(18) 0.29377(16)
C31 C 0.3495(2) 1.0704(2) 0.35207(18)
C32 C 0.2543(2) 1.1413(2) 0.3625(2)
C33 C 0.1533(2) 1.0968(2) 0.32230(18)
C34 C 0.4696(3) 1.0873(2) 0.3841(2)
H1 H 0.57770 0.69190 0.10300
H2 H 0.54730 0.70510 -0.19570
H3 H 0.72210 0.44310 -0.08630
H4 H 0.89170 0.52680 0.19890
H5 H 0.96070 0.64570 0.31400
H6 H 0.86620 0.69700 0.25490
H7 H 0.80400 0.62350 0.46190
H8 H 0.80460 0.74710 0.42250
H9 H 0.59900 0.68010 0.46560
H10 H 0.63830 0.70870 0.34760
H11 H 0.54110 0.53760 0.37340
H12 H 0.63400 0.49510 0.43800
H13 H 0.83540 0.26730 0.35850
H14 H 1.05180 0.35210 0.35340
H15 H 1.08260 0.46690 0.29460
H16 H 1.01710 0.46140 0.41160
H17 H 0.25610 1.06210 -0.07540
H18 H 0.07440 0.83020 -0.20150
H19 H 0.04930 0.81750 0.10830
H20 H 0.10190 0.94250 0.45210
H21 H 0.02650 0.89460 0.37840
H22 H 0.10970 0.75190 0.46320
H23 H 0.16400 0.74870 0.34470
H24 H 0.29220 0.84410 0.47810
H25 H 0.32520 0.72840 0.43160
H26 H 0.45880 0.86700 0.33850
H27 H 0.38530 0.80770 0.26950
H28 H 0.37150 0.98380 0.22310
H29 H 0.25250 1.21200 0.39290
H30 H 0.50610 1.01670 0.39570
H31 H 0.45330 1.12790 0.44640
H32 H 0.52790 1.12980 0.33020
#END
