
#######################################################################
#
#                 Cambridge Crystallographic Data Centre
#                                CCDC
#
#######################################################################
#
# If this CIF has been generated from an entry in the Cambridge
# Structural Database, then it will include bibliographic, chemical,
# crystal, experimental, refinement or atomic coordinate data resulting
# from the CCDC's data processing and validation procedures.
#
#######################################################################

data_CSD_CIF_EXAJIX
_audit_creation_date 2011-09-23
_audit_creation_method CSD-ConQuest-V1
_database_code_CSD EXAJIX
_database_code_depnum_ccdc_archive 'CCDC 809562'
_chemical_formula_sum 'C17 H14 N2 O6'
_chemical_formula_moiety
;
C17 H14 N2 O6
;
_journal_coden_Cambridge 1220
_journal_volume 17
_journal_year 2011
_journal_page_first 8195
_journal_name_full 'Chem.-Eur.J. '
loop_
_publ_author_name
"A.S.K.Hashmi"
"T.Haffner"
"M.Rudolph"
"F.Rominger"
_chemical_name_systematic
;
6-Methyl-2,3-dihydro-1H-inden-5-yl 3,5-dinitrobenzoate
;
_cell_volume   3065.059
_exptl_crystal_colour 'colorless'
_exptl_crystal_density_diffrn 1.484
_exptl_crystal_description 'polyhedron'
_diffrn_ambient_temperature 200
#These two values have been output from a single CSD field.
_refine_ls_R_factor_gt 0.0749
_refine_ls_wR_factor_gt 0.0749
_symmetry_cell_setting monoclinic
_symmetry_space_group_name_H-M 'P 21/c'
_symmetry_Int_Tables_number 14
loop_
_symmetry_equiv_pos_site_id
_symmetry_equiv_pos_as_xyz
1 x,y,z
2 -x,1/2+y,1/2-z
3 -x,-y,-z
4 x,-1/2-y,-1/2+z
_cell_length_a 7.3218(12)
_cell_length_b 29.401(5)
_cell_length_c 14.241(2)
_cell_angle_alpha 90
_cell_angle_beta 91.111(5)
_cell_angle_gamma 90
_cell_formula_units_Z 8
loop_
_atom_type_symbol
_atom_type_radius_bond
C 0.68
H 0.23
N 0.68
O 0.68
loop_
_atom_site_label
_atom_site_type_symbol
_atom_site_fract_x
_atom_site_fract_y
_atom_site_fract_z
C1 C 0.4506(8) 0.3596(2) 0.2900(4)
O1 O 0.3772(6) 0.33418(13) 0.2361(3)
O2 O 0.5237(5) 0.34754(13) 0.3734(2)
C2 C 0.4698(7) 0.40922(19) 0.2729(4)
C3 C 0.4071(7) 0.4250(2) 0.1867(4)
H1 H 0.35870 0.40440 0.14120
C4 C 0.4155(8) 0.4703(2) 0.1675(4)
C5 C 0.4858(8) 0.5012(2) 0.2304(4)
H2 H 0.49190 0.53270 0.21590
C6 C 0.5473(8) 0.48458(19) 0.3156(4)
C7 C 0.5401(7) 0.43951(19) 0.3381(4)
H3 H 0.58290 0.42920 0.39780
N1 N 0.3427(7) 0.48642(19) 0.0764(3)
O3 O 0.2837(7) 0.45811(17) 0.0216(3)
O4 O 0.3446(7) 0.52705(16) 0.0621(3)
N2 N 0.6205(7) 0.51696(18) 0.3844(4)
O5 O 0.6173(7) 0.55712(16) 0.3644(4)
O6 O 0.6820(6) 0.50194(16) 0.4584(3)
C8 C 0.5026(7) 0.30259(19) 0.4051(4)
C9 C 0.4443(7) 0.2985(2) 0.4967(4)
C10 C 0.4311(8) 0.2548(2) 0.5326(4)
H4 H 0.39120 0.25060 0.59500
C11 C 0.4746(8) 0.2175(2) 0.4793(4)
C12 C 0.4677(9) 0.1680(2) 0.5033(4)
H5 H 0.33990 0.15710 0.50520
H6 H 0.52800 0.16210 0.56490
C13 C 0.5696(13) 0.1452(2) 0.4252(5)
H7 H 0.50530 0.11710 0.40510
H8 H 0.69450 0.13690 0.44700
C14 C 0.5783(9) 0.1784(2) 0.3443(4)
H9 H 0.70120 0.17850 0.31660
H10 H 0.48660 0.17070 0.29480
C15 C 0.5368(7) 0.22306(19) 0.3880(4)
C16 C 0.5514(8) 0.26608(19) 0.3508(4)
H11 H 0.59430 0.27040 0.28900
C17 C 0.4024(9) 0.3394(2) 0.5551(4)
H12 H 0.51490 0.35660 0.56730
H13 H 0.35100 0.32960 0.61490
H14 H 0.31380 0.35870 0.52140
C18 C 0.9513(7) 0.37408(19) 0.3965(4)
O7 O 0.8762(6) 0.39955(13) 0.4475(3)
O8 O 1.0278(5) 0.38661(13) 0.3145(2)
C19 C 0.9727(7) 0.32499(19) 0.4150(3)
C20 C 0.9116(7) 0.30993(19) 0.5015(4)
H15 H 0.86450 0.33080 0.54590
C21 C 0.9206(8) 0.26467(19) 0.5214(4)
C22 C 0.9880(8) 0.2332(2) 0.4600(4)
H16 H 0.99420 0.20180 0.47550
C23 C 1.0462(8) 0.24912(19) 0.3751(4)
C24 C 1.0411(7) 0.29418(19) 0.3513(4)
H17 H 1.08370 0.30410 0.29210
N3 N 0.8535(7) 0.24898(19) 0.6119(3)
O9 O 0.7935(6) 0.27734(15) 0.6650(3)
O10 O 0.8605(7) 0.20847(16) 0.6290(3)
N4 N 1.1171(7) 0.21617(17) 0.3080(4)
O11 O 1.1167(7) 0.17623(14) 0.3300(3)
O12 O 1.1730(6) 0.23060(15) 0.2338(3)
C25 C 1.0080(8) 0.43215(18) 0.2843(4)
C26 C 0.9456(8) 0.4376(2) 0.1929(4)
C27 C 0.9329(8) 0.4819(2) 0.1597(4)
H18 H 0.88920 0.48720 0.09740
C28 C 0.9820(8) 0.51795(19) 0.2148(4)
C29 C 0.9784(10) 0.5682(2) 0.1936(5)
H19 H 0.85220 0.58020 0.19440
H20 H 1.03150 0.57460 0.13150
C30 C 1.0943(12) 0.5887(2) 0.2720(5)
H21 H 1.22040 0.59390 0.25060
H22 H 1.04230 0.61810 0.29210
C31 C 1.0945(9) 0.5552(2) 0.3520(4)
H23 H 1.21580 0.55400 0.38390
H24 H 1.00130 0.56340 0.39860
C32 C 1.0494(8) 0.51092(19) 0.3056(4)
C33 C 1.0620(8) 0.46752(19) 0.3414(4)
H25 H 1.10660 0.46220 0.40350
C34 C 0.8972(9) 0.3981(2) 0.1315(4)
H26 H 1.00790 0.38080 0.11780
H27 H 0.84170 0.40920 0.07270
H28 H 0.81030 0.37850 0.16370
#END
