
#######################################################################
#
#                 Cambridge Crystallographic Data Centre
#                                CCDC
#
#######################################################################
#
# If this CIF has been generated from an entry in the Cambridge
# Structural Database, then it will include bibliographic, chemical,
# crystal, experimental, refinement or atomic coordinate data resulting
# from the CCDC's data processing and validation procedures.
#
#######################################################################

data_CSD_CIF_EXAKOD
_audit_creation_date 2004-09-21
_audit_creation_method CSD-ConQuest-V1
_database_code_CSD EXAKOD
_database_code_depnum_ccdc_archive 'CCDC 222197'
_chemical_formula_sum 'C21 H25 N3 O6'
_chemical_formula_moiety
;
C21 H25 N3 O6
;
_journal_coden_Cambridge 1090
_journal_volume 15
_journal_year 2004
_journal_page_first 1301
_journal_name_full 'Tetrahedron:Asymm. '
loop_
_publ_author_name
"M.Andrei"
"J.Efskind"
"T.Viljugrein"
"C.Romming"
"K.Undheim"
_chemical_name_systematic
;
4-Nitrobenzoic acid 
(3R,7R,8aS)-8a-allyl-3-isopropyl-1-methoxy-3,4,6,7,8,8a-tetrahydropyrrolo(1,2-
a)pyrazin-7-yl ester
;
_chemical_melting_point 410.15
_cell_volume   1037.363
_exptl_crystal_colour 'pale yellow'
_exptl_crystal_density_diffrn 1.33
_exptl_special_details
;
Melting point range 410.15-412.15K

;
_diffrn_ambient_temperature 105
_refine_special_details
;
The allyl side chain is equally disordered over two sites.

;
#These two values have been output from a single CSD field.
_refine_ls_R_factor_gt 0.0364
_refine_ls_wR_factor_gt 0.0364
_symmetry_cell_setting monoclinic
_symmetry_space_group_name_H-M 'P 21'
_symmetry_Int_Tables_number 4
loop_
_symmetry_equiv_pos_site_id
_symmetry_equiv_pos_as_xyz
1 x,y,z
2 -x,1/2+y,-z
_cell_length_a 10.5345(7)
_cell_length_b 7.1721(5)
_cell_length_c 13.9264(9)
_cell_angle_alpha 90
_cell_angle_beta 99.634(2)
_cell_angle_gamma 90
_cell_formula_units_Z 2
loop_
_atom_type_symbol
_atom_type_radius_bond
C 0.68
H 0.23
N 0.68
O 0.68
loop_
_atom_site_label
_atom_site_type_symbol
_atom_site_fract_x
_atom_site_fract_y
_atom_site_fract_z
O1 O 0.93604(11) 0.4260(2) 0.38705(7)
O2 O 0.42408(11) 0.40298(18) 0.37142(8)
O3 O 0.73532(12) 0.47035(16) 0.69762(7)
O4 O 0.78620(15) 0.22723(17) 0.79767(9)
O5 O 0.91700(14) 0.85519(19) 1.17801(8)
O6 O 0.84986(17) 1.07913(19) 1.08076(9)
N1 N 0.87222(13) 0.9148(2) 1.09732(9)
N2 N 0.73890(13) 0.3894(2) 0.29169(9)
N3 N 0.62262(12) 0.45658(17) 0.45601(8)
C1 C 0.80636(15) 0.4221(3) 0.37363(10)
C2 C 0.99498(18) 0.4036(4) 0.30159(12)
H1 H 1.08880 0.40190 0.32060
H2 H 0.96990 0.50760 0.25680
H3 H 0.96630 0.28600 0.26920
C3 C 0.59931(15) 0.3772(2) 0.28236(10)
H4 H 0.5718(18) 0.244(3) 0.2682(13)
C4 C 0.54069(15) 0.4180(2) 0.37302(10)
C5 C 0.76239(14) 0.4707(2) 0.46809(10)
C6 C 0.58272(17) 0.4296(3) 0.55144(10)
H5 H 0.50750 0.34510 0.54580
H6 H 0.55980 0.55030 0.57860
C7 C 0.6988(2) 0.3439(2) 0.61539(11)
H7 H 0.6799(19) 0.233(3) 0.6409(14)
C8 C 0.8036(2) 0.3308(3) 0.55244(12)
H8 H 0.80890 0.20260 0.52690
H9 H 0.88840 0.36530 0.59030
C9 C 0.53020(16) 0.4852(3) 0.19235(11)
H10 H 0.43560 0.47850 0.19340
C10 C 0.56716(19) 0.6892(3) 0.19497(14)
H11 H 0.54400 0.74740 0.25330
H12 H 0.52120 0.75180 0.13680
H13 H 0.66020 0.70060 0.19650
C11 C 0.5544(2) 0.3894(4) 0.09903(12)
H14 H 0.64710 0.37030 0.10200
H15 H 0.52130 0.46800 0.04280
H16 H 0.51030 0.26860 0.09240
C12 C 0.77401(14) 0.3921(2) 0.78464(10)
C13 C 0.79865(13) 0.5346(2) 0.86390(9)
C14 C 0.83836(16) 0.4701(2) 0.95864(10)
H17 H 0.84850 0.34010 0.97060
C15 C 0.86300(16) 0.5947(2) 1.03523(10)
H18 H 0.89090 0.55210 1.09990
C16 C 0.84613(14) 0.7817(2) 1.01562(10)
C17 C 0.80602(14) 0.8506(2) 0.92252(10)
H19 H 0.79520 0.98080 0.91130
C18 C 0.78205(13) 0.7241(2) 0.84613(9)
H20 H 0.75420 0.76740 0.78160
C19 C 0.80642(19) 0.6701(3) 0.49883(12)
H21 H 0.7630(19) 0.705(3) 0.5576(15)
H22 H 0.895(2) 0.665(4) 0.5180(17)
C20 C 0.7508(4) 0.8214(6) 0.4207(3)
H23 H 0.664(5) 0.827(8) 0.395(4)
C21? C 0.8085(5) 0.7889(6) 0.4158(3)
H24? H 0.859(5) 0.734(7) 0.364(3)
C22 C 0.8257(5) 0.9225(7) 0.3756(3)
H25 H 0.782(3) 1.005(5) 0.334(2)
H26 H 0.898(5) 0.920(8) 0.389(4)
C23? C 0.7524(5) 0.9462(8) 0.4126(4)
H27? H 0.690(6) 0.969(9) 0.461(4)
#END
