
#######################################################################
#
#                 Cambridge Crystallographic Data Centre
#                                CCDC
#
#######################################################################
#
# If this CIF has been generated from an entry in the Cambridge
# Structural Database, then it will include bibliographic, chemical,
# crystal, experimental, refinement or atomic coordinate data resulting
# from the CCDC's data processing and validation procedures.
#
#######################################################################

data_CSD_CIF_EXELAW
_audit_creation_date 2016-10-04
_audit_creation_method CSD-ConQuest-V1
_database_code_CSD EXELAW
_database_code_depnum_ccdc_archive 'CCDC 1469196'
_chemical_formula_sum 'C23 H23 N1 O6'
_chemical_formula_moiety
;
C23 H23 N1 O6
;
_journal_coden_Cambridge 917
_journal_volume 12
_journal_year 2016
_journal_page_first 1236
_journal_name_full 'Beilstein J.Org.Chem. '
loop_
_publ_author_name
"J.Saadi"
"C.Bentz"
"K.Redies"
"D.Lentz"
"R.Zimmer"
"H.-U.Reissig"
_chemical_name_systematic
;
methyl 
4b-((4-nitrobenzoyl)oxy)-4b,5,6,7,8,8a,9,10-octahydrophenanthrene-9-carboxylat
e
;
_cell_volume   4089.717
_exptl_crystal_colour 'colorless'
_exptl_crystal_density_diffrn 1.33
_exptl_crystal_description 'prism'
_diffrn_ambient_temperature 133
#These two values have been output from a single CSD field.
_refine_ls_R_factor_gt 0.04
_refine_ls_wR_factor_gt 0.04
_symmetry_cell_setting monoclinic
_symmetry_space_group_name_H-M 'P 21/n'
_symmetry_Int_Tables_number 14
loop_
_symmetry_equiv_pos_site_id
_symmetry_equiv_pos_as_xyz
1 x,y,z
2 1/2-x,1/2+y,1/2-z
3 -x,-y,-z
4 -1/2+x,-1/2-y,-1/2+z
_cell_length_a 14.1087(19)
_cell_length_b 13.1931(13)
_cell_length_c 22.030(2)
_cell_angle_alpha 90
_cell_angle_beta 94.177(7)
_cell_angle_gamma 90
_cell_formula_units_Z 8
loop_
_atom_type_symbol
_atom_type_radius_bond
C 0.68
H 0.23
N 0.68
O 0.68
loop_
_atom_site_label
_atom_site_type_symbol
_atom_site_fract_x
_atom_site_fract_y
_atom_site_fract_z
C1 C 0.12217(11) 0.93024(11) 0.16119(7)
H1 H 0.06540 0.93340 0.13130
C2 C 0.19263(12) 0.85597(12) 0.13681(7)
H2 H 0.19760 0.86930 0.09290
H3 H 0.25600 0.86770 0.15790
C3 C 0.16517(11) 0.74624(12) 0.14505(6)
C4 C 0.21818(12) 0.67193(13) 0.11734(7)
H4 H 0.26880 0.69220 0.09380
C5 C 0.19895(13) 0.56998(13) 0.12325(7)
H5 H 0.23620 0.52090 0.10430
C6 C 0.12490(12) 0.53969(13) 0.15703(8)
H6 H 0.11040 0.46980 0.16080
C7 C 0.07217(11) 0.61203(12) 0.18523(7)
H7 H 0.02180 0.59080 0.20860
C8 C 0.09119(11) 0.71551(11) 0.18013(7)
C9 C 0.03457(10) 0.79349(12) 0.21366(7)
C10 C 0.08866(11) 0.89382(11) 0.22249(6)
H8 H 0.04350 0.94550 0.23670
C11 C 0.17211(11) 0.88557(13) 0.27071(7)
H9 H 0.22130 0.84080 0.25530
H10 H 0.20070 0.95350 0.27770
C12 C 0.14225(13) 0.84371(14) 0.33101(7)
H11 H 0.19940 0.83220 0.35890
H12 H 0.10170 0.89400 0.35010
C13 C 0.08805(12) 0.74485(13) 0.32165(7)
H13 H 0.06560 0.72190 0.36090
H14 H 0.13090 0.69220 0.30710
C14 C 0.00306(11) 0.75843(13) 0.27537(7)
H15 H -0.04100 0.80910 0.29080
H16 H -0.03150 0.69330 0.27020
C15 C -0.12576(11) 0.76874(12) 0.16050(7)
C16 C -0.19663(11) 0.82212(12) 0.11714(7)
C17 C -0.28432(11) 0.77537(12) 0.10287(7)
H17 H -0.29970 0.71420 0.12270
C18 C -0.34880(11) 0.81809(13) 0.05993(7)
H18 H -0.40870 0.78700 0.04990
C19 C -0.32404(11) 0.90722(13) 0.03187(7)
C20 C -0.23900(11) 0.95634(12) 0.04626(7)
H19 H -0.22460 1.01830 0.02700
C21 C -0.17510(11) 0.91307(12) 0.08948(7)
H20 H -0.11630 0.94580 0.10020
C22 C 0.16398(11) 1.03556(12) 0.16711(7)
C23 C 0.14411(14) 1.19776(13) 0.20917(9)
H21 H 0.19600 1.19180 0.24100
H22 H 0.09390 1.24080 0.22370
H23 H 0.16820 1.22820 0.17270
N1 N -0.3897(1) 0.95132(12) -0.01631(6)
O1 O 0.23870(9) 1.06166(10) 0.14968(6)
O2 O 0.10606(8) 1.09832(9) 0.19446(6)
O3 O -0.04939(7) 0.82687(8) 0.17340(5)
O4 O -0.13831(8) 0.68451(9) 0.17951(5)
O5 O -0.37119(9) 1.03514(10) -0.03626(6)
O6 O -0.45915(9) 0.90092(11) -0.03434(6)
C24 C 0.82928(11) 0.44808(12) 0.19562(7)
H24 H 0.85450 0.50410 0.17080
C25 C 0.74574(11) 0.49255(12) 0.22673(7)
H25 H 0.72720 0.44490 0.25850
H26 H 0.76600 0.55670 0.24710
C26 C 0.66039(11) 0.51307(11) 0.18299(7)
C27 C 0.58853(12) 0.57528(12) 0.20251(7)
H27 H 0.59550 0.60400 0.24210
C28 C 0.50747(12) 0.59615(13) 0.16559(8)
H28 H 0.46040 0.64050 0.17930
C29 C 0.49534(12) 0.55208(13) 0.10857(8)
H29 H 0.43920 0.56480 0.08330
C30 C 0.56511(11) 0.48951(12) 0.08853(7)
H30 H 0.55570 0.45870 0.04960
C31 C 0.64941(11) 0.47049(11) 0.12430(7)
C32 C 0.72995(11) 0.40918(11) 0.09939(6)
C33 C 0.79723(11) 0.36412(11) 0.15055(7)
H31 H 0.85490 0.33830 0.13170
C34 C 0.75078(12) 0.27421(12) 0.18097(7)
H32 H 0.79660 0.24480 0.21230
H33 H 0.69500 0.29840 0.20150
C35 C 0.71924(13) 0.19227(13) 0.13485(8)
H34 H 0.77580 0.16210 0.11780
H35 H 0.68550 0.13790 0.15550
C36 C 0.65385(13) 0.23646(13) 0.08357(8)
H36 H 0.59380 0.25890 0.10000
H37 H 0.63820 0.18340 0.05270
C37 C 0.70025(12) 0.32630(12) 0.05345(7)
H38 H 0.75690 0.30240 0.03360
H39 H 0.65500 0.35490 0.02150
C38 C 0.76503(11) 0.53955(12) 0.02311(6)
C39 C 0.83842(11) 0.61620(12) 0.00904(6)
C40 C 0.93277(11) 0.60955(12) 0.03181(7)
H40 H 0.95330 0.55370 0.05660
C41 C 0.99683(12) 0.68442(13) 0.01826(7)
H41 H 1.06180 0.68020 0.03280
C42 C 0.96370(12) 0.76533(13) -0.01700(7)
C43 C 0.87019(12) 0.77437(13) -0.03993(7)
H42 H 0.84960 0.83130 -0.06380
C44 C 0.80777(12) 0.69825(12) -0.02705(6)
H43 H 0.74340 0.70180 -0.04290
C45 C 0.91082(12) 0.41455(13) 0.23917(7)
C46 C 1.00101(15) 0.45275(17) 0.33118(9)
H44 H 0.99990 0.38150 0.34370
H45 H 0.99810 0.49640 0.36700
H46 H 1.05980 0.46650 0.31150
N2 N 1.03034(12) 0.84719(12) -0.02989(7)
O7 O 0.96456(10) 0.34686(11) 0.23024(7)
O8 O 0.91995(9) 0.47324(10) 0.28864(5)
O9 O 0.79481(7) 0.48212(8) 0.07071(4)
O10 O 0.68913(8) 0.53355(9) -0.00565(5)
O11 O 1.11398(10) 0.83724(11) -0.01194(7)
O12 O 0.99902(12) 0.92159(13) -0.05723(9)
#END
