
#######################################################################
#
#                 Cambridge Crystallographic Data Centre
#                                CCDC
#
#######################################################################
#
# If this CIF has been generated from an entry in the Cambridge
# Structural Database, then it will include bibliographic, chemical,
# crystal, experimental, refinement or atomic coordinate data resulting
# from the CCDC's data processing and validation procedures.
#
#######################################################################

data_CSD_CIF_EXEPIG
_audit_creation_date 2004-09-21
_audit_creation_method CSD-ConQuest-V1
_database_code_CSD EXEPIG
_database_code_depnum_ccdc_archive 'CCDC 226174'
_chemical_formula_sum 'C19 H13 N1 O7'
_chemical_formula_moiety
;
C19 H13 N1 O7
;
_journal_coden_Cambridge 603
_journal_volume 23
_journal_year 2004
_journal_page_first 586
_journal_name_full 'Jiegou Huaxue(Chin.)(Chin.J.Struct.Chem.) '
loop_
_publ_author_name
"Yuan Gao"
"Jiang-Hong Liu"
"Yi Huang"
_chemical_name_systematic
;
10-(4-Nitrophenyl)-2,7-dimethyl-4,5-dioxo-3,6,9-trioxa-3,4,5,6,9,10-hexahydroa
nthracene
;
_chemical_name_common
;
10-(4-Nitrophenyl)-3,7-dimethyl-1H,9H,10H-dipyrano(3,4-e:4',3'-b)pyran-1,9-dio
ne
;
_cell_volume   1662.979
_exptl_crystal_density_diffrn 1.467
_diffrn_ambient_temperature 296
#These two values have been output from a single CSD field.
_refine_ls_R_factor_gt 0.038
_refine_ls_wR_factor_gt 0.038
_symmetry_cell_setting monoclinic
_symmetry_space_group_name_H-M 'P 21/c'
_symmetry_Int_Tables_number 14
loop_
_symmetry_equiv_pos_site_id
_symmetry_equiv_pos_as_xyz
1 x,y,z
2 x,1/2-y,1/2+z
3 -x,-y,-z
4 -x,-1/2+y,-1/2-z
_cell_length_a 10.669(1)
_cell_length_b 11.544(1)
_cell_length_c 14.045(2)
_cell_angle_alpha 90
_cell_angle_beta 105.98(1)
_cell_angle_gamma 90
_cell_formula_units_Z 4
loop_
_atom_type_symbol
_atom_type_radius_bond
C 0.68
H 0.23
N 0.68
O 0.68
loop_
_atom_site_label
_atom_site_type_symbol
_atom_site_fract_x
_atom_site_fract_y
_atom_site_fract_z
O1 O 0.42031(11) 0.20846(10) 0.20162(9)
O2 O 0.43836(13) 0.33490(11) 0.08767(10)
O3 O 0.66661(11) -0.02209(10) 0.12585(8)
O4 O 0.81948(12) 0.01404(12) -0.10914(9)
O5 O 0.72169(15) 0.18354(12) -0.15123(10)
O6 O 0.97466(18) 0.66154(14) 0.12119(14)
O7 O 1.09303(17) 0.54515(15) 0.22545(14)
N1 N 0.99710(17) 0.56654(14) 0.15818(14)
C1 C 0.47320(17) 0.24213(16) 0.12559(12)
C2 C 0.56247(15) 0.16325(14) 0.09939(11)
C3 C 0.58697(15) 0.06153(14) 0.14755(12)
C4 C 0.53080(16) 0.03021(16) 0.22456(12)
H1 H 0.55010 -0.04060 0.25680
C5 C 0.45000(17) 0.10448(16) 0.24946(12)
C6 C 0.37854(19) 0.08781(19) 0.32568(14)
H2 H 0.28670 0.08280 0.29390
H3 H 0.39530 0.15230 0.37060
H4 H 0.40750 0.01760 0.36170
C7 C 0.74247(17) 0.10582(17) -0.09240(13)
C8 C 0.69571(15) 0.09711(14) -0.00568(11)
C9 C 0.71649(16) -0.00192(15) 0.04697(12)
C10 C 0.79120(17) -0.09457(16) 0.02478(14)
H5 H 0.80480 -0.16170 0.06280
C11 C 0.84149(18) -0.08335(17) -0.05177(15)
C12 C 0.9229(2) -0.1686(2) -0.08735(17)
H6 H 0.95280 -0.22730 -0.03790
H7 H 0.99650 -0.12970 -0.09950
H8 H 0.87190 -0.20370 -0.14750
C13 C 0.62645(15) 0.20087(14) 0.02120(11)
H9 H 0.55890 0.22640 -0.03760
C14 C 0.72333(15) 0.29995(13) 0.05691(11)
C15 C 0.72887(17) 0.39360(15) -0.00393(12)
H10 H 0.67220 0.39680 -0.06740
C16 C 0.81724(17) 0.48181(15) 0.02857(13)
H11 H 0.81890 0.54590 -0.01120
C17 C 0.90334(16) 0.47267(14) 0.12181(13)
C18 C 0.90162(16) 0.38068(14) 0.18324(13)
H12 H 0.96100 0.37630 0.24560
C19 C 0.81026(16) 0.29501(14) 0.15068(12)
H13 H 0.80670 0.23290 0.19210
#END
