
#######################################################################
#
#                 Cambridge Crystallographic Data Centre
#                                CCDC
#
#######################################################################
#
# If this CIF has been generated from an entry in the Cambridge
# Structural Database, then it will include bibliographic, chemical,
# crystal, experimental, refinement or atomic coordinate data resulting
# from the CCDC's data processing and validation procedures.
#
#######################################################################

data_CSD_CIF_EXETEI
_audit_creation_date 2016-10-04
_audit_creation_method CSD-ConQuest-V1
_database_code_CSD EXETEI
_database_code_depnum_ccdc_archive 'CCDC 1447086'
_chemical_formula_sum 'C10 H8 N4 O5'
_chemical_formula_moiety
;
C10 H8 N4 O5
;
_journal_coden_Cambridge 214
_journal_volume 147
_journal_year 2016
_journal_page_first 1063
_journal_name_full 'Monatsh.Chem. '
loop_
_publ_author_name
"Zahia Cheurfa"
"L.Hennig"
"J.Sieler"
"D.Sicker"
"M.Khodja"
_chemical_name_systematic
;
methyl (9-nitro-2-oxo-2H-pyrido[1,2-b][1,2,4]triazin-3-yl)acetate
;
_cell_volume    547.760
_exptl_crystal_colour 'yellow'
_exptl_crystal_density_diffrn 1.602
_exptl_crystal_description 'needles'
_diffrn_ambient_temperature 213
#These two values have been output from a single CSD field.
_refine_ls_R_factor_gt 0.0315
_refine_ls_wR_factor_gt 0.0315
_symmetry_cell_setting triclinic
_symmetry_space_group_name_H-M 'P -1'
_symmetry_Int_Tables_number 2
loop_
_symmetry_equiv_pos_site_id
_symmetry_equiv_pos_as_xyz
1 x,y,z
2 -x,-y,-z
_cell_length_a 7.416(1)
_cell_length_b 7.673(1)
_cell_length_c 10.698(2)
_cell_angle_alpha 106.01(2)
_cell_angle_beta 103.74(2)
_cell_angle_gamma 100.59(2)
_cell_formula_units_Z 2
loop_
_atom_type_symbol
_atom_type_radius_bond
C 0.68
H 0.23
N 0.68
O 0.68
loop_
_atom_site_label
_atom_site_type_symbol
_atom_site_fract_x
_atom_site_fract_y
_atom_site_fract_z
C1 C 0.73926(18) 0.23332(18) 0.75024(13)
C2 C 0.99424(19) 0.24946(17) 0.92662(13)
C3 C 1.0877(2) 0.26658(18) 1.06432(14)
C4 C 1.2741(2) 0.2659(2) 1.10937(16)
C5 C 1.3833(2) 0.2537(2) 1.01893(17)
C6 C 1.2991(2) 0.2303(2) 0.88653(17)
C7 C 0.85520(18) 0.17635(17) 0.65951(13)
C8 C 0.7629(2) 0.1086(2) 0.50843(15)
C9 C 0.6803(2) 0.2467(2) 0.45256(14)
C10 C 0.7371(3) 0.5606(3) 0.4575(2)
N1 N 1.03235(16) 0.17615(15) 0.70295(11)
N2 N 1.10831(15) 0.22400(15) 0.84249(11)
N3 N 0.81331(15) 0.25330(15) 0.88430(11)
N4 N 0.97557(17) 0.28394(16) 1.16002(12)
O1 O 0.53525(16) 0.20213(16) 0.36016(12)
O2 O 0.79152(14) 0.42095(14) 0.51454(10)
O3 O 0.58273(13) 0.25933(14) 0.70353(10)
O4 O 0.88752(16) 0.40334(15) 1.16998(11)
O5 O 0.9797(2) 0.17869(16) 1.22747(12)
H1 H 1.329(2) 0.279(2) 1.2018(18)
H2 H 1.510(3) 0.259(2) 1.0438(19)
H3 H 1.359(2) 0.221(2) 0.8188(18)
H4 H 0.662(2) -0.003(2) 0.4834(14)
H5 H 0.855(2) 0.078(2) 0.4609(16)
H6 H 0.610(3) 0.562(3) 0.451(2)
H7 H 0.747(3) 0.535(3) 0.371(2)
H8 H 0.824(3) 0.678(3) 0.514(2)
#END
