
#######################################################################
#
#                 Cambridge Crystallographic Data Centre
#                                CCDC
#
#######################################################################
#
# If this CIF has been generated from an entry in the Cambridge
# Structural Database, then it will include bibliographic, chemical,
# crystal, experimental, refinement or atomic coordinate data resulting
# from the CCDC's data processing and validation procedures.
#
#######################################################################

data_CSD_CIF_EXEYUD
_audit_creation_date 2016-10-04
_audit_creation_method CSD-ConQuest-V1
_database_code_CSD EXEYUD
_database_code_depnum_ccdc_archive 'CCDC 1469195'
_chemical_formula_sum 'C22 H21 N1 O6'
_chemical_formula_moiety
;
C22 H21 N1 O6
;
_journal_coden_Cambridge 917
_journal_volume 12
_journal_year 2016
_journal_page_first 1236
_journal_name_full 'Beilstein J.Org.Chem. '
loop_
_publ_author_name
"J.Saadi"
"C.Bentz"
"K.Redies"
"D.Lentz"
"R.Zimmer"
"H.-U.Reissig"
_chemical_name_systematic
;
methyl 
9b-((4-nitrobenzoyl)oxy)-2,3,3a,4,5,9b-hexahydro-1H-cyclopenta[a]naphthalene-4
-carboxylate
;
_cell_volume   1827.657
_exptl_crystal_colour 'colorless'
_exptl_crystal_density_diffrn 1.437
_exptl_crystal_description 'prism'
_diffrn_ambient_temperature 133
#These two values have been output from a single CSD field.
_refine_ls_R_factor_gt 0.0395
_refine_ls_wR_factor_gt 0.0395
_symmetry_cell_setting monoclinic
_symmetry_space_group_name_H-M 'P 21/c'
_symmetry_Int_Tables_number 14
loop_
_symmetry_equiv_pos_site_id
_symmetry_equiv_pos_as_xyz
1 x,y,z
2 -x,1/2+y,1/2-z
3 -x,-y,-z
4 x,-1/2-y,-1/2+z
_cell_length_a 21.173(4)
_cell_length_b 10.734(2)
_cell_length_c 8.0449(16)
_cell_angle_alpha 90
_cell_angle_beta 91.603(4)
_cell_angle_gamma 90
_cell_formula_units_Z 4
loop_
_atom_type_symbol
_atom_type_radius_bond
C 0.68
H 0.23
N 0.68
O 0.68
loop_
_atom_site_label
_atom_site_type_symbol
_atom_site_fract_x
_atom_site_fract_y
_atom_site_fract_z
C1 C 0.35488(7) 0.37944(15) 0.1711(2)
H1 H 0.32440 0.30870 0.17960
C2 C 0.34531(7) 0.44006(15) -0.00106(19)
H2 H 0.34290 0.37170 -0.08540
C3 C 0.39806(8) 0.52963(17) -0.0518(2)
H3 H 0.41290 0.58120 0.04360
H4 H 0.43440 0.48350 -0.09620
C4 C 0.36609(8) 0.60907(17) -0.1856(2)
H5 H 0.36000 0.56220 -0.29070
H6 H 0.39060 0.68570 -0.20700
C5 C 0.30325(8) 0.63889(14) -0.1076(2)
H7 H 0.27130 0.66280 -0.19410
H8 H 0.30810 0.70810 -0.02690
C6 C 0.28351(7) 0.51794(14) -0.01940(18)
C7 C 0.24919(7) 0.54535(13) 0.13907(18)
C8 C 0.18946(7) 0.60032(14) 0.12788(19)
H9 H 0.17040 0.61560 0.02160
C9 C 0.15771(7) 0.63290(14) 0.2693(2)
H10 H 0.11740 0.67170 0.26020
C10 C 0.18508(8) 0.60857(14) 0.4244(2)
H11 H 0.16330 0.62970 0.52220
C11 C 0.24385(7) 0.55369(15) 0.43665(19)
H12 H 0.26200 0.53610 0.54350
C12 C 0.27729(7) 0.52343(14) 0.29519(19)
C13 C 0.34281(8) 0.47005(16) 0.3113(2)
H13 H 0.34790 0.42650 0.41930
H14 H 0.37420 0.53840 0.30890
C14 C 0.42103(7) 0.32738(15) 0.18596(19)
C15 C 0.48488(9) 0.15447(18) 0.1301(3)
H15 H 0.51250 0.19690 0.05240
H16 H 0.48090 0.06650 0.09900
H17 H 0.50310 0.16080 0.24310
C16 C 0.21435(7) 0.34678(14) -0.10526(18)
C17 C 0.15473(7) 0.32056(14) -0.20208(18)
C18 C 0.13703(7) 0.19611(14) -0.22356(19)
H18 H 0.16340 0.13160 -0.17990
C19 C 0.08150(7) 0.16665(14) -0.30797(19)
H19 H 0.06920 0.08230 -0.32440
C20 C 0.04423(7) 0.26309(15) -0.36801(19)
C21 C 0.05967(7) 0.38688(15) -0.3463(2)
H20 H 0.03260 0.45100 -0.38760
C22 C 0.11589(7) 0.41509(14) -0.26241(19)
H21 H 0.12790 0.49960 -0.24620
N1 N -0.01448(6) 0.23231(13) -0.46108(17)
O1 O 0.46646(5) 0.38020(12) 0.24375(17)
O2 O 0.42338(6) 0.21216(11) 0.12406(16)
O3 O 0.23804(5) 0.27393(10) -0.00869(14)
O4 O 0.23718(5) 0.46092(9) -0.13785(12)
O5 O -0.04084(5) 0.31511(12) -0.54192(15)
O6 O -0.03425(6) 0.12558(12) -0.45432(18)
#END
