
#######################################################################
#
#                 Cambridge Crystallographic Data Centre
#                                CCDC
#
#######################################################################
#
# If this CIF has been generated from an entry in the Cambridge
# Structural Database, then it will include bibliographic, chemical,
# crystal, experimental, refinement or atomic coordinate data resulting
# from the CCDC's data processing and validation procedures.
#
#######################################################################

data_CSD_CIF_EXIFOG
_audit_creation_date 2004-09-21
_audit_creation_method CSD-ConQuest-V1
_database_code_CSD EXIFOG
_database_code_depnum_ccdc_archive 'CCDC 217584'
_chemical_formula_sum 'C8 H12 N3 O1'
_chemical_formula_moiety
;
C8 H12 N3 O1
;
_journal_coden_Cambridge 580
_journal_volume 23
_journal_year 2004
_journal_page_first 763
_journal_name_full 'Polyhedron '
loop_
_publ_author_name
"E.V.Tretyakov"
"O.V.Koreneva"
"G.V.Romanenko"
"Yu.G.Shvedenkov"
"V.I.Ovcharenko"
_chemical_name_systematic
;
4,4,5,5-Tetramethyl-1-oxyl-4,5-dihydro-1H-imidazole-2-carbonitrile radical
;
_cell_volume    479.335
_exptl_crystal_density_diffrn 1.152
_exptl_crystal_preparation 'hexane'
_diffrn_ambient_temperature 293
_refine_special_details
;
The O atom has symmetry-imposed disorder.

;
#These two values have been output from a single CSD field.
_refine_ls_R_factor_gt 0.0566
_refine_ls_wR_factor_gt 0.0566
_symmetry_cell_setting tetragonal
_symmetry_space_group_name_H-M 'P -4 21 m'
_symmetry_Int_Tables_number 113
loop_
_symmetry_equiv_pos_site_id
_symmetry_equiv_pos_as_xyz
1 x,y,z
2 -x,-y,z
3 1/2+x,1/2-y,-z
4 1/2-x,1/2+y,-z
5 1/2+y,1/2+x,z
6 1/2-y,1/2-x,z
7 -y,x,-z
8 y,-x,-z
_cell_length_a 7.415(5)
_cell_length_b 7.415(5)
_cell_length_c 8.718(5)
_cell_angle_alpha 90
_cell_angle_beta 90
_cell_angle_gamma 90
_cell_formula_units_Z 2
loop_
_atom_type_symbol
_atom_type_radius_bond
C 0.68
H 0.23
N 0.68
O 0.68
loop_
_atom_site_label
_atom_site_type_symbol
_atom_site_fract_x
_atom_site_fract_y
_atom_site_fract_z
C1 C 0.4262(2) 0.0738(2) 0.7371(3)
C2 C 0.50000 0.00000 0.4875(4)
N1 N 0.39705(17) 0.10295(17) 0.5732(2)
O1 O 0.2856(2) 0.2144(2) 0.5172(5)
C3 C 0.50000 0.00000 0.3286(4)
N2 N 0.50000 0.00000 0.1993(4)
C4 C 0.4820(4) 0.2508(3) 0.8066(3)
H1 H 0.545(3) 0.243(3) 0.895(3)
H2 H 0.382(3) 0.305(5) 0.795(3)
H3 H 0.573(3) 0.314(3) 0.719(3)
C1A C 0.5738(2) -0.0738(2) 0.7371(3)
N1A N 0.60295(17) -0.10295(17) 0.5732(2)
C4E C 0.2492(4) 0.0180(3) 0.8066(3)
H1E H 0.257(3) -0.045(3) 0.895(3)
H2E H 0.195(3) 0.118(5) 0.795(3)
H3E H 0.186(3) -0.073(3) 0.719(3)
O1A O 0.7144(2) -0.2144(2) 0.5172(5)
C4A C 0.5180(4) -0.2508(3) 0.8066(3)
H1A H 0.455(3) -0.243(3) 0.895(3)
H2A H 0.618(3) -0.305(5) 0.795(3)
H3A H 0.427(3) -0.314(3) 0.719(3)
C4D C 0.7508(4) -0.0180(3) 0.8066(3)
H1D H 0.743(3) 0.045(3) 0.895(3)
H2D H 0.805(3) -0.118(5) 0.795(3)
H3D H 0.814(3) 0.073(3) 0.719(3)
#END
