
#######################################################################
#
#                 Cambridge Crystallographic Data Centre
#                                CCDC
#
#######################################################################
#
# If this CIF has been generated from an entry in the Cambridge
# Structural Database, then it will include bibliographic, chemical,
# crystal, experimental, refinement or atomic coordinate data resulting
# from the CCDC's data processing and validation procedures.
#
#######################################################################

data_CSD_CIF_EXINAN10
_audit_creation_date 1974-03-25
_audit_creation_method CSD-ConQuest-V1
_database_code_CSD EXINAN10
_chemical_formula_sum 'C10 H12 N2 O3'
_chemical_formula_moiety
;
C10 H12 N2 O3
;
_journal_coden_Cambridge 189
_journal_volume 2
_journal_year 1973
_journal_page_first 551
_journal_name_full 'Cryst.Struct.Commun. '
loop_
_publ_author_name
"J.L.Brianso"
"C.Miravitlles"
"F.Plana"
"M.Font-Altaba"
_chemical_name_systematic
;
2-Ethoxy-isonitrosoacetanilide
;
_cell_volume   2326.126
_exptl_crystal_density_diffrn 1.19
_diffrn_ambient_temperature ?
_diffrn_special_details
;
The study was carried out at room temperature,in the range 283-303K

;
#These two values have been output from a single CSD field.
_refine_ls_R_factor_gt 0.077
_refine_ls_wR_factor_gt 0.077
_symmetry_cell_setting orthorhombic
_symmetry_space_group_name_H-M 'P c c n'
_symmetry_Int_Tables_number 56
loop_
_symmetry_equiv_pos_site_id
_symmetry_equiv_pos_as_xyz
1 x,y,z
2 1/2-x,y,1/2+z
3 x,1/2-y,1/2+z
4 1/2-x,1/2-y,z
5 -x,-y,-z
6 -1/2+x,-y,-1/2-z
7 -x,-1/2+y,-1/2-z
8 -1/2+x,-1/2+y,-z
_cell_length_a 11.07
_cell_length_b 21.98
_cell_length_c 9.56
_cell_angle_alpha 90
_cell_angle_beta 90
_cell_angle_gamma 90
_cell_formula_units_Z 8
loop_
_atom_type_symbol
_atom_type_radius_bond
C 0.68
H 0.20
N 0.68
O 0.68
loop_
_atom_site_label
_atom_site_type_symbol
_atom_site_fract_x
_atom_site_fract_y
_atom_site_fract_z
C1 C -0.47414 -0.42792 0.30360
C10 C -0.59799 -0.27370 0.19839
C2 C -0.39457 -0.43826 0.41588
C3 C -0.33816 -0.49497 0.43037
C4 C -0.36035 -0.54048 0.33190
C5 C -0.43861 -0.53057 0.22137
C6 C -0.49699 -0.47394 0.20615
C7 C -0.29399 -0.39399 0.61810
C8 C -0.29658 -0.33492 0.69481
C9 C -0.56576 -0.33901 0.18183
H16 H -0.28000 -0.49660 0.51300
H17 H -0.32618 -0.58354 0.32901
H18 H -0.45733 -0.56213 0.15643
H19 H -0.54912 -0.46652 0.12575
H20 H -0.51400 -0.34532 0.37304
H21 H -0.62116 -0.24998 0.11916
H22 H -0.61260 -0.17875 0.42071
H23 H -0.20620 -0.39190 0.56210
H24 H -0.31990 -0.43020 0.66860
H25 H -0.23250 -0.32540 0.76830
H26 H -0.28940 -0.30580 0.63010
H27 H -0.37610 -0.31940 0.71720
N1 N -0.52662 -0.36836 0.29642
N2 N -0.58900 -0.24849 0.31973
O1 O -0.38094 -0.38927 0.50545
O2 O -0.57563 -0.36290 0.06432
O3 O -0.62446 -0.18758 0.31608
#END
