
#######################################################################
#
#                 Cambridge Crystallographic Data Centre
#                                CCDC
#
#######################################################################
#
# If this CIF has been generated from an entry in the Cambridge
# Structural Database, then it will include bibliographic, chemical,
# crystal, experimental, refinement or atomic coordinate data resulting
# from the CCDC's data processing and validation procedures.
#
#######################################################################

data_CSD_CIF_EXISAG
_audit_creation_date 2011-10-27
_audit_creation_method CSD-ConQuest-V1
_database_code_CSD EXISAG
_database_code_depnum_ccdc_archive 'CCDC 845547'
_chemical_formula_sum 'C5 H7 N3 O1'
_chemical_formula_moiety
;
C5 H7 N3 O1
;
_journal_coeditor_code "IUCr JH2317"
_journal_coden_Cambridge 1370
_journal_volume 67
_journal_year 2011
_journal_page_first o2520
_journal_name_full 'Acta Crystallogr.,Sect.E:Struct.Rep.Online '
loop_
_publ_author_name
"I.Safyanova"
"N.M.Dudarenko"
"V.A.Pavlenko"
"T.S.Iskenderov"
"M.Haukka"
_chemical_name_systematic
;
3,5-Dimethyl-4-nitroso-1H-pyrazole
;
_cell_volume   1213.754
_exptl_crystal_colour 'blue'
_exptl_crystal_density_diffrn 1.37
_exptl_crystal_description 'plate'
_diffrn_ambient_temperature 120
#These two values have been output from a single CSD field.
_refine_ls_R_factor_gt 0.0413
_refine_ls_wR_factor_gt 0.0413
_symmetry_cell_setting monoclinic
_symmetry_space_group_name_H-M 'P 21/c'
_symmetry_Int_Tables_number 14
loop_
_symmetry_equiv_pos_site_id
_symmetry_equiv_pos_as_xyz
1 x,y,z
2 -x,1/2+y,1/2-z
3 -x,-y,-z
4 x,-1/2-y,-1/2+z
_cell_length_a 4.0268(2)
_cell_length_b 15.3793(7)
_cell_length_c 19.6627(9)
_cell_angle_alpha 90
_cell_angle_beta 94.613(3)
_cell_angle_gamma 90
_cell_formula_units_Z 8
loop_
_atom_type_symbol
_atom_type_radius_bond
C 0.68
H 0.23
N 0.68
O 0.68
loop_
_atom_site_label
_atom_site_type_symbol
_atom_site_fract_x
_atom_site_fract_y
_atom_site_fract_z
O1 O -0.1796(3) 0.16615(7) 0.22546(5)
N1 N 0.3665(3) -0.05073(9) 0.32527(7)
N2 N 0.4403(3) 0.02548(8) 0.36162(6)
N3 N -0.1316(3) 0.08489(8) 0.22016(7)
C1 C 0.2710(3) 0.08712(10) 0.32773(8)
C2 C 0.2872(4) 0.17879(10) 0.35059(8)
H1 H 0.44080 0.18370 0.39170
H2 H 0.06480 0.19810 0.36090
H3 H 0.36670 0.21520 0.31440
C3 C 0.0867(4) 0.05016(9) 0.26876(8)
C4 C 0.1598(4) -0.0395(1) 0.27044(8)
C5 C 0.0466(4) -0.11093(10) 0.22306(9)
H4 H 0.19020 -0.11330 0.18520
H5 H -0.18390 -0.10010 0.20520
H6 H 0.05890 -0.16640 0.24760
O2 O -0.2132(3) 0.13230(7) -0.04852(6)
N4 N 0.3699(3) 0.21423(8) 0.11942(7)
N5 N 0.3158(3) 0.30207(8) 0.10938(7)
N6 N -0.1646(3) 0.20960(9) -0.03253(7)
C6 C 0.1150(4) 0.30759(10) 0.05258(8)
C7 C 0.0044(4) 0.39331(10) 0.02337(8)
H7 H 0.08840 0.44000 0.05400
H8 H -0.23950 0.39530 0.01820
H9 H 0.09180 0.40090 -0.02130
C8 C 0.0397(4) 0.22318(10) 0.02693(7)
C9 C 0.2123(4) 0.16456(10) 0.07173(8)
C10 C 0.2411(4) 0.06867(10) 0.07173(8)
H10 H 0.39570 0.05020 0.11000
H11 H 0.32500 0.04940 0.02880
H12 H 0.02160 0.04280 0.07630
H13 H 0.453(4) -0.1013(13) 0.3437(9)
H14 H 0.515(4) 0.1949(11) 0.1572(9)
#END
