
#######################################################################
#
#                 Cambridge Crystallographic Data Centre
#                                CCDC
#
#######################################################################
#
# If this CIF has been generated from an entry in the Cambridge
# Structural Database, then it will include bibliographic, chemical,
# crystal, experimental, refinement or atomic coordinate data resulting
# from the CCDC's data processing and validation procedures.
#
#######################################################################

data_CSD_CIF_EXOBDO01
_audit_creation_date 1983-07-20
_audit_creation_method CSD-ConQuest-V1
_database_code_CSD EXOBDO01
_database_code_depnum_ccdc_archive 'CCDC 1150812'
_chemical_formula_sum 'C19 H20 N2 O6'
_chemical_formula_moiety
;
C19 H20 N2 O6
;
_journal_coden_Cambridge 182
_journal_year 1983
_journal_page_first 53
_journal_name_full 'Chem.Commun. '
loop_
_publ_author_name
"O.Ermer"
"S.A.Mason"
_chemical_name_systematic
;
exo,exo-Tetracyclo(6.2.1.1^3,6^.0^2,7^)dodecan-4-yl-3',5'-dinitrobenzoate
;
_cell_volume    844.415
_diffrn_ambient_temperature 120
_diffrn_radiation_probe 'neutron radiation'
#These two values have been output from a single CSD field.
_refine_ls_R_factor_gt 0.021
_refine_ls_wR_factor_gt 0.021
loop_
_citation_database_id_CSD
_citation_special_details
ENDBDO "is a stereoisomer of this entry"
_symmetry_cell_setting monoclinic
_symmetry_space_group_name_H-M 'P c'
_symmetry_Int_Tables_number 7
loop_
_symmetry_equiv_pos_site_id
_symmetry_equiv_pos_as_xyz
1 x,y,z
2 x,-y,1/2+z
_cell_length_a 13.888(3)
_cell_length_b 5.794(1)
_cell_length_c 10.724(2)
_cell_angle_alpha 90
_cell_angle_beta 101.89(2)
_cell_angle_gamma 90
_cell_formula_units_Z 2
loop_
_atom_type_symbol
_atom_type_radius_bond
C 0.68
H 0.23
N 0.68
O 0.68
loop_
_atom_site_label
_atom_site_type_symbol
_atom_site_fract_x
_atom_site_fract_y
_atom_site_fract_z
C1 C 0.67034 0.90263 0.40718
C2 C 0.57390 0.78856 0.42556
C3 C 0.48159 0.94085 0.41936
C4 C 0.40461 0.78352 0.45885
C5 C 0.37595 0.61590 0.34408
C6 C 0.43793 0.70506 0.24911
C7 C 0.54502 0.63016 0.30440
C8 C 0.62788 0.67993 0.23119
C9 C 0.72054 0.55764 0.30743
C10 C 0.74978 0.71133 0.42861
C11 C 0.65733 0.93255 0.26189
C12 C 0.43625 0.96560 0.27650
C13 C 0.16708 0.99944 0.51895
C14 C 0.09379 0.93592 0.58372
C15 C 0.01075 1.07421 0.57156
C16 C -0.00248 1.27247 0.49784
C17 C 0.07205 1.32886 0.43525
C18 C 0.15705 1.19843 0.44425
C19 C 0.25288 0.83992 0.52507
N1 N -0.06855 1.00630 0.63606
N2 N 0.05924 1.53402 0.35280
O1 O 0.32127 0.93090 0.46967
O2 O 0.25686 0.65003 0.57316
O3 O -0.05840 0.82595 0.69674
O4 O -0.14006 1.13243 0.62380
O5 O -0.01080 1.65974 0.35572
O6 O 0.11933 1.56751 0.28592
H1 H 0.69070 1.05668 0.46611
H2 H 0.58854 0.69101 0.51573
H3 H 0.49489 1.10029 0.47666
H4 H 0.42950 0.69675 0.55019
H5 H 0.29714 0.62786 0.30364
H6 H 0.39230 0.43505 0.37234
H7 H 0.40815 0.65240 0.15083
H8 H 0.54568 0.44587 0.32833
H9 H 0.60979 0.63396 0.13002
H10 H 0.77972 0.55326 0.25345
H11 H 0.70606 0.37826 0.32973
H12 H 0.82266 0.78813 0.43278
H13 H 0.75210 0.61660 0.51781
H14 H 0.60355 1.06142 0.21936
H15 H 0.72708 0.97488 0.23461
H16 H 0.47797 1.07271 0.22313
H17 H 0.36056 1.03391 0.26114
H18 H 0.10115 0.77778 0.64043
H19 H -0.06874 1.37739 0.48856
H20 H 0.21360 1.25077 0.39365
#END
