
#######################################################################
#
#                 Cambridge Crystallographic Data Centre
#                                CCDC
#
#######################################################################
#
# If this CIF has been generated from an entry in the Cambridge
# Structural Database, then it will include bibliographic, chemical,
# crystal, experimental, refinement or atomic coordinate data resulting
# from the CCDC's data processing and validation procedures.
#
#######################################################################

data_CSD_CIF_EXOYAT
_audit_creation_date 2016-10-28
_audit_creation_method CSD-ConQuest-V1
_database_code_CSD EXOYAT
_database_code_depnum_ccdc_archive 'CCDC 1406015'
_chemical_formula_sum 'C14 H17 N1 O3'
_chemical_formula_moiety
;
C14 H17 N1 O3
;
_journal_coden_Cambridge 1088
_journal_volume 27
_journal_year 2016
_journal_page_first 17
_journal_name_full 'Synlett '
loop_
_publ_author_name
"W.Al-Ani"
"K.Shankland"
"A.J.A.Cobb"
_chemical_name_systematic
;
1-(2-nitrocyclopentyl)-3-phenylacetone
;
_cell_volume   2540.898
_exptl_crystal_colour 'colorless'
_exptl_crystal_density_diffrn 1.293
_exptl_crystal_description 'block'
_diffrn_ambient_temperature 123.5
#These two values have been output from a single CSD field.
_refine_ls_R_factor_gt 0.0359
_refine_ls_wR_factor_gt 0.0359
_symmetry_cell_setting orthorhombic
_symmetry_space_group_name_H-M 'P b c a'
_symmetry_Int_Tables_number 61
loop_
_symmetry_equiv_pos_site_id
_symmetry_equiv_pos_as_xyz
1 x,y,z
2 1/2-x,-y,1/2+z
3 1/2+x,1/2-y,-z
4 -x,1/2+y,1/2-z
5 -x,-y,-z
6 -1/2+x,y,-1/2-z
7 -1/2-x,-1/2+y,z
8 x,-1/2-y,-1/2+z
_cell_length_a 11.0428(5)
_cell_length_b 9.1805(3)
_cell_length_c 25.0635(10)
_cell_angle_alpha 90
_cell_angle_beta 90
_cell_angle_gamma 90
_cell_formula_units_Z 8
loop_
_atom_type_symbol
_atom_type_radius_bond
C 0.68
H 0.23
N 0.68
O 0.68
loop_
_atom_site_label
_atom_site_type_symbol
_atom_site_fract_x
_atom_site_fract_y
_atom_site_fract_z
O1 O 0.55833(11) 0.37943(13) 0.53910(5)
O2 O 0.45734(12) 0.42524(13) 0.61058(5)
O3 O 0.37984(12) 0.08822(12) 0.44891(4)
N1 N 0.49054(12) 0.34235(14) 0.57524(6)
C1 C 0.23326(16) 0.2353(2) 0.59746(6)
H1 H 0.14950 0.19980 0.59220
H2 H 0.23140 0.34250 0.60180
C2 C 0.44198(15) 0.18901(16) 0.57448(6)
H3 H 0.49620 0.12320 0.55350
C3 C 0.31371(15) 0.19216(16) 0.55052(6)
H4 H 0.29250 0.08930 0.54130
C4 C 0.31215(16) 0.29533(16) 0.39897(6)
H5 H 0.22540 0.32230 0.39770
H6 H 0.35940 0.38680 0.40110
C5 C 0.42406(17) 0.13163(19) 0.63107(7)
H7 H 0.47960 0.18170 0.65610
H8 H 0.44070 0.02570 0.63250
C6 C 0.29144(17) 0.16244(19) 0.64622(6)
H9 H 0.24890 0.07060 0.65500
H10 H 0.28750 0.22780 0.67760
C7 C 0.26784(16) 0.11489(17) 0.32553(6)
H11 H 0.19350 0.09250 0.34270
C8 C 0.34427(15) 0.21902(16) 0.34773(6)
C9 C 0.29490(15) 0.28198(16) 0.50026(6)
H12 H 0.20790 0.30650 0.49730
H13 H 0.34010 0.37460 0.50400
C10 C 0.33441(14) 0.20845(16) 0.44929(6)
C11 C 0.48257(17) 0.17992(19) 0.27469(7)
H14 H 0.55630 0.20310 0.25710
C12 C 0.45179(15) 0.25044(18) 0.32161(6)
H15 H 0.50510 0.32140 0.33610
C13 C 0.29841(18) 0.04360(19) 0.27891(7)
H16 H 0.24540 -0.02760 0.26440
C14 C 0.40602(18) 0.07573(18) 0.25344(7)
H17 H 0.42740 0.02650 0.22150
#END
