
#######################################################################
#
#                 Cambridge Crystallographic Data Centre
#                                CCDC
#
#######################################################################
#
# If this CIF has been generated from an entry in the Cambridge
# Structural Database, then it will include bibliographic, chemical,
# crystal, experimental, refinement or atomic coordinate data resulting
# from the CCDC's data processing and validation procedures.
#
#######################################################################

data_CSD_CIF_EXPCIZ
_audit_creation_date 1980-02-13
_audit_creation_method CSD-ConQuest-V1
_database_code_CSD EXPCIZ
_database_code_depnum_ccdc_archive 'CCDC 1150814'
_chemical_formula_sum 'C31 H31 N1 O2'
_chemical_formula_moiety
;
C31 H31 N1 O2
;
_journal_coeditor_code "IUCr A17864"
_journal_coden_Cambridge 107
_journal_volume 35
_journal_year 1979
_journal_page_first 2424
_journal_name_full 'Acta Crystallogr.,Sect.B:Struct.Crystallogr.Cryst.Chem. '
loop_
_publ_author_name
"A.C.Stergiou"
"S.C.Kokkou"
"P.J.Rentzeperis"
_chemical_name_systematic
;
3a,5-Diethyl-4-oxo-6,6a-diphenyl-3-(2,4,6-trimethylphenyl)-3a,4-dihydrocyclope
nta(2,3-d)isoxazoline
;
_chemical_melting_point 468
_cell_volume   2530.305
_exptl_crystal_density_diffrn 1.178
_exptl_special_details
;
Melting point range 468-9K

;
_diffrn_ambient_temperature ?
_diffrn_special_details
;
The study was carried out at room temperature,in the range 283-303K

;
#These two values have been output from a single CSD field.
_refine_ls_R_factor_gt 0.068
_refine_ls_wR_factor_gt 0.068
_symmetry_cell_setting monoclinic
_symmetry_space_group_name_H-M 'P 21/n'
_symmetry_Int_Tables_number 14
loop_
_symmetry_equiv_pos_site_id
_symmetry_equiv_pos_as_xyz
1 x,y,z
2 1/2-x,1/2+y,1/2-z
3 -x,-y,-z
4 -1/2+x,-1/2-y,-1/2+z
_cell_length_a 19.440(2)
_cell_length_b 14.681(1)
_cell_length_c 8.900(1)
_cell_angle_alpha 90
_cell_angle_beta 95.02(1)
_cell_angle_gamma 90
_cell_formula_units_Z 4
loop_
_atom_type_symbol
_atom_type_radius_bond
C 0.68
H 0.23
N 0.68
O 0.68
loop_
_atom_site_label
_atom_site_type_symbol
_atom_site_fract_x
_atom_site_fract_y
_atom_site_fract_z
O1 O 0.22470 0.82880 0.19990
O2 O 0.04660 0.66710 0.32170
N1 N 0.19210 0.78580 0.07000
C1 C 0.12860 0.77080 0.08940
C2 C 0.10540 0.80290 0.24130
C3 C 0.09520 0.71910 0.34020
C4 C 0.15080 0.71320 0.46140
C5 C 0.19570 0.78090 0.44870
C6 C 0.17510 0.84290 0.31490
C7 C 0.08220 0.72580 -0.03110
C8 C 0.04090 0.77610 -0.13700
C9 C -0.00270 0.72850 -0.24080
C10 C -0.00910 0.63540 -0.24420
C11 C 0.03600 0.58840 -0.14510
C12 C 0.08170 0.62920 -0.03780
C13 C 0.03970 0.86060 0.22920
C14 C 0.01010 0.87970 0.38180
C15 C 0.15230 0.63570 0.57440
C16 C 0.21020 0.56800 0.56460
C17 C 0.25970 0.79960 0.54810
C18 C 0.32400 0.81330 0.48780
C19 C 0.38230 0.82590 0.58420
C20 C 0.37900 0.82800 0.73910
C21 C 0.31600 0.81670 0.79790
C22 C 0.25780 0.80090 0.70350
C23 C 0.17410 0.94400 0.34710
C24 C 0.17210 0.97980 0.48890
C25 C 0.17010 1.07310 0.51260
C26 C 0.17070 1.13040 0.38950
C27 C 0.17250 1.09870 0.24840
C28 C 0.17490 1.00430 0.22500
C29 C 0.04690 0.87810 -0.14900
C30 C -0.05870 0.58690 -0.35800
C31 C 0.13100 0.57260 0.06460
H1 H -0.04200 0.75700 -0.31500
H2 H 0.03500 0.52800 -0.13800
H3 H 0.32400 0.81500 0.36700
H4 H 0.42800 0.83900 0.54100
H5 H 0.42900 0.85100 0.79800
H6 H 0.31100 0.81300 0.91500
H7 H 0.21600 0.78600 0.74400
H8 H 0.17200 0.93200 0.58000
H9 H 0.17100 1.10000 0.60500
H10 H 0.18300 1.19200 0.41500
H11 H 0.16100 1.13700 0.16800
H12 H 0.17400 0.97800 0.11700
H13 H 0.04900 0.91800 0.19900
H14 H 0.00800 0.82400 0.15200
H15 H -0.03200 0.92600 0.35600
H16 H -0.01300 0.82500 0.42500
H17 H 0.04800 0.91700 0.44700
H18 H 0.16400 0.65800 0.67700
H19 H 0.10400 0.59800 0.55400
H20 H 0.20500 0.54400 0.47700
H21 H 0.20100 0.52400 0.64000
H22 H 0.26200 0.60800 0.59700
H23 H 0.01600 0.91100 -0.08800
H24 H 0.03600 0.89500 -0.25700
H25 H 0.09800 0.90300 -0.10100
H26 H -0.04700 0.57500 -0.45000
H27 H -0.10600 0.61000 -0.36600
H28 H -0.04700 0.52400 -0.34800
H29 H 0.15700 0.59700 0.14700
H30 H 0.14800 0.53000 0.00600
H31 H 0.11500 0.52100 0.14200
#END
