
#######################################################################
#
#                 Cambridge Crystallographic Data Centre
#                                CCDC
#
#######################################################################
#
# If this CIF has been generated from an entry in the Cambridge
# Structural Database, then it will include bibliographic, chemical,
# crystal, experimental, refinement or atomic coordinate data resulting
# from the CCDC's data processing and validation procedures.
#
#######################################################################

data_CSD_CIF_EXUJEM
_audit_creation_date 2004-09-21
_audit_creation_method CSD-ConQuest-V1
_database_code_CSD EXUJEM
_database_code_depnum_ccdc_archive 'CCDC 245926'
_chemical_formula_sum 'C10 H16 N6 O6'
_chemical_formula_moiety
;
C10 H16 N6 O6
;
_journal_coeditor_code "IUCr BM1564"
_journal_coden_Cambridge 591
_journal_volume 60
_journal_year 2004
_journal_page_first o520
_journal_name_full 'Acta Crystallogr.,Sect.C:Cryst.Struct.Commun. '
loop_
_publ_author_name
"B.B.Averkiev"
"T.V.Timofeeva"
"A.B.Sheremetev"
"E.V.Shatunova"
"M.Yu.Antipin"
_chemical_name_systematic
;
1,8-bis(5-Aminofurazan-4-yloxy)-3,6-dioxaoctane
;
_chemical_melting_point 453
_cell_volume   2954.456
_exptl_crystal_colour 'colorless'
_exptl_crystal_density_diffrn 1.422
_exptl_special_details
;
Melting point range 453-454K

;
_exptl_crystal_description 'plate'
_exptl_crystal_preparation 'acetic acid'
_diffrn_ambient_temperature 293
#These two values have been output from a single CSD field.
_refine_ls_R_factor_gt 0.0356
_refine_ls_wR_factor_gt 0.0356
_symmetry_cell_setting monoclinic
_symmetry_space_group_name_H-M 'C 2/c'
_symmetry_Int_Tables_number 15
loop_
_symmetry_equiv_pos_site_id
_symmetry_equiv_pos_as_xyz
1 x,y,z
2 1/2+x,1/2+y,z
3 x,-y,1/2+z
4 1/2+x,1/2-y,1/2+z
5 -x,-y,-z
6 -1/2-x,-1/2-y,-z
7 -x,y,-1/2-z
8 -1/2-x,-1/2+y,-1/2-z
_cell_length_a 31.363(6)
_cell_length_b 6.0550(12)
_cell_length_c 15.724(3)
_cell_angle_alpha 90
_cell_angle_beta 98.34(3)
_cell_angle_gamma 90
_cell_formula_units_Z 8
loop_
_atom_type_symbol
_atom_type_radius_bond
C 0.68
H 0.23
N 0.68
O 0.68
loop_
_atom_site_label
_atom_site_type_symbol
_atom_site_fract_x
_atom_site_fract_y
_atom_site_fract_z
O1 O 0.19740(4) 1.1127(2) 0.97158(7)
C1 C 0.22406(5) 1.0840(3) 1.12314(11)
N1 N 0.24128(6) 0.8782(3) 1.12226(14)
H1 H 0.2303(7) 0.795(4) 1.0797(15)
H2 H 0.2478(7) 0.817(4) 1.1754(15)
O2 O 0.07060(4) 0.1731(2) 0.97335(8)
C2 C 0.20301(5) 1.1998(3) 1.04963(11)
N2 N 0.12744(6) -0.1970(3) 1.03077(13)
H3 H 0.1250(8) -0.161(4) 0.9746(17)
H4 H 0.1359(8) -0.322(5) 1.0472(17)
O3 O 0.20592(5) 1.4085(2) 1.15965(9)
C3 C 0.09335(7) -0.1334(3) 1.06773(11)
N3 N 0.22613(5) 1.2113(2) 1.18994(10)
O4 O 0.04648(6) -0.0890(3) 1.15384(10)
C4 C 0.06630(6) 0.0508(3) 1.04223(11)
N4 N 0.19181(5) 1.3947(2) 1.07096(10)
O5 O 0.13116(4) 0.9305(2) 0.84603(8)
C5 C 0.17042(6) 1.2388(3) 0.90513(12)
N5 N 0.08103(7) -0.2211(3) 1.13531(11)
H5 H 0.1440(6) 1.281(3) 0.9285(12)
H6 H 0.1870(7) 1.363(4) 0.8911(13)
O6 O 0.08103(4) 0.5458(2) 0.86325(8)
C6 C 0.16108(7) 1.0920(4) 0.82892(12)
N6 N 0.03811(6) 0.0802(3) 1.09374(12)
H7 H 0.1497(6) 1.183(3) 0.7807(13)
H8 H 0.1876(7) 1.030(3) 0.8164(12)
C7 C 0.12208(7) 0.7688(3) 0.78049(12)
H9 H 0.1212(6) 0.835(3) 0.7243(13)
H10 H 0.1448(7) 0.657(4) 0.7857(13)
C8 C 0.07933(7) 0.6664(4) 0.78572(13)
H11 H 0.0724(8) 0.573(4) 0.7351(15)
H12 H 0.0550(7) 0.779(4) 0.7816(13)
C9 C 0.04152(6) 0.4345(4) 0.86763(15)
H13 H 0.0373(7) 0.312(4) 0.8233(14)
H14 H 0.0176(8) 0.541(4) 0.8526(15)
C10 C 0.04009(7) 0.3519(3) 0.95580(14)
H15 H 0.0102(7) 0.287(4) 0.9614(13)
H16 H 0.0486(6) 0.468(4) 1.0001(14)
#END
