
#######################################################################
#
#                 Cambridge Crystallographic Data Centre
#                                CCDC
#
#######################################################################
#
# If this CIF has been generated from an entry in the Cambridge
# Structural Database, then it will include bibliographic, chemical,
# crystal, experimental, refinement or atomic coordinate data resulting
# from the CCDC's data processing and validation procedures.
#
#######################################################################

data_CSD_CIF_EXUJAI
_audit_creation_date 2004-09-21
_audit_creation_method CSD-ConQuest-V1
_database_code_CSD EXUJAI
_database_code_depnum_ccdc_archive 'CCDC 245925'
_chemical_formula_sum 'C8 H10 N6 O4'
_chemical_formula_moiety
;
C8 H10 N6 O4
;
_journal_coeditor_code "IUCr BM1564"
_journal_coden_Cambridge 591
_journal_volume 60
_journal_year 2004
_journal_page_first o520
_journal_name_full 'Acta Crystallogr.,Sect.C:Cryst.Struct.Commun. '
loop_
_publ_author_name
"B.B.Averkiev"
"T.V.Timofeeva"
"A.B.Sheremetev"
"E.V.Shatunova"
"M.Yu.Antipin"
_chemical_name_systematic
;
6,9,14,17-Tetraoxa-2,3,5,7,16,18-hexa-azatricyclo(13.3.0.0^4,8^)octadeca-4,7,1
5,18-tetraene
;
_chemical_melting_point 333
_cell_volume   1084.031
_exptl_crystal_colour 'colorless'
_exptl_crystal_density_diffrn 1.558
_exptl_special_details
;
Melting point range 333-334K

;
_exptl_crystal_description 'rectangular prism'
_exptl_crystal_preparation 'methanol'
_diffrn_ambient_temperature 110
#These two values have been output from a single CSD field.
_refine_ls_R_factor_gt 0.0557
_refine_ls_wR_factor_gt 0.0557
_symmetry_cell_setting monoclinic
_symmetry_space_group_name_H-M 'P 21/n'
_symmetry_Int_Tables_number 14
loop_
_symmetry_equiv_pos_site_id
_symmetry_equiv_pos_as_xyz
1 x,y,z
2 1/2+x,1/2-y,1/2+z
3 -x,-y,-z
4 -1/2-x,-1/2+y,-1/2-z
_cell_length_a 8.3331(12)
_cell_length_b 14.695(2)
_cell_length_c 9.2384(13)
_cell_angle_alpha 90
_cell_angle_beta 106.619(3)
_cell_angle_gamma 90
_cell_formula_units_Z 4
loop_
_atom_type_symbol
_atom_type_radius_bond
C 0.68
H 0.23
N 0.68
O 0.68
loop_
_atom_site_label
_atom_site_type_symbol
_atom_site_fract_x
_atom_site_fract_y
_atom_site_fract_z
O1 O 0.48627(16) 0.22906(8) 0.72669(14)
N1 N 0.59616(19) 0.42285(11) 0.69846(17)
C1 C 0.4954(2) 0.36905(11) 0.58685(19)
H1 H 0.592(3) 0.4787(16) 0.682(3)
O2 O 0.51203(16) 0.27300(8) 1.05979(14)
N2 N 0.6012(2) 0.40317(10) 0.84990(17)
C2 C 0.4487(2) 0.27524(11) 0.59753(19)
H2 H 0.664(3) 0.3558(14) 0.885(2)
O3 O 0.35966(15) 0.31780(8) 0.36702(13)
N3 N 0.43830(19) 0.3945(1) 0.44589(16)
C3 C 0.4506(2) 0.40055(12) 0.88437(19)
O4 O 0.20130(16) 0.42704(10) 0.89576(15)
N4 N 0.36684(19) 0.24461(10) 0.46486(16)
C4 C 0.4080(2) 0.33823(12) 0.98749(19)
C5 C 0.4478(3) 0.13186(12) 0.7157(2)
N5 N 0.32493(19) 0.45487(10) 0.82804(17)
H3 H 0.524(2) 0.1027(12) 0.664(2)
H4 H 0.331(3) 0.1261(13) 0.658(3)
C6 C 0.4773(2) 0.09709(12) 0.8751(2)
N6 N 0.2576(2) 0.35470(11) 0.99436(18)
H5 H 0.468(2) 0.0322(14) 0.866(2)
H6 H 0.588(3) 0.1094(14) 0.936(2)
C7 C 0.3523(2) 0.13480(12) 0.9554(2)
H7 H 0.265(3) 0.1716(14) 0.881(3)
H8 H 0.289(3) 0.0857(14) 0.986(3)
C8 C 0.4304(3) 0.19079(13) 1.0952(2)
H9 H 0.522(3) 0.1545(17) 1.168(3)
H10 H 0.350(3) 0.2103(16) 1.150(3)
#END
