
#######################################################################
#
#                 Cambridge Crystallographic Data Centre
#                                CCDC
#
#######################################################################
#
# If this CIF has been generated from an entry in the Cambridge
# Structural Database, then it will include bibliographic, chemical,
# crystal, experimental, refinement or atomic coordinate data resulting
# from the CCDC's data processing and validation procedures.
#
#######################################################################

data_CSD_CIF_EXULIU
_audit_creation_date 2016-10-28
_audit_creation_method CSD-ConQuest-V1
_database_code_CSD EXULIU
_database_code_depnum_ccdc_archive 'CCDC 830704'
_chemical_formula_sum 'C27 H26 N2 O2'
_chemical_formula_moiety
;
C27 H26 N2 O2
;
_journal_coden_Cambridge 34
_journal_volume 51
_journal_year 2014
_journal_page_first 383
_journal_name_full 'J.Heterocycl.Chem. '
loop_
_publ_author_name
"H.Jelizi"
"N.Wannassi"
"M.El B.Rammah"
"K.Ciamala"
"M.Knorr"
"Y.Rousselin"
"M.M.Kubicki"
"C.Strohmann"
"M.Enescu"
_chemical_name_systematic
;
3-(4-methoxyphenyl)-4-phenyl-8b-(pyrrolidin-1-yl)-4,8b-dihydro-3aH-indeno[2,1-
d][1,2]oxazole
;
_cell_volume   4319.087
_exptl_crystal_density_diffrn 1.263
_diffrn_ambient_temperature 173
#These two values have been output from a single CSD field.
_refine_ls_R_factor_gt 0.0494
_refine_ls_wR_factor_gt 0.0494
_symmetry_cell_setting monoclinic
_symmetry_space_group_name_H-M 'P 21/n'
_symmetry_Int_Tables_number 14
loop_
_symmetry_equiv_pos_site_id
_symmetry_equiv_pos_as_xyz
1 x,y,z
2 1/2-x,1/2+y,1/2-z
3 -x,-y,-z
4 -1/2+x,-1/2-y,-1/2+z
_cell_length_a 18.4846(11)
_cell_length_b 11.1827(5)
_cell_length_c 22.7882(14)
_cell_angle_alpha 90
_cell_angle_beta 113.522(7)
_cell_angle_gamma 90
_cell_formula_units_Z 8
loop_
_atom_type_symbol
_atom_type_radius_bond
C 0.68
H 0.23
N 0.68
O 0.68
loop_
_atom_site_label
_atom_site_type_symbol
_atom_site_fract_x
_atom_site_fract_y
_atom_site_fract_z
C1 C -0.13005(17) -0.2596(3) 0.49786(12)
H1 H -0.15010 -0.18480 0.47460
H2 H -0.17040 -0.32190 0.48130
H3 H -0.08250 -0.28440 0.49200
C2 C -0.05675(13) -0.1583(2) 0.59502(11)
C3 C -0.01989(15) -0.0844(2) 0.56707(12)
H4 H -0.03330 -0.08870 0.52230
C4 C 0.03662(15) -0.0041(2) 0.60433(12)
H5 H 0.06200 0.04610 0.58470
C5 C 0.05706(13) 0.0050(2) 0.66941(11)
C6 C 0.01838(13) -0.0692(2) 0.69653(11)
H6 H 0.03090 -0.06400 0.74110
C7 C -0.03757(14) -0.1497(2) 0.66002(11)
H7 H -0.06320 -0.19980 0.67950
C8 C 0.11909(13) 0.0864(2) 0.70867(11)
C9 C 0.15318(13) 0.0914(2) 0.78038(10)
H8 H 0.11210 0.11540 0.79630
C10 C 0.19594(13) -0.0255(2) 0.81385(10)
H9 H 0.18600 -0.08870 0.78050
C11 C 0.17088(13) -0.0734(2) 0.86511(11)
C12 C 0.15367(14) -0.1919(2) 0.86709(12)
H10 H 0.15620 -0.24380 0.83500
C13 C 0.13281(16) -0.2386(3) 0.91408(13)
H11 H 0.12180 -0.32150 0.91460
C14 C 0.12812(15) -0.1636(3) 0.96006(13)
H12 H 0.11330 -0.19470 0.99250
C15 C 0.14459(14) -0.0447(3) 0.95966(12)
H13 H 0.14120 0.00660 0.99170
C16 C 0.16628(13) 0.0013(2) 0.91239(11)
H14 H 0.17800 0.08400 0.91230
C17 C 0.28156(13) 0.0091(2) 0.83897(10)
C18 C 0.34471(13) -0.0673(2) 0.86819(10)
H15 H 0.33630 -0.14760 0.87760
C19 C 0.42012(14) -0.0245(2) 0.88340(11)
H16 H 0.46410 -0.07510 0.90470
C20 C 0.43217(14) 0.0908(2) 0.86806(12)
H17 H 0.48430 0.11750 0.87690
C21 C 0.36954(14) 0.1682(2) 0.84004(11)
H18 H 0.37800 0.24810 0.83010
C22 C 0.29361(13) 0.1261(2) 0.82667(10)
C23 C 0.21562(13) 0.1895(2) 0.79386(10)
C24 C 0.26064(14) 0.3866(2) 0.84479(12)
H19 H 0.27100 0.41280 0.80740
H20 H 0.31100 0.36230 0.87960
C25 C 0.22038(14) 0.4838(2) 0.86673(12)
H21 H 0.22470 0.46860 0.91080
H22 H 0.24300 0.56330 0.86510
C26 C 0.13605(15) 0.4751(2) 0.81909(13)
H23 H 0.12630 0.53080 0.78290
H24 H 0.09940 0.49500 0.83960
C27 C 0.12467(14) 0.3470(2) 0.79593(12)
H25 H 0.08500 0.30650 0.80800
H26 H 0.10690 0.34380 0.74880
N1 N 0.20283(11) 0.28950(17) 0.82771(9)
N2 N 0.15066(11) 0.15956(18) 0.68238(9)
O1 O -0.11158(9) -0.24199(16) 0.56342(8)
O2 O 0.20970(9) 0.22618(14) 0.72909(7)
C28 C 0.87594(18) 0.2863(3) 0.49108(12)
H27 H 0.82000 0.26830 0.47920
H28 H 0.89850 0.22770 0.47120
H29 H 0.88120 0.36670 0.47620
C29 C 0.89336(14) 0.3577(2) 0.59424(12)
C30 C 0.83509(15) 0.4426(2) 0.56880(12)
H30 H 0.80840 0.45100 0.52370
C31 C 0.81582(15) 0.5156(2) 0.60960(12)
H31 H 0.77570 0.57410 0.59190
C32 C 0.85345(13) 0.5056(2) 0.67538(11)
C33 C 0.91317(14) 0.4209(2) 0.69950(12)
H32 H 0.94120 0.41380 0.74450
C34 C 0.93267(14) 0.3469(2) 0.65942(11)
H33 H 0.97310 0.28880 0.67690
C35 C 0.83051(14) 0.5787(2) 0.71813(12)
C36 C 0.87094(14) 0.5780(2) 0.78935(11)
H34 H 0.92770 0.60080 0.80320
C37 C 0.86351(13) 0.4594(2) 0.82237(11)
H35 H 0.83660 0.39820 0.78870
C38 C 0.94106(14) 0.4089(2) 0.86910(11)
C39 C 0.95733(15) 0.2887(2) 0.86778(13)
H36 H 0.92040 0.23860 0.83640
C40 C 1.02655(17) 0.2403(3) 0.91141(15)
H37 H 1.03680 0.15730 0.91020
C41 C 1.08040(17) 0.3121(3) 0.95647(14)
H38 H 1.12840 0.27910 0.98610
C42 C 1.06504(16) 0.4315(3) 0.95880(13)
H39 H 1.10220 0.48110 0.99040
C43 C 0.99524(14) 0.4797(2) 0.91502(12)
H40 H 0.98480 0.56250 0.91680
C44 C 0.80970(13) 0.4931(2) 0.85523(11)
C45 C 0.78200(14) 0.4172(2) 0.88926(12)
H41 H 0.79750 0.33550 0.89490
C46 C 0.73164(15) 0.4615(3) 0.91481(13)
H42 H 0.71300 0.41050 0.93910
C47 C 0.70778(16) 0.5795(3) 0.90552(14)
H43 H 0.67190 0.60850 0.92260
C48 C 0.73559(14) 0.6557(2) 0.87170(13)
H44 H 0.71870 0.73660 0.86490
C49 C 0.78858(13) 0.6123(2) 0.84779(12)
C50 C 0.82593(14) 0.6757(2) 0.80851(11)
C51 C 0.84287(16) 0.8687(2) 0.86658(13)
H45 H 0.83830 0.84010 0.90610
H46 H 0.79050 0.89600 0.83590
C52 C 0.90297(17) 0.9668(2) 0.88110(13)
H47 H 0.94980 0.95000 0.92090
H48 H 0.88030 1.04500 0.88520
C53 C 0.92369(19) 0.9641(2) 0.82318(15)
H49 H 0.89000 1.02070 0.79010
H50 H 0.97960 0.98650 0.83530
C54 C 0.90931(16) 0.8377(2) 0.79837(13)
H51 H 0.87240 0.83630 0.75280
H52 H 0.95940 0.79910 0.80270
N3 N 0.87445(12) 0.77566(18) 0.83865(9)
N4 N 0.77102(12) 0.64988(19) 0.69588(10)
O3 O 0.91637(10) 0.28076(16) 0.55827(8)
O4 O 0.76119(9) 0.71011(15) 0.74605(8)
#END
