
#######################################################################
#
#                 Cambridge Crystallographic Data Centre
#                                CCDC
#
#######################################################################
#
# If this CIF has been generated from an entry in the Cambridge
# Structural Database, then it will include bibliographic, chemical,
# crystal, experimental, refinement or atomic coordinate data resulting
# from the CCDC's data processing and validation procedures.
#
#######################################################################

data_CSD_CIF_EYABAH
_audit_creation_date 2004-10-07
_audit_creation_method CSD-ConQuest-V1
_database_code_CSD EYABAH
_database_code_depnum_ccdc_archive 'CCDC 204742'
_database_code_depnum_ccdc_journal 1135/129
_chemical_formula_sum 'C13 H18 N1 O2'
_chemical_formula_moiety
;
C13 H18 N1 O2
;
_journal_coden_Cambridge 1135
_journal_year 2003
_journal_page_first 109
_journal_name_full 'Mendeleev Commun. '
loop_
_publ_author_name
"N.Ikuma"
"R.Tamura"
"S.Shimono"
"N.Kawame"
"O.Tamada"
"N.Sakai"
"J.Yamauchi"
"Y.Yamamoto"
_chemical_name_systematic
;
(+-)-2-(4-Hydroxyphenyl)-2,5,5-trimethylpyrrolidine-1-oxy
;
_chemical_melting_point 424.15
_cell_volume   1239.492
_exptl_crystal_colour 'yellow'
_exptl_crystal_density_diffrn 1.181
_exptl_special_details
;
Melts with decomposition.

;
_exptl_crystal_description 'spindle-shape'
_exptl_crystal_preparation 'diethyl ether'
_diffrn_ambient_temperature 298
#These two values have been output from a single CSD field.
_refine_ls_R_factor_gt 0.0655
_refine_ls_wR_factor_gt 0.0655
_symmetry_cell_setting orthorhombic
_symmetry_space_group_name_H-M 'P 21 21 21'
_symmetry_Int_Tables_number 19
loop_
_symmetry_equiv_pos_site_id
_symmetry_equiv_pos_as_xyz
1 x,y,z
2 1/2-x,-y,1/2+z
3 1/2+x,1/2-y,-z
4 -x,1/2+y,1/2-z
_cell_length_a 8.6141(4)
_cell_length_b 10.7211(6)
_cell_length_c 13.4213(6)
_cell_angle_alpha 90
_cell_angle_beta 90
_cell_angle_gamma 90
_cell_formula_units_Z 4
loop_
_atom_type_symbol
_atom_type_radius_bond
C 0.68
H 0.23
N 0.68
O 0.68
loop_
_atom_site_label
_atom_site_type_symbol
_atom_site_fract_x
_atom_site_fract_y
_atom_site_fract_z
C1 C 0.2082(6) 0.3705(4) 0.6498(3)
O1 O 0.1701(5) 0.3401(3) 0.8844(2)
N1 N 0.1980(5) 0.2410(3) 0.8346(3)
C2 C 0.1348(6) 0.3966(5) 0.4790(4)
O2 O 0.1466(5) 0.4528(4) 0.3873(3)
C3 C 0.2199(6) 0.4333(4) 0.5593(3)
C4 C 0.1087(5) 0.2701(4) 0.6602(3)
C5 C 0.0877(6) 0.1969(4) 0.7583(3)
C6 C -0.0790(6) 0.2122(6) 0.7968(4)
C7 C 0.1365(8) 0.0606(5) 0.7482(4)
C8 C 0.3241(6) 0.1557(6) 0.8594(4)
C9 C 0.0240(7) 0.2345(6) 0.5782(4)
C10 C 0.3065(9) 0.0609(6) 0.7751(5)
C11 C 0.0364(8) 0.2960(6) 0.4875(4)
C12 C 0.2948(10) 0.0997(8) 0.9621(5)
C13 C 0.4780(8) 0.2243(9) 0.8574(6)
H1 H 0.26790 0.39620 0.70380
H2 H 0.13280 0.52810 0.39330
H3 H 0.28670 0.50120 0.55360
H4 H -0.15070 0.18460 0.74670
H5 H -0.09800 0.29840 0.81180
H6 H -0.09250 0.16310 0.85600
H7 H 0.07790 0.00800 0.79350
H8 H 0.12110 0.03110 0.68060
H9 H -0.04370 0.16720 0.58360
H10 H 0.36900 0.08500 0.71820
H11 H 0.33910 -0.02130 0.79700
H12 H -0.02140 0.26940 0.43300
H13 H 0.37630 0.04190 0.97790
H14 H 0.19700 0.05680 0.96200
H15 H 0.29270 0.16500 1.01100
H16 H 0.56140 0.16510 0.86150
H17 H 0.48350 0.28040 0.91300
H18 H 0.48650 0.27070 0.79650
#END
