
#######################################################################
#
#                 Cambridge Crystallographic Data Centre
#                                CCDC
#
#######################################################################
#
# If this CIF has been generated from an entry in the Cambridge
# Structural Database, then it will include bibliographic, chemical,
# crystal, experimental, refinement or atomic coordinate data resulting
# from the CCDC's data processing and validation procedures.
#
#######################################################################

data_CSD_CIF_EYABEL
_audit_creation_date 2004-10-07
_audit_creation_method CSD-ConQuest-V1
_database_code_CSD EYABEL
_database_code_depnum_ccdc_archive 'CCDC 204743'
_database_code_depnum_ccdc_journal 1135/129
_chemical_formula_sum 'C18 H20 N1 O2'
_chemical_formula_moiety
;
C18 H20 N1 O2
;
_journal_coden_Cambridge 1135
_journal_year 2003
_journal_page_first 109
_journal_name_full 'Mendeleev Commun. '
loop_
_publ_author_name
"N.Ikuma"
"R.Tamura"
"S.Shimono"
"N.Kawame"
"O.Tamada"
"N.Sakai"
"J.Yamauchi"
"Y.Yamamoto"
_chemical_name_systematic
;
(+-)-trans-2-(4-Hydroxyphenyl)-2,5-dimethyl-5-phenylpyrrolidine-1-oxy
;
_chemical_melting_point 441.65
_cell_volume   1516.238
_exptl_crystal_colour 'yellow'
_exptl_crystal_density_diffrn 1.237
_exptl_special_details
;
Melts with decomposition.

;
_exptl_crystal_description 'Prism'
_exptl_crystal_preparation 'chloroform'
_diffrn_ambient_temperature 298
#These two values have been output from a single CSD field.
_refine_ls_R_factor_gt 0.0418
_refine_ls_wR_factor_gt 0.0418
_symmetry_cell_setting orthorhombic
_symmetry_space_group_name_H-M 'P 21 21 21'
_symmetry_Int_Tables_number 19
loop_
_symmetry_equiv_pos_site_id
_symmetry_equiv_pos_as_xyz
1 x,y,z
2 1/2-x,-y,1/2+z
3 1/2+x,1/2-y,-z
4 -x,1/2+y,1/2-z
_cell_length_a 10.4826(3)
_cell_length_b 11.5410(4)
_cell_length_c 12.5330(4)
_cell_angle_alpha 90
_cell_angle_beta 90
_cell_angle_gamma 90
_cell_formula_units_Z 4
loop_
_atom_type_symbol
_atom_type_radius_bond
C 0.68
H 0.23
N 0.68
O 0.68
loop_
_atom_site_label
_atom_site_type_symbol
_atom_site_fract_x
_atom_site_fract_y
_atom_site_fract_z
N1 N 0.34733(18) 0.40658(16) 0.30710(15)
O1 O 0.31062(16) 0.51072(14) 0.29031(16)
C1 C 0.1583(2) 0.2785(2) 0.2953(2)
C2 C 0.5837(2) 0.4118(2) 0.32113(19)
O2 O -0.1471(2) 0.1629(2) 0.11043(17)
C3 C 0.0332(2) 0.2807(2) 0.1330(2)
C4 C 0.4685(2) 0.3616(2) 0.2616(2)
C5 C 0.1341(2) 0.3213(2) 0.1934(2)
C6 C -0.0470(2) 0.1971(2) 0.1733(2)
C7 C 0.6820(3) 0.5335(3) 0.4534(2)
C8 C 0.4763(3) 0.3930(3) 0.1428(2)
C9 C 0.5738(3) 0.4893(2) 0.4050(2)
C10 C 0.0770(3) 0.1929(2) 0.3336(2)
C11 C -0.0244(3) 0.1526(2) 0.2736(2)
C12 C 0.3694(3) 0.2248(2) 0.3816(3)
C13 C 0.8009(3) 0.5037(2) 0.4181(2)
C14 C 0.2693(2) 0.3202(2) 0.3653(2)
C15 C 0.2204(3) 0.3717(3) 0.4699(2)
C16 C 0.4515(3) 0.2316(2) 0.2819(3)
C17 C 0.8131(3) 0.4257(3) 0.3358(3)
C18 C 0.7054(3) 0.3803(3) 0.2880(2)
H1 H -0.18750 0.11190 0.14100
H2 H 0.01950 0.31000 0.06480
H3 H 0.18690 0.37850 0.16540
H4 H 0.67370 0.58410 0.51070
H5 H 0.55540 0.36530 0.11390
H6 H 0.47190 0.47570 0.13480
H7 H 0.40650 0.35780 0.10540
H8 H 0.49360 0.51200 0.42900
H9 H 0.09120 0.16210 0.40110
H10 H -0.07750 0.09530 0.30110
H11 H 0.41980 0.23930 0.44520
H12 H 0.32930 0.14930 0.38790
H13 H 0.87300 0.53590 0.44960
H14 H 0.18360 0.31140 0.51280
H15 H 0.15690 0.42930 0.45490
H16 H 0.29000 0.40670 0.50780
H17 H 0.40920 0.19460 0.22200
H18 H 0.53330 0.19430 0.29340
H19 H 0.89370 0.40360 0.31240
H20 H 0.71450 0.32740 0.23250
#END
