
#######################################################################
#
#                 Cambridge Crystallographic Data Centre
#                                CCDC
#
#######################################################################
#
# If this CIF has been generated from an entry in the Cambridge
# Structural Database, then it will include bibliographic, chemical,
# crystal, experimental, refinement or atomic coordinate data resulting
# from the CCDC's data processing and validation procedures.
#
#######################################################################

data_CSD_CIF_EYACAI
_audit_creation_date 2004-10-07
_audit_creation_method CSD-ConQuest-V1
_database_code_CSD EYACAI
_database_code_depnum_ccdc_archive 'CCDC 210848'
_database_code_depnum_ccdc_journal 1135/165
_chemical_formula_sum 'C17 H27 N1 O5'
_chemical_formula_moiety
;
C17 H27 N1 O5
;
_journal_coden_Cambridge 1135
_journal_year 2004
_journal_page_first 18
_journal_name_full 'Mendeleev Commun. '
loop_
_publ_author_name
"S.N.Bizjaev"
"T.V.Rybalova"
"Yu.V.Gatilov"
"A.V.Tkachev"
_chemical_name_systematic
;
(+-)-(1R*,2S*,5R*)-2-(3(E)-Hydroxyimino-2,6,6-trimethylbicyclo(3.1.1)hept-2-yl
)malonic acid diethyl ester
;
_chemical_melting_point 363
_cell_volume   1761.803
_exptl_crystal_colour 'colorless'
_exptl_crystal_density_diffrn 1.227
_exptl_crystal_description 'sected pyramid'
_exptl_crystal_preparation 'hexane'
_diffrn_ambient_temperature 296
_refine_special_details
;
One ethoxy group is disordered over two sites with 0.839:0.161 occupancies.

;
#These two values have been output from a single CSD field.
_refine_ls_R_factor_gt 0.045
_refine_ls_wR_factor_gt 0.045
_symmetry_cell_setting monoclinic
_symmetry_space_group_name_H-M 'P 21/c'
_symmetry_Int_Tables_number 14
loop_
_symmetry_equiv_pos_site_id
_symmetry_equiv_pos_as_xyz
1 x,y,z
2 x,1/2-y,1/2+z
3 -x,-y,-z
4 -x,-1/2+y,-1/2-z
_cell_length_a 7.3705(4)
_cell_length_b 25.5180(14)
_cell_length_c 9.3758(4)
_cell_angle_alpha 90
_cell_angle_beta 92.442(4)
_cell_angle_gamma 90
_cell_formula_units_Z 4
loop_
_atom_type_symbol
_atom_type_radius_bond
C 0.68
H 0.23
N 0.68
O 0.68
loop_
_atom_site_label
_atom_site_type_symbol
_atom_site_fract_x
_atom_site_fract_y
_atom_site_fract_z
C1 C 0.0795(2) 0.65200(6) 0.84914(16)
C2 C 0.08472(19) 0.62486(6) 0.70168(16)
O1 O 0.06926(19) 0.48215(5) 0.66001(15)
N1 N 0.05880(18) 0.53580(5) 0.62217(14)
C3 C 0.08844(19) 0.56563(6) 0.72928(15)
C4 C 0.1245(3) 0.54514(7) 0.87900(18)
C5 C 0.1101(2) 0.58796(7) 0.99082(17)
C6 C -0.0524(2) 0.62441(7) 0.95408(18)
C7 C 0.2354(2) 0.63299(7) 0.95150(18)
C8 C -0.2306(3) 0.59905(13) 0.9025(3)
C9 C -0.0903(4) 0.66129(12) 1.0795(3)
C10 C -0.0788(3) 0.64254(9) 0.6059(2)
C11 C 0.2699(2) 0.63904(6) 0.63228(16)
O2 O 0.2202(2) 0.72942(5) 0.56078(16)
C12 C 0.3024(2) 0.69811(6) 0.63343(17)
O3 O 0.43638(16) 0.71051(4) 0.72648(12)
C13 C 0.4719(3) 0.76623(7) 0.7464(2)
C14 C 0.6315(4) 0.77156(10) 0.8461(3)
C15 C 0.2883(2) 0.61898(7) 0.48038(18)
O4 O 0.1865(2) 0.62696(7) 0.38030(14)
O5 O 0.4490(4) 0.59514(13) 0.4695(2)
C16 C 0.4948(5) 0.57784(15) 0.3275(4)
C17 C 0.4272(5) 0.52374(17) 0.2959(4)
H1 H 0.437(5) 0.6072(17) 0.248(4)
H2 H 0.624(5) 0.5809(14) 0.322(4)
H3 H 0.476(4) 0.5031(13) 0.363(3)
H4 H 0.456(5) 0.5142(15) 0.193(4)
H5 H 0.286(6) 0.5290(14) 0.296(4)
C18? C 0.402(3) 0.5458(8) 0.351(2)
O6? O 0.387(2) 0.5764(5) 0.4831(11)
C19? C 0.517(3) 0.5713(9) 0.257(3)
H6 H 0.115(2) 0.5730(7) 1.087(2)
H7 H 0.368(2) 0.6225(7) 0.6855(18)
H8 H 0.353(2) 0.6232(7) 0.9107(19)
H9 H 0.068(2) 0.6882(8) 0.8381(19)
H10 H 0.259(2) 0.6584(8) 1.032(2)
H11 H -0.192(3) 0.6357(9) 0.647(2)
H12 H 0.246(3) 0.5295(9) 0.885(2)
H13 H 0.034(3) 0.5177(10) 0.891(3)
H14 H 0.492(3) 0.7844(10) 0.653(3)
H15 H -0.218(3) 0.5755(9) 0.823(2)
H16 H 0.362(3) 0.7811(9) 0.778(2)
H17 H -0.137(4) 0.6420(13) 1.153(3)
H18 H 0.032(3) 0.4685(11) 0.577(3)
H19 H -0.087(3) 0.6239(11) 0.514(3)
H20 H 0.601(3) 0.7548(11) 0.940(3)
H21 H 0.732(3) 0.7547(10) 0.800(3)
H22 H -0.281(3) 0.5796(10) 0.977(3)
H23 H -0.068(3) 0.6780(11) 0.588(2)
H24 H -0.322(4) 0.6272(11) 0.874(3)
H25 H 0.660(4) 0.8097(15) 0.865(3)
H26 H -0.185(5) 0.6830(15) 1.046(3)
H27 H 0.022(4) 0.6785(12) 1.122(3)
#END
