
#######################################################################
#
#                 Cambridge Crystallographic Data Centre
#                                CCDC
#
#######################################################################
#
# If this CIF has been generated from an entry in the Cambridge
# Structural Database, then it will include bibliographic, chemical,
# crystal, experimental, refinement or atomic coordinate data resulting
# from the CCDC's data processing and validation procedures.
#
#######################################################################

data_CSD_CIF_EYEQUW
_audit_creation_date 2016-10-31
_audit_creation_method CSD-ConQuest-V1
_database_code_CSD EYEQUW
_database_code_depnum_ccdc_archive 'CCDC 608823'
_chemical_formula_sum 'C32 H26 N4 O6'
_chemical_formula_moiety
;
C32 H26 N4 O6
;
_journal_coden_Cambridge 1078
_journal_year 2016
_journal_name_full 'CSD Communication(Private Communication) '
loop_
_publ_author_name
"D.Philp"
"A.M.Z.Slawin"
_chemical_name_systematic
;
(3-(3-(4-((6-methylpyridin-2-yl)carbamoyl)phenyl)-4,6-dioxo-2-phenylhexahydro-
5H-pyrrolo[3,4-d][1,2]oxazol-5-yl)phenyl)acetic acid
;
_cell_volume   2642.798
_exptl_crystal_colour 'colorless'
_exptl_crystal_density_diffrn 1.414
_exptl_crystal_description 'needle'
_diffrn_ambient_temperature 93
#These two values have been output from a single CSD field.
_refine_ls_R_factor_gt 0.0361
_refine_ls_wR_factor_gt 0.0361
_symmetry_cell_setting triclinic
_symmetry_space_group_name_H-M 'P -1'
_symmetry_Int_Tables_number 2
loop_
_symmetry_equiv_pos_site_id
_symmetry_equiv_pos_as_xyz
1 x,y,z
2 -x,-y,-z
_cell_length_a 11.348(3)
_cell_length_b 14.237(4)
_cell_length_c 17.116(4)
_cell_angle_alpha 88.839(9)
_cell_angle_beta 72.955(5)
_cell_angle_gamma 88.616(11)
_cell_formula_units_Z 4
loop_
_atom_type_symbol
_atom_type_radius_bond
C 0.68
H 0.23
N 0.68
O 0.68
loop_
_atom_site_label
_atom_site_type_symbol
_atom_site_fract_x
_atom_site_fract_y
_atom_site_fract_z
N1 N 1.03637(12) -0.35906(9) 0.35819(7)
C1 C 0.97526(15) -0.42851(11) 0.41194(9)
O1 O 0.91287(11) -0.41598(7) 0.48132(6)
C2 C 1.00322(15) -0.52158(10) 0.36659(9)
H1 H 1.06620 -0.55930 0.38470
O2 O 0.8971(1) -0.57437(7) 0.37500(6)
N2 N 0.84003(12) -0.52554(8) 0.31855(7)
C3 C 0.94291(14) -0.51145(10) 0.24264(9)
H2 H 0.95870 -0.57040 0.21000
C4 C 1.05351(15) -0.49318(10) 0.27669(9)
H3 H 1.12720 -0.53260 0.24840
C5 C 1.08697(15) -0.39104(11) 0.27800(9)
C6 C 1.04747(15) -0.26346(11) 0.38125(9)
C7 C 0.97750(15) -0.19325(10) 0.35829(9)
H4 H 0.92070 -0.20830 0.32950
C8 C 0.99088(15) -0.10003(11) 0.37771(9)
C9 C 1.07458(15) -0.08069(11) 0.42012(9)
H5 H 1.08540 -0.01750 0.43290
C10 C 1.14264(15) -0.15186(11) 0.44420(9)
H6 H 1.19810 -0.13730 0.47420
C11 C 1.12977(15) -0.24440(11) 0.42440(9)
H7 H 1.17650 -0.29360 0.44020
C12 C 0.91523(16) -0.02129(10) 0.35475(9)
H8 H 0.95210 0.03920 0.36160
H9 H 0.83120 -0.02240 0.39360
C13 C 0.90422(15) -0.02401(10) 0.26886(9)
O3 O 0.94730(11) -0.08630(7) 0.22049(6)
O4 O 0.84112(10) 0.04858(7) 0.25160(7)
H10 H 0.840(2) 0.0451(16) 0.1947(4)
C14 C 0.74032(15) -0.58091(10) 0.31321(9)
C15 C 0.69322(16) -0.56946(11) 0.24679(10)
H11 H 0.73210 -0.52820 0.20300
C16 C 0.59022(16) -0.61796(11) 0.24462(10)
H12 H 0.55840 -0.60940 0.19940
C17 C 0.53310(17) -0.67874(11) 0.30756(10)
H13 H 0.46220 -0.71190 0.30590
C18 C 0.58030(17) -0.69062(11) 0.3728(1)
H14 H 0.54180 -0.73280 0.41590
C19 C 0.68301(16) -0.64216(11) 0.37667(9)
H15 H 0.71400 -0.65070 0.42230
C20 C 0.91714(14) -0.43028(10) 0.19101(9)
C21 C 0.84035(15) -0.35549(10) 0.22618(9)
H16 H 0.79800 -0.35710 0.28300
C22 C 0.82511(15) -0.27837(10) 0.17875(9)
H17 H 0.77280 -0.22740 0.20340
C23 C 0.88592(15) -0.27547(10) 0.09559(9)
C24 C 0.95976(15) -0.35197(10) 0.05974(9)
H18 H 0.99920 -0.35160 0.00250
C25 C 0.97586(15) -0.42834(10) 0.10717(9)
H19 H 1.02730 -0.47980 0.08240
C26 C 0.87194(15) -0.1940(1) 0.04187(9)
O5 O 0.87396(12) -0.20646(8) -0.02929(6)
N3 N 0.85814(12) -0.10847(9) 0.07831(7)
H20 H 0.8765(18) -0.1045(14) 0.1306(6)
C27 C 0.84270(14) -0.02069(10) 0.04387(9)
N4 N 0.83408(12) 0.05135(9) 0.09513(8)
C28 C 0.82250(15) 0.13992(11) 0.06724(10)
C29 C 0.81907(15) 0.15743(11) -0.01203(10)
H21 H 0.81180 0.22000 -0.03060
C30 C 0.82637(16) 0.08282(12) -0.06377(10)
H22 H 0.82410 0.09380 -0.11820
C31 C 0.83703(15) -0.00800(11) -0.03581(9)
H23 H 0.84040 -0.06030 -0.07010
C32 C 0.81352(17) 0.21805(11) 0.12667(10)
H24 H 0.89460 0.22750 0.13440
H25 H 0.75430 0.20150 0.17920
H26 H 0.78580 0.27610 0.10510
O6 O 1.14707(10) -0.34364(8) 0.22210(7)
N5 N 0.47728(12) 0.08880(8) -0.37629(7)
C33 C 0.55440(14) 0.02389(10) -0.42716(9)
O7 O 0.62517(10) 0.04084(7) -0.49361(6)
C34 C 0.52907(14) -0.07224(10) -0.38427(9)
H27 H 0.47620 -0.11010 -0.40880
O8 O 0.63667(10) -0.12290(7) -0.38451(6)
N6 N 0.67647(12) -0.07381(8) -0.32233(7)
C35 C 0.56350(14) -0.06381(10) -0.25204(9)
H28 H 0.54950 -0.12300 -0.21840
C36 C 0.46092(15) -0.04968(10) -0.29539(9)
H29 H 0.39070 -0.09290 -0.27240
C37 C 0.41655(14) 0.05114(10) -0.29870(9)
O9 O 0.34311(10) 0.09431(7) -0.24622(6)
C38 C 0.45534(15) 0.18467(10) -0.39865(9)
C39 C 0.52405(15) 0.25525(10) -0.38111(9)
H30 H 0.58860 0.24030 -0.35780
C40 C 0.49872(15) 0.34906(10) -0.39766(8)
C41 C 0.40313(15) 0.36865(10) -0.43160(8)
H31 H 0.38420 0.43200 -0.44250
C42 C 0.33514(15) 0.29676(11) -0.44964(9)
H32 H 0.27090 0.31120 -0.47340
C43 C 0.36075(15) 0.20393(11) -0.43309(9)
H33 H 0.31440 0.15450 -0.44510
C44 C 0.57269(16) 0.42705(10) -0.37795(9)
H34 H 0.53500 0.48820 -0.38710
H35 H 0.65720 0.42410 -0.41610
C45 C 0.58039(15) 0.42286(10) -0.29092(9)
O10 O 0.51871(11) 0.37122(8) -0.23813(6)
O11 O 0.66004(11) 0.48193(7) -0.27811(7)
H36 H 0.649(2) 0.4844(16) -0.2192(3)
C46 C 0.77750(14) -0.12671(10) -0.30983(9)
C47 C 0.80899(15) -0.11783(10) -0.23714(9)
H37 H 0.75950 -0.07970 -0.19450
C48 C 0.91238(15) -0.16468(10) -0.22745(9)
H38 H 0.93360 -0.15820 -0.17810
C49 C 0.98534(15) -0.22092(10) -0.28896(9)
H39 H 1.05600 -0.25300 -0.28200
C50 C 0.95359(15) -0.22968(10) -0.36068(9)
H40 H 1.00270 -0.26860 -0.40270
C51 C 0.85126(15) -0.18261(10) -0.37219(9)
H41 H 0.83150 -0.18840 -0.42210
C52 C 0.57017(14) 0.0189(1) -0.19907(9)
C53 C 0.64305(14) 0.09538(10) -0.23102(9)
H42 H 0.69550 0.09390 -0.28560
C54 C 0.64004(15) 0.17384(10) -0.18405(9)
H43 H 0.69050 0.22570 -0.20660
C55 C 0.56325(14) 0.17724(10) -0.10376(9)
C56 C 0.49158(15) 0.09981(10) -0.07126(9)
H44 H 0.44030 0.10080 -0.01630
C57 C 0.49440(15) 0.02138(10) -0.11836(9)
H45 H 0.44470 -0.03090 -0.09580
C58 C 0.56577(14) 0.25821(10) -0.05001(9)
O12 O 0.5476(1) 0.24854(7) 0.02376(6)
N7 N 0.59330(13) 0.34217(8) -0.09179(7)
H46 H 0.5791(17) 0.3452(13) -0.1456(5)
C59 C 0.62812(15) 0.42575(10) -0.06449(9)
N8 N 0.64505(12) 0.49652(9) -0.11994(8)
C60 C 0.67859(15) 0.58127(11) -0.10076(10)
C61 C 0.70101(16) 0.59611(11) -0.02641(10)
H47 H 0.72730 0.65550 -0.01430
C62 C 0.68416(17) 0.52247(12) 0.02959(10)
H48 H 0.69830 0.53160 0.08090
C63 C 0.64708(15) 0.43602(11) 0.01177(10)
H49 H 0.63490 0.38530 0.05000
C64 C 0.68902(17) 0.65979(11) -0.16198(10)
H50 H 0.61430 0.69950 -0.14610
H51 H 0.69880 0.63360 -0.21610
H52 H 0.76080 0.69760 -0.16370
#END
