
#######################################################################
#
#                 Cambridge Crystallographic Data Centre
#                                CCDC
#
#######################################################################
#
# If this CIF has been generated from an entry in the Cambridge
# Structural Database, then it will include bibliographic, chemical,
# crystal, experimental, refinement or atomic coordinate data resulting
# from the CCDC's data processing and validation procedures.
#
#######################################################################

data_CSD_CIF_EYIXIT
_audit_creation_date 2004-10-07
_audit_creation_method CSD-ConQuest-V1
_database_code_CSD EYIXIT
_database_code_depnum_ccdc_archive 'CCDC 248169'
_chemical_formula_sum 'C12 H25 N1 O3'
_chemical_formula_moiety
;
C12 H25 N1 O3
;
_journal_coeditor_code "IUCr JZ1616"
_journal_coden_Cambridge 591
_journal_volume 60
_journal_year 2004
_journal_page_first o589
_journal_name_full 'Acta Crystallogr.,Sect.C:Cryst.Struct.Commun. '
loop_
_publ_author_name
"M.Schmittel"
"M.Lal"
"M.Schlosser"
"H.-J.Deiseroth"
_chemical_name_systematic
;
2-(2,2,6,6-Tetramethylpiperidin-1-yloxy)propane-1,3-diol
;
_chemical_melting_point 354
_cell_volume   1322.233
_exptl_crystal_colour 'colorless'
_exptl_crystal_density_diffrn 1.162
_exptl_crystal_description 'needles'
_exptl_crystal_preparation 'hexane/ethyl acetate'
_diffrn_ambient_temperature 173
#These two values have been output from a single CSD field.
_refine_ls_R_factor_gt 0.0364
_refine_ls_wR_factor_gt 0.0364
_symmetry_cell_setting monoclinic
_symmetry_space_group_name_H-M 'P 21/n'
_symmetry_Int_Tables_number 14
loop_
_symmetry_equiv_pos_site_id
_symmetry_equiv_pos_as_xyz
1 x,y,z
2 1/2+x,1/2-y,1/2+z
3 -x,-y,-z
4 -1/2-x,-1/2+y,-1/2-z
_cell_length_a 14.6525(13)
_cell_length_b 14.6357(8)
_cell_length_c 6.1793(5)
_cell_angle_alpha 90
_cell_angle_beta 93.801(10)
_cell_angle_gamma 90
_cell_formula_units_Z 4
loop_
_atom_type_symbol
_atom_type_radius_bond
C 0.68
H 0.23
N 0.68
O 0.68
loop_
_atom_site_label
_atom_site_type_symbol
_atom_site_fract_x
_atom_site_fract_y
_atom_site_fract_z
N1 N 0.83695(5) 0.19447(5) 0.09459(13)
O1 O 0.87895(4) 0.28244(4) 0.15085(10)
O2 O 0.93334(5) 0.40403(5) -0.35090(11)
H1 H 0.9614(10) 0.4535(10) -0.303(2)
O3 O 0.97076(5) 0.44377(5) 0.22922(11)
H2 H 0.9485(9) 0.4193(9) 0.340(2)
C1 C 0.73809(6) 0.20290(7) 0.14236(16)
C2 C 0.69463(7) 0.10860(7) 0.0970(2)
H3 H 0.63000 0.11050 0.13420
H4 H 0.69530 0.09530 -0.06000
C3 C 0.74314(8) 0.03201(8) 0.2232(2)
H5 H 0.71430 -0.02730 0.18260
H6 H 0.73820 0.04150 0.38060
C4 C 0.84318(8) 0.03101(7) 0.1719(2)
H7 H 0.84720 0.01550 0.01690
H8 H 0.87530 -0.01750 0.25890
C5 C 0.89214(7) 0.12252(7) 0.21828(17)
C6 C 0.93335(6) 0.31733(6) -0.01723(14)
H9 H 0.96190 0.26490 -0.09160
C7 C 0.87718(7) 0.37361(7) -0.18464(16)
H10 H 0.82620 0.33610 -0.24970
H11 H 0.85070 0.42710 -0.11330
C8 C 1.00801(6) 0.37259(6) 0.10436(16)
H12 H 1.04550 0.33160 0.20170
H13 H 1.04850 0.39960 -0.00080
C9 C 0.69230(7) 0.27123(8) -0.01684(18)
H14 H 0.71630 0.33260 0.01520
H15 H 0.62610 0.27070 -0.00270
H16 H 0.70510 0.25420 -0.16520
C10 C 0.72040(7) 0.23651(8) 0.37195(17)
H17 H 0.73400 0.18720 0.47650
H18 H 0.65620 0.25460 0.37650
H19 H 0.75980 0.28910 0.40890
C11 C 0.98569(7) 0.11664(7) 0.12177(19)
H20 H 0.97710 0.11220 -0.03650
H21 H 1.01840 0.06240 0.17890
H22 H 1.02140 0.17150 0.16130
C12 C 0.90958(8) 0.13938(8) 0.46359(18)
H23 H 0.92480 0.20390 0.48900
H24 H 0.96060 0.10110 0.52030
H25 H 0.85450 0.12390 0.53750
#END
