
#######################################################################
#
#                 Cambridge Crystallographic Data Centre
#                                CCDC
#
#######################################################################
#
# If this CIF has been generated from an entry in the Cambridge
# Structural Database, then it will include bibliographic, chemical,
# crystal, experimental, refinement or atomic coordinate data resulting
# from the CCDC's data processing and validation procedures.
#
#######################################################################

data_CSD_CIF_EYOGAB
_audit_creation_date 2011-11-07
_audit_creation_method CSD-ConQuest-V1
_database_code_CSD EYOGAB
_database_code_depnum_ccdc_archive 'CCDC 206290'
_chemical_formula_sum 'C20 H21 N1 O4'
_chemical_formula_moiety
;
C20 H21 N1 O4
;
_journal_coden_Cambridge 639
_journal_volume 50
_journal_year 2011
_journal_page_first 1092
_journal_name_full 'Indian J.Chem.,Sect.B:Org.Chem.Incl.Med.Chem. '
loop_
_publ_author_name
"A.Srikrishna"
"D.H.Dethe"
_chemical_name_systematic
;
3-(6,6a-Dimethyl-2,3,4,6a-tetrahydropentalen-3a(1H)-yl)prop-2-yn-1-yl 
4-nitrobenzoate
;
_cell_volume   1792.770
_exptl_crystal_density_diffrn 1.257
_diffrn_ambient_temperature 293
#These two values have been output from a single CSD field.
_refine_ls_R_factor_gt 0.1142
_refine_ls_wR_factor_gt 0.1142
_symmetry_cell_setting monoclinic
_symmetry_space_group_name_H-M 'P 21'
_symmetry_Int_Tables_number 4
loop_
_symmetry_equiv_pos_site_id
_symmetry_equiv_pos_as_xyz
1 x,y,z
2 -x,1/2+y,-z
_cell_length_a 11.151(6)
_cell_length_b 6.861(4)
_cell_length_c 24.007(14)
_cell_angle_alpha 90
_cell_angle_beta 102.557(8)
_cell_angle_gamma 90
_cell_formula_units_Z 4
loop_
_atom_type_symbol
_atom_type_radius_bond
C 0.68
H 0.23
N 0.68
O 0.68
loop_
_atom_site_label
_atom_site_type_symbol
_atom_site_fract_x
_atom_site_fract_y
_atom_site_fract_z
C1 C -0.457(2) 1.630(3) 0.0806(9)
C2 C -0.583(2) 1.584(4) 0.0806(11)
H1 H -0.58640 1.47420 0.10490
H2 H -0.62640 1.55400 0.04240
H3 H -0.62120 1.69460 0.09440
C3 C -0.408(2) 1.759(4) 0.0536(11)
H4 H -0.45820 1.85170 0.03170
C4 C -0.276(2) 1.761(4) 0.0570(11)
H5 H -0.23820 1.88120 0.07370
H6 H -0.25620 1.74080 0.02000
C5 C -0.2379(19) 1.578(3) 0.0986(9)
C6 C -0.156(2) 1.651(4) 0.1598(10)
H7 H -0.10690 1.54550 0.17980
H8 H -0.10290 1.75860 0.15510
C7 C -0.247(2) 1.710(4) 0.1883(11)
H9 H -0.21290 1.73130 0.22850
H10 H -0.28700 1.82850 0.17180
C8 C -0.333(3) 1.551(4) 0.1805(12)
H11 H -0.40870 1.58660 0.19150
H12 H -0.29810 1.43660 0.20170
C9 C -0.354(2) 1.518(3) 0.1109(9)
C10 C -0.381(2) 1.305(4) 0.1050(12)
H13 H -0.45790 1.27850 0.11530
H14 H -0.31680 1.23290 0.12980
H15 H -0.38570 1.26510 0.06630
C11 C -0.172(2) 1.444(4) 0.0713(10)
C12 C -0.124(2) 1.326(3) 0.0464(10)
C13 C -0.0614(17) 1.188(3) 0.0224(8)
H16 H -0.01360 1.25370 -0.00120
H17 H -0.12050 1.10480 -0.00240
O1 O 0.0213(12) 1.0639(19) 0.0635(6)
C14 C 0.125(2) 1.140(3) 0.0922(9)
O2 O 0.1564(13) 1.302(2) 0.0836(6)
C15 C 0.1924(15) 1.000(3) 0.1358(8)
C16 C 0.1596(18) 0.816(3) 0.1412(9)
H18 H 0.08880 0.76750 0.11740
C17 C 0.2315(18) 0.693(3) 0.1831(9)
H19 H 0.20850 0.56550 0.18910
C18 C 0.3368(17) 0.775(3) 0.2137(8)
C19 C 0.3697(17) 0.964(3) 0.2112(9)
H20 H 0.43700 1.01490 0.23680
C20 C 0.2989(19) 1.079(3) 0.1685(9)
H21 H 0.32270 1.20510 0.16220
N1 N 0.4081(17) 0.635(3) 0.2595(8)
O3 O 0.3820(13) 0.467(2) 0.2600(7)
O4 O 0.4975(13) 0.713(2) 0.2915(6)
C21 C 0.9556(18) 0.148(3) 0.4191(9)
C22 C 1.040(2) -0.008(3) 0.4391(10)
H22 H 0.99560 -0.12120 0.44620
H23 H 1.09570 0.03140 0.47380
H24 H 1.08640 -0.03730 0.41070
C23 C 0.980(2) 0.336(4) 0.4036(10)
H25 H 1.05970 0.38490 0.40980
C24 C 0.879(2) 0.444(4) 0.3785(11)
H26 H 0.87970 0.46750 0.33870
H27 H 0.88130 0.56950 0.39750
C25 C 0.7712(19) 0.341(3) 0.3829(8)
C26 C 0.683(2) 0.295(4) 0.3242(11)
H28 H 0.59920 0.28210 0.32870
H29 H 0.68640 0.39900 0.29710
C27 C 0.726(3) 0.115(5) 0.3051(14)
H30 H 0.79350 0.13980 0.28630
H31 H 0.66060 0.05170 0.27800
C28 C 0.769(2) -0.012(3) 0.355(1)
H32 H 0.83370 -0.09830 0.34910
H33 H 0.70140 -0.09030 0.36270
C29 C 0.8166(17) 0.134(3) 0.4049(8)
C30 C 0.7768(17) 0.057(3) 0.4576(9)
H34 H 0.68880 0.04650 0.44990
H35 H 0.80400 0.14420 0.48900
H36 H 0.81240 -0.06960 0.46720
C31 C 0.6945(18) 0.426(3) 0.4207(9)
C32 C 0.6337(19) 0.519(3) 0.4453(9)
C33 C 0.5589(17) 0.633(3) 0.4745(9)
H37 H 0.61160 0.71210 0.50330
H38 H 0.51300 0.54570 0.49390
O5 O 0.4744(12) 0.7575(18) 0.4369(6)
C34 C 0.369(2) 0.675(3) 0.4081(10)
O6 O 0.3509(12) 0.500(2) 0.4141(6)
C35 C 0.2906(17) 0.804(3) 0.3698(8)
C36 C 0.3188(17) 0.999(3) 0.3632(8)
H39 H 0.39380 1.04490 0.38390
C37 C 0.2443(17) 1.127(3) 0.3287(8)
H40 H 0.26260 1.25890 0.32820
C38 C 0.141(2) 1.050(4) 0.2949(10)
C39 C 0.1066(19) 0.866(3) 0.2977(9)
H41 H 0.03300 0.82280 0.27500
C40 C 0.1816(18) 0.739(3) 0.3351(9)
H42 H 0.15840 0.60920 0.33690
O7 O 0.0786(13) 1.343(2) 0.2585(7)
O8 O -0.0292(17) 1.104(3) 0.2225(8)
N2 N 0.057(2) 1.170(3) 0.2506(9)
#END
