
#######################################################################
#
#                 Cambridge Crystallographic Data Centre
#                                CCDC
#
#######################################################################
#
# If this CIF has been generated from an entry in the Cambridge
# Structural Database, then it will include bibliographic, chemical,
# crystal, experimental, refinement or atomic coordinate data resulting
# from the CCDC's data processing and validation procedures.
#
#######################################################################

data_CSD_CIF_EYOGAC
_audit_creation_date 2016-10-31
_audit_creation_method CSD-ConQuest-V1
_database_code_CSD EYOGAC
_database_code_depnum_ccdc_archive 'CCDC 691285'
_chemical_formula_sum 'C13 H17 N3 O4'
_chemical_formula_moiety
;
C13 H17 N3 O4
;
_journal_coeditor_code "IUCr CI2842"
_journal_coden_Cambridge 1370
_journal_volume 65
_journal_year 2009
_journal_page_first o1842
_journal_name_full 'Acta Crystallogr.,Sect.E:Struct.Rep.Online '
loop_
_publ_author_name
"Y.Bingol Alpaslan"
"H.Tanak"
"E.Agar"
"F.Ersahin"
_chemical_name_systematic
;
(E)-2-((2-morpholinoethyliminio)methyl)-4-nitrophenolate
;
_cell_volume    675.909
_exptl_crystal_colour 'orange'
_exptl_crystal_density_diffrn 1.372
_exptl_special_details
;
for isomer see [MUBGUM]

;
_exptl_crystal_description 'prism'
_diffrn_ambient_temperature 296
#These two values have been output from a single CSD field.
_refine_ls_R_factor_gt 0.0365
_refine_ls_wR_factor_gt 0.0365
_symmetry_cell_setting triclinic
_symmetry_space_group_name_H-M 'P -1'
_symmetry_Int_Tables_number 2
loop_
_symmetry_equiv_pos_site_id
_symmetry_equiv_pos_as_xyz
1 x,y,z
2 -x,-y,-z
_cell_length_a 5.3520(4)
_cell_length_b 10.9011(8)
_cell_length_c 12.4537(9)
_cell_angle_alpha 74.068(6)
_cell_angle_beta 82.857(6)
_cell_angle_gamma 75.747(6)
_cell_formula_units_Z 2
loop_
_atom_type_symbol
_atom_type_radius_bond
C 0.68
H 0.23
N 0.68
O 0.68
loop_
_atom_site_label
_atom_site_type_symbol
_atom_site_fract_x
_atom_site_fract_y
_atom_site_fract_z
C1 C 0.8177(2) 0.22110(11) 0.53092(9)
C2 C 0.7588(2) 0.09759(11) 0.56534(9)
H1 H 0.63100 0.07960 0.53160
C3 C 0.8903(2) 0.00289(11) 0.64922(10)
C4 C 1.0826(2) 0.02756(12) 0.70247(10)
H2 H 1.16860 -0.03760 0.75960
C5 C 1.1420(3) 0.14647(13) 0.67026(11)
H3 H 1.26820 0.16170 0.70690
C6 C 1.0181(2) 0.25015(11) 0.58183(10)
C7 C 0.6760(2) 0.31669(12) 0.44422(10)
H4 H 0.55090 0.29250 0.41390
C8 C 0.5549(3) 0.53050(13) 0.31727(11)
H5 H 0.49400 0.61200 0.33930
H6 H 0.40500 0.49930 0.30930
C9 C 0.7074(3) 0.55550(13) 0.20587(11)
H7 H 0.84770 0.59500 0.21130
H8 H 0.78160 0.47320 0.18650
C10 C 0.6570(3) 0.63915(15) 0.00680(11)
H9 H 0.69700 0.55010 -0.00100
H10 H 0.81650 0.66940 -0.00470
C11 C 0.4720(4) 0.72552(17) -0.07907(13)
H11 H 0.54790 0.72170 -0.15330
H12 H 0.31420 0.69380 -0.06800
C12 C 0.3002(4) 0.86349(16) 0.03725(15)
H13 H 0.13810 0.83560 0.04860
H14 H 0.26350 0.95330 0.04280
C13 C 0.4769(3) 0.77797(13) 0.12719(12)
H15 H 0.63420 0.80960 0.11940
H16 H 0.39310 0.78230 0.20020
N1 N 0.8376(2) -0.12592(10) 0.68031(9)
N2 N 0.7087(2) 0.43442(10) 0.40464(8)
N3 N 0.5407(2) 0.64234(10) 0.11888(9)
O1 O 1.0788(2) 0.35946(9) 0.55036(9)
O2 O 0.9747(2) -0.21308(9) 0.74734(9)
O3 O 0.6603(2) -0.14569(9) 0.63773(9)
O4 O 0.4125(3) 0.85728(12) -0.07118(10)
H17 H 0.829(3) 0.4562(17) 0.4331(15)
#END
