
#######################################################################
#
#                 Cambridge Crystallographic Data Centre
#                                CCDC
#
#######################################################################
#
# If this CIF has been generated from an entry in the Cambridge
# Structural Database, then it will include bibliographic, chemical,
# crystal, experimental, refinement or atomic coordinate data resulting
# from the CCDC's data processing and validation procedures.
#
#######################################################################

data_CSD_CIF_EYOKUZ
_audit_creation_date 2011-11-07
_audit_creation_method CSD-ConQuest-V1
_database_code_CSD EYOKUZ
_database_code_depnum_ccdc_archive 'CCDC 846019'
_chemical_formula_sum 'C26 H34 N2 O4'
_chemical_formula_moiety
;
C26 H34 N2 O4
;
_journal_coden_Cambridge 35
_journal_volume 76
_journal_year 2011
_journal_page_first 1013
_journal_name_full 'J.Org.Chem. '
loop_
_publ_author_name
"D.W.Lin"
"T.Masuda"
"M.B.Biskup"
"J.D.Nelson"
"P.S.Baran"
_chemical_name_systematic
;
4-(Benzyloxy)-6-((benzyloxy)imino)-2,5-di-sec-butylmorpholin-3-one
;
_cell_volume   2389.831
_exptl_crystal_colour 'colorless'
_exptl_crystal_density_diffrn 1.219
_exptl_special_details
;
Absolute configuration

;
_exptl_crystal_description 'needle'
_diffrn_ambient_temperature 100
#These two values have been output from a single CSD field.
_refine_ls_R_factor_gt 0.0773
_refine_ls_wR_factor_gt 0.0773
_symmetry_cell_setting monoclinic
_symmetry_space_group_name_H-M 'P 21'
_symmetry_Int_Tables_number 4
loop_
_symmetry_equiv_pos_site_id
_symmetry_equiv_pos_as_xyz
1 x,y,z
2 -x,1/2+y,-z
_cell_length_a 13.7524(8)
_cell_length_b 6.0384(4)
_cell_length_c 28.938(2)
_cell_angle_alpha 90
_cell_angle_beta 96.020(5)
_cell_angle_gamma 90
_cell_formula_units_Z 4
loop_
_atom_type_symbol
_atom_type_radius_bond
C 0.68
H 0.23
N 0.68
O 0.68
loop_
_atom_site_label
_atom_site_type_symbol
_atom_site_fract_x
_atom_site_fract_y
_atom_site_fract_z
C1 C -0.1602(5) 0.5877(13) 0.1662(3)
C2 C 0.1573(5) -0.1891(12) 0.3429(3)
C3 C -0.2304(4) 0.5908(13) 0.2029(2)
H1 H -0.25530 0.74570 0.20500
C4 C 0.2219(5) -0.2054(12) 0.3046(3)
H2 H 0.25030 -0.35790 0.30670
C5 C -0.2971(4) 0.2479(12) 0.1731(2)
C6 C 0.2957(5) 0.1458(13) 0.3275(2)
C7 C 0.2353(5) 0.1803(13) 0.3676(2)
H3 H 0.20090 0.32610 0.36380
C8 C -0.2310(5) 0.2309(13) 0.1351(2)
H4 H -0.19170 0.09250 0.14080
C9 C 0.1639(7) -0.1910(17) 0.2577(3)
H5 H 0.10910 -0.30030 0.25680
C10 C -0.1793(5) 0.5262(12) 0.2516(3)
H6 H -0.23140 0.45900 0.26870
C11 C -0.1032(6) 0.3543(15) 0.2505(3)
H7 H -0.12900 0.23030 0.23110
H8 H -0.08390 0.30140 0.28220
H9 H -0.04610 0.41700 0.23760
C12 C 0.1188(6) 0.044(2) 0.2495(3)
H10 H 0.17120 0.15220 0.24740
H11 H 0.08170 0.08280 0.27550
H12 H 0.07500 0.04470 0.22050
C13 C 0.2241(7) -0.245(2) 0.2191(3)
H13 H 0.24200 -0.10160 0.20590
H14 H 0.28570 -0.31010 0.23410
C14 C -0.1419(5) 0.7238(13) 0.2799(3)
H15 H -0.10140 0.81560 0.26100
H16 H -0.09940 0.67110 0.30740
C15 C 0.2003(9) -0.357(4) 0.1879(4)
H17 H 0.14910 -0.45870 0.19600
H18 H 0.25650 -0.44270 0.17970
H19 H 0.17480 -0.26560 0.16140
C16 C -0.2219(5) 0.8666(13) 0.2961(2)
H20 H -0.26420 0.92080 0.26910
H21 H -0.19270 0.99270 0.31380
H22 H -0.26080 0.77890 0.31590
C17 C 0.4719(4) 0.4497(13) 0.2801(2)
H23 H 0.43250 0.58570 0.27370
H24 H 0.51110 0.42710 0.25370
C18 C -0.4735(4) -0.0706(12) 0.2171(2)
H25 H -0.51340 -0.05570 0.24340
H26 H -0.43340 -0.20640 0.22200
C19 C 0.5388(5) 0.4841(13) 0.3225(2)
C20 C -0.5409(4) -0.0918(13) 0.1718(2)
C21 C -0.5390(5) -0.2846(13) 0.1460(2)
H27 H -0.49730 -0.40350 0.15680
C22 C 0.5394(5) 0.6750(14) 0.3484(2)
H28 H 0.49360 0.78760 0.33860
C23 C 0.6028(5) 0.7122(15) 0.3877(2)
H29 H 0.60160 0.84830 0.40420
C24 C -0.5980(5) -0.3027(16) 0.1046(3)
H30 H -0.59590 -0.43330 0.08640
C25 C 0.6680(6) 0.5470(17) 0.4027(3)
H31 H 0.71180 0.56700 0.43010
C26 C -0.6597(6) -0.1325(17) 0.0895(3)
H32 H -0.70050 -0.14580 0.06100
C27 C 0.6692(6) 0.3461(17) 0.3769(3)
H33 H 0.71290 0.22980 0.38700
C28 C -0.6621(6) 0.0492(15) 0.1146(3)
H34 H -0.70640 0.16390 0.10430
C29 C -0.6013(5) 0.0783(14) 0.1561(2)
H35 H -0.60200 0.21310 0.17300
C30 C 0.6063(5) 0.3241(14) 0.3374(3)
H36 H 0.60920 0.19290 0.31950
C31 C 0.2982(6) 0.1736(17) 0.4160(3)
H37 H 0.25360 0.13590 0.44010
C32 C -0.2901(5) 0.2075(14) 0.0867(2)
H38 H -0.24360 0.24560 0.06360
C33 C 0.3388(7) 0.406(2) 0.4267(3)
H39 H 0.36720 0.41250 0.45920
H40 H 0.28580 0.51430 0.42150
H41 H 0.38930 0.43880 0.40620
C34 C -0.3710(6) 0.3815(19) 0.0806(2)
H42 H -0.39470 0.39500 0.04760
H43 H -0.34520 0.52460 0.09230
H44 H -0.42500 0.33670 0.09810
C35 C 0.3749(6) 0.0096(17) 0.4186(3)
H45 H 0.42590 0.05660 0.39890
H46 H 0.34770 -0.13310 0.40640
C36 C -0.3232(8) -0.0256(16) 0.0757(3)
H47 H -0.35520 -0.08460 0.10220
H48 H -0.26510 -0.11840 0.07230
C37 C 0.4201(7) -0.022(3) 0.4676(3)
H49 H 0.45370 0.11490 0.47850
H50 H 0.46730 -0.14360 0.46880
H51 H 0.36890 -0.05630 0.48760
C38 C -0.3978(9) -0.048(5) 0.0293(4)
H52 H -0.43710 0.08760 0.02500
H53 H -0.44100 -0.17490 0.03220
H54 H -0.36080 -0.06900 0.00250
C39 C 0.0070(4) 0.1234(12) 0.3789(2)
H55 H -0.02660 0.01670 0.35660
H56 H 0.01960 0.26180 0.36220
C40 C -0.0064(4) 0.3030(16) 0.1235(2)
H57 H -0.01850 0.16670 0.14110
H58 H 0.03020 0.40900 0.14490
C41 C 0.0497(5) 0.2508(14) 0.0835(2)
C42 C -0.0531(4) 0.1684(11) 0.4187(2)
C43 C -0.1141(4) 0.0075(12) 0.4334(2)
H59 H -0.12220 -0.12830 0.41690
C44 C 0.1099(4) 0.4073(14) 0.0667(2)
H60 H 0.11850 0.54660 0.08180
C45 C 0.1569(5) 0.3637(14) 0.0287(2)
H61 H 0.19870 0.47290 0.01780
C46 C -0.1637(4) 0.0424(13) 0.4721(2)
H62 H -0.20490 -0.06950 0.48250
C47 C -0.1526(5) 0.2394(14) 0.4953(2)
H63 H -0.18590 0.26450 0.52190
C48 C 0.1451(5) 0.1613(15) 0.0055(2)
H64 H 0.17780 0.13270 -0.02120
C49 C 0.0864(5) 0.0075(15) 0.0216(3)
H65 H 0.07770 -0.13130 0.00630
C50 C -0.0927(5) 0.4032(13) 0.4799(2)
H66 H -0.08510 0.53990 0.49620
C51 C -0.0445(5) 0.3680(11) 0.4413(2)
H67 H -0.00520 0.48190 0.43030
C52 C 0.0389(5) 0.0497(15) 0.0601(3)
H68 H -0.00220 -0.06080 0.07100
N1 N -0.1643(4) 0.4103(11) 0.13726(18)
N2 N 0.1612(4) -0.0019(10) 0.36604(18)
N3 N 0.3462(4) 0.3128(9) 0.3176(2)
N4 N -0.3442(4) 0.0771(9) 0.18251(18)
O1 O -0.3139(3) 0.4483(8) 0.19079(16)
O2 O 0.3047(3) -0.0544(8) 0.30825(16)
O3 O -0.0984(3) 0.7388(9) 0.16446(18)
O4 O 0.0995(3) -0.3376(9) 0.34924(18)
O5 O -0.4103(3) 0.1187(8) 0.21582(14)
O6 O 0.4064(3) 0.2643(8) 0.28233(15)
O7 O 0.0980(3) 0.0299(8) 0.40150(14)
O8 O -0.0983(3) 0.3998(9) 0.10380(14)
#END
