
#######################################################################
#
#                 Cambridge Crystallographic Data Centre
#                                CCDC
#
#######################################################################
#
# If this CIF has been generated from an entry in the Cambridge
# Structural Database, then it will include bibliographic, chemical,
# crystal, experimental, refinement or atomic coordinate data resulting
# from the CCDC's data processing and validation procedures.
#
#######################################################################

data_CSD_CIF_EYOLAG
_audit_creation_date 2011-11-07
_audit_creation_method CSD-ConQuest-V1
_database_code_CSD EYOLAG
_database_code_depnum_ccdc_archive 'CCDC 846020'
_chemical_formula_sum 'C26 H34 N2 O4'
_chemical_formula_moiety
;
C26 H34 N2 O4
;
_journal_coden_Cambridge 35
_journal_volume 76
_journal_year 2011
_journal_page_first 1013
_journal_name_full 'J.Org.Chem. '
loop_
_publ_author_name
"D.W.Lin"
"T.Masuda"
"M.B.Biskup"
"J.D.Nelson"
"P.S.Baran"
_chemical_name_systematic
;
1,4-bis(benzyloxy)-3,6-di-sec-butylpiperazine-2,5-dione
;
_cell_volume    592.919
_exptl_crystal_colour 'colorless'
_exptl_crystal_density_diffrn 1.228
_exptl_special_details
;
Absolute configuration

;
_exptl_crystal_description 'needle'
_diffrn_ambient_temperature 100
#These two values have been output from a single CSD field.
_refine_ls_R_factor_gt 0.0465
_refine_ls_wR_factor_gt 0.0465
_symmetry_cell_setting triclinic
_symmetry_space_group_name_H-M 'P 1'
_symmetry_Int_Tables_number 1
loop_
_symmetry_equiv_pos_site_id
_symmetry_equiv_pos_as_xyz
1 x,y,z
_cell_length_a 6.2724(2)
_cell_length_b 8.1395(3)
_cell_length_c 11.9150(5)
_cell_angle_alpha 99.035(3)
_cell_angle_beta 95.226(3)
_cell_angle_gamma 96.713(3)
_cell_formula_units_Z 1
loop_
_atom_type_symbol
_atom_type_radius_bond
C 0.68
H 0.23
N 0.68
O 0.68
loop_
_atom_site_label
_atom_site_type_symbol
_atom_site_fract_x
_atom_site_fract_y
_atom_site_fract_z
C1 C 0.1544(5) 0.9633(4) 0.6053(2)
C2 C 0.0993(5) 0.7743(4) 0.5882(2)
H1 H -0.03780 0.74920 0.62260
C3 C 0.4770(5) 0.7582(4) 0.6721(2)
C4 C 0.5328(5) 0.9479(4) 0.6855(2)
H2 H 0.66840 0.97030 0.64900
C5 C 0.0532(5) 0.7077(4) 0.4573(3)
H3 H -0.00620 0.79910 0.42230
C6 C -0.1211(5) 0.5545(4) 0.4284(2)
H4 H -0.06100 0.45630 0.45180
H5 H -0.24350 0.57590 0.47310
C7 C -0.2050(6) 0.5127(5) 0.3018(3)
H6 H -0.08880 0.47750 0.25770
H7 H -0.25420 0.61220 0.27650
H8 H -0.32580 0.42160 0.28970
C8 C 0.2611(6) 0.6795(4) 0.4042(3)
H9 H 0.23140 0.66020 0.32060
H10 H 0.31630 0.58140 0.42850
H11 H 0.36900 0.77880 0.42920
C9 C 0.5795(5) 1.0343(4) 0.8130(3)
H12 H 0.62730 1.15590 0.81300
C10 C 0.7636(5) 0.9684(4) 0.8772(3)
H13 H 0.87580 0.94640 0.82550
H14 H 0.70810 0.86060 0.89940
C11 C 0.8661(6) 1.0902(5) 0.9841(3)
H15 H 0.75580 1.11310 1.03550
H16 H 0.92820 1.19530 0.96240
H17 H 0.98040 1.04040 1.02320
C12 C 0.3766(5) 1.0252(4) 0.8743(3)
H18 H 0.40910 1.09050 0.95160
H19 H 0.32720 0.90790 0.87890
H20 H 0.26310 1.07120 0.83170
C13 C 0.5603(5) 1.2486(4) 0.5627(3)
H21 H 0.70180 1.21430 0.58600
H22 H 0.57990 1.37240 0.57000
C14 C 0.4902(5) 1.1728(4) 0.4397(3)
C15 C 0.2881(5) 1.1916(4) 0.3892(3)
H23 H 0.19370 1.25180 0.43260
C16 C 0.2239(6) 1.1224(5) 0.2752(3)
H24 H 0.08530 1.13480 0.24080
C17 C 0.3620(6) 1.0354(5) 0.2117(3)
H25 H 0.31820 0.98820 0.13380
C18 C 0.5642(6) 1.0174(5) 0.2620(3)
H26 H 0.65890 0.95780 0.21840
C19 C 0.6283(5) 1.0859(4) 0.3754(3)
H27 H 0.76710 1.07350 0.40950
C20 C 0.0815(5) 0.4631(4) 0.7082(3)
H28 H 0.04910 0.33920 0.69030
H29 H -0.05640 0.50940 0.69670
C21 C 0.1718(5) 0.5129(4) 0.8319(3)
C22 C 0.0437(6) 0.5853(4) 0.9107(3)
H30 H -0.09570 0.60890 0.88530
C23 C 0.1196(6) 0.6226(5) 1.0260(3)
H31 H 0.03070 0.67010 1.07930
C24 C 0.3211(6) 0.5918(5) 1.0636(3)
H32 H 0.37210 0.61880 1.14270
C25 C 0.4510(6) 0.5210(5) 0.9864(3)
H33 H 0.59080 0.49880 1.01240
C26 C 0.3760(5) 0.4828(4) 0.8710(3)
H34 H 0.46580 0.43540 0.81810
N1 N 0.3661(4) 1.0239(3) 0.6260(2)
N2 N 0.2665(4) 0.6959(3) 0.6473(2)
O1 O 0.0109(3) 1.0492(3) 0.58921(19)
O2 O 0.6203(3) 0.6724(3) 0.68947(19)
O3 O 0.4076(3) 1.1994(2) 0.63951(17)
O4 O 0.2245(3) 0.5197(2) 0.62825(17)
#END
