
#######################################################################
#
#                 Cambridge Crystallographic Data Centre
#                                CCDC
#
#######################################################################
#
# If this CIF has been generated from an entry in the Cambridge
# Structural Database, then it will include bibliographic, chemical,
# crystal, experimental, refinement or atomic coordinate data resulting
# from the CCDC's data processing and validation procedures.
#
#######################################################################

data_CSD_CIF_EYOVIX
_audit_creation_date 2004-10-07
_audit_creation_method CSD-ConQuest-V1
_database_code_CSD EYOVIX
_database_code_depnum_ccdc_archive 'CCDC 248404'
_chemical_formula_sum 'C7 H3 N5 O5'
_chemical_formula_moiety
;
C7 H3 N5 O5
;
_journal_coden_Cambridge 533
_journal_volume 37
_journal_year 2003
_journal_page_first 14-11
_journal_name_full 'Khim.-Farm.Zh.(Russ.)(Chem.Pharm.J.) '
loop_
_publ_author_name
"F.S.Levinson"
"M.I.Evgen'ev"
"E.A.Ermolaeva"
"S.I.Efimov"
"T.V.Garipov"
"R.G.Karimova"
_chemical_name_systematic
;
5-Nitro-4-methoxy(1,2,5)oxadiazolo(3,4-e)(2,1,3)benzoxadiazole
;
_chemical_name_common
;
Methoxynitrobenzodifurazane
;
_chemical_melting_point 407.15
_cell_volume   1782.761
_exptl_crystal_colour 'yellow'
_exptl_crystal_density_diffrn 1.77
_exptl_special_details
;
Melting point range 407.15-408.15K
bacteriostatic activity

;
_exptl_crystal_description 'prism'
_diffrn_ambient_temperature 295
#These two values have been output from a single CSD field.
_refine_ls_R_factor_gt 0.032
_refine_ls_wR_factor_gt 0.032
_symmetry_cell_setting orthorhombic
_symmetry_space_group_name_H-M 'P b c a'
_symmetry_Int_Tables_number 61
loop_
_symmetry_equiv_pos_site_id
_symmetry_equiv_pos_as_xyz
1 x,y,z
2 1/2-x,-y,1/2+z
3 1/2+x,1/2-y,-z
4 -x,1/2+y,1/2-z
5 -x,-y,-z
6 -1/2+x,y,-1/2-z
7 -1/2-x,-1/2+y,z
8 x,-1/2-y,-1/2+z
_cell_length_a 8.472(1)
_cell_length_b 14.200(3)
_cell_length_c 14.819(3)
_cell_angle_alpha 90
_cell_angle_beta 90
_cell_angle_gamma 90
_cell_formula_units_Z 8
loop_
_atom_type_symbol
_atom_type_radius_bond
C 0.68
H 0.23
N 0.68
O 0.68
loop_
_atom_site_label
_atom_site_type_symbol
_atom_site_fract_x
_atom_site_fract_y
_atom_site_fract_z
O1 O 0.7068(2) 0.2740(1) 0.6708(1)
O2 O 1.0180(2) 0.0441(1) 0.7403(1)
O3 O 0.4619(2) 0.2831(1) 0.5594(1)
O4 O 0.6849(2) -0.0413(1) 0.4247(1)
O5 O 0.5479(3) 0.2374(1) 0.4303(1)
N1 N 0.9363(3) 0.1279(1) 0.7385(1)
N2 N 0.9769(3) -0.0150(2) 0.6700(2)
N3 N 0.5463(2) 0.2348(1) 0.5128(1)
N4 N 0.6209(2) 0.0486(2) 0.4339(1)
C1 C 0.7338(3) 0.1913(2) 0.6327(1)
C2 C 0.8446(3) 0.1216(2) 0.6670(1)
C3 C 0.8705(3) 0.0337(2) 0.6258(2)
N5 N 0.7882(3) -0.0630(2) 0.4933(2)
C4 C 0.6847(3) 0.0808(2) 0.5082(2)
C5 C 0.6556(3) 0.1692(2) 0.5543(1)
C6 C 0.7871(3) 0.0121(2) 0.5438(2)
C7 C 0.7948(4) 0.3066(2) 0.7479(2)
H1 H 0.750(3) 0.361(2) 0.765(2)
H2 H 0.899(3) 0.312(2) 0.733(2)
H3 H 0.797(5) 0.256(3) 0.789(2)
#END
