
#######################################################################
#
#                 Cambridge Crystallographic Data Centre
#                                CCDC
#
#######################################################################
#
# If this CIF has been generated from an entry in the Cambridge
# Structural Database, then it will include bibliographic, chemical,
# crystal, experimental, refinement or atomic coordinate data resulting
# from the CCDC's data processing and validation procedures.
#
#######################################################################

data_CSD_CIF_EZAHAO
_audit_creation_date 2004-10-28
_audit_creation_method CSD-ConQuest-V1
_database_code_CSD EZAHAO
_database_code_depnum_ccdc_archive 'CCDC 216571'
_chemical_formula_sum 'C18 H29 N2 O2'
_chemical_formula_moiety
;
C18 H29 N2 O2
;
_journal_coden_Cambridge 172
_journal_volume 37
_journal_year 2004
_journal_page_first 27
_journal_name_full 'Macromolecules '
loop_
_publ_author_name
"A.Studer"
"K.Harms"
"C.Knoop"
"C.Muller"
"T.Schulte"
_chemical_name_systematic
;
N,N,4-Trimethyl-4-(2-methyl-1-phenylpropylamino)pentanamide-N'-oxyl radical
;
_chemical_melting_point 384.15
_cell_volume   1766.163
_exptl_crystal_colour 'orange'
_exptl_crystal_density_diffrn 1.149
_exptl_crystal_description 'prism'
_exptl_crystal_preparation 'pentane/dichloromethane'
_diffrn_ambient_temperature 193
#These two values have been output from a single CSD field.
_refine_ls_R_factor_gt 0.0319
_refine_ls_wR_factor_gt 0.0319
_symmetry_cell_setting monoclinic
_symmetry_space_group_name_H-M 'P 21/c'
_symmetry_Int_Tables_number 14
loop_
_symmetry_equiv_pos_site_id
_symmetry_equiv_pos_as_xyz
1 x,y,z
2 x,1/2-y,1/2+z
3 -x,-y,-z
4 -x,-1/2+y,-1/2-z
_cell_length_a 19.870(2)
_cell_length_b 5.6995(5)
_cell_length_c 16.7793(17)
_cell_angle_alpha 90
_cell_angle_beta 111.652(8)
_cell_angle_gamma 90
_cell_formula_units_Z 4
loop_
_atom_type_symbol
_atom_type_radius_bond
C 0.68
H 0.23
N 0.68
O 0.68
loop_
_atom_site_label
_atom_site_type_symbol
_atom_site_fract_x
_atom_site_fract_y
_atom_site_fract_z
C1 C 0.10794(6) 0.7970(2) 0.34367(7)
C2 C 0.17393(6) 0.64229(19) 0.36172(7)
H1 H 0.16220 0.51300 0.31940
H2 H 0.18740 0.57220 0.41950
C3 C 0.23753(6) 0.78189(19) 0.35697(7)
H3 H 0.24460 0.92200 0.39400
H4 H 0.22500 0.83760 0.29730
C4 C 0.30936(6) 0.64757(18) 0.38389(7)
C5 C 0.30149(7) 0.4244(2) 0.33157(8)
H5 H 0.34880 0.34840 0.34700
H6 H 0.28280 0.46340 0.27040
H7 H 0.26780 0.31750 0.34360
C6 C 0.36726(7) 0.8049(2) 0.37163(8)
H8 H 0.37330 0.94650 0.40680
H9 H 0.35220 0.84930 0.31110
H10 H 0.41330 0.71970 0.38920
C7 C -0.01156(7) 0.8536(3) 0.34754(11)
H11 H -0.01130 0.90240 0.40370
H12 H -0.05580 0.76420 0.31720
H13 H -0.01010 0.99270 0.31390
C8 C 0.05007(8) 0.4762(2) 0.39387(11)
H14 H 0.08420 0.37420 0.38050
H15 H 0.00110 0.41080 0.36840
H16 H 0.06400 0.48680 0.45620
C9 C 0.34109(6) 0.76570(18) 0.54320(7)
H17 H 0.34120 0.92220 0.51630
C10 C 0.41401(6) 0.7395(2) 0.61910(7)
H18 H 0.41290 0.59010 0.64990
C11 C 0.42282(7) 0.9429(2) 0.68091(8)
H19 H 0.46730 0.92130 0.73140
H20 H 0.38110 0.94800 0.69880
H21 H 0.42570 1.09050 0.65240
C12 C 0.47745(7) 0.7301(3) 0.58990(9)
H22 H 0.47810 0.87270 0.55750
H23 H 0.47270 0.59250 0.55320
H24 H 0.52260 0.71910 0.64000
C13 C 0.27629(6) 0.75947(18) 0.57014(7)
C14 C 0.22845(6) 0.9476(2) 0.55197(7)
H25 H 0.23760 1.08270 0.52440
C15 C 0.16771(7) 0.9405(2) 0.57356(8)
H26 H 0.13510 1.06950 0.56000
C16 C 0.15418(7) 0.7465(2) 0.61482(9)
H27 H 0.11250 0.74180 0.62980
C17 C 0.20175(7) 0.5594(2) 0.63404(8)
H28 H 0.19270 0.42590 0.66250
C18 C 0.26228(7) 0.5648(2) 0.61220(7)
H29 H 0.29460 0.43520 0.62590
N1 N 0.05132(5) 0.70761(18) 0.35918(7)
N2 N 0.33330(5) 0.58457(15) 0.47695(6)
O1 O 0.10657(5) 0.99687(17) 0.31539(7)
O2 O 0.34166(5) 0.36917(13) 0.50061(5)
#END
