
#######################################################################
#
#                 Cambridge Crystallographic Data Centre
#                                CCDC
#
#######################################################################
#
# If this CIF has been generated from an entry in the Cambridge
# Structural Database, then it will include bibliographic, chemical,
# crystal, experimental, refinement or atomic coordinate data resulting
# from the CCDC's data processing and validation procedures.
#
#######################################################################

data_CSD_CIF_EZAWUY
_audit_creation_date 2011-11-07
_audit_creation_method CSD-ConQuest-V1
_database_code_CSD EZAWUY
_database_code_depnum_ccdc_archive 'CCDC 830732'
_chemical_formula_sum 'C16 H21 N1 O5'
_chemical_formula_moiety
;
C16 H21 N1 O5
;
_journal_coden_Cambridge 1336
_journal_volume 13
_journal_year 2011
_journal_page_first 4328
_journal_name_full 'Org.Lett. '
loop_
_publ_author_name
"A.K.Ghosh"
"D.Nicponski"
_chemical_name_systematic
;
(3-Isopropyltetrahydro-2H-pyran-2-yl)methyl 4-nitrobenzoate
;
_cell_volume    803.397
_exptl_crystal_density_diffrn 1.27
_exptl_crystal_description 'plate'
_diffrn_ambient_temperature 263
#These two values have been output from a single CSD field.
_refine_ls_R_factor_gt 0.064
_refine_ls_wR_factor_gt 0.064
_symmetry_cell_setting monoclinic
_symmetry_space_group_name_H-M 'P c'
_symmetry_Int_Tables_number 7
loop_
_symmetry_equiv_pos_site_id
_symmetry_equiv_pos_as_xyz
1 x,y,z
2 x,-y,1/2+z
_cell_length_a 6.7177(9)
_cell_length_b 17.912(3)
_cell_length_c 6.8078(10)
_cell_angle_alpha 90
_cell_angle_beta 101.26(1)
_cell_angle_gamma 90
_cell_formula_units_Z 2
loop_
_atom_type_symbol
_atom_type_radius_bond
C 0.68
H 0.23
N 0.68
O 0.68
loop_
_atom_site_label
_atom_site_type_symbol
_atom_site_fract_x
_atom_site_fract_y
_atom_site_fract_z
O1 O 0.5698(5) 0.22824(17) 0.3551(6)
O2 O 0.7332(4) 0.35322(14) 0.5487(5)
O3 O 1.0185(4) 0.42057(16) 0.5917(5)
O4 O 0.1609(5) 0.66944(19) 0.5303(6)
O5 O 0.3829(6) 0.72766(19) 0.4019(6)
N1 N 0.3233(5) 0.67277(19) 0.4805(6)
C1 C 0.6998(6) 0.2223(2) 0.5498(7)
C2 C 0.8010(7) 0.1457(2) 0.5745(7)
C3 C 0.6312(9) 0.0865(3) 0.5442(9)
C4 C 0.4818(10) 0.0982(3) 0.3488(10)
C5 C 0.4052(9) 0.1762(3) 0.3346(10)
C6 C 0.9541(7) 0.1366(2) 0.7738(7)
C7 C 0.8634(11) 0.1446(3) 0.9600(9)
C8 C 1.0719(10) 0.0644(4) 0.7806(11)
C9 C 0.8486(6) 0.2853(2) 0.5573(7)
C10 C 0.8368(6) 0.4172(2) 0.5669(6)
C11 C 0.6985(5) 0.4825(2) 0.5490(5)
C12 C 0.4888(5) 0.4750(2) 0.5125(6)
C13 C 0.3650(6) 0.5370(2) 0.4935(6)
C14 C 0.4553(6) 0.6064(2) 0.5058(6)
C15 C 0.6624(6) 0.6163(2) 0.5420(6)
C16 C 0.7847(6) 0.5534(2) 0.5665(6)
H1 H 0.61770 0.22970 0.65600
H2 H 0.87760 0.13950 0.46360
H3 H 1.05520 0.17790 0.77870
H4 H 0.43000 0.42660 0.50050
H5 H 0.22150 0.53210 0.47250
H6 H 0.72000 0.66490 0.55000
H7 H 0.92820 0.55870 0.59540
H8 H 0.69220 0.03620 0.54440
H9 H 0.55810 0.08900 0.65690
H10 H 0.54930 0.08770 0.23490
H11 H 0.36650 0.06320 0.34110
H12 H 0.31310 0.18370 0.20360
H13 H 0.32670 0.18520 0.44120
H14 H 0.76250 0.10520 0.96170
H15 H 0.79800 0.19360 0.95930
H16 H 0.97120 0.14030 1.07940
H17 H 0.97950 0.02210 0.78140
H18 H 1.17770 0.06320 0.90220
H19 H 1.13480 0.06120 0.66260
H20 H 0.95190 0.28320 0.68280
H21 H 0.91850 0.28240 0.44230
#END
