
#######################################################################
#
#                 Cambridge Crystallographic Data Centre
#                                CCDC
#
#######################################################################
#
# If this CIF has been generated from an entry in the Cambridge
# Structural Database, then it will include bibliographic, chemical,
# crystal, experimental, refinement or atomic coordinate data resulting
# from the CCDC's data processing and validation procedures.
#
#######################################################################

data_CSD_CIF_EZEGEW
_audit_creation_date 2011-10-18
_audit_creation_method CSD-ConQuest-V1
_database_code_CSD EZEGEW
_database_code_depnum_ccdc_archive 'CCDC 846645'
_chemical_formula_sum 'C16 H16 N2 O5'
_chemical_formula_moiety
;
C16 H16 N2 O5
;
_journal_coeditor_code "IUCr FA3256"
_journal_coden_Cambridge 591
_journal_volume 67
_journal_year 2011
_journal_page_first o364
_journal_name_full 'Acta Crystallogr.,Sect.C:Cryst.Struct.Commun. '
loop_
_publ_author_name
"A.Collas"
"F.Blockhuys"
_chemical_name_systematic
;
(E)-4-nitro-N-(3,4,5-trimethoxybenzylidene)aniline
;
_cell_volume   1519.416
_exptl_crystal_colour 'yellow'
_exptl_crystal_density_diffrn 1.383
_exptl_crystal_description 'prism'
_diffrn_ambient_temperature 293
#These two values have been output from a single CSD field.
_refine_ls_R_factor_gt 0.052
_refine_ls_wR_factor_gt 0.052
_symmetry_cell_setting orthorhombic
_symmetry_space_group_name_H-M 'P 21 21 21'
_symmetry_Int_Tables_number 19
loop_
_symmetry_equiv_pos_site_id
_symmetry_equiv_pos_as_xyz
1 x,y,z
2 1/2-x,-y,1/2+z
3 1/2+x,1/2-y,-z
4 -x,1/2+y,1/2-z
_cell_length_a 7.215(3)
_cell_length_b 14.429(2)
_cell_length_c 14.595(5)
_cell_angle_alpha 90
_cell_angle_beta 90
_cell_angle_gamma 90
_cell_formula_units_Z 4
loop_
_atom_type_symbol
_atom_type_radius_bond
C 0.68
H 0.23
N 0.68
O 0.68
loop_
_atom_site_label
_atom_site_type_symbol
_atom_site_fract_x
_atom_site_fract_y
_atom_site_fract_z
C1 C -0.0091(4) 0.48584(17) 0.05506(17)
C2 C -0.0484(5) 0.47394(17) 0.14689(19)
H1 H -0.08010 0.41560 0.16910
C3 C -0.0406(4) 0.54894(19) 0.20568(19)
C4 C 0.0069(4) 0.63696(17) 0.1717(2)
C5 C 0.0429(4) 0.64850(17) 0.0790(2)
C6 C 0.0359(4) 0.57333(18) 0.02054(19)
H2 H 0.06100 0.58090 -0.04150
C7 C -0.0123(4) 0.40613(19) -0.00762(17)
H3 H 0.02220 0.41430 -0.06850
C8 C -0.0694(4) 0.25169(17) -0.04233(17)
C9 C -0.1345(4) 0.26034(18) -0.13153(18)
H4 H -0.17400 0.31780 -0.15280
C10 C -0.1409(5) 0.1841(2) -0.18876(17)
H5 H -0.18470 0.18930 -0.24850
C11 C -0.0801(4) 0.09929(17) -0.1548(2)
C12 C -0.0206(5) 0.08857(19) -0.0666(2)
H6 H 0.01740 0.03080 -0.04540
C13 C -0.0178(5) 0.1647(2) -0.0095(2)
H7 H 0.01870 0.15790 0.05130
C14 C -0.1129(7) 0.4565(2) 0.3360(2)
H8 H -0.21710 0.42910 0.30530
H9 H -0.14060 0.46330 0.40000
H10 H -0.00630 0.41740 0.32870
C15 C 0.1940(6) 0.7206(2) 0.2719(2)
H11 H 0.23270 0.66190 0.29630
H12 H 0.18760 0.76540 0.32050
H13 H 0.28170 0.74100 0.22670
C16 C 0.0999(7) 0.7539(2) -0.0426(2)
H14 H 0.20340 0.72020 -0.06700
H15 H 0.11750 0.81890 -0.05300
H16 H -0.01180 0.73380 -0.07230
N1 N -0.0798(5) 0.01880(18) -0.2159(2)
N2 N -0.0612(4) 0.32647(16) 0.01965(15)
O1 O -0.1346(5) 0.02823(17) -0.29360(16)
O2 O -0.0239(5) -0.05534(17) -0.1858(2)
O3 O -0.0755(4) 0.54563(14) 0.29720(12)
O4 O 0.0162(4) 0.71109(13) 0.23073(14)
O5 O 0.0860(4) 0.73709(14) 0.05276(15)
#END
