
#######################################################################
#
#                 Cambridge Crystallographic Data Centre
#                                CCDC
#
#######################################################################
#
# If this CIF has been generated from an entry in the Cambridge
# Structural Database, then it will include bibliographic, chemical,
# crystal, experimental, refinement or atomic coordinate data resulting
# from the CCDC's data processing and validation procedures.
#
#######################################################################

data_CSD_CIF_EZEGAS
_audit_creation_date 2011-10-18
_audit_creation_method CSD-ConQuest-V1
_database_code_CSD EZEGAS
_database_code_depnum_ccdc_archive 'CCDC 846644'
_chemical_formula_sum 'C16 H16 N2 O5'
_chemical_formula_moiety
;
C16 H16 N2 O5
;
_journal_coeditor_code "IUCr FA3256"
_journal_coden_Cambridge 591
_journal_volume 67
_journal_year 2011
_journal_page_first o364
_journal_name_full 'Acta Crystallogr.,Sect.C:Cryst.Struct.Commun. '
loop_
_publ_author_name
"A.Collas"
"F.Blockhuys"
_chemical_name_systematic
;
(E)-3,4,5-trimethoxy-N-(4-nitrobenzylidene)aniline
;
_cell_volume   1517.043
_exptl_crystal_colour 'yellow'
_exptl_crystal_density_diffrn 1.385
_exptl_crystal_description 'block'
_diffrn_ambient_temperature 293
#These two values have been output from a single CSD field.
_refine_ls_R_factor_gt 0.0364
_refine_ls_wR_factor_gt 0.0364
_symmetry_cell_setting monoclinic
_symmetry_space_group_name_H-M 'P 21/c'
_symmetry_Int_Tables_number 14
loop_
_symmetry_equiv_pos_site_id
_symmetry_equiv_pos_as_xyz
1 x,y,z
2 -x,1/2+y,1/2-z
3 -x,-y,-z
4 x,-1/2-y,-1/2+z
_cell_length_a 7.512(2)
_cell_length_b 7.895(1)
_cell_length_c 26.441(6)
_cell_angle_alpha 90
_cell_angle_beta 104.667(19)
_cell_angle_gamma 90
_cell_formula_units_Z 4
loop_
_atom_type_symbol
_atom_type_radius_bond
C 0.68
H 0.23
N 0.68
O 0.68
loop_
_atom_site_label
_atom_site_type_symbol
_atom_site_fract_x
_atom_site_fract_y
_atom_site_fract_z
C1 C 1.0234(2) 0.87162(19) 0.66274(6)
C2 C 1.0351(2) 0.88660(19) 0.71593(6)
H1 H 0.94960 0.95130 0.72740
C3 C 1.1754(2) 0.80434(18) 0.75161(6)
C4 C 1.3010(2) 0.70573(19) 0.73430(6)
C5 C 1.2858(2) 0.6907(2) 0.68100(6)
C6 C 1.1481(2) 0.7743(2) 0.64526(6)
H2 H 1.13950 0.76510 0.60970
C7 C 0.7306(2) 0.9767(2) 0.62901(6)
H3 H 0.70220 0.93090 0.65840
C8 C 0.5866(2) 1.0666(2) 0.59074(6)
C9 C 0.6235(2) 1.1632(2) 0.55095(6)
H4 H 0.74360 1.17330 0.54790
C10 C 0.4829(2) 1.2443(2) 0.51605(7)
H5 H 0.50710 1.31060 0.48950
C11 C 0.3055(2) 1.2262(2) 0.52080(6)
C12 C 0.2643(2) 1.1313(2) 0.55953(7)
H6 H 0.14350 1.11960 0.56190
C13 C 0.4064(2) 1.0538(2) 0.59465(7)
H7 H 0.38150 0.99110 0.62180
C14 C 1.0868(3) 0.9150(3) 0.82531(7)
H8 H 1.09630 1.03000 0.81450
H9 H 1.12270 0.90870 0.86280
H10 H 0.96200 0.87690 0.81280
C15 C 1.6137(2) 0.6981(3) 0.77813(8)
H11 H 1.65330 0.69310 0.74640
H12 H 1.69990 0.63830 0.80520
H13 H 1.60730 0.81420 0.78830
C16 C 1.3954(3) 0.5540(3) 0.61467(8)
H14 H 1.27520 0.50760 0.60010
H15 H 1.48710 0.47300 0.61140
H16 H 1.41010 0.65570 0.59620
N1 N 0.1548(3) 1.3158(2) 0.48429(6)
N2 N 0.89150(18) 0.95908(17) 0.62363(5)
O1 O 0.1956(2) 1.4109(2) 0.45293(6)
O2 O -0.0028(2) 1.2896(2) 0.48683(6)
O3 O 1.20364(15) 0.81114(14) 0.80444(4)
O4 O 1.43646(15) 0.62201(14) 0.76993(4)
O5 O 1.41580(17) 0.59177(16) 0.66791(5)
#END
