
#######################################################################
#
#                 Cambridge Crystallographic Data Centre
#                                CCDC
#
#######################################################################
#
# If this CIF has been generated from an entry in the Cambridge
# Structural Database, then it will include bibliographic, chemical,
# crystal, experimental, refinement or atomic coordinate data resulting
# from the CCDC's data processing and validation procedures.
#
#######################################################################

data_CSD_CIF_EZICUM
_audit_creation_date 2011-11-29
_audit_creation_method CSD-ConQuest-V1
_database_code_CSD EZICUM
_database_code_depnum_ccdc_archive 'CCDC 755763'
_chemical_formula_sum 'C16 H16 N2 O3'
_chemical_formula_moiety
;
C16 H16 N2 O3
;
_journal_coden_Cambridge 46
_journal_volume 108
_journal_year 2010
_journal_page_first 1759
_journal_name_full 'Mol.Phys. '
loop_
_publ_author_name
"A.A.Agar"
"H.Tanak"
"M.Yavuz"
_chemical_name_systematic
;
4-Nitro-2-(((4-propylphenyl)imino)methyl)phenol
;
_chemical_name_common
;
2-((4-Propylphenylimino)methyl)-4-nitrophenol
;
_chemical_melting_point 385
_cell_volume    735.380
_exptl_crystal_density_diffrn 1.284
_exptl_special_details
;
Melting point range 385-387K

;
_exptl_crystal_description 'block'
_exptl_crystal_preparation 'ethanol'
_diffrn_ambient_temperature 293
#These two values have been output from a single CSD field.
_refine_ls_R_factor_gt 0.0837
_refine_ls_wR_factor_gt 0.0837
_symmetry_cell_setting triclinic
_symmetry_space_group_name_H-M 'P -1'
_symmetry_Int_Tables_number 2
loop_
_symmetry_equiv_pos_site_id
_symmetry_equiv_pos_as_xyz
1 x,y,z
2 -x,-y,-z
_cell_length_a 4.9508(10)
_cell_length_b 8.4766(17)
_cell_length_c 18.438(4)
_cell_angle_alpha 83.093(17)
_cell_angle_beta 83.778(18)
_cell_angle_gamma 73.801(16)
_cell_formula_units_Z 2
loop_
_atom_type_symbol
_atom_type_radius_bond
C 0.68
H 0.23
N 0.68
O 0.68
loop_
_atom_site_label
_atom_site_type_symbol
_atom_site_fract_x
_atom_site_fract_y
_atom_site_fract_z
C1 C 0.4167(11) 0.7669(7) 0.3506(3)
C2 C 0.2729(12) 0.9266(7) 0.3200(4)
C3 C 0.0180(13) 1.0110(7) 0.3536(4)
H1 H -0.07670 1.11450 0.33290
C4 C -0.0957(12) 0.9451(7) 0.4163(4)
H2 H -0.26770 1.00310 0.43780
C5 C 0.0462(11) 0.7889(7) 0.4487(3)
C6 C 0.2991(11) 0.7025(6) 0.4152(3)
H3 H 0.39220 0.59900 0.43630
C7 C 0.6784(12) 0.6714(7) 0.3154(3)
H4 H 0.76020 0.56480 0.33540
C8 C 1.0545(12) 0.6356(8) 0.2234(3)
C9 C 1.2078(13) 0.4780(7) 0.2482(3)
H5 H 1.14830 0.42470 0.29150
C10 C 1.4533(12) 0.4009(7) 0.2069(4)
H6 H 1.55430 0.29500 0.22330
C11 C 1.5511(12) 0.4762(8) 0.1430(3)
C12 C 1.3978(15) 0.6342(8) 0.1209(4)
H7 H 1.46020 0.68960 0.07860
C13 C 1.1539(14) 0.7116(7) 0.1604(4)
H8 H 1.05450 0.81780 0.14400
C14 C 1.8157(13) 0.3901(8) 0.0979(4)
H9 H 1.78230 0.42260 0.04670
H10 H 1.96650 0.43480 0.10800
C15 C 1.9182(14) 0.2171(9) 0.1060(4)
H11 H 1.76760 0.16990 0.09810
H12 H 1.96740 0.18270 0.15600
C16 C 2.1756(13) 0.1461(8) 0.0541(4)
H13 H 2.32720 0.19090 0.06170
H14 H 2.12720 0.17470 0.00430
H15 H 2.23380 0.02820 0.06380
N1 N 0.7993(10) 0.7296(5) 0.2577(3)
N2 N -0.0673(11) 0.7207(6) 0.5165(3)
O1 O 0.3853(11) 0.9928(5) 0.2589(3)
O2 O -0.3121(9) 0.7816(5) 0.5385(2)
O3 O 0.0871(8) 0.6025(5) 0.5513(2)
H16 H 0.558(18) 0.92(1) 0.239(4)
#END
