
#######################################################################
#
#                 Cambridge Crystallographic Data Centre
#                                CCDC
#
#######################################################################
#
# If this CIF has been generated from an entry in the Cambridge
# Structural Database, then it will include bibliographic, chemical,
# crystal, experimental, refinement or atomic coordinate data resulting
# from the CCDC's data processing and validation procedures.
#
#######################################################################

data_CSD_CIF_EZOLAG
_audit_creation_date 2006-07-12
_audit_creation_method CSD-ConQuest-V1
_database_code_CSD EZOLAG
_database_code_depnum_ccdc_archive 'CCDC 238138; not CCDC 23138 as published'
_chemical_formula_sum 'C18 H19 N1 O1'
_chemical_formula_moiety
;
C18 H19 N1 O1
;
_journal_coden_Cambridge 16
_journal_volume 62
_journal_year 2006
_journal_page_first 4498
_journal_name_full 'Tetrahedron '
loop_
_publ_author_name
"A.A.Aly"
"H.Hopf"
"P.G.Jones"
"I.Dix"
_chemical_name_systematic
;
\a-((2.2)paracyclophan-4-yl)-N-methyl nitrone
;
_chemical_melting_point 423.15
_cell_volume   1355.682
_exptl_crystal_colour 'colorless'
_exptl_crystal_density_diffrn 1.3
_exptl_crystal_description 'tablet'
_diffrn_ambient_temperature 143
#These two values have been output from a single CSD field.
_refine_ls_R_factor_gt 0.0559
_refine_ls_wR_factor_gt 0.0559
_symmetry_cell_setting monoclinic
_symmetry_space_group_name_H-M 'P 21/c'
_symmetry_Int_Tables_number 14
loop_
_symmetry_equiv_pos_site_id
_symmetry_equiv_pos_as_xyz
1 x,y,z
2 -x,1/2+y,1/2-z
3 -x,-y,-z
4 x,-1/2-y,-1/2+z
_cell_length_a 13.538(4)
_cell_length_b 9.314(3)
_cell_length_c 11.440(4)
_cell_angle_alpha 90
_cell_angle_beta 109.98(3)
_cell_angle_gamma 90
_cell_formula_units_Z 4
loop_
_atom_type_symbol
_atom_type_radius_bond
C 0.68
H 0.23
N 0.68
O 0.68
loop_
_atom_site_label
_atom_site_type_symbol
_atom_site_fract_x
_atom_site_fract_y
_atom_site_fract_z
O1 O 0.45101(15) 0.3993(2) 0.1478(2)
N1 N 0.45479(16) 0.5341(2) 0.1766(2)
C1 C 0.2851(3) 0.7963(3) 0.3991(3)
H1 H 0.36110 0.81570 0.41950
H2 H 0.25580 0.87240 0.43820
C2 C 0.2289(2) 0.8025(3) 0.2529(2)
H3 H 0.16390 0.86030 0.23350
H4 H 0.27580 0.85120 0.21540
C3 C 0.2012(2) 0.6558(3) 0.1952(2)
C4 C 0.27798(19) 0.5540(3) 0.1914(2)
C5 C 0.25423(19) 0.4080(3) 0.1908(2)
H5 H 0.30590 0.33950 0.18980
C6 C 0.1571(2) 0.3599(3) 0.1916(2)
C7 C 0.0764(2) 0.4608(3) 0.1640(2)
H6 H 0.00560 0.43010 0.14370
C8 C 0.0992(2) 0.6052(3) 0.1660(2)
H7 H 0.04310 0.67250 0.14670
C9 C 0.1484(2) 0.2147(3) 0.2454(2)
H8 H 0.18720 0.14360 0.21340
H9 H 0.07360 0.18550 0.21650
C10 C 0.1930(2) 0.2114(3) 0.3930(2)
H10 H 0.13870 0.17130 0.42370
H11 H 0.25480 0.14690 0.42080
C11 C 0.2247(2) 0.3577(3) 0.4497(2)
C12 C 0.1505(2) 0.4611(3) 0.4493(2)
H12 H 0.08300 0.43160 0.44810
C13 C 0.1732(2) 0.6061(3) 0.4506(2)
H13 H 0.12110 0.67480 0.45020
C14 C 0.2712(2) 0.6522(3) 0.4524(2)
C15 C 0.3513(2) 0.5502(3) 0.4818(2)
H14 H 0.42230 0.58040 0.50300
C16 C 0.3283(2) 0.4050(3) 0.4804(2)
H15 H 0.38380 0.33680 0.50060
C17 C 0.38143(19) 0.6063(3) 0.2002(2)
H16 H 0.39720 0.70310 0.22590
C18 C 0.5508(2) 0.6077(3) 0.1773(3)
H17 H 0.54760 0.70880 0.19940
H18 H 0.55690 0.60130 0.09450
H19 H 0.61200 0.56210 0.23840
#END
