
#######################################################################
#
#                 Cambridge Crystallographic Data Centre
#                                CCDC
#
#######################################################################
#
# If this CIF has been generated from an entry in the Cambridge
# Structural Database, then it will include bibliographic, chemical,
# crystal, experimental, refinement or atomic coordinate data resulting
# from the CCDC's data processing and validation procedures.
#
#######################################################################

data_CSD_CIF_EZOLEK
_audit_creation_date 2006-07-12
_audit_creation_method CSD-ConQuest-V1
_database_code_CSD EZOLEK
_database_code_depnum_ccdc_archive 'CCDC 238139'
_chemical_formula_sum 'C25 H24 N2 O2'
_chemical_formula_moiety
;
C25 H24 N2 O2
;
_journal_coden_Cambridge 16
_journal_volume 62
_journal_year 2006
_journal_page_first 4498
_journal_name_full 'Tetrahedron '
loop_
_publ_author_name
"A.A.Aly"
"H.Hopf"
"P.G.Jones"
"I.Dix"
_chemical_name_systematic
;
3'R*,4R*,3'(H)-2'-methyl-4'-phenyl-((2.2)-paracyclophan-4-yl)-1',2',4'-oxadiaz
ol-5'-one
;
_chemical_melting_point 465.15
_cell_volume   1958.568
_exptl_crystal_colour 'colorless'
_exptl_crystal_density_diffrn 1.304
_exptl_crystal_description 'tablet'
_diffrn_ambient_temperature 143
#These two values have been output from a single CSD field.
_refine_ls_R_factor_gt 0.0515
_refine_ls_wR_factor_gt 0.0515
_symmetry_cell_setting monoclinic
_symmetry_space_group_name_H-M 'P 21/c'
_symmetry_Int_Tables_number 14
loop_
_symmetry_equiv_pos_site_id
_symmetry_equiv_pos_as_xyz
1 x,y,z
2 -x,1/2+y,1/2-z
3 -x,-y,-z
4 x,-1/2-y,-1/2+z
_cell_length_a 8.310(2)
_cell_length_b 10.996(3)
_cell_length_c 21.434(4)
_cell_angle_alpha 90
_cell_angle_beta 90.06(2)
_cell_angle_gamma 90
_cell_formula_units_Z 4
loop_
_atom_type_symbol
_atom_type_radius_bond
C 0.68
H 0.23
N 0.68
O 0.68
loop_
_atom_site_label
_atom_site_type_symbol
_atom_site_fract_x
_atom_site_fract_y
_atom_site_fract_z
C1 C -0.0599(3) 0.2873(3) 0.30712(13)
H1 H -0.09420 0.22140 0.33570
H2 H -0.15800 0.32910 0.29200
C2 C 0.0472(3) 0.3820(2) 0.34516(12)
H3 H -0.00200 0.46380 0.34190
H4 H 0.04810 0.35860 0.38980
C3 C 0.2184(3) 0.38772(19) 0.32157(11)
C4 C 0.3414(3) 0.31060(19) 0.34237(10)
C5 C 0.4666(3) 0.28182(19) 0.30202(11)
H5 H 0.54780 0.22710 0.31560
C6 C 0.4762(3) 0.33084(19) 0.24225(11)
C7 C 0.3766(3) 0.4287(2) 0.22963(11)
H6 H 0.39610 0.47740 0.19380
C8 C 0.2494(3) 0.4561(2) 0.26835(11)
H7 H 0.18170 0.52310 0.25850
C9 C 0.5646(3) 0.2678(2) 0.18985(11)
H8 H 0.64020 0.20760 0.20780
H9 H 0.62870 0.32860 0.16660
C10 C 0.4479(3) 0.2012(3) 0.14325(13)
H10 H 0.44180 0.24840 0.10400
H11 H 0.49250 0.12000 0.13320
C11 C 0.2807(3) 0.1861(2) 0.16932(12)
C12 C 0.1585(3) 0.2666(2) 0.15381(12)
H12 H 0.16130 0.30710 0.11470
C13 C 0.0322(3) 0.2889(2) 0.19451(12)
H13 H -0.05070 0.34390 0.18290
C14 C 0.0259(3) 0.2315(2) 0.25209(12)
C15 C 0.1283(3) 0.1331(2) 0.26093(12)
H14 H 0.11210 0.08070 0.29560
C16 C 0.2535(3) 0.1101(2) 0.22000(12)
H15 H 0.32140 0.04180 0.22660
O1 O 0.3365(2) 0.04570(15) 0.39915(8)
O2 O 0.5908(2) 0.01029(15) 0.42999(8)
N1 N 0.2220(2) 0.14572(19) 0.40687(10)
N2 N 0.4788(2) 0.20380(17) 0.43091(9)
C17 C 0.3285(3) 0.2532(2) 0.40639(11)
H16 H 0.28570 0.31480 0.43640
C18 C 0.4829(3) 0.0814(2) 0.42237(10)
C19 C 0.1472(4) 0.1255(3) 0.46800(14)
H17 H 0.09190 0.04680 0.46800
H18 H 0.06940 0.19040 0.47640
H19 H 0.23040 0.12580 0.50040
C20 C 0.6000(3) 0.2736(2) 0.46101(10)
C21 C 0.6868(3) 0.2248(2) 0.50987(11)
H20 H 0.66920 0.14290 0.52230
C22 C 0.7990(3) 0.2951(3) 0.54060(12)
H21 H 0.85880 0.26130 0.57420
C23 C 0.8253(3) 0.4138(3) 0.52312(12)
H22 H 0.90230 0.46200 0.54460
C24 C 0.7392(4) 0.4618(2) 0.47436(14)
H23 H 0.75720 0.54360 0.46200
C25 C 0.6269(3) 0.3928(2) 0.44310(12)
H24 H 0.56810 0.42690 0.40930
#END
