
#######################################################################
#
#                 Cambridge Crystallographic Data Centre
#                                CCDC
#
#######################################################################
#
# If this CIF has been generated from an entry in the Cambridge
# Structural Database, then it will include bibliographic, chemical,
# crystal, experimental, refinement or atomic coordinate data resulting
# from the CCDC's data processing and validation procedures.
#
#######################################################################

data_CSD_CIF_EZOLIO
_audit_creation_date 2006-07-12
_audit_creation_method CSD-ConQuest-V1
_database_code_CSD EZOLIO
_database_code_depnum_ccdc_archive 'CCDC 238140'
_chemical_formula_sum 'C26 H27 N1 O1'
_chemical_formula_moiety
;
C26 H27 N1 O1
;
_journal_coden_Cambridge 16
_journal_volume 62
_journal_year 2006
_journal_page_first 4498
_journal_name_full 'Tetrahedron '
loop_
_publ_author_name
"A.A.Aly"
"H.Hopf"
"P.G.Jones"
"I.Dix"
_chemical_name_systematic
;
3-((2.2)-paracyclophan-4-yl)-3,4,4,5-tetrahydro-2-methyl-5-phenylisoxazole
;
_chemical_melting_point 411.15
_cell_volume   1992.919
_exptl_crystal_colour 'colorless'
_exptl_crystal_density_diffrn 1.231
_exptl_crystal_description 'prism'
_diffrn_ambient_temperature 153
#These two values have been output from a single CSD field.
_refine_ls_R_factor_gt 0.0631
_refine_ls_wR_factor_gt 0.0631
_symmetry_cell_setting monoclinic
_symmetry_space_group_name_H-M 'P 21/n'
_symmetry_Int_Tables_number 14
loop_
_symmetry_equiv_pos_site_id
_symmetry_equiv_pos_as_xyz
1 x,y,z
2 1/2-x,1/2+y,1/2-z
3 -x,-y,-z
4 -1/2+x,-1/2-y,-1/2+z
_cell_length_a 7.538(2)
_cell_length_b 13.372(3)
_cell_length_c 19.779(4)
_cell_angle_alpha 90
_cell_angle_beta 91.59(2)
_cell_angle_gamma 90
_cell_formula_units_Z 4
loop_
_atom_type_symbol
_atom_type_radius_bond
C 0.68
H 0.23
N 0.68
O 0.68
loop_
_atom_site_label
_atom_site_type_symbol
_atom_site_fract_x
_atom_site_fract_y
_atom_site_fract_z
O1 O 0.5798(2) 0.61162(12) 0.54569(7)
N1 N 0.6684(2) 0.53845(13) 0.58805(8)
C1 C 0.5926(3) 0.55409(14) 0.65586(9)
H1 H 0.69000 0.54770 0.69100
C2 C 0.5213(3) 0.66257(15) 0.65674(10)
H2 H 0.39270 0.66380 0.66560
H3 H 0.58500 0.70320 0.69150
C3 C 0.5583(3) 0.70091(17) 0.58514(10)
H4 H 0.66980 0.74140 0.58550
C4 C 0.8602(3) 0.55673(18) 0.58638(12)
H5 H 0.89890 0.55350 0.53950
H6 H 0.92300 0.50580 0.61340
H7 H 0.88670 0.62310 0.60510
C5 C 0.4034(3) 0.76142(17) 0.55377(10)
C6 C 0.4093(3) 0.86425(19) 0.55606(11)
H8 H 0.50910 0.89720 0.57620
C7 C 0.2656(4) 0.9209(2) 0.52818(14)
H9 H 0.26800 0.99190 0.52970
C8 C 0.1232(3) 0.8718(2) 0.49902(13)
H10 H 0.02640 0.90900 0.48030
C9 C 0.1198(3) 0.7667(2) 0.49666(13)
H11 H 0.02070 0.73320 0.47630
C10 C 0.2601(3) 0.7117(2) 0.52385(12)
H12 H 0.25830 0.64080 0.52200
C11 C 0.6286(3) 0.45843(17) 0.82511(10)
H13 H 0.73840 0.49710 0.81780
H14 H 0.61760 0.44850 0.87440
C12 C 0.4623(3) 0.52071(15) 0.79689(9)
H15 H 0.37430 0.52650 0.83290
H16 H 0.50170 0.58910 0.78540
C13 C 0.3731(2) 0.47376(14) 0.73473(9)
C14 C 0.4488(2) 0.47669(13) 0.67038(9)
C15 C 0.4086(2) 0.40151(14) 0.62369(9)
H17 H 0.45960 0.40390 0.58030
C16 C 0.2946(2) 0.32249(14) 0.63916(9)
C17 C 0.1924(2) 0.33281(15) 0.6966(1)
H18 H 0.09630 0.28850 0.70370
C18 C 0.2312(2) 0.40781(15) 0.74336(10)
H19 H 0.15990 0.41450 0.78200
C19 C 0.3137(3) 0.22201(15) 0.60441(10)
H20 H 0.33130 0.23320 0.55560
H21 H 0.20230 0.18370 0.60900
C20 C 0.4750(3) 0.15732(16) 0.63454(11)
H22 H 0.43010 0.09100 0.64820
H23 H 0.56220 0.14670 0.59870
C21 C 0.5678(2) 0.20634(14) 0.69503(10)
C22 C 0.4920(3) 0.20406(15) 0.75883(10)
H24 H 0.41440 0.15090 0.77000
C23 C 0.5290(3) 0.27877(16) 0.80599(10)
H25 H 0.47590 0.27640 0.84900
C24 C 0.6435(2) 0.35732(15) 0.79095(9)
C25 C 0.7474(2) 0.34638(15) 0.73399(9)
H26 H 0.84490 0.39000 0.72760
C26 C 0.7091(2) 0.27192(15) 0.68634(10)
H27 H 0.78000 0.26590 0.64760
#END
