
#######################################################################
#
#                 Cambridge Crystallographic Data Centre
#                                CCDC
#
#######################################################################
#
# If this CIF has been generated from an entry in the Cambridge
# Structural Database, then it will include bibliographic, chemical,
# crystal, experimental, refinement or atomic coordinate data resulting
# from the CCDC's data processing and validation procedures.
#
#######################################################################

data_CSD_CIF_EZUFEK
_audit_creation_date 2004-10-28
_audit_creation_method CSD-ConQuest-V1
_database_code_CSD EZUFEK
_database_code_depnum_ccdc_archive 'CCDC 243156'
_chemical_formula_sum 'C18 H34 N2 O4'
_chemical_formula_moiety
;
C18 H34 N2 O4
;
_journal_coden_Cambridge 4
_journal_volume 126
_journal_year 2004
_journal_page_first 6956
_journal_name_full 'J.Am.Chem.Soc. '
loop_
_publ_author_name
"Dan Yang"
"Yu-Hui Zhang"
"Bing Li"
"Dan-Wei Zhang"
"J.Chun-Yu Chan"
"Nian-Yong Zhu"
"Shi-Wei Luo"
"Yun-Dong Wu"
_chemical_name_systematic
;
t-Butyl 7-cyclohexyl-4-isobutyl-6-oxo-2,7-diaza-3-oxaheptanoate
;
_chemical_melting_point 419.15
_cell_volume   2135.470
_exptl_crystal_density_diffrn 1.062
_exptl_special_details
;
Melting point range 419.15-420.15K

;
_diffrn_ambient_temperature 301
#These two values have been output from a single CSD field.
_refine_ls_R_factor_gt 0.0642
_refine_ls_wR_factor_gt 0.0642
_symmetry_cell_setting orthorhombic
_symmetry_space_group_name_H-M 'P 21 21 21'
_symmetry_Int_Tables_number 19
loop_
_symmetry_equiv_pos_site_id
_symmetry_equiv_pos_as_xyz
1 x,y,z
2 1/2-x,-y,1/2+z
3 1/2+x,1/2-y,-z
4 -x,1/2+y,1/2-z
_cell_length_a 10.143(2)
_cell_length_b 11.246(2)
_cell_length_c 18.721(4)
_cell_angle_alpha 90
_cell_angle_beta 90
_cell_angle_gamma 90
_cell_formula_units_Z 4
loop_
_atom_type_symbol
_atom_type_radius_bond
C 0.68
H 0.23
N 0.68
O 0.68
loop_
_atom_site_label
_atom_site_type_symbol
_atom_site_fract_x
_atom_site_fract_y
_atom_site_fract_z
O1 O 0.3458(3) 0.5680(3) 0.90978(15)
O2 O 0.5284(3) 0.6554(3) 0.95689(14)
O3 O 0.4369(2) 0.6263(2) 0.77929(14)
O4 O 0.2918(2) 0.2955(3) 0.70992(15)
N1 N 0.5144(3) 0.6359(3) 0.84162(19)
N2 N 0.2318(3) 0.4264(3) 0.79373(18)
C1 C 0.4521(4) 0.6175(4) 0.9041(2)
C2 C 0.4943(5) 0.6306(5) 1.0320(2)
C3 C 0.6127(6) 0.6858(7) 1.0726(3)
H1 H 0.61500 0.77000 1.06430
H2 H 0.69320 0.65050 1.05590
H3 H 0.60310 0.67090 1.12280
C4 C 0.3690(7) 0.6944(8) 1.0507(3)
H4 H 0.37910 0.77780 1.04130
H5 H 0.34980 0.68280 1.10040
H6 H 0.29790 0.66350 1.02240
C5 C 0.4940(8) 0.4976(6) 1.0443(4)
H7 H 0.57740 0.46500 1.03000
H8 H 0.42490 0.46180 1.01660
H9 H 0.47960 0.48160 1.09400
C6 C 0.3216(3) 0.3713(4) 0.7541(2)
C7 C 0.4623(3) 0.4121(3) 0.7642(2)
H10 H 0.48200 0.41270 0.81490
H11 H 0.52060 0.35480 0.74190
C8 C 0.4917(4) 0.5336(4) 0.7340(2)
H12 H 0.58750 0.54410 0.73110
C9 C 0.4324(5) 0.5534(6) 0.6608(2)
H13 H 0.42820 0.47620 0.63770
H14 H 0.34210 0.57890 0.66820
C10 C 0.4875(6) 0.6306(10) 0.6125(3)
C11 C 0.6276(6) 0.629(1) 0.5958(4)
H15 H 0.64670 0.69000 0.56140
H16 H 0.65100 0.55290 0.57640
H17 H 0.67750 0.64320 0.63850
C12 C 0.4059(7) 0.6453(10) 0.5445(3)
H18 H 0.45020 0.69880 0.51260
H19 H 0.32080 0.67690 0.55640
H20 H 0.39550 0.56940 0.52180
C13 C 0.0901(3) 0.4057(3) 0.7885(2)
H21 H 0.07140 0.38040 0.73940
C14 C 0.0443(4) 0.3094(5) 0.8369(3)
H22 H 0.07140 0.32720 0.88540
H23 H 0.08510 0.23490 0.82300
C15 C -0.1039(5) 0.2963(6) 0.8344(4)
H24 H -0.12930 0.26770 0.78750
H25 H -0.13070 0.23710 0.86920
C16 C -0.1747(4) 0.4088(6) 0.8492(3)
H26 H -0.26890 0.39620 0.84470
H27 H -0.15670 0.43430 0.89780
C17 C -0.1320(5) 0.5019(5) 0.7986(4)
H28 H -0.17490 0.57640 0.81050
H29 H -0.15830 0.47990 0.75060
C18 C 0.0173(4) 0.5185(5) 0.8012(4)
H30 H 0.04300 0.57620 0.76530
H31 H 0.04180 0.55000 0.84750
H32 H 0.264(3) 0.481(4) 0.8266(19)
H33 H 0.563(4) 0.687(4) 0.844(2)
#END
