
#######################################################################
#
#                 Cambridge Crystallographic Data Centre
#                                CCDC
#
#######################################################################
#
# If this CIF has been generated from an entry in the Cambridge
# Structural Database, then it will include bibliographic, chemical,
# crystal, experimental, refinement or atomic coordinate data resulting
# from the CCDC's data processing and validation procedures.
#
#######################################################################

data_CSD_CIF_EZUFIO
_audit_creation_date 2004-10-28
_audit_creation_method CSD-ConQuest-V1
_database_code_CSD EZUFIO
_database_code_depnum_ccdc_archive 'CCDC 243157'
_chemical_formula_sum 'C18 H34 N2 O3'
_chemical_formula_moiety
;
C18 H34 N2 O3
;
_journal_coden_Cambridge 4
_journal_volume 126
_journal_year 2004
_journal_page_first 6956
_journal_name_full 'J.Am.Chem.Soc. '
loop_
_publ_author_name
"Dan Yang"
"Yu-Hui Zhang"
"Bing Li"
"Dan-Wei Zhang"
"J.Chun-Yu Chan"
"Nian-Yong Zhu"
"Shi-Wei Luo"
"Yun-Dong Wu"
_chemical_name_systematic
;
1-Cyclohexyl-4-isobutyl-8,8-dimethyl-2,7-dioxo-1,6-diaza-5-oxanonane
;
_chemical_melting_point 425.15
_cell_volume   2142.764
_exptl_crystal_colour 'colorless'
_exptl_crystal_density_diffrn 1.012
_exptl_special_details
;
Melting point range 425.15-426.15K

;
_exptl_crystal_description 'prism'
_diffrn_ambient_temperature 253
_refine_special_details
;
Three t-butyl methyl groups are disordered over two sites with occupancies 
0.523:0.477.
;
#These two values have been output from a single CSD field.
_refine_ls_R_factor_gt 0.0473
_refine_ls_wR_factor_gt 0.0473
_symmetry_cell_setting orthorhombic
_symmetry_space_group_name_H-M 'P 21 21 21'
_symmetry_Int_Tables_number 19
loop_
_symmetry_equiv_pos_site_id
_symmetry_equiv_pos_as_xyz
1 x,y,z
2 1/2-x,-y,1/2+z
3 1/2+x,1/2-y,-z
4 -x,1/2+y,1/2-z
_cell_length_a 10.225(2)
_cell_length_b 11.534(2)
_cell_length_c 18.169(4)
_cell_angle_alpha 90
_cell_angle_beta 90
_cell_angle_gamma 90
_cell_formula_units_Z 4
loop_
_atom_type_symbol
_atom_type_radius_bond
C 0.68
H 0.23
N 0.68
O 0.68
loop_
_atom_site_label
_atom_site_type_symbol
_atom_site_fract_x
_atom_site_fract_y
_atom_site_fract_z
O1 O 0.8163(3) 0.9704(3) 0.5974(2)
O2 O 0.9233(3) 0.9044(3) 0.7283(2)
O3 O 0.8022(3) 1.2419(3) 0.8051(2)
N1 N 0.9892(4) 0.8940(4) 0.6587(3)
N2 N 0.7266(3) 1.1087(4) 0.7226(3)
C1 C 0.9234(5) 0.9220(4) 0.5952(3)
C2 C 0.9926(5) 0.8928(5) 0.5227(3)
C3 C 0.921(2) 0.950(2) 0.4579(9)
H1 H 0.83850 0.91180 0.45020
H2 H 0.97320 0.94380 0.41430
H3 H 0.90570 1.03040 0.46880
C4 C 0.9975(17) 0.7591(11) 0.5129(9)
H4 H 0.91280 0.72690 0.52310
H5 H 1.06050 0.72690 0.54620
H6 H 1.02200 0.74100 0.46320
C5 C 1.1349(13) 0.9324(13) 0.5271(9)
H7 H 1.17870 0.89100 0.56580
H8 H 1.13780 1.01410 0.53730
H9 H 1.17760 0.91710 0.48110
C6 C 0.8212(4) 1.1631(5) 0.7605(3)
C7 C 0.9601(3) 1.1144(4) 0.7448(3)
H10 H 0.97350 1.11290 0.69190
H11 H 1.02420 1.16720 0.76550
C8 C 0.9855(4) 0.9934(4) 0.7752(3)
H12 H 1.08010 0.97980 0.77540
C9 C 0.9334(4) 0.9737(5) 0.8541(3)
H13 H 0.95710 1.04050 0.88370
H14 H 0.83860 0.97120 0.85190
C10 C 0.9800(5) 0.8655(5) 0.8940(3)
H15 H 0.96060 0.79900 0.86230
C11 C 1.1247(5) 0.8651(7) 0.9083(4)
H16 H 1.14620 0.92630 0.94200
H17 H 1.17070 0.87680 0.86290
H18 H 1.14970 0.79190 0.92920
C12 C 0.9039(7) 0.8485(6) 0.9659(3)
H19 H 0.92010 0.91280 0.99820
H20 H 0.93200 0.77810 0.98930
H21 H 0.81210 0.84380 0.95540
C13 C 0.5859(4) 1.1343(4) 0.7312(3)
H22 H 0.57030 1.16170 0.78150
C14 C 0.5418(4) 1.2259(5) 0.6783(3)
H23 H 0.56490 1.20300 0.62860
H24 H 0.58660 1.29800 0.68920
C15 C 0.3928(4) 1.2451(5) 0.6831(4)
H25 H 0.37050 1.27490 0.73140
H26 H 0.36640 1.30220 0.64680
C16 C 0.3203(4) 1.1340(6) 0.6698(4)
H27 H 0.22710 1.14780 0.67430
H28 H 0.33750 1.10740 0.62010
C17 C 0.3603(5) 1.0428(6) 0.7229(5)
H29 H 0.31460 0.97130 0.71170
H30 H 0.33600 1.06630 0.77230
C18 C 0.5101(4) 1.0219(5) 0.7194(5)
H31 H 0.53480 0.96620 0.75690
H32 H 0.53270 0.98950 0.67180
C19? C 0.902(2) 0.814(3) 0.4790(13)
H33? H 0.90820 0.73680 0.49780
H34? H 0.92790 0.81520 0.42820
H35? H 0.81410 0.84170 0.48350
C20? C 1.1303(14) 0.8442(18) 0.5275(10)
H36? H 1.12630 0.76220 0.53610
H37? H 1.17610 0.88090 0.56730
H38? H 1.17560 0.85890 0.48220
C21? C 1.005(2) 1.0100(16) 0.4811(12)
H39? H 1.03780 0.99620 0.43240
H40? H 1.06430 1.05980 0.50710
H41? H 0.92070 1.04630 0.47810
H42 H 0.742(3) 1.052(3) 0.685(2)
H43 H 1.054(5) 0.834(5) 0.660(3)
#END
