
#######################################################################
#
#                 Cambridge Crystallographic Data Centre
#                                CCDC
#
#######################################################################
#
# If this CIF has been generated from an entry in the Cambridge
# Structural Database, then it will include bibliographic, chemical,
# crystal, experimental, refinement or atomic coordinate data resulting
# from the CCDC's data processing and validation procedures.
#
#######################################################################

data_CSD_CIF_EZUFUA
_audit_creation_date 2004-10-28
_audit_creation_method CSD-ConQuest-V1
_database_code_CSD EZUFUA
_database_code_depnum_ccdc_archive 'CCDC 243159'
_chemical_formula_sum 'C18 H33 N3 O5'
_chemical_formula_moiety
;
C18 H33 N3 O5
;
_journal_coden_Cambridge 4
_journal_volume 126
_journal_year 2004
_journal_page_first 6956
_journal_name_full 'J.Am.Chem.Soc. '
loop_
_publ_author_name
"Dan Yang"
"Yu-Hui Zhang"
"Bing Li"
"Dan-Wei Zhang"
"J.Chun-Yu Chan"
"Nian-Yong Zhu"
"Shi-Wei Luo"
"Yun-Dong Wu"
_chemical_name_systematic
;
1-Cyclohexyl-4,9,13-trimethyl-2,7,12-trioxo-1,6,11-triaza-5,10-dioxatetradecan
e
;
_chemical_melting_point 462.15
_cell_volume    530.005
_exptl_crystal_colour 'colorless'
_exptl_crystal_density_diffrn 1.164
_exptl_special_details
;
Melting point range 462.15-463.15K

;
_exptl_crystal_description 'prism'
_diffrn_ambient_temperature 301
#These two values have been output from a single CSD field.
_refine_ls_R_factor_gt 0.0468
_refine_ls_wR_factor_gt 0.0468
_symmetry_cell_setting triclinic
_symmetry_space_group_name_H-M 'P 1'
_symmetry_Int_Tables_number 1
loop_
_symmetry_equiv_pos_site_id
_symmetry_equiv_pos_as_xyz
1 x,y,z
_cell_length_a 4.846(1)
_cell_length_b 5.9490(12)
_cell_length_c 19.861(4)
_cell_angle_alpha 85.00(3)
_cell_angle_beta 88.23(3)
_cell_angle_gamma 68.31(3)
_cell_formula_units_Z 1
loop_
_atom_type_symbol
_atom_type_radius_bond
C 0.68
H 0.23
N 0.68
O 0.68
loop_
_atom_site_label
_atom_site_type_symbol
_atom_site_fract_x
_atom_site_fract_y
_atom_site_fract_z
O1 O 0.6597(11) 0.4866(10) 1.34166(19)
O2 O 0.4825(9) 0.3393(8) 1.14583(17)
O3 O 0.3317(9) 0.7844(8) 0.95823(16)
O4 O 0.7026(11) 0.7785(10) 0.85310(19)
O5 O -0.0327(11) 0.6726(10) 1.0992(2)
N1 N 0.2035(15) 0.5178(12) 1.3740(2)
N2 N 0.4594(15) 0.5673(13) 1.1176(2)
N3 N 0.2686(12) 0.7671(10) 0.8917(2)
C1 C 0.4107(16) 0.4951(11) 1.3277(3)
C2 C 0.3213(13) 0.4889(12) 1.2560(3)
H1 H 0.14650 0.44610 1.25680
H2 H 0.26860 0.64990 1.23310
C3 C 0.5595(14) 0.3132(13) 1.2171(3)
H3 H 0.74860 0.33440 1.22250
C4 C 0.593(2) 0.0510(15) 1.2390(4)
H4 H 0.74870 -0.05810 1.21350
H5 H 0.40940 0.03010 1.23100
H6 H 0.64010 0.01670 1.28630
C5 C 0.2344(15) 0.5449(15) 1.4450(3)
H7 H 0.42850 0.55650 1.45100
C6 C 0.229(2) 0.3303(17) 1.4876(3)
H8 H 0.39240 0.18730 1.47480
H9 H 0.04540 0.30700 1.47980
C7 C 0.256(3) 0.3585(17) 1.5628(3)
H10 H 0.23710 0.22020 1.58940
H11 H 0.45000 0.36160 1.57160
C8 C 0.020(2) 0.588(2) 1.5835(3)
H12 H -0.17390 0.57730 1.57940
H13 H 0.04920 0.60770 1.63040
C9 C 0.033(2) 0.7990(17) 1.5401(4)
H14 H 0.22070 0.81610 1.54740
H15 H -0.12470 0.94490 1.55330
C10 C 0.000(2) 0.7761(17) 1.4662(4)
H16 H 0.02010 0.91430 1.43980
H17 H -0.19540 0.77520 1.45780
C11 C 0.196(2) 0.7155(15) 1.0942(3)
C12 C 0.1914(15) 0.9549(12) 1.0599(3)
H18 H 0.05320 1.08670 1.08350
H19 H 0.38720 0.96200 1.06330
C13 C 0.1040(15) 0.9905(13) 0.9872(3)
H20 H -0.09170 0.98010 0.98280
C14 C 0.103(2) 1.2266(15) 0.9535(4)
H21 H 0.04370 1.24130 0.90710
H22 H 0.29830 1.23100 0.95550
H23 H -0.03460 1.35860 0.97630
C15 C 0.4687(17) 0.7516(12) 0.8440(3)
C16 C 0.3833(15) 0.6964(14) 0.7762(3)
H24 H 0.18150 0.69540 0.77900
C17 C 0.596(2) 0.4498(16) 0.7599(4)
H25 H 0.54800 0.41490 0.71650
H26 H 0.58160 0.32930 0.79370
H27 H 0.79530 0.44810 0.75910
C18 C 0.394(2) 0.8860(16) 0.7216(3)
H28 H 0.33950 0.84880 0.67910
H29 H 0.59190 0.88690 0.71860
H30 H 0.25820 1.04270 0.73240
H31 H 0.060(16) 0.530(12) 1.360(3)
H32 H 0.65(2) 0.604(16) 1.110(4)
H33 H 0.125(10) 0.739(8) 0.885(2)
#END
