
#######################################################################
#
#                 Cambridge Crystallographic Data Centre
#                                CCDC
#
#######################################################################
#
# If this CIF has been generated from an entry in the Cambridge
# Structural Database, then it will include bibliographic, chemical,
# crystal, experimental, refinement or atomic coordinate data resulting
# from the CCDC's data processing and validation procedures.
#
#######################################################################

data_CSD_CIF_EZUJAL
_audit_creation_date 2011-12-12
_audit_creation_method CSD-ConQuest-V1
_database_code_CSD EZUJAL
_database_code_depnum_ccdc_archive 'CCDC 829193'
_chemical_formula_sum 'C23 H20 N2 O3'
_chemical_formula_moiety
;
C23 H20 N2 O3
;
_journal_coden_Cambridge 1336
_journal_volume 13
_journal_year 2011
_journal_page_first 4668
_journal_name_full 'Org.Lett. '
loop_
_publ_author_name
"Deng Hong"
"Yuanxun Zhu"
"Yao Li"
"Xufeng Lin"
"Ping Lu"
"Yanguang Wang"
_chemical_name_systematic
;
(4-Nitro-3,5-diphenylpyrrolidin-2-yl)(phenyl)methanone
;
_cell_volume   1941.125
_exptl_crystal_colour 'yellow'
_exptl_crystal_density_diffrn 1.274
_exptl_crystal_description 'needle'
_diffrn_ambient_temperature 293
#These two values have been output from a single CSD field.
_refine_ls_R_factor_gt 0.0709
_refine_ls_wR_factor_gt 0.0709
_symmetry_cell_setting orthorhombic
_symmetry_space_group_name_H-M 'P n a 21'
_symmetry_Int_Tables_number 33
loop_
_symmetry_equiv_pos_site_id
_symmetry_equiv_pos_as_xyz
1 x,y,z
2 -x,-y,1/2+z
3 1/2-x,1/2+y,1/2+z
4 1/2+x,1/2-y,z
_cell_length_a 21.9909(8)
_cell_length_b 13.9411(6)
_cell_length_c 6.3316(2)
_cell_angle_alpha 90
_cell_angle_beta 90
_cell_angle_gamma 90
_cell_formula_units_Z 4
loop_
_atom_type_symbol
_atom_type_radius_bond
C 0.68
H 0.23
N 0.68
O 0.68
loop_
_atom_site_label
_atom_site_type_symbol
_atom_site_fract_x
_atom_site_fract_y
_atom_site_fract_z
O1 O 0.00615(14) 0.3536(3) 0.2339(6)
O2 O 0.1447(2) 0.3459(3) -0.6210(7)
O3 O 0.22301(18) 0.3688(4) -0.4470(9)
N1 N 0.07306(15) 0.4669(2) -0.0288(8)
H1 H 0.07080 0.49460 0.09240
N2 N 0.17050(19) 0.3599(3) -0.4601(8)
C1 C -0.0845(2) 0.2237(4) 0.1175(9)
H2 H -0.06710 0.21670 0.25040
C2 C -0.1338(3) 0.1689(4) 0.0637(11)
H3 H -0.15030 0.12640 0.16160
C3 C -0.1589(2) 0.1763(4) -0.1316(11)
H4 H -0.19130 0.13680 -0.16930
C4 C -0.1365(2) 0.2422(4) -0.2743(9)
H5 H -0.15450 0.24890 -0.40640
C5 C -0.08680(18) 0.2987(3) -0.2193(8)
H6 H -0.07140 0.34310 -0.31490
C6 C -0.06032(16) 0.2887(3) -0.0219(7)
C7 C -0.00758(16) 0.3486(3) 0.0485(8)
C8 C 0.03005(16) 0.3977(3) -0.1210(8)
H7 H 0.00230 0.43280 -0.21450
C9 C 0.06929(18) 0.3258(3) -0.2618(7)
H8 H 0.05410 0.32930 -0.40710
C10 C 0.07048(16) 0.2223(3) -0.1976(7)
C11 C 0.0935(2) 0.1923(3) -0.0067(7)
H9 H 0.10750 0.23770 0.08930
C12 C 0.0963(2) 0.0958(3) 0.0456(9)
H10 H 0.11200 0.07710 0.17570
C13 C 0.0762(2) 0.0283(3) -0.0937(11)
H11 H 0.07850 -0.03640 -0.05880
C14 C 0.0529(3) 0.0551(4) -0.2820(12)
H12 H 0.03850 0.00880 -0.37520
C15 C 0.05031(19) 0.1524(3) -0.3379(8)
H13 H 0.03510 0.17020 -0.46910
C16 C 0.13206(19) 0.3735(3) -0.2558(7)
H14 H 0.15470 0.34290 -0.14080
C17 C 0.11985(17) 0.4782(3) -0.1864(9)
H15 H 0.10210 0.51240 -0.30680
C18 C 0.17662(17) 0.5314(3) -0.1197(8)
C19 C 0.2002(2) 0.6013(3) -0.2462(10)
H16 H 0.18070 0.61760 -0.37150
C20 C 0.2532(2) 0.6479(4) -0.1873(12)
H17 H 0.26920 0.69540 -0.27420
C21 C 0.2816(2) 0.6256(4) -0.0079(12)
H18 H 0.31720 0.65750 0.02910
C22 C 0.2591(2) 0.5575(4) 0.1198(11)
H19 H 0.27900 0.54200 0.24500
C23 C 0.2065(2) 0.5106(4) 0.0639(10)
H20 H 0.19080 0.46360 0.15310
#END
