
#######################################################################
#
#                 Cambridge Crystallographic Data Centre
#                                CCDC
#
#######################################################################
#
# If this CIF has been generated from an entry in the Cambridge
# Structural Database, then it will include bibliographic, chemical,
# crystal, experimental, refinement or atomic coordinate data resulting
# from the CCDC's data processing and validation procedures.
#
#######################################################################

data_CSD_CIF_EZUMAO
_audit_creation_date 2011-12-12
_audit_creation_method CSD-ConQuest-V1
_database_code_CSD EZUMAO
_database_code_depnum_ccdc_archive 'CCDC 663187'
_chemical_formula_sum 'C30 H27 N3 O7'
_chemical_formula_moiety
;
C30 H27 N3 O7
;
_journal_coden_Cambridge 493
_journal_volume 45
_journal_year 2010
_journal_page_first 3726
_journal_name_full 'Eur.J.Med.Chem. '
loop_
_publ_author_name
"N.Ty"
"G.Dupeyre"
"G.G.Chabot"
"J.Seguin"
"L.Quentin"
"A.Chiaroni"
"F.Tillequin"
"D.Scherman"
"S.Michel"
"X.Cachet"
_chemical_name_systematic
;
(+-)-(3aR,5R,10bR)-2-Benzyl-7-nitro-5-(3',4',5'-trimethoxyphenyl)-4,5,10,10b-t
etrahydropyrrolo[3,4-a]carbazole-1,3(2H,3aH)-dione
;
_cell_volume   1310.053
_exptl_crystal_colour 'yellow'
_exptl_crystal_density_diffrn 1.373
_exptl_crystal_description 'prism'
_diffrn_ambient_temperature 293
#These two values have been output from a single CSD field.
_refine_ls_R_factor_gt 0.0525
_refine_ls_wR_factor_gt 0.0525
_symmetry_cell_setting triclinic
_symmetry_space_group_name_H-M 'P -1'
_symmetry_Int_Tables_number 2
loop_
_symmetry_equiv_pos_site_id
_symmetry_equiv_pos_as_xyz
1 x,y,z
2 -x,-y,-z
_cell_length_a 9.454(7)
_cell_length_b 10.691(5)
_cell_length_c 14.612(9)
_cell_angle_alpha 82.93(4)
_cell_angle_beta 75.15(3)
_cell_angle_gamma 66.63(4)
_cell_formula_units_Z 2
loop_
_atom_type_symbol
_atom_type_radius_bond
C 0.68
H 0.23
N 0.68
O 0.68
loop_
_atom_site_label
_atom_site_type_symbol
_atom_site_fract_x
_atom_site_fract_y
_atom_site_fract_z
C1 C 0.6250(2) 0.31753(17) 0.64012(14)
N1 N 0.75181(18) 0.28935(15) 0.56458(11)
C2 C 0.8950(2) 0.20760(18) 0.58830(14)
C3 C 0.8593(2) 0.16350(18) 0.69133(13)
H1 H 0.92380 0.18410 0.72560
C4 C 0.9008(2) 0.00825(18) 0.69431(13)
H2 H 0.86400 -0.01360 0.64460
H3 H 1.01500 -0.03830 0.68120
C5 C 0.8290(2) -0.04576(16) 0.78924(13)
H4 H 0.87360 -0.02880 0.83780
C6 C 0.6537(2) 0.03600(16) 0.81309(12)
C7 C 0.5216(2) 0.00410(17) 0.86804(12)
C8 C 0.5035(2) -0.11120(18) 0.91655(12)
H5 H 0.59040 -0.19180 0.91910
C9 C 0.3523(2) -0.10130(19) 0.96061(13)
C10 C 0.2173(2) 0.0170(2) 0.95831(14)
H6 H 0.11760 0.01760 0.98840
C11 C 0.2323(2) 0.1316(2) 0.91162(14)
H7 H 0.14420 0.21130 0.90930
C12 C 0.3837(2) 0.12464(18) 0.86784(13)
N2 N 0.43078(19) 0.22289(15) 0.81685(11)
H8 H 0.36910 0.30510 0.80680
C13 C 0.5925(2) 0.16936(17) 0.78403(13)
C14 C 0.6839(2) 0.25048(17) 0.72840(13)
H9 H 0.67510 0.32140 0.76860
O1 O 0.48943(18) 0.38590(15) 0.63604(12)
C15 C 0.7386(3) 0.3355(2) 0.46806(14)
H10 H 0.83880 0.33900 0.43240
H11 H 0.65920 0.42740 0.46950
O2 O 1.02122(18) 0.17638(16) 0.53272(11)
N3 N 0.3299(2) -0.21977(19) 1.01356(13)
O3 O 0.4442(2) -0.32412(18) 1.01489(15)
O4 O 0.1963(2) -0.20919(19) 1.05618(14)
C16 C 0.8769(2) -0.19877(17) 0.78568(12)
C17 C 0.8242(2) -0.25390(18) 0.72642(14)
H12 H 0.75250 -0.19660 0.69160
C18 C 0.8778(2) -0.39347(19) 0.71893(14)
C19 C 0.9853(2) -0.48059(18) 0.77034(14)
C20 C 1.0373(2) -0.42553(18) 0.83021(14)
C21 C 0.9820(2) -0.28512(17) 0.83870(13)
H13 H 1.01550 -0.24890 0.87990
O5 O 0.8312(2) -0.45706(15) 0.66279(12)
C22 C 0.7653(4) -0.3798(3) 0.58859(19)
H14 H 0.82990 -0.33130 0.55460
H15 H 0.66050 -0.31600 0.61390
H16 H 0.76020 -0.43930 0.54640
O6 O 1.0399(2) -0.62032(13) 0.76499(11)
C23 C 1.1493(3) -0.6740(2) 0.67897(18)
H17 H 1.23140 -0.63860 0.66610
H18 H 1.09530 -0.64800 0.62810
H19 H 1.19500 -0.77160 0.68460
O7 O 1.14705(19) -0.51853(14) 0.87621(11)
C24 C 1.1949(3) -0.4686(2) 0.94445(19)
H20 H 1.10300 -0.41480 0.98940
H21 H 1.25290 -0.41340 0.91300
H22 H 1.26090 -0.54410 0.97680
C25 C 0.6948(2) 0.2462(2) 0.41689(14)
C26 C 0.6777(3) 0.2836(3) 0.32530(16)
H23 H 0.68880 0.36350 0.29810
C27 C 0.6442(4) 0.2033(3) 0.2742(2)
H24 H 0.63300 0.22930 0.21250
C28 C 0.6274(4) 0.0858(3) 0.3132(2)
H25 H 0.60490 0.03200 0.27810
C29 C 0.6435(3) 0.0474(3) 0.4036(2)
H26 H 0.63170 -0.03240 0.43040
C30 C 0.6774(3) 0.1278(2) 0.45557(17)
H27 H 0.68850 0.10140 0.51720
#END
