
#######################################################################
#
#                 Cambridge Crystallographic Data Centre
#                                CCDC
#
#######################################################################
#
# If this CIF has been generated from an entry in the Cambridge
# Structural Database, then it will include bibliographic, chemical,
# crystal, experimental, refinement or atomic coordinate data resulting
# from the CCDC's data processing and validation procedures.
#
#######################################################################

data_CSD_CIF_EZUQEX
_audit_creation_date 2016-11-28
_audit_creation_method CSD-ConQuest-V1
_database_code_CSD EZUQEX
_database_code_depnum_ccdc_archive 'CCDC 1061226'
_chemical_formula_sum 'C19 H15 N3 O3'
_chemical_formula_moiety
;
C19 H15 N3 O3
;
_journal_coden_Cambridge 194
_journal_volume 64
_journal_year 2016
_journal_page_first 1576
_journal_name_full 'Chem.Pharm.Bull. '
loop_
_publ_author_name
"Liang Lu"
"Shao Sha"
"Kai Wang"
"Yuan-Heng Zhang"
"Yan-Dong Liu"
"Guo-Dong Ju"
"Baozhong Wang"
"Hai-Liang Zhu"
_chemical_name_systematic
;
2-(2-(hydroxyimino)-2-(4-methylphenyl)ethyl)chromeno[4,3-c]pyrazol-4(2H)-one
;
_cell_volume   1593.701
_exptl_crystal_density_diffrn 1.389
_exptl_crystal_description 'block'
_diffrn_ambient_temperature 293
#These two values have been output from a single CSD field.
_refine_ls_R_factor_gt 0.0514
_refine_ls_wR_factor_gt 0.0514
_symmetry_cell_setting triclinic
_symmetry_space_group_name_H-M 'P -1'
_symmetry_Int_Tables_number 2
loop_
_symmetry_equiv_pos_site_id
_symmetry_equiv_pos_as_xyz
1 x,y,z
2 -x,-y,-z
_cell_length_a 10.2139(6)
_cell_length_b 12.0821(7)
_cell_length_c 13.5275(9)
_cell_angle_alpha 75.933(2)
_cell_angle_beta 82.704(2)
_cell_angle_gamma 81.336(2)
_cell_formula_units_Z 4
loop_
_atom_type_symbol
_atom_type_radius_bond
C 0.68
H 0.23
N 0.68
O 0.68
loop_
_atom_site_label
_atom_site_type_symbol
_atom_site_fract_x
_atom_site_fract_y
_atom_site_fract_z
O1 O 0.66717(15) 1.23845(12) -0.02015(10)
O2 O 0.85015(17) 1.14463(14) -0.08003(11)
O3 O 0.87338(14) 0.92819(12) 0.51079(10)
H1 H 0.84780 0.94050 0.56730
N1 N 0.84438(15) 0.98274(12) 0.24199(11)
N2 N 0.72953(15) 1.04762(12) 0.26807(11)
N3 N 0.80544(15) 0.84429(13) 0.49375(12)
C1 C 0.48359(19) 1.23168(16) 0.23379(16)
H2 H 0.48720 1.19380 0.30220
C2 C 0.3802(2) 1.31634(18) 0.20555(19)
H3 H 0.31400 1.33510 0.25480
C3 C 0.3745(2) 1.37337(19) 0.1043(2)
H4 H 0.30450 1.43070 0.08580
C4 C 0.4706(2) 1.34664(18) 0.03075(19)
H5 H 0.46630 1.38550 -0.03740
C5 C 0.5743(2) 1.26127(16) 0.05871(16)
C6 C 0.58262(19) 1.20249(14) 0.16077(14)
C7 C 0.69612(18) 1.11552(14) 0.17911(13)
C8 C 0.78807(19) 1.09471(15) 0.09837(14)
C9 C 0.7766(2) 1.15614(17) -0.00576(16)
C10 C 0.88253(19) 1.00826(15) 0.14197(13)
H6 H 0.95750 0.97470 0.10830
C11 C 0.91684(18) 0.90077(16) 0.32115(14)
H7 H 0.96610 0.94240 0.35380
H8 H 0.98060 0.84880 0.28930
C12 C 0.82667(17) 0.83152(14) 0.40150(13)
C13 C 0.76232(17) 0.74065(15) 0.37748(13)
C14 C 0.7574(2) 0.73152(16) 0.27838(14)
H9 H 0.79490 0.78450 0.22440
C15 C 0.6978(2) 0.64521(17) 0.25748(16)
H10 H 0.69470 0.64240 0.18970
C16 C 0.64327(18) 0.56358(16) 0.33433(16)
C17 C 0.6509(2) 0.57054(19) 0.43375(17)
H11 H 0.61700 0.51510 0.48750
C18 C 0.7073(2) 0.65748(19) 0.45540(15)
H12 H 0.70870 0.66070 0.52320
C19 C 0.5773(2) 0.47021(18) 0.31226(19)
H13 H 0.48250 0.48790 0.32290
H14 H 0.60530 0.39820 0.35720
H15 H 0.60200 0.46500 0.24250
O4 O 0.82753(14) -0.21948(12) 1.00029(9)
O5 O 0.64734(16) -0.12100(14) 1.05762(10)
O6 O 0.61702(14) 0.08837(12) 0.45761(11)
H16 H 0.65110 0.07110 0.40450
N4 N 0.64868(14) 0.02526(12) 0.73274(11)
N5 N 0.76378(14) -0.04068(12) 0.70876(11)
N6 N 0.68635(16) 0.16861(13) 0.48008(12)
C20 C 1.00973(19) -0.22259(16) 0.74734(15)
H17 H 1.00710 -0.18560 0.67860
C21 C 1.1104(2) -0.30866(18) 0.77702(18)
H18 H 1.17630 -0.32940 0.72840
C22 C 1.1143(2) -0.36475(19) 0.87873(19)
H19 H 1.18230 -0.42390 0.89780
C23 C 1.0198(2) -0.33454(18) 0.95177(17)
H20 H 1.02320 -0.37240 1.02020
C24 C 0.91900(19) -0.24691(16) 0.92231(14)
C25 C 0.91168(18) -0.19042(14) 0.81969(13)
C26 C 0.79878(17) -0.10309(14) 0.79877(12)
C27 C 0.70788(18) -0.07781(15) 0.87880(13)
C28 C 0.7192(2) -0.13607(17) 0.98394(15)
C29 C 0.61231(18) 0.00538(15) 0.83306(13)
H21 H 0.53760 0.04050 0.86560
C30 C 0.57567(18) 0.10069(16) 0.65047(14)
H22 H 0.50470 0.14960 0.67950
H23 H 0.53560 0.05430 0.61610
C31 C 0.66484(17) 0.17413(14) 0.57407(13)
C32 C 0.73552(17) 0.25535(14) 0.60657(13)
C33 C 0.84725(18) 0.29723(16) 0.54801(14)
H24 H 0.87770 0.27370 0.48770
C34 C 0.91307(19) 0.37272(16) 0.57785(16)
H25 H 0.98700 0.39980 0.53690
C35 C 0.8724(2) 0.40974(16) 0.66743(16)
C36 C 0.7637(2) 0.36683(17) 0.72621(16)
H26 H 0.73470 0.38930 0.78720
C37 C 0.6963(2) 0.29117(16) 0.69679(15)
H27 H 0.62310 0.26360 0.73840
C38 C 0.9461(2) 0.4925(2) 0.6998(2)
H28 H 1.04010 0.47320 0.68520
H29 H 0.92580 0.48730 0.77190
H30 H 0.91920 0.56940 0.66290
#END
