
#######################################################################
#
#                 Cambridge Crystallographic Data Centre
#                                CCDC
#
#######################################################################
#
# If this CIF has been generated from an entry in the Cambridge
# Structural Database, then it will include bibliographic, chemical,
# crystal, experimental, refinement or atomic coordinate data resulting
# from the CCDC's data processing and validation procedures.
#
#######################################################################

data_CSD_CIF_EZUVOM
_audit_creation_date 2016-11-28
_audit_creation_method CSD-ConQuest-V1
_database_code_CSD EZUVOM
_database_code_depnum_ccdc_archive 'CCDC 1487436'
_chemical_formula_sum 'C27 H32 N2 O12'
_chemical_formula_moiety
;
C27 H32 N2 O12
;
_journal_coden_Cambridge 182
_journal_volume 53
_journal_year 2017
_journal_page_first 313
_journal_name_full 'Chem.Commun. '
loop_
_publ_author_name
"N.Busschaert"
"S.Thompson"
"A.D.Hamilton"
_chemical_name_systematic
;
2-(2-(2-methoxyethoxy)ethoxy)ethyl 
3-(1,3-dioxolan-2-yl)-4-((3-(1,3-dioxolan-2-yl)-4-nitrobenzoyl)amino)benzoate
;
_cell_volume   2620.419
_exptl_crystal_colour 'yellow'
_exptl_crystal_density_diffrn 1.461
_diffrn_ambient_temperature 100
#These two values have been output from a single CSD field.
_refine_ls_R_factor_gt 0.0466
_refine_ls_wR_factor_gt 0.0466
_symmetry_cell_setting monoclinic
_symmetry_space_group_name_H-M 'P 21/n'
_symmetry_Int_Tables_number 14
loop_
_symmetry_equiv_pos_site_id
_symmetry_equiv_pos_as_xyz
1 x,y,z
2 1/2-x,1/2+y,1/2-z
3 -x,-y,-z
4 -1/2+x,-1/2-y,-1/2+z
_cell_length_a 14.5173(5)
_cell_length_b 12.8034(4)
_cell_length_c 14.6624(5)
_cell_angle_alpha 90
_cell_angle_beta 105.948(1)
_cell_angle_gamma 90
_cell_formula_units_Z 4
loop_
_atom_type_symbol
_atom_type_radius_bond
C 0.68
H 0.23
N 0.68
O 0.68
loop_
_atom_site_label
_atom_site_type_symbol
_atom_site_fract_x
_atom_site_fract_y
_atom_site_fract_z
C1 C 0.88759(12) -0.40624(13) 0.58263(12)
C2 C 0.88856(12) -0.41910(13) 0.48899(12)
H1 H 0.89560 -0.48680 0.46530
C3 C 0.87924(12) -0.33325(13) 0.43030(12)
H2 H 0.87870 -0.34190 0.36580
C4 C 0.87052(11) -0.23346(12) 0.46572(11)
C5 C 0.87391(11) -0.22230(13) 0.56112(11)
H3 H 0.87040 -0.15410 0.58560
C6 C 0.88219(11) -0.30758(13) 0.62187(11)
C7 C 0.88612(13) -0.28374(14) 0.72471(12)
H4 H 0.91860 -0.34140 0.76760
C8 C 0.90568(15) -0.15905(16) 0.83559(13)
H5 H 0.90580 -0.08230 0.84380
H6 H 0.94900 -0.19090 0.89300
C9 C 0.80505(15) -0.20297(16) 0.81644(14)
H7 H 0.79840 -0.24540 0.87070
H8 H 0.75700 -0.14610 0.80480
C10 C 0.85595(11) -0.14424(12) 0.39650(11)
C11 C 0.85509(12) 0.05005(12) 0.38893(12)
C12 C 0.84125(13) 0.05832(13) 0.29129(12)
H9 H 0.82820 -0.00250 0.25280
C13 C 0.84640(13) 0.15456(13) 0.25027(12)
H10 H 0.83770 0.15910 0.18380
C14 C 0.86415(11) 0.24469(12) 0.30488(11)
C15 C 0.87330(11) 0.23741(13) 0.40155(11)
H11 H 0.88340 0.29910 0.43900
C16 C 0.86794(11) 0.14185(13) 0.44447(11)
C17 C 0.87613(12) 0.14051(13) 0.54884(12)
H12 H 0.88830 0.21290 0.57500
C18 C 0.93005(15) 0.06149(15) 0.68898(12)
H13 H 0.95500 0.12140 0.73120
H14 H 0.95830 -0.00380 0.72080
C19 C 0.82018(14) 0.05770(15) 0.66220(12)
H15 H 0.79710 -0.01490 0.66330
H16 H 0.79510 0.10080 0.70610
C20 C 0.87616(11) 0.34797(13) 0.26325(12)
C21 C 0.88789(12) 0.43627(12) 0.12517(12)
H17 H 0.95250 0.46450 0.15590
H18 H 0.83970 0.48890 0.13070
C22 C 0.87842(12) 0.41337(13) 0.02278(12)
H19 H 0.82090 0.36990 -0.00350
H20 H 0.87040 0.47960 -0.01350
C23 C 0.95518(14) 0.34460(14) -0.08484(12)
H21 H 0.93860 0.41140 -0.11950
H22 H 0.90400 0.29350 -0.11260
C24 C 1.04918(14) 0.30522(14) -0.09560(13)
H23 H 1.05130 0.31500 -0.16200
H24 H 1.10240 0.34580 -0.05390
C25 C 1.14965(13) 0.15904(14) -0.08082(12)
H25 H 1.20340 0.19230 -0.03300
H26 H 1.15620 0.17600 -0.14460
C26 C 1.15291(14) 0.04268(14) -0.06671(12)
H27 H 1.09110 0.01160 -0.10250
H28 H 1.20400 0.01250 -0.09150
C27 C 1.14540(14) -0.08615(15) 0.04506(14)
H29 H 1.15880 -0.10010 0.11320
H30 H 1.07700 -0.09640 0.01460
H31 H 1.18270 -0.13410 0.01720
N1 N 0.89077(11) -0.50207(11) 0.63898(10)
N2 N 0.85729(11) -0.04657(11) 0.43469(11)
H32 H 0.8748(15) -0.0433(16) 0.4879(16)
O1 O 0.91754(10) -0.58296(10) 0.60942(10)
O2 O 0.86384(11) -0.49688(11) 0.71164(9)
O3 O 0.93371(9) -0.18704(10) 0.75192(9)
O4 O 0.79304(9) -0.26697(11) 0.73282(9)
O5 O 0.84142(9) -0.16138(9) 0.31182(8)
O6 O 0.79148(9) 0.10001(10) 0.56704(8)
O7 O 0.94990(9) 0.07341(10) 0.59899(8)
O8 O 0.88982(9) 0.42924(9) 0.30634(9)
O9 O 0.87303(9) 0.34005(9) 0.17084(8)
O10 O 0.96100(9) 0.36000(9) 0.01306(8)
O11 O 1.06070(9) 0.19778(9) -0.07137(9)
O12 O 1.17096(9) 0.01832(10) 0.03097(8)
#END
