
#######################################################################
#
#                 Cambridge Crystallographic Data Centre
#                                CCDC
#
#######################################################################
#
# If this CIF has been generated from an entry in the Cambridge
# Structural Database, then it will include bibliographic, chemical,
# crystal, experimental, refinement or atomic coordinate data resulting
# from the CCDC's data processing and validation procedures.
#
#######################################################################

data_CSD_CIF_FABFIA
_audit_creation_date 2016-01-07
_audit_creation_method CSD-ConQuest-V1
_database_code_CSD FABFIA
_database_code_depnum_ccdc_archive 'CCDC 1003814'
_chemical_formula_sum 'C16 H11 N3 O4'
_chemical_formula_moiety
;
C16 H11 N3 O4
;
_journal_coden_Cambridge 82
_journal_volume 56
_journal_year 2015
_journal_page_first 853
_journal_name_full 'Zh.Strukt.Khim.(Russ.)(J.Struct.Chem.) '
loop_
_publ_author_name
"O.A.Maiorova"
"V.S.Grinev"
"A.Yu.Egorova"
_chemical_name_systematic
;
3-((2-Nitrophenyl)hydrazono)-5-phenylfuran-2(3H)-one
;
_cell_volume   1373.707
_exptl_crystal_colour 'yellow'
_exptl_crystal_density_diffrn 1.495
_exptl_special_details
;
Absolute configuration

;
_exptl_crystal_description 'irregular'
_diffrn_ambient_temperature 120
#These two values have been output from a single CSD field.
_refine_ls_R_factor_gt 0.0288
_refine_ls_wR_factor_gt 0.0288
_symmetry_cell_setting orthorhombic
_symmetry_space_group_name_H-M 'P 21 21 21'
_symmetry_Int_Tables_number 19
loop_
_symmetry_equiv_pos_site_id
_symmetry_equiv_pos_as_xyz
1 x,y,z
2 1/2-x,-y,1/2+z
3 -x,1/2+y,1/2-z
4 1/2+x,1/2-y,-z
_cell_length_a 7.4772(1)
_cell_length_b 11.7886(1)
_cell_length_c 15.5845(2)
_cell_angle_alpha 90
_cell_angle_beta 90
_cell_angle_gamma 90
_cell_formula_units_Z 4
loop_
_atom_type_symbol
_atom_type_radius_bond
C 0.68
H 0.23
N 0.68
O 0.68
loop_
_atom_site_label
_atom_site_type_symbol
_atom_site_fract_x
_atom_site_fract_y
_atom_site_fract_z
O1 O -0.26810(12) 0.64823(8) 0.31789(6)
O2 O -0.08478(13) 0.67198(8) 0.20475(6)
O3 O 0.28495(15) 0.27196(8) 0.45644(6)
O4 O 0.47375(15) 0.13802(8) 0.42719(7)
N1 N 0.14239(15) 0.50848(9) 0.29271(7)
N2 N 0.23025(16) 0.42912(9) 0.33801(7)
H1 H 0.188(2) 0.3974(14) 0.3848(7)
N3 N 0.41101(16) 0.23309(9) 0.41402(7)
C1 C -0.11342(17) 0.62671(10) 0.27249(8)
C2 C -0.01045(18) 0.54257(11) 0.32268(8)
C3 C -0.11741(18) 0.51602(11) 0.39676(8)
H2 H -0.08770 0.46430 0.44130
C4 C -0.26753(18) 0.57847(10) 0.39090(8)
C5 C -0.42726(18) 0.58637(11) 0.44338(8)
C6 C -0.44748(19) 0.51663(12) 0.51565(8)
H3 H -0.35710 0.46330 0.53020
C7 C -0.6004(2) 0.52584(12) 0.56595(9)
H4 H -0.61400 0.47920 0.61520
C8 C -0.7335(2) 0.60323(13) 0.54434(9)
H5 H -0.83730 0.60960 0.57920
C9 C -0.7152(2) 0.67105(12) 0.47209(8)
H6 H -0.80710 0.72300 0.45700
C10 C -0.56267(19) 0.66290(11) 0.42209(8)
H7 H -0.55010 0.70980 0.37290
C11 C 0.39536(17) 0.39328(11) 0.30914(8)
C12 C 0.47856(19) 0.44931(11) 0.24037(8)
H8 H 0.41950 0.51130 0.21370
C13 C 0.64396(19) 0.41615(11) 0.21089(9)
H9 H 0.69640 0.45470 0.16360
C14 C 0.73564(19) 0.32660(12) 0.24955(9)
H10 H 0.85130 0.30570 0.22990
C15 C 0.65697(19) 0.26888(11) 0.31630(9)
H11 H 0.71780 0.20730 0.34260
C16 C 0.48828(19) 0.30066(11) 0.34537(8)
#END
