
#######################################################################
#
#                 Cambridge Crystallographic Data Centre
#                                CCDC
#
#######################################################################
#
# If this CIF has been generated from an entry in the Cambridge
# Structural Database, then it will include bibliographic, chemical,
# crystal, experimental, refinement or atomic coordinate data resulting
# from the CCDC's data processing and validation procedures.
#
#######################################################################

data_CSD_CIF_FABHUL
_audit_creation_date 1987-06-30
_audit_creation_method CSD-ConQuest-V1
_database_code_CSD FABHUL
_database_code_depnum_ccdc_archive 'CCDC 1151044'
_chemical_formula_sum 'C5 H3 N5 O8'
_chemical_formula_moiety
;
C5 H3 N5 O8
;
_journal_coeditor_code "IUCr A26109"
_journal_coden_Cambridge 591
_journal_volume 42
_journal_year 1986
_journal_page_first 1428
_journal_name_full 'Acta Crystallogr.,Sect.C:Cryst.Struct.Commun. '
loop_
_publ_author_name
"D.T.Cromer"
"M.D.Coburn"
"R.R.Ryan"
"H.J.Wasserman"
_chemical_name_systematic
;
1-Methyl-2,3,4,5-tetranitropyrrole
;
_chemical_melting_point 388
_cell_volume   3834.522
_exptl_crystal_colour 'pale orange'
_exptl_crystal_density_diffrn 1.809
_exptl_special_details
;
possible high-density explosive

;
_diffrn_ambient_temperature ?
_diffrn_special_details
;
The study was carried out at room temperature,in the range 283-303K

;
#These two values have been output from a single CSD field.
_refine_ls_R_factor_gt 0.054
_refine_ls_wR_factor_gt 0.054
_symmetry_cell_setting orthorhombic
_symmetry_space_group_name_H-M 'P b c a'
_symmetry_Int_Tables_number 61
loop_
_symmetry_equiv_pos_site_id
_symmetry_equiv_pos_as_xyz
1 x,y,z
2 1/2-x,-y,1/2+z
3 1/2+x,1/2-y,-z
4 -x,1/2+y,1/2-z
5 -x,-y,-z
6 -1/2+x,y,-1/2-z
7 -1/2-x,-1/2+y,z
8 x,-1/2-y,-1/2+z
_cell_length_a 10.328(2)
_cell_length_b 15.657(3)
_cell_length_c 23.713(4)
_cell_angle_alpha 90
_cell_angle_beta 90
_cell_angle_gamma 90
_cell_formula_units_Z 16
loop_
_atom_type_symbol
_atom_type_radius_bond
C 0.68
H 0.23
N 0.68
O 0.68
loop_
_atom_site_label
_atom_site_type_symbol
_atom_site_fract_x
_atom_site_fract_y
_atom_site_fract_z
C1 C 0.2775(3) 0.1917(3) 0.1031(1)
C2 C 0.2952(4) 0.2787(3) 0.1053(2)
C3 C 0.3906(4) 0.2977(3) 0.0654(2)
C4 C 0.4243(3) 0.2230(3) 0.0404(2)
C5 C 0.3615(5) 0.0647(3) 0.0497(2)
N1 N 0.1899(3) 0.1411(2) 0.1372(2)
N2 N 0.2250(4) 0.3395(3) 0.1382(2)
N3 N 0.4357(4) 0.3832(3) 0.0501(2)
N4 N 0.5231(4) 0.2119(3) -0.0010(2)
N5 N 0.3537(3) 0.1563(2) 0.0638(1)
O1 O 0.1148(3) 0.0938(2) 0.1120(2)
O2 O 0.1940(3) 0.1503(3) 0.1870(1)
O3 O 0.1225(4) 0.3158(3) 0.1592(2)
O4 O 0.2680(5) 0.4096(3) 0.1436(2)
O5 O 0.3752(4) 0.4211(2) 0.0155(2)
O6 O 0.5295(4) 0.4105(3) 0.0753(2)
O7 O 0.5817(4) 0.2760(3) -0.0133(2)
O8 O 0.5402(4) 0.1425(3) -0.0228(2)
H1 H 0.31190 0.05130 0.01450
H2 H 0.32400 0.02930 0.08120
H3 H 0.45330 0.04670 0.04390
C6 C 0.4193(3) 0.0566(2) 0.2725(1)
C7 C 0.3849(3) 0.1358(2) 0.2915(2)
C8 C 0.3123(3) 0.1225(2) 0.3407(2)
C9 C 0.3038(3) 0.0358(2) 0.3485(2)
C10 C 0.3862(5) -0.0988(3) 0.2957(2)
N6 N 0.4969(3) 0.0343(2) 0.2242(2)
N7 N 0.4156(3) 0.2161(2) 0.2665(1)
N8 N 0.2608(4) 0.1878(2) 0.3784(1)
N9 N 0.2279(3) -0.0065(3) 0.3907(1)
N10 N 0.3711(3) -0.0047(2) 0.3063(1)
O9 O 0.5962(3) -0.0030(3) 0.2341(1)
O10 O 0.4587(4) 0.0525(2) 0.1782(1)
O11 O 0.4914(4) 0.2168(2) 0.2279(1)
O12 O 0.3623(3) 0.2787(2) 0.2848(2)
O13 O 0.3357(4) 0.2205(2) 0.4102(2)
O14 O 0.1473(3) 0.2053(3) 0.3746(1)
O15 O 0.1877(3) 0.0381(2) 0.4283(1)
O16 O 0.2062(3) -0.0829(2) 0.3858(2)
H4 H 0.45070 -0.12220 0.32340
H5 H 0.42360 -0.10720 0.25690
H6 H 0.30290 -0.12810 0.29920
#END
