
#######################################################################
#
#                 Cambridge Crystallographic Data Centre
#                                CCDC
#
#######################################################################
#
# If this CIF has been generated from an entry in the Cambridge
# Structural Database, then it will include bibliographic, chemical,
# crystal, experimental, refinement or atomic coordinate data resulting
# from the CCDC's data processing and validation procedures.
#
#######################################################################

data_CSD_CIF_FABSUY
_audit_creation_date 2011-02-15
_audit_creation_method CSD-ConQuest-V1
_database_code_CSD FABSUY
_database_code_depnum_ccdc_archive 'CCDC 794534'
_database_code_depnum_ccdc_journal 1267/3111
_chemical_formula_sum 'C22 H28 N2 O4'
_chemical_formula_moiety
;
C22 H28 N2 O4
;
_journal_coden_Cambridge 1267
_journal_volume 225
_journal_year 2010
_journal_page_first 587
_journal_name_full 'Z.Kristallogr.-New Cryst.Struct. '
loop_
_publ_author_name
"W.Frey"
"Hua Yang"
"A.M.Palmer"
"V.Jager"
_chemical_name_systematic
;
(3R,4R,5R,6R)-2-benzyl-3-methyl-4,5-O-isopropylidene-dioxy-6-(N-benzyl-hydroxy
lamino)-tetrahydro-1,2-oxazine
;
_chemical_name_common
;
N,6-Dibenzyl-N-hydroxy-2,2,7-trimethyltetrahydro-4H-[1,3]dioxolo[4,5-d][1,2]ox
azin-4-amine
;
_cell_volume   2101.347
_exptl_crystal_colour 'colorless'
_exptl_crystal_density_diffrn 1.215
_exptl_crystal_description 'prism'
_diffrn_ambient_temperature 293
#These two values have been output from a single CSD field.
_refine_ls_R_factor_gt 0.0416
_refine_ls_wR_factor_gt 0.0416
_symmetry_cell_setting orthorhombic
_symmetry_space_group_name_H-M 'P 21 21 21'
_symmetry_Int_Tables_number 19
loop_
_symmetry_equiv_pos_site_id
_symmetry_equiv_pos_as_xyz
1 x,y,z
2 1/2-x,-y,1/2+z
3 -x,1/2+y,1/2-z
4 1/2+x,1/2-y,-z
_cell_length_a 10.2132(15)
_cell_length_b 13.211(2)
_cell_length_c 15.574(3)
_cell_angle_alpha 90
_cell_angle_beta 90
_cell_angle_gamma 90
_cell_formula_units_Z 4
loop_
_atom_type_symbol
_atom_type_radius_bond
C 0.68
H 0.23
N 0.68
O 0.68
loop_
_atom_site_label
_atom_site_type_symbol
_atom_site_fract_x
_atom_site_fract_y
_atom_site_fract_z
O1 O 0.18785(8) 0.38365(6) 0.14372(5)
N1 N 0.12754(9) 0.37239(7) 0.22920(6)
C1 C 0.19903(11) 0.48878(8) 0.12226(7)
H1 H 0.25150 0.49140 0.06960
N2 N 0.07843(11) 0.54082(7) 0.10271(6)
O2 O 0.00192(11) 0.55421(8) 0.17991(6)
H2 H 0.0021(19) 0.4965(14) 0.2060(12)
C2 C 0.27787(11) 0.54567(8) 0.19004(7)
H3 H 0.25760 0.61810 0.18740
O3 O 0.39237(9) 0.52838(8) 0.31786(6)
C3 C 0.26578(11) 0.50800(8) 0.28204(7)
H4 H 0.19910 0.54740 0.31250
O4 O 0.41361(9) 0.52963(8) 0.17183(6)
C4 C 0.23534(11) 0.39481(8) 0.28989(7)
H5 H 0.31300 0.35540 0.27400
C5 C 0.19672(18) 0.36998(15) 0.38199(9)
H6 H 0.19170 0.29790 0.38890
H7 H 0.11300 0.39950 0.39440
H8 H 0.26110 0.39690 0.42060
C6 C 0.48337(12) 0.54763(10) 0.24967(9)
C7 C 0.59717(16) 0.47438(16) 0.25450(13)
H9 H 0.64170 0.48270 0.30830
H10 H 0.65690 0.48770 0.20830
H11 H 0.56510 0.40630 0.24990
C8 C 0.52701(19) 0.65743(14) 0.25454(14)
H12 H 0.56680 0.67000 0.30940
H13 H 0.45250 0.70090 0.24750
H14 H 0.58930 0.67080 0.20980
C9 C 0.08937(13) 0.26459(9) 0.23094(9)
H15 H 0.05670 0.24750 0.28760
H16 H 0.16560 0.22290 0.21960
C10 C -0.01480(13) 0.24234(8) 0.16490(8)
C11 C 0.01445(17) 0.18772(12) 0.09138(11)
H17 H 0.09860 0.16240 0.08350
C12 C -0.0809(2) 0.17048(14) 0.02930(12)
H18 H -0.06010 0.13420 -0.02000
C13 C -0.20590(19) 0.20683(13) 0.04063(11)
H19 H -0.26940 0.19590 -0.00110
C14 C -0.23642(15) 0.25950(11) 0.11414(11)
H20 H -0.32110 0.28350 0.12230
C15 C -0.14133(14) 0.2771(1) 0.17633(9)
H21 H -0.16300 0.31250 0.22600
C16 C -0.00105(13) 0.48879(9) 0.03790(8)
H22 H -0.03830 0.42780 0.06250
H23 H 0.05400 0.46920 -0.01000
C17 C -0.10998(12) 0.55673(10) 0.00618(8)
C18 C -0.23944(18) 0.53034(17) 0.01442(15)
H24 H -0.26160 0.46930 0.04040
C19 C -0.3380(2) 0.5943(2) -0.01578(19)
H25 H -0.42540 0.57630 -0.00860
C20 C -0.3067(2) 0.68359(18) -0.05609(14)
H26 H -0.37220 0.72500 -0.07810
C21 C -0.1788(2) 0.71071(13) -0.06343(11)
H27 H -0.15720 0.77180 -0.08940
C22 C -0.08008(17) 0.64844(11) -0.03264(10)
H28 H 0.00690 0.66830 -0.03800
#END
