
#######################################################################
#
#                 Cambridge Crystallographic Data Centre
#                                CCDC
#
#######################################################################
#
# If this CIF has been generated from an entry in the Cambridge
# Structural Database, then it will include bibliographic, chemical,
# crystal, experimental, refinement or atomic coordinate data resulting
# from the CCDC's data processing and validation procedures.
#
#######################################################################

data_CSD_CIF_FABTAF
_audit_creation_date 2011-02-15
_audit_creation_method CSD-ConQuest-V1
_database_code_CSD FABTAF
_database_code_depnum_ccdc_archive 'CCDC 794535'
_database_code_depnum_ccdc_journal 1267/3112
_chemical_formula_sum 'C17 H24 N2 O5'
_chemical_formula_moiety
;
C17 H24 N2 O5
;
_journal_coden_Cambridge 1267
_journal_volume 225
_journal_year 2010
_journal_page_first 589
_journal_name_full 'Z.Kristallogr.-New Cryst.Struct. '
loop_
_publ_author_name
"W.Frey"
"Hua Yang"
"V.Jager"
_chemical_name_systematic
;
(3R,4R,5R,6S,1'R)-2-benzyl-3-methyl-4,5-O-isopropylidene-dioxy-6-(1'-nitroethy
l)-tetrahydro-1,2-oxazine
;
_chemical_name_common
;
6-Benzyl-2,2,7-trimethyl-4-(1-nitroethyl)tetrahydro-4H-[1,3]dioxolo[4,5-d][1,2
]oxazine
;
_cell_volume   1774.865
_exptl_crystal_colour 'colorless'
_exptl_crystal_density_diffrn 1.259
_exptl_crystal_description 'block'
_diffrn_ambient_temperature 293
#These two values have been output from a single CSD field.
_refine_ls_R_factor_gt 0.0485
_refine_ls_wR_factor_gt 0.0485
_symmetry_cell_setting orthorhombic
_symmetry_space_group_name_H-M 'P 21 21 21'
_symmetry_Int_Tables_number 19
loop_
_symmetry_equiv_pos_site_id
_symmetry_equiv_pos_as_xyz
1 x,y,z
2 1/2-x,-y,1/2+z
3 -x,1/2+y,1/2-z
4 1/2+x,1/2-y,-z
_cell_length_a 5.4614(11)
_cell_length_b 17.508(4)
_cell_length_c 18.562(3)
_cell_angle_alpha 90
_cell_angle_beta 90
_cell_angle_gamma 90
_cell_formula_units_Z 4
loop_
_atom_type_symbol
_atom_type_radius_bond
C 0.68
H 0.23
N 0.68
O 0.68
loop_
_atom_site_label
_atom_site_type_symbol
_atom_site_fract_x
_atom_site_fract_y
_atom_site_fract_z
O1 O -0.0980(2) 0.29230(7) 0.75701(6)
N1 N 0.0723(3) 0.24683(8) 0.80180(7)
C1 C 0.0325(3) 0.32425(9) 0.69799(9)
H1 H -0.08630 0.35190 0.66820
O2 O 0.2313(3) 0.13419(7) 0.64217(7)
C2 C 0.1449(3) 0.26258(9) 0.65108(8)
H2 H 0.27030 0.28470 0.61960
N2 N 0.3083(4) 0.42767(9) 0.6585(1)
O3 O -0.0404(3) 0.22668(7) 0.60895(6)
C3 C 0.2502(3) 0.19542(9) 0.69249(9)
H3 H 0.42250 0.20500 0.70420
C4 C 0.1079(4) 0.17539(9) 0.76061(9)
H4 H -0.05200 0.15430 0.74730
O4 O 0.1570(4) 0.45386(15) 0.61880(12)
C5 C 0.2495(5) 0.11640(12) 0.80415(12)
H5 H 0.38780 0.14040 0.82660
H6 H 0.30520 0.07640 0.77280
H7 H 0.14470 0.09520 0.84050
O5 O 0.5261(4) 0.43628(12) 0.64921(13)
C6 C 0.0569(4) 0.15449(10) 0.58726(10)
C7 C 0.1936(6) 0.16085(14) 0.51621(11)
H8 H 0.25710 0.11170 0.50300
H9 H 0.32630 0.19640 0.52130
H10 H 0.08360 0.17850 0.47940
C8 C -0.1493(4) 0.09768(14) 0.58524(15)
H11 H -0.08730 0.04870 0.57080
H12 H -0.27100 0.11440 0.55140
H13 H -0.22140 0.09360 0.63230
C9 C 0.2240(4) 0.3822(1) 0.72311(9)
H14 H 0.36440 0.35460 0.74320
C10 C 0.1302(6) 0.43812(13) 0.77875(12)
H15 H 0.24600 0.47890 0.78440
H16 H 0.10890 0.41230 0.82400
H17 H -0.02400 0.45860 0.76320
C11 C -0.0741(5) 0.23301(12) 0.86734(10)
H18 H 0.01010 0.19580 0.89710
H19 H -0.23040 0.21110 0.85350
C12 C -0.1203(4) 0.30387(12) 0.91151(9)
C13 C -0.3283(4) 0.34671(16) 0.90333(12)
H20 H -0.44430 0.33290 0.86910
C14 C -0.3667(5) 0.41084(17) 0.94606(15)
H21 H -0.50690 0.44020 0.93940
C15 C -0.1997(5) 0.43134(14) 0.99799(12)
H22 H -0.22740 0.47390 1.02690
C16 C 0.0075(5) 0.38857(14) 1.00669(11)
H23 H 0.12250 0.40230 1.04130
C17 C 0.0466(4) 0.32494(12) 0.96414(10)
H24 H 0.18700 0.29580 0.97090
#END
