
#######################################################################
#
#                 Cambridge Crystallographic Data Centre
#                                CCDC
#
#######################################################################
#
# If this CIF has been generated from an entry in the Cambridge
# Structural Database, then it will include bibliographic, chemical,
# crystal, experimental, refinement or atomic coordinate data resulting
# from the CCDC's data processing and validation procedures.
#
#######################################################################

data_CSD_CIF_FACCAP
_audit_creation_date 2010-10-03
_audit_creation_method CSD-ConQuest-V1
_database_code_CSD FACCAP
_database_code_depnum_ccdc_archive 'CCDC 757132'
_chemical_formula_sum 'C9 H9 N3 O4'
_chemical_formula_moiety
;
C9 H9 N3 O4
;
_journal_coden_Cambridge 119
_journal_volume 969
_journal_year 2010
_journal_page_first 25
_journal_name_full 'J.Mol.Struct. '
loop_
_publ_author_name
"M.Cetina"
"M.Tranfic"
"I.Sviben"
"M.Jukic"
_chemical_name_systematic
;
3-Cyano-6-methyl-4-methoxymethyl-5-nitro-2-pyridone
;
_chemical_melting_point 381
_cell_volume   1047.675
_exptl_crystal_colour 'colorless'
_exptl_crystal_density_diffrn 1.415
_exptl_special_details
;
Melting point range 381-382K

;
_exptl_crystal_description 'prism'
_exptl_crystal_preparation 'methanol'
_diffrn_ambient_temperature 295
_refine_special_details
;
The methoxy and nitro moieties are disordered.

;
#These two values have been output from a single CSD field.
_refine_ls_R_factor_gt 0.0466
_refine_ls_wR_factor_gt 0.0466
_symmetry_cell_setting monoclinic
_symmetry_space_group_name_H-M 'P 21/c'
_symmetry_Int_Tables_number 14
loop_
_symmetry_equiv_pos_site_id
_symmetry_equiv_pos_as_xyz
1 x,y,z
2 -x,1/2+y,1/2-z
3 -x,-y,-z
4 x,-1/2-y,-1/2+z
_cell_length_a 13.1791(5)
_cell_length_b 7.0434(2)
_cell_length_c 12.5685(5)
_cell_angle_alpha 90
_cell_angle_beta 116.104(5)
_cell_angle_gamma 90
_cell_formula_units_Z 4
loop_
_atom_type_symbol
_atom_type_radius_bond
C 0.68
H 0.23
N 0.68
O 0.68
loop_
_atom_site_label
_atom_site_type_symbol
_atom_site_fract_x
_atom_site_fract_y
_atom_site_fract_z
N1 N 0.12194(11) 0.15971(19) 0.07574(12)
H1 H 0.1027(16) 0.047(3) 0.0372(17)
N2 N -0.09859(14) 0.6113(2) 0.15905(15)
N3 N 0.37424(16) 0.4449(3) 0.2369(2)
O1 O -0.06218(9) 0.18586(15) 0.04008(11)
O2 O 0.2896(2) 0.7724(3) 0.2696(2)
O3 O 0.4217(3) 0.4295(6) 0.3557(3)
O4 O 0.4238(3) 0.4803(8) 0.1885(3)
C1 C 0.03484(13) 0.2529(2) 0.08489(13)
C2 C 0.06549(12) 0.4290(2) 0.14861(13)
C3 C 0.17456(13) 0.4951(2) 0.19942(13)
C4 C 0.25606(13) 0.3853(2) 0.18372(14)
C5 C 0.22968(12) 0.2201(2) 0.12038(15)
C6 C -0.02501(14) 0.5316(2) 0.15605(14)
C7 C 0.20343(16) 0.6765(2) 0.26946(19)
H2 H 0.13740 0.75810 0.23820
H3 H 0.21990 0.64680 0.35080
C8 C 0.3594(7) 0.829(1) 0.4150(6)
H4 H 0.42550 0.90170 0.42820
H5 H 0.38140 0.71480 0.46130
H6 H 0.31090 0.90260 0.43790
C9 C 0.30880(15) 0.1022(3) 0.09216(19)
H7 H 0.28340 -0.02730 0.08030
H8 H 0.38320 0.10870 0.15670
H9 H 0.31060 0.14930 0.02140
O5? O 0.3072(3) 0.6541(5) 0.3595(3)
O6? O 0.3832(4) 0.6032(8) 0.1776(5)
O7? O 0.4478(4) 0.3555(6) 0.2877(7)
C10? C 0.3527(8) 0.8892(12) 0.3681(6)
H10? H 0.42810 0.90060 0.43040
H11? H 0.30300 0.97090 0.38460
H12? H 0.35200 0.92530 0.29410
#END
