
#######################################################################
#
#                 Cambridge Crystallographic Data Centre
#                                CCDC
#
#######################################################################
#
# If this CIF has been generated from an entry in the Cambridge
# Structural Database, then it will include bibliographic, chemical,
# crystal, experimental, refinement or atomic coordinate data resulting
# from the CCDC's data processing and validation procedures.
#
#######################################################################

data_CSD_CIF_FACQAE
_audit_creation_date 2016-01-08
_audit_creation_method CSD-ConQuest-V1
_database_code_CSD FACQAE
_database_code_depnum_ccdc_archive 'CCDC 926410'
_chemical_formula_sum 'C5 H5 N9 O4'
_chemical_formula_moiety
;
C5 H5 N9 O4
;
_journal_coden_Cambridge 1290
_journal_year 2014
_journal_page_first 1231
_journal_name_full 'Eur.J.Inorg.Chem. '
loop_
_publ_author_name
"Yongxing Tang"
"Hongwei Yang"
"Jianhua Shen"
"Bo Wu"
"Xuehai Ju"
"Chunxu Lu"
"Guangbin Cheng"
_chemical_name_systematic
;
1-(((4-methyl-5-oxido-1,2,5-oxadiazol-3-yl)methylene)amino)-N-nitro-1,4-dihydr
o-5H-tetrazol-5-imine
;
_cell_volume    990.062
_exptl_crystal_colour 'colorless'
_exptl_crystal_density_diffrn 1.712
_exptl_crystal_description 'prism'
_diffrn_ambient_temperature 293
#These two values have been output from a single CSD field.
_refine_ls_R_factor_gt 0.0492
_refine_ls_wR_factor_gt 0.0492
_symmetry_cell_setting monoclinic
_symmetry_space_group_name_H-M 'P 21/c'
_symmetry_Int_Tables_number 14
loop_
_symmetry_equiv_pos_site_id
_symmetry_equiv_pos_as_xyz
1 x,y,z
2 -x,1/2+y,1/2-z
3 -x,-y,-z
4 x,-1/2-y,-1/2+z
_cell_length_a 6.268(4)
_cell_length_b 16.508(9)
_cell_length_c 9.862(5)
_cell_angle_alpha 90
_cell_angle_beta 104.016(6)
_cell_angle_gamma 90
_cell_formula_units_Z 4
loop_
_atom_type_symbol
_atom_type_radius_bond
C 0.68
H 0.23
N 0.68
O 0.68
loop_
_atom_site_label
_atom_site_type_symbol
_atom_site_fract_x
_atom_site_fract_y
_atom_site_fract_z
C1 C 0.7257(3) 0.58002(10) 0.04109(17)
H1 H 0.81600 0.58450 -0.02080
C2 C 0.3106(3) 0.70787(9) -0.14852(16)
C3 C 0.6993(3) 0.52206(10) 0.28217(17)
C4 C 0.7924(3) 0.52995(10) 0.16578(16)
C5 C 0.5160(3) 0.56295(13) 0.3236(2)
H2 H 0.44280 0.52510 0.37100
H3 H 0.41360 0.58310 0.24190
H4 H 0.57200 0.60720 0.38500
N1 N 0.5433(2) 0.61752(8) 0.01750(14)
N2 N 0.4900(2) 0.65925(8) -0.10776(13)
N3 N 0.6018(2) 0.65332(10) -0.21143(15)
N4 N 0.4992(3) 0.69683(11) -0.31363(15)
N5 N 0.3237(3) 0.73057(9) -0.27781(14)
H5 H 0.23170 0.76260 -0.33090
N6 N 0.1748(2) 0.72004(8) -0.06689(14)
N7 N 0.0037(2) 0.77210(9) -0.12110(16)
N8 N 0.8173(2) 0.46608(9) 0.36292(14)
N9 N 0.9606(2) 0.4816(1) 0.17326(15)
O1 O -0.1247(2) 0.78157(10) -0.04674(17)
O2 O -0.0153(3) 0.8053(1) -0.23474(15)
O3 O 0.9872(2) 0.43865(8) 0.29509(13)
O4 O 0.8145(2) 0.43459(8) 0.47590(14)
#END
