
#######################################################################
#
#                 Cambridge Crystallographic Data Centre
#                                CCDC
#
#######################################################################
#
# If this CIF has been generated from an entry in the Cambridge
# Structural Database, then it will include bibliographic, chemical,
# crystal, experimental, refinement or atomic coordinate data resulting
# from the CCDC's data processing and validation procedures.
#
#######################################################################

data_CSD_CIF_FACREG
_audit_creation_date 1987-06-30
_audit_creation_method CSD-ConQuest-V1
_database_code_CSD FACREG
_chemical_formula_sum 'C5 H9 N1 O6'
_chemical_formula_moiety
;
C5 H9 N1 O6
;
_journal_coden_Cambridge 10
_journal_volume 69
_journal_year 1986
_journal_page_first 1172
_journal_name_full 'Helv.Chim.Acta '
loop_
_publ_author_name
"D.Beer"
"J.H.Bieri"
"I.Macher"
"R.Prewo"
"A.Vasella"
_chemical_name_systematic
;
1-Deoxy-1-nitro-\b-D-ribofuranose
;
_chemical_melting_point 385.15
_cell_volume    673.779
_exptl_crystal_density_diffrn 1.77
_exptl_special_details
;
Melting point range 385.15-389.15K

;
_diffrn_ambient_temperature 130
#These two values have been output from a single CSD field.
_refine_ls_R_factor_gt 0.029
_refine_ls_wR_factor_gt 0.029
_symmetry_cell_setting orthorhombic
_symmetry_space_group_name_H-M 'P 21 21 21'
_symmetry_Int_Tables_number 19
loop_
_symmetry_equiv_pos_site_id
_symmetry_equiv_pos_as_xyz
1 x,y,z
2 1/2+x,1/2-y,-z
3 -x,1/2+y,1/2-z
4 1/2-x,-y,1/2+z
_cell_length_a 5.106(1)
_cell_length_b 7.702(1)
_cell_length_c 17.133(2)
_cell_angle_alpha 90
_cell_angle_beta 90
_cell_angle_gamma 90
_cell_formula_units_Z 4
loop_
_atom_type_symbol
_atom_type_radius_bond
C 0.68
H 0.23
N 0.68
O 0.68
loop_
_atom_site_label
_atom_site_type_symbol
_atom_site_fract_x
_atom_site_fract_y
_atom_site_fract_z
C1 C 0.5838(2) 0.6187(1) 0.3921(4)
N1 N 0.4110(2) 0.7739(1) 0.4158(1)
O1 O 0.2085(2) 0.8014(1) 0.3798(1)
O2 O 0.4856(2) 0.8590(1) 0.4721(1)
C2 C 0.4883(2) 0.4570(1) 0.4368(1)
O3 O 0.6965(1) 0.3385(1) 0.4475(1)
C3 C 0.2896(2) 0.3805(1) 0.3780(1)
O4 O 0.2528(1) 0.1985(1) 0.3848(1)
C4 C 0.3927(2) 0.4387(1) 0.2978(1)
O5 O 0.5598(1) 0.5882(1) 0.3130(1)
C5 C 0.1717(2) 0.4886(1) 0.2436(1)
H1 H 0.7460(25) 0.6596(18) 0.4066(7)
H2 H 0.4045(32) 0.4895(18) 0.4868(8)
H3 H 0.7401(35) 0.3466(25) 0.4947(12)
H4 H 0.1249(29) 0.4327(17) 0.3885(18)
H5 H 0.4023(49) 0.1465(29) 0.3726(13)
H6 H 0.5035(35) 0.3516(20) 0.2727(8)
H7 H 0.0774(30) 0.5804(18) 0.2667(8)
H8 H 0.0596(30) 0.3878(19) 0.2372(8)
H9 H 0.1531(35) 0.5906(20) 0.1452(9)
O6 O 0.2739(2) 0.5400(1) 0.1694(1)
#END
