
#######################################################################
#
#                 Cambridge Crystallographic Data Centre
#                                CCDC
#
#######################################################################
#
# If this CIF has been generated from an entry in the Cambridge
# Structural Database, then it will include bibliographic, chemical,
# crystal, experimental, refinement or atomic coordinate data resulting
# from the CCDC's data processing and validation procedures.
#
#######################################################################

data_CSD_CIF_FACYUG
_audit_creation_date 2016-01-08
_audit_creation_method CSD-ConQuest-V1
_database_code_CSD FACYUG
_database_code_depnum_ccdc_archive 'CCDC 1446234'
_chemical_formula_sum 'C26 H24 N4 O4'
_chemical_formula_moiety
;
C26 H24 N4 O4
;
_journal_coden_Cambridge 4
_journal_volume 137
_journal_year 2015
_journal_page_first 15518
_journal_name_full 'J.Am.Chem.Soc. '
loop_
_publ_author_name
"Fanyang Mo"
"Hee Nam Lim"
"Guangbin Dong"
_chemical_name_systematic
;
1-(2,4-dinitrophenyl)-2-(2-(1-(2-methylphenyl)-2-phenylethylidene)cyclopentyli
dene)hydrazine
;
_cell_volume   2272.049
_exptl_crystal_colour 'orange'
_exptl_crystal_density_diffrn 1.335
_exptl_crystal_description 'prisms'
_diffrn_ambient_temperature 153
_refine_special_details
;
C20,C21,C22,C23,C24,C25,C26 and C20A,C21A,C22A,C23A,C24A,C25A,C26A disordered 
over two sites with occupancies 0.56:0.44.
;
#These two values have been output from a single CSD field.
_refine_ls_R_factor_gt 0.0646
_refine_ls_wR_factor_gt 0.0646
_symmetry_cell_setting monoclinic
_symmetry_space_group_name_H-M 'P 21/c'
_symmetry_Int_Tables_number 14
loop_
_symmetry_equiv_pos_site_id
_symmetry_equiv_pos_as_xyz
1 x,y,z
2 -x,1/2+y,1/2-z
3 -x,-y,-z
4 x,-1/2-y,-1/2+z
_cell_length_a 20.415(4)
_cell_length_b 7.2172(12)
_cell_length_c 16.172(3)
_cell_angle_alpha 90
_cell_angle_beta 107.535(5)
_cell_angle_gamma 90
_cell_formula_units_Z 4
loop_
_atom_type_symbol
_atom_type_radius_bond
C 0.68
H 0.23
N 0.68
O 0.68
loop_
_atom_site_label
_atom_site_type_symbol
_atom_site_fract_x
_atom_site_fract_y
_atom_site_fract_z
O1 O 0.44555(9) 0.1082(3) 0.70941(10)
O2 O 0.55074(9) 0.1873(3) 0.73551(11)
O3 O 0.68935(9) 0.3779(3) 1.00933(12)
O4 O 0.64551(9) 0.4213(2) 1.11366(10)
N1 N 0.39048(9) 0.0839(3) 0.83533(11)
N2 N 0.33589(9) 0.0627(2) 0.86838(10)
N3 N 0.50053(10) 0.1585(3) 0.76016(11)
N4 N 0.6414(1) 0.3703(3) 1.04006(12)
C1 C 0.45003(10) 0.1595(3) 0.88325(12)
C2 C 0.50607(10) 0.1895(3) 0.85018(12)
C3 C 0.56881(11) 0.2556(3) 0.90194(13)
H1 H 0.60620 0.27110 0.87900
C4 C 0.57599(10) 0.2981(3) 0.98671(12)
C5 C 0.52139(11) 0.2788(3) 1.02133(12)
H2 H 0.52700 0.31320 1.07970
C6 C 0.45995(11) 0.2102(3) 0.97093(13)
H3 H 0.42320 0.19620 0.99510
C7 C 0.28399(10) -0.0183(3) 0.81614(12)
C8 C 0.28035(11) -0.1067(3) 0.72942(13)
H4 H 0.31350 -0.21010 0.73730
H5 H 0.29030 -0.01440 0.68950
C9 C 0.20649(11) -0.1774(3) 0.69437(14)
H6 H 0.17670 -0.08450 0.65580
H7 H 0.20460 -0.29450 0.66180
C10 C 0.18447(12) -0.2084(4) 0.77525(15)
H8 H 0.13390 -0.20240 0.76150
H9 H 0.20070 -0.33000 0.80200
C11 C 0.21852(10) -0.0515(3) 0.83417(13)
C12 C 0.18919(11) 0.0532(4) 0.88203(14)
C13 C 0.22141(13) 0.2204(3) 0.93414(14)
H10 H 0.19070 0.32860 0.91520
H11 H 0.26550 0.24830 0.92310
C14 C 0.23428(11) 0.1897(3) 1.03059(13)
C15 C 0.29734(12) 0.1224(3) 1.08172(15)
H12 H 0.33270 0.09640 1.05640
C16 C 0.30862(14) 0.0933(3) 1.16974(16)
H13 H 0.35190 0.04790 1.20440
C17 C 0.25786(14) 0.1293(3) 1.20735(15)
H14 H 0.26610 0.10990 1.26770
C18 C 0.19521(14) 0.1937(3) 1.15698(15)
H15 H 0.15980 0.21740 1.18250
C19 C 0.18340(12) 0.2241(3) 1.06942(14)
H16 H 0.13990 0.26910 1.03530
C20 C 0.11654(19) 0.0556(5) 0.8738(2)
C21 C 0.0897(2) -0.0926(6) 0.9089(3)
C22 C 0.0195(2) -0.0888(10) 0.9022(5)
H17 H 0.00010 -0.18780 0.92560
C23 C -0.0215(2) 0.0564(8) 0.8620(3)
H18 H -0.06890 0.05540 0.85800
C24 C 0.0045(2) 0.2022(7) 0.8277(3)
H19 H -0.02430 0.30150 0.79990
C25 C 0.0735(3) 0.2016(10) 0.8347(5)
H20 H 0.09230 0.30340 0.81220
C26 C 0.1334(4) -0.2501(14) 0.9521(10)
H21 H 0.13570 -0.34230 0.90850
H22 H 0.11360 -0.30710 0.99420
H23 H 0.17980 -0.20520 0.98210
H24 H 0.3882(12) 0.055(3) 0.7816(16)
C27? C 0.1223(2) -0.0532(7) 0.8997(3)
C28? C 0.0586(2) 0.0323(7) 0.8665(3)
C29? C 0.0019(3) -0.0495(12) 0.8840(6)
H25? H -0.04190 0.00740 0.86290
C30? C 0.0087(3) -0.2109(9) 0.9313(4)
H26? H -0.03050 -0.26320 0.94230
C31? C 0.0708(3) -0.2970(8) 0.9626(4)
H27? H 0.07500 -0.41050 0.99350
C32? C 0.1275(5) -0.2144(17) 0.9480(12)
H28? H 0.17130 -0.26980 0.97180
C33? C 0.0495(4) 0.2016(14) 0.8124(7)
H29? H 0.08650 0.20930 0.78550
H30? H 0.05100 0.31090 0.84890
H31? H 0.00510 0.19650 0.76710
#END
