
#######################################################################
#
#                 Cambridge Crystallographic Data Centre
#                                CCDC
#
#######################################################################
#
# If this CIF has been generated from an entry in the Cambridge
# Structural Database, then it will include bibliographic, chemical,
# crystal, experimental, refinement or atomic coordinate data resulting
# from the CCDC's data processing and validation procedures.
#
#######################################################################

data_CSD_CIF_FACZAN
_audit_creation_date 2016-01-08
_audit_creation_method CSD-ConQuest-V1
_database_code_CSD FACZAN
_database_code_depnum_ccdc_archive 'CCDC 1446235'
_chemical_formula_sum 'C27 H26 N4 O4'
_chemical_formula_moiety
;
C27 H26 N4 O4
;
_journal_coden_Cambridge 4
_journal_volume 137
_journal_year 2015
_journal_page_first 15518
_journal_name_full 'J.Am.Chem.Soc. '
loop_
_publ_author_name
"Fanyang Mo"
"Hee Nam Lim"
"Guangbin Dong"
_chemical_name_systematic
;
1-(2-(1,2-bis(4-methylphenyl)ethylidene)cyclopentylidene)-2-(2,4-dinitrophenyl
)hydrazine
;
_cell_volume   2304.869
_exptl_crystal_colour 'orange'
_exptl_crystal_density_diffrn 1.356
_exptl_crystal_description 'prisms'
_diffrn_ambient_temperature 153
#These two values have been output from a single CSD field.
_refine_ls_R_factor_gt 0.0676
_refine_ls_wR_factor_gt 0.0676
_symmetry_cell_setting monoclinic
_symmetry_space_group_name_H-M 'P 21/n'
_symmetry_Int_Tables_number 14
loop_
_symmetry_equiv_pos_site_id
_symmetry_equiv_pos_as_xyz
1 x,y,z
2 1/2-x,1/2+y,1/2-z
3 -x,-y,-z
4 -1/2+x,-1/2-y,-1/2+z
_cell_length_a 9.049(3)
_cell_length_b 18.785(5)
_cell_length_c 13.924(4)
_cell_angle_alpha 90
_cell_angle_beta 103.144(6)
_cell_angle_gamma 90
_cell_formula_units_Z 4
loop_
_atom_type_symbol
_atom_type_radius_bond
C 0.68
H 0.23
N 0.68
O 0.68
loop_
_atom_site_label
_atom_site_type_symbol
_atom_site_fract_x
_atom_site_fract_y
_atom_site_fract_z
C1 C 0.7397(3) 0.31967(13) 0.58459(17)
C2 C 0.8758(3) 0.32349(13) 0.53907(19)
H1 H 0.93700 0.36660 0.56120
H2 H 0.84450 0.32360 0.46620
C3 C 0.9639(3) 0.25623(13) 0.5766(2)
H3 H 1.02960 0.26370 0.64310
H4 H 1.02740 0.24070 0.53120
C4 C 0.8386(3) 0.20178(13) 0.5796(2)
H5 H 0.80230 0.17920 0.51430
H6 H 0.87620 0.16420 0.62900
C5 C 0.7122(3) 0.24461(12) 0.60816(17)
C6 C 0.5989(3) 0.21869(12) 0.64763(17)
C7 C 0.4812(3) 0.26749(13) 0.67483(18)
H7 H 0.38970 0.23900 0.67610
H8 H 0.45190 0.30370 0.62230
C8 C 0.5309(3) 0.30581(12) 0.77336(17)
C9 C 0.6773(3) 0.30278(12) 0.83120(18)
H9 H 0.75140 0.27470 0.81020
C10 C 0.7174(3) 0.34026(13) 0.91964(19)
H10 H 0.81770 0.33640 0.95890
C11 C 0.6127(3) 0.38331(13) 0.95124(18)
C12 C 0.4671(3) 0.38645(13) 0.89335(19)
H11 H 0.39390 0.41570 0.91350
C13 C 0.4250(3) 0.34779(13) 0.80611(19)
H12 H 0.32330 0.35000 0.76860
C14 C 0.6560(4) 0.42327(16) 1.0476(2)
H13 H 0.72330 0.46290 1.04080
H14 H 0.70850 0.39100 1.09960
H15 H 0.56430 0.44180 1.06500
C15 C 0.5801(3) 0.14186(12) 0.66834(17)
C16 C 0.6107(3) 0.08671(13) 0.6080(2)
H16 H 0.65120 0.09810 0.55260
C17 C 0.5836(3) 0.01614(13) 0.6267(2)
H17 H 0.60760 -0.01980 0.58480
C18 C 0.5217(3) -0.00316(13) 0.70585(19)
C19 C 0.4906(3) 0.05073(13) 0.76679(19)
H18 H 0.44900 0.03910 0.82160
C20 C 0.5198(3) 0.12160(13) 0.74846(18)
H19 H 0.49830 0.15730 0.79160
C21 C 0.4862(3) -0.08010(14) 0.7223(2)
H20 H 0.42100 -0.09950 0.66200
H21 H 0.43370 -0.08330 0.77640
H22 H 0.58080 -0.10740 0.73910
C22 C 0.6384(3) 0.49810(12) 0.60234(17)
C23 C 0.6674(3) 0.56723(13) 0.56820(18)
C24 C 0.5974(3) 0.62730(12) 0.59486(18)
H23 H 0.61980 0.67300 0.57270
C25 C 0.4960(3) 0.62026(13) 0.65315(18)
C26 C 0.4643(3) 0.55366(13) 0.68976(18)
H24 H 0.39420 0.54990 0.73100
C27 C 0.5355(3) 0.49424(13) 0.66535(18)
H25 H 0.51550 0.44940 0.69120
N1 N 0.6606(2) 0.37268(10) 0.60584(14)
N2 N 0.7029(2) 0.43847(10) 0.57606(15)
N3 N 0.7699(2) 0.57823(11) 0.50344(16)
N4 N 0.4177(2) 0.68321(12) 0.67773(16)
O1 O 0.8366(2) 0.52644(9) 0.47767(14)
O2 O 0.7871(2) 0.63904(10) 0.47528(16)
O3 O 0.4524(2) 0.74155(10) 0.64982(16)
O4 O 0.3187(2) 0.67456(10) 0.72453(15)
H26 H 0.773(3) 0.4424(14) 0.536(2)
#END
