
#######################################################################
#
#                 Cambridge Crystallographic Data Centre
#                                CCDC
#
#######################################################################
#
# If this CIF has been generated from an entry in the Cambridge
# Structural Database, then it will include bibliographic, chemical,
# crystal, experimental, refinement or atomic coordinate data resulting
# from the CCDC's data processing and validation procedures.
#
#######################################################################

data_CSD_CIF_FADHAW
_audit_creation_date 2016-01-08
_audit_creation_method CSD-ConQuest-V1
_database_code_CSD FADHAW
_database_code_depnum_ccdc_archive 'CCDC 1446220'
_chemical_formula_sum 'C31 H26 N4 O4'
_chemical_formula_moiety
;
C31 H26 N4 O4
;
_journal_coden_Cambridge 4
_journal_volume 137
_journal_year 2015
_journal_page_first 15518
_journal_name_full 'J.Am.Chem.Soc. '
loop_
_publ_author_name
"Fanyang Mo"
"Hee Nam Lim"
"Guangbin Dong"
_chemical_name_systematic
;
1-(2,4-Dinitrophenyl)-2-(2-(1,2-diphenylethylidene)-4-phenylcyclopentylidene)h
ydrazine
;
_cell_volume   2534.442
_exptl_crystal_colour 'orange'
_exptl_crystal_density_diffrn 1.359
_exptl_crystal_description 'prisms'
_diffrn_ambient_temperature 100
#These two values have been output from a single CSD field.
_refine_ls_R_factor_gt 0.0576
_refine_ls_wR_factor_gt 0.0576
_symmetry_cell_setting triclinic
_symmetry_space_group_name_H-M 'P -1'
_symmetry_Int_Tables_number 2
loop_
_symmetry_equiv_pos_site_id
_symmetry_equiv_pos_as_xyz
1 x,y,z
2 -x,-y,-z
_cell_length_a 9.612(3)
_cell_length_b 13.722(4)
_cell_length_c 20.660(5)
_cell_angle_alpha 98.779(3)
_cell_angle_beta 100.844(4)
_cell_angle_gamma 104.414(4)
_cell_formula_units_Z 4
loop_
_atom_type_symbol
_atom_type_radius_bond
C 0.68
H 0.23
N 0.68
O 0.68
loop_
_atom_site_label
_atom_site_type_symbol
_atom_site_fract_x
_atom_site_fract_y
_atom_site_fract_z
C1 C 0.89629(18) 0.41601(12) 0.59282(8)
C2 C 0.95177(18) 0.42168(12) 0.66513(8)
C3 C 1.04122(19) 0.34485(12) 0.66999(8)
H1 H 1.02980 0.31190 0.70880
H2 H 1.14740 0.37880 0.67480
C4 C 0.97596(19) 0.26574(13) 0.60329(8)
H3 H 0.88220 0.21870 0.60790
C5 C 0.93229(18) 0.32916(12) 0.55164(8)
H4 H 1.01510 0.35570 0.53100
H5 H 0.84530 0.28730 0.51560
C6 C 1.07200(19) 0.19855(12) 0.58378(8)
C7 C 1.1544(2) 0.16241(14) 0.63280(9)
H6 H 1.15320 0.18250 0.67870
C8 C 1.2379(2) 0.09788(14) 0.61580(9)
H7 H 1.29390 0.07460 0.65000
C9 C 1.2400(2) 0.06729(14) 0.54933(9)
H8 H 1.29710 0.02290 0.53760
C10 C 1.1581(2) 0.10176(14) 0.49984(9)
H9 H 1.15880 0.08070 0.45390
C11 C 1.0753(2) 0.16680(13) 0.51699(8)
H10 H 1.01980 0.19010 0.48260
C12 C 0.91683(18) 0.47503(12) 0.71707(8)
C13 C 0.97552(18) 0.46694(12) 0.78776(8)
C14 C 1.12338(19) 0.51183(12) 0.82088(8)
H11 H 1.19110 0.54600 0.79780
C15 C 1.17223(19) 0.50674(13) 0.88794(8)
H12 H 1.27280 0.53900 0.91050
C16 C 1.07641(19) 0.45541(12) 0.92207(8)
H13 H 1.11080 0.45200 0.96770
C17 C 0.92969(19) 0.40901(14) 0.88889(9)
H14 H 0.86320 0.37250 0.91150
C18 C 0.87976(19) 0.41592(13) 0.82251(9)
H15 H 0.77850 0.38530 0.80050
C19 C 0.80897(18) 0.53873(12) 0.70914(8)
H16 H 0.76630 0.54150 0.74920
H17 H 0.72700 0.50170 0.66950
C20 C 0.86734(18) 0.64838(12) 0.70061(8)
C21 C 1.01149(19) 0.69050(13) 0.69559(9)
H18 H 1.08010 0.65130 0.70000
C22 C 1.0558(2) 0.78964(14) 0.68412(10)
H19 H 1.15470 0.81760 0.68120
C23 C 0.9581(2) 0.84780(14) 0.67696(9)
H20 H 0.98890 0.91500 0.66850
C24 C 0.8142(2) 0.80738(14) 0.68220(9)
H21 H 0.74610 0.84700 0.67740
C25 C 0.7699(2) 0.70892(13) 0.69452(8)
H22 H 0.67180 0.68220 0.69890
C26 C 0.70380(17) 0.52316(12) 0.47552(8)
C27 C 0.65048(18) 0.51225(12) 0.40522(8)
C28 C 0.57038(18) 0.57512(12) 0.37955(8)
H23 H 0.53800 0.56810 0.33230
C29 C 0.53902(18) 0.64726(12) 0.42345(8)
C30 C 0.59102(18) 0.66188(12) 0.49314(8)
H24 H 0.56940 0.71320 0.52280
C31 C 0.67320(19) 0.60206(12) 0.51849(8)
H25 H 0.71050 0.61360 0.56580
N1 N 0.82869(16) 0.47939(10) 0.57118(7)
N2 N 0.78229(16) 0.46313(11) 0.50213(7)
N3 N 0.67537(16) 0.43493(11) 0.35640(7)
N4 N 0.44562(16) 0.70755(10) 0.39647(7)
O1 O 0.73707(15) 0.37202(10) 0.37659(6)
O2 O 0.63396(16) 0.43375(11) 0.29624(6)
O3 O 0.41330(15) 0.70019(9) 0.33505(6)
O4 O 0.40050(14) 0.76097(9) 0.43657(6)
H26 H 0.800(2) 0.4120(18) 0.4709(11)
C32 C 0.66139(18) 0.07161(12) -0.08700(8)
C33 C 0.65042(18) 0.03633(12) -0.15926(8)
C34 C 0.71582(19) -0.05403(13) -0.16514(8)
H27 H 0.77020 -0.05410 -0.20140
H28 H 0.63760 -0.12030 -0.17460
C35 C 0.82101(19) -0.03599(13) -0.09592(8)
H29 H 0.91200 0.01910 -0.09520
C36 C 0.74216(18) 0.01086(12) -0.04650(8)
H30 H 0.67210 -0.04350 -0.03260
H31 H 0.81420 0.05630 -0.00580
C37 C 0.87066(18) -0.12758(12) -0.07945(8)
C38 C 0.87554(18) -0.15434(12) -0.01661(8)
H32 H 0.83990 -0.11730 0.01620
C39 C 0.93174(19) -0.23436(13) -0.00137(9)
H33 H 0.93500 -0.25110 0.04170
C40 C 0.9830(2) -0.28966(13) -0.04865(9)
H34 H 1.02230 -0.34390 -0.03810
C41 C 0.9764(2) -0.26514(14) -0.11169(9)
H35 H 1.00970 -0.30360 -0.14470
C42 C 0.9215(2) -0.18486(13) -0.12685(8)
H36 H 0.91830 -0.16860 -0.17010
C43 C 0.59800(18) 0.07772(12) -0.21054(8)
C44 C 0.58177(18) 0.02583(12) -0.28162(8)
C45 C 0.48626(18) -0.07345(13) -0.30737(8)
H37 H 0.43600 -0.10940 -0.27880
C46 C 0.46463(19) -0.11974(13) -0.37462(9)
H38 H 0.39750 -0.18650 -0.39200
C47 C 0.5399(2) -0.06960(13) -0.41641(8)
H39 H 0.52570 -0.10190 -0.46220
C48 C 0.6365(2) 0.02832(13) -0.39094(9)
H40 H 0.68950 0.06290 -0.41920
C49 C 0.6561(2) 0.07605(13) -0.32427(9)
H41 H 0.72090 0.14370 -0.30760
C50 C 0.55214(19) 0.17591(12) -0.20116(8)
H42 H 0.56600 0.20830 -0.24000
H43 H 0.61990 0.22380 -0.16030
C51 C 0.39423(19) 0.16453(12) -0.19449(8)
C52 C 0.2978(2) 0.07198(13) -0.19224(9)
H44 H 0.32910 0.01140 -0.19640
C53 C 0.1561(2) 0.06658(15) -0.18407(10)
H45 H 0.09150 0.00240 -0.18290
C54 C 0.1082(2) 0.15411(16) -0.17761(9)
H46 H 0.01120 0.15020 -0.17200
C55 C 0.2033(2) 0.24725(14) -0.17942(8)
H47 H 0.17190 0.30780 -0.17450
C56 C 0.3443(2) 0.25246(13) -0.18834(8)
H48 H 0.40790 0.31660 -0.19030
C57 C 0.55489(18) 0.23057(12) 0.03111(8)
C58 C 0.56284(17) 0.25489(12) 0.10114(8)
C59 C 0.50568(18) 0.33108(12) 0.12867(8)
H49 H 0.51110 0.34610 0.17570
C60 C 0.44125(18) 0.38406(12) 0.08639(8)
C61 C 0.42789(18) 0.36098(13) 0.01680(8)
H50 H 0.38070 0.39740 -0.01160
C62 C 0.48309(18) 0.28570(13) -0.01011(8)
H51 H 0.47310 0.27000 -0.05740
N5 N 0.60047(16) 0.13995(10) -0.06506(7)
N6 N 0.61252(16) 0.15819(11) 0.00340(7)
N7 N 0.63447(16) 0.20388(10) 0.14820(7)
N8 N 0.39500(16) 0.47044(11) 0.11562(7)
O5 O 0.68141(16) 0.13235(10) 0.12604(6)
O6 O 0.64478(15) 0.23223(10) 0.20847(6)
O7 O 0.40986(15) 0.49051(10) 0.17710(6)
O8 O 0.34745(15) 0.52199(10) 0.07739(6)
H52 H 0.658(2) 0.1243(16) 0.0306(11)
#END
