
#######################################################################
#
#                 Cambridge Crystallographic Data Centre
#                                CCDC
#
#######################################################################
#
# If this CIF has been generated from an entry in the Cambridge
# Structural Database, then it will include bibliographic, chemical,
# crystal, experimental, refinement or atomic coordinate data resulting
# from the CCDC's data processing and validation procedures.
#
#######################################################################

data_CSD_CIF_FADKIF
_audit_creation_date 2002-06-14
_audit_creation_method CSD-ConQuest-V1
_database_code_CSD FADKIF
_database_code_depnum_ccdc_archive 'CCDC 182845'
_chemical_formula_sum 'C18 H17 N3 O2'
_chemical_formula_moiety
;
C18 H17 N3 O2
;
_journal_coden_Cambridge 122
_journal_year 2001
_journal_page_first 776
_journal_name_full 'Khim.Get.Soedin.,SSSR(Russ.)(Chem.Heterocycl.Compd.) '
loop_
_publ_author_name
"A.T.Soldatenkov"
"T.P.Khristoforova"
"A.V.Temesgen"
"B.N.Anisimov"
"B.B.Averkiev"
"L.N.Kuleshova"
"V.N.Khrustalev"
"M.Yu.Antipin"
"N.N.Lobanov"
_chemical_name_systematic
;
1-Methyl-2-(4-nitrophenylimino)-4-phenyl-1,2,5,6-tetrahydropyridine
;
_chemical_melting_point 391.15
_cell_volume   3174.814
_exptl_crystal_colour 'yellow'
_exptl_crystal_density_diffrn 1.286
_exptl_special_details
;
Melting point range 391.15-393.15K

;
_exptl_crystal_description 'prism'
_exptl_crystal_preparation 'ether'
_diffrn_ambient_temperature 293
#These two values have been output from a single CSD field.
_refine_ls_R_factor_gt 0.0462
_refine_ls_wR_factor_gt 0.0462
_symmetry_cell_setting monoclinic
_symmetry_space_group_name_H-M 'P 21/c'
_symmetry_Int_Tables_number 14
loop_
_symmetry_equiv_pos_site_id
_symmetry_equiv_pos_as_xyz
1 x,y,z
2 x,1/2-y,1/2+z
3 -x,-y,-z
4 -x,-1/2+y,-1/2-z
_cell_length_a 16.498(4)
_cell_length_b 7.930(2)
_cell_length_c 24.270(5)
_cell_angle_alpha 90
_cell_angle_beta 90.92(2)
_cell_angle_gamma 90
_cell_formula_units_Z 8
loop_
_atom_type_symbol
_atom_type_radius_bond
C 0.68
H 0.23
N 0.68
O 0.68
loop_
_atom_site_label
_atom_site_type_symbol
_atom_site_fract_x
_atom_site_fract_y
_atom_site_fract_z
N1 N 0.27406(9) 0.9589(2) 0.05557(6)
N2 N 0.25499(9) 1.0230(2) -0.03556(6)
N3 N 0.34878(12) 1.2758(2) -0.24023(7)
O1 O 0.41880(11) 1.2558(3) -0.25516(6)
O2 O 0.29823(11) 1.3511(2) -0.26794(6)
C1 C 0.49174(11) 1.2559(2) 0.06230(7)
C2 C 0.53642(12) 1.2822(3) 0.01464(9)
C3 C 0.60916(14) 1.3690(3) 0.01668(12)
C4 C 0.6386(2) 1.4320(3) 0.06604(12)
C5 C 0.59573(15) 1.4077(3) 0.11296(12)
C6 C 0.52380(13) 1.3206(3) 0.11155(9)
C7 C 0.29667(11) 1.0439(2) 0.00991(7)
C8 C 0.36703(11) 1.1544(3) 0.01578(8)
C9 C 0.41569(11) 1.1583(2) 0.06041(7)
C10 C 0.39252(13) 1.0509(4) 0.10874(8)
C11 C 0.30245(13) 1.0195(4) 0.10941(8)
C12 C 0.1998(2) 0.8615(4) 0.05506(12)
C13 C 0.28159(11) 1.0845(2) -0.08577(7)
C14 C 0.22779(12) 1.1766(3) -0.11809(8)
C15 C 0.24920(12) 1.2393(3) -0.16846(8)
C16 C 0.32531(11) 1.2056(2) -0.18759(7)
C17 C 0.37947(13) 1.1087(3) -0.15779(8)
C18 C 0.35728(13) 1.0487(3) -0.10738(8)
N4 N -0.00260(9) 0.6028(2) 0.27011(5)
N5 N -0.05177(9) 0.5668(2) 0.18243(5)
N6 N -0.08295(12) 0.7046(3) -0.04315(7)
O3 O -0.04568(11) 0.8222(3) -0.06302(6)
O4 O -0.13168(12) 0.6202(3) -0.06963(6)
C19 C 0.24278(11) 0.6227(2) 0.21333(7)
C20 C 0.26711(13) 0.5340(3) 0.16707(8)
C21 C 0.34620(14) 0.5419(3) 0.14961(10)
C22 C 0.40228(15) 0.6362(3) 0.17823(10)
C23 C 0.37990(14) 0.7245(3) 0.22374(10)
C24 C 0.30039(12) 0.7177(3) 0.24133(9)
C25 C 0.01125(11) 0.5839(2) 0.21546(7)
C26 C 0.09550(11) 0.5788(2) 0.19857(7)
C27 C 0.1579(1) 0.6178(2) 0.23191(6)
C28 C 0.13996(12) 0.6658(3) 0.29062(7)
C29 C 0.06439(13) 0.5783(3) 0.30912(8)
C30 C -0.08467(14) 0.5996(4) 0.29079(10)
C31 C -0.04824(10) 0.5918(2) 0.12579(6)
C32 C -0.09761(12) 0.4894(3) 0.09211(8)
C33 C -0.10791(13) 0.5250(3) 0.03675(8)
C34 C -0.06942(11) 0.6624(3) 0.01471(7)
C35 C -0.01822(11) 0.7633(3) 0.04580(7)
C36 C -0.00790(11) 0.7258(3) 0.10121(7)
H1 H 0.5158(11) 1.2304(23) -0.0228(8)
H2 H 0.6375(14) 1.3707(30) -0.0157(10)
H3 H 0.6903(14) 1.4928(29) 0.0654(9)
H4 H 0.6145(14) 1.4536(29) 0.1479(10)
H5 H 0.4947(12) 1.2972(25) 0.1456(8)
H6 H 0.3781(10) 1.2252(21) -0.0137(7)
H7 H 0.4079(14) 1.1052(29) 0.1398(10)
H8 H 0.4171(13) 0.9376(28) 0.1071(8)
H9 H 0.2726(12) 1.1285(26) 0.1187(8)
H10 H 0.2892(12) 0.9283(26) 0.1339(8)
H11 H 0.1556(22) 0.9390(44) 0.0631(14)
H12 H 0.2033(18) 0.7532(43) 0.0714(13)
H13 H 0.1885(18) 0.8211(38) 0.0199(14)
H14 H 0.1782(12) 1.1931(23) -0.1041(7)
H15 H 0.2137(12) 1.3068(24) -0.1912(8)
H16 H 0.4316(14) 1.0818(27) -0.1740(9)
H17 H 0.3915(14) 0.9859(29) -0.0869(9)
H18 H 0.2307(12) 0.4648(25) 0.1490(8)
H19 H 0.3592(12) 0.4727(26) 0.1200(9)
H20 H 0.4553(14) 0.6418(26) 0.1675(8)
H21 H 0.4143(13) 0.7950(27) 0.2430(8)
H22 H 0.2850(13) 0.7834(27) 0.2741(9)
H23 H 0.1024(11) 0.5401(22) 0.1610(8)
H24 H 0.1888(12) 0.6345(23) 0.3156(8)
H25 H 0.1346(10) 0.7873(24) 0.2931(7)
H26 H 0.0468(12) 0.6258(25) 0.3428(9)
H27 H 0.0747(11) 0.4556(25) 0.3122(7)
H28 H -0.0825(16) 0.6275(33) 0.3267(12)
H29 H -0.1043(17) 0.4823(38) 0.2888(11)
H30 H -0.1201(16) 0.6692(33) 0.2713(10)
H31 H -0.1274(12) 0.3966(26) 0.1086(8)
H32 H -0.1429(12) 0.4532(25) 0.0170(8)
H33 H 0.0063(11) 0.8717(24) 0.0302(7)
H34 H 0.0237(11) 0.8046(22) 0.1217(7)
#END
