
#######################################################################
#
#                 Cambridge Crystallographic Data Centre
#                                CCDC
#
#######################################################################
#
# If this CIF has been generated from an entry in the Cambridge
# Structural Database, then it will include bibliographic, chemical,
# crystal, experimental, refinement or atomic coordinate data resulting
# from the CCDC's data processing and validation procedures.
#
#######################################################################

data_CSD_CIF_FAFCOE
_audit_creation_date 1987-07-17
_audit_creation_method CSD-ConQuest-V1
_database_code_CSD FAFCOE
_chemical_formula_sum 'C19 H22 N2 O6'
_chemical_formula_moiety
;
C19 H22 N2 O6
;
_journal_coden_Cambridge 24
_journal_volume 27
_journal_year 1986
_journal_page_first 3603
_journal_name_full 'Tetrahedron Lett. '
loop_
_publ_author_name
"L.Fitjer"
"M.Majewski"
"A.Kanschik"
"E.Egert"
"G.M.Sheldrick"
_chemical_name_systematic
;
(1SR,5RS,9RS)-9-(3,5-Dinitrobenzoyloxy)-5-methyl-tricyclo(7.2.0.0^1,5^)undecan
e
;
_chemical_melting_point 425.15
_cell_volume   1867.481
_exptl_crystal_density_diffrn 1.331
_diffrn_ambient_temperature ?
_diffrn_special_details
;
The study was carried out at room temperature,in the range 283-303K

;
#These two values have been output from a single CSD field.
_refine_ls_R_factor_gt 0.092
_refine_ls_wR_factor_gt 0.092
_symmetry_cell_setting monoclinic
_symmetry_space_group_name_H-M 'P 21/n'
_symmetry_Int_Tables_number 14
loop_
_symmetry_equiv_pos_site_id
_symmetry_equiv_pos_as_xyz
1 x,y,z
2 1/2-x,1/2+y,1/2-z
3 -x,-y,-z
4 -1/2+x,-1/2-y,-1/2+z
_cell_length_a 8.013(2)
_cell_length_b 7.602(1)
_cell_length_c 30.815(9)
_cell_angle_alpha 90
_cell_angle_beta 95.80(2)
_cell_angle_gamma 90
_cell_formula_units_Z 4
loop_
_atom_type_symbol
_atom_type_radius_bond
C 0.68
H 0.23
N 0.68
O 0.68
loop_
_atom_site_label
_atom_site_type_symbol
_atom_site_fract_x
_atom_site_fract_y
_atom_site_fract_z
C1 C 0.2639(5) 0.6410(6) 0.0769(1)
C2 C 0.1254(6) 0.7218(8) 0.1024(2)
C3 C 0.1402(9) 0.9220(8) 0.0962(2)
C4 C 0.2623(9) 0.9516(7) 0.0650(2)
C5 C 0.2780(7) 0.7735(6) 0.0421(1)
C6 C 0.4539(6) 0.7633(8) 0.0231(2)
C7 C 0.5954(7) 0.7526(8) 0.0576(2)
C8 C 0.5890(6) 0.6011(7) 0.0857(2)
C9 C 0.4272(5) 0.5921(6) 0.1070(1)
C10 C 0.3553(7) 0.4057(6) 0.1092(2)
C11 C 0.2377(7) 0.4430(6) 0.0683(2)
C12 C 0.1465(7) 0.7545(8) 0.0034(2)
O1 O 0.4432(3) 0.6926(3) 0.1476(1)
C13 C 0.5282(5) 0.6201(7) 0.1824(1)
O2 O 0.5950(4) 0.4778(5) 0.1835(1)
C14 C 0.5288(4) 0.7354(5) 0.2216(1)
C15 C 0.4660(5) 0.9044(6) 0.2194(1)
C16 C 0.4713(5) 1.0050(6) 0.2567(1)
C17 C 0.5329(5) 0.9400(6) 0.2967(1)
C18 C 0.5922(5) 0.7695(6) 0.2983(1)
C19 C 0.5943(5) 0.6674(6) 0.2615(2)
N1 N 0.4051(5) 1.1860(5) 0.2535(1)
O3 O 0.3282(5) 1.2312(5) 0.2197(1)
O4 O 0.4309(5) 1.2790(5) 0.2859(1)
N2 N 0.6597(4) 0.6980(5) 0.3409(1)
O5 O 0.6316(4) 0.7741(5) 0.3737(1)
O6 O 0.7414(5) 0.5622(5) 0.3403(1)
H1 H 0.14390 0.69160 0.13270
H2 H 0.01660 0.68120 0.09070
H3 H 0.17750 0.97680 0.12350
H4 H 0.03350 0.97000 0.08510
H5 H 0.22340 1.04070 0.04430
H6 H 0.36840 0.98640 0.07980
H7 H 0.46750 0.86650 0.00590
H8 H 0.45560 0.66070 0.00500
H9 H 0.59510 0.85670 0.07520
H10 H 0.69770 0.74750 0.04390
H11 H 0.59890 0.49660 0.06860
H12 H 0.68110 0.60730 0.10810
H13 H 0.29880 0.38340 0.13470
H14 H 0.43520 0.31380 0.10580
H15 H 0.27810 0.40220 0.04180
H16 H 0.12470 0.40300 0.06960
H17 H 0.03660 0.75990 0.01320
H18 H 0.16070 0.64350 -0.01070
H19 H 0.15910 0.84820 -0.01690
H20 H 0.4240(42) 0.9423(45) 0.1942(11)
H21 H 0.5331(50) 1.0134(55) 0.3201(14)
H22 H 0.6343(43) 0.5627(47) 0.2663(11)
#END
