
#######################################################################
#
#                 Cambridge Crystallographic Data Centre
#                                CCDC
#
#######################################################################
#
# If this CIF has been generated from an entry in the Cambridge
# Structural Database, then it will include bibliographic, chemical,
# crystal, experimental, refinement or atomic coordinate data resulting
# from the CCDC's data processing and validation procedures.
#
#######################################################################

data_CSD_CIF_FAFSEK
_audit_creation_date 1987-07-17
_audit_creation_method CSD-ConQuest-V1
_database_code_CSD FAFSEK
_chemical_formula_sum 'C23 H20 N2 O3'
_chemical_formula_moiety
;
C23 H20 N2 O3
;
_journal_coden_Cambridge 95
_journal_year 1986
_journal_page_first 571
_journal_name_full 'Izv.Akad.Nauk SSSR,Ser.Khim.(Russ.)(Russ.Chem.Bull.) '
loop_
_publ_author_name
"S.M.Aldoshin"
"A.N.Chekhlov"
"L.O.Atovmyan"
_chemical_name_systematic
;
1',3',3'-Trimethyl-4',5'-benzo-6-nitrospiro(indolin-2,2'-(2H-1)benzopyran)
;
_cell_volume   1942.811
_exptl_crystal_colour 'yellow'
_exptl_crystal_density_diffrn 1.28
_exptl_special_details
;
y(H9.1') should be 0.432 not 0.482

;
_diffrn_ambient_temperature ?
_diffrn_special_details
;
The study was carried out at room temperature,in the range 283-303K

;
#These two values have been output from a single CSD field.
_refine_ls_R_factor_gt 0.0459
_refine_ls_wR_factor_gt 0.0459
_symmetry_cell_setting orthorhombic
_symmetry_space_group_name_H-M 'P 21 21 21'
_symmetry_Int_Tables_number 19
loop_
_symmetry_equiv_pos_site_id
_symmetry_equiv_pos_as_xyz
1 x,y,z
2 1/2+x,1/2-y,-z
3 -x,1/2+y,1/2-z
4 1/2-x,-y,1/2+z
_cell_length_a 11.227(4)
_cell_length_b 15.393(4)
_cell_length_c 11.242(7)
_cell_angle_alpha 90
_cell_angle_beta 90
_cell_angle_gamma 90
_cell_formula_units_Z 4
loop_
_atom_type_symbol
_atom_type_radius_bond
C 0.68
H 0.23
N 0.68
O 0.68
loop_
_atom_site_label
_atom_site_type_symbol
_atom_site_fract_x
_atom_site_fract_y
_atom_site_fract_z
O1 O 0.7223(5) 0.3679(2) 0.1347(3)
O2 O 0.7230(6) 0.0244(4) 0.4197(5)
O3 O 0.7282(9) -0.0270(3) 0.2462(6)
N1 N 0.6486(5) 0.4452(4) -0.0289(5)
N2 N 0.7232(6) 0.0334(4) 0.3129(6)
C1 C 0.7475(6) 0.3933(4) 0.0104(5)
C2 C 0.7624(8) 0.3139(4) -0.0669(5)
C3 C 0.7613(7) 0.2346(4) -0.0281(5)
C4 C 0.7390(6) 0.2152(4) 0.0973(5)
C5 C 0.7364(6) 0.1320(4) 0.1440(5)
C6 C 0.7203(6) 0.1210(4) 0.2635(5)
C7 C 0.7015(6) 0.1907(4) 0.3377(5)
C8 C 0.6999(7) 0.2719(4) 0.2923(5)
C9 C 0.7207(6) 0.2858(4) 0.1728(5)
C10 C 0.8533(5) 0.4588(4) 0.0158(6)
C11 C 0.7811(5) 0.5417(4) 0.0478(5)
C12 C 0.8185(6) 0.6233(4) 0.0912(5)
C13 C 0.7303(6) 0.6882(4) 0.1049(5)
C14 C 0.6141(6) 0.6723(4) 0.0740(7)
C15 C 0.5793(6) 0.5938(5) 0.0279(6)
C16 C 0.6681(6) 0.5276(5) 0.0161(6)
C17 C 0.9068(7) 0.4720(6) -0.1097(7)
C18 C 0.9468(8) 0.4285(5) 0.1050(8)
C19 C 0.5305(7) 0.4064(5) -0.0330(9)
C20 C 0.9367(7) 0.6451(5) 0.1212(7)
C21 C 0.9668(7) 0.7265(6) 0.1646(7)
C22 C 0.8784(9) 0.7884(5) 0.1776(6)
C23 C 0.7645(7) 0.7735(4) 0.1491(5)
H1 H 0.781(3) 0.334(2) -0.151(3)
H2 H 0.775(4) 0.181(3) -0.081(4)
H3 H 0.744(5) 0.087(4) 0.107(5)
H4 H 0.681(4) 0.174(3) 0.411(4)
H5 H 0.701(3) 0.316(2) 0.339(3)
H6 H 0.552(4) 0.716(3) 0.081(4)
H7 H 0.486(4) 0.582(4) 0.014(5)
H8 H 0.817(6) 0.497(4) -0.172(6)
H9 H 0.962(6) 0.419(4) -0.136(6)
H10 H 0.966(6) 0.527(4) -0.102(6)
H11 H 1.038(6) 0.432(4) 0.055(7)
H12 H 0.970(6) 0.356(4) 0.063(6)
H13 H 0.925(6) 0.446(4) 0.177(6)
H14 H 0.551(6) 0.346(4) -0.059(7)
H15 H 0.490(5) 0.417(4) 0.052(5)
H16 H 0.481(6) 0.452(4) -0.068(7)
H17 H 0.999(4) 0.602(3) 0.096(5)
H18 H 1.057(6) 0.736(4) 0.177(6)
H19 H 0.887(6) 0.852(4) 0.199(6)
H20 H 0.684(3) 0.809(2) 0.160(4)
#END
