
#######################################################################
#
#                 Cambridge Crystallographic Data Centre
#                                CCDC
#
#######################################################################
#
# If this CIF has been generated from an entry in the Cambridge
# Structural Database, then it will include bibliographic, chemical,
# crystal, experimental, refinement or atomic coordinate data resulting
# from the CCDC's data processing and validation procedures.
#
#######################################################################

data_CSD_CIF_FAGLEG
_audit_creation_date 2011-02-21
_audit_creation_method CSD-ConQuest-V1
_database_code_CSD FAGLEG
_database_code_depnum_ccdc_archive 'CCDC 769459'
_chemical_formula_sum 'C29 H29 N3 O3'
_chemical_formula_moiety
;
C29 H29 N3 O3
;
_journal_coden_Cambridge 1220
_journal_volume 16
_journal_year 2010
_journal_page_first 10171
_journal_name_full 'Chem.-Eur.J. '
loop_
_publ_author_name
"M.Luthy"
"K.J.Schenk"
"P.Renaud"
_chemical_name_systematic
;
(E)-N'-(cyclohexyloxy)-N,N-bis(naphthalen-2-ylmethyl)-1-nitromethanimidamide
;
_cell_volume   2533.972
_exptl_crystal_colour 'colorless'
_exptl_crystal_density_diffrn 1.226
_exptl_crystal_description 'irregular'
_diffrn_ambient_temperature 292
#These two values have been output from a single CSD field.
_refine_ls_R_factor_gt 0.0724
_refine_ls_wR_factor_gt 0.0724
_symmetry_cell_setting triclinic
_symmetry_space_group_name_H-M 'P -1'
_symmetry_Int_Tables_number 2
loop_
_symmetry_equiv_pos_site_id
_symmetry_equiv_pos_as_xyz
1 x,y,z
2 -x,-y,-z
_cell_length_a 10.213(2)
_cell_length_b 13.581(3)
_cell_length_c 18.621(4)
_cell_angle_alpha 87.94(3)
_cell_angle_beta 80.87(3)
_cell_angle_gamma 83.65(3)
_cell_formula_units_Z 4
loop_
_atom_type_symbol
_atom_type_radius_bond
C 0.68
H 0.23
N 0.68
O 0.68
loop_
_atom_site_label
_atom_site_type_symbol
_atom_site_fract_x
_atom_site_fract_y
_atom_site_fract_z
N1 N -0.08436(18) 0.70479(14) 0.07088(10)
C1 C -0.03308(19) 0.61184(15) 0.08274(10)
N2 N 0.08450(17) 0.56743(13) 0.07067(11)
O1 O 0.17601(14) 0.63544(11) 0.04598(10)
C2 C 0.3114(2) 0.58721(17) 0.04050(14)
H1 H 0.31710 0.52230 0.01820
C3 C 0.3505(3) 0.5751(2) 0.11454(17)
H2 H 0.28780 0.53690 0.14530
H3 H 0.43810 0.53830 0.11090
C4 C 0.3530(5) 0.6710(3) 0.1486(2)
H4 H 0.38360 0.65980 0.19530
H5 H 0.26350 0.70490 0.15720
C5 C 0.4421(5) 0.7339(3) 0.1017(4)
H6 H 0.53280 0.70210 0.09640
H7 H 0.44020 0.79690 0.12490
C6 C 0.4018(4) 0.7518(3) 0.0269(3)
H8 H 0.46650 0.78870 -0.00350
H9 H 0.31570 0.79100 0.03130
C7 C 0.3938(3) 0.6538(3) -0.00838(19)
H10 H 0.35590 0.66660 -0.05280
H11 H 0.48320 0.62080 -0.02140
N3 N -0.1326(2) 0.53921(16) 0.11099(11)
O2 O -0.0960(2) 0.46805(17) 0.14635(16)
O3 O -0.24498(18) 0.55710(16) 0.09685(11)
C8 C -0.1874(2) 0.75752(17) 0.12370(13)
H12 H -0.21370 0.71310 0.16410
H13 H -0.26520 0.77790 0.10080
C9 C -0.1395(2) 0.84737(17) 0.15210(12)
C10 C -0.0388(3) 0.8356(2) 0.19659(15)
H14 H -0.00250 0.77230 0.20800
C11 C 0.0054(3) 0.9157(3) 0.22289(16)
H15 H 0.07140 0.90620 0.25230
C12 C -0.0462(3) 1.0121(3) 0.20660(14)
C13 C -0.0006(4) 1.0986(4) 0.2322(2)
H16 H 0.06410 1.09190 0.26250
C14 C -0.0519(6) 1.1909(4) 0.2122(3)
H17 H -0.02260 1.24680 0.22930
C15 C -0.1454(6) 1.2012(3) 0.1674(3)
H18 H -0.17760 1.26470 0.15380
C16 C -0.1933(4) 1.1236(2) 0.14205(17)
H19 H -0.25820 1.13370 0.11200
C17 C -0.1445(3) 1.02593(19) 0.16124(13)
C18 C -0.1895(2) 0.94108(18) 0.13556(12)
H20 H -0.25570 0.94950 0.10620
C19 C -0.0382(2) 0.7590(2) 0.00359(12)
H21 H 0.04000 0.72170 -0.02290
H22 H -0.01270 0.82240 0.01570
C20 C -0.1457(2) 0.77594(17) -0.04445(12)
C21 C -0.2002(2) 0.86841(17) -0.05940(12)
H23 H -0.17540 0.92210 -0.03710
C22 C -0.2951(2) 0.88556(16) -0.10865(11)
C23 C -0.3518(3) 0.9803(2) -0.12482(15)
H24 H -0.33030 1.03480 -0.10200
C24 C -0.4379(3) 0.9936(2) -0.17349(17)
H25 H -0.47440 1.05710 -0.18410
C25 C -0.4724(3) 0.9124(3) -0.20785(16)
H26 H -0.53190 0.92260 -0.24100
C26 C -0.4213(3) 0.8207(2) -0.19365(15)
H27 H -0.44490 0.76770 -0.21720
C27 C -0.3296(2) 0.80289(18) -0.14203(12)
C28 C -0.2743(3) 0.70809(19) -0.12582(15)
H28 H -0.29790 0.65370 -0.14780
C29 C -0.1850(3) 0.69430(19) -0.07761(15)
H29 H -0.15000 0.63050 -0.06660
N4 N 0.69023(16) 0.79745(15) 0.42833(9)
C30 C 0.7044(2) 0.76295(16) 0.36048(11)
N5 N 0.7740(2) 0.68854(15) 0.3291(1)
O4 O 0.82790(19) 0.62636(13) 0.38090(8)
C31 C 0.9063(2) 0.54048(18) 0.34681(13)
H30 H 0.86540 0.52150 0.30590
C32 C 0.9023(4) 0.4583(2) 0.40285(19)
H31 H 0.81150 0.44130 0.41550
H32 H 0.92970 0.48070 0.44650
C33 C 0.9935(5) 0.3667(3) 0.3750(3)
H33 H 0.99630 0.31810 0.41440
H34 H 0.95660 0.33780 0.33670
C34 C 1.1306(4) 0.3892(3) 0.3464(3)
H35 H 1.17290 0.40760 0.38640
H36 H 1.18160 0.33020 0.32480
C35 C 1.1328(4) 0.4693(3) 0.2921(2)
H37 H 1.10280 0.44710 0.24910
H38 H 1.22370 0.48540 0.27810
C36 C 1.0456(3) 0.5610(3) 0.3196(2)
H39 H 1.08240 0.58810 0.35870
H40 H 1.04560 0.61030 0.28060
N6 N 0.63379(19) 0.82673(17) 0.30768(10)
O5 O 0.59228(18) 0.78618(15) 0.26013(9)
O6 O 0.6209(2) 0.91580(15) 0.31698(11)
C37 C 0.5586(2) 0.83125(18) 0.46804(11)
H41 H 0.49300 0.83150 0.43570
H42 H 0.55880 0.89870 0.48340
C38 C 0.5186(2) 0.76698(17) 0.53404(11)
C39 C 0.5519(2) 0.66686(18) 0.53514(12)
H43 H 0.60300 0.63710 0.49420
C40 C 0.5110(2) 0.60709(18) 0.59668(12)
C41 C 0.5440(3) 0.5033(2) 0.59829(15)
H44 H 0.59500 0.47250 0.55780
C42 C 0.5022(3) 0.4477(2) 0.65836(18)
H45 H 0.52520 0.37950 0.65840
C43 C 0.4255(3) 0.4918(3) 0.71941(17)
H46 H 0.39760 0.45320 0.76010
C44 C 0.3913(3) 0.5906(3) 0.71980(15)
H47 H 0.34010 0.61920 0.76110
C45 C 0.4321(2) 0.6520(2) 0.65828(12)
C46 C 0.3987(3) 0.7554(2) 0.65603(13)
H48 H 0.34700 0.78610 0.69630
C47 C 0.4401(2) 0.81111(19) 0.59641(13)
H49 H 0.41660 0.87920 0.59660
C48 C 0.8069(2) 0.80129(18) 0.46506(13)
H50 H 0.88760 0.77920 0.43230
H51 H 0.80040 0.75740 0.50750
C49 C 0.8129(2) 0.9050(2) 0.48772(14)
C50 C 0.7746(3) 0.9350(2) 0.55478(15)
H52 H 0.74740 0.88900 0.59080
C51 C 0.7734(2) 1.0382(2) 0.57487(17)
C52 C 0.7310(3) 1.0715(4) 0.6429(2)
H53 H 0.70220 1.02710 0.67970
C53 C 0.7296(4) 1.1658(4) 0.6581(3)
H54 H 0.70050 1.18520 0.70590
C54 C 0.7685(4) 1.2358(4) 0.6077(4)
H55 H 0.76620 1.30140 0.62100
C55 C 0.8116(3) 1.2084(3) 0.5364(3)
H56 H 0.83750 1.25500 0.50060
C56 C 0.8153(2) 1.1034(3) 0.51863(17)
C57 C 0.8590(3) 1.0715(3) 0.4472(2)
H57 H 0.88900 1.11620 0.41080
C58 C 0.8571(3) 0.9754(2) 0.43147(17)
H58 H 0.88460 0.95430 0.38390
#END
