
#######################################################################
#
#                 Cambridge Crystallographic Data Centre
#                                CCDC
#
#######################################################################
#
# If this CIF has been generated from an entry in the Cambridge
# Structural Database, then it will include bibliographic, chemical,
# crystal, experimental, refinement or atomic coordinate data resulting
# from the CCDC's data processing and validation procedures.
#
#######################################################################

data_CSD_CIF_FAHJON10
_audit_creation_date 1993-05-14
_audit_creation_method CSD-ConQuest-V1
_database_code_CSD FAHJON10
_database_code_depnum_ccdc_archive 'CCDC 1151816'
_chemical_formula_sum 'C19 H14 N6 O4'
_chemical_formula_moiety
;
C19 H14 N6 O4
;
_journal_coden_Cambridge 7
_journal_volume 65
_journal_year 1992
_journal_page_first 1771
_journal_name_full 'Bull.Chem.Soc.Jpn. '
loop_
_publ_author_name
"T.Ibata"
"Y.Isogami"
"H.Nakawa"
"H.Tamura"
"H.Suga"
"Xiaolan Shi"
"H.Fujieda"
_chemical_name_systematic
;
Methyl 
3,3,4,4-tetracyano-3,4-dihydro-5-isopropyl-2-(p-nitrophenyl)-2H-pyrrole-2-carb
oxylate
;
_cell_volume   7747.556
_exptl_crystal_density_diffrn 1.34
_diffrn_ambient_temperature ?
_diffrn_special_details
;
The study was carried out at room temperature,in the range 283-303K

;
#These two values have been output from a single CSD field.
_refine_ls_R_factor_gt 0.07
_refine_ls_wR_factor_gt 0.07
_symmetry_cell_setting orthorhombic
_symmetry_space_group_name_H-M 'P c a b'
_symmetry_Int_Tables_number 61
loop_
_symmetry_equiv_pos_site_id
_symmetry_equiv_pos_as_xyz
1 x,y,z
2 -x,1/2-y,1/2+z
3 1/2+x,-y,1/2-z
4 1/2-x,1/2+y,-z
5 -x,-y,-z
6 x,-1/2+y,-1/2-z
7 -1/2-x,y,-1/2+z
8 -1/2+x,-1/2-y,z
_cell_length_a 17.998(2)
_cell_length_b 27.188(6)
_cell_length_c 15.833(3)
_cell_angle_alpha 90
_cell_angle_beta 90
_cell_angle_gamma 90
_cell_formula_units_Z 16
loop_
_atom_type_symbol
_atom_type_radius_bond
C 0.68
H 0.23
N 0.68
O 0.68
loop_
_atom_site_label
_atom_site_type_symbol
_atom_site_fract_x
_atom_site_fract_y
_atom_site_fract_z
C1 C 0.6909(2) 0.0313(1) 0.1066(3)
C2 C 0.7196(2) -0.0161(1) 0.0606(2)
C3 C 0.7941(2) 0.0038(1) 0.0199(2)
C4 C 0.8091(2) 0.0538(1) 0.0730(2)
C5 C 0.8393(2) 0.0940(1) 0.0164(3)
C6 C 0.7975(2) 0.1349(1) -0.0021(3)
C7 C 0.8234(2) 0.1693(1) -0.0594(3)
C8 C 0.8915(2) 0.1621(1) -0.0956(3)
C9 C 0.9359(2) 0.1224(1) -0.0763(3)
C10 C 0.9091(2) 0.0883(1) -0.0196(3)
C11 C 0.7829(2) 0.0149(1) -0.0701(3)
C12 C 0.8574(2) -0.0306(1) 0.0265(3)
C13 C 0.6636(2) -0.0331(1) 0.0001(3)
C14 C 0.7344(2) -0.0571(1) 0.1199(3)
C15 C 0.8622(2) 0.0429(1) 0.1469(3)
C16 C 0.8774(3) -0.0128(2) 0.2605(3)
C17 C 0.6118(2) 0.0342(2) 0.1376(3)
C18 C 0.5927(3) -0.0098(2) 0.1940(4)
C19 C 0.5986(3) 0.0826(2) 0.1836(4)
N1 N 0.7375(2) 0.0661(1) 0.1088(2)
N2 N 0.7753(2) 0.0243(1) -0.1398(2)
N3 N 0.9091(2) -0.0539(1) 0.0334(3)
N4 N 0.6163(2) -0.0444(1) -0.0436(2)
N5 N 0.7464(2) -0.0897(1) 0.1632(3)
N6 N 0.9180(2) 0.1976(1) -0.157(3)
O1 O 0.9820(2) 0.1980(2) -0.1748(4)
O2 O 0.8751(2) 0.2247(2) -0.1912(3)
O3 O 0.9196(2) 0.0623(1) 0.1596(2)
O4 O 0.8333(2) 0.0073(1) 0.1932(2)
H1 H 0.750(2) 0.139(1) 0.023(2)
H2 H 0.795(2) 0.197(2) -0.077(3)
H3 H 0.983(2) 0.119(1) -0.104(2)
H4 H 0.939(2) 0.061(1) -0.005(3)
H5 H 0.849(3) -0.039(2) 0.293(3)
H6 H 0.925(3) -0.025(2) 0.239(3)
H7 H 0.889(3) 0.012(2) 0.304(3)
H8 H 0.576(2) 0.032(2) 0.086(3)
H9 H 0.543(2) -0.006(2) 0.216(3)
H10 H 0.634(3) -0.014(2) 0.248(3)
H11 H 0.577(3) -0.041(2) 0.151(4)
H12 H 0.549(3) 0.086(2) 0.199(3)
H13 H 0.608(3) 0.108(2) 0.153(3)
H14 H 0.640(4) 0.076(2) 0.239(5)
C20 C 0.6853(2) -0.2263(1) 0.3666(2)
C21 C 0.7100(2) -0.1787(1) 0.3180(2)
C22 C 0.7854(2) -0.1970(1) 0.2761(2)
C23 C 0.8040(2) -0.2459(1) 0.3306(2)
C24 C 0.8339(2) -0.2867(1) 0.2737(3)
C25 C 0.7926(2) -0.3283(1) 0.2580(3)
C26 C 0.8174(2) -0.3629(1) 0.2009(3)
C27 C 0.8843(2) -0.3549(1) 0.1607(3)
C28 C 0.9281(2) -0.3144(1) 0.1776(3)
C29 C 0.9027(2) -0.2806(1) 0.2343(3)
C30 C 0.8464(2) -0.1606(1) 0.2781(3)
C31 C 0.7726(2) -0.2099(1) 0.1870(3)
C32 C 0.7219(2) -0.1365(1) 0.3748(3)
C33 C 0.6523(2) -0.1638(1) 0.2577(3)
C34 C 0.8592(2) -0.2332(1) 0.4015(3)
C35 C 0.8805(3) -0.1750(1) 0.5096(3)
C36 C 0.6080(2) -0.2309(1) 0.4009(3)
C37 C 0.5851(3) -0.1879(2) 0.4558(4)
C38 C 0.6010(3) -0.2794(2) 0.4489(4)
N7 N 0.7345(2) -0.2594(1) 0.3702(2)
N8 N 0.8962(2) -0.1357(1) 0.2797(3)
N9 N 0.7648(2) -0.2191(1) 0.1172(2)
N10 N 0.7294(2) -0.1033(1) 0.4179(3)
N11 N 0.6054(2) -0.1532(1) 0.2130(2)
N12 N 0.9096(2) -0.3901(1) 0.0959(2)
O5 O 0.8670(2) -0.4219(1) 0.0727(3)
O6 O 0.9706(2) -0.3848(1) 0.0659(3)
O7 O 0.9156(2) -0.2546(1) 0.4155(2)
O8 O 0.8337(1) -0.1954(1) 0.4443(2)
H15 H 0.742(2) -0.332(1) 0.286(2)
H16 H 0.789(2) -0.392(1) 0.188(2)
H17 H 0.978(2) -0.311(1) 0.148(2)
H18 H 0.934(2) -0.251(1) 0.251(2)
H19 H 0.852(3) -0.155(2) 0.550(3)
H20 H 0.920(2) -0.160(2) 0.481(3)
H21 H 0.895(3) -0.204(2) 0.542(3)
H22 H 0.577(2) -0.233(1) 0.348(2)
H23 H 0.622(2) -0.187(2) 0.501(3)
H24 H 0.582(3) -0.156(2) 0.417(3)
H25 H 0.533(2) -0.195(2) 0.473(3)
H26 H 0.554(3) -0.283(2) 0.467(3)
H27 H 0.605(3) -0.304(2) 0.400(3)
H28 H 0.637(2) -0.281(2) 0.500(3)
#END
