
#######################################################################
#
#                 Cambridge Crystallographic Data Centre
#                                CCDC
#
#######################################################################
#
# If this CIF has been generated from an entry in the Cambridge
# Structural Database, then it will include bibliographic, chemical,
# crystal, experimental, refinement or atomic coordinate data resulting
# from the CCDC's data processing and validation procedures.
#
#######################################################################

data_CSD_CIF_FAHKOO
_audit_creation_date 1987-07-17
_audit_creation_method CSD-ConQuest-V1
_database_code_CSD FAHKOO
_chemical_formula_sum 'C10 H13 N3 O3'
_chemical_formula_moiety
;
C10 H13 N3 O3
;
_journal_coden_Cambridge 8
_journal_volume 85
_journal_year 1986
_journal_page_first 3537
_journal_name_full 'J.Chem.Phys. '
loop_
_publ_author_name
"R.J.Twieg"
"C.W.Dirk"
_chemical_name_systematic
;
2-(N-Prolinol)-5-nitropyridine
;
_cell_volume    523.088
_exptl_crystal_colour 'yellow'
_exptl_crystal_density_diffrn 1.42
_diffrn_ambient_temperature ?
_diffrn_special_details
;
The study was carried out at room temperature,in the range 283-303K

;
#These two values have been output from a single CSD field.
_refine_ls_R_factor_gt 0.047
_refine_ls_wR_factor_gt 0.047
_symmetry_cell_setting monoclinic
_symmetry_space_group_name_H-M 'P 21'
_symmetry_Int_Tables_number 4
loop_
_symmetry_equiv_pos_site_id
_symmetry_equiv_pos_as_xyz
1 x,y,z
2 -x,1/2+y,-z
_cell_length_a 5.182(1)
_cell_length_b 14.964(4)
_cell_length_c 7.045(1)
_cell_angle_alpha 90
_cell_angle_beta 106.76(1)
_cell_angle_gamma 90
_cell_formula_units_Z 2
loop_
_atom_type_symbol
_atom_type_radius_bond
C 0.68
H 0.23
N 0.68
O 0.68
loop_
_atom_site_label
_atom_site_type_symbol
_atom_site_fract_x
_atom_site_fract_y
_atom_site_fract_z
O1 O -0.5537(6) -0.48880 -0.1928(4)
O2 O 0.1488(6) 0.0169(2) -0.5326(4)
O3 O 0.1855(6) -0.1079(2) -0.6712(4)
N1 N -0.3853(6) -0.2494(2) -0.0809(4)
N2 N -0.1493(6) -0.2469(2) -0.3108(4)
N3 N 0.1098(6) -0.0638(2) -0.5507(4)
C1 C -0.5730(8) -0.3953(3) -0.2229(5)
C2 C -0.3618(7) -0.3467(2) -0.0603(5)
C3 C -0.3921(9) -0.3618(3) 0.1464(5)
C4 C -0.5817(9) -0.2883(3) 0.1686(6)
C5 C -0.5015(7) -0.2078(3) 0.0660(5)
C6 C -0.2689(7) -0.2007(2) -0.1935(5)
C7 C -0.2640(8) -0.1062(3) -0.1858(5)
C8 C -0.1418(8) -0.0606(2) -0.3038(5)
C9 C -0.0226(7) -0.1093(2) -0.4253(5)
C10 C -0.0300(7) -0.2006(3) -0.4234(5)
H1 H -0.442(19) -0.514(6) -0.225(9)
#END
