
#######################################################################
#
#                 Cambridge Crystallographic Data Centre
#                                CCDC
#
#######################################################################
#
# If this CIF has been generated from an entry in the Cambridge
# Structural Database, then it will include bibliographic, chemical,
# crystal, experimental, refinement or atomic coordinate data resulting
# from the CCDC's data processing and validation procedures.
#
#######################################################################

data_CSD_CIF_FAHPEJ
_audit_creation_date 1999-07-18
_audit_creation_method CSD-ConQuest-V1
_database_code_CSD FAHPEJ
_database_code_depnum_ccdc_archive 'CCDC 109554'
_database_code_depnum_ccdc_fiz 'CSD 409291'
_chemical_formula_sum 'C15 H21 N1 O5'
_chemical_formula_moiety
;
C15 H21 N1 O5
;
_journal_coden_Cambridge 1267
_journal_volume 213
_journal_year 1998
_journal_page_first 755
_journal_name_full 'Z.Kristallogr.-New Cryst.Struct. '
loop_
_publ_author_name
"K.Peters"
"E.-M.Peters"
"J.Raczko"
"V.Jager"
_chemical_name_systematic
;
(3S,4R,5R,1'S)-1,3-O-Benzylidene-6-methyl-4-nitro-1,3,5-heptanetriol
;
_chemical_melting_point 352
_cell_volume   1568.652
_exptl_crystal_colour 'colorless'
_exptl_crystal_description 'prism'
_exptl_crystal_preparation 'petroleum ether/diethyl ether'
_diffrn_ambient_temperature ?
_diffrn_special_details
;
The study was carried out at room temperature,in the range 283-303K

;
#These two values have been output from a single CSD field.
_refine_ls_R_factor_gt 0.0447
_refine_ls_wR_factor_gt 0.0447
loop_
_citation_database_id_CSD
_citation_special_details
FAHLAB "is a stereoisomer of this entry"
_symmetry_cell_setting orthorhombic
_symmetry_space_group_name_H-M 'P 21 21 21'
_symmetry_Int_Tables_number 19
loop_
_symmetry_equiv_pos_site_id
_symmetry_equiv_pos_as_xyz
1 x,y,z
2 1/2-x,-y,1/2+z
3 1/2+x,1/2-y,-z
4 -x,1/2+y,1/2-z
_cell_length_a 11.355(7)
_cell_length_b 19.203(9)
_cell_length_c 7.194(3)
_cell_angle_alpha 90
_cell_angle_beta 90
_cell_angle_gamma 90
_cell_formula_units_Z 4
loop_
_atom_type_symbol
_atom_type_radius_bond
C 0.68
H 0.23
N 0.68
O 0.68
loop_
_atom_site_label
_atom_site_type_symbol
_atom_site_fract_x
_atom_site_fract_y
_atom_site_fract_z
O1 O 0.97114(16) 0.05811(9) 0.36679(24)
C1 C 0.95465(29) 0.11399(13) 0.49507(36)
H1 H 0.88273(29) 0.10672(13) 0.56249(36)
H2 H 1.01960(29) 0.11507(13) 0.58045(36)
C2 C 0.94797(26) 0.18315(12) 0.39295(34)
H3 H 0.92905(26) 0.21967(12) 0.47906(34)
H4 H 1.02230(26) 0.19297(12) 0.33503(34)
O2 O 0.87189(15) 0.11813(8) 0.13168(23)
C3 C 0.85236(22) 0.17804(11) 0.24552(33)
H5 H 0.78162(22) 0.17626(11) 0.31844(33)
C4 C 0.83903(21) 0.23931(11) 0.11290(36)
H6 H 0.77210(21) 0.23014(11) 0.03512(36)
N1 N 0.94984(25) 0.24530(11) -0.00193(34)
C5 C 0.81158(21) 0.30843(12) 0.21046(38)
H7 H 0.87462(21) 0.31903(12) 0.29476(38)
O3 O 0.70223(19) 0.29873(12) 0.30726(34)
H8 H 0.6586(33) 0.2907(20) 0.2266(54)
C6 C 0.81095(24) 0.37268(12) 0.08452(42)
H9 H 0.88780(24) 0.37579(12) 0.02953(42)
C7 C 0.72701(31) 0.36733(15) -0.0792(5)
H10 H 0.74428(31) 0.32596(15) -0.14896(50)
H11 H 0.73625(31) 0.40739(15) -0.1577(5)
H12 H 0.64745(31) 0.36526(15) -0.03441(50)
C8 C 0.78716(28) 0.43790(13) 0.20053(53)
H13 H 0.78684(28) 0.47805(13) 0.12106(53)
H14 H 0.84768(28) 0.44293(13) 0.29274(53)
H15 H 0.71203(28) 0.43364(13) 0.26066(53)
C9 C 0.87739(21) 0.05614(12) 0.23731(35)
H16 H 0.80427(21) 0.05131(12) 0.30304(35)
C10 C 0.89862(22) -0.00434(12) 0.10860(39)
C11 C 0.87824(25) -0.07159(12) 0.16925(44)
H17 H 0.84656(25) -0.07931(12) 0.29124(44)
C12 C 0.90297(29) -0.12769(15) 0.05613(53)
H18 H 0.88865(29) -0.17419(15) 0.09957(53)
C13 C 0.94788(29) -0.11710(16) -0.11782(54)
H19 H 0.96588(29) -0.15625(16) -0.19579(54)
C14 C 0.96747(29) -0.05037(15) -0.18192(54)
H20 H 0.99785(29) -0.04303(15) -0.30490(54)
C15 C 0.94319(27) 0.00574(14) -0.06855(41)
H21 H 0.95732(27) 0.05215(14) -0.11280(41)
O4 O 1.03602(18) 0.27235(11) 0.06761(32)
O5 O 0.94806(27) 0.22233(12) -0.15839(30)
#END
