
#######################################################################
#
#                 Cambridge Crystallographic Data Centre
#                                CCDC
#
#######################################################################
#
# If this CIF has been generated from an entry in the Cambridge
# Structural Database, then it will include bibliographic, chemical,
# crystal, experimental, refinement or atomic coordinate data resulting
# from the CCDC's data processing and validation procedures.
#
#######################################################################

data_CSD_CIF_FAJHIH
_audit_creation_date 1987-09-21
_audit_creation_method CSD-ConQuest-V1
_database_code_CSD FAJHIH
_database_code_depnum_ccdc_archive 'CCDC 1151912'
_chemical_formula_sum 'C7 H9 N1 O3'
_chemical_formula_moiety
;
C7 H9 N1 O3
;
_journal_coden_Cambridge 464
_journal_volume 39
_journal_year 1986
_journal_page_first 233
_journal_name_full 'S.Afr.J.Chem. '
loop_
_publ_author_name
"J.C.A.Boeyens"
"L.Denner"
"J.P.Michael"
_chemical_name_systematic
;
1-Nitrotricyclo(2.2.1.0^2,6^)heptan-3-ol
;
_chemical_melting_point 350.15
_cell_volume   2191.183
_exptl_crystal_colour 'colorless'
_exptl_crystal_density_diffrn 1.42
_exptl_special_details
;
Melting point range 350.15-351.15K
Formula given as H10; we calculate H9. V reported as 2121.2; we calculate 
2191.18
;
_diffrn_ambient_temperature ?
_diffrn_special_details
;
The study was carried out at room temperature,in the range 283-303K

;
#These two values have been output from a single CSD field.
_refine_ls_R_factor_gt 0.08
_refine_ls_wR_factor_gt 0.08
_symmetry_cell_setting monoclinic
_symmetry_space_group_name_H-M 'P 21/c'
_symmetry_Int_Tables_number 14
loop_
_symmetry_equiv_pos_site_id
_symmetry_equiv_pos_as_xyz
1 x,y,z
2 -x,1/2+y,1/2-z
3 -x,-y,-z
4 x,-1/2-y,-1/2+z
_cell_length_a 11.279(3)
_cell_length_b 6.509(5)
_cell_length_c 29.864(9)
_cell_angle_alpha 90
_cell_angle_beta 91.96(4)
_cell_angle_gamma 90
_cell_formula_units_Z 12
loop_
_atom_type_symbol
_atom_type_radius_bond
C 0.68
H 0.23
N 0.68
O 0.68
loop_
_atom_site_label
_atom_site_type_symbol
_atom_site_fract_x
_atom_site_fract_y
_atom_site_fract_z
O1 O 0.3067(3) 0.3636(5) 0.3624(1)
O2 O -0.0606(5) 0.0216(10) 0.4431(2)
O3 O -0.1622(4) 0.3029(9) 0.4324(2)
N1 N -0.0725(5) 0.2129(11) 0.4359(2)
C1 C 0.0376(4) 0.3223(8) 0.4253(2)
C2 C 0.1328(4) 0.2168(8) 0.3984(2)
C3 C 0.1863(5) 0.3896(8) 0.3733(2)
C4 C 0.1709(5) 0.5637(9) 0.4090(2)
C5 C 0.2242(5) 0.4568(9) 0.4489(2)
C6 C 0.1536(4) 0.2617(10) 0.4483(2)
C7 C 0.0388(5) 0.5386(10) 0.4132(3)
H1 H 0.1406(4) 0.0826(8) 0.3775(2)
H2 H 0.1460(5) 0.4140(8) 0.3404(2)
H3 H 0.2032(5) 0.7180(9) 0.4040(2)
H4 H 0.3177(5) 0.4286(9) 0.4452(2)
H5 H 0.2112(5) 0.5430(9) 0.4792(2)
H6 H 0.1810(4) 0.1738(10) 0.4775(2)
H7 H 0.0011(5) 0.6316(10) 0.3864(3)
H8 H -0.0141(44) 0.6146(83) 0.4260(17)
O4 O 0.4433(3) 0.7008(5) 0.3512(1)
O5 O 0.5521(3) 1.3031(6) 0.4665(1)
O6 O 0.6546(3) 1.0956(6) 0.5084(1)
N2 N 0.6048(3) 1.1406(7) 0.4732(1)
C8 C 0.6044(4) 0.9883(6) 0.4377(1)
C9 C 0.4962(4) 0.9616(7) 0.4073(1)
C10 C 0.4974(4) 0.7365(7) 0.3945(1)
C11 C 0.6335(4) 0.7077(7) 0.3953(2)
C12 C 0.6735(5) 0.8876(8) 0.3663(2)
C13 C 0.6061(4) 1.0556(7) 0.3894(1)
C14 C 0.6664(4) 0.7847(8) 0.4428(2)
H9 H 0.4037(4) 1.0043(7) 0.4073(1)
H10 H 0.4488(4) 0.6336(7) 0.4156(1)
H11 H 0.6718(42) 0.5605(82) 0.3888(16)
H12 H 0.6491(42) 0.8742(81) 0.3342(18)
H13 H 0.7577(45) 0.9074(83) 0.3663(16)
H14 H 0.6152(44) 1.1949(84) 0.3835(17)
H15 H 0.6386(44) 0.6915(84) 0.4655(17)
H16 H 0.7502(45) 0.8074(81) 0.4457(16)
O7 O 0.3360(3) 1.0316(5) 0.3110(1)
O8 O 0.0751(3) 0.4095(6) 0.2469(2)
O9 O 0.0404(3) 0.5597(9) 0.1835(1)
N3 N 0.0929(3) 0.5426(7) 0.2195(2)
C15 C 0.1845(3) 0.6973(7) 0.2299(1)
C16 C 0.2126(4) 0.7545(7) 0.2774(1)
C17 C 0.2556(4) 0.9763(7) 0.2749(2)
C18 C 0.3121(4) 0.9602(8) 0.2294(2)
C19 C 0.3923(4) 0.7719(8) 0.2354(2)
C20 C 0.2994(4) 0.6260(7) 0.2531(2)
C21 C 0.2079(5) 0.8757(9) 0.2001(2)
H17 H 0.1697(4) 0.7409(7) 0.3090(1)
H18 H 0.1896(4) 1.0951(7) 0.2779(2)
H19 H 0.3494(43) 1.0868(83) 0.2176(17)
H20 H 0.4713(4) 0.7908(8) 0.2565(2)
H21 H 0.4250(43) 0.7297(83) 0.2071(17)
H22 H 0.3448(4) 0.4827(7) 0.2599(2)
H23 H 0.2289(42) 0.8393(80) 0.1681(17)
H24 H 0.1382(44) 0.9897(82) 0.1979(16)
#END
