
#######################################################################
#
#                 Cambridge Crystallographic Data Centre
#                                CCDC
#
#######################################################################
#
# If this CIF has been generated from an entry in the Cambridge
# Structural Database, then it will include bibliographic, chemical,
# crystal, experimental, refinement or atomic coordinate data resulting
# from the CCDC's data processing and validation procedures.
#
#######################################################################

data_CSD_CIF_FAJXOG
_audit_creation_date 2016-01-12
_audit_creation_method CSD-ConQuest-V1
_database_code_CSD FAJXOG
_database_code_depnum_ccdc_archive 'CCDC 1429957'
_chemical_formula_sum 'C15 H21 N1 O4'
_chemical_formula_moiety
;
C15 H21 N1 O4
;
_journal_coden_Cambridge 1748
_journal_volume 3
_journal_year 2016
_journal_page_first 330
_journal_name_full 'Org.Chem.Front. '
loop_
_publ_author_name
"A.Acharya"
"J.A.Eickhoff"
"K.Chen"
"V.J.Catalano"
"C.S.Jeffrey"
_chemical_name_systematic
;
12-Acetyl-2,2-dimethyl-5,14-dioxa-4-azabicyclo[9.2.1]tetradeca-1(13),11-dien-3
-one
;
_cell_volume   2773.260
_exptl_crystal_density_diffrn 1.338
_exptl_crystal_description 'Block'
_diffrn_ambient_temperature 100
#These two values have been output from a single CSD field.
_refine_ls_R_factor_gt 0.0362
_refine_ls_wR_factor_gt 0.0362
_symmetry_cell_setting monoclinic
_symmetry_space_group_name_H-M 'P 21/c'
_symmetry_Int_Tables_number 14
loop_
_symmetry_equiv_pos_site_id
_symmetry_equiv_pos_as_xyz
1 x,y,z
2 -x,1/2+y,1/2-z
3 -x,-y,-z
4 x,-1/2-y,-1/2+z
_cell_length_a 17.0197(5)
_cell_length_b 16.2710(5)
_cell_length_c 10.1414(3)
_cell_angle_alpha 90
_cell_angle_beta 99.0774(5)
_cell_angle_gamma 90
_cell_formula_units_Z 8
loop_
_atom_type_symbol
_atom_type_radius_bond
C 0.68
H 0.23
N 0.68
O 0.68
loop_
_atom_site_label
_atom_site_type_symbol
_atom_site_fract_x
_atom_site_fract_y
_atom_site_fract_z
H1 H 0.3866(9) 0.4909(10) 1.1165(16)
C1 C 0.38690(8) 0.52593(8) 0.93113(12)
C2 C 0.38006(8) 0.61823(8) 0.96568(12)
C3 C 0.29643(8) 0.62943(8) 0.99380(13)
C4 C 0.26314(8) 0.67207(8) 1.08450(13)
H2 H 0.28960 0.70910 1.14920
C5 C 0.17978(8) 0.65097(8) 1.06503(13)
C6 C 0.16832(8) 0.59545(8) 0.96251(13)
C7 C 0.09892(8) 0.54736(9) 0.89603(14)
H3 H 0.07560 0.57650 0.81330
H4 H 0.05810 0.54630 0.95560
C8 C 0.11679(8) 0.45849(9) 0.85964(13)
H5 H 0.06840 0.43530 0.80530
H6 H 0.15900 0.45950 0.80280
C9 C 0.14312(8) 0.40024(9) 0.97735(14)
H7 H 0.10840 0.41020 1.04540
H8 H 0.13330 0.34320 0.94500
C10 C 0.22991(8) 0.40601(9) 1.04646(13)
H9 H 0.24160 0.46320 1.07670
H10 H 0.23760 0.37000 1.12620
C11 C 0.28750(8) 0.38059(9) 0.95334(13)
H11 H 0.27810 0.32210 0.92880
H12 H 0.27620 0.41350 0.87040
C12 C 0.39397(9) 0.67047(9) 0.84493(13)
H13 H 0.35580 0.65440 0.76650
H14 H 0.44820 0.66150 0.82700
H15 H 0.38670 0.72870 0.86450
C13 C 0.43955(8) 0.64357(9) 1.08871(13)
H16 H 0.43480 0.70270 1.10420
H17 H 0.49370 0.63100 1.07360
H18 H 0.42810 0.61320 1.16700
C14 C 0.11785(8) 0.68376(9) 1.13650(13)
C15 C 0.13944(9) 0.75503(9) 1.22910(15)
H19 H 0.13770 0.80600 1.17710
H20 H 0.19320 0.74700 1.27840
H21 H 0.10150 0.75860 1.29220
N1 N 0.38669(7) 0.47496(7) 1.03512(11)
O1 O 0.38727(6) 0.50153(6) 0.81682(9)
O2 O 0.37076(6) 0.39124(6) 1.01110(9)
O3 O 0.23839(5) 0.58352(6) 0.91567(9)
O4 O 0.04958(6) 0.65690(6) 1.11904(10)
H22 H 0.3865(9) 0.505(1) 0.6195(16)
C16 C 0.38997(8) 0.47400(8) 0.43225(12)
C17 C 0.39265(8) 0.38129(8) 0.46774(12)
C18 C 0.31057(8) 0.36190(8) 0.49535(12)
C19 C 0.28067(8) 0.32225(8) 0.59290(13)
H23 H 0.31020 0.29400 0.66650
C20 C 0.19524(8) 0.33083(8) 0.56447(13)
C21 C 0.17937(8) 0.37711(8) 0.45098(13)
C22 C 0.10774(8) 0.41585(9) 0.37095(14)
H24 H 0.06200 0.40920 0.41930
H25 H 0.09500 0.38650 0.28470
C23 C 0.11845(9) 0.50746(9) 0.34321(14)
H26 H 0.06960 0.52760 0.28620
H27 H 0.16290 0.51350 0.29170
C24 C 0.13530(9) 0.56273(10) 0.46740(15)
H28 H 0.11880 0.61940 0.44040
H29 H 0.10110 0.54410 0.53200
C25 C 0.22167(9) 0.56577(9) 0.54009(14)
H30 H 0.22360 0.59680 0.62460
H31 H 0.24040 0.50920 0.56270
C26 C 0.27662(9) 0.60618(9) 0.45542(14)
H32 H 0.27060 0.57790 0.36790
H33 H 0.25970 0.66400 0.43880
C27 C 0.41179(9) 0.33215(9) 0.34731(13)
H34 H 0.41140 0.27330 0.36750
H35 H 0.46450 0.34800 0.32850
H36 H 0.37170 0.34390 0.26910
C28 C 0.45320(8) 0.36102(9) 0.59180(13)
H37 H 0.43920 0.39070 0.66890
H38 H 0.50650 0.37760 0.57700
H39 H 0.45270 0.30180 0.60890
C29 C 0.14148(8) 0.29136(9) 0.64538(13)
C30 C 0.05267(9) 0.29473(11) 0.60279(15)
H40 H 0.02670 0.25990 0.66190
H41 H 0.03930 0.27490 0.51070
H42 H 0.03430 0.35150 0.60800
N2 N 0.38607(7) 0.52385(7) 0.53717(11)
O5 O 0.38600(6) 0.49979(6) 0.31787(9)
O6 O 0.36011(6) 0.60514(6) 0.51433(9)
O7 O 0.24868(5) 0.39542(6) 0.40612(9)
O8 O 0.16927(6) 0.25398(6) 0.74624(10)
#END
