
#######################################################################
#
#                 Cambridge Crystallographic Data Centre
#                                CCDC
#
#######################################################################
#
# If this CIF has been generated from an entry in the Cambridge
# Structural Database, then it will include bibliographic, chemical,
# crystal, experimental, refinement or atomic coordinate data resulting
# from the CCDC's data processing and validation procedures.
#
#######################################################################

data_CSD_CIF_FAKDUS01
_audit_creation_date 2013-08-08
_audit_creation_method CSD-ConQuest-V1
_database_code_CSD FAKDUS01
_database_code_depnum_ccdc_archive 'CCDC 913291'
_chemical_formula_sum 'C21 H24 N4 O1'
_chemical_formula_moiety
;
C21 H24 N4 O1
;
_journal_coden_Cambridge 1078
_journal_year 2013
_journal_name_full 'CSD Communication(Private Communication) '
loop_
_publ_author_name
"C.Froschauer"
"H.Schottenberger"
"R.Salchner"
"V.Kahlenberg"
"G.Laus"
"T.S.Hofer"
_chemical_name_systematic
;
1,3-Dimesityl-N-nitroso-1,3-dihydro-2H-imidazol-2-imine
;
_cell_volume   3875.578
_exptl_crystal_colour 'yellow'
_exptl_crystal_density_diffrn 1.194
_exptl_crystal_description 'platy'
_diffrn_ambient_temperature 173
#These two values have been output from a single CSD field.
_refine_ls_R_factor_gt 0.0476
_refine_ls_wR_factor_gt 0.0476
_symmetry_cell_setting monoclinic
_symmetry_space_group_name_H-M 'C 2/c'
_symmetry_Int_Tables_number 15
loop_
_symmetry_equiv_pos_site_id
_symmetry_equiv_pos_as_xyz
1 x,y,z
2 -x,y,1/2-z
3 1/2+x,1/2+y,z
4 1/2-x,1/2+y,1/2-z
5 -x,-y,-z
6 x,-y,-1/2+z
7 -1/2-x,-1/2-y,-z
8 -1/2+x,-1/2-y,-1/2+z
_cell_length_a 31.8286(13)
_cell_length_b 8.4822(3)
_cell_length_c 15.6004(6)
_cell_angle_alpha 90
_cell_angle_beta 113.047(5)
_cell_angle_gamma 90
_cell_formula_units_Z 8
loop_
_atom_type_symbol
_atom_type_radius_bond
C 0.68
H 0.23
N 0.68
O 0.68
loop_
_atom_site_label
_atom_site_type_symbol
_atom_site_fract_x
_atom_site_fract_y
_atom_site_fract_z
N1 N 0.12150(5) 0.41156(18) 0.36673(9)
O1 O 0.12705(4) 0.36461(17) 0.29734(8)
N2 N 0.11134(4) 0.44420(16) 0.53245(9)
N3 N 0.18236(4) 0.51826(15) 0.59589(9)
N4 N 0.15980(4) 0.41536(16) 0.44285(9)
C1 C 0.03236(5) 0.4334(2) 0.41597(11)
C2 C 0.20781(6) 0.8460(2) 0.60127(13)
H1 H 0.20690 0.87430 0.66140
H2 H 0.17740 0.81130 0.55860
H3 H 0.21710 0.93800 0.57490
C3 C 0.30496(5) 0.4739(2) 0.63978(11)
H4 H 0.32670 0.39250 0.64830
C4 C 0.28683(6) 0.74882(19) 0.63180(11)
H5 H 0.29610 0.85580 0.63480
C5 C 0.31880(5) 0.6304(2) 0.64439(11)
C6 C 0.26012(5) 0.43347(18) 0.6231(1)
C7 C 0.07106(5) 0.3552(2) 0.47695(10)
C8 C 0.22903(5) 0.55626(18) 0.61063(10)
C9 C -0.00470(6) 0.1783(2) 0.37276(13)
C10 C 0.07297(5) 0.1919(2) 0.48850(11)
C11 C 0.24152(5) 0.71463(19) 0.61488(10)
C12 C 0.11942(6) 0.4990(2) 0.62149(12)
H6 H 0.09780 0.50310 0.64970
C13 C 0.16310(6) 0.5449(2) 0.66037(11)
H7 H 0.17810 0.58780 0.72100
C14 C 0.15036(5) 0.45752(17) 0.5173(1)
C15 C 0.36762(6) 0.6709(2) 0.66157(15)
H8 H 0.38390 0.70180 0.72680
H9 H 0.36810 0.75850 0.62100
H10 H 0.38260 0.57880 0.64810
C16 C 0.24604(6) 0.26327(19) 0.61859(12)
H11 H 0.27270 0.19560 0.63010
H12 H 0.22270 0.24040 0.55670
H13 H 0.23360 0.24300 0.66600
C17 C 0.11598(6) 0.1112(2) 0.55262(15)
H14 H 0.10930 0.00080 0.56090
H15 H 0.12760 0.16440 0.61320
H16 H 0.13900 0.11580 0.52550
C18 C -0.00514(5) 0.3415(2) 0.36402(12)
H17 H -0.03180 0.39160 0.32130
C19 C 0.03426(6) 0.1064(2) 0.43560(13)
H18 H 0.03450 -0.00490 0.44270
C20 C -0.04534(7) 0.0816(3) 0.31289(17)
H19 H -0.04450 0.06630 0.25130
H20 H -0.07350 0.13680 0.30620
H21 H -0.04440 -0.02120 0.34220
C21 C 0.03167(7) 0.6092(2) 0.40496(15)
H22 H 0.03520 0.65940 0.46400
H23 H 0.00260 0.64140 0.35620
H24 H 0.05680 0.64160 0.38750
#END
