
#######################################################################
#
#                 Cambridge Crystallographic Data Centre
#                                CCDC
#
#######################################################################
#
# If this CIF has been generated from an entry in the Cambridge
# Structural Database, then it will include bibliographic, chemical,
# crystal, experimental, refinement or atomic coordinate data resulting
# from the CCDC's data processing and validation procedures.
#
#######################################################################

data_CSD_CIF_FAKFAA
_audit_creation_date 2012-04-25
_audit_creation_method CSD-ConQuest-V1
_database_code_CSD FAKFAA
_database_code_depnum_ccdc_archive 'CCDC 844388'
_chemical_formula_sum 'C27 H36 N4 O1'
_chemical_formula_moiety
;
C27 H36 N4 O1
;
_journal_coden_Cambridge 179
_journal_volume 51
_journal_year 2012
_journal_page_first 232
_journal_name_full 'Angew.Chem.,Int.Ed. '
loop_
_publ_author_name
"A.G.Tskhovrebov"
"E.Solari"
"M.D.Woodrich"
"R.Scopelliti"
"K.Severin"
_chemical_name_systematic
;
1,3-bis(2,6-diisopropylphenyl)-N-nitroso-1,3-dihydro-2H-imidazol-2-imine
;
_cell_volume   2603.625
_exptl_crystal_colour 'yellow'
_exptl_crystal_density_diffrn 1.104
_exptl_crystal_description 'prismatic'
_diffrn_ambient_temperature 100
#These two values have been output from a single CSD field.
_refine_ls_R_factor_gt 0.0866
_refine_ls_wR_factor_gt 0.0866
_symmetry_cell_setting monoclinic
_symmetry_space_group_name_H-M 'P 21/n'
_symmetry_Int_Tables_number 14
loop_
_symmetry_equiv_pos_site_id
_symmetry_equiv_pos_as_xyz
1 x,y,z
2 1/2-x,1/2+y,1/2-z
3 -x,-y,-z
4 -1/2+x,-1/2-y,-1/2+z
_cell_length_a 12.400(3)
_cell_length_b 12.221(2)
_cell_length_c 17.211(3)
_cell_angle_alpha 90
_cell_angle_beta 93.38(3)
_cell_angle_gamma 90
_cell_formula_units_Z 4
loop_
_atom_type_symbol
_atom_type_radius_bond
C 0.68
H 0.23
N 0.68
O 0.68
loop_
_atom_site_label
_atom_site_type_symbol
_atom_site_fract_x
_atom_site_fract_y
_atom_site_fract_z
O1 O 0.7266(2) 0.4180(2) 0.08196(16)
N1 N 0.8350(2) 0.7236(2) 0.13505(16)
N2 N 0.7526(2) 0.7060(2) 0.24304(16)
N3 N 0.7663(2) 0.5414(2) 0.16949(17)
N4 N 0.7411(2) 0.5179(2) 0.09385(19)
C1 C 0.7842(2) 0.6503(3) 0.17924(19)
C2 C 0.7823(3) 0.8152(3) 0.2380(2)
H1 H 0.76880 0.87130 0.27440
C3 C 0.8341(3) 0.8264(3) 0.1714(2)
H2 H 0.86440 0.89210 0.15270
C4 C 0.8982(3) 0.6960(3) 0.0684(2)
C5 C 1.0088(3) 0.6739(3) 0.0857(2)
C6 C 1.0685(3) 0.6442(3) 0.0215(2)
H3 H 1.14310 0.62710 0.02960
C7 C 1.0200(3) 0.6395(3) -0.0535(2)
H4 H 1.06170 0.61800 -0.09550
C8 C 0.9111(3) 0.6659(3) -0.0682(2)
H5 H 0.88010 0.66400 -0.12000
C9 C 0.8468(3) 0.6954(3) -0.0066(2)
C10 C 1.0638(3) 0.6834(3) 0.1670(2)
H6 H 1.00580 0.69500 0.20420
C11 C 1.1376(4) 0.7854(4) 0.1718(3)
H7 H 1.19580 0.77660 0.13610
H8 H 1.16880 0.79380 0.22510
H9 H 1.09510 0.85060 0.15710
C12 C 1.1256(4) 0.5803(4) 0.1929(3)
H10 H 1.07560 0.51820 0.19310
H11 H 1.15890 0.59120 0.24540
H12 H 1.18200 0.56540 0.15670
C13 C 0.7296(3) 0.7282(3) -0.0239(2)
H13 H 0.69450 0.73260 0.02680
C14 C 0.7235(3) 0.8423(4) -0.0612(3)
H14 H 0.75760 0.89580 -0.02510
H15 H 0.64770 0.86240 -0.07260
H16 H 0.76140 0.84170 -0.10960
C15 C 0.6651(3) 0.6457(4) -0.0757(3)
H17 H 0.69540 0.64250 -0.12700
H18 H 0.58940 0.66880 -0.08170
H19 H 0.66940 0.57310 -0.05150
C16 C 0.6823(2) 0.6617(3) 0.29995(19)
C17 C 0.5728(3) 0.6489(3) 0.2759(2)
C18 C 0.5053(3) 0.6077(3) 0.3315(2)
H20 H 0.43110 0.59510 0.31760
C19 C 0.5457(3) 0.5848(3) 0.4072(2)
H21 H 0.49790 0.55890 0.44430
C20 C 0.6548(3) 0.5991(3) 0.4295(2)
H22 H 0.68040 0.58360 0.48140
C21 C 0.7267(3) 0.6365(3) 0.3753(2)
C22 C 0.5241(3) 0.6831(3) 0.1952(2)
H23 H 0.58530 0.70540 0.16340
C23 C 0.4647(3) 0.5894(4) 0.1520(2)
H24 H 0.51450 0.52810 0.14630
H25 H 0.43770 0.61470 0.10050
H26 H 0.40380 0.56550 0.18170
C24 C 0.4520(3) 0.7835(4) 0.2030(2)
H27 H 0.42620 0.80860 0.15110
H28 H 0.49350 0.84200 0.22970
H29 H 0.39010 0.76420 0.23310
C25 C 0.8483(3) 0.6457(3) 0.3965(2)
H30 H 0.87720 0.70700 0.36540
C26 C 0.8763(3) 0.6703(4) 0.4830(2)
H31 H 0.83640 0.73510 0.49860
H32 H 0.95410 0.68380 0.49110
H33 H 0.85630 0.60750 0.51460
C27 C 0.9037(3) 0.5400(4) 0.3722(3)
H34 H 0.87960 0.47890 0.40380
H35 H 0.98220 0.54810 0.38020
H36 H 0.88480 0.52520 0.31710
#END
