
#######################################################################
#
#                 Cambridge Crystallographic Data Centre
#                                CCDC
#
#######################################################################
#
# If this CIF has been generated from an entry in the Cambridge
# Structural Database, then it will include bibliographic, chemical,
# crystal, experimental, refinement or atomic coordinate data resulting
# from the CCDC's data processing and validation procedures.
#
#######################################################################

data_CSD_CIF_FAKRIS02
_audit_creation_date 1999-01-22
_audit_creation_method CSD-ConQuest-V1
_database_code_CSD FAKRIS02
_chemical_formula_sum 'C8 H9 N1 O1'
_chemical_formula_moiety
;
C8 H9 N1 O1
;
_journal_coeditor_code "IUCr CF0003"
_journal_coden_Cambridge 622
_journal_volume 54
_journal_year 1998
_journal_page_first 677
_journal_name_full 'Acta Crystallogr.,Sect.B:Struct.Sci. '
loop_
_publ_author_name
"F.H.Herbstein"
"R.E.Marsh"
_chemical_name_systematic
;
(E)-Acetophenone oxime
;
_cell_volume   3025.345
_exptl_crystal_density_diffrn 1.2
_exptl_special_details
;
monoclinic beta polymorph

;
_diffrn_ambient_temperature ?
_diffrn_special_details
;
The study was carried out at room temperature,in the range 283-303K

;
_refine_special_details
;
The monoclinic modification is disordered.

;
#These two values have been output from a single CSD field.
_refine_ls_R_factor_gt 0.124
_refine_ls_wR_factor_gt 0.124
loop_
_citation_database_id_CSD
_citation_special_details
FAKROY "is a stereoisomer of this entry"
FAKRIS01 "is reinterpreted by this entry"
_symmetry_cell_setting monoclinic
_symmetry_space_group_name_H-M 'C 2/c'
_symmetry_Int_Tables_number 15
loop_
_symmetry_equiv_pos_site_id
_symmetry_equiv_pos_as_xyz
1 x,y,z
2 -x,y,1/2-z
3 1/2+x,1/2+y,z
4 1/2-x,1/2+y,1/2-z
5 -x,-y,-z
6 x,-y,-1/2+z
7 -1/2-x,-1/2-y,-z
8 -1/2+x,-1/2-y,-1/2+z
_cell_length_a 31.430(7)
_cell_length_b 5.492(3)
_cell_length_c 17.726(3)
_cell_angle_alpha 90
_cell_angle_beta 98.60(2)
_cell_angle_gamma 90
_cell_formula_units_Z 16
loop_
_atom_type_symbol
_atom_type_radius_bond
C 0.68
N 0.68
O 0.68
loop_
_atom_site_label
_atom_site_type_symbol
_atom_site_fract_x
_atom_site_fract_y
_atom_site_fract_z
C1 C 0.0662(33) -0.6003(51) -0.0239(58)
C2 C 0.0862(37) -0.467(35) -0.0702(2)
C3 C 0.0820(34) -0.511(16) -0.1487(72)
C4 C 0.0554(14) -0.686(13) -0.181(6)
C5 C 0.0350(35) -0.8157(41) -0.1360(13)
C6 C 0.0410(26) -0.7794(76) -0.0568(37)
C7 C 0.0717(24) -0.5607(85) 0.0600(54)
C8 C 0.0504(6) -0.721(11) 0.1106(31)
N1 N 0.0958(6) -0.3802(8) 0.0847(55)
O1 O 0.0996(5) -0.3530(19) 0.1641(35)
C9 C 0.186(1) 0.204(15) 0.2652(55)
C10 C 0.1685(10) 0.0307(14) 0.3083(18)
C11 C 0.1740(13) 0.0387(71) 0.3868(43)
C12 C 0.1994(13) 0.2204(60) 0.4260(15)
C13 C 0.2174(6) 0.3895(41) 0.3854(12)
C14 C 0.2107(10) 0.384(18) 0.3040(33)
C15 C 0.1800(22) 0.1990(38) 0.1808(23)
C16 C 0.2000(4) 0.3829(40) 0.1350(55)
N2 N 0.1651(7) 0.023(10) 0.1500(37)
O2 O 0.1512(28) 0.0200(66) 0.0696(61)
#END
