
#######################################################################
#
#                 Cambridge Crystallographic Data Centre
#                                CCDC
#
#######################################################################
#
# If this CIF has been generated from an entry in the Cambridge
# Structural Database, then it will include bibliographic, chemical,
# crystal, experimental, refinement or atomic coordinate data resulting
# from the CCDC's data processing and validation procedures.
#
#######################################################################

data_CSD_CIF_FAKRIS
_audit_creation_date 1987-09-22
_audit_creation_method CSD-ConQuest-V1
_database_code_CSD FAKRIS
_chemical_formula_sum 'C8 H9 N1 O1'
_chemical_formula_moiety
;
C8 H9 N1 O1
;
_journal_coden_Cambridge 505
_journal_volume 110
_journal_year 1986
_journal_page_first 73
_journal_name_full 'Chem.Zeit. '
loop_
_publ_author_name
"A.Gieren"
"T.Hubner"
"C.Ruiz-Perez"
_chemical_name_systematic
;
(E)-Acetophenone oxime
;
_cell_volume    754.265
_exptl_crystal_density_diffrn 1.19
_exptl_special_details
;
triclinic alpha polymorph

;
_diffrn_ambient_temperature ?
_diffrn_special_details
;
The study was carried out at room temperature,in the range 283-303K

;
#These two values have been output from a single CSD field.
_refine_ls_R_factor_gt 0.037
_refine_ls_wR_factor_gt 0.037
loop_
_citation_database_id_CSD
_citation_special_details
FAKROY "is a stereoisomer of this entry"
_symmetry_cell_setting triclinic
_symmetry_space_group_name_H-M 'P -1'
_symmetry_Int_Tables_number 2
loop_
_symmetry_equiv_pos_site_id
_symmetry_equiv_pos_as_xyz
1 x,y,z
2 -x,-y,-z
_cell_length_a 9.196(4)
_cell_length_b 9.697(3)
_cell_length_c 9.940(1)
_cell_angle_alpha 68.01(1)
_cell_angle_beta 67.18(2)
_cell_angle_gamma 77.00(3)
_cell_formula_units_Z 4
loop_
_atom_type_symbol
_atom_type_radius_bond
C 0.68
H 0.23
N 0.68
O 0.68
loop_
_atom_site_label
_atom_site_type_symbol
_atom_site_fract_x
_atom_site_fract_y
_atom_site_fract_z
C1 C 0.3183(2) 0.2480(2) 0.7605(2)
C2 C 0.3669(2) 0.1934(2) 0.8886(2)
C3 C 0.5221(2) 0.1924(2) 0.8731(2)
C4 C 0.6325(2) 0.2467(2) 0.7296(2)
C5 C 0.5861(2) 0.3024(2) 0.6021(2)
C6 C 0.4307(2) 0.3036(2) 0.6168(2)
C7 C 0.1521(2) 0.2466(2) 0.7755(2)
C8 C 0.0784(3) 0.3674(3) 0.6681(4)
N1 N 0.0796(1) 0.1369(2) 0.8828(2)
O1 O -0.0783(1) 0.1439(2) 0.8915(2)
C9 C -0.3263(2) 0.2564(2) 0.2340(2)
C10 C -0.4190(2) 0.3891(2) 0.1931(2)
C11 C -0.5730(2) 0.3879(2) 0.2052(2)
C12 C -0.6378(2) 0.2538(2) 0.2597(2)
C13 C -0.5479(2) 0.1222(2) 0.3013(2)
C14 C -0.3942(2) 0.1227(2) 0.2889(2)
C15 C -0.1608(2) 0.2560(2) 0.2218(2)
C16 C -0.0837(3) 0.1283(3) 0.3205(4)
N2 N -0.0902(1) 0.3711(2) 0.1240(2)
O2 O 0.0648(1) 0.3648(2) 0.1223(2)
H1 H -0.099(3) 0.051(3) 0.972(3)
H2 H 0.289(2) 0.156(2) 0.989(2)
H3 H 0.555(2) 0.154(2) 0.964(2)
H4 H 0.740(2) 0.241(2) 0.717(2)
H5 H 0.666(2) 0.337(2) 0.501(2)
H6 H 0.400(2) 0.341(2) 0.528(2)
H7 H -0.022(4) 0.393(4) 0.718(4)
H8 H 0.137(4) 0.447(4) 0.607(4)
H9 H 0.054(5) 0.326(4) 0.610(5)
H10 H 0.092(3) 0.451(3) 0.040(3)
H11 H -0.377(2) 0.485(2) 0.160(2)
H12 H -0.635(2) 0.479(2) 0.178(2)
H13 H -0.746(2) 0.258(2) 0.274(2)
H14 H -0.592(2) 0.026(2) 0.336(2)
H15 H -0.331(2) 0.030(2) 0.321(2)
H16 H -0.029(4) 0.158(4) 0.363(4)
H17 H -0.155(3) 0.063(3) 0.400(3)
H18 H -0.002(4) 0.081(4) 0.267(4)
#END
