
#######################################################################
#
#                 Cambridge Crystallographic Data Centre
#                                CCDC
#
#######################################################################
#
# If this CIF has been generated from an entry in the Cambridge
# Structural Database, then it will include bibliographic, chemical,
# crystal, experimental, refinement or atomic coordinate data resulting
# from the CCDC's data processing and validation procedures.
#
#######################################################################

data_CSD_CIF_FAKROY
_audit_creation_date 1987-09-22
_audit_creation_method CSD-ConQuest-V1
_database_code_CSD FAKROY
_chemical_formula_sum 'C8 H9 N1 O1'
_chemical_formula_moiety
;
C8 H9 N1 O1
;
_journal_coden_Cambridge 505
_journal_volume 110
_journal_year 1986
_journal_page_first 76
_journal_name_full 'Chem.Zeit. '
loop_
_publ_author_name
"A.Gieren"
"T.Hubner"
"C.Ruiz-Perez"
_chemical_name_systematic
;
(Z)-Acetophenone oxime
;
_cell_volume    736.818
_exptl_crystal_density_diffrn 1.22
_exptl_special_details
;
in monoclinic cell, a= 7.282(6),b= 28.261(7) c= 7.088(3), gamma= 89.69(4),v= 
1477.1, z 8
;
_diffrn_ambient_temperature ?
_diffrn_special_details
;
The study was carried out at room temperature,in the range 283-303K

;
#These two values have been output from a single CSD field.
_refine_ls_R_factor_gt 0.132
_refine_ls_wR_factor_gt 0.132
loop_
_citation_database_id_CSD
_citation_special_details
FAKRIS "is a stereoisomer of this entry"
FAKROY01 "is a reinterpretation of this cif"
_symmetry_cell_setting triclinic
_symmetry_space_group_name_H-M 'P 1'
_symmetry_Int_Tables_number 1
loop_
_symmetry_equiv_pos_site_id
_symmetry_equiv_pos_as_xyz
1 x,y,z
_cell_length_a 7.075(5)
_cell_length_b 7.281(8)
_cell_length_c 15.194(5)
_cell_angle_alpha 75.69(5)
_cell_angle_beta 76.71(4)
_cell_angle_gamma 89.92(8)
_cell_formula_units_Z 4
loop_
_atom_type_symbol
_atom_type_radius_bond
C 0.68
H 0.23
N 0.68
O 0.68
loop_
_atom_site_label
_atom_site_type_symbol
_atom_site_fract_x
_atom_site_fract_y
_atom_site_fract_z
C1 C 0.2950(21) 0.2552(20) 0.5260(11)
C2 C 0.1313(28) 0.3434(28) 0.5775(15)
C3 C 0.0997(27) 0.3178(26) 0.6681(14)
C4 C 0.2077(30) 0.2292(29) 0.7214(17)
C5 C 0.3660(28) 0.1469(27) 0.6769(15)
C6 C 0.4095(23) 0.1678(22) 0.5828(12)
C7 C 0.3261(21) 0.2648(21) 0.4314(11)
C8 C 0.3784(24) 0.0883(24) 0.3975(12)
N1 N 0.3170(18) 0.4121(18) 0.3650(9)
O1 O 0.2827(15) 0.5788(15) 0.3936(7)
C9 C 0.7609(20) 0.7583(19) 0.5312(10)
C10 C 0.8754(29) 0.8294(28) 0.5718(15)
C11 C 0.8105(27) 0.8305(27) 0.6693(14)
C12 C 0.6468(26) 0.7355(26) 0.7230(14)
C13 C 0.5406(27) 0.6519(26) 0.6780(14)
C14 C 0.5884(23) 0.6630(22) 0.5815(12)
C15 C 0.8243(21) 0.7694(20) 0.4312(10)
C16 C 0.8046(23) 0.5869(22) 0.3996(11)
N2 N 0.9028(16) 0.9106(16) 0.3662(8)
O2 O 0.90960 1.07650 0.39280
C17 C 0.0150(22) 0.4870(21) 0.0543(11)
C18 C 0.1247(23) 0.6616(22) 0.0330(12)
C19 C 0.1747(25) 0.7708(25) -0.0561(12)
C20 C 0.1125(25) 0.7048(24) -0.1254(13)
C21 C 0.0143(26) 0.5491(26) -0.1043(15)
C22 C -0.0415(24) 0.4299(24) -0.0153(12)
C23 C -0.0443(21) 0.3682(20) 0.1519(10)
C24 C -0.2359(25) 0.2488(24) 0.1805(13)
N3 N 0.0383(17) 0.3457(16) 0.2191(8)
O3 O 0.2293(16) 0.4374(15) 0.1930(8)
C25 C 0.5096(19) 0.9884(18) 0.0548(9)
C26 C 0.4215(22) 1.1627(21) 0.0329(11)
C27 C 0.4642(24) 1.2660(23) -0.0547(12)
C28 C 0.5964(26) 1.2192(24) -0.1255(13)
C29 C 0.6763(24) 1.0525(23) -0.1077(13)
C30 C 0.6441(23) 0.9370(23) -0.0158(12)
C31 C 0.4758(21) 0.8771(20) 0.1538(10)
C32 C 0.6388(24) 0.7578(23) 0.1810(12)
N4 N 0.3236(17) 0.8440(16) 0.2186(8)
O4 O 0.1619(16) 0.9361(15) 0.1911(8)
H1 H 0.043(3) 0.421(3) 0.542(2)
H2 H -0.021(3) 0.371(3) 0.699(1)
H3 H 0.181(3) 0.224(3) 0.790(2)
H4 H 0.450(3) 0.068(3) 0.715(2)
H5 H 0.532(2) 0.115(2) 0.554(1)
H6 H 0.278(2) 0.058(2) 0.366(1)
H7 H 0.383(2) -0.021(2) 0.452(1)
H8 H 0.508(2) 0.112(2) 0.352(1)
H9 H 1.006(3) 0.889(3) 0.535(2)
H10 H 0.891(3) 0.901(3) 0.698(1)
H11 H 0.605(3) 0.723(3) 0.792(1)
H12 H 0.417(3) 0.580(3) 0.717(1)
H13 H 0.501(2) 0.604(2) 0.552(1)
H14 H 0.741(2) 0.482(2) 0.455(1)
H15 H 0.937(2) 0.552(2) 0.371(1)
H16 H 0.724(2) 0.608(2) 0.352(1)
H17 H 0.165(2) 0.705(2) 0.084(1)
H18 H 0.252(3) 0.894(3) -0.072(1)
H19 H 0.146(3) 0.784(2) -0.191(1)
H20 H -0.024(3) 0.509(3) -0.156(2)
H21 H -0.120(2) 0.308(2) -0.002(1)
H22 H -0.298(3) 0.270(2) 0.126(1)
H23 H -0.324(3) 0.287(2) 0.234(1)
H24 H -0.211(3) 0.111(2) 0.201(1)
H25 H 0.327(2) 1.207(2) 0.082(1)
H26 H 0.399(2) 1.388(2) -0.070(1)
H27 H 0.631(3) 1.308(2) -0.189(1)
H28 H 0.760(2) 1.008(2) -0.160(1)
H29 H 0.719(2) 0.821(2) -0.001(1)
H30 H 0.757(2) 0.788(2) 0.128(1)
H31 H 0.598(2) 0.620(2) 0.196(1)
H32 H 0.669(2) 0.787(2) 0.237(1)
#END
