
#######################################################################
#
#                 Cambridge Crystallographic Data Centre
#                                CCDC
#
#######################################################################
#
# If this CIF has been generated from an entry in the Cambridge
# Structural Database, then it will include bibliographic, chemical,
# crystal, experimental, refinement or atomic coordinate data resulting
# from the CCDC's data processing and validation procedures.
#
#######################################################################

data_CSD_CIF_FAKSOC
_audit_creation_date 2017-02-22
_audit_creation_method CSD-ConQuest-V1
_database_code_CSD FAKSOC
_database_code_depnum_ccdc_archive 'CCDC 1517904'
_chemical_formula_sum 'C16 H19 N1 O5'
_chemical_formula_moiety
;
C16 H19 N1 O5
;
_journal_coden_Cambridge 1336
_journal_volume 19
_journal_year 2017
_journal_page_first 616
_journal_name_full 'Org.Lett. '
loop_
_publ_author_name
"Wei Yang"
"Jinhuan Dong"
"Jingyi Wang"
"Xianxiu Xu"
_chemical_name_systematic
;
9,14,14-trimethoxy-9-azatricyclo[8.3.1.0^2,7^]tetradeca-2,4,6-triene-8,12-dion
e
;
_chemical_name_common
;
2,12,12-trimethoxy-3,4,6,7-tetrahydro-1H-3,7-methanobenzo[c]azonine-1,5(2H)-di
one
;
_chemical_melting_point 417.15
_cell_volume   1487.345
_exptl_crystal_colour 'colorless'
_exptl_crystal_density_diffrn 1.365
_exptl_special_details
;
Melting point range 417.15-418.15K

;
_exptl_crystal_description 'block'
_diffrn_ambient_temperature 298
#These two values have been output from a single CSD field.
_refine_ls_R_factor_gt 0.0718
_refine_ls_wR_factor_gt 0.0718
_symmetry_cell_setting monoclinic
_symmetry_space_group_name_H-M 'P 21'
_symmetry_Int_Tables_number 4
loop_
_symmetry_equiv_pos_site_id
_symmetry_equiv_pos_as_xyz
1 x,y,z
2 -x,1/2+y,-z
_cell_length_a 9.374(18)
_cell_length_b 12.30(2)
_cell_length_c 12.90(2)
_cell_angle_alpha 90
_cell_angle_beta 90.35(4)
_cell_angle_gamma 90
_cell_formula_units_Z 4
loop_
_atom_type_symbol
_atom_type_radius_bond
C 0.68
H 0.23
N 0.68
O 0.68
loop_
_atom_site_label
_atom_site_type_symbol
_atom_site_fract_x
_atom_site_fract_y
_atom_site_fract_z
O1 O -0.1535(6) -0.4068(4) 0.3446(4)
O2 O -0.4542(6) -0.4177(5) 0.1454(4)
O3 O -0.2900(6) -0.0697(5) 0.1224(4)
N1 N -0.3801(6) -0.3403(6) 0.2066(4)
O4 O 0.0109(5) -0.3603(4) 0.2149(4)
O5 O -0.5335(6) -0.3920(5) 0.3325(4)
C1 C -0.1217(8) -0.3337(7) 0.2628(5)
C2 C -0.2306(8) -0.3414(7) 0.1727(5)
H1 H -0.21450 -0.41120 0.13800
C3 C -0.2043(8) -0.2508(7) 0.0912(5)
H2 H -0.11310 -0.26230 0.05780
H3 H -0.27840 -0.25290 0.03840
C4 C -0.2051(8) -0.1413(7) 0.1453(5)
C5 C -0.0966(8) -0.1315(7) 0.2301(5)
H4 H -0.10350 -0.06010 0.26180
H5 H -0.00170 -0.13890 0.20140
C6 C -0.3813(8) -0.2449(7) 0.3800(5)
C7 C -0.1203(8) -0.2205(6) 0.3138(5)
H6 H -0.03740 -0.21840 0.36040
C8 C -0.2492(8) -0.1951(7) 0.3785(5)
C9 C -0.2283(9) -0.1081(7) 0.4505(6)
H7 H -0.13970 -0.07400 0.45300
C10 C -0.4649(9) -0.1267(7) 0.5182(6)
H8 H -0.53540 -0.10640 0.56490
C11 C -0.4308(8) -0.3367(8) 0.3090(5)
C12 C -0.3348(9) -0.0723(7) 0.5170(6)
H9 H -0.31920 -0.01270 0.56010
C13 C -0.1621(10) -0.5212(7) 0.3155(7)
H10 H -0.18460 -0.56400 0.37550
H11 H -0.07210 -0.54430 0.28800
H12 H -0.23520 -0.53060 0.26380
C14 C -0.4887(9) -0.2123(7) 0.4485(5)
H13 H -0.57630 -0.24770 0.44770
C15 C 0.1339(8) -0.3661(8) 0.2812(6)
H14 H 0.21620 -0.38420 0.24080
H15 H 0.11930 -0.42090 0.33310
H16 H 0.14850 -0.29700 0.31430
C16 C -0.5594(9) -0.3637(8) 0.0834(6)
H17 H -0.60970 -0.41620 0.04200
H18 H -0.51370 -0.31190 0.03890
H19 H -0.62550 -0.32670 0.12770
O6 O 0.3460(5) 0.2380(4) 0.1552(3)
O7 O 0.2093(6) -0.0976(5) 0.3775(4)
O8 O 0.0465(6) 0.2489(5) 0.3559(4)
O9 O 0.5110(5) 0.1904(5) 0.2859(4)
N2 N 0.1202(6) 0.1719(5) 0.2926(4)
O10 O -0.0343(6) 0.2227(5) 0.1670(4)
C17 C 0.2720(8) 0.1714(7) 0.3274(5)
H20 H 0.28910 0.24090 0.36260
C18 C 0.2534(8) 0.0253(7) 0.1191(5)
C19 C 0.3812(8) 0.0519(6) 0.1859(5)
H21 H 0.46450 0.04980 0.14040
C20 C 0.2945(8) -0.0282(7) 0.3552(5)
C21 C 0.2968(8) 0.0811(7) 0.4085(5)
H22 H 0.38820 0.09190 0.44270
H23 H 0.22280 0.08390 0.46070
C22 C 0.1194(8) 0.0766(7) 0.1211(5)
C23 C 0.3807(8) 0.1641(7) 0.2375(5)
C24 C 0.4052(9) -0.0374(7) 0.2702(6)
H24 H 0.39910 -0.10880 0.23840
H25 H 0.49980 -0.02950 0.30010
C25 C 0.0696(8) 0.1666(7) 0.1911(5)
C26 C 0.0126(8) 0.0437(7) 0.0505(6)
H26 H -0.07400 0.08060 0.04800
C27 C 0.0361(10) -0.0437(8) -0.0155(6)
H27 H -0.03700 -0.06730 -0.05910
C28 C 0.166(1) -0.0959(8) -0.0172(6)
H28 H 0.18180 -0.15400 -0.06180
C29 C -0.0604(9) 0.1949(8) 0.4159(6)
H29 H -0.10970 0.24720 0.45780
H30 H -0.01600 0.14160 0.45990
H31 H -0.12710 0.15960 0.37030
C30 C 0.3396(10) 0.3511(7) 0.1846(7)
H32 H 0.31550 0.39440 0.12510
H33 H 0.43070 0.37350 0.21140
H34 H 0.26830 0.36070 0.23700
C31 C 0.2721(9) -0.0599(7) 0.0487(5)
H35 H 0.36060 -0.09410 0.04630
C32 C 0.6338(8) 0.1959(8) 0.2194(6)
H36 H 0.71650 0.21450 0.25990
H37 H 0.61840 0.25030 0.16710
H38 H 0.64820 0.12650 0.18700
#END
