
#######################################################################
#
#                 Cambridge Crystallographic Data Centre
#                                CCDC
#
#######################################################################
#
# If this CIF has been generated from an entry in the Cambridge
# Structural Database, then it will include bibliographic, chemical,
# crystal, experimental, refinement or atomic coordinate data resulting
# from the CCDC's data processing and validation procedures.
#
#######################################################################

data_CSD_CIF_FAKVOC
_audit_creation_date 1987-09-22
_audit_creation_method CSD-ConQuest-V1
_database_code_CSD FAKVOC
_chemical_formula_sum 'C13 H14 N4 O2'
_chemical_formula_moiety
;
C13 H14 N4 O2
;
_journal_coden_Cambridge 188
_journal_year 1986
_journal_page_first 1969
_journal_name_full 'J.Chem.Soc.,Perkin Trans.2 '
loop_
_publ_author_name
"M.Takasuka"
"H.Nakai"
"M.Shiro"
_chemical_name_systematic
;
(E)-2-(4-(N,N-Dimethylamino)anilino)-5-nitropyridine
;
_cell_volume   1301.783
_exptl_crystal_colour 'reddish-orange'
_exptl_crystal_density_diffrn 1.318
_diffrn_ambient_temperature ?
_diffrn_special_details
;
The study was carried out at room temperature,in the range 283-303K

;
#These two values have been output from a single CSD field.
_refine_ls_R_factor_gt 0.047
_refine_ls_wR_factor_gt 0.047
_symmetry_cell_setting triclinic
_symmetry_space_group_name_H-M 'P -1'
_symmetry_Int_Tables_number 2
loop_
_symmetry_equiv_pos_site_id
_symmetry_equiv_pos_as_xyz
1 x,y,z
2 -x,-y,-z
_cell_length_a 9.875(2)
_cell_length_b 15.529(8)
_cell_length_c 9.696(4)
_cell_angle_alpha 118.15(5)
_cell_angle_beta 90.78(2)
_cell_angle_gamma 95.58(2)
_cell_formula_units_Z 4
loop_
_atom_type_symbol
_atom_type_radius_bond
C 0.68
H 0.23
N 0.68
O 0.68
loop_
_atom_site_label
_atom_site_type_symbol
_atom_site_fract_x
_atom_site_fract_y
_atom_site_fract_z
N1 N 0.3681(1) 0.4645(1) 0.3747(2)
C1 C 0.3832(1) 0.5603(1) 0.4065(2)
C2 C 0.4644(2) 0.5926(1) 0.3177(2)
C3 C 0.5369(2) 0.5272(1) 0.2030(2)
C4 C 0.5259(2) 0.4309(1) 0.1777(2)
C5 C 0.4403(2) 0.4027(1) 0.2636(2)
N2 N 0.6029(1) 0.3598(1) 0.0619(2)
O1 O 0.6737(2) 0.3841(1) -0.0185(2)
O2 O 0.5968(2) 0.2781(1) 0.0519(2)
N3 N 0.3133(1) 0.6192(1) 0.5270(2)
C6 C 0.3063(1) 0.7213(1) 0.5871(2)
C7 C 0.4194(2) 0.7903(1) 0.6227(2)
C8 C 0.4062(2) 0.8891(2) 0.6854(2)
C9 C 0.2779(2) 0.9236(1) 0.7141(2)
C10 C 0.1645(2) 0.8534(1) 0.6813(2)
C11 C 0.1794(1) 0.7551(1) 0.6203(2)
N4 N 0.2620(2) 1.0215(1) 0.7717(2)
C12 C 0.3764(2) 1.0958(1) 0.8382(3)
C13 C 0.1280(2) 1.0525(1) 0.7952(3)
N5 N 0.1245(1) 0.5296(1) 0.6795(2)
C14 C 0.1052(1) 0.4328(1) 0.6414(2)
C15 C 0.0063(2) 0.3959(1) 0.7102(2)
C16 C -0.0743(2) 0.4589(1) 0.8152(2)
C17 C -0.0530(2) 0.5576(1) 0.8529(2)
C18 C 0.0468(2) 0.5897(1) 0.7843(2)
N6 N -0.1354(2) 0.6271(1) 0.9634(2)
O3 O -0.2241(1) 0.5988(1) 1.0221(2)
O4 O -0.1143(2) 0.7126(1) 0.9922(2)
N7 N 0.1852(1) 0.3767(1) 0.5296(2)
C19 C 0.1937(1) 0.2742(1) 0.4651(2)
C20 C 0.2091(2) 0.2278(1) 0.5555(2)
C21 C 0.2229(2) 0.1283(1) 0.4859(2)
C22 C 0.2243(2) 0.0716(1) 0.3224(2)
C23 C 0.2109(2) 0.1202(1) 0.2336(2)
C24 C 0.1949(2) 0.2187(1) 0.3036(2)
N8 N 0.2415(2) -0.0269(1) 0.2524(2)
C25 C 0.2424(3) -0.0779(2) 0.3430(3)
C26 C 0.2297(2) -0.0848(1) 0.0840(3)
H1 H 0.467(2) 0.660(1) 0.337(2)
H2 H 0.594(2) 0.545(1) 0.128(2)
H3 H 0.428(2) 0.335(1) 0.245(2)
H4 H 0.259(2) 0.587(1) 0.568(3)
H5 H 0.513(2) 0.770(1) 0.609(3)
H6 H 0.497(2) 0.936(1) 0.710(3)
H7 H 0.073(2) 0.873(1) 0.698(2)
H8 H 0.101(2) 0.706(1) 0.602(2)
H9 H 0.340(2) 1.158(2) 0.880(3)
H10 H 0.441(3) 1.090(2) 0.764(3)
H11 H 0.437(3) 1.091(2) 0.920(3)
H12 H 0.069(2) 1.013(2) 0.696(3)
H13 H 0.081(2) 1.048(2) 0.888(3)
H14 H 0.133(2) 1.121(2) 0.840(3)
H15 H -0.003(2) 0.326(1) 0.678(2)
H16 H -0.146(2) 0.436(1) 0.862(2)
H17 H 0.064(2) 0.656(1) 0.806(2)
H18 H 0.242(2) 0.411(1) 0.491(2)
H19 H 0.213(2) 0.263(1) 0.667(2)
H20 H 0.236(2) 0.099(1) 0.553(3)
H21 H 0.212(2) 0.083(1) 0.124(2)
H22 H 0.181(2) 0.250(1) 0.236(2)
H23 H 0.323(3) -0.042(2) 0.438(3)
H24 H 0.166(3) -0.069(2) 0.406(3)
H25 H 0.264(3) -0.145(2) 0.268(3)
H26 H 0.138(3) -0.082(2) 0.044(3)
H27 H 0.238(3) -0.150(2) 0.054(3)
H28 H 0.297(2) -0.061(2) 0.040(3)
#END
