
#######################################################################
#
#                 Cambridge Crystallographic Data Centre
#                                CCDC
#
#######################################################################
#
# If this CIF has been generated from an entry in the Cambridge
# Structural Database, then it will include bibliographic, chemical,
# crystal, experimental, refinement or atomic coordinate data resulting
# from the CCDC's data processing and validation procedures.
#
#######################################################################

data_CSD_CIF_FAKVUI
_audit_creation_date 1987-09-22
_audit_creation_method CSD-ConQuest-V1
_database_code_CSD FAKVUI
_chemical_formula_sum 'C11 H9 N3 O2'
_chemical_formula_moiety
;
C11 H9 N3 O2
;
_journal_coden_Cambridge 188
_journal_year 1986
_journal_page_first 1969
_journal_name_full 'J.Chem.Soc.,Perkin Trans.2 '
loop_
_publ_author_name
"M.Takasuka"
"H.Nakai"
"M.Shiro"
_chemical_name_systematic
;
(E)-2-Anilino-5-nitropyridine
;
_cell_volume   1019.525
_exptl_crystal_colour 'yellow'
_exptl_crystal_density_diffrn 1.402
_diffrn_ambient_temperature ?
_diffrn_special_details
;
The study was carried out at room temperature,in the range 283-303K

;
#These two values have been output from a single CSD field.
_refine_ls_R_factor_gt 0.035
_refine_ls_wR_factor_gt 0.035
_symmetry_cell_setting triclinic
_symmetry_space_group_name_H-M 'P -1'
_symmetry_Int_Tables_number 2
loop_
_symmetry_equiv_pos_site_id
_symmetry_equiv_pos_as_xyz
1 x,y,z
2 -x,-y,-z
_cell_length_a 9.862(1)
_cell_length_b 11.209(1)
_cell_length_c 9.822(1)
_cell_angle_alpha 107.93(1)
_cell_angle_beta 90.87(1)
_cell_angle_gamma 80.95(1)
_cell_formula_units_Z 4
loop_
_atom_type_symbol
_atom_type_radius_bond
C 0.68
H 0.23
N 0.68
O 0.68
loop_
_atom_site_label
_atom_site_type_symbol
_atom_site_fract_x
_atom_site_fract_y
_atom_site_fract_z
N1 N 0.6345(1) 0.9545(1) 0.5839(1)
C1 C 0.6169(1) 1.0765(1) 0.6704(1)
C2 C 0.5350(1) 1.1176(1) 0.7969(1)
C3 C 0.4615(1) 1.0344(1) 0.8285(1)
C4 C 0.4723(1) 0.9123(1) 0.7322(1)
C5 C 0.5610(1) 0.8753(1) 0.6148(1)
N2 N 0.3918(1) 0.8225(1) 0.7556(1)
O1 O 0.3352(1) 0.8471(1) 0.8735(1)
O2 O 0.3817(1) 0.7267(1) 0.6564(1)
N3 N 0.6881(1) 1.1526(1) 0.6247(1)
C6 C 0.6792(1) 1.2859(1) 0.6761(1)
C7 C 0.5583(1) 1.3685(1) 0.7294(1)
C8 C 0.5572(1) 1.4990(1) 0.7700(2)
C9 C 0.6743(1) 1.5483(1) 0.7558(1)
C10 C 0.7943(1) 1.4654(1) 0.7006(1)
C11 C 0.7977(1) 1.3357(1) 0.6617(1)
N4 N 0.8786(1) 1.0314(1) 0.3567(1)
C12 C 0.9057(1) 0.9058(1) 0.2828(1)
C13 C 1.0059(1) 0.8555(1) 0.1703(1)
C14 C 1.0805(1) 0.9362(1) 0.1359(1)
C15 C 1.0514(1) 1.0646(1) 0.2123(1)
C16 C 0.9506(1) 1.1085(1) 0.3199(1)
N5 N 1.1271(1) 1.1545(1) 0.1821(1)
O3 O 1.2161(1) 1.1157(1) 0.0870(1)
O4 O 1.1008(1) 1.2657(1) 0.2552(1)
N6 N 0.8301(1) 0.8346(1) 0.3309(1)
C17 C 0.8288(1) 0.7022(1) 0.2755(1)
C18 C 0.8219(1) 0.6400(1) 0.1306(1)
C19 C 0.8161(1) 0.5101(1) 0.0847(1)
C20 C 0.8138(1) 0.4440(1) 0.1813(1)
C21 C 0.8173(1) 0.5069(1) 0.3259(1)
C22 C 0.8261(1) 0.6350(1) 0.3733(1)
H1 H 0.529(1) 1.199(1) 0.862(1)
H2 H 0.405(1) 1.060(1) 0.919(2)
H3 H 0.576(1) 0.793(1) 0.548(1)
H4 H 0.745(1) 1.110(1) 0.541(1)
H5 H 0.473(2) 1.334(1) 0.725(2)
H6 H 0.466(2) 1.553(2) 0.800(2)
H7 H 0.673(2) 1.640(1) 0.786(2)
H8 H 0.880(2) 1.498(1) 0.688(2)
H9 H 0.884(1) 1.278(1) 0.627(1)
H10 H 1.030(1) 0.770(1) 0.122(1)
H11 H 1.153(1) 0.906(1) 0.059(1)
H12 H 0.931(1) 1.200(1) 0.378(1)
H13 H 0.775(1) 0.873(1) 0.404(2)
H14 H 0.812(2) 0.691(1) 0.067(2)
H15 H 0.815(2) 0.467(1) -0.011(2)
H16 H 0.806(2) 0.351(1) 0.149(2)
H17 H 0.813(2) 0.462(1) 0.396(2)
H18 H 0.831(2) 0.682(1) 0.476(1)
#END
