
#######################################################################
#
#                 Cambridge Crystallographic Data Centre
#                                CCDC
#
#######################################################################
#
# If this CIF has been generated from an entry in the Cambridge
# Structural Database, then it will include bibliographic, chemical,
# crystal, experimental, refinement or atomic coordinate data resulting
# from the CCDC's data processing and validation procedures.
#
#######################################################################

data_CSD_CIF_FAKWET
_audit_creation_date 1987-09-22
_audit_creation_method CSD-ConQuest-V1
_database_code_CSD FAKWET
_chemical_formula_sum 'C11 H8 N4 O4'
_chemical_formula_moiety
;
C11 H8 N4 O4
;
_journal_coden_Cambridge 188
_journal_year 1986
_journal_page_first 1969
_journal_name_full 'J.Chem.Soc.,Perkin Trans.2 '
loop_
_publ_author_name
"M.Takasuka"
"H.Nakai"
"M.Shiro"
_chemical_name_systematic
;
(Z)-2-(4-Nitroanilino)-5-nitropyridine
;
_cell_volume   2291.435
_exptl_crystal_colour 'yellow'
_exptl_crystal_density_diffrn 1.508
_diffrn_ambient_temperature ?
_diffrn_special_details
;
The study was carried out at room temperature,in the range 283-303K

;
#These two values have been output from a single CSD field.
_refine_ls_R_factor_gt 0.054
_refine_ls_wR_factor_gt 0.054
_symmetry_cell_setting monoclinic
_symmetry_space_group_name_H-M 'P 21/c'
_symmetry_Int_Tables_number 14
loop_
_symmetry_equiv_pos_site_id
_symmetry_equiv_pos_as_xyz
1 x,y,z
2 -x,1/2+y,1/2-z
3 -x,-y,-z
4 x,-1/2-y,-1/2+z
_cell_length_a 18.438(3)
_cell_length_b 5.534(1)
_cell_length_c 24.693(4)
_cell_angle_alpha 90
_cell_angle_beta 114.57(1)
_cell_angle_gamma 90
_cell_formula_units_Z 8
loop_
_atom_type_symbol
_atom_type_radius_bond
C 0.68
H 0.23
N 0.68
O 0.68
loop_
_atom_site_label
_atom_site_type_symbol
_atom_site_fract_x
_atom_site_fract_y
_atom_site_fract_z
N1 N 0.1152(1) 1.0617(4) 0.2654(1)
C1 C 0.1463(1) 1.2643(5) 0.2960(1)
C2 C 0.2114(2) 1.3831(6) 0.2923(1)
C3 C 0.2446(2) 1.2901(5) 0.2568(1)
C4 C 0.2128(2) 1.0795(5) 0.2261(1)
C5 C 0.1486(2) 0.9693(6) 0.2305(1)
N2 N 0.2484(2) 0.9726(5) 0.1890(1)
O1 O 0.3048(2) 1.0723(6) 0.1857(1)
O2 O 0.2201(2) 0.7890(6) 0.1613(1)
N3 N 0.1171(1) 1.3673(4) 0.3345(1)
C6 C 0.0644(1) 1.2739(5) 0.3559(1)
C7 C 0.0223(2) 1.0665(5) 0.3361(1)
C8 C -0.0266(2) 0.9855(6) 0.3617(1)
C9 C -0.0346(2) 1.1195(6) 0.4063(1)
C10 C 0.0068(2) 1.3331(6) 0.4263(1)
C11 C 0.0552(2) 1.4103(5) 0.4010(1)
N4 N -0.0857(2) 1.0281(5) 0.4333(1)
O3 O -0.1192(2) 0.8362(5) 0.4162(1)
O4 O -0.0922(2) 1.1520(5) 0.4727(1)
N5 N 0.5570(2) 0.1293(5) 0.4271(1)
C12 C 0.6022(2) 0.1761(5) 0.3969(1)
C13 C 0.5947(2) 0.0438(7) 0.3468(1)
C14 C 0.5408(2) -0.1375(7) 0.3268(2)
C15 C 0.4958(2) -0.1874(6) 0.3582(1)
C16 C 0.5038(2) -0.0536(6) 0.4076(1)
N6 N 0.4385(2) -0.3875(6) 0.3395(1)
O5 O 0.4290(2) -0.4952(8) 0.2938(1)
O6 O 0.4074(2) -0.4495(5) 0.3720(1)
N7 N 0.6589(2) 0.3574(5) 0.4156(1)
C17 C 0.6803(2) 0.5251(2) 0.4608(1)
C18 C 0.6450(2) 0.5393(5) 0.4992(1)
C19 C 0.6674(2) 0.7182(6) 0.5417(1)
C20 C 0.7259(2) 0.8802(5) 0.5450(1)
C21 C 0.7642(2) 0.8632(6) 0.5074(1)
C22 C 0.7410(2) 0.6869(6) 0.4653(1)
N8 N 0.7474(1) 1.0725(4) 0.5889(1)
O7 O 0.7108(2) 1.0939(5) 0.6201(1)
O8 O 0.8033(1) 1.2043(4) 0.5939(1)
H1 H 0.230(2) 1.515(7) 0.316(2)
H2 H 0.294(2) 1.375(7) 0.256(2)
H3 H 0.126(2) 0.822(7) 0.209(2)
H4 H 0.141(2) 1.525(7) 0.353(2)
H5 H 0.033(2) 0.960(7) 0.314(1)
H6 H -0.060(2) 0.835(7) 0.346(2)
H7 H 0.005(2) 1.438(7) 0.458(2)
H8 H 0.082(2) 1.528(7) 0.415(2)
H9 H 0.627(3) 0.064(8) 0.323(2)
H10 H 0.526(2) -0.229(8) 0.288(2)
H11 H 0.470(2) -0.077(8) 0.428(2)
H12 H 0.685(2) 0.376(8) 0.393(2)
H13 H 0.615(2) 0.446(7) 0.501(2)
H14 H 0.646(2) 0.735(7) 0.570(2)
H15 H 0.806(2) 0.983(8) 0.511(2)
H16 H 0.765(2) 0.674(7) 0.435(2)
#END
