
#######################################################################
#
#                 Cambridge Crystallographic Data Centre
#                                CCDC
#
#######################################################################
#
# If this CIF has been generated from an entry in the Cambridge
# Structural Database, then it will include bibliographic, chemical,
# crystal, experimental, refinement or atomic coordinate data resulting
# from the CCDC's data processing and validation procedures.
#
#######################################################################

data_CSD_CIF_FAMFEH
_audit_creation_date 2017-02-22
_audit_creation_method CSD-ConQuest-V1
_database_code_CSD FAMFEH
_database_code_depnum_ccdc_archive 'CCDC 1502250'
_chemical_formula_sum 'C25 H20 N4 O5'
_chemical_formula_moiety
;
C25 H20 N4 O5
;
_journal_coden_Cambridge 119
_journal_volume 1137
_journal_year 2017
_journal_page_first 320
_journal_name_full 'J.Mol.Struct. '
loop_
_publ_author_name
"Xian-Rui Zhang"
"Lei Zhang"
_chemical_name_systematic
;
2-ethoxy-1-((2'-(5-oxo-4,5-dihydro-1,2,4-oxadiazol-3-yl)biphenyl-4-yl)methyl)-
1H-benzimidazole-7-carboxylic acid
;
_chemical_name_common
;
Azilsartan
;
_cell_volume   2181.093
_exptl_crystal_colour 'colorless'
_exptl_crystal_density_diffrn 1.39
_exptl_special_details
;
antihypertensive drug

;
_exptl_crystal_description 'block'
_diffrn_ambient_temperature 298
#These two values have been output from a single CSD field.
_refine_ls_R_factor_gt 0.042
_refine_ls_wR_factor_gt 0.042
_symmetry_cell_setting monoclinic
_symmetry_space_group_name_H-M 'P 21/c'
_symmetry_Int_Tables_number 14
loop_
_symmetry_equiv_pos_site_id
_symmetry_equiv_pos_as_xyz
1 x,y,z
2 -x,1/2+y,1/2-z
3 -x,-y,-z
4 x,-1/2-y,-1/2+z
_cell_length_a 9.6485(17)
_cell_length_b 11.312(2)
_cell_length_c 19.984(4)
_cell_angle_alpha 90
_cell_angle_beta 90.337(3)
_cell_angle_gamma 90
_cell_formula_units_Z 4
loop_
_atom_type_symbol
_atom_type_radius_bond
C 0.68
H 0.23
N 0.68
O 0.68
loop_
_atom_site_label
_atom_site_type_symbol
_atom_site_fract_x
_atom_site_fract_y
_atom_site_fract_z
C1 C 0.65842(15) 0.31625(13) 0.16222(8)
C2 C 0.45784(14) 0.33216(11) 0.21409(7)
C3 C 0.31382(14) 0.30492(11) 0.23301(7)
C4 C 0.29055(17) 0.19911(13) 0.26678(8)
H1 H 0.36520 0.15150 0.27880
C5 C 0.15834(19) 0.16455(14) 0.28247(9)
H2 H 0.14350 0.09370 0.30500
C6 C 0.04820(18) 0.23480(16) 0.2649(1)
H3 H -0.04140 0.21190 0.27580
C7 C 0.06995(16) 0.33977(14) 0.23090(9)
H4 H -0.00580 0.38620 0.21900
C8 C 0.20246(15) 0.37733(12) 0.21410(7)
C9 C 0.21987(14) 0.48668(12) 0.17320(8)
C10 C 0.29682(15) 0.58324(12) 0.19434(7)
H5 H 0.33990 0.58150 0.23610
C11 C 0.31062(14) 0.68244(12) 0.15416(7)
H6 H 0.36160 0.74670 0.16970
C12 C 0.25005(15) 0.68740(11) 0.09168(8)
C13 C 0.1710(2) 0.59163(14) 0.07082(9)
H7 H 0.12790 0.59340 0.02910
C14 C 0.15554(19) 0.49369(14) 0.11133(10)
H8 H 0.10070 0.43110 0.09670
C15 C 0.26382(16) 0.79146(12) 0.04451(8)
H9 H 0.28340 0.76190 0.00000
H10 H 0.17580 0.83280 0.04250
C16 C 0.03527(18) 1.16247(17) 0.07572(13)
H11 H 0.02000 1.13820 0.03020
H12 H 0.01200 1.24460 0.08040
H13 H -0.02180 1.11620 0.10490
C17 C 0.18302(15) 1.14470(12) 0.09373(8)
H14 H 0.24160 1.19680 0.06770
H15 H 0.19820 1.16110 0.14090
C18 C 0.34529(15) 0.99001(11) 0.08137(7)
C19 C 0.51424(15) 0.86221(11) 0.06880(6)
C20 C 0.56308(14) 0.97293(11) 0.09110(7)
C21 C 0.70215(15) 0.99095(13) 0.10390(8)
H16 H 0.73480 1.06460 0.11750
C22 C 0.79162(17) 0.89671(14) 0.09602(9)
H17 H 0.88570 0.90710 0.10470
C23 C 0.74380(17) 0.78722(14) 0.07548(8)
H18 H 0.80640 0.72510 0.07180
C24 C 0.60505(16) 0.76712(12) 0.06024(7)
C25 C 0.56270(18) 0.65100(13) 0.03305(8)
H19 H 0.4972(19) 0.2089(17) 0.1435(9)
H20 H 0.594(2) 0.489(2) 0.0402(11)
N1 N 0.52907(12) 0.27020(11) 0.16684(6)
N2 N 0.53284(13) 0.41324(11) 0.24142(7)
N3 N 0.37172(12) 0.87546(9) 0.06344(6)
N4 N 0.45336(12) 1.05247(9) 0.09790(6)
O1 O 0.75441(11) 0.29021(12) 0.12724(7)
O2 O 0.66414(10) 0.40453(9) 0.20830(6)
O3 O 0.21396(11) 1.02328(8) 0.07915(6)
O4 O 0.47710(14) 0.64036(9) -0.01175(6)
O5 O 0.62824(16) 0.56109(10) 0.05970(7)
#END
