
#######################################################################
#
#                 Cambridge Crystallographic Data Centre
#                                CCDC
#
#######################################################################
#
# If this CIF has been generated from an entry in the Cambridge
# Structural Database, then it will include bibliographic, chemical,
# crystal, experimental, refinement or atomic coordinate data resulting
# from the CCDC's data processing and validation procedures.
#
#######################################################################

data_CSD_CIF_FANTIX
_audit_creation_date 1987-07-17
_audit_creation_method CSD-ConQuest-V1
_database_code_CSD FANTIX
_chemical_formula_sum 'C14 H18 N2 O5'
_chemical_formula_moiety
;
C14 H18 N2 O5
;
_journal_coden_Cambridge 188
_journal_year 1986
_journal_page_first 897
_journal_name_full 'J.Chem.Soc.,Perkin Trans.2 '
loop_
_publ_author_name
"K.Padmanabhan"
"D.Dopp"
"K.Venkatesan"
"V.Ramamurthy"
_chemical_name_systematic
;
1-t-Butyl-4-acetyl-3,5-dimethyl-2,6-dinitrobenzene
;
_chemical_name_common
;
Musk ketone
;
_chemical_melting_point 410.15
_cell_volume   6049.942
_exptl_crystal_colour 'colorless'
_exptl_crystal_density_diffrn 1.292
_diffrn_ambient_temperature ?
_diffrn_special_details
;
The study was carried out at room temperature,in the range 283-303K

;
#These two values have been output from a single CSD field.
_refine_ls_R_factor_gt 0.073
_refine_ls_wR_factor_gt 0.073
_symmetry_cell_setting monoclinic
_symmetry_space_group_name_H-M 'P 21/n'
_symmetry_Int_Tables_number 14
loop_
_symmetry_equiv_pos_site_id
_symmetry_equiv_pos_as_xyz
1 x,y,z
2 1/2-x,1/2+y,1/2-z
3 -x,-y,-z
4 -1/2+x,-1/2-y,-1/2+z
_cell_length_a 24.369(4)
_cell_length_b 7.834(1)
_cell_length_c 31.956(5)
_cell_angle_alpha 90
_cell_angle_beta 97.39(1)
_cell_angle_gamma 90
_cell_formula_units_Z 16
loop_
_atom_type_symbol
_atom_type_radius_bond
C 0.68
H 0.23
N 0.68
O 0.68
loop_
_atom_site_label
_atom_site_type_symbol
_atom_site_fract_x
_atom_site_fract_y
_atom_site_fract_z
C1 C 0.7319(5) 0.4100(17) 0.3249(4)
C2 C 0.7147(5) 0.5572(17) 0.3454(4)
C3 C 0.6661(5) 0.6479(17) 0.3354(4)
C4 C 0.6292(6) 0.5877(17) 0.3018(4)
C5 C 0.6412(6) 0.4424(19) 0.2795(4)
C6 C 0.6912(6) 0.3641(18) 0.2915(5)
C7 C 0.7860(6) 0.3129(19) 0.3387(5)
C8 C 0.7742(8) 0.1838(27) 0.3729(7)
C9 C 0.8350(7) 0.4311(26) 0.3548(8)
C10 C 0.8065(8) 0.2107(26) 0.3025(7)
C11 C 0.6000(7) 0.3734(22) 0.2436(5)
C12 C 0.6497(7) 0.7981(20) 0.3603(5)
C13 C 0.5739(6) 0.6757(21) 0.2909(5)
C14 C 0.5692(7) 0.8092(23) 0.2578(6)
N1 N 0.6982(6) 0.2062(18) 0.2668(4)
N2 N 0.7491(5) 0.6249(18) 0.3833(4)
O1 O 0.6859(6) 0.0714(14) 0.2819(5)
O2 O 0.7130(7) 0.2222(19) 0.2323(4)
O3 O 0.7448(6) 0.555(2) 0.4165(4)
O4 O 0.7774(5) 0.7508(15) 0.3788(5)
O5 O 0.5364(5) 0.6387(19) 0.3100(5)
C15 C 1.0258(5) -0.0868(17) 0.4239(4)
C16 C 1.0435(6) 0.0527(17) 0.4020(4)
C17 C 1.0919(6) 0.1444(18) 0.4118(5)
C18 C 1.1281(6) 0.0913(20) 0.4466(4)
C19 C 1.1149(6) -0.0521(20) 0.4695(4)
C20 C 1.0649(6) -0.1341(19) 0.4573(5)
C21 C 0.9702(6) -0.1823(20) 0.4115(5)
C22 C 0.9792(8) -0.3205(26) 0.3795(8)
C23 C 0.9236(7) -0.0616(27) 0.3910(7)
C24 C 0.9464(9) -0.2609(31) 0.4489(8)
C25 C 1.1566(7) -0.1159(26) 0.5055(6)
C26 C 1.1072(8) 0.2925(22) 0.3847(5)
C27 C 1.1821(6) 0.1848(22) 0.4584(5)
C28 C 1.1854(8) 0.3089(29) 0.4939(6)
N3 N 1.0582(7) -0.2867(20) 0.4839(5)
N4 N 1.0102(6) 0.1150(18) 0.3628(4)
O6 O 1.0442(7) -0.2621(21) 0.5178(4)
O7 O 1.0683(7) -0.4235(16) 0.4688(5)
O8 O 0.9828(6) 0.2453(17) 0.3643(5)
O9 O 1.0141(5) 0.0355(19) 0.3303(4)
O10 O 1.2202(5) 0.1603(21) 0.4389(5)
C29 C 1.2319(5) -0.4301(16) 0.3461(4)
C30 C 1.2486(5) -0.5710(17) 0.3240(4)
C31 C 1.2171(5) -0.6559(17) 0.2916(4)
C32 C 1.1643(6) -0.5967(20) 0.2787(4)
C33 C 1.1441(6) -0.4546(20) 0.2966(5)
C34 C 1.1792(6) -0.3765(18) 0.3296(4)
C35 C 1.2676(7) -0.3393(19) 0.3829(5)
C36 C 1.2804(12) -0.1607(29) 0.3729(8)
C37 C 1.2404(13) -0.3437(73) 0.4204(7)
C38 C 1.3229(13) -0.4177(39) 0.3970(12)
C39 C 1.0872(7) -0.3850(27) 0.2820(6)
C40 C 1.2394(7) -0.8099(26) 0.2696(6)
C41 C 1.1295(6) -0.6795(23) 0.2418(5)
C42 C 1.0939(8) -0.8279(26) 0.2509(6)
N5 N 1.1525(6) -0.2260(17) 0.3474(5)
N6 N 1.3048(5) -0.6444(17) 0.3334(4)
O11 O 1.1593(6) -0.0898(15) 0.3317(5)
O12 O 1.1242(6) -0.2517(19) 0.3754(5)
O13 O 1.3122(5) -0.7607(15) 0.3577(4)
O14 O 1.3389(5) -0.5853(24) 0.3133(5)
O15 O 1.1309(6) -0.6261(23) 0.2069(4)
C43 C 1.4186(5) 0.0848(17) 0.5392(4)
C44 C 1.4662(6) 0.1350(18) 0.5640(4)
C45 C 1.4900(5) 0.0543(19) 0.6007(5)
C46 C 1.4636(5) -0.0876(17) 0.6143(4)
C47 C 1.4151(5) -0.1481(17) 0.5917(4)
C48 C 1.3946(5) -0.0612(17) 0.5557(4)
C49 C 1.3931(6) 0.1829(19) 0.4985(4)
C50 C 1.3596(9) 0.0644(24) 0.4663(5)
C51 C 1.3543(8) 0.3198(22) 0.5116(6)
C52 C 1.4370(9) 0.2606(28) 0.4737(6)
C53 C 1.3854(6) -0.2978(21) 0.6086(5)
C54 C 1.5427(7) 0.1236(26) 0.6263(6)
C55 C 1.4879(6) -0.1775(21) 0.6546(4)
C56 C 1.5322(8) -0.3075(28) 0.6515(6)
N7 N 1.3396(5) -0.1242(16) 0.5369(4)
N8 N 1.4978(6) 0.2917(17) 0.5545(4)
O16 O 1.3384(6) -0.2537(14) 0.5153(4)
O17 O 1.2988(4) -0.0462(18) 0.5453(4)
O18 O 1.4781(6) 0.4276(15) 0.5651(5)
O19 O 1.5393(5) 0.2741(17) 0.5385(5)
O20 O 1.4711(6) -0.1428(19) 0.6872(3)
H1 H 0.734(7) 0.104(23) 0.359(5)
H2 H 0.808(9) 0.145(29) 0.377(7)
H3 H 0.762(12) 0.245(38) 0.396(8)
H4 H 0.831(11) 0.452(34) 0.390(8)
H5 H 0.865(6) 0.355(20) 0.355(5)
H6 H 0.839(6) 0.503(21) 0.333(5)
H7 H 0.804(7) 0.272(25) 0.269(6)
H8 H 0.843(6) 0.173(21) 0.312(5)
H9 H 0.781(8) 0.107(26) 0.295(6)
H10 H 0.612(6) 0.383(19) 0.218(5)
H11 H 0.590(6) 0.247(20) 0.251(5)
H12 H 0.561(8) 0.434(25) 0.243(6)
H13 H 0.655(8) 0.898(28) 0.346(6)
H14 H 0.618(8) 0.762(25) 0.375(6)
H15 H 0.673(8) 0.819(27) 0.389(6)
H16 H 0.578(9) 0.772(27) 0.235(6)
H17 H 0.533(8) 0.874(27) 0.247(6)
H18 H 0.601(6) 0.881(20) 0.264(5)
H19 H 1.010(7) -0.399(23) 0.397(6)
H20 H 0.943(8) -0.376(25) 0.369(6)
H21 H 0.990(8) -0.271(26) 0.351(6)
H22 H 0.937(10) -0.020(35) 0.358(8)
H23 H 0.890(8) -0.124(25) 0.391(6)
H24 H 0.922(9) 0.035(30) 0.418(7)
H25 H 0.935(8) -0.161(26) 0.470(6)
H26 H 0.911(6) -0.301(22) 0.440(5)
H27 H 0.977(9) -0.367(29) 0.464(7)
H28 H 1.143(10) -0.100(33) 0.530(8)
H29 H 1.172(12) -0.192(40) 0.508(9)
H30 H 1.186(9) -0.049(29) 0.499(7)
H31 H 1.118(8) 0.392(26) 0.403(6)
H32 H 1.145(12) 0.288(39) 0.382(9)
H33 H 1.096(8) 0.275(27) 0.356(6)
H34 H 1.183(7) 0.249(21) 0.519(5)
H35 H 1.219(9) 0.368(28) 0.497(7)
H36 H 1.159(10) 0.405(30) 0.486(7)
H37 H 1.247(12) -0.103(37) 0.361(8)
H38 H 1.305(7) -0.100(24) 0.404(6)
H39 H 1.301(12) -0.148(38) 0.357(8)
H40 H 1.221(7) -0.429(23) 0.423(5)
H41 H 1.258(10) -0.278(31) 0.449(7)
H42 H 1.204(7) -0.313(26) 0.416(6)
H43 H 1.342(7) -0.411(21) 0.384(5)
H44 H 1.345(11) -0.357(37) 0.429(8)
H45 H 1.314(9) -0.542(29) 0.405(7)
H46 H 1.063(8) -0.370(26) 0.304(6)
H47 H 1.089(12) -0.282(41) 0.277(9)
H48 H 1.073(7) -0.431(21) 0.256(5)
H49 H 1.221(14) -0.909(48) 0.279(11)
H50 H 1.233(10) -0.803(33) 0.246(8)
H51 H 1.269(7) -0.832(25) 0.277(6)
H52 H 1.058(9) -0.792(30) 0.261(7)
H53 H 1.076(6) -0.871(21) 0.230(5)
H54 H 1.110(8) -0.918(26) 0.267(6)
H55 H 1.321(7) 0.015(24) 0.477(5)
H56 H 1.348(6) 0.129(20) 0.441(5)
H57 H 1.376(9) -0.025(28) 0.462(7)
H58 H 1.381(8) 0.398(24) 0.529(6)
H59 H 1.332(6) 0.385(21) 0.487(5)
H60 H 1.322(7) 0.284(23) 0.525(5)
H61 H 1.471(9) 0.170(29) 0.472(7)
H62 H 1.418(7) 0.286(25) 0.449(6)
H63 H 1.456(8) 0.366(25) 0.495(6)
H64 H 1.351(12) -0.264(40) 0.614(9)
H65 H 1.387(10) -0.375(32) 0.594(7)
H66 H 1.399(8) -0.332(28) 0.639(6)
H67 H 1.541(8) 0.105(27) 0.653(6)
H68 H 1.575(8) 0.074(26) 0.616(6)
H69 H 1.554(13) 0.255(44) 0.624(9)
H70 H 1.573(8) -0.255(25) 0.649(6)
H71 H 1.538(10) -0.345(34) 0.677(8)
H72 H 1.519(6) -0.417(20) 0.629(5)
#END
