
#######################################################################
#
#                 Cambridge Crystallographic Data Centre
#                                CCDC
#
#######################################################################
#
# If this CIF has been generated from an entry in the Cambridge
# Structural Database, then it will include bibliographic, chemical,
# crystal, experimental, refinement or atomic coordinate data resulting
# from the CCDC's data processing and validation procedures.
#
#######################################################################

data_CSD_CIF_FANTIX01
_audit_creation_date 1996-10-31
_audit_creation_method CSD-ConQuest-V1
_database_code_CSD FANTIX01
_database_code_depnum_ccdc_archive 'CCDC 1152381'
_chemical_formula_sum 'C14 H18 N2 O5'
_chemical_formula_moiety
;
C14 H18 N2 O5
;
_journal_coden_Cambridge 54
_journal_volume 104
_journal_year 1995
_journal_page_first 81
_journal_name_full 'Bull.Soc.Chim.Belg. '
loop_
_publ_author_name
"D.J.A.De Ridder"
"H.Schenk"
_chemical_name_systematic
;
4-Acetyl-1-t-butyl-3,5-dimethyl-2,6-dinitrobenzene
;
_chemical_name_common
;
Musk ketone
;
_chemical_melting_point 410.15
_cell_volume   6062.785
_exptl_crystal_density_diffrn 1.29
_diffrn_ambient_temperature ?
_diffrn_special_details
;
The study was carried out at room temperature,in the range 283-303K

;
#These two values have been output from a single CSD field.
_refine_ls_R_factor_gt 0.055
_refine_ls_wR_factor_gt 0.055
_symmetry_cell_setting monoclinic
_symmetry_space_group_name_H-M 'P 21/n'
_symmetry_Int_Tables_number 14
loop_
_symmetry_equiv_pos_site_id
_symmetry_equiv_pos_as_xyz
1 x,y,z
2 1/2-x,1/2+y,1/2-z
3 -x,-y,-z
4 -1/2+x,-1/2-y,-1/2+z
_cell_length_a 24.389(3)
_cell_length_b 7.839(1)
_cell_length_c 31.975(3)
_cell_angle_alpha 90
_cell_angle_beta 97.36(3)
_cell_angle_gamma 90
_cell_formula_units_Z 16
loop_
_atom_type_symbol
_atom_type_radius_bond
C 0.68
N 0.68
O 0.68
loop_
_atom_site_label
_atom_site_type_symbol
_atom_site_fract_x
_atom_site_fract_y
_atom_site_fract_z
C1 C 0.2324(2) 0.0698(5) 0.3459(1)
C2 C 0.2486(1) -0.0720(5) 0.3245(1)
C3 C 0.2172(2) -0.1579(5) 0.2913(1)
C4 C 0.1645(2) -0.0949(6) 0.2784(1)
C5 C 0.1444(2) 0.0470(6) 0.2969(1)
C6 C 0.1789(2) 0.1227(5) 0.3300(1)
C7 C 0.2679(2) 0.1613(5) 0.3832(1)
C8 C 0.2827(3) 0.3386(8) 0.3698(2)
C9 C 0.2366(4) 0.1685(20) 0.4213(2)
C10 C 0.3241(3) 0.0843(31) 0.3969(3)
C11 C 0.2389(2) -0.3093(7) 0.2696(1)
C12 C 0.1293(2) -0.1800(7) 0.2416(1)
C13 C 0.0942(2) -0.3257(8) 0.2503(2)
C14 C 0.0874(2) 0.1162(8) 0.2815(2)
N1 N 0.3049(1) -0.1441(5) 0.3333(1)
N2 N 0.1529(2) 0.2732(5) 0.3474(1)
O1 O 0.1314(2) -0.1271(6) 0.2069(1)
O2 O 0.3395(1) -0.0832(7) 0.3134(1)
O3 O 0.3129(1) -0.2617(4) 0.3572(1)
O4 O 0.1238(2) 0.2466(6) 0.3752(1)
O5 O 0.1593(2) 0.4109(4) 0.3317(1)
C15 C 0.0258(2) 0.4131(5) 0.4239(1)
C16 C 0.0432(2) 0.5523(5) 0.4020(1)
C17 C 0.0919(2) 0.6445(5) 0.4115(1)
C18 C 0.1281(2) 0.5910(6) 0.4464(1)
C19 C 0.1160(2) 0.4483(6) 0.4694(1)
C20 C 0.0654(2) 0.3672(5) 0.4577(1)
C21 C -0.0297(2) 0.3171(6) 0.4112(2)
C22 C -0.0202(2) 0.1799(8) 0.3793(2)
C23 C -0.0530(2) 0.2386(9) 0.4497(2)
C24 C -0.0765(2) 0.4381(8) 0.3913(2)
C25 C 0.1078(2) 0.7907(7) 0.3850(2)
C26 C 0.1821(2) 0.6855(7) 0.4581(1)
C27 C 0.1843(2) 0.8116(8) 0.4928(2)
C28 C 0.1568(2) 0.3801(8) 0.5056(2)
N3 N 0.0099(1) 0.6136(5) 0.3625(1)
N4 N 0.0578(2) 0.2166(6) 0.4837(1)
O6 O 0.2206(1) 0.6603(6) 0.4390(1)
O7 O 0.0139(1) 0.5329(6) 0.3305(1)
O8 O -0.0169(2) 0.7440(5) 0.3641(1)
O9 O 0.0443(2) 0.2395(6) 0.5184(1)
O10 O 0.0680(2) 0.0773(5) 0.4690(1)
C29 C 0.7317(1) 0.9119(5) 0.3248(1)
C30 C 0.7148(1) 1.0573(5) 0.3451(1)
C31 C 0.6658(2) 1.1471(5) 0.3355(1)
C32 C 0.6290(2) 1.0872(5) 0.3016(1)
C33 C 0.6410(2) 0.9427(5) 0.2791(1)
C34 C 0.6915(2) 0.8625(5) 0.2918(1)
C35 C 0.7863(2) 0.8125(6) 0.3391(1)
C36 C 0.7749(2) 0.6862(7) 0.3734(2)
C37 C 0.8074(2) 0.7128(9) 0.3024(2)
C38 C 0.8345(2) 0.9300(7) 0.3549(2)
C39 C 0.6504(2) 1.2978(6) 0.3606(1)
C40 C 0.5740(2) 1.1755(6) 0.2909(1)
C41 C 0.5689(2) 1.3092(7) 0.2575(2)
C42 C 0.5998(2) 0.8745(7) 0.2437(1)
N5 N 0.7491(1) 1.1253(5) 0.3832(1)
N6 N 0.6987(2) 0.7066(5) 0.2667(1)
O11 O 0.5361(1) 1.1375(6) 0.3100(1)
O12 O 0.7446(2) 1.0542(6) 0.4165(1)
O13 O 0.7773(1) 1.2500(4) 0.3791(1)
O14 O 0.7130(2) 0.7236(6) 0.2318(1)
O15 O 0.6856(2) 0.5719(4) 0.2815(1)
C43 C 0.9185(1) -0.0852(5) 0.0391(1)
C44 C 0.9668(2) -0.1341(5) 0.0638(1)
C45 C 0.9907(1) -0.0547(5) 0.1010(1)
C46 C 0.9641(1) 0.0872(5) 0.1140(1)
C47 C 0.9150(1) 0.1467(5) 0.0922(1)
C48 C 0.8944(1) 0.0574(5) 0.0555(1)
C49 C 0.8934(2) -0.1807(5) -0.0016(1)
C50 C 0.8546(2) -0.3199(7) 0.0116(2)
C51 C 0.8589(2) -0.0628(6) -0.0338(1)
C52 C 0.9371(2) -0.2590(7) -0.0258(2)
C53 C 1.0425(2) -0.1239(7) 0.1264(1)
C54 C 0.9882(2) 0.1766(6) 0.1547(1)
C55 C 1.0319(2) 0.3054(8) 0.1518(2)
C56 C 0.8854(2) 0.2967(6) 0.1081(1)
N7 N 0.9969(1) -0.2909(5) 0.0549(1)
N8 N 0.8397(1) 0.1234(5) 0.0368(1)
O16 O 0.9708(2) 0.1428(5) 0.1871(1)
O17 O 0.9779(2) -0.4273(4) 0.0650(1)
O18 O 1.0395(1) -0.2749(5) 0.0390(1)
O19 O 0.8383(2) 0.2525(4) 0.0157(1)
O20 O 0.7994(1) 0.0449(5) 0.0453(1)
#END
