
#######################################################################
#
#                 Cambridge Crystallographic Data Centre
#                                CCDC
#
#######################################################################
#
# If this CIF has been generated from an entry in the Cambridge
# Structural Database, then it will include bibliographic, chemical,
# crystal, experimental, refinement or atomic coordinate data resulting
# from the CCDC's data processing and validation procedures.
#
#######################################################################

data_CSD_CIF_FAPHUA
_audit_creation_date 2005-04-18
_audit_creation_method CSD-ConQuest-V1
_database_code_CSD FAPHUA
_database_code_depnum_ccdc_archive 'CCDC 152685'
_chemical_formula_sum 'C30 H39 N1 O7'
_chemical_formula_moiety
;
C30 H39 N1 O7
;
_journal_coden_Cambridge 1127
_journal_volume 14
_journal_year 2004
_journal_page_first 1101
_journal_name_full 'Bioorg.Med.Chem.Lett. '
loop_
_publ_author_name
"Shouxin Liu"
"He Liu"
"Weiying Yan"
"Li Zhang"
"Naisheng Bai"
"Chi-Tang Ho"
_chemical_name_systematic
;
(2-O-Butyloxime-3-phenyl)-propionyl-1-O-acetylbritannilactone ester
;
_chemical_melting_point 326.15
_cell_volume    759.369
_exptl_crystal_colour 'yellow'
_exptl_crystal_density_diffrn 1.149
_exptl_special_details
;
Melting point range 326.15-328.15K

;
_exptl_crystal_description 'needle'
_exptl_crystal_preparation 'dichloromethane'
_diffrn_ambient_temperature 298
#These two values have been output from a single CSD field.
_refine_ls_R_factor_gt 0.0587
_refine_ls_wR_factor_gt 0.0587
_symmetry_cell_setting triclinic
_symmetry_space_group_name_H-M 'P 1'
_symmetry_Int_Tables_number 1
loop_
_symmetry_equiv_pos_site_id
_symmetry_equiv_pos_as_xyz
1 x,y,z
_cell_length_a 9.186(4)
_cell_length_b 9.470(4)
_cell_length_c 9.840(4)
_cell_angle_alpha 108.840(8)
_cell_angle_beta 107.325(8)
_cell_angle_gamma 94.303(8)
_cell_formula_units_Z 1
loop_
_atom_type_symbol
_atom_type_radius_bond
C 0.68
H 0.23
N 0.68
O 0.68
loop_
_atom_site_label
_atom_site_type_symbol
_atom_site_fract_x
_atom_site_fract_y
_atom_site_fract_z
C1 C 0.5630(11) -0.4003(9) -0.5041(8)
H1 H 0.54090 -0.47080 -0.60620
H2 H 0.60750 -0.44750 -0.43250
H3 H 0.63510 -0.31190 -0.48600
C2 C 0.4163(9) -0.3549(7) -0.4846(8)
C3 C 0.3033(7) -0.2133(7) -0.3077(7)
H4 H 0.26520 -0.28100 -0.26480
H5 H 0.22080 -0.21820 -0.39870
C4 C 0.3516(6) -0.0527(6) -0.1927(6)
H6 H 0.26190 -0.02120 -0.16740
H7 H 0.38430 0.01370 -0.23960
C5 C 0.4824(6) -0.0317(6) -0.0454(6)
H8 H 0.57830 -0.04230 -0.06670
H9 H 0.45930 -0.11080 -0.00810
C6 C 0.5049(5) 0.1251(5) 0.0797(6)
H10 H 0.50780 0.20240 0.03360
C7 C 0.6626(6) 0.1592(8) 0.2120(7)
H11 H 0.67400 0.25650 0.28890
H12 H 0.74640 0.15990 0.17260
H13 H 0.66440 0.08200 0.25590
C8 C 0.3683(4) 0.1358(4) 0.1407(4)
C9 C 0.2648(5) 0.2259(5) 0.1231(5)
C10 C 0.1377(6) 0.2258(6) 0.1937(6)
H14 H 0.18090 0.28630 0.30200
H15 H 0.05640 0.27260 0.14710
C11 C 0.0675(5) 0.0662(6) 0.1723(6)
H16 H 0.00420 0.07150 0.23760
C12 C 0.0044(6) -0.1443(6) -0.0553(6)
C13 C 0.1321(6) -0.1738(5) 0.0572(6)
C14 C 0.1871(5) -0.0365(5) 0.2015(5)
H17 H 0.18190 -0.06630 0.28680
C15 C 0.3560(4) 0.0378(4) 0.2350(4)
H18 H 0.41640 -0.04250 0.21340
C16 C 0.2585(7) 0.3338(6) 0.0400(7)
H19 H 0.34070 0.32800 -0.00200
H20 H 0.27040 0.43540 0.10960
H21 H 0.16020 0.30710 -0.04110
C17 C 0.1844(8) -0.3030(7) 0.0322(9)
H22 H 0.13980 -0.38230 -0.06160
H23 H 0.26590 -0.31440 0.10840
C18 C 0.5149(5) 0.0727(5) 0.4900(5)
C19 C 0.5941(5) 0.1804(6) 0.6520(5)
C20 C 0.7435(5) 0.1434(6) 0.7365(6)
H24 H 0.72950 0.03550 0.71800
H25 H 0.77100 0.19800 0.84550
C21 C 0.8737(5) 0.1880(6) 0.6832(5)
C22 C 0.9685(7) 0.0885(8) 0.6400(6)
H26 H 0.95260 -0.00850 0.64290
C23 C 1.0874(10) 0.1311(15) 0.5922(8)
H27 H 1.15050 0.06280 0.56460
C24 C 1.1118(8) 0.2709(15) 0.5857(8)
H28 H 1.18930 0.29770 0.55070
C25 C 1.0205(8) 0.3743(9) 0.6315(8)
H29 H 1.04030 0.47220 0.63190
C26 C 0.9003(6) 0.3325(7) 0.6765(7)
H30 H 0.83680 0.40100 0.70250
C27 C 0.5570(9) 0.5203(8) 0.9007(7)
H31 H 0.44490 0.49700 0.87160
H32 H 0.58320 0.58860 0.85260
C28 C 0.6311(13) 0.5935(11) 1.0734(11)
H33 H 0.58510 0.68060 1.11030
H34 H 0.61020 0.52130 1.11930
C29 C 0.7865(19) 0.6388(15) 1.1162(18)
H35 H 0.80670 0.71560 1.07510
H36 H 0.83100 0.55290 1.07280
C30 C 0.8695(16) 0.7063(18) 1.2969(13)
H37 H 0.97980 0.73070 1.32110
H38 H 0.84650 0.63230 1.33880
H39 H 0.83230 0.79650 1.33970
N1 N 0.5317(4) 0.2940(5) 0.6998(4)
O1 O 0.4383(5) -0.2591(5) -0.3465(4)
O2 O 0.2929(9) -0.3943(12) -0.5816(9)
O3 O 0.4252(3) 0.1361(3) 0.3974(3)
O4 O 0.5336(6) -0.0566(5) 0.4470(5)
O5 O -0.0318(4) -0.0090(4) 0.0096(4)
O6 O -0.0640(6) -0.2233(6) -0.1890(5)
O7 O 0.6167(5) 0.3833(5) 0.8539(4)
#END
