
#######################################################################
#
#                 Cambridge Crystallographic Data Centre
#                                CCDC
#
#######################################################################
#
# If this CIF has been generated from an entry in the Cambridge
# Structural Database, then it will include bibliographic, chemical,
# crystal, experimental, refinement or atomic coordinate data resulting
# from the CCDC's data processing and validation procedures.
#
#######################################################################

data_CSD_CIF_FAQJEM
_audit_creation_date 1999-07-19
_audit_creation_method CSD-ConQuest-V1
_database_code_CSD FAQJEM
_database_code_depnum_ccdc_archive 'CCDC 115415'
_chemical_formula_sum 'C15 H14 N5 O2'
_chemical_formula_moiety
;
C15 H14 N5 O2
;
_journal_coden_Cambridge 1278
_journal_volume 101
_journal_year 1997
_journal_page_first 9517
_journal_name_full 'J.Phys.Chem.B '
loop_
_publ_author_name
"M.Mito"
"K.Takeda"
"K.Mukai"
"N.Azuma"
"M.R.Gleiter"
"C.Krieger"
"F.A.Neugebauer"
_chemical_name_systematic
;
6-Methyl-3-nitro-1,5-diphenylverdazyl
;
_chemical_melting_point 434.15
_cell_volume   2905.819
_exptl_crystal_colour 'orange'
_exptl_crystal_density_diffrn 1.36
_exptl_special_details
;
Melts with decomposition.

;
_exptl_crystal_description 'prism'
_exptl_crystal_preparation 'ethanol'
_diffrn_ambient_temperature ?
_diffrn_special_details
;
The study was carried out at room temperature,in the range 283-303K

;
#These two values have been output from a single CSD field.
_refine_ls_R_factor_gt 0.039
_refine_ls_wR_factor_gt 0.039
_symmetry_cell_setting monoclinic
_symmetry_space_group_name_H-M 'P 21/n'
_symmetry_Int_Tables_number 14
loop_
_symmetry_equiv_pos_site_id
_symmetry_equiv_pos_as_xyz
1 x,y,z
2 1/2-x,1/2+y,1/2-z
3 -x,-y,-z
4 -1/2+x,-1/2-y,-1/2+z
_cell_length_a 11.657(5)
_cell_length_b 19.272(7)
_cell_length_c 13.043(5)
_cell_angle_alpha 90
_cell_angle_beta 97.39(2)
_cell_angle_gamma 90
_cell_formula_units_Z 8
loop_
_atom_type_symbol
_atom_type_radius_bond
C 0.68
H 0.23
N 0.68
O 0.68
loop_
_atom_site_label
_atom_site_type_symbol
_atom_site_fract_x
_atom_site_fract_y
_atom_site_fract_z
N1 N 0.3374(2) 0.1806(1) 0.1068(2)
N2 N 0.3336(2) 0.1243(1) 0.0450(2)
C1 C 0.4230(3) 0.1217(2) -0.0086(2)
N3 N 0.5187(2) 0.1587(1) -0.0028(2)
N4 N 0.5156(2) 0.2144(1) 0.0586(2)
C2 C 0.4031(2) 0.2412(2) 0.0785(2)
N5 N 0.4192(2) 0.0624(1) -0.0800(2)
O1 O 0.4895(2) 0.0608(1) -0.1406(2)
O2 O 0.3474(2) 0.0180(1) -0.0758(2)
C3 C 0.3406(3) 0.2789(2) -0.0125(3)
C4 C 0.2561(2) 0.1848(2) 0.1784(2)
C5 C 0.1940(2) 0.1263(2) 0.1981(2)
C6 C 0.1166(3) 0.1285(2) 0.2697(2)
C7 C 0.1023(3) 0.1890(2) 0.3231(2)
C8 C 0.1630(3) 0.2470(2) 0.3039(2)
C9 C 0.2395(3) 0.2454(2) 0.2309(2)
C10 C 0.6221(2) 0.2432(2) 0.1041(2)
C11 C 0.6295(3) 0.3115(2) 0.1348(3)
C12 C 0.7330(3) 0.3368(2) 0.1834(3)
C13 C 0.8286(3) 0.2947(2) 0.1994(3)
C14 C 0.8220(3) 0.2279(2) 0.1664(3)
C15 C 0.7183(3) 0.2015(2) 0.1185(3)
N6 N 0.3427(2) 0.0319(1) 0.4039(2)
N7 N 0.2914(2) 0.0266(1) 0.4903(2)
C16 C 0.2087(3) -0.0207(2) 0.4812(2)
N8 N 0.1569(2) -0.0543(1) 0.4005(2)
N9 N 0.2108(2) -0.0449(1) 0.3153(2)
C17 C 0.3330(2) -0.0257(2) 0.3304(2)
N10 N 0.1549(2) -0.0318(1) 0.5767(2)
O3 O 0.0635(2) -0.0636(1) 0.5694(2)
O4 O 0.2053(2) -0.0098(2) 0.6569(2)
C18 C 0.4099(3) -0.0858(2) 0.3670(2)
C19 C 0.4112(2) 0.0909(2) 0.3928(2)
C20 C 0.5005(3) 0.0885(2) 0.3328(2)
C21 C 0.5659(3) 0.1478(2) 0.3228(3)
C22 C 0.5411(3) 0.2080(2) 0.3697(3)
C23 C 0.4529(3) 0.2094(2) 0.4297(3)
C24 C 0.3878(3) 0.1520(2) 0.4413(2)
C25 C 0.1480(2) -0.0602(2) 0.2190(2)
C26 C 0.0281(3) -0.0655(2) 0.2116(3)
C27 C -0.0336(3) -0.0803(2) 0.1170(3)
C28 C 0.0200(3) -0.0880(2) 0.0313(3)
C29 C 0.1367(3) -0.0804(2) 0.0378(3)
C30 C 0.2016(3) -0.0681(2) 0.1315(2)
H1 H 0.417(2) 0.272(1) 0.136(2)
H2 H 0.204(2) 0.086(1) 0.165(1)
H3 H 0.075(2) 0.087(1) 0.284(2)
H4 H 0.047(2) 0.189(1) 0.374(2)
H5 H 0.152(2) 0.293(1) 0.336(2)
H6 H 0.278(2) 0.286(1) 0.219(2)
H7 H 0.564(2) 0.343(1) 0.118(2)
H8 H 0.736(3) 0.383(2) 0.206(2)
H9 H 0.894(2) 0.314(1) 0.231(2)
H10 H 0.886(2) 0.194(1) 0.177(2)
H11 H 0.710(2) 0.154(1) 0.096(2)
H12 H 0.329(2) 0.247(2) -0.074(2)
H13 H 0.270(2) 0.295(1) 0.005(2)
H14 H 0.388(3) 0.323(2) -0.026(2)
H15 H 0.352(2) -0.006(1) 0.270(2)
H16 H 0.524(2) 0.048(1) 0.308(2)
H17 H 0.624(2) 0.139(2) 0.288(2)
H18 H 0.585(2) 0.245(1) 0.365(2)
H19 H 0.437(2) 0.249(1) 0.458(2)
H20 H 0.329(2) 0.154(1) 0.479(2)
H21 H -0.009(2) -0.057(1) 0.275(2)
H22 H -0.110(2) -0.089(2) 0.120(2)
H23 H -0.020(3) -0.097(2) -0.030(2)
H24 H 0.176(3) -0.079(2) -0.017(2)
H25 H 0.282(2) -0.064(1) 0.135(2)
H26 H 0.487(2) -0.070(1) 0.379(2)
H27 H 0.401(2) -0.120(1) 0.311(2)
H28 H 0.388(2) -0.103(1) 0.431(2)
#END
