
#######################################################################
#
#                 Cambridge Crystallographic Data Centre
#                                CCDC
#
#######################################################################
#
# If this CIF has been generated from an entry in the Cambridge
# Structural Database, then it will include bibliographic, chemical,
# crystal, experimental, refinement or atomic coordinate data resulting
# from the CCDC's data processing and validation procedures.
#
#######################################################################

data_CSD_CIF_FAQJAI
_audit_creation_date 1999-07-19
_audit_creation_method CSD-ConQuest-V1
_database_code_CSD FAQJAI
_database_code_depnum_ccdc_archive 'CCDC 115414'
_chemical_formula_sum 'C14 H12 N5 O2'
_chemical_formula_moiety
;
C14 H12 N5 O2
;
_journal_coden_Cambridge 1278
_journal_volume 101
_journal_year 1997
_journal_page_first 9517
_journal_name_full 'J.Phys.Chem.B '
loop_
_publ_author_name
"M.Mito"
"K.Takeda"
"K.Mukai"
"N.Azuma"
"M.R.Gleiter"
"C.Krieger"
"F.A.Neugebauer"
_chemical_name_systematic
;
3-Nitro-1,5-diphenylverdazyl
;
_cell_volume   1310.687
_exptl_crystal_colour 'brown-red'
_exptl_crystal_density_diffrn 1.43
_exptl_crystal_description 'platelet'
_exptl_crystal_preparation 'benzene'
_diffrn_ambient_temperature ?
_diffrn_special_details
;
The study was carried out at room temperature,in the range 283-303K

;
#These two values have been output from a single CSD field.
_refine_ls_R_factor_gt 0.044
_refine_ls_wR_factor_gt 0.044
_symmetry_cell_setting monoclinic
_symmetry_space_group_name_H-M 'P 21/n'
_symmetry_Int_Tables_number 14
loop_
_symmetry_equiv_pos_site_id
_symmetry_equiv_pos_as_xyz
1 x,y,z
2 1/2-x,1/2+y,1/2-z
3 -x,-y,-z
4 -1/2+x,-1/2-y,-1/2+z
_cell_length_a 3.999(1)
_cell_length_b 14.926(2)
_cell_length_c 22.028(3)
_cell_angle_alpha 90
_cell_angle_beta 94.55(1)
_cell_angle_gamma 90
_cell_formula_units_Z 4
loop_
_atom_type_symbol
_atom_type_radius_bond
C 0.68
H 0.23
N 0.68
O 0.68
loop_
_atom_site_label
_atom_site_type_symbol
_atom_site_fract_x
_atom_site_fract_y
_atom_site_fract_z
N1 N 0.354(2) 0.0233(5) 0.2302(3)
N2 N 0.482(2) -0.0599(5) 0.2408(3)
C1 C 0.607(2) -0.0692(6) 0.2968(4)
N3 N 0.582(2) -0.0204(5) 0.3469(3)
N4 N 0.445(2) 0.0611(5) 0.3332(3)
C2 C 0.477(2) 0.0944(5) 0.2724(4)
N5 N 0.782(2) -0.1550(5) 0.3089(4)
O1 O 0.768(2) -0.2102(4) 0.2678(3)
O2 O 0.931(2) -0.1664(4) 0.3586(3)
C3 C 0.180(2) 0.0414(6) 0.1726(4)
C4 C 0.177(2) 0.1272(5) 0.1494(4)
C5 C 0.011(3) 0.1440(6) 0.0929(5)
C6 C -0.141(2) 0.0745(8) 0.0602(4)
C7 C -0.129(2) -0.0110(7) 0.0843(5)
C8 C 0.033(2) -0.0293(6) 0.1404(4)
C9 C 0.323(2) 0.1137(6) 0.3805(4)
C10 C 0.278(2) 0.0737(6) 0.4353(4)
C11 C 0.160(3) 0.1224(7) 0.4816(4)
C12 C 0.074(2) 0.2106(8) 0.4724(5)
C13 C 0.111(3) 0.2511(6) 0.4173(5)
C14 C 0.239(2) 0.2026(6) 0.3710(4)
H1 H 0.34530 0.14710 0.26560
H2 H 0.70470 0.10760 0.26700
H3 H 0.28830 0.17430 0.17200
H4 H 0.00200 0.20310 0.07680
H5 H -0.25290 0.08520 0.02120
H6 H -0.23550 -0.05850 0.06150
H7 H 0.04270 -0.08850 0.15640
H8 H 0.33000 0.01200 0.44110
H9 H 0.13640 0.09520 0.52010
H10 H -0.01130 0.24410 0.50440
H11 H 0.04940 0.31200 0.41120
H12 H 0.26850 0.23020 0.33300
#END
