
#######################################################################
#
#                 Cambridge Crystallographic Data Centre
#                                CCDC
#
#######################################################################
#
# If this CIF has been generated from an entry in the Cambridge
# Structural Database, then it will include bibliographic, chemical,
# crystal, experimental, refinement or atomic coordinate data resulting
# from the CCDC's data processing and validation procedures.
#
#######################################################################

data_CSD_CIF_FAQQUJ
_audit_creation_date 1999-07-19
_audit_creation_method CSD-ConQuest-V1
_database_code_CSD FAQQUJ
_database_code_depnum_ccdc_archive 'CCDC 111719'
_chemical_formula_sum 'C23 H20 N4 O4'
_chemical_formula_moiety
;
C23 H20 N4 O4
;
_journal_coden_Cambridge 10
_journal_volume 82
_journal_year 1999
_journal_page_first 238
_journal_name_full 'Helv.Chim.Acta '
loop_
_publ_author_name
"D.Moya Argilagos"
"A.Linden"
"H.Heimgartner"
_chemical_name_systematic
;
7-Methoxy-N-(4-methoxyphenyl)-3-(phenylamino)quinoxaline-2-carboxamide 1-oxide
;
_chemical_melting_point 459
_cell_volume    970.512
_exptl_crystal_colour 'wine red'
_exptl_crystal_density_diffrn 1.425
_exptl_special_details
;
Melting point range 459-461K

;
_exptl_crystal_description 'prism'
_exptl_crystal_preparation 'dideuterodichloromethane'
_diffrn_ambient_temperature 173
#These two values have been output from a single CSD field.
_refine_ls_R_factor_gt 0.0427
_refine_ls_wR_factor_gt 0.0427
_symmetry_cell_setting triclinic
_symmetry_space_group_name_H-M 'P -1'
_symmetry_Int_Tables_number 2
loop_
_symmetry_equiv_pos_site_id
_symmetry_equiv_pos_as_xyz
1 x,y,z
2 -x,-y,-z
_cell_length_a 10.637(2)
_cell_length_b 11.032(1)
_cell_length_c 10.011(2)
_cell_angle_alpha 99.38(1)
_cell_angle_beta 114.67(1)
_cell_angle_gamma 106.28(1)
_cell_formula_units_Z 2
loop_
_atom_type_symbol
_atom_type_radius_bond
C 0.68
H 0.23
N 0.68
O 0.68
loop_
_atom_site_label
_atom_site_type_symbol
_atom_site_fract_x
_atom_site_fract_y
_atom_site_fract_z
O1 O 0.1119(2) -0.2021(1) 0.2541(1)
O2 O 0.4997(1) 0.2507(1) 0.4185(1)
O3 O -0.2363(2) -0.4772(1) -0.1562(2)
O4 O -0.3492(2) -0.8987(1) 0.2058(2)
N1 N 0.0834(2) -0.1784(1) 0.1225(2)
N2 N -0.1649(2) -0.3141(2) -0.2948(2)
N3 N 0.0384(2) -0.1120(1) -0.1471(2)
N4 N -0.0910(2) -0.4350(2) 0.1009(2)
C1 C -0.0294(2) -0.2677(2) -0.0172(2)
C2 C -0.0495(2) -0.2276(2) -0.1536(2)
C3 C 0.1513(2) -0.0276(2) -0.0047(2)
C4 C 0.2498(2) 0.0957(2) 0.0070(2)
C5 C 0.3626(2) 0.1834(2) 0.1479(2)
C6 C 0.3836(2) 0.1532(2) 0.2854(2)
C7 C 0.2926(2) 0.0344(2) 0.2805(2)
C8 C 0.1773(2) -0.0555(2) 0.1334(2)
C9 C -0.1279(2) -0.4023(2) -0.0294(2)
C10 C -0.1623(2) -0.5545(2) 0.1207(2)
C11 C -0.0954(2) -0.5640(2) 0.2694(2)
C12 C -0.1549(2) -0.6761(2) 0.3030(2)
C13 C -0.2830(2) -0.7819(2) 0.1866(2)
C14 C -0.3512(2) -0.7739(2) 0.0375(2)
C15 C -0.2921(2) -0.6614(2) 0.0043(2)
C16 C -0.2035(2) -0.3080(2) -0.4457(2)
C17 C -0.3198(2) -0.4222(2) -0.5670(2)
C18 C -0.3666(2) -0.4265(2) -0.7197(2)
C19 C -0.2984(2) -0.3194(2) -0.7553(2)
C20 C -0.1834(2) -0.2069(2) -0.6353(2)
C21 C -0.1363(2) -0.1991(2) -0.4808(2)
C22 C -0.2845(3) -0.9078(2) 0.3589(3)
C23 C 0.5304(2) 0.2248(2) 0.5626(2)
H1 H -0.219(2) -0.391(2) -0.285(2)
H2 H 0.234(2) 0.115(2) -0.091(2)
H3 H 0.430(2) 0.268(2) 0.158(2)
H4 H 0.302(2) 0.011(2) 0.369(2)
H5 H -0.006(2) -0.363(2) 0.191(2)
H6 H -0.003(2) -0.491(2) 0.347(2)
H7 H -0.102(2) -0.679(2) 0.407(2)
H8 H -0.443(2) -0.849(2) -0.042(2)
H9 H -0.342(2) -0.659(2) -0.100(2)
H10 H -0.366(2) -0.500(2) -0.542(2)
H11 H -0.448(2) -0.504(2) -0.800(2)
H12 H -0.331(2) -0.323(2) -0.866(2)
H13 H -0.133(2) -0.129(2) -0.662(2)
H14 H -0.055(2) -0.116(2) -0.398(2)
H15 H -0.178(2) -0.898(2) 0.394(2)
H16 H -0.351(2) -0.998(2) 0.352(2)
H17 H -0.282(2) -0.834(2) 0.436(2)
H18 H 0.443(2) 0.211(2) 0.581(2)
H19 H 0.558(2) 0.143(2) 0.565(2)
H20 H 0.619(2) 0.308(2) 0.643(2)
#END
