
#######################################################################
#
#                 Cambridge Crystallographic Data Centre
#                                CCDC
#
#######################################################################
#
# If this CIF has been generated from an entry in the Cambridge
# Structural Database, then it will include bibliographic, chemical,
# crystal, experimental, refinement or atomic coordinate data resulting
# from the CCDC's data processing and validation procedures.
#
#######################################################################

data_CSD_CIF_FARLIW
_audit_creation_date 2017-02-23
_audit_creation_method CSD-ConQuest-V1
_database_code_CSD FARLIW
_database_code_depnum_ccdc_archive 'CCDC 1407565'
_chemical_formula_sum 'C32 H33 N3 O8'
_chemical_formula_moiety
;
C32 H33 N3 O8
;
_journal_coden_Cambridge 119
_journal_volume 1122
_journal_year 2016
_journal_page_first 37
_journal_name_full 'J.Mol.Struct. '
loop_
_publ_author_name
"M.Samipillai"
"N.Bhatt"
"T.Govender"
"T.Naicker"
_chemical_name_systematic
;
ethyl 
N-((benzyloxy)carbonyl)phenylalanyl-2-(2-nitro-1-phenylethyl)-3-oxoprolinate
;
_cell_volume   1484.328
_exptl_crystal_density_diffrn 1.315
_exptl_crystal_description 'block'
_diffrn_ambient_temperature 173
_refine_special_details
;
C10A,C11A and C10B,C11B disordered over two sites with occupancies 
0.534:0.466.
;
#These two values have been output from a single CSD field.
_refine_ls_R_factor_gt 0.0438
_refine_ls_wR_factor_gt 0.0438
_symmetry_cell_setting monoclinic
_symmetry_space_group_name_H-M 'P 21'
_symmetry_Int_Tables_number 4
loop_
_symmetry_equiv_pos_site_id
_symmetry_equiv_pos_as_xyz
1 x,y,z
2 -x,1/2+y,-z
_cell_length_a 10.0225(8)
_cell_length_b 12.8675(11)
_cell_length_c 12.1421(10)
_cell_angle_alpha 90
_cell_angle_beta 108.575(2)
_cell_angle_gamma 90
_cell_formula_units_Z 2
loop_
_atom_type_symbol
_atom_type_radius_bond
C 0.68
H 0.23
N 0.68
O 0.68
loop_
_atom_site_label
_atom_site_type_symbol
_atom_site_fract_x
_atom_site_fract_y
_atom_site_fract_z
N1 N 0.8151(2) 0.84893(16) 0.51142(17)
C1 C 0.7222(3) 0.7570(2) 0.4818(3)
H1 H 0.68200 0.74880 0.39650
H2 H 0.64420 0.76320 0.51490
C2 C 0.8165(3) 0.6652(2) 0.5351(3)
H3 H 0.78190 0.62990 0.59330
H4 H 0.81760 0.61440 0.47430
C3 C 0.9613(3) 0.7083(2) 0.5920(2)
C4 C 0.9647(2) 0.82439(19) 0.5624(2)
O1 O 1.0624(2) 0.66314(16) 0.65406(17)
C5 C 1.0298(3) 0.8855(2) 0.6757(2)
O2 O 1.13939(19) 0.93128(17) 0.70098(17)
O3 O 0.94899(19) 0.87501(17) 0.74305(16)
C6 C 1.0487(2) 0.8465(2) 0.4760(2)
H5 H 1.06830 0.92280 0.47930
C7 C 1.1911(2) 0.7914(2) 0.5153(2)
H6 H 1.23770 0.80360 0.59930
H7 H 1.17700 0.71560 0.50290
N2 N 1.2824(2) 0.83079(17) 0.44860(19)
O4 O 1.2735(2) 0.92103(16) 0.41893(19)
O5 O 1.3663(2) 0.76915(15) 0.42960(18)
C8 C 0.9646(3) 0.8212(2) 0.3513(2)
C9 C 0.9419(3) 0.7199(2) 0.3091(2)
H8 H 0.98460 0.66350 0.35810
C10 C 0.8578(3) 0.7010(3) 0.1964(3)
H9 H 0.84180 0.63150 0.16910
C11 C 0.7969(4) 0.7814(3) 0.1236(3)
H10 H 0.73860 0.76780 0.04640
C12 C 0.8212(4) 0.8821(3) 0.1635(3)
H11 H 0.78000 0.93810 0.11320
C13 C 0.9051(3) 0.9024(2) 0.2764(2)
H12 H 0.92200 0.97220 0.30270
C14 C 0.7733(2) 0.94883(19) 0.5034(2)
O6 O 0.85789(18) 1.01985(14) 0.53892(17)
C15 C 0.6176(2) 0.97273(19) 0.4446(2)
H13 H 0.56240 0.90650 0.43020
C16 C 0.6047(3) 1.0255(2) 0.3284(2)
H14 H 0.66730 1.08700 0.34320
H15 H 0.63740 0.97660 0.27950
C17 C 0.4568(3) 1.0595(2) 0.2626(2)
C18 C 0.3584(3) 0.9884(3) 0.2011(3)
H16 H 0.38490 0.91800 0.19700
C19 C 0.2202(4) 1.0192(4) 0.1450(3)
H17 H 0.15190 0.96960 0.10450
C20 C 0.1824(4) 1.1230(4) 0.1486(3)
H18 H 0.08860 1.14470 0.10970
C21 C 0.2800(4) 1.1928(4) 0.2079(3)
H19 H 0.25420 1.26360 0.21040
C22 C 0.4168(3) 1.1621(3) 0.2648(3)
H20 H 0.48410 1.21200 0.30590
N3 N 0.5668(2) 1.04029(16) 0.51778(18)
H21 H 0.55850 1.10740 0.50310
C23 C 0.5323(2) 1.0019(2) 0.6078(2)
O7 O 0.5406(2) 0.91134(15) 0.63640(17)
O8 O 0.4828(2) 1.07839(15) 0.65974(16)
C24 C 0.4619(3) 1.0549(3) 0.7689(3)
H22 H 0.47470 0.97940 0.78450
H23 H 0.36470 1.07350 0.76500
C25 C 0.5645(3) 1.1141(2) 0.8654(2)
C26 C 0.5567(4) 1.1086(4) 0.9759(3)
H24 H 0.48330 1.06960 0.98990
C27 C 0.6540(6) 1.1589(5) 1.0673(3)
H25 H 0.64690 1.15400 1.14330
C28 C 0.7594(7) 1.2148(4) 1.0491(4)
H26 H 0.82680 1.24820 1.11260
C29 C 0.7691(7) 1.2235(4) 0.9394(4)
H27 H 0.84180 1.26410 0.92620
C30 C 0.6720(5) 1.1727(4) 0.8478(3)
H28 H 0.67930 1.17810 0.77190
C31 C 0.9810(12) 0.9567(7) 0.8366(8)
H29 H 1.08200 0.95550 0.88320
H30 H 0.95670 1.02670 0.80250
C32 C 0.8921(6) 0.9289(5) 0.9095(5)
H31 H 0.90760 0.97930 0.97290
H32 H 0.79270 0.92990 0.86170
H33 H 0.91730 0.85920 0.94200
C33? C 0.9925(14) 0.9165(9) 0.8606(9)
H34? H 1.08900 0.94520 0.88230
H35? H 0.98890 0.86230 0.91750
C34? C 0.8854(8) 1.0014(7) 0.8542(7)
H36? H 0.90600 1.03460 0.93040
H37? H 0.89020 1.05330 0.79660
H38? H 0.79080 0.97110 0.83150
#END
