
#######################################################################
#
#                 Cambridge Crystallographic Data Centre
#                                CCDC
#
#######################################################################
#
# If this CIF has been generated from an entry in the Cambridge
# Structural Database, then it will include bibliographic, chemical,
# crystal, experimental, refinement or atomic coordinate data resulting
# from the CCDC's data processing and validation procedures.
#
#######################################################################

data_CSD_CIF_FARLAO
_audit_creation_date 2017-02-23
_audit_creation_method CSD-ConQuest-V1
_database_code_CSD FARLAO
_database_code_depnum_ccdc_archive 'CCDC 1407563'
_chemical_formula_sum 'C21 H28 N2 O7'
_chemical_formula_moiety
;
C21 H28 N2 O7
;
_journal_coden_Cambridge 119
_journal_volume 1122
_journal_year 2016
_journal_page_first 37
_journal_name_full 'J.Mol.Struct. '
loop_
_publ_author_name
"M.Samipillai"
"N.Bhatt"
"T.Govender"
"T.Naicker"
_chemical_name_systematic
;
1-t-butyl 2-ethyl 
2-(1-(4-methylphenyl)-2-nitroethyl)-3-oxopyrrolidine-1,2-dicarboxylate
;
_cell_volume   2211.143
_exptl_crystal_colour 'colorless'
_exptl_crystal_density_diffrn 1.263
_exptl_crystal_description 'block'
_diffrn_ambient_temperature 173
_refine_special_details
;
C10C,C11C,O9C and C10D,C11D,O9D disordered over two sites with occupancies 
0.57:0.43; C10E,C11E,O9E and C10F,C11F,O9F disordered over two sites with 
occupancies 0.70:0.30.
;
#These two values have been output from a single CSD field.
_refine_ls_R_factor_gt 0.07
_refine_ls_wR_factor_gt 0.07
_symmetry_cell_setting triclinic
_symmetry_space_group_name_H-M 'P -1'
_symmetry_Int_Tables_number 2
loop_
_symmetry_equiv_pos_site_id
_symmetry_equiv_pos_as_xyz
1 x,y,z
2 -x,-y,-z
_cell_length_a 10.8869(13)
_cell_length_b 11.8423(14)
_cell_length_c 17.175(2)
_cell_angle_alpha 90.371(2)
_cell_angle_beta 90.589(2)
_cell_angle_gamma 92.977(2)
_cell_formula_units_Z 4
loop_
_atom_type_symbol
_atom_type_radius_bond
C 0.68
H 0.23
N 0.68
O 0.68
loop_
_atom_site_label
_atom_site_type_symbol
_atom_site_fract_x
_atom_site_fract_y
_atom_site_fract_z
N1 N 0.01477(19) 0.95231(17) 0.23357(11)
C1 C -0.1066(3) 0.9711(3) 0.20173(15)
H1 H -0.13770 0.90490 0.17040
H2 H -0.10390 1.03880 0.16820
C2 C -0.1871(3) 0.9879(3) 0.27040(16)
H3 H -0.22730 1.06080 0.26640
H4 H -0.25180 0.92620 0.27320
C3 C -0.1057(3) 0.9876(2) 0.34093(14)
C4 C 0.0292(2) 0.9751(2) 0.31608(13)
O1 O -0.1367(2) 0.9955(2) 0.40737(11)
C5 C 0.0751(3) 0.8710(3) 0.35915(15)
O2 O 0.1522(3) 0.8742(2) 0.40906(12)
C6 C 0.1146(3) 1.0814(2) 0.33327(14)
H5 H 0.20110 1.05910 0.32630
C7 C 0.1032(4) 1.1222(3) 0.41789(16)
H6 H 0.02020 1.15020 0.42620
H7 H 0.11450 1.05850 0.45390
N2 N 0.1983(5) 1.2145(3) 0.4344(2)
O3 O 0.1674(5) 1.2962(3) 0.4688(3)
O4 O 0.3018(4) 1.2038(4) 0.4149(2)
C8 C 0.0919(2) 1.1736(2) 0.27451(14)
C9 C 0.1692(3) 1.1874(2) 0.21163(16)
H8 H 0.23910 1.14300 0.20780
C10 C 0.1464(3) 1.2652(2) 0.15404(16)
H9 H 0.20100 1.27300 0.11140
C11 C 0.0462(3) 1.3314(2) 0.15745(16)
C12 C -0.0307(3) 1.3176(2) 0.2204(2)
H10 H -0.10060 1.36200 0.22390
C13 C -0.0085(3) 1.2407(2) 0.27829(18)
H11 H -0.06270 1.23370 0.32120
C14 C 0.0224(4) 1.4174(3) 0.0951(2)
H12 H -0.06630 1.42560 0.08970
H13 H 0.05530 1.39180 0.04550
H14 H 0.06290 1.49040 0.10980
C15 C 0.1097(2) 0.9155(2) 0.19215(14)
O5 O 0.2077(2) 0.8949(2) 0.22171(12)
O6 O 0.07859(17) 0.90602(15) 0.11703(9)
C16 C 0.1612(3) 0.8545(2) 0.06121(14)
C17 C 0.1805(4) 0.7344(2) 0.08397(19)
H15 H 0.22660 0.73370 0.13330
H16 H 0.22690 0.69750 0.04330
H17 H 0.10050 0.69380 0.09020
C18 C 0.0870(3) 0.8579(3) -0.01370(15)
H18 H 0.00480 0.82260 -0.00550
H19 H 0.12840 0.81660 -0.05460
H20 H 0.07970 0.93660 -0.02950
C19 C 0.2795(4) 0.9251(3) 0.0563(2)
H21 H 0.26150 1.00340 0.04440
H22 H 0.33050 0.89510 0.01510
H23 H 0.32370 0.92290 0.10630
O7 O 0.0317(9) 0.7781(6) 0.3283(4)
C20 C 0.0749(13) 0.6757(6) 0.3612(5)
H24 H 0.04850 0.66780 0.41590
H25 H 0.16590 0.67640 0.35980
C21 C 0.0186(7) 0.5784(5) 0.3116(8)
H26 H 0.04550 0.50640 0.33180
H27 H -0.07130 0.57890 0.31350
H28 H 0.04550 0.58740 0.25760
O8? O -0.0157(13) 0.7814(8) 0.3444(7)
C22? C 0.0025(18) 0.6734(7) 0.3815(7)
H29? H 0.03790 0.68730 0.43420
H30? H -0.07840 0.63230 0.38740
C23? C 0.079(2) 0.6066(14) 0.3403(7)
H31? H 0.08740 0.53520 0.36790
H32? H 0.04320 0.59090 0.28850
H33? H 0.15950 0.64590 0.33520
N3 N 0.51097(19) 0.44946(17) 0.26386(11)
C24 C 0.3955(3) 0.4809(3) 0.29669(16)
H34 H 0.40800 0.54820 0.33090
H35 H 0.35750 0.41800 0.32730
C25 C 0.3159(3) 0.5067(3) 0.22744(16)
H36 H 0.24430 0.45180 0.22380
H37 H 0.28540 0.58370 0.23220
C26 C 0.3942(3) 0.4983(2) 0.15701(14)
C27 C 0.5257(2) 0.4729(2) 0.18174(13)
O9 O 0.3625(2) 0.50806(18) 0.09056(11)
C28 C 0.5612(3) 0.3670(2) 0.13677(14)
O10 O 0.6405(2) 0.36435(18) 0.08998(11)
C29 C 0.6195(3) 0.5755(2) 0.16821(13)
H38 H 0.70370 0.54880 0.17900
C30 C 0.6170(4) 0.6157(3) 0.08352(16)
H39 H 0.62640 0.55100 0.04770
H40 H 0.53740 0.64900 0.07180
N4 N 0.7204(4) 0.7025(3) 0.07256(17)
O11 O 0.6954(4) 0.7858(3) 0.0373(2)
O12 O 0.8217(3) 0.6855(3) 0.0980(2)
C31 C 0.5976(2) 0.6697(2) 0.22595(13)
C32 C 0.5066(3) 0.7450(2) 0.21613(18)
H41 H 0.45980 0.74350 0.16910
C33 C 0.4822(3) 0.8231(2) 0.2740(2)
H42 H 0.41810 0.87320 0.26570
C34 C 0.5473(3) 0.8298(2) 0.34202(17)
C35 C 0.6398(3) 0.7552(2) 0.35165(16)
H43 H 0.68740 0.75770 0.39840
C36 C 0.6641(2) 0.6774(2) 0.29483(15)
H44 H 0.72840 0.62750 0.30320
C37 C 0.5216(4) 0.9159(3) 0.4039(2)
H45 H 0.56100 0.98920 0.39000
H46 H 0.55460 0.89160 0.45400
H47 H 0.43260 0.92300 0.40790
C38 C 0.6033(2) 0.4053(2) 0.30497(13)
O13 O 0.69651(18) 0.3760(2) 0.27517(11)
O14 O 0.57528(17) 0.39998(15) 0.38042(9)
C39 C 0.6591(3) 0.3482(2) 0.43624(14)
C40 C 0.5904(3) 0.3600(3) 0.51192(15)
H48 H 0.58560 0.44030 0.52500
H49 H 0.63410 0.32210 0.55370
H50 H 0.50720 0.32520 0.50610
C41 C 0.6702(4) 0.2257(3) 0.41523(18)
H51 H 0.58790 0.18930 0.40820
H52 H 0.71380 0.18800 0.45710
H53 H 0.71610 0.22010 0.36670
C42 C 0.7812(3) 0.4138(3) 0.4387(2)
H54 H 0.82160 0.40710 0.38830
H55 H 0.83320 0.38350 0.47960
H56 H 0.76820 0.49360 0.44970
O15 O 0.4777(5) 0.2827(5) 0.1523(4)
C43 C 0.4936(5) 0.1756(5) 0.1142(4)
H57 H 0.52370 0.18860 0.06060
H58 H 0.41360 0.13210 0.11070
C44 C 0.5853(10) 0.1088(6) 0.1597(4)
H59 H 0.59560 0.03620 0.13350
H60 H 0.66460 0.15180 0.16250
H61 H 0.55470 0.09530 0.21250
O16? O 0.519(3) 0.2749(15) 0.1691(11)
C45? C 0.552(4) 0.1679(16) 0.135(1)
H62? H 0.50650 0.15390 0.08520
H63? H 0.64090 0.16950 0.12460
C46? C 0.521(3) 0.0861(15) 0.1863(15)
H64? H 0.54200 0.01270 0.16500
H65? H 0.56630 0.10080 0.23520
H66? H 0.43240 0.08530 0.19600
#END
