
#######################################################################
#
#                 Cambridge Crystallographic Data Centre
#                                CCDC
#
#######################################################################
#
# If this CIF has been generated from an entry in the Cambridge
# Structural Database, then it will include bibliographic, chemical,
# crystal, experimental, refinement or atomic coordinate data resulting
# from the CCDC's data processing and validation procedures.
#
#######################################################################

data_CSD_CIF_FASDEJ
_audit_creation_date 2005-04-18
_audit_creation_method CSD-ConQuest-V1
_database_code_CSD FASDEJ
_chemical_formula_sum 'C25 H26 N2 O6'
_chemical_formula_moiety
;
C25 H26 N2 O6
;
_journal_coden_Cambridge 471
_journal_volume 20
_journal_year 2004
_journal_page_first x19
_journal_name_full 'Anal.Sci.:X-Ray Struct.Anal.Online '
loop_
_publ_author_name
"M.Mahendra"
"B.H.Doreswamy"
"A.R.Parecha"
"J.A.Patel"
"A.Shah"
"M.A.Sridhar"
"J.S.Prasad"
_chemical_name_systematic
;
N-Phenyl-3,5-bis(ethoxycarbonyl)-2,6-dimethyl-4-(3-nitrophenyl)-1,4-dihydropyr
idine
;
_chemical_melting_point 411.15
_cell_volume   1173.810
_exptl_crystal_density_diffrn 1.275
_exptl_crystal_preparation 'ethyl acetate'
_diffrn_ambient_temperature ?
_diffrn_special_details
;
The study was carried out at room temperature,in the range 283-303K

;
#These two values have been output from a single CSD field.
_refine_ls_R_factor_gt 0.0595
_refine_ls_wR_factor_gt 0.0595
_symmetry_cell_setting triclinic
_symmetry_space_group_name_H-M 'P -1'
_symmetry_Int_Tables_number 2
loop_
_symmetry_equiv_pos_site_id
_symmetry_equiv_pos_as_xyz
1 x,y,z
2 -x,-y,-z
_cell_length_a 9.5930(9)
_cell_length_b 10.0270(9)
_cell_length_c 13.8990(7)
_cell_angle_alpha 91.779(5)
_cell_angle_beta 102.621(5)
_cell_angle_gamma 114.711(2)
_cell_formula_units_Z 2
loop_
_atom_type_symbol
_atom_type_radius_bond
C 0.68
N 0.68
O 0.68
loop_
_atom_site_label
_atom_site_type_symbol
_atom_site_fract_x
_atom_site_fract_y
_atom_site_fract_z
C1 C 1.1723(4) 0.3980(4) 0.3222(2)
C2 C 1.0841(4) 0.4550(3) 0.2619(3)
C3 C 1.0052(3) 0.3897(3) 0.1635(2)
C4 C 1.0183(2) 0.2673(2) 0.12707(17)
C5 C 1.1097(3) 0.2115(3) 0.1878(2)
C6 C 1.1861(4) 0.2759(4) 0.2846(3)
N1 N 0.9358(2) 0.19665(19) 0.02611(14)
C7 C 1.0118(2) 0.2443(2) -0.05041(16)
C8 C 1.1830(3) 0.3567(3) -0.0167(2)
C9 C 0.9315(2) 0.1863(2) -0.14604(15)
C10 C 1.0106(3) 0.2205(3) -0.22817(18)
O1 O 1.1375(3) 0.3188(3) -0.2267(2)
O2 O 0.9203(3) 0.1244(3) -0.31033(19)
C11 C 0.9824(5) 0.1345(7) -0.3965(3)
C12 C 0.9209(11) 0.2130(12) -0.4682(5)
C13 C 0.7557(2) 0.08211(19) -0.17330(14)
C14 C 0.7108(2) 0.0034(2) -0.08563(16)
C15 C 0.5705(2) -0.1422(2) -0.10830(19)
O3 O 0.5163(3) -0.2232(2) -0.04970(19)
O4 O 0.5095(2) -0.18241(19) -0.20632(16)
C16 C 0.3788(4) -0.3287(4) -0.2378(3)
C17 C 0.3388(8) -0.3581(6) -0.3460(5)
C18 C 0.7936(2) 0.0662(2) 0.00908(17)
C19 C 0.7433(3) 0.0079(3) 0.1004(2)
C20 C 0.65570(19) 0.16445(18) -0.20934(15)
C21 C 0.5862(2) 0.1498(2) -0.30988(16)
C22 C 0.4953(2) 0.2255(3) -0.34011(18)
N2 N 0.4231(3) 0.2115(4) -0.4464(2)
O5 O 0.3416(6) 0.2743(7) -0.4724(3)
O6 O 0.4416(5) 0.1319(5) -0.5061(2)
C23 C 0.4690(2) 0.3128(2) -0.2741(2)
C24 C 0.5377(3) 0.3256(2) -0.17436(18)
C25 C 0.6315(2) 0.2533(2) -0.14214(15)
#END
