
#######################################################################
#
#                 Cambridge Crystallographic Data Centre
#                                CCDC
#
#######################################################################
#
# If this CIF has been generated from an entry in the Cambridge
# Structural Database, then it will include bibliographic, chemical,
# crystal, experimental, refinement or atomic coordinate data resulting
# from the CCDC's data processing and validation procedures.
#
#######################################################################

data_CSD_CIF_FASLAN
_audit_creation_date 2005-04-18
_audit_creation_method CSD-ConQuest-V1
_database_code_CSD FASLAN
_database_code_depnum_ccdc_archive 'CCDC 205620'
_chemical_formula_sum 'C22 H31 N1 O1'
_chemical_formula_moiety
;
C22 H31 N1 O1
;
_journal_coden_Cambridge 206
_journal_volume 34
_journal_year 2004
_journal_page_first 2433
_journal_name_full 'Synth.Commun. '
loop_
_publ_author_name
"R.Braslau"
"V.Chaplinski"
"A.Nilsen"
"N.Arulsamy"
_chemical_name_systematic
;
rac-(R,S)-2,2,5-Trimethyl-3-(1-phenylethoxy)-4-phenyl-3-azahexane
;
_cell_volume   4013.769
_exptl_crystal_colour 'colorless'
_exptl_crystal_density_diffrn 1.077
_exptl_crystal_description 'Rectangular Prism'
_diffrn_ambient_temperature 298
#These two values have been output from a single CSD field.
_refine_ls_R_factor_gt 0.0837
_refine_ls_wR_factor_gt 0.0837
_symmetry_cell_setting orthorhombic
_symmetry_space_group_name_H-M 'P 21 21 21'
_symmetry_Int_Tables_number 19
loop_
_symmetry_equiv_pos_site_id
_symmetry_equiv_pos_as_xyz
1 x,y,z
2 1/2-x,-y,1/2+z
3 -x,1/2+y,1/2-z
4 1/2+x,1/2-y,-z
_cell_length_a 9.724(4)
_cell_length_b 15.047(10)
_cell_length_c 27.432(10)
_cell_angle_alpha 90
_cell_angle_beta 90
_cell_angle_gamma 90
_cell_formula_units_Z 8
loop_
_atom_type_symbol
_atom_type_radius_bond
C 0.68
H 0.23
N 0.68
O 0.68
loop_
_atom_site_label
_atom_site_type_symbol
_atom_site_fract_x
_atom_site_fract_y
_atom_site_fract_z
O1 O 1.1105(6) 0.3620(4) 0.6220(2)
N1 N 1.0226(8) 0.3620(5) 0.6653(2)
C1 C 0.9388(11) 0.2780(7) 0.6638(3)
C2 C 1.0360(11) 0.1986(6) 0.6704(3)
H1 H 1.09620 0.19440 0.64270
H2 H 0.98310 0.14500 0.67310
H3 H 1.08960 0.20670 0.69940
C3 C 0.8401(12) 0.2812(7) 0.7081(4)
H4 H 0.77820 0.33050 0.70460
H5 H 0.89250 0.28820 0.73750
H6 H 0.78830 0.22700 0.70970
C4 C 0.8529(12) 0.2668(8) 0.6175(4)
H7 H 0.91280 0.26260 0.58980
H8 H 0.79320 0.31710 0.61370
H9 H 0.79880 0.21360 0.62000
C5 C 0.9478(9) 0.4481(6) 0.6670(3)
H10 H 0.87040 0.43910 0.68930
C6 C 1.0378(11) 0.5207(7) 0.6904(3)
H11 H 1.11620 0.53260 0.66900
C7 C 1.0924(13) 0.4908(8) 0.7404(3)
H12 H 1.14440 0.43700 0.73670
H13 H 1.01650 0.48040 0.76200
H14 H 1.15050 0.53640 0.75370
C8 C 0.9534(13) 0.6067(7) 0.6961(4)
H15 H 0.91880 0.62470 0.66480
H16 H 1.01090 0.65280 0.70910
H17 H 0.87770 0.59630 0.71780
C9 C 0.8850(11) 0.4822(7) 0.6193(4)
C10 C 0.9594(14) 0.5149(7) 0.5800(4)
H18 H 1.05490 0.51100 0.58090
C11 C 0.8973(15) 0.5533(8) 0.5395(4)
H19 H 0.95110 0.57600 0.51450
C12 C 0.7564(17) 0.5576(9) 0.5365(6)
H20 H 0.71350 0.58010 0.50890
C13 C 0.6792(15) 0.5271(9) 0.5762(5)
H21 H 0.58390 0.53260 0.57570
C14 C 0.7430(11) 0.4889(8) 0.6160(5)
H22 H 0.68910 0.46710 0.64130
C15 C 1.2534(10) 0.3431(6) 0.6331(4)
H23 H 1.25760 0.31220 0.66450
C16 C 1.3384(11) 0.4278(7) 0.6368(4)
H24 H 1.30320 0.46420 0.66260
H25 H 1.33310 0.45980 0.60650
H26 H 1.43250 0.41280 0.64340
C17 C 1.3135(13) 0.2818(6) 0.5937(3)
C18 C 1.4519(12) 0.2548(7) 0.5957(4)
H27 H 1.50970 0.27480 0.62040
C19 C 1.4993(13) 0.1985(7) 0.5605(4)
H28 H 1.58870 0.17710 0.56310
C20 C 1.4218(13) 0.1722(8) 0.5218(4)
H29 H 1.45950 0.13660 0.49750
C21 C 1.2868(13) 0.1991(7) 0.5191(4)
H30 H 1.23280 0.18050 0.49300
C22 C 1.2303(11) 0.2530(7) 0.5542(3)
H31 H 1.13880 0.27050 0.55210
O2 O 1.3909(6) 0.3859(4) 0.8790(2)
N2 N 1.4772(8) 0.3862(5) 0.8349(3)
C23 C 1.5615(11) 0.4698(6) 0.8362(4)
C24 C 1.6565(13) 0.4678(7) 0.7908(4)
H32 H 1.72160 0.42020 0.79400
H33 H 1.70460 0.52330 0.78820
H34 H 1.60200 0.45860 0.76210
C25 C 1.4625(12) 0.5469(6) 0.8303(4)
H35 H 1.40320 0.55000 0.85820
H36 H 1.40810 0.53820 0.80140
H37 H 1.51340 0.60130 0.82740
C26 C 1.6455(11) 0.4828(7) 0.8828(4)
H38 H 1.58500 0.48300 0.91050
H39 H 1.69370 0.53840 0.88120
H40 H 1.71060 0.43520 0.88610
C27 C 1.556(1) 0.3010(6) 0.8348(3)
H41 H 1.63180 0.31050 0.81190
C28 C 1.4684(11) 0.2275(6) 0.8120(3)
H42 H 1.38930 0.21690 0.83340
C29 C 1.5494(13) 0.1399(6) 0.8078(4)
H43 H 1.58200 0.12260 0.83940
H44 H 1.62620 0.14820 0.78630
H45 H 1.49050 0.09430 0.79500
C30 C 1.4140(13) 0.2519(7) 0.7620(3)
H46 H 1.35790 0.30420 0.76440
H47 H 1.36000 0.20370 0.74940
H48 H 1.48980 0.26320 0.74040
C31 C 1.6252(12) 0.2707(7) 0.8828(4)
C32 C 1.5481(13) 0.2439(8) 0.9221(4)
H49 H 1.45280 0.24830 0.92040
C33 C 1.6089(16) 0.2100(9) 0.9649(5)
H50 H 1.55610 0.19130 0.99130
C34 C 1.7510(18) 0.2059(9) 0.9657(5)
H51 H 1.79430 0.18370 0.99340
C35 C 1.8284(14) 0.2325(9) 0.9281(5)
H52 H 1.92370 0.23090 0.93050
C36 C 1.7671(12) 0.2624(8) 0.8858(4)
H53 H 1.82150 0.27720 0.85910
C37 C 1.2491(10) 0.4045(7) 0.8677(3)
H54 H 1.24400 0.43740 0.83690
C38 C 1.1704(12) 0.3181(7) 0.8628(5)
H55 H 1.20770 0.28420 0.83630
H56 H 1.07530 0.33070 0.85650
H57 H 1.17830 0.28470 0.89250
C39 C 1.1933(10) 0.4614(6) 0.9083(3)
C40 C 1.0593(12) 0.4917(8) 0.9061(5)
H58 H 1.00730 0.47830 0.87860
C41 C 0.9985(12) 0.5409(7) 0.9429(4)
H59 H 0.90570 0.55570 0.94130
C42 C 1.0775(13) 0.5674(8) 0.9818(5)
H60 H 1.03930 0.60280 1.00610
C43 C 1.2129(15) 0.5415(8) 0.9849(4)
H61 H 1.26710 0.55940 1.01110
C44 C 1.2682(11) 0.4873(7) 0.9477(4)
H62 H 1.35910 0.46870 0.95020
#END
