
#######################################################################
#
#                 Cambridge Crystallographic Data Centre
#                                CCDC
#
#######################################################################
#
# If this CIF has been generated from an entry in the Cambridge
# Structural Database, then it will include bibliographic, chemical,
# crystal, experimental, refinement or atomic coordinate data resulting
# from the CCDC's data processing and validation procedures.
#
#######################################################################

data_CSD_CIF_FASNOF
_audit_creation_date 2017-02-23
_audit_creation_method CSD-ConQuest-V1
_database_code_CSD FASNOF
_database_code_depnum_ccdc_archive 'CCDC 891200'
_chemical_formula_sum 'C32 H36 N6 O5'
_chemical_formula_moiety
;
C32 H36 N6 O5
;
_journal_coden_Cambridge 1057
_journal_volume 17
_journal_year 2017
_journal_page_first 1
_journal_name_full 'Curr.Top.Med.Chem. '
loop_
_publ_author_name
"A.Carrieri"
"E.Lacivita"
"B.D.Belviso"
"R.Caliandro"
"P.Mastrorilli"
"V.Gallo"
"M.Niso"
"M.Leopoldo"
_chemical_name_systematic
;
(2S)-3-(1H-indol-3-yl)-N-([1-(5-methoxypyridin-2-yl)cyclohexyl]methyl)-2-methy
l-2-([(4-nitrophenyl)carbamoyl]amino)propanamide
;
_cell_volume   3067.486
_exptl_crystal_colour 'yellow'
_exptl_crystal_density_diffrn 1.266
_exptl_crystal_description 'block'
_diffrn_ambient_temperature 293
#These two values have been output from a single CSD field.
_refine_ls_R_factor_gt 0.0482
_refine_ls_wR_factor_gt 0.0482
_symmetry_cell_setting orthorhombic
_symmetry_space_group_name_H-M 'P 21 21 21'
_symmetry_Int_Tables_number 19
loop_
_symmetry_equiv_pos_site_id
_symmetry_equiv_pos_as_xyz
1 x,y,z
2 1/2-x,-y,1/2+z
3 1/2+x,1/2-y,-z
4 -x,1/2+y,1/2-z
_cell_length_a 12.4170(18)
_cell_length_b 13.8950(8)
_cell_length_c 17.779(3)
_cell_angle_alpha 90
_cell_angle_beta 90
_cell_angle_gamma 90
_cell_formula_units_Z 4
loop_
_atom_type_symbol
_atom_type_radius_bond
C 0.68
H 0.23
N 0.68
O 0.68
loop_
_atom_site_label
_atom_site_type_symbol
_atom_site_fract_x
_atom_site_fract_y
_atom_site_fract_z
C1 C 0.9403(3) 0.27819(17) 0.53140(14)
C2 C 0.8468(3) 0.32588(18) 0.54765(14)
H1 H 0.78360 0.29130 0.55520
C3 C 0.8458(2) 0.42466(16) 0.55297(13)
H2 H 0.78210 0.45690 0.56400
C4 C 0.94087(18) 0.47628(14) 0.54181(12)
C5 C 1.0353(2) 0.42606(18) 0.52612(16)
H3 H 1.09950 0.45960 0.51960
C6 C 1.0348(3) 0.3270(2) 0.52018(17)
H4 H 1.09770 0.29390 0.50870
C7 C 0.86452(16) 0.64039(14) 0.55560(11)
C8 C 0.7760(2) 0.8316(2) 0.61483(16)
C9 C 0.81049(16) 0.80880(14) 0.53463(12)
C10 C 0.71288(16) 0.78183(14) 0.48642(12)
C11 C 0.65087(18) 0.69204(16) 0.37409(13)
H5 H 0.64370 0.74220 0.33650
H6 H 0.58140 0.68350 0.39810
C12 C 0.68451(18) 0.59727(16) 0.33547(12)
C13 C 0.5955(2) 0.5742(2) 0.27738(14)
H7 H 0.52590 0.58000 0.30180
H8 H 0.59840 0.62180 0.23750
C14 C 0.6039(3) 0.4748(2) 0.24260(16)
H9 H 0.66730 0.47210 0.21080
H10 H 0.54130 0.46340 0.21120
C15 C 0.6111(3) 0.3957(2) 0.30229(19)
H11 H 0.54330 0.39170 0.32920
H12 H 0.62390 0.33430 0.27800
C16 C 0.7016(3) 0.41657(18) 0.35753(17)
H13 H 0.77010 0.41370 0.33150
H14 H 0.70190 0.36780 0.39660
C17 C 0.86352(18) 0.90017(14) 0.50021(14)
H15 H 0.80840 0.94940 0.49650
H16 H 0.91700 0.92330 0.53570
C18 C 0.6880(2) 0.51558(16) 0.39319(14)
H17 H 0.74730 0.52690 0.42760
H18 H 0.62190 0.51630 0.42220
C19 C 0.79585(19) 0.61159(17) 0.29977(12)
C20 C 0.91663(17) 0.89199(14) 0.42511(14)
C21 C 1.0248(2) 0.88168(17) 0.41467(17)
H19 H 1.07520 0.87620 0.45310
C22 C 0.8153(2) 0.6219(2) 0.22493(13)
H20 H 0.75870 0.61820 0.19080
C23 C 0.9206(2) 0.6381(2) 0.19897(14)
H21 H 0.93460 0.64400 0.14780
C24 C 0.9549(3) 0.89115(18) 0.29924(16)
C25 C 0.9381(3) 0.8966(2) 0.2225(2)
H22 H 0.99510 0.89100 0.18890
C26 C 0.8351(4) 0.9106(2) 0.1976(2)
H23 H 0.82220 0.91390 0.14620
C27 C 0.7493(3) 0.9200(2) 0.2473(2)
H24 H 0.68040 0.93040 0.22850
C28 C 0.7648(2) 0.91417(18) 0.32416(17)
H25 H 0.70710 0.92020 0.35710
C29 C 0.86973(19) 0.89893(15) 0.35154(15)
C30 C 1.0016(2) 0.64510(18) 0.25014(16)
C31 C 0.9771(2) 0.63449(19) 0.32450(14)
H26 H 1.03250 0.63980 0.35950
C32 C 1.1397(3) 0.6661(2) 0.15907(17)
H27 H 1.21570 0.67780 0.15610
H28 H 1.10160 0.71650 0.13340
H29 H 1.12330 0.60540 0.13590
N1 N 0.94772(15) 0.57555(12) 0.54488(10)
N2 N 0.9397(4) 0.17333(19) 0.52411(16)
N3 N 0.89008(15) 0.73093(12) 0.53405(10)
N4 N 0.73012(16) 0.72161(13) 0.43041(10)
N5 N 0.87831(15) 0.61698(15) 0.34953(11)
N6 N 1.0483(2) 0.88064(17) 0.34014(17)
O1 O 1.0228(3) 0.13310(17) 0.50380(16)
O2 O 0.8546(3) 0.13185(17) 0.53690(19)
O3 O 0.77671(12) 0.61808(11) 0.58165(9)
O4 O 0.62422(11) 0.82001(11) 0.49930(9)
O5 O 1.10815(15) 0.66399(17) 0.23425(11)
H30 H 1.0103(18) 0.6020(15) 0.5294(12)
H31 H 0.796(2) 0.7012(17) 0.4224(13)
H32 H 0.9485(19) 0.7418(16) 0.5113(13)
H33 H 1.112(2) 0.875(2) 0.3206(16)
H34 H 0.730(2) 0.887(2) 0.6129(14)
H35 H 0.732(2) 0.778(2) 0.6395(16)
H36 H 0.839(2) 0.8487(19) 0.6453(15)
#END
