
#######################################################################
#
#                 Cambridge Crystallographic Data Centre
#                                CCDC
#
#######################################################################
#
# If this CIF has been generated from an entry in the Cambridge
# Structural Database, then it will include bibliographic, chemical,
# crystal, experimental, refinement or atomic coordinate data resulting
# from the CCDC's data processing and validation procedures.
#
#######################################################################

data_CSD_CIF_FASPOE
_audit_creation_date 1987-10-26
_audit_creation_method CSD-ConQuest-V1
_database_code_CSD FASPOE
_database_code_depnum_ccdc_archive 'CCDC 1152757'
_chemical_formula_sum 'C21 H26 N4 O6'
_chemical_formula_moiety
;
C21 H26 N4 O6
;
_journal_coden_Cambridge 207
_journal_year 1987
_journal_page_first 137
_journal_name_full 'J.Chem.Soc.,Perkin Trans.1 '
loop_
_publ_author_name
"E.H.Evans"
"A.T.Hewson"
"L.A.March"
"I.W.Nowell"
"A.H.Wadsworth"
_chemical_name_systematic
;
Ethyl 
syn-9-formylmethyl-4-methylbicyclo(3.3.1)non-3-ene-1-carboxylate-2,4-dinitroph
enylhydrazone
;
_chemical_melting_point 429.15
_cell_volume   1079.868
_exptl_crystal_density_diffrn 1.32
_exptl_special_details
;
Melting point range 429.15-431.15K

;
_diffrn_ambient_temperature ?
_diffrn_special_details
;
The study was carried out at room temperature,in the range 283-303K

;
#These two values have been output from a single CSD field.
_refine_ls_R_factor_gt 0.054
_refine_ls_wR_factor_gt 0.054
_symmetry_cell_setting triclinic
_symmetry_space_group_name_H-M 'P -1'
_symmetry_Int_Tables_number 2
loop_
_symmetry_equiv_pos_site_id
_symmetry_equiv_pos_as_xyz
1 x,y,z
2 -x,-y,-z
_cell_length_a 16.456(6)
_cell_length_b 9.266(4)
_cell_length_c 7.220(3)
_cell_angle_alpha 94.8(1)
_cell_angle_beta 89.8(1)
_cell_angle_gamma 79.9(1)
_cell_formula_units_Z 2
loop_
_atom_type_symbol
_atom_type_radius_bond
C 0.68
H 0.23
N 0.68
O 0.68
loop_
_atom_site_label
_atom_site_type_symbol
_atom_site_fract_x
_atom_site_fract_y
_atom_site_fract_z
O1 O -0.1044(3) 0.7334(4) 0.3759(8)
O2 O -0.1900(2) 0.9431(4) 0.4614(6)
O3 O -0.0233(3) 1.4212(4) 0.2140(8)
O4 O -0.1426(3) 1.4054(4) 0.3316(7)
O5 O 0.2334(2) 0.0904(4) 0.0121(6)
O6 O 0.3682(2) -0.0168(4) -0.0692(6)
N1 N 0.0448(2) 0.7238(4) 0.2349(7)
N2 N 0.1266(3) 0.6594(4) 0.1618(7)
N3 N -0.1228(3) 0.8705(5) 0.3846(8)
N4 N -0.0712(4) 1.3493(5) 0.2688(8)
C1 C 0.0176(3) 0.8736(5) 0.2431(8)
C2 C -0.0650(3) 0.9500(5) 0.3160(8)
C3 C -0.0923(3) 1.1043(6) 0.3205(8)
C4 C -0.0404(3) 1.1867(5) 0.2637(8)
C5 C 0.0416(3) 1.1197(6) 0.1968(8)
C6 C 0.0692(3) 0.9656(5) 0.1901(8)
C7 C 0.1471(3) 0.5171(6) 0.1607(9)
C8 C 0.2301(3) 0.4232(5) 0.0842(9)
C9 C 0.2737(3) 0.3250(5) 0.2355(8)
C10 C 0.3432(3) 0.1894(5) 0.1597(8)
C11 C 0.3762(3) 0.0921(6) 0.3222(8)
C12 C 0.4070(4) 0.1787(6) 0.4844(8)
C13 C 0.3416(4) 0.3243(6) 0.5461(9)
C14 C 0.3134(3) 0.4153(6) 0.3803(9)
C15 C 0.3860(3) 0.4637(6) 0.2934(10)
C16 C 0.4314(3) 0.3799(6) 0.1504(9)
C17 C 0.4140(3) 0.2400(5) 0.0608(8)
C18 C 0.4063(4) 0.6059(6) 0.3776(10)
C19 C 0.3069(3) 0.0865(5) 0.0293(9)
C20 C 0.3434(4) -0.1255(6) -0.1954(9)
C21 C 0.3200(4) -0.2492(6) -0.0984(10)
H1 H -0.15380 1.15350 0.36910
H2 H 0.08280 1.18880 0.15070
H3 H 0.13150 0.91970 0.14290
H4 H -0.00270 0.65050 0.24650
H5 H 0.10260 0.45900 0.21780
H6 H 0.21790 0.35290 -0.03560
H7 H 0.27040 0.49590 0.04390
H8 H 0.22360 0.28010 0.29210
H9 H 0.42630 0.00750 0.26820
H10 H 0.32660 0.04160 0.37070
H11 H 0.41690 0.11120 0.59990
H12 H 0.46460 0.20970 0.44520
H13 H 0.36970 0.39180 0.64730
H14 H 0.28820 0.29280 0.60810
H15 H 0.26900 0.51040 0.43200
H16 H 0.48430 0.42000 0.09910
H17 H 0.39770 0.25480 -0.08200
H18 H 0.46880 0.15680 0.06460
H19 H 0.36190 0.65120 0.48720
H20 H 0.40400 0.68250 0.27210
H21 H 0.46740 0.58660 0.43440
H22 H 0.29080 -0.07530 -0.27090
H23 H 0.39380 -0.16920 -0.29170
H24 H 0.30150 -0.32920 -0.19970
H25 H 0.26930 -0.20690 -0.00230
H26 H 0.37220 -0.30080 -0.02310
#END
