
#######################################################################
#
#                 Cambridge Crystallographic Data Centre
#                                CCDC
#
#######################################################################
#
# If this CIF has been generated from an entry in the Cambridge
# Structural Database, then it will include bibliographic, chemical,
# crystal, experimental, refinement or atomic coordinate data resulting
# from the CCDC's data processing and validation procedures.
#
#######################################################################

data_CSD_CIF_FASTUQ
_audit_creation_date 2012-11-07
_audit_creation_method CSD-ConQuest-V1
_database_code_CSD FASTUQ
_database_code_depnum_ccdc_archive 'CCDC 887261'
_database_code_depnum_ccdc_journal 1267/3740
_chemical_formula_sum 'C18 H26 N8 O2'
_chemical_formula_moiety
;
C18 H26 N8 O2
;
_journal_coden_Cambridge 1267
_journal_volume 227
_journal_year 2012
_journal_page_first 253
_journal_name_full 'Z.Kristallogr.-New Cryst.Struct. '
loop_
_publ_author_name
"Xiao-Ru Pan"
_chemical_name_systematic
;
N,N,N',N'-Tetraethyl-6-(2-(4-nitrobenzylidene)hydrazino)-1,3,5-triazine-2,4-di
amine
;
_cell_volume   2113.256
_exptl_crystal_colour 'yellow'
_exptl_crystal_density_diffrn 1.215
_exptl_crystal_description 'block'
_exptl_crystal_preparation 'ethanol/acetone'
_diffrn_ambient_temperature 293
#These two values have been output from a single CSD field.
_refine_ls_R_factor_gt 0.0562
_refine_ls_wR_factor_gt 0.0562
_symmetry_cell_setting monoclinic
_symmetry_space_group_name_H-M 'P 21/c'
_symmetry_Int_Tables_number 14
loop_
_symmetry_equiv_pos_site_id
_symmetry_equiv_pos_as_xyz
1 x,y,z
2 -x,1/2+y,1/2-z
3 -x,-y,-z
4 x,-1/2-y,-1/2+z
_cell_length_a 14.549(3)
_cell_length_b 8.5731(17)
_cell_length_c 17.698(4)
_cell_angle_alpha 90
_cell_angle_beta 106.80(3)
_cell_angle_gamma 90
_cell_formula_units_Z 4
loop_
_atom_type_symbol
_atom_type_radius_bond
C 0.68
H 0.23
N 0.68
O 0.68
loop_
_atom_site_label
_atom_site_type_symbol
_atom_site_fract_x
_atom_site_fract_y
_atom_site_fract_z
N1 N 0.24205(10) 0.83890(18) 0.27527(8)
N2 N 0.26185(11) 0.65424(19) 0.38028(9)
N3 N 0.15899(11) 0.87495(19) 0.37274(9)
N4 N 0.37764(11) 0.6731(2) 0.23038(9)
N5 N 0.34508(12) 0.6272(2) 0.2914(1)
H1 H 0.36630 0.54160 0.31550
C1 C 0.20005(13) 0.7418(2) 0.4061(1)
C2 C 0.48261(12) 0.6313(2) 0.15191(11)
C3 C 0.27926(12) 0.7130(2) 0.31592(10)
N6 N 0.17684(13) 0.6928(2) 0.47074(10)
C4 C 0.18218(13) 0.9164(2) 0.30748(10)
C5 C 0.55594(13) 0.7014(2) 0.02859(11)
N7 N 0.14210(14) 1.0497(2) 0.27196(10)
C6 C 0.44420(14) 0.5914(3) 0.21671(11)
H2 H 0.46840 0.50550 0.24840
C7 C 0.59721(14) 0.5838(3) 0.07978(13)
H3 H 0.64930 0.52840 0.07320
N8 N 0.59319(13) 0.7366(2) -0.03817(12)
O1 O 0.65957(15) 0.6598(3) -0.04622(13)
C8 C 0.10887(17) 0.7815(3) 0.50151(14)
H4 H 0.07660 0.71050 0.52810
H5 H 0.06050 0.82810 0.45770
C9 C 0.55997(14) 0.5495(3) 0.14094(12)
H6 H 0.58730 0.46950 0.17570
C10 C 0.47887(15) 0.7851(3) 0.03748(13)
H7 H 0.45140 0.86390 0.00200
C11 C 0.44309(15) 0.7505(3) 0.09942(13)
H8 H 0.39180 0.80770 0.10630
C12 C 0.21276(16) 0.5439(3) 0.50866(13)
H9 H 0.22530 0.55430 0.56530
H10 H 0.27290 0.51870 0.49820
O2 O 0.55554(14) 0.8413(3) -0.08322(11)
C13 C 0.0775(2) 1.1407(3) 0.30415(14)
H11 H 0.08100 1.24940 0.29010
H12 H 0.09870 1.13330 0.36130
C14 C 0.1586(2) 1.1060(3) 0.19901(14)
H13 H 0.09810 1.14160 0.16370
H14 H 0.18100 1.01990 0.17350
C15 C 0.1433(2) 0.4141(3) 0.4799(2)
H15 H 0.16930 0.31930 0.50640
H16 H 0.13210 0.40140 0.42400
H17 H 0.08390 0.43800 0.49060
C16 C 0.2293(3) 1.2347(5) 0.2114(2)
H18 H 0.23700 1.26600 0.16150
H19 H 0.28980 1.19990 0.24540
H20 H 0.20680 1.32170 0.23530
C17 C -0.0246(2) 1.0871(5) 0.2748(2)
H21 H -0.06410 1.15080 0.29750
H22 H -0.02890 0.98030 0.28970
H23 H -0.04640 1.09590 0.21830
C18 C 0.1564(2) 0.9065(4) 0.55750(18)
H24 H 0.10920 0.96090 0.57570
H25 H 0.18740 0.97850 0.53120
H26 H 0.20330 0.86090 0.60170
#END
