
#######################################################################
#
#                 Cambridge Crystallographic Data Centre
#                                CCDC
#
#######################################################################
#
# If this CIF has been generated from an entry in the Cambridge
# Structural Database, then it will include bibliographic, chemical,
# crystal, experimental, refinement or atomic coordinate data resulting
# from the CCDC's data processing and validation procedures.
#
#######################################################################

data_CSD_CIF_FATFUB
_audit_creation_date 1987-09-22
_audit_creation_method CSD-ConQuest-V1
_database_code_CSD FATFUB
_chemical_formula_sum 'C11 H13 N3 O1'
_chemical_formula_moiety
;
C11 H13 N3 O1
;
_journal_coden_Cambridge 455
_journal_volume 105
_journal_year 1985
_journal_page_first 1122
_journal_name_full 'Yakugaku Zasshi(Jap.)(J.Pharm.Soc.Jpn.) '
loop_
_publ_author_name
"A.Ohsawa"
"H.Arai"
"H.Ohnishi"
"T.Kaihoh"
"T.Itoh"
"K.Yamaguchi"
"H.Igeta"
"Y.Iitaka"
_chemical_name_systematic
;
1,6-Dihydro-1,6-dimethyl-4-phenyl-1,2,3-triazine 2-oxide
;
_chemical_melting_point 349.15
_cell_volume   2205.275
_exptl_special_details
;
Melting point range 349.15-350.15K

;
_diffrn_ambient_temperature ?
_diffrn_special_details
;
The study was carried out at room temperature,in the range 283-303K

;
#These two values have been output from a single CSD field.
_refine_ls_R_factor_gt 0.084
_refine_ls_wR_factor_gt 0.084
_symmetry_cell_setting monoclinic
_symmetry_space_group_name_H-M 'P 21'
_symmetry_Int_Tables_number 4
loop_
_symmetry_equiv_pos_site_id
_symmetry_equiv_pos_as_xyz
1 x,y,z
2 -x,1/2+y,-z
_cell_length_a 20.907(9)
_cell_length_b 9.969(6)
_cell_length_c 10.967(6)
_cell_angle_alpha 90
_cell_angle_beta 105.25(2)
_cell_angle_gamma 90
_cell_formula_units_Z 8
loop_
_atom_type_symbol
_atom_type_radius_bond
C 0.68
N 0.68
O 0.68
loop_
_atom_site_label
_atom_site_type_symbol
_atom_site_fract_x
_atom_site_fract_y
_atom_site_fract_z
C1 C 0.0023(4) 0.4916(10) 0.0343(7)
C2 C 0.0130(5) 0.5317(12) 0.1554(8)
C3 C 0.0810(5) 0.5200(12) 0.2438(8)
C4 C 0.0915(6) 0.3879(14) 0.3187(9)
C5 C 0.1997(5) 0.5516(15) 0.2266(9)
C6 C -0.0619(4) 0.498(1) -0.0605(8)
C7 C -0.0796(5) 0.4053(11) -0.1606(9)
C8 C -0.1396(6) 0.4148(13) -0.2486(9)
C9 C -0.1847(5) 0.5110(14) -0.2423(10)
C10 C -0.1690(5) 0.6061(14) -0.1458(11)
C11 C -0.1080(5) 0.5970(12) -0.0535(10)
N1 N 0.1278(4) 0.5389(9) 0.1625(6)
N2 N 0.1129(4) 0.4617(8) 0.0524(6)
N3 N 0.0534(4) 0.4370(8) -0.0119(6)
O1 O 0.1623(3) 0.4264(8) 0.0132(6)
C12 C 0.0087(4) 0.6306(10) 0.5402(7)
C13 C 0.0190(4) 0.5928(11) 0.6598(8)
C14 C 0.0870(4) 0.6023(11) 0.7470(8)
C15 C 0.0979(6) 0.7297(13) 0.8256(10)
C16 C 0.2059(5) 0.5722(13) 0.7293(10)
C17 C -0.0565(4) 0.6293(9) 0.4460(7)
C18 C -0.0723(5) 0.7243(11) 0.3479(9)
C19 C -0.1344(5) 0.7193(11) 0.2571(9)
C20 C -0.1804(5) 0.6175(13) 0.2632(10)
C21 C -0.1650(5) 0.5274(13) 0.3556(11)
C22 C -0.1031(5) 0.5283(11) 0.4474(9)
N4 N 0.1335(4) 0.5870(9) 0.6663(7)
N5 N 0.1185(3) 0.6598(9) 0.5569(6)
N6 N 0.0594(3) 0.6854(8) 0.49280
O2 O 0.1669(3) 0.6972(9) 0.5163(6)
C23 C 0.5219(4) 0.4020(11) -0.0318(8)
C24 C 0.5329(5) 0.3702(12) -0.1429(8)
C25 C 0.6007(5) 0.3815(13) -0.1610(9)
C26 C 0.6123(6) 0.5120(16) -0.2209(12)
C27 C 0.7179(5) 0.3351(16) -0.0259(11)
C28 C 0.4557(4) 0.4025(11) -0.0046(8)
C29 C 0.4413(5) 0.4943(12) 0.0815(9)
C30 C 0.3797(5) 0.4945(13) 0.1055(10)
C31 C 0.3296(6) 0.4023(16) 0.0438(12)
C32 C 0.3436(6) 0.3132(18) -0.0410(14)
C33 C 0.4079(6) 0.3062(15) -0.0692(11)
N7 N 0.6475(4) 0.3538(9) -0.0336(7)
N8 N 0.6324(4) 0.4204(10) 0.0651(6)
N9 N 0.5727(4) 0.4474(9) 0.0697(6)
O3 O 0.6805(3) 0.4430(11) 0.1573(6)
C34 C 0.5003(4) 0.7509(10) 0.5270(7)
C35 C 0.4909(4) 0.7935(11) 0.6374(8)
C36 C 0.4238(4) 0.7801(11) 0.6612(8)
C37 C 0.4172(6) 0.6475(14) 0.7337(10)
C38 C 0.3034(5) 0.8048(15) 0.5325(10)
C39 C 0.5646(4) 0.7548(10) 0.4953(8)
C40 C 0.6104(5) 0.8507(12) 0.5435(10)
C41 C 0.6742(6) 0.8546(15) 0.5144(12)
C42 C 0.6885(5) 0.7558(15) 0.4392(11)
C43 C 0.6410(5) 0.6583(13) 0.3834(10)
C44 C 0.5794(5) 0.6575(11) 0.4116(9)
N10 N 0.3756(3) 0.7936(9) 0.5350(7)
N11 N 0.3885(4) 0.7168(9) 0.4405(6)
N12 N 0.4484(3) 0.6918(9) 0.4317(6)
O4 O 0.3400(3) 0.6744(9) 0.3552(6)
#END
