
#######################################################################
#
#                 Cambridge Crystallographic Data Centre
#                                CCDC
#
#######################################################################
#
# If this CIF has been generated from an entry in the Cambridge
# Structural Database, then it will include bibliographic, chemical,
# crystal, experimental, refinement or atomic coordinate data resulting
# from the CCDC's data processing and validation procedures.
#
#######################################################################

data_CSD_CIF_FATSIF
_audit_creation_date 2017-02-23
_audit_creation_method CSD-ConQuest-V1
_database_code_CSD FATSIF
_database_code_depnum_ccdc_archive 'CCDC 1416382'
_chemical_formula_sum 'C22 H20 N4 O4'
_chemical_formula_moiety
;
C22 H20 N4 O4
;
_journal_coden_Cambridge 1607
_journal_volume 6
_journal_year 2016
_journal_page_first 147
_journal_name_full 'Int.J.Org.Chem '
loop_
_publ_author_name
"S.Fusi"
"D.Donati"
"F.Ponticelli"
_chemical_name_systematic
;
(Z)-2-acetyl-5-((4-(dimethylamino)phenyl)imino)-2-methyl-4-(4-nitrophenyl)-2,5
-dihydrofuran-3-carbonitrile
;
_chemical_melting_point 420
_cell_volume   2075.928
_exptl_crystal_colour 'red'
_exptl_crystal_density_diffrn 1.294
_exptl_crystal_description 'needles'
_diffrn_ambient_temperature 293
#These two values have been output from a single CSD field.
_refine_ls_R_factor_gt 0.0467
_refine_ls_wR_factor_gt 0.0467
_symmetry_cell_setting triclinic
_symmetry_space_group_name_H-M 'P -1'
_symmetry_Int_Tables_number 2
loop_
_symmetry_equiv_pos_site_id
_symmetry_equiv_pos_as_xyz
1 x,y,z
2 -x,-y,-z
_cell_length_a 7.6387(6)
_cell_length_b 16.6184(12)
_cell_length_c 17.7794(13)
_cell_angle_alpha 112.289(7)
_cell_angle_beta 94.328(6)
_cell_angle_gamma 92.519(6)
_cell_formula_units_Z 4
loop_
_atom_type_symbol
_atom_type_radius_bond
C 0.68
H 0.23
N 0.68
O 0.68
loop_
_atom_site_label
_atom_site_type_symbol
_atom_site_fract_x
_atom_site_fract_y
_atom_site_fract_z
N1 N 0.9342(3) 0.15673(13) 0.39019(12)
O1 O 1.1903(2) 0.13247(11) 0.32092(10)
C1 C 0.9133(4) 0.07447(17) 0.39571(14)
O2 O 0.6297(2) 0.57036(12) 0.56036(12)
C2 C 0.7999(3) 0.42317(16) 0.49166(14)
H1 H 0.75980 0.43380 0.54240
C3 C 1.1967(4) 0.25935(17) 0.29593(15)
C4 C 0.7689(3) 0.47856(16) 0.45230(16)
C5 C 0.9535(3) 0.33517(15) 0.37909(14)
N2 N 0.7808(4) -0.16666(15) 0.41273(15)
C6 C 1.0525(4) 0.18063(17) 0.35602(15)
C7 C 0.7121(4) -0.02026(18) 0.43069(15)
H2 H 0.60550 -0.02880 0.44970
C8 C 0.8265(4) -0.08723(18) 0.40815(16)
C9 C 0.8922(3) 0.35106(16) 0.45433(14)
H3 H 0.91330 0.31270 0.48020
O3 O 1.3536(4) 0.14790(16) 0.14615(13)
C10 C 0.8227(3) 0.46379(17) 0.37718(16)
H4 H 0.79780 0.50170 0.35110
C11 C 1.0268(4) 0.00782(17) 0.37388(14)
H5 H 1.13330 0.01630 0.35470
C12 C 1.0655(3) 0.26300(16) 0.34275(14)
C13 C 0.7573(4) 0.05862(18) 0.42477(15)
H6 H 0.68030 0.10250 0.44080
C14 C 0.9145(3) 0.39186(17) 0.34042(15)
H7 H 0.95090 0.38100 0.28900
C15 C 0.9834(4) -0.07086(18) 0.38032(15)
H8 H 1.06200 -0.11410 0.36550
C16 C 1.4821(4) 0.19395(18) 0.31722(16)
H9 H 1.54850 0.22310 0.28990
H10 H 1.53070 0.13970 0.31070
H11 H 1.48760 0.23020 0.37430
N3 N 1.3071(4) 0.37141(17) 0.23919(15)
C17 C 1.2587(4) 0.32243(19) 0.26537(17)
C18 C 0.9003(4) -0.23523(17) 0.38944(16)
H12 H 0.84990 -0.28540 0.39680
H13 H 1.01030 -0.21510 0.42290
H14 H 0.91990 -0.25070 0.33310
C19 C 1.1791(5) 0.0345(2) 0.15788(19)
H15 H 1.18940 0.00590 0.10050
H16 H 1.05740 0.04210 0.16660
H17 H 1.22520 -0.00050 0.18590
N4 N 0.6778(3) 0.55793(15) 0.49299(16)
O4 O 0.6568(3) 0.60780(13) 0.45808(13)
C20 C 0.6318(4) -0.17728(18) 0.45442(17)
H18 H 0.62070 -0.23590 0.45220
H19 H 0.52650 -0.16580 0.42840
H20 H 0.64910 -0.13720 0.51040
C21 C 1.2793(5) 0.1203(2) 0.1895(2)
C22 C 1.2900(4) 0.17627(17) 0.28012(16)
O5 O 0.6886(2) 0.50257(11) -0.13116(11)
O6 O 0.7837(5) 0.2248(2) 0.18143(18)
O7 O 0.8697(5) 0.1216(2) 0.0806(2)
O8 O 0.8319(4) 0.39363(16) -0.32238(14)
N5 N 0.7499(3) 0.53886(15) 0.01017(13)
N6 N 0.6769(4) 0.19502(18) -0.27335(17)
N7 N 0.6800(3) 0.89999(16) 0.12233(15)
N8 N 0.8151(5) 0.1931(3) 0.1117(3)
C23 C 0.7327(3) 0.38791(18) -0.09017(18)
C24 C 0.7396(3) 0.62978(18) 0.03257(17)
C25 C 0.7279(3) 0.48322(19) -0.06271(19)
C26 C 0.7565(3) 0.33975(18) -0.03597(17)
C27 C 0.7235(3) 0.67476(17) -0.01954(15)
H21 H 0.72520 0.64460 -0.07550
C28 C 0.7424(3) 0.67902(19) 0.11520(16)
H22 H 0.75740 0.65110 0.15150
C29 C 0.8359(4) 0.26132(19) -0.06286(18)
H23 H 0.87730 0.24100 -0.11410
C30 C 0.7057(4) 0.35434(19) -0.17261(19)
C31 C 0.6889(5) 0.2658(2) -0.2278(2)
C32 C 0.7935(4) 0.2448(2) 0.0601(2)
C33 C 0.7018(3) 0.81234(19) 0.09365(18)
C34 C 0.6999(3) 0.36942(18) 0.04095(17)
H24 H 0.64900 0.42240 0.06040
C35 C 0.7051(3) 0.76304(18) 0.01069(16)
H25 H 0.69440 0.79090 -0.02580
C36 C 0.7174(4) 0.3217(2) 0.08997(18)
H26 H 0.67840 0.34160 0.14170
C37 C 0.5093(4) 0.41804(19) -0.25834(16)
H27 H 0.50760 0.46630 -0.27540
H28 H 0.41160 0.41860 -0.22730
H29 H 0.50070 0.36440 -0.30550
C38 C 0.7241(3) 0.76748(19) 0.14634(16)
H30 H 0.72650 0.79770 0.20250
C39 C 0.6383(4) 0.94168(17) 0.06622(17)
H31 H 0.62850 1.00270 0.09630
H32 H 0.52860 0.91560 0.03430
H33 H 0.73000 0.93450 0.03070
C40 C 0.6667(4) 0.94866(19) 0.20700(17)
H34 H 0.65330 1.00870 0.21580
H35 H 0.77140 0.94470 0.23840
H36 H 0.56630 0.92540 0.22370
C41 C 0.8540(4) 0.2135(2) -0.0149(2)
H37 H 0.90650 0.16090 -0.03320
C42 C 1.0003(4) 0.4844(2) -0.1986(2)
H38 H 1.09910 0.47210 -0.23040
H39 H 1.02300 0.46960 -0.15180
H40 H 0.98210 0.54530 -0.18100
C43 C 0.8432(5) 0.4331(2) -0.2484(2)
C44 C 0.6817(4) 0.42559(19) -0.20543(18)
#END
