
#######################################################################
#
#                 Cambridge Crystallographic Data Centre
#                                CCDC
#
#######################################################################
#
# If this CIF has been generated from an entry in the Cambridge
# Structural Database, then it will include bibliographic, chemical,
# crystal, experimental, refinement or atomic coordinate data resulting
# from the CCDC's data processing and validation procedures.
#
#######################################################################

data_CSD_CIF_FATYUW
_audit_creation_date 2012-09-04
_audit_creation_method CSD-ConQuest-V1
_database_code_CSD FATYUW
_database_code_depnum_ccdc_archive 'CCDC 857731'
_chemical_formula_sum 'C8 H8 N2 O4'
_chemical_formula_moiety
;
C8 H8 N2 O4
;
_journal_coden_Cambridge 1135
_journal_volume 22
_journal_year 2012
_journal_page_first 164
_journal_name_full 'Mendeleev Commun. '
loop_
_publ_author_name
"V.G.Shtamburg"
"A.V.Tsygankov"
"O.V.Shishkin"
"R.I.Zubatyuk"
"B.V.Uspensky"
"V.V.Shtamburg"
"A.V.Mazepa"
"R.G.Kostyanovsky"
_chemical_name_systematic
;
N-Methoxy-4-nitrobenzamide
;
_cell_volume    434.389
_exptl_crystal_density_diffrn 1.5
_diffrn_ambient_temperature 100.2
#These two values have been output from a single CSD field.
_refine_ls_R_factor_gt 0.0543
_refine_ls_wR_factor_gt 0.0543
_symmetry_cell_setting monoclinic
_symmetry_space_group_name_H-M 'P c'
_symmetry_Int_Tables_number 7
loop_
_symmetry_equiv_pos_site_id
_symmetry_equiv_pos_as_xyz
1 x,y,z
2 x,-y,1/2+z
_cell_length_a 3.8578(5)
_cell_length_b 11.8168(16)
_cell_length_c 9.6848(12)
_cell_angle_alpha 90
_cell_angle_beta 100.297(11)
_cell_angle_gamma 90
_cell_formula_units_Z 2
loop_
_atom_type_symbol
_atom_type_radius_bond
C 0.68
H 0.23
N 0.68
O 0.68
loop_
_atom_site_label
_atom_site_type_symbol
_atom_site_fract_x
_atom_site_fract_y
_atom_site_fract_z
O1 O 0.9955(7) 0.5135(2) 0.8809(3)
O2 O 0.1933(11) 0.0106(3) 0.5423(4)
O3 O 0.505(1) -0.0415(3) 0.7401(4)
O4 O 1.1033(8) 0.6513(3) 0.6751(3)
N1 N 0.9292(9) 0.5479(3) 0.6502(3)
H1 H 0.92310 0.51410 0.55710
N2 N 0.4041(10) 0.0305(4) 0.6513(4)
C1 C 0.9108(10) 0.4817(4) 0.7583(4)
C2 C 0.7729(11) 0.3648(4) 0.7243(4)
C3 C 0.5636(10) 0.3365(4) 0.5963(4)
H2 H 0.50210 0.39270 0.52600
C4 C 0.4454(12) 0.2265(4) 0.5716(5)
H3 H 0.30170 0.20660 0.48480
C5 C 0.5394(11) 0.1463(4) 0.6750(5)
C6 C 0.7486(11) 0.1722(4) 0.8030(5)
H4 H 0.80980 0.11580 0.87300
C7 C 0.8644(11) 0.2813(4) 0.8255(5)
H5 H 1.01040 0.30040 0.91210
C8 C 0.8681(12) 0.7394(4) 0.6989(5)
H6 H 0.68000 0.74680 0.61680
H7 H 0.99760 0.81100 0.71480
H8 H 0.76510 0.72110 0.78170
#END
