
#######################################################################
#
#                 Cambridge Crystallographic Data Centre
#                                CCDC
#
#######################################################################
#
# If this CIF has been generated from an entry in the Cambridge
# Structural Database, then it will include bibliographic, chemical,
# crystal, experimental, refinement or atomic coordinate data resulting
# from the CCDC's data processing and validation procedures.
#
#######################################################################

data_CSD_CIF_FAVDAJ
_audit_creation_date 2012-09-04
_audit_creation_method CSD-ConQuest-V1
_database_code_CSD FAVDAJ
_database_code_depnum_ccdc_archive 'CCDC 852600'
_chemical_formula_sum 'C14 H14 N4 O2'
_chemical_formula_moiety
;
C14 H14 N4 O2
;
_journal_coden_Cambridge 119
_journal_volume 1020
_journal_year 2012
_journal_page_first 16
_journal_name_full 'J.Mol.Struct. '
loop_
_publ_author_name
"R.A.Howie"
"T.C.Baddeley"
"J.L.Wardell"
"S.M.S.V.Wardell"
_chemical_name_systematic
;
(E)-2-Aminoacetophenone 4-nitrophenylhydrazone
;
_cell_volume   1245.675
_exptl_crystal_colour 'red'
_exptl_crystal_density_diffrn 1.441
_exptl_crystal_description 'needle'
_diffrn_ambient_temperature 120
#These two values have been output from a single CSD field.
_refine_ls_R_factor_gt 0.0652
_refine_ls_wR_factor_gt 0.0652
_symmetry_cell_setting orthorhombic
_symmetry_space_group_name_H-M 'P n a 21'
_symmetry_Int_Tables_number 33
loop_
_symmetry_equiv_pos_site_id
_symmetry_equiv_pos_as_xyz
1 x,y,z
2 -x,-y,1/2+z
3 1/2+x,1/2-y,z
4 1/2-x,1/2+y,1/2+z
_cell_length_a 21.666(1)
_cell_length_b 13.8168(6)
_cell_length_c 4.1612(1)
_cell_angle_alpha 90
_cell_angle_beta 90
_cell_angle_gamma 90
_cell_formula_units_Z 4
loop_
_atom_type_symbol
_atom_type_radius_bond
C 0.68
H 0.23
N 0.68
O 0.68
loop_
_atom_site_label
_atom_site_type_symbol
_atom_site_fract_x
_atom_site_fract_y
_atom_site_fract_z
O1 O 0.77016(15) 0.6331(2) 1.0293(9)
O2 O 0.81843(15) 0.5266(3) 1.318(1)
N1 N 0.57072(15) 0.2856(2) 0.4640(9)
N2 N 0.61982(15) 0.2634(2) 0.6594(9)
H1 H 0.62800 0.20260 0.70630
N3 N 0.50733(17) 0.4113(2) 0.0911(10)
H2 H 0.506(2) 0.456(3) -0.072(12)
H3 H 0.547(2) 0.395(3) 0.172(12)
N4 N 0.77656(18) 0.5490(3) 1.1290(11)
C1 C 0.48538(18) 0.2364(3) 0.139(1)
C2 C 0.47142(18) 0.3305(3) 0.0196(10)
C3 C 0.41917(19) 0.3429(3) -0.1760(12)
H4 H 0.41030 0.40540 -0.25910
C4 C 0.3806(2) 0.2677(3) -0.2504(12)
H5 H 0.34540 0.27840 -0.38180
C5 C 0.3933(2) 0.1756(3) -0.1326(13)
H6 H 0.36690 0.12290 -0.18360
C6 C 0.44429(18) 0.1616(3) 0.0578(11)
H7 H 0.45210 0.09840 0.13830
C7 C 0.54002(18) 0.2140(3) 0.3376(11)
C8 C 0.5600(2) 0.1102(3) 0.3895(13)
H8 H 0.55480 0.09310 0.61650
H9 H 0.60340 0.10300 0.32890
H10 H 0.53460 0.06720 0.25680
C9 C 0.65601(19) 0.3356(3) 0.7808(11)
C10 C 0.64563(19) 0.4334(3) 0.7079(10)
H11 H 0.61130 0.45140 0.57920
C11 C 0.68506(19) 0.5030(3) 0.8225(12)
H12 H 0.67860 0.56910 0.76980
C12 C 0.73430(19) 0.4762(3) 1.0156(11)
C13 C 0.74387(19) 0.3797(3) 1.1031(12)
H13 H 0.77690 0.36260 1.24190
C14 C 0.70496(18) 0.3102(3) 0.9859(11)
H14 H 0.71110 0.24430 1.04340
#END
