
#######################################################################
#
#                 Cambridge Crystallographic Data Centre
#                                CCDC
#
#######################################################################
#
# If this CIF has been generated from an entry in the Cambridge
# Structural Database, then it will include bibliographic, chemical,
# crystal, experimental, refinement or atomic coordinate data resulting
# from the CCDC's data processing and validation procedures.
#
#######################################################################

data_CSD_CIF_FAVVII
_audit_creation_date 2005-04-27
_audit_creation_method CSD-ConQuest-V1
_database_code_CSD FAVVII
_database_code_depnum_ccdc_archive 'CCDC 239791'
_chemical_formula_sum 'C20 H28 N2 O3'
_chemical_formula_moiety
;
C20 H28 N2 O3
;
_journal_coden_Cambridge 692
_journal_volume 2004
_journal_year 2004
_journal_page_first 3047
_journal_name_full 'Synthesis '
loop_
_publ_author_name
"J.Neidhofer"
"S.Blechert"
_chemical_name_systematic
;
rac-((2R,4aS,5R,8aS)-5-Methyl-2-propyl-octahydroquinoline-1-yl)(4-nitrophenyl)
methanone
;
_chemical_melting_point 407.15
_cell_volume   3895.866
_exptl_crystal_colour 'colorless'
_exptl_crystal_density_diffrn 1.171
_exptl_special_details
;
Melting point range 407.15-409.15K

;
_exptl_crystal_description 'prism'
_exptl_crystal_preparation 'diethyl ether'
_diffrn_ambient_temperature 293
#These two values have been output from a single CSD field.
_refine_ls_R_factor_gt 0.0755
_refine_ls_wR_factor_gt 0.0755
loop_
_citation_database_id_CSD
_citation_special_details
FAYPEB "is a stereoisomer of this entry"
_symmetry_cell_setting monoclinic
_symmetry_space_group_name_H-M 'C 2/c'
_symmetry_Int_Tables_number 15
loop_
_symmetry_equiv_pos_site_id
_symmetry_equiv_pos_as_xyz
1 x,y,z
2 1/2+x,1/2+y,z
3 -x,y,1/2-z
4 1/2-x,1/2+y,1/2-z
5 -x,-y,-z
6 -1/2-x,-1/2-y,-z
7 x,-y,-1/2+z
8 -1/2+x,-1/2-y,-1/2+z
_cell_length_a 24.7459(6)
_cell_length_b 7.4844(2)
_cell_length_c 21.2600(1)
_cell_angle_alpha 90
_cell_angle_beta 98.342(2)
_cell_angle_gamma 90
_cell_formula_units_Z 8
loop_
_atom_type_symbol
_atom_type_radius_bond
C 0.68
H 0.23
N 0.68
O 0.68
loop_
_atom_site_label
_atom_site_type_symbol
_atom_site_fract_x
_atom_site_fract_y
_atom_site_fract_z
C1 C 0.13430(16) 0.2384(6) 0.18807(16)
H1 H 0.16520 0.27840 0.16760
C2 C 0.11215(18) 0.0701(6) 0.15284(19)
H2 H 0.13870 -0.02570 0.16050
H3 H 0.07880 0.03210 0.16790
C3 C 0.1008(2) 0.1120(7) 0.0824(2)
H4 H 0.08420 0.00880 0.05980
H5 H 0.13500 0.13640 0.06680
C4 C 0.06279(19) 0.2732(7) 0.0691(2)
H6 H 0.06010 0.30410 0.02450
H7 H 0.02660 0.23980 0.07740
C5 C 0.08153(19) 0.4379(6) 0.1089(2)
H8 H 0.11620 0.47790 0.09640
C6 C 0.09231(16) 0.3880(5) 0.17903(18)
H9 H 0.05820 0.34210 0.19120
C7 C 0.1129(2) 0.5382(6) 0.2252(2)
H10 H 0.14920 0.57400 0.21820
H11 H 0.08900 0.64090 0.21740
C8 C 0.1145(2) 0.4766(6) 0.2933(2)
H12 H 0.07960 0.50470 0.30680
H13 H 0.14230 0.54500 0.31990
C9 C 0.12607(17) 0.2789(6) 0.30540(18)
C10 C 0.07447(19) 0.1730(7) 0.3098(2)
H14 H 0.05440 0.23260 0.33970
H15 H 0.05180 0.17540 0.26850
C11 C 0.0830(3) -0.0175(9) 0.3299(3)
H16 H 0.05900 -0.08930 0.29980
H17 H 0.12010 -0.04850 0.32440
C12 C 0.0765(5) -0.0679(12) 0.3839(5)
H18 H 0.08170 -0.19480 0.38720
H19 H 0.04010 -0.03870 0.39130
H20 H 0.10250 -0.00910 0.41500
C13 C 0.20667(18) 0.1433(5) 0.26900(18)
C14 C 0.23281(15) 0.1215(6) 0.33582(17)
C15 C 0.23507(17) -0.0417(6) 0.3648(2)
H21 H 0.21710 -0.13760 0.34320
C16 C 0.26284(17) -0.0690(6) 0.4246(2)
H22 H 0.26340 -0.18050 0.44400
C17 C 0.28973(17) 0.0739(7) 0.45486(19)
C18 C 0.28993(17) 0.2394(6) 0.4278(2)
H23 H 0.30920 0.33340 0.44900
C19 C 0.26045(17) 0.2631(6) 0.36749(19)
H24 H 0.25930 0.37510 0.34840
C20 C 0.0405(2) 0.5886(7) 0.0944(2)
H25 H 0.05290 0.69170 0.11920
H26 H 0.00570 0.55140 0.10480
H27 H 0.03680 0.61790 0.05000
N1 N 0.15578(13) 0.2087(4) 0.25511(14)
N2 N 0.32230(18) 0.0444(8) 0.51782(19)
O1 O 0.23395(11) 0.1000(4) 0.22647(13)
O2 O 0.35409(17) 0.1607(6) 0.53837(17)
O3 O 0.31577(19) -0.0903(6) 0.5465(2)
#END
