
#######################################################################
#
#                 Cambridge Crystallographic Data Centre
#                                CCDC
#
#######################################################################
#
# If this CIF has been generated from an entry in the Cambridge
# Structural Database, then it will include bibliographic, chemical,
# crystal, experimental, refinement or atomic coordinate data resulting
# from the CCDC's data processing and validation procedures.
#
#######################################################################

data_CSD_CIF_FAYBIR
_audit_creation_date 2005-04-28
_audit_creation_method CSD-ConQuest-V1
_database_code_CSD FAYBIR
_database_code_depnum_ccdc_archive 'CCDC 262468'
_chemical_formula_sum 'C12 H15 N3 O3'
_chemical_formula_moiety
;
C12 H15 N3 O3
;
_journal_coeditor_code "IUCr CI6504"
_journal_coden_Cambridge 1370
_journal_volume 61
_journal_year 2005
_journal_page_first o124
_journal_name_full 'Acta Crystallogr.,Sect.E:Struct.Rep.Online '
loop_
_publ_author_name
"Shan Gao"
"Zhao-Peng Deng"
"Li-Hua Huo"
"Hui Zhao"
_chemical_name_systematic
;
3-(Hydroxyimino)butan-2-one (4-methoxybenzoyl)hydrazone
;
_cell_volume   1250.093
_exptl_crystal_colour 'yellow'
_exptl_crystal_density_diffrn 1.324
_exptl_crystal_description 'prism'
_diffrn_ambient_temperature 296
#These two values have been output from a single CSD field.
_refine_ls_R_factor_gt 0.0428
_refine_ls_wR_factor_gt 0.0428
_symmetry_cell_setting monoclinic
_symmetry_space_group_name_H-M 'P 21/n'
_symmetry_Int_Tables_number 14
loop_
_symmetry_equiv_pos_site_id
_symmetry_equiv_pos_as_xyz
1 x,y,z
2 1/2-x,1/2+y,1/2-z
3 -x,-y,-z
4 -1/2+x,-1/2-y,-1/2+z
_cell_length_a 6.8829(14)
_cell_length_b 23.589(5)
_cell_length_c 7.7372(15)
_cell_angle_alpha 90
_cell_angle_beta 95.66(3)
_cell_angle_gamma 90
_cell_formula_units_Z 4
loop_
_atom_type_symbol
_atom_type_radius_bond
C 0.68
H 0.23
N 0.68
O 0.68
loop_
_atom_site_label
_atom_site_type_symbol
_atom_site_fract_x
_atom_site_fract_y
_atom_site_fract_z
N1 N 0.59233(15) 0.79936(5) 0.33748(15)
N2 N 0.71661(15) 0.67305(4) 0.54605(15)
N3 N 0.62210(16) 0.62664(5) 0.60587(16)
O1 O 0.69009(14) 0.84679(4) 0.28100(15)
O2 O 0.90419(13) 0.57946(4) 0.68091(15)
O3 O 0.33317(17) 0.38699(4) 0.87553(17)
C1 C 0.92557(19) 0.76493(6) 0.4257(2)
C2 C 0.70796(17) 0.76102(5) 0.40479(17)
C3 C 0.60694(17) 0.71029(5) 0.46378(17)
C4 C 0.3902(2) 0.70507(7) 0.4215(2)
C5 C 0.72511(18) 0.58123(5) 0.67079(18)
C6 C 0.60856(19) 0.53238(5) 0.72376(17)
C7 C 0.40887(19) 0.52634(6) 0.68215(18)
C8 C 0.3104(2) 0.47842(6) 0.72998(19)
C9 C 0.4133(2) 0.43586(6) 0.82185(19)
C10 C 0.6127(2) 0.44143(6) 0.8657(2)
C11 C 0.7080(2) 0.48898(6) 0.8164(2)
C12 C 0.1271(3) 0.38041(8) 0.8473(3)
H1 H 0.97570 0.75480 0.31850
H2 H 0.97690 0.73950 0.51580
H3 H 0.96400 0.80300 0.45630
H4 H 0.36100 0.67030 0.35980
H5 H 0.34310 0.73650 0.35070
H6 H 0.32780 0.70500 0.52720
H7 H 0.33960 0.55500 0.62090
H8 H 0.17670 0.47490 0.70060
H9 H 0.68160 0.41300 0.92840
H10 H 0.84190 0.49220 0.84550
H11 H 0.06470 0.40980 0.90760
H12 H 0.09090 0.34410 0.89000
H13 H 0.08650 0.38290 0.72520
H14 H 0.49680 0.62650 0.60200
H15 H 0.596(2) 0.8670(7) 0.237(2)
#END
