
#######################################################################
#
#                 Cambridge Crystallographic Data Centre
#                                CCDC
#
#######################################################################
#
# If this CIF has been generated from an entry in the Cambridge
# Structural Database, then it will include bibliographic, chemical,
# crystal, experimental, refinement or atomic coordinate data resulting
# from the CCDC's data processing and validation procedures.
#
#######################################################################

data_CSD_CIF_FAYCAJ
_audit_creation_date 1987-10-26
_audit_creation_method CSD-ConQuest-V1
_database_code_CSD FAYCAJ
_chemical_formula_sum 'C4 H6 N6 O8'
_chemical_formula_moiety
;
C4 H6 N6 O8
;
_journal_coden_Cambridge 37
_journal_volume 89
_journal_year 1985
_journal_page_first 4317
_journal_name_full 'J.Phys.Chem. '
loop_
_publ_author_name
"Y.Oyumi"
"T.B.Brill"
"A.L.Rheingold"
"T.M.Haller"
_chemical_name_systematic
;
1,3,5,5-Tetranitrohexahydropyrimidine
;
_chemical_melting_point 425
_cell_volume   1962.442
_exptl_crystal_colour 'colorless'
_exptl_crystal_density_diffrn 1.8
_exptl_special_details
;
Melts above 425K

;
_diffrn_ambient_temperature ?
_diffrn_special_details
;
The study was carried out at room temperature,in the range 283-303K

;
_refine_special_details
;
O5-O8 and O5'-O8' of the -5,5-nitro groups are each disordered over 2 
positions of occupancy 0.5. One set of positions is retained.
;
#These two values have been output from a single CSD field.
_refine_ls_R_factor_gt 0.0564
_refine_ls_wR_factor_gt 0.0564
_symmetry_cell_setting orthorhombic
_symmetry_space_group_name_H-M 'P 21 21 21'
_symmetry_Int_Tables_number 19
loop_
_symmetry_equiv_pos_site_id
_symmetry_equiv_pos_as_xyz
1 x,y,z
2 1/2+x,1/2-y,-z
3 -x,1/2+y,1/2-z
4 1/2-x,-y,1/2+z
_cell_length_a 11.130(2)
_cell_length_b 11.227(2)
_cell_length_c 15.705(3)
_cell_angle_alpha 90
_cell_angle_beta 90
_cell_angle_gamma 90
_cell_formula_units_Z 8
loop_
_atom_type_symbol
_atom_type_radius_bond
C 0.68
H 0.23
N 0.68
O 0.68
loop_
_atom_site_label
_atom_site_type_symbol
_atom_site_fract_x
_atom_site_fract_y
_atom_site_fract_z
C1 C 0.2042(4) 0.0959(4) -0.0282(3)
C2 C 0.1927(5) -0.0027(5) -0.0915(3)
C3 C 0.2830(4) -0.1401(4) 0.0104(3)
C4 C 0.2990(4) 0.0748(4) 0.0405(3)
O1 O -0.0090(4) -0.1306(5) -0.0739(3)
O2 O 0.0693(4) -0.2409(4) 0.0253(4)
O3 O 0.2326(6) -0.1670(4) 0.1735(3)
O4 O 0.2255(4) 0.0222(4) 0.1972(2)
O5 O 0.2641(12) 0.2855(11) -0.0299(8)
O6 O 0.2507(18) 0.2166(15) -0.1486(6)
O7 O 0.0278(24) 0.0497(19) 0.0434(10)
O8 O 0.0639(8) 0.2269(5) 0.0315(7)
N1 N 0.1883(3) -0.1195(3) -0.0499(2)
N2 N 0.2878(3) -0.0459(3) 0.0719(2)
N3 N 0.0742(3) -0.1671(4) -0.0317(3)
N4 N 0.2455(4) -0.0652(4) 0.1528(3)
N5 N 0.2349(4) 0.2098(4) -0.0758(3)
N6 N 0.0844(3) 0.1264(3) 0.0129(2)
C5 C 0.8132(4) 0.0392(4) 0.7215(3)
C6 C 0.7190(4) 0.0685(4) 0.6536(3)
C7 C 0.5636(4) -0.0150(4) 0.7452(3)
C8 C 0.7746(4) -0.0599(4) 0.7816(3)
O9 O 0.6154(4) 0.2811(3) 0.6819(2)
O10 O 0.4926(4) 0.2066(3) 0.7720(3)
O11 O 0.5259(3) 0.0073(4) 0.9118(2)
O12 O 0.7122(4) -0.0303(4) 0.9429(2)
O13 O 0.9932(15) -0.0714(14) 0.7035(13)
O14 O 0.9481(10) 0.0648(14) 0.6164(8)
O15 O 0.8025(20) 0.1700(24) 0.8356(8)
O16 O 0.9021(6) 0.2263(6) 0.7268(5)
N7 N 0.6018(3) 0.0847(3) 0.6918(2)
N8 N 0.6517(3) -0.0421(3) 0.8091(2)
N9 N 0.5687(3) 0.1976(3) 0.7177(2)
N10 N 0.6289(4) -0.0177(3) 0.8931(2)
N11 N 0.9296(4) 0.0049(5) 0.6791(3)
N12 N 0.8473(4) 0.1513(4) 0.7698(3)
H1 H 0.2604(5) -0.0034(5) -0.1293(3)
H2 H 0.1201(5) 0.0086(5) -0.1235(3)
H3 H 0.3584(4) -0.1440(4) -0.0191(3)
H4 H 0.2685(4) -0.2143(4) 0.0091(3)
H5 H 0.2870(4) 0.1301(4) 0.0864(3)
H6 H 0.3777(4) 0.0860(4) 0.0170(3)
H7 H 0.7150(4) 0.0039(4) 0.6136(3)
H8 H 0.7420(4) 0.1402(4) 0.6246(3)
H9 H 0.5519(35) -0.0839(4) 0.7099(3)
H10 H 0.4892(4) 0.0527(4) 0.7726(3)
H11 H 0.8265(4) -0.0603(4) 0.8304(3)
H12 H 0.7806(4) -0.1349(4) 0.7526(3)
#END
