
#######################################################################
#
#                 Cambridge Crystallographic Data Centre
#                                CCDC
#
#######################################################################
#
# If this CIF has been generated from an entry in the Cambridge
# Structural Database, then it will include bibliographic, chemical,
# crystal, experimental, refinement or atomic coordinate data resulting
# from the CCDC's data processing and validation procedures.
#
#######################################################################

data_CSD_CIF_FAYPED
_audit_creation_date 2017-07-11
_audit_creation_method CSD-ConQuest-V1
_database_code_CSD FAYPED
_database_code_depnum_ccdc_archive 'CCDC 1561615'
_chemical_formula_sum 'C21 H22 N2 O7'
_chemical_formula_moiety
;
C21 H22 N2 O7
;
_journal_coden_Cambridge 1336
_journal_volume 19
_journal_year 2017
_journal_page_first 3346
_journal_name_full 'Org.Lett. '
loop_
_publ_author_name
"J.A.Read"
"Yingying Yang"
"K.A.Woerpel"
_chemical_name_systematic
;
2-(benzyloxy)-3-methylhex-5-en-3-yl 3,5-dinitrobenzoate
;
_cell_volume   1017.422
_exptl_crystal_colour 'colorless'
_exptl_crystal_density_diffrn 1.353
_exptl_crystal_description 'plate'
_diffrn_ambient_temperature 100
#These two values have been output from a single CSD field.
_refine_ls_R_factor_gt 0.0722
_refine_ls_wR_factor_gt 0.0722
_symmetry_cell_setting triclinic
_symmetry_space_group_name_H-M 'P 1'
_symmetry_Int_Tables_number 1
loop_
_symmetry_equiv_pos_site_id
_symmetry_equiv_pos_as_xyz
1 x,y,z
_cell_length_a 7.500(7)
_cell_length_b 10.984(10)
_cell_length_c 12.966(12)
_cell_angle_alpha 79.535(12)
_cell_angle_beta 87.356(11)
_cell_angle_gamma 75.611(10)
_cell_formula_units_Z 2
loop_
_atom_type_symbol
_atom_type_radius_bond
C 0.68
H 0.23
N 0.68
O 0.68
loop_
_atom_site_label
_atom_site_type_symbol
_atom_site_fract_x
_atom_site_fract_y
_atom_site_fract_z
O1 O 0.3740(12) 0.9557(8) 0.7434(8)
O2 O 0.4654(11) 0.6064(7) 0.7792(7)
O3 O 0.5165(12) 0.6211(9) 0.6052(8)
O4 O 0.5555(14) 0.1922(9) 0.9981(8)
O5 O 0.7769(14) 0.0350(9) 0.9587(9)
O6 O 0.9591(13) 0.0555(9) 0.5922(8)
O7 O 0.9642(12) 0.2433(9) 0.5022(8)
N1 N 0.6726(18) 0.1441(12) 0.9376(10)
N2 N 0.9150(14) 0.1746(12) 0.5802(10)
C1 C 0.4033(18) 1.0596(12) 0.6672(12)
H1 H 0.35520 1.05650 0.59810
H2 H 0.53650 1.05600 0.65990
C2 C 0.3024(17) 1.1803(13) 0.7050(12)
C3 C 0.2508(18) 1.1808(13) 0.8098(12)
H3 H 0.27720 1.10280 0.85850
C4 C 0.1616(18) 1.2929(13) 0.8442(13)
H4 H 0.12810 1.29210 0.91590
C5 C 0.1223(19) 1.4060(14) 0.7724(14)
H5 H 0.06050 1.48270 0.79580
C6 C 0.1696(18) 1.4108(13) 0.6687(13)
H6 H 0.13820 1.48920 0.62070
C7 C 0.2644(18) 1.2991(12) 0.6345(12)
H7 H 0.30400 1.30230 0.56360
C8 C 0.4765(18) 0.8331(12) 0.7228(12)
H8 H 0.48810 0.83380 0.64560
C9 C 0.6696(17) 0.8010(13) 0.7739(13)
H9 H 0.73760 0.71530 0.76440
H10 H 0.65580 0.80410 0.84900
H11 H 0.73740 0.86340 0.74050
C10 C 0.3563(17) 0.7395(11) 0.7747(11)
C11 C 0.1797(18) 0.7656(12) 0.7109(11)
H12 H 0.21160 0.75320 0.63870
H13 H 0.10920 0.85370 0.71060
H14 H 0.10550 0.70670 0.74260
C12 C 0.3152(18) 0.7518(12) 0.8889(11)
H15 H 0.43300 0.73260 0.92700
H16 H 0.25020 0.84130 0.89210
C13 C 0.200(2) 0.6653(13) 0.9432(11)
H17 H 0.24310 0.57630 0.94350
C14 C 0.041(2) 0.7072(14) 0.9914(11)
H18 H -0.00500 0.79580 0.99220
H19 H -0.02670 0.64820 1.02460
C15 C 0.5280(17) 0.5618(14) 0.6925(14)
C16 C 0.6217(17) 0.4224(12) 0.7169(12)
C17 C 0.6002(16) 0.3513(12) 0.8143(12)
H20 H 0.52700 0.38960 0.86720
C18 C 0.6909(19) 0.2191(14) 0.8329(11)
C19 C 0.7960(18) 0.1602(13) 0.7583(13)
H21 H 0.85650 0.07200 0.77250
C20 C 0.8103(17) 0.2347(13) 0.6615(12)
C21 C 0.7252(17) 0.3649(13) 0.6394(11)
H22 H 0.73800 0.41350 0.57220
O8 O 0.3519(13) 0.5792(8) 0.2923(8)
O9 O 0.5597(12) 0.2479(8) 0.2615(8)
O10 O 0.6003(13) 0.1923(8) 0.4385(8)
O11 O 0.4487(15) -0.0585(10) 0.0627(8)
O12 O 0.6132(13) -0.2548(9) 0.1035(9)
O13 O 0.8546(14) -0.4090(9) 0.4521(9)
O14 O 0.8705(14) -0.2756(10) 0.5551(9)
N3 N 0.5502(16) -0.1461(13) 0.122(1)
N4 N 0.8248(17) -0.2982(12) 0.4710(13)
C22 C 0.288(2) 0.6449(13) 0.3773(13)
H23 H 0.38940 0.63410 0.42680
H24 H 0.18840 0.61080 0.41570
C23 C 0.2157(18) 0.7848(13) 0.3306(13)
C24 C 0.1423(19) 0.8262(13) 0.2315(13)
H25 H 0.13800 0.76490 0.18920
C25 C 0.075(2) 0.9534(14) 0.1921(13)
H26 H 0.02800 0.97950 0.12270
C26 C 0.076(2) 1.0456(15) 0.2555(15)
H27 H 0.02740 1.13380 0.22960
C27 C 0.147(2) 1.0060(15) 0.3540(15)
H28 H 0.14730 1.06720 0.39710
C28 C 0.2193(19) 0.8760(14) 0.3927(13)
H29 H 0.27090 0.84970 0.46110
C29 C 0.376(2) 0.4422(12) 0.3180(12)
H30 H 0.40370 0.41230 0.39450
C30 C 0.1946(18) 0.4117(15) 0.2911(14)
H31 H 0.16950 0.44020 0.21590
H32 H 0.09310 0.45630 0.33120
H33 H 0.20630 0.31950 0.30910
C31 C 0.5410(19) 0.3887(11) 0.2545(11)
C32 C 0.7179(18) 0.4084(13) 0.2964(12)
H34 H 0.82500 0.35610 0.26550
H35 H 0.72200 0.38290 0.37290
H36 H 0.71980 0.49860 0.27760
C33 C 0.5254(18) 0.4366(13) 0.1394(11)
H37 H 0.42430 0.40810 0.11240
H38 H 0.49000 0.53110 0.12770
C34 C 0.693(2) 0.3959(13) 0.0768(12)
H39 H 0.75270 0.30750 0.08780
C35 C 0.7668(19) 0.4729(14) 0.0069(12)
H40 H 0.71150 0.56200 -0.00630
H41 H 0.87480 0.43930 -0.03000
C36 C 0.5947(17) 0.1673(11) 0.3517(14)
C37 C 0.6178(18) 0.0320(11) 0.3323(12)
C38 C 0.7008(19) -0.0684(13) 0.4099(13)
H42 H 0.73520 -0.05170 0.47460
C39 C 0.733(2) -0.1915(13) 0.3928(12)
C40 C 0.6893(17) -0.2198(13) 0.2983(12)
H43 H 0.71960 -0.30490 0.28540
C41 C 0.6005(18) -0.1190(13) 0.2240(11)
C42 C 0.5683(17) 0.0075(12) 0.2367(11)
H44 H 0.51430 0.07530 0.18230
#END
