
#######################################################################
#
#                 Cambridge Crystallographic Data Centre
#                                CCDC
#
#######################################################################
#
# If this CIF has been generated from an entry in the Cambridge
# Structural Database, then it will include bibliographic, chemical,
# crystal, experimental, refinement or atomic coordinate data resulting
# from the CCDC's data processing and validation procedures.
#
#######################################################################

data_CSD_CIF_FAYTOQ
_audit_creation_date 2012-09-04
_audit_creation_method CSD-ConQuest-V1
_database_code_CSD FAYTOQ
_database_code_depnum_ccdc_archive 'CCDC 816634'
_chemical_formula_sum 'C26 H23 N4 O2'
_chemical_formula_moiety
;
C26 H23 N4 O2
;
_journal_coden_Cambridge 1145
_journal_volume 22
_journal_year 2012
_journal_page_first 13260
_journal_name_full 'J.Mater.Chem. '
loop_
_publ_author_name
"Y.B.Borozdina"
"V.Kamm"
"F.Laquai"
"M.Baumgarten"
_chemical_name_systematic
;
(4,4,5,5-Tetramethyl-3-oxido-2-(1-(pyren-1-yl)-1H-pyrazol-4-yl)-4,5-dihydro-1H
-imidazol-1-yl)oxidanyl monoradical
;
_chemical_melting_point 485.15
_cell_volume   2065.776
_exptl_crystal_colour 'dark blue'
_exptl_crystal_density_diffrn 1.362
_exptl_special_details
;
Melting point range 485.15-486.15K
heat-sensitive

;
_exptl_crystal_description 'prism'
_exptl_crystal_preparation 'dichloromethane/hexane'
_diffrn_ambient_temperature 120
#These two values have been output from a single CSD field.
_refine_ls_R_factor_gt 0.0447
_refine_ls_wR_factor_gt 0.0447
_symmetry_cell_setting monoclinic
_symmetry_space_group_name_H-M 'P 21/a'
_symmetry_Int_Tables_number 14
loop_
_symmetry_equiv_pos_site_id
_symmetry_equiv_pos_as_xyz
1 x,y,z
2 1/2-x,1/2+y,-z
3 -x,-y,-z
4 -1/2+x,-1/2-y,z
_cell_length_a 7.4598(2)
_cell_length_b 29.3972(9)
_cell_length_c 10.0132(3)
_cell_angle_alpha 90
_cell_angle_beta 109.8210(16)
_cell_angle_gamma 90
_cell_formula_units_Z 4
loop_
_atom_type_symbol
_atom_type_radius_bond
C 0.68
H 0.23
N 0.68
O 0.68
loop_
_atom_site_label
_atom_site_type_symbol
_atom_site_fract_x
_atom_site_fract_y
_atom_site_fract_z
O1 O 0.28060(14) 0.03921(3) 0.57877(9)
N1 N 0.26860(14) 0.00934(3) 0.66915(10)
O2 O 0.21731(15) -0.02482(3) 0.9821(1)
N2 N 0.23887(14) -0.02096(3) 0.86125(10)
C1 C 0.07780(16) 0.20634(4) 0.71705(12)
C2 C -0.01750(17) 0.27878(4) 0.58746(13)
N3 N 0.17007(14) 0.13614(3) 0.85797(10)
C3 C -0.03522(17) 0.18275(4) 0.59097(12)
C4 C 0.08579(16) 0.25488(4) 0.71424(12)
C5 C 0.19217(17) 0.27950(4) 0.83727(13)
N4 N 0.11121(15) 0.11752(4) 0.96160(11)
C6 C 0.32959(16) -0.03915(4) 0.66433(12)
C7 C -0.12468(17) 0.25450(4) 0.46349(13)
C8 C 0.17745(16) 0.18448(4) 0.84594(12)
C9 C 0.23030(16) 0.01819(4) 0.78832(12)
C10 C 0.24999(16) -0.06159(4) 0.77394(12)
C11 C -0.2228(2) 0.27879(5) 0.33952(14)
C12 C 0.54752(17) -0.03829(5) 0.71279(14)
C13 C 0.28122(18) 0.20885(5) 0.96656(13)
C14 C -0.1186(2) 0.35006(5) 0.46006(16)
C15 C -0.01387(18) 0.32728(4) 0.58525(15)
C16 C 0.12260(17) 0.07303(4) 0.94600(12)
C17 C 0.09915(19) 0.35097(4) 0.71083(15)
C18 C 0.21793(16) 0.10399(4) 0.77926(12)
C19 C 0.24439(19) -0.05767(4) 0.51401(13)
C20 C 0.19764(19) 0.32833(4) 0.82996(15)
C21 C 0.28924(18) 0.25585(5) 0.96242(14)
C22 C 0.04605(18) -0.07956(5) 0.70991(14)
C23 C 0.37748(19) -0.09768(5) 0.86745(14)
C24 C -0.13058(18) 0.20588(5) 0.47010(13)
C25 C 0.19085(16) 0.06228(4) 0.83366(12)
C26 C -0.2193(2) 0.32601(5) 0.33810(16)
H1 H -0.04370 0.15050 0.59210
H2 H -0.29280 0.26270 0.25590
H3 H 0.59380 -0.06830 0.71170
H4 H 0.59710 -0.02630 0.80630
H5 H 0.58670 -0.01970 0.65020
H6 H 0.34630 0.19310 1.05220
H7 H -0.12040 0.38240 0.45860
H8 H 0.08950 0.05100 1.00310
H9 H 0.10340 0.38330 0.70980
H10 H 0.26140 0.10900 0.70160
H11 H 0.28360 -0.08830 0.51200
H12 H 0.10930 -0.05640 0.48480
H13 H 0.28720 -0.03990 0.45150
H14 H 0.27320 0.34490 0.91100
H15 H 0.36210 0.27220 1.04480
H16 H 0.04480 -0.10550 0.65320
H17 H -0.00060 -0.08770 0.78390
H18 H -0.03270 -0.05660 0.65270
H19 H 0.38380 -0.12330 0.81130
H20 H 0.32670 -0.10670 0.93850
H21 H 0.50170 -0.08560 0.91130
H22 H -0.20290 0.18950 0.38760
H23 H -0.28610 0.34190 0.25320
#END
