
#######################################################################
#
#                 Cambridge Crystallographic Data Centre
#                                CCDC
#
#######################################################################
#
# If this CIF has been generated from an entry in the Cambridge
# Structural Database, then it will include bibliographic, chemical,
# crystal, experimental, refinement or atomic coordinate data resulting
# from the CCDC's data processing and validation procedures.
#
#######################################################################

data_CSD_CIF_FAYTIK
_audit_creation_date 2012-09-04
_audit_creation_method CSD-ConQuest-V1
_database_code_CSD FAYTIK
_database_code_depnum_ccdc_archive 'CCDC 816631'
_chemical_formula_sum 'C26 H23 N4 O1'
_chemical_formula_moiety
;
C26 H23 N4 O1
;
_journal_coden_Cambridge 1145
_journal_volume 22
_journal_year 2012
_journal_page_first 13260
_journal_name_full 'J.Mater.Chem. '
loop_
_publ_author_name
"Y.B.Borozdina"
"V.Kamm"
"F.Laquai"
"M.Baumgarten"
_chemical_name_systematic
;
(4,4,5,5-Tetramethyl-2-(1-(pyren-1-yl)-1H-pyrazol-4-yl)-4,5-dihydro-1H-imidazo
l-1-yl)oxidanyl monoradical
;
_chemical_melting_point 503.15
_cell_volume   2034.412
_exptl_crystal_colour 'red'
_exptl_crystal_density_diffrn 1.33
_exptl_special_details
;
Melting point range 503.15-505.15K
heat-sensitive

;
_exptl_crystal_description 'prism'
_exptl_crystal_preparation 'dichloromethane/hexane'
_diffrn_ambient_temperature 120
#These two values have been output from a single CSD field.
_refine_ls_R_factor_gt 0.0508
_refine_ls_wR_factor_gt 0.0508
_symmetry_cell_setting monoclinic
_symmetry_space_group_name_H-M 'P 21/a'
_symmetry_Int_Tables_number 14
loop_
_symmetry_equiv_pos_site_id
_symmetry_equiv_pos_as_xyz
1 x,y,z
2 1/2-x,1/2+y,-z
3 -x,-y,-z
4 -1/2+x,-1/2-y,z
_cell_length_a 7.3261(2)
_cell_length_b 29.7850(9)
_cell_length_c 9.8773(3)
_cell_angle_alpha 90
_cell_angle_beta 109.2812(16)
_cell_angle_gamma 90
_cell_formula_units_Z 4
loop_
_atom_type_symbol
_atom_type_radius_bond
C 0.68
H 0.23
N 0.68
O 0.68
loop_
_atom_site_label
_atom_site_type_symbol
_atom_site_fract_x
_atom_site_fract_y
_atom_site_fract_z
C1 C 0.4284(2) 0.27661(6) 0.56434(19)
C2 C 0.4333(3) 0.32456(6) 0.5607(2)
C3 C 0.3321(3) 0.34655(7) 0.4333(2)
C4 C 0.2305(3) 0.32290(7) 0.3115(2)
C5 C 0.2247(3) 0.27619(7) 0.3139(2)
C6 C 0.3219(3) 0.25251(6) 0.43946(19)
C7 C 0.3169(3) 0.20451(6) 0.4469(2)
C8 C 0.4110(2) 0.18184(6) 0.56986(18)
C9 C 0.5220(2) 0.20532(6) 0.69733(18)
C10 C 0.5296(2) 0.25321(6) 0.69343(18)
C11 C 0.6345(3) 0.27776(6) 0.8179(2)
C12 C 0.6393(3) 0.32604(6) 0.8098(2)
C13 C 0.5447(3) 0.34807(6) 0.6879(2)
C14 C 0.7308(3) 0.25472(6) 0.9441(2)
C15 C 0.7232(3) 0.20818(6) 0.94931(19)
C16 C 0.6203(2) 0.18401(6) 0.82763(19)
C17 C 0.6690(2) 0.10461(6) 0.76552(18)
C18 C 0.6434(2) 0.06355(6) 0.82152(19)
C19 C 0.5685(3) 0.07426(6) 0.93286(19)
C20 C 0.6968(2) 0.01900(6) 0.78936(17)
C21 C 0.7435(3) -0.05596(6) 0.78847(19)
C22 C 0.8687(3) -0.08767(7) 0.9031(2)
C23 C 0.5546(3) -0.07939(7) 0.7058(2)
C24 C 0.8490(3) -0.03531(6) 0.68892(18)
C25 C 1.0678(3) -0.03158(7) 0.7589(2)
C26 C 0.7989(3) -0.05585(7) 0.5402(2)
N1 N 0.6129(2) 0.13627(5) 0.84127(15)
N2 N 0.5517(2) 0.11803(5) 0.94652(16)
N3 N 0.7708(2) 0.01129(5) 0.67752(16)
N4 N 0.6877(2) -0.01688(5) 0.86021(16)
O1 O 0.7996(2) 0.04114(5) 0.59435(15)
H1 H 0.33270 0.37840 0.43060
H2 H 0.16460 0.33860 0.22550
H3 H 0.15430 0.26010 0.22970
H4 H 0.24600 0.18810 0.36360
H5 H 0.40290 0.15000 0.57170
H6 H 0.71090 0.34260 0.89240
H7 H 0.55190 0.37990 0.68570
H8 H 0.80190 0.27110 1.02730
H9 H 0.78780 0.19280 1.03620
H10 H 0.71650 0.10960 0.68810
H11 H 0.53390 0.05250 0.99030
H12 H 0.98670 -0.07320 0.95490
H13 H 0.80160 -0.09560 0.96710
H14 H 0.89540 -0.11400 0.85860
H15 H 0.47670 -0.05970 0.63440
H16 H 0.48780 -0.08730 0.77000
H17 H 0.58160 -0.10570 0.66140
H18 H 1.12190 -0.01880 0.69260
H19 H 1.09630 -0.01300 0.84140
H20 H 1.12120 -0.06060 0.78610
H21 H 0.86990 -0.04110 0.48830
H22 H 0.83100 -0.08690 0.54870
H23 H 0.66430 -0.05250 0.49070
#END
