
#######################################################################
#
#                 Cambridge Crystallographic Data Centre
#                                CCDC
#
#######################################################################
#
# If this CIF has been generated from an entry in the Cambridge
# Structural Database, then it will include bibliographic, chemical,
# crystal, experimental, refinement or atomic coordinate data resulting
# from the CCDC's data processing and validation procedures.
#
#######################################################################

data_CSD_CIF_FAYXOU
_audit_creation_date 2012-07-19
_audit_creation_method CSD-ConQuest-V1
_database_code_CSD FAYXOU
_database_code_depnum_ccdc_archive 'CCDC 869654'
_chemical_formula_sum 'C35 H42 N4 O13'
_chemical_formula_moiety
;
C35 H42 N4 O13
;
_journal_coden_Cambridge 182
_journal_volume 48
_journal_year 2012
_journal_page_first 6337
_journal_name_full 'Chem.Commun. '
loop_
_publ_author_name
"Ting Qi"
"V.Maurizot"
"H.Noguchi"
"T.Charoenraks"
"B.Kauffmann"
"M.Takafuji"
"H.Ihara"
"I.Huc"
_chemical_name_systematic
;
Methyl 
4-(2-(2-(2-methoxyethoxy)ethoxy)ethoxy)-8-(((4-(2-(2-(2-methoxyethoxy)ethoxy)e
thoxy)-8-nitroquinolin-2-yl)carbonyl)amino)quinoline-2-carboxylate
;
_cell_volume   7119.239
_exptl_crystal_colour 'yellow'
_diffrn_ambient_temperature 213
#These two values have been output from a single CSD field.
_refine_ls_R_factor_gt 0.0594
_refine_ls_wR_factor_gt 0.0594
_symmetry_cell_setting orthorhombic
_symmetry_space_group_name_H-M 'P b c 21'
_symmetry_Int_Tables_number 29
loop_
_symmetry_equiv_pos_site_id
_symmetry_equiv_pos_as_xyz
1 x,y,z
2 -x,-y,1/2+z
3 -x,1/2+y,z
4 x,1/2-y,1/2+z
_cell_length_a 7.3608(15)
_cell_length_b 24.153(5)
_cell_length_c 40.044(8)
_cell_angle_alpha 90
_cell_angle_beta 90
_cell_angle_gamma 90
_cell_formula_units_Z 8
loop_
_atom_type_symbol
_atom_type_radius_bond
C 0.68
H 0.23
N 0.68
O 0.68
loop_
_atom_site_label
_atom_site_type_symbol
_atom_site_fract_x
_atom_site_fract_y
_atom_site_fract_z
O1 O 0.6201(6) 0.39176(15) 0.45808(11)
O2 O 2.0581(7) 0.22114(17) 0.35750(11)
O3 O 0.4525(7) 0.51898(17) 0.65777(12)
O4 O -0.1170(7) 0.53482(18) 0.48229(12)
O5 O 1.8874(7) 0.34951(16) 0.55789(12)
O6 O 0.2341(7) 0.47237(18) 0.48137(12)
N1 N 1.1102(7) 0.3933(2) 0.40634(12)
N2 N 0.8903(7) 0.4129(2) 0.64734(12)
N3 N 1.3286(8) 0.30464(19) 0.40725(13)
H1 H 1.34820 0.33560 0.39720
O7 O 1.1864(7) 0.47926(17) 0.36559(12)
O8 O 2.6217(7) 0.20673(16) 0.53312(12)
N4 N 1.6199(7) 0.33011(19) 0.36788(13)
O9 O 1.4476(7) 0.21880(18) 0.41600(13)
C1 C 0.5024(10) 0.4395(3) 0.45741(19)
H2 H 0.46040 0.44670 0.43490
H3 H 0.56610 0.47200 0.46550
N5 N 1.1790(8) 0.43769(19) 0.60870(12)
H4 H 1.15920 0.40690 0.61890
O10 O -0.4754(9) 0.5765(2) 0.46394(14)
O11 O 0.9957(9) 0.5327(2) 0.39346(14)
C2 C 0.0035(11) 0.5252(3) 0.5089(2)
H5 H -0.06130 0.52670 0.53000
H6 H 0.09770 0.55330 0.50910
C3 C 1.6211(10) 0.3946(2) 0.57329(17)
O12 O 2.9803(7) 0.1647(2) 0.55054(13)
C4 C 1.6184(9) 0.2808(3) 0.38269(16)
O13 O 1.3162(7) 0.26114(16) 0.64877(12)
C5 C 1.9350(12) 0.4095(3) 0.31597(18)
H7 H 1.93670 0.44330 0.30490
C6 C 2.1595(9) 0.3160(2) 0.53529(17)
H8 H 2.11430 0.32500 0.51320
H9 H 2.22680 0.34750 0.54380
C7 C 0.8424(10) 0.2995(3) 0.46213(16)
H10 H 0.73580 0.29900 0.47460
O14 O 1.5158(8) 0.2081(2) 0.62132(14)
O15 O 2.2732(6) 0.26848(17) 0.53389(12)
O16 O 2.1678(7) 0.12036(17) 0.32466(12)
O17 O 0.3402(6) 0.61702(17) 0.69371(12)
C8 C 1.6689(10) 0.4407(2) 0.55528(16)
H11 H 1.77780 0.44150 0.54350
O18 O 1.0582(7) 0.5233(2) 0.60022(13)
C9 C 0.5804(10) 0.3280(3) 0.69763(18)
H12 H 0.58160 0.29350 0.70790
C10 C 2.5033(9) 0.2188(3) 0.50655(19)
H13 H 2.40910 0.19070 0.50540
H14 H 2.57010 0.21810 0.48570
C11 C 0.3456(10) 0.4258(2) 0.47982(17)
H15 H 0.27860 0.39450 0.47090
H16 H 0.38910 0.41620 0.50190
N6 N 1.3961(7) 0.3482(2) 0.60878(12)
C12 C 1.001(1) 0.4371(2) 0.40683(17)
C13 C 0.7284(10) 0.3467(3) 0.68074(16)
C14 C 2.0826(10) 0.3751(3) 0.31432(17)
H17 H 2.18520 0.38620 0.30250
C15 C 0.4261(11) 0.3618(3) 0.69916(17)
H18 H 0.32020 0.34900 0.70920
C16 C 0.5948(10) 0.4863(3) 0.65245(15)
C17 C 1.7845(10) 0.3940(2) 0.33396(17)
C18 C 2.0072(9) 0.3024(3) 0.5579(2)
H19 H 1.94370 0.26980 0.55000
H20 H 2.05190 0.29530 0.58020
C19 C 1.9132(9) 0.2540(2) 0.36194(16)
C20 C 0.8361(10) 0.4402(3) 0.42399(17)
H21 H 0.76710 0.47250 0.42370
C21 C 0.8894(9) 0.3476(2) 0.44192(17)
O19 O 2.0823(9) 0.0388(2) 0.27366(12)
C22 C 0.8875(9) 0.4620(3) 0.63310(17)
C23 C 1.1181(9) 0.2555(2) 0.44460(17)
H22 H 1.19400 0.22480 0.44570
C24 C 1.0517(10) 0.3486(2) 0.42413(15)
O20 O 0.4074(9) 0.7043(2) 0.74146(14)
C25 C 2.0541(9) 0.1665(2) 0.37163(17)
H23 H 1.94030 0.14850 0.36610
H24 H 2.06350 0.16880 0.39580
C26 C 1.1687(10) 0.3006(2) 0.42527(15)
C27 C 1.5027(10) 0.3042(3) 0.60794(16)
C28 C 1.7758(10) 0.3423(2) 0.35043(15)
C29 C -0.3045(13) 0.5971(3) 0.4540(2)
H25 H -0.31640 0.63590 0.44820
H26 H -0.26450 0.57740 0.43430
C30 C 1.4549(11) 0.3926(3) 0.59102(16)
C31 C 0.5851(9) 0.4332(3) 0.66831(17)
C32 C 1.3902(9) 0.4860(3) 0.57251(17)
H27 H 1.31660 0.51730 0.57200
C33 C 1.6723(10) 0.3014(3) 0.59144(17)
H28 H 1.74220 0.26930 0.59240
C34 C 0.0883(9) 0.4679(3) 0.50421(17)
H29 H 0.13210 0.45400 0.52550
H30 H -0.00200 0.44230 0.49570
C35 C 1.4569(10) 0.2653(3) 0.40372(17)
O21 O 1.5284(9) 0.4330(3) 0.31198(18)
N7 N 0.889(1) 0.3101(2) 0.67971(16)
C36 C 2.0809(10) 0.3259(3) 0.32941(18)
H31 H 2.18290 0.30330 0.32800
C37 C 1.3393(10) 0.4403(2) 0.59041(16)
C38 C 1.7315(10) 0.3464(3) 0.57405(16)
C39 C 0.7388(9) 0.3981(2) 0.66508(15)
C40 C 0.4506(10) 0.5740(3) 0.64449(18)
H32 H 0.43470 0.57300 0.62040
H33 H 0.56440 0.59260 0.64940
C41 C 2.0329(15) 0.0322(4) 0.2400(2)
H34 H 2.12480 0.01050 0.22860
H35 H 2.02730 0.06820 0.22940
C42 C 1.0491(10) 0.4773(3) 0.61267(16)
C43 C 0.9566(11) 0.2554(3) 0.46240(16)
H36 H 0.92590 0.22430 0.47490
C44 C 0.4328(11) 0.4148(3) 0.68545(16)
H37 H 0.33330 0.43820 0.68780
C45 C 0.2052(11) 0.6492(3) 0.7102(2)
H38 H 0.09410 0.62780 0.71210
H39 H 0.17890 0.68200 0.69710
C46 C 1.7635(9) 0.2419(2) 0.38074(16)
H40 H 1.75650 0.20850 0.39220
C47 C 2.4195(10) 0.2735(3) 0.51109(17)
H41 H 2.50870 0.29950 0.51970
H42 H 2.37560 0.28740 0.48980
C48 C 0.7791(9) 0.3948(3) 0.44109(16)
C49 C 2.8123(11) 0.1434(3) 0.5621(2)
H43 H 2.77460 0.16300 0.58210
H44 H 2.82470 0.10440 0.56750
C50 C 0.2679(14) 0.6656(4) 0.7437(2)
H45 H 0.16730 0.68140 0.75610
H46 H 0.31060 0.63320 0.75570
C51 C 1.9272(10) 0.3074(3) 0.34748(16)
C52 C 2.2085(10) 0.1341(3) 0.35803(17)
H47 H 2.31920 0.15580 0.35900
H48 H 2.22620 0.10070 0.37110
C53 C 1.5555(12) 0.4851(3) 0.5548(2)
H49 H 1.58820 0.51600 0.54240
N8 N 1.6271(8) 0.4314(2) 0.33501(17)
C54 C 0.2969(10) 0.6041(3) 0.66037(19)
H50 H 0.27230 0.63790 0.64810
H51 H 0.18860 0.58130 0.65970
C55 C 0.7515(10) 0.5005(2) 0.63529(16)
H52 H 0.76380 0.53530 0.62550
C56 C 2.2929(12) 0.0817(3) 0.3119(2)
H53 H 2.28700 0.04780 0.32480
H54 H 2.41510 0.09650 0.31370
C57 C -0.1656(11) 0.5912(2) 0.4804(2)
H55 H -0.05990 0.61350 0.47510
H56 H -0.21410 0.60350 0.50170
O22 O 1.0094(9) 0.3171(3) 0.6987(2)
C58 C 2.6732(11) 0.1509(3) 0.5350(2)
H57 H 2.72370 0.13920 0.51370
H58 H 2.56750 0.12820 0.53970
C59 C 0.528(3) 0.7231(5) 0.7705(3)
H59 H 0.55970 0.69230 0.78490
H60 H 0.63790 0.74070 0.76250
C60 C 1.0608(10) 0.4886(3) 0.38875(18)
C61 C 1.4456(11) 0.2528(3) 0.62711(19)
O23 O 1.6030(9) 0.4587(2) 0.35948(17)
O24 O 1.8680(9) -0.0522(3) 0.24356(15)
C62 C 2.2497(15) 0.0698(4) 0.2763(2)
H61 H 2.23800 0.10440 0.26420
H62 H 2.34810 0.04880 0.26640
O25 O 0.8814(10) 0.2714(3) 0.66082(19)
C63 C 1.858(2) 0.0049(5) 0.2368(2)
H63 H 1.77260 0.02200 0.25210
H64 H 1.81270 0.01030 0.21430
C64 C 1.2301(11) 0.5269(3) 0.3450(2)
H65 H 1.31810 0.51640 0.32840
H66 H 1.27910 0.55580 0.35870
H67 H 1.12190 0.53990 0.33410
O26 O 0.3918(13) 0.8124(3) 0.7730(2)
C65 C 3.1187(12) 0.1604(3) 0.5753(2)
H68 H 3.22970 0.17580 0.56680
H69 H 3.13730 0.12220 0.58090
H70 H 3.08230 0.18040 0.59490
C66 C 1.2692(11) 0.2127(3) 0.6690(2)
H71 H 1.17220 0.22210 0.68400
H72 H 1.37350 0.20120 0.68170
H73 H 1.23120 0.18300 0.65470
C67 C -0.6093(13) 0.5805(4) 0.4382(3)
H74 H -0.72330 0.56670 0.44630
H75 H -0.57170 0.55890 0.41930
H76 H -0.62290 0.61850 0.43160
C68 C 0.2278(19) 0.8429(5) 0.7886(4)
H77 H 0.21530 0.87870 0.77840
H78 H 0.24710 0.84720 0.81220
H79 H 0.11920 0.82180 0.78490
C69 C 1.7113(17) -0.0836(6) 0.2342(3)
H80 H 1.72830 -0.12160 0.24060
H81 H 1.69440 -0.08140 0.21050
H82 H 1.60620 -0.06900 0.24530
C70 C 0.414(2) 0.7615(6) 0.7874(4)
H83 H 0.29550 0.74470 0.78990
H84 H 0.46340 0.76700 0.80960
#END
