
#######################################################################
#
#                 Cambridge Crystallographic Data Centre
#                                CCDC
#
#######################################################################
#
# If this CIF has been generated from an entry in the Cambridge
# Structural Database, then it will include bibliographic, chemical,
# crystal, experimental, refinement or atomic coordinate data resulting
# from the CCDC's data processing and validation procedures.
#
#######################################################################

data_CSD_CIF_FAYZOX
_audit_creation_date 2017-07-11
_audit_creation_method CSD-ConQuest-V1
_database_code_CSD FAYZOX
_database_code_depnum_ccdc_archive 'CCDC 1550123'
_chemical_formula_sum 'C17 H21 N5 O5'
_chemical_formula_moiety
;
C17 H21 N5 O5
;
_journal_coden_Cambridge 1037
_journal_volume 18
_journal_year 2017
_journal_page_first 181-3
_journal_name_full 'ARKIVOC '
loop_
_publ_author_name
"M.A.Bastrakov"
"A.Yu.Kucherova"
"A.M.Starosotnikov"
"I.V.Fedyanin"
"A.K.Fedorenko"
"S.A.Shevelev"
"I.L.Dalinger"
_chemical_name_systematic
;
2,7-dimethyl-5a,8b-dinitro-5-phenoxy-1,2,3,3a,5a,6,7,8,8a,8b-decahydrodipyrrol
o[3,4-b:3',4'-d]pyridine
;
_cell_volume   1805.731
_exptl_crystal_colour 'colorless'
_exptl_crystal_density_diffrn 1.381
_exptl_crystal_description 'plate'
_diffrn_ambient_temperature 120
#These two values have been output from a single CSD field.
_refine_ls_R_factor_gt 0.0326
_refine_ls_wR_factor_gt 0.0326
_symmetry_cell_setting monoclinic
_symmetry_space_group_name_H-M 'P 21/n'
_symmetry_Int_Tables_number 14
loop_
_symmetry_equiv_pos_site_id
_symmetry_equiv_pos_as_xyz
1 x,y,z
2 1/2-x,1/2+y,1/2-z
3 -x,-y,-z
4 -1/2+x,-1/2-y,-1/2+z
_cell_length_a 12.6465(1)
_cell_length_b 11.0625(1)
_cell_length_c 14.0367(1)
_cell_angle_alpha 90
_cell_angle_beta 113.143(1)
_cell_angle_gamma 90
_cell_formula_units_Z 4
loop_
_atom_type_symbol
_atom_type_radius_bond
C 0.68
H 0.23
N 0.68
O 0.68
loop_
_atom_site_label
_atom_site_type_symbol
_atom_site_fract_x
_atom_site_fract_y
_atom_site_fract_z
O1 O 0.76988(7) 0.18363(8) 0.56936(6)
O2 O 0.98120(8) 0.37059(8) 0.67501(7)
O3 O 0.82046(8) 0.46789(9) 0.61853(7)
O4 O 0.74441(8) 0.60982(8) 0.25585(7)
O5 O 0.64883(9) 0.45685(9) 0.16893(7)
N1 N 0.64626(8) 0.26467(9) 0.41500(7)
N2 N 0.99561(8) 0.32446(9) 0.43722(8)
N3 N 0.88816(9) 0.39546(9) 0.60772(7)
N4 N 0.52355(8) 0.53653(9) 0.31692(8)
N5 N 0.69695(9) 0.51188(9) 0.24998(8)
C1 C 0.74326(10) 0.26244(10) 0.48798(9)
C2 C 0.84962(10) 0.33422(10) 0.50115(9)
C3 C 0.82976(10) 0.4321(1) 0.41665(9)
H1 H 0.86780 0.50890 0.45060
C4 C 0.70248(10) 0.45696(10) 0.35257(8)
C5 C 0.6210(1) 0.34747(10) 0.32761(9)
H2 H 0.62190 0.30320 0.26580
C6 C 0.94391(10) 0.25178(11) 0.4942(1)
H3 H 1.00120 0.23110 0.56400
H4 H 0.91070 0.17620 0.45650
C7 C 0.89619(10) 0.37881(11) 0.35523(9)
H5 H 0.84990 0.31730 0.30480
H6 H 0.91970 0.44270 0.31820
C8 C 1.06739(12) 0.25222(13) 0.39871(12)
H7 H 1.10000 0.30450 0.36080
H8 H 1.02050 0.18910 0.35230
H9 H 1.12980 0.21470 0.45730
C9 C 0.50206(10) 0.40597(11) 0.30227(10)
H10 H 0.44960 0.38810 0.23000
H11 H 0.46710 0.37510 0.34940
C10 C 0.64087(10) 0.54792(10) 0.39401(9)
H12 H 0.64630 0.52560 0.46410
H13 H 0.67120 0.63070 0.39560
C11 C 0.43756(11) 0.60115(13) 0.34165(11)
H14 H 0.45580 0.68760 0.34840
H15 H 0.43730 0.57060 0.40710
H16 H 0.36160 0.58880 0.28620
C12 C 0.70712(10) 0.07511(11) 0.55422(9)
C13 C 0.66988(11) 0.04066(12) 0.63006(10)
H17 H 0.68180 0.09130 0.68800
C14 C 0.61428(11) -0.07021(13) 0.61988(10)
H18 H 0.58790 -0.09560 0.67140
C15 C 0.59739(11) -0.14319(12) 0.53582(11)
H19 H 0.55900 -0.21850 0.52910
C16 C 0.63638(12) -0.10679(12) 0.46086(11)
H20 H 0.62480 -0.15750 0.40300
C17 C 0.69202(11) 0.00299(11) 0.46963(10)
H21 H 0.71920 0.02810 0.41860
#END
