
#######################################################################
#
#                 Cambridge Crystallographic Data Centre
#                                CCDC
#
#######################################################################
#
# If this CIF has been generated from an entry in the Cambridge
# Structural Database, then it will include bibliographic, chemical,
# crystal, experimental, refinement or atomic coordinate data resulting
# from the CCDC's data processing and validation procedures.
#
#######################################################################

data_CSD_CIF_FAZFOE
_audit_creation_date 2017-07-11
_audit_creation_method CSD-ConQuest-V1
_database_code_CSD FAZFOE
_database_code_depnum_ccdc_archive 'CCDC 1519801'
_chemical_formula_sum 'C19 H13 N1 O4'
_chemical_formula_moiety
;
C19 H13 N1 O4
;
_journal_coden_Cambridge 1037
_journal_volume 18
_journal_year 2017
_journal_page_first 41-3
_journal_name_full 'ARKIVOC '
loop_
_publ_author_name
"A.Tzinavou"
"C.Dolka"
"P.G.Tsoungas"
"E.Van der Eycken"
"L.Van Meervelt"
"G.Varvounis"
_chemical_name_systematic
;
1-(1-benzoyl-4-nitro-2-naphthyl)ethanone
;
_cell_volume   2954.390
_exptl_crystal_colour 'colorless'
_exptl_crystal_density_diffrn 1.436
_exptl_crystal_description 'needle'
_diffrn_ambient_temperature 100.2
#These two values have been output from a single CSD field.
_refine_ls_R_factor_gt 0.06
_refine_ls_wR_factor_gt 0.06
_symmetry_cell_setting monoclinic
_symmetry_space_group_name_H-M 'P 21/c'
_symmetry_Int_Tables_number 14
loop_
_symmetry_equiv_pos_site_id
_symmetry_equiv_pos_as_xyz
1 x,y,z
2 -x,1/2+y,1/2-z
3 -x,-y,-z
4 x,-1/2-y,-1/2+z
_cell_length_a 9.2487(4)
_cell_length_b 34.4391(13)
_cell_length_c 9.2838(4)
_cell_angle_alpha 90
_cell_angle_beta 92.429(3)
_cell_angle_gamma 90
_cell_formula_units_Z 8
loop_
_atom_type_symbol
_atom_type_radius_bond
C 0.68
H 0.23
N 0.68
O 0.68
loop_
_atom_site_label
_atom_site_type_symbol
_atom_site_fract_x
_atom_site_fract_y
_atom_site_fract_z
C1 C 0.9910(3) 0.06640(8) 0.1650(3)
C2 C 0.9050(3) 0.09152(8) 0.2344(3)
H1 H 0.90150 0.09030 0.33640
C3 C 0.8210(3) 0.11925(9) 0.1580(3)
C4 C 0.8214(3) 0.11953(8) 0.0086(3)
C5 C 0.9123(3) 0.09367(9) -0.0657(3)
C6 C 1.0036(3) 0.06663(8) 0.0115(3)
C7 C 0.9159(3) 0.09474(9) -0.2186(3)
H2 H 0.85380 0.11210 -0.27130
C8 C 1.0068(3) 0.07125(9) -0.2911(3)
H3 H 1.00960 0.07280 -0.39310
C9 C 1.0963(3) 0.04482(9) -0.2144(3)
H4 H 1.15900 0.02850 -0.26560
C10 C 1.0950(3) 0.04207(9) -0.0677(3)
H5 H 1.15540 0.02370 -0.01840
C11 C 0.7367(3) 0.14913(9) 0.2366(3)
C12 C 0.7595(4) 0.15173(10) 0.3976(3)
H6 H 0.71100 0.17500 0.43280
H7 H 0.86330 0.15330 0.42260
H8 H 0.71890 0.12860 0.44230
C13 C 0.7236(3) 0.14623(9) -0.0840(3)
C14 C 0.7855(3) 0.18385(9) -0.1317(3)
C15 C 0.7138(3) 0.20448(9) -0.2434(3)
H9 H 0.62570 0.19480 -0.28570
C16 C 0.7713(4) 0.23880(9) -0.2918(3)
H10 H 0.72340 0.25260 -0.36840
C17 C 0.8992(3) 0.25314(9) -0.2283(3)
H11 H 0.93790 0.27690 -0.26110
C18 C 0.9704(4) 0.23311(9) -0.1182(3)
H12 H 1.05760 0.24310 -0.07500
C19 C 0.9140(3) 0.19811(9) -0.0704(3)
H13 H 0.96370 0.18400 0.00440
N1 N 1.0762(3) 0.03965(7) 0.2592(3)
O1 O 1.1937(2) 0.02807(7) 0.2204(2)
O2 O 1.0254(3) 0.03067(6) 0.3749(2)
O3 O 0.6550(2) 0.17085(6) 0.1701(2)
O4 O 0.6060(2) 0.13463(6) -0.1273(2)
C20 C 0.5099(3) 0.06272(8) 0.1906(3)
C21 C 0.4269(3) 0.08833(9) 0.1136(3)
H14 H 0.42820 0.08830 0.01140
C22 C 0.3386(3) 0.11502(9) 0.1840(3)
C23 C 0.3366(3) 0.11468(8) 0.3336(3)
C24 C 0.4298(3) 0.08923(9) 0.4156(3)
C25 C 0.5211(3) 0.06229(8) 0.3444(3)
C26 C 0.4390(4) 0.09061(9) 0.5695(3)
H15 H 0.37820 0.10790 0.61890
C27 C 0.5334(4) 0.06757(9) 0.6463(3)
H16 H 0.53790 0.06890 0.74860
C28 C 0.6246(4) 0.04170(9) 0.5756(3)
H17 H 0.69080 0.02590 0.63040
C29 C 0.6186(3) 0.03911(9) 0.4281(3)
H18 H 0.68060 0.02150 0.38170
C30 C 0.2474(3) 0.14374(9) 0.1014(3)
C31 C 0.2607(3) 0.14623(10) -0.0599(3)
H19 H 0.20040 0.16760 -0.09820
H20 H 0.22830 0.12180 -0.10450
H21 H 0.36190 0.15100 -0.08170
C32 C 0.2370(3) 0.14019(9) 0.4189(3)
C33 C 0.2895(3) 0.17911(9) 0.4677(3)
C34 C 0.4082(3) 0.19648(9) 0.4058(3)
H22 H 0.45600 0.18360 0.33080
C35 C 0.4563(4) 0.23235(9) 0.4536(3)
H23 H 0.53580 0.24440 0.40990
C36 C 0.3889(3) 0.25098(9) 0.5651(3)
H24 H 0.42300 0.27550 0.59850
C37 C 0.2717(4) 0.23359(10) 0.6276(3)
H25 H 0.22580 0.24630 0.70410
C38 C 0.2215(3) 0.19797(9) 0.5793(3)
H26 H 0.14060 0.18630 0.62190
N2 N 0.5893(3) 0.03396(7) 0.1080(3)
O5 O 0.5967(2) 0.00047(6) 0.1542(2)
O6 O 0.6433(2) 0.04457(6) -0.0039(2)
O7 O 0.1656(2) 0.16521(6) 0.1644(2)
O8 O 0.1232(2) 0.12655(6) 0.4569(2)
#END
