
#######################################################################
#
#                 Cambridge Crystallographic Data Centre
#                                CCDC
#
#######################################################################
#
# If this CIF has been generated from an entry in the Cambridge
# Structural Database, then it will include bibliographic, chemical,
# crystal, experimental, refinement or atomic coordinate data resulting
# from the CCDC's data processing and validation procedures.
#
#######################################################################

data_CSD_CIF_FAZGOF
_audit_creation_date 2017-07-11
_audit_creation_method CSD-ConQuest-V1
_database_code_CSD FAZGOF
_database_code_depnum_ccdc_archive 'CCDC 1528040'
_chemical_formula_sum 'C13 H11 N5 O3'
_chemical_formula_moiety
;
C13 H11 N5 O3
;
_journal_coden_Cambridge 1037
_journal_volume 18
_journal_year 2017
_journal_page_first 140-3
_journal_name_full 'ARKIVOC '
loop_
_publ_author_name
"L.L.Fershtat"
"M.R.Radzhabov"
"A.A.Romanova"
"I.V.Ananyev"
"N.N.Makhovaa"
_chemical_name_systematic
;
1-[5-methyl-1-(5-oxo-4-phenyl-1,2,5-oxadiazol-3-yl)-1H-1,2,3-triazol-4-yl]etha
n-1-one
;
_cell_volume   1350.156
_exptl_crystal_density_diffrn 1.403
_exptl_crystal_description 'Prism'
_diffrn_ambient_temperature 296
_refine_special_details
;
C1A,C2,O1 and C1A',C2',O1' and C1A.

;
#These two values have been output from a single CSD field.
_refine_ls_R_factor_gt 0.0619
_refine_ls_wR_factor_gt 0.0619
_symmetry_cell_setting monoclinic
_symmetry_space_group_name_H-M 'P 2/n'
_symmetry_Int_Tables_number 13
loop_
_symmetry_equiv_pos_site_id
_symmetry_equiv_pos_as_xyz
1 x,y,z
2 1/2-x,y,1/2-z
3 -x,-y,-z
4 -1/2+x,-y,-1/2+z
_cell_length_a 12.284(2)
_cell_length_b 6.9526(14)
_cell_length_c 16.078(4)
_cell_angle_alpha 90
_cell_angle_beta 100.501(4)
_cell_angle_gamma 90
_cell_formula_units_Z 4
loop_
_atom_type_symbol
_atom_type_radius_bond
C 0.68
H 0.23
N 0.68
O 0.68
loop_
_atom_site_label
_atom_site_type_symbol
_atom_site_fract_x
_atom_site_fract_y
_atom_site_fract_z
N1 N -0.02004(11) 0.19196(19) 0.57956(8)
O1 O 0.01466(9) 0.14171(18) 0.66825(7)
O2 O -0.12001(9) 0.2002(2) 0.55313(9)
C1 C 0.07028(12) 0.21785(19) 0.54634(9)
C2 C 0.06741(12) 0.2643(2) 0.45735(9)
N2 N 0.27193(10) 0.21462(17) 0.61481(8)
C3 C 0.15890(12) 0.1890(2) 0.61527(9)
N3 N 0.12732(11) 0.1456(2) 0.68597(8)
C4 C 0.16159(15) 0.2370(3) 0.42226(10)
N4 N 0.31183(12) 0.3996(2) 0.61561(10)
C5 C 0.44477(12) 0.1952(3) 0.61283(10)
C6 C 0.35254(12) 0.0832(2) 0.61316(9)
C7 C -0.02982(14) 0.3311(2) 0.40562(10)
N5 N 0.41642(13) 0.3844(2) 0.61479(11)
C8 C -0.03028(18) 0.3686(3) 0.32128(11)
C9 C 0.15872(18) 0.2743(3) 0.33726(12)
C10 C 0.33278(16) -0.1261(3) 0.61328(14)
H1 H 0.40080 -0.19300 0.61190
H2 H 0.30570 -0.16110 0.66360
H3 H 0.27900 -0.16050 0.56440
C11 C 0.06356(19) 0.3393(3) 0.28680(12)
O3 O 0.5690(8) -0.0535(14) 0.5968(13)
C12 C 0.5574(6) 0.1144(14) 0.6151(14)
C13 C 0.6512(6) 0.2617(17) 0.6291(7)
H4 H 0.62290 0.38410 0.64280
H5 H 0.70790 0.22010 0.67480
H6 H 0.68180 0.27340 0.57850
H7 H -0.0938(14) 0.354(2) 0.4315(11)
H8 H 0.2280(18) 0.187(3) 0.4545(14)
H9 H 0.0627(19) 0.362(3) 0.2317(16)
H10 H 0.229(2) 0.267(3) 0.3207(17)
H11 H -0.0967(18) 0.414(4) 0.2887(14)
C14? C 0.6343(6) 0.3210(15) 0.5985(7)
H12? H 0.59310 0.43750 0.60100
H13? H 0.69550 0.31730 0.64510
H14? H 0.66170 0.31700 0.54630
C15? C 0.5596(7) 0.1492(14) 0.6033(12)
O4? O 0.5888(8) -0.0194(15) 0.6015(12)
C16? C 0.6447(8) 0.298(3) 0.6475(13)
H15? H 0.60480 0.41780 0.64350
H16? H 0.68330 0.28050 0.70450
H17? H 0.69710 0.30110 0.60990
O5? O 0.5879(12) -0.039(2) 0.6216(14)
C17? C 0.5631(8) 0.132(2) 0.623(2)
#END
