
#######################################################################
#
#                 Cambridge Crystallographic Data Centre
#                                CCDC
#
#######################################################################
#
# If this CIF has been generated from an entry in the Cambridge
# Structural Database, then it will include bibliographic, chemical,
# crystal, experimental, refinement or atomic coordinate data resulting
# from the CCDC's data processing and validation procedures.
#
#######################################################################

data_CSD_CIF_FEBFIB
_audit_creation_date 1999-07-19
_audit_creation_method CSD-ConQuest-V1
_database_code_CSD FEBFIB
_database_code_depnum_ccdc_archive 'CCDC 120259'
_chemical_formula_sum 'C46 H56 N2 O6'
_chemical_formula_moiety
;
C46 H56 N2 O6
;
_journal_coden_Cambridge 4
_journal_volume 121
_journal_year 1999
_journal_page_first 3939
_journal_name_full 'J.Am.Chem.Soc. '
loop_
_publ_author_name
"Wen-wei Huang"
"H.Henry-Riyad"
"T.T.Tidwell"
_chemical_name_systematic
;
bis(2,2,6,6-Tetramethylpiperidinyloxycarbonyl(diphenyl)methyl) peroxide
;
_chemical_melting_point 423.15
_cell_volume   4074.429
_exptl_crystal_colour 'colorless'
_exptl_crystal_density_diffrn 1.195
_exptl_special_details
;
Melting point range 423.15-425.15K

;
_exptl_crystal_description 'needle'
_diffrn_ambient_temperature 150
#These two values have been output from a single CSD field.
_refine_ls_R_factor_gt 0.0558
_refine_ls_wR_factor_gt 0.0558
_symmetry_cell_setting monoclinic
_symmetry_space_group_name_H-M 'C 2/c'
_symmetry_Int_Tables_number 15
loop_
_symmetry_equiv_pos_site_id
_symmetry_equiv_pos_as_xyz
1 x,y,z
2 1/2+x,1/2+y,z
3 x,-y,1/2+z
4 1/2+x,1/2-y,1/2+z
5 -x,-y,-z
6 -1/2-x,-1/2-y,-z
7 -x,y,-1/2-z
8 -1/2-x,-1/2+y,-1/2-z
_cell_length_a 21.3252(12)
_cell_length_b 9.4245(3)
_cell_length_c 20.5573(12)
_cell_angle_alpha 90
_cell_angle_beta 99.542(5)
_cell_angle_gamma 90
_cell_formula_units_Z 4
loop_
_atom_type_symbol
_atom_type_radius_bond
C 0.68
H 0.23
N 0.68
O 0.68
loop_
_atom_site_label
_atom_site_type_symbol
_atom_site_fract_x
_atom_site_fract_y
_atom_site_fract_z
O1 O 0.02220(7) 0.96879(15) 0.02819(7)
C1 C 0.05959(11) 1.0866(2) 0.05715(11)
C2 C 0.10700(11) 1.0249(2) 0.11507(12)
O2 O 0.13542(9) 1.09821(17) 0.15770(9)
O3 O 0.11349(7) 0.88361(15) 0.10804(7)
N1 N 0.16220(9) 0.82111(19) 0.15964(9)
C3 C 0.21481(11) 0.7728(2) 0.12547(11)
C4 C 0.26297(11) 0.7015(2) 0.17873(12)
H1 H 0.29780 0.66120 0.15810
H2 H 0.28170 0.77410 0.21100
C5 C 0.23394(12) 0.5838(3) 0.21505(13)
H3 H 0.21810 0.50670 0.18390
H4 H 0.26660 0.54380 0.25010
C6 C 0.17974(12) 0.6446(3) 0.24509(13)
H5 H 0.19710 0.71530 0.27900
H6 H 0.16030 0.56740 0.26760
C7 C 0.12749(11) 0.7160(3) 0.19519(12)
C8 C 0.08701(13) 0.6052(3) 0.15240(15)
H7 H 0.06230 0.65190 0.11390
H8 H 0.05800 0.55940 0.17830
H9 H 0.11490 0.53350 0.13770
C9 C 0.08498(13) 0.8028(3) 0.23257(14)
H10 H 0.04810 0.83730 0.20180
H11 H 0.10900 0.88380 0.25380
H12 H 0.07050 0.74330 0.26630
C10 C 0.19585(13) 0.6753(2) 0.06571(12)
H13 H 0.18380 0.58200 0.08070
H14 H 0.23190 0.66470 0.04210
H15 H 0.15980 0.71680 0.03610
C11 C 0.24501(12) 0.9066(2) 0.10212(12)
H16 H 0.25370 0.97440 0.13860
H17 H 0.21580 0.94950 0.06560
H18 H 0.28490 0.88170 0.08720
C12 C 0.01662(11) 1.1957(2) 0.08226(12)
C13 C -0.00277(13) 1.1788(3) 0.14317(13)
H19 H 0.01370 1.10230 0.17090
C14 C -0.04567(13) 1.2715(3) 0.16400(14)
H20 H -0.05860 1.25790 0.20560
C15 C -0.06972(12) 1.3838(3) 0.12450(15)
H21 H -0.09840 1.44880 0.13920
C16 C -0.05181(12) 1.4012(3) 0.06339(15)
H22 H -0.06890 1.47710 0.03560
C17 C -0.00904(11) 1.3078(2) 0.04282(13)
H23 H 0.00310 1.32070 0.00080
C18 C 0.10204(11) 1.1439(2) 0.00964(12)
C19 C 0.13356(11) 1.2729(2) 0.02198(13)
H24 H 0.12730 1.32800 0.05910
C20 C 0.17369(12) 1.3214(3) -0.01901(13)
H25 H 0.19480 1.40980 -0.01010
C21 C 0.18362(13) 1.2428(3) -0.07293(13)
H26 H 0.21090 1.27730 -0.10160
C22 C 0.15342(13) 1.1132(3) -0.08485(13)
H27 H 0.16030 1.05790 -0.12170
C23 C 0.11336(12) 1.0634(2) -0.04353(12)
H28 H 0.09350 0.97350 -0.05170
O1D O -0.02220(7) 1.03121(15) -0.02819(7)
C1D C -0.05959(11) 0.9134(2) -0.05715(11)
C2D C -0.10700(11) 0.9751(2) -0.11507(12)
O2D O -0.13542(9) 0.90179(17) -0.15770(9)
O3D O -0.11349(7) 1.11639(15) -0.10804(7)
N1D N -0.16220(9) 1.17889(19) -0.15964(9)
C3D C -0.21481(11) 1.2272(2) -0.12547(11)
C4D C -0.26297(11) 1.2985(2) -0.17873(12)
H1D H -0.29780 1.33880 -0.15810
H2D H -0.28170 1.22590 -0.21100
C5D C -0.23394(12) 1.4162(3) -0.21505(13)
H3D H -0.21810 1.49330 -0.18390
H4D H -0.26660 1.45620 -0.25010
C6D C -0.17974(12) 1.3554(3) -0.24509(13)
H5D H -0.19710 1.28470 -0.27900
H6D H -0.16030 1.43260 -0.26760
C7D C -0.12749(11) 1.2840(3) -0.19519(12)
C8D C -0.08701(13) 1.3948(3) -0.15240(15)
H7D H -0.06230 1.34810 -0.11390
H8D H -0.05800 1.44060 -0.17830
H9D H -0.11490 1.46650 -0.13770
C9D C -0.08498(13) 1.1972(3) -0.23257(14)
H10D H -0.04810 1.16270 -0.20180
H11D H -0.10900 1.11620 -0.25380
H12D H -0.07050 1.25670 -0.26630
C10D C -0.19585(13) 1.3247(2) -0.06571(12)
H13D H -0.18380 1.41800 -0.08070
H14D H -0.23190 1.33530 -0.04210
H15D H -0.15980 1.28320 -0.03610
C11D C -0.24501(12) 1.0934(2) -0.10212(12)
H16D H -0.25370 1.02560 -0.13860
H17D H -0.21580 1.05050 -0.06560
H18D H -0.28490 1.11830 -0.08720
C12D C -0.01662(11) 0.8043(2) -0.08226(12)
C13D C 0.00277(13) 0.8212(3) -0.14317(13)
H19D H -0.01370 0.89770 -0.17090
C14D C 0.04567(13) 0.7285(3) -0.16400(14)
H20D H 0.05860 0.74210 -0.20560
C15D C 0.06972(12) 0.6162(3) -0.12450(15)
H21D H 0.09840 0.55120 -0.13920
C16D C 0.05181(12) 0.5988(3) -0.06339(15)
H22D H 0.06890 0.52290 -0.03560
C17D C 0.00904(11) 0.6922(2) -0.04282(13)
H23D H -0.00310 0.67930 -0.00080
C18D C -0.10204(11) 0.8561(2) -0.00964(12)
C19D C -0.13356(11) 0.7271(2) -0.02198(13)
H24D H -0.12730 0.67200 -0.05910
C20D C -0.17369(12) 0.6786(3) 0.01901(13)
H25D H -0.19480 0.59020 0.01010
C21D C -0.18362(13) 0.7572(3) 0.07293(13)
H26D H -0.21090 0.72270 0.10160
C22D C -0.15342(13) 0.8868(3) 0.08485(13)
H27D H -0.16030 0.94210 0.12170
C23D C -0.11336(12) 0.9366(2) 0.04353(12)
H28D H -0.09350 1.02650 0.05170
#END
