
#######################################################################
#
#                 Cambridge Crystallographic Data Centre
#                                CCDC
#
#######################################################################
#
# If this CIF has been generated from an entry in the Cambridge
# Structural Database, then it will include bibliographic, chemical,
# crystal, experimental, refinement or atomic coordinate data resulting
# from the CCDC's data processing and validation procedures.
#
#######################################################################

data_CSD_CIF_FEBGIF
_audit_creation_date 2017-07-12
_audit_creation_method CSD-ConQuest-V1
_database_code_CSD FEBGIF
_database_code_depnum_ccdc_archive 'CCDC 1548954'
_chemical_formula_sum 'C14 H26 N2 O6'
_chemical_formula_moiety
;
C14 H26 N2 O6
;
_journal_coden_Cambridge 1336
_journal_volume 19
_journal_year 2017
_journal_page_first 3572
_journal_name_full 'Org.Lett. '
loop_
_publ_author_name
"R.M.Reja"
"S.Sunny"
"H.N.Gopi"
_chemical_name_systematic
;
t-butyl N-(t-butoxycarbonyl)-5-nitronorvalinate
;
_cell_volume   1833.471
_exptl_crystal_colour 'colorless'
_exptl_crystal_density_diffrn 1.153
_exptl_crystal_description 'rod'
_diffrn_ambient_temperature 296
#These two values have been output from a single CSD field.
_refine_ls_R_factor_gt 0.0713
_refine_ls_wR_factor_gt 0.0713
_symmetry_cell_setting monoclinic
_symmetry_space_group_name_H-M 'P 21'
_symmetry_Int_Tables_number 4
loop_
_symmetry_equiv_pos_site_id
_symmetry_equiv_pos_as_xyz
1 x,y,z
2 -x,1/2+y,-z
_cell_length_a 9.289(4)
_cell_length_b 20.701(8)
_cell_length_c 10.602(6)
_cell_angle_alpha 90
_cell_angle_beta 115.928(10)
_cell_angle_gamma 90
_cell_formula_units_Z 4
loop_
_atom_type_symbol
_atom_type_radius_bond
C 0.68
H 0.23
N 0.68
O 0.68
loop_
_atom_site_label
_atom_site_type_symbol
_atom_site_fract_x
_atom_site_fract_y
_atom_site_fract_z
O1 O 0.7993(4) 0.57561(18) 0.5942(4)
O2 O 0.9814(4) 0.5420(2) 0.5219(4)
O3 O 1.1320(5) 0.5795(2) 0.8861(4)
O4 O 0.9746(5) 0.5722(2) 1.0010(4)
N1 N 0.9384(5) 0.5044(2) 0.8308(4)
H1 H 0.87490 0.48460 0.85720
C1 C 1.0259(7) 0.5549(3) 0.9055(5)
C2 C 0.9160(6) 0.5372(3) 0.5982(5)
C3 C 0.9521(6) 0.4836(3) 0.7053(6)
H2 H 1.06220 0.46900 0.73320
N2 N 0.7773(8) 0.2884(3) 0.5383(7)
C4 C 0.8399(7) 0.4263(3) 0.6404(6)
H3 H 0.87120 0.39150 0.70840
H4 H 0.73210 0.43920 0.62190
C5 C 0.7427(7) 0.6311(3) 0.4943(7)
C6 C 0.8377(8) 0.4008(3) 0.5061(7)
H5 H 0.80680 0.43540 0.43750
H6 H 0.94490 0.38720 0.52410
C7 C 1.0473(7) 0.6277(3) 1.0969(6)
C8 C 1.2240(8) 0.6149(4) 1.1866(7)
H7 H 1.23670 0.57490 1.23630
H8 H 1.26890 0.64950 1.25270
H9 H 1.27820 0.61220 1.12770
O5 O 0.9126(8) 0.2716(3) 0.5848(10)
C9 C 0.9569(9) 0.6268(4) 1.1858(8)
H10 H 0.84490 0.63300 1.12690
H11 H 0.99570 0.66080 1.25400
H12 H 0.97280 0.58590 1.23280
C10 C 0.8825(10) 0.6756(4) 0.5232(10)
H13 H 0.93950 0.68300 0.62230
H14 H 0.84390 0.71590 0.47590
H15 H 0.95300 0.65600 0.48970
C11 C 1.0179(10) 0.6888(4) 1.0142(8)
H16 H 1.07710 0.68790 0.95920
H17 H 1.05210 0.72500 1.07700
H18 H 0.90570 0.69280 0.95310
C12 C 0.7249(8) 0.3452(3) 0.4461(7)
H19 H 0.61880 0.35790 0.43320
H20 H 0.71860 0.33410 0.35500
C13 C 0.6202(9) 0.6622(4) 0.5344(8)
H21 H 0.53540 0.63210 0.51870
H22 H 0.57700 0.70010 0.47820
H23 H 0.67100 0.67410 0.63170
O6 O 0.6851(9) 0.2624(4) 0.5693(11)
C14 C 0.6635(9) 0.6044(4) 0.3460(7)
H24 H 0.74360 0.58650 0.32200
H25 H 0.60810 0.63860 0.28180
H26 H 0.58850 0.57130 0.34040
O7 O 0.6397(5) 0.45784(19) 0.8363(4)
O8 O 0.1579(4) 0.44360(19) 0.3439(4)
O9 O 0.3846(4) 0.42268(19) 0.7530(4)
O10 O 0.4295(5) 0.4325(2) 0.4625(4)
N3 N 0.2925(5) 0.5036(2) 0.5301(4)
H27 H 0.20330 0.52360 0.50720
N4 N 0.4319(8) 0.7121(3) 0.8466(6)
C15 C 0.3039(7) 0.4569(3) 0.4470(6)
C16 C 0.4981(6) 0.4635(3) 0.7581(5)
O11 O 0.5318(9) 0.7344(3) 0.8161(8)
C17 C 0.4307(6) 0.5200(3) 0.6582(6)
H28 H 0.51450 0.53580 0.63340
C18 C 0.1345(7) 0.3906(3) 0.2449(6)
O12 O 0.3012(8) 0.7370(3) 0.8124(8)
C19 C 0.3856(7) 0.5752(3) 0.7305(6)
H29 H 0.34740 0.61140 0.66620
H30 H 0.29800 0.56090 0.75020
C20 C 0.4275(7) 0.3648(3) 0.8465(7)
C21 C 0.4681(9) 0.6530(3) 0.9327(7)
H31 H 0.37360 0.63970 0.94280
H32 H 0.55220 0.66200 1.02550
C22 C 0.4991(8) 0.3872(4) 0.9979(7)
H33 H 0.60080 0.40730 1.02140
H34 H 0.51350 0.35080 1.05820
H35 H 0.42840 0.41780 1.01000
C23 C 0.5214(8) 0.5982(3) 0.8661(6)
H36 H 0.60910 0.61310 0.84730
H37 H 0.55990 0.56240 0.93140
C24 C 0.2232(9) 0.4044(4) 0.1581(7)
H38 H 0.18500 0.44420 0.10780
H39 H 0.20550 0.36980 0.09260
H40 H 0.33570 0.40810 0.21850
C25 C 0.5373(9) 0.3211(3) 0.8132(9)
H41 H 0.49070 0.31280 0.71410
H42 H 0.55140 0.28100 0.86270
H43 H 0.63930 0.34170 0.84150
C26 C 0.2664(8) 0.3337(4) 0.8047(9)
H44 H 0.19770 0.36300 0.82310
H45 H 0.27920 0.29480 0.85790
H46 H 0.21960 0.32350 0.70650
C27 C -0.0456(8) 0.3930(5) 0.1537(8)
H47 H -0.10050 0.38730 0.21130
H48 H -0.07570 0.35900 0.08510
H49 H -0.07390 0.43400 0.10700
C28 C 0.1824(11) 0.3276(4) 0.3235(9)
H50 H 0.29630 0.32680 0.37860
H51 H 0.15080 0.29250 0.25790
H52 H 0.13060 0.32350 0.38410
#END
