
#######################################################################
#
#                 Cambridge Crystallographic Data Centre
#                                CCDC
#
#######################################################################
#
# If this CIF has been generated from an entry in the Cambridge
# Structural Database, then it will include bibliographic, chemical,
# crystal, experimental, refinement or atomic coordinate data resulting
# from the CCDC's data processing and validation procedures.
#
#######################################################################

data_CSD_CIF_FEBQOV
_audit_creation_date 2017-07-12
_audit_creation_method CSD-ConQuest-V1
_database_code_CSD FEBQOV
_database_code_depnum_ccdc_archive 'CCDC 1548955'
_chemical_formula_sum 'C47 H82 N8 O13'
_chemical_formula_moiety
;
C47 H82 N8 O13
;
_journal_coden_Cambridge 1336
_journal_volume 19
_journal_year 2017
_journal_page_first 3572
_journal_name_full 'Org.Lett. '
loop_
_publ_author_name
"R.M.Reja"
"S.Sunny"
"H.N.Gopi"
_chemical_name_systematic
;
methyl 
N-(t-butoxycarbonyl)leucyl-5-nitronorvalylleucyl-2-methylalanylleucyl-5-[(prop
-2-yn-1-yl)oxy]norvalylleucinate
;
_chemical_name_common
;
PEPSEQ A=7 LEU*-ALA*-LEU-ALA*-LEU-ALA*-LEU*
;
_cell_volume   5485.267
_exptl_crystal_colour 'colorless'
_exptl_crystal_density_diffrn 1.171
_exptl_crystal_description 'rod'
_diffrn_ambient_temperature 100
#These two values have been output from a single CSD field.
_refine_ls_R_factor_gt 0.114
_refine_ls_wR_factor_gt 0.114
_symmetry_cell_setting monoclinic
_symmetry_space_group_name_H-M 'P 21'
_symmetry_Int_Tables_number 4
loop_
_symmetry_equiv_pos_site_id
_symmetry_equiv_pos_as_xyz
1 x,y,z
2 -x,1/2+y,-z
_cell_length_a 14.885(6)
_cell_length_b 20.472(7)
_cell_length_c 18.004(7)
_cell_angle_alpha 90
_cell_angle_beta 91.102(13)
_cell_angle_gamma 90
_cell_formula_units_Z 4
loop_
_atom_type_symbol
_atom_type_radius_bond
C 0.68
H 0.23
N 0.68
O 0.68
loop_
_atom_site_label
_atom_site_type_symbol
_atom_site_fract_x
_atom_site_fract_y
_atom_site_fract_z
O1 O 0.5609(6) 0.7614(5) -0.0694(5)
O2 O 0.4748(7) 0.9535(5) 0.2319(6)
O3 O 0.5269(6) 0.5108(4) -0.0697(5)
O4 O 0.7518(6) 0.5138(4) -0.1441(6)
O5 O 0.3934(6) 0.7710(4) 0.0416(6)
O6 O 0.6865(7) 0.6714(5) 0.0604(6)
O7 O 0.5116(7) 0.8566(5) 0.1792(6)
O8 O 0.8904(6) 0.7135(4) -0.2629(6)
O9 O 0.5332(7) 0.5610(5) 0.1152(5)
N1 N 0.4688(7) 0.6379(6) 0.0484(7)
H1 H 0.45440 0.67840 0.04410
N2 N 0.3737(8) 0.9032(5) 0.1659(6)
H2 H 0.34230 0.93810 0.17110
N3 N 0.7392(7) 0.5565(5) -0.0307(7)
H3 H 0.70550 0.57810 -0.00120
N4 N 0.4247(7) 0.8747(5) 0.0186(6)
H4 H 0.42270 0.91490 0.03230
N5 N 0.6023(8) 0.8274(5) 0.0217(7)
H5 H 0.59370 0.86270 0.04650
N6 N 0.5779(7) 0.6143(5) -0.0763(6)
H6 H 0.57290 0.65360 -0.06010
N7 N 0.5808(8) 0.7251(5) 0.1234(7)
H7 H 0.55540 0.76230 0.12970
O10 O 0.7356(8) 0.5084(6) 0.1073(7)
N8 N 0.6521(11) 0.9882(8) -0.1749(10)
O11 O 0.8359(9) 0.4336(6) 0.0777(7)
C1 C 0.4576(12) 0.8997(8) 0.1909(8)
C2 C 0.5199(10) 0.5688(7) -0.0513(8)
C3 C 0.6944(9) 0.6645(6) -0.1474(8)
H8 H 0.64960 0.69570 -0.16490
H9 H 0.72160 0.68220 -0.10230
C4 C 0.5036(9) 0.9168(6) -0.0895(8)
H10 H 0.45540 0.94830 -0.09650
H11 H 0.55070 0.93730 -0.05970
C5 C 0.4680(9) 0.8565(6) -0.0488(8)
H12 H 0.42450 0.83390 -0.08130
C6 C 0.6467(8) 0.6008(6) -0.1280(9)
H13 H 0.61880 0.58300 -0.17340
O12 O 0.6635(9) 1.0453(7) -0.1889(9)
C7 C 0.5146(11) 0.6196(7) 0.1044(9)
C8 C 0.3759(9) 0.6260(7) -0.0597(8)
H14 H 0.36980 0.59970 -0.10420
H15 H 0.40230 0.66730 -0.07400
C9 C 0.7971(11) 0.4814(9) 0.0631(9)
C10 C 0.7169(10) 0.5524(7) -0.0993(10)
C11 C 0.2824(10) 0.6397(7) -0.0316(9)
H16 H 0.28800 0.66460 0.01470
C12 C 0.2383(9) 0.8618(7) 0.1095(8)
H17 H 0.23650 0.89900 0.07610
H18 H 0.20730 0.87400 0.15430
C13 C 0.4402(9) 0.5927(7) -0.0085(8)
H19 H 0.41040 0.55540 0.01460
C14 C 0.3371(10) 0.8464(6) 0.1298(8)
H20 H 0.33930 0.80940 0.16440
C15 C 0.7455(10) 0.8200(7) 0.0896(9)
H21 H 0.79280 0.78950 0.10320
H22 H 0.71540 0.83270 0.13470
C16 C 0.3879(10) 0.8283(8) 0.0593(9)
C17 C 0.6793(9) 0.7865(6) 0.0387(9)
H23 H 0.70910 0.77570 -0.00780
C18 C 0.5461(10) 0.8105(7) -0.0311(9)
C19 C 0.5443(11) 0.6695(7) 0.1628(9)
C20 C 0.9168(10) 0.6218(8) -0.0390(9)
H24 H 0.86280 0.64050 -0.06270
C21 C 0.8179(9) 0.5262(7) -0.0018(9)
H25 H 0.84400 0.49970 -0.04130
C22 C 0.6521(11) 0.7229(8) 0.0773(9)
C23 C 0.1837(10) 0.7442(7) 0.1180(9)
H26 H 0.16390 0.75510 0.16690
H27 H 0.24230 0.72470 0.12140
H28 H 0.14230 0.71390 0.09540
O13 O 0.702(1) 0.9577(8) -0.1379(10)
C24 C 0.7660(9) 0.6590(6) -0.2052(9)
H29 H 0.73810 0.64970 -0.25320
H30 H 0.80590 0.62310 -0.19250
C25 C 0.8219(10) 0.7245(7) -0.2099(9)
H31 H 0.78340 0.76030 -0.22570
H32 H 0.84840 0.73510 -0.16180
C26 C 0.6322(11) 0.9696(8) 0.1994(8)
H33 H 0.65070 0.92660 0.18520
H34 H 0.68360 0.99400 0.21660
H35 H 0.60520 0.99130 0.15730
C27 C 0.7888(11) 0.8828(7) 0.0535(11)
H36 H 0.74080 0.91480 0.04490
C28 C 0.1879(10) 0.8042(7) 0.0723(9)
H37 H 0.21570 0.79400 0.02480
C29 C 0.5404(10) 0.8973(7) -0.1645(8)
H38 H 0.49410 0.87470 -0.19320
H39 H 0.59050 0.86760 -0.15720
C30 C 0.5655(11) 0.9649(8) 0.2603(9)
C31 C 0.2313(10) 0.6801(8) -0.0875(9)
H40 H 0.24260 0.66410 -0.13650
H41 H 0.25050 0.72480 -0.08370
H42 H 0.16820 0.67740 -0.07790
C32 C 0.8869(9) 0.5762(7) 0.0232(9)
H43 H 0.93910 0.55350 0.04340
H44 H 0.86190 0.60220 0.06280
C33 C 0.5721(11) 0.9585(8) -0.2082(9)
H45 H 0.58460 0.94590 -0.25890
H46 H 0.52400 0.99050 -0.20970
C34 C 1.0002(13) 0.7898(9) -0.2120(13)
C35 C 0.5882(13) 0.9160(9) 0.3197(10)
H47 H 0.54290 0.91690 0.35690
H48 H 0.64540 0.92670 0.34210
H49 H 0.59100 0.87320 0.29820
C36 C 0.6171(12) 0.6401(8) 0.2125(10)
H50 H 0.66500 0.62420 0.18250
H51 H 0.59250 0.60470 0.24050
H52 H 0.63990 0.67290 0.24600
C37 C 0.8544(10) 0.9113(8) 0.1102(10)
H53 H 0.90520 0.88270 0.11600
H54 H 0.82520 0.91590 0.15700
H55 H 0.87430 0.95330 0.09350
C38 C 0.9420(11) 0.7715(8) -0.2756(9)
H56 H 0.90120 0.80730 -0.28670
H57 H 0.97900 0.76480 -0.31870
C39 C 0.4631(11) 0.6900(8) 0.2056(9)
H58 H 0.47940 0.72470 0.23920
H59 H 0.44110 0.65350 0.23330
H60 H 0.41710 0.70500 0.17160
C40 C 0.971(1) 0.5860(9) -0.100(1)
H61 H 0.97900 0.61480 -0.14150
H62 H 0.93860 0.54780 -0.11620
H63 H 1.02860 0.57340 -0.08000
C41 C 0.5522(12) 1.0342(9) 0.2969(11)
H64 H 0.53620 1.06540 0.25910
H65 H 0.60720 1.04750 0.32130
H66 H 0.50530 1.03190 0.33260
C42 C 0.7147(12) 0.4764(9) 0.1767(11)
H67 H 0.69820 0.43180 0.16700
H68 H 0.66560 0.49860 0.19950
H69 H 0.76640 0.47760 0.20930
C43 C 0.0901(10) 0.8293(9) 0.0577(10)
H70 H 0.05530 0.79560 0.03370
H71 H 0.09160 0.86710 0.02630
H72 H 0.06330 0.84050 0.10400
C44 C 0.8306(13) 0.8689(10) -0.0191(11)
H73 H 0.86120 0.90720 -0.03610
H74 H 0.78470 0.85680 -0.05480
H75 H 0.87270 0.83370 -0.01340
C45 C 0.9721(11) 0.6779(9) -0.0056(10)
H76 H 0.94000 0.69720 0.03460
H77 H 0.98240 0.71030 -0.04300
H78 H 1.02870 0.66140 0.01270
C46 C 1.0497(15) 0.8067(11) -0.1629(13)
H79 H 1.08830 0.81990 -0.12460
C47 C 0.2341(11) 0.5780(8) -0.0160(11)
H80 H 0.17960 0.58760 0.00940
H81 H 0.27150 0.55040 0.01460
H82 H 0.22010 0.55610 -0.06190
O14 O 0.9880(6) 0.1428(4) 0.6795(5)
O15 O 0.9392(6) 0.2376(4) 0.4302(5)
O16 O 1.0252(7) 0.0461(5) 0.7332(6)
O17 O 1.1054(6) 0.2285(4) 0.5421(5)
O18 O 0.7472(7) 0.4861(5) 0.3565(6)
O19 O 0.9730(6) 0.4887(4) 0.4303(5)
N9 N 1.0294(7) 0.3605(5) 0.5479(6)
H83 H 1.04140 0.31970 0.54290
O20 O 0.9655(7) 0.4392(5) 0.6162(6)
O21 O 0.8107(7) 0.3272(5) 0.5589(6)
N10 N 0.8973(7) 0.1724(5) 0.5226(7)
H84 H 0.90760 0.13710 0.54710
N11 N 0.9226(7) 0.3850(5) 0.4246(6)
H85 H 0.92770 0.34580 0.44130
N12 N 1.0748(7) 0.1248(5) 0.5189(6)
H86 H 1.07790 0.08450 0.53220
N13 N 0.9172(8) 0.2736(5) 0.6236(7)
H87 H 0.94170 0.23610 0.63120
N14 N 0.7608(7) 0.4430(5) 0.4700(7)
H88 H 0.79410 0.42090 0.50040
N15 N 1.1254(8) 0.0976(5) 0.6667(6)
H89 H 1.15750 0.06320 0.67400
O22 O 0.7639(8) 0.4906(6) 0.6063(7)
O23 O 0.6096(6) 0.2857(5) 0.2376(6)
C48 C 1.0286(9) 0.1429(6) 0.4527(8)
H90 H 1.07100 0.16680 0.42170
C49 C 0.9849(10) 0.3795(7) 0.6052(8)
C50 C 1.0403(10) 0.0987(9) 0.6924(8)
N16 N 0.8486(11) 0.0118(8) 0.3248(10)
C51 C 0.7843(9) 0.4460(7) 0.4001(10)
C52 C 1.0592(9) 0.4056(7) 0.4929(8)
H91 H 1.08920 0.44250 0.51770
C53 C 1.1122(9) 0.1700(7) 0.5589(9)
C54 C 0.8526(8) 0.3991(6) 0.3715(8)
H92 H 0.87920 0.41740 0.32660
C55 C 0.9970(9) 0.0848(6) 0.4096(8)
H93 H 1.04700 0.05490 0.40420
H94 H 0.95130 0.06250 0.43780
C56 C 1.1247(9) 0.3730(7) 0.4406(8)
H95 H 1.09800 0.33220 0.42390
H96 H 1.13010 0.40070 0.39720
O24 O 0.6635(9) 0.5661(6) 0.5767(7)
C57 C 0.9601(10) 0.0996(7) 0.3362(8)
H97 H 1.00560 0.12240 0.30820
H98 H 0.90980 0.12930 0.34170
C58 C 0.9802(9) 0.4302(8) 0.4492(8)
C59 C 0.9291(11) 0.0422(7) 0.2924(9)
H99 H 0.91520 0.05580 0.24180
H100 H 0.97710 0.01020 0.29070
C60 C 0.9507(9) 0.1888(7) 0.4688(9)
C61 C 0.6814(9) 0.4750(7) 0.4988(8)
H101 H 0.65410 0.50190 0.45940
C62 C 0.7034(12) 0.5168(9) 0.5625(10)
C63 C 1.1635(9) 0.1517(7) 0.6280(9)
H102 H 1.16220 0.18950 0.66140
C64 C 0.9356(11) 0.0351(7) 0.7608(9)
O25 O 0.7978(10) 0.0418(8) 0.3610(12)
C65 C 0.8220(9) 0.2122(7) 0.5414(9)
H103 H 0.79110 0.22310 0.49440
C66 C 1.3128(11) 0.2563(7) 0.6200(9)
H104 H 1.33660 0.24600 0.66860
H105 H 1.25250 0.27240 0.62410
H106 H 1.34960 0.28910 0.59760
O26 O 0.8364(9) -0.0474(7) 0.3114(8)
C67 C 0.6782(10) 0.2766(7) 0.2922(9)
H107 H 0.71570 0.23960 0.27970
H108 H 0.65250 0.26900 0.34060
C68 C 0.5573(11) 0.2304(8) 0.2254(10)
H109 H 0.59690 0.19410 0.21480
H110 H 0.51980 0.23770 0.18150
C69 C 0.7336(9) 0.3405(7) 0.2924(8)
H111 H 0.76050 0.34710 0.24430
H112 H 0.69500 0.37750 0.30250
C70 C 1.2622(9) 0.1393(7) 0.6090(9)
H113 H 1.29450 0.12870 0.65470
H114 H 1.26440 0.10090 0.57740
C71 C 0.5824(10) 0.3768(7) 0.4610(9)
H115 H 0.63610 0.35780 0.43900
C72 C 0.8052(9) 0.3345(7) 0.3516(8)
H116 H 0.84990 0.30350 0.33520
H117 H 0.77850 0.31700 0.39600
C73 C 0.8494(12) 0.2776(8) 0.5773(9)
C74 C 1.3124(10) 0.1936(8) 0.5709(9)
H118 H 1.28320 0.20310 0.52280
C75 C 0.7109(11) 0.1178(7) 0.5532(11)
H119 H 0.75820 0.08540 0.54520
C76 C 0.9533(11) 0.3302(7) 0.6633(8)
C77 C 0.7552(9) 0.1779(7) 0.5876(9)
H120 H 0.70840 0.20880 0.60000
H121 H 0.78480 0.16490 0.63370
C78 C 1.2176(9) 0.3584(7) 0.4695(9)
H122 H 1.21280 0.33340 0.51560
C79 C 0.4978(11) 0.2108(8) 0.2877(11)
C80 C 0.8653(10) 0.0306(8) 0.7006(9)
H123 H 0.80920 0.01800 0.72160
H124 H 0.88300 -0.00130 0.66470
H125 H 0.85870 0.07240 0.67680
C81 C 0.8818(11) 0.3582(7) 0.7136(8)
H126 H 0.83410 0.37670 0.68380
H127 H 0.90800 0.39160 0.74460
H128 H 0.85830 0.32410 0.74420
C82 C 0.6128(10) 0.4239(7) 0.5232(9)
H129 H 0.56040 0.44630 0.54190
H130 H 0.63880 0.39860 0.56380
C83 C 0.5284(10) 0.4135(9) 0.3984(9)
H131 H 0.47050 0.42570 0.41650
H132 H 0.52100 0.38540 0.35610
H133 H 0.56060 0.45200 0.38430
C84 C 1.4070(9) 0.1703(8) 0.5585(9)
H134 H 1.43780 0.16560 0.60560
H135 H 1.43810 0.20160 0.52870
H136 H 1.40540 0.12900 0.53340
C85 C 0.9113(11) 0.0819(9) 0.8192(9)
H137 H 0.90540 0.12480 0.79800
H138 H 0.95730 0.08230 0.85720
H139 H 0.85520 0.06910 0.84030
C86 C 1.2668(10) 0.4213(8) 0.4863(11)
H140 H 1.32560 0.41150 0.50610
H141 H 1.23400 0.44600 0.52210
H142 H 1.27210 0.44630 0.44150
C87 C 1.0370(11) 0.3091(7) 0.7057(9)
H143 H 1.02140 0.27700 0.74220
H144 H 1.06350 0.34630 0.73010
H145 H 1.07920 0.29070 0.67190
C88 C 0.6434(10) 0.0877(8) 0.6089(10)
H146 H 0.59720 0.11900 0.61920
H147 H 0.67470 0.07650 0.65430
H148 H 0.61680 0.04920 0.58760
C89 C 0.5289(10) 0.3227(8) 0.4943(9)
H149 H 0.56610 0.29890 0.52920
H150 H 0.50820 0.29370 0.45570
H151 H 0.47830 0.34060 0.51940
C90 C 1.2688(10) 0.3185(9) 0.4149(10)
H152 H 1.23600 0.27920 0.40360
H153 H 1.32650 0.30740 0.43590
H154 H 1.27660 0.34320 0.37020
C91 C 0.9481(11) -0.0324(9) 0.7983(11)
H155 H 0.99970 -0.03120 0.83110
H156 H 0.95660 -0.06510 0.76090
H157 H 0.89570 -0.04270 0.82620
C92 C 0.4504(12) 0.1924(9) 0.3335(11)
H158 H 0.41240 0.17760 0.37020
C93 C 0.7844(12) 0.5255(8) 0.6774(10)
H159 H 0.79890 0.57020 0.66710
H160 H 0.83460 0.50490 0.70220
H161 H 0.73300 0.52380 0.70870
C94 C 0.6680(13) 0.1306(10) 0.4823(12)
H162 H 0.62110 0.16220 0.48840
H163 H 0.64290 0.09080 0.46280
H164 H 0.71150 0.14730 0.44850
#END
