
#######################################################################
#
#                 Cambridge Crystallographic Data Centre
#                                CCDC
#
#######################################################################
#
# If this CIF has been generated from an entry in the Cambridge
# Structural Database, then it will include bibliographic, chemical,
# crystal, experimental, refinement or atomic coordinate data resulting
# from the CCDC's data processing and validation procedures.
#
#######################################################################

data_CSD_CIF_FECRUB
_audit_creation_date 2005-04-29
_audit_creation_method CSD-ConQuest-V1
_database_code_CSD FECRUB
_database_code_depnum_ccdc_archive 'CCDC 242484'
_chemical_formula_sum 'C19 H17 N3 O1'
_chemical_formula_moiety
;
C19 H17 N3 O1
;
_journal_coden_Cambridge 35
_journal_volume 70
_journal_year 2005
_journal_page_first 301
_journal_name_full 'J.Org.Chem. '
loop_
_publ_author_name
"S.Schoumacker"
"O.Hamelin"
"S.Teti"
"J.Pecaut"
"M.Fontacave"
_chemical_name_systematic
;
3,3-bis(2-Pyridyl)-2-(\a-methylbenzyl)oxaziridine
;
_cell_volume   3390.834
_exptl_crystal_density_diffrn 1.188
_diffrn_ambient_temperature 298
#These two values have been output from a single CSD field.
_refine_ls_R_factor_gt 0.0462
_refine_ls_wR_factor_gt 0.0462
_symmetry_cell_setting orthorhombic
_symmetry_space_group_name_H-M 'P 21 21 21'
_symmetry_Int_Tables_number 19
loop_
_symmetry_equiv_pos_site_id
_symmetry_equiv_pos_as_xyz
1 x,y,z
2 1/2-x,-y,1/2+z
3 -x,1/2+y,1/2-z
4 1/2+x,1/2-y,-z
_cell_length_a 8.0723(16)
_cell_length_b 12.111(2)
_cell_length_c 34.684(7)
_cell_angle_alpha 90
_cell_angle_beta 90
_cell_angle_gamma 90
_cell_formula_units_Z 8
loop_
_atom_type_symbol
_atom_type_radius_bond
C 0.68
H 0.23
N 0.68
O 0.68
loop_
_atom_site_label
_atom_site_type_symbol
_atom_site_fract_x
_atom_site_fract_y
_atom_site_fract_z
O1 O 1.09002(18) -0.08526(11) 0.04366(4)
N1 N 1.0479(2) 0.00668(13) 0.07184(4)
N2 N 0.6565(2) -0.00299(13) 0.04382(5)
N3 N 0.9071(3) 0.04118(16) -0.02723(5)
C1 C 0.7849(3) -0.07122(14) 0.04043(5)
C2 C 0.7683(3) -0.18495(18) 0.03875(7)
H1 H 0.863(3) -0.2279(18) 0.0366(6)
C3 C 0.6102(3) -0.2294(2) 0.04103(8)
H2 H 0.594(4) -0.308(3) 0.0396(7)
C4 C 0.4779(4) -0.1602(2) 0.04514(8)
H3 H 0.366(4) -0.188(2) 0.0465(7)
C5 C 0.5056(3) -0.0488(2) 0.04641(7)
H4 H 0.411(3) 0.002(2) 0.0506(6)
C6 C 0.9699(3) 0.06941(15) 0.00661(6)
C7 C 1.0509(4) 0.1678(2) 0.01293(8)
H5 H 1.104(3) 0.1790(19) 0.0384(7)
C8 C 1.0662(5) 0.2412(3) -0.01719(10)
H6 H 1.124(4) 0.310(2) -0.0131(8)
C9 C 1.0041(5) 0.2148(3) -0.05179(10)
H7 H 1.011(3) 0.261(2) -0.0722(7)
C10 C 0.9253(5) 0.1157(3) -0.05598(8)
H8 H 0.880(4) 0.094(2) -0.0794(8)
C11 C 0.9501(3) -0.01545(14) 0.03804(5)
C12 C 0.9901(3) -0.04022(19) 0.10906(6)
H9 H 0.921(2) -0.1022(16) 0.1051(5)
C13 C 0.8859(3) 0.04934(17) 0.12770(5)
C14 C 0.7334(4) 0.0261(3) 0.14269(7)
H10 H 0.695(4) -0.045(2) 0.1394(7)
C15 C 0.6414(5) 0.1096(3) 0.15955(11)
H11 H 0.554(4) 0.090(2) 0.1686(8)
C16 C 0.6983(5) 0.2156(3) 0.16142(9)
H12 H 0.634(4) 0.275(3) 0.1739(8)
C17 C 0.8506(5) 0.2391(3) 0.14668(8)
H13 H 0.897(4) 0.315(2) 0.1460(7)
C18 C 0.9434(4) 0.15716(19) 0.12995(7)
H14 H 1.059(4) 0.1764(19) 0.1179(7)
C19 C 1.1419(5) -0.0707(3) 0.13260(9)
H15 H 1.207(5) -0.127(3) 0.1181(9)
H16 H 1.207(4) -0.002(3) 0.1364(8)
H17 H 1.109(4) -0.104(2) 0.1557(9)
O2 O 0.7256(2) 0.74804(11) 0.16167(5)
N4 N 0.6010(2) 0.65420(13) 0.15722(5)
N5 N 1.0090(3) 0.64498(16) 0.11737(6)
N6 N 0.8512(3) 0.48195(14) 0.19853(5)
C20 C 0.8602(3) 0.60179(17) 0.12331(6)
C21 C 0.7880(4) 0.5295(3) 0.09857(8)
H18 H 0.690(4) 0.498(2) 0.1049(7)
C22 C 0.8719(5) 0.4983(3) 0.06550(9)
H19 H 0.820(5) 0.445(3) 0.0486(11)
C23 C 1.0227(5) 0.5419(3) 0.05859(9)
H20 H 1.087(4) 0.523(2) 0.0352(8)
C24 C 1.0858(5) 0.6141(3) 0.08478(10)
H21 H 1.187(5) 0.647(3) 0.0801(9)
C25 C 0.8555(3) 0.59129(16) 0.19587(5)
C26 C 0.9284(4) 0.6565(2) 0.22333(8)
H22 H 0.921(3) 0.736(2) 0.2188(6)
C27 C 0.9977(4) 0.6061(3) 0.25546(9)
H23 H 1.044(5) 0.651(3) 0.2749(10)
C28 C 0.9918(4) 0.4953(3) 0.25865(8)
H24 H 1.039(4) 0.460(2) 0.2806(9)
C29 C 0.9174(4) 0.4364(3) 0.23014(8)
H25 H 0.909(4) 0.353(3) 0.2306(8)
C30 C 0.7780(3) 0.63680(15) 0.16013(6)
C31 C 0.5043(3) 0.6444(2) 0.19330(7)
H26 H 0.577(3) 0.6519(16) 0.2146(6)
C32 C 0.4279(3) 0.5306(2) 0.19366(6)
C33 C 0.4397(4) 0.4620(3) 0.22534(8)
H27 H 0.500(4) 0.494(2) 0.2457(8)
C34 C 0.3646(5) 0.3582(4) 0.22516(14)
H28 H 0.383(4) 0.316(3) 0.2496(9)
C35 C 0.2808(5) 0.3223(4) 0.19343(14)
H29 H 0.219(5) 0.249(3) 0.1941(9)
C36 C 0.2676(4) 0.3881(3) 0.16188(11)
H30 H 0.206(8) 0.356(4) 0.1352(13)
C37 C 0.3399(4) 0.4909(3) 0.16238(8)
H31 H 0.334(4) 0.543(2) 0.1413(9)
C38 C 0.3731(5) 0.7364(3) 0.19351(13)
H32 H 0.326(4) 0.728(2) 0.2180(9)
H33 H 0.444(4) 0.813(2) 0.1915(7)
H34 H 0.307(4) 0.734(2) 0.1705(9)
#END
