
#######################################################################
#
#                 Cambridge Crystallographic Data Centre
#                                CCDC
#
#######################################################################
#
# If this CIF has been generated from an entry in the Cambridge
# Structural Database, then it will include bibliographic, chemical,
# crystal, experimental, refinement or atomic coordinate data resulting
# from the CCDC's data processing and validation procedures.
#
#######################################################################

data_CSD_CIF_FECWUG
_audit_creation_date 2005-04-29
_audit_creation_method CSD-ConQuest-V1
_database_code_CSD FECWUG
_database_code_depnum_ccdc_archive 'CCDC 249046'
_chemical_formula_sum 'C20 H20 N3 O2'
_chemical_formula_moiety
;
C20 H20 N3 O2
;
_journal_coden_Cambridge 24
_journal_volume 45
_journal_year 2004
_journal_page_first 9623
_journal_name_full 'Tetrahedron Lett. '
loop_
_publ_author_name
"C.Stroh"
"M.Mayor"
"C.von Hanisch"
_chemical_name_systematic
;
2-(3-(2-(4-Pyridyl)ethynyl)phenyl)-4,4,5,5-tetramethylimidazoline-1-oxyl-3-oxi
de
;
_cell_volume   1803.927
_exptl_crystal_density_diffrn 1.231
_diffrn_ambient_temperature 200
#These two values have been output from a single CSD field.
_refine_ls_R_factor_gt 0.0522
_refine_ls_wR_factor_gt 0.0522
_symmetry_cell_setting monoclinic
_symmetry_space_group_name_H-M 'P 21/c'
_symmetry_Int_Tables_number 14
loop_
_symmetry_equiv_pos_site_id
_symmetry_equiv_pos_as_xyz
1 x,y,z
2 -x,1/2+y,1/2-z
3 -x,-y,-z
4 x,-1/2-y,-1/2+z
_cell_length_a 14.289(3)
_cell_length_b 12.149(2)
_cell_length_c 11.164(2)
_cell_angle_alpha 90
_cell_angle_beta 111.44(3)
_cell_angle_gamma 90
_cell_formula_units_Z 4
loop_
_atom_type_symbol
_atom_type_radius_bond
C 0.68
H 0.23
N 0.68
O 0.68
loop_
_atom_site_label
_atom_site_type_symbol
_atom_site_fract_x
_atom_site_fract_y
_atom_site_fract_z
C1 C 0.16623(19) 0.4974(2) -0.0062(2)
C2 C 0.0813(2) 0.4363(2) -0.2190(2)
C3 C 0.1511(3) 0.4684(3) -0.2908(3)
H1 H 0.22080 0.47110 -0.22980
H2 H 0.13160 0.54090 -0.33070
H3 H 0.14530 0.41360 -0.35750
C4 C -0.0268(2) 0.4304(3) -0.3112(3)
H4 H -0.06990 0.40860 -0.26420
H5 H -0.03270 0.37610 -0.37850
H6 H -0.04790 0.50270 -0.35070
C5 C 0.1190(2) 0.3355(2) -0.1294(2)
C6 C 0.1737(2) 0.2492(2) -0.1763(3)
H7 H 0.19420 0.18870 -0.11410
H8 H 0.23340 0.28200 -0.18550
H9 H 0.12900 0.22080 -0.25980
C7 C 0.0369(2) 0.2838(3) -0.0901(2)
H10 H 0.06470 0.22090 -0.03330
H11 H -0.01850 0.25890 -0.16710
H12 H 0.01180 0.33850 -0.04470
C8 C 0.2136(2) 0.5719(2) 0.1031(2)
C9 C 0.2247(2) 0.6837(2) 0.0829(2)
H13 H 0.19680 0.71360 -0.00130
C10 C 0.2766(2) 0.7509(2) 0.1862(3)
H14 H 0.28400 0.82700 0.17220
C11 C 0.3181(2) 0.7079(3) 0.3100(3)
H15 H 0.35470 0.75430 0.37990
C12 C 0.3059(2) 0.5975(2) 0.3312(2)
C13 C 0.25381(19) 0.5289(2) 0.2271(2)
H16 H 0.24590 0.45290 0.24130
C14 C 0.3498(2) 0.5498(2) 0.4578(3)
C15 C 0.3871(2) 0.5077(2) 0.5615(3)
C16 C 0.4357(2) 0.4591(3) 0.6874(2)
C17 C 0.5081(2) 0.5152(3) 0.7856(2)
H17 H 0.52640 0.58810 0.77260
C18 C 0.5532(2) 0.4638(3) 0.9023(3)
H18 H 0.60390 0.50330 0.96780
C19 C 0.4599(3) 0.3107(3) 0.8355(3)
H19 H 0.44170 0.23880 0.85250
C20 C 0.4105(2) 0.3536(3) 0.7134(3)
H20 H 0.36070 0.31200 0.64930
N1 N 0.09527(17) 0.52479(19) -0.11972(18)
N2 N 0.18943(16) 0.39086(18) -0.01129(17)
N3 N 0.5311(2) 0.3630(3) 0.9304(2)
O1 O 0.05067(18) 0.61832(18) -0.14911(16)
O2 O 0.25599(16) 0.33646(16) 0.07667(17)
#END
