
#######################################################################
#
#                 Cambridge Crystallographic Data Centre
#                                CCDC
#
#######################################################################
#
# If this CIF has been generated from an entry in the Cambridge
# Structural Database, then it will include bibliographic, chemical,
# crystal, experimental, refinement or atomic coordinate data resulting
# from the CCDC's data processing and validation procedures.
#
#######################################################################

data_CSD_CIF_FECXAN
_audit_creation_date 2005-04-29
_audit_creation_method CSD-ConQuest-V1
_database_code_CSD FECXAN
_database_code_depnum_ccdc_archive 'CCDC 249047'
_chemical_formula_sum 'C22 H20 N3 O2'
_chemical_formula_moiety
;
C22 H20 N3 O2
;
_journal_coden_Cambridge 24
_journal_volume 45
_journal_year 2004
_journal_page_first 9623
_journal_name_full 'Tetrahedron Lett. '
loop_
_publ_author_name
"C.Stroh"
"M.Mayor"
"C.von Hanisch"
_chemical_name_systematic
;
2-(3-(2-(4-Cyanophenyl)ethynyl)phenyl)-4,4,5,5-tetramethylimidazoline-1-oxyl-3
-oxide
;
_cell_volume   1908.963
_exptl_crystal_colour 'violet'
_exptl_crystal_density_diffrn 1.247
_diffrn_ambient_temperature 200
#These two values have been output from a single CSD field.
_refine_ls_R_factor_gt 0.0392
_refine_ls_wR_factor_gt 0.0392
_symmetry_cell_setting monoclinic
_symmetry_space_group_name_H-M 'P 21/c'
_symmetry_Int_Tables_number 14
loop_
_symmetry_equiv_pos_site_id
_symmetry_equiv_pos_as_xyz
1 x,y,z
2 -x,1/2+y,1/2-z
3 -x,-y,-z
4 x,-1/2-y,-1/2+z
_cell_length_a 13.647(3)
_cell_length_b 12.340(3)
_cell_length_c 11.547(2)
_cell_angle_alpha 90
_cell_angle_beta 100.98(3)
_cell_angle_gamma 90
_cell_formula_units_Z 4
loop_
_atom_type_symbol
_atom_type_radius_bond
C 0.68
H 0.23
N 0.68
O 0.68
loop_
_atom_site_label
_atom_site_type_symbol
_atom_site_fract_x
_atom_site_fract_y
_atom_site_fract_z
N1 N 0.30355(8) 0.60812(8) 0.06621(10)
C1 C 0.18184(10) 0.43952(11) -0.35980(12)
O1 O 0.46545(8) 0.40075(8) 0.16508(10)
C2 C 0.30119(9) 0.31838(10) -0.01876(12)
H1 H 0.32890 0.29100 0.05730
C3 C 0.22113(9) 0.39728(11) -0.24376(12)
C4 C 0.29776(9) 0.43016(9) -0.03931(11)
C5 C 0.10678(9) 0.51857(11) -0.57041(11)
O2 O 0.23026(9) 0.65407(9) -0.00217(10)
N2 N 0.41198(8) 0.48695(8) 0.14785(10)
C6 C 0.1485(1) 0.47632(11) -0.45525(12)
C7 C 0.02683(10) 0.59954(11) -0.79375(12)
C8 C 0.33647(9) 0.50614(9) 0.05593(11)
C9 C 0.25703(9) 0.46916(10) -0.15166(11)
H2 H 0.25370 0.54500 -0.16570
C10 C -0.01516(11) 0.64142(12) -0.90976(13)
C11 C 0.06638(10) 0.66985(11) -0.70251(13)
H3 H 0.06590 0.74570 -0.71640
N3 N -0.04943(11) 0.67537(11) -1.00128(12)
C12 C 0.26393(10) 0.24777(10) -0.10999(13)
H4 H 0.26570 0.17200 -0.09550
C13 C 0.2242(1) 0.28584(11) -0.22185(13)
H5 H 0.19910 0.23640 -0.28350
C14 C 0.06607(11) 0.44851(11) -0.66240(12)
H6 H 0.06580 0.37270 -0.64850
C15 C 0.10623(10) 0.62979(11) -0.59197(12)
H7 H 0.13340 0.67820 -0.53020
C16 C 0.37261(10) 0.67048(10) 0.16081(12)
C17 C 0.42008(10) 0.57516(10) 0.23924(11)
C18 C 0.02641(11) 0.48828(11) -0.77287(12)
H8 H -0.00110 0.44000 -0.83460
C19 C 0.35823(14) 0.53642(13) 0.32788(14)
H9 H 0.36050 0.59090 0.39010
H10 H 0.38540 0.46780 0.36280
H11 H 0.28890 0.52560 0.28770
C20 C 0.44566(13) 0.72926(12) 0.09765(15)
H12 H 0.49280 0.77140 0.15500
H13 H 0.40870 0.77800 0.03790
H14 H 0.48240 0.67610 0.05950
C21 C 0.52807(11) 0.59226(14) 0.29909(15)
H15 H 0.53170 0.65010 0.35790
H16 H 0.56750 0.61270 0.24000
H17 H 0.55460 0.52500 0.33800
C22 C 0.31509(12) 0.75100(12) 0.22062(15)
H18 H 0.36140 0.79040 0.28140
H19 H 0.26610 0.71240 0.25720
H20 H 0.28050 0.80240 0.16200
#END
