
#######################################################################
#
#                 Cambridge Crystallographic Data Centre
#                                CCDC
#
#######################################################################
#
# If this CIF has been generated from an entry in the Cambridge
# Structural Database, then it will include bibliographic, chemical,
# crystal, experimental, refinement or atomic coordinate data resulting
# from the CCDC's data processing and validation procedures.
#
#######################################################################

data_CSD_CIF_FEDXUJ
_audit_creation_date 2012-10-03
_audit_creation_method CSD-ConQuest-V1
_database_code_CSD FEDXUJ
_database_code_depnum_ccdc_archive 'CCDC 735383'
_chemical_formula_sum 'C22 H24 N4 O6'
_chemical_formula_moiety
;
C22 H24 N4 O6
;
_journal_coden_Cambridge 9
_journal_volume 51
_journal_year 2012
_journal_page_first 5580
_journal_name_full 'Inorg.Chem. '
loop_
_publ_author_name
"S.Anbu"
"S.Kamalraj"
"B.Varghese"
"J.Muthumary"
"M.Kandaswamy"
_chemical_name_systematic
;
12,25-Dimethyl-4,7,17,20-tetraoxa-3,8,16,21-tetra-azatricyclo[21.3.1.1^10,14^]
octacosa-1(27),2,8,10(28),11,13,15,21,23,25-decaene-27,28-diol
;
_cell_volume   1054.699
_exptl_crystal_colour 'colorless'
_exptl_crystal_density_diffrn 1.387
_exptl_crystal_description 'prism'
_diffrn_ambient_temperature 293
#These two values have been output from a single CSD field.
_refine_ls_R_factor_gt 0.0412
_refine_ls_wR_factor_gt 0.0412
_symmetry_cell_setting triclinic
_symmetry_space_group_name_H-M 'P -1'
_symmetry_Int_Tables_number 2
loop_
_symmetry_equiv_pos_site_id
_symmetry_equiv_pos_as_xyz
1 x,y,z
2 -x,-y,-z
_cell_length_a 8.0437(4)
_cell_length_b 11.2976(5)
_cell_length_c 12.0851(5)
_cell_angle_alpha 99.996(1)
_cell_angle_beta 94.296(1)
_cell_angle_gamma 101.084(1)
_cell_formula_units_Z 2
loop_
_atom_type_symbol
_atom_type_radius_bond
C 0.68
H 0.23
N 0.68
O 0.68
loop_
_atom_site_label
_atom_site_type_symbol
_atom_site_fract_x
_atom_site_fract_y
_atom_site_fract_z
C1 C 0.0740(2) 0.45148(13) 0.69449(14)
H1 H 0.15010 0.42070 0.64340
H2 H 0.12210 0.53760 0.72490
O1 O 0.39773(14) 0.02994(10) 0.88633(9)
H3 H 0.42400 0.10150 0.87830
C2 C 0.44539(16) -0.04413(13) 0.79991(11)
C3 C 0.52684(17) 0.00112(13) 0.71203(11)
O2 O 0.22359(14) -0.33877(10) 1.00053(9)
C4 C 0.41138(16) -0.16992(13) 0.79953(11)
O3 O 0.58187(17) 0.33021(10) 0.77699(9)
N1 N 0.32671(16) -0.31803(12) 0.91335(10)
C5 C 0.57292(17) -0.08203(14) 0.62643(11)
H4 H 0.62760 -0.05220 0.56870
C6 C 0.45893(17) -0.24939(13) 0.71149(11)
H5 H 0.43530 -0.33330 0.71120
C7 C 0.54048(17) -0.20696(14) 0.62418(11)
N2 N 0.53455(17) 0.20902(11) 0.79163(11)
C8 C 0.32512(17) -0.21302(13) 0.89149(11)
H6 H 0.26740 -0.16170 0.93520
C9 C 0.56902(18) 0.13186(14) 0.71165(12)
H7 H 0.62180 0.15940 0.65220
C10 C 0.2584(2) -0.44149(14) 1.04422(13)
H8 H 0.26190 -0.50730 0.98170
H9 H 0.16630 -0.47060 1.08660
C11 C 0.5914(2) -0.29488(16) 0.53063(13)
H10 H 0.55880 -0.37730 0.54350
H11 H 0.71260 -0.27450 0.52930
H12 H 0.53510 -0.28900 0.45950
C12 C 0.5770(2) 0.41240(15) 0.88071(14)
H13 H 0.48630 0.37560 0.92050
H14 H 0.55100 0.48810 0.86370
O4 O 0.13670(14) 0.07208(9) 0.61336(8)
H15 H 0.13940 0.14520 0.63630
C13 C 0.05772(16) 0.00565(12) 0.68389(11)
C14 C -0.08801(18) -0.01540(14) 0.84919(11)
H16 H -0.13310 0.02050 0.91210
C15 C 0.04290(16) -0.12157(12) 0.65977(11)
O5 O 0.16645(13) -0.31787(9) 0.42845(8)
C16 C -0.01039(17) 0.05952(13) 0.77938(11)
C17 C -0.03447(17) -0.19210(13) 0.73262(11)
H17 H -0.04240 -0.27670 0.71670
O6 O 0.06287(17) 0.38498(10) 0.78527(9)
N3 N 0.06657(17) 0.26168(11) 0.74397(11)
C18 C 0.11218(17) -0.17549(12) 0.55967(11)
H18 H 0.18450 -0.12460 0.52290
N4 N 0.07626(16) -0.28987(11) 0.52164(10)
C19 C 0.0960(2) -0.43989(13) 0.36974(12)
H19 H 0.08460 -0.49440 0.42370
H20 H 0.17380 -0.46590 0.31760
C20 C -0.00374(19) 0.19099(13) 0.80591(11)
H21 H -0.05150 0.22370 0.86890
C21 C -0.10034(18) -0.14108(14) 0.82821(11)
C22 C -0.1818(2) -0.22066(16) 0.90524(13)
H22 H -0.21980 -0.17040 0.96670
H23 H -0.10020 -0.26240 0.93460
H24 H -0.27760 -0.28000 0.86370
C1A C -0.0740(2) -0.45148(13) 0.30551(14)
H1A H -0.15010 -0.42070 0.35660
H2A H -0.12210 -0.53760 0.27510
O1A O 0.60227(14) -0.02994(10) 1.11367(9)
H3A H 0.57600 -0.10150 1.12170
C2A C 0.55461(16) 0.04413(13) 1.20009(11)
C3A C 0.47316(17) -0.00112(13) 1.28797(11)
O2A O 0.77641(14) 0.33877(10) 0.99947(9)
C4A C 0.58862(16) 0.16992(13) 1.20047(11)
O3A O 0.41813(17) -0.33021(10) 1.22301(9)
N1A N 0.67329(16) 0.31803(12) 1.08665(10)
C5A C 0.42708(17) 0.08203(14) 1.37357(11)
H4A H 0.37240 0.05220 1.43130
C6A C 0.54107(17) 0.24939(13) 1.28851(11)
H5A H 0.56470 0.33330 1.28880
C7A C 0.45952(17) 0.20696(14) 1.37582(11)
N2A N 0.46545(17) -0.20902(11) 1.20837(11)
C8A C 0.67488(17) 0.21302(13) 1.10851(11)
H6A H 0.73260 0.16170 1.06480
C9A C 0.43098(18) -0.13186(14) 1.28835(12)
H7A H 0.37820 -0.15940 1.34780
C10A C 0.7416(2) 0.44149(14) 0.95578(13)
H8A H 0.73810 0.50730 1.01830
H9A H 0.83370 0.47060 0.91340
C11A C 0.4086(2) 0.29488(16) 1.46937(13)
H10A H 0.44120 0.37730 1.45650
H11A H 0.28740 0.27450 1.47070
H12A H 0.46490 0.28900 1.54050
C12A C 0.4230(2) -0.41240(15) 1.11929(14)
H13A H 0.51370 -0.37560 1.07950
H14A H 0.44900 -0.48810 1.13630
O4A O -0.13670(14) -0.07208(9) 0.38664(8)
H15A H -0.13940 -0.14520 0.36370
C13A C -0.05772(16) -0.00565(12) 0.31611(11)
C14A C 0.08801(18) 0.01540(14) 0.15081(11)
H16A H 0.13310 -0.02050 0.08790
C15A C -0.04290(16) 0.12157(12) 0.34023(11)
O5A O -0.16645(13) 0.31787(9) 0.57155(8)
C16A C 0.01039(17) -0.05952(13) 0.22062(11)
C17A C 0.03447(17) 0.19210(13) 0.26738(11)
H17A H 0.04240 0.27670 0.28330
O6A O -0.06287(17) -0.38498(10) 0.21473(9)
N3A N -0.06657(17) -0.26168(11) 0.25603(11)
C18A C -0.11218(17) 0.17549(12) 0.44033(11)
H18A H -0.18450 0.12460 0.47710
N4A N -0.07626(16) 0.28987(11) 0.47836(10)
C19A C -0.0960(2) 0.43989(13) 0.63026(12)
H19A H -0.08460 0.49440 0.57630
H20A H -0.17380 0.46590 0.68240
C20A C 0.00374(19) -0.19099(13) 0.19409(11)
H21A H 0.05150 -0.22370 0.13110
C21A C 0.10034(18) 0.14108(14) 0.17179(11)
C22A C 0.1818(2) 0.22066(16) 0.09476(13)
H22A H 0.21980 0.17040 0.03330
H23A H 0.10020 0.26240 0.06540
H24A H 0.27760 0.28000 0.13630
#END
