
#######################################################################
#
#                 Cambridge Crystallographic Data Centre
#                                CCDC
#
#######################################################################
#
# If this CIF has been generated from an entry in the Cambridge
# Structural Database, then it will include bibliographic, chemical,
# crystal, experimental, refinement or atomic coordinate data resulting
# from the CCDC's data processing and validation procedures.
#
#######################################################################

data_CSD_CIF_FEDXUI
_audit_creation_date 2005-04-29
_audit_creation_method CSD-ConQuest-V1
_database_code_CSD FEDXUI
_database_code_depnum_ccdc_archive 'CCDC 260013'
_chemical_formula_sum 'C11 H20 N3 O3'
_chemical_formula_moiety
;
C11 H20 N3 O3
;
_journal_coden_Cambridge 95
_journal_year 2004
_journal_page_first 1248
_journal_name_full 'Izv.Akad.Nauk SSSR,Ser.Khim.(Russ.)(Russ.Chem.Bull.) '
loop_
_publ_author_name
"E.V.Tret'yakov"
"G.V.Romanenko"
"Yu.G.Shvedenkov"
"V.I.Ovcharenko"
"R.Z.Sagdeev"
_chemical_name_systematic
;
Isopropyl 4,4,5,5-tetramethyl-1-oxyl-3-oxide-2-imidazolidinecarboximidoate
;
_chemical_melting_point 392.15
_cell_volume   2477.930
_exptl_crystal_density_diffrn 1.299
_exptl_special_details
;
Melting point range 392.15-393.15K

;
_diffrn_ambient_temperature 295
#These two values have been output from a single CSD field.
_refine_ls_R_factor_gt 0.0641
_refine_ls_wR_factor_gt 0.0641
_symmetry_cell_setting monoclinic
_symmetry_space_group_name_H-M 'C 2/c'
_symmetry_Int_Tables_number 15
loop_
_symmetry_equiv_pos_site_id
_symmetry_equiv_pos_as_xyz
1 x,y,z
2 1/2+x,1/2+y,z
3 -x,y,1/2-z
4 1/2-x,1/2+y,1/2-z
5 -x,-y,-z
6 -1/2-x,-1/2-y,-z
7 x,-y,-1/2+z
8 -1/2+x,-1/2-y,-1/2+z
_cell_length_a 24.44(2)
_cell_length_b 7.063(6)
_cell_length_c 17.412(16)
_cell_angle_alpha 90
_cell_angle_beta 124.47(3)
_cell_angle_gamma 90
_cell_formula_units_Z 8
loop_
_atom_type_symbol
_atom_type_radius_bond
C 0.68
H 0.23
N 0.68
O 0.68
loop_
_atom_site_label
_atom_site_type_symbol
_atom_site_fract_x
_atom_site_fract_y
_atom_site_fract_z
O1 O 0.21335(18) 0.3417(6) 0.1331(2)
N1 N 0.16682(19) 0.4170(6) 0.1345(3)
C1 C 0.1462(3) 0.3437(9) 0.1946(3)
C2 C 0.2082(4) 0.3131(15) 0.2907(5)
H1 H 0.236(4) 0.429(14) 0.310(6)
H2 H 0.234(3) 0.209(10) 0.293(4)
H3 H 0.197(2) 0.302(7) 0.332(4)
C3 C 0.1113(5) 0.1587(11) 0.1506(7)
H4 H 0.070(5) 0.184(12) 0.087(6)
H5 H 0.144(2) 0.081(7) 0.149(3)
H6 H 0.099(3) 0.120(9) 0.184(4)
C4 C 0.1018(2) 0.5011(7) 0.1869(3)
C5 C 0.0392(3) 0.4356(12) 0.1766(6)
H7 H 0.063(2) 0.382(7) 0.244(3)
H8 H 0.013(3) 0.544(8) 0.173(3)
H9 H 0.012(3) 0.365(9) 0.121(4)
C6 C 0.1359(4) 0.6508(11) 0.2611(5)
H10 H 0.176(3) 0.676(7) 0.267(3)
H11 H 0.151(3) 0.608(8) 0.322(4)
H12 H 0.099(2) 0.724(7) 0.245(3)
N2 N 0.0838(2) 0.5951(7) 0.0987(3)
O2 O 0.03600(18) 0.7078(6) 0.0569(2)
C7 C 0.1274(2) 0.5546(8) 0.0791(3)
C8 C 0.1324(2) 0.6409(9) 0.0066(3)
N3 N 0.1545(3) 0.5636(8) -0.0339(3)
H13 H 0.173(2) 0.456(8) -0.004(3)
O3 O 0.11000(18) 0.8168(6) -0.0102(2)
C9 C 0.1126(3) 0.9214(9) -0.0795(4)
H14 H 0.103(2) 0.825(8) -0.126(4)
C10 C 0.1799(4) 0.9978(13) -0.0379(6)
H15 H 0.215(3) 0.893(10) -0.007(4)
H16 H 0.192(3) 1.088(10) 0.010(5)
H17 H 0.180(3) 1.059(10) -0.080(5)
C11 C 0.0618(4) 1.0717(14) -0.1112(7)
H18 H 0.016(4) 1.015(11) -0.134(5)
H19 H 0.060(4) 1.163(11) -0.157(5)
H20 H 0.069(4) 1.137(13) -0.066(6)
#END
