
#######################################################################
#
#                 Cambridge Crystallographic Data Centre
#                                CCDC
#
#######################################################################
#
# If this CIF has been generated from an entry in the Cambridge
# Structural Database, then it will include bibliographic, chemical,
# crystal, experimental, refinement or atomic coordinate data resulting
# from the CCDC's data processing and validation procedures.
#
#######################################################################

data_CSD_CIF_FEFHUW
_audit_creation_date 2017-07-14
_audit_creation_method CSD-ConQuest-V1
_database_code_CSD FEFHUW
_database_code_depnum_ccdc_archive 'CCDC 1473400'
_chemical_formula_sum 'C13 H10 N4 O3'
_chemical_formula_moiety
;
C13 H10 N4 O3
;
_journal_coden_Cambridge 917
_journal_volume 12
_journal_year 2016
_journal_page_first 2390
_journal_name_full 'Beilstein J.Org.Chem. '
loop_
_publ_author_name
"I.V.Efimov"
"M.Z.Shafikov"
"N.A.Beliaev"
"N.N.Volkova"
"T.V.Beryozkina"
"Wim Dehaen"
"Zhijin Fan"
"V.V.Grishko"
"G.Lubec"
"P.A.Slepukhin"
"V.A.Bakulev"
_chemical_name_systematic
;
4-(1-methyl-5-nitro-1H-imidazol-4-yl)-3-phenyl-1,2-oxazole
;
_cell_volume   1211.752
_exptl_crystal_colour 'red'
_exptl_crystal_density_diffrn 1.481
_exptl_crystal_description 'prism'
_diffrn_ambient_temperature 295
#These two values have been output from a single CSD field.
_refine_ls_R_factor_gt 0.044
_refine_ls_wR_factor_gt 0.044
_symmetry_cell_setting orthorhombic
_symmetry_space_group_name_H-M 'P 21 21 21'
_symmetry_Int_Tables_number 19
loop_
_symmetry_equiv_pos_site_id
_symmetry_equiv_pos_as_xyz
1 x,y,z
2 1/2-x,-y,1/2+z
3 1/2+x,1/2-y,-z
4 -x,1/2+y,1/2-z
_cell_length_a 6.5200(9)
_cell_length_b 10.4602(5)
_cell_length_c 17.7675(8)
_cell_angle_alpha 90
_cell_angle_beta 90
_cell_angle_gamma 90
_cell_formula_units_Z 4
loop_
_atom_type_symbol
_atom_type_radius_bond
C 0.68
H 0.23
N 0.68
O 0.68
loop_
_atom_site_label
_atom_site_type_symbol
_atom_site_fract_x
_atom_site_fract_y
_atom_site_fract_z
N1 N 0.0208(2) 0.68383(13) 0.12662(9)
C1 C -0.0712(3) 0.72973(16) 0.19095(9)
C2 C -0.5907(3) 1.00192(15) 0.11223(9)
N2 N 0.0159(3) 0.70912(18) 0.26299(10)
N3 N -0.2687(2) 0.78072(14) 0.09363(8)
O1 O -0.6239(3) 0.91050(17) 0.30484(8)
C3 C -0.4317(3) 1.06049(16) 0.07377(10)
H1 H -0.30080 1.06270 0.09450
C4 C -0.5582(3) 0.94489(16) 0.18753(10)
C5 C -0.7857(3) 1.00001(19) 0.08118(12)
H2 H -0.89370 0.96280 0.10740
C6 C -0.6611(4) 1.11118(19) -0.02709(11)
H3 H -0.68440 1.14710 -0.07420
C7 C -0.4090(3) 0.85433(16) 0.21380(9)
C8 C -0.2501(3) 0.79017(15) 0.17014(9)
C9 C -0.4683(3) 1.11578(17) 0.00434(11)
H4 H -0.36220 1.15630 -0.02120
C10 C -0.4631(4) 0.8377(2) 0.28673(11)
H5 H -0.39680 0.78270 0.31990
C11 C 0.2160(4) 0.6172(2) 0.11529(15)
H6 H 0.32600 0.66860 0.13460
H7 H 0.23680 0.60250 0.06250
H8 H 0.21310 0.53680 0.14130
O2 O 0.1678(3) 0.6416(2) 0.26807(10)
C12 C -0.1045(3) 0.71785(17) 0.07063(10)
H9 H -0.07860 0.69910 0.02030
O3 O -0.0639(3) 0.75962(19) 0.31714(8)
N4 N -0.6847(3) 0.97971(18) 0.24094(10)
C13 C -0.8190(4) 1.0536(2) 0.01112(13)
H10 H -0.94910 1.05060 -0.01020
#END
