
#######################################################################
#
#                 Cambridge Crystallographic Data Centre
#                                CCDC
#
#######################################################################
#
# If this CIF has been generated from an entry in the Cambridge
# Structural Database, then it will include bibliographic, chemical,
# crystal, experimental, refinement or atomic coordinate data resulting
# from the CCDC's data processing and validation procedures.
#
#######################################################################

data_CSD_CIF_FEFJUX
_audit_creation_date 2012-12-31
_audit_creation_method CSD-ConQuest-V1
_database_code_CSD FEFJUX
_database_code_depnum_ccdc_archive 'CCDC 914649'
_chemical_formula_sum 'C18 H21 N1 O5'
_chemical_formula_moiety
;
C18 H21 N1 O5
;
_journal_coeditor_code "IUCr UK3053"
_journal_coden_Cambridge 591
_journal_volume 68
_journal_year 2012
_journal_page_first o436
_journal_name_full 'Acta Crystallogr.,Sect.C:Cryst.Struct.Commun. '
loop_
_publ_author_name
"V.N.Sonar"
"S.Parkin"
"P.A.Crooks"
_chemical_name_systematic
;
17-Hydroxy-10-methoxy-4-methyl-12-oxa-4-azapentacyclo[9.6.1.0^1,13^.0^5,17^.0^
7,18^]octadeca-7(18),8,10-trien-14-one 4-oxide
;
_chemical_name_common
;
(5R,9R,13S,14S,17R)-14-hydroxy-3-methoxy-17-methyl-4,5-epoxymorphinan-6-one 
N-oxide
;
_cell_volume   1505.525
_exptl_crystal_colour 'colorless'
_exptl_crystal_density_diffrn 1.462
_exptl_crystal_description 'irregular block'
_diffrn_ambient_temperature 90
#These two values have been output from a single CSD field.
_refine_ls_R_factor_gt 0.0338
_refine_ls_wR_factor_gt 0.0338
_symmetry_cell_setting orthorhombic
_symmetry_space_group_name_H-M 'P 21 21 21'
_symmetry_Int_Tables_number 19
loop_
_symmetry_equiv_pos_site_id
_symmetry_equiv_pos_as_xyz
1 x,y,z
2 1/2-x,-y,1/2+z
3 1/2+x,1/2-y,-z
4 -x,1/2+y,1/2-z
_cell_length_a 7.2080(1)
_cell_length_b 12.7611(3)
_cell_length_c 16.3676(4)
_cell_angle_alpha 90
_cell_angle_beta 90
_cell_angle_gamma 90
_cell_formula_units_Z 4
loop_
_atom_type_symbol
_atom_type_radius_bond
C 0.68
H 0.23
N 0.68
O 0.68
loop_
_atom_site_label
_atom_site_type_symbol
_atom_site_fract_x
_atom_site_fract_y
_atom_site_fract_z
C1 C 0.3016(3) 1.20159(15) 0.06279(11)
H1 H 0.18480 1.23430 0.05430
C2 C 0.4411(3) 1.25459(15) 0.10378(11)
H2 H 0.41660 1.32360 0.12280
C3 C 0.6170(3) 1.21116(15) 0.11858(11)
C4 C 0.6434(3) 1.10873(15) 0.09187(12)
C5 C 0.7225(3) 0.93839(15) 0.09201(12)
H3 H 0.82210 0.88930 0.07350
C6 C 0.6397(3) 0.90168(15) 0.17395(12)
C7 C 0.4885(3) 0.82149(15) 0.16823(12)
H4 H 0.43860 0.80690 0.22340
H5 H 0.53950 0.75540 0.14600
C8 C 0.3317(3) 0.86096(16) 0.11264(11)
H6 H 0.22790 0.81010 0.11260
H7 H 0.28440 0.92900 0.13300
C9 C 0.2608(3) 0.92092(15) -0.03283(11)
H8 H 0.15230 0.87210 -0.03320
C10 C 0.1887(3) 1.02933(14) -0.00568(12)
H9 H 0.13750 1.06590 -0.05400
H10 H 0.08570 1.01890 0.03350
C11 C 0.3327(3) 1.09923(14) 0.03368(11)
C12 C 0.5060(3) 1.05840(15) 0.04889(11)
C13 C 0.5729(3) 0.95099(15) 0.02522(11)
C14 C 0.4083(3) 0.87383(15) 0.02601(12)
C15 C 0.6570(3) 0.95335(16) -0.06137(11)
H11 H 0.76440 1.00170 -0.06220
H12 H 0.70210 0.88250 -0.07590
C16 C 0.5150(3) 0.98887(15) -0.12392(12)
H13 H 0.48220 1.06300 -0.11360
H14 H 0.56950 0.98410 -0.17930
N1 N 0.3418(2) 0.92248(13) -0.12008(10)
C17 C 0.2051(3) 0.96126(16) -0.18133(12)
H15 H 0.24870 0.94420 -0.23650
H16 H 0.19200 1.03740 -0.17600
H17 H 0.08470 0.92770 -0.17180
O1 O 0.7461(2) 1.27432(10) 0.15561(8)
C18 C 0.8802(3) 1.22387(16) 0.20839(12)
H18 H 0.81560 1.17740 0.24660
H19 H 0.94870 1.27720 0.23910
H20 H 0.96700 1.18280 0.17520
O2 O 0.7970(2) 1.04401(10) 0.10352(8)
O3 O 0.6926(2) 0.93888(12) 0.23779(9)
O4 O 0.4629(2) 0.77234(9) 0.00009(9)
H21 H 0.45670 0.76870 -0.05110
O5 O 0.3857(2) 0.81906(10) -0.14319(8)
#END
