
#######################################################################
#
#                 Cambridge Crystallographic Data Centre
#                                CCDC
#
#######################################################################
#
# If this CIF has been generated from an entry in the Cambridge
# Structural Database, then it will include bibliographic, chemical,
# crystal, experimental, refinement or atomic coordinate data resulting
# from the CCDC's data processing and validation procedures.
#
#######################################################################

data_CSD_CIF_FEFLEK
_audit_creation_date 2017-07-14
_audit_creation_method CSD-ConQuest-V1
_database_code_CSD FEFLEK
_database_code_depnum_ccdc_archive 'CCDC 1491187'
_chemical_formula_sum 'C18 H15 N3 O2'
_chemical_formula_moiety
;
C18 H15 N3 O2
;
_journal_coden_Cambridge 917
_journal_volume 12
_journal_year 2016
_journal_page_first 2503
_journal_name_full 'Beilstein J.Org.Chem. '
loop_
_publ_author_name
"F.Albota"
"M.R.Caira"
"C.Draghici"
"F.Dumitrascu"
"D.E.Dumitrescu"
_chemical_name_systematic
;
4-(6-ethylindolizin-2-yl)-5-oxo-3-phenyl-5H-1,2,3-oxadiazol-3-ium-2-ide
;
_chemical_melting_point 400
_cell_volume   1538.282
_exptl_crystal_colour 'brown'
_exptl_crystal_density_diffrn 1.318
_exptl_special_details
;
Melting point range 400-402K

;
_exptl_crystal_description 'block'
_exptl_crystal_preparation 'methanol'
_diffrn_ambient_temperature 173
#These two values have been output from a single CSD field.
_refine_ls_R_factor_gt 0.0421
_refine_ls_wR_factor_gt 0.0421
_symmetry_cell_setting monoclinic
_symmetry_space_group_name_H-M 'P 21/c'
_symmetry_Int_Tables_number 14
loop_
_symmetry_equiv_pos_site_id
_symmetry_equiv_pos_as_xyz
1 x,y,z
2 -x,1/2+y,1/2-z
3 -x,-y,-z
4 x,-1/2-y,-1/2+z
_cell_length_a 11.7917(5)
_cell_length_b 7.5448(3)
_cell_length_c 17.6610(8)
_cell_angle_alpha 90
_cell_angle_beta 101.754(2)
_cell_angle_gamma 90
_cell_formula_units_Z 4
loop_
_atom_type_symbol
_atom_type_radius_bond
C 0.68
H 0.23
N 0.68
O 0.68
loop_
_atom_site_label
_atom_site_type_symbol
_atom_site_fract_x
_atom_site_fract_y
_atom_site_fract_z
O1 O -0.12348(8) 0.50491(13) 0.05957(5)
N1 N -0.07391(10) 0.60534(15) 0.12317(6)
N2 N 0.02729(9) 0.52783(14) 0.14826(6)
C1 C 0.04989(11) 0.38604(17) 0.10723(7)
C2 C -0.05036(11) 0.36492(17) 0.04847(7)
O2 O -0.07991(8) 0.25976(13) -0.00450(5)
C3 C 0.09988(11) 0.60438(17) 0.21658(7)
C4 C 0.14775(12) 0.76833(19) 0.21057(9)
H1 H 0.13290 0.83090 0.16290
C5 C 0.21806(13) 0.8402(2) 0.27556(10)
H2 H 0.25270 0.95300 0.27270
C6 C 0.23804(13) 0.7485(3) 0.34443(10)
H3 H 0.28690 0.79820 0.38880
C7 C 0.18753(13) 0.5846(2) 0.34948(9)
H4 H 0.20080 0.52320 0.39740
C8 C 0.11783(12) 0.5099(2) 0.28499(8)
H5 H 0.08330 0.39690 0.28760
C9 C 0.15687(11) 0.28658(17) 0.11779(7)
C10 C 0.16464(11) 0.12293(17) 0.08312(7)
H6 H 0.10290 0.06120 0.05090
N3 N 0.27704(9) 0.06643(14) 0.10363(6)
C11 C 0.32511(11) -0.09237(18) 0.08637(8)
H7 H 0.27800 -0.17700 0.05480
C12 C 0.43830(12) -0.12829(18) 0.11399(8)
C13 C 0.50799(12) 0.0023(2) 0.16052(8)
H8 H 0.58810 -0.02020 0.17920
C14 C 0.46184(11) 0.15804(19) 0.17852(7)
H9 H 0.50970 0.24260 0.20970
C15 C 0.34279(11) 0.19489(17) 0.15106(7)
C16 C 0.26894(11) 0.33163(18) 0.15966(7)
H10 H 0.28950 0.43720 0.18850
C17 C 0.49129(13) -0.3017(2) 0.09600(9)
H11 H 0.42870 -0.38260 0.07090
H12 H 0.53090 -0.35740 0.14500
C18 C 0.57737(16) -0.2795(3) 0.04358(12)
H13 H 0.53800 -0.22870 -0.00590
H14 H 0.60980 -0.39530 0.03460
H15 H 0.63990 -0.20010 0.06820
#END
