
#######################################################################
#
#                 Cambridge Crystallographic Data Centre
#                                CCDC
#
#######################################################################
#
# If this CIF has been generated from an entry in the Cambridge
# Structural Database, then it will include bibliographic, chemical,
# crystal, experimental, refinement or atomic coordinate data resulting
# from the CCDC's data processing and validation procedures.
#
#######################################################################

data_CSD_CIF_FEFNIQ
_audit_creation_date 2017-07-14
_audit_creation_method CSD-ConQuest-V1
_database_code_CSD FEFNIQ
_database_code_depnum_ccdc_archive 'CCDC 1540957'
_chemical_formula_sum 'C20 H19 N1 O5'
_chemical_formula_moiety
;
C20 H19 N1 O5
;
_journal_coden_Cambridge 182
_journal_volume 53
_journal_year 2017
_journal_page_first 8521
_journal_name_full 'Chem.Commun. '
loop_
_publ_author_name
"Zhe-Hao Wang"
"Huan-Huan Zhang"
"Dao-Ming Wang"
"Peng-Fei Xu"
"Yong-Chun Luo"
_chemical_name_systematic
;
dimethyl 2-phenyl-2,3-dihydro-1,5-epoxy-1-benzazepine-4,4(5H)-dicarboxylate
;
_cell_volume   3506.337
_exptl_crystal_colour 'colorless'
_exptl_crystal_density_diffrn 1.339
_exptl_crystal_description 'block'
_diffrn_ambient_temperature 293.2
#These two values have been output from a single CSD field.
_refine_ls_R_factor_gt 0.066
_refine_ls_wR_factor_gt 0.066
_symmetry_cell_setting monoclinic
_symmetry_space_group_name_H-M 'P 2/n'
_symmetry_Int_Tables_number 13
loop_
_symmetry_equiv_pos_site_id
_symmetry_equiv_pos_as_xyz
1 x,y,z
2 1/2-x,y,1/2-z
3 -x,-y,-z
4 -1/2+x,-y,-1/2+z
_cell_length_a 16.8611(8)
_cell_length_b 7.7647(3)
_cell_length_c 27.0984(13)
_cell_angle_alpha 90
_cell_angle_beta 98.764(5)
_cell_angle_gamma 90
_cell_formula_units_Z 8
loop_
_atom_type_symbol
_atom_type_radius_bond
C 0.68
H 0.23
N 0.68
O 0.68
loop_
_atom_site_label
_atom_site_type_symbol
_atom_site_fract_x
_atom_site_fract_y
_atom_site_fract_z
O1 O 0.59992(12) 0.6948(2) 0.68653(8)
O2 O 0.74251(15) 0.5201(3) 0.6234(1)
O3 O 0.79681(14) 0.6479(3) 0.69325(9)
O4 O 0.77746(15) 1.0542(3) 0.67178(11)
O5 O 0.78481(14) 0.9592(3) 0.59475(9)
N1 N 0.53231(14) 0.7253(3) 0.64606(10)
C1 C 0.42985(19) 0.5796(4) 0.55959(15)
H1 H 0.42690 0.52070 0.58910
C2 C 0.3681(2) 0.5655(5) 0.52035(19)
H2 H 0.32400 0.49660 0.52340
C3 C 0.3713(2) 0.6518(6) 0.47713(17)
H3 H 0.32920 0.64260 0.45080
C4 C 0.4368(3) 0.7531(5) 0.47225(15)
H4 H 0.43900 0.81190 0.44260
C5 C 0.4994(2) 0.7672(4) 0.51179(13)
H5 H 0.54350 0.83570 0.50840
C6 C 0.49694(18) 0.6810(4) 0.55574(12)
C7 C 0.56515(17) 0.6802(4) 0.59926(11)
H6 H 0.58400 0.56090 0.60320
C8 C 0.63851(17) 0.7898(4) 0.59212(11)
H7 H 0.66530 0.73730 0.56670
H8 H 0.62050 0.90340 0.58040
C9 C 0.69859(17) 0.8083(4) 0.64041(11)
C10 C 0.65175(18) 0.8404(4) 0.68435(12)
H9 H 0.68770 0.85800 0.71590
C11 C 0.59187(17) 0.9863(4) 0.67331(12)
C12 C 0.5947(2) 1.1603(4) 0.68259(13)
H10 H 0.64180 1.21280 0.69770
C13 C 0.5251(2) 1.2551(4) 0.66874(14)
H11 H 0.52540 1.37300 0.67480
C14 C 0.4554(2) 1.1766(4) 0.64603(15)
H12 H 0.40930 1.24250 0.63740
C15 C 0.45282(19) 1.0017(4) 0.63583(13)
H13 H 0.40630 0.94940 0.61980
C16 C 0.52151(17) 0.9090(4) 0.65031(11)
C17 C 0.74716(18) 0.6415(4) 0.65039(12)
C18 C 0.8456(3) 0.4964(4) 0.70643(16)
H14 H 0.88680 0.48980 0.68570
H15 H 0.81250 0.39540 0.70160
H16 H 0.86980 0.50360 0.74080
C19 C 0.75741(18) 0.9548(4) 0.63836(14)
C20 C 0.8411(2) 1.0960(5) 0.58913(16)
H17 H 0.85630 1.09000 0.55640
H18 H 0.88790 1.08330 0.61390
H19 H 0.81640 1.20530 0.59330
O6 O 0.23474(12) 0.3770(2) 0.64268(8)
O7 O 0.05586(18) 0.5235(3) 0.68206(10)
O8 O 0.14649(15) 0.4254(3) 0.74306(8)
O9 O 0.13574(15) 0.0172(3) 0.73004(10)
O10 O 0.01393(13) 0.0758(3) 0.68934(9)
N2 N 0.20779(14) 0.3365(3) 0.58976(10)
C21 C 0.1253(2) 0.4288(4) 0.49207(14)
H20 H 0.16900 0.49960 0.50290
C22 C 0.0993(3) 0.4104(6) 0.44216(15)
H21 H 0.12590 0.46790 0.41940
C23 C 0.0346(3) 0.3086(5) 0.42495(14)
H22 H 0.01780 0.29600 0.39080
C24 C -0.0050(2) 0.2256(5) 0.45866(14)
H23 H -0.04960 0.15800 0.44750
C25 C 0.0216(2) 0.2424(4) 0.50939(12)
H24 H -0.00530 0.18500 0.53200
C26 C 0.08732(18) 0.3433(4) 0.52684(11)
C27 C 0.11828(17) 0.3666(4) 0.58206(11)
H25 H 0.10960 0.48740 0.59030
C28 C 0.07552(17) 0.2561(4) 0.61660(11)
H26 H 0.07070 0.13940 0.60370
H27 H 0.02180 0.30070 0.61650
C29 C 0.11968(17) 0.2516(4) 0.67093(11)
C30 C 0.21049(17) 0.2306(4) 0.66963(12)
H28 H 0.24150 0.22070 0.70320
C31 C 0.22648(16) 0.0841(4) 0.63631(12)
C32 C 0.23719(18) -0.0911(4) 0.64352(14)
H29 H 0.23850 -0.13980 0.67500
C33 C 0.2460(2) -0.1924(4) 0.60256(15)
H30 H 0.25330 -0.31050 0.60660
C34 C 0.2441(2) -0.1204(5) 0.55585(15)
H31 H 0.25080 -0.19050 0.52900
C35 C 0.23208(19) 0.0559(4) 0.54831(14)
H32 H 0.23000 0.10520 0.51690
C36 C 0.22351(17) 0.1531(4) 0.58926(12)
C37 C 0.1031(2) 0.4170(4) 0.69821(12)
C38 C 0.1335(3) 0.5747(4) 0.77301(14)
H33 H 0.14880 0.67700 0.75690
H34 H 0.16540 0.56440 0.80540
H35 H 0.07780 0.58160 0.77660
C39 C 0.09234(19) 0.1024(4) 0.70028(12)
C40 C -0.0181(2) -0.0665(5) 0.71495(14)
H36 H 0.00120 -0.17330 0.70350
H37 H -0.07570 -0.06460 0.70800
H38 H -0.00110 -0.05560 0.75030
#END
