
#######################################################################
#
#                 Cambridge Crystallographic Data Centre
#                                CCDC
#
#######################################################################
#
# If this CIF has been generated from an entry in the Cambridge
# Structural Database, then it will include bibliographic, chemical,
# crystal, experimental, refinement or atomic coordinate data resulting
# from the CCDC's data processing and validation procedures.
#
#######################################################################

data_CSD_CIF_FEFPEM02
_audit_creation_date 2015-04-01
_audit_creation_method CSD-ConQuest-V1
_database_code_CSD FEFPEM02
_database_code_depnum_ccdc_archive 'CCDC 927029'
_chemical_formula_sum 'C12 H9 N1 O3'
_chemical_formula_moiety
;
C12 H9 N1 O3
;
_journal_coden_Cambridge 902
_journal_volume 104
_journal_year 2015
_journal_page_first 85
_journal_name_full 'Bioelectrochemistry '
loop_
_publ_author_name
"M.Shabbir"
"Z.Akhter"
"I.Ahmad"
"S.Ahmed"
"H.Ismail"
"B.Mirza"
"V.Mckee"
"M.Bolte"
_chemical_name_systematic
;
1-nitro-4-phenoxybenzene
;
_cell_volume   1005.496
_exptl_crystal_colour 'colorless'
_exptl_crystal_density_diffrn 1.422
_exptl_crystal_description 'plate'
_diffrn_ambient_temperature 150
#These two values have been output from a single CSD field.
_refine_ls_R_factor_gt 0.0424
_refine_ls_wR_factor_gt 0.0424
_symmetry_cell_setting monoclinic
_symmetry_space_group_name_H-M 'P 21/c'
_symmetry_Int_Tables_number 14
loop_
_symmetry_equiv_pos_site_id
_symmetry_equiv_pos_as_xyz
1 x,y,z
2 -x,1/2+y,1/2-z
3 -x,-y,-z
4 x,-1/2-y,-1/2+z
_cell_length_a 10.330(2)
_cell_length_b 12.222(3)
_cell_length_c 8.0098(17)
_cell_angle_alpha 90
_cell_angle_beta 96.122(4)
_cell_angle_gamma 90
_cell_formula_units_Z 4
loop_
_atom_type_symbol
_atom_type_radius_bond
C 0.68
H 0.23
N 0.68
O 0.68
loop_
_atom_site_label
_atom_site_type_symbol
_atom_site_fract_x
_atom_site_fract_y
_atom_site_fract_z
O1 O 0.63869(12) 0.18811(9) 0.17768(16)
C1 C 0.65709(17) 0.07954(14) 0.1407(2)
C2 C 0.74747(17) 0.04523(15) 0.0353(2)
H1 H 0.80240 0.09660 -0.01150
C3 C 0.75617(17) -0.06504(14) -0.0002(2)
H2 H 0.81780 -0.09060 -0.07120
C4 C 0.67451(17) -0.13740(14) 0.0683(2)
N1 N 0.68773(15) -0.25402(12) 0.0347(2)
O2 O 0.77627(13) -0.28383(11) -0.04566(18)
O3 O 0.61048(13) -0.31793(10) 0.08884(18)
C5 C 0.58206(17) -0.10333(14) 0.1697(2)
H3 H 0.52540 -0.15470 0.21340
C6 C 0.57346(17) 0.00599(14) 0.2064(2)
H4 H 0.51080 0.03110 0.27610
C7 C 0.74123(17) 0.26173(14) 0.1717(2)
C8 C 0.86487(18) 0.23966(15) 0.2476(2)
H5 H 0.88390 0.17120 0.30070
C9 C 0.96036(19) 0.31837(16) 0.2455(2)
H6 H 1.04610 0.30350 0.29550
C10 C 0.9320(2) 0.41896(16) 0.1708(2)
H7 H 0.99790 0.47310 0.17060
C11 C 0.80761(19) 0.44043(15) 0.0966(2)
H8 H 0.78800 0.50950 0.04560
C12 C 0.71144(19) 0.36127(15) 0.0966(2)
H9 H 0.62590 0.37560 0.04540
#END
