
#######################################################################
#
#                 Cambridge Crystallographic Data Centre
#                                CCDC
#
#######################################################################
#
# If this CIF has been generated from an entry in the Cambridge
# Structural Database, then it will include bibliographic, chemical,
# crystal, experimental, refinement or atomic coordinate data resulting
# from the CCDC's data processing and validation procedures.
#
#######################################################################

data_CSD_CIF_FEFPEM
_audit_creation_date 2005-04-28
_audit_creation_method CSD-ConQuest-V1
_database_code_CSD FEFPEM
_database_code_depnum_ccdc_archive 'CCDC 268124'
_chemical_formula_sum 'C12 H9 N1 O3'
_chemical_formula_moiety
;
C12 H9 N1 O3
;
_journal_coeditor_code "IUCr SK1810"
_journal_coden_Cambridge 591
_journal_volume 61
_journal_year 2005
_journal_page_first o185
_journal_name_full 'Acta Crystallogr.,Sect.C:Cryst.Struct.Commun. '
loop_
_publ_author_name
"C.Glidewell"
"J.N.Low"
"J.M.S.Skakle"
"J.L.Wardell"
_chemical_name_systematic
;
4-Nitrophenyl phenyl ether
;
_cell_volume   1003.171
_exptl_crystal_colour 'colorless'
_exptl_crystal_density_diffrn 1.425
_exptl_special_details
;
monoclinic polymorph

;
_exptl_crystal_description 'shard'
_exptl_crystal_preparation 'ethanol'
_diffrn_ambient_temperature 120
#These two values have been output from a single CSD field.
_refine_ls_R_factor_gt 0.0423
_refine_ls_wR_factor_gt 0.0423
_symmetry_cell_setting monoclinic
_symmetry_space_group_name_H-M 'P 21/c'
_symmetry_Int_Tables_number 14
loop_
_symmetry_equiv_pos_site_id
_symmetry_equiv_pos_as_xyz
1 x,y,z
2 -x,1/2+y,1/2-z
3 -x,-y,-z
4 x,-1/2-y,-1/2+z
_cell_length_a 10.3300(5)
_cell_length_b 12.2408(4)
_cell_length_c 7.9804(4)
_cell_angle_alpha 90
_cell_angle_beta 96.215(2)
_cell_angle_gamma 90
_cell_formula_units_Z 4
loop_
_atom_type_symbol
_atom_type_radius_bond
C 0.68
H 0.23
N 0.68
O 0.68
loop_
_atom_site_label
_atom_site_type_symbol
_atom_site_fract_x
_atom_site_fract_y
_atom_site_fract_z
O1 O 0.36142(9) 0.31179(7) 0.32222(13)
O2 O 0.22322(10) 0.78372(8) 0.54552(14)
O3 O 0.38921(10) 0.81782(8) 0.41061(15)
N1 N 0.31209(11) 0.75386(9) 0.46511(16)
C1 C 0.34314(12) 0.42031(10) 0.35927(17)
C2 C 0.25253(12) 0.45470(11) 0.46435(18)
C3 C 0.24360(13) 0.56507(11) 0.50037(18)
C4 C 0.32547(12) 0.63742(10) 0.43173(17)
C5 C 0.41804(12) 0.60360(11) 0.32985(18)
C6 C 0.42682(12) 0.49404(11) 0.29330(18)
C7 C 0.25903(12) 0.2380(1) 0.32812(18)
C8 C 0.28895(14) 0.13855(11) 0.40378(17)
C9 C 0.19265(14) 0.05949(11) 0.40325(18)
C10 C 0.06804(14) 0.08090(12) 0.32944(19)
C11 C 0.03923(14) 0.18169(12) 0.25384(19)
C12 C 0.13495(13) 0.26051(11) 0.25177(19)
H1 H 0.19740 0.40340 0.51090
H2 H 0.18190 0.59050 0.57140
H3 H 0.47450 0.65500 0.28590
H4 H 0.48960 0.46900 0.22350
H5 H 0.37450 0.12430 0.45560
H6 H 0.21250 -0.00960 0.45380
H7 H 0.00210 0.02690 0.33030
H8 H -0.04660 0.19640 0.20340
H9 H 0.11590 0.32900 0.19880
#END
