
#######################################################################
#
#                 Cambridge Crystallographic Data Centre
#                                CCDC
#
#######################################################################
#
# If this CIF has been generated from an entry in the Cambridge
# Structural Database, then it will include bibliographic, chemical,
# crystal, experimental, refinement or atomic coordinate data resulting
# from the CCDC's data processing and validation procedures.
#
#######################################################################

data_CSD_CIF_FEFPEM01
_audit_creation_date 2005-09-13
_audit_creation_method CSD-ConQuest-V1
_database_code_CSD FEFPEM01
_database_code_depnum_ccdc_archive 'CCDC 265015'
_chemical_formula_sum 'C12 H9 N1 O3'
_chemical_formula_moiety
;
C12 H9 N1 O3
;
_journal_coden_Cambridge 182
_journal_year 2005
_journal_page_first 2486
_journal_name_full 'Chem.Commun. '
loop_
_publ_author_name
"A.Dey"
"G.R.Desiraju"
_chemical_name_systematic
;
4-Nitrodiphenyl ether
;
_chemical_melting_point 329
_cell_volume   1052.727
_exptl_crystal_colour 'yellow'
_exptl_crystal_density_diffrn 1.358
_exptl_special_details
;
triclinic polymorph

;
_exptl_crystal_description 'blocks'
_exptl_crystal_preparation 'ethyl acetate/hexane'
_diffrn_ambient_temperature 298
#These two values have been output from a single CSD field.
_refine_ls_R_factor_gt 0.0511
_refine_ls_wR_factor_gt 0.0511
_symmetry_cell_setting triclinic
_symmetry_space_group_name_H-M 'P -1'
_symmetry_Int_Tables_number 2
loop_
_symmetry_equiv_pos_site_id
_symmetry_equiv_pos_as_xyz
1 x,y,z
2 -x,-y,-z
_cell_length_a 6.7833(14)
_cell_length_b 8.9802(18)
_cell_length_c 17.306(4)
_cell_angle_alpha 87.76(3)
_cell_angle_beta 88.25(3)
_cell_angle_gamma 88.88(3)
_cell_formula_units_Z 4
loop_
_atom_type_symbol
_atom_type_radius_bond
C 0.68
H 0.23
N 0.68
O 0.68
loop_
_atom_site_label
_atom_site_type_symbol
_atom_site_fract_x
_atom_site_fract_y
_atom_site_fract_z
O1 O 0.0450(3) 0.3573(2) 0.21570(14)
C1 C -0.0122(5) 0.4588(4) 0.15929(19)
C2 C -0.1526(6) 0.6501(4) 0.04671(18)
C3 C 0.0259(5) 0.6768(4) 0.07768(19)
H1 H 0.09860 0.75920 0.06070
C4 C 0.2033(6) 0.3906(4) 0.2620(2)
C5 C -0.1899(5) 0.4327(4) 0.1268(2)
H2 H -0.26140 0.34920 0.14290
C6 C 0.0961(5) 0.5799(4) 0.13428(19)
H3 H 0.21740 0.59650 0.15570
O2 O -0.3934(5) 0.7289(3) -0.03756(17)
O3 O -0.1311(5) 0.8574(4) -0.03547(16)
N1 N -0.2311(6) 0.7522(4) -0.01335(19)
C7 C -0.2622(5) 0.5297(4) 0.0709(2)
H4 H -0.38390 0.51380 0.04960
C8 C 0.1746(5) 0.4880(4) 0.3199(2)
H5 H 0.05350 0.53680 0.32670
C9 C 0.3783(6) 0.3184(4) 0.2511(2)
H6 H 0.39630 0.25150 0.21160
C10 C 0.3269(7) 0.5135(4) 0.3682(2)
H7 H 0.30860 0.57980 0.40790
C11 C 0.5020(7) 0.4428(5) 0.3583(3)
H8 H 0.60410 0.45970 0.39140
C12 C 0.5298(6) 0.3465(5) 0.3000(3)
H9 H 0.65190 0.29920 0.29290
O4 O 1.0235(3) 0.8692(2) 0.28246(14)
C13 C 1.1576(6) 1.1522(4) 0.45184(19)
C14 C 1.0590(5) 0.9674(4) 0.33853(19)
C15 C 0.8539(6) 0.8884(4) 0.2399(2)
C16 C 0.9200(5) 1.0657(4) 0.36742(19)
H10 H 0.79310 1.06900 0.34840
O5 O 1.0885(5) 1.3383(3) 0.53695(18)
C17 C 0.9702(6) 1.1595(4) 0.4249(2)
H11 H 0.87770 1.22650 0.44490
O6 O 1.3782(5) 1.2390(3) 0.53735(16)
C18 C 0.7028(7) 0.7948(4) 0.2548(2)
H12 H 0.70990 0.72290 0.29480
N2 N 1.2109(6) 1.2506(4) 0.51341(19)
C19 C 1.2956(5) 1.0541(5) 0.4237(2)
H13 H 1.42240 1.05090 0.44270
C20 C 1.2459(5) 0.9605(4) 0.3672(2)
H14 H 1.33840 0.89230 0.34820
C21 C 0.8463(6) 0.9937(4) 0.1806(2)
H15 H 0.95200 1.05640 0.17010
C22 C 0.5272(7) 0.9122(6) 0.1516(3)
H16 H 0.41530 0.92030 0.12190
C23 C 0.5396(7) 0.8066(6) 0.2106(3)
H17 H 0.43560 0.74200 0.22060
C24 C 0.6816(8) 1.0055(5) 0.1371(2)
H18 H 0.67470 1.07760 0.09720
#END
