
#######################################################################
#
#                 Cambridge Crystallographic Data Centre
#                                CCDC
#
#######################################################################
#
# If this CIF has been generated from an entry in the Cambridge
# Structural Database, then it will include bibliographic, chemical,
# crystal, experimental, refinement or atomic coordinate data resulting
# from the CCDC's data processing and validation procedures.
#
#######################################################################

data_CSD_CIF_FEFTAO
_audit_creation_date 2017-07-14
_audit_creation_method CSD-ConQuest-V1
_database_code_CSD FEFTAO
_database_code_depnum_ccdc_archive 'CCDC 1559038'
_chemical_formula_sum 'C23 H25 N1 O5'
_chemical_formula_moiety
;
C23 H25 N1 O5
;
_journal_coden_Cambridge 182
_journal_volume 53
_journal_year 2017
_journal_page_first 8521
_journal_name_full 'Chem.Commun. '
loop_
_publ_author_name
"Zhe-Hao Wang"
"Huan-Huan Zhang"
"Dao-Ming Wang"
"Peng-Fei Xu"
"Yong-Chun Luo"
_chemical_name_systematic
;
4-t-butyl 4-methyl 
2-phenyl-2,3-dihydro-1,5-epoxy-1-benzazepine-4,4(5H)-dicarboxylate
;
_cell_volume   2076.127
_exptl_crystal_colour 'light colorless'
_exptl_crystal_density_diffrn 1.265
_exptl_crystal_description 'block'
_diffrn_ambient_temperature 173
#These two values have been output from a single CSD field.
_refine_ls_R_factor_gt 0.0599
_refine_ls_wR_factor_gt 0.0599
_symmetry_cell_setting triclinic
_symmetry_space_group_name_H-M 'P -1'
_symmetry_Int_Tables_number 2
loop_
_symmetry_equiv_pos_site_id
_symmetry_equiv_pos_as_xyz
1 x,y,z
2 -x,-y,-z
_cell_length_a 11.8383(9)
_cell_length_b 13.1551(10)
_cell_length_c 13.6364(10)
_cell_angle_alpha 78.762(7)
_cell_angle_beta 85.450(6)
_cell_angle_gamma 89.969(6)
_cell_formula_units_Z 4
loop_
_atom_type_symbol
_atom_type_radius_bond
C 0.68
H 0.23
N 0.68
O 0.68
loop_
_atom_site_label
_atom_site_type_symbol
_atom_site_fract_x
_atom_site_fract_y
_atom_site_fract_z
O1 O 0.43493(14) 1.05962(13) 0.13732(11)
O2 O 0.77611(15) 1.08312(16) 0.19738(13)
O3 O 0.72730(15) 1.01709(16) 0.35909(12)
O4 O 0.49887(16) 0.86245(14) 0.32633(13)
O5 O 0.61847(14) 0.87905(13) 0.18628(12)
N1 N 0.37259(17) 1.13082(16) 0.19228(14)
C1 C 0.4425(2) 1.22419(19) 0.16253(16)
C2 C 0.4100(2) 1.3245(2) 0.16369(17)
H1 H 0.33740 1.33930 0.18790
C3 C 0.4903(2) 1.4030(2) 0.12709(19)
H2 H 0.47100 1.47160 0.12660
C4 C 0.5984(2) 1.3806(2) 0.09146(18)
H3 H 0.65030 1.43430 0.06640
C5 C 0.6304(2) 1.2779(2) 0.09289(17)
H4 H 0.70320 1.26230 0.06980
C6 C 0.5507(2) 1.20043(19) 0.12965(16)
C7 C 0.5534(2) 1.0838(2) 0.14310(17)
H5 H 0.60240 1.06090 0.09050
C8 C 0.58182(19) 1.03049(19) 0.24935(16)
C9 C 0.5049(2) 1.07385(19) 0.32822(16)
H6 H 0.50750 1.02820 0.39310
H7 H 0.53380 1.14140 0.33360
C10 C 0.3814(2) 1.0840(2) 0.30106(16)
H8 H 0.34910 1.01370 0.31260
C11 C 0.3068(2) 1.14504(19) 0.36373(16)
C12 C 0.3418(2) 1.1753(2) 0.44818(17)
H9 H 0.41410 1.15930 0.46800
C13 C 0.2690(3) 1.2295(2) 0.5035(2)
H10 H 0.29340 1.25010 0.55990
C14 C 0.1612(3) 1.2532(2) 0.4759(2)
H11 H 0.11280 1.28910 0.51370
C15 C 0.1255(2) 1.2230(2) 0.39157(19)
H12 H 0.05310 1.23910 0.37210
C16 C 0.1975(2) 1.1693(2) 0.33660(19)
H13 H 0.17280 1.14880 0.28030
C17 C 0.7058(2) 1.0475(2) 0.26326(18)
C18 C 0.8430(2) 1.0298(3) 0.3830(2)
H14 H 0.89350 0.99710 0.34040
H15 H 0.85030 0.99830 0.45180
H16 H 0.86170 1.10230 0.37260
C19 C 0.5605(2) 0.9134(2) 0.26051(17)
C20 C 0.5993(2) 0.7725(2) 0.16748(19)
C21 C 0.6799(3) 0.7714(2) 0.0755(2)
H17 H 0.66340 0.82810 0.02300
H18 H 0.67090 0.70720 0.05330
H19 H 0.75650 0.77810 0.09210
C22 C 0.6321(3) 0.6927(2) 0.2552(2)
H20 H 0.70780 0.70700 0.26980
H21 H 0.62870 0.62500 0.23890
H22 H 0.58060 0.69510 0.31270
C23 C 0.4767(2) 0.7630(3) 0.1450(2)
H23 H 0.42800 0.76440 0.20450
H24 H 0.46540 0.69880 0.12340
H25 H 0.45910 0.81970 0.09300
O6 O 0.92260(14) 1.59412(13) 0.13531(11)
O7 O 1.26834(15) 1.54866(16) 0.17926(13)
O8 O 1.22747(15) 1.54708(16) 0.34266(13)
O9 O 0.99996(17) 1.72138(15) 0.31517(13)
O10 O 1.11605(14) 1.75708(13) 0.17285(12)
N2 N 0.86296(17) 1.50113(16) 0.19416(14)
C24 C 0.9315(2) 1.4191(2) 0.16521(17)
C25 C 0.9004(2) 1.3164(2) 0.17489(17)
H26 H 0.82880 1.29200 0.20220
C26 C 0.9812(2) 1.2508(2) 0.14187(18)
H27 H 0.96310 1.18100 0.14730
C27 C 1.0874(2) 1.2875(2) 0.10126(17)
H28 H 1.13930 1.24240 0.07890
C28 C 1.1179(2) 1.3914(2) 0.09337(17)
H29 H 1.18970 1.41610 0.06660
C29 C 1.0387(2) 1.4560(2) 0.12630(16)
C30 C 1.0406(2) 1.56841(19) 0.13562(17)
H30 H 1.08670 1.61170 0.08020
C31 C 1.0767(2) 1.58102(19) 0.23959(16)
C32 C 1.00315(19) 1.50763(19) 0.32267(16)
H31 H 1.03160 1.43770 0.32860
H32 H 1.00960 1.52890 0.38630
C33 C 0.8776(2) 1.5077(2) 0.30096(16)
H33 H 0.84590 1.57370 0.31230
C34 C 0.8060(2) 1.42076(19) 0.36768(17)
C35 C 0.6957(2) 1.4059(2) 0.34428(19)
H34 H 0.66770 1.44910 0.28940
C36 C 0.6270(3) 1.3278(2) 0.4016(2)
H35 H 0.55340 1.31890 0.38520
C37 C 0.6677(3) 1.2629(3) 0.4832(2)
H36 H 0.62220 1.20970 0.52120
C38 C 0.7764(3) 1.2779(2) 0.5078(2)
H37 H 0.80360 1.23520 0.56330
C39 C 0.8458(2) 1.3561(2) 0.45025(18)
H38 H 0.91920 1.36510 0.46720
C40 C 1.2019(2) 1.55721(19) 0.24827(18)
C41 C 1.3425(2) 1.5202(3) 0.3631(2)
H39 H 1.39370 1.56870 0.31970
H40 H 1.35730 1.45160 0.35140
H41 H 1.35300 1.52240 0.43170
C42 C 1.0583(2) 1.6947(2) 0.24861(18)
C43 C 1.1046(2) 1.8720(2) 0.15569(19)
C44 C 1.1830(3) 1.9081(2) 0.0621(2)
H42 H 1.25920 1.88810 0.07540
H43 H 1.18010 1.98220 0.04280
H44 H 1.15960 1.87700 0.00870
C45 C 1.1442(3) 1.9119(2) 0.2436(2)
H45 H 1.09170 1.88990 0.30120
H46 H 1.14820 1.98630 0.22780
H47 H 1.21780 1.88510 0.25770
C46 C 0.9829(2) 1.8988(2) 0.1358(2)
H48 H 0.96090 1.86710 0.08240
H49 H 0.97630 1.97270 0.11720
H50 H 0.93430 1.87360 0.19540
#END
