
#######################################################################
#
#                 Cambridge Crystallographic Data Centre
#                                CCDC
#
#######################################################################
#
# If this CIF has been generated from an entry in the Cambridge
# Structural Database, then it will include bibliographic, chemical,
# crystal, experimental, refinement or atomic coordinate data resulting
# from the CCDC's data processing and validation procedures.
#
#######################################################################

data_CSD_CIF_FEGGEG
_audit_creation_date 2017-07-17
_audit_creation_method CSD-ConQuest-V1
_database_code_CSD FEGGEG
_database_code_depnum_ccdc_archive 'CCDC 1530822'
_chemical_formula_sum 'C21 H18 N2 O4'
_chemical_formula_moiety
;
C21 H18 N2 O4
;
_journal_coden_Cambridge 388
_journal_volume 53
_journal_year 2017
_journal_page_first 697
_journal_name_full 'Zh.Org.Khim.(Russ.)(Russ.J.Org.Chem.) '
loop_
_publ_author_name
"R.R.Gataullina"
"Z.A.Ibatullinab"
"E.S.Meshcheryakovac"
"A.A.Fatykhova"
"L.M.Khalilov"
_chemical_name_systematic
;
11-methyl-1-(4-nitrophenyl)-4,5,6,7-tetrahydro-1H-1,4,7-(methanetriyl)[1,3]oxa
zolo[3,4-a][1]benzazocin-3(3aH)-one
;
_cell_volume   1798.030
_exptl_crystal_colour 'colorless'
_exptl_crystal_density_diffrn 1.339
_diffrn_ambient_temperature 250.2
#These two values have been output from a single CSD field.
_refine_ls_R_factor_gt 0.0744
_refine_ls_wR_factor_gt 0.0744
_symmetry_cell_setting triclinic
_symmetry_space_group_name_H-M 'P -1'
_symmetry_Int_Tables_number 2
loop_
_symmetry_equiv_pos_site_id
_symmetry_equiv_pos_as_xyz
1 x,y,z
2 -x,-y,-z
_cell_length_a 9.1214(5)
_cell_length_b 10.5036(5)
_cell_length_c 20.6638(10)
_cell_angle_alpha 77.903(4)
_cell_angle_beta 79.014(4)
_cell_angle_gamma 69.476(5)
_cell_formula_units_Z 4
loop_
_atom_type_symbol
_atom_type_radius_bond
C 0.68
H 0.23
N 0.68
O 0.68
loop_
_atom_site_label
_atom_site_type_symbol
_atom_site_fract_x
_atom_site_fract_y
_atom_site_fract_z
N1 N 0.1056(2) 0.69907(17) 0.15960(9)
C1 C 0.2628(2) 0.63737(19) 0.18164(10)
C2 C 0.3386(2) 0.48512(19) 0.18121(10)
C3 C 0.4988(2) 0.4258(2) 0.18719(11)
H1 H 0.55710 0.48080 0.19170
C4 C 0.4848(2) 0.2086(2) 0.17916(11)
N2 N 0.5653(2) 0.0614(2) 0.17555(12)
C5 C 0.0790(3) 0.8360(2) 0.17882(12)
H2 H -0.02410 0.90690 0.17130
C6 C 0.3541(3) 0.7334(2) 0.14195(11)
H3 H 0.45150 0.72100 0.16050
C7 C 0.2525(3) 0.4032(2) 0.17556(13)
H4 H 0.14350 0.44250 0.17310
C8 C 0.3257(3) 0.2637(2) 0.17353(13)
H5 H 0.26850 0.20820 0.16850
C9 C 0.1119(3) 0.6943(2) 0.08960(12)
C10 C 0.2281(3) 0.8780(2) 0.14665(12)
H6 H 0.25560 0.92570 0.17680
C11 C 0.5729(2) 0.2860(2) 0.18647(12)
H7 H 0.68080 0.24520 0.19090
C12 C 0.1085(3) 0.7868(2) 0.25045(12)
C13 C 0.2511(4) 0.6916(2) 0.04626(12)
O1 O 0.4944(3) -0.0059(2) 0.16492(18)
C14 C -0.0198(4) 0.6823(2) 0.06896(15)
C15 C 0.3831(3) 0.7235(2) 0.06712(12)
H8 H 0.48750 0.65660 0.05470
O2 O 0.6994(3) 0.0121(2) 0.1847(2)
C16 C 0.2265(4) 0.9593(3) 0.07551(14)
H9 H 0.13130 0.96830 0.05710
H10 H 0.23130 1.05130 0.07490
C17 C -0.1671(4) 0.6834(3) 0.11719(19)
H11 H -0.14000 0.61180 0.15530
H12 H -0.24200 0.66680 0.09500
H13 H -0.21400 0.77220 0.13220
C18 C -0.0074(5) 0.6667(3) 0.00242(19)
H14 H -0.09440 0.66110 -0.01360
C19 C 0.3753(4) 0.8726(3) 0.03594(15)
H15 H 0.46930 0.89180 0.04170
H16 H 0.36490 0.89000 -0.01170
C20 C 0.2590(5) 0.6705(3) -0.01876(15)
H17 H 0.35270 0.66380 -0.04820
C21 C 0.1309(6) 0.6594(4) -0.04027(18)
H18 H 0.13740 0.64660 -0.08460
O3 O 0.22664(17) 0.66329(15) 0.25090(7)
O4 O 0.0540(2) 0.83877(19) 0.29974(9)
O5 O 0.82397(16) 0.36099(15) 0.25081(7)
N3 N 0.95396(19) 0.31881(16) 0.34011(8)
C22 C 0.7930(2) 0.37951(19) 0.3214(1)
C23 C 0.7147(2) 0.52992(19) 0.32542(10)
C24 C 0.9569(3) 0.31534(19) 0.41013(11)
N4 N 0.4861(2) 0.9506(2) 0.33780(12)
C25 C 0.5518(2) 0.5867(2) 0.32551(11)
H19 H 0.49270 0.53060 0.32350
C26 C 0.5659(2) 0.8042(2) 0.33239(11)
O6 O 0.9973(2) 0.19447(19) 0.19620(8)
C27 C 0.7094(3) 0.2783(2) 0.36044(12)
H20 H 0.60940 0.29090 0.34400
C28 C 0.8014(2) 0.6137(2) 0.32729(12)
H21 H 0.91170 0.57620 0.32560
C29 C 0.9815(2) 0.1844(2) 0.31787(11)
H22 H 1.08650 0.11470 0.32300
C30 C 0.9463(2) 0.2400(2) 0.24729(11)
C31 C 0.4765(2) 0.7254(2) 0.32859(11)
H23 H 0.36680 0.76450 0.32810
C32 C 0.8372(3) 0.1368(2) 0.35079(12)
H24 H 0.80760 0.09220 0.31990
C33 C 0.7278(3) 0.7522(2) 0.33162(13)
H25 H 0.78610 0.80880 0.33400
C34 C 1.0922(3) 0.3261(2) 0.42897(12)
C35 C 0.8240(3) 0.3098(2) 0.45556(12)
C36 C 0.6900(3) 0.2786(2) 0.43614(13)
H26 H 0.58620 0.34240 0.45180
O7 O 0.3490(3) 0.9973(2) 0.3347(2)
O8 O 0.5589(3) 1.0193(2) 0.34458(19)
C37 C 1.0896(4) 0.3310(3) 0.49604(15)
H27 H 1.17900 0.33560 0.51050
C38 C 1.2325(3) 0.3356(3) 0.37890(16)
H28 H 1.28180 0.24980 0.36110
H29 H 1.30790 0.35280 0.40040
H30 H 1.19830 0.41040 0.34280
C39 C 0.8482(4) 0.0483(2) 0.42011(14)
H31 H 0.84520 -0.04350 0.41870
H32 H 0.94580 0.03860 0.43680
C40 C 0.8272(5) 0.3191(3) 0.52219(14)
H33 H 0.73860 0.31840 0.55390
C41 C 0.7032(4) 0.1270(3) 0.46408(15)
H34 H 0.71980 0.10430 0.51120
H35 H 0.60870 0.10750 0.45930
C42 C 0.9586(6) 0.3292(3) 0.54141(15)
H36 H 0.95870 0.33500 0.58620
#END
