
#######################################################################
#
#                 Cambridge Crystallographic Data Centre
#                                CCDC
#
#######################################################################
#
# If this CIF has been generated from an entry in the Cambridge
# Structural Database, then it will include bibliographic, chemical,
# crystal, experimental, refinement or atomic coordinate data resulting
# from the CCDC's data processing and validation procedures.
#
#######################################################################

data_CSD_CIF_FEGJEH
_audit_creation_date 2005-05-03
_audit_creation_method CSD-ConQuest-V1
_database_code_CSD FEGJEH
_database_code_depnum_ccdc_archive 'CCDC 259756'
_chemical_formula_sum 'C17 H18 N2 O2'
_chemical_formula_moiety
;
C17 H18 N2 O2
;
_journal_coden_Cambridge 1088
_journal_year 2004
_journal_page_first 2815
_journal_name_full 'Synlett '
loop_
_publ_author_name
"R.C.F.Jones"
"T.A.Pillainayagam"
_chemical_name_systematic
;
6-(2-Methylpropyl)-3-(2-phenylethenyl)-5,6-dihydro-4H-pyrrolo(3,4-c)isoxazol-4
-one
;
_cell_volume   2956.110
_exptl_crystal_colour 'yellow'
_exptl_crystal_density_diffrn 1.269
_diffrn_ambient_temperature 150
#These two values have been output from a single CSD field.
_refine_ls_R_factor_gt 0.0819
_refine_ls_wR_factor_gt 0.0819
_symmetry_cell_setting monoclinic
_symmetry_space_group_name_H-M 'I 2/a'
_symmetry_Int_Tables_number 15
loop_
_symmetry_equiv_pos_site_id
_symmetry_equiv_pos_as_xyz
1 x,y,z
2 1/2-x,y,-z
3 1/2+x,1/2+y,1/2+z
4 -x,1/2+y,1/2-z
5 -x,-y,-z
6 -1/2+x,-y,z
7 -1/2-x,-1/2-y,-1/2-z
8 x,-1/2-y,-1/2+z
_cell_length_a 20.387(5)
_cell_length_b 4.8159(12)
_cell_length_c 31.224(8)
_cell_angle_alpha 90
_cell_angle_beta 105.361(4)
_cell_angle_gamma 90
_cell_formula_units_Z 8
loop_
_atom_type_symbol
_atom_type_radius_bond
C 0.68
H 0.23
N 0.68
O 0.68
loop_
_atom_site_label
_atom_site_type_symbol
_atom_site_fract_x
_atom_site_fract_y
_atom_site_fract_z
O1 O 0.0155(2) 0.4340(9) 0.05996(14)
C1 C -0.0312(3) 0.2693(14) 0.0447(2)
N1 N -0.0629(2) 0.2303(11) 0.00081(17)
C2 C -0.1144(3) 0.0051(15) -0.0094(2)
C3 C -0.1111(3) -0.0877(15) 0.0372(2)
C4 C -0.0617(3) 0.0652(13) 0.0685(2)
N2 N -0.1416(3) -0.2787(13) 0.05373(18)
O2 O -0.1085(2) -0.2594(10) 0.10101(14)
C5 C -0.0604(3) -0.0539(14) 0.1081(2)
C6 C -0.0199(3) -0.0209(15) 0.1528(2)
C7 C 0.0280(3) 0.1741(14) 0.1640(2)
C8 C 0.0756(3) 0.2183(16) 0.2077(2)
C9 C 0.0715(4) 0.0655(18) 0.2449(2)
C10 C 0.1194(4) 0.104(2) 0.2854(2)
C11 C 0.1690(5) 0.292(2) 0.2896(3)
C12 C 0.1728(5) 0.451(2) 0.2533(3)
C13 C 0.1255(4) 0.4083(19) 0.2125(3)
C14 C -0.1835(3) 0.1071(15) -0.0354(2)
C15 C -0.1860(3) 0.2220(15) -0.0821(2)
C16 C -0.2576(3) 0.3022(16) -0.1052(2)
C17 C -0.1591(4) 0.0251(17) -0.1109(2)
H1 H -0.05330 0.33230 -0.02010
H2 H -0.09870 -0.14770 -0.02600
H3 H -0.02740 -0.14110 0.17520
H4 H 0.03180 0.29800 0.14110
H5 H 0.03580 -0.06530 0.24260
H6 H 0.11700 -0.00440 0.31040
H7 H 0.20150 0.31740 0.31740
H8 H 0.20730 0.58740 0.25630
H9 H 0.12860 0.51530 0.18750
H10 H -0.19850 0.25500 -0.01800
H11 H -0.21630 -0.04800 -0.03870
H12 H -0.15750 0.39410 -0.07810
H13 H -0.25880 0.38760 -0.13390
H14 H -0.27430 0.43510 -0.08680
H15 H -0.28650 0.13630 -0.11000
H16 H -0.18360 -0.15170 -0.11330
H17 H -0.11050 -0.00690 -0.09760
H18 H -0.16570 0.10590 -0.14060
#END
