
#######################################################################
#
#                 Cambridge Crystallographic Data Centre
#                                CCDC
#
#######################################################################
#
# If this CIF has been generated from an entry in the Cambridge
# Structural Database, then it will include bibliographic, chemical,
# crystal, experimental, refinement or atomic coordinate data resulting
# from the CCDC's data processing and validation procedures.
#
#######################################################################

data_CSD_CIF_FEGPAK
_audit_creation_date 2005-05-03
_audit_creation_method CSD-ConQuest-V1
_database_code_CSD FEGPAK
_database_code_depnum_ccdc_archive 'CCDC 249855'
_chemical_formula_sum 'C64 H64 N4 O12'
_chemical_formula_moiety
;
C64 H64 N4 O12
;
_journal_coden_Cambridge 177
_journal_volume 3
_journal_year 2005
_journal_page_first 172
_journal_name_full 'Org.Biomol.Chem. '
loop_
_publ_author_name
"C.Danila"
"M.Bolte"
"V.Bohmer"
_chemical_name_systematic
;
5,17-Di-t-butyl-11,23-dinitro-26,28-bis(3-(phthalimido)propoxy)-25,27-bis(ally
loxy)calix(4)arene
;
_chemical_melting_point 543.15
_cell_volume   2923.168
_exptl_crystal_colour 'colorless'
_exptl_crystal_density_diffrn 1.228
_exptl_special_details
;
Melting point range 543.15-545.15K
pinched cone conformation

;
_exptl_crystal_description 'block'
_exptl_crystal_preparation 'chloroform/methanol'
_diffrn_ambient_temperature 173
_refine_special_details
;
A t-butyl group is disordered over two sites with occupancies 0.529:0.471.

;
#These two values have been output from a single CSD field.
_refine_ls_R_factor_gt 0.0511
_refine_ls_wR_factor_gt 0.0511
_symmetry_cell_setting triclinic
_symmetry_space_group_name_H-M 'P -1'
_symmetry_Int_Tables_number 2
loop_
_symmetry_equiv_pos_site_id
_symmetry_equiv_pos_as_xyz
1 x,y,z
2 -x,-y,-z
_cell_length_a 14.1953(7)
_cell_length_b 14.6587(7)
_cell_length_c 15.3671(7)
_cell_angle_alpha 111.121(4)
_cell_angle_beta 92.666(4)
_cell_angle_gamma 99.425(4)
_cell_formula_units_Z 2
loop_
_atom_type_symbol
_atom_type_radius_bond
C 0.68
H 0.23
N 0.68
O 0.68
loop_
_atom_site_label
_atom_site_type_symbol
_atom_site_fract_x
_atom_site_fract_y
_atom_site_fract_z
C1 C 0.97712(8) 0.61245(8) 0.68166(8)
H1 H 1.03200 0.61250 0.64410
H2 H 1.00190 0.64790 0.74890
C2 C 0.90383(8) 0.66496(8) 0.65382(7)
C3 C 0.82552(7) 0.68351(7) 0.70575(7)
C4 C 0.74348(8) 0.70359(8) 0.66758(7)
C5 C 0.74692(8) 0.72025(9) 0.58362(8)
H3 H 0.69280 0.73780 0.55940
C6 C 0.82756(9) 0.71186(9) 0.53390(8)
C7 C 0.90377(8) 0.68083(9) 0.56948(8)
H4 H 0.95740 0.67020 0.53500
C8 C 0.82926(12) 0.72770(15) 0.44050(11)
C9? C 0.7478(4) 0.7670(7) 0.4166(5)
H5? H 0.74190 0.82740 0.46930
H6? H 0.68870 0.71690 0.40380
H7? H 0.75810 0.78300 0.36070
C10? C 0.8431(8) 0.6359(6) 0.3644(3)
H8? H 0.89800 0.61240 0.38430
H9? H 0.85530 0.65010 0.30790
H10? H 0.78500 0.58420 0.35060
C11? C 0.9237(4) 0.8094(9) 0.4507(6)
H11? H 0.98060 0.78640 0.46670
H12? H 0.91920 0.87260 0.50040
H13? H 0.92880 0.81920 0.39110
C12 C 0.7849(11) 0.8150(11) 0.4444(8)
H14 H 0.72320 0.81000 0.47000
H15 H 0.77450 0.81520 0.38090
H16 H 0.82810 0.87700 0.48470
C13 C 0.7602(5) 0.6279(7) 0.3638(3)
H17 H 0.69560 0.62110 0.38350
H18 H 0.78690 0.56910 0.35980
H19 H 0.75670 0.63360 0.30220
C14 C 0.9224(3) 0.7307(5) 0.4041(3)
H20 H 0.94690 0.67080 0.40040
H21 H 0.96770 0.79000 0.44610
H22 H 0.91510 0.73320 0.34130
O1 O 0.82416(6) 0.67246(6) 0.79104(5)
C15 C 0.89506(8) 0.74392(8) 0.86541(7)
H23 H 0.94600 0.77530 0.83750
H24 H 0.92530 0.70870 0.89990
C16 C 0.85055(9) 0.82449(9) 0.93377(8)
H25 H 0.89430 0.85710 0.99300
H26 H 0.78940 0.79290 0.94840
C17 C 0.83082(9) 0.90379(8) 0.89674(8)
H27 H 0.89210 0.93830 0.88510
H28 H 0.78870 0.87170 0.83640
N1 N 0.78457(7) 0.97624(7) 0.96417(7)
C18 C 0.68752(9) 0.95724(9) 0.97622(8)
O2 O 0.62981(7) 0.88443(8) 0.92626(8)
C19 C 0.67311(9) 1.04332(9) 1.05939(8)
C20 C 0.59161(10) 1.06106(11) 1.10393(10)
H29 H 0.53210 1.01520 1.08190
C21 C 0.60050(12) 1.14900(12) 1.18242(10)
H30 H 0.54580 1.16370 1.21430
C22 C 0.68710(12) 1.21517(11) 1.21472(9)
H31 H 0.69090 1.27460 1.26820
C23 C 0.76933(11) 1.19621(11) 1.17016(10)
H32 H 0.82910 1.24140 1.19260
C24 C 0.76034(9) 1.10926(9) 1.09211(9)
C25 C 0.83356(9) 1.06608(10) 1.03207(10)
O3 O 0.91843(8) 1.09832(9) 1.03777(11)
C26 C 0.65010(7) 0.69067(8) 0.70972(7)
H33 H 0.60550 0.72780 0.69160
H34 H 0.66270 0.71750 0.77910
C27 C 0.60484(7) 0.57978(8) 0.67378(7)
C28 C 0.56434(8) 0.53414(8) 0.73334(7)
C29 C 0.53069(8) 0.43054(8) 0.70209(8)
C30 C 0.53282(8) 0.37257(8) 0.60805(8)
H35 H 0.50940 0.30260 0.58480
C31 C 0.56958(8) 0.41846(8) 0.54899(8)
C32 C 0.60687(8) 0.51956(8) 0.58009(7)
H36 H 0.63370 0.54790 0.53790
N2 N 0.57212(8) 0.35686(8) 0.45007(7)
O4 O 0.61674(9) 0.39494(9) 0.40114(7)
O5 O 0.52775(10) 0.27010(8) 0.41965(8)
O6 O 0.56120(6) 0.58995(6) 0.82645(6)
C33 C 0.48783(10) 0.64963(12) 0.84414(10)
H37 H 0.43330 0.61760 0.79390
H38 H 0.51410 0.71630 0.84370
C34 C 0.4542(2) 0.6602(2) 0.9348(2)
H39 H 0.43190 0.59870 0.94180
C35 C 0.44940(19) 0.73452(19) 1.00394(13)
H40 H 0.47010 0.79920 1.00310
H41 H 0.42500 0.72720 1.05810
C36 C 0.50094(8) 0.37883(9) 0.76920(9)
H42 H 0.50160 0.42910 0.83300
H43 H 0.43490 0.33900 0.74810
C37 C 0.57090(8) 0.31127(8) 0.77123(8)
C38 C 0.66774(8) 0.35264(8) 0.80161(7)
C39 C 0.73716(8) 0.29295(8) 0.78929(8)
C40 C 0.70627(9) 0.18974(9) 0.75296(8)
H44 H 0.75270 0.14840 0.74590
C41 C 0.60888(9) 0.14498(8) 0.72657(8)
C42 C 0.54275(9) 0.20741(8) 0.73460(8)
H45 H 0.47670 0.17860 0.71460
C43 C 0.57929(11) 0.03076(9) 0.6869(1)
C44 C 0.61954(17) -0.01088(14) 0.59258(15)
H46 H 0.60100 -0.08370 0.56660
H47 H 0.68980 0.00850 0.60210
H48 H 0.59360 0.01600 0.54880
C45 C 0.62114(14) -0.01045(13) 0.75616(17)
H49 H 0.60240 -0.08330 0.73110
H50 H 0.59630 0.01710 0.81670
H51 H 0.69140 0.00870 0.76470
C46 C 0.46981(12) -0.00390(11) 0.67165(13)
H52 H 0.45400 -0.07690 0.64630
H53 H 0.44200 0.02120 0.62720
H54 H 0.44350 0.02190 0.73170
O7 O 0.69794(6) 0.45563(6) 0.84005(6)
C47 C 0.6934(1) 0.49394(9) 0.93964(8)
H55 H 0.72390 0.45410 0.96870
H56 H 0.62550 0.48940 0.95260
C48 C 0.74524(10) 0.60131(9) 0.98074(8)
H57 H 0.71330 0.64150 0.95330
H58 H 0.81250 0.60600 0.96560
C49 C 0.74402(11) 0.64154(10) 1.08719(9)
H59 H 0.67650 0.63810 1.10130
H60 H 0.77290 0.59840 1.11330
N3 N 0.79613(8) 0.74419(8) 1.13345(7)
C50 C 0.75171(10) 0.82668(11) 1.17027(10)
O8 O 0.66616(9) 0.82258(11) 1.16764(11)
C51 C 0.83181(10) 0.9148(1) 1.21247(9)
C52 C 0.82906(13) 1.01486(12) 1.25838(12)
H61 H 0.76990 1.03740 1.26770
C53 C 0.91731(14) 1.08080(11) 1.29018(12)
H62 H 0.91830 1.14990 1.32180
C54 C 1.00354(13) 1.04767(12) 1.27657(12)
H63 H 1.06240 1.09450 1.29910
C55 C 1.00548(11) 0.94678(11) 1.23040(11)
H64 H 1.06450 0.92390 1.22090
C56 C 0.91803(9) 0.88152(9) 1.19913(8)
C57 C 0.89592(10) 0.77109(9) 1.14897(9)
O9 O 0.95041(9) 0.71373(8) 1.12596(9)
C58 C 0.84211(8) 0.34109(9) 0.80330(9)
H65 H 0.88260 0.29270 0.80510
H66 H 0.85680 0.39890 0.86370
C59 C 0.86378(8) 0.37524(8) 0.72237(8)
C60 C 0.91633(7) 0.47049(8) 0.73753(7)
C61 C 0.92881(7) 0.50581(8) 0.66414(7)
C62 C 0.89103(8) 0.44192(9) 0.57317(8)
H67 H 0.89870 0.46330 0.52200
C63 C 0.84221(8) 0.34681(9) 0.55843(8)
C64 C 0.82679(9) 0.31282(9) 0.63078(8)
H68 H 0.79140 0.24760 0.61810
N4 N 0.80499(9) 0.27899(9) 0.46210(8)
O10 O 0.82907(9) 0.30422(10) 0.39772(7)
O11 O 0.75283(13) 0.19938(11) 0.44925(9)
O12 O 0.95348(6) 0.53373(6) 0.82743(6)
C65 C 1.04731(10) 0.52018(11) 0.85533(11)
H69 H 1.09090 0.52170 0.80720
H70 H 1.04220 0.45510 0.86250
C66 C 1.08500(12) 0.60211(13) 0.94552(11)
H71 H 1.04490 0.61370 0.99470
C67 C 1.16922(17) 0.65962(17) 0.96258(16)
H72 H 1.21120 0.65020 0.91510
H73 H 1.18880 0.71110 1.02260
#END
