
#######################################################################
#
#                 Cambridge Crystallographic Data Centre
#                                CCDC
#
#######################################################################
#
# If this CIF has been generated from an entry in the Cambridge
# Structural Database, then it will include bibliographic, chemical,
# crystal, experimental, refinement or atomic coordinate data resulting
# from the CCDC's data processing and validation procedures.
#
#######################################################################

data_CSD_CIF_FEGPAJ
_audit_creation_date 2005-05-03
_audit_creation_method CSD-ConQuest-V1
_database_code_CSD FEGPAJ
_database_code_depnum_ccdc_archive 'CCDC 249854'
_chemical_formula_sum 'C64 H64 N4 O12'
_chemical_formula_moiety
;
C64 H64 N4 O12
;
_journal_coden_Cambridge 177
_journal_volume 3
_journal_year 2005
_journal_page_first 172
_journal_name_full 'Org.Biomol.Chem. '
loop_
_publ_author_name
"C.Danila"
"M.Bolte"
"V.Bohmer"
_chemical_name_systematic
;
5,17-Di-t-butyl-11,23-dinitro-26,28-bis(3-(phthalimido)propoxy)-25,27-bis(ally
loxy)calix(4)arene
;
_chemical_melting_point 503.15
_cell_volume  12011.291
_exptl_crystal_colour 'colorless'
_exptl_crystal_density_diffrn 1.196
_exptl_special_details
;
Melting point range 503.15-505.15K
1,3-alternate conformation

;
_exptl_crystal_description 'block'
_exptl_crystal_preparation 'chloroform/methanol'
_diffrn_ambient_temperature 173
#These two values have been output from a single CSD field.
_refine_ls_R_factor_gt 0.0948
_refine_ls_wR_factor_gt 0.0948
_symmetry_cell_setting monoclinic
_symmetry_space_group_name_H-M 'C 2/c'
_symmetry_Int_Tables_number 15
loop_
_symmetry_equiv_pos_site_id
_symmetry_equiv_pos_as_xyz
1 x,y,z
2 1/2+x,1/2+y,z
3 -x,y,1/2-z
4 1/2-x,1/2+y,1/2-z
5 -x,-y,-z
6 -1/2-x,-1/2-y,-z
7 x,-y,-1/2+z
8 -1/2+x,-1/2-y,-1/2+z
_cell_length_a 16.7651(15)
_cell_length_b 29.395(3)
_cell_length_c 24.507(2)
_cell_angle_alpha 90
_cell_angle_beta 95.993(7)
_cell_angle_gamma 90
_cell_formula_units_Z 8
loop_
_atom_type_symbol
_atom_type_radius_bond
C 0.68
H 0.23
N 0.68
O 0.68
loop_
_atom_site_label
_atom_site_type_symbol
_atom_site_fract_x
_atom_site_fract_y
_atom_site_fract_z
C1 C 0.1348(5) 0.6578(2) 0.5036(3)
H1 H 0.08890 0.67280 0.51850
H2 H 0.12980 0.66300 0.46350
C2 C 0.1320(4) 0.60722(19) 0.5148(3)
C3 C 0.1899(4) 0.5771(2) 0.4967(2)
C4 C 0.1954(4) 0.53226(18) 0.5136(2)
C5 C 0.1374(4) 0.5159(2) 0.5457(2)
H3 H 0.14000 0.48500 0.55680
C6 C 0.0766(4) 0.5427(2) 0.5622(3)
C7 C 0.0769(4) 0.5888(2) 0.5466(3)
H4 H 0.03700 0.60820 0.55860
C8 C 0.0140(4) 0.5255(2) 0.5977(3)
C9 C -0.0684(4) 0.5462(3) 0.5807(3)
H5 H -0.10720 0.53440 0.60440
H6 H -0.08570 0.53820 0.54250
H7 H -0.06520 0.57940 0.58430
C10 C 0.0420(5) 0.5376(3) 0.6577(3)
H8 H 0.00240 0.52690 0.68150
H9 H 0.04780 0.57070 0.66130
H10 H 0.09380 0.52310 0.66870
C11 C 0.0046(5) 0.4731(2) 0.5933(3)
H11 H -0.03620 0.46300 0.61650
H12 H 0.05590 0.45850 0.60550
H13 H -0.01190 0.46470 0.55510
O1 O 0.2455(3) 0.59405(13) 0.46213(16)
C12 C 0.2166(4) 0.5921(2) 0.4046(3)
H14 H 0.16770 0.61100 0.39720
H15 H 0.20300 0.56040 0.39380
C13 C 0.2814(5) 0.6097(2) 0.3723(3)
H16 H 0.32820 0.58900 0.37690
H17 H 0.29900 0.64010 0.38610
C14 C 0.2505(5) 0.6130(2) 0.3119(3)
H18 H 0.23290 0.58240 0.29870
H19 H 0.20300 0.63320 0.30800
N1 N 0.3093(4) 0.63009(18) 0.2775(2)
C15 C 0.3629(4) 0.6021(2) 0.2530(3)
O2 O 0.3716(3) 0.56177(15) 0.26219(19)
C16 C 0.4033(4) 0.6313(2) 0.2155(3)
C17 C 0.4600(4) 0.6208(2) 0.1802(3)
H20 H 0.47800 0.59050 0.17650
C18 C 0.4898(5) 0.6562(2) 0.1502(3)
H21 H 0.52860 0.65010 0.12560
C19 C 0.4627(6) 0.6999(3) 0.1564(3)
H22 H 0.48400 0.72370 0.13610
C20 C 0.4055(5) 0.7102(2) 0.1913(3)
H23 H 0.38760 0.74050 0.19520
C21 C 0.3751(4) 0.6751(2) 0.2203(3)
C22 C 0.3148(5) 0.6748(2) 0.2594(3)
O3 O 0.2730(4) 0.70504(19) 0.2737(3)
C23 C 0.2644(4) 0.50249(19) 0.5000(2)
H24 H 0.25660 0.47130 0.51370
H25 H 0.26440 0.50080 0.45960
C24 C 0.3442(4) 0.52045(17) 0.5250(2)
C25 C 0.3631(4) 0.52185(18) 0.5818(2)
C26 C 0.4351(4) 0.53981(18) 0.6067(2)
C27 C 0.4904(4) 0.55668(18) 0.5726(2)
H26 H 0.53990 0.56940 0.58770
C28 C 0.4713(4) 0.55438(17) 0.5167(2)
C29 C 0.4005(4) 0.53683(17) 0.4925(3)
H27 H 0.39010 0.53590 0.45370
N2 N 0.5313(4) 0.57087(17) 0.4816(3)
O4 O 0.5132(3) 0.56958(17) 0.4311(2)
O5 O 0.5969(4) 0.58408(17) 0.5035(2)
O6 O 0.3065(3) 0.50587(11) 0.61429(16)
C30 C 0.3152(5) 0.45818(19) 0.6291(3)
H28 H 0.36370 0.45390 0.65530
H29 H 0.32120 0.43970 0.59600
C31 C 0.2439(4) 0.4434(2) 0.6543(3)
H30 H 0.22010 0.46450 0.67710
C32 C 0.2114(5) 0.4038(3) 0.6476(4)
H31 H 0.23360 0.38180 0.62510
H32 H 0.16510 0.39650 0.66530
C33 C 0.4534(4) 0.54427(19) 0.6691(2)
H33 H 0.44910 0.51390 0.68600
H34 H 0.50930 0.55500 0.67770
C34 C 0.3978(4) 0.57666(17) 0.6941(2)
C35 C 0.3935(4) 0.62238(18) 0.6784(2)
C36 C 0.3348(4) 0.65091(19) 0.6953(2)
C37 C 0.2849(4) 0.63385(18) 0.7325(2)
H35 H 0.24530 0.65330 0.74500
C38 C 0.2909(4) 0.58943(19) 0.7520(2)
C39 C 0.3455(4) 0.56166(19) 0.7315(2)
H36 H 0.34840 0.53080 0.74290
C40 C 0.2376(4) 0.57247(19) 0.7959(2)
C41 C 0.2131(6) 0.5229(2) 0.7858(4)
H37 H 0.18250 0.52010 0.74970
H38 H 0.17990 0.51290 0.81420
H39 H 0.26130 0.50380 0.78710
C42 C 0.1582(6) 0.5991(3) 0.7933(4)
H40 H 0.12850 0.59520 0.75700
H41 H 0.16960 0.63150 0.79970
H42 H 0.12600 0.58770 0.82150
C43 C 0.2839(7) 0.5783(4) 0.8515(3)
H43 H 0.29790 0.61050 0.85730
H44 H 0.33300 0.56010 0.85360
H45 H 0.25080 0.56830 0.88000
O7 O 0.4482(3) 0.63900(12) 0.64431(16)
C44 C 0.5167(4) 0.6598(2) 0.6741(3)
H46 H 0.54880 0.63650 0.69570
H47 H 0.49910 0.68280 0.69980
C45 C 0.5673(4) 0.68228(19) 0.6340(3)
H48 H 0.59850 0.65880 0.61660
H49 H 0.53180 0.69760 0.60480
C46 C 0.6238(6) 0.7165(3) 0.6624(3)
H50 H 0.59400 0.73600 0.68620
H51 H 0.66610 0.70040 0.68610
N3 N 0.6618(6) 0.7455(2) 0.6232(3)
C47 C 0.6249(11) 0.7816(4) 0.5958(5)
O8 O 0.5598(7) 0.7957(3) 0.6022(4)
C48 C 0.6833(11) 0.8009(4) 0.5599(5)
C49 C 0.6753(14) 0.8364(4) 0.5235(5)
H52 H 0.62460 0.85080 0.51630
C50 C 0.733(2) 0.8504(8) 0.4994(12)
H53 H 0.72810 0.87780 0.47890
C51 C 0.7975(19) 0.8273(7) 0.5029(6)
H54 H 0.83630 0.83650 0.47960
C52 C 0.8219(10) 0.7832(5) 0.5435(4)
H55 H 0.87120 0.76710 0.54810
C53 C 0.7511(11) 0.7752(5) 0.5697(4)
C54 C 0.7410(9) 0.7378(4) 0.6091(4)
O9 O 0.7845(5) 0.7094(3) 0.6287(3)
C55 C 0.3226(4) 0.69919(18) 0.6731(2)
H56 H 0.37230 0.71700 0.68250
H57 H 0.27900 0.71400 0.69080
C56 C 0.3016(4) 0.69967(18) 0.6108(3)
C57 C 0.2293(4) 0.68327(19) 0.5865(3)
C58 C 0.2124(4) 0.67897(19) 0.5294(3)
C59 C 0.2722(5) 0.6924(2) 0.4963(3)
H58 H 0.26320 0.69000 0.45750
C60 C 0.3425(5) 0.7086(2) 0.5206(3)
C61 C 0.3585(4) 0.71359(19) 0.5764(3)
H59 H 0.40790 0.72640 0.59160
N4 N 0.4053(5) 0.7196(2) 0.4858(3)
O10 O 0.4676(4) 0.7372(2) 0.5068(2)
O11 O 0.3940(4) 0.70932(18) 0.4371(2)
O12 O 0.1724(3) 0.66746(13) 0.61919(18)
C62 C 0.1189(6) 0.7014(3) 0.6375(4)
H60 H 0.14970 0.72180 0.66410
H61 H 0.09750 0.72010 0.60570
C63 C 0.0578(9) 0.6838(4) 0.6609(8)
H62 H 0.08350 0.66770 0.69140
C64 C -0.0106(9) 0.6772(3) 0.6643(8)
H63 H -0.04990 0.68990 0.63800
H64 H -0.02650 0.65920 0.69350
#END
