
#######################################################################
#
#                 Cambridge Crystallographic Data Centre
#                                CCDC
#
#######################################################################
#
# If this CIF has been generated from an entry in the Cambridge
# Structural Database, then it will include bibliographic, chemical,
# crystal, experimental, refinement or atomic coordinate data resulting
# from the CCDC's data processing and validation procedures.
#
#######################################################################

data_CSD_CIF_FEGPIR
_audit_creation_date 2005-05-03
_audit_creation_method CSD-ConQuest-V1
_database_code_CSD FEGPIR
_database_code_depnum_ccdc_archive 'CCDC 249857'
_chemical_formula_sum 'C48 H58 N2 O8'
_chemical_formula_moiety
;
C48 H58 N2 O8
;
_journal_coden_Cambridge 177
_journal_volume 3
_journal_year 2005
_journal_page_first 172
_journal_name_full 'Org.Biomol.Chem. '
loop_
_publ_author_name
"C.Danila"
"M.Bolte"
"V.Bohmer"
_chemical_name_systematic
;
5,17-Di-t-butyl-11,23-dinitro-26,28-bis(n-propoxy)-25,27-bis(allyloxy)calix(4)
arene
;
_chemical_melting_point 521.15
_cell_volume   2185.469
_exptl_crystal_colour 'colorless'
_exptl_crystal_density_diffrn 1.202
_exptl_special_details
;
Melting point range 521.15-522.15K
partial cone conformation

;
_exptl_crystal_description 'block'
_diffrn_ambient_temperature 100
_refine_special_details
;
Two t-butyl groups are disordered over two sites with occupancies 0.539:0.461 
and 0.517:0.483. An allyl group is also disordered over two sites with 
occupancies 0.681:0.319.
;
#These two values have been output from a single CSD field.
_refine_ls_R_factor_gt 0.0388
_refine_ls_wR_factor_gt 0.0388
_symmetry_cell_setting triclinic
_symmetry_space_group_name_H-M 'P -1'
_symmetry_Int_Tables_number 2
loop_
_symmetry_equiv_pos_site_id
_symmetry_equiv_pos_as_xyz
1 x,y,z
2 -x,-y,-z
_cell_length_a 10.3423(7)
_cell_length_b 13.1610(9)
_cell_length_c 16.5605(11)
_cell_angle_alpha 101.868(5)
_cell_angle_beta 96.988(5)
_cell_angle_gamma 91.968(5)
_cell_formula_units_Z 2
loop_
_atom_type_symbol
_atom_type_radius_bond
C 0.68
H 0.23
N 0.68
O 0.68
loop_
_atom_site_label
_atom_site_type_symbol
_atom_site_fract_x
_atom_site_fract_y
_atom_site_fract_z
C1 C 0.66620(12) 0.57745(9) 0.55250(8)
H1 H 0.59400 0.57350 0.50660
H2 H 0.71180 0.51210 0.54120
C2 C 0.76126(11) 0.66793(9) 0.55193(8)
C3 C 0.87723(11) 0.69064(9) 0.60763(7)
C4 C 0.95721(11) 0.78184(9) 0.61407(8)
C5 C 0.92459(12) 0.84586(9) 0.55893(8)
H3 H 0.97670 0.90760 0.56150
C6 C 0.81518(12) 0.81899(9) 0.50005(8)
C7 C 0.73233(12) 0.73241(9) 0.49653(8)
H4 H 0.65650 0.71750 0.45650
N1 N 0.78235(11) 0.88603(8) 0.44083(7)
O1 O 0.84646(10) 0.96886(8) 0.45006(7)
O2 O 0.69160(11) 0.85715(8) 0.38504(7)
O3 O 0.91044(8) 0.62612(6) 0.66173(6)
C8 C 0.96379(13) 0.52942(10) 0.62652(9)
H5 H 0.91240 0.49890 0.57190
H6 H 0.95560 0.48000 0.66350
C9 C 1.10359(14) 0.54322(10) 0.61507(9)
H7 H 1.12510 0.58780 0.57960
C10 C 1.19953(14) 0.49749(11) 0.65102(10)
H8 H 1.18140 0.45250 0.68680
H9 H 1.28670 0.50960 0.64110
C11 C 1.07640(11) 0.81057(9) 0.67958(8)
H10 H 1.13890 0.75530 0.67050
H11 H 1.11990 0.87600 0.67290
C12 C 1.04268(11) 0.82455(9) 0.76758(8)
C13 C 0.97468(11) 0.90951(9) 0.80117(8)
C14 C 0.92698(12) 0.91545(9) 0.87725(8)
C15 C 0.95426(12) 0.83682(9) 0.92067(8)
H12 H 0.92260 0.84060 0.97260
C16 C 1.02634(12) 0.75281(9) 0.89070(8)
C17 C 1.06913(11) 0.74860(9) 0.81363(8)
H13 H 1.11810 0.69200 0.79170
C18 C 1.04628(12) 0.66407(10) 0.93708(8)
C19 C 1.1295(3) 0.5817(2) 0.89957(19)
H14 H 1.13700 0.52850 0.93320
H15 H 1.21650 0.61270 0.89800
H16 H 1.08980 0.54980 0.84280
C20 C 1.1095(3) 0.71242(19) 1.02904(14)
H17 H 1.05570 0.76700 1.05420
H18 H 1.19740 0.74240 1.02860
H19 H 1.11470 0.65800 1.06150
C21 C 0.9078(2) 0.6219(2) 0.9459(2)
H20 H 0.85820 0.67960 0.97090
H21 H 0.91520 0.57090 0.98150
H22 H 0.86260 0.58870 0.89080
C22? C 0.9799(3) 0.5627(2) 0.8759(2)
H23? H 1.01410 0.55450 0.82240
H24? H 0.88530 0.56850 0.86730
H25? H 0.99930 0.50200 0.90010
C23? C 1.1936(2) 0.6425(3) 0.9476(3)
H26? H 1.22620 0.63460 0.89360
H27? H 1.20500 0.57850 0.96850
H28? H 1.24240 0.70090 0.98720
C24? C 0.9935(4) 0.6766(3) 1.01839(18)
H29? H 1.01170 0.61560 1.04240
H30? H 0.89900 0.68320 1.00950
H31? H 1.03520 0.73920 1.05660
O4 O 0.94661(8) 0.98478(6) 0.75518(6)
C25 C 1.03778(13) 1.07421(10) 0.77717(9)
H32 H 1.12500 1.05430 0.76290
H33 H 1.04570 1.10360 0.83770
C26 C 0.98709(15) 1.15322(11) 0.72907(11)
H34 H 0.89850 1.17030 0.74230
H35 H 0.98020 1.12280 0.66870
C27 C 1.07541(19) 1.25283(13) 0.74922(14)
H36 H 1.03920 1.30200 0.71670
H37 H 1.16280 1.23650 0.73520
H38 H 1.08100 1.28400 0.80870
C28 C 0.83620(12) 0.99850(9) 0.90932(8)
H39 H 0.87710 1.04150 0.96330
H40 H 0.82010 1.04460 0.86930
C29 C 0.70840(12) 0.94673(9) 0.92028(8)
C30 C 0.62294(12) 0.89570(9) 0.85003(8)
C31 C 0.51078(12) 0.83677(9) 0.85703(8)
C32 C 0.48341(12) 0.83059(9) 0.93600(8)
H41 H 0.40760 0.79190 0.94260
C33 C 0.56771(12) 0.88131(9) 1.00485(8)
C34 C 0.67925(12) 0.93922(9) 0.99848(8)
H42 H 0.73500 0.97330 1.04710
N2 N 0.53948(11) 0.87150(9) 1.08776(7)
O5 O 0.61971(10) 0.90981(10) 1.14791(6)
O6 O 0.43654(11) 0.82489(8) 1.09301(6)
O7 O 0.65432(8) 0.89708(6) 0.77212(5)
C35 C 0.60956(14) 0.98589(10) 0.73979(9)
H43 H 0.64450 1.05130 0.77860
H44 H 0.51310 0.98470 0.73340
C36 C 0.65644(14) 0.98012(11) 0.65769(9)
H45 H 0.73640 0.94880 0.64900
C37 C 0.5950(2) 1.01514(15) 0.59776(11)
H46 H 0.51480 1.04690 0.60470
H47 H 0.62980 1.00930 0.54660
C38 C 0.42693(12) 0.77662(10) 0.77945(8)
H48 H 0.41210 0.82160 0.73850
H49 H 0.34100 0.75610 0.79380
C39 C 0.49205(11) 0.67995(10) 0.74092(8)
C40 C 0.53744(11) 0.66936(9) 0.66390(8)
C41 C 0.60858(11) 0.58446(9) 0.63340(8)
C42 C 0.62390(12) 0.50621(9) 0.67859(8)
H50 H 0.67120 0.44800 0.65780
C43 C 0.57223(12) 0.51013(10) 0.75335(8)
C44 C 0.50966(12) 0.59944(10) 0.78388(8)
H51 H 0.47770 0.60580 0.83600
C45 C 0.57632(13) 0.41763(10) 0.79706(8)
C46 C 0.4339(2) 0.3681(3) 0.7839(2)
H52 H 0.37450 0.42190 0.80270
H53 H 0.42980 0.31370 0.81620
H54 H 0.40800 0.33760 0.72470
C47 C 0.6741(5) 0.3398(3) 0.7694(3)
H55 H 0.67120 0.28360 0.80000
H56 H 0.76180 0.37430 0.78060
H57 H 0.65280 0.31080 0.70960
C48 C 0.6055(5) 0.4610(4) 0.89164(17)
H58 H 0.54090 0.51100 0.90910
H59 H 0.69300 0.49590 0.90500
H60 H 0.60100 0.40380 0.92100
C49? C 0.7139(4) 0.3733(4) 0.7970(4)
H61? H 0.73710 0.35990 0.74030
H62? H 0.71290 0.30820 0.81700
H63? H 0.77840 0.42380 0.83360
C50? C 0.4904(4) 0.3251(3) 0.7399(3)
H64? H 0.51390 0.31470 0.68330
H65? H 0.39820 0.34040 0.73890
H66? H 0.50480 0.26180 0.76140
C51? C 0.5497(7) 0.4407(5) 0.8869(2)
H67? H 0.55570 0.37700 0.90890
H68? H 0.46200 0.46590 0.88990
H69? H 0.61430 0.49390 0.92010
O8 O 0.51360(8) 0.74326(6) 0.61598(5)
C52 C 0.3902(2) 0.7152(3) 0.56344(17)
H70 H 0.32120 0.70300 0.59750
H71 H 0.39660 0.65040 0.52180
C53 C 0.3563(2) 0.8023(2) 0.52030(16)
H72 H 0.42690 0.81660 0.48810
H73 H 0.34580 0.86630 0.56180
C54? C 0.3841(5) 0.7642(6) 0.5842(4)
H74? H 0.36930 0.83830 0.60520
H75? H 0.31990 0.72160 0.60480
C55? C 0.3630(4) 0.7406(5) 0.4912(3)
H76? H 0.37290 0.66570 0.46980
H77? H 0.42900 0.78090 0.47010
C56 C 0.22574(15) 0.76895(14) 0.46068(10)
H78 H 0.20200 0.82480 0.43170
H79 H 0.15630 0.75560 0.49320
H80 H 0.23710 0.70560 0.41980
H81? H 0.21210 0.75350 0.39970
H82? H 0.21670 0.84330 0.48170
H83? H 0.16070 0.72820 0.48110
#END
