
#######################################################################
#
#                 Cambridge Crystallographic Data Centre
#                                CCDC
#
#######################################################################
#
# If this CIF has been generated from an entry in the Cambridge
# Structural Database, then it will include bibliographic, chemical,
# crystal, experimental, refinement or atomic coordinate data resulting
# from the CCDC's data processing and validation procedures.
#
#######################################################################

data_CSD_CIF_FEHFAC
_audit_creation_date 2017-07-17
_audit_creation_method CSD-ConQuest-V1
_database_code_CSD FEHFAC
_database_code_depnum_ccdc_archive 'CCDC 1506336'
_chemical_formula_sum 'C33 H29 N3 O7'
_chemical_formula_moiety
;
C33 H29 N3 O7
;
_journal_coden_Cambridge 2020
_journal_volume 1
_journal_year 2016
_journal_page_first 6362
_journal_name_full 'Chem. Sel. '
loop_
_publ_author_name
"A.Dagar"
"S.Biswas"
"S.M.Mobin"
"S.Samanta"
_chemical_name_systematic
;
methyl 
3-((4-ethoxy-1-(4-methoxyphenyl)-2-nitro-4-oxobut-1-en-1-yl)amino)-2-phenyl-9H
-carbazole-1-carboxylate
;
_cell_volume   1457.419
_exptl_crystal_colour 'colorless'
_exptl_crystal_density_diffrn 1.321
_exptl_crystal_description 'block'
_diffrn_ambient_temperature 293
#These two values have been output from a single CSD field.
_refine_ls_R_factor_gt 0.1109
_refine_ls_wR_factor_gt 0.1109
_symmetry_cell_setting triclinic
_symmetry_space_group_name_H-M 'P -1'
_symmetry_Int_Tables_number 2
loop_
_symmetry_equiv_pos_site_id
_symmetry_equiv_pos_as_xyz
1 x,y,z
2 -x,-y,-z
_cell_length_a 10.9994(15)
_cell_length_b 11.9252(12)
_cell_length_c 12.6387(9)
_cell_angle_alpha 76.887(7)
_cell_angle_beta 84.062(9)
_cell_angle_gamma 64.512(12)
_cell_formula_units_Z 2
loop_
_atom_type_symbol
_atom_type_radius_bond
C 0.68
H 0.23
N 0.68
O 0.68
loop_
_atom_site_label
_atom_site_type_symbol
_atom_site_fract_x
_atom_site_fract_y
_atom_site_fract_z
O1 O 0.5693(3) -0.0799(3) 0.1012(3)
O2 O 0.7883(3) -0.1707(3) 0.1066(3)
O3 O -0.0814(3) 0.3272(3) 0.2120(4)
O4 O -0.1235(3) 0.5267(2) 0.1464(3)
O5 O 0.6033(4) 0.3442(4) 0.5393(3)
O6 O 0.7959(4) -0.2719(3) 0.3617(3)
O7 O 0.9965(3) -0.2677(3) 0.3380(3)
N1 N 0.4462(3) 0.1173(3) 0.1922(3)
H1 H 0.42940 0.06280 0.16940
N2 N 0.0608(3) 0.6151(2) 0.0902(2)
H2 H -0.02560 0.64980 0.08570
N3 N 0.6777(3) -0.0957(3) 0.1387(3)
C1 C 0.1433(4) 0.6789(3) 0.0630(3)
C2 C 0.1083(4) 0.8085(3) 0.0237(3)
H3 H 0.01920 0.86570 0.00930
C3 C 0.2097(4) 0.8479(3) 0.0075(3)
H4 H 0.18880 0.93340 -0.01920
C4 C 0.3444(4) 0.7631(4) 0.0301(3)
H5 H 0.41070 0.79320 0.02080
C5 C 0.3790(4) 0.6350(3) 0.0661(3)
H6 H 0.46860 0.57850 0.07950
C6 C 0.2785(3) 0.5911(3) 0.0824(3)
C7 C 0.2771(3) 0.4681(3) 0.1198(3)
C8 C 0.3778(4) 0.3456(3) 0.1425(3)
H7 H 0.46790 0.33140 0.13350
C9 C 0.3428(4) 0.2446(3) 0.1786(3)
C10 C 0.2076(3) 0.2624(3) 0.1945(3)
C11 C 0.1036(3) 0.3861(3) 0.1663(3)
C12 C 0.1393(3) 0.4868(3) 0.1256(3)
C13 C -0.0398(4) 0.4070(4) 0.1800(3)
C14 C -0.2666(4) 0.5607(4) 0.1587(4)
H8 H -0.28740 0.49970 0.13560
H9 H -0.31540 0.64330 0.11510
H10 H -0.29200 0.56180 0.23360
C15 C 0.1810(3) 0.1513(3) 0.2510(3)
C16 C 0.1823(4) 0.0608(4) 0.1978(3)
H11 H 0.19930 0.06920 0.12350
C17 C 0.1588(5) -0.0414(4) 0.2542(4)
H12 H 0.15830 -0.10020 0.21700
C18 C 0.1360(5) -0.0577(4) 0.3639(4)
H13 H 0.11840 -0.12600 0.40110
C19 C 0.1396(5) 0.0287(5) 0.4183(4)
H14 H 0.12810 0.01660 0.49330
C20 C 0.1600(5) 0.1327(4) 0.3628(3)
H15 H 0.15980 0.19120 0.40060
C21 C 0.5686(3) 0.0760(3) 0.2380(3)
C22 C 0.5786(4) 0.1474(3) 0.3156(3)
C23 C 0.4934(4) 0.1587(4) 0.4072(3)
H16 H 0.43160 0.12300 0.41640
C24 C 0.5004(4) 0.2218(4) 0.4832(3)
H17 H 0.44550 0.22650 0.54470
C25 C 0.5884(5) 0.2781(4) 0.4684(3)
C26 C 0.6723(4) 0.2698(4) 0.3780(3)
H18 H 0.73200 0.30770 0.36850
C27 C 0.6668(4) 0.2058(3) 0.3027(3)
H19 H 0.72290 0.20110 0.24200
C28 C 0.5205(8) 0.3563(7) 0.6351(5)
H20 H 0.42760 0.40420 0.61460
H21 H 0.54480 0.39930 0.67900
H22 H 0.53350 0.27360 0.67560
C29 C 0.6807(4) -0.0308(3) 0.2163(3)
C30 C 0.8152(4) -0.0797(3) 0.2693(3)
H23 H 0.88080 -0.07160 0.21420
H24 H 0.80820 -0.02790 0.32070
C31 C 0.8642(4) -0.2158(4) 0.3276(3)
C32 C 1.0555(8) -0.3997(6) 0.3963(8)
H25 H 1.02270 -0.40380 0.47070
H26 H 1.02540 -0.44890 0.36300
C33 C 1.1922(8) -0.4528(8) 0.3970(9)
H27 H 1.22540 -0.43370 0.32500
H28 H 1.22500 -0.54310 0.42090
H29 H 1.22290 -0.41920 0.44550
#END
