
#######################################################################
#
#                 Cambridge Crystallographic Data Centre
#                                CCDC
#
#######################################################################
#
# If this CIF has been generated from an entry in the Cambridge
# Structural Database, then it will include bibliographic, chemical,
# crystal, experimental, refinement or atomic coordinate data resulting
# from the CCDC's data processing and validation procedures.
#
#######################################################################

data_CSD_CIF_FEJJUA
_audit_creation_date 2005-05-03
_audit_creation_method CSD-ConQuest-V1
_database_code_CSD FEJJUA
_database_code_depnum_ccdc_archive 'CCDC 251423'
_chemical_formula_sum 'C16 H27 N1 O1'
_chemical_formula_moiety
;
C16 H27 N1 O1
;
_journal_coden_Cambridge 1090
_journal_volume 15
_journal_year 2004
_journal_page_first 3967
_journal_name_full 'Tetrahedron:Asymm. '
loop_
_publ_author_name
"G.Frater"
"U.Muller"
"F.Schroder"
_chemical_name_systematic
;
(+-)-E-(1R*,2S*)-1-(1,2,8,8-Tetramethyl-1,2,3,4,5,6,7,8-octahydro-naphthalen-2
-yl)-ethanone oxime
;
_chemical_melting_point 418
_cell_volume   1509.503
_exptl_crystal_density_diffrn 1.097
_diffrn_ambient_temperature 293
#These two values have been output from a single CSD field.
_refine_ls_R_factor_gt 0.1111
_refine_ls_wR_factor_gt 0.1111
_symmetry_cell_setting monoclinic
_symmetry_space_group_name_H-M 'P 21/n'
_symmetry_Int_Tables_number 14
loop_
_symmetry_equiv_pos_site_id
_symmetry_equiv_pos_as_xyz
1 x,y,z
2 1/2-x,1/2+y,1/2-z
3 -x,-y,-z
4 -1/2+x,-1/2-y,-1/2+z
_cell_length_a 9.3980(19)
_cell_length_b 14.160(3)
_cell_length_c 11.386(2)
_cell_angle_alpha 90
_cell_angle_beta 94.97(3)
_cell_angle_gamma 90
_cell_formula_units_Z 4
loop_
_atom_type_symbol
_atom_type_radius_bond
C 0.68
H 0.23
N 0.68
O 0.68
loop_
_atom_site_label
_atom_site_type_symbol
_atom_site_fract_x
_atom_site_fract_y
_atom_site_fract_z
O1 O 0.4603(3) 0.4530(2) 0.3708(2)
H1 H 0.42470 0.44380 0.43310
N1 N 0.5759(3) 0.5165(2) 0.3899(3)
C1 C 0.6364(3) 0.5344(2) 0.2959(3)
C2 C 0.5875(4) 0.4914(3) 0.1793(3)
H2 H 0.61140 0.42540 0.18020
H3 H 0.63380 0.52250 0.11810
H4 H 0.48590 0.49860 0.16480
C3 C 0.7590(3) 0.6050(2) 0.3058(3)
C4 C 0.7113(4) 0.6932(3) 0.2340(3)
H5 H 0.68440 0.67530 0.15380
H6 H 0.78870 0.73760 0.23610
H7 H 0.63120 0.72160 0.26720
C5 C 0.8001(3) 0.6323(2) 0.4356(3)
H8 H 0.71890 0.66210 0.46760
H9 H 0.82330 0.57560 0.48100
C6 C 0.9271(4) 0.6995(2) 0.4483(3)
H10 H 0.89150 0.76360 0.43930
H11 H 0.97270 0.69360 0.52770
C7 C 1.0390(3) 0.6849(2) 0.3626(2)
C8 C 1.0217(3) 0.6255(2) 0.2721(2)
C9 C 0.8925(3) 0.5593(2) 0.2573(3)
H12 H 0.87000 0.54940 0.17260
C10 C 0.9261(4) 0.4623(2) 0.3130(4)
H13 H 1.01720 0.44090 0.29150
H14 H 0.85350 0.41800 0.28520
H15 H 0.92860 0.46730 0.39730
C11 C 1.1682(4) 0.7480(3) 0.3865(3)
H16 H 1.23010 0.72110 0.45060
H17 H 1.13700 0.80940 0.41190
C12 C 1.2536(4) 0.7610(3) 0.2801(4)
H18 H 1.20560 0.80590 0.22590
H19 H 1.34750 0.78580 0.30530
C13 C 1.2682(4) 0.6675(3) 0.2190(3)
H20 H 1.32020 0.62430 0.27320
H21 H 1.32450 0.67660 0.15240
C14 C 1.1265(4) 0.6221(2) 0.1751(3)
C15 C 1.1607(4) 0.5214(3) 0.1368(3)
H22 H 1.20410 0.48700 0.20320
H23 H 1.22530 0.52380 0.07600
H24 H 1.07410 0.49030 0.10720
C16 C 1.0556(4) 0.6757(3) 0.0670(3)
H25 H 0.96640 0.64620 0.04130
H26 H 1.11760 0.67420 0.00430
H27 H 1.03890 0.74010 0.08830
#END
