
#######################################################################
#
#                 Cambridge Crystallographic Data Centre
#                                CCDC
#
#######################################################################
#
# If this CIF has been generated from an entry in the Cambridge
# Structural Database, then it will include bibliographic, chemical,
# crystal, experimental, refinement or atomic coordinate data resulting
# from the CCDC's data processing and validation procedures.
#
#######################################################################

data_CSD_CIF_FEJQAM
_audit_creation_date 1999-07-29
_audit_creation_method CSD-ConQuest-V1
_database_code_CSD FEJQAM
_database_code_depnum_ccdc_archive 'CCDC 101192'
_chemical_formula_sum 'C19 H24 N2 O7'
_chemical_formula_moiety
;
C19 H24 N2 O7
;
_journal_coden_Cambridge 1291
_journal_year 1998
_journal_page_first 2677
_journal_name_full 'Eur.J.Org.Chem. '
loop_
_publ_author_name
"E.Paruch"
"Z.Ciunik"
"C.Wawrzenczyk"
_chemical_name_systematic
;
3-(1-Hydroxy-4-(1-methylethenyl)cyclohexyl)propyl 3,5-dinitrobenzoate
;
_chemical_melting_point 355.15
_cell_volume    978.007
_exptl_crystal_density_diffrn 1.333
_exptl_special_details
;
Melting point range 355.15-357.15K

;
_diffrn_ambient_temperature ?
_diffrn_special_details
;
The study was carried out at room temperature,in the range 283-303K

;
#These two values have been output from a single CSD field.
_refine_ls_R_factor_gt 0.0509
_refine_ls_wR_factor_gt 0.0509
_symmetry_cell_setting triclinic
_symmetry_space_group_name_H-M 'P -1'
_symmetry_Int_Tables_number 2
loop_
_symmetry_equiv_pos_site_id
_symmetry_equiv_pos_as_xyz
1 x,y,z
2 -x,-y,-z
_cell_length_a 7.048(2)
_cell_length_b 9.656(2)
_cell_length_c 14.923(3)
_cell_angle_alpha 76.95(2)
_cell_angle_beta 81.34(2)
_cell_angle_gamma 88.74(2)
_cell_formula_units_Z 2
loop_
_atom_type_symbol
_atom_type_radius_bond
C 0.68
H 0.23
N 0.68
O 0.68
loop_
_atom_site_label
_atom_site_type_symbol
_atom_site_fract_x
_atom_site_fract_y
_atom_site_fract_z
O1 O 0.8300(2) 0.14288(15) 0.61111(9)
O2 O 0.29399(19) 0.19141(16) 0.39304(9)
O3 O -0.0237(2) 0.15206(17) 0.41660(9)
O4 O 0.6114(3) 0.3462(3) 0.07514(14)
O5 O 0.4861(3) 0.3018(3) -0.03768(12)
O6 O -0.1501(3) 0.0950(2) 0.02088(12)
O7 O -0.2811(3) 0.0142(3) 0.16099(15)
N1 N 0.4841(3) 0.2988(2) 0.04402(13)
N2 N -0.1519(3) 0.0744(2) 0.10392(13)
C1 C 0.6798(3) 0.23277(19) 0.63995(11)
C2 C 0.7332(3) 0.3893(2) 0.59831(13)
C3 C 0.9088(3) 0.4373(2) 0.63243(13)
C4 C 0.8832(3) 0.4101(2) 0.73835(13)
C5 C 0.8408(3) 0.2508(2) 0.77847(12)
C6 C 0.6638(3) 0.2029(2) 0.74576(12)
C7 C 0.4905(3) 0.1919(2) 0.61283(12)
C8 C 0.4854(3) 0.2126(3) 0.50912(13)
C9 C 0.2886(3) 0.1803(3) 0.49192(13)
C10 C 0.1276(3) 0.17091(19) 0.36620(12)
C11 C 0.1483(3) 0.17581(19) 0.26449(12)
C12 C 0.3109(3) 0.2305(2) 0.20362(13)
C13 C 0.3167(3) 0.2335(2) 0.11006(13)
C14 C 0.1692(3) 0.1820(2) 0.07547(13)
C15 C 0.0106(3) 0.1282(2) 0.13832(13)
C16 C -0.0047(3) 0.1252(2) 0.23203(13)
C17 C 1.0484(3) 0.4610(2) 0.77711(15)
C18 C 1.0141(5) 0.4553(4) 0.87905(19)
C19 C 1.2116(4) 0.5142(4) 0.7247(2)
H1 H 0.855(4) 0.165(3) 0.553(2)
H2 H 0.750(4) 0.411(3) 0.5256(17)
H3 H 0.620(4) 0.446(3) 0.6152(17)
H4 H 1.026(4) 0.387(3) 0.6106(16)
H5 H 0.937(4) 0.541(3) 0.6049(17)
H6 H 0.769(3) 0.457(2) 0.7588(15)
H7 H 0.950(3) 0.201(2) 0.7596(15)
H8 H 0.821(3) 0.228(2) 0.8469(16)
H9 H 0.553(3) 0.252(2) 0.7686(15)
H10 H 0.640(4) 0.101(3) 0.7711(17)
H11 H 0.464(4) 0.093(3) 0.6435(17)
H12 H 0.388(4) 0.247(3) 0.6423(17)
H13 H 0.522(4) 0.302(3) 0.4752(19)
H14 H 0.577(4) 0.146(3) 0.4848(18)
H15 H 0.248(4) 0.092(3) 0.525(2)
H16 H 0.198(4) 0.255(3) 0.5111(17)
H17 H 0.413(4) 0.268(3) 0.2256(17)
H18 H 0.181(4) 0.187(3) 0.0149(17)
H19 H -0.116(4) 0.085(3) 0.2718(18)
H20 H 1.016(7) 0.363(6) 0.905(3)
H21 H 0.871(8) 0.485(5) 0.906(3)
H22 H 1.113(6) 0.502(4) 0.900(3)
H23 H 1.235(5) 0.530(3) 0.655(2)
H24 H 1.304(5) 0.545(4) 0.755(2)
#END
