
#######################################################################
#
#                 Cambridge Crystallographic Data Centre
#                                CCDC
#
#######################################################################
#
# If this CIF has been generated from an entry in the Cambridge
# Structural Database, then it will include bibliographic, chemical,
# crystal, experimental, refinement or atomic coordinate data resulting
# from the CCDC's data processing and validation procedures.
#
#######################################################################

data_CSD_CIF_FEKDOQ
_audit_creation_date 2013-04-04
_audit_creation_method CSD-ConQuest-V1
_database_code_CSD FEKDOQ
_database_code_depnum_ccdc_archive 'CCDC 882409'
_chemical_formula_sum 'C12 H14 N2 O3'
_chemical_formula_moiety
;
C12 H14 N2 O3
;
_journal_coden_Cambridge 1366
_journal_volume 354
_journal_year 2012
_journal_page_first 2954
_journal_name_full 'Adv.Synth.Catal. '
loop_
_publ_author_name
"N.R.Amarasinghe"
"P.Turner"
"M.H.Todd"
_chemical_name_systematic
;
1-(1-(Nitromethyl)-3,4-dihydroisoquinolin-2(1H)-yl)ethanone
;
_cell_volume   1145.718
_exptl_crystal_colour 'colorless'
_exptl_crystal_density_diffrn 1.346
_exptl_special_details
;
Absolute configuration

;
_exptl_crystal_description 'tablet'
_diffrn_ambient_temperature 150
#These two values have been output from a single CSD field.
_refine_ls_R_factor_gt 0.0235
_refine_ls_wR_factor_gt 0.0235
_symmetry_cell_setting orthorhombic
_symmetry_space_group_name_H-M 'P 21 21 21'
_symmetry_Int_Tables_number 19
loop_
_symmetry_equiv_pos_site_id
_symmetry_equiv_pos_as_xyz
1 x,y,z
2 1/2-x,-y,1/2+z
3 -x,1/2+y,1/2-z
4 1/2+x,1/2-y,-z
_cell_length_a 8.97346(4)
_cell_length_b 9.28995(4)
_cell_length_c 13.74373(5)
_cell_angle_alpha 90
_cell_angle_beta 90
_cell_angle_gamma 90
_cell_formula_units_Z 4
loop_
_atom_type_symbol
_atom_type_radius_bond
C 0.68
H 0.23
N 0.68
O 0.68
loop_
_atom_site_label
_atom_site_type_symbol
_atom_site_fract_x
_atom_site_fract_y
_atom_site_fract_z
O1 O 0.05541(8) 0.37666(8) 0.01711(7)
O2 O 0.24279(9) 0.34596(9) -0.07913(5)
N1 N 0.16273(9) 0.30837(8) -0.01174(6)
O3 O -0.09636(8) 0.13239(8) -0.14514(5)
N2 N 0.11640(9) 0.01874(9) -0.10218(5)
C1 C 0.24873(10) -0.06782(11) -0.12319(7)
H1 H 0.33830 -0.01950 -0.09670
H2 H 0.26130 -0.07720 -0.19450
C2 C 0.23287(13) -0.21581(11) -0.07794(7)
H3 H 0.15740 -0.27160 -0.11450
H4 H 0.32900 -0.26750 -0.08270
C3 C 0.18679(10) -0.20603(10) 0.02766(7)
C4 C 0.21225(13) -0.32171(11) 0.09012(8)
H5 H 0.26100 -0.40530 0.06610
C5 C 0.16776(12) -0.31685(12) 0.18647(8)
H6 H 0.18760 -0.39590 0.22840
C6 C 0.09405(12) -0.19623(12) 0.22185(7)
H7 H 0.06090 -0.19330 0.28750
C7 C 0.06936(10) -0.08006(11) 0.16047(7)
H8 H 0.01950 0.00280 0.18470
C8 C 0.11662(10) -0.0829(1) 0.06356(6)
C9 C 0.09226(10) 0.04979(9) 0.00082(6)
H9 H -0.01300 0.08270 0.00950
C10 C 0.19677(11) 0.16915(10) 0.03796(7)
H10 H 0.18420 0.18060 0.10910
H11 H 0.30160 0.14180 0.02520
C11 C 0.01118(10) 0.05818(9) -0.16857(6)
C12 C 0.03058(12) 0.00632(12) -0.27194(7)
H12 H -0.06200 0.02210 -0.30820
H13 H 0.05450 -0.09660 -0.27170
H14 H 0.11180 0.05980 -0.30300
#END
