
#######################################################################
#
#                 Cambridge Crystallographic Data Centre
#                                CCDC
#
#######################################################################
#
# If this CIF has been generated from an entry in the Cambridge
# Structural Database, then it will include bibliographic, chemical,
# crystal, experimental, refinement or atomic coordinate data resulting
# from the CCDC's data processing and validation procedures.
#
#######################################################################

data_CSD_CIF_FEKFAE
_audit_creation_date 2013-04-04
_audit_creation_method CSD-ConQuest-V1
_database_code_CSD FEKFAE
_database_code_depnum_ccdc_archive 'CCDC 888087'
_chemical_formula_sum 'C13 H16 N2 O3'
_chemical_formula_moiety
;
C13 H16 N2 O3
;
_journal_coden_Cambridge 1366
_journal_volume 354
_journal_year 2012
_journal_page_first 2954
_journal_name_full 'Adv.Synth.Catal. '
loop_
_publ_author_name
"N.R.Amarasinghe"
"P.Turner"
"M.H.Todd"
_chemical_name_systematic
;
1-(1-(1-Nitroethyl)-3,4-dihydroisoquinolin-2(1H)-yl)ethanone
;
_cell_volume   1250.259
_exptl_crystal_colour 'colorless'
_exptl_crystal_density_diffrn 1.319
_diffrn_ambient_temperature 150
#These two values have been output from a single CSD field.
_refine_ls_R_factor_gt 0.0377
_refine_ls_wR_factor_gt 0.0377
_symmetry_cell_setting monoclinic
_symmetry_space_group_name_H-M 'P 21/n'
_symmetry_Int_Tables_number 14
loop_
_symmetry_equiv_pos_site_id
_symmetry_equiv_pos_as_xyz
1 x,y,z
2 1/2-x,1/2+y,1/2-z
3 -x,-y,-z
4 -1/2+x,-1/2-y,-1/2+z
_cell_length_a 8.3584(1)
_cell_length_b 9.2233(1)
_cell_length_c 16.4158(2)
_cell_angle_alpha 90
_cell_angle_beta 98.909(1)
_cell_angle_gamma 90
_cell_formula_units_Z 4
loop_
_atom_type_symbol
_atom_type_radius_bond
C 0.68
H 0.23
N 0.68
O 0.68
loop_
_atom_site_label
_atom_site_type_symbol
_atom_site_fract_x
_atom_site_fract_y
_atom_site_fract_z
O1 O -0.04634(10) 0.21742(9) 0.36736(5)
C1 C -0.05410(11) 0.33783(10) 0.21681(6)
H1 H -0.08720 0.23630 0.22770
N1 N 0.05304(10) 0.38894(9) 0.29030(5)
O2 O -0.24284(11) 0.51687(9) 0.32956(5)
C2 C 0.03542(11) 0.33414(11) 0.14340(6)
N2 N -0.29052(11) 0.42873(10) 0.27533(6)
O3 O -0.39541(12) 0.33874(12) 0.28074(7)
C3 C 0.01529(12) 0.22078(12) 0.08678(6)
H2 H -0.05640 0.14330 0.09350
C4 C 0.10033(14) 0.22107(13) 0.02029(7)
H3 H 0.08540 0.14450 -0.01880
C5 C 0.20686(14) 0.33308(14) 0.01108(7)
H4 H 0.26530 0.33300 -0.03420
C6 C 0.22789(13) 0.44511(13) 0.06797(7)
H5 H 0.30160 0.52120 0.06170
C7 C 0.14208(12) 0.44717(11) 0.13422(6)
C8 C 0.15796(14) 0.56645(12) 0.19697(7)
H6 H 0.06350 0.63200 0.18500
H7 H 0.25660 0.62370 0.19280
C9 C 0.16804(15) 0.50801(13) 0.28429(7)
H8 H 0.27950 0.47290 0.30340
H9 H 0.14580 0.58780 0.32130
C10 C 0.04313(13) 0.32168(12) 0.36305(6)
C11 C 0.14861(18) 0.37979(16) 0.43851(7)
H10 H 0.12340 0.32930 0.48750
H11 H 0.12850 0.48380 0.44370
H12 H 0.26270 0.36410 0.43360
C12 C -0.21068(12) 0.43129(11) 0.19862(6)
H13 H -0.17990 0.53340 0.18760
C13 C -0.32837(13) 0.37670(13) 0.12584(7)
H14 H -0.35480 0.27500 0.13490
H15 H -0.27910 0.38470 0.07560
H16 H -0.42750 0.43500 0.11980
#END
