
#######################################################################
#
#                 Cambridge Crystallographic Data Centre
#                                CCDC
#
#######################################################################
#
# If this CIF has been generated from an entry in the Cambridge
# Structural Database, then it will include bibliographic, chemical,
# crystal, experimental, refinement or atomic coordinate data resulting
# from the CCDC's data processing and validation procedures.
#
#######################################################################

data_CSD_CIF_FEKGEH
_audit_creation_date 1987-10-26
_audit_creation_method CSD-ConQuest-V1
_database_code_CSD FEKGEH
_database_code_depnum_ccdc_archive 'CCDC 1154259'
_chemical_formula_sum 'C27 H45 N1 O1'
_chemical_formula_moiety
;
C27 H45 N1 O1
;
_journal_coden_Cambridge 182
_journal_year 1987
_journal_page_first 283
_journal_name_full 'Chem.Commun. '
loop_
_publ_author_name
"H.Suginome"
"M.Kaji"
"T.Ohtsuka"
"S.Yamada"
"A.Furusaki"
_chemical_name_systematic
;
4\a',5'-Dihydro-A-nor-5\a-cholestano(2,1-c)isoxazole
;
_chemical_melting_point 384.15
_cell_volume   1225.929
_exptl_crystal_density_diffrn 1.083
_exptl_special_details
;
Melting point range 384.15-385.15K

;
_diffrn_ambient_temperature ?
_diffrn_special_details
;
The study was carried out at room temperature,in the range 283-303K

;
#These two values have been output from a single CSD field.
_refine_ls_R_factor_gt 0.065
_refine_ls_wR_factor_gt 0.065
_symmetry_cell_setting triclinic
_symmetry_space_group_name_H-M 'P 1'
_symmetry_Int_Tables_number 1
loop_
_symmetry_equiv_pos_site_id
_symmetry_equiv_pos_as_xyz
1 x,y,z
_cell_length_a 11.673(6)
_cell_length_b 11.982(4)
_cell_length_c 11.102(6)
_cell_angle_alpha 100.86(4)
_cell_angle_beta 118.45(4)
_cell_angle_gamma 63.93(4)
_cell_formula_units_Z 2
loop_
_atom_type_symbol
_atom_type_radius_bond
C 0.68
N 0.68
O 0.68
loop_
_atom_site_label
_atom_site_type_symbol
_atom_site_fract_x
_atom_site_fract_y
_atom_site_fract_z
O1 O 0.8713(7) 0.8190(7) 1.4003(5)
N1 N 0.8619(8) 0.7359(8) 1.4689(6)
C1 C 0.6889(6) 0.7580(5) 1.2383(5)
C2 C 0.7886(8) 0.8136(7) 1.2536(7)
C3 C 0.7612(6) 0.7064(6) 1.3822(6)
C4 C 0.7214(7) 0.6041(7) 1.3884(6)
C5 C 0.6195(6) 0.5988(6) 1.2342(5)
C6 C 0.5948(7) 0.4820(7) 1.1788(6)
C7 C 0.4847(7) 0.5064(6) 1.0289(6)
C8 C 0.5240(5) 0.5549(5) 0.9408(5)
C9 C 0.5576(5) 0.6697(4) 1.0047(5)
C10 C 0.6709(5) 0.6425(5) 1.1544(5)
C11 C 0.5885(6) 0.7240(5) 0.9151(6)
C12 C 0.4773(6) 0.7465(5) 0.7640(5)
C13 C 0.4485(5) 0.6298(4) 0.7018(5)
C14 C 0.4095(5) 0.5885(4) 0.7968(5)
C15 C 0.3480(6) 0.4945(5) 0.7129(6)
C16 C 0.2741(7) 0.5385(6) 0.5607(6)
C17 C 0.3130(5) 0.6490(5) 0.5632(5)
C18 C 0.5792(6) 0.5267(5) 0.6897(5)
C19 C 0.8159(6) 0.5464(6) 1.1649(6)
C20 C 0.3201(5) 0.6565(5) 0.4304(5)
C21 C 0.3533(7) 0.7648(7) 0.4262(6)
C22 C 0.1772(6) 0.6686(6) 0.3031(5)
C23 C 0.1820(7) 0.6529(7) 0.1687(6)
C24 C 0.0463(6) 0.6492(6) 0.0476(6)
C25 C 0.0464(7) 0.6248(6) -0.0903(6)
C26 C -0.0905(9) 0.6088(8) -0.1973(7)
C27 C 0.0589(8) 0.7287(7) -0.1360(7)
O2 O 0.0786(6) 0.3046(5) -0.6239(4)
N2 N 0.0009(6) 0.2271(7) -0.6768(5)
C28 C 0.1481(6) 0.1782(5) -0.4434(5)
C29 C 0.1420(7) 0.2986(7) -0.4781(6)
C30 C 0.0420(6) 0.1558(6) -0.5804(5)
C31 C -0.0191(7) 0.0729(7) -0.5692(6)
C32 C 0.0575(6) 0.0493(5) -0.4137(5)
C33 C -0.0080(7) 0.0145(6) -0.3444(6)
C34 C 0.0942(7) -0.0105(6) -0.1919(6)
C35 C 0.1390(5) 0.0969(5) -0.1208(4)
C36 C 0.1993(5) 0.1341(4) -0.1978(5)
C37 C 0.0884(5) 0.1653(4) -0.3509(5)
C38 C 0.2521(6) 0.2355(5) -0.1222(5)
C39 C 0.3596(6) 0.2012(6) 0.0279(5)
C40 C 0.2984(6) 0.1664(4) 0.1059(5)
C41 C 0.2539(6) 0.0615(5) 0.0263(5)
C42 C 0.2253(7) 0.0127(6) 0.1223(5)
C43 C 0.3388(6) 0.0238(5) 0.2666(5)
C44 C 0.4087(5) 0.0984(4) 0.2486(5)
C45 C 0.1755(6) 0.2804(5) 0.1169(5)
C46 C -0.0475(6) 0.2807(6) -0.3680(6)
C47 C 0.4585(6) 0.1759(5) 0.3762(5)
C48 C 0.5306(8) 0.2489(7) 0.3619(6)
C49 C 0.5602(7) 0.0873(6) 0.5045(6)
C50 C 0.5915(7) 0.1548(6) 0.6398(6)
C51 C 0.6694(9) 0.0667(7) 0.7621(7)
C52 C 0.6891(9) 0.1295(8) 0.8980(7)
C53 C 0.7521(15) 0.0338(11) 1.0091(9)
C54 C 0.7804(11) 0.1995(8) 0.9332(7)
#END
