
#######################################################################
#
#                 Cambridge Crystallographic Data Centre
#                                CCDC
#
#######################################################################
#
# If this CIF has been generated from an entry in the Cambridge
# Structural Database, then it will include bibliographic, chemical,
# crystal, experimental, refinement or atomic coordinate data resulting
# from the CCDC's data processing and validation procedures.
#
#######################################################################

data_CSD_CIF_FEKHUA
_audit_creation_date 2013-04-04
_audit_creation_method CSD-ConQuest-V1
_database_code_CSD FEKHUA
_database_code_depnum_ccdc_archive 'CCDC 863800'
_chemical_formula_sum 'C18 H19 N1 O5'
_chemical_formula_moiety
;
C18 H19 N1 O5
;
_journal_coden_Cambridge 1366
_journal_volume 354
_journal_year 2012
_journal_page_first 2873
_journal_name_full 'Adv.Synth.Catal. '
loop_
_publ_author_name
"Xiang Li"
"Xiaojiao Li"
"Fangzhi Peng"
"Zhihui Shao"
_chemical_name_systematic
;
Ethyl 1-(1-nitro-4-phenylbut-3-yn-2-yl)-2-oxocyclopentanecarboxylate
;
_cell_volume   1680.668
_exptl_crystal_colour 'colorless'
_exptl_crystal_density_diffrn 1.302
_exptl_special_details
;
Absolute configuration

;
_exptl_crystal_description 'prism'
_diffrn_ambient_temperature 100
#These two values have been output from a single CSD field.
_refine_ls_R_factor_gt 0.0316
_refine_ls_wR_factor_gt 0.0316
_symmetry_cell_setting orthorhombic
_symmetry_space_group_name_H-M 'P 21 21 21'
_symmetry_Int_Tables_number 19
loop_
_symmetry_equiv_pos_site_id
_symmetry_equiv_pos_as_xyz
1 x,y,z
2 1/2+x,1/2-y,-z
3 -x,1/2+y,1/2-z
4 1/2-x,-y,1/2+z
_cell_length_a 6.3583(1)
_cell_length_b 7.3489(1)
_cell_length_c 35.9682(5)
_cell_angle_alpha 90
_cell_angle_beta 90
_cell_angle_gamma 90
_cell_formula_units_Z 4
loop_
_atom_type_symbol
_atom_type_radius_bond
C 0.68
H 0.23
N 0.68
O 0.68
loop_
_atom_site_label
_atom_site_type_symbol
_atom_site_fract_x
_atom_site_fract_y
_atom_site_fract_z
O1 O 0.25051(17) 0.83121(14) 0.78038(3)
O2 O -0.06660(18) 0.69963(15) 0.78469(3)
O3 O -0.09448(17) 1.11095(13) 0.83134(3)
O4 O -0.39113(17) 0.44885(14) 0.87470(3)
O5 O -0.15258(19) 0.32131(15) 0.90876(3)
N1 N -0.2083(2) 0.42369(15) 0.88387(3)
C1 C 0.4486(3) 0.8729(2) 0.72463(4)
H1 H 0.45070 1.00460 0.72890
H2 H 0.45430 0.84870 0.69790
H3 H 0.57030 0.81700 0.73680
C2 C 0.2495(3) 0.7939(2) 0.74046(4)
H4 H 0.12520 0.85070 0.72860
H5 H 0.24430 0.66110 0.73590
C3 C 0.0804(2) 0.77554(18) 0.79876(4)
C4 C 0.0944(2) 0.82425(18) 0.83989(4)
C5 C -0.0861(2) 0.72839(18) 0.86124(4)
H6 H -0.22050 0.74780 0.84740
C6 C -0.1089(2) 0.80411(18) 0.89879(4)
C7 C -0.1249(2) 0.86623(18) 0.92946(4)
C8 C -0.1459(2) 0.93723(18) 0.96660(4)
C9 C 0.0089(3) 0.8987(2) 0.99301(4)
H7 H 0.12930 0.82960 0.98630
C10 C -0.0142(3) 0.9618(2) 1.02917(4)
H8 H 0.09090 0.93620 1.04720
C11 C -0.1904(3) 1.0623(2) 1.03903(4)
H9 H -0.20580 1.10440 1.06380
C12 C 0.0618(2) 1.03484(19) 0.84232(4)
C13 C 0.2523(3) 1.1198(2) 0.85994(4)
H10 H 0.22800 1.14250 0.88670
H11 H 0.28760 1.23650 0.84770
C14 C 0.4281(2) 0.9807(2) 0.85435(4)
H12 H 0.53660 0.99240 0.87400
H13 H 0.49550 0.99610 0.82970
C15 C 0.3152(2) 0.7961(2) 0.85699(4)
H14 H 0.30350 0.75710 0.88320
H15 H 0.39380 0.70200 0.84300
C16 C -0.0403(2) 0.52332(19) 0.86285(4)
H16 H -0.03160 0.47440 0.83730
H17 H 0.09720 0.50300 0.87510
C17 C -0.3221(3) 1.0395(2) 0.97665(4)
H18 H -0.42700 1.06680 0.95870
C18 C -0.3439(3) 1.1015(2) 1.01295(4)
H19 H -0.46400 1.17060 1.01990
#END
