
#######################################################################
#
#                 Cambridge Crystallographic Data Centre
#                                CCDC
#
#######################################################################
#
# If this CIF has been generated from an entry in the Cambridge
# Structural Database, then it will include bibliographic, chemical,
# crystal, experimental, refinement or atomic coordinate data resulting
# from the CCDC's data processing and validation procedures.
#
#######################################################################

data_CSD_CIF_FEKVOG
_audit_creation_date 1987-10-26
_audit_creation_method CSD-ConQuest-V1
_database_code_CSD FEKVOG
_chemical_formula_sum 'C12 H8 N10 O12'
_chemical_formula_moiety
;
C12 H8 N10 O12
;
_journal_coden_Cambridge 154
_journal_volume 40
_journal_year 1987
_journal_page_first 175
_journal_name_full 'Aust.J.Chem. '
loop_
_publ_author_name
"A.J.Bell"
"E.Eadie"
"R.W.Read"
"B.W.Skelton"
"A.H.White"
_chemical_name_systematic
;
3,3',5,5'-Tetra-amino-2,2',4,4',6,6'-hexanitrobiphenyl
;
_chemical_melting_point 540.15
_cell_volume   1768.464
_exptl_crystal_colour 'yellow'
_exptl_crystal_density_diffrn 1.82
_exptl_special_details
;
Melting point range 540.15-547.15K
explosive activity
Relatively unstable to heat and sensitive to impact
;
_diffrn_ambient_temperature ?
_diffrn_special_details
;
The study was carried out at room temperature,in the range 283-303K

;
#These two values have been output from a single CSD field.
_refine_ls_R_factor_gt 0.045
_refine_ls_wR_factor_gt 0.045
_symmetry_cell_setting monoclinic
_symmetry_space_group_name_H-M 'P 21/c'
_symmetry_Int_Tables_number 14
loop_
_symmetry_equiv_pos_site_id
_symmetry_equiv_pos_as_xyz
1 x,y,z
2 -x,1/2+y,1/2-z
3 -x,-y,-z
4 x,-1/2-y,-1/2+z
_cell_length_a 12.443(3)
_cell_length_b 8.722(2)
_cell_length_c 17.785(5)
_cell_angle_alpha 90
_cell_angle_beta 113.62(2)
_cell_angle_gamma 90
_cell_formula_units_Z 4
loop_
_atom_type_symbol
_atom_type_radius_bond
C 0.68
H 0.23
N 0.68
O 0.68
loop_
_atom_site_label
_atom_site_type_symbol
_atom_site_fract_x
_atom_site_fract_y
_atom_site_fract_z
C1 C 0.7092(3) 0.1007(5) 0.7005(2)
C2 C 0.6935(3) 0.0729(5) 0.6188(2)
N1 N 0.7590(3) -0.0486(5) 0.6036(2)
O1 O 0.7590(4) -0.0685(5) 0.5350(2)
O2 O 0.8144(3) -0.1377(4) 0.6595(2)
C3 C 0.6088(4) 0.1553(5) 0.5522(2)
N2 N 0.5914(4) 0.1249(6) 0.4751(3)
H1 H 0.539(5) 0.177(6) 0.437(3)
H2 H 0.646(4) 0.056(6) 0.472(3)
C4 C 0.5411(3) 0.2693(5) 0.5720(2)
N3 N 0.4440(3) 0.3408(5) 0.5083(2)
O3 O 0.3836(3) 0.4368(5) 0.5255(2)
O4 O 0.4170(3) 0.3053(4) 0.4360(2)
C5 C 0.5734(3) 0.3205(5) 0.6544(3)
N4 N 0.5315(4) 0.4456(4) 0.6737(3)
H3 H 0.472(4) 0.497(5) 0.633(3)
H4 H 0.564(4) 0.480(5) 0.726(3)
C6 C 0.6536(3) 0.2249(5) 0.7167(2)
N5 N 0.6672(3) 0.2529(4) 0.8011(2)
O5 O 0.6819(3) 0.3850(3) 0.8271(2)
O6 O 0.6611(3) 0.1438(4) 0.8420(2)
C7 C 0.7987(3) 0.0149(5) 0.7728(2)
C8 C 0.9073(3) 0.0798(5) 0.8099(2)
N6 N 0.9298(3) 0.2247(5) 0.7753(3)
O7 O 0.9367(4) 0.3400(5) 0.8145(4)
O8 O 0.9408(5) 0.2215(6) 0.7133(3)
C9 C 1.0020(4) 0.0112(5) 0.8761(2)
N7 N 1.1058(4) 0.0828(6) 0.9048(3)
H5 H 1.157(5) 0.033(6) 0.943(3)
H6 H 1.117(5) 0.164(7) 0.885(3)
C10 C 0.9790(4) -0.1280(5) 0.9056(2)
N8 N 1.0741(4) -0.2080(5) 0.9678(3)
O9 O 1.0578(4) -0.3232(6) 0.9995(3)
O10 O 1.1736(4) -0.1638(6) 0.9869(3)
C11 C 0.8646(4) -0.1980(5) 0.8725(3)
N9 N 0.8436(5) -0.3282(5) 0.9019(3)
H7 H 0.903(5) -0.372(6) 0.945(3)
H8 H 0.770(5) -0.375(3) 0.878(3)
C12 C 0.7751(3) -0.1212(5) 0.8056(2)
N10 N 0.6602(3) -0.1829(4) 0.7679(2)
O11 O 0.6311(3) -0.2972(3) 0.7982(2)
O12 O 0.5875(2) -0.1194(4) 0.7062(2)
#END
