
#######################################################################
#
#                 Cambridge Crystallographic Data Centre
#                                CCDC
#
#######################################################################
#
# If this CIF has been generated from an entry in the Cambridge
# Structural Database, then it will include bibliographic, chemical,
# crystal, experimental, refinement or atomic coordinate data resulting
# from the CCDC's data processing and validation procedures.
#
#######################################################################

data_CSD_CIF_FELBIJ
_audit_creation_date 2013-04-04
_audit_creation_method CSD-ConQuest-V1
_database_code_CSD FELBIJ
_database_code_depnum_ccdc_archive 'CCDC 892227'
_chemical_formula_sum 'C24 H24 N2 O2'
_chemical_formula_moiety
;
C24 H24 N2 O2
;
_journal_coden_Cambridge 1336
_journal_volume 14
_journal_year 2012
_journal_page_first 5652
_journal_name_full 'Org.Lett. '
loop_
_publ_author_name
"Ruomeng Wang"
"G.Bojase"
"A.C.Willis"
"M.N.Paddon-Row"
"M.S.Sherburn"
_chemical_name_systematic
;
4,4'-Buta-1,3-diene-2,3-diylbis(2-phenyl-3,6-dihydro-2H-1,2-oxazine)
;
_cell_volume   7858.839
_exptl_crystal_colour 'colorless'
_exptl_crystal_density_diffrn 1.259
_exptl_crystal_description 'block'
_diffrn_ambient_temperature 200
#These two values have been output from a single CSD field.
_refine_ls_R_factor_gt 0.0592
_refine_ls_wR_factor_gt 0.0592
_symmetry_cell_setting monoclinic
_symmetry_space_group_name_H-M 'C 2/c'
_symmetry_Int_Tables_number 15
loop_
_symmetry_equiv_pos_site_id
_symmetry_equiv_pos_as_xyz
1 x,y,z
2 1/2+x,1/2+y,z
3 -x,y,1/2-z
4 1/2-x,1/2+y,1/2-z
5 -x,-y,-z
6 -1/2-x,-1/2-y,-z
7 x,-y,-1/2+z
8 -1/2+x,-1/2-y,-1/2+z
_cell_length_a 37.1436(6)
_cell_length_b 10.5638(2)
_cell_length_c 24.1187(3)
_cell_angle_alpha 90
_cell_angle_beta 123.8576(8)
_cell_angle_gamma 90
_cell_formula_units_Z 16
loop_
_atom_type_symbol
_atom_type_radius_bond
C 0.68
H 0.23
N 0.68
O 0.68
loop_
_atom_site_label
_atom_site_type_symbol
_atom_site_fract_x
_atom_site_fract_y
_atom_site_fract_z
O1 O 0.17989(6) 0.07470(17) 0.31316(9)
N1 N 0.18820(6) -0.0485(2) 0.34389(10)
C1 C 0.22854(7) -0.0967(2) 0.35610(11)
C2 C 0.22699(7) -0.0954(2) 0.29196(11)
C3 C 0.19662(7) -0.0270(3) 0.24022(12)
C4 C 0.16544(8) 0.0540(3) 0.24521(12)
C5 C 0.18436(7) -0.0390(2) 0.39893(11)
C6 C 0.14889(8) 0.0238(3) 0.39145(13)
C7 C 0.14263(8) 0.0243(3) 0.44257(14)
C8 C 0.17137(9) -0.0359(3) 0.50252(14)
C9 C 0.20710(9) -0.0951(3) 0.51100(13)
C10 C 0.21408(8) -0.0966(3) 0.46020(12)
C11 C 0.26025(7) -0.1705(2) 0.29099(12)
C12 C 0.29264(8) -0.2282(3) 0.34510(13)
O2 O 0.31449(6) 0.08968(17) 0.17390(9)
N2 N 0.31752(6) -0.0384(2) 0.15623(10)
C13 C 0.28271(7) -0.1115(2) 0.15189(11)
C14 C 0.28471(7) -0.0971(2) 0.21595(11)
C15 C 0.31060(8) -0.0087(3) 0.25982(12)
C16 C 0.33298(9) 0.0865(3) 0.24397(13)
C17 C 0.32065(7) -0.0372(3) 0.10052(11)
C18 C 0.33487(8) 0.0703(3) 0.08452(13)
C19 C 0.34130(9) 0.0651(3) 0.03288(14)
C20 C 0.33315(9) -0.0434(3) -0.00368(14)
C21 C 0.31909(11) -0.1489(3) 0.01211(15)
C22 C 0.31244(10) -0.1474(3) 0.06349(14)
C23 C 0.25747(7) -0.1811(2) 0.22631(12)
C24 C 0.23078(9) -0.2654(3) 0.18057(14)
O3 O 0.42764(5) 0.32940(17) 0.31871(8)
N3 N 0.43597(6) 0.2033(2) 0.34718(9)
C25 C 0.47558(7) 0.1578(2) 0.35575(11)
C26 C 0.47074(7) 0.1604(2) 0.28914(11)
C27 C 0.43910(7) 0.2298(3) 0.23970(11)
C28 C 0.41090(8) 0.3131(3) 0.24953(12)
C29 C 0.43409(7) 0.2096(2) 0.40440(11)
C30 C 0.39783(7) 0.2658(3) 0.39784(12)
C31 C 0.39320(8) 0.2646(3) 0.45079(13)
C32 C 0.42412(8) 0.2082(3) 0.51100(13)
C33 C 0.46003(8) 0.1542(3) 0.51741(12)
C34 C 0.46550(7) 0.1548(2) 0.46485(11)
C35 C 0.50246(8) 0.0876(3) 0.28334(12)
C36 C 0.53556(10) 0.0271(3) 0.33525(15)
O4 O 0.43541(6) 0.83523(17) 0.31821(9)
N4 N 0.43193(6) 0.7086(2) 0.33671(10)
C37 C 0.46809(7) 0.6349(3) 0.34582(11)
C38 C 0.47028(7) 0.6471(2) 0.28533(11)
C39 C 0.44631(8) 0.7341(3) 0.23946(12)
C40 C 0.42021(9) 0.8282(3) 0.24943(14)
C41 C 0.42777(7) 0.7143(3) 0.39174(12)
C42 C 0.41526(8) 0.8257(3) 0.40788(14)
C43 C 0.40902(8) 0.8251(3) 0.45944(15)
C44 C 0.41505(9) 0.7167(3) 0.49570(14)
C45 C 0.4268(1) 0.6069(3) 0.47907(14)
C46 C 0.43357(9) 0.6048(3) 0.42770(13)
C47 C 0.49967(8) 0.5596(2) 0.28096(12)
C48 C 0.52466(9) 0.4773(3) 0.32924(13)
H1 H 0.25350 -0.05000 0.39200
H2 H 0.23170 -0.18510 0.37170
H3 H 0.19420 -0.02910 0.19940
H4 H 0.16370 0.13790 0.22690
H5 H 0.13660 0.01570 0.22050
H6 H 0.12970 0.06760 0.35080
H7 H 0.11840 0.06700 0.43560
H8 H 0.16620 -0.03590 0.53660
H9 H 0.22790 -0.13610 0.55260
H10 H 0.23870 -0.13590 0.46750
H11 H 0.31400 -0.27470 0.34400
H12 H 0.29530 -0.22490 0.38610
H13 H 0.28750 -0.20160 0.14740
H14 H 0.25410 -0.08690 0.11200
H15 H 0.31430 -0.00350 0.30120
H16 H 0.36390 0.07130 0.26900
H17 H 0.32790 0.17130 0.25560
H18 H 0.34050 0.14420 0.10890
H19 H 0.35110 0.13580 0.02240
H20 H 0.33690 -0.04580 -0.03910
H21 H 0.31390 -0.22520 -0.01230
H22 H 0.30240 -0.22040 0.07360
H23 H 0.22800 -0.27390 0.13930
H24 H 0.21400 -0.31920 0.18840
H25 H 0.50130 0.20410 0.39050
H26 H 0.47930 0.07060 0.37070
H27 H 0.43440 0.22740 0.19770
H28 H 0.41060 0.39860 0.23310
H29 H 0.38100 0.28040 0.22510
H30 H 0.37650 0.30480 0.35710
H31 H 0.36840 0.30270 0.44530
H32 H 0.42050 0.20640 0.54650
H33 H 0.48160 0.11590 0.55900
H34 H 0.49050 0.11870 0.47110
H35 H 0.55650 -0.01790 0.33240
H36 H 0.53950 0.02600 0.37730
H37 H 0.49570 0.66070 0.38670
H38 H 0.46300 0.54520 0.35040
H39 H 0.44500 0.73840 0.20000
H40 H 0.42340 0.91260 0.23630
H41 H 0.38940 0.80570 0.22200
H42 H 0.41090 0.89800 0.38290
H43 H 0.40020 0.89910 0.46950
H44 H 0.41080 0.71920 0.53100
H45 H 0.43060 0.53140 0.50290
H46 H 0.44220 0.52940 0.41760
H47 H 0.54370 0.42230 0.32680
H48 H 0.52460 0.47090 0.36820
O3B O 0.57236(5) 0.32940(17) 0.18129(8)
N3B N 0.56403(6) 0.2033(2) 0.15282(9)
C25B C 0.52442(7) 0.1578(2) 0.14425(11)
C26B C 0.52926(7) 0.1604(2) 0.21086(11)
C27B C 0.56090(7) 0.2298(3) 0.26030(11)
C28B C 0.58910(8) 0.3131(3) 0.25047(12)
C29B C 0.56591(7) 0.2096(2) 0.09560(11)
C30B C 0.60217(7) 0.2658(3) 0.10216(12)
C31B C 0.60680(8) 0.2646(3) 0.04921(13)
C32B C 0.57588(8) 0.2082(3) -0.01100(13)
C33B C 0.53997(8) 0.1542(3) -0.01741(12)
C34B C 0.53450(7) 0.1548(2) 0.03515(11)
C35B C 0.49754(8) 0.0876(3) 0.21666(12)
C36B C 0.46444(10) 0.0271(3) 0.16475(15)
O4B O 0.56459(6) 0.83523(17) 0.18179(9)
N4B N 0.56807(6) 0.7086(2) 0.16329(10)
C37B C 0.53191(7) 0.6349(3) 0.15418(11)
C38B C 0.52972(7) 0.6471(2) 0.21467(11)
C39B C 0.55369(8) 0.7341(3) 0.26054(12)
C40B C 0.57979(9) 0.8282(3) 0.25057(14)
C41B C 0.57223(7) 0.7143(3) 0.10826(12)
C42B C 0.58474(8) 0.8257(3) 0.09212(14)
C43B C 0.59098(8) 0.8251(3) 0.04056(15)
C44B C 0.58495(9) 0.7167(3) 0.00430(14)
C45B C 0.5732(1) 0.6069(3) 0.02093(14)
C46B C 0.56643(9) 0.6048(3) 0.07230(13)
C47B C 0.50033(8) 0.5596(2) 0.21904(12)
C48B C 0.47534(9) 0.4773(3) 0.17076(13)
H25B H 0.49870 0.20410 0.10950
H26B H 0.52070 0.07060 0.12930
H27B H 0.56560 0.22740 0.30230
H28B H 0.58940 0.39860 0.26690
H29B H 0.61900 0.28040 0.27490
H30B H 0.62350 0.30480 0.14290
H31B H 0.63160 0.30270 0.05470
H32B H 0.57950 0.20640 -0.04650
H33B H 0.51840 0.11590 -0.05900
H34B H 0.50950 0.11870 0.02890
H35B H 0.44350 -0.01790 0.16760
H36B H 0.46050 0.02600 0.12270
H37B H 0.50430 0.66070 0.11330
H38B H 0.53700 0.54520 0.14960
H39B H 0.55500 0.73840 0.30000
H40B H 0.57660 0.91260 0.26370
H41B H 0.61060 0.80570 0.27800
H42B H 0.58910 0.89800 0.11710
H43B H 0.59980 0.89910 0.03050
H44B H 0.58920 0.71920 -0.03100
H45B H 0.56940 0.53140 -0.00290
H46B H 0.55780 0.52940 0.08240
H47B H 0.45630 0.42230 0.17320
H48B H 0.47540 0.47090 0.13180
#END
