
#######################################################################
#
#                 Cambridge Crystallographic Data Centre
#                                CCDC
#
#######################################################################
#
# If this CIF has been generated from an entry in the Cambridge
# Structural Database, then it will include bibliographic, chemical,
# crystal, experimental, refinement or atomic coordinate data resulting
# from the CCDC's data processing and validation procedures.
#
#######################################################################

data_CSD_CIF_FELBEF
_audit_creation_date 2013-04-04
_audit_creation_method CSD-ConQuest-V1
_database_code_CSD FELBEF
_database_code_depnum_ccdc_archive 'CCDC 892226'
_chemical_formula_sum 'C26 H25 N3 O3'
_chemical_formula_moiety
;
C26 H25 N3 O3
;
_journal_coden_Cambridge 1336
_journal_volume 14
_journal_year 2012
_journal_page_first 5652
_journal_name_full 'Org.Lett. '
loop_
_publ_author_name
"Ruomeng Wang"
"G.Bojase"
"A.C.Willis"
"M.N.Paddon-Row"
"M.S.Sherburn"
_chemical_name_systematic
;
2,6,9-Triphenyl-1,2,4,4a,6a,7,9,10-octahydro-6H-bis[1,2]oxazino[5,4-c:4',5'-e]
[1,2]oxazine
;
_cell_volume   2168.201
_exptl_crystal_colour 'colorless'
_exptl_crystal_density_diffrn 1.31
_exptl_crystal_description 'needle'
_diffrn_ambient_temperature 200
#These two values have been output from a single CSD field.
_refine_ls_R_factor_gt 0.0321
_refine_ls_wR_factor_gt 0.0321
_symmetry_cell_setting monoclinic
_symmetry_space_group_name_H-M 'P 21'
_symmetry_Int_Tables_number 4
loop_
_symmetry_equiv_pos_site_id
_symmetry_equiv_pos_as_xyz
1 x,y,z
2 -x,1/2+y,-z
_cell_length_a 15.6734(4)
_cell_length_b 6.1300(1)
_cell_length_c 22.7367(5)
_cell_angle_alpha 90
_cell_angle_beta 97.0025(10)
_cell_angle_gamma 90
_cell_formula_units_Z 4
loop_
_atom_type_symbol
_atom_type_radius_bond
C 0.68
H 0.23
N 0.68
O 0.68
loop_
_atom_site_label
_atom_site_type_symbol
_atom_site_fract_x
_atom_site_fract_y
_atom_site_fract_z
O1 O 0.05067(9) 0.3944(3) 0.53340(7)
C1 C 0.09964(14) 0.2706(4) 0.49472(10)
C2 C 0.15277(13) 0.4239(4) 0.46103(10)
N1 N 0.20674(11) 0.3140(3) 0.42140(9)
O2 O 0.27810(9) 0.2173(3) 0.45837(7)
C3 C 0.33665(14) 0.3917(4) 0.47609(11)
C4 C 0.40516(14) 0.2890(4) 0.52035(11)
O3 O 0.46228(9) 0.4542(3) 0.54546(7)
N2 N 0.41572(11) 0.5863(3) 0.58407(8)
C5 C 0.35328(14) 0.7155(4) 0.54438(11)
C6 C 0.29235(14) 0.5660(4) 0.50741(10)
C7 C 0.20699(14) 0.5679(4) 0.50428(10)
C8 C 0.15215(15) 0.6813(4) 0.54483(12)
N3 N 0.10614(12) 0.5180(3) 0.57660(9)
C9 C 0.16534(15) 0.1508(4) 0.38332(11)
C10 C 0.08746(15) 0.2035(5) 0.34994(11)
C11 C 0.04703(17) 0.0535(6) 0.31105(12)
C12 C 0.08305(17) -0.1486(5) 0.30406(12)
C13 C 0.15999(17) -0.1997(5) 0.33620(11)
C14 C 0.20184(16) -0.0521(4) 0.37590(11)
C15 C 0.47772(15) 0.7059(4) 0.62217(11)
C16 C 0.55982(15) 0.6262(5) 0.63745(11)
C17 C 0.61818(17) 0.7375(6) 0.67669(12)
C18 C 0.5958(2) 0.9280(6) 0.70145(13)
C19 C 0.5147(2) 1.0072(6) 0.68722(14)
C20 C 0.45487(19) 0.8982(5) 0.64795(13)
C21 C 0.15303(16) 0.3792(4) 0.61859(11)
C22 C 0.23324(16) 0.4351(5) 0.64692(11)
C23 C 0.27601(19) 0.2984(6) 0.68900(13)
C24 C 0.2402(2) 0.1047(6) 0.70352(13)
C25 C 0.1600(2) 0.0484(5) 0.67663(13)
C26 C 0.11625(18) 0.1825(5) 0.63456(12)
O4 O 0.03895(9) 0.7864(3) 0.98508(7)
C27 C 0.10807(13) 0.6638(4) 1.01805(10)
C28 C 0.17751(14) 0.8211(4) 1.04572(10)
N4 N 0.25194(11) 0.7171(3) 1.08003(9)
O5 O 0.30721(9) 0.6354(3) 1.03856(7)
C29 C 0.35114(14) 0.8227(4) 1.01892(10)
C30 C 0.40454(14) 0.7377(4) 0.97269(11)
O6 O 0.44347(9) 0.9178(3) 0.94656(7)
N5 N 0.37648(11) 1.0361(3) 0.90942(8)
C31 C 0.32441(15) 1.1465(4) 0.95065(11)
C32 C 0.28732(14) 0.9828(4) 0.98971(10)
C33 C 0.20541(14) 0.9680(4) 0.99839(10)
C34 C 0.12959(14) 1.0727(4) 0.96212(11)
N6 N 0.06845(11) 0.9053(3) 0.93670(9)
C35 C 0.23378(15) 0.5457(4) 1.11924(10)
C36 C 0.17397(16) 0.5831(5) 1.15823(11)
C37 C 0.15633(18) 0.4233(5) 1.19761(12)
C38 C 0.19773(16) 0.2262(5) 1.19984(11)
C39 C 0.25869(16) 0.1900(5) 1.16201(11)
C40 C 0.27659(15) 0.3483(4) 1.12177(11)
C41 C 0.42028(14) 1.1825(4) 0.87361(10)
C42 C 0.50216(15) 1.1345(5) 0.86029(10)
C43 C 0.54281(16) 1.2794(5) 0.82571(11)
C44 C 0.50364(17) 1.4674(5) 0.80398(12)
C45 C 0.42093(17) 1.5118(5) 0.81592(11)
C46 C 0.37973(16) 1.3690(5) 0.85018(11)
C47 C 0.09150(15) 0.7602(4) 0.89246(11)
C48 C 0.15477(15) 0.8094(5) 0.85687(11)
C49 C 0.17212(17) 0.6649(5) 0.81300(12)
C50 C 0.12790(18) 0.4707(5) 0.80415(12)
C51 C 0.06399(17) 0.4236(5) 0.83863(12)
C52 C 0.04561(15) 0.5655(5) 0.88244(11)
H1 H 0.13860 0.16940 0.51830
H2 H 0.05710 0.18600 0.46750
H3 H 0.11240 0.52070 0.43500
H4 H 0.36130 0.45030 0.43970
H5 H 0.38000 0.21330 0.55200
H6 H 0.44220 0.18390 0.50080
H7 H 0.32160 0.81110 0.56940
H8 H 0.38350 0.80660 0.51770
H9 H 0.18540 0.77140 0.57460
H10 H 0.10860 0.77340 0.52170
H11 H 0.06360 0.34430 0.35340
H12 H -0.00580 0.09190 0.28820
H13 H 0.05670 -0.25110 0.27750
H14 H 0.18550 -0.33960 0.33160
H15 H 0.25330 -0.08580 0.39870
H16 H 0.57530 0.49140 0.62090
H17 H 0.67380 0.67700 0.68660
H18 H 0.63610 1.00260 0.72820
H19 H 0.49830 1.13880 0.70440
H20 H 0.39840 0.95360 0.63890
H21 H 0.25740 0.56680 0.63740
H22 H 0.33140 0.33490 0.70710
H23 H 0.27050 0.01190 0.73160
H24 H 0.13380 -0.08400 0.68650
H25 H 0.06190 0.14300 0.61560
H26 H 0.08090 0.58290 1.04940
H27 H 0.13330 0.55480 0.99150
H28 H 0.15190 0.91470 1.07320
H29 H 0.38960 0.88730 1.05320
H30 H 0.45180 0.64360 0.99180
H31 H 0.36910 0.65660 0.94120
H32 H 0.36240 1.25050 0.97580
H33 H 0.27840 1.22850 0.92610
H34 H 0.09740 1.16640 0.98800
H35 H 0.14530 1.15670 0.92900
H36 H 0.14560 0.71910 1.15760
H37 H 0.11440 0.45010 1.22430
H38 H 0.18480 0.11860 1.22740
H39 H 0.28680 0.05480 1.16250
H40 H 0.31690 0.32180 1.09500
H41 H 0.00220 0.53340 0.90710
H42 H 0.52950 1.00450 0.87530
H43 H 0.59980 1.24670 0.81780
H44 H 0.53170 1.56630 0.78030
H45 H 0.39180 1.63870 0.80140
H46 H 0.32190 1.40060 0.85810
H47 H 0.18520 0.94120 0.86230
H48 H 0.21530 0.70110 0.78880
H49 H 0.14160 0.37530 0.77450
H50 H 0.03390 0.29140 0.83250
#END
