
#######################################################################
#
#                 Cambridge Crystallographic Data Centre
#                                CCDC
#
#######################################################################
#
# If this CIF has been generated from an entry in the Cambridge
# Structural Database, then it will include bibliographic, chemical,
# crystal, experimental, refinement or atomic coordinate data resulting
# from the CCDC's data processing and validation procedures.
#
#######################################################################

data_CSD_CIF_FELCEG
_audit_creation_date 2013-04-04
_audit_creation_method CSD-ConQuest-V1
_database_code_CSD FELCEG
_database_code_depnum_ccdc_archive 'CCDC 892231'
_chemical_formula_sum 'C22 H24 N2 O8'
_chemical_formula_moiety
;
C22 H24 N2 O8
;
_journal_coden_Cambridge 1336
_journal_volume 14
_journal_year 2012
_journal_page_first 5652
_journal_name_full 'Org.Lett. '
loop_
_publ_author_name
"Ruomeng Wang"
"G.Bojase"
"A.C.Willis"
"M.N.Paddon-Row"
"M.S.Sherburn"
_chemical_name_systematic
;
Dibenzyl 
4,4a-dihydroxyhexahydro[1,2]oxazino[5,6-d][1,2]oxazine-2,6-dicarboxylate
;
_cell_volume   1034.851
_exptl_crystal_colour 'colorless'
_exptl_crystal_density_diffrn 1.426
_exptl_crystal_description 'plate'
_diffrn_ambient_temperature 200
#These two values have been output from a single CSD field.
_refine_ls_R_factor_gt 0.0545
_refine_ls_wR_factor_gt 0.0545
_symmetry_cell_setting triclinic
_symmetry_space_group_name_H-M 'P -1'
_symmetry_Int_Tables_number 2
loop_
_symmetry_equiv_pos_site_id
_symmetry_equiv_pos_as_xyz
1 x,y,z
2 -x,-y,-z
_cell_length_a 6.1903(2)
_cell_length_b 11.0001(5)
_cell_length_c 16.5975(7)
_cell_angle_alpha 71.3193(19)
_cell_angle_beta 81.706(3)
_cell_angle_gamma 75.698(3)
_cell_formula_units_Z 2
loop_
_atom_type_symbol
_atom_type_radius_bond
C 0.68
H 0.23
N 0.68
O 0.68
loop_
_atom_site_label
_atom_site_type_symbol
_atom_site_fract_x
_atom_site_fract_y
_atom_site_fract_z
O1 O 1.0335(2) 0.76824(15) 0.43990(9)
N1 N 0.9372(3) 0.84225(18) 0.36232(11)
C1 C 0.7402(4) 0.7994(2) 0.35204(14)
C2 C 0.5650(3) 0.8156(2) 0.42452(14)
C3 C 0.6620(3) 0.7489(2) 0.51124(13)
C4 C 0.6986(4) 0.6003(2) 0.53321(14)
N2 N 0.8192(3) 0.53458(18) 0.60972(12)
O2 O 1.0297(2) 0.56713(15) 0.60214(10)
C5 C 1.0025(4) 0.7055(2) 0.59117(14)
C6 C 0.8824(3) 0.7891(2) 0.51219(13)
C7 C 0.9567(4) 0.9706(2) 0.33446(14)
O3 O 1.0668(3) 1.01815(16) 0.36645(11)
O4 O 0.8496(3) 1.03520(16) 0.26361(10)
C8 C 0.8636(5) 1.1727(2) 0.22805(16)
C9 C 0.7187(4) 1.2322(2) 0.15478(15)
C10 C 0.8072(5) 1.2469(3) 0.07140(16)
C11 C 0.6693(5) 1.3036(3) 0.00429(17)
C12 C 0.4428(5) 1.3466(3) 0.02032(17)
C13 C 0.3532(5) 1.3338(2) 0.10297(17)
C14 C 0.4905(4) 1.2757(2) 0.17000(16)
O5 O 0.4883(3) 0.95278(15) 0.41620(11)
O6 O 0.5112(2) 0.78540(16) 0.57746(10)
C15 C 0.7220(4) 0.5063(2) 0.69147(15)
O7 O 0.8103(3) 0.49547(17) 0.75416(10)
O8 O 0.5176(3) 0.48412(17) 0.69011(10)
C16 C 0.3893(4) 0.4505(2) 0.77135(15)
C17 C 0.4173(4) 0.3044(2) 0.81003(14)
C18 C 0.2327(4) 0.2548(3) 0.85342(16)
C19 C 0.2531(5) 0.1214(3) 0.89347(17)
C20 C 0.4569(5) 0.0364(3) 0.89034(18)
C21 C 0.6401(5) 0.0843(3) 0.84673(19)
C22 C 0.6209(4) 0.2181(3) 0.80681(17)
H1 H 0.67900 0.85310 0.29730
H2 H 0.78360 0.70730 0.35300
H3 H 0.43650 0.77920 0.42180
H4 H 0.55570 0.57300 0.54370
H5 H 0.78810 0.57080 0.48640
H6 H 1.15290 0.72480 0.58640
H7 H 0.91290 0.72620 0.64110
H8 H 0.85210 0.88130 0.50960
H9 H 0.81080 1.21750 0.27190
H10 H 1.01920 1.17840 0.20960
H11 H 0.96380 1.21940 0.06030
H12 H 0.72940 1.31340 -0.05280
H13 H 0.34830 1.38590 -0.02500
H14 H 0.20040 1.36570 0.11350
H15 H 0.43050 1.26560 0.22680
H16 H 0.350(5) 0.978(3) 0.3994(17)
H17 H 0.479(4) 0.874(3) 0.5640(17)
H18 H 0.43940 0.48730 0.81050
H19 H 0.22940 0.48970 0.76010
H20 H 0.09050 0.31230 0.85450
H21 H 0.12400 0.08850 0.92260
H22 H 0.46960 -0.05440 0.91850
H23 H 0.78260 0.02540 0.84460
H24 H 0.75050 0.24960 0.77780
#END
