
#######################################################################
#
#                 Cambridge Crystallographic Data Centre
#                                CCDC
#
#######################################################################
#
# If this CIF has been generated from an entry in the Cambridge
# Structural Database, then it will include bibliographic, chemical,
# crystal, experimental, refinement or atomic coordinate data resulting
# from the CCDC's data processing and validation procedures.
#
#######################################################################

data_CSD_CIF_FELPIW
_audit_creation_date 2005-05-03
_audit_creation_method CSD-ConQuest-V1
_database_code_CSD FELPIW
_database_code_depnum_ccdc_archive 'CCDC 259755'
_chemical_formula_sum 'C16 H16 N2 O2'
_chemical_formula_moiety
;
C16 H16 N2 O2
;
_journal_coden_Cambridge 1088
_journal_year 2004
_journal_page_first 2815
_journal_name_full 'Synlett '
loop_
_publ_author_name
"R.C.F.Jones"
"T.A.Pillainayagam"
_chemical_name_systematic
;
6-Isopropyl-3-(2-phenylethenyl)-5,6-dihydro-4H-pyrrolo(3,4-c)isoxazol-4-one
;
_cell_volume    698.274
_exptl_crystal_colour 'yellow'
_exptl_crystal_density_diffrn 1.276
_diffrn_ambient_temperature 150
#These two values have been output from a single CSD field.
_refine_ls_R_factor_gt 0.053
_refine_ls_wR_factor_gt 0.053
_symmetry_cell_setting triclinic
_symmetry_space_group_name_H-M 'P 1'
_symmetry_Int_Tables_number 1
loop_
_symmetry_equiv_pos_site_id
_symmetry_equiv_pos_as_xyz
1 x,y,z
_cell_length_a 5.7754(11)
_cell_length_b 8.3008(15)
_cell_length_c 14.779(3)
_cell_angle_alpha 80.961(3)
_cell_angle_beta 88.002(3)
_cell_angle_gamma 86.641(3)
_cell_formula_units_Z 2
loop_
_atom_type_symbol
_atom_type_radius_bond
C 0.68
H 0.23
N 0.68
O 0.68
loop_
_atom_site_label
_atom_site_type_symbol
_atom_site_fract_x
_atom_site_fract_y
_atom_site_fract_z
O1 O 0.2681(4) 0.8941(3) 0.94202(19)
N1 N 0.3789(6) 0.8768(4) 0.8556(2)
C1 C 0.5718(7) 0.7914(5) 0.8801(3)
C2 C 0.7812(7) 0.7274(4) 0.8315(3)
N2 N 0.9006(6) 0.6327(4) 0.9104(2)
C3 C 0.8060(6) 0.6484(4) 0.9931(3)
O2 O 0.8841(5) 0.5856(3) 1.06882(19)
C4 C 0.5931(7) 0.7516(5) 0.9749(3)
C5 C 0.3985(7) 0.8170(5) 1.0125(3)
C6 C 0.3072(7) 0.8192(4) 1.1041(3)
C7 C 0.4314(6) 0.7602(4) 1.1772(3)
C8 C 0.3594(6) 0.7489(4) 1.2728(2)
C9 C 0.5103(7) 0.6726(5) 1.3397(3)
C10 C 0.4491(9) 0.6565(6) 1.4314(3)
C11 C 0.2340(9) 0.7172(6) 1.4580(3)
C12 C 0.0812(8) 0.7919(6) 1.3921(3)
C13 C 0.1425(7) 0.8086(4) 1.3007(3)
C14 C 0.7377(6) 0.6293(4) 0.7560(2)
C15 C 0.5992(7) 0.7341(5) 0.6794(3)
C16 C 0.9678(7) 0.5631(5) 0.7170(3)
O3 O 1.9192(4) 0.1019(3) 1.03730(19)
N3 N 1.8267(6) 0.1381(4) 1.1240(2)
C17 C 1.6395(7) 0.2294(4) 1.1003(3)
C18 C 1.4591(7) 0.3227(5) 1.1507(3)
N4 N 1.3144(6) 0.3914(4) 1.0717(2)
C19 C 1.3882(6) 0.3602(5) 0.9890(3)
O4 O 1.2956(5) 0.4092(3) 0.91514(18)
C20 C 1.5985(7) 0.2534(4) 1.0066(3)
C21 C 1.7800(7) 0.1732(5) 0.9680(3)
C22 C 1.8498(7) 0.1524(4) 0.8774(3)
C23 C 1.7102(6) 0.1922(4) 0.8067(3)
C24 C 1.7619(6) 0.1763(4) 0.7107(3)
C25 C 1.5953(7) 0.2290(5) 0.6462(3)
C26 C 1.6376(8) 0.2168(5) 0.5547(3)
C27 C 1.8474(8) 0.1504(5) 0.5269(3)
C28 C 2.0160(8) 0.0971(5) 0.5900(3)
C29 C 1.9745(7) 0.1102(4) 0.6818(3)
C30 C 1.3283(6) 0.2231(5) 1.2289(3)
C31 C 1.4959(7) 0.1553(5) 1.3049(3)
H1 H 0.87650 0.82130 0.80550
H2 H 1.017(7) 0.570(5) 0.903(3)
H3 H 0.15420 0.86390 1.11250
H4 H 0.58550 0.72090 1.16540
H5 H 0.65860 0.63080 1.32170
H6 H 0.55420 0.60380 1.47610
H7 H 0.19110 0.70780 1.52120
H8 H -0.06780 0.83210 1.41040
H9 H 0.03660 0.86110 1.25630
H10 H 0.64460 0.53450 0.78260
H11 H 0.45470 0.77780 0.70530
H12 H 0.56300 0.66690 0.63340
H13 H 0.69150 0.82460 0.65060
H14 H 1.06720 0.65400 0.69590
H15 H 0.93670 0.50710 0.66540
H16 H 1.04620 0.48600 0.76480
H17 H 1.53320 0.41350 1.17410
H18 H 1.200(7) 0.450(5) 1.080(3)
H19 H 2.00210 0.10840 0.86680
H20 H 1.55950 0.23610 0.82010
H21 H 1.44980 0.27410 0.66490
H22 H 1.52190 0.25440 0.51110
H23 H 1.87570 0.14130 0.46420
H24 H 2.16070 0.05150 0.57080
H25 H 2.09140 0.07390 0.72520
H26 H 1.26060 0.12970 1.20570
H27 H 1.62230 0.08980 1.28010
H28 H 1.41300 0.08670 1.35410
H29 H 1.56020 0.24590 1.32930
H30 H 1.19540 0.41960 1.28960
H31 H 1.04740 0.26110 1.31620
H32 H 1.02340 0.37000 1.21720
C32 C 1.1308(7) 0.3279(5) 1.2664(3)
#END
