
#######################################################################
#
#                 Cambridge Crystallographic Data Centre
#                                CCDC
#
#######################################################################
#
# If this CIF has been generated from an entry in the Cambridge
# Structural Database, then it will include bibliographic, chemical,
# crystal, experimental, refinement or atomic coordinate data resulting
# from the CCDC's data processing and validation procedures.
#
#######################################################################

data_CSD_CIF_FELTUO
_audit_creation_date 2017-11-09
_audit_creation_method CSD-ConQuest-V1
_database_code_CSD FELTUO
_database_code_depnum_ccdc_archive 'CCDC 1490206'
_chemical_formula_sum 'C14 H6 N4 O12'
_chemical_formula_moiety
;
C14 H6 N4 O12
;
_journal_coden_Cambridge 2020
_journal_volume 1
_journal_year 2016
_journal_page_first 4057
_journal_name_full 'Chem. Sel. '
loop_
_publ_author_name
"T.M.Klapotke"
"B.Stiasny"
"J.Stierstorfer"
_chemical_name_systematic
;
bis(3,5-dinitrophenyl)peroxyanhydride
;
_cell_volume   1602.295
_exptl_crystal_colour 'colorless'
_exptl_crystal_density_diffrn 1.75
_exptl_crystal_description 'plate'
_diffrn_ambient_temperature 123
#These two values have been output from a single CSD field.
_refine_ls_R_factor_gt 0.0402
_refine_ls_wR_factor_gt 0.0402
_symmetry_cell_setting monoclinic
_symmetry_space_group_name_H-M 'C 2/c'
_symmetry_Int_Tables_number 15
loop_
_symmetry_equiv_pos_site_id
_symmetry_equiv_pos_as_xyz
1 x,y,z
2 -x,y,1/2-z
3 1/2+x,1/2+y,z
4 1/2-x,1/2+y,1/2-z
5 -x,-y,-z
6 x,-y,-1/2+z
7 -1/2-x,-1/2-y,-z
8 -1/2+x,-1/2-y,-1/2+z
_cell_length_a 24.7537(19)
_cell_length_b 5.3382(4)
_cell_length_c 12.2617(7)
_cell_angle_alpha 90
_cell_angle_beta 98.541(6)
_cell_angle_gamma 90
_cell_formula_units_Z 4
loop_
_atom_type_symbol
_atom_type_radius_bond
C 0.68
H 0.23
N 0.68
O 0.68
loop_
_atom_site_label
_atom_site_type_symbol
_atom_site_fract_x
_atom_site_fract_y
_atom_site_fract_z
O1 O 0.07481(5) 1.2534(3) 0.03917(10)
O2 O 0.01533(5) 0.9314(2) 0.04561(9)
O3 O 0.23579(6) 1.2648(3) 0.32641(11)
O4 O 0.26187(6) 0.9166(3) 0.40916(11)
O5 O 0.12102(5) 0.3003(3) 0.44315(10)
O6 O 0.04146(6) 0.3411(3) 0.34316(11)
N1 N 0.22855(6) 1.0461(3) 0.35034(12)
N2 N 0.08885(7) 0.4064(3) 0.37212(12)
C1 C 0.06211(7) 1.0625(4) 0.07902(14)
C2 C 0.09466(7) 0.9327(3) 0.17490(14)
C3 C 0.14506(8) 1.0374(4) 0.21498(15)
C4 C 0.17587(7) 0.9303(4) 0.30584(14)
C5 C 0.15925(8) 0.7224(4) 0.35791(14)
C6 C 0.10882(7) 0.6243(3) 0.31658(14)
C7 C 0.07592(8) 0.7232(4) 0.22548(14)
H1 H 0.1793(8) 0.654(4) 0.4198(17)
H2 H 0.1576(7) 1.178(3) 0.1845(14)
H3 H 0.0424(8) 0.658(4) 0.1990(15)
O1D O -0.07481(5) 0.7466(3) -0.03917(10)
O2D O -0.01533(5) 1.0686(2) -0.04561(9)
O3D O -0.23579(6) 0.7352(3) -0.32641(11)
O4D O -0.26187(6) 1.0834(3) -0.40916(11)
O5D O -0.12102(5) 1.6997(3) -0.44315(10)
O6D O -0.04146(6) 1.6589(3) -0.34316(11)
N1D N -0.22855(6) 0.9539(3) -0.35034(12)
N2D N -0.08885(7) 1.5936(3) -0.37212(12)
C1D C -0.06211(7) 0.9375(4) -0.07902(14)
C2D C -0.09466(7) 1.0673(3) -0.17490(14)
C3D C -0.14506(8) 0.9626(4) -0.21498(15)
C4D C -0.17587(7) 1.0697(4) -0.30584(14)
C5D C -0.15925(8) 1.2776(4) -0.35791(14)
C6D C -0.10882(7) 1.3757(3) -0.31658(14)
C7D C -0.07592(8) 1.2768(4) -0.22548(14)
H1D H -0.1793(8) 1.346(4) -0.4198(17)
H2D H -0.1576(7) 0.822(3) -0.1845(14)
H3D H -0.0424(8) 1.342(4) -0.1990(15)
#END
