
#######################################################################
#
#                 Cambridge Crystallographic Data Centre
#                                CCDC
#
#######################################################################
#
# If this CIF has been generated from an entry in the Cambridge
# Structural Database, then it will include bibliographic, chemical,
# crystal, experimental, refinement or atomic coordinate data resulting
# from the CCDC's data processing and validation procedures.
#
#######################################################################

data_CSD_CIF_FELYUQ
_audit_creation_date 1987-11-26
_audit_creation_method CSD-ConQuest-V1
_database_code_CSD FELYUQ
_chemical_formula_sum 'C10 H11 N1 O3'
_chemical_formula_moiety
;
C10 H11 N1 O3
;
_journal_coeditor_code "IUCr A26903"
_journal_coden_Cambridge 591
_journal_volume 43
_journal_year 1987
_journal_page_first 493
_journal_name_full 'Acta Crystallogr.,Sect.C:Cryst.Struct.Commun. '
loop_
_publ_author_name
"D.R.Powell"
"D.van der Helm"
_chemical_name_systematic
;
N-(4-Acetylphenyl)acetohydroxamic acid
;
_cell_volume   1876.948
_exptl_crystal_colour 'colorless'
_exptl_crystal_density_diffrn 1.367
_exptl_special_details
;
therapeutic agent for treatment of iron overload

;
_diffrn_ambient_temperature 138
#These two values have been output from a single CSD field.
_refine_ls_R_factor_gt 0.057
_refine_ls_wR_factor_gt 0.057
_symmetry_cell_setting monoclinic
_symmetry_space_group_name_H-M 'P 21/n'
_symmetry_Int_Tables_number 14
loop_
_symmetry_equiv_pos_site_id
_symmetry_equiv_pos_as_xyz
1 x,y,z
2 1/2-x,1/2+y,1/2-z
3 -x,-y,-z
4 -1/2+x,-1/2-y,-1/2+z
_cell_length_a 23.539(5)
_cell_length_b 8.473(2)
_cell_length_c 9.54
_cell_angle_alpha 90
_cell_angle_beta 99.44(2)
_cell_angle_gamma 90
_cell_formula_units_Z 8
loop_
_atom_type_symbol
_atom_type_radius_bond
C 0.68
H 0.23
N 0.68
O 0.68
loop_
_atom_site_label
_atom_site_type_symbol
_atom_site_fract_x
_atom_site_fract_y
_atom_site_fract_z
C1 C 0.28846(8) 0.4294(2) 0.4125(2)
C2 C 0.25334(9) 0.3200(2) 0.4677(2)
C3 C 0.19419(9) 0.3317(2) 0.4342(2)
C4 C 0.16804(9) 0.4494(2) 0.3427(2)
C5 C 0.20350(9) 0.5568(3) 0.2879(2)
C6 C 0.26262(9) 0.5485(2) 0.3212(2)
C7 C 0.10417(9) 0.4661(3) 0.3045(2)
O1 O 0.08365(7) 0.5685(2) 0.2221(2)
C8 C 0.06616(10) 0.3566(3) 0.3712(3)
N1 N 0.34965(7) 0.4225(2) 0.4412(2)
O2 O 0.37858(6) 0.5402(2) 0.3774(2)
C9 C 0.38359(9) 0.3282(2) 0.5352(2)
O3 O 0.36231(6) 0.2312(2) 0.6080(2)
C10 C 0.44759(10) 0.3449(3) 0.5430(3)
C11 C 0.28932(8) 0.2588(2) 0.9126(2)
C12 C 0.25513(8) 0.3698(2) 0.9698(2)
C13 C 0.19552(9) 0.3605(2) 0.9358(2)
C14 C 0.16860(8) 0.2436(2) 0.8452(2)
C15 C 0.20345(9) 0.1343(3) 0.7898(2)
C16 C 0.26275(9) 0.1406(2) 0.8226(2)
C17 C 0.10482(9) 0.2299(3) 0.8075(2)
O4 O 0.08330(7) 0.1229(2) 0.7311(2)
C18 C 0.06792(10) 0.3485(3) 0.8685(3)
N2 N 0.35031(7) 0.2638(2) 0.9419(2)
O5 O 0.37854(6) 0.1453(2) 0.8766(2)
C19 C 0.38540(9) 0.3568(2) 1.0353(2)
O6 O 0.36477(6) 0.4557(2) 1.1081(2)
C20 C 0.44919(9) 0.3374(3) 1.0419(3)
H1 H 0.269(1) 0.242(3) 0.523(3)
H2 H 0.172(1) 0.256(3) 0.477(3)
H3 H 0.188(1) 0.644(3) 0.244(3)
H4 H 0.286(1) 0.620(3) 0.283(3)
H5 H 0.073(1) 0.370(4) 0.477(3)
H6 H 0.028(1) 0.388(3) 0.332(3)
H7 H 0.073(1) 0.245(4) 0.348(3)
H8 H 0.375(1) 0.502(4) 0.280(3)
H9 H 0.457(1) 0.337(3) 0.443(3)
H10 H 0.459(1) 0.446(4) 0.586(4)
H11 H 0.446(1) 0.265(4) 0.608(3)
H12 H 0.271(1) 0.452(3) 1.029(2)
H13 H 0.172(1) 0.443(3) 0.971(3)
H14 H 0.185(1) 0.056(3) 0.730(3)
H15 H 0.289(1) 0.064(3) 0.787(2)
H16 H 0.029(1) 0.336(3) 0.829(3)
H17 H 0.075(1) 0.343(4) 0.984(3)
H18 H 0.080(1) 0.463(4) 0.841(3)
H19 H 0.375(1) 0.180(4) 0.776(4)
H20 H 0.468(1) 0.405(3) 1.118(3)
H21 H 0.460(1) 0.226(3) 1.055(3)
H22 H 0.459(1) 0.366(4) 0.948(3)
#END
