
#######################################################################
#
#                 Cambridge Crystallographic Data Centre
#                                CCDC
#
#######################################################################
#
# If this CIF has been generated from an entry in the Cambridge
# Structural Database, then it will include bibliographic, chemical,
# crystal, experimental, refinement or atomic coordinate data resulting
# from the CCDC's data processing and validation procedures.
#
#######################################################################

data_CSD_CIF_FEMBUU
_audit_creation_date 1987-11-26
_audit_creation_method CSD-ConQuest-V1
_database_code_CSD FEMBUU
_chemical_formula_sum 'C8 H12 N2 O2'
_chemical_formula_moiety
;
C8 H12 N2 O2
;
_journal_coeditor_code "IUCr A26849"
_journal_coden_Cambridge 591
_journal_volume 43
_journal_year 1987
_journal_page_first 362
_journal_name_full 'Acta Crystallogr.,Sect.C:Cryst.Struct.Commun. '
loop_
_publ_author_name
"C.George"
"R.Gilardi"
_chemical_name_systematic
;
3-Cyano-4,4,5,5-tetramethyl-4,5-dihydroisoxazole N-oxide
;
_cell_volume    925.915
_exptl_crystal_density_diffrn 1.207
_diffrn_ambient_temperature ?
_diffrn_special_details
;
The study was carried out at room temperature,in the range 283-303K

;
#These two values have been output from a single CSD field.
_refine_ls_R_factor_gt 0.065
_refine_ls_wR_factor_gt 0.065
_symmetry_cell_setting orthorhombic
_symmetry_space_group_name_H-M 'P n a 21'
_symmetry_Int_Tables_number 33
loop_
_symmetry_equiv_pos_site_id
_symmetry_equiv_pos_as_xyz
1 x,y,z
2 1/2-x,1/2+y,1/2+z
3 1/2+x,1/2-y,z
4 -x,-y,1/2+z
_cell_length_a 10.283(8)
_cell_length_b 12.389(4)
_cell_length_c 7.268(3)
_cell_angle_alpha 90
_cell_angle_beta 90
_cell_angle_gamma 90
_cell_formula_units_Z 4
loop_
_atom_type_symbol
_atom_type_radius_bond
C 0.68
H 0.23
N 0.68
O 0.68
loop_
_atom_site_label
_atom_site_type_symbol
_atom_site_fract_x
_atom_site_fract_y
_atom_site_fract_z
O1 O 0.3426(7) 0.2448(5) 0.2886(15)
N1 N 0.251(1) 0.2091(10) 0.1619(17)
C1 C 0.1738(11) 0.2865(10) 0.1112(19)
C2 C 0.2118(11) 0.3939(9) 0.19570
C3 C 0.2913(11) 0.3517(9) 0.3583(23)
O2 O 0.2547(10) 0.1132(7) 0.1144(19)
C4 C 0.0916(12) 0.4587(10) 0.2617(23)
C5 C 0.2878(11) 0.4592(9) 0.0551(18)
C6 C 0.2189(13) 0.3239(10) 0.5271(19)
C7 C 0.4175(11) 0.4133(9) 0.4061(26)
C8 C 0.0764(14) 0.2682(11) -0.0230(25)
N2 N -0.0019(12) 0.2539(11) -0.1331(22)
H1 H 0.12750 0.52010 0.32450
H2 H 0.01690 0.43300 0.32790
H3 H 0.06610 0.47930 0.13950
H4 H 0.30910 0.52530 0.11710
H5 H 0.23440 0.47460 -0.05010
H6 H 0.36640 0.42430 0.01550
H7 H 0.18850 0.38730 0.58980
H8 H 0.28650 0.29050 0.59820
H9 H 0.14810 0.27420 0.51180
H10 H 0.39540 0.47720 0.47390
H11 H 0.45590 0.43320 0.29050
H12 H 0.47830 0.37100 0.47590
#END
