
#######################################################################
#
#                 Cambridge Crystallographic Data Centre
#                                CCDC
#
#######################################################################
#
# If this CIF has been generated from an entry in the Cambridge
# Structural Database, then it will include bibliographic, chemical,
# crystal, experimental, refinement or atomic coordinate data resulting
# from the CCDC's data processing and validation procedures.
#
#######################################################################

data_CSD_CIF_FEMMOA
_audit_creation_date 2005-05-12
_audit_creation_method CSD-ConQuest-V1
_database_code_CSD FEMMOA
_database_code_depnum_ccdc_archive 'CCDC 239176'
_chemical_formula_sum 'C12 H11 N1 O6'
_chemical_formula_moiety
;
C12 H11 N1 O6
;
_journal_coden_Cambridge 1090
_journal_volume 15
_journal_year 2004
_journal_page_first 3869
_journal_name_full 'Tetrahedron:Asymm. '
loop_
_publ_author_name
"K.Kiegiel"
"T.Balakier"
"P.Kwiatkowski"
"J.Jurczak"
_chemical_name_systematic
;
(2S,4S)-2-Nitrobenzoyloxy-4-methyl-4-butanolide
;
_chemical_melting_point 415.15
_cell_volume   1394.880
_exptl_crystal_colour 'white'
_exptl_crystal_density_diffrn 1.263
_exptl_special_details
;
Melting point range 415.15-416.15K

;
_exptl_crystal_preparation 'hexane/ethyl acetate'
_diffrn_ambient_temperature 293
#These two values have been output from a single CSD field.
_refine_ls_R_factor_gt 0.0343
_refine_ls_wR_factor_gt 0.0343
_symmetry_cell_setting orthorhombic
_symmetry_space_group_name_H-M 'P 21 21 21'
_symmetry_Int_Tables_number 19
loop_
_symmetry_equiv_pos_site_id
_symmetry_equiv_pos_as_xyz
1 x,y,z
2 1/2-x,-y,1/2+z
3 1/2+x,1/2-y,-z
4 -x,1/2+y,1/2-z
_cell_length_a 7.7672(5)
_cell_length_b 7.7585(14)
_cell_length_c 23.147(6)
_cell_angle_alpha 90
_cell_angle_beta 90
_cell_angle_gamma 90
_cell_formula_units_Z 4
loop_
_atom_type_symbol
_atom_type_radius_bond
C 0.68
H 0.23
N 0.68
O 0.68
loop_
_atom_site_label
_atom_site_type_symbol
_atom_site_fract_x
_atom_site_fract_y
_atom_site_fract_z
C1 C 0.5236(4) 0.0183(4) 0.26065(12)
O1 O 0.4198(3) 0.0514(3) 0.21285(8)
C2 C 0.2065(4) 0.0394(4) 0.22318(12)
H1 H 0.15990 0.15620 0.22710
C3 C 0.1897(4) -0.0539(4) 0.28070(11)
H2 H 0.16350 -0.17500 0.27520
H3 H 0.10130 -0.00200 0.30460
C4 C 0.3850(4) -0.0274(3) 0.30957(10)
H4 H 0.41980 -0.13160 0.33050
O2 O 0.6990(3) 0.0258(4) 0.26179(11)
C5 C 0.1131(6) -0.0537(5) 0.17318(13)
H5 H 0.12790 0.01070 0.13810
H6 H -0.00740 -0.06270 0.18200
H7 H 0.16070 -0.16700 0.16840
O3 O 0.3910(3) 0.1210(2) 0.34763(7)
C6 C 0.3204(4) 0.0913(3) 0.40104(10)
O4 O 0.2553(4) -0.0456(2) 0.41551(8)
C7 C 0.3297(3) 0.2454(3) 0.43903(10)
C8 C 0.3645(4) 0.4099(3) 0.41776(10)
H8 H 0.38510 0.42580 0.37850
C9 C 0.3685(4) 0.5486(3) 0.45469(11)
H9 H 0.39030 0.65910 0.44100
C10 C 0.3393(4) 0.5194(3) 0.51279(10)
C11 C 0.3079(4) 0.3576(4) 0.53515(11)
H10 H 0.29020 0.34220 0.57450
C12 C 0.3033(4) 0.2191(3) 0.49781(11)
H11 H 0.28270 0.10870 0.51190
N1 N 0.3403(4) 0.6676(3) 0.55250(11)
O5 O 0.4093(5) 0.8032(3) 0.53531(10)
O6 O 0.2734(5) 0.6449(4) 0.6010(1)
#END
