
#######################################################################
#
#                 Cambridge Crystallographic Data Centre
#                                CCDC
#
#######################################################################
#
# If this CIF has been generated from an entry in the Cambridge
# Structural Database, then it will include bibliographic, chemical,
# crystal, experimental, refinement or atomic coordinate data resulting
# from the CCDC's data processing and validation procedures.
#
#######################################################################

data_CSD_CIF_FEMNES
_audit_creation_date 2013-03-18
_audit_creation_method CSD-ConQuest-V1
_database_code_CSD FEMNES
_database_code_depnum_ccdc_archive 'CCDC 828013'
_chemical_formula_sum 'C15 H14 N2 O1'
_chemical_formula_moiety
;
C15 H14 N2 O1
;
_journal_coden_Cambridge 1037
_journal_volume 13
_journal_year 2012
_journal_page_first 49-8
_journal_name_full 'ARKIVOC '
loop_
_publ_author_name
"E.Abele"
"L.Golomba"
"T.Beresneva"
"J.Visnevska"
"E.Jaschenko"
"I.Shestakova"
"A.Gulbe"
"S.Grinberga"
"S.Belyakov"
"R.Abele"
_chemical_name_systematic
;
2-Benzyl-1,5-dihydro-4,1,3-benzoxadiazepine
;
_chemical_melting_point 383.15
_cell_volume   1209.286
_exptl_crystal_colour 'yellow'
_exptl_crystal_density_diffrn 1.309
_exptl_crystal_description 'plate'
_diffrn_ambient_temperature 223
#These two values have been output from a single CSD field.
_refine_ls_R_factor_gt 0.0971
_refine_ls_wR_factor_gt 0.0971
_symmetry_cell_setting monoclinic
_symmetry_space_group_name_H-M 'P 21/n'
_symmetry_Int_Tables_number 14
loop_
_symmetry_equiv_pos_site_id
_symmetry_equiv_pos_as_xyz
1 x,y,z
2 1/2-x,1/2+y,1/2-z
3 -x,-y,-z
4 -1/2+x,-1/2-y,-1/2+z
_cell_length_a 5.9170(5)
_cell_length_b 24.0941(7)
_cell_length_c 8.488(2)
_cell_angle_alpha 90
_cell_angle_beta 92.089(4)
_cell_angle_gamma 90
_cell_formula_units_Z 4
loop_
_atom_type_symbol
_atom_type_radius_bond
C 0.68
H 0.23
N 0.68
O 0.68
loop_
_atom_site_label
_atom_site_type_symbol
_atom_site_fract_x
_atom_site_fract_y
_atom_site_fract_z
O1 O -0.1457(6) 0.19848(15) 0.5379(4)
C1 C 0.0705(8) 0.1650(2) 0.2466(5)
N1 N -0.0332(7) 0.25023(17) 0.5188(5)
C2 C -0.1339(9) 0.3474(2) 0.2276(6)
H1 H -0.20440 0.31170 0.23630
C3 C -0.2750(8) 0.1795(2) 0.4004(6)
H2 H -0.40110 0.15820 0.43490
H3 H -0.32950 0.21100 0.34090
N2 N 0.1385(7) 0.22022(17) 0.2774(5)
H4 H 0.27710 0.22200 0.22810
C4 C 0.0752(8) 0.3558(2) 0.2970(6)
C5 C 0.2064(8) 0.3116(2) 0.3900(6)
H5 H 0.34920 0.30560 0.34260
H6 H 0.23150 0.32400 0.49670
C6 C 0.2064(8) 0.1321(2) 0.1528(5)
H7 H 0.34040 0.14830 0.10420
C7 C -0.1443(10) 0.4408(2) 0.1327(6)
H8 H -0.21990 0.47020 0.07540
C8 C -0.0481(10) 0.0560(2) 0.1752(6)
H9 H -0.08920 0.01830 0.15180
C9 C -0.1853(9) 0.0884(2) 0.2658(6)
H10 H -0.32150 0.07310 0.30590
C10 C -0.1287(8) 0.1438(2) 0.3016(5)
C11 C 0.1731(9) 0.4078(2) 0.2858(6)
H11 H 0.31760 0.41430 0.33750
C12 C 0.0927(8) 0.2558(2) 0.3983(6)
C13 C -0.2464(9) 0.3894(2) 0.1445(6)
H12 H -0.39370 0.38290 0.09710
C14 C 0.1450(9) 0.0781(2) 0.1188(6)
H13 H 0.24580 0.06330 0.02910
C15 C 0.0632(10) 0.4499(3) 0.2006(7)
H14 H 0.13580 0.48530 0.19020
#END
