
#######################################################################
#
#                 Cambridge Crystallographic Data Centre
#                                CCDC
#
#######################################################################
#
# If this CIF has been generated from an entry in the Cambridge
# Structural Database, then it will include bibliographic, chemical,
# crystal, experimental, refinement or atomic coordinate data resulting
# from the CCDC's data processing and validation procedures.
#
#######################################################################

data_CSD_CIF_FEMREV
_audit_creation_date 2005-05-12
_audit_creation_method CSD-ConQuest-V1
_database_code_CSD FEMREV
_database_code_depnum_ccdc_archive 'CCDC 260964'
_chemical_formula_sum 'C32 H26 N2 O12'
_chemical_formula_moiety
;
C32 H26 N2 O12
;
_journal_coden_Cambridge 4
_journal_volume 126
_journal_year 2004
_journal_page_first 16553
_journal_name_full 'J.Am.Chem.Soc. '
loop_
_publ_author_name
"M.Ichikawa"
"M.Takahashi"
"S.Aoyagi"
"C.Kibayashi"
_chemical_name_systematic
;
bis(4-Nitrophenyl) 
3,4-bis(4'-hydroxy-3'-methoxyphenyl)-1,2-cyclobutanedicarboxylate
;
_chemical_melting_point 482.15
_cell_volume   1481.624
_exptl_crystal_colour 'colorless'
_exptl_crystal_density_diffrn 1.413
_exptl_special_details
;
Melting point range 482.15-483.15K
irradiated product

;
_exptl_crystal_description 'prism'
_exptl_crystal_preparation 'ethyl acetate'
_diffrn_ambient_temperature 296
#These two values have been output from a single CSD field.
_refine_ls_R_factor_gt 0.0496
_refine_ls_wR_factor_gt 0.0496
_symmetry_cell_setting monoclinic
_symmetry_space_group_name_H-M 'P 21'
_symmetry_Int_Tables_number 4
loop_
_symmetry_equiv_pos_site_id
_symmetry_equiv_pos_as_xyz
1 x,y,z
2 -x,1/2+y,-z
_cell_length_a 11.931(3)
_cell_length_b 6.6480(7)
_cell_length_c 19.006(4)
_cell_angle_alpha 90
_cell_angle_beta 100.632(9)
_cell_angle_gamma 90
_cell_formula_units_Z 2
loop_
_atom_type_symbol
_atom_type_radius_bond
C 0.68
H 0.23
N 0.68
O 0.68
loop_
_atom_site_label
_atom_site_type_symbol
_atom_site_fract_x
_atom_site_fract_y
_atom_site_fract_z
C1 C 0.3175(4) 0.3440(6) 0.8353(2)
C2 C 0.2025(4) 0.4435(6) 0.7953(2)
C3 C 0.2435(4) 0.4089(7) 0.7224(2)
C4 C 0.3427(4) 0.2767(7) 0.7623(2)
C5 C 0.3205(4) 0.1920(6) 0.8946(3)
C6 C 0.3693(4) 0.2418(7) 0.9641(3)
C7 C 0.3801(4) 0.1006(7) 1.0188(2)
C8 C 0.3395(4) -0.0958(6) 1.0034(2)
C9 C 0.2880(4) -0.1437(7) 0.9360(3)
C10 C 0.2799(5) -0.0037(7) 0.8808(3)
C11 C 0.4373(5) 0.3258(7) 1.1179(3)
C12 C 0.0933(4) 0.3493(6) 0.8077(3)
C13 C 0.0374(5) 0.4401(7) 0.8582(3)
C14 C -0.0575(5) 0.3546(7) 0.8770(3)
C15 C -0.0992(5) 0.1735(7) 0.8457(3)
C16 C -0.0462(5) 0.0843(8) 0.7958(3)
C17 C 0.0492(5) 0.1715(7) 0.7759(3)
C18 C -0.0752(6) 0.6106(9) 0.9631(4)
C19 C 0.2775(5) 0.6016(7) 0.6937(3)
C20 C 0.2477(6) 0.8089(8) 0.5908(3)
C21 C 0.3488(6) 0.8571(9) 0.5705(3)
C22 C 0.3564(7) 1.0378(10) 0.5364(3)
C23 C 0.2645(7) 1.1620(8) 0.5240(3)
C24 C 0.1626(7) 1.1142(9) 0.5433(3)
C25 C 0.1534(6) 0.9337(9) 0.5778(3)
C26 C 0.4652(6) 0.3043(7) 0.7533(3)
C27 C 0.5866(5) 0.4114(9) 0.6791(3)
C28 C 0.6477(6) 0.2713(10) 0.6481(3)
C29 C 0.7562(6) 0.3177(9) 0.6384(3)
C30 C 0.8038(6) 0.4968(9) 0.6617(3)
C31 C 0.7433(7) 0.636(1) 0.6918(4)
C32 C 0.6326(7) 0.5924(11) 0.7005(4)
N1 N 0.2734(8) 1.3524(8) 0.4858(3)
N2 N 0.9190(5) 0.5446(9) 0.6514(3)
O1 O 0.3497(3) -0.2390(4) 1.05648(18)
O2 O 0.4343(3) 0.1279(4) 1.08849(18)
O3 O -0.1908(4) 0.0818(6) 0.8659(3)
O4 O -0.1155(4) 0.4303(6) 0.9267(2)
O5 O 0.3337(4) 0.7307(5) 0.72700(19)
O6 O 0.2334(4) 0.6211(5) 0.62278(18)
O7 O 0.1838(7) 1.4466(8) 0.4641(3)
O8 O 0.3674(7) 1.4073(8) 0.4773(3)
O9 O 0.5441(4) 0.2755(7) 0.7992(2)
O10 O 0.4730(3) 0.3662(6) 0.68700(19)
O11 O 0.9643(5) 0.6971(8) 0.6775(3)
O12 O 0.9656(4) 0.4252(9) 0.6173(2)
H1 H 0.37070 0.45250 0.85340
H2 H 0.20250 0.58770 0.80620
H3 H 0.18860 0.33310 0.68760
H4 H 0.32190 0.13470 0.75480
H5 H 0.39550 0.37230 0.97440
H6 H 0.25750 -0.27170 0.92650
H7 H 0.24720 -0.04090 0.83440
H8 H 0.47710 0.41350 1.09080
H9 H 0.47590 0.32390 1.16690
H10 H 0.36080 0.37370 1.11540
H11 H 0.06520 0.56060 0.87940
H12 H -0.07440 -0.03630 0.77490
H13 H 0.08350 0.11050 0.74120
H14 H 0.00430 0.59660 0.98320
H15 H -0.11710 0.63570 1.00070
H16 H -0.08560 0.72100 0.93000
H17 H 0.41070 0.76980 0.57960
H18 H 0.42390 1.07460 0.52200
H19 H 0.10090 1.20150 0.53340
H20 H 0.08560 0.89710 0.59190
H21 H 0.61590 0.14680 0.63390
H22 H 0.79700 0.22640 0.61580
H23 H 0.77590 0.75970 0.70650
H24 H 0.59070 0.68670 0.72090
H25 H 0.39010 -0.19530 1.09290
H26 H -0.22580 0.16390 0.88570
#END
