
#######################################################################
#
#                 Cambridge Crystallographic Data Centre
#                                CCDC
#
#######################################################################
#
# If this CIF has been generated from an entry in the Cambridge
# Structural Database, then it will include bibliographic, chemical,
# crystal, experimental, refinement or atomic coordinate data resulting
# from the CCDC's data processing and validation procedures.
#
#######################################################################

data_CSD_CIF_FEMVEY
_audit_creation_date 1987-11-26
_audit_creation_method CSD-ConQuest-V1
_database_code_CSD FEMVEY
_database_code_depnum_ccdc_archive 'CCDC 1154526'
_chemical_formula_sum 'C6 H12 N4 O6'
_chemical_formula_moiety
;
C6 H12 N4 O6
;
_journal_coden_Cambridge 54
_journal_volume 96
_journal_year 1987
_journal_page_first 149
_journal_name_full 'Bull.Soc.Chim.Belg. '
loop_
_publ_author_name
"B.Tinant"
"J.P.Declercq"
"O.Exner"
_chemical_name_systematic
;
(E)-1,2-bis(1-Nitro-1-methylethyl)diazene 1,2-dioxide
;
_chemical_melting_point 352.15
_cell_volume    524.667
_exptl_crystal_density_diffrn 1.5
_diffrn_ambient_temperature ?
_diffrn_special_details
;
The study was carried out at room temperature,in the range 283-303K

;
#These two values have been output from a single CSD field.
_refine_ls_R_factor_gt 0.055
_refine_ls_wR_factor_gt 0.055
_symmetry_cell_setting monoclinic
_symmetry_space_group_name_H-M 'P 21/n'
_symmetry_Int_Tables_number 14
loop_
_symmetry_equiv_pos_site_id
_symmetry_equiv_pos_as_xyz
1 x,y,z
2 1/2-x,1/2+y,1/2-z
3 -x,-y,-z
4 -1/2+x,-1/2-y,-1/2+z
_cell_length_a 10.056(2)
_cell_length_b 8.790(2)
_cell_length_c 5.945(1)
_cell_angle_alpha 90
_cell_angle_beta 93.21(2)
_cell_angle_gamma 90
_cell_formula_units_Z 2
loop_
_atom_type_symbol
_atom_type_radius_bond
C 0.68
N 0.68
O 0.68
loop_
_atom_site_label
_atom_site_type_symbol
_atom_site_fract_x
_atom_site_fract_y
_atom_site_fract_z
N1 N 1.0097(1) 0.0629(1) 0.9412(2)
O1 O 0.9582(1) 0.0809(2) 0.7466(2)
C1 C 1.0849(2) 0.1896(2) 1.0619(2)
C2 C 1.1210(2) 0.3066(2) 0.8884(3)
C3 C 1.0059(2) 0.2533(2) 1.2490(3)
N2 N 1.2164(2) 0.1183(2) 1.1533(3)
O2 O 1.2579(2) 0.1554(2) 1.3405(3)
O3 O 1.2739(2) 0.0379(2) 1.0262(4)
N1B N 0.9903(1) -0.0629(1) 1.0588(2)
O1B O 1.0418(1) -0.0809(2) 1.2534(2)
C1B C 0.9151(2) -0.1896(2) 0.9381(2)
C2B C 0.8790(2) -0.3066(2) 1.1116(3)
C3B C 0.9941(2) -0.2533(2) 0.7510(3)
N2B N 0.7836(2) -0.1183(2) 0.8467(3)
O2B O 0.7421(2) -0.1554(2) 0.6595(3)
O3B O 0.7261(2) -0.0379(2) 0.9738(4)
#END
