
#######################################################################
#
#                 Cambridge Crystallographic Data Centre
#                                CCDC
#
#######################################################################
#
# If this CIF has been generated from an entry in the Cambridge
# Structural Database, then it will include bibliographic, chemical,
# crystal, experimental, refinement or atomic coordinate data resulting
# from the CCDC's data processing and validation procedures.
#
#######################################################################

data_CSD_CIF_FENCOQ
_audit_creation_date 1987-11-26
_audit_creation_method CSD-ConQuest-V1
_database_code_CSD FENCOQ
_chemical_formula_sum 'C5 H7 N3 O3'
_chemical_formula_moiety
;
C5 H7 N3 O3
;
_journal_coden_Cambridge 188
_journal_year 1987
_journal_page_first 523
_journal_name_full 'J.Chem.Soc.,Perkin Trans.2 '
loop_
_publ_author_name
"R.Fruttero"
"R.Calvino"
"B.Ferrarotti"
"A.Gasco"
"S.Aime"
"R.Gobetto"
"G.Chiari"
"G.Calestani"
_chemical_name_systematic
;
(E)-4-Acetyl-3-methylfuroxan oxime
;
_chemical_melting_point 402.15
_cell_volume    716.238
_exptl_crystal_density_diffrn 1.46
_exptl_special_details
;
Melting point range 402.15-403.15K

;
_diffrn_ambient_temperature ?
_diffrn_special_details
;
The study was carried out at room temperature,in the range 283-303K

;
#These two values have been output from a single CSD field.
_refine_ls_R_factor_gt 0.042
_refine_ls_wR_factor_gt 0.042
_symmetry_cell_setting orthorhombic
_symmetry_space_group_name_H-M 'P m c n'
_symmetry_Int_Tables_number 62
loop_
_symmetry_equiv_pos_site_id
_symmetry_equiv_pos_as_xyz
1 x,y,z
2 1/2-x,y,z
3 x,1/2-y,1/2+z
4 1/2-x,1/2-y,1/2+z
5 -x,-y,-z
6 -1/2+x,-y,-z
7 -x,-1/2+y,-1/2-z
8 -1/2+x,-1/2+y,-1/2-z
_cell_length_a 6.486(1)
_cell_length_b 8.601(2)
_cell_length_c 12.839(3)
_cell_angle_alpha 90
_cell_angle_beta 90
_cell_angle_gamma 90
_cell_formula_units_Z 4
loop_
_atom_type_symbol
_atom_type_radius_bond
C 0.68
H 0.23
N 0.68
O 0.68
loop_
_atom_site_label
_atom_site_type_symbol
_atom_site_fract_x
_atom_site_fract_y
_atom_site_fract_z
O1 O 0.25000 0.8066(3) 0.3316(2)
O2 O 0.25000 0.8912(3) 0.1631(2)
O3 O 0.25000 0.1419(3) 0.3045(2)
N1 N 0.25000 0.7753(3) 0.2222(2)
N2 N 0.25000 0.6646(3) 0.3824(2)
N3 N 0.25000 0.2955(3) 0.2656(2)
C1 C 0.25000 0.6232(4) 0.2084(3)
C2 C 0.25000 0.5576(4) 0.3097(3)
C3 C 0.25000 0.5565(5) 0.1022(3)
C4 C 0.25000 0.3926(4) 0.3414(3)
C5 C 0.25000 0.3556(5) 0.4554(3)
H1 H 0.25000 0.0851(52) 0.2384(23)
H2 H 0.25000 0.6345(43) 0.0472(28)
H3 H 0.3697(39) 0.4899(33) 0.0955(25)
H4 H 0.25000 0.4431(39) 0.5044(30)
H5 H 0.3559(42) 0.2839(30) 0.4743(24)
H3A H 0.1303(39) 0.4899(33) 0.0955(25)
H5A H 0.1441(42) 0.2839(30) 0.4743(24)
#END
