
#######################################################################
#
#                 Cambridge Crystallographic Data Centre
#                                CCDC
#
#######################################################################
#
# If this CIF has been generated from an entry in the Cambridge
# Structural Database, then it will include bibliographic, chemical,
# crystal, experimental, refinement or atomic coordinate data resulting
# from the CCDC's data processing and validation procedures.
#
#######################################################################

data_CSD_CIF_FENHAH
_audit_creation_date 1987-10-26
_audit_creation_method CSD-ConQuest-V1
_database_code_CSD FENHAH
_database_code_depnum_ccdc_archive 'CCDC 1154581'
_chemical_formula_sum 'C5 H7 N3 O2'
_chemical_formula_moiety
;
C5 H7 N3 O2
;
_journal_coden_Cambridge 10
_journal_volume 70
_journal_year 1987
_journal_page_first 171
_journal_name_full 'Helv.Chim.Acta '
loop_
_publ_author_name
"K.-H.Pfoertner"
"J.J.Daly"
_chemical_name_systematic
;
N,5-Dimethyl-1,2,4-oxadiazole-3-carboxamide
;
_chemical_melting_point 383.95
_cell_volume   1282.914
_exptl_crystal_density_diffrn 1.461
_exptl_special_details
;
Cell data for compound 3e not 4e as stated in the abstract

;
_diffrn_ambient_temperature 173
#These two values have been output from a single CSD field.
_refine_ls_R_factor_gt 0.0457
_refine_ls_wR_factor_gt 0.0457
_symmetry_cell_setting monoclinic
_symmetry_space_group_name_H-M 'P 21/a'
_symmetry_Int_Tables_number 14
loop_
_symmetry_equiv_pos_site_id
_symmetry_equiv_pos_as_xyz
1 x,y,z
2 1/2-x,1/2+y,-z
3 -x,-y,-z
4 -1/2+x,-1/2-y,z
_cell_length_a 7.832(3)
_cell_length_b 21.186(6)
_cell_length_c 8.051(3)
_cell_angle_alpha 90
_cell_angle_beta 106.19(3)
_cell_angle_gamma 90
_cell_formula_units_Z 8
loop_
_atom_type_symbol
_atom_type_radius_bond
C 0.68
H 0.23
N 0.68
O 0.68
loop_
_atom_site_label
_atom_site_type_symbol
_atom_site_fract_x
_atom_site_fract_y
_atom_site_fract_z
C1 C -0.2203(2) 0.0396(1) 0.0029(2)
N1 N -0.1656(2) -0.0143(1) 0.0982(2)
C2 C -0.2756(3) -0.0561(1) 0.0126(2)
O1 O -0.3946(2) -0.0325(1) -0.1275(2)
N2 N -0.3548(2) 0.0321(1) -0.1319(2)
C3 C -0.1338(2) 0.1025(1) 0.0507(2)
O2 O -0.0082(2) 0.1074(1) 0.1814(2)
N3 N -0.2025(2) 0.1490(1) -0.0558(2)
C4 C -0.1398(3) 0.2135(1) -0.0243(3)
C5 C -0.2878(3) -0.1243(1) 0.0461(3)
H1 H -0.29740 0.13990 -0.15760
H2 H -0.23090 0.24010 -0.09430
H3 H -0.03280 0.21820 -0.05910
H4 H -0.11730 0.22520 0.09500
H5 H -0.18650 -0.13660 0.13850
H6 H -0.29220 -0.14910 -0.05470
H7 H -0.39430 -0.13100 0.08050
C6 C 0.1767(3) 0.7612(1) 0.5169(2)
N4 N 0.0957(2) 0.8141(1) 0.4330(2)
C7 C 0.1883(5) 0.8590(1) 0.5213(2)
O3 O 0.3203(2) 0.8383(1) 0.6563(2)
N5 N 0.3105(2) 0.7722(1) 0.6508(2)
C8 C 0.1186(2) 0.6957(1) 0.4585(2)
O4 O -0.0132(2) 0.6878(1) 0.3353(2)
N6 N 0.2176(2) 0.6499(1) 0.5472(2)
C9 C 0.1825(3) 0.5841(1) 0.5014(3)
C10 C 0.1710(3) 0.9280(1) 0.4960(3)
H8 H 0.31570 0.66050 0.64490
H9 H 0.26370 0.55820 0.58520
H10 H 0.19460 0.57520 0.38830
H11 H 0.06300 0.57520 0.50350
H12 H 0.08030 0.93460 0.38930
H13 H 0.28010 0.94690 0.48860
H14 H 0.13510 0.94710 0.58910
#END
