
#######################################################################
#
#                 Cambridge Crystallographic Data Centre
#                                CCDC
#
#######################################################################
#
# If this CIF has been generated from an entry in the Cambridge
# Structural Database, then it will include bibliographic, chemical,
# crystal, experimental, refinement or atomic coordinate data resulting
# from the CCDC's data processing and validation procedures.
#
#######################################################################

data_CSD_CIF_FENLUH
_audit_creation_date 2012-12-31
_audit_creation_method CSD-ConQuest-V1
_database_code_CSD FENLUH
_database_code_depnum_ccdc_archive 'CCDC 835386'
_chemical_formula_sum 'C21 H28 N4 O4'
_chemical_formula_moiety
;
C21 H28 N4 O4
;
_journal_coden_Cambridge 1441
_journal_volume 4
_journal_year 2012
_journal_page_first 915
_journal_name_full 'Nature Chemistry '
loop_
_publ_author_name
"S.V.Pronin"
"R.A.Shenvi"
_chemical_name_systematic
;
15-(2-(2,4-Dinitrophenyl)hydrazinylidene)cedrane
;
_cell_volume   2008.790
_exptl_crystal_colour 'yellow'
_exptl_crystal_density_diffrn 1.324
_exptl_crystal_description 'needle'
_diffrn_ambient_temperature 100
_refine_special_details
;
The structure is a cocrystal of two diastereomers, modelled with four carbon 
atoms C15,C16,C17,C19 and C15B,C16B,C17B,C19B disordered over two sites with 
occupancies 0.700:0.300.
;
#These two values have been output from a single CSD field.
_refine_ls_R_factor_gt 0.0788
_refine_ls_wR_factor_gt 0.0788
_symmetry_cell_setting monoclinic
_symmetry_space_group_name_H-M 'P 21/n'
_symmetry_Int_Tables_number 14
loop_
_symmetry_equiv_pos_site_id
_symmetry_equiv_pos_as_xyz
1 x,y,z
2 1/2-x,1/2+y,1/2-z
3 -x,-y,-z
4 -1/2+x,-1/2-y,-1/2+z
_cell_length_a 14.5022(14)
_cell_length_b 6.1703(10)
_cell_length_c 22.673(3)
_cell_angle_alpha 90
_cell_angle_beta 98.063(9)
_cell_angle_gamma 90
_cell_formula_units_Z 4
loop_
_atom_type_symbol
_atom_type_radius_bond
C 0.68
H 0.23
N 0.68
O 0.68
loop_
_atom_site_label
_atom_site_type_symbol
_atom_site_fract_x
_atom_site_fract_y
_atom_site_fract_z
O1 O 0.9615(3) 0.1580(8) 0.46448(18)
O2 O 0.9454(3) 0.3898(8) 0.39230(18)
O3 O 0.7680(3) 1.0243(8) 0.3948(2)
O4 O 0.7082(3) 1.1113(8) 0.4738(2)
N1 N 0.8946(3) 0.2365(9) 0.5636(2)
H1 H 0.92830 0.14280 0.54660
N2 N 0.8748(3) 0.2007(9) 0.6207(2)
N3 N 0.9308(3) 0.3311(10) 0.4421(2)
N4 N 0.7524(3) 0.987(1) 0.4457(3)
C1 C 0.8617(3) 0.4157(11) 0.5346(2)
C2 C 0.8771(3) 0.4683(10) 0.4758(2)
C3 C 0.8411(4) 0.6523(10) 0.4469(3)
H2 H 0.85240 0.68240 0.40750
C4 C 0.7893(4) 0.7905(10) 0.4755(3)
C5 C 0.7707(4) 0.7478(11) 0.5332(3)
H3 H 0.73360 0.84470 0.55240
C6 C 0.8064(4) 0.5656(11) 0.5614(3)
H4 H 0.79370 0.53780 0.60070
C7 C 0.9037(4) 0.0197(12) 0.6431(3)
H5 H 0.93660 -0.07260 0.61980
C8 C 0.8891(3) -0.0579(11) 0.7041(2)
H6 H 0.83390 -0.15640 0.69760
C9 C 0.8622(4) 0.1246(11) 0.7437(2)
H7 H 0.90620 0.24660 0.74260
H8 H 0.79910 0.17730 0.72770
C10 C 0.8629(4) 0.0532(11) 0.8080(3)
H9 H 0.80470 -0.02690 0.81130
H10 H 0.86410 0.18330 0.83360
C11 C 0.9464(4) -0.0915(11) 0.8309(2)
C12 C 0.9410(4) -0.2923(11) 0.7905(3)
H11 H 0.98440 -0.40700 0.80770
H12 H 0.87700 -0.35170 0.78330
C13 C 0.9704(4) -0.1989(12) 0.7334(3)
H13 H 0.98490 -0.31710 0.70590
C14 C 1.0609(4) -0.0689(14) 0.7584(3)
C15 C 1.0355(6) 0.039(2) 0.8183(4)
H14 H 1.02130 0.19670 0.81260
C16 C 1.1059(7) 0.000(2) 0.8745(5)
H15 H 1.16430 -0.06220 0.86390
H16 H 1.12080 0.13790 0.89610
C17 C 1.0601(7) -0.158(2) 0.9130(5)
H17 H 1.07840 -0.30830 0.90480
H18 H 1.08010 -0.12640 0.95570
C18 C 0.9574(4) -0.1326(12) 0.8985(3)
H19 H 0.93940 0.00350 0.91800
C19 C 0.8986(8) -0.309(2) 0.9159(5)
H20 H 0.83290 -0.27250 0.90380
H21 H 0.91030 -0.32750 0.95930
H22 H 0.91360 -0.44350 0.89650
C20 C 1.1425(5) -0.2313(18) 0.7642(4)
H23 H 1.12540 -0.36210 0.78470
H24 H 1.19760 -0.16500 0.78720
H25 H 1.15640 -0.27000 0.72450
C21 C 1.0881(4) 0.1126(14) 0.7187(3)
H26 H 1.09410 0.05430 0.67920
H27 H 1.14780 0.17490 0.73650
H28 H 1.04010 0.22530 0.71490
C22? C 1.0501(18) -0.077(5) 0.8269(13)
C23? C 1.0738(19) 0.130(5) 0.8710(13)
C24? C 1.0339(18) 0.051(5) 0.9223(11)
C25? C 0.9791(19) -0.363(5) 0.9261(12)
H29? H 1.08230 -0.20840 0.84540
H30? H 1.04270 0.26420 0.85440
H31? H 1.14160 0.15570 0.88050
H32? H 1.00380 0.17110 0.94140
H33? H 1.08310 -0.01220 0.95200
H34? H 0.89880 -0.08640 0.91140
H35? H 0.93230 -0.46680 0.90780
H36? H 1.04100 -0.40990 0.91870
H37? H 0.97740 -0.35780 0.96910
#END
