
#######################################################################
#
#                 Cambridge Crystallographic Data Centre
#                                CCDC
#
#######################################################################
#
# If this CIF has been generated from an entry in the Cambridge
# Structural Database, then it will include bibliographic, chemical,
# crystal, experimental, refinement or atomic coordinate data resulting
# from the CCDC's data processing and validation procedures.
#
#######################################################################

data_CSD_CIF_FENSUM
_audit_creation_date 1987-10-26
_audit_creation_method CSD-ConQuest-V1
_database_code_CSD FENSUM
_chemical_formula_sum 'C13 H17 N7 O25'
_chemical_formula_moiety
;
C13 H17 N7 O25
;
_journal_coden_Cambridge 41
_journal_volume 31
_journal_year 1986
_journal_page_first 676
_journal_name_full 'Kristallografiya(Russ.)(Crystallogr.Rep.) '
loop_
_publ_author_name
"A.V.Nikitin"
"V.I.Andrianov"
"R.M.Myasnikova"
"S.I.Firgang"
"A.I.Usov"
"V.F.Sopin"
"A.I.Pertsin"
_chemical_name_systematic
;
Methyl hepta-O-nitro-\b-cellobioside
;
_chemical_melting_point 406.15
_cell_volume   2594.849
_exptl_crystal_density_diffrn 1.72
_exptl_special_details
;
z coord. of O61 should be 1.0924 not 1.0294

;
_diffrn_ambient_temperature ?
_diffrn_special_details
;
The study was carried out at room temperature,in the range 283-303K

;
#These two values have been output from a single CSD field.
_refine_ls_R_factor_gt 0.059
_refine_ls_wR_factor_gt 0.059
_symmetry_cell_setting orthorhombic
_symmetry_space_group_name_H-M 'P 21 21 21'
_symmetry_Int_Tables_number 19
loop_
_symmetry_equiv_pos_site_id
_symmetry_equiv_pos_as_xyz
1 x,y,z
2 1/2+x,1/2-y,-z
3 -x,1/2+y,1/2-z
4 1/2-x,-y,1/2+z
_cell_length_a 12.227(9)
_cell_length_b 13.365(2)
_cell_length_c 15.879(2)
_cell_angle_alpha 90
_cell_angle_beta 90
_cell_angle_gamma 90
_cell_formula_units_Z 4
loop_
_atom_type_symbol
_atom_type_radius_bond
C 0.68
H 0.21
N 0.68
O 0.68
loop_
_atom_site_label
_atom_site_type_symbol
_atom_site_fract_x
_atom_site_fract_y
_atom_site_fract_z
C1 C 0.3871(4) -0.0592(4) 0.8642(3)
C2 C 0.4431(4) -0.1587(4) 0.8592(3)
C3 C 0.3618(4) -0.2429(4) 0.8468(3)
C4 C 0.2636(4) -0.2367(4) 0.9071(3)
C5 C 0.2207(4) -0.1279(3) 0.9062(3)
C6 C 0.1309(4) -0.1110(5) 0.9702(4)
C7 C 0.4271(5) 0.1166(4) 0.8674(4)
O1 O 0.4624(3) 0.0144(2) 0.8831(2)
O2 O 0.5150(2) -0.1639(3) 0.7868(3)
O3 O 0.6555(3) -0.1212(3) 0.8714(2)
O4 O 0.6767(3) -0.1468(4) 0.7378(3)
O5 O 0.4237(2) -0.3332(2) 0.8676(2)
O6 O 0.4744(3) -0.4807(3) 0.8305(3)
O7 O 0.3592(4) -0.4001(4) 0.7480(3)
O8 O 0.1800(2) -0.2975(2) 0.8717(2)
O9 O 0.3068(3) -0.0624(2) 0.9283(2)
O10 O 0.1543(3) -0.1575(3) 1.0486(3)
O11 O 0.1997(4) -0.0053(3) 1.0924(3)
O12 O 0.2075(4) -0.1295(4) 1.1744(3)
N1 N 0.6265(4) -0.1410(3) 0.8009(3)
N2 N 0.4143(4) -0.4111(4) 0.8056(3)
N3 N 0.1926(4) -0.0898(4) 1.1091(3)
C8 C 0.1483(4) -0.3788(4) 0.9177(4)
C9 C 0.0531(4) -0.4257(4) 0.8703(3)
C10 C 0.0223(4) -0.5282(4) 0.9034(3)
C11 C 0.1237(5) -0.5985(4) 0.9161(3)
C12 C 0.2096(4) -0.5354(4) 0.9668(4)
C13 C 0.3135(4) -0.5962(4) 0.9813(4)
O13 O -0.0407(2) -0.3628(3) 0.8859(2)
O14 O -0.1122(5) -0.2225(4) 0.8496(5)
O15 O -0.0248(7) -0.3084(7) 0.7529(5)
O16 O -0.0463(3) -0.5695(2) 0.8380(3)
O17 O -0.1848(3) -0.6644(3) 0.8074(2)
O18 O -0.1454(3) -0.6531(3) 0.9373(2)
O19 O 0.0867(3) -0.6787(3) 0.9645(3)
O20 O 0.1881(5) -0.7745(3) 0.8826(3)
O21 O 0.0840(4) -0.8375(4) 0.9800(5)
O22 O 0.2351(2) -0.4489(2) 0.9184(2)
O23 O 0.3864(3) -0.5322(3) 1.0294(2)
O24 O 0.4437(4) -0.4950(4) 1.1532(3)
O25 O 0.3179(5) -0.6078(4) 1.1362(3)
N4 N -0.0574(7) -0.2882(7) 0.8175(6)
N5 N -0.1294(4) -0.6318(4) 0.8640(3)
N6 N 0.1210(4) -0.7740(4) 0.9403(4)
N7 N 0.3817(4) -0.5440(4) 1.1173(4)
H1 H 0.359(5) -0.041(5) 0.812(4)
H2 H 0.498(5) -0.169(5) 0.923(4)
H3 H 0.336(4) -0.250(4) 0.789(3)
H4 H 0.285(5) -0.265(5) 0.970(4)
H5 H 0.187(4) -0.131(4) 0.853(3)
H6 H 0.104(6) -0.033(6) 0.974(5)
H7 H 0.063(4) -0.139(4) 0.940(4)
H8 H 0.474(4) 0.152(4) 0.893(3)
H9 H 0.381(5) 0.136(4) 0.827(4)
H10 H 0.361(9) 0.084(8) 0.852(7)
H11 H 0.108(6) -0.388(5) 0.975(4)
H12 H 0.073(4) -0.432(3) 0.798(3)
H13 H -0.016(4) -0.531(4) 0.958(3)
H14 H 0.147(5) -0.582(4) 0.861(4)
H15 H 0.165(4) -0.515(4) 1.020(3)
H16 H 0.310(5) -0.674(5) 0.947(4)
H17 H 0.359(4) -0.605(4) 0.927(3)
#END
