
#######################################################################
#
#                 Cambridge Crystallographic Data Centre
#                                CCDC
#
#######################################################################
#
# If this CIF has been generated from an entry in the Cambridge
# Structural Database, then it will include bibliographic, chemical,
# crystal, experimental, refinement or atomic coordinate data resulting
# from the CCDC's data processing and validation procedures.
#
#######################################################################

data_CSD_CIF_FEPBIN
_audit_creation_date 2013-02-22
_audit_creation_method CSD-ConQuest-V1
_database_code_CSD FEPBIN
_database_code_depnum_ccdc_archive 'CCDC 899907'
_chemical_formula_sum 'C11 H9 N3 O1'
_chemical_formula_moiety
;
C11 H9 N3 O1
;
_journal_coden_Cambridge 1350
_journal_volume 15
_journal_year 2013
_journal_page_first 120
_journal_name_full 'CrystEngComm '
loop_
_publ_author_name
"V.J.Argyle"
"L.M.Woods"
"R.Marina"
"L.R.Hanton"
_chemical_name_systematic
;
N-Hydroxy-1-(pyridin-2-yl)-1-(pyridin-4-yl)methanimine
;
_cell_volume   1029.815
_exptl_crystal_colour 'colorless'
_exptl_crystal_density_diffrn 1.285
_exptl_crystal_description 'rhomb'
_diffrn_ambient_temperature 90
#These two values have been output from a single CSD field.
_refine_ls_R_factor_gt 0.0384
_refine_ls_wR_factor_gt 0.0384
_symmetry_cell_setting orthorhombic
_symmetry_space_group_name_H-M 'P n m a'
_symmetry_Int_Tables_number 62
loop_
_symmetry_equiv_pos_site_id
_symmetry_equiv_pos_as_xyz
1 x,y,z
2 1/2-x,-y,1/2+z
3 -x,1/2+y,-z
4 1/2+x,1/2-y,1/2-z
5 -x,-y,-z
6 -1/2+x,y,-1/2-z
7 x,-1/2-y,z
8 -1/2-x,-1/2+y,-1/2+z
_cell_length_a 14.2517(8)
_cell_length_b 8.1077(6)
_cell_length_c 8.9124(6)
_cell_angle_alpha 90
_cell_angle_beta 90
_cell_angle_gamma 90
_cell_formula_units_Z 4
loop_
_atom_type_symbol
_atom_type_radius_bond
C 0.68
H 0.23
N 0.68
O 0.68
loop_
_atom_site_label
_atom_site_type_symbol
_atom_site_fract_x
_atom_site_fract_y
_atom_site_fract_z
C1 C -0.04292(13) 0.25000 -0.2181(2)
C2 C 0.03672(16) 0.25000 -0.3086(3)
H1 H 0.09630 0.25000 -0.26600
C3 C 0.02595(17) 0.25000 -0.4618(3)
H2 H 0.07820 0.25000 -0.52430
C4 C -0.06342(16) 0.25000 -0.5220(2)
H3 H -0.07260 0.25000 -0.62530
C5 C -0.13793(16) 0.25000 -0.4252(2)
H4 H -0.19800 0.25000 -0.46600
C6 C -0.03643(13) 0.25000 -0.0524(2)
C7 C -0.12269(13) 0.25000 0.0431(2)
C8 C -0.16208(10) 0.10407(19) 0.09220(16)
H5 H -0.13770 0.00330 0.06100
C9 C -0.23824(10) 0.1096(2) 0.18841(18)
H6 H -0.26390 0.01040 0.22120
N1 N -0.12980(11) 0.25000 -0.27511(19)
N2 N -0.27677(11) 0.25000 0.23643(19)
N3 N 0.04641(11) 0.25000 0.00407(18)
O1 O 0.04556(10) 0.25000 0.16005(15)
H7 H 0.109(2) 0.25000 0.185(3)
C8F C -0.16208(10) 0.39593(19) 0.09220(16)
H5F H -0.13770 0.49670 0.06100
C9F C -0.23824(10) 0.3904(2) 0.18841(18)
H6F H -0.26390 0.48960 0.22120
#END
