
#######################################################################
#
#                 Cambridge Crystallographic Data Centre
#                                CCDC
#
#######################################################################
#
# If this CIF has been generated from an entry in the Cambridge
# Structural Database, then it will include bibliographic, chemical,
# crystal, experimental, refinement or atomic coordinate data resulting
# from the CCDC's data processing and validation procedures.
#
#######################################################################

data_CSD_CIF_FEPCIM
_audit_creation_date 1987-11-26
_audit_creation_method CSD-ConQuest-V1
_database_code_CSD FEPCIM
_database_code_depnum_ccdc_archive 'CCDC 1154673'
_chemical_formula_sum 'C9 H9 N1 O4'
_chemical_formula_moiety
;
C9 H9 N1 O4
;
_journal_coden_Cambridge 542
_journal_volume 21
_journal_year 1986
_journal_page_first 1521
_journal_name_full 'Cryst.Res.Technol. '
loop_
_publ_author_name
"L.Kutschabsky"
"R.-G.Kretschmer"
"H.Schrauber"
"W.Dathe"
"G.Schneider"
_chemical_name_systematic
;
2-Hydroxy-4-methoxy-2H-1,4-benzoxazin-3-one
;
_cell_volume   3617.442
_exptl_crystal_density_diffrn 1.432
_exptl_special_details
;
Author has supplied missing cell c value

;
_diffrn_ambient_temperature ?
_diffrn_special_details
;
The study was carried out at room temperature,in the range 283-303K

;
_refine_special_details
;
Large void space, possible disorder.

;
#These two values have been output from a single CSD field.
_refine_ls_R_factor_gt 0.129
_refine_ls_wR_factor_gt 0.129
_symmetry_cell_setting orthorhombic
_symmetry_space_group_name_H-M 'P 21 21 21'
_symmetry_Int_Tables_number 19
loop_
_symmetry_equiv_pos_site_id
_symmetry_equiv_pos_as_xyz
1 x,y,z
2 1/2+x,1/2-y,-z
3 -x,1/2+y,1/2-z
4 1/2-x,-y,1/2+z
_cell_length_a 15.910(5)
_cell_length_b 8.365(4)
_cell_length_c 27.181
_cell_angle_alpha 90
_cell_angle_beta 90
_cell_angle_gamma 90
_cell_formula_units_Z 16
loop_
_atom_type_symbol
_atom_type_radius_bond
C 0.68
N 0.68
O 0.68
loop_
_atom_site_label
_atom_site_type_symbol
_atom_site_fract_x
_atom_site_fract_y
_atom_site_fract_z
O1 O 0.3758(3) 0.5800(6) 0.0110(2)
C1 C 0.3208(5) 0.4501(10) 0.0003(3)
C2 C 0.3654(5) 0.3233(10) -0.0301(3)
N1 N 0.4241(4) 0.3790(6) -0.0615(2)
C3 C 0.4478(4) 0.5409(7) -0.0652(2)
C4 C 0.4959(5) 0.5995(10) -0.1027(3)
C5 C 0.5164(5) 0.7596(15) -0.1041(3)
C6 C 0.4890(7) 0.8626(11) -0.0653(4)
C7 C 0.4379(6) 0.8045(11) -0.0281(4)
C8 C 0.4227(5) 0.6437(1) -0.0285(3)
O2 O 0.2536(3) 0.5010(7) -0.0288(2)
O3 O 0.3513(4) 0.1788(8) -0.0251(3)
O4 O 0.4675(3) 0.2726(5) -0.0908(2)
C9 C 0.4175(5) 0.2248(12) -0.1333(3)
#END
