
#######################################################################
#
#                 Cambridge Crystallographic Data Centre
#                                CCDC
#
#######################################################################
#
# If this CIF has been generated from an entry in the Cambridge
# Structural Database, then it will include bibliographic, chemical,
# crystal, experimental, refinement or atomic coordinate data resulting
# from the CCDC's data processing and validation procedures.
#
#######################################################################

data_CSD_CIF_FEPDOT
_audit_creation_date 1987-11-26
_audit_creation_method CSD-ConQuest-V1
_database_code_CSD FEPDOT
_chemical_formula_sum 'C21 H32 N2 O4'
_chemical_formula_moiety
;
C21 H32 N2 O4
;
_journal_coden_Cambridge 41
_journal_volume 31
_journal_year 1986
_journal_page_first 1224
_journal_name_full 'Kristallografiya(Russ.)(Crystallogr.Rep.) '
loop_
_publ_author_name
"R.M.Lobkovskaya"
"R.P.Shibaeva"
"V.I.Suskina"
"A.B.Shapiro"
_chemical_name_systematic
;
3,3'-Methylene-bis(1-oxy-2,2',6,6'-tetramethyl-5-methylene-4-oxopiperidine)
;
_cell_volume   4232.508
_exptl_crystal_density_diffrn 1.18
_diffrn_ambient_temperature ?
_diffrn_special_details
;
The study was carried out at room temperature,in the range 283-303K

;
#These two values have been output from a single CSD field.
_refine_ls_R_factor_gt 0.05
_refine_ls_wR_factor_gt 0.05
_symmetry_cell_setting orthorhombic
_symmetry_space_group_name_H-M 'I b a 2'
_symmetry_Int_Tables_number 45
loop_
_symmetry_equiv_pos_site_id
_symmetry_equiv_pos_as_xyz
1 x,y,z
2 1/2+x,1/2+y,1/2+z
3 1/2-x,1/2+y,z
4 -x,y,1/2+z
5 1/2+x,1/2-y,z
6 x,-y,1/2+z
7 -x,-y,z
8 1/2-x,1/2-y,1/2+z
_cell_length_a 31.06(1)
_cell_length_b 12.156(4)
_cell_length_c 11.210(7)
_cell_angle_alpha 90
_cell_angle_beta 90
_cell_angle_gamma 90
_cell_formula_units_Z 8
loop_
_atom_type_symbol
_atom_type_radius_bond
C 0.68
H 0.23
N 0.68
O 0.68
loop_
_atom_site_label
_atom_site_type_symbol
_atom_site_fract_x
_atom_site_fract_y
_atom_site_fract_z
O1 O 0.1617(1) 0.4734(3) 0.37400
O2 O 0.1044(2) 0.9151(5) 1.0423(5)
O3 O 0.2077(1) 0.7520(4) 0.7202(4)
O4 O 0.0583(1) 0.6284(4) 0.7107(4)
N1 N 0.1741(1) 0.5397(3) 0.4540(4)
N2 N 0.0909(2) 0.8503(4) 0.9644(4)
C1 C 0.1237(2) 0.7672(4) 0.6474(5)
C2 C 0.1510(2) 0.6687(4) 0.6095(5)
C3 C 0.1971(2) 0.6807(5) 0.6495(5)
C4 C 0.2296(2) 0.6037(4) 0.5964(5)
C5 C 0.2148(2) 0.5123(4) 0.5162(5)
C6 C 0.1501(1) 0.6440(4) 0.4734(5)
C7 C 0.1092(2) 0.7617(4) 0.7779(4)
C8 C 0.0708(2) 0.6881(5) 0.7893(5)
C9 C 0.0458(2) 0.6959(4) 0.9047(5)
C10 C 0.0631(2) 0.7595(5) 1.0071(5)
C11 C 0.0996(2) 0.8741(4) 0.8366(5)
C12 C 0.1720(2) 0.7356(5) 0.4015(6)
C13 C 0.1053(2) 0.6261(5) 0.4268(5)
C14 C 0.2059(2) 0.4111(5) 0.5939(7)
C15 C 0.2480(2) 0.4812(7) 0.4199(8)
C16 C 0.2707(2) 0.6179(5) 0.6247(6)
C17 C 0.1382(2) 0.9488(6) 0.8301(6)
C18 C 0.0607(2) 0.9314(5) 0.7816(6)
C19 C 0.0264(2) 0.8123(8) 1.0796(9)
C20 C 0.0908(3) 0.6832(8) 1.0859(8)
C21 C 0.0090(2) 0.6407(6) 0.9103(8)
H1 H 0.141(1) 0.840(3) 0.623(4)
H2 H 0.099(2) 0.763(4) 0.601(5)
H3 H 0.141(1) 0.602(3) 0.642(4)
H4 H 0.136(1) 0.729(2) 0.831(2)
H5 H 0.205(2) 0.765(4) 0.431(4)
H6 H 0.168(2) 0.720(4) 0.313(4)
H7 H 0.161(2) 0.817(5) 0.430(5)
H8 H 0.102(3) 0.609(8) 0.337(9)
H9 H 0.091(2) 0.694(7) 0.441(8)
H10 H 0.091(2) 0.582(5) 0.472(6)
H11 H 0.182(1) 0.416(4) 0.618(4)
H12 H 0.231(2) 0.398(6) 0.646(8)
H13 H 0.195(2) 0.344(4) 0.532(5)
H14 H 0.251(1) 0.548(4) 0.381(4)
H15 H 0.239(2) 0.400(6) 0.375(8)
H16 H 0.278(2) 0.460(4) 0.454(5)
H17 H 0.274(1) 0.679(3) 0.677(3)
H18 H 0.296(2) 0.569(4) 0.592(5)
H19 H 0.164(1) 0.915(4) 0.851(5)
H20 H 0.136(2) 1.019(6) 0.891(6)
H21 H 0.137(2) 0.983(5) 0.752(5)
H22 H 0.033(2) 0.932(6) 0.832(7)
H23 H 0.059(2) 1.032(6) 0.774(6)
H24 H 0.049(3) 0.920(7) 0.698(9)
H25 H 0.019(3) 0.778(8) 1.163(9)
H26 H 0.035(2) 0.900(6) 1.118(8)
H27 H -0.002(2) 0.833(4) 1.041(6)
H28 H 0.111(2) 0.638(5) 1.031(6)
H29 H 0.111(2) 0.719(5) 1.143(6)
H30 H 0.075(3) 0.625(8) 1.134(9)
H31 H -0.013(2) 0.646(6) 0.980(7)
H32 H -0.001(2) 0.586(5) 0.846(6)
#END
