
#######################################################################
#
#                 Cambridge Crystallographic Data Centre
#                                CCDC
#
#######################################################################
#
# If this CIF has been generated from an entry in the Cambridge
# Structural Database, then it will include bibliographic, chemical,
# crystal, experimental, refinement or atomic coordinate data resulting
# from the CCDC's data processing and validation procedures.
#
#######################################################################

data_CSD_CIF_FEPFIP
_audit_creation_date 1999-07-29
_audit_creation_method CSD-ConQuest-V1
_database_code_CSD FEPFIP
_database_code_depnum_ccdc_archive 'CCDC 116209'
_chemical_formula_sum 'C13 H17 N3 O4'
_chemical_formula_moiety
;
C13 H17 N3 O4
;
_journal_coden_Cambridge 16
_journal_volume 54
_journal_year 1998
_journal_page_first 13149
_journal_name_full 'Tetrahedron '
loop_
_publ_author_name
"Jeh-Jeng Wang"
"Wan-Ping Hu"
"Hung-Wei Chung"
"Li-Fang Wang"
"Mei-Hui Hsu"
_chemical_name_systematic
;
N-(2-Methylamino-5-nitrobenzoyl) 2-hydroxymethylpyrrolidine
;
_chemical_melting_point 439.15
_cell_volume   1369.682
_exptl_crystal_colour 'yellow'
_exptl_crystal_density_diffrn 1.354
_exptl_special_details
;
Melting point range 439.15-441.15K

;
_exptl_crystal_description 'prism'
_diffrn_ambient_temperature ?
_diffrn_special_details
;
The study was carried out at room temperature,in the range 283-303K

;
#These two values have been output from a single CSD field.
_refine_ls_R_factor_gt 0.031
_refine_ls_wR_factor_gt 0.031
_symmetry_cell_setting orthorhombic
_symmetry_space_group_name_H-M 'P 21 21 21'
_symmetry_Int_Tables_number 19
loop_
_symmetry_equiv_pos_site_id
_symmetry_equiv_pos_as_xyz
1 x,y,z
2 1/2-x,-y,1/2+z
3 1/2+x,1/2-y,-z
4 -x,1/2+y,1/2-z
_cell_length_a 9.792(2)
_cell_length_b 18.821(4)
_cell_length_c 7.432(2)
_cell_angle_alpha 90
_cell_angle_beta 90
_cell_angle_gamma 90
_cell_formula_units_Z 4
loop_
_atom_type_symbol
_atom_type_radius_bond
C 0.68
H 0.23
N 0.68
O 0.68
loop_
_atom_site_label
_atom_site_type_symbol
_atom_site_fract_x
_atom_site_fract_y
_atom_site_fract_z
O1 O -0.8070(5) -0.2650(2) -0.4736(5)
O2 O -1.0980(4) -0.4915(2) -0.3114(6)
O3 O -0.9870(5) -0.5897(2) -0.3027(7)
O4 O -0.4549(4) -0.1759(3) -0.2582(5)
N1 N -0.7001(5) -0.2583(2) -0.2069(7)
N2 N -0.9911(6) -0.5248(3) -0.3111(9)
N3 N -0.4996(5) -0.3745(2) -0.3541(7)
C1 C -0.6799(8) -0.1607(4) -0.0107(9)
C2 C -0.6309(9) -0.2261(4) 0.0823(9)
C3 C -0.6597(7) -0.2887(3) -0.0312(9)
C4 C -0.7545(6) -0.2948(3) -0.3449(10)
C5 C -0.7445(6) -0.3757(3) -0.3297(9)
C6 C -0.8661(6) -0.4122(3) -0.3229(9)
C7 C -0.8619(6) -0.4857(3) -0.3174(9)
C8 C -0.7409(7) -0.5227(3) -0.3203(10)
C9 C -0.6216(6) -0.4865(3) -0.3309(10)
C10 C -0.6185(6) -0.4109(3) -0.3397(9)
C11 C -0.3673(6) -0.4105(4) -0.3681(9)
C12 C -0.6973(6) -0.1802(3) -0.2071(9)
C13 C -0.5816(7) -0.1544(3) -0.3275(9)
H1 H -0.61480 -0.12380 0.00230
H2 H -0.76470 -0.14610 0.03950
H3 H -0.53550 -0.22230 0.10240
H4 H -0.67680 -0.23080 0.19430
H5 H -0.58050 -0.31760 -0.04350
H6 H -0.73180 -0.31630 0.01820
H7 H -0.95080 -0.38770 -0.32290
H8 H -0.74070 -0.57310 -0.31480
H9 H -0.53800 -0.51210 -0.33260
H10 H -0.50230 -0.32400 -0.35470
H11 H -0.35280 -0.43880 -0.26390
H12 H -0.36670 -0.43980 -0.47190
H13 H -0.29680 -0.37600 -0.37730
H14 H -0.78220 -0.16240 -0.24990
H15 H -0.59360 -0.17390 -0.44460
H16 H -0.58470 -0.10410 -0.33430
H17 H -0.39460 -0.16290 -0.35880
#END
