
#######################################################################
#
#                 Cambridge Crystallographic Data Centre
#                                CCDC
#
#######################################################################
#
# If this CIF has been generated from an entry in the Cambridge
# Structural Database, then it will include bibliographic, chemical,
# crystal, experimental, refinement or atomic coordinate data resulting
# from the CCDC's data processing and validation procedures.
#
#######################################################################

data_CSD_CIF_FEPJIW
_audit_creation_date 2017-11-10
_audit_creation_method CSD-ConQuest-V1
_database_code_CSD FEPJIW
_database_code_depnum_ccdc_archive 'CCDC 1559317'
_chemical_formula_sum 'C8 H7 N3 O5'
_chemical_formula_moiety
;
C8 H7 N3 O5
;
_journal_coden_Cambridge 24
_journal_volume 58
_journal_year 2017
_journal_page_first 3993
_journal_name_full 'Tetrahedron Lett. '
loop_
_publ_author_name
"A.A.Larin"
"L.L.Fershtat"
"I.V.Ananyev"
"N.N.Makhova"
_chemical_name_systematic
;
4-(5-(methoxycarbonyl)-1,2-oxazol-3-yl)-3-methyl-1,2,5-oxadiazole 2-oxide
;
_cell_volume    932.179
_exptl_crystal_colour 'colorless'
_exptl_crystal_density_diffrn 1.604
_exptl_crystal_description 'needle'
_diffrn_ambient_temperature 120
#These two values have been output from a single CSD field.
_refine_ls_R_factor_gt 0.0531
_refine_ls_wR_factor_gt 0.0531
_symmetry_cell_setting triclinic
_symmetry_space_group_name_H-M 'P -1'
_symmetry_Int_Tables_number 2
loop_
_symmetry_equiv_pos_site_id
_symmetry_equiv_pos_as_xyz
1 x,y,z
2 -x,-y,-z
_cell_length_a 8.1539(11)
_cell_length_b 11.1458(16)
_cell_length_c 12.0169(17)
_cell_angle_alpha 107.196(3)
_cell_angle_beta 98.508(3)
_cell_angle_gamma 111.181(3)
_cell_formula_units_Z 4
loop_
_atom_type_symbol
_atom_type_radius_bond
C 0.68
H 0.23
N 0.68
O 0.68
loop_
_atom_site_label
_atom_site_type_symbol
_atom_site_fract_x
_atom_site_fract_y
_atom_site_fract_z
O1 O 0.1025(2) 0.40665(18) 0.47482(15)
O2 O 0.3337(2) 0.61268(18) 0.60977(15)
O3 O 0.2322(2) 0.67350(17) 1.07803(15)
O4 O 0.4082(2) 0.86325(19) 1.31109(16)
O5 O 0.6232(2) 0.99076(18) 1.24246(16)
N1 N 0.1704(3) 0.4881(2) 0.58254(18)
N2 N 0.3863(3) 0.6857(2) 0.73280(18)
N3 N 0.1703(3) 0.5952(2) 0.95371(18)
C1 C 0.1273(3) 0.4885(2) 0.6840(2)
C2 C 0.2650(3) 0.6128(2) 0.7762(2)
C3 C -0.0383(3) 0.3726(3) 0.6816(2)
H1 H -0.14440 0.35730 0.61960
H2 H -0.06100 0.39600 0.76140
H3 H -0.01890 0.28780 0.66220
C4 C 0.2886(3) 0.6659(2) 0.9073(2)
C5 C 0.4301(3) 0.7906(2) 0.9966(2)
H4 H 0.535(5) 0.861(4) 0.988(3)
C6 C 0.3869(3) 0.7891(2) 1.1005(2)
C7 C 0.4715(3) 0.8840(2) 1.2308(2)
C8 C 0.7209(4) 1.0909(3) 1.3657(2)
H5 H 0.77260 1.04820 1.41290
H6 H 0.63590 1.12010 1.40330
H7 H 0.82030 1.17200 1.36400
O6 O -0.2250(2) -0.01537(18) -0.09629(16)
O7 O -0.1123(2) 0.11065(18) 0.10918(15)
O8 O 0.5364(2) 0.58493(17) 0.18406(15)
O9 O 0.7916(2) 0.81417(18) 0.38006(17)
O10 O 0.6191(2) 0.74670(19) 0.50011(16)
N4 N -0.1009(3) 0.0896(2) -0.01367(18)
N5 N 0.0360(3) 0.2320(2) 0.18457(19)
N6 N 0.3921(3) 0.4600(2) 0.10353(18)
C9 C 0.0468(3) 0.1937(2) -0.0095(2)
C10 C 0.1292(3) 0.2804(2) 0.1151(2)
C11 C 0.0949(4) 0.2009(3) -0.1229(2)
H8 H 0.16950 0.29790 -0.10990
H9 H -0.01780 0.16320 -0.18910
H10 H 0.16470 0.14630 -0.14440
C12 C 0.2955(3) 0.4109(2) 0.1710(2)
C13 C 0.3698(3) 0.4982(2) 0.2961(2)
H11 H 0.323(4) 0.485(3) 0.363(3)
C14 C 0.5183(3) 0.6044(2) 0.2980(2)
C15 C 0.6600(3) 0.7345(2) 0.3959(2)
C16 C 0.7493(4) 0.8682(3) 0.6050(2)
H12 H 0.75320 0.95240 0.59320
H13 H 0.87150 0.86950 0.61450
H14 H 0.71130 0.86480 0.67800
#END
