
#######################################################################
#
#                 Cambridge Crystallographic Data Centre
#                                CCDC
#
#######################################################################
#
# If this CIF has been generated from an entry in the Cambridge
# Structural Database, then it will include bibliographic, chemical,
# crystal, experimental, refinement or atomic coordinate data resulting
# from the CCDC's data processing and validation procedures.
#
#######################################################################

data_CSD_CIF_FEPMUJ
_audit_creation_date 2005-05-11
_audit_creation_method CSD-ConQuest-V1
_database_code_CSD FEPMUJ
_database_code_depnum_ccdc_archive 'CCDC 261906'
_chemical_formula_sum 'C20 H19 N1 O5'
_chemical_formula_moiety
;
C20 H19 N1 O5
;
_journal_coden_Cambridge 4
_journal_volume 127
_journal_year 2005
_journal_page_first 119
_journal_name_full 'J.Am.Chem.Soc. '
loop_
_publ_author_name
"T.Okino"
"Y.Hoashi"
"T.Furukawa"
"Xuenong Xu"
"Y.Takemoto"
_chemical_name_systematic
;
Methyl 
2-(2-nitro-1-phenylethyl)-1,2,3,4-tetrahydronaphthalen-1-one-2-carboxylate
;
_cell_volume   3512.085
_exptl_crystal_density_diffrn 1.337
_diffrn_ambient_temperature 296.1
#These two values have been output from a single CSD field.
_refine_ls_R_factor_gt 0.052
_refine_ls_wR_factor_gt 0.052
_symmetry_cell_setting monoclinic
_symmetry_space_group_name_H-M 'P 21'
_symmetry_Int_Tables_number 4
loop_
_symmetry_equiv_pos_site_id
_symmetry_equiv_pos_as_xyz
1 x,y,z
2 -x,1/2+y,-z
_cell_length_a 11.367(6)
_cell_length_b 11.559(4)
_cell_length_c 26.73(1)
_cell_angle_alpha 90
_cell_angle_beta 90.02(2)
_cell_angle_gamma 90
_cell_formula_units_Z 8
loop_
_atom_type_symbol
_atom_type_radius_bond
C 0.68
H 0.23
N 0.68
O 0.68
loop_
_atom_site_label
_atom_site_type_symbol
_atom_site_fract_x
_atom_site_fract_y
_atom_site_fract_z
O1 O 0.5343(1) -0.1646(1) -0.61165(5)
O2 O 0.8115(1) -0.1386(1) -0.62776(5)
O3 O 0.9152(1) -0.1951(1) -0.56021(5)
O4 O 0.5493(1) -0.5169(1) -0.61366(6)
O5 O 0.7176(1) -0.5649(1) -0.64492(6)
N1 N 0.6511(1) -0.4943(1) -0.62634(6)
C1 C 0.7014(1) -0.1702(1) -0.50214(6)
C2 C 0.6691(1) -0.3332(1) -0.56534(6)
C3 C 0.7259(1) -0.4149(1) -0.52758(6)
C4 C 0.6146(1) 0.0002(1) -0.57204(6)
C5 C 0.5604(1) 0.0780(1) -0.60486(6)
C6 C 0.6085(1) -0.1257(1) -0.58380(6)
C7 C 0.6611(1) -0.4524(1) -0.48707(6)
C8 C 0.5611(1) 0.1963(1) -0.59486(7)
C9 C 0.7017(1) -0.2022(1) -0.55824(6)
C10 C 0.6139(1) 0.2360(1) -0.55166(7)
C11 C 0.6708(1) 0.0397(1) -0.52810(6)
C12 C 0.6683(1) 0.1585(1) -0.51848(6)
C13 C 0.7092(2) -0.5253(1) -0.45139(6)
C14 C 0.8892(2) -0.5293(2) -0.49721(9)
C15 C 0.8232(1) -0.1778(1) -0.58073(6)
C16 C 0.8409(2) -0.4547(2) -0.53269(7)
C17 C 0.8251(2) -0.5641(2) -0.45605(7)
C18 C 0.9204(2) -0.1177(2) -0.65462(8)
C19 C 0.6937(2) -0.3729(1) -0.61930(6)
C20 C 0.7320(2) -0.0422(2) -0.49311(7)
H1 H 0.52320 0.04990 -0.63430
H2 H 0.58190 -0.42760 -0.48340
H3 H 0.52490 0.24880 -0.61740
H4 H 0.61390 0.31650 -0.54440
H5 H 0.70380 0.18700 -0.48880
H6 H 0.66330 -0.54990 -0.42370
H7 H 0.96750 -0.55660 -0.50130
H8 H 0.88690 -0.43030 -0.56040
H9 H 0.85890 -0.61330 -0.43150
H10 H 0.62540 -0.18500 -0.48890
H11 H 0.75770 -0.21690 -0.48530
H12 H 0.71000 -0.02280 -0.45990
H13 H 0.81460 -0.03290 -0.49690
H14 H 0.58650 -0.33890 -0.56050
H15 H 0.77580 -0.36960 -0.62580
H16 H 0.65350 -0.32330 -0.64190
H17 H 0.94500 -0.04010 -0.64910
H18 H 0.90760 -0.12970 -0.68930
H19 H 0.97920 -0.16930 -0.64280
O6 O 1.0260(1) -0.7492(1) -0.77034(5)
O7 O 0.9502(1) -0.7768(1) -0.65254(5)
O8 O 0.8776(1) -0.3601(1) -0.71817(7)
O9 O 1.0829(1) -0.6927(1) -0.60281(5)
O10 O 1.0070(2) -0.4012(1) -0.77407(6)
N2 N 0.9488(1) -0.4258(1) -0.73626(6)
C21 C 1.0823(1) -0.7819(1) -0.73356(6)
C22 C 1.1615(1) -0.4800(1) -0.67790(6)
C23 C 1.2737(1) -0.4408(1) -0.69221(7)
C24 C 1.3350(2) -0.3612(2) -0.66346(7)
C25 C 1.2130(2) -0.9341(2) -0.69699(7)
C26 C 1.1127(1) -0.4341(1) -0.63398(6)
C27 C 1.2476(2) -1.0513(2) -0.69545(8)
C28 C 1.1911(2) -1.1336(2) -0.72442(8)
C29 C 1.1193(1) -0.6979(1) -0.69147(6)
C30 C 1.2837(2) -0.3174(1) -0.62011(7)
C31 C 1.0493(2) -0.7220(1) -0.64342(7)
C32 C 1.0982(1) -0.5691(1) -0.70937(6)
C33 C 1.2510(1) -0.7214(1) -0.68220(7)
C34 C 1.1207(1) -0.9044(1) -0.72931(6)
C35 C 1.1729(2) -0.3515(1) -0.60604(7)
C36 C 1.0658(2) -0.9863(2) -0.75921(7)
C37 C 0.9667(1) -0.5427(1) -0.71305(7)
C38 C 1.2733(2) -0.8461(1) -0.66506(8)
C39 C 1.1013(2) -1.1024(2) -0.75690(7)
C40 C 0.8777(2) -0.8002(2) -0.6090(1)
H20 H 1.30800 -0.46940 -0.72220
H21 H 1.41160 -0.33730 -0.67320
H22 H 1.03690 -0.45910 -0.62360
H23 H 1.31060 -1.07390 -0.67420
H24 H 1.21460 -1.21240 -0.72230
H25 H 1.32530 -0.26280 -0.60030
H26 H 1.13720 -0.31960 -0.57700
H27 H 1.00460 -0.96400 -0.78140
H28 H 1.06360 -1.15910 -0.77700
H29 H 1.29370 -0.70780 -0.71220
H30 H 1.27780 -0.67000 -0.65690
H31 H 0.93340 -0.54300 -0.68050
H32 H 0.92910 -0.59980 -0.73300
H33 H 1.24580 -0.85410 -0.63170
H34 H 1.35550 -0.86030 -0.66600
H35 H 0.89850 -0.87350 -0.59560
H36 H 0.79720 -0.80070 -0.61860
H37 H 0.89050 -0.74200 -0.58450
H38 H 1.12940 -0.56320 -0.74220
O11 O 1.3043(1) -1.0391(1) -0.86250(5)
O12 O 1.0207(1) -1.0005(1) -0.88231(5)
O13 O 1.0830(1) -0.6382(1) -0.87348(5)
O14 O 1.2359(1) -0.6323(1) -0.82465(6)
O15 O 1.4074(1) -0.9834(1) -0.92981(6)
N3 N 1.1707(1) -0.6815(1) -0.85460(6)
C41 C 1.1681(1) -0.8346(1) -0.92125(6)
C42 C 1.2263(1) -0.7521(1) -0.95833(6)
C43 C 1.1962(2) -0.9955(1) -0.98781(6)
C44 C 1.0451(2) -1.3622(1) -0.90023(7)
C45 C 1.1647(1) -1.2058(1) -0.96209(6)
C46 C 1.3913(2) -0.6381(2) -0.98772(8)
C47 C 1.1965(1) -0.9663(1) -0.93154(6)
C48 C 1.1023(1) -1.1663(1) -0.92123(6)
C49 C 1.0404(1) -1.2442(1) -0.89063(6)
C50 C 1.1099(2) -1.4011(1) -0.94061(7)
C51 C 1.1582(1) -0.7075(1) -0.99721(6)
C52 C 1.3157(1) -0.9982(1) -0.90887(7)
C53 C 1.1696(2) -1.3241(2) -0.97171(7)
C54 C 1.3238(2) -0.5946(2) -1.02669(7)
C55 C 1.3421(2) -0.7151(2) -0.95342(7)
C56 C 1.1981(1) -0.8050(1) -0.86716(6)
C57 C 1.2274(2) -1.1234(2) -0.99692(7)
C58 C 1.0985(1) -1.0411(1) -0.90812(6)
C59 C 1.4139(2) -1.0625(2) -0.83571(9)
C60 C 1.2069(2) -0.6304(1) -1.03146(6)
H39 H 1.00400 -1.41520 -0.87950
H40 H 1.47070 -0.61380 -0.98390
H41 H 0.99610 -1.21620 -0.86300
H42 H 1.11400 -1.48170 -0.94740
H43 H 1.07810 -0.72980 -1.00050
H44 H 1.21370 -1.35260 -0.99930
H45 H 1.35710 -0.54260 -1.05030
H46 H 1.38890 -0.74380 -0.92670
H47 H 1.16010 -0.60140 -1.05810
H48 H 1.12030 -0.98060 -1.00120
H49 H 1.25240 -0.94790 -1.00420
H50 H 1.27980 -0.81760 -0.86190
H51 H 1.15420 -0.85410 -0.84560
H52 H 1.20690 -1.14220 -1.03040
H53 H 1.30980 -1.13260 -0.99250
H54 H 1.08540 -0.82530 -0.92470
H55 H 1.43800 -1.13990 -0.84180
H56 H 1.40230 -1.05150 -0.80080
H57 H 1.47300 -1.01080 -0.84720
O16 O 0.5837(1) -0.4029(1) -0.72408(5)
O17 O 0.4184(1) -0.3816(1) -0.81485(5)
O18 O 0.4536(2) -0.8178(1) -0.7627(1)
O19 O 0.6089(3) -0.7639(2) -0.72205(7)
O20 O 0.4874(1) -0.4703(1) -0.88353(6)
N4 N 0.5247(3) -0.7454(2) -0.74963(9)
C61 C 0.6099(1) -0.3687(1) -0.76553(6)
C62 C 0.6442(1) -0.2458(2) -0.77379(6)
C63 C 0.6142(1) -0.4527(1) -0.81050(6)
C64 C 0.8341(2) -0.7825(2) -0.86066(7)
C65 C 0.6706(1) -0.6660(1) -0.83002(6)
C66 C 0.6256(1) -0.5811(1) -0.79105(6)
C67 C 0.6425(2) -0.8038(2) -0.89724(7)
C68 C 0.6590(2) -0.0524(2) -0.74050(8)
C69 C 0.6235(2) -0.1659(2) -0.73566(7)
C70 C 0.7190(2) -0.4207(1) -0.84347(7)
C71 C 0.7895(1) -0.6991(2) -0.82784(7)
C72 C 0.7151(2) -0.2941(2) -0.86107(6)
C73 C 0.6984(1) -0.2121(2) -0.81881(6)
C74 C 0.7596(2) -0.8351(1) -0.89458(6)
C75 C 0.5976(2) -0.7186(2) -0.86455(8)
C76 C 0.5012(2) -0.4369(1) -0.84148(6)
C77 C 0.7148(2) -0.0167(2) -0.78481(7)
C78 C 0.3078(2) -0.3595(2) -0.84043(9)
C79 C 0.7354(2) -0.0969(2) -0.82272(7)
C80 C 0.5102(2) -0.6243(2) -0.76793(8)
H58 H 0.91480 -0.80360 -0.85910
H59 H 0.59170 -0.83930 -0.92090
H60 H 0.64530 0.00150 -0.71430
H61 H 0.58540 -0.19010 -0.70580
H62 H 0.84080 -0.66350 -0.80440
H63 H 0.78940 -0.89290 -0.91640
H64 H 0.51730 -0.69640 -0.86660
H65 H 0.73870 0.06150 -0.78880
H66 H 0.77540 -0.07260 -0.85210
H67 H 0.78930 -0.43210 -0.82490
H68 H 0.71930 -0.46970 -0.87200
H69 H 0.78670 -0.27610 -0.87770
H70 H 0.65130 -0.28560 -0.88370
H71 H 0.44960 -0.62270 -0.79240
H72 H 0.48950 -0.57540 -0.74080
H73 H 0.68200 -0.57970 -0.76480
H74 H 0.31150 -0.28710 -0.85710
H75 H 0.24530 -0.35850 -0.81680
H76 H 0.29460 -0.41920 -0.86420
#END
