
#######################################################################
#
#                 Cambridge Crystallographic Data Centre
#                                CCDC
#
#######################################################################
#
# If this CIF has been generated from an entry in the Cambridge
# Structural Database, then it will include bibliographic, chemical,
# crystal, experimental, refinement or atomic coordinate data resulting
# from the CCDC's data processing and validation procedures.
#
#######################################################################

data_CSD_CIF_FEPXUV
_audit_creation_date 2013-03-18
_audit_creation_method CSD-ConQuest-V1
_database_code_CSD FEPXUV
_database_code_depnum_ccdc_archive 'CCDC 884219'
_chemical_formula_sum 'C26 H21 N5 O5'
_chemical_formula_moiety
;
C26 H21 N5 O5
;
_journal_coden_Cambridge 1088
_journal_volume 23
_journal_year 2012
_journal_page_first 2274
_journal_name_full 'Synlett '
loop_
_publ_author_name
"Haohua Jie"
"Jian Li"
"Chunju Li"
"Xueshun Jia"
_chemical_name_systematic
;
Ethyl 
5,5-dicyano-4-((2,6-dimethylphenyl)imino)-1'-methyl-5'-nitro-2'-oxo-1',2'-dihy
drospiro[cyclopent-2-ene-1,3'-indole]-2-carboxylate
;
_cell_volume   2399.373
_exptl_crystal_density_diffrn 1.339
_diffrn_ambient_temperature 296
#These two values have been output from a single CSD field.
_refine_ls_R_factor_gt 0.086
_refine_ls_wR_factor_gt 0.086
_symmetry_cell_setting monoclinic
_symmetry_space_group_name_H-M 'P 21/c'
_symmetry_Int_Tables_number 14
loop_
_symmetry_equiv_pos_site_id
_symmetry_equiv_pos_as_xyz
1 x,y,z
2 -x,1/2+y,1/2-z
3 -x,-y,-z
4 x,-1/2-y,-1/2+z
_cell_length_a 9.57(3)
_cell_length_b 17.31(4)
_cell_length_c 14.61(4)
_cell_angle_alpha 90
_cell_angle_beta 97.53(4)
_cell_angle_gamma 90
_cell_formula_units_Z 4
loop_
_atom_type_symbol
_atom_type_radius_bond
C 0.68
H 0.23
N 0.68
O 0.68
loop_
_atom_site_label
_atom_site_type_symbol
_atom_site_fract_x
_atom_site_fract_y
_atom_site_fract_z
C1 C 0.3631(5) 0.4767(3) 0.4098(4)
C2 C 0.3312(5) 0.4008(3) 0.4194(3)
H1 H 0.36470 0.36300 0.38260
C3 C 0.2481(4) 0.3825(3) 0.4852(3)
C4 C 0.1924(4) 0.3078(3) 0.5149(3)
C5 C 0.0941(5) 0.3342(4) 0.5845(4)
C6 C 0.1991(5) 0.4410(3) 0.5381(3)
C7 C 0.2310(5) 0.5154(3) 0.5282(4)
H2 H 0.19730 0.55340 0.56450
C8 C 0.3165(6) 0.5338(3) 0.4614(4)
H3 H 0.34140 0.58490 0.45230
C9 C 0.0500(5) 0.4523(4) 0.6679(4)
H4 H -0.00690 0.41800 0.69910
H5 H -0.00790 0.49290 0.63870
H6 H 0.12260 0.47420 0.71190
C10 C 0.3066(4) 0.2506(3) 0.5650(3)
C11 C 0.2639(4) 0.1715(3) 0.5231(3)
C12 C 0.1552(4) 0.1853(3) 0.4474(3)
H7 H 0.11740 0.14720 0.40660
C13 C 0.1152(4) 0.2580(3) 0.4424(3)
C14 C -0.0032(5) 0.2909(4) 0.3802(4)
C15 C -0.1893(6) 0.2646(4) 0.2642(4)
H8 H -0.18250 0.24620 0.20220
H9 H -0.19230 0.32060 0.26320
C16 C -0.3208(8) 0.2318(9) 0.2996(9)
H10 H -0.34670 0.18400 0.26870
H11 H -0.39700 0.26800 0.28740
H12 H -0.30130 0.22290 0.36490
C17 C 0.4493(5) 0.2682(3) 0.5406(4)
C18 C 0.3123(5) 0.2487(3) 0.6639(4)
C19 C 0.2828(4) 0.0397(3) 0.5165(3)
C20 C 0.3323(5) 0.0184(3) 0.4340(4)
C21 C 0.3019(6) -0.0531(4) 0.4014(4)
H13 H 0.33400 -0.06850 0.34680
C22 C 0.2248(7) -0.1036(4) 0.4465(5)
H14 H 0.20570 -0.15300 0.42290
C23 C 0.1766(6) -0.0816(4) 0.5252(5)
H15 H 0.12280 -0.11610 0.55470
C24 C 0.2042(5) -0.0108(3) 0.5627(4)
C25 C 0.4196(6) 0.0729(4) 0.3862(4)
H16 H 0.46930 0.04470 0.34400
H17 H 0.48600 0.09850 0.43110
H18 H 0.35950 0.11060 0.35270
C26 C 0.1559(6) 0.0130(4) 0.6510(5)
H19 H 0.11370 -0.03040 0.67780
H20 H 0.08790 0.05380 0.63950
H21 H 0.23500 0.03100 0.69280
N1 N 0.4575(5) 0.4974(4) 0.3436(4)
N2 N 0.1136(4) 0.4098(3) 0.5989(3)
N3 N 0.5573(5) 0.2783(3) 0.5232(4)
N4 N 0.3163(6) 0.2466(3) 0.7422(4)
N5 N 0.3208(4) 0.1123(3) 0.5573(3)
O1 O 0.4884(5) 0.5643(3) 0.3355(3)
O2 O 0.5044(5) 0.4465(3) 0.3014(3)
O3 O 0.0181(4) 0.2921(2) 0.6203(3)
O4 O -0.0704(3) 0.2375(2) 0.3282(3)
O5 O -0.0337(4) 0.3565(3) 0.3817(3)
#END
