
#######################################################################
#
#                 Cambridge Crystallographic Data Centre
#                                CCDC
#
#######################################################################
#
# If this CIF has been generated from an entry in the Cambridge
# Structural Database, then it will include bibliographic, chemical,
# crystal, experimental, refinement or atomic coordinate data resulting
# from the CCDC's data processing and validation procedures.
#
#######################################################################

data_CSD_CIF_FEQCEL
_audit_creation_date 2013-03-18
_audit_creation_method CSD-ConQuest-V1
_database_code_CSD FEQCEL
_database_code_depnum_ccdc_archive 'CCDC 885288'
_chemical_formula_sum 'C26 H23 N1 O4'
_chemical_formula_moiety
;
C26 H23 N1 O4
;
_journal_coden_Cambridge 1088
_journal_volume 23
_journal_year 2012
_journal_page_first 2653
_journal_name_full 'Synlett '
loop_
_publ_author_name
"A.Rincon"
"V.Carmona"
"M.R.Torres"
"A.G.Csaky"
_chemical_name_systematic
;
(1'S*,2'S*,3'R*,1''R*)-2-(2-Benzoyl-3-(1-nitroethyl)indan-1-yl)-1-phenylethano
ne
;
_cell_volume   2138.750
_exptl_crystal_colour 'colorless'
_exptl_crystal_density_diffrn 1.284
_exptl_crystal_description 'prismatic'
_diffrn_ambient_temperature 296
#These two values have been output from a single CSD field.
_refine_ls_R_factor_gt 0.0506
_refine_ls_wR_factor_gt 0.0506
loop_
_citation_database_id_CSD
_citation_special_details
FEQCAH "is a stereoisomer of this entry"
_symmetry_cell_setting monoclinic
_symmetry_space_group_name_H-M 'P 21/n'
_symmetry_Int_Tables_number 14
loop_
_symmetry_equiv_pos_site_id
_symmetry_equiv_pos_as_xyz
1 x,y,z
2 1/2-x,1/2+y,1/2-z
3 -x,-y,-z
4 -1/2+x,-1/2-y,-1/2+z
_cell_length_a 9.1112(12)
_cell_length_b 10.8371(14)
_cell_length_c 21.707(3)
_cell_angle_alpha 90
_cell_angle_beta 93.745(2)
_cell_angle_gamma 90
_cell_formula_units_Z 4
loop_
_atom_type_symbol
_atom_type_radius_bond
C 0.68
H 0.23
N 0.68
O 0.68
loop_
_atom_site_label
_atom_site_type_symbol
_atom_site_fract_x
_atom_site_fract_y
_atom_site_fract_z
C1 C 0.4721(3) 0.9175(3) 0.78748(14)
H1 H 0.42330 0.97020 0.81660
C2 C 0.3625(3) 0.8879(3) 0.73175(13)
H2 H 0.39750 0.81310 0.71200
N1 N 0.1186(4) 0.8081(4) 0.69528(17)
O1 O 0.0044(3) 0.8596(3) 0.67729(14)
C3 C 0.5968(3) 0.9918(3) 0.75921(13)
H3 H 0.66980 0.93380 0.74500
O2 O 0.1673(3) 0.7160(3) 0.67252(14)
O3 O 0.5733(3) 0.7178(2) 0.78998(11)
C4 C 0.5174(3) 1.0522(3) 0.70330(14)
O4 O 0.7936(2) 0.9271(2) 0.86059(11)
C5 C 0.5630(4) 1.1482(3) 0.66851(15)
H4 H 0.65240 1.18680 0.67880
C6 C 0.4754(4) 1.1876(3) 0.61793(16)
H5 H 0.50570 1.25320 0.59420
C7 C 0.3442(4) 1.1303(4) 0.60274(16)
H6 H 0.28650 1.15670 0.56830
C8 C 0.2962(3) 1.0337(3) 0.63779(15)
H7 H 0.20650 0.99570 0.62750
C9 C 0.3839(3) 0.9943(3) 0.68856(14)
C10 C 0.2079(3) 0.8617(3) 0.75128(16)
H8 H 0.21650 0.79670 0.78270
C11 C 0.1267(4) 0.9633(4) 0.77716(18)
H9 H 0.11900 1.03010 0.74810
H10 H 0.17780 0.99110 0.81470
H11 H 0.03010 0.93570 0.78570
C12 C 0.5238(4) 0.8007(4) 0.81993(19)
C13 C 0.5127(4) 0.7836(4) 0.88739(19)
C14 C 0.4464(5) 0.8666(4) 0.9245(2)
H12 H 0.40790 0.93920 0.90730
C15 C 0.4354(6) 0.8453(6) 0.9868(2)
H13 H 0.38960 0.90300 1.01080
C16 C 0.4912(7) 0.7403(8) 1.0129(3)
H14 H 0.48140 0.72460 1.05460
C17 C 0.5618(6) 0.6580(7) 0.9777(3)
H15 H 0.60430 0.58790 0.99600
C18 C 0.5713(4) 0.6774(4) 0.9151(2)
H16 H 0.61700 0.61900 0.89150
C19 C 0.6751(3) 1.0865(3) 0.80136(14)
H17 H 0.72820 1.14260 0.77600
H18 H 0.60110 1.13450 0.82090
C20 C 0.7810(3) 1.0365(4) 0.85097(16)
C21 C 0.8716(3) 1.1273(3) 0.88827(15)
C22 C 0.9908(4) 1.0862(4) 0.92634(16)
H19 H 1.01170 1.00230 0.92880
C23 C 1.0779(4) 1.1684(5) 0.9603(2)
H20 H 1.15820 1.13960 0.98480
C24 C 1.0483(5) 1.2899(5) 0.95846(18)
H21 H 1.10730 1.34460 0.98200
C25 C 0.9309(4) 1.3334(4) 0.92183(17)
H22 H 0.91040 1.41740 0.92040
C26 C 0.8438(4) 1.2518(4) 0.88720(15)
H23 H 0.76430 1.28180 0.86250
#END
