
#######################################################################
#
#                 Cambridge Crystallographic Data Centre
#                                CCDC
#
#######################################################################
#
# If this CIF has been generated from an entry in the Cambridge
# Structural Database, then it will include bibliographic, chemical,
# crystal, experimental, refinement or atomic coordinate data resulting
# from the CCDC's data processing and validation procedures.
#
#######################################################################

data_CSD_CIF_FEQMAR
_audit_creation_date 2013-04-04
_audit_creation_method CSD-ConQuest-V1
_database_code_CSD FEQMAR
_database_code_depnum_ccdc_archive 'CCDC 915080'
_chemical_formula_sum 'C23 H19 N1 O5'
_chemical_formula_moiety
;
C23 H19 N1 O5
;
_journal_coden_Cambridge 1220
_journal_volume 18
_journal_year 2012
_journal_page_first 15113
_journal_name_full 'Chem.-Eur.J. '
loop_
_publ_author_name
"Wenbo Li"
"Yuying Li"
"Guanghua Zhou"
"Xiangshu Wu"
"Junliang Zhang"
_chemical_name_systematic
;
Methyl 
7a-methyl-2-(4-nitrophenyl)-7-phenyl-7,7a-dihydro-1-benzofuran-4-carboxylate
;
_cell_volume    956.501
_exptl_crystal_colour 'red'
_exptl_crystal_density_diffrn 1.352
_exptl_crystal_description 'block'
_diffrn_ambient_temperature 296
#These two values have been output from a single CSD field.
_refine_ls_R_factor_gt 0.0348
_refine_ls_wR_factor_gt 0.0348
_symmetry_cell_setting triclinic
_symmetry_space_group_name_H-M 'P -1'
_symmetry_Int_Tables_number 2
loop_
_symmetry_equiv_pos_site_id
_symmetry_equiv_pos_as_xyz
1 x,y,z
2 -x,-y,-z
_cell_length_a 8.7287(3)
_cell_length_b 10.0945(4)
_cell_length_c 11.9230(5)
_cell_angle_alpha 106.860(1)
_cell_angle_beta 94.569(1)
_cell_angle_gamma 105.171(1)
_cell_formula_units_Z 2
loop_
_atom_type_symbol
_atom_type_radius_bond
C 0.68
H 0.23
N 0.68
O 0.68
loop_
_atom_site_label
_atom_site_type_symbol
_atom_site_fract_x
_atom_site_fract_y
_atom_site_fract_z
O1 O 0.38547(14) 0.27986(11) 0.61269(9)
O2 O 0.57212(13) 0.30905(11) 0.76482(10)
O3 O -0.11153(18) 0.88877(17) 0.24920(14)
O4 O -0.19622(16) 0.65977(17) 0.15526(12)
O5 O 0.40617(11) 0.79641(10) 0.65937(8)
N1 N -0.11170(17) 0.76450(18) 0.23662(13)
C1 C 0.26681(19) 0.88182(17) 0.87702(13)
H1 H 0.30510 0.94710 0.83710
C2 C 0.1192(2) 0.8715(2) 0.91267(15)
H2 H 0.05820 0.92840 0.89570
C3 C 0.0620(2) 0.7768(2) 0.97345(16)
H3 H -0.03710 0.77050 0.99860
C4 C 0.1520(2) 0.6922(2) 0.99655(17)
H4 H 0.11360 0.62820 1.03760
C5 C 0.29932(19) 0.70106(18) 0.95930(14)
H5 H 0.35850 0.64200 0.97470
C6 C 0.35981(16) 0.79668(14) 0.89944(11)
C7 C 0.52485(16) 0.81303(14) 0.86140(11)
H6 H 0.58430 0.91660 0.88890
C8 C 0.62165(16) 0.73653(16) 0.91700(12)
H7 H 0.68220 0.78520 0.99260
C9 C 0.62288(17) 0.60217(16) 0.86123(12)
H8 H 0.68670 0.56070 0.89780
C10 C 0.52619(16) 0.51775(14) 0.74356(12)
C11 C 0.46396(15) 0.59103(14) 0.68168(11)
C12 C 0.52176(16) 0.75453(14) 0.72688(11)
C13 C 0.31568(16) 0.67366(15) 0.57177(11)
C14 C 0.34495(16) 0.55148(15) 0.57947(11)
H9 H 0.29600 0.45810 0.52730
C15 C 0.20262(17) 0.69546(15) 0.48650(12)
C16 C 0.1912(2) 0.83345(18) 0.49936(14)
H10 H 0.25320 0.91140 0.56400
C17 C 0.0892(2) 0.85668(19) 0.41752(15)
H11 H 0.08330 0.94960 0.42550
C18 C -0.00368(17) 0.73933(18) 0.32383(13)
C19 C 0.00305(19) 0.60085(18) 0.30887(14)
H12 H -0.06140 0.52310 0.24510
C20 C 0.10719(19) 0.57958(17) 0.39029(13)
H13 H 0.11380 0.48660 0.38090
C21 C 0.48480(17) 0.35918(15) 0.69850(12)
C22 C 0.5378(2) 0.15436(17) 0.72932(17)
H14 H 0.60580 0.12950 0.78210
H15 H 0.55750 0.11900 0.64960
H16 H 0.42700 0.11100 0.73250
C23 C 0.68577(18) 0.81282(16) 0.69377(13)
H17 H 0.67980 0.77440 0.60930
H18 H 0.76510 0.78390 0.73340
H19 H 0.71550 0.91680 0.71780
#END
