
#######################################################################
#
#                 Cambridge Crystallographic Data Centre
#                                CCDC
#
#######################################################################
#
# If this CIF has been generated from an entry in the Cambridge
# Structural Database, then it will include bibliographic, chemical,
# crystal, experimental, refinement or atomic coordinate data resulting
# from the CCDC's data processing and validation procedures.
#
#######################################################################

data_CSD_CIF_FERQEY
_audit_creation_date 1999-07-29
_audit_creation_method CSD-ConQuest-V1
_database_code_CSD FERQEY
_database_code_depnum_ccdc_archive 'CCDC 112081'
_database_code_depnum_ccdc_journal 1145/136
_chemical_formula_sum 'C14 H17 N2 O4'
_chemical_formula_moiety
;
C14 H17 N2 O4
;
_journal_coden_Cambridge 1145
_journal_volume 9
_journal_year 1999
_journal_page_first 875
_journal_name_full 'J.Mater.Chem. '
loop_
_publ_author_name
"C.Stroh"
"F.M.Romero"
"N.Kyritsakas"
"L.Catala"
"P.Turek"
"R.Ziessel"
_chemical_name_systematic
;
2-(2-Carboxyphenyl)-4,4,5,5-tetramethyl-4,5-dihydro-3-oxido-1H-imidazol-3-ium-
1-yloxyl
;
_chemical_melting_point 379.15
_cell_volume   2833.112
_exptl_crystal_colour 'dark green'
_exptl_crystal_density_diffrn 1.3
_exptl_special_details
;
Melting point range 379.15-380.15K

;
_exptl_crystal_description 'prism'
_diffrn_ambient_temperature ?
_diffrn_special_details
;
The study was carried out at room temperature,in the range 283-303K

;
#These two values have been output from a single CSD field.
_refine_ls_R_factor_gt 0.035
_refine_ls_wR_factor_gt 0.035
_symmetry_cell_setting monoclinic
_symmetry_space_group_name_H-M 'C c'
_symmetry_Int_Tables_number 9
loop_
_symmetry_equiv_pos_site_id
_symmetry_equiv_pos_as_xyz
1 x,y,z
2 x,-y,1/2+z
3 1/2+x,1/2+y,z
4 1/2+x,1/2-y,1/2+z
_cell_length_a 25.458(2)
_cell_length_b 7.6775(6)
_cell_length_c 15.1702(5)
_cell_angle_alpha 90
_cell_angle_beta 107.158(4)
_cell_angle_gamma 90
_cell_formula_units_Z 8
loop_
_atom_type_symbol
_atom_type_radius_bond
C 0.68
H 0.23
N 0.68
O 0.68
loop_
_atom_site_label
_atom_site_type_symbol
_atom_site_fract_x
_atom_site_fract_y
_atom_site_fract_z
C1 C 0.26390 0.1361(3) 0.60890
N1 N 0.27160(9) 0.1573(3) 0.5274(1)
O1 O 0.28724(8) 0.3014(3) 0.4978(1)
C2 C 0.2529(1) 0.0038(4) 0.4649(2)
C3 C 0.2502(1) -0.1396(4) 0.5367(2)
N2 N 0.24621(9) -0.0273(3) 0.6158(1)
O2 O 0.2335(1) -0.0884(3) 0.6848(1)
C4 C 0.2937(2) -0.0310(5) 0.4116(2)
C5 C 0.1970(2) 0.0544(5) 0.3992(2)
C6 C 0.3033(2) -0.2423(5) 0.5724(3)
C7 C 0.2010(2) -0.2591(5) 0.5077(3)
C8 C 0.2780(1) 0.2662(3) 0.6834(2)
C9 C 0.2386(1) 0.3618(4) 0.7104(2)
C10 C 0.2560(1) 0.4839(4) 0.7807(2)
C11 C 0.3110(2) 0.5106(5) 0.8229(2)
C12 C 0.3497(1) 0.4128(5) 0.7983(2)
C13 C 0.3334(1) 0.2915(4) 0.7285(2)
C14 C 0.1788(1) 0.3335(4) 0.6627(2)
O3 O 0.16108(8) 0.2701(3) 0.5878(2)
O4 O 0.1473(1) 0.3851(4) 0.7134(2)
C15 C 0.5141(1) 0.1083(4) 0.7247(2)
N3 N 0.52397(9) -0.0596(3) 0.7173(2)
O5 O 0.54122(9) -0.1285(3) 0.6527(1)
C16 C 0.5051(1) -0.1698(4) 0.7835(2)
C17 C 0.4999(1) -0.0298(4) 0.8546(2)
N4 N 0.4959(1) 0.1331(3) 0.7985(2)
O6 O 0.4813(1) 0.2795(3) 0.8234(2)
C18 C 0.5461(2) -0.3138(5) 0.8202(3)
C19 C 0.4504(2) -0.2469(6) 0.7270(3)
C20 C 0.5516(3) -0.0120(6) 0.9360(3)
C21 C 0.4500(2) -0.0461(6) 0.8884(3)
C22 C 0.5255(1) 0.2458(4) 0.6659(2)
C23 C 0.4833(1) 0.3339(4) 0.6006(2)
C24 C 0.4969(1) 0.4657(4) 0.5489(2)
C25 C 0.5517(1) 0.5089(4) 0.5606(2)
C26 C 0.5925(1) 0.4228(5) 0.6245(2)
C27 C 0.5797(1) 0.2914(4) 0.6771(2)
C28 C 0.4252(1) 0.2791(4) 0.5849(2)
O7 O 0.3892(1) 0.3991(3) 0.5439(2)
O8 O 0.41208(8) 0.1379(3) 0.6063(1)
H1 H 0.28180 -0.12830 0.37210
H2 H 0.29610 0.06850 0.37580
H3 H 0.32880 -0.05510 0.45370
H4 H 0.18310 -0.03890 0.35780
H5 H 0.17220 0.07850 0.43370
H6 H 0.20090 0.15510 0.36530
H7 H 0.29920 -0.32710 0.61550
H8 H 0.31150 -0.29880 0.52220
H9 H 0.33250 -0.16530 0.60160
H10 H 0.20280 -0.34150 0.55520
H11 H 0.16830 -0.19250 0.49680
H12 H 0.20110 -0.31860 0.45280
H13 H 0.22960 0.54930 0.79980
H14 H 0.32240 0.59720 0.86930
H15 H 0.38770 0.42880 0.82950
H16 H 0.36020 0.22500 0.71110
H17 H 0.54610 -0.39180 0.77160
H18 H 0.58180 -0.26520 0.84470
H19 H 0.53620 -0.37500 0.86740
H20 H 0.43610 -0.31890 0.76540
H21 H 0.42520 -0.15550 0.70250
H22 H 0.45580 -0.31440 0.67790
H23 H 0.55590 -0.11290 0.97370
H24 H 0.58270 0.00020 0.91390
H25 H 0.54860 0.08790 0.97110
H26 H 0.45280 -0.14950 0.92390
H27 H 0.44800 0.05180 0.92550
H28 H 0.41780 -0.05100 0.83700
H29 H 0.46860 0.52730 0.50510
H30 H 0.56060 0.59820 0.52410
H31 H 0.62980 0.45320 0.63290
H32 H 0.60840 0.23190 0.72120
#END
