
#######################################################################
#
#                 Cambridge Crystallographic Data Centre
#                                CCDC
#
#######################################################################
#
# If this CIF has been generated from an entry in the Cambridge
# Structural Database, then it will include bibliographic, chemical,
# crystal, experimental, refinement or atomic coordinate data resulting
# from the CCDC's data processing and validation procedures.
#
#######################################################################

data_CSD_CIF_FERQAU
_audit_creation_date 1999-07-29
_audit_creation_method CSD-ConQuest-V1
_database_code_CSD FERQAU
_database_code_depnum_ccdc_archive 'CCDC 112080'
_database_code_depnum_ccdc_journal 1145/136
_chemical_formula_sum 'C14 H17 N2 O3'
_chemical_formula_moiety
;
C14 H17 N2 O3
;
_journal_coden_Cambridge 1145
_journal_volume 9
_journal_year 1999
_journal_page_first 875
_journal_name_full 'J.Mater.Chem. '
loop_
_publ_author_name
"C.Stroh"
"F.M.Romero"
"N.Kyritsakas"
"L.Catala"
"P.Turek"
"R.Ziessel"
_chemical_name_systematic
;
2-(3-Carboxyphenyl)-4,4,5,5-tetramethyl-4,5-dihydro-1H-imidazol-1-yloxyl
;
_chemical_melting_point 439.15
_cell_volume   1347.063
_exptl_crystal_colour 'red'
_exptl_crystal_density_diffrn 1.29
_exptl_special_details
;
Melts with decomposition.

;
_exptl_crystal_description 'prism'
_exptl_crystal_preparation 'diethyl ether/pentane'
_diffrn_ambient_temperature ?
_diffrn_special_details
;
The study was carried out at room temperature,in the range 283-303K

;
#These two values have been output from a single CSD field.
_refine_ls_R_factor_gt 0.043
_refine_ls_wR_factor_gt 0.043
_symmetry_cell_setting monoclinic
_symmetry_space_group_name_H-M 'P 21/n'
_symmetry_Int_Tables_number 14
loop_
_symmetry_equiv_pos_site_id
_symmetry_equiv_pos_as_xyz
1 x,y,z
2 1/2+x,1/2-y,1/2+z
3 -x,-y,-z
4 -1/2-x,-1/2+y,-1/2-z
_cell_length_a 6.916(2)
_cell_length_b 20.003(6)
_cell_length_c 10.165(3)
_cell_angle_alpha 90
_cell_angle_beta 106.68(2)
_cell_angle_gamma 90
_cell_formula_units_Z 4
loop_
_atom_type_symbol
_atom_type_radius_bond
C 0.68
H 0.23
N 0.68
O 0.68
loop_
_atom_site_label
_atom_site_type_symbol
_atom_site_fract_x
_atom_site_fract_y
_atom_site_fract_z
C1 C 0.1678(4) 0.0692(1) 0.6824(2)
N1 N 0.1775(3) 0.0906(1) 0.5530(2)
O1 O 0.2553(3) 0.0587(1) 0.4734(2)
C2 C 0.0915(4) 0.1594(1) 0.5265(3)
C3 C -0.0450(4) 0.1577(1) 0.6230(3)
N2 N 0.0560(3) 0.1079(1) 0.7312(2)
C4 C 0.2688(4) 0.2076(1) 0.5739(3)
C5 C -0.0135(5) 0.1686(2) 0.3744(3)
C6 C -0.2535(4) 0.1290(2) 0.5548(3)
C7 C -0.0654(5) 0.2239(1) 0.6904(3)
C8 C 0.2813(4) 0.0110(1) 0.7540(2)
C9 C 0.4617(4) -0.0101(1) 0.7319(2)
C10 C 0.5712(4) -0.0608(1) 0.8101(3)
C11 C 0.5048(4) -0.0914(1) 0.9112(3)
C12 C 0.3239(4) -0.0722(1) 0.9318(2)
C13 C 0.2122(4) -0.0211(1) 0.8529(2)
C14 C 0.2550(4) -0.1048(1) 1.0425(3)
O2 O 0.3577(3) -0.14324(9) 1.1239(2)
O3 O 0.0700(3) -0.0869(1) 1.0411(2)
H1 H 0.03120 -0.11140 1.11600
H2 H 0.22100 0.25230 0.55890
H3 H 0.33330 0.20110 0.66890
H4 H 0.36260 0.19960 0.52330
H5 H -0.06750 0.21250 0.35860
H6 H 0.08100 0.16210 0.32370
H7 H -0.11960 0.13690 0.34560
H8 H -0.32570 0.15850 0.48460
H9 H -0.24030 0.08670 0.51580
H10 H -0.32470 0.12390 0.62140
H11 H -0.12960 0.25540 0.62180
H12 H -0.14460 0.21780 0.75200
H13 H 0.06440 0.23980 0.73940
H14 H 0.50890 0.01060 0.66280
H15 H 0.69370 -0.07510 0.79440
H16 H 0.58360 -0.12550 0.96650
H17 H 0.08720 -0.00810 0.86660
#END
