
#######################################################################
#
#                 Cambridge Crystallographic Data Centre
#                                CCDC
#
#######################################################################
#
# If this CIF has been generated from an entry in the Cambridge
# Structural Database, then it will include bibliographic, chemical,
# crystal, experimental, refinement or atomic coordinate data resulting
# from the CCDC's data processing and validation procedures.
#
#######################################################################

data_CSD_CIF_FERYOS
_audit_creation_date 2013-05-19
_audit_creation_method CSD-ConQuest-V1
_database_code_CSD FERYOS
_database_code_depnum_ccdc_archive 'CCDC 903998'
_chemical_formula_sum 'C26 H25 N1 O1'
_chemical_formula_moiety
;
C26 H25 N1 O1
;
_journal_coden_Cambridge 179
_journal_volume 51
_journal_year 2012
_journal_page_first 7835
_journal_name_full 'Angew.Chem.,Int.Ed. '
loop_
_publ_author_name
"S.A.Gawade"
"S.Bhunia"
"Rai-Shung Liu"
_chemical_name_systematic
;
(4S,10aS)-1,1-Dimethyl-3,4-diphenyl-3,4,10,10a-tetrahydro-1H-indeno[1,2-e][1,2
]oxazepine
;
_cell_volume   4129.269
_exptl_crystal_colour 'colorless'
_exptl_crystal_density_diffrn 1.182
_exptl_crystal_description 'columnar'
_diffrn_ambient_temperature 296
#These two values have been output from a single CSD field.
_refine_ls_R_factor_gt 0.0498
_refine_ls_wR_factor_gt 0.0498
_symmetry_cell_setting monoclinic
_symmetry_space_group_name_H-M 'P 21/n'
_symmetry_Int_Tables_number 14
loop_
_symmetry_equiv_pos_site_id
_symmetry_equiv_pos_as_xyz
1 x,y,z
2 1/2-x,1/2+y,1/2-z
3 -x,-y,-z
4 -1/2+x,-1/2-y,-1/2+z
_cell_length_a 22.627(5)
_cell_length_b 7.8396(19)
_cell_length_c 24.669(6)
_cell_angle_alpha 90
_cell_angle_beta 109.330(5)
_cell_angle_gamma 90
_cell_formula_units_Z 8
loop_
_atom_type_symbol
_atom_type_radius_bond
C 0.68
H 0.23
N 0.68
O 0.68
loop_
_atom_site_label
_atom_site_type_symbol
_atom_site_fract_x
_atom_site_fract_y
_atom_site_fract_z
O1 O 0.10809(6) 0.67340(17) 0.11682(5)
N1 N 0.09588(7) 0.7807(2) 0.06746(7)
C1 C 0.20665(11) 0.6578(4) -0.03359(10)
H1 H 0.23070 0.63060 -0.05650
C2 C 0.16256(11) 0.7840(3) -0.05003(10)
H2 H 0.15660 0.84220 -0.08430
C3 C 0.12678(10) 0.8256(3) -0.01597(9)
H3 H 0.09660 0.91070 -0.02760
C4 C 0.13608(9) 0.7401(3) 0.03556(8)
C5 C 0.09798(9) 0.9595(3) 0.08820(9)
H4 H 0.08520 1.03260 0.05400
C6 C 0.04957(9) 0.9812(3) 0.11705(9)
H5 H 0.05060 1.08340 0.13650
C7 C 0.00530(9) 0.8706(3) 0.11785(8)
C8 C -0.04112(9) 0.8938(3) 0.14708(9)
C9 C -0.08107(9) 0.7539(3) 0.13715(9)
C10 C -0.12788(10) 0.7481(4) 0.16174(10)
H6 H -0.15490 0.65510 0.15500
C11 C -0.13429(12) 0.8791(4) 0.19585(11)
H7 H -0.16560 0.87470 0.21250
C12 C 0.18047(10) 0.6124(3) 0.05151(9)
H8 H 0.18700 0.55370 0.08580
C13 C 0.21526(11) 0.5716(4) 0.01671(10)
H9 H 0.24480 0.48470 0.02760
C14 C -0.00555(9) 0.6952(3) 0.08980(9)
H10 H -0.01360 0.70970 0.04850
C15 C 0.05149(9) 0.5784(3) 0.11388(9)
C16 C 0.04687(11) 0.4247(3) 0.07530(11)
H11 H 0.04730 0.46190 0.03840
H12 H 0.00860 0.36460 0.07080
H13 H 0.08180 0.35020 0.09230
C17 C 0.06445(12) 0.5276(3) 0.17586(10)
H14 H 0.10460 0.47320 0.19020
H15 H 0.03260 0.45000 0.17840
H16 H 0.06430 0.62740 0.19840
C18 C -0.06598(11) 0.6270(4) 0.09847(11)
H17 H -0.09980 0.61960 0.06200
H18 H -0.05900 0.51490 0.11610
C19 C -0.04821(10) 1.0278(3) 0.18142(10)
H19 H -0.02210 1.12260 0.18780
C20 C -0.09485(12) 1.0170(4) 0.20579(10)
H20 H -0.09960 1.10470 0.22940
C21 C 0.16244(9) 1.0196(3) 0.12530(9)
C22 C 0.18952(11) 0.9631(3) 0.18109(10)
H21 H 0.16780 0.88690 0.19650
C23 C 0.24849(12) 1.0182(4) 0.21435(11)
H22 H 0.26630 0.97810 0.25170
C24 C 0.28056(12) 1.1313(4) 0.19238(13)
H23 H 0.32020 1.16840 0.21480
C25 C 0.25452(12) 1.1896(4) 0.13777(13)
H24 H 0.27620 1.26740 0.12300
C26 C 0.19597(10) 1.1337(3) 0.1041(1)
H25 H 0.17890 1.17350 0.06660
O2 O 0.02416(6) 0.67231(18) 0.38355(5)
N2 N 0.04642(7) 0.7808(2) 0.43265(7)
C27 C 0.23032(11) 0.6611(4) 0.53529(10)
H26 H 0.27080 0.63440 0.55860
C28 C 0.19715(11) 0.7877(3) 0.55104(10)
H27 H 0.21540 0.84680 0.58520
C29 C 0.1371(1) 0.8279(3) 0.51672(9)
H28 H 0.11490 0.91270 0.52800
C30 C 0.10971(9) 0.7416(3) 0.46513(8)
C31 C 0.03329(9) 0.9583(3) 0.41135(9)
H29 H 0.04410 1.03220 0.44530
C32 C -0.03602(9) 0.9790(3) 0.38091(9)
H30 H -0.04870 1.08050 0.36090
C33 C -0.08087(9) 0.8685(3) 0.37951(8)
C34 C -0.14855(9) 0.8928(3) 0.35023(8)
C35 C -0.1805(1) 1.0258(3) 0.31633(9)
H31 H -0.15870 1.11910 0.30920
C36 C -0.24496(11) 1.0190(4) 0.29303(10)
H32 H -0.26670 1.10750 0.26980
C37 C -0.27744(11) 0.8811(4) 0.30414(10)
H33 H -0.32090 0.87790 0.28850
C38 C 0.20314(10) 0.5753(4) 0.48507(10)
H34 H 0.22530 0.48910 0.47440
C39 C 0.14312(10) 0.6144(3) 0.44970(9)
H35 H 0.12530 0.55480 0.41560
C40 C -0.03049(10) 0.5770(3) 0.38534(9)
C41 C -0.07154(9) 0.6941(3) 0.4079(1)
H36 H -0.05060 0.71010 0.44920
C42 C 0.07221(9) 1.0188(3) 0.37516(9)
C43 C 0.06112(11) 0.9591(3) 0.32007(10)
H37 H 0.02890 0.88150 0.30430
C44 C 0.09736(12) 1.0136(4) 0.28831(11)
H38 H 0.09010 0.97020 0.25160
C45 C 0.14378(12) 1.1305(4) 0.31016(13)
H39 H 0.16770 1.16790 0.28820
C46 C 0.15511(11) 1.1927(4) 0.36449(13)
H40 H 0.18660 1.27290 0.37950
C47 C 0.1197(1) 1.1363(3) 0.39698(11)
H41 H 0.12790 1.17790 0.43410
C48 C -0.24619(11) 0.7496(4) 0.33793(10)
H42 H -0.26830 0.65790 0.34550
C49 C -0.1814(1) 0.7532(3) 0.36087(9)
C50 C -0.13831(10) 0.6236(4) 0.39864(12)
H43 H -0.14390 0.51300 0.38000
H44 H -0.14590 0.61280 0.43500
C51 C -0.00832(12) 0.4229(3) 0.42411(11)
H45 H 0.01480 0.34810 0.40770
H46 H -0.04390 0.36340 0.42780
H47 H 0.01810 0.45990 0.46130
C52 C -0.06089(12) 0.5258(4) 0.32294(10)
H48 H -0.07610 0.62580 0.30010
H49 H -0.09520 0.44980 0.31960
H50 H -0.03060 0.46950 0.30960
#END
