
#######################################################################
#
#                 Cambridge Crystallographic Data Centre
#                                CCDC
#
#######################################################################
#
# If this CIF has been generated from an entry in the Cambridge
# Structural Database, then it will include bibliographic, chemical,
# crystal, experimental, refinement or atomic coordinate data resulting
# from the CCDC's data processing and validation procedures.
#
#######################################################################

data_CSD_CIF_FESNEW17
_audit_creation_date 2015-06-30
_audit_creation_method CSD-ConQuest-V1
_database_code_CSD FESNEW17
_database_code_depnum_ccdc_archive 'CCDC 1041035'
_chemical_formula_sum 'C7 H6 N2 O5'
_chemical_formula_moiety
;
C7 H6 N2 O5
;
_journal_coden_Cambridge 1350
_journal_volume 17
_journal_year 2015
_journal_page_first 8888
_journal_name_full 'CrystEngComm '
loop_
_publ_author_name
"H.Takahashi"
"R.Tamura"
_chemical_name_systematic
;
2,4-Dinitroanisole
;
_cell_volume    819.968
_exptl_crystal_colour 'pale yellow'
_exptl_crystal_density_diffrn 1.605
_exptl_special_details
;
polymorph 2

;
_exptl_crystal_description 'Platelet'
_diffrn_ambient_temperature 208
#These two values have been output from a single CSD field.
_refine_ls_R_factor_gt 0.0417
_refine_ls_wR_factor_gt 0.0417
_symmetry_cell_setting monoclinic
_symmetry_space_group_name_H-M 'P 21/n'
_symmetry_Int_Tables_number 14
loop_
_symmetry_equiv_pos_site_id
_symmetry_equiv_pos_as_xyz
1 x,y,z
2 1/2-x,1/2+y,1/2-z
3 -x,-y,-z
4 -1/2+x,-1/2-y,-1/2+z
_cell_length_a 3.880(2)
_cell_length_b 13.786(7)
_cell_length_c 15.404(9)
_cell_angle_alpha 90
_cell_angle_beta 95.639(7)
_cell_angle_gamma 90
_cell_formula_units_Z 4
loop_
_atom_type_symbol
_atom_type_radius_bond
C 0.68
H 0.23
N 0.68
O 0.68
loop_
_atom_site_label
_atom_site_type_symbol
_atom_site_fract_x
_atom_site_fract_y
_atom_site_fract_z
C1 C -0.1015(4) 0.18397(10) 0.92650(9)
C2 C -0.0203(4) 0.25794(10) 0.98832(9)
C3 C 0.1112(4) 0.34600(11) 0.96516(10)
H1 H 0.154(4) 0.3938(14) 1.0077(13)
C4 C 0.1603(4) 0.36133(10) 0.87855(10)
C5 C 0.0860(4) 0.29095(12) 0.81586(11)
H2 H 0.117(5) 0.3026(13) 0.7562(13)
C6 C -0.0440(4) 0.20288(12) 0.83955(10)
H3 H -0.093(4) 0.1551(11) 0.7949(11)
C7 C -0.3052(6) 0.02371(13) 0.89037(13)
H4 H -0.475(5) 0.0463(12) 0.8445(13)
H5 H -0.390(5) -0.0272(14) 0.9221(12)
H6 H -0.103(5) 0.0037(12) 0.8645(12)
N1 N -0.0672(4) 0.24486(10) 1.08114(8)
N2 N 0.3017(4) 0.45452(11) 0.85407(9)
O1 O -0.2261(3) 0.09937(8) 0.95334(7)
O2 O -0.2729(4) 0.18488(10) 1.10134(9)
O3 O 0.0947(4) 0.29657(11) 1.13349(8)
O4 O 0.3839(4) 0.46408(10) 0.78009(8)
O5 O 0.3325(5) 0.51895(10) 0.90857(9)
#END
