
#######################################################################
#
#                 Cambridge Crystallographic Data Centre
#                                CCDC
#
#######################################################################
#
# If this CIF has been generated from an entry in the Cambridge
# Structural Database, then it will include bibliographic, chemical,
# crystal, experimental, refinement or atomic coordinate data resulting
# from the CCDC's data processing and validation procedures.
#
#######################################################################

data_CSD_CIF_FESNEW
_audit_creation_date 1988-01-14
_audit_creation_method CSD-ConQuest-V1
_database_code_CSD FESNEW
_database_code_depnum_ccdc_archive 'CCDC 1155005'
_chemical_formula_sum 'C7 H6 N2 O5'
_chemical_formula_moiety
;
C7 H6 N2 O5
;
_journal_coeditor_code "IUCr A26978"
_journal_coden_Cambridge 591
_journal_volume 43
_journal_year 1987
_journal_page_first 686
_journal_name_full 'Acta Crystallogr.,Sect.C:Cryst.Struct.Commun. '
loop_
_publ_author_name
"S.C.Nyburg"
"C.H.Faerman"
"L.Prasad"
"D.Palleros"
"N.Nudelman"
_chemical_name_systematic
;
2,4-Dinitroanisole
;
_cell_volume   1694.299
_exptl_crystal_density_diffrn 1.56
_exptl_special_details
;
polymorph 1

;
_diffrn_ambient_temperature ?
_diffrn_special_details
;
The study was carried out at room temperature,in the range 283-303K

;
_refine_special_details
;
In molecule B, O21 and O22 of a nitro group are disordered. O(B21') and 
O(B22') are not retained.
;
#These two values have been output from a single CSD field.
_refine_ls_R_factor_gt 0.075
_refine_ls_wR_factor_gt 0.075
_symmetry_cell_setting monoclinic
_symmetry_space_group_name_H-M 'P 21/n'
_symmetry_Int_Tables_number 14
loop_
_symmetry_equiv_pos_site_id
_symmetry_equiv_pos_as_xyz
1 x,y,z
2 1/2-x,1/2+y,1/2-z
3 -x,-y,-z
4 -1/2+x,-1/2-y,-1/2+z
_cell_length_a 8.772(2)
_cell_length_b 12.645(2)
_cell_length_c 15.429(4)
_cell_angle_alpha 90
_cell_angle_beta 81.89(2)
_cell_angle_gamma 90
_cell_formula_units_Z 8
loop_
_atom_type_symbol
_atom_type_radius_bond
C 0.68
H 0.23
N 0.68
O 0.68
loop_
_atom_site_label
_atom_site_type_symbol
_atom_site_fract_x
_atom_site_fract_y
_atom_site_fract_z
C1 C 0.8042(5) 0.5758(3) 0.0308(3)
C2 C 0.6935(5) 0.5233(3) 0.0899(3)
C3 C 0.6518(5) 0.5539(3) 0.1745(3)
C4 C 0.7246(5) 0.6430(3) 0.2017(3)
C5 C 0.8359(5) 0.6958(3) 0.1472(3)
C6 C 0.8729(5) 0.6632(4) 0.0620(3)
C7 C 0.9222(7) 0.6061(4) -0.1157(3)
N1 N 0.6165(5) 0.4279(3) 0.06221(22)
N2 N 0.6860(5) 0.6771(3) 0.29306(23)
O1 O 0.8343(4) 0.5403(3) -0.05116(18)
O2 O 0.6856(5) 0.3706(3) 0.00962(22)
O3 O 0.4864(4) 0.4137(3) 0.0939(3)
O4 O 0.5779(4) 0.6363(3) 0.33840(21)
O5 O 0.7647(5) 0.7461(4) 0.31846(24)
H1 H 0.56300 0.51300 0.22000
H2 H 0.90100 0.76100 0.17200
H3 H 0.95800 0.70300 0.01800
H4 H 0.89800 0.56900 -0.17800
H5 H 0.88500 0.68700 -0.11800
H6 H 1.04600 0.60300 -0.11800
C8 C 0.2832(5) 0.0763(3) 0.1358(3)
C9 C 0.2325(5) 0.0045(3) 0.0776(3)
C10 C 0.2741(5) 0.0118(4) -0.0114(3)
C11 C 0.3695(5) 0.0921(3) -0.0426(3)
C12 C 0.4232(5) 0.1656(3) 0.0115(3)
C13 C 0.3786(5) 0.1577(3) 0.1007(3)
C14 C 0.2809(6) 0.1427(4) 0.2806(3)
N3 N 0.1298(5) -0.0821(3) 0.10823(24)
N4 N 0.4173(4) 0.0986(3) -0.13823(22)
O6 O 0.2376(4) 0.0628(3) 0.22154(17)
O7 O 0.0298(8) -0.1031(5) 0.0586(4)
O8 O 0.1187(11) -0.1118(6) 0.1833(4)
O9 O 0.3707(5) 0.0320(3) -0.18430(19)
O10 O 0.5033(4) 0.1701(3) -0.16522(20)
H7 H 0.22800 -0.04400 -0.05600
H8 H 0.49400 0.23000 -0.01500
H9 H 0.43000 0.20900 0.14400
H10 H 0.24200 0.11000 0.34400
H11 H 0.22100 0.22000 0.28100
H12 H 0.40300 0.16000 0.28100
#END
