
#######################################################################
#
#                 Cambridge Crystallographic Data Centre
#                                CCDC
#
#######################################################################
#
# If this CIF has been generated from an entry in the Cambridge
# Structural Database, then it will include bibliographic, chemical,
# crystal, experimental, refinement or atomic coordinate data resulting
# from the CCDC's data processing and validation procedures.
#
#######################################################################

data_CSD_CIF_FESNEW21
_audit_creation_date 2015-06-30
_audit_creation_method CSD-ConQuest-V1
_database_code_CSD FESNEW21
_database_code_depnum_ccdc_archive 'CCDC 1041039'
_chemical_formula_sum 'C7 H6 N2 O5'
_chemical_formula_moiety
;
C7 H6 N2 O5
;
_journal_coden_Cambridge 1350
_journal_volume 17
_journal_year 2015
_journal_page_first 8888
_journal_name_full 'CrystEngComm '
loop_
_publ_author_name
"H.Takahashi"
"R.Tamura"
_chemical_name_systematic
;
2,4-Dinitroanisole
;
_cell_volume    803.538
_exptl_crystal_colour 'pale yellow'
_exptl_crystal_density_diffrn 1.638
_exptl_special_details
;
polymorph 2

;
_exptl_crystal_description 'Platelet'
_diffrn_ambient_temperature 100
#These two values have been output from a single CSD field.
_refine_ls_R_factor_gt 0.0331
_refine_ls_wR_factor_gt 0.0331
_symmetry_cell_setting monoclinic
_symmetry_space_group_name_H-M 'P 21/n'
_symmetry_Int_Tables_number 14
loop_
_symmetry_equiv_pos_site_id
_symmetry_equiv_pos_as_xyz
1 x,y,z
2 1/2-x,1/2+y,1/2-z
3 -x,-y,-z
4 -1/2+x,-1/2-y,-1/2+z
_cell_length_a 3.8139(10)
_cell_length_b 13.823(4)
_cell_length_c 15.349(4)
_cell_angle_alpha 90
_cell_angle_beta 96.777(4)
_cell_angle_gamma 90
_cell_formula_units_Z 4
loop_
_atom_type_symbol
_atom_type_radius_bond
C 0.68
H 0.23
N 0.68
O 0.68
loop_
_atom_site_label
_atom_site_type_symbol
_atom_site_fract_x
_atom_site_fract_y
_atom_site_fract_z
C1 C 0.5950(3) 0.81802(8) 0.07270(8)
C2 C 0.5176(3) 0.74324(8) 0.01057(8)
C3 C 0.3874(3) 0.65451(8) 0.03362(8)
H1 H 0.338(4) 0.6073(11) -0.0083(10)
C4 C 0.3343(3) 0.64012(8) 0.12034(8)
C5 C 0.4019(3) 0.71156(9) 0.18341(8)
H2 H 0.374(4) 0.6985(11) 0.2435(11)
C6 C 0.5313(3) 0.79991(8) 0.15952(8)
H3 H 0.575(4) 0.8481(10) 0.2039(10)
C7 C 0.7946(3) 0.97855(9) 0.10986(9)
H4 H 0.964(4) 0.9573(9) 0.1596(9)
H5 H 0.891(4) 1.0285(11) 0.0792(10)
H6 H 0.581(4) 1.0023(9) 0.1324(9)
N1 N 0.5663(3) 0.75517(7) -0.08261(7)
N2 N 0.1966(3) 0.54621(7) 0.14478(7)
O1 O 0.7198(2) 0.90250(6) 0.04585(5)
O2 O 0.7774(3) 0.81617(6) -0.10222(6)
O3 O 0.3973(3) 0.70266(7) -0.13575(6)
O4 O 0.1845(3) 0.48012(7) 0.09116(6)
O5 O 0.0971(3) 0.53835(7) 0.21799(6)
#END
