
#######################################################################
#
#                 Cambridge Crystallographic Data Centre
#                                CCDC
#
#######################################################################
#
# If this CIF has been generated from an entry in the Cambridge
# Structural Database, then it will include bibliographic, chemical,
# crystal, experimental, refinement or atomic coordinate data resulting
# from the CCDC's data processing and validation procedures.
#
#######################################################################

data_CSD_CIF_FESNEW01
_audit_creation_date 1993-10-27
_audit_creation_method CSD-ConQuest-V1
_database_code_CSD FESNEW01
_database_code_depnum_ccdc_archive 'CCDC 1155006'
_chemical_formula_sum 'C7 H6 N2 O5'
_chemical_formula_moiety
;
C7 H6 N2 O5
;
_journal_coden_Cambridge 41
_journal_volume 37
_journal_year 1992
_journal_page_first 671
_journal_name_full 'Kristallografiya(Russ.)(Crystallogr.Rep.) '
loop_
_publ_author_name
"S.T.Malinovskii"
"M.S.Fonar"
"Yu.A.Simonov"
"A.A.Dvorkin"
"E.V.Ganin"
"N.G.Luk'yanenko"
"G.S.Musienko"
_chemical_name_systematic
;
2,4-Dinitroanisole
;
_chemical_melting_point 367.15
_cell_volume   1716.742
_exptl_crystal_colour 'light yellow'
_exptl_special_details
;
Melting point range 367.15-368.15K
polymorph 1
Fw 402.1; we calc. 198.14. Dx 1.28; we calc. 1.53
;
_diffrn_ambient_temperature ?
_diffrn_special_details
;
The study was carried out at room temperature,in the range 283-303K

;
#These two values have been output from a single CSD field.
_refine_ls_R_factor_gt 0.075
_refine_ls_wR_factor_gt 0.075
_symmetry_cell_setting monoclinic
_symmetry_space_group_name_H-M 'P 1 1 21/n'
_symmetry_Int_Tables_number 14
loop_
_symmetry_equiv_pos_site_id
_symmetry_equiv_pos_as_xyz
1 x,y,z
2 1/2-x,1/2-y,1/2+z
3 -x,-y,-z
4 -1/2+x,-1/2+y,-1/2-z
_cell_length_a 15.488(6)
_cell_length_b 8.813(3)
_cell_length_c 12.699(4)
_cell_angle_alpha 90
_cell_angle_beta 90
_cell_angle_gamma 82.06(3)
_cell_formula_units_Z 8
loop_
_atom_type_symbol
_atom_type_radius_bond
C 0.68
N 0.68
O 0.68
loop_
_atom_site_label
_atom_site_type_symbol
_atom_site_fract_x
_atom_site_fract_y
_atom_site_fract_z
C1 C 0.3656(5) 0.2182(9) -0.0770(6)
C2 C 0.4226(5) 0.2688(9) -0.0044(5)
C3 C 0.5110(5) 0.2255(9) -0.0099(6)
C4 C 0.5426(5) 0.1295(9) -0.0918(6)
C5 C 0.4886(5) 0.0747(9) -0.1665(5)
C6 C 0.4009(5) 0.1205(9) -0.1570(6)
C7 C 0.2176(5) 0.2203(9) -0.1442(7)
O1 O 0.2784(3) 0.2647(6) -0.0639(4)
N1 N 0.3906(4) 0.3708(9) 0.0819(5)
N2 N 0.6387(4) 0.0857(8) -0.0953(5)
O2 O 0.4378(5) 0.4258(16) 0.1254(9)
O3 O 0.3189(4) 0.4016(10) 0.1051(5)
O4 O 0.6858(3) 0.1306(7) -0.0310(5)
O5 O 0.6648(4) -0.0031(7) -0.1695(4)
C8 C 0.9702(5) 0.1973(9) 0.0751(6)
C9 C 0.9101(5) 0.3070(9) 0.0231(6)
C10 C 0.8251(5) 0.3482(9) 0.0543(6)
C11 C 0.7973(5) 0.2753(9) 0.1419(6)
C12 C 0.8518(5) 0.1624(9) 0.1958(6)
C13 C 0.9377(5) 0.1264(9) 0.1643(6)
C14 C 1.1176(6) 0.0818(12) 0.1078(7)
O6 O 1.0513(3) 0.1661(6) 0.0393(4)
N3 N 0.9385(4) 0.3864(8) -0.0721(5)
N4 N 0.7082(4) 0.3134(8) 0.1766(6)
O7 O 0.9920(4) 0.3146(8) -0.1307(5)
O8 O 0.9057(5) 0.5149(7) -0.0875(5)
O9 O 0.6618(3) 0.4232(7) 0.1369(5)
O10 O 0.6822(4) 0.2363(8) 0.2467(6)
#END
