
#######################################################################
#
#                 Cambridge Crystallographic Data Centre
#                                CCDC
#
#######################################################################
#
# If this CIF has been generated from an entry in the Cambridge
# Structural Database, then it will include bibliographic, chemical,
# crystal, experimental, refinement or atomic coordinate data resulting
# from the CCDC's data processing and validation procedures.
#
#######################################################################

data_CSD_CIF_FESNIA01
_audit_creation_date 2005-07-27
_audit_creation_method CSD-ConQuest-V1
_database_code_CSD FESNIA01
_database_code_depnum_ccdc_archive 'CCDC 273964'
_chemical_formula_sum 'C7 H6 N2 O5'
_chemical_formula_moiety
;
C7 H6 N2 O5
;
_journal_coeditor_code "IUCr BK0148"
_journal_coden_Cambridge 622
_journal_volume 61
_journal_year 2005
_journal_page_first 359
_journal_name_full 'Acta Crystallogr.,Sect.B:Struct.Sci. '
loop_
_publ_author_name
"R.E.Marsh"
_chemical_name_systematic
;
2,6-Dinitroanisole
;
_cell_volume    834.852
_diffrn_ambient_temperature ?
_diffrn_special_details
;
The study was carried out at room temperature,in the range 283-303K

;
loop_
_citation_database_id_CSD
_citation_special_details
FESNIA "is reinterpreted by this entry"
_symmetry_cell_setting monoclinic
_symmetry_space_group_name_H-M 'C c'
_symmetry_Int_Tables_number 9
loop_
_symmetry_equiv_pos_site_id
_symmetry_equiv_pos_as_xyz
1 x,y,z
2 x,-y,1/2+z
3 1/2+x,1/2+y,z
4 1/2+x,1/2-y,1/2+z
_cell_length_a 3.854
_cell_length_b 14.985
_cell_length_c 14.476
_cell_angle_alpha 90
_cell_angle_beta 93.03
_cell_angle_gamma 90
_cell_formula_units_Z 4
loop_
_atom_type_symbol
_atom_type_radius_bond
C 0.68
H 0.23
N 0.68
O 0.68
loop_
_atom_site_label
_atom_site_type_symbol
_atom_site_fract_x
_atom_site_fract_y
_atom_site_fract_z
O1 O 0.64431 0.16888 -0.07760
O2 O 0.50510 0.02920 -0.18290
O3 O 0.78572 -0.09048 -0.15540
O4 O 1.02383 0.28288 0.04735
O5 O 0.72992 0.24123 0.16120
N1 N 0.69760 -0.01575 -0.13480
N2 N 0.89533 0.22607 0.09295
C1 C 0.81115 0.10945 -0.02210
C2 C 0.83940 0.01785 -0.04325
C3 C 0.99388 -0.04123 0.01630
C4 C 1.11577 -0.01402 0.10175
C5 C 1.07080 0.07355 0.12910
C6 C 0.92518 0.13207 0.06550
C7 C 0.82122 0.20452 -0.15465
H1 H 0.98000 -0.10800 -0.00300
H2 H 1.25900 -0.05600 0.14450
H3 H 1.13175 0.09525 0.20250
H4 H 0.82200 0.15600 -0.21000
H5 H 1.08875 0.22025 -0.13300
H6 H 0.72275 0.26325 -0.18550
#END
