
#######################################################################
#
#                 Cambridge Crystallographic Data Centre
#                                CCDC
#
#######################################################################
#
# If this CIF has been generated from an entry in the Cambridge
# Structural Database, then it will include bibliographic, chemical,
# crystal, experimental, refinement or atomic coordinate data resulting
# from the CCDC's data processing and validation procedures.
#
#######################################################################

data_CSD_CIF_FESNEW06
_audit_creation_date 2015-06-30
_audit_creation_method CSD-ConQuest-V1
_database_code_CSD FESNEW06
_database_code_depnum_ccdc_archive 'CCDC 1401653'
_chemical_formula_sum 'C7 H6 N2 O5'
_chemical_formula_moiety
;
C7 H6 N2 O5
;
_journal_coden_Cambridge 1350
_journal_volume 17
_journal_year 2015
_journal_page_first 8888
_journal_name_full 'CrystEngComm '
loop_
_publ_author_name
"H.Takahashi"
"R.Tamura"
_chemical_name_systematic
;
2,4-Dinitrophenyl methyl ether
;
_cell_volume   1667.405
_exptl_crystal_colour 'pale yellow'
_exptl_crystal_density_diffrn 1.579
_exptl_special_details
;
polymorph 1

;
_exptl_crystal_description 'Block'
_diffrn_ambient_temperature 183
_refine_special_details
;
N3A,O7A,O8A and N3B,O7B,O8B disordered over two sites with occupancies 
0.630:0.370.
;
#These two values have been output from a single CSD field.
_refine_ls_R_factor_gt 0.0482
_refine_ls_wR_factor_gt 0.0482
_symmetry_cell_setting monoclinic
_symmetry_space_group_name_H-M 'P 21/n'
_symmetry_Int_Tables_number 14
loop_
_symmetry_equiv_pos_site_id
_symmetry_equiv_pos_as_xyz
1 x,y,z
2 1/2-x,1/2+y,1/2-z
3 -x,-y,-z
4 -1/2+x,-1/2-y,-1/2+z
_cell_length_a 8.665(3)
_cell_length_b 12.666(4)
_cell_length_c 15.316(5)
_cell_angle_alpha 90
_cell_angle_beta 97.277(3)
_cell_angle_gamma 90
_cell_formula_units_Z 8
loop_
_atom_type_symbol
_atom_type_radius_bond
C 0.68
H 0.23
N 0.68
O 0.68
loop_
_atom_site_label
_atom_site_type_symbol
_atom_site_fract_x
_atom_site_fract_y
_atom_site_fract_z
C1 C 0.69559(19) 0.42594(13) 0.02986(11)
C2 C 0.80723(19) 0.47943(13) 0.08858(11)
C3 C 0.85141(19) 0.44565(13) 0.17346(11)
H1 H 0.92930 0.48190 0.21130
C4 C 0.77880(19) 0.35753(13) 0.20167(11)
C5 C 0.66760(19) 0.30255(13) 0.14644(12)
H2 H 0.61850 0.24230 0.16760
C6 C 0.62866(19) 0.33558(13) 0.06088(11)
H3 H 0.55530 0.29630 0.02250
C7 C 0.5762(3) 0.39608(17) -0.11676(13)
H4 H 0.62890 0.32770 -0.11820
H5 H 0.57010 0.42960 -0.17480
H6 H 0.47090 0.38530 -0.10140
O1 O 0.66233(15) 0.46299(10) -0.05204(8)
O2 O 0.8083(2) 0.63508(11) 0.00916(9)
O3 O 1.01845(17) 0.58942(12) 0.09136(11)
O4 O 0.92596(16) 0.36420(13) 0.33833(9)
O5 O 0.7393(2) 0.25083(13) 0.31817(10)
N1 N 0.88374(19) 0.57467(12) 0.06065(10)
N2 N 0.81773(18) 0.32191(13) 0.29224(10)
C8 C 0.78338(18) 0.07612(13) -0.13779(11)
C9 C 0.73017(19) 0.00337(13) -0.07918(11)
C10 C 0.77150(19) 0.01011(14) 0.01054(11)
H7 H 0.73320 -0.03950 0.04910
C11 C 0.86934(18) 0.09013(13) 0.04298(10)
C12 C 0.9244(2) 0.16390(13) -0.01189(12)
H8 H 0.99140 0.21890 0.01200
C13 C 0.88139(19) 0.15708(13) -0.10144(11)
H9 H 0.91880 0.20810 -0.13910
C14 C 0.7839(3) 0.14323(17) -0.28291(12)
H10 H 0.74310 0.21200 -0.26750
H11 H 0.74170 0.12510 -0.34340
H12 H 0.89770 0.14660 -0.27810
O6 O 0.73877(14) 0.0640(1) -0.22376(7)
O7 O 0.6117(8) -0.1097(5) -0.1839(4)
O8 O 0.5253(3) -0.1049(2) -0.05866(15)
N3 N 0.6161(15) -0.0742(8) -0.1099(10)
O9 O 0.86768(18) 0.02959(13) 0.18481(8)
O10 O 1.00448(16) 0.16748(11) 0.16600(9)
N4 N 0.91666(17) 0.09634(12) 0.13766(10)
O11? O 0.5630(16) -0.0948(10) -0.1790(8)
O12? O 0.6621(6) -0.1753(3) -0.0664(3)
N5? N 0.643(3) -0.0985(13) -0.1118(18)
#END
