
#######################################################################
#
#                 Cambridge Crystallographic Data Centre
#                                CCDC
#
#######################################################################
#
# If this CIF has been generated from an entry in the Cambridge
# Structural Database, then it will include bibliographic, chemical,
# crystal, experimental, refinement or atomic coordinate data resulting
# from the CCDC's data processing and validation procedures.
#
#######################################################################

data_CSD_CIF_FESNEW19
_audit_creation_date 2015-06-30
_audit_creation_method CSD-ConQuest-V1
_database_code_CSD FESNEW19
_database_code_depnum_ccdc_archive 'CCDC 1041037'
_chemical_formula_sum 'C7 H6 N2 O5'
_chemical_formula_moiety
;
C7 H6 N2 O5
;
_journal_coden_Cambridge 1350
_journal_volume 17
_journal_year 2015
_journal_page_first 8888
_journal_name_full 'CrystEngComm '
loop_
_publ_author_name
"H.Takahashi"
"R.Tamura"
_chemical_name_systematic
;
2,4-Dinitroanisole
;
_cell_volume    813.485
_exptl_crystal_colour 'pale yellow'
_exptl_crystal_density_diffrn 1.618
_exptl_special_details
;
polymorph 2

;
_exptl_crystal_description 'Platelet'
_diffrn_ambient_temperature 173
#These two values have been output from a single CSD field.
_refine_ls_R_factor_gt 0.0404
_refine_ls_wR_factor_gt 0.0404
_symmetry_cell_setting monoclinic
_symmetry_space_group_name_H-M 'P 21/n'
_symmetry_Int_Tables_number 14
loop_
_symmetry_equiv_pos_site_id
_symmetry_equiv_pos_as_xyz
1 x,y,z
2 1/2-x,1/2+y,1/2-z
3 -x,-y,-z
4 -1/2+x,-1/2-y,-1/2+z
_cell_length_a 3.8537(15)
_cell_length_b 13.804(5)
_cell_length_c 15.381(6)
_cell_angle_alpha 90
_cell_angle_beta 96.164(6)
_cell_angle_gamma 90
_cell_formula_units_Z 4
loop_
_atom_type_symbol
_atom_type_radius_bond
C 0.68
H 0.23
N 0.68
O 0.68
loop_
_atom_site_label
_atom_site_type_symbol
_atom_site_fract_x
_atom_site_fract_y
_atom_site_fract_z
C1 C 0.4002(4) 0.18302(10) 0.92685(9)
C2 C 0.4802(4) 0.25744(10) 0.98871(9)
C3 C 0.6106(4) 0.34586(11) 0.96564(9)
H1 H 0.657(4) 0.3939(14) 1.0081(12)
C4 C 0.6625(4) 0.3607(1) 0.87894(9)
C5 C 0.5913(4) 0.28956(12) 0.81616(9)
H2 H 0.621(5) 0.3010(13) 0.7571(12)
C6 C 0.4617(4) 0.20155(11) 0.84008(9)
H3 H 0.414(5) 0.1539(12) 0.7942(12)
C7 C 0.2001(5) 0.02270(12) 0.89040(11)
H4 H 0.036(5) 0.0459(12) 0.8425(12)
H5 H 0.109(5) -0.0294(14) 0.9215(12)
H6 H 0.410(5) 0.0007(11) 0.8658(11)
N1 N 0.4314(4) 0.24501(9) 1.08162(8)
N2 N 0.8021(4) 0.45417(10) 0.85462(8)
O1 O 0.2765(3) 0.09857(8) 0.95368(6)
O2 O 0.2238(4) 0.18444(9) 1.10154(8)
O3 O 0.5977(4) 0.29676(10) 1.13437(7)
O4 O 0.8245(4) 0.51938(9) 0.90873(8)
O5 O 0.8920(4) 0.46274(10) 0.78091(8)
#END
