
#######################################################################
#
#                 Cambridge Crystallographic Data Centre
#                                CCDC
#
#######################################################################
#
# If this CIF has been generated from an entry in the Cambridge
# Structural Database, then it will include bibliographic, chemical,
# crystal, experimental, refinement or atomic coordinate data resulting
# from the CCDC's data processing and validation procedures.
#
#######################################################################

data_CSD_CIF_FESNEW12
_audit_creation_date 2015-06-30
_audit_creation_method CSD-ConQuest-V1
_database_code_CSD FESNEW12
_database_code_depnum_ccdc_archive 'CCDC 1041030'
_chemical_formula_sum 'C7 H6 N2 O5'
_chemical_formula_moiety
;
C7 H6 N2 O5
;
_journal_coden_Cambridge 1350
_journal_volume 17
_journal_year 2015
_journal_page_first 8888
_journal_name_full 'CrystEngComm '
loop_
_publ_author_name
"H.Takahashi"
"R.Tamura"
_chemical_name_systematic
;
2,4-Dinitroanisole
;
_cell_volume    842.266
_exptl_crystal_colour 'pale yellow'
_exptl_crystal_density_diffrn 1.563
_exptl_special_details
;
polymorph 2

;
_exptl_crystal_description 'Platelet'
_diffrn_ambient_temperature 283
_refine_special_details
;
O2',O3' and O2,O3 disordered over two sites with occupancies 0.507:0.493; 
O4',O5' and O4,O5 disordered over two sites with occupancies 0.66:0.34.
;
#These two values have been output from a single CSD field.
_refine_ls_R_factor_gt 0.0429
_refine_ls_wR_factor_gt 0.0429
_symmetry_cell_setting monoclinic
_symmetry_space_group_name_H-M 'P 21/n'
_symmetry_Int_Tables_number 14
loop_
_symmetry_equiv_pos_site_id
_symmetry_equiv_pos_as_xyz
1 x,y,z
2 1/2-x,1/2+y,1/2-z
3 -x,-y,-z
4 -1/2+x,-1/2-y,-1/2+z
_cell_length_a 3.9618(19)
_cell_length_b 13.745(7)
_cell_length_c 15.470(8)
_cell_angle_alpha 90
_cell_angle_beta 91.089(6)
_cell_angle_gamma 90
_cell_formula_units_Z 4
loop_
_atom_type_symbol
_atom_type_radius_bond
C 0.68
H 0.23
N 0.68
O 0.68
loop_
_atom_site_label
_atom_site_type_symbol
_atom_site_fract_x
_atom_site_fract_y
_atom_site_fract_z
C1 C 1.1351(4) 0.30563(11) 0.42366(9)
C2 C 1.0130(4) 0.24001(11) 0.48557(8)
C3 C 0.8779(4) 0.15163(12) 0.46260(9)
H1 H 0.787(4) 0.1104(12) 0.5025(11)
C4 C 0.8651(4) 0.12629(11) 0.37617(9)
C5 C 0.9840(4) 0.18853(13) 0.31338(10)
H2 H 0.965(4) 0.1683(11) 0.2514(11)
C6 C 1.1171(4) 0.27675(14) 0.33697(10)
H3 H 1.188(4) 0.3175(14) 0.2953(12)
C7 C 1.3845(7) 0.45822(18) 0.38747(17)
H4 H 1.564(7) 0.4265(18) 0.3501(16)
H5 H 1.475(6) 0.5112(17) 0.4204(15)
H6 H 1.203(5) 0.4766(15) 0.3459(15)
N1 N 1.0218(4) 0.26323(11) 0.57819(9)
N2 N 0.7188(4) 0.03340(11) 0.35135(9)
O1 O 1.2588(3) 0.39108(9) 0.45089(7)
O2 O 1.270(2) 0.3076(7) 0.6015(2)
O3 O 0.783(2) 0.2395(7) 0.6165(3)
O4 O 0.566(5) -0.0112(11) 0.4035(7)
O5 O 0.734(4) 0.0066(9) 0.2759(4)
O6? O 1.062(3) 0.3436(3) 0.6070(2)
O7? O 0.977(2) 0.1948(3) 0.63284(18)
O8? O 0.692(6) -0.0335(11) 0.4128(7)
O9? O 0.666(6) 0.0207(16) 0.2760(8)
#END
