
#######################################################################
#
#                 Cambridge Crystallographic Data Centre
#                                CCDC
#
#######################################################################
#
# If this CIF has been generated from an entry in the Cambridge
# Structural Database, then it will include bibliographic, chemical,
# crystal, experimental, refinement or atomic coordinate data resulting
# from the CCDC's data processing and validation procedures.
#
#######################################################################

data_CSD_CIF_FESNEW07
_audit_creation_date 2015-06-30
_audit_creation_method CSD-ConQuest-V1
_database_code_CSD FESNEW07
_database_code_depnum_ccdc_archive 'CCDC 1401654'
_chemical_formula_sum 'C7 H6 N2 O5'
_chemical_formula_moiety
;
C7 H6 N2 O5
;
_journal_coden_Cambridge 1350
_journal_volume 17
_journal_year 2015
_journal_page_first 8888
_journal_name_full 'CrystEngComm '
loop_
_publ_author_name
"H.Takahashi"
"R.Tamura"
_chemical_name_systematic
;
2,4-Dinitrophenyl methyl ether
;
_cell_volume   1674.990
_exptl_crystal_colour 'pale yellow'
_exptl_crystal_density_diffrn 1.571
_exptl_special_details
;
polymorph 1

;
_exptl_crystal_description 'Block'
_diffrn_ambient_temperature 213
_refine_special_details
;
N3A,O7A,O8A and N3B,O7B,O8B disordered over two sites with occupancies 
0.615:0.385.
;
#These two values have been output from a single CSD field.
_refine_ls_R_factor_gt 0.0503
_refine_ls_wR_factor_gt 0.0503
_symmetry_cell_setting monoclinic
_symmetry_space_group_name_H-M 'P 21/n'
_symmetry_Int_Tables_number 14
loop_
_symmetry_equiv_pos_site_id
_symmetry_equiv_pos_as_xyz
1 x,y,z
2 1/2-x,1/2+y,1/2-z
3 -x,-y,-z
4 -1/2+x,-1/2-y,-1/2+z
_cell_length_a 8.691(3)
_cell_length_b 12.673(4)
_cell_length_c 15.336(5)
_cell_angle_alpha 90
_cell_angle_beta 97.417(4)
_cell_angle_gamma 90
_cell_formula_units_Z 8
loop_
_atom_type_symbol
_atom_type_radius_bond
C 0.68
H 0.23
N 0.68
O 0.68
loop_
_atom_site_label
_atom_site_type_symbol
_atom_site_fract_x
_atom_site_fract_y
_atom_site_fract_z
C1 C 0.6958(2) 0.42555(13) 0.53018(11)
C2 C 0.8072(2) 0.47920(13) 0.58885(11)
C3 C 0.8508(2) 0.44545(14) 0.67355(11)
H1 H 0.92790 0.48110 0.71100
C4 C 0.7778(2) 0.35759(14) 0.70183(11)
C5 C 0.6672(2) 0.30284(14) 0.64662(12)
H2 H 0.61880 0.24320 0.66740
C6 C 0.6282(2) 0.33587(14) 0.56119(12)
H3 H 0.55500 0.29740 0.52330
C7 C 0.5766(3) 0.39566(18) 0.38369(14)
H4 H 0.62730 0.32760 0.38280
H5 H 0.57160 0.42830 0.32620
H6 H 0.47230 0.38620 0.39850
O1 O 0.66328(16) 0.46228(10) 0.44831(8)
O2 O 0.8094(2) 0.63427(12) 0.50914(10)
O3 O 1.01763(19) 0.58898(13) 0.59198(12)
O4 O 0.92524(18) 0.36378(14) 0.83843(9)
O5 O 0.7386(2) 0.25141(15) 0.81812(11)
N1 N 0.8840(2) 0.57406(12) 0.56108(10)
N2 N 0.8173(2) 0.32215(14) 0.79249(11)
C8 C 0.78335(19) 0.07625(13) 0.36248(11)
C9 C 0.7303(2) 0.00380(13) 0.42112(11)
C10 C 0.7720(2) 0.01031(14) 0.51068(11)
H7 H 0.73480 -0.03890 0.54880
C11 C 0.86930(19) 0.09038(13) 0.54298(11)
C12 C 0.9239(2) 0.16392(13) 0.48826(12)
H8 H 0.99020 0.21830 0.51180
C13 C 0.8807(2) 0.15707(13) 0.39890(12)
H9 H 0.91720 0.20760 0.36170
C14 C 0.7830(3) 0.14274(18) 0.21754(13)
H10 H 0.74510 0.21120 0.23350
H11 H 0.73880 0.12550 0.15790
H12 H 0.89520 0.14480 0.22120
O6 O 0.73831(15) 0.06404(10) 0.27672(8)
O7 O 0.6140(8) -0.1102(6) 0.3166(5)
O8 O 0.5261(3) -0.1048(2) 0.44147(16)
O9 O 0.8681(2) 0.02999(14) 0.68479(9)
O10 O 1.00406(18) 0.16788(11) 0.66591(9)
N3 N 0.620(2) -0.0763(13) 0.3932(15)
N4 N 0.91652(18) 0.09670(13) 0.63775(10)
O11? O 0.5602(15) -0.0932(10) 0.3223(8)
O12? O 0.6613(6) -0.1741(3) 0.4341(3)
N5? N 0.638(3) -0.095(2) 0.384(2)
#END
