
#######################################################################
#
#                 Cambridge Crystallographic Data Centre
#                                CCDC
#
#######################################################################
#
# If this CIF has been generated from an entry in the Cambridge
# Structural Database, then it will include bibliographic, chemical,
# crystal, experimental, refinement or atomic coordinate data resulting
# from the CCDC's data processing and validation procedures.
#
#######################################################################

data_CSD_CIF_FESNEW08
_audit_creation_date 2015-06-30
_audit_creation_method CSD-ConQuest-V1
_database_code_CSD FESNEW08
_database_code_depnum_ccdc_archive 'CCDC 1401655'
_chemical_formula_sum 'C7 H6 N2 O5'
_chemical_formula_moiety
;
C7 H6 N2 O5
;
_journal_coden_Cambridge 1350
_journal_volume 17
_journal_year 2015
_journal_page_first 8888
_journal_name_full 'CrystEngComm '
loop_
_publ_author_name
"H.Takahashi"
"R.Tamura"
_chemical_name_systematic
;
2,4-Dinitrophenyl methyl ether
;
_cell_volume   1683.695
_exptl_crystal_colour 'pale yellow'
_exptl_crystal_density_diffrn 1.563
_exptl_special_details
;
polymorph 1

;
_exptl_crystal_description 'Block'
_diffrn_ambient_temperature 243
_refine_special_details
;
N3A,O7A,O8A and N3B,O7B,O8B disordered over two sites with occupancies 
0.606:0.394.
;
#These two values have been output from a single CSD field.
_refine_ls_R_factor_gt 0.0524
_refine_ls_wR_factor_gt 0.0524
_symmetry_cell_setting monoclinic
_symmetry_space_group_name_H-M 'P 21/n'
_symmetry_Int_Tables_number 14
loop_
_symmetry_equiv_pos_site_id
_symmetry_equiv_pos_as_xyz
1 x,y,z
2 1/2-x,1/2+y,1/2-z
3 -x,-y,-z
4 -1/2+x,-1/2-y,-1/2+z
_cell_length_a 8.721(3)
_cell_length_b 12.675(4)
_cell_length_c 15.366(5)
_cell_angle_alpha 90
_cell_angle_beta 97.580(4)
_cell_angle_gamma 90
_cell_formula_units_Z 8
loop_
_atom_type_symbol
_atom_type_radius_bond
C 0.68
H 0.23
N 0.68
O 0.68
loop_
_atom_site_label
_atom_site_type_symbol
_atom_site_fract_x
_atom_site_fract_y
_atom_site_fract_z
C1 C 0.6961(2) 0.07476(14) 0.03044(11)
C2 C 0.8071(2) 0.02119(14) 0.08904(12)
C3 C 0.8499(2) 0.05488(15) 0.17378(12)
H1 H 0.92670 0.01930 0.21130
C4 C 0.7768(2) 0.14223(15) 0.20212(12)
C5 C 0.6663(2) 0.19670(15) 0.14668(13)
H2 H 0.61750 0.25610 0.16730
C6 C 0.6281(2) 0.16374(15) 0.06148(13)
H3 H 0.55490 0.20200 0.02360
C7 C 0.5770(3) 0.10471(19) -0.11628(15)
H4 H 0.47320 0.11430 -0.10150
H5 H 0.57180 0.07180 -0.17360
H6 H 0.62760 0.17280 -0.11740
O1 O 0.66396(17) 0.03820(11) -0.05151(8)
O2 O 0.8102(2) -0.13319(13) 0.00939(10)
O3 O 1.0167(2) -0.08835(14) 0.09274(13)
O4 O 0.92431(19) 0.13640(14) 0.33844(10)
O5 O 0.7376(2) 0.24812(16) 0.31819(11)
N1 N 0.8843(2) -0.07308(13) 0.06153(11)
N2 N 0.8164(2) 0.17770(15) 0.29252(12)
C8 C 0.7831(2) 0.42356(14) -0.13707(11)
C9 C 0.7308(2) 0.49612(14) -0.07855(12)
C10 C 0.7724(2) 0.48916(15) 0.01076(12)
H7 H 0.73510 0.53820 0.04880
C11 C 0.8695(2) 0.40923(14) 0.04317(11)
C12 C 0.9232(2) 0.33573(14) -0.01171(13)
H8 H 0.98910 0.28110 0.01170
C13 C 0.8799(2) 0.34293(14) -0.10072(13)
H9 H 0.91630 0.29250 -0.13790
C14 C 0.7824(3) 0.35766(19) -0.28201(14)
H10 H 0.89430 0.35480 -0.27760
H11 H 0.73960 0.37580 -0.34160
H12 H 0.74320 0.28940 -0.26690
O6 O 0.73806(15) 0.43611(11) -0.22265(8)
O7 O 0.6126(9) 0.6117(6) -0.1825(4)
O8 O 0.5271(4) 0.6044(3) -0.05894(19)
O9 O 0.8690(2) 0.46917(15) 0.1846(1)
O10 O 1.00391(19) 0.33155(12) 0.16575(10)
N3 N 0.6154(12) 0.5822(5) -0.1066(6)
N4 N 0.91694(19) 0.40274(14) 0.13774(11)
O11? O 0.5637(17) 0.5901(10) -0.1770(9)
O12? O 0.6606(6) 0.6731(3) -0.0656(3)
N5? N 0.649(2) 0.5854(13) -0.1159(14)
#END
