
#######################################################################
#
#                 Cambridge Crystallographic Data Centre
#                                CCDC
#
#######################################################################
#
# If this CIF has been generated from an entry in the Cambridge
# Structural Database, then it will include bibliographic, chemical,
# crystal, experimental, refinement or atomic coordinate data resulting
# from the CCDC's data processing and validation procedures.
#
#######################################################################

data_CSD_CIF_FESNEW13
_audit_creation_date 2015-06-30
_audit_creation_method CSD-ConQuest-V1
_database_code_CSD FESNEW13
_database_code_depnum_ccdc_archive 'CCDC 1041031'
_chemical_formula_sum 'C7 H6 N2 O5'
_chemical_formula_moiety
;
C7 H6 N2 O5
;
_journal_coden_Cambridge 1350
_journal_volume 17
_journal_year 2015
_journal_page_first 8888
_journal_name_full 'CrystEngComm '
loop_
_publ_author_name
"H.Takahashi"
"R.Tamura"
_chemical_name_systematic
;
2,4-Dinitroanisole
;
_cell_volume    839.745
_exptl_crystal_colour 'pale yellow'
_exptl_crystal_density_diffrn 1.567
_exptl_special_details
;
polymorph 2

;
_exptl_crystal_description 'Platelet'
_diffrn_ambient_temperature 273
_refine_special_details
;
O2',O3' and O2,O3 disordered over two sites with occupancies 0.502:0.498; 
O4,O5 and O4',O5' disordered over two sites with occupancies 0.54:0.46.
;
#These two values have been output from a single CSD field.
_refine_ls_R_factor_gt 0.0454
_refine_ls_wR_factor_gt 0.0454
_symmetry_cell_setting monoclinic
_symmetry_space_group_name_H-M 'P 21/n'
_symmetry_Int_Tables_number 14
loop_
_symmetry_equiv_pos_site_id
_symmetry_equiv_pos_as_xyz
1 x,y,z
2 1/2-x,1/2+y,1/2-z
3 -x,-y,-z
4 -1/2+x,-1/2-y,-1/2+z
_cell_length_a 3.957(2)
_cell_length_b 13.735(7)
_cell_length_c 15.454(8)
_cell_angle_alpha 90
_cell_angle_beta 91.156(8)
_cell_angle_gamma 90
_cell_formula_units_Z 4
loop_
_atom_type_symbol
_atom_type_radius_bond
C 0.68
H 0.23
N 0.68
O 0.68
loop_
_atom_site_label
_atom_site_type_symbol
_atom_site_fract_x
_atom_site_fract_y
_atom_site_fract_z
C1 C 0.3650(4) 0.30558(12) 0.07634(11)
C2 C 0.4871(4) 0.24006(12) 0.01451(10)
C3 C 0.6232(4) 0.15150(13) 0.03747(10)
H1 H 0.708(5) 0.1105(14) -0.0014(13)
C4 C 0.6341(4) 0.12631(12) 0.12368(10)
C5 C 0.5155(5) 0.18839(14) 0.18668(11)
H2 H 0.538(5) 0.1652(15) 0.2487(15)
C6 C 0.3821(5) 0.27693(15) 0.16292(12)
H3 H 0.299(5) 0.3186(16) 0.2050(14)
C7 C 0.1151(8) 0.45802(19) 0.11268(19)
H4 H -0.061(8) 0.424(2) 0.1506(19)
H5 H 0.029(8) 0.511(2) 0.0830(19)
H6 H 0.298(7) 0.4782(19) 0.1540(19)
N1 N 0.4788(5) 0.26339(12) -0.0784(1)
N2 N 0.7811(5) 0.03304(12) 0.14883(11)
O1 O 0.2412(4) 0.39131(9) 0.04911(8)
O2 O 0.229(2) 0.3079(6) -0.1016(2)
O3 O 0.720(2) 0.2399(7) -0.1161(4)
O4 O 0.832(7) -0.0288(12) 0.0889(6)
O5 O 0.823(5) 0.0181(13) 0.2247(7)
O6? O 0.437(3) 0.3433(3) -0.1075(2)
O7? O 0.527(2) 0.1950(3) -0.1331(2)
O8? O 0.744(7) 0.0029(15) 0.2234(8)
O9? O 0.958(7) -0.0075(14) 0.0984(11)
#END
