
#######################################################################
#
#                 Cambridge Crystallographic Data Centre
#                                CCDC
#
#######################################################################
#
# If this CIF has been generated from an entry in the Cambridge
# Structural Database, then it will include bibliographic, chemical,
# crystal, experimental, refinement or atomic coordinate data resulting
# from the CCDC's data processing and validation procedures.
#
#######################################################################

data_CSD_CIF_FESNEW03
_audit_creation_date 2015-06-30
_audit_creation_method CSD-ConQuest-V1
_database_code_CSD FESNEW03
_database_code_depnum_ccdc_archive 'CCDC 1401650'
_chemical_formula_sum 'C7 H6 N2 O5'
_chemical_formula_moiety
;
C7 H6 N2 O5
;
_journal_coden_Cambridge 1350
_journal_volume 17
_journal_year 2015
_journal_page_first 8888
_journal_name_full 'CrystEngComm '
loop_
_publ_author_name
"H.Takahashi"
"R.Tamura"
_chemical_name_systematic
;
2,4-Dinitrophenyl methyl ether
;
_chemical_melting_point 369.8
_cell_volume   1645.342
_exptl_crystal_colour 'pale yellow'
_exptl_crystal_density_diffrn 1.6
_exptl_special_details
;
polymorph 1

;
_exptl_crystal_description 'Block'
_exptl_crystal_preparation 'ethanol'
_diffrn_ambient_temperature 100
_refine_special_details
;
N3A,O7A,O8A and N3B,O7B,O8B disordered over two sites with occupancies 
0.676:0.324.
;
#These two values have been output from a single CSD field.
_refine_ls_R_factor_gt 0.0354
_refine_ls_wR_factor_gt 0.0354
_symmetry_cell_setting monoclinic
_symmetry_space_group_name_H-M 'P 21/n'
_symmetry_Int_Tables_number 14
loop_
_symmetry_equiv_pos_site_id
_symmetry_equiv_pos_as_xyz
1 x,y,z
2 1/2-x,1/2+y,1/2-z
3 -x,-y,-z
4 -1/2+x,-1/2-y,-1/2+z
_cell_length_a 8.593(2)
_cell_length_b 12.641(3)
_cell_length_c 15.263(4)
_cell_angle_alpha 90
_cell_angle_beta 97.065(4)
_cell_angle_gamma 90
_cell_formula_units_Z 8
loop_
_atom_type_symbol
_atom_type_radius_bond
C 0.68
H 0.23
N 0.68
O 0.68
loop_
_atom_site_label
_atom_site_type_symbol
_atom_site_fract_x
_atom_site_fract_y
_atom_site_fract_z
C1 C 0.30524(16) 0.42648(10) 0.47082(9)
C2 C 0.19295(16) 0.48082(10) 0.41227(9)
C3 C 0.14754(16) 0.44666(11) 0.32718(9)
H1 H 0.06920 0.48300 0.28940
C4 C 0.22000(16) 0.35784(11) 0.29898(9)
C5 C 0.33015(16) 0.30187(11) 0.35399(9)
H2 H 0.37770 0.24070 0.33280
C6 C 0.37097(15) 0.33503(11) 0.43987(9)
H3 H 0.44440 0.29520 0.47820
C7 C 0.42456(19) 0.39626(12) 0.61755(10)
H4 H 0.36960 0.32850 0.61920
H5 H 0.43170 0.42990 0.67570
H6 H 0.53030 0.38410 0.60180
O1 O 0.33931(11) 0.46428(7) 0.55271(6)
O2 O 0.19437(14) 0.63755(8) 0.49108(7)
O3 O -0.02037(13) 0.59112(8) 0.41038(7)
O4 O 0.07180(12) 0.36536(9) 0.16157(7)
O5 O 0.25907(13) 0.24993(9) 0.18198(7)
N1 N 0.11722(15) 0.57667(9) 0.44031(8)
N2 N 0.18031(14) 0.32187(10) 0.20797(8)
C8 C 0.21567(15) 0.0759(1) 0.63864(9)
C9 C 0.27037(16) 0.00324(11) 0.57995(9)
C10 C 0.22951(16) 0.00951(11) 0.48988(9)
H7 H 0.26870 -0.04020 0.45140
C11 C 0.13070(15) 0.08949(11) 0.45724(9)
C12 C 0.07454(16) 0.16306(11) 0.51184(9)
H8 H 0.00700 0.21800 0.48770
C13 C 0.11688(16) 0.15661(10) 0.60198(9)
H9 H 0.07840 0.20770 0.63960
C14 C 0.21346(18) 0.14421(12) 0.78379(9)
H10 H 0.25540 0.21290 0.76830
H11 H 0.25460 0.12630 0.84470
H12 H 0.09880 0.14790 0.77830
O6 O 0.25995(11) 0.06411(7) 0.72504(6)
O7 O 0.3886(6) -0.1106(5) 0.6859(5)
O8 O 0.4780(2) -0.10583(13) 0.55893(10)
O9 O 0.13435(13) 0.02778(9) 0.31480(6)
O10 O -0.00460(12) 0.16683(8) 0.33345(7)
N3 N 0.3887(9) -0.0800(4) 0.6110(5)
N4 N 0.08396(13) 0.09524(9) 0.36205(8)
O11? O 0.4383(13) -0.0947(11) 0.6803(10)
O12? O 0.3369(4) -0.1781(2) 0.5669(2)
N5? N 0.3490(19) -0.0889(12) 0.6118(12)
#END
