
#######################################################################
#
#                 Cambridge Crystallographic Data Centre
#                                CCDC
#
#######################################################################
#
# If this CIF has been generated from an entry in the Cambridge
# Structural Database, then it will include bibliographic, chemical,
# crystal, experimental, refinement or atomic coordinate data resulting
# from the CCDC's data processing and validation procedures.
#
#######################################################################

data_CSD_CIF_FESPOK
_audit_creation_date 2013-05-19
_audit_creation_method CSD-ConQuest-V1
_database_code_CSD FESPOK
_database_code_depnum_ccdc_archive 'CCDC 903835'
_chemical_formula_sum 'C12 H12 N2 O3'
_chemical_formula_moiety
;
C12 H12 N2 O3
;
_journal_coden_Cambridge 692
_journal_volume 45
_journal_year 2013
_journal_page_first 260
_journal_name_full 'Synthesis '
loop_
_publ_author_name
"V.I.Potkin"
"S.K.Petkevich"
"A.S.Lyakhov"
"L.S.Ivashkevich"
_chemical_name_systematic
;
1-(2,5-Dimethylphenyl)-2-(4-hydroxy-1,2,5-oxadiazol-3-yl)ethanone
;
_cell_volume   1157.794
_exptl_crystal_colour 'colorless'
_exptl_crystal_density_diffrn 1.332
_exptl_crystal_description 'prism'
_diffrn_ambient_temperature 293
#These two values have been output from a single CSD field.
_refine_ls_R_factor_gt 0.0455
_refine_ls_wR_factor_gt 0.0455
_symmetry_cell_setting monoclinic
_symmetry_space_group_name_H-M 'P 21/c'
_symmetry_Int_Tables_number 14
loop_
_symmetry_equiv_pos_site_id
_symmetry_equiv_pos_as_xyz
1 x,y,z
2 -x,1/2+y,1/2-z
3 -x,-y,-z
4 x,-1/2-y,-1/2+z
_cell_length_a 7.4678(18)
_cell_length_b 14.641(3)
_cell_length_c 11.133(3)
_cell_angle_alpha 90
_cell_angle_beta 107.98(2)
_cell_angle_gamma 90
_cell_formula_units_Z 4
loop_
_atom_type_symbol
_atom_type_radius_bond
C 0.68
H 0.23
N 0.68
O 0.68
loop_
_atom_site_label
_atom_site_type_symbol
_atom_site_fract_x
_atom_site_fract_y
_atom_site_fract_z
C1 C 0.74759(19) 0.47570(9) 0.43665(13)
C2 C 0.7763(2) 0.38081(10) 0.45924(15)
C3 C 0.8080(3) 0.35148(11) 0.58261(17)
H1 H 0.82630 0.28950 0.60020
C4 C 0.8133(2) 0.41042(12) 0.68011(15)
H2 H 0.83770 0.38750 0.76150
C5 C 0.7832(2) 0.50279(12) 0.65929(14)
C6 C 0.7497(2) 0.5338(1) 0.53657(14)
H3 H 0.72780 0.59580 0.52020
C7 C 0.71912(19) 0.51548(10) 0.30932(13)
O1 O 0.73487(18) 0.47059(7) 0.22104(10)
C8 C 0.6710(2) 0.61644(10) 0.28997(13)
H4 H 0.55010 0.62710 0.30300
H5 H 0.76480 0.65150 0.35280
C9 C 0.6626(2) 0.64964(10) 0.16208(14)
C10 C 0.5264(2) 0.63327(10) 0.04261(14)
O2 O 0.37340(18) 0.58185(9) 0.0249(1)
H6 H 0.32850 0.56990 -0.05040
C11 C 0.7748(3) 0.31070(11) 0.36023(18)
H7 H 0.79190 0.25100 0.39770
H8 H 0.87510 0.32330 0.32560
H9 H 0.65640 0.31310 0.29420
C12 C 0.7891(3) 0.56765(14) 0.76545(17)
H10 H 0.73490 0.53870 0.82350
H11 H 0.71870 0.62170 0.73170
H12 H 0.91730 0.58390 0.80880
O3 O 0.7395(2) 0.71977(9) 0.01652(12)
N1 N 0.7916(2) 0.70237(10) 0.14528(14)
N2 N 0.5710(2) 0.67615(10) -0.04597(13)
#END
