
#######################################################################
#
#                 Cambridge Crystallographic Data Centre
#                                CCDC
#
#######################################################################
#
# If this CIF has been generated from an entry in the Cambridge
# Structural Database, then it will include bibliographic, chemical,
# crystal, experimental, refinement or atomic coordinate data resulting
# from the CCDC's data processing and validation procedures.
#
#######################################################################

data_CSD_CIF_FESQEB
_audit_creation_date 2013-05-19
_audit_creation_method CSD-ConQuest-V1
_database_code_CSD FESQEB
_database_code_depnum_ccdc_archive 'CCDC 903828'
_chemical_formula_sum 'C13 H19 N1 O6'
_chemical_formula_moiety
;
C13 H19 N1 O6
;
_journal_coden_Cambridge 1336
_journal_volume 15
_journal_year 2013
_journal_page_first 1978
_journal_name_full 'Org.Lett. '
loop_
_publ_author_name
"Wenbo Xu"
"Shuming Wu"
"Lili Zhou"
"Guangxin Liang"
_chemical_name_systematic
;
Ethyl 4a-hydroxy-5-nitro-8-oxodecahydronaphthalene-2-carboxylate
;
_cell_volume   1379.432
_exptl_crystal_colour 'colorless'
_exptl_crystal_density_diffrn 1.374
_exptl_crystal_description 'Prism'
_diffrn_ambient_temperature 113
#These two values have been output from a single CSD field.
_refine_ls_R_factor_gt 0.0322
_refine_ls_wR_factor_gt 0.0322
loop_
_citation_database_id_CSD
_citation_special_details
FESQAX "is a stereoisomer of this entry"
_symmetry_cell_setting monoclinic
_symmetry_space_group_name_H-M 'P 21/c'
_symmetry_Int_Tables_number 14
loop_
_symmetry_equiv_pos_site_id
_symmetry_equiv_pos_as_xyz
1 x,y,z
2 -x,1/2+y,1/2-z
3 -x,-y,-z
4 x,-1/2-y,-1/2+z
_cell_length_a 12.109(2)
_cell_length_b 9.9749(17)
_cell_length_c 12.480(2)
_cell_angle_alpha 90
_cell_angle_beta 113.780(3)
_cell_angle_gamma 90
_cell_formula_units_Z 4
loop_
_atom_type_symbol
_atom_type_radius_bond
C 0.68
H 0.23
N 0.68
O 0.68
loop_
_atom_site_label
_atom_site_type_symbol
_atom_site_fract_x
_atom_site_fract_y
_atom_site_fract_z
O1 O 0.19568(9) 0.66738(12) -0.03001(9)
O2 O 0.19746(10) 0.45334(11) -0.05310(8)
O3 O 0.38918(7) 0.75009(8) 0.18412(7)
H1 H 0.37360 0.77750 0.11590
O4 O 0.42488(8) 0.65905(9) 0.47810(7)
O5 O 0.83251(8) 0.74958(9) 0.33618(8)
O6 O 0.85491(7) 0.60448(9) 0.48138(8)
N1 N 0.22071(9) 0.55342(12) 0.00820(9)
C1 C 0.28285(11) 0.53485(12) 0.13868(10)
H2 H 0.29800 0.43690 0.15520
C2 C 0.19897(11) 0.58269(13) 0.19417(11)
H3 H 0.12080 0.53510 0.15860
H4 H 0.18360 0.67990 0.18010
C3 C 0.25725(11) 0.55511(13) 0.32592(10)
H5 H 0.20910 0.59960 0.36360
H6 H 0.25560 0.45740 0.33920
C4 C 0.38545(11) 0.60375(12) 0.38276(10)
C5 C 0.46632(11) 0.57221(11) 0.31969(10)
H7 H 0.47830 0.47290 0.32410
C6 C 0.40562(10) 0.60834(11) 0.18868(10)
C7 C 0.48730(11) 0.56581(12) 0.12812(10)
H8 H 0.44960 0.59270 0.04470
H9 H 0.49530 0.46700 0.13130
C8 C 0.61268(11) 0.62898(13) 0.18531(10)
H10 H 0.60580 0.72760 0.17620
H11 H 0.66370 0.59630 0.14570
C9 C 0.67210(11) 0.59349(12) 0.31555(11)
H12 H 0.68320 0.49410 0.32280
C10 C 0.59148(10) 0.63517(12) 0.3781(1)
H13 H 0.62930 0.60660 0.46100
H14 H 0.58380 0.73400 0.37640
C11 C 0.79422(11) 0.65877(12) 0.37546(11)
C12 C 0.97177(11) 0.66415(14) 0.55268(12)
H15 H 0.96410 0.76260 0.55700
H16 H 1.03080 0.64470 0.51830
C13 C 1.01236(13) 0.60294(16) 0.67262(13)
H17 H 0.95710 0.62980 0.70840
H18 H 1.09400 0.63410 0.72150
H19 H 1.01240 0.50500 0.66610
#END
