
#######################################################################
#
#                 Cambridge Crystallographic Data Centre
#                                CCDC
#
#######################################################################
#
# If this CIF has been generated from an entry in the Cambridge
# Structural Database, then it will include bibliographic, chemical,
# crystal, experimental, refinement or atomic coordinate data resulting
# from the CCDC's data processing and validation procedures.
#
#######################################################################

data_CSD_CIF_FESQAX
_audit_creation_date 2013-05-19
_audit_creation_method CSD-ConQuest-V1
_database_code_CSD FESQAX
_database_code_depnum_ccdc_archive 'CCDC 903829'
_chemical_formula_sum 'C13 H19 N1 O6'
_chemical_formula_moiety
;
C13 H19 N1 O6
;
_journal_coden_Cambridge 1336
_journal_volume 15
_journal_year 2013
_journal_page_first 1978
_journal_name_full 'Org.Lett. '
loop_
_publ_author_name
"Wenbo Xu"
"Shuming Wu"
"Lili Zhou"
"Guangxin Liang"
_chemical_name_systematic
;
Ethyl 4a-hydroxy-5-nitro-8-oxodecahydronaphthalene-2-carboxylate
;
_cell_volume   1366.216
_exptl_crystal_density_diffrn 1.387
_diffrn_ambient_temperature 293
#These two values have been output from a single CSD field.
_refine_ls_R_factor_gt 0.0483
_refine_ls_wR_factor_gt 0.0483
loop_
_citation_database_id_CSD
_citation_special_details
FESQEB "is a stereoisomer of this entry"
_symmetry_cell_setting monoclinic
_symmetry_space_group_name_H-M 'P 21/c'
_symmetry_Int_Tables_number 14
loop_
_symmetry_equiv_pos_site_id
_symmetry_equiv_pos_as_xyz
1 x,y,z
2 -x,1/2+y,1/2-z
3 -x,-y,-z
4 x,-1/2-y,-1/2+z
_cell_length_a 6.7622(14)
_cell_length_b 22.605(5)
_cell_length_c 9.0134(18)
_cell_angle_alpha 90
_cell_angle_beta 97.43(3)
_cell_angle_gamma 90
_cell_formula_units_Z 4
loop_
_atom_type_symbol
_atom_type_radius_bond
C 0.68
H 0.23
N 0.68
O 0.68
loop_
_atom_site_label
_atom_site_type_symbol
_atom_site_fract_x
_atom_site_fract_y
_atom_site_fract_z
O1 O 0.4710(3) 0.26302(6) 0.8567(2)
O2 O 0.2526(2) 0.33193(7) 0.86385(19)
O3 O 0.40866(18) 0.43441(5) 0.70695(14)
H1 H 0.30850 0.41800 0.66500
O4 O 0.7892(2) 0.52801(6) 0.84438(15)
O5 O 0.91458(19) 0.35661(5) 0.30676(14)
O6 O 1.0771(2) 0.38317(6) 0.52830(15)
N1 N 0.4238(3) 0.31479(8) 0.86388(19)
C1 C 0.5872(3) 0.36020(8) 0.8693(2)
H2 H 0.71560 0.33950 0.88410
C2 C 0.5774(3) 0.40128(9) 1.0009(2)
H3 H 0.59070 0.37850 1.09290
H4 H 0.44920 0.42110 0.99040
C3 C 0.7448(3) 0.44726(9) 1.0082(2)
H5 H 0.71940 0.47800 1.07830
H6 H 0.86990 0.42840 1.04630
C4 C 0.7655(3) 0.47532(8) 0.8592(2)
C5 C 0.7607(3) 0.43275(7) 0.7281(2)
H7 H 0.87680 0.40670 0.74760
C6 C 0.7749(3) 0.46502(8) 0.5819(2)
H8 H 0.90320 0.48470 0.58870
H9 H 0.67250 0.49530 0.56860
C7 C 0.7514(3) 0.42472(8) 0.4443(2)
H10 H 0.73320 0.45020 0.35560
C8 C 0.5641(3) 0.38576(8) 0.4402(2)
H11 H 0.44630 0.41050 0.42120
H12 H 0.56110 0.35760 0.35870
C9 C 0.5593(3) 0.35245(7) 0.5859(2)
H13 H 0.67000 0.32490 0.59990
H14 H 0.43670 0.32980 0.58000
C10 C 0.5721(3) 0.39399(7) 0.7200(2)
C11 C 0.9331(3) 0.38708(7) 0.4345(2)
C12 C 1.0775(3) 0.31768(9) 0.2823(2)
H15 H 1.11500 0.29330 0.36990
H16 H 1.19280 0.34070 0.26340
C13 C 1.0092(4) 0.28025(10) 0.1520(3)
H17 H 0.89100 0.25930 0.16970
H18 H 1.11180 0.25240 0.13660
H19 H 0.98020 0.30460 0.06470
#END
