
#######################################################################
#
#                 Cambridge Crystallographic Data Centre
#                                CCDC
#
#######################################################################
#
# If this CIF has been generated from an entry in the Cambridge
# Structural Database, then it will include bibliographic, chemical,
# crystal, experimental, refinement or atomic coordinate data resulting
# from the CCDC's data processing and validation procedures.
#
#######################################################################

data_CSD_CIF_FETFUH
_audit_creation_date 2013-05-19
_audit_creation_method CSD-ConQuest-V1
_database_code_CSD FETFUH
_database_code_depnum_ccdc_archive 'CCDC 903577'
_chemical_formula_sum 'C9 H11 N3 O1'
_chemical_formula_moiety
;
C9 H11 N3 O1
;
_journal_coden_Cambridge 580
_journal_volume 56
_journal_year 2013
_journal_page_first 211
_journal_name_full 'Polyhedron '
loop_
_publ_author_name
"C.Biswas"
"Miaoli Zhu"
"Liping Lu"
"S.Kaity"
"M.Das"
"A.Samanta"
"J.P.Naskar"
_chemical_name_systematic
;
1-Hydrazono-N-hydroxy-1-phenylpropan-2-imine
;
_cell_volume    455.042
_exptl_crystal_density_diffrn 1.293
_diffrn_ambient_temperature 298
#These two values have been output from a single CSD field.
_refine_ls_R_factor_gt 0.0499
_refine_ls_wR_factor_gt 0.0499
_symmetry_cell_setting monoclinic
_symmetry_space_group_name_H-M 'P 21'
_symmetry_Int_Tables_number 4
loop_
_symmetry_equiv_pos_site_id
_symmetry_equiv_pos_as_xyz
1 x,y,z
2 -x,1/2+y,-z
_cell_length_a 6.9503(5)
_cell_length_b 6.4535(3)
_cell_length_c 10.1631(6)
_cell_angle_alpha 90
_cell_angle_beta 93.418(4)
_cell_angle_gamma 90
_cell_formula_units_Z 2
loop_
_atom_type_symbol
_atom_type_radius_bond
C 0.68
H 0.23
N 0.68
O 0.68
loop_
_atom_site_label
_atom_site_type_symbol
_atom_site_fract_x
_atom_site_fract_y
_atom_site_fract_z
C1 C 0.2667(3) 0.7815(3) 0.7568(2)
C2 C 0.4381(3) 0.8601(4) 0.8112(2)
H1 H 0.54930 0.85030 0.76500
C3 C 0.4459(4) 0.9532(4) 0.9336(3)
H2 H 0.56150 1.00810 0.96870
C4 C 0.2822(4) 0.9653(4) 1.0042(3)
H3 H 0.28740 1.02790 1.08670
C5 C 0.1121(4) 0.8841(5) 0.9516(3)
H4 H 0.00230 0.88940 0.99950
C6 C 0.1031(4) 0.7944(4) 0.8277(3)
H5 H -0.01340 0.74250 0.79190
C7 C 0.2565(3) 0.6836(3) 0.6229(2)
C8 C 0.2460(3) 0.8177(4) 0.5065(2)
C9 C 0.2339(5) 0.7285(5) 0.3702(3)
H6 H 0.11800 0.77300 0.32250
H7 H 0.23230 0.58040 0.37960
H8 H 0.34350 0.76870 0.32300
N1 N 0.2545(3) 0.4850(3) 0.6066(2)
N2 N 0.2499(3) 1.0106(3) 0.5343(2)
O1 O 0.2421(3) 1.1410(3) 0.42357(18)
H9 H 0.23050 1.26160 0.44730
N3 N 0.2651(4) 0.3639(4) 0.7168(3)
H10 H 0.27280 0.42040 0.79360
H11 H 0.26410 0.23120 0.70950
#END
