
#######################################################################
#
#                 Cambridge Crystallographic Data Centre
#                                CCDC
#
#######################################################################
#
# If this CIF has been generated from an entry in the Cambridge
# Structural Database, then it will include bibliographic, chemical,
# crystal, experimental, refinement or atomic coordinate data resulting
# from the CCDC's data processing and validation procedures.
#
#######################################################################

data_CSD_CIF_FETNID
_audit_creation_date 2013-05-19
_audit_creation_method CSD-ConQuest-V1
_database_code_CSD FETNID
_database_code_depnum_ccdc_archive 'CCDC 903487'
_chemical_formula_sum 'C12 H10 N2 O4'
_chemical_formula_moiety
;
C12 H10 N2 O4
;
_journal_coden_Cambridge 1366
_journal_volume 355
_journal_year 2013
_journal_page_first 448
_journal_name_full 'Adv.Synth.Catal. '
loop_
_publ_author_name
"K.Thalluri"
"K.C.Nadimpally"
"M.P.Chakravarty"
"A.Paul"
"B.Mandal"
_chemical_name_systematic
;
Ethyl ((benzoyloxy)imino)(cyano)acetate
;
_cell_volume   1246.747
_exptl_crystal_colour 'colorless'
_exptl_crystal_density_diffrn 1.312
_exptl_crystal_description 'cube'
_diffrn_ambient_temperature 293
#These two values have been output from a single CSD field.
_refine_ls_R_factor_gt 0.109
_refine_ls_wR_factor_gt 0.109
_symmetry_cell_setting monoclinic
_symmetry_space_group_name_H-M 'P 21/c'
_symmetry_Int_Tables_number 14
loop_
_symmetry_equiv_pos_site_id
_symmetry_equiv_pos_as_xyz
1 x,y,z
2 -x,1/2+y,1/2-z
3 -x,-y,-z
4 x,-1/2-y,-1/2+z
_cell_length_a 11.894(2)
_cell_length_b 8.0894(12)
_cell_length_c 16.038(3)
_cell_angle_alpha 90
_cell_angle_beta 126.104(11)
_cell_angle_gamma 90
_cell_formula_units_Z 4
loop_
_atom_type_symbol
_atom_type_radius_bond
C 0.68
H 0.23
N 0.68
O 0.68
loop_
_atom_site_label
_atom_site_type_symbol
_atom_site_fract_x
_atom_site_fract_y
_atom_site_fract_z
O1 O 0.7451(4) 0.2897(4) 0.3132(3)
O2 O 0.5576(3) 0.4047(3) 0.1693(2)
O3 O 0.4135(4) -0.0523(4) 0.0411(3)
O4 O 0.2405(3) 0.0832(3) -0.0969(2)
N1 N 0.5182(3) 0.2426(3) 0.1340(3)
N2 N 0.2931(4) 0.5034(5) -0.0657(3)
C1 C 0.7157(4) 0.5841(4) 0.3053(3)
C2 C 0.8293(4) 0.6032(5) 0.4065(3)
H1 H 0.87700 0.51060 0.44650
C3 C 0.8725(5) 0.7589(5) 0.4486(4)
H2 H 0.94950 0.77210 0.51670
C4 C 0.8004(5) 0.8955(5) 0.3885(4)
H3 H 0.82930 1.00110 0.41620
C5 C 0.6855(5) 0.8756(5) 0.2877(4)
H4 H 0.63730 0.96800 0.24780
C6 C 0.6417(4) 0.7203(5) 0.2457(3)
H5 H 0.56340 0.70710 0.17810
C7 C 0.6797(4) 0.4093(4) 0.2685(3)
C8 C 0.4115(4) 0.2414(4) 0.0414(3)
C9 C 0.3434(4) 0.3882(5) -0.0194(4)
C10 C 0.3561(4) 0.0723(4) -0.0046(3)
C11 C 0.1750(5) -0.0748(6) -0.1480(5)
H6 H 0.22300 -0.12380 -0.17420
H7 H 0.17970 -0.15110 -0.09940
C12 C 0.0341(7) -0.0425(10) -0.2306(7)
H8 H -0.00540 0.03170 -0.20760
H9 H -0.01730 -0.14430 -0.25300
H10 H 0.02970 0.00680 -0.28690
#END
