
#######################################################################
#
#                 Cambridge Crystallographic Data Centre
#                                CCDC
#
#######################################################################
#
# If this CIF has been generated from an entry in the Cambridge
# Structural Database, then it will include bibliographic, chemical,
# crystal, experimental, refinement or atomic coordinate data resulting
# from the CCDC's data processing and validation procedures.
#
#######################################################################

data_CSD_CIF_FETPOJ
_audit_creation_date 1987-11-26
_audit_creation_method CSD-ConQuest-V1
_database_code_CSD FETPOJ
_chemical_formula_sum 'C11 H17 N5 O2'
_chemical_formula_moiety
;
C11 H17 N5 O2
;
_journal_coden_Cambridge 368
_journal_volume 14
_journal_year 1986
_journal_page_first 17
_journal_name_full 'Bioorg.Chem. '
loop_
_publ_author_name
"J.B.Noar"
"U.V.Venkataram"
"T.C.Bruice"
"G.Bollag"
"R.Whittle"
"D.Sammons"
"R.Henry"
"S.J.Benkovic"
_chemical_name_systematic
;
2-Methoxyimino-6,6,7,7-tetramethyl-4(3H)-oxo-tetrahydropterin
;
_cell_volume   2675.167
_exptl_crystal_colour 'orange'
_exptl_crystal_density_diffrn 1.248
_diffrn_ambient_temperature ?
_diffrn_special_details
;
The study was carried out at room temperature,in the range 283-303K

;
#These two values have been output from a single CSD field.
_refine_ls_R_factor_gt 0.058
_refine_ls_wR_factor_gt 0.058
_symmetry_cell_setting orthorhombic
_symmetry_space_group_name_H-M 'I 2 2 2'
_symmetry_Int_Tables_number 23
loop_
_symmetry_equiv_pos_site_id
_symmetry_equiv_pos_as_xyz
1 x,y,z
2 1/2+x,1/2+y,1/2+z
3 x,-y,-z
4 1/2+x,1/2-y,1/2-z
5 -x,y,-z
6 1/2-x,1/2+y,1/2-z
7 -x,-y,z
8 1/2-x,1/2-y,1/2+z
_cell_length_a 11.464(3)
_cell_length_b 12.392(4)
_cell_length_c 18.831(4)
_cell_angle_alpha 90
_cell_angle_beta 90
_cell_angle_gamma 90
_cell_formula_units_Z 8
loop_
_atom_type_symbol
_atom_type_radius_bond
C 0.68
H 0.23
N 0.68
O 0.68
loop_
_atom_site_label
_atom_site_type_symbol
_atom_site_fract_x
_atom_site_fract_y
_atom_site_fract_z
O1 O 0.7283(4) 0.1542(4) 0.0409(3)
O2 O 0.3688(4) 0.0565(3) 0.1208(3)
N1 N 0.5245(4) 0.3500(4) 0.0893(3)
N2 N 0.6861(4) 0.2599(4) 0.0516(3)
N3 N 0.5246(4) 0.1551(4) 0.0870(3)
N4 N 0.2686(4) 0.2422(4) 0.1735(3)
N5 N 0.3620(5) 0.4392(4) 0.1271(3)
C1 C 0.5802(5) 0.2553(5) 0.0752(3)
C2 C 0.4152(5) 0.1425(4) 0.1136(3)
C3 C 0.3584(5) 0.2475(5) 0.1352(3)
C4 C 0.2226(7) 0.3458(6) 0.2035(4)
C5 C 0.2425(7) 0.4387(5) 0.1554(4)
C6 C 0.4202(5) 0.3476(5) 0.1148(3)
C7 C 0.8476(7) 0.1559(7) 0.0267(5)
C8 C 0.303(1) 0.3688(8) 0.2740(4)
C9 C 0.1023(7) 0.3242(7) 0.2278(5)
C10 C 0.1590(8) 0.4274(9) 0.0890(5)
C11 C 0.2192(7) 0.5495(5) 0.1867(4)
H1 H 0.56300 0.09700 0.07600
H2 H 0.39400 0.50000 0.11800
H3 H 0.87900 0.08400 0.02200
H4 H 0.89000 0.19300 0.06400
H5 H 0.86000 0.19500 -0.01800
H6 H 0.29100 0.44100 0.28800
H7 H 0.27600 0.31900 0.31200
H8 H 0.38200 0.35400 0.26200
H9 H 0.06900 0.39000 0.24600
H10 H 0.10400 0.27100 0.26600
H11 H 0.05800 0.29700 0.18900
H12 H 0.11900 0.49800 0.08300
H13 H 0.20500 0.41500 0.04600
H14 H 0.10500 0.37200 0.09700
H15 H 0.13700 0.56100 0.19100
H16 H 0.25400 0.60400 0.15600
H17 H 0.25600 0.55400 0.23300
#END
