
#######################################################################
#
#                 Cambridge Crystallographic Data Centre
#                                CCDC
#
#######################################################################
#
# If this CIF has been generated from an entry in the Cambridge
# Structural Database, then it will include bibliographic, chemical,
# crystal, experimental, refinement or atomic coordinate data resulting
# from the CCDC's data processing and validation procedures.
#
#######################################################################

data_CSD_CIF_FETXAD
_audit_creation_date 1987-11-26
_audit_creation_method CSD-ConQuest-V1
_database_code_CSD FETXAD
_chemical_formula_sum 'C5 H11 N1 O2'
_chemical_formula_moiety
;
C5 H11 N1 O2
;
_journal_coeditor_code "IUCr A26934"
_journal_coden_Cambridge 591
_journal_volume 43
_journal_year 1987
_journal_page_first 582
_journal_name_full 'Acta Crystallogr.,Sect.C:Cryst.Struct.Commun. '
loop_
_publ_author_name
"L.Due"
"H.Rasmussen"
"I.K.Larsen"
_chemical_name_systematic
;
Pivaloylhydroxamic acid
;
_cell_volume   1342.749
_exptl_crystal_density_diffrn 1.158
_diffrn_ambient_temperature 105
#These two values have been output from a single CSD field.
_refine_ls_R_factor_gt 0.041
_refine_ls_wR_factor_gt 0.041
_symmetry_cell_setting orthorhombic
_symmetry_space_group_name_H-M 'P b c n'
_symmetry_Int_Tables_number 60
loop_
_symmetry_equiv_pos_site_id
_symmetry_equiv_pos_as_xyz
1 x,y,z
2 1/2-x,1/2+y,z
3 x,-y,1/2+z
4 1/2-x,1/2-y,1/2+z
5 -x,-y,-z
6 -1/2+x,-1/2-y,-z
7 -x,y,-1/2-z
8 -1/2+x,-1/2+y,-1/2-z
_cell_length_a 11.230(6)
_cell_length_b 12.000(4)
_cell_length_c 9.964(7)
_cell_angle_alpha 90
_cell_angle_beta 90
_cell_angle_gamma 90
_cell_formula_units_Z 8
loop_
_atom_type_symbol
_atom_type_radius_bond
C 0.68
H 0.23
N 0.68
O 0.68
loop_
_atom_site_label
_atom_site_type_symbol
_atom_site_fract_x
_atom_site_fract_y
_atom_site_fract_z
C1 C 0.6695(1) -0.0195(1) 0.2093(2)
O1 O 0.6342(1) 0.0084(1) 0.3238(1)
N1 N 0.6352(1) 0.0353(1) 0.1009(1)
O2 O 0.5575(1) 0.1253(1) 0.1123(1)
C2 C 0.7496(1) -0.1211(1) 0.1892(1)
C3 C 0.8340(2) -0.1310(2) 0.3085(2)
C4 C 0.8229(2) -0.1143(2) 0.0600(2)
C5 C 0.6671(2) -0.2225(1) 0.1857(2)
H1 H 0.647(2) 0.016(2) 0.023(3)
H2 H 0.487(2) 0.091(2) 0.131(2)
H3 H 0.879(2) -0.199(2) 0.301(2)
H4 H 0.792(2) -0.142(2) 0.392(3)
H5 H 0.884(2) -0.064(2) 0.317(3)
H6 H 0.877(2) -0.045(2) 0.063(2)
H7 H 0.769(2) -0.116(2) -0.019(2)
H8 H 0.874(2) -0.180(2) 0.056(2)
H9 H 0.610(3) -0.218(2) 0.119(3)
H10 H 0.724(2) -0.287(2) 0.171(2)
H11 H 0.617(2) -0.227(2) 0.274(3)
#END
