
#######################################################################
#
#                 Cambridge Crystallographic Data Centre
#                                CCDC
#
#######################################################################
#
# If this CIF has been generated from an entry in the Cambridge
# Structural Database, then it will include bibliographic, chemical,
# crystal, experimental, refinement or atomic coordinate data resulting
# from the CCDC's data processing and validation procedures.
#
#######################################################################

data_CSD_CIF_FETZOT
_audit_creation_date 1987-11-26
_audit_creation_method CSD-ConQuest-V1
_database_code_CSD FETZOT
_database_code_depnum_ccdc_archive 'CCDC 1155155'
_chemical_formula_sum 'C20 H25 N3 O3'
_chemical_formula_moiety
;
C20 H25 N3 O3
;
_journal_coeditor_code "IUCr A26909"
_journal_coden_Cambridge 591
_journal_volume 43
_journal_year 1987
_journal_page_first 514
_journal_name_full 'Acta Crystallogr.,Sect.C:Cryst.Struct.Commun. '
loop_
_publ_author_name
"C.W.Holzapfel"
"G.J.Kruger"
"M.S.Van Dyk"
_chemical_name_systematic
;
2-Cyclohexyl-4\a-methyl-3,4,4a\a,5,10,10a\a-hexahydro-6-nitronaphth(2,3-e)(1,2
)oxazine-3\b-carbonitrile
;
_chemical_melting_point 447
_cell_volume   1861.317
_exptl_crystal_colour 'pale yellow'
_exptl_crystal_density_diffrn 1.268
_exptl_special_details
;
Melting point range 447-450K

;
_diffrn_ambient_temperature ?
_diffrn_special_details
;
The study was carried out at room temperature,in the range 283-303K

;
#These two values have been output from a single CSD field.
_refine_ls_R_factor_gt 0.052
_refine_ls_wR_factor_gt 0.052
_symmetry_cell_setting monoclinic
_symmetry_space_group_name_H-M 'P 21/n'
_symmetry_Int_Tables_number 14
loop_
_symmetry_equiv_pos_site_id
_symmetry_equiv_pos_as_xyz
1 x,y,z
2 1/2-x,1/2+y,1/2-z
3 -x,-y,-z
4 -1/2+x,-1/2-y,-1/2+z
_cell_length_a 13.375(9)
_cell_length_b 11.601(8)
_cell_length_c 12.725(8)
_cell_angle_alpha 90
_cell_angle_beta 109.49(6)
_cell_angle_gamma 90
_cell_formula_units_Z 4
loop_
_atom_type_symbol
_atom_type_radius_bond
C 0.68
H 0.23
N 0.68
O 0.68
loop_
_atom_site_label
_atom_site_type_symbol
_atom_site_fract_x
_atom_site_fract_y
_atom_site_fract_z
O1 O 0.3532(1) 0.1361(1) -0.0915(1)
N1 N 0.3111(1) 0.1549(1) -0.0009(1)
C1 C 0.3391(2) 0.2737(2) 0.0359(2)
C2 C 0.2801(2) 0.3569(2) -0.0595(2)
C3 C 0.2965(2) 0.3233(2) -0.1699(2)
C4 C 0.4050(2) 0.3617(2) -0.1732(2)
C5 C 0.4226(1) 0.3244(2) -0.2791(2)
C6 C 0.4862(2) 0.3859(2) -0.3268(2)
C7 C 0.4977(2) 0.3580(2) -0.4277(2)
C8 C 0.4450(2) 0.2626(2) -0.4834(2)
C9 C 0.3835(2) 0.1974(2) -0.4378(2)
C10 C 0.3719(1) 0.2268(2) -0.3361(1)
C11 C 0.3054(2) 0.1504(2) -0.2898(2)
C12 C 0.2816(2) 0.1938(2) -0.1880(2)
C13 C 0.3594(2) 0.0642(2) 0.0817(2)
C14 C 0.3197(2) -0.0526(2) 0.0300(2)
C15 C 0.3600(2) -0.1494(2) 0.1153(2)
C16 C 0.3285(2) -0.1297(2) 0.2177(2)
C17 C 0.3677(3) -0.0141(2) 0.2694(2)
C18 C 0.3307(2) 0.0852(2) 0.1864(2)
C19 C 0.4553(2) 0.2917(2) 0.0806(2)
N2 N 0.5445(2) 0.3010(2) 0.1177(2)
C20 C 0.1626(2) 0.3582(2) -0.0712(2)
N3 N 0.5486(2) 0.4846(2) -0.2665(2)
O2 O 0.6051(1) 0.4705(2) -0.1702(1)
O3 O 0.5422(2) 0.5757(2) -0.3155(2)
H1 H 0.312(1) 0.291(2) 0.100(2)
H2 H 0.311(2) 0.433(2) -0.037(2)
H3 H 0.238(2) 0.358(2) -0.233(2)
H4 H 0.410(2) 0.446(2) -0.165(2)
H5 H 0.462(2) 0.329(2) -0.111(2)
H6 H 0.542(2) 0.407(2) -0.455(2)
H7 H 0.450(2) 0.243(2) -0.555(2)
H8 H 0.346(2) 0.127(2) -0.478(2)
H9 H 0.236(2) 0.138(2) -0.350(2)
H10 H 0.342(2) 0.074(2) -0.271(2)
H11 H 0.209(2) 0.171(2) -0.193(1)
H12 H 0.439(2) 0.066(2) 0.101(2)
H13 H 0.241(2) -0.048(2) 0.009(2)
H14 H 0.343(2) -0.067(2) -0.036(2)
H15 H 0.444(2) -0.151(2) 0.141(2)
H16 H 0.337(2) -0.224(3) 0.081(2)
H17 H 0.250(2) -0.132(2) 0.197(2)
H18 H 0.355(2) -0.192(2) 0.273(2)
H19 H 0.344(2) 0.001(3) 0.334(3)
H20 H 0.450(2) -0.019(2) 0.302(2)
H21 H 0.251(2) 0.091(2) 0.162(2)
H22 H 0.360(2) 0.158(3) 0.222(3)
H23 H 0.130(2) 0.278(2) -0.088(2)
H24 H 0.152(2) 0.389(2) -0.001(2)
H25 H 0.124(2) 0.412(2) -0.133(2)
#END
