
#######################################################################
#
#                 Cambridge Crystallographic Data Centre
#                                CCDC
#
#######################################################################
#
# If this CIF has been generated from an entry in the Cambridge
# Structural Database, then it will include bibliographic, chemical,
# crystal, experimental, refinement or atomic coordinate data resulting
# from the CCDC's data processing and validation procedures.
#
#######################################################################

data_CSD_CIF_FETZOU
_audit_creation_date 2005-05-23
_audit_creation_method CSD-ConQuest-V1
_database_code_CSD FETZOU
_database_code_depnum_ccdc_archive 'CCDC 263707'
_chemical_formula_sum 'C31 H28 N2 O4'
_chemical_formula_moiety
;
C31 H28 N2 O4
;
_journal_coeditor_code "IUCr GH6010"
_journal_coden_Cambridge 1370
_journal_volume 61
_journal_year 2005
_journal_page_first o359
_journal_name_full 'Acta Crystallogr.,Sect.E:Struct.Rep.Online '
loop_
_publ_author_name
"S.Natarajan"
"R.V.Krishnakumar"
"M.S.Nandhini"
"V.P.A.Raja"
"S.Perumal"
"K.Ravikumar"
_chemical_name_systematic
;
2,6-bis(4-Methoxyphenyl)-1-nitroso-3,5-diphenylpiperidin-4-one
;
_chemical_melting_point 476
_cell_volume   2594.375
_exptl_crystal_colour 'yellow'
_exptl_crystal_density_diffrn 1.261
_exptl_special_details
;
potential biological activity

;
_exptl_crystal_description 'block'
_exptl_crystal_preparation 'ethanol'
_diffrn_ambient_temperature 293
#These two values have been output from a single CSD field.
_refine_ls_R_factor_gt 0.0508
_refine_ls_wR_factor_gt 0.0508
_symmetry_cell_setting monoclinic
_symmetry_space_group_name_H-M 'P 21/n'
_symmetry_Int_Tables_number 14
loop_
_symmetry_equiv_pos_site_id
_symmetry_equiv_pos_as_xyz
1 x,y,z
2 1/2-x,1/2+y,1/2-z
3 -x,-y,-z
4 -1/2+x,-1/2-y,-1/2+z
_cell_length_a 10.8364(8)
_cell_length_b 19.4649(15)
_cell_length_c 12.6722(10)
_cell_angle_alpha 90
_cell_angle_beta 103.926(1)
_cell_angle_gamma 90
_cell_formula_units_Z 4
loop_
_atom_type_symbol
_atom_type_radius_bond
C 0.68
H 0.23
N 0.68
O 0.68
loop_
_atom_site_label
_atom_site_type_symbol
_atom_site_fract_x
_atom_site_fract_y
_atom_site_fract_z
O1 O 0.83279(13) 0.22517(6) 0.28065(11)
O2 O 0.52329(11) 0.06836(6) -0.04872(8)
O3 O 0.57672(16) 0.08778(8) 0.64153(10)
O4 O 0.92407(15) -0.17451(7) 0.39526(12)
N1 N 0.79216(12) 0.12497(6) 0.20969(10)
N2 N 0.87313(14) 0.17673(7) 0.23730(12)
C1 C 0.83396(14) 0.07025(8) 0.14615(13)
H1 H 0.91710 0.08450 0.13610
C2 C 0.60405(14) 0.07243(7) 0.03482(12)
C3 C 0.85563(14) 0.00329(8) 0.20911(13)
C4 C 0.95121(16) 0.00203(9) 0.30429(15)
H2 H 0.99910 0.04150 0.32550
C5 C 0.97732(17) -0.05562(9) 0.36820(16)
H3 H 1.04240 -0.05510 0.43120
C6 C 0.90627(18) -0.11442(8) 0.33829(15)
C7 C 0.81103(17) -0.11466(9) 0.24307(15)
H4 H 0.76310 -0.15420 0.22220
C8 C 0.78727(15) -0.05666(8) 0.17936(14)
H5 H 0.72410 -0.05770 0.11510
C9 C 1.0187(3) -0.17499(11) 0.4942(2)
H6 H 1.02220 -0.21970 0.52690
H7 H 0.99820 -0.14130 0.54270
H8 H 1.09970 -0.16430 0.48010
C10 C 0.74351(15) 0.06921(8) 0.03230(12)
H9 H 0.75700 0.02570 -0.00220
C11 C 0.77261(16) 0.12679(10) -0.03854(13)
C12 C 0.8381(2) 0.11420(14) -0.11674(18)
H10 H 0.86570 0.06990 -0.12660
C13 C 0.8634(3) 0.1682(2) -0.1819(2)
H11 H 0.90840 0.15940 -0.23430
C14 C 0.8235(3) 0.23261(19) -0.1696(2)
H12 H 0.83920 0.26770 -0.21450
C15 C 0.7605(3) 0.24627(14) -0.0919(2)
H13 H 0.73420 0.29080 -0.08230
C16 C 0.7353(2) 0.1938(1) -0.02676(16)
H14 H 0.69210 0.20380 0.02650
C17 C 0.57287(13) 0.07906(7) 0.14524(11)
H15 H 0.58740 0.03370 0.17970
C18 C 0.43551(14) 0.09710(8) 0.13803(12)
C19 C 0.37838(18) 0.15127(9) 0.07422(16)
H16 H 0.42490 0.17610 0.03440
C20 C 0.2545(2) 0.16934(12) 0.0683(2)
H17 H 0.21740 0.20540 0.02360
C21 C 0.1864(2) 0.13464(14) 0.1275(3)
H18 H 0.10310 0.14750 0.12500
C22 C 0.2403(2) 0.08061(14) 0.1911(2)
H19 H 0.19280 0.05660 0.23110
C23 C 0.36544(18) 0.0611(1) 0.19675(16)
H20 H 0.40130 0.02410 0.23980
C24 C 0.66115(14) 0.12995(7) 0.22228(11)
H21 H 0.63090 0.17640 0.19970
C25 C 0.65001(14) 0.12069(7) 0.33847(11)
C26 C 0.60150(17) 0.17300(8) 0.38929(13)
H22 H 0.58530 0.21540 0.35480
C27 C 0.57602(18) 0.16434(9) 0.49069(14)
H23 H 0.54240 0.20040 0.52290
C28 C 0.60062(17) 0.10248(9) 0.54308(13)
C29 C 0.65232(18) 0.04954(9) 0.49450(14)
H24 H 0.67100 0.00780 0.53040
C30 C 0.67624(17) 0.05846(8) 0.39337(13)
H25 H 0.71030 0.02240 0.36140
C31 C 0.5134(3) 0.13859(15) 0.68988(17)
H26 H 0.50240 0.12200 0.75840
H27 H 0.43170 0.14820 0.64260
H28 H 0.56340 0.17990 0.70130
#END
