
#######################################################################
#
#                 Cambridge Crystallographic Data Centre
#                                CCDC
#
#######################################################################
#
# If this CIF has been generated from an entry in the Cambridge
# Structural Database, then it will include bibliographic, chemical,
# crystal, experimental, refinement or atomic coordinate data resulting
# from the CCDC's data processing and validation procedures.
#
#######################################################################

data_CSD_CIF_FEVBUD01
_audit_creation_date 1988-09-21
_audit_creation_method CSD-ConQuest-V1
_database_code_CSD FEVBUD01
_database_code_depnum_ccdc_archive 'CCDC 1155161'
_chemical_formula_sum 'C22 H34 N2 O4'
_chemical_formula_moiety
;
C22 H34 N2 O4
;
_journal_coden_Cambridge 182
_journal_year 1988
_journal_page_first 322
_journal_name_full 'Chem.Commun. '
loop_
_publ_author_name
"J.S.Miller"
"D.T.Glatzhofer"
"J.C.Calabrese"
"A.J.Epstein"
_chemical_name_systematic
;
1,4-bis(2,2,6,6-Tetramethyl-4-hydroxy-1-oxy-piperid-4-yl)butadiyne
;
_cell_volume   2174.133
_exptl_crystal_colour 'orange'
_exptl_crystal_density_diffrn 1.193
_exptl_special_details
;
beta orthorhombic Pca21 polymorph
cell data at room temperature

;
_diffrn_ambient_temperature 173.15
#These two values have been output from a single CSD field.
_refine_ls_R_factor_gt 0.048
_refine_ls_wR_factor_gt 0.048
_symmetry_cell_setting orthorhombic
_symmetry_space_group_name_H-M 'P c a 21'
_symmetry_Int_Tables_number 29
loop_
_symmetry_equiv_pos_site_id
_symmetry_equiv_pos_as_xyz
1 x,y,z
2 1/2-x,y,1/2+z
3 1/2+x,-y,z
4 -x,-y,1/2+z
_cell_length_a 14.265(1)
_cell_length_b 8.079(3)
_cell_length_c 18.865(2)
_cell_angle_alpha 90
_cell_angle_beta 90
_cell_angle_gamma 90
_cell_formula_units_Z 4
loop_
_atom_type_symbol
_atom_type_radius_bond
C 0.68
H 0.23
N 0.68
O 0.68
loop_
_atom_site_label
_atom_site_type_symbol
_atom_site_fract_x
_atom_site_fract_y
_atom_site_fract_z
O1 O 0.7249(3) 0.3804(6) 0.70830
O2 O 0.3460(3) 0.3712(6) 0.7571(4)
O3 O 0.5284(3) 1.1061(6) 0.4587(3)
O4 O 0.9039(3) 1.1245(5) 0.4019(4)
N1 N 0.4359(4) 0.3788(7) 0.7458(4)
N2 N 0.8170(4) 1.1093(6) 0.4187(4)
C1 C 0.6238(5) 0.5596(9) 0.6505(5)
C2 C 0.6247(4) 0.6762(10) 0.6089(5)
C3 C 0.6248(5) 0.8070(8) 0.5610(5)
C4 C 0.6273(5) 0.9133(8) 0.5184(5)
C5 C 0.6282(4) 0.4350(8) 0.7036(5)
C6 C 0.5760(4) 0.2715(7) 0.6822(4)
C7 C 0.4679(4) 0.2798(7) 0.6828(5)
C8 C 0.4858(7) 0.5085(7) 0.7843(6)
C9 C 0.5927(8) 0.4812(8) 0.7765(7)
C10 C 0.4306(5) 0.1084(8) 0.6893(5)
C11 C 0.4298(5) 0.3664(11) 0.6159(5)
C12 C 0.4600(8) 0.4933(8) 0.8618(7)
C13 C 0.4571(5) 0.6791(9) 0.7570(6)
C14 C 0.6234(5) 1.0548(9) 0.4645(6)
C15 C 0.6585(8) 0.9917(8) 0.3917(7)
C16 C 0.7634(7) 0.9642(9) 0.3847(6)
C17 C 0.7849(4) 1.1946(7) 0.4838(5)
C18 C 0.6780(5) 1.2032(7) 0.4843(5)
C19 C 0.7987(5) 0.8044(7) 0.4173(5)
C20 C 0.7891(8) 0.9632(10) 0.3050(7)
C21 C 0.8227(5) 1.3741(9) 0.4799(5)
C22 C 0.8257(5) 1.1140(9) 0.5500(5)
H1 H 0.76270 0.46990 0.72510
H2 H 0.49280 1.01630 0.43820
H3 H 0.59580 0.18380 0.71250
H4 H 0.59690 0.23560 0.63750
H5 H 0.62740 0.57570 0.79320
H6 H 0.61400 0.39760 0.80950
H7 H 0.44980 0.04620 0.64940
H8 H 0.36380 0.11320 0.69070
H9 H 0.45360 0.06050 0.73130
H10 H 0.44870 0.30450 0.57560
H11 H 0.45390 0.47410 0.61390
H12 H 0.36320 0.36840 0.61840
H13 H 0.49090 0.57480 0.88870
H14 H 0.47630 0.38610 0.87830
H15 H 0.39360 0.50760 0.86580
H16 H 0.49060 0.76190 0.78180
H17 H 0.39190 0.69170 0.76480
H18 H 0.47040 0.68580 0.70780
H19 H 0.63950 1.06490 0.35550
H20 H 0.62800 0.89480 0.37910
H21 H 0.65670 1.24450 0.52840
H22 H 0.65820 1.29370 0.45530
H23 H 0.76770 0.71420 0.39620
H24 H 0.78730 0.80670 0.46670
H25 H 0.86500 0.79420 0.40930
H26 H 0.75770 0.87310 0.28280
H27 H 0.85510 0.94900 0.29940
H28 H 0.77020 1.06380 0.28400
H29 H 0.80340 1.43510 0.52100
H30 H 0.79830 1.42850 0.43890
H31 H 0.88910 1.37400 0.47770
H32 H 0.80370 1.16900 0.59150
H33 H 0.89250 1.11990 0.54900
H34 H 0.80760 1.00000 0.55260
#END
