
#######################################################################
#
#                 Cambridge Crystallographic Data Centre
#                                CCDC
#
#######################################################################
#
# If this CIF has been generated from an entry in the Cambridge
# Structural Database, then it will include bibliographic, chemical,
# crystal, experimental, refinement or atomic coordinate data resulting
# from the CCDC's data processing and validation procedures.
#
#######################################################################

data_CSD_CIF_FEVVUA
_audit_creation_date 2018-03-29
_audit_creation_method CSD-ConQuest-V1
_database_code_CSD FEVVUA
_database_code_depnum_ccdc_archive 'CCDC 1555747'
_chemical_formula_sum 'C24 H20 N2 O2'
_chemical_formula_moiety
;
C24 H20 N2 O2
;
_journal_coden_Cambridge 388
_journal_volume 54
_journal_year 2018
_journal_page_first 112
_journal_name_full 'Zh.Org.Khim.(Russ.)(Russ.J.Org.Chem.) '
loop_
_publ_author_name
"L.V.Lenshmidt"
"M.S.Ledovskaya"
"A.G.Larina"
"A.S.Filatov"
"A.P.Molchanov"
"R.R.Kostikov"
"A.V.Stepakov"
_chemical_name_systematic
;
(+-)-(8aR,11aS,11bS)-9-(4-methylphenyl)-5,8a,11a,11b-tetrahydrobenzo[f][1,2]ox
azolo[5',4':3,4]pyrrolo[2,1-a]isoquinolin-8(6H)-one
;
_chemical_melting_point 523.15
_cell_volume   1812.812
_exptl_crystal_density_diffrn 1.35
_exptl_special_details
;
decomposes above 250 deg.C

;
_exptl_crystal_preparation 'dichloromethane/ethanol'
_diffrn_ambient_temperature 100
#These two values have been output from a single CSD field.
_refine_ls_R_factor_gt 0.0482
_refine_ls_wR_factor_gt 0.0482
loop_
_citation_database_id_CSD
_citation_special_details
FEVWAH "is a stereoisomer of this entry"
_symmetry_cell_setting monoclinic
_symmetry_space_group_name_H-M 'P 21/c'
_symmetry_Int_Tables_number 14
loop_
_symmetry_equiv_pos_site_id
_symmetry_equiv_pos_as_xyz
1 x,y,z
2 -x,1/2+y,1/2-z
3 -x,-y,-z
4 x,-1/2-y,-1/2+z
_cell_length_a 17.0717(8)
_cell_length_b 10.1112(5)
_cell_length_c 10.5489(5)
_cell_angle_alpha 90
_cell_angle_beta 95.403(4)
_cell_angle_gamma 90
_cell_formula_units_Z 4
loop_
_atom_type_symbol
_atom_type_radius_bond
C 0.68
H 0.23
N 0.68
O 0.68
loop_
_atom_site_label
_atom_site_type_symbol
_atom_site_fract_x
_atom_site_fract_y
_atom_site_fract_z
O1 O 0.71634(6) 0.45572(11) 0.44354(11)
O2 O 0.64114(7) 0.07279(10) 0.49551(10)
N1 N 0.66215(7) 0.45796(13) 0.53827(13)
N2 N 0.73151(8) 0.16084(13) 0.37196(12)
C1 C 0.68428(9) 0.37494(15) 0.33728(14)
H1 H 0.66170 0.42900 0.26590
C2 C 0.74528(9) 0.27721(15) 0.29622(14)
H2 H 0.73220 0.25570 0.20610
C3 C 0.82974(9) 0.32272(16) 0.31431(14)
C4 C 0.84822(10) 0.44639(16) 0.26240(14)
H3 H 0.80850 0.49610 0.21880
C5 C 0.92298(10) 0.49402(18) 0.27505(15)
H4 H 0.93410 0.57500 0.23900
C6 C 0.98402(10) 0.42110(18) 0.34276(15)
C7 C 1.06213(10) 0.4697(2) 0.36007(16)
H5 H 1.07410 0.55030 0.32420
C8 C 1.12006(11) 0.4000(2) 0.42868(18)
H6 H 1.17130 0.43210 0.43780
C9 C 1.10211(11) 0.2804(2) 0.48499(19)
H7 H 1.14160 0.23420 0.53300
C10 C 1.02745(11) 0.2297(2) 0.47086(17)
H8 H 1.01680 0.15010 0.50990
C11 C 0.96611(10) 0.29760(17) 0.39711(15)
C12 C 0.88717(9) 0.24758(16) 0.37930(14)
C13 C 0.8687(1) 0.11363(17) 0.43452(17)
H9 H 0.91010 0.05200 0.41810
H10 H 0.86860 0.12200 0.52610
C14 C 0.7902(1) 0.05730(16) 0.38034(17)
H11 H 0.79510 0.02070 0.29640
H12 H 0.77440 -0.01320 0.43480
C15 C 0.66395(9) 0.16048(15) 0.42766(14)
C16 C 0.62215(9) 0.29178(15) 0.39357(14)
H13 H 0.57440 0.28070 0.33540
C17 C 0.60841(9) 0.37110(14) 0.51049(14)
C18 C 0.54194(9) 0.35219(15) 0.58723(13)
C19 C 0.49038(9) 0.24635(15) 0.56168(14)
H14 H 0.49940 0.18650 0.49770
C20 C 0.42597(9) 0.22963(15) 0.63064(14)
H15 H 0.39170 0.15950 0.61100
C21 C 0.41140(9) 0.31585(15) 0.72886(14)
C22 C 0.33996(9) 0.29631(16) 0.80094(15)
H16 H 0.29320 0.30320 0.74320
H17 H 0.33910 0.36290 0.86570
H18 H 0.34210 0.21040 0.83980
C23 C 0.46381(9) 0.42028(15) 0.75532(14)
H19 H 0.45580 0.47830 0.82130
C24 C 0.52758(9) 0.43940(15) 0.68539(14)
H20 H 0.56110 0.51070 0.70380
#END
