
#######################################################################
#
#                 Cambridge Crystallographic Data Centre
#                                CCDC
#
#######################################################################
#
# If this CIF has been generated from an entry in the Cambridge
# Structural Database, then it will include bibliographic, chemical,
# crystal, experimental, refinement or atomic coordinate data resulting
# from the CCDC's data processing and validation procedures.
#
#######################################################################

data_CSD_CIF_FEVZOV
_audit_creation_date 1987-11-26
_audit_creation_method CSD-ConQuest-V1
_database_code_CSD FEVZOV
_chemical_formula_sum 'C18 H16 N2 O6'
_chemical_formula_moiety
;
C18 H16 N2 O6
;
_journal_coden_Cambridge 4
_journal_volume 108
_journal_year 1986
_journal_page_first 8111
_journal_name_full 'J.Am.Chem.Soc. '
loop_
_publ_author_name
"L.A.Paquette"
"C.J.Lau"
"A.R.Browne"
"M.E.O'Brien"
_chemical_name_systematic
;
1,1a,2,3,6,7-Hexahydro-8-hydroxy-3a,6-methano-3aH-cyclopropa(c)indene-2,4-dini
trobenzoate
;
_chemical_melting_point 395.15
_cell_volume   1660.417
_exptl_crystal_colour 'pale yellow'
_exptl_crystal_density_diffrn 1.42
_exptl_special_details
;
Melting point range 395.15-399.15K

;
_diffrn_ambient_temperature ?
_diffrn_special_details
;
The study was carried out at room temperature,in the range 283-303K

;
#These two values have been output from a single CSD field.
_refine_ls_R_factor_gt 0.054
_refine_ls_wR_factor_gt 0.054
_symmetry_cell_setting monoclinic
_symmetry_space_group_name_H-M 'P 21/a'
_symmetry_Int_Tables_number 14
loop_
_symmetry_equiv_pos_site_id
_symmetry_equiv_pos_as_xyz
1 x,y,z
2 1/2-x,1/2+y,-z
3 -x,-y,-z
4 -1/2+x,-1/2-y,z
_cell_length_a 25.114(3)
_cell_length_b 6.375(1)
_cell_length_c 10.518(1)
_cell_angle_alpha 90
_cell_angle_beta 99.59(1)
_cell_angle_gamma 90
_cell_formula_units_Z 4
loop_
_atom_type_symbol
_atom_type_radius_bond
C 0.68
H 0.23
N 0.68
O 0.68
loop_
_atom_site_label
_atom_site_type_symbol
_atom_site_fract_x
_atom_site_fract_y
_atom_site_fract_z
O1 O 0.0919(2) 0.221(1) 0.2575(5)
O2 O 0.0739(2) 0.5063(8) 0.3485(4)
O3 O 0.2890(2) 0.9904(7) 0.3787(4)
O4 O 0.2117(2) 1.0411(7) 0.4346(4)
O5 O 0.2585(1) 0.1458(7) 0.0744(4)
O6 O 0.3235(1) 0.3760(6) 0.1488(3)
N1 N 0.1037(2) 0.398(1) 0.2974(5)
N2 N 0.2431(2) 0.9387(8) 0.3823(4)
C1 C 0.1882(2) 0.3645(8) 0.2112(4)
C2 C 0.1567(2) 0.481(1) 0.2789(5)
C3 C 0.1729(2) 0.670(1) 0.3345(4)
C4 C 0.2228(2) 0.7395(8) 0.3211(4)
C5 C 0.2567(2) 0.6283(9) 0.2556(4)
C6 C 0.2388(2) 0.4372(8) 0.1997(4)
C7 C 0.2741(2) 0.302(1) 0.1310(4)
C8 C 0.3650(2) 0.2686(9) 0.0946(5)
C9 C 0.3851(2) 0.397(1) -0.0102(5)
C10 C 0.4037(2) 0.601(1) 0.0645(5)
C11 C 0.4268(2) 0.5128(9) 0.1956(5)
C12 C 0.4736(2) 0.593(1) 0.2901(5)
C13 C 0.4185(2) 0.577(1) 0.3290(5)
C14 C 0.4062(2) 0.383(1) 0.4018(5)
C15 C 0.4224(2) 0.196(1) 0.3247(6)
C16 C 0.4191(2) 0.2754(9) 0.1860(5)
C17 C 0.4541(2) 0.195(1) 0.0938(6)
C18 C 0.4341(2) 0.270(1) -0.0206(6)
H1 H 0.17560 0.23500 0.17200
H2 H 0.15010 0.74930 0.38120
H3 H 0.29104 0.68150 0.24900
H4 H 0.35500 0.12940 0.06720
H5 H 0.36000 0.41290 -0.08780
H6 H 0.43020 0.67400 0.02730
H7 H 0.37400 0.69290 0.06920
H8 H 0.50140 0.50120 0.32710
H9 H 0.48810 0.72770 0.27790
H10 H 0.39920 0.70280 0.33840
H11 H 0.42580 0.38290 0.48710
H12 H 0.36830 0.37620 0.40580
H13 H 0.45870 0.15460 0.35780
H14 H 0.39900 0.08100 0.32760
H15 H 0.48530 0.10860 0.11410
H16 H 0.44860 0.24660 -0.09780
#END
