
#######################################################################
#
#                 Cambridge Crystallographic Data Centre
#                                CCDC
#
#######################################################################
#
# If this CIF has been generated from an entry in the Cambridge
# Structural Database, then it will include bibliographic, chemical,
# crystal, experimental, refinement or atomic coordinate data resulting
# from the CCDC's data processing and validation procedures.
#
#######################################################################

data_CSD_CIF_FEWSOS
_audit_creation_date 2018-03-30
_audit_creation_method CSD-ConQuest-V1
_database_code_CSD FEWSOS
_database_code_depnum_ccdc_archive 'CCDC 1820200'
_chemical_formula_sum 'C26 H27 N3 O2'
_chemical_formula_moiety
;
C26 H27 N3 O2
;
_journal_coden_Cambridge 119
_journal_volume 1165
_journal_year 2018
_journal_page_first 153
_journal_name_full 'J.Mol.Struct. '
loop_
_publ_author_name
"A.Mohamed"
"E.Zaballos-Garcia"
"L.Mohamed"
"S.Dahaoui"
"A.Baouid"
_chemical_name_systematic
;
1-(cyclohex-1-en-1-yl)-3-{[3-(2,4,6-trimethylphenyl)-1,2-oxazol-5-yl]methyl}-1
,3-dihydro-2H-benzimidazol-2-one
;
_cell_volume   4641.524
_exptl_crystal_colour 'white'
_exptl_crystal_density_diffrn 1.183
_exptl_crystal_description 'box'
_diffrn_ambient_temperature 100
#These two values have been output from a single CSD field.
_refine_ls_R_factor_gt 0.0498
_refine_ls_wR_factor_gt 0.0498
_symmetry_cell_setting monoclinic
_symmetry_space_group_name_H-M 'I 2/a'
_symmetry_Int_Tables_number 15
loop_
_symmetry_equiv_pos_site_id
_symmetry_equiv_pos_as_xyz
1 x,y,z
2 1/2-x,y,-z
3 1/2+x,1/2+y,1/2+z
4 -x,1/2+y,1/2-z
5 -x,-y,-z
6 -1/2+x,-y,z
7 -1/2-x,-1/2-y,-1/2-z
8 x,-1/2-y,-1/2+z
_cell_length_a 10.5711(2)
_cell_length_b 23.5384(3)
_cell_length_c 19.2413(4)
_cell_angle_alpha 90
_cell_angle_beta 104.197(2)
_cell_angle_gamma 90
_cell_formula_units_Z 8
loop_
_atom_type_symbol
_atom_type_radius_bond
C 0.68
H 0.23
N 0.68
O 0.68
loop_
_atom_site_label
_atom_site_type_symbol
_atom_site_fract_x
_atom_site_fract_y
_atom_site_fract_z
C1 C 0.59067(12) 0.24888(6) 0.19335(7)
C2 C 0.60189(13) 0.29645(6) 0.15325(8)
H1 H 0.64270 0.29472 0.11447
C3 C 0.55047(14) 0.34733(6) 0.17225(9)
H2 H 0.55762 0.38099 0.14623
C4 C 0.48903(14) 0.34962(6) 0.22851(9)
H3 H 0.45495 0.38476 0.24002
C5 C 0.47657(13) 0.30110(6) 0.26840(8)
H4 H 0.43410 0.30251 0.30654
C6 C 0.52867(12) 0.25102(6) 0.24998(7)
C7 C 0.60111(12) 0.16059(6) 0.24320(8)
C8 C 0.49135(14) 0.17927(6) 0.34107(8)
C9 C 0.36377(14) 0.18015(7) 0.33795(8)
H5 H 0.30488 0.19092 0.29423
C10 C 0.30959(15) 0.16486(7) 0.40059(9)
H6 H 0.26745 0.12708 0.39213
H7 H 0.24195 0.19290 0.40463
C11 C 0.41502(16) 0.16354(8) 0.47086(9)
H8 H 0.38076 0.14435 0.50823
H9 H 0.43916 0.20287 0.48701
C12 C 0.53603(16) 0.13191(8) 0.46087(10)
H10 H 0.60158 0.12950 0.50738
H11 H 0.51167 0.09276 0.44400
C13 C 0.59474(14) 0.16280(7) 0.40644(9)
H12 H 0.64076 0.19733 0.42883
H13 H 0.65942 0.13782 0.39220
C14 C 0.70803(13) 0.17064(6) 0.14231(8)
H14 H 0.75091 0.13490 0.16271
H15 H 0.77734 0.19808 0.13909
C15 C 0.62587(12) 0.15915(6) 0.06861(8)
C16 C 0.55685(13) 0.11374(6) 0.03762(8)
H16 H 0.54693 0.07818 0.05904
C17 C 0.50223(12) 0.13097(5) -0.03432(7)
C18 C 0.41800(12) 0.09807(5) -0.09389(7)
C19 C 0.29317(13) 0.11804(6) -0.12916(7)
C20 C 0.21939(13) 0.08663(6) -0.18631(8)
H17 H 0.13515 0.09996 -0.21024
C21 C 0.26511(14) 0.03643(6) -0.20942(8)
C22 C 0.38874(14) 0.01683(6) -0.17320(8)
H18 H 0.42080 -0.01766 -0.18799
C23 C 0.46578(13) 0.04700(6) -0.11579(7)
C24 C 0.23592(13) 0.17219(6) -0.10769(9)
H19 H 0.26120 0.20432 -0.13374
H20 H 0.26886 0.17824 -0.05601
H21 H 0.14058 0.16913 -0.11940
C25 C 0.18234(17) 0.00378(7) -0.27173(10)
H22 H 0.13356 -0.02584 -0.25368
H23 H 0.23866 -0.01380 -0.29924
H24 H 0.12106 0.02978 -0.30274
C26 C 0.60040(13) 0.02498(6) -0.07914(8)
H25 H 0.60063 0.01176 -0.03081
H26 H 0.66447 0.05556 -0.07598
H27 H 0.62312 -0.00662 -0.10696
N1 N 0.53643(11) 0.19676(5) 0.28007(7)
N2 N 0.63357(11) 0.19325(5) 0.19039(7)
N3 N 0.53636(14) 0.18321(6) -0.04548(7)
O1 O 0.62336(10) 0.11004(5) 0.25453(6)
O2 O 0.61553(11) 0.20183(5) 0.02065(6)
#END
