
#######################################################################
#
#                 Cambridge Crystallographic Data Centre
#                                CCDC
#
#######################################################################
#
# If this CIF has been generated from an entry in the Cambridge
# Structural Database, then it will include bibliographic, chemical,
# crystal, experimental, refinement or atomic coordinate data resulting
# from the CCDC's data processing and validation procedures.
#
#######################################################################

data_CSD_CIF_FEXBOZ
_audit_creation_date 1988-01-14
_audit_creation_method CSD-ConQuest-V1
_database_code_CSD FEXBOZ
_database_code_depnum_ccdc_archive 'CCDC 1155350'
_chemical_formula_sum 'C11 H15 N1 O1'
_chemical_formula_moiety
;
C11 H15 N1 O1
;
_journal_coden_Cambridge 603
_journal_volume 6
_journal_year 1987
_journal_page_first 17
_journal_name_full 'Jiegou Huaxue(Chin.)(Chin.J.Struct.Chem.) '
loop_
_publ_author_name
"Liu Yang"
"Wang Xiuhua"
"Chen Benming"
"Xu Guangzhi"
_chemical_name_systematic
;
N-Benzylidene-t-butylamine N-oxide
;
_chemical_name_common
;
Phenyl-t-butyl nitrone
;
_cell_volume   1082.374
_exptl_crystal_density_diffrn 1.09
_diffrn_ambient_temperature ?
_diffrn_special_details
;
The study was carried out at room temperature,in the range 283-303K

;
#These two values have been output from a single CSD field.
_refine_ls_R_factor_gt 0.071
_refine_ls_wR_factor_gt 0.071
_symmetry_cell_setting orthorhombic
_symmetry_space_group_name_H-M 'P c 21 b'
_symmetry_Int_Tables_number 29
loop_
_symmetry_equiv_pos_site_id
_symmetry_equiv_pos_as_xyz
1 x,y,z
2 -x,y,1/2+z
3 x,1/2+y,1/2-z
4 -x,1/2+y,-z
_cell_length_a 8.994(4)
_cell_length_b 9.606(6)
_cell_length_c 12.528(6)
_cell_angle_alpha 90
_cell_angle_beta 90
_cell_angle_gamma 90
_cell_formula_units_Z 4
loop_
_atom_type_symbol
_atom_type_radius_bond
C 0.68
N 0.68
O 0.68
loop_
_atom_site_label
_atom_site_type_symbol
_atom_site_fract_x
_atom_site_fract_y
_atom_site_fract_z
C1 C 0.6517(8) 0.5742(11) 0.3004(6)
C2 C 0.5729(9) 0.6912(12) 0.2629(9)
C3 C 0.4526(11) 0.7436(12) 0.3211(10)
C4 C 0.4104(11) 0.6820(15) 0.4154(9)
C5 C 0.4870(13) 0.5656(15) 0.4509(8)
C6 C 0.6059(10) 0.5122(12) 0.3956(7)
C7 C 0.7759(9) 0.5110(11) 0.2460(8)
N1 N 0.8533(7) 0.5648(8) 0.1655(5)
O1 O 0.8269(6) 0.68730 0.1242(5)
C8 C 0.9831(10) 0.4866(10) 0.1163(7)
C9 C 1.0037(14) 0.3458(11) 0.1639(11)
C10 C 0.9478(13) 0.4747(15) -0.0021(8)
C11 C 1.1205(10) 0.5747(13) 0.1349(9)
#END
