
#######################################################################
#
#                 Cambridge Crystallographic Data Centre
#                                CCDC
#
#######################################################################
#
# If this CIF has been generated from an entry in the Cambridge
# Structural Database, then it will include bibliographic, chemical,
# crystal, experimental, refinement or atomic coordinate data resulting
# from the CCDC's data processing and validation procedures.
#
#######################################################################

data_CSD_CIF_FEXBUF
_audit_creation_date 1988-01-14
_audit_creation_method CSD-ConQuest-V1
_database_code_CSD FEXBUF
_database_code_depnum_ccdc_archive 'CCDC 1155351'
_chemical_formula_sum 'C6 H6 N2 O3'
_chemical_formula_moiety
;
C6 H6 N2 O3
;
_journal_coden_Cambridge 603
_journal_volume 6
_journal_year 1987
_journal_page_first 20
_journal_name_full 'Jiegou Huaxue(Chin.)(Chin.J.Struct.Chem.) '
loop_
_publ_author_name
"Li Songxian"
"Liu Shixiong"
"Wu Wenshi"
_chemical_name_systematic
;
2-Methyl-4-nitropyridine-1-oxide
;
_cell_volume    683.473
_exptl_crystal_colour 'yellow'
_exptl_crystal_density_diffrn 1.498
_diffrn_ambient_temperature ?
_diffrn_special_details
;
The study was carried out at room temperature,in the range 283-303K

;
#These two values have been output from a single CSD field.
_refine_ls_R_factor_gt 0.067
_refine_ls_wR_factor_gt 0.067
_symmetry_cell_setting orthorhombic
_symmetry_space_group_name_H-M 'P c a 21'
_symmetry_Int_Tables_number 29
loop_
_symmetry_equiv_pos_site_id
_symmetry_equiv_pos_as_xyz
1 x,y,z
2 1/2-x,y,1/2+z
3 1/2+x,-y,z
4 -x,-y,1/2+z
_cell_length_a 12.323(2)
_cell_length_b 8.744(1)
_cell_length_c 6.343(1)
_cell_angle_alpha 90
_cell_angle_beta 90
_cell_angle_gamma 90
_cell_formula_units_Z 4
loop_
_atom_type_symbol
_atom_type_radius_bond
C 0.68
H 0.23
N 0.68
O 0.68
loop_
_atom_site_label
_atom_site_type_symbol
_atom_site_fract_x
_atom_site_fract_y
_atom_site_fract_z
N1 N 0.7770(3) 0.1184(5) 0.146(2)
C1 C 0.8783(4) 0.0577(6) 0.142(2)
C2 C 0.9664(4) 0.1560(6) 0.144(3)
C3 C 0.9502(4) 0.3116(6) 0.140(2)
C4 C 0.8464(4) 0.3721(6) 0.141(3)
C5 C 0.7622(2) 0.2737(4) 0.140(2)
O1 O 0.6934(4) 0.0307(4) 0.15200
C6 C 0.8842(5) -0.1105(6) 0.158(3)
N2 N 1.0417(4) 0.4158(6) 0.147(3)
O2 O 1.0235(3) 0.5530(4) 0.160(2)
O3 O 1.1333(3) 0.3602(5) 0.170(2)
H1 H 1.01500 0.12400 0.21000
H2 H 0.84000 0.46300 0.20300
H3 H 0.69600 0.30600 0.16600
H4 H 0.85900 -0.13800 0.28600
H5 H 0.86200 -0.16500 -0.00500
H6 H 0.94600 -0.13700 0.16100
#END
