
#######################################################################
#
#                 Cambridge Crystallographic Data Centre
#                                CCDC
#
#######################################################################
#
# If this CIF has been generated from an entry in the Cambridge
# Structural Database, then it will include bibliographic, chemical,
# crystal, experimental, refinement or atomic coordinate data resulting
# from the CCDC's data processing and validation procedures.
#
#######################################################################

data_CSD_CIF_FEXKAW
_audit_creation_date 2013-05-20
_audit_creation_method CSD-ConQuest-V1
_database_code_CSD FEXKAW
_database_code_depnum_ccdc_archive 'CCDC 902291'
_chemical_formula_sum 'C15 H18 N4 O7'
_chemical_formula_moiety
;
C15 H18 N4 O7
;
_journal_coden_Cambridge 1291
_journal_year 2013
_journal_page_first 662
_journal_name_full 'Eur.J.Org.Chem. '
loop_
_publ_author_name
"J.Rossbach"
"J.Baumeister"
"K.Harms"
"U.Koert"
_chemical_name_systematic
;
Methyl 
2-(N-(2,4-dinitrophenyl)ethanehydrazonoyl)-2-hydroxy-3-methylpent-4-enoate
;
_cell_volume   3520.279
_exptl_crystal_colour 'pale yellow'
_exptl_crystal_density_diffrn 1.382
_exptl_crystal_description 'plate'
_diffrn_ambient_temperature 100
#These two values have been output from a single CSD field.
_refine_ls_R_factor_gt 0.0565
_refine_ls_wR_factor_gt 0.0565
_symmetry_cell_setting monoclinic
_symmetry_space_group_name_H-M 'P 21/c'
_symmetry_Int_Tables_number 14
loop_
_symmetry_equiv_pos_site_id
_symmetry_equiv_pos_as_xyz
1 x,y,z
2 -x,1/2+y,1/2-z
3 -x,-y,-z
4 x,-1/2-y,-1/2+z
_cell_length_a 11.3229(15)
_cell_length_b 24.573(4)
_cell_length_c 12.9782(18)
_cell_angle_alpha 90
_cell_angle_beta 102.872(11)
_cell_angle_gamma 90
_cell_formula_units_Z 8
loop_
_atom_type_symbol
_atom_type_radius_bond
C 0.68
H 0.23
N 0.68
O 0.68
loop_
_atom_site_label
_atom_site_type_symbol
_atom_site_fract_x
_atom_site_fract_y
_atom_site_fract_z
C1 C 0.4453(10) 0.3443(4) 0.4686(8)
C2 C 0.4562(9) 0.3277(4) 0.5847(8)
C3 C 0.3436(10) 0.2962(4) 0.6001(8)
H1 H 0.27020 0.32010 0.58630
C4 C 0.3274(10) 0.2477(5) 0.5212(9)
H2 H 0.38240 0.21800 0.53420
C5 C 0.2380(15) 0.2474(6) 0.4366(10)
H3 H 0.18280 0.27710 0.42330
H4 H 0.22870 0.21760 0.38880
C6 C 0.4802(9) 0.3808(4) 0.6500(6)
C7 C 0.5942(7) 0.4118(4) 0.6468(6)
H5 H 0.64500 0.41440 0.71850
H6 H 0.57310 0.44840 0.61880
H7 H 0.63870 0.39260 0.60120
C8 C 0.3643(10) 0.2704(4) 0.7091(7)
H8 H 0.38300 0.29890 0.76320
H9 H 0.43220 0.24480 0.71820
H10 H 0.29100 0.25090 0.71630
C9 C 0.3355(9) 0.3979(3) 0.3300(6)
H11 H 0.41140 0.41600 0.32570
H12 H 0.26880 0.42420 0.31410
H13 H 0.31950 0.36810 0.27870
C10 C 0.3588(8) 0.4558(4) 0.8308(6)
C11 C 0.3772(8) 0.5063(4) 0.8886(7)
C12 C 0.3096(7) 0.5190(4) 0.9614(6)
H14 H 0.32280 0.55260 0.99840
C13 C 0.2258(8) 0.4846(4) 0.9807(7)
C14 C 0.2055(7) 0.4354(4) 0.9243(7)
H15 H 0.14490 0.41120 0.93700
C15 C 0.2711(7) 0.4216(4) 0.8515(6)
H16 H 0.25580 0.38790 0.81490
N1 N 0.3994(6) 0.3946(3) 0.7027(5)
N2 N 0.4249(6) 0.4419(3) 0.7591(5)
H17 H 0.48380 0.46320 0.74910
N3 N 0.4716(7) 0.5454(3) 0.8740(6)
N4 N 0.1631(8) 0.4955(4) 1.0641(7)
O1 O 0.5125(6) 0.3311(3) 0.4151(5)
O2 O 0.3458(6) 0.3761(3) 0.4375(5)
O3 O 0.5645(6) 0.2952(3) 0.6139(5)
H18 H 0.60890 0.30080 0.57100
O4 O 0.5431(5) 0.5326(2) 0.8173(4)
O5 O 0.4740(6) 0.5891(3) 0.9172(5)
O6 O 0.1876(6) 0.5375(3) 1.1149(5)
O7 O 0.0808(6) 0.4639(3) 1.0791(6)
C16 C 0.2384(11) 0.7061(5) 0.9669(9)
C17 C 0.1346(10) 0.6958(4) 0.8785(7)
C18 C 0.0405(9) 0.6666(4) 0.9255(8)
H19 H 0.06900 0.62830 0.94130
C19 C 0.0295(10) 0.6918(4) 1.0252(9)
H20 H 0.00310 0.72860 1.02050
C20 C 0.0517(8) 0.6701(4) 1.1214(8)
H21 H 0.07850 0.63340 1.13160
H22 H 0.04080 0.69120 1.17990
C21 C 0.1814(9) 0.6635(4) 0.7939(7)
C22 C 0.2695(8) 0.6914(3) 0.7400(7)
H23 H 0.23740 0.69100 0.66330
H24 H 0.34730 0.67220 0.75680
H25 H 0.28110 0.72910 0.76460
C23 C -0.0817(9) 0.6641(4) 0.8473(7)
H26 H -0.07260 0.64540 0.78290
H27 H -0.11160 0.70110 0.82970
H28 H -0.13970 0.64420 0.87920
C24 C 0.3988(9) 0.6713(4) 1.0988(7)
H29 H 0.36840 0.67850 1.16250
H30 H 0.44720 0.70240 1.08470
H31 H 0.44930 0.63850 1.10930
C25 C 0.1373(8) 0.5357(4) 0.6732(6)
C26 C 0.1820(9) 0.5029(4) 0.5984(6)
C27 C 0.1295(8) 0.4535(4) 0.5685(6)
H32 H 0.16040 0.43110 0.52100
C28 C 0.0350(9) 0.4367(4) 0.6059(8)
C29 C -0.0138(8) 0.4669(4) 0.6765(7)
H33 H -0.08150 0.45360 0.70090
C30 C 0.0363(8) 0.5157(4) 0.7103(7)
H34 H 0.00380 0.53660 0.75900
N5 N 0.1407(7) 0.6138(3) 0.7802(5)
N6 N 0.1860(6) 0.5846(3) 0.7045(5)
H35 H 0.24500 0.59800 0.67800
N7 N 0.2865(8) 0.5167(4) 0.5586(6)
N8 N -0.0274(9) 0.3833(4) 0.5684(7)
O8 O 0.2710(6) 0.7533(3) 0.9997(5)
O9 O 0.2974(6) 0.6633(3) 1.0095(5)
O10 O 0.0917(7) 0.7470(3) 0.8367(5)
H36 H 0.02980 0.75550 0.85850
O11 O 0.3439(6) 0.5589(3) 0.5921(5)
O12 O 0.3134(6) 0.4903(3) 0.4889(5)
O13 O 0.0170(7) 0.3560(3) 0.5065(6)
O14 O -0.1148(6) 0.3695(3) 0.6040(5)
#END
