
#######################################################################
#
#                 Cambridge Crystallographic Data Centre
#                                CCDC
#
#######################################################################
#
# If this CIF has been generated from an entry in the Cambridge
# Structural Database, then it will include bibliographic, chemical,
# crystal, experimental, refinement or atomic coordinate data resulting
# from the CCDC's data processing and validation procedures.
#
#######################################################################

data_CSD_CIF_FEXMED
_audit_creation_date 2018-03-31
_audit_creation_method CSD-ConQuest-V1
_database_code_CSD FEXMED
_database_code_depnum_ccdc_archive 'CCDC 1482149'
_chemical_formula_sum 'C15 H23 N1 O1'
_chemical_formula_moiety
;
C15 H23 N1 O1
;
_journal_coden_Cambridge 1078
_journal_year 2018
_journal_name_full 'CSD Communication(Private Communication) '
loop_
_publ_author_name
"Wang yunyun"
_chemical_name_systematic
;
N-hydroxy-2,2,7,7-tetramethyltricyclo[6.2.1.0^1,6^]undec-5-en-4-imine
;
_cell_volume   1439.979
_exptl_crystal_density_diffrn 1.076
_diffrn_ambient_temperature 293
#These two values have been output from a single CSD field.
_refine_ls_R_factor_gt 0.0651
_refine_ls_wR_factor_gt 0.0651
_symmetry_cell_setting monoclinic
_symmetry_space_group_name_H-M 'P 21/n'
_symmetry_Int_Tables_number 14
loop_
_symmetry_equiv_pos_site_id
_symmetry_equiv_pos_as_xyz
1 x,y,z
2 1/2-x,1/2+y,1/2-z
3 -x,-y,-z
4 -1/2+x,-1/2-y,-1/2+z
_cell_length_a 8.9128(10)
_cell_length_b 12.3686(13)
_cell_length_c 13.7592(15)
_cell_angle_alpha 90
_cell_angle_beta 108.313(3)
_cell_angle_gamma 90
_cell_formula_units_Z 4
loop_
_atom_type_symbol
_atom_type_radius_bond
C 0.68
H 0.23
N 0.68
O 0.68
loop_
_atom_site_label
_atom_site_type_symbol
_atom_site_fract_x
_atom_site_fract_y
_atom_site_fract_z
O1 O 0.93154(17) 0.0138(1) 0.09488(10)
H1 H 0.92980 -0.03920 0.05880
N1 N 1.0015(2) 0.10125(11) 0.05980(11)
C1 C 0.9577(2) 0.19594(14) 0.20351(14)
H2 H 0.90110 0.14000 0.22080
C2 C 0.99232(19) 0.28398(14) 0.26144(13)
C3 C 1.0802(2) 0.38036(14) 0.23847(14)
C4 C 1.0077(2) 0.18680(14) 0.11379(13)
C5 C 1.1775(2) 0.35236(15) 0.16834(16)
C6 C 1.0720(3) 0.28678(16) 0.07865(15)
H3 H 0.98470 0.33160 0.03940
H4 H 1.13240 0.26600 0.03400
C7 C 0.9548(3) 0.30507(19) 0.3602(2)
C8 C 1.3203(3) 0.2829(2) 0.2262(2)
H5 H 1.28440 0.21920 0.25220
H6 H 1.38840 0.32370 0.28210
H7 H 1.37740 0.26220 0.18050
C9 C 1.2381(4) 0.4533(2) 0.1272(2)
H8 H 1.30520 0.49420 0.18350
H9 H 1.15000 0.49710 0.08970
H10 H 1.29700 0.43170 0.08290
C10 C 0.9509(3) 0.46905(19) 0.2030(2)
H11 H 0.99030 0.53140 0.17580
H12 H 0.85790 0.44140 0.15120
C11 C 1.1648(3) 0.4209(2) 0.34767(18)
H13 H 1.24320 0.37030 0.38760
H14 H 1.21140 0.49200 0.34880
C12 C 0.7813(4) 0.2904(3) 0.3484(3)
H15 H 0.75360 0.21540 0.33670
H16 H 0.71880 0.33240 0.29130
H17 H 0.76140 0.31410 0.40960
C13 C 1.0157(5) 0.4230(2) 0.3792(3)
H18 H 1.03450 0.44710 0.44990
C14 C 1.0544(5) 0.2293(3) 0.4467(2)
H19 H 1.01520 0.15670 0.43350
H20 H 1.04650 0.25320 0.51130
H21 H 1.16290 0.23130 0.44860
C15 C 0.9139(5) 0.4980(2) 0.3020(3)
H22 H 0.94060 0.57280 0.32110
H23 H 0.80310 0.48640 0.29400
#END
