
#######################################################################
#
#                 Cambridge Crystallographic Data Centre
#                                CCDC
#
#######################################################################
#
# If this CIF has been generated from an entry in the Cambridge
# Structural Database, then it will include bibliographic, chemical,
# crystal, experimental, refinement or atomic coordinate data resulting
# from the CCDC's data processing and validation procedures.
#
#######################################################################

data_CSD_CIF_FEYDUL
_audit_creation_date 2018-04-02
_audit_creation_method CSD-ConQuest-V1
_database_code_CSD FEYDUL
_database_code_depnum_ccdc_archive 'CCDC 1584741'
_chemical_formula_sum 'C26 H30 N2 O5'
_chemical_formula_moiety
;
C26 H30 N2 O5
;
_journal_coden_Cambridge 1291
_journal_year 2018
_journal_page_first 1426
_journal_name_full 'Eur.J.Org.Chem. '
loop_
_publ_author_name
"A.Biswas"
"R.Samanta"
_chemical_name_systematic
;
diethyl 
[1-benzyl-3-(N-methoxyethanimidoyl)-7-methyl-1H-indol-4-yl]propanedioate
;
_cell_volume   3681.515
_exptl_crystal_colour 'colorless'
_exptl_crystal_density_diffrn 1.219
_exptl_crystal_description 'block'
_diffrn_ambient_temperature 293
#These two values have been output from a single CSD field.
_refine_ls_R_factor_gt 0.1105
_refine_ls_wR_factor_gt 0.1105
_symmetry_cell_setting triclinic
_symmetry_space_group_name_H-M 'P -1'
_symmetry_Int_Tables_number 2
loop_
_symmetry_equiv_pos_site_id
_symmetry_equiv_pos_as_xyz
1 x,y,z
2 -x,-y,-z
_cell_length_a 11.364
_cell_length_b 17.358
_cell_length_c 19.136
_cell_angle_alpha 96.69
_cell_angle_beta 94.61
_cell_angle_gamma 99.23
_cell_formula_units_Z 6
loop_
_atom_type_symbol
_atom_type_radius_bond
C 0.68
H 0.23
N 0.68
O 0.68
loop_
_atom_site_label
_atom_site_type_symbol
_atom_site_fract_x
_atom_site_fract_y
_atom_site_fract_z
O1 O 0.8967(5) 0.5033(3) 0.2508(3)
O2 O 0.7221(5) 0.5391(3) 0.1393(3)
N1 N 0.6614(5) 0.1368(3) 0.0973(3)
O3 O 1.0008(6) 0.4522(4) 0.1693(3)
O4 O 0.5995(6) 0.4529(3) 0.1876(4)
C1 C 0.7522(7) 0.3381(4) 0.1745(4)
C2 C 0.7136(6) 0.2702(4) 0.1260(3)
O5 O 0.6769(7) 0.4051(3) -0.0609(3)
C3 C 0.6894(6) 0.1966(4) 0.1541(4)
N2 N 0.6835(7) 0.3698(4) 0.0033(3)
C4 C 0.4834(8) 0.0373(4) 0.1103(4)
C5 C 0.6930(7) 0.2505(4) 0.0499(3)
C6 C 0.7853(7) 0.4193(4) 0.1526(4)
H1 H 0.79490 0.41210 0.10190
C7 C 0.6633(7) 0.1700(4) 0.0365(4)
H2 H 0.64650 0.14180 -0.00860
C8 C 0.6915(7) 0.2983(5) -0.0099(4)
C9 C 0.6982(7) 0.1897(4) 0.2262(4)
C10 C 0.6125(7) 0.0530(4) 0.0955(4)
H3 H 0.66010 0.03120 0.13010
H4 H 0.61970 0.02570 0.04920
C11 C 0.9060(9) 0.4602(5) 0.1910(5)
C12 C 0.7597(7) 0.3307(4) 0.2461(4)
H5 H 0.78340 0.37570 0.27870
C13 C 0.6910(9) 0.4712(5) 0.1631(5)
C14 C 0.4080(8) 0.0907(5) 0.0963(4)
H6 H 0.43830 0.13720 0.07940
C15 C 0.7328(7) 0.2577(5) 0.2706(4)
H7 H 0.73880 0.25580 0.31910
C16 C 0.6717(7) 0.1118(4) 0.2562(3)
H8 H 0.64860 0.06950 0.21800
H9 H 0.74220 0.10350 0.28340
H10 H 0.60780 0.11330 0.28590
C17 C 0.2437(8) 0.0085(5) 0.1325(4)
H11 H 0.16310 -0.00160 0.14010
C18 C 0.4389(8) -0.0302(5) 0.1354(4)
H12 H 0.48880 -0.06610 0.14460
C19 C 0.6929(8) 0.2553(4) -0.0819(4)
H13 H 0.69960 0.20150 -0.07820
H14 H 0.62000 0.25720 -0.11020
H15 H 0.76000 0.27960 -0.10360
C20 C 0.3183(9) -0.0458(5) 0.1476(5)
H16 H 0.28780 -0.09170 0.16540
C21 C 0.2881(8) 0.0746(5) 0.1073(4)
H17 H 0.23800 0.11010 0.09700
C22 C 1.0095(8) 0.5400(5) 0.2942(4)
H18 H 1.05940 0.50080 0.30200
H19 H 1.05370 0.58040 0.27090
C23 C 0.9752(9) 0.5746(5) 0.3619(5)
H20 H 1.04600 0.59930 0.39210
H21 H 0.92580 0.61320 0.35340
H22 H 0.93150 0.53400 0.38430
C24 C 0.6436(10) 0.5981(5) 0.1481(5)
H23 H 0.65700 0.63370 0.11300
H24 H 0.56070 0.57180 0.13980
C25 C 0.6632(10) 0.6435(6) 0.2180(6)
H25 H 0.60980 0.68110 0.22100
H26 H 0.64830 0.60880 0.25310
H27 H 0.74460 0.67070 0.22620
C26 C 0.6917(13) 0.4878(6) -0.0434(5)
H28 H 0.68750 0.51190 -0.08600
H29 H 0.62940 0.50070 -0.01550
H30 H 0.76830 0.50680 -0.01690
O6 O -0.2638(5) -0.2072(3) 0.0647(3)
O7 O -0.0824(5) -0.2552(3) 0.1580(3)
O8 O 0.0446(5) -0.1626(3) 0.1181(3)
N3 N -0.0058(5) 0.1491(3) 0.2440(3)
O9 O -0.3532(6) -0.1555(4) 0.1522(3)
O10 O -0.0729(7) -0.1409(4) 0.3743(3)
C27 C -0.1391(7) -0.1304(4) 0.1612(4)
H31 H -0.14350 -0.12940 0.21220
C28 C -0.1027(7) -0.0456(4) 0.1486(3)
N4 N -0.0601(7) -0.0983(4) 0.3159(3)
C29 C -0.0641(6) 0.0179(4) 0.2023(3)
C30 C -0.0411(6) 0.1098(4) 0.1118(4)
C31 C -0.0368(6) 0.0953(4) 0.1821(4)
C32 C 0.1667(8) 0.2570(4) 0.2437(4)
C33 C -0.0475(6) 0.0280(4) 0.2789(3)
C34 C 0.0366(7) 0.2342(4) 0.2532(4)
H32 H 0.02280 0.25610 0.30020
H33 H -0.01040 0.25750 0.21940
C35 C -0.0476(8) -0.1827(5) 0.1416(4)
C36 C -0.0794(7) 0.0450(5) 0.0613(4)
H34 H -0.08430 0.05210 0.01380
C37 C -0.1112(7) -0.0308(4) 0.0795(4)
H35 H -0.13880 -0.07240 0.04380
C38 C -0.2618(9) -0.1648(5) 0.1264(5)
C39 C -0.0068(7) 0.1906(4) 0.0881(4)
H36 H 0.01770 0.22930 0.12890
H37 H 0.05800 0.18970 0.05900
H38 H -0.07460 0.20360 0.06160
C40 C -0.0615(8) -0.0252(5) 0.3335(4)
C41 C 0.2097(8) 0.3279(5) 0.2236(4)
H39 H 0.15710 0.36230 0.21460
C42 C -0.0136(7) 0.1077(5) 0.3002(4)
H40 H 0.00190 0.13050 0.34720
C43 C -0.3777(8) -0.2441(5) 0.0276(4)
H41 H -0.42430 -0.20420 0.01630
H42 H -0.42200 -0.27750 0.05730
C44 C 0.3312(9) 0.3501(5) 0.2161(4)
H43 H 0.35810 0.39810 0.20070
C45 C 0.4119(8) 0.3011(6) 0.2316(4)
H44 H 0.49330 0.31620 0.22830
C46 C 0.2504(8) 0.2080(5) 0.2591(4)
H45 H 0.22460 0.15990 0.27460
C47 C 0.3691(9) 0.2304(6) 0.2517(5)
H46 H 0.42200 0.19620 0.26060
C48 C -0.0082(9) -0.3153(5) 0.1413(5)
H47 H 0.07560 -0.29240 0.15340
H48 H -0.02740 -0.35770 0.16940
C49 C -0.3583(8) -0.2917(5) -0.0378(4)
H49 H -0.43430 -0.31630 -0.06260
H50 H -0.31510 -0.25840 -0.06720
H51 H -0.31290 -0.33140 -0.02640
C50 C -0.0738(10) 0.0103(5) 0.4070(4)
H52 H -0.07260 0.06580 0.40800
H53 H -0.14810 -0.01380 0.42170
H54 H -0.00840 0.00160 0.43840
C51 C -0.0279(9) -0.3469(5) 0.0661(5)
H55 H 0.02160 -0.38600 0.05670
H56 H -0.11060 -0.37030 0.05420
H57 H -0.00770 -0.30510 0.03820
C52 C -0.0921(11) -0.2231(5) 0.3483(5)
H58 H -0.10110 -0.25320 0.38710
H59 H -0.16340 -0.23620 0.31580
H60 H -0.02480 -0.23510 0.32440
O11 O 1.5034(5) 0.8294(3) 0.3878(3)
O12 O 1.5771(6) 0.7218(3) 0.4130(3)
N5 N 1.3195(6) 0.4754(4) 0.4328(3)
O13 O 1.5534(6) 0.8539(4) 0.5452(3)
O14 O 1.3607(7) 0.8639(4) 0.5530(3)
N6 N 1.2705(7) 0.6961(4) 0.3346(3)
O15 O 1.2533(6) 0.7325(4) 0.2715(3)
C53 C 1.3462(7) 0.5386(4) 0.4865(4)
C54 C 1.3522(6) 0.6095(4) 0.4561(4)
C55 C 1.4106(7) 0.7603(4) 0.4710(4)
H61 H 1.33610 0.76340 0.44270
C56 C 1.3671(7) 0.5372(5) 0.5602(4)
C57 C 1.3243(7) 0.5859(5) 0.3813(4)
C58 C 1.3904(7) 0.6822(4) 0.5004(4)
C59 C 1.1754(8) 0.3556(5) 0.4463(4)
C60 C 1.3094(8) 0.6315(5) 0.3203(4)
C61 C 1.3074(7) 0.5054(5) 0.3704(4)
H62 H 1.29000 0.47510 0.32630
C62 C 1.4116(7) 0.6789(5) 0.5715(4)
H63 H 1.43720 0.72580 0.60150
C63 C 1.5082(8) 0.7659(5) 0.4216(4)
C64 C 1.4347(10) 0.8317(5) 0.5271(5)
C65 C 1.3023(7) 0.3909(4) 0.4362(4)
H64 H 1.35580 0.38110 0.47500
H65 H 1.32450 0.36470 0.39280
C66 C 1.3964(7) 0.6083(5) 0.6008(4)
H66 H 1.40680 0.61020 0.64970
C67 C 1.3578(7) 0.4623(4) 0.5955(4)
H67 H 1.33650 0.41720 0.56000
H68 H 1.43350 0.46050 0.62080
H69 H 1.29740 0.46210 0.62780
C68 C 1.0774(8) 0.3936(5) 0.4373(4)
H70 H 1.08990 0.44510 0.42670
C69 C 1.1534(9) 0.2798(5) 0.4642(4)
H71 H 1.21730 0.25340 0.47190
C70 C 1.0395(11) 0.2430(6) 0.4710(5)
H72 H 1.02600 0.19170 0.48200
C71 C 0.9454(10) 0.2828(7) 0.4612(5)
H73 H 0.86840 0.25830 0.46690
C72 C 1.3341(8) 0.5972(5) 0.2498(4)
H74 H 1.36250 0.54850 0.25350
H75 H 1.26180 0.58750 0.21810
H76 H 1.39400 0.63320 0.23190
C73 C 0.9619(9) 0.3570(7) 0.4436(5)
H77 H 0.89710 0.38260 0.43590
C74 C 1.5955(9) 0.8445(5) 0.3412(5)
H78 H 1.57990 0.80530 0.29950
H79 H 1.67300 0.84150 0.36500
C75 C 1.2251(10) 0.8101(6) 0.2912(5)
H80 H 1.21350 0.83510 0.24960
H81 H 1.15320 0.80540 0.31470
H82 H 1.29000 0.84130 0.32260
C76 C 1.5959(10) 0.9221(6) 0.3209(5)
H83 H 1.65690 0.93300 0.28980
H84 H 1.51910 0.92440 0.29710
H85 H 1.61190 0.96050 0.36240
C77 C 1.5931(12) 0.9236(6) 0.5972(5)
H86 H 1.53520 0.95890 0.59500
H87 H 1.59810 0.90810 0.64430
C78 C 1.7026(16) 0.9618(9) 0.5846(8)
H88 H 1.72740 1.00740 0.61920
H89 H 1.76010 0.92700 0.58750
H90 H 1.69730 0.97770 0.53820
#END
