
#######################################################################
#
#                 Cambridge Crystallographic Data Centre
#                                CCDC
#
#######################################################################
#
# If this CIF has been generated from an entry in the Cambridge
# Structural Database, then it will include bibliographic, chemical,
# crystal, experimental, refinement or atomic coordinate data resulting
# from the CCDC's data processing and validation procedures.
#
#######################################################################

data_CSD_CIF_FEYLUQ01
_audit_creation_date 1991-05-01
_audit_creation_method CSD-ConQuest-V1
_database_code_CSD FEYLUQ01
_chemical_formula_sum 'C4 H4 N6 O5'
_chemical_formula_moiety
;
C4 H4 N6 O5
;
_journal_coeditor_code "IUCr HH0259"
_journal_coden_Cambridge 591
_journal_volume 46
_journal_year 1990
_journal_page_first 1853
_journal_name_full 'Acta Crystallogr.,Sect.C:Cryst.Struct.Commun. '
loop_
_publ_author_name
"C.K.Lowe-Ma"
"J.W.Fischer"
"R.L.Willer"
_chemical_name_systematic
;
4,7-Dinitro-4,5,6,7-tetrahydro-1,2,5-oxadiazolo(3,4-b)pyrazine
;
_cell_volume    784.390
_exptl_crystal_colour 'colorless'
_exptl_crystal_density_diffrn 1.83
_exptl_special_details
;
polymorph I

;
_diffrn_ambient_temperature ?
_diffrn_special_details
;
The study was carried out at room temperature,in the range 283-303K

;
#These two values have been output from a single CSD field.
_refine_ls_R_factor_gt 0.055
_refine_ls_wR_factor_gt 0.055
_symmetry_cell_setting monoclinic
_symmetry_space_group_name_H-M 'P 21/c'
_symmetry_Int_Tables_number 14
loop_
_symmetry_equiv_pos_site_id
_symmetry_equiv_pos_as_xyz
1 x,y,z
2 -x,1/2+y,1/2-z
3 -x,-y,-z
4 x,-1/2-y,-1/2+z
_cell_length_a 9.743(4)
_cell_length_b 6.636(2)
_cell_length_c 12.165(4)
_cell_angle_alpha 90
_cell_angle_beta 94.22(3)
_cell_angle_gamma 90
_cell_formula_units_Z 4
loop_
_atom_type_symbol
_atom_type_radius_bond
C 0.68
H 0.23
N 0.68
O 0.68
loop_
_atom_site_label
_atom_site_type_symbol
_atom_site_fract_x
_atom_site_fract_y
_atom_site_fract_z
C1 C 0.2152(2) 0.0280(4) 0.6684(2)
C2 C 0.2828(2) -0.1495(3) 0.7104(2)
C3 C 0.2155(3) 0.1517(4) 0.8566(2)
C4 C 0.3433(3) 0.0305(4) 0.8825(2)
N1 N 0.1988(2) 0.1921(3) 0.7368(2)
N2 N 0.3341(2) -0.1605(3) 0.8197(2)
N3 N 0.2871(3) -0.2821(4) 0.6326(2)
N4 N 0.1795(2) 0.0060(3) 0.5644(2)
N5 N 0.1112(2) 0.3463(3) 0.7012(2)
N6 N 0.4272(2) -0.3118(3) 0.8517(2)
O1 O 0.2230(2) -0.1875(3) 0.5410(1)
O2 O 0.0808(2) 0.3590(3) 0.6030(2)
O3 O 0.0762(2) 0.4606(3) 0.7726(2)
O4 O 0.5035(2) -0.2776(3) 0.9332(2)
O5 O 0.4228(2) -0.4649(3) 0.7968(2)
H1 H 0.2237(27) 0.2764(42) 0.8913(22)
H2 H 0.1361(26) 0.0813(38) 0.8772(19)
H3 H 0.3451(24) -0.0050(37) 0.9586(21)
H4 H 0.4283(25) 0.0986(36) 0.8675(18)
#END
