
#######################################################################
#
#                 Cambridge Crystallographic Data Centre
#                                CCDC
#
#######################################################################
#
# If this CIF has been generated from an entry in the Cambridge
# Structural Database, then it will include bibliographic, chemical,
# crystal, experimental, refinement or atomic coordinate data resulting
# from the CCDC's data processing and validation procedures.
#
#######################################################################

data_CSD_CIF_FEZKOL
_audit_creation_date 2005-05-31
_audit_creation_method CSD-ConQuest-V1
_database_code_CSD FEZKOL
_database_code_depnum_ccdc_archive 'CCDC 263885'
_chemical_formula_sum 'C21 H22 N2 O9'
_chemical_formula_moiety
;
C21 H22 N2 O9
;
_journal_coden_Cambridge 4
_journal_volume 127
_journal_year 2005
_journal_page_first 1201
_journal_name_full 'J.Am.Chem.Soc. '
loop_
_publ_author_name
"S.J.Bader"
"M.L.Snapper"
_chemical_name_systematic
;
(9a-Hydroxy-1a,2a,3,5,6a,7,8,9a,9b-decahydro-2H-cyclopenta(4,5)oxireno(6,7)cyc
loocta(1,2-c)furan-2-yl)methyl 3,5-dinitrobenzoate
;
_cell_volume   2000.711
_exptl_crystal_colour 'colorless'
_exptl_crystal_density_diffrn 1.482
_exptl_special_details
;
The supporting data reports a measurement temperature of 183K

;
_diffrn_ambient_temperature 193
#These two values have been output from a single CSD field.
_refine_ls_R_factor_gt 0.0609
_refine_ls_wR_factor_gt 0.0609
_symmetry_cell_setting triclinic
_symmetry_space_group_name_H-M 'P -1'
_symmetry_Int_Tables_number 2
loop_
_symmetry_equiv_pos_site_id
_symmetry_equiv_pos_as_xyz
1 x,y,z
2 -x,-y,-z
_cell_length_a 6.5607(7)
_cell_length_b 12.2817(13)
_cell_length_c 25.088(3)
_cell_angle_alpha 88.583(2)
_cell_angle_beta 87.417(2)
_cell_angle_gamma 82.263(2)
_cell_formula_units_Z 4
loop_
_atom_type_symbol
_atom_type_radius_bond
C 0.68
H 0.23
N 0.68
O 0.68
loop_
_atom_site_label
_atom_site_type_symbol
_atom_site_fract_x
_atom_site_fract_y
_atom_site_fract_z
O1 O 0.7786(3) 0.35009(18) 0.83545(8)
O2 O 0.7561(2) 0.53055(12) 0.45276(6)
O3 O 0.2397(2) 1.05257(12) 0.44782(7)
H1 H 0.11630 1.08010 0.45280
O4 O 0.3785(2) 0.69260(13) 0.61566(6)
O5 O 0.1683(2) 0.84554(14) 0.53481(7)
N1 N -0.2439(3) 0.51200(18) 0.66908(8)
O6 O -0.1769(3) 0.47062(15) 0.62708(7)
C1 C 0.3103(3) 0.87964(17) 0.49307(9)
H2 H 0.43590 0.90410 0.50760
C2 C 0.4863(3) 0.69532(17) 0.52385(8)
H3 H 0.46350 0.61640 0.52490
C3 C 0.0203(3) 0.63700(18) 0.66067(9)
H4 H 0.09030 0.59140 0.63370
C4 C 0.6639(3) 0.71025(17) 0.48259(8)
H5 H 0.72170 0.78000 0.48860
O7 O 0.3590(3) 0.84539(17) 0.66368(8)
C5 C 0.2921(4) 0.76422(19) 0.65195(9)
C6 C 0.4281(4) 0.90405(18) 0.39958(9)
H6 H 0.54870 0.94230 0.40700
C7 C -0.0106(4) 0.7991(2) 0.71384(9)
H7 H 0.04040 0.86370 0.72440
C8 C 0.2506(3) 0.93590(17) 0.44181(9)
C9 C 0.8324(3) 0.61165(18) 0.48320(9)
H8 H 0.96290 0.63140 0.46680
H9 H 0.85680 0.58470 0.52020
C10 C 0.5943(3) 0.70621(17) 0.42611(9)
C11 C 0.5364(4) 0.72739(19) 0.57903(9)
H10 H 0.67410 0.69060 0.58850
H11 H 0.53600 0.80790 0.58060
C12 C 0.4970(4) 0.78134(19) 0.39381(9)
H12 H 0.46420 0.75310 0.36080
C13 C 0.2987(3) 0.76390(18) 0.50292(9)
H13 H 0.22590 0.72770 0.47550
C14 C 0.0965(3) 0.73076(19) 0.67602(9)
O8 O -0.2732(3) 0.93904(19) 0.77599(8)
O9 O -0.3769(3) 0.47852(18) 0.69808(8)
C15 C -0.1598(3) 0.6114(2) 0.68546(9)
N2 N -0.3146(4) 0.8461(2) 0.77363(9)
C16 C -0.2688(4) 0.6765(2) 0.72362(9)
H14 H -0.39110 0.65670 0.74070
C17 C -0.1935(4) 0.7707(2) 0.73583(9)
C18 C 0.6564(4) 0.5884(2) 0.40924(10)
H15 H 0.53340 0.55480 0.40050
H16 H 0.75110 0.58570 0.37730
C19 C 0.3261(4) 0.9531(2) 0.34880(11)
H17 H 0.33580 1.03270 0.34530
H18 H 0.39180 0.91590 0.31660
C20 C 0.0601(4) 0.9080(2) 0.41512(11)
H19 H 0.04380 0.82960 0.42110
H20 H -0.06560 0.95400 0.42900
O10 O -0.4497(4) 0.8116(2) 0.80069(10)
C21 C 0.1009(5) 0.9327(3) 0.35656(13)
H21 H 0.00780 0.99850 0.34510
H22 H 0.07600 0.86980 0.33490
O11 O 0.7299(3) 0.55809(13) 1.07018(7)
H23 H 0.62960 0.57980 1.05120
O12 O 0.6044(2) 0.35692(14) 0.99315(7)
O13 O 0.7739(3) 0.21358(15) 0.89587(7)
C22 C 1.1136(3) 0.21435(18) 1.06792(9)
O14 O 1.2591(3) 0.04194(14) 1.03405(7)
O15 O 0.2953(3) -0.05101(16) 0.88505(7)
N3 N 0.2412(3) -0.01359(18) 0.84161(9)
C23 C 0.4687(3) 0.12832(19) 0.84789(9)
H24 H 0.53870 0.08620 0.87540
C24 C 1.0421(3) 0.28615(19) 1.10501(9)
H25 H 1.04050 0.25510 1.14010
O16 O 0.1359(3) -0.05769(19) 0.81195(8)
C25 C 0.7729(3) 0.38980(19) 1.02198(9)
H26 H 0.88000 0.41870 0.99800
C26 C 1.1341(3) 0.22213(19) 1.00740(9)
H27 H 1.18470 0.29260 0.99580
C27 C 0.9292(3) 0.21015(19) 0.98041(9)
H28 H 0.90840 0.13090 0.98080
C28 C 0.7608(3) 0.27418(18) 1.01440(9)
H29 H 0.71530 0.23380 1.04700
C29 C 0.7523(3) 0.44026(18) 1.07558(10)
O17 O 0.1716(4) 0.4155(2) 0.72425(8)
C30 C 0.9615(3) 0.40880(18) 1.10287(9)
H30 H 1.06850 0.45090 1.08590
C31 C 0.5286(4) 0.22779(19) 0.83069(9)
C32 C 0.3053(4) 0.0918(2) 0.82412(9)
C33 C 0.2539(4) 0.2522(2) 0.77139(10)
C34 C 0.7058(4) 0.2723(2) 0.85357(9)
C35 C 0.9019(4) 0.4499(2) 1.15942(9)
H31 H 1.00460 0.41820 1.18520
H32 H 0.88820 0.53110 1.16060
C36 C 0.1942(4) 0.1524(2) 0.78544(10)
H33 H 0.08210 0.12620 0.76940
C37 C 0.4205(4) 0.2908(2) 0.79155(9)
H34 H 0.46120 0.35870 0.77920
C38 C 1.2035(4) 0.0977(2) 1.08256(10)
H35 H 1.32600 0.09800 1.10420
H36 H 1.10060 0.06070 1.10360
C39 C 0.5950(4) 0.4055(2) 1.11713(11)
H37 H 0.56470 0.33040 1.11020
H38 H 0.46500 0.45680 1.11650
N4 N 0.1292(5) 0.3235(2) 0.73303(10)
C40 C 1.2985(4) 0.1248(2) 0.99559(10)
H39 H 1.28800 0.09860 0.95890
H40 H 1.43790 0.14550 0.99920
C41 C 0.9409(4) 0.2522(2) 0.92329(9)
H41 H 0.92580 0.33350 0.92230
H42 H 1.07530 0.22370 0.90590
O18 O -0.0142(5) 0.2867(2) 0.71400(13)
C42 C 0.6948(5) 0.4088(2) 1.17107(11)
H43 H 0.60690 0.45910 1.19550
H44 H 0.71480 0.33450 1.18790
#END
