
#######################################################################
#
#                 Cambridge Crystallographic Data Centre
#                                CCDC
#
#######################################################################
#
# If this CIF has been generated from an entry in the Cambridge
# Structural Database, then it will include bibliographic, chemical,
# crystal, experimental, refinement or atomic coordinate data resulting
# from the CCDC's data processing and validation procedures.
#
#######################################################################

data_CSD_CIF_FEZLON
_audit_creation_date 2013-05-20
_audit_creation_method CSD-ConQuest-V1
_database_code_CSD FEZLON
_database_code_depnum_ccdc_archive 'CCDC 900995'
_chemical_formula_sum 'C20 H22 N2 O4'
_chemical_formula_moiety
;
C20 H22 N2 O4
;
_journal_coden_Cambridge 24
_journal_volume 54
_journal_year 2013
_journal_page_first 478
_journal_name_full 'Tetrahedron Lett. '
loop_
_publ_author_name
"K.M.Sharanabai"
"G.Nagendra"
"T.M.Vishwanatha"
"V.V.Sureshbabu"
_chemical_name_systematic
;
(S)-(9H-Fluoren-9-yl)methyl 1-(methoxy(methyl)amino)-1-oxopropan-2-ylcarbamate
;
_chemical_name_common
;
Fmoc-A-weinrebamide
;
_cell_volume   1859.590
_exptl_crystal_colour 'colorless'
_exptl_crystal_density_diffrn 1.266
_exptl_crystal_description 'Block'
_diffrn_ambient_temperature 200
#These two values have been output from a single CSD field.
_refine_ls_R_factor_gt 0.0704
_refine_ls_wR_factor_gt 0.0704
_symmetry_cell_setting orthorhombic
_symmetry_space_group_name_H-M 'P 21 21 21'
_symmetry_Int_Tables_number 19
loop_
_symmetry_equiv_pos_site_id
_symmetry_equiv_pos_as_xyz
1 x,y,z
2 1/2-x,-y,1/2+z
3 -x,1/2+y,1/2-z
4 1/2+x,1/2-y,-z
_cell_length_a 8.012(4)
_cell_length_b 8.308(4)
_cell_length_c 27.937(13)
_cell_angle_alpha 90
_cell_angle_beta 90
_cell_angle_gamma 90
_cell_formula_units_Z 4
loop_
_atom_type_symbol
_atom_type_radius_bond
C 0.68
H 0.23
N 0.68
O 0.68
loop_
_atom_site_label
_atom_site_type_symbol
_atom_site_fract_x
_atom_site_fract_y
_atom_site_fract_z
O1 O 0.9649(3) 0.6403(3) 0.14883(7)
O2 O 0.7104(3) 0.7267(3) 0.17546(9)
O3 O 0.8547(4) 0.8395(3) 0.28167(10)
O4 O 0.5007(4) 0.6262(3) 0.31753(10)
N1 N 0.8826(4) 0.5739(4) 0.22195(10)
H1 H 0.97740 0.52570 0.22390
N2 N 0.6043(4) 0.7606(4) 0.30927(11)
C1 C 1.0134(4) 0.5857(4) 0.06565(11)
H2 H 1.13350 0.57970 0.07210
C2 C 0.9398(4) 0.4164(4) 0.06508(12)
C3 C 0.9286(5) 0.3044(4) 0.10193(13)
H3 H 0.96850 0.32870 0.13230
C4 C 0.8551(6) 0.1521(5) 0.09222(16)
H4 H 0.84400 0.07680 0.11660
C5 C 0.8000(5) 0.1156(5) 0.04658(17)
H5 H 0.75430 0.01480 0.04050
C6 C 0.8117(5) 0.2264(5) 0.00970(15)
H6 H 0.77360 0.20050 -0.02080
C7 C 0.8813(4) 0.3779(5) 0.01885(12)
C8 C 0.9122(4) 0.5169(5) -0.01297(12)
C9 C 0.8807(5) 0.5385(6) -0.06178(13)
H7 H 0.83080 0.45750 -0.07970
C10 C 0.9254(6) 0.6833(7) -0.08280(13)
H8 H 0.90850 0.69820 -0.11540
C11 C 0.9957(5) 0.8073(6) -0.05559(14)
H9 H 1.02320 0.90440 -0.07020
C12 C 1.0247(4) 0.7864(5) -0.00711(12)
H10 H 1.07020 0.86950 0.01100
C13 C 0.9851(4) 0.6406(5) 0.01411(11)
C14 C 0.9312(5) 0.7015(4) 0.10129(10)
H11 H 0.97720 0.80890 0.09770
H12 H 0.81180 0.70660 0.09570
C15 C 0.8437(4) 0.6532(4) 0.18184(11)
C16 C 0.7686(4) 0.5671(4) 0.26228(11)
H13 H 0.66010 0.52620 0.25160
C17 C 0.8415(6) 0.4535(5) 0.30056(14)
H14 H 0.85300 0.34730 0.28740
H15 H 0.76800 0.45000 0.32770
H16 H 0.94900 0.49240 0.31040
C18 C 0.7463(4) 0.7349(4) 0.28463(12)
C19 C 0.3506(6) 0.6363(7) 0.28825(19)
H17 H 0.28810 0.73030 0.29700
H18 H 0.28340 0.54210 0.29330
H19 H 0.38130 0.64300 0.25510
C20 C 0.5792(7) 0.8921(6) 0.34303(16)
H20 H 0.59700 0.85370 0.37500
H21 H 0.46720 0.93210 0.34010
H22 H 0.65680 0.97710 0.33620
#END
