
#######################################################################
#
#                 Cambridge Crystallographic Data Centre
#                                CCDC
#
#######################################################################
#
# If this CIF has been generated from an entry in the Cambridge
# Structural Database, then it will include bibliographic, chemical,
# crystal, experimental, refinement or atomic coordinate data resulting
# from the CCDC's data processing and validation procedures.
#
#######################################################################

data_CSD_CIF_FEZRAE01
_audit_creation_date 2013-05-23
_audit_creation_method CSD-ConQuest-V1
_database_code_CSD FEZRAE01
_database_code_depnum_ccdc_archive 'CCDC 882833'
_chemical_formula_sum 'C12 H16 N3 O3'
_chemical_formula_moiety
;
C12 H16 N3 O3
;
_journal_coden_Cambridge 580
_journal_volume 52
_journal_year 2013
_journal_page_first 755
_journal_name_full 'Polyhedron '
loop_
_publ_author_name
"M.Ueda"
"T.Mochida"
"H.Mori"
_chemical_name_systematic
;
5-(4',4',5',5'-Tetramethylimidazoline-3'-oxide-1'-oxyl)-2(1H)-pyridone
;
_cell_volume   1251.199
_exptl_crystal_colour 'colorless'
_exptl_crystal_density_diffrn 1.329
_exptl_crystal_description 'prism'
_exptl_crystal_preparation 'dichloromethane/hexane'
_diffrn_ambient_temperature 296
#These two values have been output from a single CSD field.
_refine_ls_R_factor_gt 0.0569
_refine_ls_wR_factor_gt 0.0569
_symmetry_cell_setting monoclinic
_symmetry_space_group_name_H-M 'P 21/c'
_symmetry_Int_Tables_number 14
loop_
_symmetry_equiv_pos_site_id
_symmetry_equiv_pos_as_xyz
1 x,y,z
2 -x,1/2+y,1/2-z
3 -x,-y,-z
4 x,-1/2-y,-1/2+z
_cell_length_a 8.9193(14)
_cell_length_b 19.093(3)
_cell_length_c 7.6035(12)
_cell_angle_alpha 90
_cell_angle_beta 104.919(12)
_cell_angle_gamma 90
_cell_formula_units_Z 4
loop_
_atom_type_symbol
_atom_type_radius_bond
C 0.68
H 0.23
N 0.68
O 0.68
loop_
_atom_site_label
_atom_site_type_symbol
_atom_site_fract_x
_atom_site_fract_y
_atom_site_fract_z
O1 O 0.2508(4) 0.23736(14) 1.0532(4)
O2 O 0.3392(3) -0.09694(13) 0.9802(3)
O3 O 0.1881(3) 0.01878(13) 0.4265(3)
N1 N 0.2718(3) 0.16864(15) 0.8203(4)
H1 H 0.28290 0.20960 0.75600
N2 N 0.2950(3) -0.08425(15) 0.8094(4)
N3 N 0.2270(3) -0.02933(14) 0.5479(4)
C1 C 0.2555(4) 0.17699(19) 0.9934(5)
C2 C 0.2427(4) 0.1131(2) 1.0849(5)
H2 H 0.23020 0.11480 1.20260
C3 C 0.2483(4) 0.05016(18) 1.0054(5)
H3 H 0.24130 0.00940 1.06960
C4 C 0.2647(4) 0.04573(17) 0.8243(5)
C5 C 0.2766(4) 0.10689(17) 0.7371(5)
H4 H 0.28800 0.10600 0.61890
C6 C 0.2640(4) -0.02057(17) 0.7300(4)
C7 C 0.2492(4) -0.14245(17) 0.6722(5)
C8 C 0.0844(4) -0.1636(2) 0.6770(6)
H5 H 0.01650 -0.12400 0.64520
H6 H 0.08510 -0.17920 0.79730
H7 H 0.04860 -0.20080 0.59170
C9 C 0.3599(5) -0.20347(19) 0.7242(5)
H8 H 0.46180 -0.18930 0.71840
H9 H 0.32510 -0.24160 0.64130
H10 H 0.36310 -0.21830 0.84580
C10 C 0.2554(4) -0.10307(17) 0.4956(5)
C11 C 0.1339(4) -0.1249(2) 0.3262(5)
H11 H 0.03280 -0.11300 0.33930
H12 H 0.14000 -0.17450 0.30930
H13 H 0.15200 -0.10090 0.22250
C12 C 0.4161(4) -0.1025(2) 0.4583(5)
H14 H 0.44210 -0.14900 0.42800
H15 H 0.49170 -0.08660 0.56480
H16 H 0.41520 -0.07150 0.35860
#END
