
#######################################################################
#
#                 Cambridge Crystallographic Data Centre
#                                CCDC
#
#######################################################################
#
# If this CIF has been generated from an entry in the Cambridge
# Structural Database, then it will include bibliographic, chemical,
# crystal, experimental, refinement or atomic coordinate data resulting
# from the CCDC's data processing and validation procedures.
#
#######################################################################

data_CSD_CIF_FEZZIU
_audit_creation_date 2005-05-31
_audit_creation_method CSD-ConQuest-V1
_database_code_CSD FEZZIU
_database_code_depnum_ccdc_archive 'CCDC 263896'
_chemical_formula_sum 'C26 H16 N4 O12'
_chemical_formula_moiety
;
C26 H16 N4 O12
;
_journal_coden_Cambridge 1336
_journal_volume 7
_journal_year 2005
_journal_page_first 91
_journal_name_full 'Org.Lett. '
loop_
_publ_author_name
"J.L.Katz"
"M.B.Feldman"
"R.R.Conry"
_chemical_name_systematic
;
11,23-Dimethyl-4,6,16,18-tetranitro-2,8,14,20-tetraoxacalix(4)arene
;
_chemical_melting_point 553.15
_cell_volume   2511.961
_exptl_crystal_colour 'colorless'
_exptl_crystal_density_diffrn 1.524
_exptl_special_details
;
Melts above 553.15K
distorted 1,3-alternate conformation

;
_exptl_crystal_description 'needle'
_exptl_crystal_preparation 'acetonitrile/acetone'
_diffrn_ambient_temperature 298
#These two values have been output from a single CSD field.
_refine_ls_R_factor_gt 0.0711
_refine_ls_wR_factor_gt 0.0711
_symmetry_cell_setting orthorhombic
_symmetry_space_group_name_H-M 'P c a 21'
_symmetry_Int_Tables_number 29
loop_
_symmetry_equiv_pos_site_id
_symmetry_equiv_pos_as_xyz
1 x,y,z
2 -x,-y,1/2+z
3 1/2+x,-y,z
4 1/2-x,y,1/2+z
_cell_length_a 12.3501(14)
_cell_length_b 18.786(2)
_cell_length_c 10.8270(12)
_cell_angle_alpha 90
_cell_angle_beta 90
_cell_angle_gamma 90
_cell_formula_units_Z 4
loop_
_atom_type_symbol
_atom_type_radius_bond
C 0.68
H 0.23
N 0.68
O 0.68
loop_
_atom_site_label
_atom_site_type_symbol
_atom_site_fract_x
_atom_site_fract_y
_atom_site_fract_z
C1 C 0.9544(3) 0.6467(2) 0.4095(4)
C2 C 0.9484(3) 0.5806(2) 0.3520(4)
C3 C 0.8714(3) 0.5329(2) 0.3889(4)
H1 H 0.86750 0.48870 0.35060
C4 C 0.8001(3) 0.5489(2) 0.4809(4)
C5 C 0.8065(3) 0.6144(2) 0.5433(4)
C6 C 0.8840(4) 0.6621(2) 0.5041(4)
H2 H 0.88890 0.70610 0.54300
C7 C 0.7765(4) 0.6813(2) 0.7218(4)
C8 C 0.7308(3) 0.7495(2) 0.7201(4)
H3 H 0.67410 0.76170 0.66770
C9 C 0.7763(3) 0.7975(2) 0.8023(4)
C10 C 0.8576(4) 0.7802(2) 0.8836(4)
H4 H 0.88340 0.81390 0.93920
C11 C 0.9013(3) 0.7119(2) 0.8821(4)
C12 C 0.8585(4) 0.6626(2) 0.7996(4)
H5 H 0.88610 0.61660 0.79740
C13 C 0.8055(3) 0.91751(19) 0.7530(4)
C14 C 0.7901(3) 0.9899(2) 0.7806(3)
C15 C 0.8608(3) 1.03997(19) 0.7336(3)
H6 H 0.85180 1.08760 0.75470
C16 C 0.9443(3) 1.02083(19) 0.6563(4)
C17 C 0.9602(3) 0.9491(2) 0.6265(4)
C18 C 0.8892(3) 0.89885(19) 0.6763(4)
H7 H 0.89900 0.85110 0.65670
C19 C 1.0710(3) 0.8571(2) 0.5506(4)
C20 C 1.1361(3) 0.8323(2) 0.6420(4)
H8 H 1.15910 0.86320 0.70370
C21 C 1.1688(3) 0.7619(2) 0.6450(5)
C22 C 1.1319(3) 0.7176(2) 0.5532(4)
H9 H 1.15270 0.67000 0.55240
C23 C 1.0647(3) 0.7432(2) 0.4628(4)
C24 C 1.0325(3) 0.8134(2) 0.4574(4)
H10 H 0.98770 0.83050 0.39500
C25 C 0.9912(5) 0.6913(3) 0.9674(6)
H11 H 1.03110 0.65240 0.93230
H12 H 0.96150 0.67710 1.04560
H13 H 1.03860 0.73120 0.97920
C26 C 1.2460(5) 0.7349(3) 0.7448(6)
H14 H 1.31930 0.73980 0.71670
H15 H 1.23100 0.68570 0.76150
H16 H 1.23610 0.76220 0.81890
O1 O 1.0294(2) 0.69580(16) 0.3707(3)
O2 O 0.7382(3) 0.63089(15) 0.6367(3)
O3 O 0.7368(2) 0.86784(14) 0.8017(3)
O4 O 1.0417(2) 0.92935(14) 0.5496(3)
O5 O 1.0703(3) 0.60204(19) 0.1941(3)
O6 O 1.0415(3) 0.49445(19) 0.2467(4)
O7 O 0.7181(4) 0.4409(2) 0.4567(4)
O8 O 0.6585(6) 0.5048(3) 0.5922(7)
O9 O 0.6211(2) 0.97962(18) 0.8673(3)
O10 O 0.7157(3) 1.07201(17) 0.9126(3)
O11 O 0.9908(3) 1.13815(15) 0.6369(4)
O12 O 1.0940(3) 1.06226(18) 0.5515(4)
N1 N 1.0260(3) 0.5582(2) 0.2574(3)
N2 N 0.7190(4) 0.4950(2) 0.5131(4)
N3 N 0.7030(3) 1.0157(2) 0.8599(3)
N4 N 1.0154(3) 1.07817(18) 0.6106(3)
#END
