
#######################################################################
#
#                 Cambridge Crystallographic Data Centre
#                                CCDC
#
#######################################################################
#
# If this CIF has been generated from an entry in the Cambridge
# Structural Database, then it will include bibliographic, chemical,
# crystal, experimental, refinement or atomic coordinate data resulting
# from the CCDC's data processing and validation procedures.
#
#######################################################################

data_CSD_CIF_FIBLEH
_audit_creation_date 1988-04-18
_audit_creation_method CSD-ConQuest-V1
_database_code_CSD FIBLEH
_database_code_depnum_ccdc_archive 'CCDC 1155705'
_chemical_formula_sum 'C18 H16 N4 O1'
_chemical_formula_moiety
;
C18 H16 N4 O1
;
_journal_coden_Cambridge 34
_journal_volume 23
_journal_year 1986
_journal_page_first 1519
_journal_name_full 'J.Heterocycl.Chem. '
loop_
_publ_author_name
"J.W.Fischer"
"R.L.Atkins"
"R.A.Nissan"
"C.K.Lowe-Ma"
"D.L.Decker"
_chemical_name_systematic
;
2,4-Diphenyl-4-methyl-3,4-dihydro-5H-furazano(3,4-f)(1,5)diazepine
;
_chemical_melting_point 415.15
_cell_volume   1600.772
_exptl_crystal_density_diffrn 1.26
_exptl_special_details
;
Melting point range 415.15-417.15K

;
_diffrn_ambient_temperature ?
_diffrn_special_details
;
The study was carried out at room temperature,in the range 283-303K

;
#These two values have been output from a single CSD field.
_refine_ls_R_factor_gt 0.07
_refine_ls_wR_factor_gt 0.07
_symmetry_cell_setting monoclinic
_symmetry_space_group_name_H-M 'P 21/n'
_symmetry_Int_Tables_number 14
loop_
_symmetry_equiv_pos_site_id
_symmetry_equiv_pos_as_xyz
1 x,y,z
2 1/2-x,1/2+y,1/2-z
3 -x,-y,-z
4 -1/2+x,-1/2-y,-1/2+z
_cell_length_a 9.635(2)
_cell_length_b 15.665(4)
_cell_length_c 10.900(3)
_cell_angle_alpha 90
_cell_angle_beta 103.34(2)
_cell_angle_gamma 90
_cell_formula_units_Z 4
loop_
_atom_type_symbol
_atom_type_radius_bond
C 0.68
N 0.68
O 0.68
loop_
_atom_site_label
_atom_site_type_symbol
_atom_site_fract_x
_atom_site_fract_y
_atom_site_fract_z
C1 C 0.8614(3) 0.9317(2) 0.0420(3)
C2 C 0.7129(3) 0.9531(2) 0.0013(3)
C3 C 0.6286(3) 0.8410(2) -0.1619(3)
C4 C 0.7757(3) 0.8471(2) -0.1951(3)
C5 C 0.9043(3) 0.8249(2) -0.0919(3)
C6 C 0.9992(3) 0.7542(2) -0.1132(3)
C7 C 0.9495(4) 0.6856(2) -0.1911(4)
C8 C 1.0406(5) 0.6194(3) -0.2064(4)
C9 C 1.1813(5) 0.6233(3) -0.1465(4)
C10 C 1.2337(4) 0.6911(3) -0.0700(4)
C11 C 1.1430(4) 0.7564(3) -0.0523(4)
C12 C 0.5113(4) 0.8482(3) -0.2828(3)
C13 C 0.6186(3) 0.7573(2) -0.0922(3)
C14 C 0.5995(4) 0.6800(2) -0.1565(4)
C15 C 0.5980(4) 0.6038(2) -0.0923(5)
C16 C 0.6129(4) 0.6030(3) 0.0355(4)
C17 C 0.6293(4) 0.6788(3) 0.0993(4)
C18 C 0.6327(4) 0.7546(2) 0.0367(3)
N1 N 0.9432(3) 0.8651(2) 0.0122(2)
N2 N 0.9217(3) 0.9845(2) 0.1309(3)
N3 N 0.6855(3) 1.0201(2) 0.0645(3)
N4 N 0.6095(3) 0.9153(2) -0.0861(3)
O1 O 0.8174(3) 1.0401(2) 0.1464(2)
#END
