
#######################################################################
#
#                 Cambridge Crystallographic Data Centre
#                                CCDC
#
#######################################################################
#
# If this CIF has been generated from an entry in the Cambridge
# Structural Database, then it will include bibliographic, chemical,
# crystal, experimental, refinement or atomic coordinate data resulting
# from the CCDC's data processing and validation procedures.
#
#######################################################################

data_CSD_CIF_FIBLIL
_audit_creation_date 1988-04-18
_audit_creation_method CSD-ConQuest-V1
_database_code_CSD FIBLIL
_database_code_depnum_ccdc_archive 'CCDC 1155706'
_chemical_formula_sum 'C11 H12 N2 O4'
_chemical_formula_moiety
;
C11 H12 N2 O4
;
_journal_coden_Cambridge 34
_journal_volume 23
_journal_year 1986
_journal_page_first 1423
_journal_name_full 'J.Heterocycl.Chem. '
loop_
_publ_author_name
"J.E.Johnson"
"R.Hodzi"
"S.L.Todd"
"P.de Meester"
"S.S.C.Chu"
_chemical_name_systematic
;
2-(p-Nitrobenzoyl)tetrahydro-2H-1,2-oxazine
;
_chemical_melting_point 357.15
_cell_volume   1098.752
_exptl_crystal_colour 'pale yellow'
_exptl_crystal_density_diffrn 1.428
_exptl_special_details
;
Melting point range 357.15-358.15K

;
_diffrn_ambient_temperature ?
_diffrn_special_details
;
The study was carried out at room temperature,in the range 283-303K

;
#These two values have been output from a single CSD field.
_refine_ls_R_factor_gt 0.035
_refine_ls_wR_factor_gt 0.035
_symmetry_cell_setting monoclinic
_symmetry_space_group_name_H-M 'P 21/n'
_symmetry_Int_Tables_number 14
loop_
_symmetry_equiv_pos_site_id
_symmetry_equiv_pos_as_xyz
1 x,y,z
2 1/2-x,1/2+y,1/2-z
3 -x,-y,-z
4 -1/2+x,-1/2-y,-1/2+z
_cell_length_a 6.749(1)
_cell_length_b 7.644(1)
_cell_length_c 21.557(2)
_cell_angle_alpha 90
_cell_angle_beta 98.89(1)
_cell_angle_gamma 90
_cell_formula_units_Z 4
loop_
_atom_type_symbol
_atom_type_radius_bond
C 0.68
H 0.23
N 0.68
O 0.68
loop_
_atom_site_label
_atom_site_type_symbol
_atom_site_fract_x
_atom_site_fract_y
_atom_site_fract_z
N1 N 1.0539(3) 0.0746(3) 0.7714(1)
O1 O 0.8896(2) 0.1911(2) 0.7581(1)
C1 C 0.7364(3) 0.1092(3) 0.7126(1)
C2 C 0.8183(4) 0.0687(3) 0.6527(1)
C3 C 1.0080(4) -0.0404(3) 0.6663(1)
C4 C 1.1556(3) 0.0452(3) 0.7171(1)
C5 C 1.1452(3) 0.0660(3) 0.8320(1)
O2 O 1.3162(2) 0.0113(2) 0.8448(1)
C6 C 1.0274(3) 0.1193(3) 0.8822(1)
C7 C 0.8276(3) 0.0747(3) 0.8826(1)
C8 C 0.7335(3) 0.1196(3) 0.9325(1)
C9 C 0.8397(3) 0.2115(3) 0.9818(1)
C10 C 1.0382(4) 0.2557(3) 0.9835(1)
C11 C 1.1321(3) 0.2080(3) 0.9336(1)
N2 N 0.7391(3) 0.2682(3) 1.0342(1)
O3 O 0.8410(3) 0.3277(3) 1.0810(1)
O4 O 0.5578(3) 0.2508(3) 1.0284(1)
H1 H 0.756(3) 0.013(2) 0.846(1)
H2 H 0.597(3) 0.088(2) 0.934(1)
H3 H 1.096(2) 0.326(3) 1.018(1)
H4 H 1.288(3) 0.241(3) 0.930(1)
H5 H 0.621(3) 0.204(3) 0.709(1)
H6 H 0.685(3) 0.006(3) 0.733(1)
H7 H 0.710(3) 0.006(3) 0.621(1)
H8 H 0.850(3) 0.177(3) 0.633(1)
H9 H 1.063(3) -0.061(3) 0.629(1)
H10 H 0.974(3) -0.172(3) 0.682(1)
H11 H 1.269(3) -0.024(3) 0.732(1)
H12 H 1.207(3) 0.167(3) 0.701(1)
#END
