
#######################################################################
#
#                 Cambridge Crystallographic Data Centre
#                                CCDC
#
#######################################################################
#
# If this CIF has been generated from an entry in the Cambridge
# Structural Database, then it will include bibliographic, chemical,
# crystal, experimental, refinement or atomic coordinate data resulting
# from the CCDC's data processing and validation procedures.
#
#######################################################################

data_CSD_CIF_FIBTUG
_audit_creation_date 2005-05-31
_audit_creation_method CSD-ConQuest-V1
_database_code_CSD FIBTUG
_database_code_depnum_ccdc_archive 'CCDC 254810'
_chemical_formula_sum 'C28 H23 N1 O1'
_chemical_formula_moiety
;
C28 H23 N1 O1
;
_journal_coden_Cambridge 7
_journal_volume 77
_journal_year 2004
_journal_page_first 2273
_journal_name_full 'Bull.Chem.Soc.Jpn. '
loop_
_publ_author_name
"C.Agawa"
"K.Otsuka"
"M.Minoura"
"Y.Mazaki"
"G.Yamamoto"
_chemical_name_systematic
;
O-Ethyl-N-phenyl-N-9-triptycylhydroxylamine
;
_chemical_melting_point 539.15
_cell_volume   4096.243
_exptl_crystal_density_diffrn 1.263
_exptl_special_details
;
Melts with decomposition.

;
_exptl_crystal_preparation 'dichloromethane/hexane'
_diffrn_ambient_temperature 113
#These two values have been output from a single CSD field.
_refine_ls_R_factor_gt 0.0525
_refine_ls_wR_factor_gt 0.0525
_symmetry_cell_setting monoclinic
_symmetry_space_group_name_H-M 'P 21/c'
_symmetry_Int_Tables_number 14
loop_
_symmetry_equiv_pos_site_id
_symmetry_equiv_pos_as_xyz
1 x,y,z
2 -x,1/2+y,1/2-z
3 -x,-y,-z
4 x,-1/2-y,-1/2+z
_cell_length_a 14.399(4)
_cell_length_b 16.953(5)
_cell_length_c 16.788(5)
_cell_angle_alpha 90
_cell_angle_beta 91.7042(13)
_cell_angle_gamma 90
_cell_formula_units_Z 8
loop_
_atom_type_symbol
_atom_type_radius_bond
C 0.68
H 0.23
N 0.68
O 0.68
loop_
_atom_site_label
_atom_site_type_symbol
_atom_site_fract_x
_atom_site_fract_y
_atom_site_fract_z
C1 C 0.92300(11) 0.14502(9) 0.72091(8)
C2 C 0.93738(11) 0.08093(9) 0.78609(9)
C3 C 0.90799(11) 0.08247(9) 0.86437(9)
H1 H 0.87780 0.12780 0.88440
C4 C 0.92339(12) 0.01664(10) 0.91318(10)
H2 H 0.90350 0.01760 0.96660
C5 C 0.96744(12) -0.05025(10) 0.88466(10)
H3 H 0.97910 -0.09390 0.91900
C6 C 0.99438(12) -0.05299(9) 0.80579(10)
H4 H 1.02390 -0.09870 0.78580
C7 C 0.97766(11) 0.01158(9) 0.75663(9)
C8 C 0.99350(11) 0.01320(9) 0.66748(9)
H5 H 1.02030 -0.03710 0.64720
C9 C 0.89852(11) 0.03242(9) 0.62973(9)
C10 C 0.84932(12) -0.01411(9) 0.57555(9)
H6 H 0.87630 -0.06080 0.55520
C11 C 0.75963(12) 0.00816(10) 0.55113(9)
H7 H 0.72570 -0.02320 0.51350
C12 C 0.71979(11) 0.07599(10) 0.58156(9)
H8 H 0.65810 0.09000 0.56570
C13 C 0.76994(11) 0.12374(9) 0.63544(9)
H9 H 0.74290 0.17050 0.65560
C14 C 0.85924(11) 0.10227(9) 0.65906(8)
C15 C 1.01710(11) 0.15557(9) 0.67921(8)
C16 C 1.06399(11) 0.22542(9) 0.66362(9)
H10 H 1.03870 0.27450 0.67960
C17 C 1.14827(12) 0.22329(10) 0.62447(10)
H11 H 1.17990 0.27120 0.61380
C18 C 1.18640(12) 0.15185(10) 0.60096(10)
H12 H 1.24450 0.15080 0.57560
C19 C 1.13870(11) 0.08199(10) 0.61489(9)
H13 H 1.16390 0.03300 0.59860
C20 C 1.05436(11) 0.08411(9) 0.65255(9)
N1 N 0.87664(9) 0.21544(8) 0.75120(7)
C21 C 0.91792(12) 0.25358(9) 0.82111(9)
C22 C 1.01013(12) 0.25007(10) 0.84501(9)
H14 H 1.05370 0.22480 0.81200
C23 C 1.03997(13) 0.28324(10) 0.91718(10)
H15 H 1.10350 0.27950 0.93370
C24 C 0.97777(13) 0.32159(10) 0.96502(10)
H16 H 0.99870 0.34510 1.01370
C25 C 0.88498(14) 0.32555(10) 0.94163(10)
H17 H 0.84200 0.35190 0.97430
C26 C 0.85457(13) 0.29103(10) 0.87045(9)
H18 H 0.79060 0.29280 0.85510
O1 O 0.87358(8) 0.27108(6) 0.68440(6)
C27 C 0.79325(12) 0.32136(10) 0.6871(1)
H19 H 0.80370 0.36430 0.72630
H20 H 0.73800 0.29080 0.70240
C28 C 0.77947(15) 0.35482(12) 0.60361(12)
H21 H 0.83630 0.38190 0.58810
H22 H 0.72770 0.39230 0.60280
H23 H 0.76560 0.31180 0.56610
C29 C 0.44409(11) 0.25664(9) 0.87734(9)
C30 C 0.52404(11) 0.19528(9) 0.88131(9)
C31 C 0.58964(12) 0.18339(9) 0.82362(9)
H24 H 0.58950 0.21520 0.77700
C32 C 0.65598(12) 0.1238(1) 0.83518(10)
H25 H 0.70210 0.11580 0.79670
C33 C 0.65486(13) 0.0763(1) 0.90253(11)
H26 H 0.70060 0.03640 0.91010
C34 C 0.58690(12) 0.08669(9) 0.95935(10)
H27 H 0.58560 0.05370 1.00500
C35 C 0.52163(11) 0.14579(9) 0.94809(9)
C36 C 0.43885(11) 0.16124(9) 1.00076(9)
H28 H 0.43670 0.12470 1.04740
C37 C 0.35444(11) 0.15370(9) 0.94455(9)
C38 C 0.28174(12) 0.10188(10) 0.95545(10)
H29 H 0.27910 0.07210 1.00320
C39 C 0.21229(12) 0.09337(10) 0.89639(11)
H30 H 0.16160 0.05860 0.90400
C40 C 0.21826(12) 0.13633(10) 0.82658(10)
H31 H 0.17290 0.12860 0.78510
C41 C 0.28981(11) 0.19088(9) 0.81594(10)
H32 H 0.29230 0.22030 0.76790
C42 C 0.35701(11) 0.20187(9) 0.87586(9)
C43 C 0.44401(11) 0.29916(9) 0.95960(9)
C44 C 0.44384(11) 0.37985(9) 0.97342(9)
H33 H 0.44200 0.41570 0.92990
C45 C 0.44646(11) 0.40808(10) 1.05203(10)
H34 H 0.44670 0.46330 1.06150
C46 C 0.44876(12) 0.35632(10) 1.11616(10)
H35 H 0.45140 0.37620 1.16910
C47 C 0.44717(12) 0.27534(10) 1.10268(9)
H36 H 0.44800 0.23960 1.14630
C48 C 0.44431(11) 0.24709(9) 1.02482(9)
N2 N 0.45404(9) 0.30806(8) 0.80770(8)
C49 C 0.52416(12) 0.36527(9) 0.80093(9)
C50 C 0.51933(13) 0.42033(10) 0.7379(1)
H37 H 0.46790 0.41910 0.70110
C51 C 0.58855(14) 0.47619(11) 0.72890(11)
H38 H 0.58400 0.51250 0.68590
C52 C 0.66381(14) 0.47987(10) 0.78138(11)
H39 H 0.71060 0.51880 0.77530
C53 C 0.67003(12) 0.42566(10) 0.84325(11)
H40 H 0.72180 0.42760 0.87970
C54 C 0.60213(11) 0.36862(9) 0.85296(9)
H41 H 0.60850 0.33150 0.89520
O2 O 0.37290(8) 0.32834(7) 0.76402(6)
C55 C 0.31776(12) 0.38917(10) 0.80083(10)
H42 H 0.35570 0.43690 0.81170
H43 H 0.29270 0.37010 0.85160
C56 C 0.24044(14) 0.40683(12) 0.74162(11)
H44 H 0.26660 0.41970 0.69000
H45 H 0.20420 0.45180 0.76040
H46 H 0.20000 0.36060 0.73580
#END
