
#######################################################################
#
#                 Cambridge Crystallographic Data Centre
#                                CCDC
#
#######################################################################
#
# If this CIF has been generated from an entry in the Cambridge
# Structural Database, then it will include bibliographic, chemical,
# crystal, experimental, refinement or atomic coordinate data resulting
# from the CCDC's data processing and validation procedures.
#
#######################################################################

data_CSD_CIF_FIBVES
_audit_creation_date 2005-05-31
_audit_creation_method CSD-ConQuest-V1
_database_code_CSD FIBVES
_database_code_depnum_ccdc_archive 'CCDC 254812'
_chemical_formula_sum 'C27 H19 N3 O3'
_chemical_formula_moiety
;
C27 H19 N3 O3
;
_journal_coden_Cambridge 7
_journal_volume 77
_journal_year 2004
_journal_page_first 2273
_journal_name_full 'Bull.Chem.Soc.Jpn. '
loop_
_publ_author_name
"C.Agawa"
"K.Otsuka"
"M.Minoura"
"Y.Mazaki"
"G.Yamamoto"
_chemical_name_systematic
;
1-(9-triptycyl)-3-(2-carboxyphenyl)triazene-1-oxide
;
_cell_volume   2106.046
_exptl_crystal_density_diffrn 1.219
_exptl_crystal_preparation 'dichloromethane/hexane'
_diffrn_ambient_temperature 113
#These two values have been output from a single CSD field.
_refine_ls_R_factor_gt 0.063
_refine_ls_wR_factor_gt 0.063
_symmetry_cell_setting monoclinic
_symmetry_space_group_name_H-M 'P 21/a'
_symmetry_Int_Tables_number 14
loop_
_symmetry_equiv_pos_site_id
_symmetry_equiv_pos_as_xyz
1 x,y,z
2 1/2-x,1/2+y,-z
3 -x,-y,-z
4 -1/2+x,-1/2-y,z
_cell_length_a 14.129(5)
_cell_length_b 8.025(3)
_cell_length_c 18.620(7)
_cell_angle_alpha 90
_cell_angle_beta 94.017(7)
_cell_angle_gamma 90
_cell_formula_units_Z 4
loop_
_atom_type_symbol
_atom_type_radius_bond
C 0.68
H 0.23
N 0.68
O 0.68
loop_
_atom_site_label
_atom_site_type_symbol
_atom_site_fract_x
_atom_site_fract_y
_atom_site_fract_z
C1 C 0.06809(18) 0.2229(3) 0.26893(14)
C2 C 0.06970(17) 0.4016(3) 0.30157(15)
C3 C 0.0610(2) 0.5561(3) 0.26791(16)
H1 H 0.05440 0.56280 0.21690
C4 C 0.0620(2) 0.7002(3) 0.30903(18)
H2 H 0.05710 0.80550 0.28580
C5 C 0.0698(2) 0.6930(3) 0.38308(18)
H3 H 0.07120 0.79280 0.41060
C6 C 0.0757(2) 0.5389(3) 0.41767(17)
H4 H 0.07980 0.53340 0.46880
C7 C 0.07555(17) 0.3939(3) 0.37734(14)
C8 C -0.01965(18) 0.1404(3) 0.29791(15)
C9 C -0.1003(2) 0.0821(3) 0.25885(18)
H5 H -0.10540 0.08940 0.20780
C10 C -0.1735(2) 0.0133(4) 0.2952(2)
H6 H -0.22840 -0.02880 0.26890
C11 C -0.1666(2) 0.0058(4) 0.3693(2)
H7 H -0.21640 -0.04320 0.39370
C12 C -0.0873(2) 0.0692(3) 0.40881(18)
H8 H -0.08390 0.06650 0.45990
C13 C -0.01370(18) 0.1362(3) 0.37317(15)
C14 C 0.15616(18) 0.1314(3) 0.30362(14)
C15 C 0.2284(2) 0.0572(3) 0.26811(18)
H9 H 0.22730 0.06100 0.21710
C16 C 0.3022(2) -0.0225(4) 0.3075(2)
H10 H 0.35090 -0.07570 0.28330
C17 C 0.3053(2) -0.0248(4) 0.3814(2)
H11 H 0.35630 -0.07920 0.40790
C18 C 0.2345(2) 0.0517(4) 0.41771(18)
H12 H 0.23710 0.05120 0.46880
C19 C 0.15960(18) 0.1291(3) 0.37810(15)
C20 C 0.07570(19) 0.2179(3) 0.40787(15)
H13 H 0.07810 0.21620 0.46170
N1 N 0.06804(17) 0.2072(3) 0.18985(12)
O1 O 0.05460(18) 0.0609(2) 0.16189(11)
N2 N 0.09644(17) 0.3305(3) 0.15368(12)
N3 N 0.10318(19) 0.2918(3) 0.08462(13)
H14 H 0.084(3) 0.181(5) 0.0701(18)
C21 C 0.1204(2) 0.4188(3) 0.03626(15)
C22 C 0.1110(2) 0.3879(3) -0.03812(16)
C23 C 0.1271(2) 0.5190(4) -0.08571(17)
H15 H 0.12140 0.49920 -0.13610
C24 C 0.1510(2) 0.6759(4) -0.06043(19)
H16 H 0.16170 0.76330 -0.09330
C25 C 0.1594(2) 0.7057(4) 0.01281(19)
H17 H 0.17500 0.81440 0.03000
C26 C 0.1455(2) 0.5802(4) 0.06095(17)
H18 H 0.15290 0.60200 0.11120
C27 C 0.0830(2) 0.2197(4) -0.06563(17)
O2 O 0.0840(2) 0.0941(3) -0.02963(12)
O3 O 0.0541(2) 0.2192(3) -0.13517(12)
H19 H 0.02490 0.13010 -0.14530
#END
