
#######################################################################
#
#                 Cambridge Crystallographic Data Centre
#                                CCDC
#
#######################################################################
#
# If this CIF has been generated from an entry in the Cambridge
# Structural Database, then it will include bibliographic, chemical,
# crystal, experimental, refinement or atomic coordinate data resulting
# from the CCDC's data processing and validation procedures.
#
#######################################################################

data_CSD_CIF_FICDOK01
_audit_creation_date 2008-01-31
_audit_creation_method CSD-ConQuest-V1
_database_code_CSD FICDOK01
_database_code_depnum_ccdc_archive 'CCDC 258086'
_chemical_formula_sum 'C5 H7 N3 O3'
_chemical_formula_moiety
;
C5 H7 N3 O3
;
_journal_coden_Cambridge 1078
_journal_year 2007
_journal_name_full 'CSD Communication(Private Communication) '
loop_
_publ_author_name
"M.Kubicki"
"P.Wagner"
_chemical_name_systematic
;
1-Methyl-4-nitro-5-methoxyimidazole
;
_cell_volume    675.162
_exptl_crystal_colour 'colorless'
_exptl_crystal_density_diffrn 1.546
_exptl_special_details
;
contribution from Faculty of Chemistry, Adam Mickiewicz University, 
Grunwaldzka 6, 60-780 Poznan, Poland
;
_exptl_crystal_description 'prism'
_diffrn_ambient_temperature 100
#These two values have been output from a single CSD field.
_refine_ls_R_factor_gt 0.0459
_refine_ls_wR_factor_gt 0.0459
_symmetry_cell_setting monoclinic
_symmetry_space_group_name_H-M 'P 21/c'
_symmetry_Int_Tables_number 14
loop_
_symmetry_equiv_pos_site_id
_symmetry_equiv_pos_as_xyz
1 x,y,z
2 -x,1/2+y,1/2-z
3 -x,-y,-z
4 x,-1/2-y,-1/2+z
_cell_length_a 10.7862(9)
_cell_length_b 8.8688(8)
_cell_length_c 7.0700(7)
_cell_angle_alpha 90
_cell_angle_beta 93.355(8)
_cell_angle_gamma 90
_cell_formula_units_Z 4
loop_
_atom_type_symbol
_atom_type_radius_bond
C 0.68
H 0.23
N 0.68
O 0.68
loop_
_atom_site_label
_atom_site_type_symbol
_atom_site_fract_x
_atom_site_fract_y
_atom_site_fract_z
N1 N 0.68031(13) 0.42575(16) 0.15141(19)
C1 C 0.69476(18) 0.58984(19) 0.1433(3)
H1 H 0.770(2) 0.620(3) 0.221(3)
H2 H 0.620(2) 0.636(3) 0.189(3)
H3 H 0.705(2) 0.621(3) 0.012(3)
C2 C 0.57839(15) 0.34833(19) 0.2067(2)
H4 H 0.5046(19) 0.396(2) 0.248(3)
N2 N 0.59393(13) 0.20149(16) 0.20195(19)
C3 C 0.71058(14) 0.18427(18) 0.1385(2)
N3 N 0.75971(13) 0.03903(15) 0.1048(2)
O1 O 0.70101(12) -0.07314(14) 0.1529(2)
O2 O 0.85893(11) 0.03056(13) 0.02550(17)
C4 C 0.76656(14) 0.32168(18) 0.1066(2)
O3 O 0.87654(12) 0.36826(13) 0.04156(18)
C5 C 0.98690(17) 0.3204(2) 0.1430(3)
H5 H 0.988(3) 0.361(3) 0.278(4)
H6 H 1.061(3) 0.376(3) 0.077(4)
H7 H 0.994(2) 0.208(3) 0.133(4)
#END
