
#######################################################################
#
#                 Cambridge Crystallographic Data Centre
#                                CCDC
#
#######################################################################
#
# If this CIF has been generated from an entry in the Cambridge
# Structural Database, then it will include bibliographic, chemical,
# crystal, experimental, refinement or atomic coordinate data resulting
# from the CCDC's data processing and validation procedures.
#
#######################################################################

data_CSD_CIF_FICDOK
_audit_creation_date 1988-04-18
_audit_creation_method CSD-ConQuest-V1
_database_code_CSD FICDOK
_chemical_formula_sum 'C5 H7 N3 O3'
_chemical_formula_moiety
;
C5 H7 N3 O3
;
_journal_coden_Cambridge 154
_journal_volume 40
_journal_year 1987
_journal_page_first 1399
_journal_name_full 'Aust.J.Chem. '
loop_
_publ_author_name
"S.Kulkarni"
"M.R.Grimmett"
"L.R.Hanton"
"J.Simpson"
_chemical_name_systematic
;
5-Methoxy-1-methyl-4-nitroimidazole
;
_chemical_melting_point 411.15
_cell_volume    708.115
_exptl_crystal_density_diffrn 1.47
_exptl_special_details
;
Melting point range 411.15-412.15K

;
_diffrn_ambient_temperature ?
_diffrn_special_details
;
The study was carried out at room temperature,in the range 283-303K

;
#These two values have been output from a single CSD field.
_refine_ls_R_factor_gt 0.075
_refine_ls_wR_factor_gt 0.075
_symmetry_cell_setting monoclinic
_symmetry_space_group_name_H-M 'P 21/c'
_symmetry_Int_Tables_number 14
loop_
_symmetry_equiv_pos_site_id
_symmetry_equiv_pos_as_xyz
1 x,y,z
2 -x,1/2+y,1/2-z
3 -x,-y,-z
4 x,-1/2-y,-1/2+z
_cell_length_a 10.929(3)
_cell_length_b 8.899(2)
_cell_length_c 7.290(2)
_cell_angle_alpha 90
_cell_angle_beta 92.87(2)
_cell_angle_gamma 90
_cell_formula_units_Z 4
loop_
_atom_type_symbol
_atom_type_radius_bond
C 0.68
H 0.23
N 0.68
O 0.68
loop_
_atom_site_label
_atom_site_type_symbol
_atom_site_fract_x
_atom_site_fract_y
_atom_site_fract_z
N1 N 0.1794(2) 0.5748(3) 0.1533(5)
C1 C 0.1937(3) 0.4113(4) 0.1444(7)
C2 C 0.0804(3) 0.6512(4) 0.2086(6)
N2 N 0.0945(2) 0.7976(3) 0.2051(5)
C3 C 0.2097(3) 0.8145(4) 0.1411(6)
N3 N 0.2579(3) 0.9598(3) 0.1097(5)
O1 O 0.2006(3) 1.0701(3) 0.1566(5)
O2 O 0.3549(2) 0.9693(2) 0.0309(4)
C4 C 0.2638(3) 0.6791(4) 0.1099(5)
O3 O 0.3701(2) 0.6342(3) 0.0427(4)
C5 C 0.4807(3) 0.6770(4) 0.1457(7)
H1 H 0.1248(4) 0.3604(4) 0.1922(7)
H2 H 0.2671(3) 0.3824(4) 0.2135(7)
H3 H 0.2007(3) 0.3845(4) 0.0178(7)
H4 H 0.0070(3) 0.6031(4) 0.2458(6)
H5 H 0.5417(3) 0.6398(4) 0.0670(7)
H6 H 0.4946(3) 0.6356(4) 0.2665(7)
H7 H 0.4856(3) 0.7846(4) 0.1519(7)
#END
