
#######################################################################
#
#                 Cambridge Crystallographic Data Centre
#                                CCDC
#
#######################################################################
#
# If this CIF has been generated from an entry in the Cambridge
# Structural Database, then it will include bibliographic, chemical,
# crystal, experimental, refinement or atomic coordinate data resulting
# from the CCDC's data processing and validation procedures.
#
#######################################################################

data_CSD_CIF_FICFAB
_audit_creation_date 2018-04-04
_audit_creation_method CSD-ConQuest-V1
_database_code_CSD FICFAB
_database_code_depnum_ccdc_archive 'CCDC 1820695'
_chemical_formula_sum 'C20 H23 N1 O7'
_chemical_formula_moiety
;
C20 H23 N1 O7
;
_journal_coden_Cambridge 1336
_journal_volume 20
_journal_year 2018
_journal_page_first 2176
_journal_name_full 'Org.Lett. '
loop_
_publ_author_name
"M.Jouanneau"
"K.R.Bonepally"
"Alan Jeuken"
"A.Tap"
"R.Guillot"
"J.Ardisson"
"J.-P.Ferezou"
"J.Prunet"
_chemical_name_systematic
;
4-(2-hydroxypent-4-en-2-yl)-3-(methoxycarbonyl)-2-methylcyclopent-2-en-1-yl 
4-nitrobenzoate
;
_cell_volume    976.452
_exptl_crystal_colour 'colorless'
_exptl_crystal_density_diffrn 1.324
_exptl_crystal_description 'block'
_diffrn_ambient_temperature 100
#These two values have been output from a single CSD field.
_refine_ls_R_factor_gt 0.0406
_refine_ls_wR_factor_gt 0.0406
_symmetry_cell_setting triclinic
_symmetry_space_group_name_H-M 'P -1'
_symmetry_Int_Tables_number 2
loop_
_symmetry_equiv_pos_site_id
_symmetry_equiv_pos_as_xyz
1 x,y,z
2 -x,-y,-z
_cell_length_a 6.6655(3)
_cell_length_b 11.8441(5)
_cell_length_c 12.9956(5)
_cell_angle_alpha 101.399(1)
_cell_angle_beta 98.141(1)
_cell_angle_gamma 99.286(1)
_cell_formula_units_Z 2
loop_
_atom_type_symbol
_atom_type_radius_bond
C 0.68
H 0.23
N 0.68
O 0.68
loop_
_atom_site_label
_atom_site_type_symbol
_atom_site_fract_x
_atom_site_fract_y
_atom_site_fract_z
C1 C 0.19938(11) 0.35919(7) 1.03511(6)
H1 H 0.27684 0.35578 1.10128
C2 C 0.29945(11) 0.37811(7) 0.95129(6)
H2 H 0.44553 0.38777 0.95942
C3 C 0.18213(11) 0.38260(6) 0.85566(6)
C4 C -0.03163(12) 0.36678(7) 0.83942(6)
H3 H -0.10852 0.36925 0.77278
C5 C -0.13016(11) 0.34719(7) 0.92349(6)
H4 H -0.27660 0.33504 0.91416
C6 C -0.01549(11) 0.34525(6) 1.02148(6)
C7 C -0.12876(11) 0.33188(6) 1.11127(6)
C8 C -0.09915(11) 0.30769(6) 1.29049(6)
H5 H -0.18712 0.36748 1.30676
C9 C -0.22111(11) 0.18319(6) 1.27832(6)
H6 H -0.25464 0.14135 1.20228
H7 H -0.35174 0.18589 1.30587
C10 C -0.08170(11) 0.11992(6) 1.34362(6)
H8 H -0.16248 0.08525 1.39295
C11 C 0.08510(11) 0.22081(6) 1.40943(5)
C12 C 0.07894(11) 0.32338(6) 1.38095(6)
C13 C 0.22143(13) 0.44000(7) 1.42349(7)
H9 H 0.14012 0.50119 1.43926
H10 H 0.30481 0.45731 1.37013
H11 H 0.31261 0.43784 1.48892
C14 C 0.23645(11) 0.20102(7) 1.49639(6)
C15 C 0.58682(14) 0.21141(10) 1.56471(7)
H12 H 0.57207 0.25084 1.63621
H13 H 0.72492 0.24080 1.55175
H14 H 0.56807 0.12656 1.55950
C16 C 0.00978(11) 0.02188(6) 1.27866(6)
C17 C -0.16301(12) -0.07499(7) 1.20963(6)
H15 H -0.10308 -0.13638 1.16974
H16 H -0.24751 -0.04209 1.15951
H17 H -0.24958 -0.10879 1.25522
C18 C 0.16189(12) 0.07137(7) 1.21289(6)
H18 H 0.08629 0.10522 1.15907
H19 H 0.26780 0.13569 1.26073
C19 C 0.26786(14) -0.01895(8) 1.15700(7)
H20 H 0.32987 -0.06622 1.19826
C20 C 0.28143(16) -0.03765(10) 1.05522(8)
H21 H 0.22136 0.00784 1.01132
H22 H 0.35129 -0.09665 1.02563
N1 N 0.28815(11) 0.40427(6) 0.76758(5)
O1 O 0.4762(1) 0.40956(7) 0.77992(6)
O2 O 0.18418(11) 0.41650(6) 0.68613(5)
O3 O -0.31162(9) 0.33234(6) 1.10663(5)
O4 O -0.00335(8) 0.32133(5) 1.19731(4)
O5 O 0.1885(1) 0.15815(6) 1.56885(5)
O6 O 0.43232(9) 0.23511(6) 1.48591(5)
O7 O 0.13264(9) -0.02535(5) 1.35397(5)
H23 H 0.05475 -0.06336 1.38602
#END
