
#######################################################################
#
#                 Cambridge Crystallographic Data Centre
#                                CCDC
#
#######################################################################
#
# If this CIF has been generated from an entry in the Cambridge
# Structural Database, then it will include bibliographic, chemical,
# crystal, experimental, refinement or atomic coordinate data resulting
# from the CCDC's data processing and validation procedures.
#
#######################################################################

data_CSD_CIF_FICQOA
_audit_creation_date 2018-04-05
_audit_creation_method CSD-ConQuest-V1
_database_code_CSD FICQOA
_database_code_depnum_ccdc_archive 'CCDC 1582618'
_chemical_formula_sum 'C4 H7 N3 O9'
_chemical_formula_moiety
;
C4 H7 N3 O9
;
_journal_coden_Cambridge 1475
_journal_volume 9
_journal_year 2018
_journal_page_first 3649
_journal_name_full 'Chemical Science '
loop_
_publ_author_name
"V.Manner"
"M.J.Cawkwell"
"E.M.Kober"
"T.W.Myers"
"G.W.Brown"
"Hongzhao Tian"
"C.J.Snyder"
"R.Perriot"
"D.N.Preston"
_chemical_name_systematic
;
2-[(nitrooxy)methyl]propane-1,3-diyl dinitrate
;
_cell_volume    467.594
_exptl_crystal_colour 'colorless'
_exptl_crystal_density_diffrn 1.713
_exptl_crystal_description 'block'
_diffrn_ambient_temperature 173
#These two values have been output from a single CSD field.
_refine_ls_R_factor_gt 0.0738
_refine_ls_wR_factor_gt 0.0738
_symmetry_cell_setting triclinic
_symmetry_space_group_name_H-M 'P -1'
_symmetry_Int_Tables_number 2
loop_
_symmetry_equiv_pos_site_id
_symmetry_equiv_pos_as_xyz
1 x,y,z
2 -x,-y,-z
_cell_length_a 7.6451(14)
_cell_length_b 7.8238(17)
_cell_length_c 8.9723(15)
_cell_angle_alpha 100.557(19)
_cell_angle_beta 96.753(19)
_cell_angle_gamma 114.760(14)
_cell_formula_units_Z 2
loop_
_atom_type_symbol
_atom_type_radius_bond
C 0.68
H 0.23
N 0.68
O 0.68
loop_
_atom_site_label
_atom_site_type_symbol
_atom_site_fract_x
_atom_site_fract_y
_atom_site_fract_z
O1 O -0.0570(3) 0.3752(3) 0.1590(2)
O2 O -0.1534(3) 0.1948(4) 0.3274(2)
O3 O 0.4904(3) 0.7056(3) 0.3190(2)
O4 O 0.3982(3) 1.0551(3) 0.3168(2)
O5 O -0.2776(3) 0.0727(3) 0.0793(2)
O6 O 0.6994(4) 0.6864(4) 0.1722(3)
N1 N 0.3238(5) 1.1538(4) 0.2338(3)
N2 N -0.1708(4) 0.2014(4) 0.1940(3)
N3 N 0.6685(4) 0.7069(4) 0.3006(3)
O7 O 0.1478(5) 1.0945(5) 0.1995(3)
O8 O 0.7725(4) 0.7301(4) 0.4226(3)
O9 O 0.4519(5) 1.2912(4) 0.2065(3)
C1 C 0.1870(4) 0.7018(4) 0.2304(3)
H1 H 0.10120 0.70290 0.14080
C2 C 0.2524(4) 0.8913(4) 0.3562(3)
H2 H 0.13860 0.91370 0.36840
H3 H 0.30680 0.87880 0.45460
C3 C 0.0645(4) 0.5337(4) 0.2957(3)
H4 H 0.14880 0.49800 0.35920
H5 H -0.01690 0.56840 0.35800
C4 C 0.3589(4) 0.6803(4) 0.1762(3)
H6 H 0.31490 0.55260 0.10660
H7 H 0.42430 0.77900 0.12310
#END
