
#######################################################################
#
#                 Cambridge Crystallographic Data Centre
#                                CCDC
#
#######################################################################
#
# If this CIF has been generated from an entry in the Cambridge
# Structural Database, then it will include bibliographic, chemical,
# crystal, experimental, refinement or atomic coordinate data resulting
# from the CCDC's data processing and validation procedures.
#
#######################################################################

data_CSD_CIF_FICVAQ
_audit_creation_date 2013-08-08
_audit_creation_method CSD-ConQuest-V1
_database_code_CSD FICVAQ
_database_code_depnum_ccdc_archive 'CCDC 955090'
_chemical_formula_sum 'C27 H20 N4 O4'
_chemical_formula_moiety
;
C27 H20 N4 O4
;
_journal_coeditor_code "IUCr im2433"
_journal_coden_Cambridge 1370
_journal_volume 69
_journal_year 2013
_journal_page_first o945
_journal_name_full 'Acta Crystallogr.,Sect.E:Struct.Rep.Online '
loop_
_publ_author_name
"Z.Afrakssou"
"Y.Kandri Rodia"
"F.Capet"
"E.M.Essassi"
"C.Rolando"
"L.El Ammari"
_chemical_name_systematic
;
1-(Prop-2-en-1-yl)-3-([3-(pyridin-4-yl)-4,5-dihydroisoxazol-5-yl]methyl)-1H-an
thra[1,2-d]imidazole-2,6,11(3H)-trione
;
_chemical_name_common
;
1-Allyl-3-((3-(pyridin-4-yl)-4,5-dihydro-1,2-oxazol-5-yl)methyl)-1H-anthra[1,2
-d]imidazole-2,6,11(3H)-trione
;
_chemical_melting_point 443
_cell_volume   1099.348
_exptl_crystal_colour 'orange'
_exptl_crystal_density_diffrn 1.403
_exptl_crystal_description 'block'
_diffrn_ambient_temperature 296
#These two values have been output from a single CSD field.
_refine_ls_R_factor_gt 0.0475
_refine_ls_wR_factor_gt 0.0475
_symmetry_cell_setting triclinic
_symmetry_space_group_name_H-M 'P -1'
_symmetry_Int_Tables_number 2
loop_
_symmetry_equiv_pos_site_id
_symmetry_equiv_pos_as_xyz
1 x,y,z
2 -x,-y,-z
_cell_length_a 8.0930(2)
_cell_length_b 12.1191(3)
_cell_length_c 12.2743(2)
_cell_angle_alpha 87.109(1)
_cell_angle_beta 73.612(1)
_cell_angle_gamma 72.283(1)
_cell_formula_units_Z 2
loop_
_atom_type_symbol
_atom_type_radius_bond
C 0.68
H 0.23
N 0.68
O 0.68
loop_
_atom_site_label
_atom_site_type_symbol
_atom_site_fract_x
_atom_site_fract_y
_atom_site_fract_z
C1 C 0.5114(2) 0.62606(14) 1.11854(16)
C2 C 0.3824(3) 0.73461(16) 1.1261(2)
H1 H 0.38640 0.78080 1.06310
C3 C 0.2504(3) 0.77342(18) 1.2256(2)
H2 H 0.16580 0.84620 1.23020
C4 C 0.2421(3) 0.70528(19) 1.3189(2)
H3 H 0.15090 0.73160 1.38600
C5 C 0.3689(3) 0.59784(17) 1.31336(19)
H4 H 0.36300 0.55210 1.37660
C6 C 0.5051(2) 0.55819(14) 1.21343(15)
C7 C 0.6385(2) 0.44158(14) 1.20925(14)
C8 C 0.7922(2) 0.40617(13) 1.10555(13)
C9 C 0.7841(2) 0.46768(13) 1.00512(13)
C10 C 0.6459(2) 0.58148(15) 1.00850(16)
C11 C 0.93761(19) 0.30551(12) 1.09642(12)
C12 C 1.0529(2) 0.26122(13) 0.98806(12)
C13 C 1.0379(2) 0.31860(15) 0.89005(13)
H5 H 1.11440 0.28770 0.81940
C14 C 0.9049(2) 0.42393(15) 0.90068(14)
H6 H 0.89600 0.46660 0.83630
C15 C 1.1529(2) 0.14078(13) 1.11712(13)
C16 C 0.9718(2) 0.24952(15) 1.29631(13)
H7 H 1.03530 0.17960 1.32740
H8 H 0.84380 0.26700 1.33480
C17 C 1.0362(3) 0.34735(19) 1.31752(16)
H9 H 1.15520 0.34400 1.28070
C18 C 0.9359(5) 0.4370(2) 1.3844(2)
H10 H 0.81640 0.44280 1.42230
H11 H 0.98360 0.49530 1.39420
C19 C 1.3115(2) 0.07767(14) 0.91585(13)
H12 H 1.42310 0.04920 0.93740
H13 H 1.33600 0.11690 0.84500
C20 C 1.2483(2) -0.02358(14) 0.89840(13)
H14 H 1.21990 -0.06300 0.96980
C21 C 1.3846(2) -0.10974(14) 0.80505(14)
H15 H 1.50440 -0.10100 0.78850
H16 H 1.39040 -0.18910 0.82450
C22 C 1.3037(2) -0.07338(14) 0.70869(13)
C23 C 1.3916(2) -0.11054(15) 0.58912(14)
C24 C 1.5579(3) -0.19406(17) 0.55610(16)
H17 H 1.61450 -0.23090 0.61010
C25 C 1.6397(3) -0.2224(2) 0.44121(19)
H18 H 1.75170 -0.27890 0.42070
C26 C 1.4083(4) -0.0959(2) 0.39166(17)
H19 H 1.35500 -0.06180 0.33540
C27 C 1.3145(3) -0.06123(18) 0.50314(15)
H20 H 1.20150 -0.00570 0.52060
N1 N 1.00212(17) 0.22965(11) 1.17475(10)
N2 N 1.17735(17) 0.15961(11) 1.00326(10)
N3 N 1.14308(19) -0.00366(13) 0.73868(12)
N4 N 1.5695(3) -0.17468(18) 0.35938(15)
O1 O 0.61239(19) 0.37492(12) 1.28523(12)
O2 O 0.6424(2) 0.63732(13) 0.92318(13)
O3 O 1.24659(15) 0.06244(10) 1.15952(9)
O4 O 1.08962(15) 0.01876(11) 0.8570(1)
#END
