
#######################################################################
#
#                 Cambridge Crystallographic Data Centre
#                                CCDC
#
#######################################################################
#
# If this CIF has been generated from an entry in the Cambridge
# Structural Database, then it will include bibliographic, chemical,
# crystal, experimental, refinement or atomic coordinate data resulting
# from the CCDC's data processing and validation procedures.
#
#######################################################################

data_CSD_CIF_FIDBOL
_audit_creation_date 2013-08-08
_audit_creation_method CSD-ConQuest-V1
_database_code_CSD FIDBOL
_database_code_depnum_ccdc_archive 'CCDC 955128'
_chemical_formula_sum 'C19 H19 N3 O4'
_chemical_formula_moiety
;
C19 H19 N3 O4
;
_journal_coeditor_code "IUCr pv2626"
_journal_coden_Cambridge 1370
_journal_volume 69
_journal_year 2013
_journal_page_first o986
_journal_name_full 'Acta Crystallogr.,Sect.E:Struct.Rep.Online '
loop_
_publ_author_name
"W.-F.Zhang"
"J.-H.Xia"
"Z.-H.Xu"
"L.-B.Wang"
"C.-Y.Yu"
_chemical_name_systematic
;
[6-(Furan-2-yl)-7-nitro-2,3,4,6,7,8-hexahydro-1H-piyrido[1,2-a]pyrimidin-9-yl]
(phenyl)methanone
;
_chemical_melting_point 457
_cell_volume   3400.356
_exptl_crystal_colour 'yellow'
_exptl_crystal_density_diffrn 1.381
_exptl_special_details
;
Melting point range 457-458K

;
_exptl_crystal_description 'block'
_diffrn_ambient_temperature 173
_refine_special_details
;
C2D and C2B disordered over two sites with occupancies 0.688:0.312.

;
#These two values have been output from a single CSD field.
_refine_ls_R_factor_gt 0.0486
_refine_ls_wR_factor_gt 0.0486
_symmetry_cell_setting monoclinic
_symmetry_space_group_name_H-M 'P 21/c'
_symmetry_Int_Tables_number 14
loop_
_symmetry_equiv_pos_site_id
_symmetry_equiv_pos_as_xyz
1 x,y,z
2 -x,1/2+y,1/2-z
3 -x,-y,-z
4 x,-1/2-y,-1/2+z
_cell_length_a 13.506(3)
_cell_length_b 17.675(4)
_cell_length_c 14.755(3)
_cell_angle_alpha 90
_cell_angle_beta 105.12(3)
_cell_angle_gamma 90
_cell_formula_units_Z 8
loop_
_atom_type_symbol
_atom_type_radius_bond
C 0.68
H 0.23
N 0.68
O 0.68
loop_
_atom_site_label
_atom_site_type_symbol
_atom_site_fract_x
_atom_site_fract_y
_atom_site_fract_z
O1 O 0.55143(11) 0.64789(9) 0.96144(10)
O2 O 0.26198(16) 0.64416(12) 0.65380(14)
O3 O 0.36728(16) 0.63894(12) 0.56801(15)
N1 N 0.63716(13) 0.62164(11) 0.82954(13)
H1 H 0.63540 0.64580 0.88130
N2 N 0.54886(13) 0.55555(11) 0.69830(12)
N3 N 0.32970(16) 0.61309(12) 0.62734(13)
C1 C 0.73214(18) 0.62515(15) 0.80068(18)
H2 H 0.79150 0.62050 0.85630
H3 H 0.73700 0.67440 0.77030
C2 C 0.73418(19) 0.56157(17) 0.73265(18)
H4 H 0.79220 0.56910 0.70420
H5 H 0.74430 0.51270 0.76660
C3 C 0.63701(18) 0.55976(17) 0.65830(17)
H6 H 0.63150 0.60590 0.61920
H7 H 0.63670 0.51530 0.61730
C4 C 0.55271(16) 0.58496(12) 0.78425(14)
C5 C 0.46227(17) 0.51183(13) 0.64412(14)
H8 H 0.45450 0.52320 0.57620
C6 C 0.36290(16) 0.53476(13) 0.66721(14)
H9 H 0.30830 0.49760 0.63720
C7 C 0.37489(16) 0.53393(13) 0.77222(14)
H10 H 0.38040 0.48090 0.79460
H11 H 0.31300 0.55630 0.78550
C8 C 0.46871(15) 0.57758(12) 0.82560(13)
C9 C 0.47556(16) 0.60980(12) 0.91401(14)
C10 C 0.38851(16) 0.60200(12) 0.95995(13)
C11 C 0.34535(17) 0.53268(13) 0.97289(14)
H12 H 0.36960 0.48760 0.95090
C12 C 0.26713(18) 0.52905(15) 1.01778(15)
H13 H 0.23790 0.48150 1.02630
C13 C 0.23158(18) 0.59423(16) 1.05003(16)
H14 H 0.17670 0.59170 1.07910
C14 C 0.27549(19) 0.66288(15) 1.04015(16)
H15 H 0.25190 0.70760 1.06350
C15 C 0.35421(17) 0.66683(13) 0.99604(15)
H16 H 0.38510 0.71430 0.99040
C16 C 0.48366(18) 0.42951(14) 0.65825(17)
C17 C 0.5364(2) 0.38770(16) 0.7306(2)
H17 H 0.57080 0.40480 0.79170
C18 C 0.5296(3) 0.31100(17) 0.6957(3)
H18 H 0.55920 0.26740 0.72980
C19 C 0.4745(3) 0.31298(19) 0.6076(3)
H19 H 0.45780 0.27000 0.56780
O4 O 0.44496(14) 0.38476(11) 0.58157(13)
O5 O 0.20201(12) 0.49311(9) 0.48209(10)
O6 O 0.04702(15) 0.49215(12) 0.10899(13)
O7 O 0.00216(17) 0.38763(12) 0.16041(15)
O8 O -0.24369(11) 0.62772(9) 0.13117(10)
N4 N 0.17129(14) 0.60783(11) 0.37285(13)
H20 H 0.20530 0.58630 0.42560
N5 N 0.02541(14) 0.61336(11) 0.25015(12)
N6 N -0.00221(15) 0.45606(13) 0.15228(13)
C20 C 0.2157(2) 0.67467(16) 0.3425(2)
H21 H 0.22120 0.71440 0.39080
H22 H 0.28620 0.66220 0.33940
C21 C 0.0542(2) 0.68725(16) 0.2204(2)
H23 H 0.03640 0.68880 0.15090
H24 H 0.01360 0.72690 0.24170
C22 C 0.1329(4) 0.7263(3) 0.2906(4)
H25 H 0.10080 0.75120 0.33600
H26 H 0.16350 0.76630 0.25950
C23 C 0.08267(16) 0.57667(13) 0.32670(14)
C24 C -0.06863(16) 0.58213(14) 0.18796(14)
H27 H -0.06840 0.59330 0.12160
C25 C -0.07479(16) 0.49688(13) 0.19890(14)
H28 H -0.14640 0.48040 0.16770
C26 C -0.05028(16) 0.47362(13) 0.30167(14)
H29 H -0.10520 0.49190 0.32940
H30 H -0.04820 0.41770 0.30620
C27 C 0.05145(16) 0.50557(12) 0.35655(14)
C28 C 0.11666(16) 0.46693(13) 0.43265(14)
C29 C 0.09194(16) 0.38818(13) 0.45760(13)
C30 C -0.00181(17) 0.36644(14) 0.47148(14)
H31 H -0.05610 0.40210 0.46250
C31 C -0.0166(2) 0.29339(15) 0.49820(15)
H32 H -0.08080 0.27920 0.50800
C32 C 0.0618(2) 0.24065(15) 0.51081(15)
H33 H 0.05100 0.19030 0.52860
C33 C 0.1552(2) 0.26133(14) 0.49747(15)
H34 H 0.20900 0.22530 0.50590
C34 C 0.17047(18) 0.33420(14) 0.47193(14)
H35 H 0.23550 0.34830 0.46380
C35 C -0.16076(16) 0.61908(13) 0.20724(14)
C36 C -0.18188(19) 0.64543(15) 0.28504(16)
H36 H -0.13720 0.64600 0.34660
C37 C -0.28476(18) 0.67257(14) 0.25721(16)
H37 H -0.32200 0.69480 0.29680
C38 C -0.31867(17) 0.66084(13) 0.16511(16)
H38 H -0.38530 0.67360 0.12820
C39? C 0.1630(9) 0.7045(8) 0.2566(8)
H39? H 0.19830 0.68740 0.20930
H40? H 0.17000 0.76020 0.26090
#END
