
#######################################################################
#
#                 Cambridge Crystallographic Data Centre
#                                CCDC
#
#######################################################################
#
# If this CIF has been generated from an entry in the Cambridge
# Structural Database, then it will include bibliographic, chemical,
# crystal, experimental, refinement or atomic coordinate data resulting
# from the CCDC's data processing and validation procedures.
#
#######################################################################

data_CSD_CIF_FIDCOM
_audit_creation_date 2013-08-08
_audit_creation_method CSD-ConQuest-V1
_database_code_CSD FIDCOM
_database_code_depnum_ccdc_archive 'CCDC 955121'
_chemical_formula_sum 'C28 H25 N3 O4'
_chemical_formula_moiety
;
C28 H25 N3 O4
;
_journal_coeditor_code "IUCr hb7084"
_journal_coden_Cambridge 1370
_journal_volume 69
_journal_year 2013
_journal_page_first o993
_journal_name_full 'Acta Crystallogr.,Sect.E:Struct.Rep.Online '
loop_
_publ_author_name
"S.K.Devi"
"T.Srinivasan"
"J.N.S.Rao"
"R.Raghunathan"
"D.Velmurugan"
_chemical_name_systematic
;
6a-Nitro-6-phenyl-6,6a,6b,7,8,9,10,12a-octahydrospiro[chromeno[3,4-a]indolizin
e-12,3'-indolin]-2'-one
;
_cell_volume   4781.756
_exptl_crystal_colour 'colorless'
_exptl_crystal_density_diffrn 1.299
_exptl_crystal_description 'block'
_diffrn_ambient_temperature 293
#These two values have been output from a single CSD field.
_refine_ls_R_factor_gt 0.0456
_refine_ls_wR_factor_gt 0.0456
_symmetry_cell_setting monoclinic
_symmetry_space_group_name_H-M 'C 2/c'
_symmetry_Int_Tables_number 15
loop_
_symmetry_equiv_pos_site_id
_symmetry_equiv_pos_as_xyz
1 x,y,z
2 -x,y,1/2-z
3 1/2+x,1/2+y,z
4 1/2-x,1/2+y,1/2-z
5 -x,-y,-z
6 x,-y,-1/2+z
7 -1/2-x,-1/2-y,-z
8 -1/2+x,-1/2-y,-1/2+z
_cell_length_a 23.2940(13)
_cell_length_b 11.2517(7)
_cell_length_c 19.7702(10)
_cell_angle_alpha 90
_cell_angle_beta 112.659(3)
_cell_angle_gamma 90
_cell_formula_units_Z 8
loop_
_atom_type_symbol
_atom_type_radius_bond
C 0.68
H 0.23
N 0.68
O 0.68
loop_
_atom_site_label
_atom_site_type_symbol
_atom_site_fract_x
_atom_site_fract_y
_atom_site_fract_z
C1 C 0.85609(7) -0.07457(14) 0.50076(8)
C2 C 0.86024(10) -0.05264(18) 0.43391(10)
H1 H 0.83760 -0.09850 0.39320
C3 C 0.89794(11) 0.0370(2) 0.42802(12)
H2 H 0.89980 0.05360 0.38280
C4 C 0.93302(11) 0.1027(2) 0.48873(12)
H3 H 0.95920 0.16240 0.48480
C5 C 0.92917(8) 0.07964(16) 0.55536(10)
H4 H 0.95310 0.12370 0.59630
C6 C 0.89013(7) -0.00828(13) 0.56210(8)
C7 C 0.88197(6) -0.02739(12) 0.63324(7)
H5 H 0.92320 -0.02620 0.67310
C8 C 0.85040(7) -0.14626(12) 0.63696(7)
C9 C 0.83905(7) -0.23119(13) 0.57169(8)
H6 H 0.80510 -0.28430 0.56990
C10 C 0.89189(7) -0.30987(14) 0.57303(8)
C11 C 0.95412(8) -0.27872(16) 0.60526(10)
H7 H 0.96520 -0.20470 0.62740
C12 C 0.99985(9) -0.35599(18) 0.60498(10)
H8 H 1.04150 -0.33430 0.62710
C13 C 0.98385(11) -0.46543(19) 0.57194(10)
H9 H 1.01470 -0.51780 0.57180
C14 C 0.92229(11) -0.49735(17) 0.53910(11)
H10 H 0.91150 -0.57110 0.51650
C15 C 0.87660(9) -0.42018(15) 0.53967(9)
H11 H 0.83500 -0.44230 0.51740
C16 C 0.78884(7) -0.11043(13) 0.64328(8)
H12 H 0.75810 -0.09470 0.59380
C17 C 0.75963(8) -0.19292(15) 0.68128(10)
H13 H 0.78920 -0.21040 0.73040
H14 H 0.74810 -0.26710 0.65440
C18 C 0.70199(9) -0.13326(17) 0.68491(11)
H15 H 0.67150 -0.12040 0.63570
H16 H 0.68360 -0.18460 0.71050
C19 C 0.71962(9) -0.01512(18) 0.72468(12)
H17 H 0.68250 0.02400 0.72480
H18 H 0.74740 -0.02880 0.77520
C20 C 0.75132(8) 0.06411(15) 0.68767(11)
H19 H 0.72210 0.08500 0.63900
H20 H 0.76500 0.13690 0.71560
C21 C 0.84106(6) 0.07028(12) 0.64953(7)
C22 C 0.87723(7) 0.17155(12) 0.69677(8)
C23 C 0.92160(7) 0.17261(14) 0.76717(8)
H21 H 0.93410 0.10230 0.79350
C24 C 0.94731(8) 0.28065(15) 0.79802(9)
H22 H 0.97720 0.28290 0.84560
C25 C 0.92886(8) 0.38464(15) 0.75866(9)
H23 H 0.94690 0.45610 0.78010
C26 C 0.88421(7) 0.38502(14) 0.68819(9)
H24 H 0.87160 0.45540 0.66190
C27 C 0.85910(7) 0.27729(13) 0.65836(8)
C28 C 0.79893(7) 0.13765(13) 0.57914(8)
N1 N 0.88825(6) -0.21232(12) 0.70783(7)
N2 N 0.80488(6) 0.00268(11) 0.68254(7)
N3 N 0.81272(6) 0.25411(11) 0.58899(7)
H25 H 0.79530 0.30790 0.55670
O1 O 0.81579(5) -0.16138(10) 0.50491(5)
O2 O 0.92442(6) -0.15660(11) 0.75982(6)
O3 O 0.87676(6) -0.31771(10) 0.70992(6)
O4 O 0.75833(5) 0.09239(9) 0.52555(6)
#END
