
#######################################################################
#
#                 Cambridge Crystallographic Data Centre
#                                CCDC
#
#######################################################################
#
# If this CIF has been generated from an entry in the Cambridge
# Structural Database, then it will include bibliographic, chemical,
# crystal, experimental, refinement or atomic coordinate data resulting
# from the CCDC's data processing and validation procedures.
#
#######################################################################

data_CSD_CIF_FIDDUT
_audit_creation_date 2013-08-08
_audit_creation_method CSD-ConQuest-V1
_database_code_CSD FIDDUT
_database_code_depnum_ccdc_archive 'CCDC 955129'
_chemical_formula_sum 'C13 H13 N1 O3'
_chemical_formula_moiety
;
C13 H13 N1 O3
;
_journal_coeditor_code "IUCr nc2309"
_journal_coden_Cambridge 1370
_journal_volume 69
_journal_year 2013
_journal_page_first o987
_journal_name_full 'Acta Crystallogr.,Sect.E:Struct.Rep.Online '
loop_
_publ_author_name
"Chandra"
"K.Raghu"
"S.Jeyaseelan"
"K.B.Umesha"
"M.Mahendra"
_chemical_name_systematic
;
Ethyl 5-methyl-3-phenyl-1,2-oxazole-4-carboxylate
;
_chemical_name_common
;
Ethyl 5-methyl-3-phenylisoxazole-4-carboxylate
;
_cell_volume   1192.321
_exptl_crystal_colour 'yellow'
_exptl_crystal_density_diffrn 1.288
_exptl_crystal_description 'block'
_diffrn_ambient_temperature 273
#These two values have been output from a single CSD field.
_refine_ls_R_factor_gt 0.0536
_refine_ls_wR_factor_gt 0.0536
_symmetry_cell_setting monoclinic
_symmetry_space_group_name_H-M 'P 21/c'
_symmetry_Int_Tables_number 14
loop_
_symmetry_equiv_pos_site_id
_symmetry_equiv_pos_as_xyz
1 x,y,z
2 -x,1/2+y,1/2-z
3 -x,-y,-z
4 x,-1/2-y,-1/2+z
_cell_length_a 9.750(8)
_cell_length_b 14.589(13)
_cell_length_c 9.397(8)
_cell_angle_alpha 90
_cell_angle_beta 116.872(13)
_cell_angle_gamma 90
_cell_formula_units_Z 4
loop_
_atom_type_symbol
_atom_type_radius_bond
C 0.68
H 0.23
N 0.68
O 0.68
loop_
_atom_site_label
_atom_site_type_symbol
_atom_site_fract_x
_atom_site_fract_y
_atom_site_fract_z
O1 O 0.6154(2) 0.13026(13) -0.1802(3)
O2 O 0.6825(2) 0.12137(19) 0.2907(3)
O3 O 0.4317(2) 0.09643(11) 0.17563(19)
N1 N 0.4554(3) 0.14345(15) -0.2522(3)
C1 C 0.1443(3) 0.10417(18) -0.3147(3)
C2 C -0.0093(3) 0.1141(2) -0.3603(4)
C3 C -0.0594(3) 0.1676(2) -0.2736(4)
C4 C 0.0469(3) 0.21272(19) -0.1411(4)
C5 C 0.2008(3) 0.20332(16) -0.0937(3)
C6 C 0.2520(3) 0.14949(15) -0.1799(3)
C7 C 0.4161(3) 0.13941(14) -0.1372(3)
C8 C 0.6666(3) 0.11924(16) -0.0234(3)
C9 C 0.8327(3) 0.0997(2) 0.0691(4)
C10 C 0.5479(3) 0.12501(14) 0.0123(3)
C11 C 0.5628(3) 0.11456(17) 0.1739(3)
C12 C 0.4341(4) 0.0912(2) 0.3301(3)
C13 C 0.2752(4) 0.0730(2) 0.3043(4)
H1 H 0.17710 0.06700 -0.37380
H2 H -0.08040 0.08420 -0.45110
H3 H -0.16400 0.17340 -0.30390
H4 H 0.01350 0.25020 -0.08290
H5 H 0.27120 0.23350 -0.00280
H6 H 0.85120 0.03600 0.05850
H7 H 0.86540 0.11380 0.17950
H8 H 0.88940 0.13650 0.02920
H9 H 0.47100 0.14850 0.38720
H10 H 0.50210 0.04240 0.39260
H11 H 0.20880 0.12140 0.24150
H12 H 0.27330 0.06990 0.40550
H13 H 0.24040 0.01570 0.24930
#END
