
#######################################################################
#
#                 Cambridge Crystallographic Data Centre
#                                CCDC
#
#######################################################################
#
# If this CIF has been generated from an entry in the Cambridge
# Structural Database, then it will include bibliographic, chemical,
# crystal, experimental, refinement or atomic coordinate data resulting
# from the CCDC's data processing and validation procedures.
#
#######################################################################

data_CSD_CIF_FIDHIL
_audit_creation_date 2013-08-08
_audit_creation_method CSD-ConQuest-V1
_database_code_CSD FIDHIL
_database_code_depnum_ccdc_archive 'CCDC 927435'
_chemical_formula_sum 'C14 H11 N5 O3'
_chemical_formula_moiety
;
C14 H11 N5 O3
;
_journal_coden_Cambridge 525
_journal_volume 127
_journal_year 2013
_journal_page_first 62
_journal_name_full 'J.Inorg.Biochem. '
loop_
_publ_author_name
"M.Wierzchowski"
"L.Sobotta"
"P.Skupin-Mrugalska"
"J.Kruk"
"W.Jusiak"
"M.Lee"
"K.Konopka"
"N.Duzgunes"
"E.Tykarska"
"M.Gdaniec"
"J.Mielcarek"
"T.Goslinski"
_chemical_name_systematic
;
3-(2-(2-Methyl-5-nitro-1H-imidazol-1-yl)ethoxy)phthalonitrile
;
_chemical_name_common
;
1-[2-(2,3-dicyanophenoxy)ethyl]-2-methyl-5-nitro-1H-imidazole
;
_cell_volume   2699.655
_exptl_crystal_colour 'colorless'
_exptl_crystal_density_diffrn 1.463
_exptl_crystal_description 'prism'
_diffrn_ambient_temperature 293
#These two values have been output from a single CSD field.
_refine_ls_R_factor_gt 0.0393
_refine_ls_wR_factor_gt 0.0393
_symmetry_cell_setting orthorhombic
_symmetry_space_group_name_H-M 'P b c n'
_symmetry_Int_Tables_number 60
loop_
_symmetry_equiv_pos_site_id
_symmetry_equiv_pos_as_xyz
1 x,y,z
2 1/2-x,1/2-y,1/2+z
3 1/2+x,1/2-y,-z
4 -x,y,1/2-z
5 -x,-y,-z
6 -1/2+x,-1/2+y,-1/2-z
7 -1/2-x,-1/2+y,z
8 x,-y,-1/2+z
_cell_length_a 25.5069(6)
_cell_length_b 7.5446(2)
_cell_length_c 14.0286(3)
_cell_angle_alpha 90
_cell_angle_beta 90
_cell_angle_gamma 90
_cell_formula_units_Z 8
loop_
_atom_type_symbol
_atom_type_radius_bond
C 0.68
H 0.23
N 0.68
O 0.68
loop_
_atom_site_label
_atom_site_type_symbol
_atom_site_fract_x
_atom_site_fract_y
_atom_site_fract_z
C1 C 0.20170(6) 0.0443(2) 0.54862(11)
C2 C 0.23592(7) -0.0215(2) 0.61704(11)
H1 H 0.22280 -0.07380 0.67210
C3 C 0.12307(6) -0.0451(2) 0.63137(12)
H2 H 0.13880 -0.01260 0.69190
H3 H 0.12600 -0.17250 0.62350
C4 C 0.28930(7) -0.0096(2) 0.60344(12)
H4 H 0.31170 -0.05240 0.65040
C5 C 0.06647(7) 0.0110(2) 0.62850(13)
H5 H 0.05290 -0.00500 0.56450
H6 H 0.04620 -0.06330 0.67120
C6 C 0.31044(6) 0.0642(2) 0.52191(12)
H7 H 0.34660 0.07070 0.51360
C7 C 0.27666(6) 0.1283(2) 0.45284(11)
C8 C 0.05816(6) 0.3372(2) 0.59634(12)
C9 C 0.22224(6) 0.1193(2) 0.46548(11)
C10 C 0.29671(7) 0.2070(2) 0.36647(12)
C11 C 0.06801(7) 0.4507(3) 0.73436(13)
H8 H 0.07190 0.53280 0.78330
C12 C 0.18802(6) 0.1896(2) 0.39333(12)
C13 C 0.06723(6) 0.2727(2) 0.74608(11)
C14 C 0.05025(8) 0.3196(3) 0.49171(12)
H9 H 0.01580 0.27370 0.47940
H10 H 0.07600 0.23990 0.46600
H11 H 0.05390 0.43360 0.46210
N1 N 0.06066(5) 0.19788(18) 0.65682(9)
N2 N 0.06236(6) 0.49173(19) 0.64081(11)
N3 N 0.31116(7) 0.2715(2) 0.29809(12)
N4 N 0.16284(7) 0.2501(2) 0.33431(11)
N5 N 0.06818(6) 0.1769(2) 0.83274(10)
O1 O 0.14893(4) 0.04557(16) 0.55407(8)
O2 O 0.07571(6) 0.2616(2) 0.90652(9)
O3 O 0.06098(6) 0.0170(2) 0.83143(10)
#END
