
#######################################################################
#
#                 Cambridge Crystallographic Data Centre
#                                CCDC
#
#######################################################################
#
# If this CIF has been generated from an entry in the Cambridge
# Structural Database, then it will include bibliographic, chemical,
# crystal, experimental, refinement or atomic coordinate data resulting
# from the CCDC's data processing and validation procedures.
#
#######################################################################

data_CSD_CIF_FIDKIM
_audit_creation_date 1999-07-29
_audit_creation_method CSD-ConQuest-V1
_database_code_CSD FIDKIM
_chemical_formula_sum 'C13 H18 N2 O3'
_chemical_formula_moiety
;
C13 H18 N2 O3
;
_journal_coden_Cambridge 122
_journal_year 1998
_journal_page_first 1372
_journal_name_full 'Khim.Get.Soedin.,SSSR(Russ.)(Chem.Heterocycl.Compd.) '
loop_
_publ_author_name
"Ya.Ozols"
"B.Vigante"
"L.Baumane"
"A.Mishnev"
"I.Turovskis"
"G.Duburs"
"Ya.Stradyn'"
_chemical_name_systematic
;
1,3,6,6-Tetramethyl-4-nitro-2,4a,5,6,7,8-hexahydro-8-isoquinolone
;
_chemical_melting_point 448.15
_cell_volume   2615.479
_exptl_crystal_colour 'orange'
_exptl_crystal_density_diffrn 1.27
_exptl_crystal_preparation 'chloroform'
_diffrn_ambient_temperature ?
_diffrn_special_details
;
The study was carried out at room temperature,in the range 283-303K

;
#These two values have been output from a single CSD field.
_refine_ls_R_factor_gt 0.078
_refine_ls_wR_factor_gt 0.078
_symmetry_cell_setting orthorhombic
_symmetry_space_group_name_H-M 'P b c a'
_symmetry_Int_Tables_number 61
loop_
_symmetry_equiv_pos_site_id
_symmetry_equiv_pos_as_xyz
1 x,y,z
2 1/2-x,-y,1/2+z
3 1/2+x,1/2-y,-z
4 -x,1/2+y,1/2-z
5 -x,-y,-z
6 -1/2+x,y,-1/2-z
7 -1/2-x,-1/2+y,z
8 x,-1/2-y,-1/2+z
_cell_length_a 11.391(4)
_cell_length_b 11.887(4)
_cell_length_c 19.316(7)
_cell_angle_alpha 90
_cell_angle_beta 90
_cell_angle_gamma 90
_cell_formula_units_Z 8
loop_
_atom_type_symbol
_atom_type_radius_bond
C 0.68
H 0.23
N 0.68
O 0.68
loop_
_atom_site_label
_atom_site_type_symbol
_atom_site_fract_x
_atom_site_fract_y
_atom_site_fract_z
N1 N 0.1028(9) 0.6775(10) 0.0823(5)
C1 C -0.0102(14) 0.7048(11) 0.0689(5)
C2 C -0.0934(11) 0.6280(11) 0.0766(6)
C3 C -0.0708(10) 0.5107(11) 0.0987(6)
C4 C 0.0592(10) 0.4854(12) 0.0988(6)
C5 C 0.1380(11) 0.5660(12) 0.0933(5)
C6 C -0.1247(12) 0.4745(12) 0.1684(7)
C7 C -0.0756(11) 0.3673(12) 0.1992(7)
C8 C -0.0099(12) 0.2982(12) 0.1436(7)
C9 C 0.0921(12) 0.3713(13) 0.1147(6)
C10 C 0.2682(11) 0.5583(11) 0.1020(6)
C11 C -0.0237(12) 0.8287(10) 0.0489(6)
N2 N -0.2157(12) 0.6509(11) 0.0598(6)
O1 O -0.2434(8) 0.7472(8) 0.0423(5)
O2 O -0.2823(8) 0.5711(8) 0.0595(5)
C12 C -0.1759(12) 0.2918(12) 0.2241(8)
C13 C 0.0064(13) 0.3885(12) 0.2615(7)
O3 O 0.1906(7) 0.3307(7) 0.1060(5)
H1 H 0.1545(9) 0.7301(10) 0.0842(5)
H2 H -0.1058(10) 0.4621(11) 0.0633(6)
H3 H -0.1134(12) 0.5349(12) 0.2015(7)
H4 H -0.2086(12) 0.4650(12) 0.1621(7)
H5 H -0.0633(12) 0.2778(12) 0.1065(7)
H6 H 0.0210(12) 0.2296(12) 0.1638(7)
H7 H 0.3026(11) 0.6311(11) 0.0948(6)
H8 H 0.2996(11) 0.5061(11) 0.0690(6)
H9 H 0.2860(11) 0.5328(11) 0.1480(6)
H10 H 0.0522(12) 0.8637(10) 0.0474(6)
H11 H -0.0719(12) 0.8662(10) 0.0825(6)
H12 H -0.0599(12) 0.8339(10) 0.0041(6)
H13 H -0.1440(12) 0.2238(12) 0.2433(8)
H14 H -0.2261(12) 0.2737(12) 0.1858(8)
H15 H -0.2204(12) 0.3306(12) 0.2590(8)
H16 H 0.0349(13) 0.3179(12) 0.2789(7)
H17 H -0.0363(13) 0.4267(12) 0.2974(7)
H18 H 0.0715(13) 0.4341(12) 0.2471(7)
#END
