
#######################################################################
#
#                 Cambridge Crystallographic Data Centre
#                                CCDC
#
#######################################################################
#
# If this CIF has been generated from an entry in the Cambridge
# Structural Database, then it will include bibliographic, chemical,
# crystal, experimental, refinement or atomic coordinate data resulting
# from the CCDC's data processing and validation procedures.
#
#######################################################################

data_CSD_CIF_FIDPIR
_audit_creation_date 1999-07-29
_audit_creation_method CSD-ConQuest-V1
_database_code_CSD FIDPIR
_chemical_formula_sum 'C4 H1 N7 O1'
_chemical_formula_moiety
;
C4 H1 N7 O1
;
_journal_coden_Cambridge 122
_journal_year 1998
_journal_page_first 1259
_journal_name_full 'Khim.Get.Soedin.,SSSR(Russ.)(Chem.Heterocycl.Compd.) '
loop_
_publ_author_name
"I.B.Starchenkov"
"V.G.Andrianov"
"A.F.Mishnev"
_chemical_name_systematic
;
5H-1,2,3-Triazolo(4,5-e)furazano(3,4-b)pyrazine
;
_cell_volume    590.651
_exptl_crystal_density_diffrn 1.83
_exptl_crystal_preparation 'water'
_diffrn_ambient_temperature ?
_diffrn_special_details
;
The study was carried out at room temperature,in the range 283-303K

;
#These two values have been output from a single CSD field.
_refine_ls_R_factor_gt 0.092
_refine_ls_wR_factor_gt 0.092
_symmetry_cell_setting orthorhombic
_symmetry_space_group_name_H-M 'P 21 21 21'
_symmetry_Int_Tables_number 19
loop_
_symmetry_equiv_pos_site_id
_symmetry_equiv_pos_as_xyz
1 x,y,z
2 1/2-x,-y,1/2+z
3 1/2+x,1/2-y,-z
4 -x,1/2+y,1/2-z
_cell_length_a 5.4315(8)
_cell_length_b 6.775(1)
_cell_length_c 16.051(3)
_cell_angle_alpha 90
_cell_angle_beta 90
_cell_angle_gamma 90
_cell_formula_units_Z 4
loop_
_atom_type_symbol
_atom_type_radius_bond
C 0.68
N 0.68
O 0.68
loop_
_atom_site_label
_atom_site_type_symbol
_atom_site_fract_x
_atom_site_fract_y
_atom_site_fract_z
N1 N 0.097(1) 0.333(1) 0.0600(3)
N2 N 0.316(1) 0.250(1) 0.0898(3)
C1 C 0.314(1) 0.267(1) 0.1743(4)
N3 N 0.484(1) 0.207(1) 0.2289(3)
C2 C 0.406(1) 0.255(1) 0.3076(3)
N4 N 0.532(1) 0.215(1) 0.3773(4)
O1 O 0.383(1) 0.301(1) 0.4356(3)
N5 N 0.178(2) 0.388(1) 0.4066(4)
C3 C 0.183(2) 0.355(1) 0.3246(5)
N6 N 0.017(1) 0.419(1) 0.2702(5)
C4 C 0.089(1) 0.369(1) 0.1952(4)
N7 N -0.038(1) 0.401(1) 0.1215(4)
#END
