
#######################################################################
#
#                 Cambridge Crystallographic Data Centre
#                                CCDC
#
#######################################################################
#
# If this CIF has been generated from an entry in the Cambridge
# Structural Database, then it will include bibliographic, chemical,
# crystal, experimental, refinement or atomic coordinate data resulting
# from the CCDC's data processing and validation procedures.
#
#######################################################################

data_CSD_CIF_FIDZID
_audit_creation_date 2013-08-08
_audit_creation_method CSD-ConQuest-V1
_database_code_CSD FIDZID
_database_code_depnum_ccdc_archive 'CCDC 907696'
_chemical_formula_sum 'C16 H25 N1 O6'
_chemical_formula_moiety
;
C16 H25 N1 O6
;
_journal_coden_Cambridge 1475
_journal_volume 4
_journal_year 2013
_journal_page_first 3857
_journal_name_full 'Chemical Science '
loop_
_publ_author_name
"C.P.Frazier"
"D.Sandoval"
"L.I.Palmer"
"J.R.de Alaniz"
_chemical_name_systematic
;
3-t-Butyl 4a-ethyl 
hexahydro-3H,4aH-oxireno[d][1,2]benzoxazine-3,4a-dicarboxylate
;
_cell_volume   1660.425
_exptl_crystal_colour 'colorless'
_exptl_crystal_density_diffrn 1.31
_exptl_crystal_description 'block'
_diffrn_ambient_temperature 100
#These two values have been output from a single CSD field.
_refine_ls_R_factor_gt 0.0316
_refine_ls_wR_factor_gt 0.0316
_symmetry_cell_setting monoclinic
_symmetry_space_group_name_H-M 'P 21/c'
_symmetry_Int_Tables_number 14
loop_
_symmetry_equiv_pos_site_id
_symmetry_equiv_pos_as_xyz
1 x,y,z
2 -x,1/2+y,1/2-z
3 -x,-y,-z
4 x,-1/2-y,-1/2+z
_cell_length_a 9.8524(4)
_cell_length_b 15.9675(5)
_cell_length_c 10.5673(3)
_cell_angle_alpha 90
_cell_angle_beta 92.813(2)
_cell_angle_gamma 90
_cell_formula_units_Z 4
loop_
_atom_type_symbol
_atom_type_radius_bond
C 0.68
H 0.23
N 0.68
O 0.68
loop_
_atom_site_label
_atom_site_type_symbol
_atom_site_fract_x
_atom_site_fract_y
_atom_site_fract_z
C1 C 0.67073(11) 0.04772(7) 0.75125(10)
H1 H 0.76020 0.02810 0.78340
H2 H 0.59990 0.02110 0.79920
H3 H 0.66540 0.10870 0.76100
C2 C 0.65046(10) 0.02522(6) 0.61340(9)
H4 H 0.65510 -0.03630 0.60220
H5 H 0.56060 0.04500 0.57960
C3 C 0.74196(10) 0.06945(6) 0.42208(9)
C4 C 0.86502(9) 0.10838(6) 0.36135(8)
C5 C 0.96063(10) 0.03865(6) 0.32008(9)
H6 H 1.05080 0.06320 0.30530
H7 H 0.97270 -0.00270 0.38960
C6 C 0.90812(11) -0.00638(6) 0.20015(9)
H8 H 0.97700 -0.04730 0.17420
H9 H 0.82430 -0.03760 0.21790
C7 C 0.87778(11) 0.05544(7) 0.09248(9)
H10 H 0.84470 0.02460 0.01570
H11 H 0.96220 0.08530 0.07250
C8 C 0.77052(10) 0.11879(6) 0.12952(9)
H12 H 0.75470 0.16000 0.06040
H13 H 0.68380 0.08960 0.14280
C9 C 0.81773(9) 0.16342(6) 0.24937(9)
C10 C 0.8766(1) 0.24796(6) 0.24275(9)
H14 H 0.88200 0.27210 0.15580
C11 C 0.98425(10) 0.27677(6) 0.33897(9)
H15 H 1.05850 0.30510 0.29580
H16 H 0.94490 0.31720 0.39810
C12 C 1.14617(10) 0.20979(6) 0.49771(9)
C13 C 1.35549(10) 0.29146(7) 0.53564(10)
C14 C 1.44998(12) 0.21661(8) 0.53462(12)
H17 H 1.40850 0.16940 0.57760
H18 H 1.53670 0.23100 0.57880
H19 H 1.46590 0.20110 0.44690
C15 C 1.32520(12) 0.31839(8) 0.66914(10)
H20 H 1.25550 0.36220 0.66530
H21 H 1.40830 0.34010 0.71210
H22 H 1.29220 0.27020 0.71610
C16 C 1.40980(12) 0.36401(8) 0.46033(11)
H23 H 1.42130 0.34620 0.37280
H24 H 1.49770 0.38190 0.49860
H25 H 1.34550 0.41080 0.46100
N1 N 1.03762(8) 0.20409(5) 0.40897(8)
O1 O 0.75888(7) 0.06613(5) 0.54741(6)
O2 O 0.64478(8) 0.04283(5) 0.36152(7)
O3 O 0.92924(7) 0.15891(4) 0.46013(6)
O4 O 0.74006(7) 0.23497(4) 0.28611(7)
O5 O 1.16461(8) 0.16289(5) 0.58616(7)
O6 O 1.22602(7) 0.27299(5) 0.46355(7)
#END
