
#######################################################################
#
#                 Cambridge Crystallographic Data Centre
#                                CCDC
#
#######################################################################
#
# If this CIF has been generated from an entry in the Cambridge
# Structural Database, then it will include bibliographic, chemical,
# crystal, experimental, refinement or atomic coordinate data resulting
# from the CCDC's data processing and validation procedures.
#
#######################################################################

data_CSD_CIF_FIFCON
_audit_creation_date 2005-06-02
_audit_creation_method CSD-ConQuest-V1
_database_code_CSD FIFCON
_database_code_depnum_ccdc_archive 'CCDC 255051'
_chemical_formula_sum 'C20 H27 N1 O5'
_chemical_formula_moiety
;
C20 H27 N1 O5
;
_journal_coden_Cambridge 1336
_journal_volume 7
_journal_year 2005
_journal_page_first 319
_journal_name_full 'Org.Lett. '
loop_
_publ_author_name
"M.Bonanni"
"M.Marradi"
"S.Cicchi"
"C.Faggi"
"A.Goti"
_chemical_name_systematic
;
((1S,2R)-2-((1S)-1-((Acetyloxy)((1R)-1-phenylprop-2-enyl)amino)prop-2-enyl)-4,
4-dimethyl-3,5-dioxacyclopentyl)methanol
;
_chemical_melting_point 367.15
_cell_volume   2064.213
_exptl_crystal_colour 'white'
_exptl_crystal_density_diffrn 1.163
_exptl_special_details
;
Melting point range 367.15-369.15K

;
_exptl_crystal_description 'needle'
_diffrn_ambient_temperature 293
#These two values have been output from a single CSD field.
_refine_ls_R_factor_gt 0.0409
_refine_ls_wR_factor_gt 0.0409
_symmetry_cell_setting orthorhombic
_symmetry_space_group_name_H-M 'P 21 21 21'
_symmetry_Int_Tables_number 19
loop_
_symmetry_equiv_pos_site_id
_symmetry_equiv_pos_as_xyz
1 x,y,z
2 1/2-x,-y,1/2+z
3 1/2+x,1/2-y,-z
4 -x,1/2+y,1/2-z
_cell_length_a 7.689(1)
_cell_length_b 15.008(1)
_cell_length_c 17.888(2)
_cell_angle_alpha 90
_cell_angle_beta 90
_cell_angle_gamma 90
_cell_formula_units_Z 4
loop_
_atom_type_symbol
_atom_type_radius_bond
C 0.68
H 0.23
N 0.68
O 0.68
loop_
_atom_site_label
_atom_site_type_symbol
_atom_site_fract_x
_atom_site_fract_y
_atom_site_fract_z
N1 N 0.0973(3) -0.45083(13) -0.73019(10)
O1 O 0.2294(2) -0.51411(11) -0.75646(10)
O2 O 0.0593(3) -0.62499(14) -0.71398(15)
O3 O -0.0470(3) -0.40012(16) -0.92274(10)
O4 O -0.3076(2) -0.37308(13) -0.86838(11)
O5 O -0.2690(3) -0.53469(16) -0.71834(15)
H1 H -0.16370 -0.54290 -0.71690
C1 C 0.1925(4) -0.60033(18) -0.74023(17)
C2 C 0.3445(5) -0.6569(2) -0.7597(2)
H2 H 0.43590 -0.62020 -0.77940
H3 H 0.31070 -0.70000 -0.79660
H4 H 0.38510 -0.68710 -0.71580
C3 C 0.0656(3) -0.39075(15) -0.79561(12)
H5 H -0.00270 -0.33970 -0.77820
C4 C 0.2287(3) -0.35575(18) -0.83098(13)
H6 H 0.30070 -0.39620 -0.85540
C5 C 0.2761(4) -0.27252(19) -0.82977(15)
H7 H 0.20700 -0.23040 -0.80580
H8 H 0.37910 -0.25520 -0.85280
C6 C -0.0455(4) -0.44299(19) -0.85144(14)
H9 H 0.00380 -0.50280 -0.85720
C7 C -0.2404(4) -0.4515(2) -0.83452(16)
H10 H -0.28630 -0.50350 -0.86110
C8 C -0.3040(4) -0.4538(2) -0.75503(17)
H11 H -0.24960 -0.40570 -0.72740
H12 H -0.42860 -0.44360 -0.75470
C9 C -0.2123(4) -0.3594(2) -0.93557(14)
C10 C -0.2986(5) -0.4056(2) -1.00124(19)
H13 H -0.23200 -0.39500 -1.04580
H14 H -0.41410 -0.38250 -1.00770
H15 H -0.30440 -0.46850 -0.99180
C11 C -0.1930(5) -0.2614(2) -0.94757(17)
H16 H -0.12950 -0.25100 -0.99290
H17 H -0.13120 -0.23580 -0.90620
H18 H -0.30600 -0.23460 -0.95130
C12 C 0.1845(4) -0.40501(17) -0.66642(13)
H19 H 0.29010 -0.37530 -0.68440
C13 C 0.2327(5) -0.4730(2) -0.60784(16)
H20 H 0.14350 -0.50710 -0.58750
C14 C 0.3888(6) -0.4875(3) -0.5837(2)
H21 H 0.48150 -0.45470 -0.60270
H22 H 0.40840 -0.53070 -0.54740
C15 C 0.0645(4) -0.33691(17) -0.63221(13)
C16 C -0.0923(5) -0.3607(2) -0.60230(15)
H23 H -0.12950 -0.41950 -0.60650
C17 C -0.1963(7) -0.2999(4) -0.5662(2)
H24 H -0.30370 -0.31750 -0.54740
C18 C -0.1434(12) -0.2148(4) -0.5580(2)
H25 H -0.21220 -0.17430 -0.53200
C19 C 0.0098(9) -0.1884(2) -0.5878(2)
H26 H 0.04430 -0.12930 -0.58300
C20 C 0.1176(7) -0.24863(19) -0.62568(16)
H27 H 0.22270 -0.22990 -0.64610
#END
