
#######################################################################
#
#                 Cambridge Crystallographic Data Centre
#                                CCDC
#
#######################################################################
#
# If this CIF has been generated from an entry in the Cambridge
# Structural Database, then it will include bibliographic, chemical,
# crystal, experimental, refinement or atomic coordinate data resulting
# from the CCDC's data processing and validation procedures.
#
#######################################################################

data_CSD_CIF_FIFDAA
_audit_creation_date 2005-06-02
_audit_creation_method CSD-ConQuest-V1
_database_code_CSD FIFDAA
_database_code_depnum_ccdc_archive 'CCDC 255053'
_chemical_formula_sum 'C16 H25 N1 O4'
_chemical_formula_moiety
;
C16 H25 N1 O4
;
_journal_coden_Cambridge 1336
_journal_volume 7
_journal_year 2005
_journal_page_first 319
_journal_name_full 'Org.Lett. '
loop_
_publ_author_name
"M.Bonanni"
"M.Marradi"
"S.Cicchi"
"C.Faggi"
"A.Goti"
_chemical_name_systematic
;
1,2-Dideoxy-2-(hydroxy((1R)-1-phenylethyl)amino)-3,4-O-(1-methylethylidene)-D-
ribitol
;
_chemical_melting_point 362.15
_cell_volume   3394.413
_exptl_crystal_colour 'white'
_exptl_crystal_density_diffrn 1.156
_exptl_special_details
;
Melting point range 362.15-363.15K

;
_exptl_crystal_description 'needle'
_diffrn_ambient_temperature 293
#These two values have been output from a single CSD field.
_refine_ls_R_factor_gt 0.0451
_refine_ls_wR_factor_gt 0.0451
_symmetry_cell_setting orthorhombic
_symmetry_space_group_name_H-M 'C 2 2 21'
_symmetry_Int_Tables_number 20
loop_
_symmetry_equiv_pos_site_id
_symmetry_equiv_pos_as_xyz
1 x,y,z
2 -x,-y,1/2+z
3 x,-y,-z
4 -x,y,1/2-z
5 1/2+x,1/2+y,z
6 1/2-x,1/2-y,1/2+z
7 1/2+x,1/2-y,-z
8 1/2-x,1/2+y,1/2-z
_cell_length_a 11.541(1)
_cell_length_b 11.657(1)
_cell_length_c 25.231(4)
_cell_angle_alpha 90
_cell_angle_beta 90
_cell_angle_gamma 90
_cell_formula_units_Z 8
loop_
_atom_type_symbol
_atom_type_radius_bond
C 0.68
H 0.23
N 0.68
O 0.68
loop_
_atom_site_label
_atom_site_type_symbol
_atom_site_fract_x
_atom_site_fract_y
_atom_site_fract_z
N1 N -0.84372(16) 0.02907(18) -0.68032(7)
O1 O -0.81467(18) 0.31618(17) -0.62066(10)
O2 O -1.00273(16) 0.34918(16) -0.62876(7)
O3 O -1.07048(17) 0.0785(2) -0.69239(7)
H1 H -0.998(4) 0.056(3) -0.6937(14)
O4 O -0.77535(17) 0.0498(2) -0.72783(7)
H2 H -0.826(4) 0.078(4) -0.747(2)
C1 C -1.0673(2) 0.1632(2) -0.65191(9)
H3 H -1.149(2) 0.198(2) -0.6482(10)
H4 H -1.043(2) 0.123(2) -0.6188(10)
C2 C -0.9825(2) 0.2580(2) -0.66522(8)
H5 H -1.001(3) 0.286(3) -0.6990(12)
C3 C -0.8496(2) 0.2349(2) -0.65988(10)
H6 H -0.810(3) 0.246(3) -0.6936(13)
C4 C -0.8956(2) 0.4061(2) -0.62067(11)
C5 C -0.8735(4) 0.4914(3) -0.66415(17)
H7 H -0.93090 0.55090 -0.66270
H8 H -0.87750 0.45330 -0.69780
H9 H -0.79790 0.52440 -0.65970
C6 C -0.8963(4) 0.4600(3) -0.56666(14)
H10 H -0.95130 0.52190 -0.56600
H11 H -0.82050 0.48910 -0.55870
H12 H -0.91770 0.40360 -0.54070
C7 C -0.8080(2) 0.1180(2) -0.64167(9)
H13 H -0.854(2) 0.088(2) -0.6079(11)
C8 C -0.6776(2) 0.1219(3) -0.63155(14)
H14 H -0.65150 0.04790 -0.61990
H15 H -0.66110 0.17790 -0.60470
H16 H -0.63810 0.14240 -0.66370
C9 C -0.8140(2) -0.0904(2) -0.66410(9)
H17 H -0.729(3) -0.101(2) -0.661(1)
C10 C -0.8607(3) -0.1730(3) -0.70550(11)
H18 H -0.82870 -0.15410 -0.73950
H19 H -0.94360 -0.16710 -0.70690
H20 H -0.83920 -0.25000 -0.69620
C11 C -0.8636(2) -0.1163(2) -0.60949(9)
C12 C -0.9818(3) -0.1177(3) -0.59991(11)
H21 H -1.03300 -0.10150 -0.62740
C13 C -1.0249(3) -0.1430(3) -0.54986(12)
H22 H -1.10440 -0.14250 -0.54360
C14 C -0.9484(4) -0.1687(3) -0.50941(12)
H23 H -0.97640 -0.18570 -0.47580
C15 C -0.8318(4) -0.1695(4) -0.51859(11)
H24 H -0.78110 -0.18770 -0.49120
C16 C -0.7884(3) -0.1433(3) -0.56844(10)
H25 H -0.70890 -0.14380 -0.57430
#END
