
#######################################################################
#
#                 Cambridge Crystallographic Data Centre
#                                CCDC
#
#######################################################################
#
# If this CIF has been generated from an entry in the Cambridge
# Structural Database, then it will include bibliographic, chemical,
# crystal, experimental, refinement or atomic coordinate data resulting
# from the CCDC's data processing and validation procedures.
#
#######################################################################

data_CSD_CIF_FIFLIP
_audit_creation_date 1988-01-14
_audit_creation_method CSD-ConQuest-V1
_database_code_CSD FIFLIP
_chemical_formula_sum 'C21 H11 N1 O3'
_chemical_formula_moiety
;
C21 H11 N1 O3
;
_journal_coeditor_code "IUCr A27091"
_journal_coden_Cambridge 591
_journal_volume 43
_journal_year 1987
_journal_page_first 972
_journal_name_full 'Acta Crystallogr.,Sect.C:Cryst.Struct.Commun. '
loop_
_publ_author_name
"S.Fujisawa"
"I.Oonishi"
"J.Aoki"
"Y.Ohashi"
_chemical_name_systematic
;
9-Nitro-7H-dibenzo(a,kl)anthracen-7-one
;
_cell_volume   1425.201
_exptl_crystal_colour 'orange'
_exptl_crystal_density_diffrn 1.517
_diffrn_ambient_temperature ?
_diffrn_special_details
;
The study was carried out at room temperature,in the range 283-303K

;
#These two values have been output from a single CSD field.
_refine_ls_R_factor_gt 0.064
_refine_ls_wR_factor_gt 0.064
_symmetry_cell_setting monoclinic
_symmetry_space_group_name_H-M 'P 21/a'
_symmetry_Int_Tables_number 14
loop_
_symmetry_equiv_pos_site_id
_symmetry_equiv_pos_as_xyz
1 x,y,z
2 1/2-x,1/2+y,-z
3 -x,-y,-z
4 -1/2+x,-1/2-y,z
_cell_length_a 23.349(9)
_cell_length_b 8.577(4)
_cell_length_c 7.180(3)
_cell_angle_alpha 90
_cell_angle_beta 97.62(4)
_cell_angle_gamma 90
_cell_formula_units_Z 4
loop_
_atom_type_symbol
_atom_type_radius_bond
C 0.68
H 0.23
N 0.68
O 0.68
loop_
_atom_site_label
_atom_site_type_symbol
_atom_site_fract_x
_atom_site_fract_y
_atom_site_fract_z
C1 C 0.0551(1) 0.3571(4) 0.3761(4)
C2 C 0.1119(1) 0.4096(4) 0.4227(4)
C3 C 0.1568(1) 0.3159(4) 0.3971(4)
C4 C 0.1928(1) 0.0537(4) 0.3239(4)
C5 C 0.1831(1) -0.0985(4) 0.2860(4)
C6 C 0.1267(1) -0.1562(4) 0.2640(4)
C7 C 0.0218(1) -0.1211(3) 0.2591(4)
C8 C -0.0829(1) -0.0685(3) 0.2293(4)
C9 C -0.1285(1) 0.0286(4) 0.2093(4)
C10 C -0.1231(1) 0.1926(3) 0.1878(4)
C11 C -0.0658(1) 0.2531(3) 0.1994(4)
C12 C -0.0169(1) 0.1522(3) 0.2524(4)
C13 C 0.0423(1) 0.2097(3) 0.3059(4)
C14 C 0.0895(1) 0.1042(3) 0.3013(4)
C15 C 0.1473(1) 0.1596(4) 0.3383(4)
C16 C 0.0804(1) -0.0575(3) 0.2707(4)
C17 C -0.0263(1) -0.0078(3) 0.2495(4)
C18 C -0.1701(1) 0.2946(4) 0.1354(4)
C19 C -0.1611(1) 0.4450(4) 0.0870(4)
C20 C -0.1057(2) 0.5014(4) 0.0832(4)
C21 C -0.0591(1) 0.4086(4) 0.1400(4)
N1 N -0.1855(1) -0.0469(3) 0.2000(3)
O1 O 0.0122(1) -0.2611(2) 0.2532(3)
O2 O -0.1906(1) -0.1798(3) 0.1382(4)
O3 O -0.2254(1) 0.0250(3) 0.2559(3)
H1 H 0.023(1) 0.429(3) 0.395(4)
H2 H 0.118(1) 0.520(3) 0.477(4)
H3 H 0.196(1) 0.350(3) 0.421(4)
H4 H 0.230(1) 0.098(3) 0.346(4)
H5 H 0.216(1) -0.172(3) 0.277(4)
H6 H 0.118(1) -0.268(3) 0.245(4)
H7 H -0.087(1) -0.180(3) 0.234(4)
H8 H -0.211(1) 0.251(3) 0.132(4)
H9 H -0.195(1) 0.511(3) 0.049(4)
H10 H -0.098(1) 0.610(3) 0.042(4)
H11 H -0.021(1) 0.449(3) 0.133(4)
#END
