
#######################################################################
#
#                 Cambridge Crystallographic Data Centre
#                                CCDC
#
#######################################################################
#
# If this CIF has been generated from an entry in the Cambridge
# Structural Database, then it will include bibliographic, chemical,
# crystal, experimental, refinement or atomic coordinate data resulting
# from the CCDC's data processing and validation procedures.
#
#######################################################################

data_CSD_CIF_FIFTAP
_audit_creation_date 1988-01-14
_audit_creation_method CSD-ConQuest-V1
_database_code_CSD FIFTAP
_database_code_depnum_ccdc_archive 'CCDC 1156019'
_chemical_formula_sum 'C23 H26 N2 O5'
_chemical_formula_moiety
;
C23 H26 N2 O5
;
_journal_coden_Cambridge 34
_journal_volume 23
_journal_year 1986
_journal_page_first 711
_journal_name_full 'J.Heterocycl.Chem. '
loop_
_publ_author_name
"N.R.Natale"
"H.Hope"
_chemical_name_systematic
;
Dimethyl 
6-benzylamino-2-(3,5-dimethylisoxazol-4-yl)-4-methyl-2,3-dihydro-isophthalate
;
_chemical_melting_point 433.15
_cell_volume   1054.810
_exptl_crystal_colour 'yellow'
_exptl_crystal_density_diffrn 1.29
_exptl_special_details
;
Melting point range 433.15-435.15K

;
_diffrn_ambient_temperature 140
_refine_special_details
;
The hydrogens at C18 and C22 are disordered; six positions are given for 
each, but only three have been retained.
;
#These two values have been output from a single CSD field.
_refine_ls_R_factor_gt 0.041
_refine_ls_wR_factor_gt 0.041
_symmetry_cell_setting triclinic
_symmetry_space_group_name_H-M 'P -1'
_symmetry_Int_Tables_number 2
loop_
_symmetry_equiv_pos_site_id
_symmetry_equiv_pos_as_xyz
1 x,y,z
2 -x,-y,-z
_cell_length_a 7.075(1)
_cell_length_b 11.382(2)
_cell_length_c 13.980(2)
_cell_angle_alpha 84.06(1)
_cell_angle_beta 75.29(1)
_cell_angle_gamma 75.85(1)
_cell_formula_units_Z 2
loop_
_atom_type_symbol
_atom_type_radius_bond
C 0.68
H 0.23
N 0.68
O 0.68
loop_
_atom_site_label
_atom_site_type_symbol
_atom_site_fract_x
_atom_site_fract_y
_atom_site_fract_z
C1 C 1.1140(2) 0.2998(1) 0.7395(1)
C2 C 0.9731(2) 0.4026(1) 0.7540(1)
C3 C 0.7558(2) 0.3984(1) 0.7685(1)
C4 C 0.7092(2) 0.2801(1) 0.8241(1)
C5 C 0.8698(2) 0.1703(1) 0.7837(1)
C6 C 1.0640(2) 0.1815(1) 0.7412(1)
C7 C 1.0213(2) 0.5237(1) 0.7543(1)
C8 C 0.6881(2) 0.4155(1) 0.6714(1)
O1 O 0.5371(2) 0.3915(1) 0.6625(1)
O2 O 0.8095(2) 0.4648(1) 0.5989(1)
C9 C 0.7456(2) 0.4946(2) 0.5068(1)
C10 C 0.6638(2) 0.2909(1) 0.9352(1)
C11 C 0.4757(2) 0.3520(1) 0.9916(1)
N1 N 0.4713(2) 0.3467(1) 1.0866(1)
O3 O 0.6630(2) 0.2803(1) 1.0954(1)
C12 C 0.7737(2) 0.2478(1) 1.0037(1)
C13 C 0.2935(2) 0.4169(1) 0.9562(1)
C14 C 0.9801(3) 0.1746(2) 1.0006(1)
C15 C 0.8179(2) 0.0532(1) 0.7956(1)
O4 O 0.9300(2) -0.0429(1) 0.7654(1)
O5 O 0.6257(2) 0.0595(1) 0.8471(1)
C16 C 0.5594(3) -0.0527(1) 0.8653(1)
N2 N 1.2157(2) 0.0869(1) 0.7049(1)
C17 C 1.4105(2) 0.0972(1) 0.6439(1)
C18 C 1.4098(2) 0.1499(1) 0.5393(1)
C19 C 1.5874(3) 0.1753(1) 0.4793(1)
C20 C 1.5944(3) 0.2203(2) 0.3822(1)
C21 C 1.4263(3) 0.2411(2) 0.3445(1)
C22 C 1.2512(3) 0.2146(2) 0.4029(1)
C23 C 1.2431(3) 0.1694(1) 0.5001(1)
H1 H 1.25240 0.30310 0.72730
H2 H 0.68110 0.46580 0.80860
H3 H 0.58820 0.26750 0.81190
H4 H 1.16270 0.51900 0.74200
H5 H 0.95560 0.55570 0.81830
H6 H 0.96790 0.57600 0.70440
H7 H 0.84900 0.52860 0.46310
H8 H 0.62030 0.55350 0.51610
H9 H 0.73370 0.42420 0.47840
H10 H 0.18000 0.44330 1.00990
H11 H 0.26280 0.36190 0.91780
H12 H 0.32400 0.48590 0.91490
H13 H 0.9994(27) 0.1469(20) 1.0652(13)
H14 H 1.0532(27) 0.2083(20) 1.0312(13)
H15 H 1.0870(27) 0.2111(20) 0.9639(13)
H16 H 0.6121(33) -0.0984(18) 0.9142(15)
H17 H 0.6615(33) -0.1125(18) 0.8487(15)
H18 H 0.5813(33) -0.0863(18) 0.8056(15)
H19 H 1.1756(30) 0.0159(18) 0.7079(15)
H20 H 1.46260 0.14850 0.67600
H21 H 1.49740 0.01770 0.63920
H22 H 1.70480 0.16160 0.50520
H23 H 1.71670 0.23730 0.34110
H24 H 1.43080 0.27350 0.27800
H25 H 1.13470 0.22750 0.37640
H26 H 1.12060 0.15160 0.54020
#END
