
#######################################################################
#
#                 Cambridge Crystallographic Data Centre
#                                CCDC
#
#######################################################################
#
# If this CIF has been generated from an entry in the Cambridge
# Structural Database, then it will include bibliographic, chemical,
# crystal, experimental, refinement or atomic coordinate data resulting
# from the CCDC's data processing and validation procedures.
#
#######################################################################

data_CSD_CIF_FIHLEO
_audit_creation_date 2005-06-02
_audit_creation_method CSD-ConQuest-V1
_database_code_CSD FIHLEO
_database_code_depnum_ccdc_archive 'CCDC 225826'
_chemical_formula_sum 'C15 H12 N2 O5'
_chemical_formula_moiety
;
C15 H12 N2 O5
;
_journal_coden_Cambridge 423
_journal_year 2004
_journal_page_first 667
_journal_name_full 'J.Chem.Res. '
loop_
_publ_author_name
"J.R.Hanson"
"P.B.Hitchcock"
"H.Saberi"
_chemical_name_systematic
;
2,6-Dinitro-4'-methoxystilbene
;
_chemical_melting_point 439.15
_cell_volume   1335.567
_exptl_crystal_colour 'yellow'
_exptl_crystal_density_diffrn 1.493
_exptl_special_details
;
Melting point range 439.15-441.15K

;
_exptl_crystal_description 'prism'
_diffrn_ambient_temperature 173
#These two values have been output from a single CSD field.
_refine_ls_R_factor_gt 0.0426
_refine_ls_wR_factor_gt 0.0426
_symmetry_cell_setting monoclinic
_symmetry_space_group_name_H-M 'P 21/c'
_symmetry_Int_Tables_number 14
loop_
_symmetry_equiv_pos_site_id
_symmetry_equiv_pos_as_xyz
1 x,y,z
2 -x,1/2+y,1/2-z
3 -x,-y,-z
4 x,-1/2-y,-1/2+z
_cell_length_a 8.2041(2)
_cell_length_b 15.4170(3)
_cell_length_c 10.9410(3)
_cell_angle_alpha 90
_cell_angle_beta 105.179(1)
_cell_angle_gamma 90
_cell_formula_units_Z 4
loop_
_atom_type_symbol
_atom_type_radius_bond
C 0.68
H 0.23
N 0.68
O 0.68
loop_
_atom_site_label
_atom_site_type_symbol
_atom_site_fract_x
_atom_site_fract_y
_atom_site_fract_z
O1 O 0.23772(18) 0.14290(8) 0.27946(13)
O2 O 0.44596(19) 0.15303(8) 0.19273(14)
O3 O 0.45245(17) -0.19145(8) 0.49003(12)
O4 O 0.22408(18) -0.24598(8) 0.36796(14)
O5 O 0.07797(17) 0.11402(8) 0.94498(12)
N1 N 0.34555(18) 0.11064(9) 0.23433(13)
N2 N 0.33776(18) -0.19227(8) 0.39229(13)
C1 C 0.33093(19) -0.03799(10) 0.32274(15)
C2 C 0.3529(2) 0.01548(10) 0.22371(15)
C3 C 0.3776(2) -0.01472(11) 0.11102(16)
H1 H 0.387(3) 0.0269(14) 0.050(2)
C4 C 0.3781(2) -0.10267(11) 0.08853(17)
H2 H 0.394(3) -0.1234(15) 0.010(2)
C5 C 0.3596(2) -0.15924(11) 0.18217(16)
H3 H 0.360(3) -0.2195(15) 0.1702(19)
C6 C 0.3399(2) -0.12636(10) 0.29501(15)
C7 C 0.3057(2) -0.0021(1) 0.44041(15)
H4 H 0.355(3) 0.0519(14) 0.4598(18)
C8 C 0.2204(2) -0.03829(11) 0.51571(15)
H5 H 0.170(3) -0.0949(15) 0.496(2)
C9 C 0.19062(19) 0.00338(10) 0.62872(15)
C10 C 0.2135(2) 0.09236(11) 0.65100(16)
H6 H 0.254(3) 0.1280(14) 0.594(2)
C11 C 0.1785(2) 0.13174(11) 0.75523(16)
H7 H 0.194(3) 0.1943(15) 0.768(2)
C12 C 0.1180(2) 0.08157(11) 0.83967(15)
C13 C 0.0951(2) -0.00739(11) 0.82013(16)
H8 H 0.052(3) -0.0404(14) 0.8796(19)
C14 C 0.1307(2) -0.04548(11) 0.71543(16)
H9 H 0.115(3) -0.1073(14) 0.7047(19)
C15 C 0.0887(3) 0.20603(12) 0.96275(19)
H10 H 0.209(3) 0.2255(16) 0.977(2)
H11 H 0.016(3) 0.2352(15) 0.890(2)
H12 H 0.047(3) 0.2162(16) 1.037(2)
#END
