
#######################################################################
#
#                 Cambridge Crystallographic Data Centre
#                                CCDC
#
#######################################################################
#
# If this CIF has been generated from an entry in the Cambridge
# Structural Database, then it will include bibliographic, chemical,
# crystal, experimental, refinement or atomic coordinate data resulting
# from the CCDC's data processing and validation procedures.
#
#######################################################################

data_CSD_CIF_FIHLOY
_audit_creation_date 2005-06-02
_audit_creation_method CSD-ConQuest-V1
_database_code_CSD FIHLOY
_database_code_depnum_ccdc_archive 'CCDC 225846 (not 255846 as published)'
_chemical_formula_sum 'C7 H6 N2 O4'
_chemical_formula_moiety
;
C7 H6 N2 O4
;
_journal_coden_Cambridge 423
_journal_year 2004
_journal_page_first 670
_journal_name_full 'J.Chem.Res. '
loop_
_publ_author_name
"J.R.Hanson"
"P.B.Hitchcock"
_chemical_name_systematic
;
2,3-Dinitrotoluene
;
_cell_volume    829.752
_exptl_crystal_colour 'colorless'
_exptl_crystal_density_diffrn 1.458
_exptl_crystal_description 'prism'
_diffrn_ambient_temperature 173
#These two values have been output from a single CSD field.
_refine_ls_R_factor_gt 0.0588
_refine_ls_wR_factor_gt 0.0588
_symmetry_cell_setting monoclinic
_symmetry_space_group_name_H-M 'P c'
_symmetry_Int_Tables_number 7
loop_
_symmetry_equiv_pos_site_id
_symmetry_equiv_pos_as_xyz
1 x,y,z
2 x,-y,1/2+z
_cell_length_a 7.6169(17)
_cell_length_b 14.669(3)
_cell_length_c 7.8126(13)
_cell_angle_alpha 90
_cell_angle_beta 108.094(16)
_cell_angle_gamma 90
_cell_formula_units_Z 4
loop_
_atom_type_symbol
_atom_type_radius_bond
C 0.68
H 0.23
N 0.68
O 0.68
loop_
_atom_site_label
_atom_site_type_symbol
_atom_site_fract_x
_atom_site_fract_y
_atom_site_fract_z
O1 O 0.7061(5) 0.6093(2) 0.6133(5)
O2 O 0.7002(6) 0.6037(3) 0.3373(5)
O3 O 0.8336(5) 0.4323(3) 0.5149(5)
O4 O 0.7094(6) 0.2999(3) 0.4693(6)
N1 N 0.6473(6) 0.5801(3) 0.4612(6)
N2 N 0.6989(7) 0.3830(3) 0.4732(6)
C1 C 0.3162(7) 0.5557(3) 0.3859(6)
C2 C 0.4891(7) 0.5165(3) 0.4252(6)
C3 C 0.5141(6) 0.4234(3) 0.4275(6)
C4 C 0.3633(7) 0.3654(4) 0.3918(6)
H1 H 0.398(6) 0.297(3) 0.412(6)
C5 C 0.1890(8) 0.4021(4) 0.3556(7)
H2 H 0.075(9) 0.359(4) 0.312(7)
C6 C 0.1687(9) 0.4946(4) 0.3538(7)
H3 H 0.077(7) 0.517(3) 0.339(6)
C7 C 0.2855(10) 0.6564(4) 0.3810(9)
H4 H 0.34550 0.68220 0.50070
H5 H 0.15270 0.66900 0.34530
H6 H 0.33820 0.68420 0.29380
O5 O 0.2678(6) -0.1302(3) 0.7041(6)
O6 O 0.2551(6) -0.1198(2) 0.4272(5)
O7 O 0.3848(6) 0.0501(3) 0.6044(6)
O8 O 0.2597(6) 0.1820(2) 0.5617(5)
N3 N 0.2047(6) -0.0990(3) 0.5549(6)
N4 N 0.2500(6) 0.0988(3) 0.5655(5)
C8 C -0.1254(7) -0.0771(3) 0.4939(7)
C9 C 0.0442(7) -0.0370(3) 0.5240(6)
C10 C 0.0679(7) 0.0568(3) 0.5271(6)
C11 C -0.0803(7) 0.1146(4) 0.4996(7)
H7 H -0.047(6) 0.188(3) 0.495(6)
C12 C -0.2544(8) 0.0758(4) 0.4672(8)
H8 H -0.351(11) 0.121(5) 0.477(10)
C13 C -0.2750(8) -0.0181(4) 0.4654(8)
H9 H -0.398(10) -0.041(4) 0.444(8)
C14 C -0.1517(10) -0.1787(4) 0.4856(10)
H10 H -0.10510 -0.20400 0.39200
H11 H -0.28350 -0.19280 0.45710
H12 H -0.08390 -0.20550 0.60230
#END
