
#######################################################################
#
#                 Cambridge Crystallographic Data Centre
#                                CCDC
#
#######################################################################
#
# If this CIF has been generated from an entry in the Cambridge
# Structural Database, then it will include bibliographic, chemical,
# crystal, experimental, refinement or atomic coordinate data resulting
# from the CCDC's data processing and validation procedures.
#
#######################################################################

data_CSD_CIF_FIHLAK
_audit_creation_date 2005-06-02
_audit_creation_method CSD-ConQuest-V1
_database_code_CSD FIHLAK
_database_code_depnum_ccdc_archive 'CCDC 225825'
_chemical_formula_sum 'C8 H8 N2 O4'
_chemical_formula_moiety
;
C8 H8 N2 O4
;
_journal_coden_Cambridge 423
_journal_year 2004
_journal_page_first 667
_journal_name_full 'J.Chem.Res. '
loop_
_publ_author_name
"J.R.Hanson"
"P.B.Hitchcock"
"H.Saberi"
_chemical_name_systematic
;
1,3-Dimethyl-2,4-dinitrobenzene
;
_cell_volume    432.070
_exptl_crystal_colour 'colorless'
_exptl_crystal_density_diffrn 1.508
_exptl_crystal_description 'prism'
_diffrn_ambient_temperature 173
#These two values have been output from a single CSD field.
_refine_ls_R_factor_gt 0.0585
_refine_ls_wR_factor_gt 0.0585
_symmetry_cell_setting triclinic
_symmetry_space_group_name_H-M 'P -1'
_symmetry_Int_Tables_number 2
loop_
_symmetry_equiv_pos_site_id
_symmetry_equiv_pos_as_xyz
1 x,y,z
2 -x,-y,-z
_cell_length_a 7.5579(5)
_cell_length_b 8.2416(5)
_cell_length_c 8.6652(6)
_cell_angle_alpha 62.898(4)
_cell_angle_beta 70.565(3)
_cell_angle_gamma 66.147(3)
_cell_formula_units_Z 2
loop_
_atom_type_symbol
_atom_type_radius_bond
C 0.68
H 0.23
N 0.68
O 0.68
loop_
_atom_site_label
_atom_site_type_symbol
_atom_site_fract_x
_atom_site_fract_y
_atom_site_fract_z
O1 O 0.6076(4) 0.6885(4) 0.3144(3)
O2 O 0.4669(4) 0.9673(3) 0.3296(3)
O3 O -0.0909(4) 0.7363(4) 0.8958(3)
O4 O -0.2306(4) 0.5864(4) 0.8458(3)
N1 N 0.4622(4) 0.8150(4) 0.3437(3)
N2 N -0.1142(4) 0.6760(4) 0.7998(4)
C1 C 0.1895(5) 0.7942(4) 0.2697(4)
C2 C 0.2686(5) 0.7820(4) 0.3998(4)
C3 C 0.1836(5) 0.7419(4) 0.5780(4)
C4 C -0.0010(5) 0.7183(4) 0.6186(4)
C5 C -0.0892(5) 0.7290(5) 0.4963(4)
H1 H -0.213(5) 0.711(4) 0.533(4)
C6 C 0.0066(5) 0.7663(5) 0.3233(4)
H2 H -0.048(5) 0.773(4) 0.237(4)
C7 C 0.2954(7) 0.8351(6) 0.0817(5)
H3 H 0.416(7) 0.732(7) 0.076(6)
H4 H 0.216(7) 0.855(7) 0.011(6)
H5 H 0.318(6) 0.953(6) 0.036(5)
C8 C 0.2935(6) 0.7189(6) 0.7064(5)
H6 H 0.445(6) 0.677(5) 0.659(5)
H7 H 0.267(5) 0.836(6) 0.715(5)
H8 H 0.267(4) 0.619(5) 0.826(4)
#END
