
#######################################################################
#
#                 Cambridge Crystallographic Data Centre
#                                CCDC
#
#######################################################################
#
# If this CIF has been generated from an entry in the Cambridge
# Structural Database, then it will include bibliographic, chemical,
# crystal, experimental, refinement or atomic coordinate data resulting
# from the CCDC's data processing and validation procedures.
#
#######################################################################

data_CSD_CIF_FIHLUE
_audit_creation_date 2005-06-02
_audit_creation_method CSD-ConQuest-V1
_database_code_CSD FIHLUE
_database_code_depnum_ccdc_archive 'CCDC 225847 (not 255847 as published)'
_chemical_formula_sum 'C7 H6 N2 O4'
_chemical_formula_moiety
;
C7 H6 N2 O4
;
_journal_coden_Cambridge 423
_journal_year 2004
_journal_page_first 670
_journal_name_full 'J.Chem.Res. '
loop_
_publ_author_name
"J.R.Hanson"
"P.B.Hitchcock"
_chemical_name_systematic
;
3,4-Dinitrotoluene
;
_cell_volume   1600.453
_exptl_crystal_colour 'colorless'
_exptl_crystal_density_diffrn 1.512
_exptl_crystal_description 'prism'
_diffrn_ambient_temperature 173
#These two values have been output from a single CSD field.
_refine_ls_R_factor_gt 0.0493
_refine_ls_wR_factor_gt 0.0493
_symmetry_cell_setting monoclinic
_symmetry_space_group_name_H-M 'P 21/c'
_symmetry_Int_Tables_number 14
loop_
_symmetry_equiv_pos_site_id
_symmetry_equiv_pos_as_xyz
1 x,y,z
2 -x,1/2+y,1/2-z
3 -x,-y,-z
4 x,-1/2-y,-1/2+z
_cell_length_a 7.7258(2)
_cell_length_b 15.8211(5)
_cell_length_c 13.1097(5)
_cell_angle_alpha 90
_cell_angle_beta 92.83
_cell_angle_gamma 90
_cell_formula_units_Z 8
loop_
_atom_type_symbol
_atom_type_radius_bond
C 0.68
H 0.23
N 0.68
O 0.68
loop_
_atom_site_label
_atom_site_type_symbol
_atom_site_fract_x
_atom_site_fract_y
_atom_site_fract_z
O1 O 0.0194(4) 0.36212(13) 0.8217(2)
O2 O 0.2833(3) 0.36348(12) 0.77881(17)
O3 O 0.1625(3) 0.3533(1) 0.57772(14)
O4 O 0.3191(2) 0.25925(12) 0.50789(13)
N1 N 0.1426(3) 0.32987(12) 0.78444(15)
N2 N 0.2238(2) 0.28240(12) 0.57410(14)
C1 C 0.0500(3) 0.09953(14) 0.78280(17)
C2 C 0.0599(3) 0.18418(14) 0.81121(17)
H1 H 0.026(3) 0.2016(14) 0.8768(18)
C3 C 0.1218(3) 0.24345(12) 0.74538(16)
C4 C 0.1733(3) 0.22012(13) 0.64915(15)
C5 C 0.1620(3) 0.13648(14) 0.61975(18)
H2 H 0.192(3) 0.1236(14) 0.551(2)
C6 C 0.1012(3) 0.07712(14) 0.68631(18)
H3 H 0.093(3) 0.0186(17) 0.6655(18)
C7 C -0.0128(4) 0.03508(18) 0.8561(2)
H4 H 0.077(5) 0.001(3) 0.882(3)
H5 H -0.091(4) 0.000(2) 0.827(2)
H6 H -0.086(4) 0.061(2) 0.909(3)
O5 O 0.7699(4) 0.03251(14) 0.50707(15)
O6 O 0.5914(3) 0.12386(15) 0.44101(14)
O7 O 0.8336(2) 0.24335(12) 0.50682(14)
O8 O 0.6939(3) 0.34446(11) 0.57541(16)
N3 N 0.6714(3) 0.09174(13) 0.51288(16)
N4 N 0.7342(3) 0.27038(13) 0.56874(15)
C8 C 0.5486(3) 0.09571(16) 0.78349(17)
C9 C 0.5901(3) 0.06839(15) 0.68666(19)
H7 H 0.573(3) 0.0105(16) 0.6694(17)
C10 C 0.6452(3) 0.12498(13) 0.61606(16)
C11 C 0.6625(3) 0.20987(13) 0.63989(15)
C12 C 0.6218(3) 0.23847(16) 0.73526(17)
H8 H 0.639(3) 0.2986(16) 0.7479(18)
C13 C 0.5637(3) 0.18126(17) 0.80537(19)
H9 H 0.533(3) 0.2020(16) 0.866(2)
C14 C 0.4893(5) 0.0343(2) 0.8618(3)
H10 H 0.588(5) -0.001(3) 0.888(3)
H11 H 0.414(5) 0.061(2) 0.908(3)
H12 H 0.421(5) -0.007(3) 0.829(3)
#END
