
#######################################################################
#
#                 Cambridge Crystallographic Data Centre
#                                CCDC
#
#######################################################################
#
# If this CIF has been generated from an entry in the Cambridge
# Structural Database, then it will include bibliographic, chemical,
# crystal, experimental, refinement or atomic coordinate data resulting
# from the CCDC's data processing and validation procedures.
#
#######################################################################

data_CSD_CIF_FIHMAL
_audit_creation_date 2005-06-02
_audit_creation_method CSD-ConQuest-V1
_database_code_CSD FIHMAL
_database_code_depnum_ccdc_archive 'CCDC 225849 (not 255849 as published)'
_chemical_formula_sum 'C7 H6 N2 O5'
_chemical_formula_moiety
;
C7 H6 N2 O5
;
_journal_coden_Cambridge 423
_journal_year 2004
_journal_page_first 670
_journal_name_full 'J.Chem.Res. '
loop_
_publ_author_name
"J.R.Hanson"
"P.B.Hitchcock"
_chemical_name_systematic
;
2,3-Dinitroanisole
;
_cell_volume    419.832
_exptl_crystal_colour 'colorless'
_exptl_crystal_density_diffrn 1.567
_exptl_crystal_description 'prism'
_diffrn_ambient_temperature 173
#These two values have been output from a single CSD field.
_refine_ls_R_factor_gt 0.0348
_refine_ls_wR_factor_gt 0.0348
_symmetry_cell_setting triclinic
_symmetry_space_group_name_H-M 'P -1'
_symmetry_Int_Tables_number 2
loop_
_symmetry_equiv_pos_site_id
_symmetry_equiv_pos_as_xyz
1 x,y,z
2 -x,-y,-z
_cell_length_a 7.4114(3)
_cell_length_b 7.8862(3)
_cell_length_c 8.1835(3)
_cell_angle_alpha 114.543(2)
_cell_angle_beta 101.604(2)
_cell_angle_gamma 94.008(2)
_cell_formula_units_Z 2
loop_
_atom_type_symbol
_atom_type_radius_bond
C 0.68
H 0.23
N 0.68
O 0.68
loop_
_atom_site_label
_atom_site_type_symbol
_atom_site_fract_x
_atom_site_fract_y
_atom_site_fract_z
O1 O 0.13967(16) 0.42064(17) 1.34701(18)
O2 O 0.11369(16) 0.11853(17) 1.26035(19)
O3 O 0.45625(17) 0.30847(18) 1.55969(16)
O4 O 0.66819(17) 0.13467(18) 1.49049(18)
O5 O 0.15120(16) 0.29556(17) 0.95849(16)
N1 N 0.19038(17) 0.26858(19) 1.27568(18)
N2 N 0.55139(18) 0.22430(19) 1.45528(19)
C1 C 0.3244(2) 0.2743(2) 1.0283(2)
C2 C 0.35260(19) 0.2632(2) 1.1970(2)
C3 C 0.5234(2) 0.2348(2) 1.2776(2)
C4 C 0.6702(2) 0.2208(2) 1.1962(2)
H1 H 0.780(3) 0.203(2) 1.251(2)
C5 C 0.6432(2) 0.2339(2) 1.0307(2)
H2 H 0.742(3) 0.224(2) 0.977(3)
C6 C 0.4741(2) 0.2594(2) 0.9463(2)
H3 H 0.456(2) 0.268(3) 0.828(3)
C7 C 0.1066(3) 0.2744(3) 0.7702(3)
H4 H -0.020(4) 0.287(3) 0.745(3)
H5 H 0.181(3) 0.376(3) 0.759(3)
H6 H 0.127(3) 0.149(3) 0.683(3)
#END
