
#######################################################################
#
#                 Cambridge Crystallographic Data Centre
#                                CCDC
#
#######################################################################
#
# If this CIF has been generated from an entry in the Cambridge
# Structural Database, then it will include bibliographic, chemical,
# crystal, experimental, refinement or atomic coordinate data resulting
# from the CCDC's data processing and validation procedures.
#
#######################################################################

data_CSD_CIF_FIHMOZ
_audit_creation_date 2005-06-02
_audit_creation_method CSD-ConQuest-V1
_database_code_CSD FIHMOZ
_database_code_depnum_ccdc_archive 'CCDC 225852'
_chemical_formula_sum 'C8 H6 N2 O6'
_chemical_formula_moiety
;
C8 H6 N2 O6
;
_journal_coden_Cambridge 423
_journal_year 2004
_journal_page_first 670
_journal_name_full 'J.Chem.Res. '
loop_
_publ_author_name
"J.R.Hanson"
"P.B.Hitchcock"
_chemical_name_systematic
;
Methyl 3,4-dinitrobenzoate
;
_cell_volume    457.446
_exptl_crystal_colour 'colorless'
_exptl_crystal_density_diffrn 1.642
_exptl_crystal_description 'prism'
_diffrn_ambient_temperature 173
#These two values have been output from a single CSD field.
_refine_ls_R_factor_gt 0.0385
_refine_ls_wR_factor_gt 0.0385
_symmetry_cell_setting triclinic
_symmetry_space_group_name_H-M 'P -1'
_symmetry_Int_Tables_number 2
loop_
_symmetry_equiv_pos_site_id
_symmetry_equiv_pos_as_xyz
1 x,y,z
2 -x,-y,-z
_cell_length_a 7.8023(3)
_cell_length_b 7.9080(3)
_cell_length_c 8.3277(3)
_cell_angle_alpha 63.015(2)
_cell_angle_beta 87.666(2)
_cell_angle_gamma 88.142(2)
_cell_formula_units_Z 2
loop_
_atom_type_symbol
_atom_type_radius_bond
C 0.68
H 0.23
N 0.68
O 0.68
loop_
_atom_site_label
_atom_site_type_symbol
_atom_site_fract_x
_atom_site_fract_y
_atom_site_fract_z
O1 O -0.53889(15) 0.69886(18) 0.49419(18)
O2 O -0.39498(15) 0.79631(17) 0.66434(16)
O3 O -0.17928(18) 0.6121(2) 0.0188(2)
O4 O 0.03780(17) 0.79891(18) -0.08047(16)
O5 O 0.30153(16) 0.62694(18) 0.18345(17)
O6 O 0.31218(17) 0.92704(18) 0.11002(18)
N1 N -0.07164(18) 0.7111(2) 0.03472(19)
N2 N 0.24168(18) 0.7734(2) 0.17879(18)
C1 C -0.2373(2) 0.7470(2) 0.4448(2)
C2 C -0.2319(2) 0.7204(2) 0.2905(2)
H1 H -0.332(3) 0.699(2) 0.243(3)
C3 C -0.0761(2) 0.7296(2) 0.2027(2)
C4 C 0.0733(2) 0.7642(2) 0.2680(2)
C5 C 0.0689(2) 0.7860(2) 0.4233(2)
H2 H 0.172(3) 0.804(3) 0.467(3)
C6 C -0.0868(2) 0.7768(2) 0.5118(2)
H3 H -0.092(3) 0.791(3) 0.622(3)
C7 C -0.4078(2) 0.7426(2) 0.5355(2)
C8 C -0.5486(3) 0.7775(3) 0.7750(3)
H4 H -0.648(3) 0.849(4) 0.709(4)
H5 H -0.580(3) 0.643(4) 0.840(3)
H6 H -0.526(3) 0.830(4) 0.855(4)
#END
