
#######################################################################
#
#                 Cambridge Crystallographic Data Centre
#                                CCDC
#
#######################################################################
#
# If this CIF has been generated from an entry in the Cambridge
# Structural Database, then it will include bibliographic, chemical,
# crystal, experimental, refinement or atomic coordinate data resulting
# from the CCDC's data processing and validation procedures.
#
#######################################################################

data_CSD_CIF_FIHMEP01
_audit_creation_date 2017-02-09
_audit_creation_method CSD-ConQuest-V1
_database_code_CSD FIHMEP01
_database_code_depnum_ccdc_archive 'CCDC 863964'
_chemical_formula_sum 'C8 H9 N1 O3'
_chemical_formula_moiety
;
C8 H9 N1 O3
;
_journal_coden_Cambridge 1078
_journal_year 2016
_journal_name_full 'CSD Communication(Private Communication) '
loop_
_publ_author_name
"S.Hashmi"
"M.Bolte"
_chemical_name_systematic
;
4-Methoxy-2-methyl-1-nitrobenzene
;
_cell_volume    792.440
_exptl_crystal_colour 'colorless'
_exptl_crystal_density_diffrn 1.401
_exptl_crystal_description 'block'
_diffrn_ambient_temperature 173
#These two values have been output from a single CSD field.
_refine_ls_R_factor_gt 0.0464
_refine_ls_wR_factor_gt 0.0464
_symmetry_cell_setting triclinic
_symmetry_space_group_name_H-M 'P -1'
_symmetry_Int_Tables_number 2
loop_
_symmetry_equiv_pos_site_id
_symmetry_equiv_pos_as_xyz
1 x,y,z
2 -x,-y,-z
_cell_length_a 7.112(2)
_cell_length_b 10.394(3)
_cell_length_c 10.849(3)
_cell_angle_alpha 95.97(1)
_cell_angle_beta 92.97(1)
_cell_angle_gamma 95.48(1)
_cell_formula_units_Z 4
loop_
_atom_type_symbol
_atom_type_radius_bond
C 0.68
H 0.23
N 0.68
O 0.68
loop_
_atom_site_label
_atom_site_type_symbol
_atom_site_fract_x
_atom_site_fract_y
_atom_site_fract_z
C1 C 0.34209(16) 0.79830(11) 0.30441(11)
N1 N 0.32140(16) 0.92963(11) 0.36115(12)
O1 O 0.2668(2) 0.94313(11) 0.46643(12)
O2 O 0.3572(2) 1.02226(11) 0.30269(13)
C2 C 0.37341(16) 0.77208(12) 0.17788(11)
C3 C 0.3845(2) 0.87033(14) 0.08493(13)
H1 H 0.40630 0.82680 0.00310
H2 H 0.48910 0.93770 0.11090
H3 H 0.26540 0.91030 0.08030
C4 C 0.39217(17) 0.64313(12) 0.13555(11)
H4 H 0.41350 0.62130 0.05050
C5 C 0.38065(16) 0.54486(11) 0.21413(11)
O3 O 0.40637(14) 0.42425(9) 0.16018(9)
C6 C 0.3800(2) 0.31751(13) 0.23329(15)
H5 H 0.40250 0.23690 0.18350
H6 H 0.25020 0.31020 0.25990
H7 H 0.46930 0.33250 0.30640
C7 C 0.34539(18) 0.57342(12) 0.33874(11)
H8 H 0.33440 0.50660 0.39220
C8 C 0.32674(17) 0.70100(12) 0.38297(11)
H9 H 0.30320 0.72220 0.46770
C9 C 0.13201(16) 0.37013(10) 0.77399(11)
N2 N 0.13126(15) 0.50712(10) 0.75566(11)
O4 O 0.0842(2) 0.58192(10) 0.84135(12)
O5 O 0.17657(17) 0.54425(10) 0.65645(10)
C10 C 0.15002(16) 0.27505(11) 0.67487(10)
C11 C 0.1688(2) 0.29809(13) 0.54103(12)
H10 H 0.17810 0.21510 0.49100
H11 H 0.28300 0.35700 0.53420
H12 H 0.05750 0.33710 0.51080
C12 C 0.14744(16) 0.14680(11) 0.70314(10)
H13 H 0.15970 0.07960 0.63850
C13 C 0.12732(16) 0.11501(11) 0.82364(11)
O6 O 0.12297(14) -0.00789(8) 0.85572(9)
C14 C 0.1407(2) -0.11026(12) 0.75921(15)
H14 H 0.13540 -0.19360 0.79430
H15 H 0.26190 -0.09440 0.72160
H16 H 0.03690 -0.11290 0.69570
C15 C 0.11071(17) 0.21229(11) 0.92058(11)
H17 H 0.09820 0.19090 1.00300
C16 C 0.11264(17) 0.33917(12) 0.89524(11)
H18 H 0.10080 0.40600 0.96030
#END
