
#######################################################################
#
#                 Cambridge Crystallographic Data Centre
#                                CCDC
#
#######################################################################
#
# If this CIF has been generated from an entry in the Cambridge
# Structural Database, then it will include bibliographic, chemical,
# crystal, experimental, refinement or atomic coordinate data resulting
# from the CCDC's data processing and validation procedures.
#
#######################################################################

data_CSD_CIF_FIHMEP
_audit_creation_date 2005-06-02
_audit_creation_method CSD-ConQuest-V1
_database_code_CSD FIHMEP
_database_code_depnum_ccdc_archive 'CCDC 225850; not CCDC 255850 as published'
_chemical_formula_sum 'C8 H9 N1 O3'
_chemical_formula_moiety
;
C8 H9 N1 O3
;
_journal_coden_Cambridge 423
_journal_year 2004
_journal_page_first 670
_journal_name_full 'J.Chem.Res. '
loop_
_publ_author_name
"J.R.Hanson"
"P.B.Hitchcock"
_chemical_name_systematic
;
3-Methyl-4-nitroanisole
;
_cell_volume    790.499
_exptl_crystal_colour 'colorless'
_exptl_crystal_density_diffrn 1.405
_exptl_crystal_description 'needle'
_diffrn_ambient_temperature 173
#These two values have been output from a single CSD field.
_refine_ls_R_factor_gt 0.0628
_refine_ls_wR_factor_gt 0.0628
_symmetry_cell_setting triclinic
_symmetry_space_group_name_H-M 'P -1'
_symmetry_Int_Tables_number 2
loop_
_symmetry_equiv_pos_site_id
_symmetry_equiv_pos_as_xyz
1 x,y,z
2 -x,-y,-z
_cell_length_a 7.1047(9)
_cell_length_b 10.3834(14)
_cell_length_c 10.8386(16)
_cell_angle_alpha 95.878(7)
_cell_angle_beta 92.896(7)
_cell_angle_gamma 95.312(5)
_cell_formula_units_Z 4
loop_
_atom_type_symbol
_atom_type_radius_bond
C 0.68
H 0.23
N 0.68
O 0.68
loop_
_atom_site_label
_atom_site_type_symbol
_atom_site_fract_x
_atom_site_fract_y
_atom_site_fract_z
O1 O 0.3773(3) 0.0088(2) -0.3551(2)
O2 O 0.3234(4) -0.5444(2) -0.1563(3)
O3 O 0.4148(4) -0.5813(3) -0.3415(3)
N1 N 0.3692(4) -0.5066(3) -0.2561(3)
C1 C 0.3725(4) -0.1151(3) -0.3229(3)
C2 C 0.3532(4) -0.1478(3) -0.2031(3)
H1 H 0.337(4) -0.088(3) -0.143(3)
C3 C 0.3503(4) -0.2745(3) -0.1750(3)
C4 C 0.3674(4) -0.3692(3) -0.2731(3)
C5 C 0.3871(4) -0.3383(4) -0.3941(3)
H2 H 0.399(4) -0.404(4) -0.455(3)
C6 C 0.3892(4) -0.2113(3) -0.4198(3)
H3 H 0.403(5) -0.201(3) -0.506(4)
C7 C 0.3596(6) 0.1108(4) -0.2587(4)
H4 H 0.378(5) 0.192(4) -0.300(4)
H5 H 0.466(5) 0.108(3) -0.193(3)
H6 H 0.244(5) 0.096(4) -0.212(4)
C8 C 0.3304(6) -0.2983(4) -0.0414(3)
H7 H 0.318(6) -0.215(5) 0.009(4)
H8 H 0.432(5) -0.339(3) -0.011(3)
H9 H 0.208(5) -0.347(4) -0.028(3)
O4 O 0.0941(3) 0.5757(2) 0.3399(2)
O5 O 0.1429(4) -0.0219(3) 0.1967(3)
O6 O 0.2335(4) 0.0576(3) 0.0336(3)
N2 N 0.1788(4) 0.0708(3) 0.1389(3)
C9 C 0.1197(4) 0.4551(3) 0.2857(3)
C10 C 0.1086(4) 0.3562(4) 0.3644(4)
H10 H 0.086(5) 0.374(4) 0.448(4)
C11 C 0.1264(4) 0.2276(3) 0.3225(3)
C12 C 0.1587(4) 0.2022(3) 0.1960(3)
C13 C 0.1730(4) 0.2999(4) 0.1180(4)
H11 H 0.199(4) 0.267(3) 0.035(3)
C14 C 0.1547(4) 0.4263(4) 0.1624(3)
H12 H 0.164(4) 0.487(3) 0.105(3)
C15 C 0.1199(7) 0.6829(4) 0.2671(4)
H13 H 0.098(6) 0.757(5) 0.320(4)
H14 H 0.032(6) 0.673(4) 0.193(4)
H15 H 0.246(5) 0.691(3) 0.232(3)
C16 C 0.1152(6) 0.1295(4) 0.4154(4)
H16 H 0.008(6) 0.070(4) 0.400(4)
H17 H 0.231(5) 0.082(3) 0.416(3)
H18 H 0.109(6) 0.180(4) 0.505(4)
#END
