
#######################################################################
#
#                 Cambridge Crystallographic Data Centre
#                                CCDC
#
#######################################################################
#
# If this CIF has been generated from an entry in the Cambridge
# Structural Database, then it will include bibliographic, chemical,
# crystal, experimental, refinement or atomic coordinate data resulting
# from the CCDC's data processing and validation procedures.
#
#######################################################################

data_CSD_CIF_FIHNOA
_audit_creation_date 2005-06-02
_audit_creation_method CSD-ConQuest-V1
_database_code_CSD FIHNOA
_database_code_depnum_ccdc_archive 'CCDC 231007'
_chemical_formula_sum 'C9 H14 N2 O4'
_chemical_formula_moiety
;
C9 H14 N2 O4
;
_journal_coden_Cambridge 35
_journal_volume 70
_journal_year 2005
_journal_page_first 856
_journal_name_full 'J.Org.Chem. '
loop_
_publ_author_name
"F.M.Cordero"
"F.Pisaneschi"
"K.M.Batista"
"S.Valenza"
"F.Machetti"
"A.Brandi"
_chemical_name_systematic
;
exo-(Methyl 
(2R*,3aS*)-2-(aminocarbonyl)tetrahydropyrrolo(1,2-b)isoxazole-3a(4H)-carboxyla
te)
;
_chemical_melting_point 436.15
_cell_volume    511.035
_exptl_crystal_colour 'colorless'
_exptl_crystal_density_diffrn 1.392
_exptl_special_details
;
Melting point range 436.15-437.15K

;
_diffrn_ambient_temperature 293
#These two values have been output from a single CSD field.
_refine_ls_R_factor_gt 0.0485
_refine_ls_wR_factor_gt 0.0485
_symmetry_cell_setting triclinic
_symmetry_space_group_name_H-M 'P -1'
_symmetry_Int_Tables_number 2
loop_
_symmetry_equiv_pos_site_id
_symmetry_equiv_pos_as_xyz
1 x,y,z
2 -x,-y,-z
_cell_length_a 5.178(1)
_cell_length_b 7.536(1)
_cell_length_c 14.232(1)
_cell_angle_alpha 95.170(9)
_cell_angle_beta 99.84(1)
_cell_angle_gamma 108.99(1)
_cell_formula_units_Z 2
loop_
_atom_type_symbol
_atom_type_radius_bond
C 0.68
H 0.23
N 0.68
O 0.68
loop_
_atom_site_label
_atom_site_type_symbol
_atom_site_fract_x
_atom_site_fract_y
_atom_site_fract_z
O1 O 0.4043(3) -0.02583(19) 0.37019(10)
O2 O 0.7795(3) -0.3135(2) 0.46501(12)
O3 O 0.2682(5) -0.3557(3) 0.1449(2)
O4 O 0.1264(4) -0.1259(3) 0.09985(15)
N1 N 0.4112(4) 0.0673(2) 0.28604(12)
N2 N 0.3212(4) -0.3521(3) 0.43768(14)
H1 H 0.203(6) -0.306(4) 0.422(2)
H2 H 0.283(7) -0.456(5) 0.470(2)
C1 C 0.5367(4) -0.0328(3) 0.22178(15)
C2 C 0.7018(6) 0.1245(4) 0.1699(2)
H3 H 0.885(7) 0.126(4) 0.176(2)
H4 H 0.607(7) 0.092(5) 0.098(3)
C3 C 0.6701(8) 0.3084(4) 0.2140(3)
H5? H 0.852(6) 0.276(4) 0.256(2)
H6 H 0.856(8) 0.432(6) 0.222(3)
C4 C 0.6037(6) 0.2665(3) 0.31006(19)
H7 H 0.511(7) 0.335(5) 0.337(3)
H8 H 0.780(7) 0.277(4) 0.360(2)
C5 C 0.6469(4) -0.0823(3) 0.38774(15)
H9 H 0.790(5) 0.013(3) 0.4300(18)
C6 C 0.5828(4) -0.2595(3) 0.43449(14)
C7 C 0.7158(6) -0.1169(4) 0.28918(18)
H10 H 0.663(7) -0.260(5) 0.266(2)
H11 H 0.913(7) -0.066(4) 0.291(2)
C8 C 0.2993(5) -0.1904(3) 0.15231(17)
C9 C -0.1088(7) -0.2630(5) 0.0318(2)
H12 H -0.21860 -0.19850 -0.00220
H13 H -0.22180 -0.35130 0.06590
H14 H -0.04230 -0.33040 -0.01340
#END
