
#######################################################################
#
#                 Cambridge Crystallographic Data Centre
#                                CCDC
#
#######################################################################
#
# If this CIF has been generated from an entry in the Cambridge
# Structural Database, then it will include bibliographic, chemical,
# crystal, experimental, refinement or atomic coordinate data resulting
# from the CCDC's data processing and validation procedures.
#
#######################################################################

data_CSD_CIF_FIJBUY
_audit_creation_date 2018-08-31
_audit_creation_method CSD-ConQuest-V1
_database_code_CSD FIJBUY
_database_code_depnum_ccdc_archive 'CCDC 1576039'
_chemical_formula_sum 'C24 H23 N1 O4'
_chemical_formula_moiety
;
C24 H23 N1 O4
;
_journal_coden_Cambridge 1220
_journal_volume 24
_journal_year 2018
_journal_page_first 8071
_journal_name_full 'Chem.-Eur.J. '
loop_
_publ_author_name
"C.Sauvee"
"A.Strom"
"M.Haukka"
"H.Sunden"
_chemical_name_systematic
;
methyl 6-oxo-6-(1-oxidopyridin-3-yl)-3,4-diphenylhexanoate
;
_cell_volume   3918.093
_exptl_crystal_colour 'colorless'
_exptl_crystal_density_diffrn 1.32
_exptl_crystal_description 'needle'
_diffrn_ambient_temperature 120
#These two values have been output from a single CSD field.
_refine_ls_R_factor_gt 0.0913
_refine_ls_wR_factor_gt 0.0913
_symmetry_cell_setting monoclinic
_symmetry_space_group_name_H-M 'P 21/n'
_symmetry_Int_Tables_number 14
loop_
_symmetry_equiv_pos_site_id
_symmetry_equiv_pos_as_xyz
1 x,y,z
2 1/2-x,1/2+y,1/2-z
3 -x,-y,-z
4 -1/2+x,-1/2-y,-1/2+z
_cell_length_a 5.8253(5)
_cell_length_b 29.207(2)
_cell_length_c 23.1765(17)
_cell_angle_alpha 90
_cell_angle_beta 96.474(8)
_cell_angle_gamma 90
_cell_formula_units_Z 8
loop_
_atom_type_symbol
_atom_type_radius_bond
C 0.68
H 0.23
N 0.68
O 0.68
loop_
_atom_site_label
_atom_site_type_symbol
_atom_site_fract_x
_atom_site_fract_y
_atom_site_fract_z
O1 O 0.3249(5) 0.55781(11) 0.10713(14)
O2 O 0.5908(6) 0.55836(12) 0.18459(16)
O3 O -0.2822(5) 0.51943(12) 0.36748(16)
O4 O 0.3016(5) 0.38191(10) 0.49951(14)
N1 N 0.1275(6) 0.40958(11) 0.48925(15)
C1 C 0.5140(9) 0.55129(18) 0.0726(2)
H1 H 0.45331 0.54891 0.03154
H2 H 0.59706 0.52312 0.08484
H3 H 0.61974 0.57742 0.07809
C2 C 0.3916(8) 0.56041(14) 0.16400(19)
C3 C 0.1887(7) 0.56556(14) 0.19911(18)
H4 H 0.04169 0.56132 0.17377
H5 H 0.18878 0.59654 0.21645
C4 C 0.2123(8) 0.52890(15) 0.2474(2)
H6 H 0.37414 0.53004 0.26702
C5 C 0.1711(8) 0.48098(15) 0.2209(2)
C6 C -0.0481(9) 0.46798(17) 0.1940(2)
H7 H -0.17087 0.48957 0.19084
C7 C -0.0878(9) 0.42377(17) 0.1719(2)
H8 H -0.23575 0.41532 0.15353
C8 C 0.0907(9) 0.39280(15) 0.1772(2)
H9 H 0.06758 0.36264 0.16225
C9 C 0.3042(10) 0.40584(16) 0.2043(2)
H10 H 0.42730 0.38432 0.20785
C10 C 0.3425(10) 0.44924(16) 0.2263(2)
H11 H 0.49008 0.45708 0.24548
C11 C 0.0501(8) 0.53650(16) 0.2930(2)
H12 H -0.11235 0.53305 0.27433
C12 C 0.0817(8) 0.58639(16) 0.3180(2)
C13 C -0.0999(9) 0.61637(15) 0.3099(2)
H13 H -0.24182 0.60698 0.28905
C14 C -0.0766(8) 0.66056(14) 0.3322(2)
H14 H -0.20252 0.68129 0.32556
C15 C 0.1239(8) 0.67481(13) 0.3636(2)
H15 H 0.13354 0.70454 0.38031
C16 C 0.3130(8) 0.64566(16) 0.3709(2)
H16 H 0.45439 0.65544 0.39169
C17 C 0.2920(8) 0.60155(16) 0.3471(2)
H17 H 0.42187 0.58166 0.35077
C18 C 0.0921(7) 0.50147(13) 0.34238(17)
H18 H 0.11953 0.47107 0.32553
H19 H 0.23370 0.51019 0.36770
C19 C -0.1032(7) 0.49772(14) 0.37856(18)
C20 C -0.0784(7) 0.46656(13) 0.42986(17)
C21 C -0.2543(7) 0.46608(14) 0.46648(18)
H20 H -0.38584 0.48526 0.45871
C22 C -0.2330(7) 0.43729(15) 0.51397(18)
H21 H -0.35167 0.43634 0.53890
C23 C -0.0423(7) 0.41013(14) 0.52534(18)
H22 H -0.02758 0.39128 0.55896
C24 C 0.1113(7) 0.43779(13) 0.44177(17)
H23 H 0.23011 0.43771 0.41686
O5 O 1.4463(5) 0.07152(10) 0.53567(14)
O6 O 1.6864(6) 0.13014(12) 0.5250(2)
O7 O 0.6982(5) 0.28114(12) 0.48758(15)
O8 O 0.4722(6) 0.40878(12) 0.35426(16)
N2 N 0.6476(6) 0.38093(13) 0.36164(16)
C25 C 1.6441(9) 0.04273(17) 0.5509(2)
H24 H 1.72667 0.03819 0.51682
H25 H 1.59314 0.01304 0.56453
H26 H 1.74720 0.05736 0.58188
C26 C 1.4924(8) 0.11539(14) 0.52336(19)
C27 C 1.2774(8) 0.14154(15) 0.5072(2)
H27 H 1.15853 0.13021 0.53102
H28 H 1.22242 0.13464 0.46612
C28 C 1.2930(7) 0.19307(14) 0.5140(2)
H29 H 1.44039 0.20372 0.50012
C29 C 1.3028(8) 0.20348(16) 0.5807(2)
C30 C 1.1170(9) 0.19213(17) 0.6120(2)
H30 H 0.98488 0.17749 0.59248
C31 C 1.1228(9) 0.20202(16) 0.6719(3)
H31 H 0.99498 0.19418 0.69200
C32 C 1.3163(8) 0.22334(14) 0.7015(2)
H32 H 1.32557 0.22897 0.74203
C33 C 1.4945(8) 0.23604(14) 0.6698(2)
H33 H 1.62571 0.25130 0.68885
C34 C 1.4849(9) 0.22687(16) 0.6106(2)
H34 H 1.60776 0.23705 0.59012
C35 C 1.0947(8) 0.21774(16) 0.4801(2)
H35 H 0.94830 0.20567 0.49306
C36 C 1.0921(9) 0.20664(17) 0.4157(2)
C37 C 0.9073(10) 0.18380(18) 0.3866(3)
H36 H 0.78120 0.17516 0.40690
C38 C 0.9021(10) 0.17346(18) 0.3296(3)
H37 H 0.77187 0.15809 0.31018
C39 C 1.0836(10) 0.18501(17) 0.2998(2)
H38 H 1.07733 0.17834 0.25950
C40 C 1.2769(10) 0.20646(18) 0.3283(2)
H39 H 1.40369 0.21409 0.30770
C41 C 1.2841(9) 0.21651(19) 0.3857(2)
H40 H 1.41829 0.23016 0.40571
C42 C 1.1031(7) 0.27039(14) 0.4920(2)
H41 H 1.12865 0.27620 0.53434
H42 H 1.23176 0.28443 0.47379
C43 C 0.8757(7) 0.29102(13) 0.46679(18)
C44 C 0.8628(7) 0.32323(14) 0.41668(18)
C45 C 1.0326(7) 0.32453(16) 0.3781(2)
H43 H 1.16646 0.30579 0.38410
C46 C 0.9983(8) 0.35405(17) 0.3311(2)
H44 H 1.10881 0.35517 0.30393
C47 C 0.8081(8) 0.38149(17) 0.3233(2)
H45 H 0.78728 0.40130 0.29062
C48 C 0.6737(7) 0.35170(14) 0.40755(19)
H46 H 0.55961 0.35089 0.43377
#END
