
#######################################################################
#
#                 Cambridge Crystallographic Data Centre
#                                CCDC
#
#######################################################################
#
# If this CIF has been generated from an entry in the Cambridge
# Structural Database, then it will include bibliographic, chemical,
# crystal, experimental, refinement or atomic coordinate data resulting
# from the CCDC's data processing and validation procedures.
#
#######################################################################

data_CSD_CIF_FIJFOT
_audit_creation_date 1988-01-14
_audit_creation_method CSD-ConQuest-V1
_database_code_CSD FIJFOT
_database_code_depnum_ccdc_archive 'CCDC 1156278'
_chemical_formula_sum 'C28 H40 N2 O2'
_chemical_formula_moiety
;
C28 H40 N2 O2
;
_journal_coeditor_code "IUCr A27003"
_journal_coden_Cambridge 591
_journal_volume 43
_journal_year 1987
_journal_page_first 748
_journal_name_full 'Acta Crystallogr.,Sect.C:Cryst.Struct.Commun. '
loop_
_publ_author_name
"T.Taga"
"T.Miyasaka"
_chemical_name_systematic
;
(E)-O-Palmitoyl phenyl 2-pyridyl ketone oxime
;
_chemical_name_common
;
Phenyl(2-pyridyl)methyleneamino palmitate
;
_cell_volume   2570.436
_exptl_crystal_colour 'colorless'
_exptl_crystal_density_diffrn 1.128
_diffrn_ambient_temperature ?
_diffrn_special_details
;
The study was carried out at room temperature,in the range 283-303K

;
#These two values have been output from a single CSD field.
_refine_ls_R_factor_gt 0.06
_refine_ls_wR_factor_gt 0.06
_symmetry_cell_setting monoclinic
_symmetry_space_group_name_H-M 'P 21/n'
_symmetry_Int_Tables_number 14
loop_
_symmetry_equiv_pos_site_id
_symmetry_equiv_pos_as_xyz
1 x,y,z
2 1/2-x,1/2+y,1/2-z
3 -x,-y,-z
4 -1/2+x,-1/2-y,-1/2+z
_cell_length_a 8.195(2)
_cell_length_b 54.46(1)
_cell_length_c 5.800(1)
_cell_angle_alpha 90
_cell_angle_beta 96.78(2)
_cell_angle_gamma 90
_cell_formula_units_Z 4
loop_
_atom_type_symbol
_atom_type_radius_bond
C 0.68
H 0.23
N 0.68
O 0.68
loop_
_atom_site_label
_atom_site_type_symbol
_atom_site_fract_x
_atom_site_fract_y
_atom_site_fract_z
N1 N 0.7836(2) 0.33480 1.3471(4)
C1 C 0.7748(3) 0.3165(1) 1.4817(4)
C2 C 0.9176(3) 0.31540 1.6694(4)
C3 C 1.0558(3) 0.3295(1) 1.6538(5)
C4 C 1.1842(3) 0.3280(1) 1.8324(6)
C5 C 1.1707(3) 0.3127(1) 2.0142(5)
C6 C 1.0294(4) 0.2993(1) 2.0154(6)
N2 N 0.9024(3) 0.30020 1.8443(4)
C7 C 0.6453(3) 0.29730 1.4579(5)
C8 C 0.5342(4) 0.2948(1) 1.6158(5)
C9 C 0.4107(4) 0.2773(1) 1.5843(6)
C10 C 0.4001(3) 0.2618(1) 1.3995(6)
C11 C 0.5108(4) 0.2640(1) 1.2407(6)
C12 C 0.6317(4) 0.2817(1) 1.2687(5)
O1 O 0.6457(2) 0.33540 1.1688(3)
C13 C 0.6629(3) 0.3530(1) 1.0048(5)
O2 O 0.5503(2) 0.35450 0.8525(4)
C14 C 0.8135(5) 0.3686(1) 1.0215(5)
C15 C 0.8113(3) 0.3858(1) 0.8179(5)
C16 C 0.9574(3) 0.4031(1) 0.8312(5)
C17 C 0.9471(3) 0.4209(1) 0.6287(5)
C18 C 1.0847(3) 0.4394(1) 0.6386(5)
C19 C 1.0697(3) 0.4571(1) 0.4356(5)
C20 C 1.2066(3) 0.4758(1) 0.4411(5)
C21 C 1.1914(3) 0.4934(1) 0.2385(5)
C22 C 1.3289(3) 0.5122(1) 0.2448(5)
C23 C 1.3141(3) 0.5297(1) 0.0417(5)
C24 C 1.4512(3) 0.5484(1) 0.0483(5)
C25 C 1.4372(3) 0.5660(1) -0.1539(5)
C26 C 1.5735(3) 0.5849(1) -0.1478(5)
C27 C 1.5580(4) 0.6023(1) -0.3517(5)
C28 C 1.6940(4) 0.6212(1) -0.3461(7)
H1 H 1.064(3) 0.340(1) 1.519(4)
H2 H 1.283(4) 0.338(1) 1.830(5)
H3 H 1.258(4) 0.311(1) 2.145(5)
H4 H 1.016(3) 0.288(1) 2.149(4)
H5 H 0.541(3) 0.305(1) 1.752(5)
H6 H 0.332(4) 0.275(1) 1.698(5)
H7 H 0.311(4) 0.249(1) 1.378(5)
H8 H 0.507(3) 0.252(1) 1.103(5)
H9 H 0.707(4) 0.283(1) 1.147(5)
H10 H 0.817(3) 0.378(1) 1.168(4)
H11 H 0.910(3) 0.357(1) 1.030(4)
H12 H 0.709(3) 0.396(1) 0.806(4)
H13 H 0.806(3) 0.376(1) 0.672(4)
H14 H 0.962(3) 0.413(1) 0.977(4)
H15 H 1.061(3) 0.394(1) 0.834(4)
H16 H 0.946(3) 0.411(1) 0.482(4)
H17 H 0.840(3) 0.430(1) 0.625(4)
H18 H 1.192(3) 0.430(1) 0.644(5)
H19 H 1.087(3) 0.449(1) 0.784(4)
H20 H 0.962(3) 0.466(1) 0.428(4)
H21 H 1.071(3) 0.447(1) 0.290(4)
H22 H 1.314(3) 0.467(1) 0.447(4)
H23 H 1.210(3) 0.486(1) 0.586(4)
H24 H 1.192(3) 0.483(1) 0.091(5)
H25 H 1.084(3) 0.502(1) 0.231(4)
H26 H 1.329(3) 0.522(1) 0.391(4)
H27 H 1.434(3) 0.503(1) 0.250(5)
H28 H 1.208(3) 0.538(1) 0.035(4)
H29 H 1.312(3) 0.520(1) -0.106(5)
H30 H 1.557(3) 0.539(1) 0.055(5)
H31 H 1.452(3) 0.558(1) 0.196(4)
H32 H 1.438(3) 0.556(1) -0.301(4)
H33 H 1.331(3) 0.575(1) -0.159(5)
H34 H 1.575(3) 0.594(1) -0.005(5)
H35 H 1.677(3) 0.576(1) -0.142(5)
H36 H 1.557(3) 0.592(1) -0.496(5)
H37 H 1.450(3) 0.612(1) -0.357(4)
H38 H 1.682(4) 0.632(1) -0.487(5)
H39 H 1.803(4) 0.613(1) -0.347(5)
H40 H 1.697(4) 0.632(1) -0.210(5)
#END
