
#######################################################################
#
#                 Cambridge Crystallographic Data Centre
#                                CCDC
#
#######################################################################
#
# If this CIF has been generated from an entry in the Cambridge
# Structural Database, then it will include bibliographic, chemical,
# crystal, experimental, refinement or atomic coordinate data resulting
# from the CCDC's data processing and validation procedures.
#
#######################################################################

data_CSD_CIF_FIJFAF
_audit_creation_date 1988-01-14
_audit_creation_method CSD-ConQuest-V1
_database_code_CSD FIJFAF
_database_code_depnum_ccdc_archive 'CCDC 1156275'
_chemical_formula_sum 'C17 H17 N3 O4'
_chemical_formula_moiety
;
C17 H17 N3 O4
;
_journal_coeditor_code "IUCr A26987"
_journal_coden_Cambridge 591
_journal_volume 43
_journal_year 1987
_journal_page_first 707
_journal_name_full 'Acta Crystallogr.,Sect.C:Cryst.Struct.Commun. '
loop_
_publ_author_name
"D.A.Langs"
"P.D.Strong"
"D.J.Triggle"
_chemical_name_systematic
;
Ethyl 5-cyano-2,6-dimethyl-4-(2-nitrophenyl)-1,4-dihydropyridine-3-carboxylate
;
_cell_volume   1642.695
_exptl_crystal_colour 'yellow'
_exptl_crystal_density_diffrn 1.32
_diffrn_ambient_temperature ?
_diffrn_special_details
;
The study was carried out at room temperature,in the range 283-303K

;
_refine_special_details
;
C21 methyl group exhibits twofold rotational disorder; the occupancy of each 
conformer was fixed at 0.5. The hydrogens H21A'-H21C' have not been retained.
;
#These two values have been output from a single CSD field.
_refine_ls_R_factor_gt 0.051
_refine_ls_wR_factor_gt 0.051
_symmetry_cell_setting monoclinic
_symmetry_space_group_name_H-M 'P 21/c'
_symmetry_Int_Tables_number 14
loop_
_symmetry_equiv_pos_site_id
_symmetry_equiv_pos_as_xyz
1 x,y,z
2 -x,1/2+y,1/2-z
3 -x,-y,-z
4 x,-1/2-y,-1/2+z
_cell_length_a 7.983(2)
_cell_length_b 15.614(4)
_cell_length_c 13.405(4)
_cell_angle_alpha 90
_cell_angle_beta 100.54(3)
_cell_angle_gamma 90
_cell_formula_units_Z 4
loop_
_atom_type_symbol
_atom_type_radius_bond
C 0.68
H 0.23
N 0.68
O 0.68
loop_
_atom_site_label
_atom_site_type_symbol
_atom_site_fract_x
_atom_site_fract_y
_atom_site_fract_z
N1 N 0.6703(2) 0.1698(1) 0.0457(1)
C1 C 0.6463(3) 0.1910(1) 0.1412(2)
C2 C 0.6714(2) 0.1311(1) 0.2146(1)
C3 C 0.7310(2) 0.0408(1) 0.1986(1)
C4 C 0.7248(2) 0.0242(1) 0.0859(1)
C5 C 0.6998(3) 0.0876(1) 0.0165(2)
C6 C 0.9115(2) 0.0277(1) 0.2593(1)
C7 C 1.0445(3) 0.0727(2) 0.2294(2)
C8 C 1.2102(3) 0.0654(2) 0.2810(2)
C9 C 1.2476(4) 0.0115(2) 0.3628(2)
C10 C 1.1212(4) -0.0359(2) 0.3930(2)
C11 C 0.9552(3) -0.0276(2) 0.3410(2)
C12 C 0.5925(5) 0.2809(2) 0.1542(3)
C13 C 0.6491(3) 0.1556(1) 0.3143(2)
C14 C 0.7461(3) -0.0647(1) 0.0548(2)
C15 C 0.7728(4) -0.2094(2) 0.1140(3)
C16 C 0.9535(4) -0.2321(3) 0.1207(4)
C17 C 0.6982(4) 0.0785(4) -0.0949(2)
N2 N 0.8256(4) -0.0805(2) 0.3764(2)
N3 N 0.6333(3) 0.1763(1) 0.3936(2)
O1 O 0.6884(3) -0.0483(2) 0.3833(2)
O2 O 0.8635(4) -0.1540(2) 0.3986(3)
O3 O 0.7559(3) -0.0902(1) -0.0285(1)
O4 O 0.7504(2) -0.1191(1) 0.1333(1)
H1 H 0.656(3) 0.208(2) 0.001(2)
H2 H 0.642(2) -0.001(1) 0.227(1)
H3 H 1.019(3) 0.108(1) 0.169(2)
H4 H 1.294(4) 0.100(2) 0.256(2)
H5 H 1.364(4) 0.008(2) 0.394(2)
H6 H 1.131(4) -0.078(2) 0.446(3)
H7 H 0.608(9) 0.299(4) 0.225(4)
H8 H 0.555(7) 0.311(3) 0.094(3)
H9 H 0.704(10) 0.318(5) 0.181(7)
H10 H 0.709(4) -0.221(2) 0.045(2)
H11 H 0.736(4) -0.241(2) 0.167(3)
H12 H 0.994(4) -0.218(2) 0.198(3)
H13 H 0.966(6) -0.296(3) 0.121(3)
H14 H 0.983(5) -0.197(3) 0.053(3)
H15 H 0.809(5) 0.064(2) -0.113(3)
H16 H 0.664(4) 0.133(2) -0.127(2)
H17 H 0.625(4) 0.034(2) -0.123(2)
#END
