
#######################################################################
#
#                 Cambridge Crystallographic Data Centre
#                                CCDC
#
#######################################################################
#
# If this CIF has been generated from an entry in the Cambridge
# Structural Database, then it will include bibliographic, chemical,
# crystal, experimental, refinement or atomic coordinate data resulting
# from the CCDC's data processing and validation procedures.
#
#######################################################################

data_CSD_CIF_FIJHAH
_audit_creation_date 1988-01-14
_audit_creation_method CSD-ConQuest-V1
_database_code_CSD FIJHAH
_database_code_depnum_ccdc_archive 'CCDC 1156285'
_chemical_formula_sum 'C13 H4 N4 O9'
_chemical_formula_moiety
;
C13 H4 N4 O9
;
_journal_coeditor_code "IUCr A27076"
_journal_coden_Cambridge 591
_journal_volume 43
_journal_year 1987
_journal_page_first 931
_journal_name_full 'Acta Crystallogr.,Sect.C:Cryst.Struct.Commun. '
loop_
_publ_author_name
"L.A.Chetkina"
"O.V.Semidetko"
"V.K.Bel'skii"
"A.N.Sobolev"
"A.M.Andrievsky"
_chemical_name_systematic
;
2,4,5,7-Tetranitro-9-fluorenone
;
_chemical_melting_point 526.5
_cell_volume   2823.385
_exptl_crystal_colour 'yellow'
_exptl_crystal_density_diffrn 1.69
_exptl_special_details
;
Melting point range 526.5-527K

;
_diffrn_ambient_temperature ?
_diffrn_special_details
;
The study was carried out at room temperature,in the range 283-303K

;
#These two values have been output from a single CSD field.
_refine_ls_R_factor_gt 0.053
_refine_ls_wR_factor_gt 0.053
_symmetry_cell_setting monoclinic
_symmetry_space_group_name_H-M 'P 21/a'
_symmetry_Int_Tables_number 14
loop_
_symmetry_equiv_pos_site_id
_symmetry_equiv_pos_as_xyz
1 x,y,z
2 1/2-x,1/2+y,-z
3 -x,-y,-z
4 -1/2+x,-1/2-y,z
_cell_length_a 22.900(4)
_cell_length_b 10.873(2)
_cell_length_c 11.647(2)
_cell_angle_alpha 90
_cell_angle_beta 103.20(1)
_cell_angle_gamma 90
_cell_formula_units_Z 8
loop_
_atom_type_symbol
_atom_type_radius_bond
C 0.68
H 0.23
N 0.68
O 0.68
loop_
_atom_site_label
_atom_site_type_symbol
_atom_site_fract_x
_atom_site_fract_y
_atom_site_fract_z
O1 O 0.2004(2) 0.0140(3) 0.3136(3)
O2 O 0.4247(2) 0.1217(4) 0.5271(4)
O3 O 0.4367(2) 0.2484(4) 0.6723(3)
O4 O 0.2725(2) 0.3115(4) 0.8630(3)
O5 O 0.1939(2) 0.1988(4) 0.7988(3)
O6 O 0.1529(2) 0.4031(3) 0.6631(3)
O7 O 0.0763(2) 0.3295(5) 0.7239(4)
O8 O -0.0658(1) 0.1218(4) 0.4126(4)
O9 O -0.0365(2) 0.0565(7) 0.2628(5)
N1 N 0.4060(2) 0.1830(4) 0.5978(4)
N2 N 0.2406(2) 0.2502(4) 0.7867(4)
N3 N 0.1114(2) 0.3297(4) 0.6594(4)
N4 N -0.0274(2) 0.0993(5) 0.3607(5)
C1 C 0.3041(2) 0.1273(5) 0.4946(4)
C2 C 0.3409(2) 0.1822(4) 0.5914(4)
C3 C 0.3199(2) 0.2279(4) 0.6836(4)
C4 C 0.2592(2) 0.2250(4) 0.6773(4)
C5 C 0.1041(2) 0.2309(4) 0.5703(4)
C6 C 0.0457(2) 0.2038(5) 0.5136(4)
C7 C 0.0355(2) 0.1265(5) 0.4189(4)
C8 C 0.0810(2) 0.0773(5) 0.3750(4)
C9 C 0.1954(2) 0.0726(4) 0.3986(4)
C10 C 0.2434(2) 0.1318(4) 0.4881(4)
C11 C 0.2187(2) 0.1849(4) 0.5763(4)
C12 C 0.1523(2) 0.1775(4) 0.5366(4)
C13 C 0.1384(2) 0.1032(4) 0.4343(4)
H1 H 0.317(2) 0.092(4) 0.432(4)
H2 H 0.342(2) 0.262(4) 0.751(4)
H3 H 0.016(2) 0.234(4) 0.547(4)
H4 H 0.076(2) 0.029(4) 0.307(4)
O10 O 0.1674(2) -0.0343(3) -0.0699(3)
O11 O 0.4028(2) 0.0112(4) 0.0906(4)
O12 O 0.4333(2) 0.1481(4) 0.2244(4)
O13 O 0.2884(2) 0.4200(4) 0.3425(3)
O14 O 0.2195(2) 0.4692(3) 0.1855(3)
O15 O 0.1601(2) 0.3420(4) 0.3223(4)
O16 O 0.0941(2) 0.4794(4) 0.2326(4)
O17 O -0.0716(2) 0.2826(5) -0.0462(4)
O18 O -0.0572(2) 0.1040(4) -0.1132(4)
N5 N 0.3940(2) 0.0938(4) 0.1539(4)
N6 N 0.2564(2) 0.3943(4) 0.2480(4)
N7 N 0.1209(2) 0.3833(4) 0.2339(4)
N8 N -0.0395(2) 0.1977(6) -0.0592(4)
C14 C 0.2861(2) 0.0675(4) 0.0763(4)
C15 C 0.3315(2) 0.1333(5) 0.1464(4)
C16 C 0.3210(2) 0.2361(4) 0.2061(4)
C17 C 0.2625(2) 0.2759(4) 0.1938(4)
C18 C 0.1059(2) 0.3031(5) 0.1299(4)
C19 C 0.0454(2) 0.2973(5) 0.0778(4)
C20 C 0.0254(2) 0.2089(5) -0.0064(4)
C21 C 0.0640(2) 0.1268(5) -0.0393(4)
C22 C 0.1730(2) 0.0549(5) -0.0072(4)
C23 C 0.2281(2) 0.1072(4) 0.0675(4)
C24 C 0.2141(2) 0.2115(4) 0.1261(4)
C25 C 0.1473(2) 0.2272(4) 0.0959(4)
C26 C 0.1240(2) 0.1370(5) 0.0118(4)
H5 H 0.296(2) 0.001(4) 0.035(4)
H6 H 0.354(2) 0.281(4) 0.248(4)
H7 H 0.022(2) 0.350(4) 0.097(4)
H8 H 0.051(2) 0.072(4) -0.089(3)
#END
