
#######################################################################
#
#                 Cambridge Crystallographic Data Centre
#                                CCDC
#
#######################################################################
#
# If this CIF has been generated from an entry in the Cambridge
# Structural Database, then it will include bibliographic, chemical,
# crystal, experimental, refinement or atomic coordinate data resulting
# from the CCDC's data processing and validation procedures.
#
#######################################################################

data_CSD_CIF_FIJHAH02
_audit_creation_date 2011-05-02
_audit_creation_method CSD-ConQuest-V1
_database_code_CSD FIJHAH02
_database_code_depnum_ccdc_archive 'CCDC 716661'
_chemical_formula_sum 'C13 H4 N4 O9'
_chemical_formula_moiety
;
C13 H4 N4 O9
;
_journal_coden_Cambridge 233
_journal_volume 55
_journal_year 2010
_journal_page_first 959
_journal_name_full 'Zh.Neorg.Khim.(Russ.)(Russ.J.Inorg.Chem.) '
loop_
_publ_author_name
"S.B.Strashnova"
"O.V.Avramenko"
"G.G.Sadikov"
"A.S.Antsyshkina"
"V.S.Sergienko"
"O.V.Koval'chukova"
"B.E.Zaitsev"
_chemical_name_systematic
;
2,4,5,7-Tetranitro-9H-fluoren-9-one
;
_cell_volume   2827.323
_exptl_crystal_colour 'orange'
_exptl_crystal_density_diffrn 1.693
_exptl_crystal_description 'prism'
_exptl_crystal_preparation 'ethanol'
_diffrn_ambient_temperature 295
#These two values have been output from a single CSD field.
_refine_ls_R_factor_gt 0.0664
_refine_ls_wR_factor_gt 0.0664
_symmetry_cell_setting monoclinic
_symmetry_space_group_name_H-M 'P 21/c'
_symmetry_Int_Tables_number 14
loop_
_symmetry_equiv_pos_site_id
_symmetry_equiv_pos_as_xyz
1 x,y,z
2 -x,1/2+y,1/2-z
3 -x,-y,-z
4 x,-1/2-y,-1/2+z
_cell_length_a 11.648(3)
_cell_length_b 10.886(1)
_cell_length_c 22.912(6)
_cell_angle_alpha 90
_cell_angle_beta 103.30(2)
_cell_angle_gamma 90
_cell_formula_units_Z 8
loop_
_atom_type_symbol
_atom_type_radius_bond
C 0.68
H 0.23
N 0.68
O 0.68
loop_
_atom_site_label
_atom_site_type_symbol
_atom_site_fract_x
_atom_site_fract_y
_atom_site_fract_z
C1 C 0.3754(4) 0.0774(5) 0.0814(2)
H1 H 0.3065(4) 0.0259(5) 0.0734(2)
C2 C 0.4189(4) 0.1262(5) 0.0357(2)
C3 C 0.5145(4) 0.2034(5) 0.0459(2)
H2 H 0.5429(4) 0.2360(5) 0.0130(2)
C4 C 0.5707(4) 0.2308(5) 0.1046(2)
C5 C 0.5359(3) 0.1775(4) 0.1526(2)
C6 C 0.4343(4) 0.1037(4) 0.1385(2)
C7 C 0.3982(4) 0.0735(4) 0.1951(2)
C8 C 0.4881(4) 0.1313(4) 0.2437(2)
C9 C 0.5765(3) 0.1849(4) 0.2188(2)
C10 C 0.6763(3) 0.2264(4) 0.2592(2)
C11 C 0.6839(4) 0.2294(4) 0.3199(2)
H3 H 0.7515(4) 0.2643(4) 0.3469(2)
C12 C 0.5918(4) 0.1821(4) 0.3411(2)
C13 C 0.4943(4) 0.1275(4) 0.3037(2)
H4 H 0.4335(4) 0.0890(4) 0.3194(2)
N1 N 0.6601(4) 0.3290(5) 0.1116(2)
N2 N 0.7873(3) 0.2516(4) 0.2406(2)
N3 N 0.3602(5) 0.0982(5) -0.0268(2)
N4 N 0.5978(4) 0.1840(5) 0.4058(2)
O1 O 0.6629(3) 0.4030(3) 0.1526(2)
O2 O 0.7249(5) 0.3276(6) 0.0768(2)
O3 O 0.7992(3) 0.1999(4) 0.19414(15)
O4 O 0.8626(3) 0.3122(4) 0.2726(2)
O5 O 0.5273(4) 0.1220(4) 0.4247(2)
O6 O 0.6723(4) 0.2484(5) 0.4368(2)
O7 O 0.4127(4) 0.1201(5) -0.0654(2)
O8 O 0.2631(6) 0.0581(7) -0.0362(2)
O9 O 0.3135(3) 0.0148(3) 0.2001(2)
C14 C -0.0393(4) 0.3734(5) 0.5640(2)
H5 H -0.0965(4) 0.4364(5) 0.5495(2)
C15 C -0.0064(4) 0.2911(5) 0.5256(2)
C16 C 0.0771(4) 0.2021(5) 0.5452(2)
H6 H 0.0980(4) 0.1445(5) 0.5177(2)
C17 C 0.1301(4) 0.1966(4) 0.6060(2)
C18 C 0.0964(3) 0.2734(4) 0.6479(2)
C19 C 0.0123(4) 0.3619(4) 0.6238(2)
C20 C -0.0070(4) 0.4441(4) 0.6726(2)
C21 C 0.0676(4) 0.3918(4) 0.7286(2)
C22 C 0.1263(3) 0.2868(4) 0.7145(2)
C23 C 0.1942(4) 0.2242(4) 0.7626(2)
C24 C 0.2061(4) 0.2626(4) 0.8210(2)
H7 H 0.2546(4) 0.2178(4) 0.8536(2)
C25 C 0.1467(4) 0.3659(4) 0.8317(2)
C26 C 0.0761(4) 0.4327(4) 0.7862(2)
H8 H 0.0350(4) 0.5051(4) 0.7941(2)
N5 N 0.2349(4) 0.1169(5) 0.6214(2)
N6 N 0.2474(4) 0.1052(4) 0.7569(2)
N7 N -0.0581(4) 0.3019(5) 0.4610(2)
N8 N 0.1551(4) 0.4058(5) 0.8942(2)
O10 O 0.3226(3) 0.1582(4) 0.6607(2)
O11 O 0.2331(4) 0.0212(4) 0.5944(2)
O12 O 0.1857(3) 0.0306(3) 0.7200(2)
O13 O 0.3418(3) 0.0800(4) 0.7888(2)
O14 O -0.1123(4) 0.3958(4) 0.4431(2)
O15 O -0.0454(4) 0.2175(5) 0.4288(2)
O16 O 0.2252(4) 0.3517(4) 0.9335(2)
O17 O 0.0913(4) 0.4890(4) 0.9027(2)
O18 O -0.0698(3) 0.5332(3) 0.6676(2)
#END
