
#######################################################################
#
#                 Cambridge Crystallographic Data Centre
#                                CCDC
#
#######################################################################
#
# If this CIF has been generated from an entry in the Cambridge
# Structural Database, then it will include bibliographic, chemical,
# crystal, experimental, refinement or atomic coordinate data resulting
# from the CCDC's data processing and validation procedures.
#
#######################################################################

data_CSD_CIF_FIJHAH01
_audit_creation_date 1988-01-14
_audit_creation_method CSD-ConQuest-V1
_database_code_CSD FIJHAH01
_chemical_formula_sum 'C13 H4 N4 O9'
_chemical_formula_moiety
;
C13 H4 N4 O9
;
_journal_coeditor_code "IUCr A27077"
_journal_coden_Cambridge 591
_journal_volume 43
_journal_year 1987
_journal_page_first 933
_journal_name_full 'Acta Crystallogr.,Sect.C:Cryst.Struct.Commun. '
loop_
_publ_author_name
"R.G.Baughman"
_chemical_name_systematic
;
2,4,5,7-Tetranitro-9-fluorenone
;
_cell_volume   2831.450
_exptl_crystal_colour 'pale straw'
_exptl_crystal_density_diffrn 1.69
_diffrn_ambient_temperature ?
_diffrn_special_details
;
The study was carried out at room temperature,in the range 283-303K

;
#These two values have been output from a single CSD field.
_refine_ls_R_factor_gt 0.067
_refine_ls_wR_factor_gt 0.067
_symmetry_cell_setting monoclinic
_symmetry_space_group_name_H-M 'P 21/a'
_symmetry_Int_Tables_number 14
loop_
_symmetry_equiv_pos_site_id
_symmetry_equiv_pos_as_xyz
1 x,y,z
2 1/2-x,1/2+y,-z
3 -x,-y,-z
4 -1/2+x,-1/2-y,z
_cell_length_a 22.955(9)
_cell_length_b 10.873(2)
_cell_length_c 11.659(2)
_cell_angle_alpha 90
_cell_angle_beta 103.34(4)
_cell_angle_gamma 90
_cell_formula_units_Z 8
loop_
_atom_type_symbol
_atom_type_radius_bond
C 0.68
H 0.23
N 0.68
O 0.68
loop_
_atom_site_label
_atom_site_type_symbol
_atom_site_fract_x
_atom_site_fract_y
_atom_site_fract_z
O1 O 0.2003(2) 0.0142(4) 0.3138(3)
O2 O 0.4244(2) 0.1214(5) 0.5286(5)
O3 O 0.4366(2) 0.2481(5) 0.6721(4)
O4 O 0.2723(2) 0.3120(4) 0.8630(3)
O5 O 0.1940(2) 0.1997(4) 0.7992(3)
O6 O 0.1522(2) 0.4027(4) 0.6632(4)
O7 O 0.0766(2) 0.3279(6) 0.7248(5)
O8 O -0.0658(2) 0.1220(5) 0.4124(4)
O9 O -0.0364(2) 0.0581(7) 0.2628(5)
N1 N 0.4058(2) 0.1839(5) 0.5980(5)
N2 N 0.2403(2) 0.2495(4) 0.7868(4)
N3 N 0.1116(2) 0.3290(5) 0.6596(4)
N4 N -0.0272(2) 0.0997(5) 0.3608(5)
C1 C 0.3041(2) 0.1272(5) 0.4939(4)
C2 C 0.3409(2) 0.1808(5) 0.5910(5)
C3 C 0.3203(2) 0.2285(5) 0.6832(4)
C4 C 0.2591(2) 0.2250(4) 0.6775(4)
C5 C 0.1047(2) 0.2310(5) 0.5711(4)
C6 C 0.0455(2) 0.2036(6) 0.5147(5)
C7 C 0.0357(2) 0.1269(5) 0.4188(4)
C8 C 0.0808(2) 0.0758(5) 0.3748(4)
C9 C 0.1949(2) 0.0730(5) 0.3985(4)
C10 C 0.2436(2) 0.1308(5) 0.4889(4)
C11 C 0.2186(2) 0.1846(4) 0.5760(4)
C12 C 0.1522(2) 0.1777(5) 0.5364(4)
C13 C 0.1385(2) 0.1036(5) 0.4341(4)
H1 H 0.32040 0.08780 0.42980
H2 H 0.34870 0.26500 0.75350
H3 H 0.01120 0.23960 0.54330
H4 H 0.07220 0.02140 0.30340
O10 O 0.1678(2) -0.0337(4) -0.0697(3)
O11 O 0.4029(2) 0.0114(4) 0.0903(4)
O12 O 0.4334(2) 0.1469(5) 0.2240(4)
O13 O 0.2884(2) 0.4194(4) 0.3412(4)
O14 O 0.2203(2) 0.4691(4) 0.1858(4)
O15 O 0.1593(2) 0.3412(4) 0.3223(3)
O16 O 0.0939(2) 0.4786(4) 0.2328(4)
O17 O -0.0712(2) 0.2827(6) -0.0468(4)
O18 O -0.0570(2) 0.1039(4) -0.1129(4)
N5 N 0.3940(2) 0.0937(5) 0.1543(4)
N6 N 0.2564(2) 0.3955(5) 0.2465(5)
N7 N 0.1208(2) 0.3815(5) 0.2353(4)
N8 N -0.0393(2) 0.1977(6) -0.0594(4)
C14 C 0.2863(2) 0.0672(5) 0.0758(4)
C15 C 0.3315(2) 0.1334(5) 0.1460(4)
C16 C 0.3211(2) 0.2365(5) 0.2064(4)
C17 C 0.2625(2) 0.2760(5) 0.1939(4)
C18 C 0.1056(2) 0.3032(5) 0.1308(4)
C19 C 0.0450(2) 0.2976(5) 0.0775(4)
C20 C 0.0252(2) 0.2087(5) -0.0061(4)
C21 C 0.0640(2) 0.1260(5) -0.0399(4)
C22 C 0.1727(5) 0.0555(5) -0.0070(4)
C23 C 0.2286(2) 0.1072(5) 0.0679(4)
C24 C 0.2141(2) 0.2113(5) 0.1253(4)
C25 C 0.1474(2) 0.2272(4) 0.0956(4)
C26 C 0.1241(2) 0.1368(5) 0.0119(4)
H5 H 0.29480 -0.00770 0.03240
H6 H 0.35500 0.28205 0.25760
H7 H 0.01610 0.37500 0.09990
H8 H 0.04910 0.06020 -0.09970
#END
