
#######################################################################
#
#                 Cambridge Crystallographic Data Centre
#                                CCDC
#
#######################################################################
#
# If this CIF has been generated from an entry in the Cambridge
# Structural Database, then it will include bibliographic, chemical,
# crystal, experimental, refinement or atomic coordinate data resulting
# from the CCDC's data processing and validation procedures.
#
#######################################################################

data_CSD_CIF_FIJHAH03
_audit_creation_date 2014-07-11
_audit_creation_method CSD-ConQuest-V1
_database_code_CSD FIJHAH03
_database_code_depnum_ccdc_archive 'CCDC 869609'
_chemical_formula_sum 'C13 H4 N4 O9'
_chemical_formula_moiety
;
C13 H4 N4 O9
;
_journal_coden_Cambridge 1078
_journal_year 2012
_journal_name_full 'CSD Communication(Private Communication) '
loop_
_publ_author_name
"S.Bernes"
"A.Salmeron-Valverde"
_chemical_name_systematic
;
2,4,5,7-Tetranitro-9-fluorenone
;
_chemical_melting_point 527
_cell_volume   2842.560
_exptl_crystal_colour 'yellow'
_exptl_crystal_density_diffrn 1.683
_exptl_crystal_description 'prism'
_exptl_crystal_preparation 'Acetic acid'
_diffrn_ambient_temperature 296
#These two values have been output from a single CSD field.
_refine_ls_R_factor_gt 0.0607
_refine_ls_wR_factor_gt 0.0607
_symmetry_cell_setting monoclinic
_symmetry_space_group_name_H-M 'P 21/c'
_symmetry_Int_Tables_number 14
loop_
_symmetry_equiv_pos_site_id
_symmetry_equiv_pos_as_xyz
1 x,y,z
2 -x,1/2+y,1/2-z
3 -x,-y,-z
4 x,-1/2-y,-1/2+z
_cell_length_a 11.6686(17)
_cell_length_b 10.8985(11)
_cell_length_c 22.959(2)
_cell_angle_alpha 90
_cell_angle_beta 103.200(9)
_cell_angle_gamma 90
_cell_formula_units_Z 8
loop_
_atom_type_symbol
_atom_type_radius_bond
C 0.68
H 0.23
N 0.68
O 0.68
loop_
_atom_site_label
_atom_site_type_symbol
_atom_site_fract_x
_atom_site_fract_y
_atom_site_fract_z
C1 C 0.8754(3) 0.0769(4) 0.08131(16)
H1 H 0.80840 0.02790 0.07360
C2 C 0.9194(3) 0.1263(4) 0.03560(15)
C3 C 1.0142(3) 0.2041(4) 0.04560(15)
H2 H 1.04020 0.23800 0.01370
C4 C 1.0709(3) 0.2311(3) 0.10437(14)
C5 C 1.0359(3) 0.1778(3) 0.15245(13)
C6 C 1.0765(3) 0.1843(3) 0.21872(13)
C7 C 1.1768(3) 0.2261(3) 0.25900(13)
C8 C 1.1834(3) 0.2282(3) 0.32009(14)
H3 H 1.24890 0.26100 0.34630
C9 C 1.0914(3) 0.1809(3) 0.34110(14)
C10 C 0.9944(3) 0.1273(3) 0.30400(15)
H4 H 0.93590 0.09020 0.31930
C11 C 0.9880(3) 0.1310(3) 0.24342(14)
C12 C 0.8983(3) 0.0729(3) 0.19530(15)
C13 C 0.9347(3) 0.1033(3) 0.13846(14)
O1 O 0.8132(2) 0.0149(3) 0.20005(12)
N1 N 0.8606(4) 0.0986(4) -0.02729(15)
O2 O 0.7633(4) 0.0570(5) -0.03608(16)
O3 O 0.9128(3) 0.1211(3) -0.06606(12)
N2 N 1.1600(3) 0.3291(4) 0.11160(15)
O4 O 1.1632(3) 0.4032(3) 0.15265(14)
O5 O 1.2242(4) 0.3281(5) 0.07645(14)
N3 N 1.2876(2) 0.2504(3) 0.24050(13)
O6 O 1.3625(2) 0.3112(3) 0.27249(12)
O7 O 1.2994(2) 0.1993(3) 0.19379(11)
N4 N 1.0975(3) 0.1834(3) 0.40560(14)
O8 O 1.0278(3) 0.1214(3) 0.42489(12)
O9 O 1.1719(3) 0.2483(3) 0.43691(12)
C14 C 0.4602(3) 0.1259(4) 0.06352(15)
H5 H 0.40510 0.06490 0.04950
C15 C 0.4934(3) 0.2083(4) 0.02539(15)
C16 C 0.5770(3) 0.2977(4) 0.04484(16)
H6 H 0.59740 0.35330 0.01810
C17 C 0.6303(3) 0.3025(3) 0.10595(15)
C18 C 0.5958(3) 0.2267(3) 0.14734(14)
C19 C 0.6262(3) 0.2128(3) 0.21426(14)
C20 C 0.6938(3) 0.2763(3) 0.26234(14)
C21 C 0.7057(3) 0.2365(3) 0.32064(15)
H7 H 0.75300 0.27930 0.35220
C22 C 0.6465(3) 0.1327(3) 0.33132(15)
C23 C 0.5762(3) 0.0664(3) 0.28595(15)
H8 H 0.53610 -0.00320 0.29380
C24 C 0.5676(3) 0.1073(3) 0.22842(15)
C25 C 0.4925(3) 0.0550(3) 0.17266(16)
C26 C 0.5117(3) 0.1373(3) 0.12351(15)
O10 O 0.4300(2) -0.0342(2) 0.16748(12)
N5 N 0.4411(3) 0.1981(4) -0.03931(15)
O11 O 0.3878(3) 0.1041(3) -0.05682(12)
O12 O 0.4536(3) 0.2833(4) -0.07155(14)
N6 N 0.7353(3) 0.3831(4) 0.12083(15)
O13 O 0.8221(2) 0.3420(3) 0.15936(14)
O14 O 0.7335(3) 0.4790(3) 0.09409(13)
N7 N 0.7460(3) 0.3952(3) 0.25654(14)
O15 O 0.8416(3) 0.4192(3) 0.28837(13)
O16 O 0.6860(3) 0.4691(3) 0.22001(13)
N8 N 0.6545(3) 0.0933(3) 0.39407(14)
O17 O 0.5905(3) 0.0108(3) 0.40267(13)
O18 O 0.7247(3) 0.1476(3) 0.43333(13)
#END
