
#######################################################################
#
#                 Cambridge Crystallographic Data Centre
#                                CCDC
#
#######################################################################
#
# If this CIF has been generated from an entry in the Cambridge
# Structural Database, then it will include bibliographic, chemical,
# crystal, experimental, refinement or atomic coordinate data resulting
# from the CCDC's data processing and validation procedures.
#
#######################################################################

data_CSD_CIF_FIJPUL
_audit_creation_date 2013-08-10
_audit_creation_method CSD-ConQuest-V1
_database_code_CSD FIJPUL
_database_code_depnum_ccdc_archive 'CCDC 913331'
_chemical_formula_sum 'C26 H26 N4 O4'
_chemical_formula_moiety
;
C26 H26 N4 O4
;
_journal_coden_Cambridge 179
_journal_volume 52
_journal_year 2013
_journal_page_first 10056
_journal_name_full 'Angew.Chem.,Int.Ed. '
loop_
_publ_author_name
"Chun-Xiang Zhuo"
"Shu-Li You"
_chemical_name_systematic
;
1-(2,4-Dinitrophenyl)-2-(1-methyl-1-(3-phenylpropyl)-3,4-dihydronaphthalen-2(1
H)-ylidene)hydrazine
;
_cell_volume   2282.900
_exptl_crystal_colour 'yellow'
_exptl_crystal_density_diffrn 1.334
_exptl_special_details
;
Absolute configuration

;
_exptl_crystal_description 'plate'
_diffrn_ambient_temperature 173
#These two values have been output from a single CSD field.
_refine_ls_R_factor_gt 0.0368
_refine_ls_wR_factor_gt 0.0368
_symmetry_cell_setting orthorhombic
_symmetry_space_group_name_H-M 'P 21 21 21'
_symmetry_Int_Tables_number 19
loop_
_symmetry_equiv_pos_site_id
_symmetry_equiv_pos_as_xyz
1 x,y,z
2 1/2+x,1/2-y,-z
3 -x,1/2+y,1/2-z
4 1/2-x,-y,1/2+z
_cell_length_a 7.1957(3)
_cell_length_b 12.1702(5)
_cell_length_c 26.0685(12)
_cell_angle_alpha 90
_cell_angle_beta 90
_cell_angle_gamma 90
_cell_formula_units_Z 4
loop_
_atom_type_symbol
_atom_type_radius_bond
C 0.68
H 0.23
N 0.68
O 0.68
loop_
_atom_site_label
_atom_site_type_symbol
_atom_site_fract_x
_atom_site_fract_y
_atom_site_fract_z
N1 N 0.7605(2) 0.85133(11) 0.16065(5)
H1 H 0.779(4) 1.0076(19) 0.1906(9)
N2 N 0.7959(2) 0.96268(11) 0.16229(6)
N3 N 0.8460(2) 1.20134(12) 0.15948(6)
N4 N 0.9326(3) 1.17516(14) -0.02457(7)
O1 O 0.8203(2) 1.15915(10) 0.20209(5)
O2 O 0.8645(3) 1.30041(11) 0.15422(6)
O3 O 0.9190(4) 1.27491(12) -0.02625(6)
O4 O 0.9654(3) 1.11846(13) -0.06207(6)
C1 C 0.7232(2) 0.80323(13) 0.20309(6)
C2 C 0.7203(3) 0.85870(15) 0.25485(7)
H2 H 0.66380 0.93240 0.25110
H3 H 0.84970 0.86880 0.26680
C3 C 0.6128(3) 0.79457(15) 0.29526(7)
H4 H 0.63690 0.82690 0.32950
H5 H 0.47800 0.80080 0.28820
C4 C 0.6671(2) 0.67533(14) 0.29578(7)
C5 C 0.6784(3) 0.61653(18) 0.34196(7)
H6 H 0.65380 0.65290 0.37350
C6 C 0.7247(3) 0.50659(18) 0.34217(7)
H7 H 0.73090 0.46760 0.37370
C7 C 0.7621(3) 0.45322(15) 0.29681(7)
H8 H 0.79530 0.37770 0.29700
C8 C 0.7511(2) 0.51004(14) 0.25070(7)
H9 H 0.77600 0.47270 0.21950
C9 C 0.7039(2) 0.62101(14) 0.24959(6)
C10 C 0.6732(2) 0.68149(13) 0.19854(6)
C11 C 0.4629(2) 0.67442(14) 0.18709(7)
H10 H 0.39310 0.70750 0.21540
H11 H 0.42670 0.59720 0.18330
H12 H 0.43550 0.71410 0.15530
C12 C 0.7763(2) 0.62777(13) 0.15347(6)
H13 H 0.73060 0.55150 0.14980
H14 H 0.74280 0.66770 0.12170
C13 C 0.9869(2) 0.62449(14) 0.15749(6)
H15 H 1.02250 0.59900 0.19220
H16 H 1.03680 0.69960 0.15290
C14 C 1.0729(2) 0.54863(13) 0.11757(6)
H17 H 1.20920 0.54720 0.12270
H18 H 1.02580 0.47320 0.12320
C15 C 1.0324(2) 0.58177(12) 0.06259(6)
C16 C 0.9308(3) 0.51525(14) 0.03032(7)
H19 H 0.88010 0.44860 0.04320
C17 C 0.9012(3) 0.54355(16) -0.02050(7)
H20 H 0.83290 0.49590 -0.04230
C18 C 0.9708(3) 0.64072(15) -0.03930(7)
H21 H 0.95180 0.65980 -0.07420
C19 C 1.0683(3) 0.71062(14) -0.00739(7)
H22 H 1.11440 0.77860 -0.02010
C20 C 1.0985(3) 0.68074(14) 0.04341(7)
H23 H 1.16550 0.72880 0.06540
C21 C 0.8376(2) 1.01535(13) 0.11818(7)
C22 C 0.8565(2) 1.13129(13) 0.11479(7)
C23 C 0.8875(3) 1.18287(14) 0.06794(7)
H24 H 0.89570 1.26070 0.06610
C24 C 0.9062(3) 1.12059(15) 0.02473(7)
C25 C 0.9001(3) 1.00634(15) 0.02663(7)
H25 H 0.91890 0.96430 -0.00360
C26 C 0.8668(2) 0.95532(14) 0.07233(7)
H26 H 0.86310 0.87730 0.07340
#END
