
#######################################################################
#
#                 Cambridge Crystallographic Data Centre
#                                CCDC
#
#######################################################################
#
# If this CIF has been generated from an entry in the Cambridge
# Structural Database, then it will include bibliographic, chemical,
# crystal, experimental, refinement or atomic coordinate data resulting
# from the CCDC's data processing and validation procedures.
#
#######################################################################

data_CSD_CIF_FIJVEB
_audit_creation_date 2013-08-12
_audit_creation_method CSD-ConQuest-V1
_database_code_CSD FIJVEB
_database_code_depnum_ccdc_archive 'CCDC 901862'
_chemical_formula_sum 'C24 H25 N1 O4'
_chemical_formula_moiety
;
C24 H25 N1 O4
;
_journal_coden_Cambridge 1127
_journal_volume 23
_journal_year 2013
_journal_page_first 4061
_journal_name_full 'Bioorg.Med.Chem.Lett. '
loop_
_publ_author_name
"N.K.Bejjanki"
"A.Venkatesham"
"J.Madda"
"N.Kommu"
"S.Pombala"
"C.Ganesh Kumar"
"K.R.Prasad"
"J.B.Nanubolu"
_chemical_name_systematic
;
(13R,17S)-5,14,14-trimethyl-16-[(4-methylphenyl)methyl]-3,11,15-trioxa-16-azat
etracyclo[8.7.0.02,7.013,17]heptadeca-1,4,7,9-tetraen-6-one
;
_chemical_name_common
;
3,3,9-Trimethyl-1-(4-methylbenzyl)-1,3a,4,11c-tetrahydro-3H,8H-pyrano[2',3':5,
6]chromeno[4,3-c][1,2]oxazol-8-one
;
_cell_volume   2049.459
_exptl_crystal_colour 'colorless'
_exptl_crystal_density_diffrn 1.269
_exptl_crystal_description 'needle'
_diffrn_ambient_temperature 293
#These two values have been output from a single CSD field.
_refine_ls_R_factor_gt 0.0375
_refine_ls_wR_factor_gt 0.0375
_symmetry_cell_setting monoclinic
_symmetry_space_group_name_H-M 'P 21/c'
_symmetry_Int_Tables_number 14
loop_
_symmetry_equiv_pos_site_id
_symmetry_equiv_pos_as_xyz
1 x,y,z
2 -x,1/2+y,1/2-z
3 -x,-y,-z
4 x,-1/2-y,-1/2+z
_cell_length_a 17.0421(19)
_cell_length_b 9.5647(11)
_cell_length_c 12.7377(15)
_cell_angle_alpha 90
_cell_angle_beta 99.219(2)
_cell_angle_gamma 90
_cell_formula_units_Z 4
loop_
_atom_type_symbol
_atom_type_radius_bond
C 0.68
H 0.23
N 0.68
O 0.68
loop_
_atom_site_label
_atom_site_type_symbol
_atom_site_fract_x
_atom_site_fract_y
_atom_site_fract_z
O1 O 0.26800(6) 0.53359(10) 0.07889(8)
O2 O 0.40329(6) 0.62067(11) 0.42998(8)
O3 O 0.33556(6) 0.19135(10) 0.31582(9)
N1 N 0.29126(7) 0.32329(12) 0.29697(9)
C1 C 0.35370(8) 0.41463(14) 0.26550(11)
H1 H 0.37050 0.37960 0.20030
C2 C 0.33308(8) 0.56758(14) 0.25430(11)
C3 C 0.29329(8) 0.62608(14) 0.15912(11)
O4 O 0.22149(8) 0.94790(13) 0.03089(11)
C4 C 0.28018(9) 0.76877(15) 0.14483(13)
C5 C 0.22393(8) 0.29027(16) 0.21529(12)
H2 H 0.24140 0.22890 0.16300
H3 H 0.20420 0.37570 0.17940
C6 C 0.15748(8) 0.22067(15) 0.26049(12)
C7 C 0.41825(8) 0.38719(15) 0.36121(11)
H4 H 0.47070 0.41220 0.34470
C8 C 0.22274(9) 0.58263(18) -0.01198(12)
H5 H 0.20410 0.51760 -0.06440
C9 C 0.41214(8) 0.22787(16) 0.37672(12)
C10 C 0.23373(10) 0.82198(17) 0.04627(14)
C11 C 0.36178(9) 0.66161(16) 0.33470(12)
C12 C 0.35169(10) 0.80589(17) 0.32084(14)
H6 H 0.37280 0.86650 0.37520
C13 C 0.13476(10) 0.26722(18) 0.35412(14)
H7 H 0.16420 0.33650 0.39380
C14 C 0.39881(9) 0.47400(16) 0.45287(12)
H8 H 0.34570 0.45130 0.46580
H9 H 0.43590 0.45190 0.51670
C15 C 0.31138(10) 0.85800(17) 0.22866(15)
H10 H 0.30430 0.95410 0.22090
C16 C 0.20324(10) 0.71617(18) -0.03155(13)
C17 C 0.11339(9) 0.11539(18) 0.20455(14)
H11 H 0.12840 0.08060 0.14250
C18 C 0.41362(11) 0.18101(19) 0.49071(14)
H12 H 0.36960 0.22200 0.51810
H13 H 0.46250 0.21040 0.53320
H14 H 0.40970 0.08100 0.49300
C19 C 0.02318(10) 0.1085(2) 0.33216(16)
C20 C 0.47442(10) 0.15105(19) 0.32610(16)
H15 H 0.46410 0.05240 0.32640
H16 H 0.52620 0.16970 0.36570
H17 H 0.47240 0.18250 0.25410
C21 C 0.06851(10) 0.2113(2) 0.38910(15)
H18 H 0.05420 0.24370 0.45230
C22 C 0.04698(10) 0.0615(2) 0.24055(17)
H19 H 0.01780 -0.00850 0.20150
C23 C 0.15196(13) 0.7609(2) -0.13277(16)
H20 H 0.14070 0.68160 -0.17890
H21 H 0.17930 0.83070 -0.16730
H22 H 0.10310 0.79900 -0.11690
C24 C -0.05110(12) 0.0509(3) 0.3679(2)
H23 H -0.04790 -0.04930 0.37140
H24 H -0.09690 0.07780 0.31800
H25 H -0.05550 0.08750 0.43690
#END
