
#######################################################################
#
#                 Cambridge Crystallographic Data Centre
#                                CCDC
#
#######################################################################
#
# If this CIF has been generated from an entry in the Cambridge
# Structural Database, then it will include bibliographic, chemical,
# crystal, experimental, refinement or atomic coordinate data resulting
# from the CCDC's data processing and validation procedures.
#
#######################################################################

data_CSD_CIF_FIKSOK
_audit_creation_date 2018-09-03
_audit_creation_method CSD-ConQuest-V1
_database_code_CSD FIKSOK
_database_code_depnum_ccdc_archive 'CCDC 1539447'
_chemical_formula_sum 'C24 H26 N2 O8'
_chemical_formula_moiety
;
C24 H26 N2 O8
;
_journal_coden_Cambridge 1220
_journal_volume 24
_journal_year 2018
_journal_page_first 8315
_journal_name_full 'Chem.-Eur.J. '
loop_
_publ_author_name
"Yunfei Luo"
"S.M.Wales"
"S.E.Korkis"
"I.D.Roy"
"W.Lewis"
"Hon Wai Lam"
_chemical_name_systematic
;
7,7-dimethyloct-4-ene-2,6-diyl bis(4-nitrobenzoate)
;
_cell_volume   2414.628
_exptl_crystal_colour 'colorless'
_exptl_crystal_density_diffrn 1.294
_exptl_special_details
;
Absolute configuration

;
_exptl_crystal_description 'plank'
_exptl_crystal_preparation 'diethyl ether/petroleum ether'
_diffrn_ambient_temperature 120
#These two values have been output from a single CSD field.
_refine_ls_R_factor_gt 0.0278
_refine_ls_wR_factor_gt 0.0278
_symmetry_cell_setting orthorhombic
_symmetry_space_group_name_H-M 'P 21 21 21'
_symmetry_Int_Tables_number 19
loop_
_symmetry_equiv_pos_site_id
_symmetry_equiv_pos_as_xyz
1 x,y,z
2 1/2-x,-y,1/2+z
3 1/2+x,1/2-y,-z
4 -x,1/2+y,1/2-z
_cell_length_a 6.94030(18)
_cell_length_b 10.8968(3)
_cell_length_c 31.9281(6)
_cell_angle_alpha 90
_cell_angle_beta 90
_cell_angle_gamma 90
_cell_formula_units_Z 4
loop_
_atom_type_symbol
_atom_type_radius_bond
C 0.68
H 0.23
N 0.68
O 0.68
loop_
_atom_site_label
_atom_site_type_symbol
_atom_site_fract_x
_atom_site_fract_y
_atom_site_fract_z
C1 C -0.0494(3) 0.81696(17) 0.01835(5)
H1 H 0.08640 0.84100 0.02020
H2 H -0.13040 0.89060 0.01840
H3 H -0.07060 0.77100 -0.00760
C2 C -0.1012(3) 0.73698(15) 0.05557(5)
H4 H -0.23890 0.71110 0.05310
C3 C -0.0706(3) 0.79724(17) 0.09826(5)
H5 H -0.15140 0.87190 0.09990
H6 H -0.11460 0.74010 0.12040
C4 C 0.1349(3) 0.83184(16) 0.10676(5)
H7 H 0.19510 0.88240 0.08640
C5 C 0.2428(3) 0.80020(16) 0.13942(5)
H8 H 0.37090 0.83080 0.14020
C6 C 0.1796(3) 0.72037(14) 0.17508(5)
H9 H 0.04050 0.69890 0.17140
C7 C 0.2098(3) 0.77420(15) 0.21931(5)
C8 C 0.0892(4) 0.89138(18) 0.22239(6)
H10 H 0.13670 0.95170 0.20210
H11 H 0.09950 0.92520 0.25070
H12 H -0.04590 0.87230 0.21630
C9 C 0.4220(3) 0.8022(2) 0.22797(6)
H13 H 0.49840 0.72730 0.22440
H14 H 0.43630 0.83230 0.25670
H15 H 0.46740 0.86500 0.20830
C10 C 0.1351(3) 0.68176(18) 0.25138(5)
H16 H 0.00280 0.65830 0.24420
H17 H 0.13700 0.71890 0.27930
H18 H 0.21750 0.60870 0.25120
O1 O 0.02228(17) 0.62784(10) 0.05341(4)
C11 C -0.0620(2) 0.51917(15) 0.05966(5)
O2 O -0.23123(18) 0.50440(12) 0.06666(4)
C12 C 0.0783(2) 0.41536(15) 0.05614(5)
C13 C 0.2768(2) 0.43398(15) 0.05385(5)
H19 H 0.32740 0.51490 0.05470
C14 C 0.4007(2) 0.33445(15) 0.05037(5)
H20 H 0.53620 0.34610 0.04910
C15 C 0.3215(2) 0.21749(15) 0.04871(4)
C16 C 0.1249(3) 0.19638(15) 0.05107(5)
H21 H 0.07470 0.11530 0.04990
C17 C 0.0036(3) 0.29634(16) 0.05519(5)
H22 H -0.13150 0.28400 0.05740
N1 N 0.4516(2) 0.11115(13) 0.04497(4)
O3 O 0.62464(19) 0.12722(11) 0.05133(4)
O4 O 0.3816(2) 0.01173(11) 0.03559(4)
O5 O 0.29614(18) 0.60779(10) 0.17219(4)
C18 C 0.2049(2) 0.50300(15) 0.16391(5)
O6 O 0.03276(18) 0.49176(12) 0.16025(5)
C19 C 0.3430(2) 0.39851(14) 0.15951(4)
C20 C 0.5395(3) 0.41769(14) 0.15308(5)
H23 H 0.58940 0.49880 0.15240
C21 C 0.6622(2) 0.31840(14) 0.14766(5)
H24 H 0.79590 0.33030 0.14280
C22 C 0.5842(2) 0.20141(15) 0.14958(5)
C23 C 0.3898(3) 0.17948(15) 0.15600(5)
H25 H 0.34100 0.09810 0.15720
C24 C 0.2686(3) 0.27951(15) 0.16063(5)
H26 H 0.13430 0.26710 0.16460
N2 N 0.7138(2) 0.09518(13) 0.14505(4)
O7 O 0.88460(19) 0.11422(12) 0.13759(4)
O8 O 0.6453(2) -0.00726(12) 0.14965(5)
#END
