
#######################################################################
#
#                 Cambridge Crystallographic Data Centre
#                                CCDC
#
#######################################################################
#
# If this CIF has been generated from an entry in the Cambridge
# Structural Database, then it will include bibliographic, chemical,
# crystal, experimental, refinement or atomic coordinate data resulting
# from the CCDC's data processing and validation procedures.
#
#######################################################################

data_CSD_CIF_FIKXAY
_audit_creation_date 1988-03-22
_audit_creation_method CSD-ConQuest-V1
_database_code_CSD FIKXAY
_database_code_depnum_ccdc_archive 'CCDC 1156492'
_chemical_formula_sum 'C13 H14 N2 O7'
_chemical_formula_moiety
;
C13 H14 N2 O7
;
_journal_coden_Cambridge 182
_journal_year 1987
_journal_page_first 1108
_journal_name_full 'Chem.Commun. '
loop_
_publ_author_name
"A.P.Marchand"
"Pei-wen Jin"
"J.L.Flippen-Anderson"
"R.Gilardi"
"C.George"
_chemical_name_systematic
;
Methyl 
3,9-dinitro-exo-10-methoxypentacyclo(5.3.0.0^2,5^.0^3,9^.0^4,8^)decane-8-carbo
xylate
;
_cell_volume   1409.704
_diffrn_ambient_temperature ?
_diffrn_special_details
;
The study was carried out at room temperature,in the range 283-303K

;
#These two values have been output from a single CSD field.
_refine_ls_R_factor_gt 0.05
_refine_ls_wR_factor_gt 0.05
_symmetry_cell_setting monoclinic
_symmetry_space_group_name_H-M 'P 21/n'
_symmetry_Int_Tables_number 14
loop_
_symmetry_equiv_pos_site_id
_symmetry_equiv_pos_as_xyz
1 x,y,z
2 1/2-x,1/2+y,1/2-z
3 -x,-y,-z
4 -1/2+x,-1/2-y,-1/2+z
_cell_length_a 7.861(1)
_cell_length_b 17.600(3)
_cell_length_c 10.199(2)
_cell_angle_alpha 90
_cell_angle_beta 92.52(1)
_cell_angle_gamma 90
_cell_formula_units_Z 4
loop_
_atom_type_symbol
_atom_type_radius_bond
C 0.68
H 0.23
N 0.68
O 0.68
loop_
_atom_site_label
_atom_site_type_symbol
_atom_site_fract_x
_atom_site_fract_y
_atom_site_fract_z
N1 N 0.7668(5) 0.3887(2) 0.1899(3)
N2 N 1.0244(5) 0.3294(3) 0.3886(3)
O1 O 0.7087(4) 0.4482(2) 0.1482(3)
O2 O 0.8562(5) 0.3463(2) 0.1300(3)
O3 O 1.0696(4) 0.3957(2) 0.3866(3)
O4 O 1.1167(4) 0.2753(2) 0.3747(3)
O5 O 0.7994(4) 0.4362(2) 0.7088(3)
O6 O 1.0097(5) 0.3546(2) 0.6731(3)
O7 O 0.8406(4) 0.1897(2) 0.5009(3)
C1 C 0.6091(5) 0.3080(2) 0.5613(3)
C2 C 0.7624(5) 0.3590(2) 0.5275(3)
C3 C 0.6786(5) 0.4201(2) 0.4322(3)
C4 C 0.7216(5) 0.3658(2) 0.3231(3)
C5 C 0.8407(5) 0.3162(2) 0.4081(3)
C6 C 0.7662(6) 0.2375(2) 0.4025(4)
C7 C 0.5872(5) 0.2627(2) 0.4333(3)
C8 C 0.5428(5) 0.3286(2) 0.3369(4)
C9 C 0.4902(5) 0.3962(2) 0.4247(4)
C10 C 0.4573(5) 0.3621(3) 0.5584(4)
C11 C 0.8752(6) 0.3826(3) 0.6419(4)
C12 C 0.8873(8) 0.4613(3) 0.8285(4)
C13 C 0.8568(11) 0.1164(3) 0.4686(7)
H1 H 0.62060 0.27910 0.64120
H2 H 0.70280 0.47330 0.44180
H3 H 0.77890 0.20800 0.32440
H4 H 0.50900 0.22080 0.43260
H5 H 0.47060 0.31210 0.26400
H6 H 0.39900 0.43030 0.40020
H7 H 0.46420 0.39890 0.62780
H8 H 0.35020 0.33590 0.55990
H9 H 0.83700 0.50820 0.85510
H10 H 1.00730 0.46840 0.81960
H11 H 0.86920 0.42300 0.89350
H12 H 0.90600 0.08350 0.53510
H13 H 0.94450 0.13460 0.41410
H14 H 0.77370 0.08870 0.41580
#END
