
#######################################################################
#
#                 Cambridge Crystallographic Data Centre
#                                CCDC
#
#######################################################################
#
# If this CIF has been generated from an entry in the Cambridge
# Structural Database, then it will include bibliographic, chemical,
# crystal, experimental, refinement or atomic coordinate data resulting
# from the CCDC's data processing and validation procedures.
#
#######################################################################

data_CSD_CIF_FIMJEQ
_audit_creation_date 1988-03-22
_audit_creation_method CSD-ConQuest-V1
_database_code_CSD FIMJEQ
_database_code_depnum_ccdc_archive 'CCDC 1156654'
_chemical_formula_sum 'C20 H21 N3 O9'
_chemical_formula_moiety
;
C20 H21 N3 O9
;
_journal_coden_Cambridge 4
_journal_volume 109
_journal_year 1987
_journal_page_first 4108
_journal_name_full 'J.Am.Chem.Soc. '
loop_
_publ_author_name
"I.Uchida"
"S.Takase"
"H.Kayakiri"
"S.Kiyoto"
"M.Hashimoto"
"T.Tada"
"S.Koda"
"Y.Morimoto"
_chemical_name_systematic
;
6,9-Diacetoxy-11-acetyl-8-(carbamatomethyl)-4-formyl-1,11-diaza-tetracyclo(7.4
.1.0^2,7^.0^10,12^)tetradeca-2,4,6-triene
;
_chemical_melting_point 480.15
_cell_volume   2089.239
_exptl_special_details
;
Melting point range 480.15-481.15K
antitumour agent

;
_diffrn_ambient_temperature ?
_diffrn_special_details
;
The study was carried out at room temperature,in the range 283-303K

;
#These two values have been output from a single CSD field.
_refine_ls_R_factor_gt 0.042
_refine_ls_wR_factor_gt 0.042
_chemical_compound_source
;
Streptomyces sandaensis
;
_symmetry_cell_setting orthorhombic
_symmetry_space_group_name_H-M 'P 21 21 21'
_symmetry_Int_Tables_number 19
loop_
_symmetry_equiv_pos_site_id
_symmetry_equiv_pos_as_xyz
1 x,y,z
2 1/2+x,1/2-y,-z
3 -x,1/2+y,1/2-z
4 1/2-x,-y,1/2+z
_cell_length_a 17.724(1)
_cell_length_b 11.355(1)
_cell_length_c 10.381(1)
_cell_angle_alpha 90
_cell_angle_beta 90
_cell_angle_gamma 90
_cell_formula_units_Z 4
loop_
_atom_type_symbol
_atom_type_radius_bond
C 0.68
H 0.23
N 0.68
O 0.68
loop_
_atom_site_label
_atom_site_type_symbol
_atom_site_fract_x
_atom_site_fract_y
_atom_site_fract_z
O1 O 0.4680(2) 0.5786(2) 0.4527(3)
O2 O 0.7342(2) 0.2916(3) 0.0483(3)
O3 O 0.3327(1) 0.3097(3) 0.4766(3)
O4 O 0.3864(2) 0.1354(3) 0.5331(3)
O5 O 0.5314(1) 0.1611(2) 0.3623(3)
O6 O 0.6322(2) 0.1301(3) 0.4864(4)
O7 O 0.3920(1) 0.5116(3) 0.6002(3)
O8 O 0.4011(2) 0.3624(3) 0.7433(3)
O9 O 0.7027(2) 0.4491(3) 0.7620(3)
N1 N 0.5422(2) 0.5886(3) 0.3965(3)
N2 N 0.6008(2) 0.4628(3) 0.6300(3)
N3 N 0.2638(2) 0.1767(4) 0.5788(4)
C1 C 0.5662(2) 0.4786(4) 0.3432(4)
C2 C 0.6226(2) 0.4821(4) 0.2495(4)
C3 C 0.6460(2) 0.3783(4) 0.1928(4)
C4 C 0.6164(2) 0.2695(4) 0.2286(4)
C5 C 0.5616(2) 0.2702(4) 0.3242(4)
C6 C 0.5345(2) 0.3721(4) 0.3819(4)
C7 C 0.4705(2) 0.3668(3) 0.4794(4)
C8 C 0.4658(2) 0.4869(4) 0.5481(4)
C9 C 0.5253(2) 0.5104(4) 0.6519(4)
C10 C 0.5903(2) 0.5908(4) 0.6215(4)
C11 C 0.5936(3) 0.6449(4) 0.4896(4)
C12 C 0.7062(2) 0.3800(5) 0.0911(4)
C13 C 0.3986(2) 0.3391(4) 0.4006(4)
C14 C 0.3323(2) 0.2005(4) 0.5290(4)
C15 C 0.5737(2) 0.0959(4) 0.4423(4)
C16 C 0.5379(3) -0.0214(4) 0.4667(5)
C17 C 0.3655(3) 0.4418(4) 0.6966(4)
C18 C 0.2867(3) 0.4783(5) 0.7351(6)
C19 C 0.6426(2) 0.4094(4) 0.7295(4)
C20 C 0.6085(3) 0.2982(4) 0.7815(5)
H1 H 0.255(3) 0.109(4) 0.619(5)
H2 H 0.228(2) 0.228(4) 0.560(4)
H3 H 0.645(2) 0.564(4) 0.217(4)
H4 H 0.636(2) 0.193(4) 0.189(4)
H5 H 0.479(2) 0.303(3) 0.542(4)
H6 H 0.497(3) 0.507(4) 0.741(5)
H7 H 0.617(2) 0.642(4) 0.691(4)
H8 H 0.650(2) 0.642(4) 0.451(4)
H9 H 0.577(3) 0.732(4) 0.498(5)
H10 H 0.725(2) 0.469(4) 0.061(4)
H11 H 0.380(2) 0.411(4) 0.346(4)
H12 H 0.409(2) 0.265(4) 0.337(4)
H13 H 0.486(3) -0.016(5) 0.504(5)
H14 H 0.575(3) -0.069(4) 0.519(5)
H15 H 0.532(3) -0.066(4) 0.392(5)
H16 H 0.266(3) 0.530(5) 0.668(5)
H17 H 0.283(3) 0.530(5) 0.816(6)
H18 H 0.258(3) 0.408(5) 0.748(7)
H19 H 0.565(3) 0.304(5) 0.822(5)
H20 H 0.644(3) 0.258(5) 0.837(5)
H21 H 0.603(3) 0.240(5) 0.713(6)
#END
