
#######################################################################
#
#                 Cambridge Crystallographic Data Centre
#                                CCDC
#
#######################################################################
#
# If this CIF has been generated from an entry in the Cambridge
# Structural Database, then it will include bibliographic, chemical,
# crystal, experimental, refinement or atomic coordinate data resulting
# from the CCDC's data processing and validation procedures.
#
#######################################################################

data_CSD_CIF_FIMWUV
_audit_creation_date 2013-08-13
_audit_creation_method CSD-ConQuest-V1
_database_code_CSD FIMWUV
_database_code_depnum_ccdc_archive 'CCDC 911586'
_chemical_formula_sum 'C11 H20 N4 O1'
_chemical_formula_moiety
;
C11 H20 N4 O1
;
_journal_coden_Cambridge 644
_journal_volume 68
_journal_year 2013
_journal_page_first 539
_journal_name_full 'Z.Naturforsch.,B:Chem.Sci. '
loop_
_publ_author_name
"M.Gohner"
"P.Haiss"
"N.Kuhn"
"M.Strobele"
"K.-P.Zellerb"
_chemical_name_systematic
;
1,3-Diisopropyl-4,5-dimethyl-N-nitroso-1,3-dihydro-2H-imidazol-2-imine
;
_cell_volume   1245.201
_exptl_crystal_colour 'white'
_exptl_crystal_density_diffrn 1.196
_exptl_crystal_description 'bloc'
_diffrn_ambient_temperature 210
_refine_special_details
;
N3A,N4A,O1A and N3B,N4B,O1B disordered over two sites with occupancies 
0.644:0.356; C10A,C11A,C9A and C10B,C11B,C9B disordered over two sites with 
occupancies 0.622:0.378.
;
#These two values have been output from a single CSD field.
_refine_ls_R_factor_gt 0.0503
_refine_ls_wR_factor_gt 0.0503
_symmetry_cell_setting monoclinic
_symmetry_space_group_name_H-M 'P 21/c'
_symmetry_Int_Tables_number 14
loop_
_symmetry_equiv_pos_site_id
_symmetry_equiv_pos_as_xyz
1 x,y,z
2 -x,1/2+y,1/2-z
3 -x,-y,-z
4 x,-1/2-y,-1/2+z
_cell_length_a 10.048(1)
_cell_length_b 11.294(3)
_cell_length_c 11.321(2)
_cell_angle_alpha 90
_cell_angle_beta 104.25(2)
_cell_angle_gamma 90
_cell_formula_units_Z 4
loop_
_atom_type_symbol
_atom_type_radius_bond
C 0.68
H 0.23
N 0.68
O 0.68
loop_
_atom_site_label
_atom_site_type_symbol
_atom_site_fract_x
_atom_site_fract_y
_atom_site_fract_z
N1 N 0.14116(16) 0.22344(14) 0.19823(12)
N2 N 0.32600(16) 0.22712(16) 0.34384(13)
C1 C 0.2323(2) 0.1565(2) 0.27503(16)
C2 C 0.17915(19) 0.34194(18) 0.21687(15)
C3 C 0.2954(2) 0.34375(19) 0.30896(15)
C4 C 0.0218(2) 0.1720(2) 0.10842(17)
H1 H 0.021(3) 0.082(2) 0.134(2)
C5 C 0.0412(3) 0.1824(2) -0.01933(17)
H2 H 0.04920 0.26530 -0.03910
H3 H -0.03710 0.14790 -0.07660
H4 H 0.12410 0.14080 -0.02430
C6 C -0.1119(2) 0.2187(2) 0.1234(2)
H5 H -0.12160 0.19990 0.20450
H6 H -0.18640 0.18260 0.06310
H7 H -0.11460 0.30390 0.11230
C7 C 0.1068(3) 0.4429(2) 0.14560(19)
H8 H 0.15540 0.51570 0.17390
H9 H 0.01400 0.44760 0.15610
H10 H 0.10360 0.43150 0.06000
C8 C 0.3764(2) 0.4472(2) 0.36704(19)
H11 H 0.34190 0.51840 0.32190
H12 H 0.47210 0.43600 0.36700
H13 H 0.36830 0.45490 0.45030
C9 C 0.4401(6) 0.1636(6) 0.4349(5)
H14 H 0.41800 0.07880 0.44140
C10 C 0.5700(7) 0.1792(7) 0.3870(6)
H15 H 0.59220 0.26270 0.38590
H16 H 0.55340 0.14740 0.30500
H17 H 0.64600 0.13730 0.43990
C11 C 0.4646(5) 0.2258(6) 0.5596(4)
H18 H 0.50490 0.30310 0.55470
H19 H 0.52650 0.17850 0.62080
H20 H 0.37780 0.23490 0.58160
O1 O 0.3017(4) 0.0013(4) 0.1479(4)
N3 N 0.2106(6) 0.0255(5) 0.2962(6)
N4 N 0.2554(4) -0.0446(6) 0.2298(4)
C12? C 0.4623(9) 0.2190(14) 0.4392(7)
H21? H 0.50420 0.29880 0.45270
C13? C 0.5588(10) 0.1357(8) 0.3920(9)
H22? H 0.51200 0.06160 0.36600
H23? H 0.64030 0.12060 0.45660
H24? H 0.58490 0.17240 0.32360
C14? C 0.4284(10) 0.178(1) 0.5527(8)
H25? H 0.37330 0.10660 0.53610
H26? H 0.37710 0.23910 0.58250
H27? H 0.51250 0.16140 0.61390
O2? O 0.2833(6) -0.1137(6) 0.1926(6)
N5? N 0.2756(13) -0.0017(11) 0.1931(12)
N6? N 0.2515(12) 0.0509(11) 0.2959(11)
#END
