
#######################################################################
#
#                 Cambridge Crystallographic Data Centre
#                                CCDC
#
#######################################################################
#
# If this CIF has been generated from an entry in the Cambridge
# Structural Database, then it will include bibliographic, chemical,
# crystal, experimental, refinement or atomic coordinate data resulting
# from the CCDC's data processing and validation procedures.
#
#######################################################################

data_CSD_CIF_FINBIP
_audit_creation_date 2013-08-13
_audit_creation_method CSD-ConQuest-V1
_database_code_CSD FINBIP
_database_code_depnum_ccdc_archive 'CCDC 900038'
_chemical_formula_sum 'C2 H3 N3 O6'
_chemical_formula_moiety
;
C2 H3 N3 O6
;
_journal_coden_Cambridge 644
_journal_volume 68
_journal_year 2013
_journal_page_first 719
_journal_name_full 'Z.Naturforsch.,B:Chem.Sci. '
loop_
_publ_author_name
"T.M.Klapotke"
"B.Krumm"
"R.Moll"
"A.Penger"
"S.M.Sproll"
"R.J.F.Berger"
"S.A.Hayes"
"N.W.Mitzel"
_chemical_name_systematic
;
1,1,1-Trinitroethane
;
_cell_volume   2524.456
_exptl_crystal_colour 'colorless'
_exptl_crystal_density_diffrn 1.737
_exptl_crystal_description 'block'
_diffrn_ambient_temperature 100
#These two values have been output from a single CSD field.
_refine_ls_R_factor_gt 0.0237
_refine_ls_wR_factor_gt 0.0237
_symmetry_cell_setting cubic
_symmetry_space_group_name_H-M 'I -4 3 d'
_symmetry_Int_Tables_number 220
loop_
_symmetry_equiv_pos_site_id
_symmetry_equiv_pos_as_xyz
1 x,y,z
2 -x,1/2-y,z
3 x,-y,1/2-z
4 1/2-x,y,-z
5 z,x,y
6 y,z,x
7 -z,1/2-x,y
8 1/2-y,z,-x
9 z,-x,1/2-y
10 -y,1/2-z,x
11 1/2-z,x,-y
12 y,-z,1/2-x
13 1/4+y,1/4+x,1/4+z
14 3/4-y,1/4-x,1/4+z
15 1/4-y,1/4+x,3/4-z
16 1/4+y,3/4-x,1/4-z
17 1/4+x,1/4+z,1/4+y
18 1/4+z,1/4+y,1/4+x
19 3/4-x,1/4-z,1/4+y
20 1/4+z,3/4-y,1/4-x
21 1/4-x,1/4+z,3/4-y
22 3/4-z,1/4-y,1/4+x
23 1/4+x,3/4-z,1/4-y
24 1/4-z,1/4+y,3/4-x
25 1/2+x,1/2+y,1/2+z
26 1/2-x,-y,1/2+z
27 1/2+x,1/2-y,-z
28 -x,1/2+y,1/2-z
29 1/2+z,1/2+x,1/2+y
30 1/2+y,1/2+z,1/2+x
31 1/2-z,-x,1/2+y
32 -y,1/2+z,1/2-x
33 1/2+z,1/2-x,-y
34 1/2-y,-z,1/2+x
35 -z,1/2+x,1/2-y
36 1/2+y,1/2-z,-x
37 3/4+y,3/4+x,3/4+z
38 1/4-y,3/4-x,3/4+z
39 3/4-y,3/4+x,1/4-z
40 3/4+y,1/4-x,3/4-z
41 3/4+x,3/4+z,3/4+y
42 3/4+z,3/4+y,3/4+x
43 1/4-x,3/4-z,3/4+y
44 3/4+z,1/4-y,3/4-x
45 3/4-x,3/4+z,1/4-y
46 1/4-z,3/4-y,3/4+x
47 3/4+x,1/4-z,3/4-y
48 3/4-z,3/4+y,1/4-x
_cell_length_a 13.6162(4)
_cell_length_b 13.6162(4)
_cell_length_c 13.6162(4)
_cell_angle_alpha 90
_cell_angle_beta 90
_cell_angle_gamma 90
_cell_formula_units_Z 16
loop_
_atom_type_symbol
_atom_type_radius_bond
C 0.68
H 0.23
N 0.68
O 0.68
loop_
_atom_site_label
_atom_site_type_symbol
_atom_site_fract_x
_atom_site_fract_y
_atom_site_fract_z
N1 N 0.0693(1) 0.06773(10) 0.54227(8)
O1 O 0.03162(8) 0.14876(9) 0.54932(8)
O2 O 0.14875(9) 0.04273(9) 0.57410(8)
C1 C 0.07489(12) -0.07489(12) 0.42511(12)
C2 C 0.01214(10) -0.01214(10) 0.48786(10)
H1 H 0.0336(8) -0.1175(12) 0.3888(10)
N1DA N -0.04227(10) -0.0693(1) 0.56773(8)
O1DA O -0.04932(8) -0.03162(9) 0.64876(8)
O2DA O -0.07410(9) -0.14875(9) 0.54273(8)
H1DA H 0.1112(8) -0.0336(12) 0.3825(10)
N1EA N -0.06773(10) 0.04227(10) 0.43070(8)
O1EA O -0.14876(8) 0.04932(9) 0.46838(8)
O2EA O -0.04273(9) 0.07410(9) 0.35125(8)
H1EA H 0.1175(8) -0.1112(12) 0.4664(10)
#END
