
#######################################################################
#
#                 Cambridge Crystallographic Data Centre
#                                CCDC
#
#######################################################################
#
# If this CIF has been generated from an entry in the Cambridge
# Structural Database, then it will include bibliographic, chemical,
# crystal, experimental, refinement or atomic coordinate data resulting
# from the CCDC's data processing and validation procedures.
#
#######################################################################

data_CSD_CIF_FINGOZ
_audit_creation_date 2005-06-07
_audit_creation_method CSD-ConQuest-V1
_database_code_CSD FINGOZ
_database_code_depnum_ccdc_archive 'CCDC 167675'
_chemical_formula_sum 'C15 H17 N1 O5'
_chemical_formula_moiety
;
C15 H17 N1 O5
;
_journal_coden_Cambridge 1048
_journal_volume 3
_journal_year 2001
_journal_page_first 296
_journal_name_full 'Green Chemistry '
loop_
_publ_author_name
"W.H.Correa"
"J.L.Scott"
_chemical_name_systematic
;
t-butyl 2-acetyl-3-(2-nitrophenyl)acrylate
;
_cell_volume   1487.285
_exptl_crystal_colour 'pale yellow'
_exptl_crystal_density_diffrn 1.301
_exptl_crystal_description 'plate'
_diffrn_ambient_temperature 123
#These two values have been output from a single CSD field.
_refine_ls_R_factor_gt 0.049
_refine_ls_wR_factor_gt 0.049
_symmetry_cell_setting orthorhombic
_symmetry_space_group_name_H-M 'P n a 21'
_symmetry_Int_Tables_number 33
loop_
_symmetry_equiv_pos_site_id
_symmetry_equiv_pos_as_xyz
1 x,y,z
2 -x,-y,1/2+z
3 1/2-x,1/2+y,1/2+z
4 1/2+x,1/2-y,z
_cell_length_a 9.1435(2)
_cell_length_b 27.8109(3)
_cell_length_c 5.8488(10)
_cell_angle_alpha 90
_cell_angle_beta 90
_cell_angle_gamma 90
_cell_formula_units_Z 4
loop_
_atom_type_symbol
_atom_type_radius_bond
C 0.68
H 0.23
N 0.68
O 0.68
loop_
_atom_site_label
_atom_site_type_symbol
_atom_site_fract_x
_atom_site_fract_y
_atom_site_fract_z
O1 O 0.86323(18) 0.67454(7) 0.2595(3)
N1 N 0.6471(2) 0.47856(9) 0.4519(4)
O2 O 0.95339(19) 0.61478(7) 0.4800(4)
O3 O 0.5917(2) 0.50550(7) 0.5936(4)
C1 C 0.7131(3) 0.54895(10) 0.2098(5)
C2 C 0.7204(3) 0.49942(10) 0.2512(5)
C3 C 0.6152(3) 0.65873(10) 0.5843(5)
O4 O 0.6455(3) 0.43469(7) 0.4717(4)
C4 C 0.8615(3) 0.53490(11) -0.1285(5)
H1 H 0.90960 0.54720 -0.26000
O5 O 0.6854(2) 0.68757(7) 0.6952(4)
C5 C 0.8532(3) 0.63693(9) 0.3968(5)
C6 C 0.6337(3) 0.58404(10) 0.3534(5)
H2 H 0.53460 0.57750 0.39080
C7 C 0.8688(3) 0.48626(11) -0.0793(5)
H3 H 0.92300 0.46530 -0.17580
C8 C 0.7971(3) 0.46812(10) 0.1105(5)
H4 H 0.80040 0.43470 0.14400
C9 C 1.0084(3) 0.6959(1) 0.1977(5)
C10 C 0.7845(3) 0.56557(10) 0.0131(5)
H5 H 0.77990 0.59880 -0.02390
C11 C 0.6935(3) 0.62446(10) 0.4334(5)
C12 C 0.9642(3) 0.73889(11) 0.0543(6)
H6 H 1.05200 0.75500 -0.00360
H7 H 0.90780 0.76140 0.14850
H8 H 0.90410 0.72810 -0.07450
C13 C 1.0864(3) 0.71169(12) 0.4136(6)
H9 H 1.11880 0.68330 0.49900
H10 H 1.01930 0.73060 0.50860
H11 H 1.17140 0.73140 0.37310
C14 C 0.4506(3) 0.65611(12) 0.6013(6)
H12 H 0.42280 0.62800 0.69230
H13 H 0.40870 0.65330 0.44770
H14 H 0.41360 0.68530 0.67510
C15 C 1.0947(3) 0.65969(12) 0.0590(6)
H15 H 1.12000 0.63220 0.15570
H16 H 1.18440 0.67480 0.00200
H17 H 1.03550 0.64870 -0.07060
#END
