
#######################################################################
#
#                 Cambridge Crystallographic Data Centre
#                                CCDC
#
#######################################################################
#
# If this CIF has been generated from an entry in the Cambridge
# Structural Database, then it will include bibliographic, chemical,
# crystal, experimental, refinement or atomic coordinate data resulting
# from the CCDC's data processing and validation procedures.
#
#######################################################################

data_CSD_CIF_FINMEU
_audit_creation_date 1988-04-19
_audit_creation_method CSD-ConQuest-V1
_database_code_CSD FINMEU
_database_code_depnum_ccdc_archive 'CCDC 1156777'
_chemical_formula_sum 'C14 H6 N4 O12'
_chemical_formula_moiety
;
C14 H6 N4 O12
;
_journal_coden_Cambridge 82
_journal_volume 28
_journal_year 1987
_journal_page_first 129-2
_journal_name_full 'Zh.Strukt.Khim.(Russ.)(J.Struct.Chem.) '
loop_
_publ_author_name
"E.G.Popova"
"L.A.Chetkina"
"V.K.Bel'skii"
"A.M.Andrievskii"
"A.N.Poplovskii"
"K.M.Dyumaev"
_chemical_name_systematic
;
4,4',6,6'-Tetranitro-2,2'-dicarboxybiphenyl
;
_cell_volume   1670.062
_exptl_crystal_colour 'pale yellow'
_exptl_crystal_density_diffrn 1.68
_diffrn_ambient_temperature ?
_diffrn_special_details
;
The study was carried out at room temperature,in the range 283-303K

;
#These two values have been output from a single CSD field.
_refine_ls_R_factor_gt 0.037
_refine_ls_wR_factor_gt 0.037
_symmetry_cell_setting monoclinic
_symmetry_space_group_name_H-M 'P 1 1 21/n'
_symmetry_Int_Tables_number 14
loop_
_symmetry_equiv_pos_site_id
_symmetry_equiv_pos_as_xyz
1 x,y,z
2 1/2-x,1/2-y,1/2+z
3 -x,-y,-z
4 -1/2+x,-1/2+y,-1/2-z
_cell_length_a 11.826(2)
_cell_length_b 16.007(2)
_cell_length_c 9.123(1)
_cell_angle_alpha 90
_cell_angle_beta 90
_cell_angle_gamma 104.75(1)
_cell_formula_units_Z 4
loop_
_atom_type_symbol
_atom_type_radius_bond
C 0.68
N 0.68
O 0.68
loop_
_atom_site_label
_atom_site_type_symbol
_atom_site_fract_x
_atom_site_fract_y
_atom_site_fract_z
O1 O 0.3244(2) 0.2498(2) 0.6564(4)
O2 O 0.3350(3) 0.2860(2) 0.8816(3)
O3 O 0.6594(3) 0.5051(2) 1.0609(3)
O4 O 0.8163(3) 0.5437(2) 0.9307(4)
O5 O 0.3812(3) 0.1024(2) 0.0369(4)
O6 O 0.4567(3) 0.0170(2) 0.1633(3)
O7 O 0.6784(3) 0.1264(2) 0.6044(3)
O8 O 0.5691(3) 0.1840(2) 0.7519(3)
N1 N 0.3759(3) 0.2893(2) 0.7592(4)
N2 N 0.7156(3) 0.5030(2) 0.9499(4)
N3 N 0.4298(3) 0.0848(2) 0.1451(4)
C1 C 0.5114(3) 0.2699(2) 0.4887(4)
C2 C 0.4577(3) 0.2859(2) 0.3595(4)
C3 C 0.4309(3) 0.2278(2) 0.2450(4)
C4 C 0.4612(3) 0.1512(2) 0.2615(4)
C5 C 0.5182(3) 0.1319(2) 0.3819(4)
C6 C 0.5419(3) 0.1914(2) 0.4960(4)
C7 C 0.5539(3) 0.3359(2) 0.6067(4)
C8 C 0.6694(3) 0.3857(2) 0.5956(4)
C9 C 0.7220(3) 0.4402(2) 0.7079(4)
C10 C 0.6589(3) 0.4451(2) 0.8308(4)
C11 C 0.5450(3) 0.3972(2) 0.8487(4)
C12 C 0.4952(3) 0.3435(2) 0.7355(4)
C13 C 0.5995(3) 0.1671(2) 0.6291(4)
O9 O 0.4160(3) 0.4106(2) 0.4452(4)
O10 O 0.4174(3) 0.3911(2) 0.2112(3)
O11 O 0.7076(2) 0.3933(2) 0.3405(3)
O12 O 0.8320(2) 0.3516(2) 0.4904(3)
N4 N 0.4282(3) 0.3693(2) 0.3366(4)
C14 C 0.7394(3) 0.3769(2) 0.4634(4)
#END
