
#######################################################################
#
#                 Cambridge Crystallographic Data Centre
#                                CCDC
#
#######################################################################
#
# If this CIF has been generated from an entry in the Cambridge
# Structural Database, then it will include bibliographic, chemical,
# crystal, experimental, refinement or atomic coordinate data resulting
# from the CCDC's data processing and validation procedures.
#
#######################################################################

data_CSD_CIF_FINVEG
_audit_creation_date 2018-09-04
_audit_creation_method CSD-ConQuest-V1
_database_code_CSD FINVEG
_database_code_depnum_ccdc_archive 'CCDC 1587557'
_chemical_formula_sum 'C14 H10 N4 O3'
_chemical_formula_moiety
;
C14 H10 N4 O3
;
_journal_coden_Cambridge 1135
_journal_volume 28
_journal_year 2018
_journal_page_first 393
_journal_name_full 'Mendeleev Commun. '
loop_
_publ_author_name
"E.V.Verbitskiy"
"S.A.Baskakova"
"N.A.Gerasimova"
"N.P.Evstigneeva"
"N.V.Zilberberg"
"N.V.Kungurov"
"M.A.Kravchenko"
"G.L.Rusinov"
"O.N.Chupakhina"
"V.N.Charushin"
_chemical_name_systematic
;
4-(5-nitrofuran-2-yl)-N-phenylpyrimidin-5-amine
;
_cell_volume   2562.117
_exptl_crystal_colour 'red'
_exptl_crystal_density_diffrn 1.463
_exptl_crystal_description 'prism'
_diffrn_ambient_temperature 295
#These two values have been output from a single CSD field.
_refine_ls_R_factor_gt 0.0457
_refine_ls_wR_factor_gt 0.0457
_symmetry_cell_setting monoclinic
_symmetry_space_group_name_H-M 'P 21/c'
_symmetry_Int_Tables_number 14
loop_
_symmetry_equiv_pos_site_id
_symmetry_equiv_pos_as_xyz
1 x,y,z
2 -x,1/2+y,1/2-z
3 -x,-y,-z
4 x,-1/2-y,-1/2+z
_cell_length_a 17.5800(6)
_cell_length_b 19.9566(7)
_cell_length_c 7.4025(4)
_cell_angle_alpha 90
_cell_angle_beta 99.411(4)
_cell_angle_gamma 90
_cell_formula_units_Z 8
loop_
_atom_type_symbol
_atom_type_radius_bond
C 0.68
H 0.23
N 0.68
O 0.68
loop_
_atom_site_label
_atom_site_type_symbol
_atom_site_fract_x
_atom_site_fract_y
_atom_site_fract_z
O1 O 0.88307(5) 0.35079(5) 0.35008(14)
O2 O 0.79131(7) 0.44465(7) 0.4299(2)
O3 O 0.87634(9) 0.52203(6) 0.4050(2)
N1 N 0.80474(7) 0.23198(7) 0.3603(2)
N2 N 1.00160(7) 0.21172(6) 0.26295(17)
N3 N 0.94366(8) 0.10461(6) 0.26535(19)
N4 N 0.85357(8) 0.46356(6) 0.3959(2)
C1 C 0.87133(7) 0.20314(7) 0.32113(18)
C2 C 0.73639(8) 0.20134(7) 0.39483(19)
C3 C 0.94198(8) 0.31412(7) 0.29870(19)
C4 C 0.93641(7) 0.24113(7) 0.29648(18)
C5 C 0.90492(8) 0.41561(7) 0.3417(2)
C6 C 0.73450(8) 0.14064(7) 0.4862(2)
H1 H 0.78000 0.11720 0.52480
C7 C 0.87940(9) 0.13359(7) 0.2972(2)
H2 H 0.83700 0.10640 0.30420
C8 C 1.00263(9) 0.14575(8) 0.2525(2)
H3 H 1.04870 0.12600 0.23460
C9 C 0.97412(9) 0.42196(8) 0.2878(2)
H4 H 1.00050 0.46150 0.27330
C10 C 0.99798(9) 0.35614(8) 0.2582(2)
H5 H 1.04350 0.34360 0.21840
C11 C 0.66789(8) 0.23609(8) 0.3439(2)
H6 H 0.66820 0.27720 0.28500
C12 C 0.66506(9) 0.11502(8) 0.5199(2)
H7 H 0.66430 0.07400 0.57930
C13 C 0.59708(9) 0.14906(9) 0.4669(2)
H8 H 0.55060 0.13130 0.48940
C14 C 0.59886(9) 0.20987(9) 0.3802(2)
H9 H 0.55330 0.23370 0.34560
H10 H 0.7992(10) 0.271(1) 0.340(3)
O4 O 0.29130(5) 0.24650(5) 0.21838(14)
O5 O 0.31487(9) 0.07598(6) 0.2672(2)
O6 O 0.39299(8) 0.15819(8) 0.3517(2)
N5 N 0.15991(7) 0.38036(6) 0.0652(2)
N6 N 0.36151(7) 0.36692(7) 0.2939(2)
C15 C 0.22747(7) 0.28033(7) 0.13138(19)
N7 N 0.20859(8) 0.48907(7) 0.1453(2)
C16 C 0.22823(8) 0.35322(7) 0.1394(2)
N8 N 0.33132(8) 0.13550(7) 0.2764(2)
C17 C 0.43443(8) 0.39901(7) 0.3209(2)
C18 C 0.27360(9) 0.18088(7) 0.1938(2)
C19 C 0.29101(8) 0.39330(7) 0.2173(2)
C20 C 0.17294(8) 0.23604(7) 0.0554(2)
H11 H 0.12480 0.24640 -0.01120
C21 C 0.45124(9) 0.45399(8) 0.2215(2)
H12 H 0.41350 0.47230 0.13250
C22 C 0.15434(10) 0.44631(8) 0.0692(3)
H13 H 0.10790 0.46480 0.01330
C23 C 0.20308(9) 0.17125(7) 0.0968(2)
H14 H 0.17910 0.13050 0.06380
C24 C 0.58112(9) 0.45374(9) 0.3804(2)
H15 H 0.63030 0.47230 0.40060
C25 C 0.27524(9) 0.46223(8) 0.2196(3)
H16 H 0.31380 0.49060 0.27640
C26 C 0.52394(9) 0.48185(8) 0.2540(2)
H17 H 0.53440 0.52000 0.19010
C27 C 0.49167(9) 0.37105(8) 0.4495(2)
H18 H 0.48070 0.33420 0.51770
C28 C 0.56516(9) 0.39799(9) 0.4765(2)
H19 H 0.60390 0.37830 0.56020
H20 H 0.3602(11) 0.3251(10) 0.309(3)
#END
