
#######################################################################
#
#                 Cambridge Crystallographic Data Centre
#                                CCDC
#
#######################################################################
#
# If this CIF has been generated from an entry in the Cambridge
# Structural Database, then it will include bibliographic, chemical,
# crystal, experimental, refinement or atomic coordinate data resulting
# from the CCDC's data processing and validation procedures.
#
#######################################################################

data_CSD_CIF_FINWOO
_audit_creation_date 1988-01-14
_audit_creation_method CSD-ConQuest-V1
_database_code_CSD FINWOO
_database_code_depnum_ccdc_archive 'CCDC 1156818'
_chemical_formula_sum 'C9 H12 N4 O2'
_chemical_formula_moiety
;
C9 H12 N4 O2
;
_journal_coeditor_code "IUCr A26973"
_journal_coden_Cambridge 591
_journal_volume 43
_journal_year 1987
_journal_page_first 674
_journal_name_full 'Acta Crystallogr.,Sect.C:Cryst.Struct.Commun. '
loop_
_publ_author_name
"S.Neidle"
"G.D.Webster"
"R.Kuroda"
"D.E.V.Wilman"
_chemical_name_systematic
;
3-(4-Carbamoylphenyl)-1,3-dimethyltriazene 1-oxide
;
_chemical_melting_point 478
_cell_volume   1013.653
_exptl_crystal_colour 'colorless'
_exptl_crystal_density_diffrn 1.364
_exptl_special_details
;
Melting point range 478-480K

;
_diffrn_ambient_temperature ?
_diffrn_special_details
;
The study was carried out at room temperature,in the range 283-303K

;
#These two values have been output from a single CSD field.
_refine_ls_R_factor_gt 0.06
_refine_ls_wR_factor_gt 0.06
_symmetry_cell_setting monoclinic
_symmetry_space_group_name_H-M 'P 21/c'
_symmetry_Int_Tables_number 14
loop_
_symmetry_equiv_pos_site_id
_symmetry_equiv_pos_as_xyz
1 x,y,z
2 -x,1/2+y,1/2-z
3 -x,-y,-z
4 x,-1/2-y,-1/2+z
_cell_length_a 9.345(1)
_cell_length_b 5.059(1)
_cell_length_c 21.531(2)
_cell_angle_alpha 90
_cell_angle_beta 95.24(1)
_cell_angle_gamma 90
_cell_formula_units_Z 4
loop_
_atom_type_symbol
_atom_type_radius_bond
C 0.68
H 0.23
N 0.68
O 0.68
loop_
_atom_site_label
_atom_site_type_symbol
_atom_site_fract_x
_atom_site_fract_y
_atom_site_fract_z
O1 O 0.5070(3) 0.3064(7) 0.4377(1)
O2 O 0.0106(4) 0.2746(8) 0.0725(2)
N1 N 0.3689(4) 0.5043(8) 0.3388(2)
N2 N 0.2909(4) 0.4011(9) 0.3847(2)
N3 N 0.3718(4) 0.3127(9) 0.4313(2)
N4 N 0.0738(4) 0.7021(7) 0.0636(1)
C1 C 0.2919(5) 0.505(1) 0.2796(2)
C2 C 0.3296(5) 0.678(1) 0.2334(2)
C3 C 0.2569(5) 0.6718(9) 0.1746(2)
C4 C 0.1476(5) 0.4897(6) 0.1595(2)
C5 C 0.1114(5) 0.317(1) 0.2055(2)
C6 C 0.1823(5) 0.323(1) 0.2645(2)
C7 C 0.0746(4) 0.504(1) 0.0945(2)
C8 C 0.2946(6) 0.217(1) 0.4834(2)
C9 C 0.4623(6) 0.732(1) 0.3567(2)
H1 H 0.406(4) 0.805(9) 0.242(2)
H2 H 0.283(5) 0.80(1) 0.143(2)
H3 H 0.030(4) 0.187(9) 0.195(2)
H4 H 0.155(4) 0.200(9) 0.293(2)
H5 H 0.190(4) 0.216(9) 0.469(2)
H6 H 0.312(6) 0.35(1) 0.519(2)
H7 H 0.324(6) 0.03(1) 0.496(3)
H8 H 0.556(8) 0.71(2) 0.334(3)
H9 H 0.423(7) 0.90(1) 0.344(3)
H10 H 0.492(6) 0.72(1) 0.394(3)
H11 H 0.11850 0.85560 0.08020
H12 H 0.02570 0.70030 0.02270
#END
