
#######################################################################
#
#                 Cambridge Crystallographic Data Centre
#                                CCDC
#
#######################################################################
#
# If this CIF has been generated from an entry in the Cambridge
# Structural Database, then it will include bibliographic, chemical,
# crystal, experimental, refinement or atomic coordinate data resulting
# from the CCDC's data processing and validation procedures.
#
#######################################################################

data_CSD_CIF_FINZUY
_audit_creation_date 2005-06-07
_audit_creation_method CSD-ConQuest-V1
_database_code_CSD FINZUY
_database_code_depnum_ccdc_archive 'CCDC 265824'
_chemical_formula_sum 'C54 H54 N4 O4'
_chemical_formula_moiety
;
C54 H54 N4 O4
;
_journal_coden_Cambridge 4
_journal_volume 127
_journal_year 2005
_journal_page_first 2464
_journal_name_full 'J.Am.Chem.Soc. '
loop_
_publ_author_name
"J.A.Marsden"
"J.J.Miller"
"L.D.Shirtcliff"
"M.M.Haley"
_chemical_name_systematic
;
1,2-bis((4-(Di-n-butylamino)phenyl)ethynyl)-4,5-bis((4-nitrophenyl)ethynyl)ben
zene
;
_chemical_melting_point 434.15
_cell_volume   2334.045
_exptl_crystal_colour 'red'
_exptl_crystal_density_diffrn 1.171
_exptl_special_details
;
Melts with decomposition.

;
_exptl_crystal_description 'block'
_exptl_crystal_preparation 'hexanes/dichloromethane'
_diffrn_ambient_temperature 153
#These two values have been output from a single CSD field.
_refine_ls_R_factor_gt 0.0841
_refine_ls_wR_factor_gt 0.0841
_symmetry_cell_setting triclinic
_symmetry_space_group_name_H-M 'P -1'
_symmetry_Int_Tables_number 2
loop_
_symmetry_equiv_pos_site_id
_symmetry_equiv_pos_as_xyz
1 x,y,z
2 -x,-y,-z
_cell_length_a 13.001(2)
_cell_length_b 13.594(2)
_cell_length_c 14.847(3)
_cell_angle_alpha 112.913(4)
_cell_angle_beta 90.637(4)
_cell_angle_gamma 103.570(3)
_cell_formula_units_Z 2
loop_
_atom_type_symbol
_atom_type_radius_bond
C 0.68
H 0.23
N 0.68
O 0.68
loop_
_atom_site_label
_atom_site_type_symbol
_atom_site_fract_x
_atom_site_fract_y
_atom_site_fract_z
O1 O 1.1339(3) -0.0481(3) 0.1146(3)
O2 O 1.0177(3) -0.2067(4) 0.0540(4)
O3 O 0.3350(3) -0.6114(3) -0.0342(3)
O4 O 0.1720(4) -0.6009(3) -0.0349(3)
N1 N 1.0419(4) -0.1061(5) 0.0893(4)
N2 N 0.2673(5) -0.5573(4) -0.0208(4)
N3 N 0.5123(4) 1.0113(4) 0.3631(3)
N4 N -0.1446(4) 0.5553(4) 0.3309(4)
C1 C 0.9560(5) -0.0494(5) 0.0986(4)
C2 C 0.9831(4) 0.0645(5) 0.1305(4)
H1 H 1.05560 0.10580 0.14570
C3 C 0.9017(4) 0.1171(5) 0.1398(4)
H2 H 0.91840 0.19520 0.16070
C4 C 0.7962(5) 0.0564(5) 0.1187(4)
C5 C 0.7720(4) -0.0582(5) 0.0868(4)
H3 H 0.69960 -0.10000 0.07200
C6 C 0.8526(4) -0.1121(5) 0.0766(4)
H4 H 0.83640 -0.19020 0.05500
C7 C 0.7105(5) 0.1094(5) 0.1295(4)
C8 C 0.6370(4) 0.1488(4) 0.1391(4)
C9 C 0.5440(4) 0.1910(5) 0.1503(4)
C10 C 0.4426(4) 0.1177(5) 0.1397(4)
C11 C 0.4278(4) 0.0023(5) 0.1176(4)
C12 C 0.4073(4) -0.0937(5) 0.0983(4)
C13 C 0.3724(4) -0.2120(5) 0.0687(4)
C14 C 0.4446(4) -0.2762(5) 0.0550(4)
H5 H 0.51880 -0.24160 0.06550
C15 C 0.4110(5) -0.3878(5) 0.0268(4)
H6 H 0.46130 -0.43030 0.01870
C16 C 0.3041(5) -0.4380(5) 0.0104(4)
C17 C 0.2298(5) -0.3770(5) 0.0229(4)
H7 H 0.15580 -0.41280 0.01060
C18 C 0.2637(5) -0.2643(5) 0.0530(4)
H8 H 0.21310 -0.22180 0.06320
C19 C 0.5525(4) 0.3019(4) 0.1732(4)
H9 H 0.62080 0.35040 0.18050
C20 C 0.3537(4) 0.1612(4) 0.1517(4)
H10 H 0.28510 0.11270 0.14340
C21 C 0.3613(4) 0.2715(5) 0.1751(4)
C22 C 0.4621(5) 0.3441(5) 0.1857(4)
C23 C 0.4733(4) 0.4596(5) 0.2112(4)
C24 C 0.4781(4) 0.5558(5) 0.2338(4)
C25 C 0.4856(5) 0.6714(5) 0.2643(4)
C26 C 0.5788(5) 0.7435(5) 0.2618(4)
H11 H 0.63810 0.71560 0.23810
C27 C 0.5881(5) 0.8553(4) 0.2930(4)
H12 H 0.65350 0.90300 0.29090
C28 C 0.5008(4) 0.8998(5) 0.3282(4)
C29 C 0.4054(4) 0.8249(4) 0.3254(4)
H13 H 0.34440 0.85150 0.34480
C30 C 0.3974(5) 0.7143(5) 0.2955(4)
H14 H 0.33160 0.66590 0.29570
C31 C 0.6044(4) 1.0853(4) 0.3479(4)
H15 H 0.58240 1.14830 0.34320
H16 H 0.62950 1.04540 0.28450
C32 C 0.6971(4) 1.1304(5) 0.4304(4)
H17 H 0.67470 1.17750 0.49260
H18 H 0.71410 1.06770 0.44010
C33 C 0.7969(5) 1.1977(5) 0.4075(5)
H19 H 0.82230 1.14920 0.34810
H20 H 0.77860 1.25720 0.39300
C34 C 0.8862(5) 1.2493(5) 0.4926(5)
H21 H 0.86380 1.30280 0.54990
H22 H 0.95010 1.28700 0.47290
H23 H 0.90210 1.19110 0.50950
C35 C 0.4334(4) 1.0627(4) 0.4214(4)
H24 H 0.47160 1.13420 0.47450
H25 H 0.39630 1.01440 0.45300
C36 C 0.3503(4) 1.0833(4) 0.3628(4)
H26 H 0.31380 1.01280 0.30770
H27 H 0.38620 1.13540 0.33440
C37 C 0.2678(4) 1.1308(5) 0.4263(4)
H28 H 0.30450 1.19890 0.48370
H29 H 0.22850 1.07660 0.45130
C38 C 0.1880(5) 1.1580(5) 0.3673(4)
H30 H 0.22560 1.21770 0.34890
H31 H 0.13220 1.18150 0.40790
H32 H 0.15570 1.09210 0.30770
C39 C 0.2676(5) 0.3126(4) 0.1914(4)
C40 C 0.1924(5) 0.3507(5) 0.2095(5)
C41 C 0.1024(5) 0.3979(5) 0.2366(5)
C42 C 0.0709(5) 0.4581(5) 0.1896(5)
H33 H 0.10610 0.46460 0.13560
C43 C -0.0112(5) 0.5091(5) 0.2198(5)
H34 H -0.03160 0.54940 0.18590
C44 C -0.0636(5) 0.5017(5) 0.2987(5)
C45 C -0.0348(4) 0.4376(4) 0.3447(4)
H35 H -0.07140 0.42860 0.39720
C46 C 0.0476(4) 0.3874(4) 0.3131(4)
H36 H 0.06670 0.34470 0.34500
C47 C -0.1760(5) 0.6207(6) 0.2840(5)
H37 H -0.25030 0.62420 0.29500
H38 H -0.17310 0.58530 0.21220
C48 C -0.1019(6) 0.7386(7) 0.3258(9)
H39 H -0.09270 0.76300 0.39820
H40 H -0.03150 0.73180 0.30330
C49 C -0.1208(6) 0.8174(7) 0.3101(8)
H41 H -0.18910 0.82690 0.33660
H42 H -0.13510 0.79060 0.23780
C50 C -0.0484(6) 0.9305(6) 0.3443(5)
H43 H -0.04660 0.96860 0.41570
H44 H -0.07440 0.97200 0.31190
H45 H 0.02350 0.92540 0.32780
C51 C -0.1889(5) 0.5619(5) 0.4234(4)
H46 H -0.20350 0.63520 0.45640
H47 H -0.13460 0.55660 0.46730
C52 C -0.2896(5) 0.4738(5) 0.4104(4)
H48 H -0.27690 0.40020 0.37330
H49 H -0.34610 0.48250 0.37110
C53 C -0.3277(5) 0.4789(5) 0.5085(5)
H50 H -0.33680 0.55370 0.54690
H51 H -0.27240 0.46660 0.54640
C54 C -0.4325(5) 0.3933(5) 0.4961(5)
H52 H -0.48530 0.39930 0.45210
H53 H -0.45850 0.40670 0.56040
H54 H -0.42110 0.31900 0.46770
#END
