
#######################################################################
#
#                 Cambridge Crystallographic Data Centre
#                                CCDC
#
#######################################################################
#
# If this CIF has been generated from an entry in the Cambridge
# Structural Database, then it will include bibliographic, chemical,
# crystal, experimental, refinement or atomic coordinate data resulting
# from the CCDC's data processing and validation procedures.
#
#######################################################################

data_CSD_CIF_FIPBOY
_audit_creation_date 2018-09-04
_audit_creation_method CSD-ConQuest-V1
_database_code_CSD FIPBOY
_database_code_depnum_ccdc_archive 'CCDC 1856938'
_chemical_formula_sum 'C20 H19 N1 O4'
_chemical_formula_moiety
;
C20 H19 N1 O4
;
_journal_coden_Cambridge 4
_journal_volume 140
_journal_year 2018
_journal_page_first 10658
_journal_name_full 'J.Am.Chem.Soc. '
loop_
_publ_author_name
"Wei Liu"
"S.Z.Ali"
"S.E.Ammann"
"M.Christina White"
_chemical_name_systematic
;
7-methoxy-2-nitro-2-(3-phenylprop-2-en-1-yl)-3,4-dihydronaphthalen-1(2H)-one
;
_cell_volume   1679.661
_exptl_crystal_colour 'colorless'
_exptl_crystal_density_diffrn 1.334
_exptl_special_details
;
Absolute configuration
The data crystal was mounted using oil (Paratone-N, Exxon) to a  0.3 mm 
cryo-loop (Hampton Research) with the (-1 0 -8) scattering  planes roughly 
normal to the spindle axis.
;
_exptl_crystal_description 'column'
_diffrn_ambient_temperature 110
#These two values have been output from a single CSD field.
_refine_ls_R_factor_gt 0.0293
_refine_ls_wR_factor_gt 0.0293
_symmetry_cell_setting orthorhombic
_symmetry_space_group_name_H-M 'P 21 21 21'
_symmetry_Int_Tables_number 19
loop_
_symmetry_equiv_pos_site_id
_symmetry_equiv_pos_as_xyz
1 x,y,z
2 1/2-x,-y,1/2+z
3 -x,1/2+y,1/2-z
4 1/2+x,1/2-y,-z
_cell_length_a 7.2794(2)
_cell_length_b 7.9760(2)
_cell_length_c 28.9295(8)
_cell_angle_alpha 90
_cell_angle_beta 90
_cell_angle_gamma 90
_cell_formula_units_Z 4
loop_
_atom_type_symbol
_atom_type_radius_bond
C 0.68
H 0.23
N 0.68
O 0.68
loop_
_atom_site_label
_atom_site_type_symbol
_atom_site_fract_x
_atom_site_fract_y
_atom_site_fract_z
O1 O 0.8430(2) 0.25476(17) 1.00573(4)
O2 O 0.8602(2) 0.09123(16) 1.10619(5)
O3 O 1.08277(18) 0.26503(18) 1.09437(5)
O4 O 0.75228(19) 0.73803(16) 0.89084(4)
N1 N 0.9191(2) 0.22926(19) 1.09525(5)
C1 C 0.8043(3) 0.3791(2) 1.02792(6)
C2 C 0.7841(3) 0.3666(2) 1.08092(6)
C3 C 0.8404(3) 0.5279(2) 1.10565(6)
H1 H 0.81650 0.51670 1.13920
H2 H 0.97360 0.54740 1.10130
C4 C 0.7326(3) 0.6762(2) 1.08648(6)
H3 H 0.60210 0.66520 1.09560
H4 H 0.78070 0.78110 1.10020
C5 C 0.7449(3) 0.6874(2) 1.03451(6)
C6 C 0.7307(3) 0.8427(2) 1.01251(7)
H5 H 0.71750 0.94140 1.03060
C7 C 0.7355(3) 0.8551(2) 0.96497(7)
H6 H 0.72700 0.96200 0.95070
C8 C 0.7530(2) 0.7112(2) 0.93773(6)
C9 C 0.7725(3) 0.5563(2) 0.95858(6)
H7 H 0.78740 0.45820 0.94030
C10 C 0.7699(3) 0.5457(2) 1.00696(6)
C11 C 0.5866(3) 0.3106(2) 1.09095(6)
H8 H 0.50150 0.38980 1.07560
H9 H 0.56750 0.19890 1.07680
C12 C 0.5362(3) 0.3004(2) 1.14123(7)
H10 H 0.60450 0.22800 1.16080
C13 C 0.3994(3) 0.3891(2) 1.15920(7)
H11 H 0.34200 0.46740 1.13910
C14 C 0.3261(3) 0.3805(2) 1.20660(7)
C15 C 0.1826(3) 0.4870(3) 1.21888(7)
H12 H 0.13600 0.56410 1.19680
C16 C 0.1063(3) 0.4823(3) 1.26294(8)
H13 H 0.00880 0.55620 1.27080
C17 C 0.1727(3) 0.3699(3) 1.29530(7)
H14 H 0.12030 0.36540 1.32530
C18 C 0.3157(3) 0.2641(3) 1.28367(7)
H15 H 0.36190 0.18760 1.30600
C19 C 0.3926(3) 0.2683(3) 1.23984(7)
H16 H 0.49090 0.19470 1.23230
C20 C 0.7994(3) 0.5988(2) 0.86199(7)
H17 H 0.79410 0.63320 0.82950
H18 H 0.92400 0.56090 0.86940
H19 H 0.71240 0.50710 0.86730
#END
