
#######################################################################
#
#                 Cambridge Crystallographic Data Centre
#                                CCDC
#
#######################################################################
#
# If this CIF has been generated from an entry in the Cambridge
# Structural Database, then it will include bibliographic, chemical,
# crystal, experimental, refinement or atomic coordinate data resulting
# from the CCDC's data processing and validation procedures.
#
#######################################################################

data_CSD_CIF_FIPROO
_audit_creation_date 2018-09-04
_audit_creation_method CSD-ConQuest-V1
_database_code_CSD FIPROO
_database_code_depnum_ccdc_archive 'CCDC 1837793'
_chemical_formula_sum 'C13 H11 N1 O5'
_chemical_formula_moiety
;
C13 H11 N1 O5
;
_journal_coden_Cambridge 1048
_journal_year 2018
_journal_name_full 'Green Chemistry '
loop_
_publ_author_name
"Liam Hughes"
"C.McElroy"
"A.Whitwood"
"A.J.Hunt"
_chemical_name_systematic
;
3-[(4-nitrophenyl)methylidene]-6,8-dioxabicyclo[3.2.1]octan-4-one
;
_cell_volume   1156.250
_exptl_crystal_colour 'light yellow'
_exptl_crystal_density_diffrn 1.501
_exptl_special_details
;
Absolute configuration

;
_exptl_crystal_description 'plate'
_exptl_crystal_preparation 'toluene'
_diffrn_ambient_temperature 110.0
#These two values have been output from a single CSD field.
_refine_ls_R_factor_gt 0.0334
_refine_ls_wR_factor_gt 0.0334
_symmetry_cell_setting monoclinic
_symmetry_space_group_name_H-M 'P 21'
_symmetry_Int_Tables_number 4
loop_
_symmetry_equiv_pos_site_id
_symmetry_equiv_pos_as_xyz
1 x,y,z
2 -x,1/2+y,-z
_cell_length_a 8.36693(18)
_cell_length_b 7.08624(14)
_cell_length_c 19.5336(4)
_cell_angle_alpha 90
_cell_angle_beta 93.2815(18)
_cell_angle_gamma 90
_cell_formula_units_Z 4
loop_
_atom_type_symbol
_atom_type_radius_bond
C 0.68
H 0.23
N 0.68
O 0.68
loop_
_atom_site_label
_atom_site_type_symbol
_atom_site_fract_x
_atom_site_fract_y
_atom_site_fract_z
C1 C 0.7261(4) 0.6356(5) 0.38871(15)
C2 C 0.6797(4) 0.6307(5) 0.46275(16)
H1 H 0.60590 0.73380 0.47200
C3 C 0.8743(4) 0.4542(5) 0.52026(16)
H2 H 0.87500 0.42900 0.56910
H3 H 0.98060 0.43190 0.50460
C4 C 0.7516(4) 0.3334(4) 0.48123(15)
H4 H 0.73060 0.21810 0.50690
C5 C 0.7977(4) 0.2856(4) 0.40894(14)
H5 H 0.90410 0.23100 0.41120
H6 H 0.72390 0.19160 0.38950
C6 C 0.7953(3) 0.4563(4) 0.36225(14)
C7 C 0.8524(3) 0.4635(4) 0.29939(14)
H7 H 0.83750 0.57890 0.27720
C8 C 0.9341(3) 0.3206(4) 0.25963(14)
C9 C 0.9416(3) 0.1272(4) 0.27524(14)
H8 H 0.88960 0.08130 0.31260
C10 C 1.0253(3) 0.0047(4) 0.23566(14)
H9 H 1.02980 -0.12330 0.24620
C11 C 1.1020(3) 0.0742(4) 0.18032(14)
C12 C 1.0966(3) 0.2634(4) 0.16251(15)
H10 H 1.14870 0.30790 0.12490
C13 C 1.0112(3) 0.3838(4) 0.20249(15)
H11 H 1.00490 0.51100 0.19090
N1 N 1.1924(3) -0.0557(3) 0.13856(12)
O1 O 0.7092(3) 0.7786(3) 0.35507(12)
O2 O 0.8223(3) 0.6453(3) 0.50513(11)
O3 O 0.6121(3) 0.4547(3) 0.47773(12)
O4 O 1.2027(3) -0.2217(3) 0.15616(11)
O5 O 1.2536(2) 0.0067(3) 0.08786(10)
C14 C 0.2914(3) 0.3258(4) 0.88716(14)
C15 C 0.2510(3) 0.3185(4) 0.96165(15)
H12 H 0.24580 0.18760 0.97760
C16 C 0.1367(4) 0.5981(4) 0.99077(15)
H13 H 0.10640 0.61390 1.03760
H14 H 0.08160 0.69200 0.96200
C17 C 0.3161(3) 0.6134(4) 0.98640(14)
H15 H 0.36150 0.70020 1.02140
C18 C 0.3684(3) 0.6684(4) 0.91544(13)
H16 H 0.30320 0.77330 0.89830
H17 H 0.47870 0.71110 0.91970
C19 C 0.3551(3) 0.5094(4) 0.86385(14)
C20 C 0.4048(3) 0.5140(4) 0.79960(14)
H18 H 0.38530 0.40380 0.77470
C21 C 0.4843(3) 0.6625(4) 0.76222(14)
C22 C 0.4971(3) 0.8517(4) 0.78244(15)
H19 H 0.44990 0.89120 0.82200
C23 C 0.5787(3) 0.9803(4) 0.74464(15)
H20 H 0.58600 1.10600 0.75820
C24 C 0.6495(3) 0.9195(4) 0.68633(14)
C25 C 0.6380(3) 0.7345(4) 0.66370(15)
H21 H 0.68520 0.69630 0.62400
C26 C 0.5541(4) 0.6087(4) 0.70188(14)
H22 H 0.54380 0.48440 0.68700
N2 N 0.7408(3) 1.0535(4) 0.64711(13)
O6 O 0.2704(3) 0.1868(3) 0.85068(11)
O7 O 0.1006(2) 0.4098(3) 0.96626(11)
O8 O 0.3640(2) 0.4212(3) 1.00199(10)
O9 O 0.7457(3) 1.2191(3) 0.66550(13)
O10 O 0.8110(3) 0.9952(3) 0.59847(11)
#END
