
#######################################################################
#
#                 Cambridge Crystallographic Data Centre
#                                CCDC
#
#######################################################################
#
# If this CIF has been generated from an entry in the Cambridge
# Structural Database, then it will include bibliographic, chemical,
# crystal, experimental, refinement or atomic coordinate data resulting
# from the CCDC's data processing and validation procedures.
#
#######################################################################

data_CSD_CIF_FIPZIN01
_audit_creation_date 2010-10-12
_audit_creation_method CSD-ConQuest-V1
_database_code_CSD FIPZIN01
_database_code_depnum_ccdc_archive 'CCDC 656108'
_chemical_formula_sum 'C4 H8 N12 O6'
_chemical_formula_moiety
;
C4 H8 N12 O6
;
_journal_coden_Cambridge 1271
_journal_volume 34
_journal_year 2009
_journal_page_first 13
_journal_name_full 'Propellants,Explos.,Pyrotech. '
loop_
_publ_author_name
"T.M.Klapotke"
"B.Krumm"
"F.X.Steemann"
_chemical_name_systematic
;
1,7-Diazido-2,4,6-trinitro-2,4,6-triazaheptane
;
_chemical_melting_point 410
_cell_volume    603.056
_exptl_crystal_colour 'colorless'
_exptl_crystal_density_diffrn 1.763
_exptl_crystal_description 'needle'
_diffrn_ambient_temperature 100
#These two values have been output from a single CSD field.
_refine_ls_R_factor_gt 0.0301
_refine_ls_wR_factor_gt 0.0301
_symmetry_cell_setting triclinic
_symmetry_space_group_name_H-M 'P -1'
_symmetry_Int_Tables_number 2
loop_
_symmetry_equiv_pos_site_id
_symmetry_equiv_pos_as_xyz
1 x,y,z
2 -x,-y,-z
_cell_length_a 6.3550(8)
_cell_length_b 9.7237(16)
_cell_length_c 10.6143(17)
_cell_angle_alpha 109.688(15)
_cell_angle_beta 100.747(12)
_cell_angle_gamma 92.222(12)
_cell_formula_units_Z 2
loop_
_atom_type_symbol
_atom_type_radius_bond
C 0.68
H 0.23
N 0.68
O 0.68
loop_
_atom_site_label
_atom_site_type_symbol
_atom_site_fract_x
_atom_site_fract_y
_atom_site_fract_z
O1 O 1.04188(17) 0.43735(12) 1.10044(11)
O2 O 0.99245(18) 0.40787(12) 1.60428(12)
O3 O 0.71846(17) 0.00335(12) 0.98648(11)
O4 O 0.73964(17) 0.32981(12) 1.41750(11)
O5 O 0.56388(18) 0.01611(12) 0.78941(11)
O6 O 1.28011(16) 0.35289(12) 1.22525(11)
N1 N 0.9333(2) 0.27340(14) 1.18335(13)
N2 N 0.6659(2) 0.22147(14) 0.97175(13)
N3 N 1.0678(2) 0.26433(14) 1.41028(13)
N4 N 0.6467(2) 0.07239(14) 0.91267(14)
N5 N 0.3779(2) 0.35627(14) 0.89917(14)
N6 N 1.0950(2) 0.36023(14) 1.16931(13)
N7 N 1.2734(2) 0.06226(17) 1.52339(14)
N8 N 1.3194(2) 0.19751(15) 1.57809(14)
N9 N 0.0722(2) 0.17913(16) 0.81964(16)
N10 N 0.2255(2) 0.25675(15) 0.85378(14)
N11 N 0.9250(2) 0.33815(14) 1.48211(14)
N12 N 1.2352(2) -0.06112(18) 1.48841(16)
C1 C 0.9898(3) 0.18268(16) 1.26501(16)
H1 H 1.10250 0.12230 1.23010
H2 H 0.86160 0.11480 1.25320
C2 C 1.2901(2) 0.27853(18) 1.48204(17)
H3 H 1.33970 0.38380 1.53340
H4 H 1.38100 0.24150 1.41410
C3 C 0.5936(2) 0.30954(17) 0.88808(16)
H5 H 0.59170 0.25170 0.79110
H6 H 0.69840 0.39790 0.91600
C4 C 0.7144(2) 0.28399(17) 1.12125(15)
H7 H 0.68860 0.38880 1.14990
H8 H 0.61390 0.23270 1.15610
#END
