
#######################################################################
#
#                 Cambridge Crystallographic Data Centre
#                                CCDC
#
#######################################################################
#
# If this CIF has been generated from an entry in the Cambridge
# Structural Database, then it will include bibliographic, chemical,
# crystal, experimental, refinement or atomic coordinate data resulting
# from the CCDC's data processing and validation procedures.
#
#######################################################################

data_CSD_CIF_FIQMUP
_audit_creation_date 2013-12-30
_audit_creation_method CSD-ConQuest-V1
_database_code_CSD FIQMUP
_database_code_depnum_ccdc_archive 'CCDC 936090'
_chemical_formula_sum 'C17 H17 N3 O7'
_chemical_formula_moiety
;
C17 H17 N3 O7
;
_journal_coden_Cambridge 315
_journal_volume 117
_journal_year 2014
_journal_page_first 793
_journal_name_full 'Spectrochim.Acta,Part A '
loop_
_publ_author_name
"Yu.G.Shtyrlin"
"A.S.Petukhov"
"A.D.Strelnik"
"M.R.Garipov"
"O.A.Lodochnikova"
"I.A.Litvinov"
"O.A.Morozov"
"A.K.Naumov"
_chemical_name_systematic
;
9-(2,4-Dinitrophenoxy)-3,3,8-trimethyl-1,5-dihydro[1,3]dioxepino[5,6-c]pyridin
e
;
_chemical_melting_point 450
_cell_volume   1726.346
_exptl_crystal_colour 'yellow'
_exptl_crystal_density_diffrn 1.444
_exptl_crystal_description 'prismatic'
_diffrn_ambient_temperature 296
#These two values have been output from a single CSD field.
_refine_ls_R_factor_gt 0.0375
_refine_ls_wR_factor_gt 0.0375
_symmetry_cell_setting orthorhombic
_symmetry_space_group_name_H-M 'P c a 21'
_symmetry_Int_Tables_number 29
loop_
_symmetry_equiv_pos_site_id
_symmetry_equiv_pos_as_xyz
1 x,y,z
2 -x,-y,1/2+z
3 1/2+x,-y,z
4 1/2-x,y,1/2+z
_cell_length_a 19.309(3)
_cell_length_b 8.0073(12)
_cell_length_c 11.1656(16)
_cell_angle_alpha 90
_cell_angle_beta 90
_cell_angle_gamma 90
_cell_formula_units_Z 4
loop_
_atom_type_symbol
_atom_type_radius_bond
C 0.68
H 0.23
N 0.68
O 0.68
loop_
_atom_site_label
_atom_site_type_symbol
_atom_site_fract_x
_atom_site_fract_y
_atom_site_fract_z
O1 O 0.24906(8) 0.38179(17) 0.23640(14)
O2 O 0.36392(7) 0.3695(2) 0.29823(13)
N1 N 0.48012(12) 0.0600(2) -0.37587(19)
O3 O 0.64304(8) 0.2578(2) -0.06569(17)
O4 O 0.58207(10) 0.3801(3) 0.06800(17)
O5 O 0.46868(7) 0.52193(19) -0.00267(13)
C1 C 0.53303(10) 0.2006(3) -0.20406(19)
H1 H 0.57310 0.13870 -0.21670
C2 C 0.46946(9) 0.4072(3) -0.09185(17)
C3 C 0.52923(9) 0.3114(3) -0.11066(17)
C4 C 0.47717(11) 0.1820(3) -0.27878(18)
C5 C 0.36569(9) 0.5357(2) 0.11524(18)
C6 C 0.41708(11) 0.2725(3) -0.26148(19)
H2 H 0.37940 0.25830 -0.31240
C7 C 0.41376(10) 0.3834(3) -0.1685(2)
H3 H 0.37330 0.44410 -0.15630
C8 C 0.40517(10) 0.6017(3) 0.02349(19)
O6 O 0.53122(10) -0.0274(2) -0.38369(19)
C9 C 0.30451(10) 0.6202(2) 0.14190(18)
C10 C 0.38885(11) 0.3800(3) 0.1786(2)
H4 H 0.37280 0.28340 0.13410
H5 H 0.43910 0.37680 0.17960
C11 C 0.25395(11) 0.5594(2) 0.2341(2)
H6 H 0.26820 0.59890 0.31240
H7 H 0.20860 0.60610 0.21710
N2 N 0.32879(11) 0.8264(2) -0.00963(19)
C12 C 0.28975(12) 0.7620(3) 0.0760(2)
H8 H 0.24860 0.81710 0.09350
C13 C 0.29683(11) 0.2984(3) 0.3126(2)
C14 C 0.38729(13) 0.7456(3) -0.0376(2)
C15 C 0.43068(16) 0.8161(4) -0.1368(3)
H9 H 0.41340 0.77720 -0.21240
H10 H 0.47780 0.78030 -0.12700
H11 H 0.42870 0.93580 -0.13450
C16 C 0.29308(16) 0.1168(3) 0.2763(3)
H12 H 0.24750 0.07450 0.29260
H13 H 0.32660 0.05390 0.32110
H14 H 0.30280 0.10670 0.19230
C17 C 0.28024(14) 0.3216(4) 0.4442(2)
H15 H 0.28330 0.43790 0.46430
H16 H 0.31270 0.25950 0.49160
H17 H 0.23420 0.28210 0.46000
N3 N 0.58914(9) 0.3184(3) -0.03082(19)
O7 O 0.43081(11) 0.0504(3) -0.44359(19)
#END
