
#######################################################################
#
#                 Cambridge Crystallographic Data Centre
#                                CCDC
#
#######################################################################
#
# If this CIF has been generated from an entry in the Cambridge
# Structural Database, then it will include bibliographic, chemical,
# crystal, experimental, refinement or atomic coordinate data resulting
# from the CCDC's data processing and validation procedures.
#
#######################################################################

data_CSD_CIF_FIQSIJ
_audit_creation_date 2013-12-31
_audit_creation_method CSD-ConQuest-V1
_database_code_CSD FIQSIJ
_database_code_depnum_ccdc_archive 'CCDC 954125'
_chemical_formula_sum 'C16 H14 N6 O7'
_chemical_formula_moiety
;
C16 H14 N6 O7
;
_journal_coden_Cambridge 1127
_journal_volume 23
_journal_year 2013
_journal_page_first 6842
_journal_name_full 'Bioorg.Med.Chem.Lett. '
loop_
_publ_author_name
"A.Kamal"
"S.M.A.Hussaini"
"S.Faazil"
"Y.Poornachandra"
"G.Narender Reddy"
"C.Ganesh Kumar"
"Vikrant Singh Rajput"
"C.Rani"
"R.Sharma"
"Inshad Ali Khan"
"N.Jagadeesh Babu"
_chemical_name_systematic
;
N-((1-(4-Methoxy-3-nitrobenzyl)-1H-1,2,3-triazol-4-yl)methyl)-5-nitrofuran-2-c
arboxamide
;
_cell_volume    874.272
_exptl_crystal_colour 'brown'
_exptl_crystal_density_diffrn 1.528
_exptl_crystal_description 'block'
_diffrn_ambient_temperature 293
#These two values have been output from a single CSD field.
_refine_ls_R_factor_gt 0.0374
_refine_ls_wR_factor_gt 0.0374
_symmetry_cell_setting triclinic
_symmetry_space_group_name_H-M 'P -1'
_symmetry_Int_Tables_number 2
loop_
_symmetry_equiv_pos_site_id
_symmetry_equiv_pos_as_xyz
1 x,y,z
2 -x,-y,-z
_cell_length_a 9.256(4)
_cell_length_b 10.241(4)
_cell_length_c 10.674(4)
_cell_angle_alpha 64.767(6)
_cell_angle_beta 74.002(6)
_cell_angle_gamma 88.847(6)
_cell_formula_units_Z 2
loop_
_atom_type_symbol
_atom_type_radius_bond
C 0.68
H 0.23
N 0.68
O 0.68
loop_
_atom_site_label
_atom_site_type_symbol
_atom_site_fract_x
_atom_site_fract_y
_atom_site_fract_z
O1 O 0.1447(2) -0.06957(19) 1.31644(15)
O2 O 0.30142(18) 0.01560(15) 1.38577(13)
O3 O 0.30169(11) 0.06804(10) 1.04613(10)
O4 O 0.29683(13) 0.05873(11) 0.79678(12)
O5 O 0.36865(15) 0.55443(17) -0.10405(15)
O6 O 0.28361(14) 0.48956(14) -0.23604(12)
O7 O 0.07136(13) 0.28409(12) -0.11806(12)
N1 N 0.25730(18) 0.00528(15) 1.29258(14)
N2 N 0.46703(15) 0.25678(14) 0.66296(13)
N3 N 0.33493(15) 0.47774(14) 0.40798(14)
N4 N 0.20978(15) 0.50720(14) 0.37238(14)
N5 N 0.12883(14) 0.38038(13) 0.41907(12)
N6 N 0.27616(14) 0.48588(13) -0.11990(14)
C1 C 0.34556(18) 0.08781(15) 1.14719(16)
C2 C 0.4665(2) 0.18381(18) 1.09194(18)
H1 H 0.51610 0.21370 1.14170
C3 C 0.50342(18) 0.23037(17) 0.94174(17)
H2 H 0.58340 0.29850 0.87160
C4 C 0.40250(16) 0.15878(14) 0.91778(15)
C5 C 0.38127(15) 0.15373(14) 0.78743(15)
C6 C 0.46390(18) 0.26276(18) 0.52583(16)
H3 H 0.46010 0.16470 0.53430
H4 H 0.55730 0.31640 0.45250
C7 C 0.33418(17) 0.33179(15) 0.47639(14)
C8 C 0.20279(17) 0.27013(16) 0.48349(15)
H5 H 0.17050 0.17140 0.52470
C9 C -0.00928(17) 0.37604(18) 0.38075(16)
H6 H -0.04890 0.46920 0.35820
H7 H -0.08430 0.30260 0.46300
C10 C 0.01742(16) 0.34236(15) 0.25274(15)
C11 C 0.13472(15) 0.41760(15) 0.12916(15)
H8 H 0.20330 0.48360 0.12800
C12 C 0.15182(15) 0.39642(14) 0.00717(15)
C13 C 0.05203(16) 0.29820(15) 0.00413(15)
C14 C -0.06248(17) 0.21952(16) 0.13121(16)
H9 H -0.12950 0.15080 0.13460
C15 C -0.07822(17) 0.24172(16) 0.25200(16)
H10 H -0.15580 0.18710 0.33590
C16 C -0.0392(2) 0.1956(2) -0.1256(2)
H11 H -0.04510 0.09730 -0.05420
H12 H -0.01130 0.19840 -0.22040
H13 H -0.13580 0.23110 -0.10730
H14 H 0.5160(19) 0.3248(19) 0.6619(18)
#END
