
#######################################################################
#
#                 Cambridge Crystallographic Data Centre
#                                CCDC
#
#######################################################################
#
# If this CIF has been generated from an entry in the Cambridge
# Structural Database, then it will include bibliographic, chemical,
# crystal, experimental, refinement or atomic coordinate data resulting
# from the CCDC's data processing and validation procedures.
#
#######################################################################

data_CSD_CIF_FIQTUV
_audit_creation_date 2005-06-09
_audit_creation_method CSD-ConQuest-V1
_database_code_CSD FIQTUV
_database_code_depnum_ccdc_archive 'CCDC 265313'
_chemical_formula_sum 'C35 H47 N3 O7'
_chemical_formula_moiety
;
C35 H47 N3 O7
;
_journal_coden_Cambridge 1336
_journal_volume 6
_journal_year 2004
_journal_page_first 4427
_journal_name_full 'Org.Lett. '
loop_
_publ_author_name
"D.J.Dixon"
"R.A.J.Horan"
"N.J.T.Monck"
"P.Berg"
_chemical_name_systematic
;
Benzyl 
N-(1-(N,N-dimethylcarbamoyl)-2-(4-methoxyphenyl)-3-nitropropyl)-N-(1,7,7-trime
thyltetrahydrospiro(bicyclo(2.2.1)heptane-2,2'-pyran)-6'-yl)carbamate
;
_cell_volume   3218.724
_exptl_crystal_colour 'colorless'
_exptl_crystal_density_diffrn 1.283
_diffrn_ambient_temperature 180
#These two values have been output from a single CSD field.
_refine_ls_R_factor_gt 0.0498
_refine_ls_wR_factor_gt 0.0498
_symmetry_cell_setting orthorhombic
_symmetry_space_group_name_H-M 'P 21 21 21'
_symmetry_Int_Tables_number 19
loop_
_symmetry_equiv_pos_site_id
_symmetry_equiv_pos_as_xyz
1 x,y,z
2 1/2-x,-y,1/2+z
3 1/2+x,1/2-y,-z
4 -x,1/2+y,1/2-z
_cell_length_a 8.7027(2)
_cell_length_b 14.8850(4)
_cell_length_c 24.8474(9)
_cell_angle_alpha 90
_cell_angle_beta 90
_cell_angle_gamma 90
_cell_formula_units_Z 4
loop_
_atom_type_symbol
_atom_type_radius_bond
C 0.68
H 0.23
N 0.68
O 0.68
loop_
_atom_site_label
_atom_site_type_symbol
_atom_site_fract_x
_atom_site_fract_y
_atom_site_fract_z
C1 C 0.0787(3) 0.8987(2) 0.49657(14)
O1 O 0.0302(2) 0.93870(14) 0.40361(8)
N1 N 0.0043(3) 1.00622(18) 0.31993(10)
C2 C -0.0324(3) 0.8856(2) 0.44789(13)
O2 O 0.0452(2) 1.15733(16) 0.30878(9)
N2 N 0.3353(3) 0.94902(19) 0.32672(11)
C3 C -0.1858(4) 0.9271(2) 0.46944(14)
H1 H -0.21520 0.98090 0.44840
H2 H -0.27050 0.88280 0.46790
O3 O -0.1392(2) 1.10745(15) 0.36506(10)
N3 N 0.0227(3) 0.9627(3) 0.12287(13)
C4 C -0.1478(4) 0.9521(2) 0.52773(15)
H3 H -0.22130 0.99560 0.54440
O4 O 0.2579(2) 0.85308(16) 0.26147(10)
C5 C -0.1282(4) 0.8645(3) 0.55948(16)
H4 H -0.21080 0.82120 0.55090
H5 H -0.12740 0.87590 0.59870
O5 O -0.0223(3) 0.8863(2) 0.11453(12)
C6 C 0.0300(4) 0.8302(3) 0.53974(14)
H6 H 0.10510 0.82870 0.56970
H7 H 0.02100 0.76920 0.52420
O6 O 0.0015(3) 1.0264(2) 0.09285(11)
C7 C 0.0180(4) 0.9869(2) 0.52360(13)
O7 O -0.5946(2) 1.09363(16) 0.22133(10)
C8 C 0.0370(4) 1.0729(2) 0.49024(15)
H8 H -0.00590 1.12390 0.51010
H9 H -0.01740 1.06620 0.45590
H10 H 0.14630 1.08350 0.48330
C9 C 0.0914(4) 1.0078(3) 0.57820(15)
H11 H 0.03010 1.05330 0.59690
H12 H 0.19590 1.03060 0.57270
H13 H 0.09530 0.95290 0.60000
C10 C 0.2475(3) 0.8956(2) 0.48233(15)
H14 H 0.27070 0.83860 0.46430
H15 H 0.30910 0.90050 0.51520
H16 H 0.27230 0.94560 0.45820
C11 C -0.0485(4) 0.7896(2) 0.42811(14)
H17 H 0.05520 0.76350 0.42290
H18 H -0.10180 0.75360 0.45590
C12 C -0.1369(4) 0.7832(2) 0.37575(14)
H19 H -0.24530 0.80050 0.38210
H20 H -0.13570 0.72020 0.36300
C13 C -0.0689(4) 0.8436(2) 0.33259(13)
H21 H 0.03490 0.82230 0.32250
H22 H -0.13460 0.84290 0.30010
C14 C -0.0601(4) 0.9375(2) 0.35527(13)
H23 H -0.16680 0.95640 0.36490
C15 C -0.0237(3) 1.0961(2) 0.33024(14)
C16 C 0.1040(3) 0.9865(2) 0.27390(13)
H24 H 0.15170 1.04520 0.26370
C17 C 0.2391(3) 0.9236(2) 0.28721(14)
C18 C 0.4512(4) 0.8856(3) 0.34418(15)
H25 H 0.40760 0.82490 0.34440
H26 H 0.48570 0.90130 0.38050
H27 H 0.53880 0.88760 0.31940
C19 C 0.3384(4) 1.0371(2) 0.35168(15)
H28 H 0.28740 1.08060 0.32810
H29 H 0.44530 1.05550 0.35750
H30 H 0.28480 1.03460 0.38630
C20 C -0.1712(4) 1.2013(2) 0.37831(18)
H31 H -0.16010 1.23930 0.34580
H32 H -0.09790 1.22290 0.40590
C21 C -0.3323(4) 1.2068(2) 0.39934(16)
C22 C -0.3734(4) 1.1704(3) 0.44835(15)
H33 H -0.29820 1.14060 0.46960
C23 C -0.5230(4) 1.1766(3) 0.46704(16)
H34 H -0.54980 1.15060 0.50070
C24 C -0.6328(4) 1.2203(2) 0.43700(18)
H35 H -0.73560 1.22450 0.44960
C25 C -0.5920(4) 1.2577(3) 0.38852(17)
H36 H -0.66720 1.28840 0.36780
C26 C -0.4443(4) 1.2515(2) 0.36961(15)
H37 H -0.41830 1.27790 0.33600
C27 C 0.0144(3) 0.9548(2) 0.22325(13)
H38 H 0.00390 0.88800 0.22480
C28 C 0.1103(4) 0.9793(3) 0.17353(14)
H39 H 0.13980 1.04340 0.17540
H40 H 0.20560 0.94300 0.17320
C29 C -0.1458(3) 0.9958(2) 0.21966(13)
C30 C -0.1723(3) 1.0876(2) 0.21901(14)
H41 H -0.08670 1.12720 0.21840
C31 C -0.3193(4) 1.1238(2) 0.21924(14)
H42 H -0.33420 1.18700 0.21920
C32 C -0.4438(3) 1.0658(2) 0.21953(13)
C33 C -0.4213(3) 0.9745(2) 0.21747(13)
H43 H -0.50720 0.93520 0.21570
C34 C -0.2739(3) 0.9395(2) 0.21804(13)
H44 H -0.25980 0.87630 0.21730
C35 C -0.6227(4) 1.1864(2) 0.22825(17)
H45 H -0.73270 1.19620 0.23440
H46 H -0.59060 1.21890 0.19590
H47 H -0.56430 1.20840 0.25930
#END
