
#######################################################################
#
#                 Cambridge Crystallographic Data Centre
#                                CCDC
#
#######################################################################
#
# If this CIF has been generated from an entry in the Cambridge
# Structural Database, then it will include bibliographic, chemical,
# crystal, experimental, refinement or atomic coordinate data resulting
# from the CCDC's data processing and validation procedures.
#
#######################################################################

data_CSD_CIF_FITFEU
_audit_creation_date 2005-06-09
_audit_creation_method CSD-ConQuest-V1
_database_code_CSD FITFEU
_database_code_depnum_ccdc_archive 'CCDC 250193'
_chemical_formula_sum 'C22 H32 N4 O4'
_chemical_formula_moiety
;
C22 H32 N4 O4
;
_journal_coden_Cambridge 1145
_journal_volume 15
_journal_year 2005
_journal_page_first 850
_journal_name_full 'J.Mater.Chem. '
loop_
_publ_author_name
"C.Stroh"
"R.Ziessel"
"G.Raudaschl-Sieber"
"F.H.Kohler"
"P.Turek"
_chemical_name_systematic
;
2,2'-(1,6-Dimethyl-1(E),5(E)-hexadien-3-yne-1,6-diyl)bis(4,5-dihydro-4,4,5,5-t
etramethyl-1H-imidazol-1-yloxy-3-oxide) diradical
;
_cell_volume   1143.892
_exptl_crystal_colour 'green'
_exptl_crystal_density_diffrn 1.21
_exptl_crystal_description 'prism'
_exptl_crystal_preparation 'dichloromethane/hexane'
_diffrn_ambient_temperature 173
_refine_special_details
;
The alkyl chain has the middle two C atoms disordered equally over two 
positions each.
;
#These two values have been output from a single CSD field.
_refine_ls_R_factor_gt 0.056
_refine_ls_wR_factor_gt 0.056
_symmetry_cell_setting monoclinic
_symmetry_space_group_name_H-M 'P 21/n'
_symmetry_Int_Tables_number 14
loop_
_symmetry_equiv_pos_site_id
_symmetry_equiv_pos_as_xyz
1 x,y,z
2 1/2-x,1/2+y,1/2-z
3 -x,-y,-z
4 -1/2+x,-1/2-y,-1/2+z
_cell_length_a 10.3190(6)
_cell_length_b 9.7704(8)
_cell_length_c 12.3620(8)
_cell_angle_alpha 90
_cell_angle_beta 113.394(6)
_cell_angle_gamma 90
_cell_formula_units_Z 2
loop_
_atom_type_symbol
_atom_type_radius_bond
C 0.68
H 0.23
N 0.68
O 0.68
loop_
_atom_site_label
_atom_site_type_symbol
_atom_site_fract_x
_atom_site_fract_y
_atom_site_fract_z
C1 C 0.3971(3) 0.1249(3) 0.6134(3)
N1 N 0.2692(2) 0.0847(3) 0.6078(2)
O1 O 0.1556(2) 0.1567(2) 0.5713(2)
C2 C 0.2696(3) -0.0638(3) 0.6409(3)
C3 C 0.4286(3) -0.0845(3) 0.7173(2)
N2 N 0.4905(2) 0.0220(3) 0.6634(2)
O2 O 0.6192(2) 0.0169(3) 0.6745(2)
C4 C 0.2159(4) -0.1427(4) 0.5243(3)
C5 C 0.1718(3) -0.0860(4) 0.7046(3)
C6 C 0.4716(4) -0.0427(4) 0.8462(3)
C7 C 0.4858(3) -0.2255(4) 0.7090(3)
C8 C 0.4310(3) 0.2572(4) 0.5750(3)
C9 C 0.5698(4) 0.3110(4) 0.6371(4)
C10 C 0.5884(6) 0.4280(7) 0.5770(6)
C11 C 0.3206(4) 0.3257(4) 0.4779(3)
C12 C 0.6216(6) 0.5376(7) 0.5443(5)
H1 H 0.21370 -0.23770 0.53960
H2 H 0.12340 -0.11230 0.47600
H3 H 0.27720 -0.12680 0.48510
H4 H 0.17300 -0.17990 0.72500
H5 H 0.20300 -0.03190 0.77420
H6 H 0.07840 -0.06010 0.65450
H7 H 0.43500 -0.10700 0.88440
H8 H 0.57170 -0.04070 0.88460
H9 H 0.43480 0.04560 0.84970
H10 H 0.58360 -0.22920 0.75830
H11 H 0.43670 -0.29260 0.73360
H12 H 0.47300 -0.24290 0.62980
C1B C 0.6029(3) 0.8751(3) 0.3866(3)
N1B N 0.7308(2) 0.9153(3) 0.3922(2)
O1B O 0.8444(2) 0.8433(2) 0.4287(2)
C2B C 0.7304(3) 1.0638(3) 0.3591(3)
C3B C 0.5714(3) 1.0845(3) 0.2827(2)
N2B N 0.5095(2) 0.9780(3) 0.3366(2)
O2B O 0.3808(2) 0.9831(3) 0.3255(2)
C4B C 0.7841(4) 1.1427(4) 0.4757(3)
C5B C 0.8282(3) 1.0860(4) 0.2954(3)
C6B C 0.5284(4) 1.0427(4) 0.1538(3)
C7B C 0.5142(3) 1.2255(4) 0.2910(3)
C8B C 0.5690(3) 0.7428(4) 0.4250(3)
C9B C 0.4302(4) 0.6890(4) 0.3629(4)
C10B C 0.4116(6) 0.5720(7) 0.4230(6)
C11B C 0.6794(4) 0.6743(4) 0.5221(3)
C12B C 0.3784(6) 0.4624(7) 0.4557(5)
H1B H 0.78630 1.23770 0.46040
H2B H 0.87660 1.11230 0.52400
H3B H 0.72280 1.12680 0.51490
H4B H 0.82700 1.17990 0.27500
H5B H 0.79700 1.03190 0.22580
H6B H 0.92160 1.06010 0.34550
H7B H 0.56500 1.10700 0.11560
H8B H 0.42830 1.04070 0.11540
H9B H 0.56520 0.95440 0.15030
H10B H 0.41640 1.22920 0.24170
H11B H 0.56330 1.29260 0.26640
H12B H 0.52700 1.24290 0.37020
#END
