
#######################################################################
#
#                 Cambridge Crystallographic Data Centre
#                                CCDC
#
#######################################################################
#
# If this CIF has been generated from an entry in the Cambridge
# Structural Database, then it will include bibliographic, chemical,
# crystal, experimental, refinement or atomic coordinate data resulting
# from the CCDC's data processing and validation procedures.
#
#######################################################################

data_CSD_CIF_FITGUK
_audit_creation_date 1988-04-19
_audit_creation_method CSD-ConQuest-V1
_database_code_CSD FITGUK
_chemical_formula_sum 'C13 H12 N4 O6'
_chemical_formula_moiety
;
C13 H12 N4 O6
;
_journal_coden_Cambridge 207
_journal_year 1987
_journal_page_first 1817
_journal_name_full 'J.Chem.Soc.,Perkin Trans.1 '
loop_
_publ_author_name
"B.J.Wilkins"
"G.J.Gainsford"
"D.E.Moore"
_chemical_name_systematic
;
5-Methyl-N-(2-(p-nitrobenzoyloxy)ethyl)-1,2,4-oxadiazole-3-carboxamide
;
_chemical_melting_point 416.15
_cell_volume   1350.791
_exptl_crystal_density_diffrn 1.33
_exptl_special_details
;
Melting point range 416.15-417.15K
Dx given as 1.33; we calculate 1.57. Bond N13-H3N in the supplementary data 
should be N3-H3N
;
_diffrn_ambient_temperature 153.15
#These two values have been output from a single CSD field.
_refine_ls_R_factor_gt 0.051
_refine_ls_wR_factor_gt 0.051
_symmetry_cell_setting monoclinic
_symmetry_space_group_name_H-M 'P 21/c'
_symmetry_Int_Tables_number 14
loop_
_symmetry_equiv_pos_site_id
_symmetry_equiv_pos_as_xyz
1 x,y,z
2 -x,1/2+y,1/2-z
3 -x,-y,-z
4 x,-1/2-y,-1/2+z
_cell_length_a 5.574(7)
_cell_length_b 28.454(29)
_cell_length_c 8.753(7)
_cell_angle_alpha 90
_cell_angle_beta 103.34(8)
_cell_angle_gamma 90
_cell_formula_units_Z 4
loop_
_atom_type_symbol
_atom_type_radius_bond
C 0.68
H 0.23
N 0.68
O 0.68
loop_
_atom_site_label
_atom_site_type_symbol
_atom_site_fract_x
_atom_site_fract_y
_atom_site_fract_z
O1 O 0.8379(7) 0.34015(15) 1.0277(5)
O2 O 0.7448(8) 0.44595(15) 0.6444(5)
O3 O 0.0592(7) 0.55176(15) 0.7156(5)
O4 O -0.1740(8) 0.55850(15) 0.8925(5)
O5 O -0.5697(8) 0.72625(16) 0.2689(6)
O6 O -0.8294(9) 0.72922(16) 0.4173(6)
N1 N 0.9639(9) 0.36629(18) 0.8230(6)
N2 N 0.6788(9) 0.37692(18) 0.9644(6)
N3 N 0.4421(10) 0.44745(20) 0.7801(6)
N4 N -0.6452(10) 0.71319(19) 0.3834(7)
C1 C 1.0010(11) 0.33617(24) 0.9358(8)
C2 C 0.7651(11) 0.39104(21) 0.8469(7)
C3 C 1.1810(14) 0.29774(27) 0.970(1)
C4 C 0.6460(12) 0.43083(24) 0.7455(7)
C5 C 0.3056(15) 0.48554(29) 0.6953(9)
C6 C 0.2027(15) 0.51508(28) 0.8069(8)
C7 C -0.1225(12) 0.57021(23) 0.7724(7)
C8 C -0.2556(11) 0.60743(21) 0.6665(7)
C9 C -0.1811(12) 0.62189(24) 0.5337(8)
C10 C -0.3066(12) 0.65701(24) 0.4415(8)
C11 C -0.5023(11) 0.67727(21) 0.4866(7)
C12 C -0.5801(13) 0.66406(24) 0.6159(8)
C13 C -0.4534(12) 0.62878(25) 0.7081(8)
H1 H 0.36(1) 0.4319(20) 0.846(6)
H2 H 1.217(9) 0.2878(18) 1.085(7)
H3 H 1.112(12) 0.2682(25) 0.911(8)
H4 H 1.324(11) 0.3072(20) 0.953(7)
H5 H 0.168(12) 0.4777(22) 0.614(7)
H6 H 0.399(9) 0.5064(18) 0.653(5)
H7 H 0.105(9) 0.4971(19) 0.865(5)
H8 H 0.335(10) 0.5296(19) 0.892(6)
H9 H -0.051(8) 0.6091(17) 0.502(5)
H10 H -0.260(9) 0.6663(17) 0.354(5)
H11 H -0.718(9) 0.6769(16) 0.647(5)
H12 H -0.490(7) 0.6169(15) 0.804(5)
#END
