
#######################################################################
#
#                 Cambridge Crystallographic Data Centre
#                                CCDC
#
#######################################################################
#
# If this CIF has been generated from an entry in the Cambridge
# Structural Database, then it will include bibliographic, chemical,
# crystal, experimental, refinement or atomic coordinate data resulting
# from the CCDC's data processing and validation procedures.
#
#######################################################################

data_CSD_CIF_FITPED
_audit_creation_date 1988-03-22
_audit_creation_method CSD-ConQuest-V1
_database_code_CSD FITPED
_chemical_formula_sum 'C16 H17 N1 O3'
_chemical_formula_moiety
;
C16 H17 N1 O3
;
_journal_coden_Cambridge 82
_journal_volume 28
_journal_year 1987
_journal_page_first 172-1
_journal_name_full 'Zh.Strukt.Khim.(Russ.)(J.Struct.Chem.) '
loop_
_publ_author_name
"V.A.Tafeenko"
"A.E.Prozorovskii"
"V.V.Kovalev"
"I.V.Knyazeva"
_chemical_name_systematic
;
1-(4-Nitrophenyl)adamantan-4-one
;
_chemical_melting_point 410.65
_cell_volume   2615.010
_exptl_special_details
;
Melting point range 410.65-411.15K

;
_diffrn_ambient_temperature ?
_diffrn_special_details
;
The study was carried out at room temperature,in the range 283-303K

;
#These two values have been output from a single CSD field.
_refine_ls_R_factor_gt 0.03
_refine_ls_wR_factor_gt 0.03
_symmetry_cell_setting monoclinic
_symmetry_space_group_name_H-M 'C 2/c'
_symmetry_Int_Tables_number 15
loop_
_symmetry_equiv_pos_site_id
_symmetry_equiv_pos_as_xyz
1 x,y,z
2 1/2+x,1/2+y,z
3 -x,y,1/2-z
4 1/2-x,1/2+y,1/2-z
5 -x,-y,-z
6 -1/2-x,-1/2-y,-z
7 x,-y,-1/2+z
8 -1/2+x,-1/2-y,-1/2+z
_cell_length_a 11.933(3)
_cell_length_b 11.463(3)
_cell_length_c 19.502(6)
_cell_angle_alpha 90
_cell_angle_beta 101.4(5)
_cell_angle_gamma 90
_cell_formula_units_Z 8
loop_
_atom_type_symbol
_atom_type_radius_bond
C 0.68
H 0.23
N 0.68
O 0.68
loop_
_atom_site_label
_atom_site_type_symbol
_atom_site_fract_x
_atom_site_fract_y
_atom_site_fract_z
O1 O 0.8081(2) 0.2261(2) 0.5725(1)
O2 O 0.7853(2) 0.0502(2) 0.5316(1)
O3 O 0.1652(2) 0.0228(2) 0.7995(1)
N1 N 0.7514(2) 0.1369(2) 0.5581(1)
C1 C 0.3141(2) 0.1262(3) 0.6414(1)
C2 C 0.2727(2) 0.0016(3) 0.6514(2)
C3 C 0.1579(2) 0.0035(3) 0.6764(2)
C4 C 0.1770(2) 0.0671(3) 0.7450(2)
C5 C 0.2153(3) 0.1915(3) 0.7386(2)
C6 C 0.1238(3) 0.2553(3) 0.6853(2)
C7 C 0.1082(3) 0.1931(3) 0.6148(2)
C8 C 0.2204(2) 0.1908(3) 0.5885(2)
C9 C 0.0676(3) 0.0684(3) 0.6228(2)
C10 C 0.3293(2) 0.1889(3) 0.7126(2)
C11 C 0.4263(2) 0.1270(3) 0.6154(1)
C12 C 0.4779(3) 0.2325(3) 0.6035(2)
C13 C 0.5823(3) 0.2367(3) 0.5834(2)
C14 C 0.6360(2) 0.1337(3) 0.5744(1)
C15 C 0.5870(3) 0.0277(3) 0.5823(2)
C16 C 0.4824(3) 0.0256(3) 0.6030(2)
H1 H 0.052(3) 0.234(2) 0.581(1)
H2 H 0.208(2) 0.151(2) 0.541(1)
H3 H 0.246(2) 0.266(2) 0.583(1)
H4 H 0.048(2) 0.273(2) 0.703(1)
H5 H 0.149(2) 0.336(2) 0.680(1)
H6 H 0.057(2) 0.028(2) 0.577(1)
H7 H -0.007(2) 0.068(3) 0.637(1)
H8 H 0.263(2) -0.043(2) 0.608(1)
H9 H 0.335(2) -0.045(2) 0.687(1)
H10 H 0.134(2) -0.071(2) 0.684(1)
H11 H 0.225(2) 0.230(2) 0.784(1)
H12 H 0.359(2) 0.269(2) 0.708(1)
H13 H 0.393(2) 0.149(2) 0.748(1)
H14 H 0.441(2) 0.303(2) 0.608(1)
H15 H 0.616(2) 0.310(2) 0.576(1)
H16 H 0.626(2) -0.040(2) 0.574(1)
H17 H 0.452(2) -0.046(2) 0.611(1)
#END
