
#######################################################################
#
#                 Cambridge Crystallographic Data Centre
#                                CCDC
#
#######################################################################
#
# If this CIF has been generated from an entry in the Cambridge
# Structural Database, then it will include bibliographic, chemical,
# crystal, experimental, refinement or atomic coordinate data resulting
# from the CCDC's data processing and validation procedures.
#
#######################################################################

data_CSD_CIF_FIVPOR
_audit_creation_date 2014-01-06
_audit_creation_method CSD-ConQuest-V1
_database_code_CSD FIVPOR
_database_code_depnum_ccdc_archive 'CCDC 912892'
_chemical_formula_sum 'C18 H11 N3 O2'
_chemical_formula_moiety
;
C18 H11 N3 O2
;
_journal_coden_Cambridge 35
_journal_volume 79
_journal_year 2014
_journal_page_first 41
_journal_name_full 'J.Org.Chem. '
loop_
_publ_author_name
"S.L.Broman"
"M.Jevric"
"A.D.Bond"
"M.B.Nielsen"
_chemical_name_systematic
;
2-(4-Nitrophenyl)azulene-1,1(8aH)-dicarbonitrile
;
_cell_volume    723.670
_exptl_crystal_colour 'yellow'
_exptl_crystal_density_diffrn 1.383
_exptl_crystal_description 'plate'
_diffrn_ambient_temperature 150
#These two values have been output from a single CSD field.
_refine_ls_R_factor_gt 0.0316
_refine_ls_wR_factor_gt 0.0316
_symmetry_cell_setting triclinic
_symmetry_space_group_name_H-M 'P 1'
_symmetry_Int_Tables_number 1
loop_
_symmetry_equiv_pos_site_id
_symmetry_equiv_pos_as_xyz
1 x,y,z
_cell_length_a 6.1413(2)
_cell_length_b 8.6786(3)
_cell_length_c 14.2186(6)
_cell_angle_alpha 84.699(2)
_cell_angle_beta 83.150(2)
_cell_angle_gamma 74.522(2)
_cell_formula_units_Z 2
loop_
_atom_type_symbol
_atom_type_radius_bond
C 0.68
H 0.23
N 0.68
O 0.68
loop_
_atom_site_label
_atom_site_type_symbol
_atom_site_fract_x
_atom_site_fract_y
_atom_site_fract_z
O1 O 1.4927(2) -0.06775(19) 0.39373(11)
O2 O 1.2245(3) -0.1483(2) 0.47883(11)
N1 N 0.5091(3) 0.2534(2) 0.09472(13)
N2 N 0.9499(3) 0.5623(2) 0.06003(11)
N3 N 1.2928(3) -0.0537(2) 0.42049(12)
C1 C 0.2761(3) 0.6564(2) 0.25999(13)
C2 C 0.4346(3) 0.5481(2) 0.31779(14)
H1 H 0.41190 0.53880 0.38510
C3 C 0.6171(3) 0.4618(2) 0.26749(13)
C4 C 0.5917(3) 0.5034(2) 0.16039(12)
C5 C 0.3741(3) 0.6489(2) 0.15753(13)
H2 H 0.26440 0.62320 0.11870
C6 C 0.4130(3) 0.8091(2) 0.12262(13)
H3 H 0.56300 0.81920 0.10500
C7 C 0.2350(3) 0.9381(2) 0.11645(14)
H4 H 0.26610 1.03430 0.08800
C8 C 0.0021(3) 0.9444(3) 0.14882(15)
H5 H -0.11000 1.01430 0.11310
C9 C -0.0733(3) 0.8609(3) 0.22484(15)
H6 H -0.23300 0.87860 0.23820
C10 C 0.0665(3) 0.7478(3) 0.28738(15)
H7 H 0.00830 0.73650 0.35190
C11 C 0.5484(3) 0.3631(2) 0.12048(13)
C12 C 0.7940(3) 0.5374(2) 0.10405(12)
C13 C 0.7977(3) 0.3306(2) 0.30482(12)
C14 C 0.7410(3) 0.2364(2) 0.38438(13)
H8 H 0.58880 0.25950 0.41280
C15 C 0.9005(3) 0.1115(3) 0.42200(14)
H9 H 0.85950 0.04700 0.47530
C16 C 1.1225(3) 0.0808(2) 0.38120(13)
C17 C 1.1863(3) 0.1709(2) 0.30270(13)
H10 H 1.33960 0.14810 0.27550
C18 C 1.0236(3) 0.2942(2) 0.26480(13)
H11 H 1.06520 0.35600 0.21030
O3 O 1.2244(3) 0.1411(2) 0.60423(13)
O4 O 1.2205(3) 0.3515(2) 0.51085(12)
N4 N 0.4766(3) 0.5869(2) 0.94081(11)
N5 N 0.0574(3) 0.3000(2) 0.87939(13)
N6 N 1.1312(3) 0.2755(3) 0.57370(13)
C19 C -0.1109(3) 0.7690(2) 0.74694(13)
C20 C 0.0813(3) 0.6933(3) 0.68387(14)
H12 H 0.09230 0.71530 0.61700
C21 C 0.2429(3) 0.5885(2) 0.72935(13)
C22 C 0.1603(3) 0.5742(2) 0.83596(12)
C23 C -0.0621(3) 0.7153(2) 0.84784(13)
H13 H -0.18900 0.67370 0.88190
C24 C -0.0423(3) 0.8579(2) 0.89479(14)
H14 H 0.09930 0.85990 0.91450
C25 C -0.2239(4) 0.9827(2) 0.90913(14)
H15 H -0.20690 1.06550 0.94470
C26 C -0.4424(3) 1.0022(2) 0.87538(15)
H16 H -0.57210 1.05300 0.91540
C27 C -0.4799(3) 0.9551(2) 0.79207(16)
H17 H -0.63290 0.97920 0.77750
C28 C -0.3081(3) 0.8717(3) 0.72413(15)
H18 H -0.33420 0.88950 0.65900
C29 C 0.3370(3) 0.5820(2) 0.89641(12)
C30 C 0.1034(3) 0.4186(2) 0.86125(13)
C31 C 0.4687(3) 0.5006(2) 0.68867(13)
C32 C 0.5645(3) 0.5620(3) 0.60397(13)
H19 H 0.47970 0.65620 0.57230
C33 C 0.7792(3) 0.4882(3) 0.56601(14)
H20 H 0.84430 0.53100 0.50900
C34 C 0.8985(3) 0.3504(3) 0.61247(14)
C35 C 0.8093(3) 0.2829(3) 0.69415(14)
H21 H 0.89290 0.18570 0.72340
C36 C 0.5935(3) 0.3603(2) 0.73287(13)
H22 H 0.53030 0.31710 0.79020
#END
