
#######################################################################
#
#                 Cambridge Crystallographic Data Centre
#                                CCDC
#
#######################################################################
#
# If this CIF has been generated from an entry in the Cambridge
# Structural Database, then it will include bibliographic, chemical,
# crystal, experimental, refinement or atomic coordinate data resulting
# from the CCDC's data processing and validation procedures.
#
#######################################################################

data_CSD_CIF_FIVPAD
_audit_creation_date 2014-01-06
_audit_creation_method CSD-ConQuest-V1
_database_code_CSD FIVPAD
_database_code_depnum_ccdc_archive 'CCDC 912895'
_chemical_formula_sum 'C24 H14 N4 O4'
_chemical_formula_moiety
;
C24 H14 N4 O4
;
_journal_coden_Cambridge 35
_journal_volume 79
_journal_year 2014
_journal_page_first 41
_journal_name_full 'J.Org.Chem. '
loop_
_publ_author_name
"S.L.Broman"
"M.Jevric"
"A.D.Bond"
"M.B.Nielsen"
_chemical_name_systematic
;
2,7-bis(4-nitrophenyl)azulene-1,1(8aH)-dicarbonitrile
;
_cell_volume   3896.040
_exptl_crystal_colour 'yellow'
_exptl_crystal_density_diffrn 1.44
_exptl_crystal_description 'lath'
_diffrn_ambient_temperature 150
#These two values have been output from a single CSD field.
_refine_ls_R_factor_gt 0.0475
_refine_ls_wR_factor_gt 0.0475
_symmetry_cell_setting orthorhombic
_symmetry_space_group_name_H-M 'P b c a'
_symmetry_Int_Tables_number 61
loop_
_symmetry_equiv_pos_site_id
_symmetry_equiv_pos_as_xyz
1 x,y,z
2 1/2-x,-y,1/2+z
3 -x,1/2+y,1/2-z
4 1/2+x,1/2-y,-z
5 -x,-y,-z
6 -1/2+x,y,-1/2-z
7 x,-1/2-y,-1/2+z
8 -1/2-x,-1/2+y,z
_cell_length_a 19.8575(9)
_cell_length_b 7.0316(3)
_cell_length_c 27.9026(13)
_cell_angle_alpha 90
_cell_angle_beta 90
_cell_angle_gamma 90
_cell_formula_units_Z 8
loop_
_atom_type_symbol
_atom_type_radius_bond
C 0.68
H 0.23
N 0.68
O 0.68
loop_
_atom_site_label
_atom_site_type_symbol
_atom_site_fract_x
_atom_site_fract_y
_atom_site_fract_z
N1 N 0.41701(10) 0.9790(3) 0.50205(8)
N2 N 0.45748(10) 0.3954(3) 0.54210(7)
N3 N 0.25493(13) 0.8156(3) 0.71473(8)
O1 O 0.30135(13) 0.8457(5) 0.74037(9)
O2 O 0.19857(13) 0.8321(5) 0.72810(8)
N4 N 0.51021(10) -0.3577(3) 0.31470(8)
O3 O 0.5590(1) -0.4193(3) 0.33643(8)
O4 O 0.48435(9) -0.4383(3) 0.28055(7)
C1 C 0.2882(1) 0.5604(3) 0.43906(8)
C2 C 0.25917(10) 0.5859(3) 0.48543(8)
H1 H 0.21220 0.57650 0.49140
C3 C 0.30454(10) 0.6246(3) 0.51984(8)
C4 C 0.37566(10) 0.6263(3) 0.49703(8)
C5 C 0.36397(10) 0.5722(3) 0.44284(7)
H2 H 0.38070 0.67770 0.42190
C6 C 0.39325(10) 0.3872(3) 0.42598(8)
H3 H 0.41450 0.30510 0.44840
C7 C 0.38983(10) 0.3359(3) 0.37966(7)
C8 C 0.35100(11) 0.4421(3) 0.34416(8)
H4 H 0.36960 0.45180 0.31290
C9 C 0.29111(12) 0.5277(3) 0.35168(8)
H5 H 0.26970 0.58250 0.32460
C10 C 0.25675(11) 0.5440(3) 0.39664(8)
H6 H 0.20890 0.54320 0.39640
C11 C 0.40223(10) 0.8223(3) 0.50039(8)
C12 C 0.42202(11) 0.4956(3) 0.52233(8)
C13 C 0.29244(11) 0.6721(3) 0.57010(8)
C14 C 0.22620(11) 0.6905(3) 0.58712(8)
H7 H 0.18950 0.67100 0.56580
C15 C 0.21375(12) 0.7366(3) 0.63421(8)
H8 H 0.16880 0.74840 0.64560
C16 C 0.26747(12) 0.7655(3) 0.66468(8)
C17 C 0.33307(12) 0.7491(3) 0.64949(8)
H9 H 0.36940 0.76900 0.67110
C18 C 0.34502(11) 0.7033(3) 0.60232(8)
H10 H 0.39020 0.69260 0.59140
C19 C 0.42263(10) 0.1581(3) 0.36233(7)
C20 C 0.47706(11) 0.0768(3) 0.38664(8)
H11 H 0.49450 0.13830 0.41430
C21 C 0.50583(11) -0.0907(3) 0.37130(8)
H12 H 0.54250 -0.14540 0.38820
C22 C 0.48033(11) -0.1773(3) 0.33093(8)
C23 C 0.42711(11) -0.1020(3) 0.30558(8)
H13 H 0.41040 -0.16370 0.27770
C24 C 0.39860(11) 0.0652(3) 0.32163(8)
H14 H 0.36170 0.11830 0.30450
#END
