
#######################################################################
#
#                 Cambridge Crystallographic Data Centre
#                                CCDC
#
#######################################################################
#
# If this CIF has been generated from an entry in the Cambridge
# Structural Database, then it will include bibliographic, chemical,
# crystal, experimental, refinement or atomic coordinate data resulting
# from the CCDC's data processing and validation procedures.
#
#######################################################################

data_CSD_CIF_FIVQOS
_audit_creation_date 2014-01-06
_audit_creation_method CSD-ConQuest-V1
_database_code_CSD FIVQOS
_database_code_depnum_ccdc_archive 'CCDC 961971'
_chemical_formula_sum 'C37 H37 N1 O7'
_chemical_formula_moiety
;
C37 H37 N1 O7
;
_journal_coden_Cambridge 35
_journal_volume 78
_journal_year 2013
_journal_page_first 12779
_journal_name_full 'J.Org.Chem. '
loop_
_publ_author_name
"T.Becker"
"H.Gorls"
"G.Pauls"
"R.Wedekind"
"M.Kai"
"S.H.von Reu"
"W.Boland"
_chemical_name_systematic
;
2-(3,4,5-tris(benzyloxy)-6-((benzyloxy)methyl)tetrahydro-2H-pyran-2-yl)-1,2-ox
azol-5(2H)-one
;
_cell_volume   1576.381
_exptl_crystal_colour 'colorless'
_exptl_crystal_density_diffrn 1.28
_exptl_special_details
;
Absolute configuration

;
_exptl_crystal_description 'prism'
_diffrn_ambient_temperature 133
#These two values have been output from a single CSD field.
_refine_ls_R_factor_gt 0.0299
_refine_ls_wR_factor_gt 0.0299
_symmetry_cell_setting triclinic
_symmetry_space_group_name_H-M 'P 1'
_symmetry_Int_Tables_number 1
loop_
_symmetry_equiv_pos_site_id
_symmetry_equiv_pos_as_xyz
1 x,y,z
_cell_length_a 10.6443(5)
_cell_length_b 12.4845(6)
_cell_length_c 12.8966(6)
_cell_angle_alpha 104.609(2)
_cell_angle_beta 96.556(2)
_cell_angle_gamma 104.520(2)
_cell_formula_units_Z 2
loop_
_atom_type_symbol
_atom_type_radius_bond
C 0.68
H 0.23
N 0.68
O 0.68
loop_
_atom_site_label
_atom_site_type_symbol
_atom_site_fract_x
_atom_site_fract_y
_atom_site_fract_z
O1 O 0.50755(8) 0.77203(7) 0.93803(7)
O2 O 0.57149(8) 1.00929(8) 1.06384(7)
O3 O 0.64945(10) 1.19325(9) 1.16923(8)
O4 O 0.43048(8) 0.98709(7) 0.81782(7)
O5 O 0.53876(8) 0.85489(7) 0.65020(7)
O6 O 0.49353(9) 0.61408(7) 0.65830(7)
O7 O 0.70296(8) 0.65762(8) 0.92533(7)
N1 N 0.44492(10) 0.92875(9) 1.02162(8)
C1 C 0.43709(12) 0.84896(11) 0.91713(10)
H1 H 0.34250 0.80440 0.88580
C2 C 0.49628(11) 0.90511(10) 0.83422(10)
H2 H 0.59270 0.94480 0.86240
C3 C 0.47738(12) 0.80953(11) 0.72856(10)
H3 H 0.38060 0.77410 0.69860
C4 C 0.53718(12) 0.71568(10) 0.74867(10)
H4 H 0.63580 0.74540 0.76310
C5 C 0.49163(12) 0.67574(10) 0.84466(10)
H5 H 0.39580 0.63130 0.82230
C6 C 0.35442(13) 0.98735(12) 1.04501(10)
H6 H 0.2669(17) 0.9468(14) 1.0199(13)
C7 C 0.41283(14) 1.09601(12) 1.10858(11)
H7 H 0.3705(17) 1.1552(15) 1.1354(14)
C8 C 0.55295(13) 1.11447(12) 1.12214(10)
C9 C 0.52221(13) 1.09617(11) 0.82296(12)
H8 H 0.57780 1.08390 0.76710
H9 H 0.58090 1.12930 0.89560
C10 C 0.44711(12) 1.17824(11) 0.80328(11)
C11 C 0.43214(14) 1.20060(12) 0.70336(12)
H10 H 0.46830 1.16220 0.64610
C12 C 0.36485(16) 1.27846(13) 0.68600(12)
H11 H 0.35580 1.29360 0.61740
C13 C 0.31128(14) 1.33365(12) 0.76863(13)
H12 H 0.26370 1.38580 0.75670
C14 C 0.32689(16) 1.31293(13) 0.86862(13)
H13 H 0.29100 1.35160 0.92590
C15 C 0.39482(16) 1.23581(13) 0.88574(12)
H14 H 0.40560 1.22230 0.95510
C16 C 0.44755(13) 0.86090(13) 0.56348(11)
H15 H 0.39310 0.91060 0.59330
H16 H 0.38780 0.78260 0.52440
C17 C 0.52259(13) 0.91012(11) 0.48576(11)
C18 C 0.46922(15) 0.87099(14) 0.37499(12)
H17 H 0.38820 0.81080 0.34870
C19 C 0.53295(16) 0.91882(14) 0.30223(12)
H18 H 0.49490 0.89180 0.22670
C20 C 0.65080(15) 1.00502(13) 0.33878(12)
H19 H 0.69400 1.03810 0.28890
C21 C 0.70619(14) 1.04335(12) 0.44880(12)
H20 H 0.78880 1.10160 0.47420
C22 C 0.64158(13) 0.99696(11) 0.52238(11)
H21 H 0.67920 1.02490 0.59800
C23 C 0.57093(16) 0.60923(12) 0.57437(12)
H22 H 0.66630 0.64000 0.60690
H23 H 0.54940 0.65600 0.52700
C24 C 0.53822(13) 0.48487(11) 0.50934(10)
C25 C 0.62063(14) 0.41970(13) 0.52996(11)
H24 H 0.69950 0.45510 0.58330
C26 C 0.58910(15) 0.30331(13) 0.47349(13)
H25 H 0.64580 0.25900 0.48860
C27 C 0.47542(16) 0.25210(13) 0.39549(12)
H26 H 0.45400 0.17240 0.35640
C28 C 0.39277(15) 0.31593(14) 0.37398(12)
H27 H 0.31440 0.28030 0.32010
C29 C 0.42375(13) 0.43210(13) 0.43085(11)
H28 H 0.36630 0.47580 0.41600
C30 C 0.56741(12) 0.59892(10) 0.88109(10)
H29 H 0.52580 0.56850 0.93670
H30 H 0.56060 0.53210 0.81780
C31 C 0.73504(13) 0.70951(11) 1.04233(11)
H31 H 0.68910 0.76950 1.06190
H32 H 0.83130 0.74830 1.06410
C32 C 0.69751(13) 0.62428(12) 1.10586(11)
C33 C 0.59001(16) 0.62027(15) 1.15725(13)
H33 H 0.54010 0.67300 1.15380
C34 C 0.55443(18) 0.53997(18) 1.21379(15)
H34 H 0.47980 0.53740 1.24810
C35 C 0.62682(17) 0.46388(15) 1.22049(14)
H35 H 0.60250 0.40910 1.25950
C36 C 0.73459(16) 0.46765(14) 1.17027(13)
H36 H 0.78460 0.41510 1.17430
C37 C 0.77014(14) 0.54785(13) 1.11386(12)
H37 H 0.84530 0.55050 1.08020
O8 O 0.01055(8) 0.80665(7) 0.94081(7)
O9 O 0.08901(9) 1.05461(8) 1.05164(7)
O10 O 0.17181(12) 1.24204(9) 1.14594(9)
O11 O -0.07289(9) 1.01219(8) 0.81046(7)
O12 O 0.02559(8) 0.86947(8) 0.64337(7)
O13 O -0.00988(9) 0.63662(8) 0.66201(7)
O14 O 0.17497(9) 0.66624(8) 0.92384(8)
N2 N -0.03742(10) 0.97328(10) 1.02173(9)
C38 C -0.05680(12) 0.88555(11) 0.91991(10)
H38 H -0.15330 0.84400 0.89550
C39 C -0.00567(12) 0.93177(11) 0.82858(10)
H39 H 0.09140 0.97160 0.85140
C40 C -0.03064(12) 0.83009(11) 0.72642(10)
H40 H -0.12810 0.79480 0.70030
C41 C 0.02972(12) 0.73886(11) 0.75149(10)
H41 H 0.12830 0.77000 0.76840
C42 C -0.01985(12) 0.70523(11) 0.84889(10)
H42 H -0.11810 0.67200 0.82890
C43 C -0.12545(14) 1.03163(14) 1.05185(11)
H43 H -0.2196(18) 0.9864(14) 1.0354(14)
C44 C -0.06410(16) 1.14192(14) 1.10919(11)
H44 H -0.1029(18) 1.1985(16) 1.1429(15)
C45 C 0.07408(15) 1.16111(13) 1.10942(11)
C46 C 0.01631(14) 1.11890(13) 0.80711(13)
H45 H 0.06400 1.10340 0.74600
H46 H 0.08230 1.15390 0.87590
C47 C -0.06173(13) 1.20042(12) 0.79202(11)
C48 C -0.06467(14) 1.23827(13) 0.69991(11)
H47 H -0.01720 1.21200 0.64560
C49 C -0.13582(15) 1.31378(14) 0.68609(13)
H48 H -0.13700 1.33900 0.62250
C50 C -0.20531(14) 1.35283(13) 0.76455(13)
H49 H -0.25530 1.40390 0.75450
C51 C -0.20151(15) 1.31714(13) 0.85761(13)
H50 H -0.24800 1.34450 0.91230
C52 C -0.13017(15) 1.24177(13) 0.87113(12)
H51 H -0.12780 1.21780 0.93540
C53 C -0.06793(14) 0.86201(15) 0.55265(12)
H52 H -0.13160 0.90400 0.57750
H53 H -0.11770 0.78000 0.51570
C54 C 0.00242(14) 0.91405(12) 0.47414(11)
C55 C -0.06799(16) 0.89730(14) 0.37049(12)
H54 H -0.15820 0.85260 0.35010
C56 C -0.00641(19) 0.94570(14) 0.29740(12)
H55 H -0.05500 0.93430 0.22700
C57 C 0.12459(19) 1.01019(14) 0.32535(13)
H56 H 0.16600 1.04310 0.27460
C58 C 0.19519(18) 1.02667(13) 0.42760(13)
H57 H 0.28580 1.07030 0.44710
C59 C 0.13367(15) 0.97932(13) 0.50220(12)
H58 H 0.18230 0.99200 0.57290
C60 C 0.09007(17) 0.61898(14) 0.60174(14)
H59 H 0.17370 0.63280 0.65230
H60 H 0.10550 0.67410 0.55790
C61 C 0.04780(14) 0.49734(12) 0.52798(11)
C62 C 0.12787(14) 0.42701(14) 0.53667(11)
H61 H 0.20890 0.45690 0.58780
C63 C 0.09099(15) 0.31381(14) 0.47157(13)
H62 H 0.14660 0.26610 0.47810
C64 C -0.02611(15) 0.26986(12) 0.39717(12)
H63 H -0.05180 0.19170 0.35300
C65 C -0.10621(14) 0.33942(13) 0.38681(11)
H64 H -0.18670 0.30930 0.33500
C66 C -0.06941(14) 0.45296(12) 0.45174(11)
H65 H -0.12450 0.50080 0.44420
C67 C 0.03633(13) 0.61884(11) 0.88538(11)
H66 H -0.00670 0.59750 0.94440
H67 H 0.01830 0.54790 0.82360
C68 C 0.22572(16) 0.59663(14) 0.98063(13)
H68 H 0.32350 0.62260 0.99290
H69 H 0.19580 0.51530 0.93400
C69 C 0.18328(13) 0.60144(12) 1.08914(11)
C70 C 0.16253(13) 0.70074(12) 1.15203(12)
H70 H 0.17220 0.76650 1.12600
C71 C 0.12759(15) 0.70456(13) 1.25314(12)
H71 H 0.11260 0.77260 1.29590
C72 C 0.11469(15) 0.60926(14) 1.29152(12)
H72 H 0.09160 0.61220 1.36100
C73 C 0.13501(16) 0.51047(13) 1.22991(13)
H73 H 0.12630 0.44520 1.25660
C74 C 0.16832(16) 0.50618(13) 1.12853(13)
H74 H 0.18110 0.43720 1.08550
#END
