
#######################################################################
#
#                 Cambridge Crystallographic Data Centre
#                                CCDC
#
#######################################################################
#
# If this CIF has been generated from an entry in the Cambridge
# Structural Database, then it will include bibliographic, chemical,
# crystal, experimental, refinement or atomic coordinate data resulting
# from the CCDC's data processing and validation procedures.
#
#######################################################################

data_CSD_CIF_FIVSEK
_audit_creation_date 2014-01-06
_audit_creation_method CSD-ConQuest-V1
_database_code_CSD FIVSEK
_database_code_depnum_ccdc_archive 'CCDC 979976'
_chemical_formula_sum 'C24 H24 N4 O12'
_chemical_formula_moiety
;
C24 H24 N4 O12
;
_journal_coden_Cambridge 35
_journal_volume 78
_journal_year 2013
_journal_page_first 12426
_journal_name_full 'J.Org.Chem. '
loop_
_publ_author_name
"R.C.Dhakal"
"R.Karl Dieter"
_chemical_name_systematic
;
(2-Butyl-3-(1-((3,5-dinitrobenzoyl)oxy)ethyl)cyclopropyl)methyl 
3,5-dinitrobenzoate
;
_cell_volume   5738.364
_exptl_crystal_colour 'colorless'
_exptl_crystal_density_diffrn 1.297
_exptl_crystal_description 'plate'
_diffrn_ambient_temperature 188
#These two values have been output from a single CSD field.
_refine_ls_R_factor_gt 0.1071
_refine_ls_wR_factor_gt 0.1071
_symmetry_cell_setting monoclinic
_symmetry_space_group_name_H-M 'C 2/c'
_symmetry_Int_Tables_number 15
loop_
_symmetry_equiv_pos_site_id
_symmetry_equiv_pos_as_xyz
1 x,y,z
2 -x,y,1/2-z
3 1/2+x,1/2+y,z
4 1/2-x,1/2+y,1/2-z
5 -x,-y,-z
6 x,-y,-1/2+z
7 -1/2-x,-1/2-y,-z
8 -1/2+x,-1/2-y,-1/2+z
_cell_length_a 27.518(8)
_cell_length_b 6.7633(13)
_cell_length_c 30.912(7)
_cell_angle_alpha 90
_cell_angle_beta 94.103(7)
_cell_angle_gamma 90
_cell_formula_units_Z 8
loop_
_atom_type_symbol
_atom_type_radius_bond
C 0.68
H 0.23
N 0.68
O 0.68
loop_
_atom_site_label
_atom_site_type_symbol
_atom_site_fract_x
_atom_site_fract_y
_atom_site_fract_z
O1 O 0.09156(15) 0.4700(5) 0.20917(12)
O2 O 0.06653(15) 0.7774(5) 0.19307(13)
O3 O 0.11313(18) 0.2568(7) 0.35871(15)
O4 O 0.07777(19) 0.4172(7) 0.40782(14)
O5 O 0.00854(18) 1.0618(6) 0.37509(16)
O6 O 0.00684(17) 1.1753(6) 0.31008(17)
O7 O 0.18429(14) -0.0609(5) 0.08061(13)
O8 O 0.19323(17) -0.3604(6) 0.11171(18)
O9 O 0.37055(19) 0.0233(7) -0.01890(19)
O10 O 0.30553(16) 0.1886(6) -0.01018(15)
O11 O 0.39702(17) -0.6058(7) 0.05082(16)
O12 O 0.34041(17) -0.7351(6) 0.08684(16)
N1 N 0.09014(18) 0.3989(7) 0.37144(17)
N2 N 0.01747(19) 1.0474(7) 0.33733(19)
N3 N 0.33135(18) 0.0460(7) -0.00373(16)
N4 N 0.35669(19) -0.6034(7) 0.06547(17)
C1 C 0.11500(19) 0.2260(7) 0.15963(17)
H1 H 0.09470 0.12050 0.16870
C2 C 0.1462(2) 0.1788(7) 0.12317(18)
H2 H 0.15210 0.28730 0.10420
C3 C 0.16992(19) 0.1969(8) 0.16874(19)
H3 H 0.18800 0.31690 0.17420
C4 C 0.0947(2) 0.4302(7) 0.16303(17)
H4 H 0.11570 0.52470 0.15060
H5 H 0.06310 0.43820 0.14800
C5 C 0.07664(18) 0.6486(7) 0.21914(18)
C6 C 0.07158(18) 0.6726(7) 0.26644(19)
C7 C 0.05122(19) 0.8488(7) 0.28053(18)
H6 H 0.04390 0.95500 0.26050
C8 C 0.04178(19) 0.8679(8) 0.3240(2)
C9 C 0.0536(2) 0.7236(8) 0.35371(19)
H7 H 0.04720 0.73900 0.38360
C10 C 0.0751(2) 0.5555(8) 0.33914(19)
C11 C 0.08417(19) 0.5241(7) 0.29670(19)
H8 H 0.09880 0.40320 0.28790
C12 C 0.1886(2) 0.0211(9) 0.1955(2)
H9 H 0.17240 -0.09620 0.18460
H10 H 0.22280 0.00540 0.19220
C13 C 0.1809(2) 0.0419(9) 0.2429(2)
H11 H 0.14660 0.05250 0.24640
H12 H 0.19600 0.16190 0.25360
C14 C 0.2013(3) -0.1303(13) 0.2697(2)
H13 H 0.18560 -0.24950 0.25930
H14 H 0.23540 -0.14270 0.26550
C15 C 0.1952(3) -0.1109(15) 0.3173(2)
H15 H 0.21220 0.00460 0.32830
H16 H 0.20830 -0.22590 0.33210
H17 H 0.16120 -0.09890 0.32190
C16 C 0.1384(2) -0.0186(7) 0.10114(18)
H18 H 0.13240 -0.11880 0.12210
C17 C 0.0980(2) -0.0156(10) 0.0657(2)
H19 H 0.10750 0.06460 0.04210
H20 H 0.06920 0.03830 0.07680
H21 H 0.09170 -0.14800 0.05560
C18 C 0.2073(2) -0.2308(8) 0.08986(19)
C19 C 0.25428(18) -0.2432(7) 0.06810(17)
C20 C 0.27015(19) -0.0897(7) 0.04266(16)
H22 H 0.25120 0.02860 0.03790
C21 C 0.31451(19) -0.1146(7) 0.02442(17)
C22 C 0.3435(2) -0.2779(7) 0.03100(17)
H23 H 0.37450 -0.28850 0.01870
C23 C 0.3259(2) -0.4273(7) 0.05635(17)
C24 C 0.2823(2) -0.4137(7) 0.07514(17)
H24 H 0.27140 -0.51930 0.09280
#END
