
#######################################################################
#
#                 Cambridge Crystallographic Data Centre
#                                CCDC
#
#######################################################################
#
# If this CIF has been generated from an entry in the Cambridge
# Structural Database, then it will include bibliographic, chemical,
# crystal, experimental, refinement or atomic coordinate data resulting
# from the CCDC's data processing and validation procedures.
#
#######################################################################

data_CSD_CIF_FIVZER
_audit_creation_date 2014-01-06
_audit_creation_method CSD-ConQuest-V1
_database_code_CSD FIVZER
_database_code_depnum_ccdc_archive 'CCDC 965251'
_chemical_formula_sum 'C19 H22 N2 O6'
_chemical_formula_moiety
;
C19 H22 N2 O6
;
_journal_coden_Cambridge 182
_journal_volume 50
_journal_year 2014
_journal_page_first 1668
_journal_name_full 'Chem.Commun. '
loop_
_publ_author_name
"N.Vemula"
"A.C.Stevens"
"T.B.Schon"
"B.L.Pagenkopf"
_chemical_name_systematic
;
(4aS,7aS)-diethyl 
1-(4-cyanophenyl)tetrahydro-1H-furo[2,3-c][1,2]oxazine-3,3(7aH)-dicarboxylate
;
_chemical_name_common
;
diethyl 
1-(4-cyanophenyl)hexahydro-3H-furo[2,3-c][1,2]oxazine-3,3-dicarboxylate
;
_chemical_melting_point 399.05
_cell_volume   1815.691
_exptl_crystal_colour 'colorless'
_exptl_crystal_density_diffrn 1.369
_exptl_special_details
;
Melting point range 399.05-400.35K

;
_exptl_crystal_description 'needle'
_diffrn_ambient_temperature 110
#These two values have been output from a single CSD field.
_refine_ls_R_factor_gt 0.0523
_refine_ls_wR_factor_gt 0.0523
loop_
_citation_database_id_CSD
_citation_special_details
OGUZOH "is a stereoisomer of this entry"
_symmetry_cell_setting monoclinic
_symmetry_space_group_name_H-M 'P 21/c'
_symmetry_Int_Tables_number 14
loop_
_symmetry_equiv_pos_site_id
_symmetry_equiv_pos_as_xyz
1 x,y,z
2 -x,1/2+y,1/2-z
3 -x,-y,-z
4 x,-1/2-y,-1/2+z
_cell_length_a 13.058(7)
_cell_length_b 7.606(4)
_cell_length_c 18.376(10)
_cell_angle_alpha 90
_cell_angle_beta 95.817(11)
_cell_angle_gamma 90
_cell_formula_units_Z 4
loop_
_atom_type_symbol
_atom_type_radius_bond
C 0.68
H 0.23
N 0.68
O 0.68
loop_
_atom_site_label
_atom_site_type_symbol
_atom_site_fract_x
_atom_site_fract_y
_atom_site_fract_z
N1 N 0.64223(12) 0.1838(2) 0.64848(8)
O1 O 0.67307(10) 0.36388(17) 0.63741(7)
C1 C 0.75948(14) 0.3586(3) 0.59509(10)
C2 C 0.85107(15) 0.2769(3) 0.64193(11)
H1 H 0.9109(17) 0.260(3) 0.6153(11)
H2 H 0.8704(14) 0.363(3) 0.6826(11)
C3 C 0.82501(15) 0.0981(3) 0.67338(11)
H3 H 0.8309(13) 0.003(3) 0.6361(10)
C4 C 0.88968(16) 0.0607(3) 0.74556(12)
H4 H 0.9618(18) 0.115(3) 0.7459(12)
H5 H 0.8906(16) -0.078(3) 0.7545(12)
C5 C 0.82969(16) 0.1516(3) 0.80205(12)
H6 H 0.8270(17) 0.083(3) 0.8522(13)
H7 H 0.8536(19) 0.283(4) 0.8109(13)
O2 O 0.72353(10) 0.1594(2) 0.77051(7)
C6 C 0.71638(15) 0.0915(3) 0.69777(10)
H8 H 0.6921(14) -0.035(3) 0.699(1)
C7 C 0.73045(14) 0.2588(3) 0.52313(10)
O3 O 0.78379(11) 0.14978(19) 0.49854(7)
O4 O 0.63939(10) 0.31460(18) 0.49201(7)
C8 C 0.59841(17) 0.2275(3) 0.42444(12)
H9 H 0.6268(17) 0.104(3) 0.4292(12)
H10 H 0.6272(16) 0.293(3) 0.3854(12)
C9 C 0.48325(18) 0.2367(3) 0.42016(14)
H11 H 0.4564(17) 0.164(3) 0.4567(13)
H12 H 0.4540(18) 0.212(3) 0.3694(14)
H13 H 0.4622(18) 0.349(4) 0.4302(13)
C10 C 0.78369(14) 0.5511(3) 0.58070(11)
O5 O 0.75893(11) 0.67162(19) 0.61713(8)
O6 O 0.83984(10) 0.56243(18) 0.52407(7)
C11 C 0.88280(16) 0.7371(3) 0.51050(12)
H14 H 0.8278(15) 0.833(3) 0.5170(11)
H15 H 0.8954(16) 0.731(3) 0.4591(12)
C12 C 0.97824(18) 0.7662(4) 0.56131(14)
H16 H 0.9647(16) 0.763(3) 0.6131(13)
H17 H 1.0095(18) 0.875(4) 0.5510(13)
H18 H 1.029(2) 0.673(4) 0.5550(14)
C13 C 0.53718(14) 0.1867(3) 0.66193(10)
C14 C 0.46833(15) 0.2853(3) 0.61510(11)
H19 H 0.4963(15) 0.354(3) 0.5761(11)
C15 C 0.36374(15) 0.2784(3) 0.62134(11)
H20 H 0.3138(16) 0.344(3) 0.5869(11)
C16 C 0.32724(14) 0.1724(3) 0.67505(10)
C17 C 0.39548(15) 0.0774(3) 0.72302(11)
H21 H 0.3710(16) 0.009(3) 0.7622(12)
C18 C 0.50042(15) 0.0861(3) 0.71706(11)
H22 H 0.5502(15) 0.021(3) 0.7515(11)
C19 C 0.21775(16) 0.1546(3) 0.67877(11)
N2 N 0.13040(14) 0.1378(3) 0.68037(10)
#END
