
#######################################################################
#
#                 Cambridge Crystallographic Data Centre
#                                CCDC
#
#######################################################################
#
# If this CIF has been generated from an entry in the Cambridge
# Structural Database, then it will include bibliographic, chemical,
# crystal, experimental, refinement or atomic coordinate data resulting
# from the CCDC's data processing and validation procedures.
#
#######################################################################

data_CSD_CIF_FIWGAV
_audit_creation_date 2014-01-06
_audit_creation_method CSD-ConQuest-V1
_database_code_CSD FIWGAV
_database_code_depnum_ccdc_archive 'CCDC 979969'
_chemical_formula_sum 'C26 H20 N4 O5'
_chemical_formula_moiety
;
C26 H20 N4 O5
;
_journal_coden_Cambridge 35
_journal_volume 78
_journal_year 2013
_journal_page_first 11911
_journal_name_full 'J.Org.Chem. '
loop_
_publ_author_name
"R.Parella"
"B.Gopalakrishnan"
"S.A.Babu"
_chemical_name_systematic
;
2,4-bis(3-nitrophenyl)-N-(quinolin-8-yl)cyclobutanecarboxamide
;
_cell_volume   2263.905
_exptl_crystal_density_diffrn 1.374
_exptl_crystal_description 'block'
_diffrn_ambient_temperature 298
#These two values have been output from a single CSD field.
_refine_ls_R_factor_gt 0.0432
_refine_ls_wR_factor_gt 0.0432
_symmetry_cell_setting monoclinic
_symmetry_space_group_name_H-M 'P 21/c'
_symmetry_Int_Tables_number 14
loop_
_symmetry_equiv_pos_site_id
_symmetry_equiv_pos_as_xyz
1 x,y,z
2 -x,1/2+y,1/2-z
3 -x,-y,-z
4 x,-1/2-y,-1/2+z
_cell_length_a 11.718(3)
_cell_length_b 14.078(3)
_cell_length_c 13.761(3)
_cell_angle_alpha 90
_cell_angle_beta 94.233(14)
_cell_angle_gamma 90
_cell_formula_units_Z 4
loop_
_atom_type_symbol
_atom_type_radius_bond
C 0.68
H 0.23
N 0.68
O 0.68
loop_
_atom_site_label
_atom_site_type_symbol
_atom_site_fract_x
_atom_site_fract_y
_atom_site_fract_z
N1 N 0.26132(15) 0.13027(12) 0.31761(12)
O1 O 0.33251(18) -0.18568(11) 0.46934(14)
O2 O 0.48632(14) 0.50259(13) 0.19522(12)
O3 O 0.40956(19) 0.63875(13) 0.21570(14)
O4 O 0.19254(13) 0.26513(10) 0.38282(13)
C1 C 0.2658(2) -0.14390(16) 0.24466(17)
N2 N 0.26299(15) -0.05285(12) 0.26745(12)
N3 N 0.43184(16) 0.55728(15) 0.24180(14)
O5 O 0.15226(19) -0.21473(12) 0.46614(15)
C2 C 0.1774(2) -0.19080(16) 0.19124(17)
H1 H 0.18240 -0.25560 0.17920
C3 C 0.16917(17) -0.00225(14) 0.23477(14)
C4 C 0.16582(16) 0.09645(13) 0.26084(14)
C5 C 0.26938(17) 0.20760(13) 0.37778(14)
C6 C 0.38023(16) 0.21050(12) 0.44013(14)
H2 H 0.44480 0.18440 0.40740
C7 C 0.36788(19) 0.16554(13) 0.54437(15)
H3 H 0.44270 0.14140 0.56970
C8 C 0.27978(19) 0.09003(13) 0.55595(15)
C9 C 0.29689(18) -0.00024(13) 0.51819(14)
H4 H 0.36330 -0.01380 0.48780
C10 C 0.21504(19) -0.06916(13) 0.52619(15)
N4 N 0.2346(2) -0.16319(12) 0.48424(14)
C11 C 0.38948(16) 0.52328(13) 0.33423(14)
C12 C 0.41404(16) 0.43190(13) 0.36556(15)
H5 H 0.45430 0.39100 0.32760
C13 C 0.37798(16) 0.40175(12) 0.45431(15)
C14 C 0.31897(18) 0.46581(14) 0.50833(16)
H6 H 0.29430 0.44700 0.56810
C15 C 0.29593(19) 0.55732(14) 0.47521(17)
H7 H 0.25630 0.59900 0.51300
C16 C 0.33103(17) 0.58700(14) 0.38722(16)
H8 H 0.31570 0.64820 0.36430
C17 C 0.40987(19) 0.30528(13) 0.49516(15)
H9 H 0.49260 0.30550 0.51200
C18 C 0.0849(2) -0.14154(17) 0.15723(17)
H10 H 0.02570 -0.17210 0.12090
C19 C 0.07721(18) -0.04302(16) 0.17668(16)
C20 C -0.0153(2) 0.0147(2) 0.14466(19)
H11 H -0.07660 -0.01130 0.10680
C21 C -0.0163(2) 0.10848(19) 0.1684(2)
H12 H -0.07770 0.14600 0.14520
C22 C 0.07401(19) 0.15046(15) 0.22774(16)
H13 H 0.07090 0.21450 0.24410
C23 C 0.3521(2) 0.26703(14) 0.58407(17)
H14 H 0.27280 0.28610 0.58620
H15 H 0.39500 0.27920 0.64580
C24 C 0.1168(2) -0.05414(17) 0.57150(19)
H16 H 0.06250 -0.10190 0.57530
C25 C 0.1010(3) 0.03380(19) 0.6112(2)
H17 H 0.03600 0.04560 0.64410
C26 C 0.1813(2) 0.10533(17) 0.6026(2)
H18 H 0.16820 0.16490 0.62890
H19 H 0.3142(17) 0.0924(14) 0.3232(15)
H20 H 0.333(2) -0.1804(18) 0.2681(18)
#END
