
#######################################################################
#
#                 Cambridge Crystallographic Data Centre
#                                CCDC
#
#######################################################################
#
# If this CIF has been generated from an entry in the Cambridge
# Structural Database, then it will include bibliographic, chemical,
# crystal, experimental, refinement or atomic coordinate data resulting
# from the CCDC's data processing and validation procedures.
#
#######################################################################

data_CSD_CIF_FIWZIW
_audit_creation_date 2005-06-17
_audit_creation_method CSD-ConQuest-V1
_database_code_CSD FIWZIW
_database_code_depnum_ccdc_archive 'CCDC 254540'
_chemical_formula_sum 'C21 H23 N1 O6'
_chemical_formula_moiety
;
C21 H23 N1 O6
;
_journal_coden_Cambridge 1090
_journal_volume 16
_journal_year 2005
_journal_page_first 205
_journal_name_full 'Tetrahedron:Asymm. '
loop_
_publ_author_name
"R.G.Soengas"
"M.B.Pampin"
"J.C.Estevez"
"R.J.Estevez"
_chemical_name_systematic
;
(3R,5R,6S,7R)-6,7-Dibenzyloxy-3-methoxy-5-nitro-2-oxabicyclo(2.2.1)heptane
;
_chemical_melting_point 371.15
_cell_volume   1932.520
_exptl_crystal_colour 'colorless'
_exptl_special_details
;
Melting point range 371.15-373.15K

;
_exptl_crystal_description 'prism'
_diffrn_ambient_temperature 293
#These two values have been output from a single CSD field.
_refine_ls_R_factor_gt 0.0437
_refine_ls_wR_factor_gt 0.0437
loop_
_citation_database_id_CSD
_citation_special_details
UHIBIW "is a stereoisomer of this entry"
_symmetry_cell_setting monoclinic
_symmetry_space_group_name_H-M 'P 21'
_symmetry_Int_Tables_number 4
loop_
_symmetry_equiv_pos_site_id
_symmetry_equiv_pos_as_xyz
1 x,y,z
2 -x,1/2+y,-z
_cell_length_a 12.2964(3)
_cell_length_b 12.2971(3)
_cell_length_c 13.6330(3)
_cell_angle_alpha 90
_cell_angle_beta 110.371(1)
_cell_angle_gamma 90
_cell_formula_units_Z 4
loop_
_atom_type_symbol
_atom_type_radius_bond
C 0.68
H 0.23
N 0.68
O 0.68
loop_
_atom_site_label
_atom_site_type_symbol
_atom_site_fract_x
_atom_site_fract_y
_atom_site_fract_z
O1 O 0.20572(12) 0.49716(13) 0.25312(13)
C1 C 0.28263(18) 0.58755(19) 0.29325(18)
H1 H 0.24890 0.64730 0.32080
C2 C 0.38367(19) 0.5278(2) 0.37624(18)
H2 H 0.35770 0.48890 0.42690
C3 C 0.40142(18) 0.4509(2) 0.29468(18)
H3 H 0.46220 0.39600 0.32260
C4 C 0.27829(19) 0.40601(19) 0.2471(2)
H4 H 0.26740 0.34500 0.28900
C5 C 0.33020(18) 0.62080(18) 0.20777(19)
H5 H 0.26990 0.61350 0.13860
C6 C 0.42509(18) 0.53485(19) 0.22200(17)
H6 H 0.49950 0.56940 0.26080
O2 O 0.37992(14) 0.72607(12) 0.21955(14)
C7 C 0.2970(3) 0.8093(2) 0.1789(3)
H7 H 0.24630 0.81410 0.21960
H8 H 0.24990 0.79250 0.10710
C8 C 0.3584(2) 0.9160(2) 0.1830(2)
C9 C 0.3085(3) 1.0098(3) 0.2019(2)
H9 H 0.23850 1.00740 0.21380
C10 C 0.3654(4) 1.1107(3) 0.2030(3)
H10 H 0.33250 1.17500 0.21530
C11 C 0.4669(4) 1.1130(3) 0.1862(3)
H11 H 0.50380 1.17910 0.18670
C12 C 0.5145(4) 1.0217(4) 0.1689(3)
H12 H 0.58500 1.02440 0.15800
C13 C 0.4618(3) 0.9243(3) 0.1668(3)
H13 H 0.49690 0.86150 0.15410
O3 O 0.48480(14) 0.58958(16) 0.42600(13)
C14 C 0.4891(2) 0.6333(3) 0.5255(2)
H14 H 0.56420 0.66690 0.55960
H15 H 0.48120 0.57420 0.56970
C15 C 0.3962(2) 0.7153(2) 0.51509(19)
C16 C 0.3069(3) 0.6944(3) 0.5519(2)
H16 H 0.30650 0.62920 0.58640
C17 C 0.2190(3) 0.7676(3) 0.5388(3)
H17 H 0.15920 0.75130 0.56340
C18 C 0.2189(3) 0.8650(3) 0.4895(3)
H18 H 0.15960 0.91500 0.48110
C19 C 0.3064(3) 0.8878(3) 0.4530(3)
H19 H 0.30670 0.95360 0.41960
C20 C 0.3943(3) 0.8140(3) 0.4654(2)
H20 H 0.45340 0.83060 0.44000
N1 N 0.43432(16) 0.49023(18) 0.12338(17)
O4 O 0.3927(2) 0.5407(2) 0.04287(16)
O5 O 0.48867(15) 0.40524(16) 0.13002(16)
O6 O 0.25325(14) 0.37379(14) 0.14392(14)
C21 C 0.1407(2) 0.3271(3) 0.0985(3)
H21 H 0.08300 0.38250 0.08930
H22 H 0.13040 0.27140 0.14380
H23 H 0.13300 0.29600 0.03180
O7 O -0.31033(13) 0.58462(15) 0.18595(14)
C22 C -0.24428(18) 0.4901(2) 0.23140(19)
H24 H -0.27730 0.44700 0.27470
C23 C -0.24182(19) 0.4308(2) 0.1328(2)
H25 H -0.32050 0.41710 0.08390
C24 C -0.1871(2) 0.5279(2) 0.09792(18)
H26 H -0.17460 0.51870 0.03120
C25 C -0.2740(2) 0.6158(2) 0.09901(19)
H27 H -0.34050 0.61420 0.03340
C26 C -0.11895(18) 0.5262(2) 0.28799(17)
H28 H -0.11570 0.59490 0.32530
C27 C -0.07656(18) 0.54077(19) 0.19424(17)
H29 H -0.02600 0.47900 0.19490
O8 O -0.17206(15) 0.33761(14) 0.14636(16)
C28 C -0.2266(3) 0.2428(2) 0.1648(3)
H30 H -0.29940 0.23170 0.10770
H31 H -0.24320 0.25100 0.22890
C29 C -0.1496(2) 0.1466(2) 0.1736(2)
C30 C -0.0916(2) 0.1309(2) 0.1040(2)
H32 H -0.09830 0.18180 0.05170
C31 C -0.0239(3) 0.0398(3) 0.1124(3)
H33 H 0.01550 0.03020 0.06590
C32 C -0.0134(3) -0.0371(3) 0.1880(3)
H34 H 0.03210 -0.09860 0.19240
C33 C -0.0704(3) -0.0225(3) 0.2569(3)
H35 H -0.06400 -0.07420 0.30830
C34 C -0.1375(3) 0.0688(3) 0.2503(2)
H36 H -0.17530 0.07840 0.29810
O9 O -0.05921(13) 0.44251(15) 0.35699(13)
C35 C 0.0544(2) 0.4699(2) 0.4242(2)
H37 H 0.05060 0.51180 0.48320
H38 H 0.09270 0.51370 0.38670
C36 C 0.12136(19) 0.3669(2) 0.46219(18)
C37 C 0.2162(2) 0.3655(3) 0.5544(2)
H39 H 0.23700 0.42860 0.59420
C38 C 0.2804(3) 0.2715(3) 0.5879(2)
H40 H 0.34470 0.27240 0.64930
C39 C 0.2500(3) 0.1772(3) 0.5314(3)
H41 H 0.29100 0.11330 0.55560
C40 C 0.1583(3) 0.1787(3) 0.4386(3)
H42 H 0.13940 0.11610 0.39780
C41 C 0.0941(3) 0.2718(3) 0.4054(2)
H43 H 0.03090 0.27050 0.34320
N2 N -0.00934(16) 0.64243(18) 0.19413(17)
O10 O 0.02881(16) 0.69627(16) 0.27428(16)
O11 O 0.01166(17) 0.66295(18) 0.11444(16)
O12 O -0.22340(15) 0.71732(15) 0.11380(15)
C42 C -0.3022(3) 0.8045(3) 0.1009(3)
H44 H -0.32200 0.81170 0.16270
H45 H -0.37110 0.79030 0.04180
H46 H -0.26690 0.87060 0.08940
#END
