
#######################################################################
#
#                 Cambridge Crystallographic Data Centre
#                                CCDC
#
#######################################################################
#
# If this CIF has been generated from an entry in the Cambridge
# Structural Database, then it will include bibliographic, chemical,
# crystal, experimental, refinement or atomic coordinate data resulting
# from the CCDC's data processing and validation procedures.
#
#######################################################################

data_CSD_CIF_FIWZIV
_audit_creation_date 2005-06-17
_audit_creation_method CSD-ConQuest-V1
_database_code_CSD FIWZIV
_database_code_depnum_ccdc_archive 'CCDC 254541'
_chemical_formula_sum 'C28 H31 N1 O8'
_chemical_formula_moiety
;
C28 H31 N1 O8
;
_journal_coden_Cambridge 1090
_journal_volume 16
_journal_year 2005
_journal_page_first 11
_journal_name_full 'Tetrahedron:Asymm. '
loop_
_publ_author_name
"J.M.Otero"
"J.C.Barcia"
"J.C.Estevez"
"R.J.Estevez"
_chemical_name_systematic
;
3-O-Benzyl-5,6-dideoxy-5-C-(1,4-dimethoxynaphthalen-2-yl)-1,2-O-isopropylidene
-6-nitro-\b-L-idofuranose
;
_cell_volume   1323.635
_exptl_crystal_colour 'colorless'
_exptl_crystal_description 'prism'
_diffrn_ambient_temperature 293
#These two values have been output from a single CSD field.
_refine_ls_R_factor_gt 0.0399
_refine_ls_wR_factor_gt 0.0399
_symmetry_cell_setting monoclinic
_symmetry_space_group_name_H-M 'P 21'
_symmetry_Int_Tables_number 4
loop_
_symmetry_equiv_pos_site_id
_symmetry_equiv_pos_as_xyz
1 x,y,z
2 -x,1/2+y,-z
_cell_length_a 9.7351(10)
_cell_length_b 12.9049(13)
_cell_length_c 11.0950(11)
_cell_angle_alpha 90
_cell_angle_beta 108.266(2)
_cell_angle_gamma 90
_cell_formula_units_Z 2
loop_
_atom_type_symbol
_atom_type_radius_bond
C 0.68
H 0.23
N 0.68
O 0.68
loop_
_atom_site_label
_atom_site_type_symbol
_atom_site_fract_x
_atom_site_fract_y
_atom_site_fract_z
O1 O 0.52699(17) 0.26603(12) 1.01885(13)
C1 C 0.5955(3) 0.26957(19) 1.1507(2)
H1 H 0.68770 0.23210 1.17430
C2 C 0.6187(2) 0.38394(17) 1.1891(2)
H2 H 0.71840 0.39920 1.24080
C3 C 0.5731(2) 0.44211(17) 1.0637(2)
H3 H 0.52630 0.50800 1.07100
C4 C 0.4667(2) 0.36684(16) 0.97774(19)
H4 H 0.37300 0.37310 0.99280
O2 O 0.5042(2) 0.23038(13) 1.21646(16)
C5 C 0.4968(3) 0.30520(19) 1.3100(2)
C6 C 0.3484(3) 0.3039(3) 1.3230(3)
H5 H 0.34000 0.35860 1.37880
H6 H 0.33200 0.23840 1.35730
H7 H 0.27780 0.31370 1.24110
C7 C 0.6153(3) 0.2858(2) 1.4335(2)
H8 H 0.70770 0.29000 1.41980
H9 H 0.60340 0.21810 1.46460
H10 H 0.61010 0.33700 1.49470
C8 C 0.4434(2) 0.37354(16) 0.83484(19)
H11 H 0.53190 0.34820 0.82050
O3 O 0.51742(17) 0.40164(12) 1.25464(14)
C9 C 0.3201(2) 0.30348(16) 0.76031(19)
C10 C 0.3388(2) 0.23205(16) 0.67673(19)
C11 C 0.2235(2) 0.16498(18) 0.60978(19)
C12 C 0.0870(2) 0.17482(18) 0.6285(2)
C13 C 0.0685(2) 0.25273(17) 0.7131(2)
C14 C 0.1814(2) 0.31403(18) 0.7774(2)
H12 H 0.16800 0.36360 0.83350
C15 C 0.2429(3) 0.0874(2) 0.5268(2)
H13 H 0.33160 0.08100 0.51230
C16 C 0.1327(3) 0.0219(2) 0.4680(3)
H14 H 0.14700 -0.02930 0.41420
C17 C -0.0013(3) 0.0310(2) 0.4877(3)
H15 H -0.07520 -0.01490 0.44760
C18 C -0.0254(3) 0.1059(2) 0.5646(2)
H16 H -0.11600 0.11200 0.57540
O4 O -0.06746(15) 0.25870(14) 0.72367(16)
C19 C -0.0879(3) 0.3228(2) 0.8203(3)
H17 H -0.02670 0.29940 0.90150
H18 H -0.18720 0.31950 0.81800
H19 H -0.06370 0.39300 0.80670
O5 O 0.46860(16) 0.22691(12) 0.65061(13)
C20 C 0.5694(2) 0.1533(2) 0.7257(2)
H20 H 0.58860 0.16900 0.81400
H21 H 0.65780 0.15660 0.70490
H22 H 0.52930 0.08490 0.70850
C21 C 0.4212(2) 0.48543(17) 0.7876(2)
H23 H 0.32210 0.50640 0.77540
H24 H 0.48470 0.53110 0.85000
N1 N 0.4537(2) 0.49329(16) 0.6651(2)
O6 O 0.5790(2) 0.4878(2) 0.6694(2)
O7 O 0.3552(3) 0.5031(2) 0.56793(19)
O8 O 0.69270(15) 0.45727(11) 1.01858(14)
C22 C 0.7704(3) 0.5499(2) 1.0699(3)
H25 H 0.79920 0.54800 1.16180
H26 H 0.70870 0.60980 1.04100
C23 C 0.9009(2) 0.55830(19) 1.0276(2)
C24 C 1.0298(3) 0.5162(2) 1.0998(3)
H27 H 1.03380 0.48090 1.17390
C25 C 1.1517(3) 0.5247(3) 1.0657(4)
H28 H 1.23730 0.49460 1.11580
C26 C 1.1492(4) 0.5752(3) 0.9622(4)
H29 H 1.23420 0.58220 0.94140
C27 C 1.0244(5) 0.6177(3) 0.8845(3)
H30 H 1.02370 0.65200 0.81060
C28 C 0.8948(3) 0.6089(2) 0.9183(3)
H31 H 0.80830 0.63700 0.86680
#END
