
#######################################################################
#
#                 Cambridge Crystallographic Data Centre
#                                CCDC
#
#######################################################################
#
# If this CIF has been generated from an entry in the Cambridge
# Structural Database, then it will include bibliographic, chemical,
# crystal, experimental, refinement or atomic coordinate data resulting
# from the CCDC's data processing and validation procedures.
#
#######################################################################

data_CSD_CIF_FIXHAV
_audit_creation_date 1988-03-22
_audit_creation_method CSD-ConQuest-V1
_database_code_CSD FIXHAV
_chemical_formula_sum 'C20 H24 N4 O2'
_chemical_formula_moiety
;
C20 H24 N4 O2
;
_journal_coden_Cambridge 201
_journal_volume 39
_journal_year 1986
_journal_page_first 108
_journal_name_full 'Arm.Khim.Zh.(Russ.)(Armenian Chem.J.) '
loop_
_publ_author_name
"A.A.Karapetyan"
"G.G.Minasyan"
"Ts.E.Agadzhanyan"
"Yu.T.Struchkov"
_chemical_name_systematic
;
3,7-Dibenzyl-5-nitro-1,3,7-triazabicyclo(3.3.1)nonane
;
_cell_volume   1873.861
_exptl_crystal_density_diffrn 1.25
_diffrn_ambient_temperature ?
_diffrn_special_details
;
The study was carried out at room temperature,in the range 283-303K

;
#These two values have been output from a single CSD field.
_refine_ls_R_factor_gt 0.052
_refine_ls_wR_factor_gt 0.052
_symmetry_cell_setting monoclinic
_symmetry_space_group_name_H-M 'P 21/c'
_symmetry_Int_Tables_number 14
loop_
_symmetry_equiv_pos_site_id
_symmetry_equiv_pos_as_xyz
1 x,y,z
2 -x,1/2+y,1/2-z
3 -x,-y,-z
4 x,-1/2-y,-1/2+z
_cell_length_a 9.8776(8)
_cell_length_b 15.897(2)
_cell_length_c 11.947(1)
_cell_angle_alpha 90
_cell_angle_beta 92.716(8)
_cell_angle_gamma 90
_cell_formula_units_Z 4
loop_
_atom_type_symbol
_atom_type_radius_bond
C 0.68
N 0.68
O 0.68
loop_
_atom_site_label
_atom_site_type_symbol
_atom_site_fract_x
_atom_site_fract_y
_atom_site_fract_z
N1 N 0.7814(5) 0.7087(3) -0.1609(3)
C1 C 0.7080(6) 0.6388(4) -0.1165(5)
N2 N 0.7313(4) 0.6286(3) 0.0061(3)
C2 C 0.7079(5) 0.7066(3) 0.0665(4)
C3 C 0.7832(5) 0.7793(3) 0.0138(4)
C4 C 0.9367(3) 0.7746(3) 0.0237(4)
N3 N 0.9849(4) 0.7021(2) -0.0379(3)
C5 C 0.9253(7) 0.7007(3) -0.1519(4)
C6 C 0.7381(5) 0.7866(3) -0.1097(4)
N4 N 0.7363(6) 0.8594(3) 0.0725(4)
O1 O 0.8228(4) 0.9057(2) 0.1147(3)
O2 O 0.6175(5) 0.8730(3) 0.0722(4)
C7 C 0.6527(6) 0.5603(3) 0.0500(6)
C8 C 0.7040(7) 0.5318(3) 0.1639(5)
C9 C 0.8402(7) 0.5281(4) 0.1916(6)
C10 C 0.8880(8) 0.5010(4) 0.2946(7)
C11 C 0.8017(9) 0.4765(4) 0.3726(7)
C12 C 0.6679(9) 0.4792(4) 0.3491(8)
C13 C 0.6170(6) 0.5078(4) 0.2448(8)
C14 C 1.1314(6) 0.7011(4) -0.0401(5)
C15 C 1.2021(5) 0.6867(4) 0.0729(5)
C16 C 1.1813(6) 0.6148(4) 0.1319(6)
C17 C 1.2500(7) 0.6016(4) 0.2357(6)
C18 C 1.3394(6) 0.6607(5) 0.2770(5)
C19 C 1.3585(7) 0.7306(5) 0.2186(7)
C20 C 1.2934(7) 0.7435(4) 0.1181(7)
#END
