
#######################################################################
#
#                 Cambridge Crystallographic Data Centre
#                                CCDC
#
#######################################################################
#
# If this CIF has been generated from an entry in the Cambridge
# Structural Database, then it will include bibliographic, chemical,
# crystal, experimental, refinement or atomic coordinate data resulting
# from the CCDC's data processing and validation procedures.
#
#######################################################################

data_CSD_CIF_FIXMEE
_audit_creation_date 1988-03-22
_audit_creation_method CSD-ConQuest-V1
_database_code_CSD FIXMEE
_database_code_depnum_ccdc_archive 'CCDC 1157500'
_chemical_formula_sum 'C25 H33 N1 O13'
_chemical_formula_moiety
;
C25 H33 N1 O13
;
_journal_coeditor_code "IUCr A27161"
_journal_coden_Cambridge 591
_journal_volume 43
_journal_year 1987
_journal_page_first 1158
_journal_name_full 'Acta Crystallogr.,Sect.C:Cryst.Struct.Commun. '
loop_
_publ_author_name
"M.J.Dianez"
"R.Vega"
"A.Lopez-Castro"
"R.Marquez"
_chemical_name_systematic
;
(3R)-3,5,6,7-Tetrahydro-2-hydroxyimino-6,6-dimethyl-3-(1,2,3,4,5-penta-O-acety
l-D-galactopentitol-1-yl)benzofuran-4(2H)-one
;
_cell_volume   2840.057
_exptl_crystal_colour 'colorless'
_exptl_crystal_density_diffrn 1.3
_exptl_special_details
;
H3C142 appears to be in error and has not been retained. y(O112) should be 
0.2515, not 0.2623
;
_diffrn_ambient_temperature ?
_diffrn_special_details
;
The study was carried out at room temperature,in the range 283-303K

;
#These two values have been output from a single CSD field.
_refine_ls_R_factor_gt 0.062
_refine_ls_wR_factor_gt 0.062
_symmetry_cell_setting orthorhombic
_symmetry_space_group_name_H-M 'P 21 21 21'
_symmetry_Int_Tables_number 19
loop_
_symmetry_equiv_pos_site_id
_symmetry_equiv_pos_as_xyz
1 x,y,z
2 1/2+x,1/2-y,-z
3 -x,1/2+y,1/2-z
4 1/2-x,-y,1/2+z
_cell_length_a 11.105(1)
_cell_length_b 30.316(2)
_cell_length_c 8.436(1)
_cell_angle_alpha 90
_cell_angle_beta 90
_cell_angle_gamma 90
_cell_formula_units_Z 4
loop_
_atom_type_symbol
_atom_type_radius_bond
C 0.68
H 0.23
N 0.68
O 0.68
loop_
_atom_site_label
_atom_site_type_symbol
_atom_site_fract_x
_atom_site_fract_y
_atom_site_fract_z
O1 O 1.1390(6) 0.3369(3) 1.1542(8)
N1 N 1.0348(8) 0.3053(3) 1.3517(10)
C1 C 1.0366(8) 0.3147(3) 1.2066(11)
O2 O 0.9286(7) 0.2840(2) 1.3900(8)
C2 C 0.9502(8) 0.3075(3) 1.0723(9)
C3 C 0.9991(8) 0.3313(3) 0.7675(11)
O3 O 0.9235(6) 0.3081(2) 0.7045(7)
C4 C 1.0837(9) 0.3611(3) 0.6815(12)
C5 C 1.2159(10) 0.3565(4) 0.7326(14)
C6 C 1.2238(9) 0.3654(4) 0.9090(14)
C7 C 1.1230(9) 0.3441(4) 0.9967(11)
C8 C 1.0193(8) 0.3297(3) 0.939(1)
C9 C 0.8198(7) 0.3248(3) 1.1064(9)
C10 C 0.8115(8) 0.3668(3) 1.2016(10)
C11 C 0.6808(7) 0.3835(3) 1.2151(10)
C12 C 0.6700(9) 0.4248(3) 1.3146(11)
C13 C 0.5381(9) 0.4400(3) 1.3263(12)
C14 C 1.2923(12) 0.3891(5) 0.6385(18)
C15 C 1.2586(11) 0.3094(4) 0.6983(16)
O4 O 0.7606(5) 0.3317(2) 0.9579(6)
O5 O 0.6929(8) 0.2515(2) 0.9589(10)
C16 C 0.6984(9) 0.2973(3) 0.8946(12)
C17 C 0.6403(10) 0.3088(4) 0.7460(14)
O6 O 0.8817(5) 0.4008(2) 1.1227(7)
O7 O 0.9709(8) 0.4196(3) 1.3489(10)
C18 C 0.9596(9) 0.4244(3) 1.2129(12)
C19 C 1.0237(10) 0.4562(3) 1.1098(15)
O8 O 0.6117(5) 0.3487(2) 1.2828(8)
O9 O 0.4903(7) 0.3476(3) 1.0715(11)
C20 C 0.5150(9) 0.3332(4) 1.1964(13)
C21 C 0.4507(12) 0.2989(4) 1.2869(20)
O10 O 0.7061(6) 0.4134(2) 1.4756(8)
O11 O 0.7462(10) 0.4850(2) 1.5203(11)
C22 C 0.7466(10) 0.4472(3) 1.5670(13)
C23 C 0.7840(13) 0.4330(4) 1.7297(14)
O12 O 0.5048(7) 0.4535(2) 1.1716(9)
O13 O 0.3533(11) 0.4877(6) 1.2567(15)
C24 C 0.4107(12) 0.4769(4) 1.1466(16)
C25 C 0.3877(13) 0.4882(4) 0.9832(16)
H1 H 0.65100 0.39200 1.10700
H2 H 0.77800 0.30100 1.17100
H3 H 0.48500 0.41500 1.37100
H4 H 0.52400 0.46200 1.41200
H5 H 1.00700 0.48600 1.15600
H6 H 1.11200 0.45000 1.12500
H7 H 1.01700 0.46100 0.99300
H8 H 0.71900 0.44900 1.26400
H9 H 1.07400 0.35900 0.56600
H10 H 1.05700 0.39300 0.69500
H11 H 0.84300 0.36000 1.31400
H12 H 1.30500 0.35600 0.95700
H13 H 1.23000 0.39800 0.93400
H14 H 0.93300 0.27500 1.04700
H15 H 0.71100 0.41900 1.78400
H16 H 0.84800 0.41000 1.72000
H17 H 0.50900 0.27300 1.31400
H18 H 0.42200 0.31100 1.39400
H19 H 0.38200 0.28600 1.23000
H20 H 0.58400 0.33400 0.76500
H21 H 0.70400 0.31900 0.66900
H22 H 0.59500 0.28400 0.69800
H23 H 1.20800 0.28800 0.76200
H24 H 1.25200 0.30200 0.58400
H25 H 1.34600 0.30500 0.73300
H26 H 0.92600 0.27600 1.50600
H27 H 1.28400 0.38300 0.52400
H28 H 1.26500 0.42000 0.66400
H29 H 1.37800 0.38600 0.67200
H30 H 0.30200 0.47500 0.95700
H31 H 0.38200 0.52100 0.98100
H32 H 0.44000 0.48100 0.88800
#END
