
#######################################################################
#
#                 Cambridge Crystallographic Data Centre
#                                CCDC
#
#######################################################################
#
# If this CIF has been generated from an entry in the Cambridge
# Structural Database, then it will include bibliographic, chemical,
# crystal, experimental, refinement or atomic coordinate data resulting
# from the CCDC's data processing and validation procedures.
#
#######################################################################

data_CSD_CIF_FIYBEU
_audit_creation_date 1999-08-13
_audit_creation_method CSD-ConQuest-V1
_database_code_CSD FIYBEU
_database_code_depnum_ccdc_archive 'CCDC 131429'
_chemical_formula_sum 'C21 H25 N3 O4'
_chemical_formula_moiety
;
C21 H25 N3 O4
;
_journal_coeditor_code "IUCr SK1254"
_journal_coden_Cambridge 591
_journal_volume 55
_journal_year 1999
_journal_page_first 964
_journal_name_full 'Acta Crystallogr.,Sect.C:Cryst.Struct.Commun. '
loop_
_publ_author_name
"M.Bolte"
"B.Benecke"
"E.Egert"
_chemical_name_systematic
;
(2R,5S)-2((1R)-1-Naphth-1-yl-2-nitroethyl)-5-isopropyl-3,6-dimethoxy-2,5-dihyd
ropyrazine
;
_cell_volume   2033.826
_exptl_crystal_colour 'colorless'
_exptl_crystal_density_diffrn 1.252
_exptl_crystal_description 'block'
_exptl_crystal_preparation 'hexane/ether'
_diffrn_ambient_temperature ?
_diffrn_special_details
;
The study was carried out at room temperature,in the range 283-303K

;
#These two values have been output from a single CSD field.
_refine_ls_R_factor_gt 0.0352
_refine_ls_wR_factor_gt 0.0352
_symmetry_cell_setting orthorhombic
_symmetry_space_group_name_H-M 'P 21 21 21'
_symmetry_Int_Tables_number 19
loop_
_symmetry_equiv_pos_site_id
_symmetry_equiv_pos_as_xyz
1 x,y,z
2 1/2-x,-y,1/2+z
3 -x,1/2+y,1/2-z
4 1/2+x,1/2-y,-z
_cell_length_a 7.888(1)
_cell_length_b 8.643(1)
_cell_length_c 29.832(1)
_cell_angle_alpha 90
_cell_angle_beta 90
_cell_angle_gamma 90
_cell_formula_units_Z 4
loop_
_atom_type_symbol
_atom_type_radius_bond
C 0.68
H 0.23
N 0.68
O 0.68
loop_
_atom_site_label
_atom_site_type_symbol
_atom_site_fract_x
_atom_site_fract_y
_atom_site_fract_z
N1 N 0.4703(2) 0.1509(2) 0.54170(5)
C1 C 0.4469(3) 0.2747(2) 0.56312(6)
C2 C 0.3819(3) 0.2923(2) 0.61044(6)
H1 H 0.47970 0.31720 0.62940
N2 N 0.3079(3) 0.1503(2) 0.62806(5)
C3 C 0.3341(3) 0.0267(2) 0.60675(7)
C4 C 0.4332(3) 0.0054(2) 0.56424(7)
H2 H 0.36090 -0.05430 0.54390
O1 O 0.4806(2) 0.41484(18) 0.54514(5)
C5 C 0.5647(5) 0.4135(4) 0.50235(9)
H3 H 0.58760 0.51790 0.49310
H4 H 0.49320 0.36430 0.48060
H5 H 0.66940 0.35750 0.50480
O2 O 0.2695(3) -0.10915(18) 0.62104(6)
C6 C 0.1758(4) -0.1047(3) 0.6621(1)
H6 H 0.12530 -0.20410 0.66750
H7 H 0.08850 -0.02770 0.66000
H8 H 0.25080 -0.07950 0.68640
C7 C 0.5948(4) -0.0913(3) 0.57177(8)
H9 H 0.56040 -0.18820 0.58620
C8 C 0.6762(4) -0.1328(4) 0.52756(10)
H10 H 0.59430 -0.18300 0.50870
H11 H 0.76990 -0.20130 0.53270
H12 H 0.71590 -0.04040 0.51310
C9 C 0.7166(4) -0.0110(5) 0.60300(11)
H13 H 0.65970 0.01400 0.63050
H14 H 0.75710 0.08230 0.58920
H15 H 0.81070 -0.07810 0.60920
C10 C 0.2532(3) 0.4266(2) 0.61568(6)
H16 H 0.30400 0.51940 0.60240
C11 C 0.2193(3) 0.4608(2) 0.66512(6)
C12 C 0.0707(3) 0.4192(3) 0.68540(7)
H17 H -0.01160 0.36730 0.66890
C13 C 0.0401(4) 0.4535(4) 0.73091(8)
H18 H -0.06240 0.42520 0.74390
C14 C 0.1572(4) 0.5265(3) 0.75553(8)
H19 H 0.13400 0.54980 0.78530
C15 C 0.3153(4) 0.5687(3) 0.73704(7)
C16 C 0.4444(5) 0.6382(3) 0.76304(8)
H20 H 0.42400 0.65820 0.79320
C17 C 0.5958(5) 0.6762(4) 0.74545(10)
H21 H 0.68000 0.71830 0.76350
C18 C 0.6260(4) 0.6520(3) 0.69968(9)
H22 H 0.72910 0.68150 0.68720
C19 C 0.5050(3) 0.5855(3) 0.67323(7)
H23 H 0.52720 0.57120 0.64290
C20 C 0.3467(3) 0.5376(2) 0.69076(6)
C21 C 0.0962(3) 0.3874(3) 0.58880(7)
H24 H 0.12920 0.36610 0.55810
H25 H 0.04600 0.29390 0.60090
N3 N -0.0337(3) 0.5124(3) 0.58886(7)
O3 O -0.1802(3) 0.4760(4) 0.59213(11)
O4 O 0.0140(4) 0.6438(3) 0.58538(10)
#END
