
#######################################################################
#
#                 Cambridge Crystallographic Data Centre
#                                CCDC
#
#######################################################################
#
# If this CIF has been generated from an entry in the Cambridge
# Structural Database, then it will include bibliographic, chemical,
# crystal, experimental, refinement or atomic coordinate data resulting
# from the CCDC's data processing and validation procedures.
#
#######################################################################

data_CSD_CIF_FIYTUD
_audit_creation_date 2005-06-17
_audit_creation_method CSD-ConQuest-V1
_database_code_CSD FIYTUD
_database_code_depnum_ccdc_archive 'CCDC 232948'
_chemical_formula_sum 'C14 H11 N3 O3'
_chemical_formula_moiety
;
C14 H11 N3 O3
;
_journal_coden_Cambridge 16
_journal_volume 61
_journal_year 2005
_journal_page_first 3091
_journal_name_full 'Tetrahedron '
loop_
_publ_author_name
"T.Kurz"
_chemical_name_systematic
;
4-(Benzyloxyimino)-3H-pyrido(2,3-e)(1,3)oxazin-2-one
;
_chemical_melting_point 429.25
_cell_volume   1205.273
_exptl_crystal_colour 'colorless'
_exptl_crystal_density_diffrn 1.484
_exptl_crystal_description 'blocks'
_exptl_crystal_preparation 'ethyl acetate/hexane'
_diffrn_ambient_temperature 153
#These two values have been output from a single CSD field.
_refine_ls_R_factor_gt 0.0391
_refine_ls_wR_factor_gt 0.0391
_symmetry_cell_setting monoclinic
_symmetry_space_group_name_H-M 'P 21/n'
_symmetry_Int_Tables_number 14
loop_
_symmetry_equiv_pos_site_id
_symmetry_equiv_pos_as_xyz
1 x,y,z
2 1/2-x,1/2+y,1/2-z
3 -x,-y,-z
4 -1/2+x,-1/2-y,-1/2+z
_cell_length_a 5.1545(8)
_cell_length_b 20.347(3)
_cell_length_c 11.7476(18)
_cell_angle_alpha 90
_cell_angle_beta 101.972(3)
_cell_angle_gamma 90
_cell_formula_units_Z 4
loop_
_atom_type_symbol
_atom_type_radius_bond
C 0.68
H 0.23
N 0.68
O 0.68
loop_
_atom_site_label
_atom_site_type_symbol
_atom_site_fract_x
_atom_site_fract_y
_atom_site_fract_z
O1 O 0.64797(17) -0.09223(4) 0.75015(7)
O2 O 0.67781(18) -0.06855(5) 0.57015(8)
O3 O -0.00664(19) 0.07015(4) 0.61448(8)
N1 N 0.3636(2) -0.01477(5) 0.64402(9)
H1 H 0.31400 0.00750 0.57890
N2 N 0.0411(2) 0.04039(5) 0.72602(9)
N3 N 0.1847(2) -0.03428(5) 0.92590(9)
C1 C 0.5671(2) -0.05815(6) 0.64929(11)
C2 C 0.2271(2) -0.00242(6) 0.73218(10)
C3 C 0.3107(2) -0.04178(6) 0.83775(10)
C4 C 0.2735(3) -0.06904(6) 1.02204(11)
H2 H 0.18640 -0.06440 1.08540
C5 C 0.4886(3) -0.11205(6) 1.03420(11)
H3 H 0.54700 -0.13550 1.10480
C6 C 0.6148(3) -0.12009(6) 0.94311(11)
H4 H 0.76030 -0.14940 0.94860
C7 C 0.5228(2) -0.08403(6) 0.84307(11)
C8 C -0.1579(3) 0.12912(7) 0.62027(13)
H5 H -0.30340 0.11940 0.66110
H6 H -0.23880 0.14350 0.54030
C9 C 0.0089(3) 0.18402(7) 0.68254(12)
C10 C 0.2031(3) 0.21328(8) 0.63381(14)
H7 H 0.23060 0.19860 0.56050
C11 C 0.3573(3) 0.26371(8) 0.69112(16)
H8 H 0.48990 0.28330 0.65680
C12 C 0.3201(3) 0.28585(8) 0.79783(15)
H9 H 0.42620 0.32050 0.83690
C13 C 0.1278(3) 0.25714(7) 0.84683(14)
H10 H 0.10040 0.27210 0.92000
C14 C -0.0261(3) 0.20642(7) 0.78961(12)
H11 H -0.15770 0.18680 0.82450
#END
