
#######################################################################
#
#                 Cambridge Crystallographic Data Centre
#                                CCDC
#
#######################################################################
#
# If this CIF has been generated from an entry in the Cambridge
# Structural Database, then it will include bibliographic, chemical,
# crystal, experimental, refinement or atomic coordinate data resulting
# from the CCDC's data processing and validation procedures.
#
#######################################################################

data_CSD_CIF_FIZFOL
_audit_creation_date 2014-01-07
_audit_creation_method CSD-ConQuest-V1
_database_code_CSD FIZFOL
_database_code_depnum_ccdc_archive 'CCDC 977507'
_chemical_formula_sum 'C15 H14 N4 O6'
_chemical_formula_moiety
;
C15 H14 N4 O6
;
_journal_coeditor_code "IUCr hb7175"
_journal_coden_Cambridge 1370
_journal_volume 70
_journal_year 2014
_journal_page_first o89
_journal_name_full 'Acta Crystallogr.,Sect.E:Struct.Rep.Online '
loop_
_publ_author_name
"H.-K.Fun"
"S.Chantrapromma"
"P.Ruanwas"
"T.Kobkeatthawin"
"C.S.Chidan Kumar"
_chemical_name_systematic
;
(E)-1-(2,4-dinitrophenyl)-2-(3-ethoxy-4-hydroxybenzylidene)hydrazine
;
_cell_volume   1541.503
_exptl_crystal_colour 'orange'
_exptl_crystal_density_diffrn 1.492
_exptl_crystal_description 'plate'
_diffrn_ambient_temperature 298
#These two values have been output from a single CSD field.
_refine_ls_R_factor_gt 0.0473
_refine_ls_wR_factor_gt 0.0473
_symmetry_cell_setting monoclinic
_symmetry_space_group_name_H-M 'P 21/c'
_symmetry_Int_Tables_number 14
loop_
_symmetry_equiv_pos_site_id
_symmetry_equiv_pos_as_xyz
1 x,y,z
2 -x,1/2+y,1/2-z
3 -x,-y,-z
4 x,-1/2-y,-1/2+z
_cell_length_a 10.245(4)
_cell_length_b 13.679(5)
_cell_length_c 14.184(5)
_cell_angle_alpha 90
_cell_angle_beta 129.15(2)
_cell_angle_gamma 90
_cell_formula_units_Z 4
loop_
_atom_type_symbol
_atom_type_radius_bond
C 0.68
H 0.23
N 0.68
O 0.68
loop_
_atom_site_label
_atom_site_type_symbol
_atom_site_fract_x
_atom_site_fract_y
_atom_site_fract_z
O1 O 1.20079(13) -0.22891(8) 0.16025(12)
O2 O 1.05019(14) -0.35272(9) 0.13142(13)
O3 O 0.46877(15) -0.32518(12) -0.07366(14)
O4 O 0.36011(15) -0.18505(11) -0.08629(13)
O5 O 1.01832(12) 0.42468(8) 0.13492(11)
O6 O 1.32309(16) 0.49799(9) 0.24070(13)
H1 H 1.230(3) 0.5246(19) 0.209(2)
N1 N 1.09605(18) -0.05017(10) 0.15152(14)
H2 H 1.183(2) -0.0854(13) 0.1800(17)
N2 N 1.10133(17) 0.05030(9) 0.15757(13)
N3 N 1.06865(16) -0.26439(10) 0.13050(13)
N4 N 0.47883(17) -0.23628(13) -0.05806(14)
C1 C 0.94828(19) -0.09698(11) 0.10069(14)
C2 C 0.93039(18) -0.19991(11) 0.09135(14)
C3 C 0.77777(19) -0.24509(12) 0.04025(14)
H3 H 0.76920 -0.31290 0.03570
C4 C 0.63954(19) -0.18842(12) -0.00355(15)
C5 C 0.6511(2) -0.08732(13) 0.00279(16)
H4 H 0.55580 -0.04990 -0.02840
C6 C 0.8015(2) -0.04225(12) 0.05462(16)
H5 H 0.80770 0.02560 0.05980
C7 C 1.2451(2) 0.08997(12) 0.20969(15)
H6 H 1.33880 0.05070 0.24190
C8 C 1.26408(19) 0.19596(11) 0.21919(14)
C9 C 1.12420(19) 0.25734(11) 0.17161(15)
H7 H 1.01920 0.23010 0.13600
C10 C 1.14273(18) 0.35742(11) 0.17773(15)
C11 C 1.30253(19) 0.39867(12) 0.23335(15)
C12 C 1.43888(19) 0.33878(12) 0.28036(16)
H8 H 1.54420 0.36610 0.31720
C13 C 1.42040(19) 0.23804(12) 0.27326(15)
H9 H 1.51340 0.19820 0.30490
C14 C 0.84992(18) 0.38972(12) 0.07237(16)
H10 H 0.84450 0.34970 0.12630
H11 H 0.81450 0.35040 0.00290
C15 C 0.7378(2) 0.47736(13) 0.03131(17)
H12 H 0.62490 0.45630 -0.00710
H13 H 0.73920 0.51430 -0.02560
H14 H 0.77750 0.51750 0.10030
#END
