
#######################################################################
#
#                 Cambridge Crystallographic Data Centre
#                                CCDC
#
#######################################################################
#
# If this CIF has been generated from an entry in the Cambridge
# Structural Database, then it will include bibliographic, chemical,
# crystal, experimental, refinement or atomic coordinate data resulting
# from the CCDC's data processing and validation procedures.
#
#######################################################################

data_CSD_CIF_FOBMUF
_audit_creation_date 2005-06-17
_audit_creation_method CSD-ConQuest-V1
_database_code_CSD FOBMUF
_database_code_depnum_ccdc_archive 'CCDC 269031'
_chemical_formula_sum 'C14 H8 N2 O4'
_chemical_formula_moiety
;
C14 H8 N2 O4
;
_journal_coeditor_code "IUCr SK1814"
_journal_coden_Cambridge 591
_journal_volume 61
_journal_year 2005
_journal_page_first o209
_journal_name_full 'Acta Crystallogr.,Sect.C:Cryst.Struct.Commun. '
loop_
_publ_author_name
"C.Glidewell"
"J.N.Low"
"J.M.S.Skakle"
"J.L.Wardell"
_chemical_name_systematic
;
N-Phenyl-4-nitrophthalimide
;
_chemical_name_common
;
5-Nitro-1H-isoindole-1,3(2H)-dione
;
_cell_volume   1165.103
_exptl_crystal_colour 'yellow'
_exptl_crystal_density_diffrn 1.529
_exptl_crystal_description 'needle'
_exptl_crystal_preparation 'ethanol'
_diffrn_ambient_temperature 120
#These two values have been output from a single CSD field.
_refine_ls_R_factor_gt 0.0677
_refine_ls_wR_factor_gt 0.0677
_symmetry_cell_setting orthorhombic
_symmetry_space_group_name_H-M 'P 21 21 21'
_symmetry_Int_Tables_number 19
loop_
_symmetry_equiv_pos_site_id
_symmetry_equiv_pos_as_xyz
1 x,y,z
2 1/2-x,-y,1/2+z
3 -x,1/2+y,1/2-z
4 1/2+x,1/2-y,-z
_cell_length_a 11.9288(6)
_cell_length_b 7.0604(2)
_cell_length_c 13.8337(7)
_cell_angle_alpha 90
_cell_angle_beta 90
_cell_angle_gamma 90
_cell_formula_units_Z 4
loop_
_atom_type_symbol
_atom_type_radius_bond
C 0.68
H 0.23
N 0.68
O 0.68
loop_
_atom_site_label
_atom_site_type_symbol
_atom_site_fract_x
_atom_site_fract_y
_atom_site_fract_z
N1 N 1.0377(3) 0.4517(5) 0.6196(3)
C1 C 0.9520(4) 0.3459(7) 0.6640(3)
O1 O 0.9594(3) 0.1872(5) 0.6951(2)
C2 C 1.0001(4) 0.6356(6) 0.5957(3)
O2 O 1.0547(3) 0.7551(5) 0.5542(3)
C3 C 0.8803(4) 0.6421(7) 0.6261(3)
C4 C 0.8037(4) 0.7882(7) 0.6190(3)
C5 C 0.6965(4) 0.7423(7) 0.6524(3)
C6 C 0.6648(4) 0.5719(8) 0.6898(4)
C7 C 0.7442(4) 0.4292(8) 0.6962(4)
C8 C 0.8516(4) 0.4702(7) 0.6646(3)
N2 N 0.6083(4) 0.8913(7) 0.6463(3)
O3 O 0.6387(3) 1.0524(5) 0.6218(3)
O4 O 0.5135(3) 0.8489(6) 0.6684(3)
C9 C 1.1507(4) 0.3832(7) 0.6066(3)
C10 C 1.2394(4) 0.5091(8) 0.6192(4)
C11 C 1.3480(4) 0.4436(9) 0.6049(4)
C12 C 1.3674(5) 0.2591(9) 0.5812(4)
C13 C 1.2784(5) 0.1356(8) 0.5700(4)
C14 C 1.1679(4) 0.1969(7) 0.5813(3)
H1 H 0.82220 0.90920 0.59360
H2 H 0.59000 0.55150 0.71100
H3 H 0.72560 0.30790 0.72140
H4 H 1.22600 0.63690 0.63720
H5 H 1.40940 0.52840 0.61160
H6 H 1.44200 0.21540 0.57240
H7 H 1.29260 0.00680 0.55430
H8 H 1.10670 0.11290 0.57190
#END
