
#######################################################################
#
#                 Cambridge Crystallographic Data Centre
#                                CCDC
#
#######################################################################
#
# If this CIF has been generated from an entry in the Cambridge
# Structural Database, then it will include bibliographic, chemical,
# crystal, experimental, refinement or atomic coordinate data resulting
# from the CCDC's data processing and validation procedures.
#
#######################################################################

data_CSD_CIF_FOBNIU
_audit_creation_date 2005-06-17
_audit_creation_method CSD-ConQuest-V1
_database_code_CSD FOBNIU
_database_code_depnum_ccdc_archive 'CCDC 269034'
_chemical_formula_sum 'C10 H8 N2 O4'
_chemical_formula_moiety
;
C10 H8 N2 O4
;
_journal_coeditor_code "IUCr SK1817"
_journal_coden_Cambridge 591
_journal_volume 61
_journal_year 2005
_journal_page_first o216
_journal_name_full 'Acta Crystallogr.,Sect.C:Cryst.Struct.Commun. '
loop_
_publ_author_name
"C.Glidewell"
"J.N.Low"
"J.M.S.Skakle"
"J.L.Wardell"
_chemical_name_systematic
;
N-(2-Nitrophenyl)succinimide
;
_cell_volume    958.268
_exptl_crystal_colour 'yellow'
_exptl_crystal_density_diffrn 1.526
_exptl_crystal_description 'block'
_exptl_crystal_preparation 'ethanol'
_diffrn_ambient_temperature 120
#These two values have been output from a single CSD field.
_refine_ls_R_factor_gt 0.0427
_refine_ls_wR_factor_gt 0.0427
_symmetry_cell_setting monoclinic
_symmetry_space_group_name_H-M 'P 21/c'
_symmetry_Int_Tables_number 14
loop_
_symmetry_equiv_pos_site_id
_symmetry_equiv_pos_as_xyz
1 x,y,z
2 -x,1/2+y,1/2-z
3 -x,-y,-z
4 x,-1/2-y,-1/2+z
_cell_length_a 8.3703(2)
_cell_length_b 8.2500(1)
_cell_length_c 14.1375(3)
_cell_angle_alpha 90
_cell_angle_beta 101.0185(10)
_cell_angle_gamma 90
_cell_formula_units_Z 4
loop_
_atom_type_symbol
_atom_type_radius_bond
C 0.68
H 0.23
N 0.68
O 0.68
loop_
_atom_site_label
_atom_site_type_symbol
_atom_site_fract_x
_atom_site_fract_y
_atom_site_fract_z
N1 N 0.56943(12) 0.28051(12) 0.69420(7)
C1 C 0.41560(15) 0.31944(15) 0.71194(9)
O1 O 0.39277(12) 0.39518(13) 0.78109(7)
C2 C 0.29142(16) 0.25421(17) 0.6291(1)
C3 C 0.38899(16) 0.16599(16) 0.56392(9)
C4 C 0.56402(16) 0.19965(15) 0.60632(9)
O2 O 0.68351(12) 0.16841(11) 0.57385(7)
C5 C 0.71852(15) 0.32760(15) 0.75413(9)
C6 C 0.83386(15) 0.41825(15) 0.71784(9)
N2 N 0.79528(14) 0.48594(14) 0.62029(8)
O3 O 0.65761(13) 0.54083(13) 0.59282(7)
O4 O 0.90292(14) 0.48825(14) 0.57244(7)
C7 C 0.98520(16) 0.45331(17) 0.77271(10)
C8 C 1.01968(16) 0.40293(18) 0.86802(10)
C9 C 0.90492(17) 0.31608(17) 0.90600(9)
C10 C 0.75611(16) 0.27618(15) 0.84926(9)
H1 H 0.22730 0.34370 0.59380
H2 H 0.21600 0.17860 0.65270
H3 H 0.36680 0.04810 0.56330
H4 H 0.36090 0.20760 0.49710
H5 H 1.06400 0.51080 0.74560
H6 H 1.12200 0.42800 0.90730
H7 H 0.92850 0.28350 0.97160
H8 H 0.67980 0.21360 0.87550
#END
