
#######################################################################
#
#                 Cambridge Crystallographic Data Centre
#                                CCDC
#
#######################################################################
#
# If this CIF has been generated from an entry in the Cambridge
# Structural Database, then it will include bibliographic, chemical,
# crystal, experimental, refinement or atomic coordinate data resulting
# from the CCDC's data processing and validation procedures.
#
#######################################################################

data_CSD_CIF_FOBQOD
_audit_creation_date 2005-06-17
_audit_creation_method CSD-ConQuest-V1
_database_code_CSD FOBQOD
_database_code_depnum_ccdc_archive 'CCDC 269046'
_chemical_formula_sum 'C8 H9 N1 O2'
_chemical_formula_moiety
;
C8 H9 N1 O2
;
_journal_coeditor_code "IUCr BM1603"
_journal_coden_Cambridge 591
_journal_volume 61
_journal_year 2005
_journal_page_first o240
_journal_name_full 'Acta Crystallogr.,Sect.C:Cryst.Struct.Commun. '
loop_
_publ_author_name
"M.Odabasoglu"
"C.Albayrak"
"O.Buyukgungor"
_chemical_name_systematic
;
2,6-Dimethyl-1,4-benzoquinone 4-mono-oxime
;
_chemical_melting_point 444
_cell_volume   3137.880
_exptl_crystal_colour 'red'
_exptl_crystal_density_diffrn 1.28
_exptl_special_details
;
Melting point range 444-446K

;
_exptl_crystal_description 'tetragonal prism'
_exptl_crystal_preparation 'acetonitrile'
_diffrn_ambient_temperature 296
#These two values have been output from a single CSD field.
_refine_ls_R_factor_gt 0.0481
_refine_ls_wR_factor_gt 0.0481
_symmetry_cell_setting orthorhombic
_symmetry_space_group_name_H-M 'P b c a'
_symmetry_Int_Tables_number 61
loop_
_symmetry_equiv_pos_site_id
_symmetry_equiv_pos_as_xyz
1 x,y,z
2 1/2-x,-y,1/2+z
3 1/2+x,1/2-y,-z
4 -x,1/2+y,1/2-z
5 -x,-y,-z
6 -1/2+x,y,-1/2-z
7 -1/2-x,-1/2+y,z
8 x,-1/2-y,-1/2+z
_cell_length_a 7.2505(7)
_cell_length_b 16.3379(10)
_cell_length_c 26.4894(17)
_cell_angle_alpha 90
_cell_angle_beta 90
_cell_angle_gamma 90
_cell_formula_units_Z 16
loop_
_atom_type_symbol
_atom_type_radius_bond
C 0.68
H 0.23
N 0.68
O 0.68
loop_
_atom_site_label
_atom_site_type_symbol
_atom_site_fract_x
_atom_site_fract_y
_atom_site_fract_z
C1 C 0.5133(3) 0.15696(13) 0.21911(7)
C2 C 0.5170(3) 0.13642(13) 0.27310(8)
C3 C 0.5254(3) 0.19684(14) 0.30675(8)
H1 H 0.52500 0.18390 0.34090
C4 C 0.5349(4) 0.28102(15) 0.29217(9)
C5 C 0.5346(3) 0.30100(13) 0.23922(8)
H2 H 0.54130 0.35560 0.22950
C6 C 0.5247(3) 0.24286(13) 0.20346(7)
C7 C 0.5090(4) 0.04775(15) 0.28765(9)
H3 H 0.52040 0.04280 0.32360
H4 H 0.60820 0.01880 0.27160
H5 H 0.39330 0.02490 0.27700
C8 C 0.5235(4) 0.26134(16) 0.14825(8)
H6 H 0.52970 0.31950 0.14330
H7 H 0.41200 0.24060 0.13350
H8 H 0.62790 0.23580 0.13250
C9 C 0.8037(3) 0.38771(15) 0.53736(9)
C10 C 0.7467(3) 0.33882(14) 0.49346(9)
C11 C 0.6900(3) 0.37668(13) 0.45153(8)
H9 H 0.65670 0.34570 0.42350
C12 C 0.6795(3) 0.46510(12) 0.44883(7)
C13 C 0.7278(3) 0.51316(13) 0.49256(7)
H10 H 0.71880 0.56990 0.49100
C14 C 0.7854(3) 0.47789(14) 0.53535(8)
C15 C 0.7550(4) 0.24690(17) 0.49819(12)
H11 H 0.71880 0.22230 0.46680
H12 H 0.67280 0.22930 0.52450
H13 H 0.87860 0.23050 0.50630
C16 C 0.8347(4) 0.52555(18) 0.58136(9)
H14 H 0.80910 0.58250 0.57580
H15 H 0.96350 0.51860 0.58850
H16 H 0.76320 0.50630 0.60950
N1 N 0.5473(3) 0.33307(12) 0.33012(7)
N2 N 0.6243(3) 0.49507(10) 0.40609(6)
O1 O 0.4999(3) 0.10161(10) 0.18743(5)
O2 O 0.5585(3) 0.41143(11) 0.31286(6)
H17 H 0.56590 0.44280 0.33700
O3 O 0.8661(3) 0.35446(13) 0.57542(7)
O4 O 0.6124(3) 0.57921(9) 0.40651(5)
H18 H 0.57730 0.59540 0.37880
#END
