
#######################################################################
#
#                 Cambridge Crystallographic Data Centre
#                                CCDC
#
#######################################################################
#
# If this CIF has been generated from an entry in the Cambridge
# Structural Database, then it will include bibliographic, chemical,
# crystal, experimental, refinement or atomic coordinate data resulting
# from the CCDC's data processing and validation procedures.
#
#######################################################################

data_CSD_CIF_FOBQOC
_audit_creation_date 1999-08-13
_audit_creation_method CSD-ConQuest-V1
_database_code_CSD FOBQOC
_database_code_depnum_ccdc_archive 'CCDC 131376'
_chemical_formula_sum 'C31 H47 N1 O2'
_chemical_formula_moiety
;
C31 H47 N1 O2
;
_journal_coeditor_code "IUCr JZ1306"
_journal_coden_Cambridge 591
_journal_volume 55
_journal_year 1999
_journal_page_first 1031
_journal_name_full 'Acta Crystallogr.,Sect.C:Cryst.Struct.Commun. '
loop_
_publ_author_name
"A.Gzella"
"E.Linkowska"
"L.Zaprutko"
"U.Wrzeciono"
_chemical_name_systematic
;
19\b,28-Epoxy-18\a-olean-2-eno(2,3-d)isoxazole
;
_chemical_name_common
;
19beta,28-Epoxy-isoxazolo(4,5-b)-18alpha-olean-2-ene
;
_chemical_melting_point 555
_cell_volume   2655.146
_exptl_crystal_colour 'colorless'
_exptl_crystal_density_diffrn 1.165
_exptl_special_details
;
Melting point range 555-557K

;
_exptl_crystal_description 'needle'
_diffrn_ambient_temperature ?
_diffrn_special_details
;
The study was carried out at room temperature,in the range 283-303K

;
#These two values have been output from a single CSD field.
_refine_ls_R_factor_gt 0.0361
_refine_ls_wR_factor_gt 0.0361
_symmetry_cell_setting monoclinic
_symmetry_space_group_name_H-M 'P 21'
_symmetry_Int_Tables_number 4
loop_
_symmetry_equiv_pos_site_id
_symmetry_equiv_pos_as_xyz
1 x,y,z
2 -x,1/2+y,-z
_cell_length_a 6.5284(10)
_cell_length_b 30.614(2)
_cell_length_c 13.5481(10)
_cell_angle_alpha 90
_cell_angle_beta 101.31(1)
_cell_angle_gamma 90
_cell_formula_units_Z 4
loop_
_atom_type_symbol
_atom_type_radius_bond
C 0.68
H 0.23
N 0.68
O 0.68
loop_
_atom_site_label
_atom_site_type_symbol
_atom_site_fract_x
_atom_site_fract_y
_atom_site_fract_z
N1 N -0.2108(3) 0.26220(7) 0.63456(15)
O1 O -0.0721(3) 0.27570(5) 0.72337(12)
O2 O 0.7043(2) -0.05014(5) 0.94790(11)
C1 C 0.0076(3) 0.15829(6) 0.75301(13)
H1 H 0.01420 0.14050 0.69450
H2 H -0.09370 0.14530 0.78780
C2 C -0.0605(3) 0.20344(6) 0.72014(13)
C3 C 0.0144(3) 0.23958(7) 0.77113(15)
C4 C 0.1718(3) 0.24320(6) 0.8665(2)
C5 C 0.2203(3) 0.19522(6) 0.90499(13)
H3 H 0.10430 0.18720 0.93750
C6 C 0.4153(3) 0.19303(6) 0.98840(15)
H4 H 0.53860 0.19780 0.95980
H5 H 0.40950 0.21590 1.03720
C7 C 0.4312(3) 0.14873(6) 1.04074(13)
H6 H 0.31100 0.14500 1.07210
H7 H 0.55500 0.14850 1.09370
C8 C 0.4420(2) 0.10986(6) 0.97010(12)
C9 C 0.2541(3) 0.11391(6) 0.87993(12)
H8 H 0.13030 0.11090 0.91030
C10 C 0.2244(3) 0.15921(5) 0.82377(12)
C11 C 0.2432(3) 0.07475(6) 0.80880(13)
H9 H 0.11950 0.07730 0.75610
H10 H 0.36430 0.07500 0.77720
C12 C 0.2362(3) 0.03163(6) 0.86395(13)
H11 H 0.23830 0.00770 0.81720
H12 H 0.10650 0.02990 0.88850
C13 C 0.4190(3) 0.02663(5) 0.95220(12)
H13 H 0.54680 0.02860 0.92470
C14 C 0.4249(2) 0.06508(5) 1.02744(12)
C15 C 0.6152(3) 0.05880(6) 1.11441(14)
H14 H 0.74210 0.06190 1.08790
H15 H 0.61440 0.08170 1.16370
C16 C 0.6192(3) 0.01483(7) 1.16675(13)
H16 H 0.50640 0.01390 1.20380
H17 H 0.74970 0.01210 1.21500
C17 C 0.5976(3) -0.02397(6) 1.09475(13)
C18 C 0.4210(3) -0.01839(6) 1.00217(12)
H18 H 0.28540 -0.02440 1.02000
C19 C 0.4813(3) -0.05548(6) 0.93835(13)
H19 H 0.41150 -0.05170 0.86790
C20 C 0.4339(3) -0.10117(6) 0.97564(15)
C21 C 0.5598(4) -0.10688(7) 1.0829(2)
H20 H 0.50250 -0.13120 1.11450
H21 H 0.70300 -0.11410 1.07960
C22 C 0.5590(4) -0.06641(7) 1.14792(15)
H22 H 0.66590 -0.06960 1.20820
H23 H 0.42510 -0.06440 1.16850
C23 C 0.0747(5) 0.26832(8) 0.9433(2)
H24 H 0.17480 0.27090 1.00520
H25 H -0.04620 0.25290 0.95530
H26 H 0.03440 0.29690 0.91760
C24 C 0.3630(4) 0.26872(8) 0.8462(2)
H27 H 0.46500 0.27110 0.90750
H28 H 0.32020 0.29740 0.82180
H29 H 0.42280 0.25350 0.79670
C25 C 0.3850(3) 0.16819(7) 0.75730(14)
H30 H 0.52260 0.16900 0.79840
H31 H 0.35470 0.19570 0.72380
H32 H 0.37820 0.14540 0.70810
C26 C 0.6528(3) 0.11207(7) 0.9354(2)
H33 H 0.66310 0.08810 0.89110
H34 H 0.76480 0.11050 0.99300
H35 H 0.66190 0.13910 0.90060
C27 C 0.2302(3) 0.06387(6) 1.07518(13)
H36 H 0.10750 0.06770 1.02380
H37 H 0.23810 0.08690 1.12380
H38 H 0.22320 0.03620 1.10790
C28 C 0.7829(3) -0.03000(8) 1.0429(2)
H39 H 0.84550 -0.00200 1.03330
H40 H 0.88810 -0.04840 1.08330
C29 C 0.2000(4) -0.10626(8) 0.9722(2)
H41 H 0.15520 -0.08480 1.01510
H42 H 0.17230 -0.13500 0.99480
H43 H 0.12530 -0.10220 0.90430
C30 C 0.5021(5) -0.13555(7) 0.9069(2)
H44 H 0.64910 -0.13270 0.90840
H45 H 0.42650 -0.13140 0.83930
H46 H 0.47350 -0.16420 0.92980
C31 C -0.2009(3) 0.22008(7) 0.6352(2)
H47 H -0.27770 0.20250 0.58530
N2 N 0.8371(4) 0.48323(8) 0.6661(2)
O3 O 0.6988(3) 0.49485(5) 0.5752(2)
O4 O -0.1725(2) 0.16911(4) 0.42332(10)
C32 C 0.5492(3) 0.38033(6) 0.58289(15)
H48 H 0.52650 0.36840 0.64620
H49 H 0.64460 0.36110 0.55720
C33 C 0.6448(3) 0.42477(7) 0.6006(2)
C34 C 0.5882(3) 0.45861(7) 0.5387(2)
C35 C 0.4359(4) 0.46015(6) 0.4422(2)
C36 C 0.3647(3) 0.41177(5) 0.41707(15)
H50 H 0.47900 0.39850 0.39020
C37 C 0.1757(3) 0.40860(6) 0.3320(2)
H51 H 0.19370 0.42810 0.27800
H52 H 0.05190 0.41770 0.35610
C38 C 0.1459(3) 0.36207(6) 0.29187(14)
H53 H 0.26700 0.35390 0.26450
H54 H 0.02520 0.36130 0.23720
C39 C 0.1153(2) 0.32826(5) 0.37128(12)
C40 C 0.2930(2) 0.33444(5) 0.46534(12)
H55 H 0.42040 0.32580 0.44240
C41 C 0.3393(3) 0.38211(5) 0.50716(13)
C42 C 0.2727(3) 0.30143(6) 0.54716(13)
H56 H 0.38600 0.30560 0.60450
H57 H 0.14200 0.30620 0.56940
C43 C 0.2789(3) 0.25499(5) 0.50813(13)
H58 H 0.25790 0.23480 0.56040
H59 H 0.41610 0.24940 0.49340
C44 C 0.1143(2) 0.24650(5) 0.41381(12)
H60 H -0.02270 0.25050 0.43190
C45 C 0.1302(2) 0.27995(5) 0.32948(12)
C46 C -0.0504(3) 0.27017(6) 0.24027(13)
H61 H -0.18220 0.27490 0.26150
H62 H -0.04330 0.29050 0.18620
C47 C -0.0460(3) 0.22341(6) 0.20003(13)
H63 H -0.17180 0.21850 0.14980
H64 H 0.07240 0.22050 0.16700
C48 C -0.0307(3) 0.18845(5) 0.28077(12)
C49 C 0.1254(2) 0.19919(5) 0.37840(12)
H65 H 0.26790 0.19230 0.37030
C50 C 0.0522(3) 0.16552(5) 0.44725(12)
H66 H 0.10420 0.17330 0.51790
C51 C 0.1179(3) 0.11857(5) 0.42723(14)
C52 C 0.0211(3) 0.10703(6) 0.31730(15)
H67 H 0.09250 0.08170 0.29750
H68 H -0.12430 0.09920 0.31330
C53 C 0.0331(3) 0.14404(6) 0.24332(14)
H69 H -0.05770 0.13730 0.17950
H70 H 0.17480 0.14600 0.23180
C54 C 0.5472(5) 0.47721(8) 0.3596(2)
H71 H 0.44970 0.47830 0.29660
H72 H 0.66020 0.45800 0.35360
H73 H 0.60100 0.50600 0.37710
C55 C 0.2567(5) 0.49202(7) 0.4500(3)
H74 H 0.15910 0.49270 0.38700
H75 H 0.31270 0.52070 0.46570
H76 H 0.18680 0.48240 0.50220
C56 C 0.1752(3) 0.39997(6) 0.5645(2)
H77 H 0.04180 0.40160 0.51970
H78 H 0.21600 0.42860 0.59000
H79 H 0.16560 0.38090 0.61960
C57 C -0.1022(3) 0.33569(6) 0.39633(15)
H80 H -0.12500 0.31490 0.44600
H81 H -0.20720 0.33210 0.33650
H82 H -0.10990 0.36470 0.42210
C58 C 0.3357(3) 0.27330(6) 0.29134(14)
H83 H 0.45220 0.27910 0.34500
H84 H 0.33950 0.29290 0.23650
H85 H 0.34330 0.24370 0.26880
C59 C -0.2310(3) 0.18357(6) 0.32191(14)
H86 H -0.30350 0.21130 0.31920
H87 H -0.32320 0.16240 0.28230
C60 C 0.3554(3) 0.11439(7) 0.4475(2)
H88 H 0.41140 0.13390 0.40410
H89 H 0.39300 0.08490 0.43460
H90 H 0.41110 0.12170 0.51640
C61 C 0.0319(4) 0.08724(6) 0.4968(2)
H91 H -0.11760 0.08960 0.48480
H92 H 0.08860 0.09460 0.56560
H93 H 0.07050 0.05790 0.48380
C62 C 0.8003(3) 0.44210(8) 0.6774(2)
H94 H 0.87020 0.42560 0.73130
#END
