
#######################################################################
#
#                 Cambridge Crystallographic Data Centre
#                                CCDC
#
#######################################################################
#
# If this CIF has been generated from an entry in the Cambridge
# Structural Database, then it will include bibliographic, chemical,
# crystal, experimental, refinement or atomic coordinate data resulting
# from the CCDC's data processing and validation procedures.
#
#######################################################################

data_CSD_CIF_FOBTEW
_audit_creation_date 2005-06-17
_audit_creation_method CSD-ConQuest-V1
_database_code_CSD FOBTEW
_database_code_depnum_ccdc_archive 'CCDC 269786'
_chemical_formula_sum 'C22 H26 N3 O1'
_chemical_formula_moiety
;
C22 H26 N3 O1
;
_journal_coeditor_code "IUCr HG6137"
_journal_coden_Cambridge 1370
_journal_volume 61
_journal_year 2005
_journal_page_first o565
_journal_name_full 'Acta Crystallogr.,Sect.E:Struct.Rep.Online '
loop_
_publ_author_name
"Qing Yuan"
"Shan-Zhong Jian"
"Yan-Guang Wang"
_chemical_name_systematic
;
4-(Acridin-9-ylamino)-2,2,6,6-tetramethylpiperidine N-oxide
;
_cell_volume   1878.768
_exptl_crystal_colour 'orange'
_exptl_crystal_density_diffrn 1.232
_exptl_crystal_description 'block'
_exptl_crystal_preparation 'dichloromethane/hexane'
_diffrn_ambient_temperature 293
#These two values have been output from a single CSD field.
_refine_ls_R_factor_gt 0.0443
_refine_ls_wR_factor_gt 0.0443
_symmetry_cell_setting monoclinic
_symmetry_space_group_name_H-M 'P 21'
_symmetry_Int_Tables_number 4
loop_
_symmetry_equiv_pos_site_id
_symmetry_equiv_pos_as_xyz
1 x,y,z
2 -x,1/2+y,-z
_cell_length_a 11.1168(3)
_cell_length_b 14.2464(3)
_cell_length_c 11.8709(3)
_cell_angle_alpha 90
_cell_angle_beta 92.113(1)
_cell_angle_gamma 90
_cell_formula_units_Z 4
loop_
_atom_type_symbol
_atom_type_radius_bond
C 0.68
H 0.23
N 0.68
O 0.68
loop_
_atom_site_label
_atom_site_type_symbol
_atom_site_fract_x
_atom_site_fract_y
_atom_site_fract_z
C1 C -0.0020(2) 0.88357(19) 0.42369(19)
H1 H 0.06720 0.87780 0.37530
C2 C -0.0102(3) 0.7976(2) 0.4976(2)
H2 H -0.01920 0.74290 0.44930
H3 H -0.08260 0.80250 0.54050
C3 C 0.0969(3) 0.78094(19) 0.5803(2)
C4 C 0.2030(3) 0.7363(3) 0.5220(3)
H4 H 0.26640 0.72330 0.57690
H5 H 0.23190 0.77880 0.46630
H6 H 0.17740 0.67890 0.48630
C5 C 0.0583(4) 0.7172(2) 0.6758(3)
H7 H -0.00140 0.74860 0.71850
H8 H 0.12690 0.70280 0.72420
H9 H 0.02520 0.66010 0.64480
C6 C 0.1288(3) 0.9642(2) 0.5765(2)
C7 C 0.1186(4) 1.0376(2) 0.6697(3)
H10 H 0.19060 1.03690 0.71690
H11 H 0.05060 1.02340 0.71410
H12 H 0.10830 1.09870 0.63640
C8 C 0.2427(3) 0.9806(3) 0.5098(3)
H13 H 0.24270 0.93870 0.44650
H14 H 0.31260 0.96910 0.55770
H15 H 0.24390 1.04430 0.48350
C9 C 0.0147(3) 0.96796(19) 0.5004(2)
H16 H -0.05450 0.97290 0.54740
H17 H 0.01720 1.02410 0.45440
C10 C -0.1211(2) 0.8649(2) 0.24124(19)
C11 C -0.2085(2) 0.79840(19) 0.2048(2)
C12 C -0.2922(3) 0.7558(2) 0.2766(2)
H18 H -0.29040 0.77130 0.35270
C13 C -0.3743(3) 0.6930(2) 0.2364(3)
H19 H -0.42860 0.66640 0.28500
C14 C -0.3785(3) 0.6675(3) 0.1218(3)
H20 H -0.43580 0.62470 0.09500
C15 C -0.2998(3) 0.7051(2) 0.0507(3)
H21 H -0.30290 0.68660 -0.02440
C16 C -0.2120(3) 0.77248(19) 0.0877(2)
C17 C -0.0572(2) 0.8716(2) 0.0466(2)
C18 C 0.0202(3) 0.9104(2) -0.0344(2)
H22 H 0.01510 0.88850 -0.10820
C19 C 0.1011(3) 0.9788(3) -0.0064(3)
H23 H 0.15240 1.00200 -0.06000
C20 C 0.1069(3) 1.0143(3) 0.1048(3)
H24 H 0.15980 1.06290 0.12310
C21 C 0.0368(3) 0.9787(2) 0.1848(2)
H25 H 0.04260 1.00320 0.25740
C22 C -0.0459(2) 0.9047(2) 0.1604(2)
C23 C 0.5164(2) 0.8632(2) 0.83784(19)
H26 H 0.58540 0.85090 0.88950
C24 C 0.5386(3) 0.9510(2) 0.7696(2)
H27 H 0.54960 1.00350 0.82100
H28 H 0.46740 0.96380 0.72220
C25 C 0.6467(2) 0.94571(19) 0.6954(2)
C26 C 0.7652(3) 0.9468(3) 0.7663(3)
H29 H 0.83120 0.93460 0.71850
H30 H 0.76270 0.89940 0.82360
H31 H 0.77570 1.00730 0.80110
C27 C 0.6432(3) 1.0284(2) 0.6126(3)
H32 H 0.56980 1.02620 0.56750
H33 H 0.71070 1.02440 0.56460
H34 H 0.64710 1.08630 0.65390
C28 C 0.5990(2) 0.76586(19) 0.6721(2)
C29 C 0.5481(3) 0.7096(2) 0.5714(3)
H35 H 0.61200 0.69420 0.52240
H36 H 0.48860 0.74650 0.53090
H37 H 0.51190 0.65290 0.59780
C30 C 0.7062(3) 0.7134(2) 0.7253(3)
H38 H 0.73760 0.74780 0.78940
H39 H 0.76760 0.70700 0.67110
H40 H 0.68100 0.65230 0.74900
C31 C 0.4990(3) 0.7820(2) 0.7557(2)
H41 H 0.42410 0.79200 0.71290
H42 H 0.48980 0.72490 0.79910
C32 C 0.3934(2) 0.85502(19) 1.01506(19)
C33 C 0.4621(2) 0.90111(19) 1.1014(2)
C34 C 0.5545(3) 0.9666(2) 1.0809(2)
H43 H 0.57230 0.98100 1.00700
C35 C 0.6177(3) 1.0089(2) 1.1667(3)
H44 H 0.67860 1.05120 1.15100
C36 C 0.5913(3) 0.9890(3) 1.2795(3)
H45 H 0.63600 1.01700 1.33810
C37 C 0.5015(3) 0.9294(2) 1.3024(2)
H46 H 0.48430 0.91810 1.37730
C38 C 0.4321(3) 0.8833(2) 1.2162(2)
C39 C 0.2780(3) 0.7836(2) 1.1643(2)
C40 C 0.1814(3) 0.7246(2) 1.1942(3)
H47 H 0.16260 0.71950 1.26970
C41 C 0.1161(3) 0.6759(2) 1.1163(3)
H48 H 0.05200 0.63900 1.13830
C42 C 0.1443(3) 0.6803(2) 1.0013(3)
H49 H 0.10170 0.64390 0.94840
C43 C 0.2333(3) 0.7377(2) 0.9685(3)
H50 H 0.25000 0.74110 0.89240
C44 C 0.3021(2) 0.7928(2) 1.0468(2)
N1 N 0.13692(19) 0.87159(16) 0.63246(16)
N2 N -0.1135(2) 0.89488(19) 0.35319(17)
H51 H -0.17720 0.88040 0.39220
N3 N -0.1382(2) 0.80731(18) 0.01112(18)
N4 N 0.64069(19) 0.85784(17) 0.62823(16)
N5 N 0.4066(2) 0.8754(2) 0.90192(16)
H52 H 0.34440 0.86290 0.85780
N6 N 0.3418(2) 0.8275(2) 1.24667(19)
O1 O 0.2132(2) 0.86493(17) 0.71561(16)
O2 O 0.70787(19) 0.85413(17) 0.54264(16)
#END
