
#######################################################################
#
#                 Cambridge Crystallographic Data Centre
#                                CCDC
#
#######################################################################
#
# If this CIF has been generated from an entry in the Cambridge
# Structural Database, then it will include bibliographic, chemical,
# crystal, experimental, refinement or atomic coordinate data resulting
# from the CCDC's data processing and validation procedures.
#
#######################################################################

data_CSD_CIF_FOCMUF
_audit_creation_date 1988-04-19
_audit_creation_method CSD-ConQuest-V1
_database_code_CSD FOCMUF
_database_code_depnum_ccdc_archive 'CCDC 1158157'
_chemical_formula_sum 'C31 H41 N3 O6'
_chemical_formula_moiety
;
C31 H41 N3 O6
;
_journal_coden_Cambridge 79
_journal_volume 39
_journal_year 1986
_journal_page_first 1382
_journal_name_full 'J.Antibiot. '
loop_
_publ_author_name
"Y.Inaoka"
"S.Takahashi"
"S.Sato"
_chemical_name_systematic
;
(S)-Benzyloxy-L-valyl-L-prolyl \a-propylsuccinate benzyloxyamide
;
_chemical_name_common
;
Stereoisomer of propioxatin A di-O-benzyl ester; PEPSEQ A=2 PRO*-VAL*
;
_cell_volume   3058.371
_exptl_crystal_density_diffrn 1.2
_diffrn_ambient_temperature ?
_diffrn_special_details
;
The study was carried out at room temperature,in the range 283-303K

;
#These two values have been output from a single CSD field.
_refine_ls_R_factor_gt 0.072
_refine_ls_wR_factor_gt 0.072
_symmetry_cell_setting orthorhombic
_symmetry_space_group_name_H-M 'P 21 21 21'
_symmetry_Int_Tables_number 19
loop_
_symmetry_equiv_pos_site_id
_symmetry_equiv_pos_as_xyz
1 x,y,z
2 1/2+x,1/2-y,-z
3 -x,1/2+y,1/2-z
4 1/2-x,-y,1/2+z
_cell_length_a 17.058(3)
_cell_length_b 15.059(2)
_cell_length_c 11.906(2)
_cell_angle_alpha 90
_cell_angle_beta 90
_cell_angle_gamma 90
_cell_formula_units_Z 4
loop_
_atom_type_symbol
_atom_type_radius_bond
C 0.68
H 0.23
N 0.68
O 0.68
loop_
_atom_site_label
_atom_site_type_symbol
_atom_site_fract_x
_atom_site_fract_y
_atom_site_fract_z
O1 O 0.0742(3) 0.5934(3) 0.1219(6)
O2 O -0.0513(4) 0.6204(4) 0.1092(8)
N1 N 0.0626(3) 0.4205(3) 0.0840(4)
C1 C 0.0027(4) 0.5705(5) 0.1006(7)
C2 C -0.0056(3) 0.4757(4) 0.0614(5)
C3 C -0.0820(4) 0.4347(5) 0.1079(6)
C4 C -0.0789(4) 0.4201(6) 0.2341(6)
C5 C -0.1002(5) 0.3486(6) 0.0463(8)
O3 O 0.0874(3) 0.3972(3) -0.1007(3)
N2 N 0.1901(3) 0.3170(3) 0.1466(4)
C6 C 0.1030(3) 0.3849(4) -0.0023(5)
C7 C 0.1686(4) 0.3207(4) 0.0264(5)
C8 C 0.1427(5) 0.2250(5) 0.0018(8)
C9 C 0.1120(6) 0.1915(6) 0.1135(8)
C10 C 0.1623(4) 0.2347(4) 0.2017(6)
O4 O 0.2521(2) 0.4467(3) 0.1351(3)
O5 O 0.1042(2) 0.4271(4) 0.3280(4)
O6 O 0.0534(2) 0.5179(3) 0.5135(4)
N3 N 0.1326(3) 0.5020(5) 0.4865(5)
C11 C 0.2341(3) 0.3811(4) 0.1902(5)
C12 C 0.2629(3) 0.3706(4) 0.3108(5)
C13 C 0.2403(3) 0.4510(5) 0.3806(5)
C14 C 0.1519(3) 0.4579(5) 0.3951(5)
C15 C 0.3539(3) 0.3637(5) 0.3063(6)
C16 C 0.3835(4) 0.2812(6) 0.2429(7)
C17 C 0.4716(4) 0.2730(7) 0.2486(10)
C18 C 0.0856(6) 0.6854(6) 0.1636(14)
C19 C 0.1678(4) 0.7107(5) 0.1418(8)
C20 C 0.1883(5) 0.7668(5) 0.0563(7)
C21 C 0.2643(6) 0.7901(5) 0.0405(7)
C22 C 0.3205(5) 0.7571(6) 0.1051(9)
C23 C 0.3036(6) 0.7014(7) 0.1884(9)
C24 C 0.2273(6) 0.6768(6) 0.2092(8)
C25 C 0.0233(4) 0.4409(6) 0.5743(7)
C26 C -0.0554(4) 0.4688(4) 0.6213(6)
C27 C -0.1208(4) 0.4762(5) 0.5541(6)
C28 C -0.1915(4) 0.5012(6) 0.5996(8)
C29 C -0.1977(4) 0.5181(7) 0.7090(9)
C30 C -0.1338(5) 0.5124(7) 0.7780(7)
C31 C -0.0613(4) 0.4878(7) 0.7331(7)
H1 H 0.080(3) 0.410(4) 0.161(5)
H2 H -0.009(3) 0.480(4) -0.025(5)
H3 H -0.124(3) 0.481(4) 0.092(5)
H4 H -0.129(4) 0.391(4) 0.265(4)
H5 H -0.069(3) 0.476(4) 0.272(5)
H6 H -0.034(3) 0.374(4) 0.256(5)
H7 H -0.147(4) 0.323(4) 0.077(5)
H8 H -0.056(4) 0.302(4) 0.060(5)
H9 H -0.105(3) 0.355(4) -0.037(5)
H10 H 0.215(3) 0.343(4) -0.019(5)
H11 H 0.188(4) 0.185(4) -0.022(6)
H12 H 0.102(4) 0.224(4) -0.063(5)
H13 H 0.113(3) 0.126(4) 0.120(5)
H14 H 0.054(4) 0.214(4) 0.123(6)
H15 H 0.132(3) 0.247(4) 0.274(5)
H16 H 0.207(4) 0.192(4) 0.222(5)
H17 H 0.174(4) 0.522(4) 0.541(6)
H18 H 0.239(3) 0.318(4) 0.348(5)
H19 H 0.261(3) 0.508(4) 0.342(5)
H20 H 0.266(3) 0.448(4) 0.456(5)
H21 H 0.375(3) 0.416(4) 0.270(5)
H22 H 0.374(3) 0.365(4) 0.386(5)
H23 H 0.359(4) 0.225(4) 0.278(5)
H24 H 0.367(3) 0.284(4) 0.163(5)
H25 H 0.491(4) 0.217(4) 0.209(5)
H26 H 0.490(4) 0.268(4) 0.334(6)
H27 H 0.497(4) 0.327(4) 0.216(5)
H28 H 0.073(4) 0.689(4) 0.250(6)
H29 H 0.046(4) 0.731(4) 0.131(6)
H30 H 0.143(4) 0.793(4) 0.004(6)
H31 H 0.278(4) 0.831(4) -0.025(5)
H32 H 0.380(4) 0.774(4) 0.086(5)
H33 H 0.347(4) 0.678(5) 0.237(6)
H34 H 0.214(4) 0.632(4) 0.277(5)
H35 H 0.060(3) 0.419(4) 0.632(5)
H36 H 0.016(4) 0.383(4) 0.520(5)
H37 H -0.116(3) 0.465(4) 0.472(5)
H38 H -0.237(4) 0.505(5) 0.549(5)
H39 H -0.246(4) 0.537(4) 0.745(5)
H40 H -0.138(4) 0.530(4) 0.867(5)
H41 H -0.012(4) 0.481(4) 0.786(5)
#END
