
#######################################################################
#
#                 Cambridge Crystallographic Data Centre
#                                CCDC
#
#######################################################################
#
# If this CIF has been generated from an entry in the Cambridge
# Structural Database, then it will include bibliographic, chemical,
# crystal, experimental, refinement or atomic coordinate data resulting
# from the CCDC's data processing and validation procedures.
#
#######################################################################

data_CSD_CIF_FOCVOI
_audit_creation_date 1988-04-19
_audit_creation_method CSD-ConQuest-V1
_database_code_CSD FOCVOI
_chemical_formula_sum 'C10 H14 N2 O2'
_chemical_formula_moiety
;
C10 H14 N2 O2
;
_journal_coden_Cambridge 119
_journal_volume 158
_journal_year 1987
_journal_page_first 359
_journal_name_full 'J.Mol.Struct. '
loop_
_publ_author_name
"J.Maurin"
"T.M.Krygowski"
_chemical_name_systematic
;
N,N-2,6-Tetramethyl-4-nitroaniline
;
_chemical_name_common
;
N,N-Dimethyl-4-nitro-2,6-xylidene
;
_cell_volume   1055.540
_exptl_crystal_colour 'yellow'
_exptl_crystal_density_diffrn 1.222
_exptl_special_details
;
Published fw = 421.235; we calculate 194.23

;
_diffrn_ambient_temperature ?
_diffrn_special_details
;
The study was carried out at room temperature,in the range 283-303K

;
#These two values have been output from a single CSD field.
_refine_ls_R_factor_gt 0.033
_refine_ls_wR_factor_gt 0.033
_symmetry_cell_setting tetragonal
_symmetry_space_group_name_H-M 'P 41 21 2'
_symmetry_Int_Tables_number 92
loop_
_symmetry_equiv_pos_site_id
_symmetry_equiv_pos_as_xyz
1 x,y,z
2 1/2-y,1/2+x,1/4+z
3 -x,-y,1/2+z
4 1/2+y,1/2-x,3/4+z
5 y,x,-z
6 1/2+x,1/2-y,3/4-z
7 -y,-x,1/2-z
8 1/2-x,1/2+y,1/4-z
_cell_length_a 7.641(1)
_cell_length_b 7.641(1)
_cell_length_c 18.079(2)
_cell_angle_alpha 90
_cell_angle_beta 90
_cell_angle_gamma 90
_cell_formula_units_Z 4
loop_
_atom_type_symbol
_atom_type_radius_bond
C 0.68
N 0.68
O 0.68
loop_
_atom_site_label
_atom_site_type_symbol
_atom_site_fract_x
_atom_site_fract_y
_atom_site_fract_z
C1 C 0.2748(3) 0.27480 0.50000
C2 C 0.0213(3) 0.0213(3) 0.50000
N1 N 0.4040(3) 0.4040(3) 0.50000
N2 N -0.1143(3) -0.11420 0.50000
C3 C 0.1267(3) 0.2940(3) 0.5455(1)
C4 C -0.0024(4) 0.1647(4) 0.5446(1)
C5 C 0.5803(5) 0.3648(7) 0.5210(3)
C6 C 0.1053(6) 0.4448(5) 0.5978(2)
O1 O -0.2423(3) -0.0949(4) 0.5396(1)
C3D C 0.2940(3) 0.1267(3) 0.4545(1)
C5D C 0.3648(5) 0.5803(7) 0.4790(3)
C4D C 0.1647(4) -0.0024(4) 0.4554(1)
O1D O -0.0949(3) -0.2423(4) 0.4604(1)
C6D C 0.4448(6) 0.1053(5) 0.4022(2)
#END
