
#######################################################################
#
#                 Cambridge Crystallographic Data Centre
#                                CCDC
#
#######################################################################
#
# If this CIF has been generated from an entry in the Cambridge
# Structural Database, then it will include bibliographic, chemical,
# crystal, experimental, refinement or atomic coordinate data resulting
# from the CCDC's data processing and validation procedures.
#
#######################################################################

data_CSD_CIF_FOCXUR01
_audit_creation_date 2014-12-08
_audit_creation_method CSD-ConQuest-V1
_database_code_CSD FOCXUR01
_database_code_depnum_ccdc_archive 'CCDC 980238'
_chemical_formula_sum 'C14 H13 N3 O2'
_chemical_formula_moiety
;
C14 H13 N3 O2
;
_journal_coden_Cambridge 574
_journal_volume 114
_journal_year 2015
_journal_page_first 259
_journal_name_full 'Dyes Pigm. '
loop_
_publ_author_name
"Shi-Chen Li"
"Wei-Fang Jhang"
"Teau-Jiuan Liou"
"Ding-Yah Yang"
_chemical_name_systematic
;
2-(2-nitrophenyl)-1,2,3,4-tetrahydroquinazoline
;
_cell_volume   1231.089
_exptl_crystal_colour 'yellow'
_exptl_crystal_density_diffrn 1.377
_exptl_crystal_description 'parallelepiped'
_diffrn_ambient_temperature 296
#These two values have been output from a single CSD field.
_refine_ls_R_factor_gt 0.0802
_refine_ls_wR_factor_gt 0.0802
_symmetry_cell_setting monoclinic
_symmetry_space_group_name_H-M 'P 21/c'
_symmetry_Int_Tables_number 14
loop_
_symmetry_equiv_pos_site_id
_symmetry_equiv_pos_as_xyz
1 x,y,z
2 -x,1/2+y,1/2-z
3 -x,-y,-z
4 x,-1/2-y,-1/2+z
_cell_length_a 12.358(3)
_cell_length_b 7.8426(16)
_cell_length_c 13.673(3)
_cell_angle_alpha 90
_cell_angle_beta 111.720(9)
_cell_angle_gamma 90
_cell_formula_units_Z 4
loop_
_atom_type_symbol
_atom_type_radius_bond
C 0.68
H 0.23
N 0.68
O 0.68
loop_
_atom_site_label
_atom_site_type_symbol
_atom_site_fract_x
_atom_site_fract_y
_atom_site_fract_z
O1 O 0.3074(3) 0.6502(3) -0.1002(2)
O2 O 0.3700(3) 0.4867(3) 0.0351(3)
N1 N 0.1999(2) 1.1276(4) -0.0149(2)
H1 H 0.223(4) 1.224(5) -0.040(4)
N2 N 0.1746(2) 0.8320(3) 0.0178(2)
H2 H 0.108(3) 0.831(4) -0.030(3)
N3 N 0.3608(2) 0.6262(4) -0.0064(2)
C1 C 0.1594(2) 1.1795(3) 0.0627(2)
C2 C 0.1281(2) 1.3471(4) 0.0702(3)
H3 H 0.13540 1.42800 0.02320
C3 C 0.0862(2) 1.3956(4) 0.1470(3)
H4 H 0.06460 1.50830 0.15050
C4 C 0.0761(2) 1.2790(4) 0.2181(2)
H5 H 0.04940 1.31240 0.27040
C5 C 0.1060(2) 1.1128(4) 0.2104(2)
H6 H 0.09910 1.03380 0.25850
C6 C 0.1464(2) 1.0577(3) 0.1333(2)
C7 C 0.1756(3) 0.8754(4) 0.1219(3)
H7 H 0.25230 0.85100 0.17380
H8 H 0.12020 0.80290 0.13720
C8 C 0.2401(2) 0.9559(4) -0.0179(2)
H9 H 0.22910 0.92890 -0.09100
C9 C 0.3696(2) 0.9289(4) 0.05072(19)
C10 C 0.4366(3) 1.0569(4) 0.1130(2)
H10 H 0.40470 1.16500 0.11010
C11 C 0.5509(3) 1.0277(5) 0.1801(2)
H11 H 0.59500 1.11670 0.22040
C12 C 0.5990(3) 0.8693(5) 0.1872(2)
H12 H 0.67520 0.85050 0.23300
C13 C 0.5353(3) 0.7374(4) 0.1269(2)
H13 H 0.56710 0.62880 0.13170
C14 C 0.4224(2) 0.7706(4) 0.0588(2)
#END
