
#######################################################################
#
#                 Cambridge Crystallographic Data Centre
#                                CCDC
#
#######################################################################
#
# If this CIF has been generated from an entry in the Cambridge
# Structural Database, then it will include bibliographic, chemical,
# crystal, experimental, refinement or atomic coordinate data resulting
# from the CCDC's data processing and validation procedures.
#
#######################################################################

data_CSD_CIF_FOGMEU
_audit_creation_date 2005-06-23
_audit_creation_method CSD-ConQuest-V1
_database_code_CSD FOGMEU
_database_code_depnum_ccdc_archive 'CCDC 258872'
_chemical_formula_sum 'C25 H17 N5 O1'
_chemical_formula_moiety
;
C25 H17 N5 O1
;
_journal_coden_Cambridge 1078
_journal_year 2004
_journal_name_full 'CSD Communication(Private Communication) '
loop_
_publ_author_name
"C.Meier"
"R.Gompper"
"K.Polborn"
_chemical_name_systematic
;
3,5-bis(5-Phenylpyrazin-2-yl)pyridine-N-oxide
;
_cell_volume   1990.824
_exptl_crystal_colour 'pale red'
_exptl_crystal_density_diffrn 1.346
_exptl_special_details
;
contribution from Department Chemie, Universitat Munchen, Butenandstr. 5-13, 
81377 Munchen, Germany
;
_exptl_crystal_description 'platelet'
_diffrn_ambient_temperature 295
#These two values have been output from a single CSD field.
_refine_ls_R_factor_gt 0.046
_refine_ls_wR_factor_gt 0.046
_symmetry_cell_setting triclinic
_symmetry_space_group_name_H-M 'P -1'
_symmetry_Int_Tables_number 2
loop_
_symmetry_equiv_pos_site_id
_symmetry_equiv_pos_as_xyz
1 x,y,z
2 -x,-y,-z
_cell_length_a 7.8288(7)
_cell_length_b 13.0240(11)
_cell_length_c 20.9394(18)
_cell_angle_alpha 106.351(7)
_cell_angle_beta 96.209(8)
_cell_angle_gamma 99.834(8)
_cell_formula_units_Z 4
loop_
_atom_type_symbol
_atom_type_radius_bond
C 0.68
H 0.23
N 0.68
O 0.68
loop_
_atom_site_label
_atom_site_type_symbol
_atom_site_fract_x
_atom_site_fract_y
_atom_site_fract_z
O1 O 0.7246(4) 0.4145(2) 0.34858(13)
N1 N 0.7166(3) 0.5155(2) 0.35962(13)
N2 N 0.7504(3) 0.65067(18) 0.20528(11)
N3 N 0.7610(4) 0.8261(2) 0.28058(11)
N4 N 0.6466(4) 0.8474(2) 0.51451(12)
N5 N 0.5973(4) 0.6806(2) 0.54121(12)
C1 C 0.7417(4) 0.5638(2) 0.31117(14)
H1 H 0.76650 0.52380 0.27020
C2 C 0.7310(4) 0.6708(2) 0.32162(13)
C3 C 0.6967(4) 0.7304(2) 0.38357(13)
H2 H 0.69070 0.80360 0.39170
C4 C 0.6717(4) 0.6804(3) 0.43285(14)
C5 C 0.6815(4) 0.5730(3) 0.41968(14)
H3 H 0.66370 0.53870 0.45250
C6 C 0.7496(4) 0.7191(2) 0.26600(13)
C7 C 0.7522(4) 0.6944(2) 0.15510(14)
H4 H 0.75280 0.64880 0.11210
C8 C 0.7534(3) 0.8029(2) 0.16288(13)
C9 C 0.7626(4) 0.8662(2) 0.22865(14)
H5 H 0.77020 0.94100 0.23730
C10 C 0.7384(4) 0.8473(2) 0.10538(13)
C11 C 0.6196(4) 0.7896(2) 0.04709(13)
H6 H 0.55510 0.72070 0.04350
C12 C 0.5948(4) 0.8318(3) -0.00563(15)
H7 H 0.51460 0.79180 -0.04440
C13 C 0.6890(5) 0.9329(3) -0.00057(17)
H8 H 0.67100 0.96280 -0.03550
C14 C 0.8099(5) 0.9902(3) 0.05583(18)
H9 H 0.87580 1.05830 0.05850
C15 C 0.8351(4) 0.9481(2) 0.10864(15)
H10 H 0.91790 0.98780 0.14670
C16 C 0.6364(4) 0.7405(3) 0.50020(14)
C17 C 0.5798(4) 0.7366(3) 0.60345(15)
H11 H 0.55380 0.69780 0.63350
C18 C 0.5979(4) 0.8483(3) 0.62544(14)
C19 C 0.6263(5) 0.8988(3) 0.57730(15)
H12 H 0.63180 0.97380 0.58900
C20 C 0.5933(4) 0.9095(3) 0.69667(14)
C21 C 0.4842(4) 0.8642(3) 0.73377(14)
H13 H 0.41120 0.79550 0.71370
C22 C 0.4828(5) 0.9198(3) 0.80016(16)
H14 H 0.40870 0.88870 0.82460
C23 C 0.5899(5) 1.0208(3) 0.83024(17)
H15 H 0.58820 1.05860 0.87500
C24 C 0.6999(5) 1.0660(3) 0.79392(18)
H16 H 0.77470 1.13390 0.81430
C25 C 0.6996(5) 1.0110(3) 0.72773(15)
H17 H 0.77270 1.04310 0.70330
O2 O 0.5074(3) 0.37781(18) 0.14583(10)
N6 N 0.4137(3) 0.45147(19) 0.15352(12)
N7 N 0.1300(3) 0.68715(19) 0.06226(11)
N8 N 0.2389(3) 0.54590(18) -0.00940(11)
N9 N 0.1801(3) 0.7153(2) 0.30665(11)
N10 N 0.2581(3) 0.5655(2) 0.33836(12)
C26 C 0.3626(4) 0.4872(2) 0.10157(14)
H18 H 0.39350 0.45750 0.05970
C27 C 0.2651(3) 0.5673(2) 0.10966(13)
C28 C 0.2206(4) 0.6117(2) 0.17244(13)
H19 H 0.15660 0.66670 0.17890
C29 C 0.2722(4) 0.5736(2) 0.22542(13)
C30 C 0.3659(4) 0.4921(2) 0.21454(14)
H20 H 0.39700 0.46430 0.24940
C31 C 0.2076(3) 0.6022(2) 0.05078(12)
C32 C 0.0792(4) 0.7177(2) 0.00861(14)
H21 H 0.02600 0.77760 0.01530
C33 C 0.1013(3) 0.6651(2) -0.05625(12)
C34 C 0.1845(3) 0.5788(2) -0.06132(13)
H22 H 0.20380 0.54100 -0.10380
C35 C 0.0391(3) 0.6975(2) -0.11520(13)
C36 C -0.1029(4) 0.7471(2) -0.11620(14)
H23 H -0.15890 0.76130 -0.07870
C37 C -0.1634(4) 0.7759(3) -0.17133(17)
H24 H -0.25910 0.80960 -0.17070
C38 C -0.0836(4) 0.7552(3) -0.22722(16)
H25 H -0.12470 0.77450 -0.26460
C39 C 0.0583(4) 0.7055(3) -0.22753(15)
H26 H 0.11230 0.69040 -0.26560
C40 C 0.1199(4) 0.6783(2) -0.17240(14)
H27 H 0.21760 0.64640 -0.17290
C41 C 0.2328(4) 0.6203(3) 0.29400(13)
C42 C 0.1526(4) 0.7579(3) 0.36941(14)
H28 H 0.11490 0.82380 0.37960
C43 C 0.1760(4) 0.7115(3) 0.42016(14)
C44 C 0.2292(4) 0.6134(3) 0.40022(14)
H29 H 0.24620 0.57790 0.43240
C45 C 0.1451(4) 0.7619(3) 0.48973(14)
C46 C 0.1668(5) 0.8729(3) 0.51645(16)
H30 H 0.20400 0.91790 0.49090
C47 C 0.1344(5) 0.9197(3) 0.58092(18)
H31 H 0.14980 0.99530 0.59830
C48 C 0.0801(5) 0.8548(4) 0.61886(18)
H32 H 0.05620 0.88600 0.66180
C49 C 0.0609(5) 0.7451(4) 0.59401(16)
H33 H 0.02670 0.70100 0.62040
C50 C 0.0922(4) 0.6980(3) 0.52928(15)
H34 H 0.07710 0.62240 0.51240
#END
