
#######################################################################
#
#                 Cambridge Crystallographic Data Centre
#                                CCDC
#
#######################################################################
#
# If this CIF has been generated from an entry in the Cambridge
# Structural Database, then it will include bibliographic, chemical,
# crystal, experimental, refinement or atomic coordinate data resulting
# from the CCDC's data processing and validation procedures.
#
#######################################################################

data_CSD_CIF_FOGVED
_audit_creation_date 2005-06-23
_audit_creation_method CSD-ConQuest-V1
_database_code_CSD FOGVED
_database_code_depnum_ccdc_archive 'CCDC 269818'
_chemical_formula_sum 'C16 H18 N2 O2'
_chemical_formula_moiety
;
C16 H18 N2 O2
;
_journal_coeditor_code "IUCr LH6368"
_journal_coden_Cambridge 1370
_journal_volume 61
_journal_year 2005
_journal_page_first o751
_journal_name_full 'Acta Crystallogr.,Sect.E:Struct.Rep.Online '
loop_
_publ_author_name
"S.L.Gaonkar"
"H.S.Yathirajan"
"K.M.Lokanatharai"
"B.Nagaraj"
"M.Bolte"
_chemical_name_systematic
;
4-(2-(5-Ethylpyridin-2-yl)ethoxy)benzaldehyde oxime
;
_chemical_melting_point 391
_cell_volume   1431.457
_exptl_crystal_colour 'colorless'
_exptl_crystal_density_diffrn 1.254
_exptl_crystal_description 'needle'
_exptl_crystal_preparation 'ethyl acetate'
_diffrn_ambient_temperature 173
#These two values have been output from a single CSD field.
_refine_ls_R_factor_gt 0.0491
_refine_ls_wR_factor_gt 0.0491
_symmetry_cell_setting monoclinic
_symmetry_space_group_name_H-M 'P 21/c'
_symmetry_Int_Tables_number 14
loop_
_symmetry_equiv_pos_site_id
_symmetry_equiv_pos_as_xyz
1 x,y,z
2 -x,1/2+y,1/2-z
3 -x,-y,-z
4 x,-1/2-y,-1/2+z
_cell_length_a 16.4538(19)
_cell_length_b 5.3346(5)
_cell_length_c 17.952(2)
_cell_angle_alpha 90
_cell_angle_beta 114.709(9)
_cell_angle_gamma 90
_cell_formula_units_Z 4
loop_
_atom_type_symbol
_atom_type_radius_bond
C 0.68
H 0.23
N 0.68
O 0.68
loop_
_atom_site_label
_atom_site_type_symbol
_atom_site_fract_x
_atom_site_fract_y
_atom_site_fract_z
O1 O 0.20300(9) 0.5422(3) 0.03269(8)
N1 N 0.27506(9) 0.4887(3) 0.10822(8)
C1 C 0.29326(11) 0.6795(3) 0.15606(10)
H1 H 0.25940 0.82880 0.13690
O2 O 0.56538(7) 0.6991(2) 0.47903(7)
C2 C 0.64378(10) 0.5454(3) 0.50075(10)
H2 H 0.66880 0.56360 0.45950
H3 H 0.62870 0.36690 0.50330
C3 C 0.71147(11) 0.6344(3) 0.58463(10)
H4 H 0.71700 0.81920 0.58460
H5 H 0.69080 0.58750 0.62720
C4 C 1.04676(12) 0.1659(4) 0.62787(12)
H6 H 1.05310 -0.00130 0.65360
H7 H 1.04220 0.14120 0.57160
C5 C 1.12935(14) 0.3188(5) 0.67619(18)
H8 H 1.18220 0.23190 0.67710
H9 H 1.13530 0.34030 0.73250
H10 H 1.12420 0.48350 0.65040
C6 C 0.36498(10) 0.6736(3) 0.23963(9)
C7 C 0.42947(10) 0.4829(3) 0.26693(10)
H11 H 0.42700 0.35040 0.23070
C8 C 0.49695(10) 0.4844(3) 0.34613(10)
H12 H 0.54030 0.35430 0.36360
C9 C 0.50073(10) 0.6786(3) 0.40003(9)
C10 C 0.43671(10) 0.8692(3) 0.37439(10)
H13 H 0.43870 0.99990 0.41100
C11 C 0.37018(10) 0.8663(3) 0.29503(10)
H14 H 0.32720 0.99730 0.27770
C12 C 0.80133(10) 0.5148(3) 0.60363(10)
N2 N 0.84692(9) 0.6062(3) 0.56209(9)
C13 C 0.92392(11) 0.4945(3) 0.57214(11)
H15 H 0.95550 0.56100 0.54280
C14 C 0.96104(11) 0.2866(3) 0.62285(10)
C15 C 0.91491(12) 0.2002(3) 0.66732(11)
H16 H 0.93800 0.06380 0.70420
C16 C 0.83447(11) 0.3140(3) 0.65783(11)
H17 H 0.80270 0.25500 0.68800
H18 H 0.1897(19) 0.382(6) 0.007(2)
#END
