
#######################################################################
#
#                 Cambridge Crystallographic Data Centre
#                                CCDC
#
#######################################################################
#
# If this CIF has been generated from an entry in the Cambridge
# Structural Database, then it will include bibliographic, chemical,
# crystal, experimental, refinement or atomic coordinate data resulting
# from the CCDC's data processing and validation procedures.
#
#######################################################################

data_CSD_CIF_FOHDEM
_audit_creation_date 2005-06-23
_audit_creation_method CSD-ConQuest-V1
_database_code_CSD FOHDEM
_database_code_depnum_ccdc_archive 'CCDC 274383'
_chemical_formula_sum 'C10 H10 N2 O6'
_chemical_formula_moiety
;
C10 H10 N2 O6
;
_journal_coeditor_code "IUCr CV6511"
_journal_coden_Cambridge 1370
_journal_volume 61
_journal_year 2005
_journal_page_first o1826
_journal_name_full 'Acta Crystallogr.,Sect.E:Struct.Rep.Online '
loop_
_publ_author_name
"Long-Fei Jin"
"Feng-Ping Xiao"
_chemical_name_systematic
;
Propyl 3,5-dinitrobenzoate
;
_cell_volume   1182.714
_exptl_crystal_colour 'colorless'
_exptl_crystal_density_diffrn 1.428
_exptl_special_details
;
radiation sensitizer, possible anticreatinine activity

;
_exptl_crystal_description 'block'
_exptl_crystal_preparation 'methanol'
_diffrn_ambient_temperature 292
_refine_special_details
;
A methyl group in one molecule is disordered over two sites with occupancies 
0.83:0.17.
;
#These two values have been output from a single CSD field.
_refine_ls_R_factor_gt 0.0557
_refine_ls_wR_factor_gt 0.0557
_symmetry_cell_setting triclinic
_symmetry_space_group_name_H-M 'P -1'
_symmetry_Int_Tables_number 2
loop_
_symmetry_equiv_pos_site_id
_symmetry_equiv_pos_as_xyz
1 x,y,z
2 -x,-y,-z
_cell_length_a 11.0566(16)
_cell_length_b 11.3596(17)
_cell_length_c 11.4916(17)
_cell_angle_alpha 117.554(2)
_cell_angle_beta 99.937(3)
_cell_angle_gamma 102.830(2)
_cell_formula_units_Z 4
loop_
_atom_type_symbol
_atom_type_radius_bond
C 0.68
H 0.23
N 0.68
O 0.68
loop_
_atom_site_label
_atom_site_type_symbol
_atom_site_fract_x
_atom_site_fract_y
_atom_site_fract_z
C1 C 0.10136(16) 0.15092(17) 0.22934(17)
C2 C -0.02385(17) 0.05093(18) 0.16164(17)
H1 H -0.03610 -0.04520 0.11620
C3 C -0.12955(17) 0.09589(19) 0.16263(18)
C4 C -0.11654(18) 0.23630(19) 0.22678(17)
H2 H -0.18910 0.26480 0.22570
C5 C 0.00843(18) 0.33267(18) 0.29255(17)
C6 C 0.11736(18) 0.29327(18) 0.29548(17)
H3 H 0.20070 0.36150 0.34130
C7 C 0.21360(18) 0.0984(2) 0.22367(19)
C8 C 0.44448(19) 0.1649(2) 0.2969(2)
H4 H 0.44340 0.10380 0.20330
H5 H 0.44800 0.11460 0.34570
C9 C 0.5596(2) 0.2971(3) 0.3688(3)
H6 H 0.55760 0.35690 0.46140
H7 H 0.63830 0.27320 0.37810
C10 C 0.5682(3) 0.3778(4) 0.3003(4)
H8 H 0.56990 0.31970 0.20830
H9 H 0.64670 0.45950 0.35180
H10 H 0.49360 0.40750 0.29580
C11 C 0.87794(17) 0.77412(18) 0.32113(18)
C12 C 0.99764(18) 0.82857(18) 0.42156(18)
H11 H 1.00350 0.86920 0.51450
C13 C 1.10736(17) 0.82199(18) 0.38264(19)
C14 C 1.10438(18) 0.76247(17) 0.24677(18)
H12 H 1.17990 0.75880 0.22210
C15 C 0.98382(18) 0.70866(17) 0.14915(18)
C16 C 0.87092(17) 0.71341(17) 0.18268(18)
H13 H 0.79130 0.67670 0.11400
C17 C 0.7603(2) 0.7821(2) 0.3671(2)
C18 C 0.5304(2) 0.7199(3) 0.2948(3)
H14 H 0.53240 0.81670 0.34580
H15 H 0.51940 0.67860 0.35140
C19 C 0.4207(3) 0.6364(3) 0.1612(4)
H16 H 0.42460 0.54200 0.11110
H17 H 0.33910 0.62720 0.18230
C20 C 0.4161(5) 0.6916(14) 0.0687(11)
H18 H 0.41480 0.78620 0.11710
H19 H 0.33850 0.63250 -0.01020
H20 H 0.49180 0.69220 0.03860
C21? C 0.441(3) 0.771(3) 0.154(5)
H21? H 0.38280 0.74780 0.06770
H22? H 0.52950 0.80830 0.15920
H23? H 0.42170 0.83990 0.22940
N1 N -0.26240(16) -0.01140(19) 0.08969(18)
N2 N 0.0260(2) 0.48426(18) 0.36093(17)
N3 N 1.23439(17) 0.88002(18) 0.48991(19)
N4 N 0.97630(18) 0.64307(16) 0.00267(17)
O1 O 0.32750(12) 0.20410(14) 0.29437(14)
O2 O 0.20064(13) -0.02444(14) 0.16060(15)
O3 O -0.27129(15) -0.13506(17) 0.03185(18)
O4 O -0.35441(14) 0.02940(18) 0.09045(18)
O5 O -0.07121(17) 0.51671(15) 0.36373(18)
O6 O 0.13675(17) 0.56839(15) 0.41178(17)
O7 O 0.65180(14) 0.71664(17) 0.26076(15)
O8 O 0.76574(15) 0.84170(17) 0.48646(16)
O9 O 1.23669(15) 0.93416(18) 0.61045(16)
O10 O 1.33013(15) 0.87096(19) 0.45355(17)
O11 O 1.07182(15) 0.61953(15) -0.02844(14)
O12 O 0.87385(18) 0.6129(2) -0.08120(16)
#END
