
#######################################################################
#
#                 Cambridge Crystallographic Data Centre
#                                CCDC
#
#######################################################################
#
# If this CIF has been generated from an entry in the Cambridge
# Structural Database, then it will include bibliographic, chemical,
# crystal, experimental, refinement or atomic coordinate data resulting
# from the CCDC's data processing and validation procedures.
#
#######################################################################

data_CSD_CIF_FOHHUG
_audit_creation_date 2005-06-23
_audit_creation_method CSD-ConQuest-V1
_database_code_CSD FOHHUG
_database_code_depnum_ccdc_archive 'CCDC 274399'
_chemical_formula_sum 'C9 H5 N1 O4'
_chemical_formula_moiety
;
C9 H5 N1 O4
;
_journal_coeditor_code "IUCr GH6020"
_journal_coden_Cambridge 1370
_journal_volume 61
_journal_year 2005
_journal_page_first o1588
_journal_name_full 'Acta Crystallogr.,Sect.E:Struct.Rep.Online '
loop_
_publ_author_name
"D.Das"
"G.R.Desiraju"
"R.K.R.Jetti"
"R.Boese"
_chemical_name_systematic
;
4-nitrophenylpropiolic acid
;
_chemical_name_common
;
4-nitrophenylpropynoic acid
;
_chemical_melting_point 474
_cell_volume    838.624
_exptl_crystal_colour 'yellow'
_exptl_crystal_density_diffrn 1.514
_exptl_crystal_description 'rod'
_exptl_crystal_preparation 'chloroform/acetonitrile'
_diffrn_ambient_temperature 223
_refine_special_details
;
The carboxylic acid proton is disordered over two sites with equal occupancy.

;
#These two values have been output from a single CSD field.
_refine_ls_R_factor_gt 0.0584
_refine_ls_wR_factor_gt 0.0584
_symmetry_cell_setting monoclinic
_symmetry_space_group_name_H-M 'P 21/n'
_symmetry_Int_Tables_number 14
loop_
_symmetry_equiv_pos_site_id
_symmetry_equiv_pos_as_xyz
1 x,y,z
2 1/2-x,1/2+y,1/2-z
3 -x,-y,-z
4 -1/2+x,-1/2-y,-1/2+z
_cell_length_a 3.726(2)
_cell_length_b 7.511(5)
_cell_length_c 29.983(18)
_cell_angle_alpha 90
_cell_angle_beta 91.937(12)
_cell_angle_gamma 90
_cell_formula_units_Z 4
loop_
_atom_type_symbol
_atom_type_radius_bond
C 0.68
H 0.23
N 0.68
O 0.68
loop_
_atom_site_label
_atom_site_type_symbol
_atom_site_fract_x
_atom_site_fract_y
_atom_site_fract_z
O1 O -0.5047(5) -0.1751(2) -0.00247(5)
O2 O -0.3341(5) -0.4175(2) 0.03411(6)
O3 O 0.6415(6) 0.4808(3) 0.23541(6)
O4 O 0.5499(8) 0.6644(3) 0.18114(9)
N1 N 0.5272(6) 0.5168(3) 0.19849(8)
C1 C -0.3514(6) -0.2494(3) 0.03076(7)
C2 C -0.1875(6) -0.1423(3) 0.06561(7)
C3 C -0.0659(6) -0.0336(3) 0.09100(7)
C4 C 0.0778(6) 0.1043(3) 0.11950(7)
C5 C 0.2032(6) 0.0697(3) 0.16287(7)
H1 H 0.19030 -0.04640 0.17440
C6 C 0.3459(6) 0.2046(3) 0.18887(7)
H2 H 0.43190 0.18250 0.21820
C7 C 0.3599(6) 0.3739(3) 0.17082(7)
C8 C 0.2321(6) 0.4123(3) 0.12852(8)
H3 H 0.24150 0.52920 0.11750
C9 C 0.0900(6) 0.2776(3) 0.10251(7)
H4 H 0.00130 0.30160 0.07340
H5 H -0.475(16) -0.077(7) -0.0023(19)
H6? H -0.44(2) -0.448(8) 0.007(2)
#END
