
#######################################################################
#
#                 Cambridge Crystallographic Data Centre
#                                CCDC
#
#######################################################################
#
# If this CIF has been generated from an entry in the Cambridge
# Structural Database, then it will include bibliographic, chemical,
# crystal, experimental, refinement or atomic coordinate data resulting
# from the CCDC's data processing and validation procedures.
#
#######################################################################

data_CSD_CIF_FOHMIZ
_audit_creation_date 2005-06-23
_audit_creation_method CSD-ConQuest-V1
_database_code_CSD FOHMIZ
_database_code_depnum_ccdc_archive 'CCDC 274582'
_chemical_formula_sum 'C20 H20 N4 O4'
_chemical_formula_moiety
;
C20 H20 N4 O4
;
_journal_coeditor_code "IUCr LH6422"
_journal_coden_Cambridge 1370
_journal_volume 61
_journal_year 2005
_journal_page_first o1699
_journal_name_full 'Acta Crystallogr.,Sect.E:Struct.Rep.Online '
loop_
_publ_author_name
"C.Glidewell"
"J.N.Low"
"J.M.S.Skakle"
"J.L.Wardell"
_chemical_name_systematic
;
(1R,2R)-N,N'-bis(4-Nitrophenylmethylene)cyclohexane-1,2-diamine
;
_chemical_melting_point 381
_cell_volume   3795.914
_exptl_crystal_colour 'yellow'
_exptl_crystal_density_diffrn 1.331
_exptl_special_details
;
Melting point range 381-382K

;
_exptl_crystal_description 'needle'
_exptl_crystal_preparation 'aqueous ethanol'
_diffrn_ambient_temperature 120
#These two values have been output from a single CSD field.
_refine_ls_R_factor_gt 0.0602
_refine_ls_wR_factor_gt 0.0602
loop_
_citation_database_id_CSD
_citation_special_details
KATNUP "is a racemate of this entry"
_symmetry_cell_setting monoclinic
_symmetry_space_group_name_H-M 'C 2'
_symmetry_Int_Tables_number 5
loop_
_symmetry_equiv_pos_site_id
_symmetry_equiv_pos_as_xyz
1 x,y,z
2 -x,y,-z
3 1/2+x,1/2+y,z
4 1/2-x,1/2+y,-z
_cell_length_a 52.275(3)
_cell_length_b 5.3605(2)
_cell_length_c 14.0209(8)
_cell_angle_alpha 90
_cell_angle_beta 104.952(2)
_cell_angle_gamma 90
_cell_formula_units_Z 8
loop_
_atom_type_symbol
_atom_type_radius_bond
C 0.68
H 0.23
N 0.68
O 0.68
loop_
_atom_site_label
_atom_site_type_symbol
_atom_site_fract_x
_atom_site_fract_y
_atom_site_fract_z
C1 C 0.50443(8) 0.3481(8) 0.8160(3)
C2 C 0.49925(8) 0.2985(9) 0.7057(3)
C3 C 0.52537(8) 0.2552(9) 0.6788(3)
C4 C 0.54347(9) 0.4825(9) 0.7079(4)
C5 C 0.54826(8) 0.5380(9) 0.8169(4)
C6 C 0.52257(8) 0.5728(9) 0.8457(3)
N1 N 0.47915(6) 0.3949(7) 0.8403(2)
C7 C 0.47026(8) 0.2321(8) 0.8874(3)
C8 C 0.44432(8) 0.2550(8) 0.9096(3)
C9 C 0.43571(8) 0.0703(8) 0.9638(3)
C10 C 0.41095(9) 0.0825(9) 0.9809(3)
C11 C 0.39483(8) 0.2809(8) 0.9421(3)
C12 C 0.40263(8) 0.4671(9) 0.8887(3)
C13 C 0.42775(8) 0.4562(8) 0.8741(3)
N2 N 0.36808(7) 0.2899(7) 0.9575(3)
O1 O 0.36241(6) 0.1425(6) 1.0152(2)
O2 O 0.35262(6) 0.4470(6) 0.9124(3)
N3 N 0.48190(6) 0.0800(7) 0.6809(3)
C14 C 0.46312(8) 0.0903(8) 0.6020(3)
C15 C 0.44289(8) -0.1038(8) 0.5754(3)
C16 C 0.44032(8) -0.2850(8) 0.6428(3)
C17 C 0.41974(8) -0.4565(9) 0.6204(3)
C18 C 0.40137(8) -0.4370(8) 0.5304(3)
C19 C 0.40383(9) -0.2639(10) 0.4614(3)
C20 C 0.42484(9) -0.0984(10) 0.4839(3)
N4 N 0.37859(7) -0.6069(8) 0.5089(3)
O3 O 0.37956(6) -0.7927(7) 0.5606(3)
O4 O 0.35923(6) -0.5499(7) 0.4413(2)
C21 C 0.74978(8) 0.4396(9) 0.8373(3)
C22 C 0.76180(8) 0.4089(8) 0.7489(3)
C23 C 0.78859(8) 0.2805(9) 0.7791(3)
C24 C 0.80765(8) 0.4167(9) 0.8627(3)
C25 C 0.79599(8) 0.4411(9) 0.9512(3)
C26 C 0.76935(8) 0.5748(9) 0.9223(3)
N5 N 0.72597(7) 0.5891(7) 0.8079(3)
C27 C 0.70609(8) 0.5181(8) 0.8361(3)
C28 C 0.68122(8) 0.6610(8) 0.8147(3)
C29 C 0.66043(8) 0.5796(9) 0.8525(3)
C30 C 0.63698(8) 0.7128(9) 0.8339(3)
C31 C 0.63492(8) 0.9244(8) 0.7771(3)
C32 C 0.65521(8) 1.0133(9) 0.7398(3)
C33 C 0.67853(9) 0.8809(9) 0.7598(3)
N6 N 0.60994(7) 1.0675(8) 0.7559(3)
O5 O 0.59175(6) 0.9868(7) 0.7879(2)
O6 O 0.60827(6) 1.2569(7) 0.7062(2)
N7 N 0.74318(7) 0.2571(7) 0.6764(2)
C34 C 0.73370(8) 0.3451(8) 0.5905(3)
C35 C 0.71275(8) 0.2157(8) 0.5160(3)
C36 C 0.70190(8) -0.0074(8) 0.5390(3)
C37 C 0.68042(8) -0.1134(8) 0.4735(3)
C38 C 0.67008(8) 0.0033(8) 0.3847(3)
C39 C 0.68072(8) 0.2215(9) 0.3581(3)
C40 C 0.70255(9) 0.3261(8) 0.4248(3)
N8 N 0.64679(7) -0.1063(8) 0.3148(3)
O7 O 0.63809(6) -0.3038(6) 0.3376(2)
O8 O 0.63765(6) 0.0013(7) 0.2362(2)
H1 H 0.51310 0.19820 0.85330
H2 H 0.49010 0.44650 0.66840
H3 H 0.52190 0.22550 0.60690
H4 H 0.53420 0.10540 0.71370
H5 H 0.56060 0.45020 0.69230
H6 H 0.53520 0.62930 0.66910
H7 H 0.55830 0.39880 0.85560
H8 H 0.55910 0.69120 0.83310
H9 H 0.51350 0.72420 0.81320
H10 H 0.52640 0.59740 0.91800
H11 H 0.48070 0.08810 0.90970
H12 H 0.44700 -0.06600 0.98920
H13 H 0.40510 -0.04260 1.01840
H14 H 0.39100 0.60060 0.86230
H15 H 0.43380 0.58690 0.83950
H16 H 0.46230 0.22910 0.55920
H17 H 0.45280 -0.29200 0.70530
H18 H 0.41830 -0.58400 0.66590
H19 H 0.39130 -0.25760 0.39890
H20 H 0.42690 0.02010 0.43610
H21 H 0.74540 0.27200 0.86010
H22 H 0.76370 0.57620 0.71990
H23 H 0.78620 0.10750 0.80000
H24 H 0.79620 0.27230 0.72150
H25 H 0.81140 0.58470 0.84020
H26 H 0.82460 0.32390 0.88230
H27 H 0.80840 0.53590 1.00420
H28 H 0.79360 0.27320 0.97710
H29 H 0.77200 0.74770 0.90180
H30 H 0.76180 0.58310 0.98020
H31 H 0.70720 0.36700 0.87240
H32 H 0.66240 0.43210 0.89130
H33 H 0.62270 0.65960 0.85960
H34 H 0.65310 1.16150 0.70140
H35 H 0.69290 0.93960 0.73610
H36 H 0.74030 0.49950 0.57350
H37 H 0.70940 -0.08680 0.60040
H38 H 0.67290 -0.26410 0.48940
H39 H 0.67330 0.29760 0.29590
H40 H 0.71040 0.47350 0.40780
#END
