
#######################################################################
#
#                 Cambridge Crystallographic Data Centre
#                                CCDC
#
#######################################################################
#
# If this CIF has been generated from an entry in the Cambridge
# Structural Database, then it will include bibliographic, chemical,
# crystal, experimental, refinement or atomic coordinate data resulting
# from the CCDC's data processing and validation procedures.
#
#######################################################################

data_CSD_CIF_FOJNAT
_audit_creation_date 1988-05-06
_audit_creation_method CSD-ConQuest-V1
_database_code_CSD FOJNAT
_database_code_depnum_ccdc_archive 'CCDC 1158688'
_chemical_formula_sum 'C8 H10 N2 O6'
_chemical_formula_moiety
;
C8 H10 N2 O6
;
_journal_coeditor_code "IUCr A27411"
_journal_coden_Cambridge 591
_journal_volume 43
_journal_year 1987
_journal_page_first 1786
_journal_name_full 'Acta Crystallogr.,Sect.C:Cryst.Struct.Commun. '
loop_
_publ_author_name
"Y.Wada"
"M.Takamoto"
"S.Tsubotani"
"K.Kamiya"
_chemical_name_systematic
;
2-(4-Ammonio-3-oxo-1,2-oxazolidin-2-yl)-5-oxotetrahydrofuran-2-carboxylate
;
_chemical_name_common
;
4-Aminolactivinic acid
;
_cell_volume    940.555
_exptl_crystal_colour 'colorless'
_exptl_crystal_density_diffrn 1.63
_exptl_special_details
;
Absolute configuration

;
_diffrn_ambient_temperature ?
_diffrn_special_details
;
The study was carried out at room temperature,in the range 283-303K

;
#These two values have been output from a single CSD field.
_refine_ls_R_factor_gt 0.065
_refine_ls_wR_factor_gt 0.065
_chemical_compound_source
;
Culture filtrates of Empedobacter lactamgenus sp. nov. YK-258 and Lysobacter 
albus sp. nov. YK-422
;
_symmetry_cell_setting orthorhombic
_symmetry_space_group_name_H-M 'P 21 21 21'
_symmetry_Int_Tables_number 19
loop_
_symmetry_equiv_pos_site_id
_symmetry_equiv_pos_as_xyz
1 x,y,z
2 1/2+x,1/2-y,-z
3 -x,1/2+y,1/2-z
4 1/2-x,-y,1/2+z
_cell_length_a 7.833(3)
_cell_length_b 21.577(5)
_cell_length_c 5.565(2)
_cell_angle_alpha 90
_cell_angle_beta 90
_cell_angle_gamma 90
_cell_formula_units_Z 4
loop_
_atom_type_symbol
_atom_type_radius_bond
C 0.68
H 0.23
N 0.68
O 0.68
loop_
_atom_site_label
_atom_site_type_symbol
_atom_site_fract_x
_atom_site_fract_y
_atom_site_fract_z
O1 O 0.8080(11) 0.1383(4) 0.1482(18)
N1 N 0.6920(13) 0.1037(5) 0.3064(18)
C1 C 0.7842(16) 0.0714(5) 0.4682(25)
O2 O 0.7278(10) 0.0435(4) 0.6390(16)
C2 C 0.9701(15) 0.0735(5) 0.3932(21)
C3 C 0.9567(18) 0.0988(5) 0.1332(24)
C4 C 0.5378(16) 0.1350(5) 0.3635(22)
O3 O 0.5753(12) 0.1841(3) 0.5405(14)
C5 C 0.5616(19) 0.2395(6) 0.4585(25)
O4 O 0.5908(15) 0.2853(5) 0.5817(20)
C6 C 0.5102(20) 0.2406(7) 0.1919(24)
C7 C 0.4574(18) 0.1729(6) 0.1474(25)
C8 C 0.4084(17) 0.0897(6) 0.4605(23)
O5 O 0.3829(11) 0.0433(4) 0.3365(17)
O6 O 0.3302(11) 0.1026(4) 0.6519(16)
N2 N 1.0473(13) 0.0114(5) 0.4006(17)
H1 H 1.043(16) 0.101(6) 0.504(22)
H2 H 0.948(16) 0.065(5) 0.014(23)
H3 H 1.070(15) 0.125(5) 0.098(22)
H4 H 0.615(15) 0.254(6) 0.077(22)
H5 H 0.406(16) 0.272(6) 0.157(23)
H6 H 0.508(16) 0.156(6) -0.008(23)
H7 H 0.328(15) 0.178(5) 0.144(24)
H8 H 0.989(17) -0.021(6) 0.270(23)
H9 H 1.176(15) 0.016(5) 0.365(25)
H10 H 1.029(16) -0.006(6) 0.559(24)
#END
