
#######################################################################
#
#                 Cambridge Crystallographic Data Centre
#                                CCDC
#
#######################################################################
#
# If this CIF has been generated from an entry in the Cambridge
# Structural Database, then it will include bibliographic, chemical,
# crystal, experimental, refinement or atomic coordinate data resulting
# from the CCDC's data processing and validation procedures.
#
#######################################################################

data_CSD_CIF_FOJPIF
_audit_creation_date 2014-06-09
_audit_creation_method CSD-ConQuest-V1
_database_code_CSD FOJPIF
_database_code_depnum_ccdc_archive 'CCDC 986169'
_chemical_formula_sum 'C15 H11 N1 O5'
_chemical_formula_moiety
;
C15 H11 N1 O5
;
_journal_coden_Cambridge 1295
_journal_volume 44
_journal_year 2014
_journal_page_first 143
_journal_name_full 'Inorg.Chem.Commun. '
loop_
_publ_author_name
"Qing Chen"
"Xiao-Li Chen"
"Huai-Ming Hu"
"Hui-Ming Shu"
"Feng Fu"
"Meng-Lin Yang"
"Gang-Lin Xue"
_chemical_name_systematic
;
6-[1-hydroxy-3-oxo-3-phenylprop-1-en-1-yl]pyridine-2-carboxylic acid 1-oxide
;
_cell_volume   2517.175
_exptl_crystal_colour 'yellow'
_exptl_crystal_density_diffrn 1.505
_exptl_crystal_description 'block'
_diffrn_ambient_temperature 296
#These two values have been output from a single CSD field.
_refine_ls_R_factor_gt 0.0376
_refine_ls_wR_factor_gt 0.0376
_symmetry_cell_setting orthorhombic
_symmetry_space_group_name_H-M 'P b c a'
_symmetry_Int_Tables_number 61
loop_
_symmetry_equiv_pos_site_id
_symmetry_equiv_pos_as_xyz
1 x,y,z
2 1/2-x,-y,1/2+z
3 -x,1/2+y,1/2-z
4 1/2+x,1/2-y,-z
5 -x,-y,-z
6 -1/2+x,y,-1/2-z
7 x,-1/2-y,-1/2+z
8 -1/2-x,-1/2+y,z
_cell_length_a 7.2931(8)
_cell_length_b 13.4042(14)
_cell_length_c 25.749(3)
_cell_angle_alpha 90
_cell_angle_beta 90
_cell_angle_gamma 90
_cell_formula_units_Z 8
loop_
_atom_type_symbol
_atom_type_radius_bond
C 0.68
H 0.23
N 0.68
O 0.68
loop_
_atom_site_label
_atom_site_type_symbol
_atom_site_fract_x
_atom_site_fract_y
_atom_site_fract_z
N1 N 0.0539(2) 0.5096(1) 0.35015(5)
O1 O 0.3323(2) 0.69871(10) 0.50650(5)
O2 O 0.2329(2) 0.72575(9) 0.41560(5)
H1 H 0.27180 0.73960 0.44460
O3 O 0.09411(19) 0.43532(9) 0.38164(5)
O4 O -0.0500(2) 0.31494(9) 0.32346(5)
H2 H 0.00310 0.33920 0.34850
O5 O -0.1810(2) 0.37102(10) 0.25173(6)
C1 C 0.4047(3) 0.58252(14) 0.59193(7)
H3 H 0.43040 0.65040 0.59290
C2 C 0.4451(3) 0.52398(14) 0.63427(7)
H4 H 0.49720 0.55250 0.66370
C3 C 0.4085(3) 0.42282(15) 0.63312(7)
H5 H 0.43610 0.38320 0.66170
C4 C 0.3310(3) 0.38093(14) 0.58953(7)
H6 H 0.30630 0.31290 0.58870
C5 C 0.2899(2) 0.43943(13) 0.54700(7)
H7 H 0.23790 0.41050 0.51770
C6 C 0.3259(2) 0.54141(13) 0.54769(7)
C7 C 0.2877(3) 0.60722(13) 0.50277(7)
C8 C 0.2089(2) 0.57014(13) 0.45616(7)
H8 H 0.17340 0.50360 0.45410
C9 C 0.1847(3) 0.63139(13) 0.41432(7)
C10 C 0.1014(2) 0.60588(12) 0.36321(7)
C11 C 0.0627(3) 0.68116(13) 0.32812(7)
H9 H 0.09860 0.74610 0.33590
C12 C -0.0271(3) 0.66298(14) 0.28228(7)
H10 H -0.05340 0.71460 0.25930
C13 C -0.0773(3) 0.56640(13) 0.27117(7)
H11 H -0.14000 0.55270 0.24050
C14 C -0.0362(2) 0.49018(12) 0.30452(7)
C15 C -0.0950(3) 0.38564(13) 0.29108(7)
#END
