
#######################################################################
#
#                 Cambridge Crystallographic Data Centre
#                                CCDC
#
#######################################################################
#
# If this CIF has been generated from an entry in the Cambridge
# Structural Database, then it will include bibliographic, chemical,
# crystal, experimental, refinement or atomic coordinate data resulting
# from the CCDC's data processing and validation procedures.
#
#######################################################################

data_CSD_CIF_FOJROM
_audit_creation_date 2005-06-30
_audit_creation_method CSD-ConQuest-V1
_database_code_CSD FOJROM
_database_code_depnum_ccdc_archive 'CCDC 266886'
_chemical_formula_sum 'C17 H18 N2 O5'
_chemical_formula_moiety
;
C17 H18 N2 O5
;
_journal_coden_Cambridge 35
_journal_volume 70
_journal_year 2005
_journal_page_first 1704
_journal_name_full 'J.Org.Chem. '
loop_
_publ_author_name
"S.Akine"
"T.Taniguchi"
"Wenkui Dong"
"S.Masubuchi"
"T.Nabeshima"
_chemical_name_systematic
;
gauche,gauche,anti-1-(Salicylideneamino-oxy)-2-(3-methoxysalicylideneamino-oxy
)ethane
;
_chemical_melting_point 353
_cell_volume   1591.527
_exptl_crystal_colour 'colorless'
_exptl_crystal_density_diffrn 1.379
_exptl_special_details
;
Melting point range 353-354K

;
_exptl_crystal_description 'prismatic'
_exptl_crystal_preparation 'chloroform/hexane'
_diffrn_ambient_temperature 120
#These two values have been output from a single CSD field.
_refine_ls_R_factor_gt 0.0749
_refine_ls_wR_factor_gt 0.0749
_symmetry_cell_setting monoclinic
_symmetry_space_group_name_H-M 'P 21/n'
_symmetry_Int_Tables_number 14
loop_
_symmetry_equiv_pos_site_id
_symmetry_equiv_pos_as_xyz
1 x,y,z
2 1/2-x,1/2+y,1/2-z
3 -x,-y,-z
4 -1/2+x,-1/2-y,-1/2+z
_cell_length_a 15.272(12)
_cell_length_b 4.628(3)
_cell_length_c 23.257(18)
_cell_angle_alpha 90
_cell_angle_beta 104.485(11)
_cell_angle_gamma 90
_cell_formula_units_Z 4
loop_
_atom_type_symbol
_atom_type_radius_bond
C 0.68
H 0.23
N 0.68
O 0.68
loop_
_atom_site_label
_atom_site_type_symbol
_atom_site_fract_x
_atom_site_fract_y
_atom_site_fract_z
C1 C -0.03728(17) -0.1060(6) 0.33866(11)
C2 C -0.10044(18) -0.1536(6) 0.37201(11)
C3 C -0.16920(18) -0.3584(6) 0.35257(12)
C4 C -0.17444(18) -0.5122(6) 0.30078(12)
H1 H -0.22160 -0.64900 0.28750
C5 C -0.11071(19) -0.4667(6) 0.26797(12)
H2 H -0.11400 -0.57390 0.23270
C6 C -0.04318(19) -0.2667(6) 0.28680(12)
H3 H 0.00010 -0.23700 0.26430
O1 O -0.09858(12) -0.0096(4) 0.42327(8)
H4 H -0.05570 0.10950 0.43020
O2 O -0.22848(13) -0.3872(4) 0.38808(8)
C7 C -0.29558(19) -0.6094(6) 0.37174(13)
H5 H -0.33650 -0.56240 0.33320
H6 H -0.33020 -0.62290 0.40190
H7 H -0.26590 -0.79480 0.36890
C8 C 0.03499(18) 0.1061(6) 0.35674(12)
H8 H 0.07660 0.13290 0.33290
N1 N 0.04378(15) 0.2567(5) 0.40383(10)
O3 O 0.11723(12) 0.4478(4) 0.41118(8)
C9 C 0.13067(18) 0.5931(6) 0.46737(12)
H9 H 0.14470 0.45060 0.50020
H10 H 0.07510 0.69870 0.46930
C10 C 0.20835(18) 0.8019(6) 0.47326(13)
H11 H 0.20100 0.90740 0.43530
H12 H 0.20590 0.94550 0.50440
O4 O 0.29571(12) 0.6645(5) 0.48812(8)
N2 N 0.30616(15) 0.5061(5) 0.43885(10)
C11 C 0.38135(18) 0.3717(6) 0.44953(13)
H13 H 0.42350 0.39290 0.48700
C12 C 0.40283(19) 0.1858(6) 0.40452(13)
C13 C 0.3394(2) 0.1149(7) 0.35170(13)
C14 C 0.3626(2) -0.0738(8) 0.31094(15)
H14 H 0.31900 -0.12550 0.27560
C15 C 0.4488(3) -0.1841(8) 0.32229(17)
H15 H 0.46420 -0.31190 0.29440
C16 C 0.5138(2) -0.1126(7) 0.37373(16)
H16 H 0.57340 -0.18820 0.38080
C17 C 0.4902(2) 0.0707(7) 0.41439(15)
H17 H 0.53420 0.11970 0.44980
O5 O 0.25312(14) 0.2183(6) 0.33803(9)
H18 H 0.24670 0.33260 0.36470
#END
