
#######################################################################
#
#                 Cambridge Crystallographic Data Centre
#                                CCDC
#
#######################################################################
#
# If this CIF has been generated from an entry in the Cambridge
# Structural Database, then it will include bibliographic, chemical,
# crystal, experimental, refinement or atomic coordinate data resulting
# from the CCDC's data processing and validation procedures.
#
#######################################################################

data_CSD_CIF_FOJREC
_audit_creation_date 2005-06-30
_audit_creation_method CSD-ConQuest-V1
_database_code_CSD FOJREC
_database_code_depnum_ccdc_archive 'CCDC 266884'
_chemical_formula_sum 'C16 H16 N2 O4'
_chemical_formula_moiety
;
C16 H16 N2 O4
;
_journal_coden_Cambridge 35
_journal_volume 70
_journal_year 2005
_journal_page_first 1704
_journal_name_full 'J.Org.Chem. '
loop_
_publ_author_name
"S.Akine"
"T.Taniguchi"
"Wenkui Dong"
"S.Masubuchi"
"T.Nabeshima"
_chemical_name_systematic
;
gauche,gauche-1,2-bis(Salicylideneamino-oxy)ethane
;
_chemical_melting_point 386
_cell_volume   1446.752
_exptl_crystal_colour 'colorless'
_exptl_crystal_density_diffrn 1.379
_exptl_special_details
;
Melting point range 386-387K

;
_exptl_crystal_description 'prismatic'
_diffrn_ambient_temperature 180
#These two values have been output from a single CSD field.
_refine_ls_R_factor_gt 0.0453
_refine_ls_wR_factor_gt 0.0453
_symmetry_cell_setting triclinic
_symmetry_space_group_name_H-M 'P -1'
_symmetry_Int_Tables_number 2
loop_
_symmetry_equiv_pos_site_id
_symmetry_equiv_pos_as_xyz
1 x,y,z
2 -x,-y,-z
_cell_length_a 4.6416(4)
_cell_length_b 15.0604(11)
_cell_length_c 20.9786(14)
_cell_angle_alpha 92.323(3)
_cell_angle_beta 93.095(3)
_cell_angle_gamma 98.4404(16)
_cell_formula_units_Z 4
loop_
_atom_type_symbol
_atom_type_radius_bond
C 0.68
H 0.23
N 0.68
O 0.68
loop_
_atom_site_label
_atom_site_type_symbol
_atom_site_fract_x
_atom_site_fract_y
_atom_site_fract_z
C1 C -0.0781(4) 0.37986(11) 0.08819(8)
C2 C -0.1397(4) 0.36549(12) 0.15199(9)
C3 C -0.3739(4) 0.30218(13) 0.16616(10)
H1 H -0.41440 0.29250 0.20940
C4 C -0.5478(4) 0.25331(13) 0.1176(1)
H2 H -0.70790 0.21040 0.12770
C5 C -0.4905(4) 0.26641(12) 0.05425(10)
H3 H -0.60970 0.23250 0.02090
C6 C -0.2591(4) 0.32915(12) 0.04017(9)
H4 H -0.22100 0.33830 -0.00330
O1 O 0.0242(3) 0.41184(9) 0.20169(6)
H5 H 0.15660 0.44860 0.18750
C7 C 0.1620(4) 0.44541(11) 0.07009(8)
H6 H 0.19500 0.45100 0.02600
N1 N 0.3306(3) 0.49588(9) 0.11141(7)
O2 O 0.5431(3) 0.55342(8) 0.08102(6)
C8 C 0.7254(4) 0.61131(12) 0.12757(9)
H7 H 0.89020 0.64450 0.10610
H8 H 0.80760 0.57410 0.15970
C9 C 0.5672(4) 0.67761(12) 0.16115(8)
H9 H 0.40430 0.64580 0.18390
H10 H 0.70170 0.71590 0.19270
O3 O 0.4578(3) 0.73149(8) 0.11322(6)
N2 N 0.3056(3) 0.79406(9) 0.14332(7)
C10 C 0.1857(4) 0.83997(11) 0.10273(9)
H11 H 0.20700 0.82890 0.05850
C11 C 0.0173(4) 0.90880(11) 0.12275(9)
C12 C -0.0117(4) 0.93135(12) 0.18748(9)
C13 C -0.1726(4) 0.99872(13) 0.20405(10)
H12 H -0.19450 1.01330 0.24780
C14 C -0.3002(4) 1.04440(13) 0.15750(11)
H13 H -0.40810 1.09070 0.16940
C15 C -0.2733(5) 1.02362(13) 0.09338(10)
H14 H -0.36170 1.05540 0.06130
C16 C -0.1161(4) 0.95611(13) 0.07672(10)
H15 H -0.09840 0.94150 0.03280
O4 O 0.1102(3) 0.88904(9) 0.23552(6)
H16 H 0.20400 0.85050 0.22010
C17 C 0.3108(4) 1.16690(11) 0.39724(8)
C18 C 0.2673(4) 1.16711(12) 0.33019(9)
C19 C 0.0971(4) 1.22556(13) 0.30296(9)
H17 H 0.06760 1.22540 0.25780
C20 C -0.0297(4) 1.28389(12) 0.34087(9)
H18 H -0.14700 1.32340 0.32180
C21 C 0.0133(4) 1.28514(12) 0.40685(9)
H19 H -0.07170 1.32600 0.43300
C22 C 0.1805(4) 1.22664(12) 0.43424(9)
H20 H 0.20710 1.22720 0.47950
O5 O 0.3864(3) 1.11175(9) 0.29035(6)
H21 H 0.48850 1.08070 0.31180
C23 C 0.4826(4) 1.10567(12) 0.42814(9)
H22 H 0.50250 1.10680 0.47350
N3 N 0.6073(3) 1.05044(10) 0.39556(7)
O6 O 0.7586(3) 0.99749(8) 0.43557(6)
C24 C 0.8963(4) 0.93734(12) 0.39657(10)
H23 H 1.03390 0.90920 0.42410
H24 H 1.01100 0.97250 0.36520
C25 C 0.6858(4) 0.86476(12) 0.36129(9)
H25 H 0.53870 0.89150 0.33540
H26 H 0.79060 0.82910 0.33220
O7 O 0.5455(3) 0.80823(8) 0.40744(6)
N4 N 0.3342(3) 0.74305(10) 0.37521(7)
C26 C 0.2034(4) 0.68911(12) 0.41298(9)
H27 H 0.25730 0.69580 0.45740
C27 C -0.0269(4) 0.61741(11) 0.38959(8)
C28 C -0.1108(4) 0.60208(12) 0.32443(9)
C29 C -0.3357(4) 0.53320(13) 0.30464(10)
H28 H -0.39250 0.52320 0.26040
C30 C -0.4767(4) 0.47946(13) 0.34837(10)
H29 H -0.63160 0.43320 0.33430
C31 C -0.3932(5) 0.49264(13) 0.41275(10)
H30 H -0.48740 0.45480 0.44290
C32 C -0.1723(4) 0.56105(13) 0.43269(9)
H31 H -0.11720 0.57020 0.47700
O8 O 0.0207(3) 0.65226(10) 0.27914(6)
H32 H 0.15490 0.69050 0.29650
#END
