
#######################################################################
#
#                 Cambridge Crystallographic Data Centre
#                                CCDC
#
#######################################################################
#
# If this CIF has been generated from an entry in the Cambridge
# Structural Database, then it will include bibliographic, chemical,
# crystal, experimental, refinement or atomic coordinate data resulting
# from the CCDC's data processing and validation procedures.
#
#######################################################################

data_CSD_CIF_FOKNAV
_audit_creation_date 2005-06-30
_audit_creation_method CSD-ConQuest-V1
_database_code_CSD FOKNAV
_database_code_depnum_ccdc_archive 'CCDC 260701'
_chemical_formula_sum 'C20 H19 N5 O3'
_chemical_formula_moiety
;
C20 H19 N5 O3
;
_journal_coden_Cambridge 1336
_journal_volume 7
_journal_year 2005
_journal_page_first 533
_journal_name_full 'Org.Lett. '
loop_
_publ_author_name
"G.Cardillo"
"S.Fabbroni"
"L.Gentilucci"
"R.Perciaccante"
"F.Piccinelli"
"A.Tolomelli"
_chemical_name_systematic
;
(2'S*-Z,4R*)-3-(2'-(Azido)butylidene)-N-benzyl-4-(4-nitrophenyl)azetidin-2-one
;
_cell_volume   1913.777
_exptl_crystal_colour 'colorless'
_exptl_crystal_density_diffrn 1.31
_exptl_crystal_description 'parallelepiped'
_exptl_crystal_preparation 'water/methanol'
_diffrn_ambient_temperature 293
#These two values have been output from a single CSD field.
_refine_ls_R_factor_gt 0.0435
_refine_ls_wR_factor_gt 0.0435
_symmetry_cell_setting monoclinic
_symmetry_space_group_name_H-M 'P 21/n'
_symmetry_Int_Tables_number 14
loop_
_symmetry_equiv_pos_site_id
_symmetry_equiv_pos_as_xyz
1 x,y,z
2 1/2-x,1/2+y,1/2-z
3 -x,-y,-z
4 -1/2+x,-1/2-y,-1/2+z
_cell_length_a 15.8947(12)
_cell_length_b 7.1605(6)
_cell_length_c 17.1209(13)
_cell_angle_alpha 90
_cell_angle_beta 100.848(2)
_cell_angle_gamma 90
_cell_formula_units_Z 4
loop_
_atom_type_symbol
_atom_type_radius_bond
C 0.68
H 0.23
N 0.68
O 0.68
loop_
_atom_site_label
_atom_site_type_symbol
_atom_site_fract_x
_atom_site_fract_y
_atom_site_fract_z
C1 C 0.55596(8) 0.67330(16) 0.06028(6)
N1 N 0.56564(8) 0.76140(16) -0.01534(6)
C2 C 0.53674(7) 0.50877(16) 0.20090(6)
C3 C 0.62514(8) 0.58053(18) 0.10432(7)
H1 H 0.67710 0.57350 0.08700
C4 C 0.59892(7) 0.44933(17) 0.35095(6)
O1 O 0.65189(7) 0.12679(14) 0.39803(6)
C5 C 0.61462(8) 0.49819(18) 0.17516(7)
H2 H 0.66030 0.43500 0.20590
C6 C 0.52649(8) 0.42120(17) 0.27871(6)
H3 H 0.47030 0.44890 0.29160
N2 N 0.54778(7) 0.21958(15) 0.28859(6)
C7 C 0.47795(8) 0.68690(17) 0.08358(7)
H4 H 0.43250 0.75000 0.05250
C8 C 0.63815(8) 0.59194(18) 0.39021(7)
H5 H 0.61940 0.71180 0.37480
C9 C 0.46918(8) 0.60378(17) 0.15475(7)
H6 H 0.41710 0.61190 0.17180
C10 C 0.60939(8) 0.24018(18) 0.35517(7)
O2 O 0.50321(8) 0.83460(17) -0.05588(6)
C11 C 0.50618(9) 0.05334(18) 0.25107(7)
H7 H 0.54710 -0.04860 0.25750
H8 H 0.48810 0.07630 0.19460
C12 C 0.42933(8) -0.00387(16) 0.28552(7)
C13 C 0.71152(8) 0.57056(19) 0.45854(7)
H9 H 0.71760 0.43890 0.47420
O3 O 0.63574(8) 0.75431(19) -0.03461(6)
C14 C 0.44028(10) -0.06678(19) 0.36362(8)
H10 H 0.49510 -0.07630 0.39420
N3 N 0.80501(8) 0.5677(2) 0.37331(10)
N4 N 0.79209(9) 0.6371(2) 0.43520(9)
C15 C 0.36982(14) -0.1153(2) 0.39596(11)
H11 H 0.37740 -0.15720 0.44820
C16 C 0.70068(12) 0.6886(2) 0.52993(8)
H12 H 0.75150 0.67650 0.57100
H13 H 0.69520 0.81880 0.51410
C17 C 0.34767(10) 0.0081(2) 0.24162(9)
H14 H 0.33930 0.04980 0.18930
C18 C 0.62362(15) 0.6322(2) 0.56345(10)
H15 H 0.61940 0.71010 0.60820
H16 H 0.62930 0.50410 0.58020
H17 H 0.57300 0.64630 0.52340
C19 C 0.28935(14) -0.1018(3) 0.35140(14)
H18 H 0.24210 -0.13410 0.37330
C20 C 0.27829(12) -0.0411(3) 0.27464(14)
H19 H 0.22330 -0.03280 0.24430
N5 N 0.82090(11) 0.5119(3) 0.31591(12)
#END
