
#######################################################################
#
#                 Cambridge Crystallographic Data Centre
#                                CCDC
#
#######################################################################
#
# If this CIF has been generated from an entry in the Cambridge
# Structural Database, then it will include bibliographic, chemical,
# crystal, experimental, refinement or atomic coordinate data resulting
# from the CCDC's data processing and validation procedures.
#
#######################################################################

data_CSD_CIF_FOKSAA
_audit_creation_date 2005-06-30
_audit_creation_method CSD-ConQuest-V1
_database_code_CSD FOKSAA
_database_code_depnum_ccdc_archive 'CCDC 258061'
_chemical_formula_sum 'C48 H51 N15 O6'
_chemical_formula_moiety
;
C48 H51 N15 O6
;
_journal_coden_Cambridge 1078
_journal_year 2004
_journal_name_full 'CSD Communication(Private Communication) '
loop_
_publ_author_name
"C.Meier"
"R.Gompper"
"K.Polborn"
_chemical_name_systematic
;
1,3,5-tris(5-(4-Nitrophenyl)-4,6-bis(dimethylamino)pyrimidin-2-yl)benzene
;
_cell_volume   2402.628
_exptl_crystal_colour 'orange'
_exptl_crystal_density_diffrn 1.291
_exptl_special_details
;
contribution from Department Chemie, Universitat Munchen, Butenandstr. 5-13, 
81377 Munchen, Germany
;
_exptl_crystal_description 'stick'
_diffrn_ambient_temperature 295
#These two values have been output from a single CSD field.
_refine_ls_R_factor_gt 0.0488
_refine_ls_wR_factor_gt 0.0488
_symmetry_cell_setting triclinic
_symmetry_space_group_name_H-M 'P -1'
_symmetry_Int_Tables_number 2
loop_
_symmetry_equiv_pos_site_id
_symmetry_equiv_pos_as_xyz
1 x,y,z
2 -x,-y,-z
_cell_length_a 11.2345(8)
_cell_length_b 13.9990(18)
_cell_length_c 15.5967(17)
_cell_angle_alpha 93.690(9)
_cell_angle_beta 93.118(8)
_cell_angle_gamma 100.342(8)
_cell_formula_units_Z 2
loop_
_atom_type_symbol
_atom_type_radius_bond
C 0.68
H 0.23
N 0.68
O 0.68
loop_
_atom_site_label
_atom_site_type_symbol
_atom_site_fract_x
_atom_site_fract_y
_atom_site_fract_z
O1 O 0.8398(3) 0.7480(3) 1.4806(2)
O2 O 0.7680(4) 0.6265(3) 1.5504(2)
O3 O -0.6718(3) -0.1032(3) 0.7484(3)
O4 O -0.6401(3) -0.2067(3) 0.8392(3)
O5 O 0.9725(3) 0.3102(3) 0.2690(2)
O6 O 1.0152(3) 0.4537(3) 0.33443(19)
N1 N 0.3993(2) 0.35287(19) 1.09001(17)
N2 N 0.5854(2) 0.3992(2) 1.02488(16)
N3 N 0.3635(2) 0.4183(2) 1.22269(18)
N4 N 0.7560(2) 0.4909(2) 1.09955(18)
N5 N 0.7811(4) 0.6665(4) 1.4841(3)
N6 N 0.0639(2) 0.1354(2) 0.92561(16)
N7 N 0.0889(2) 0.08308(19) 0.78087(16)
N8 N -0.1222(2) 0.1203(2) 0.98191(18)
N9 N -0.0628(2) -0.0165(2) 0.69457(17)
N10 N -0.6056(3) -0.1377(3) 0.7973(3)
N11 N 0.4856(2) 0.17352(19) 0.66005(17)
N12 N 0.6523(2) 0.24860(19) 0.75599(17)
N13 N 0.4988(2) 0.1590(2) 0.51228(19)
N14 N 0.8458(2) 0.2862(2) 0.7147(2)
N15 N 0.9659(3) 0.3684(3) 0.3290(2)
C1 C 0.4557(3) 0.2113(2) 0.8094(2)
C2 C 0.4981(3) 0.2710(2) 0.8827(2)
H1 H 0.57850 0.30280 0.88800
C3 C 0.4232(3) 0.2848(2) 0.94859(19)
C4 C 0.3038(3) 0.2360(2) 0.9398(2)
H2 H 0.25270 0.24470 0.98350
C5 C 0.2590(3) 0.1745(2) 0.86763(19)
C6 C 0.3361(3) 0.1623(2) 0.8026(2)
H3 H 0.30720 0.12090 0.75400
C7 C 0.4722(3) 0.3504(2) 1.0259(2)
C8 C 0.4444(3) 0.4112(2) 1.1605(2)
C9 C 0.5658(3) 0.4591(2) 1.1707(2)
C10 C 0.6334(3) 0.4489(2) 1.0982(2)
C11 C 0.2491(4) 0.3495(3) 1.2153(3)
H4 H 0.19410 0.36980 1.17400
H5 H 0.21460 0.34720 1.27030
H6 H 0.26310 0.28590 1.19680
C12 C 0.3550(3) 0.5098(3) 1.2672(3)
H7 H 0.37320 0.50700 1.32780
H8 H 0.27430 0.52250 1.25780
H9 H 0.41190 0.56100 1.24590
C13 C 0.8072(3) 0.5011(3) 1.0157(3)
H10 H 0.82000 0.43880 0.99260
H11 H 0.88320 0.54580 1.02230
H12 H 0.75210 0.52530 0.97710
C14 C 0.8355(3) 0.4561(4) 1.1620(3)
H13 H 0.90280 0.50730 1.18020
H14 H 0.86490 0.40150 1.13620
H15 H 0.79140 0.43650 1.21090
C15 C 0.6212(3) 0.5133(2) 1.2521(2)
C16 C 0.6091(3) 0.4708(3) 1.3301(2)
H16 H 0.56650 0.40750 1.33100
C17 C 0.6598(4) 0.5214(3) 1.4061(2)
H17 H 0.65140 0.49280 1.45820
C18 C 0.7227(3) 0.6148(3) 1.4036(2)
C19 C 0.7345(3) 0.6599(3) 1.3286(2)
H18 H 0.77550 0.72380 1.32860
C20 C 0.6842(3) 0.6085(2) 1.2528(2)
H19 H 0.69260 0.63810 1.20120
C21 C 0.1289(3) 0.1278(2) 0.8576(2)
C22 C -0.0561(3) 0.0991(2) 0.9140(2)
C23 C -0.1075(3) 0.0441(2) 0.8381(2)
C24 C -0.0273(3) 0.0368(2) 0.7722(2)
C25 C -0.2437(3) 0.1433(3) 0.9702(3)
H20 H -0.24450 0.20640 0.99800
H21 H -0.30090 0.09530 0.99510
H22 H -0.26550 0.14340 0.90980
C26 C -0.0585(3) 0.1589(4) 1.0640(2)
H23 H -0.11340 0.14930 1.10910
H24 H -0.02790 0.22720 1.06190
H25 H 0.00780 0.12570 1.07520
C27 C 0.0191(4) -0.0009(3) 0.6258(2)
H26 H -0.01960 -0.03490 0.57340
H27 H 0.09180 -0.02500 0.64050
H28 H 0.03910 0.06750 0.61820
C28 C -0.1244(3) -0.1175(3) 0.6943(3)
H29 H -0.07900 -0.15900 0.66380
H30 H -0.20410 -0.12460 0.66640
H31 H -0.13060 -0.13540 0.75250
C29 C -0.2370(3) -0.0038(2) 0.8274(2)
C30 C -0.2862(3) -0.0687(3) 0.8851(2)
H32 H -0.23750 -0.08260 0.93110
C31 C 0.5362(3) 0.2097(2) 0.7370(2)
C32 C -0.4070(3) -0.1131(3) 0.8749(2)
H33 H -0.43920 -0.15720 0.91350
C33 C 0.5563(3) 0.1897(2) 0.5931(2)
C34 C -0.4779(3) -0.0922(3) 0.8087(2)
C35 C 0.6790(3) 0.2348(2) 0.6040(2)
C36 C -0.4333(3) -0.0280(3) 0.7498(2)
H34 H -0.48360 -0.01390 0.70480
C37 C 0.7254(3) 0.2566(2) 0.6903(2)
C38 C -0.3116(3) 0.0151(2) 0.7590(2)
H35 H -0.27960 0.05710 0.71880
C39 C 0.3848(3) 0.0883(3) 0.5104(2)
H36 H 0.36440 0.05890 0.45300
H37 H 0.32110 0.12100 0.52830
H38 H 0.39420 0.03890 0.54880
C40 C 0.4930(4) 0.2304(3) 0.4485(2)
H39 H 0.41660 0.25180 0.44960
H40 H 0.50100 0.20100 0.39230
H41 H 0.55770 0.28510 0.46180
C41 C 0.8833(3) 0.3250(3) 0.8022(3)
H42 H 0.95900 0.36960 0.80290
H43 H 0.89280 0.27270 0.83730
H44 H 0.82280 0.35860 0.82450
C42 C 0.9429(3) 0.2614(3) 0.6650(3)
H45 H 1.00100 0.23870 0.70230
H46 H 0.98190 0.31800 0.63890
H47 H 0.91000 0.21110 0.62090
C43 C 0.7524(3) 0.2667(2) 0.5314(2)
C44 C 0.7711(3) 0.2029(3) 0.4634(2)
H48 H 0.73650 0.13730 0.46250
C45 C 0.8406(3) 0.2362(3) 0.3971(2)
H49 H 0.85250 0.19350 0.35150
C46 C 0.8916(3) 0.3328(3) 0.3997(2)
C47 C 0.8753(3) 0.3975(3) 0.4648(2)
H50 H 0.91030 0.46300 0.46500
C48 C 0.8058(3) 0.3642(3) 0.5306(2)
H51 H 0.79430 0.40790 0.57550
#END
