
#######################################################################
#
#                 Cambridge Crystallographic Data Centre
#                                CCDC
#
#######################################################################
#
# If this CIF has been generated from an entry in the Cambridge
# Structural Database, then it will include bibliographic, chemical,
# crystal, experimental, refinement or atomic coordinate data resulting
# from the CCDC's data processing and validation procedures.
#
#######################################################################

data_CSD_CIF_FOKTOO
_audit_creation_date 1988-06-10
_audit_creation_method CSD-ConQuest-V1
_database_code_CSD FOKTOO
_chemical_formula_sum 'C14 H17 N3 O3'
_chemical_formula_moiety
;
C14 H17 N3 O3
;
_journal_coden_Cambridge 16
_journal_volume 43
_journal_year 1987
_journal_page_first 4731
_journal_name_full 'Tetrahedron '
loop_
_publ_author_name
"F.Fulop"
"G.Bernath"
"K.Pihlaja"
"J.Mattinen"
"G.Argay"
"A.Kalman"
_chemical_name_systematic
;
cis-2-p-Nitrophenylperhydroquinazolin-4-one
;
_chemical_melting_point 456.15
_cell_volume   2690.995
_exptl_crystal_density_diffrn 1.36
_exptl_special_details
;
Melting point range 456.15-458.15K
isomer 1

;
_diffrn_ambient_temperature ?
_diffrn_special_details
;
The study was carried out at room temperature,in the range 283-303K

;
#These two values have been output from a single CSD field.
_refine_ls_R_factor_gt 0.047
_refine_ls_wR_factor_gt 0.047
loop_
_citation_database_id_CSD
_citation_special_details
FOKTUU "is a stereoisomer of this entry"
_symmetry_cell_setting monoclinic
_symmetry_space_group_name_H-M 'P 21/c'
_symmetry_Int_Tables_number 14
loop_
_symmetry_equiv_pos_site_id
_symmetry_equiv_pos_as_xyz
1 x,y,z
2 -x,1/2+y,1/2-z
3 -x,-y,-z
4 x,-1/2-y,-1/2+z
_cell_length_a 7.131(2)
_cell_length_b 16.154(2)
_cell_length_c 23.368(3)
_cell_angle_alpha 90
_cell_angle_beta 91.45(2)
_cell_angle_gamma 90
_cell_formula_units_Z 8
loop_
_atom_type_symbol
_atom_type_radius_bond
C 0.68
H 0.23
N 0.68
O 0.68
loop_
_atom_site_label
_atom_site_type_symbol
_atom_site_fract_x
_atom_site_fract_y
_atom_site_fract_z
N1 N -0.0758(3) -0.1199(1) 0.1111(1)
C1 C 0.0901(3) -0.0786(1) 0.1346(1)
N2 N 0.1210(3) -0.0932(1) 0.1963(1)
C2 C 0.0551(3) -0.1591(1) 0.2245(1)
C3 C -0.0924(3) -0.2120(1) 0.1952(1)
C4 C -0.2841(3) -0.1865(1) 0.2184(1)
C5 C -0.4412(4) -0.2374(2) 0.1904(1)
C6 C -0.4410(4) -0.2270(1) 0.1259(1)
C7 C -0.2522(4) -0.2515(1) 0.1014(1)
C8 C -0.0869(3) -0.2067(1) 0.1300(1)
C9 C 0.0801(3) 0.0126(1) 0.1201(1)
C10 C 0.0453(3) 0.0740(1) 0.1605(1)
C11 C 0.0324(4) 0.1565(1) 0.1438(1)
C12 C 0.0519(3) 0.1753(1) 0.0869(1)
C13 C 0.0874(4) 0.1162(1) 0.0457(1)
C14 C 0.1039(3) 0.0348(1) 0.0635(1)
O1 O 0.1074(2) -0.1749(1) 0.2738(1)
N3 N 0.0357(3) 0.2622(1) 0.0685(1)
O2 O 0.0421(3) 0.3156(1) 0.1058(1)
O3 O 0.0134(3) 0.2722(1) 0.0183(1)
N4 N 0.5896(3) 0.5786(1) 0.9235(1)
C15 C 0.4206(3) 0.6158(1) 0.8989(1)
N5 N 0.3714(3) 0.5847(1) 0.8411(1)
C16 C 0.4359(3) 0.5153(1) 0.8172(1)
C17 C 0.5885(3) 0.4687(1) 0.8495(1)
C18 C 0.7780(4) 0.4855(2) 0.8217(1)
C19 C 0.9358(4) 0.4399(2) 0.8541(1)
C20 C 0.9446(4) 0.4644(2) 0.9165(1)
C21 C 0.7581(4) 0.4482(1) 0.9449(1)
C22 C 0.5933(3) 0.4888(1) 0.9137(1)
C23 C 0.4368(3) 0.7091(1) 0.8990(1)
C24 C 0.4544(3) 0.7548(1) 0.8486(1)
C25 C 0.4603(4) 0.8405(1) 0.8496(1)
C26 C 0.4460(3) 0.8793(1) 0.9018(1)
C27 C 0.4346(4) 0.8368(1) 0.9525(1)
C28 C 0.4303(4) 0.7512(1) 0.9507(1)
O4 O 0.3765(3) 0.4909(1) 0.7701(1)
N6 N 0.4376(3) 0.9698(1) 0.9027(1)
O5 O 0.4582(3) 1.0073(1) 0.8581(1)
O6 O 0.4043(4) 1.0045(1) 0.9475(1)
H1 H 0.207(4) -0.104(1) 0.115(1)
H2 H -0.065(4) -0.268(1) 0.208(1)
H3 H -0.304(4) -0.127(2) 0.213(1)
H4 H -0.279(4) -0.193(2) 0.258(1)
H5 H -0.562(4) -0.217(2) 0.207(1)
H6 H -0.420(4) -0.299(2) 0.202(1)
H7 H -0.463(4) -0.168(2) 0.116(1)
H8 H -0.544(4) -0.261(2) 0.107(1)
H9 H -0.248(4) -0.241(2) 0.058(1)
H10 H -0.234(4) -0.309(2) 0.106(1)
H11 H 0.027(4) -0.233(1) 0.118(1)
H12 H 0.025(4) 0.063(2) 0.203(1)
H13 H 0.005(4) 0.197(2) 0.172(1)
H14 H 0.107(4) 0.130(2) 0.007(1)
H15 H 0.139(4) -0.009(2) 0.036(1)
H16 H -0.175(4) -0.091(1) 0.122(1)
H17 H 0.210(4) -0.064(1) 0.219(1)
H18 H 0.301(4) 0.602(1) 0.927(1)
H19 H 0.562(4) 0.413(2) 0.844(1)
H20 H 0.770(4) 0.469(2) 0.779(1)
H21 H 0.802(4) 0.545(2) 0.821(1)
H22 H 0.910(5) 0.383(2) 0.852(1)
H23 H 1.053(5) 0.452(2) 0.834(1)
H24 H 1.052(5) 0.431(2) 0.938(1)
H25 H 0.971(5) 0.520(2) 0.921(1)
H26 H 0.733(4) 0.387(2) 0.947(1)
H27 H 0.762(4) 0.467(2) 0.985(1)
H28 H 0.481(4) 0.467(2) 0.930(1)
H29 H 0.456(4) 0.727(2) 0.812(1)
H30 H 0.489(4) 0.872(2) 0.814(1)
H31 H 0.421(4) 0.866(2) 0.988(1)
H32 H 0.412(4) 0.719(2) 0.984(1)
H33 H 0.691(4) 0.604(1) 0.908(1)
H34 H 0.280(4) 0.615(1) 0.818(1)
#END
