
#######################################################################
#
#                 Cambridge Crystallographic Data Centre
#                                CCDC
#
#######################################################################
#
# If this CIF has been generated from an entry in the Cambridge
# Structural Database, then it will include bibliographic, chemical,
# crystal, experimental, refinement or atomic coordinate data resulting
# from the CCDC's data processing and validation procedures.
#
#######################################################################

data_CSD_CIF_FOLCAK
_audit_creation_date 1999-08-12
_audit_creation_method CSD-ConQuest-V1
_database_code_CSD FOLCAK
_database_code_depnum_ccdc_archive 'CCDC 113152'
_database_code_depnum_ccdc_journal 207/279
_chemical_formula_sum 'C20 H20 N4 O4'
_chemical_formula_moiety
;
C20 H20 N4 O4
;
_journal_coden_Cambridge 207
_journal_year 1998
_journal_page_first 4077
_journal_name_full 'J.Chem.Soc.,Perkin Trans.1 '
loop_
_publ_author_name
"A.R.Maguire"
"N.R.Buckley"
"P.O'Leary"
"G.Ferguson"
_chemical_name_systematic
;
1-Methyl-4-phenylbicyclo[4.1.0]heptan-2-one 2,4-dinitrophenylhydrazone
;
_chemical_melting_point 446.15
_cell_volume    921.600
_exptl_crystal_colour 'red-orange'
_exptl_crystal_density_diffrn 1.371
_exptl_special_details
;
Melting point range 446.15-447.15K

;
_exptl_crystal_description 'plate'
_exptl_crystal_preparation 'ethanol'
_diffrn_ambient_temperature ?
_diffrn_special_details
;
The study was carried out at room temperature,in the range 283-303K

;
#These two values have been output from a single CSD field.
_refine_ls_R_factor_gt 0.0541
_refine_ls_wR_factor_gt 0.0541
_symmetry_cell_setting triclinic
_symmetry_space_group_name_H-M 'P -1'
_symmetry_Int_Tables_number 2
loop_
_symmetry_equiv_pos_site_id
_symmetry_equiv_pos_as_xyz
1 x,y,z
2 -x,-y,-z
_cell_length_a 7.943(5)
_cell_length_b 8.000(3)
_cell_length_c 16.237(3)
_cell_angle_alpha 101.63(2)
_cell_angle_beta 93.12(3)
_cell_angle_gamma 112.79(3)
_cell_formula_units_Z 2
loop_
_atom_type_symbol
_atom_type_radius_bond
C 0.68
H 0.23
N 0.68
O 0.68
loop_
_atom_site_label
_atom_site_type_symbol
_atom_site_fract_x
_atom_site_fract_y
_atom_site_fract_z
O1 O 0.2635(4) 0.1160(3) 0.4306(2)
O2 O 0.1907(4) 0.0544(3) 0.5497(2)
O3 O 0.0614(4) 0.4668(4) 0.7624(2)
O4 O 0.0761(4) 0.7293(4) 0.7426(2)
N1 N 0.3681(4) 0.5853(3) 0.3612(2)
N2 N 0.3170(4) 0.4414(3) 0.40276(15)
N3 N 0.2221(4) 0.1582(4) 0.5014(2)
N4 N 0.0917(4) 0.5826(4) 0.7202(2)
C1 C 0.4087(5) 0.5535(4) 0.2861(2)
C2 C 0.4642(5) 0.7151(4) 0.2456(2)
C3 C 0.4603(6) 0.6749(5) 0.1507(2)
C4 C 0.3992(6) 0.4751(5) 0.0987(2)
C5 C 0.2905(5) 0.3281(4) 0.1436(2)
C6 C 0.3921(5) 0.3678(4) 0.2326(2)
C7 C 0.4197(6) 0.8752(5) 0.2877(2)
C8 C 0.6419(6) 0.7639(5) 0.2083(2)
C9 C 0.2630(4) 0.4716(4) 0.4794(2)
C10 C 0.2157(4) 0.3389(4) 0.5290(2)
C11 C 0.1585(4) 0.3740(4) 0.6071(2)
C12 C 0.1503(4) 0.5433(4) 0.6376(2)
C13 C 0.1963(5) 0.6758(4) 0.5908(2)
C14 C 0.2528(4) 0.6429(4) 0.5138(2)
C15 C 0.2391(5) 0.1276(5) 0.0941(2)
C16 C 0.2992(6) 0.0832(6) 0.0189(2)
C17 C 0.2421(7) -0.1016(6) -0.0266(2)
C18 C 0.1292(6) -0.2417(6) 0.0034(2)
C19 C 0.0671(7) -0.2010(6) 0.0790(3)
C20 C 0.1227(6) -0.0178(5) 0.1233(2)
H1 H 0.31980 0.33580 0.38010
H2 H 0.42860 0.75810 0.12230
H3 H 0.32400 0.45920 0.04620
H4 H 0.50770 0.45510 0.08390
H5 H 0.17440 0.34150 0.15100
H6 H 0.32560 0.26880 0.25970
H7 H 0.51440 0.37010 0.22860
H8 H 0.46220 0.97250 0.25780
H9 H 0.47990 0.92280 0.34550
H10 H 0.28860 0.83270 0.28660
H11 H 0.71700 0.89490 0.21260
H12 H 0.71090 0.68810 0.21220
H13 H 0.12590 0.28410 0.63860
H14 H 0.18860 0.78920 0.61190
H15 H 0.28520 0.73500 0.48350
H16 H 0.38010 0.17860 -0.00240
H17 H 0.28290 -0.12770 -0.07840
H18 H 0.09310 -0.36510 -0.02660
H19 H -0.01240 -0.29700 0.10040
H20 H 0.07990 0.00770 0.17450
#END
