
#######################################################################
#
#                 Cambridge Crystallographic Data Centre
#                                CCDC
#
#######################################################################
#
# If this CIF has been generated from an entry in the Cambridge
# Structural Database, then it will include bibliographic, chemical,
# crystal, experimental, refinement or atomic coordinate data resulting
# from the CCDC's data processing and validation procedures.
#
#######################################################################

data_CSD_CIF_FOLGAQ
_audit_creation_date 2014-06-10
_audit_creation_method CSD-ConQuest-V1
_database_code_CSD FOLGAQ
_database_code_depnum_ccdc_archive 'CCDC 994070'
_chemical_formula_sum 'C22 H23 N1 O4'
_chemical_formula_moiety
;
C22 H23 N1 O4
;
_journal_coden_Cambridge 1336
_journal_volume 16
_journal_year 2014
_journal_page_first 2668
_journal_name_full 'Org.Lett. '
loop_
_publ_author_name
"E.Chenard"
"S.Hanessian"
_chemical_name_systematic
;
1-methoxy-4-(1-(4-methoxyphenyl)-2-nitrobutyl)naphthalene
;
_cell_volume   1932.881
_exptl_crystal_colour 'colorless'
_exptl_crystal_density_diffrn 1.256
_exptl_crystal_description 'block'
_exptl_crystal_preparation 'diethyl ether/methanol'
_diffrn_ambient_temperature 100
#These two values have been output from a single CSD field.
_refine_ls_R_factor_gt 0.0457
_refine_ls_wR_factor_gt 0.0457
_symmetry_cell_setting triclinic
_symmetry_space_group_name_H-M 'P -1'
_symmetry_Int_Tables_number 2
loop_
_symmetry_equiv_pos_site_id
_symmetry_equiv_pos_as_xyz
1 x,y,z
2 -x,-y,-z
_cell_length_a 10.8942(1)
_cell_length_b 13.1866(2)
_cell_length_c 13.7843(2)
_cell_angle_alpha 95.464(1)
_cell_angle_beta 98.887(1)
_cell_angle_gamma 96.073(1)
_cell_formula_units_Z 4
loop_
_atom_type_symbol
_atom_type_radius_bond
C 0.68
H 0.23
N 0.68
O 0.68
loop_
_atom_site_label
_atom_site_type_symbol
_atom_site_fract_x
_atom_site_fract_y
_atom_site_fract_z
C1 C 0.12729(17) 0.41249(13) -0.07872(11)
H1 H 0.18590 0.37420 -0.11010
H2 H 0.13930 0.48450 -0.09140
H3 H 0.04120 0.38270 -0.10610
O1 O 0.12559(10) -0.10471(7) 0.31002(8)
O2 O 0.32956(10) 0.25514(10) 0.03584(8)
O3 O 0.16837(11) 0.16921(9) -0.05832(8)
N1 N 0.21655(11) 0.23499(9) 0.00970(8)
C2 C 0.15818(13) 0.18306(11) 0.20354(10)
C3 C 0.22057(12) 0.16824(10) 0.30044(9)
C4 C 0.07508(14) 0.00102(11) 0.17824(10)
H4 H 0.02640 -0.05470 0.13590
C5 C 0.07820(13) 0.35294(11) 0.22819(9)
C6 C 0.29450(13) 0.24906(11) 0.36576(10)
H5 H 0.30410 0.31590 0.34540
C7 C 0.13171(13) 0.29748(11) 0.06148(10)
H6 H 0.04260 0.26780 0.03750
C8 C 0.16341(13) 0.29167(10) 0.17368(10)
H7 H 0.25110 0.32550 0.19610
C9 C 0.35251(13) 0.23303(11) 0.45773(10)
H8 H 0.40170 0.28860 0.50000
C10 C 0.13304(13) -0.01379(10) 0.27034(10)
C11 C 0.26847(13) 0.05527(11) 0.4294(1)
H9 H 0.25970 -0.01070 0.45160
C12 C 0.20742(12) 0.06947(10) 0.33387(10)
C13 C 0.11393(13) 0.45498(11) 0.26522(10)
H10 H 0.19110 0.48820 0.25350
C14 C 0.08825(14) 0.10015(11) 0.14646(10)
H11 H 0.04660 0.10940 0.08270
O4 O -0.15161(14) 0.50743(11) 0.39045(11)
C15 C 0.33967(14) 0.13508(12) 0.48989(10)
H12 H 0.38040 0.12440 0.55350
C16 C 0.04001(15) 0.51021(11) 0.31915(11)
H13 H 0.06640 0.58020 0.34360
C17 C -0.10919(15) 0.35989(13) 0.30106(13)
H14 H -0.18560 0.32640 0.31400
C18 C -0.03571(14) 0.30655(12) 0.24680(11)
H15 H -0.06310 0.23690 0.22160
C19 C 0.15142(15) 0.40637(11) 0.03254(11)
H16 H 0.09510 0.44860 0.06380
H17 H 0.23860 0.43650 0.05930
C20 C -0.07230(16) 0.46226(13) 0.33687(12)
C21 C 0.05354(15) -0.19142(11) 0.24987(12)
H18 H -0.03400 -0.17850 0.23500
H19 H 0.05860 -0.25230 0.28520
H20 H 0.08660 -0.20290 0.18810
C22 C -0.1152(2) 0.61156(16) 0.43213(18)
H21 H -0.03060 0.61830 0.47050
H22 H -0.17380 0.63180 0.47550
H23 H -0.11620 0.65600 0.37900
O5 O 0.79292(10) 1.12358(8) 0.38810(8)
O6 O 0.50032(11) 0.41833(8) 0.29657(8)
N2 N 0.29134(13) 0.73151(11) 0.01952(9)
O7 O 0.19012(11) 0.72944(11) 0.04807(8)
C23 C 0.35109(13) 0.74092(12) 0.3617(1)
H24 H 0.33610 0.80730 0.34490
C24 C 0.64879(14) 0.88239(11) 0.23605(10)
H25 H 0.67180 0.82160 0.20470
C25 C 0.40790(13) 0.67674(11) 0.29789(10)
C26 C 0.41805(14) 0.81140(12) 0.17788(10)
H26 H 0.33990 0.82750 0.20250
O8 O 0.31307(13) 0.67006(11) -0.04621(9)
C27 C 0.44186(13) 0.70669(11) 0.2073(1)
C28 C 0.74202(13) 0.95728(11) 0.2871(1)
H27 H 0.82760 0.94760 0.28980
C29 C 0.43039(13) 0.57867(11) 0.32638(11)
C30 C 0.70982(14) 1.04612(11) 0.3340(1)
C31 C 0.49704(14) 0.63824(12) 0.15087(11)
H28 H 0.52070 0.65790 0.09120
C32 C 0.52257(14) 0.89452(11) 0.22982(10)
C33 C 0.49259(14) 0.98480(12) 0.27625(11)
H29 H 0.40710 0.99530 0.27230
C34 C 0.58366(14) 1.05949(12) 0.32788(11)
H30 H 0.56040 1.12010 0.35930
C35 C 0.48625(14) 0.51101(12) 0.26380(11)
C36 C 0.51991(15) 0.54040(12) 0.17771(11)
H31 H 0.55810 0.49550 0.13680
C37 C 0.33932(15) 0.61246(13) 0.47399(11)
H32 H 0.31590 0.59150 0.53330
C38 C 0.31722(14) 0.70989(13) 0.44689(11)
H33 H 0.27860 0.75440 0.48780
C39 C 0.39438(14) 0.54780(12) 0.41527(11)
H34 H 0.40870 0.48200 0.43380
C40 C 0.35209(17) 0.91688(14) 0.03687(12)
H35 H 0.42200 0.97230 0.06030
H36 H 0.28210 0.93210 0.07170
C41 C 0.39410(14) 0.81653(13) 0.06568(11)
H37 H 0.47230 0.80530 0.03860
C42 C 0.55388(17) 0.34629(13) 0.23658(13)
H38 H 0.50030 0.32980 0.17180
H39 H 0.56070 0.28350 0.26870
H40 H 0.63730 0.37610 0.22810
C43 C 0.92177(15) 1.10793(14) 0.40390(14)
H41 H 0.93160 1.04570 0.43650
H42 H 0.97100 1.16710 0.44590
H43 H 0.95120 1.10030 0.34020
C44 C 0.3101(2) 0.91947(17) -0.07280(14)
H44 H 0.37770 0.90260 -0.10860
H45 H 0.28950 0.98830 -0.08480
H46 H 0.23600 0.86920 -0.09600
#END
