
#######################################################################
#
#                 Cambridge Crystallographic Data Centre
#                                CCDC
#
#######################################################################
#
# If this CIF has been generated from an entry in the Cambridge
# Structural Database, then it will include bibliographic, chemical,
# crystal, experimental, refinement or atomic coordinate data resulting
# from the CCDC's data processing and validation procedures.
#
#######################################################################

data_CSD_CIF_FOLHEV
_audit_creation_date 2014-06-10
_audit_creation_method CSD-ConQuest-V1
_database_code_CSD FOLHEV
_database_code_depnum_ccdc_archive 'CCDC 987003'
_chemical_formula_sum 'C18 H23 N1 O5'
_chemical_formula_moiety
;
C18 H23 N1 O5
;
_journal_coden_Cambridge 1336
_journal_volume 16
_journal_year 2014
_journal_page_first 2724
_journal_name_full 'Org.Lett. '
loop_
_publ_author_name
"Dai-Huei Jhuo"
"Bor-Cherng Hong"
"Chun-Wei Chang"
"Gene-Hsiang Lee"
_chemical_name_systematic
;
14-hydroxy-8-nitroestr-1-ene-3,17-dione
;
_cell_volume   1610.807
_exptl_crystal_colour 'colorless'
_exptl_crystal_density_diffrn 1.375
_exptl_special_details
;
Absolute configuration

;
_exptl_crystal_description 'block'
_diffrn_ambient_temperature 150
#These two values have been output from a single CSD field.
_refine_ls_R_factor_gt 0.0415
_refine_ls_wR_factor_gt 0.0415
_symmetry_cell_setting orthorhombic
_symmetry_space_group_name_H-M 'P 21 21 21'
_symmetry_Int_Tables_number 19
loop_
_symmetry_equiv_pos_site_id
_symmetry_equiv_pos_as_xyz
1 x,y,z
2 1/2-x,-y,1/2+z
3 -x,1/2+y,1/2-z
4 1/2+x,1/2-y,-z
_cell_length_a 8.9976(5)
_cell_length_b 10.8156(6)
_cell_length_c 16.5526(9)
_cell_angle_alpha 90
_cell_angle_beta 90
_cell_angle_gamma 90
_cell_formula_units_Z 4
loop_
_atom_type_symbol
_atom_type_radius_bond
C 0.68
H 0.23
N 0.68
O 0.68
loop_
_atom_site_label
_atom_site_type_symbol
_atom_site_fract_x
_atom_site_fract_y
_atom_site_fract_z
O1 O -0.42201(17) -0.22245(13) 0.40844(8)
O2 O 0.45689(16) 0.21983(15) 0.75866(10)
O3 O 0.04609(13) 0.26567(10) 0.75754(6)
H1 H -0.00640 0.24740 0.79780
O4 O -0.03260(16) 0.27250(12) 0.55113(8)
O5 O -0.19457(16) 0.29773(12) 0.64478(9)
N1 N -0.09409(17) 0.23992(13) 0.61363(9)
C1 C -0.3310(2) -0.16119(16) 0.44664(10)
C2 C -0.1750(2) -0.15765(18) 0.42404(10)
H2 H -0.14120 -0.20820 0.38090
C3 C -0.0781(2) -0.08509(18) 0.46246(10)
H3 H 0.02240 -0.08560 0.44480
C4 C -0.11870(18) -0.00301(16) 0.53178(9)
H4 H -0.14950 0.07830 0.50830
C5 C -0.25326(18) -0.05497(15) 0.57642(9)
H5 H -0.22280 -0.13470 0.60210
C6 C -0.3785(2) -0.08293(18) 0.51696(11)
H6 H -0.45960 -0.12590 0.54610
H7 H -0.41880 -0.00390 0.49620
C7 C 0.00956(17) 0.02362(15) 0.59169(9)
H8 H 0.02410 -0.05520 0.62230
C8 C 0.16081(19) 0.05200(18) 0.55368(11)
H9 H 0.19160 -0.01840 0.51930
H10 H 0.15210 0.12600 0.51880
C9 C 0.27885(19) 0.07484(18) 0.61797(12)
H11 H 0.37420 0.09470 0.59110
H12 H 0.29340 -0.00190 0.64960
C10 C 0.23807(19) 0.18118(16) 0.67632(10)
C11 C 0.3391(2) 0.16846(17) 0.75044(12)
C12 C 0.2669(2) 0.08475(18) 0.81123(12)
H13 H 0.25520 0.12760 0.86370
H14 H 0.32760 0.00950 0.81960
C13 C 0.1154(2) 0.05132(16) 0.77592(11)
H15 H 0.03840 0.04900 0.81860
H16 H 0.11890 -0.03010 0.74860
C14 C 0.08377(18) 0.15595(14) 0.71467(9)
C15 C -0.04303(18) 0.11869(14) 0.65514(9)
C16 C -0.17821(18) 0.06729(16) 0.69993(10)
H17 H -0.14760 -0.00650 0.73120
H18 H -0.21430 0.13020 0.73870
C17 C -0.30534(19) 0.03162(17) 0.64327(11)
H19 H -0.38480 -0.00930 0.67480
H20 H -0.34770 0.10740 0.61880
C18 C 0.2620(2) 0.30614(18) 0.63659(12)
H21 H 0.36870 0.32380 0.63370
H22 H 0.21250 0.37040 0.66850
H23 H 0.22030 0.30490 0.58190
#END
