
#######################################################################
#
#                 Cambridge Crystallographic Data Centre
#                                CCDC
#
#######################################################################
#
# If this CIF has been generated from an entry in the Cambridge
# Structural Database, then it will include bibliographic, chemical,
# crystal, experimental, refinement or atomic coordinate data resulting
# from the CCDC's data processing and validation procedures.
#
#######################################################################

data_CSD_CIF_FOLSAB
_audit_creation_date 2005-06-30
_audit_creation_method CSD-ConQuest-V1
_database_code_CSD FOLSAB
_database_code_depnum_ccdc_archive 'CCDC 254670'
_chemical_formula_sum 'C30 H49 N1 O4'
_chemical_formula_moiety
;
C30 H49 N1 O4
;
_journal_coden_Cambridge 1127
_journal_volume 15
_journal_year 2005
_journal_page_first 1005
_journal_name_full 'Bioorg.Med.Chem.Lett. '
loop_
_publ_author_name
"H.Parra-Delgado"
"T.Ramirez-Apan"
"M.Martinez-Vazquez"
_chemical_name_systematic
;
(16S,17R,20S,24R)-3-Oxime-20,24-epoxy-16,25-dihydroxycycloartan-3-one
;
_cell_volume   2852.721
_exptl_crystal_colour 'colorless'
_exptl_crystal_density_diffrn 1.136
_exptl_special_details
;
some activity against human HCT-15, K562, PC-3 and U251 cancer cell lines

;
_exptl_crystal_description 'irregular'
_diffrn_ambient_temperature 293
#These two values have been output from a single CSD field.
_refine_ls_R_factor_gt 0.0518
_refine_ls_wR_factor_gt 0.0518
_symmetry_cell_setting orthorhombic
_symmetry_space_group_name_H-M 'P 21 21 21'
_symmetry_Int_Tables_number 19
loop_
_symmetry_equiv_pos_site_id
_symmetry_equiv_pos_as_xyz
1 x,y,z
2 1/2-x,-y,1/2+z
3 -x,1/2+y,1/2-z
4 1/2+x,1/2-y,-z
_cell_length_a 27.458(2)
_cell_length_b 7.990(1)
_cell_length_c 13.003(1)
_cell_angle_alpha 90
_cell_angle_beta 90
_cell_angle_gamma 90
_cell_formula_units_Z 4
loop_
_atom_type_symbol
_atom_type_radius_bond
C 0.68
H 0.23
N 0.68
O 0.68
loop_
_atom_site_label
_atom_site_type_symbol
_atom_site_fract_x
_atom_site_fract_y
_atom_site_fract_z
N1 N 0.38527(15) 0.3778(7) 0.3932(4)
O1 O 0.83639(15) -0.1133(6) 0.7319(4)
H1 H 0.864(3) -0.12(1) 0.660(6)
O2 O 0.75750(12) 0.1255(6) 0.6945(4)
H2 H 0.765(2) 0.018(9) 0.709(5)
O3 O 0.73837(10) -0.2075(5) 0.7309(2)
O4 O 0.34568(14) 0.2621(6) 0.3960(4)
H3 H 0.316(3) 0.309(9) 0.369(5)
C1 C 0.46305(15) 0.1201(7) 0.5548(4)
H4 H 0.46710 0.00440 0.57270
H5 H 0.44810 0.17700 0.61170
C2 C 0.43028(17) 0.1364(7) 0.4606(4)
H6 H 0.39860 0.09120 0.47430
H7 H 0.44460 0.07160 0.40630
C3 C 0.42517(18) 0.3141(7) 0.4249(4)
C4 C 0.47124(18) 0.4191(7) 0.4162(4)
C5 C 0.50598(17) 0.3860(7) 0.5093(4)
H8 H 0.48930 0.42980 0.56830
C6 C 0.5540(2) 0.4785(7) 0.5063(5)
H9 H 0.54820 0.59670 0.50110
H10 H 0.57210 0.44430 0.44670
C7 C 0.5837(2) 0.4426(6) 0.6022(5)
H11 H 0.56440 0.46760 0.66190
H12 H 0.61190 0.51400 0.60340
C8 C 0.60006(15) 0.2603(6) 0.6076(4)
H13 H 0.62090 0.24480 0.54900
C9 C 0.55696(15) 0.1379(6) 0.5922(4)
C10 C 0.51181(15) 0.1998(6) 0.5339(4)
C11 C 0.54852(15) 0.0072(7) 0.6756(4)
H14 H 0.53100 -0.08460 0.64550
H15 H 0.52750 0.05760 0.72570
C12 C 0.59330(15) -0.0637(6) 0.7332(4)
H16 H 0.59610 -0.18090 0.71810
H17 H 0.58840 -0.05220 0.80600
C13 C 0.64113(14) 0.0236(6) 0.7058(3)
C14 C 0.63147(15) 0.2170(6) 0.7010(4)
C15 C 0.68372(16) 0.2880(6) 0.6963(4)
H18 H 0.68440 0.39770 0.72630
H19 H 0.69490 0.29560 0.62650
C16 C 0.71610(16) 0.1680(6) 0.7572(4)
H20 H 0.72700 0.22250 0.81890
C17 C 0.68301(15) 0.0158(6) 0.7864(4)
H21 H 0.66720 0.04970 0.84890
C18 C 0.65884(15) -0.0463(6) 0.6017(4)
H22 H 0.68850 0.00850 0.58220
H23 H 0.66460 -0.16430 0.60880
H24 H 0.63460 -0.02780 0.54970
C19 C 0.54859(17) 0.0890(7) 0.4804(4)
H25 H 0.53890 -0.02440 0.46710
H26 H 0.56900 0.13800 0.42860
C20 C 0.70895(15) -0.1480(6) 0.8151(3)
C21 C 0.67294(18) -0.2848(7) 0.8453(4)
H27 H 0.64980 -0.30160 0.79090
H28 H 0.69000 -0.38750 0.85820
H29 H 0.65620 -0.25030 0.90650
C22 C 0.74629(16) -0.1248(8) 0.9016(4)
H30 H 0.73070 -0.12790 0.96760
H31 H 0.76340 -0.02080 0.89420
C23 C 0.78162(19) -0.2677(9) 0.8861(4)
H32 H 0.77120 -0.36150 0.92680
H33 H 0.81450 -0.23970 0.90420
C24 C 0.77691(16) -0.3113(7) 0.7710(4)
H34 H 0.76690 -0.42570 0.76330
C25 C 0.8225(2) -0.2840(8) 0.7073(5)
C26 C 0.8126(2) -0.3040(11) 0.5976(5)
H35 H 0.78730 -0.22770 0.57770
H36 H 0.84100 -0.28430 0.55630
H37 H 0.80170 -0.41690 0.58770
C27 C 0.86297(18) -0.3995(10) 0.7414(6)
H38 H 0.89140 -0.38470 0.69940
H39 H 0.87080 -0.37470 0.81170
H40 H 0.85190 -0.51320 0.73620
C28 C 0.60689(18) 0.2817(7) 0.8011(4)
H41 H 0.60080 0.39980 0.79620
H42 H 0.57660 0.22360 0.81070
H43 H 0.62800 0.26010 0.85850
C29 C 0.4586(2) 0.6071(8) 0.4134(6)
H44 H 0.44360 0.63970 0.47690
H45 H 0.48790 0.67090 0.40330
H46 H 0.43660 0.62780 0.35750
C30 C 0.4959(2) 0.3712(11) 0.3138(4)
H47 H 0.47320 0.39400 0.25940
H48 H 0.52440 0.43910 0.30490
H49 H 0.50490 0.25510 0.31210
#END
