
#######################################################################
#
#                 Cambridge Crystallographic Data Centre
#                                CCDC
#
#######################################################################
#
# If this CIF has been generated from an entry in the Cambridge
# Structural Database, then it will include bibliographic, chemical,
# crystal, experimental, refinement or atomic coordinate data resulting
# from the CCDC's data processing and validation procedures.
#
#######################################################################

data_CSD_CIF_FOLTIK
_audit_creation_date 2005-06-30
_audit_creation_method CSD-ConQuest-V1
_database_code_CSD FOLTIK
_database_code_depnum_ccdc_archive 'CCDC 249972'
_chemical_formula_sum 'C10 H20 N8 O4'
_chemical_formula_moiety
;
C10 H20 N8 O4
;
_journal_coden_Cambridge 24
_journal_volume 46
_journal_year 2005
_journal_page_first 1889
_journal_name_full 'Tetrahedron Lett. '
loop_
_publ_author_name
"A.K.M.H.Sousa"
"J.R.Sousa"
"M.O.Santiago"
"E.Longhinotti"
"A.A.Batista"
"J.Ellena"
"E.E.Castellano"
"L.G.F.Lopes"
"I.S.Moreira"
_chemical_name_systematic
;
1,4,8,11-tetrakis(Nitroso)-1,4,8,11-tetraazacyclotetradecane
;
_cell_volume    725.286
_exptl_crystal_colour 'colorless'
_exptl_crystal_density_diffrn 1.449
_exptl_crystal_description 'prism'
_exptl_crystal_preparation 'water'
_diffrn_ambient_temperature 120
#These two values have been output from a single CSD field.
_refine_ls_R_factor_gt 0.0418
_refine_ls_wR_factor_gt 0.0418
_symmetry_cell_setting monoclinic
_symmetry_space_group_name_H-M 'P 21/c'
_symmetry_Int_Tables_number 14
loop_
_symmetry_equiv_pos_site_id
_symmetry_equiv_pos_as_xyz
1 x,y,z
2 -x,1/2+y,1/2-z
3 -x,-y,-z
4 x,-1/2-y,-1/2+z
_cell_length_a 9.0624(4)
_cell_length_b 7.4402(4)
_cell_length_c 11.4115(7)
_cell_angle_alpha 90
_cell_angle_beta 109.503(2)
_cell_angle_gamma 90
_cell_formula_units_Z 2
loop_
_atom_type_symbol
_atom_type_radius_bond
C 0.68
H 0.23
N 0.68
O 0.68
loop_
_atom_site_label
_atom_site_type_symbol
_atom_site_fract_x
_atom_site_fract_y
_atom_site_fract_z
O1 O 0.35237(13) 0.75482(16) 0.36859(11)
N1 N 0.21169(15) 0.71259(19) 0.32304(12)
N2 N 0.29195(15) 0.2606(2) 0.21410(13)
N3 N 0.30076(14) 0.35343(18) 0.11805(12)
C1 C -0.00153(17) 0.6258(2) 0.14773(15)
H1 H -0.04490 0.59630 0.21430
H2 H -0.01140 0.51780 0.09490
O2 O 0.24220(13) 0.10447(15) 0.18962(11)
N4 N 0.16421(14) 0.67336(18) 0.20360(11)
C2 C 0.37919(17) 0.5275(2) 0.15080(15)
H3 H 0.44930 0.54530 0.10130
H4 H 0.44510 0.52530 0.23960
C3 C 0.26801(18) 0.2689(2) -0.00433(15)
H5 H 0.33150 0.15810 0.00580
H6 H 0.30160 0.35170 -0.05850
C4 C 0.26751(18) 0.6855(2) 0.12895(15)
H7 H 0.32870 0.79830 0.14980
H8 H 0.20310 0.69020 0.03980
C5 C -0.09518(18) 0.7793(2) 0.06929(16)
H9 H -0.04790 0.81260 0.00570
H10 H -0.08860 0.88530 0.12320
O1B O -0.35237(13) 0.24518(16) -0.36859(11)
N1B N -0.21169(15) 0.28741(19) -0.32304(12)
N2B N -0.29195(15) 0.7394(2) -0.21410(13)
N3B N -0.30076(14) 0.64657(18) -0.11805(12)
C1B C 0.00153(17) 0.3742(2) -0.14773(15)
H1B H 0.04490 0.40370 -0.21430
H2B H 0.01140 0.48220 -0.09490
O2B O -0.24220(13) 0.89553(15) -0.18962(11)
N4B N -0.16421(14) 0.32664(18) -0.20360(11)
C2B C -0.37919(17) 0.4725(2) -0.15080(15)
H3B H -0.44930 0.45470 -0.10130
H4B H -0.44510 0.47470 -0.23960
C3B C -0.26801(18) 0.7311(2) 0.00433(15)
H5B H -0.33150 0.84190 -0.00580
H6B H -0.30160 0.64830 0.05850
C4B C -0.26751(18) 0.3145(2) -0.12895(15)
H7B H -0.32870 0.20170 -0.14980
H8B H -0.20310 0.30980 -0.03980
C5B C 0.09518(18) 0.2207(2) -0.06929(16)
H9B H 0.04790 0.18740 -0.00570
H10B H 0.08860 0.11470 -0.12320
#END
