
#######################################################################
#
#                 Cambridge Crystallographic Data Centre
#                                CCDC
#
#######################################################################
#
# If this CIF has been generated from an entry in the Cambridge
# Structural Database, then it will include bibliographic, chemical,
# crystal, experimental, refinement or atomic coordinate data resulting
# from the CCDC's data processing and validation procedures.
#
#######################################################################

data_CSD_CIF_FOLWOU
_audit_creation_date 2014-06-10
_audit_creation_method CSD-ConQuest-V1
_database_code_CSD FOLWOU
_database_code_depnum_ccdc_archive 'CCDC 990401'
_chemical_formula_sum 'C23 H27 N1 O8'
_chemical_formula_moiety
;
C23 H27 N1 O8
;
_journal_coden_Cambridge 1088
_journal_volume 25
_journal_year 2014
_journal_page_first 1438
_journal_name_full 'Synlett '
loop_
_publ_author_name
"M.Minuth"
"Wolfgang Frey"
"C.Richert"
_chemical_name_systematic
;
5-(4-(1,3-Dioxan-2-yl)-3-(2-(4-nitrophenyl)ethoxy)phenyl)-2-(hydroxymethyl)tet
rahydrofuran-3-ol
;
_cell_volume   4298.837
_exptl_crystal_colour 'colorless'
_exptl_crystal_density_diffrn 1.377
_exptl_special_details
;
Absolute configuration

;
_exptl_crystal_description 'plate'
_diffrn_ambient_temperature 100
#These two values have been output from a single CSD field.
_refine_ls_R_factor_gt 0.0283
_refine_ls_wR_factor_gt 0.0283
_symmetry_cell_setting orthorhombic
_symmetry_space_group_name_H-M 'P 21 21 21'
_symmetry_Int_Tables_number 19
loop_
_symmetry_equiv_pos_site_id
_symmetry_equiv_pos_as_xyz
1 x,y,z
2 1/2+x,1/2-y,-z
3 -x,1/2+y,1/2-z
4 1/2-x,-y,1/2+z
_cell_length_a 9.5072(3)
_cell_length_b 9.5696(3)
_cell_length_c 47.2503(17)
_cell_angle_alpha 90
_cell_angle_beta 90
_cell_angle_gamma 90
_cell_formula_units_Z 8
loop_
_atom_type_symbol
_atom_type_radius_bond
C 0.68
H 0.23
N 0.68
O 0.68
loop_
_atom_site_label
_atom_site_type_symbol
_atom_site_fract_x
_atom_site_fract_y
_atom_site_fract_z
O1 O 0.91529(10) 0.33985(11) 0.96102(2)
N1 N 0.83875(16) 0.51576(16) 0.74509(3)
C1 C 0.79233(16) 0.42048(16) 0.95496(3)
H1 H 0.75390 0.45940 0.97300
O2 O 0.61831(11) 0.14390(11) 0.98034(2)
H2 H 0.61240 0.20720 0.99260
C2 C 0.68975(16) 0.31261(17) 0.94323(3)
H3 H 0.70540 0.29750 0.92270
H4 H 0.59120 0.34240 0.94630
O3 O 1.09645(12) 0.13096(13) 0.98478(2)
H5 H 1.16120 0.07660 0.97970
C3 C 0.72273(15) 0.18054(16) 0.96007(3)
H6 H 0.73490 0.10100 0.94660
O4 O 1.04936(11) 0.62285(11) 0.87331(2)
C4 C 0.86566(16) 0.21331(15) 0.97380(3)
H7 H 0.85210 0.22880 0.99450
O5 O 0.90495(18) 1.00372(12) 0.89349(3)
C5 C 0.97197(16) 0.09946(17) 0.96940(3)
H8 H 0.93290 0.00920 0.97590
H9 H 0.99420 0.09100 0.94900
O6 O 0.83079(15) 0.87353(15) 0.85503(3)
C6 C 0.82701(15) 0.53888(16) 0.93521(3)
C7 C 0.92800(15) 0.52248(15) 0.91399(3)
H10 H 0.97830 0.43710 0.91240
O7 O 0.80038(17) 0.62940(14) 0.73613(3)
C8 C 0.95478(15) 0.63132(16) 0.89524(3)
O8 O 0.80320(19) 0.40539(15) 0.73435(3)
C9 C 0.88496(16) 0.75955(16) 0.89792(3)
C10 C 0.78406(16) 0.77370(15) 0.91909(3)
H11 H 0.73460 0.85950 0.92090
C11 C 0.75462(15) 0.66502(16) 0.93749(3)
H12 H 0.68490 0.67640 0.95170
C12 C 0.91958(16) 0.87908(16) 0.87856(3)
H13 H 1.01930 0.86970 0.87210
C13 C 0.9462(3) 1.12036(19) 0.87607(5)
H14 H 1.04700 1.11210 0.87110
H15 H 0.93280 1.20860 0.88670
C14 C 0.8591(2) 1.1229(2) 0.84954(6)
H16 H 0.76000 1.14470 0.85430
H17 H 0.89450 1.19630 0.83660
C15 C 0.8675(3) 0.9830(3) 0.83537(5)
H18 H 0.80240 0.98070 0.81900
H19 H 0.96410 0.96750 0.82820
C16 C 1.11726(16) 0.49080(15) 0.86869(3)
H20 H 1.04630 0.41580 0.86670
H21 H 1.17910 0.46770 0.88490
C17 C 1.20348(16) 0.50401(17) 0.84169(3)
H22 H 1.26140 0.58990 0.84260
H23 H 1.26790 0.42310 0.84010
C18 C 1.11107(15) 0.50992(16) 0.81582(3)
C19 C 1.06154(16) 0.63569(17) 0.80502(3)
H24 H 1.08990 0.72090 0.81360
C20 C 0.97154(17) 0.63904(17) 0.78198(3)
H25 H 0.93830 0.72530 0.77460
C21 C 0.93139(16) 0.51344(17) 0.76994(3)
C22 C 0.97704(18) 0.38602(17) 0.78012(3)
H26 H 0.94670 0.30110 0.77170
C23 C 1.06842(17) 0.38555(17) 0.80300(3)
H27 H 1.10260 0.29900 0.81010
O9 O 0.23586(11) 0.57780(11) 0.96966(2)
N2 N 0.29975(17) 0.53496(17) 0.74133(3)
C24 C 0.34018(15) 0.60332(17) 0.94850(3)
H28 H 0.43210 0.62360 0.95790
O10 O 0.27520(11) 0.94291(10) 0.96441(2)
H29 H 0.35780 0.92610 0.96970
C25 C 0.28906(18) 0.73464(16) 0.93336(3)
H30 H 0.22640 0.71040 0.91740
H31 H 0.36940 0.78980 0.92610
O11 O 0.04156(11) 0.62105(11) 1.01805(2)
H32 H 0.07040 0.53950 1.01490
C26 C 0.20891(16) 0.81610(16) 0.95611(3)
H33 H 0.11250 0.83780 0.94890
O12 O 0.55326(11) 0.39279(11) 0.86438(2)
C27 C 0.19654(15) 0.71083(15) 0.98068(3)
H34 H 0.26350 0.73790 0.99600
O13 O 0.38173(15) 0.01040(12) 0.88370(2)
C28 C 0.05053(16) 0.70126(15) 0.99272(3)
H35 H 0.01590 0.79690 0.99660
H36 H -0.01220 0.65920 0.97830
O14 O 0.35114(13) 0.16480(12) 0.84648(2)
C29 C 0.35690(15) 0.47786(16) 0.92962(3)
C30 C 0.44656(15) 0.49362(16) 0.90629(3)
H37 H 0.49350 0.58000 0.90330
O15 O 0.23774(18) 0.42747(17) 0.73510(3)
C31 C 0.46700(15) 0.38439(16) 0.88766(3)
O16 O 0.28275(18) 0.64443(16) 0.72877(3)
C32 C 0.39963(16) 0.25522(16) 0.89211(3)
C33 C 0.31283(16) 0.24142(16) 0.91559(3)
H38 H 0.26790 0.15440 0.91900
C34 C 0.28987(15) 0.35169(16) 0.93425(3)
H39 H 0.22880 0.34040 0.95000
C35 C 0.42508(16) 0.13703(16) 0.87180(3)
H40 H 0.52800 0.13170 0.86750
C36 C 0.4141(3) -0.10366(18) 0.86500(4)
H41 H 0.38170 -0.19250 0.87350
H42 H 0.51720 -0.10960 0.86230
C37 C 0.3433(2) -0.08269(18) 0.83683(4)
H43 H 0.24000 -0.08920 0.83910
H44 H 0.37390 -0.15600 0.82340
C38 C 0.3830(2) 0.05991(18) 0.82561(4)
H45 H 0.48470 0.06210 0.82110
H46 H 0.33010 0.07940 0.80800
C39 C 0.62698(16) 0.52253(17) 0.86040(3)
H47 H 0.69620 0.53650 0.87580
H48 H 0.55990 0.60160 0.86060
C40 C 0.70155(17) 0.51544(18) 0.83198(3)
H49 H 0.76760 0.59500 0.83030
H50 H 0.75700 0.42800 0.83090
C41 C 0.59847(16) 0.51990(17) 0.80772(3)
C42 C 0.52599(19) 0.40061(18) 0.79942(3)
H51 H 0.54500 0.31440 0.80860
C43 C 0.4267(2) 0.40498(19) 0.77800(3)
H52 H 0.37740 0.32300 0.77250
C44 C 0.40101(18) 0.53081(18) 0.76487(3)
C45 C 0.46904(19) 0.65185(18) 0.77267(4)
H53 H 0.44860 0.73780 0.76350
C46 C 0.56777(18) 0.64562(18) 0.79414(4)
H54 H 0.61550 0.72840 0.79970
#END
