
#######################################################################
#
#                 Cambridge Crystallographic Data Centre
#                                CCDC
#
#######################################################################
#
# If this CIF has been generated from an entry in the Cambridge
# Structural Database, then it will include bibliographic, chemical,
# crystal, experimental, refinement or atomic coordinate data resulting
# from the CCDC's data processing and validation procedures.
#
#######################################################################

data_CSD_CIF_FOMCIT
_audit_creation_date 1988-04-26
_audit_creation_method CSD-ConQuest-V1
_database_code_CSD FOMCIT
_database_code_depnum_ccdc_archive 'CCDC 1158954'
_chemical_formula_sum 'C11 H13 N3 O1'
_chemical_formula_moiety
;
C11 H13 N3 O1
;
_journal_coden_Cambridge 34
_journal_volume 23
_journal_year 1986
_journal_page_first 1861
_journal_name_full 'J.Heterocycl.Chem. '
loop_
_publ_author_name
"J.E.Johnson"
"J.A.Maia"
"K.Tan"
"A.Ghafouripour"
"P.de Meester"
"S.S.C.Chu"
_chemical_name_systematic
;
3-Phenyl-5,6-dihydro-2(1H)-pyrazinone-O-methyloxime
;
_chemical_melting_point 365.65
_cell_volume   4410.491
_exptl_crystal_colour 'colorless'
_exptl_crystal_density_diffrn 1.224
_exptl_special_details
;
Melting point range 365.65-367.65K

;
_diffrn_ambient_temperature ?
_diffrn_special_details
;
The study was carried out at room temperature,in the range 283-303K

;
#These two values have been output from a single CSD field.
_refine_ls_R_factor_gt 0.038
_refine_ls_wR_factor_gt 0.038
_symmetry_cell_setting orthorhombic
_symmetry_space_group_name_H-M 'P b c a'
_symmetry_Int_Tables_number 61
loop_
_symmetry_equiv_pos_site_id
_symmetry_equiv_pos_as_xyz
1 x,y,z
2 1/2-x,-y,1/2+z
3 1/2+x,1/2-y,-z
4 -x,1/2+y,1/2-z
5 -x,-y,-z
6 -1/2+x,y,-1/2-z
7 -1/2-x,-1/2+y,z
8 x,-1/2-y,-1/2+z
_cell_length_a 10.264(3)
_cell_length_b 18.262(4)
_cell_length_c 23.530(4)
_cell_angle_alpha 90
_cell_angle_beta 90
_cell_angle_gamma 90
_cell_formula_units_Z 16
loop_
_atom_type_symbol
_atom_type_radius_bond
C 0.68
H 0.23
N 0.68
O 0.68
loop_
_atom_site_label
_atom_site_type_symbol
_atom_site_fract_x
_atom_site_fract_y
_atom_site_fract_z
N1 N 0.7199(2) 0.1111(1) 0.2786(1)
C1 C 0.7881(3) 0.0705(2) 0.2338(1)
C2 C 0.9155(3) 0.0410(2) 0.2555(1)
N2 N 0.8875(2) -0.0052(1) 0.3040(1)
C3 C 0.7902(3) 0.0121(2) 0.3395(1)
C4 C 0.7223(3) 0.0829(1) 0.3287(1)
C5 C 0.6545(3) 0.1227(1) 0.3751(1)
C6 C 0.6999(3) 0.1210(2) 0.4309(1)
C7 C 0.6345(4) 0.1599(2) 0.4731(1)
C8 C 0.5242(3) 0.1988(2) 0.4602(1)
C9 C 0.4782(3) 0.2006(2) 0.4056(1)
C10 C 0.5438(3) 0.1637(2) 0.3632(1)
N3 N 0.7457(2) -0.0281(1) 0.3804(1)
O1 O 0.8175(2) -0.0952(1) 0.3801(1)
C11 C 0.7568(4) -0.1447(2) 0.4186(1)
H1 H 0.732(2) 0.032(1) 0.222(1)
H2 H 0.805(3) 0.106(2) 0.201(1)
H3 H 0.975(2) 0.082(1) 0.267(1)
H4 H 0.963(2) 0.009(1) 0.226(1)
H5 H 0.938(2) -0.043(1) 0.313(1)
H6 H 0.781(2) 0.093(1) 0.441(1)
H7 H 0.665(2) 0.158(1) 0.509(1)
H8 H 0.483(21) 0.229(1) 0.490(1)
H9 H 0.397(3) 0.229(2) 0.394(1)
H10 H 0.511(2) 0.166(1) 0.323(1)
H11 H 0.794(3) -0.191(2) 0.411(1)
H12 H 0.652(4) -0.147(2) 0.410(2)
H13 H 0.775(4) -0.128(2) 0.457(2)
N4 N 0.4018(2) 0.1175(1) 0.8029(1)
C12 C 0.4464(3) 0.1684(2) 0.7590(1)
C13 C 0.3364(4) 0.2058(2) 0.7287(1)
N5 N 0.2553(2) 0.2401(1) 0.7711(1)
C14 C 0.2283(2) 0.2047(1) 0.8197(1)
C15 C 0.2990(3) 0.1352(1) 0.8305(1)
C16 C 0.2545(3) 0.0846(1) 0.8758(1)
C17 C 0.1241(3) 0.0663(2) 0.8825(1)
C18 C 0.0859(3) 0.0150(2) 0.9224(1)
C19 C 0.1770(4) -0.0171(2) 0.9570(2)
C20 C 0.3058(4) 0.0015(2) 0.9517(1)
C21 C 0.3447(3) 0.0515(2) 0.9109(1)
N6 N 0.1546(2) 0.2282(1) 0.8604(1)
O2 O 0.1048(2) 0.2981(1) 0.8436(1)
C22 C 0.0378(4) 0.3283(2) 0.8908(2)
H14 H 0.510(4) 0.202(2) 0.776(2)
H15 H 0.493(3) 0.142(1) 0.733(1)
H16 H 0.287(3) 0.167(2) 0.706(1)
H17 H 0.367(2) 0.244(1) 0.705(1)
H18 H 0.214(2) 0.281(1) 0.765(1)
H19 H 0.058(2) 0.090(1) 0.860(1)
H20 H -0.003(3) 0.004(2) 0.924(1)
H21 H 0.148(3) -0.054(2) 0.985(1)
H22 H 0.371(2) -0.018(1) 0.976(1)
H23 H 0.435(2) 0.063(1) 0.908(1)
H24 H 0.021(3) 0.376(2) 0.878(1)
H25 H 0.098(3) 0.330(2) 0.924(1)
H26 H 0.000(5) 0.303(3) 0.898(2)
#END
