
#######################################################################
#
#                 Cambridge Crystallographic Data Centre
#                                CCDC
#
#######################################################################
#
# If this CIF has been generated from an entry in the Cambridge
# Structural Database, then it will include bibliographic, chemical,
# crystal, experimental, refinement or atomic coordinate data resulting
# from the CCDC's data processing and validation procedures.
#
#######################################################################

data_CSD_CIF_FOMNEB02
_audit_creation_date 2005-06-30
_audit_creation_method CSD-ConQuest-V1
_database_code_CSD FOMNEB02
_database_code_depnum_ccdc_archive 'CCDC 274175'
_chemical_formula_sum 'C18 H17 N1 O4'
_chemical_formula_moiety
;
C18 H17 N1 O4
;
_journal_coeditor_code "IUCr WS5022"
_journal_coden_Cambridge 622
_journal_volume 61
_journal_year 2005
_journal_page_first 321
_journal_name_full 'Acta Crystallogr.,Sect.B:Struct.Sci. '
loop_
_publ_author_name
"J.M.S.Skakle"
"J.N.Low"
"J.L.Wardell"
"C.Glidewell"
_chemical_name_systematic
;
(E)-(1-(4-methoxyphenyl)-3-phenyl-2-propenylideneamino)oxyacetic acid
;
_chemical_melting_point 413
_cell_volume   1657.429
_exptl_crystal_colour 'colorless'
_exptl_crystal_density_diffrn 1.248
_exptl_special_details
;
polymorph II

;
_exptl_crystal_description 'plate'
_exptl_crystal_preparation 'ethanol'
_diffrn_ambient_temperature 291
#These two values have been output from a single CSD field.
_refine_ls_R_factor_gt 0.049
_refine_ls_wR_factor_gt 0.049
_symmetry_cell_setting monoclinic
_symmetry_space_group_name_H-M 'P 21/c'
_symmetry_Int_Tables_number 14
loop_
_symmetry_equiv_pos_site_id
_symmetry_equiv_pos_as_xyz
1 x,y,z
2 -x,1/2+y,1/2-z
3 -x,-y,-z
4 x,-1/2-y,-1/2+z
_cell_length_a 6.4238(3)
_cell_length_b 15.1513(9)
_cell_length_c 17.0552(9)
_cell_angle_alpha 90
_cell_angle_beta 93.167(2)
_cell_angle_gamma 90
_cell_formula_units_Z 4
loop_
_atom_type_symbol
_atom_type_radius_bond
C 0.68
H 0.23
N 0.68
O 0.68
loop_
_atom_site_label
_atom_site_type_symbol
_atom_site_fract_x
_atom_site_fract_y
_atom_site_fract_z
O1 O 0.6749(2) 0.57149(10) 0.44883(8)
O2 O 0.35075(19) 0.5246(1) 0.42022(8)
O3 O 0.35183(19) 0.60586(8) 0.27465(8)
O4 O -0.7423(2) 0.88371(10) 0.12369(9)
N1 N 0.3106(2) 0.52168(9) 0.24115(9)
C1 C 0.5087(3) 0.56167(12) 0.40199(11)
C2 C 0.5374(3) 0.60012(13) 0.32253(12)
C3 C 0.1331(3) 0.52079(11) 0.20183(10)
C4 C -0.0105(3) 0.59500(11) 0.19403(11)
C5 C -0.1774(3) 0.59977(12) 0.14494(11)
C6 C 0.0793(3) 0.43272(12) 0.16713(11)
C7 C -0.1032(3) 0.39073(13) 0.18608(13)
C8 C -0.1463(4) 0.30646(15) 0.15944(16)
C9 C -0.0131(5) 0.26365(17) 0.11396(15)
C10 C 0.1652(5) 0.30432(17) 0.09294(14)
C11 C 0.2143(4) 0.38905(14) 0.12045(13)
C12 C -0.3237(3) 0.67349(11) 0.13728(10)
C13 C -0.2960(3) 0.75123(12) 0.18074(11)
C14 C -0.4369(3) 0.81881(12) 0.17438(12)
C15 C -0.6123(3) 0.81232(13) 0.12425(11)
C16 C -0.9292(3) 0.88148(17) 0.07492(15)
C17 C -0.6452(3) 0.73650(14) 0.08002(12)
C18 C -0.4998(3) 0.66828(13) 0.08728(11)
H1 H 0.66090 0.54350 0.48940
H2 H 0.59640 0.65880 0.32890
H3 H 0.63680 0.56420 0.29600
H4 H -0.19690 0.41960 0.21690
H5 H -0.26840 0.27870 0.17290
H6 H -0.04300 0.20650 0.09700
H7 H 0.25420 0.27550 0.06020
H8 H 0.33780 0.41590 0.10730
H9 H 0.01750 0.64340 0.22640
H10 H -0.20400 0.55150 0.11220
H11 H -0.17880 0.75710 0.21480
H12 H -0.41430 0.86970 0.20420
H13 H -0.89530 0.88110 0.02080
H14 H -1.01180 0.93260 0.08500
H15 H -1.00660 0.82920 0.08610
H16 H -0.76260 0.73120 0.04590
H17 H -0.52230 0.61750 0.05740
#END
