
#######################################################################
#
#                 Cambridge Crystallographic Data Centre
#                                CCDC
#
#######################################################################
#
# If this CIF has been generated from an entry in the Cambridge
# Structural Database, then it will include bibliographic, chemical,
# crystal, experimental, refinement or atomic coordinate data resulting
# from the CCDC's data processing and validation procedures.
#
#######################################################################

data_CSD_CIF_FOMNEB03
_audit_creation_date 2005-06-30
_audit_creation_method CSD-ConQuest-V1
_database_code_CSD FOMNEB03
_database_code_depnum_ccdc_archive 'CCDC 274176'
_chemical_formula_sum 'C18 H17 N1 O4'
_chemical_formula_moiety
;
C18 H17 N1 O4
;
_journal_coeditor_code "IUCr WS5022"
_journal_coden_Cambridge 622
_journal_volume 61
_journal_year 2005
_journal_page_first 321
_journal_name_full 'Acta Crystallogr.,Sect.B:Struct.Sci. '
loop_
_publ_author_name
"J.M.S.Skakle"
"J.N.Low"
"J.L.Wardell"
"C.Glidewell"
_chemical_name_systematic
;
(E)-(1-(4-methoxyphenyl)-3-phenyl-2-propenylideneamino)oxyacetic acid
;
_cell_volume   3188.018
_exptl_crystal_colour 'colorless'
_exptl_crystal_density_diffrn 1.297
_exptl_special_details
;
polymorph III
reversible phase transition at about 173 K to polymorph I

;
_exptl_crystal_description 'lath'
_diffrn_ambient_temperature 120
#These two values have been output from a single CSD field.
_refine_ls_R_factor_gt 0.048
_refine_ls_wR_factor_gt 0.048
_symmetry_cell_setting monoclinic
_symmetry_space_group_name_H-M 'P 21/n'
_symmetry_Int_Tables_number 14
loop_
_symmetry_equiv_pos_site_id
_symmetry_equiv_pos_as_xyz
1 x,y,z
2 1/2-x,1/2+y,1/2-z
3 -x,-y,-z
4 -1/2+x,-1/2-y,-1/2+z
_cell_length_a 12.1552(4)
_cell_length_b 15.8657(4)
_cell_length_c 16.6708(5)
_cell_angle_alpha 90
_cell_angle_beta 97.4250(15)
_cell_angle_gamma 90
_cell_formula_units_Z 8
loop_
_atom_type_symbol
_atom_type_radius_bond
C 0.68
H 0.23
N 0.68
O 0.68
loop_
_atom_site_label
_atom_site_type_symbol
_atom_site_fract_x
_atom_site_fract_y
_atom_site_fract_z
O1 O 0.60212(10) 0.56379(9) 0.28717(7)
O2 O 0.42927(11) 0.52190(8) 0.29603(7)
O3 O 0.43379(10) 0.58474(7) 0.44360(7)
O4 O -0.11867(10) 0.29543(7) 0.59410(7)
N1 N 0.42907(12) 0.64910(9) 0.50237(8)
C1 C 0.51295(14) 0.55789(11) 0.32369(10)
C2 C 0.52739(15) 0.60170(12) 0.40365(11)
C3 C 0.34766(14) 0.63659(10) 0.54340(9)
C4 C 0.26956(14) 0.56694(10) 0.53505(9)
C5 C 0.19449(14) 0.55516(10) 0.58655(10)
C6 C 0.33781(14) 0.70341(10) 0.60582(9)
C7 C 0.25273(17) 0.76212(12) 0.59476(11)
C8 C 0.24311(18) 0.82324(12) 0.65273(11)
C9 C 0.31780(16) 0.82537(11) 0.72226(11)
C10 C 0.40130(15) 0.76687(12) 0.73392(11)
C11 C 0.41229(14) 0.70639(12) 0.6757(1)
C12 C 0.11332(14) 0.48772(10) 0.58652(9)
C13 C 0.11024(14) 0.41659(10) 0.53648(9)
C14 C 0.03236(14) 0.35489(10) 0.54017(10)
C15 C -0.04624(14) 0.3619(1) 0.59366(9)
C16 C -0.19932(15) 0.29812(13) 0.64951(11)
C17 C -0.04615(14) 0.4318(1) 0.64316(10)
C18 C 0.03363(14) 0.49315(10) 0.63944(10)
O5 O 0.40174(10) 0.43730(8) 0.15846(7)
O6 O 0.57373(10) 0.48298(8) 0.14661(7)
O7 O 0.56570(9) 0.41308(7) -0.00042(7)
O8 O 1.13190(9) 0.69604(7) -0.09055(7)
N2 N 0.58213(11) 0.33839(8) -0.04476(8)
C19 C 0.48979(14) 0.44498(10) 0.1204(1)
C20 C 0.47239(14) 0.39976(10) 0.04122(10)
C21 C 0.67422(13) 0.34212(10) -0.07630(9)
C22 C 0.75050(13) 0.41265(10) -0.06827(9)
C23 C 0.83773(13) 0.42128(10) -0.10911(9)
C24 C 0.69586(13) 0.26371(10) -0.12096(9)
C25 C 0.78964(14) 0.21562(10) -0.09741(10)
C26 C 0.80524(14) 0.13922(10) -0.13449(10)
C27 C 0.72783(15) 0.11144(11) -0.19686(10)
C28 C 0.63508(15) 0.15915(11) -0.22151(10)
C29 C 0.61770(14) 0.23510(11) -0.1834(1)
C30 C 0.91380(13) 0.49278(10) -0.10393(9)
C31 C 0.89385(13) 0.56883(10) -0.06499(9)
C32 C 0.96769(14) 0.63421(10) -0.06110(9)
C33 C 1.06506(13) 0.62654(10) -0.09646(9)
C34 C 1.22717(15) 0.69469(12) -0.13253(11)
C35 C 1.08826(13) 0.55199(10) -0.13456(9)
C36 C 1.01226(13) 0.48678(10) -0.13817(9)
H1 H 0.59110 0.53900 0.24230
H2 H 0.59560 0.58140 0.43690
H3 H 0.53460 0.66320 0.39570
H4 H 0.20070 0.76040 0.54710
H5 H 0.18510 0.86360 0.64460
H6 H 0.31150 0.86730 0.76210
H7 H 0.45200 0.76790 0.78230
H8 H 0.47130 0.66680 0.68380
H9 H 0.27160 0.52830 0.49170
H10 H 0.19440 0.59600 0.62820
H11 H 0.16300 0.41110 0.49940
H12 H 0.03190 0.30690 0.50600
H13 H -0.24550 0.34850 0.63900
H14 H -0.16140 0.29990 0.70510
H15 H -0.24620 0.24770 0.64240
H16 H -0.10020 0.43760 0.67920
H17 H 0.03420 0.54070 0.67410
H18 H 0.41220 0.46370 0.20240
H19 H 0.46280 0.33870 0.05040
H20 H 0.40450 0.42110 0.00830
H21 H 0.84380 0.23530 -0.05540
H22 H 0.86890 0.10600 -0.11710
H23 H 0.73860 0.05930 -0.22280
H24 H 0.58250 0.14010 -0.26490
H25 H 0.55280 0.26730 -0.19990
H26 H 0.73770 0.45600 -0.03130
H27 H 0.85130 0.37680 -0.14470
H28 H 0.82760 0.57490 -0.04090
H29 H 0.95260 0.68490 -0.03430
H30 H 1.27560 0.64790 -0.11240
H31 H 1.26760 0.74800 -0.12340
H32 H 1.20360 0.68730 -0.19060
H33 H 1.15520 0.54590 -0.15770
H34 H 1.02770 0.43610 -0.16490
#END
