
#######################################################################
#
#                 Cambridge Crystallographic Data Centre
#                                CCDC
#
#######################################################################
#
# If this CIF has been generated from an entry in the Cambridge
# Structural Database, then it will include bibliographic, chemical,
# crystal, experimental, refinement or atomic coordinate data resulting
# from the CCDC's data processing and validation procedures.
#
#######################################################################

data_CSD_CIF_FOMNEB
_audit_creation_date 2005-06-29
_audit_creation_method CSD-ConQuest-V1
_database_code_CSD FOMNEB
_database_code_depnum_ccdc_archive 'CCDC 274173'
_chemical_formula_sum 'C18 H17 N1 O4'
_chemical_formula_moiety
;
C18 H17 N1 O4
;
_journal_coeditor_code "IUCr WS5022"
_journal_coden_Cambridge 622
_journal_volume 61
_journal_year 2005
_journal_page_first 321
_journal_name_full 'Acta Crystallogr.,Sect.B:Struct.Sci. '
loop_
_publ_author_name
"J.M.S.Skakle"
"J.N.Low"
"J.L.Wardell"
"C.Glidewell"
_chemical_name_systematic
;
(E)-(1-(4-methoxyphenyl)-3-phenyl-2-propenylideneamino)oxyacetic acid
;
_chemical_melting_point 393
_cell_volume   1649.472
_exptl_crystal_colour 'colorless'
_exptl_crystal_density_diffrn 1.254
_exptl_special_details
;
polymorph I
reversible phase transition at about 173 K to polymorph III

;
_exptl_crystal_description 'plate'
_exptl_crystal_preparation 'ethanol'
_diffrn_ambient_temperature 291
#These two values have been output from a single CSD field.
_refine_ls_R_factor_gt 0.0561
_refine_ls_wR_factor_gt 0.0561
_symmetry_cell_setting monoclinic
_symmetry_space_group_name_H-M 'P 21/c'
_symmetry_Int_Tables_number 14
loop_
_symmetry_equiv_pos_site_id
_symmetry_equiv_pos_as_xyz
1 x,y,z
2 -x,1/2+y,1/2-z
3 -x,-y,-z
4 x,-1/2-y,-1/2+z
_cell_length_a 8.5153(7)
_cell_length_b 16.0591(13)
_cell_length_c 12.1476(10)
_cell_angle_alpha 90
_cell_angle_beta 96.801(2)
_cell_angle_gamma 90
_cell_formula_units_Z 4
loop_
_atom_type_symbol
_atom_type_radius_bond
C 0.68
H 0.23
N 0.68
O 0.68
loop_
_atom_site_label
_atom_site_type_symbol
_atom_site_fract_x
_atom_site_fract_y
_atom_site_fract_z
C1 C 0.2993(4) 0.44487(15) 0.4914(2)
O1 O 0.3503(2) 0.48398(12) 0.57345(16)
O2 O 0.3735(2) 0.43644(12) 0.40495(14)
C2 C -0.2197(2) 0.28337(14) 0.68035(19)
C3 C -0.1911(3) 0.22962(15) 0.7691(2)
C4 C -0.2876(4) 0.16258(18) 0.7787(3)
C5 C -0.4145(4) 0.1500(2) 0.7009(4)
C6 C -0.4436(4) 0.2016(3) 0.6141(3)
C7 C -0.3468(3) 0.2687(2) 0.6026(2)
C8 C 0.1439(4) 0.40161(15) 0.4777(2)
O3 O 0.0657(2) 0.41549(9) 0.57237(13)
N1 N -0.0365(2) 0.3468(1) 0.58148(15)
C9 C -0.1124(2) 0.35421(13) 0.66720(17)
C10 C -0.0998(2) 0.42388(12) 0.74340(16)
C11 C -0.1928(2) 0.43479(13) 0.82325(17)
C12 C -0.1906(2) 0.50399(12) 0.90073(16)
C13 C -0.1080(2) 0.64037(13) 0.96543(17)
C14 C -0.1050(2) 0.57650(12) 0.89120(16)
C15 C -0.1972(2) 0.63359(12) 1.05257(16)
O4 O -0.19435(16) 0.70151(9) 1.12107(12)
C16 C -0.2930(3) 0.70124(16) 1.20787(19)
C17 C -0.2818(2) 0.56231(13) 1.06569(18)
C18 C -0.2783(2) 0.49899(13) 0.98954(18)
H1 H 0.45320 0.46560 0.41190
H2 H -0.10560 0.23900 0.82270
H3 H -0.26680 0.12590 0.83790
H4 H -0.48160 0.10510 0.70810
H5 H -0.52990 0.19190 0.56130
H6 H -0.36760 0.30420 0.54210
H7 H 0.07970 0.42250 0.41220
H8 H 0.15970 0.34240 0.46800
H9 H -0.02200 0.46350 0.73630
H10 H -0.26760 0.39350 0.83020
H11 H -0.04970 0.68850 0.95710
H12 H -0.04410 0.58190 0.83290
H13 H -0.40130 0.69430 1.17690
H14 H -0.28150 0.75310 1.24740
H15 H -0.26290 0.65620 1.25780
H16 H -0.34070 0.55680 1.12510
H17 H -0.33710 0.45110 0.99810
#END
