
#######################################################################
#
#                 Cambridge Crystallographic Data Centre
#                                CCDC
#
#######################################################################
#
# If this CIF has been generated from an entry in the Cambridge
# Structural Database, then it will include bibliographic, chemical,
# crystal, experimental, refinement or atomic coordinate data resulting
# from the CCDC's data processing and validation procedures.
#
#######################################################################

data_CSD_CIF_FOMNEB01
_audit_creation_date 2005-06-30
_audit_creation_method CSD-ConQuest-V1
_database_code_CSD FOMNEB01
_database_code_depnum_ccdc_archive 'CCDC 274174'
_chemical_formula_sum 'C18 H17 N1 O4'
_chemical_formula_moiety
;
C18 H17 N1 O4
;
_journal_coeditor_code "IUCr WS5022"
_journal_coden_Cambridge 622
_journal_volume 61
_journal_year 2005
_journal_page_first 321
_journal_name_full 'Acta Crystallogr.,Sect.B:Struct.Sci. '
loop_
_publ_author_name
"J.M.S.Skakle"
"J.N.Low"
"J.L.Wardell"
"C.Glidewell"
_chemical_name_systematic
;
(E)-(1-(4-methoxyphenyl)-3-phenyl-2-propenylideneamino)oxyacetic acid
;
_chemical_melting_point 413
_cell_volume   1606.009
_exptl_crystal_colour 'yellow'
_exptl_crystal_density_diffrn 1.288
_exptl_special_details
;
polymorph II

;
_exptl_crystal_description 'plate'
_exptl_crystal_preparation 'ethanol'
_diffrn_ambient_temperature 120
#These two values have been output from a single CSD field.
_refine_ls_R_factor_gt 0.0578
_refine_ls_wR_factor_gt 0.0578
_symmetry_cell_setting monoclinic
_symmetry_space_group_name_H-M 'P 21/c'
_symmetry_Int_Tables_number 14
loop_
_symmetry_equiv_pos_site_id
_symmetry_equiv_pos_as_xyz
1 x,y,z
2 -x,1/2+y,1/2-z
3 -x,-y,-z
4 x,-1/2-y,-1/2+z
_cell_length_a 6.4499(2)
_cell_length_b 14.9693(5)
_cell_length_c 16.6559(6)
_cell_angle_alpha 90
_cell_angle_beta 92.947(2)
_cell_angle_gamma 90
_cell_formula_units_Z 4
loop_
_atom_type_symbol
_atom_type_radius_bond
C 0.68
H 0.23
N 0.68
O 0.68
loop_
_atom_site_label
_atom_site_type_symbol
_atom_site_fract_x
_atom_site_fract_y
_atom_site_fract_z
C1 C 0.5113(3) 0.56573(15) 0.40172(15)
O1 O 0.3533(2) 0.52726(11) 0.41955(11)
O2 O 0.6769(2) 0.57544(12) 0.45065(11)
C2 C 0.0796(4) 0.43697(15) 0.16447(15)
C3 C -0.1059(4) 0.39619(16) 0.18352(17)
C4 C -0.1517(4) 0.30945(16) 0.15832(19)
C5 C -0.0143(5) 0.26405(18) 0.11227(17)
C6 C 0.1672(5) 0.30496(18) 0.09115(17)
C7 C 0.2164(4) 0.39095(17) 0.11727(17)
C8 C 0.5414(4) 0.60708(16) 0.32101(16)
O3 O 0.3571(2) 0.61316(10) 0.27205(11)
N1 N 0.3144(3) 0.52776(12) 0.23787(13)
C9 C 0.1352(4) 0.52637(15) 0.19887(15)
C10 C -0.0067(4) 0.60192(15) 0.19205(15)
C11 C -0.1762(4) 0.60633(15) 0.14176(15)
C12 C -0.3231(3) 0.68066(15) 0.13578(14)
C13 C -0.4999(4) 0.67479(15) 0.08457(15)
C14 C -0.6458(4) 0.74346(16) 0.07875(15)
C15 C -0.6148(4) 0.81959(15) 0.12510(15)
O4 O -0.7452(3) 0.89141(11) 0.12568(11)
C16 C -0.9303(4) 0.88886(19) 0.07543(18)
C17 C -0.4387(4) 0.82659(15) 0.17666(16)
C18 C -0.2960(4) 0.75869(15) 0.18168(15)
H1 H 0.66130 0.54620 0.49300
H2 H -0.20210 0.42800 0.21410
H3 H -0.27680 0.28160 0.17270
H4 H -0.04450 0.20470 0.09510
H5 H 0.25950 0.27390 0.05840
H6 H 0.34240 0.41820 0.10300
H7 H 0.59980 0.66780 0.32910
H8 H 0.64380 0.57120 0.29270
H9 H 0.02280 0.65200 0.22580
H10 H -0.20290 0.55680 0.10710
H11 H -0.52180 0.62260 0.05280
H12 H -0.76530 0.73810 0.04330
H13 H -0.89480 0.89100 0.01900
H14 H -1.01750 0.94030 0.08730
H15 H -1.00610 0.83360 0.08540
H16 H -0.41720 0.87870 0.20850
H17 H -0.17630 0.76460 0.21700
#END
