
#######################################################################
#
#                 Cambridge Crystallographic Data Centre
#                                CCDC
#
#######################################################################
#
# If this CIF has been generated from an entry in the Cambridge
# Structural Database, then it will include bibliographic, chemical,
# crystal, experimental, refinement or atomic coordinate data resulting
# from the CCDC's data processing and validation procedures.
#
#######################################################################

data_CSD_CIF_FOMXIO
_audit_creation_date 2000-12-15
_audit_creation_method CSD-ConQuest-V1
_database_code_CSD FOMXIO
_database_code_depnum_ccdc_archive 'CCDC 1159053'
_chemical_formula_sum 'C12 H11 N3 O2'
_chemical_formula_moiety
;
C12 H11 N3 O2
;
_journal_coden_Cambridge 1061
_journal_volume 15
_journal_year 1999
_journal_page_first 405
_journal_name_full 'Anal.Sci. '
loop_
_publ_author_name
"I.Fujii"
"K.Tanaka"
"T.Deguchi"
"N.Hirayama"
_chemical_name_systematic
;
2-(4-amino-2-nitrobenzyl)pyridine
;
_cell_volume    553.249
_exptl_crystal_colour 'pale yellow'
_exptl_crystal_density_diffrn 1.377
_exptl_crystal_description 'prism'
_exptl_crystal_preparation 'acetone'
_diffrn_ambient_temperature ?
_diffrn_special_details
;
The study was carried out at room temperature,in the range 283-303K

;
#These two values have been output from a single CSD field.
_refine_ls_R_factor_gt 0.037
_refine_ls_wR_factor_gt 0.037
_symmetry_cell_setting triclinic
_symmetry_space_group_name_H-M 'P -1'
_symmetry_Int_Tables_number 2
loop_
_symmetry_equiv_pos_site_id
_symmetry_equiv_pos_as_xyz
1 x,y,z
2 -x,-y,-z
_cell_length_a 7.208(1)
_cell_length_b 8.304(1)
_cell_length_c 9.570(1)
_cell_angle_alpha 98.70(1)
_cell_angle_beta 99.51(1)
_cell_angle_gamma 96.18(1)
_cell_formula_units_Z 2
loop_
_atom_type_symbol
_atom_type_radius_bond
C 0.68
N 0.68
O 0.68
loop_
_atom_site_label
_atom_site_type_symbol
_atom_site_fract_x
_atom_site_fract_y
_atom_site_fract_z
O1 O 0.8023(2) 0.3449(1) 0.4278(1)
O2 O 0.8159(2) 0.4626(1) 0.6454(1)
N1 N 1.4148(2) 0.2429(2) 0.8360(1)
N2 N 0.8239(2) 0.3426(1) 0.5562(1)
N3 N 0.6580(2) -0.2457(2) 0.4913(2)
C1 C 1.3209(2) 0.3425(2) 1.0565(2)
C2 C 1.4830(3) 0.3040(2) 1.1347(2)
C3 C 1.6101(3) 0.2344(2) 1.0620(2)
C4 C 1.5719(2) 0.2056(2) 0.9144(2)
C5 C 1.2900(2) 0.3095(2) 0.9085(1)
C6 C 1.1119(2) 0.3461(2) 0.8188(2)
C7 C 0.9865(2) 0.1923(2) 0.7342(1)
C8 C 0.8573(2) 0.1884(2) 0.6074(1)
C9 C 0.7520(2) 0.0475(2) 0.5246(1)
C10 C 0.7673(2) -0.1035(2) 0.5694(1)
C11 C 0.8907(2) -0.1034(2) 0.6982(2)
C12 C 0.9974(2) 0.0394(2) 0.7760(2)
#END
