
#######################################################################
#
#                 Cambridge Crystallographic Data Centre
#                                CCDC
#
#######################################################################
#
# If this CIF has been generated from an entry in the Cambridge
# Structural Database, then it will include bibliographic, chemical,
# crystal, experimental, refinement or atomic coordinate data resulting
# from the CCDC's data processing and validation procedures.
#
#######################################################################

data_CSD_CIF_FONYUD
_audit_creation_date 2009-09-01
_audit_creation_method CSD-ConQuest-V1
_database_code_CSD FONYUD
_database_code_depnum_ccdc_archive 'CCDC 678009'
_chemical_formula_sum 'C17 H26 N2 O4'
_chemical_formula_moiety
;
C17 H26 N2 O4
;
_journal_coden_Cambridge 35
_journal_volume 74
_journal_year 2009
_journal_page_first 1252
_journal_name_full 'J.Org.Chem. '
loop_
_publ_author_name
"Yan Huang"
"Qiong Li"
"Tian-Liang Liu"
"Peng-Fei Xu"
_chemical_name_systematic
;
(5R,7S,14R,15S)-10-Isopropyl-5,13,13-trimethyl-11-nitro-7-oxa-12-azatetracyclo
[7.2.1.1^2,5^.0^1,6^]tridecan-8-one
;
_chemical_melting_point 484.15
_cell_volume   1688.883
_exptl_crystal_colour 'colorless'
_exptl_crystal_density_diffrn 1.268
_exptl_special_details
;
Melting point range 484.15-486.15K

;
_diffrn_ambient_temperature 294
#These two values have been output from a single CSD field.
_refine_ls_R_factor_gt 0.0408
_refine_ls_wR_factor_gt 0.0408
loop_
_citation_database_id_CSD
_citation_special_details
FOXCUR "is a stereoisomer of this entry"
_symmetry_cell_setting orthorhombic
_symmetry_space_group_name_H-M 'P 21 21 21'
_symmetry_Int_Tables_number 19
loop_
_symmetry_equiv_pos_site_id
_symmetry_equiv_pos_as_xyz
1 x,y,z
2 1/2-x,-y,1/2+z
3 -x,1/2+y,1/2-z
4 1/2+x,1/2-y,-z
_cell_length_a 6.9085(9)
_cell_length_b 10.4624(14)
_cell_length_c 23.366(3)
_cell_angle_alpha 90
_cell_angle_beta 90
_cell_angle_gamma 90
_cell_formula_units_Z 4
loop_
_atom_type_symbol
_atom_type_radius_bond
C 0.68
H 0.23
N 0.68
O 0.68
loop_
_atom_site_label
_atom_site_type_symbol
_atom_site_fract_x
_atom_site_fract_y
_atom_site_fract_z
O1 O 0.04443(18) -0.05231(12) 0.14538(6)
O2 O 0.3202(3) 0.40397(15) 0.13141(8)
O3 O 0.6000(2) 0.34760(18) 0.15993(11)
O4 O -0.2020(2) -0.00910(16) 0.20184(7)
N1 N 0.0523(2) 0.18832(15) 0.11789(7)
N2 N 0.4308(3) 0.32585(16) 0.15144(8)
C1 C 0.2483(3) -0.21561(19) 0.0663(1)
H1 H 0.10980 -0.22240 0.06730
H2 H 0.30260 -0.26370 0.09740
H3 H 0.29570 -0.24880 0.03070
C2 C 0.3064(3) -0.07650(17) 0.07200(8)
C3 C 0.5264(3) -0.0525(2) 0.07294(9)
H4 H 0.59130 -0.10390 0.04420
H5 H 0.58020 -0.07250 0.11020
C4 C 0.5483(3) 0.0918(2) 0.05951(9)
H6 H 0.61390 0.13630 0.09030
H7 H 0.61880 0.10520 0.02410
C5 C 0.3363(3) 0.13562(18) 0.05399(8)
H8 H 0.31930 0.21630 0.03330
C6 C 0.2412(3) 0.01791(19) 0.02439(8)
C7 C 0.0224(3) 0.0239(2) 0.01474(9)
H9 H -0.01940 -0.05200 -0.00480
H10 H -0.00840 0.09750 -0.00810
H11 H -0.04240 0.02990 0.05100
C8 C 0.3296(4) -0.0107(3) -0.03503(9)
H12 H 0.46790 -0.01630 -0.03180
H13 H 0.29650 0.05680 -0.06110
H14 H 0.27950 -0.09020 -0.04910
C9 C 0.2479(2) 0.13472(16) 0.11425(7)
C10 C 0.2362(3) -0.01187(16) 0.12750(7)
H15 H 0.32810 -0.03170 0.15820
C11 C 0.3553(3) 0.19431(17) 0.16599(8)
H16 H 0.46150 0.13870 0.17830
C12 C 0.1962(3) 0.20014(18) 0.21247(8)
H17 H 0.18560 0.28950 0.22460
C13 C 0.0086(3) 0.16762(17) 0.17835(8)
H18 H -0.09750 0.22370 0.19040
C14 C -0.0576(3) 0.0288(2) 0.17875(8)
C15 C 0.2393(3) 0.1207(2) 0.26614(8)
H19 H 0.25670 0.03140 0.25460
C16 C 0.0704(4) 0.1276(3) 0.30804(10)
H20 H 0.05620 0.21380 0.32150
H21 H 0.09510 0.07200 0.33990
H22 H -0.04630 0.10140 0.28910
C17 C 0.4245(4) 0.1658(3) 0.29541(11)
H23 H 0.41270 0.25460 0.30510
H24 H 0.53220 0.15420 0.27000
H25 H 0.44510 0.11680 0.32960
H26 H 0.062(3) 0.2715(10) 0.1110(8)
#END
