
#######################################################################
#
#                 Cambridge Crystallographic Data Centre
#                                CCDC
#
#######################################################################
#
# If this CIF has been generated from an entry in the Cambridge
# Structural Database, then it will include bibliographic, chemical,
# crystal, experimental, refinement or atomic coordinate data resulting
# from the CCDC's data processing and validation procedures.
#
#######################################################################

data_CSD_CIF_FONYIR
_audit_creation_date 2009-09-01
_audit_creation_method CSD-ConQuest-V1
_database_code_CSD FONYIR
_database_code_depnum_ccdc_archive 'CCDC 678006'
_chemical_formula_sum 'C20 H24 N2 O4'
_chemical_formula_moiety
;
C20 H24 N2 O4
;
_journal_coden_Cambridge 35
_journal_volume 74
_journal_year 2009
_journal_page_first 1252
_journal_name_full 'J.Org.Chem. '
loop_
_publ_author_name
"Yan Huang"
"Qiong Li"
"Tian-Liang Liu"
"Peng-Fei Xu"
_chemical_name_systematic
;
(1S,2R,5S,8R)-5-((S)-1-Phenyl-2-nitroethyl)-8,11,11-trimethyl-3-oxa-6-azatricy
clo[6.2.1.0^2,7^]undec-6-en-4-one
;
_chemical_melting_point 481.15
_cell_volume   1858.344
_exptl_crystal_colour 'colorless'
_exptl_crystal_density_diffrn 1.274
_exptl_special_details
;
Melting point range 481.15-483.15K

;
_exptl_crystal_description 'rod'
_diffrn_ambient_temperature 294
#These two values have been output from a single CSD field.
_refine_ls_R_factor_gt 0.0332
_refine_ls_wR_factor_gt 0.0332
_symmetry_cell_setting orthorhombic
_symmetry_space_group_name_H-M 'P 21 21 21'
_symmetry_Int_Tables_number 19
loop_
_symmetry_equiv_pos_site_id
_symmetry_equiv_pos_as_xyz
1 x,y,z
2 1/2-x,-y,1/2+z
3 -x,1/2+y,1/2-z
4 1/2+x,1/2-y,-z
_cell_length_a 6.9518(11)
_cell_length_b 13.891(2)
_cell_length_c 19.244(3)
_cell_angle_alpha 90
_cell_angle_beta 90
_cell_angle_gamma 90
_cell_formula_units_Z 4
loop_
_atom_type_symbol
_atom_type_radius_bond
C 0.68
H 0.23
N 0.68
O 0.68
loop_
_atom_site_label
_atom_site_type_symbol
_atom_site_fract_x
_atom_site_fract_y
_atom_site_fract_z
N1 N 0.3992(3) 0.40377(13) 0.05980(9)
N2 N 0.4909(4) 0.25385(15) -0.16767(12)
O1 O 0.8856(2) 0.37669(13) -0.00264(9)
O2 O 0.7459(2) 0.50850(13) 0.03555(9)
O3 O 0.5645(4) 0.27854(17) -0.22195(11)
O4 O 0.3390(4) 0.21134(15) -0.16410(11)
C1 C 0.3012(3) 0.55134(17) 0.12330(12)
C2 C 0.4098(3) 0.49358(16) 0.06972(11)
C3 C 0.5636(3) 0.55855(16) 0.04056(12)
H1 H 0.52480 0.58070 -0.00570
C4 C 0.5569(4) 0.64343(19) 0.09149(14)
H2 H 0.67760 0.67930 0.09600
C5 C 0.3845(5) 0.70300(19) 0.06606(18)
H3 H 0.39110 0.71410 0.01640
H4 H 0.37730 0.76440 0.08990
C6 C 0.2131(4) 0.63818(19) 0.08496(16)
H5 H 0.14580 0.61740 0.04340
H6 H 0.12340 0.67220 0.11480
C7 C 0.1628(4) 0.4940(2) 0.16755(15)
H7 H 0.06120 0.46920 0.13890
H8 H 0.10940 0.53480 0.20290
H9 H 0.23010 0.44140 0.18900
C8 C 0.4804(4) 0.59889(19) 0.15988(13)
C9 C 0.6148(4) 0.5263(2) 0.19407(15)
H10 H 0.72570 0.55920 0.21200
H11 H 0.65470 0.47950 0.16030
H12 H 0.54870 0.49460 0.23140
C10 C 0.4250(5) 0.6733(2) 0.21551(15)
H13 H 0.38050 0.64060 0.25640
H14 H 0.32460 0.71400 0.19790
H15 H 0.53530 0.71170 0.22690
C11 C 0.7389(3) 0.41651(18) 0.01375(12)
C12 C 0.5470(3) 0.36423(16) 0.01396(11)
H16 H 0.57420 0.29950 0.03170
C13 C 0.4651(3) 0.34932(14) -0.06058(11)
H17 H 0.33990 0.31780 -0.05490
C14 C 0.5910(4) 0.27927(16) -0.10149(12)
H18 H 0.71430 0.30880 -0.11160
H19 H 0.61360 0.22160 -0.07430
C15 C 0.4271(3) 0.44297(15) -0.09786(10)
C16 C 0.5710(4) 0.49268(17) -0.13305(12)
H20 H 0.69330 0.46620 -0.13690
C17 C 0.5319(5) 0.58171(19) -0.16229(13)
H21 H 0.62850 0.61430 -0.18600
C18 C 0.3538(6) 0.6222(2) -0.15672(15)
H22 H 0.33000 0.68260 -0.17570
C19 C 0.2100(5) 0.5733(2) -0.12303(16)
H23 H 0.08790 0.60030 -0.11970
C20 C 0.2459(4) 0.48384(17) -0.09401(13)
H24 H 0.14720 0.45090 -0.07170
#END
