
#######################################################################
#
#                 Cambridge Crystallographic Data Centre
#                                CCDC
#
#######################################################################
#
# If this CIF has been generated from an entry in the Cambridge
# Structural Database, then it will include bibliographic, chemical,
# crystal, experimental, refinement or atomic coordinate data resulting
# from the CCDC's data processing and validation procedures.
#
#######################################################################

data_CSD_CIF_FOPZIV
_audit_creation_date 2014-11-07
_audit_creation_method CSD-ConQuest-V1
_database_code_CSD FOPZIV
_database_code_depnum_ccdc_archive 'CCDC 990920'
_chemical_formula_sum 'C16 H22 N2 O7'
_chemical_formula_moiety
;
C16 H22 N2 O7
;
_journal_coden_Cambridge 1088
_journal_volume 25
_journal_year 2014
_journal_page_first 2217
_journal_name_full 'Synlett '
loop_
_publ_author_name
"R.C.Acurcioa"
"R.G.Soengas"
"F.A.A.Pazb"
"A.M.S.Silva"
_chemical_name_systematic
;
5-((4-methoxyphenyl)amino)-2,2-dimethyl-6-nitrohexahydro-1,3-benzodioxole-4,7-
diol
;
_cell_volume    860.274
_exptl_crystal_colour 'yellow'
_exptl_crystal_density_diffrn 1.368
_exptl_crystal_description 'Block'
_diffrn_ambient_temperature 100
#These two values have been output from a single CSD field.
_refine_ls_R_factor_gt 0.0301
_refine_ls_wR_factor_gt 0.0301
_symmetry_cell_setting triclinic
_symmetry_space_group_name_H-M 'P 1'
_symmetry_Int_Tables_number 1
loop_
_symmetry_equiv_pos_site_id
_symmetry_equiv_pos_as_xyz
1 x,y,z
_cell_length_a 9.7564(18)
_cell_length_b 9.9572(18)
_cell_length_c 10.1902(17)
_cell_angle_alpha 109.194(6)
_cell_angle_beta 111.437(6)
_cell_angle_gamma 90.714(7)
_cell_formula_units_Z 2
loop_
_atom_type_symbol
_atom_type_radius_bond
C 0.68
H 0.23
N 0.68
O 0.68
loop_
_atom_site_label
_atom_site_type_symbol
_atom_site_fract_x
_atom_site_fract_y
_atom_site_fract_z
O1 O 0.3774(1) 0.14862(9) 0.18197(10)
O2 O 0.29143(9) 0.33573(9) 0.28828(10)
O3 O 0.36176(8) 0.38173(8) 0.01956(8)
H1 H 0.35020 0.42790 -0.03850
O4 O 0.52256(8) 0.68376(7) 0.13080(8)
O5 O 0.61301(8) 0.75634(8) 0.39024(8)
O6 O 0.82565(8) 0.45806(8) 0.38052(8)
H2 H 0.91030 0.47100 0.44950
O7 O 0.91907(9) 0.58003(11) 1.13862(9)
N1 N 0.38347(9) 0.27845(10) 0.24200(9)
N2 N 0.64793(9) 0.36338(9) 0.50692(9)
H3 H 0.7103(15) 0.3068(15) 0.4713(18)
C1 C 0.45249(10) 0.47176(10) 0.16935(10)
H4 H 0.38950 0.53420 0.21410
C2 C 0.5805(1) 0.56754(10) 0.17618(10)
H5 H 0.63060 0.51120 0.11050
C3 C 0.69288(10) 0.64581(10) 0.33696(11)
H6 H 0.78420 0.69020 0.33470
C4 C 0.73665(10) 0.55503(10) 0.43591(10)
H7 H 0.79560 0.61790 0.54320
C5 C 0.60235(10) 0.46324(10) 0.42579(10)
H8 H 0.53870 0.52760 0.46730
C6 C 0.51342(10) 0.37542(10) 0.25938(10)
H9 H 0.57940 0.31530 0.21720
C7 C 0.54425(11) 0.80554(11) 0.26708(12)
C8 C 0.39512(12) 0.84666(12) 0.26545(14)
H10 H 0.41060 0.93080 0.35580
H11 H 0.33550 0.76610 0.26440
H12 H 0.34260 0.86980 0.17510
C9 C 0.64591(14) 0.92660(13) 0.27509(17)
H13 H 0.74040 0.89410 0.27530
H14 H 0.66490 1.00920 0.36780
H15 H 0.59830 0.95490 0.18730
C10 C 0.71958(10) 0.42252(11) 0.66834(11)
C11 C 0.69898(11) 0.55593(12) 0.75521(11)
H16 H 0.63950 0.61420 0.70700
C12 C 0.76539(12) 0.60381(13) 0.91222(12)
H17 H 0.75000 0.69420 0.97060
C13 C 0.85424(11) 0.52012(13) 0.98426(11)
C14 C 0.87169(11) 0.38501(13) 0.89871(12)
H18 H 0.92930 0.32590 0.94720
C15 C 0.80408(11) 0.33708(11) 0.74162(11)
H19 H 0.81570 0.24480 0.68350
C16 C 1.03286(13) 0.51049(17) 1.21296(13)
H20 H 1.07990 0.56900 1.32070
H21 H 1.10800 0.49900 1.16890
H22 H 0.98890 0.41570 1.20030
O8 O 0.03758(11) -0.13926(10) -0.51417(13)
O9 O 0.06145(11) 0.01651(12) -0.29767(13)
O10 O -0.06834(8) 0.17502(8) -0.54725(8)
H23 H -0.06830 0.14380 -0.63450
O11 O 0.10952(8) 0.46880(7) -0.41775(8)
O12 O 0.32435(7) 0.46991(7) -0.22469(7)
O13 O 0.42856(8) 0.17317(8) -0.47805(8)
H24 H 0.48970 0.22490 -0.48840
O14 O 0.94851(9) 0.06593(10) 0.14743(9)
N3 N 0.08088(10) -0.01948(10) -0.41498(12)
N4 N 0.39515(9) 0.00726(9) -0.31844(10)
H25 H 0.3998(18) -0.0368(17) -0.4122(12)
C17 C 0.08079(10) 0.21857(10) -0.43886(10)
H26 H 0.07750 0.26140 -0.33670
C18 C 0.16275(10) 0.33418(10) -0.46402(10)
H27 H 0.14850 0.30410 -0.57250
C19 C 0.32791(10) 0.37304(10) -0.36248(10)
H28 H 0.37870 0.42730 -0.40320
C20 C 0.40983(10) 0.24749(10) -0.34148(10)
H29 H 0.50930 0.28430 -0.25580
C21 C 0.32271(10) 0.13543(10) -0.31623(10)
H30 H 0.31500 0.17960 -0.21620
C22 C 0.16605(10) 0.09075(10) -0.44045(11)
H31 H 0.17290 0.04740 -0.54100
C23 C 0.21652(10) 0.5601(1) -0.26870(11)
C24 C 0.28687(13) 0.68856(11) -0.28308(14)
H32 H 0.36100 0.74930 -0.18410
H33 H 0.20960 0.74440 -0.32010
H34 H 0.33550 0.65490 -0.35440
C25 C 0.14090(12) 0.60210(12) -0.15900(13)
H35 H 0.21440 0.65920 -0.05820
H36 H 0.09600 0.51520 -0.15580
H37 H 0.06310 0.65920 -0.19160
C26 C 0.53826(10) 0.02524(10) -0.20355(11)
C27 C 0.64811(13) -0.04912(13) -0.23619(13)
H38 H 0.62880 -0.10770 -0.33760
C28 C 0.78674(13) -0.03949(14) -0.12271(14)
H39 H 0.85990 -0.09270 -0.14680
C29 C 0.81679(11) 0.04790(11) 0.02480(11)
C30 C 0.71020(13) 0.12624(16) 0.05760(12)
H40 H 0.73200 0.18930 0.15810
C31 C 0.57131(14) 0.11383(16) -0.05477(13)
H41 H 0.49820 0.16640 -0.02980
C32 C 1.05941(13) -0.01624(15) 0.11789(15)
H42 H 1.15040 0.01130 0.21000
H43 H 1.08100 0.00230 0.03820
H44 H 1.02310 -0.11880 0.08510
#END
