
#######################################################################
#
#                 Cambridge Crystallographic Data Centre
#                                CCDC
#
#######################################################################
#
# If this CIF has been generated from an entry in the Cambridge
# Structural Database, then it will include bibliographic, chemical,
# crystal, experimental, refinement or atomic coordinate data resulting
# from the CCDC's data processing and validation procedures.
#
#######################################################################

data_CSD_CIF_FOQGIC
_audit_creation_date 2009-09-01
_audit_creation_method CSD-ConQuest-V1
_database_code_CSD FOQGIC
_database_code_depnum_ccdc_archive 'CCDC 634597'
_chemical_formula_sum 'C11 H11 N3 O3'
_chemical_formula_moiety
;
C11 H11 N3 O3
;
_journal_coden_Cambridge 206
_journal_volume 23
_journal_year 1993
_journal_page_first 685
_journal_name_full 'Synth.Commun. '
loop_
_publ_author_name
"E.M.Beccalli"
"A.Marchesini"
"T.Pilati"
_chemical_name_systematic
;
4-Amino-3a-methyl-3-phenyl-3a,6a-dihydro[1,3]oxazolo[4,5-d][1,2]oxazol-5(4H)-o
ne
;
_cell_volume   1080.798
_exptl_crystal_colour 'colorless'
_exptl_crystal_density_diffrn 1.433
_exptl_crystal_description 'block'
_diffrn_ambient_temperature 293
#These two values have been output from a single CSD field.
_refine_ls_R_factor_gt 0.0441
_refine_ls_wR_factor_gt 0.0441
_symmetry_cell_setting triclinic
_symmetry_space_group_name_H-M 'P -1'
_symmetry_Int_Tables_number 2
loop_
_symmetry_equiv_pos_site_id
_symmetry_equiv_pos_as_xyz
1 x,y,z
2 -x,-y,-z
_cell_length_a 10.090(3)
_cell_length_b 10.743(2)
_cell_length_c 12.074(3)
_cell_angle_alpha 95.56(2)
_cell_angle_beta 113.46(2)
_cell_angle_gamma 110.54(2)
_cell_formula_units_Z 4
loop_
_atom_type_symbol
_atom_type_radius_bond
C 0.68
H 0.23
N 0.68
O 0.68
loop_
_atom_site_label
_atom_site_type_symbol
_atom_site_fract_x
_atom_site_fract_y
_atom_site_fract_z
O1 O -0.05654(15) 0.34509(15) -0.12446(11)
N1 N 0.09971(19) 0.45403(16) -0.08330(13)
C1 C 0.1997(2) 0.44111(17) 0.01575(14)
C2 C 0.12557(18) 0.31475(17) 0.05592(14)
N2 N 0.17967(16) 0.20869(13) 0.03852(12)
C3 C 0.0740(2) 0.10388(17) -0.06621(16)
O2 O -0.05522(15) 0.12934(13) -0.12986(11)
C4 C -0.0433(2) 0.2487(2) -0.05541(15)
H1 H -0.137(2) 0.218(2) -0.0368(17)
C5 C 0.3671(2) 0.54553(16) 0.08090(15)
C6 C 0.4125(3) 0.6657(2) 0.04269(18)
H2 H 0.340(3) 0.675(2) -0.023(2)
C7 C 0.5674(3) 0.7647(2) 0.1036(2)
H3 H 0.593(3) 0.848(2) 0.075(2)
C8 C 0.6808(3) 0.7472(2) 0.2036(2)
H4 H 0.788(3) 0.814(2) 0.248(2)
C9 C 0.6381(2) 0.6303(2) 0.2434(2)
H5 H 0.717(3) 0.620(2) 0.316(2)
C10 C 0.4821(2) 0.52929(19) 0.18174(18)
H6 H 0.454(2) 0.450(2) 0.2086(18)
C11 C 0.1301(2) 0.3482(2) 0.18256(15)
H7 H 0.069(2) 0.264(2) 0.1953(18)
H8 H 0.237(3) 0.386(2) 0.248(2)
H9 H 0.085(2) 0.410(2) 0.1846(18)
N3 N 0.3070(2) 0.19947(17) 0.13610(15)
H10 H 0.386(3) 0.213(3) 0.115(2)
H11 H 0.267(3) 0.115(3) 0.148(2)
O3 O 0.08328(18) 0.00052(13) -0.10204(13)
O4 O 0.61966(17) 0.17223(15) 0.19131(12)
N4 N 0.54794(19) 0.06094(16) 0.23619(14)
C12 C 0.65340(18) 0.06728(17) 0.34299(14)
C13 C 0.81562(19) 0.18970(16) 0.38943(14)
N5 N 0.85643(16) 0.29274(14) 0.49946(12)
C14 C 0.8265(2) 0.40150(18) 0.47228(18)
O5 O 0.76058(17) 0.38207(14) 0.34556(13)
C15 C 0.7696(2) 0.2639(2) 0.28811(17)
H12 H 0.842(2) 0.2963(19) 0.2516(17)
C16 C 0.61314(18) -0.04048(16) 0.40557(14)
C17 C 0.4651(2) -0.15497(19) 0.34428(17)
H13 H 0.393(3) -0.158(2) 0.264(2)
C18 C 0.4290(2) -0.2588(2) 0.3997(2)
H14 H 0.330(3) -0.336(2) 0.356(2)
C19 C 0.5378(3) -0.2512(2) 0.5176(2)
H15 H 0.516(3) -0.321(2) 0.557(2)
C20 C 0.6845(2) -0.1385(2) 0.57942(19)
H16 H 0.762(3) -0.132(2) 0.661(2)
C21 C 0.7215(2) -0.03407(18) 0.52398(16)
H17 H 0.823(2) 0.045(2) 0.5713(18)
C22 C 0.9495(2) 0.1500(2) 0.39921(19)
H18 H 1.045(3) 0.232(2) 0.4205(19)
H19 H 0.971(2) 0.099(2) 0.4608(19)
H20 H 0.920(3) 0.091(2) 0.318(2)
N6 N 0.9527(2) 0.29475(18) 0.62156(14)
H21 H 0.896(3) 0.284(2) 0.664(2)
H22 H 1.040(3) 0.379(3) 0.660(2)
O6 O 0.85320(18) 0.50359(13) 0.54413(15)
#END
