
#######################################################################
#
#                 Cambridge Crystallographic Data Centre
#                                CCDC
#
#######################################################################
#
# If this CIF has been generated from an entry in the Cambridge
# Structural Database, then it will include bibliographic, chemical,
# crystal, experimental, refinement or atomic coordinate data resulting
# from the CCDC's data processing and validation procedures.
#
#######################################################################

data_CSD_CIF_FOQPIL
_audit_creation_date 2009-09-01
_audit_creation_method CSD-ConQuest-V1
_database_code_CSD FOQPIL
_database_code_depnum_ccdc_archive 'CCDC 722540'
_chemical_formula_sum 'C18 H18 N4 O1'
_chemical_formula_moiety
;
C18 H18 N4 O1
;
_journal_coden_Cambridge 603
_journal_volume 28
_journal_year 2009
_journal_page_first 307
_journal_name_full 'Jiegou Huaxue(Chin.)(Chin.J.Struct.Chem.) '
loop_
_publ_author_name
"Liu Meng"
"De-Qing Shi"
_chemical_name_systematic
;
O-((Z)-2-Methylbenzyl)-1-phenyl-2-(1H-1,2,4-triazol-1-yl)ethanone oxime
;
_chemical_melting_point 342
_cell_volume    802.448
_exptl_crystal_colour 'colorless'
_exptl_crystal_density_diffrn 1.268
_exptl_special_details
;
Melting point range 342-343K
fungicidal activity; weak insecticidal activity

;
_exptl_crystal_description 'needle'
_exptl_crystal_preparation 'petroleum ether/acetone'
_diffrn_ambient_temperature 295
#These two values have been output from a single CSD field.
_refine_ls_R_factor_gt 0.0497
_refine_ls_wR_factor_gt 0.0497
_symmetry_cell_setting triclinic
_symmetry_space_group_name_H-M 'P -1'
_symmetry_Int_Tables_number 2
loop_
_symmetry_equiv_pos_site_id
_symmetry_equiv_pos_as_xyz
1 x,y,z
2 -x,-y,-z
_cell_length_a 4.7827(4)
_cell_length_b 13.5771(12)
_cell_length_c 13.8298(13)
_cell_angle_alpha 63.581(2)
_cell_angle_beta 88.326(2)
_cell_angle_gamma 86.161(2)
_cell_formula_units_Z 2
loop_
_atom_type_symbol
_atom_type_radius_bond
C 0.68
H 0.23
N 0.68
O 0.68
loop_
_atom_site_label
_atom_site_type_symbol
_atom_site_fract_x
_atom_site_fract_y
_atom_site_fract_z
C1 C 0.6335(4) 0.19247(15) 0.55594(13)
C2 C 0.7169(4) 0.29664(16) 0.53719(15)
C3 C 0.6036(5) 0.34213(17) 0.60296(18)
H1 H 0.66010 0.41020 0.59320
C4 C 0.4106(5) 0.28986(19) 0.68203(17)
H2 H 0.33860 0.32250 0.72480
C5 C 0.3254(5) 0.19032(18) 0.69752(15)
H3 H 0.19190 0.15520 0.74980
C6 C 0.4378(4) 0.14195(15) 0.63538(14)
H4 H 0.38070 0.07340 0.64710
C7 C 0.9239(5) 0.35732(19) 0.44988(18)
H5 H 0.94480 0.42870 0.44640
H6 H 0.85690 0.36570 0.38170
H7 H 1.10180 0.31630 0.46590
C8 C 0.7543(5) 0.13452(16) 0.49249(14)
H8 H 0.95620 0.13900 0.48720
H9 H 0.71300 0.05740 0.52790
C9 C 0.6894(4) 0.19433(13) 0.22280(14)
C10 C 0.4474(4) 0.28029(13) 0.18789(14)
H10 H 0.36650 0.28620 0.12190
H11 H 0.30360 0.25810 0.24320
C11 C 0.4495(5) 0.45494(17) 0.20970(17)
H12 H 0.30220 0.44160 0.25850
C12 C 0.7735(5) 0.52529(15) 0.10603(16)
H13 H 0.90470 0.57550 0.06600
C13 C 0.8426(4) 0.16299(13) 0.14511(13)
C14 C 1.0465(4) 0.07657(15) 0.18046(15)
H14 H 1.07990 0.03570 0.25410
C15 C 1.1992(4) 0.05049(17) 0.10887(16)
H15 H 1.33540 -0.00740 0.13420
C16 C 1.1520(5) 0.10955(19) -0.00030(17)
H16 H 1.25650 0.09200 -0.04890
C17 C 0.9516(5) 0.19365(18) -0.03663(15)
H17 H 0.91890 0.23350 -0.11040
C18 C 0.7959(4) 0.22065(15) 0.03471(14)
H18 H 0.65840 0.27800 0.00860
N1 N 0.7826(3) 0.14839(11) 0.32025(11)
N2 N 0.5417(3) 0.38663(11) 0.16989(11)
N3 N 0.7557(3) 0.43144(12) 0.10123(13)
N4 N 0.5919(4) 0.54420(14) 0.17184(15)
O1 O 0.6304(3) 0.18738(10) 0.38641(9)
#END
