
#######################################################################
#
#                 Cambridge Crystallographic Data Centre
#                                CCDC
#
#######################################################################
#
# If this CIF has been generated from an entry in the Cambridge
# Structural Database, then it will include bibliographic, chemical,
# crystal, experimental, refinement or atomic coordinate data resulting
# from the CCDC's data processing and validation procedures.
#
#######################################################################

data_CSD_CIF_FORAMO
_audit_creation_date 1971-12-31
_audit_creation_method CSD-ConQuest-V1
_database_code_CSD FORAMO
_database_code_depnum_ccdc_archive 'CCDC 1159290'
_chemical_formula_sum 'C1 H4 N2 O1'
_chemical_formula_moiety
;
C1 H4 N2 O1
;
_journal_coeditor_code "IUCr A04674"
_journal_coden_Cambridge 1
_journal_volume 18
_journal_year 1965
_journal_page_first 955
_journal_name_full 'Acta Crystallogr. '
loop_
_publ_author_name
"D.Hall"
_chemical_name_systematic
;
Formamidoxime
;
_cell_volume    289.186
_diffrn_ambient_temperature ?
_diffrn_special_details
;
The study was carried out at room temperature,in the range 283-303K

;
#These two values have been output from a single CSD field.
_refine_ls_R_factor_gt 0.079
_refine_ls_wR_factor_gt 0.079
_symmetry_cell_setting orthorhombic
_symmetry_space_group_name_H-M 'P 21 21 21'
_symmetry_Int_Tables_number 19
loop_
_symmetry_equiv_pos_site_id
_symmetry_equiv_pos_as_xyz
1 x,y,z
2 1/2+x,1/2-y,-z
3 -x,1/2+y,1/2-z
4 1/2-x,-y,1/2+z
_cell_length_a 8.22
_cell_length_b 7.36
_cell_length_c 4.78
_cell_angle_alpha 90
_cell_angle_beta 90
_cell_angle_gamma 90
_cell_formula_units_Z 4
loop_
_atom_type_symbol
_atom_type_radius_bond
C 0.68
H 0.20
N 0.68
O 0.68
loop_
_atom_site_label
_atom_site_type_symbol
_atom_site_fract_x
_atom_site_fract_y
_atom_site_fract_z
C1 C 0.29300 0.29440 0.24320
H1 H 0.47300 0.46700 0.37000
H2 H 0.50600 0.38000 0.08600
H3 H 0.21500 0.31000 0.38600
H4 H 0.34100 0.06000 -0.21400
N1 N 0.42430 0.40010 0.22230
N2 N 0.25540 0.16030 0.08280
O1 O 0.37780 0.13600 -0.12210
#END
