
#######################################################################
#
#                 Cambridge Crystallographic Data Centre
#                                CCDC
#
#######################################################################
#
# If this CIF has been generated from an entry in the Cambridge
# Structural Database, then it will include bibliographic, chemical,
# crystal, experimental, refinement or atomic coordinate data resulting
# from the CCDC's data processing and validation procedures.
#
#######################################################################

data_CSD_CIF_FORAMO01
_audit_creation_date 1981-12-23
_audit_creation_method CSD-ConQuest-V1
_database_code_CSD FORAMO01
_database_code_depnum_ccdc_archive 'CCDC 1159291'
_chemical_formula_sum 'C1 H4 N2 O1'
_chemical_formula_moiety
;
C1 H4 N2 O1
;
_journal_coeditor_code "IUCr A20183"
_journal_coden_Cambridge 107
_journal_volume 37
_journal_year 1981
_journal_page_first 1381
_journal_name_full 'Acta Crystallogr.,Sect.B:Struct.Crystallogr.Cryst.Chem. '
loop_
_publ_author_name
"G.A.Jeffrey"
"J.R.Ruble"
"R.K.McMullan"
"D.J.DeFrees"
"J.A.Pople"
_chemical_name_systematic
;
N-Hydroxy-methaneimidamide
;
_chemical_name_common
;
Formamide oxime
;
_cell_volume    277.169
_exptl_crystal_density_diffrn 1.441
_diffrn_ambient_temperature 16
_diffrn_radiation_probe 'neutron radiation'
#These two values have been output from a single CSD field.
_refine_ls_R_factor_gt 0.017
_refine_ls_wR_factor_gt 0.017
_symmetry_cell_setting orthorhombic
_symmetry_space_group_name_H-M 'P 21 21 21'
_symmetry_Int_Tables_number 19
loop_
_symmetry_equiv_pos_site_id
_symmetry_equiv_pos_as_xyz
1 x,y,z
2 1/2+x,1/2-y,-z
3 -x,1/2+y,1/2-z
4 1/2-x,-y,1/2+z
_cell_length_a 8.187(1)
_cell_length_b 7.111(1)
_cell_length_c 4.7609(7)
_cell_angle_alpha 90
_cell_angle_beta 90
_cell_angle_gamma 90
_cell_formula_units_Z 4
loop_
_atom_type_symbol
_atom_type_radius_bond
C 0.68
H 0.23
N 0.68
O 0.68
loop_
_atom_site_label
_atom_site_type_symbol
_atom_site_fract_x
_atom_site_fract_y
_atom_site_fract_z
C1 C 0.29272 0.30014 0.24211
N1 N 0.42744 0.40782 0.22678
N2 N 0.25413 0.16429 0.07326
O1 O 0.37906 0.13951 -0.13287
H1 H 0.45620 0.49320 0.38950
H2 H 0.51970 0.36910 0.09630
H3 H 0.20430 0.33010 0.40730
H4 H 0.33500 0.03650 -0.25070
#END
