
#######################################################################
#
#                 Cambridge Crystallographic Data Centre
#                                CCDC
#
#######################################################################
#
# If this CIF has been generated from an entry in the Cambridge
# Structural Database, then it will include bibliographic, chemical,
# crystal, experimental, refinement or atomic coordinate data resulting
# from the CCDC's data processing and validation procedures.
#
#######################################################################

data_CSD_CIF_FOSXIW
_audit_creation_date 2014-11-11
_audit_creation_method CSD-ConQuest-V1
_database_code_CSD FOSXIW
_database_code_depnum_ccdc_archive 'CCDC 1017179'
_chemical_formula_sum 'C22 H24 N2 O2'
_chemical_formula_moiety
;
C22 H24 N2 O2
;
_journal_coden_Cambridge 182
_journal_volume 50
_journal_year 2014
_journal_page_first 15913
_journal_name_full 'Chem.Commun. '
loop_
_publ_author_name
"Yu Tan"
"Yong-Jian Chen"
"Hua Lin"
"Han-Lin Luan"
"Xing-Wen Sun"
"Xiao-Di Yang"
"Guo-Qiang Lin"
_chemical_name_systematic
;
6-benzyl-8a-methyl-8-nitro-7-phenyl-1,2,3,7,8,8a-hexahydroindolizine
;
_cell_volume   1950.389
_exptl_crystal_colour 'orange'
_exptl_crystal_density_diffrn 1.187
_exptl_crystal_description 'block'
_diffrn_ambient_temperature 273
#These two values have been output from a single CSD field.
_refine_ls_R_factor_gt 0.0412
_refine_ls_wR_factor_gt 0.0412
_symmetry_cell_setting orthorhombic
_symmetry_space_group_name_H-M 'P 21 21 21'
_symmetry_Int_Tables_number 19
loop_
_symmetry_equiv_pos_site_id
_symmetry_equiv_pos_as_xyz
1 x,y,z
2 1/2-x,-y,1/2+z
3 -x,1/2+y,1/2-z
4 1/2+x,1/2-y,-z
_cell_length_a 8.435(4)
_cell_length_b 11.876(5)
_cell_length_c 19.470(8)
_cell_angle_alpha 90
_cell_angle_beta 90
_cell_angle_gamma 90
_cell_formula_units_Z 4
loop_
_atom_type_symbol
_atom_type_radius_bond
C 0.68
H 0.23
N 0.68
O 0.68
loop_
_atom_site_label
_atom_site_type_symbol
_atom_site_fract_x
_atom_site_fract_y
_atom_site_fract_z
C1 C 0.4611(3) 0.5942(2) 0.28202(12)
H1 H 0.56790 0.60290 0.26440
H2 H 0.41070 0.66750 0.28390
C2 C 0.4627(3) 0.5390(2) 0.35255(13)
H3 H 0.54670 0.48350 0.35590
H4 H 0.47660 0.59470 0.38850
C3 C 0.3040(3) 0.48475(19) 0.35737(11)
H5 H 0.30620 0.42140 0.38880
H6 H 0.22450 0.53810 0.37270
C4 C 0.2405(2) 0.57274(14) 0.19101(9)
H7 H 0.17310 0.61780 0.22140
C5 C 0.1322(2) 0.49107(13) 0.15233(9)
H8 H 0.19600 0.44910 0.11890
C6 C 0.0649(2) 0.40827(14) 0.20494(9)
C7 C 0.1313(3) 0.39888(15) 0.26719(10)
H9 H 0.07780 0.35570 0.29960
C8 C 0.3644(3) 0.51211(16) 0.23691(10)
C9 C 0.0034(2) 0.55562(13) 0.11400(9)
C10 C -0.1194(2) 0.60939(15) 0.1493(1)
H10 H -0.12350 0.60490 0.19700
C11 C -0.2349(3) 0.66922(16) 0.11438(12)
H11 H -0.31660 0.70370 0.13860
C12 C -0.2294(3) 0.67786(18) 0.04448(13)
H12 H -0.30660 0.71870 0.02120
C13 C -0.1088(3) 0.62570(19) 0.00855(11)
H13 H -0.10520 0.63130 -0.03910
C14 C 0.0068(3) 0.56516(16) 0.04299(10)
H14 H 0.08760 0.53050 0.01830
C15 C -0.0742(3) 0.33706(17) 0.18385(11)
H15 H -0.16010 0.38630 0.16990
H16 H -0.11010 0.29450 0.22340
C16 C -0.0389(2) 0.25549(16) 0.1256(1)
C17 C 0.0768(3) 0.1752(2) 0.13201(13)
H17 H 0.13780 0.17260 0.17180
C18 C 0.1044(4) 0.0972(2) 0.07973(17)
H18 H 0.18200 0.04220 0.08520
C19 C 0.0178(5) 0.1014(3) 0.02051(16)
H19 H 0.03620 0.04960 -0.01440
C20 C -0.0954(5) 0.1816(3) 0.01284(15)
H20 H -0.15400 0.18490 -0.02760
C21 C -0.1242(4) 0.2589(2) 0.06504(13)
H21 H -0.20180 0.31360 0.05910
C22 C 0.4718(3) 0.4311(2) 0.19631(13)
H22 H 0.40730 0.38100 0.16950
H23 H 0.53530 0.38810 0.22770
H24 H 0.53970 0.47360 0.16640
N1 N 0.2722(2) 0.44766(14) 0.28741(8)
N2 N 0.3200(2) 0.65264(13) 0.14202(9)
O1 O 0.3745(2) 0.61684(13) 0.08880(8)
O2 O 0.3282(3) 0.75146(12) 0.15923(9)
#END
