
#######################################################################
#
#                 Cambridge Crystallographic Data Centre
#                                CCDC
#
#######################################################################
#
# If this CIF has been generated from an entry in the Cambridge
# Structural Database, then it will include bibliographic, chemical,
# crystal, experimental, refinement or atomic coordinate data resulting
# from the CCDC's data processing and validation procedures.
#
#######################################################################

data_CSD_CIF_FOVRAK
_audit_creation_date 2009-09-01
_audit_creation_method CSD-ConQuest-V1
_database_code_CSD FOVRAK
_database_code_depnum_ccdc_archive 'CCDC 741691'
_chemical_formula_sum 'C11 H11 N1 O3'
_chemical_formula_moiety
;
C11 H11 N1 O3
;
_journal_coeditor_code "IUCr HK2683"
_journal_coden_Cambridge 1370
_journal_volume 65
_journal_year 2009
_journal_page_first o1691
_journal_name_full 'Acta Crystallogr.,Sect.E:Struct.Rep.Online '
loop_
_publ_author_name
"Hong Xu"
"Hongshun Sun"
"Ning Xu"
_chemical_name_systematic
;
(E)-5-(2-Nitroprop-1-enyl)-2,3-dihydro-1-benzofuran
;
_cell_volume   1033.446
_exptl_crystal_colour 'colorless'
_exptl_crystal_density_diffrn 1.319
_exptl_crystal_description 'block'
_exptl_crystal_preparation 'methanol'
_diffrn_ambient_temperature 293
#These two values have been output from a single CSD field.
_refine_ls_R_factor_gt 0.0547
_refine_ls_wR_factor_gt 0.0547
_symmetry_cell_setting monoclinic
_symmetry_space_group_name_H-M 'P 21'
_symmetry_Int_Tables_number 4
loop_
_symmetry_equiv_pos_site_id
_symmetry_equiv_pos_as_xyz
1 x,y,z
2 -x,1/2+y,-z
_cell_length_a 6.1280(12)
_cell_length_b 15.369(3)
_cell_length_c 11.193(2)
_cell_angle_alpha 90
_cell_angle_beta 101.38(3)
_cell_angle_gamma 90
_cell_formula_units_Z 4
loop_
_atom_type_symbol
_atom_type_radius_bond
C 0.68
H 0.23
N 0.68
O 0.68
loop_
_atom_site_label
_atom_site_type_symbol
_atom_site_fract_x
_atom_site_fract_y
_atom_site_fract_z
O1 O 0.7614(7) 0.4628(3) 0.6830(3)
O2 O 0.2010(8) 0.4770(4) 0.0356(4)
O3 O 0.2751(6) 0.3723(3) 0.1606(4)
O4 O 0.2376(7) 0.6709(3) 0.6129(4)
O5 O -0.3141(7) 0.6604(4) -0.0306(5)
O6 O -0.2291(7) 0.7649(3) 0.0949(4)
N1 N 0.3306(7) 0.4276(3) 0.0942(5)
N2 N -0.1822(7) 0.7083(3) 0.0289(4)
C1 C 0.9850(13) 0.4324(5) 0.7308(6)
H1 H 0.98280 0.39020 0.79500
H2 H 1.07830 0.48080 0.76510
C2 C 0.9084(8) 0.4194(3) 0.5194(5)
C3 C 0.7336(8) 0.4598(4) 0.5594(5)
C4 C 1.0773(10) 0.3913(5) 0.6293(5)
H3 H 1.08370 0.32850 0.63690
H4 H 1.22440 0.41350 0.62650
C5 C 0.9035(8) 0.4120(3) 0.3964(5)
H5 H 1.02070 0.38560 0.36870
C6 C 0.7209(7) 0.4443(3) 0.3137(5)
C7 C 0.5452(8) 0.4844(4) 0.3565(5)
H6 H 0.42360 0.50600 0.30140
C8 C 0.5529(9) 0.4917(4) 0.4809(5)
H7 H 0.43700 0.51790 0.51010
C9 C 0.7270(8) 0.4392(4) 0.1835(5)
H8 H 0.86990 0.43890 0.16700
C10 C 0.5669(9) 0.4350(4) 0.0849(5)
C11 C 0.597(1) 0.4375(5) -0.0440(6)
H9 H 0.75250 0.44240 -0.04560
H10 H 0.51880 0.48660 -0.08460
H11 H 0.53900 0.38490 -0.08470
C12 C 0.4566(12) 0.7054(5) 0.6645(5)
H12 H 0.55190 0.65920 0.70460
H13 H 0.44490 0.74980 0.72440
C13 C 0.3874(8) 0.7151(4) 0.4498(5)
C14 C 0.2113(8) 0.6758(4) 0.4893(5)
C15 C 0.5551(9) 0.7439(4) 0.5618(5)
H14 H 0.70200 0.72050 0.56140
H15 H 0.56400 0.80690 0.56740
C16 C 0.3809(8) 0.7200(4) 0.3276(5)
H16 H 0.49960 0.74530 0.30010
C17 C 0.2018(8) 0.6882(4) 0.2430(5)
C18 C 0.0343(9) 0.6479(3) 0.2890(5)
H17 H -0.08430 0.62410 0.23390
C19 C 0.0323(9) 0.6409(4) 0.4116(5)
H18 H -0.08390 0.61410 0.43970
C20 C 0.2089(8) 0.6926(4) 0.1136(5)
H19 H 0.35220 0.69170 0.09780
C21 C 0.0500(8) 0.6977(4) 0.0139(5)
C22 C 0.0741(11) 0.6899(6) -0.1155(5)
H20 H 0.22860 0.68340 -0.11870
H21 H 0.01630 0.74130 -0.15930
H22 H -0.00720 0.64000 -0.15180
#END
