
#######################################################################
#
#                 Cambridge Crystallographic Data Centre
#                                CCDC
#
#######################################################################
#
# If this CIF has been generated from an entry in the Cambridge
# Structural Database, then it will include bibliographic, chemical,
# crystal, experimental, refinement or atomic coordinate data resulting
# from the CCDC's data processing and validation procedures.
#
#######################################################################

data_CSD_CIF_FOVVAN
_audit_creation_date 1988-05-06
_audit_creation_method CSD-ConQuest-V1
_database_code_CSD FOVVAN
_chemical_formula_sum 'C11 H12 N2 O3'
_chemical_formula_moiety
;
C11 H12 N2 O3
;
_journal_coeditor_code "IUCr A27324"
_journal_coden_Cambridge 591
_journal_volume 43
_journal_year 1987
_journal_page_first 1569
_journal_name_full 'Acta Crystallogr.,Sect.C:Cryst.Struct.Commun. '
loop_
_publ_author_name
"W.H.Watson"
"A.P.Marchand"
"P.R.Dave"
_chemical_name_systematic
;
N-Hydroxy-3-nitro-4-azahexacyclo(5.4.1.0^2,6^.0^3,10^.0^5,9^.0^8,11^)dodecane
;
_chemical_melting_point 407
_cell_volume   1002.678
_exptl_crystal_colour 'colorless'
_exptl_crystal_density_diffrn 1.458
_exptl_special_details
;
Air-sensitive

;
_diffrn_ambient_temperature ?
_diffrn_special_details
;
The study was carried out at room temperature,in the range 283-303K

;
#These two values have been output from a single CSD field.
_refine_ls_R_factor_gt 0.091
_refine_ls_wR_factor_gt 0.091
_symmetry_cell_setting monoclinic
_symmetry_space_group_name_H-M 'P 21/c'
_symmetry_Int_Tables_number 14
loop_
_symmetry_equiv_pos_site_id
_symmetry_equiv_pos_as_xyz
1 x,y,z
2 -x,1/2+y,1/2-z
3 -x,-y,-z
4 x,-1/2-y,-1/2+z
_cell_length_a 9.924(7)
_cell_length_b 9.839(7)
_cell_length_c 10.287(7)
_cell_angle_alpha 90
_cell_angle_beta 93.40(6)
_cell_angle_gamma 90
_cell_formula_units_Z 4
loop_
_atom_type_symbol
_atom_type_radius_bond
C 0.68
H 0.23
N 0.68
O 0.68
loop_
_atom_site_label
_atom_site_type_symbol
_atom_site_fract_x
_atom_site_fract_y
_atom_site_fract_z
C1 C 0.629(1) 0.1090(11) 0.1731(8)
C2 C 0.7226(11) 0.0495(12) 0.0718(10)
C3 C 0.8449(9) 0.0841(10) 0.1662(9)
C4 C 0.7487(9) 0.1423(10) 0.2670(9)
C5 C 0.7402(8) 0.0383(8) 0.3702(7)
C6 C 0.7901(8) -0.0950(9) 0.3127(7)
C7 C 0.8947(9) -0.0540(13) 0.2142(9)
C8 C 0.8644(10) -0.1468(12) 0.0995(9)
C9 C 0.7159(10) -0.1036(13) 0.0798(10)
C10 C 0.6649(10) -0.1321(12) 0.2179(9)
C11 C 0.5672(8) -0.0143(10) 0.2442(8)
N1 N 0.5942(7) 0.0081(8) 0.3837(6)
N2 N 0.8061(9) 0.0686(9) 0.4984(8)
O1 O 0.5315(6) 0.1353(7) 0.4171(7)
O2 O 0.7614(7) 0.0289(9) 0.5971(6)
O3 O 0.9108(8) 0.1337(8) 0.4956(8)
H1 H 0.56140 0.17390 0.14450
H2 H 0.71280 0.07720 -0.01780
H3 H 0.92040 0.13730 0.14160
H4 H 0.76410 0.23020 0.30560
H5 H 0.82260 -0.16090 0.37580
H6 H 0.98690 -0.05620 0.24790
H7 H 0.91630 -0.12570 0.02630
H8 H 0.87510 -0.24120 0.12110
H9 H 0.66480 -0.14470 0.00800
H10 H 0.62770 -0.22150 0.22640
H11 H 0.47360 -0.02820 0.21880
H12 H 0.4684(76) 0.0862(73) 0.4840(76)
#END
