
#######################################################################
#
#                 Cambridge Crystallographic Data Centre
#                                CCDC
#
#######################################################################
#
# If this CIF has been generated from an entry in the Cambridge
# Structural Database, then it will include bibliographic, chemical,
# crystal, experimental, refinement or atomic coordinate data resulting
# from the CCDC's data processing and validation procedures.
#
#######################################################################

data_CSD_CIF_FOVVUH01
_audit_creation_date 2016-03-17
_audit_creation_method CSD-ConQuest-V1
_database_code_CSD FOVVUH01
_database_code_depnum_ccdc_archive 'CCDC 1402687'
_chemical_formula_sum 'C14 H10 N2 O2'
_chemical_formula_moiety
;
C14 H10 N2 O2
;
_journal_coden_Cambridge 1336
_journal_volume 18
_journal_year 2016
_journal_page_first 1100
_journal_name_full 'Org.Lett. '
loop_
_publ_author_name
"Shreesha V Bhat"
"D.Robinson"
"J.E.Moses"
"P.Sharma"
_chemical_name_systematic
;
3,4-diphenyl-1,2,4-oxadiazol-5(4H)-one
;
_cell_volume   1131.881
_exptl_crystal_colour 'colorless'
_exptl_crystal_density_diffrn 1.398
_exptl_crystal_description 'block'
_diffrn_ambient_temperature 120
#These two values have been output from a single CSD field.
_refine_ls_R_factor_gt 0.0433
_refine_ls_wR_factor_gt 0.0433
_symmetry_cell_setting monoclinic
_symmetry_space_group_name_H-M 'P 21/c'
_symmetry_Int_Tables_number 14
loop_
_symmetry_equiv_pos_site_id
_symmetry_equiv_pos_as_xyz
1 x,y,z
2 -x,1/2+y,1/2-z
3 -x,-y,-z
4 x,-1/2-y,-1/2+z
_cell_length_a 15.2095(12)
_cell_length_b 5.9093(4)
_cell_length_c 12.9247(11)
_cell_angle_alpha 90
_cell_angle_beta 102.997(8)
_cell_angle_gamma 90
_cell_formula_units_Z 4
loop_
_atom_type_symbol
_atom_type_radius_bond
C 0.68
H 0.23
N 0.68
O 0.68
loop_
_atom_site_label
_atom_site_type_symbol
_atom_site_fract_x
_atom_site_fract_y
_atom_site_fract_z
O1 O 0.85260(8) -0.14947(18) 0.40957(9)
O2 O 0.74239(7) 0.04045(17) 0.46528(7)
N1 N 0.68422(8) 0.2276(2) 0.42653(9)
N2 N 0.77686(8) 0.16055(19) 0.31919(9)
C1 C 0.79786(10) -0.0004(2) 0.39810(11)
C2 C 0.70837(9) 0.2917(2) 0.34066(10)
C3 C 0.66071(9) 0.4730(2) 0.27279(11)
C4 C 0.62769(10) 0.6573(2) 0.32020(12)
H1 H 0.63940 0.66890 0.39540
C5 C 0.57782(10) 0.8229(3) 0.25733(13)
H2 H 0.55520 0.94810 0.28950
C6 C 0.56082(10) 0.8066(3) 0.14753(13)
H3 H 0.52650 0.92060 0.10460
C7 C 0.59385(10) 0.6241(3) 0.10025(12)
H4 H 0.58230 0.61390 0.02500
C8 C 0.64370(9) 0.4564(2) 0.16255(11)
H5 H 0.66600 0.33110 0.13020
C9 C 0.82924(9) 0.1916(2) 0.24032(10)
C10 C 0.82977(10) 0.0214(2) 0.16641(11)
H6 H 0.79380 -0.11030 0.16550
C11 C 0.88387(10) 0.0476(3) 0.09382(11)
H7 H 0.88530 -0.06740 0.04290
C12 C 0.93575(10) 0.2407(3) 0.09542(11)
H8 H 0.97270 0.25740 0.04570
C13 C 0.93397(10) 0.4100(3) 0.16930(11)
H9 H 0.96940 0.54250 0.16970
C14 C 0.88055(9) 0.3864(2) 0.24265(11)
H10 H 0.87910 0.50150 0.29350
#END
