
#######################################################################
#
#                 Cambridge Crystallographic Data Centre
#                                CCDC
#
#######################################################################
#
# If this CIF has been generated from an entry in the Cambridge
# Structural Database, then it will include bibliographic, chemical,
# crystal, experimental, refinement or atomic coordinate data resulting
# from the CCDC's data processing and validation procedures.
#
#######################################################################

data_CSD_CIF_FOVVUH
_audit_creation_date 1988-05-05
_audit_creation_method CSD-ConQuest-V1
_database_code_CSD FOVVUH
_database_code_depnum_ccdc_archive 'CCDC 1159741'
_chemical_formula_sum 'C14 H10 N2 O2'
_chemical_formula_moiety
;
C14 H10 N2 O2
;
_journal_coeditor_code "IUCr A27331"
_journal_coden_Cambridge 591
_journal_volume 43
_journal_year 1987
_journal_page_first 1587
_journal_name_full 'Acta Crystallogr.,Sect.C:Cryst.Struct.Commun. '
loop_
_publ_author_name
"A.B.H.Amor"
"A.Kallel"
"B.Baccar"
"A.Driss"
"C.J.Gilmore"
_chemical_name_systematic
;
3,4-Diphenyl-1,2,4-oxadiazol-5-one
;
_cell_volume   1156.243
_exptl_crystal_density_diffrn 1.37
_diffrn_ambient_temperature ?
_diffrn_special_details
;
The study was carried out at room temperature,in the range 283-303K

;
#These two values have been output from a single CSD field.
_refine_ls_R_factor_gt 0.032
_refine_ls_wR_factor_gt 0.032
_symmetry_cell_setting monoclinic
_symmetry_space_group_name_H-M 'P 21/a'
_symmetry_Int_Tables_number 14
loop_
_symmetry_equiv_pos_site_id
_symmetry_equiv_pos_as_xyz
1 x,y,z
2 1/2-x,1/2+y,-z
3 -x,-y,-z
4 -1/2+x,-1/2-y,z
_cell_length_a 13.064(3)
_cell_length_b 5.903(2)
_cell_length_c 15.341(3)
_cell_angle_alpha 90
_cell_angle_beta 102.22(2)
_cell_angle_gamma 90
_cell_formula_units_Z 4
loop_
_atom_type_symbol
_atom_type_radius_bond
C 0.68
H 0.23
N 0.68
O 0.68
loop_
_atom_site_label
_atom_site_type_symbol
_atom_site_fract_x
_atom_site_fract_y
_atom_site_fract_z
N1 N 0.9224(2) 0.2259(4) 0.6853(1)
O1 O 0.9608(1) 0.0403(3) 0.7434(1)
C1 C 0.8949(2) 0.0018(4) 0.7979(2)
N2 N 0.8168(1) 0.1582(3) 0.7776(1)
C2 C 0.8375(2) 0.2884(3) 0.7096(1)
O2 O 0.9066(1) -0.1463(3) 0.8527(1)
C3 C 0.7704(2) 0.4682(4) 0.6624(1)
C4 C 0.8175(2) 0.6508(4) 0.6288(2)
C5 C 0.7552(3) 0.8135(4) 0.5791(2)
C6 C 0.6490(3) 0.7977(5) 0.5638(2)
C7 C 0.6020(2) 0.6185(5) 0.5972(2)
C8 C 0.6632(2) 0.4528(4) 0.6466(2)
C9 C 0.7382(2) 0.1866(3) 0.8294(1)
C10 C 0.7394(2) 0.3783(4) 0.8814(2)
C11 C 0.6670(2) 0.3990(5) 0.9336(2)
C12 C 0.5944(2) 0.2316(5) 0.9346(2)
C13 C 0.5936(2) 0.0419(5) 0.8825(2)
C14 C 0.6654(2) 0.0188(4) 0.8293(2)
H1 H 0.898(2) 0.657(4) 0.644(2)
H2 H 0.789(2) 0.927(5) 0.553(3)
H3 H 0.605(2) 0.900(5) 0.527(2)
H4 H 0.524(2) 0.606(4) 0.585(2)
H5 H 0.631(2) 0.339(4) 0.669(2)
H6 H 0.794(2) 0.492(5) 0.883(2)
H7 H 0.665(2) 0.539(5) 0.974(2)
H8 H 0.544(2) 0.253(4) 0.972(2)
H9 H 0.544(2) -0.068(5) 0.881(2)
H10 H 0.663(2) -0.109(5) 0.790(2)
#END
