
#######################################################################
#
#                 Cambridge Crystallographic Data Centre
#                                CCDC
#
#######################################################################
#
# If this CIF has been generated from an entry in the Cambridge
# Structural Database, then it will include bibliographic, chemical,
# crystal, experimental, refinement or atomic coordinate data resulting
# from the CCDC's data processing and validation procedures.
#
#######################################################################

data_CSD_CIF_FOVWOD
_audit_creation_date 2009-09-01
_audit_creation_method CSD-ConQuest-V1
_database_code_CSD FOVWOD
_database_code_depnum_ccdc_archive 'CCDC 712174'
_chemical_formula_sum 'C26 H24 N2 O4'
_chemical_formula_moiety
;
C26 H24 N2 O4
;
_journal_coeditor_code "IUCr HG2524"
_journal_coden_Cambridge 1370
_journal_volume 65
_journal_year 2009
_journal_page_first o1598
_journal_name_full 'Acta Crystallogr.,Sect.E:Struct.Rep.Online '
loop_
_publ_author_name
"Wen-Kui Dong"
"Jian-chao Wu"
"Jian Yao"
"Li Li"
"Shang-sheng Gong"
_chemical_name_systematic
;
2,2'-(4,7-Dioxa-3,8-diazadeca-2,8-diene-2,9-diyl)bis(1-naphthol)
;
_chemical_melting_point 471
_cell_volume   2158.518
_exptl_crystal_colour 'colorless'
_exptl_crystal_density_diffrn 1.318
_exptl_special_details
;
Melting point range 471-472K

;
_exptl_crystal_description 'block'
_exptl_crystal_preparation 'dichloromethane'
_diffrn_ambient_temperature 298
#These two values have been output from a single CSD field.
_refine_ls_R_factor_gt 0.0445
_refine_ls_wR_factor_gt 0.0445
_symmetry_cell_setting monoclinic
_symmetry_space_group_name_H-M 'C 2/c'
_symmetry_Int_Tables_number 15
loop_
_symmetry_equiv_pos_site_id
_symmetry_equiv_pos_as_xyz
1 x,y,z
2 -x,y,1/2-z
3 1/2+x,1/2+y,z
4 1/2-x,1/2+y,1/2-z
5 -x,-y,-z
6 x,-y,-1/2+z
7 -1/2-x,-1/2-y,-z
8 -1/2+x,-1/2-y,-1/2+z
_cell_length_a 12.6682(18)
_cell_length_b 9.3728(15)
_cell_length_c 18.335(2)
_cell_angle_alpha 90
_cell_angle_beta 97.478(2)
_cell_angle_gamma 90
_cell_formula_units_Z 4
loop_
_atom_type_symbol
_atom_type_radius_bond
C 0.68
H 0.23
N 0.68
O 0.68
loop_
_atom_site_label
_atom_site_type_symbol
_atom_site_fract_x
_atom_site_fract_y
_atom_site_fract_z
N1 N 0.97510(17) 0.0879(2) 0.61829(11)
O1 O 1.04967(14) 0.11327(19) 0.68140(9)
O2 O 0.84279(14) -0.06506(17) 0.53429(9)
H1 H 0.88310 -0.04560 0.57170
C1 C 1.0479(2) -0.0049(3) 0.73030(14)
H2 H 1.11130 -0.00240 0.76610
H3 H 1.04930 -0.09290 0.70250
C2 C 0.9707(2) 0.1902(3) 0.57048(14)
C3 C 1.0376(2) 0.3226(3) 0.58230(16)
H4 H 1.09380 0.30720 0.62200
H5 H 0.99410 0.40090 0.59420
H6 H 1.06780 0.34440 0.53820
C4 C 0.83740(19) 0.0469(3) 0.48738(13)
C5 C 0.89572(19) 0.1710(2) 0.50274(12)
C6 C 0.8818(2) 0.2819(3) 0.44918(15)
H7 H 0.92020 0.36600 0.45820
C7 C 0.8146(2) 0.2692(3) 0.38547(16)
H8 H 0.80650 0.34540 0.35270
C8 C 0.7568(2) 0.1424(3) 0.36816(14)
C9 C 0.7676(2) 0.0289(3) 0.42035(13)
C10 C 0.7106(2) -0.0991(3) 0.40331(15)
H9 H 0.71630 -0.17370 0.43700
C11 C 0.6470(2) -0.1137(4) 0.33734(18)
H10 H 0.60970 -0.19820 0.32660
C12 C 0.6378(2) -0.0025(4) 0.28598(17)
H11 H 0.59570 -0.01460 0.24090
C13 C 0.6896(2) 0.1227(4) 0.30122(15)
H12 H 0.68070 0.19660 0.26710
N1A N 1.02490(17) 0.0879(2) 0.88171(11)
O1A O 0.95033(14) 0.11327(19) 0.81860(9)
O2A O 1.15721(14) -0.06506(17) 0.96571(9)
H1A H 1.11690 -0.04560 0.92830
C1A C 0.9521(2) -0.0049(3) 0.76970(14)
H2A H 0.88870 -0.00240 0.73390
H3A H 0.95070 -0.09290 0.79750
C2A C 1.0293(2) 0.1902(3) 0.92952(14)
C3A C 0.9624(2) 0.3226(3) 0.91770(16)
H4A H 0.90620 0.30720 0.87800
H5A H 1.00590 0.40090 0.90580
H6A H 0.93220 0.34440 0.96180
C4A C 1.16260(19) 0.0469(3) 1.01262(13)
C5A C 1.10428(19) 0.1710(2) 0.99726(12)
C6A C 1.1182(2) 0.2819(3) 1.05082(15)
H7A H 1.07980 0.36600 1.04180
C7A C 1.1854(2) 0.2692(3) 1.11453(16)
H8A H 1.19350 0.34540 1.14730
C8A C 1.2432(2) 0.1424(3) 1.13184(14)
C9A C 1.2324(2) 0.0289(3) 1.07965(13)
C10A C 1.2894(2) -0.0991(3) 1.09669(15)
H9A H 1.28370 -0.17370 1.06300
C11A C 1.3530(2) -0.1137(4) 1.16266(18)
H10A H 1.39030 -0.19820 1.17340
C12A C 1.3622(2) -0.0025(4) 1.21402(17)
H11A H 1.40430 -0.01460 1.25910
C13A C 1.3104(2) 0.1227(4) 1.19878(15)
H12A H 1.31930 0.19660 1.23290
#END
