
#######################################################################
#
#                 Cambridge Crystallographic Data Centre
#                                CCDC
#
#######################################################################
#
# If this CIF has been generated from an entry in the Cambridge
# Structural Database, then it will include bibliographic, chemical,
# crystal, experimental, refinement or atomic coordinate data resulting
# from the CCDC's data processing and validation procedures.
#
#######################################################################

data_CSD_CIF_FOVYOE
_audit_creation_date 1988-05-06
_audit_creation_method CSD-ConQuest-V1
_database_code_CSD FOVYOE
_chemical_formula_sum 'C13 H11 N3 O3'
_chemical_formula_moiety
;
C13 H11 N3 O3
;
_journal_coeditor_code "IUCr A27414"
_journal_coden_Cambridge 591
_journal_volume 43
_journal_year 1987
_journal_page_first 1793
_journal_name_full 'Acta Crystallogr.,Sect.C:Cryst.Struct.Commun. '
loop_
_publ_author_name
"I.Moustakali-Mavridis"
"A.Terzis"
"E.Hadjoudis"
_chemical_name_systematic
;
2-Methoxy-N-(4-nitrobenzylidene)-5-pyridylamine
;
_cell_volume   1231.058
_exptl_crystal_density_diffrn 1.388
_exptl_special_details
;
monoclinic P21/n polymorph
Cell parameter b should be 8.376

;
_diffrn_ambient_temperature ?
_diffrn_special_details
;
The study was carried out at room temperature,in the range 283-303K

;
#These two values have been output from a single CSD field.
_refine_ls_R_factor_gt 0.0374
_refine_ls_wR_factor_gt 0.0374
_symmetry_cell_setting monoclinic
_symmetry_space_group_name_H-M 'P 21/n'
_symmetry_Int_Tables_number 14
loop_
_symmetry_equiv_pos_site_id
_symmetry_equiv_pos_as_xyz
1 x,y,z
2 1/2-x,1/2+y,1/2-z
3 -x,-y,-z
4 -1/2+x,-1/2-y,-1/2+z
_cell_length_a 11.080(2)
_cell_length_b 8.376(1)
_cell_length_c 14.364(2)
_cell_angle_alpha 90
_cell_angle_beta 112.56(1)
_cell_angle_gamma 90
_cell_formula_units_Z 4
loop_
_atom_type_symbol
_atom_type_radius_bond
C 0.68
H 0.23
N 0.68
O 0.68
loop_
_atom_site_label
_atom_site_type_symbol
_atom_site_fract_x
_atom_site_fract_y
_atom_site_fract_z
C1 C 0.4361(1) 0.3166(2) 0.0337(1)
C2 C 0.3269(1) 0.2810(2) -0.0524(1)
C3 C 0.3390(1) 0.1985(2) -0.1314(1)
C4 C 0.4620(1) 0.1529(2) -0.1229(1)
C5 C 0.5732(2) 0.1890(2) -0.0396(1)
C6 C 0.5594(1) 0.2708(2) 0.0387(1)
C7 C 0.4196(1) 0.4040(2) 0.1163(1)
C8 C 0.4914(1) 0.5194(2) 0.2755(1)
C9 C 0.3735(2) 0.5275(2) 0.2892(1)
C10 C 0.3675(2) 0.6107(2) 0.3685(1)
C11 C 0.4798(1) 0.6851(2) 0.4339(1)
C12 C 0.5968(1) 0.5962(2) 0.3456(1)
C13 C 0.5861(2) 0.8412(3) 0.5815(2)
N1 N 0.5135(1) 0.4354(2) 0.1981(1)
N2 N 0.5932(1) 0.6798(2) 0.4242(1)
N3 N 0.4755(1) 0.0623(2) -0.2059(1)
O1 O 0.4699(1) 0.7652(2) 0.5126(1)
O2 O 0.5843(1) 0.0461(2) -0.2060(1)
O3 O 0.3776(1) 0.0101(2) -0.2718(1)
H1 H 0.243(2) 0.314(2) -0.057(1)
H2 H 0.268(2) 0.179(2) -0.189(1)
H3 H 0.651(2) 0.159(2) -0.038(1)
H4 H 0.634(2) 0.300(2) 0.099(1)
H5 H 0.329(2) 0.440(2) 0.103(1)
H6 H 0.301(2) 0.475(2) 0.248(1)
H7 H 0.298(2) 0.613(2) 0.384(1)
H8 H 0.682(2) 0.598(2) 0.337(1)
H9 H 0.662(2) 0.765(3) 0.615(1)
H10 H 0.615(2) 0.927(3) 0.544(2)
H11 H 0.562(2) 0.888(3) 0.628(2)
#END
