
#######################################################################
#
#                 Cambridge Crystallographic Data Centre
#                                CCDC
#
#######################################################################
#
# If this CIF has been generated from an entry in the Cambridge
# Structural Database, then it will include bibliographic, chemical,
# crystal, experimental, refinement or atomic coordinate data resulting
# from the CCDC's data processing and validation procedures.
#
#######################################################################

data_CSD_CIF_FOWLUZ
_audit_creation_date 2009-09-01
_audit_creation_method CSD-ConQuest-V1
_database_code_CSD FOWLUZ
_database_code_depnum_ccdc_archive 'CCDC 744368'
_chemical_formula_sum 'C10 H14 N1 O1'
_chemical_formula_moiety
;
C10 H14 N1 O1
;
_journal_coeditor_code "IUCr NC2152"
_journal_coden_Cambridge 1370
_journal_volume 65
_journal_year 2009
_journal_page_first o1848
_journal_name_full 'Acta Crystallogr.,Sect.E:Struct.Rep.Online '
loop_
_publ_author_name
"O.Frolow"
"J.W.Bats"
"J.W.Engels"
_chemical_name_systematic
;
3-Ethynyl-2,2,5,5-tetramethyl-1-oxyl-3-pyrroline
;
_cell_volume    966.566
_exptl_crystal_colour 'yellow'
_exptl_crystal_density_diffrn 1.129
_exptl_special_details
;
Nitroxide spin label compound for use EPR measurements of DNA and RNA

;
_exptl_crystal_description 'plate'
_exptl_crystal_preparation 'ethanol'
_diffrn_ambient_temperature 167
#These two values have been output from a single CSD field.
_refine_ls_R_factor_gt 0.0617
_refine_ls_wR_factor_gt 0.0617
_symmetry_cell_setting monoclinic
_symmetry_space_group_name_H-M 'P 21/c'
_symmetry_Int_Tables_number 14
loop_
_symmetry_equiv_pos_site_id
_symmetry_equiv_pos_as_xyz
1 x,y,z
2 -x,1/2+y,1/2-z
3 -x,-y,-z
4 x,-1/2-y,-1/2+z
_cell_length_a 7.9326(15)
_cell_length_b 19.058(4)
_cell_length_c 6.5989(11)
_cell_angle_alpha 90
_cell_angle_beta 104.333(14)
_cell_angle_gamma 90
_cell_formula_units_Z 4
loop_
_atom_type_symbol
_atom_type_radius_bond
C 0.68
H 0.23
N 0.68
O 0.68
loop_
_atom_site_label
_atom_site_type_symbol
_atom_site_fract_x
_atom_site_fract_y
_atom_site_fract_z
O1 O 0.62303(13) 0.37389(6) 0.53230(15)
N1 N 0.54492(14) 0.37427(7) 0.33858(17)
C1 C 0.63968(16) 0.37208(8) 0.1714(2)
C2 C 0.48802(18) 0.37338(8) -0.0187(2)
C3 C 0.33449(17) 0.37599(8) 0.0304(2)
C4 C 0.35322(16) 0.37802(8) 0.2659(2)
C5 C 0.16502(18) 0.37655(8) -0.1101(2)
C6 C 0.0205(2) 0.37657(10) -0.2191(2)
C7 C 0.7461(2) 0.30471(8) 0.1866(3)
H1 H 0.66830 0.26410 0.17190
H2 H 0.83070 0.30280 0.32280
H3 H 0.80770 0.30400 0.07500
C8 C 0.7560(2) 0.43669(9) 0.1864(3)
H4 H 0.68490 0.47920 0.17630
H5 H 0.81460 0.43600 0.07190
H6 H 0.84330 0.43630 0.32060
C9 C 0.2700(2) 0.31455(9) 0.3439(2)
H7 H 0.31920 0.27140 0.30170
H8 H 0.14410 0.31530 0.28330
H9 H 0.29330 0.31620 0.49670
C10 C 0.2884(2) 0.44689(9) 0.3368(3)
H10 H 0.34870 0.48620 0.28980
H11 H 0.31190 0.44750 0.48970
H12 H 0.16290 0.45120 0.27640
H13 H 0.503(2) 0.3735(9) -0.161(3)
H14 H -0.098(3) 0.3781(10) -0.308(3)
#END
