
#######################################################################
#
#                 Cambridge Crystallographic Data Centre
#                                CCDC
#
#######################################################################
#
# If this CIF has been generated from an entry in the Cambridge
# Structural Database, then it will include bibliographic, chemical,
# crystal, experimental, refinement or atomic coordinate data resulting
# from the CCDC's data processing and validation procedures.
#
#######################################################################

data_CSD_CIF_FOWPOX
_audit_creation_date 2009-09-01
_audit_creation_method CSD-ConQuest-V1
_database_code_CSD FOWPOX
_database_code_depnum_ccdc_archive 'CCDC 744386'
_chemical_formula_sum 'C37 H50 N2 O3'
_chemical_formula_moiety
;
C37 H50 N2 O3
;
_journal_coeditor_code "IUCr GK2215"
_journal_coden_Cambridge 1370
_journal_volume 65
_journal_year 2009
_journal_page_first o1872
_journal_name_full 'Acta Crystallogr.,Sect.E:Struct.Rep.Online '
loop_
_publ_author_name
"Jun Hu"
"Xiaoyun Gong"
"Ruji Wang"
"Yong Ju"
_chemical_name_systematic
;
Benzyl 3-dehydroxy-1,2,5-oxadiazolo[3',4':2,3]oleanolate
;
_chemical_name_common
;
Benzyl 
2,2,6a,6b,9,9,13a-heptamethyl-1,3,4,5,6,6a,6b,7,8,8a,9,13,13a,13b,14,15b-hexad
ecahydropiceno[2,3-c][1,2,5]oxadiazole-4a(2H)-carboxylate
;
_cell_volume   3233.798
_exptl_crystal_colour 'colorless'
_exptl_crystal_density_diffrn 1.172
_exptl_special_details
;
Inhibits growth of HepG-2 tumour cells

;
_exptl_crystal_description 'prism'
_exptl_crystal_preparation 'acetone/chloroform'
_diffrn_ambient_temperature 295
#These two values have been output from a single CSD field.
_refine_ls_R_factor_gt 0.0537
_refine_ls_wR_factor_gt 0.0537
_symmetry_cell_setting orthorhombic
_symmetry_space_group_name_H-M 'P 21 21 21'
_symmetry_Int_Tables_number 19
loop_
_symmetry_equiv_pos_site_id
_symmetry_equiv_pos_as_xyz
1 x,y,z
2 1/2-x,-y,1/2+z
3 -x,1/2+y,1/2-z
4 1/2+x,1/2-y,-z
_cell_length_a 8.7124(19)
_cell_length_b 19.054(3)
_cell_length_c 19.480(3)
_cell_angle_alpha 90
_cell_angle_beta 90
_cell_angle_gamma 90
_cell_formula_units_Z 4
loop_
_atom_type_symbol
_atom_type_radius_bond
C 0.68
H 0.23
N 0.68
O 0.68
loop_
_atom_site_label
_atom_site_type_symbol
_atom_site_fract_x
_atom_site_fract_y
_atom_site_fract_z
O1 O 1.1911(2) 0.29241(10) 0.64263(10)
O2 O 0.4830(2) 0.57882(10) 0.26204(9)
O3 O 0.2427(2) 0.55498(10) 0.29343(10)
N1 N 1.0434(3) 0.26443(11) 0.64843(12)
N2 N 1.1866(3) 0.35735(12) 0.60900(12)
C1 C 0.9740(3) 0.42957(13) 0.55969(15)
H1 H 1.04690 0.44750 0.52640
H2 H 0.95140 0.46670 0.59220
C2 C 1.0416(3) 0.36797(13) 0.59652(13)
C3 C 0.9526(3) 0.31095(13) 0.62036(14)
C4 C 0.7825(3) 0.30445(13) 0.61483(14)
C5 C 0.7189(3) 0.37107(12) 0.57597(13)
H3 H 0.70440 0.40640 0.61190
C6 C 0.5586(3) 0.35847(13) 0.54702(15)
H4 H 0.49630 0.33440 0.58090
H5 H 0.56540 0.32890 0.50660
C7 C 0.4830(3) 0.42843(13) 0.52804(14)
H6 H 0.47050 0.45620 0.56940
H7 H 0.38150 0.41910 0.50970
C8 C 0.5739(3) 0.47144(12) 0.47542(13)
C9 C 0.7459(3) 0.47566(12) 0.49632(13)
H8 H 0.74810 0.50770 0.53570
C10 C 0.8244(3) 0.40676(12) 0.52265(14)
C11 C 0.8355(3) 0.51355(12) 0.44024(14)
H9 H 0.93200 0.52990 0.45930
H10 H 0.85930 0.48040 0.40400
C12 C 0.7521(3) 0.57467(13) 0.40973(13)
H11 H 0.80760 0.60330 0.38010
C13 C 0.6062(3) 0.59207(12) 0.42089(13)
C14 C 0.5073(3) 0.54920(12) 0.47100(13)
C15 C 0.3371(3) 0.54676(13) 0.44892(15)
H12 H 0.32450 0.50990 0.41500
H13 H 0.27520 0.53440 0.48850
C16 C 0.2764(3) 0.61563(12) 0.41882(13)
H14 H 0.17170 0.60860 0.40340
H15 H 0.27490 0.65100 0.45460
C17 C 0.3727(3) 0.64233(13) 0.35880(14)
C18 C 0.5388(3) 0.65564(12) 0.38321(13)
H16 H 0.60140 0.66300 0.34200
C19 C 0.5519(3) 0.72292(12) 0.42714(13)
H17 H 0.50030 0.71510 0.47060
H18 H 0.65940 0.73160 0.43690
C20 C 0.4830(4) 0.78871(12) 0.39294(14)
C21 C 0.3161(3) 0.77305(13) 0.37401(14)
H19 H 0.25780 0.76480 0.41560
H20 H 0.27240 0.81370 0.35120
C22 C 0.3016(3) 0.70920(13) 0.32701(14)
H21 H 0.35230 0.71920 0.28370
H22 H 0.19390 0.70070 0.31750
C23 C 0.7150(4) 0.30364(15) 0.68788(14)
H23 H 0.75260 0.26330 0.71220
H24 H 0.60500 0.30150 0.68530
H25 H 0.74510 0.34550 0.71170
C24 C 0.7422(4) 0.23391(13) 0.57912(16)
H26 H 0.78360 0.23370 0.53340
H27 H 0.63270 0.22870 0.57700
H28 H 0.78530 0.19570 0.60480
C25 C 0.8705(3) 0.35522(13) 0.46425(14)
H29 H 0.78000 0.33940 0.44080
H30 H 0.92330 0.31560 0.48350
H31 H 0.93680 0.37880 0.43230
C26 C 0.5545(3) 0.43558(13) 0.40356(13)
H32 H 0.44780 0.42590 0.39560
H33 H 0.61150 0.39250 0.40270
H34 H 0.59220 0.46640 0.36840
C27 C 0.5144(3) 0.58773(12) 0.54287(12)
H35 H 0.47320 0.63420 0.53840
H36 H 0.61910 0.59040 0.55800
H37 H 0.45510 0.56190 0.57580
C28 C 0.4855(4) 0.85000(13) 0.44522(15)
H38 H 0.58970 0.86060 0.45730
H39 H 0.42960 0.83670 0.48570
H40 H 0.43860 0.89070 0.42510
C29 C 0.5774(4) 0.81142(14) 0.33019(15)
H41 H 0.57880 0.77410 0.29710
H42 H 0.68050 0.82190 0.34420
H43 H 0.53190 0.85250 0.31010
C30 C 0.3771(3) 0.58947(14) 0.30003(14)
C31 C 0.2337(4) 0.50425(15) 0.23783(15)
H44 H 0.31750 0.47090 0.24100
H45 H 0.23990 0.52780 0.19380
C32 C 0.0835(3) 0.46753(14) 0.24481(14)
C33 C 0.0760(4) 0.39893(15) 0.26336(16)
H46 H 0.16680 0.37440 0.27080
C34 C -0.0612(4) 0.36458(17) 0.27150(17)
H47 H -0.06340 0.31740 0.28370
C35 C -0.1919(4) 0.40016(18) 0.26151(17)
H48 H -0.28490 0.37710 0.26820
C36 C -0.1941(4) 0.4695(2) 0.24168(16)
H49 H -0.28580 0.49300 0.23340
C37 C -0.0519(4) 0.50313(16) 0.23452(15)
H50 H -0.04900 0.55040 0.22260
#END
