
#######################################################################
#
#                 Cambridge Crystallographic Data Centre
#                                CCDC
#
#######################################################################
#
# If this CIF has been generated from an entry in the Cambridge
# Structural Database, then it will include bibliographic, chemical,
# crystal, experimental, refinement or atomic coordinate data resulting
# from the CCDC's data processing and validation procedures.
#
#######################################################################

data_CSD_CIF_FOXCEC
_audit_creation_date 2014-11-12
_audit_creation_method CSD-ConQuest-V1
_database_code_CSD FOXCEC
_database_code_depnum_ccdc_archive 'CCDC 932606'
_chemical_formula_sum 'C12 H10 N2 O4'
_chemical_formula_moiety
;
C12 H10 N2 O4
;
_journal_coden_Cambridge 1003
_journal_volume 44
_journal_year 2014
_journal_page_first 450
_journal_name_full 'J.Chem.Cryst. '
loop_
_publ_author_name
"Dhananjay Dey"
"V.Prakash"
"D.Chopra"
"Vasu"
"M.Srinivas"
_chemical_name_systematic
;
ethyl 2-cyano-3-(4-nitrophenyl)acrylate
;
_cell_volume   1160.243
_exptl_crystal_density_diffrn 1.41
_diffrn_ambient_temperature 298
#These two values have been output from a single CSD field.
_refine_ls_R_factor_gt 0.0515
_refine_ls_wR_factor_gt 0.0515
_symmetry_cell_setting monoclinic
_symmetry_space_group_name_H-M 'P 21/c'
_symmetry_Int_Tables_number 14
loop_
_symmetry_equiv_pos_site_id
_symmetry_equiv_pos_as_xyz
1 x,y,z
2 -x,1/2+y,1/2-z
3 -x,-y,-z
4 x,-1/2-y,-1/2+z
_cell_length_a 15.452(7)
_cell_length_b 4.1836(19)
_cell_length_c 20.985(9)
_cell_angle_alpha 90
_cell_angle_beta 121.21(3)
_cell_angle_gamma 90
_cell_formula_units_Z 4
loop_
_atom_type_symbol
_atom_type_radius_bond
C 0.68
H 0.23
N 0.68
O 0.68
loop_
_atom_site_label
_atom_site_type_symbol
_atom_site_fract_x
_atom_site_fract_y
_atom_site_fract_z
O1 O -0.21807(15) 0.7761(5) 0.03334(13)
O2 O 0.4381(2) 1.5398(9) 0.37061(18)
O3 O 0.5031(2) 1.2559(9) 0.32092(17)
O4 O -0.12393(16) 0.5483(6) -0.00595(13)
N1 N 0.4308(2) 1.3560(9) 0.32328(19)
N2 N -0.0949(2) 1.2322(8) 0.17797(18)
C1 C -0.3663(3) 0.5260(11) 0.0152(2)
H1 H -0.32540 0.40720 0.06020
H2 H -0.42490 0.40240 -0.01840
H3 H -0.38730 0.72280 0.02660
C2 C -0.3078(2) 0.595(1) -0.0197(2)
H4 H -0.34810 0.71860 -0.06480
H5 H -0.28790 0.39740 -0.03280
C3 C 0.0448(2) 0.8794(7) 0.10676(17)
H6 H 0.04760 0.75690 0.07090
C4 C 0.1412(2) 1.0152(7) 0.16291(16)
C5 C 0.1557(2) 1.1993(8) 0.22325(18)
H7 H 0.10080 1.24570 0.22840
C6 C 0.2497(2) 1.3124(8) 0.27496(19)
H8 H 0.25880 1.43700 0.31470
C7 C 0.3301(2) 1.2387(8) 0.26710(19)
C8 C 0.2253(2) 0.9501(9) 0.15700(19)
H9 H 0.21690 0.82950 0.11690
C9 C 0.3201(2) 1.0591(9) 0.20866(19)
H10 H 0.37580 1.01330 0.20430
C10 C -0.0718(2) 1.0823(8) 0.14363(19)
C11 C -0.0475(2) 0.9002(7) 0.09768(17)
C12 C -0.1326(2) 0.7215(8) 0.03563(19)
#END
