
#######################################################################
#
#                 Cambridge Crystallographic Data Centre
#                                CCDC
#
#######################################################################
#
# If this CIF has been generated from an entry in the Cambridge
# Structural Database, then it will include bibliographic, chemical,
# crystal, experimental, refinement or atomic coordinate data resulting
# from the CCDC's data processing and validation procedures.
#
#######################################################################

data_CSD_CIF_FOXCUR
_audit_creation_date 2009-09-01
_audit_creation_method CSD-ConQuest-V1
_database_code_CSD FOXCUR
_database_code_depnum_ccdc_archive 'CCDC 709779'
_chemical_formula_sum 'C17 H26 N2 O4'
_chemical_formula_moiety
;
C17 H26 N2 O4
;
_journal_coden_Cambridge 35
_journal_volume 74
_journal_year 2009
_journal_page_first 1252
_journal_name_full 'J.Org.Chem. '
loop_
_publ_author_name
"Yan Huang"
"Qiong Li"
"Tian-Liang Liu"
"Peng-Fei Xu"
_chemical_name_systematic
;
10-Isopropyl-5,13,13-trimethyl-11-nitro-7-oxa-12-azatetracyclo[7.2.1.1^2,5^.0^
1,6^]tridecan-8-one
;
_cell_volume    838.308
_exptl_crystal_colour 'colorless'
_exptl_crystal_density_diffrn 1.277
_exptl_crystal_description 'rod'
_diffrn_ambient_temperature 294
#These two values have been output from a single CSD field.
_refine_ls_R_factor_gt 0.0416
_refine_ls_wR_factor_gt 0.0416
loop_
_citation_database_id_CSD
_citation_special_details
FONYUD "is a stereoisomer of this entry"
_symmetry_cell_setting monoclinic
_symmetry_space_group_name_H-M 'P 21'
_symmetry_Int_Tables_number 4
loop_
_symmetry_equiv_pos_site_id
_symmetry_equiv_pos_as_xyz
1 x,y,z
2 -x,1/2+y,-z
_cell_length_a 10.810(2)
_cell_length_b 6.9349(15)
_cell_length_c 12.216(3)
_cell_angle_alpha 90
_cell_angle_beta 113.738(3)
_cell_angle_gamma 90
_cell_formula_units_Z 2
loop_
_atom_type_symbol
_atom_type_radius_bond
C 0.68
H 0.23
N 0.68
O 0.68
loop_
_atom_site_label
_atom_site_type_symbol
_atom_site_fract_x
_atom_site_fract_y
_atom_site_fract_z
O1 O 0.07703(17) 1.0983(3) 0.20065(16)
O2 O 0.0801(2) 1.3385(3) 0.08284(19)
O3 O 0.53279(19) 0.8225(3) 0.24498(19)
O4 O 0.4599(2) 0.5322(3) 0.2076(2)
N1 N 0.4412(2) 0.7051(4) 0.21072(19)
N2 N 0.3376(2) 1.0718(3) 0.27537(18)
C1 C -0.0272(3) 0.9043(5) 0.3551(3)
H1 H -0.10210 0.86100 0.28500
H2 H -0.02730 1.04270 0.35810
H3 H -0.03520 0.85330 0.42500
C2 C 0.1041(2) 0.8347(4) 0.3508(2)
C3 C 0.1203(3) 0.6137(4) 0.3475(3)
H4 H 0.06970 0.56370 0.26770
H5 H 0.08930 0.55040 0.40270
C4 C 0.2738(3) 0.5825(4) 0.3857(3)
H6 H 0.31290 0.51070 0.46000
H7 H 0.29230 0.51520 0.32430
C5 C 0.3277(3) 0.7910(3) 0.4016(2)
H8 H 0.42500 0.80230 0.44990
C6 C 0.2374(3) 0.8918(4) 0.4572(2)
C7 C 0.2576(3) 1.1090(4) 0.4784(3)
H9 H 0.20300 1.15420 0.51860
H10 H 0.23140 1.17400 0.40300
H11 H 0.35100 1.13510 0.52690
C8 C 0.2535(3) 0.8007(5) 0.5772(3)
H12 H 0.34390 0.82160 0.63540
H13 H 0.23610 0.66470 0.56660
H14 H 0.19040 0.85900 0.60450
C9 C 0.2812(2) 0.8807(3) 0.2773(2)
C10 C 0.1257(2) 0.9029(4) 0.2397(2)
H15 H 0.07880 0.81360 0.17380
C11 C 0.2980(2) 0.7726(4) 0.1725(2)
H16 H 0.23550 0.66320 0.14620
C12 C 0.2570(2) 0.9304(4) 0.0747(2)
H17 H 0.16060 0.91190 0.02530
C13 C 0.2692(2) 1.1194(4) 0.1478(2)
H18 H 0.31920 1.21840 0.12530
C14 C 0.1344(3) 1.1951(4) 0.1374(2)
C15 C 0.3287(3) 0.9340(4) -0.0113(2)
H19 H 0.42520 0.95870 0.03470
C16 C 0.2700(3) 1.0952(5) -0.1022(3)
H20 H 0.17440 1.07640 -0.14420
H21 H 0.31190 1.09360 -0.15810
H22 H 0.28670 1.21710 -0.06160
C17 C 0.3125(4) 0.7418(5) -0.0764(3)
H23 H 0.21830 0.71710 -0.12240
H24 H 0.34990 0.64030 -0.01900
H25 H 0.35910 0.74690 -0.12860
H26 H 0.4261(11) 1.057(3) 0.293(2)
#END
