
#######################################################################
#
#                 Cambridge Crystallographic Data Centre
#                                CCDC
#
#######################################################################
#
# If this CIF has been generated from an entry in the Cambridge
# Structural Database, then it will include bibliographic, chemical,
# crystal, experimental, refinement or atomic coordinate data resulting
# from the CCDC's data processing and validation procedures.
#
#######################################################################

data_CSD_CIF_FOXCAY
_audit_creation_date 2014-11-12
_audit_creation_method CSD-ConQuest-V1
_database_code_CSD FOXCAY
_database_code_depnum_ccdc_archive 'CCDC 932607'
_chemical_formula_sum 'C12 H10 N2 O4'
_chemical_formula_moiety
;
C12 H10 N2 O4
;
_journal_coden_Cambridge 1003
_journal_volume 44
_journal_year 2014
_journal_page_first 450
_journal_name_full 'J.Chem.Cryst. '
loop_
_publ_author_name
"Dhananjay Dey"
"V.Prakash"
"D.Chopra"
"Vasu"
"M.Srinivas"
_chemical_name_systematic
;
ethyl 2-cyano-3-(3-nitrophenyl)acrylate
;
_cell_volume    582.532
_exptl_crystal_density_diffrn 1.404
_diffrn_ambient_temperature 298
#These two values have been output from a single CSD field.
_refine_ls_R_factor_gt 0.0943
_refine_ls_wR_factor_gt 0.0943
_symmetry_cell_setting triclinic
_symmetry_space_group_name_H-M 'P -1'
_symmetry_Int_Tables_number 2
loop_
_symmetry_equiv_pos_site_id
_symmetry_equiv_pos_as_xyz
1 x,y,z
2 -x,-y,-z
_cell_length_a 4.0490(5)
_cell_length_b 10.7699(14)
_cell_length_c 13.8840(18)
_cell_angle_alpha 103.980(12)
_cell_angle_beta 96.908(8)
_cell_angle_gamma 91.065(8)
_cell_formula_units_Z 2
loop_
_atom_type_symbol
_atom_type_radius_bond
C 0.68
H 0.23
N 0.68
O 0.68
loop_
_atom_site_label
_atom_site_type_symbol
_atom_site_fract_x
_atom_site_fract_y
_atom_site_fract_z
O1 O 1.1420(9) 0.3554(3) 0.9962(2)
O2 O 0.5670(8) 0.0247(3) 0.3799(2)
O3 O 0.8767(10) 0.1883(4) 0.9057(2)
O4 O 0.7574(6) 0.1430(3) 0.28386(17)
N1 N 1.2635(9) 0.3822(4) 0.4042(3)
N2 N 1.0384(9) 0.2865(3) 0.9148(2)
C1 C 1.1152(8) 0.3235(4) 0.8243(3)
C2 C 1.3624(10) 0.4710(4) 0.7492(3)
H1 H 1.48780 0.54620 0.75470
C3 C 1.2474(9) 0.3959(3) 0.6564(3)
H2 H 1.29390 0.42110 0.59970
C4 C 1.0600(8) 0.2813(3) 0.6455(2)
C5 C 0.9954(8) 0.2451(3) 0.7315(3)
H3 H 0.87340 0.16930 0.72660
C6 C 0.9132(8) 0.1984(3) 0.5493(3)
H4 H 0.78900 0.12710 0.55410
C7 C 0.9284(8) 0.2083(3) 0.4556(2)
C8 C 0.7305(8) 0.1135(4) 0.3703(3)
C9 C 0.5541(11) 0.0671(4) 0.1954(3)
H5 H 0.34530 0.03940 0.21310
H6 H 0.66900 -0.00850 0.16640
C10 C 0.4902(16) 0.1445(6) 0.1232(4)
H7 H 0.35860 0.21480 0.14990
H8 H 0.37180 0.09280 0.06220
H9 H 0.69790 0.17690 0.10990
C11 C 1.1118(9) 0.3075(4) 0.4287(2)
C12 C 1.2948(9) 0.4367(4) 0.8351(3)
H10 H 1.36890 0.48880 0.89820
#END
