
#######################################################################
#
#                 Cambridge Crystallographic Data Centre
#                                CCDC
#
#######################################################################
#
# If this CIF has been generated from an entry in the Cambridge
# Structural Database, then it will include bibliographic, chemical,
# crystal, experimental, refinement or atomic coordinate data resulting
# from the CCDC's data processing and validation procedures.
#
#######################################################################

data_CSD_CIF_FOYNUC
_audit_creation_date 1988-07-18
_audit_creation_method CSD-ConQuest-V1
_database_code_CSD FOYNUC
_database_code_depnum_ccdc_archive 'CCDC 1160034'
_chemical_formula_sum 'C12 H11 N1 O3'
_chemical_formula_moiety
;
C12 H11 N1 O3
;
_journal_coeditor_code "IUCr A27494"
_journal_coden_Cambridge 591
_journal_volume 43
_journal_year 1987
_journal_page_first 1985
_journal_name_full 'Acta Crystallogr.,Sect.C:Cryst.Struct.Commun. '
loop_
_publ_author_name
"A.Ajana"
"J.P.Bideau"
"M.Cotrait"
_chemical_name_systematic
;
2-Nitro-6,7,8,9-tetrahydronaphtho(1,2-b)furan
;
_cell_volume   1020.520
_exptl_crystal_colour 'yellow'
_exptl_crystal_density_diffrn 1.413
_exptl_special_details
;
mutagenic agent

;
_diffrn_ambient_temperature ?
_diffrn_special_details
;
The study was carried out at room temperature,in the range 283-303K

;
#These two values have been output from a single CSD field.
_refine_ls_R_factor_gt 0.041
_refine_ls_wR_factor_gt 0.041
_symmetry_cell_setting monoclinic
_symmetry_space_group_name_H-M 'P 21/c'
_symmetry_Int_Tables_number 14
loop_
_symmetry_equiv_pos_site_id
_symmetry_equiv_pos_as_xyz
1 x,y,z
2 -x,1/2+y,1/2-z
3 -x,-y,-z
4 x,-1/2-y,-1/2+z
_cell_length_a 11.042(1)
_cell_length_b 9.149(2)
_cell_length_c 12.056(2)
_cell_angle_alpha 90
_cell_angle_beta 123.08(1)
_cell_angle_gamma 90
_cell_formula_units_Z 4
loop_
_atom_type_symbol
_atom_type_radius_bond
C 0.68
H 0.23
N 0.68
O 0.68
loop_
_atom_site_label
_atom_site_type_symbol
_atom_site_fract_x
_atom_site_fract_y
_atom_site_fract_z
O1 O 0.0657(1) 0.2992(1) 0.0835(1)
C1 C -0.0191(2) 0.2199(2) -0.0284(2)
C2 C 0.0085(2) 0.2414(2) -0.1237(2)
C3 C 0.2032(2) 0.4166(2) -0.1110(2)
C4 C 0.3090(2) 0.5109(2) -0.0253(2)
C5 C 0.4612(2) 0.6458(2) 0.1923(2)
C6 C 0.5100(2) 0.6341(3) 0.3373(2)
C7 C 0.3820(2) 0.6291(2) 0.3509(2)
C8 C 0.2896(2) 0.4950(2) 0.2837(2)
C9 C 0.2619(2) 0.4714(2) 0.1478(2)
C10 C 0.3408(2) 0.5402(2) 0.1036(2)
C11 C 0.1225(2) 0.3454(2) -0.0684(2)
C12 C 0.1552(2) 0.3775(2) 0.0582(2)
N1 N -0.1221(2) 0.1287(2) -0.0284(2)
O2 O -0.1956(2) 0.0503(2) -0.1256(2)
O3 O -0.1327(2) 0.1310(2) 0.0677(2)
H1 H -0.04400 0.19100 -0.21900
H2 H 0.18200 0.39700 -0.20700
H3 H 0.37100 0.56500 -0.05700
H4 H 0.55300 0.62300 0.18500
H5 H 0.42400 0.75700 0.15800
H6 H 0.57400 0.53500 0.38000
H7 H 0.57700 0.72900 0.39100
H8 H 0.42100 0.62700 0.45500
H9 H 0.31600 0.72700 0.30600
H10 H 0.18600 0.50900 0.27500
H11 H 0.34500 0.39900 0.34500
#END
