
#######################################################################
#
#                 Cambridge Crystallographic Data Centre
#                                CCDC
#
#######################################################################
#
# If this CIF has been generated from an entry in the Cambridge
# Structural Database, then it will include bibliographic, chemical,
# crystal, experimental, refinement or atomic coordinate data resulting
# from the CCDC's data processing and validation procedures.
#
#######################################################################

data_CSD_CIF_FOYPAK
_audit_creation_date 1988-07-18
_audit_creation_method CSD-ConQuest-V1
_database_code_CSD FOYPAK
_chemical_formula_sum 'C13 H13 N1 O3'
_chemical_formula_moiety
;
C13 H13 N1 O3
;
_journal_coeditor_code "IUCr A27494"
_journal_coden_Cambridge 591
_journal_volume 43
_journal_year 1987
_journal_page_first 1985
_journal_name_full 'Acta Crystallogr.,Sect.C:Cryst.Struct.Commun. '
loop_
_publ_author_name
"A.Ajana"
"J.P.Bideau"
"M.Cotrait"
_chemical_name_systematic
;
3-Methyl-2-nitro-6,7,8,9-tetrahydronaphtho(1,2-b)furan
;
_cell_volume   1123.961
_exptl_crystal_colour 'yellow'
_exptl_crystal_density_diffrn 1.367
_exptl_special_details
;
mutagenic agent

;
_diffrn_ambient_temperature ?
_diffrn_special_details
;
The study was carried out at room temperature,in the range 283-303K

;
_refine_special_details
;
Two carbons of the cyclohexane ring are disordered over two positions 
(C7:C17) and (C8:C18) with 0.7:0.3 occupancies; C7 and C8 only retained.
;
#These two values have been output from a single CSD field.
_refine_ls_R_factor_gt 0.037
_refine_ls_wR_factor_gt 0.037
_symmetry_cell_setting orthorhombic
_symmetry_space_group_name_H-M 'P c a 21'
_symmetry_Int_Tables_number 29
loop_
_symmetry_equiv_pos_site_id
_symmetry_equiv_pos_as_xyz
1 x,y,z
2 1/2-x,y,1/2+z
3 1/2+x,-y,z
4 -x,-y,1/2+z
_cell_length_a 21.386(2)
_cell_length_b 6.845(5)
_cell_length_c 7.678(2)
_cell_angle_alpha 90
_cell_angle_beta 90
_cell_angle_gamma 90
_cell_formula_units_Z 4
loop_
_atom_type_symbol
_atom_type_radius_bond
C 0.68
H 0.23
N 0.68
O 0.68
loop_
_atom_site_label
_atom_site_type_symbol
_atom_site_fract_x
_atom_site_fract_y
_atom_site_fract_z
O1 O 0.7441(1) 0.3247(3) 0.1206(4)
C1 C 0.6902(2) 0.2252(5) 0.0817(5)
C2 C 0.6982(2) 0.0516(6) 0.0050(6)
C3 C 0.8061(2) -0.1111(6) -0.0717(6)
C4 C 0.8688(2) -0.0752(6) -0.0595(6)
C5 C 0.9638(2) 0.1233(7) 0.0214(7)
C6 C 0.9836(2) 0.283(1) 0.1453(12)
C7 C 0.9457(3) 0.4668(9) 0.1095(11)
C8 C 0.8763(2) 0.4311(6) 0.1563(6)
C9 C 0.8541(2) 0.2423(5) 0.0777(5)
C10 C 0.8933(2) 0.0971(6) 0.0125(6)
C11 C 0.7649(2) 0.0321(5) -0.0071(6)
C12 C 0.7909(2) 0.2004(5) 0.0640(5)
C13 C 0.6511(2) -0.0973(7) -0.0534(7)
N1 N 0.6347(1) 0.3276(5) 0.1332(5)
O2 O 0.5846(1) 0.2452(5) 0.1021(5)
O3 O 0.6399(1) 0.4877(5) 0.2049(5)
H1 H 0.78900 -0.24500 -0.13000
H2 H 0.90100 -0.18400 -0.10800
H3 H 0.98300 0.15400 -0.11100
H4 H 0.98600 -0.00800 0.07000
H5 H 0.97500 0.23900 0.27900
H6 H 1.03400 0.31500 0.13000
H7 H 0.96400 0.59200 0.18500
H8 H 0.95000 0.50800 -0.03000
H9 H 0.86700 0.43000 0.29800
H10 H 0.84900 0.55300 0.09300
H11 H 0.62800 -0.18700 0.04700
H12 H 0.61300 -0.02000 -0.12200
H13 H 0.67400 -0.19700 -0.14500
#END
