
#######################################################################
#
#                 Cambridge Crystallographic Data Centre
#                                CCDC
#
#######################################################################
#
# If this CIF has been generated from an entry in the Cambridge
# Structural Database, then it will include bibliographic, chemical,
# crystal, experimental, refinement or atomic coordinate data resulting
# from the CCDC's data processing and validation procedures.
#
#######################################################################

data_CSD_CIF_FRGLXB
_audit_creation_date 1981-07-07
_audit_creation_method CSD-ConQuest-V1
_database_code_CSD FRGLXB
_database_code_depnum_ccdc_archive 'CCDC 1160277'
_chemical_formula_sum 'C15 H15 N1 O5'
_chemical_formula_moiety
;
C15 H15 N1 O5
;
_journal_coden_Cambridge 24
_journal_volume 22
_journal_year 1981
_journal_page_first 473
_journal_name_full 'Tetrahedron Lett. '
loop_
_publ_author_name
"Y.Nakada"
"T.Hata"
"C.Tamura"
"T.Iwaoka"
"M.Kondo"
"J.Ide"
_chemical_name_systematic
;
3-Ethoxycarbonyl-6-methoxycarbonyl-5-phenyl-6H-1,2-oxazine
;
_chemical_melting_point 378.15
_cell_volume   1429.481
_exptl_special_details
;
Cell has been supplied by the author

;
_diffrn_ambient_temperature ?
_diffrn_special_details
;
The study was carried out at room temperature,in the range 283-303K

;
_symmetry_cell_setting monoclinic
_symmetry_space_group_name_H-M 'P 21/a'
_symmetry_Int_Tables_number 14
loop_
_symmetry_equiv_pos_site_id
_symmetry_equiv_pos_as_xyz
1 x,y,z
2 1/2-x,1/2+y,-z
3 -x,-y,-z
4 -1/2+x,-1/2-y,z
_cell_length_a 31.837(2)
_cell_length_b 4.4717(4)
_cell_length_c 10.0702(7)
_cell_angle_alpha 90
_cell_angle_beta 94.37(1)
_cell_angle_gamma 90
_cell_formula_units_Z 4
loop_
_atom_type_symbol
_atom_type_radius_bond
C 0.68
N 0.68
O 0.68
loop_
_atom_site_label
_atom_site_type_symbol
_atom_site_fract_x
_atom_site_fract_y
_atom_site_fract_z
O1 O 0.40700 0.52630 -0.07080
N1 N 0.40660 0.32620 -0.17910
C1 C 0.37700 0.13270 -0.18220
C2 C 0.34500 0.11230 -0.08730
C3 C 0.35160 0.25030 0.02900
C4 C 0.39330 0.40780 0.05070
C5 C 0.37220 -0.06720 -0.30260
O2 O 0.34030 -0.19670 -0.33330
O3 O 0.40660 -0.07910 -0.36750
C6 C 0.40390 -0.26480 -0.48800
C7 C 0.44600 -0.35970 -0.51390
C8 C 0.32160 0.25140 0.13470
C9 C 0.33030 0.40240 0.25250
C10 C 0.30210 0.40310 0.35170
C11 C 0.26450 0.25980 0.33160
C12 C 0.25500 0.11360 0.21480
C13 C 0.28310 0.10730 0.11710
C14 C 0.42700 0.21390 0.12310
O4 O 0.41900 0.02140 0.19900
O5 O 0.46520 0.29280 0.09750
C15 C 0.49940 0.13640 0.16900
#END
