
#######################################################################
#
#                 Cambridge Crystallographic Data Centre
#                                CCDC
#
#######################################################################
#
# If this CIF has been generated from an entry in the Cambridge
# Structural Database, then it will include bibliographic, chemical,
# crystal, experimental, refinement or atomic coordinate data resulting
# from the CCDC's data processing and validation procedures.
#
#######################################################################

data_CSD_CIF_FRGLXA
_audit_creation_date 1981-07-07
_audit_creation_method CSD-ConQuest-V1
_database_code_CSD FRGLXA
_chemical_formula_sum 'C16 H17 N1 O5'
_chemical_formula_moiety
;
C16 H17 N1 O5
;
_journal_coden_Cambridge 24
_journal_volume 22
_journal_year 1981
_journal_page_first 473
_journal_name_full 'Tetrahedron Lett. '
loop_
_publ_author_name
"Y.Nakada"
"T.Hata"
"C.Tamura"
"T.Iwaoka"
"M.Kondo"
"J.Ide"
_chemical_name_systematic
;
(3-Phenyl-5-ethoxy-furan-2-yl)-ethylglyoxylate oxime
;
_chemical_melting_point 419.15
_cell_volume   1614.498
_exptl_special_details
;
Melting point range 419.15-421.15K
Cell has been supplied by the author

;
_diffrn_ambient_temperature ?
_diffrn_special_details
;
The study was carried out at room temperature,in the range 283-303K

;
_symmetry_cell_setting monoclinic
_symmetry_space_group_name_H-M 'P 21/c'
_symmetry_Int_Tables_number 14
loop_
_symmetry_equiv_pos_site_id
_symmetry_equiv_pos_as_xyz
1 x,y,z
2 -x,1/2+y,1/2-z
3 -x,-y,-z
4 x,-1/2-y,-1/2+z
_cell_length_a 9.886(1)
_cell_length_b 22.695(3)
_cell_length_c 7.431(1)
_cell_angle_alpha 90
_cell_angle_beta 104.45(1)
_cell_angle_gamma 90
_cell_formula_units_Z 4
loop_
_atom_type_symbol
_atom_type_radius_bond
C 0.68
N 0.68
O 0.68
loop_
_atom_site_label
_atom_site_type_symbol
_atom_site_fract_x
_atom_site_fract_y
_atom_site_fract_z
O1 O 0.00990 0.32880 0.33400
C1 C 0.13200 0.35780 0.32600
C2 C 0.23040 0.31700 0.31340
C3 C 0.16600 0.26060 0.30930
C4 C 0.03500 0.27090 0.32320
C5 C 0.12670 0.42120 0.32380
N1 N 0.05640 0.45550 0.40330
O2 O -0.02130 0.42740 0.50760
C6 C 0.20790 0.45700 0.21720
O3 O 0.25740 0.50410 0.26810
O4 O 0.21780 0.43040 0.06420
C7 C 0.29910 0.46060 -0.04700
C8 C 0.35260 0.42300 -0.15260
C9 C 0.37690 0.32730 0.31120
C10 C 0.45270 0.37430 0.40520
C11 C 0.59000 0.38380 0.40050
C12 C 0.65460 0.34550 0.30560
C13 C 0.58240 0.29790 0.21450
C14 C 0.44410 0.28880 0.21550
O5 O -0.07350 0.23860 0.33440
C15 C -0.05450 0.17610 0.32230
C16 C -0.17760 0.14710 0.36630
#END
