
#######################################################################
#
#                 Cambridge Crystallographic Data Centre
#                                CCDC
#
#######################################################################
#
# If this CIF has been generated from an entry in the Cambridge
# Structural Database, then it will include bibliographic, chemical,
# crystal, experimental, refinement or atomic coordinate data resulting
# from the CCDC's data processing and validation procedures.
#
#######################################################################

data_CSD_CIF_FUAZOX10
_audit_creation_date 1983-01-18
_audit_creation_method CSD-ConQuest-V1
_database_code_CSD FUAZOX10
_chemical_formula_sum 'C9 H13 N3 O5'
_chemical_formula_moiety
;
C9 H13 N3 O5
;
_journal_coden_Cambridge 35
_journal_volume 47
_journal_year 1982
_journal_page_first 913
_journal_name_full 'J.Org.Chem. '
loop_
_publ_author_name
"M.Bobek"
"M.Glowka"
"R.Parthasarathy"
_chemical_name_systematic
;
4-(2-Deoxy-\b-D-erythro-pentafuranosyl)-6-methyl-1,2,4-triazin-3(4H)-one-1-oxi
de
;
_chemical_melting_point 466.15
_cell_volume    523.556
_exptl_crystal_colour 'colorless'
_exptl_crystal_density_diffrn 1.542
_exptl_special_details
;
Melting point range 466.15-467.15K

;
_diffrn_ambient_temperature ?
_diffrn_special_details
;
The study was carried out at room temperature,in the range 283-303K

;
#These two values have been output from a single CSD field.
_refine_ls_R_factor_gt 0.026
_refine_ls_wR_factor_gt 0.026
_symmetry_cell_setting monoclinic
_symmetry_space_group_name_H-M 'P 21'
_symmetry_Int_Tables_number 4
loop_
_symmetry_equiv_pos_site_id
_symmetry_equiv_pos_as_xyz
1 x,y,z
2 -x,1/2+y,-z
_cell_length_a 6.832(1)
_cell_length_b 15.550(1)
_cell_length_c 5.109(1)
_cell_angle_alpha 90
_cell_angle_beta 105.29(1)
_cell_angle_gamma 90
_cell_formula_units_Z 2
loop_
_atom_type_symbol
_atom_type_radius_bond
C 0.68
H 0.23
N 0.68
O 0.68
loop_
_atom_site_label
_atom_site_type_symbol
_atom_site_fract_x
_atom_site_fract_y
_atom_site_fract_z
O1 O 0.20970 0.68200 0.58820
O2 O 0.70480 0.85400 0.48670
O3 O 0.57320 0.59500 1.31290
O4 O 0.57870 0.38760 1.02150
O5 O 0.98630 0.55340 1.28080
N1 N 0.51270 0.67670 0.90890
N2 N 0.45930 0.76750 0.52280
N3 N 0.64370 0.79740 0.62320
C1 C 0.38490 0.70780 0.66750
C2 C 0.77240 0.77140 0.86810
C3 C 0.70010 0.70990 1.00380
C4 C 0.97440 0.81340 0.96030
C5 C 0.42860 0.61010 1.06410
C6 C 0.39130 0.52450 0.91570
C7 C 0.59120 0.47810 1.02430
C8 C 0.65640 0.50860 1.31790
C9 C 0.88250 0.51020 1.44810
H1 H 0.77400 0.68900 1.17300
H2 H 1.05000 0.80100 0.82700
H3 H 1.04400 0.79100 1.13400
H4 H 0.94700 0.87500 0.97200
H5 H 0.31300 0.63900 1.10300
H6 H 0.35000 0.53400 0.71900
H7 H 0.28500 0.50300 0.98400
H8 H 0.69800 0.49800 0.93000
H9 H 0.58900 0.47200 1.42600
H10 H 0.91400 0.54100 1.63100
H11 H 0.93300 0.44900 1.48200
#END
