
#######################################################################
#
#                 Cambridge Crystallographic Data Centre
#                                CCDC
#
#######################################################################
#
# If this CIF has been generated from an entry in the Cambridge
# Structural Database, then it will include bibliographic, chemical,
# crystal, experimental, refinement or atomic coordinate data resulting
# from the CCDC's data processing and validation procedures.
#
#######################################################################

data_CSD_CIF_FUBDUC
_audit_creation_date 2010-01-11
_audit_creation_method CSD-ConQuest-V1
_database_code_CSD FUBDUC
_database_code_depnum_ccdc_archive 'CCDC 733981'
_chemical_formula_sum 'C22 H22 N2 O4'
_chemical_formula_moiety
;
C22 H22 N2 O4
;
_journal_coden_Cambridge 1336
_journal_volume 11
_journal_year 2009
_journal_page_first 1647
_journal_name_full 'Org.Lett. '
loop_
_publ_author_name
"F.A.Davis"
"N.Theddu"
"P.M.Gaspari"
_chemical_name_systematic
;
(1R,2R,4R,5S)-(-)-1,4-Dimethyl-8-(4-nitrobenzoyl)-2-phenyl-8-azabicyclo[3.2.1]
octan-3-one
;
_chemical_melting_point 461.15
_cell_volume    951.254
_exptl_crystal_colour 'white'
_exptl_crystal_density_diffrn 1.321
_exptl_special_details
;
Melts with decomposition.

;
_diffrn_ambient_temperature 143
#These two values have been output from a single CSD field.
_refine_ls_R_factor_gt 0.0477
_refine_ls_wR_factor_gt 0.0477
_symmetry_cell_setting monoclinic
_symmetry_space_group_name_H-M 'P 21'
_symmetry_Int_Tables_number 4
loop_
_symmetry_equiv_pos_site_id
_symmetry_equiv_pos_as_xyz
1 x,y,z
2 -x,1/2+y,-z
_cell_length_a 10.5774(18)
_cell_length_b 8.0205(11)
_cell_length_c 12.068(2)
_cell_angle_alpha 90
_cell_angle_beta 111.699(4)
_cell_angle_gamma 90
_cell_formula_units_Z 2
loop_
_atom_type_symbol
_atom_type_radius_bond
C 0.68
H 0.23
N 0.68
O 0.68
loop_
_atom_site_label
_atom_site_type_symbol
_atom_site_fract_x
_atom_site_fract_y
_atom_site_fract_z
C1 C 0.7148(3) 0.7732(4) 0.3857(3)
C2 C 0.5914(3) 0.8974(4) 0.3437(3)
H1 H 0.52930 0.86040 0.38220
C3 C 0.6464(3) 1.0669(4) 0.3986(3)
C4 C 0.7218(3) 1.0649(4) 0.5325(3)
H2 H 0.65690 1.03130 0.56890
C5 C 0.8331(3) 0.9273(4) 0.5616(3)
H3 H 0.88840 0.92320 0.64700
C6 C 0.9214(3) 0.9460(5) 0.4863(3)
H4 H 1.01110 0.89850 0.52700
H5 H 0.93120 1.06240 0.46910
C7 C 0.8428(3) 0.8484(5) 0.3704(3)
H6 H 0.89940 0.76040 0.35840
H7 H 0.81640 0.92250 0.30210
C8 C 0.6956(3) 0.6861(4) 0.5786(3)
C9 C 0.7647(3) 0.6824(4) 0.7117(3)
C10 C 0.6968(3) 0.7371(4) 0.7838(3)
H8 H 0.61050 0.78350 0.74960
C11 C 0.7573(3) 0.7225(5) 0.9061(3)
H9 H 0.71420 0.76270 0.95530
C12 C 0.8829(4) 0.6474(4) 0.9538(3)
C13 C 0.9520(3) 0.5885(5) 0.8846(3)
H10 H 1.03600 0.53630 0.91920
C14 C 0.8927(3) 0.6095(4) 0.7626(3)
H11 H 0.93860 0.57470 0.71420
C15 C 0.6794(4) 0.6034(4) 0.3271(3)
H12 H 0.74970 0.52520 0.36860
H13 H 0.67170 0.61110 0.24540
H14 H 0.59440 0.56640 0.33010
C16 C 0.5100(3) 0.8948(4) 0.2114(3)
C17 C 0.3880(3) 0.8084(4) 0.1706(3)
H15 H 0.35710 0.75800 0.22530
C18 C 0.3103(3) 0.7957(5) 0.0483(3)
H16 H 0.22900 0.73640 0.02250
C19 C 0.3542(4) 0.8707(5) -0.0332(3)
H17 H 0.30300 0.86200 -0.11440
C20 C 0.4744(4) 0.9589(5) 0.0055(3)
H18 H 0.50400 1.01040 -0.04960
C21 C 0.5522(4) 0.9714(5) 0.1271(3)
H19 H 0.63310 1.03150 0.15230
C22 C 0.7782(4) 1.2340(4) 0.5835(3)
H20 H 0.83940 1.27270 0.54690
H21 H 0.82620 1.22430 0.66810
H22 H 0.70470 1.31180 0.56780
N1 N 0.7640(2) 0.7670(3) 0.5181(2)
N2 N 0.9465(3) 0.6249(4) 1.0836(3)
O1 O 0.5886(2) 0.6093(3) 0.5300(2)
O2 O 0.8937(3) 0.6945(5) 1.1463(2)
O3 O 1.0495(4) 0.5396(4) 1.1238(3)
O4 O 0.6376(2) 1.1927(3) 0.3401(2)
#END
