
#######################################################################
#
#                 Cambridge Crystallographic Data Centre
#                                CCDC
#
#######################################################################
#
# If this CIF has been generated from an entry in the Cambridge
# Structural Database, then it will include bibliographic, chemical,
# crystal, experimental, refinement or atomic coordinate data resulting
# from the CCDC's data processing and validation procedures.
#
#######################################################################

data_CSD_CIF_FUBFOY
_audit_creation_date 2010-01-11
_audit_creation_method CSD-ConQuest-V1
_database_code_CSD FUBFOY
_database_code_depnum_ccdc_archive 'CCDC 718886'
_chemical_formula_sum 'C13 H12 N2 O8'
_chemical_formula_moiety
;
C13 H12 N2 O8
;
_journal_coden_Cambridge 1336
_journal_volume 11
_journal_year 2009
_journal_page_first 1583
_journal_name_full 'Org.Lett. '
loop_
_publ_author_name
"Yi-ning Xuan"
"Shao-zhen Nie"
"Li-ting Dong"
"Jun-min Zhang"
"Ming Yan"
_chemical_name_systematic
;
(2S,3R)-Dimethyl 2-nitro-3-(4-nitrophenyl)cyclopropane-1,1-dicarboxylate
;
_chemical_melting_point 407.15
_cell_volume    717.880
_exptl_crystal_colour 'colorless'
_exptl_crystal_density_diffrn 1.5
_exptl_special_details
;
Melting point range 407.15-409.15K
Absolute configuration

;
_exptl_crystal_description 'prism'
_exptl_crystal_preparation 'ethyl acetate/petroleum ether'
_diffrn_ambient_temperature 150
#These two values have been output from a single CSD field.
_refine_ls_R_factor_gt 0.023
_refine_ls_wR_factor_gt 0.023
_symmetry_cell_setting monoclinic
_symmetry_space_group_name_H-M 'P 21'
_symmetry_Int_Tables_number 4
loop_
_symmetry_equiv_pos_site_id
_symmetry_equiv_pos_as_xyz
1 x,y,z
2 -x,1/2+y,-z
_cell_length_a 7.5881(1)
_cell_length_b 12.1836(1)
_cell_length_c 8.3715(1)
_cell_angle_alpha 90
_cell_angle_beta 111.943(1)
_cell_angle_gamma 90
_cell_formula_units_Z 2
loop_
_atom_type_symbol
_atom_type_radius_bond
C 0.68
H 0.23
N 0.68
O 0.68
loop_
_atom_site_label
_atom_site_type_symbol
_atom_site_fract_x
_atom_site_fract_y
_atom_site_fract_z
C1 C 0.5656(2) 0.05865(15) 0.48293(19)
H1 H 0.52020 0.11820 0.40940
C2 C 0.79522(19) 0.00054(12) 0.95983(17)
H2 H 0.70250 0.00430 1.01560
C3 C 0.55860(18) -0.04614(14) 0.41874(18)
C4 C 0.70860(18) -0.01671(12) 0.76876(17)
N1 N 0.48799(17) -0.06211(15) 0.23109(16)
C5 C 0.96992(19) 0.07149(12) 1.04449(16)
C6 C 1.07688(19) 0.12151(13) 0.94303(16)
C7 C 0.6206(2) -0.13691(14) 0.52333(18)
H3 H 0.61320 -0.20680 0.47660
C8 C 0.97932(19) -0.05192(12) 1.06760(16)
H4 H 1.04530 -0.09270 1.00570
C9 C 0.6942(2) -0.12106(13) 0.70003(18)
H5 H 0.73420 -0.18120 0.77310
C10 C 0.6423(2) 0.07292(13) 0.66050(19)
H6 H 0.64920 0.14290 0.70700
C11 C 0.9776(2) 0.14445(13) 1.19274(17)
O1 O 0.89285(15) -0.0638(1) 1.30615(13)
O2 O 1.14387(16) -0.15047(11) 1.31230(14)
O3 O 1.11005(16) 0.14698(10) 1.32842(12)
O4 O 1.13610(17) 0.21375(10) 0.96653(14)
N2 N 1.00551(16) -0.09208(11) 1.24127(15)
O5 O 0.44566(18) 0.02046(14) 0.14001(15)
O6 O 0.47755(19) -0.15504(14) 0.17426(15)
O7 O 1.09323(14) 0.05292(9) 0.82617(11)
C12 C 1.1961(3) 0.09576(15) 0.7248(2)
H7 H 1.13780 0.16280 0.67010
H8 H 1.19320 0.04310 0.63870
H9 H 1.32550 0.10980 0.79860
C13 C 0.8124(3) 0.27984(17) 1.2820(3)
H10 H 0.81260 0.23810 1.37940
H11 H 0.69780 0.32230 1.23690
H12 H 0.92020 0.32810 1.31720
O8 O 0.82239(16) 0.20573(11) 1.14992(14)
#END
