
#######################################################################
#
#                 Cambridge Crystallographic Data Centre
#                                CCDC
#
#######################################################################
#
# If this CIF has been generated from an entry in the Cambridge
# Structural Database, then it will include bibliographic, chemical,
# crystal, experimental, refinement or atomic coordinate data resulting
# from the CCDC's data processing and validation procedures.
#
#######################################################################

data_CSD_CIF_FUBMOG
_audit_creation_date 2015-03-26
_audit_creation_method CSD-ConQuest-V1
_database_code_CSD FUBMOG
_database_code_depnum_ccdc_archive 'CCDC 1028237'
_chemical_formula_sum 'C13 H19 N1 O5'
_chemical_formula_moiety
;
C13 H19 N1 O5
;
_journal_coden_Cambridge 1748
_journal_volume 2
_journal_year 2015
_journal_page_first 497
_journal_name_full 'Org.Chem.Front. '
loop_
_publ_author_name
"K.L.Barnes"
"K.Chen"
"V.J.Catalano"
"C.S.Jeffrey"
_chemical_name_systematic
;
(2RS,3RS,4SR,5RS)-N-phenylmethoxy-2-hydroxymethyl-3,4,5-trihydroxypiperidine
;
_chemical_name_common
;
1-(benzyloxy)-2-(hydroxymethyl)piperidine-3,4,5-triol
;
_cell_volume   1326.851
_exptl_crystal_colour 'colorless'
_exptl_crystal_density_diffrn 1.348
_exptl_crystal_description 'Block'
_diffrn_ambient_temperature 99.7
_refine_special_details
;
C10A,C11A,C12A,C13A,C8A,C9A and C10,C11,C12,C13,C8,C9 disordered over two 
sites with occupancies 0.510:0.490.
;
#These two values have been output from a single CSD field.
_refine_ls_R_factor_gt 0.0467
_refine_ls_wR_factor_gt 0.0467
_symmetry_cell_setting triclinic
_symmetry_space_group_name_H-M 'P -1'
_symmetry_Int_Tables_number 2
loop_
_symmetry_equiv_pos_site_id
_symmetry_equiv_pos_as_xyz
1 x,y,z
2 -x,-y,-z
_cell_length_a 5.3906(3)
_cell_length_b 15.9299(9)
_cell_length_c 17.3564(10)
_cell_angle_alpha 112.4571(11)
_cell_angle_beta 97.7331(11)
_cell_angle_gamma 99.3952(11)
_cell_formula_units_Z 4
loop_
_atom_type_symbol
_atom_type_radius_bond
C 0.68
H 0.23
N 0.68
O 0.68
loop_
_atom_site_label
_atom_site_type_symbol
_atom_site_fract_x
_atom_site_fract_y
_atom_site_fract_z
H1 H 0.556(4) 0.7056(13) 0.2096(12)
C1 C 0.3158(2) 0.70588(9) 0.33708(8)
H2 H 0.15500 0.65670 0.30730
H3 H 0.45880 0.67520 0.34240
C2 C 0.3695(2) 0.76419(9) 0.28602(8)
H4 H 0.53150 0.81380 0.31670
C3 C 0.1488(2) 0.80931(9) 0.27537(8)
H5 H 0.18960 0.84990 0.24460
C4 C 0.1108(2) 0.86811(9) 0.36354(8)
H6 H -0.04150 0.89520 0.35730
C5 C 0.0662(2) 0.80909(9) 0.41462(8)
H7 H -0.09000 0.75710 0.38240
C6 C 0.0206(2) 0.8672(1) 0.50259(9)
H8 H -0.00520 0.82770 0.53450
H9 H 0.17340 0.91920 0.53550
C7 C 0.4072(3) 0.73077(11) 0.53965(9)
H10 H 0.43350 0.79810 0.57620
H11 H 0.57370 0.71920 0.52530
C8 C 0.3163(8) 0.67435(18) 0.5862(2)
C9 C 0.4092(10) 0.5961(2) 0.5802(3)
H12 H 0.54420 0.58190 0.55100
C10 C 0.3046(11) 0.5387(2) 0.6168(3)
H13 H 0.36800 0.48530 0.61270
C11 C 0.1071(7) 0.5595(3) 0.6595(2)
H14 H 0.03560 0.52030 0.68460
C12 C 0.0142(7) 0.6377(4) 0.6656(3)
H15 H -0.12080 0.65190 0.69470
C13 C 0.1188(8) 0.6951(3) 0.6289(3)
H16 H 0.05530 0.74860 0.63300
N1 N 0.2906(2) 0.76796(8) 0.42248(7)
O1 O 0.39783(18) 0.70549(7) 0.20275(6)
O2 O -0.08212(17) 0.73953(7) 0.22886(6)
H17 H -0.08310 0.71880 0.17640
O3 O 0.33563(17) 0.94157(6) 0.40403(6)
H18 H 0.29720 0.98930 0.43760
O4 O -0.20046(18) 0.90372(7) 0.49328(6)
O5 O 0.21870(18) 0.70522(7) 0.46292(6)
H19 H -0.333(4) 0.8619(14) 0.4737(12)
H20? H 0.43490 0.79780 0.57760
H21? H 0.57370 0.71750 0.52670
C14? C 0.2861(7) 0.66886(19) 0.5799(2)
C15? C 0.173(1) 0.7067(2) 0.6489(3)
H22? H 0.16970 0.77090 0.67060
C16? C 0.0648(10) 0.6505(3) 0.6861(2)
H23? H -0.01250 0.67630 0.73330
C17? C 0.0696(7) 0.5565(3) 0.6544(2)
H24? H -0.00430 0.51810 0.67990
C18? C 0.1828(9) 0.5187(2) 0.5855(3)
H25? H 0.18610 0.45450 0.56380
C19? C 0.2910(9) 0.5749(2) 0.5482(3)
H26? H 0.36830 0.54900 0.50110
C20 C 0.3714(2) 0.38340(9) 0.15937(9)
H27 H 0.51650 0.36890 0.18960
H28 H 0.27140 0.41420 0.20130
C21 C 0.4739(2) 0.44796(9) 0.11899(9)
H29 H 0.57810 0.41640 0.07800
C22 C 0.2532(2) 0.46922(9) 0.07078(9)
H30 H 0.32330 0.50470 0.03870
C23 C 0.0665(2) 0.37813(9) 0.00796(8)
H31 H -0.08750 0.39400 -0.01720
C24 C -0.0254(2) 0.31574(9) 0.05199(9)
H32 H -0.11400 0.34960 0.09730
C25 C -0.2102(3) 0.22409(10) -0.01235(9)
H33 H -0.11420 0.18600 -0.05150
H34 H -0.28140 0.18820 0.01860
C26 C 0.2413(3) 0.16479(11) 0.11811(11)
H35 H 0.42560 0.18970 0.14700
H36 H 0.22860 0.13020 0.05610
C27 C 0.1083(2) 0.10182(7) 0.15419(7)
C28 C -0.1365(2) 0.04582(8) 0.11168(6)
H37 H -0.21660 0.04620 0.05960
C29 C -0.26408(19) -0.01067(9) 0.14535(8)
H38 H -0.43140 -0.04900 0.11630
C30 C -0.1469(2) -0.01116(9) 0.22153(8)
H39 H -0.23400 -0.04980 0.24450
C31 C 0.0979(2) 0.04484(9) 0.26403(6)
H40 H 0.17800 0.04450 0.31610
C32 C 0.22547(18) 0.10133(8) 0.23037(7)
H41 H 0.39280 0.13960 0.25940
N2 N 0.2057(2) 0.29679(8) 0.09131(7)
O6 O 0.63497(18) 0.53251(7) 0.18379(7)
H42 H 0.78420 0.53900 0.17430
O7 O 0.11204(17) 0.52259(6) 0.12707(6)
H43 H 0.20150 0.57730 0.15550
O8 O 0.18337(19) 0.33001(7) -0.05982(6)
H44 H 0.28920 0.30450 -0.04240
O9 O -0.41699(17) 0.24086(7) -0.06102(6)
H45 H -0.36800 0.25020 -0.10160
O10 O 0.11020(18) 0.23903(7) 0.13362(6)
#END
