
#######################################################################
#
#                 Cambridge Crystallographic Data Centre
#                                CCDC
#
#######################################################################
#
# If this CIF has been generated from an entry in the Cambridge
# Structural Database, then it will include bibliographic, chemical,
# crystal, experimental, refinement or atomic coordinate data resulting
# from the CCDC's data processing and validation procedures.
#
#######################################################################

data_CSD_CIF_FUBMIA
_audit_creation_date 2015-03-26
_audit_creation_method CSD-ConQuest-V1
_database_code_CSD FUBMIA
_database_code_depnum_ccdc_archive 'CCDC 1028236'
_chemical_formula_sum 'C13 H17 N1 O3'
_chemical_formula_moiety
;
C13 H17 N1 O3
;
_journal_coden_Cambridge 1748
_journal_volume 2
_journal_year 2015
_journal_page_first 497
_journal_name_full 'Org.Chem.Front. '
loop_
_publ_author_name
"K.L.Barnes"
"K.Chen"
"V.J.Catalano"
"C.S.Jeffrey"
_chemical_name_systematic
;
(2RS, 
3RS)-N-phenylmethoxy-2-hydroxymethyl-3-hydroxy-1,2,3,6-tetrahydropyridine
;
_chemical_name_common
;
1-(benzyloxy)-2-(hydroxymethyl)-1,2,3,6-tetrahydropyridin-3-ol
;
_cell_volume   1219.603
_exptl_crystal_density_diffrn 1.281
_exptl_crystal_description 'Block'
_diffrn_ambient_temperature 99.7
#These two values have been output from a single CSD field.
_refine_ls_R_factor_gt 0.0367
_refine_ls_wR_factor_gt 0.0367
_symmetry_cell_setting triclinic
_symmetry_space_group_name_H-M 'P -1'
_symmetry_Int_Tables_number 2
loop_
_symmetry_equiv_pos_site_id
_symmetry_equiv_pos_as_xyz
1 x,y,z
2 -x,-y,-z
_cell_length_a 9.9549(4)
_cell_length_b 11.3328(5)
_cell_length_c 11.8818(5)
_cell_angle_alpha 106.4607(7)
_cell_angle_beta 101.6175(7)
_cell_angle_gamma 100.1738(7)
_cell_formula_units_Z 4
loop_
_atom_type_symbol
_atom_type_radius_bond
C 0.68
H 0.23
N 0.68
O 0.68
loop_
_atom_site_label
_atom_site_type_symbol
_atom_site_fract_x
_atom_site_fract_y
_atom_site_fract_z
C1 C 0.24653(14) 0.95327(12) 0.33439(12)
H1 H 0.34310 0.99790 0.38740
H2 H 0.17770 0.98270 0.37840
C2 C 0.22631(14) 0.98457(13) 0.21922(12)
H3 H 0.26320 1.06930 0.22320
C3 C 0.15896(14) 0.89849(13) 0.11209(12)
H4 H 0.15160 0.92280 0.04130
C4 C 0.09385(13) 0.76385(12) 0.09841(11)
H5 H -0.00570 0.74130 0.04680
C5 C 0.08686(13) 0.74885(12) 0.22143(11)
H6 H 0.01410 0.79110 0.25020
C6 C 0.04665(13) 0.61091(12) 0.21281(12)
H7 H 0.11470 0.56590 0.18070
H8 H 0.04800 0.60430 0.29430
C7 C 0.33346(13) 0.74222(13) 0.45988(11)
H9 H 0.42530 0.79410 0.46130
H10 H 0.31750 0.65560 0.40210
C8 C 0.33341(13) 0.73745(13) 0.58474(12)
C9 C 0.25700(14) 0.63122(14) 0.60018(14)
H11 H 0.20670 0.55900 0.53120
C10 C 0.25356(15) 0.62980(16) 0.71582(15)
H12 H 0.20060 0.55680 0.72570
C11 C 0.32638(15) 0.73353(17) 0.81626(14)
H13 H 0.32320 0.73250 0.89530
C12 C 0.40413(15) 0.83922(15) 0.80202(13)
H14 H 0.45540 0.91080 0.87140
C13 C 0.40734(13) 0.84087(13) 0.68672(12)
H15 H 0.46100 0.91390 0.67740
N1 N 0.22659(11) 0.81598(10) 0.30796(9)
O1 O 0.16671(11) 0.67957(9) 0.03488(8)
O2 O -0.09246(10) 0.55585(10) 0.13265(9)
O3 O 0.22066(9) 0.79852(8) 0.42403(7)
H16 H 0.2418(17) 0.6789(15) 0.0813(14)
H17 H -0.0990(18) 0.4844(16) 0.0843(15)
C14 C 0.17966(14) 0.06159(12) 0.69574(12)
H18 H 0.23420 0.00540 0.65590
H19 H 0.08120 0.03510 0.64360
C15 C 0.18046(15) 0.05027(13) 0.81791(13)
H20 H 0.11980 -0.02210 0.82240
C16 C 0.26222(16) 0.13701(14) 0.92013(13)
H21 H 0.25660 0.12610 0.99560
C17 C 0.36329(15) 0.25177(13) 0.92065(12)
H22 H 0.45660 0.26090 0.97720
C18 C 0.38590(13) 0.23619(12) 0.79421(11)
H23 H 0.43780 0.16850 0.77320
C19 C 0.46915(13) 0.35837(13) 0.78774(12)
H24 H 0.48320 0.34470 0.70530
H25 H 0.41660 0.42500 0.80450
C20 C 0.15912(14) 0.26301(14) 0.55099(12)
H26 H 0.17410 0.34550 0.61530
H27 H 0.06060 0.21400 0.53520
C21 C 0.18228(14) 0.28501(13) 0.43677(12)
C22 C 0.31741(14) 0.32696(13) 0.42540(12)
H28 H 0.39780 0.33690 0.48910
C23 C 0.33603(15) 0.35432(13) 0.32251(13)
H29 H 0.42880 0.38210 0.31550
C24 C 0.21937(15) 0.34116(13) 0.22960(12)
H30 H 0.23190 0.36030 0.15900
C25 C 0.08484(15) 0.30015(13) 0.24017(12)
H31 H 0.00460 0.29160 0.17680
C26 C 0.06633(14) 0.27145(12) 0.34273(12)
H32 H -0.02660 0.24220 0.34870
N2 N 0.24311(11) 0.19375(10) 0.71031(9)
O4 O 0.31618(10) 0.36441(9) 0.96608(8)
H33 H 0.23770 0.35890 0.91990
O5 O 0.60292(10) 0.39753(10) 0.87603(10)
H34 H 0.61200 0.47030 0.92470
O6 O 0.25597(9) 0.19444(8) 0.59077(7)
#END
