
#######################################################################
#
#                 Cambridge Crystallographic Data Centre
#                                CCDC
#
#######################################################################
#
# If this CIF has been generated from an entry in the Cambridge
# Structural Database, then it will include bibliographic, chemical,
# crystal, experimental, refinement or atomic coordinate data resulting
# from the CCDC's data processing and validation procedures.
#
#######################################################################

data_CSD_CIF_FUDVUV02
_audit_creation_date 1995-09-08
_audit_creation_method CSD-ConQuest-V1
_database_code_CSD FUDVUV02
_chemical_formula_sum 'C11 H14 N2 O3'
_chemical_formula_moiety
;
C11 H14 N2 O3
;
_journal_coeditor_code "IUCr PA0296"
_journal_coden_Cambridge 622
_journal_volume 51
_journal_year 1995
_journal_page_first 197
_journal_name_full 'Acta Crystallogr.,Sect.B:Struct.Sci. '
loop_
_publ_author_name
"A.Fkyerat"
"A.Guelzim"
"F.Baert"
"W.Paulus"
"G.Heger"
"J.Zyss"
"A.Perigaud"
_chemical_name_systematic
;
N-(4-Nitrophenyl)-L-prolinol
;
_cell_volume    522.423
_exptl_crystal_colour 'yellow'
_exptl_crystal_density_diffrn 1.41
_diffrn_ambient_temperature 122
_diffrn_radiation_probe 'neutron radiation'
#These two values have been output from a single CSD field.
_refine_ls_R_factor_gt 0.031
_refine_ls_wR_factor_gt 0.031
_symmetry_cell_setting monoclinic
_symmetry_space_group_name_H-M 'P 21'
_symmetry_Int_Tables_number 4
loop_
_symmetry_equiv_pos_site_id
_symmetry_equiv_pos_as_xyz
1 x,y,z
2 -x,1/2+y,-z
_cell_length_a 5.164(2)
_cell_length_b 14.796(8)
_cell_length_c 7.108(5)
_cell_angle_alpha 90
_cell_angle_beta 105.86(3)
_cell_angle_gamma 90
_cell_formula_units_Z 2
loop_
_atom_type_symbol
_atom_type_radius_bond
C 0.68
H 0.23
N 0.68
O 0.68
loop_
_atom_site_label
_atom_site_type_symbol
_atom_site_fract_x
_atom_site_fract_y
_atom_site_fract_z
C1 C 0.5190(7) 0.04550 0.4387(7)
C2 C 0.5365(7) 0.1388(4) 0.4553(7)
C3 C 0.6648(7) 0.1881(5) 0.3440(6)
C4 C 0.7806(7) 0.1436(3) 0.2102(6)
C5 C 0.7632(7) 0.0486(4) 0.1981(6)
C6 C 0.6356(6) -0.0004(5) 0.3114(6)
C7 C 0.8729(6) 0.2892(4) 0.0647(6)
C8 C 0.9030(6) 0.3007(4) -0.1401(6)
C9 C 1.0946(7) 0.2258(5) -0.1587(7)
C10 C 1.0070(7) 0.1472(4) -0.0518(7)
C11 C 1.0903(6) 0.3404(4) 0.2160(6)
N1 N 0.3851(5) -0.0045(4) 0.5570(5)
N2 N 0.8986(4) 0.1912(4) 0.0949(4)
O1 O 0.3515(9) -0.0857(5) 0.5319(8)
O2 O 0.3042(10) 0.0376(5) 0.6777(11)
O3 O 1.0696(8) 0.4346(5) 0.1830(8)
H1 H 0.4457(15) 0.1726(9) 0.5573(15)
H2 H 0.6798(17) 0.2597(7) 0.3611(15)
H3 H 0.8481(18) 0.0126(9) 0.0935(19)
H4 H 0.6233(19) -0.0727(8) 0.3051(17)
H5 H 0.6748(12) 0.3121(7) 0.0754(12)
H6 H 0.7109(14) 0.2915(8) -0.2462(13)
H7 H 0.9720(18) 0.3672(8) -0.1649(16)
H8 H 1.3016(13) 0.2444(9) -0.0851(15)
H9 H 1.0872(17) 0.2068(9) -0.3125(16)
H10 H 1.1756(13) 0.1011(8) 0.0172(15)
H11 H 0.8513(14) 0.1057(8) -0.1509(13)
H12 H 1.2883(12) 0.3189(7) 0.2059(15)
H13 H 1.0797(16) 0.3264(8) 0.3684(14)
H14 H 0.9243(15) 0.4580(8) 0.2282(16)
#END
