
#######################################################################
#
#                 Cambridge Crystallographic Data Centre
#                                CCDC
#
#######################################################################
#
# If this CIF has been generated from an entry in the Cambridge
# Structural Database, then it will include bibliographic, chemical,
# crystal, experimental, refinement or atomic coordinate data resulting
# from the CCDC's data processing and validation procedures.
#
#######################################################################

data_CSD_CIF_FUDVUV11
_audit_creation_date 1995-09-08
_audit_creation_method CSD-ConQuest-V1
_database_code_CSD FUDVUV11
_chemical_formula_sum 'C11 H14 N2 O3'
_chemical_formula_moiety
;
C11 H14 N2 O3
;
_journal_coeditor_code "IUCr PA0296"
_journal_coden_Cambridge 622
_journal_volume 51
_journal_year 1995
_journal_page_first 197
_journal_name_full 'Acta Crystallogr.,Sect.B:Struct.Sci. '
loop_
_publ_author_name
"A.Fkyerat"
"A.Guelzim"
"F.Baert"
"W.Paulus"
"G.Heger"
"J.Zyss"
"A.Perigaud"
_chemical_name_systematic
;
N-(4-Nitrophenyl)-L-prolinol
;
_cell_volume    522.171
_exptl_crystal_colour 'yellow'
_exptl_crystal_density_diffrn 1.41
_diffrn_ambient_temperature 122
_refine_special_details
;
high order refinement

;
#These two values have been output from a single CSD field.
_refine_ls_R_factor_gt 0.044
_refine_ls_wR_factor_gt 0.044
_symmetry_cell_setting monoclinic
_symmetry_space_group_name_H-M 'P 21'
_symmetry_Int_Tables_number 4
loop_
_symmetry_equiv_pos_site_id
_symmetry_equiv_pos_as_xyz
1 x,y,z
2 -x,1/2+y,-z
_cell_length_a 5.152(4)
_cell_length_b 14.790(3)
_cell_length_c 7.134(2)
_cell_angle_alpha 90
_cell_angle_beta 106.14(4)
_cell_angle_gamma 90
_cell_formula_units_Z 2
loop_
_atom_type_symbol
_atom_type_radius_bond
C 0.68
N 0.68
O 0.68
loop_
_atom_site_label
_atom_site_type_symbol
_atom_site_fract_x
_atom_site_fract_y
_atom_site_fract_z
C1 C 0.5192(3) 0.04550 0.4392(2)
C2 C 0.5356(3) 0.1393(1) 0.4566(2)
C3 C 0.6654(3) 0.1878(1) 0.3444(2)
C4 C 0.7800(3) 0.1436(3) 0.2098(2)
C5 C 0.7637(3) 0.0479(1) 0.1976(2)
C6 C 0.6342(3) -0.0003(1) 0.3109(2)
C7 C 0.8744(2) 0.2892(1) 0.0655(2)
C8 C 0.9034(3) 0.3012(1) -0.1408(2)
C9 C 1.0971(3) 0.2253(1) -0.1560(2)
C10 C 1.0091(3) 0.1467(1) -0.0516(2)
C11 C 1.0927(3) 0.3409(1) 0.2164(2)
N1 N 0.3841(3) -0.0040(1) 0.5572(2)
N2 N 0.9000(3) 0.1910(1) 0.0944(2)
O1 O 0.3483(3) -0.0857(1) 0.5314(2)
O2 O 0.3047(4) 0.0378(1) 0.6812(3)
O3 O 1.0708(3) 0.4349(1) 0.1821(2)
#END
