
#######################################################################
#
#                 Cambridge Crystallographic Data Centre
#                                CCDC
#
#######################################################################
#
# If this CIF has been generated from an entry in the Cambridge
# Structural Database, then it will include bibliographic, chemical,
# crystal, experimental, refinement or atomic coordinate data resulting
# from the CCDC's data processing and validation procedures.
#
#######################################################################

data_CSD_CIF_FUDVUV
_audit_creation_date 1988-07-18
_audit_creation_method CSD-ConQuest-V1
_database_code_CSD FUDVUV
_database_code_depnum_ccdc_archive 'CCDC 1160589'
_chemical_formula_sum 'C11 H14 N2 O3'
_chemical_formula_moiety
;
C11 H14 N2 O3
;
_journal_coden_Cambridge 8
_journal_volume 81
_journal_year 1984
_journal_page_first 4160
_journal_name_full 'J.Chem.Phys. '
loop_
_publ_author_name
"J.Zyss"
"J.F.Nicoud"
"M.Coquillay"
_chemical_name_systematic
;
N-(4-Nitrophenyl)-L-prolinol
;
_chemical_melting_point 389.15
_cell_volume    543.864
_exptl_crystal_colour 'light yellow'
_exptl_crystal_density_diffrn 1.36
_exptl_special_details
;
y(C1) should be -0.0085 not 0.0095. y(C2) should be positive

;
_diffrn_ambient_temperature ?
_diffrn_special_details
;
The study was carried out at room temperature,in the range 283-303K

;
#These two values have been output from a single CSD field.
_refine_ls_R_factor_gt 0.05
_refine_ls_wR_factor_gt 0.05
_symmetry_cell_setting monoclinic
_symmetry_space_group_name_H-M 'P 21'
_symmetry_Int_Tables_number 4
loop_
_symmetry_equiv_pos_site_id
_symmetry_equiv_pos_as_xyz
1 x,y,z
2 -x,1/2+y,-z
_cell_length_a 5.261(1)
_cell_length_b 14.908(3)
_cell_length_c 7.185(2)
_cell_angle_alpha 90
_cell_angle_beta 105.18(2)
_cell_angle_gamma 90
_cell_formula_units_Z 2
loop_
_atom_type_symbol
_atom_type_radius_bond
C 0.68
H 0.23
N 0.68
O 0.68
loop_
_atom_site_label
_atom_site_type_symbol
_atom_site_fract_x
_atom_site_fract_y
_atom_site_fract_z
C1 C 0.5228(4) -0.0085(2) 0.4364(3)
C2 C 0.5340(4) 0.0840(2) 0.4508(3)
C3 C 0.6587(4) 0.1319(2) 0.3385(3)
C4 C 0.7763(4) 0.0887(2) 0.2067(3)
C5 C 0.7657(5) -0.0063(2) 0.1971(4)
C6 C 0.6395(5) -0.0543(2) 0.3104(3)
C7 C 0.8705(4) 0.2340(2) 0.0635(3)
C8 C 0.9035(5) 0.2455(2) -0.1410(3)
C9 C 1.0918(5) 0.1708(2) -0.1592(3)
C10 C 1.0062(4) 0.0925(2) -0.0531(3)
C11 C 1.0788(4) 0.2850(2) 0.2129(3)
N1 N 0.3908(4) -0.0588(2) 0.5543(3)
N2 N 0.8957(4) 0.13600 0.0914(3)
O1 O 0.3614(4) -0.1407(2) 0.5325(3)
O2 O 0.3080(5) -0.0179(2) 0.6767(3)
O3 O 1.0587(4) 0.3786(2) 0.1809(3)
H1 H 1.079(5) 0.097(3) -0.233(5)
#END
