
#######################################################################
#
#                 Cambridge Crystallographic Data Centre
#                                CCDC
#
#######################################################################
#
# If this CIF has been generated from an entry in the Cambridge
# Structural Database, then it will include bibliographic, chemical,
# crystal, experimental, refinement or atomic coordinate data resulting
# from the CCDC's data processing and validation procedures.
#
#######################################################################

data_CSD_CIF_FUDZIN
_audit_creation_date 1988-07-18
_audit_creation_method CSD-ConQuest-V1
_database_code_CSD FUDZIN
_database_code_depnum_ccdc_archive 'CCDC 1160607'
_chemical_formula_sum 'C8 H8 N2 O4'
_chemical_formula_moiety
;
C8 H8 N2 O4
;
_journal_coeditor_code "IUCr A27470"
_journal_coden_Cambridge 591
_journal_volume 43
_journal_year 1987
_journal_page_first 1924
_journal_name_full 'Acta Crystallogr.,Sect.C:Cryst.Struct.Commun. '
loop_
_publ_author_name
"B.L.Rao"
"T.P.Seshadri"
"L.M.Rao"
_chemical_name_systematic
;
p-Nitrophenoxyacetamide
;
_cell_volume    868.022
_exptl_crystal_colour 'pale yellow'
_exptl_crystal_density_diffrn 1.501
_exptl_special_details
;
auxin and hypoglycaemic activity
Editors say no H atom coordinates deposited

;
_diffrn_ambient_temperature 426
#These two values have been output from a single CSD field.
_refine_ls_R_factor_gt 0.0507
_refine_ls_wR_factor_gt 0.0507
_symmetry_cell_setting monoclinic
_symmetry_space_group_name_H-M 'P 21/c'
_symmetry_Int_Tables_number 14
loop_
_symmetry_equiv_pos_site_id
_symmetry_equiv_pos_as_xyz
1 x,y,z
2 -x,1/2+y,1/2-z
3 -x,-y,-z
4 x,-1/2-y,-1/2+z
_cell_length_a 7.818(2)
_cell_length_b 7.589(2)
_cell_length_c 14.790(2)
_cell_angle_alpha 90
_cell_angle_beta 98.43(2)
_cell_angle_gamma 90
_cell_formula_units_Z 4
loop_
_atom_type_symbol
_atom_type_radius_bond
C 0.68
H 0.23
N 0.68
O 0.68
loop_
_atom_site_label
_atom_site_type_symbol
_atom_site_fract_x
_atom_site_fract_y
_atom_site_fract_z
C1 C 0.2585(7) 0.0478(7) 0.9829(4)
C2 C 0.2641(8) -0.1300(8) 0.9589(4)
C3 C 0.2110(8) -0.2557(8) 1.0167(4)
C4 C 0.1567(7) -0.2050(7) 1.0964(4)
C5 C 0.1507(7) -0.0296(8) 1.1215(4)
C6 C 0.2033(8) 0.0957(8) 1.0641(4)
C7 C 0.3643(9) 0.1405(9) 0.8474(4)
C8 C 0.4280(8) 0.2985(8) 0.8056(4)
N1 N 0.1005(7) -0.3356(7) 1.1556(4)
N2 N 0.4032(8) 0.4535(7) 0.8409(4)
O1 O 0.1006(8) -0.4903(7) 1.1332(4)
O2 O 0.0531(7) -0.2910(6) 1.2273(3)
O3 O 0.3016(5) 0.1823(5) 0.9307(3)
O4 O 0.5012(6) 0.2804(5) 0.7379(3)
H1 H 0.307(6) -0.164(7) 0.896(3)
H2 H 0.095(7) 0.006(8) 1.186(4)
H3 H 0.217(8) -0.408(8) 1.008(4)
H4 H 0.198(7) 0.227(7) 1.076(4)
H5 H 0.355(8) 0.448(9) 0.905(5)
H6 H 0.441(9) 0.558(9) 0.812(4)
H7 H 0.449(8) 0.047(8) 0.847(4)
H8 H 0.285(8) 0.082(9) 0.809(4)
#END
