
#######################################################################
#
#                 Cambridge Crystallographic Data Centre
#                                CCDC
#
#######################################################################
#
# If this CIF has been generated from an entry in the Cambridge
# Structural Database, then it will include bibliographic, chemical,
# crystal, experimental, refinement or atomic coordinate data resulting
# from the CCDC's data processing and validation procedures.
#
#######################################################################

data_CSD_CIF_FUFXOT01
_audit_creation_date 1993-03-24
_audit_creation_method CSD-ConQuest-V1
_database_code_CSD FUFXOT01
_chemical_formula_sum 'C27 H21 N5 O8'
_chemical_formula_moiety
;
C27 H21 N5 O8
;
_journal_coden_Cambridge 388
_journal_volume 27
_journal_year 1991
_journal_page_first 1158
_journal_name_full 'Zh.Org.Khim.(Russ.)(Russ.J.Org.Chem.) '
loop_
_publ_author_name
"N.G.Furmanova"
"I.V.Verin"
"I.E.Mikhailov"
"V.I.Minkin"
"L.P.Olekhnovich"
_chemical_name_systematic
;
2-(2,4,6-Trinitrophenyl)-N,N'-di-p-anisylbenzamidine
;
_cell_volume   4930.679
_diffrn_ambient_temperature 173.15
#These two values have been output from a single CSD field.
_refine_ls_R_factor_gt 0.055
_refine_ls_wR_factor_gt 0.055
_symmetry_cell_setting orthorhombic
_symmetry_space_group_name_H-M 'P b c n'
_symmetry_Int_Tables_number 60
loop_
_symmetry_equiv_pos_site_id
_symmetry_equiv_pos_as_xyz
1 x,y,z
2 1/2-x,1/2+y,z
3 x,-y,1/2+z
4 1/2-x,1/2-y,1/2+z
5 -x,-y,-z
6 -1/2+x,-1/2-y,-z
7 -x,y,-1/2-z
8 -1/2+x,-1/2+y,-1/2-z
_cell_length_a 17.742(5)
_cell_length_b 8.304(22)
_cell_length_c 33.467(9)
_cell_angle_alpha 90
_cell_angle_beta 90
_cell_angle_gamma 90
_cell_formula_units_Z 8
loop_
_atom_type_symbol
_atom_type_radius_bond
C 0.68
N 0.68
O 0.68
loop_
_atom_site_label
_atom_site_type_symbol
_atom_site_fract_x
_atom_site_fract_y
_atom_site_fract_z
O1 O 0.2410(3) 0.4730(6) 0.1942(1)
O2 O 0.6800(1) 0.1903(4) 0.4801(1)
O3 O 0.2669(1) 0.6146(5) 0.3782(1)
O4 O 0.3341(1) 0.4402(4) 0.4100(1)
O5 O 0.4079(1) 1.1646(4) 0.4846(1)
O6 O 0.2959(1) 1.1124(4) 0.4620(1)
O7 O 0.6194(1) 0.8992(5) 0.4249(1)
O8 O 0.5976(2) 0.7549(4) 0.3728(1)
N1 N 0.4229(2) 0.6052(5) 0.3267(1)
N2 N 0.4817(2) 0.5415(4) 0.3848(1)
N3 N 0.3215(2) 0.5758(5) 0.3976(1)
N4 N 0.3637(2) 1.0848(4) 0.4646(1)
N5 N 0.5783(2) 0.8188(4) 0.4034(1)
C1 C 0.4560(2) 0.4952(5) 0.3469(1)
C2 C 0.4721(2) 0.3269(6) 0.3343(1)
C3 C 0.4320(3) 0.2000(6) 0.3507(1)
C4 C 0.4456(3) 0.0438(7) 0.3375(1)
C5 C 0.5010(4) 0.0142(7) 0.3098(1)
C6 C 0.5414(3) 0.1401(7) 0.2935(1)
C7 C 0.5252(3) 0.2969(6) 0.3048(1)
C8 C 0.3806(2) 0.5636(6) 0.2916(1)
C9 C 0.3910(2) 0.6536(6) 0.2576(1)
C10 C 0.3446(3) 0.6238(7) 0.2233(1)
C11 C 0.2891(3) 0.5112(7) 0.2255(1)
C12 C 0.2796(3) 0.4215(8) 0.2594(1)
C13 C 0.3245(3) 0.4472(7) 0.2923(1)
C14 C 0.2290(3) 0.5825(8) 0.1646(1)
C15 C 0.5352(2) 0.4518(5) 0.4079(1)
C16 C 0.5167(2) 0.4122(5) 0.4469(1)
C17 C 0.5668(2) 0.3270(6) 0.4705(1)
C18 C 0.6357(2) 0.2755(5) 0.4547(1)
C19 C 0.6543(2) 0.3137(5) 0.4154(1)
C20 C 0.6039(2) 0.4008(6) 0.3925(1)
C21 C 0.7509(2) 0.1337(6) 0.4650(1)
C22 C 0.4528(2) 0.6839(5) 0.4016(1)
C23 C 0.3752(2) 0.7053(5) 0.4087(1)
C24 C 0.3451(2) 0.8337(6) 0.4276(1)
C25 C 0.3941(2) 0.9497(5) 0.4422(1)
C26 C 0.4707(2) 0.9394(5) 0.4359(1)
C27 C 0.4979(2) 0.8103(5) 0.4146(1)
#END
