
#######################################################################
#
#                 Cambridge Crystallographic Data Centre
#                                CCDC
#
#######################################################################
#
# If this CIF has been generated from an entry in the Cambridge
# Structural Database, then it will include bibliographic, chemical,
# crystal, experimental, refinement or atomic coordinate data resulting
# from the CCDC's data processing and validation procedures.
#
#######################################################################

data_CSD_CIF_FUGREE
_audit_creation_date 1988-09-05
_audit_creation_method CSD-ConQuest-V1
_database_code_CSD FUGREE
_chemical_formula_sum 'C18 H17 N3 O5'
_chemical_formula_moiety
;
C18 H17 N3 O5
;
_journal_coden_Cambridge 16
_journal_volume 44
_journal_year 1988
_journal_page_first 519
_journal_name_full 'Tetrahedron '
loop_
_publ_author_name
"F.Orsini"
"F.Pelizzoni"
"M.Forte"
"R.Destro"
"P.Gariboldi"
_chemical_name_systematic
;
2,3-Di-p-nitrophenyl-1-oxapyrrolizidine
;
_chemical_melting_point 383.65
_cell_volume   1712.535
_exptl_crystal_colour 'pale yellow'
_exptl_crystal_density_diffrn 1.378
_exptl_special_details
;
Melting point range 383.65-384.15K
x(H5A) is -0.227 not -0.27

;
_diffrn_ambient_temperature ?
_diffrn_special_details
;
The study was carried out at room temperature,in the range 283-303K

;
#These two values have been output from a single CSD field.
_refine_ls_R_factor_gt 0.06
_refine_ls_wR_factor_gt 0.06
_symmetry_cell_setting monoclinic
_symmetry_space_group_name_H-M 'P 21/c'
_symmetry_Int_Tables_number 14
loop_
_symmetry_equiv_pos_site_id
_symmetry_equiv_pos_as_xyz
1 x,y,z
2 -x,1/2+y,1/2-z
3 -x,-y,-z
4 x,-1/2-y,-1/2+z
_cell_length_a 6.023(2)
_cell_length_b 11.386(2)
_cell_length_c 24.973(5)
_cell_angle_alpha 90
_cell_angle_beta 90.48(2)
_cell_angle_gamma 90
_cell_formula_units_Z 4
loop_
_atom_type_symbol
_atom_type_radius_bond
C 0.68
H 0.23
N 0.68
O 0.68
loop_
_atom_site_label
_atom_site_type_symbol
_atom_site_fract_x
_atom_site_fract_y
_atom_site_fract_z
O1 O 0.0979(4) 0.0852(2) 0.1840(1)
O2 O -0.5448(4) 0.5563(2) 0.2449(1)
O3 O -0.3304(5) 0.6742(2) 0.2038(1)
O4 O 0.4568(5) 0.4905(3) -0.0841(1)
O5 O 0.7139(5) 0.3589(3) -0.0834(1)
N1 N 0.1206(5) 0.0184(2) 0.0963(1)
N2 N -0.3823(5) 0.5771(3) 0.2176(1)
N3 N 0.5379(6) 0.3981(3) -0.0687(1)
C1 C 0.1404(5) 0.1850(3) 0.1521(1)
C2 C 0.0766(5) 0.1454(3) 0.0954(1)
C3 C 0.1593(6) -0.0140(3) 0.1525(2)
C4 C -0.0657(8) -0.0542(4) 0.0772(2)
C5 C -0.1681(9) -0.1033(4) 0.1237(2)
C6 C 0.0114(8) -0.1169(4) 0.1643(2)
C7 C 0.0122(5) 0.2894(3) 0.1717(1)
C8 C 0.0829(5) 0.4027(3) 0.1626(1)
C9 C -0.0440(6) 0.4968(3) 0.1775(2)
C10 C -0.2445(6) 0.4769(3) 0.2016(1)
C11 C -0.3170(5) 0.3653(3) 0.2124(1)
C12 C -0.1900(6) 0.2713(3) 0.1969(1)
C13 C 0.1953(5) 0.2098(3) 0.0511(1)
C14 C 0.1060(6) 0.3103(3) 0.0290(1)
C15 C 0.2149(7) 0.3719(3) -0.0104(2)
C16 C 0.4186(6) 0.3310(3) -0.0268(1)
C17 C 0.5114(6) 0.2322(4) -0.0063(2)
C18 C 0.3974(6) 0.1712(3) 0.0331(2)
H1 H 0.294(4) 0.207(2) 0.152(1)
H2 H -0.075(4) 0.161(2) 0.0904(9)
H3 H 0.321(5) -0.018(2) 0.159(1)
H4 H 0.232(4) 0.414(2) 0.147(1)
H5 H 0.000(4) 0.571(2) 0.173(1)
H6 H -0.445(4) 0.351(2) 0.229(1)
H7 H -0.231(4) 0.193(2) 0.2043(9)
H8 H -0.038(4) 0.336(2) 0.039(1)
H9 H 0.159(5) 0.438(2) -0.026(1)
H10 H 0.649(5) 0.201(3) -0.019(1)
H11 H 0.459(5) 0.104(2) 0.045(1)
H12 H 0.007(8) -0.143(4) 0.063(2)
H13 H -0.135(6) -0.009(3) 0.048(1)
H14 H -0.227(1) -0.015(8) 0.122(3)
H15 H -0.268(5) -0.169(2) 0.118(1)
H16 H 0.096(8) -0.188(4) 0.157(2)
H17 H -0.030(5) -0.115(3) 0.200(1)
#END
