
#######################################################################
#
#                 Cambridge Crystallographic Data Centre
#                                CCDC
#
#######################################################################
#
# If this CIF has been generated from an entry in the Cambridge
# Structural Database, then it will include bibliographic, chemical,
# crystal, experimental, refinement or atomic coordinate data resulting
# from the CCDC's data processing and validation procedures.
#
#######################################################################

data_CSD_CIF_FUGTIK
_audit_creation_date 1988-09-05
_audit_creation_method CSD-ConQuest-V1
_database_code_CSD FUGTIK
_chemical_formula_sum 'C10 H13 N3 O4'
_chemical_formula_moiety
;
C10 H13 N3 O4
;
_journal_coeditor_code "IUCr A27661"
_journal_coden_Cambridge 591
_journal_volume 43
_journal_year 1987
_journal_page_first 2381
_journal_name_full 'Acta Crystallogr.,Sect.C:Cryst.Struct.Commun. '
loop_
_publ_author_name
"J.K.Maurin"
"T.M.Krygowski"
_chemical_name_systematic
;
N,N-Diethyl-3,4-dinitroaniline
;
_cell_volume   2363.761
_exptl_crystal_colour 'orange'
_exptl_crystal_density_diffrn 1.344
_exptl_special_details
;
high temperature P21/c polymorph

;
_diffrn_ambient_temperature ?
_diffrn_special_details
;
The study was carried out at room temperature,in the range 283-303K

;
_refine_special_details
;
One ethyl group of one molecule is disordered over two sites with occupancies 
of 0.7624 and 0.2376; the former is retained.
;
#These two values have been output from a single CSD field.
_refine_ls_R_factor_gt 0.0479
_refine_ls_wR_factor_gt 0.0479
_symmetry_cell_setting monoclinic
_symmetry_space_group_name_H-M 'P 21/c'
_symmetry_Int_Tables_number 14
loop_
_symmetry_equiv_pos_site_id
_symmetry_equiv_pos_as_xyz
1 x,y,z
2 -x,1/2+y,1/2-z
3 -x,-y,-z
4 x,-1/2-y,-1/2+z
_cell_length_a 14.379(2)
_cell_length_b 9.814(1)
_cell_length_c 17.793(2)
_cell_angle_alpha 90
_cell_angle_beta 109.71(1)
_cell_angle_gamma 90
_cell_formula_units_Z 8
loop_
_atom_type_symbol
_atom_type_radius_bond
C 0.68
H 0.23
N 0.68
O 0.68
loop_
_atom_site_label
_atom_site_type_symbol
_atom_site_fract_x
_atom_site_fract_y
_atom_site_fract_z
C1 C -0.0392(2) 0.1079(3) 0.1352(2)
C2 C 0.0640(2) 0.1074(3) 0.1496(2)
C3 C 0.1076(2) 0.0001(3) 0.1262(1)
C4 C 0.0546(2) -0.1130(13) 0.0880(2)
C5 C -0.0461(2) -0.1144(3) 0.0735(2)
C6 C -0.0914(2) -0.0075(3) 0.0966(2)
N1 N -0.0831(2) 0.2129(2) 0.1589(1)
N2 N 0.2160(2) 0.0091(3) 0.1475(2)
N3 N 0.0988(2) -0.2248(3) 0.0601(2)
C7 C -0.1911(2) 0.2188(4) 0.1396(2)
C8 C -0.0119(3) 0.4422(4) 0.1551(3)
C9 C -0.0274(3) 0.3276(4) 0.2053(2)
C10 C -0.2223(3) 0.1516(6) 0.2038(3)
O1 O 0.2473(2) 0.0790(3) 0.1058(2)
O2 O 0.2656(2) -0.0500(3) 0.2067(2)
O3 O 0.1842(2) -0.2130(2) 0.0631(2)
O4 O 0.0499(2) -0.3257(2) 0.0338(2)
C11 C 0.5495(2) 0.0400(3) 0.4046(2)
C12 C 0.4452(2) 0.0477(3) 0.3811(2)
C13 C 0.4001(2) 0.1686(3) 0.3844(2)
C14 C 0.4526(2) 0.2877(3) 0.4092(2)
C15 C 0.5545(2) 0.2837(3) 0.4297(2)
C16 C 0.6016(2) 0.1632(3) 0.4271(2)
N4 N 0.5960(2) -0.0790(2) 0.4032(2)
N5 N 0.2913(2) 0.1709(3) 0.3490(2)
N6 N 0.4062(2) 0.4129(3) 0.4212(1)
C17 C 0.5426(2) -0.2079(3) 0.3798(2)
C18 C 0.5034(3) -0.2335(5) 0.2910(2)
C19 C 0.7055(3) -0.0893(6) 0.4333(3)
C20 C 0.7369(5) -0.0485(6) 0.3642(3)
O5 O 0.2458(2) 0.0811(2) 0.3683(2)
O6 O 0.2542(1) 0.2590(3) 0.2999(1)
O7 O 0.3328(1) 0.4061(2) 0.4408(1)
O8 O 0.4453(2) 0.5215(2) 0.4131(1)
H1 H 0.0996(17) 0.1809(24) 0.1752(14)
H2 H -0.0821(17) -0.1950(25) 0.0480(14)
H3 H -0.1533(17) -0.0104(24) 0.0865(14)
H4 H -0.2224(20) 0.1823(29) 0.0869(18)
H5 H -0.2066(20) 0.3212(33) 0.1338(17)
H6 H -0.2035(28) 0.0489(43) 0.2047(24)
H7 H -0.1773(27) 0.2024(40) 0.2659(25)
H8 H -0.2820(25) 0.1693(40) 0.1954(23)
H9 H -0.0643(20) 0.3620(28) 0.2350(17)
H10 H 0.0356(20) 0.2847(28) 0.2453(17)
H11 H 0.0265(27) 0.4096(38) 0.1264(23)
H12 H 0.0199(27) 0.5177(38) 0.1862(23)
H13 H -0.0723(27) 0.4718(39) 0.1128(22)
H14 H 0.4031(17) -0.0242(25) 0.3583(14)
H15 H 0.5919(19) 0.3665(28) 0.4484(16)
H16 H 0.6734(21) 0.1595(30) 0.4451(17)
H17 H 0.4907(20) -0.2039(28) 0.3991(16)
H18 H 0.5983(19) -0.2764(27) 0.4098(16)
H19 H 0.5620(28) -0.2368(40) 0.2715(23)
H20 H 0.4680(29) -0.1449(40) 0.2618(24)
H21 H 0.4710(28) -0.3241(40) 0.2787(24)
H22 H 0.7497(3) -0.0346(6) 0.4859(3)
H23 H 0.7254(3) -0.1958(6) 0.4396(3)
H24 H 0.7051(5) -0.1040(6) 0.3091(3)
H25 H 0.8119(5) -0.0825(6) 0.3936(3)
H26 H 0.7369(5) 0.0591(6) 0.3515(3)
#END
