
#######################################################################
#
#                 Cambridge Crystallographic Data Centre
#                                CCDC
#
#######################################################################
#
# If this CIF has been generated from an entry in the Cambridge
# Structural Database, then it will include bibliographic, chemical,
# crystal, experimental, refinement or atomic coordinate data resulting
# from the CCDC's data processing and validation procedures.
#
#######################################################################

data_CSD_CIF_FUGTIK01
_audit_creation_date 1991-01-07
_audit_creation_method CSD-ConQuest-V1
_database_code_CSD FUGTIK01
_database_code_depnum_ccdc_archive 'CCDC 1160776'
_chemical_formula_sum 'C10 H13 N3 O4'
_chemical_formula_moiety
;
C10 H13 N3 O4
;
_journal_coden_Cambridge 456
_journal_volume 62
_journal_year 1988
_journal_page_first 857
_journal_name_full 'Pol.J.Chem. '
loop_
_publ_author_name
"J.K.Maurin"
_chemical_name_systematic
;
N,N-Diethyl-3,4-dinitroaniline
;
_cell_volume   2347.926
_exptl_crystal_density_diffrn 1.353
_exptl_special_details
;
high-temperature P21/n polymorph
Bond OA4-NA3 is 1.186 not 1.86

;
_diffrn_ambient_temperature ?
_diffrn_special_details
;
The study was carried out at room temperature,in the range 283-303K

;
_refine_special_details
;
The molecule is partially disordered. The C atoms of the diethylamino group 
in one of the molecules are disordered over 2 positions.
;
#These two values have been output from a single CSD field.
_refine_ls_R_factor_gt 0.0726
_refine_ls_wR_factor_gt 0.0726
_symmetry_cell_setting monoclinic
_symmetry_space_group_name_H-M 'P 21/n'
_symmetry_Int_Tables_number 14
loop_
_symmetry_equiv_pos_site_id
_symmetry_equiv_pos_as_xyz
1 x,y,z
2 1/2-x,1/2+y,1/2-z
3 -x,-y,-z
4 -1/2+x,-1/2-y,-1/2+z
_cell_length_a 10.538(1)
_cell_length_b 15.684(2)
_cell_length_c 14.875(2)
_cell_angle_alpha 90
_cell_angle_beta 107.25(1)
_cell_angle_gamma 90
_cell_formula_units_Z 8
loop_
_atom_type_symbol
_atom_type_radius_bond
C 0.68
N 0.68
O 0.68
loop_
_atom_site_label
_atom_site_type_symbol
_atom_site_fract_x
_atom_site_fract_y
_atom_site_fract_z
C1 C 0.1150(5) 0.2670(4) 0.8376(4)
C2 C 0.0621(5) 0.2629(4) 0.7390(4)
C3 C 0.1403(6) 0.2746(4) 0.6819(4)
C4 C 0.2752(5) 0.2906(4) 0.7172(4)
C5 C 0.3295(6) 0.2958(4) 0.8135(4)
C6 C 0.2530(5) 0.2846(4) 0.8726(4)
N1 N 0.0400(5) 0.2542(3) 0.8952(3)
C7 C 0.0938(6) 0.2674(5) 0.9989(4)
C8 C -0.1007(6) 0.2290(4) 0.8613(4)
C9 C -0.1915(6) 0.3047(5) 0.8426(5)
C10 C 0.1634(7) 0.1891(5) 1.0470(5)
N2 N 0.3586(6) 0.3049(3) 0.6580(4)
O1 O 0.3065(5) 0.3153(4) 0.5740(3)
O2 O 0.4788(4) 0.3078(3) 0.6948(3)
N3 N 0.0722(6) 0.2658(5) 0.5798(4)
O3 O -0.0004(5) 0.3236(4) 0.5437(3)
O4 O 0.0889(7) 0.2038(4) 0.5390(4)
C11 C 0.2228(5) 0.5333(5) 0.7392(5)
C12 C 0.3400(6) 0.5332(4) 0.8160(4)
C13 C 0.4601(6) 0.5263(4) 0.8003(4)
C14 C 0.4743(6) 0.5201(4) 0.7105(5)
C15 C 0.3581(6) 0.5212(4) 0.6354(5)
C16 C 0.2354(7) 0.5284(5) 0.6489(5)
N4 N 0.1034(6) 0.5380(5) 0.7566(5)
C17 C -0.0202(9) 0.5123(6) 0.6833(7)
C18 C 0.0913(13) 0.5769(6) 0.8450(7)
C19 C -0.0767(15) 0.5960(7) 0.6408(9)
C20 C 0.0819(16) 0.4987(7) 0.9010(9)
N5 N 0.6001(7) 0.5091(4) 0.6939(6)
O5 O 0.6973(5) 0.4991(4) 0.7599(5)
O6 O 0.6046(5) 0.5121(4) 0.6118(5)
N6 N 0.5757(6) 0.5305(5) 0.8841(5)
O7 O 0.6016(6) 0.4697(4) 0.9340(4)
O8 O 0.6339(6) 0.5972(4) 0.9007(5)
C21? C 0.0846(18) 0.4985(8) 0.8420(8)
C22? C 0.0797(20) 0.5772(10) 0.8984(13)
C23? C -0.0037(19) 0.5820(12) 0.6840(14)
C24? C -0.0639(23) 0.5061(13) 0.6249(15)
#END
