
#######################################################################
#
#                 Cambridge Crystallographic Data Centre
#                                CCDC
#
#######################################################################
#
# If this CIF has been generated from an entry in the Cambridge
# Structural Database, then it will include bibliographic, chemical,
# crystal, experimental, refinement or atomic coordinate data resulting
# from the CCDC's data processing and validation procedures.
#
#######################################################################

data_CSD_CIF_FUGVEJ
_audit_creation_date 2010-01-11
_audit_creation_method CSD-ConQuest-V1
_database_code_CSD FUGVEJ
_database_code_depnum_ccdc_archive 'CCDC 754319'
_chemical_formula_sum 'C5 H9 N5 O5'
_chemical_formula_moiety
;
C5 H9 N5 O5
;
_journal_coeditor_code "IUCr ZS2012"
_journal_coden_Cambridge 1370
_journal_volume 65
_journal_year 2009
_journal_page_first o2749
_journal_name_full 'Acta Crystallogr.,Sect.E:Struct.Rep.Online '
loop_
_publ_author_name
"Qiao-Ling Zhang"
"Xiao-Feng Qu"
"Jian-Long Wang"
_chemical_name_systematic
;
1-(3,5-Dinitro-1,3,5-triazinan-1-yl)ethanone
;
_chemical_melting_point 431
_cell_volume    870.701
_exptl_crystal_colour 'colorless'
_exptl_crystal_density_diffrn 1.672
_exptl_special_details
;
chair conformer

;
_exptl_crystal_description 'block'
_exptl_crystal_preparation 'nitromethane'
_diffrn_ambient_temperature 293
#These two values have been output from a single CSD field.
_refine_ls_R_factor_gt 0.0511
_refine_ls_wR_factor_gt 0.0511
_symmetry_cell_setting monoclinic
_symmetry_space_group_name_H-M 'P 21/n'
_symmetry_Int_Tables_number 14
loop_
_symmetry_equiv_pos_site_id
_symmetry_equiv_pos_as_xyz
1 x,y,z
2 1/2-x,1/2+y,1/2-z
3 -x,-y,-z
4 -1/2+x,-1/2-y,-1/2+z
_cell_length_a 8.8972(18)
_cell_length_b 10.061(2)
_cell_length_c 9.890(2)
_cell_angle_alpha 90
_cell_angle_beta 100.42(3)
_cell_angle_gamma 90
_cell_formula_units_Z 4
loop_
_atom_type_symbol
_atom_type_radius_bond
C 0.68
H 0.23
N 0.68
O 0.68
loop_
_atom_site_label
_atom_site_type_symbol
_atom_site_fract_x
_atom_site_fract_y
_atom_site_fract_z
C1 C 0.47469(19) 0.41301(16) 0.32195(16)
H1 H 0.50050 0.38370 0.41680
H2 H 0.40000 0.48390 0.31700
C2 C 0.72467(19) 0.35894(19) 0.26987(18)
H3 H 0.80440 0.39410 0.22480
H4 H 0.77130 0.33290 0.36240
C3 C 0.51659(19) 0.19589(16) 0.23350(19)
H5 H 0.47080 0.12920 0.16800
H6 H 0.53920 0.15470 0.32360
C4 C 0.26587(18) 0.29469(17) 0.16314(15)
C5 C 0.1604(2) 0.4079(2) 0.1715(2)
H7 H 0.06270 0.38920 0.11580
H8 H 0.20200 0.48730 0.13900
H9 H 0.14850 0.42010 0.26530
N1 N 0.41055(15) 0.30361(13) 0.23592(13)
N2 N 0.61111(16) 0.46206(14) 0.27642(13)
N3 N 0.65682(16) 0.24375(17) 0.19558(16)
N4 N 0.5835(2) 0.54679(16) 0.16262(16)
N5 N 0.69287(18) 0.21008(15) 0.07159(15)
O1 O 0.6820(2) 0.55437(17) 0.09159(16)
O2 O 0.22571(14) 0.19538(13) 0.09572(13)
O3 O 0.6163(2) 0.12455(17) 0.00671(15)
O4 O 0.80447(17) 0.26203(18) 0.03929(15)
O5 O 0.4676(2) 0.61206(16) 0.14783(19)
#END
