
#######################################################################
#
#                 Cambridge Crystallographic Data Centre
#                                CCDC
#
#######################################################################
#
# If this CIF has been generated from an entry in the Cambridge
# Structural Database, then it will include bibliographic, chemical,
# crystal, experimental, refinement or atomic coordinate data resulting
# from the CCDC's data processing and validation procedures.
#
#######################################################################

data_CSD_CIF_FUGZEN
_audit_creation_date 2010-01-11
_audit_creation_method CSD-ConQuest-V1
_database_code_CSD FUGZEN
_database_code_depnum_ccdc_archive 'CCDC 754339'
_chemical_formula_sum 'C25 H34 N2 O6'
_chemical_formula_moiety
;
C25 H34 N2 O6
;
_journal_coeditor_code "IUCr HG2576"
_journal_coden_Cambridge 1370
_journal_volume 65
_journal_year 2009
_journal_page_first o2771
_journal_name_full 'Acta Crystallogr.,Sect.E:Struct.Rep.Online '
loop_
_publ_author_name
"Li Li"
"Hong-Zheng Ma"
"Su-Xia Gao"
"Wen-Kui Dong"
"Jian-Chao Wu"
_chemical_name_systematic
;
5,5'-Dimethoxy-2,2'-[(nonane-1,9-diyldioxy)bis(nitrilomethylidyne)]diphenol
;
_chemical_melting_point 465
_cell_volume   1236.733
_exptl_crystal_colour 'colorless'
_exptl_crystal_density_diffrn 1.231
_exptl_special_details
;
Melting point range 465-467K

;
_exptl_crystal_description 'block-like'
_exptl_crystal_preparation 'ethanol'
_diffrn_ambient_temperature 298
#These two values have been output from a single CSD field.
_refine_ls_R_factor_gt 0.0492
_refine_ls_wR_factor_gt 0.0492
_symmetry_cell_setting triclinic
_symmetry_space_group_name_H-M 'P -1'
_symmetry_Int_Tables_number 2
loop_
_symmetry_equiv_pos_site_id
_symmetry_equiv_pos_as_xyz
1 x,y,z
2 -x,-y,-z
_cell_length_a 10.4701(10)
_cell_length_b 11.1249(12)
_cell_length_c 12.7602(14)
_cell_angle_alpha 65.544(1)
_cell_angle_beta 86.664(2)
_cell_angle_gamma 67.085(1)
_cell_formula_units_Z 2
loop_
_atom_type_symbol
_atom_type_radius_bond
C 0.68
H 0.23
N 0.68
O 0.68
loop_
_atom_site_label
_atom_site_type_symbol
_atom_site_fract_x
_atom_site_fract_y
_atom_site_fract_z
N1 N 0.2659(2) -0.4795(2) 0.60645(19)
N2 N 0.7314(2) 0.4634(2) 0.87062(18)
O1 O 0.34859(18) -0.40335(19) 0.59502(16)
O2 O 0.72925(18) 0.37983(19) 0.81319(15)
O3 O 0.07937(17) -0.58178(17) 0.68503(15)
H1 H 0.12690 -0.53620 0.67940
O4 O 0.02223(19) -0.88667(18) 0.53611(16)
O5 O 0.67807(19) 0.59846(18) 1.00861(15)
H2 H 0.66990 0.54720 0.98050
O6 O 0.9436(2) 0.87142(19) 0.98147(17)
C1 C 0.3053(3) -0.3278(3) 0.6680(2)
H3 H 0.31080 -0.39480 0.74780
H4 H 0.20980 -0.25670 0.64220
C2 C 0.4015(3) -0.2568(3) 0.6585(2)
H5 H 0.39480 -0.19200 0.57770
H6 H 0.49630 -0.33010 0.68130
C3 C 0.3762(3) -0.1723(3) 0.7304(2)
H7 H 0.28100 -0.09990 0.70970
H8 H 0.38710 -0.23690 0.81190
C4 C 0.4758(2) -0.0993(3) 0.7122(2)
H9 H 0.57050 -0.17270 0.73370
H10 H 0.46610 -0.03740 0.63020
C5 C 0.4563(2) -0.0103(2) 0.7788(2)
H11 H 0.47170 -0.07270 0.86120
H12 H 0.36050 0.06060 0.76050
C6 C 0.5536(3) 0.0667(2) 0.7526(2)
H13 H 0.64910 -0.00450 0.76890
H14 H 0.53670 0.13000 0.67030
C7 C 0.5397(3) 0.1549(3) 0.8196(2)
H15 H 0.55730 0.09220 0.90190
H16 H 0.44460 0.22690 0.80320
C8 C 0.6393(3) 0.2293(3) 0.7898(2)
H17 H 0.73370 0.15680 0.80350
H18 H 0.61960 0.29320 0.70760
C9 C 0.6336(3) 0.3152(3) 0.8561(2)
H19 H 0.54010 0.38850 0.84450
H20 H 0.65940 0.25280 0.93840
C10 C 0.2957(2) -0.5469(3) 0.5419(2)
H21 H 0.36580 -0.54070 0.49430
C11 C 0.2216(2) -0.6325(2) 0.5424(2)
C12 C 0.1170(2) -0.6471(2) 0.6125(2)
C13 C 0.0470(2) -0.7291(2) 0.6116(2)
H22 H -0.02420 -0.73590 0.65780
C14 C 0.0836(3) -0.8008(2) 0.5414(2)
C15 C 0.1875(3) -0.7888(3) 0.4717(2)
H23 H 0.21200 -0.83710 0.42430
C16 C 0.2542(3) -0.7060(3) 0.4726(2)
H24 H 0.32390 -0.69830 0.42480
C17 C -0.0791(3) -0.9095(3) 0.6107(2)
H25 H -0.03920 -0.94930 0.68970
H26 H -0.10960 -0.97550 0.60060
H27 H -0.15750 -0.81940 0.59270
C18 C 0.8248(3) 0.5120(2) 0.8369(2)
H28 H 0.87920 0.48710 0.78290
C19 C 0.8512(2) 0.6043(2) 0.8781(2)
C20 C 0.7786(2) 0.6443(3) 0.9615(2)
C21 C 0.8074(3) 0.7331(3) 0.9981(2)
H29 H 0.75820 0.75940 1.05370
C22 C 0.9084(3) 0.7820(3) 0.9523(2)
C23 C 0.9834(3) 0.7427(3) 0.8705(2)
H30 H 1.05320 0.77480 0.84050
C24 C 0.9532(3) 0.6557(2) 0.8348(2)
H31 H 1.00300 0.63010 0.77920
C25 C 0.8799(3) 0.9062(3) 1.0714(3)
H32 H 0.78060 0.95550 1.04990
H33 H 0.91510 0.96730 1.08420
H34 H 0.90050 0.81930 1.14120
#END
