
#######################################################################
#
#                 Cambridge Crystallographic Data Centre
#                                CCDC
#
#######################################################################
#
# If this CIF has been generated from an entry in the Cambridge
# Structural Database, then it will include bibliographic, chemical,
# crystal, experimental, refinement or atomic coordinate data resulting
# from the CCDC's data processing and validation procedures.
#
#######################################################################

data_CSD_CIF_FUHDES
_audit_creation_date 2010-01-11
_audit_creation_method CSD-ConQuest-V1
_database_code_CSD FUHDES
_database_code_depnum_ccdc_archive 'CCDC 754380'
_chemical_formula_sum 'C8 H6 N2 O6'
_chemical_formula_moiety
;
C8 H6 N2 O6
;
_journal_coeditor_code "IUCr HB5136"
_journal_coden_Cambridge 1370
_journal_volume 65
_journal_year 2009
_journal_page_first o2819
_journal_name_full 'Acta Crystallogr.,Sect.E:Struct.Rep.Online '
loop_
_publ_author_name
"M.N.Tahir"
"A.R.Raza"
"A.Saddiqa"
"M.Danish"
"I.Saleem"
_chemical_name_systematic
;
2-Methyl-3,5-dinitrobenzoic acid
;
_cell_volume   1841.637
_exptl_crystal_colour 'yellow'
_exptl_crystal_density_diffrn 1.631
_exptl_crystal_description 'needle'
_exptl_crystal_preparation 'methanol/water'
_diffrn_ambient_temperature 296
_refine_special_details
;
The oxygen atoms of each of the nitro groups are disordered over two sites 
with occupancies 0.595:0.405. The hydrogen atom of the carboxylic acid group 
is disordered over the two oxygen atoms with the same occupancies.
;
#These two values have been output from a single CSD field.
_refine_ls_R_factor_gt 0.0349
_refine_ls_wR_factor_gt 0.0349
_symmetry_cell_setting monoclinic
_symmetry_space_group_name_H-M 'C 2/c'
_symmetry_Int_Tables_number 15
loop_
_symmetry_equiv_pos_site_id
_symmetry_equiv_pos_as_xyz
1 x,y,z
2 -x,y,1/2-z
3 1/2+x,1/2+y,z
4 1/2-x,1/2+y,1/2-z
5 -x,-y,-z
6 x,-y,-1/2+z
7 -1/2-x,-1/2-y,-z
8 -1/2+x,-1/2-y,-1/2+z
_cell_length_a 26.8441(16)
_cell_length_b 5.1044(3)
_cell_length_c 13.8853(10)
_cell_angle_alpha 90
_cell_angle_beta 104.544(3)
_cell_angle_gamma 90
_cell_formula_units_Z 8
loop_
_atom_type_symbol
_atom_type_radius_bond
C 0.68
H 0.23
N 0.68
O 0.68
loop_
_atom_site_label
_atom_site_type_symbol
_atom_site_fract_x
_atom_site_fract_y
_atom_site_fract_z
O1 O 0.01701(4) 0.2581(2) 0.43564(8)
O2 O 0.05404(4) -0.13177(19) 0.47311(8)
O3 O 0.2288(4) -0.200(2) 0.3383(8)
O4 O 0.2604(2) 0.1735(16) 0.3731(8)
O5 O 0.1204(4) 0.696(2) 0.1252(9)
O6 O 0.0510(4) 0.781(2) 0.1802(7)
N1 N 0.22362(4) 0.0323(3) 0.35244(10)
N2 N 0.09302(5) 0.6426(3) 0.17734(9)
C1 C 0.09152(4) 0.1704(2) 0.38137(9)
C2 C 0.14060(4) 0.0536(2) 0.39970(9)
C3 C 0.17128(4) 0.1421(3) 0.33837(10)
C4 C 0.15720(5) 0.3269(3) 0.26482(10)
C5 C 0.10921(5) 0.4375(3) 0.25252(9)
C6 C 0.07666(4) 0.3649(3) 0.31037(9)
C7 C 0.05193(4) 0.0909(3) 0.43530(9)
C8 C 0.16097(5) -0.1411(3) 0.48095(11)
H1 H 0.15619 -0.07488 0.54272
H2 H 0.19697 -0.16935 0.48691
H3 H 0.14278 -0.30373 0.46522
H4 H -0.0046(14) 0.209(6) 0.465(2)
H5 H 0.17896 0.37504 0.22525
H6 H 0.04484 0.44612 0.30177
H7? H 0.0315(19) -0.169(9) 0.498(4)
H8? H 0.19134 -0.07189 0.52575
H9? H 0.16930 -0.30148 0.45242
H10? H 0.13531 -0.17459 0.51669
O7? O 0.2269(6) -0.152(3) 0.3038(13)
O8? O 0.2566(3) 0.149(3) 0.4132(8)
O9? O 0.0598(5) 0.750(3) 0.1754(11)
O10? O 0.1179(7) 0.655(3) 0.1105(11)
#END
