
#######################################################################
#
#                 Cambridge Crystallographic Data Centre
#                                CCDC
#
#######################################################################
#
# If this CIF has been generated from an entry in the Cambridge
# Structural Database, then it will include bibliographic, chemical,
# crystal, experimental, refinement or atomic coordinate data resulting
# from the CCDC's data processing and validation procedures.
#
#######################################################################

data_CSD_CIF_FUHROQ
_audit_creation_date 2010-01-11
_audit_creation_method CSD-ConQuest-V1
_database_code_CSD FUHROQ
_database_code_depnum_ccdc_archive 'CCDC 754489'
_chemical_formula_sum 'C31 H49 N1 O5'
_chemical_formula_moiety
;
C31 H49 N1 O5
;
_journal_coeditor_code "IUCr NK2010"
_journal_coden_Cambridge 1370
_journal_volume 65
_journal_year 2009
_journal_page_first o2954
_journal_name_full 'Acta Crystallogr.,Sect.E:Struct.Rep.Online '
loop_
_publ_author_name
"M.-G.H.Linares"
"J.S.Ramirez"
"S.M.Reyes"
"S.M.Smith"
"S.Bernes"
_chemical_name_systematic
;
(23'E)-(23R,25S)-23-[1-(oxidoiminio)ethyl]-5\b-spirostan-3\b-yl acetate
;
_chemical_melting_point 516
_cell_volume   2949.318
_exptl_crystal_colour 'colorless'
_exptl_crystal_density_diffrn 1.161
_exptl_special_details
;
In the supplementary data the authors state that more data are required in 
order to fully characterize this zwitterion
;
_exptl_crystal_description 'irregular'
_exptl_crystal_preparation 'methanol/dichloromethane'
_diffrn_ambient_temperature 298
#These two values have been output from a single CSD field.
_refine_ls_R_factor_gt 0.0484
_refine_ls_wR_factor_gt 0.0484
_symmetry_cell_setting orthorhombic
_symmetry_space_group_name_H-M 'P 21 21 21'
_symmetry_Int_Tables_number 19
loop_
_symmetry_equiv_pos_site_id
_symmetry_equiv_pos_as_xyz
1 x,y,z
2 1/2-x,-y,1/2+z
3 -x,1/2+y,1/2-z
4 1/2+x,1/2-y,-z
_cell_length_a 8.385(2)
_cell_length_b 11.5627(16)
_cell_length_c 30.420(5)
_cell_angle_alpha 90
_cell_angle_beta 90
_cell_angle_gamma 90
_cell_formula_units_Z 4
loop_
_atom_type_symbol
_atom_type_radius_bond
C 0.68
H 0.23
N 0.68
O 0.68
loop_
_atom_site_label
_atom_site_type_symbol
_atom_site_fract_x
_atom_site_fract_y
_atom_site_fract_z
C1 C 1.0856(4) 0.6448(3) 0.33730(11)
H1 H 1.09150 0.59170 0.36190
H2 H 1.13930 0.60860 0.31260
C2 C 1.1766(4) 0.7539(4) 0.34940(12)
H3 H 1.18620 0.80300 0.32370
H4 H 1.28320 0.73330 0.35890
C3 C 1.0929(5) 0.8205(3) 0.38583(11)
H5 H 1.14860 0.89340 0.39170
C4 C 0.9219(5) 0.8431(3) 0.37427(11)
H6 H 0.91820 0.89640 0.34970
H7 H 0.87010 0.88020 0.39910
C5 C 0.8285(4) 0.7338(3) 0.36217(10)
H8 H 0.82710 0.68480 0.38850
C6 C 0.6548(4) 0.7627(4) 0.35160(11)
H9 H 0.61160 0.81130 0.37470
H10 H 0.59290 0.69190 0.35080
C7 C 0.6396(5) 0.8252(4) 0.30744(11)
H11 H 0.52770 0.83900 0.30120
H12 H 0.69250 0.89960 0.30930
C8 C 0.7128(4) 0.7551(3) 0.27006(10)
H13 H 0.65220 0.68310 0.26700
C9 C 0.8885(4) 0.7238(3) 0.27973(10)
H14 H 0.94610 0.79720 0.28210
C10 C 0.9083(4) 0.6615(3) 0.32507(10)
C11 C 0.9635(5) 0.6585(3) 0.24098(10)
H15 H 0.91450 0.58270 0.23890
H16 H 1.07610 0.64730 0.24690
C12 C 0.9452(4) 0.7207(3) 0.19660(11)
H17 H 1.00780 0.79130 0.19700
H18 H 0.98660 0.67160 0.17340
C13 C 0.7726(4) 0.7502(3) 0.1868(1)
C14 C 0.7059(4) 0.8196(3) 0.22627(10)
H19 H 0.77640 0.88670 0.22960
C15 C 0.5478(4) 0.8673(4) 0.20928(10)
H20 H 0.51230 0.93290 0.22660
H21 H 0.46550 0.80840 0.20930
C16 C 0.5917(4) 0.9040(3) 0.16224(10)
H22 H 0.60640 0.98800 0.16070
C17 C 0.7482(4) 0.8411(3) 0.14966(10)
H23 H 0.83610 0.89680 0.15080
C18 C 0.6769(5) 0.6401(3) 0.17818(12)
H24 H 0.67590 0.59320 0.20420
H25 H 0.72510 0.59760 0.15450
H26 H 0.56950 0.66020 0.17040
C19 C 0.8329(5) 0.5408(3) 0.32368(13)
H27 H 0.83760 0.50660 0.35240
H28 H 0.89030 0.49320 0.30320
H29 H 0.72370 0.54710 0.31450
C20 C 0.7218(4) 0.8046(3) 0.10144(10)
H30 H 0.71220 0.72020 0.10070
C21 C 0.8573(4) 0.8390(4) 0.07093(12)
H31 H 0.82760 0.82300 0.04110
H32 H 0.95120 0.79560 0.07830
H33 H 0.87870 0.92010 0.07410
C22 C 0.5588(4) 0.8561(3) 0.08961(10)
O1 O 0.4759(2) 0.86704(19) 0.13038(6)
C23 C 0.4554(4) 0.7843(3) 0.05791(10)
H34 H 0.52010 0.76970 0.03170
C24 C 0.3086(4) 0.8530(3) 0.04293(11)
H35 H 0.25370 0.81000 0.02010
H36 H 0.23590 0.86160 0.06750
C25 C 0.3526(5) 0.9721(3) 0.02546(11)
H37 H 0.25380 1.01570 0.02090
C26 C 0.4476(5) 1.0321(3) 0.06089(12)
H38 H 0.47730 1.10880 0.05090
H39 H 0.38210 1.04050 0.08700
O2 O 0.5890(3) 0.96787(19) 0.07171(7)
C27 C 0.4413(6) 0.9665(4) -0.01843(12)
H40 H 0.46990 1.04320 -0.02750
H41 H 0.37350 0.93190 -0.04020
H42 H 0.53600 0.92070 -0.01510
O3 O 1.0885(3) 0.7483(2) 0.42577(7)
C28 C 1.2125(5) 0.7503(3) 0.45297(11)
O4 O 1.3306(4) 0.8083(3) 0.44684(10)
C29 C 1.1864(5) 0.6731(4) 0.49129(12)
H43 H 1.25390 0.69700 0.51510
H44 H 1.21170 0.59500 0.48330
H45 H 1.07690 0.67750 0.50030
C30 C 0.4111(4) 0.6680(3) 0.07679(11)
C31 C 0.2777(5) 0.6538(4) 0.10802(13)
H46 H 0.30500 0.59620 0.12950
H47 H 0.18390 0.62990 0.09240
H48 H 0.25740 0.72600 0.12250
N1 N 0.5075(6) 0.5826(3) 0.06127(13)
H49 H 0.605(5) 0.585(2) 0.0434(17)
O5 O 0.4610(5) 0.4795(3) 0.07914(14)
#END
