
#######################################################################
#
#                 Cambridge Crystallographic Data Centre
#                                CCDC
#
#######################################################################
#
# If this CIF has been generated from an entry in the Cambridge
# Structural Database, then it will include bibliographic, chemical,
# crystal, experimental, refinement or atomic coordinate data resulting
# from the CCDC's data processing and validation procedures.
#
#######################################################################

data_CSD_CIF_FUHSEG
_audit_creation_date 1988-06-09
_audit_creation_method CSD-ConQuest-V1
_database_code_CSD FUHSEG
_database_code_depnum_ccdc_archive 'CCDC 1160861'
_chemical_formula_sum 'C9 H6 N2 O2'
_chemical_formula_moiety
;
C9 H6 N2 O2
;
_journal_coden_Cambridge 25
_journal_year 1987
_journal_page_first 325
_journal_name_full 'Bull.Soc.Chim.Fr. '
loop_
_publ_author_name
"H.Benhaoua"
"J.-C.Piet"
"R.Danion-Bougot"
"L.Toupet"
"R.Carrie"
_chemical_name_systematic
;
1-Cyano-1-nitro-2-phenylethene
;
_chemical_melting_point 373.15
_cell_volume    426.929
_diffrn_ambient_temperature ?
_diffrn_special_details
;
The study was carried out at room temperature,in the range 283-303K

;
#These two values have been output from a single CSD field.
_refine_ls_R_factor_gt 0.041
_refine_ls_wR_factor_gt 0.041
_symmetry_cell_setting triclinic
_symmetry_space_group_name_H-M 'P -1'
_symmetry_Int_Tables_number 2
loop_
_symmetry_equiv_pos_site_id
_symmetry_equiv_pos_as_xyz
1 x,y,z
2 -x,-y,-z
_cell_length_a 6.922(4)
_cell_length_b 7.490(4)
_cell_length_c 9.133(6)
_cell_angle_alpha 108.12(5)
_cell_angle_beta 94.22(5)
_cell_angle_gamma 105.63(6)
_cell_formula_units_Z 2
loop_
_atom_type_symbol
_atom_type_radius_bond
C 0.68
H 0.23
N 0.68
O 0.68
loop_
_atom_site_label
_atom_site_type_symbol
_atom_site_fract_x
_atom_site_fract_y
_atom_site_fract_z
O1 O 0.3406(4) 0.7617(5) 0.5208(3)
O2 O 0.0156(3) 0.6950(3) 0.4746(3)
N1 N 0.5267(4) 0.5110(5) 0.2352(4)
N2 N 0.1756(4) 0.6723(4) 0.4389(3)
C1 C 0.3717(5) 0.5202(5) 0.2595(4)
C2 C 0.1732(4) 0.5291(4) 0.2857(3)
C3 C -0.0052(4) 0.4270(4) 0.1927(3)
C4 C -0.0530(4) 0.2786(4) 0.0365(3)
C5 C 0.0909(4) 0.2268(5) -0.0533(4)
C6 C 0.0287(5) 0.0867(5) -0.2015(4)
C7 C -0.1748(5) -0.0026(5) -0.2613(4)
C8 C -0.3182(5) 0.0470(5) -0.1755(4)
C9 C -0.2583(4) 0.1879(5) -0.0266(4)
H1 H -0.120(4) 0.457(4) 0.234(3)
H2 H 0.225(4) 0.288(4) -0.015(3)
H3 H 0.134(4) 0.043(4) -0.260(3)
H4 H -0.216(4) -0.106(4) -0.360(3)
H5 H -0.455(4) -0.007(4) -0.216(3)
H6 H -0.362(4) 0.237(4) 0.032(3)
#END
