
#######################################################################
#
#                 Cambridge Crystallographic Data Centre
#                                CCDC
#
#######################################################################
#
# If this CIF has been generated from an entry in the Cambridge
# Structural Database, then it will include bibliographic, chemical,
# crystal, experimental, refinement or atomic coordinate data resulting
# from the CCDC's data processing and validation procedures.
#
#######################################################################

data_CSD_CIF_FUHSIL01
_audit_creation_date 2013-05-24
_audit_creation_method CSD-ConQuest-V1
_database_code_CSD FUHSIL01
_database_code_depnum_ccdc_archive 'CCDC 869913'
_chemical_formula_sum 'C19 H14 N2 O4'
_chemical_formula_moiety
;
C19 H14 N2 O4
;
_journal_coden_Cambridge 584
_journal_volume 32
_journal_year 2012
_journal_page_first 538
_journal_name_full 'Youji Huaxue(Chin.)(Chin.J.Org.Chem.) '
loop_
_publ_author_name
"Yanping Huo"
"Lili Dai"
"Baohua Huang"
"Kun Zhang"
"Yanxiong Fang"
"Jun Liu"
_chemical_name_systematic
;
(E)-2-(2-(2-Nitrophenyl)vinyl)quinolin-8-yl acetate
;
_cell_volume   3241.269
_exptl_crystal_colour 'yellow'
_exptl_crystal_density_diffrn 1.37
_exptl_crystal_description 'block'
_diffrn_ambient_temperature 173
#These two values have been output from a single CSD field.
_refine_ls_R_factor_gt 0.0578
_refine_ls_wR_factor_gt 0.0578
_symmetry_cell_setting orthorhombic
_symmetry_space_group_name_H-M 'P n a 21'
_symmetry_Int_Tables_number 33
loop_
_symmetry_equiv_pos_site_id
_symmetry_equiv_pos_as_xyz
1 x,y,z
2 -x,-y,1/2+z
3 1/2+x,1/2-y,z
4 1/2-x,1/2+y,1/2+z
_cell_length_a 25.8466(13)
_cell_length_b 11.8451(6)
_cell_length_c 10.5870(5)
_cell_angle_alpha 90
_cell_angle_beta 90
_cell_angle_gamma 90
_cell_formula_units_Z 8
loop_
_atom_type_symbol
_atom_type_radius_bond
C 0.68
H 0.23
N 0.68
O 0.68
loop_
_atom_site_label
_atom_site_type_symbol
_atom_site_fract_x
_atom_site_fract_y
_atom_site_fract_z
C1 C 0.79027(14) 0.4406(3) 0.2939(4)
H1 H 0.77530 0.51180 0.27480
C2 C 0.83678(14) 0.4416(3) 0.3458(4)
H2 H 0.85220 0.37120 0.36640
C3 C 0.92068(14) 0.7392(3) 0.4307(4)
C4 C 0.87102(14) 0.7393(3) 0.3743(4)
N1 N 0.84409(11) 0.6440(3) 0.3460(3)
C5 C 0.86607(13) 0.5452(3) 0.3734(4)
C6 C 0.91645(16) 0.5376(4) 0.4257(4)
H3 H 0.93150 0.46560 0.44030
C7 C 0.94344(14) 0.6324(4) 0.4549(4)
H4 H 0.97700 0.62730 0.49100
C8 C 0.94489(16) 0.8434(4) 0.4613(4)
H5 H 0.97790 0.84360 0.50070
C9 C 0.92101(17) 0.9425(4) 0.4346(4)
H6 H 0.93720 1.01160 0.45690
C10 C 0.87218(16) 0.9444(3) 0.3739(4)
H7 H 0.85600 1.01430 0.35440
C11 C 0.84871(14) 0.8454(3) 0.3436(4)
O1 O 0.79975(10) 0.8466(2) 0.2896(3)
C12 C 0.75968(15) 0.3408(3) 0.2631(4)
C13 C 0.71059(16) 0.3464(4) 0.2113(5)
C14 C 0.67993(18) 0.2511(5) 0.1900(6)
H8 H 0.64580 0.25890 0.15760
C15 C 0.6995(2) 0.1471(5) 0.2162(5)
H9 H 0.67940 0.08150 0.20050
C16 C 0.74860(19) 0.1373(4) 0.2656(5)
H10 H 0.76230 0.06460 0.28340
C17 C 0.77801(16) 0.2319(3) 0.2896(4)
H11 H 0.81160 0.22310 0.32490
C18 C 0.79586(15) 0.8136(3) 0.1658(4)
O2 O 0.83315(11) 0.7982(2) 0.1009(3)
C19 C 0.74072(15) 0.8026(4) 0.1270(5)
H12 H 0.73850 0.80110 0.03460
H13 H 0.72100 0.86700 0.15940
H14 H 0.72640 0.73240 0.16140
N2 N 0.68857(17) 0.4577(5) 0.1744(6)
O3 O 0.7137(2) 0.5202(4) 0.1073(7)
O4 O 0.64504(18) 0.4750(5) 0.2109(7)
C20 C 0.46521(13) -0.0779(3) 0.1266(4)
H15 H 0.48080 -0.00790 0.14830
C21 C 0.41923(15) -0.0756(3) 0.0705(4)
H16 H 0.40450 -0.14580 0.04590
C22 C 0.33041(14) 0.2153(3) -0.0099(4)
C23 C 0.37963(13) 0.2194(3) 0.0491(4)
N3 N 0.40900(11) 0.1266(3) 0.0752(3)
C24 C 0.38950(14) 0.0269(3) 0.0438(4)
C25 C 0.33986(15) 0.0140(3) -0.0117(4)
H17 H 0.32680 -0.05920 -0.02980
C26 C 0.31110(15) 0.1068(4) -0.0387(4)
H18 H 0.27800 0.09880 -0.07680
C27 C 0.30335(15) 0.3162(3) -0.0367(4)
H19 H 0.27050 0.31320 -0.07670
C28 C 0.32446(16) 0.4174(4) -0.0053(4)
H20 H 0.30630 0.48490 -0.02470
C29 C 0.37324(15) 0.4241(3) 0.0561(4)
H21 H 0.38760 0.49550 0.07720
C30 C 0.39908(14) 0.3276(3) 0.0842(4)
O5 O 0.44801(10) 0.3328(2) 0.1386(3)
C31 C 0.49328(13) -0.1817(3) 0.1570(4)
C32 C 0.54472(14) -0.1848(3) 0.2014(4)
C33 C 0.57112(16) -0.2840(4) 0.2254(5)
H22 H 0.60630 -0.28220 0.25130
C34 C 0.54573(16) -0.3852(4) 0.2111(5)
H23 H 0.56280 -0.45400 0.23110
C35 C 0.49544(15) -0.3867(3) 0.1678(5)
H24 H 0.47820 -0.45680 0.15640
C36 C 0.46994(14) -0.2877(3) 0.1411(4)
H25 H 0.43540 -0.29120 0.11090
C37 C 0.45270(15) 0.2938(3) 0.2601(4)
O6 O 0.41633(11) 0.2756(3) 0.3261(3)
C38 C 0.50824(17) 0.2795(4) 0.2951(5)
H26 H 0.51120 0.27150 0.38700
H27 H 0.52790 0.34580 0.26740
H28 H 0.52210 0.21180 0.25400
N4 N 0.57481(13) -0.0810(3) 0.2185(4)
O7 O 0.55389(14) 0.0009(3) 0.2665(4)
O8 O 0.62029(12) -0.0830(3) 0.1858(4)
#END
