
#######################################################################
#
#                 Cambridge Crystallographic Data Centre
#                                CCDC
#
#######################################################################
#
# If this CIF has been generated from an entry in the Cambridge
# Structural Database, then it will include bibliographic, chemical,
# crystal, experimental, refinement or atomic coordinate data resulting
# from the CCDC's data processing and validation procedures.
#
#######################################################################

data_CSD_CIF_FUHTAD
_audit_creation_date 1988-06-09
_audit_creation_method CSD-ConQuest-V1
_database_code_CSD FUHTAD
_database_code_depnum_ccdc_archive 'CCDC 1160865'
_chemical_formula_sum 'C28 H25 N3 O9'
_chemical_formula_moiety
;
C28 H25 N3 O9
;
_journal_coden_Cambridge 25
_journal_year 1987
_journal_page_first 325
_journal_name_full 'Bull.Soc.Chim.Fr. '
loop_
_publ_author_name
"H.Benhaoua"
"J.-C.Piet"
"R.Danion-Bougot"
"L.Toupet"
"R.Carrie"
_chemical_name_systematic
;
4-Acetyl-2,2-bis(methoxycarbonyl)-4-nitro-3-p-nitrophenyl-1,5-diphenylpyrrolid
ine
;
_chemical_melting_point 436.15
_cell_volume   2701.572
_exptl_special_details
;
non-solvated isomer
Table 7 and the experimental section do not agree on the m.p. Former says 
150deg.C, the latter 163deg.C
;
_diffrn_ambient_temperature ?
_diffrn_special_details
;
The study was carried out at room temperature,in the range 283-303K

;
#These two values have been output from a single CSD field.
_refine_ls_R_factor_gt 0.058
_refine_ls_wR_factor_gt 0.058
_symmetry_cell_setting monoclinic
_symmetry_space_group_name_H-M 'P 21/n'
_symmetry_Int_Tables_number 14
loop_
_symmetry_equiv_pos_site_id
_symmetry_equiv_pos_as_xyz
1 x,y,z
2 1/2-x,1/2+y,1/2-z
3 -x,-y,-z
4 -1/2+x,-1/2-y,-1/2+z
_cell_length_a 12.688(6)
_cell_length_b 10.718(6)
_cell_length_c 20.051(8)
_cell_angle_alpha 90
_cell_angle_beta 97.79(7)
_cell_angle_gamma 90
_cell_formula_units_Z 4
loop_
_atom_type_symbol
_atom_type_radius_bond
C 0.68
H 0.23
N 0.68
O 0.68
loop_
_atom_site_label
_atom_site_type_symbol
_atom_site_fract_x
_atom_site_fract_y
_atom_site_fract_z
O1 O 0.9368(2) 0.7045(3) 0.0007(2)
O2 O 0.8633(2) 0.5943(2) -0.0877(1)
O3 O 0.6086(2) 0.6199(2) 0.0303(1)
O4 O 0.7491(2) 0.5030(2) 0.0135(1)
O5 O 0.6406(2) 0.8944(3) -0.2086(1)
O6 O 0.4429(2) 0.7699(2) -0.1182(2)
O7 O 0.4874(2) 0.8442(3) -0.0181(1)
O8 O 0.5715(3) 0.2856(3) -0.3095(2)
O9 O 0.4385(3) 0.2673(3) -0.2544(2)
N1 N 0.7388(2) 0.8291(3) 0.0029(1)
N2 N 0.5068(2) 0.8177(3) -0.0744(2)
N3 N 0.5211(3) 0.3176(3) -0.2650(2)
C1 C 0.6829(3) 0.9252(3) -0.0401(2)
C2 C 0.7442(3) 0.7091(3) -0.0295(2)
C3 C 0.6839(3) 0.7313(3) -0.1014(2)
C4 C 0.6157(3) 0.8495(3) -0.0956(2)
C5 C 0.8614(3) 0.6705(3) -0.0353(2)
C6 C 0.9654(3) 0.5485(4) -0.1000(2)
C7 C 0.6907(3) 0.6066(3) 0.0088(2)
C8 C 0.7044(4) 0.3989(4) 0.0466(2)
C9 C 0.5890(3) 0.9169(4) -0.1645(2)
C10 C 0.5014(4) 1.0115(4) -0.1725(2)
C11 C 0.6372(3) 0.6197(3) -0.1417(2)
C12 C 0.6758(3) 0.5937(4) -0.2021(2)
C13 C 0.6406(3) 0.4945(4) -0.2419(2)
C14 C 0.5627(3) 0.4219(3) -0.2211(2)
C15 C 0.5208(3) 0.4424(3) -0.1621(2)
C16 C 0.5595(3) 0.5412(3) -0.1216(2)
C17 C 0.7699(3) 0.8522(4) 0.0715(2)
C18 C 0.8094(4) 0.7599(4) 0.1162(2)
C19 C 0.8362(4) 0.7864(5) 0.1845(2)
C20 C 0.8252(4) 0.9054(6) 0.2088(2)
C21 C 0.7884(3) 0.9972(5) 0.1649(2)
C22 C 0.7613(2) 0.9740(4) 0.0969(2)
C23 C 0.7552(3) 1.0209(3) -0.0662(2)
C24 C 0.8606(3) 0.9953(3) -0.0700(2)
C25 C 0.9229(3) 1.0857(4) -0.0953(2)
C26 C 0.8830(3) 1.1993(4) -0.1155(2)
C27 C 0.7802(4) 1.2252(4) -0.1095(2)
C28 C 0.7140(3) 1.1385(4) -0.0847(2)
H1 H 0.630(2) 0.967(3) -0.017(1)
H2 H 0.736(2) 0.764(3) -0.125(1)
H3 H 1.016(2) 0.621(3) -0.094(1)
H4 H 0.996(2) 0.502(3) -0.066(1)
H5 H 0.953(2) 0.519(3) -0.145(1)
H6 H 0.759(2) 0.344(3) 0.051(1)
H7 H 0.692(2) 0.428(3) 0.093(1)
H8 H 0.633(2) 0.381(3) 0.021(1)
H9 H 0.521(2) 1.073(3) -0.201(1)
H10 H 0.442(2) 0.970(3) -0.193(1)
H11 H 0.476(2) 1.035(3) -0.133(1)
H12 H 0.729(2) 0.641(3) -0.214(1)
H13 H 0.66500 0.46400 -0.29300
H14 H 0.47300 0.38000 -0.14500
H15 H 0.52300 0.55900 -0.07200
H16 H 0.81600 0.67300 0.10000
H17 H 0.86500 0.71900 0.21700
H18 H 0.84700 0.92500 0.26300
H19 H 0.78100 1.07400 0.18000
H20 H 0.73300 1.04800 0.06400
H21 H 0.89400 0.90800 -0.05500
H22 H 1.00800 1.06200 -0.10000
H23 H 0.92800 1.26400 -0.13400
H24 H 0.75500 1.30200 -0.12200
H25 H 0.63200 1.15900 -0.08200
#END
