
#######################################################################
#
#                 Cambridge Crystallographic Data Centre
#                                CCDC
#
#######################################################################
#
# If this CIF has been generated from an entry in the Cambridge
# Structural Database, then it will include bibliographic, chemical,
# crystal, experimental, refinement or atomic coordinate data resulting
# from the CCDC's data processing and validation procedures.
#
#######################################################################

data_CSD_CIF_FUHTEH
_audit_creation_date 1988-06-09
_audit_creation_method CSD-ConQuest-V1
_database_code_CSD FUHTEH
_database_code_depnum_ccdc_archive 'CCDC 1160866'
_chemical_formula_sum 'C25 H24 N2 O4'
_chemical_formula_moiety
;
C25 H24 N2 O4
;
_journal_coden_Cambridge 25
_journal_year 1987
_journal_page_first 325
_journal_name_full 'Bull.Soc.Chim.Fr. '
loop_
_publ_author_name
"H.Benhaoua"
"J.-C.Piet"
"R.Danion-Bougot"
"L.Toupet"
"R.Carrie"
_chemical_name_systematic
;
2-Ethoxycarbonyl-4-nitro-1,3,5-triphenylpyrrolidine
;
_chemical_melting_point 471.15
_cell_volume   2217.389
_exptl_special_details
;
Several of the C-H bond distances appear to be in error and have been 
deleted. C24A-C25a is 1.33,2 not 1.39,2
;
_diffrn_ambient_temperature ?
_diffrn_special_details
;
The study was carried out at room temperature,in the range 283-303K

;
#These two values have been output from a single CSD field.
_refine_ls_R_factor_gt 0.103
_refine_ls_wR_factor_gt 0.103
loop_
_citation_database_id_CSD
_citation_special_details
FUHTIL "is a stereoisomer of this entry"
_symmetry_cell_setting triclinic
_symmetry_space_group_name_H-M 'P -1'
_symmetry_Int_Tables_number 2
loop_
_symmetry_equiv_pos_site_id
_symmetry_equiv_pos_as_xyz
1 x,y,z
2 -x,-y,-z
_cell_length_a 11.998(3)
_cell_length_b 10.381(3)
_cell_length_c 18.737(4)
_cell_angle_alpha 80.81(5)
_cell_angle_beta 97.52(3)
_cell_angle_gamma 104.80(2)
_cell_formula_units_Z 4
loop_
_atom_type_symbol
_atom_type_radius_bond
C 0.68
H 0.23
N 0.68
O 0.68
loop_
_atom_site_label
_atom_site_type_symbol
_atom_site_fract_x
_atom_site_fract_y
_atom_site_fract_z
O1 O 0.1707(9) 0.6433(9) 0.2083(6)
O2 O 0.0990(9) 0.8232(9) 0.1893(6)
O3 O 0.292(1) 0.696(1) 0.4944(6)
O4 O 0.322(1) 0.517(1) 0.4675(7)
N1 N 0.3734(9) 0.807(1) 0.2754(7)
N2 N 0.302(1) 0.629(1) 0.4511(7)
C1 C 0.261(1) 0.830(1) 0.2736(8)
C2 C 0.228(1) 0.785(1) 0.3507(8)
C3 C 0.288(1) 0.671(1) 0.3721(7)
C4 C 0.409(1) 0.729(1) 0.3412(8)
C5 C 0.170(1) 0.752(1) 0.2199(9)
C6 C -0.003(1) 0.757(2) 0.1441(9)
C7 C -0.100(2) 0.725(3) 0.177(1)
C8 C 0.103(1) 0.749(1) 0.3637(8)
C9 C 0.034(1) 0.621(2) 0.370(1)
C10 C -0.076(2) 0.594(2) 0.383(1)
C11 C -0.133(1) 0.691(2) 0.387(1)
C12 C -0.070(2) 0.818(2) 0.381(1)
C13 C 0.047(1) 0.849(2) 0.371(1)
C14 C 0.500(1) 0.802(1) 0.3915(8)
C15 C 0.569(1) 0.738(1) 0.4403(8)
C16 C 0.657(1) 0.799(2) 0.4876(9)
C17 C 0.671(1) 0.939(2) 0.4870(9)
C18 C 0.601(1) 1.003(1) 0.4415(9)
C19 C 0.518(1) 0.940(1) 0.3946(8)
C20 C 0.443(1) 0.859(1) 0.2207(8)
C21 C 0.556(1) 0.853(2) 0.2292(9)
C22 C 0.629(2) 0.907(2) 0.174(1)
C23 C 0.592(2) 0.978(2) 0.112(1)
C24 C 0.477(2) 0.975(2) 0.103(1)
C25 C 0.404(1) 0.927(1) 0.1542(8)
H1 H 0.27(1) 0.92(1) 0.263(7)
H2 H 0.27(1) 0.87(1) 0.384(7)
H3 H 0.25(1) 0.60(1) 0.352(7)
H4 H 0.45(1) 0.67(1) 0.336(7)
H5 H 0.03(1) 0.72(1) 0.106(7)
H6 H -0.04(1) 0.80(1) 0.111(7)
H7 H -0.13(1) 0.74(1) 0.132(7)
H8 H -0.09(1) 0.67(1) 0.235(7)
H9 H -0.11(1) 0.79(1) 0.210(7)
H10 H 0.07(1) 0.55(1) 0.368(7)
H11 H -0.12(1) 0.51(1) 0.389(7)
H12 H -0.21(1) 0.67(1) 0.395(7)
H13 H -0.11(1) 0.89(1) 0.385(7)
H14 H 0.09(1) 0.93(1) 0.367(7)
H15 H 0.56(1) 0.64(1) 0.445(7)
H16 H 0.71(1) 0.75(1) 0.522(7)
H17 H 0.73(1) 0.99(1) 0.519(7)
H18 H 0.61(1) 1.11(1) 0.443(7)
H19 H 0.47(1) 0.99(1) 0.363(7)
H20 H 0.59(1) 0.81(1) 0.276(7)
H21 H 0.71(1) 0.90(1) 0.183(7)
H22 H 0.65(1) 1.02(1) 0.074(7)
H23 H 0.44(1) 1.01(1) 0.057(7)
H24 H 0.33(1) 0.94(1) 0.145(7)
O5 O 0.3220(9) 0.1591(9) 0.2931(7)
O6 O 0.4054(8) 0.3733(9) 0.3095(6)
O7 O 0.181(1) 0.299(1) 0.0102(6)
O8 O 0.171(1) 0.090(1) 0.0369(7)
N3 N 0.1161(9) 0.251(1) 0.2328(7)
N4 N 0.181(1) 0.203(1) 0.0550(7)
C26 C 0.233(1) 0.337(1) 0.2308(6)
C27 C 0.259(1) 0.350(1) 0.1538(8)
C28 C 0.197(1) 0.212(1) 0.1343(8)
C29 C 0.080(1) 0.186(1) 0.1661(7)
C30 C 0.326(1) 0.278(1) 0.2802(8)
C31 C 0.508(2) 0.335(2) 0.351(1)
C32 C 0.602(2) 0.384(4) 0.318(1)
C33 C 0.382(1) 0.399(1) 0.1331(8)
C34 C 0.451(2) 0.313(2) 0.128(1)
C35 C 0.567(2) 0.360(2) 0.110(1)
C36 C 0.611(2) 0.489(2) 0.097(1)
C37 C 0.546(2) 0.576(2) 0.100(1)
C38 C 0.431(2) 0.535(2) 0.123(1)
C39 C -0.008(1) 0.237(1) 0.1150(9)
C40 C -0.028(1) 0.369(1) 0.1115(9)
C41 C -0.107(1) 0.411(2) 0.062(1)
C42 C -0.173(1) 0.336(2) 0.011(1)
C43 C -0.160(1) 0.204(2) 0.0153(9)
C44 C -0.082(1) 0.158(1) 0.0664(9)
C45 C 0.050(1) 0.236(1) 0.2895(7)
C46 C 0.102(1) 0.281(1) 0.3535(6)
C47 C 0.033(2) 0.268(1) 0.407(1)
C48 C -0.084(2) 0.205(2) 0.403(1)
C49 C -0.130(1) 0.156(2) 0.336(1)
C50 C -0.071(1) 0.171(2) 0.2799(9)
H25 H 0.24(1) 0.42(1) 0.247(7)
H26 H 0.22(1) 0.41(1) 0.120(7)
H27 H 0.24(1) 0.16(1) 0.152(7)
H28 H 0.04(1) 0.10(1) 0.176(7)
H29 H 0.48(1) 0.37(1) 0.391(7)
H30 H 0.47(1) 0.26(1) 0.389(7)
H31 H 0.66(1) 0.36(1) 0.344(7)
H32 H 0.56(1) 0.36(1) 0.255(7)
H33 H 0.65(1) 0.44(1) 0.285(7)
H34 H 0.42(1) 0.22(1) 0.139(7)
H35 H 0.61(1) 0.30(1) 0.109(7)
H36 H 0.69(1) 0.52(1) 0.082(7)
H37 H 0.58(1) 0.66(1) 0.083(7)
H38 H 0.39(1) 0.60(1) 0.127(7)
H39 H 0.01(1) 0.42(1) 0.146(7)
H40 H -0.12(1) 0.50(1) 0.063(7)
H41 H -0.22(1) 0.37(1) -0.025(7)
H42 H -0.21(1) 0.15(1) -0.014(7)
H43 H -0.08(1) 0.07(1) 0.069(7)
H44 H 0.20(1) 0.33(1) 0.355(7)
H45 H 0.07(1) 0.27(1) 0.454(7)
H46 H -0.13(1) 0.20(1) 0.440(7)
H47 H -0.21(1) 0.11(1) 0.334(7)
H48 H -0.10(1) 0.14(1) 0.238(7)
#END
