
#######################################################################
#
#                 Cambridge Crystallographic Data Centre
#                                CCDC
#
#######################################################################
#
# If this CIF has been generated from an entry in the Cambridge
# Structural Database, then it will include bibliographic, chemical,
# crystal, experimental, refinement or atomic coordinate data resulting
# from the CCDC's data processing and validation procedures.
#
#######################################################################

data_CSD_CIF_FUHTOR
_audit_creation_date 1988-06-09
_audit_creation_method CSD-ConQuest-V1
_database_code_CSD FUHTOR
_database_code_depnum_ccdc_archive 'CCDC 1160868'
_chemical_formula_sum 'C24 H22 N2 O4'
_chemical_formula_moiety
;
C24 H22 N2 O4
;
_journal_coden_Cambridge 25
_journal_year 1987
_journal_page_first 325
_journal_name_full 'Bull.Soc.Chim.Fr. '
loop_
_publ_author_name
"H.Benhaoua"
"J.-C.Piet"
"R.Danion-Bougot"
"L.Toupet"
"R.Carrie"
_chemical_name_systematic
;
2-Methoxycarbonyl-4-nitro-1,3,5-triphenylpyrrolidine
;
_chemical_melting_point 489.15
_cell_volume   1042.018
_diffrn_ambient_temperature ?
_diffrn_special_details
;
The study was carried out at room temperature,in the range 283-303K

;
#These two values have been output from a single CSD field.
_refine_ls_R_factor_gt 0.063
_refine_ls_wR_factor_gt 0.063
_symmetry_cell_setting triclinic
_symmetry_space_group_name_H-M 'P -1'
_symmetry_Int_Tables_number 2
loop_
_symmetry_equiv_pos_site_id
_symmetry_equiv_pos_as_xyz
1 x,y,z
2 -x,-y,-z
_cell_length_a 8.394(5)
_cell_length_b 10.643(6)
_cell_length_c 12.882(6)
_cell_angle_alpha 72.36(6)
_cell_angle_beta 101.25(5)
_cell_angle_gamma 106.92(7)
_cell_formula_units_Z 2
loop_
_atom_type_symbol
_atom_type_radius_bond
C 0.68
H 0.23
N 0.68
O 0.68
loop_
_atom_site_label
_atom_site_type_symbol
_atom_site_fract_x
_atom_site_fract_y
_atom_site_fract_z
O1 O -0.2744(7) 0.0325(4) 0.4226(4)
O2 O -0.2351(5) 0.2317(4) 0.4587(3)
O3 O -0.3781(7) 0.3736(5) -0.0518(3)
O4 O -0.1552(6) 0.3142(4) 0.0381(4)
N1 N -0.0806(5) 0.3635(4) 0.2658(3)
N2 N -0.2731(6) 0.3625(5) 0.0276(4)
C1 C -0.1346(6) 0.4745(5) 0.1796(4)
C2 C -0.3015(6) 0.4023(5) 0.1245(4)
C3 C -0.3682(6) 0.2748(5) 0.2143(4)
C4 C -0.2074(6) 0.2338(5) 0.2776(4)
C5 C -0.2396(6) 0.1543(5) 0.3946(4)
C6 C -0.2743(8) 0.1625(7) 0.5701(5)
C7 C 0.0850(6) 0.3722(5) 0.3051(4)
C8 C 0.1449(6) 0.2560(5) 0.3651(4)
C9 C 0.3099(6) 0.2684(5) 0.4087(4)
C10 C 0.4289(6) 0.3925(6) 0.3905(5)
C11 C 0.3728(7) 0.5080(6) 0.3297(5)
C12 C 0.2078(6) 0.4980(5) 0.2856(5)
C13 C -0.1603(6) 0.5849(5) 0.2223(4)
C14 C -0.1423(6) 0.5762(5) 0.3327(4)
C15 C -0.1654(7) 0.6783(6) 0.3677(5)
C16 C -0.2085(7) 0.7906(5) 0.2945(5)
C17 C -0.2256(8) 0.8000(5) 0.1844(6)
C18 C -0.2023(7) 0.6995(5) 0.1480(5)
C19 C -0.5126(6) 0.1644(5) 0.1794(4)
C20 C -0.6735(7) 0.1743(6) 0.1682(5)
C21 C -0.8093(7) 0.0731(7) 0.1380(6)
C22 C -0.7835(9) -0.0351(7) 0.1160(6)
C23 C -0.6227(9) -0.0448(6) 0.1253(6)
C24 C -0.4862(8) 0.0548(6) 0.1557(5)
H1 H -0.048(5) 0.523(4) 0.128(4)
H2 H -0.369(6) 0.460(4) 0.094(4)
H3 H -0.414(6) 0.313(4) 0.263(4)
H4 H -0.161(6) 0.175(4) 0.242(4)
H5 H -0.176(6) 0.113(4) 0.607(4)
H6 H -0.260(6) 0.229(4) 0.608(4)
H7 H -0.372(6) 0.091(4) 0.577(4)
H8 H 0.063(6) 0.164(4) 0.382(4)
H9 H 0.373(6) 0.192(4) 0.441(4)
H10 H 0.535(6) 0.398(4) 0.423(4)
H11 H 0.466(6) 0.591(4) 0.306(4)
H12 H 0.169(6) 0.579(4) 0.245(4)
H13 H -0.092(6) 0.506(4) 0.375(4)
H14 H -0.165(6) 0.675(4) 0.444(4)
H15 H -0.217(6) 0.862(4) 0.323(4)
H16 H -0.243(6) 0.869(4) 0.145(4)
H17 H -0.219(6) 0.703(4) 0.072(4)
H18 H -0.707(6) 0.246(4) 0.184(4)
H19 H -0.893(6) 0.090(4) 0.133(4)
H20 H -0.887(6) -0.114(4) 0.099(4)
H21 H -0.592(6) -0.110(4) 0.097(4)
H22 H -0.367(6) 0.043(4) 0.154(4)
#END
