
#######################################################################
#
#                 Cambridge Crystallographic Data Centre
#                                CCDC
#
#######################################################################
#
# If this CIF has been generated from an entry in the Cambridge
# Structural Database, then it will include bibliographic, chemical,
# crystal, experimental, refinement or atomic coordinate data resulting
# from the CCDC's data processing and validation procedures.
#
#######################################################################

data_CSD_CIF_FUJBOC
_audit_creation_date 2010-01-11
_audit_creation_method CSD-ConQuest-V1
_database_code_CSD FUJBOC
_database_code_depnum_ccdc_archive 'CCDC 754479'
_chemical_formula_sum 'C23 H28 N2 O5'
_chemical_formula_moiety
;
C23 H28 N2 O5
;
_journal_coeditor_code "IUCr LH2930"
_journal_coden_Cambridge 1370
_journal_volume 65
_journal_year 2009
_journal_page_first o2941
_journal_name_full 'Acta Crystallogr.,Sect.E:Struct.Rep.Online '
loop_
_publ_author_name
"Y.Bathich"
"Z.Shaameri"
"A.S.Hamzah"
"C.K.Quah"
"H.-K.Fun"
_chemical_name_systematic
;
6-Benzyl-3-(1,4-dioxaspiro[4.5]dec-2-yl)-8,8-dimethyl-1-oxa-2,6-diazaspiro[4.4
]non-2-ene-7,9-dione
;
_chemical_melting_point 403
_cell_volume   2035.142
_exptl_crystal_colour 'colorless'
_exptl_crystal_density_diffrn 1.346
_exptl_special_details
;
Melting point range 403-404K

;
_exptl_crystal_description 'block'
_exptl_crystal_preparation 'diethyl ether'
_diffrn_ambient_temperature 100
#These two values have been output from a single CSD field.
_refine_ls_R_factor_gt 0.0396
_refine_ls_wR_factor_gt 0.0396
_symmetry_cell_setting orthorhombic
_symmetry_space_group_name_H-M 'P 21 21 21'
_symmetry_Int_Tables_number 19
loop_
_symmetry_equiv_pos_site_id
_symmetry_equiv_pos_as_xyz
1 x,y,z
2 1/2-x,-y,1/2+z
3 -x,1/2+y,1/2-z
4 1/2+x,1/2-y,-z
_cell_length_a 9.8666(2)
_cell_length_b 11.1565(3)
_cell_length_c 18.4884(4)
_cell_angle_alpha 90
_cell_angle_beta 90
_cell_angle_gamma 90
_cell_formula_units_Z 4
loop_
_atom_type_symbol
_atom_type_radius_bond
C 0.68
H 0.23
N 0.68
O 0.68
loop_
_atom_site_label
_atom_site_type_symbol
_atom_site_fract_x
_atom_site_fract_y
_atom_site_fract_z
O1 O -0.23832(10) 0.26330(9) 0.40562(6)
O2 O 0.22502(11) 0.36138(13) 0.40410(7)
O3 O 0.05398(10) 0.52460(9) 0.31291(5)
O4 O 0.14033(10) 0.38771(9) 0.09244(5)
O5 O 0.36514(10) 0.35805(9) 0.06709(5)
N1 N -0.09667(11) 0.35996(10) 0.32684(6)
N2 N 0.11326(13) 0.55491(11) 0.24486(6)
C1 C -0.41547(14) 0.44109(13) 0.31359(8)
H1 H -0.42190 0.37480 0.34390
C2 C -0.51858(15) 0.52627(15) 0.31315(8)
H2 H -0.59290 0.51730 0.34360
C3 C -0.51064(16) 0.62426(15) 0.26739(9)
H3 H -0.57960 0.68110 0.26720
C4 C -0.39985(15) 0.63778(13) 0.22180(8)
H4 H -0.39510 0.70310 0.19060
C5 C -0.29601(14) 0.55362(13) 0.22283(8)
H5 H -0.22150 0.56340 0.19260
C6 C -0.30241(13) 0.45449(12) 0.26879(7)
C7 C -0.19254(14) 0.36013(12) 0.26595(7)
H6 H -0.23540 0.28200 0.26360
H7 H -0.14160 0.37100 0.22160
C8 C -0.12761(13) 0.30580(11) 0.39112(7)
C9 C -0.00312(13) 0.30177(12) 0.43963(7)
C10 C 0.10534(14) 0.35446(13) 0.39145(7)
C11 C 0.04302(13) 0.39495(12) 0.31910(7)
C12 C 0.11909(14) 0.34641(12) 0.25325(7)
H8 H 0.20140 0.30500 0.26730
H9 H 0.06270 0.29270 0.22500
C13 C 0.14980(14) 0.45896(12) 0.21270(7)
C14 C 0.21716(14) 0.46231(12) 0.14013(7)
H10 H 0.22060 0.54460 0.12170
C15 C 0.35852(14) 0.40534(13) 0.13854(7)
H11 H 0.42870 0.46470 0.14660
H12 H 0.36680 0.34240 0.17450
C16 C 0.23247(14) 0.31499(12) 0.05037(7)
C17 C 0.21576(14) 0.18392(12) 0.07127(7)
H13 H 0.12110 0.16160 0.06700
H14 H 0.24250 0.17330 0.12140
C18 C 0.30090(15) 0.10213(12) 0.02350(7)
H15 H 0.28040 0.01930 0.03500
H16 H 0.39610 0.11560 0.03370
C19 C 0.27448(16) 0.12392(13) -0.05699(8)
H17 H 0.33550 0.07480 -0.08550
H18 H 0.18230 0.10070 -0.06870
C20 C 0.29553(16) 0.25566(13) -0.07607(8)
H19 H 0.38990 0.27680 -0.06870
H20 H 0.27410 0.26820 -0.12670
C21 C 0.20631(15) 0.33598(13) -0.02966(7)
H21 H 0.22440 0.41920 -0.04130
H22 H 0.11180 0.31980 -0.04030
C22 C -0.02114(16) 0.37625(15) 0.50857(8)
H23 H 0.05820 0.36860 0.53830
H24 H -0.09880 0.34790 0.53470
H25 H -0.03410 0.45890 0.49590
C23 C 0.02932(16) 0.17141(13) 0.45856(9)
H26 H 0.11180 0.16820 0.48600
H27 H 0.03990 0.12590 0.41490
H28 H -0.04340 0.13830 0.48670
#END
