
#######################################################################
#
#                 Cambridge Crystallographic Data Centre
#                                CCDC
#
#######################################################################
#
# If this CIF has been generated from an entry in the Cambridge
# Structural Database, then it will include bibliographic, chemical,
# crystal, experimental, refinement or atomic coordinate data resulting
# from the CCDC's data processing and validation procedures.
#
#######################################################################

data_CSD_CIF_FUJCUJ
_audit_creation_date 2010-09-14
_audit_creation_method CSD-ConQuest-V1
_database_code_CSD FUJCUJ
_database_code_depnum_ccdc_archive 'CCDC 743470'
_chemical_formula_sum 'C19 H17 N1 O3'
_chemical_formula_moiety
;
C19 H17 N1 O3
;
_journal_coden_Cambridge 1088
_journal_year 2009
_journal_page_first 3175
_journal_name_full 'Synlett '
loop_
_publ_author_name
"D.Enders"
"M.Jeanty"
"J.W.Bats"
_chemical_name_systematic
;
(4S,5R,6R)-5-Nitro-4,6-diphenylcyclohex-1-ene-1-carbaldehyde
;
_chemical_melting_point 381.15
_cell_volume   1571.395
_exptl_crystal_colour 'colorless'
_exptl_crystal_density_diffrn 1.299
_exptl_crystal_description 'block'
_diffrn_ambient_temperature 167
#These two values have been output from a single CSD field.
_refine_ls_R_factor_gt 0.0485
_refine_ls_wR_factor_gt 0.0485
_symmetry_cell_setting orthorhombic
_symmetry_space_group_name_H-M 'P 21 21 21'
_symmetry_Int_Tables_number 19
loop_
_symmetry_equiv_pos_site_id
_symmetry_equiv_pos_as_xyz
1 x,y,z
2 1/2-x,-y,1/2+z
3 -x,1/2+y,1/2-z
4 1/2+x,1/2-y,-z
_cell_length_a 7.8494(10)
_cell_length_b 9.602(1)
_cell_length_c 20.8491(19)
_cell_angle_alpha 90
_cell_angle_beta 90
_cell_angle_gamma 90
_cell_formula_units_Z 4
loop_
_atom_type_symbol
_atom_type_radius_bond
C 0.68
H 0.23
N 0.68
O 0.68
loop_
_atom_site_label
_atom_site_type_symbol
_atom_site_fract_x
_atom_site_fract_y
_atom_site_fract_z
C1 C 0.5026(2) 0.64061(18) 0.84855(8)
C2 C 0.6198(2) 0.54874(17) 0.88850(8)
H1 H 0.63210 0.46020 0.86370
C3 C 0.9902(2) 0.40011(17) 0.88473(8)
C4 C 0.9234(2) 0.51212(19) 0.93064(8)
H2 H 1.02270 0.56940 0.94500
O1 O 0.7327(2) 0.76393(15) 0.97771(7)
C5 C 0.8003(2) 0.60885(17) 0.89374(8)
H3 H 0.84580 0.62020 0.84920
C6 C 0.4863(2) 0.61517(19) 0.78303(8)
H4 H 0.55140 0.54300 0.76380
C7 C 0.2806(3) 0.7994(2) 0.77295(10)
H5 H 0.20350 0.85190 0.74750
C8 C 0.9276(2) 0.26430(18) 0.88538(8)
H6 H 0.84070 0.23910 0.91490
C9 C 0.6720(3) 0.4484(2) 0.99861(9)
H7 H 0.63090 0.40580 1.03670
C10 C 0.9917(2) 0.16551(18) 0.84290(8)
H8 H 0.94860 0.07310 0.84360
N1 N 0.8000(2) 0.75114(16) 0.92523(8)
C11 C 1.1162(3) 0.4352(2) 0.83999(10)
H9 H 1.15890 0.52770 0.83860
C12 C 0.2980(3) 0.82776(19) 0.83766(10)
H10 H 0.23400 0.90100 0.85660
C13 C 0.8398(3) 0.45165(19) 0.98970(8)
C14 C 1.1181(3) 0.2012(2) 0.79962(9)
H11 H 1.16280 0.13310 0.77120
C15 C 0.5444(2) 0.5062(2) 0.95352(9)
H12 H 0.49030 0.58860 0.97350
H13 H 0.45440 0.43570 0.94630
C16 C 0.3764(3) 0.6938(2) 0.74547(9)
H14 H 0.36680 0.67520 0.70090
C17 C 1.1792(3) 0.3364(2) 0.79783(10)
H15 H 1.26440 0.36150 0.76760
C18 C 0.4087(2) 0.7496(2) 0.87508(9)
H16 H 0.42060 0.77070 0.91940
C19 C 0.9502(4) 0.3906(2) 1.03909(10)
H17 H 0.89700 0.35380 1.07630
O2 O 0.8695(3) 0.84518(16) 0.89717(10)
O3 O 1.1036(3) 0.38354(19) 1.03590(9)
#END
