
#######################################################################
#
#                 Cambridge Crystallographic Data Centre
#                                CCDC
#
#######################################################################
#
# If this CIF has been generated from an entry in the Cambridge
# Structural Database, then it will include bibliographic, chemical,
# crystal, experimental, refinement or atomic coordinate data resulting
# from the CCDC's data processing and validation procedures.
#
#######################################################################

data_CSD_CIF_FUJCIX
_audit_creation_date 2010-06-29
_audit_creation_method CSD-ConQuest-V1
_database_code_CSD FUJCIX
_database_code_depnum_ccdc_archive 'CCDC 735722'
_chemical_formula_sum 'C22 H28 N2 O7'
_chemical_formula_moiety
;
C22 H28 N2 O7
;
_journal_coden_Cambridge 182
_journal_volume 46
_journal_year 2010
_journal_page_first 934
_journal_name_full 'Chem.Commun. '
loop_
_publ_author_name
"J.Matsuo"
"S.Sasaki"
"T.Hoshikawa"
"H.Ishibashi"
_chemical_name_systematic
;
3-Ethoxydodecahydrobenzo[c]inden-1-yl 3,5-dinitrobenzoate
;
_cell_volume   2078.041
_exptl_crystal_colour 'colorless'
_exptl_crystal_density_diffrn 1.382
_exptl_crystal_description 'prism'
_diffrn_ambient_temperature 123.2
#These two values have been output from a single CSD field.
_refine_ls_R_factor_gt 0.0395
_refine_ls_wR_factor_gt 0.0395
_symmetry_cell_setting triclinic
_symmetry_space_group_name_H-M 'P -1'
_symmetry_Int_Tables_number 2
loop_
_symmetry_equiv_pos_site_id
_symmetry_equiv_pos_as_xyz
1 x,y,z
2 -x,-y,-z
_cell_length_a 11.2136(2)
_cell_length_b 11.4312(3)
_cell_length_c 19.1419(7)
_cell_angle_alpha 85.877(4)
_cell_angle_beta 75.202(4)
_cell_angle_gamma 61.344(3)
_cell_formula_units_Z 4
loop_
_atom_type_symbol
_atom_type_radius_bond
C 0.68
H 0.23
N 0.68
O 0.68
loop_
_atom_site_label
_atom_site_type_symbol
_atom_site_fract_x
_atom_site_fract_y
_atom_site_fract_z
O1 O -0.0215(1) -0.1647(1) 0.20966(6)
O2 O 0.1066(1) -0.0708(1) 0.14524(6)
O3 O 0.2303(1) -0.1348(1) -0.11898(7)
O4 O 0.1526(1) -0.2369(1) -0.17096(6)
O5 O -0.1987(1) -0.3779(1) 0.09326(7)
O6 O -0.1421(1) -0.4081(1) -0.02382(6)
O7 O 0.1666(1) -0.1805(1) 0.41600(6)
O8 O 0.3610(1) 0.3505(1) 0.18326(6)
O9 O 0.3003(1) 0.5462(1) 0.12869(6)
O10 O 0.3974(1) 0.5215(1) -0.13440(7)
O11 O 0.5296(2) 0.3325(1) -0.19690(7)
O12 O 0.6592(1) -0.0671(1) 0.04546(7)
O13 O 0.7053(1) -0.0770(1) -0.07155(7)
O14 O 0.5169(1) 0.3950(1) 0.38831(6)
N1 N 0.1647(1) -0.1960(1) -0.11745(7)
N2 N -0.1369(1) -0.3669(1) 0.03243(8)
N3 N 0.4703(2) 0.3999(1) -0.13965(7)
N4 N 0.6531(1) -0.0146(1) -0.01278(8)
C1 C -0.0437(2) -0.0953(1) 0.27711(8)
C2 C 0.0809(2) -0.1768(1) 0.30971(8)
C3 C 0.0596(2) -0.1036(2) 0.37924(8)
C4 C -0.0783(2) -0.0778(2) 0.43144(8)
C5 C -0.2060(2) -0.0033(1) 0.39970(8)
C6 C -0.3316(2) -0.0133(2) 0.44977(9)
C7 C -0.3188(2) -0.1440(2) 0.42373(9)
C8 C -0.2101(2) -0.1899(1) 0.34898(8)
C9 C -0.2565(2) -0.2422(2) 0.29508(9)
C10 C -0.3799(2) -0.1329(2) 0.26911(10)
C11 C -0.3452(2) -0.0232(2) 0.23686(9)
C12 C -0.3058(2) 0.0343(1) 0.29159(8)
C13 C -0.1880(2) -0.0670(1) 0.32603(8)
C14 C 0.0484(2) -0.1373(1) 0.14881(8)
C15 C 0.0408(2) -0.1948(1) 0.08334(8)
C16 C 0.1080(2) -0.1738(1) 0.01534(8)
C17 C 0.0946(2) -0.2193(1) -0.04575(8)
C18 C 0.0155(2) -0.2837(1) -0.04259(8)
C19 C -0.0494(2) -0.3016(1) 0.02596(8)
C20 C -0.0381(2) -0.2606(1) 0.08885(8)
C21 C 0.2980(2) -0.1835(2) 0.38534(9)
C22 C 0.3932(2) -0.2607(2) 0.43383(10)
C23 C 0.3103(2) 0.4165(1) 0.25601(8)
C24 C 0.4402(2) 0.3749(1) 0.28274(8)
C25 C 0.3998(2) 0.4394(1) 0.35765(8)
C26 C 0.2962(2) 0.4033(2) 0.40898(8)
C27 C 0.1653(2) 0.4376(1) 0.38251(8)
C28 C 0.0867(2) 0.3674(2) 0.42794(9)
C29 C 0.1574(2) 0.2276(2) 0.38937(9)
C30 C 0.2477(2) 0.2315(1) 0.31379(8)
C31 C 0.2376(2) 0.1575(2) 0.25354(9)
C32 C 0.0946(2) 0.2298(2) 0.23625(9)
C33 C 0.0604(2) 0.3715(2) 0.21591(9)
C34 C 0.0644(2) 0.4503(2) 0.27617(9)
C35 C 0.2003(1) 0.3822(1) 0.30359(8)
C36 C 0.3568(2) 0.4257(1) 0.12642(8)
C37 C 0.4319(2) 0.3415(1) 0.05711(8)
C38 C 0.4202(2) 0.4062(2) -0.00728(8)
C39 C 0.4872(2) 0.3306(2) -0.07210(8)
C40 C 0.5659(2) 0.1927(2) -0.07654(8)
C41 C 0.5744(2) 0.1325(1) -0.01121(9)
C42 C 0.5095(2) 0.2028(2) 0.05542(8)
C43 C 0.6258(2) 0.4220(2) 0.34679(9)
C44 C 0.7175(2) 0.4112(2) 0.3948(1)
H1 H -0.05700 0.01100 0.26580
H2 H 0.10110 -0.27670 0.31890
H3 H 0.16910 -0.19250 0.27390
H4 H 0.06270 -0.01660 0.36630
H5 H -0.08930 -0.02880 0.47550
H6 H -0.07430 -0.16500 0.44690
H7 H -0.22150 0.09210 0.39660
H8 H -0.31580 -0.02460 0.50200
H9 H -0.41730 0.06340 0.44620
H10 H -0.28230 -0.21850 0.45610
H11 H -0.41490 -0.12380 0.41920
H12 H -0.11190 -0.26820 0.35590
H13 H -0.18560 -0.28120 0.25070
H14 H -0.27860 -0.31470 0.31800
H15 H -0.40980 -0.16700 0.23280
H16 H -0.46870 -0.09020 0.31090
H17 H -0.42550 0.04670 0.21860
H18 H -0.26780 -0.05520 0.19300
H19 H -0.39080 0.07780 0.33080
H20 H -0.28210 0.10310 0.26810
H21 H 0.16980 -0.12990 0.01380
H22 H -0.00080 -0.31020 -0.08610
H23 H -0.08690 -0.27750 0.13670
H24 H 0.27920 -0.08660 0.38390
H25 H 0.33650 -0.22510 0.33580
H26 H 0.35800 -0.21700 0.48070
H27 H 0.41340 -0.35570 0.43630
H28 H 0.47930 -0.25900 0.41640
H29 H 0.27250 0.50900 0.24860
H30 H 0.49140 0.27430 0.28430
H31 H 0.49840 0.40700 0.24620
H32 H 0.36000 0.53570 0.35340
H33 H 0.26910 0.44600 0.45720
H34 H 0.35070 0.30110 0.41420
H35 H 0.10980 0.53610 0.38530
H36 H 0.09310 0.36650 0.47990
H37 H -0.01130 0.41140 0.42380
H38 H 0.09060 0.20420 0.38260
H39 H 0.21720 0.16150 0.41940
H40 H 0.34290 0.18930 0.31800
H41 H 0.27080 0.06110 0.26490
H42 H 0.31010 0.14280 0.20870
H43 H 0.08470 0.18510 0.19740
H44 H 0.02160 0.23060 0.27690
H45 H -0.02810 0.41820 0.20450
H46 H 0.13180 0.36430 0.17030
H47 H -0.01910 0.47350 0.31840
H48 H 0.03470 0.54880 0.26560
H49 H 0.36330 0.50490 -0.00400
H50 H 0.61460 0.13980 -0.12070
H51 H 0.52030 0.15600 0.09780
H52 H 0.58500 0.51180 0.32700
H53 H 0.67670 0.36710 0.30530
H54 H 0.75590 0.32550 0.41520
H55 H 0.66820 0.47550 0.43800
H56 H 0.79770 0.41680 0.36830
#END
