
#######################################################################
#
#                 Cambridge Crystallographic Data Centre
#                                CCDC
#
#######################################################################
#
# If this CIF has been generated from an entry in the Cambridge
# Structural Database, then it will include bibliographic, chemical,
# crystal, experimental, refinement or atomic coordinate data resulting
# from the CCDC's data processing and validation procedures.
#
#######################################################################

data_CSD_CIF_FUJRUX
_audit_creation_date 1988-07-18
_audit_creation_method CSD-ConQuest-V1
_database_code_CSD FUJRUX
_chemical_formula_sum 'C20 H26 N2 O2'
_chemical_formula_moiety
;
C20 H26 N2 O2
;
_journal_coeditor_code "IUCr A27515"
_journal_coden_Cambridge 591
_journal_volume 43
_journal_year 1987
_journal_page_first 2027
_journal_name_full 'Acta Crystallogr.,Sect.C:Cryst.Struct.Commun. '
loop_
_publ_author_name
"M.A.Bigdeli"
"R.G.Pritchard"
_chemical_name_systematic
;
4-Ethyl-5-(N-hydroxy-N-phenylamino)-2-phenyl-3-propylisoxazolidine
;
_cell_volume   1816.581
_exptl_crystal_density_diffrn 1.19
_diffrn_ambient_temperature ?
_diffrn_special_details
;
The study was carried out at room temperature,in the range 283-303K

;
#These two values have been output from a single CSD field.
_refine_ls_R_factor_gt 0.04
_refine_ls_wR_factor_gt 0.04
_symmetry_cell_setting monoclinic
_symmetry_space_group_name_H-M 'P 21/n'
_symmetry_Int_Tables_number 14
loop_
_symmetry_equiv_pos_site_id
_symmetry_equiv_pos_as_xyz
1 x,y,z
2 1/2-x,1/2+y,1/2-z
3 -x,-y,-z
4 -1/2+x,-1/2-y,-1/2+z
_cell_length_a 12.350(2)
_cell_length_b 6.7807(9)
_cell_length_c 22.006(4)
_cell_angle_alpha 90
_cell_angle_beta 99.68(1)
_cell_angle_gamma 90
_cell_formula_units_Z 4
loop_
_atom_type_symbol
_atom_type_radius_bond
C 0.68
H 0.23
N 0.68
O 0.68
loop_
_atom_site_label
_atom_site_type_symbol
_atom_site_fract_x
_atom_site_fract_y
_atom_site_fract_z
N1 N 0.7561(2) 0.4266(3) 0.0392(1)
C1 C 0.7284(3) 0.2218(4) 0.0546(1)
C2 C 0.6676(2) 0.2426(4) 0.1091(1)
C3 C 0.6263(2) 0.4561(4) 0.1044(1)
O1 O 0.6617(1) 0.5365(3) 0.0496(1)
C4 C 0.8550(2) 0.5097(4) 0.0729(1)
C5 C 0.8567(3) 0.6845(5) 0.1046(1)
C6 C 0.9551(3) 0.7613(5) 0.1347(2)
C7 C 1.0525(3) 0.6673(6) 0.1329(2)
C8 C 1.0513(3) 0.4957(5) 0.1001(2)
C9 C 0.9540(3) 0.4169(5) 0.0700(2)
C10 C 0.6611(3) 0.1225(5) -0.0017(1)
C11 C 0.7199(4) 0.1017(6) -0.0564(2)
C12 C 0.8124(4) -0.0449(8) -0.0473(2)
C13 C 0.7398(3) 0.2018(6) 0.1716(1)
C14 C 0.6789(4) 0.2143(6) 0.2255(2)
N2 N 0.5097(2) 0.4950(3) 0.0964(1)
O2 O 0.4504(2) 0.3372(3) 0.0628(1)
C15 C 0.4666(2) 0.5386(5) 0.1509(1)
C16 C 0.3875(3) 0.4272(6) 0.1713(2)
C17 C 0.3493(3) 0.4806(8) 0.2246(2)
C18 C 0.3890(3) 0.6408(7) 0.2576(2)
C19 C 0.4665(3) 0.7546(7) 0.2369(2)
C20 C 0.5045(3) 0.7066(5) 0.1836(2)
H1 H 0.7949(20) 0.1537(37) 0.0652(10)
H2 H 0.6037(19) 0.1538(35) 0.1042(10)
H3 H 0.6599(17) 0.5365(33) 0.140(1)
H4 H 0.7922(20) 0.7489(36) 0.1048(11)
H5 H 0.9559(22) 0.8843(42) 0.1568(12)
H6 H 1.1222(25) 0.7258(43) 0.1525(13)
H7 H 1.1200(23) 0.4241(42) 0.0966(12)
H8 H 0.9529(22) 0.3014(44) 0.0464(13)
H9 H 0.6388(20) -0.0118(42) 0.0124(11)
H10 H 0.5914(22) 0.2050(42) -0.0136(12)
H11 H 0.7452(27) 0.2348(56) -0.0677(15)
H12 H 0.6724(24) 0.0490(47) -0.0937(15)
H13 H 0.788(3) -0.1735(64) -0.0382(17)
H14 H 0.8743(29) 0.0010(56) -0.0138(18)
H15 H 0.8347(29) -0.0530(59) -0.0900(19)
H16 H 0.8014(24) 0.2959(44) 0.1772(13)
H17 H 0.7678(23) 0.0745(47) 0.1700(13)
H18 H 0.6110(26) 0.1238(51) 0.2191(14)
H19 H 0.6465(24) 0.3499(50) 0.2302(13)
H20 H 0.7218(27) 0.1783(50) 0.2630(15)
H21 H 0.4249(27) 0.388(5) 0.0295(15)
H22 H 0.3639(24) 0.3166(44) 0.1487(14)
H23 H 0.2972(25) 0.3890(52) 0.2378(14)
H24 H 0.3635(25) 0.6768(49) 0.2954(15)
H25 H 0.4917(24) 0.8681(48) 0.2573(13)
H26 H 0.5550(23) 0.7852(43) 0.1667(13)
#END
