
#######################################################################
#
#                 Cambridge Crystallographic Data Centre
#                                CCDC
#
#######################################################################
#
# If this CIF has been generated from an entry in the Cambridge
# Structural Database, then it will include bibliographic, chemical,
# crystal, experimental, refinement or atomic coordinate data resulting
# from the CCDC's data processing and validation procedures.
#
#######################################################################

data_CSD_CIF_FUJRIL
_audit_creation_date 2000-12-15
_audit_creation_method CSD-ConQuest-V1
_database_code_CSD FUJRIL
_database_code_depnum_ccdc_archive 'CCDC 152666'
_chemical_formula_sum 'C23 H25 N3 O2'
_chemical_formula_moiety
;
C23 H25 N3 O2
;
_journal_coeditor_code "IUCr QA0297"
_journal_data_validation_number IUC0000225
_journal_coden_Cambridge 591
_journal_volume 56
_journal_year 2000
_journal_page_first e459
_journal_name_full 'Acta Crystallogr.,Sect.C:Cryst.Struct.Commun. '
loop_
_publ_author_name
"A.Aatif"
"A.Baouid"
"A.Hasnaoui"
"M.Pierrot"
_chemical_name_systematic
;
1-Mesityl-6-methyl-3a,4-propano-3a,4,5,6-tetrahydro-(1,2,4)oxadiazolo(4,5-a)(1
,5)benzodiazepin-7-one
;
_chemical_melting_point 518
_cell_volume   2008.500
_exptl_crystal_colour 'colorless'
_exptl_crystal_density_diffrn 1.241
_exptl_special_details
;
Melting point range 518-519K

;
_exptl_crystal_description 'cuboid'
_exptl_crystal_preparation 'chloroform/ethanol'
_diffrn_ambient_temperature ?
_diffrn_special_details
;
The study was carried out at room temperature,in the range 283-303K

;
#These two values have been output from a single CSD field.
_refine_ls_R_factor_gt 0.05
_refine_ls_wR_factor_gt 0.05
_symmetry_cell_setting monoclinic
_symmetry_space_group_name_H-M 'P 21/c'
_symmetry_Int_Tables_number 14
loop_
_symmetry_equiv_pos_site_id
_symmetry_equiv_pos_as_xyz
1 x,y,z
2 -x,1/2+y,1/2-z
3 -x,-y,-z
4 x,-1/2-y,-1/2+z
_cell_length_a 14.4861(5)
_cell_length_b 16.872(1)
_cell_length_c 17.9161(6)
_cell_angle_alpha 90
_cell_angle_beta 152.698(2)
_cell_angle_gamma 90
_cell_formula_units_Z 4
loop_
_atom_type_symbol
_atom_type_radius_bond
C 0.68
H 0.23
N 0.68
O 0.68
loop_
_atom_site_label
_atom_site_type_symbol
_atom_site_fract_x
_atom_site_fract_y
_atom_site_fract_z
C1 C 0.01575(6) 0.20732(2) 0.82585(5)
C2 C 0.65380(7) 0.05314(3) 1.34939(5)
C3 C 0.59220(7) 0.11625(3) 1.34723(5)
C4 C 0.44881(7) 0.16724(3) 1.21626(5)
C5 C -0.05861(6) 0.18849(3) 0.84819(5)
C6 C -0.12205(6) 0.11154(3) 0.81863(5)
C7 C -0.19260(7) 0.09550(3) 0.83939(6)
C8 C -0.20355(6) 0.15337(3) 0.88625(5)
C9 C -0.13857(6) 0.22879(3) 0.91552(5)
C10 C -0.06629(6) 0.24786(3) 0.89751(5)
C11 C -0.11507(8) 0.04681(3) 0.76543(7)
C12 C -0.28675(8) 0.13418(3) 0.90272(6)
C13 C 0.00252(8) 0.33114(3) 0.93069(6)
C14 C 0.25826(7) -0.01524(3) 0.88832(6)
C15 C 0.22932(6) 0.24250(3) 0.88597(5)
C16 C 0.28700(7) 0.32921(3) 0.92105(5)
C17 C 0.33756(8) 0.33963(3) 0.87436(6)
C18 C 0.37874(7) 0.25648(3) 0.87261(6)
C19 C 0.37277(6) 0.20100(3) 0.93607(5)
C20 C 0.30728(7) 0.11744(3) 0.87522(5)
C21 C 0.41957(6) 0.08752(3) 1.08448(5)
C22 C 0.36296(6) 0.15397(2) 1.08494(5)
C23 C 0.56898(7) 0.03848(3) 1.21969(5)
N1 N 0.21889(5) 0.21023(2) 0.95396(4)
N2 N -0.10249(5) 0.22414(2) 0.68673(4)
N3 N 0.32335(5) 0.06712(2) 0.94612(4)
O1 O 0.23976(5) 0.09452(2) 0.76676(4)
O2 O 0.02435(4) 0.232618(17) 0.71268(3)
H1 H 0.75580 0.01814 1.44159
H2 H 0.65070 0.12575 1.43744
H3 H 0.40571 0.21214 1.21406
H4 H -0.23470 0.04250 0.82099
H5 H -0.14407 0.26959 0.94892
H6 H -0.06366 0.06839 0.75662
H7 H -0.24726 0.02569 0.66202
H8 H -0.02756 0.00529 0.84542
H9 H -0.32352 0.07915 0.87766
H10 H -0.40312 0.16615 0.82906
H11 H -0.18582 0.14435 1.01236
H12 H 0.04832 0.33406 0.91285
H13 H 0.11072 0.34506 1.04145
H14 H -0.10738 0.36736 0.85875
H15 H 0.27717 -0.04438 0.94740
H16 H 0.33660 -0.03918 0.90549
H17 H 0.11847 -0.01617 0.77428
H18 H 0.40440 0.34160 1.03435
H19 H 0.17900 0.36400 0.85745
H20 H 0.45406 0.37252 0.95126
H21 H 0.22516 0.36263 0.76776
H22 H 0.50327 0.19860 1.05277
H23 H 0.27584 0.24268 0.76341
H24 H 0.50744 0.25618 0.94070
H25 H 0.61298 -0.00642 1.22269
H26? H -0.15926 -0.00731 0.76332
H27? H 0.03024 0.03579 0.85972
H28? H -0.19536 0.06469 0.66363
H29? H -0.43015 0.11897 0.79061
H30? H -0.28974 0.17608 0.94004
H31? H -0.22083 0.08116 0.96735
H32? H 0.14517 0.33205 1.01541
H33? H -0.05548 0.35588 0.84376
H34? H -0.02189 0.36540 0.95778
H35? H 0.16415 -0.03345 0.86075
H36? H 0.39387 -0.03152 1.00450
H37? H 0.17689 -0.01394 0.78292
#END
