
#######################################################################
#
#                 Cambridge Crystallographic Data Centre
#                                CCDC
#
#######################################################################
#
# If this CIF has been generated from an entry in the Cambridge
# Structural Database, then it will include bibliographic, chemical,
# crystal, experimental, refinement or atomic coordinate data resulting
# from the CCDC's data processing and validation procedures.
#
#######################################################################

data_CSD_CIF_FUJTUZ
_audit_creation_date 1988-07-18
_audit_creation_method CSD-ConQuest-V1
_database_code_CSD FUJTUZ
_chemical_formula_sum 'C3 H1 N3 O5'
_chemical_formula_moiety
;
C3 H1 N3 O5
;
_journal_coeditor_code "IUCr A27506"
_journal_coden_Cambridge 591
_journal_volume 43
_journal_year 1987
_journal_page_first 2011
_journal_name_full 'Acta Crystallogr.,Sect.C:Cryst.Struct.Commun. '
loop_
_publ_author_name
"D.T.Cromer"
"R.R.Ryan"
"M.D.Coburn"
_chemical_name_systematic
;
3,5-Dinitroisoxazole
;
_cell_volume    921.424
_exptl_crystal_density_diffrn 1.72
_diffrn_ambient_temperature ?
_diffrn_special_details
;
The study was carried out at room temperature,in the range 283-303K

;
#These two values have been output from a single CSD field.
_refine_ls_R_factor_gt 0.039
_refine_ls_wR_factor_gt 0.039
_symmetry_cell_setting triclinic
_symmetry_space_group_name_H-M 'P -1'
_symmetry_Int_Tables_number 2
loop_
_symmetry_equiv_pos_site_id
_symmetry_equiv_pos_as_xyz
1 x,y,z
2 -x,-y,-z
_cell_length_a 9.858(3)
_cell_length_b 10.382(3)
_cell_length_c 11.675(2)
_cell_angle_alpha 115.92(2)
_cell_angle_beta 111.37(2)
_cell_angle_gamma 60.91(3)
_cell_formula_units_Z 6
loop_
_atom_type_symbol
_atom_type_radius_bond
C 0.68
H 0.23
N 0.68
O 0.68
loop_
_atom_site_label
_atom_site_type_symbol
_atom_site_fract_x
_atom_site_fract_y
_atom_site_fract_z
C1 C 0.0293(6) 0.7182(7) 0.5096(5)
C2 C 0.0464(6) 0.8408(7) 0.6172(6)
C3 C 0.1711(6) 0.7661(6) 0.6930(5)
N1 N 0.1319(5) 0.5828(5) 0.5164(4)
N2 N -0.0918(7) 0.7250(7) 0.3923(5)
N3 N 0.2465(6) 0.8242(6) 0.8242(4)
O1 O 0.2263(4) 0.6135(4) 0.6384(4)
O2 O -0.0889(6) 0.6042(6) 0.3096(4)
O3 O -0.1815(5) 0.8502(6) 0.3874(4)
O4 O 0.1952(5) 0.9633(3) 0.8733(4)
O5 O 0.3547(5) 0.7307(5) 0.8768(4)
H1 H -0.013(6) 0.949(6) 0.631(5)
C4 C 0.4983(6) 0.7712(7) 0.1864(4)
C5 C 0.4883(6) 0.6578(7) 0.2089(5)
C6 C 0.3783(6) 0.7414(6) 0.2826(5)
N4 N 0.4065(5) 0.9107(5) 0.2414(4)
N5 N 0.5950(5) 0.7523(7) 0.1066(4)
N6 N 0.3028(6) 0.6952(6) 0.3347(4)
O6 O 0.3255(4) 0.8925(4) 0.3045(3)
O7 O 0.5946(5) 0.8683(5) 0.1067(4)
O8 O 0.6658(4) 0.6184(5) 0.0455(4)
O9 O 0.3572(5) 0.5589(5) 0.3211(4)
O10 O 0.1921(5) 0.7955(4) 0.3873(4)
H2 H 0.543(5) 0.553(5) 0.181(4)
C7 C 0.0826(7) 0.2678(6) 0.1025(5)
C8 C 0.2288(7) 0.2757(6) 0.1494(6)
C9 C 0.2670(6) 0.2561(5) 0.2620(5)
N7 N 0.0351(5) 0.2472(5) 0.1791(5)
N8 N -0.0252(8) 0.2828(7) -0.0215(6)
N9 N 0.4109(6) 0.2442(5) 0.3618(5)
O11 O 0.1565(5) 0.2396(4) 0.2855(4)
O12 O -0.1341(6) 0.2486(7) -0.0511(5)
O13 O 0.0085(7) 0.3279(7) -0.0818(5)
O14 O 0.5178(5) 0.2403(5) 0.3325(5)
O15 O 0.4079(5) 0.2386(5) 0.4618(4)
H3 H 0.286(5) 0.285(4) 0.113(4)
#END
