
#######################################################################
#
#                 Cambridge Crystallographic Data Centre
#                                CCDC
#
#######################################################################
#
# If this CIF has been generated from an entry in the Cambridge
# Structural Database, then it will include bibliographic, chemical,
# crystal, experimental, refinement or atomic coordinate data resulting
# from the CCDC's data processing and validation procedures.
#
#######################################################################

data_CSD_CIF_FUJXEO
_audit_creation_date 2010-09-21
_audit_creation_method CSD-ConQuest-V1
_database_code_CSD FUJXEO
_database_code_depnum_ccdc_archive 'CCDC 660506'
_chemical_formula_sum 'C2 H5 N5 O4'
_chemical_formula_moiety
;
C2 H5 N5 O4
;
_journal_coden_Cambridge 127
_journal_volume 66
_journal_year 2008
_journal_page_first 1399
_journal_name_full 'Huaxue Xuebao(Chin.)(Acta Chim.Sinica) '
loop_
_publ_author_name
"Chun-Ran Chang"
"Kang-Zhen Xu"
"Ji-Rong Song"
"Biao Yan"
"Hai-Xia Ma"
"Hong-Xu Gao"
"Feng-Qi Zhao"
_chemical_name_systematic
;
1-Hydrazino-2,2-dinitroethenamine
;
_cell_volume    595.098
_exptl_crystal_density_diffrn 1.821
_diffrn_ambient_temperature 293
#These two values have been output from a single CSD field.
_refine_ls_R_factor_gt 0.0489
_refine_ls_wR_factor_gt 0.0489
_symmetry_cell_setting orthorhombic
_symmetry_space_group_name_H-M 'P n m a'
_symmetry_Int_Tables_number 62
loop_
_symmetry_equiv_pos_site_id
_symmetry_equiv_pos_as_xyz
1 x,y,z
2 1/2-x,-y,1/2+z
3 -x,1/2+y,-z
4 1/2+x,1/2-y,1/2-z
5 -x,-y,-z
6 -1/2+x,y,-1/2-z
7 x,-1/2-y,z
8 -1/2-x,-1/2+y,-1/2+z
_cell_length_a 6.283(4)
_cell_length_b 7.713(5)
_cell_length_c 12.280(8)
_cell_angle_alpha 90
_cell_angle_beta 90
_cell_angle_gamma 90
_cell_formula_units_Z 4
loop_
_atom_type_symbol
_atom_type_radius_bond
C 0.68
H 0.23
N 0.68
O 0.68
loop_
_atom_site_label
_atom_site_type_symbol
_atom_site_fract_x
_atom_site_fract_y
_atom_site_fract_z
N1 N 0.0630(3) 0.4081(3) 0.63611(18)
O1 O 0.1476(3) 0.5390(2) 0.59621(16)
O2 O -0.0816(3) 0.4203(3) 0.70475(18)
C1 C 0.1391(5) 0.25000 0.6000(3)
C2 C 0.3120(5) 0.25000 0.5189(3)
N2 N 0.2575(5) 0.25000 0.4166(2)
H1 H 0.12510 0.25000 0.39880
N3 N 0.4134(5) 0.25000 0.3358(3)
H2 H 0.54580 0.25000 0.35360
H3 H 0.37720 0.25000 0.26830
N4 N 0.5078(5) 0.25000 0.5493(3)
H4 H 0.60760 0.25000 0.50140
H5 H 0.53890 0.25000 0.61750
N1F N 0.0630(3) 0.0919(3) 0.63611(18)
O1F O 0.1476(3) -0.0390(2) 0.59621(16)
O2F O -0.0816(3) 0.0797(3) 0.70475(18)
#END
