
#######################################################################
#
#                 Cambridge Crystallographic Data Centre
#                                CCDC
#
#######################################################################
#
# If this CIF has been generated from an entry in the Cambridge
# Structural Database, then it will include bibliographic, chemical,
# crystal, experimental, refinement or atomic coordinate data resulting
# from the CCDC's data processing and validation procedures.
#
#######################################################################

data_CSD_CIF_FULJIF
_audit_creation_date 1988-08-15
_audit_creation_method CSD-ConQuest-V1
_database_code_CSD FULJIF
_chemical_formula_sum 'C18 H25 N1 O8'
_chemical_formula_moiety
;
C18 H25 N1 O8
;
_journal_coden_Cambridge 10
_journal_volume 71
_journal_year 1988
_journal_page_first 1
_journal_name_full 'Helv.Chim.Acta '
loop_
_publ_author_name
"M.Eberle"
"M.Egli"
"D.Seebach"
_chemical_name_systematic
;
((1R,2R,3S)-3-Acetoxy-2-nitrocyclohexyl)-camphanoate
;
_chemical_melting_point 441.15
_cell_volume   1016.975
_exptl_crystal_density_diffrn 1.25
_exptl_special_details
;
Melts with decomposition.

;
_diffrn_ambient_temperature ?
_diffrn_special_details
;
The study was carried out at room temperature,in the range 283-303K

;
#These two values have been output from a single CSD field.
_refine_ls_R_factor_gt 0.036
_refine_ls_wR_factor_gt 0.036
_symmetry_cell_setting monoclinic
_symmetry_space_group_name_H-M 'P 21'
_symmetry_Int_Tables_number 4
loop_
_symmetry_equiv_pos_site_id
_symmetry_equiv_pos_as_xyz
1 x,y,z
2 -x,1/2+y,-z
_cell_length_a 6.369(2)
_cell_length_b 15.277(2)
_cell_length_c 10.793(2)
_cell_angle_alpha 90
_cell_angle_beta 104.44(2)
_cell_angle_gamma 90
_cell_formula_units_Z 2
loop_
_atom_type_symbol
_atom_type_radius_bond
C 0.68
H 0.23
N 0.68
O 0.68
loop_
_atom_site_label
_atom_site_type_symbol
_atom_site_fract_x
_atom_site_fract_y
_atom_site_fract_z
N1 N 0.273(1) 0.0484(6) 0.4993(7)
O1 O 0.2381(7) -0.00300 0.7454(4)
O2 O -0.1097(8) -0.0341(5) 0.7431(5)
O3 O 0.3041(6) 0.0896(4) 0.9510(4)
O4 O 0.5453(8) -0.0630(5) 0.3981(5)
O5 O 0.4699(8) 0.1987(5) 1.0762(5)
O6 O 0.088(1) 0.0470(6) 0.4405(7)
O7 O 0.385(1) 0.1108(6) 0.5051(7)
O8 O 0.322(1) -0.0972(7) 0.2146(6)
C1 C 0.056(1) 0.0060(6) 0.7859(7)
C2 C 0.400(1) -0.1010(6) 0.4670(7)
C3 C -0.022(1) 0.0439(7) 1.0010(7)
C4 C 0.375(1) -0.0332(6) 0.5668(7)
C5 C 0.306(1) 0.1675(7) 1.0142(7)
C6 C 0.0760(9) 0.0704(6) 0.8917(7)
C7 C -0.017(1) 0.1641(6) 0.8537(6)
C8 C 0.083(1) 0.2094(6) 0.7555(7)
C9 C 0.234(1) -0.0693(5) 0.6479(7)
C10 C 0.324(1) -0.1534(6) 0.7124(8)
C11 C 0.489(1) -0.0654(7) 0.2712(9)
C12 C 0.073(1) 0.1978(6) 0.9925(7)
C13 C -0.018(1) 0.1310(6) 1.0736(7)
C14 C -0.266(1) 0.1664(6) 0.8064(7)
C15 C 0.047(1) 0.2928(6) 1.0242(9)
C16 C 0.352(2) -0.2204(6) 0.6122(9)
C17 C 0.496(2) -0.1844(6) 0.5313(9)
C18 C 0.652(1) -0.0236(8) 0.2122(8)
H1 H 0.242(1) -0.1170(6) 0.4065(7)
H2 H -0.186(1) 0.0202(7) 0.9642(7)
H3 H 0.074(1) -0.0057(7) 1.0608(7)
H4 H 0.533(1) -0.0179(6) 0.6279(7)
H5 H 0.257(1) 0.2086(6) 0.7882(7)
H6 H 0.026(1) 0.2763(6) 0.7443(7)
H7 H 0.034(1) 0.1759(6) 0.6648(7)
H8 H 0.075(1) -0.0831(5) 0.5880(7)
H9 H 0.214(1) -0.1798(6) 0.7648(8)
H10 H 0.479(1) -0.1409(6) 0.7777(8)
H11 H -0.180(1) 0.1495(6) 1.0782(7)
H12 H 0.085(1) 0.1261(6) 1.1694(7)
H13 H -0.332(1) 0.1336(6) 0.8768(7)
H14 H -0.317(1) 0.1327(6) 0.7159(7)
H15 H -0.323(1) 0.2331(6) 0.7954(7)
H16 H -0.124(1) 0.3085(6) 1.0051(9)
H17 H 0.123(1) 0.3341(6) 0.9666(9)
H18 H 0.123(1) 0.3037(6) 1.1242(9)
H19 H 0.419(2) -0.2807(6) 0.6575(9)
H20 H 0.194(2) -0.2330(6) 0.5489(9)
H21 H 0.515(2) -0.2320(6) 0.4609(9)
H22 H 0.652(2) -0.1687(6) 0.5932(9)
H23 H 0.595(1) -0.0276(8) 0.1093(8)
H24 H 0.806(1) -0.0566(8) 0.2429(8)
H25 H 0.670(1) 0.0443(8) 0.2408(8)
#END
