
#######################################################################
#
#                 Cambridge Crystallographic Data Centre
#                                CCDC
#
#######################################################################
#
# If this CIF has been generated from an entry in the Cambridge
# Structural Database, then it will include bibliographic, chemical,
# crystal, experimental, refinement or atomic coordinate data resulting
# from the CCDC's data processing and validation procedures.
#
#######################################################################

data_CSD_CIF_FULKEE
_audit_creation_date 2015-03-27
_audit_creation_method CSD-ConQuest-V1
_database_code_CSD FULKEE
_database_code_depnum_ccdc_archive 'CCDC 1056513'
_chemical_formula_sum 'C34 H24 N2 O4'
_chemical_formula_moiety
;
C34 H24 N2 O4
;
_journal_coden_Cambridge 35
_journal_volume 80
_journal_year 2015
_journal_page_first 3203
_journal_name_full 'J.Org.Chem. '
loop_
_publ_author_name
"M.Noji"
"T.Kobayashi"
"Y.Uechi"
"A.Kikuchi"
"H.Kondo"
"S.Sugiyama"
"K.Ishii"
_chemical_name_systematic
;
N,N'-dihydroxy-N,N'-diphenyl-1,1'-binaphthalene-2,2'-dicarboxamide
;
_cell_volume   1286.288
_exptl_crystal_colour 'colorless'
_exptl_crystal_density_diffrn 1.354
_exptl_crystal_description 'prism'
_diffrn_ambient_temperature 93
#These two values have been output from a single CSD field.
_refine_ls_R_factor_gt 0.0792
_refine_ls_wR_factor_gt 0.0792
_symmetry_cell_setting monoclinic
_symmetry_space_group_name_H-M 'P 21'
_symmetry_Int_Tables_number 4
loop_
_symmetry_equiv_pos_site_id
_symmetry_equiv_pos_as_xyz
1 x,y,z
2 -x,1/2+y,-z
_cell_length_a 9.6199(2)
_cell_length_b 13.6428(3)
_cell_length_c 10.5086(3)
_cell_angle_alpha 90
_cell_angle_beta 111.1480(13)
_cell_angle_gamma 90
_cell_formula_units_Z 2
loop_
_atom_type_symbol
_atom_type_radius_bond
C 0.68
H 0.23
N 0.68
O 0.68
loop_
_atom_site_label
_atom_site_type_symbol
_atom_site_fract_x
_atom_site_fract_y
_atom_site_fract_z
O1 O -0.2276(5) 0.4983(4) 0.4651(4)
O2 O -0.1546(5) 0.3339(4) 0.2395(5)
O3 O -0.0914(5) 0.2257(4) 0.4631(4)
O4 O 0.1672(6) 0.1810(4) 0.4498(5)
N1 N -0.2330(6) 0.3994(4) 0.2945(6)
N2 N 0.1581(6) 0.2180(4) 0.5705(5)
C1 C 0.1037(7) 0.4534(5) 0.5744(6)
C2 C 0.0069(7) 0.4654(4) 0.4403(6)
C3 C 0.0619(8) 0.4989(5) 0.3407(6)
C4 C 0.2103(8) 0.5185(5) 0.3729(7)
C5 C 0.3122(7) 0.5069(5) 0.5081(7)
C6 C 0.4675(8) 0.5230(5) 0.5429(7)
C7 C 0.5635(7) 0.5138(6) 0.6737(7)
C8 C 0.5085(8) 0.4846(5) 0.7758(7)
C9 C 0.3614(7) 0.4661(5) 0.7455(7)
C10 C 0.2571(7) 0.4742(5) 0.6114(7)
C11 C 0.0470(7) 0.4106(5) 0.6780(6)
C12 C 0.0081(7) 0.3130(5) 0.6713(6)
C13 C -0.0562(7) 0.2719(5) 0.7625(7)
C14 C -0.0799(7) 0.3302(5) 0.8584(7)
C15 C -0.0442(7) 0.4302(5) 0.8692(6)
C16 C -0.0761(7) 0.4937(6) 0.9627(6)
C17 C -0.0490(8) 0.5906(6) 0.9651(7)
C18 C 0.0149(8) 0.6323(5) 0.8764(7)
C19 C 0.0518(7) 0.5735(5) 0.7864(6)
C20 C 0.0192(6) 0.4726(5) 0.7784(6)
C21 C -0.1585(7) 0.4543(5) 0.4027(7)
C22 C 0.0213(8) 0.2478(5) 0.5618(7)
C23 C -0.3927(7) 0.3809(5) 0.2512(6)
C24 C -0.4893(8) 0.4460(5) 0.1614(7)
C25 C -0.6412(8) 0.4318(6) 0.1181(8)
C26 C -0.6949(8) 0.3493(6) 0.1664(7)
C27 C -0.5963(8) 0.2839(6) 0.2546(8)
C28 C -0.4431(8) 0.2999(5) 0.2971(7)
C29 C 0.2954(7) 0.2229(5) 0.6826(7)
C30 C 0.4262(8) 0.2352(6) 0.6541(8)
C31 C 0.5637(8) 0.2344(7) 0.7632(9)
C32 C 0.5688(8) 0.2234(6) 0.8953(8)
C33 C 0.4424(8) 0.2109(5) 0.9222(7)
C34 C 0.3036(7) 0.2064(5) 0.8150(7)
H1 H -0.00520 0.50800 0.24960
H2 H 0.24510 0.54010 0.30370
H3 H 0.50460 0.54040 0.47360
H4 H 0.66670 0.52700 0.69640
H5 H 0.57570 0.47770 0.86720
H6 H 0.32800 0.44720 0.81660
H7 H -0.08230 0.20440 0.75640
H8 H -0.12170 0.30230 0.91940
H9 H -0.11740 0.46710 1.02480
H10 H -0.07330 0.63140 1.02740
H11 H 0.03250 0.70090 0.87840
H12 H 0.09940 0.60110 0.72980
H13 H -0.45070 0.50090 0.12930
H14 H -0.70820 0.47670 0.05700
H15 H -0.79920 0.33830 0.13830
H16 H -0.63320 0.22810 0.28630
H17 H -0.37500 0.25500 0.35700
H18 H 0.42170 0.24400 0.56300
H19 H 0.65360 0.24130 0.74600
H20 H 0.66230 0.22470 0.96850
H21 H 0.44770 0.20510 1.01390
H22 H 0.21590 0.19220 0.83320
H23 H -0.126(7) 0.287(5) 0.326(7)
H24 H 0.164(7) 0.118(5) 0.453(6)
#END
