
#######################################################################
#
#                 Cambridge Crystallographic Data Centre
#                                CCDC
#
#######################################################################
#
# If this CIF has been generated from an entry in the Cambridge
# Structural Database, then it will include bibliographic, chemical,
# crystal, experimental, refinement or atomic coordinate data resulting
# from the CCDC's data processing and validation procedures.
#
#######################################################################

data_CSD_CIF_FULPEH
_audit_creation_date 1988-07-17
_audit_creation_method CSD-ConQuest-V1
_database_code_CSD FULPEH
_chemical_formula_sum 'C20 H24 N2 O6'
_chemical_formula_moiety
;
C20 H24 N2 O6
;
_journal_coden_Cambridge 151
_journal_volume 31
_journal_year 1988
_journal_page_first 300
_journal_name_full 'J.Med.Chem. '
loop_
_publ_author_name
"R.Fossheim"
"A.Joslyn"
"A.J.Solo"
"E.Luchowski"
"A.Rutledge"
"D.J.Triggle"
_chemical_name_systematic
;
Isobutyl methyl 
1,4-dihydro-2,6-dimethyl-4-(3-nitrophenyl)-3,5-pyridinedicarboxylate
;
_chemical_melting_point 400.15
_cell_volume   1942.293
_exptl_crystal_colour 'yellow'
_exptl_crystal_density_diffrn 1.33
_exptl_special_details
;
Melting point range 400.15-402.15K
calcium channel antagonist activity

;
_diffrn_ambient_temperature 123.15
#These two values have been output from a single CSD field.
_refine_ls_R_factor_gt 0.047
_refine_ls_wR_factor_gt 0.047
_symmetry_cell_setting monoclinic
_symmetry_space_group_name_H-M 'P 21/c'
_symmetry_Int_Tables_number 14
loop_
_symmetry_equiv_pos_site_id
_symmetry_equiv_pos_as_xyz
1 x,y,z
2 -x,1/2+y,1/2-z
3 -x,-y,-z
4 x,-1/2-y,-1/2+z
_cell_length_a 9.442(3)
_cell_length_b 16.049(5)
_cell_length_c 12.831(3)
_cell_angle_alpha 90
_cell_angle_beta 92.63(2)
_cell_angle_gamma 90
_cell_formula_units_Z 4
loop_
_atom_type_symbol
_atom_type_radius_bond
C 0.68
H 0.23
N 0.68
O 0.68
loop_
_atom_site_label
_atom_site_type_symbol
_atom_site_fract_x
_atom_site_fract_y
_atom_site_fract_z
O1 O 0.3160(3) 0.8504(2) 0.0697(2)
O2 O 0.1588(3) 0.8511(2) 0.1956(2)
O3 O 0.8215(4) 0.6327(3) 0.2596(3)
O4 O 0.7577(3) 0.7095(2) 0.1208(3)
O5 O 0.6604(4) 0.6378(2) -0.1943(2)
O6 O 0.5096(4) 0.5492(2) -0.2642(3)
N1 N 0.3944(4) 0.6658(2) 0.3527(3)
N2 N 0.5529(5) 0.5953(3) -0.1925(3)
C1 C 0.3077(5) 0.7238(3) 0.3020(3)
C2 C 0.3481(5) 0.7546(3) 0.2099(3)
C3 C 0.4772(5) 0.7196(3) 0.1568(3)
C4 C 0.5801(5) 0.6791(3) 0.2367(3)
C5 C 0.5336(5) 0.6514(3) 0.3286(3)
C6 C 0.4338(5) 0.6584(3) 0.0697(3)
C7 C 0.3230(5) 0.6026(3) 0.0812(3)
C8 C 0.2842(6) 0.5455(3) 0.0012(4)
C9 C 0.3578(5) 0.5437(3) -0.0893(4)
C10 C 0.4681(5) 0.5983(3) -0.0986(3)
C11 C 0.5070(5) 0.6560(3) -0.0221(3)
C12 C 0.1769(6) 0.7441(3) 0.3601(4)
C13 C 0.2758(5) 0.8221(3) 0.1516(3)
C14 C 0.0827(5) 0.9179(3) 0.1396(4)
C15 C -0.0562(5) 0.9310(3) 0.1915(4)
C16 C -0.0308(7) 0.9563(4) 0.3062(4)
C17 C -0.1406(7) 0.9983(4) 0.1301(5)
C18 C 0.7297(6) 0.6706(3) 0.2106(4)
C19 C 0.9006(6) 0.7005(5) 0.0831(6)
C20 C 0.6178(7) 0.6055(4) 0.4131(5)
H1 H 0.374(4) 0.655(2) 0.411(3)
H2 H 0.520(4) 0.766(3) 0.128(3)
H3 H 0.269(5) 0.602(3) 0.146(3)
H4 H 0.199(5) 0.510(3) 0.012(3)
H5 H 0.332(4) 0.504(3) -0.150(3)
H6 H 0.581(4) 0.694(2) -0.029(3)
H7 H 0.167(5) 0.711(3) 0.427(4)
H8 H 0.088(5) 0.738(3) 0.312(3)
H9 H 0.183(5) 0.804(3) 0.393(3)
H10 H 0.070(4) 0.898(2) 0.065(3)
H11 H 0.151(4) 0.972(2) 0.147(3)
H12 H -0.129(4) 0.874(3) 0.189(3)
H13 H 0.036(6) 0.908(4) 0.351(4)
H14 H -0.119(6) 0.971(4) 0.337(4)
H15 H 0.035(6) 1.009(4) 0.305(4)
H16 H -0.151(5) 0.981(4) 0.048(4)
H17 H -0.082(6) 1.059(3) 0.138(4)
H18 H -0.228(6) 1.007(4) 0.165(4)
H19 H 0.907(5) 0.738(3) 0.014(4)
H20 H 0.926(5) 0.645(3) 0.054(4)
H21 H 0.956(5) 0.717(3) 0.147(4)
H22 H 0.578(5) 0.609(3) 0.481(4)
H23 H 0.712(6) 0.636(3) 0.427(4)
H24 H 0.623(6) 0.556(3) 0.399(4)
#END
