
#######################################################################
#
#                 Cambridge Crystallographic Data Centre
#                                CCDC
#
#######################################################################
#
# If this CIF has been generated from an entry in the Cambridge
# Structural Database, then it will include bibliographic, chemical,
# crystal, experimental, refinement or atomic coordinate data resulting
# from the CCDC's data processing and validation procedures.
#
#######################################################################

data_CSD_CIF_FULQAF
_audit_creation_date 2010-09-15
_audit_creation_method CSD-ConQuest-V1
_database_code_CSD FULQAF
_database_code_depnum_ccdc_archive 'CCDC 730567'
_chemical_formula_sum 'C11 H13 N3 O4'
_chemical_formula_moiety
;
C11 H13 N3 O4
;
_journal_coden_Cambridge 1003
_journal_volume 40
_journal_year 2010
_journal_page_first 213
_journal_name_full 'J.Chem.Cryst. '
loop_
_publ_author_name
"G.M.de Lima"
"J.L.Wardell"
"S.M.S.V.Wardell"
_chemical_name_systematic
;
(E)-Methyl 3-((4-nitrophenyl)hydrazono)butanoate
;
_chemical_melting_point 387.15
_cell_volume    597.029
_exptl_crystal_colour 'yellow'
_exptl_crystal_density_diffrn 1.398
_exptl_special_details
;
Melting point range 387.15-388.15K
Study temperature given as 293 K and 120 K in the CIF
;
_exptl_crystal_description 'plate'
_exptl_crystal_preparation 'ethanol'
_diffrn_ambient_temperature 120
#These two values have been output from a single CSD field.
_refine_ls_R_factor_gt 0.0597
_refine_ls_wR_factor_gt 0.0597
_symmetry_cell_setting triclinic
_symmetry_space_group_name_H-M 'P -1'
_symmetry_Int_Tables_number 2
loop_
_symmetry_equiv_pos_site_id
_symmetry_equiv_pos_as_xyz
1 x,y,z
2 -x,-y,-z
_cell_length_a 5.6323(2)
_cell_length_b 9.9695(3)
_cell_length_c 11.0286(4)
_cell_angle_alpha 91.859(2)
_cell_angle_beta 102.034(2)
_cell_angle_gamma 98.898(3)
_cell_formula_units_Z 2
loop_
_atom_type_symbol
_atom_type_radius_bond
C 0.68
H 0.23
N 0.68
O 0.68
loop_
_atom_site_label
_atom_site_type_symbol
_atom_site_fract_x
_atom_site_fract_y
_atom_site_fract_z
N1 N 0.4454(2) 0.60058(11) 0.71682(10)
N2 N 0.5372(2) 0.48347(12) 0.74713(11)
H1 H 0.637(3) 0.4493(18) 0.7092(16)
N3 N 0.1596(2) 0.15122(12) 1.08506(10)
O1 O 0.2489(2) 0.69733(11) 0.40741(9)
O2 O 0.17379(18) 0.90284(9) 0.46050(9)
O3 O 0.2442(2) 0.04527(10) 1.10935(10)
O4 O 0.00020(19) 0.18754(11) 1.1344(1)
C1 C 0.5446(3) 0.67593(14) 0.64244(12)
C2 C 0.4356(3) 0.80240(14) 0.61297(13)
H2 H 0.56730 0.87970 0.62250
H3 H 0.33470 0.81790 0.67180
C3 C 0.2803(2) 0.79276(13) 0.48252(12)
C4 C 0.4359(2) 0.40168(13) 0.82798(12)
C5 C 0.5274(2) 0.28088(14) 0.85802(12)
H4 H 0.64990 0.25630 0.82110
C6 C 0.4376(3) 0.19823(14) 0.94184(12)
H5 H 0.49880 0.11850 0.96200
C7 C 0.2539(2) 0.23656(13) 0.99555(12)
C8 C 0.1588(2) 0.35486(13) 0.96637(12)
H6 H 0.03500 0.37810 1.00300
C9 C 0.2490(3) 0.43790(13) 0.88262(12)
H7 H 0.18620 0.51730 0.86260
C10 C 0.7560(3) 0.64844(16) 0.58728(14)
H8 H 0.89550 0.64290 0.65280
H9 H 0.79790 0.72090 0.53640
H10 H 0.70970 0.56400 0.53750
C11 C 0.0055(3) 0.89971(16) 0.34069(13)
H11 H 0.09470 0.89630 0.27570
H12 H -0.06950 0.98010 0.33620
H13 H -0.11980 0.82070 0.33110
#END
