
#######################################################################
#
#                 Cambridge Crystallographic Data Centre
#                                CCDC
#
#######################################################################
#
# If this CIF has been generated from an entry in the Cambridge
# Structural Database, then it will include bibliographic, chemical,
# crystal, experimental, refinement or atomic coordinate data resulting
# from the CCDC's data processing and validation procedures.
#
#######################################################################

data_CSD_CIF_FULYEQ10
_audit_creation_date 1990-10-01
_audit_creation_method CSD-ConQuest-V1
_database_code_CSD FULYEQ10
_chemical_formula_sum 'C10 H12 N2 O4'
_chemical_formula_moiety
;
C10 H12 N2 O4
;
_journal_coden_Cambridge 582
_journal_volume 19
_journal_year 1989
_journal_page_first 905
_journal_name_full 'J.Crystallogr.Spectrosc.Res. '
loop_
_publ_author_name
"P.Sgarabotto"
"F.Ugozzoli"
"S.Sorriso"
_chemical_name_systematic
;
o-Dinitrotetramethylbenzene
;
_cell_volume    541.006
_exptl_crystal_colour 'yellow'
_exptl_crystal_density_diffrn 1.38
_diffrn_ambient_temperature ?
_diffrn_special_details
;
The study was carried out at room temperature,in the range 283-303K

;
#These two values have been output from a single CSD field.
_refine_ls_R_factor_gt 0.082
_refine_ls_wR_factor_gt 0.082
_symmetry_cell_setting triclinic
_symmetry_space_group_name_H-M 'P -1'
_symmetry_Int_Tables_number 2
loop_
_symmetry_equiv_pos_site_id
_symmetry_equiv_pos_as_xyz
1 x,y,z
2 -x,-y,-z
_cell_length_a 8.327(3)
_cell_length_b 8.734(3)
_cell_length_c 8.453(3)
_cell_angle_alpha 63.6(1)
_cell_angle_beta 97.0(1)
_cell_angle_gamma 100.4(1)
_cell_formula_units_Z 2
loop_
_atom_type_symbol
_atom_type_radius_bond
C 0.68
H 0.23
N 0.68
O 0.68
loop_
_atom_site_label
_atom_site_type_symbol
_atom_site_fract_x
_atom_site_fract_y
_atom_site_fract_z
O1 O 0.7953(4) 0.9013(4) 0.4532(4)
O2 O 0.9370(4) 0.7464(4) 0.4028(4)
O3 O 0.6042(4) 0.5969(4) 0.3260(4)
O4 O 0.7385(4) 0.5528(3) 0.1520(5)
N1 N 0.8468(4) 0.8567(4) 0.3551(4)
N2 N 0.6831(4) 0.6468(4) 0.1960(4)
C1 C 0.7952(4) 0.9375(4) 0.1669(4)
C2 C 0.7169(4) 0.8346(4) 0.0866(4)
C3 C 0.6651(4) 0.9031(4) -0.0895(4)
C4 C 0.6992(4) 1.0828(4) -0.1869(4)
C5 C 0.7788(4) 1.1875(4) -0.1065(4)
C6 C 0.8320(4) 1.1154(4) 0.0731(4)
C7 C 0.5672(5) 0.7901(5) -0.1715(6)
C8 C 0.6487(5) 1.1606(6) -0.3816(5)
C9 C 0.8128(5) 1.3812(5) -0.2133(6)
C10 C 0.9305(5) 1.2261(5) 0.1558(6)
H1 H 0.5127(5) 0.8889(5) -0.2847(6)
H2 H 0.4734(5) 0.7065(5) -0.0818(6)
H3 H 0.6257(5) 0.7153(5) -0.2147(6)
H4 H 0.7129(5) 1.2894(6) -0.4505(5)
H5 H 0.5189(5) 1.1656(6) -0.3908(5)
H6 H 0.6720(5) 1.0802(6) -0.4408(5)
H7 H 0.7504(6) 1.4316(5) -0.3410(6)
H8 H 0.9426(6) 1.4238(5) -0.2271(6)
H9 H 0.7683(6) 1.4276(5) -0.1301(6)
H10 H 0.9966(5) 1.3489(5) 0.0710(6)
H11 H 1.0157(5) 1.1447(5) 0.2476(6)
H12 H 0.8450(5) 1.2466(5) 0.2283(6)
#END
