
#######################################################################
#
#                 Cambridge Crystallographic Data Centre
#                                CCDC
#
#######################################################################
#
# If this CIF has been generated from an entry in the Cambridge
# Structural Database, then it will include bibliographic, chemical,
# crystal, experimental, refinement or atomic coordinate data resulting
# from the CCDC's data processing and validation procedures.
#
#######################################################################

data_CSD_CIF_FULZUH
_audit_creation_date 1988-07-18
_audit_creation_method CSD-ConQuest-V1
_database_code_CSD FULZUH
_database_code_depnum_ccdc_archive 'CCDC 1161114'
_chemical_formula_sum 'C16 H16 N2 O2'
_chemical_formula_moiety
;
C16 H16 N2 O2
;
_journal_coden_Cambridge 207
_journal_year 1987
_journal_page_first 2593
_journal_name_full 'J.Chem.Soc.,Perkin Trans.1 '
loop_
_publ_author_name
"A.M.T.Bell"
"J.Bridges"
"R.Cross"
"C.P.Falshaw"
"B.F.Taylor"
"G.A.Taylor"
"I.C.Whittaker"
"M.J.Begley"
_chemical_name_systematic
;
2-Methyl-3-phenyl-4-(o-tolyl)-1,2,4-oxadiazolidin-5-one
;
_cell_volume   2785.225
_exptl_crystal_density_diffrn 1.28
_diffrn_ambient_temperature ?
_diffrn_special_details
;
The study was carried out at room temperature,in the range 283-303K

;
#These two values have been output from a single CSD field.
_refine_ls_R_factor_gt 0.0424
_refine_ls_wR_factor_gt 0.0424
_symmetry_cell_setting orthorhombic
_symmetry_space_group_name_H-M 'P b c a'
_symmetry_Int_Tables_number 61
loop_
_symmetry_equiv_pos_site_id
_symmetry_equiv_pos_as_xyz
1 x,y,z
2 1/2-x,-y,1/2+z
3 1/2+x,1/2-y,-z
4 -x,1/2+y,1/2-z
5 -x,-y,-z
6 -1/2+x,y,-1/2-z
7 -1/2-x,-1/2+y,z
8 x,-1/2-y,-1/2+z
_cell_length_a 9.1804(6)
_cell_length_b 17.6156(10)
_cell_length_c 17.2227(19)
_cell_angle_alpha 90
_cell_angle_beta 90
_cell_angle_gamma 90
_cell_formula_units_Z 8
loop_
_atom_type_symbol
_atom_type_radius_bond
C 0.68
N 0.68
O 0.68
loop_
_atom_site_label
_atom_site_type_symbol
_atom_site_fract_x
_atom_site_fract_y
_atom_site_fract_z
O1 O 0.5566(2) 0.2930(1) 0.0800(1)
O2 O 0.3641(2) 0.3691(1) 0.09745(9)
N1 N 0.4234(2) 0.3407(1) -0.0230(1)
N2 N 0.2788(2) 0.4179(1) 0.0441(1)
C1 C 0.4593(3) 0.3301(1) 0.0524(1)
C2 C 0.2759(2) 0.3724(1) -0.0272(1)
C3 C 0.1336(3) 0.4244(2) 0.0787(2)
C4 C 0.2458(3) 0.4210(1) -0.0968(1)
C5 C 0.3262(3) 0.4864(2) -0.1110(2)
C6 C 0.2914(4) 0.5315(2) -0.1744(2)
C7 C 0.1788(4) 0.5107(2) -0.2236(2)
C8 C 0.1006(4) 0.4456(2) -0.2102(2)
C9 C 0.1338(3) 0.4006(2) -0.1465(2)
C10 C 0.4912(3) 0.3031(1) -0.0873(1)
C11 C 0.6343(3) 0.3196(1) -0.1062(2)
C12 C 0.6931(3) 0.2855(2) -0.1718(2)
C13 C 0.6112(3) 0.2374(1) -0.2180(2)
C14 C 0.4696(3) 0.2217(1) -0.1983(1)
C15 C 0.4092(3) 0.2541(1) -0.1324(1)
C16 C 0.7277(3) 0.3750(2) -0.0587(2)
#END
