
#######################################################################
#
#                 Cambridge Crystallographic Data Centre
#                                CCDC
#
#######################################################################
#
# If this CIF has been generated from an entry in the Cambridge
# Structural Database, then it will include bibliographic, chemical,
# crystal, experimental, refinement or atomic coordinate data resulting
# from the CCDC's data processing and validation procedures.
#
#######################################################################

data_CSD_CIF_FUMLIJ
_audit_creation_date 2010-09-21
_audit_creation_method CSD-ConQuest-V1
_database_code_CSD FUMLIJ
_database_code_depnum_ccdc_archive 'CCDC 746348'
_chemical_formula_sum 'C26 H32 N2 O5'
_chemical_formula_moiety
;
C26 H32 N2 O5
;
_journal_coden_Cambridge 177
_journal_volume 8
_journal_year 2010
_journal_page_first 1081
_journal_name_full 'Org.Biomol.Chem. '
loop_
_publ_author_name
"D.R.Boyd"
"N.D.Sharma"
"L.Sbircea"
"D.Murphy"
"J.F.Malone"
"S.L.James"
"C.C.R.Allen"
"J.T.G.Hamilton"
_chemical_name_systematic
;
(3aS,9bR,3a'S,9b'R)-2,2,7,2',2',7'-hexamethyl-3a,4,5,9b,3a',4',5',9b'-octahydr
o-[8,8']bi[[1,3]-dioxolo[4,5-h]quinolinyl] N-oxide
;
_chemical_name_common
;
2,2,7-trimethyl-8-(2,2,7-trimethyl-3a,4,5,9b-tetrahydro[1,3]dioxolo[4,5-h]quin
olin-8-yl)-3a,4,5,9b-tetrahydro[1,3]dioxolo[4,5-h]quinoline 9-oxide
;
_chemical_melting_point 539.15
_cell_volume   4579.533
_exptl_crystal_colour 'colorless'
_exptl_crystal_density_diffrn 1.313
_exptl_special_details
;
Melting point range 539.15-541.15K

;
_exptl_crystal_description 'irregular'
_diffrn_ambient_temperature 150
#These two values have been output from a single CSD field.
_refine_ls_R_factor_gt 0.0462
_refine_ls_wR_factor_gt 0.0462
_symmetry_cell_setting orthorhombic
_symmetry_space_group_name_H-M 'P 21 21 21'
_symmetry_Int_Tables_number 19
loop_
_symmetry_equiv_pos_site_id
_symmetry_equiv_pos_as_xyz
1 x,y,z
2 1/2-x,-y,1/2+z
3 1/2+x,1/2-y,-z
4 -x,1/2+y,1/2-z
_cell_length_a 14.0720(1)
_cell_length_b 14.2180(1)
_cell_length_c 22.8890(3)
_cell_angle_alpha 90
_cell_angle_beta 90
_cell_angle_gamma 90
_cell_formula_units_Z 8
loop_
_atom_type_symbol
_atom_type_radius_bond
C 0.68
H 0.23
N 0.68
O 0.68
loop_
_atom_site_label
_atom_site_type_symbol
_atom_site_fract_x
_atom_site_fract_y
_atom_site_fract_z
N1 N 0.33891(12) -0.68840(12) 0.90904(7)
O1 O 0.31359(12) -0.72540(11) 0.85941(7)
C1 C 0.33573(14) -0.74115(14) 0.95874(9)
C2 C 0.36516(15) -0.70382(15) 1.01214(9)
C3 C 0.36039(18) -0.76228(17) 1.06701(10)
H1 H 0.41090 -0.80970 1.06630
H2 H 0.29850 -0.79360 1.06920
H3 H 0.36870 -0.72150 1.10120
C4 C 0.39526(14) -0.61045(15) 1.01397(9)
H4 H 0.41570 -0.58380 1.04990
C5 C 0.39556(14) -0.55617(14) 0.96353(9)
C6 C 0.42378(16) -0.45362(15) 0.96409(10)
H5 H 0.46410 -0.44100 0.99860
H6 H 0.36610 -0.41410 0.96720
C7 C 0.47789(15) -0.42782(16) 0.90881(10)
H7 H 0.49490 -0.36030 0.91000
H8 H 0.53750 -0.46460 0.90700
C8 C 0.41937(15) -0.44718(14) 0.8547(1)
H9 H 0.46100 -0.44370 0.81930
O2 O 0.34623(11) -0.37759(10) 0.85070(7)
C9 C 0.36384(15) -0.54224(14) 0.85465(9)
H10 H 0.38610 -0.58280 0.82170
O3 O 0.26685(11) -0.51461(10) 0.84540(7)
C10 C 0.36799(14) -0.59590(14) 0.91103(9)
C11 C 0.26701(16) -0.42113(14) 0.82276(9)
C12 C 0.27851(18) -0.42177(16) 0.75664(10)
H11 H 0.27930 -0.35700 0.74210
H12 H 0.22530 -0.45590 0.73890
H13 H 0.33840 -0.45290 0.74630
C13 C 0.17670(18) -0.37385(18) 0.84138(11)
H14 H 0.17510 -0.36910 0.88410
H15 H 0.12220 -0.41080 0.82790
H16 H 0.17380 -0.31070 0.82430
N2 N 0.35486(12) -0.90858(12) 0.96629(8)
C14 C 0.29497(15) -0.83791(14) 0.95438(9)
C15 C 0.19778(16) -0.85200(16) 0.94408(10)
C16 C 0.13138(17) -0.77082(18) 0.93380(12)
H17 H 0.15260 -0.73510 0.89960
H18 H 0.13120 -0.72970 0.96820
H19 H 0.06700 -0.79470 0.92690
C17 C 0.16582(17) -0.94386(17) 0.94367(10)
H20 H 0.10120 -0.95630 0.93460
C18 C 0.22631(16) -1.01844(15) 0.95633(9)
C19 C 0.18994(19) -1.11886(17) 0.95782(11)
H21 H 0.14420 -1.12820 0.92550
H22 H 0.15580 -1.12960 0.99500
C20 C 0.2697(2) -1.19017(18) 0.95224(11)
H23 H 0.24450 -1.25400 0.95980
H24 H 0.29510 -1.18880 0.91190
C21 C 0.34909(18) -1.16905(16) 0.99514(12)
H25 H 0.39990 -1.21810 0.99240
O4 O 0.31065(12) -1.16633(12) 1.05317(7)
C22 C 0.39191(17) -1.07110(16) 0.98815(11)
H26 H 0.44670 -1.07320 0.96040
O5 O 0.42525(11) -1.05273(11) 1.04627(8)
C23 C 0.32028(15) -0.99705(15) 0.96857(9)
C24 C 0.36434(17) -1.09988(17) 1.08773(11)
C25 C 0.4228(2) -1.15002(19) 1.13101(13)
H27 H 0.46400 -1.19520 1.11100
H28 H 0.38140 -1.18350 1.15840
H29 H 0.46200 -1.10470 1.15250
C26 C 0.29544(19) -1.03035(19) 1.11491(12)
H30 H 0.33110 -0.98170 1.13580
H31 H 0.25360 -1.06340 1.14230
H32 H 0.25710 -1.00110 1.08410
N3 N -0.07652(12) -1.09197(12) 0.84455(7)
O6 O -0.03593(11) -1.06519(12) 0.89277(7)
C27 C -0.02547(14) -1.09067(14) 0.79381(9)
C28 C -0.06667(15) -1.12019(14) 0.74164(9)
C29 C -0.01071(17) -1.11500(17) 0.68553(10)
H33 H -0.05080 -1.13550 0.65290
H34 H 0.04500 -1.15610 0.68830
H35 H 0.01000 -1.05010 0.67890
C30 C -0.16050(15) -1.15022(14) 0.74174(9)
H36 H -0.18890 -1.17190 0.70660
C31 C -0.21313(14) -1.14868(14) 0.79337(9)
C32 C -0.31618(15) -1.17631(15) 0.79448(9)
H37 H -0.32940 -1.21980 0.76170
H38 H -0.35610 -1.11960 0.78920
C33 C -0.34219(15) -1.22387(15) 0.85185(10)
H39 H -0.41090 -1.23860 0.85190
H40 H -0.30690 -1.28380 0.85530
C34 C -0.31936(14) -1.16226(15) 0.90380(9)
H41 H -0.32700 -1.19940 0.94060
O7 O -0.38275(10) -1.08338(11) 0.90472(7)
C35 C -0.21946(14) -1.11639(14) 0.90272(9)
H42 H -0.17850 -1.14580 0.93340
O8 O -0.23698(11) -1.01966(11) 0.91728(7)
C36 C -0.16983(14) -1.12019(13) 0.84483(9)
C37 C -0.33407(15) -1.01052(16) 0.93515(9)
C38 C -0.34237(16) -1.02212(19) 1.00076(10)
H43 H -0.40900 -1.01550 1.01240
H44 H -0.30420 -0.97380 1.02030
H45 H -0.31920 -1.08460 1.01200
C39 C -0.3702(2) -0.91691(18) 0.91470(12)
H46 H -0.36170 -0.91180 0.87230
H47 H -0.33480 -0.86660 0.93420
H48 H -0.43790 -0.91120 0.92420
N4 N 0.14532(12) -1.10728(12) 0.79219(8)
C40 C 0.07146(15) -1.04818(14) 0.79583(9)
C41 C 0.08084(15) -0.95000(14) 0.79676(9)
C42 C -0.00408(17) -0.88628(17) 0.80171(12)
H49 H 0.01690 -0.82060 0.80080
H50 H -0.03710 -0.89870 0.83860
H51 H -0.04730 -0.89800 0.76900
C43 C 0.17246(16) -0.91432(15) 0.79348(10)
H52 H 0.18190 -0.84820 0.79410
C44 C 0.25011(15) -0.97338(14) 0.78927(9)
C45 C 0.35002(15) -0.93468(16) 0.78569(11)
H53 H 0.35270 -0.87280 0.80540
H54 H 0.36770 -0.92550 0.74420
C46 C 0.42022(16) -1.00140(17) 0.81443(11)
H55 H 0.48550 -0.97680 0.80930
H56 H 0.40690 -1.00480 0.85680
C47 C 0.41392(15) -1.09828(16) 0.78847(10)
H57 H 0.45540 -1.14200 0.81130
O9 O 0.44578(11) -1.09532(11) 0.72962(7)
C48 C 0.31337(15) -1.14087(15) 0.78341(10)
H58 H 0.30520 -1.19150 0.81330
O10 O 0.31087(10) -1.18136(11) 0.72573(7)
C49 C 0.23337(14) -1.07021(14) 0.78873(9)
C50 C 0.40446(15) -1.17519(16) 0.70179(10)
C51 C 0.46271(17) -1.26297(17) 0.71438(12)
H59 H 0.52800 -1.25370 0.70060
H60 H 0.43440 -1.31690 0.69410
H61 H 0.46330 -1.27490 0.75650
C52 C 0.39470(19) -1.15705(19) 0.63740(11)
H62 H 0.36410 -1.09590 0.63130
H63 H 0.35590 -1.20660 0.61970
H64 H 0.45780 -1.15670 0.61930
#END
