
#######################################################################
#
#                 Cambridge Crystallographic Data Centre
#                                CCDC
#
#######################################################################
#
# If this CIF has been generated from an entry in the Cambridge
# Structural Database, then it will include bibliographic, chemical,
# crystal, experimental, refinement or atomic coordinate data resulting
# from the CCDC's data processing and validation procedures.
#
#######################################################################

data_CSD_CIF_FUMLEF
_audit_creation_date 2010-09-21
_audit_creation_method CSD-ConQuest-V1
_database_code_CSD FUMLEF
_database_code_depnum_ccdc_archive 'CCDC 746347'
_chemical_formula_sum 'C24 H28 N2 O6'
_chemical_formula_moiety
;
C24 H28 N2 O6
;
_journal_coden_Cambridge 177
_journal_volume 8
_journal_year 2010
_journal_page_first 1081
_journal_name_full 'Org.Biomol.Chem. '
loop_
_publ_author_name
"D.R.Boyd"
"N.D.Sharma"
"L.Sbircea"
"D.Murphy"
"J.F.Malone"
"S.L.James"
"C.C.R.Allen"
"J.T.G.Hamilton"
_chemical_name_systematic
;
(3aS,9bR,3a'S,9b'R)-2,2,2',2'-tetramethyl-3a,4,5,9b,3a',4',5',9b'-octahydro-[8
,8']bi[[1,3]-dioxolo[4,5-h]quinolinyl] N,N'-dioxide
;
_chemical_name_common
;
2,2,2',2'-tetramethyl-3a,3a',4,4',5,5',9b,9b'-octahydro-8,8'-bi[1,3]dioxolo[4,
5-h]quinoline 9,9'-dioxide
;
_chemical_melting_point 522.15
_cell_volume   3275.785
_exptl_crystal_colour 'colorless'
_exptl_crystal_density_diffrn 1.34
_exptl_crystal_description 'plates'
_diffrn_ambient_temperature 150
#These two values have been output from a single CSD field.
_refine_ls_R_factor_gt 0.0311
_refine_ls_wR_factor_gt 0.0311
_symmetry_cell_setting monoclinic
_symmetry_space_group_name_H-M 'C 2'
_symmetry_Int_Tables_number 5
loop_
_symmetry_equiv_pos_site_id
_symmetry_equiv_pos_as_xyz
1 x,y,z
2 -x,y,-z
3 1/2+x,1/2+y,z
4 1/2-x,1/2+y,-z
_cell_length_a 36.354(7)
_cell_length_b 6.0133(11)
_cell_length_c 16.828(3)
_cell_angle_alpha 90
_cell_angle_beta 117.068(3)
_cell_angle_gamma 90
_cell_formula_units_Z 6
loop_
_atom_type_symbol
_atom_type_radius_bond
C 0.68
H 0.23
N 0.68
O 0.68
loop_
_atom_site_label
_atom_site_type_symbol
_atom_site_fract_x
_atom_site_fract_y
_atom_site_fract_z
N1 N 0.70598(5) 0.7691(3) 0.80634(10)
O1 O 0.67837(4) 0.6372(3) 0.74853(8)
C1 C 0.69363(6) 0.9442(4) 0.84051(12)
C2 C 0.72284(6) 1.0869(4) 0.90034(13)
H1 H 0.71420 1.21290 0.92160
C3 C 0.76454(6) 1.0486(4) 0.92972(13)
H2 H 0.78450 1.14440 0.97250
C4 C 0.77684(6) 0.8684(4) 0.89594(13)
C5 C 0.82214(6) 0.8157(4) 0.92779(14)
H3 H 0.83800 0.86160 0.99090
H4 H 0.83260 0.90200 0.89210
C6 C 0.82911(6) 0.5690(4) 0.91950(14)
H5 H 0.85860 0.54290 0.93600
H6 H 0.82220 0.48370 0.96130
C7 C 0.80260(6) 0.4884(4) 0.82503(13)
H7 H 0.80730 0.32590 0.82080
O2 O 0.81330(4) 0.6095(3) 0.76551(9)
C8 C 0.75647(6) 0.5336(4) 0.78943(13)
H8 H 0.74270 0.39880 0.79840
O3 O 0.74291(4) 0.5672(3) 0.69596(9)
C9 C 0.74739(6) 0.7314(4) 0.83229(13)
C10 C 0.77693(6) 0.6410(4) 0.68202(14)
C11 C 0.77835(7) 0.4984(5) 0.60996(15)
H9 H 0.80090 0.54880 0.59760
H10 H 0.75200 0.51040 0.55560
H11 H 0.78310 0.34310 0.62980
C12 C 0.77329(8) 0.8854(4) 0.66037(18)
H12 H 0.77250 0.96960 0.70940
H13 H 0.74790 0.91270 0.60530
H14 H 0.79710 0.93300 0.65220
N2 N 0.63292(4) 0.7988(3) 0.84391(10)
O4 O 0.65697(4) 0.6424(3) 0.89388(9)
C13 C 0.64923(6) 0.9652(4) 0.81319(12)
C14 C 0.62447(6) 1.1392(4) 0.76523(12)
H15 H 0.63600 1.25800 0.74660
C15 C 0.58294(6) 1.1422(4) 0.74392(12)
H16 H 0.56580 1.25990 0.70900
C16 C 0.56647(6) 0.9728(3) 0.77373(12)
C17 C 0.52165(6) 0.9620(4) 0.75356(13)
H17 H 0.50480 1.05010 0.69930
H18 H 0.51820 1.02720 0.80380
C18 C 0.50660(6) 0.7221(3) 0.73924(13)
H19 H 0.47700 0.71850 0.72460
H20 H 0.50950 0.65820 0.68820
C19 C 0.53092(6) 0.5833(4) 0.82157(12)
H21 H 0.52400 0.42270 0.80720
O5 O 0.52110(4) 0.6488(3) 0.89174(8)
C20 C 0.57835(6) 0.6150(4) 0.86332(12)
H22 H 0.59180 0.47310 0.85940
O6 O 0.59052(4) 0.6686(2) 0.95550(8)
C21 C 0.59195(5) 0.8013(4) 0.82436(12)
C22 C 0.55732(6) 0.6064(4) 0.97357(13)
C23 C 0.56014(6) 0.3616(4) 0.99783(14)
H23 H 0.53600 0.31940 1.00590
H24 H 0.58530 0.33520 1.05340
H25 H 0.56090 0.27230 0.94990
C24 C 0.55813(7) 0.7562(4) 1.04566(14)
H26 H 0.55300 0.90980 1.02390
H27 H 0.58520 0.74650 1.09800
H28 H 0.53660 0.70990 1.06210
N3 N 0.96675(4) 0.9376(3) 0.53094(10)
O7 O 0.99430(4) 0.7931(2) 0.58066(8)
C25 C 0.97851(6) 1.1066(3) 0.49239(12)
C26 C 0.95033(6) 1.2693(4) 0.44437(12)
H29 H 0.95880 1.39040 0.42020
C27 C 0.90990(6) 1.2574(4) 0.43113(12)
H30 H 0.89040 1.36680 0.39620
C28 C 0.89810(6) 1.0853(4) 0.46911(12)
C29 C 0.85470(6) 1.0602(4) 0.45722(14)
H31 H 0.83540 1.14130 0.40300
H32 H 0.85270 1.12570 0.50910
C30 C 0.84271(6) 0.8161(4) 0.44862(14)
H33 H 0.81390 0.80220 0.43930
H34 H 0.84420 0.75160 0.39600
C31 C 0.87114(6) 0.6891(4) 0.53147(13)
H35 H 0.86600 0.52580 0.52100
O8 O 0.86295(4) 0.7579(3) 0.60343(8)
C32 C 0.91784(6) 0.7388(4) 0.56640(12)
H36 H 0.93260 0.60130 0.56330
O9 O 0.93170(4) 0.8027(3) 0.65843(8)
C33 C 0.92699(6) 0.9258(3) 0.51980(12)
C34 C 0.90062(6) 0.7371(4) 0.68324(13)
C35 C 0.90700(7) 0.4990(4) 0.71633(16)
H37 H 0.90680 0.40050 0.66970
H38 H 0.88470 0.45640 0.73080
H39 H 0.93360 0.48630 0.76980
C36 C 0.90041(8) 0.8980(4) 0.75119(15)
H40 H 0.92800 0.90370 0.80230
H41 H 0.88030 0.84930 0.77130
H42 H 0.89280 1.04620 0.72440
N3A N 1.03325(4) 0.9376(3) 0.46906(10)
O7A O 1.00570(4) 0.7931(2) 0.41934(8)
C25A C 1.02149(6) 1.1066(3) 0.50761(12)
C26A C 1.04967(6) 1.2693(4) 0.55563(12)
H29A H 1.04120 1.39040 0.57980
C27A C 1.09010(6) 1.2574(4) 0.56887(12)
H30A H 1.10960 1.36680 0.60380
C28A C 1.10190(6) 1.0853(4) 0.53089(12)
C29A C 1.14530(6) 1.0602(4) 0.54278(14)
H31A H 1.16460 1.14130 0.59700
H32A H 1.14730 1.12570 0.49090
C30A C 1.15729(6) 0.8161(4) 0.55138(14)
H33A H 1.18610 0.80220 0.56070
H34A H 1.15580 0.75160 0.60400
C31A C 1.12886(6) 0.6891(4) 0.46853(13)
H35A H 1.13400 0.52580 0.47900
O8A O 1.13705(4) 0.7579(3) 0.39657(8)
C32A C 1.08216(6) 0.7388(4) 0.43360(12)
H36A H 1.06740 0.60130 0.43670
O9A O 1.06830(4) 0.8027(3) 0.34157(8)
C33A C 1.07301(6) 0.9258(3) 0.48020(12)
C34A C 1.09938(6) 0.7371(4) 0.31676(13)
C35A C 1.09300(7) 0.4990(4) 0.28367(16)
H37A H 1.09320 0.40050 0.33030
H38A H 1.11530 0.45640 0.26920
H39A H 1.06640 0.48630 0.23020
C36A C 1.09959(8) 0.8980(4) 0.24881(15)
H40A H 1.07200 0.90370 0.19770
H41A H 1.11970 0.84930 0.22870
H42A H 1.10720 1.04620 0.27560
#END
