
#######################################################################
#
#                 Cambridge Crystallographic Data Centre
#                                CCDC
#
#######################################################################
#
# If this CIF has been generated from an entry in the Cambridge
# Structural Database, then it will include bibliographic, chemical,
# crystal, experimental, refinement or atomic coordinate data resulting
# from the CCDC's data processing and validation procedures.
#
#######################################################################

data_CSD_CIF_FUMLUW
_audit_creation_date 2015-09-07
_audit_creation_method CSD-ConQuest-V1
_database_code_CSD FUMLUW
_database_code_depnum_ccdc_archive 'CCDC 1406653'
_chemical_formula_sum 'C11 H13 N3 O2'
_chemical_formula_moiety
;
C11 H13 N3 O2
;
_journal_coden_Cambridge 1500
_journal_volume 5
_journal_year 2015
_journal_page_first 75187
_journal_name_full 'RSC Advances '
loop_
_publ_author_name
"S.Borah"
"Bhrigu Phukan Das"
"G.Konwar"
"S.P.Mahanta"
"N.Gogoi"
_chemical_name_systematic
;
2-((3-(hydroxyimino)butan-2-ylidene)carbonohydrazonoyl)phenol
;
_chemical_melting_point 395
_cell_volume   1071.905
_exptl_crystal_colour 'yellow'
_exptl_crystal_density_diffrn 1.359
_exptl_special_details
;
Melting point range 395-397K

;
_exptl_crystal_description 'block'
_exptl_crystal_preparation 'ethanol'
_diffrn_ambient_temperature 296
#These two values have been output from a single CSD field.
_refine_ls_R_factor_gt 0.06
_refine_ls_wR_factor_gt 0.06
_symmetry_cell_setting monoclinic
_symmetry_space_group_name_H-M 'P 21/c'
_symmetry_Int_Tables_number 14
loop_
_symmetry_equiv_pos_site_id
_symmetry_equiv_pos_as_xyz
1 x,y,z
2 -x,1/2+y,1/2-z
3 -x,-y,-z
4 x,-1/2-y,-1/2+z
_cell_length_a 19.7074(7)
_cell_length_b 4.4839(2)
_cell_length_c 12.7541(5)
_cell_angle_alpha 90
_cell_angle_beta 107.994(2)
_cell_angle_gamma 90
_cell_formula_units_Z 4
loop_
_atom_type_symbol
_atom_type_radius_bond
C 0.68
H 0.23
N 0.68
O 0.68
loop_
_atom_site_label
_atom_site_type_symbol
_atom_site_fract_x
_atom_site_fract_y
_atom_site_fract_z
H1 H 0.2750(14) 0.447(6) 1.151(2)
H2 H -0.0111(16) 1.473(7) 0.796(3)
H3 H 0.2760(15) 0.358(7) 0.894(2)
O1 O 0.30934(9) 0.2164(4) 0.87972(13)
N1 N 0.24131(9) 0.5200(4) 0.98898(15)
N2 N 0.05821(9) 1.1814(4) 0.84129(14)
O2 O 0.01089(8) 1.3885(4) 0.86260(13)
C1 C 0.10047(11) 1.0682(5) 0.93098(17)
C2 C 0.28009(11) 0.3961(5) 1.07855(18)
C3 C 0.34795(12) 0.0985(5) 0.97836(18)
C4 C 0.33449(11) 0.1797(5) 1.07706(17)
C5 C 0.15335(11) 0.8510(5) 0.91565(17)
C6 C 0.42891(12) -0.1548(5) 1.17784(19)
H4 H 0.45580 -0.24100 1.24390
C7 C 0.44189(12) -0.2294(5) 1.0795(2)
H5 H 0.47790 -0.36430 1.08050
C8 C 0.40155(12) -0.1041(5) 0.9804(2)
H6 H 0.41040 -0.15600 0.91530
C9 C 0.09768(12) 1.1405(5) 1.04403(17)
H7 H 0.06070 1.28410 1.03890
H8 H 0.14270 1.22150 1.08730
H9 H 0.08790 0.96230 1.07850
N3 N 0.19233(10) 0.7250(4) 1.00552(15)
C10 C 0.37575(11) 0.0482(5) 1.17623(18)
H10 H 0.36720 0.09840 1.24180
C11 C 0.15916(12) 0.7928(5) 0.80250(18)
H11 H 0.19570 0.64710 0.80740
H12 H 0.17110 0.97480 0.77270
H13 H 0.11440 0.71940 0.75530
#END
