
#######################################################################
#
#                 Cambridge Crystallographic Data Centre
#                                CCDC
#
#######################################################################
#
# If this CIF has been generated from an entry in the Cambridge
# Structural Database, then it will include bibliographic, chemical,
# crystal, experimental, refinement or atomic coordinate data resulting
# from the CCDC's data processing and validation procedures.
#
#######################################################################

data_CSD_CIF_FUMLOP
_audit_creation_date 2010-09-21
_audit_creation_method CSD-ConQuest-V1
_database_code_CSD FUMLOP
_database_code_depnum_ccdc_archive 'CCDC 746349'
_chemical_formula_sum 'C26 H32 N2 O6'
_chemical_formula_moiety
;
C26 H32 N2 O6
;
_journal_coden_Cambridge 177
_journal_volume 8
_journal_year 2010
_journal_page_first 1081
_journal_name_full 'Org.Biomol.Chem. '
loop_
_publ_author_name
"D.R.Boyd"
"N.D.Sharma"
"L.Sbircea"
"D.Murphy"
"J.F.Malone"
"S.L.James"
"C.C.R.Allen"
"J.T.G.Hamilton"
_chemical_name_systematic
;
(3aS,9bR,3a'S,9b'R)-2,2,7,2',2',7'-hexamethyl-3a,4,5,9b,3a',4',5',9b'-octahydr
o-[8,8']bi[[1,3]-dioxolo[4,5-h]quinolinyl] N,N'-dioxide
;
_chemical_name_common
;
2,2,2',2',7,7'-hexamethyl-3a,3a',4,4',5,5',9b,9b'-octahydro-8,8'-bi[1,3]dioxol
o[4,5-h]quinoline 9,9'-dioxide
;
_chemical_melting_point 562.15
_cell_volume   4632.890
_exptl_crystal_colour 'colorless'
_exptl_crystal_density_diffrn 1.343
_exptl_crystal_description 'irregular'
_diffrn_ambient_temperature 150
_refine_special_details
;
C10B,C11B,C9B and C10',C11',C9B' disordered over two sites with occupancies 
0.656:0.344.
;
#These two values have been output from a single CSD field.
_refine_ls_R_factor_gt 0.055
_refine_ls_wR_factor_gt 0.055
_symmetry_cell_setting orthorhombic
_symmetry_space_group_name_H-M 'P 21 21 21'
_symmetry_Int_Tables_number 19
loop_
_symmetry_equiv_pos_site_id
_symmetry_equiv_pos_as_xyz
1 x,y,z
2 1/2-x,-y,1/2+z
3 1/2+x,1/2-y,-z
4 -x,1/2+y,1/2-z
_cell_length_a 14.1616(1)
_cell_length_b 14.2969(1)
_cell_length_c 22.8822(2)
_cell_angle_alpha 90
_cell_angle_beta 90
_cell_angle_gamma 90
_cell_formula_units_Z 8
loop_
_atom_type_symbol
_atom_type_radius_bond
C 0.68
H 0.23
N 0.68
O 0.68
loop_
_atom_site_label
_atom_site_type_symbol
_atom_site_fract_x
_atom_site_fract_y
_atom_site_fract_z
N1 N 0.33788(14) -0.68707(14) 0.91065(8)
O1 O 0.31250(13) -0.72340(12) 0.86075(7)
C1 C 0.33327(16) -0.73992(17) 0.96055(11)
C2 C 0.36230(17) -0.70377(19) 1.01388(11)
C3 C 0.3589(2) -0.7644(2) 1.06765(11)
H1 H 0.37300 -0.72640 1.10220
H2 H 0.40580 -0.81450 1.06420
H3 H 0.29580 -0.79180 1.07160
C4 C 0.39340(17) -0.61172(19) 1.01649(11)
H4 H 0.41410 -0.58630 1.05260
C5 C 0.39426(17) -0.55653(18) 0.96620(11)
C6 C 0.4218(2) -0.45489(18) 0.96727(12)
H5 H 0.46250 -0.44290 1.00160
H6 H 0.36430 -0.41610 0.97130
C7 C 0.47411(19) -0.4267(2) 0.91195(12)
H7 H 0.49000 -0.35930 0.91380
H8 H 0.53390 -0.46230 0.90920
C8 C 0.41457(19) -0.44533(18) 0.85824(11)
H9 H 0.45390 -0.43670 0.82230
O2 O 0.33718(14) -0.38077(12) 0.85739(8)
C9 C 0.36567(17) -0.54304(17) 0.85639(10)
H10 H 0.39390 -0.58210 0.82460
O3 O 0.26954(13) -0.52176(13) 0.84283(9)
C10 C 0.36728(16) -0.59535(17) 0.91283(10)
C11 C 0.2627(2) -0.42535(18) 0.82639(11)
C12 C 0.2736(2) -0.4141(2) 0.76080(11)
H11 H 0.27080 -0.34760 0.75060
H12 H 0.22250 -0.44750 0.74090
H13 H 0.33460 -0.43990 0.74850
C13 C 0.1690(2) -0.3897(2) 0.84794(12)
H14 H 0.16670 -0.39420 0.89070
H15 H 0.11810 -0.42740 0.83100
H16 H 0.16110 -0.32430 0.83620
N2 N 0.34845(14) -0.90826(15) 0.96220(9)
O4 O 0.43861(13) -0.89483(14) 0.96696(10)
C14 C 0.28980(17) -0.83421(18) 0.95511(10)
C15 C 0.19301(19) -0.8475(2) 0.94774(12)
C16 C 0.1284(2) -0.7650(2) 0.94040(16)
H17 H 0.06410 -0.78710 0.93260
H18 H 0.15020 -0.72670 0.90750
H19 H 0.12880 -0.72740 0.97620
C17 C 0.1581(2) -0.9387(2) 0.94735(14)
H20 H 0.09300 -0.94950 0.94010
C18 C 0.2176(2) -1.0138(2) 0.95748(12)
C19 C 0.1793(2) -1.1123(2) 0.95980(15)
H21 H 0.12800 -1.11880 0.93070
H22 H 0.15200 -1.12380 0.99900
C20 C 0.2542(3) -1.1851(2) 0.94760(16)
H23 H 0.27410 -1.18080 0.90620
H24 H 0.22760 -1.24830 0.95420
C21 C 0.3393(2) -1.1711(2) 0.9869(2)
H25 H 0.38780 -1.22050 0.97930
O5 O 0.3097(2) -1.1739(2) 1.04610(14)
C22 C 0.3840(2) -1.0728(2) 0.98205(16)
H26 H 0.43670 -1.07340 0.95300
O6 O 0.42031(15) -1.05920(15) 1.03960(11)
C23 C 0.31297(19) -0.99839(18) 0.96622(11)
C24 C 0.3605(3) -1.1043(3) 1.0846(2)
C25 C 0.4220(5) -1.1571(5) 1.1275(4)
H27 H 0.45960 -1.20380 1.10650
H28 H 0.38200 -1.18850 1.15640
H29 H 0.46430 -1.11310 1.14740
C26 C 0.2932(3) -1.0355(3) 1.1142(2)
H30 H 0.25760 -1.06800 1.14480
H31 H 0.24930 -1.01010 1.08510
H32 H 0.32960 -0.98430 1.13160
N3 N -0.07401(14) -1.08594(14) 0.84056(8)
O7 O -0.03414(12) -1.05942(14) 0.88930(7)
C27 C -0.02357(17) -1.08224(17) 0.78932(11)
C28 C -0.06274(19) -1.11298(17) 0.73714(11)
C29 C -0.0040(2) -1.1098(2) 0.68200(12)
H33 H 0.02210 -1.04690 0.67690
H34 H -0.04380 -1.12550 0.64830
H35 H 0.04770 -1.15510 0.68500
C30 C -0.15510(19) -1.14511(17) 0.73716(11)
H36 H -0.18270 -1.16730 0.70190
C31 C -0.20766(17) -1.14492(16) 0.7886(1)
C32 C -0.30969(18) -1.17388(19) 0.78871(11)
H37 H -0.32100 -1.21820 0.75620
H38 H -0.34980 -1.11820 0.78220
C33 C -0.33756(19) -1.21998(18) 0.84611(12)
H39 H -0.40600 -1.23400 0.84560
H40 H -0.30310 -1.27990 0.85030
C34 C -0.31549(17) -1.15777(18) 0.89771(11)
H41 H -0.32720 -1.19290 0.93480
O8 O -0.37508(12) -1.07701(13) 0.89579(8)
C35 C -0.21486(17) -1.11561(18) 0.89886(10)
H42 H -0.17530 -1.14930 0.92830
O9 O -0.22897(12) -1.02087(13) 0.91701(8)
C36 C -0.16626(17) -1.11618(16) 0.84052(10)
C37 C -0.32774(17) -1.00602(18) 0.92823(11)
C38 C -0.34774(19) -1.0147(2) 0.99325(11)
H43 H -0.41550 -1.00640 1.00030
H44 H -0.31230 -0.96670 1.01450
H45 H -0.32830 -1.07680 1.00690
C39 C -0.3541(2) -0.9113(2) 0.90428(12)
H46 H -0.33550 -0.90740 0.86310
H47 H -0.32150 -0.86250 0.92660
H48 H -0.42250 -0.90240 0.90760
N4 N 0.14703(15) -1.09774(14) 0.78960(9)
O10 O 0.13234(14) -1.18723(13) 0.78815(10)
C40 C 0.07118(17) -1.03818(17) 0.7929(1)
C41 C 0.08479(19) -0.94197(18) 0.79514(11)
C42 C 0.0004(2) -0.8776(2) 0.79933(15)
H49 H 0.02190 -0.81350 0.80650
H50 H -0.04030 -0.89780 0.83160
H51 H -0.03520 -0.87970 0.76260
C43 C 0.1758(2) -0.90715(18) 0.79325(13)
H52 H 0.18590 -0.84150 0.79490
C44 C 0.25251(18) -0.96744(18) 0.78895(11)
C45 C 0.35243(19) -0.93016(19) 0.78673(13)
H53 H 0.37040 -0.91850 0.74550
H54 H 0.35540 -0.86980 0.80790
C46 C 0.4212(2) -0.9976(2) 0.81358(13)
H55 H 0.40890 -1.00190 0.85610
H56 H 0.48620 -0.97330 0.80830
C47 C 0.41463(19) -1.0938(2) 0.78700(14)
H57 H 0.45570 -1.13800 0.80930
O11 O 0.44548(14) -1.08924(14) 0.72843(9)
C48 C 0.31404(18) -1.13543(18) 0.78145(12)
H58 H 0.30480 -1.18530 0.81160
O12 O 0.31168(13) -1.17617(14) 0.72395(9)
C49 C 0.23750(17) -1.06331(17) 0.78686(11)
C50 C 0.40520(19) -1.1696(2) 0.70051(13)
C51 C 0.4628(2) -1.2566(2) 0.71259(17)
H59 H 0.52720 -1.24780 0.69780
H60 H 0.43380 -1.31030 0.69300
H61 H 0.46490 -1.26810 0.75480
C52 C 0.3947(2) -1.1516(3) 0.63562(14)
H62 H 0.36230 -1.09190 0.62950
H63 H 0.35780 -1.20210 0.61790
H64 H 0.45740 -1.14930 0.61750
C53? C 0.3884(12) -1.1362(13) 1.1197(8)
C54? C 0.4977(7) -1.2152(7) 1.0459(5)
C55? C 0.4110(7) -1.1561(6) 1.0560(4)
H65? H 0.44020 -1.10040 1.13720
H66? H 0.38070 -1.19540 1.14080
H67? H 0.32980 -1.09990 1.12220
H68? H 0.51810 -1.20860 1.00510
H69? H 0.48290 -1.28090 1.05390
H70? H 0.54850 -1.19440 1.07190
#END
