
#######################################################################
#
#                 Cambridge Crystallographic Data Centre
#                                CCDC
#
#######################################################################
#
# If this CIF has been generated from an entry in the Cambridge
# Structural Database, then it will include bibliographic, chemical,
# crystal, experimental, refinement or atomic coordinate data resulting
# from the CCDC's data processing and validation procedures.
#
#######################################################################

data_CSD_CIF_FUPKEG
_audit_creation_date 1988-08-15
_audit_creation_method CSD-ConQuest-V1
_database_code_CSD FUPKEG
_chemical_formula_sum 'C16 H13 N3 O3'
_chemical_formula_moiety
;
C16 H13 N3 O3
;
_journal_coden_Cambridge 35
_journal_volume 53
_journal_year 1988
_journal_page_first 205
_journal_name_full 'J.Org.Chem. '
loop_
_publ_author_name
"J.Singh"
"R.Fox"
"M.Wong"
"T.P.Kissick"
"J.L.Moniot"
"J.Z.Gougoutas"
"M.F.Malley"
"O.Kocy"
_chemical_name_systematic
;
1H-Benzotriazole-1-carboxylic acid cinnamyl ester 3-oxide
;
_chemical_melting_point 400.15
_cell_volume   1436.424
_exptl_crystal_density_diffrn 1.37
_exptl_special_details
;
Melting point range 400.15-402.15K

;
_diffrn_ambient_temperature ?
_diffrn_special_details
;
The study was carried out at room temperature,in the range 283-303K

;
#These two values have been output from a single CSD field.
_refine_ls_R_factor_gt 0.052
_refine_ls_wR_factor_gt 0.052
_symmetry_cell_setting monoclinic
_symmetry_space_group_name_H-M 'P 21/c'
_symmetry_Int_Tables_number 14
loop_
_symmetry_equiv_pos_site_id
_symmetry_equiv_pos_as_xyz
1 x,y,z
2 -x,1/2+y,1/2-z
3 -x,-y,-z
4 x,-1/2-y,-1/2+z
_cell_length_a 10.377(3)
_cell_length_b 5.857(1)
_cell_length_c 23.669(5)
_cell_angle_alpha 90
_cell_angle_beta 93.12(2)
_cell_angle_gamma 90
_cell_formula_units_Z 4
loop_
_atom_type_symbol
_atom_type_radius_bond
C 0.68
H 0.23
N 0.68
O 0.68
loop_
_atom_site_label
_atom_site_type_symbol
_atom_site_fract_x
_atom_site_fract_y
_atom_site_fract_z
O1 O 0.9085(2) 0.8599(3) 0.06838(8)
N1 N 0.9730(2) 0.6794(3) 0.08036(8)
N2 N 0.9348(2) 0.5307(3) 0.11679(8)
N3 N 1.0283(2) 0.3640(3) 0.11850(8)
C1 C 1.1255(2) 0.4138(4) 0.08217(9)
C2 C 1.2377(2) 0.3043(5) 0.0688(1)
C3 C 1.3095(3) 0.4122(5) 0.0292(1)
C4 C 1.2713(3) 0.6183(5) 0.0039(1)
C5 C 1.1598(3) 0.7269(5) 0.0173(1)
C6 C 1.0895(2) 0.6185(4) 0.05728(9)
C7 C 1.0205(2) 0.1743(4) 0.15395(9)
O2 O 1.1048(2) 0.0358(3) 0.15824(7)
O3 O 0.9123(2) 0.1810(3) 0.18074(7)
C8 C 0.8931(2) -0.0048(4) 0.2211(1)
C9 C 0.7977(2) 0.0778(4) 0.2604(1)
C10 C 0.6917(2) -0.0297(4) 0.2716(1)
C11 C 0.5935(2) 0.0464(4) 0.30967(9)
C12 C 0.6011(2) 0.2517(5) 0.3389(1)
C13 C 0.5028(3) 0.3196(5) 0.3725(1)
C14 C 0.3958(2) 0.1842(5) 0.3775(1)
C15 C 0.3877(3) -0.0190(6) 0.3490(1)
C16 C 0.4850(2) -0.0883(5) 0.3160(1)
H1 H 1.26600 0.16070 0.08640
H2 H 1.38960 0.34390 0.01840
H3 H 1.32300 0.68460 -0.02440
H4 H 1.13180 0.86800 -0.00060
H5 H 0.86050 -0.14050 0.20180
H6 H 0.97240 -0.04640 0.24120
H7 H 0.81430 0.22250 0.27880
H8 H 0.67700 -0.17580 0.25280
H9 H 0.67650 0.35000 0.33590
H10 H 0.51050 0.46250 0.39350
H11 H 0.32420 0.23480 0.39900
H12 H 0.31350 -0.11670 0.35330
H13 H 0.47730 -0.23190 0.29570
#END
