
#######################################################################
#
#                 Cambridge Crystallographic Data Centre
#                                CCDC
#
#######################################################################
#
# If this CIF has been generated from an entry in the Cambridge
# Structural Database, then it will include bibliographic, chemical,
# crystal, experimental, refinement or atomic coordinate data resulting
# from the CCDC's data processing and validation procedures.
#
#######################################################################

data_CSD_CIF_FUPLEJ
_audit_creation_date 2015-09-09
_audit_creation_method CSD-ConQuest-V1
_database_code_CSD FUPLEJ
_database_code_depnum_ccdc_archive 'CCDC 1409450'
_chemical_formula_sum 'C25 H19 N5 O4'
_chemical_formula_moiety
;
C25 H19 N5 O4
;
_journal_coden_Cambridge 1277
_journal_volume 118
_journal_year 2014
_journal_page_first 10894
_journal_name_full 'J.Phys.Chem.A '
loop_
_publ_author_name
"E.Alabaraoye"
"K.G.von Eschwege"
"N.Loganathan"
_chemical_name_systematic
;
1-(Nitro(4-phenoxyphenyl)carbonohydrazonoyl)-2-(4-phenoxyphenyl)diazene
;
_cell_volume   4494.828
_exptl_crystal_colour 'metallic dark red'
_exptl_crystal_density_diffrn 1.34
_exptl_crystal_description 'cubic'
_diffrn_ambient_temperature 100.0
#These two values have been output from a single CSD field.
_refine_ls_R_factor_gt 0.0672
_refine_ls_wR_factor_gt 0.0672
_symmetry_cell_setting monoclinic
_symmetry_space_group_name_H-M 'P 21/c'
_symmetry_Int_Tables_number 14
loop_
_symmetry_equiv_pos_site_id
_symmetry_equiv_pos_as_xyz
1 x,y,z
2 -x,1/2+y,1/2-z
3 -x,-y,-z
4 x,-1/2-y,-1/2+z
_cell_length_a 16.689(3)
_cell_length_b 10.481(2)
_cell_length_c 26.364(5)
_cell_angle_alpha 90
_cell_angle_beta 102.917(7)
_cell_angle_gamma 90
_cell_formula_units_Z 8
loop_
_atom_type_symbol
_atom_type_radius_bond
C 0.68
H 0.23
N 0.68
O 0.68
loop_
_atom_site_label
_atom_site_type_symbol
_atom_site_fract_x
_atom_site_fract_y
_atom_site_fract_z
O1 O 0.50853(11) 0.1072(2) 0.24441(9)
O2 O 0.46150(11) -0.0767(2) 0.21631(8)
O3 O -0.04852(11) -0.1803(2) 0.10090(9)
O4 O 0.27325(10) 0.60334(15) 0.41023(6)
N1 N 0.23812(10) 0.01829(17) 0.22011(7)
H1 H 0.23170 0.07520 0.24340
N2 N 0.3113(1) -0.00802(17) 0.21398(6)
N3 N 0.37348(10) 0.16612(18) 0.27271(6)
N4 N 0.30294(10) 0.19414(17) 0.28279(7)
N5 N 0.45321(11) 0.0291(2) 0.23338(7)
C1 C 0.37138(12) 0.0649(2) 0.24091(8)
C2 C 0.16936(12) -0.0429(2) 0.19006(8)
C3 C 0.17254(13) -0.1372(2) 0.15382(8)
H2 H 0.22410 -0.16640 0.14890
C4 C 0.10072(14) -0.1887(2) 0.12489(9)
H3 H 0.10270 -0.25450 0.10040
C5 C 0.02602(14) -0.1443(2) 0.13158(10)
C6 C 0.02268(15) -0.0533(3) 0.16900(12)
H4 H -0.02890 -0.02600 0.17470
C7 C 0.09424(14) -0.0027(2) 0.19792(11)
H5 H 0.09210 0.06030 0.22350
C8 C -0.05962(13) -0.2987(2) 0.07682(10)
C9 C -0.03682(17) -0.4081(3) 0.10383(10)
H6 H -0.00840 -0.40540 0.13930
C10 C -0.0558(2) -0.5227(3) 0.07869(12)
H7 H -0.04120 -0.60020 0.09720
C11 C -0.0958(2) -0.5265(3) 0.02683(12)
H8 H -0.10780 -0.60630 0.00980
C12 C -0.1182(2) -0.4157(3) -0.00006(12)
H9 H -0.14580 -0.41820 -0.03570
C13 C -0.10050(18) -0.2997(3) 0.02518(12)
H10 H -0.11630 -0.22200 0.00720
C14 C 0.29936(12) 0.2996(2) 0.31518(8)
C15 C 0.22776(13) 0.3093(2) 0.33377(9)
H11 H 0.18550 0.24740 0.32400
C16 C 0.21784(13) 0.4086(2) 0.36645(8)
H12 H 0.16980 0.41390 0.38000
C17 C 0.27871(13) 0.4997(2) 0.37909(8)
C18 C 0.34972(13) 0.4921(2) 0.35980(9)
H13 H 0.39070 0.55630 0.36830
C19 C 0.36056(12) 0.3917(2) 0.32843(8)
H14 H 0.40950 0.38520 0.31590
C20 C 0.21113(14) 0.5987(2) 0.43837(8)
C21 C 0.13560(16) 0.6515(2) 0.41797(10)
H15 H 0.12460 0.69110 0.38470
C22 C 0.07552(16) 0.6462(3) 0.44678(11)
H16 H 0.02230 0.67980 0.43270
C23 C 0.09276(18) 0.5924(3) 0.49552(11)
H17 H 0.05180 0.59070 0.51540
C24 C 0.16843(18) 0.5415(3) 0.51548(10)
H18 H 0.18010 0.50480 0.54930
C25 C 0.22832(16) 0.5432(2) 0.48654(9)
H19 H 0.28070 0.50620 0.50000
O5 O -0.01712(10) 0.6845(2) 0.22794(7)
O6 O 0.01835(11) 0.7844(2) 0.30101(8)
O7 O 0.26337(12) 0.17308(18) 0.11167(8)
O8 O 0.45688(11) 1.1032(2) 0.42955(7)
N6 N 0.03474(11) 0.7252(2) 0.26461(8)
N7 N 0.13296(11) 0.60667(18) 0.23473(7)
N8 N 0.20827(10) 0.58065(18) 0.23304(7)
H20 H 0.24960 0.62580 0.25080
N9 N 0.24977(11) 0.76708(18) 0.30027(7)
N10 N 0.17219(11) 0.77927(19) 0.29852(7)
C26 C 0.12187(13) 0.7014(2) 0.26583(8)
C27 C 0.22139(13) 0.4775(2) 0.20177(8)
C28 C 0.15782(13) 0.3969(2) 0.17741(9)
H21 H 0.10350 0.41040 0.18180
C29 C 0.17419(14) 0.2983(2) 0.14715(9)
H22 H 0.13090 0.24370 0.13030
C30 C 0.25342(15) 0.2776(2) 0.14100(9)
C31 C 0.31768(14) 0.3549(2) 0.16625(9)
H23 H 0.37230 0.33910 0.16280
C32 C 0.30127(13) 0.4550(2) 0.19645(8)
H24 H 0.34470 0.50880 0.21370
C33 C 0.33220(15) 0.1645(2) 0.08971(9)
C34 C 0.37636(16) 0.0535(2) 0.09807(9)
H25 H 0.36320 -0.01050 0.12040
C35 C 0.44025(17) 0.0364(3) 0.07350(11)
H26 H 0.47120 -0.04040 0.07880
C36 C 0.45968(18) 0.1291(3) 0.04141(11)
H27 H 0.50400 0.11650 0.02470
C37 C 0.4146(2) 0.2407(3) 0.03351(10)
H28 H 0.42810 0.30500 0.01150
C38 C 0.34963(18) 0.2595(3) 0.05752(10)
H29 H 0.31800 0.33570 0.05200
C39 C 0.30140(13) 0.8519(2) 0.33432(8)
C40 C 0.38517(13) 0.8458(2) 0.33567(8)
H30 H 0.40530 0.78470 0.31500
C41 C 0.43912(14) 0.9285(2) 0.36705(9)
H31 H 0.49640 0.92410 0.36820
C42 C 0.40890(14) 1.0179(2) 0.39673(8)
C43 C 0.32548(15) 1.0228(2) 0.39611(9)
H32 H 0.30550 1.08340 0.41710
C44 C 0.27201(14) 0.9403(2) 0.36535(8)
H33 H 0.21500 0.94340 0.36510
C45 C 0.53753(14) 1.1269(2) 0.42563(9)
C46 C 0.55439(15) 1.1714(2) 0.37998(9)
H34 H 0.51170 1.18210 0.34970
C47 C 0.63469(17) 1.2000(2) 0.37917(10)
H35 H 0.64790 1.23010 0.34800
C48 C 0.69609(17) 1.1851(3) 0.42360(11)
H36 H 0.75140 1.20450 0.42270
C49 C 0.67796(18) 1.1425(3) 0.46916(11)
H37 H 0.72040 1.13340 0.49970
C50 C 0.59782(17) 1.1132(3) 0.47025(10)
H38 H 0.58450 1.08380 0.50140
#END
