
#######################################################################
#
#                 Cambridge Crystallographic Data Centre
#                                CCDC
#
#######################################################################
#
# If this CIF has been generated from an entry in the Cambridge
# Structural Database, then it will include bibliographic, chemical,
# crystal, experimental, refinement or atomic coordinate data resulting
# from the CCDC's data processing and validation procedures.
#
#######################################################################

data_CSD_CIF_FUPVUH
_audit_creation_date 1988-08-15
_audit_creation_method CSD-ConQuest-V1
_database_code_CSD FUPVUH
_database_code_depnum_ccdc_archive 'CCDC 1161402'
_chemical_formula_sum 'C18 H20 N2 O5'
_chemical_formula_moiety
;
C18 H20 N2 O5
;
_journal_coden_Cambridge 582
_journal_volume 16
_journal_year 1986
_journal_page_first 957
_journal_name_full 'J.Crystallogr.Spectrosc.Res. '
loop_
_publ_author_name
"J.M.M.Smits"
"P.T.Beurskens"
"R.Plate"
"H.C.J.Ottenheijm"
_chemical_name_systematic
;
exo-2-Methoxycarbonyl-5-ethoxycarbonyl-4,5,6,11b-tetrahydroisoxazolidino(2,3-a
)-\b-carboline
;
_chemical_melting_point 438.15
_cell_volume   1730.659
_exptl_crystal_density_diffrn 1.322
_exptl_special_details
;
Melting point range 438.15-440.15K

;
_diffrn_ambient_temperature ?
_diffrn_special_details
;
The study was carried out at room temperature,in the range 283-303K

;
#These two values have been output from a single CSD field.
_refine_ls_R_factor_gt 0.057
_refine_ls_wR_factor_gt 0.057
_symmetry_cell_setting monoclinic
_symmetry_space_group_name_H-M 'P 21/c'
_symmetry_Int_Tables_number 14
loop_
_symmetry_equiv_pos_site_id
_symmetry_equiv_pos_as_xyz
1 x,y,z
2 -x,1/2+y,1/2-z
3 -x,-y,-z
4 x,-1/2-y,-1/2+z
_cell_length_a 13.7850(8)
_cell_length_b 8.8951(7)
_cell_length_c 15.1603(11)
_cell_angle_alpha 90
_cell_angle_beta 111.410(6)
_cell_angle_gamma 90
_cell_formula_units_Z 4
loop_
_atom_type_symbol
_atom_type_radius_bond
C 0.68
H 0.23
N 0.68
O 0.68
loop_
_atom_site_label
_atom_site_type_symbol
_atom_site_fract_x
_atom_site_fract_y
_atom_site_fract_z
C1 C -0.0880(3) 0.0847(4) 0.6380(3)
C2 C -0.1888(3) -0.0048(3) 0.5939(2)
C3 C -0.2805(3) 0.0511(4) 0.6157(3)
O1 O -0.3117(2) 0.1815(3) 0.5768(2)
O2 O -0.3194(3) -0.0102(4) 0.6635(3)
C4 C -0.4021(3) 0.2477(5) 0.5878(3)
O3 O -0.1661(2) -0.1555(2) 0.6321(1)
N1 N -0.0555(2) -0.1812(3) 0.6586(2)
C5 C -0.0353(2) -0.2224(6) 0.5719(2)
C6 C -0.1039(2) -0.3571(3) 0.5304(2)
O4 O -0.1811(2) -0.3202(3) 0.4502(2)
O5 O -0.0904(2) -0.4798(2) 0.5646(2)
C7 C -0.2642(3) -0.4289(5) 0.4111(3)
C8 C -0.3459(4) -0.4048(6) 0.4512(4)
C9 C 0.0801(3) -0.2566(3) 0.6013(2)
C10 C 0.1409(2) -0.1253(3) 0.6552(2)
C11 C 0.2450(2) -0.0772(3) 0.6752(2)
C12 C 0.3281(3) -0.1295(4) 0.6508(3)
C13 C 0.4207(3) -0.0513(4) 0.6820(3)
C14 C 0.4329(3) 0.0760(4) 0.7375(3)
C15 C 0.3535(3) 0.1317(4) 0.7626(3)
C16 C 0.2598(3) 0.0542(3) 0.7299(2)
N2 N 0.1683(2) 0.0832(3) 0.7433(2)
C17 C 0.0968(2) -0.0254(3) 0.6978(2)
C18 C -0.0109(2) -0.0327(3) 0.6977(2)
H1 H -0.065(2) 0.124(3) 0.588(2)
H2 H -0.093(2) 0.165(4) 0.676(2)
H3 H -0.212(2) -0.016(4) 0.523(2)
H4 H -0.4185(3) 0.3561(5) 0.5534(3)
H5 H -0.3873(3) 0.2613(5) 0.6624(3)
H6 H -0.4683(3) 0.1744(5) 0.5566(3)
H7 H -0.055(2) -0.135(3) 0.526(2)
H8 H -0.2917(3) -0.4077(5) 0.3358(3)
H9 H -0.2282(3) -0.5386(5) 0.4257(3)
H10 H -0.4135(4) -0.4762(6) 0.4228(4)
H11 H -0.3690(4) -0.2887(6) 0.4360(4)
H12 H -0.3107(4) -0.4205(6) 0.5269(4)
H13 H 0.096(2) -0.278(3) 0.546(2)
H14 H 0.093(2) -0.342(4) 0.638(2)
H15 H 0.316(2) -0.216(4) 0.610(2)
H16 H 0.476(3) -0.093(3) 0.662(2)
H17 H 0.493(3) 0.125(4) 0.758(2)
H18 H 0.358(3) 0.215(4) 0.796(2)
H19 H 0.152(3) 0.153(4) 0.771(2)
H20 H -0.010(2) -0.029(4) 0.760(2)
#END
