
#######################################################################
#
#                 Cambridge Crystallographic Data Centre
#                                CCDC
#
#######################################################################
#
# If this CIF has been generated from an entry in the Cambridge
# Structural Database, then it will include bibliographic, chemical,
# crystal, experimental, refinement or atomic coordinate data resulting
# from the CCDC's data processing and validation procedures.
#
#######################################################################

data_CSD_CIF_FUPWES
_audit_creation_date 1988-08-15
_audit_creation_method CSD-ConQuest-V1
_database_code_CSD FUPWES
_database_code_depnum_ccdc_archive 'CCDC 1161404'
_chemical_formula_sum 'C18 H20 N2 O5'
_chemical_formula_moiety
;
C18 H20 N2 O5
;
_journal_coden_Cambridge 582
_journal_volume 16
_journal_year 1986
_journal_page_first 933
_journal_name_full 'J.Crystallogr.Spectrosc.Res. '
loop_
_publ_author_name
"J.M.M.Smits"
"P.T.Beurskens"
"R.Plate"
"H.C.J.Ottenheijm"
_chemical_name_systematic
;
exo-1-Methoxycarbonyl-5-ethoxycarbonyl-4,5,6,11b-tetrahydroisoxazolidino(2,3-a
)-\b-carboline
;
_chemical_melting_point 435.15
_cell_volume   1727.404
_exptl_crystal_density_diffrn 1.324
_exptl_special_details
;
Melting point range 435.15-436.15K
Oxygen-,heat- and light-sensitive

;
_diffrn_ambient_temperature ?
_diffrn_special_details
;
The study was carried out at room temperature,in the range 283-303K

;
#These two values have been output from a single CSD field.
_refine_ls_R_factor_gt 0.065
_refine_ls_wR_factor_gt 0.065
loop_
_citation_database_id_CSD
_citation_special_details
FUPWAO "is a stereoisomer of this entry"
_symmetry_cell_setting orthorhombic
_symmetry_space_group_name_H-M 'P 21 21 21'
_symmetry_Int_Tables_number 19
loop_
_symmetry_equiv_pos_site_id
_symmetry_equiv_pos_as_xyz
1 x,y,z
2 1/2+x,1/2-y,-z
3 -x,1/2+y,1/2-z
4 1/2-x,-y,1/2+z
_cell_length_a 9.350(5)
_cell_length_b 11.954(2)
_cell_length_c 15.455(3)
_cell_angle_alpha 90
_cell_angle_beta 90
_cell_angle_gamma 90
_cell_formula_units_Z 4
loop_
_atom_type_symbol
_atom_type_radius_bond
C 0.68
H 0.23
N 0.68
O 0.68
loop_
_atom_site_label
_atom_site_type_symbol
_atom_site_fract_x
_atom_site_fract_y
_atom_site_fract_z
C1 C 0.4803(4) 0.3185(3) 0.3303(2)
C2 C 0.5975(4) 0.4008(3) 0.3528(3)
O1 O 0.7230(3) 0.3552(2) 0.3525(2)
O2 O 0.5800(5) 0.4937(3) 0.3723(5)
C3 C 0.8416(5) 0.4254(4) 0.3758(3)
C4 C 0.3376(4) 0.3754(4) 0.3107(3)
O3 O 0.2401(3) 0.3394(2) 0.3766(2)
N1 N 0.2861(3) 0.2309(2) 0.4069(2)
C5 C 0.2388(3) 0.1479(3) 0.3430(2)
C6 C 0.0780(3) 0.1520(3) 0.3361(2)
O4 O 0.0374(2) 0.1429(3) 0.2551(2)
O5 O -0.0044(3) 0.1589(3) 0.3945(2)
C7 C -0.1178(4) 0.1347(6) 0.2399(3)
C8 C -0.1452(5) 0.1524(6) 0.1503(4)
C9 C 0.2819(4) 0.0301(3) 0.3756(2)
C10 C 0.4374(3) 0.0329(3) 0.3964(2)
C11 C 0.5371(4) -0.0557(3) 0.4078(2)
C12 C 0.5317(5) -0.1740(3) 0.4024(2)
C13 C 0.6504(6) -0.2351(4) 0.4158(3)
C14 C 0.7813(6) -0.1834(4) 0.4365(3)
C15 C 0.7928(5) -0.0674(4) 0.4437(3)
C16 C 0.6694(4) -0.0063(3) 0.4290(2)
N2 N 0.6485(3) 0.1087(2) 0.4299(2)
C17 C 0.5094(3) 0.1301(2) 0.4107(2)
C18 C 0.4429(3) 0.2435(2) 0.4093(2)
H1 H 0.5087(4) 0.2724(3) 0.2726(2)
H2 H 0.9352(5) 0.3731(4) 0.3696(3)
H3 H 0.8278(5) 0.4490(4) 0.4428(3)
H4 H 0.8548(5) 0.4997(4) 0.3369(3)
H5 H 0.3051(4) 0.3584(4) 0.2449(3)
H6 H 0.3509(4) 0.4645(4) 0.3193(3)
H7 H 0.2777(3) 0.1600(3) 0.2779(2)
H8 H -0.1809(4) 0.1940(6) 0.2763(3)
H9 H -0.1426(4) 0.0508(6) 0.2612(3)
H10 H -0.2585(5) 0.1551(6) 0.1367(4)
H11 H -0.0941(5) 0.0938(6) 0.1071(4)
H12 H -0.0998(5) 0.2346(6) 0.1410(4)
H13 H 0.2509(4) -0.0227(3) 0.3220(2)
H14 H 0.2266(4) 0.0036(3) 0.4334(2)
H15 H 0.4302(5) -0.2127(3) 0.3878(2)
H16 H 0.6657(6) -0.3264(4) 0.4173(3)
H17 H 0.8833(6) -0.2257(4) 0.4390(3)
H18 H 0.8931(5) -0.0269(4) 0.4584(3)
H19 H 0.7307(3) 0.1687(2) 0.4459(2)
H20 H 0.4839(3) 0.2845(2) 0.4664(2)
#END
