
#######################################################################
#
#                 Cambridge Crystallographic Data Centre
#                                CCDC
#
#######################################################################
#
# If this CIF has been generated from an entry in the Cambridge
# Structural Database, then it will include bibliographic, chemical,
# crystal, experimental, refinement or atomic coordinate data resulting
# from the CCDC's data processing and validation procedures.
#
#######################################################################

data_CSD_CIF_FUPWOC
_audit_creation_date 1988-08-15
_audit_creation_method CSD-ConQuest-V1
_database_code_CSD FUPWOC
_database_code_depnum_ccdc_archive 'CCDC 1161406'
_chemical_formula_sum 'C18 H20 N2 O5'
_chemical_formula_moiety
;
C18 H20 N2 O5
;
_journal_coden_Cambridge 582
_journal_volume 16
_journal_year 1986
_journal_page_first 949
_journal_name_full 'J.Crystallogr.Spectrosc.Res. '
loop_
_publ_author_name
"J.M.M.Smits"
"P.T.Beurskens"
"E.A.V.Rijk"
"R.Jansen"
"R.Plate"
"H.C.J.Ottenheijm"
_chemical_name_systematic
;
exo-2-Carboxymethyl-5-ethoxycarbonyl-4,5,6,11b-tetrahydroisoxazolidino(2,3-a)-
\b-carboline
;
_chemical_melting_point 490.15
_cell_volume   1856.035
_exptl_crystal_density_diffrn 1.23
_exptl_special_details
;
Melting point range 490.15-491.15K
Compound name is published as 1-carboxymethyl-. H23 deleted for suspected 
coordinate error
;
_diffrn_ambient_temperature ?
_diffrn_special_details
;
The study was carried out at room temperature,in the range 283-303K

;
_refine_special_details
;
The terminal carbon of the ethyl group is disordered over three positions.

;
#These two values have been output from a single CSD field.
_refine_ls_R_factor_gt 0.075
_refine_ls_wR_factor_gt 0.075
_symmetry_cell_setting monoclinic
_symmetry_space_group_name_H-M 'P 21/c'
_symmetry_Int_Tables_number 14
loop_
_symmetry_equiv_pos_site_id
_symmetry_equiv_pos_as_xyz
1 x,y,z
2 -x,1/2+y,1/2-z
3 -x,-y,-z
4 x,-1/2-y,-1/2+z
_cell_length_a 15.589(4)
_cell_length_b 7.619(1)
_cell_length_c 16.792(4)
_cell_angle_alpha 90
_cell_angle_beta 111.47(2)
_cell_angle_gamma 90
_cell_formula_units_Z 4
loop_
_atom_type_symbol
_atom_type_radius_bond
C 0.68
H 0.23
N 0.68
O 0.73
loop_
_atom_site_label
_atom_site_type_symbol
_atom_site_fract_x
_atom_site_fract_y
_atom_site_fract_z
C1 C -0.6365(3) -0.1430(5) -0.7633(3)
C2 C -0.7318(3) -0.0722(5) -0.8125(3)
C3 C -0.7825(3) -0.1574(7) -0.8983(3)
C4 C -0.8762(3) -0.0847(7) -0.9424(3)
O1 O -0.8995(3) -0.0423(8) -1.0189(3)
O2 O -0.9304(3) -0.0718(8) -0.9052(3)
O3 O -0.7190(2) 0.1126(3) -0.8293(2)
N1 N -0.6362(2) 0.1722(4) -0.7629(2)
C5 C -0.6583(3) 0.2118(5) -0.6855(3)
C6 C -0.7337(3) 0.3491(5) -0.7131(3)
O4 O -0.8111(2) 0.2895(5) -0.7075(3)
O5 O -0.7257(2) 0.4945(4) -0.7384(3)
C7 C -0.8893(4) 0.4109(9) -0.7340(6)
C8 C -0.9681(7) 0.310(2) -0.735(1)
C9 C -0.5719(3) 0.2830(6) -0.6154(3)
C10 C -0.4941(3) 0.1600(5) -0.6050(2)
C11 C -0.4064(3) 0.1410(5) -0.5385(3)
C12 C -0.3585(3) 0.2301(6) -0.4613(3)
C13 C -0.2694(3) 0.1783(7) -0.4141(3)
C14 C -0.2268(3) 0.0403(7) -0.4385(3)
C15 C -0.2714(3) -0.0524(6) -0.5134(3)
C16 C -0.3598(3) 0.0009(5) -0.5624(3)
N2 N -0.4186(2) -0.0599(4) -0.6410(2)
C17 C -0.4980(3) 0.0366(5) -0.6659(2)
C18 C -0.5746(3) 0.0191(5) -0.7494(3)
H1 H -0.3907(3) 0.3359(6) -0.4397(3)
H2 H -0.2315(3) 0.2484(7) -0.3559(3)
H3 H -0.1574(3) 0.0040(7) -0.3984(3)
H4 H -0.2387(3) -0.1609(6) -0.5325(3)
H5 H -0.625(3) -0.242(6) -0.796(3)
H6 H -0.629(3) -0.175(6) -0.705(3)
H7 H -0.772(3) -0.080(6) -0.782(3)
H8 H -0.749(3) -0.126(6) -0.931(3)
H9 H -0.788(3) -0.292(6) -0.889(3)
H10 H -0.683(3) 0.097(6) -0.664(3)
H11 H -0.580(3) 0.291(6) -0.561(3)
H12 H -0.555(3) 0.402(6) -0.630(3)
H13 H -0.395(3) -0.108(6) -0.676(3)
H14 H -0.556(3) 0.025(6) -0.789(3)
#END
