
#######################################################################
#
#                 Cambridge Crystallographic Data Centre
#                                CCDC
#
#######################################################################
#
# If this CIF has been generated from an entry in the Cambridge
# Structural Database, then it will include bibliographic, chemical,
# crystal, experimental, refinement or atomic coordinate data resulting
# from the CCDC's data processing and validation procedures.
#
#######################################################################

data_CSD_CIF_FUQBAU
_audit_creation_date 2000-12-15
_audit_creation_method CSD-ConQuest-V1
_database_code_CSD FUQBAU
_database_code_depnum_ccdc_archive 'CCDC 151120'
_database_code_depnum_ccdc_journal 1145/145
_chemical_formula_sum 'C24 H30 N6 O4'
_chemical_formula_moiety
;
C24 H30 N6 O4
;
_journal_coden_Cambridge 1145
_journal_volume 9
_journal_year 1999
_journal_page_first 1435
_journal_name_full 'J.Mater.Chem. '
loop_
_publ_author_name
"R.Ziessel"
"G.Ulrich"
"R.C.Lawson"
"L.Echegoyen"
_chemical_name_systematic
;
transoid-5,5'-bis(4,4,5,5-Tetramethylimidazoline-3-oxide-1-oxy-2-yl)-2,2'-bipy
ridine
;
_chemical_melting_point 523.15
_cell_volume   1159.183
_exptl_crystal_colour 'green'
_exptl_crystal_density_diffrn 1.34
_exptl_special_details
;
Melts above 523.15K

;
_exptl_crystal_description 'prism'
_exptl_crystal_preparation 'dichloromethane/hexane'
_diffrn_ambient_temperature 173
#These two values have been output from a single CSD field.
_refine_ls_R_factor_gt 0.04
_refine_ls_wR_factor_gt 0.04
_symmetry_cell_setting monoclinic
_symmetry_space_group_name_H-M 'P 21/n'
_symmetry_Int_Tables_number 14
loop_
_symmetry_equiv_pos_site_id
_symmetry_equiv_pos_as_xyz
1 x,y,z
2 1/2-x,1/2+y,1/2-z
3 -x,-y,-z
4 -1/2+x,-1/2-y,-1/2+z
_cell_length_a 17.216(5)
_cell_length_b 10.832(3)
_cell_length_c 6.247(2)
_cell_angle_alpha 90
_cell_angle_beta 95.71(2)
_cell_angle_gamma 90
_cell_formula_units_Z 2
loop_
_atom_type_symbol
_atom_type_radius_bond
C 0.68
H 0.23
N 0.68
O 0.68
loop_
_atom_site_label
_atom_site_type_symbol
_atom_site_fract_x
_atom_site_fract_y
_atom_site_fract_z
C1 C 0.5171(1) 0.0547(2) 0.5591(4)
C2 C 0.5465(2) 0.0433(2) 0.7670(4)
C3 C 0.5797(2) 0.1426(3) 0.8697(4)
C4 C 0.5851(2) 0.2546(2) 0.7692(4)
C5 C 0.5517(2) 0.2638(3) 0.5575(5)
N1 N 0.5179(1) 0.1638(2) 0.4501(4)
C6 C 0.6225(1) 0.3615(2) 0.8801(4)
N2 N 0.6136(1) 0.4807(2) 0.8235(3)
C7 C 0.6552(2) 0.5672(3) 0.9839(4)
C8 C 0.7127(2) 0.4778(2) 1.1118(4)
N3 N 0.6745(1) 0.3563(2) 1.0555(4)
O1 O 0.5676(1) 0.5224(2) 0.6677(3)
C9 C 0.5925(2) 0.6193(3) 1.1146(6)
C10 C 0.6922(2) 0.6711(3) 0.8660(5)
C11 C 0.7925(2) 0.4719(3) 1.0291(6)
C12 C 0.7209(2) 0.4931(3) 1.3528(5)
O2 O 0.6980(1) 0.2587(2) 1.1578(4)
H1 H 0.54390 -0.03340 0.83960
H2 H 0.59990 0.13470 1.01610
H3 H 0.55220 0.34110 0.48580
H4 H 0.61560 0.67510 1.21960
H5 H 0.55430 0.66160 1.02150
H6 H 0.56830 0.55370 1.18420
H7 H 0.71860 0.72580 0.96760
H8 H 0.72850 0.63750 0.77660
H9 H 0.65280 0.71490 0.78000
H10 H 0.81950 0.54720 1.06070
H11 H 0.82150 0.40550 1.09690
H12 H 0.78660 0.45920 0.87790
H13 H 0.74510 0.57010 1.38960
H14 H 0.67070 0.49090 1.40350
H15 H 0.75200 0.42800 1.41710
C1B C 0.4829(1) -0.0547(2) 0.4409(4)
C2B C 0.4535(2) -0.0433(2) 0.2330(4)
C3B C 0.4203(2) -0.1426(3) 0.1303(4)
C4B C 0.4149(2) -0.2546(2) 0.2308(4)
C5B C 0.4483(2) -0.2638(3) 0.4425(5)
N1B N 0.4821(1) -0.1638(2) 0.5499(4)
H3B H 0.44780 -0.34110 0.51420
C6B C 0.3775(1) -0.3615(2) 0.1199(4)
N2B N 0.3864(1) -0.4807(2) 0.1765(3)
C7B C 0.3448(2) -0.5672(3) 0.0161(4)
C8B C 0.2873(2) -0.4778(2) -0.1118(4)
N3B N 0.3255(1) -0.3563(2) -0.0555(4)
O2B O 0.3020(1) -0.2587(2) -0.1578(4)
C11B C 0.2075(2) -0.4719(3) -0.0291(6)
H10B H 0.18050 -0.54720 -0.06070
H11B H 0.17850 -0.40550 -0.09690
H12B H 0.21340 -0.45920 0.12210
C12B C 0.2791(2) -0.4931(3) -0.3528(5)
H13B H 0.25490 -0.57010 -0.38960
H14B H 0.32930 -0.49090 -0.40350
H15B H 0.24800 -0.42800 -0.41710
C9B C 0.4075(2) -0.6193(3) -0.1146(6)
H4B H 0.38440 -0.67510 -0.21960
H5B H 0.44570 -0.66160 -0.02150
H6B H 0.43170 -0.55370 -0.18420
C10B C 0.3078(2) -0.6711(3) 0.1340(5)
H7B H 0.28140 -0.72580 0.03240
H8B H 0.27150 -0.63750 0.22340
H9B H 0.34720 -0.71490 0.22000
O1B O 0.4324(1) -0.5224(2) 0.3323(3)
H2B H 0.40010 -0.13470 -0.01610
H1B H 0.45610 0.03340 0.16040
#END
