
#######################################################################
#
#                 Cambridge Crystallographic Data Centre
#                                CCDC
#
#######################################################################
#
# If this CIF has been generated from an entry in the Cambridge
# Structural Database, then it will include bibliographic, chemical,
# crystal, experimental, refinement or atomic coordinate data resulting
# from the CCDC's data processing and validation procedures.
#
#######################################################################

data_CSD_CIF_FUQBOI
_audit_creation_date 2000-12-15
_audit_creation_method CSD-ConQuest-V1
_database_code_CSD FUQBOI
_database_code_depnum_ccdc_archive 'CCDC 151124'
_database_code_depnum_ccdc_journal 1145/219
_chemical_formula_sum 'C12 H10 N2 O3'
_chemical_formula_moiety
;
C12 H10 N2 O3
;
_journal_coden_Cambridge 1145
_journal_volume 10
_journal_year 2000
_journal_page_first 1581
_journal_name_full 'J.Mater.Chem. '
loop_
_publ_author_name
"Bo Zhao"
"Changyun Chen"
"Zhihua Zhou"
"Yang Cao"
"Ming Li"
_chemical_name_systematic
;
4-Aminophenyl 4'-nitrophenyl ether
;
_cell_volume   1099.643
_exptl_crystal_colour 'yellow'
_exptl_crystal_density_diffrn 1.391
_exptl_crystal_preparation 'ethyl acetate'
_diffrn_ambient_temperature ?
_diffrn_special_details
;
The study was carried out at room temperature,in the range 283-303K

;
#These two values have been output from a single CSD field.
_refine_ls_R_factor_gt 0.0322
_refine_ls_wR_factor_gt 0.0322
_symmetry_cell_setting monoclinic
_symmetry_space_group_name_H-M 'P 21/c'
_symmetry_Int_Tables_number 14
loop_
_symmetry_equiv_pos_site_id
_symmetry_equiv_pos_as_xyz
1 x,y,z
2 x,1/2-y,1/2+z
3 -x,-y,-z
4 -x,-1/2+y,-1/2-z
_cell_length_a 7.234(1)
_cell_length_b 8.999(1)
_cell_length_c 16.907(2)
_cell_angle_alpha 90
_cell_angle_beta 92.42(1)
_cell_angle_gamma 90
_cell_formula_units_Z 4
loop_
_atom_type_symbol
_atom_type_radius_bond
C 0.68
H 0.23
N 0.68
O 0.68
loop_
_atom_site_label
_atom_site_type_symbol
_atom_site_fract_x
_atom_site_fract_y
_atom_site_fract_z
O1 O 0.51588(14) 0.13356(11) 0.22908(6)
O2 O 0.8751(2) -0.22353(16) -0.03917(8)
O3 O 0.6103(2) -0.33140(16) -0.04034(8)
N1 N -0.1522(3) 0.0890(2) 0.37943(14)
N2 N 0.7191(3) -0.23843(17) -0.01489(8)
C1 C 0.0164(2) 0.09613(16) 0.34172(9)
C2 C 0.1612(2) 0.00120(16) 0.36107(9)
H1 H 0.14750 -0.07040 0.40010
C3 C 0.3265(2) 0.01132(16) 0.32315(9)
H2 H 0.42360 -0.05280 0.33650
C4 C 0.34560(19) 0.11706(16) 0.26552(8)
C5 C 0.2052(2) 0.21376(16) 0.24665(8)
H3 H 0.21990 0.28590 0.20800
C6 C 0.0428(2) 0.20383(17) 0.28489(9)
H4 H -0.05180 0.27090 0.27240
C7 C 0.5536(2) 0.04146(16) 0.16717(8)
C8 C 0.7283(2) 0.05586(18) 0.13778(9)
H5 H 0.80940 0.12740 0.15860
C9 C 0.7819(2) -0.03508(19) 0.07814(8)
H6 H 0.89950 -0.02650 0.05850
C10 C 0.6599(2) -0.13910(17) 0.04766(8)
C11 C 0.4854(2) -0.15154(16) 0.07424(8)
H7 H 0.40360 -0.22080 0.05170
C12 C 0.4304(2) -0.06088(15) 0.13488(8)
H8 H 0.31180 -0.06880 0.15370
H9 H -0.151(2) 0.007(2) 0.4107(10)
H10 H -0.249(4) 0.117(3) 0.3537(17)
#END
