
#######################################################################
#
#                 Cambridge Crystallographic Data Centre
#                                CCDC
#
#######################################################################
#
# If this CIF has been generated from an entry in the Cambridge
# Structural Database, then it will include bibliographic, chemical,
# crystal, experimental, refinement or atomic coordinate data resulting
# from the CCDC's data processing and validation procedures.
#
#######################################################################

data_CSD_CIF_FUQBOI01
_audit_creation_date 2002-03-06
_audit_creation_method CSD-ConQuest-V1
_database_code_CSD FUQBOI01
_chemical_formula_sum 'C12 H10 N2 O3'
_chemical_formula_moiety
;
C12 H10 N2 O3
;
_journal_coden_Cambridge 603
_journal_volume 20
_journal_year 2001
_journal_page_first 34
_journal_name_full 'Jiegou Huaxue(Chin.)(Chin.J.Struct.Chem.) '
loop_
_publ_author_name
"Bo Zhao"
"Tie-Liu Qi"
"Kai-Bei Yu"
_chemical_name_systematic
;
4-amino-4'-nitrodiphenyl ether
;
_chemical_melting_point 403.15
_cell_volume   1099.643
_exptl_crystal_colour 'yellow'
_exptl_crystal_density_diffrn 1.391
_exptl_special_details
;
beta is 92.42 not 102.47

;
_diffrn_ambient_temperature ?
_diffrn_special_details
;
The study was carried out at room temperature,in the range 283-303K

;
#These two values have been output from a single CSD field.
_refine_ls_R_factor_gt 0.0322
_refine_ls_wR_factor_gt 0.0322
_symmetry_cell_setting monoclinic
_symmetry_space_group_name_H-M 'P 21/c'
_symmetry_Int_Tables_number 14
loop_
_symmetry_equiv_pos_site_id
_symmetry_equiv_pos_as_xyz
1 x,y,z
2 -x,1/2+y,1/2-z
3 -x,-y,-z
4 x,-1/2-y,-1/2+z
_cell_length_a 7.234(1)
_cell_length_b 8.999(1)
_cell_length_c 16.907(2)
_cell_angle_alpha 90
_cell_angle_beta 92.42
_cell_angle_gamma 90
_cell_formula_units_Z 4
loop_
_atom_type_symbol
_atom_type_radius_bond
C 0.68
N 0.68
O 0.68
loop_
_atom_site_label
_atom_site_type_symbol
_atom_site_fract_x
_atom_site_fract_y
_atom_site_fract_z
O1 O 0.5159(1) 0.1366(1) 0.2291(1)
O2 O 0.8751(2) -0.2235(2) -0.0392(1)
O3 O 0.6103(2) -0.3314(2) -0.0403(1)
N1 N -0.1522(3) 0.0890(2) 0.3794(1)
N2 N 0.7191(3) -0.2384(2) -0.0149(1)
C1 C 0.0164(2) 0.0961(2) 0.3417(1)
C2 C 0.1612(2) 0.0012(2) 0.3611(1)
C3 C 0.3265(2) 0.0113(2) 0.3232(1)
C4 C 0.3456(2) 0.1171(2) 0.2655(1)
C5 C 0.2052(2) 0.2138(2) 0.2467(1)
C6 C 0.0428(2) 0.2038(2) 0.2849(1)
C7 C 0.5536(2) 0.0415(2) 0.1672(1)
C8 C 0.7283(2) 0.0559(2) 0.1378(1)
C9 C 0.7819(2) -0.0351(2) 0.0781(1)
C10 C 0.6559(2) -0.1319(2) 0.0447(1)
C11 C 0.4854(2) -0.1515(2) 0.0742(1)
C12 C 0.4304(2) -0.0609(2) 0.1349(3)
#END
