
#######################################################################
#
#                 Cambridge Crystallographic Data Centre
#                                CCDC
#
#######################################################################
#
# If this CIF has been generated from an entry in the Cambridge
# Structural Database, then it will include bibliographic, chemical,
# crystal, experimental, refinement or atomic coordinate data resulting
# from the CCDC's data processing and validation procedures.
#
#######################################################################

data_CSD_CIF_FUQFAY
_audit_creation_date 2000-12-15
_audit_creation_method CSD-ConQuest-V1
_database_code_CSD FUQFAY
_database_code_depnum_ccdc_archive 'CCDC 146262'
_database_code_depnum_ccdc_journal 1267/186
_chemical_formula_sum 'C15 H13 N3 O5'
_chemical_formula_moiety
;
C15 H13 N3 O5
;
_journal_coden_Cambridge 1267
_journal_volume 215
_journal_year 2000
_journal_page_first 355
_journal_name_full 'Z.Kristallogr.-New Cryst.Struct. '
loop_
_publ_author_name
"N.Galitsky"
"V.Cody"
"J.-C.Wallet"
_chemical_name_systematic
;
1-(2-Hydroxyphenyl)-3-(4-nitrophenyl)-1,3-propanedioxime
;
_chemical_melting_point 483
_cell_volume    700.901
_exptl_crystal_colour 'yellow'
_exptl_crystal_density_diffrn 1.494
_exptl_crystal_description 'prismatic'
_exptl_crystal_preparation 'ethanol'
_diffrn_ambient_temperature ?
_diffrn_special_details
;
The study was carried out at room temperature,in the range 283-303K

;
#These two values have been output from a single CSD field.
_refine_ls_R_factor_gt 0.0434
_refine_ls_wR_factor_gt 0.0434
_symmetry_cell_setting triclinic
_symmetry_space_group_name_H-M 'P -1'
_symmetry_Int_Tables_number 2
loop_
_symmetry_equiv_pos_site_id
_symmetry_equiv_pos_as_xyz
1 x,y,z
2 -x,-y,-z
_cell_length_a 6.979(1)
_cell_length_b 8.309(1)
_cell_length_c 13.128(1)
_cell_angle_alpha 105.566(9)
_cell_angle_beta 105.287(8)
_cell_angle_gamma 93.15(1)
_cell_formula_units_Z 2
loop_
_atom_type_symbol
_atom_type_radius_bond
C 0.68
H 0.23
N 0.68
O 0.68
loop_
_atom_site_label
_atom_site_type_symbol
_atom_site_fract_x
_atom_site_fract_y
_atom_site_fract_z
O1 O 0.6819(2) 0.1546(2) 0.4495(1)
O2 O 0.6571(2) 0.0347(2) 0.7079(1)
O3 O 1.4133(2) 0.2996(2) 0.9170(1)
O4 O 0.4202(2) 0.8473(2) 0.8229(1)
O5 O 0.6772(2) 1.0220(2) 0.9324(1)
N1 N 0.7326(2) 0.0832(2) 0.6303(1)
N2 N 1.2882(2) 0.4257(2) 0.9169(1)
N3 N 0.5988(2) 0.8824(2) 0.8721(1)
C1 C 0.9740(2) 0.5001(2) 0.8492(1)
C2 C 1.0521(3) 0.6696(2) 0.8784(2)
C3 C 0.9312(3) 0.7938(3) 0.8853(2)
C4 C 0.7268(3) 0.7483(2) 0.8587(1)
C5 C 0.6423(3) 0.5831(2) 0.8238(2)
C6 C 0.7658(3) 0.4587(2) 0.8201(2)
C7 C 1.1096(2) 0.3701(2) 0.8517(1)
C8 C 1.0367(3) 0.1882(2) 0.7879(2)
C9 C 0.9136(3) 0.1588(2) 0.6695(2)
C10 C 0.9988(3) 0.2156(2) 0.5914(2)
C11 C 0.8818(3) 0.2123(2) 0.4856(2)
C12 C 0.9648(3) 0.2700(3) 0.4151(2)
C13 C 1.1672(3) 0.3292(3) 0.4480(2)
C14 C 1.2858(3) 0.3312(3) 0.5495(2)
C15 C 1.2033(3) 0.2746(3) 0.6203(2)
H1 H 1.191(3) 0.705(3) 0.899(2)
H2 H 0.985(3) 0.909(3) 0.909(2)
H3 H 0.496(3) 0.555(3) 0.805(2)
H4 H 0.712(3) 0.344(2) 0.804(2)
H5 H 0.954(3) 0.143(3) 0.828(2)
H6 H 1.154(3) 0.130(3) 0.789(2)
H7 H 1.284(3) 0.270(3) 0.690(2)
H8 H 1.434(4) 0.372(3) 0.576(2)
H9 H 0.873(4) 0.270(3) 0.342(2)
H10 H 0.660(4) 0.112(4) 0.507(2)
H11 H 0.544(5) -0.018(4) 0.666(3)
H12 H 1.525(5) 0.345(5) 0.960(3)
H13 H 1.225(4) 0.368(3) 0.398(2)
#END
