
#######################################################################
#
#                 Cambridge Crystallographic Data Centre
#                                CCDC
#
#######################################################################
#
# If this CIF has been generated from an entry in the Cambridge
# Structural Database, then it will include bibliographic, chemical,
# crystal, experimental, refinement or atomic coordinate data resulting
# from the CCDC's data processing and validation procedures.
#
#######################################################################

data_CSD_CIF_FUQKOR
_audit_creation_date 2000-12-15
_audit_creation_method CSD-ConQuest-V1
_database_code_CSD FUQKOR
_database_code_depnum_ccdc_archive 'CCDC 153338'
_chemical_formula_sum 'C10 H15 N5 O4'
_chemical_formula_moiety
;
C10 H15 N5 O4
;
_journal_coeditor_code "IUCr NA0105"
_journal_coden_Cambridge 622
_journal_volume 56
_journal_year 2000
_journal_page_first 882
_journal_name_full 'Acta Crystallogr.,Sect.B:Struct.Sci. '
loop_
_publ_author_name
"J.N.Low"
"M.D.Lopez"
"P.A.Mascaros"
"J.C.Domingo"
"M.L.Godino"
"R.L.Garzon"
"M.D.Gutierrez"
"M.Melguizo"
"G.Ferguson"
"C.Glidewell"
_chemical_name_systematic
;
N-(6-Amino-3,4-dihydro-3-methyl-5-nitroso-4-oxopyrimidin-2-yl)valine
;
_chemical_melting_point 524
_cell_volume   1309.492
_exptl_crystal_colour 'orange'
_exptl_crystal_density_diffrn 1.366
_exptl_special_details
;
Melts with decomposition.

;
_exptl_crystal_description 'needle'
_diffrn_ambient_temperature ?
_diffrn_special_details
;
The study was carried out at room temperature,in the range 283-303K

;
_refine_special_details
;
The isopropyl group is disordered over two sites with occupancies 
;
#These two values have been output from a single CSD field.
_refine_ls_R_factor_gt 0.044
_refine_ls_wR_factor_gt 0.044
_symmetry_cell_setting orthorhombic
_symmetry_space_group_name_H-M 'P 21 21 21'
_symmetry_Int_Tables_number 19
loop_
_symmetry_equiv_pos_site_id
_symmetry_equiv_pos_as_xyz
1 x,y,z
2 1/2-x,-y,1/2+z
3 1/2+x,1/2-y,-z
4 -x,1/2+y,1/2-z
_cell_length_a 8.9136(6)
_cell_length_b 11.2501(6)
_cell_length_c 13.0585(12)
_cell_angle_alpha 90
_cell_angle_beta 90
_cell_angle_gamma 90
_cell_formula_units_Z 4
loop_
_atom_type_symbol
_atom_type_radius_bond
C 0.68
H 0.23
N 0.68
O 0.68
loop_
_atom_site_label
_atom_site_type_symbol
_atom_site_fract_x
_atom_site_fract_y
_atom_site_fract_z
N1 N 0.2942(3) 0.44881(18) 0.0569(2)
C1 C 0.1879(3) 0.4069(2) 0.1164(2)
N2 N 0.0688(3) 0.47182(18) 0.15295(18)
C2 C -0.0587(4) 0.4131(3) 0.2033(3)
C3 C 0.0651(3) 0.5957(2) 0.1402(2)
O1 O -0.0350(2) 0.65428(18) 0.17899(18)
C4 C 0.1853(3) 0.6450(2) 0.0781(2)
N3 N 0.1884(3) 0.76300(19) 0.07436(19)
O2 O 0.2906(3) 0.81031(16) 0.01713(18)
C5 C 0.2927(3) 0.5647(2) 0.0315(2)
N4 N 0.3960(3) 0.6015(2) -0.0315(2)
N5 N 0.1952(3) 0.29198(18) 0.14207(18)
C6 C 0.3180(3) 0.2160(2) 0.1076(2)
C7 C 0.2514(3) 0.0959(2) 0.0798(2)
O3 O 0.3511(3) 0.02366(18) 0.0431(3)
O4 O 0.1211(2) 0.07316(18) 0.0913(2)
C8 C 0.4438(4) 0.2086(4) 0.1868(3)
C9 C 0.4071(6) 0.1479(7) 0.2819(4)
C10? C 0.4475(17) 0.3014(13) 0.2689(11)
C11 C 0.5920(6) 0.1769(9) 0.1466(6)
C12? C 0.5334(12) 0.3198(7) 0.1977(9)
H1 H -0.13440 0.47100 0.21890
H2 H -0.02520 0.37610 0.26550
H3 H -0.09960 0.35380 0.15850
H4 H 0.46130 0.55230 -0.05500
H5 H 0.39890 0.67500 -0.04960
H6 H 0.12570 0.26210 0.17990
H7 H 0.31410 -0.04690 0.04000
H8 H 0.35980 0.25090 0.04510
H9 H 0.45600 0.29160 0.20810
H10? H 0.49330 0.13220 0.19930
H11 H 0.32640 0.18880 0.31540
H12 H 0.49350 0.14720 0.32580
H13 H 0.37730 0.06770 0.26720
H14? H 0.47170 0.08030 0.29020
H15? H 0.30460 0.12200 0.27990
H16? H 0.42080 0.20140 0.33840
H17? H 0.48580 0.37430 0.24110
H18? H 0.51130 0.27530 0.32370
H19? H 0.34790 0.31410 0.29450
H20? H 0.41080 0.26810 0.33180
H21? H 0.38540 0.36720 0.24920
H22? H 0.54880 0.32830 0.27830
H23 H 0.61950 0.23160 0.09340
H24 H 0.58890 0.09770 0.11930
H25 H 0.66470 0.18050 0.20080
H26? H 0.62920 0.10830 0.18220
H27? H 0.65980 0.24220 0.15630
H28? H 0.58400 0.15930 0.07490
H29? H 0.53870 0.35950 0.13270
H30? H 0.63280 0.30040 0.22040
H31? H 0.48630 0.37100 0.24690
H32? H 0.56650 0.32770 0.26730
H33? H 0.47240 0.38690 0.17960
H34? H 0.61890 0.31620 0.15310
#END
