
#######################################################################
#
#                 Cambridge Crystallographic Data Centre
#                                CCDC
#
#######################################################################
#
# If this CIF has been generated from an entry in the Cambridge
# Structural Database, then it will include bibliographic, chemical,
# crystal, experimental, refinement or atomic coordinate data resulting
# from the CCDC's data processing and validation procedures.
#
#######################################################################

data_CSD_CIF_FUQLAE
_audit_creation_date 2000-12-15
_audit_creation_method CSD-ConQuest-V1
_database_code_CSD FUQLAE
_database_code_depnum_ccdc_archive 'CCDC 153340'
_chemical_formula_sum 'C9 H13 N5 O5'
_chemical_formula_moiety
;
C9 H13 N5 O5
;
_journal_coeditor_code "IUCr NA0105"
_journal_coden_Cambridge 622
_journal_volume 56
_journal_year 2000
_journal_page_first 882
_journal_name_full 'Acta Crystallogr.,Sect.B:Struct.Sci. '
loop_
_publ_author_name
"J.N.Low"
"M.D.Lopez"
"P.A.Mascaros"
"J.C.Domingo"
"M.L.Godino"
"R.L.Garzon"
"M.D.Gutierrez"
"M.Melguizo"
"G.Ferguson"
"C.Glidewell"
_chemical_name_systematic
;
N-(6-Amino-3,4-dihydro-3-methyl-5-nitroso-4-oxopyrimidin-2-yl)threonine
;
_chemical_melting_point 484
_cell_volume    581.867
_exptl_crystal_colour 'orange'
_exptl_crystal_density_diffrn 1.548
_exptl_special_details
;
Melts with decomposition.

;
_exptl_crystal_description 'block'
_diffrn_ambient_temperature 150.00
#These two values have been output from a single CSD field.
_refine_ls_R_factor_gt 0.0367
_refine_ls_wR_factor_gt 0.0367
_symmetry_cell_setting monoclinic
_symmetry_space_group_name_H-M 'P 21'
_symmetry_Int_Tables_number 4
loop_
_symmetry_equiv_pos_site_id
_symmetry_equiv_pos_as_xyz
1 x,y,z
2 -x,1/2+y,-z
_cell_length_a 8.3686(3)
_cell_length_b 6.7077(3)
_cell_length_c 11.1230(4)
_cell_angle_alpha 90
_cell_angle_beta 111.265(2)
_cell_angle_gamma 90
_cell_formula_units_Z 2
loop_
_atom_type_symbol
_atom_type_radius_bond
C 0.68
H 0.23
N 0.68
O 0.68
loop_
_atom_site_label
_atom_site_type_symbol
_atom_site_fract_x
_atom_site_fract_y
_atom_site_fract_z
N1 N 0.6322(2) 0.2314(3) 0.72246(17)
C1 C 0.7867(3) 0.1730(4) 0.7262(2)
N2 N 0.8231(2) 0.2000(3) 0.62015(17)
H1 H 0.92820 0.15970 0.61810
C2 C 0.7064(3) 0.3051(4) 0.5075(2)
H2 H 0.59530 0.31620 0.51790
C3 C 0.6783(3) 0.1891(4) 0.3833(2)
O1 O 0.5715(2) 0.2748(3) 0.28340(15)
H3 H 0.58190 0.22900 0.21830
O2 O 0.7525(2) 0.0298(3) 0.38294(16)
C4 C 0.7685(3) 0.5177(4) 0.4957(2)
H4 H 0.67640 0.58540 0.42670
C5 C 0.8059(3) 0.6389(5) 0.6184(2)
H5 H 0.90180 0.58170 0.68630
H6 H 0.70710 0.63790 0.64300
H7 H 0.83240 0.77370 0.60350
O3 O 0.9138(2) 0.5073(3) 0.45745(16)
H8 H 1.00190 0.51630 0.52130
N3 N 0.9085(2) 0.0856(3) 0.83134(18)
C6 C 1.0823(3) 0.0517(5) 0.8332(2)
H9 H 1.08080 -0.05640 0.77620
H10 H 1.15690 0.01890 0.91930
H11 H 1.12290 0.17030 0.80530
C7 C 0.8808(3) 0.0550(4) 0.9468(2)
O4 O 0.9893(2) -0.0234(3) 1.03834(15)
C8 C 0.7138(3) 0.1271(4) 0.9468(2)
N4 N 0.6985(3) 0.1210(4) 1.06032(19)
O5 O 0.5530(2) 0.1918(3) 1.06517(15)
C9 C 0.5934(3) 0.2126(4) 0.8280(2)
N5 N 0.4427(2) 0.2759(4) 0.82242(18)
H12 H 0.37270 0.32750 0.75230
H13 H 0.41380 0.26590 0.88890
#END
