
#######################################################################
#
#                 Cambridge Crystallographic Data Centre
#                                CCDC
#
#######################################################################
#
# If this CIF has been generated from an entry in the Cambridge
# Structural Database, then it will include bibliographic, chemical,
# crystal, experimental, refinement or atomic coordinate data resulting
# from the CCDC's data processing and validation procedures.
#
#######################################################################

data_CSD_CIF_FUQPOX
_audit_creation_date 2010-04-08
_audit_creation_method CSD-ConQuest-V1
_database_code_CSD FUQPOX
_database_code_depnum_ccdc_archive 'CCDC 740027'
_chemical_formula_sum 'C14 H19 N1 O3'
_chemical_formula_moiety
;
C14 H19 N1 O3
;
_journal_coden_Cambridge 4
_journal_volume 131
_journal_year 2009
_journal_page_first 5054
_journal_name_full 'J.Am.Chem.Soc. '
loop_
_publ_author_name
"E.Skucas"
"J.R.Zbieg"
"M.J.Krische"
_chemical_name_systematic
;
2-t-Butyl-1-(4-nitrophenyl)but-3-en-1-ol
;
_cell_volume   2806.300
_exptl_crystal_colour 'colorless'
_exptl_crystal_density_diffrn 1.18
_exptl_special_details
;
The space group is Pca21, not P21 as given in the supplementary data

;
_exptl_crystal_description 'laths'
_diffrn_ambient_temperature 153
#These two values have been output from a single CSD field.
_refine_ls_R_factor_gt 0.0895
_refine_ls_wR_factor_gt 0.0895
_symmetry_cell_setting orthorhombic
_symmetry_space_group_name_H-M 'P c a 21'
_symmetry_Int_Tables_number 29
loop_
_symmetry_equiv_pos_site_id
_symmetry_equiv_pos_as_xyz
1 x,y,z
2 -x,-y,1/2+z
3 1/2-x,y,1/2+z
4 1/2+x,-y,z
_cell_length_a 15.7991(12)
_cell_length_b 8.3868(9)
_cell_length_c 21.179(2)
_cell_angle_alpha 90
_cell_angle_beta 90
_cell_angle_gamma 90
_cell_formula_units_Z 8
loop_
_atom_type_symbol
_atom_type_radius_bond
C 0.68
H 0.23
N 0.68
O 0.68
loop_
_atom_site_label
_atom_site_type_symbol
_atom_site_fract_x
_atom_site_fract_y
_atom_site_fract_z
O1 O 0.3377(4) 0.6051(9) 0.4891(4)
O2 O 0.3363(4) 0.6171(8) 0.5903(4)
O3 O -0.0267(4) 0.1709(8) 0.4810(4)
H1 H -0.07150 0.22490 0.48180
N1 N 0.3072(5) 0.5724(8) 0.5399(5)
C1 C 0.1827(6) -0.0921(11) 0.5222(8)
H2 H 0.20440 -0.07680 0.56360
H3 H 0.21870 -0.13040 0.48970
C2 C 0.1040(6) -0.0609(11) 0.5102(5)
H4 H 0.08480 -0.07780 0.46820
C3 C 0.0405(5) 0.0000(9) 0.5572(5)
H5 H 0.07240 0.00640 0.59790
C4 C 0.0122(5) 0.1709(10) 0.5441(5)
H6 H -0.02950 0.20690 0.57670
C5 C 0.0889(5) 0.2853(9) 0.5417(5)
C6 C 0.1232(6) 0.3393(11) 0.5992(5)
H7 H 0.09810 0.30960 0.63820
C7 C 0.1933(5) 0.4353(10) 0.5981(5)
H8 H 0.21660 0.47450 0.63640
C8 C 0.2299(5) 0.4747(9) 0.5413(5)
C9 C 0.1961(5) 0.4229(10) 0.4854(4)
H9 H 0.22180 0.45190 0.44640
C10 C 0.1253(6) 0.3294(10) 0.4859(4)
H10 H 0.10120 0.29480 0.44710
C11 C -0.0326(6) -0.1184(12) 0.5705(6)
C12 C -0.0826(8) -0.1620(16) 0.5140(6)
H11 H -0.04580 -0.21520 0.48320
H12 H -0.10660 -0.06550 0.49500
H13 H -0.12850 -0.23430 0.52620
C13 C -0.0934(7) -0.0425(19) 0.6206(7)
H14 H -0.13550 -0.12160 0.63380
H15 H -0.12220 0.04980 0.60210
H16 H -0.06050 -0.00810 0.65740
C14 C 0.0031(8) -0.2587(16) 0.6024(8)
H17 H -0.04290 -0.32420 0.61940
H18 H 0.04000 -0.22390 0.63690
H19 H 0.03600 -0.32150 0.57200
O4 O 0.4043(5) 0.6017(8) 0.3460(4)
O5 O 0.4091(4) 0.6029(9) 0.2439(4)
O6 O 0.7689(4) 0.1775(8) 0.3707(3)
H20 H 0.80160 0.25630 0.37330
N2 N 0.4373(5) 0.5642(9) 0.2958(6)
C15 C 0.5632(6) -0.0971(11) 0.3281(6)
H21 H 0.54270 -0.09440 0.28590
H22 H 0.52680 -0.12890 0.36140
C16 C 0.6420(6) -0.0567(11) 0.3402(5)
H23 H 0.65840 -0.06200 0.38330
C17 C 0.7064(5) -0.0056(9) 0.2969(5)
H24 H 0.67790 -0.00450 0.25480
C18 C 0.7327(5) 0.1716(10) 0.3086(4)
H25 H 0.77580 0.20490 0.27660
C19 C 0.6559(5) 0.2798(9) 0.3045(5)
C20 C 0.6136(6) 0.3275(10) 0.3585(5)
H26 H 0.63410 0.29260 0.39840
C21 C 0.5440(6) 0.4219(10) 0.3570(5)
H27 H 0.51670 0.45610 0.39460
C22 C 0.5142(5) 0.4667(10) 0.2971(5)
C23 C 0.5519(6) 0.4246(11) 0.2422(5)
H28 H 0.53010 0.45670 0.20240
C24 C 0.6247(5) 0.3314(9) 0.2475(5)
H29 H 0.65390 0.30230 0.21000
C25 C 0.7828(5) -0.1227(11) 0.2885(6)
C26 C 0.7475(7) -0.2788(10) 0.2611(6)
H30 H 0.79370 -0.35570 0.25590
H31 H 0.72130 -0.25770 0.22000
H32 H 0.70510 -0.32280 0.29000
C27 C 0.8294(8) -0.1497(18) 0.3501(6)
H33 H 0.79100 -0.19890 0.38080
H34 H 0.84950 -0.04730 0.36660
H35 H 0.87780 -0.22030 0.34280
C28 C 0.8448(7) -0.0599(17) 0.2399(6)
H36 H 0.88820 -0.14080 0.23160
H37 H 0.87180 0.03710 0.25600
H38 H 0.81460 -0.03550 0.20070
#END
