
#######################################################################
#
#                 Cambridge Crystallographic Data Centre
#                                CCDC
#
#######################################################################
#
# If this CIF has been generated from an entry in the Cambridge
# Structural Database, then it will include bibliographic, chemical,
# crystal, experimental, refinement or atomic coordinate data resulting
# from the CCDC's data processing and validation procedures.
#
#######################################################################

data_CSD_CIF_FURBUR
_audit_creation_date 2015-09-10
_audit_creation_method CSD-ConQuest-V1
_database_code_CSD FURBUR
_database_code_depnum_ccdc_archive 'CCDC 1042003'
_chemical_formula_sum 'C23 H20 N4 O8'
_chemical_formula_moiety
;
C23 H20 N4 O8
;
_journal_coden_Cambridge 1200
_journal_volume 23
_journal_year 2015
_journal_page_first 6740
_journal_name_full 'Bioorg.Med.Chem. '
loop_
_publ_author_name
"A.Barakat"
"M.S.Islam"
"A.M.Al-Majid"
"H.A.Ghabbour"
"Hoong-Kun Fun"
"K.Javed"
"R.Imad"
"S.Yousuf"
"M.Iqbal Choudhary"
"A.Wadood"
_chemical_name_systematic
;
2,4-dimethyl-7,11-bis(3-nitrophenyl)-2,4-diazaspiro[5.5]undecane-1,3,5,9-tetro
ne
;
_cell_volume   2171.721
_exptl_crystal_colour 'light yellow'
_exptl_crystal_density_diffrn 1.469
_exptl_crystal_description 'slab'
_diffrn_ambient_temperature 100
_refine_special_details
;
The structure is disordered.

;
#These two values have been output from a single CSD field.
_refine_ls_R_factor_gt 0.0742
_refine_ls_wR_factor_gt 0.0742
_symmetry_cell_setting monoclinic
_symmetry_space_group_name_H-M 'P 21/c'
_symmetry_Int_Tables_number 14
loop_
_symmetry_equiv_pos_site_id
_symmetry_equiv_pos_as_xyz
1 x,y,z
2 -x,1/2+y,1/2-z
3 -x,-y,-z
4 x,-1/2-y,-1/2+z
_cell_length_a 16.2647(12)
_cell_length_b 12.2743(8)
_cell_length_c 10.9288(8)
_cell_angle_alpha 90
_cell_angle_beta 95.510(2)
_cell_angle_gamma 90
_cell_formula_units_Z 4
loop_
_atom_type_symbol
_atom_type_radius_bond
C 0.68
H 0.23
N 0.68
O 0.68
loop_
_atom_site_label
_atom_site_type_symbol
_atom_site_fract_x
_atom_site_fract_y
_atom_site_fract_z
O1 O 0.03932(18) 0.6854(4) 0.4362(3)
O2 O 0.28555(15) 0.67222(17) 0.8352(2)
O3 O 0.3478(4) 0.3181(4) 0.8956(4)
O4 O 0.21117(15) 0.4085(2) 0.53005(18)
O5 O 0.41317(18) 0.4762(3) 0.2562(3)
O6 O 0.5345(2) 0.5483(4) 0.2823(5)
O7 O 0.1053(3) 0.4595(4) 1.2414(3)
O8 O 0.1368(3) 0.6167(3) 1.1671(3)
N1 N 0.3178(3) 0.4962(3) 0.8628(3)
N2 N 0.2816(4) 0.3640(3) 0.7111(4)
N3 N 0.4643(2) 0.5365(4) 0.3123(4)
N4 N 0.1160(5) 0.5203(5) 1.1552(4)
C1 C 0.24424(15) 0.6404(2) 0.5803(2)
H1 H 0.23560 0.71080 0.61960
C2 C 0.18192(15) 0.6371(2) 0.4659(2)
H2 H 0.18990 0.70100 0.41610
H3 H 0.19310 0.57340 0.41750
C3 C 0.09364(16) 0.6335(3) 0.4938(3)
C4 C 0.07427(16) 0.5582(2) 0.5960(3)
H4 H 0.07430 0.48360 0.56660
H5 H 0.01930 0.57420 0.61850
C5 C 0.13591(16) 0.5685(3) 0.7095(2)
H6 H 0.13190 0.64390 0.73800
C6 C 0.22842(17) 0.5524(3) 0.6782(3)
C7 C 0.2815(2) 0.5800(3) 0.7969(4)
C8 C 0.3181(4) 0.3880(4) 0.8269(4)
C9 C 0.24013(19) 0.4366(4) 0.6321(2)
C10 C 0.33303(18) 0.6424(3) 0.5468(3)
C11 C 0.3906(2) 0.7090(3) 0.6136(3)
H7 H 0.37490 0.74800 0.68040
C12 C 0.4705(3) 0.7180(3) 0.5824(4)
H8 H 0.50780 0.76250 0.62890
C13 C 0.4956(3) 0.6626(4) 0.4841(5)
H9 H 0.54930 0.66900 0.46240
C14 C 0.4388(2) 0.5971(4) 0.4186(4)
C15 C 0.35806(17) 0.5844(3) 0.4484(3)
H10 H 0.32170 0.53780 0.40310
C16 C 0.11579(18) 0.4969(3) 0.8153(3)
C17 C 0.0939(2) 0.3879(4) 0.7992(3)
H11 H 0.08850 0.35840 0.72040
C18 C 0.0801(3) 0.3219(4) 0.8992(4)
H12 H 0.06580 0.24910 0.88690
C19 C 0.0877(5) 0.3651(4) 1.0170(4)
H13 H 0.07870 0.32220 1.08470
C20 C 0.1085(3) 0.4720(4) 1.0306(5)
C21 C 0.1223(2) 0.5397(3) 0.9333(4)
H14 H 0.13580 0.61270 0.94690
C22 C 0.3631(3) 0.5240(5) 0.9809(4)
H15 H 0.38670 0.45910 1.01870
H16 H 0.32600 0.55640 1.03360
H17 H 0.40630 0.57470 0.96780
C23 C 0.2873(3) 0.2487(3) 0.6726(4)
H18 H 0.34220 0.22220 0.69520
H19 H 0.27500 0.24350 0.58510
H20 H 0.24850 0.20570 0.71260
O9? O 0.0416(15) 0.688(3) 0.445(2)
O10? O 0.2550(7) 0.6641(8) 0.7876(11)
O11? O 0.3631(16) 0.335(2) 0.897(2)
O12? O 0.2144(7) 0.3535(11) 0.531(1)
O13? O 0.4252(9) 0.4388(12) 0.2385(14)
O14? O 0.5334(16) 0.537(3) 0.261(3)
O15? O 0.0942(15) 0.4858(16) 1.2258(17)
O16? O 0.1244(9) 0.6321(11) 1.1255(13)
N5? N 0.3131(18) 0.5036(15) 0.842(2)
N6? N 0.287(2) 0.3449(15) 0.717(2)
N7? N 0.4647(14) 0.5116(19) 0.289(2)
N8? N 0.1139(18) 0.5319(13) 1.1335(14)
C24? C 0.2305(6) 0.5841(9) 0.5326(10)
H21? H 0.20780 0.53910 0.46330
C25? C 0.1827(6) 0.6916(10) 0.5198(12)
H22? H 0.20570 0.74220 0.58220
H23? H 0.18910 0.72330 0.44000
C26? C 0.0920(7) 0.6752(11) 0.5334(11)
C27? C 0.0796(7) 0.6227(9) 0.6572(10)
H24? H 0.02090 0.61390 0.66410
H25? H 0.10180 0.67040 0.72300
C28? C 0.1222(6) 0.5113(9) 0.6714(10)
H26? H 0.09540 0.46380 0.60740
C29? C 0.2184(7) 0.5154(10) 0.6512(10)
C30? C 0.2611(9) 0.5688(10) 0.7661(13)
C31? C 0.318(3) 0.3913(17) 0.829(3)
C32? C 0.2424(13) 0.3991(13) 0.6253(15)
C33? C 0.3227(7) 0.6002(12) 0.5134(12)
C34? C 0.369(1) 0.6793(15) 0.5771(16)
H27? H 0.34570 0.71990 0.63680
C35? C 0.4497(11) 0.6992(19) 0.5534(19)
H28? H 0.48260 0.74640 0.60320
C36? C 0.4808(12) 0.6484(18) 0.4553(18)
H29? H 0.53220 0.66810 0.43190
C37? C 0.4354(9) 0.5685(14) 0.3922(16)
C38? C 0.3552(9) 0.5469(14) 0.4191(15)
H30? H 0.32340 0.49590 0.37270
C39? C 0.1106(8) 0.4578(10) 0.7960(8)
C40? C 0.1047(9) 0.3452(10) 0.8045(10)
H31? H 0.10500 0.30250 0.73420
C41? C 0.0983(14) 0.2963(9) 0.9179(14)
H32? H 0.09430 0.22090 0.92350
C42? C 0.0978(18) 0.3601(14) 1.0229(10)
H33? H 0.09350 0.32750 1.09880
C43? C 0.1037(16) 0.4728(13) 1.0144(9)
C44? C 0.1101(10) 0.5217(9) 0.9010(11)
H34? H 0.11410 0.59710 0.89540
C45? C 0.354(2) 0.553(2) 0.955(2)
H35? H 0.41270 0.55040 0.95270
H36? H 0.33930 0.51240 1.02530
H37? H 0.33630 0.62690 0.96150
C46? C 0.2997(19) 0.2254(16) 0.709(2)
H38? H 0.35550 0.21080 0.69150
H39? H 0.26210 0.19620 0.64380
H40? H 0.28970 0.19190 0.78520
#END
