
#######################################################################
#
#                 Cambridge Crystallographic Data Centre
#                                CCDC
#
#######################################################################
#
# If this CIF has been generated from an entry in the Cambridge
# Structural Database, then it will include bibliographic, chemical,
# crystal, experimental, refinement or atomic coordinate data resulting
# from the CCDC's data processing and validation procedures.
#
#######################################################################

data_CSD_CIF_FURDOX10
_audit_creation_date 1971-12-31
_audit_creation_method CSD-ConQuest-V1
_database_code_CSD FURDOX10
_database_code_depnum_ccdc_archive 'CCDC 1161475'
_chemical_formula_sum 'C5 H5 N1 O2'
_chemical_formula_moiety
;
C5 H5 N1 O2
;
_journal_coden_Cambridge 3
_journal_volume 21
_journal_year 1967
_journal_page_first 730
_journal_name_full 'Acta Chem.Scand. '
loop_
_publ_author_name
"B.Jensen"
"B.Jerslev"
_chemical_name_systematic
;
anti-Furfuraldoxime
;
_chemical_melting_point 363.15
_cell_volume    536.891
_exptl_crystal_density_diffrn 1.37
_exptl_special_details
;
Melting point range 363.15-364.15K

;
_diffrn_ambient_temperature ?
_diffrn_special_details
;
The study was carried out at room temperature,in the range 283-303K

;
#These two values have been output from a single CSD field.
_refine_ls_R_factor_gt 0.137
_refine_ls_wR_factor_gt 0.137
_symmetry_cell_setting monoclinic
_symmetry_space_group_name_H-M 'P 21/c'
_symmetry_Int_Tables_number 14
loop_
_symmetry_equiv_pos_site_id
_symmetry_equiv_pos_as_xyz
1 x,y,z
2 -x,1/2+y,1/2-z
3 -x,-y,-z
4 x,-1/2-y,-1/2+z
_cell_length_a 9.74
_cell_length_b 4.96
_cell_length_c 14.26
_cell_angle_alpha 90
_cell_angle_beta 128.8
_cell_angle_gamma 90
_cell_formula_units_Z 4
loop_
_atom_type_symbol
_atom_type_radius_bond
C 0.68
H 0.20
N 0.68
O 0.68
loop_
_atom_site_label
_atom_site_type_symbol
_atom_site_fract_x
_atom_site_fract_y
_atom_site_fract_z
C1 C 0.32820 0.35590 0.02230
C2 C 0.39510 0.58150 0.08950
C3 C 0.32410 0.60010 0.15190
C4 C 0.21970 0.37860 0.11830
C5 C 0.10770 0.26720 0.14190
H1 H 0.47500 0.75000 0.10000
H2 H 0.35000 0.76000 0.20500
H3 H 0.05000 0.10000 0.10000
N1 N 0.06720 0.37560 0.20510
O1 O 0.21920 0.22260 0.03720
O2 O 0.14960 0.62100 0.25480
#END
