
#######################################################################
#
#                 Cambridge Crystallographic Data Centre
#                                CCDC
#
#######################################################################
#
# If this CIF has been generated from an entry in the Cambridge
# Structural Database, then it will include bibliographic, chemical,
# crystal, experimental, refinement or atomic coordinate data resulting
# from the CCDC's data processing and validation procedures.
#
#######################################################################

data_CSD_CIF_FUSJIN
_audit_creation_date 2010-04-08
_audit_creation_method CSD-ConQuest-V1
_database_code_CSD FUSJIN
_database_code_depnum_ccdc_archive 'CCDC 752650'
_chemical_formula_sum 'C8 H1 N5 O5'
_chemical_formula_moiety
;
C8 H1 N5 O5
;
_journal_coden_Cambridge 95
_journal_year 2009
_journal_page_first 418
_journal_name_full 'Izv.Akad.Nauk SSSR,Ser.Khim.(Russ.)(Russ.Chem.Bull.) '
loop_
_publ_author_name
"M.A.Bastrakov"
"A.M.Starosotnikov"
"I.V.Glukhov"
"S.A.Shevelev"
_chemical_name_systematic
;
5-Nitro-1,3-dihydro(1,2)oxazolo(5,4-e)(2,1,3)benzoxadiazole-6-carbonitrile 
3-oxide
;
_chemical_melting_point 415.15
_cell_volume   1827.931
_exptl_crystal_colour 'light brown'
_exptl_crystal_density_diffrn 1.796
_exptl_special_details
;
Melting point range 415.15-418.15K

;
_exptl_crystal_description 'cube'
_diffrn_ambient_temperature 120
_refine_special_details
;
One molecule is disordered over two sites with occupancies 0.70:0.30.

;
#These two values have been output from a single CSD field.
_refine_ls_R_factor_gt 0.0529
_refine_ls_wR_factor_gt 0.0529
_symmetry_cell_setting monoclinic
_symmetry_space_group_name_H-M 'P 21/c'
_symmetry_Int_Tables_number 14
loop_
_symmetry_equiv_pos_site_id
_symmetry_equiv_pos_as_xyz
1 x,y,z
2 -x,1/2+y,1/2-z
3 -x,-y,-z
4 x,-1/2-y,-1/2+z
_cell_length_a 13.714(3)
_cell_length_b 10.788(2)
_cell_length_c 12.646(3)
_cell_angle_alpha 90
_cell_angle_beta 102.308(4)
_cell_angle_gamma 90
_cell_formula_units_Z 8
loop_
_atom_type_symbol
_atom_type_radius_bond
C 0.68
H 0.23
N 0.68
O 0.68
loop_
_atom_site_label
_atom_site_type_symbol
_atom_site_fract_x
_atom_site_fract_y
_atom_site_fract_z
C1 C 0.90234(16) 0.7300(2) 0.27096(18)
N1 N 0.93122(15) 0.77607(19) 0.37041(16)
O1 O 0.99470(12) 0.68810(16) 0.42698(13)
C2 C 0.94493(16) 0.6144(2) 0.25872(18)
O2 O 1.05250(13) 0.49585(17) 0.39158(14)
N2 N 1.00238(14) 0.58437(18) 0.35509(15)
O3 O 0.88562(14) 0.42843(16) -0.03138(14)
N3 N 0.83606(15) 0.52045(19) -0.02228(16)
C3 C 0.92678(16) 0.5451(2) 0.16236(18)
H1 H 0.95810 0.46730 0.15800
C4 C 0.81674(15) 0.7142(2) 0.08145(18)
C5 C 0.86298(16) 0.5940(2) 0.07619(17)
O4 O 0.76306(13) 0.55553(17) -0.08935(14)
N4 N 0.66903(16) 0.7970(2) -0.19083(18)
C6 C 0.75120(17) 0.7977(2) 0.01244(19)
N5 N 0.73351(15) 0.8984(2) 0.06436(16)
O5 O 0.78678(12) 0.88541(15) 0.17035(13)
C7 C 0.83642(16) 0.7773(2) 0.17813(18)
C8 C 0.70500(18) 0.7934(2) -0.1008(2)
C9 C 0.2914(7) 0.6810(9) 0.2274(8)
N6 N 0.2235(3) 0.6782(4) 0.2915(3)
O6 O 0.1597(6) 0.7787(11) 0.2467(11)
C10 C 0.2802(5) 0.7759(8) 0.1516(6)
N7 N 0.1986(3) 0.8406(6) 0.1646(5)
O7 O 0.1572(3) 0.9275(4) 0.1276(3)
N8 N 0.4881(4) 0.7428(4) 0.0117(3)
O8 O 0.4744(3) 0.8317(4) -0.0464(3)
C11 C 0.3431(5) 0.7984(5) 0.0787(5)
H2 H 0.33250 0.86510 0.02850
N9 N 0.6678(10) 0.4506(11) 0.1302(10)
O9 O 0.5557(2) 0.6664(3) 0.0152(3)
C12 C 0.4204(6) 0.7171(11) 0.0859(10)
C13 C 0.4406(14) 0.6180(13) 0.1625(10)
C14 C 0.5092(2) 0.5228(3) 0.1906(3)
N10 N 0.4864(8) 0.4525(8) 0.2673(7)
O10 O 0.4014(3) 0.5013(3) 0.2930(2)
C15 C 0.3739(6) 0.6013(11) 0.2305(10)
C16 C 0.5964(3) 0.4859(4) 0.1538(3)
C17? C 0.3039(14) 0.7812(15) 0.1106(14)
C18? C 0.2770(16) 0.7275(16) 0.202(2)
C19? C 0.3310(12) 0.6287(14) 0.2671(11)
C20? C 0.441(3) 0.645(2) 0.139(3)
C21? C 0.4116(13) 0.590(2) 0.231(2)
C22? C 0.5245(6) 0.6264(8) 0.0853(7)
C23? C 0.3912(15) 0.7403(18) 0.0843(19)
C24? C 0.6084(8) 0.5442(11) 0.0984(9)
H3? H 0.31170 0.59460 0.32880
N11? N 0.2340(7) 0.8627(8) 0.0741(7)
N12? N 0.1913(14) 0.762(2) 0.235(3)
N13? N 0.472(2) 0.482(2) 0.2927(16)
N14? N 0.674(3) 0.478(3) 0.104(2)
N15? N 0.5193(12) 0.7036(15) 0.0069(13)
O11? O 0.1631(11) 0.8564(18) 0.1408(15)
O12? O 0.1448(9) 0.7575(14) 0.2882(9)
O13? O 0.4577(7) 0.4534(8) 0.3763(7)
O14? O 0.5249(5) 0.4274(7) 0.2391(6)
O15? O 0.4274(7) 0.7734(8) 0.0026(6)
#END
