
#######################################################################
#
#                 Cambridge Crystallographic Data Centre
#                                CCDC
#
#######################################################################
#
# If this CIF has been generated from an entry in the Cambridge
# Structural Database, then it will include bibliographic, chemical,
# crystal, experimental, refinement or atomic coordinate data resulting
# from the CCDC's data processing and validation procedures.
#
#######################################################################

data_CSD_CIF_FUSJEJ
_audit_creation_date 2010-04-08
_audit_creation_method CSD-ConQuest-V1
_database_code_CSD FUSJEJ
_database_code_depnum_ccdc_archive 'CCDC 752649'
_chemical_formula_sum 'C15 H10 N4 O4'
_chemical_formula_moiety
;
C15 H10 N4 O4
;
_journal_coden_Cambridge 95
_journal_year 2009
_journal_page_first 407
_journal_name_full 'Izv.Akad.Nauk SSSR,Ser.Khim.(Russ.)(Russ.Chem.Bull.) '
loop_
_publ_author_name
"M.A.Bastrakov"
"A.M.Starosotnikov"
"V.V.Kachala"
"I.V.Glukhov"
"S.A.Shevelev"
_chemical_name_systematic
;
8-Methyl-5-nitro-7-phenyl-3,8-dihydro-1H-(1,2,5)oxadiazolo(3,4-g)indole 
3-oxide
;
_cell_volume   1336.810
_exptl_crystal_colour 'orange'
_exptl_crystal_density_diffrn 1.542
_exptl_crystal_description 'plate'
_diffrn_ambient_temperature 120
#These two values have been output from a single CSD field.
_refine_ls_R_factor_gt 0.0432
_refine_ls_wR_factor_gt 0.0432
_symmetry_cell_setting orthorhombic
_symmetry_space_group_name_H-M 'P 21 21 21'
_symmetry_Int_Tables_number 19
loop_
_symmetry_equiv_pos_site_id
_symmetry_equiv_pos_as_xyz
1 x,y,z
2 1/2-x,-y,1/2+z
3 -x,1/2+y,1/2-z
4 1/2+x,1/2-y,-z
_cell_length_a 6.742(2)
_cell_length_b 9.446(3)
_cell_length_c 20.991(7)
_cell_angle_alpha 90
_cell_angle_beta 90
_cell_angle_gamma 90
_cell_formula_units_Z 4
loop_
_atom_type_symbol
_atom_type_radius_bond
C 0.68
H 0.23
N 0.68
O 0.68
loop_
_atom_site_label
_atom_site_type_symbol
_atom_site_fract_x
_atom_site_fract_y
_atom_site_fract_z
C1 C 0.2674(5) 1.1825(3) 0.74515(14)
N1 N 0.2863(4) 1.3018(3) 0.71216(12)
O1 O 0.3011(4) 1.4084(2) 0.75786(10)
N2 N 0.2906(4) 1.3449(3) 0.82024(12)
C2 C 0.2691(5) 1.2065(3) 0.81167(14)
C3 C 0.2522(5) 1.0994(3) 0.85886(14)
H1 H 0.25670 1.12020 0.90310
C4 C 0.2294(5) 0.9663(3) 0.83669(14)
C5 C 0.2212(5) 0.9324(3) 0.77009(13)
C6 C 0.2028(5) 0.8050(3) 0.73440(14)
H2 H 0.18800 0.71240 0.75130
C7 C 0.2105(5) 0.8406(3) 0.67078(14)
N3 N 0.2356(4) 0.9859(2) 0.66565(11)
C8 C 0.2409(5) 1.0404(3) 0.72530(14)
O2 O 0.3009(4) 1.4238(2) 0.86686(10)
O3 O 0.2533(4) 0.8815(2) 0.93974(10)
N4 N 0.2147(4) 0.8526(3) 0.88426(13)
O4 O 0.1634(4) 0.7359(2) 0.86628(11)
C9 C 0.1950(5) 0.7444(3) 0.61648(14)
C10 C 0.2698(5) 0.6068(3) 0.62290(14)
H3 H 0.33140 0.58000 0.66180
C11 C 0.2564(6) 0.5098(3) 0.57434(14)
H4 H 0.30710 0.41680 0.57990
C12 C 0.1685(6) 0.5480(3) 0.51723(15)
H5 H 0.16220 0.48230 0.48300
C13 C 0.0900(5) 0.6825(3) 0.51041(15)
H6 H 0.02840 0.70850 0.47140
C14 C 0.0999(5) 0.7795(3) 0.55965(15)
H7 H 0.04170 0.87050 0.55470
C15 C 0.2716(6) 1.0688(3) 0.60813(14)
H8 H 0.37720 1.13780 0.61630
H9 H 0.14990 1.11870 0.59600
H10 H 0.31200 1.00550 0.57350
#END
