
#######################################################################
#
#                 Cambridge Crystallographic Data Centre
#                                CCDC
#
#######################################################################
#
# If this CIF has been generated from an entry in the Cambridge
# Structural Database, then it will include bibliographic, chemical,
# crystal, experimental, refinement or atomic coordinate data resulting
# from the CCDC's data processing and validation procedures.
#
#######################################################################

data_CSD_CIF_FUSJAF
_audit_creation_date 2010-04-08
_audit_creation_method CSD-ConQuest-V1
_database_code_CSD FUSJAF
_database_code_depnum_ccdc_archive 'CCDC 752648'
_chemical_formula_sum 'C13 H7 N5 O4'
_chemical_formula_moiety
;
C13 H7 N5 O4
;
_journal_coden_Cambridge 95
_journal_year 2009
_journal_page_first 407
_journal_name_full 'Izv.Akad.Nauk SSSR,Ser.Khim.(Russ.)(Russ.Chem.Bull.) '
loop_
_publ_author_name
"M.A.Bastrakov"
"A.M.Starosotnikov"
"V.V.Kachala"
"I.V.Glukhov"
"S.A.Shevelev"
_chemical_name_systematic
;
5-Nitro-8-phenyl-3,8-dihydro-1H-(1,2,5)oxadiazolo(3,4-g)indazole 3-oxide
;
_chemical_melting_point 423.15
_cell_volume   1160.320
_exptl_crystal_colour 'yellow'
_exptl_crystal_density_diffrn 1.702
_exptl_special_details
;
Melting point range 423.15-427.15K

;
_exptl_crystal_description 'prism'
_diffrn_ambient_temperature 120
#These two values have been output from a single CSD field.
_refine_ls_R_factor_gt 0.0433
_refine_ls_wR_factor_gt 0.0433
_symmetry_cell_setting monoclinic
_symmetry_space_group_name_H-M 'P 21/n'
_symmetry_Int_Tables_number 14
loop_
_symmetry_equiv_pos_site_id
_symmetry_equiv_pos_as_xyz
1 x,y,z
2 1/2-x,1/2+y,1/2-z
3 -x,-y,-z
4 -1/2+x,-1/2-y,-1/2+z
_cell_length_a 9.3767(13)
_cell_length_b 5.9773(9)
_cell_length_c 20.729(3)
_cell_angle_alpha 90
_cell_angle_beta 92.898(3)
_cell_angle_gamma 90
_cell_formula_units_Z 4
loop_
_atom_type_symbol
_atom_type_radius_bond
C 0.68
H 0.23
N 0.68
O 0.68
loop_
_atom_site_label
_atom_site_type_symbol
_atom_site_fract_x
_atom_site_fract_y
_atom_site_fract_z
C1 C 0.18613(18) 0.7890(3) 0.12208(9)
N1 N 0.28523(16) 0.6339(3) 0.11636(7)
O1 O 0.27271(13) 0.4888(2) 0.16839(6)
N2 N 0.15784(15) 0.5657(3) 0.20611(7)
O2 O 0.12897(13) 0.4566(2) 0.25429(6)
C2 C 0.10625(19) 0.7509(3) 0.17754(9)
C3 C -0.00326(18) 0.8888(3) 0.20000(9)
H1 H -0.05390 0.85360 0.23720
C4 C -0.03016(18) 1.0742(3) 0.16440(9)
C5 C 0.04056(18) 1.1235(3) 0.10659(8)
C6 C 0.02494(19) 1.2919(3) 0.05920(9)
H2 H -0.03940 1.41420 0.06130
N3 N 0.11088(16) 1.2586(3) 0.01149(7)
N4 N 0.18614(15) 1.0681(2) 0.02606(7)
C7 C 0.14603(18) 0.9807(3) 0.08391(8)
N5 N -0.13824(16) 1.2325(3) 0.18699(8)
O3 O -0.20610(14) 1.1764(2) 0.23330(6)
O4 O -0.15320(14) 1.4099(2) 0.15794(6)
C8 C 0.28410(18) 0.9951(3) -0.02101(8)
C9 C 0.31342(19) 1.1415(3) -0.07049(9)
H3 H 0.27000 1.28510 -0.07250
C10 C 0.40592(19) 1.0779(3) -0.11691(9)
H4 H 0.42590 1.17810 -0.15090
C11 C 0.4696(2) 0.8691(3) -0.11425(9)
H5 H 0.53410 0.82640 -0.14590
C12 C 0.43865(19) 0.7236(3) -0.06533(9)
H6 H 0.48210 0.58000 -0.06350
C13 C 0.3447(2) 0.7844(3) -0.01879(9)
H7 H 0.32230 0.68220 0.01430
#END
