
#######################################################################
#
#                 Cambridge Crystallographic Data Centre
#                                CCDC
#
#######################################################################
#
# If this CIF has been generated from an entry in the Cambridge
# Structural Database, then it will include bibliographic, chemical,
# crystal, experimental, refinement or atomic coordinate data resulting
# from the CCDC's data processing and validation procedures.
#
#######################################################################

data_CSD_CIF_FUSJOS
_audit_creation_date 1988-09-21
_audit_creation_method CSD-ConQuest-V1
_database_code_CSD FUSJOS
_database_code_depnum_ccdc_archive 'CCDC 1161613'
_chemical_formula_sum 'C14 H14 N2 O2'
_chemical_formula_moiety
;
C14 H14 N2 O2
;
_journal_coden_Cambridge 7
_journal_volume 60
_journal_year 1987
_journal_page_first 3814
_journal_name_full 'Bull.Chem.Soc.Jpn. '
loop_
_publ_author_name
"J.Yamamoto"
"T.Tsuboi"
"Y.Sumi"
"N.Oda"
"K.Fukuyama"
_chemical_name_systematic
;
4-Methoxy-4'-methylazoxybenzene-N'-oxide
;
_chemical_melting_point 383.65
_cell_volume   1221.592
_exptl_crystal_density_diffrn 1.32
_exptl_special_details
;
Melting point range 383.65-384.15K

;
_diffrn_ambient_temperature ?
_diffrn_special_details
;
The study was carried out at room temperature,in the range 283-303K

;
#These two values have been output from a single CSD field.
_refine_ls_R_factor_gt 0.083
_refine_ls_wR_factor_gt 0.083
_symmetry_cell_setting monoclinic
_symmetry_space_group_name_H-M 'C 2'
_symmetry_Int_Tables_number 5
loop_
_symmetry_equiv_pos_site_id
_symmetry_equiv_pos_as_xyz
1 x,y,z
2 1/2+x,1/2+y,z
3 -x,y,-z
4 1/2-x,1/2+y,-z
_cell_length_a 25.485(7)
_cell_length_b 3.986(3)
_cell_length_c 13.428(5)
_cell_angle_alpha 90
_cell_angle_beta 116.42(5)
_cell_angle_gamma 90
_cell_formula_units_Z 4
loop_
_atom_type_symbol
_atom_type_radius_bond
C 0.68
N 0.68
O 0.68
loop_
_atom_site_label
_atom_site_type_symbol
_atom_site_fract_x
_atom_site_fract_y
_atom_site_fract_z
C1 C 0.1655(4) 0.0104(31) 0.2794(7)
C2 C 0.1083(4) 0.1102(29) 0.2273(6)
C3 C 0.0709(4) 0.0563(30) 0.2778(7)
C4 C 0.0924(4) -0.0963(29) 0.3816(7)
C5 C 0.1511(4) -0.1950(29) 0.4326(7)
C6 C 0.1879(4) -0.1408(31) 0.3826(7)
C7 C 0.2948(4) 0.0000(29) 0.2299(6)
C8 C 0.3480(4) -0.1419(31) 0.2984(7)
C9 C 0.3949(4) -0.1292(32) 0.2718(7)
C10 C 0.3876(4) 0.0319(29) 0.1742(7)
C11 C 0.3339(4) 0.1754(29) 0.1051(7)
C12 C 0.2873(4) 0.1552(27) 0.1320(7)
C13 C 0.0512(4) -0.1609(34) 0.4356(8)
C14 C 0.4310(4) 0.2096(40) 0.0564(7)
N1 N 0.2024(3) 0.0607(24) 0.2242(5)
N2 N 0.2548(3) -0.0402(25) 0.2756(5)
O1 O 0.1790(3) 0.2105(26) 0.1308(5)
O2 O 0.4354(3) 0.0413(22) 0.1549(5)
#END
