
#######################################################################
#
#                 Cambridge Crystallographic Data Centre
#                                CCDC
#
#######################################################################
#
# If this CIF has been generated from an entry in the Cambridge
# Structural Database, then it will include bibliographic, chemical,
# crystal, experimental, refinement or atomic coordinate data resulting
# from the CCDC's data processing and validation procedures.
#
#######################################################################

data_CSD_CIF_FUVHIO
_audit_creation_date 2010-09-20
_audit_creation_method CSD-ConQuest-V1
_database_code_CSD FUVHIO
_database_code_depnum_ccdc_archive 'CCDC 770844'
_chemical_formula_sum 'C18 H22 N2 O6'
_chemical_formula_moiety
;
C18 H22 N2 O6
;
_journal_coden_Cambridge 35
_journal_volume 74
_journal_year 2009
_journal_page_first 7873
_journal_name_full 'J.Org.Chem. '
loop_
_publ_author_name
"Chuan-Cheng Liao"
"Jian-Liang Zhu"
_chemical_name_systematic
;
(1,3,4,6-Tetramethylcyclohex-3-en-1-yl)methyl 3,5-dinitrobenzoate
;
_cell_volume   1804.910
_exptl_crystal_colour 'colorless'
_exptl_crystal_density_diffrn 1.334
_exptl_crystal_description 'parallelepiped'
_diffrn_ambient_temperature 297
#These two values have been output from a single CSD field.
_refine_ls_R_factor_gt 0.0564
_refine_ls_wR_factor_gt 0.0564
_symmetry_cell_setting monoclinic
_symmetry_space_group_name_H-M 'P 21/c'
_symmetry_Int_Tables_number 14
loop_
_symmetry_equiv_pos_site_id
_symmetry_equiv_pos_as_xyz
1 x,y,z
2 -x,1/2+y,1/2-z
3 -x,-y,-z
4 x,-1/2-y,-1/2+z
_cell_length_a 15.063(4)
_cell_length_b 16.800(4)
_cell_length_c 7.1328(18)
_cell_angle_alpha 90
_cell_angle_beta 90.619(5)
_cell_angle_gamma 90
_cell_formula_units_Z 4
loop_
_atom_type_symbol
_atom_type_radius_bond
C 0.68
H 0.23
N 0.68
O 0.68
loop_
_atom_site_label
_atom_site_type_symbol
_atom_site_fract_x
_atom_site_fract_y
_atom_site_fract_z
O1 O 0.69339(10) 0.75840(9) 0.0306(2)
O2 O 0.59665(12) 0.82929(10) 0.1731(3)
O3 O 0.33770(14) 0.70329(16) 0.4303(4)
O4 O 0.32513(11) 0.57616(15) 0.4173(3)
O5 O 0.57273(10) 0.41018(10) 0.1977(3)
O6 O 0.69791(8) 0.47444(8) 0.1292(2)
N1 N 0.62661(11) 0.76560(11) 0.1239(3)
N2 N 0.36514(13) 0.63780(18) 0.3897(3)
C1 C 0.61942(12) 0.61970(12) 0.1507(3)
H1 H 0.67600 0.61650 0.10020
C2 C 0.57907(12) 0.69316(13) 0.1767(3)
C3 C 0.49573(13) 0.70085(15) 0.2546(3)
H2 H 0.46980 0.75040 0.27340
C4 C 0.45355(12) 0.63180(15) 0.3025(3)
C5 C 0.48967(12) 0.55764(15) 0.2768(3)
H3 H 0.45820 0.51220 0.30960
C6 C 0.57432(11) 0.55157(13) 0.2009(3)
C7 C 0.61387(12) 0.47054(13) 0.1763(3)
C8 C 0.74350(13) 0.39924(11) 0.1016(3)
H4 H 0.71420 0.36970 0.00180
H5 H 0.74040 0.36780 0.21540
C9 C 0.84026(13) 0.41262(11) 0.0515(3)
C10 C 0.89959(13) 0.4349(1) 0.2197(3)
H6 H 0.96010 0.43890 0.17130
C11 C 0.87703(13) 0.51644(11) 0.2961(3)
H7 H 0.82180 0.51270 0.36420
H8 H 0.92300 0.53210 0.38480
C12 C 0.86772(11) 0.58012(10) 0.1510(3)
C13 C 0.85470(11) 0.56267(10) -0.0291(3)
C14 C 0.84914(14) 0.47782(11) -0.0979(3)
H9 H 0.90190 0.46680 -0.17000
H10 H 0.79860 0.47370 -0.18290
C15 C 0.87022(18) 0.33315(12) -0.0336(4)
H11 H 0.83270 0.32020 -0.13880
H12 H 0.86610 0.29190 0.05920
H13 H 0.93060 0.33770 -0.07420
C16 C 0.90349(16) 0.37328(13) 0.3768(4)
H14 H 0.94170 0.39220 0.47580
H15 H 0.92630 0.32410 0.32880
H16 H 0.84490 0.36480 0.42480
C17 C 0.87245(15) 0.66339(11) 0.2291(4)
H17 H 0.86660 0.70110 0.12860
H18 H 0.92850 0.67100 0.29180
H19 H 0.82530 0.67110 0.31660
C18 C 0.84425(16) 0.62310(13) -0.1825(3)
H20 H 0.84850 0.67560 -0.13030
H21 H 0.78730 0.61660 -0.24240
H22 H 0.89020 0.61580 -0.27310
#END
