
#######################################################################
#
#                 Cambridge Crystallographic Data Centre
#                                CCDC
#
#######################################################################
#
# If this CIF has been generated from an entry in the Cambridge
# Structural Database, then it will include bibliographic, chemical,
# crystal, experimental, refinement or atomic coordinate data resulting
# from the CCDC's data processing and validation procedures.
#
#######################################################################

data_CSD_CIF_FUVTIA
_audit_creation_date 2011-02-15
_audit_creation_method CSD-ConQuest-V1
_database_code_CSD FUVTIA
_database_code_depnum_ccdc_archive 'CCDC 725322'
_chemical_formula_sum 'C12 H18 N4 O2'
_chemical_formula_moiety
;
C12 H18 N4 O2
;
_journal_coden_Cambridge 456
_journal_volume 83
_journal_year 2009
_journal_page_first 1967
_journal_name_full 'Pol.J.Chem. '
loop_
_publ_author_name
"S.Ryng"
"M.Zimecki"
"M.Maczynski"
"T.Glowiak"
_chemical_name_systematic
;
3',5'-Dimethyl-5',6'-dihydrospiro[cyclohexane-1,7'-[1,2]oxazolo[5,4-e][1,2,4]t
riazepin]-4'(8'H)-one
;
_cell_volume   1291.395
_exptl_crystal_colour 'colorless'
_exptl_crystal_density_diffrn 1.287
_exptl_crystal_description 'plate'
_diffrn_ambient_temperature 293
#These two values have been output from a single CSD field.
_refine_ls_R_factor_gt 0.0544
_refine_ls_wR_factor_gt 0.0544
_symmetry_cell_setting monoclinic
_symmetry_space_group_name_H-M 'P 21/c'
_symmetry_Int_Tables_number 14
loop_
_symmetry_equiv_pos_site_id
_symmetry_equiv_pos_as_xyz
1 x,y,z
2 -x,1/2+y,1/2-z
3 -x,-y,-z
4 x,-1/2-y,-1/2+z
_cell_length_a 10.922(2)
_cell_length_b 9.444(2)
_cell_length_c 13.134(3)
_cell_angle_alpha 90
_cell_angle_beta 107.59(3)
_cell_angle_gamma 90
_cell_formula_units_Z 4
loop_
_atom_type_symbol
_atom_type_radius_bond
C 0.68
H 0.23
N 0.68
O 0.68
loop_
_atom_site_label
_atom_site_type_symbol
_atom_site_fract_x
_atom_site_fract_y
_atom_site_fract_z
O1 O 0.56748(18) 0.3949(2) 0.41454(15)
O2 O 0.43977(19) 0.0941(2) 0.63538(16)
N1 N 0.6461(2) 0.4054(3) 0.5241(2)
N2 N 0.3888(2) 0.2848(3) 0.3135(2)
N3 N 0.3152(2) 0.0696(3) 0.46578(18)
N4 N 0.3078(2) 0.0626(2) 0.35624(17)
C1 C 0.4734(2) 0.3002(3) 0.4087(2)
C2 C 0.4886(2) 0.2400(3) 0.5076(2)
C3 C 0.5969(2) 0.3160(3) 0.5761(2)
C4 C 0.6544(3) 0.3088(3) 0.6939(2)
H1 H 0.72830 0.36950 0.71540
H2 H 0.67980 0.21310 0.71460
H3 H 0.59240 0.33910 0.72780
C5 C 0.4150(2) 0.1315(3) 0.5402(2)
C6 C 0.2357(3) -0.0327(3) 0.4991(3)
H4 H 0.28960 -0.09760 0.54920
H5 H 0.18450 -0.08390 0.43790
H6 H 0.18050 0.01590 0.53220
C7 C 0.2763(2) 0.1908(3) 0.2920(2)
C8 C 0.1639(3) 0.2693(3) 0.3109(3)
H7 H 0.15540 0.36110 0.27620
H8 H 0.18130 0.28520 0.38690
C9 C 0.0376(3) 0.1888(5) 0.2685(4)
H9 H 0.04140 0.10310 0.31000
H10 H -0.03200 0.24670 0.27700
C10 C 0.0102(3) 0.1501(5) 0.1514(4)
H11 H -0.06890 0.09620 0.12750
H12 H -0.00040 0.23570 0.10880
C11 C 0.1196(3) 0.0636(4) 0.1362(3)
H13 H 0.10220 0.04120 0.06100
H14 H 0.12630 -0.02480 0.17510
C12 C 0.2455(3) 0.1436(3) 0.1754(2)
H15 H 0.24160 0.22640 0.13080
H16 H 0.31440 0.08360 0.16810
H17 H 0.386(3) 0.016(3) 0.351(3)
H18 H 0.402(3) 0.328(4) 0.265(3)
#END
