
#######################################################################
#
#                 Cambridge Crystallographic Data Centre
#                                CCDC
#
#######################################################################
#
# If this CIF has been generated from an entry in the Cambridge
# Structural Database, then it will include bibliographic, chemical,
# crystal, experimental, refinement or atomic coordinate data resulting
# from the CCDC's data processing and validation procedures.
#
#######################################################################

data_CSD_CIF_FUWJAJ
_audit_creation_date 2011-02-04
_audit_creation_method CSD-ConQuest-V1
_database_code_CSD FUWJAJ
_database_code_depnum_ccdc_archive 'CCDC 740810'
_chemical_formula_sum 'C13 H11 N3 O3'
_chemical_formula_moiety
;
C13 H11 N3 O3
;
_journal_coden_Cambridge 1291
_journal_year 2010
_journal_page_first 3237
_journal_name_full 'Eur.J.Org.Chem. '
loop_
_publ_author_name
"M.Regueiro-Figueroa"
"K.Djanashvili"
"D.Esteban-Gomez"
"A.de Blas"
"C.Platas-Iglesias"
"T.Rodriguez-Blas"
_chemical_name_systematic
;
1-(4-Nitrophenyl)-3-phenylurea
;
_cell_volume    580.877
_exptl_crystal_colour 'colorless'
_exptl_crystal_density_diffrn 1.471
_exptl_crystal_description 'needle'
_diffrn_ambient_temperature 100
#These two values have been output from a single CSD field.
_refine_ls_R_factor_gt 0.048
_refine_ls_wR_factor_gt 0.048
_symmetry_cell_setting monoclinic
_symmetry_space_group_name_H-M 'P 21'
_symmetry_Int_Tables_number 4
loop_
_symmetry_equiv_pos_site_id
_symmetry_equiv_pos_as_xyz
1 x,y,z
2 -x,1/2+y,-z
_cell_length_a 4.5871(3)
_cell_length_b 8.3370(5)
_cell_length_c 15.3036(9)
_cell_angle_alpha 90
_cell_angle_beta 97.009(4)
_cell_angle_gamma 90
_cell_formula_units_Z 2
loop_
_atom_type_symbol
_atom_type_radius_bond
C 0.68
H 0.23
N 0.68
O 0.68
loop_
_atom_site_label
_atom_site_type_symbol
_atom_site_fract_x
_atom_site_fract_y
_atom_site_fract_z
O1 O 0.0726(5) 0.1640(3) 0.10477(14)
O2 O 0.0101(7) 0.0845(5) 0.53874(17)
O3 O 0.3201(8) 0.2760(4) 0.57621(18)
N1 N 0.5297(6) 0.1917(4) 0.18052(16)
H1 H 0.71760 0.20570 0.17630
N2 N 0.4751(6) 0.1746(4) 0.03023(15)
H2 H 0.66810 0.18000 0.03570
N3 N 0.2003(7) 0.1819(5) 0.52186(19)
C1 C 0.4396(7) 0.1882(4) 0.26537(19)
C2 C 0.3429(6) 0.1748(4) 0.10466(19)
C3 C 0.0550(8) 0.1478(4) -0.2294(2)
H3 H -0.03650 0.14130 -0.28840
C4 C 0.0979(7) 0.0570(4) -0.0789(2)
H4 H 0.03730 -0.01280 -0.03550
C5 C 0.2353(7) 0.0765(4) 0.2873(2)
H5 H 0.14940 0.00250 0.24440
C6 C -0.0372(8) 0.0492(4) -0.1646(2)
H6 H -0.19420 -0.02390 -0.17950
C7 C 0.5673(8) 0.2962(4) 0.3279(2)
H7 H 0.70720 0.37200 0.31260
C8 C 0.2814(8) 0.2555(5) -0.2069(2)
H8 H 0.34600 0.32280 -0.25080
C9 C 0.4154(8) 0.2659(4) -0.1204(2)
H9 H 0.56980 0.34050 -0.10520
C10 C 0.4895(9) 0.2929(5) 0.4131(2)
H10 H 0.57590 0.36560 0.45660
C11 C 0.1579(8) 0.0736(5) 0.3718(2)
H11 H 0.01880 -0.00220 0.38760
C12 C 0.3217(7) 0.1664(4) -0.05626(19)
C13 C 0.2855(8) 0.1825(5) 0.4330(2)
#END
