
#######################################################################
#
#                 Cambridge Crystallographic Data Centre
#                                CCDC
#
#######################################################################
#
# If this CIF has been generated from an entry in the Cambridge
# Structural Database, then it will include bibliographic, chemical,
# crystal, experimental, refinement or atomic coordinate data resulting
# from the CCDC's data processing and validation procedures.
#
#######################################################################

data_CSD_CIF_FUWKUE
_audit_creation_date 2011-02-04
_audit_creation_method CSD-ConQuest-V1
_database_code_CSD FUWKUE
_database_code_depnum_ccdc_archive 'CCDC 739750'
_chemical_formula_sum 'C18 H17 N1 O3'
_chemical_formula_moiety
;
C18 H17 N1 O3
;
_journal_coden_Cambridge 1291
_journal_year 2010
_journal_page_first 3449
_journal_name_full 'Eur.J.Org.Chem. '
loop_
_publ_author_name
"C.G.Oliva"
"A.M.S.Silva"
"D.I.S.P.Resende"
"F.A.A.Paz"
"J.A.S.Cavaleiro"
_chemical_name_systematic
;
(S,E)-3-(Nitromethyl)-1,5-diphenylpent-4-en-1-one
;
_chemical_melting_point 378.15
_cell_volume   1553.121
_exptl_crystal_colour 'colorless'
_exptl_crystal_density_diffrn 1.263
_exptl_special_details
;
Melting point range 378.15-380.15K

;
_exptl_crystal_description 'prism'
_diffrn_ambient_temperature 180
#These two values have been output from a single CSD field.
_refine_ls_R_factor_gt 0.0525
_refine_ls_wR_factor_gt 0.0525
loop_
_citation_database_id_CSD
_citation_special_details
AKAVAK "is a stereoisomer of this entry"
_symmetry_cell_setting orthorhombic
_symmetry_space_group_name_H-M 'P 21 21 21'
_symmetry_Int_Tables_number 19
loop_
_symmetry_equiv_pos_site_id
_symmetry_equiv_pos_as_xyz
1 x,y,z
2 1/2-x,-y,1/2+z
3 -x,1/2+y,1/2-z
4 1/2+x,1/2-y,-z
_cell_length_a 5.6100(2)
_cell_length_b 11.9959(3)
_cell_length_c 23.0786(7)
_cell_angle_alpha 90
_cell_angle_beta 90
_cell_angle_gamma 90
_cell_formula_units_Z 4
loop_
_atom_type_symbol
_atom_type_radius_bond
C 0.68
H 0.23
N 0.68
O 0.68
loop_
_atom_site_label
_atom_site_type_symbol
_atom_site_fract_x
_atom_site_fract_y
_atom_site_fract_z
O1 O 0.3141(5) 0.7376(2) 0.20402(9)
O2 O 0.6031(4) 0.63090(18) 0.22229(10)
O3 O 0.5200(3) 0.50651(14) 0.38850(7)
N1 N 0.4059(4) 0.66582(16) 0.23265(9)
C1 C 0.2727(4) 0.62051(17) 0.28346(8)
H1 H 0.10670 0.64850 0.28250
H2 H 0.34790 0.64740 0.31970
C2 C 0.2704(4) 0.49380(18) 0.28337(8)
H3 H 0.43720 0.46550 0.27930
C3 C 0.1637(4) 0.45029(18) 0.34012(9)
H4 H 0.00950 0.48830 0.34690
H5 H 0.13050 0.36970 0.33570
C4 C 0.3199(4) 0.46683(16) 0.39277(9)
C5 C 0.1205(4) 0.45184(19) 0.23278(9)
H6 H -0.03950 0.47710 0.22990
C6 C 0.1982(4) 0.38373(17) 0.19342(9)
H7 H 0.36090 0.36210 0.19570
C7 C 0.2239(3) 0.43336(15) 0.45048(8)
C8 C 0.3555(4) 0.45676(16) 0.50025(9)
H8 H 0.50360 0.49470 0.49700
C9 C 0.2729(4) 0.42549(18) 0.55392(9)
H9 H 0.36490 0.44150 0.58750
C10 C 0.0567(5) 0.37088(18) 0.55941(10)
H10 H 0.00060 0.34910 0.59660
C11 C -0.0766(4) 0.34823(17) 0.51079(10)
H11 H -0.22530 0.31100 0.51450
C12 C 0.0047(4) 0.37939(16) 0.45644(9)
H12 H -0.08910 0.36400 0.42310
C13 C 0.0568(3) 0.33693(17) 0.14551(8)
C14 C 0.1412(4) 0.24189(17) 0.11791(9)
H13 H 0.28860 0.21040 0.12980
C15 C 0.0158(4) 0.19274(17) 0.07380(9)
H14 H 0.07630 0.12750 0.05560
C16 C -0.1974(4) 0.23760(17) 0.05578(9)
H15 H -0.28450 0.20260 0.02560
C17 C -0.2857(4) 0.33336(17) 0.08136(9)
H16 H -0.43070 0.36530 0.06810
C18 C -0.1608(4) 0.38232(17) 0.12657(9)
H17 H -0.22280 0.44710 0.14490
#END
