
#######################################################################
#
#                 Cambridge Crystallographic Data Centre
#                                CCDC
#
#######################################################################
#
# If this CIF has been generated from an entry in the Cambridge
# Structural Database, then it will include bibliographic, chemical,
# crystal, experimental, refinement or atomic coordinate data resulting
# from the CCDC's data processing and validation procedures.
#
#######################################################################

data_CSD_CIF_FUWNIU01
_audit_creation_date 1997-08-25
_audit_creation_method CSD-ConQuest-V1
_database_code_CSD FUWNIU01
_database_code_depnum_ccdc_archive 'CCDC 1161948'
_chemical_formula_sum 'C8 H9 N3 O4'
_chemical_formula_moiety
;
C8 H9 N3 O4
;
_journal_coden_Cambridge 233
_journal_volume 41
_journal_year 1996
_journal_page_first 2029
_journal_name_full 'Zh.Neorg.Khim.(Russ.)(Russ.J.Inorg.Chem.) '
loop_
_publ_author_name
"I.L.Eremenko"
"M.A.Golubichnaya"
"S.E.Nefedov"
"I.B.Baranovsky"
"I.A.Ol'shnitskaya"
"O.G.Ellert"
"V.M.Novotortsev"
"L.T.Eremenko"
"D.A.Nesterenko"
_chemical_name_systematic
;
N-(2-Nitroxyethyl)nicotinamide
;
_chemical_name_common
;
Nicorandile; DrugBank: DB09220
;
_chemical_melting_point 365
_cell_volume    955.876
_exptl_crystal_density_diffrn 1.468
_exptl_special_details
;
Melting point range 365-366K

;
_diffrn_ambient_temperature ?
_diffrn_special_details
;
The study was carried out at room temperature,in the range 283-303K

;
#These two values have been output from a single CSD field.
_refine_ls_R_factor_gt 0.038
_refine_ls_wR_factor_gt 0.038
_symmetry_cell_setting monoclinic
_symmetry_space_group_name_H-M 'P 21/c'
_symmetry_Int_Tables_number 14
loop_
_symmetry_equiv_pos_site_id
_symmetry_equiv_pos_as_xyz
1 x,y,z
2 -x,1/2+y,1/2-z
3 -x,-y,-z
4 x,-1/2-y,-1/2+z
_cell_length_a 5.260(1)
_cell_length_b 19.517(4)
_cell_length_c 9.527(2)
_cell_angle_alpha 90
_cell_angle_beta 102.22(3)
_cell_angle_gamma 90
_cell_formula_units_Z 4
loop_
_atom_type_symbol
_atom_type_radius_bond
C 0.68
H 0.23
N 0.68
O 0.68
loop_
_atom_site_label
_atom_site_type_symbol
_atom_site_fract_x
_atom_site_fract_y
_atom_site_fract_z
O1 O 0.07624(25) 0.58447(7) 0.00367(14)
O2 O 0.36000(35) 0.54136(8) 0.18905(18)
O3 O -0.05017(38) 0.54836(9) 0.19164(21)
O4 O 0.19757(27) 0.70794(6) 0.22792(12)
N1 N -0.37649(30) 0.85549(9) 0.18405(17)
N2 N 0.25861(29) 0.72348(7) 0.00270(14)
N3 N 0.13717(37) 0.55596(8) 0.14067(19)
C1 C 0.30246(42) 0.60175(9) -0.05552(21)
C2 C 0.43730(36) 0.66585(9) 0.01008(21)
C3 C 0.15136(33) 0.74018(8) 0.11346(16)
C4 C -0.03085(31) 0.79990(7) 0.09509(16)
C5 C -0.03120(39) 0.85261(9) -0.00254(19)
C6 C -0.20370(46) 0.90616(10) -0.00433(24)
C7 C -0.36809(43) 0.90582(10) 0.09098(23)
C8 C -0.20859(35) 0.80395(9) 0.18433(19)
H1 H 0.2204(37) 0.7456(10) -0.0804(23)
H2 H 0.4199(40) 0.5644(11) -0.0489(22)
H3 H 0.2229(45) 0.6107(12) -0.1522(29)
H4 H 0.5777(38) 0.6761(11) -0.0442(21)
H5 H 0.5188(38) 0.65788(95) 0.1073(24)
H6 H 0.0918(38) 0.85447(97) -0.0636(23)
H7 H -0.2109(45) 0.9421(12) -0.0663(27)
H8 H -0.4798(43) 0.9427(11) 0.0966(24)
H9 H -0.2255(40) 0.7670(11) 0.2464(24)
#END
