
#######################################################################
#
#                 Cambridge Crystallographic Data Centre
#                                CCDC
#
#######################################################################
#
# If this CIF has been generated from an entry in the Cambridge
# Structural Database, then it will include bibliographic, chemical,
# crystal, experimental, refinement or atomic coordinate data resulting
# from the CCDC's data processing and validation procedures.
#
#######################################################################

data_CSD_CIF_FUXNAN
_audit_creation_date 1988-09-04
_audit_creation_method CSD-ConQuest-V1
_database_code_CSD FUXNAN
_chemical_formula_sum 'C7 H8 N2 O2'
_chemical_formula_moiety
;
C7 H8 N2 O2
;
_journal_coden_Cambridge 4
_journal_volume 109
_journal_year 1987
_journal_page_first 7786
_journal_name_full 'J.Am.Chem.Soc. '
loop_
_publ_author_name
"T.W.Panunto"
"Z.Urbanczyk-Lipkowska"
"R.Johnson"
"M.C.Etter"
_chemical_name_systematic
;
N-Methyl-p-nitroaniline
;
_cell_volume    738.385
_diffrn_ambient_temperature ?
_diffrn_special_details
;
The study was carried out at room temperature,in the range 283-303K

;
#These two values have been output from a single CSD field.
_refine_ls_R_factor_gt 0.036
_refine_ls_wR_factor_gt 0.036
_symmetry_cell_setting monoclinic
_symmetry_space_group_name_H-M 'P 21/n'
_symmetry_Int_Tables_number 14
loop_
_symmetry_equiv_pos_site_id
_symmetry_equiv_pos_as_xyz
1 x,y,z
2 1/2-x,1/2+y,1/2-z
3 -x,-y,-z
4 -1/2+x,-1/2-y,-1/2+z
_cell_length_a 10.073(3)
_cell_length_b 6.930(4)
_cell_length_c 10.812(3)
_cell_angle_alpha 90
_cell_angle_beta 101.95(2)
_cell_angle_gamma 90
_cell_formula_units_Z 4
loop_
_atom_type_symbol
_atom_type_radius_bond
C 0.68
H 0.23
N 0.68
O 0.68
loop_
_atom_site_label
_atom_site_type_symbol
_atom_site_fract_x
_atom_site_fract_y
_atom_site_fract_z
C1 C 0.1123(2) 0.1748(4) 0.1262(2)
C2 C 0.1421(2) -0.0185(4) 0.1350(2)
C3 C 0.2207(3) -0.1008(4) 0.0595(2)
C4 C 0.2730(2) 0.0153(4) -0.0271(2)
C5 C 0.2414(3) 0.2104(4) -0.0331(2)
C6 C 0.1621(3) 0.2920(4) 0.0414(3)
C7 C 0.3849(3) -0.2627(5) -0.1081(3)
N1 N 0.0263(2) 0.2606(4) 0.2015(2)
N2 N 0.3502(2) -0.0616(3) -0.1038(2)
O1 O -0.0029(2) 0.4323(3) 0.1894(2)
O2 O -0.0156(2) 0.1565(4) 0.2786(2)
H1 H 0.377(3) 0.028(5) -0.152(2)
H2 H 0.444(3) -0.276(4) -0.163(3)
H3 H 0.433(2) -0.311(4) -0.027(2)
H4 H 0.303(3) -0.341(5) -0.132(3)
H5 H 0.10800 -0.09500 0.19400
H6 H 0.24000 -0.23600 0.06500
H7 H 0.27500 0.29000 -0.09100
H8 H 0.14200 0.42700 0.03600
#END
