
#######################################################################
#
#                 Cambridge Crystallographic Data Centre
#                                CCDC
#
#######################################################################
#
# If this CIF has been generated from an entry in the Cambridge
# Structural Database, then it will include bibliographic, chemical,
# crystal, experimental, refinement or atomic coordinate data resulting
# from the CCDC's data processing and validation procedures.
#
#######################################################################

data_CSD_CIF_FUXTOJ
_audit_creation_date 2016-01-07
_audit_creation_method CSD-ConQuest-V1
_database_code_CSD FUXTOJ
_database_code_depnum_ccdc_archive 'CCDC 1434966'
_chemical_formula_sum 'C23 H15 N3 O4'
_chemical_formula_moiety
;
C23 H15 N3 O4
;
_journal_coden_Cambridge 182
_journal_volume 52
_journal_year 2016
_journal_page_first 2509
_journal_name_full 'Chem.Commun. '
loop_
_publ_author_name
"S.Rajkumar"
"S.Antony Savarimuthu"
"R.S.Kumaran"
"C.M.Nagaraja"
"T.Gandhi"
_chemical_name_systematic
;
5-methyl-6-(4-nitrophenyl)phthalazino[2,3-a]cinnoline-8,13-dione
;
_cell_volume   3737.704
_exptl_crystal_colour 'colorless'
_exptl_crystal_density_diffrn 1.412
_exptl_crystal_description 'rectangular'
_diffrn_ambient_temperature 298
#These two values have been output from a single CSD field.
_refine_ls_R_factor_gt 0.1076
_refine_ls_wR_factor_gt 0.1076
_symmetry_cell_setting monoclinic
_symmetry_space_group_name_H-M 'P 21/c'
_symmetry_Int_Tables_number 14
loop_
_symmetry_equiv_pos_site_id
_symmetry_equiv_pos_as_xyz
1 x,y,z
2 -x,1/2+y,1/2-z
3 -x,-y,-z
4 x,-1/2-y,-1/2+z
_cell_length_a 22.748(6)
_cell_length_b 10.773(3)
_cell_length_c 15.613(4)
_cell_angle_alpha 90
_cell_angle_beta 102.346(8)
_cell_angle_gamma 90
_cell_formula_units_Z 8
loop_
_atom_type_symbol
_atom_type_radius_bond
C 0.68
H 0.23
N 0.68
O 0.68
loop_
_atom_site_label
_atom_site_type_symbol
_atom_site_fract_x
_atom_site_fract_y
_atom_site_fract_z
O1 O 0.5890(3) 0.4532(5) 1.2327(3)
C1 C 0.7420(2) 0.7024(5) 0.7917(3)
H1 H 0.77380 0.66840 0.76850
O2 O 0.74780(15) 1.0641(3) 0.8903(2)
O3 O 0.4952(3) 0.5058(5) 1.2140(4)
C2 C 0.6436(2) 0.6815(5) 0.8245(3)
H2 H 0.60810 0.63420 0.82260
C3 C 0.64930(18) 0.7987(4) 0.8624(3)
N1 N 0.61763(16) 0.9486(4) 0.9569(2)
C4 C 0.59907(18) 0.9669(4) 1.0385(3)
C5 C 0.5321(2) 0.8409(5) 1.1133(3)
H3 H 0.50430 0.90790 1.10580
C6 C 0.74752(19) 0.8198(5) 0.8278(3)
H4 H 0.78240 0.86820 0.82740
N2 N 0.66205(16) 1.0312(4) 0.9394(2)
C7 C 0.6622(3) 1.2511(5) 0.8979(4)
H5 H 0.68280 1.23190 0.85270
C8 C 0.6471(3) 1.3713(6) 0.9125(4)
H6 H 0.65800 1.43610 0.87770
C9 C 0.6162(3) 1.3994(6) 0.9770(4)
H7 H 0.60580 1.48310 0.98580
C10 C 0.6259(2) 0.7545(5) 1.0947(3)
H8 H 0.66210 0.76140 1.07410
O4 O 0.55582(13) 0.7876(3) 0.9081(2)
C11 C 0.6900(2) 0.6338(5) 0.7894(3)
H9 H 0.68610 0.55360 0.76350
C12 C 0.60222(18) 0.8422(4) 0.9063(3)
C13 C 0.58524(19) 0.8531(4) 1.0829(3)
C14 C 0.5192(2) 0.7347(5) 1.1534(3)
H10 H 0.48290 0.72700 1.17380
C15 C 0.5603(2) 0.6391(5) 1.1636(3)
N3 N 0.5472(3) 0.5248(5) 1.2069(3)
C16 C 0.70181(18) 0.8663(4) 0.8645(3)
C17 C 0.7073(2) 0.9937(5) 0.8999(3)
C18 C 0.6466(2) 1.1580(5) 0.9506(3)
C19 C 0.6004(3) 1.3066(5) 1.0288(4)
H11 H 0.57900 1.32650 1.07310
C20 C 0.6157(2) 1.1842(5) 1.0159(3)
C21 C 0.5995(2) 1.0835(5) 1.0700(3)
C22 C 0.6140(2) 0.6474(5) 1.1357(3)
H12 H 0.64190 0.58070 1.14480
C23 C 0.5874(2) 1.1135(5) 1.1583(3)
H13 H 0.59000 1.20340 1.16770
H14 H 0.54700 1.08460 1.16130
H15 H 0.61730 1.07190 1.20380
C24 C 0.9820(2) 0.2716(5) 0.8995(3)
H16 H 0.99950 0.23190 0.95320
C25 C 0.8162(2) 0.3394(5) 1.0267(3)
H17 H 0.81650 0.33600 0.96600
C26 C 0.7947(2) 0.2402(5) 1.0660(3)
H18 H 0.78070 0.16790 1.03300
O5 O 0.7557(3) 0.0470(5) 1.1499(4)
O6 O 0.7706(3) 0.1444(5) 1.2727(4)
C27 C 0.8364(2) 0.4456(5) 1.1635(3)
H19 H 0.85180 0.51590 1.19780
O7 O 0.88395(16) 0.6240(4) 0.7532(2)
C28 C 0.9317(2) 0.3853(5) 0.7419(3)
H20 H 0.91480 0.42490 0.68790
C29 C 0.9634(2) 0.2754(6) 0.7422(4)
H21 H 0.96720 0.23780 0.68860
O8 O 0.95467(14) 0.3787(3) 1.0534(2)
C30 C 0.9153(2) 0.8230(5) 0.8744(4)
H22 H 0.93070 0.80020 0.82470
C31 C 0.9163(3) 0.9446(6) 0.9010(4)
H23 H 0.93290 1.00600 0.86950
C32 C 0.8697(2) 0.8895(5) 1.0182(3)
H24 H 0.85390 0.91310 1.06740
C33 C 0.9891(2) 0.2215(5) 0.8209(4)
H25 H 1.01240 0.14810 0.82140
C34 C 0.94941(17) 0.3798(4) 0.8994(3)
N4 N 0.89847(15) 0.5275(4) 0.9738(2)
C35 C 0.83759(18) 0.4445(4) 1.0748(3)
N5 N 0.89059(15) 0.6051(4) 0.8992(2)
C36 C 0.89693(19) 0.5610(5) 0.8195(3)
C37 C 0.92472(18) 0.4374(5) 0.8196(3)
C38 C 0.8937(3) 0.9791(6) 0.9725(4)
H26 H 0.89460 1.06360 0.99030
C39 C 0.93744(17) 0.4275(4) 0.9824(3)
C40 C 0.85938(18) 0.5525(4) 1.0324(3)
C41 C 0.7936(2) 0.2468(5) 1.1532(3)
N6 N 0.7712(2) 0.1391(6) 1.1948(4)
C42 C 0.8137(2) 0.3483(6) 1.2026(3)
H27 H 0.81200 0.35160 1.26280
C43 C 0.89157(18) 0.7343(4) 0.9211(3)
C44 C 0.86818(18) 0.7659(5) 0.9937(3)
C45 C 0.84210(19) 0.6703(5) 1.0402(3)
C46 C 0.7940(2) 0.7076(6) 1.0882(4)
H28 H 0.78900 0.79800 1.08540
H29 H 0.75590 0.66760 1.06080
H30 H 0.80580 0.68150 1.14960
#END
