
#######################################################################
#
#                 Cambridge Crystallographic Data Centre
#                                CCDC
#
#######################################################################
#
# If this CIF has been generated from an entry in the Cambridge
# Structural Database, then it will include bibliographic, chemical,
# crystal, experimental, refinement or atomic coordinate data resulting
# from the CCDC's data processing and validation procedures.
#
#######################################################################

data_CSD_CIF_FUXZIH
_audit_creation_date 1988-09-21
_audit_creation_method CSD-ConQuest-V1
_database_code_CSD FUXZIH
_chemical_formula_sum 'C13 H13 N3 O2'
_chemical_formula_moiety
;
C13 H13 N3 O2
;
_journal_coeditor_code "IUCr AS0029"
_journal_coden_Cambridge 591
_journal_volume 44
_journal_year 1988
_journal_page_first 102
_journal_name_full 'Acta Crystallogr.,Sect.C:Cryst.Struct.Commun. '
loop_
_publ_author_name
"T.Kondo"
"N.Ogasawara"
"R.Ito"
"K.Ishida"
"T.Tanase"
"T.Murata"
"M.Hidai"
_chemical_name_systematic
;
5-Nitro-2-(((S)-1-phenylethyl)amino)pyridine
;
_cell_volume    615.504
_exptl_crystal_colour 'yellow'
_exptl_crystal_density_diffrn 1.313
_diffrn_ambient_temperature ?
_diffrn_special_details
;
The study was carried out at room temperature,in the range 283-303K

;
#These two values have been output from a single CSD field.
_refine_ls_R_factor_gt 0.065
_refine_ls_wR_factor_gt 0.065
_symmetry_cell_setting monoclinic
_symmetry_space_group_name_H-M 'P 21'
_symmetry_Int_Tables_number 4
loop_
_symmetry_equiv_pos_site_id
_symmetry_equiv_pos_as_xyz
1 x,y,z
2 -x,1/2+y,-z
_cell_length_a 17.945(4)
_cell_length_b 6.372(1)
_cell_length_c 5.401(2)
_cell_angle_alpha 90
_cell_angle_beta 94.70(2)
_cell_angle_gamma 90
_cell_formula_units_Z 2
loop_
_atom_type_symbol
_atom_type_radius_bond
C 0.68
H 0.23
N 0.68
O 0.68
loop_
_atom_site_label
_atom_site_type_symbol
_atom_site_fract_x
_atom_site_fract_y
_atom_site_fract_z
O1 O 0.0323(3) 0.7818(3) 0.3637(12)
O2 O 0.1120(4) 0.7539(13) 0.6805(12)
N1 N 0.0835(4) 0.6907(12) 0.4812(13)
N2 N 0.1988(3) 0.2175(13) 0.4237(12)
N3 N 0.2006(4) -0.0312(12) 0.1139(13)
C1 C 0.1101(4) 0.4967(16) 0.3802(15)
C2 C 0.0771(4) 0.4137(17) 0.1588(16)
C3 C 0.1067(4) 0.2336(16) 0.0710(14)
C4 C 0.1693(5) 0.3956(16) 0.5098(15)
C5 C 0.1693(4) 0.1423(15) 0.2060(15)
C6 C 0.2720(4) -0.1178(15) 0.2201(15)
C7 C 0.2833(5) -0.3280(16) 0.0856(19)
C8 C 0.3374(4) 0.0280(14) 0.1866(15)
C9 C 0.3419(5) 0.1471(16) -0.0283(16)
C10 C 0.4060(5) 0.2653(19) -0.0493(17)
C11 C 0.4639(5) 0.2662(20) 0.1275(18)
C12 C 0.4611(5) 0.1433(19) 0.3366(17)
C13 C 0.3968(5) 0.0223(17) 0.3620(15)
H1 H 0.174(4) -0.103(12) -0.053(12)
H2 H 0.031(3) 0.487(12) 0.059(11)
H3 H 0.082(3) 0.167(12) -0.100(11)
H4 H 0.194(4) 0.455(13) 0.686(12)
H5 H 0.268(4) -0.136(12) 0.422(12)
H6 H 0.335(4) -0.401(13) 0.161(12)
H7 H 0.238(4) -0.432(13) 0.112(12)
H8 H 0.285(4) -0.300(12) -0.114(12)
H9 H 0.297(3) 0.147(13) -0.174(12)
H10 H 0.410(4) 0.361(12) -0.212(12)
H11 H 0.511(4) 0.363(13) 0.104(11)
H12 H 0.507(4) 0.142(13) 0.476(14)
H13 H 0.393(4) -0.076(13) 0.521(12)
#END
