
#######################################################################
#
#                 Cambridge Crystallographic Data Centre
#                                CCDC
#
#######################################################################
#
# If this CIF has been generated from an entry in the Cambridge
# Structural Database, then it will include bibliographic, chemical,
# crystal, experimental, refinement or atomic coordinate data resulting
# from the CCDC's data processing and validation procedures.
#
#######################################################################

data_CSD_CIF_FUZZAB
_audit_creation_date 1988-10-09
_audit_creation_method CSD-ConQuest-V1
_database_code_CSD FUZZAB
_chemical_formula_sum 'C6 H6 N2 O2'
_chemical_formula_moiety
;
C6 H6 N2 O2
;
_journal_coden_Cambridge 603
_journal_volume 7
_journal_year 1988
_journal_page_first 26
_journal_name_full 'Jiegou Huaxue(Chin.)(Chin.J.Struct.Chem.) '
loop_
_publ_author_name
"Wang Ruiqin"
"Bai Chang"
"Huang Shenghua"
"Shi Kailiang"
"Shi Lei"
_chemical_name_systematic
;
Nicotinohydroxamic acid
;
_cell_volume    611.782
_exptl_crystal_density_diffrn 1.5
_exptl_special_details
;
biological activity

;
_diffrn_ambient_temperature ?
_diffrn_special_details
;
The study was carried out at room temperature,in the range 283-303K

;
#These two values have been output from a single CSD field.
_refine_ls_R_factor_gt 0.028
_refine_ls_wR_factor_gt 0.028
_symmetry_cell_setting orthorhombic
_symmetry_space_group_name_H-M 'P c a 21'
_symmetry_Int_Tables_number 29
loop_
_symmetry_equiv_pos_site_id
_symmetry_equiv_pos_as_xyz
1 x,y,z
2 1/2-x,y,1/2+z
3 1/2+x,-y,z
4 -x,-y,1/2+z
_cell_length_a 14.823(2)
_cell_length_b 4.893(1)
_cell_length_c 8.435(1)
_cell_angle_alpha 90
_cell_angle_beta 90
_cell_angle_gamma 90
_cell_formula_units_Z 4
loop_
_atom_type_symbol
_atom_type_radius_bond
C 0.68
H 0.23
N 0.68
O 0.68
loop_
_atom_site_label
_atom_site_type_symbol
_atom_site_fract_x
_atom_site_fract_y
_atom_site_fract_z
O1 O 0.5765(2) 0.4271(6) 0.65800
O2 O 0.4157(2) 0.5769(7) 0.5429(4)
N1 N 0.5178(2) 0.5964(7) 0.7426(4)
N2 N 0.3526(2) 1.2025(7) 0.9527(4)
C1 C 0.3762(2) 0.8311(8) 0.7731(5)
C2 C 0.4075(2) 1.0303(8) 0.8758(5)
C3 C 0.2637(3) 1.1789(8) 0.9305(5)
C4 C 0.2265(2) 0.9818(9) 0.8319(6)
C5 C 0.2839(3) 0.8054(8) 0.7503(5)
C6 C 0.4378(3) 0.6545(8) 0.6774(5)
H1 H 0.476(2) 1.063(9) 0.894(5)
H2 H 0.226(2) 1.338(8) 0.983(5)
H3 H 0.157(2) 0.967(9) 0.814(5)
H4 H 0.262(3) 0.668(8) 0.675(5)
H5 H 0.524(2) 0.619(8) 0.837(6)
H6 H 0.616(3) 0.523(9) 0.599(5)
#END
