
#######################################################################
#
#                 Cambridge Crystallographic Data Centre
#                                CCDC
#
#######################################################################
#
# If this CIF has been generated from an entry in the Cambridge
# Structural Database, then it will include bibliographic, chemical,
# crystal, experimental, refinement or atomic coordinate data resulting
# from the CCDC's data processing and validation procedures.
#
#######################################################################

data_CSD_CIF_GACGEZ
_audit_creation_date 2016-01-26
_audit_creation_method CSD-ConQuest-V1
_database_code_CSD GACGEZ
_database_code_depnum_ccdc_archive 'CCDC 904573'
_chemical_formula_sum 'C11 H7 N5 O5'
_chemical_formula_moiety
;
C11 H7 N5 O5
;
_journal_coden_Cambridge 34
_journal_volume 53
_journal_year 2016
_journal_page_first 102
_journal_name_full 'J.Heterocycl.Chem. '
loop_
_publ_author_name
"L.L.Fershtat"
"A.S.Kulikov"
"I.V.Ananyev"
"M.I.Struchkova"
"N.N.Makhov"
_chemical_name_systematic
;
3-Methyl-4-(5-(4-nitrophenyl)-1,3,4-oxadiazol-2-yl)-1,2,5-oxadiazole 2-oxide
;
_cell_volume   3554.203
_exptl_crystal_density_diffrn 1.621
_diffrn_ambient_temperature 100
#These two values have been output from a single CSD field.
_refine_ls_R_factor_gt 0.0356
_refine_ls_wR_factor_gt 0.0356
_symmetry_cell_setting monoclinic
_symmetry_space_group_name_H-M 'C c'
_symmetry_Int_Tables_number 9
loop_
_symmetry_equiv_pos_site_id
_symmetry_equiv_pos_as_xyz
1 x,y,z
2 x,-y,1/2+z
3 1/2+x,1/2+y,z
4 1/2+x,1/2-y,1/2+z
_cell_length_a 11.8511(6)
_cell_length_b 23.7381(12)
_cell_length_c 13.5624(7)
_cell_angle_alpha 90
_cell_angle_beta 111.3240(9)
_cell_angle_gamma 90
_cell_formula_units_Z 12
loop_
_atom_type_symbol
_atom_type_radius_bond
C 0.68
H 0.23
N 0.68
O 0.68
loop_
_atom_site_label
_atom_site_type_symbol
_atom_site_fract_x
_atom_site_fract_y
_atom_site_fract_z
O1 O 0.13964(15) 0.93109(6) 0.65500(14)
O2 O 0.18474(15) 0.86149(6) 0.78076(12)
O3 O 0.32887(13) 0.70483(6) 0.76952(12)
O4 O 0.57272(16) 0.42167(7) 0.91422(14)
O5 O 0.53326(19) 0.45462(7) 1.04595(14)
N1 N 0.17673(16) 0.88230(7) 0.67735(15)
N2 N 0.23125(17) 0.80828(8) 0.79199(16)
N3 N 0.33345(16) 0.72892(7) 0.61272(14)
N4 N 0.38545(16) 0.67522(8) 0.63925(15)
N5 N 0.53729(16) 0.45922(8) 0.95732(14)
C1 C 0.2210(2) 0.84949(9) 0.52373(18)
H1 H 0.20370 0.88890 0.50160
H2 H 0.16100 0.82500 0.47310
H3 H 0.30220 0.83960 0.52600
C2 C 0.21519(18) 0.84205(9) 0.62988(18)
C3 C 0.24947(19) 0.79693(9) 0.70385(18)
C4 C 0.30262(18) 0.74374(9) 0.69109(17)
C5 C 0.38073(19) 0.66327(9) 0.73057(17)
C6 C 0.42221(18) 0.61154(8) 0.79226(17)
C7 C 0.4039(2) 0.60233(9) 0.88714(18)
H4 H 0.36540 0.63030 0.91410
C8 C 0.44185(19) 0.55252(9) 0.94139(17)
H5 H 0.42990 0.54560 1.00590
C9 C 0.49766(18) 0.51282(8) 0.89999(17)
C10 C 0.51731(19) 0.52064(9) 0.80630(18)
H6 H 0.55590 0.49250 0.77980
C11 C 0.47880(19) 0.57091(9) 0.75242(19)
H7 H 0.49110 0.57760 0.68800
O6 O 0.47676(14) 0.76706(6) 0.25002(14)
O7 O 0.44903(14) 0.69229(6) 0.13527(12)
O8 O 0.27815(12) 0.54224(6) 0.14130(11)
O9 O 0.00584(17) 0.26426(7) -0.00772(14)
O10 O 0.06253(15) 0.29251(6) -0.13343(12)
N6 N 0.44140(15) 0.71806(7) 0.23112(14)
N7 N 0.39911(16) 0.63957(7) 0.12640(15)
N8 N 0.26082(16) 0.57076(7) 0.29083(15)
N9 N 0.20241(16) 0.51844(7) 0.26312(15)
N10 N 0.05004(15) 0.29953(8) -0.04845(13)
C12 C 0.3721(2) 0.69362(9) 0.37555(18)
H8 H 0.40940 0.72990 0.40360
H9 H 0.40860 0.66400 0.42770
H10 H 0.28490 0.69540 0.36100
C13 C 0.39253(17) 0.68073(8) 0.27587(16)
C14 C 0.36647(17) 0.63309(8) 0.20806(16)
C15 C 0.3029(2) 0.58253(9) 0.21781(18)
C16 C 0.21494(18) 0.50364(8) 0.17551(16)
C17 C 0.17177(17) 0.45204(8) 0.11450(16)
C18 C 0.18838(18) 0.44227(8) 0.01957(16)
H11 H 0.22740 0.46970 -0.00800
C19 C 0.14754(17) 0.39213(8) -0.03470(16)
H12 H 0.15820 0.38480 -0.09960
C20 C 0.09106(17) 0.35310(8) 0.00775(16)
C21 C 0.07382(18) 0.36192(8) 0.10293(16)
H13 H 0.03500 0.33440 0.13040
C22 C 0.11477(19) 0.41176(8) 0.15605(17)
H14 H 0.10430 0.41880 0.22110
O11 O 0.45463(14) 1.10019(6) 0.24308(13)
O12 O 0.40699(14) 1.02898(6) 0.11999(12)
O13 O 0.26807(12) 0.87340(6) 0.14136(11)
O14 O 0.03665(16) 0.58940(7) 0.00094(14)
O15 O 0.0834(2) 0.62122(7) -0.12790(15)
N11 N 0.41763(15) 1.05146(8) 0.22294(14)
N12 N 0.35957(17) 0.97577(8) 0.11237(16)
N13 N 0.26387(17) 0.89840(7) 0.29740(15)
N14 N 0.21396(17) 0.84429(8) 0.27290(15)
N15 N 0.07293(17) 0.62650(8) -0.04213(14)
C23 C 0.3709(2) 1.02226(8) 0.37799(17)
H15 H 0.41630 1.05640 0.40940
H16 H 0.40550 0.98990 0.42410
H17 H 0.28590 1.02700 0.37010
C24 C 0.37850(18) 1.01238(8) 0.27254(17)
C25 C 0.34410(18) 0.96616(9) 0.20160(16)
C26 C 0.2932(2) 0.91333(9) 0.21810(19)
C27 C 0.21806(18) 0.83176(8) 0.18103(17)
C28 C 0.17821(18) 0.78023(8) 0.12042(16)
C29 C 0.20174(19) 0.77058(9) 0.02779(16)
H18 H 0.24250 0.79830 0.00270
C30 C 0.16541(19) 0.72052(8) -0.02716(16)
H19 H 0.18020 0.71350 -0.09030
C31 C 0.10689(18) 0.68090(8) 0.01235(16)
C32 C 0.08182(18) 0.68959(9) 0.10413(17)
H20 H 0.04160 0.66160 0.12920
C33 C 0.11703(19) 0.73980(9) 0.15735(18)
H21 H 0.09980 0.74700 0.21930
#END
