
#######################################################################
#
#                 Cambridge Crystallographic Data Centre
#                                CCDC
#
#######################################################################
#
# If this CIF has been generated from an entry in the Cambridge
# Structural Database, then it will include bibliographic, chemical,
# crystal, experimental, refinement or atomic coordinate data resulting
# from the CCDC's data processing and validation procedures.
#
#######################################################################

data_CSD_CIF_GACGAS
_audit_creation_date 1988-09-21
_audit_creation_method CSD-ConQuest-V1
_database_code_CSD GACGAS
_chemical_formula_sum 'C11 H8 N2 O5'
_chemical_formula_moiety
;
C11 H8 N2 O5
;
_journal_coden_Cambridge 4
_journal_volume 110
_journal_year 1988
_journal_page_first 911
_journal_name_full 'J.Am.Chem.Soc. '
loop_
_publ_author_name
"B.Avramovitch"
"Z.Rappoport"
_chemical_name_systematic
;
Methyl (Z)-\a-cyano-\b-hydroxy-p-nitrocinnamate
;
_cell_volume   1110.019
_exptl_crystal_density_diffrn 1.49
_diffrn_ambient_temperature ?
_diffrn_special_details
;
The study was carried out at room temperature,in the range 283-303K

;
#These two values have been output from a single CSD field.
_refine_ls_R_factor_gt 0.054
_refine_ls_wR_factor_gt 0.054
_symmetry_cell_setting monoclinic
_symmetry_space_group_name_H-M 'P 21/c'
_symmetry_Int_Tables_number 14
loop_
_symmetry_equiv_pos_site_id
_symmetry_equiv_pos_as_xyz
1 x,y,z
2 -x,1/2+y,1/2-z
3 -x,-y,-z
4 x,-1/2-y,-1/2+z
_cell_length_a 4.042(1)
_cell_length_b 11.696(3)
_cell_length_c 23.485(5)
_cell_angle_alpha 90
_cell_angle_beta 91.19(4)
_cell_angle_gamma 90
_cell_formula_units_Z 4
loop_
_atom_type_symbol
_atom_type_radius_bond
C 0.68
H 0.23
N 0.68
O 0.68
loop_
_atom_site_label
_atom_site_type_symbol
_atom_site_fract_x
_atom_site_fract_y
_atom_site_fract_z
O1 O 1.2420(5) 0.1239(1) 0.57491(7)
O2 O 1.2875(5) 0.0699(2) 0.46777(8)
O3 O 1.0148(4) 0.1808(2) 0.40458(7)
O4 O 0.5167(8) 0.4965(2) 0.7659(1)
O5 O 0.7178(9) 0.6297(2) 0.7172(1)
N1 N 0.5692(6) 0.3812(2) 0.4647(1)
N2 N 0.6612(7) 0.5298(2) 0.7251(1)
C1 C 1.0557(5) 0.2108(2) 0.5565(1)
C2 C 0.9686(5) 0.2241(2) 0.5006(1)
H1 H 1.29900 0.08200 0.59100
H2 H 1.11200 0.15400 0.32900
H3 H 1.42200 0.13100 0.35900
H4 H 1.07700 0.03400 0.35500
C3 C 0.7506(6) 0.3135(2) 0.4820(1)
C4 C 1.1058(6) 0.1498(2) 0.4569(1)
C5 C 1.1627(9) 0.1164(3) 0.3588(1)
C6 C 0.9594(5) 0.2915(2) 0.6017(1)
C7 C 0.8290(6) 0.2535(2) 0.6526(1)
C8 C 0.7306(7) 0.3307(2) 0.6932(1)
C9 C 0.7728(7) 0.4460(2) 0.6826(1)
C10 C 0.9110(7) 0.4869(2) 0.6335(1)
C11 C 1.0038(7) 0.4085(2) 0.5927(1)
H5 H 0.81100 0.17000 0.66000
H6 H 0.64200 0.30000 0.72900
H7 H 0.90000 0.57200 0.62200
H8 H 1.12700 0.43800 0.55700
#END
