
#######################################################################
#
#                 Cambridge Crystallographic Data Centre
#                                CCDC
#
#######################################################################
#
# If this CIF has been generated from an entry in the Cambridge
# Structural Database, then it will include bibliographic, chemical,
# crystal, experimental, refinement or atomic coordinate data resulting
# from the CCDC's data processing and validation procedures.
#
#######################################################################

data_CSD_CIF_GACYOZ
_audit_creation_date 2003-08-07
_audit_creation_method CSD-ConQuest-V1
_database_code_CSD GACYOZ
_database_code_depnum_ccdc_archive 'CCDC 198285'
_chemical_formula_sum 'C7 H7 N3 O5'
_chemical_formula_moiety
;
C7 H7 N3 O5
;
_journal_coden_Cambridge 177
_journal_volume 1
_journal_year 2003
_journal_page_first 1004
_journal_name_full 'Org.Biomol.Chem. '
loop_
_publ_author_name
"M.R.Crampton"
"T.A.Emokpae"
"J.A.K.Howard"
"C.Isanbor"
"R.Mondal"
_chemical_name_systematic
;
2-Ethoxy-3,5-dinitropyridine
;
_chemical_melting_point 337.15
_cell_volume    874.597
_exptl_crystal_colour 'colorless'
_exptl_crystal_density_diffrn 1.619
_exptl_crystal_description 'needle'
_diffrn_ambient_temperature 120
#These two values have been output from a single CSD field.
_refine_ls_R_factor_gt 0.0378
_refine_ls_wR_factor_gt 0.0378
_symmetry_cell_setting monoclinic
_symmetry_space_group_name_H-M 'P 21/n'
_symmetry_Int_Tables_number 14
loop_
_symmetry_equiv_pos_site_id
_symmetry_equiv_pos_as_xyz
1 x,y,z
2 1/2+x,1/2-y,1/2+z
3 -x,-y,-z
4 -1/2-x,-1/2+y,-1/2-z
_cell_length_a 6.4904(4)
_cell_length_b 16.7850(11)
_cell_length_c 8.2216(5)
_cell_angle_alpha 90
_cell_angle_beta 102.454(1)
_cell_angle_gamma 90
_cell_formula_units_Z 4
loop_
_atom_type_symbol
_atom_type_radius_bond
C 0.68
H 0.23
N 0.68
O 0.68
loop_
_atom_site_label
_atom_site_type_symbol
_atom_site_fract_x
_atom_site_fract_y
_atom_site_fract_z
O1 O 0.47942(13) 0.13321(5) 0.52097(10)
N1 N 0.55215(16) 0.22678(6) 0.82012(13)
O2 O -0.04781(15) 0.13519(6) 1.06445(12)
O3 O 0.70101(13) 0.22458(5) 0.75054(12)
O4 O -0.20862(14) 0.04454(6) 0.89654(12)
N2 N 0.19957(15) 0.06847(6) 0.58920(12)
N3 N -0.06835(16) 0.09440(6) 0.93861(12)
C1 C 0.38045(17) 0.16908(6) 0.77228(14)
C2 C 0.08208(17) 0.10555(7) 0.83244(14)
O5 O 0.53819(15) 0.27393(6) 0.93101(13)
C3 C 0.24064(18) 0.16170(7) 0.87550(14)
C4 C 0.06690(18) 0.05958(7) 0.69121(15)
C5 C 0.35321(17) 0.12264(7) 0.62525(14)
C6 C 0.42438(19) 0.09208(7) 0.36097(15)
C7 C 0.5858(2) 0.11673(8) 0.26465(17)
H1 H 0.426(2) 0.0357(9) 0.3817(19)
H2 H 0.281(2) 0.1087(9) 0.3068(18)
H3 H 0.251(2) 0.1949(10) 0.970(2)
H4 H -0.038(2) 0.0203(10) 0.662(2)
H5 H 0.562(3) 0.0867(10) 0.161(2)
H6 H 0.573(3) 0.1728(11) 0.234(2)
H7 H 0.727(3) 0.1026(12) 0.330(2)
#END
