
#######################################################################
#
#                 Cambridge Crystallographic Data Centre
#                                CCDC
#
#######################################################################
#
# If this CIF has been generated from an entry in the Cambridge
# Structural Database, then it will include bibliographic, chemical,
# crystal, experimental, refinement or atomic coordinate data resulting
# from the CCDC's data processing and validation procedures.
#
#######################################################################

data_CSD_CIF_GADBAP01
_audit_creation_date 2003-08-07
_audit_creation_method CSD-ConQuest-V1
_database_code_CSD GADBAP01
_database_code_depnum_ccdc_archive 'CCDC 199380'
_chemical_formula_sum 'C8 H7 N1 O4'
_chemical_formula_moiety
;
C8 H7 N1 O4
;
_journal_coden_Cambridge 177
_journal_volume 1
_journal_year 2003
_journal_page_first 1191
_journal_name_full 'Org.Biomol.Chem. '
loop_
_publ_author_name
"D.E.Hibbs"
"J.Overgaard"
"R.O.Piltz"
_chemical_name_systematic
;
1-(2-Hydroxy-5-nitrophenyl)ethanone
;
_cell_volume    795.598
_exptl_crystal_colour 'yellow'
_exptl_crystal_density_diffrn 1.512
_exptl_crystal_description 'block'
_exptl_crystal_preparation 'diethyl ether'
_diffrn_ambient_temperature 100
_diffrn_radiation_probe 'neutron radiation'
_diffrn_special_details
;
charge density study

;
_refine_special_details
;
multipole refinement

;
#These two values have been output from a single CSD field.
_refine_ls_R_factor_gt 0.0226
_refine_ls_wR_factor_gt 0.0226
_symmetry_cell_setting orthorhombic
_symmetry_space_group_name_H-M 'P c a 21'
_symmetry_Int_Tables_number 29
loop_
_symmetry_equiv_pos_site_id
_symmetry_equiv_pos_as_xyz
1 x,y,z
2 -x,-y,1/2+z
3 1/2-x,y,1/2+z
4 1/2+x,-y,z
_cell_length_a 15.1929(6)
_cell_length_b 7.2142(3)
_cell_length_c 7.2588(3)
_cell_angle_alpha 90
_cell_angle_beta 90
_cell_angle_gamma 90
_cell_formula_units_Z 4
loop_
_atom_type_symbol
_atom_type_radius_bond
C 0.68
H 0.23
N 0.68
O 0.68
loop_
_atom_site_label
_atom_site_type_symbol
_atom_site_fract_x
_atom_site_fract_y
_atom_site_fract_z
C1 C 0.23392(12) 0.1649(2) 0.1434(3)
C2 C 0.32472(12) 0.1266(3) 0.1153(3)
C3 C 0.38670(13) 0.2604(3) 0.1649(3)
C4 C 0.35917(13) 0.4251(3) 0.2423(3)
C5 C 0.26963(13) 0.4670(3) 0.2672(3)
C6 C 0.20764(12) 0.3368(3) 0.2158(3)
C7 C 0.35171(14) -0.0511(3) 0.0323(3)
C8 C 0.44686(15) -0.0864(3) -0.0122(4)
N1 N 0.42463(10) 0.55989(19) 0.3015(3)
O1 O 0.17083(17) 0.0450(4) 0.1000(4)
O2 O 0.29557(17) -0.1699(3) -0.0022(4)
O3 O 0.40031(16) 0.7012(3) 0.3814(4)
O4 O 0.50242(18) 0.5257(4) 0.2711(5)
H1 H 0.2000(3) -0.0694(7) 0.0519(8)
H2 H 0.4572(3) 0.2370(6) 0.1434(8)
H3 H 0.2495(3) 0.5988(6) 0.3268(8)
H4 H 0.1382(3) 0.3639(7) 0.2347(8)
H5 H 0.4526(3) -0.2181(7) -0.0831(9)
H6 H 0.4856(3) -0.0934(8) 0.1124(9)
H7 H 0.4740(3) 0.0244(7) -0.0959(10)
#END
