
#######################################################################
#
#                 Cambridge Crystallographic Data Centre
#                                CCDC
#
#######################################################################
#
# If this CIF has been generated from an entry in the Cambridge
# Structural Database, then it will include bibliographic, chemical,
# crystal, experimental, refinement or atomic coordinate data resulting
# from the CCDC's data processing and validation procedures.
#
#######################################################################

data_CSD_CIF_GADCIA
_audit_creation_date 2016-01-26
_audit_creation_method CSD-ConQuest-V1
_database_code_CSD GADCIA
_database_code_depnum_ccdc_archive 'CCDC 1444164'
_chemical_formula_sum 'C16 H27 N3 O6'
_chemical_formula_moiety
;
C16 H27 N3 O6
;
_journal_coden_Cambridge 177
_journal_volume 14
_journal_year 2016
_journal_page_first 2427
_journal_name_full 'Org.Biomol.Chem. '
loop_
_publ_author_name
"V.Mane"
"J.Pandey"
"N.Ayyagari"
"Chandan Dey"
"R.Kale"
"I.N.N.Namboothiri"
_chemical_name_systematic
;
Di-isopropyl 1-(2-cyclohexyl-1-nitrovinyl)hydrazine-1,2-dicarboxylate
;
_cell_volume    982.386
_exptl_crystal_colour 'colorless'
_exptl_crystal_density_diffrn 1.208
_exptl_crystal_description 'prism'
_diffrn_ambient_temperature 100
#These two values have been output from a single CSD field.
_refine_ls_R_factor_gt 0.0518
_refine_ls_wR_factor_gt 0.0518
_symmetry_cell_setting triclinic
_symmetry_space_group_name_H-M 'P -1'
_symmetry_Int_Tables_number 2
loop_
_symmetry_equiv_pos_site_id
_symmetry_equiv_pos_as_xyz
1 x,y,z
2 -x,-y,-z
_cell_length_a 9.777(5)
_cell_length_b 10.159(5)
_cell_length_c 10.306(5)
_cell_angle_alpha 102.265(7)
_cell_angle_beta 100.480(6)
_cell_angle_gamma 90.508(8)
_cell_formula_units_Z 2
loop_
_atom_type_symbol
_atom_type_radius_bond
C 0.68
H 0.23
N 0.68
O 0.68
loop_
_atom_site_label
_atom_site_type_symbol
_atom_site_fract_x
_atom_site_fract_y
_atom_site_fract_z
O1 O 0.29945(12) 0.56324(13) 0.51513(13)
O2 O 0.25335(12) 0.59235(12) 0.72782(13)
O3 O 0.26486(12) 0.19814(13) 0.46394(14)
O4 O 0.46069(12) 0.19537(13) 0.37311(13)
O5 O 0.60932(13) 0.50073(14) 0.82396(15)
O6 O 0.57753(14) 0.36324(14) 0.95307(15)
N1 N 0.44946(14) 0.34840(16) 0.55776(16)
N2 N 0.37707(14) 0.41954(15) 0.65241(15)
N3 N 0.53863(15) 0.41755(16) 0.85687(17)
C1 C 0.37950(17) 0.24299(17) 0.46321(18)
C2 C 0.30815(16) 0.53123(18) 0.62332(18)
C3 C 0.39561(16) 0.38240(17) 0.77696(18)
C4 C 0.15161(17) 0.29502(18) 0.76315(19)
C5 C 0.30103(17) 0.32544(17) 0.82832(19)
C6 C 0.1125(2) 0.14298(18) 0.7301(3)
C7 C 0.17513(19) 0.71279(18) 0.7129(2)
C8 C 0.05977(18) 0.37162(19) 0.8576(2)
C9 C 0.3990(2) 0.08618(18) 0.2598(2)
C10 C -0.0420(2) 0.1164(2) 0.6655(3)
C11 C -0.09441(19) 0.3456(2) 0.7940(3)
C12 C 0.0317(2) 0.6699(3) 0.6328(3)
C13 C 0.1752(3) 0.7880(2) 0.8557(3)
C14 C 0.3476(4) 0.1474(3) 0.1416(3)
C15 C -0.1348(2) 0.1949(3) 0.7562(3)
C16 C 0.5106(3) -0.0114(3) 0.2366(3)
H1 H 0.53500 0.37000 0.55870
H2 H 0.13490 0.32720 0.67870
H3 H 0.33030 0.30280 0.91140
H4 H 0.13120 0.10900 0.81240
H5 H 0.16890 0.09570 0.66850
H6 H 0.22340 0.76820 0.66650
H7 H 0.07750 0.34300 0.94280
H8 H 0.08360 0.46750 0.87590
H9 H 0.32090 0.04120 0.28340
H10 H -0.06590 0.02070 0.64930
H11 H -0.05860 0.14260 0.57900
H12 H -0.15010 0.39090 0.85740
H13 H -0.11400 0.38270 0.71370
H14 H 0.03830 0.62360 0.54290
H15 H -0.02210 0.74800 0.62870
H16 H -0.01270 0.61080 0.67550
H17 H 0.26930 0.81310 0.90150
H18 H 0.13290 0.73120 0.90240
H19 H 0.12340 0.86770 0.85400
H20 H 0.27680 0.20890 0.16270
H21 H 0.30950 0.07750 0.06460
H22 H 0.42360 0.19520 0.12150
H23 H -0.23110 0.18120 0.70960
H24 H -0.12720 0.16040 0.83790
H25 H 0.53770 -0.04860 0.31510
H26 H 0.58970 0.03460 0.22020
H27 H 0.47580 -0.08270 0.15980
#END
