
#######################################################################
#
#                 Cambridge Crystallographic Data Centre
#                                CCDC
#
#######################################################################
#
# If this CIF has been generated from an entry in the Cambridge
# Structural Database, then it will include bibliographic, chemical,
# crystal, experimental, refinement or atomic coordinate data resulting
# from the CCDC's data processing and validation procedures.
#
#######################################################################

data_CSD_CIF_GADFID
_audit_creation_date 2016-01-26
_audit_creation_method CSD-ConQuest-V1
_database_code_CSD GADFID
_database_code_depnum_ccdc_archive 'CCDC 1444628'
_chemical_formula_sum 'C8 H12 N4 O2'
_chemical_formula_moiety
;
C8 H12 N4 O2
;
_journal_coeditor_code "su5263"
_journal_coden_Cambridge 1959
_journal_volume 1
_journal_year 2016
_journal_page_first x152488
_journal_name_full 'IUCrData '
loop_
_publ_author_name
"N.Beliaev"
"P.Slepukhin"
_chemical_name_systematic
;
N,N-Dimethyl-2-(1-methyl-5-nitro-1H-imidazol-4-yl)ethenamine
;
_cell_volume   1905.638
_exptl_crystal_colour 'red'
_exptl_crystal_density_diffrn 1.368
_exptl_crystal_description 'prism'
_diffrn_ambient_temperature 295
#These two values have been output from a single CSD field.
_refine_ls_R_factor_gt 0.0379
_refine_ls_wR_factor_gt 0.0379
_symmetry_cell_setting monoclinic
_symmetry_space_group_name_H-M 'P 21/c'
_symmetry_Int_Tables_number 14
loop_
_symmetry_equiv_pos_site_id
_symmetry_equiv_pos_as_xyz
1 x,y,z
2 -x,1/2+y,1/2-z
3 -x,-y,-z
4 x,-1/2-y,-1/2+z
_cell_length_a 10.5015(12)
_cell_length_b 23.561(3)
_cell_length_c 7.7533(6)
_cell_angle_alpha 90
_cell_angle_beta 96.604(8)
_cell_angle_gamma 90
_cell_formula_units_Z 8
loop_
_atom_type_symbol
_atom_type_radius_bond
C 0.68
H 0.23
N 0.68
O 0.68
loop_
_atom_site_label
_atom_site_type_symbol
_atom_site_fract_x
_atom_site_fract_y
_atom_site_fract_z
N1 N 0.44977(16) 0.40312(6) 0.2065(2)
O1 O 0.66579(13) 0.42352(6) 0.43092(17)
C1 C 0.46003(19) 0.46466(8) 0.2120(2)
H1 H 0.39080 0.48100 0.13650
H2 H 0.54020 0.47600 0.17450
H3 H 0.45590 0.47760 0.32860
O2 O 0.71826(12) 0.33445(6) 0.43022(17)
N2 N 0.49194(15) 0.15456(7) 0.21675(19)
C2 C 0.3544(2) 0.37399(10) 0.1211(3)
N3 N 0.36672(15) 0.31899(7) 0.12659(19)
C3 C 0.5290(2) 0.25429(8) 0.2591(3)
C4 C 0.48305(17) 0.30967(7) 0.2234(2)
N4 N 0.64519(17) 0.37394(7) 0.3824(2)
C5 C 0.53483(19) 0.36189(8) 0.2743(2)
C6 C 0.4020(2) 0.11081(8) 0.1539(3)
H4 H 0.33690 0.12680 0.07100
H5 H 0.36300 0.09520 0.24950
H6 H 0.44630 0.08130 0.09950
C7 C 0.60698(19) 0.13755(8) 0.3232(2)
H7 H 0.68030 0.15290 0.27590
H8 H 0.61250 0.09690 0.32540
H9 H 0.60490 0.15150 0.43910
C8 C 0.4624(2) 0.20899(9) 0.1940(3)
H10 H 0.2798(15) 0.3923(6) 0.0652(19)
H11 H 0.3814(15) 0.2149(6) 0.1173(19)
H12 H 0.6049(15) 0.2509(6) 0.3238(19)
N5 N 1.04292(17) -0.01495(7) 0.7905(2)
O3 O 0.80215(14) -0.03162(6) 0.6211(2)
C9 C 1.02942(19) -0.07638(7) 0.7864(2)
H13 H 1.10080 -0.09330 0.85640
H14 H 1.02730 -0.08950 0.66890
H15 H 0.95120 -0.08690 0.83120
O4 O 0.78287(14) 0.05713(6) 0.56123(18)
N6 N 1.02826(16) 0.23407(8) 0.7367(2)
C10 C 1.1448(2) 0.01246(9) 0.8654(3)
N7 N 1.14002(15) 0.06755(7) 0.8499(2)
C11 C 0.9826(2) 0.13453(8) 0.7150(3)
C12 C 1.02459(18) 0.07855(7) 0.7556(2)
N8 N 0.84503(18) 0.01685(7) 0.6297(2)
C13 C 0.96365(19) 0.02736(8) 0.7181(2)
C14 C 1.12128(19) 0.27801(8) 0.7863(3)
H16 H 1.19920 0.26110 0.83940
H17 H 1.08810 0.30330 0.86720
H18 H 1.13840 0.29880 0.68500
C15 C 0.9047(2) 0.25138(8) 0.6542(3)
H19 H 0.83880 0.23480 0.71400
H20 H 0.89470 0.23890 0.53550
H21 H 0.89810 0.29200 0.65800
C16 C 1.0565(2) 0.17934(9) 0.7605(3)
H22 H 1.2150(16) -0.0078(6) 0.927(2)
H23 H 1.1417(15) 0.1740(6) 0.8116(19)
H24 H 0.9011(15) 0.1399(6) 0.6555(19)
#END
