
#######################################################################
#
#                 Cambridge Crystallographic Data Centre
#                                CCDC
#
#######################################################################
#
# If this CIF has been generated from an entry in the Cambridge
# Structural Database, then it will include bibliographic, chemical,
# crystal, experimental, refinement or atomic coordinate data resulting
# from the CCDC's data processing and validation procedures.
#
#######################################################################

data_CSD_CIF_GADGUP
_audit_creation_date 2011-03-04
_audit_creation_method CSD-ConQuest-V1
_database_code_CSD GADGUP
_database_code_depnum_ccdc_archive 'CCDC 760009'
_chemical_formula_sum 'C27 H27 N7 O9'
_chemical_formula_moiety
;
C27 H27 N7 O9
;
_journal_coden_Cambridge 155
_journal_volume 363
_journal_year 2010
_journal_page_first 2886
_journal_name_full 'Inorg.Chim.Acta '
loop_
_publ_author_name
"I.Ravikumar"
"P.S.Lakshminarayanan"
"P.Ghosh"
_chemical_name_systematic
;
N,N',N''-(Nitrilotriethane-2,1-diyl)tris(2-nitrobenzamide)
;
_cell_volume   2771.008
_exptl_crystal_colour 'colorless'
_exptl_crystal_density_diffrn 1.423
_exptl_crystal_description 'blocks'
_diffrn_ambient_temperature 100
#These two values have been output from a single CSD field.
_refine_ls_R_factor_gt 0.0398
_refine_ls_wR_factor_gt 0.0398
_symmetry_cell_setting triclinic
_symmetry_space_group_name_H-M 'P -1'
_symmetry_Int_Tables_number 2
loop_
_symmetry_equiv_pos_site_id
_symmetry_equiv_pos_as_xyz
1 x,y,z
2 -x,-y,-z
_cell_length_a 12.8485(8)
_cell_length_b 13.7087(8)
_cell_length_c 16.6556(10)
_cell_angle_alpha 81.673(1)
_cell_angle_beta 78.193(1)
_cell_angle_gamma 75.892(1)
_cell_formula_units_Z 4
loop_
_atom_type_symbol
_atom_type_radius_bond
C 0.68
H 0.23
N 0.68
O 0.68
loop_
_atom_site_label
_atom_site_type_symbol
_atom_site_fract_x
_atom_site_fract_y
_atom_site_fract_z
O1 O 0.78318(9) 0.77350(8) 0.14258(7)
O2 O 0.92623(10) 0.07907(8) 0.12667(7)
O3 O 0.69666(10) 0.47947(8) 0.51113(8)
O4 O 0.8265(1) 0.75340(9) 0.57616(7)
O5 O 0.56664(10) 0.89854(9) 0.15393(7)
N1 N 0.91921(12) 0.23756(11) 0.15201(9)
O6 O 0.92438(10) 0.43065(8) 0.06263(7)
N2 N 0.86492(11) 0.89958(11) 0.15025(9)
O7 O 0.69907(11) 0.15388(11) 0.19195(8)
N3 N 0.88505(11) 0.8008(1) 0.37325(8)
N4 N 0.76127(12) 0.31745(11) 0.48095(9)
O8 O 0.54466(11) 0.80376(11) 0.06858(8)
N5 N 0.89974(11) 0.3793(1) 0.26202(8)
N6 N 0.82898(12) 0.94843(11) 0.48697(9)
O9 O 0.79826(11) 0.32449(11) 0.65192(9)
O10 O 0.58744(11) 0.43138(11) 0.08706(9)
O11 O 0.75718(11) 0.19647(12) 0.73332(9)
N7 N 0.66255(11) 0.16129(11) 0.12866(9)
N8 N 0.89366(12) 0.56923(11) 0.13158(9)
N9 N 0.82216(12) 0.63010(11) 0.50030(9)
O12 O 0.84323(11) 0.53849(11) 0.67167(9)
N10 N 0.65817(12) 0.47310(11) 0.09535(9)
N11 N 0.58745(11) 0.86603(11) 0.08662(9)
C1 C 0.80446(13) 0.85680(12) 0.11642(10)
O13 O 0.57944(11) 0.13398(11) 0.12542(9)
O14 O 0.76434(11) 0.85076(12) 0.74211(8)
O15 O 0.70049(12) 0.45612(12) 0.15658(9)
N12 N 0.76533(12) 0.91983(14) 0.68726(9)
C2 C 0.82694(13) 0.21535(12) 0.04665(10)
C3 C 0.87583(13) 0.51726(12) 0.07629(10)
C4 C 0.89417(13) 0.17136(12) 0.11299(10)
C5 C 0.92412(14) 0.69226(12) 0.36633(10)
C6 C 0.83859(13) 0.85349(13) 0.30151(10)
C7 C 0.81745(14) 0.35367(13) 0.33104(10)
O16 O 0.84436(11) 0.95701(14) 0.65890(9)
C8 C 0.66188(15) 0.24127(13) -0.01125(11)
C9 C 0.66486(15) 1.01969(12) 0.57852(11)
C10 C 0.69461(13) 0.38908(12) 0.52378(10)
C11 C 0.87463(15) 0.26270(14) -0.02632(11)
C12 C 0.66533(14) 0.90897(12) 0.0223(1)
C13 C 0.66331(14) 0.96438(13) 0.65534(10)
N13 N 0.75236(13) 0.53653(12) 0.71009(9)
N14 N 0.73490(12) 0.27048(12) 0.68414(9)
C14 C 0.92425(15) 0.47673(13) 0.2681(1)
C15 C 0.71985(13) 0.20587(12) 0.0519(1)
C16 C 0.92152(15) 0.95096(13) 0.42017(11)
C17 C 0.97784(15) 0.20653(13) 0.22094(11)
C18 C 0.91761(14) 0.84767(14) 0.21898(10)
C19 C 0.67405(14) 0.67580(12) 0.61201(10)
C20 C 0.79173(14) 0.57429(12) 0.02497(10)
C21 C 0.78315(13) 0.68828(12) 0.56204(10)
C22 C 0.63183(15) 0.94907(13) -0.05156(10)
C23 C 0.85064(14) 0.33712(14) 0.41599(10)
C24 C 0.92861(14) 0.62871(13) 0.44876(11)
C25 C 0.76551(13) 0.91387(12) 0.03995(10)
C26 C 0.62471(14) 0.29779(13) 0.66348(11)
C27 C 0.65875(14) 0.60678(12) 0.68117(10)
C28 C 0.62266(16) 0.59145(14) -0.02545(12)
C29 C 0.99900(14) 0.29918(13) 0.24952(10)
C30 C 0.50056(14) 0.37866(13) 0.57395(12)
O17 O 0.77453(15) 1.11586(10) 0.48325(10)
C31 C 0.83209(15) 0.96276(13) -0.02081(11)
C32 C 0.69287(14) 0.54782(13) 0.02889(10)
C33 C 0.97245(14) 0.52744(13) 0.18572(11)
C34 C 0.96837(14) 0.84617(13) 0.39268(11)
C35 C 0.69889(15) 0.99956(13) -0.10998(11)
C36 C 0.81677(16) 0.29918(15) -0.09040(11)
O18 O 0.73484(14) 0.47813(13) 0.77162(10)
C37 C 0.60673(14) 0.35413(12) 0.58888(10)
C38 C 0.55564(16) 0.60201(14) 0.72483(11)
C39 C 0.46886(15) 0.99920(14) 0.68326(11)
C40 C 0.81667(15) 0.65082(13) -0.03522(11)
C41 C 0.65051(16) 0.66593(15) -0.08550(12)
C42 C 0.56720(15) 0.95319(14) 0.70713(11)
C43 C 0.76405(16) 1.03115(13) 0.51419(11)
C44 C 0.79850(16) 1.00619(14) -0.09453(11)
C45 C 0.54189(16) 0.26817(15) 0.72139(12)
C46 C 0.41645(16) 0.34998(15) 0.63199(12)
C47 C 0.71089(16) 0.28864(14) -0.08302(11)
C48 C 0.43641(16) 0.29545(15) 0.70537(13)
C49 C 0.74670(16) 0.69626(14) -0.08950(11)
C50 C 0.46785(17) 1.05592(17) 0.60846(13)
C51 C 0.56455(17) 1.06558(16) 0.55659(13)
C52 C 0.46568(16) 0.66639(15) 0.70030(12)
C53 C 0.58182(16) 0.73945(15) 0.58897(13)
C54 C 0.47851(16) 0.73501(17) 0.63232(13)
H1 H 0.9437(14) 0.7767(14) 0.2090(11)
H2 H 0.9360(14) 0.1705(13) 0.2652(11)
H3 H 0.8941(15) 1.0016(14) 0.3743(12)
H4 H 0.9012(16) 0.9663(14) -0.0099(11)
H5 H 0.8721(15) 0.9588(15) 0.1317(11)
H6 H 0.9992(13) 0.8014(12) 0.4386(10)
H7 H 0.9621(14) 0.5561(13) 0.4372(10)
H8 H 0.8720(15) 0.6722(13) 0.3369(11)
H9 H 1.0325(13) 0.2770(12) 0.2985(10)
H10 H 0.4887(14) 0.4149(13) 0.5230(11)
H11 H 0.7524(15) 0.4081(13) 0.3318(10)
H12 H 0.9768(15) 0.9740(13) 0.4382(11)
H13 H 0.7781(14) 0.8217(13) 0.299(1)
H14 H 0.9955(14) 0.6768(12) 0.3307(10)
H15 H 1.0458(15) 0.1612(14) 0.2043(11)
H16 H 1.0513(14) 0.3251(13) 0.2061(11)
H17 H 0.8096(13) 0.9249(13) 0.3121(10)
H18 H 0.5660(16) 0.9411(14) -0.0593(11)
H19 H 0.9754(16) 0.8801(14) 0.2174(11)
H20 H 0.8543(16) 0.5230(14) 0.2896(11)
H21 H 0.9105(16) 0.2781(15) 0.4188(11)
H22 H 1.0302(15) 0.8522(13) 0.3460(11)
H23 H 0.7898(16) 0.5845(15) 0.4993(11)
H24 H 0.8742(16) 0.3923(15) 0.4273(12)
H25 H 0.6732(15) 1.0315(14) -0.1608(12)
H26 H 0.9764(14) 0.4709(13) 0.3077(11)
H27 H 0.8823(17) 0.6699(14) -0.0386(11)
H28 H 0.7511(17) 0.2564(17) 0.4918(13)
H29 H 0.7963(15) 0.2903(14) 0.3205(11)
H30 H 0.3952(17) 0.6657(14) 0.7315(12)
H31 H 0.4018(16) 0.9924(14) 0.7191(12)
H32 H 1.0004(15) 0.5822(15) 0.1967(11)
H33 H 0.9007(16) 0.2988(16) 0.1391(12)
H34 H 0.3821(18) 0.2773(16) 0.7437(13)
H35 H 0.9693(15) 0.6517(14) 0.4797(12)
H36 H 0.8570(16) 0.6305(16) 0.1364(11)
H37 H 0.5571(15) 0.2325(14) 0.7702(12)
H38 H 1.0343(16) 0.4799(14) 0.1572(11)
H39 H 0.9477(17) 0.2702(14) -0.0330(12)
H40 H 0.8204(16) 0.8921(16) 0.5100(12)
H41 H 0.5886(17) 0.2355(14) -0.0040(12)
H42 H 0.5600(17) 0.5710(14) -0.0219(12)
H43 H 0.8430(16) 1.0407(15) -0.1349(12)
H44 H 0.8489(15) 0.3327(14) -0.1394(12)
H45 H 0.6684(17) 0.3177(15) -0.1269(13)
H46 H 0.3451(18) 0.3693(15) 0.6204(12)
H47 H 0.7664(16) 0.7478(16) -0.1293(13)
H48 H 0.5520(16) 0.5544(15) 0.7711(13)
H49 H 0.6040(17) 0.6931(15) -0.1244(13)
H50 H 0.5714(17) 0.9144(15) 0.7592(13)
H51 H 0.418(2) 0.7773(18) 0.6139(15)
H52 H 0.5641(18) 1.0999(17) 0.5022(14)
H53 H 0.400(2) 1.0845(18) 0.5950(15)
H54 H 0.5887(18) 0.7848(17) 0.5412(14)
#END
