
#######################################################################
#
#                 Cambridge Crystallographic Data Centre
#                                CCDC
#
#######################################################################
#
# If this CIF has been generated from an entry in the Cambridge
# Structural Database, then it will include bibliographic, chemical,
# crystal, experimental, refinement or atomic coordinate data resulting
# from the CCDC's data processing and validation procedures.
#
#######################################################################

data_CSD_CIF_GADPOR
_audit_creation_date 2003-08-07
_audit_creation_method CSD-ConQuest-V1
_database_code_CSD GADPOR
_database_code_depnum_ccdc_archive 'CCDC 214163'
_chemical_formula_sum 'C14 H17 N5 O4'
_chemical_formula_moiety
;
C14 H17 N5 O4
;
_journal_coeditor_code "IUCr SK1629"
_journal_coden_Cambridge 591
_journal_volume 59
_journal_year 2003
_journal_page_first o237
_journal_name_full 'Acta Crystallogr.,Sect.C:Cryst.Struct.Commun. '
loop_
_publ_author_name
"R.Abonia"
"C.Glidewell"
"J.N.Low"
"M.Nogueras"
"J.Quiroga"
_chemical_name_systematic
;
6-Amino-2-(3,4-dimethoxybenzylamino)-3-methyl-5-nitroso-pyrimidin-4(3H)-one
;
_chemical_melting_point 496
_cell_volume   1484.732
_exptl_crystal_colour 'pink'
_exptl_crystal_density_diffrn 1.429
_exptl_crystal_description 'block'
_exptl_crystal_preparation 'DMSO'
_diffrn_ambient_temperature 120
#These two values have been output from a single CSD field.
_refine_ls_R_factor_gt 0.0448
_refine_ls_wR_factor_gt 0.0448
_symmetry_cell_setting monoclinic
_symmetry_space_group_name_H-M 'P 21/c'
_symmetry_Int_Tables_number 14
loop_
_symmetry_equiv_pos_site_id
_symmetry_equiv_pos_as_xyz
1 x,y,z
2 x,1/2-y,1/2+z
3 -x,-y,-z
4 -x,-1/2+y,-1/2-z
_cell_length_a 12.8488(10)
_cell_length_b 7.4416(10)
_cell_length_c 16.962(2)
_cell_angle_alpha 90
_cell_angle_beta 113.728(8)
_cell_angle_gamma 90
_cell_formula_units_Z 4
loop_
_atom_type_symbol
_atom_type_radius_bond
C 0.68
H 0.23
N 0.68
O 0.68
loop_
_atom_site_label
_atom_site_type_symbol
_atom_site_fract_x
_atom_site_fract_y
_atom_site_fract_z
O1 O 0.38137(9) 0.34968(14) 0.67339(7)
O2 O 0.37787(10) -0.04153(14) 0.51094(7)
O3 O -0.03951(11) 0.74513(18) 0.20514(8)
O4 O -0.07906(10) 0.80129(16) 0.04642(8)
N1 N 0.36011(11) 0.15896(16) 0.40592(8)
N2 N 0.35439(11) 0.36436(16) 0.30223(8)
N3 N 0.35778(10) 0.47540(16) 0.42846(8)
N4 N 0.36632(11) 0.58658(16) 0.55531(8)
N5 N 0.38368(11) 0.22268(16) 0.62241(8)
C1 C 0.35747(12) 0.33502(18) 0.38003(9)
C2 C 0.36534(12) 0.44606(19) 0.50815(9)
C3 C 0.37418(12) 0.26720(19) 0.54363(9)
C4 C 0.37152(12) 0.11596(19) 0.48890(9)
C5 C 0.35491(15) 0.0122(2) 0.34696(10)
C6 C 0.23825(13) 0.60791(19) 0.20803(10)
C7 C 0.15443(14) 0.6461(2) 0.23842(10)
C8 C 0.04918(14) 0.7062(2) 0.18298(11)
C9 C 0.02595(13) 0.7319(2) 0.09518(10)
C10 C 0.10768(14) 0.6908(2) 0.06532(10)
C11 C 0.21395(13) 0.6282(2) 0.12188(10)
C12 C 0.35466(13) 0.54514(19) 0.26832(10)
C13 C -0.02022(18) 0.7212(3) 0.29277(13)
C14 C -0.10504(15) 0.8221(2) -0.04285(11)
H1 H 0.35210 0.27140 0.26950
H2 H 0.36210 0.69550 0.53400
H3 H 0.37120 0.57180 0.60820
H4 H 0.28780 0.02740 0.29290
H5 H 0.34990 -0.10290 0.37330
H6 H 0.42350 0.01380 0.33510
H7 H 0.17030 0.63040 0.29770
H8 H 0.00220 0.59650 0.30970
H9 H -0.09010 0.74860 0.30060
H10 H 0.04060 0.80210 0.32860
H11 H -0.17860 0.88250 -0.07080
H12 H -0.10850 0.70360 -0.06900
H13 H -0.04580 0.89450 -0.05020
H14 H 0.09190 0.70490 0.00590
H15 H 0.27000 0.59940 0.10060
H16 H 0.40560 0.54660 0.23740
H17 H 0.38570 0.63040 0.31710
#END
