
#######################################################################
#
#                 Cambridge Crystallographic Data Centre
#                                CCDC
#
#######################################################################
#
# If this CIF has been generated from an entry in the Cambridge
# Structural Database, then it will include bibliographic, chemical,
# crystal, experimental, refinement or atomic coordinate data resulting
# from the CCDC's data processing and validation procedures.
#
#######################################################################

data_CSD_CIF_GADTUD
_audit_creation_date 2016-01-26
_audit_creation_method CSD-ConQuest-V1
_database_code_CSD GADTUD
_database_code_depnum_ccdc_archive 'CCDC 1424737'
_chemical_formula_sum 'C22 H26 N4 O4'
_chemical_formula_moiety
;
C22 H26 N4 O4
;
_journal_coden_Cambridge 1220
_journal_volume 21
_journal_year 2015
_journal_page_first 19112
_journal_name_full 'Chem.-Eur.J. '
loop_
_publ_author_name
"A.Kaga"
"Xingao Peng"
"H.Hirao"
"Shunsuke Chiba"
_chemical_name_systematic
;
(E)-N-((2R*,6S*)-6-benzyl-2,3,3-trimethylpiperidin-1-yl)-1-(2,4-dinitrophenyl)
methanimine
;
_cell_volume   2061.318
_exptl_crystal_colour 'red'
_exptl_crystal_density_diffrn 1.323
_exptl_crystal_description 'block'
_diffrn_ambient_temperature 103
#These two values have been output from a single CSD field.
_refine_ls_R_factor_gt 0.049
_refine_ls_wR_factor_gt 0.049
_symmetry_cell_setting monoclinic
_symmetry_space_group_name_H-M 'P 21/c'
_symmetry_Int_Tables_number 14
loop_
_symmetry_equiv_pos_site_id
_symmetry_equiv_pos_as_xyz
1 x,y,z
2 -x,1/2+y,1/2-z
3 -x,-y,-z
4 x,-1/2-y,-1/2+z
_cell_length_a 7.8670(7)
_cell_length_b 21.7261(18)
_cell_length_c 12.1297(10)
_cell_angle_alpha 90
_cell_angle_beta 96.137(3)
_cell_angle_gamma 90
_cell_formula_units_Z 4
loop_
_atom_type_symbol
_atom_type_radius_bond
C 0.68
H 0.23
N 0.68
O 0.68
loop_
_atom_site_label
_atom_site_type_symbol
_atom_site_fract_x
_atom_site_fract_y
_atom_site_fract_z
C1 C 0.09777(19) 0.64318(7) 0.38204(12)
H1 H -0.01540 0.63300 0.34040
C2 C 0.1096(2) 0.71318(7) 0.39328(13)
H2 H 0.07040 0.73230 0.32090
H3 H 0.03240 0.72710 0.44760
C3 C 0.2911(2) 0.73498(7) 0.43082(13)
H4 H 0.32410 0.72040 0.50750
H5 H 0.29270 0.78050 0.43200
C4 C 0.4239(2) 0.71209(7) 0.35614(13)
C5 C 0.41178(19) 0.64105(7) 0.35090(13)
H6 H 0.44120 0.62550 0.42820
C6 C 0.1117(2) 0.60777(7) 0.49344(13)
H7 H 0.13560 0.56390 0.47910
H8 H 0.21000 0.62430 0.54240
C7 C -0.0465(2) 0.61174(7) 0.55340(12)
C8 C -0.1812(2) 0.57051(7) 0.52842(13)
H9 H -0.17450 0.54100 0.47130
C9 C -0.3245(2) 0.57194(8) 0.58579(14)
H10 H -0.41420 0.54310 0.56880
C10 C -0.3368(2) 0.61554(8) 0.66786(14)
H11 H -0.43460 0.61660 0.70750
C11 C -0.2059(2) 0.65762(8) 0.69190(14)
H12 H -0.21500 0.68810 0.74720
C12 C -0.0612(2) 0.65553(7) 0.63562(13)
H13 H 0.02860 0.68430 0.65340
C13 C 0.6023(2) 0.73105(8) 0.41032(14)
H14 H 0.60440 0.77550 0.42390
H15 H 0.68840 0.72050 0.36070
H16 H 0.62760 0.70920 0.48080
C14 C 0.3936(2) 0.74089(8) 0.24046(13)
H17 H 0.28740 0.72460 0.20170
H18 H 0.48950 0.73080 0.19840
H19 H 0.38450 0.78570 0.24730
C15 C 0.5346(2) 0.61050(8) 0.27922(15)
H20 H 0.53270 0.56580 0.29040
H21 H 0.65060 0.62600 0.30000
H22 H 0.49990 0.61990 0.20100
C16 C 0.07406(19) 0.53996(6) 0.23750(12)
H23 H -0.02480 0.55090 0.27170
C17 C 0.07564(19) 0.48750(6) 0.16327(12)
C18 C -0.06275(19) 0.44739(7) 0.13414(12)
C19 C -0.0574(2) 0.40027(7) 0.05713(12)
H24 H -0.15420 0.37480 0.03790
C20 C 0.09146(19) 0.39136(7) 0.00938(12)
C21 C 0.23487(19) 0.42807(7) 0.03633(12)
H25 H 0.33760 0.42060 0.00390
C22 C 0.22506(19) 0.47533(7) 0.11065(12)
H26 H 0.32220 0.50090 0.12760
N1 N 0.23249(15) 0.62167(6) 0.31561(10)
N2 N 0.21619(16) 0.57113(5) 0.25446(10)
N3 N -0.22483(17) 0.45204(6) 0.18390(12)
N4 N 0.09663(17) 0.34216(6) -0.07252(10)
O1 O -0.35393(17) 0.43111(8) 0.13130(13)
O2 O -0.22610(15) 0.47531(5) 0.27572(10)
O3 O -0.03271(15) 0.31101(5) -0.09546(10)
O4 O 0.22951(16) 0.33471(6) -0.11544(10)
#END
