
#######################################################################
#
#                 Cambridge Crystallographic Data Centre
#                                CCDC
#
#######################################################################
#
# If this CIF has been generated from an entry in the Cambridge
# Structural Database, then it will include bibliographic, chemical,
# crystal, experimental, refinement or atomic coordinate data resulting
# from the CCDC's data processing and validation procedures.
#
#######################################################################

data_CSD_CIF_GAFNOQ
_audit_creation_date 1988-10-09
_audit_creation_method CSD-ConQuest-V1
_database_code_CSD GAFNOQ
_database_code_depnum_ccdc_archive 'CCDC 1162687'
_chemical_formula_sum 'C12 H12 N2 O4'
_chemical_formula_moiety
;
C12 H12 N2 O4
;
_journal_coden_Cambridge 34
_journal_volume 23
_journal_year 1986
_journal_page_first 177
_journal_name_full 'J.Heterocycl.Chem. '
loop_
_publ_author_name
"H.Tanida"
"T.Irie"
"Y.Wakisaka"
_chemical_name_systematic
;
3-Nitro-5,6,7,8-tetrahydro-5,8-methanoisoquinolin-6-(exo)-ol acetate
;
_chemical_melting_point 368.15
_cell_volume   2396.805
_exptl_crystal_colour 'yellow'
_exptl_crystal_density_diffrn 1.376
_exptl_special_details
;
Melting point range 368.15-369.15K
mutagenic activity

;
_diffrn_ambient_temperature ?
_diffrn_special_details
;
The study was carried out at room temperature,in the range 283-303K

;
#These two values have been output from a single CSD field.
_refine_ls_R_factor_gt 0.055
_refine_ls_wR_factor_gt 0.055
_symmetry_cell_setting orthorhombic
_symmetry_space_group_name_H-M 'P n 21 a'
_symmetry_Int_Tables_number 33
loop_
_symmetry_equiv_pos_site_id
_symmetry_equiv_pos_as_xyz
1 x,y,z
2 1/2-x,1/2+y,1/2+z
3 1/2+x,y,1/2-z
4 -x,1/2+y,-z
_cell_length_a 10.185(1)
_cell_length_b 24.146(3)
_cell_length_c 9.746(1)
_cell_angle_alpha 90
_cell_angle_beta 90
_cell_angle_gamma 90
_cell_formula_units_Z 8
loop_
_atom_type_symbol
_atom_type_radius_bond
C 0.68
H 0.23
N 0.68
O 0.68
loop_
_atom_site_label
_atom_site_type_symbol
_atom_site_fract_x
_atom_site_fract_y
_atom_site_fract_z
C1 C 1.0064(3) 0.2283(2) 0.9311(4)
C2 C 0.9168(3) 0.1821(2) 0.8741(4)
C3 C 0.7971(4) 0.2136(2) 0.8183(4)
C4 C 0.8311(4) 0.2759(2) 0.8496(4)
C5 C 0.8259(3) 0.2801(2) 1.0034(4)
C6 C 0.7393(4) 0.3043(2) 1.0958(5)
N1 N 0.7561(4) 0.3003(2) 1.2308(4)
C7 C 0.8591(4) 0.2723(2) 1.2726(4)
C8 C 0.9542(4) 0.2460(2) 1.1936(4)
C9 C 0.9344(3) 0.2508(2) 1.0544(4)
C10 C 0.9799(4) 0.2746(2) 0.8271(4)
O1 O 0.9900(3) 0.1566(1) 0.7631(3)
C11 C 0.9475(5) 0.1075(2) 0.7177(5)
O2 O 0.8580(5) 0.0827(2) 0.7690(6)
C12 C 1.0256(5) 0.0906(3) 0.5951(7)
N2 N 0.8721(4) 0.2678(2) 1.4257(4)
O3 O 0.7981(5) 0.2958(2) 1.4962(4)
O4 O 0.9550(6) 0.2358(2) 1.4689(4)
H1 H 1.100(5) 0.218(2) 0.952(5)
H2 H 0.884(5) 0.154(2) 0.948(6)
H3 H 0.712(6) 0.202(3) 0.855(6)
H4 H 0.803(6) 0.210(3) 0.711(7)
H5 H 0.771(6) 0.303(3) 0.801(6)
H6 H 0.660(6) 0.329(3) 1.048(6)
H7 H 1.030(5) 0.225(2) 1.244(6)
H8 H 1.027(6) 0.311(3) 0.846(6)
H9 H 1.003(5) 0.260(3) 0.735(6)
C13 C 0.2302(4) -0.0190(2) -0.0195(5)
C14 C 0.1409(6) 0.0272(2) 0.0320(5)
C15 C 0.0195(5) -0.0039(2) 0.0901(5)
C16 C 0.0546(5) -0.0659(2) 0.0698(4)
C17 C 0.0525(4) -0.0748(2) -0.0846(4)
C18 C -0.0275(4) -0.1047(2) -0.1718(4)
N3 N -0.0078(3) -0.1043(2) -0.3075(4)
C19 C 0.0898(4) -0.0743(2) -0.3533(4)
C20 C 0.1772(4) -0.0428(2) -0.2775(4)
C21 C 0.1566(4) -0.0449(2) -0.1386(4)
C22 C 0.2056(5) -0.0635(2) 0.0919(5)
O5 O 0.2183(4) 0.0539(1) 0.1398(4)
C23 C 0.1789(5) 0.1027(2) 0.1821(5)
O6 O 0.0828(5) 0.1243(2) 0.1410(6)
C24 C 0.2592(6) 0.1234(3) 0.2985(8)
N4 N 0.1052(4) -0.0740(2) -0.5063(4)
O7 O 0.1991(7) -0.0504(4) -0.5512(5)
O8 O 0.0274(4) -0.1009(3) -0.5742(4)
H10 H 0.328(6) -0.011(3) -0.068(7)
H11 H 0.130(6) 0.055(3) -0.040(7)
H12 H -0.071(6) -0.002(3) 0.065(7)
H13 H -0.030(7) 0.000(3) 0.184(7)
H14 H 0.009(6) -0.092(3) 0.135(7)
H15 H -0.104(6) -0.129(3) -0.131(6)
H16 H 0.262(6) -0.026(3) -0.324(7)
H17 H 0.231(6) -0.048(3) 0.182(7)
H18 H 0.241(6) -0.094(3) 0.058(7)
#END
