
#######################################################################
#
#                 Cambridge Crystallographic Data Centre
#                                CCDC
#
#######################################################################
#
# If this CIF has been generated from an entry in the Cambridge
# Structural Database, then it will include bibliographic, chemical,
# crystal, experimental, refinement or atomic coordinate data resulting
# from the CCDC's data processing and validation procedures.
#
#######################################################################

data_CSD_CIF_GAFPEI01
_audit_creation_date 1988-10-10
_audit_creation_method CSD-ConQuest-V1
_database_code_CSD GAFPEI01
_database_code_depnum_ccdc_archive 'CCDC 1162694'
_chemical_formula_sum 'C13 H22 N2 O7'
_chemical_formula_moiety
;
C13 H22 N2 O7
;
_journal_coden_Cambridge 599
_journal_volume 5
_journal_year 1986
_journal_page_first 631
_journal_name_full 'J.Carbohydr.Chem. '
loop_
_publ_author_name
"J.M.J.Tronchet"
"G.Zosimo-Landolfo"
"G.Bernardinelli"
"P.Arrizabalaga"
"M.Geoffroy"
_chemical_name_systematic
;
3-(C-Carbamohydroximoyl)-1,2:5,6-bis(O-isopropylidene)-\a-D-glucofuranose
;
_cell_volume   1550.026
_exptl_crystal_density_diffrn 1.364
_exptl_special_details
;
beta polymorph

;
_diffrn_ambient_temperature ?
_diffrn_special_details
;
The study was carried out at room temperature,in the range 283-303K

;
#These two values have been output from a single CSD field.
_refine_ls_R_factor_gt 0.045
_refine_ls_wR_factor_gt 0.045
_symmetry_cell_setting orthorhombic
_symmetry_space_group_name_H-M 'P 21 21 21'
_symmetry_Int_Tables_number 19
loop_
_symmetry_equiv_pos_site_id
_symmetry_equiv_pos_as_xyz
1 x,y,z
2 1/2+x,1/2-y,-z
3 -x,1/2+y,1/2-z
4 1/2-x,-y,1/2+z
_cell_length_a 7.890(1)
_cell_length_b 10.305(2)
_cell_length_c 19.064(4)
_cell_angle_alpha 90
_cell_angle_beta 90
_cell_angle_gamma 90
_cell_formula_units_Z 4
loop_
_atom_type_symbol
_atom_type_radius_bond
C 0.68
H 0.23
N 0.68
O 0.68
loop_
_atom_site_label
_atom_site_type_symbol
_atom_site_fract_x
_atom_site_fract_y
_atom_site_fract_z
O1 O 0.2315(5) 0.1084(4) 0.27174(23)
O2 O 0.4707(6) 0.1801(5) 0.4003(3)
O3 O 0.1891(7) 0.1436(6) 0.3909(3)
O4 O 0.2258(6) 0.3064(5) 0.15924(24)
O5 O 0.2623(8) 0.1747(5) 0.06532(23)
O6 O 0.5559(5) 0.0055(3) 0.23829(24)
O7 O 0.8648(5) 0.3574(4) 0.2841(3)
N1 N 0.6936(6) 0.3112(5) 0.2739(3)
N2 N 0.8237(7) 0.1159(5) 0.3042(4)
C1 C 0.5242(7) 0.1158(6) 0.2793(3)
C2 C 0.4561(8) 0.0770(5) 0.3526(4)
C3 C 0.2639(8) 0.0619(6) 0.3410(4)
C4 C 0.3688(7) 0.1934(5) 0.2521(3)
C5 C 0.3123(9) 0.2040(7) 0.4346(4)
C6 C 0.2839(15) 0.3491(9) 0.4363(9)
C7 C 0.3062(13) 0.1451(14) 0.5062(5)
C8 C 0.3665(9) 0.2234(5) 0.1739(3)
C9 C 0.3492(9) 0.1131(6) 0.1228(3)
C10 C 0.1455(9) 0.2618(6) 0.0966(3)
C11 C 0.1223(15) 0.3759(12) 0.0470(5)
C12 C -0.0205(12) 0.1972(10) 0.1155(5)
C13 C 0.6913(7) 0.1892(6) 0.2851(3)
H1 H 0.52350 -0.00740 0.37210
H2 H 0.21590 -0.03720 0.34650
H3 H 0.36470 0.29050 0.27450
H4 H 0.16280 0.36800 0.46130
H5 H 0.38550 0.39100 0.46970
H6 H 0.28980 0.39060 0.38540
H7 H 0.40610 0.18860 0.53830
H8 H 0.18340 0.16560 0.52990
H9 H 0.32540 0.04080 0.50410
H10 H 0.49320 0.26470 0.16580
H11 H 0.47360 0.07640 0.10650
H12 H 0.27570 0.03390 0.14500
H13 H 0.06030 0.34160 -0.00110
H14 H 0.04010 0.44790 0.07200
H15 H 0.24050 0.42300 0.03250
H16 H -0.10200 0.26840 0.14150
H17 H -0.08180 0.16220 0.06830
H18 H -0.00370 0.11510 0.15160
H19 H 0.90570 0.16960 0.31160
H20 H 0.82770 0.01040 0.30920
H21 H 0.45680 -0.04520 0.23520
#END
