
#######################################################################
#
#                 Cambridge Crystallographic Data Centre
#                                CCDC
#
#######################################################################
#
# If this CIF has been generated from an entry in the Cambridge
# Structural Database, then it will include bibliographic, chemical,
# crystal, experimental, refinement or atomic coordinate data resulting
# from the CCDC's data processing and validation procedures.
#
#######################################################################

data_CSD_CIF_GAFPEI
_audit_creation_date 1988-10-10
_audit_creation_method CSD-ConQuest-V1
_database_code_CSD GAFPEI
_database_code_depnum_ccdc_archive 'CCDC 1162693'
_chemical_formula_sum 'C13 H22 N2 O7'
_chemical_formula_moiety
;
C13 H22 N2 O7
;
_journal_coden_Cambridge 599
_journal_volume 5
_journal_year 1986
_journal_page_first 631
_journal_name_full 'J.Carbohydr.Chem. '
loop_
_publ_author_name
"J.M.J.Tronchet"
"G.Zosimo-Landolfo"
"G.Bernardinelli"
"P.Arrizabalaga"
"M.Geoffroy"
_chemical_name_systematic
;
3-(C-Carbamohydroximoyl)-1,2:5,6-bis(O-isopropylidene)-\a-D-glucofuranose
;
_chemical_melting_point 438.35
_cell_volume   1554.398
_exptl_crystal_density_diffrn 1.36
_exptl_special_details
;
Melting point range 438.35-441.65K
alpha polymorph

;
_diffrn_ambient_temperature ?
_diffrn_special_details
;
The study was carried out at room temperature,in the range 283-303K

;
#These two values have been output from a single CSD field.
_refine_ls_R_factor_gt 0.029
_refine_ls_wR_factor_gt 0.029
_symmetry_cell_setting orthorhombic
_symmetry_space_group_name_H-M 'P 21 21 21'
_symmetry_Int_Tables_number 19
loop_
_symmetry_equiv_pos_site_id
_symmetry_equiv_pos_as_xyz
1 x,y,z
2 1/2+x,1/2-y,-z
3 -x,1/2+y,1/2-z
4 1/2-x,-y,1/2+z
_cell_length_a 10.408(3)
_cell_length_b 10.559(2)
_cell_length_c 14.144(2)
_cell_angle_alpha 90
_cell_angle_beta 90
_cell_angle_gamma 90
_cell_formula_units_Z 4
loop_
_atom_type_symbol
_atom_type_radius_bond
C 0.68
H 0.23
N 0.68
O 0.68
loop_
_atom_site_label
_atom_site_type_symbol
_atom_site_fract_x
_atom_site_fract_y
_atom_site_fract_z
O1 O 0.6526(4) 0.0637(4) 0.5710(3)
O2 O 0.5953(4) 0.3271(4) 0.6844(3)
O3 O 0.5996(5) 0.1197(4) 0.7261(3)
O4 O 0.4476(4) 0.0120(4) 0.4208(3)
O5 O 0.5959(5) -0.0676(5) 0.3204(4)
O6 O 0.7598(3) 0.2705(4) 0.4618(3)
O7 O 0.4118(4) 0.5195(3) 0.4674(3)
N1 N 0.4597(5) 0.3930(4) 0.4853(4)
N2 N 0.6545(4) 0.5022(5) 0.4968(4)
C1 C 0.6512(5) 0.2748(6) 0.5230(4)
C2 C 0.6937(5) 0.2733(6) 0.6272(4)
C3 C 0.6929(6) 0.1317(6) 0.6534(5)
C4 C 0.5741(6) 0.1514(5) 0.5174(4)
C5 C 0.5662(6) 0.2434(7) 0.7599(5)
C6 C 0.4217(7) 0.2466(8) 0.7758(5)
C7 C 0.6429(7) 0.2769(7) 0.8464(4)
C8 C 0.5491(6) 0.1024(6) 0.4166(4)
C9 C 0.6561(6) 0.0314(8) 0.3657(5)
C10 C 0.4647(7) -0.0753(6) 0.3440(5)
C11 C 0.4313(7) -0.2052(7) 0.3789(5)
C12 C 0.3837(7) -0.0348(7) 0.2599(5)
C13 C 0.5815(6) 0.3958(6) 0.4987(4)
H1 H 0.78600 0.32370 0.63770
H2 H 0.78670 0.09340 0.67800
H3 H 0.47520 0.16650 0.54450
H4 H 0.39480 0.18150 0.83540
H5 H 0.39330 0.34350 0.80080
H6 H 0.36350 0.22310 0.71600
H7 H 0.61870 0.37210 0.86990
H8 H 0.62020 0.21000 0.90460
H9 H 0.74700 0.27200 0.83450
H10 H 0.53030 0.18940 0.37710
H11 H 0.70950 0.09650 0.31680
H12 H 0.73110 -0.00160 0.41780
H13 H 0.32830 -0.21200 0.39760
H14 H 0.44700 -0.27620 0.32070
H15 H 0.48640 -0.23930 0.43930
H16 H 0.40040 -0.10080 0.20030
H17 H 0.28180 -0.03660 0.27730
H18 H 0.40720 0.06070 0.23390
H19 H 0.61640 0.59060 0.47620
H20 H 0.75700 0.49790 0.51520
H21 H 0.84640 0.22190 0.47580
#END
