
#######################################################################
#
#                 Cambridge Crystallographic Data Centre
#                                CCDC
#
#######################################################################
#
# If this CIF has been generated from an entry in the Cambridge
# Structural Database, then it will include bibliographic, chemical,
# crystal, experimental, refinement or atomic coordinate data resulting
# from the CCDC's data processing and validation procedures.
#
#######################################################################

data_CSD_CIF_GAFPIM
_audit_creation_date 1988-10-10
_audit_creation_method CSD-ConQuest-V1
_database_code_CSD GAFPIM
_database_code_depnum_ccdc_archive 'CCDC 1162695'
_chemical_formula_sum 'C15 H24 N2 O8'
_chemical_formula_moiety
;
C15 H24 N2 O8
;
_journal_coden_Cambridge 599
_journal_volume 5
_journal_year 1986
_journal_page_first 631
_journal_name_full 'J.Carbohydr.Chem. '
loop_
_publ_author_name
"J.M.J.Tronchet"
"G.Zosimo-Landolfo"
"G.Bernardinelli"
"P.Arrizabalaga"
"M.Geoffroy"
_chemical_name_systematic
;
3-(C-Carbamoacetylhydroximoyl)-1,2:5,6-bis(O-isopropylidene)-\a-D-allofuranose
;
_chemical_melting_point 411.05
_cell_volume   1813.835
_exptl_crystal_density_diffrn 1.32
_exptl_special_details
;
Melting point range 411.05-411.25K

;
_diffrn_ambient_temperature ?
_diffrn_special_details
;
The study was carried out at room temperature,in the range 283-303K

;
#These two values have been output from a single CSD field.
_refine_ls_R_factor_gt 0.041
_refine_ls_wR_factor_gt 0.041
_symmetry_cell_setting orthorhombic
_symmetry_space_group_name_H-M 'P 21 21 21'
_symmetry_Int_Tables_number 19
loop_
_symmetry_equiv_pos_site_id
_symmetry_equiv_pos_as_xyz
1 x,y,z
2 1/2+x,1/2-y,-z
3 -x,1/2+y,1/2-z
4 1/2-x,-y,1/2+z
_cell_length_a 9.759(2)
_cell_length_b 12.163(3)
_cell_length_c 15.281(3)
_cell_angle_alpha 90
_cell_angle_beta 90
_cell_angle_gamma 90
_cell_formula_units_Z 4
loop_
_atom_type_symbol
_atom_type_radius_bond
C 0.68
H 0.23
N 0.68
O 0.68
loop_
_atom_site_label
_atom_site_type_symbol
_atom_site_fract_x
_atom_site_fract_y
_atom_site_fract_z
O1 O 0.2618(5) 0.9001(4) 0.7908(3)
O2 O 0.0318(5) 0.7965(4) 0.8957(3)
O3 O 0.1299(6) 0.9664(4) 0.9083(3)
O4 O 0.4932(5) 0.7553(6) 0.7434(4)
O5 O 0.5162(5) 0.8112(5) 0.6015(3)
O6 O 0.0650(5) 0.6518(4) 0.7588(3)
O7 O 0.0394(6) 0.9093(4) 0.5445(3)
O8 O -0.0995(8) 1.0494(6) 0.5767(4)
N1 N 0.0550(7) 0.8938(5) 0.6384(3)
N2 N 0.0683(7) 0.7077(5) 0.5944(4)
C1 C 0.1032(6) 0.7634(5) 0.7474(4)
C2 C 0.0319(7) 0.8435(6) 0.8097(4)
C3 C 0.1327(8) 0.9389(6) 0.8181(4)
C4 C 0.2537(7) 0.7839(5) 0.7717(3)
C5 C 0.0675(10) 0.8812(7) 0.9574(4)
C6 C 0.1674(17) 0.8362(9) 1.0213(7)
C7 C -0.0652(13) 0.9276(9) 0.9967(8)
C8 C 0.3579(7) 0.7528(7) 0.7045(5)
C9 C 0.3766(7) 0.8277(8) 0.6244(4)
C10 C 0.5898(7) 0.7991(8) 0.6824(5)
C11 C 0.6387(12) 0.9105(9) 0.7156(6)
C12 C 0.7068(9) 0.7182(11) 0.6683(8)
C13 C 0.0731(7) 0.7914(7) 0.6528(4)
C14 C -0.0348(8) 0.9978(6) 0.5245(4)
C15 C -0.0357(12) 1.0196(8) 0.4288(5)
H1 H -0.054(8) 0.877(6) 0.792(5)
H2 H 0.109(8) 1.011(7) 0.783(5)
H3 H 0.269(8) 0.739(7) 0.820(5)
H4 H 0.195(8) 0.902(6) 1.066(5)
H5 H 0.117(8) 0.770(6) 1.057(5)
H6 H 0.262(8) 0.803(7) 0.993(5)
H7 H -0.116(8) 0.862(6) 1.033(5)
H8 H -0.038(8) 0.993(6) 1.042(5)
H9 H -0.139(8) 0.961(6) 0.950(5)
H10 H 0.333(8) 0.673(7) 0.679(5)
H11 H 0.322(8) 0.810(6) 0.565(5)
H12 H 0.356(8) 0.914(7) 0.654(5)
H13 H 0.692(8) 0.899(6) 0.778(5)
H14 H 0.709(8) 0.945(7) 0.668(5)
H15 H 0.555(8) 0.968(6) 0.726(5)
H16 H 0.778(8) 0.753(7) 0.620(5)
H17 H 0.760(8) 0.706(7) 0.730(5)
H18 H 0.672(8) 0.638(7) 0.645(5)
H19 H 0.059(8) 0.642(6) 0.608(5)
H20 H 0.057(8) 0.724(6) 0.534(5)
H21 H 0.093(8) 0.631(6) 0.799(5)
H22 H 0.062(8) 0.993(6) 0.401(5)
H23 H -0.119(9) 0.973(7) 0.399(5)
H24 H -0.050(8) 1.107(6) 0.414(5)
#END
