
#######################################################################
#
#                 Cambridge Crystallographic Data Centre
#                                CCDC
#
#######################################################################
#
# If this CIF has been generated from an entry in the Cambridge
# Structural Database, then it will include bibliographic, chemical,
# crystal, experimental, refinement or atomic coordinate data resulting
# from the CCDC's data processing and validation procedures.
#
#######################################################################

data_CSD_CIF_GAFWAL
_audit_creation_date 1988-11-02
_audit_creation_method CSD-ConQuest-V1
_database_code_CSD GAFWAL
_database_code_depnum_ccdc_archive 'CCDC 1162726'
_chemical_formula_sum 'C12 H12 N2 O2'
_chemical_formula_moiety
;
C12 H12 N2 O2
;
_journal_coden_Cambridge 34
_journal_volume 24
_journal_year 1987
_journal_page_first 1541
_journal_name_full 'J.Heterocycl.Chem. '
loop_
_publ_author_name
"L.L.Martin"
"S.J.Scott"
"L.L.Setescak"
"D.Van Engen"
_chemical_name_systematic
;
(+-)-(Z)-1,10a-Dihydropyrrolo(1,2-b)isoquinoline-3,10(2H,5H)-dione oxime
;
_chemical_melting_point 487.15
_cell_volume   2131.024
_exptl_crystal_density_diffrn 1.35
_exptl_special_details
;
Melting point range 487.15-489.15K

;
_diffrn_ambient_temperature ?
_diffrn_special_details
;
The study was carried out at room temperature,in the range 283-303K

;
#These two values have been output from a single CSD field.
_refine_ls_R_factor_gt 0.071
_refine_ls_wR_factor_gt 0.071
_symmetry_cell_setting orthorhombic
_symmetry_space_group_name_H-M 'P 21 21 21'
_symmetry_Int_Tables_number 19
loop_
_symmetry_equiv_pos_site_id
_symmetry_equiv_pos_as_xyz
1 x,y,z
2 1/2+x,1/2-y,-z
3 -x,1/2+y,1/2-z
4 1/2-x,-y,1/2+z
_cell_length_a 7.773(5)
_cell_length_b 15.371(9)
_cell_length_c 17.836(10)
_cell_angle_alpha 90
_cell_angle_beta 90
_cell_angle_gamma 90
_cell_formula_units_Z 8
loop_
_atom_type_symbol
_atom_type_radius_bond
C 0.68
H 0.23
N 0.68
O 0.68
loop_
_atom_site_label
_atom_site_type_symbol
_atom_site_fract_x
_atom_site_fract_y
_atom_site_fract_z
C1 C 0.4702(8) 0.8656(3) 0.1715(3)
C2 C 0.3897(9) 0.8527(4) 0.0966(3)
C3 C 0.3220(9) 0.7720(4) 0.0769(4)
C4 C 0.2545(12) 0.7589(5) 0.0068(4)
C5 C 0.2535(1) 0.8256(5) -0.0445(4)
C6 C 0.3175(11) 0.9055(4) -0.0257(3)
C7 C 0.3857(9) 0.9198(4) 0.0445(3)
C8 C 0.4552(11) 1.0088(4) 0.0644(3)
N1 N 0.4527(7) 1.0210(3) 0.1456(3)
C9 C 0.4095(9) 1.0958(4) 0.1793(3)
C10 C 0.4191(10) 1.0808(4) 0.2624(3)
C11 C 0.4506(11) 0.9858(4) 0.2714(3)
C12 C 0.5210(9) 0.9567(4) 0.1963(3)
N2 N 0.5042(7) 0.7966(3) 0.2091(3)
O1 O 0.5856(6) 0.8165(3) 0.2781(2)
O2 O 0.3692(7) 1.1635(3) 0.1475(3)
H1 H 0.32320 0.72520 0.11250
H2 H 0.20790 0.70320 -0.00650
H3 H 0.20750 0.81570 -0.09380
H4 H 0.31470 0.95180 -0.06180
H5 H 0.38440 1.05240 0.04140
H6 H 0.57110 1.01420 0.04630
H7 H 0.31380 1.09780 0.28640
H8 H 0.51310 1.11320 0.28350
H9 H 0.53270 0.97500 0.31050
H10 H 0.34470 0.95650 0.28290
H11 H 0.64420 0.95240 0.19810
H12 H 0.60880 0.75210 0.29010
C13 C 0.9042(9) 0.1273(4) 0.1837(4)
C14 C 0.8900(9) 0.1194(4) 0.1011(4)
C15 C 0.9415(10) 0.0434(5) 0.0633(4)
C16 C 0.9129(12) 0.0323(5) -0.0117(4)
C17 C 0.8345(11) 0.0975(5) -0.0526(4)
C18 C 0.7914(11) 0.1744(5) -0.0180(4)
C19 C 0.8184(9) 0.1865(4) 0.0567(4)
C20 C 0.7713(11) 0.2708(4) 0.0944(4)
N3 N 0.8620(7) 0.2831(3) 0.1642(3)
C21 C 0.9360(8) 0.3576(4) 0.1858(4)
C22 C 1.0069(11) 0.3447(4) 0.2635(4)
C23 C 1.0081(10) 0.2463(4) 0.2738(4)
C24 C 0.8700(9) 0.2138(3) 0.2205(3)
N4 N 0.9306(8) 0.0569(3) 0.2200(3)
O3 O 0.9274(7) 0.0706(3) 0.2979(3)
O4 O 0.9412(7) 0.4235(3) 0.1465(3)
H13 H 0.99700 -0.00220 0.09100
H14 H 0.94780 -0.02060 -0.03600
H15 H 0.81040 0.08930 -0.10500
H16 H 0.74220 0.22060 -0.04720
H17 H 0.65000 0.27060 0.10450
H18 H 0.79820 0.31820 0.06130
H19 H 1.12010 0.36900 0.26800
H20 H 0.93190 0.37130 0.29960
H21 H 0.98480 0.23010 0.32480
H22 H 1.11740 0.22280 0.25890
H23 H 0.76460 0.20420 0.24730
H24 H 0.95080 -0.00060 0.31620
#END
