
#######################################################################
#
#                 Cambridge Crystallographic Data Centre
#                                CCDC
#
#######################################################################
#
# If this CIF has been generated from an entry in the Cambridge
# Structural Database, then it will include bibliographic, chemical,
# crystal, experimental, refinement or atomic coordinate data resulting
# from the CCDC's data processing and validation procedures.
#
#######################################################################

data_CSD_CIF_GAGHUS
_audit_creation_date 2005-02-28
_audit_creation_method CSD-ConQuest-V1
_database_code_CSD GAGHUS
_database_code_depnum_ccdc_archive 'CCDC 244542'
_chemical_formula_sum 'C23 H27 N3 O6'
_chemical_formula_moiety
;
C23 H27 N3 O6
;
_journal_coden_Cambridge 4
_journal_volume 126
_journal_year 2004
_journal_page_first 14360
_journal_name_full 'J.Am.Chem.Soc. '
loop_
_publ_author_name
"M.Kimura"
"A.Miyachi"
"K.Kojima"
"S.Tanaka"
"Y.Tamaru"
_chemical_name_systematic
;
N-(4-Methoxyphenyl)-N-(2,5-dimethylhept-6-en-3-yl)-3,5-dinitrobenzamide
;
_cell_volume   1174.014
_exptl_crystal_density_diffrn 1.249
_exptl_crystal_description 'block'
_diffrn_ambient_temperature 296.2
#These two values have been output from a single CSD field.
_refine_ls_R_factor_gt 0.054
_refine_ls_wR_factor_gt 0.054
_symmetry_cell_setting triclinic
_symmetry_space_group_name_H-M 'P -1'
_symmetry_Int_Tables_number 2
loop_
_symmetry_equiv_pos_site_id
_symmetry_equiv_pos_as_xyz
1 x,y,z
2 -x,-y,-z
_cell_length_a 9.870(1)
_cell_length_b 11.484(1)
_cell_length_c 11.648(1)
_cell_angle_alpha 81.769(3)
_cell_angle_beta 79.671(2)
_cell_angle_gamma 65.0219(8)
_cell_formula_units_Z 2
loop_
_atom_type_symbol
_atom_type_radius_bond
C 0.68
H 0.23
N 0.68
O 0.68
loop_
_atom_site_label
_atom_site_type_symbol
_atom_site_fract_x
_atom_site_fract_y
_atom_site_fract_z
O1 O 0.7017(2) 0.4503(1) 0.7208(2)
O2 O 0.1908(2) 0.6372(2) 0.6258(2)
O3 O 0.1111(2) 0.5265(2) 0.5435(2)
O4 O 0.7080(3) 0.0585(2) 0.4184(2)
O5 O 0.4761(3) 0.1189(2) 0.3956(2)
O6 O 0.7140(2) -0.2190(1) 0.8182(2)
N1 N 0.7970(2) 0.2371(1) 0.7789(1)
N2 N 0.2081(2) 0.5398(2) 0.5841(2)
N3 N 0.5748(3) 0.1298(2) 0.4354(2)
C1 C 0.6932(4) 0.5272(3) 1.0235(3)
C2 C 0.7543(3) 0.4107(3) 1.0661(2)
C3 C 0.7344(3) 0.2956(2) 1.0388(2)
C4 C 0.8791(2) 0.2031(2) 0.9728(2)
C5 C 0.9064(2) 0.2492(2) 0.8450(2)
C6 C 1.0692(2) 0.1877(2) 0.7849(2)
C7 C 1.0825(3) 0.2298(2) 0.6554(3)
C8 C 0.6834(4) 0.2309(3) 1.1512(3)
C9 C 1.1738(3) 0.2225(3) 0.8420(4)
C10 C 0.7041(2) 0.3435(2) 0.7202(2)
C11 C 0.5986(2) 0.3306(1) 0.6488(2)
C12 C 0.4574(2) 0.4327(2) 0.6494(2)
C13 C 0.3569(2) 0.4312(2) 0.5816(2)
C14 C 0.3906(3) 0.3333(2) 0.5119(2)
C15 C 0.5324(3) 0.2361(2) 0.5103(2)
C16 C 0.6372(2) 0.2327(2) 0.5765(2)
C17 C 0.7804(2) 0.1170(1) 0.7899(2)
C18 C 0.6498(2) 0.1082(2) 0.8487(2)
C19 C 0.6300(2) -0.0043(2) 0.8551(2)
C20 C 0.7432(2) -0.1116(2) 0.8059(2)
C21 C 0.8750(2) -0.1053(2) 0.7480(2)
C22 C 0.8929(2) 0.0093(2) 0.7402(2)
C23 C 0.8215(3) -0.3274(2) 0.7579(3)
H1 H 0.71560 0.59340 1.04860
H2 H 0.62450 0.54930 0.96600
H3 H 0.82190 0.39490 1.12310
H4 H 0.65580 0.32530 0.98870
H5 H 0.96340 0.19310 1.01100
H6 H 0.87340 0.12040 0.97580
H7 H 0.88120 0.34060 0.84370
H8 H 1.10240 0.09490 0.79360
H9 H 1.05290 0.32230 0.64520
H10 H 1.01690 0.20770 0.61820
H11 H 1.18600 0.18640 0.61980
H12 H 0.75900 0.20300 1.20380
H13 H 0.58850 0.29170 1.18850
H14 H 0.67010 0.15690 1.13290
H15 H 1.16630 0.19600 0.92490
H16 H 1.14460 0.31490 0.83140
H17 H 1.27700 0.17870 0.80580
H18 H 0.42980 0.50420 0.69690
H19 H 0.31790 0.33290 0.46610
H20 H 0.73650 0.16250 0.57240
H21 H 0.57110 0.18230 0.88580
H22 H 0.53650 -0.00820 0.89430
H23 H 0.95460 -0.18040 0.71300
H24 H 0.98550 0.01390 0.69940
H25 H 0.91920 -0.35400 0.78360
H26 H 0.82890 -0.30410 0.67430
H27 H 0.78950 -0.39790 0.77470
#END
