
#######################################################################
#
#                 Cambridge Crystallographic Data Centre
#                                CCDC
#
#######################################################################
#
# If this CIF has been generated from an entry in the Cambridge
# Structural Database, then it will include bibliographic, chemical,
# crystal, experimental, refinement or atomic coordinate data resulting
# from the CCDC's data processing and validation procedures.
#
#######################################################################

data_CSD_CIF_GAGHIG
_audit_creation_date 2005-02-28
_audit_creation_method CSD-ConQuest-V1
_database_code_CSD GAGHIG
_database_code_depnum_ccdc_archive 'CCDC 199890'
_chemical_formula_sum 'C26 H25 N3 O6'
_chemical_formula_moiety
;
C26 H25 N3 O6
;
_journal_coden_Cambridge 4
_journal_volume 126
_journal_year 2004
_journal_page_first 14360
_journal_name_full 'J.Am.Chem.Soc. '
loop_
_publ_author_name
"M.Kimura"
"A.Miyachi"
"K.Kojima"
"S.Tanaka"
"Y.Tamaru"
_chemical_name_systematic
;
N-(4-Methoxyphenyl)-N-(3-methyl-1-phenylpent-4-en-1-yl)-3,5-dinitrobenzamide
;
_cell_volume   1225.488
_exptl_crystal_density_diffrn 1.288
_exptl_crystal_description 'block'
_diffrn_ambient_temperature 294.2
#These two values have been output from a single CSD field.
_refine_ls_R_factor_gt 0.0681
_refine_ls_wR_factor_gt 0.0681
_symmetry_cell_setting triclinic
_symmetry_space_group_name_H-M 'P -1'
_symmetry_Int_Tables_number 2
loop_
_symmetry_equiv_pos_site_id
_symmetry_equiv_pos_as_xyz
1 x,y,z
2 -x,-y,-z
_cell_length_a 9.021(1)
_cell_length_b 11.1799(8)
_cell_length_c 13.772(2)
_cell_angle_alpha 104.489(4)
_cell_angle_beta 106.513(1)
_cell_angle_gamma 102.553(2)
_cell_formula_units_Z 2
loop_
_atom_type_symbol
_atom_type_radius_bond
C 0.68
H 0.23
N 0.68
O 0.68
loop_
_atom_site_label
_atom_site_type_symbol
_atom_site_fract_x
_atom_site_fract_y
_atom_site_fract_z
O1 O 0.9672(4) 0.4785(3) 0.6862(3)
O2 O 0.8168(4) 0.5979(3) 0.7120(2)
O3 O 0.1279(3) 0.2201(3) 0.4382(2)
O4 O 0.2352(3) 0.4140(3) 0.5502(2)
O5 O 0.6457(3) -0.0107(2) 0.4355(2)
O6 O 0.4277(4) 0.4239(2) 0.1140(2)
N1 N 0.8354(4) 0.4970(3) 0.6689(2)
N2 N 0.2447(4) 0.3123(3) 0.4987(2)
N3 N 0.5522(2) 0.0362(2) 0.2823(2)
C1 C 0.5767(3) 0.1829(2) 0.4543(2)
C2 C 0.7118(3) 0.2820(3) 0.5295(2)
C3 C 0.6910(4) 0.3901(3) 0.5907(2)
C4 C 0.5408(4) 0.4039(3) 0.5830(2)
C5 C 0.4085(3) 0.3024(3) 0.5091(2)
C6 C 0.4236(3) 0.1930(2) 0.4445(2)
C7 C 0.5963(3) 0.0611(2) 0.3895(2)
C8 C 0.5228(3) 0.1353(2) 0.2369(2)
C9 C 0.6498(3) 0.2456(2) 0.2593(2)
C10 C 0.6215(4) 0.3438(2) 0.2202(2)
C11 C 0.4667(4) 0.3320(2) 0.1565(2)
C12 C 0.3416(3) 0.2216(3) 0.1335(2)
C13 C 0.3687(3) 0.1239(2) 0.1730(2)
C14 C 0.5479(7) 0.5410(4) 0.1402(4)
C15 C 0.5500(3) -0.0904(2) 0.2115(2)
C16 C 0.6639(4) -0.0693(3) 0.1513(2)
C17 C 0.8414(4) -0.0213(3) 0.2222(3)
C18 C 0.8878(5) -0.1285(5) 0.2544(5)
C19 C 0.9386(9) -0.1355(7) 0.3437(6)
C20 C 0.9490(5) 0.0331(6) 0.1667(4)
C21 C 0.3784(3) -0.1737(2) 0.1430(2)
C22 C 0.3146(4) -0.2034(3) 0.0328(3)
C23 C 0.1560(5) -0.2821(4) -0.0270(3)
C24 C 0.0600(5) -0.3312(3) 0.0222(5)
C25 C 0.1194(5) -0.3066(3) 0.1307(5)
C26 C 0.2779(4) -0.2273(3) 0.1912(3)
H1 H 0.82010 0.27540 0.53890
H2 H 0.52870 0.48100 0.62720
H3 H 0.32750 0.12370 0.39270
H4 H 0.75940 0.25370 0.30270
H5 H 0.71070 0.42140 0.23750
H6 H 0.23240 0.21260 0.08860
H7 H 0.27900 0.04670 0.15590
H8 H 0.63620 0.52380 0.11790
H9 H 0.50220 0.59560 0.10360
H10 H 0.58900 0.58510 0.21720
H11 H 0.59290 -0.13580 0.25890
H12 H 0.64340 -0.15110 0.09660
H13 H 0.64140 -0.00570 0.11740
H14 H 0.85620 0.04760 0.28650
H15 H 0.87610 -0.20380 0.19600
H16 H 0.95330 -0.06380 0.40600
H17 H 0.96430 -0.21270 0.35290
H18 H 1.06190 0.06260 0.21410
H19 H 0.93410 -0.03410 0.10140
H20 H 0.91980 0.10560 0.14900
H21 H 0.38220 -0.16830 -0.00340
H22 H 0.11400 -0.30200 -0.10420
H23 H -0.05180 -0.38430 -0.01970
H24 H 0.05100 -0.34450 0.16520
H25 H 0.31900 -0.20900 0.26830
#END
