
#######################################################################
#
#                 Cambridge Crystallographic Data Centre
#                                CCDC
#
#######################################################################
#
# If this CIF has been generated from an entry in the Cambridge
# Structural Database, then it will include bibliographic, chemical,
# crystal, experimental, refinement or atomic coordinate data resulting
# from the CCDC's data processing and validation procedures.
#
#######################################################################

data_CSD_CIF_GAGZOE
_audit_creation_date 2005-02-28
_audit_creation_method CSD-ConQuest-V1
_database_code_CSD GAGZOE
_database_code_depnum_ccdc_archive 'CCDC 240722'
_chemical_formula_sum 'C20 H21 N1 O1'
_chemical_formula_moiety
;
C20 H21 N1 O1
;
_journal_coden_Cambridge 1291
_journal_year 2004
_journal_page_first 4158
_journal_name_full 'Eur.J.Org.Chem. '
loop_
_publ_author_name
"A.Zanobini"
"M.Gensini"
"J.Magull"
"D.Vidovic"
"S.I.Kozhushkov"
"A.Brandi"
"A.de Meijere"
_chemical_name_systematic
;
8-Benzyl-9-phenyl-7-oxa-8-azaspiro(2.0.2.3)nonane
;
_chemical_melting_point 343.15
_cell_volume   1577.692
_exptl_crystal_colour 'colorless'
_exptl_crystal_density_diffrn 1.227
_exptl_crystal_preparation 'hexane'
_diffrn_ambient_temperature 133
#These two values have been output from a single CSD field.
_refine_ls_R_factor_gt 0.031
_refine_ls_wR_factor_gt 0.031
_symmetry_cell_setting monoclinic
_symmetry_space_group_name_H-M 'P 21/n'
_symmetry_Int_Tables_number 14
loop_
_symmetry_equiv_pos_site_id
_symmetry_equiv_pos_as_xyz
1 x,y,z
2 1/2+x,1/2-y,1/2+z
3 -x,-y,-z
4 -1/2-x,-1/2+y,-1/2-z
_cell_length_a 9.2097(7)
_cell_length_b 5.6716(3)
_cell_length_c 30.290(2)
_cell_angle_alpha 90
_cell_angle_beta 94.307(6)
_cell_angle_gamma 90
_cell_formula_units_Z 4
loop_
_atom_type_symbol
_atom_type_radius_bond
C 0.68
H 0.23
N 0.68
O 0.68
loop_
_atom_site_label
_atom_site_type_symbol
_atom_site_fract_x
_atom_site_fract_y
_atom_site_fract_z
O1 O 0.16605(9) 0.32741(15) 0.15035(3)
N1 N 0.02526(11) 0.31406(19) 0.12354(3)
C1 C -0.05003(16) 0.2030(3) 0.24152(5)
H1 H -0.12960 0.31420 0.24690
H2 H 0.02820 0.19300 0.26570
C2 C -0.08885(15) -0.0184(3) 0.21580(4)
H3 H -0.03440 -0.16410 0.22420
H4 H -0.19230 -0.04280 0.20540
C3 C -0.00802(14) 0.1762(2) 0.19490(4)
C4 C 0.22590(14) -0.0768(2) 0.17752(4)
H5 H 0.28370 -0.09530 0.15150
H6 H 0.17900 -0.22290 0.18730
C5 C 0.27850(14) 0.1007(2) 0.21272(4)
H7 H 0.26390 0.06240 0.24400
H8 H 0.36850 0.18990 0.20810
C6 C 0.14747(14) 0.1511(2) 0.18263(4)
C7 C -0.07774(13) 0.3380(2) 0.15864(4)
H9 H -0.07350 0.50390 0.16980
C8 C -0.23111(13) 0.2868(2) 0.14037(4)
C9 C -0.34219(14) 0.4436(2) 0.14778(5)
H10 H -0.32130 0.57990 0.16530
C10 C -0.48337(15) 0.4046(3) 0.12997(5)
H11 H -0.55850 0.51300 0.13560
C11 C -0.51449(15) 0.2084(3) 0.10414(5)
H12 H -0.61060 0.18270 0.09140
C12 C -0.40521(14) 0.0493(3) 0.09686(5)
H13 H -0.42670 -0.08700 0.07940
C13 C -0.26439(14) 0.0874(2) 0.11491(4)
H14 H -0.19010 -0.02360 0.10990
C14 C 0.02272(14) 0.5206(2) 0.09471(4)
H15 H 0.05080 0.66150 0.11270
H16 H -0.07770 0.54510 0.08150
C15 C 0.12391(13) 0.4960(2) 0.05825(4)
C16 C 0.11957(14) 0.2962(2) 0.03162(4)
H17 H 0.05490 0.17100 0.03720
C17 C 0.20885(15) 0.2783(3) -0.00307(4)
H18 H 0.20540 0.14070 -0.02100
C18 C 0.30288(15) 0.4598(3) -0.01169(4)
H19 H 0.36340 0.44760 -0.03560
C19 C 0.30849(15) 0.6588(3) 0.01462(5)
H20 H 0.37310 0.78380 0.00890
C20 C 0.21957(14) 0.6762(2) 0.04954(4)
H21 H 0.22430 0.81310 0.06770
#END
