
#######################################################################
#
#                 Cambridge Crystallographic Data Centre
#                                CCDC
#
#######################################################################
#
# If this CIF has been generated from an entry in the Cambridge
# Structural Database, then it will include bibliographic, chemical,
# crystal, experimental, refinement or atomic coordinate data resulting
# from the CCDC's data processing and validation procedures.
#
#######################################################################

data_CSD_CIF_GAHCUP
_audit_creation_date 2011-01-20
_audit_creation_method CSD-ConQuest-V1
_database_code_CSD GAHCUP
_database_code_depnum_ccdc_archive 'CCDC 763139'
_chemical_formula_sum 'C26 H41 N1 O9'
_chemical_formula_moiety
;
C26 H41 N1 O9
;
_journal_coden_Cambridge 1475
_journal_volume 1
_journal_year 2010
_journal_page_first 637
_journal_name_full 'Chemical Science '
loop_
_publ_author_name
"Shouyun Yu"
"H.Ishida"
"M.E.Juarez-Garcia"
"J.W.Bode"
_chemical_name_systematic
;
2-(6-(2,2-Dimethyl-1,3-dioxolan-4-yl)-2,2-dimethyltetrahydrofuro[3,4-d][1,3]di
oxol-4-yl)-3-isopropyl-4-methyl-1,6,13-trioxa-2-azadispiro[4.1.5.2]tetradecan-
14-one
;
_cell_volume   1354.503
_exptl_crystal_density_diffrn 1.254
_diffrn_ambient_temperature 143
_refine_special_details
;
C22,C23,C24,C25,C26 and C22',C23',C24',C25',C26' disordered over two sites 
with occupancies 0.65:0.35; C11,C12,O4 and C11',C12',O4' disordered over two 
sites with occupancies 0.65:0.35.
;
#These two values have been output from a single CSD field.
_refine_ls_R_factor_gt 0.043
_refine_ls_wR_factor_gt 0.043
_symmetry_cell_setting monoclinic
_symmetry_space_group_name_H-M 'P 21'
_symmetry_Int_Tables_number 4
loop_
_symmetry_equiv_pos_site_id
_symmetry_equiv_pos_as_xyz
1 x,y,z
2 -x,1/2+y,-z
_cell_length_a 5.9601(10)
_cell_length_b 10.9170(17)
_cell_length_c 20.891(4)
_cell_angle_alpha 90
_cell_angle_beta 94.816(4)
_cell_angle_gamma 90
_cell_formula_units_Z 2
loop_
_atom_type_symbol
_atom_type_radius_bond
C 0.68
H 0.23
N 0.68
O 0.68
loop_
_atom_site_label
_atom_site_type_symbol
_atom_site_fract_x
_atom_site_fract_y
_atom_site_fract_z
C1 C 0.2968(4) 0.3913(3) 0.25342(13)
H1 H 0.20840 0.43940 0.28190
C2 C 0.5282(5) 0.4488(3) 0.24863(13)
H2 H 0.64500 0.41400 0.27910
C3 C 0.6213(5) 0.6340(3) 0.20537(14)
C4 C 0.5761(5) 0.4305(3) 0.17791(14)
H3 H 0.71360 0.38300 0.17360
C5 C 0.3657(4) 0.3653(3) 0.14781(13)
H4 H 0.39390 0.27680 0.14730
C6 C 0.2802(5) 0.4062(3) 0.08117(14)
H5 H 0.24070 0.49330 0.08130
C7 C 0.4483(7) 0.3811(6) 0.03142(18)
H6 H 0.42760 0.43710 -0.00460
H7 H 0.60250 0.38620 0.05020
C8 C 0.1449(6) 0.2569(5) 0.00811(19)
C9 C 0.8699(5) 0.6491(3) 0.22684(17)
H8 H 0.93540 0.57020 0.23650
H9 H 0.88630 0.69980 0.26450
H10 H 0.94510 0.68690 0.19310
C10 C 0.5076(5) 0.7530(3) 0.1869(2)
H11 H 0.57830 0.78900 0.15180
H12 H 0.52050 0.80780 0.22300
H13 H 0.35140 0.73840 0.17420
C11 C 0.2555(5) 0.2257(3) 0.38407(16)
C12 C 0.1148(5) 0.1361(3) 0.34241(16)
H14 H 0.20490 0.06210 0.33770
C13 C 0.0934(5) 0.2023(3) 0.27785(15)
H15 H -0.02200 0.26610 0.27900
C14 C 0.0419(5) 0.1240(3) 0.21708(17)
H16 H 0.07240 0.17500 0.18020
C15 C -0.2071(5) 0.0875(4) 0.2084(2)
H17 H -0.23500 0.02310 0.23800
H18 H -0.24340 0.05940 0.16530
H19 H -0.29880 0.15720 0.21660
C16 C 0.1887(6) 0.0107(4) 0.2151(2)
H20 H 0.34390 0.03330 0.22390
H21 H 0.16750 -0.02610 0.17330
H22 H 0.14760 -0.04680 0.24690
C17 C -0.1033(6) 0.0984(4) 0.37037(19)
H23 H -0.20640 0.16620 0.36790
H24 H -0.07150 0.07480 0.41450
H25 H -0.16940 0.03060 0.34640
C18 C 0.1331(6) 0.3294(4) 0.41488(16)
C19 C 0.3829(7) 0.2378(5) 0.4911(2)
C20 C 0.6278(10) 0.2829(6) 0.4995(3)
H26 H 0.73090 0.21410 0.50060
H27 H 0.65940 0.33610 0.46420
C21 C 0.6545(13) 0.3529(6) 0.5630(3)
H28 H 0.55960 0.42530 0.55980
H29 H 0.80950 0.37960 0.57110
C22 C 0.5902(13) 0.2735(8) 0.6191(3)
H30 H 0.69670 0.20650 0.62550
H31 H 0.59950 0.32230 0.65800
C23 C 0.3547(12) 0.2220(7) 0.6070(3)
H32 H 0.24650 0.28860 0.60520
H33 H 0.32320 0.16870 0.64230
C24 C 0.3285(16) 0.1501(6) 0.5443(3)
H34 H 0.43090 0.08090 0.54620
H35 H 0.17580 0.11970 0.53650
N1 N 0.3187(4) 0.2625(2) 0.27576(11)
O1 O 0.5052(3) 0.57764(19) 0.25471(10)
O2 O 0.5907(4) 0.5516(2) 0.15285(10)
O3 O 0.1928(3) 0.39058(19) 0.19024(9)
O4 O 0.0887(4) 0.3342(3) 0.05819(10)
O5 O 0.4116(3) 0.2764(2) 0.34322(10)
O6 O -0.0030(5) 0.3989(3) 0.38944(13)
O7 O 0.2120(6) 0.3328(3) 0.47717(12)
O8 O 0.3721(4) 0.1650(3) 0.43536(13)
O9 O 0.3853(6) 0.2515(5) 0.0119(2)
C25 C 0.0831(14) 0.1230(6) 0.0307(4)
H36 H 0.11710 0.06470 -0.00150
H37 H -0.07460 0.11920 0.03690
H38 H 0.16930 0.10410 0.07040
C26 C 0.0332(15) 0.2853(12) -0.0549(3)
H39 H 0.08090 0.22820 -0.08600
H40 H 0.07210 0.36700 -0.06700
H41 H -0.12690 0.27960 -0.05330
C27? C 0.259(3) 0.1392(13) 0.0128(8)
C28? C -0.048(2) 0.2728(16) -0.0460(6)
C29? C 0.5558(18) 0.3377(11) 0.5146(6)
C30? C 0.7491(17) 0.2613(11) 0.5449(5)
C31? C 0.674(2) 0.1943(14) 0.6037(5)
C32? C 0.4671(18) 0.1183(11) 0.5834(5)
C33? C 0.280(2) 0.1991(15) 0.5537(6)
H42? H 0.37450 0.14120 0.04770
H43? H 0.32520 0.12250 -0.02650
H44? H 0.15210 0.07610 0.02050
H45? H -0.10150 0.35580 -0.04630
H46? H -0.16960 0.21820 -0.03850
H47? H 0.00700 0.25410 -0.08680
H48? H 0.60200 0.38610 0.47910
H49? H 0.49530 0.39150 0.54590
H50? H 0.87630 0.31390 0.55760
H51? H 0.79590 0.20230 0.51390
H52? H 0.79460 0.14160 0.62180
H53? H 0.63970 0.25310 0.63630
H54? H 0.50490 0.05690 0.55250
H55? H 0.41660 0.07630 0.62050
H56? H 0.25340 0.26900 0.58070
H57? H 0.14060 0.15380 0.54490
O10? O 0.3066(15) 0.3613(10) -0.0254(3)
#END
