
#######################################################################
#
#                 Cambridge Crystallographic Data Centre
#                                CCDC
#
#######################################################################
#
# If this CIF has been generated from an entry in the Cambridge
# Structural Database, then it will include bibliographic, chemical,
# crystal, experimental, refinement or atomic coordinate data resulting
# from the CCDC's data processing and validation procedures.
#
#######################################################################

data_CSD_CIF_GAHDAW
_audit_creation_date 2011-01-20
_audit_creation_method CSD-ConQuest-V1
_database_code_CSD GAHDAW
_database_code_depnum_ccdc_archive 'CCDC 763140'
_chemical_formula_sum 'C26 H41 N1 O9'
_chemical_formula_moiety
;
C26 H41 N1 O9
;
_journal_coden_Cambridge 1475
_journal_volume 1
_journal_year 2010
_journal_page_first 637
_journal_name_full 'Chemical Science '
loop_
_publ_author_name
"Shouyun Yu"
"H.Ishida"
"M.E.Juarez-Garcia"
"J.W.Bode"
_chemical_name_systematic
;
2-(6-(2,2-Dimethyl-1,3-dioxolan-4-yl)-2,2-dimethyltetrahydrofuro[3,4-d][1,3]di
oxol-4-yl)-4-isobutyl-1,6,13-trioxa-2-azadispiro[4.1.5.2]tetradecan-14-one
;
_cell_volume   2815.899
_exptl_crystal_density_diffrn 1.207
_diffrn_ambient_temperature 143
#These two values have been output from a single CSD field.
_refine_ls_R_factor_gt 0.0462
_refine_ls_wR_factor_gt 0.0462
_symmetry_cell_setting orthorhombic
_symmetry_space_group_name_H-M 'P 21 21 21'
_symmetry_Int_Tables_number 19
loop_
_symmetry_equiv_pos_site_id
_symmetry_equiv_pos_as_xyz
1 x,y,z
2 1/2+x,1/2-y,-z
3 -x,1/2+y,1/2-z
4 1/2-x,-y,1/2+z
_cell_length_a 10.5979(11)
_cell_length_b 11.4345(12)
_cell_length_c 23.237(2)
_cell_angle_alpha 90
_cell_angle_beta 90
_cell_angle_gamma 90
_cell_formula_units_Z 4
loop_
_atom_type_symbol
_atom_type_radius_bond
C 0.68
H 0.23
N 0.68
O 0.68
loop_
_atom_site_label
_atom_site_type_symbol
_atom_site_fract_x
_atom_site_fract_y
_atom_site_fract_z
C1 C 0.2940(2) 0.8047(2) 0.04490(11)
C2 C 0.1666(3) 0.8589(2) 0.05650(11)
H1 H 0.14480 0.91110 0.02510
H2 H 0.10320 0.79780 0.05820
C3 C 0.1663(3) 0.9256(3) 0.11191(12)
H3 H 0.17800 0.87170 0.14370
H4 H 0.08510 0.96360 0.11680
C4 C 0.2705(3) 1.0176(3) 0.11316(15)
H5 H 0.25650 1.07450 0.08290
H6 H 0.26930 1.05840 0.14980
C5 C 0.3975(3) 0.9590(3) 0.10469(14)
H7 H 0.41370 0.90650 0.13660
H8 H 0.46320 1.01800 0.10440
C6 C 0.4017(3) 0.8907(3) 0.04876(13)
H9 H 0.39720 0.94460 0.01660
H10 H 0.48110 0.84880 0.04620
C7 C 0.3666(2) 0.6166(2) 0.05711(9)
C8 C 0.3389(2) 0.6427(2) -0.00661(10)
C9 C 0.4374(3) 0.4237(2) 0.06348(10)
H11 H 0.44410 0.35710 0.08920
H12 H 0.42920 0.39510 0.02440
C10 C 0.3239(2) 0.4984(2) 0.07950(9)
H13 H 0.31810 0.50240 0.12150
C11 C 0.1972(3) 0.4584(2) 0.05584(11)
H14 H 0.20350 0.45150 0.01430
H15 H 0.13440 0.51770 0.06420
C12 C 0.1525(3) 0.3419(3) 0.08035(14)
H16 H 0.21980 0.28420 0.07480
C13 C 0.1228(4) 0.3478(3) 0.14327(15)
H17 H 0.05600 0.40300 0.14960
H18 H 0.19660 0.37210 0.16400
H19 H 0.09680 0.27200 0.15650
C14 C 0.0356(6) 0.2997(5) 0.0477(2)
H20 H 0.00660 0.22750 0.06420
H21 H 0.05670 0.28770 0.00800
H22 H -0.02980 0.35750 0.05060
C15 C 0.6129(2) 0.4925(2) 0.12458(8)
H23 H 0.65750 0.41750 0.12630
C16 C 0.7100(2) 0.5885(2) 0.13137(9)
H24 H 0.72720 0.62940 0.09510
C17 C 0.8622(2) 0.6208(2) 0.20018(10)
C18 C 0.6567(2) 0.6704(2) 0.17795(9)
H25 H 0.64700 0.75070 0.16390
C19 C 0.5311(2) 0.61685(19) 0.19555(8)
H26 H 0.46220 0.66060 0.17740
C20 C 0.9295(3) 0.5530(3) 0.24636(11)
H27 H 0.87580 0.49140 0.26000
H28 H 0.95010 0.60430 0.27770
H29 H 1.00550 0.52000 0.23090
C21 C 0.9392(3) 0.7191(3) 0.17502(14)
H30 H 1.01400 0.68790 0.15760
H31 H 0.96220 0.77280 0.20500
H32 H 0.89020 0.75940 0.14650
C22 C 0.5077(2) 0.6087(2) 0.25963(9)
H33 H 0.56550 0.55120 0.27640
C23 C 0.5200(2) 0.7241(2) 0.29202(10)
H34 H 0.60280 0.73150 0.30950
H35 H 0.50570 0.79010 0.26660
C24 C 0.3230(2) 0.6569(2) 0.30816(10)
C25 C 0.2497(3) 0.5922(3) 0.35348(12)
H36 H 0.30580 0.54250 0.37480
H37 H 0.18560 0.54550 0.33550
H38 H 0.21090 0.64730 0.37910
C26 C 0.2421(3) 0.7414(3) 0.27353(16)
H39 H 0.19790 0.79270 0.29930
H40 H 0.18230 0.69810 0.25100
H41 H 0.29510 0.78670 0.24850
N1 N 0.54985(19) 0.49907(16) 0.06885(7)
O1 O 0.31205(16) 0.70988(13) 0.08621(6)
O2 O 0.2927(2) 0.75057(18) -0.01039(7)
O3 O 0.3558(2) 0.58082(18) -0.04782(7)
O4 O 0.50095(16) 0.61983(13) 0.06333(6)
O5 O 0.82203(16) 0.54086(16) 0.15686(7)
O6 O 0.74604(15) 0.66286(16) 0.22415(7)
O7 O 0.53225(15) 0.49908(13) 0.17361(6)
O8 O 0.42434(16) 0.71647(15) 0.33460(7)
O9 O 0.38048(18) 0.57378(17) 0.27073(7)
#END
