
#######################################################################
#
#                 Cambridge Crystallographic Data Centre
#                                CCDC
#
#######################################################################
#
# If this CIF has been generated from an entry in the Cambridge
# Structural Database, then it will include bibliographic, chemical,
# crystal, experimental, refinement or atomic coordinate data resulting
# from the CCDC's data processing and validation procedures.
#
#######################################################################

data_CSD_CIF_GAHGEC
_audit_creation_date 2005-02-28
_audit_creation_method CSD-ConQuest-V1
_database_code_CSD GAHGEC
_database_code_depnum_ccdc_archive 'CCDC 239386'
_chemical_formula_sum 'C22 H24 N2 O5'
_chemical_formula_moiety
;
C22 H24 N2 O5
;
_journal_coden_Cambridge 1291
_journal_year 2004
_journal_page_first 4397
_journal_name_full 'Eur.J.Org.Chem. '
loop_
_publ_author_name
"L.W.A.van Berkom"
"G.J.T.Kuster"
"R.de Gelder"
"H.W.Scheeren"
_chemical_name_systematic
;
(+-)-(2S,3S,3aR,4S,4aR,7aR)-7a-Methoxy-2-nitro-3,4-diphenylperhydrocyclopenta(
e)isoxazolo(2,3-b)(1,2)oxazine
;
_chemical_melting_point 424.15
_cell_volume   4091.068
_exptl_crystal_density_diffrn 1.287
_exptl_special_details
;
Melts with decomposition.

;
_exptl_crystal_description 'regular platelet'
_exptl_crystal_preparation 'dichloromethane/heptane'
_diffrn_ambient_temperature 293
_refine_special_details
;
A carbon atom of one of the rings is disordered over two positions with 
occupancies 0.53:0.47.
;
#These two values have been output from a single CSD field.
_refine_ls_R_factor_gt 0.1066
_refine_ls_wR_factor_gt 0.1066
_symmetry_cell_setting monoclinic
_symmetry_space_group_name_H-M 'P 21/c'
_symmetry_Int_Tables_number 14
loop_
_symmetry_equiv_pos_site_id
_symmetry_equiv_pos_as_xyz
1 x,y,z
2 x,1/2-y,1/2+z
3 -x,-y,-z
4 -x,-1/2+y,-1/2-z
_cell_length_a 21.719(6)
_cell_length_b 9.2550(13)
_cell_length_c 21.821(4)
_cell_angle_alpha 90
_cell_angle_beta 111.139(19)
_cell_angle_gamma 90
_cell_formula_units_Z 8
loop_
_atom_type_symbol
_atom_type_radius_bond
C 0.68
H 0.23
N 0.68
O 0.68
loop_
_atom_site_label
_atom_site_type_symbol
_atom_site_fract_x
_atom_site_fract_y
_atom_site_fract_z
O1 O 0.2403(3) 0.0507(6) 0.1345(3)
C1 C 0.2526(4) 0.0014(8) 0.1984(4)
H1 H 0.23180 -0.09330 0.19660
C2 C 0.2239(4) 0.1078(8) 0.2339(4)
H2 H 0.25930 0.13480 0.27500
C3 C 0.2102(4) 0.2387(8) 0.1878(3)
H3 H 0.24860 0.30280 0.20360
C4 C 0.1479(3) 0.3298(8) 0.1799(3)
H4 H 0.11540 0.26290 0.18550
C5 C 0.1178(4) 0.3880(8) 0.1096(3)
H5 H 0.14880 0.45380 0.10030
C6 C 0.0513(4) 0.4636(9) 0.0965(4)
H6 H 0.05200 0.51930 0.13440
H7 H 0.04040 0.52720 0.05870
C7 C 0.0026(4) 0.3391(11) 0.0833(4)
H8 H -0.04160 0.37140 0.05720
H9 H 0.00210 0.29930 0.12430
C8 C 0.0266(4) 0.2263(9) 0.0459(4)
H10 H 0.00150 0.23230 -0.00090
H11 H 0.02210 0.12970 0.06100
C9 C 0.1001(4) 0.2631(9) 0.0608(4)
O2 O 0.1367(3) 0.1366(6) 0.0893(2)
N1 N 0.2048(3) 0.1839(7) 0.1218(3)
O3 O 0.1136(3) 0.3065(6) 0.0055(3)
C10 C 0.0968(5) 0.2051(10) -0.0470(4)
H12 H 0.11410 0.11180 -0.03020
H13 H 0.11540 0.23570 -0.07870
H14 H 0.04970 0.19930 -0.06770
N2 N 0.3266(4) -0.0137(9) 0.2322(4)
O4 O 0.3620(3) 0.0355(8) 0.2081(4)
O5 O 0.3429(3) -0.0752(9) 0.2846(3)
C11 C 0.1675(4) 0.0466(9) 0.2514(4)
C12 C 0.1652(5) 0.0687(9) 0.3120(4)
H15 H 0.19870 0.12140 0.34280
C13 C 0.1136(6) 0.0140(12) 0.3294(6)
H16 H 0.11310 0.02730 0.37150
C14 C 0.0649(6) -0.0581(15) 0.2837(7)
H17 H 0.02970 -0.09160 0.29460
C15 C 0.0644(5) -0.0847(14) 0.2217(6)
H18 H 0.03060 -0.13710 0.19120
C16 C 0.1172(4) -0.0290(11) 0.2067(5)
H19 H 0.11810 -0.04400 0.16490
C17 C 0.1608(4) 0.4421(8) 0.2329(4)
C18 C 0.2058(4) 0.5538(9) 0.2393(3)
H20 H 0.22880 0.55850 0.21060
C19 C 0.2168(4) 0.6572(9) 0.2874(4)
H21 H 0.24880 0.72790 0.29320
C20 C 0.1795(4) 0.6543(9) 0.3269(4)
H22 H 0.18550 0.72530 0.35870
C21 C 0.1342(4) 0.5486(10) 0.3199(4)
H23 H 0.10950 0.54740 0.34680
C22 C 0.1248(4) 0.4423(9) 0.2726(4)
H24 H 0.09350 0.37040 0.26800
O6 O 0.2754(3) -0.2575(6) 0.1219(3)
C23 C 0.2542(4) -0.2130(9) 0.0563(4)
H25 H 0.27020 -0.11530 0.05310
C24 C 0.2814(4) -0.3210(9) 0.0191(4)
H26 H 0.24720 -0.34040 -0.02380
C25 C 0.2900(4) -0.4573(8) 0.0627(3)
H27 H 0.24880 -0.51260 0.04570
C26 C 0.3470(3) -0.5604(8) 0.0662(3)
H28 H 0.38340 -0.50020 0.06420
C27 C 0.3724(4) -0.6398(8) 0.1325(3)
H29 H 0.33790 -0.70180 0.13730
C28 C 0.4352(4) -0.7270(8) 0.1424(4)
H30 H 0.44990 -0.71280 0.10580
H31 H 0.42750 -0.82920 0.14630
C29 C 0.4888(9) -0.668(2) 0.2087(16)
H32 H 0.48720 -0.71980 0.24660
H33 H 0.53300 -0.67420 0.20770
C30? C 0.4878(9) -0.622(3) 0.1632(17)
H34? H 0.49070 -0.56980 0.12560
H35? H 0.52980 -0.66780 0.18640
C31 C 0.4688(4) -0.5172(9) 0.2095(4)
H36 H 0.48230 -0.45900 0.17950
H37 H 0.48780 -0.47660 0.25330
C32 C 0.3940(4) -0.5242(9) 0.1873(4)
O7 O 0.3691(2) -0.3841(5) 0.1644(2)
N3 N 0.2977(3) -0.4066(7) 0.1295(3)
O8 O 0.3728(3) -0.5718(6) 0.2382(2)
C33 C 0.3888(4) -0.4759(9) 0.2923(4)
H38 H 0.43550 -0.47920 0.31650
H39 H 0.36560 -0.50410 0.32040
H40 H 0.37630 -0.37940 0.27660
N4 N 0.1781(4) -0.2166(8) 0.0291(4)
O9 O 0.1489(3) -0.2661(8) 0.0619(3)
O10 O 0.1532(3) -0.1636(7) -0.0250(3)
C34 C 0.3421(4) -0.2639(9) 0.0085(4)
C35 C 0.3903(4) -0.1861(10) 0.0549(4)
H41 H 0.38480 -0.16020 0.09380
C36 C 0.4477(5) -0.1451(10) 0.0444(5)
H42 H 0.48080 -0.09500 0.07670
C37 C 0.4549(5) -0.1789(11) -0.0139(5)
H43 H 0.49290 -0.15130 -0.02110
C38 C 0.4067(5) -0.2528(10) -0.0610(5)
H44 H 0.41190 -0.27620 -0.10030
C39 C 0.3496(4) -0.2936(9) -0.0508(4)
H45 H 0.31620 -0.34120 -0.08390
C40 C 0.3293(4) -0.6637(9) 0.0085(4)
C41 C 0.3636(4) -0.6647(9) -0.0331(4)
H46 H 0.39710 -0.59760 -0.02720
C42 C 0.3493(4) -0.764(1) -0.0839(5)
H47 H 0.37230 -0.76240 -0.11250
C43 C 0.3006(5) -0.8649(10) -0.0915(4)
H48 H 0.29110 -0.93390 -0.12470
C44 C 0.2666(4) -0.8629(9) -0.0502(4)
H49 H 0.23350 -0.93070 -0.05570
C45 C 0.2797(4) -0.7646(8) -0.0008(4)
H50 H 0.25540 -0.76520 0.02670
#END
