
#######################################################################
#
#                 Cambridge Crystallographic Data Centre
#                                CCDC
#
#######################################################################
#
# If this CIF has been generated from an entry in the Cambridge
# Structural Database, then it will include bibliographic, chemical,
# crystal, experimental, refinement or atomic coordinate data resulting
# from the CCDC's data processing and validation procedures.
#
#######################################################################

data_CSD_CIF_GAHGOM
_audit_creation_date 2005-02-28
_audit_creation_method CSD-ConQuest-V1
_database_code_CSD GAHGOM
_database_code_depnum_ccdc_archive 'CCDC 239388'
_chemical_formula_sum 'C14 H17 N1 O4'
_chemical_formula_moiety
;
C14 H17 N1 O4
;
_journal_coden_Cambridge 1291
_journal_year 2004
_journal_page_first 4397
_journal_name_full 'Eur.J.Org.Chem. '
loop_
_publ_author_name
"L.W.A.van Berkom"
"G.J.T.Kuster"
"R.de Gelder"
"H.W.Scheeren"
_chemical_name_systematic
;
(+-)-(2R,4aR)-2-((4-Methoxybenzyl)oxy)perhydroazeto(1,2-b)(1,2)oxazin-6-one
;
_chemical_melting_point 359.15
_cell_volume   1328.980
_exptl_crystal_density_diffrn 1.316
_exptl_crystal_preparation 'ethyl acetate/heptane'
_diffrn_ambient_temperature 208
#These two values have been output from a single CSD field.
_refine_ls_R_factor_gt 0.0473
_refine_ls_wR_factor_gt 0.0473
_symmetry_cell_setting orthorhombic
_symmetry_space_group_name_H-M 'P 21 21 21'
_symmetry_Int_Tables_number 19
loop_
_symmetry_equiv_pos_site_id
_symmetry_equiv_pos_as_xyz
1 x,y,z
2 1/2+x,1/2-y,-z
3 -x,1/2+y,1/2-z
4 1/2-x,-y,1/2+z
_cell_length_a 6.2622(4)
_cell_length_b 13.6803(16)
_cell_length_c 15.5130(17)
_cell_angle_alpha 90
_cell_angle_beta 90
_cell_angle_gamma 90
_cell_formula_units_Z 4
loop_
_atom_type_symbol
_atom_type_radius_bond
C 0.68
H 0.23
N 0.68
O 0.68
loop_
_atom_site_label
_atom_site_type_symbol
_atom_site_fract_x
_atom_site_fract_y
_atom_site_fract_z
O1 O -0.7755(2) -0.03549(8) -0.65422(9)
C1 C -0.9511(3) -0.09190(13) -0.61757(13)
H1 H -0.949(3) -0.0764(11) -0.5559(11)
C2 C -1.1567(4) -0.06517(15) -0.66071(17)
H2 H -1.269(4) -0.1109(18) -0.6379(16)
H3 H -1.146(4) -0.0782(15) -0.7192(15)
C3 C -1.0299(3) 0.10728(14) -0.67211(13)
H4 H -1.029(3) 0.1238(14) -0.7332(13)
C4 C -1.2119(3) 0.04262(15) -0.64549(16)
H5 H -1.352(4) 0.0588(16) -0.6779(14)
H6 H -1.239(3) 0.0542(15) -0.5838(15)
C5 C -0.9681(4) 0.19188(17) -0.61065(17)
H7 H -0.923(4) 0.2486(18) -0.6366(16)
H8 H -1.080(5) 0.2025(19) -0.5681(17)
C6 C -0.7853(3) 0.12587(14) -0.57935(15)
N1 N -0.8241(2) 0.06383(10) -0.64639(11)
O2 O -0.6603(3) 0.12477(12) -0.52148(11)
O3 O -0.9009(2) -0.18901(9) -0.63402(8)
C7 C -0.7233(4) -0.22361(14) -0.58337(15)
H9 H -0.757(3) -0.2119(13) -0.5228(13)
H10 H -0.598(4) -0.1859(16) -0.6031(13)
C8 C -0.6893(3) -0.33048(13) -0.60066(12)
C9 C -0.5008(3) -0.36440(14) -0.63581(12)
H11 H -0.396(3) -0.3188(14) -0.6510(12)
C10 C -0.4638(3) -0.46401(14) -0.64791(12)
H12 H -0.329(4) -0.4838(14) -0.6716(13)
C11 C -0.6210(3) -0.52997(13) -0.62562(12)
C12 C -0.8124(3) -0.49697(14) -0.59140(13)
H13 H -0.920(3) -0.5422(14) -0.5765(12)
C13 C -0.8443(3) -0.39848(14) -0.57918(12)
H14 H -0.979(4) -0.3784(14) -0.5575(12)
O4 O -0.6058(2) -0.62898(9) -0.63474(9)
C14 C -0.4131(4) -0.66793(18) -0.67014(19)
H15 H -0.295(5) -0.6465(19) -0.633(2)
H16 H -0.383(4) -0.6390(17) -0.7306(17)
H17 H -0.439(4) -0.7367(18) -0.6732(13)
#END
