
#######################################################################
#
#                 Cambridge Crystallographic Data Centre
#                                CCDC
#
#######################################################################
#
# If this CIF has been generated from an entry in the Cambridge
# Structural Database, then it will include bibliographic, chemical,
# crystal, experimental, refinement or atomic coordinate data resulting
# from the CCDC's data processing and validation procedures.
#
#######################################################################

data_CSD_CIF_GAHKAB02
_audit_creation_date 2000-05-24
_audit_creation_method CSD-ConQuest-V1
_database_code_CSD GAHKAB02
_database_code_depnum_ccdc_archive 'CCDC 143247'
_chemical_formula_sum 'C10 H13 N3 O3'
_chemical_formula_moiety
;
C10 H13 N3 O3
;
_journal_coeditor_code "IUCr BM1387"
_journal_coden_Cambridge 591
_journal_volume 56
_journal_year 2000
_journal_page_first 336
_journal_name_full 'Acta Crystallogr.,Sect.C:Cryst.Struct.Commun. '
loop_
_publ_author_name
"R.D.Clark"
"A.Romero"
"O.Ya.Borbulevych"
"M.Yu.Antipin"
"V.N.Nesterov"
"T.V.Timofeeva"
_chemical_name_systematic
;
N-(2-(Dimethylamino)-5-nitrophenyl)acetamide
;
_chemical_name_common
;
2-(N,N-Dimethylamino)-5-nitroacetanilide
;
_cell_volume    542.640
_exptl_crystal_colour 'yellow'
_exptl_crystal_density_diffrn 1.366
_exptl_crystal_description 'needles'
_exptl_crystal_preparation 'ethanol'
_diffrn_ambient_temperature ?
_diffrn_special_details
;
The study was carried out at room temperature,in the range 283-303K

;
#These two values have been output from a single CSD field.
_refine_ls_R_factor_gt 0.034
_refine_ls_wR_factor_gt 0.034
_symmetry_cell_setting monoclinic
_symmetry_space_group_name_H-M 'P 21'
_symmetry_Int_Tables_number 4
loop_
_symmetry_equiv_pos_site_id
_symmetry_equiv_pos_as_xyz
1 x,y,z
2 -x,1/2+y,-z
_cell_length_a 4.786(1)
_cell_length_b 13.030(3)
_cell_length_c 8.727(2)
_cell_angle_alpha 90
_cell_angle_beta 94.38(3)
_cell_angle_gamma 90
_cell_formula_units_Z 2
loop_
_atom_type_symbol
_atom_type_radius_bond
C 0.68
H 0.23
N 0.68
O 0.68
loop_
_atom_site_label
_atom_site_type_symbol
_atom_site_fract_x
_atom_site_fract_y
_atom_site_fract_z
N1 N 0.2912(4) 0.54479(12) 0.3017(2)
H1 H 0.46210 0.54938 0.27830
N2 N 0.5269(3) 0.34733(13) 0.3217(2)
N3 N -0.1198(4) 0.4893(2) 0.7870(2)
O1 O -0.1482(3) 0.60305(14) 0.2415(2)
O2 O -0.1281(5) 0.4387(2) 0.9037(2)
O3 O -0.2532(5) 0.5688(2) 0.7653(2)
C1 C 0.2389(4) 0.48048(14) 0.4263(2)
C2 C 0.3801(4) 0.38400(14) 0.4391(2)
C3 C 0.3663(5) 0.3309(2) 0.5785(2)
H2 H 0.466(5) 0.270(2) 0.587(3)
C4 C 0.2093(5) 0.3650(2) 0.6919(2)
H3 H 0.202(5) 0.3304(19) 0.786(3)
C5 C 0.0549(4) 0.45426(15) 0.6696(2)
C6 C 0.0735(4) 0.5128(2) 0.5380(2)
H4 H -0.013(5) 0.580(2) 0.533(2)
C7 C 0.0984(4) 0.59990(15) 0.2154(2)
C8 C 0.2085(5) 0.6595(2) 0.0866(3)
H5 H 0.242(8) 0.723(4) 0.121(4)
H6 H 0.075(6) 0.659(2) -0.003(3)
H7 H 0.328(7) 0.626(3) 0.049(3)
C9 C 0.7156(6) 0.2615(2) 0.3529(4)
H8 H 0.634(7) 0.202(3) 0.361(3)
H9 H 0.834(7) 0.254(2) 0.270(4)
H10 H 0.824(6) 0.272(2) 0.448(3)
C10 C 0.4021(7) 0.3476(3) 0.1648(3)
H11 H 0.253(6) 0.384(2) 0.149(3)
H12 H 0.378(8) 0.281(3) 0.132(4)
H13 H 0.486(9) 0.387(3) 0.105(5)
#END
