
#######################################################################
#
#                 Cambridge Crystallographic Data Centre
#                                CCDC
#
#######################################################################
#
# If this CIF has been generated from an entry in the Cambridge
# Structural Database, then it will include bibliographic, chemical,
# crystal, experimental, refinement or atomic coordinate data resulting
# from the CCDC's data processing and validation procedures.
#
#######################################################################

data_CSD_CIF_GAHLEG10
_audit_creation_date 1991-02-22
_audit_creation_method CSD-ConQuest-V1
_database_code_CSD GAHLEG10
_database_code_depnum_ccdc_archive 'CCDC 1162945'
_chemical_formula_sum 'C6 H12 N2 O1'
_chemical_formula_moiety
;
C6 H12 N2 O1
;
_journal_coden_Cambridge 37
_journal_volume 94
_journal_year 1990
_journal_page_first 2815
_journal_name_full 'J.Phys.Chem. '
loop_
_publ_author_name
"P.Mihailovic"
"P.Bassoul"
"J.Simon"
_chemical_name_systematic
;
Triethylenediamine-N-oxide
;
_chemical_melting_point 493
_cell_volume   3912.783
_exptl_special_details
;
low temperature polymorph
phase transition at 418 K

;
_diffrn_ambient_temperature ?
_diffrn_special_details
;
The study was carried out at room temperature,in the range 283-303K

;
#These two values have been output from a single CSD field.
_refine_ls_R_factor_gt 0.089
_refine_ls_wR_factor_gt 0.089
_symmetry_cell_setting rhombohedral
_symmetry_space_group_name_H-M 'R 3 c'
_symmetry_Int_Tables_number 161
loop_
_symmetry_equiv_pos_site_id
_symmetry_equiv_pos_as_xyz
1 x,y,z
2 1/3+x,2/3+y,2/3+z
3 2/3+x,1/3+y,1/3+z
4 -y,x-y,z
5 -x+y,-x,z
6 1/3-y,2/3+x-y,2/3+z
7 1/3-x+y,2/3-x,2/3+z
8 2/3-y,1/3+x-y,1/3+z
9 2/3-x+y,1/3-x,1/3+z
10 -y,-x,1/2+z
11 1/3-y,2/3-x,1/6+z
12 2/3-y,1/3-x,5/6+z
13 -x+y,y,1/2+z
14 x,x-y,1/2+z
15 1/3-x+y,2/3+y,1/6+z
16 1/3+x,2/3+x-y,1/6+z
17 2/3-x+y,1/3+y,5/6+z
18 2/3+x,1/3+x-y,5/6+z
_cell_length_a 12.27
_cell_length_b 12.27
_cell_length_c 30.01
_cell_angle_alpha 90
_cell_angle_beta 90
_cell_angle_gamma 120
_cell_formula_units_Z 18
loop_
_atom_type_symbol
_atom_type_radius_bond
C 0.68
H 0.23
N 0.68
O 0.68
loop_
_atom_site_label
_atom_site_type_symbol
_atom_site_fract_x
_atom_site_fract_y
_atom_site_fract_z
O1 O 0.00000 0.00000 0.49410
N1 N 0.00000 0.00000 0.539(1)
N2 N 0.00000 0.00000 0.626(1)
C1 C -0.126(1) -0.098(1) 0.556(1)
C2 C -0.121(1) -0.104(1) 0.608(1)
H1 H -0.192(1) -0.078(1) 0.547(1)
H2 H -0.149(1) -0.181(1) 0.544(1)
H3 H -0.191(1) -0.094(1) 0.621(1)
H4 H -0.131(1) -0.184(1) 0.617(1)
O2 O -0.251(1) -0.045(1) 0.769(1)
N3 N -0.186(2) 0.082(1) 0.760(1)
N4 N -0.072(1) 0.318(1) 0.740(1)
C3 C -0.104(1) 0.155(1) 0.797(1)
C4 C -0.037(1) 0.296(1) 0.786(1)
C5 C -0.110(1) 0.107(1) 0.719(1)
C6 C -0.039(1) 0.246(1) 0.709(1)
C7 C -0.278(1) 0.127(1) 0.753(1)
C8 C -0.209(1) 0.261(1) 0.738(1)
H5 H -0.157(1) 0.139(1) 0.825(1)
H6 H -0.043(1) 0.129(1) 0.804(1)
H7 H -0.061(1) 0.342(1) 0.808(1)
H8 H -0.050(1) 0.077(1) 0.723(1)
H9 H -0.166(1) 0.062(1) 0.694(1)
H10 H -0.059(1) 0.261(1) 0.679(1)
H11 H -0.319(1) 0.123(1) 0.783(1)
H12 H -0.342(1) 0.074(1) 0.732(1)
H13 H -0.234(1) 0.312(1) 0.757(1)
H14 H -0.234(1) 0.264(1) 0.707(1)
H15? H -0.054(1) 0.331(1) 0.787(1)
H16? H -0.051(1) 0.279(1) 0.711(1)
C1C C 0.098(1) -0.028(1) 0.556(1)
C1D C 0.028(1) 0.126(1) 0.556(1)
C2C C 0.104(1) -0.017(1) 0.608(1)
C2D C 0.017(1) 0.121(1) 0.608(1)
H1C H 0.078(1) -0.114(1) 0.547(1)
H2C H 0.181(1) 0.032(1) 0.544(1)
H1D H 0.114(1) 0.192(1) 0.547(1)
H2D H -0.032(1) 0.149(1) 0.544(1)
H3C H 0.094(1) -0.097(1) 0.621(1)
H4C H 0.184(1) 0.053(1) 0.617(1)
H3D H 0.097(1) 0.191(1) 0.621(1)
H4D H -0.053(1) 0.131(1) 0.617(1)
#END
