
#######################################################################
#
#                 Cambridge Crystallographic Data Centre
#                                CCDC
#
#######################################################################
#
# If this CIF has been generated from an entry in the Cambridge
# Structural Database, then it will include bibliographic, chemical,
# crystal, experimental, refinement or atomic coordinate data resulting
# from the CCDC's data processing and validation procedures.
#
#######################################################################

data_CSD_CIF_GAHYOD
_audit_creation_date 1988-10-10
_audit_creation_method CSD-ConQuest-V1
_database_code_CSD GAHYOD
_database_code_depnum_ccdc_archive 'CCDC 1163057'
_chemical_formula_sum 'C18 H16 N2 O2'
_chemical_formula_moiety
;
C18 H16 N2 O2
;
_journal_coden_Cambridge 440
_journal_volume 12
_journal_year 1988
_journal_page_first 53
_journal_name_full 'New J.Chem. '
loop_
_publ_author_name
"B.Tinant"
"Shan Wu"
"J.-P.Declercq"
"M.van Meerssche"
"G.Leroy"
"J.Weiler"
_chemical_name_systematic
;
1-Cyano-3,3-dimethyl-r-2-m-nitrophenyl-t-1-phenylcyclopropane
;
_chemical_melting_point 382.15
_cell_volume    793.363
_exptl_crystal_density_diffrn 1.22
_exptl_special_details
;
Melting point range 382.15-383.15K

;
_diffrn_ambient_temperature ?
_diffrn_special_details
;
The study was carried out at room temperature,in the range 283-303K

;
#These two values have been output from a single CSD field.
_refine_ls_R_factor_gt 0.043
_refine_ls_wR_factor_gt 0.043
_symmetry_cell_setting triclinic
_symmetry_space_group_name_H-M 'P -1'
_symmetry_Int_Tables_number 2
loop_
_symmetry_equiv_pos_site_id
_symmetry_equiv_pos_as_xyz
1 x,y,z
2 -x,-y,-z
_cell_length_a 7.228(1)
_cell_length_b 9.837(2)
_cell_length_c 11.990(4)
_cell_angle_alpha 78.98(2)
_cell_angle_beta 98.96(2)
_cell_angle_gamma 107.57(2)
_cell_formula_units_Z 2
loop_
_atom_type_symbol
_atom_type_radius_bond
C 0.68
N 0.68
O 0.68
loop_
_atom_site_label
_atom_site_type_symbol
_atom_site_fract_x
_atom_site_fract_y
_atom_site_fract_z
C1 C -0.1029(4) 0.1684(3) 0.7266(2)
C2 C -0.0009(4) 0.2958(3) 0.7902(2)
C3 C 0.1202(4) 0.2129(3) 0.7575(2)
C4 C -0.2097(4) 0.0360(3) 0.7927(2)
N1 N -0.2956(4) -0.0691(3) 0.8408(2)
C5 C -0.1961(4) 0.1894(3) 0.6057(2)
C6 C -0.1994(5) 0.0959(4) 0.5327(3)
C7 C -0.2907(6) 0.1119(4) 0.4230(3)
C8 C -0.3762(5) 0.2202(4) 0.3843(3)
C9 C -0.3734(5) 0.3123(4) 0.4555(3)
C10 C -0.2842(5) 0.2980(3) 0.5661(3)
C11 C -0.0287(4) 0.2965(3) 0.9108(2)
C12 C -0.2128(4) 0.2540(3) 0.9474(3)
C13 C -0.2385(5) 0.2618(3) 1.0573(3)
C14 C -0.0785(5) 0.3127(3) 1.1337(3)
C15 C 0.1031(4) 0.3557(3) 1.0958(2)
C16 C 0.1318(4) 0.3486(3) 0.9865(2)
N2 N 0.2753(5) 0.4132(3) 1.1744(2)
O1 O 0.2483(4) 0.4216(3) 1.2699(2)
O2 O 0.4362(4) 0.4505(3) 1.1413(2)
C17 C 0.2060(6) 0.1142(4) 0.8480(3)
C18 C 0.2416(6) 0.2835(5) 0.6594(3)
#END
