
#######################################################################
#
#                 Cambridge Crystallographic Data Centre
#                                CCDC
#
#######################################################################
#
# If this CIF has been generated from an entry in the Cambridge
# Structural Database, then it will include bibliographic, chemical,
# crystal, experimental, refinement or atomic coordinate data resulting
# from the CCDC's data processing and validation procedures.
#
#######################################################################

data_CSD_CIF_GAKJOR
_audit_creation_date 1988-11-02
_audit_creation_method CSD-ConQuest-V1
_database_code_CSD GAKJOR
_chemical_formula_sum 'C15 H19 N1 O5'
_chemical_formula_moiety
;
C15 H19 N1 O5
;
_journal_coden_Cambridge 16
_journal_volume 44
_journal_year 1988
_journal_page_first 1809
_journal_name_full 'Tetrahedron '
loop_
_publ_author_name
"I.A.G.El-Karim"
"R.Jones"
"W.B.Motherwell"
"H.S.Rzepa"
"D.J.Williams"
_chemical_name_systematic
;
2-(p-Nitrobenzoyloxy)-3,3,5-trimethyloxane
;
_cell_volume    766.443
_exptl_crystal_density_diffrn 1.28
_diffrn_ambient_temperature ?
_diffrn_special_details
;
The study was carried out at room temperature,in the range 283-303K

;
#These two values have been output from a single CSD field.
_refine_ls_R_factor_gt 0.065
_refine_ls_wR_factor_gt 0.065
_symmetry_cell_setting triclinic
_symmetry_space_group_name_H-M 'P -1'
_symmetry_Int_Tables_number 2
loop_
_symmetry_equiv_pos_site_id
_symmetry_equiv_pos_as_xyz
1 x,y,z
2 -x,-y,-z
_cell_length_a 7.015(4)
_cell_length_b 8.341(5)
_cell_length_c 14.744(10)
_cell_angle_alpha 80.34(5)
_cell_angle_beta 87.37(5)
_cell_angle_gamma 64.37(4)
_cell_formula_units_Z 2
loop_
_atom_type_symbol
_atom_type_radius_bond
C 0.68
H 0.23
N 0.68
O 0.68
loop_
_atom_site_label
_atom_site_type_symbol
_atom_site_fract_x
_atom_site_fract_y
_atom_site_fract_z
O1 O 0.0558(4) 0.6818(4) 0.7655(2)
C1 C 0.1907(7) 0.5027(6) 0.7551(3)
C2 C 0.3225(7) 0.4913(6) 0.6694(3)
C3 C 0.1596(7) 0.5852(6) 0.5890(3)
C4 C -0.0062(7) 0.7732(6) 0.5993(3)
C5 C -0.1018(7) 0.7653(6) 0.6926(3)
O2 O 0.3287(4) 0.4308(4) 0.8343(2)
C6 C 0.2604(8) 0.3592(6) 0.9112(3)
O3 O 0.0919(5) 0.3528(5) 0.9165(2)
C7 C 0.4291(7) 0.2772(5) 0.9863(3)
C8 C 0.3879(8) 0.1936(3) 1.0686(3)
C9 C 0.5451(8) 0.1029(7) 1.1368(3)
C10 C 0.7424(8) 0.0996(5) 1.1203(3)
C11 C 0.7875(7) 0.1858(6) 1.0410(3)
C12 C 0.6295(7) 0.2760(6) 0.9731(3)
N1 N 0.9162(7) -0.0082(5) 1.1904(2)
O4 O 1.0976(6) -0.0365(5) 1.1681(2)
O5 O 0.8660(6) -0.0598(5) 1.2666(2)
C13 C -0.1773(9) 0.8524(7) 0.5229(3)
C14 C 0.4662(8) 0.5854(7) 0.6736(3)
C15 C 0.4564(8) 0.2938(6) 0.6600(3)
H1 H 0.10840 0.43820 0.74880
H2 H 0.08790 0.51160 0.58380
H3 H 0.23420 0.59480 0.53360
H4 H 0.06220 0.85210 0.59390
H5 H -0.18320 0.69740 0.69420
H6 H -0.19280 0.88580 0.70200
H7 H 0.24960 0.19820 1.07870
H8 H 0.51760 0.04390 1.19420
H9 H 0.92490 0.08390 1.03240
H10 H 0.65710 0.33800 0.91680
H11 H -0.11610 0.85290 0.46330
H12 H -0.27010 0.97370 0.53050
H13 H -0.25610 0.78170 0.52810
H14 H 0.39160 0.70680 0.68550
H15 H 0.53840 0.58570 0.61670
H16 H 0.56730 0.51400 0.72290
H17 H 0.55710 0.24050 0.71080
H18 H 0.53010 0.28480 0.60320
H19 H 0.36840 0.23160 0.66230
#END
