
#######################################################################
#
#                 Cambridge Crystallographic Data Centre
#                                CCDC
#
#######################################################################
#
# If this CIF has been generated from an entry in the Cambridge
# Structural Database, then it will include bibliographic, chemical,
# crystal, experimental, refinement or atomic coordinate data resulting
# from the CCDC's data processing and validation procedures.
#
#######################################################################

data_CSD_CIF_GAKMEN
_audit_creation_date 2016-01-29
_audit_creation_method CSD-ConQuest-V1
_database_code_CSD GAKMEN
_database_code_depnum_ccdc_archive 'CCDC 1444168'
_chemical_formula_sum 'C22 H25 N1 O3'
_chemical_formula_moiety
;
C22 H25 N1 O3
;
_journal_coden_Cambridge 1748
_journal_volume 3
_journal_year 2016
_journal_page_first 380
_journal_name_full 'Org.Chem.Front. '
loop_
_publ_author_name
"Yucheng Mu"
"Xiaodong Tan"
"Yemin Zhang"
"Xiaobi Jing"
"Zhuangzhi Shi"
_chemical_name_systematic
;
9-Benzyl-8-(methoxyimino)-3,5a-dimethyl-3a,4,5,5a,8,9b-hexahydronaphtho[1,2-b]
furan-2(3H)-one
;
_cell_volume   1965.661
_exptl_crystal_colour 'colorless'
_exptl_crystal_density_diffrn 1.188
_exptl_special_details
;
Absolute configuration

;
_exptl_crystal_description 'block'
_diffrn_ambient_temperature 296
#These two values have been output from a single CSD field.
_refine_ls_R_factor_gt 0.0488
_refine_ls_wR_factor_gt 0.0488
_symmetry_cell_setting monoclinic
_symmetry_space_group_name_H-M 'P 21'
_symmetry_Int_Tables_number 4
loop_
_symmetry_equiv_pos_site_id
_symmetry_equiv_pos_as_xyz
1 x,y,z
2 -x,1/2+y,-z
_cell_length_a 8.1343(14)
_cell_length_b 27.626(5)
_cell_length_c 8.8172(15)
_cell_angle_alpha 90
_cell_angle_beta 97.223(3)
_cell_angle_gamma 90
_cell_formula_units_Z 4
loop_
_atom_type_symbol
_atom_type_radius_bond
C 0.68
H 0.23
N 0.68
O 0.68
loop_
_atom_site_label
_atom_site_type_symbol
_atom_site_fract_x
_atom_site_fract_y
_atom_site_fract_z
C1 C 0.6270(6) 0.22335(16) 0.7270(5)
H1 H 0.73810 0.22980 0.77310
H2 H 0.60380 0.18940 0.73450
H3 H 0.55050 0.24150 0.77900
C2 C 0.6231(4) 0.30260(11) 0.4216(4)
C3 C 0.5509(5) 0.27383(13) 0.2939(4)
H4 H 0.52100 0.24190 0.30970
C4 C 0.5268(5) 0.29229(13) 0.1545(5)
H5 H 0.47900 0.27220 0.07660
C5 C 0.5700(4) 0.34310(12) 0.1110(4)
C6 C 0.6424(3) 0.37156(10) 0.2536(3)
C7 C 0.6680(3) 0.35346(10) 0.3960(3)
C8 C 0.7491(3) 0.38123(11) 0.5333(3)
H6 H 0.71930 0.36600 0.62510
H7 H 0.70440 0.41380 0.52940
C9 C 0.9368(3) 0.38438(10) 0.5459(3)
C10 C 1.0296(4) 0.35109(12) 0.4761(4)
H8 H 0.97630 0.32640 0.41760
C11 C 1.2023(5) 0.35408(18) 0.4922(5)
H9 H 1.26350 0.33170 0.44410
C12 C 1.2806(5) 0.39022(19) 0.5795(5)
H10 H 1.39570 0.39190 0.59230
C13 C 1.1907(5) 0.42401(17) 0.6483(5)
H11 H 1.24460 0.44860 0.70720
C14 C 1.0193(4) 0.42126(12) 0.6295(4)
H12 H 0.95860 0.44470 0.67400
C15 C 0.7000(4) 0.42004(10) 0.2011(3)
H13 H 0.60740 0.43470 0.13490
C16 C 0.8400(4) 0.41313(10) 0.1071(3)
H14 H 0.92400 0.39260 0.16480
C17 C 0.7770(6) 0.38743(12) -0.0420(4)
H15 H 0.69580 0.40750 -0.10280
H16 H 0.86810 0.38140 -0.10060
C18 C 0.6981(5) 0.33964(12) -0.0028(4)
H17 H 0.78560 0.31780 0.03910
H18 H 0.64470 0.32530 -0.09680
C19 C 0.9084(5) 0.46461(12) 0.1053(4)
H19 H 0.83840 0.48300 0.02710
C20 C 1.0843(6) 0.47093(19) 0.0783(7)
H20 H 1.11330 0.50460 0.08660
H21 H 1.09780 0.45950 -0.02230
H22 H 1.15500 0.45280 0.15300
C21 C 0.8756(4) 0.48277(11) 0.2602(4)
C22 C 0.4067(5) 0.36722(17) 0.0349(6)
H23 H 0.34920 0.34520 -0.03760
H24 H 0.43290 0.39630 -0.01650
H25 H 0.33760 0.37500 0.11220
N1 N 0.6526(3) 0.28670(9) 0.5604(3)
O1 O 0.6099(4) 0.23724(9) 0.5696(3)
O2 O 0.7593(3) 0.45536(7) 0.3159(2)
O3 O 0.9391(4) 0.51615(9) 0.3310(4)
C23 C 0.9180(5) 0.78222(14) 1.1977(4)
H26 H 0.80860 0.77400 1.21900
H27 H 0.93330 0.81660 1.20630
H28 H 0.99840 0.76620 1.26950
C24 C 0.9131(4) 0.70188(11) 0.8962(4)
C25 C 0.9633(5) 0.73105(12) 0.7736(4)
H29 H 0.99350 0.76320 0.79260
C26 C 0.9673(5) 0.71297(13) 0.6348(4)
H30 H 1.00240 0.73330 0.56120
C27 C 0.9201(4) 0.66284(12) 0.5879(4)
C28 C 0.8736(4) 0.63298(10) 0.7217(4)
C29 C 0.8696(3) 0.65074(10) 0.8641(3)
C30 C 0.8154(3) 0.62162(11) 0.9950(3)
H31 H 0.86290 0.58940 0.99330
H32 H 0.86010 0.63680 1.09060
C31 C 0.6301(4) 0.61696(11) 0.9912(3)
C32 C 0.5626(5) 0.57521(13) 1.0380(5)
H33 H 0.63180 0.54960 1.07180
C33 C 0.3939(6) 0.5702(2) 1.0361(7)
H34 H 0.35030 0.54140 1.06770
C34 C 0.2909(5) 0.6075(2) 0.9881(7)
H35 H 0.17710 0.60430 0.98820
C35 C 0.3539(5) 0.64881(19) 0.9405(6)
H36 H 0.28330 0.67410 0.90630
C36 C 0.5244(4) 0.65421(13) 0.9419(4)
H37 H 0.56700 0.68310 0.90930
C37 C 0.7693(5) 0.66642(12) 0.4622(4)
H38 H 0.68650 0.68700 0.49920
H39 H 0.80480 0.68200 0.37320
C38 C 0.6887(5) 0.61806(12) 0.4127(4)
H40 H 0.58630 0.62350 0.34570
H41 H 0.76240 0.59920 0.35760
C39 C 0.6537(4) 0.59132(10) 0.5538(4)
H42 H 0.57830 0.61120 0.60600
C40 C 0.8120(4) 0.5845(1) 0.6615(4)
H43 H 0.89540 0.57100 0.60240
C41 C 0.5854(5) 0.54006(12) 0.5420(4)
H44 H 0.64100 0.52220 0.46700
C42 C 0.6445(5) 0.52065(11) 0.6986(4)
C43 C 0.3985(6) 0.53498(18) 0.4999(6)
H45 H 0.36820 0.50150 0.50340
H46 H 0.36720 0.54730 0.39860
H47 H 0.34250 0.55300 0.57120
C44 C 1.0702(5) 0.64032(15) 0.5204(5)
H48 H 1.10380 0.66150 0.44360
H49 H 1.03900 0.60950 0.47540
H50 H 1.16060 0.63610 0.60040
N2 N 0.8986(3) 0.71717(9) 1.0318(3)
O4 O 0.9384(3) 0.76713(8) 1.0457(3)
O5 O 0.7725(3) 0.54788(7) 0.7684(2)
O6 O 0.5954(4) 0.48670(9) 0.7645(3)
#END
