
#######################################################################
#
#                 Cambridge Crystallographic Data Centre
#                                CCDC
#
#######################################################################
#
# If this CIF has been generated from an entry in the Cambridge
# Structural Database, then it will include bibliographic, chemical,
# crystal, experimental, refinement or atomic coordinate data resulting
# from the CCDC's data processing and validation procedures.
#
#######################################################################

data_CSD_CIF_GAKNUB
_audit_creation_date 1988-11-02
_audit_creation_method CSD-ConQuest-V1
_database_code_CSD GAKNUB
_chemical_formula_sum 'C18 H22 N4 O2'
_chemical_formula_moiety
;
C18 H22 N4 O2
;
_journal_coeditor_code "IUCr CN0287"
_journal_coden_Cambridge 591
_journal_volume 44
_journal_year 1988
_journal_page_first 486
_journal_name_full 'Acta Crystallogr.,Sect.C:Cryst.Struct.Commun. '
loop_
_publ_author_name
"D.E.Williams"
"A.Bundoc"
"K.G.Taylor"
_chemical_name_systematic
;
(Z,Z)-1,1'-(1,6-Hexanediyl)-bis(2-phenyldiazene) 2,2'-dioxide
;
_chemical_melting_point 347
_cell_volume   1780.628
_exptl_crystal_colour 'colorless'
_exptl_crystal_density_diffrn 1.22
_exptl_special_details
;
Melting point range 347-348K

;
_diffrn_ambient_temperature ?
_diffrn_special_details
;
The study was carried out at room temperature,in the range 283-303K

;
#These two values have been output from a single CSD field.
_refine_ls_R_factor_gt 0.044
_refine_ls_wR_factor_gt 0.044
_symmetry_cell_setting orthorhombic
_symmetry_space_group_name_H-M 'P b c a'
_symmetry_Int_Tables_number 61
loop_
_symmetry_equiv_pos_site_id
_symmetry_equiv_pos_as_xyz
1 x,y,z
2 1/2-x,1/2+y,z
3 x,1/2-y,1/2+z
4 1/2-x,-y,1/2+z
5 -x,-y,-z
6 -1/2+x,-1/2-y,-z
7 -x,-1/2+y,-1/2-z
8 -1/2+x,y,-1/2-z
_cell_length_a 19.475(10)
_cell_length_b 10.435(20)
_cell_length_c 8.762(20)
_cell_angle_alpha 90
_cell_angle_beta 90
_cell_angle_gamma 90
_cell_formula_units_Z 4
loop_
_atom_type_symbol
_atom_type_radius_bond
C 0.68
H 0.23
N 0.68
O 0.68
loop_
_atom_site_label
_atom_site_type_symbol
_atom_site_fract_x
_atom_site_fract_y
_atom_site_fract_z
O1 O 0.6237(1) 0.1880(2) 0.0481(2)
N1 N 0.6197(1) 0.0677(2) 0.0520(3)
N2 N 0.5940(1) -0.0030(2) -0.0494(3)
C1 C 0.6481(1) 0.0037(2) 0.1874(3)
C2 C 0.6754(1) 0.0778(2) 0.3001(3)
C3 C 0.7040(1) 0.0184(3) 0.4271(4)
C4 C 0.7057(2) -0.1133(3) 0.4368(4)
C5 C 0.6768(2) -0.1858(3) 0.3229(3)
C6 C 0.6476(2) -0.1290(3) 0.1952(3)
C7 C 0.5668(2) 0.0687(3) -0.1796(3)
C8 C 0.5410(1) -0.0234(3) -0.2985(3)
C9 C 0.5120(1) 0.0456(3) -0.4389(3)
H1 H 0.67500 0.17300 0.29200
H2 H 0.72300 0.07200 0.51200
H3 H 0.72800 -0.15600 0.52600
H4 H 0.67700 -0.28100 0.33200
H5 H 0.62700 -0.18200 0.11200
H6 H 0.60400 0.12300 -0.22400
H7 H 0.52800 0.12500 -0.14500
H8 H 0.50400 -0.07700 -0.25300
H9 H 0.58000 -0.08000 -0.33200
H10 H 0.54900 0.10200 -0.48300
H11 H 0.47200 0.10000 -0.40600
C9D C 0.4880(1) -0.0456(3) -0.5611(3)
C8D C 0.4590(1) 0.0234(3) -0.7015(3)
H10D H 0.45100 -0.10200 -0.51700
H11D H 0.52800 -0.10000 -0.59400
C7D C 0.4332(2) -0.0687(3) -0.8204(3)
H8D H 0.49600 0.07700 -0.74700
H9D H 0.42000 0.08000 -0.66800
N2D N 0.4060(1) 0.0030(2) -0.9506(3)
H6D H 0.39600 -0.12300 -0.77600
H7D H 0.47200 -0.12500 -0.85500
N1D N 0.3803(1) -0.0677(2) -1.0520(3)
O1D O 0.3763(1) -0.1880(2) -1.0481(2)
C1D C 0.3519(1) -0.0037(2) -1.1874(3)
C2D C 0.3246(1) -0.0778(2) -1.3001(3)
C6D C 0.3524(2) 0.1290(3) -1.1952(3)
C3D C 0.2960(1) -0.0184(3) -1.4271(4)
H1D H 0.32500 -0.17300 -1.29200
C5D C 0.3232(2) 0.1858(3) -1.3229(3)
H5D H 0.37300 0.18200 -1.11200
C4D C 0.2943(2) 0.1133(3) -1.4368(4)
H2D H 0.27700 -0.07200 -1.51200
H4D H 0.32300 0.28100 -1.33200
H3D H 0.27200 0.15600 -1.52600
#END
