
#######################################################################
#
#                 Cambridge Crystallographic Data Centre
#                                CCDC
#
#######################################################################
#
# If this CIF has been generated from an entry in the Cambridge
# Structural Database, then it will include bibliographic, chemical,
# crystal, experimental, refinement or atomic coordinate data resulting
# from the CCDC's data processing and validation procedures.
#
#######################################################################

data_CSD_CIF_GAKRAM
_audit_creation_date 2005-02-28
_audit_creation_method CSD-ConQuest-V1
_database_code_CSD GAKRAM
_database_code_depnum_ccdc_archive 'CCDC 259097'
_chemical_formula_sum 'C14 H11 N3 O4'
_chemical_formula_moiety
;
C14 H11 N3 O4
;
_journal_coeditor_code "IUCr CF6389"
_journal_coden_Cambridge 1370
_journal_volume 60
_journal_year 2004
_journal_page_first o2187
_journal_name_full 'Acta Crystallogr.,Sect.E:Struct.Rep.Online '
loop_
_publ_author_name
"Si-Chang Shao"
"Zhong-Lu You"
"Zhong-Duo Xiong"
"Bo Chen"
"Hai-Liang Zhu"
_chemical_name_systematic
;
2-Nitrobenzaldehyde salicylhydrazone
;
_chemical_name_common
;
2-Nitrobenzaldehyde (2-hydroxybenzoyl)hydrazone
;
_cell_volume   1286.170
_exptl_crystal_colour 'yellow'
_exptl_crystal_density_diffrn 1.473
_exptl_crystal_description 'block'
_exptl_crystal_preparation 'methanol'
_diffrn_ambient_temperature 298
_refine_special_details
;
One nitro O atom is disordered over two sites, with occupancies 0.8:0.2.

;
#These two values have been output from a single CSD field.
_refine_ls_R_factor_gt 0.0491
_refine_ls_wR_factor_gt 0.0491
_symmetry_cell_setting monoclinic
_symmetry_space_group_name_H-M 'P 21/n'
_symmetry_Int_Tables_number 14
loop_
_symmetry_equiv_pos_site_id
_symmetry_equiv_pos_as_xyz
1 x,y,z
2 1/2+x,1/2-y,1/2+z
3 -x,-y,-z
4 -1/2-x,-1/2+y,-1/2-z
_cell_length_a 7.070(3)
_cell_length_b 25.214(9)
_cell_length_c 7.870(3)
_cell_angle_alpha 90
_cell_angle_beta 113.541(5)
_cell_angle_gamma 90
_cell_formula_units_Z 4
loop_
_atom_type_symbol
_atom_type_radius_bond
C 0.68
H 0.23
N 0.68
O 0.68
loop_
_atom_site_label
_atom_site_type_symbol
_atom_site_fract_x
_atom_site_fract_y
_atom_site_fract_z
O1 O 0.7348(2) 0.09416(5) 0.9938(2)
O2 O 0.6179(2) 0.18827(5) 0.82562(16)
O3 O 0.9208(8) 0.4332(3) 1.0750(8)
O4? O 0.827(3) 0.4275(9) 1.047(2)
O5 O 0.7141(3) 0.49442(7) 0.9163(3)
N1 N 0.8073(2) 0.25586(6) 1.00027(19)
N2 N 0.7612(2) 0.28780(5) 0.84702(18)
N3 N 0.8011(3) 0.45286(7) 0.9248(3)
C1 C 0.7648(3) 0.17759(6) 1.1525(2)
C2 C 0.7912(3) 0.20303(7) 1.3173(2)
H1 H 0.78680 0.23990 1.32020
C3 C 0.8236(3) 0.17479(9) 1.4758(3)
H2 H 0.84150 0.19220 1.58530
C4 C 0.8290(3) 0.12022(9) 1.4700(3)
H3 H 0.85150 0.10080 1.57690
C5 C 0.8020(3) 0.09414(8) 1.3099(3)
H4 H 0.80750 0.05730 1.30900
C6 C 0.7665(3) 0.12212(7) 1.1495(3)
C7 C 0.7242(3) 0.20703(6) 0.9801(2)
C8 C 0.8197(3) 0.33522(7) 0.8844(2)
H5 H 0.88320 0.34620 1.00710
C9 C 0.7872(3) 0.37298(6) 0.7338(2)
C10 C 0.7823(3) 0.42797(7) 0.7500(2)
C11 C 0.7540(3) 0.46129(8) 0.6038(3)
H6 H 0.74840 0.49780 0.61820
C12 C 0.7342(4) 0.44064(9) 0.4373(3)
H7 H 0.71970 0.46310 0.33900
C13 C 0.7358(3) 0.38691(8) 0.4153(3)
H8 H 0.72000 0.37280 0.30120
C14 C 0.7605(3) 0.35360(7) 0.5604(2)
H9 H 0.75940 0.31710 0.54230
H10 H 0.898(4) 0.2670(9) 1.110(3)
H11 H 0.686(4) 0.1199(9) 0.904(3)
#END
