
#######################################################################
#
#                 Cambridge Crystallographic Data Centre
#                                CCDC
#
#######################################################################
#
# If this CIF has been generated from an entry in the Cambridge
# Structural Database, then it will include bibliographic, chemical,
# crystal, experimental, refinement or atomic coordinate data resulting
# from the CCDC's data processing and validation procedures.
#
#######################################################################

data_CSD_CIF_GAKVOF
_audit_creation_date 2011-02-28
_audit_creation_method CSD-ConQuest-V1
_database_code_CSD GAKVOF
_database_code_depnum_ccdc_archive 'CCDC 751217'
_chemical_formula_sum 'C9 H9 N5 O3'
_chemical_formula_moiety
;
C9 H9 N5 O3
;
_journal_coden_Cambridge 440
_journal_volume 34
_journal_year 2010
_journal_page_first 2605
_journal_name_full 'New J.Chem. '
loop_
_publ_author_name
"M.Barys"
"Z.Ciunik"
"K.Drabent"
"A.Kwiecien"
_chemical_name_systematic
;
(3-nitrophenyl)(4H-1,2,4-triazol-4-ylamino)methanol
;
_cell_volume   1027.167
_exptl_crystal_colour 'yellow'
_exptl_crystal_density_diffrn 1.521
_exptl_crystal_description 'plates'
_diffrn_ambient_temperature 100
#These two values have been output from a single CSD field.
_refine_ls_R_factor_gt 0.0482
_refine_ls_wR_factor_gt 0.0482
_symmetry_cell_setting monoclinic
_symmetry_space_group_name_H-M 'P 21/c'
_symmetry_Int_Tables_number 14
loop_
_symmetry_equiv_pos_site_id
_symmetry_equiv_pos_as_xyz
1 x,y,z
2 -x,1/2+y,1/2-z
3 -x,-y,-z
4 x,-1/2-y,-1/2+z
_cell_length_a 12.316(4)
_cell_length_b 10.616(3)
_cell_length_c 7.863(3)
_cell_angle_alpha 90
_cell_angle_beta 92.39(3)
_cell_angle_gamma 90
_cell_formula_units_Z 4
loop_
_atom_type_symbol
_atom_type_radius_bond
C 0.68
H 0.23
N 0.68
O 0.68
loop_
_atom_site_label
_atom_site_type_symbol
_atom_site_fract_x
_atom_site_fract_y
_atom_site_fract_z
O1 O 1.06953(8) 0.85344(10) 0.45265(15)
O2 O 1.07517(8) 0.64992(10) 0.46908(15)
O3 O 0.64375(7) 0.94959(9) 0.00410(12)
H1 H 0.6440(16) 1.024(2) -0.057(3)
N1 N 0.54120(8) 1.30921(11) 0.22130(14)
N2 N 0.63538(9) 1.3355(1) 0.31902(15)
N3 N 0.62417(8) 1.1314(1) 0.28650(13)
N4 N 0.65672(9) 1.00373(10) 0.29991(13)
H2 H 0.5943(14) 0.9561(16) 0.305(2)
N5 N 1.03076(9) 0.74870(11) 0.42108(16)
C1 C 0.77397(9) 0.84393(11) 0.18968(15)
C2 C 0.87251(9) 0.85123(12) 0.28281(16)
H3 H 0.90170 0.93040 0.31780
C3 C 0.92701(10) 0.74022(12) 0.32316(16)
C4 C 0.8873(1) 0.62231(12) 0.27657(16)
H4 H 0.92590 0.54780 0.30810
C5 C 0.78968(10) 0.61653(12) 0.18275(16)
H5 H 0.76090 0.53710 0.14790
C6 C 0.73337(10) 0.72684(11) 0.13910(16)
H6 H 0.66670 0.72190 0.07420
C7 C 0.71417(10) 0.96554(11) 0.14691(16)
H7 H 0.76870 1.03190 0.12100
C8 C 0.53767(10) 1.18661(12) 0.20237(17)
H8 H 0.48250 1.14240 0.13890
C9 C 0.68258(11) 1.22770(12) 0.35681(18)
H9 H 0.74810 1.21850 0.42370
#END
