
#######################################################################
#
#                 Cambridge Crystallographic Data Centre
#                                CCDC
#
#######################################################################
#
# If this CIF has been generated from an entry in the Cambridge
# Structural Database, then it will include bibliographic, chemical,
# crystal, experimental, refinement or atomic coordinate data resulting
# from the CCDC's data processing and validation procedures.
#
#######################################################################

data_CSD_CIF_GAKWUM
_audit_creation_date 2011-02-28
_audit_creation_method CSD-ConQuest-V1
_database_code_CSD GAKWUM
_database_code_depnum_ccdc_archive 'CCDC 751223'
_chemical_formula_sum 'C9 H6 N6 O4'
_chemical_formula_moiety
;
C9 H6 N6 O4
;
_journal_coden_Cambridge 440
_journal_volume 34
_journal_year 2010
_journal_page_first 2605
_journal_name_full 'New J.Chem. '
loop_
_publ_author_name
"M.Barys"
"Z.Ciunik"
"K.Drabent"
"A.Kwiecien"
_chemical_name_systematic
;
N-(2,4-dinitrobenzylidene)-4H-1,2,4-triazol-4-amine
;
_cell_volume   2252.807
_exptl_crystal_colour 'colorless'
_exptl_crystal_density_diffrn 1.546
_exptl_crystal_description 'needles'
_diffrn_ambient_temperature 295
#These two values have been output from a single CSD field.
_refine_ls_R_factor_gt 0.0487
_refine_ls_wR_factor_gt 0.0487
_symmetry_cell_setting monoclinic
_symmetry_space_group_name_H-M 'P 21/c'
_symmetry_Int_Tables_number 14
loop_
_symmetry_equiv_pos_site_id
_symmetry_equiv_pos_as_xyz
1 x,y,z
2 -x,1/2+y,1/2-z
3 -x,-y,-z
4 x,-1/2-y,-1/2+z
_cell_length_a 16.286(5)
_cell_length_b 7.007(2)
_cell_length_c 19.746(6)
_cell_angle_alpha 90
_cell_angle_beta 91.24(3)
_cell_angle_gamma 90
_cell_formula_units_Z 8
loop_
_atom_type_symbol
_atom_type_radius_bond
C 0.68
H 0.23
N 0.68
O 0.68
loop_
_atom_site_label
_atom_site_type_symbol
_atom_site_fract_x
_atom_site_fract_y
_atom_site_fract_z
O1 O -0.19350(13) 0.9410(3) 0.21528(11)
O2 O -0.29340(12) 0.8059(3) 0.26765(10)
O3 O -0.23670(13) 0.7934(4) 0.5113(1)
O4 O -0.13008(15) 0.6273(4) 0.54299(11)
N1 N 0.15830(12) 0.7559(3) 0.09027(11)
N2 N 0.08731(13) 0.6879(3) 0.05766(10)
N3 N 0.06157(10) 0.7284(2) 0.16435(9)
N4 N 0.02861(11) 0.7405(3) 0.22820(9)
N5 N -0.22121(14) 0.8468(3) 0.26156(12)
N6 N -0.17137(17) 0.7144(4) 0.50044(13)
C1 C -0.08224(13) 0.7374(3) 0.30077(11)
C2 C -0.16327(13) 0.7824(3) 0.31519(12)
C3 C -0.19314(14) 0.7763(3) 0.37985(13)
H1 H -0.24750 0.80670 0.38840
C4 C -0.13987(15) 0.7237(3) 0.43128(12)
C5 C -0.05926(14) 0.6798(3) 0.42058(12)
H2 H -0.02430 0.64680 0.45660
C6 C -0.03115(13) 0.6857(3) 0.35536(12)
H3 H 0.02330 0.65440 0.34750
C7 C -0.04831(13) 0.7336(3) 0.23248(11)
H4 H -0.08220 0.72630 0.19410
C8 C 0.14089(13) 0.7761(3) 0.15359(13)
H5 H 0.17780 0.81770 0.18710
C9 C 0.03138(15) 0.6737(3) 0.10324(11)
H6 H -0.02210 0.63170 0.09490
O5 O 0.35525(10) 0.8972(3) 0.59551(9)
O6 O 0.33939(12) 0.7377(3) 0.68711(9)
O7 O 0.52073(14) 0.1799(4) 0.70077(13)
O8 O 0.53569(12) 0.0089(3) 0.61203(13)
N7 N 0.20192(12) 0.9623(3) 0.31049(10)
N8 N 0.14667(11) 0.9405(3) 0.36217(10)
N9 N 0.26076(10) 0.7984(2) 0.39178(8)
N10 N 0.32214(10) 0.6915(3) 0.42468(9)
N11 N 0.35882(11) 0.7500(3) 0.62811(11)
N12 N 0.50944(13) 0.1487(4) 0.64162(16)
C10 C 0.36999(11) 0.5484(3) 0.52622(11)
C11 C 0.38745(12) 0.5766(3) 0.59471(11)
C12 C 0.43288(12) 0.4481(4) 0.63321(12)
H7 H 0.44310 0.46820 0.67920
C13 C 0.46213(13) 0.2908(4) 0.60105(14)
C14 C 0.44862(14) 0.2583(3) 0.53314(14)
H8 H 0.47050 0.15090 0.51250
C15 C 0.40232(13) 0.3866(3) 0.49607(12)
H9 H 0.39250 0.36480 0.45010
C16 C 0.31370(12) 0.6731(3) 0.48793(11)
H10 H 0.27220 0.73820 0.50990
C17 C 0.26849(15) 0.8758(4) 0.33005(12)
H11 H 0.31570 0.86830 0.30460
C18 C 0.18308(13) 0.8425(3) 0.40956(11)
H12 H 0.15930 0.80740 0.45010
#END
