
#######################################################################
#
#                 Cambridge Crystallographic Data Centre
#                                CCDC
#
#######################################################################
#
# If this CIF has been generated from an entry in the Cambridge
# Structural Database, then it will include bibliographic, chemical,
# crystal, experimental, refinement or atomic coordinate data resulting
# from the CCDC's data processing and validation procedures.
#
#######################################################################

data_CSD_CIF_GAKXUM
_audit_creation_date 2005-02-28
_audit_creation_method CSD-ConQuest-V1
_database_code_CSD GAKXUM
_database_code_depnum_ccdc_archive 'CCDC 263043'
_chemical_formula_sum 'C13 H10 N4 O4'
_chemical_formula_moiety
;
C13 H10 N4 O4
;
_journal_coeditor_code "IUCr SK1791"
_journal_coden_Cambridge 591
_journal_volume 61
_journal_year 2005
_journal_page_first o10
_journal_name_full 'Acta Crystallogr.,Sect.C:Cryst.Struct.Commun. '
loop_
_publ_author_name
"J.L.Wardell"
"J.M.S.Skakle"
"J.N.Low"
"C.Glidewell"
_chemical_name_systematic
;
(E)-4-Nitrobenzaldehyde 4-nitrophenylhydrazone
;
_cell_volume   1254.306
_exptl_crystal_colour 'orange'
_exptl_crystal_density_diffrn 1.516
_exptl_crystal_description 'plate'
_exptl_crystal_preparation 'ethanol'
_diffrn_ambient_temperature 120
_refine_special_details
;
One CH and one NH group are disordered equally over two sites.

;
#These two values have been output from a single CSD field.
_refine_ls_R_factor_gt 0.0525
_refine_ls_wR_factor_gt 0.0525
_symmetry_cell_setting monoclinic
_symmetry_space_group_name_H-M 'P 21/n'
_symmetry_Int_Tables_number 14
loop_
_symmetry_equiv_pos_site_id
_symmetry_equiv_pos_as_xyz
1 x,y,z
2 1/2+x,1/2-y,1/2+z
3 -x,-y,-z
4 -1/2-x,-1/2+y,-1/2-z
_cell_length_a 5.9635(2)
_cell_length_b 11.0881(6)
_cell_length_c 18.9959(10)
_cell_angle_alpha 90
_cell_angle_beta 93.048(3)
_cell_angle_gamma 90
_cell_formula_units_Z 4
loop_
_atom_type_symbol
_atom_type_radius_bond
C 0.68
H 0.23
N 0.68
O 0.68
loop_
_atom_site_label
_atom_site_type_symbol
_atom_site_fract_x
_atom_site_fract_y
_atom_site_fract_z
O1 O -0.1212(3) 0.13404(14) 0.65400(8)
O2 O -0.3890(2) 0.05970(13) 0.58632(8)
O3 O 1.4174(3) 0.64695(14) 0.39835(8)
O4 O 1.4417(3) 0.64713(14) 0.28551(9)
N1 N 0.2632(7) 0.2408(6) 0.36073(11)
N2? N 0.5531(6) 0.3516(5) 0.3109(1)
N3 N 0.4504(2) 0.31008(14) 0.36808(8)
N4 N -0.2078(3) 0.11089(16) 0.59496(9)
N5 N 1.3438(3) 0.61957(16) 0.33878(10)
C1 C 0.1473(3) 0.21167(17) 0.41867(9)
C2 C -0.0598(3) 0.15298(17) 0.4096(1)
C3 C -0.1778(3) 0.12053(18) 0.46694(10)
C4 C -0.0871(3) 0.14613(17) 0.53388(10)
C5 C 0.1190(3) 0.20298(18) 0.54439(10)
C6 C 0.2356(3) 0.23594(17) 0.4869(1)
C7 C 0.7507(3) 0.41418(17) 0.31916(10)
C8 C 0.8686(4) 0.44211(19) 0.25952(11)
C9 C 1.0610(4) 0.51082(19) 0.26539(11)
C10 C 1.1371(3) 0.55071(18) 0.33158(10)
C11 C 1.0242(4) 0.52424(19) 0.39139(11)
C12 C 0.8309(4) 0.45679(19) 0.38504(11)
C13 C 0.5557(7) 0.3334(6) 0.31248(11)
C14? C 0.2637(9) 0.2539(8) 0.35716(10)
H1 H 0.21180 0.22030 0.31810
H2? H 0.50030 0.32960 0.26870
H3 H -0.11960 0.13540 0.36340
H4 H -0.31900 0.08130 0.46070
H5 H 0.17900 0.21900 0.59080
H6 H 0.37660 0.27530 0.49350
H7 H 0.81540 0.41340 0.21460
H8 H 1.14010 0.53050 0.22480
H9 H 1.07940 0.55230 0.43630
H10 H 0.75120 0.43900 0.42580
H11 H 0.50880 0.29940 0.26820
H12? H 0.20270 0.24000 0.31070
#END
