
#######################################################################
#
#                 Cambridge Crystallographic Data Centre
#                                CCDC
#
#######################################################################
#
# If this CIF has been generated from an entry in the Cambridge
# Structural Database, then it will include bibliographic, chemical,
# crystal, experimental, refinement or atomic coordinate data resulting
# from the CCDC's data processing and validation procedures.
#
#######################################################################

data_CSD_CIF_GALDAZ
_audit_creation_date 2005-02-28
_audit_creation_method CSD-ConQuest-V1
_database_code_CSD GALDAZ
_database_code_depnum_ccdc_archive 'CCDC 263067'
_chemical_formula_sum 'C17 H16 N4 O4'
_chemical_formula_moiety
;
C17 H16 N4 O4
;
_journal_coeditor_code "IUCr SK1795"
_journal_coden_Cambridge 591
_journal_volume 61
_journal_year 2005
_journal_page_first o53
_journal_name_full 'Acta Crystallogr.,Sect.C:Cryst.Struct.Commun. '
loop_
_publ_author_name
"J.A.S.Bomfim"
"J.L.Wardell"
"J.N.Low"
"J.M.S.Skakle"
"C.Glidewell"
_chemical_name_systematic
;
N,N'-bis(4-Nitrobenzylidene)propane-1,3-diamine
;
_chemical_melting_point 466
_cell_volume   1576.294
_exptl_crystal_colour 'orange'
_exptl_crystal_density_diffrn 1.434
_exptl_special_details
;
Melts with decomposition.

;
_exptl_crystal_description 'needle'
_exptl_crystal_preparation 'ethanol'
_diffrn_ambient_temperature 120
#These two values have been output from a single CSD field.
_refine_ls_R_factor_gt 0.0523
_refine_ls_wR_factor_gt 0.0523
_symmetry_cell_setting monoclinic
_symmetry_space_group_name_H-M 'C 2/c'
_symmetry_Int_Tables_number 15
loop_
_symmetry_equiv_pos_site_id
_symmetry_equiv_pos_as_xyz
1 x,y,z
2 x,-y,1/2+z
3 1/2+x,1/2+y,z
4 1/2+x,1/2-y,1/2+z
5 -x,-y,-z
6 -x,y,-1/2-z
7 -1/2-x,-1/2-y,-z
8 -1/2-x,-1/2+y,-1/2-z
_cell_length_a 12.9412(6)
_cell_length_b 7.3062(3)
_cell_length_c 16.9061(8)
_cell_angle_alpha 90
_cell_angle_beta 99.559(2)
_cell_angle_gamma 90
_cell_formula_units_Z 4
loop_
_atom_type_symbol
_atom_type_radius_bond
C 0.68
H 0.23
N 0.68
O 0.68
loop_
_atom_site_label
_atom_site_type_symbol
_atom_site_fract_x
_atom_site_fract_y
_atom_site_fract_z
O1 O 0.65464(11) 1.27888(18) 0.60355(8)
O2 O 0.64118(11) 1.04371(18) 0.67879(8)
N1 N 0.64425(11) 1.1139(2) 0.61311(9)
N2 N 0.60720(11) 0.47737(19) 0.34231(8)
C1 C 0.62024(13) 0.7665(2) 0.4114(1)
C2 C 0.63638(14) 0.9535(2) 0.40363(10)
C3 C 0.64361(13) 1.0696(2) 0.46909(10)
C4 C 0.63569(13) 0.9936(2) 0.54262(10)
C5 C 0.61994(14) 0.8077(2) 0.55255(10)
C6 C 0.61140(13) 0.6944(2) 0.48661(10)
C7 C 0.61378(13) 0.6499(2) 0.33954(10)
C8 C 0.60014(14) 0.3797(2) 0.26587(10)
C9 C 0.50000 0.2671(3) 0.25000
H1 H 0.64260 1.00240 0.35260
H2 H 0.65370 1.19740 0.46360
H3 H 0.61510 0.75940 0.60400
H4 H 0.59950 0.56720 0.49230
H5 H 0.61460 0.70670 0.28910
H6 H 0.66150 0.29800 0.26760
H7 H 0.60070 0.46880 0.22180
H8 H 0.50260 0.18710 0.20310
H9 H 0.49740 0.18710 0.29690
C8E C 0.39986(14) 0.3797(2) 0.23413(10)
N2E N 0.39280(11) 0.47737(19) 0.15769(8)
C7E C 0.38622(13) 0.6499(2) 0.16046(10)
C1E C 0.37976(13) 0.7665(2) 0.0886(1)
C2E C 0.36362(14) 0.9535(2) 0.09637(10)
C3E C 0.35639(13) 1.0696(2) 0.03091(10)
C4E C 0.36431(13) 0.9936(2) -0.04262(10)
N1E N 0.35575(11) 1.1139(2) -0.11311(9)
O1E O 0.34536(11) 1.27888(18) -0.10355(8)
O2E O 0.35882(11) 1.04371(18) -0.17879(8)
C5E C 0.38006(14) 0.8077(2) -0.05255(10)
C6E C 0.38860(13) 0.6944(2) 0.01339(10)
H4E H 0.40050 0.56720 0.00770
H3E H 0.38490 0.75940 -0.10400
H2E H 0.34630 1.19740 0.03640
H1E H 0.35740 1.00240 0.14740
H5E H 0.38540 0.70670 0.21090
H6E H 0.33850 0.29800 0.23240
H7E H 0.39930 0.46880 0.27820
#END
