
#######################################################################
#
#                 Cambridge Crystallographic Data Centre
#                                CCDC
#
#######################################################################
#
# If this CIF has been generated from an entry in the Cambridge
# Structural Database, then it will include bibliographic, chemical,
# crystal, experimental, refinement or atomic coordinate data resulting
# from the CCDC's data processing and validation procedures.
#
#######################################################################

data_CSD_CIF_GALGOS
_audit_creation_date 2017-03-10
_audit_creation_method CSD-ConQuest-V1
_database_code_CSD GALGOS
_database_code_depnum_ccdc_archive 'CCDC 1469215'
_chemical_formula_sum 'C17 H16 N2 O3'
_chemical_formula_moiety
;
C17 H16 N2 O3
;
_journal_coden_Cambridge 444
_journal_volume 86
_journal_year 2016
_journal_page_first 2312
_journal_name_full 'Zh.Obshch.Khim.(Russ.)(Russ.J.Gen.Chem.) '
loop_
_publ_author_name
"V.M.Berestovitskaya"
"R.I.Baichurin"
"D.R.Islamov"
"O.N.Kataeva"
"N.I.Aboskalova"
"E.V.Trukhin"
_chemical_name_systematic
;
3-(4-(dimethylamino)phenyl)-2-nitro-1-phenylprop-2-en-1-one
;
_cell_volume   3019.158
_exptl_crystal_colour 'orange'
_exptl_crystal_density_diffrn 1.304
_exptl_crystal_description 'prism'
_diffrn_ambient_temperature 150
#These two values have been output from a single CSD field.
_refine_ls_R_factor_gt 0.0421
_refine_ls_wR_factor_gt 0.0421
_symmetry_cell_setting monoclinic
_symmetry_space_group_name_H-M 'C 2/c'
_symmetry_Int_Tables_number 15
loop_
_symmetry_equiv_pos_site_id
_symmetry_equiv_pos_as_xyz
1 x,y,z
2 -x,y,1/2-z
3 1/2+x,1/2+y,z
4 1/2-x,1/2+y,1/2-z
5 -x,-y,-z
6 x,-y,-1/2+z
7 -1/2-x,-1/2-y,-z
8 -1/2+x,-1/2-y,-1/2+z
_cell_length_a 29.8924(16)
_cell_length_b 7.1992(4)
_cell_length_c 16.7644(9)
_cell_angle_alpha 90
_cell_angle_beta 123.190(3)
_cell_angle_gamma 90
_cell_formula_units_Z 8
loop_
_atom_type_symbol
_atom_type_radius_bond
C 0.68
H 0.23
N 0.68
O 0.68
loop_
_atom_site_label
_atom_site_type_symbol
_atom_site_fract_x
_atom_site_fract_y
_atom_site_fract_z
C1 C 0.10121(5) 0.4452(2) 0.10417(10)
O1 O 0.09541(4) 0.61194(14) 0.09213(7)
C2 C 0.14472(5) 0.37329(19) 0.20111(9)
N1 N 0.12608(5) 0.34273(17) 0.26279(8)
O2 O 0.07701(4) 0.35296(18) 0.22546(8)
C3 C 0.19680(5) 0.34571(18) 0.23524(10)
H1 H 0.2172(6) 0.300(2) 0.2995(11)
O3 O 0.15769(4) 0.30970(16) 0.34812(7)
C4 C 0.22551(5) 0.37143(18) 0.19021(9)
C5 C 0.28015(5) 0.32466(19) 0.24229(10)
H2 H 0.2961(6) 0.280(2) 0.3059(11)
C6 C 0.31106(5) 0.34030(19) 0.20546(9)
H3 H 0.3481(6) 0.306(2) 0.2454(11)
C7 C 0.28909(5) 0.40681(18) 0.11163(9)
N2 N 0.31836(5) 0.41601(17) 0.07265(8)
C8 C 0.23449(5) 0.46145(19) 0.05977(10)
H4 H 0.2175(6) 0.507(2) -0.0037(11)
C9 C 0.20427(5) 0.44278(19) 0.09762(9)
H5 H 0.1666(6) 0.483(2) 0.0579(11)
C10 C 0.06880(5) 0.30928(19) 0.02713(9)
C11 C 0.02961(6) 0.3748(2) -0.06346(10)
H6 H 0.0241(6) 0.507(2) -0.0736(11)
C12 C -0.00067(6) 0.2510(2) -0.13674(11)
H7 H -0.0274(7) 0.299(2) -0.2004(12)
C13 C 0.00759(6) 0.0621(2) -0.12051(11)
H8 H -0.0125(6) -0.025(2) -0.1710(12)
C14 C 0.04609(6) -0.0045(2) -0.03118(11)
H9 H 0.0521(6) -0.138(2) -0.0180(11)
C15 C 0.07678(6) 0.1191(2) 0.04249(10)
H10 H 0.1037(6) 0.073(2) 0.1050(11)
C16 C 0.29837(7) 0.5099(2) -0.01764(11)
H11 H 0.2674(7) 0.444(3) -0.0704(13)
H12 H 0.3255(7) 0.517(3) -0.0316(12)
H13 H 0.2880(7) 0.635(3) -0.0152(12)
C17 C 0.37335(6) 0.3526(3) 0.12532(13)
H14 H 0.3959(7) 0.436(3) 0.1785(14)
H15 H 0.3858(7) 0.344(3) 0.0825(14)
H16 H 0.3772(7) 0.224(3) 0.1530(14)
#END
