
#######################################################################
#
#                 Cambridge Crystallographic Data Centre
#                                CCDC
#
#######################################################################
#
# If this CIF has been generated from an entry in the Cambridge
# Structural Database, then it will include bibliographic, chemical,
# crystal, experimental, refinement or atomic coordinate data resulting
# from the CCDC's data processing and validation procedures.
#
#######################################################################

data_CSD_CIF_GALKOW
_audit_creation_date 2017-03-10
_audit_creation_method CSD-ConQuest-V1
_database_code_CSD GALKOW
_database_code_depnum_ccdc_archive 'CCDC 1485431'
_chemical_formula_sum 'C6 H12 N2 O2'
_chemical_formula_moiety
;
C6 H12 N2 O2
;
_journal_coden_Cambridge 233
_journal_volume 61
_journal_year 2016
_journal_page_first 1522
_journal_name_full 'Zh.Neorg.Khim.(Russ.)(Russ.J.Inorg.Chem.) '
loop_
_publ_author_name
"A.G.Beirakhov"
"I.M.Orlova"
"A.V.Rotov"
"E.G.Ilin"
"L.V.Goeva"
"M.D.Surazhskaya"
"A.V.Churakov"
"Yu.N.Mikhailov"
_chemical_name_systematic
;
N,N'-dihydroxyhexane-3,4-di-imine
;
_cell_volume    779.084
_exptl_crystal_colour 'colorless'
_exptl_crystal_density_diffrn 1.229
_exptl_crystal_description 'plate'
_diffrn_ambient_temperature 293
#These two values have been output from a single CSD field.
_refine_ls_R_factor_gt 0.0427
_refine_ls_wR_factor_gt 0.0427
_symmetry_cell_setting orthorhombic
_symmetry_space_group_name_H-M 'P b c a'
_symmetry_Int_Tables_number 61
loop_
_symmetry_equiv_pos_site_id
_symmetry_equiv_pos_as_xyz
1 x,y,z
2 1/2-x,-y,1/2+z
3 -x,1/2+y,1/2-z
4 1/2+x,1/2-y,-z
5 -x,-y,-z
6 -1/2+x,y,-1/2-z
7 x,-1/2-y,-1/2+z
8 -1/2-x,-1/2+y,z
_cell_length_a 6.393(2)
_cell_length_b 7.773(3)
_cell_length_c 15.678(5)
_cell_angle_alpha 90
_cell_angle_beta 90
_cell_angle_gamma 90
_cell_formula_units_Z 4
loop_
_atom_type_symbol
_atom_type_radius_bond
C 0.68
H 0.23
N 0.68
O 0.68
loop_
_atom_site_label
_atom_site_type_symbol
_atom_site_fract_x
_atom_site_fract_y
_atom_site_fract_z
O1 O 0.1070(2) 0.0888(2) 0.08167(10)
C1 C 0.4307(3) 0.0376(3) 0.03276(12)
N1 N 0.2337(2) 0.0187(2) 0.01713(10)
C2 C 0.5147(3) 0.1257(3) 0.11023(15)
H1 H 0.41600 0.21270 0.12890
H2 H 0.64490 0.18290 0.09590
C3 C 0.5526(5) 0.0002(5) 0.18189(17)
H3 H 0.60650 0.06070 0.23050
H4 H 0.65200 -0.08490 0.16390
H5 H 0.42330 -0.05490 0.19690
H6 H -0.022(7) 0.080(5) 0.054(3)
O1D O 0.8930(2) -0.0888(2) -0.08167(10)
C1D C 0.5693(3) -0.0376(3) -0.03276(12)
N1D N 0.7663(2) -0.0187(2) -0.01713(10)
C2D C 0.4853(3) -0.1257(3) -0.11023(15)
H1D H 0.58400 -0.21270 -0.12890
H2D H 0.35510 -0.18290 -0.09590
C3D C 0.4474(5) -0.0002(5) -0.18189(17)
H3D H 0.39350 -0.06070 -0.23050
H4D H 0.34800 0.08490 -0.16390
H5D H 0.57670 0.05490 -0.19690
H6D H 1.022(7) -0.080(5) -0.054(3)
#END
