
#######################################################################
#
#                 Cambridge Crystallographic Data Centre
#                                CCDC
#
#######################################################################
#
# If this CIF has been generated from an entry in the Cambridge
# Structural Database, then it will include bibliographic, chemical,
# crystal, experimental, refinement or atomic coordinate data resulting
# from the CCDC's data processing and validation procedures.
#
#######################################################################

data_CSD_CIF_GALTEU
_audit_creation_date 2012-08-03
_audit_creation_method CSD-ConQuest-V1
_database_code_CSD GALTEU
_database_code_depnum_ccdc_archive 'CCDC 837100'
_chemical_formula_sum 'C16 H20 N2 O6'
_chemical_formula_moiety
;
C16 H20 N2 O6
;
_journal_coden_Cambridge 1475
_journal_volume 3
_journal_year 2012
_journal_page_first 584
_journal_name_full 'Chemical Science '
loop_
_publ_author_name
"S.Rajkumar"
"K.Shankland"
"G.D.Brown"
"A.J.A.Cobb"
_chemical_name_systematic
;
(+)-Ethyl (2R,4S-dinitro-3R-phenyl-1S-cyclohexyl)acetate
;
_chemical_name_common
;
Ethyl (2,4-dinitro-3-phenylcyclohexyl)acetate
;
_cell_volume   1655.883
_exptl_crystal_colour 'colorless'
_exptl_crystal_density_diffrn 1.349
_exptl_special_details
;
Absolute configuration

;
_exptl_crystal_description 'block'
_exptl_crystal_preparation 'heptane/DCM'
_diffrn_ambient_temperature 100
_refine_special_details
;
C4,N2,O5,O6 and C4A,N2A,O5A,O6A disordered over two sites with occupancies 
0.50:0.50.
;
#These two values have been output from a single CSD field.
_refine_ls_R_factor_gt 0.0211
_refine_ls_wR_factor_gt 0.0211
_symmetry_cell_setting orthorhombic
_symmetry_space_group_name_H-M 'P 21 21 21'
_symmetry_Int_Tables_number 19
loop_
_symmetry_equiv_pos_site_id
_symmetry_equiv_pos_as_xyz
1 x,y,z
2 1/2-x,-y,1/2+z
3 1/2+x,1/2-y,-z
4 -x,1/2+y,1/2-z
_cell_length_a 7.95486(5)
_cell_length_b 10.00542(6)
_cell_length_c 20.80472(17)
_cell_angle_alpha 90
_cell_angle_beta 90
_cell_angle_gamma 90
_cell_formula_units_Z 4
loop_
_atom_type_symbol
_atom_type_radius_bond
C 0.68
H 0.23
N 0.68
O 0.68
loop_
_atom_site_label
_atom_site_type_symbol
_atom_site_fract_x
_atom_site_fract_y
_atom_site_fract_z
O1 O 0.88186(9) 0.91324(7) 0.16343(3)
O2 O 0.70230(9) 0.95654(7) 0.24394(3)
N1 N 0.80226(11) 1.41633(8) 0.18725(4)
O3 O 0.91051(10) 1.40558(8) 0.14565(4)
O4 O 0.82684(10) 1.46571(8) 0.24013(4)
C1 C 0.62893(12) 1.36108(9) 0.17420(4)
C2 C 0.50014(13) 1.76452(10) 0.11028(5)
C3 C 0.58771(13) 1.5377(1) 0.08916(5)
C4 C 0.77562(12) 0.99052(9) 0.19567(5)
C5 C 0.90784(13) 0.7789(1) 0.18860(5)
C6 C 0.62424(13) 1.21253(9) 0.19449(5)
C7 C 0.44628(14) 1.16129(10) 0.18006(5)
C8 C 0.39397(17) 1.18324(11) 0.11004(6)
C9 C 0.60407(14) 1.81072(11) 0.06175(5)
C10 C 0.49116(13) 1.62868(10) 0.12384(5)
C11 C 0.76254(13) 1.12645(10) 0.16428(5)
C12 C 0.58023(14) 1.38901(10) 0.10426(5)
C13 C 0.70012(16) 1.72095(12) 0.02714(6)
C14 C 1.05546(15) 0.72150(11) 0.15353(6)
C15 C 0.69287(16) 1.58527(12) 0.04091(5)
C16 C 0.4039(5) 1.3316(4) 0.0929(4)
H1 H 0.31950 1.38300 0.11860
N2 N 0.3730(13) 1.3532(10) 0.0216(3)
O5 O 0.2348(9) 1.3977(11) 0.0094(4)
O6 O 0.4775(14) 1.3261(10) -0.01926(18)
H2 H 0.3649(16) 1.2093(13) 0.2096(6)
H3 H 0.4391(16) 1.0638(13) 0.1880(6)
H4 H 0.6419(14) 1.2123(12) 0.2406(6)
H5 H 0.6544(16) 1.3407(14) 0.0747(6)
H6 H 0.8062(17) 0.7276(13) 0.1822(6)
H7 H 0.279(2) 1.1506(16) 0.1047(7)
H8 H 0.5560(15) 1.4110(11) 0.2027(5)
H9 H 0.4173(16) 1.5975(12) 0.1569(6)
H10 H 0.6115(16) 1.9052(14) 0.0525(6)
H11 H 0.4357(18) 1.8271(14) 0.1351(6)
H12 H 0.9261(16) 0.7857(12) 0.2353(6)
H13 H 0.8735(18) 1.1696(14) 0.1683(6)
H14 H 0.7465(18) 1.1132(15) 0.1200(7)
H15 H 0.4727(18) 1.1327(15) 0.0782(7)
H16 H 1.1499(17) 0.7777(15) 0.1628(7)
H17 H 1.076(2) 0.6329(17) 0.1701(7)
H18 H 0.769(2) 1.7488(17) -0.0054(8)
H19 H 0.759(2) 1.5207(16) 0.0161(8)
H20 H 1.0345(18) 0.7166(15) 0.1071(8)
C17? C 0.4010(5) 1.3338(4) 0.0974(4)
H21? H 0.32710 1.37990 0.12940
N3? N 0.3286(15) 1.3559(11) 0.0306(4)
O7? O 0.4004(19) 1.2947(6) -0.0119(3)
O8? O 0.2075(12) 1.4279(8) 0.0228(5)
#END
