
#######################################################################
#
#                 Cambridge Crystallographic Data Centre
#                                CCDC
#
#######################################################################
#
# If this CIF has been generated from an entry in the Cambridge
# Structural Database, then it will include bibliographic, chemical,
# crystal, experimental, refinement or atomic coordinate data resulting
# from the CCDC's data processing and validation procedures.
#
#######################################################################

data_CSD_CIF_GALTIY
_audit_creation_date 2012-08-03
_audit_creation_method CSD-ConQuest-V1
_database_code_CSD GALTIY
_database_code_depnum_ccdc_archive 'CCDC 837219'
_chemical_formula_sum 'C18 H24 N2 O7'
_chemical_formula_moiety
;
C18 H24 N2 O7
;
_journal_coden_Cambridge 1475
_journal_volume 3
_journal_year 2012
_journal_page_first 584
_journal_name_full 'Chemical Science '
loop_
_publ_author_name
"S.Rajkumar"
"K.Shankland"
"G.D.Brown"
"A.J.A.Cobb"
_chemical_name_systematic
;
Ethyl 
2(R)-[3(R)-(4'-methoxy-phenyl)-2(R),4(S)-dinitro-1(R)cyclohexyl]propanoate
;
_chemical_name_common
;
Ethyl 2-(3-(4-methoxyphenyl)-2,4-dinitrocyclohexyl)propanoate
;
_cell_volume   1878.361
_exptl_crystal_colour 'colorless'
_exptl_crystal_density_diffrn 1.345
_exptl_crystal_description 'block'
_diffrn_ambient_temperature 150
#These two values have been output from a single CSD field.
_refine_ls_R_factor_gt 0.0512
_refine_ls_wR_factor_gt 0.0512
loop_
_citation_database_id_CSD
_citation_special_details
GALTUK "is a stereoisomer of this entry"
_symmetry_cell_setting orthorhombic
_symmetry_space_group_name_H-M 'P 21 21 21'
_symmetry_Int_Tables_number 19
loop_
_symmetry_equiv_pos_site_id
_symmetry_equiv_pos_as_xyz
1 x,y,z
2 1/2-x,-y,1/2+z
3 1/2+x,1/2-y,-z
4 -x,1/2+y,1/2-z
_cell_length_a 5.5811(5)
_cell_length_b 12.5943(15)
_cell_length_c 26.723(4)
_cell_angle_alpha 90
_cell_angle_beta 90
_cell_angle_gamma 90
_cell_formula_units_Z 4
loop_
_atom_type_symbol
_atom_type_radius_bond
C 0.68
H 0.23
N 0.68
O 0.68
loop_
_atom_site_label
_atom_site_type_symbol
_atom_site_fract_x
_atom_site_fract_y
_atom_site_fract_z
O1 O 0.7632(5) 0.3991(2) 0.03407(10)
O2 O 0.9016(6) 0.2487(2) 0.24652(12)
O3 O 0.4414(6) 0.1013(3) 0.31397(11)
O4 O 0.7127(6) -0.0976(3) 0.08590(11)
O5 O 0.6448(6) 0.0797(3) 0.38528(10)
O6 O 1.1562(5) 0.1403(3) 0.21279(11)
N1 N 0.9522(7) 0.1639(3) 0.22665(13)
O7 O 0.3282(6) -0.0875(3) 0.09141(12)
C1 C 0.5494(8) -0.0325(3) 0.16062(14)
H1 H 0.39790 0.00560 0.16940
C2 C 0.7586(7) 0.0824(3) 0.22017(15)
H2 H 0.60020 0.11610 0.22760
C3 C 0.7606(8) 0.0450(3) 0.16517(14)
H3 H 0.91190 0.00440 0.15940
N2 N 0.5294(7) -0.0749(3) 0.10800(14)
C4 C 0.7699(8) 0.3095(3) 0.06268(15)
C5 C 0.9456(8) 0.2327(3) 0.06073(16)
H4 H 1.07200 0.23860 0.03710
C6 C 0.8412(8) 0.0256(4) 0.31146(15)
H5 H 0.96240 0.08400 0.31040
C7 C 0.7521(7) 0.1359(3) 0.12786(14)
C8 C 0.5795(7) 0.2977(3) 0.09586(15)
H6 H 0.45330 0.34830 0.09620
C9 C 0.7988(8) -0.0098(3) 0.25683(15)
H7 H 0.94920 -0.04610 0.24580
C10 C 0.6172(8) 0.0711(4) 0.33575(16)
C11 C 0.5737(7) 0.2126(3) 0.12824(15)
H8 H 0.44500 0.20640 0.15130
C12 C 0.5982(8) -0.0896(3) 0.24975(16)
H9 H 0.44430 -0.05660 0.25970
H10 H 0.62640 -0.15140 0.27190
C13 C 0.9382(7) 0.1471(4) 0.09317(15)
H11 H 1.06140 0.09520 0.09190
C14 C 0.5804(9) -0.1277(3) 0.19568(16)
H12 H 0.44200 -0.17630 0.19210
H13 H 0.72740 -0.16720 0.18660
C15 C 0.9521(8) -0.0650(3) 0.34167(16)
H14 H 0.98520 -0.04050 0.37580
H15 H 1.10190 -0.08760 0.32580
H16 H 0.84020 -0.12490 0.34280
C16 C 0.4478(9) 0.1283(4) 0.41269(16)
H17 H 0.30390 0.08250 0.41080
H18 H 0.40790 0.19810 0.39790
C17 C 0.9708(9) 0.4239(4) 0.00498(17)
H19 H 1.11290 0.42270 0.02650
H20 H 0.95270 0.49470 -0.00970
H21 H 0.98900 0.37130 -0.02180
C18 C 0.5238(11) 0.1417(5) 0.46600(17)
H22 H 0.56440 0.07220 0.48020
H23 H 0.39250 0.17340 0.48520
H24 H 0.66430 0.18820 0.46750
#END
