
#######################################################################
#
#                 Cambridge Crystallographic Data Centre
#                                CCDC
#
#######################################################################
#
# If this CIF has been generated from an entry in the Cambridge
# Structural Database, then it will include bibliographic, chemical,
# crystal, experimental, refinement or atomic coordinate data resulting
# from the CCDC's data processing and validation procedures.
#
#######################################################################

data_CSD_CIF_GALTOC10
_audit_creation_date 1991-05-01
_audit_creation_method CSD-ConQuest-V1
_database_code_CSD GALTOC10
_chemical_formula_sum 'C16 H16 N6 O3'
_chemical_formula_moiety
;
C16 H16 N6 O3
;
_journal_coden_Cambridge 207
_journal_year 1990
_journal_page_first 2527
_journal_name_full 'J.Chem.Soc.,Perkin Trans.1 '
loop_
_publ_author_name
"R.N.Butler"
"A.M.Evans"
"E.M.McNeela"
"G.A.O'Halloran"
"P.D.O'Shea"
"D.Cunningham"
"P.McArdle"
_chemical_name_systematic
;
4-((5'-Methylisoxazol-3'-yl)imino)-2-(p-nitrophenyl)-1,2,3-triazaspiro-(4,4)no
n-1-en-2-ium-3-ide
;
_chemical_melting_point 455.15
_cell_volume   1622.889
_exptl_crystal_density_diffrn 1.39
_diffrn_ambient_temperature ?
_diffrn_special_details
;
The study was carried out at room temperature,in the range 283-303K

;
#These two values have been output from a single CSD field.
_refine_ls_R_factor_gt 0.0515
_refine_ls_wR_factor_gt 0.0515
_symmetry_cell_setting monoclinic
_symmetry_space_group_name_H-M 'P 21/c'
_symmetry_Int_Tables_number 14
loop_
_symmetry_equiv_pos_site_id
_symmetry_equiv_pos_as_xyz
1 x,y,z
2 -x,1/2+y,1/2-z
3 -x,-y,-z
4 x,-1/2-y,-1/2+z
_cell_length_a 8.631(3)
_cell_length_b 18.043(4)
_cell_length_c 11.150(3)
_cell_angle_alpha 90
_cell_angle_beta 110.83(2)
_cell_angle_gamma 90
_cell_formula_units_Z 4
loop_
_atom_type_symbol
_atom_type_radius_bond
C 0.68
N 0.68
O 0.68
loop_
_atom_site_label
_atom_site_type_symbol
_atom_site_fract_x
_atom_site_fract_y
_atom_site_fract_z
O1 O 1.3541(16) 0.1421(7) 0.3703(13)
O2 O 0.8534(19) 0.5326(8) -0.3661(14)
O3 O 0.6500(26) 0.5937(12) -0.3482(17)
N1 N 0.7569(27) 0.5426(11) -0.3131(18)
N2 N 0.74761(18) 0.4026(8) 0.2090(13)
N3 N 0.8401(20) 0.3868(8) 0.1383(14)
N4 N 0.9602(16) 0.3389(7) 0.1804(12)
N5 N 1.0418(19) 0.2639(8) 0.3694(13)
N6 N 1.2561(19) 0.1814(9) 0.4319(15)
C1 C 0.7119(23) 0.4864(11) -0.0081(18)
C2 C 0.6880(25) 0.5244(11) -0.1172(18)
C3 C 0.7786(22) 0.5015(12) -0.1909(16)
C4 C 0.8876(23) 0.4429(11) -0.1600(17)
C5 C 0.9064(21) 0.4062(9) -0.0510(15)
C6 C 0.8202(21) 0.4293(10) 0.0251(17)
C7 C 0.8015(23) 0.3527(10) 0.3112(17)
C8 C 0.6693(24) 0.2941(10) 0.3095(17)
C9 C 0.675(3) 0.2867(12) 0.4440(19)
C10 C 0.7452(30) 0.3529(14) 0.5129(23)
C11 C 0.8502(25) 0.3883(10) 0.4473(18)
C12 C 0.9515(22) 0.3112(10) 0.2943(16)
C13 C 1.1589(26) 0.2231(11) 0.3395(19)
C14 C 1.1869(24) 0.2162(10) 0.2207(18)
C15 C 1.3123(23) 0.1634(10) 0.2491(18)
C16 C 1.4033(26) 0.1289(12) 0.1763(19)
#END
