
#######################################################################
#
#                 Cambridge Crystallographic Data Centre
#                                CCDC
#
#######################################################################
#
# If this CIF has been generated from an entry in the Cambridge
# Structural Database, then it will include bibliographic, chemical,
# crystal, experimental, refinement or atomic coordinate data resulting
# from the CCDC's data processing and validation procedures.
#
#######################################################################

data_CSD_CIF_GALYIE
_audit_creation_date 2017-03-10
_audit_creation_method CSD-ConQuest-V1
_database_code_CSD GALYIE
_database_code_depnum_ccdc_archive 'CCDC 1519732'
_chemical_formula_sum 'C11 H11 N3 O4'
_chemical_formula_moiety
;
C11 H11 N3 O4
;
_journal_coden_Cambridge 122
_journal_volume 52
_journal_year 2016
_journal_page_first 923
_journal_name_full 'Khim.Get.Soedin.,SSSR(Russ.)(Chem.Heterocycl.Compd.) '
loop_
_publ_author_name
"A.V.Aksenov"
"N.A.Aksenov"
"A.A.Skomorokhov"
"I.V.Aksenova"
"G.D.Gryaznov"
"L.G.Voskressensky"
"M.A.Rubin"
_chemical_name_systematic
;
3-(1,3-dinitropropan-2-yl)-1H-indole
;
_cell_volume   1138.765
_exptl_crystal_colour 'red'
_exptl_crystal_density_diffrn 1.454
_exptl_special_details
;
Michael` addition

;
_exptl_crystal_description 'prism'
_exptl_crystal_preparation 'ethanol/dichloromethane'
_diffrn_ambient_temperature 293
#These two values have been output from a single CSD field.
_refine_ls_R_factor_gt 0.0353
_refine_ls_wR_factor_gt 0.0353
_symmetry_cell_setting orthorhombic
_symmetry_space_group_name_H-M 'P 21 21 21'
_symmetry_Int_Tables_number 19
loop_
_symmetry_equiv_pos_site_id
_symmetry_equiv_pos_as_xyz
1 x,y,z
2 1/2-x,-y,1/2+z
3 1/2+x,1/2-y,-z
4 -x,1/2+y,1/2-z
_cell_length_a 5.99598(18)
_cell_length_b 7.5520(3)
_cell_length_c 25.1485(8)
_cell_angle_alpha 90
_cell_angle_beta 90
_cell_angle_gamma 90
_cell_formula_units_Z 4
loop_
_atom_type_symbol
_atom_type_radius_bond
C 0.68
H 0.23
N 0.68
O 0.68
loop_
_atom_site_label
_atom_site_type_symbol
_atom_site_fract_x
_atom_site_fract_y
_atom_site_fract_z
N1 N -0.0281(3) 0.2527(2) 0.55127(7)
C1 C 0.1945(4) 0.4727(3) 0.63678(8)
N2 N 0.5045(3) 0.3521(3) 0.67023(8)
C2 C 0.0333(4) 0.5558(3) 0.73006(8)
H1 H -0.09790 0.60850 0.71830
C3 C 0.0224(4) 0.5410(3) 0.59864(8)
H2 H -0.12330 0.51790 0.61490
C4 C 0.2776(4) 0.4670(3) 0.80173(9)
H3 H 0.30540 0.46250 0.83810
C5 C 0.1865(3) 0.4870(3) 0.69367(8)
C6 C 0.3849(3) 0.4089(3) 0.71312(8)
O1 O 0.0518(4) 0.1529(3) 0.51801(8)
C7 C 0.0390(5) 0.7421(3) 0.59102(9)
H4 H -0.06590 0.77840 0.56370
H5 H -0.00290 0.80040 0.62390
O2 O -0.1518(3) 0.2022(3) 0.58624(7)
C8 C 0.3893(4) 0.3890(3) 0.62480(9)
H6 H 0.43690 0.36100 0.59060
C9 C 0.0799(4) 0.5442(3) 0.78374(9)
H7 H -0.02190 0.58850 0.80830
C10 C 0.0236(4) 0.4446(3) 0.54538(8)
H8 H -0.08570 0.49850 0.52200
H9 H 0.16910 0.45770 0.52900
N3 N 0.2659(5) 0.7999(3) 0.57562(9)
C11 C 0.4322(4) 0.3976(3) 0.76725(9)
H10 H 0.56280 0.34520 0.77950
O3 O 0.3535(5) 0.7322(3) 0.53768(11)
O4 O 0.3498(6) 0.9179(5) 0.60135(13)
H11 H 0.621(6) 0.284(5) 0.6705(12)
#END
