
#######################################################################
#
#                 Cambridge Crystallographic Data Centre
#                                CCDC
#
#######################################################################
#
# If this CIF has been generated from an entry in the Cambridge
# Structural Database, then it will include bibliographic, chemical,
# crystal, experimental, refinement or atomic coordinate data resulting
# from the CCDC's data processing and validation procedures.
#
#######################################################################

data_CSD_CIF_GAMNEQ
_audit_creation_date 2017-03-10
_audit_creation_method CSD-ConQuest-V1
_database_code_CSD GAMNEQ
_database_code_depnum_ccdc_archive 'CCDC 1483219'
_chemical_formula_sum 'C23 H37 N2 O3'
_chemical_formula_moiety
;
C23 H37 N2 O3
;
_journal_coden_Cambridge 95
_journal_volume 65
_journal_year 2016
_journal_page_first 2855
_journal_name_full 'Izv.Akad.Nauk SSSR,Ser.Khim.(Russ.)(Russ.Chem.Bull.) '
loop_
_publ_author_name
"N.O.Druzhkov"
"E.N.Egorova"
"M.V.Arsen'ev"
"E.V.Baranov"
"V.K.Cherkasov"
_chemical_name_systematic
;
(4-((2,5-di-t-butyl-3-hydroxy-4-oxocyclohexa-2,5-dien-1-ylidene)amino)-2,2,6,6
-tetramethylpiperidin-1-yl)oxidanyl radical
;
_cell_volume   2244.196
_exptl_crystal_colour 'red'
_exptl_crystal_density_diffrn 1.153
_exptl_crystal_description 'prism'
_diffrn_ambient_temperature 100
#These two values have been output from a single CSD field.
_refine_ls_R_factor_gt 0.0406
_refine_ls_wR_factor_gt 0.0406
_symmetry_cell_setting monoclinic
_symmetry_space_group_name_H-M 'P 21/n'
_symmetry_Int_Tables_number 14
loop_
_symmetry_equiv_pos_site_id
_symmetry_equiv_pos_as_xyz
1 x,y,z
2 1/2-x,1/2+y,1/2-z
3 -x,-y,-z
4 -1/2+x,-1/2-y,-1/2+z
_cell_length_a 10.8371(5)
_cell_length_b 11.8553(5)
_cell_length_c 17.5703(8)
_cell_angle_alpha 90
_cell_angle_beta 96.1955(9)
_cell_angle_gamma 90
_cell_formula_units_Z 4
loop_
_atom_type_symbol
_atom_type_radius_bond
C 0.68
H 0.23
N 0.68
O 0.68
loop_
_atom_site_label
_atom_site_type_symbol
_atom_site_fract_x
_atom_site_fract_y
_atom_site_fract_z
O1 O 0.31492(7) 0.97164(6) 0.58854(4)
O2 O 0.29408(7) 1.03606(6) 0.72370(4)
H1 H 0.2855(15) 1.0600(13) 0.6773(10)
O3 O 0.75104(8) 0.30185(7) 0.83095(5)
N1 N 0.45809(7) 0.68258(7) 0.81350(4)
N2 N 0.68630(8) 0.39279(7) 0.82958(5)
C1 C 0.34992(8) 0.90025(8) 0.63666(5)
C2 C 0.33851(8) 0.93006(8) 0.71802(5)
C3 C 0.36862(8) 0.86050(8) 0.77789(5)
C4 C 0.42066(8) 0.75002(7) 0.75842(5)
C5 C 0.43164(8) 0.72199(8) 0.67808(5)
H2 H 0.46370 0.64970 0.66760
C6 C 0.40018(8) 0.78977(7) 0.61843(5)
C7 C 0.35422(9) 0.88744(8) 0.86197(5)
C8 C 0.29626(14) 1.00318(10) 0.87349(7)
H3 H 0.29030 1.01540 0.92810
H4 H 0.21310 1.00610 0.84550
H5 H 0.34830 1.06210 0.85420
C9 C 0.26767(10) 0.80029(10) 0.89311(6)
H6 H 0.30670 0.72570 0.89390
H7 H 0.18880 0.79820 0.86010
H8 H 0.25230 0.82140 0.94520
C10 C 0.48142(10) 0.88760(9) 0.90998(6)
H9 H 0.51970 0.81300 0.90740
H10 H 0.47070 0.90550 0.96330
H11 H 0.53500 0.94440 0.88980
C11 C 0.41348(9) 0.75810(8) 0.53576(5)
C12 C 0.47351(11) 0.64239(9) 0.53060(6)
H12 H 0.48100 0.62440 0.47690
H13 H 0.42200 0.58530 0.55220
H14 H 0.55620 0.64310 0.55940
C13 C 0.49565(12) 0.84411(10) 0.50025(7)
H15 H 0.50840 0.82010 0.44830
H16 H 0.57600 0.84920 0.53150
H17 H 0.45510 0.91810 0.49820
C14 C 0.28444(11) 0.75541(10) 0.49052(6)
H18 H 0.29210 0.73350 0.43740
H19 H 0.24660 0.83040 0.49140
H20 H 0.23220 0.70060 0.51380
C15 C 0.51435(8) 0.57401(7) 0.79929(5)
H21 H 0.46880 0.53660 0.75360
C16 C 0.51024(9) 0.50100(8) 0.87006(6)
H22 H 0.42290 0.49310 0.88090
H23 H 0.55630 0.53950 0.91440
C17 C 0.56540(9) 0.38383(8) 0.86196(6)
C18 C 0.71607(9) 0.47986(9) 0.77350(6)
C19 C 0.65040(9) 0.59039(8) 0.78763(5)
H24 H 0.69350 0.62740 0.83350
H25 H 0.65610 0.64120 0.74340
C20 C 0.47824(11) 0.30784(9) 0.81078(8)
H26 H 0.40390 0.29190 0.83610
H27 H 0.52060 0.23700 0.80140
H28 H 0.45420 0.34590 0.76190
C21 C 0.59130(12) 0.33054(11) 0.94089(7)
H29 H 0.51430 0.32760 0.96540
H30 H 0.65300 0.37580 0.97230
H31 H 0.62330 0.25390 0.93580
C22 C 0.67898(13) 0.43525(11) 0.69260(6)
H32 H 0.70840 0.48740 0.65520
H33 H 0.58840 0.42900 0.68370
H34 H 0.71640 0.36080 0.68710
C23 C 0.85560(11) 0.49892(12) 0.78473(8)
H35 H 0.87750 0.55970 0.75090
H36 H 0.89830 0.42950 0.77250
H37 H 0.88090 0.51990 0.83810
#END
