
#######################################################################
#
#                 Cambridge Crystallographic Data Centre
#                                CCDC
#
#######################################################################
#
# If this CIF has been generated from an entry in the Cambridge
# Structural Database, then it will include bibliographic, chemical,
# crystal, experimental, refinement or atomic coordinate data resulting
# from the CCDC's data processing and validation procedures.
#
#######################################################################

data_CSD_CIF_GAMQAO
_audit_creation_date 2012-03-13
_audit_creation_method CSD-ConQuest-V1
_database_code_CSD GAMQAO
_database_code_depnum_ccdc_archive 'CCDC 867124'
_chemical_formula_sum 'C25 H26 N4 O6'
_chemical_formula_moiety
;
C25 H26 N4 O6
;
_journal_coden_Cambridge 4
_journal_volume 133
_journal_year 2011
_journal_page_first 10756
_journal_name_full 'J.Am.Chem.Soc. '
loop_
_publ_author_name
"Weiping Liu"
"Yuanming Li"
"Kaisheng Liu"
"Zhiping Li"
_chemical_name_systematic
;
1-(3-(t-Butylperoxy)-1,3-diphenylpropylidene)-2-(2,4-dinitrophenyl)hydrazine
;
_cell_volume   1201.371
_exptl_crystal_colour 'brown'
_exptl_crystal_density_diffrn 1.323
_exptl_crystal_description 'block'
_diffrn_ambient_temperature 296
#These two values have been output from a single CSD field.
_refine_ls_R_factor_gt 0.0443
_refine_ls_wR_factor_gt 0.0443
_symmetry_cell_setting triclinic
_symmetry_space_group_name_H-M 'P -1'
_symmetry_Int_Tables_number 2
loop_
_symmetry_equiv_pos_site_id
_symmetry_equiv_pos_as_xyz
1 x,y,z
2 -x,-y,-z
_cell_length_a 9.1415(17)
_cell_length_b 10.268(2)
_cell_length_c 12.839(3)
_cell_angle_alpha 91.609(3)
_cell_angle_beta 93.379(3)
_cell_angle_gamma 92.450(3)
_cell_formula_units_Z 2
loop_
_atom_type_symbol
_atom_type_radius_bond
C 0.68
H 0.23
N 0.68
O 0.68
loop_
_atom_site_label
_atom_site_type_symbol
_atom_site_fract_x
_atom_site_fract_y
_atom_site_fract_z
O1 O 0.23195(16) 0.67707(10) 0.21993(8)
O2 O 0.16810(16) 0.79367(10) 0.26779(8)
O3 O 0.19743(18) 0.37172(11) 0.30523(9)
O4 O 0.04611(18) 0.22385(12) 0.36050(9)
O5 O -0.25137(18) -0.06218(12) 0.13248(10)
O6 O -0.27528(19) -0.02266(13) -0.03302(10)
N1 N 0.19457(19) 0.42343(13) 0.10585(10)
H1 H 0.23450 0.44710 0.16610
N2 N 0.22964(19) 0.48851(12) 0.01832(10)
N3 N 0.1000(2) 0.28347(13) 0.28906(10)
N4 N -0.2203(2) 0.00106(14) 0.05610(12)
C1 C 0.0954(2) 0.32059(15) 0.09553(12)
C2 C 0.0471(2) 0.24907(15) 0.18214(12)
C3 C -0.0554(2) 0.14470(15) 0.16921(13)
H2 H -0.08590 0.09990 0.22660
C4 C -0.1106(2) 0.10915(15) 0.06999(13)
C5 C -0.0668(2) 0.17620(15) -0.01773(13)
H3 H -0.10590 0.15100 -0.08410
C6 C 0.0338(2) 0.27867(15) -0.00476(12)
H4 H 0.06280 0.32220 -0.06320
C7 C 0.3351(2) 0.57739(15) 0.02660(12)
C8 C 0.3647(2) 0.64265(15) -0.07306(12)
C9 C 0.2857(2) 0.60058(15) -0.16648(13)
H5 H 0.21190 0.53560 -0.16450
C10 C 0.3160(2) 0.65423(16) -0.26106(13)
H6 H 0.26260 0.62510 -0.32180
C11 C 0.4261(3) 0.75171(17) -0.26567(13)
H7 H 0.44720 0.78720 -0.32920
C12 C 0.5042(3) 0.79545(16) -0.17391(14)
H8 H 0.57750 0.86070 -0.17650
C13 C 0.4737(2) 0.74234(16) -0.07819(13)
H9 H 0.52580 0.77330 -0.01750
C14 C 0.4305(2) 0.61041(15) 0.12573(12)
H10 H 0.52870 0.63440 0.10630
H11 H 0.43670 0.53250 0.16650
C15 C 0.3773(2) 0.72112(15) 0.19561(12)
H12 H 0.37140 0.80080 0.15560
C16 C 0.4763(2) 0.74808(16) 0.29345(12)
C17 C 0.5133(2) 0.64835(17) 0.36102(13)
H13 H 0.48200 0.56270 0.34360
C18 C 0.5965(3) 0.67585(19) 0.45392(13)
H14 H 0.62030 0.60880 0.49820
C19 C 0.6439(3) 0.8036(2) 0.48062(14)
H15 H 0.69830 0.82220 0.54320
C20 C 0.6100(3) 0.90315(19) 0.41359(15)
H16 H 0.64280 0.98840 0.43080
C21 C 0.5265(3) 0.87553(16) 0.32036(13)
H17 H 0.50430 0.94270 0.27580
C22 C 0.0783(2) 0.75205(16) 0.35195(12)
C23 C 0.1694(3) 0.68923(19) 0.43830(13)
H18 H 0.20640 0.60940 0.41190
H19 H 0.10930 0.67090 0.49540
H20 H 0.25010 0.74770 0.46200
C24 C -0.0484(3) 0.66087(19) 0.30834(15)
H21 H -0.10600 0.70480 0.25640
H22 H -0.10880 0.63620 0.36380
H23 H -0.01000 0.58430 0.27740
C25 C 0.0228(3) 0.88243(17) 0.38927(14)
H24 H 0.10480 0.94110 0.40930
H25 H -0.03560 0.86910 0.44810
H26 H -0.03580 0.91910 0.33390
#END
