
#######################################################################
#
#                 Cambridge Crystallographic Data Centre
#                                CCDC
#
#######################################################################
#
# If this CIF has been generated from an entry in the Cambridge
# Structural Database, then it will include bibliographic, chemical,
# crystal, experimental, refinement or atomic coordinate data resulting
# from the CCDC's data processing and validation procedures.
#
#######################################################################

data_CSD_CIF_GAMSEV
_audit_creation_date 2017-03-10
_audit_creation_method CSD-ConQuest-V1
_database_code_CSD GAMSEV
_database_code_depnum_ccdc_archive 'CCDC 1450436'
_chemical_formula_sum 'C5 H3 N13 O6'
_chemical_formula_moiety
;
C5 H3 N13 O6
;
_journal_coden_Cambridge 95
_journal_volume 65
_journal_year 2016
_journal_page_first 2469
_journal_name_full 'Izv.Akad.Nauk SSSR,Ser.Khim.(Russ.)(Russ.Chem.Bull.) '
loop_
_publ_author_name
"A.V.Shastin"
"A.G.Korepin"
"Z.G.Aliev"
"D.V.Korchagin"
"N.M.Glushakova"
"V.S.Malygina"
"V.P.Kosilko"
"V.P.Lodygina"
"G.V.Lagodzinskaya"
"S.M.Aldoshin"
_chemical_name_systematic
;
4,6-diazido-N-(2,2,2-trinitroethyl)-1,3,5-triazin-2-amine
;
_cell_volume   1300.146
_exptl_crystal_colour 'colorless'
_exptl_crystal_density_diffrn 1.743
_exptl_crystal_description 'block'
_diffrn_ambient_temperature 150
#These two values have been output from a single CSD field.
_refine_ls_R_factor_gt 0.0393
_refine_ls_wR_factor_gt 0.0393
_symmetry_cell_setting monoclinic
_symmetry_space_group_name_H-M 'P 21/n'
_symmetry_Int_Tables_number 14
loop_
_symmetry_equiv_pos_site_id
_symmetry_equiv_pos_as_xyz
1 x,y,z
2 1/2-x,1/2+y,1/2-z
3 -x,-y,-z
4 -1/2+x,-1/2-y,-1/2+z
_cell_length_a 11.0583(5)
_cell_length_b 9.5311(4)
_cell_length_c 12.8989(6)
_cell_angle_alpha 90
_cell_angle_beta 106.995(5)
_cell_angle_gamma 90
_cell_formula_units_Z 4
loop_
_atom_type_symbol
_atom_type_radius_bond
C 0.68
H 0.23
N 0.68
O 0.68
loop_
_atom_site_label
_atom_site_type_symbol
_atom_site_fract_x
_atom_site_fract_y
_atom_site_fract_z
C1 C 0.01866(11) 0.18225(13) 0.10375(10)
C2 C -0.08678(11) 0.32984(13) 0.18014(10)
C3 C -0.18366(11) 0.23427(13) 0.02060(9)
C4 C 0.24366(11) 0.13240(14) 0.18333(10)
H1 H 0.2848(14) 0.0414(16) 0.2025(12)
H2 H 0.2302(14) 0.1784(16) 0.2452(12)
C5 C 0.33874(12) 0.22357(14) 0.14725(10)
N1 N 0.02241(10) 0.26664(11) 0.18768(8)
N2 N -0.19328(10) 0.32233(11) 0.09810(8)
N3 N -0.08452(10) 0.15666(11) 0.01925(8)
N4 N 0.12622(10) 0.11776(12) 0.10003(9)
H3 H 0.1170(17) 0.050(2) 0.0552(15)
N5 N -0.08449(10) 0.41225(12) 0.27020(9)
N6 N -0.18771(11) 0.47542(12) 0.26154(9)
N7 N -0.27058(12) 0.53860(15) 0.26652(11)
N8 N -0.28597(10) 0.21912(12) -0.07263(9)
N9 N -0.37864(10) 0.29676(12) -0.07170(8)
N10 N -0.46607(11) 0.35982(14) -0.08259(10)
N11 N 0.40694(11) 0.14471(12) 0.07847(10)
N12 N 0.27613(12) 0.34829(12) 0.07964(10)
N13 N 0.44100(11) 0.27750(14) 0.24581(11)
O1 O 0.51815(10) 0.17270(12) 0.09327(9)
O2 O 0.34173(11) 0.06403(11) 0.01332(9)
O3 O 0.21923(11) 0.42634(11) 0.12317(10)
O4 O 0.28532(12) 0.35836(12) -0.01165(10)
O5 O 0.48339(11) 0.18870(14) 0.31429(10)
O6 O 0.47098(13) 0.40027(14) 0.24818(13)
#END
