
#######################################################################
#
#                 Cambridge Crystallographic Data Centre
#                                CCDC
#
#######################################################################
#
# If this CIF has been generated from an entry in the Cambridge
# Structural Database, then it will include bibliographic, chemical,
# crystal, experimental, refinement or atomic coordinate data resulting
# from the CCDC's data processing and validation procedures.
#
#######################################################################

data_CSD_CIF_GAMVUO
_audit_creation_date 2017-03-11
_audit_creation_method CSD-ConQuest-V1
_database_code_CSD GAMVUO
_database_code_depnum_ccdc_archive 'CCDC 1536512'
_chemical_formula_sum 'C17 H19 N1 O3'
_chemical_formula_moiety
;
C17 H19 N1 O3
;
_journal_coeditor_code "su4136"
_journal_coden_Cambridge 1959
_journal_volume 2
_journal_year 2017
_journal_page_first x170368
_journal_name_full 'IUCrData '
loop_
_publ_author_name
"M.Ait Elhad"
"A.Benharref"
"M.Taourirte"
"J.-C.Daran"
"A.Oukhrib"
"M.Berraho"
_chemical_name_systematic
;
1-(7-isopropyl-2,5-dimethyl-8-nitronaphthalen-1-yl)ethan-1-one
;
_cell_volume   1469.985
_exptl_crystal_colour 'colorless'
_exptl_crystal_density_diffrn 1.289
_exptl_crystal_description 'plate'
_diffrn_ambient_temperature 173
#These two values have been output from a single CSD field.
_refine_ls_R_factor_gt 0.0374
_refine_ls_wR_factor_gt 0.0374
_symmetry_cell_setting monoclinic
_symmetry_space_group_name_H-M 'P 21/n'
_symmetry_Int_Tables_number 14
loop_
_symmetry_equiv_pos_site_id
_symmetry_equiv_pos_as_xyz
1 x,y,z
2 1/2-x,1/2+y,1/2-z
3 -x,-y,-z
4 -1/2+x,-1/2-y,-1/2+z
_cell_length_a 10.8570(5)
_cell_length_b 9.0549(4)
_cell_length_c 14.9550(7)
_cell_angle_alpha 90
_cell_angle_beta 91.006(4)
_cell_angle_gamma 90
_cell_formula_units_Z 4
loop_
_atom_type_symbol
_atom_type_radius_bond
C 0.68
H 0.23
N 0.68
O 0.68
loop_
_atom_site_label
_atom_site_type_symbol
_atom_site_fract_x
_atom_site_fract_y
_atom_site_fract_z
O1 O 0.18310(9) 0.30707(12) 0.51378(7)
O2 O 0.31296(9) 0.05669(11) 0.42478(7)
O3 O 0.46037(9) 0.16464(11) 0.49836(6)
N1 N 0.39471(10) 0.14874(11) 0.43175(7)
C1 C 0.37364(10) 0.39248(13) 0.35320(7)
C2 C 0.4198(1) 0.24493(13) 0.35431(8)
C3 C 0.49041(11) 0.18396(13) 0.28881(8)
C4 C 0.51874(11) 0.27486(14) 0.21482(8)
H1 H 0.57020 0.23640 0.16960
C5 C 0.47494(10) 0.41555(13) 0.20598(8)
C6 C 0.40118(10) 0.47684(13) 0.27500(8)
C7 C 0.35676(11) 0.62331(14) 0.26845(8)
H2 H 0.37250 0.67910 0.21610
C8 C 0.29211(12) 0.68594(14) 0.33537(9)
H3 H 0.26490 0.78520 0.32940
C9 C 0.26449(11) 0.60652(14) 0.41374(8)
C10 C 0.30488(10) 0.46193(13) 0.42254(8)
C11 C 0.27223(11) 0.38588(14) 0.50948(8)
C12 C 0.35266(14) 0.41952(18) 0.58950(9)
H4 H 0.34260 0.52340 0.60630
H5 H 0.43890 0.40100 0.57490
H6 H 0.32900 0.35620 0.63950
C13 C 0.54302(12) 0.02859(14) 0.29434(9)
H7 H 0.49550 -0.02760 0.33980
C14 C 0.67745(13) 0.03500(17) 0.32595(11)
H8 H 0.72430 0.09750 0.28520
H9 H 0.71220 -0.06490 0.32650
H10 H 0.68210 0.07650 0.38640
C15 C 0.53056(15) -0.05265(16) 0.20523(10)
H11 H 0.44380 -0.05450 0.18610
H12 H 0.56080 -0.15400 0.21230
H13 H 0.57910 -0.00150 0.16010
C16 C 0.50429(12) 0.50419(15) 0.12365(8)
H14 H 0.55560 0.44500 0.08400
H15 H 0.54880 0.59410 0.14120
H16 H 0.42750 0.53100 0.09220
C17 C 0.18716(14) 0.68217(17) 0.48318(10)
H17 H 0.16890 0.78340 0.46390
H18 H 0.10990 0.62770 0.49030
H19 H 0.23250 0.68450 0.54040
H20? H 0.17200 0.61370 0.53250
H21? H 0.23090 0.76930 0.50610
H22? H 0.10840 0.71260 0.45600
#END
