
#######################################################################
#
#                 Cambridge Crystallographic Data Centre
#                                CCDC
#
#######################################################################
#
# If this CIF has been generated from an entry in the Cambridge
# Structural Database, then it will include bibliographic, chemical,
# crystal, experimental, refinement or atomic coordinate data resulting
# from the CCDC's data processing and validation procedures.
#
#######################################################################

data_CSD_CIF_GANBUV
_audit_creation_date 2017-03-12
_audit_creation_method CSD-ConQuest-V1
_database_code_CSD GANBUV
_database_code_depnum_ccdc_archive 'CCDC 1530134'
_chemical_formula_sum 'C9 H13 N1 O4'
_chemical_formula_moiety
;
C9 H13 N1 O4
;
_journal_coden_Cambridge 156
_journal_volume 443-444
_journal_year 2017
_journal_page_first 15
_journal_name_full 'Carbohydr.Res. '
loop_
_publ_author_name
"M.Schalli"
"C.Tysoe"
"R.Fischer"
"B.M.Pabst"
"M.Thonhofer"
"E.Paschke"
"T.Rappitsch"
"A.E.Stutz"
"M.Tschernutter"
"W.Windischhofer"
"S.G.Withers"
_chemical_name_systematic
;
(3aS,4S,5S,6S)-6-hydroxy-4,5-isopropylidenedioxy-3a,4,5,6-tetrahydro-3H-cyclop
ent(c)isoxazole
;
_chemical_melting_point 386.15
_cell_volume    911.427
_exptl_crystal_colour 'colorless'
_exptl_crystal_density_diffrn 1.452
_exptl_special_details
;
Melting point range 386.15-389.15K

;
_exptl_crystal_description 'Block'
_exptl_crystal_preparation 'ethyl acetate/cyclohexane'
_diffrn_ambient_temperature 100
#These two values have been output from a single CSD field.
_refine_ls_R_factor_gt 0.0604
_refine_ls_wR_factor_gt 0.0604
_symmetry_cell_setting orthorhombic
_symmetry_space_group_name_H-M 'P 21 21 21'
_symmetry_Int_Tables_number 19
loop_
_symmetry_equiv_pos_site_id
_symmetry_equiv_pos_as_xyz
1 x,y,z
2 1/2-x,-y,1/2+z
3 -x,1/2+y,1/2-z
4 1/2+x,1/2-y,-z
_cell_length_a 6.0452(14)
_cell_length_b 8.917(2)
_cell_length_c 16.908(4)
_cell_angle_alpha 90
_cell_angle_beta 90
_cell_angle_gamma 90
_cell_formula_units_Z 4
loop_
_atom_type_symbol
_atom_type_radius_bond
C 0.68
H 0.23
N 0.68
O 0.68
loop_
_atom_site_label
_atom_site_type_symbol
_atom_site_fract_x
_atom_site_fract_y
_atom_site_fract_z
C1 C 0.3285(8) 0.2033(5) 0.2938(2)
N1 N 0.5201(7) 0.2301(4) 0.2661(2)
C2 C 0.2636(7) 0.1435(5) 0.3733(3)
H1 H 0.38860 0.14710 0.41200
H2 H 0.277(7) -0.065(5) 0.341(3)
O1 O 0.1707(5) -0.0044(3) 0.36637(18)
C3 C 0.0724(7) 0.2519(5) 0.3963(2)
H3 H -0.06380 0.19380 0.41000
O2 O 0.1279(6) 0.3523(4) 0.45855(17)
C4 C 0.0286(8) 0.3546(5) 0.3245(2)
H4 H -0.13220 0.37590 0.31630
O3 O 0.1541(5) 0.4868(3) 0.34321(17)
C5 C 0.2581(8) 0.3691(6) 0.1913(3)
H5 H 0.19550 0.35110 0.13800
H6 H 0.24850 0.47750 0.20330
O4 O 0.4893(6) 0.3169(4) 0.19540(17)
C6 C 0.1356(8) 0.2776(5) 0.2533(2)
H7 H 0.03420 0.20240 0.22860
C7 C 0.4457(8) 0.5129(6) 0.4363(3)
H8 H 0.47980 0.52110 0.49280
H9 H 0.49360 0.60440 0.40910
H10 H 0.52350 0.42630 0.41390
C8 C 0.0650(9) 0.6169(5) 0.4637(3)
H11 H 0.08350 0.61280 0.52120
H12 H -0.09160 0.60400 0.45040
H13 H 0.11640 0.71430 0.44410
C9 C 0.1991(7) 0.4928(5) 0.4255(2)
#END
