
#######################################################################
#
#                 Cambridge Crystallographic Data Centre
#                                CCDC
#
#######################################################################
#
# If this CIF has been generated from an entry in the Cambridge
# Structural Database, then it will include bibliographic, chemical,
# crystal, experimental, refinement or atomic coordinate data resulting
# from the CCDC's data processing and validation procedures.
#
#######################################################################

data_CSD_CIF_GAPHOW01
_audit_creation_date 2015-05-20
_audit_creation_method CSD-ConQuest-V1
_database_code_CSD GAPHOW01
_database_code_depnum_ccdc_archive 'CCDC 872212'
_chemical_formula_sum 'C25 H15 N1 O8'
_chemical_formula_moiety
;
C25 H15 N1 O8
;
_journal_coden_Cambridge 119
_journal_volume 1097
_journal_year 2015
_journal_page_first 117
_journal_name_full 'J.Mol.Struct. '
loop_
_publ_author_name
"Fen Li"
"Chang-wei Lv"
"Zi-dan Zhang"
"Jing Li"
"Zheng Hou"
"Xiao-hui Yang"
"Jiang-tao Li"
"Xiao-xing Luo"
"Ming-kai Li"
_chemical_name_systematic
;
3,3'-((4-Nitrophenyl)methylene)bis(4-hydroxy-2H-chromen-2-one)
;
_chemical_melting_point 524.15
_cell_volume   2026.838
_exptl_crystal_colour 'colorless'
_exptl_crystal_density_diffrn 1.499
_exptl_special_details
;
Melting point range 524.15-525.15K
antibacterial activity

;
_exptl_crystal_description 'Prism'
_diffrn_ambient_temperature 113
#These two values have been output from a single CSD field.
_refine_ls_R_factor_gt 0.038
_refine_ls_wR_factor_gt 0.038
_symmetry_cell_setting orthorhombic
_symmetry_space_group_name_H-M 'P n a 21'
_symmetry_Int_Tables_number 33
loop_
_symmetry_equiv_pos_site_id
_symmetry_equiv_pos_as_xyz
1 x,y,z
2 -x,-y,1/2+z
3 1/2+x,1/2-y,z
4 1/2-x,1/2+y,1/2+z
_cell_length_a 13.906(3)
_cell_length_b 14.159(4)
_cell_length_c 10.294(3)
_cell_angle_alpha 90
_cell_angle_beta 90
_cell_angle_gamma 90
_cell_formula_units_Z 4
loop_
_atom_type_symbol
_atom_type_radius_bond
C 0.68
H 0.23
N 0.68
O 0.68
loop_
_atom_site_label
_atom_site_type_symbol
_atom_site_fract_x
_atom_site_fract_y
_atom_site_fract_z
O1 O 1.07719(8) 0.20674(8) 0.61959(13)
O2 O 1.13117(8) 0.07146(8) 0.69339(12)
O3 O 0.86394(8) 0.21644(8) 0.89762(13)
H1 H 0.84960 0.16210 0.92380
O4 O 0.79147(8) -0.09614(8) 0.88954(12)
O5 O 0.80738(8) 0.04768(7) 0.96509(13)
O6 O 1.06715(8) -0.09656(8) 0.74471(12)
H2 H 1.09020 -0.04180 0.74030
O7 O 1.42107(9) 0.06023(9) 1.19096(15)
O8 O 1.36529(9) -0.07489(9) 1.25731(13)
N1 N 1.35974(10) -0.00277(10) 1.19155(16)
C1 C 1.00933(12) 0.27751(11) 0.62001(19)
C2 C 1.01587(14) 0.34395(12) 0.51868(19)
H3 H 1.06600 0.34060 0.45620
C3 C 0.94708(14) 0.41419(12) 0.51296(19)
H4 H 0.95030 0.46040 0.44620
C4 C 0.87350(14) 0.41785(12) 0.6035(2)
H5 H 0.82600 0.46590 0.59700
C5 C 0.86820(13) 0.35348(11) 0.7020(2)
H6 H 0.81770 0.35730 0.76390
C6 C 0.93674(12) 0.28241(11) 0.71168(19)
C7 C 0.93633(12) 0.21064(11) 0.81198(18)
C8 C 1.00458(11) 0.14147(11) 0.81402(17)
C9 C 1.07386(12) 0.13616(11) 0.70949(18)
C10 C 1.00621(11) 0.06412(10) 0.91656(17)
H7 H 0.96920 0.09130 0.99100
C11 C 0.94770(11) -0.02121(11) 0.87485(17)
C12 C 0.98007(12) -0.09284(11) 0.79803(17)
C13 C 0.91882(12) -0.17382(11) 0.77091(18)
C14 C 0.94760(13) -0.25041(11) 0.69613(19)
H8 H 1.01060 -0.25220 0.66040
C15 C 0.88534(13) -0.32314(12) 0.6741(2)
H9 H 0.90530 -0.37530 0.62270
C16 C 0.79274(13) -0.32172(12) 0.7263(2)
H10 H 0.75030 -0.37300 0.71000
C17 C 0.76207(13) -0.24687(13) 0.80108(19)
H11 H 0.69930 -0.24590 0.83740
C18 C 0.82627(12) -0.17235(11) 0.82181(17)
C19 C 0.84765(13) -0.01973(11) 0.91359(17)
C20 C 1.10537(11) 0.04199(11) 0.97390(17)
C21 C 1.17625(12) 0.11084(11) 0.98005(17)
H12 H 1.16630 0.16950 0.93750
C22 C 1.26142(12) 0.09568(12) 1.04714(17)
H13 H 1.31010 0.14280 1.04950
C23 C 1.27379(11) 0.01059(12) 1.11038(18)
C24 C 1.20657(12) -0.06109(12) 1.10204(18)
H14 H 1.21760 -0.12020 1.14300
C25 C 1.12289(11) -0.04486(11) 1.03287(17)
H15 H 1.07650 -0.09380 1.02550
#END
