
#######################################################################
#
#                 Cambridge Crystallographic Data Centre
#                                CCDC
#
#######################################################################
#
# If this CIF has been generated from an entry in the Cambridge
# Structural Database, then it will include bibliographic, chemical,
# crystal, experimental, refinement or atomic coordinate data resulting
# from the CCDC's data processing and validation procedures.
#
#######################################################################

data_CSD_CIF_GAQDAG
_audit_creation_date 2017-03-13
_audit_creation_method CSD-ConQuest-V1
_database_code_CSD GAQDAG
_database_code_depnum_ccdc_archive 'CCDC 1062721'
_chemical_formula_sum 'C9 H12 N6 O5'
_chemical_formula_moiety
;
C9 H12 N6 O5
;
_journal_coden_Cambridge 1255
_journal_volume 22
_journal_year 2016
_journal_page_first 7
_journal_name_full 'Heterocyclic Communications '
loop_
_publ_author_name
"V.V.Bakharev"
"V.E.Parfenov"
"A.A.Gidaspov"
"E.V.Selezneva"
"M.R.Baymuratov"
"B.B.Averkiev"
"A.B.Sheremetev"
_chemical_name_systematic
;
N-hydroxy-1-(4-methoxy-6-(morpholin-4-yl)-1,3,5-triazin-2-yl)-1-nitromethanimi
ne
;
_cell_volume   1230.000
_exptl_crystal_colour 'colorless'
_exptl_crystal_density_diffrn 1.535
_exptl_crystal_description 'plate'
_diffrn_ambient_temperature 100
#These two values have been output from a single CSD field.
_refine_ls_R_factor_gt 0.0513
_refine_ls_wR_factor_gt 0.0513
_symmetry_cell_setting monoclinic
_symmetry_space_group_name_H-M 'P 21/c'
_symmetry_Int_Tables_number 14
loop_
_symmetry_equiv_pos_site_id
_symmetry_equiv_pos_as_xyz
1 x,y,z
2 -x,1/2+y,1/2-z
3 -x,-y,-z
4 x,-1/2-y,-1/2+z
_cell_length_a 17.353(3)
_cell_length_b 5.945(1)
_cell_length_c 12.761(2)
_cell_angle_alpha 90
_cell_angle_beta 110.882(3)
_cell_angle_gamma 90
_cell_formula_units_Z 4
loop_
_atom_type_symbol
_atom_type_radius_bond
C 0.68
H 0.23
N 0.68
O 0.68
loop_
_atom_site_label
_atom_site_type_symbol
_atom_site_fract_x
_atom_site_fract_y
_atom_site_fract_z
O1 O 0.43590(9) 1.4836(3) 0.80714(13)
H1 H 0.48710 1.49080 0.84560
O2 O 0.25203(11) 1.2953(3) 0.74427(15)
O3 O 0.26433(11) 1.5737(3) 0.64177(15)
O4 O 0.43499(9) 0.7248(3) 0.47335(13)
O5 O 0.03442(10) 0.5428(3) 0.36778(14)
N1 N 0.29696(11) 0.7896(3) 0.42227(15)
N2 N 0.25438(11) 1.0683(3) 0.52611(15)
N3 N 0.39766(11) 0.9899(3) 0.57020(15)
N4 N 0.28438(11) 1.3898(4) 0.68623(16)
N5 N 0.42928(11) 1.3234(3) 0.72847(15)
N6 N 0.15933(11) 0.8571(3) 0.38621(16)
C1 C 0.37316(13) 0.8369(4) 0.48668(18)
C2 C 0.23854(13) 0.9057(4) 0.44647(18)
C3 C 0.33423(13) 1.0997(4) 0.58197(18)
C4 C 0.35491(13) 1.2756(4) 0.66895(18)
C5 C 0.41281(14) 0.5587(4) 0.38493(19)
H2 H 0.46270 0.50440 0.37400
H3 H 0.37580 0.62670 0.31520
H4 H 0.38480 0.43240 0.40560
C6 C 0.09145(14) 0.9185(4) 0.4226(2)
H5 H 0.04760 0.99540 0.36100
H6 H 0.11130 1.02240 0.48740
C7 C 0.05750(15) 0.7055(5) 0.4558(2)
H7 H 0.09980 0.63980 0.52320
H8 H 0.00880 0.74390 0.47540
C8 C 0.10382(15) 0.4831(5) 0.3384(2)
H9 H 0.08730 0.36730 0.27880
H10 H 0.14750 0.41840 0.40470
C9 C 0.13707(14) 0.6862(4) 0.29777(19)
H11 H 0.18620 0.64390 0.27990
H12 H 0.09480 0.74650 0.22890
#END
