
#######################################################################
#
#                 Cambridge Crystallographic Data Centre
#                                CCDC
#
#######################################################################
#
# If this CIF has been generated from an entry in the Cambridge
# Structural Database, then it will include bibliographic, chemical,
# crystal, experimental, refinement or atomic coordinate data resulting
# from the CCDC's data processing and validation procedures.
#
#######################################################################

data_CSD_CIF_GAQMOB
_audit_creation_date 2005-09-06
_audit_creation_method CSD-ConQuest-V1
_database_code_CSD GAQMOB
_database_code_depnum_ccdc_archive 'CCDC 273923'
_chemical_formula_sum 'C8 H7 N3 O2'
_chemical_formula_moiety
;
C8 H7 N3 O2
;
_journal_coden_Cambridge 1078
_journal_year 2005
_journal_name_full 'CSD Communication(Private Communication) '
loop_
_publ_author_name
"M.Palmer"
"S.Parsons"
"D.Messenger"
_chemical_name_systematic
;
2-Methyl-7-nitro-2H-indazole
;
_cell_volume    792.841
_exptl_crystal_colour 'yellow'
_exptl_crystal_density_diffrn 1.484
_exptl_special_details
;
contribution from School of Chemistry, The University of Edinburgh King's 
Buildings, West Mains Road, Edinburgh, Scotland EH9 3JJ
;
_exptl_crystal_description 'needle'
_diffrn_ambient_temperature 293
#These two values have been output from a single CSD field.
_refine_ls_R_factor_gt 0.0496
_refine_ls_wR_factor_gt 0.0496
_symmetry_cell_setting monoclinic
_symmetry_space_group_name_H-M 'P 21/c'
_symmetry_Int_Tables_number 14
loop_
_symmetry_equiv_pos_site_id
_symmetry_equiv_pos_as_xyz
1 x,y,z
2 -x,1/2+y,1/2-z
3 -x,-y,-z
4 x,-1/2-y,-1/2+z
_cell_length_a 13.3848(12)
_cell_length_b 3.8567(8)
_cell_length_c 15.9359(15)
_cell_angle_alpha 90
_cell_angle_beta 105.466(8)
_cell_angle_gamma 90
_cell_formula_units_Z 4
loop_
_atom_type_symbol
_atom_type_radius_bond
C 0.68
H 0.23
N 0.68
O 0.68
loop_
_atom_site_label
_atom_site_type_symbol
_atom_site_fract_x
_atom_site_fract_y
_atom_site_fract_z
N1 N 0.8552(2) -0.1168(8) 0.7198(2)
N2 N 0.8725(2) -0.0804(8) 0.8074(2)
C1 C 0.9704(3) -0.2043(12) 0.8628(2)
H1 H 1.0231(5) -0.0327(32) 0.8656(14)
H2 H 0.9895(11) -0.4155(39) 0.8393(10)
H3 H 0.9632(6) -0.2469(67) 0.9203(5)
C2 C 0.7963(3) 0.0731(10) 0.8317(2)
H4 H 0.7941(3) 0.1184(10) 0.8886(2)
C3 C 0.7200(2) 0.1537(10) 0.7562(2)
C4 C 0.6222(3) 0.3112(10) 0.7384(3)
H5 H 0.5967(3) 0.3935(10) 0.7835(3)
C5 C 0.5650(3) 0.3422(11) 0.6539(2)
H6 H 0.4998(3) 0.4444(11) 0.6412(2)
C6 C 0.6044(3) 0.2206(10) 0.5865(2)
H7 H 0.5644(3) 0.2436(10) 0.5293(2)
C7 C 0.6996(2) 0.0695(10) 0.6018(2)
N3 N 0.7338(2) -0.0514(9) 0.5278(2)
O1 O 0.6736(2) -0.042(1) 0.4557(2)
O2 O 0.8214(2) -0.1584(10) 0.5396(2)
C8 C 0.7615(2) 0.0280(8) 0.6883(2)
#END
