
#######################################################################
#
#                 Cambridge Crystallographic Data Centre
#                                CCDC
#
#######################################################################
#
# If this CIF has been generated from an entry in the Cambridge
# Structural Database, then it will include bibliographic, chemical,
# crystal, experimental, refinement or atomic coordinate data resulting
# from the CCDC's data processing and validation procedures.
#
#######################################################################

data_CSD_CIF_GAQMIV
_audit_creation_date 2005-09-06
_audit_creation_method CSD-ConQuest-V1
_database_code_CSD GAQMIV
_database_code_depnum_ccdc_archive 'CCDC 273922'
_chemical_formula_sum 'C8 H5 N3 O3'
_chemical_formula_moiety
;
C8 H5 N3 O3
;
_journal_coden_Cambridge 1078
_journal_year 2005
_journal_name_full 'CSD Communication(Private Communication) '
loop_
_publ_author_name
"M.Palmer"
"S.Parsons"
"D.Messenger"
_chemical_name_systematic
;
8-Nitro-1,4-dihydrocinnolin-4-one
;
_cell_volume   1603.676
_exptl_crystal_colour 'orange'
_exptl_crystal_density_diffrn 1.583
_exptl_special_details
;
contribution from School of Chemistry, The University of Edinburgh King's 
Buildings, West Mains Road, Edinburgh, Scotland EH9 3JJ
;
_exptl_crystal_description 'needle'
_diffrn_ambient_temperature 293
#These two values have been output from a single CSD field.
_refine_ls_R_factor_gt 0.0426
_refine_ls_wR_factor_gt 0.0426
_symmetry_cell_setting monoclinic
_symmetry_space_group_name_H-M 'P 21/n'
_symmetry_Int_Tables_number 14
loop_
_symmetry_equiv_pos_site_id
_symmetry_equiv_pos_as_xyz
1 x,y,z
2 1/2-x,1/2+y,1/2-z
3 -x,-y,-z
4 -1/2+x,-1/2-y,-1/2+z
_cell_length_a 4.7025(2)
_cell_length_b 13.5187(6)
_cell_length_c 25.2359(11)
_cell_angle_alpha 90
_cell_angle_beta 91.584(4)
_cell_angle_gamma 90
_cell_formula_units_Z 8
loop_
_atom_type_symbol
_atom_type_radius_bond
C 0.68
H 0.23
N 0.68
O 0.68
loop_
_atom_site_label
_atom_site_type_symbol
_atom_site_fract_x
_atom_site_fract_y
_atom_site_fract_z
N1 N 0.4346(4) 0.3022(2) 0.35204(9)
H1 H 0.5083(54) 0.2569(20) 0.3727(11)
N2 N 0.5448(4) 0.3933(2) 0.35447(9)
C1 C 0.4396(6) 0.4605(2) 0.32309(13)
H2 H 0.5216(51) 0.5339(20) 0.3272(9)
C2 C 0.2120(6) 0.4448(2) 0.28444(12)
O1 O 0.1140(5) 0.5125(2) 0.25711(11)
C3 C 0.1077(5) 0.3438(2) 0.28161(10)
C4 C -0.1072(6) 0.3161(3) 0.24457(11)
H3 H -0.1656(60) 0.3676(22) 0.2189(12)
C5 C -0.2146(6) 0.2232(3) 0.24360(12)
H4 H -0.3568(64) 0.1991(21) 0.2178(12)
C6 C -0.1151(6) 0.1534(2) 0.27993(11)
H5 H -0.1962(57) 0.0858(21) 0.2804(11)
C7 C 0.0988(5) 0.1781(2) 0.31619(10)
N3 N 0.1901(5) 0.1000(2) 0.35227(9)
O2 O 0.0547(5) 0.0234(2) 0.35346(9)
O3 O 0.4004(4) 0.11444(14) 0.38092(8)
C8 C 0.2194(5) 0.2731(2) 0.31767(9)
N4 N 0.4278(4) 0.3820(2) 0.51603(9)
H6 H 0.5447(62) 0.4259(21) 0.5313(11)
N5 N 0.2701(4) 0.42785(15) 0.47805(8)
C9 C 0.0791(5) 0.3767(2) 0.45191(11)
H7 H -0.0265(51) 0.4134(18) 0.4263(10)
C10 C 0.0244(5) 0.2734(2) 0.45978(10)
O4 O -0.1583(4) 0.22726(13) 0.43344(7)
C11 C 0.2010(5) 0.2266(2) 0.50092(10)
C12 C 0.1740(6) 0.1265(2) 0.51232(12)
H8 H 0.0394(61) 0.0872(22) 0.4917(12)
C13 C 0.3343(6) 0.0826(2) 0.55168(13)
H9 H 0.3198(55) 0.0154(22) 0.5591(11)
C14 C 0.5290(6) 0.1391(2) 0.58046(12)
H10 H 0.6448(67) 0.1171(21) 0.6074(13)
C15 C 0.5653(5) 0.2377(2) 0.56975(10)
N6 N 0.7801(5) 0.2915(2) 0.60094(10)
O5 O 0.9076(6) 0.2468(2) 0.63579(11)
O6 O 0.8330(5) 0.3777(2) 0.58993(9)
C16 C 0.4011(5) 0.2852(2) 0.52902(9)
#END
