
#######################################################################
#
#                 Cambridge Crystallographic Data Centre
#                                CCDC
#
#######################################################################
#
# If this CIF has been generated from an entry in the Cambridge
# Structural Database, then it will include bibliographic, chemical,
# crystal, experimental, refinement or atomic coordinate data resulting
# from the CCDC's data processing and validation procedures.
#
#######################################################################

data_CSD_CIF_GAQPUJ
_audit_creation_date 2001-04-02
_audit_creation_method CSD-ConQuest-V1
_database_code_CSD GAQPUJ
_chemical_formula_sum 'C19 H21 N1 O1'
_chemical_formula_moiety
;
C19 H21 N1 O1
;
_journal_coden_Cambridge 35
_journal_volume 64
_journal_year 1999
_journal_page_first 4419
_journal_name_full 'J.Org.Chem. '
loop_
_publ_author_name
"C.J.Moody"
"P.T.Gallagher"
"A.P.Lightfoot"
"A.M.Z.Slawin"
_chemical_name_systematic
;
(E)-(R)-(+)-O-(1-Phenylbutyl)-cinnamaldehyde oxime
;
_chemical_melting_point 338.15
_cell_volume   1648.640
_exptl_crystal_colour 'colorless'
_exptl_crystal_density_diffrn 1.128
_exptl_special_details
;
Melting point range 338.15-340.15K
Crystals were small and of low quality

;
_exptl_crystal_description 'needle'
_exptl_crystal_preparation 'light petroleum'
_diffrn_ambient_temperature ?
_diffrn_special_details
;
The study was carried out at room temperature,in the range 283-303K

;
#These two values have been output from a single CSD field.
_refine_ls_R_factor_gt 0.055
_refine_ls_wR_factor_gt 0.055
_symmetry_cell_setting orthorhombic
_symmetry_space_group_name_H-M 'P 21 21 21'
_symmetry_Int_Tables_number 19
loop_
_symmetry_equiv_pos_site_id
_symmetry_equiv_pos_as_xyz
1 x,y,z
2 1/2-x,-y,1/2+z
3 1/2+x,1/2-y,-z
4 -x,1/2+y,1/2-z
_cell_length_a 8.0(1)
_cell_length_b 36.8(1)
_cell_length_c 5.6(2)
_cell_angle_alpha 90
_cell_angle_beta 90
_cell_angle_gamma 90
_cell_formula_units_Z 4
loop_
_atom_type_symbol
_atom_type_radius_bond
C 0.68
H 0.23
N 0.68
O 0.68
loop_
_atom_site_label
_atom_site_type_symbol
_atom_site_fract_x
_atom_site_fract_y
_atom_site_fract_z
O1 O 0.7685(5) 0.8386(14) 0.4972(9)
N1 N 0.7922(7) 0.8770(1) 0.529(1)
C1 C 0.6941(9) 0.8213(2) 0.724(1)
C2 C 0.8460(9) 0.8885(2) 0.344(2)
C3 C 0.8865(9) 0.9266(2) 0.326(1)
C4 C 0.9430(9) 0.9449(2) 0.122(1)
C5 C 0.9808(8) 0.9819(2) 0.100(1)
C6 C 1.0637(8) 0.9954(2) -0.103(1)
C7 C 1.0977(8) 1.0306(2) -0.136(1)
C8 C 1.0448(8) 1.0546(2) 0.024(2)
C9 C 0.9603(9) 1.0450(2) 0.231(1)
C10 C 0.9307(8) 1.0091(2) 0.263(1)
C11 C 0.5081(8) 0.8400(1) 0.749(1)
C12 C 0.4008(9) 0.8308(2) 0.571(2)
C13 C 0.2330(8) 0.8473(1) 0.596(1)
C14 C 0.1950(8) 0.8663(2) 0.785(1)
C15 C 0.3044(9) 0.8738(1) 0.966(2)
C16 C 0.4682(7) 0.8579(2) 0.942(1)
C17 C 0.6931(9) 0.7832(2) 0.691(1)
C18 C 0.636(1) 0.7656(2) 0.919(2)
C19 C 0.6269(8) 0.7244(2) 0.910(2)
H1 H 0.76070 0.82730 0.85920
H2 H 0.86270 0.87280 0.21130
H3 H 0.87310 0.94080 0.46730
H4 H 0.95690 0.93050 -0.01770
H5 H 1.09700 0.97860 -0.22290
H6 H 1.15920 1.03830 -0.27240
H7 H 1.06580 1.07960 -0.00520
H8 H 0.92500 1.06260 0.34410
H9 H 0.87300 1.00190 0.40390
H10 H 0.43060 0.81540 0.44240
H11 H 0.15240 0.84430 0.47240
H12 H 0.08350 0.87530 0.79850
H13 H 0.27440 0.88870 1.09790
H14 H 0.54710 0.86030 1.06810
H15 H 0.633(6) 0.7768(9) 0.493(8)
H16 H 0.80280 0.77520 0.65270
H17 H 0.71270 0.77240 1.04010
H18 H 0.52830 0.77480 0.95440
H19 H 0.58760 0.71620 1.06280
H20 H 0.55080 0.71740 0.79080
H21 H 0.73420 0.71500 0.88100
#END
