
#######################################################################
#
#                 Cambridge Crystallographic Data Centre
#                                CCDC
#
#######################################################################
#
# If this CIF has been generated from an entry in the Cambridge
# Structural Database, then it will include bibliographic, chemical,
# crystal, experimental, refinement or atomic coordinate data resulting
# from the CCDC's data processing and validation procedures.
#
#######################################################################

data_CSD_CIF_GARBUY
_audit_creation_date 2012-03-05
_audit_creation_method CSD-ConQuest-V1
_database_code_CSD GARBUY
_database_code_depnum_ccdc_archive 'CCDC 868218'
_chemical_formula_sum 'C7 H6 N2 O4'
_chemical_formula_moiety
;
C7 H6 N2 O4
;
_journal_coeditor_code "IUCr FK2050"
_journal_coden_Cambridge 1370
_journal_volume 68
_journal_year 2012
_journal_page_first o511
_journal_name_full 'Acta Crystallogr.,Sect.E:Struct.Rep.Online '
loop_
_publ_author_name
"H.Y.Odabasoglu"
"O.Buyukgungor"
"O.O.Avinc"
"M.Odabasoglu"
_chemical_name_systematic
;
2-Amino-5-nitrobenzoic acid
;
_chemical_name_common
;
5-Nitroantranilic acid
;
_cell_volume    755.673
_exptl_crystal_colour 'orange'
_exptl_crystal_density_diffrn 1.601
_exptl_crystal_description 'needle'
_diffrn_ambient_temperature 296
#These two values have been output from a single CSD field.
_refine_ls_R_factor_gt 0.0636
_refine_ls_wR_factor_gt 0.0636
_symmetry_cell_setting monoclinic
_symmetry_space_group_name_H-M 'P 21/c'
_symmetry_Int_Tables_number 14
loop_
_symmetry_equiv_pos_site_id
_symmetry_equiv_pos_as_xyz
1 x,y,z
2 -x,1/2+y,1/2-z
3 -x,-y,-z
4 x,-1/2-y,-1/2+z
_cell_length_a 3.7026(3)
_cell_length_b 17.4638(16)
_cell_length_c 11.6953(10)
_cell_angle_alpha 90
_cell_angle_beta 92.210(7)
_cell_angle_gamma 90
_cell_formula_units_Z 4
loop_
_atom_type_symbol
_atom_type_radius_bond
C 0.68
H 0.23
N 0.68
O 0.68
loop_
_atom_site_label
_atom_site_type_symbol
_atom_site_fract_x
_atom_site_fract_y
_atom_site_fract_z
C1 C 0.6059(8) 0.35123(17) 0.7289(3)
C2 C 0.7771(8) 0.34418(16) 0.8394(2)
C3 C 0.8661(8) 0.27231(16) 0.8809(3)
H1 H 0.98100 0.26780 0.95270
C4 C 0.7890(8) 0.20744(16) 0.8187(3)
C5 C 0.6210(9) 0.21311(18) 0.7098(3)
H2 H 0.56880 0.16920 0.66730
C6 C 0.5351(9) 0.28294(17) 0.6667(3)
H3 H 0.42610 0.28620 0.59390
C7 C 0.8660(8) 0.41190(17) 0.9097(2)
N1 N 0.5107(8) 0.41812(15) 0.6824(2)
H4 H 0.40740 0.41960 0.61540
H5 H 0.55260 0.45990 0.71950
N2 N 0.8912(8) 0.13354(14) 0.8636(2)
O1 O 0.7787(6) 0.47709(12) 0.88101(17)
O2 O 1.0433(6) 0.39701(12) 1.00684(18)
H6 H 1.08370 0.43710 1.04150
O3 O 1.0514(7) 0.12980(13) 0.9571(2)
O4 O 0.8171(9) 0.07683(14) 0.8068(2)
#END
