
#######################################################################
#
#                 Cambridge Crystallographic Data Centre
#                                CCDC
#
#######################################################################
#
# If this CIF has been generated from an entry in the Cambridge
# Structural Database, then it will include bibliographic, chemical,
# crystal, experimental, refinement or atomic coordinate data resulting
# from the CCDC's data processing and validation procedures.
#
#######################################################################

data_CSD_CIF_GARJOA
_audit_creation_date 2012-03-13
_audit_creation_method CSD-ConQuest-V1
_database_code_CSD GARJOA
_database_code_depnum_ccdc_archive 'CCDC 868246'
_chemical_formula_sum 'C16 H17 N3 O4'
_chemical_formula_moiety
;
C16 H17 N3 O4
;
_journal_coeditor_code "IUCr WN2466"
_journal_coden_Cambridge 1370
_journal_volume 68
_journal_year 2012
_journal_page_first o550
_journal_name_full 'Acta Crystallogr.,Sect.E:Struct.Rep.Online '
loop_
_publ_author_name
"Y.B.M.Bisseyou"
"A.Timotou"
"A.Ajou"
"R.Kakou-Yao"
"J.T.Abodou"
_chemical_name_systematic
;
Ethyl 
4-cyano-7-nitro-1,2,3,3a,4,5-hexahydropyrrolo[1,2-a]quinoline-4-carboxylate
;
_cell_volume    754.785
_exptl_crystal_colour 'yellow'
_exptl_crystal_density_diffrn 1.387
_exptl_crystal_description 'prism'
_diffrn_ambient_temperature 223
_refine_special_details
;
C2A and C2B disordered over two sites with occupancies 0.672:0.328.

;
#These two values have been output from a single CSD field.
_refine_ls_R_factor_gt 0.083
_refine_ls_wR_factor_gt 0.083
_symmetry_cell_setting triclinic
_symmetry_space_group_name_H-M 'P -1'
_symmetry_Int_Tables_number 2
loop_
_symmetry_equiv_pos_site_id
_symmetry_equiv_pos_as_xyz
1 x,y,z
2 -x,-y,-z
_cell_length_a 7.2292(2)
_cell_length_b 9.1589(3)
_cell_length_c 11.8243(5)
_cell_angle_alpha 79.332(1)
_cell_angle_beta 82.609(1)
_cell_angle_gamma 80.429(2)
_cell_formula_units_Z 2
loop_
_atom_type_symbol
_atom_type_radius_bond
C 0.68
H 0.23
N 0.68
O 0.68
loop_
_atom_site_label
_atom_site_type_symbol
_atom_site_fract_x
_atom_site_fract_y
_atom_site_fract_z
N1 N 0.2977(3) 0.58327(19) 0.70594(15)
C1 C 0.2805(3) 0.4588(3) 0.80197(18)
H1 H 0.39810 0.39080 0.80920
H2 H 0.18080 0.40320 0.79470
C2 C 0.2298(6) 0.5486(4) 0.9047(3)
H3 H 0.09530 0.58270 0.91460
H4 H 0.26760 0.48650 0.97610
C3 C 0.2756(3) 0.5797(2) 0.59352(17)
C4 C 0.2277(3) 0.5789(3) 0.36579(18)
O1 O -0.0755(2) 0.8596(2) 0.64410(15)
C5 C 0.2484(3) 0.7115(3) 0.39876(18)
H5 H 0.24510 0.79940 0.34460
C6 C 0.2506(3) 0.4473(2) 0.55766(19)
H6 H 0.25040 0.35910 0.61120
C7 C 0.3558(3) 0.7113(2) 0.74133(18)
H7 H 0.49040 0.71050 0.71590
C8 C 0.2999(3) 0.8593(2) 0.54725(18)
H8 H 0.22160 0.94200 0.50430
H9 H 0.43020 0.87520 0.52730
O2 O -0.0134(2) 0.8945(2) 0.81674(14)
O3 O 0.1913(3) 0.4596(2) 0.21612(16)
C9 C 0.2741(3) 0.7141(2) 0.51212(17)
N2 N 0.2021(3) 0.5793(3) 0.24618(17)
O4 O 0.1926(4) 0.6986(2) 0.17861(16)
C10 C 0.2475(3) 0.8588(2) 0.67809(17)
C11 C 0.2265(3) 0.4462(3) 0.4446(2)
H10 H 0.20970 0.35820 0.42120
C12 C 0.0328(3) 0.8707(2) 0.70870(18)
N3 N 0.3742(3) 1.0864(2) 0.72921(19)
C13 C 0.3147(3) 0.9878(3) 0.70977(19)
C14 C 0.3340(4) 0.6763(3) 0.8734(2)
H11 H 0.45660 0.65120 0.90280
H12 H 0.26510 0.76230 0.90530
C15 C -0.2116(4) 0.8961(3) 0.8615(2)
H13 H -0.25590 0.80640 0.84950
H14 H -0.28800 0.98310 0.82190
C16 C -0.2252(5) 0.9021(4) 0.9866(3)
H15 H -0.13790 0.82200 1.02320
H16 H -0.35110 0.89140 1.02070
H17 H -0.19530 0.99680 0.99690
C17? C 0.3452(12) 0.5011(9) 0.9026(6)
H18? H 0.47350 0.45370 0.91340
H19? H 0.26420 0.47190 0.97240
#END
