
#######################################################################
#
#                 Cambridge Crystallographic Data Centre
#                                CCDC
#
#######################################################################
#
# If this CIF has been generated from an entry in the Cambridge
# Structural Database, then it will include bibliographic, chemical,
# crystal, experimental, refinement or atomic coordinate data resulting
# from the CCDC's data processing and validation procedures.
#
#######################################################################

data_CSD_CIF_GARNEU
_audit_creation_date 2012-03-13
_audit_creation_method CSD-ConQuest-V1
_database_code_CSD GARNEU
_database_code_depnum_ccdc_archive 'CCDC 838512'
_chemical_formula_sum 'C18 H16 N2 O2'
_chemical_formula_moiety
;
C18 H16 N2 O2
;
_journal_coeditor_code "IUCr QM2049"
_journal_coden_Cambridge 1370
_journal_volume 68
_journal_year 2012
_journal_page_first o484
_journal_name_full 'Acta Crystallogr.,Sect.E:Struct.Rep.Online '
loop_
_publ_author_name
"E.Govindan"
"J.Srinivasan"
"M.Bakthadoss"
"A.SubbiahPandi"
_chemical_name_systematic
;
2-((2-((Hydroxyimino)methyl)phenoxy)methyl)-3-(2-methylphenyl)acrylonitrile
;
_chemical_name_common
;
(E)-2-((2-[(E)-(Hydroxyimino)methyl]phenoxy)methyl)-3-o-tolylacrylonitrile
;
_cell_volume    778.323
_exptl_crystal_colour 'white crystalline'
_exptl_crystal_density_diffrn 1.247
_exptl_crystal_description 'block'
_diffrn_ambient_temperature 293
#These two values have been output from a single CSD field.
_refine_ls_R_factor_gt 0.0496
_refine_ls_wR_factor_gt 0.0496
_symmetry_cell_setting triclinic
_symmetry_space_group_name_H-M 'P -1'
_symmetry_Int_Tables_number 2
loop_
_symmetry_equiv_pos_site_id
_symmetry_equiv_pos_as_xyz
1 x,y,z
2 -x,-y,-z
_cell_length_a 7.0214(2)
_cell_length_b 10.5094(3)
_cell_length_c 10.8854(3)
_cell_angle_alpha 97.636(1)
_cell_angle_beta 95.953(1)
_cell_angle_gamma 99.642(1)
_cell_formula_units_Z 2
loop_
_atom_type_symbol
_atom_type_radius_bond
C 0.68
H 0.23
N 0.68
O 0.68
loop_
_atom_site_label
_atom_site_type_symbol
_atom_site_fract_x
_atom_site_fract_y
_atom_site_fract_z
C1 C -0.15593(16) 0.00826(11) 0.65422(11)
H1 H -0.11820 0.07600 0.72100
C2 C -0.02936(15) -0.08709(10) 0.63051(10)
C3 C -0.08597(19) -0.20010(12) 0.54286(12)
H2 H -0.20680 -0.21480 0.49430
C4 C 0.0343(2) -0.29046(12) 0.52696(13)
H3 H -0.00510 -0.36490 0.46740
C5 C 0.21237(19) -0.27051(12) 0.59921(12)
H4 H 0.29190 -0.33270 0.58970
C6 C 0.27362(17) -0.15902(11) 0.68554(11)
H5 H 0.39470 -0.14550 0.73370
C7 C 0.15422(14) -0.06683(10) 0.70047(9)
C8 C 0.34958(15) 0.05707(11) 0.88418(10)
H6 H 0.47950 0.07290 0.85980
H7 H 0.33170 -0.02400 0.91870
C9 C 0.32336(14) 0.16826(10) 0.9792(1)
C10 C 0.12321(15) 0.17173(11) 0.99392(11)
C11 C 0.47398(14) 0.25582(10) 1.04165(10)
H8 H 0.59580 0.24500 1.02030
C12 C 0.47398(15) 0.36647(10) 1.13905(10)
C13 C 0.3269(2) 0.36659(13) 1.21596(12)
H9 H 0.22990 0.29300 1.20870
C14 C 0.3234(2) 0.47427(15) 1.30267(15)
H10 H 0.22380 0.47350 1.35270
C15 C 0.4678(3) 0.58260(15) 1.31470(16)
H11 H 0.46420 0.65630 1.37140
C16 C 0.6170(2) 0.58189(12) 1.24310(14)
H12 H 0.71490 0.65540 1.25330
C17 C 0.62672(16) 0.47510(11) 1.15593(11)
C18 C 0.79547(18) 0.47851(14) 1.08190(15)
H13 H 0.88110 0.56160 1.10460
H14 H 0.74840 0.46570 0.99430
H15 H 0.86510 0.41040 1.09930
N1 N -0.31578(13) 0.00044(10) 0.58572(9)
N2 N -0.03874(16) 0.17076(12) 0.99832(14)
O1 O -0.41663(12) 0.09866(9) 0.62794(9)
H16 H -0.51630 0.09350 0.57970
O2 O 0.20712(11) 0.04926(7) 0.77921(7)
#END
