
#######################################################################
#
#                 Cambridge Crystallographic Data Centre
#                                CCDC
#
#######################################################################
#
# If this CIF has been generated from an entry in the Cambridge
# Structural Database, then it will include bibliographic, chemical,
# crystal, experimental, refinement or atomic coordinate data resulting
# from the CCDC's data processing and validation procedures.
#
#######################################################################

data_CSD_CIF_GARWOO
_audit_creation_date 2017-03-15
_audit_creation_method CSD-ConQuest-V1
_database_code_CSD GARWOO
_database_code_depnum_ccdc_archive 'CCDC 1522779'
_chemical_formula_sum 'C13 H14 N2 O4'
_chemical_formula_moiety
;
C13 H14 N2 O4
;
_journal_coden_Cambridge 179
_journal_volume 56
_journal_year 2017
_journal_page_first 4183
_journal_name_full 'Angew.Chem.,Int.Ed. '
loop_
_publ_author_name
"P.T.G.Rabet"
"S.Boyd"
"M.F.Greaney"
_chemical_name_systematic
;
methyl (E)-3-amino-3-cyclopropyl-2-(4-nitrophenyl)acrylate
;
_cell_volume   2526.374
_exptl_crystal_colour 'white'
_exptl_crystal_density_diffrn 1.379
_exptl_crystal_description 'block'
_exptl_crystal_preparation 'dichloromethane'
_diffrn_ambient_temperature 150
#These two values have been output from a single CSD field.
_refine_ls_R_factor_gt 0.0362
_refine_ls_wR_factor_gt 0.0362
_symmetry_cell_setting monoclinic
_symmetry_space_group_name_H-M 'P 21/n'
_symmetry_Int_Tables_number 14
loop_
_symmetry_equiv_pos_site_id
_symmetry_equiv_pos_as_xyz
1 x,y,z
2 1/2-x,1/2+y,1/2-z
3 -x,-y,-z
4 -1/2+x,-1/2-y,-1/2+z
_cell_length_a 7.7993(2)
_cell_length_b 28.3628(7)
_cell_length_c 11.4351(3)
_cell_angle_alpha 90
_cell_angle_beta 92.875(2)
_cell_angle_gamma 90
_cell_formula_units_Z 8
loop_
_atom_type_symbol
_atom_type_radius_bond
C 0.68
H 0.23
N 0.68
O 0.68
loop_
_atom_site_label
_atom_site_type_symbol
_atom_site_fract_x
_atom_site_fract_y
_atom_site_fract_z
C1 C 0.80354(16) -0.03920(4) 0.44294(11)
C2 C 0.79954(18) -0.05636(5) 0.32979(12)
H1 H 0.85180 -0.08560 0.31260
C3 C 0.71748(18) -0.02985(5) 0.24185(12)
H2 H 0.71230 -0.04140 0.16370
C4 C 0.64251(16) 0.01338(4) 0.26608(11)
C5 C 0.64738(19) 0.02899(5) 0.38151(12)
H3 H 0.59490 0.05820 0.39930
C6 C 0.7273(2) 0.00281(5) 0.47133(12)
H4 H 0.72940 0.01360 0.55010
C7 C 0.56093(16) 0.04292(4) 0.16994(11)
C8 C 0.39133(17) 0.03077(4) 0.12266(11)
C9 C 0.1560(2) -0.02062(6) 0.12773(17)
H5 H 0.07650 0.00470 0.14630
H6 H 0.12040 -0.04990 0.16480
H7 H 0.15490 -0.02500 0.04270
C10 C 0.64778(17) 0.08063(5) 0.12417(11)
C11 C 0.82544(17) 0.09134(5) 0.16752(12)
H8 H 0.87560 0.06810 0.22530
C12 C 0.8853(2) 0.14154(5) 0.18738(14)
H9 H 0.80320 0.16720 0.16660
H10 H 0.96310 0.14790 0.25660
C13 C 0.95437(18) 0.11380(5) 0.09026(13)
H11 H 1.07500 0.10300 0.09930
H12 H 0.91510 0.12220 0.00930
N1 N 0.89244(15) -0.06654(4) 0.53676(11)
N2 N 0.57771(17) 0.10923(5) 0.04082(11)
O1 O 0.97576(16) -0.10107(4) 0.50997(10)
O2 O 0.87853(16) -0.05348(4) 0.63800(9)
O3 O 0.30764(12) 0.05273(4) 0.04698(8)
O4 O 0.32718(12) -0.00839(3) 0.17107(9)
H13 H 0.641(2) 0.1285(6) 0.0029(15)
H14 H 0.471(3) 0.1018(6) 0.0107(16)
C14 C 0.83454(17) 0.27734(5) 0.38143(10)
C15 C 0.74005(18) 0.30242(5) 0.45936(11)
H15 H 0.67630 0.32950 0.43490
C16 C 0.74109(17) 0.28686(5) 0.57410(11)
H16 H 0.67530 0.30330 0.62860
C17 C 0.83655(16) 0.24754(4) 0.61161(10)
C18 C 0.93201(17) 0.22359(4) 0.53003(11)
H17 H 0.99820 0.19690 0.55410
C19 C 0.93120(17) 0.23829(5) 0.41491(11)
H18 H 0.99590 0.22190 0.35970
C20 C 0.83261(16) 0.23166(4) 0.73563(10)
C21 C 0.76613(18) 0.18556(5) 0.76078(11)
C22 C 0.6492(3) 0.11464(5) 0.67921(15)
H19 H 0.74240 0.09170 0.69200
H20 H 0.57920 0.10590 0.60900
H21 H 0.57750 0.11480 0.74710
C23 C 0.88091(16) 0.26219(5) 0.82633(11)
C24 C 0.95629(18) 0.30879(5) 0.80170(12)
H22 H 0.99650 0.31270 0.72060
C25 C 1.0555(2) 0.33669(5) 0.89432(13)
H23 H 1.06960 0.32280 0.97360
H24 H 1.15470 0.35540 0.86990
C26 C 0.8811(2) 0.35264(6) 0.85373(17)
H25 H 0.87220 0.38120 0.80400
H26 H 0.78700 0.34860 0.90780
N3 N 0.83066(16) 0.29244(4) 0.25907(10)
N4 N 0.86076(17) 0.25141(5) 0.93884(10)
O5 O 0.90069(17) 0.26704(4) 0.18878(9)
O6 O 0.75887(18) 0.32923(4) 0.23135(10)
O7 O 0.74692(16) 0.16892(4) 0.85876(9)
O8 O 0.72053(15) 0.16078(3) 0.66376(8)
H27 H 0.817(3) 0.2222(7) 0.9536(17)
H28 H 0.899(2) 0.2705(7) 0.9969(17)
#END
