
#######################################################################
#
#                 Cambridge Crystallographic Data Centre
#                                CCDC
#
#######################################################################
#
# If this CIF has been generated from an entry in the Cambridge
# Structural Database, then it will include bibliographic, chemical,
# crystal, experimental, refinement or atomic coordinate data resulting
# from the CCDC's data processing and validation procedures.
#
#######################################################################

data_CSD_CIF_GARXIG
_audit_creation_date 1989-01-20
_audit_creation_method CSD-ConQuest-V1
_database_code_CSD GARXIG
_chemical_formula_sum 'C23 H20 N2 O4'
_chemical_formula_moiety
;
C23 H20 N2 O4
;
_journal_coden_Cambridge 41
_journal_volume 32
_journal_year 1987
_journal_page_first 1531
_journal_name_full 'Kristallografiya(Russ.)(Crystallogr.Rep.) '
loop_
_publ_author_name
"N.G.Furmanova"
"V.I.Andrianov"
"T.N.Safonova"
_chemical_name_systematic
;
O-(N-p-Nitrophenyl)benzimidoyl-3,5,7-trimethyltropolone
;
_cell_volume   3986.246
_exptl_crystal_density_diffrn 1.29
_exptl_special_details
;
z(C13') is 0.6261 not 0.6281

;
_diffrn_ambient_temperature ?
_diffrn_special_details
;
The study was carried out at room temperature,in the range 283-303K

;
#These two values have been output from a single CSD field.
_refine_ls_R_factor_gt 0.066
_refine_ls_wR_factor_gt 0.066
_symmetry_cell_setting monoclinic
_symmetry_space_group_name_H-M 'P 1 1 2/a'
_symmetry_Int_Tables_number 13
loop_
_symmetry_equiv_pos_site_id
_symmetry_equiv_pos_as_xyz
1 x,y,z
2 1/2-x,-y,z
3 -x,-y,-z
4 -1/2+x,y,-z
_cell_length_a 15.246(25)
_cell_length_b 16.127(5)
_cell_length_c 16.515(3)
_cell_angle_alpha 90
_cell_angle_beta 90
_cell_angle_gamma 100.98(7)
_cell_formula_units_Z 8
loop_
_atom_type_symbol
_atom_type_radius_bond
C 0.68
H 0.23
N 0.68
O 0.68
loop_
_atom_site_label
_atom_site_type_symbol
_atom_site_fract_x
_atom_site_fract_y
_atom_site_fract_z
O1 O 0.4109(1) 0.3068(1) 0.0206(1)
O2 O 0.3741(2) 0.4059(1) -0.0900(1)
O3 O -0.0675(2) 0.1157(2) -0.2143(3)
O4 O -0.1051(2) 0.0406(3) -0.1061(3)
N1 N 0.2632(2) 0.2541(1) 0.0057(2)
N2 N -0.0525(3) 0.0940(3) -0.1449(3)
C1 C 0.3910(2) 0.3839(2) 0.0471(2)
C2 C 0.3772(2) 0.4365(2) -0.0216(2)
C3 C 0.3714(2) 0.5259(2) -0.0132(2)
C4 C 0.3651(2) 0.5698(2) 0.0559(2)
C5 C 0.3664(2) 0.5473(2) 0.1388(2)
C6 C 0.3789(2) 0.4718(2) 0.1685(2)
C7 C 0.3917(2) 0.3966(2) 0.1279(2)
C8 C 0.3690(3) 0.5706(2) -0.0929(2)
C9 C 0.3514(3) 0.6149(2) 0.1984(2)
C10 C 0.4054(3) 0.3250(2) 0.1831(2)
C11 C 0.3413(2) 0.2517(2) -0.0151(2)
C12 C 0.1887(2) 0.2086(2) -0.0348(2)
C13 C 0.1752(2) 0.2198(2) -0.1177(2)
C14 C 0.0958(3) 0.1817(2) -0.1539(2)
C15 C 0.0324(2) 0.1317(2) -0.1077(2)
C16 C 0.0448(2) 0.1174(2) -0.0270(3)
C17 C 0.1231(2) 0.1563(2) 0.0094(2)
C18 C 0.3759(2) 0.1937(2) -0.0717(2)
C19 C 0.3355(2) 0.1087(2) -0.0748(2)
C20 C 0.3672(2) 0.0556(2) -0.1292(2)
C21 C 0.4373(2) 0.0860(2) -0.1799(2)
C22 C 0.4785(2) 0.1710(2) -0.1763(2)
C23 C 0.4468(2) 0.2240(2) -0.1217(2)
O5 O 0.6509(1) 0.3052(1) 0.5120(1)
O6 O 0.6149(2) 0.4204(2) 0.6057(1)
O7 O 0.1575(2) 0.0745(2) 0.6989(2)
O8 O 0.1172(2) 0.0441(2) 0.5772(2)
N3 N 0.5023(1) 0.2531(1) 0.5136(2)
N4 N 0.1723(2) 0.0758(2) 0.6260(3)
C24 C 0.6339(2) 0.3789(2) 0.4742(2)
C25 C 0.6215(2) 0.4415(2) 0.5344(2)
C26 C 0.6209(2) 0.5298(2) 0.5130(2)
C27 C 0.6168(2) 0.5633(2) 0.4381(2)
C28 C 0.6162(2) 0.5279(2) 0.3595(2)
C29 C 0.6250(3) 0.4481(2) 0.3411(2)
C30 C 0.6364(2) 0.3794(2) 0.3929(2)
C31 C 0.6220(3) 0.5876(2) 0.5853(2)
C32 C 0.6025(4) 0.5866(3) 0.2908(2)
C33 C 0.6483(4) 0.2997(3) 0.3496(3)
C34 C 0.5779(2) 0.2488(2) 0.5408(2)
C35 C 0.4223(2) 0.2044(2) 0.5437(2)
C36 C 0.4015(2) 0.2032(2) 0.6261(2)
C37 C 0.3207(2) 0.1606(2) 0.6529(2)
C38 C 0.2596(2) 0.1190(2) 0.5982(2)
C39 C 0.2786(2) 0.1192(2) 0.5164(2)
C40 C 0.3603(2) 0.1628(2) 0.4904(2)
C41 C 0.6082(2) 0.1890(2) 0.5985(2)
C42 C 0.5651(2) 0.1045(2) 0.5988(2)
C43 C 0.5948(2) 0.0495(2) 0.6524(2)
C44 C 0.6628(3) 0.0773(3) 0.7054(3)
C45 C 0.7056(3) 0.1616(3) 0.7046(2)
C46 C 0.6774(2) 0.2172(2) 0.6509(2)
H1 H 0.357(2) 0.630(2) 0.051(2)
H2 H 0.385(3) 0.467(3) 0.227(3)
H3 H 0.382(3) 0.635(3) -0.086(3)
H4 H 0.311(3) 0.546(3) -0.127(3)
H5 H 0.430(3) 0.561(3) -0.130(3)
H6 H 0.324(4) 0.654(4) 0.174(4)
H7 H 0.417(4) 0.651(4) 0.208(4)
H8 H 0.341(4) 0.594(3) 0.253(3)
H9 H 0.428(4) 0.344(3) 0.234(4)
H10 H 0.453(4) 0.302(4) 0.160(4)
H11 H 0.339(5) 0.301(5) 0.195(5)
H12 H 0.228(3) 0.253(3) -0.148(3)
H13 H 0.086(3) 0.188(3) -0.214(3)
H14 H -0.005(3) 0.068(3) 0.000(3)
H15 H 0.136(3) 0.144(3) 0.072(3)
H16 H 0.283(3) 0.088(3) -0.040(3)
H17 H 0.332(3) -0.007(3) -0.131(3)
H18 H 0.469(3) 0.042(3) -0.226(3)
H19 H 0.533(3) 0.193(3) -0.216(3)
H20 H 0.475(2) 0.287(2) -0.124(2)
H21 H 0.608(3) 0.630(3) 0.439(3)
H22 H 0.636(3) 0.431(3) 0.280(3)
H23 H 0.625(4) 0.653(4) 0.568(4)
H24 H 0.568(3) 0.563(3) 0.621(3)
H25 H 0.680(4) 0.579(3) 0.621(3)
H26 H 0.538(4) 0.595(3) 0.297(3)
H27 H 0.650(4) 0.639(3) 0.297(3)
H28 H 0.609(4) 0.563(4) 0.233(4)
H29 H 0.671(4) 0.319(4) 0.291(4)
H30 H 0.705(4) 0.288(4) 0.369(4)
H31 H 0.575(4) 0.263(4) 0.346(4)
H32 H 0.446(3) 0.233(3) 0.665(3)
H33 H 0.306(3) 0.157(3) 0.713(3)
H34 H 0.224(4) 0.087(3) 0.486(3)
H35 H 0.381(3) 0.161(3) 0.428(3)
H36 H 0.514(3) 0.077(3) 0.561(3)
H37 H 0.562(3) 0.000(3) 0.643(3)
H38 H 0.686(3) 0.033(3) 0.748(3)
H39 H 0.768(3) 0.183(3) 0.738(3)
H40 H 0.713(3) 0.278(3) 0.650(3)
#END
