
#######################################################################
#
#                 Cambridge Crystallographic Data Centre
#                                CCDC
#
#######################################################################
#
# If this CIF has been generated from an entry in the Cambridge
# Structural Database, then it will include bibliographic, chemical,
# crystal, experimental, refinement or atomic coordinate data resulting
# from the CCDC's data processing and validation procedures.
#
#######################################################################

data_CSD_CIF_GASGAI
_audit_creation_date 1989-01-20
_audit_creation_method CSD-ConQuest-V1
_database_code_CSD GASGAI
_database_code_depnum_ccdc_archive 'CCDC 1164090'
_chemical_formula_sum 'C18 H21 N1 O5'
_chemical_formula_moiety
;
C18 H21 N1 O5
;
_journal_coden_Cambridge 35
_journal_volume 53
_journal_year 1988
_journal_page_first 1819
_journal_name_full 'J.Org.Chem. '
loop_
_publ_author_name
"W.Sweeny"
"G.Singh"
_chemical_name_systematic
;
4-((2,4-Diethoxyphenyl)imino)-3-ethoxy-cyclohexa-2,5-dien-1-one N-oxide
;
_chemical_melting_point 452.15
_cell_volume   1785.335
_exptl_crystal_colour 'amber red'
_exptl_crystal_density_diffrn 1.233
_exptl_special_details
;
Melting point range 452.15-453.15K

;
_diffrn_ambient_temperature 173.15
#These two values have been output from a single CSD field.
_refine_ls_R_factor_gt 0.045
_refine_ls_wR_factor_gt 0.045
_symmetry_cell_setting monoclinic
_symmetry_space_group_name_H-M 'P 21/n'
_symmetry_Int_Tables_number 14
loop_
_symmetry_equiv_pos_site_id
_symmetry_equiv_pos_as_xyz
1 x,y,z
2 1/2-x,1/2+y,1/2-z
3 -x,-y,-z
4 -1/2+x,-1/2-y,-1/2+z
_cell_length_a 11.294(1)
_cell_length_b 14.140(2)
_cell_length_c 11.180(2)
_cell_angle_alpha 90
_cell_angle_beta 90.54(1)
_cell_angle_gamma 90
_cell_formula_units_Z 4
loop_
_atom_type_symbol
_atom_type_radius_bond
C 0.68
H 0.23
N 0.68
O 0.68
loop_
_atom_site_label
_atom_site_type_symbol
_atom_site_fract_x
_atom_site_fract_y
_atom_site_fract_z
O1 O 0.4824(2) 0.0855(2) -0.3079(2)
O2 O 0.5301(2) 0.2070(2) 0.0854(2)
O3 O 0.2682(3) 0.0309(2) 0.1900(2)
O4 O 0.2893(2) 0.2822(2) 0.1148(2)
O5 O 0.4143(2) 0.3648(2) 0.5084(2)
N1 N 0.3391(3) 0.0956(2) 0.1539(3)
C1 C 0.4539(3) 0.0873(3) -0.2012(3)
C2 C 0.5104(3) 0.1502(3) -0.1153(3)
C3 C 0.4764(3) 0.1543(3) -0.0003(4)
C4 C 0.3793(3) 0.0955(3) 0.0410(3)
C5 C 0.3257(3) 0.0305(3) -0.0417(4)
C6 C 0.3606(4) 0.0264(3) -0.1560(3)
C7 C 0.3657(3) 0.1663(3) 0.2438(3)
C8 C 0.3346(3) 0.2609(3) 0.2246(3)
C9 C 0.3526(3) 0.3247(3) 0.3166(3)
C10 C 0.4023(3) 0.2946(3) 0.4238(3)
C11 C 0.4327(3) 0.2012(3) 0.4435(3)
C12 C 0.4118(3) 0.1356(3) 0.3517(3)
C13 C 0.6283(4) 0.2654(3) 0.0517(4)
C14 C 0.6704(4) 0.3152(4) 0.1628(4)
C15 C 0.2713(4) 0.3808(3) 0.0874(3)
C16 C 0.2462(4) 0.3880(3) -0.0437(4)
C17 C 0.4789(4) 0.3436(3) 0.6165(4)
C18 C 0.4814(4) 0.4318(3) 0.6909(4)
H1 H 0.57320 0.18910 -0.14270
H2 H 0.26470 0.00990 -0.01370
H3 H 0.32450 0.01690 -0.21020
H4 H 0.33090 0.38910 0.30650
H5 H 0.45670 0.18150 0.51740
H6 H 0.42980 0.07170 0.36390
H7 H 0.60260 0.31080 0.00560
H8 H 0.69010 0.22660 0.02180
H9 H 0.73570 0.35470 0.14400
H10 H 0.59430 0.26970 0.22080
H11 H 0.60800 0.35250 0.19380
H12 H 0.34130 0.41520 0.10630
H13 H 0.20520 0.40380 0.13060
H14 H 0.23380 0.45240 -0.06460
H15 H 0.17730 0.35240 -0.06290
H16 H 0.31170 0.36380 -0.08690
H17 H 0.55750 0.32580 0.59730
H18 H 0.43920 0.29500 0.65890
H19 H 0.52360 0.42010 0.76320
H20 H 0.40270 0.45040 0.70870
H21 H 0.51950 0.48090 0.64780
#END
