
#######################################################################
#
#                 Cambridge Crystallographic Data Centre
#                                CCDC
#
#######################################################################
#
# If this CIF has been generated from an entry in the Cambridge
# Structural Database, then it will include bibliographic, chemical,
# crystal, experimental, refinement or atomic coordinate data resulting
# from the CCDC's data processing and validation procedures.
#
#######################################################################

data_CSD_CIF_GASKUG
_audit_creation_date 1989-01-20
_audit_creation_method CSD-ConQuest-V1
_database_code_CSD GASKUG
_chemical_formula_sum 'C22 H22 N2 O4'
_chemical_formula_moiety
;
C22 H22 N2 O4
;
_journal_coden_Cambridge 207
_journal_year 1988
_journal_page_first 359
_journal_name_full 'J.Chem.Soc.,Perkin Trans.1 '
loop_
_publ_author_name
"U.Madsen"
"L.Brehm"
"P.Krogsgaard-Larsen"
_chemical_name_systematic
;
(RS)-N-(2-(3-Benzyloxyisoxazol-5-yl)-1-phenylethyl)-3-oxobutyramide
;
_chemical_melting_point 387.15
_cell_volume   2064.244
_exptl_crystal_colour 'colorless'
_exptl_crystal_density_diffrn 1.218
_exptl_special_details
;
Melting point range 387.15-387.65K

;
_diffrn_ambient_temperature ?
_diffrn_special_details
;
The study was carried out at room temperature,in the range 283-303K

;
#These two values have been output from a single CSD field.
_refine_ls_R_factor_gt 0.071
_refine_ls_wR_factor_gt 0.071
_symmetry_cell_setting monoclinic
_symmetry_space_group_name_H-M 'P 21/c'
_symmetry_Int_Tables_number 14
loop_
_symmetry_equiv_pos_site_id
_symmetry_equiv_pos_as_xyz
1 x,y,z
2 -x,1/2+y,1/2-z
3 -x,-y,-z
4 x,-1/2-y,-1/2+z
_cell_length_a 11.356(3)
_cell_length_b 19.218(4)
_cell_length_c 9.534(3)
_cell_angle_alpha 90
_cell_angle_beta 97.21(3)
_cell_angle_gamma 90
_cell_formula_units_Z 4
loop_
_atom_type_symbol
_atom_type_radius_bond
C 0.68
H 0.23
N 0.68
O 0.68
loop_
_atom_site_label
_atom_site_type_symbol
_atom_site_fract_x
_atom_site_fract_y
_atom_site_fract_z
O1 O -0.0326(3) 0.0700(3) 0.6878(4)
N1 N 0.0857(4) 0.0614(3) 0.7548(5)
C1 C 0.1498(5) 0.0738(3) 0.6552(6)
C2 C 0.0815(5) 0.0903(3) 0.5236(6)
C3 C -0.0298(5) 0.0882(3) 0.5522(6)
C4 C -0.1492(5) 0.1011(3) 0.4699(6)
C5 C -0.2042(4) 0.1693(3) 0.5139(4)
N2 N -0.1326(3) 0.2275(2) 0.4782(4)
C6 C -0.0816(5) 0.2723(4) 0.5719(6)
O2 O -0.0874(5) 0.2676(3) 0.6972(4)
C7 C -0.0128(7) 0.3308(5) 0.5180(7)
C8 C 0.1007(7) 0.3357(6) 0.5766(9)
O3 O 0.1542(5) 0.3622(4) 0.6753(7)
C9 C 0.1807(9) 0.2805(7) 0.4934(16)
O4 O 0.2685(3) 0.0704(2) 0.6753(4)
C10 C 0.3185(5) 0.0479(4) 0.8145(7)
C11 C 0.4519(5) 0.0503(4) 0.8244(7)
C12 C 0.5127(6) -0.0013(4) 0.7659(9)
C13 C 0.6333(7) -0.0008(4) 0.7795(10)
C14 C 0.6958(6) 0.0498(6) 0.8521(10)
C15 C 0.6386(8) 0.1000(5) 0.9124(8)
C16 C 0.5145(7) 0.1006(4) 0.8984(7)
C17 C -0.3333(4) 0.1759(3) 0.4483(5)
C18 C -0.3644(5) 0.2030(4) 0.3162(7)
C19 C -0.4846(7) 0.2068(4) 0.2609(9)
C20 C -0.5701(6) 0.1837(4) 0.3388(10)
C21 C -0.5387(5) 0.1564(5) 0.4653(8)
C22 C -0.4213(5) 0.1520(4) 0.5218(6)
H1 H -0.12000 0.23600 0.37500
H2 H 0.29200 -0.00100 0.83100
H3 H 0.29100 0.07900 0.88700
H4 H -0.14000 0.10300 0.36700
H5 H -0.20300 0.06200 0.48700
H6 H -0.01300 0.32500 0.41400
H7 H -0.05400 0.37600 0.53600
H8 H 0.11100 0.10100 0.43100
H9 H -0.20400 0.16600 0.61700
H10 H 0.46800 -0.04000 0.71300
H11 H 0.67700 -0.03900 0.73500
H12 H 0.78500 0.05000 0.86100
H13 H 0.68500 0.13800 0.96800
H14 H 0.47200 0.13900 0.94400
H15 H -0.30100 0.22000 0.25900
H16 H -0.50800 0.22700 0.16400
H17 H -0.65600 0.18400 0.30000
H18 H -0.60200 0.13900 0.52100
H19 H -0.40000 0.13100 0.61800
#END
