
#######################################################################
#
#                 Cambridge Crystallographic Data Centre
#                                CCDC
#
#######################################################################
#
# If this CIF has been generated from an entry in the Cambridge
# Structural Database, then it will include bibliographic, chemical,
# crystal, experimental, refinement or atomic coordinate data resulting
# from the CCDC's data processing and validation procedures.
#
#######################################################################

data_CSD_CIF_GASWII
_audit_creation_date 2012-03-13
_audit_creation_method CSD-ConQuest-V1
_database_code_CSD GASWII
_database_code_depnum_ccdc_archive 'CCDC 834560'
_chemical_formula_sum 'C19 H16 N4 O6'
_chemical_formula_moiety
;
C19 H16 N4 O6
;
_journal_coden_Cambridge 16
_journal_volume 68
_journal_year 2012
_journal_page_first 516
_journal_name_full 'Tetrahedron '
loop_
_publ_author_name
"J.Bezensek"
"U.Groselj"
"K.Stare"
"J.Svete"
"B.Stanovnik"
_chemical_name_systematic
;
Ethyl 
(5-benzoyl-3-(3-nitrophenyl)-2-oxo-2,3-dihydro-1H-imidazol-1-yl)carbamate
;
_cell_volume   3702.319
_exptl_crystal_colour 'colorless'
_exptl_crystal_density_diffrn 1.422
_exptl_crystal_description 'cube'
_diffrn_ambient_temperature 293
#These two values have been output from a single CSD field.
_refine_ls_R_factor_gt 0.053
_refine_ls_wR_factor_gt 0.053
_symmetry_cell_setting monoclinic
_symmetry_space_group_name_H-M 'P 21/a'
_symmetry_Int_Tables_number 14
loop_
_symmetry_equiv_pos_site_id
_symmetry_equiv_pos_as_xyz
1 x,y,z
2 1/2-x,1/2+y,-z
3 -x,-y,-z
4 -1/2+x,-1/2-y,z
_cell_length_a 11.2412(1)
_cell_length_b 20.7177(3)
_cell_length_c 16.1227(2)
_cell_angle_alpha 90
_cell_angle_beta 99.5948(9)
_cell_angle_gamma 90
_cell_formula_units_Z 8
loop_
_atom_type_symbol
_atom_type_radius_bond
C 0.68
H 0.23
N 0.68
O 0.68
loop_
_atom_site_label
_atom_site_type_symbol
_atom_site_fract_x
_atom_site_fract_y
_atom_site_fract_z
O1 O 0.11697(13) 0.45637(6) 1.01445(11)
O2 O 0.19562(13) 0.46589(7) 0.52935(11)
O3 O -0.25485(11) 0.31657(7) 0.93336(11)
O4 O -0.15381(15) 0.33446(7) 1.12967(11)
O5 O -0.19711(17) 0.44023(8) 1.14257(11)
O6 O 0.1046(3) 0.06682(13) 0.8476(3)
O7 O -0.0228(3) 0.02264(11) 0.75375(19)
O8 O -0.18889(11) 0.32572(8) 0.45442(10)
O9 O -0.0452(2) 0.35275(9) 0.65205(12)
O10 O -0.13387(17) 0.45050(9) 0.65224(11)
O11 O -0.35225(18) 0.12693(13) 0.19506(15)
O12 O -0.3728(2) 0.22638(15) 0.2242(2)
N1 N -0.06807(12) 0.28148(7) 0.90386(10)
N2 N -0.07165(12) 0.36582(7) 0.98456(10)
N3 N -0.11511(14) 0.41010(7) 1.03544(12)
N4 N 0.0086(2) 0.06658(10) 0.80145(17)
N5 N -0.00447(12) 0.28974(8) 0.4210(1)
N6 N -0.00619(13) 0.37877(8) 0.49411(10)
N7 N -0.04787(14) 0.42429(8) 0.54486(11)
N8 N -0.31498(17) 0.17709(13) 0.22887(13)
C1 C 0.36125(18) 0.42604(10) 1.02191(17)
C2 C 0.4818(2) 0.41012(12) 1.0426(2)
C3 C 0.51609(17) 0.34872(12) 1.06941(17)
C4 C 0.43030(17) 0.30233(10) 1.07583(14)
C5 C 0.30868(15) 0.31739(8) 1.05392(12)
C6 C 0.27366(15) 0.37923(8) 1.02718(12)
C7 C 0.14547(15) 0.40005(8) 1.00909(12)
C8 C 0.05025(14) 0.35224(8) 0.98201(12)
C9 C 0.4348(2) 0.42609(11) 0.54553(17)
C10 C 0.5527(2) 0.40610(14) 0.5703(2)
C11 C 0.5773(2) 0.34306(14) 0.5944(2)
C12 C 0.4844(2) 0.29964(11) 0.59406(15)
C13 C 0.36580(17) 0.31912(9) 0.56795(13)
C14 C 0.34003(15) 0.38242(9) 0.54341(12)
C15 C 0.21520(16) 0.40826(9) 0.52161(12)
C16 C 0.11529(15) 0.36416(9) 0.49146(12)
C17 C 0.05055(14) 0.30032(8) 0.93207(12)
C18 C -0.14593(14) 0.32125(8) 0.93947(12)
C19 C -0.15384(16) 0.38926(9) 1.10577(13)
C20 C -0.2414(3) 0.42732(15) 1.2200(2)
C21 C -0.1509(5) 0.4399(3) 1.2934(2)
C22 C -0.10624(15) 0.22760(9) 0.85176(12)
C23 C -0.21920(18) 0.22818(12) 0.80021(13)
C24 C -0.2578(2) 0.17394(15) 0.75273(15)
C25 C -0.1853(2) 0.12038(13) 0.75350(15)
C26 C -0.0724(2) 0.12238(11) 0.80222(14)
C27 C -0.03119(16) 0.17432(10) 0.85277(13)
C28 C 0.11405(14) 0.30953(9) 0.44550(12)
C29 C -0.08096(15) 0.33088(9) 0.45597(12)
C30 C -0.07365(17) 0.40405(10) 0.62004(13)
C31 C -0.1703(4) 0.4384(2) 0.7334(2)
C32 C -0.0805(6) 0.4596(3) 0.8023(2)
C33 C -0.04350(15) 0.23385(9) 0.37264(11)
C34 C 0.02987(17) 0.17995(11) 0.37659(14)
C35 C -0.0089(2) 0.12574(12) 0.32942(17)
C36 C -0.1220(2) 0.12384(12) 0.27995(16)
C37 C -0.19237(16) 0.17812(11) 0.27819(12)
C38 C -0.15616(16) 0.23406(10) 0.32164(12)
H1 H 0.33595 0.47259 1.00255
H2 H 0.54712 0.44498 1.03733
H3 H 0.60728 0.33718 1.08483
H4 H 0.45663 0.25627 1.09676
H5 H 0.24360 0.28211 1.05747
H6 H 0.41672 0.47391 0.52773
H7 H 0.62291 0.43882 0.57051
H8 H 0.66580 0.32814 0.61358
H9 H 0.50305 0.25241 0.61339
H10 H 0.29574 0.28604 0.56723
H11 H 0.12692 0.27799 0.91700
H12 H -0.11252 0.45239 1.02043
H13 H -0.27388 0.26908 0.79776
H14 H -0.34339 0.17418 0.71589
H15 H -0.21484 0.07994 0.71837
H16 H 0.05313 0.17352 0.89070
H17 H 0.18983 0.28614 0.43081
H18 H -0.09041 0.46361 0.51943
H19 H 0.11408 0.18042 0.41485
H20 H 0.04728 0.08572 0.33174
H21 H -0.15232 0.08310 0.24545
H22 H -0.21102 0.27482 0.31653
H23 H -0.26581 0.37875 1.22088
H24 H -0.31517 0.45610 1.22325
H25 H -0.18447 0.42967 1.34735
H26 H -0.12417 0.48793 1.29294
H27 H -0.07494 0.41056 1.29064
H28 H -0.17843 0.38875 0.74142
H29 H -0.24984 0.46122 0.73664
H30 H -0.11489 0.45063 0.85640
H31 H -0.07333 0.50954 0.79378
H32 H -0.00318 0.43668 0.79955
#END
