
#######################################################################
#
#                 Cambridge Crystallographic Data Centre
#                                CCDC
#
#######################################################################
#
# If this CIF has been generated from an entry in the Cambridge
# Structural Database, then it will include bibliographic, chemical,
# crystal, experimental, refinement or atomic coordinate data resulting
# from the CCDC's data processing and validation procedures.
#
#######################################################################

data_CSD_CIF_GASZUX
_audit_creation_date 2012-03-13
_audit_creation_method CSD-ConQuest-V1
_database_code_CSD GASZUX
_database_code_depnum_ccdc_archive 'CCDC 799818'
_chemical_formula_sum 'C24 H21 N3 O3'
_chemical_formula_moiety
;
C24 H21 N3 O3
;
_journal_coden_Cambridge 24
_journal_volume 52
_journal_year 2011
_journal_page_first 6122
_journal_name_full 'Tetrahedron Lett. '
loop_
_publ_author_name
"Wenxue Zhang"
"Yisi Dai"
"Xuerui Wang"
"Wei Zhang"
_chemical_name_systematic
;
8-Methyl-4-(4-nitrophenyl)-1-phenyl-1,3,3a,4,5,9b-hexahydro-2H-pyrrolo[3,2-c]q
uinolin-2-one
;
_cell_volume   2012.507
_exptl_crystal_colour 'yellow'
_exptl_crystal_density_diffrn 1.318
_exptl_crystal_description 'block'
_diffrn_ambient_temperature 296
#These two values have been output from a single CSD field.
_refine_ls_R_factor_gt 0.0687
_refine_ls_wR_factor_gt 0.0687
_symmetry_cell_setting monoclinic
_symmetry_space_group_name_H-M 'P 21/n'
_symmetry_Int_Tables_number 14
loop_
_symmetry_equiv_pos_site_id
_symmetry_equiv_pos_as_xyz
1 x,y,z
2 1/2-x,1/2+y,1/2-z
3 -x,-y,-z
4 -1/2+x,-1/2-y,-1/2+z
_cell_length_a 6.881(13)
_cell_length_b 15.11(3)
_cell_length_c 19.58(4)
_cell_angle_alpha 90
_cell_angle_beta 98.67(3)
_cell_angle_gamma 90
_cell_formula_units_Z 4
loop_
_atom_type_symbol
_atom_type_radius_bond
C 0.68
H 0.23
N 0.68
O 0.68
loop_
_atom_site_label
_atom_site_type_symbol
_atom_site_fract_x
_atom_site_fract_y
_atom_site_fract_z
C1 C 1.1693(8) 0.6681(3) 0.1298(2)
H1 H 1.25160 0.68690 0.16930
C2 C 1.2174(10) 0.6869(4) 0.0655(3)
H2 H 1.33300 0.71700 0.06160
C3 C 1.0974(11) 0.6616(4) 0.0088(3)
H3 H 1.12970 0.67440 -0.03460
C4 C 0.9312(12) 0.6180(5) 0.0140(3)
H4 H 0.84740 0.60150 -0.02580
C5 C 0.8833(9) 0.5974(3) 0.0784(3)
H5 H 0.76860 0.56620 0.08190
C6 C 1.0028(7) 0.6225(2) 0.1360(2)
C7 C 0.8140(7) 0.6388(3) 0.2317(2)
C8 C 0.8337(7) 0.6095(2) 0.3061(2)
H6 H 0.70660 0.59330 0.31810
H7 H 0.88970 0.65630 0.33690
C9 C 0.9700(6) 0.5298(2) 0.31120(18)
H8 H 1.05530 0.52900 0.35600
C10 C 1.0916(6) 0.5453(2) 0.25289(18)
H9 H 1.20590 0.58160 0.27090
C11 C 1.1632(5) 0.4620(2) 0.22226(18)
C12 C 1.0923(6) 0.3800(2) 0.23872(18)
C13 C 0.8475(5) 0.4451(2) 0.30123(18)
H10 H 0.74390 0.45280 0.26150
C14 C 1.3106(6) 0.4647(3) 0.18086(19)
H11 H 1.36270 0.51950 0.17180
C15 C 1.3835(6) 0.3905(3) 0.1526(2)
C16 C 1.2969(7) 0.3109(3) 0.1660(2)
H12 H 1.33570 0.25980 0.14530
C17 C 1.1579(6) 0.3042(3) 0.2081(2)
H13 H 1.10610 0.24920 0.21660
C18 C 1.5475(7) 0.3956(3) 0.1096(3)
H14 H 1.63860 0.34820 0.12210
H15 H 1.61440 0.45120 0.11770
H16 H 1.49380 0.39070 0.06150
C19 C 0.7537(6) 0.4248(2) 0.36386(19)
C20 C 0.8638(6) 0.4102(3) 0.4285(2)
H17 H 1.00030 0.41150 0.43270
C21 C 0.7797(6) 0.3941(3) 0.4855(2)
H18 H 0.85710 0.38570 0.52820
C22 C 0.5806(6) 0.3905(2) 0.4794(2)
C23 C 0.4655(6) 0.4011(3) 0.4163(2)
H19 H 0.32940 0.39710 0.41220
C24 C 0.5543(6) 0.4178(3) 0.3591(2)
H20 H 0.47660 0.42440 0.31630
N1 N 0.9580(5) 0.59905(19) 0.20279(16)
N2 N 0.9699(5) 0.3710(2) 0.28796(16)
N3 N 0.4864(7) 0.3765(2) 0.5402(2)
O1 O 0.6916(5) 0.6906(2) 0.20242(16)
O2 O 0.3071(5) 0.3739(2) 0.53358(15)
O3 O 0.5931(5) 0.3698(2) 0.59650(17)
H21 H 0.901(7) 0.315(3) 0.285(2)
#END
