
#######################################################################
#
#                 Cambridge Crystallographic Data Centre
#                                CCDC
#
#######################################################################
#
# If this CIF has been generated from an entry in the Cambridge
# Structural Database, then it will include bibliographic, chemical,
# crystal, experimental, refinement or atomic coordinate data resulting
# from the CCDC's data processing and validation procedures.
#
#######################################################################

data_CSD_CIF_GATDOX
_audit_creation_date 2017-03-16
_audit_creation_method CSD-ConQuest-V1
_database_code_CSD GATDOX
_database_code_depnum_ccdc_archive 'CCDC 1494362'
_chemical_formula_sum 'C7 H2 N10 O6'
_chemical_formula_moiety
;
C7 H2 N10 O6
;
_journal_coden_Cambridge 179
_journal_volume 55
_journal_year 2016
_journal_page_first 16132
_journal_name_full 'Angew.Chem.,Int.Ed. '
loop_
_publ_author_name
"D.Fischer"
"J.L.Gottfried"
"T.M.Klapotke"
"K.Karaghiosoff"
"J.Stierstorfer"
"T.G.Witkowski"
_chemical_name_systematic
;
1,1'-methylenebis(4-diazonio-3-nitro-1H-pyrazol-5-olate)
;
_cell_volume   1204.239
_exptl_crystal_colour 'pale yellow'
_exptl_crystal_density_diffrn 1.777
_exptl_crystal_description 'block'
_diffrn_ambient_temperature 123
#These two values have been output from a single CSD field.
_refine_ls_R_factor_gt 0.0424
_refine_ls_wR_factor_gt 0.0424
_symmetry_cell_setting orthorhombic
_symmetry_space_group_name_H-M 'P n m a'
_symmetry_Int_Tables_number 62
loop_
_symmetry_equiv_pos_site_id
_symmetry_equiv_pos_as_xyz
1 x,y,z
2 1/2-x,-y,1/2+z
3 1/2+x,1/2-y,1/2-z
4 -x,1/2+y,-z
5 -x,-y,-z
6 -1/2+x,y,-1/2-z
7 -1/2-x,-1/2+y,-1/2+z
8 x,-1/2-y,z
_cell_length_a 10.3877(5)
_cell_length_b 21.8875(10)
_cell_length_c 5.2966(3)
_cell_angle_alpha 90
_cell_angle_beta 90
_cell_angle_gamma 90
_cell_formula_units_Z 4
loop_
_atom_type_symbol
_atom_type_radius_bond
C 0.68
H 0.23
N 0.68
O 0.68
loop_
_atom_site_label
_atom_site_type_symbol
_atom_site_fract_x
_atom_site_fract_y
_atom_site_fract_z
C1 C 0.7606(3) 0.25000 0.6373(5)
H1 H 0.850(2) 0.25000(2) 0.5801(13)
H2 H 0.7607(3) 0.25000(2) 0.822(4)
O1 O 0.81714(14) 0.32323(6) 0.1828(3)
N1 N 0.59237(16) 0.32800(7) 0.6720(3)
N2 N 0.62935(15) 0.42849(7) 0.1551(3)
O2 O 0.41464(15) 0.45060(6) 0.4589(3)
N3 N 0.69725(16) 0.30473(7) 0.5471(3)
N4 N 0.44562(16) 0.41040(8) 0.6103(3)
O3 O 0.39089(14) 0.39953(7) 0.8088(3)
C2 C 0.63422(18) 0.38423(8) 0.3242(3)
N5 N 0.63115(18) 0.46444(8) 0.0068(3)
C3 C 0.72994(19) 0.33601(8) 0.3262(3)
C4 C 0.55621(18) 0.37458(8) 0.5398(4)
O1G O 0.81714(14) 0.17677(6) 0.1828(3)
N1G N 0.59237(16) 0.17200(7) 0.6720(3)
N2G N 0.62935(15) 0.07151(7) 0.1551(3)
O2G O 0.41464(15) 0.04940(6) 0.4589(3)
N3G N 0.69725(16) 0.19527(7) 0.5471(3)
N4G N 0.44562(16) 0.08960(8) 0.6103(3)
O3G O 0.39089(14) 0.10047(7) 0.8088(3)
C2G C 0.63422(18) 0.11577(8) 0.3242(3)
N5G N 0.63115(18) 0.03556(8) 0.0068(3)
C3G C 0.72994(19) 0.16399(8) 0.3262(3)
C4G C 0.55621(18) 0.12542(8) 0.5398(4)
#END
