
#######################################################################
#
#                 Cambridge Crystallographic Data Centre
#                                CCDC
#
#######################################################################
#
# If this CIF has been generated from an entry in the Cambridge
# Structural Database, then it will include bibliographic, chemical,
# crystal, experimental, refinement or atomic coordinate data resulting
# from the CCDC's data processing and validation procedures.
#
#######################################################################

data_CSD_CIF_GATFEP
_audit_creation_date 2017-03-16
_audit_creation_method CSD-ConQuest-V1
_database_code_CSD GATFEP
_database_code_depnum_ccdc_archive 'CCDC 1500792'
_chemical_formula_sum 'C7 H6 N10 O8'
_chemical_formula_moiety
;
C7 H6 N10 O8
;
_journal_coden_Cambridge 179
_journal_volume 55
_journal_year 2016
_journal_page_first 16132
_journal_name_full 'Angew.Chem.,Int.Ed. '
loop_
_publ_author_name
"D.Fischer"
"J.L.Gottfried"
"T.M.Klapotke"
"K.Karaghiosoff"
"J.Stierstorfer"
"T.G.Witkowski"
_chemical_name_systematic
;
1-((4-amino-3,5-dinitro-1H-pyrazol-1-yl)methyl)-3,5-dinitro-1H-pyrazol-4-amine
;
_chemical_name_common
;
1,1-bis-3,5-nitro-5-aminopyrazolyl-methane
;
_cell_volume   2592.064
_exptl_crystal_colour 'yellow'
_exptl_crystal_density_diffrn 1.836
_exptl_crystal_description 'prism'
_diffrn_ambient_temperature 173
#These two values have been output from a single CSD field.
_refine_ls_R_factor_gt 0.0577
_refine_ls_wR_factor_gt 0.0577
_symmetry_cell_setting orthorhombic
_symmetry_space_group_name_H-M 'P b c a'
_symmetry_Int_Tables_number 61
loop_
_symmetry_equiv_pos_site_id
_symmetry_equiv_pos_as_xyz
1 x,y,z
2 1/2-x,-y,1/2+z
3 1/2+x,1/2-y,-z
4 -x,1/2+y,1/2-z
5 -x,-y,-z
6 -1/2+x,y,-1/2-z
7 -1/2-x,-1/2+y,z
8 x,-1/2-y,-1/2+z
_cell_length_a 12.2107(8)
_cell_length_b 9.6010(7)
_cell_length_c 22.1100(12)
_cell_angle_alpha 90
_cell_angle_beta 90
_cell_angle_gamma 90
_cell_formula_units_Z 8
loop_
_atom_type_symbol
_atom_type_radius_bond
C 0.68
H 0.23
N 0.68
O 0.68
loop_
_atom_site_label
_atom_site_type_symbol
_atom_site_fract_x
_atom_site_fract_y
_atom_site_fract_z
O1 O 0.3930(2) 0.6080(3) 0.24228(12)
O2 O 0.4926(3) 0.6582(3) 0.32015(11)
O3 O 0.8504(2) 0.9322(3) 0.23525(13)
O4 O 0.8206(2) 0.9518(3) 0.13817(13)
O5 O 0.5951(2) 0.5944(3) 0.00974(12)
O6 O 0.5407(2) 0.7046(3) -0.07105(11)
O7 O 0.2711(2) 1.1168(3) 0.00907(12)
O8 O 0.2474(2) 1.0709(3) 0.10493(12)
C1 C 0.6986(3) 0.8314(4) 0.19570(15)
C2 C 0.6494(3) 0.7888(4) 0.25089(14)
C3 C 0.5567(3) 0.7215(4) 0.22988(15)
N1 N 0.4760(3) 0.6585(3) 0.26513(14)
N2 N 0.6834(4) 0.8117(4) 0.30656(16)
N3 N 0.7965(3) 0.9102(3) 0.18930(16)
C4 C 0.4652(3) 0.7654(3) 0.01741(14)
C5 C 0.4026(3) 0.8760(3) -0.00482(14)
C6 C 0.3546(3) 0.9265(4) 0.04889(15)
N4 N 0.5382(2) 0.6821(3) -0.01580(13)
N5 N 0.3916(3) 0.9247(4) -0.06098(14)
N6 N 0.2856(2) 1.0455(3) 0.05478(14)
N7 N 0.6439(2) 0.7929(3) 0.14678(12)
N8 N 0.5564(2) 0.7259(3) 0.16756(12)
C7 C 0.4863(4) 0.6553(4) 0.12343(17)
N9 N 0.4496(2) 0.7576(3) 0.07900(12)
N10 N 0.3808(2) 0.8555(3) 0.09794(12)
H1 H 0.340(3) 0.990(4) -0.0652(14)
H2 H 0.420(3) 0.622(3) 0.1463(14)
H3 H 0.530(3) 0.584(4) 0.0988(16)
H4 H 0.646(3) 0.780(4) 0.3314(16)
H5 H 0.744(3) 0.861(4) 0.3092(15)
H6 H 0.419(4) 0.875(5) -0.0871(18)
#END
