
#######################################################################
#
#                 Cambridge Crystallographic Data Centre
#                                CCDC
#
#######################################################################
#
# If this CIF has been generated from an entry in the Cambridge
# Structural Database, then it will include bibliographic, chemical,
# crystal, experimental, refinement or atomic coordinate data resulting
# from the CCDC's data processing and validation procedures.
#
#######################################################################

data_CSD_CIF_GATFUF
_audit_creation_date 2017-03-16
_audit_creation_method CSD-ConQuest-V1
_database_code_CSD GATFUF
_database_code_depnum_ccdc_archive 'CCDC 1500795'
_chemical_formula_sum 'C7 H2 N10 O12'
_chemical_formula_moiety
;
C7 H2 N10 O12
;
_journal_coden_Cambridge 179
_journal_volume 55
_journal_year 2016
_journal_page_first 16132
_journal_name_full 'Angew.Chem.,Int.Ed. '
loop_
_publ_author_name
"D.Fischer"
"J.L.Gottfried"
"T.M.Klapotke"
"K.Karaghiosoff"
"J.Stierstorfer"
"T.G.Witkowski"
_chemical_name_systematic
;
3,4,5-trinitro-1-((3,4,5-trinitro-1H-pyrazol-1-yl)methyl)-1H-pyrazole
;
_chemical_name_common
;
bis(3,4,5-trinitropyrazolyl)methane
;
_cell_volume   4229.586
_exptl_crystal_colour 'yellow'
_exptl_crystal_density_diffrn 1.97
_exptl_crystal_description 'block'
_diffrn_ambient_temperature 173
#These two values have been output from a single CSD field.
_refine_ls_R_factor_gt 0.0355
_refine_ls_wR_factor_gt 0.0355
_symmetry_cell_setting monoclinic
_symmetry_space_group_name_H-M 'P 21/n'
_symmetry_Int_Tables_number 14
loop_
_symmetry_equiv_pos_site_id
_symmetry_equiv_pos_as_xyz
1 x,y,z
2 1/2-x,1/2+y,1/2-z
3 -x,-y,-z
4 -1/2+x,-1/2-y,-1/2+z
_cell_length_a 8.6118(3)
_cell_length_b 16.5734(5)
_cell_length_c 29.794(1)
_cell_angle_alpha 90
_cell_angle_beta 95.938(1)
_cell_angle_gamma 90
_cell_formula_units_Z 12
loop_
_atom_type_symbol
_atom_type_radius_bond
C 0.68
H 0.23
N 0.68
O 0.68
loop_
_atom_site_label
_atom_site_type_symbol
_atom_site_fract_x
_atom_site_fract_y
_atom_site_fract_z
O1 O 0.18132(16) 0.28976(8) 0.04865(5)
O2 O 0.21041(17) 0.35462(8) -0.01361(4)
O3 O 0.34452(15) 0.52898(8) -0.03397(4)
O4 O 0.11819(15) 0.55608(8) -0.01147(4)
O5 O 0.40836(18) 0.65507(8) 0.04360(4)
O6 O 0.49784(14) 0.63972(8) 0.11406(4)
O7 O 0.54648(15) 0.29886(8) 0.05267(4)
O8 O 0.80169(16) 0.29738(8) 0.05999(5)
O9 O 1.04353(15) 0.28753(8) 0.14706(5)
O10 O 1.02580(16) 0.41304(8) 0.12767(5)
O11 O 0.96884(16) 0.41097(11) 0.23012(5)
O12 O 0.75830(16) 0.40120(9) 0.26454(4)
N1 N 0.35283(16) 0.41252(8) 0.09598(5)
N2 N 0.41002(16) 0.48428(8) 0.11027(5)
N3 N 0.22091(17) 0.34818(9) 0.02741(5)
N4 N 0.24957(17) 0.52899(9) -0.00614(5)
N5 N 0.43212(17) 0.61572(9) 0.07851(5)
N6 N 0.55198(16) 0.34508(8) 0.14259(5)
N7 N 0.59202(16) 0.36951(8) 0.18506(5)
N8 N 0.67494(18) 0.30800(9) 0.07390(5)
N9 N 0.97259(17) 0.35018(9) 0.14056(5)
N10 N 0.83011(18) 0.3965(1) 0.23158(5)
C1 C 0.28708(19) 0.4166(1) 0.05246(6)
C2 C 0.30139(19) 0.49426(10) 0.03812(5)
C3 C 0.37832(19) 0.53299(10) 0.07559(5)
C4 C 0.38620(19) 0.3436(1) 0.12661(6)
H1 H 0.32300 0.34760 0.15250
H2 H 0.35950 0.29240 0.11050
C5 C 0.6802(2) 0.33382(10) 0.12007(6)
C6 C 0.8083(2) 0.35159(10) 0.14929(6)
C7 C 0.7457(2) 0.37264(10) 0.18902(6)
O13 O 0.27134(16) 0.17496(8) 0.20622(4)
O14 O 0.51734(15) 0.20665(8) 0.21846(4)
O15 O 0.75650(16) 0.20238(9) 0.30055(5)
O16 O 0.76000(15) 0.07340(9) 0.28815(5)
O17 O 0.47747(16) 0.07065(9) 0.41814(4)
O18 O 0.69379(15) 0.07721(9) 0.38639(5)
O19 O -0.11995(15) 0.18675(8) 0.20918(4)
O20 O -0.11444(16) 0.12200(8) 0.14562(4)
O21 O -0.17287(16) -0.05517(9) 0.13867(5)
O22 O 0.07025(17) -0.07324(9) 0.12921(5)
O23 O 0.22683(15) -0.15769(8) 0.26768(5)
O24 O 0.08553(18) -0.18029(8) 0.20426(5)
N11 N 0.27482(16) 0.13454(8) 0.29726(5)
N12 N 0.31446(16) 0.10897(9) 0.33955(5)
N13 N 0.39621(17) 0.17869(9) 0.22977(5)
N14 N 0.69617(17) 0.13634(10) 0.29697(5)
N15 N 0.55231(17) 0.08283(9) 0.38626(5)
N16 N 0.07094(16) 0.06814(9) 0.25186(5)
C8 C -0.00216(19) 0.06353(11) 0.20919(6)
N17 N -0.08411(17) 0.12974(9) 0.18637(5)
N18 N -0.03444(18) -0.04970(9) 0.15049(5)
N19 N 0.13998(18) -0.13647(9) 0.23515(5)
C9 C 0.4030(2) 0.14811(10) 0.27517(6)
C10 C 0.53135(19) 0.13063(10) 0.30453(6)
C11 C 0.46848(19) 0.10693(10) 0.34373(6)
C12 C 0.10905(19) 0.13786(11) 0.28157(6)
H3 H 0.08480 0.18870 0.26480
H4 H 0.04640 0.13610 0.30760
N20 N 0.13022(16) -0.00343(9) 0.26578(5)
C13 C 0.09449(19) -0.0524(1) 0.23141(6)
C14 C 0.01276(19) -0.01454(11) 0.19478(6)
N21 N 0.94233(16) 0.48067(9) 0.44089(5)
N22 N 0.98922(16) 0.40740(8) 0.42870(5)
C15 C 1.02795(19) 0.40725(10) 0.38563(6)
C16 C 1.00428(19) 0.48368(11) 0.36914(6)
C17 C 0.95204(19) 0.52629(10) 0.40513(6)
N23 N 0.91687(17) 0.61139(9) 0.40783(5)
O25 O 0.90651(16) 0.54813(8) 0.30489(4)
N24 N 1.01977(18) 0.51350(9) 0.32406(5)
O26 O 1.14310(16) 0.50305(9) 0.30887(5)
O27 O 1.06021(18) 0.33359(9) 0.32307(5)
N25 N 1.08801(17) 0.33742(9) 0.36401(5)
O28 O 1.16495(16) 0.28938(8) 0.38809(5)
O29 O 0.96896(16) 0.65527(8) 0.37968(4)
O30 O 0.83889(14) 0.63354(7) 0.43752(4)
C18 C 0.97955(19) 0.34189(10) 0.46166(6)
H5 H 0.99680 0.28910 0.44740
H6 H 1.06030 0.34920 0.48750
N26 N 0.82395(16) 0.34449(8) 0.47715(5)
N27 N 0.81074(17) 0.38009(9) 0.51710(5)
C19 C 0.6593(2) 0.38626(11) 0.51971(6)
C20 C 0.5708(2) 0.35569(10) 0.48161(6)
C21 C 0.6803(2) 0.32879(10) 0.45501(6)
N28 N 0.65915(18) 0.28580(9) 0.41298(5)
O31 O 0.77454(16) 0.27322(8) 0.39326(4)
O32 O 0.52565(15) 0.26440(8) 0.40056(5)
N29 N 0.40077(17) 0.3499(1) 0.47355(5)
O33 O 0.34422(16) 0.28464(9) 0.48025(5)
O34 O 0.32938(15) 0.41135(9) 0.46180(5)
O35 O 0.46428(15) 0.43818(10) 0.55683(5)
N30 N 0.60244(18) 0.41887(10) 0.56017(5)
O36 O 0.69497(16) 0.42426(9) 0.59384(4)
#END
