
#######################################################################
#
#                 Cambridge Crystallographic Data Centre
#                                CCDC
#
#######################################################################
#
# If this CIF has been generated from an entry in the Cambridge
# Structural Database, then it will include bibliographic, chemical,
# crystal, experimental, refinement or atomic coordinate data resulting
# from the CCDC's data processing and validation procedures.
#
#######################################################################

data_CSD_CIF_GATPEZ
_audit_creation_date 2017-03-16
_audit_creation_method CSD-ConQuest-V1
_database_code_CSD GATPEZ
_database_code_depnum_ccdc_archive 'CCDC 1525865'
_chemical_formula_sum 'C58 H62 N8 O19'
_chemical_formula_moiety
;
C58 H62 N8 O19
;
_journal_coden_Cambridge 1475
_journal_volume 8
_journal_year 2017
_journal_page_first 3741
_journal_name_full 'Chemical Science '
loop_
_publ_author_name
"Xiaobo Hu"
"S.J.Dawson"
"P.K.Mandal"
"X.de Hatten"
"B.Baptiste"
"Ivan Huc"
_chemical_name_systematic
;
N-{2-({2-({2-(dimethoxymethyl)-4-[3-hydroxy-2-(hydroxymethyl)propoxy]quinolin-
8-yl}carbamoyl)-4-[3-hydroxy-2-(hydroxymethyl)propoxy]quinolin-8-yl}carbamoyl)
-4-[3-hydroxy-2-(hydroxymethyl)propoxy]quinolin-8-yl}-4-[3-hydroxy-2-(hydroxym
ethyl)propoxy]-8-nitroquinoline-2-carboxamide unknown solvate
;
_cell_volume   3520.114
_exptl_crystal_colour 'yellow'
_exptl_crystal_density_diffrn 1.059
_exptl_special_details
;
, Air-sensitive

;
_exptl_crystal_description 'needles'
_exptl_crystal_preparation 'hanging drop vapor diffusion'
_diffrn_ambient_temperature 100
_diffrn_radiation_probe x-ray
_diffrn_source synchrotron
_refine_special_details
;
The structure is disordered.  Disordered solvent molecules were not modelled 
and the disordered density was taken into account using the SQUEEZE/PLATON 
procedure.
;
#These two values have been output from a single CSD field.
_refine_ls_R_factor_gt 0.13
_refine_ls_wR_factor_gt 0.13
_symmetry_cell_setting triclinic
_symmetry_space_group_name_H-M 'P -1'
_symmetry_Int_Tables_number 2
loop_
_symmetry_equiv_pos_site_id
_symmetry_equiv_pos_as_xyz
1 x,y,z
2 -x,-y,-z
_cell_length_a 7.4720(15)
_cell_length_b 20.571(4)
_cell_length_c 24.604(5)
_cell_angle_alpha 69.40(3)
_cell_angle_beta 84.50(3)
_cell_angle_gamma 85.66(3)
_cell_formula_units_Z 2
loop_
_atom_type_symbol
_atom_type_radius_bond
C 0.68
H 0.23
N 0.68
O 0.68
loop_
_atom_site_label
_atom_site_type_symbol
_atom_site_fract_x
_atom_site_fract_y
_atom_site_fract_z
O1 O -0.0569(9) 0.3458(3) 0.8651(3)
N1 N -0.0267(9) 0.3176(3) 0.6260(3)
C1 C -0.0016(9) 0.3134(3) 0.7295(3)
O2 O 0.0923(7) 0.2742(3) 0.6292(2)
C2 C -0.0543(9) 0.3492(3) 0.6700(3)
O3 O 0.2336(6) 0.1124(2) 0.8648(2)
N2 N 0.0821(7) 0.2508(3) 0.7440(2)
N3 N 0.2847(7) 0.1359(3) 0.7664(2)
H1 H 0.27143 0.16912 0.73376
C3 C -0.026(2) 0.3108(7) 0.9238(5)
H2 H 0.09778 0.29308 0.92719
H3 H -0.10391 0.27183 0.94015
C4 C -0.066(3) 0.3625(11) 0.9574(10)
H4 H -0.01549 0.40843 0.93950
C5 C -0.265(3) 0.3594(15) 0.9588(13)
H5 H -0.29617 0.38467 0.98533
H6 H -0.28052 0.39436 0.92078
C6 C 0.845(3) -0.1088(9) 0.5227(8)
H7 H 0.83536 -0.15513 0.52184
H8 H 0.77664 -0.07643 0.49210
O4 O 1.000(4) -0.0938(16) 0.5146(8)
H9 H 1.06039 -0.12196 0.50289
C7 C -0.1358(10) 0.4136(4) 0.6551(4)
H10 H -0.16941 0.43556 0.61732
O5 O 0.6367(8) -0.0358(3) 0.6311(3)
O6 O 0.4509(8) 0.2192(2) 0.5096(2)
C8 C -0.1699(12) 0.4473(4) 0.6951(4)
H11 H -0.22088 0.49228 0.68335
N4 N 0.4165(7) 0.1407(3) 0.6608(2)
O7 O 0.2334(7) 0.5521(2) 0.5784(2)
C9 C -0.1295(11) 0.4151(4) 0.7513(4)
H12 H -0.15562 0.43769 0.77802
N5 N 0.4567(7) 0.2664(2) 0.5797(2)
H13 H 0.49022 0.25618 0.61431
N6 N 0.4312(7) 0.3479(3) 0.6435(2)
O8 O 0.4058(7) 0.3778(3) 0.7769(2)
C10 C -0.0499(10) 0.3491(4) 0.7687(3)
N7 N 0.5347(7) 0.2895(3) 0.7498(2)
H14 H 0.55901 0.27819 0.71933
C11 C -0.0041(11) 0.3119(4) 0.8282(3)
O9 O 0.8471(7) 0.0094(3) 0.8879(2)
N8 N 0.7306(7) 0.1790(3) 0.7414(2)
O10 O 0.9895(7) 0.0790(3) 0.6720(2)
C12 C 0.0735(9) 0.2467(4) 0.8425(3)
H15 H 0.09555 0.22060 0.88084
O11 O -0.1279(7) 0.3381(3) 0.5869(2)
O12 O 0.8326(6) 0.1777(2) 0.6337(2)
C13 C 0.1175(9) 0.2209(3) 0.7991(3)
C14 C 0.2185(9) 0.1500(4) 0.8135(3)
C15 C 0.3723(9) 0.0753(3) 0.7620(3)
C16 C 0.4811(10) -0.0431(4) 0.7996(4)
H16 H 0.49730 -0.08365 0.83135
C17 C 0.4033(10) 0.0142(4) 0.8086(3)
H17 H 0.37016 0.01278 0.84640
C18 C 0.5365(11) -0.0426(4) 0.7447(3)
H18 H 0.59129 -0.08224 0.73930
C19 C 0.4366(8) 0.0782(3) 0.7049(3)
C20 C 0.5099(10) 0.0182(4) 0.6966(3)
C21 C 0.5649(10) 0.0233(4) 0.6374(4)
C22 C 0.5459(9) 0.0864(4) 0.5931(4)
H19 H 0.57993 0.09114 0.55458
C23 C 0.4731(10) 0.1432(4) 0.6083(3)
O13 O 1.2366(12) -0.0986(4) 0.9507(3)
H20 H 1.24587 -0.06589 0.91976
C24 C 0.9330(13) -0.0518(5) 0.8819(4)
H21 H 1.05721 -0.04296 0.86721
H22 H 0.87358 -0.06448 0.85397
C25 C 1.0605(19) -0.1029(8) 0.9723(6)
H23 H 1.02771 -0.06112 0.98129
H24 H 1.05473 -0.14161 1.00889
C26 C 0.9274(15) -0.1111(6) 0.9394(4)
H25 H 0.97619 -0.15052 0.92821
C27 C 0.7528(16) -0.1333(6) 0.9662(5)
H26 H 0.76117 -0.16175 1.00687
H27 H 0.67188 -0.09345 0.96399
O14 O 0.694(2) -0.1696(6) 0.9376(5)
H28 H 0.70365 -0.21113 0.95674
C28 C 0.6917(15) -0.0342(4) 0.5728(5)
H29 H 0.78068 0.00044 0.55454
H30 H 0.58923 -0.02325 0.54924
C29 C 0.771(2) -0.1061(6) 0.5796(6)
H31 H 0.86693 -0.11792 0.60643
O15 O 0.485(2) -0.1441(6) 0.5645(5)
H32 H 0.46187 -0.17910 0.55823
C30 C 0.636(3) -0.1596(7) 0.6008(7)
H33 H 0.59186 -0.16378 0.64023
H34 H 0.69303 -0.20405 0.60204
C31 C 0.4587(9) 0.2138(3) 0.5610(3)
C32 C 0.4083(9) 0.3367(3) 0.5516(3)
C33 C 0.370(1) 0.3652(3) 0.4937(3)
H35 H 0.38488 0.33880 0.46957
C34 C 0.3074(10) 0.4362(4) 0.4721(3)
H36 H 0.28148 0.45564 0.43324
C35 C 0.2843(10) 0.4761(4) 0.5052(3)
H37 H 0.24411 0.52231 0.48938
C36 C 0.3216(9) 0.4471(3) 0.5647(3)
C37 C 0.3894(8) 0.3793(3) 0.5874(3)
C38 C 0.4041(8) 0.3856(3) 0.6768(3)
C39 C 0.3373(9) 0.4546(4) 0.6598(3)
H38 H 0.32069 0.47830 0.68597
C40 C 0.2973(10) 0.4859(4) 0.6029(3)
C41 C 0.2178(15) 0.5951(4) 0.6152(4)
H39 H 0.32911 0.59186 0.63350
H40 H 0.12120 0.57979 0.64546
C42 C 0.1783(18) 0.6693(6) 0.5760(6)
C43 C -0.0156(18) 0.6621(7) 0.5709(6)
H41 H -0.05938 0.70820 0.54754
H42 H -0.01682 0.63367 0.54674
O16 O -0.1487(15) 0.6375(6) 0.6145(5)
H43 H -0.14833 0.59503 0.62472
C44 C 0.204(2) 0.7168(9) 0.6114(7)
H44 H 0.32241 0.70743 0.62645
H45 H 0.19476 0.76528 0.58657
C45 C 0.4529(9) 0.3505(4) 0.7397(3)
C46 C 0.5914(10) 0.2379(4) 0.8026(3)
C47 C 0.5474(10) 0.2441(4) 0.8569(3)
H46 H 0.48602 0.28346 0.86082
C48 C 0.6009(11) 0.1874(5) 0.9058(3)
H47 H 0.57474 0.19056 0.94252
C49 C 0.6864(10) 0.1298(5) 0.9021(3)
H48 H 0.71684 0.09380 0.93577
C50 C 0.7308(9) 0.1236(4) 0.8472(3)
C51 C 0.6830(8) 0.1788(3) 0.7964(3)
C52 C 0.8195(10) 0.0644(4) 0.8391(3)
C53 C 0.8702(9) 0.0653(3) 0.7832(3)
H49 H 0.93427 0.02758 0.77720
C54 C 0.8240(9) 0.1231(4) 0.7367(3)
C55 C 0.8837(9) 0.1270(4) 0.6771(3)
C56 C 0.9220(18) 0.1818(7) 0.5766(5)
H50 H 0.88758 0.22516 0.54776
H51 H 0.88656 0.14406 0.56624
H52 H 1.05017 0.17877 0.57874
C57 C 1.050(2) 0.0827(9) 0.6158(7)
H53 H 1.11669 0.04035 0.61715
H54 H 1.12697 0.12119 0.59853
H55 H 0.94924 0.08897 0.59280
C58 C -0.066(4) 0.3281(19) 1.0255(12)
H56 H -0.10184 0.36113 1.04500
H57 H -0.14032 0.28820 1.04094
O17 O 0.098(4) 0.3112(13) 1.0281(11)
H58 H 0.11941 0.29077 1.06218
H59 H 0.200(5) 0.7019(19) 0.5277(17)
O18 O 0.078(2) 0.7042(8) 0.6550(7)
H60 H -0.02124 0.71426 0.64200
O19 O -0.407(4) 0.3339(15) 0.9644(14)
H61 H -0.41516 0.32017 0.93723
#END
