
#######################################################################
#
#                 Cambridge Crystallographic Data Centre
#                                CCDC
#
#######################################################################
#
# If this CIF has been generated from an entry in the Cambridge
# Structural Database, then it will include bibliographic, chemical,
# crystal, experimental, refinement or atomic coordinate data resulting
# from the CCDC's data processing and validation procedures.
#
#######################################################################

data_CSD_CIF_GATWUU
_audit_creation_date 2005-12-08
_audit_creation_method CSD-ConQuest-V1
_database_code_CSD GATWUU
_database_code_depnum_ccdc_archive 'CCDC 283975'
_chemical_formula_sum 'C36 H58 N2 O3'
_chemical_formula_moiety
;
C36 H58 N2 O3
;
_journal_coeditor_code "IUCr OB6570"
_journal_coden_Cambridge 1370
_journal_volume 61
_journal_year 2005
_journal_page_first o3056
_journal_name_full 'Acta Crystallogr.,Sect.E:Struct.Rep.Online '
loop_
_publ_author_name
"K.Kubo"
"T.Matsumoto"
"A.Mori"
"H.Takahashi"
"H.Takechi"
_chemical_name_systematic
;
bis(4-Dodecyloxyphenyl)diazene oxide
;
_cell_volume   1667.282
_exptl_crystal_colour 'yellow'
_exptl_crystal_density_diffrn 1.129
_exptl_crystal_description 'platelet'
_exptl_crystal_preparation 'chloroform'
_diffrn_ambient_temperature 123.1
#These two values have been output from a single CSD field.
_refine_ls_R_factor_gt 0.117
_refine_ls_wR_factor_gt 0.117
_symmetry_cell_setting triclinic
_symmetry_space_group_name_H-M 'P -1'
_symmetry_Int_Tables_number 2
loop_
_symmetry_equiv_pos_site_id
_symmetry_equiv_pos_as_xyz
1 x,y,z
2 -x,-y,-z
_cell_length_a 7.514(7)
_cell_length_b 8.853(8)
_cell_length_c 25.21(2)
_cell_angle_alpha 85.15(2)
_cell_angle_beta 89.36(2)
_cell_angle_gamma 86.19(2)
_cell_formula_units_Z 2
loop_
_atom_type_symbol
_atom_type_radius_bond
C 0.68
H 0.23
N 0.68
O 0.68
loop_
_atom_site_label
_atom_site_type_symbol
_atom_site_fract_x
_atom_site_fract_y
_atom_site_fract_z
O1 O 0.4569(3) 0.3543(3) 0.59577(9)
O2 O 0.9474(3) 0.0820(2) 0.41994(8)
O3 O 0.3448(3) 0.9648(2) 0.71163(8)
N1 N 0.5773(3) 0.4199(3) 0.56857(10)
N2 N 0.6289(3) 0.5535(3) 0.57234(10)
C1 C 0.6727(4) 0.3326(3) 0.52910(11)
C2 C 0.6362(4) 0.1819(4) 0.52722(12)
C3 C 0.7259(4) 0.0940(3) 0.49113(12)
C4 C 0.8520(4) 0.1583(3) 0.45684(11)
C5 C 0.8871(4) 0.3103(3) 0.45916(12)
C6 C 0.7982(4) 0.3979(3) 0.49502(12)
C7 C 0.9061(4) -0.0721(3) 0.41339(12)
C8 C 1.0249(4) -0.1281(3) 0.36931(12)
C9 C 0.9932(4) -0.2912(3) 0.35927(12)
C10 C 1.1169(4) -0.3552(3) 0.31724(11)
C11 C 1.0645(4) -0.5093(3) 0.30296(12)
C12 C 1.1808(4) -0.5837(3) 0.26060(12)
C13 C 1.1088(4) -0.7325(3) 0.24720(12)
C14 C 1.2138(4) -0.8141(3) 0.20460(12)
C15 C 1.1304(4) -0.9612(3) 0.19417(12)
C16 C 1.2235(4) -1.0506(3) 0.15164(12)
C17 C 1.1349(5) -1.1966(4) 0.14388(13)
C18 C 1.2251(6) -1.2903(4) 0.1019(2)
C19 C 0.5449(4) 0.6478(3) 0.60922(11)
C20 C 0.3922(4) 0.6250(3) 0.64082(12)
C21 C 0.3305(4) 0.7337(3) 0.67359(12)
C22 C 0.4185(4) 0.8666(3) 0.67703(11)
C23 C 0.5681(4) 0.8919(3) 0.64572(12)
C24 C 0.6292(4) 0.7836(3) 0.61208(12)
C25 C 0.4299(4) 1.1032(3) 0.71761(12)
C26 C 0.3258(4) 1.1834(3) 0.75999(12)
C27 C 0.4001(4) 1.3343(3) 0.77066(12)
C28 C 0.2973(4) 1.4125(3) 0.81424(12)
C29 C 0.3678(4) 1.5647(3) 0.82565(13)
C30 C 0.2672(4) 1.6409(3) 0.87028(12)
C31 C 0.3395(4) 1.7924(3) 0.88079(13)
C32 C 0.2422(4) 1.8728(4) 0.92491(12)
C33 C 0.3211(5) 2.0220(4) 0.93469(13)
C34 C 0.2255(5) 2.1093(4) 0.97741(13)
C35 C 0.3074(6) 2.2576(4) 0.9855(2)
C36 C 0.2095(7) 2.3494(5) 1.0265(2)
H1 H 0.55160 0.13970 0.55020
H2 H 0.70190 -0.00730 0.48980
H3 H 0.97150 0.35300 0.43630
H4 H 0.82180 0.49930 0.49640
H5 H 0.78160 -0.07530 0.40400
H6 H 0.92810 -0.13550 0.44620
H7 H 1.14870 -0.12180 0.37890
H8 H 1.00210 -0.06300 0.33680
H9 H 0.87070 -0.29590 0.34810
H10 H 1.00910 -0.35470 0.39240
H11 H 1.11340 -0.28500 0.28550
H12 H 1.23820 -0.36460 0.33040
H13 H 0.94230 -0.49840 0.29050
H14 H 1.06730 -0.57770 0.33510
H15 H 1.18380 -0.51480 0.22860
H16 H 1.30180 -0.60280 0.27370
H17 H 0.98660 -0.71210 0.23530
H18 H 1.10700 -0.80030 0.27950
H19 H 1.21540 -0.74820 0.17190
H20 H 1.33600 -0.83680 0.21620
H21 H 1.12970 -1.02580 0.22720
H22 H 1.00730 -0.93700 0.18370
H23 H 1.22250 -0.98770 0.11820
H24 H 1.34700 -1.07510 0.16170
H25 H 1.01170 -1.17130 0.13380
H26 H 1.13480 -1.25830 0.17760
H27 H 1.23980 -1.22670 0.06960
H28 H 1.15260 -1.37180 0.09520
H29 H 1.33980 -1.33140 0.11460
H30 H 0.33290 0.53650 0.63960
H31 H 0.22810 0.71850 0.69390
H32 H 0.62680 0.98070 0.64730
H33 H 0.72880 0.80140 0.59080
H34 H 0.42800 1.16650 0.68420
H35 H 0.55300 1.08090 0.72840
H36 H 0.32780 1.11760 0.79280
H37 H 0.20260 1.20180 0.74890
H38 H 0.52420 1.31630 0.78100
H39 H 0.39550 1.40110 0.73810
H40 H 0.30250 1.34530 0.84670
H41 H 0.17310 1.42920 0.80390
H42 H 0.49280 1.54850 0.83510
H43 H 0.35980 1.63280 0.79340
H44 H 0.14220 1.65750 0.86090
H45 H 0.27550 1.57340 0.90270
H46 H 0.46460 1.77520 0.89010
H47 H 0.33210 1.85900 0.84820
H48 H 0.11760 1.89260 0.91540
H49 H 0.24800 1.80630 0.95760
H50 H 0.31880 2.08630 0.90160
H51 H 0.44490 2.00090 0.94490
H52 H 0.10140 2.13060 0.96750
H53 H 0.22880 2.04610 1.01080
H54 H 0.30830 2.31880 0.95170
H55 H 0.43020 2.23570 0.99660
H56 H 0.08320 2.34420 1.02260
H57 H 0.23950 2.45330 1.02120
H58 H 0.24430 2.30850 1.06160
#END
