
#######################################################################
#
#                 Cambridge Crystallographic Data Centre
#                                CCDC
#
#######################################################################
#
# If this CIF has been generated from an entry in the Cambridge
# Structural Database, then it will include bibliographic, chemical,
# crystal, experimental, refinement or atomic coordinate data resulting
# from the CCDC's data processing and validation procedures.
#
#######################################################################

data_CSD_CIF_GATYIK
_audit_creation_date 2005-12-08
_audit_creation_method CSD-ConQuest-V1
_database_code_CSD GATYIK
_database_code_depnum_ccdc_archive 'CCDC 283983'
_chemical_formula_sum 'C9 H6 N2 O3'
_chemical_formula_moiety
;
C9 H6 N2 O3
;
_journal_coeditor_code "IUCr SG6021"
_journal_coden_Cambridge 1370
_journal_volume 61
_journal_year 2005
_journal_page_first o2992
_journal_name_full 'Acta Crystallogr.,Sect.E:Struct.Rep.Online '
loop_
_publ_author_name
"L.E.da Silva"
"A.C.Joussef"
"S.Foro"
"B.Schmidt"
_chemical_name_systematic
;
6-Nitroquinolin-2(1H)-one
;
_cell_volume    832.968
_exptl_crystal_colour 'orange'
_exptl_crystal_density_diffrn 1.516
_exptl_crystal_description 'prism'
_exptl_crystal_preparation 'dichloromethane/hexane'
_diffrn_ambient_temperature 299
#These two values have been output from a single CSD field.
_refine_ls_R_factor_gt 0.0546
_refine_ls_wR_factor_gt 0.0546
_symmetry_cell_setting monoclinic
_symmetry_space_group_name_H-M 'P 21/c'
_symmetry_Int_Tables_number 14
loop_
_symmetry_equiv_pos_site_id
_symmetry_equiv_pos_as_xyz
1 x,y,z
2 -x,1/2+y,1/2-z
3 -x,-y,-z
4 x,-1/2-y,-1/2+z
_cell_length_a 11.470(2)
_cell_length_b 4.8880(6)
_cell_length_c 15.065(2)
_cell_angle_alpha 90
_cell_angle_beta 99.53(1)
_cell_angle_gamma 90
_cell_formula_units_Z 4
loop_
_atom_type_symbol
_atom_type_radius_bond
C 0.68
H 0.23
N 0.68
O 0.68
loop_
_atom_site_label
_atom_site_type_symbol
_atom_site_fract_x
_atom_site_fract_y
_atom_site_fract_z
C1 C 0.6288(3) -0.8802(6) 0.4297(2)
C2 C 0.7255(3) -0.7901(7) 0.3868(2)
H1 H 0.737(3) -0.891(6) 0.332(2)
C3 C 0.8002(3) -0.5927(6) 0.4233(2)
H2 H 0.865(3) -0.522(7) 0.389(2)
C4 C 0.7856(2) -0.4635(6) 0.50588(19)
C5 C 0.6906(2) -0.5469(5) 0.54806(19)
C6 C 0.6712(3) -0.4285(6) 0.6279(2)
H3 H 0.611(3) -0.475(6) 0.659(2)
C7 C 0.7479(3) -0.2273(6) 0.6680(2)
H4 H 0.733(3) -0.144(6) 0.720(2)
C8 C 0.8416(2) -0.1494(5) 0.62635(18)
C9 C 0.8616(2) -0.2619(6) 0.5478(2)
H5 H 0.925(3) -0.205(6) 0.5181(19)
N1 N 0.6160(2) -0.7475(5) 0.50739(17)
H6 H 0.566(3) -0.799(6) 0.538(2)
N2 N 0.9223(2) 0.0666(5) 0.66792(16)
O1 O 0.55994(18) -1.0659(4) 0.39957(15)
O2 O 1.0044(2) 0.1299(4) 0.63055(15)
O3 O 0.9011(2) 0.1710(4) 0.73709(15)
#END
