
#######################################################################
#
#                 Cambridge Crystallographic Data Centre
#                                CCDC
#
#######################################################################
#
# If this CIF has been generated from an entry in the Cambridge
# Structural Database, then it will include bibliographic, chemical,
# crystal, experimental, refinement or atomic coordinate data resulting
# from the CCDC's data processing and validation procedures.
#
#######################################################################

data_CSD_CIF_GAVCEN
_audit_creation_date 2012-03-30
_audit_creation_method CSD-ConQuest-V1
_database_code_CSD GAVCEN
_database_code_depnum_ccdc_archive 'CCDC 856177'
_chemical_formula_sum 'C27 H25 N3 O3'
_chemical_formula_moiety
;
C27 H25 N3 O3
;
_journal_coden_Cambridge 179
_journal_volume 51
_journal_year 2012
_journal_page_first 1046
_journal_name_full 'Angew.Chem.,Int.Ed. '
loop_
_publ_author_name
"Chang Guo"
"Jin Song"
"Jian-Zhou Huang"
"Peng-Hao Chen"
"Shi-Wei Luo"
"Liu-Zhu Gong"
_chemical_name_systematic
;
3'-(2-(Hydroxyimino)-2-(4-methoxyphenyl)ethyl)-1,1'-dimethyl-1',3'-dihydro-1H,
2'H-3,3'-biindol-2'-one
;
_cell_volume   2311.782
_exptl_crystal_colour 'colorless'
_exptl_crystal_density_diffrn 1.263
_exptl_special_details
;
Absolute configuration

;
_exptl_crystal_description 'plate'
_diffrn_ambient_temperature 291
#These two values have been output from a single CSD field.
_refine_ls_R_factor_gt 0.0346
_refine_ls_wR_factor_gt 0.0346
_symmetry_cell_setting orthorhombic
_symmetry_space_group_name_H-M 'P 21 21 21'
_symmetry_Int_Tables_number 19
loop_
_symmetry_equiv_pos_site_id
_symmetry_equiv_pos_as_xyz
1 x,y,z
2 1/2-x,-y,1/2+z
3 1/2+x,1/2-y,-z
4 -x,1/2+y,1/2-z
_cell_length_a 9.7429(3)
_cell_length_b 10.5927(6)
_cell_length_c 22.4002(9)
_cell_angle_alpha 90
_cell_angle_beta 90
_cell_angle_gamma 90
_cell_formula_units_Z 4
loop_
_atom_type_symbol
_atom_type_radius_bond
C 0.68
H 0.23
N 0.68
O 0.68
loop_
_atom_site_label
_atom_site_type_symbol
_atom_site_fract_x
_atom_site_fract_y
_atom_site_fract_z
O1 O 0.32455(12) 0.40416(11) 0.21808(5)
O2 O -0.15501(12) 0.08951(13) 0.22620(6)
H1 H -0.21440 0.03960 0.23700
N1 N 0.39570(14) 0.20389(15) 0.19515(6)
N2 N 0.06620(17) 0.48750(14) 0.04926(7)
O3 O 0.46136(17) 0.13838(17) 0.43316(7)
N3 N -0.04482(14) 0.08657(15) 0.26667(6)
C1 C 0.13903(17) 0.40688(17) 0.01306(8)
C2 C 0.07241(19) 0.44216(16) 0.10676(8)
H2 H 0.03140 0.48040 0.13960
C3 C 0.20434(19) 0.11858(17) 0.15140(7)
C4 C 0.04661(16) 0.26642(16) 0.20795(7)
H3 H 0.04640 0.35010 0.22550
H4 H -0.03760 0.25710 0.18530
C5 C 0.33814(18) 0.09384(17) 0.17014(8)
C6 C 0.30390(16) 0.30001(17) 0.19592(7)
C7 C 0.16303(16) 0.16191(16) 0.30100(7)
C8 C 0.14709(15) 0.33337(16) 0.10896(7)
C9 C 0.1605(2) 0.4137(2) -0.04839(8)
H5 H 0.12010 0.47680 -0.07130
C10 C 0.17095(16) 0.25515(15) 0.16474(7)
C11 C 0.2430(2) 0.3243(3) -0.07362(9)
H6 H 0.26040 0.32710 -0.11440
C12 C 0.04844(16) 0.16987(16) 0.25707(7)
C13 C 0.36534(19) 0.1389(2) 0.38860(9)
C14 C 0.2004(2) 0.26481(17) 0.33585(8)
H7 H 0.15780 0.34240 0.32990
C15 C 0.52871(19) 0.2083(2) 0.22415(10)
H8 H 0.52900 0.15190 0.25770
H9 H 0.54660 0.29280 0.23760
H10 H 0.59850 0.18320 0.19630
C16 C 0.3976(2) -0.0237(2) 0.16453(10)
H11 H 0.48690 -0.03910 0.17720
C17 C 0.19367(17) 0.31018(17) 0.04867(7)
C18 C 0.3314(2) 0.03629(19) 0.35401(9)
H12 H 0.37570 -0.04050 0.35960
C19 C 0.2997(2) 0.25291(19) 0.37905(9)
H13 H 0.32310 0.32250 0.40220
C20 C 0.3013(3) 0.2291(3) -0.03941(10)
H14 H 0.35760 0.16970 -0.05770
C21 C 0.23031(18) 0.04817(17) 0.31059(8)
H15 H 0.20720 -0.02160 0.28750
C22 C 0.1272(2) 0.02429(19) 0.12615(10)
H16 H 0.03800 0.03980 0.11330
C23 C -0.0103(3) 0.5975(2) 0.03018(10)
H17 H 0.05180 0.65930 0.01440
H18 H -0.05860 0.63250 0.06370
H19 H -0.07490 0.57350 -0.00010
C24 C 0.2775(2) 0.2205(2) 0.02112(9)
H20 H 0.31690 0.15570 0.04340
C25 C 0.1853(3) -0.0948(2) 0.12015(12)
H21 H 0.13420 -0.15980 0.10320
C26 C 0.3178(3) -0.1179(2) 0.13898(11)
H22 H 0.35450 -0.19840 0.13450
C27 C 0.5328(3) 0.0230(3) 0.44465(14)
H23 H 0.58080 -0.00300 0.40930
H24 H 0.46820 -0.04120 0.45590
H25 H 0.59730 0.03560 0.47650
#END
