
#######################################################################
#
#                 Cambridge Crystallographic Data Centre
#                                CCDC
#
#######################################################################
#
# If this CIF has been generated from an entry in the Cambridge
# Structural Database, then it will include bibliographic, chemical,
# crystal, experimental, refinement or atomic coordinate data resulting
# from the CCDC's data processing and validation procedures.
#
#######################################################################

data_CSD_CIF_GAVGIU
_audit_creation_date 2005-12-08
_audit_creation_method CSD-ConQuest-V1
_database_code_CSD GAVGIU
_database_code_depnum_ccdc_archive 'CCDC 287610'
_chemical_formula_sum 'C15 H12 N2 O3'
_chemical_formula_moiety
;
C15 H12 N2 O3
;
_journal_coeditor_code "IUCr IS6123"
_journal_coden_Cambridge 1370
_journal_volume 61
_journal_year 2005
_journal_page_first o3337
_journal_name_full 'Acta Crystallogr.,Sect.E:Struct.Rep.Online '
loop_
_publ_author_name
"Ying Li"
"Xiao-Yan Yang"
"Shu-Sheng Zhang"
"Xue-Mei Li"
_chemical_name_systematic
;
2-((3-(2-Nitrophenyl)prop-2-enylidene)amino)phenol
;
_cell_volume   2676.405
_exptl_crystal_colour 'yellow'
_exptl_crystal_density_diffrn 1.332
_exptl_crystal_description 'block'
_exptl_crystal_preparation 'ethanol'
_diffrn_ambient_temperature 293
#These two values have been output from a single CSD field.
_refine_ls_R_factor_gt 0.048
_refine_ls_wR_factor_gt 0.048
_symmetry_cell_setting monoclinic
_symmetry_space_group_name_H-M 'C 2/c'
_symmetry_Int_Tables_number 15
loop_
_symmetry_equiv_pos_site_id
_symmetry_equiv_pos_as_xyz
1 x,y,z
2 1/2+x,1/2+y,z
3 -x,y,1/2-z
4 1/2-x,1/2+y,1/2-z
5 -x,-y,-z
6 -1/2-x,-1/2-y,-z
7 x,-y,-1/2+z
8 -1/2+x,-1/2-y,-1/2+z
_cell_length_a 22.654(3)
_cell_length_b 7.5464(10)
_cell_length_c 18.816(2)
_cell_angle_alpha 90
_cell_angle_beta 123.692(2)
_cell_angle_gamma 90
_cell_formula_units_Z 8
loop_
_atom_type_symbol
_atom_type_radius_bond
C 0.68
H 0.23
N 0.68
O 0.68
loop_
_atom_site_label
_atom_site_type_symbol
_atom_site_fract_x
_atom_site_fract_y
_atom_site_fract_z
O1 O -0.07054(13) -0.3837(3) -0.25409(12)
O2 O -0.01401(10) -0.1927(2) -0.15485(11)
O3 O 0.23510(7) 0.28984(17) 0.22499(8)
H1 H 0.23970 0.38000 0.25200
N1 N -0.02857(10) -0.3445(2) -0.17952(11)
N2 N 0.23660(8) 0.00307(17) 0.14026(9)
C1 C 0.00561(10) -0.4880(2) -0.11663(12)
C2 C -0.03180(11) -0.6444(3) -0.13574(14)
H2 H -0.07450 -0.65930 -0.18830
C3 C -0.00529(12) -0.7775(3) -0.07628(15)
H3 H -0.03000 -0.88360 -0.08820
C4 C 0.05816(12) -0.7537(3) 0.00132(15)
H4 H 0.07570 -0.84290 0.04230
C5 C 0.09587(11) -0.5978(2) 0.01842(12)
H5 H 0.13900 -0.58510 0.07060
C6 C 0.07124(9) -0.4598(2) -0.04000(11)
C7 C 0.1146(1) -0.3009(2) -0.02192(11)
H6 H 0.11080 -0.24360 -0.06810
C8 C 0.15892(10) -0.2323(2) 0.05506(11)
H7 H 0.16370 -0.28750 0.10220
C9 C 0.19985(10) -0.0750(2) 0.06799(11)
H8 H 0.19950 -0.02850 0.02200
C10 C 0.27698(9) 0.1542(2) 0.14842(9)
C11 C 0.27845(9) 0.2986(2) 0.19625(10)
C12 C 0.3210(1) 0.4434(2) 0.20983(11)
H9 H 0.32130 0.54020 0.24070
C13 C 0.36290(11) 0.4447(3) 0.17777(12)
H10 H 0.39210 0.54130 0.18810
C14 C 0.36174(11) 0.3038(3) 0.13052(13)
H11 H 0.38990 0.30560 0.10870
C15 C 0.31875(10) 0.1601(2) 0.11559(11)
H12 H 0.31770 0.06580 0.08310
#END
