
#######################################################################
#
#                 Cambridge Crystallographic Data Centre
#                                CCDC
#
#######################################################################
#
# If this CIF has been generated from an entry in the Cambridge
# Structural Database, then it will include bibliographic, chemical,
# crystal, experimental, refinement or atomic coordinate data resulting
# from the CCDC's data processing and validation procedures.
#
#######################################################################

data_CSD_CIF_GAVKUJ
_audit_creation_date 1989-01-20
_audit_creation_method CSD-ConQuest-V1
_database_code_CSD GAVKUJ
_database_code_depnum_ccdc_archive 'CCDC 1164316'
_chemical_formula_sum 'C8 H18 N2 O2'
_chemical_formula_moiety
;
C8 H18 N2 O2
;
_journal_coden_Cambridge 188
_journal_year 1988
_journal_page_first 701
_journal_name_full 'J.Chem.Soc.,Perkin Trans.2 '
loop_
_publ_author_name
"B.G.Gowenlock"
"K.J.McCullough"
"R.B.Manson"
_chemical_name_systematic
;
3,4-Diaza-2,2,5,5-tetramethylhex-3-ene N,N'-dioxide
;
_chemical_name_common
;
trans-Dimeric 2-methyl-2-nitrosopropane
;
_cell_volume    524.607
_exptl_crystal_colour 'colorless'
_exptl_crystal_density_diffrn 1.103
_diffrn_ambient_temperature ?
_diffrn_special_details
;
The study was carried out at room temperature,in the range 283-303K

;
#These two values have been output from a single CSD field.
_refine_ls_R_factor_gt 0.041
_refine_ls_wR_factor_gt 0.041
_symmetry_cell_setting monoclinic
_symmetry_space_group_name_H-M 'P 21/n'
_symmetry_Int_Tables_number 14
loop_
_symmetry_equiv_pos_site_id
_symmetry_equiv_pos_as_xyz
1 x,y,z
2 1/2-x,1/2+y,1/2-z
3 -x,-y,-z
4 -1/2+x,-1/2-y,-1/2+z
_cell_length_a 5.9290(18)
_cell_length_b 10.112(3)
_cell_length_c 8.751(4)
_cell_angle_alpha 90
_cell_angle_beta 90.80(3)
_cell_angle_gamma 90
_cell_formula_units_Z 2
loop_
_atom_type_symbol
_atom_type_radius_bond
C 0.68
H 0.23
N 0.68
O 0.68
loop_
_atom_site_label
_atom_site_type_symbol
_atom_site_fract_x
_atom_site_fract_y
_atom_site_fract_z
O1 O 0.1512(3) 0.87816(13) 0.41704(18)
N1 N 0.0255(3) 0.93763(14) 0.51029(16)
C1 C -0.0695(3) 0.86243(17) 0.64727(22)
C2 C -0.3256(4) 0.86121(3) 0.6332(3)
C3 C 0.0217(6) 0.72351(24) 0.6365(4)
C4 C 0.0152(6) 0.9267(3) 0.7931(3)
H1 H -0.374(6) 0.809(3) 0.711(4)
H2 H -0.367(6) 0.821(3) 0.535(5)
H3 H -0.392(6) 0.947(4) 0.652(4)
H4 H -0.036(5) 0.678(3) 0.723(4)
H5 H 0.188(6) 0.718(3) 0.632(4)
H6 H -0.025(6) 0.682(3) 0.551(4)
H7 H -0.026(6) 0.874(3) 0.874(4)
H8 H -0.047(5) 1.014(4) 0.806(4)
H9 H 0.173(7) 0.933(3) 0.791(4)
N1B N -0.0255(3) 1.06237(14) 0.48971(16)
O1B O -0.1512(3) 1.12184(13) 0.58296(18)
C1B C 0.0695(3) 1.13757(17) 0.35273(22)
C2B C 0.3256(4) 1.13879(3) 0.3668(3)
C3B C -0.0217(6) 1.27649(24) 0.3635(4)
C4B C -0.0152(6) 1.0733(3) 0.2069(3)
H1B H 0.374(6) 1.191(3) 0.289(4)
H2B H 0.367(6) 1.179(3) 0.465(5)
H3B H 0.392(6) 1.053(4) 0.348(4)
H4B H 0.036(5) 1.322(3) 0.277(4)
H5B H -0.188(6) 1.282(3) 0.368(4)
H6B H 0.025(6) 1.318(3) 0.449(4)
H7B H 0.026(6) 1.126(3) 0.126(4)
H8B H 0.047(5) 0.986(4) 0.194(4)
H9B H -0.173(7) 1.067(3) 0.209(4)
#END
