
#######################################################################
#
#                 Cambridge Crystallographic Data Centre
#                                CCDC
#
#######################################################################
#
# If this CIF has been generated from an entry in the Cambridge
# Structural Database, then it will include bibliographic, chemical,
# crystal, experimental, refinement or atomic coordinate data resulting
# from the CCDC's data processing and validation procedures.
#
#######################################################################

data_CSD_CIF_GAVMEW
_audit_creation_date 2005-12-08
_audit_creation_method CSD-ConQuest-V1
_database_code_CSD GAVMEW
_database_code_depnum_ccdc_archive 'CCDC 289652'
_chemical_formula_sum 'C19 H19 N3 O3'
_chemical_formula_moiety
;
C19 H19 N3 O3
;
_journal_coeditor_code "IUCr BT6755"
_journal_coden_Cambridge 1370
_journal_volume 61
_journal_year 2005
_journal_page_first o3693
_journal_name_full 'Acta Crystallogr.,Sect.E:Struct.Rep.Online '
loop_
_publ_author_name
"S.Selvanayagam"
"P.Rathisuganya"
"B.Shaherin"
"D.Velmurugan"
"K.Ravikumar"
"M.Poor"
_chemical_name_systematic
;
3'-Nitro-4'-(4-methylphenyl)-spiro(1H-indole-3,2'-pyrrolidin)-2-one
;
_cell_volume   3484.023
_exptl_crystal_colour 'colorless'
_exptl_crystal_density_diffrn 1.286
_exptl_crystal_description 'needle'
_exptl_crystal_preparation 'methanol'
_diffrn_ambient_temperature 293
#These two values have been output from a single CSD field.
_refine_ls_R_factor_gt 0.0631
_refine_ls_wR_factor_gt 0.0631
_symmetry_cell_setting orthorhombic
_symmetry_space_group_name_H-M 'P b c a'
_symmetry_Int_Tables_number 61
loop_
_symmetry_equiv_pos_site_id
_symmetry_equiv_pos_as_xyz
1 x,y,z
2 1/2-x,-y,1/2+z
3 -x,1/2+y,1/2-z
4 1/2+x,1/2-y,-z
5 -x,-y,-z
6 -1/2+x,y,-1/2-z
7 x,-1/2-y,-1/2+z
8 -1/2-x,-1/2+y,z
_cell_length_a 9.8697(8)
_cell_length_b 16.4460(14)
_cell_length_c 21.4643(18)
_cell_angle_alpha 90
_cell_angle_beta 90
_cell_angle_gamma 90
_cell_formula_units_Z 8
loop_
_atom_type_symbol
_atom_type_radius_bond
C 0.68
H 0.23
N 0.68
O 0.68
loop_
_atom_site_label
_atom_site_type_symbol
_atom_site_fract_x
_atom_site_fract_y
_atom_site_fract_z
O1 O 0.6785(2) -0.03633(12) 0.75824(9)
O2 O 0.53068(18) -0.03809(11) 0.68526(9)
O3 O 0.55958(15) 0.08385(8) 0.55150(7)
N1 N 0.83831(17) 0.10537(10) 0.60134(7)
N2 N 0.63192(18) -0.01088(10) 0.70990(8)
N3 N 0.63777(18) -0.04685(9) 0.54111(7)
H1 H 0.58170 -0.06370 0.51330
C1 C 0.9061(2) 0.12902(14) 0.65932(10)
H2 H 0.91180 0.18780 0.66240
H3 H 0.99700 0.10670 0.66080
C2 C 0.81962(19) 0.09440(12) 0.71272(9)
H4 H 0.86950 0.04940 0.73190
C3 C 0.69853(18) 0.05920(11) 0.67768(8)
H5 H 0.63120 0.10240 0.67200
C4 C 0.75389(19) 0.03472(10) 0.61325(8)
C5 C 0.9265(3) 0.10052(15) 0.54748(10)
H6 H 0.99550 0.06050 0.55480
H7 H 0.96810 0.15250 0.54040
H8 H 0.87440 0.08540 0.51150
C6 C 0.77974(19) 0.15362(11) 0.76347(8)
C7 C 0.7164(2) 0.22615(13) 0.7494(1)
H9 H 0.70090 0.23970 0.70790
C8 C 0.6756(2) 0.27894(13) 0.79562(10)
H10 H 0.63210 0.32710 0.78480
C9 C 0.6983(2) 0.26156(12) 0.85756(9)
C10 C 0.7627(2) 0.18956(13) 0.87130(9)
H11 H 0.77950 0.17660 0.91280
C11 C 0.8029(2) 0.13614(12) 0.82544(9)
H12 H 0.84600 0.08790 0.83630
C12 C 0.6536(3) 0.32038(16) 0.90779(12)
H13 H 0.55730 0.31620 0.91350
H14 H 0.67630 0.37480 0.89560
H15 H 0.69870 0.30740 0.94610
C13 C 0.6373(2) 0.02887(11) 0.56493(8)
C14 C 0.7410(2) -0.09521(11) 0.56721(8)
C15 C 0.7700(2) -0.17548(12) 0.55498(9)
H16 H 0.71770 -0.20570 0.52730
C16 C 0.8798(2) -0.20961(13) 0.58526(10)
H17 H 0.90220 -0.26360 0.57760
C17 C 0.9563(2) -0.16496(14) 0.62651(11)
H18 H 1.03050 -0.18890 0.64590
C18 C 0.9240(2) -0.08459(13) 0.63944(10)
H19 H 0.97500 -0.05480 0.66780
C19 C 0.81505(19) -0.04959(11) 0.60957(8)
#END
