
#######################################################################
#
#                 Cambridge Crystallographic Data Centre
#                                CCDC
#
#######################################################################
#
# If this CIF has been generated from an entry in the Cambridge
# Structural Database, then it will include bibliographic, chemical,
# crystal, experimental, refinement or atomic coordinate data resulting
# from the CCDC's data processing and validation procedures.
#
#######################################################################

data_CSD_CIF_GAVVAB
_audit_creation_date 2005-12-08
_audit_creation_method CSD-ConQuest-V1
_database_code_CSD GAVVAB
_database_code_depnum_ccdc_archive 'CCDC 289709'
_chemical_formula_sum 'C20 H17 N3 O3'
_chemical_formula_moiety
;
C20 H17 N3 O3
;
_journal_coeditor_code "IUCr CV6594"
_journal_coden_Cambridge 1370
_journal_volume 61
_journal_year 2005
_journal_page_first o3895
_journal_name_full 'Acta Crystallogr.,Sect.E:Struct.Rep.Online '
loop_
_publ_author_name
"Shi Jun"
_chemical_name_systematic
;
(E)-1-(4-(Benzyloxy)benzylidene)-2-(4-nitrophenyl)hydrazine
;
_cell_volume   1785.238
_exptl_crystal_colour 'yellow'
_exptl_crystal_density_diffrn 1.292
_exptl_crystal_description 'block'
_exptl_crystal_preparation 'ethanol'
_diffrn_ambient_temperature 294
#These two values have been output from a single CSD field.
_refine_ls_R_factor_gt 0.0496
_refine_ls_wR_factor_gt 0.0496
_symmetry_cell_setting monoclinic
_symmetry_space_group_name_H-M 'P 21/c'
_symmetry_Int_Tables_number 14
loop_
_symmetry_equiv_pos_site_id
_symmetry_equiv_pos_as_xyz
1 x,y,z
2 -x,1/2+y,1/2-z
3 -x,-y,-z
4 x,-1/2-y,-1/2+z
_cell_length_a 6.148(3)
_cell_length_b 36.651(15)
_cell_length_c 7.938(3)
_cell_angle_alpha 90
_cell_angle_beta 93.551(7)
_cell_angle_gamma 90
_cell_formula_units_Z 4
loop_
_atom_type_symbol
_atom_type_radius_bond
C 0.68
H 0.23
N 0.68
O 0.68
loop_
_atom_site_label
_atom_site_type_symbol
_atom_site_fract_x
_atom_site_fract_y
_atom_site_fract_z
O1 O 0.3186(2) 0.47586(4) 0.17337(17)
O2 O 1.8606(3) 0.25789(7) -0.3443(3)
O3 O 1.8251(3) 0.31216(7) -0.4521(3)
N1 N 0.9363(3) 0.34148(5) 0.0206(2)
N2 N 1.0363(3) 0.30822(5) 0.0128(2)
H1 H 0.98730 0.29000 0.06720
N3 N 1.7652(4) 0.28753(8) -0.3611(3)
C1 C -0.1022(4) 0.53422(6) 0.2533(3)
H2 H -0.20560 0.52030 0.19170
C2 C -0.1475(4) 0.57021(7) 0.2881(3)
H3 H -0.28050 0.58030 0.25030
C3 C 0.0036(4) 0.59110(6) 0.3782(3)
H4 H -0.02630 0.61540 0.40170
C4 C 0.2006(4) 0.57584(7) 0.4339(3)
H5 H 0.30370 0.58990 0.49530
C5 C 0.2447(4) 0.53984(7) 0.3985(3)
H6 H 0.37800 0.52980 0.43600
C6 C 0.0934(3) 0.51841(6) 0.3081(3)
C7 C 0.1387(3) 0.47883(6) 0.2791(3)
H7 H 0.17360 0.46670 0.38600
H8 H 0.01100 0.46720 0.22510
C8 C 0.4134(3) 0.44215(6) 0.1582(2)
C9 C 0.3411(3) 0.41014(6) 0.2281(3)
H9 H 0.21470 0.41000 0.28670
C10 C 0.4584(3) 0.37834(6) 0.2103(3)
H10 H 0.40940 0.35700 0.25850
C11 C 0.6466(3) 0.37723(6) 0.1228(3)
C12 C 0.7120(3) 0.40960(6) 0.0477(3)
H11 H 0.83520 0.40960 -0.01460
C13 C 0.5976(3) 0.44137(6) 0.0644(3)
H12 H 0.64330 0.46260 0.01270
C14 C 0.7676(3) 0.34352(6) 0.1076(3)
H13 H 0.72140 0.32280 0.16250
C15 C 1.2136(3) 0.30374(6) -0.0811(3)
C16 C 1.3098(4) 0.26912(6) -0.0877(3)
H14 H 1.25160 0.24960 -0.03080
C17 C 1.4903(4) 0.26419(7) -0.1786(3)
H15 H 1.55630 0.24140 -0.18160
C18 C 1.5738(4) 0.29310(7) -0.2656(3)
C19 C 1.4796(4) 0.32706(7) -0.2621(3)
H16 H 1.53640 0.34630 -0.32210
C20 C 1.3008(3) 0.33247(6) -0.1692(3)
H17 H 1.23780 0.35550 -0.16540
#END
