
#######################################################################
#
#                 Cambridge Crystallographic Data Centre
#                                CCDC
#
#######################################################################
#
# If this CIF has been generated from an entry in the Cambridge
# Structural Database, then it will include bibliographic, chemical,
# crystal, experimental, refinement or atomic coordinate data resulting
# from the CCDC's data processing and validation procedures.
#
#######################################################################

data_CSD_CIF_GAVXEH
_audit_creation_date 2005-12-08
_audit_creation_method CSD-ConQuest-V1
_database_code_CSD GAVXEH
_database_code_depnum_ccdc_archive 'CCDC 289720'
_chemical_formula_sum 'C23 H24 N2 O7'
_chemical_formula_moiety
;
C23 H24 N2 O7
;
_journal_coeditor_code "IUCr ER6024"
_journal_coden_Cambridge 1370
_journal_volume 61
_journal_year 2005
_journal_page_first o3592
_journal_name_full 'Acta Crystallogr.,Sect.E:Struct.Rep.Online '
loop_
_publ_author_name
"V.Vrabel"
"M.Fronc"
"I.Svoboda"
"S.Marchalin"
"B.Baumlova"
_chemical_name_systematic
;
Diethyl 
2,6-dimethyl-4-(5-(4-nitrophenyl)-2-furyl)-1,4-dihydropyridine-3,5-dicarboxyla
te
;
_cell_volume   2119.421
_exptl_crystal_colour 'yellow'
_exptl_crystal_density_diffrn 1.38
_exptl_special_details
;
potential biological activity

;
_exptl_crystal_description 'needle'
_exptl_crystal_preparation 'ethanol'
_diffrn_ambient_temperature 300
#These two values have been output from a single CSD field.
_refine_ls_R_factor_gt 0.0636
_refine_ls_wR_factor_gt 0.0636
_symmetry_cell_setting orthorhombic
_symmetry_space_group_name_H-M 'P c a 21'
_symmetry_Int_Tables_number 29
loop_
_symmetry_equiv_pos_site_id
_symmetry_equiv_pos_as_xyz
1 x,y,z
2 -x,-y,1/2+z
3 1/2-x,y,1/2+z
4 1/2+x,-y,z
_cell_length_a 12.940(2)
_cell_length_b 8.143(1)
_cell_length_c 20.114(2)
_cell_angle_alpha 90
_cell_angle_beta 90
_cell_angle_gamma 90
_cell_formula_units_Z 4
loop_
_atom_type_symbol
_atom_type_radius_bond
C 0.68
H 0.23
N 0.68
O 0.68
loop_
_atom_site_label
_atom_site_type_symbol
_atom_site_fract_x
_atom_site_fract_y
_atom_site_fract_z
C1 C -0.0022(4) 0.9705(6) 0.8295(3)
C2 C 0.0861(4) 1.0382(6) 0.8495(2)
C3 C 0.1394(4) 0.9737(6) 0.9109(2)
H1 H 0.17440 1.06670 0.93210
C4 C 0.0627(4) 0.9075(7) 0.9598(3)
C5 C -0.0281(4) 0.8476(6) 0.9365(3)
C6 C 0.2205(3) 0.8546(6) 0.8907(2)
C7 C 0.2294(4) 0.7571(7) 0.8377(3)
H2 H 0.18400 0.74890 0.80200
C8 C 0.3215(4) 0.6698(7) 0.8473(3)
H3 H 0.34950 0.59270 0.81830
C9 C 0.3623(3) 0.7172(6) 0.9059(3)
C10 C 0.4504(4) 0.6726(5) 0.9462(3)
C11 C 0.5256(4) 0.5706(6) 0.9217(3)
H4 H 0.52210 0.53530 0.87780
C12 C 0.6050(4) 0.5206(7) 0.9605(3)
H5 H 0.65550 0.45090 0.94350
C13 C 0.6103(4) 0.5737(6) 1.0253(3)
C14 C 0.5376(4) 0.6788(7) 1.0503(3)
H6 H 0.54170 0.71620 1.09390
C15 C 0.4591(4) 0.7274(6) 1.0097(3)
H7 H 0.41000 0.80040 1.02600
C16 C -0.0569(4) 0.9941(8) 0.7637(3)
H8 H -0.07380 1.10800 0.75800
H9 H -0.11910 0.92990 0.76310
H10 H -0.01240 0.95930 0.72820
C17 C 0.1426(4) 1.1659(6) 0.8159(3)
C18 C 0.1400(5) 1.3689(9) 0.7359(4)
H11 H 0.19310 1.32230 0.70750
H12 H 0.17240 1.44400 0.76690
C19 C 0.0616(7) 1.4560(12) 0.6953(5)
H13 H 0.03160 1.38100 0.66390
H14 H 0.09390 1.54500 0.67180
H15 H 0.00850 1.49860 0.72380
C20 C 0.0849(5) 0.9072(9) 1.0306(3)
C21 C 0.1900(8) 1.012(2) 1.1124(4)
H16 H 0.13160 0.97190 1.13780
H17 H 0.19250 1.13080 1.11730
C22 C 0.2844(4) 0.9411(7) 1.1379(3)
H18 H 0.29010 0.96410 1.18460
H19 H 0.34250 0.98740 1.11490
H20 H 0.28320 0.82440 1.13110
C23 C -0.1069(4) 0.7616(7) 0.9757(3)
H21 H -0.07720 0.66510 0.99530
H22 H -0.16330 0.73070 0.94740
H23 H -0.13180 0.83290 1.01020
N1 N -0.0497(3) 0.8622(5) 0.8702(2)
H24 H -0.09610 0.79890 0.85350
N2 N 0.6922(4) 0.5165(7) 1.0683(4)
O1 O 0.2994(2) 0.8319(4) 0.93239(17)
O2 O 0.7581(4) 0.4352(7) 1.0465(4)
O3 O 0.6860(5) 0.5505(9) 1.1282(4)
O4 O 0.0870(3) 1.2428(5) 0.7706(2)
O5 O 0.2294(3) 1.2048(5) 0.8288(2)
O6 O 0.1766(4) 0.9719(7) 1.0446(2)
O7 O 0.0285(5) 0.8658(11) 1.0740(3)
#END
