
#######################################################################
#
#                 Cambridge Crystallographic Data Centre
#                                CCDC
#
#######################################################################
#
# If this CIF has been generated from an entry in the Cambridge
# Structural Database, then it will include bibliographic, chemical,
# crystal, experimental, refinement or atomic coordinate data resulting
# from the CCDC's data processing and validation procedures.
#
#######################################################################

data_CSD_CIF_GAWBAJ
_audit_creation_date 2012-03-30
_audit_creation_method CSD-ConQuest-V1
_database_code_CSD GAWBAJ
_database_code_depnum_ccdc_archive 'CCDC 848780'
_chemical_formula_sum 'C28 H28 N2 O8'
_chemical_formula_moiety
;
C28 H28 N2 O8
;
_journal_coden_Cambridge 16
_journal_volume 68
_journal_year 2012
_journal_page_first 447
_journal_name_full 'Tetrahedron '
loop_
_publ_author_name
"U.Jahn"
"D.Rudakov"
"P.G.Jones"
_chemical_name_systematic
;
(2R*,2aR*,2bS*,5aR*,5bR*,2'S*,2a'S*,2b'*,5a'S*,5b'R*)-2,2'-Dioxybis(2a-nitro-2
-phenyloctahydro-1-oxacyclopropa[cd]indene)
;
_chemical_melting_point 408.15
_cell_volume   9825.801
_exptl_crystal_colour 'colorless'
_exptl_crystal_density_diffrn 1.407
_exptl_crystal_description 'tablet'
_diffrn_ambient_temperature 100
_refine_special_details
;
C6 and C6' disordered over two sites with occupancies 0.934:0.066; C6B' and 
C6B disordered over two sites with occupancies 0.533:0.467.
;
#These two values have been output from a single CSD field.
_refine_ls_R_factor_gt 0.0437
_refine_ls_wR_factor_gt 0.0437
_symmetry_cell_setting monoclinic
_symmetry_space_group_name_H-M 'C 2/c'
_symmetry_Int_Tables_number 15
loop_
_symmetry_equiv_pos_site_id
_symmetry_equiv_pos_as_xyz
1 x,y,z
2 -x,y,1/2-z
3 1/2+x,1/2+y,z
4 1/2-x,1/2+y,1/2-z
5 -x,-y,-z
6 x,-y,-1/2+z
7 -1/2-x,-1/2-y,-z
8 -1/2+x,-1/2-y,-1/2+z
_cell_length_a 22.558(3)
_cell_length_b 26.709(3)
_cell_length_c 19.000(2)
_cell_angle_alpha 90
_cell_angle_beta 120.87(2)
_cell_angle_gamma 90
_cell_formula_units_Z 16
loop_
_atom_type_symbol
_atom_type_radius_bond
C 0.68
H 0.23
N 0.68
O 0.68
loop_
_atom_site_label
_atom_site_type_symbol
_atom_site_fract_x
_atom_site_fract_y
_atom_site_fract_z
C1 C 0.40872(9) 0.26480(7) 0.42564(10)
C2 C 0.37801(9) 0.27328(7) 0.47974(10)
C3 C 0.35594(9) 0.22401(7) 0.49567(11)
H1 H 0.37060 0.21340 0.55280
C4 C 0.35975(10) 0.18771(7) 0.43654(11)
H2 H 0.38950 0.15840 0.46700
C5 C 0.28879(11) 0.17022(8) 0.37052(12)
H3 H 0.26410 0.15520 0.39600
H4 H 0.29320 0.14440 0.33610
C6 C 0.24812(11) 0.21499(9) 0.31759(12)
H5 H 0.27130 0.22790 0.28890
H6 H 0.20130 0.20370 0.27550
C7 C 0.24191(10) 0.25713(8) 0.36717(12)
H7 H 0.23470 0.28880 0.33680
H8 H 0.20010 0.25110 0.37040
C8 C 0.30243(10) 0.26414(8) 0.45337(11)
H9 H 0.28910 0.28060 0.49050
C9 C 0.39125(9) 0.30012(7) 0.35511(11)
C10 C 0.34905(10) 0.34159(7) 0.33895(11)
H10 H 0.32930 0.34800 0.37180
C11 C 0.33566(10) 0.37370(8) 0.27509(11)
H11 H 0.30640 0.40190 0.26400
C12 C 0.36479(10) 0.36485(8) 0.22742(12)
H12 H 0.35590 0.38700 0.18400
C13 C 0.40698(10) 0.32338(8) 0.24334(12)
H13 H 0.42700 0.31730 0.21070
C14 C 0.42009(10) 0.29085(8) 0.30642(11)
H14 H 0.44860 0.26230 0.31660
N1 N 0.41425(9) 0.30884(6) 0.54825(9)
O1 O 0.38978(7) 0.21564(5) 0.39649(7)
O2 O 0.43663(8) 0.34744(5) 0.53561(8)
O3 O 0.41863(8) 0.29827(6) 0.61387(8)
O4 O 0.48195(6) 0.26932(5) 0.47354(7)
O5 O 0.50474(6) 0.23661(5) 0.54628(7)
C15 C 0.57702(9) 0.22938(7) 0.58118(10)
C16 C 0.5917(1) 0.21186(7) 0.51573(11)
C17 C 0.61523(10) 0.25579(8) 0.48783(11)
H15 H 0.59520 0.26290 0.42820
C18 C 0.62684(10) 0.29739(7) 0.54765(11)
H16 H 0.59380 0.32550 0.51900
C19 C 0.70101(11) 0.31670(8) 0.59355(13)
H17 H 0.71110 0.33110 0.64660
H18 H 0.70550 0.34390 0.56110
C20 C 0.75440(11) 0.27602(9) 0.60984(14)
H19 H 0.76690 0.27790 0.56700
H20 H 0.79670 0.28270 0.66330
C21 C 0.72923(10) 0.22317(8) 0.61086(12)
H21 H 0.76540 0.19850 0.62050
H22 H 0.71920 0.22000 0.65570
C22 C 0.66409(10) 0.21294(8) 0.52872(11)
H23 H 0.67090 0.19090 0.49090
C23 C 0.59536(9) 0.19619(7) 0.65439(10)
C24 C 0.63572(9) 0.15343(7) 0.67123(11)
H24 H 0.65160 0.14390 0.63560
C25 C 0.65279(10) 0.12472(8) 0.73979(12)
H25 H 0.68100 0.09590 0.75140
C26 C 0.62893(10) 0.13781(8) 0.79151(11)
H26 H 0.64080 0.11810 0.83860
C27 C 0.58744(10) 0.17995(8) 0.77410(11)
H27 H 0.57010 0.18860 0.80870
C28 C 0.57137(9) 0.20935(8) 0.70669(10)
H28 H 0.54400 0.23850 0.69590
N2 N 0.54367(8) 0.17523(6) 0.45567(9)
O6 O 0.61401(6) 0.27468(5) 0.60859(7)
O7 O 0.52267(8) 0.14144(5) 0.48081(8)
O8 O 0.52887(8) 0.17986(6) 0.38421(8)
C29 C 0.16294(10) 0.51472(7) 0.43391(11)
C30 C 0.13496(10) 0.52512(7) 0.49059(11)
C31 C 0.10731(10) 0.47729(8) 0.50314(11)
H29 H 0.12020 0.46610 0.55950
C32 C 0.10694(10) 0.44072(7) 0.44217(11)
H30 H 0.13630 0.41100 0.47120
C33 C 0.03414(11) 0.42423(8) 0.37816(13)
H31 H 0.03420 0.41450 0.32790
H32 H 0.02290 0.39390 0.39890
C34 C 0.00045(12) 0.51589(9) 0.37530(13)
H33 H 0.01580 0.52830 0.33810
H34 H -0.03890 0.53680 0.36700
C35 C 0.05891(10) 0.52034(8) 0.46305(12)
H35 H 0.04590 0.53790 0.49970
C36 C -0.0227(2) 0.46177(15) 0.3546(2)
H36 H -0.04830 0.45260 0.38230
H37 H -0.05540 0.45930 0.29480
C37 C 0.14909(9) 0.55137(7) 0.36633(10)
C38 C 0.11105(10) 0.59486(8) 0.35349(11)
H38 H 0.09300 0.60240 0.38780
C39 C 0.09934(11) 0.62734(8) 0.29061(12)
H39 H 0.07280 0.65680 0.28160
C40 C 0.12607(10) 0.61701(8) 0.24095(12)
H40 H 0.11830 0.63950 0.19830
C41 C 0.16421(10) 0.57373(8) 0.25359(12)
H41 H 0.18270 0.56670 0.21960
C42 C 0.17555(10) 0.54064(8) 0.31566(11)
H42 H 0.20120 0.51080 0.32370
N3 N 0.17564(9) 0.55817(6) 0.56099(10)
O9 O 0.13505(7) 0.46786(5) 0.39927(8)
O10 O 0.20179(8) 0.59543(6) 0.54990(9)
O11 O 0.17927(8) 0.54802(6) 0.62607(8)
O12 O 0.23621(7) 0.51395(5) 0.47959(7)
O13 O 0.25761(7) 0.48103(5) 0.55207(7)
C43 C 0.33120(9) 0.47839(7) 0.59254(11)
C44 C 0.35242(10) 0.46460(7) 0.5310(1)
C45 C 0.37454(10) 0.51139(8) 0.50784(11)
H43 H 0.35730 0.51950 0.44910
C46 C 0.37863(10) 0.55122(7) 0.56664(11)
H44 H 0.34390 0.57810 0.53630
C47 C 0.45051(11) 0.57380(8) 0.61859(13)
H45 H 0.45570 0.58670 0.67030
H46 H 0.45510 0.60250 0.58880
C48 C 0.50892(11) 0.53622(9) 0.63928(13)
H47 H 0.52490 0.54070 0.59990
H48 H 0.54830 0.54360 0.69480
C49 C 0.48682(11) 0.48189(8) 0.63638(12)
H49 H 0.52590 0.45920 0.64950
H50 H 0.47280 0.47650 0.67740
C50 C 0.42639(10) 0.47070(8) 0.55064(12)
H51 H 0.43840 0.45100 0.51490
C51 C 0.34952(9) 0.44391(7) 0.66441(10)
C52 C 0.39044(10) 0.40165(7) 0.67998(11)
H52 H 0.40670 0.39320 0.64420
C53 C 0.40755(11) 0.37195(8) 0.74728(12)
H53 H 0.43600 0.34340 0.75800
C54 C 0.38344(11) 0.38363(8) 0.79933(12)
H54 H 0.39540 0.36310 0.84560
C55 C 0.34179(10) 0.42536(8) 0.78351(12)
H55 H 0.32460 0.43300 0.81860
C56 C 0.32500(9) 0.45601(8) 0.71666(11)
H56 H 0.29720 0.48490 0.70650
N4 N 0.30946(8) 0.42806(6) 0.46711(9)
O14 O 0.36256(7) 0.52528(5) 0.62271(7)
O15 O 0.28656(8) 0.39241(6) 0.48649(9)
O16 O 0.30039(8) 0.43472(6) 0.39823(8)
C57? C 0.2273(10) 0.2026(6) 0.3500(19)
C58? C -0.0027(2) 0.47384(17) 0.3261(3)
H57? H 0.00930 0.41120 0.40480
H58? H 0.03540 0.39780 0.34250
H59? H 0.28990 0.16550 0.31950
H60? H 0.28070 0.13690 0.38690
H61? H 0.01950 0.48330 0.29450
H62? H -0.05170 0.46620 0.28620
H63? H 0.19260 0.19840 0.29110
H64? H 0.20630 0.19020 0.38140
H65? H 0.20070 0.27430 0.36130
H66? H 0.25270 0.27200 0.32730
H67? H -0.04320 0.51620 0.37590
H68? H 0.00080 0.54660 0.34630
#END
