
#######################################################################
#
#                 Cambridge Crystallographic Data Centre
#                                CCDC
#
#######################################################################
#
# If this CIF has been generated from an entry in the Cambridge
# Structural Database, then it will include bibliographic, chemical,
# crystal, experimental, refinement or atomic coordinate data resulting
# from the CCDC's data processing and validation procedures.
#
#######################################################################

data_CSD_CIF_GAWJIA
_audit_creation_date 2017-03-17
_audit_creation_method CSD-ConQuest-V1
_database_code_CSD GAWJIA
_database_code_depnum_ccdc_archive 'CCDC 1487789'
_chemical_formula_sum 'C26 H29 N3 O4'
_chemical_formula_moiety
;
C26 H29 N3 O4
;
_journal_coden_Cambridge 1220
_journal_volume 22
_journal_year 2016
_journal_page_first 17141
_journal_name_full 'Chem.-Eur.J. '
loop_
_publ_author_name
"Dan Li"
"Dongxu Yang"
"Linqing Wang"
"Xihong Liu"
"Xianxing Jiang"
"Rui Wang"
_chemical_name_systematic
;
t-butyl (1,2-diphenyl-2-((pyridin-2-ylcarbonyl)amino)ethyl)methoxycarbamate
;
_cell_volume   1848.001
_exptl_crystal_colour 'colorless'
_exptl_crystal_density_diffrn 1.206
_exptl_crystal_description 'block'
_diffrn_ambient_temperature 290.4
#These two values have been output from a single CSD field.
_refine_ls_R_factor_gt 0.0286
_refine_ls_wR_factor_gt 0.0286
_symmetry_cell_setting hexagonal
_symmetry_space_group_name_H-M 'P 32'
_symmetry_Int_Tables_number 145
loop_
_symmetry_equiv_pos_site_id
_symmetry_equiv_pos_as_xyz
1 x,y,z
2 -y,x-y,2/3+z
3 -x+y,-x,1/3+z
_cell_length_a 9.05833(18)
_cell_length_b 9.05833(18)
_cell_length_c 26.0061(5)
_cell_angle_alpha 90
_cell_angle_beta 90
_cell_angle_gamma 120
_cell_formula_units_Z 3
loop_
_atom_type_symbol
_atom_type_radius_bond
C 0.68
H 0.23
N 0.68
O 0.68
loop_
_atom_site_label
_atom_site_type_symbol
_atom_site_fract_x
_atom_site_fract_y
_atom_site_fract_z
O1 O -0.4043(3) -0.1609(2) -0.33002(7)
O2 O -0.69246(18) -0.0038(2) -0.36359(6)
O3 O -0.5995(2) 0.2674(2) -0.25849(6)
O4 O -0.8174(2) 0.0043(2) -0.27769(6)
N1 N -0.3814(2) 0.0787(2) -0.29547(7)
H1 H -0.38700 0.12740 -0.26770
N2 N -0.4505(3) -0.0585(3) -0.20230(8)
N3 N -0.6212(2) 0.1533(2) -0.33747(7)
C1 C -0.0684(4) 0.4489(4) -0.31953(11)
H2 H -0.13380 0.47710 -0.29850
C2 C 0.1052(4) 0.5579(4) -0.32278(14)
H3 H 0.15550 0.66010 -0.30470
C3 C 0.2037(3) 0.5165(4) -0.35245(10)
H4 H 0.32090 0.58950 -0.35410
C4 C 0.1290(4) 0.3673(4) -0.37967(12)
H5 H 0.19560 0.33860 -0.39990
C5 C -0.0458(3) 0.2587(4) -0.37703(10)
H6 H -0.09580 0.15780 -0.39580
C6 C -0.1463(3) 0.2985(3) -0.34707(8)
C7 C -0.3368(3) 0.1746(3) -0.34347(8)
H7 H -0.36800 0.09280 -0.37180
C8 C -0.4409(3) 0.2655(3) -0.34964(8)
H8 H -0.39650 0.35790 -0.32430
C9 C -0.4182(3) 0.3479(3) -0.40206(9)
C10 C -0.4247(4) 0.2633(4) -0.44724(9)
H9 H -0.44170 0.15330 -0.44560
C11 C -0.4064(4) 0.3390(4) -0.49436(11)
H10 H -0.41000 0.28070 -0.52420
C12 C -0.3831(5) 0.4994(5) -0.49748(13)
H11 H -0.37170 0.55020 -0.52940
C13 C -0.3763(5) 0.5855(4) -0.45358(16)
H12 H -0.36020 0.69510 -0.45580
C14 C -0.3935(4) 0.5103(4) -0.40552(11)
H13 H -0.38830 0.56990 -0.37580
C15 C -0.4140(3) -0.0823(3) -0.29313(9)
C16 C -0.4651(3) -0.1624(3) -0.24090(9)
C17 C -0.5226(3) -0.3338(3) -0.23457(10)
H14 H -0.53060 -0.40190 -0.26240
C18 C -0.5682(4) -0.4017(4) -0.18562(11)
H15 H -0.60820 -0.51690 -0.18000
C19 C -0.5538(4) -0.2977(4) -0.14582(12)
H16 H -0.58370 -0.34080 -0.11260
C20 C -0.4937(4) -0.1268(4) -0.15562(11)
H17 H -0.48300 -0.05620 -0.12820
C21 C -0.8373(4) -0.0294(5) -0.39285(13)
H18 H -0.91770 -0.02190 -0.37050
H19 H -0.89010 -0.14000 -0.40860
H20 H -0.80130 0.05650 -0.41900
C22 C -0.6745(3) 0.1479(3) -0.28749(8)
C23 C -0.9198(3) -0.0121(4) -0.23154(9)
C24 C -0.8206(5) 0.0035(7) -0.18357(13)
H21 H -0.72070 0.11450 -0.18230
H22 H -0.78740 -0.08190 -0.18380
H23 H -0.89040 -0.01210 -0.15400
C25 C -0.9760(4) 0.1185(4) -0.23450(14)
H24 H -1.03030 0.10890 -0.26700
H25 H -0.87850 0.23060 -0.23120
H26 H -1.05490 0.09920 -0.20720
C26 C -1.0715(4) -0.1887(4) -0.23828(14)
H27 H -1.03390 -0.27080 -0.23860
H28 H -1.12740 -0.19440 -0.27020
H29 H -1.14980 -0.21330 -0.21040
#END
