
#######################################################################
#
#                 Cambridge Crystallographic Data Centre
#                                CCDC
#
#######################################################################
#
# If this CIF has been generated from an entry in the Cambridge
# Structural Database, then it will include bibliographic, chemical,
# crystal, experimental, refinement or atomic coordinate data resulting
# from the CCDC's data processing and validation procedures.
#
#######################################################################

data_CSD_CIF_GAWWEJ
_audit_creation_date 2017-07-31
_audit_creation_method CSD-ConQuest-V1
_database_code_CSD GAWWEJ
_database_code_depnum_ccdc_archive 'CCDC 1542500'
_chemical_formula_sum 'C18 H17 N3 O2'
_chemical_formula_moiety
;
C18 H17 N3 O2
;
_journal_coden_Cambridge 1291
_journal_year 2017
_journal_page_first 4004
_journal_name_full 'Eur.J.Org.Chem. '
loop_
_publ_author_name
"D.A.Shabalin"
"M.Yu.Dvorko"
"E.E.Zolotareva"
"I.A.Ushakov"
"A.V.Vashchenko"
"E.Yu.Schmidt"
"B.A.Trofimov"
_chemical_name_systematic
;
4,4-dimethyl-1-(4-nitrophenyl)-3-phenyl-1,4-dihydropyridazine
;
_cell_volume   1533.774
_exptl_crystal_colour 'lustrous light gold'
_exptl_crystal_density_diffrn 1.331
_exptl_crystal_description 'needle-like'
_diffrn_ambient_temperature 100
#These two values have been output from a single CSD field.
_refine_ls_R_factor_gt 0.0471
_refine_ls_wR_factor_gt 0.0471
_symmetry_cell_setting monoclinic
_symmetry_space_group_name_H-M 'P 21/c'
_symmetry_Int_Tables_number 14
loop_
_symmetry_equiv_pos_site_id
_symmetry_equiv_pos_as_xyz
1 x,y,z
2 -x,1/2+y,1/2-z
3 -x,-y,-z
4 x,-1/2-y,-1/2+z
_cell_length_a 10.9718(6)
_cell_length_b 13.2389(7)
_cell_length_c 11.8805(6)
_cell_angle_alpha 90
_cell_angle_beta 117.279(2)
_cell_angle_gamma 90
_cell_formula_units_Z 4
loop_
_atom_type_symbol
_atom_type_radius_bond
C 0.68
H 0.23
N 0.68
O 0.68
loop_
_atom_site_label
_atom_site_type_symbol
_atom_site_fract_x
_atom_site_fract_y
_atom_site_fract_z
N1 N 0.73535(14) 0.03190(9) 0.55299(13)
O1 O 1.01132(15) -0.21334(10) 0.17757(13)
N2 N 0.76888(14) 0.06317(9) 0.45858(12)
N3 N 0.96904(15) -0.23905(11) 0.25378(15)
O2 O 0.97421(16) -0.32673(9) 0.29070(15)
C1 C 0.63771(19) -0.01583(12) 0.91374(16)
H1 H 0.63060 -0.04130 0.98340
C2 C 0.52808(18) 0.03382(12) 0.81902(16)
H2 H 0.44720 0.04140 0.82530
C3 C 0.53691(17) 0.07295(11) 0.71368(16)
H3 H 0.46260 0.10660 0.65060
C4 C 0.65905(17) 0.06095(11) 0.70384(15)
C5 C 0.67229(16) 0.09619(11) 0.59001(15)
C6 C 0.81809(16) -0.01232(11) 0.40785(15)
C7 C 0.86017(17) 0.01242(12) 0.31537(15)
H4 H 0.85560 0.07890 0.28860
C8 C 0.90822(17) -0.06242(13) 0.26460(16)
H5 H 0.93780 -0.04610 0.20490
C9 C 0.91217(17) -0.16135(12) 0.30281(16)
C10 C 0.75857(19) -0.02766(11) 0.90477(16)
H6 H 0.83290 -0.06070 0.96870
C11 C 0.76833(17) 0.01024(11) 0.79940(15)
H7 H 0.84910 0.00140 0.79320
C12 C 0.61803(17) 0.19855(10) 0.52585(15)
C13 C 0.47725(18) 0.18446(12) 0.41022(17)
H8 H 0.44470 0.24850 0.36940
H9 H 0.41350 0.15780 0.43720
H10 H 0.48560 0.13830 0.35180
C14 C 0.72115(17) 0.23364(11) 0.48281(15)
H11 H 0.73970 0.30220 0.48280
C15 C 0.78527(17) 0.16694(11) 0.44511(15)
H12 H 0.84080 0.18890 0.40990
C16 C 0.82304(17) -0.11329(11) 0.44534(16)
H13 H 0.79480 -0.13020 0.50570
C17 C 0.86974(17) -0.18795(12) 0.39310(16)
H14 H 0.87280 -0.25490 0.41780
C18 C 0.6093(2) 0.27793(11) 0.61631(17)
H15 H 0.69360 0.27840 0.69370
H16 H 0.53470 0.26160 0.63420
H17 H 0.59420 0.34340 0.57740
#END
