
#######################################################################
#
#                 Cambridge Crystallographic Data Centre
#                                CCDC
#
#######################################################################
#
# If this CIF has been generated from an entry in the Cambridge
# Structural Database, then it will include bibliographic, chemical,
# crystal, experimental, refinement or atomic coordinate data resulting
# from the CCDC's data processing and validation procedures.
#
#######################################################################

data_CSD_CIF_GAWWAF
_audit_creation_date 2017-07-31
_audit_creation_method CSD-ConQuest-V1
_database_code_CSD GAWWAF
_database_code_depnum_ccdc_archive 'CCDC 1536541'
_chemical_formula_sum 'C22 H24 N4 O6'
_chemical_formula_moiety
;
C22 H24 N4 O6
;
_journal_coden_Cambridge 1291
_journal_year 2017
_journal_page_first 4011
_journal_name_full 'Eur.J.Org.Chem. '
loop_
_publ_author_name
"A.J.S.Alves"
"S.M.M.Lopes"
"M.S.C.Henriques"
"J.A.Paixao"
"T.M.V.D.P.e.Melo"
_chemical_name_systematic
;
(4aR,6S,7aR)-1-(2,4-dinitrophenyl)-6-ethoxy-4a,6-dimethyl-3-phenyl-1,4,4a,6,7,
7a-hexahydrofuro[3,2-c]pyridazine
;
_chemical_melting_point 440.5
_cell_volume   2186.281
_exptl_crystal_colour 'light yellow'
_exptl_crystal_density_diffrn 1.338
_exptl_crystal_description 'needle'
_exptl_crystal_preparation 'ethyl acetate/hexane'
_diffrn_ambient_temperature 293
#These two values have been output from a single CSD field.
_refine_ls_R_factor_gt 0.051
_refine_ls_wR_factor_gt 0.051
_symmetry_cell_setting monoclinic
_symmetry_space_group_name_H-M 'P 21/c'
_symmetry_Int_Tables_number 14
loop_
_symmetry_equiv_pos_site_id
_symmetry_equiv_pos_as_xyz
1 x,y,z
2 -x,1/2+y,1/2-z
3 -x,-y,-z
4 x,-1/2-y,-1/2+z
_cell_length_a 14.2441(6)
_cell_length_b 10.6587(4)
_cell_length_c 14.5372(5)
_cell_angle_alpha 90
_cell_angle_beta 97.874(3)
_cell_angle_gamma 90
_cell_formula_units_Z 4
loop_
_atom_type_symbol
_atom_type_radius_bond
C 0.68
H 0.23
N 0.68
O 0.68
loop_
_atom_site_label
_atom_site_type_symbol
_atom_site_fract_x
_atom_site_fract_y
_atom_site_fract_z
N1 N 0.67774(19) 0.7567(3) 0.51447(17)
N2 N 0.67241(19) 0.6525(3) 0.57224(18)
C1 C 0.7473(2) 0.6324(3) 0.6308(2)
C2 C 0.8299(2) 0.7178(3) 0.6347(2)
H1 H 0.88439 0.67906 0.67122
H2 H 0.81615 0.79523 0.66525
C3 C 0.8535(2) 0.7471(3) 0.5385(2)
O1 O 0.89382(15) 0.6337(2) 0.50603(13)
C4 C 0.8653(2) 0.6197(3) 0.4091(2)
C5 C 0.7671(2) 0.6747(3) 0.3920(2)
H3 H 0.71975 0.60984 0.39443
H4 H 0.75620 0.71486 0.33159
C6 C 0.7629(2) 0.7706(3) 0.4692(2)
H5 H 0.76488 0.85546 0.44362
C7 C 0.9240(2) 0.8545(3) 0.5422(2)
H6 H 0.93859 0.87115 0.48084
H7 H 0.98091 0.83202 0.58202
H8 H 0.89695 0.92813 0.56608
C8 C 0.8730(3) 0.4820(3) 0.3859(3)
H9 H 0.93612 0.45316 0.40708
H10 H 0.85926 0.47071 0.31996
H11 H 0.82855 0.43490 0.41609
O2 O 0.92158(16) 0.6962(2) 0.35842(15)
C9 C 1.0198(3) 0.6647(5) 0.3675(3)
H12 H 1.02830 0.58779 0.33395
H13 H 1.04428 0.65167 0.43236
C10 C 1.0719(3) 0.7689(5) 0.3292(3)
H14 H 1.04838 0.78002 0.26458
H15 H 1.13826 0.74908 0.33584
H16 H 1.06283 0.84485 0.36230
C11 C 0.5915(2) 0.8029(3) 0.4750(2)
C12 C 0.5812(2) 0.8698(3) 0.3916(2)
H17 H 0.63370 0.88108 0.36094
C13 C 0.4958(3) 0.9191(3) 0.3538(2)
H18 H 0.49065 0.96328 0.29817
C14 C 0.4182(2) 0.9029(3) 0.3982(2)
C15 C 0.4234(2) 0.8364(3) 0.4792(2)
H19 H 0.36979 0.82436 0.50810
C16 C 0.5096(2) 0.7878(3) 0.5170(2)
C17 C 0.7425(2) 0.5271(3) 0.6956(2)
C18 C 0.6682(3) 0.4421(4) 0.6831(2)
H20 H 0.62247 0.44946 0.63123
C19 C 0.6605(3) 0.3470(4) 0.7457(3)
H21 H 0.60952 0.29188 0.73657
C20 C 0.7284(3) 0.3340(4) 0.8216(3)
H22 H 0.72415 0.26876 0.86328
C21 C 0.8022(3) 0.4166(4) 0.8362(3)
H23 H 0.84774 0.40790 0.88805
C22 C 0.8093(2) 0.5131(3) 0.7740(2)
H24 H 0.85942 0.56942 0.78490
N3 N 0.3263(3) 0.9536(3) 0.3596(3)
O3 O 0.2623(2) 0.9541(3) 0.4076(2)
O4 O 0.3170(2) 0.9924(3) 0.2801(2)
N4 N 0.5094(3) 0.7312(4) 0.6099(2)
O5 O 0.5590(2) 0.7797(3) 0.67495(18)
O6 O 0.4557(2) 0.6445(3) 0.6153(2)
#END
