
#######################################################################
#
#                 Cambridge Crystallographic Data Centre
#                                CCDC
#
#######################################################################
#
# If this CIF has been generated from an entry in the Cambridge
# Structural Database, then it will include bibliographic, chemical,
# crystal, experimental, refinement or atomic coordinate data resulting
# from the CCDC's data processing and validation procedures.
#
#######################################################################

data_CSD_CIF_GAXNAW
_audit_creation_date 2012-09-26
_audit_creation_method CSD-ConQuest-V1
_database_code_CSD GAXNAW
_database_code_depnum_ccdc_archive 'CCDC 861122'
_chemical_formula_sum 'C18 H21 N2 O3'
_chemical_formula_moiety
;
C18 H21 N2 O3
;
_journal_coden_Cambridge 1350
_journal_volume 14
_journal_year 2012
_journal_page_first 4706
_journal_name_full 'CrystEngComm '
loop_
_publ_author_name
"Ya-Li Wang"
"Yuan-Yuan Gao"
"Yue Ma"
"Qing-Lun Wang"
"Li-Cun Li"
"Dai-Zheng Liao"
_chemical_name_systematic
;
2-(6-Methoxy-2-naphthyl)-4,4,5,5-tetramethyl-4,5-dihydro-1H-3\l^5^-imidazole-1
,3-diol
;
_cell_volume   6531.726
_exptl_crystal_colour 'blue'
_exptl_crystal_density_diffrn 1.275
_exptl_crystal_description 'prism'
_diffrn_ambient_temperature 113
_refine_special_details
;
C2B,C6B and C2A,C6A disordered over two sites with occupancies 0.685:0.315; 
C56B and C56A disordered over two sites with occupancies 0.685:0.315.
;
#These two values have been output from a single CSD field.
_refine_ls_R_factor_gt 0.1015
_refine_ls_wR_factor_gt 0.1015
_symmetry_cell_setting monoclinic
_symmetry_space_group_name_H-M 'P 21/c'
_symmetry_Int_Tables_number 14
loop_
_symmetry_equiv_pos_site_id
_symmetry_equiv_pos_as_xyz
1 x,y,z
2 -x,1/2+y,1/2-z
3 -x,-y,-z
4 x,-1/2-y,-1/2+z
_cell_length_a 29.00(2)
_cell_length_b 11.358(8)
_cell_length_c 20.024(15)
_cell_angle_alpha 90
_cell_angle_beta 97.977(9)
_cell_angle_gamma 90
_cell_formula_units_Z 16
loop_
_atom_type_symbol
_atom_type_radius_bond
C 0.68
H 0.23
N 0.68
O 0.68
loop_
_atom_site_label
_atom_site_type_symbol
_atom_site_fract_x
_atom_site_fract_y
_atom_site_fract_z
C1 C 1.03359(9) 1.1791(2) 0.65213(13)
C2 C 1.01731(17) 1.2816(4) 0.6918(2)
H1 H 0.99860 1.33380 0.66160
H2 H 1.04390 1.32350 0.71390
H3 H 0.99920 1.25230 0.72490
C3 C 1.05509(12) 1.2256(3) 0.59151(15)
H4 H 1.06650 1.16080 0.56780
H5 H 1.08030 1.27790 0.60700
H6 H 1.03180 1.26740 0.56180
C4 C 1.06424(9) 1.0859(2) 0.69431(13)
C5 C 1.05357(11) 1.0762(3) 0.76755(13)
H7 H 1.02060 1.06890 0.76740
H8 H 1.06460 1.14560 0.79220
H9 H 1.06890 1.00820 0.78870
C6 C 1.11620(16) 1.0960(4) 0.6903(2)
H10 H 1.13280 1.03860 0.71940
H11 H 1.12680 1.17350 0.70410
H12 H 1.12170 1.08240 0.64470
C7 C 1.00186(9) 0.9876(2) 0.62760(12)
C8 C 0.96981(9) 0.8924(2) 0.60570(12)
C9 C 0.92143(9) 0.9115(3) 0.60418(13)
H13 H 0.91090 0.98580 0.61420
C10 C 0.88975(10) 0.8224(3) 0.58817(14)
H14 H 0.85810 0.83750 0.58700
C11 C 0.90481(9) 0.7074(2) 0.57332(12)
C12 C 0.87270(9) 0.6136(2) 0.55809(12)
H15 H 0.84100 0.62700 0.55710
C13 C 0.88850(9) 0.5031(2) 0.54485(13)
C14 C 0.93656(10) 0.4819(3) 0.54677(13)
H16 H 0.94700 0.40680 0.53820
C15 C 0.96786(9) 0.5716(2) 0.56126(12)
H17 H 0.99950 0.55660 0.56250
C16 C 0.95286(9) 0.6869(2) 0.57444(11)
C17 C 0.98531(10) 0.7801(2) 0.59088(12)
H18 H 1.01700 0.76620 0.59180
C18 C 0.8119(1) 0.4201(3) 0.52819(16)
H19 H 0.80080 0.47980 0.49600
H20 H 0.80530 0.44300 0.57210
H21 H 0.79650 0.34700 0.51550
C19 C 0.87064(9) 1.1000(2) 0.78553(13)
C20 C 0.92318(9) 1.0953(3) 0.78508(16)
H22 H 0.93630 1.03290 0.81400
H23 H 0.93680 1.16890 0.80090
H24 H 0.92950 1.08120 0.74000
C21 C 0.86084(12) 1.1070(3) 0.85847(14)
H25 H 0.82780 1.10910 0.85920
H26 H 0.87480 1.17700 0.87920
H27 H 0.87380 1.03920 0.88290
C22 C 0.84387(9) 1.1927(2) 0.73690(13)
C23 C 0.8182(1) 1.2864(3) 0.77148(15)
H28 H 0.80260 1.33910 0.73820
H29 H 0.84010 1.32980 0.80250
H30 H 0.79570 1.24960 0.79550
C24 C 0.8730(1) 1.2504(3) 0.68804(15)
H31 H 0.88760 1.19060 0.66440
H32 H 0.89650 1.29920 0.71280
H33 H 0.85320 1.29780 0.65630
C25 C 0.81509(9) 1.0007(2) 0.70680(13)
C26 C 0.78891(8) 0.9064(2) 0.66911(12)
C27 C 0.76915(9) 0.9250(3) 0.60082(13)
H34 H 0.77220 0.99800 0.58080
C28 C 0.74568(9) 0.8360(3) 0.56441(13)
H35 H 0.73290 0.85000 0.51990
C29 C 0.74038(8) 0.7237(3) 0.59266(12)
C30 C 0.71606(10) 0.6318(3) 0.55592(14)
H36 H 0.70290 0.64440 0.51150
C31 C 0.71165(10) 0.5249(3) 0.58479(13)
C32 C 0.73235(9) 0.5030(3) 0.65222(13)
H37 H 0.72930 0.42940 0.67150
C33 C 0.75639(9) 0.5891(3) 0.68826(13)
H38 H 0.77040 0.57310 0.73200
C34 C 0.76083(9) 0.7048(3) 0.66071(12)
C35 C 0.78453(9) 0.7964(3) 0.69751(12)
H39 H 0.79760 0.78330 0.74200
C36 C 0.66224(13) 0.4496(3) 0.48800(17)
H40 H 0.68390 0.46040 0.45630
H41 H 0.64300 0.51840 0.48830
H42 H 0.64300 0.38240 0.47510
C37 C 0.65737(9) 1.1098(2) 0.76566(14)
C38 C 0.63321(10) 1.1714(3) 0.81874(14)
H43 H 0.60990 1.22400 0.79700
H44 H 0.65570 1.21520 0.84850
H45 H 0.61880 1.11380 0.84410
C39 C 0.67801(10) 1.2020(3) 0.72324(16)
H46 H 0.69890 1.16460 0.69650
H47 H 0.69480 1.25930 0.75230
H48 H 0.65340 1.24020 0.69410
C40 C 0.6280(1) 1.0120(3) 0.72513(14)
C41 C 0.57569(10) 1.0192(3) 0.72712(16)
H49 H 0.56360 1.09010 0.70510
H50 H 0.56990 1.01980 0.77320
H51 H 0.56060 0.95230 0.70430
C42 C 0.63729(13) 0.9984(4) 0.65206(15)
H52 H 0.62020 0.93210 0.63180
H53 H 0.67000 0.98620 0.65140
H54 H 0.62750 1.06840 0.62720
C43 C 0.68795(9) 0.9203(2) 0.80076(13)
C44 C 0.71764(9) 0.8284(3) 0.83439(12)
C45 C 0.70531(9) 0.7104(2) 0.82810(13)
H55 H 0.67710 0.69010 0.80280
C46 C 0.73425(9) 0.6203(2) 0.85895(12)
C47 C 0.72207(9) 0.4997(3) 0.85108(14)
H56 H 0.69410 0.47910 0.82520
C48 C 0.75039(9) 0.4135(3) 0.88061(13)
H57 H 0.74170 0.33500 0.87450
C49 C 0.79324(9) 0.4427(3) 0.92082(12)
C50 C 0.80607(9) 0.5585(2) 0.92957(13)
H58 H 0.83380 0.57790 0.95640
C51 C 0.77723(9) 0.6489(2) 0.89790(12)
C52 C 0.78991(10) 0.7701(3) 0.90415(13)
H59 H 0.81810 0.79110 0.92940
C53 C 0.76164(9) 0.8551(3) 0.87403(13)
H60 H 0.77100 0.93330 0.87910
C54 C 0.86237(11) 0.3716(3) 0.98833(16)
H61 H 0.88220 0.41300 0.96170
H62 H 0.87680 0.29850 1.00370
H63 H 0.85750 0.41880 1.02650
C55 C 0.46840(9) 1.0961(3) 0.85958(14)
C56 C 0.45074(15) 1.1213(4) 0.9277(2)
H64 H 0.42530 1.17590 0.92080
H65 H 0.47560 1.15430 0.95880
H66 H 0.44040 1.04910 0.94580
C57 C 0.48362(11) 1.2036(3) 0.82367(18)
H67 H 0.49810 1.17930 0.78560
H68 H 0.50550 1.24810 0.85410
H69 H 0.45700 1.25160 0.80850
C58 C 0.43604(10) 1.0115(3) 0.81415(14)
C59 C 0.44053(12) 1.0226(3) 0.73873(15)
H70 H 0.42400 0.95920 0.71430
H71 H 0.47280 1.01900 0.73280
H72 H 0.42760 1.09640 0.72190
C60 C 0.38522(10) 1.0150(3) 0.82308(18)
H73 H 0.37330 1.09300 0.81380
H74 H 0.38190 0.99380 0.86860
H75 H 0.36810 0.96030 0.79250
C61 C 0.50035(9) 0.9028(3) 0.87061(12)
C62 C 0.53228(9) 0.8053(2) 0.89184(13)
C63 C 0.58063(10) 0.8251(3) 0.90053(14)
H76 H 0.59200 0.89910 0.89150
C64 C 0.61138(10) 0.7357(3) 0.92233(15)
H77 H 0.64320 0.75100 0.92780
C65 C 0.59606(10) 0.6228(3) 0.93647(13)
C66 C 0.62723(10) 0.5310(3) 0.96124(14)
H78 H 0.65910 0.54480 0.96840
C67 C 0.61016(11) 0.4223(3) 0.97449(14)
C68 C 0.56206(11) 0.3974(3) 0.96094(17)
H79 H 0.55120 0.32200 0.96810
C69 C 0.53163(11) 0.4842(3) 0.93738(16)
H80 H 0.50000 0.46710 0.92890
C70 C 0.54702(10) 0.6004(3) 0.92549(14)
C71 C 0.51587(10) 0.6929(3) 0.90338(13)
H81 H 0.48400 0.67830 0.89650
C72 C 0.68643(10) 0.3501(3) 1.01955(16)
H82 H 0.70000 0.37100 0.98010
H83 H 0.70110 0.28010 1.03920
H84 H 0.69090 0.41330 1.05170
N1 N 1.04603(7) 0.9749(2) 0.66068(10)
N2 N 0.99261(8) 1.1045(2) 0.62365(11)
N3 N 0.85062(7) 0.9855(2) 0.75688(11)
N4 N 0.80848(7) 1.1169(2) 0.69497(11)
N5 N 0.69650(8) 1.0377(2) 0.80292(12)
N6 N 0.64702(7) 0.9028(2) 0.76026(11)
N7 N 0.50973(8) 1.0187(2) 0.88149(11)
N8 N 0.45658(8) 0.8939(2) 0.83641(12)
O1 O 1.06788(7) 0.87689(17) 0.67220(11)
O2 O 0.95550(7) 1.15183(19) 0.59258(11)
O3 O 0.86765(7) 0.88721(17) 0.77999(10)
O4 O 0.77696(7) 1.16415(19) 0.65203(10)
O5 O 0.73198(7) 1.0898(2) 0.83636(13)
O6 O 0.62635(7) 0.80426(19) 0.74599(11)
O7 O 0.54720(7) 1.0624(2) 0.91430(11)
O8 O 0.43575(7) 0.79712(19) 0.81718(11)
O9 O 0.86090(7) 0.40599(17) 0.52977(10)
O10 O 0.68750(8) 0.43106(19) 0.55448(10)
O11 O 0.81832(7) 0.34827(18) 0.94807(10)
O12 O 0.63679(8) 0.32879(19) 1.00093(11)
C73? C 1.0175(4) 1.2797(11) 0.6919(6)
C74? C 0.4502(4) 1.1649(9) 0.9152(5)
C75? C 1.1161(4) 1.1012(10) 0.7040(5)
H85? H 0.99910 1.24970 0.72450
H86? H 0.99910 1.33280 0.66200
H87? H 1.04410 1.32060 0.71480
H88? H 0.43260 1.11350 0.94020
H89? H 0.43060 1.22760 0.89590
H90? H 0.47600 1.19720 0.94490
H91? H 1.12720 1.09760 0.66110
H92? H 1.13040 1.03970 0.73260
H93? H 1.12400 1.17630 0.72460
#END
