
#######################################################################
#
#                 Cambridge Crystallographic Data Centre
#                                CCDC
#
#######################################################################
#
# If this CIF has been generated from an entry in the Cambridge
# Structural Database, then it will include bibliographic, chemical,
# crystal, experimental, refinement or atomic coordinate data resulting
# from the CCDC's data processing and validation procedures.
#
#######################################################################

data_CSD_CIF_GAXXEI
_audit_creation_date 1989-01-20
_audit_creation_method CSD-ConQuest-V1
_database_code_CSD GAXXEI
_chemical_formula_sum 'C28 H14 N2 O7'
_chemical_formula_moiety
;
C28 H14 N2 O7
;
_journal_coden_Cambridge 643
_journal_volume 180
_journal_year 1987
_journal_page_first 77
_journal_name_full 'Z.Krist.Cryst.Mater. '
loop_
_publ_author_name
"G.Valle"
"R.Sferruzza"
"F.Gualtieri"
_chemical_name_systematic
;
2,2'-Dinitro-(9,9'-bifluorenyl)-9,9'-dicarboxylic acid anhydride
;
_chemical_melting_point 569.15
_cell_volume   1088.937
_exptl_crystal_colour 'pale yellow'
_exptl_crystal_density_diffrn 1.499
_exptl_special_details
;
Melting point range 569.15-571.15K

;
_diffrn_ambient_temperature ?
_diffrn_special_details
;
The study was carried out at room temperature,in the range 283-303K

;
#These two values have been output from a single CSD field.
_refine_ls_R_factor_gt 0.054
_refine_ls_wR_factor_gt 0.054
_symmetry_cell_setting triclinic
_symmetry_space_group_name_H-M 'P -1'
_symmetry_Int_Tables_number 2
loop_
_symmetry_equiv_pos_site_id
_symmetry_equiv_pos_as_xyz
1 x,y,z
2 -x,-y,-z
_cell_length_a 12.866(4)
_cell_length_b 9.480(3)
_cell_length_c 9.193(3)
_cell_angle_alpha 101(3)
_cell_angle_beta 91.2(3)
_cell_angle_gamma 97.9(3)
_cell_formula_units_Z 2
loop_
_atom_type_symbol
_atom_type_radius_bond
C 0.68
N 0.68
O 0.68
loop_
_atom_site_label
_atom_site_type_symbol
_atom_site_fract_x
_atom_site_fract_y
_atom_site_fract_z
O1 O 0.4876(3) 1.0652(4) 0.2387(4)
O2 O 0.4003(4) 0.9936(4) 0.4169(5)
O3 O -0.0250(3) 0.0955(5) -0.1174(5)
O4 O -0.1719(3) 0.1767(5) -0.1007(5)
O5 O 0.4833(2) 0.4111(3) 0.3574(3)
O6 O 0.1648(2) 0.2181(4) 0.4634(4)
O7 O 0.3338(2) 0.3014(3) 0.4353(3)
N1 N 0.4350(3) 0.9714(4) 0.2932(5)
N2 N -0.0803(3) 0.1823(5) -0.0603(5)
C1 C 0.3514(2) 0.5743(2) 0.1922(2)
C2 C 0.3758(2) 0.7134(2) 0.2756(2)
C3 C 0.4126(2) 0.8292(2) 0.2065(2)
C4 C 0.4250(2) 0.8058(2) 0.0541(2)
C5 C 0.4006(2) 0.6667(2) -0.0292(2)
C6 C 0.3638(2) 0.5509(2) 0.0399(2)
C7 C 0.3368(2) 0.3996(3) -0.0200(3)
C8 C 0.3379(2) 0.3230(3) -0.1640(3)
C9 C 0.3134(2) 0.1725(3) -0.1922(3)
C10 C 0.2878(2) 0.0986(3) -0.0764(3)
C11 C 0.2867(2) 0.1752(3) 0.0676(3)
C12 C 0.3113(2) 0.3257(3) 0.0959(3)
C13 C 0.3133(3) 0.4323(4) 0.2418(4)
C14 C 0.3899(3) 0.3875(4) 0.3480(4)
C15 C 0.2254(3) 0.2988(5) 0.4126(5)
C16 C 0.2082(3) 0.4184(5) 0.3274(5)
C17 C 0.1981(2) 0.5526(3) 0.4416(3)
C18 C 0.2657(2) 0.6215(3) 0.5612(3)
C19 C 0.2447(2) 0.7503(3) 0.6469(3)
C20 C 0.1560(2) 0.8103(3) 0.6131(3)
C21 C 0.0884(2) 0.7412(3) 0.4935(3)
C22 C 0.1094(2) 0.6124(3) 0.4077(3)
C23 C 0.0507(2) 0.5167(2) 0.2858(3)
C24 C -0.0468(2) 0.5221(2) 0.2195(3)
C25 C -0.0901(2) 0.4113(2) 0.1052(3)
C26 C -0.0359(2) 0.2950(2) 0.0573(3)
C27 C 0.0616(2) 0.2896(2) 0.1236(3)
C28 C 0.1049(2) 0.4005(2) 0.2379(3)
#END
