
#######################################################################
#
#                 Cambridge Crystallographic Data Centre
#                                CCDC
#
#######################################################################
#
# If this CIF has been generated from an entry in the Cambridge
# Structural Database, then it will include bibliographic, chemical,
# crystal, experimental, refinement or atomic coordinate data resulting
# from the CCDC's data processing and validation procedures.
#
#######################################################################

data_CSD_CIF_GAYXOV
_audit_creation_date 2012-09-26
_audit_creation_method CSD-ConQuest-V1
_database_code_CSD GAYXOV
_database_code_depnum_ccdc_archive 'CCDC 846381'
_chemical_formula_sum 'C30 H28 N2 O7'
_chemical_formula_moiety
;
C30 H28 N2 O7
;
_journal_coden_Cambridge 16
_journal_volume 68
_journal_year 2012
_journal_page_first 4485
_journal_name_full 'Tetrahedron '
loop_
_publ_author_name
"P.Prabhakaran"
"V.Azzarito"
"T.Jacobs"
"M.J.Hardie"
"C.A.Kilner"
"T.A.Edwards"
"S.L.Warriner"
"A.J.Wilson"
_chemical_name_systematic
;
Methyl 3-isobutoxy-4-((3-(2-naphthylmethoxy)-4-nitrobenzoyl)amino)benzoate
;
_cell_volume   2640.066
_exptl_crystal_colour 'colorless'
_exptl_crystal_density_diffrn 1.33
_exptl_crystal_description 'rod'
_diffrn_ambient_temperature 150
#These two values have been output from a single CSD field.
_refine_ls_R_factor_gt 0.0506
_refine_ls_wR_factor_gt 0.0506
_symmetry_cell_setting monoclinic
_symmetry_space_group_name_H-M 'P 21/n'
_symmetry_Int_Tables_number 14
loop_
_symmetry_equiv_pos_site_id
_symmetry_equiv_pos_as_xyz
1 x,y,z
2 1/2-x,1/2+y,1/2-z
3 -x,-y,-z
4 -1/2+x,-1/2-y,-1/2+z
_cell_length_a 7.7976(7)
_cell_length_b 30.135(3)
_cell_length_c 11.4892(9)
_cell_angle_alpha 90
_cell_angle_beta 102.069(4)
_cell_angle_gamma 90
_cell_formula_units_Z 4
loop_
_atom_type_symbol
_atom_type_radius_bond
C 0.68
H 0.23
N 0.68
O 0.68
loop_
_atom_site_label
_atom_site_type_symbol
_atom_site_fract_x
_atom_site_fract_y
_atom_site_fract_z
O1 O 0.28458(18) -0.07068(4) -0.02377(10)
O2 O 0.81993(19) 0.05619(4) 0.4188(1)
O3 O 1.16840(17) 0.13821(4) 0.77182(11)
O4 O 0.2580(2) -0.13233(5) 0.08445(11)
O5 O 0.59055(17) -0.08746(4) 0.50684(10)
N1 N 0.7179(2) -0.00789(5) 0.48904(12)
H1 H 0.72040 -0.02320 0.55460
C1 C 0.9925(2) 0.08333(6) 0.64298(15)
H2 H 0.97770 0.10290 0.57690
C2 C 0.3116(2) -0.09458(7) 0.07872(15)
N2 N 1.2072(2) 0.07890(6) 0.97204(13)
C3 C 0.4141(2) -0.06924(6) 0.18289(14)
C4 C 0.4496(2) -0.09123(6) 0.29428(14)
H3 H 0.40680 -0.12040 0.30140
C5 C 0.7332(3) 0.25669(6) 0.56009(14)
C6 C 1.0910(2) 0.09732(6) 0.75348(15)
C7 C 0.9152(2) 0.04096(6) 0.62784(14)
C8 C 1.0158(3) 0.19620(6) 0.63335(15)
C9 C 0.8801(2) 0.19753(6) 0.69403(14)
H4 H 0.88220 0.17800 0.75920
C10 C 0.5745(2) -0.00425(6) 0.27258(15)
H5 H 0.61450 0.02520 0.26530
C11 C 0.7366(2) 0.22784(6) 0.66028(14)
C12 C 1.1073(2) 0.06735(6) 0.85082(14)
C13 C 1.0304(3) 0.02517(6) 0.83609(15)
H6 H 1.04270 0.00570 0.90230
C14 C 0.8140(2) 0.03067(6) 0.50220(15)
C15 C 0.6148(2) -0.02624(6) 0.38301(14)
C16 C 0.4998(3) -0.12763(6) 0.53160(15)
H7 H 0.53500 -0.15310 0.48730
H8 H 0.37140 -0.12360 0.50660
C17 C 0.5481(2) -0.06963(6) 0.39338(14)
O6 O 1.1789(2) 0.05653(5) 1.05640(12)
C18 C 0.5967(3) 0.23032(6) 0.72321(15)
H9 H 0.59930 0.21200 0.79090
O7 O 1.3148(2) 0.10946(6) 0.98434(12)
C19 C 0.4513(3) 0.28649(6) 0.58416(16)
H10 H 0.35340 0.30540 0.55760
C20 C 0.9358(3) 0.01159(6) 0.72500(15)
H11 H 0.88570 -0.01730 0.71500
C21 C 0.4748(3) -0.02611(6) 0.17347(15)
H12 H 0.44810 -0.01140 0.09880
C22 C 0.5861(3) 0.28561(6) 0.52398(15)
H13 H 0.58150 0.30450 0.45720
C23 C 1.0139(3) 0.22584(7) 0.53549(16)
H14 H 1.10770 0.22530 0.49440
C24 C 0.4574(3) 0.25915(6) 0.68643(16)
H15 H 0.36590 0.26070 0.72940
C25 C 0.8772(3) 0.25519(7) 0.50051(15)
H16 H 0.87850 0.27470 0.43580
C26 C 0.5504(3) -0.13628(6) 0.66587(15)
H17 H 0.51660 -0.10970 0.70810
C27 C 1.1742(3) 0.16557(7) 0.66901(16)
H18 H 1.18130 0.14610 0.60090
H19 H 1.28200 0.18390 0.68630
C28 C 0.1973(3) -0.09496(7) -0.13019(15)
H20 H 0.18330 -0.07540 -0.19970
H21 H 0.08170 -0.10500 -0.12010
H22 H 0.26840 -0.12070 -0.14200
C29 C 0.7479(3) -0.14333(8) 0.70648(18)
H23 H 0.81030 -0.11780 0.68240
H24 H 0.78230 -0.17030 0.66970
H25 H 0.77770 -0.14630 0.79330
C30 C 0.4459(3) -0.17650(7) 0.69631(17)
H26 H 0.47900 -0.20300 0.65680
H27 H 0.32010 -0.17090 0.66890
H28 H 0.47220 -0.18110 0.78260
#END
