
#######################################################################
#
#                 Cambridge Crystallographic Data Centre
#                                CCDC
#
#######################################################################
#
# If this CIF has been generated from an entry in the Cambridge
# Structural Database, then it will include bibliographic, chemical,
# crystal, experimental, refinement or atomic coordinate data resulting
# from the CCDC's data processing and validation procedures.
#
#######################################################################

data_CSD_CIF_GAYXUB
_audit_creation_date 2012-09-26
_audit_creation_method CSD-ConQuest-V1
_database_code_CSD GAYXUB
_database_code_depnum_ccdc_archive 'CCDC 846382'
_chemical_formula_sum 'C21 H24 N2 O7'
_chemical_formula_moiety
;
C21 H24 N2 O7
;
_journal_coden_Cambridge 16
_journal_volume 68
_journal_year 2012
_journal_page_first 4485
_journal_name_full 'Tetrahedron '
loop_
_publ_author_name
"P.Prabhakaran"
"V.Azzarito"
"T.Jacobs"
"M.J.Hardie"
"C.A.Kilner"
"T.A.Edwards"
"S.L.Warriner"
"A.J.Wilson"
_chemical_name_systematic
;
Methyl 2-isopropoxy-4-((2-isopropoxy-4-nitrobenzoyl)amino)benzoate
;
_cell_volume   1080.341
_exptl_crystal_colour 'yellow'
_exptl_crystal_density_diffrn 1.28
_exptl_crystal_description 'needle'
_diffrn_ambient_temperature 150
#These two values have been output from a single CSD field.
_refine_ls_R_factor_gt 0.0446
_refine_ls_wR_factor_gt 0.0446
_symmetry_cell_setting triclinic
_symmetry_space_group_name_H-M 'P -1'
_symmetry_Int_Tables_number 2
loop_
_symmetry_equiv_pos_site_id
_symmetry_equiv_pos_as_xyz
1 x,y,z
2 -x,-y,-z
_cell_length_a 6.5749(7)
_cell_length_b 12.8076(15)
_cell_length_c 13.3529(17)
_cell_angle_alpha 101.7776(64)
_cell_angle_beta 100.8146(59)
_cell_angle_gamma 90.0108(57)
_cell_formula_units_Z 2
loop_
_atom_type_symbol
_atom_type_radius_bond
C 0.68
H 0.23
N 0.68
O 0.68
loop_
_atom_site_label
_atom_site_type_symbol
_atom_site_fract_x
_atom_site_fract_y
_atom_site_fract_z
O1 O 1.13433(18) 0.10814(9) 1.00977(10)
N1 N 1.0758(2) 0.20077(10) 1.03027(10)
C1 C 0.8614(2) 0.22488(12) 0.98077(11)
O2 O 1.1859(2) 0.27471(10) 1.08931(11)
C2 C 0.7305(2) 0.13843(11) 0.92268(11)
H1 H 0.77680 0.06750 0.91590
C3 C 0.5283(2) 0.15883(11) 0.87432(11)
C4 C 0.4610(2) 0.26696(11) 0.88607(11)
C5 C 0.6012(2) 0.34999(12) 0.94600(11)
H2 H 0.55740 0.42140 0.95420
C6 C 0.8034(2) 0.33100(12) 0.99402(11)
H3 H 0.89610 0.38780 1.03360
O3 O 0.38985(16) 0.07844(8) 0.81482(8)
C7 C 0.4247(2) -0.03544(11) 0.81854(12)
H4 H 0.49760 -0.04100 0.88990
C8 C 0.5552(3) -0.08459(13) 0.73812(14)
H5 H 0.48010 -0.08220 0.66800
H6 H 0.58130 -0.15890 0.74300
H7 H 0.68740 -0.04400 0.75210
C9 C 0.2067(2) -0.08846(12) 0.79569(13)
H8 H 0.12860 -0.05350 0.84810
H9 H 0.21770 -0.16420 0.79820
H10 H 0.13460 -0.08150 0.72630
O4 O 0.19401(17) 0.39582(8) 0.87128(9)
N2 N 0.11979(19) 0.22678(9) 0.76797(9)
H11 H 0.17480 0.16430 0.75270
C10 C 0.2458(2) 0.30315(11) 0.84116(11)
C11 C -0.0869(2) 0.23411(11) 0.71323(11)
C12 C -0.1819(3) 0.13823(12) 0.64841(12)
H12 H -0.10910 0.07390 0.64240
C13 C -0.3841(3) 0.14011(12) 0.59361(12)
H13 H -0.44770 0.07560 0.55060
C14 C -0.4989(2) 0.23414(11) 0.59944(11)
C15 C -0.4004(2) 0.33020(11) 0.66492(11)
C16 C -0.1944(2) 0.32968(11) 0.72112(11)
H14 H -0.12920 0.39380 0.76400
O5 O -0.78780(19) 0.13673(10) 0.47742(11)
C17 C -0.7151(2) 0.22175(12) 0.53303(12)
O6 O -0.82225(17) 0.31250(9) 0.53880(8)
C18 C -1.0281(3) 0.30322(15) 0.47213(13)
H15 H -1.01480 0.28240 0.39890
H16 H -1.09420 0.37210 0.48360
H17 H -1.11300 0.24890 0.48930
O7 O -0.51525(16) 0.42034(8) 0.67244(9)
C19 C -0.4229(2) 0.52443(11) 0.73142(12)
H18 H -0.33680 0.51580 0.79920
C20 C -0.2875(3) 0.57133(14) 0.66836(15)
H19 H -0.17220 0.52460 0.65720
H20 H -0.23270 0.64240 0.70670
H21 H -0.37090 0.57700 0.60080
C21 C -0.6093(3) 0.59182(13) 0.75205(14)
H22 H -0.68990 0.60300 0.68580
H23 H -0.56030 0.66100 0.79710
H24 H -0.69690 0.55450 0.78650
#END
