
#######################################################################
#
#                 Cambridge Crystallographic Data Centre
#                                CCDC
#
#######################################################################
#
# If this CIF has been generated from an entry in the Cambridge
# Structural Database, then it will include bibliographic, chemical,
# crystal, experimental, refinement or atomic coordinate data resulting
# from the CCDC's data processing and validation procedures.
#
#######################################################################

data_CSD_CIF_GAYYOW
_audit_creation_date 2012-09-26
_audit_creation_method CSD-ConQuest-V1
_database_code_CSD GAYYOW
_database_code_depnum_ccdc_archive 'CCDC 850703'
_chemical_formula_sum 'C21 H22 N4 O9'
_chemical_formula_moiety
;
C21 H22 N4 O9
;
_journal_coden_Cambridge 16
_journal_volume 68
_journal_year 2012
_journal_page_first 4501
_journal_name_full 'Tetrahedron '
loop_
_publ_author_name
"S.Thompson"
"R.Vallinayagam"
"M.J.Adler"
"R.T.W.Scott"
"A.D.Hamilton"
_chemical_name_systematic
;
Methyl 
2-acetamido-4-((2-acetamido-5-methoxy-4-nitrobenzoyl)amino)-5-methoxybenzoate
;
_cell_volume   1071.377
_exptl_crystal_colour 'yellow'
_exptl_crystal_density_diffrn 1.471
_exptl_crystal_description 'block'
_diffrn_ambient_temperature 150
#These two values have been output from a single CSD field.
_refine_ls_R_factor_gt 0.0449
_refine_ls_wR_factor_gt 0.0449
_symmetry_cell_setting triclinic
_symmetry_space_group_name_H-M 'P -1'
_symmetry_Int_Tables_number 2
loop_
_symmetry_equiv_pos_site_id
_symmetry_equiv_pos_as_xyz
1 x,y,z
2 -x,-y,-z
_cell_length_a 9.4644(2)
_cell_length_b 9.5545(2)
_cell_length_c 13.3935(3)
_cell_angle_alpha 93.2495(9)
_cell_angle_beta 100.2027(10)
_cell_angle_gamma 114.6918(10)
_cell_formula_units_Z 2
loop_
_atom_type_symbol
_atom_type_radius_bond
C 0.68
H 0.23
N 0.68
O 0.68
loop_
_atom_site_label
_atom_site_type_symbol
_atom_site_fract_x
_atom_site_fract_y
_atom_site_fract_z
O1 O 0.93912(16) 0.80285(16) 0.57913(10)
C1 C 0.8168(2) 0.6590(2) 0.57095(14)
C2 C 0.7260(2) 0.6096(2) 0.64389(14)
C3 C 0.6062(2) 0.4586(2) 0.63224(13)
C4 C 0.5768(2) 0.3505(2) 0.54623(13)
N1 N 0.46034(19) 0.19663(18) 0.53796(12)
C5 C 0.3759(2) 0.0926(2) 0.45088(14)
O2 O 0.39574(18) 0.12132(17) 0.36519(11)
C6 C 0.2529(3) -0.0590(2) 0.46983(17)
C7 C 0.6681(2) 0.3988(2) 0.47284(13)
C8 C 0.7824(2) 0.5507(2) 0.48543(13)
N2 N 0.87282(19) 0.5939(2) 0.40483(12)
O3 O 0.88721(19) 0.71329(18) 0.37024(11)
O4 O 0.9239(2) 0.5040(2) 0.37471(13)
C9 C 0.5127(2) 0.4084(2) 0.71401(13)
O5 O 0.47003(18) 0.27671(16) 0.73627(10)
N3 N 0.47973(18) 0.51889(19) 0.75906(11)
C10 C 0.3981(2) 0.5073(2) 0.83900(13)
C11 C 0.3726(2) 0.6381(2) 0.86600(13)
O6 O 0.42798(17) 0.75445(15) 0.80835(10)
C12 C 0.4048(3) 0.8907(3) 0.82993(17)
C13 C 0.2988(2) 0.6402(2) 0.94576(14)
C14 C 0.2474(2) 0.5126(2) 0.99943(13)
C15 C 0.2716(2) 0.3813(2) 0.97094(13)
C16 C 0.3470(2) 0.3796(2) 0.89023(13)
N4 N 0.22336(19) 0.25508(18) 1.02633(12)
C17 C 0.2296(2) 0.1165(2) 1.01164(16)
O7 O 0.2745(3) 0.0750(2) 0.94130(15)
C18 C 0.1750(3) 0.0144(2) 1.09212(17)
C19 C 0.1723(2) 0.5188(2) 1.08668(13)
O8 O 0.12109(18) 0.41390(17) 1.13727(10)
O9 O 0.16600(18) 0.65386(16) 1.10739(10)
C20 C 0.1052(3) 0.6683(3) 1.19789(15)
C21 C 0.9985(3) 0.8978(3) 0.67826(16)
H1 H 0.74630 0.68080 0.70300
H2 H 0.65160 0.32770 0.41460
H3 H 0.44810 0.96260 0.78490
H4 H 0.45680 0.93750 0.89880
H5 H 0.29390 0.86250 0.82070
H6 H 0.28250 0.72890 0.96430
H7 H 0.36270 0.29100 0.87060
H8 H 0.18240 -0.08040 1.07730
H9 H 0.24080 0.06680 1.15750
H10 H 0.06750 -0.00730 1.09230
H11 H 0.10480 0.76740 1.20720
H12 H 0.17150 0.65790 1.25630
H13 H -0.00040 0.58900 1.18930
H14 H 1.08320 0.99490 0.67480
H15 H 1.03630 0.84610 0.72720
H16 H 0.91490 0.91490 0.69820
H17 H 0.181(3) 0.269(3) 1.0756(19)
H18 H 0.432(3) 0.170(3) 0.593(2)
H19 H 0.506(3) 0.607(3) 0.7372(19)
H20 H 0.27240 -0.06520 0.54110
H21 H 0.14990 -0.06320 0.44810
H22 H 0.25910 -0.14330 0.43280
#END
