
#######################################################################
#
#                 Cambridge Crystallographic Data Centre
#                                CCDC
#
#######################################################################
#
# If this CIF has been generated from an entry in the Cambridge
# Structural Database, then it will include bibliographic, chemical,
# crystal, experimental, refinement or atomic coordinate data resulting
# from the CCDC's data processing and validation procedures.
#
#######################################################################

data_CSD_CIF_GAZBEQ
_audit_creation_date 2012-09-26
_audit_creation_method CSD-ConQuest-V1
_database_code_CSD GAZBEQ
_database_code_depnum_ccdc_archive 'CCDC 859535'
_chemical_formula_sum 'C15 H12 N2 O6'
_chemical_formula_moiety
;
C15 H12 N2 O6
;
_journal_coden_Cambridge 16
_journal_volume 68
_journal_year 2012
_journal_page_first 4719
_journal_name_full 'Tetrahedron '
loop_
_publ_author_name
"J.Bezensek"
"B.Prek"
"U.Groselj"
"M.Kasunic"
"J.Svete"
"B.Stanovnik"
_chemical_name_systematic
;
Dimethyl 6-(2-nitrophenyl)pyridine-3,4-dicarboxylate
;
_cell_volume   1477.085
_exptl_crystal_colour 'colorless'
_exptl_crystal_density_diffrn 1.422
_exptl_crystal_description 'prism'
_diffrn_ambient_temperature 293
#These two values have been output from a single CSD field.
_refine_ls_R_factor_gt 0.0443
_refine_ls_wR_factor_gt 0.0443
_symmetry_cell_setting monoclinic
_symmetry_space_group_name_H-M 'P 21/n'
_symmetry_Int_Tables_number 14
loop_
_symmetry_equiv_pos_site_id
_symmetry_equiv_pos_as_xyz
1 x,y,z
2 1/2-x,1/2+y,1/2-z
3 -x,-y,-z
4 -1/2+x,-1/2-y,-1/2+z
_cell_length_a 11.8445(2)
_cell_length_b 8.0410(1)
_cell_length_c 15.8248(3)
_cell_angle_alpha 90
_cell_angle_beta 101.4689(12)
_cell_angle_gamma 90
_cell_formula_units_Z 4
loop_
_atom_type_symbol
_atom_type_radius_bond
C 0.68
H 0.23
N 0.68
O 0.68
loop_
_atom_site_label
_atom_site_type_symbol
_atom_site_fract_x
_atom_site_fract_y
_atom_site_fract_z
O1 O 0.76103(10) 0.29959(19) 0.32646(7)
O2 O 0.95188(10) 0.26194(14) 0.36838(6)
O3 O 0.92548(12) 0.61134(14) 0.33530(7)
O4 O 1.00500(9) 0.74411(12) 0.23728(7)
O5 O 0.69674(10) 0.40724(14) -0.04640(7)
O6 O 0.76819(13) 0.39673(18) -0.16133(8)
N1 N 0.92094(9) 0.37929(13) 0.05730(7)
N2 N 0.74707(10) 0.33486(15) -0.09558(7)
C1 C 0.86937(10) 0.24050(14) 0.07812(7)
C2 C 0.84921(11) 0.21012(15) 0.16032(8)
C3 C 0.88122(10) 0.32932(15) 0.22377(7)
C4 C 0.93116(10) 0.47688(15) 0.20232(7)
C5 C 0.95018(11) 0.49374(16) 0.11866(8)
C6 C 0.85647(12) 0.29810(16) 0.31179(8)
C7 C 0.9382(2) 0.2453(3) 0.45714(11)
H1 H 0.90830 0.34710 0.47550
H2 H 1.01160 0.22160 0.49330
H3 H 0.88570 0.15610 0.46130
C8 C 0.95365(11) 0.61502(16) 0.26631(8)
C9 C 1.01819(18) 0.8884(2) 0.29297(13)
H4 H 0.94500 0.91730 0.30610
H5 H 1.04660 0.98000 0.26430
H6 H 1.07180 0.86370 0.34540
C10 C 0.83516(10) 0.11660(15) 0.00790(7)
C11 C 0.78284(11) 0.16188(17) -0.07593(8)
C12 C 0.75764(15) 0.0484(2) -0.14241(9)
C13 C 0.78316(16) -0.1174(2) -0.12524(10)
C14 C 0.83346(14) -0.16749(19) -0.04311(10)
C15 C 0.85991(12) -0.05121(16) 0.02274(9)
H7 H 0.9869(15) 0.588(2) 0.1022(11)
H8 H 0.8131(15) 0.112(2) 0.1728(11)
H9 H 0.8983(14) -0.086(2) 0.0810(11)
H10 H 0.761(2) -0.201(3) -0.1757(14)
H11 H 0.8469(17) -0.283(3) -0.0320(13)
H12 H 0.7161(17) 0.087(3) -0.1984(14)
#END
