
#######################################################################
#
#                 Cambridge Crystallographic Data Centre
#                                CCDC
#
#######################################################################
#
# If this CIF has been generated from an entry in the Cambridge
# Structural Database, then it will include bibliographic, chemical,
# crystal, experimental, refinement or atomic coordinate data resulting
# from the CCDC's data processing and validation procedures.
#
#######################################################################

data_CSD_CIF_GAZDUG
_audit_creation_date 1989-02-16
_audit_creation_method CSD-ConQuest-V1
_database_code_CSD GAZDUG
_database_code_depnum_ccdc_archive 'CCDC 1164737'
_chemical_formula_sum 'C13 H12 N4 O3'
_chemical_formula_moiety
;
C13 H12 N4 O3
;
_journal_coden_Cambridge 643
_journal_volume 175
_journal_year 1986
_journal_page_first 277
_journal_name_full 'Z.Krist.Cryst.Mater. '
loop_
_publ_author_name
"J.Lopez-Lerma"
"A.Perales"
_chemical_name_systematic
;
Ethyl 5-methyl-1,2,3-triazino(5,4-b)indole-4-carboxylate N(3)-oxide
;
_cell_volume   1266.810
_exptl_crystal_colour 'yellow'
_exptl_special_details
;
H121 deleted

;
_diffrn_ambient_temperature ?
_diffrn_special_details
;
The study was carried out at room temperature,in the range 283-303K

;
#These two values have been output from a single CSD field.
_refine_ls_R_factor_gt 0.059
_refine_ls_wR_factor_gt 0.059
_symmetry_cell_setting monoclinic
_symmetry_space_group_name_H-M 'P 21/n'
_symmetry_Int_Tables_number 14
loop_
_symmetry_equiv_pos_site_id
_symmetry_equiv_pos_as_xyz
1 x,y,z
2 1/2-x,1/2+y,1/2-z
3 -x,-y,-z
4 -1/2+x,-1/2-y,-1/2+z
_cell_length_a 13.137(1)
_cell_length_b 8.488(1)
_cell_length_c 12.709(1)
_cell_angle_alpha 90
_cell_angle_beta 116.63(2)
_cell_angle_gamma 90
_cell_formula_units_Z 4
loop_
_atom_type_symbol
_atom_type_radius_bond
C 0.68
H 0.23
N 0.68
O 0.68
loop_
_atom_site_label
_atom_site_type_symbol
_atom_site_fract_x
_atom_site_fract_y
_atom_site_fract_z
O1 O -0.0554(4) 0.20260 0.3348(5)
O2 O -0.1971(4) 0.1599(6) 0.1605(4)
O3 O -0.0526(5) -0.1359(6) 0.2091(5)
N1 N 0.1409(5) -0.0150(8) 0.1066(5)
N2 N 0.0776(5) -0.1079(7) 0.1394(6)
N3 N 0.0061(5) -0.0419(8) 0.1805(5)
N4 N 0.0747(5) 0.3720(7) 0.1573(5)
C1 C -0.0056(6) 0.1167(8) 0.1892(6)
C2 C 0.0612(6) 0.2129(9) 0.1574(5)
C3 C 0.1533(6) 0.4062(9) 0.1128(6)
C4 C 0.1915(6) 0.5510(9) 0.0970(6)
C5 C 0.2734(7) 0.5526(10) 0.0540(6)
C6 C 0.3114(6) 0.4102(11) 0.0229(6)
C7 C 0.2704(6) 0.2669(11) 0.0372(6)
C8 C 0.1926(6) 0.2641(9) 0.0849(6)
C9 C 0.1338(6) 0.1414(9) 0.1143(6)
C10 C 0.0209(7) 0.4909(9) 0.2015(6)
C11 C -0.0875(6) 0.1628(9) 0.2378(7)
C12 C -0.2873(6) 0.2019(11) 0.1973(6)
C13 C -0.3994(7) 0.1420(12) 0.1088(7)
H1 H 0.14200 0.66600 0.10100
H2 H 0.31100 0.64700 0.02600
H3 H 0.36200 0.45200 0.00000
H4 H 0.30300 0.17900 0.01100
H5 H 0.05200 0.60000 0.21000
H6 H 0.08500 0.47000 0.29700
H7 H -0.03800 0.47200 0.13500
H8 H -0.26000 0.17900 0.28900
H9 H -0.39200 0.02100 0.11000
H10 H -0.42600 0.20500 0.03400
H11 H -0.46000 0.15900 0.14100
#END
