
#######################################################################
#
#                 Cambridge Crystallographic Data Centre
#                                CCDC
#
#######################################################################
#
# If this CIF has been generated from an entry in the Cambridge
# Structural Database, then it will include bibliographic, chemical,
# crystal, experimental, refinement or atomic coordinate data resulting
# from the CCDC's data processing and validation procedures.
#
#######################################################################

data_CSD_CIF_GAZFOE
_audit_creation_date 2012-09-26
_audit_creation_method CSD-ConQuest-V1
_database_code_CSD GAZFOE
_database_code_depnum_ccdc_archive 'CCDC 787519'
_chemical_formula_sum 'C41 H55 N3 O11'
_chemical_formula_moiety
;
C41 H55 N3 O11
;
_journal_coden_Cambridge 16
_journal_volume 68
_journal_year 2012
_journal_page_first 4830
_journal_name_full 'Tetrahedron '
loop_
_publ_author_name
"Haohao Yang"
"Bing Cui"
"Guiping Wu"
"Zhiwei Miao"
"Ruyu Chen"
_chemical_name_systematic
;
N-(Indol-3-yl(4-nitrophenyl)methyl)-(2,3,4,6-tetra-O-pivaloyl-\b-D-galactosyl)
amine
;
_chemical_melting_point 470.15
_cell_volume   4403.269
_exptl_crystal_density_diffrn 1.157
_exptl_special_details
;
Melting point range 470.15-471.15K

;
_diffrn_ambient_temperature 293
#These two values have been output from a single CSD field.
_refine_ls_R_factor_gt 0.0739
_refine_ls_wR_factor_gt 0.0739
_symmetry_cell_setting orthorhombic
_symmetry_space_group_name_H-M 'P 21 21 21'
_symmetry_Int_Tables_number 19
loop_
_symmetry_equiv_pos_site_id
_symmetry_equiv_pos_as_xyz
1 x,y,z
2 1/2-x,-y,1/2+z
3 -x,1/2+y,1/2-z
4 1/2+x,1/2-y,-z
_cell_length_a 7.1831(14)
_cell_length_b 14.789(3)
_cell_length_c 41.450(8)
_cell_angle_alpha 90
_cell_angle_beta 90
_cell_angle_gamma 90
_cell_formula_units_Z 4
loop_
_atom_type_symbol
_atom_type_radius_bond
C 0.68
H 0.23
N 0.68
O 0.68
loop_
_atom_site_label
_atom_site_type_symbol
_atom_site_fract_x
_atom_site_fract_y
_atom_site_fract_z
O1 O 0.8328(4) 0.99461(17) 0.14156(6)
O2 O 0.5102(4) 1.1020(2) 0.16101(7)
O3 O 0.6568(6) 1.1567(3) 0.20330(9)
O4 O 0.9648(4) 1.14043(17) 0.09889(6)
O5 O 0.8419(7) 1.2411(2) 0.06502(10)
O6 O 1.0461(5) 1.0268(2) 0.05063(6)
O7 O 0.8839(8) 0.9587(4) 0.01210(9)
O8 O 1.0973(5) 0.8605(2) 0.08334(6)
O9 O 1.3887(6) 0.8906(3) 0.09679(13)
O10 O 0.3565(14) 0.4874(6) 0.1437(2)
O11 O 0.6172(13) 0.4350(5) 0.1234(2)
N1 N 0.9922(5) 0.8609(2) 0.15107(7)
H1 H 1.07750 0.89590 0.16090
H2? H 1.05320 0.81510 0.14150
N2 N 1.1510(7) 0.7514(3) 0.24567(10)
H3 H 1.22770 0.71610 0.25540
N3 N 0.5264(15) 0.4916(7) 0.1373(2)
C1 C 0.9012(6) 0.9130(3) 0.12691(9)
H4 H 0.79650 0.87850 0.11810
C2 C 1.0312(6) 0.9399(2) 0.09978(9)
H5 H 1.13590 0.97540 0.10810
C3 C 0.9198(6) 0.9948(3) 0.07507(9)
H6 H 0.82570 0.95590 0.06510
C4 C 0.8254(6) 1.0756(3) 0.09021(9)
H7 H 0.73890 1.10270 0.07470
C5 C 0.7191(6) 1.0473(3) 0.12052(9)
H8 H 0.60950 1.01200 0.11430
C6 C 0.6571(7) 1.1294(3) 0.13986(11)
H9 H 0.76070 1.15300 0.15230
H10 H 0.61350 1.17650 0.12540
C7 C 0.5236(7) 1.1210(3) 0.19235(12)
C8 C 0.3575(8) 1.0862(5) 0.21103(14)
C9 C 0.1770(9) 1.1133(6) 0.19607(18)
H11 H 0.17010 1.17810 0.19500
H12 H 0.07590 1.09080 0.20890
H13 H 0.16880 1.08860 0.17470
C10 C 0.3772(11) 1.1043(6) 0.24570(14)
H14 H 0.35630 1.16740 0.24970
H15 H 0.50040 1.08820 0.25260
H16 H 0.28760 1.06920 0.25750
C11 C 0.3640(11) 0.9770(6) 0.2079(2)
H17 H 0.25230 0.95160 0.21680
H18 H 0.46990 0.95410 0.21940
H19 H 0.37370 0.96040 0.18550
C12 C 0.9568(7) 1.2227(3) 0.08429(10)
C13 C 1.1099(9) 1.2846(3) 0.09581(12)
C14 C 1.0787(18) 1.3019(6) 0.13093(15)
H20 H 1.15030 1.25980 0.14340
H21 H 0.94890 1.29470 0.13580
H22 H 1.11670 1.36250 0.13610
C15 C 1.1034(11) 1.3736(3) 0.07746(17)
H23 H 1.20570 1.41110 0.08410
H24 H 0.98820 1.40400 0.08200
H25 H 1.11220 1.36200 0.05470
C16 C 1.2963(10) 1.2421(5) 0.0901(2)
H26 H 1.30870 1.18940 0.10340
H27 H 1.39260 1.28460 0.09540
H28 H 1.30710 1.22520 0.06780
C17 C 1.0088(10) 1.0075(4) 0.01962(11)
C18 C 1.1415(11) 1.0558(5) -0.00291(12)
C19 C 1.3352(12) 1.0592(7) 0.01029(19)
H29 H 1.39800 1.00350 0.00560
H30 H 1.33040 1.06790 0.03320
H31 H 1.40160 1.10850 0.00050
C20 C 1.0761(17) 1.1540(6) -0.0049(2)
H32 H 1.10440 1.18440 0.01490
H33 H 0.94410 1.15540 -0.00860
H34 H 1.13860 1.18380 -0.02240
C21 C 1.1214(18) 1.0113(7) -0.03607(15)
H35 H 1.15290 1.05420 -0.05260
H36 H 0.99520 0.99160 -0.03900
H37 H 1.20360 0.96030 -0.03740
C22 C 1.2802(9) 0.8444(3) 0.08287(12)
C23 C 1.3309(9) 0.7607(4) 0.06369(14)
C24 C 1.5420(13) 0.7499(7) 0.0632(3)
H38 H 1.58010 0.71290 0.08100
H39 H 1.59970 0.80820 0.06490
H40 H 1.57910 0.72160 0.04340
C25 C 1.270(2) 0.7741(7) 0.02956(18)
H41 H 1.33530 0.73280 0.01580
H42 H 1.29600 0.83500 0.02300
H43 H 1.13820 0.76310 0.02790
C26 C 1.2441(19) 0.6823(5) 0.0778(3)
H44 H 1.21830 0.69380 0.10020
H45 H 1.32640 0.63140 0.07600
H46 H 1.12990 0.66950 0.06670
C27 C 0.8667(6) 0.8230(3) 0.17583(9)
H47 H 0.76790 0.86740 0.17970
C28 C 0.7745(7) 0.7362(3) 0.16428(10)
C29 C 0.5969(9) 0.7155(5) 0.17408(13)
H48 H 0.53240 0.75640 0.18700
C30 C 0.5147(11) 0.6383(6) 0.16557(16)
H49 H 0.39360 0.62580 0.17210
C31 C 0.6108(12) 0.5779(5) 0.14709(14)
C32 C 0.7871(10) 0.5943(4) 0.13605(14)
H50 H 0.85010 0.55270 0.12330
C33 C 0.8671(8) 0.6759(3) 0.14487(13)
H51 H 0.98580 0.69010 0.13750
C34 C 0.9661(7) 0.8090(3) 0.20680(9)
C35 C 0.9578(7) 0.8641(3) 0.2349(1)
C36 C 0.8630(9) 0.9434(4) 0.24198(14)
H52 H 0.78740 0.97130 0.22670
C37 C 0.8852(12) 0.9801(5) 0.27303(18)
H53 H 0.81860 1.03170 0.27860
C38 C 1.0015(12) 0.9422(5) 0.29518(16)
H54 H 1.01610 0.96930 0.31530
C39 C 1.0962(9) 0.8651(4) 0.28827(13)
H55 H 1.17430 0.83860 0.30350
C40 C 1.0737(8) 0.8275(4) 0.25842(11)
C41 C 1.0864(9) 0.7405(4) 0.21491(12)
H56 H 1.11940 0.69310 0.20130
#END
