
#######################################################################
#
#                 Cambridge Crystallographic Data Centre
#                                CCDC
#
#######################################################################
#
# If this CIF has been generated from an entry in the Cambridge
# Structural Database, then it will include bibliographic, chemical,
# crystal, experimental, refinement or atomic coordinate data resulting
# from the CCDC's data processing and validation procedures.
#
#######################################################################

data_CSD_CIF_GAZGAR
_audit_creation_date 2012-09-26
_audit_creation_method CSD-ConQuest-V1
_database_code_CSD GAZGAR
_database_code_depnum_ccdc_archive 'CCDC 798675'
_chemical_formula_sum 'C21 H23 N5 O7'
_chemical_formula_moiety
;
C21 H23 N5 O7
;
_journal_coden_Cambridge 16
_journal_volume 68
_journal_year 2012
_journal_page_first 4838
_journal_name_full 'Tetrahedron '
loop_
_publ_author_name
"Ming Li"
"Wei Kong"
"Li-Rong Wen"
"Fang-Hui Liu"
_chemical_name_systematic
;
Dimethyl 
2-((t-butylimino)methylene)-3-(1-(cyanoacetyl)-2-(3-nitrobenzylidene)hydrazino
)succinate
;
_cell_volume   1163.273
_exptl_crystal_colour 'colorless'
_exptl_crystal_density_diffrn 1.306
_exptl_crystal_description 'block'
_diffrn_ambient_temperature 173
#These two values have been output from a single CSD field.
_refine_ls_R_factor_gt 0.0679
_refine_ls_wR_factor_gt 0.0679
_symmetry_cell_setting triclinic
_symmetry_space_group_name_H-M 'P -1'
_symmetry_Int_Tables_number 2
loop_
_symmetry_equiv_pos_site_id
_symmetry_equiv_pos_as_xyz
1 x,y,z
2 -x,-y,-z
_cell_length_a 10.698(2)
_cell_length_b 10.939(2)
_cell_length_c 12.091(2)
_cell_angle_alpha 71.46(3)
_cell_angle_beta 70.31(3)
_cell_angle_gamma 62.94(3)
_cell_formula_units_Z 2
loop_
_atom_type_symbol
_atom_type_radius_bond
C 0.68
H 0.23
N 0.68
O 0.68
loop_
_atom_site_label
_atom_site_type_symbol
_atom_site_fract_x
_atom_site_fract_y
_atom_site_fract_z
O1 O -0.6638(3) 1.2066(3) 0.7215(3)
O2 O -0.8098(2) 1.1009(3) 0.7982(2)
O3 O 0.2302(2) 0.6085(2) 0.29889(18)
O4 O 0.3381(2) 0.7355(2) 0.46085(19)
O5 O 0.1915(2) 0.6200(2) 0.55845(19)
O6 O -0.0677(2) 1.1040(2) 0.32708(19)
O7 O 0.0932(2) 1.1083(2) 0.14888(19)
N1 N -0.6923(3) 1.1052(3) 0.7400(2)
N2 N -0.1128(2) 0.7622(2) 0.46538(19)
N3 N 0.0255(2) 0.7482(2) 0.40444(19)
N4 N 0.1424(4) 0.4496(6) 0.1452(5)
N5 N 0.3979(3) 0.8271(3) 0.1581(2)
C1 C -0.4454(3) 0.9804(3) 0.6352(2)
H1 H -0.42200 1.05580 0.63150
C2 C -0.5830(3) 0.9834(3) 0.6891(2)
C3 C -0.6223(3) 0.8768(3) 0.6966(3)
H2 H -0.71790 0.88230 0.73320
C4 C -0.5177(3) 0.7614(3) 0.6491(3)
H3 H -0.54170 0.68600 0.65390
C5 C -0.3802(3) 0.7544(3) 0.5955(2)
H4 H -0.30970 0.67400 0.56400
C6 C -0.3426(3) 0.8651(3) 0.5867(2)
C7 C -0.1968(3) 0.8599(3) 0.5240(2)
H5 H -0.16590 0.92740 0.52700
C8 C 0.1009(3) 0.6428(3) 0.3410(2)
C9 C 0.0142(3) 0.5737(3) 0.3249(3)
H6 H -0.00350 0.50610 0.39920
H7 H -0.08040 0.64600 0.31090
C10 C 0.0885(4) 0.5023(4) 0.2262(4)
C11 C 0.1064(3) 0.8224(3) 0.4150(2)
H8 H 0.03740 0.88930 0.46940
C12 C 0.1527(3) 0.9097(3) 0.2980(2)
C13 C 0.2808(3) 0.8615(3) 0.2227(2)
C14 C 0.2284(3) 0.7208(3) 0.4777(2)
C15 C 0.2911(4) 0.5292(4) 0.6346(4)
H9 H 0.25560 0.45880 0.69100
H10 H 0.29950 0.58480 0.67930
H11 H 0.38590 0.48240 0.58530
C16 C 0.0480(3) 1.0483(3) 0.2624(3)
C17 C -0.0048(4) 1.2456(4) 0.1034(4)
H12 H 0.03900 1.27820 0.02040
H13 H -0.02490 1.31100 0.15270
H14 H -0.09500 1.24060 0.10600
C18 C 0.4661(3) 0.7529(3) 0.0549(3)
C19 C 0.5531(4) 0.8304(4) -0.0397(3)
H15 H 0.62750 0.82740 -0.00760
H16 H 0.48940 0.92800 -0.06300
H17 H 0.59900 0.78610 -0.10990
C20 C 0.5620(4) 0.6052(4) 0.1038(3)
H18 H 0.63630 0.60850 0.13170
H19 H 0.60810 0.55020 0.04040
H20 H 0.50360 0.56140 0.17080
C21 C 0.3493(4) 0.7533(4) 0.0103(3)
H21 H 0.29540 0.70220 0.07420
H22 H 0.39360 0.70780 -0.05920
H23 H 0.28360 0.85000 -0.01290
#END
