
#######################################################################
#
#                 Cambridge Crystallographic Data Centre
#                                CCDC
#
#######################################################################
#
# If this CIF has been generated from an entry in the Cambridge
# Structural Database, then it will include bibliographic, chemical,
# crystal, experimental, refinement or atomic coordinate data resulting
# from the CCDC's data processing and validation procedures.
#
#######################################################################

data_CSD_CIF_GAZHAT
_audit_creation_date 2017-08-02
_audit_creation_method CSD-ConQuest-V1
_database_code_CSD GAZHAT
_database_code_depnum_ccdc_archive 'CCDC 1446087'
_chemical_formula_sum 'C10 H7 N3 O3'
_chemical_formula_moiety
;
C10 H7 N3 O3
;
_journal_coden_Cambridge 214
_journal_volume 148
_journal_year 2017
_journal_page_first 991
_journal_name_full 'Monatsh.Chem. '
loop_
_publ_author_name
"K.Heintz"
"Wolfgang Imhof"
"H.Gorls"
_chemical_name_systematic
;
4-nitro-2-(pyridin-2-yl)pyridine N-oxide
;
_cell_volume    939.109
_exptl_crystal_colour 'colorless'
_exptl_crystal_density_diffrn 1.536
_exptl_crystal_description 'prism'
_diffrn_ambient_temperature 133
#These two values have been output from a single CSD field.
_refine_ls_R_factor_gt 0.0509
_refine_ls_wR_factor_gt 0.0509
_symmetry_cell_setting orthorhombic
_symmetry_space_group_name_H-M 'P 21 21 21'
_symmetry_Int_Tables_number 19
loop_
_symmetry_equiv_pos_site_id
_symmetry_equiv_pos_as_xyz
1 x,y,z
2 1/2-x,-y,1/2+z
3 -x,1/2+y,1/2-z
4 1/2+x,1/2-y,-z
_cell_length_a 6.9940(1)
_cell_length_b 10.4261(2)
_cell_length_c 12.8786(3)
_cell_angle_alpha 90
_cell_angle_beta 90
_cell_angle_gamma 90
_cell_formula_units_Z 4
loop_
_atom_type_symbol
_atom_type_radius_bond
C 0.68
H 0.23
N 0.68
O 0.68
loop_
_atom_site_label
_atom_site_type_symbol
_atom_site_fract_x
_atom_site_fract_y
_atom_site_fract_z
O1 O -0.9771(3) -0.8718(2) -0.65077(14)
O2 O -0.7434(3) -0.36751(19) -0.43512(16)
O3 O -0.7990(4) -0.2980(2) -0.5897(2)
N1 N -0.9321(3) -0.7978(2) -0.34219(17)
N2 N -0.9330(3) -0.7574(2) -0.61941(16)
N3 N -0.7962(3) -0.3748(2) -0.52751(15)
C1 C -0.9338(4) -0.8843(3) -0.2660(2)
H1 H -0.965(5) -0.854(3) -0.196(3)
C2 C -0.8938(4) -1.0144(3) -0.2802(2)
H2 H -0.902(5) -1.070(3) -0.218(3)
C3 C -0.8475(4) -1.0552(3) -0.3787(2)
H3 H -0.825(4) -1.146(4) -0.385(3)
C4 C -0.8463(3) -0.9677(3) -0.4606(2)
H4 H -0.818(4) -0.993(3) -0.529(3)
C5 C -0.8903(3) -0.8398(2) -0.43937(19)
C6 C -0.8877(3) -0.7345(2) -0.51679(18)
C7 C -0.8437(3) -0.6095(2) -0.48706(19)
H5 H -0.804(4) -0.601(3) -0.416(2)
C8 C -0.8431(3) -0.5133(2) -0.5595(2)
C9 C -0.8894(4) -0.5362(3) -0.6634(2)
H6 H -0.893(4) -0.471(3) -0.714(2)
C10 C -0.9340(4) -0.6594(3) -0.69022(19)
H7 H -0.962(4) -0.692(3) -0.762(2)
#END
