
#######################################################################
#
#                 Cambridge Crystallographic Data Centre
#                                CCDC
#
#######################################################################
#
# If this CIF has been generated from an entry in the Cambridge
# Structural Database, then it will include bibliographic, chemical,
# crystal, experimental, refinement or atomic coordinate data resulting
# from the CCDC's data processing and validation procedures.
#
#######################################################################

data_CSD_CIF_GAZNEC
_audit_creation_date 2012-10-16
_audit_creation_method CSD-ConQuest-V1
_database_code_CSD GAZNEC
_database_code_depnum_ccdc_archive 'CCDC 857278'
_chemical_formula_sum 'C22 H24 N2 O2'
_chemical_formula_moiety
;
C22 H24 N2 O2
;
_journal_coden_Cambridge 1090
_journal_volume 23
_journal_year 2012
_journal_page_first 278
_journal_name_full 'Tetrahedron:Asymm. '
loop_
_publ_author_name
"T.Olszewska"
"M.J.Milewska"
"M.Gdaniec"
"T.Polonski"
_chemical_name_systematic
;
2,4-bis(2-methylphenyl)-3-nitroso-3-azabicyclo[3.3.1]nonan-9-one
;
_chemical_name_common
;
N-Nitroso-2,4-bis(2-methylphenyl)-3-azabicyclo[3.3.1]nonan-9-one
;
_chemical_melting_point 471
_cell_volume   1866.634
_exptl_crystal_colour 'yellow'
_exptl_crystal_density_diffrn 1.24
_exptl_crystal_description 'block'
_diffrn_ambient_temperature 293
_refine_special_details
;
N2,O2 and N2',O2' disordered over two sites with occupancies 0.881:0.119.

;
#These two values have been output from a single CSD field.
_refine_ls_R_factor_gt 0.0354
_refine_ls_wR_factor_gt 0.0354
_symmetry_cell_setting orthorhombic
_symmetry_space_group_name_H-M 'P 21 21 21'
_symmetry_Int_Tables_number 19
loop_
_symmetry_equiv_pos_site_id
_symmetry_equiv_pos_as_xyz
1 x,y,z
2 1/2-x,-y,1/2+z
3 -x,1/2+y,1/2-z
4 1/2+x,1/2-y,-z
_cell_length_a 6.9909(1)
_cell_length_b 8.0891(2)
_cell_length_c 33.0085(7)
_cell_angle_alpha 90
_cell_angle_beta 90
_cell_angle_gamma 90
_cell_formula_units_Z 4
loop_
_atom_type_symbol
_atom_type_radius_bond
C 0.68
H 0.23
N 0.68
O 0.68
loop_
_atom_site_label
_atom_site_type_symbol
_atom_site_fract_x
_atom_site_fract_y
_atom_site_fract_z
O1 O 0.4111(3) 0.6628(2) 0.06800(4)
N1 N 0.2842(3) 0.19354(17) 0.16007(5)
O2 O 0.2822(2) 0.06136(15) 0.14162(4)
C1 C 0.2523(2) 0.63622(17) 0.13226(4)
H1 H 0.34300 0.72230 0.14050
C2 C 0.2999(2) 0.47745(17) 0.15678(4)
H2 H 0.43920 0.46460 0.15580
N2 N 0.21717(17) 0.32459(13) 0.13815(3)
C3 C 0.18932(19) 0.30522(16) 0.09384(4)
H3 H 0.31000 0.26300 0.08280
C4 C 0.1496(2) 0.47278(17) 0.07248(4)
H4 H 0.17500 0.45820 0.04350
C5 C -0.0540(3) 0.54081(19) 0.07695(5)
H5 H -0.06910 0.63450 0.05890
H6 H -0.14410 0.45630 0.06850
C6 C -0.1034(3) 0.5949(2) 0.11977(5)
H7 H -0.22440 0.65360 0.11950
H8 H -0.11800 0.49800 0.13680
C7 C 0.0502(3) 0.70605(18) 0.13738(5)
H9 H 0.02510 0.72220 0.16600
H10 H 0.04360 0.81320 0.12430
C8 C 0.2872(3) 0.59903(19) 0.08825(5)
C9 C 0.0357(2) 0.18007(15) 0.08306(4)
C10 C 0.0519(2) 0.08923(17) 0.04709(4)
C11 C -0.0961(3) -0.01725(19) 0.03651(5)
H11 H -0.08660 -0.07760 0.01260
C12 C -0.2561(3) -0.0360(2) 0.06039(7)
H12 H -0.35380 -0.10710 0.05250
C13 C -0.2699(2) 0.0516(2) 0.09597(7)
H13 H -0.37650 0.03850 0.11250
C14 C -0.1252(2) 0.15927(18) 0.10719(5)
H14 H -0.13610 0.21850 0.13120
C15 C 0.2468(2) 0.49260(16) 0.20133(4)
C16 C 0.3728(2) 0.5715(2) 0.22804(5)
C17 C 0.3164(3) 0.5843(2) 0.26884(5)
H15 H 0.39790 0.63640 0.28710
C18 C 0.1462(3) 0.5228(2) 0.28257(5)
H16 H 0.11380 0.53300 0.30980
C19 C 0.0750(2) 0.4317(2) 0.21593(4)
H17 H -0.00830 0.37930 0.19810
C20 C 0.0235(3) 0.4463(2) 0.25624(5)
H18 H -0.09280 0.40470 0.26530
C21 C 0.2243(4) 0.0988(3) 0.01979(5)
H19 H 0.21850 0.01160 0.00010
H20 H 0.33850 0.08720 0.03570
H21 H 0.22570 0.20370 0.00620
C22 C 0.5638(3) 0.6387(3) 0.21536(7)
H22 H 0.63680 0.55270 0.20260
H23 H 0.63130 0.67830 0.23880
H24 H 0.54540 0.72800 0.19660
N3? N 0.248(2) 0.1654(7) 0.1490(4)
O3? O 0.3413(13) 0.1519(9) 0.1807(2)
#END
