
#######################################################################
#
#                 Cambridge Crystallographic Data Centre
#                                CCDC
#
#######################################################################
#
# If this CIF has been generated from an entry in the Cambridge
# Structural Database, then it will include bibliographic, chemical,
# crystal, experimental, refinement or atomic coordinate data resulting
# from the CCDC's data processing and validation procedures.
#
#######################################################################

data_CSD_CIF_GAZPEE
_audit_creation_date 2012-10-16
_audit_creation_method CSD-ConQuest-V1
_database_code_CSD GAZPEE
_database_code_depnum_ccdc_archive 'CCDC 857283'
_chemical_formula_sum 'C21 H24 N2 O1'
_chemical_formula_moiety
;
C21 H24 N2 O1
;
_journal_coden_Cambridge 1090
_journal_volume 23
_journal_year 2012
_journal_page_first 278
_journal_name_full 'Tetrahedron:Asymm. '
loop_
_publ_author_name
"T.Olszewska"
"M.J.Milewska"
"M.Gdaniec"
"T.Polonski"
_chemical_name_systematic
;
(1R)-N-Nitroso-1-methyl-2,4-diphenyl-3-azabicyclo[3.3.1]nonane
;
_chemical_name_common
;
1-Methyl-3-nitroso-2,4-diphenyl-3-azabicyclo[3.3.1]nonane
;
_chemical_melting_point 447
_cell_volume   1768.564
_exptl_crystal_colour 'yellow'
_exptl_crystal_density_diffrn 1.203
_exptl_crystal_description 'prism'
_diffrn_ambient_temperature 293
#These two values have been output from a single CSD field.
_refine_ls_R_factor_gt 0.0334
_refine_ls_wR_factor_gt 0.0334
_symmetry_cell_setting monoclinic
_symmetry_space_group_name_H-M 'P 21'
_symmetry_Int_Tables_number 4
loop_
_symmetry_equiv_pos_site_id
_symmetry_equiv_pos_as_xyz
1 x,y,z
2 -x,1/2+y,-z
_cell_length_a 11.483(2)
_cell_length_b 12.922(3)
_cell_length_c 11.996(2)
_cell_angle_alpha 90
_cell_angle_beta 96.50(3)
_cell_angle_gamma 90
_cell_formula_units_Z 4
loop_
_atom_type_symbol
_atom_type_radius_bond
C 0.68
H 0.23
N 0.68
O 0.68
loop_
_atom_site_label
_atom_site_type_symbol
_atom_site_fract_x
_atom_site_fract_y
_atom_site_fract_z
N1 N 1.06288(18) 0.28114(18) 0.07144(18)
O1 O 1.11023(17) 0.27961(17) -0.01571(16)
C1 C 0.8716(2) 0.4647(2) 0.2033(2)
C2 C 0.95312(19) 0.3706(2) 0.19029(18)
H1 H 1.02840 0.39060 0.22690
N2 N 0.97413(16) 0.34994(15) 0.07155(15)
C3 C 0.9554(2) 0.4244(2) -0.02298(19)
H2 H 1.03140 0.45230 -0.03140
C4 C 0.8773(3) 0.5166(2) 0.0028(2)
H3 H 0.89650 0.57330 -0.04340
C5 C 0.7447(3) 0.4978(3) -0.0222(2)
H4 H 0.70310 0.56130 -0.01390
H5 H 0.72690 0.47500 -0.09830
C6 C 0.7013(2) 0.4176(3) 0.0552(3)
H6 H 0.73080 0.35110 0.03660
H7 H 0.61730 0.41460 0.04380
C7 C 0.7406(2) 0.4413(3) 0.1773(2)
H8 H 0.72200 0.38290 0.22130
H9 H 0.69650 0.49930 0.19990
C8 C 0.9067(3) 0.5492(2) 0.1246(2)
H10 H 0.98930 0.56220 0.13960
H11 H 0.86610 0.61210 0.13830
C9 C 0.9205(2) 0.2722(2) 0.2485(2)
C10 C 0.8457(3) 0.1983(2) 0.1979(2)
H12 H 0.81550 0.20650 0.12050
C11 C 0.8152(3) 0.1115(3) 0.2574(3)
H13 H 0.76230 0.06070 0.22200
C12 C 0.8589(4) 0.0981(3) 0.3668(3)
H14 H 0.83680 0.03840 0.40720
C13 C 0.9344(4) 0.1702(4) 0.4182(3)
H15 H 0.96530 0.16130 0.49540
C14 C 0.9654(3) 0.2563(3) 0.3598(2)
H16 H 1.01780 0.30720 0.39600
C15 C 0.9135(2) 0.3731(2) -0.1332(2)
C16 C 0.8539(3) 0.2800(3) -0.1419(2)
H17 H 0.84310 0.24260 -0.07460
C17 C 0.8110(3) 0.2402(4) -0.2450(3)
H18 H 0.76730 0.17640 -0.25000
C18 C 0.8282(4) 0.2932(5) -0.3420(3)
H19 H 0.79750 0.26470 -0.41320
C19 C 0.8894(4) 0.3845(5) -0.3345(3)
H20 H 0.90220 0.42040 -0.40220
C20 C 0.9318(3) 0.4256(3) -0.2307(2)
H21 H 0.97570 0.48900 -0.22620
C21 C 0.8939(3) 0.5029(3) 0.3240(3)
H22 H 0.84320 0.56040 0.33430
H23 H 0.97410 0.52400 0.34120
H24 H 0.87730 0.44740 0.37290
N3 N 0.7563(2) -0.0596(2) -0.4205(2)
O2 O 0.79566(19) 0.00463(18) -0.35050(19)
C22 C 0.6343(2) -0.32452(19) -0.4162(2)
C23 C 0.6949(2) -0.2270(2) -0.4581(2)
H25 H 0.77610 -0.24540 -0.45560
N4 N 0.69299(17) -0.13635(16) -0.38053(16)
C24 C 0.6922(2) -0.1459(2) -0.25801(19)
H26 H 0.77290 -0.14790 -0.22680
C25 C 0.6363(2) -0.2485(2) -0.2244(2)
H27 H 0.66370 -0.26140 -0.14710
C26 C 0.5029(2) -0.2478(2) -0.2347(2)
H28 H 0.47630 -0.18990 -0.19430
H29 H 0.47510 -0.30990 -0.20250
C27 C 0.4484(2) -0.2401(2) -0.3557(2)
H30 H 0.46420 -0.17230 -0.38310
H31 H 0.36480 -0.24790 -0.36060
C28 C 0.4989(2) -0.3210(2) -0.4293(2)
H32 H 0.46770 -0.38780 -0.41400
H33 H 0.47380 -0.30420 -0.50620
C29 C 0.6792(2) -0.3368(2) -0.2922(2)
H34 H 0.65190 -0.40140 -0.26530
H35 H 0.76340 -0.33830 -0.28370
C30 C 0.6588(2) -0.1940(2) -0.5783(2)
C31 C 0.5518(3) -0.1479(2) -0.6134(2)
H36 H 0.50050 -0.13330 -0.55750
C32 C 0.5217(4) -0.1206(3) -0.7248(3)
H37 H 0.44570 -0.09040 -0.74420
C33 C 0.5985(5) -0.1376(3) -0.8024(3)
H38 H 0.57130 -0.11850 -0.87820
C34 C 0.7048(4) -0.1814(3) -0.7701(3)
H39 H 0.75790 -0.19170 -0.82550
C35 C 0.7357(3) -0.2096(3) -0.6586(3)
H40 H 0.81070 -0.24100 -0.63760
C36 C 0.6406(2) -0.0522(2) -0.2061(2)
C37 C 0.5628(2) 0.0158(2) -0.2650(2)
H41 H 0.53910 0.00360 -0.34320
C38 C 0.5187(3) 0.1010(2) -0.2119(3)
H42 H 0.46750 0.14870 -0.25470
C39 C 0.5502(3) 0.1177(2) -0.1004(3)
H43 H 0.51630 0.17550 -0.06540
C40 C 0.6262(3) 0.0508(3) -0.0405(2)
H44 H 0.64790 0.06400 0.03790
C41 C 0.6713(3) -0.0335(2) -0.0928(2)
H45 H 0.72470 -0.07970 -0.05050
C42 C 0.6736(3) -0.4165(2) -0.4824(3)
H46 H 0.75750 -0.42140 -0.47310
H47 H 0.64660 -0.40540 -0.56020
H48 H 0.64060 -0.47950 -0.45760
#END
