
#######################################################################
#
#                 Cambridge Crystallographic Data Centre
#                                CCDC
#
#######################################################################
#
# If this CIF has been generated from an entry in the Cambridge
# Structural Database, then it will include bibliographic, chemical,
# crystal, experimental, refinement or atomic coordinate data resulting
# from the CCDC's data processing and validation procedures.
#
#######################################################################

data_CSD_CIF_GAZPII
_audit_creation_date 2012-10-16
_audit_creation_method CSD-ConQuest-V1
_database_code_CSD GAZPII
_database_code_depnum_ccdc_archive 'CCDC 857284'
_chemical_formula_sum 'C21 H24 N2 O2'
_chemical_formula_moiety
;
C21 H24 N2 O2
;
_journal_coden_Cambridge 1090
_journal_volume 23
_journal_year 2012
_journal_page_first 278
_journal_name_full 'Tetrahedron:Asymm. '
loop_
_publ_author_name
"T.Olszewska"
"M.J.Milewska"
"M.Gdaniec"
"T.Polonski"
_chemical_name_systematic
;
(1R)-N-Nitro-1-methyl-2,4-diphenyl-3-azabicyclo[3.3.1]nonane
;
_chemical_name_common
;
1-Methyl-3-nitro-2,4-diphenyl-3-azabicyclo[3.3.1]nonane
;
_cell_volume   1823.213
_exptl_crystal_colour 'yellow'
_exptl_crystal_density_diffrn 1.226
_exptl_crystal_description 'needle'
_diffrn_ambient_temperature 294
#These two values have been output from a single CSD field.
_refine_ls_R_factor_gt 0.0331
_refine_ls_wR_factor_gt 0.0331
_symmetry_cell_setting monoclinic
_symmetry_space_group_name_H-M 'P 21'
_symmetry_Int_Tables_number 4
loop_
_symmetry_equiv_pos_site_id
_symmetry_equiv_pos_as_xyz
1 x,y,z
2 -x,1/2+y,-z
_cell_length_a 12.3866(1)
_cell_length_b 7.6774(1)
_cell_length_c 19.2324(1)
_cell_angle_alpha 90
_cell_angle_beta 94.536(1)
_cell_angle_gamma 90
_cell_formula_units_Z 4
loop_
_atom_type_symbol
_atom_type_radius_bond
C 0.68
H 0.23
N 0.68
O 0.68
loop_
_atom_site_label
_atom_site_type_symbol
_atom_site_fract_x
_atom_site_fract_y
_atom_site_fract_z
N1 N 0.51518(8) 0.27673(15) 0.29777(6)
O1 O 0.54510(8) 0.34227(14) 0.24454(5)
O2 O 0.53961(9) 0.33406(16) 0.35641(5)
C1 C 0.40865(12) -0.1454(2) 0.22023(8)
C2 C 0.45305(10) 0.04506(18) 0.22221(7)
H1 H 0.53020 0.03610 0.21460
N2 N 0.44767(8) 0.13191(15) 0.29158(5)
C3 C 0.44876(11) 0.03496(19) 0.35921(7)
H2 H 0.52470 0.02540 0.37740
C4 C 0.40515(13) -0.1535(2) 0.34913(8)
H3 H 0.43230 -0.22000 0.39040
C5 C 0.28158(14) -0.1716(2) 0.34301(10)
H4 H 0.26270 -0.29410 0.34450
H5 H 0.25260 -0.11490 0.38260
C6 C 0.23026(12) -0.0927(2) 0.27645(9)
H6 H 0.23650 0.03320 0.27890
H7 H 0.15390 -0.12190 0.27150
C7 C 0.28401(12) -0.1582(2) 0.21330(9)
H8 H 0.25660 -0.09180 0.17280
H9 H 0.26360 -0.27890 0.20520
C8 C 0.45308(14) -0.2354(2) 0.28700(9)
H10 H 0.43510 -0.35830 0.28470
H11 H 0.53130 -0.22460 0.29200
C9 C 0.45209(16) -0.2373(3) 0.15768(10)
H12 H 0.52940 -0.22440 0.15960
H13 H 0.42020 -0.18660 0.11530
H14 H 0.43400 -0.35890 0.15880
C10 C 0.40253(11) 0.1575(2) 0.16300(7)
C11 C 0.30679(12) 0.2498(2) 0.16675(9)
H15 H 0.27180 0.24870 0.20780
C12 C 0.26292(16) 0.3438(3) 0.10955(11)
H16 H 0.19860 0.40480 0.11260
C13 C 0.3131(2) 0.3473(3) 0.04903(11)
H17 H 0.28250 0.40860 0.01070
C14 C 0.4087(2) 0.2603(4) 0.04511(9)
H18 H 0.44380 0.26430 0.00410
C15 C 0.45386(15) 0.1658(3) 0.10176(8)
H19 H 0.51910 0.10770 0.09850
C16 C 0.3901(1) 0.13126(19) 0.41360(7)
C17 C 0.31217(12) 0.2568(2) 0.39753(8)
H20 H 0.29560 0.28870 0.35130
C18 C 0.25851(15) 0.3356(3) 0.44961(9)
H21 H 0.20580 0.41920 0.43800
C19 C 0.28263(15) 0.2910(3) 0.51842(9)
H22 H 0.24650 0.34440 0.55320
C20 C 0.36018(14) 0.1677(3) 0.53531(8)
H23 H 0.37680 0.13730 0.58170
C21 C 0.41392(12) 0.0880(2) 0.48338(7)
H24 H 0.46660 0.00460 0.49530
N3 N 0.74530(8) 0.13616(14) 0.23608(6)
O3 O 0.71831(8) 0.07800(15) 0.17788(5)
O4 O 0.72014(8) 0.06977(14) 0.29041(5)
C22 C 0.84506(12) 0.57391(19) 0.18134(7)
C23 C 0.80469(10) 0.38169(18) 0.17316(6)
H25 H 0.72780 0.38780 0.15670
N4 N 0.81054(8) 0.28364(14) 0.24073(5)
C24 C 0.80892(10) 0.36793(17) 0.31064(6)
H26 H 0.73290 0.37320 0.32130
C25 C 0.85054(12) 0.55707(19) 0.31094(7)
H27 H 0.82310 0.61450 0.35150
C26 C 0.97330(13) 0.5806(2) 0.31727(7)
H28 H 0.99010 0.70280 0.32490
H29 H 1.00390 0.51610 0.35750
C27 C 1.02528(12) 0.5187(2) 0.25290(7)
H30 H 1.10090 0.55280 0.25620
H31 H 1.02200 0.39250 0.25060
C28 C 0.96862(13) 0.5948(2) 0.18706(7)
H32 H 0.99710 0.53930 0.14700
H33 H 0.98580 0.71790 0.18510
C29 C 0.79976(15) 0.6498(2) 0.24655(7)
H34 H 0.81570 0.77340 0.24970
H35 H 0.72170 0.63530 0.24370
C30 C 0.79793(17) 0.6765(2) 0.11747(8)
H36 H 0.72070 0.66200 0.11250
H37 H 0.82850 0.63390 0.07640
H38 H 0.81510 0.79780 0.12360
C31 C 0.86053(11) 0.28058(19) 0.11794(6)
C32 C 0.95238(11) 0.1817(2) 0.13321(8)
H39 H 0.98220 0.17500 0.17900
C33 C 1.00108(14) 0.0919(3) 0.08133(9)
H40 H 1.06250 0.02510 0.09290
C34 C 0.95991(19) 0.1007(3) 0.01398(9)
H41 H 0.99270 0.04020 -0.02060
C35 C 0.8690(2) 0.2001(3) -0.00278(8)
H42 H 0.84130 0.20870 -0.04900
C36 C 0.81821(15) 0.2880(2) 0.04916(7)
H43 H 0.75560 0.35180 0.03750
C37 C 0.86785(9) 0.26124(18) 0.36787(6)
C38 C 0.95590(11) 0.1568(2) 0.35826(7)
H44 H 0.97880 0.14240 0.31370
C39 C 1.01048(13) 0.0734(3) 0.41432(8)
H45 H 1.06990 0.00350 0.40720
C40 C 0.97772(15) 0.0929(2) 0.48008(8)
H46 H 1.01490 0.03710 0.51760
C41 C 0.89054(16) 0.1944(2) 0.49022(7)
H47 H 0.86850 0.20870 0.53500
C42 C 0.83424(12) 0.2768(2) 0.43452(7)
H48 H 0.77340 0.34320 0.44190
#END
