
#######################################################################
#
#                 Cambridge Crystallographic Data Centre
#                                CCDC
#
#######################################################################
#
# If this CIF has been generated from an entry in the Cambridge
# Structural Database, then it will include bibliographic, chemical,
# crystal, experimental, refinement or atomic coordinate data resulting
# from the CCDC's data processing and validation procedures.
#
#######################################################################

data_CSD_CIF_GAZXAG
_audit_creation_date 1989-02-16
_audit_creation_method CSD-ConQuest-V1
_database_code_CSD GAZXAG
_database_code_depnum_ccdc_archive 'CCDC 1164818'
_chemical_formula_sum 'C19 H23 N1 O10'
_chemical_formula_moiety
;
C19 H23 N1 O10
;
_journal_coden_Cambridge 156
_journal_volume 164
_journal_year 1987
_journal_page_first 357
_journal_name_full 'Carbohydr.Res. '
loop_
_publ_author_name
"F.W.Lichtenthaler"
"A.Pashalidis"
"H.J.Lindner"
_chemical_name_systematic
;
Benzyl 1,3,5-tri-O-acetyl-4-deoxy-4-nitro-\a-L-tagatopyranoside
;
_chemical_melting_point 434.15
_cell_volume   2085.312
_exptl_special_details
;
Melting point range 434.15-435.15K
We calculate dx = 1.35

;
_diffrn_ambient_temperature ?
_diffrn_special_details
;
The study was carried out at room temperature,in the range 283-303K

;
#These two values have been output from a single CSD field.
_refine_ls_R_factor_gt 0.074
_refine_ls_wR_factor_gt 0.074
_symmetry_cell_setting orthorhombic
_symmetry_space_group_name_H-M 'P 21 21 21'
_symmetry_Int_Tables_number 19
loop_
_symmetry_equiv_pos_site_id
_symmetry_equiv_pos_as_xyz
1 x,y,z
2 1/2+x,1/2-y,-z
3 -x,1/2+y,1/2-z
4 1/2-x,-y,1/2+z
_cell_length_a 16.393
_cell_length_b 14.892
_cell_length_c 8.542
_cell_angle_alpha 90
_cell_angle_beta 90
_cell_angle_gamma 90
_cell_formula_units_Z 4
loop_
_atom_type_symbol
_atom_type_radius_bond
C 0.68
H 0.23
N 0.68
O 0.68
loop_
_atom_site_label
_atom_site_type_symbol
_atom_site_fract_x
_atom_site_fract_y
_atom_site_fract_z
C1 C 0.0934(4) 0.2614(4) 0.1001(10)
C2 C 0.0223(4) 0.3053(5) 0.1924(11)
H1 H 0.0435(65) 0.3182(69) 0.294(14)
C3 C -0.0175(4) 0.3737(4) 0.0876(11)
H2 H 0.0231(59) 0.4216(70) 0.024(13)
C4 C -0.0403(4) 0.3376(4) -0.0684(10)
H3 H -0.0864(64) 0.3032(67) -0.027(14)
C5 C 0.0348(4) 0.2941(5) -0.1439(10)
H4 H 0.0806(65) 0.3474(68) -0.174(14)
H5 H 0.0140(69) 0.2658(76) -0.225(16)
O1 O 0.0694(3) 0.2275(3) -0.0435(7)
C6 C 0.1291(5) 0.1814(5) 0.1930(12)
H6 H 0.1674(65) 0.1538(70) 0.111(13)
H7 H 0.0876(67) 0.1376(77) 0.212(14)
O2 O 0.1603(3) 0.2142(3) 0.3348(7)
C7 C 0.1598(6) 0.1601(5) 0.4584(12)
C8 C 0.2012(7) 0.2016(7) 0.5967(14)
H8 H 0.1880(7) 0.1631(7) 0.7009(14)
H9 H 0.1735(7) 0.2672(7) 0.6061(14)
H10 H 0.2665(7) 0.2089(7) 0.5843(14)
O3 O 0.1308(7) 0.0878(4) 0.4549(10)
O4 O -0.0361(3) 0.2343(3) 0.2262(7)
C9 C -0.0485(4) 0.2140(6) 0.3807(14)
C10 C -0.1049(6) 0.1356(7) 0.3947(15)
H11 H -0.1158(6) 0.1085(7) 0.5101(15)
H12 H -0.0753(6) 0.0855(7) 0.3231(15)
H13 H -0.1623(6) 0.1543(7) 0.3420(15)
O5 O -0.0202(5) 0.2561(6) 0.4841(10)
N1 N -0.0945(6) 0.4066(5) 0.1786(12)
O6 O -0.1610(4) 0.3849(4) 0.1233(12)
O7 O -0.0794(6) 0.4513(6) 0.2926(10)
O8 O -0.0630(3) 0.4128(3) -0.1669(7)
C11 C -0.1281(5) 0.4039(6) -0.2615(12)
C12 C -0.1452(6) 0.4887(6) -0.3480(13)
H14 H -0.1981(6) 0.4800(6) -0.4218(13)
H15 H -0.0937(6) 0.5083(6) -0.4189(13)
H16 H -0.1574(6) 0.5401(6) -0.2620(13)
O9 O -0.1642(4) 0.3342(5) -0.2723(12)
O10 O 0.1501(2) 0.3344(3) 0.0885(6)
C13 C 0.2262(5) 0.3113(6) 0.0159(14)
H17 H 0.2481(56) 0.2708(63) 0.109(13)
H18 H 0.2196(66) 0.3004(73) -0.089(15)
C14 C 0.2818(4) 0.3932(4) 0.0276(10)
C15 C 0.3478(4) 0.3920(5) 0.1282(11)
H19 H 0.3642(58) 0.3432(60) 0.189(12)
C16 C 0.3991(5) 0.4665(7) 0.1304(14)
H20 H 0.4362(65) 0.4554(67) 0.202(12)
C17 C 0.3865(6) 0.5383(7) 0.0426(14)
H21 H 0.4214(60) 0.5883(61) 0.065(11)
C18 C 0.3220(7) 0.5411(6) -0.0545(14)
H22 H 0.3176(56) 0.5946(64) -0.166(13)
C19 C 0.2681(5) 0.4674(6) -0.0643(13)
H23 H 0.2305(57) 0.4750(62) -0.160(13)
#END
