
#######################################################################
#
#                 Cambridge Crystallographic Data Centre
#                                CCDC
#
#######################################################################
#
# If this CIF has been generated from an entry in the Cambridge
# Structural Database, then it will include bibliographic, chemical,
# crystal, experimental, refinement or atomic coordinate data resulting
# from the CCDC's data processing and validation procedures.
#
#######################################################################

data_CSD_CIF_GAZXIO
_audit_creation_date 1989-02-16
_audit_creation_method CSD-ConQuest-V1
_database_code_CSD GAZXIO
_database_code_depnum_ccdc_archive 'CCDC 1164820'
_chemical_formula_sum 'C13 H24 N3 O1'
_chemical_formula_moiety
;
C13 H24 N3 O1
;
_journal_coden_Cambridge 122
_journal_year 1987
_journal_page_first 792
_journal_name_full 'Khim.Get.Soedin.,SSSR(Russ.)(Chem.Heterocycl.Compd.) '
loop_
_publ_author_name
"M.M.Mitasov"
"Yu.V.Gatilov"
"I.A.Grigor'ev"
"G.I.Shchukin"
"I.K.Korobeinicheva"
"L.B.Volodarskii"
_chemical_name_systematic
;
4-(1-t-Butyliminoethyl)-2,2,5,5-tetramethyl-3-imidazoline 1-oxide
;
_cell_volume   1454.174
_diffrn_ambient_temperature 208.15
_refine_special_details
;
Two positions are published for the t-butyl group. One set retained.

;
#These two values have been output from a single CSD field.
_refine_ls_R_factor_gt 0.09
_refine_ls_wR_factor_gt 0.09
_symmetry_cell_setting orthorhombic
_symmetry_space_group_name_H-M 'P c 21 n'
_symmetry_Int_Tables_number 33
loop_
_symmetry_equiv_pos_site_id
_symmetry_equiv_pos_as_xyz
1 x,y,z
2 1/2-x,y,1/2+z
3 1/2+x,1/2+y,1/2-z
4 -x,1/2+y,-z
_cell_length_a 6.856(2)
_cell_length_b 9.903(2)
_cell_length_c 21.418(5)
_cell_angle_alpha 90
_cell_angle_beta 90
_cell_angle_gamma 90
_cell_formula_units_Z 4
loop_
_atom_type_symbol
_atom_type_radius_bond
C 0.68
N 0.68
O 0.68
loop_
_atom_site_label
_atom_site_type_symbol
_atom_site_fract_x
_atom_site_fract_y
_atom_site_fract_z
N1 N 0.3171(9) 0.2536(19) 0.2030(3)
C1 C 0.5296(11) 0.2501(22) 0.2089(3)
N2 N 0.5998(8) 0.2665(21) 0.1450(3)
C2 C 0.4564(10) 0.2418(18) 0.1068(3)
C3 C 0.2554(11) 0.2468(19) 0.1365(3)
C4 C 0.5982(22) 0.3763(22) 0.2407(6)
C5 C 0.5982(25) 0.1223(22) 0.2432(7)
C6 C 0.1296(23) 0.3771(16) 0.1176(6)
C7 C 0.1351(19) 0.1220(16) 0.1252(5)
C8 C 0.4875(11) 0.2473(21) 0.0377(4)
N3 N 0.3403(8) 0.2585(16) 0.0044(3)
C9 C 0.7036(14) 0.2100(15) 0.0197(5)
C10 C 0.3382(10) 0.2467(16) -0.0650(4)
C11 C 0.4976(23) 0.3248(21) -0.0982(8)
C12 C 0.4489(31) 0.1235(24) -0.0891(12)
C13 C 0.1416(28) 0.3165(31) -0.0796(16)
O1 O 0.2014(8) 0.26320 0.2491(3)
#END
