
#######################################################################
#
#                 Cambridge Crystallographic Data Centre
#                                CCDC
#
#######################################################################
#
# If this CIF has been generated from an entry in the Cambridge
# Structural Database, then it will include bibliographic, chemical,
# crystal, experimental, refinement or atomic coordinate data resulting
# from the CCDC's data processing and validation procedures.
#
#######################################################################

data_CSD_CIF_GEBXOC
_audit_creation_date 2012-11-07
_audit_creation_method CSD-ConQuest-V1
_database_code_CSD GEBXOC
_database_code_depnum_ccdc_archive 'CCDC 871207'
_chemical_formula_sum 'C8 H9 N1 O4'
_chemical_formula_moiety
;
C8 H9 N1 O4
;
_journal_coden_Cambridge 1127
_journal_volume 22
_journal_year 2012
_journal_page_first 4629
_journal_name_full 'Bioorg.Med.Chem.Lett. '
loop_
_publ_author_name
"B.Dulla"
"Baojie Wan"
"S.G.Franzblau"
"R.Kapavarapu"
"O.Reiser"
"J.Iqbal"
"M.Pal"
_chemical_name_systematic
;
Methyl 1-hydroxy-6-methyl-2-oxo-1,2-dihydropyridine-4-carboxylate
;
_cell_volume   1676.196
_exptl_crystal_colour 'colorless'
_exptl_crystal_density_diffrn 1.452
_exptl_crystal_description 'needle'
_diffrn_ambient_temperature 295
#These two values have been output from a single CSD field.
_refine_ls_R_factor_gt 0.0821
_refine_ls_wR_factor_gt 0.0821
_symmetry_cell_setting orthorhombic
_symmetry_space_group_name_H-M 'P n a 21'
_symmetry_Int_Tables_number 33
loop_
_symmetry_equiv_pos_site_id
_symmetry_equiv_pos_as_xyz
1 x,y,z
2 -x,-y,1/2+z
3 1/2-x,1/2+y,1/2+z
4 1/2+x,1/2-y,z
_cell_length_a 23.0338(6)
_cell_length_b 4.03878(10)
_cell_length_c 18.0181(5)
_cell_angle_alpha 90
_cell_angle_beta 90
_cell_angle_gamma 90
_cell_formula_units_Z 8
loop_
_atom_type_symbol
_atom_type_radius_bond
C 0.68
H 0.23
N 0.68
O 0.68
loop_
_atom_site_label
_atom_site_type_symbol
_atom_site_fract_x
_atom_site_fract_y
_atom_site_fract_z
O1 O -0.08247(9) 0.2294(5) 0.02528(14)
O2 O -0.08513(10) 0.1228(6) 0.16920(14)
O3 O 0.08243(13) 0.7275(7) 0.27712(16)
O4 O 0.13163(13) 0.9145(8) 0.17946(18)
N1 N -0.04113(11) 0.3773(6) 0.07002(14)
C1 C -0.04503(13) 0.2985(8) 0.14462(16)
C2 C 0.00017(13) 0.4372(8) 0.18930(17)
C3 C 0.04378(13) 0.6211(7) 0.15825(18)
C4 C 0.09047(15) 0.7687(8) 0.2056(2)
C5 C 0.1251(2) 0.8675(13) 0.3252(3)
C6 C 0.04512(14) 0.6819(9) 0.08172(18)
C7 C 0.00232(13) 0.5544(7) 0.03714(17)
C8 C -0.00076(16) 0.6013(8) -0.0450(2)
O5 O 0.33926(9) 0.7642(5) 0.11302(14)
O6 O 0.34262(10) 0.8897(6) -0.03092(14)
O7 O 0.16796(13) 0.3748(7) -0.13980(16)
O8 O 0.12410(12) 0.1132(7) -0.04655(18)
N2 N 0.2983(1) 0.6287(6) 0.06688(14)
C9 C 0.30174(14) 0.7189(7) -0.00736(17)
C10 C 0.25589(13) 0.5917(7) -0.05233(18)
C11 C 0.21166(14) 0.4112(7) -0.02259(19)
C12 C 0.16289(14) 0.2807(8) -0.0693(2)
C13 C 0.1240(2) 0.2543(12) -0.1901(3)
C14 C 0.21035(14) 0.3376(8) 0.05384(18)
C15 C 0.25399(12) 0.4517(7) 0.09897(17)
C16 C 0.25670(16) 0.3956(8) 0.18028(19)
H1 H -0.10950 0.35840 0.01860
H2 H -0.00010 0.40190 0.24030
H3 H 0.12520 1.10400 0.31970
H4 H 0.16270 0.78150 0.31260
H5 H 0.11610 0.81140 0.37570
H6 H 0.07490 0.80810 0.06130
H7 H 0.00130 0.38970 -0.06910
H8 H 0.03110 0.73680 -0.06100
H9 H -0.03670 0.70750 -0.05770
H10 H 0.36430 0.62590 0.12210
H11 H 0.25620 0.63290 -0.10310
H12 H 0.08710 0.25160 -0.16540
H13 H 0.13380 0.03410 -0.20580
H14 H 0.12190 0.39710 -0.23260
H15 H 0.18010 0.21280 0.07360
H16 H 0.29220 0.28320 0.19240
H17 H 0.22420 0.26270 0.19540
H18 H 0.25540 0.60470 0.20560
#END
