
#######################################################################
#
#                 Cambridge Crystallographic Data Centre
#                                CCDC
#
#######################################################################
#
# If this CIF has been generated from an entry in the Cambridge
# Structural Database, then it will include bibliographic, chemical,
# crystal, experimental, refinement or atomic coordinate data resulting
# from the CCDC's data processing and validation procedures.
#
#######################################################################

data_CSD_CIF_GECCUM
_audit_creation_date 2001-04-02
_audit_creation_method CSD-ConQuest-V1
_database_code_CSD GECCUM
_chemical_formula_sum 'C15 H16 N2 O3'
_chemical_formula_moiety
;
C15 H16 N2 O3
;
_journal_coden_Cambridge 35
_journal_volume 64
_journal_year 1999
_journal_page_first 4617
_journal_name_full 'J.Org.Chem. '
loop_
_publ_author_name
"A.Padwa"
"M.A.Brodney"
"K.Satake"
"C.S.Straub"
_chemical_name_systematic
;
5-Hydroxy-syn-3a-methyl-5-(p-nitrophenyl)-3,3a,4,5-tetrahydro-2H-indole
;
_chemical_melting_point 482.15
_cell_volume   2714.734
_exptl_crystal_colour 'colorless'
_exptl_crystal_density_diffrn 1.332
_exptl_special_details
;
Melting point range 482.15-483.15K

;
_exptl_crystal_preparation 'ethyl acetate/hexane'
_diffrn_ambient_temperature ?
_diffrn_special_details
;
The study was carried out at room temperature,in the range 283-303K

;
#These two values have been output from a single CSD field.
_refine_ls_R_factor_gt 0.0487
_refine_ls_wR_factor_gt 0.0487
_symmetry_cell_setting monoclinic
_symmetry_space_group_name_H-M 'P 21/c'
_symmetry_Int_Tables_number 14
loop_
_symmetry_equiv_pos_site_id
_symmetry_equiv_pos_as_xyz
1 x,y,z
2 -x,1/2+y,1/2-z
3 -x,-y,-z
4 x,-1/2-y,-1/2+z
_cell_length_a 12.5172(12)
_cell_length_b 11.1252(8)
_cell_length_c 20.2504(14)
_cell_angle_alpha 90
_cell_angle_beta 105.704(8)
_cell_angle_gamma 90
_cell_formula_units_Z 8
loop_
_atom_type_symbol
_atom_type_radius_bond
C 0.68
H 0.23
N 0.68
O 0.68
loop_
_atom_site_label
_atom_site_type_symbol
_atom_site_fract_x
_atom_site_fract_y
_atom_site_fract_z
C1 C -0.3562(2) 1.1940(3) 0.0879(2)
C2 C -0.1908(2) 1.0547(3) 0.1407(1)
C3 C -0.1609(3) 1.2543(3) 0.0864(2)
C4 C -0.1488(2) 1.0505(3) 0.4296(2)
C5 C -0.3445(3) 0.9940(3) 0.4318(2)
C6 C -0.1149(2) 0.9404(3) 0.3955(2)
C7 C -0.3127(2) 1.1932(3) 0.3774(1)
C8 C -0.3922(3) 1.3041(3) 0.1211(2)
C9 C -0.6074(2) 1.1180(3) 0.3316(2)
C10 C -0.2736(2) 1.0630(3) 0.3934(1)
C11 C -0.4243(2) 1.2085(2) 0.3219(1)
C12 C 0.1054(2) 1.1319(3) 0.1867(2)
C13 C -0.1366(2) 1.2268(3) 0.2501(1)
C14 C 0.1966(2) 1.1329(3) 0.1598(2)
C15 C -0.6993(2) 1.1179(3) 0.3576(2)
C16 C -0.3695(2) 1.0228(3) 0.2668(1)
C17 C -0.4360(2) 1.1177(3) 0.2651(1)
C18 C -0.2290(2) 1.2479(2) 0.1904(1)
C19 C -0.0690(2) 1.1339(3) 0.2518(1)
C20 C -0.2316(2) 1.1835(3) 0.1245(1)
C21 C -0.2773(2) 1.0005(2) 0.3267(1)
C22 C -0.6278(2) 1.2936(3) 0.4242(1)
C23 C 0.1186(2) 0.9661(3) 0.0878(1)
C24 C 0.0214(2) 1.0486(3) 0.1652(1)
C25 C 0.0292(2) 0.9657(3) 0.1153(2)
C26 C -0.7072(2) 1.2054(3) 0.4037(1)
C27 C -0.5257(2) 1.2046(3) 0.3509(1)
C28 C 0.2012(2) 1.0491(3) 0.1111(1)
C29 C -0.5375(2) 1.2928(3) 0.3972(1)
C30 C -0.0787(2) 1.0427(2) 0.1953(1)
N1 N -0.3124(2) 1.3154(2) 0.1896(1)
N2 N -0.1943(2) 0.9325(2) 0.3269(1)
N3 N -0.8043(2) 1.2050(3) 0.4316(1)
N4 N 0.2981(2) 1.0489(3) 0.0828(1)
O1 O 0.3716(2) 1.1215(3) 0.1047(1)
O2 O -0.8742(2) 1.1264(3) 0.4125(1)
O3 O -0.0717(2) 0.9233(2) 0.2244(1)
O4 O -0.4273(2) 1.3278(2) 0.2942(1)
O5 O -0.8108(2) 1.2825(2) 0.4733(1)
O6 O 0.2999(2) 0.9750(2) 0.0379(1)
H1 H -0.36840 1.20570 0.03900
H2 H -0.39610 1.12280 0.09550
H3 H -0.18450 1.01720 0.09870
H4 H -0.24640 1.01060 0.15620
H5 H -0.08380 1.24610 0.11040
H6 H -0.18140 1.33770 0.08440
H7 H -0.17350 1.22340 0.04070
H8 H -0.10810 1.12120 0.42230
H9 H -0.13640 1.03800 0.47850
H10 H -0.42160 1.00340 0.40820
H11 H -0.33090 1.02520 0.47760
H12 H -0.32520 0.91030 0.43380
H13 H -0.03970 0.94920 0.39160
H14 H -0.11860 0.86860 0.42200
H15 H -0.25590 1.23660 0.36280
H16 H -0.31930 1.23040 0.41940
H17 H -0.39030 1.37540 0.09390
H18 H -0.46700 1.29370 0.12530
H19 H -0.60070 1.05870 0.30060
H20 H 0.10100 1.18830 0.21970
H21 H -0.12450 1.27860 0.28750
H22 H 0.25300 1.18910 0.17450
H23 H -0.75430 1.05980 0.34410
H24 H -0.38250 0.97080 0.22950
H25 H -0.49400 1.12850 0.22570
H26 H -0.01080 1.12440 0.29130
H27 H -0.63480 1.35230 0.45540
H28 H 0.12290 0.91110 0.05400
H29 H -0.02680 0.90900 0.10020
H30 H -0.48370 1.35230 0.41020
H31 H -0.123(3) 0.925(3) 0.2476(18)
H32 H -0.390(3) 1.324(4) 0.2615(19)
#END
