
#######################################################################
#
#                 Cambridge Crystallographic Data Centre
#                                CCDC
#
#######################################################################
#
# If this CIF has been generated from an entry in the Cambridge
# Structural Database, then it will include bibliographic, chemical,
# crystal, experimental, refinement or atomic coordinate data resulting
# from the CCDC's data processing and validation procedures.
#
#######################################################################

data_CSD_CIF_GECPEL
_audit_creation_date 2012-09-26
_audit_creation_method CSD-ConQuest-V1
_database_code_CSD GECPEL
_database_code_depnum_ccdc_archive 'CCDC 824582'
_chemical_formula_sum 'C12 H15 N5 O2'
_chemical_formula_moiety
;
C12 H15 N5 O2
;
_journal_coden_Cambridge 16
_journal_volume 68
_journal_year 2012
_journal_page_first 5066
_journal_name_full 'Tetrahedron '
loop_
_publ_author_name
"S.Guin"
"S.K.Rout"
"N.Khatun"
"T.Ghosh"
"B.K.Patel"
_chemical_name_systematic
;
4-Butyl-N-(3-nitrophenyl)-4H-1,2,4-triazol-3-amine
;
_cell_volume   2630.351
_exptl_crystal_colour 'colorless'
_exptl_crystal_density_diffrn 1.317
_exptl_crystal_description 'block'
_diffrn_ambient_temperature 298
#These two values have been output from a single CSD field.
_refine_ls_R_factor_gt 0.0947
_refine_ls_wR_factor_gt 0.0947
_symmetry_cell_setting monoclinic
_symmetry_space_group_name_H-M 'P 21/c'
_symmetry_Int_Tables_number 14
loop_
_symmetry_equiv_pos_site_id
_symmetry_equiv_pos_as_xyz
1 x,y,z
2 -x,1/2+y,1/2-z
3 -x,-y,-z
4 x,-1/2-y,-1/2+z
_cell_length_a 10.2397(18)
_cell_length_b 21.727(3)
_cell_length_c 11.8443(18)
_cell_angle_alpha 90
_cell_angle_beta 93.439(10)
_cell_angle_gamma 90
_cell_formula_units_Z 8
loop_
_atom_type_symbol
_atom_type_radius_bond
C 0.68
H 0.23
N 0.68
O 0.68
loop_
_atom_site_label
_atom_site_type_symbol
_atom_site_fract_x
_atom_site_fract_y
_atom_site_fract_z
O1 O 1.230(1) 0.4872(3) 0.5632(5)
O2 O 1.1206(6) 0.5445(2) 0.4503(4)
N1 N 0.8941(4) 0.69314(18) 0.7025(3)
N2 N 0.9101(4) 0.72165(17) 0.5069(3)
N3 N 0.8402(4) 0.76331(18) 0.4362(3)
N4 N 0.7540(3) 0.76462(16) 0.6006(3)
N5 N 1.1594(6) 0.5314(3) 0.5448(5)
C1 C 0.9889(4) 0.6466(2) 0.7109(3)
C2 C 1.0485(5) 0.6346(2) 0.8184(4)
H1 H 1.02350 0.65740 0.88000
C3 C 1.1439(5) 0.5896(2) 0.8348(4)
H2 H 1.18280 0.58270 0.90660
C4 C 1.1805(5) 0.5556(2) 0.7455(4)
H3 H 1.24390 0.52510 0.75550
C5 C 1.1220(5) 0.5671(2) 0.6409(4)
C6 C 1.0259(5) 0.6125(2) 0.6207(3)
H4 H 0.98830 0.61920 0.54830
C7 C 0.8579(4) 0.72414(19) 0.6046(3)
C8 C 0.6654(5) 0.7817(2) 0.6883(4)
H5 H 0.66150 0.74810 0.74190
H6 H 0.57810 0.78760 0.65340
C9 C 0.6104(10) 0.8566(3) 0.8414(6)
H7 H 0.57310 0.81920 0.87040
H8 H 0.66110 0.87590 0.90350
C10 C 0.7509(5) 0.7866(2) 0.4943(4)
H9 H 0.69060 0.81560 0.46610
C11 C 0.7056(8) 0.8383(3) 0.7501(5)
H10 H 0.71070 0.87180 0.69650
H11 H 0.79230 0.83230 0.78610
C12 C 0.5050(8) 0.8971(5) 0.8073(8)
H12 H 0.45760 0.88050 0.74180
H13 H 0.53950 0.93680 0.78930
H14 H 0.44730 0.90120 0.86780
O3 O 0.6948(6) 0.4759(2) 0.9306(4)
O4 O 0.6201(5) 0.5455(2) 1.0365(3)
N6 N 0.6415(5) 0.5262(2) 0.9441(4)
N7 N 0.3904(4) 0.69438(17) 0.7601(3)
N8 N 0.2567(4) 0.76801(16) 0.8473(3)
N9 N 0.4009(4) 0.71770(17) 0.9598(3)
N10 N 0.3332(4) 0.75998(19) 1.0241(3)
C13 C 0.5145(4) 0.6097(2) 0.8548(3)
H15 H 0.48100 0.61790 0.92450
C14 C 0.4782(4) 0.6444(2) 0.7599(3)
C15 C 0.5273(6) 0.6294(2) 0.6567(4)
H16 H 0.50100 0.65180 0.59240
C16 C 0.6154(7) 0.5812(3) 0.6490(5)
H17 H 0.64950 0.57230 0.57980
C17 C 0.6525(6) 0.5469(3) 0.7419(4)
H18 H 0.71020 0.51410 0.73650
C18 C 0.6037(5) 0.5616(2) 0.8416(4)
C19 C 0.3539(4) 0.72418(18) 0.8549(3)
C20 C 0.2497(5) 0.7870(2) 0.9540(4)
H19 H 0.19080 0.81670 0.97590
C21 C 0.1852(6) 0.7887(2) 0.7450(4)
H20 H 0.11820 0.75850 0.72480
H21 H 0.24510 0.78930 0.68460
C22 C 0.1228(6) 0.8488(3) 0.7490(4)
H22 H 0.18830 0.87890 0.77390
H23 H 0.05780 0.84750 0.80530
C23 C 0.0581(6) 0.8701(2) 0.6398(4)
H24 H 0.12270 0.87040 0.58310
H25 H -0.00880 0.84050 0.61580
C24 C -0.0031(7) 0.9319(3) 0.6423(6)
H26 H 0.06080 0.96150 0.66980
H27 H -0.07430 0.93110 0.69150
H28 H -0.03540 0.94310 0.56740
H29 H 0.872(5) 0.710(2) 0.782(4)
H30 H 0.374(5) 0.712(2) 0.677(4)
#END
