
#######################################################################
#
#                 Cambridge Crystallographic Data Centre
#                                CCDC
#
#######################################################################
#
# If this CIF has been generated from an entry in the Cambridge
# Structural Database, then it will include bibliographic, chemical,
# crystal, experimental, refinement or atomic coordinate data resulting
# from the CCDC's data processing and validation procedures.
#
#######################################################################

data_CSD_CIF_GECPIP
_audit_creation_date 2012-09-26
_audit_creation_method CSD-ConQuest-V1
_database_code_CSD GECPIP
_database_code_depnum_ccdc_archive 'CCDC 831538'
_chemical_formula_sum 'C16 H15 N5 O2'
_chemical_formula_moiety
;
C16 H15 N5 O2
;
_journal_coden_Cambridge 16
_journal_volume 68
_journal_year 2012
_journal_page_first 5066
_journal_name_full 'Tetrahedron '
loop_
_publ_author_name
"S.Guin"
"S.K.Rout"
"N.Khatun"
"T.Ghosh"
"B.K.Patel"
_chemical_name_systematic
;
4-(3,4-Dimethylphenyl)-N-(3-nitrophenyl)-4H-1,2,4-triazol-3-amine
;
_cell_volume   1489.377
_exptl_crystal_colour 'colorless'
_exptl_crystal_density_diffrn 1.386
_exptl_crystal_description 'block'
_diffrn_ambient_temperature 296
#These two values have been output from a single CSD field.
_refine_ls_R_factor_gt 0.0415
_refine_ls_wR_factor_gt 0.0415
_symmetry_cell_setting monoclinic
_symmetry_space_group_name_H-M 'P 21/c'
_symmetry_Int_Tables_number 14
loop_
_symmetry_equiv_pos_site_id
_symmetry_equiv_pos_as_xyz
1 x,y,z
2 -x,1/2+y,1/2-z
3 -x,-y,-z
4 x,-1/2-y,-1/2+z
_cell_length_a 14.0860(6)
_cell_length_b 9.3337(4)
_cell_length_c 11.5101(5)
_cell_angle_alpha 90
_cell_angle_beta 100.198(2)
_cell_angle_gamma 90
_cell_formula_units_Z 4
loop_
_atom_type_symbol
_atom_type_radius_bond
C 0.68
H 0.23
N 0.68
O 0.68
loop_
_atom_site_label
_atom_site_type_symbol
_atom_site_fract_x
_atom_site_fract_y
_atom_site_fract_z
C1 C 0.27236(8) 0.32824(13) 0.79595(11)
H1 H 0.31300 0.38190 0.85200
C2 C 0.17407(8) 0.35106(13) 0.77542(11)
C3 C 0.30903(9) 0.22329(14) 0.73091(11)
C4 C 0.24589(9) 0.14304(16) 0.64966(12)
H2 H 0.27000 0.07190 0.60640
C5 C 0.11033(9) 0.27239(17) 0.69532(13)
H3 H 0.04430 0.28940 0.68410
C6 C 0.14799(10) 0.16778(17) 0.63260(13)
H4 H 0.10680 0.11300 0.57790
C7 C 0.78739(9) 0.17702(14) 0.88474(12)
C8 C 0.62469(8) 0.14328(13) 0.77816(11)
C9 C 0.60574(9) 0.04878(14) 0.86305(11)
H5 H 0.54550 0.00550 0.85640
C10 C 0.67774(10) 0.01915(14) 0.95860(12)
H6 H 0.66460 -0.04290 1.01700
C11 C 0.71409(9) 0.20962(14) 0.78984(12)
H7 H 0.72530 0.27650 0.73390
C12 C 0.76832(9) 0.07909(15) 0.96954(12)
N1 N 0.55561(7) 0.16729(11) 0.67264(9)
N2 N 0.49583(7) 0.17754(12) 0.48296(9)
N3 N 0.41947(7) 0.19088(12) 0.54508(9)
C13 C 0.45743(8) 0.18480(12) 0.65724(11)
C14 C 0.57377(9) 0.16426(14) 0.55941(12)
H8 H 0.63490 0.15390 0.54030
N4 N 0.13643(8) 0.46709(13) 0.84029(11)
N5 N 0.40920(8) 0.19882(13) 0.75029(10)
O1 O 0.19339(8) 0.54183(12) 0.90684(9)
O2 O 0.04947(8) 0.48560(14) 0.82516(13)
C15 C 0.88558(9) 0.24406(19) 0.89045(13)
H9 H 0.90530 0.28810 0.96620
H10 H 0.88260 0.31530 0.82970
H11 H 0.93130 0.17140 0.87900
C16 C 0.84687(11) 0.0366(2) 1.07117(14)
H12 H 0.89700 -0.01350 1.04120
H13 H 0.82020 -0.02460 1.12430
H14 H 0.87320 0.12100 1.11250
H15 H 0.4391(10) 0.2365(16) 0.8120(12)
#END
