
#######################################################################
#
#                 Cambridge Crystallographic Data Centre
#                                CCDC
#
#######################################################################
#
# If this CIF has been generated from an entry in the Cambridge
# Structural Database, then it will include bibliographic, chemical,
# crystal, experimental, refinement or atomic coordinate data resulting
# from the CCDC's data processing and validation procedures.
#
#######################################################################

data_CSD_CIF_GECTIU
_audit_creation_date 2017-08-02
_audit_creation_method CSD-ConQuest-V1
_database_code_CSD GECTIU
_database_code_depnum_ccdc_archive 'CCDC 1006337'
_chemical_formula_sum 'C15 H15 N3 O2'
_chemical_formula_moiety
;
C15 H15 N3 O2
;
_journal_coden_Cambridge 4
_journal_volume 136
_journal_year 2014
_journal_page_first 9509
_journal_name_full 'J.Am.Chem.Soc. '
loop_
_publ_author_name
"G.Vantomme"
"Shimei Jiang"
"J.-M.Lehn"
_chemical_name_systematic
;
1-methyl-2-(1-(4-nitrophenyl)ethylidene)-1-phenylhydrazine
;
_cell_volume   2690.989
_exptl_crystal_colour 'red'
_exptl_crystal_density_diffrn 1.329
_exptl_crystal_description 'block'
_diffrn_ambient_temperature 173
#These two values have been output from a single CSD field.
_refine_ls_R_factor_gt 0.0374
_refine_ls_wR_factor_gt 0.0374
_symmetry_cell_setting orthorhombic
_symmetry_space_group_name_H-M 'P 21 21 21'
_symmetry_Int_Tables_number 19
loop_
_symmetry_equiv_pos_site_id
_symmetry_equiv_pos_as_xyz
1 x,y,z
2 1/2+x,1/2-y,-z
3 -x,1/2+y,1/2-z
4 1/2-x,-y,1/2+z
_cell_length_a 13.3066(6)
_cell_length_b 13.7374(6)
_cell_length_c 14.7211(6)
_cell_angle_alpha 90
_cell_angle_beta 90
_cell_angle_gamma 90
_cell_formula_units_Z 8
loop_
_atom_type_symbol
_atom_type_radius_bond
C 0.68
H 0.23
N 0.68
O 0.68
loop_
_atom_site_label
_atom_site_type_symbol
_atom_site_fract_x
_atom_site_fract_y
_atom_site_fract_z
C1 C 0.82106(16) 1.15797(16) -0.01636(16)
C2 C 0.72738(17) 1.18002(17) -0.04969(16)
H1 H 0.71360 1.24250 -0.07440
C3 C 0.65353(16) 1.10935(16) -0.04646(17)
H2 H 0.58800 1.12420 -0.06810
C4 C 0.67330(15) 1.01655(15) -0.01207(16)
C5 C 0.76995(16) 0.99777(17) 0.02237(17)
H3 H 0.78450 0.93560 0.04740
C6 C 0.84368(16) 1.06777(16) 0.02051(17)
H4 H 0.90880 1.05460 0.04400
C7 C 0.59623(15) 0.93820(16) -0.01226(16)
C8 C 0.49217(17) 0.9602(2) -0.0463(2)
H5 H 0.45670 0.89910 -0.05880
H6 H 0.49660 0.99880 -0.10220
H7 H 0.45530 0.99710 -0.00010
C9 C 0.47994(19) 0.78426(19) 0.08365(19)
H8 H 0.50220 0.75490 0.14090
H9 H 0.42010 0.75010 0.06160
H10 H 0.46370 0.85300 0.09370
C10 C 0.60740(15) 0.68520(16) 0.00656(16)
C11 C 0.56358(17) 0.60030(17) 0.04046(17)
H11 H 0.50230 0.60390 0.07340
C12 C 0.60912(19) 0.51087(17) 0.02624(18)
H12 H 0.57870 0.45350 0.04950
C13 C 0.69791(18) 0.50430(17) -0.02128(18)
H13 H 0.72930 0.44290 -0.03010
C14 C 0.74083(17) 0.58770(17) -0.05598(18)
H14 H 0.80170 0.58340 -0.08950
C15 C 0.69613(16) 0.67784(17) -0.04248(16)
H15 H 0.72640 0.73470 -0.06690
N1 N 0.90114(15) 1.23208(15) -0.02101(15)
N2 N 0.62878(13) 0.85418(13) 0.01246(14)
N3 N 0.56023(13) 0.77654(13) 0.01611(14)
O1 O 0.98487(13) 1.21019(13) 0.00658(15)
O2 O 0.88002(14) 1.31236(13) -0.05235(14)
C16 C 0.41025(16) 0.53710(17) 0.25374(16)
C17 C 0.43517(17) 0.62086(18) 0.29945(17)
H16 H 0.50090 0.62950 0.32320
C18 C 0.36311(17) 0.69236(18) 0.31028(17)
H17 H 0.38000 0.75090 0.34100
C19 C 0.26548(16) 0.67987(16) 0.27665(15)
C20 C 0.24398(17) 0.59391(17) 0.22980(17)
H18 H 0.17870 0.58470 0.20510
C21 C 0.31513(17) 0.52230(17) 0.21862(17)
H19 H 0.29920 0.46380 0.18740
C22 C 0.18757(17) 0.75615(16) 0.28937(16)
C23 C 0.21408(19) 0.84648(18) 0.34147(19)
H20 H 0.25250 0.89060 0.30230
H21 H 0.25460 0.82890 0.39460
H22 H 0.15240 0.87900 0.36150
C24 C 0.04018(19) 0.89657(16) 0.21563(19)
H23 H 0.11190 0.91250 0.21760
H24 H 0.00180 0.94790 0.24610
H25 H 0.01830 0.89140 0.15220
C25 C -0.07292(17) 0.76070(16) 0.24886(16)
C26 C -0.15227(19) 0.81365(19) 0.21251(18)
H26 H -0.14200 0.87920 0.19410
C27 C -0.2464(2) 0.7716(2) 0.2028(2)
H27 H -0.30010 0.80860 0.17790
C28 C -0.2631(2) 0.6770(2) 0.22881(19)
H28 H -0.32710 0.64780 0.22050
C29 C -0.18520(19) 0.62507(18) 0.26719(19)
H29 H -0.19630 0.55990 0.28640
C30 C -0.09119(18) 0.66631(16) 0.27824(18)
H30 H -0.03890 0.62990 0.30610
N4 N 0.48734(15) 0.46179(15) 0.24083(15)
N5 N 0.10027(14) 0.73401(13) 0.25656(13)
N6 N 0.02303(14) 0.80366(13) 0.26183(13)
O3 O 0.46537(14) 0.38925(14) 0.19615(14)
O4 O 0.57073(12) 0.47499(14) 0.27435(14)
#END
