
#######################################################################
#
#                 Cambridge Crystallographic Data Centre
#                                CCDC
#
#######################################################################
#
# If this CIF has been generated from an entry in the Cambridge
# Structural Database, then it will include bibliographic, chemical,
# crystal, experimental, refinement or atomic coordinate data resulting
# from the CCDC's data processing and validation procedures.
#
#######################################################################

data_CSD_CIF_GECZAR
_audit_creation_date 2012-09-26
_audit_creation_method CSD-ConQuest-V1
_database_code_CSD GECZAR
_database_code_depnum_ccdc_archive 'CCDC 828823'
_chemical_formula_sum 'C21 H18 N2 O4'
_chemical_formula_moiety
;
C21 H18 N2 O4
;
_journal_coden_Cambridge 16
_journal_volume 68
_journal_year 2012
_journal_page_first 5391
_journal_name_full 'Tetrahedron '
loop_
_publ_author_name
"Lei Liu"
"Jie Hu"
"Xiang-Chuan Wang"
"Mei-Jin Zhong"
"Xue-Yuan Liu"
"Shang-Dong Yang"
"Yong-Ming Liang"
_chemical_name_systematic
;
3,3-Dimethyl-5-(3-nitrophenyl)-3,4-dihydrophenanthridine-1,6(2H,5H)-dione
;
_cell_volume   1792.573
_exptl_crystal_colour 'colorless'
_exptl_crystal_density_diffrn 1.343
_exptl_crystal_description 'block'
_diffrn_ambient_temperature 296
#These two values have been output from a single CSD field.
_refine_ls_R_factor_gt 0.0916
_refine_ls_wR_factor_gt 0.0916
_symmetry_cell_setting monoclinic
_symmetry_space_group_name_H-M 'P 21/c'
_symmetry_Int_Tables_number 14
loop_
_symmetry_equiv_pos_site_id
_symmetry_equiv_pos_as_xyz
1 x,y,z
2 -x,1/2+y,1/2-z
3 -x,-y,-z
4 x,-1/2-y,-1/2+z
_cell_length_a 10.215(9)
_cell_length_b 8.866(7)
_cell_length_c 20.081(16)
_cell_angle_alpha 90
_cell_angle_beta 99.716(9)
_cell_angle_gamma 90
_cell_formula_units_Z 4
loop_
_atom_type_symbol
_atom_type_radius_bond
C 0.68
H 0.23
N 0.68
O 0.68
loop_
_atom_site_label
_atom_site_type_symbol
_atom_site_fract_x
_atom_site_fract_y
_atom_site_fract_z
C1 C 0.6126(8) 0.3773(7) 0.1746(3)
C2 C 0.6737(7) 0.3207(7) 0.1200(3)
C3 C 0.7691(7) 0.2208(7) 0.2505(3)
C4 C 0.6235(8) 0.3745(9) 0.0549(4)
H1 H 0.55600 0.44610 0.04890
C5 C 0.6735(9) 0.322(1) 0.0002(4)
H2 H 0.64190 0.35940 -0.04280
C6 C 0.7691(10) 0.2155(10) 0.0092(4)
H3 H 0.79980 0.17720 -0.02840
C7 C 0.8234(8) 0.1608(8) 0.0729(4)
H4 H 0.89140 0.08980 0.07760
C8 C 0.7743(7) 0.2143(7) 0.1303(3)
C9 C 0.8266(7) 0.1661(7) 0.1991(3)
C10 C 0.9392(8) 0.0640(8) 0.2151(4)
C11 C 1.0034(8) 0.0524(9) 0.2870(4)
H5 H 1.05960 0.13990 0.29870
H6 H 1.05960 -0.03640 0.29270
C12 C 0.9043(8) 0.0427(8) 0.3345(4)
C13 C 0.8160(8) 0.1806(7) 0.3233(3)
H7 H 0.73890 0.16370 0.34470
H8 H 0.86420 0.26590 0.34570
C14 C 0.8222(10) -0.1004(9) 0.3211(4)
H9 H 0.77400 -0.09850 0.27570
H10 H 0.76080 -0.10650 0.35230
H11 H 0.87990 -0.18650 0.32680
C15 C 0.9773(9) 0.0417(11) 0.4077(4)
H12 H 1.04120 -0.03870 0.41360
H13 H 0.91450 0.02680 0.43770
H14 H 1.02200 0.13630 0.41770
C16 C 0.6120(7) 0.3890(7) 0.2945(3)
C17 C 0.6692(8) 0.5123(8) 0.3275(4)
H15 H 0.74180 0.55780 0.31330
C18 C 0.6204(9) 0.5697(9) 0.3816(4)
H16 H 0.66010 0.65380 0.40430
C19 C 0.5135(8) 0.5041(8) 0.4024(4)
H17 H 0.48060 0.54140 0.43960
C20 C 0.4567(7) 0.3841(8) 0.3681(4)
C21 C 0.5024(7) 0.3227(7) 0.3134(3)
H18 H 0.46090 0.24010 0.29020
N1 N 0.6676(6) 0.3251(6) 0.2389(3)
N2 N 0.3480(9) 0.3071(9) 0.3915(5)
O1 O 0.5204(6) 0.4675(6) 0.1685(3)
O2 O 0.9888(7) -0.0042(7) 0.1729(3)
O3 O 0.3296(8) 0.3281(9) 0.4504(4)
O4 O 0.2771(8) 0.2206(10) 0.3541(4)
#END
