
#######################################################################
#
#                 Cambridge Crystallographic Data Centre
#                                CCDC
#
#######################################################################
#
# If this CIF has been generated from an entry in the Cambridge
# Structural Database, then it will include bibliographic, chemical,
# crystal, experimental, refinement or atomic coordinate data resulting
# from the CCDC's data processing and validation procedures.
#
#######################################################################

data_CSD_CIF_GEDWIV
_audit_creation_date 1989-03-17
_audit_creation_method CSD-ConQuest-V1
_database_code_CSD GEDWIV
_chemical_formula_sum 'C12 H12 N4 O5'
_chemical_formula_moiety
;
C12 H12 N4 O5
;
_journal_coden_Cambridge 154
_journal_volume 41
_journal_year 1988
_journal_page_first 373
_journal_name_full 'Aust.J.Chem. '
loop_
_publ_author_name
"M.P.Hartshorn"
"J.M.Readman"
"W.T.Robinson"
"C.W.Sies"
"G.J.Wright"
_chemical_name_systematic
;
trans-3,4-Dicyano-2,5,6,6-tetramethyl-2,5-dinitrocyclohex-3-enone
;
_chemical_melting_point 393.15
_cell_volume   1353.167
_exptl_crystal_colour 'colorless'
_exptl_crystal_density_diffrn 1.42
_exptl_special_details
;
Melting point range 393.15-394.15K

;
_diffrn_ambient_temperature ?
_diffrn_special_details
;
The study was carried out at room temperature,in the range 283-303K

;
#These two values have been output from a single CSD field.
_refine_ls_R_factor_gt 0.058
_refine_ls_wR_factor_gt 0.058
_symmetry_cell_setting orthorhombic
_symmetry_space_group_name_H-M 'P 21 21 21'
_symmetry_Int_Tables_number 19
loop_
_symmetry_equiv_pos_site_id
_symmetry_equiv_pos_as_xyz
1 x,y,z
2 1/2+x,1/2-y,-z
3 -x,1/2+y,1/2-z
4 1/2-x,-y,1/2+z
_cell_length_a 6.221(1)
_cell_length_b 12.571(3)
_cell_length_c 17.303(7)
_cell_angle_alpha 90
_cell_angle_beta 90
_cell_angle_gamma 90
_cell_formula_units_Z 4
loop_
_atom_type_symbol
_atom_type_radius_bond
C 0.68
H 0.23
N 0.68
O 0.68
loop_
_atom_site_label
_atom_site_type_symbol
_atom_site_fract_x
_atom_site_fract_y
_atom_site_fract_z
O1 O 0.3542(9) -0.1610(4) 0.0371(3)
O2 O 0.6332(10) -0.1340(5) -0.1024(3)
O3 O 0.9107(9) -0.0655(5) -0.0511(3)
O4 O 0.2767(10) 0.0469(5) 0.1366(4)
O5 O 0.3548(12) 0.0642(6) 0.2562(5)
N1 N 0.7195(10) -0.0771(5) -0.0562(4)
N2 N 0.8833(14) 0.2055(6) -0.0510(5)
N3 N 0.9105(13) 0.2452(6) 0.1736(4)
N4 N 0.4053(12) 0.0412(5) 0.1909(5)
C1 C 0.4927(12) -0.1011(5) 0.0588(4)
C2 C 0.5743(10) -0.0148(6) 0.0013(5)
C3 C 0.7102(10) 0.0707(6) 0.0398(4)
C4 C 0.7288(10) 0.0787(5) 0.1166(4)
C5 C 0.6344(11) 0.0028(6) 0.1740(4)
C6 C 0.6043(12) -0.1098(6) 0.1373(4)
C7 C 0.3904(11) 0.0326(6) -0.0448(4)
C8 C 0.8060(11) 0.1474(7) -0.0115(5)
C9 C 0.8310(13) 0.1716(6) 0.1483(5)
C10 C 0.7574(17) 0.0018(7) 0.2468(5)
C11 C 0.8204(13) -0.1627(6) 0.1240(5)
C12 C 0.4662(15) -0.1825(7) 0.1898(4)
H1 H 0.29750 0.07170 -0.01080
H2 H 0.31050 -0.02350 -0.06920
H3 H 0.44690 0.07950 -0.08360
H4 H 0.90140 -0.02210 0.23680
H5 H 0.68960 -0.04540 0.28290
H6 H 0.76150 0.07240 0.26800
H7 H 0.89430 -0.17000 0.17240
H8 H 0.90480 -0.11990 0.08950
H9 H 0.79860 -0.23180 0.10160
H10 H 0.53390 -0.18930 0.23940
H11 H 0.45310 -0.25150 0.16640
H12 H 0.32600 -0.15180 0.19600
#END
