
#######################################################################
#
#                 Cambridge Crystallographic Data Centre
#                                CCDC
#
#######################################################################
#
# If this CIF has been generated from an entry in the Cambridge
# Structural Database, then it will include bibliographic, chemical,
# crystal, experimental, refinement or atomic coordinate data resulting
# from the CCDC's data processing and validation procedures.
#
#######################################################################

data_CSD_CIF_GEDXOD
_audit_creation_date 2006-07-18
_audit_creation_method CSD-ConQuest-V1
_database_code_CSD GEDXOD
_database_code_depnum_ccdc_archive 'CCDC 269262'
_chemical_formula_sum 'C3 H4 N6 O1'
_chemical_formula_moiety
;
C3 H4 N6 O1
;
_journal_coden_Cambridge 35
_journal_volume 71
_journal_year 2006
_journal_page_first 1295
_journal_name_full 'J.Org.Chem. '
loop_
_publ_author_name
"K.Karaghiosoff"
"T.M.Klapotke"
"P.Mayer"
"H.Piotrowski"
"K.Polborn"
"R.L.Willer"
"J.J.Weigand"
_chemical_name_systematic
;
7-Nitroso-5,6-dihydro-7H-imidazolo(1,2-d)tetrazole
;
_chemical_melting_point 383.15
_cell_volume    565.106
_exptl_crystal_colour 'colorless'
_exptl_crystal_density_diffrn 1.647
_exptl_special_details
;
Melts with decomposition.

;
_exptl_crystal_description 'block'
_diffrn_ambient_temperature 200
#These two values have been output from a single CSD field.
_refine_ls_R_factor_gt 0.0431
_refine_ls_wR_factor_gt 0.0431
_symmetry_cell_setting monoclinic
_symmetry_space_group_name_H-M 'P 21/c'
_symmetry_Int_Tables_number 14
loop_
_symmetry_equiv_pos_site_id
_symmetry_equiv_pos_as_xyz
1 x,y,z
2 -x,1/2+y,1/2-z
3 -x,-y,-z
4 x,-1/2-y,-1/2+z
_cell_length_a 6.0853(2)
_cell_length_b 8.1184(3)
_cell_length_c 11.6028(4)
_cell_angle_alpha 90
_cell_angle_beta 99.6469(15)
_cell_angle_gamma 90
_cell_formula_units_Z 4
loop_
_atom_type_symbol
_atom_type_radius_bond
C 0.68
H 0.23
N 0.68
O 0.68
loop_
_atom_site_label
_atom_site_type_symbol
_atom_site_fract_x
_atom_site_fract_y
_atom_site_fract_z
O1 O -0.28739(19) -0.02635(14) 0.14809(9)
N1 N -0.04350(18) 0.24875(13) 0.4601(1)
N2 N 0.1136(2) 0.26939(15) 0.55571(10)
N3 N 0.2750(2) 0.17095(15) 0.54116(11)
N4 N 0.22691(19) 0.08332(15) 0.43765(10)
N5 N -0.13345(19) 0.11159(14) 0.29552(9)
N6 N -0.1191(2) -0.01152(14) 0.22145(10)
C1 C 0.0282(2) 0.13757(15) 0.39219(11)
C2 C -0.2679(2) 0.31086(18) 0.41877(13)
H1 H -0.366(3) 0.281(2) 0.4741(16)
H2 H -0.267(3) 0.434(2) 0.4037(16)
C3 C -0.3324(2) 0.2146(2) 0.30311(13)
H3 H -0.452(3) 0.143(3) 0.3100(17)
H4 H -0.363(3) 0.287(2) 0.2347(16)
#END
