
#######################################################################
#
#                 Cambridge Crystallographic Data Centre
#                                CCDC
#
#######################################################################
#
# If this CIF has been generated from an entry in the Cambridge
# Structural Database, then it will include bibliographic, chemical,
# crystal, experimental, refinement or atomic coordinate data resulting
# from the CCDC's data processing and validation procedures.
#
#######################################################################

data_CSD_CIF_GEDXUJ
_audit_creation_date 2006-07-18
_audit_creation_method CSD-ConQuest-V1
_database_code_CSD GEDXUJ
_database_code_depnum_ccdc_archive 'CCDC 269263'
_chemical_formula_sum 'C3 H6 N6 O2'
_chemical_formula_moiety
;
C3 H6 N6 O2
;
_journal_coden_Cambridge 35
_journal_volume 71
_journal_year 2006
_journal_page_first 1295
_journal_name_full 'J.Org.Chem. '
loop_
_publ_author_name
"K.Karaghiosoff"
"T.M.Klapotke"
"P.Mayer"
"H.Piotrowski"
"K.Polborn"
"R.L.Willer"
"J.J.Weigand"
_chemical_name_systematic
;
1-Methyl-5-(methylnitramino)-1H-tetrazole
;
_chemical_melting_point 331.15
_cell_volume   1379.951
_exptl_crystal_colour 'colorless'
_exptl_crystal_density_diffrn 1.522
_exptl_special_details
;
Melting point range 331.15-331.65K

;
_exptl_crystal_description 'platelet'
_diffrn_ambient_temperature 200
#These two values have been output from a single CSD field.
_refine_ls_R_factor_gt 0.0411
_refine_ls_wR_factor_gt 0.0411
_symmetry_cell_setting orthorhombic
_symmetry_space_group_name_H-M 'P b c a'
_symmetry_Int_Tables_number 61
loop_
_symmetry_equiv_pos_site_id
_symmetry_equiv_pos_as_xyz
1 x,y,z
2 1/2-x,-y,1/2+z
3 1/2+x,1/2-y,-z
4 -x,1/2+y,1/2-z
5 -x,-y,-z
6 -1/2+x,y,-1/2-z
7 -1/2-x,-1/2+y,z
8 x,-1/2-y,-1/2+z
_cell_length_a 5.9553(4)
_cell_length_b 13.2837(10)
_cell_length_c 17.4438(15)
_cell_angle_alpha 90
_cell_angle_beta 90
_cell_angle_gamma 90
_cell_formula_units_Z 8
loop_
_atom_type_symbol
_atom_type_radius_bond
C 0.68
H 0.23
N 0.68
O 0.68
loop_
_atom_site_label
_atom_site_type_symbol
_atom_site_fract_x
_atom_site_fract_y
_atom_site_fract_z
O1 O 0.6947(4) 0.07165(15) 0.00455(10)
O2 O 0.4477(3) 0.19260(16) -0.00489(9)
N1 N 0.3194(3) 0.27088(14) 0.14882(9)
N2 N 0.1206(4) 0.29204(16) 0.18115(10)
N3 N 0.0134(4) 0.20736(16) 0.18788(10)
N4 N 0.1381(3) 0.13002(15) 0.15975(9)
N5 N 0.5124(3) 0.12098(15) 0.10858(9)
N6 N 0.5526(4) 0.12862(19) 0.03029(11)
C1 C 0.3246(4) 0.17176(16) 0.13604(10)
C2 C 0.4899(5) 0.34748(19) 0.13516(15)
H1 H 0.446(7) 0.407(3) 0.1658(18)
H2 H 0.506(5) 0.360(2) 0.0844(19)
H3 H 0.619(7) 0.330(3) 0.1600(18)
C3 C 0.5998(5) 0.0330(2) 0.14883(17)
H4 H 0.758(7) 0.028(3) 0.1457(17)
H5 H 0.535(6) -0.026(3) 0.1292(15)
H6 H 0.559(5) 0.039(2) 0.2000(16)
#END
