
#######################################################################
#
#                 Cambridge Crystallographic Data Centre
#                                CCDC
#
#######################################################################
#
# If this CIF has been generated from an entry in the Cambridge
# Structural Database, then it will include bibliographic, chemical,
# crystal, experimental, refinement or atomic coordinate data resulting
# from the CCDC's data processing and validation procedures.
#
#######################################################################

data_CSD_CIF_GEDYAQ
_audit_creation_date 2006-07-18
_audit_creation_method CSD-ConQuest-V1
_database_code_CSD GEDYAQ
_database_code_depnum_ccdc_archive 'CCDC 269264'
_chemical_formula_sum 'C7 H14 N6 O2'
_chemical_formula_moiety
;
C7 H14 N6 O2
;
_journal_coden_Cambridge 35
_journal_volume 71
_journal_year 2006
_journal_page_first 1295
_journal_name_full 'J.Org.Chem. '
loop_
_publ_author_name
"K.Karaghiosoff"
"T.M.Klapotke"
"P.Mayer"
"H.Piotrowski"
"K.Polborn"
"R.L.Willer"
"J.J.Weigand"
_chemical_name_systematic
;
1-Isopropyl-5-(isopropylnitramino)-1H-tetrazole
;
_chemical_melting_point 329.15
_cell_volume   1090.528
_exptl_crystal_colour 'colorless'
_exptl_crystal_density_diffrn 1.305
_exptl_special_details
;
Melting point range 329.15-330.15K

;
_exptl_crystal_description 'platelet'
_exptl_crystal_preparation 'ethanol/water'
_diffrn_ambient_temperature 200
#These two values have been output from a single CSD field.
_refine_ls_R_factor_gt 0.0419
_refine_ls_wR_factor_gt 0.0419
_symmetry_cell_setting monoclinic
_symmetry_space_group_name_H-M 'P 21/n'
_symmetry_Int_Tables_number 14
loop_
_symmetry_equiv_pos_site_id
_symmetry_equiv_pos_as_xyz
1 x,y,z
2 1/2-x,1/2+y,1/2-z
3 -x,-y,-z
4 -1/2+x,-1/2-y,-1/2+z
_cell_length_a 8.6094(10)
_cell_length_b 12.5135(9)
_cell_length_c 10.5791(12)
_cell_angle_alpha 90
_cell_angle_beta 106.896(13)
_cell_angle_gamma 90
_cell_formula_units_Z 4
loop_
_atom_type_symbol
_atom_type_radius_bond
C 0.68
H 0.23
N 0.68
O 0.68
loop_
_atom_site_label
_atom_site_type_symbol
_atom_site_fract_x
_atom_site_fract_y
_atom_site_fract_z
O1 O 0.57811(14) 0.38994(11) 0.82598(12)
O2 O 0.57013(15) 0.28845(12) 0.65752(13)
N1 N 0.23111(15) 0.46597(10) 0.81169(12)
N2 N 0.19353(17) 0.56511(11) 0.84103(13)
N3 N 0.24123(18) 0.62963(11) 0.76305(14)
N4 N 0.31041(17) 0.57462(11) 0.68281(13)
N5 N 0.35473(15) 0.38570(11) 0.65753(11)
N6 N 0.51150(16) 0.35271(12) 0.71657(14)
C1 C 0.30309(17) 0.47383(13) 0.71571(14)
C2 C 0.1971(2) 0.37116(14) 0.88298(16)
H1 H 0.2332(19) 0.3134(14) 0.8409(15)
C3 C 0.0161(3) 0.3617(2) 0.8626(2)
H2 H -0.019(3) 0.419(2) 0.906(2)
H3 H -0.007(3) 0.299(2) 0.902(2)
H4 H -0.048(3) 0.3606(18) 0.768(2)
C4 C 0.2960(3) 0.37810(19) 1.02678(18)
H5 H 0.257(2) 0.4351(18) 1.065(2)
H6 H 0.278(3) 0.3125(19) 1.070(2)
H7 H 0.417(3) 0.3871(16) 1.0356(18)
C5 C 0.2675(2) 0.34681(15) 0.52291(15)
H8 H 0.3049(19) 0.2756(15) 0.5206(16)
C6 C 0.0889(2) 0.34219(18) 0.5121(2)
H9 H 0.045(2) 0.4098(19) 0.5199(19)
H10 H 0.061(3) 0.296(2) 0.584(2)
H11 H 0.030(3) 0.3106(18) 0.427(2)
C7 C 0.3049(4) 0.4149(2) 0.4171(2)
H12 H 0.267(3) 0.492(2) 0.423(2)
H13 H 0.415(3) 0.415(2) 0.425(2)
H14 H 0.243(3) 0.3893(19) 0.332(2)
#END
