
#######################################################################
#
#                 Cambridge Crystallographic Data Centre
#                                CCDC
#
#######################################################################
#
# If this CIF has been generated from an entry in the Cambridge
# Structural Database, then it will include bibliographic, chemical,
# crystal, experimental, refinement or atomic coordinate data resulting
# from the CCDC's data processing and validation procedures.
#
#######################################################################

data_CSD_CIF_GEFDAW
_audit_creation_date 1989-03-17
_audit_creation_method CSD-ConQuest-V1
_database_code_CSD GEFDAW
_database_code_depnum_ccdc_archive 'CCDC 1165192'
_chemical_formula_sum 'C18 H21 N1 O3'
_chemical_formula_moiety
;
C18 H21 N1 O3
;
_journal_coden_Cambridge 154
_journal_volume 41
_journal_year 1988
_journal_page_first 293
_journal_name_full 'Aust.J.Chem. '
loop_
_publ_author_name
"J.B.Bremner"
"E.J.Browne"
"L.M.Engelhardt"
"I.W.K.Gunawardana"
"A.H.White"
_chemical_name_systematic
;
10-Methoxy-5-methyl-7-phenyl-2,3,4,5-tetrahydro-7H-1,6,5-benzodioxazonine
;
_chemical_melting_point 355.15
_cell_volume   1564.444
_exptl_crystal_colour 'colorless'
_exptl_crystal_density_diffrn 1.27
_exptl_special_details
;
Melting point range 355.15-356.15K

;
_diffrn_ambient_temperature ?
_diffrn_special_details
;
The study was carried out at room temperature,in the range 283-303K

;
#These two values have been output from a single CSD field.
_refine_ls_R_factor_gt 0.044
_refine_ls_wR_factor_gt 0.044
_symmetry_cell_setting monoclinic
_symmetry_space_group_name_H-M 'P 21/c'
_symmetry_Int_Tables_number 14
loop_
_symmetry_equiv_pos_site_id
_symmetry_equiv_pos_as_xyz
1 x,y,z
2 -x,1/2+y,1/2-z
3 -x,-y,-z
4 x,-1/2-y,-1/2+z
_cell_length_a 9.051(5)
_cell_length_b 18.654(7)
_cell_length_c 9.267(6)
_cell_angle_alpha 90
_cell_angle_beta 90.85(5)
_cell_angle_gamma 90
_cell_formula_units_Z 4
loop_
_atom_type_symbol
_atom_type_radius_bond
C 0.68
H 0.23
N 0.68
O 0.68
loop_
_atom_site_label
_atom_site_type_symbol
_atom_site_fract_x
_atom_site_fract_y
_atom_site_fract_z
C1 C 0.2636(4) 0.6076(2) 0.1783(4)
C2 C 0.1899(5) 0.6638(2) 0.2404(5)
C3 C 0.1091(5) 0.6514(2) 0.3647(5)
O1 O 0.0345(3) 0.7106(2) 0.4144(3)
C4 C -0.06336 0.7009(3) 0.5304(6)
C5 C 0.1074(5) 0.5844(2) 0.4281(4)
C6 C 0.1853(5) 0.5290(2) 0.3623(4)
C7 C 0.2624(4) 0.5386(2) 0.2368(4)
C8 C 0.3315(4) 0.4787(2) 0.1508(4)
C9 C 0.3707(4) 0.4120(2) 0.2372(4)
C10 C 0.4622(5) 0.4187(2) 0.3581(5)
C11 C 0.5105(5) 0.3591(3) 0.4335(5)
C12 C 0.4705(6) 0.2912(3) 0.3877(6)
C13 C 0.3791(6) 0.2840(2) 0.2680(6)
C14 C 0.3305(5) 0.3441(2) 0.1938(5)
O2 O 0.2276(3) 0.4603(1) 0.0358(3)
N1 N 0.2878(4) 0.4797(2) -0.1040(3)
C15 C 0.3102(5) 0.4118(3) -0.1792(5)
C16 C 0.1717(5) 0.5206(3) -0.1772(5)
C17 C 0.1318(5) 0.5908(3) -0.1061(5)
C18 C 0.2577(5) 0.6405(3) -0.0698(5)
O3 O 0.3441(3) 0.6173(1) 0.0536(3)
H1 H 0.19200 0.71200 0.19800
H2 H -0.13900 0.66600 0.50300
H3 H -0.01100 0.68100 0.61200
H4 H -0.11800 0.74100 0.56800
H5 H 0.05500 0.57700 0.51900
H6 H 0.18500 0.48100 0.40900
H7 H 0.42400 0.49600 0.10800
H8 H 0.49600 0.46600 0.39000
H9 H 0.57100 0.36500 0.52100
H10 H 0.50600 0.24900 0.44100
H11 H 0.35000 0.23600 0.23500
H12 H 0.26500 0.33800 0.11000
H13 H 0.22100 0.38200 -0.17900
H14 H 0.33900 0.41700 -0.27600
H15 H 0.38600 0.38300 -0.13100
H16 H 0.20300 0.53100 -0.27500
H17 H 0.08400 0.49000 -0.18800
H18 H 0.05800 0.61400 -0.16300
H19 H 0.08500 0.57800 -0.01500
H20 H 0.31700 0.64600 -0.15400
H21 H 0.21600 0.68800 -0.05100
#END
