
#######################################################################
#
#                 Cambridge Crystallographic Data Centre
#                                CCDC
#
#######################################################################
#
# If this CIF has been generated from an entry in the Cambridge
# Structural Database, then it will include bibliographic, chemical,
# crystal, experimental, refinement or atomic coordinate data resulting
# from the CCDC's data processing and validation procedures.
#
#######################################################################

data_CSD_CIF_GEFFUV
_audit_creation_date 2017-08-03
_audit_creation_method CSD-ConQuest-V1
_database_code_CSD GEFFUV
_database_code_depnum_ccdc_archive 'CCDC 1523463'
_chemical_formula_sum 'C18 H25 N1 O4'
_chemical_formula_moiety
;
C18 H25 N1 O4
;
_journal_coden_Cambridge 4
_journal_volume 139
_journal_year 2017
_journal_page_first 4282
_journal_name_full 'J.Am.Chem.Soc. '
loop_
_publ_author_name
"Fang-Xin Wang"
"Ji-Yuan Du"
"Hui-Bin Wang"
"Peng-Lin Zhang"
"Guo-Biao Zhang"
"Ke-Yin Yu"
"Xiang-Zhi Zhang"
"Xian-Tao An"
"Ye-Xing Cao"
"Chun-An Fan"
_chemical_name_systematic
;
16'H-spiro[1,3-dioxolane-2,10'-[18]oxa[5]azapentacyclo[10.4.1.1^2,5^.0^1,9^.0^
9,14^]octadecan]-16'-one
;
_chemical_melting_point 506
_cell_volume   1538.292
_exptl_crystal_colour 'colorless'
_exptl_crystal_density_diffrn 1.379
_exptl_crystal_description 'block'
_exptl_crystal_preparation 'petroleum ether/ethyl acetate'
_diffrn_ambient_temperature 297.7
#These two values have been output from a single CSD field.
_refine_ls_R_factor_gt 0.0598
_refine_ls_wR_factor_gt 0.0598
_symmetry_cell_setting monoclinic
_symmetry_space_group_name_H-M 'P 21/c'
_symmetry_Int_Tables_number 14
loop_
_symmetry_equiv_pos_site_id
_symmetry_equiv_pos_as_xyz
1 x,y,z
2 -x,1/2+y,1/2-z
3 -x,-y,-z
4 x,-1/2-y,-1/2+z
_cell_length_a 8.3782(7)
_cell_length_b 22.5803(16)
_cell_length_c 8.7664(7)
_cell_angle_alpha 90
_cell_angle_beta 111.944(9)
_cell_angle_gamma 90
_cell_formula_units_Z 4
loop_
_atom_type_symbol
_atom_type_radius_bond
C 0.68
H 0.23
N 0.68
O 0.68
loop_
_atom_site_label
_atom_site_type_symbol
_atom_site_fract_x
_atom_site_fract_y
_atom_site_fract_z
O1 O -0.4461(2) -0.66268(9) -0.0711(2)
O2 O -0.0839(3) -0.65548(12) -0.0261(3)
O3 O -0.2321(3) -0.55068(9) 0.5214(2)
O4 O -0.3971(2) -0.63257(10) 0.4535(2)
N1 N -0.6293(3) -0.66444(13) -0.1012(3)
C1 C -0.2039(3) -0.65528(12) 0.1887(3)
C2 C -0.2419(3) -0.59926(11) 0.2754(3)
C3 C -0.3982(3) -0.56124(12) 0.1693(3)
H1 H -0.39020 -0.52410 0.22720
H2 H -0.38130 -0.55200 0.06840
C4 C -0.5861(3) -0.58291(14) 0.1189(3)
H3 H -0.58830 -0.61340 0.19590
H4 H -0.65450 -0.55010 0.13190
C5 C -0.6741(4) -0.60738(16) -0.0538(4)
H5 H -0.79640 -0.60840 -0.07560
H6 H -0.65800 -0.57840 -0.12850
C6 C -0.3473(4) -0.69487(13) 0.0786(3)
H7 H -0.29310 -0.72860 0.04660
C7 C -0.4769(4) -0.71962(14) 0.1459(4)
H8 H -0.48010 -0.69620 0.23740
H9 H -0.45120 -0.76040 0.18090
C8 C -0.6458(4) -0.71470(15) -0.0032(4)
H10 H -0.66680 -0.75080 -0.06780
H11 H -0.74120 -0.70850 0.03230
C9 C -0.1135(3) -0.62882(14) 0.0793(4)
C10 C -0.0604(4) -0.56608(14) 0.1311(4)
H12 H -0.13820 -0.53800 0.05590
H13 H 0.05590 -0.55840 0.13770
C11 C -0.0722(3) -0.56348(14) 0.3003(3)
H14 H -0.08030 -0.52250 0.33380
C12 C -0.0623(4) -0.69325(14) 0.3182(4)
H15 H -0.11480 -0.72730 0.34850
H16 H 0.01840 -0.70760 0.27110
C13 C 0.0334(4) -0.65607(15) 0.4715(4)
H17 H 0.13580 -0.67740 0.54350
C14 C 0.0847(4) -0.59580(16) 0.4267(4)
H18 H 0.17270 -0.60090 0.38080
H19 H 0.13270 -0.57180 0.52520
C15 C -0.0896(4) -0.64629(16) 0.5591(4)
H20 H -0.03030 -0.62640 0.66310
H21 H -0.13090 -0.68410 0.58180
C16 C -0.2412(3) -0.60871(12) 0.4517(3)
C17 C -0.3096(5) -0.55500(18) 0.6395(4)
H22 H -0.37630 -0.51980 0.63820
H23 H -0.22290 -0.56000 0.74900
C18 C -0.4218(5) -0.6075(2) 0.5907(4)
H24 H -0.39140 -0.63570 0.68040
H25 H -0.54120 -0.59610 0.56180
#END
