
#######################################################################
#
#                 Cambridge Crystallographic Data Centre
#                                CCDC
#
#######################################################################
#
# If this CIF has been generated from an entry in the Cambridge
# Structural Database, then it will include bibliographic, chemical,
# crystal, experimental, refinement or atomic coordinate data resulting
# from the CCDC's data processing and validation procedures.
#
#######################################################################

data_CSD_CIF_GEFNAH
_audit_creation_date 2006-07-18
_audit_creation_method CSD-ConQuest-V1
_database_code_CSD GEFNAH
_database_code_depnum_ccdc_archive 'CCDC 295584'
_chemical_formula_sum 'C9 H5 N1 O5'
_chemical_formula_moiety
;
C9 H5 N1 O5
;
_journal_coden_Cambridge 471
_journal_volume 22
_journal_year 2006
_journal_page_first x103
_journal_name_full 'Anal.Sci.:X-Ray Struct.Anal.Online '
loop_
_publ_author_name
"S.Naveen"
"P.Adlakha"
"K.Upadhyay"
"A.Shah"
"S.M.Anandalwar"
"J.S.Prasad"
_chemical_name_systematic
;
3-Nitro-4-hydroxycoumarin
;
_cell_volume    829.083
_exptl_crystal_colour 'pale yellow'
_exptl_crystal_density_diffrn 1.659
_exptl_special_details
;
The space group is reported as Pc21b in the paper; we have used Pca21 from 
the symmetry operators reported in the supplementary data
;
_exptl_crystal_preparation 'ethanol'
_diffrn_ambient_temperature 293
#These two values have been output from a single CSD field.
_refine_ls_R_factor_gt 0.0543
_refine_ls_wR_factor_gt 0.0543
_symmetry_cell_setting orthorhombic
_symmetry_space_group_name_H-M 'P c a 21'
_symmetry_Int_Tables_number 29
loop_
_symmetry_equiv_pos_site_id
_symmetry_equiv_pos_as_xyz
1 x,y,z
2 -x,-y,1/2+z
3 1/2-x,y,1/2+z
4 1/2+x,-y,z
_cell_length_a 18.5990(3)
_cell_length_b 5.025(1)
_cell_length_c 8.871(2)
_cell_angle_alpha 90
_cell_angle_beta 90
_cell_angle_gamma 90
_cell_formula_units_Z 4
loop_
_atom_type_symbol
_atom_type_radius_bond
C 0.68
H 0.23
N 0.68
O 0.68
loop_
_atom_site_label
_atom_site_type_symbol
_atom_site_fract_x
_atom_site_fract_y
_atom_site_fract_z
O1 O 0.57117(9) -0.0841(4) 0.3365(2)
C1 C 0.51110(12) 0.0529(5) 0.2891(3)
C2 C 0.52455(10) 0.2665(5) 0.1833(3)
C3 C 0.59351(11) 0.3377(5) 0.1379(3)
C4 C 0.65393(10) 0.1956(5) 0.2007(3)
C5 C 0.72555(12) 0.2609(6) 0.1681(3)
H1 H 0.73580 0.39970 0.10210
C6 C 0.78067(14) 0.1198(7) 0.2335(4)
H2 H 0.82820 0.16370 0.21220
C7 C 0.76542(15) -0.0868(7) 0.3309(4)
H3 H 0.80300 -0.18170 0.37450
C8 C 0.69533(15) -0.1550(6) 0.3645(4)
H4 H 0.68550 -0.29580 0.42930
C9 C 0.63987(12) -0.0105(5) 0.3000(3)
O2 O 0.60881(11) 0.5290(4) 0.0435(2)
H5 H 0.57150 0.60040 0.01530
O3 O 0.45461(10) -0.0204(5) 0.3393(3)
N1 N 0.46388(11) 0.4145(4) 0.1278(3)
O4 O 0.40328(11) 0.3633(5) 0.1691(3)
O5 O 0.47537(11) 0.5972(5) 0.0354(3)
#END
