
#######################################################################
#
#                 Cambridge Crystallographic Data Centre
#                                CCDC
#
#######################################################################
#
# If this CIF has been generated from an entry in the Cambridge
# Structural Database, then it will include bibliographic, chemical,
# crystal, experimental, refinement or atomic coordinate data resulting
# from the CCDC's data processing and validation procedures.
#
#######################################################################

data_CSD_CIF_GEFXUM
_audit_creation_date 2012-11-16
_audit_creation_method CSD-ConQuest-V1
_database_code_CSD GEFXUM
_database_code_depnum_ccdc_archive 'CCDC 870260'
_chemical_formula_sum 'C13 H21 N3 O9'
_chemical_formula_moiety
;
C13 H21 N3 O9
;
_journal_coden_Cambridge 154
_journal_volume 65
_journal_year 2012
_journal_page_first 427
_journal_name_full 'Aust.J.Chem. '
loop_
_publ_author_name
"C.Goeschen"
"J.M.White"
"R.W.Gable"
"U.Wille"
_chemical_name_systematic
;
(5S,6S)-6-Hydroxy-3',5'-di-O-methyl-N-methyl-5-nitrato-2'-desoxythymidine
;
_cell_volume   1683.216
_exptl_crystal_colour 'colorless'
_exptl_crystal_density_diffrn 1.434
_exptl_special_details
;
Absolute configuration

;
_exptl_crystal_description 'block'
_diffrn_ambient_temperature 180
#These two values have been output from a single CSD field.
_refine_ls_R_factor_gt 0.0302
_refine_ls_wR_factor_gt 0.0302
loop_
_citation_database_id_CSD
_citation_special_details
GEFYAT "is a stereoisomer of this entry"
_symmetry_cell_setting orthorhombic
_symmetry_space_group_name_H-M 'P 21 21 21'
_symmetry_Int_Tables_number 19
loop_
_symmetry_equiv_pos_site_id
_symmetry_equiv_pos_as_xyz
1 x,y,z
2 1/2-x,-y,1/2+z
3 -x,1/2+y,1/2-z
4 1/2+x,1/2-y,-z
_cell_length_a 9.4820(2)
_cell_length_b 12.2108(3)
_cell_length_c 14.5377(4)
_cell_angle_alpha 90
_cell_angle_beta 90
_cell_angle_gamma 90
_cell_formula_units_Z 4
loop_
_atom_type_symbol
_atom_type_radius_bond
C 0.68
H 0.23
N 0.68
O 0.68
loop_
_atom_site_label
_atom_site_type_symbol
_atom_site_fract_x
_atom_site_fract_y
_atom_site_fract_z
O1 O 0.22109(10) 0.65181(8) 0.98413(7)
C1 C 0.17782(14) 0.74216(11) 0.92770(9)
H1 H 0.2529(18) 0.7920(13) 0.9205(12)
C2 C 0.05045(15) 0.79235(12) 0.97632(9)
H2 H 0.0348(19) 0.8651(15) 0.9614(12)
H3 H -0.0343(19) 0.7543(13) 0.9593(11)
C3 C 0.08327(14) 0.77250(11) 1.07731(9)
H4 H 0.002(2) 0.7671(15) 1.1138(13)
C4 C 0.16574(15) 0.66448(11) 1.07591(9)
H5 H 0.2389(18) 0.6656(13) 1.1165(12)
C5 C 0.07743(16) 0.56644(12) 1.10145(10)
H6 H 0.130(2) 0.4985(17) 1.0920(13)
H7 H 0.052(2) 0.5684(15) 1.1691(14)
O2 O 0.17124(11) 0.85719(8) 1.11517(7)
C6 C 0.09077(19) 0.95203(14) 1.13894(13)
H8 H 0.05070 0.98440 1.08310
H9 H 0.15200 1.00560 1.16930
H10 H 0.01440 0.93110 1.18080
O3 O -0.04694(11) 0.56462(8) 1.04659(7)
C7 C -0.13333(18) 0.47390(14) 1.06904(13)
H11 H -0.08240 0.40580 1.05590
H12 H -0.21980 0.47640 1.03220
H13 H -0.15760 0.47660 1.13450
N1 N 0.14846(12) 0.69938(9) 0.83621(8)
C8 C 0.22803(14) 0.73249(11) 0.76338(9)
N2 N 0.19265(14) 0.68553(10) 0.67747(8)
O4 O 0.32120(11) 0.80029(9) 0.76770(7)
C9 C 0.11017(16) 0.59416(12) 0.6659(1)
C10 C 0.07066(15) 0.53601(11) 0.75631(9)
C11 C 0.03092(14) 0.62510(11) 0.82548(9)
H14 H 0.0078(17) 0.5942(13) 0.8847(11)
C12 C 0.2500(2) 0.73933(14) 0.59498(11)
H15 H 0.23520 0.69210 0.54130
H16 H 0.35120 0.75230 0.60330
H17 H 0.20180 0.80940 0.58540
O5 O 0.07499(15) 0.55957(10) 0.59160(8)
C13 C -0.04450(17) 0.45255(13) 0.74098(11)
H18 H -0.00420 0.38680 0.71260
H19 H -0.11660 0.48350 0.70020
H20 H -0.08740 0.43320 0.80010
O6 O 0.20769(11) 0.48546(8) 0.77759(7)
N3 N 0.21258(16) 0.41306(11) 0.85399(10)
O7 O 0.11196(15) 0.40762(11) 0.90407(8)
O8 O 0.32273(16) 0.36598(13) 0.85797(11)
O9 O -0.08639(11) 0.68100(8) 0.78751(7)
H21 H -0.165(2) 0.6692(16) 0.8200(15)
#END
