
#######################################################################
#
#                 Cambridge Crystallographic Data Centre
#                                CCDC
#
#######################################################################
#
# If this CIF has been generated from an entry in the Cambridge
# Structural Database, then it will include bibliographic, chemical,
# crystal, experimental, refinement or atomic coordinate data resulting
# from the CCDC's data processing and validation procedures.
#
#######################################################################

data_CSD_CIF_GEGGAD
_audit_creation_date 2017-08-04
_audit_creation_method CSD-ConQuest-V1
_database_code_CSD GEGGAD
_database_code_depnum_ccdc_archive 'CCDC 1566753'
_chemical_formula_sum 'C17 H23 N1 O2'
_chemical_formula_moiety
;
C17 H23 N1 O2
;
_journal_coden_Cambridge 4
_journal_volume 139
_journal_year 2017
_journal_page_first 3546
_journal_name_full 'J.Am.Chem.Soc. '
loop_
_publ_author_name
"D.A.Petrone"
"I.Franzoni"
"Juntao Ye"
"J.F.Rodriguez"
"A.I.Poblador-Bahamonde"
"M.Lautens"
_chemical_name_systematic
;
3-t-butoxy-1-methyl-6-phenyl-3-azabicyclo[4.1.0]heptan-4-one
;
_cell_volume   1516.031
_exptl_crystal_colour 'colorless'
_exptl_crystal_density_diffrn 1.198
_exptl_crystal_description 'plate'
_diffrn_ambient_temperature 100
#These two values have been output from a single CSD field.
_refine_ls_R_factor_gt 0.0388
_refine_ls_wR_factor_gt 0.0388
_symmetry_cell_setting monoclinic
_symmetry_space_group_name_H-M 'P 21/c'
_symmetry_Int_Tables_number 14
loop_
_symmetry_equiv_pos_site_id
_symmetry_equiv_pos_as_xyz
1 x,y,z
2 -x,1/2+y,1/2-z
3 -x,-y,-z
4 x,-1/2-y,-1/2+z
_cell_length_a 10.1842(10)
_cell_length_b 22.035(2)
_cell_length_c 6.8426(6)
_cell_angle_alpha 90
_cell_angle_beta 99.143(3)
_cell_angle_gamma 90
_cell_formula_units_Z 4
loop_
_atom_type_symbol
_atom_type_radius_bond
C 0.68
H 0.23
N 0.68
O 0.68
loop_
_atom_site_label
_atom_site_type_symbol
_atom_site_fract_x
_atom_site_fract_y
_atom_site_fract_z
O1 O 0.92566(9) 0.57040(4) 0.55966(13)
O2 O 0.93650(8) 0.58246(4) 0.17227(13)
N1 N 0.84636(10) 0.54213(5) 0.24169(15)
C1 C 0.86048(13) 0.53560(6) 0.44303(19)
C2 C 0.78514(13) 0.48320(6) 0.51668(18)
H1 H 0.73570 0.49940 0.61870
H2 H 0.85160 0.45420 0.58380
C3 C 0.68716(12) 0.44745(6) 0.36896(18)
C4 C 0.70140(12) 0.45330(6) 0.15264(18)
C5 C 0.81742(13) 0.49021(6) 0.10703(18)
H3 H 0.89710 0.46390 0.11780
H4 H 0.79750 0.50520 -0.03090
C6 C 0.58668(13) 0.48395(6) 0.22948(18)
H5 H 0.49670 0.46650 0.19080
H6 H 0.58920 0.52870 0.24270
C7 C 0.67064(14) 0.39947(6) 0.01616(19)
H7 H 0.65660 0.41340 -0.12160
H8 H 0.59010 0.37920 0.04440
H9 H 0.74530 0.37090 0.03720
C8 C 0.65250(12) 0.38656(6) 0.44431(18)
C9 C 0.52346(13) 0.37024(6) 0.46631(19)
H10 H 0.45290 0.39840 0.43260
C10 C 0.49675(14) 0.31301(6) 0.5373(2)
H11 H 0.40810 0.30230 0.54970
C11 C 0.59833(14) 0.27173(6) 0.58972(19)
H12 H 0.58000 0.23300 0.64020
C12 C 0.72726(14) 0.28723(6) 0.56814(19)
H13 H 0.79740 0.25890 0.60290
C13 C 0.75409(13) 0.34400(6) 0.49591(19)
H14 H 0.84270 0.35410 0.48130
C14 C 0.87332(13) 0.64006(6) 0.0993(2)
C15 C 0.83592(16) 0.67575(6) 0.2719(2)
H15 H 0.79970 0.71530 0.22500
H16 H 0.91510 0.68180 0.37190
H17 H 0.76880 0.65320 0.33040
C16 C 0.75270(14) 0.62899(6) -0.0590(2)
H18 H 0.71520 0.66800 -0.10890
H19 H 0.68560 0.60610 -0.00180
H20 H 0.77970 0.60580 -0.16810
C17 C 0.98360(14) 0.67046(6) 0.0106(2)
H21 H 0.95600 0.71160 -0.03240
H22 H 1.00220 0.64690 -0.10330
H23 H 1.06400 0.67260 0.11030
#END
