
#######################################################################
#
#                 Cambridge Crystallographic Data Centre
#                                CCDC
#
#######################################################################
#
# If this CIF has been generated from an entry in the Cambridge
# Structural Database, then it will include bibliographic, chemical,
# crystal, experimental, refinement or atomic coordinate data resulting
# from the CCDC's data processing and validation procedures.
#
#######################################################################

data_CSD_CIF_GEGMIR
_audit_creation_date 2017-08-04
_audit_creation_method CSD-ConQuest-V1
_database_code_CSD GEGMIR
_database_code_depnum_ccdc_archive 'CCDC 1537752'
_chemical_formula_sum 'C21 H16 N2 O2'
_chemical_formula_moiety
;
C21 H16 N2 O2
;
_journal_coden_Cambridge 1366
_journal_volume 359
_journal_year 2017
_journal_page_first 2747
_journal_name_full 'Adv.Synth.Catal. '
loop_
_publ_author_name
"G.C.Senadi"
"Ji-Qi Wang"
"B.S.Gore"
"Jeh-Jeng Wang"
_chemical_name_systematic
;
1-benzyl-3-phenylcinnoline-2,4(1H)-diol
;
_chemical_name_common
;
1-benzyl-4-oxo-3-phenyl-1,4-dihydrocinnoline-2-oxide
;
_cell_volume    811.477
_exptl_crystal_colour 'yellow'
_exptl_crystal_density_diffrn 1.344
_exptl_crystal_description 'parallelepiped'
_diffrn_ambient_temperature 297
#These two values have been output from a single CSD field.
_refine_ls_R_factor_gt 0.0531
_refine_ls_wR_factor_gt 0.0531
_symmetry_cell_setting triclinic
_symmetry_space_group_name_H-M 'P -1'
_symmetry_Int_Tables_number 2
loop_
_symmetry_equiv_pos_site_id
_symmetry_equiv_pos_as_xyz
1 x,y,z
2 -x,-y,-z
_cell_length_a 8.7503(9)
_cell_length_b 9.6953(12)
_cell_length_c 11.4579(11)
_cell_angle_alpha 110.873(10)
_cell_angle_beta 100.607(9)
_cell_angle_gamma 108.497(10)
_cell_formula_units_Z 2
loop_
_atom_type_symbol
_atom_type_radius_bond
C 0.68
H 0.23
N 0.68
O 0.68
loop_
_atom_site_label
_atom_site_type_symbol
_atom_site_fract_x
_atom_site_fract_y
_atom_site_fract_z
O1 O 0.02910(17) 0.35349(19) 0.50582(14)
O2 O 0.3223(2) 0.0393(2) 0.37215(16)
N1 N 0.3113(2) 0.4602(2) 0.60542(15)
N2 N 0.1631(2) 0.3293(2) 0.51140(15)
C1 C 0.4657(2) 0.4456(3) 0.62658(18)
C2 C 0.6154(3) 0.5761(3) 0.7249(2)
H1 H 0.61190 0.67310 0.77690
C3 C 0.7666(3) 0.5591(3) 0.7436(2)
H2 H 0.86620 0.64630 0.80720
C4 C 0.7735(3) 0.4149(3) 0.6697(2)
H3 H 0.87670 0.40490 0.68460
C5 C 0.6285(3) 0.2869(3) 0.5745(2)
H4 H 0.63330 0.18950 0.52540
C6 C 0.4728(2) 0.3011(3) 0.55045(18)
C7 C 0.3202(3) 0.1668(3) 0.4455(2)
C8 C 0.1628(2) 0.1887(3) 0.43208(18)
C9 C 0.2956(3) 0.6122(3) 0.67151(18)
H5 H 0.19740 0.61050 0.61460
H6 H 0.39630 0.70120 0.68180
C10 C 0.2760(2) 0.6456(2) 0.80517(18)
C11 C 0.2961(3) 0.7997(3) 0.8849(2)
H7 H 0.32470 0.87980 0.85620
C12 C 0.2742(3) 0.8364(3) 1.0067(2)
H8 H 0.28880 0.94120 1.05930
C13 C 0.2316(3) 0.7211(3) 1.0506(2)
H9 H 0.21630 0.74620 1.13270
C14 C 0.2115(3) 0.5677(3) 0.9726(2)
H10 H 0.18230 0.48810 1.00190
C15 C 0.2343(3) 0.5298(3) 0.8503(2)
H11 H 0.22120 0.42530 0.79850
C16 C -0.0018(3) 0.0607(3) 0.3308(2)
C17 C -0.1514(3) 0.0123(3) 0.3589(2)
H12 H -0.15100 0.06050 0.44520
C18 C -0.3016(3) -0.1074(3) 0.2595(3)
H13 H -0.40160 -0.13900 0.27940
C19 C -0.3041(3) -0.1801(3) 0.1313(3)
H14 H -0.40540 -0.26030 0.06450
C20 C -0.1562(3) -0.1330(3) 0.1032(2)
H15 H -0.15700 -0.18220 0.01690
C21 C -0.0061(3) -0.0134(3) 0.2017(2)
H16 H 0.09340 0.01790 0.18110
#END
