
#######################################################################
#
#                 Cambridge Crystallographic Data Centre
#                                CCDC
#
#######################################################################
#
# If this CIF has been generated from an entry in the Cambridge
# Structural Database, then it will include bibliographic, chemical,
# crystal, experimental, refinement or atomic coordinate data resulting
# from the CCDC's data processing and validation procedures.
#
#######################################################################

data_CSD_CIF_GEJLAI
_audit_creation_date 1989-03-17
_audit_creation_method CSD-ConQuest-V1
_database_code_CSD GEJLAI
_database_code_depnum_ccdc_archive 'CCDC 1165565'
_chemical_formula_sum 'C14 H14 N2 O2'
_chemical_formula_moiety
;
C14 H14 N2 O2
;
_journal_coden_Cambridge 7
_journal_volume 61
_journal_year 1988
_journal_page_first 1085
_journal_name_full 'Bull.Chem.Soc.Jpn. '
loop_
_publ_author_name
"F.Iwasaki"
"Y.Masuko"
"S.Monma"
"T.Watanabe"
"K.Mutai"
_chemical_name_systematic
;
N-Phenyl-4-nitrophenethylamine
;
_cell_volume   1244.676
_exptl_crystal_colour 'pale brown'
_exptl_crystal_density_diffrn 1.293
_diffrn_ambient_temperature ?
_diffrn_special_details
;
The study was carried out at room temperature,in the range 283-303K

;
#These two values have been output from a single CSD field.
_refine_ls_R_factor_gt 0.051
_refine_ls_wR_factor_gt 0.051
_symmetry_cell_setting triclinic
_symmetry_space_group_name_H-M 'P -1'
_symmetry_Int_Tables_number 2
loop_
_symmetry_equiv_pos_site_id
_symmetry_equiv_pos_as_xyz
1 x,y,z
2 -x,-y,-z
_cell_length_a 15.106(1)
_cell_length_b 9.573(1)
_cell_length_c 9.427(1)
_cell_angle_alpha 113.22(1)
_cell_angle_beta 91.27(1)
_cell_angle_gamma 83.61(1)
_cell_formula_units_Z 4
loop_
_atom_type_symbol
_atom_type_radius_bond
C 0.68
H 0.23
N 0.68
O 0.68
loop_
_atom_site_label
_atom_site_type_symbol
_atom_site_fract_x
_atom_site_fract_y
_atom_site_fract_z
O1 O 1.0831(1) 0.6407(3) 0.7832(3)
O2 O 1.0645(1) 0.8865(3) 0.8598(3)
N1 N 0.5310(1) 0.7104(2) 0.6287(2)
N2 N 1.0382(1) 0.7622(3) 0.8004(3)
C1 C 0.4572(1) 0.7332(2) 0.7234(2)
C2 C 0.4593(2) 0.8006(3) 0.8830(3)
C3 C 0.3823(2) 0.8312(3) 0.9720(3)
C4 C 0.3017(2) 0.7935(3) 0.9041(3)
C5 C 0.2993(2) 0.7233(3) 0.7459(3)
C6 C 0.3755(2) 0.6934(3) 0.6557(3)
C7 C 0.6208(2) 0.7253(3) 0.6886(3)
C8 C 0.6847(2) 0.7235(3) 0.5670(3)
C9 C 0.7782(1) 0.7340(3) 0.6244(3)
C10 C 0.8335(2) 0.6043(3) 0.6097(3)
C11 C 0.9182(2) 0.6123(3) 0.6675(3)
C12 C 0.9471(1) 0.7535(3) 0.7399(3)
C13 C 0.8950(2) 0.8850(3) 0.7561(3)
C14 C 0.8100(2) 0.8744(3) 0.6971(3)
H1 H 0.529(2) 0.648(3) 0.532(3)
H2 H 0.513(2) 0.825(3) 0.933(3)
H3 H 0.386(2) 0.880(3) 1.091(3)
H4 H 0.248(2) 0.814(3) 0.957(3)
H5 H 0.241(2) 0.696(3) 0.694(3)
H6 H 0.373(1) 0.644(2) 0.537(2)
H7 H 0.642(2) 0.642(3) 0.722(3)
H8 H 0.619(1) 0.828(3) 0.773(3)
H9 H 0.684(2) 0.636(3) 0.478(3)
H10 H 0.666(2) 0.805(3) 0.535(3)
H11 H 0.810(2) 0.509(3) 0.561(3)
H12 H 0.957(2) 0.521(3) 0.654(3)
H13 H 0.918(2) 0.980(3) 0.809(3)
H14 H 0.768(2) 0.968(3) 0.702(3)
O3 O 0.5773(1) 0.3739(2) 0.7225(3)
O4 O 0.5951(1) 0.1289(2) 0.6376(2)
N3 N 0.0423(1) 0.2932(3) 0.8689(2)
N4 N 0.5508(1) 0.2519(2) 0.7028(2)
C15 C -0.0313(2) 0.2686(3) 0.7746(3)
C16 C -0.0244(2) 0.2029(3) 0.6148(3)
C17 C -0.1000(2) 0.1739(3) 0.5276(3)
C18 C -0.1839(2) 0.2100(3) 0.5956(3)
C19 C -0.1911(2) 0.2772(3) 0.7534(3)
C20 C -0.1167(2) 0.3064(3) 0.8423(3)
C21 C 0.1325(2) 0.2663(3) 0.8058(3)
C22 C 0.1995(2) 0.2649(3) 0.9268(3)
C23 C 0.2928(2) 0.2596(3) 0.8705(3)
C24 C 0.3287(2) 0.3938(3) 0.8937(3)
C25 C 0.4125(2) 0.3922(3) 0.8397(3)
C26 C 0.4608(1) 0.2537(3) 0.7608(2)
C27 C 0.4282(2) 0.1176(3) 0.7344(3)
C28 C 0.3440(2) 0.1221(3) 0.7899(3)
H15 H 0.032(2) 0.354(3) 0.966(3)
H16 H 0.032(2) 0.177(3) 0.563(3)
H17 H -0.094(2) 0.128(3) 0.414(3)
H18 H -0.238(2) 0.190(3) 0.538(3)
H19 H -0.253(2) 0.309(3) 0.793(3)
H20 H -0.121(2) 0.355(3) 0.960(3)
H21 H 0.146(2) 0.351(3) 0.776(3)
H22 H 0.143(2) 0.162(3) 0.722(3)
H23 H 0.183(2) 0.359(4) 1.022(4)
H24 H 0.192(2) 0.180(3) 0.951(3)
H25 H 0.296(2) 0.486(3) 0.947(3)
H26 H 0.438(2) 0.481(3) 0.861(3)
H27 H 0.463(2) 0.023(3) 0.671(3)
H28 H 0.319(2) 0.035(3) 0.771(3)
#END
