
#######################################################################
#
#                 Cambridge Crystallographic Data Centre
#                                CCDC
#
#######################################################################
#
# If this CIF has been generated from an entry in the Cambridge
# Structural Database, then it will include bibliographic, chemical,
# crystal, experimental, refinement or atomic coordinate data resulting
# from the CCDC's data processing and validation procedures.
#
#######################################################################

data_CSD_CIF_GEJSET
_audit_creation_date 1989-03-17
_audit_creation_method CSD-ConQuest-V1
_database_code_CSD GEJSET
_database_code_depnum_ccdc_archive 'CCDC 1165599'
_chemical_formula_sum 'C14 H15 N1 O5'
_chemical_formula_moiety
;
C14 H15 N1 O5
;
_journal_coden_Cambridge 4
_journal_volume 110
_journal_year 1988
_journal_page_first 4086
_journal_name_full 'J.Am.Chem.Soc. '
loop_
_publ_author_name
"F.Sugawara"
"N.Takahashi"
"G.A.Strobel"
"S.A.Strobel"
"H.S.M.Lu"
"J.Clardy"
_chemical_name_systematic
;
Triticone A
;
_cell_volume   2804.972
_exptl_special_details
;
phytotoxic activity
air-sensitive

;
_diffrn_ambient_temperature ?
_diffrn_special_details
;
The study was carried out at room temperature,in the range 283-303K

;
_refine_special_details
;
Large void space, possible disorder.

;
_chemical_compound_source
;
D.tritici-repentis
;
_symmetry_cell_setting orthorhombic
_symmetry_space_group_name_H-M 'P 21 21 21'
_symmetry_Int_Tables_number 19
loop_
_symmetry_equiv_pos_site_id
_symmetry_equiv_pos_as_xyz
1 x,y,z
2 1/2+x,1/2-y,-z
3 -x,1/2+y,1/2-z
4 1/2-x,-y,1/2+z
_cell_length_a 9.026(2)
_cell_length_b 13.387(3)
_cell_length_c 23.214(4)
_cell_angle_alpha 90
_cell_angle_beta 90
_cell_angle_gamma 90
_cell_formula_units_Z 8
loop_
_atom_type_symbol
_atom_type_radius_bond
C 0.68
H 0.23
N 0.68
O 0.68
loop_
_atom_site_label
_atom_site_type_symbol
_atom_site_fract_x
_atom_site_fract_y
_atom_site_fract_z
O1 O 0.5566(6) 0.2032(3) 0.2106(2)
O2 O 0.1916(6) 0.2197(5) 0.1653(2)
N1 N 0.3719(7) 0.2435(4) 0.0982(2)
O3 O 0.6144(5) 0.0467(4) 0.1019(2)
O4 O 0.3218(6) 0.3334(3) 0.0776(2)
C1 C 0.4629(8) 0.1174(5) 0.2120(3)
C2 C 0.3958(8) 0.0993(5) 0.1542(3)
O5 O 0.6684(6) 0.0370(4) 0.2576(2)
C3 C 0.3024(8) 0.1930(5) 0.1408(3)
C4 C 0.4988(9) 0.1993(5) 0.0759(3)
C5 C 0.3157(8) -0.0004(6) 0.1519(3)
C6 C 0.5497(9) 0.0265(5) 0.2352(3)
C7 C 0.3638(9) -0.0771(6) 0.1880(3)
C8 C 0.5185(8) 0.1046(5) 0.1086(3)
C9 C 0.4728(9) -0.0679(6) 0.2258(3)
C10 C 0.2122(10) -0.0235(6) 0.1123(4)
C11 C 0.5827(11) 0.2329(6) 0.0353(3)
C12 C 0.3702(14) 0.4087(6) 0.1167(5)
C13 C 0.1456(13) 0.0340(9) 0.0620(4)
C14 C -0.0176(13) 0.0285(14) 0.0616(7)
H1 H 0.49680 0.26310 0.19920
H2 H 0.37830 0.12940 0.23930
H3 H 0.31090 -0.14340 0.18580
H4 H 0.50510 -0.12810 0.24860
H5 H 0.16900 -0.09200 0.11750
H6 H 0.55980 0.29690 0.01530
H7 H 0.67180 0.19260 0.02250
H8 H 0.47840 0.40920 0.12080
H9 H 0.32410 0.39460 0.15660
H10 H 0.33290 0.47560 0.10410
H11 H 0.18490 0.00350 0.02480
H12 H 0.17810 0.10510 0.06450
H13 H -0.05810 0.05920 0.09800
H14 H -0.05220 -0.04230 0.05900
H15 H -0.05900 0.06700 0.02780
#END
