
#######################################################################
#
#                 Cambridge Crystallographic Data Centre
#                                CCDC
#
#######################################################################
#
# If this CIF has been generated from an entry in the Cambridge
# Structural Database, then it will include bibliographic, chemical,
# crystal, experimental, refinement or atomic coordinate data resulting
# from the CCDC's data processing and validation procedures.
#
#######################################################################

data_CSD_CIF_GEJSOG
_audit_creation_date 2017-11-27
_audit_creation_method CSD-ConQuest-V1
_database_code_CSD GEJSOG
_database_code_depnum_ccdc_archive 'CCDC 1545076'
_chemical_formula_sum 'C8 H18 N6 O6'
_chemical_formula_moiety
;
C8 H18 N6 O6
;
_journal_coden_Cambridge 1135
_journal_volume 27
_journal_year 2017
_journal_page_first 567
_journal_name_full 'Mendeleev Commun. '
loop_
_publ_author_name
"G.A.Smirnov"
"P.B.Gordeev"
"S.V.Nikitin"
"Y.V.Nelyubina"
"G.V.Pokhvisneva"
"T.V.Ternikova"
"O.A.Lukyanov"
_chemical_name_systematic
;
4,12-Dimethyl-1,7,9,15-tetraoxa-2,3,4,10,11,12-hexaazacyclohexadeca-2,10-diene
 3,11-dioxide
;
_chemical_melting_point 449.15
_cell_volume    317.174
_exptl_crystal_colour 'colorless'
_exptl_crystal_density_diffrn 1.541
_exptl_special_details
;
Melting point range 449.15-452.15K

;
_exptl_crystal_description 'prism'
_diffrn_ambient_temperature 120
#These two values have been output from a single CSD field.
_refine_ls_R_factor_gt 0.0391
_refine_ls_wR_factor_gt 0.0391
_symmetry_cell_setting triclinic
_symmetry_space_group_name_H-M 'P -1'
_symmetry_Int_Tables_number 2
loop_
_symmetry_equiv_pos_site_id
_symmetry_equiv_pos_as_xyz
1 x,y,z
2 -x,-y,-z
_cell_length_a 6.5565(13)
_cell_length_b 7.0088(14)
_cell_length_c 7.1970(14)
_cell_angle_alpha 74.562(4)
_cell_angle_beta 86.138(4)
_cell_angle_gamma 84.836(4)
_cell_formula_units_Z 1
loop_
_atom_type_symbol
_atom_type_radius_bond
C 0.68
H 0.23
N 0.68
O 0.68
loop_
_atom_site_label
_atom_site_type_symbol
_atom_site_fract_x
_atom_site_fract_y
_atom_site_fract_z
N1 N 0.68859(16) 0.21930(15) 0.34575(15)
N2 N 0.65612(16) 0.19062(15) 0.54473(15)
N3 N 0.46912(16) 0.21656(15) 0.60143(15)
O1 O 0.80646(14) 0.13186(14) 0.64965(13)
O2 O 0.46205(13) 0.15191(13) 0.80266(12)
O3 O 0.19766(14) 0.36241(12) 0.88731(12)
C1 C 0.8874(2) 0.29633(19) 0.27466(19)
H1 H 0.91480 0.28350 0.14140
H2 H 0.99490 0.21210 0.35540
C2 C 0.5102(2) 0.30512(19) 0.23374(18)
H3 H 0.39840 0.21680 0.27340
H4 H 0.54580 0.32150 0.09620
H5 H 0.46620 0.43480 0.25620
C3 C 0.25306(19) 0.17085(18) 0.87117(18)
H6 H 0.16260 0.13840 0.78090
H7 H 0.23410 0.07520 0.99880
C4 C 0.09332(19) 0.49017(18) 0.72621(19)
H8 H -0.05310 0.46290 0.73640
H9 H 0.15440 0.46530 0.60450
N1A N 0.31141(16) 0.78070(15) 0.65425(15)
N2A N 0.34388(16) 0.80938(15) 0.45527(15)
N3A N 0.53088(16) 0.78344(15) 0.39857(15)
O1A O 0.19354(14) 0.86814(14) 0.35035(13)
O2A O 0.53795(13) 0.84809(13) 0.19734(12)
O3A O 0.80234(14) 0.63759(12) 0.11269(12)
C1A C 0.1126(2) 0.70367(19) 0.72534(19)
H1A H 0.08520 0.71650 0.85860
H2A H 0.00510 0.78790 0.64460
C2A C 0.4898(2) 0.69488(19) 0.76626(18)
H3A H 0.60160 0.78320 0.72660
H4A H 0.45420 0.67850 0.90380
H5A H 0.53380 0.56520 0.74380
C3A C 0.74694(19) 0.82915(18) 0.12883(18)
H6A H 0.83740 0.86160 0.21910
H7A H 0.76590 0.92480 0.00120
C4A C 0.90668(19) 0.50983(18) 0.27379(19)
H8A H 1.05310 0.53710 0.26360
H9A H 0.84560 0.53470 0.39550
#END
