
#######################################################################
#
#                 Cambridge Crystallographic Data Centre
#                                CCDC
#
#######################################################################
#
# If this CIF has been generated from an entry in the Cambridge
# Structural Database, then it will include bibliographic, chemical,
# crystal, experimental, refinement or atomic coordinate data resulting
# from the CCDC's data processing and validation procedures.
#
#######################################################################

data_CSD_CIF_GEJTUL
_audit_creation_date 2006-11-07
_audit_creation_method CSD-ConQuest-V1
_database_code_CSD GEJTUL
_database_code_depnum_ccdc_archive 'CCDC 274767'
_chemical_formula_sum 'C29 H29 N3 O4'
_chemical_formula_moiety
;
C29 H29 N3 O4
;
_journal_coden_Cambridge 15
_journal_volume 84
_journal_year 2006
_journal_page_first 867
_journal_name_full 'Can.J.Chem. '
loop_
_publ_author_name
"Yan-Hong Liu"
"Tong-Lai Zhang"
"Jian-Guo Zhang"
"Li Yang"
"Jin-Yu Guo"
"Wei Yu"
"Rui-Feng Wu"
"Kai-Bei Yu"
_chemical_name_systematic
;
1,4-bis(p-Methylstyryl)-2-(piperidine-1-yl)-3,5-dinitrobenzene
;
_cell_volume   1263.693
_exptl_crystal_density_diffrn 1.271
_diffrn_ambient_temperature 288
#These two values have been output from a single CSD field.
_refine_ls_R_factor_gt 0.0437
_refine_ls_wR_factor_gt 0.0437
_symmetry_cell_setting triclinic
_symmetry_space_group_name_H-M 'P -1'
_symmetry_Int_Tables_number 2
loop_
_symmetry_equiv_pos_site_id
_symmetry_equiv_pos_as_xyz
1 x,y,z
2 -x,-y,-z
_cell_length_a 8.226(1)
_cell_length_b 10.613(1)
_cell_length_c 14.889(2)
_cell_angle_alpha 91.89(1)
_cell_angle_beta 102.42(1)
_cell_angle_gamma 94.58(1)
_cell_formula_units_Z 2
loop_
_atom_type_symbol
_atom_type_radius_bond
C 0.68
H 0.23
N 0.68
O 0.68
loop_
_atom_site_label
_atom_site_type_symbol
_atom_site_fract_x
_atom_site_fract_y
_atom_site_fract_z
O1 O 0.1966(2) 0.15478(18) 0.30286(11)
O2 O 0.3184(2) 0.02706(16) 0.40051(12)
O3 O 0.9356(2) 0.43027(17) 0.39641(11)
O4 O 0.73481(19) 0.48097(15) 0.28875(11)
N1 N 0.3034(2) 0.1312(2) 0.36859(13)
N2 N 0.7868(2) 0.42967(17) 0.35992(13)
N3 N 0.32472(18) 0.22283(15) 0.55761(10)
C1 C 0.4283(2) 0.23514(18) 0.41404(13)
C2 C 0.4415(2) 0.26695(17) 0.50751(13)
C3 C 0.5793(2) 0.35181(18) 0.55228(13)
C4 C 0.6909(2) 0.39898(18) 0.50057(13)
H1 H 0.78280 0.45370 0.52910
C5 C 0.6679(2) 0.36630(18) 0.40850(13)
C6 C 0.5366(2) 0.28294(18) 0.36025(13)
C7 C 0.5271(3) 0.24075(19) 0.26369(13)
H2 H 0.42900 0.24800 0.22020
C8 C 0.6536(3) 0.19292(19) 0.23689(13)
H3 H 0.74560 0.18020 0.28330
C9 C 0.6661(3) 0.15777(19) 0.14313(13)
C10 C 0.5587(3) 0.1966(2) 0.06564(15)
H4 H 0.47290 0.24530 0.07320
C11 C 0.5761(3) 0.1647(2) -0.02185(15)
H5 H 0.50240 0.19280 -0.07210
C12 C 0.7004(3) 0.0922(2) -0.03671(15)
C13 C 0.8050(3) 0.0511(2) 0.03999(16)
H6 H 0.88730 -0.00080 0.03210
C14 C 0.7910(3) 0.0849(2) 0.12811(14)
H7 H 0.86660 0.05830 0.17820
C15 C 0.7213(3) 0.0600(3) -0.13303(15)
H8 H 0.61350 0.04750 -0.17410
H9 H 0.77700 -0.01610 -0.13310
H10 H 0.78680 0.12810 -0.15300
C16 C 0.6005(2) 0.39636(18) 0.64883(13)
H11 H 0.50900 0.38190 0.67570
C17 C 0.7383(2) 0.4554(2) 0.70115(14)
H12 H 0.82970 0.46770 0.67400
C18 C 0.7625(2) 0.5033(2) 0.79671(13)
C19 C 0.6661(3) 0.4595(2) 0.85607(15)
H13 H 0.57920 0.39690 0.83510
C20 C 0.6961(3) 0.5070(2) 0.94606(16)
H14 H 0.63010 0.47410 0.98470
C21 C 0.8204(3) 0.6014(2) 0.98032(15)
C22 C 0.9176(3) 0.6441(2) 0.92182(16)
H15 H 1.00370 0.70730 0.94300
C23 C 0.8909(3) 0.5959(2) 0.83227(15)
H16 H 0.96080 0.62620 0.79480
C24 C 0.8498(4) 0.6537(3) 1.07868(16)
H17 H 0.96780 0.66960 1.10350
H18 H 0.80270 0.59350 1.11480
H19 H 0.79770 0.73130 1.08020
C25 C 0.1478(2) 0.1948(2) 0.51483(14)
H20 H 0.12800 0.10810 0.48960
H21 H 0.11620 0.25020 0.46470
C26 C 0.0427(3) 0.2134(2) 0.58552(15)
H22 H 0.05400 0.30210 0.60570
H23 H -0.07390 0.18990 0.55730
C27 C 0.0952(3) 0.1345(2) 0.66811(15)
H24 H 0.06950 0.04540 0.64970
H25 H 0.03350 0.15450 0.71460
C28 C 0.2814(3) 0.1613(2) 0.70786(14)
H26 H 0.30460 0.24760 0.73370
H27 H 0.31580 0.10500 0.75710
C29 C 0.3793(2) 0.1427(2) 0.63439(13)
H28 H 0.49740 0.16360 0.66040
H29 H 0.36350 0.05460 0.61220
#END
