
#######################################################################
#
#                 Cambridge Crystallographic Data Centre
#                                CCDC
#
#######################################################################
#
# If this CIF has been generated from an entry in the Cambridge
# Structural Database, then it will include bibliographic, chemical,
# crystal, experimental, refinement or atomic coordinate data resulting
# from the CCDC's data processing and validation procedures.
#
#######################################################################

data_CSD_CIF_GEJVAT
_audit_creation_date 2006-11-07
_audit_creation_method CSD-ConQuest-V1
_database_code_CSD GEJVAT
_database_code_depnum_ccdc_archive 'CCDC 274768'
_chemical_formula_sum 'C24 H19 N3 O6'
_chemical_formula_moiety
;
C24 H19 N3 O6
;
_journal_coden_Cambridge 15
_journal_volume 84
_journal_year 2006
_journal_page_first 867
_journal_name_full 'Can.J.Chem. '
loop_
_publ_author_name
"Yan-Hong Liu"
"Tong-Lai Zhang"
"Jian-Guo Zhang"
"Li Yang"
"Jin-Yu Guo"
"Wei Yu"
"Rui-Feng Wu"
"Kai-Bei Yu"
_chemical_name_systematic
;
1,4-bis(p-Methylstyryl)-2,3,5-trinitrobenzene
;
_cell_volume   1084.157
_exptl_crystal_colour 'pale yellow'
_exptl_crystal_density_diffrn 1.364
_exptl_crystal_preparation 'acetone'
_diffrn_ambient_temperature 296
#These two values have been output from a single CSD field.
_refine_ls_R_factor_gt 0.0426
_refine_ls_wR_factor_gt 0.0426
_symmetry_cell_setting triclinic
_symmetry_space_group_name_H-M 'P -1'
_symmetry_Int_Tables_number 2
loop_
_symmetry_equiv_pos_site_id
_symmetry_equiv_pos_as_xyz
1 x,y,z
2 -x,-y,-z
_cell_length_a 8.312(2)
_cell_length_b 8.537(2)
_cell_length_c 16.733(4)
_cell_angle_alpha 89.12(2)
_cell_angle_beta 87.11(2)
_cell_angle_gamma 66.10(2)
_cell_formula_units_Z 2
loop_
_atom_type_symbol
_atom_type_radius_bond
C 0.68
H 0.23
N 0.68
O 0.68
loop_
_atom_site_label
_atom_site_type_symbol
_atom_site_fract_x
_atom_site_fract_y
_atom_site_fract_z
O1 O 0.7213(2) 0.15279(19) 0.58148(10)
O2 O 0.8221(2) 0.1996(2) 0.69086(10)
O3 O 0.4558(2) 0.2864(2) 0.73835(11)
O4 O 0.4796(3) 0.4683(2) 0.82018(11)
O5 O 0.3905(3) 1.0506(2) 0.59155(13)
O6 O 0.1625(2) 0.9932(2) 0.58986(11)
N1 N 0.7310(2) 0.2463(2) 0.63333(12)
N2 N 0.4759(3) 0.4163(3) 0.75378(12)
N3 N 0.3172(3) 0.9535(2) 0.59808(11)
C1 C 1.3086(3) 0.2360(4) 0.15641(15)
H1 H 1.37700 0.11540 0.16240
H2 H 1.38620 0.29360 0.14830
H3 H 1.23670 0.25480 0.11110
H4? H 1.28960 0.32710 0.11880
H5? H 1.28040 0.14890 0.13300
H6? H 1.42990 0.18770 0.17010
C2 C 1.1923(3) 0.3056(3) 0.23099(14)
C3 C 1.1915(3) 0.2000(3) 0.29509(14)
H7 H 1.26910 0.08520 0.29320
C4 C 1.0789(3) 0.2615(3) 0.36096(13)
H8 H 1.08120 0.18750 0.40270
C5 C 0.9611(3) 0.4327(3) 0.36644(12)
C6 C 0.9668(3) 0.5390(3) 0.30341(14)
H9 H 0.89240 0.65480 0.30580
C7 C 1.0802(3) 0.4763(3) 0.23769(14)
H10 H 1.08140 0.55090 0.19680
C8 C 0.8321(3) 0.5056(3) 0.43284(13)
H11 H 0.76360 0.62260 0.42960
C9 C 0.7988(3) 0.4296(3) 0.49679(12)
H12 H 0.86690 0.31310 0.50270
C10 C 0.6622(3) 0.5153(2) 0.55910(12)
C11 C 0.6258(3) 0.4315(2) 0.62508(12)
C12 C 0.4999(3) 0.5167(3) 0.68486(12)
C13 C 0.3954(3) 0.6928(3) 0.68269(12)
C14 C 0.4292(3) 0.7709(2) 0.61384(12)
C15 C 0.5570(3) 0.6919(2) 0.55618(12)
H13 H 0.57500 0.75600 0.51400
C16 C 0.2640(3) 0.7868(3) 0.74639(13)
H14 H 0.18510 0.74210 0.76650
C17 C 0.2554(3) 0.9342(3) 0.77600(13)
H15 H 0.33620 0.97500 0.75430
C18 C 0.1309(3) 1.0393(3) 0.83970(13)
C19 C 0.1733(4) 1.1518(3) 0.88385(14)
H16 H 0.27980 1.16150 0.87320
C20 C 0.0565(5) 1.2505(3) 0.94419(16)
H17 H 0.08770 1.32430 0.97390
C21 C -0.1043(4) 1.2427(3) 0.96148(16)
C22 C -0.1439(4) 1.1322(4) 0.91641(17)
H18 H -0.25170 1.12470 0.92620
C23 C -0.0303(3) 1.0317(3) 0.85719(15)
H19 H -0.06220 0.95720 0.82840
C24 C -0.2281(5) 1.3532(4) 1.02556(18)
H20 H -0.17550 1.42100 1.04990
H21 H -0.25210 1.28230 1.06530
H22 H -0.33610 1.42740 1.00260
H23? H -0.33360 1.33280 1.02860
H24? H -0.25700 1.47150 1.01320
H25? H -0.17310 1.32640 1.07600
#END
