
#######################################################################
#
#                 Cambridge Crystallographic Data Centre
#                                CCDC
#
#######################################################################
#
# If this CIF has been generated from an entry in the Cambridge
# Structural Database, then it will include bibliographic, chemical,
# crystal, experimental, refinement or atomic coordinate data resulting
# from the CCDC's data processing and validation procedures.
#
#######################################################################

data_CSD_CIF_GEKHEJ
_audit_creation_date 1989-03-17
_audit_creation_method CSD-ConQuest-V1
_database_code_CSD GEKHEJ
_chemical_formula_sum 'C8 H7 N1 O5'
_chemical_formula_moiety
;
C8 H7 N1 O5
;
_journal_coden_Cambridge 580
_journal_volume 4
_journal_year 1985
_journal_page_first 697
_journal_name_full 'Polyhedron '
loop_
_publ_author_name
"C.H.L.Kennard"
"S.W.Stewart"
"E.J.O'Reilly"
"G.Smith"
"A.H.White"
_chemical_name_systematic
;
(2-Nitrophenoxy)ethanoic acid
;
_cell_volume   1733.052
_exptl_crystal_density_diffrn 1.51
_diffrn_ambient_temperature ?
_diffrn_special_details
;
The study was carried out at room temperature,in the range 283-303K

;
_refine_special_details
;
The O atoms of the nitro groups are disordered.

;
#These two values have been output from a single CSD field.
_refine_ls_R_factor_gt 0.085
_refine_ls_wR_factor_gt 0.085
_symmetry_cell_setting monoclinic
_symmetry_space_group_name_H-M 'C 2/c'
_symmetry_Int_Tables_number 15
loop_
_symmetry_equiv_pos_site_id
_symmetry_equiv_pos_as_xyz
1 x,y,z
2 1/2+x,1/2+y,z
3 -x,y,1/2-z
4 1/2-x,1/2+y,1/2-z
5 -x,-y,-z
6 -1/2-x,-1/2-y,-z
7 x,-y,-1/2+z
8 -1/2+x,-1/2-y,-1/2+z
_cell_length_a 11.496(2)
_cell_length_b 7.783(1)
_cell_length_c 19.577(3)
_cell_angle_alpha 90
_cell_angle_beta 98.35(1)
_cell_angle_gamma 90
_cell_formula_units_Z 8
loop_
_atom_type_symbol
_atom_type_radius_bond
C 0.68
H 0.23
N 0.68
O 0.68
loop_
_atom_site_label
_atom_site_type_symbol
_atom_site_fract_x
_atom_site_fract_y
_atom_site_fract_z
C1 C 0.9987(6) 0.7306(7) -0.1206(3)
C2 C 1.0860(6) 0.7023(7) -0.1627(3)
C3 C 1.1381(6) 0.8373(8) -0.1924(3)
C4 C 1.1050(6) 1.0022(8) -0.1801(3)
C5 C 1.0189(7) 1.0339(8) -0.1399(3)
C6 C 0.9666(6) 0.8987(7) -0.1107(3)
O1 O 0.9497(4) 0.5904(5) -0.0943(2)
C7 C 0.8603(6) 0.6225(7) -0.0531(3)
C8 C 0.8133(7) 0.4539(7) -0.0314(3)
O2 O 0.8627(4) 0.3148(5) -0.0428(2)
O3 O 0.7235(5) 0.4670(5) -0.0015(2)
N1 N 1.1247(5) 0.5290(7) -0.1765(3)
O4 O 1.1510(6) 0.4991(7) -0.2322(3)
O5 O 1.1308(5) 0.4216(6) -0.1313(3)
H1 H 1.19700 0.81560 -0.22150
H2 H 1.14200 1.09640 -0.20020
H3 H 0.99570 1.14990 -0.13210
H4 H 0.90660 0.92240 -0.08260
H5 H 0.89130 0.68770 -0.01290
H6 H 0.79780 0.68570 -0.07970
#END
