
#######################################################################
#
#                 Cambridge Crystallographic Data Centre
#                                CCDC
#
#######################################################################
#
# If this CIF has been generated from an entry in the Cambridge
# Structural Database, then it will include bibliographic, chemical,
# crystal, experimental, refinement or atomic coordinate data resulting
# from the CCDC's data processing and validation procedures.
#
#######################################################################

data_CSD_CIF_GEKKEO
_audit_creation_date 2013-01-17
_audit_creation_method CSD-ConQuest-V1
_database_code_CSD GEKKEO
_database_code_depnum_ccdc_archive 'CCDC 768510'
_chemical_formula_sum 'C11 H9 N3 O10'
_chemical_formula_moiety
;
C11 H9 N3 O10
;
_journal_coden_Cambridge 95
_journal_year 2011
_journal_page_first 1637
_journal_name_full 'Izv.Akad.Nauk SSSR,Ser.Khim.(Russ.)(Russ.Chem.Bull.) '
loop_
_publ_author_name
"Yu.G.Gololobov"
"S.V.Barabanov"
"A.S.Peregudov"
"P.V.Petrovsky"
"Z.A.Starikova"
"V.N.Khrustalev"
"I.A.Garbuzova"
_chemical_name_systematic
;
Dimethyl (2,4,6-trinitrophenyl)malonate
;
_chemical_melting_point 418.15
_cell_volume   2781.942
_exptl_crystal_colour 'colorless'
_exptl_crystal_density_diffrn 1.639
_exptl_special_details
;
Melting point range 418.15-420.15K

;
_exptl_crystal_description 'plate'
_diffrn_ambient_temperature 100
#These two values have been output from a single CSD field.
_refine_ls_R_factor_gt 0.0417
_refine_ls_wR_factor_gt 0.0417
_symmetry_cell_setting monoclinic
_symmetry_space_group_name_H-M 'P 21/n'
_symmetry_Int_Tables_number 14
loop_
_symmetry_equiv_pos_site_id
_symmetry_equiv_pos_as_xyz
1 x,y,z
2 1/2-x,1/2+y,1/2-z
3 -x,-y,-z
4 -1/2+x,-1/2-y,-1/2+z
_cell_length_a 8.9399(7)
_cell_length_b 14.373(1)
_cell_length_c 21.997(2)
_cell_angle_alpha 90
_cell_angle_beta 100.183(2)
_cell_angle_gamma 90
_cell_formula_units_Z 8
loop_
_atom_type_symbol
_atom_type_radius_bond
C 0.68
H 0.23
N 0.68
O 0.68
loop_
_atom_site_label
_atom_site_type_symbol
_atom_site_fract_x
_atom_site_fract_y
_atom_site_fract_z
O1 O 0.61077(14) 0.65223(9) 0.23335(6)
O2 O 0.47459(15) 0.68489(9) 0.30313(6)
O3 O 0.45297(17) 0.36167(10) 0.40113(6)
O4 O 0.26968(17) 0.28277(9) 0.34798(6)
O5 O 0.27065(15) 0.41827(9) 0.08399(6)
O6 O 0.1508(2) 0.32174(12) 0.13214(7)
O7 O 0.57110(14) 0.50492(9) 0.10805(6)
O8 O 0.50711(15) 0.64922(9) 0.07410(6)
O9 O 0.09227(13) 0.56803(9) 0.12741(6)
O10 O 0.19696(13) 0.61618(9) 0.04763(5)
N1 N 0.51367(16) 0.63365(10) 0.26478(7)
N2 N 0.36489(18) 0.34485(10) 0.35373(7)
N3 N 0.23926(18) 0.38558(10) 0.13101(7)
C1 C 0.36304(18) 0.58438(11) 0.14237(7)
H1 H 0.37890 0.64570 0.16190
C2 C 0.49228(19) 0.57258(12) 0.10599(8)
C3 C 0.20214(19) 0.58681(11) 0.10484(8)
C4 C 0.37374(18) 0.51541(11) 0.19525(7)
C5 C 0.44027(18) 0.54183(11) 0.25516(8)
C6 C 0.44096(19) 0.48840(12) 0.30745(8)
H2 H 0.48600 0.50930 0.34640
C7 C 0.37176(19) 0.40276(12) 0.29911(8)
C8 C 0.30531(19) 0.37000(12) 0.24190(8)
H3 H 0.25900 0.31190 0.23750
C9 C 0.30952(19) 0.42621(12) 0.19128(8)
C10 C 0.6189(3) 0.64476(16) 0.03358(11)
H4 H 0.62140 0.70320 0.01260
H5 H 0.59170 0.59610 0.00380
H6 H 0.71720 0.63200 0.05760
C11 C 0.0450(2) 0.63138(14) 0.01318(9)
H7 H 0.05130 0.65250 -0.02770
H8 H -0.00560 0.67750 0.03380
H9 H -0.01110 0.57420 0.01070
O11 O 1.12504(14) 0.64772(9) 0.26469(6)
O12 O 0.92201(14) 0.68325(8) 0.19882(6)
O13 O 0.79071(16) 0.34915(10) 0.11490(6)
O14 O 0.63616(18) 0.29238(10) 0.17124(7)
O15 O 0.91846(16) 0.43694(10) 0.42905(6)
O16 O 0.7677(2) 0.33024(11) 0.38645(7)
O17 O 1.19788(14) 0.49805(9) 0.39035(6)
O18 O 1.19240(14) 0.64022(9) 0.43127(6)
O19 O 0.71784(14) 0.5885(1) 0.38470(6)
O20 O 0.90234(14) 0.64835(9) 0.45611(5)
N4 N 0.99515(16) 0.63231(10) 0.23724(6)
N5 N 0.73969(18) 0.34416(10) 0.16244(7)
N6 N 0.84787(17) 0.39796(10) 0.38402(7)
C12 C 0.97216(19) 0.59170(11) 0.36401(8)
H10 H 0.98090 0.65090 0.34280
C13 C 0.84901(19) 0.60751(11) 0.40317(8)
C14 C 1.13250(19) 0.56935(12) 0.39722(8)
C15 C 0.92017(18) 0.52186(11) 0.31307(7)
C16 C 0.92489(18) 0.54365(11) 0.25156(8)
C17 C 0.86867(19) 0.48832(12) 0.20133(8)
H11 H 0.87380 0.50630 0.16110
C18 C 0.80450(19) 0.40490(12) 0.21408(8)
C19 C 0.79729(19) 0.37621(12) 0.27322(8)
H12 H 0.75400 0.31940 0.28050
C20 C 0.85655(19) 0.43462(11) 0.32151(8)
C21 C 1.3455(2) 0.62722(16) 0.46420(11)
H13 H 1.37840 0.68240 0.48740
H14 H 1.41200 0.61520 0.43520
H15 H 1.34810 0.57540 0.49190
C22 C 0.7898(2) 0.67006(13) 0.49426(8)
H16 H 0.83880 0.69950 0.53170
H17 H 0.74160 0.61370 0.50410
H18 H 0.71480 0.71130 0.47220
#END
