
#######################################################################
#
#                 Cambridge Crystallographic Data Centre
#                                CCDC
#
#######################################################################
#
# If this CIF has been generated from an entry in the Cambridge
# Structural Database, then it will include bibliographic, chemical,
# crystal, experimental, refinement or atomic coordinate data resulting
# from the CCDC's data processing and validation procedures.
#
#######################################################################

data_CSD_CIF_GEKMEP
_audit_creation_date 2006-11-07
_audit_creation_method CSD-ConQuest-V1
_database_code_CSD GEKMEP
_database_code_depnum_ccdc_archive 'CCDC 234419'
_chemical_formula_sum 'C17 H27 N1 O1'
_chemical_formula_moiety
;
C17 H27 N1 O1
;
_journal_coden_Cambridge 692
_journal_volume 2006
_journal_year 2006
_journal_page_first 2215
_journal_name_full 'Synthesis '
loop_
_publ_author_name
"P.Kraft"
"D.Frech"
"U.Muller"
"G.Frater"
_chemical_name_systematic
;
(E)-(1'R*,1'S*)-1',8',8'-trimethyl-3',4',5',6',7',8'-hexahydro-1'H,2H-spiro(cy
clopentane-1,2'-naphthalen)-2-one oxime
;
_chemical_melting_point 461.15
_cell_volume    761.602
_exptl_crystal_colour 'colorless'
_exptl_crystal_density_diffrn 1.14
_exptl_special_details
;
Melting point range 461.15-462.15K

;
_exptl_crystal_preparation 't-butyl methyl ether'
_diffrn_ambient_temperature 183
#These two values have been output from a single CSD field.
_refine_ls_R_factor_gt 0.0609
_refine_ls_wR_factor_gt 0.0609
_symmetry_cell_setting triclinic
_symmetry_space_group_name_H-M 'P -1'
_symmetry_Int_Tables_number 2
loop_
_symmetry_equiv_pos_site_id
_symmetry_equiv_pos_as_xyz
1 x,y,z
2 -x,-y,-z
_cell_length_a 6.886(30)
_cell_length_b 10.049(18)
_cell_length_c 12.572(57)
_cell_angle_alpha 66.1
_cell_angle_beta 73.39
_cell_angle_gamma 81.4
_cell_formula_units_Z 2
loop_
_atom_type_symbol
_atom_type_radius_bond
C 0.68
H 0.23
N 0.68
O 0.68
loop_
_atom_site_label
_atom_site_type_symbol
_atom_site_fract_x
_atom_site_fract_y
_atom_site_fract_z
O1 O 0.08653(28) 0.65605(19) 0.89725(17)
H1 H -0.01069(28) 0.61932(19) 0.95292(17)
N1 N 0.20266(33) 0.52311(23) 0.90928(20)
C1 C 0.73291(44) 0.20161(28) 0.62132(25)
C2 C 0.94044(61) 0.11443(40) 0.61867(33)
H2 H 1.04321(61) 0.17325(40) 0.61346(33)
H3 H 0.97731(61) 0.09094(40) 0.54849(33)
C3 C 0.94569(69) -0.01301(39) 0.72873(34)
H4 H 1.06862(69) -0.07194(39) 0.72335(34)
H5 H 0.83664(69) -0.06806(39) 0.73608(34)
C4 C 0.89228(45) 0.02464(28) 0.83818(26)
H6 H 1.01743(45) 0.04932(28) 0.84375(26)
H7 H 0.84358(45) -0.05942(28) 0.90885(26)
C5 C 0.73542(38) 0.14852(26) 0.83461(22)
C6 C 0.66063(38) 0.22833(26) 0.73947(22)
C7 C 0.50178(38) 0.35189(26) 0.74353(23)
H8 H 0.52433(38) 0.42685(26) 0.66434(23)
C8 C 0.52891(37) 0.42007(25) 0.82967(21)
C9 C 0.51945(44) 0.29848(29) 0.95353(23)
H9 H 0.38621(44) 0.26019(29) 0.98416(23)
H10 H 0.54041(44) 0.33719(29) 1.00761(23)
C10 C 0.68292(46) 0.17974(29) 0.94774(24)
H11 H 0.80396(46) 0.20711(29) 0.95594(24)
H12 H 0.63969(46) 0.09144(29) 1.01534(24)
C11 C 0.72901(40) 0.50231(27) 0.77683(25)
H13 H 0.83342(40) 0.45077(27) 0.73757(25)
H14 H 0.77497(40) 0.51255(27) 0.83828(25)
C12 C 0.67785(42) 0.65239(27) 0.68540(25)
H15 H 0.68629(42) 0.64882(27) 0.60904(25)
H16 H 0.77038(42) 0.72203(27) 0.67466(25)
C13 C 0.45855(43) 0.68928(28) 0.74232(23)
H17 H 0.38065(43) 0.73573(28) 0.68367(23)
H18 H 0.45811(43) 0.75252(28) 0.78270(23)
C14 C 0.37474(39) 0.54396(26) 0.83264(22)
C15 C 0.57818(65) 0.12098(45) 0.60590(34)
H19 H 0.54864(65) 0.03353(45) 0.67666(34)
H20 H 0.45506(65) 0.17816(45) 0.59584(34)
H21 H 0.63747(65) 0.09609(45) 0.53704(34)
C16 C 0.77740(55) 0.34299(34) 0.51095(27)
H22 H 0.82400(55) 0.32253(34) 0.43931(27)
H23 H 0.66046(55) 0.40836(34) 0.50539(27)
H24 H 0.88308(55) 0.38716(34) 0.51978(27)
C17 C 0.28462(45) 0.30040(36) 0.77523(35)
H25 H 0.27239(45) 0.25928(36) 0.72066(35)
H26 H 0.25614(45) 0.22802(36) 0.85556(35)
H27 H 0.18992(45) 0.38173(36) 0.77116(35)
#END
