
#######################################################################
#
#                 Cambridge Crystallographic Data Centre
#                                CCDC
#
#######################################################################
#
# If this CIF has been generated from an entry in the Cambridge
# Structural Database, then it will include bibliographic, chemical,
# crystal, experimental, refinement or atomic coordinate data resulting
# from the CCDC's data processing and validation procedures.
#
#######################################################################

data_CSD_CIF_GELRIA
_audit_creation_date 2013-01-17
_audit_creation_method CSD-ConQuest-V1
_database_code_CSD GELRIA
_database_code_depnum_ccdc_archive 'CCDC 876750'
_chemical_formula_sum 'C10 H14 N3 O3'
_chemical_formula_moiety
;
C10 H14 N3 O3
;
_journal_coden_Cambridge 95
_journal_year 2011
_journal_page_first 2423
_journal_name_full 'Izv.Akad.Nauk SSSR,Ser.Khim.(Russ.)(Russ.Chem.Bull.) '
loop_
_publ_author_name
"S.V.Fokin"
"S.E.Tolstikov"
"E.V.Tret'yakov"
"G.V.Romanenko"
"A.S.Bogomyakov"
"S.L.Veber"
"R.Z.Sagdeev"
"V.I.Ovcharenko"
_chemical_name_systematic
;
2-(Isoxazol-4-yl)-4,4,5,5-tetramethyl-4,5-dihydro-1H-imidazole-3-oxide-1-oxyl
;
_chemical_melting_point 393.15
_cell_volume   1163.702
_exptl_crystal_colour 'blue'
_exptl_crystal_density_diffrn 1.28
_exptl_special_details
;
Melting point range 393.15-394.15K

;
_exptl_crystal_description 'plate'
_exptl_crystal_preparation 'dichloromethane/heptane'
_diffrn_ambient_temperature 295
_refine_special_details
;
N3,O3 of the oxazolyl group are disordered by symmetry over two sites with 
occupancy 0.50.
;
#These two values have been output from a single CSD field.
_refine_ls_R_factor_gt 0.0387
_refine_ls_wR_factor_gt 0.0387
_symmetry_cell_setting monoclinic
_symmetry_space_group_name_H-M 'C 2/c'
_symmetry_Int_Tables_number 15
loop_
_symmetry_equiv_pos_site_id
_symmetry_equiv_pos_as_xyz
1 x,y,z
2 -x,y,1/2-z
3 1/2+x,1/2+y,z
4 1/2-x,1/2+y,1/2-z
5 -x,-y,-z
6 x,-y,-1/2+z
7 -1/2-x,-1/2-y,-z
8 -1/2+x,-1/2-y,-1/2+z
_cell_length_a 11.343(5)
_cell_length_b 9.880(4)
_cell_length_c 11.041(4)
_cell_angle_alpha 90
_cell_angle_beta 109.868(6)
_cell_angle_gamma 90
_cell_formula_units_Z 4
loop_
_atom_type_symbol
_atom_type_radius_bond
C 0.68
H 0.23
N 0.68
O 0.68
loop_
_atom_site_label
_atom_site_type_symbol
_atom_site_fract_x
_atom_site_fract_y
_atom_site_fract_z
N1 N 0.57966(12) 0.05271(14) 0.33849(12)
C1 C 0.50000 0.1306(2) 0.25000
O1 O 0.66730(12) 0.09572(13) 0.43779(12)
C2 C 0.50000 0.2756(2) 0.25000
C3 C 0.56446(16) -0.09436(16) 0.30498(14)
C4 C 0.5719(2) 0.3620(2) 0.3449(2)
N2 N 0.54742(16) 0.48801(16) 0.31180(17)
O2? O 0.54742(16) 0.48801(16) 0.31180(17)
C5 C 0.5700(3) -0.1732(2) 0.4251(2)
C6 C 0.6745(2) -0.1323(3) 0.2632(3)
H1 H 0.655(2) -0.157(2) 0.496(2)
H2 H 0.750(2) -0.104(2) 0.336(2)
H3 H 0.6749(17) -0.085(2) 0.186(2)
H4 H 0.497(2) -0.136(2) 0.4548(19)
H5 H 0.559(2) -0.270(3) 0.402(2)
H6 H 0.668(2) -0.223(3) 0.244(2)
H7 H 0.635(2) 0.346(2) 0.426(2)
N1A N 0.42034(12) 0.05271(14) 0.16151(12)
O1A O 0.33270(12) 0.09572(13) 0.06221(12)
C3A C 0.43554(16) -0.09436(16) 0.19502(14)
C4A C 0.4281(2) 0.3620(2) 0.1551(2)
N2A N 0.45258(16) 0.48801(16) 0.18820(17)
C5A C 0.4300(3) -0.1732(2) 0.0749(2)
C6A C 0.3255(2) -0.1323(3) 0.2368(3)
H1A H 0.345(2) -0.157(2) 0.004(2)
H2A H 0.250(2) -0.104(2) 0.164(2)
H3A H 0.3251(17) -0.085(2) 0.314(2)
H4A H 0.503(2) -0.136(2) 0.0452(19)
H5A H 0.441(2) -0.270(3) 0.098(2)
H6A H 0.332(2) -0.223(3) 0.256(2)
H7A H 0.365(2) 0.346(2) 0.074(2)
#END
