
#######################################################################
#
#                 Cambridge Crystallographic Data Centre
#                                CCDC
#
#######################################################################
#
# If this CIF has been generated from an entry in the Cambridge
# Structural Database, then it will include bibliographic, chemical,
# crystal, experimental, refinement or atomic coordinate data resulting
# from the CCDC's data processing and validation procedures.
#
#######################################################################

data_CSD_CIF_GELWEZ
_audit_creation_date 1989-04-05
_audit_creation_method CSD-ConQuest-V1
_database_code_CSD GELWEZ
_chemical_formula_sum 'C11 H19 N1 O2'
_chemical_formula_moiety
;
C11 H19 N1 O2
;
_journal_coden_Cambridge 207
_journal_year 1988
_journal_page_first 2033
_journal_name_full 'J.Chem.Soc.,Perkin Trans.1 '
loop_
_publ_author_name
"D.S.Brown"
"B.A.Marples"
"C.D.Spilling"
_chemical_name_systematic
;
r-3a-Hydroxy-c-5,c-7a-dimethyl-octahydro-4H-inden-4-oxime
;
_chemical_melting_point 448.15
_cell_volume    536.353
_exptl_crystal_density_diffrn 1.22
_exptl_special_details
;
Melting point range 448.15-449.15K

;
_diffrn_ambient_temperature ?
_diffrn_special_details
;
The study was carried out at room temperature,in the range 283-303K

;
#These two values have been output from a single CSD field.
_refine_ls_R_factor_gt 0.0553
_refine_ls_wR_factor_gt 0.0553
_symmetry_cell_setting triclinic
_symmetry_space_group_name_H-M 'P -1'
_symmetry_Int_Tables_number 2
loop_
_symmetry_equiv_pos_site_id
_symmetry_equiv_pos_as_xyz
1 x,y,z
2 -x,-y,-z
_cell_length_a 6.544(5)
_cell_length_b 10.889(5)
_cell_length_c 8.092(5)
_cell_angle_alpha 95.29(5)
_cell_angle_beta 107.58(5)
_cell_angle_gamma 99.29(5)
_cell_formula_units_Z 2
loop_
_atom_type_symbol
_atom_type_radius_bond
C 0.68
H 0.23
N 0.68
O 0.68
loop_
_atom_site_label
_atom_site_type_symbol
_atom_site_fract_x
_atom_site_fract_y
_atom_site_fract_z
C1 C 0.7440(5) 0.3425(3) 0.3087(4)
C2 C 0.9375(5) 0.2832(3) 0.4061(4)
C3 C 0.8929(5) 0.1558(3) 0.4633(5)
C4 C 0.7147(6) 0.0619(3) 0.3167(5)
C5 C 0.5155(5) 0.1171(3) 0.2332(5)
C6 C 0.5663(5) 0.2409(3) 0.1660(4)
C7 C 0.6751(6) 0.2335(4) 0.0208(5)
C8 C 0.7858(6) 0.3708(4) 0.0222(5)
C9 C 0.8077(5) 0.4435(3) 0.2019(5)
C10 C 0.3532(6) 0.2888(4) 0.0962(5)
C11 C 0.8382(7) 0.1683(4) 0.6343(5)
N1 N 1.1290(4) 0.3507(3) 0.4374(4)
O1 O 1.2987(4) 0.2938(2) 0.5379(3)
O2 O 0.6560(3) 0.3909(2) 0.4389(3)
H1 H 1.03260 0.11770 0.48950
H2 H 0.67510 -0.01580 0.36580
H3 H 0.79700 0.03850 0.23950
H4 H 0.44060 0.13110 0.32640
H5 H 0.40960 0.05180 0.14140
H6 H 0.54580 0.19050 -0.09190
H7 H 0.78940 0.17720 0.05860
H8 H 0.67970 0.40240 -0.07160
H9 H 0.93950 0.38020 -0.00290
H10 H 0.96260 0.50160 0.26190
H11 H 0.70590 0.50480 0.18720
H12 H 0.35400 0.37000 0.05060
H13 H 0.25770 0.23650 0.00600
H14 H 0.27040 0.30490 0.18200
H15 H 0.96400 0.22680 0.72240
H16 H 0.83280 0.10640 0.69550
H17 H 0.68890 0.20060 0.61390
H18 H 1.42970 0.32670 0.49940
H19 H 0.75600 0.46330 0.49580
#END
