
#######################################################################
#
#                 Cambridge Crystallographic Data Centre
#                                CCDC
#
#######################################################################
#
# If this CIF has been generated from an entry in the Cambridge
# Structural Database, then it will include bibliographic, chemical,
# crystal, experimental, refinement or atomic coordinate data resulting
# from the CCDC's data processing and validation procedures.
#
#######################################################################

data_CSD_CIF_GEMSID
_audit_creation_date 2017-11-29
_audit_creation_method CSD-ConQuest-V1
_database_code_CSD GEMSID
_database_code_depnum_ccdc_archive 'CCDC 1587329'
_chemical_formula_sum 'C29 H25 N3 O6'
_chemical_formula_moiety
;
C29 H25 N3 O6
;
_journal_coeditor_code "xu5911"
_journal_coden_Cambridge 1828
_journal_volume 73
_journal_year 2017
_journal_page_first 1956
_journal_name_full 'Acta Crystallogr.,Sect.E:Cryst.Commun. '
loop_
_publ_author_name
"H.-S.Sun"
"Y.-L.Li"
"H.Jiang"
"Y.-L.Chen"
"Y.-D.Hu"
_chemical_name_systematic
;
diethyl 3,3'-[(4-nitrophenyl)methylene]bis(1H-indole-2-carboxylate)
;
_cell_volume   2511.720
_exptl_crystal_colour 'colorless'
_exptl_crystal_density_diffrn 1.353
_exptl_crystal_description 'block'
_diffrn_ambient_temperature 293
#These two values have been output from a single CSD field.
_refine_ls_R_factor_gt 0.0591
_refine_ls_wR_factor_gt 0.0591
_symmetry_cell_setting monoclinic
_symmetry_space_group_name_H-M 'P 21/n'
_symmetry_Int_Tables_number 14
loop_
_symmetry_equiv_pos_site_id
_symmetry_equiv_pos_as_xyz
1 x,y,z
2 1/2-x,1/2+y,1/2-z
3 -x,-y,-z
4 -1/2+x,-1/2-y,-1/2+z
_cell_length_a 8.8040(18)
_cell_length_b 15.804(3)
_cell_length_c 18.266(4)
_cell_angle_alpha 90
_cell_angle_beta 98.78(3)
_cell_angle_gamma 90
_cell_formula_units_Z 4
loop_
_atom_type_symbol
_atom_type_radius_bond
C 0.68
H 0.23
N 0.68
O 0.68
loop_
_atom_site_label
_atom_site_type_symbol
_atom_site_fract_x
_atom_site_fract_y
_atom_site_fract_z
N1 N 0.3019(3) 0.33359(18) 0.86721(14)
C1 C 0.5958(3) 0.31146(14) 0.60845(12)
H1 H 0.52040 0.32590 0.56500
O1 O 0.3145(3) 0.27719(17) 0.91181(14)
N2 N 0.8861(2) 0.47555(13) 0.58612(12)
H2 H 0.93920 0.50550 0.56000
C2 C 0.5083(3) 0.31093(14) 0.67433(13)
O2 O 0.2403(4) 0.39980(19) 0.87776(15)
N3 N 0.6690(2) 0.09119(12) 0.55132(10)
H3 H 0.64070 0.04420 0.52960
O3 O 0.8106(2) 0.45055(14) 0.43699(10)
C3 C 0.4078(3) 0.37605(17) 0.68231(14)
H4 H 0.38640 0.41570 0.64450
O4 O 0.6050(2) 0.37421(13) 0.45415(9)
C4 C 0.3383(3) 0.38418(18) 0.74445(15)
H5 H 0.27250 0.42910 0.74940
O5 O 0.3605(2) 0.08873(11) 0.49279(11)
C5 C 0.3687(3) 0.32430(16) 0.79870(14)
O6 O 0.33771(19) 0.22355(10) 0.52526(10)
C6 C 0.4600(3) 0.25512(16) 0.79184(14)
H6 H 0.47460 0.21370 0.82840
C7 C 0.5301(3) 0.24868(15) 0.72855(13)
H7 H 0.59200 0.20230 0.72260
C8 C 0.7142(3) 0.38043(14) 0.61580(13)
C9 C 0.7960(3) 0.41747(15) 0.68231(14)
C10 C 0.7929(3) 0.40819(18) 0.75905(14)
H8 H 0.72640 0.36960 0.77600
C11 C 0.8885(3) 0.45645(19) 0.80769(16)
H9 H 0.88540 0.45060 0.85810
C12 C 0.9902(3) 0.51407(18) 0.78475(16)
H10 H 1.05260 0.54640 0.81980
C13 C 0.9999(3) 0.52399(16) 0.71204(16)
H11 H 1.06990 0.56160 0.69660
C14 C 0.9023(3) 0.47627(15) 0.66117(14)
C15 C 0.7728(3) 0.42011(15) 0.55827(13)
C16 C 0.7342(3) 0.41604(17) 0.47798(15)
C17 C 0.5564(4) 0.3709(3) 0.37461(16)
H12 H 0.55290 0.42780 0.35450
H13 H 0.63040 0.33860 0.35190
C18 C 0.4103(5) 0.3332(3) 0.3575(2)
H14 H 0.37940 0.33300 0.30480
H15 H 0.33720 0.36490 0.38040
H16 H 0.41470 0.27610 0.37570
C19 C 0.6591(3) 0.22443(14) 0.59271(12)
C20 C 0.8111(3) 0.19214(15) 0.61572(13)
C21 C 0.9467(3) 0.22243(18) 0.65751(15)
H17 H 0.95060 0.27680 0.67710
C22 C 1.0729(3) 0.1716(2) 0.66927(17)
H18 H 1.16300 0.19200 0.69680
C23 C 1.0702(3) 0.0891(2) 0.64087(18)
H19 H 1.15840 0.05600 0.64990
C24 C 0.9407(3) 0.05644(18) 0.60030(16)
H20 H 0.93870 0.00170 0.58160
C25 C 0.8115(3) 0.10832(16) 0.58803(13)
C26 C 0.5775(3) 0.16072(15) 0.55434(12)
C27 C 0.4159(3) 0.15280(15) 0.52078(13)
C28 C 0.1776(3) 0.22520(18) 0.49292(16)
H21 H 0.12010 0.18370 0.51660
H22 H 0.16610 0.21260 0.44040
C29 C 0.1216(4) 0.3115(2) 0.5050(2)
H23 H 0.01490 0.31560 0.48430
H24 H 0.17970 0.35180 0.48130
H25 H 0.13400 0.32300 0.55710
#END
