
#######################################################################
#
#                 Cambridge Crystallographic Data Centre
#                                CCDC
#
#######################################################################
#
# If this CIF has been generated from an entry in the Cambridge
# Structural Database, then it will include bibliographic, chemical,
# crystal, experimental, refinement or atomic coordinate data resulting
# from the CCDC's data processing and validation procedures.
#
#######################################################################

data_CSD_CIF_GEMZOP
_audit_creation_date 2013-04-04
_audit_creation_method CSD-ConQuest-V1
_database_code_CSD GEMZOP
_database_code_depnum_ccdc_archive 'CCDC 918858'
_chemical_formula_sum 'C13 H21 N4 O2'
_chemical_formula_moiety
;
C13 H21 N4 O2
;
_journal_coden_Cambridge 9
_journal_volume 51
_journal_year 2012
_journal_page_first 12188
_journal_name_full 'Inorg.Chem. '
loop_
_publ_author_name
"V.I.Ovcharenko"
"S.V.Fokin"
"E.T.Kostina"
"G.V.Romanenko"
"A.S.Bogomyakov"
"E.V.Tretyakov"
_chemical_name_systematic
;
(2-(1-Ethyl-3-methyl-1H-pyrazol-4-yl)-4,4,5,5-tetramethyl-3-oxido-4,5-dihydro-
1H-imidazol-1-yl)oxidanyl radical
;
_cell_volume   1484.584
_exptl_crystal_density_diffrn 1.187
_exptl_crystal_description 'plate'
_diffrn_ambient_temperature 296
_refine_special_details
;
C41,C42 and C41A,C42A disordered over two sites with occupancies 0.70:0.30.

;
#These two values have been output from a single CSD field.
_refine_ls_R_factor_gt 0.0364
_refine_ls_wR_factor_gt 0.0364
_symmetry_cell_setting monoclinic
_symmetry_space_group_name_H-M 'P 21/c'
_symmetry_Int_Tables_number 14
loop_
_symmetry_equiv_pos_site_id
_symmetry_equiv_pos_as_xyz
1 x,y,z
2 -x,1/2+y,1/2-z
3 -x,-y,-z
4 x,-1/2-y,-1/2+z
_cell_length_a 10.5022(4)
_cell_length_b 12.7915(6)
_cell_length_c 11.1556(5)
_cell_angle_alpha 90
_cell_angle_beta 97.851(3)
_cell_angle_gamma 90
_cell_formula_units_Z 4
loop_
_atom_type_symbol
_atom_type_radius_bond
C 0.68
H 0.23
N 0.68
O 0.68
loop_
_atom_site_label
_atom_site_type_symbol
_atom_site_fract_x
_atom_site_fract_y
_atom_site_fract_z
N1 N 0.53061(11) 0.09375(8) 0.28292(10)
O1 O 0.61062(10) 0.09165(8) 0.38107(8)
C1 C 0.39383(13) 0.05949(11) 0.27931(11)
O2 O 0.43819(9) 0.14092(9) -0.01797(8)
N2 N 0.44818(11) 0.12093(9) 0.0955(1)
C2 C 0.3956(2) -0.05920(14) 0.2716(2)
H1 H 0.4280(15) -0.0823(12) 0.1958(15)
H2 H 0.4507(17) -0.0891(13) 0.3457(16)
H3 H 0.3072(17) -0.0881(12) 0.2724(13)
N3 N 0.89587(12) 0.13174(11) 0.12796(12)
C3 C 0.3414(2) 0.09525(18) 0.39292(16)
H4 H 0.2480(19) 0.0830(12) 0.3777(14)
H5 H 0.3596(15) 0.1687(13) 0.4119(14)
H6 H 0.3809(15) 0.0561(13) 0.4623(15)
C4 C 0.33351(13) 0.11395(11) 0.16131(12)
N4 N 0.83829(12) 0.20823(11) 0.05551(12)
C5 C 0.2927(2) 0.22678(15) 0.1810(2)
H7 H 0.2127(16) 0.2240(12) 0.2183(13)
H8 H 0.3625(18) 0.2675(15) 0.2324(16)
H9 H 0.2728(16) 0.2622(13) 0.1042(16)
C6 C 0.22734(18) 0.0536(2) 0.08661(18)
H10 H 0.1511(16) 0.0520(13) 0.1288(14)
H11 H 0.2563(17) -0.0179(15) 0.0652(15)
H12 H 0.1973(16) 0.0924(13) 0.0154(17)
C7 C 0.55863(13) 0.11704(10) 0.17231(11)
C8 C 0.68412(13) 0.13860(11) 0.14044(12)
C9 C 0.80241(14) 0.08892(12) 0.17960(13)
C10 C 0.71219(15) 0.21355(13) 0.05981(14)
H13 H 0.6581(13) 0.2617(10) 0.0106(11)
C11 C 0.9184(9) 0.2804(6) -0.0061(6)
H14 H 0.99360 0.30170 0.04870
H15 H 0.86970 0.34230 -0.03380
C12 C 0.9575(3) 0.2221(3) -0.1110(3)
H16 H 1.00730 0.26710 -0.15540
H17 H 0.88220 0.19920 -0.16290
H18 H 1.00810 0.16250 -0.08220
C13 C 0.8287(2) -0.00449(18) 0.2583(2)
H19 H 0.8019(17) 0.0047(15) 0.3398(19)
H20 H 0.914(2) -0.0195(17) 0.2703(17)
H21 H 0.780(2) -0.0618(19) 0.220(2)
C14? C 0.9015(17) 0.2553(12) -0.0425(11)
C15? C 0.9710(7) 0.3459(6) 0.0209(7)
H22? H 0.83880 0.27820 -0.10940
H23? H 0.96070 0.20670 -0.07230
H24? H 1.01920 0.38150 -0.03390
H25? H 1.02840 0.32110 0.08930
H26? H 0.90990 0.39320 0.04790
#END
