
#######################################################################
#
#                 Cambridge Crystallographic Data Centre
#                                CCDC
#
#######################################################################
#
# If this CIF has been generated from an entry in the Cambridge
# Structural Database, then it will include bibliographic, chemical,
# crystal, experimental, refinement or atomic coordinate data resulting
# from the CCDC's data processing and validation procedures.
#
#######################################################################

data_CSD_CIF_GEMZUV
_audit_creation_date 2013-04-04
_audit_creation_method CSD-ConQuest-V1
_database_code_CSD GEMZUV
_database_code_depnum_ccdc_archive 'CCDC 918859'
_chemical_formula_sum 'C13 H21 N4 O2'
_chemical_formula_moiety
;
C13 H21 N4 O2
;
_journal_coden_Cambridge 9
_journal_volume 51
_journal_year 2012
_journal_page_first 12188
_journal_name_full 'Inorg.Chem. '
loop_
_publ_author_name
"V.I.Ovcharenko"
"S.V.Fokin"
"E.T.Kostina"
"G.V.Romanenko"
"A.S.Bogomyakov"
"E.V.Tretyakov"
_chemical_name_systematic
;
(2-(1-Ethyl-5-methyl-1H-pyrazol-4-yl)-4,4,5,5-tetramethyl-3-oxido-4,5-dihydro-
1H-imidazol-1-yl)oxidanyl radical
;
_cell_volume   2892.487
_exptl_crystal_colour 'dark violet'
_exptl_crystal_density_diffrn 1.219
_exptl_crystal_description 'plate'
_diffrn_ambient_temperature 240
#These two values have been output from a single CSD field.
_refine_ls_R_factor_gt 0.0478
_refine_ls_wR_factor_gt 0.0478
_symmetry_cell_setting orthorhombic
_symmetry_space_group_name_H-M 'P b c a'
_symmetry_Int_Tables_number 61
loop_
_symmetry_equiv_pos_site_id
_symmetry_equiv_pos_as_xyz
1 x,y,z
2 1/2+x,1/2-y,-z
3 -x,1/2+y,1/2-z
4 1/2-x,-y,1/2+z
5 -x,-y,-z
6 -1/2-x,-1/2+y,z
7 x,-1/2-y,-1/2+z
8 -1/2+x,y,-1/2-z
_cell_length_a 11.3771(17)
_cell_length_b 14.030(3)
_cell_length_c 18.121(3)
_cell_angle_alpha 90
_cell_angle_beta 90
_cell_angle_gamma 90
_cell_formula_units_Z 8
loop_
_atom_type_symbol
_atom_type_radius_bond
C 0.68
H 0.23
N 0.68
O 0.68
loop_
_atom_site_label
_atom_site_type_symbol
_atom_site_fract_x
_atom_site_fract_y
_atom_site_fract_z
O1 O 0.11553(17) -0.12273(13) 0.67977(12)
N1 N 0.0404(2) -0.05455(17) 0.67449(14)
C1 C -0.0762(3) -0.0585(2) 0.71378(18)
C2 C -0.1521(3) -0.1297(2) 0.6714(2)
H1 H -0.15780 -0.11010 0.62030
H2 H -0.23000 -0.13180 0.69310
H3 H -0.11660 -0.19240 0.67410
C3 C -0.0566(3) -0.0911(2) 0.79319(19)
H4 H -0.02530 -0.15540 0.79320
H5 H -0.13070 -0.09010 0.81960
H6 H -0.00130 -0.04860 0.81720
C4 C -0.1166(3) 0.0465(2) 0.70611(18)
C5 C -0.2468(3) 0.0599(2) 0.68995(18)
H7 H -0.26360 0.12720 0.68380
H8 H -0.29270 0.03490 0.73070
H9 H -0.26710 0.02600 0.64500
C6 C -0.0790(3) 0.1107(2) 0.76994(18)
H10 H 0.00480 0.10400 0.77810
H11 H -0.12100 0.09230 0.81430
H12 H -0.09700 0.17650 0.75800
N2 N -0.0448(2) 0.07713(17) 0.64103(14)
O2 O -0.06802(18) 0.15471(14) 0.60602(12)
C7 C 0.0502(3) 0.0217(2) 0.63061(18)
C8 C 0.1466(3) 0.0403(2) 0.58109(16)
C9 C 0.2032(3) -0.0238(2) 0.53401(19)
H13 H 0.18180 -0.08820 0.52890
N3 N 0.2907(3) 0.0166(2) 0.49744(16)
N4 N 0.2900(2) 0.10868(18) 0.52106(15)
C10 C 0.3779(3) 0.1743(3) 0.49184(19)
H14 H 0.34170 0.23710 0.48520
H15 H 0.40340 0.15170 0.44320
C11 C 0.4832(4) 0.1846(3) 0.5404(2)
H16 H 0.45870 0.20610 0.58890
H17 H 0.53670 0.23090 0.51900
H18 H 0.52260 0.12350 0.54470
C12 C 0.2054(3) 0.1248(2) 0.57224(17)
C13 C 0.1907(3) 0.21866(19) 0.60877(19)
H19 H 0.26690 0.24250 0.62410
H20 H 0.14040 0.21160 0.65160
H21 H 0.15520 0.26320 0.57450
#END
