
#######################################################################
#
#                 Cambridge Crystallographic Data Centre
#                                CCDC
#
#######################################################################
#
# If this CIF has been generated from an entry in the Cambridge
# Structural Database, then it will include bibliographic, chemical,
# crystal, experimental, refinement or atomic coordinate data resulting
# from the CCDC's data processing and validation procedures.
#
#######################################################################

data_CSD_CIF_GENHOX
_audit_creation_date 2006-11-07
_audit_creation_method CSD-ConQuest-V1
_database_code_CSD GENHOX
_database_code_depnum_ccdc_archive 'CCDC 607508'
_chemical_formula_sum 'C37 H46 N6 O12'
_chemical_formula_moiety
;
C37 H46 N6 O12
;
_journal_coden_Cambridge 182
_journal_year 2006
_journal_page_first 3246
_journal_name_full 'Chem.Commun. '
loop_
_publ_author_name
"P.V.Santacroce"
"O.A.Okunola"
"P.Y.Zavalij"
"J.T.Davis"
_chemical_name_systematic
;
tris(5-Nitro-2-(butylamidomethoxy)phenyl)methane
;
_cell_volume   3817.318
_exptl_crystal_colour 'colorless'
_exptl_crystal_density_diffrn 1.334
_exptl_crystal_description 'plate'
_diffrn_ambient_temperature 223
_refine_special_details
;
One butylamino group is disordered over two sites with occupancies 
0.663:0.337.
;
#These two values have been output from a single CSD field.
_refine_ls_R_factor_gt 0.0434
_refine_ls_wR_factor_gt 0.0434
_symmetry_cell_setting monoclinic
_symmetry_space_group_name_H-M 'P 21/n'
_symmetry_Int_Tables_number 14
loop_
_symmetry_equiv_pos_site_id
_symmetry_equiv_pos_as_xyz
1 x,y,z
2 1/2-x,1/2+y,1/2-z
3 -x,-y,-z
4 -1/2+x,-1/2-y,-1/2+z
_cell_length_a 13.1120(7)
_cell_length_b 16.6088(9)
_cell_length_c 18.4861(10)
_cell_angle_alpha 90
_cell_angle_beta 108.520(1)
_cell_angle_gamma 90
_cell_formula_units_Z 4
loop_
_atom_type_symbol
_atom_type_radius_bond
C 0.68
H 0.23
N 0.68
O 0.68
loop_
_atom_site_label
_atom_site_type_symbol
_atom_site_fract_x
_atom_site_fract_y
_atom_site_fract_z
C1 C 0.18562(13) 0.26550(9) 0.48192(9)
H1 H 0.24270 0.26400 0.45740
C2 C 0.17039(13) 0.35367(9) 0.49819(9)
C3 C 0.17634(13) 0.4121(1) 0.44464(9)
C4 C 0.16405(14) 0.49344(10) 0.45710(9)
H2 H 0.17190 0.53180 0.42190
C5 C 0.14028(13) 0.51768(10) 0.52109(9)
H3 H 0.13040 0.57250 0.52960
C6 C 0.13117(13) 0.46029(10) 0.57234(9)
C7 C 0.14793(13) 0.37915(10) 0.56257(9)
H4 H 0.14400 0.34160 0.59970
N1 N 0.10241(12) 0.48533(10) 0.63925(8)
O1 O 0.10707(14) 0.43593(8) 0.68879(8)
O2 O 0.07335(11) 0.55552(8) 0.64219(7)
O3 O 0.19483(10) 0.38246(6) 0.38093(6)
C8 C 0.17582(15) 0.43394(10) 0.31626(9)
H5 H 0.22470 0.48020 0.32950
H6 H 0.10180 0.45420 0.30140
C9 C 0.19328(14) 0.38890(11) 0.25036(10)
O4 O 0.16149(11) 0.42019(7) 0.18655(7)
N2 N 0.24451(12) 0.31914(9) 0.26457(8)
H7 H 0.25910 0.29890 0.31010
C10 C 0.27806(15) 0.27421(11) 0.20781(10)
H8 H 0.23630 0.29280 0.15670
H9 H 0.26240 0.21690 0.21150
C11 C 0.39694(15) 0.28433(12) 0.21859(11)
H10 H 0.43780 0.27830 0.27280
H11 H 0.40970 0.33880 0.20300
C12 C 0.43730(17) 0.22298(14) 0.17241(12)
H12 H 0.51520 0.22960 0.18460
H13 H 0.42440 0.16880 0.18860
C13 C 0.38699(18) 0.22884(14) 0.08826(12)
H14 H 0.31130 0.21520 0.07470
H15 H 0.42240 0.19170 0.06340
H16 H 0.39450 0.28340 0.07180
C14 C 0.22669(14) 0.21552(9) 0.55443(9)
C15 C 0.33708(15) 0.21558(10) 0.59493(10)
C16 C 0.37732(16) 0.16960(12) 0.66077(11)
H17 H 0.45140 0.17020 0.68770
C17 C 0.30953(17) 0.12349(11) 0.68655(11)
H18 H 0.33660 0.09200 0.73080
C18 C 0.20200(15) 0.12394(10) 0.64713(10)
C19 C 0.15995(15) 0.16908(10) 0.58152(9)
H19 H 0.08560 0.16800 0.55540
N3 N 0.12984(16) 0.07457(10) 0.6748(1)
O5 O 0.03391(13) 0.07557(9) 0.63962(9)
O6 O 0.16866(13) 0.03378(9) 0.73215(8)
O7 O 0.39917(9) 0.26230(7) 0.56535(7)
C20 C 0.51161(15) 0.26850(12) 0.60667(11)
H20 H 0.54480 0.21500 0.61280
H21 H 0.52170 0.29090 0.65750
C21 C 0.56412(16) 0.32293(12) 0.56269(12)
O8 O 0.63714(11) 0.36812(8) 0.59829(8)
N4 N 0.52839(14) 0.3155(1) 0.48762(10)
H22 H 0.48390 0.27650 0.46800
C22 C 0.55976(16) 0.36948(13) 0.43586(12)
H23 H 0.57510 0.33790 0.39570
H24 H 0.62530 0.39860 0.46410
C23 C 0.47041(16) 0.42909(12) 0.40010(11)
H25 H 0.45980 0.46290 0.44060
H26 H 0.40360 0.39910 0.37690
C24 C 0.49028(17) 0.48360(13) 0.33976(11)
H27 H 0.49840 0.45030 0.29810
H28 H 0.42750 0.51840 0.31860
C25 C 0.58839(16) 0.53500(12) 0.37067(11)
H29 H 0.58530 0.56270 0.41610
H30 H 0.59130 0.57430 0.33250
H31 H 0.65210 0.50140 0.38340
C26 C 0.08574(13) 0.22908(9) 0.42482(9)
C27 C 0.09887(14) 0.1606(1) 0.38438(10)
C28 C 0.01206(16) 0.12473(11) 0.33023(10)
H32 H 0.02250 0.07850 0.30410
C29 C -0.08897(16) 0.15699(11) 0.3150(1)
H33 H -0.14820 0.13390 0.27780
C30 C -0.10183(14) 0.2237(1) 0.35508(10)
C31 C -0.01638(14) 0.2600(1) 0.40926(9)
H34 H -0.02800 0.30580 0.43550
N5 N -0.20989(13) 0.25744(10) 0.33985(10)
O9 O -0.22381(11) 0.30850(9) 0.38332(9)
O10 O -0.28188(12) 0.2325(1) 0.28468(9)
O11 O 0.20081(10) 0.13144(7) 0.40496(7)
C32 C 0.24066(16) 0.09758(12) 0.34843(12)
H35 H 0.19490 0.11290 0.29720
H36 H 0.24260 0.03870 0.35210
C33 C 0.35282(16) 0.13105(12) 0.36422(11)
O12 O 0.37199(11) 0.20232(8) 0.38258(8)
N6 N 0.4253(3) 0.0794(8) 0.3533(5)
H37 H 0.40620 0.02960 0.34170
C34 C 0.5344(4) 0.1034(6) 0.3601(4)
H38 H 0.54060 0.16210 0.36550
H39 H 0.55030 0.08830 0.31360
C35 C 0.6156(3) 0.0638(3) 0.4286(3)
H40 H 0.60630 0.00530 0.42460
H41 H 0.60200 0.08140 0.47530
C36 C 0.7309(3) 0.0850(3) 0.4338(3)
H42 H 0.74390 0.06800 0.38670
H43 H 0.74000 0.14350 0.43800
C37 C 0.8135(4) 0.0455(4) 0.5013(3)
H44 H 0.80460 0.06520 0.54830
H45 H 0.88530 0.05840 0.50050
H46 H 0.80350 -0.01240 0.49830
N7? N 0.4236(4) 0.0785(15) 0.3573(10)
H47? H 0.39960 0.03170 0.33830
C38? C 0.5397(7) 0.0918(14) 0.3787(7)
H48? H 0.55280 0.14710 0.36550
H49? H 0.56980 0.05540 0.34900
C39? C 0.5975(6) 0.0782(7) 0.4629(5)
H50? H 0.59380 0.02080 0.47390
H51? H 0.55890 0.10750 0.49220
C40? C 0.7144(5) 0.1041(4) 0.4907(5)
H52? H 0.71870 0.16060 0.47680
H53? H 0.74050 0.10070 0.54650
C41? C 0.7877(9) 0.0553(7) 0.4596(6)
H54? H 0.79640 0.00190 0.48200
H55? H 0.85730 0.08150 0.47230
H56? H 0.75680 0.05110 0.40470
#END
