
#######################################################################
#
#                 Cambridge Crystallographic Data Centre
#                                CCDC
#
#######################################################################
#
# If this CIF has been generated from an entry in the Cambridge
# Structural Database, then it will include bibliographic, chemical,
# crystal, experimental, refinement or atomic coordinate data resulting
# from the CCDC's data processing and validation procedures.
#
#######################################################################

data_CSD_CIF_GEPCAG
_audit_creation_date 2006-11-07
_audit_creation_method CSD-ConQuest-V1
_database_code_CSD GEPCAG
_database_code_depnum_ccdc_archive 'CCDC 621533'
_chemical_formula_sum 'C18 H12 N2 O6'
_chemical_formula_moiety
;
C18 H12 N2 O6
;
_journal_coeditor_code "IUCr WW2044"
_journal_coden_Cambridge 1370
_journal_volume 62
_journal_year 2006
_journal_page_first o3992
_journal_name_full 'Acta Crystallogr.,Sect.E:Struct.Rep.Online '
loop_
_publ_author_name
"M.S.Butt"
"Z.Akhter"
"M.Bolte"
"H.M.Siddiqui"
_chemical_name_systematic
;
1,4-bis(4-Nitrophenoxy)benzene
;
_chemical_melting_point 511.15
_cell_volume    794.739
_exptl_crystal_colour 'colorless'
_exptl_crystal_density_diffrn 1.472
_exptl_crystal_description 'needle'
_exptl_crystal_preparation 'ethanol'
_diffrn_ambient_temperature 173
#These two values have been output from a single CSD field.
_refine_ls_R_factor_gt 0.0415
_refine_ls_wR_factor_gt 0.0415
_symmetry_cell_setting triclinic
_symmetry_space_group_name_H-M 'P -1'
_symmetry_Int_Tables_number 2
loop_
_symmetry_equiv_pos_site_id
_symmetry_equiv_pos_as_xyz
1 x,y,z
2 -x,-y,-z
_cell_length_a 7.2861(6)
_cell_length_b 10.1381(9)
_cell_length_c 12.0838(11)
_cell_angle_alpha 91.973(7)
_cell_angle_beta 106.497(7)
_cell_angle_gamma 110.152(6)
_cell_formula_units_Z 2
loop_
_atom_type_symbol
_atom_type_radius_bond
C 0.68
H 0.23
N 0.68
O 0.68
loop_
_atom_site_label
_atom_site_type_symbol
_atom_site_fract_x
_atom_site_fract_y
_atom_site_fract_z
O1 O 0.14779(15) 0.80747(10) 0.11671(8)
N1 N 0.78574(17) 0.94769(13) 0.54132(9)
C1 C 0.30488(18) 0.85081(13) 0.2221(1)
C2 C 0.4658(2) 0.98324(14) 0.24912(12)
H1 H 0.46730 1.05050 0.19630
C3 C 0.6243(2) 1.01528(14) 0.35473(12)
H2 H 0.73460 1.10500 0.37510
C4 C 0.61885(18) 0.91429(13) 0.42987(10)
C5 C 0.45993(19) 0.78210(14) 0.40322(11)
H3 H 0.46020 0.71440 0.45570
C6 C 0.30028(19) 0.75037(13) 0.29843(11)
H4 H 0.18910 0.66110 0.27900
O2 O 0.79566(18) 0.85029(13) 0.59845(9)
O3 O 0.90903(15) 1.07143(11) 0.57310(9)
C7 C 0.08101(18) 0.90985(13) 0.06053(11)
C8 C 0.0635(2) 0.90984(14) -0.05716(11)
H5 H 0.10710 0.84830 -0.09530
C9 C 0.0186(2) 0.99878(14) 0.11846(11)
H6 H 0.03170 0.99730 0.19890
O4 O 0.59391(16) 0.43120(14) 0.36471(11)
N2 N 0.3508(2) 0.67143(16) -0.03318(11)
C10 C 0.5467(2) 0.49469(15) 0.26699(12)
C11 C 0.68091(19) 0.62226(14) 0.24903(12)
H7 H 0.81460 0.66860 0.30360
C12 C 0.6151(2) 0.68010(14) 0.14967(12)
H8 H 0.70310 0.76720 0.13550
C13 C 0.4190(2) 0.60919(15) 0.07120(11)
C14 C 0.2849(2) 0.48138(15) 0.08789(12)
H9 H 0.15210 0.43450 0.03260
C15 C 0.3504(2) 0.42418(15) 0.18759(13)
H10 H 0.26180 0.33730 0.20170
O5 O 0.4690(2) 0.78570(17) -0.04620(13)
O6 O 0.1781(2) 0.60780(15) -0.10325(9)
C16 C 0.8013(2) 0.46948(15) 0.43081(12)
C17 C 0.8704(2) 0.55025(15) 0.53978(13)
H11 H 0.78140 0.58420 0.56610
C18 C 0.9276(2) 0.41912(15) 0.38987(12)
H12 H 0.87710 0.36440 0.31470
O1A O -0.14779(15) 1.19253(10) -0.11671(8)
N1A N -0.78574(17) 1.05231(13) -0.54132(9)
C1A C -0.30488(18) 1.14919(13) -0.2221(1)
C2A C -0.4658(2) 1.01676(14) -0.24912(12)
H1A H -0.46730 0.94950 -0.19630
C3A C -0.6243(2) 0.98472(14) -0.35473(12)
H2A H -0.73460 0.89500 -0.37510
C4A C -0.61885(18) 1.08571(13) -0.42987(10)
C5A C -0.45993(19) 1.21790(14) -0.40322(11)
H3A H -0.46020 1.28560 -0.45570
C6A C -0.30028(19) 1.24963(13) -0.29843(11)
H4A H -0.18910 1.33890 -0.27900
O2A O -0.79566(18) 1.14971(13) -0.59845(9)
O3A O -0.90903(15) 0.92857(11) -0.57310(9)
C7A C -0.08101(18) 1.09015(13) -0.06053(11)
C8A C -0.0635(2) 1.09016(14) 0.05716(11)
H5A H -0.10710 1.15170 0.09530
C9A C -0.0186(2) 1.00122(14) -0.11846(11)
H6A H -0.03170 1.00270 -0.19890
O4A O 1.40609(16) 0.56880(14) 0.63529(11)
N2A N 1.6492(2) 0.32857(16) 1.03318(11)
C10A C 1.4533(2) 0.50531(15) 0.73301(12)
C11A C 1.31909(19) 0.37774(14) 0.75097(12)
H7A H 1.18540 0.33140 0.69640
C12A C 1.3849(2) 0.31990(14) 0.85033(12)
H8A H 1.29690 0.23280 0.86450
C13A C 1.5810(2) 0.39081(15) 0.92880(11)
C14A C 1.7151(2) 0.51862(15) 0.91211(12)
H9A H 1.84790 0.56550 0.96740
C15A C 1.6496(2) 0.57582(15) 0.81241(13)
H10A H 1.73820 0.66270 0.79830
O5A O 1.5310(2) 0.21430(17) 1.04620(13)
O6A O 1.8219(2) 0.39220(15) 1.10325(9)
C16A C 1.1987(2) 0.53052(15) 0.56919(12)
C17A C 1.1296(2) 0.44975(15) 0.46022(13)
H11A H 1.21860 0.41580 0.43390
C18A C 1.0724(2) 0.58088(15) 0.61013(12)
H12A H 1.12290 0.63560 0.68530
#END
