
#######################################################################
#
#                 Cambridge Crystallographic Data Centre
#                                CCDC
#
#######################################################################
#
# If this CIF has been generated from an entry in the Cambridge
# Structural Database, then it will include bibliographic, chemical,
# crystal, experimental, refinement or atomic coordinate data resulting
# from the CCDC's data processing and validation procedures.
#
#######################################################################

data_CSD_CIF_GEPGOX
_audit_creation_date 1989-05-23
_audit_creation_method CSD-ConQuest-V1
_database_code_CSD GEPGOX
_chemical_formula_sum 'C14 H16 N2 O2'
_chemical_formula_moiety
;
C14 H16 N2 O2
;
_journal_coden_Cambridge 4
_journal_volume 110
_journal_year 1988
_journal_page_first 4527
_journal_name_full 'J.Am.Chem.Soc. '
loop_
_publ_author_name
"D.Casarini"
"E.Foresti"
"L.Lunazzi"
"D.Macciantelli"
_chemical_name_systematic
;
N-Methyl-N-isopropyl-1-(4-nitronaphthyl)amine
;
_cell_volume   1270.097
_exptl_crystal_density_diffrn 1.28
_exptl_special_details
;
X(C4)=0.6345,3 not 0.5345,3; z(N16)=0.8666,3 not 0.3666,3

;
_diffrn_ambient_temperature ?
_diffrn_special_details
;
The study was carried out at room temperature,in the range 283-303K

;
#These two values have been output from a single CSD field.
_refine_ls_R_factor_gt 0.073
_refine_ls_wR_factor_gt 0.073
_symmetry_cell_setting monoclinic
_symmetry_space_group_name_H-M 'P 21/c'
_symmetry_Int_Tables_number 14
loop_
_symmetry_equiv_pos_site_id
_symmetry_equiv_pos_as_xyz
1 x,y,z
2 -x,1/2+y,1/2-z
3 -x,-y,-z
4 x,-1/2-y,-1/2+z
_cell_length_a 10.341(7)
_cell_length_b 10.663(4)
_cell_length_c 11.651(4)
_cell_angle_alpha 90
_cell_angle_beta 98.65(4)
_cell_angle_gamma 90
_cell_formula_units_Z 4
loop_
_atom_type_symbol
_atom_type_radius_bond
C 0.68
H 0.23
N 0.68
O 0.68
loop_
_atom_site_label
_atom_site_type_symbol
_atom_site_fract_x
_atom_site_fract_y
_atom_site_fract_z
C1 C 0.3666(3) 0.0461(3) 0.7156(3)
C2 C 0.4140(4) -0.0216(3) 0.8143(3)
C3 C 0.5468(4) -0.0233(3) 0.8581(3)
C4 C 0.6345(3) 0.0407(3) 0.8048(3)
C5 C 0.6843(4) 0.1494(3) 0.6246(3)
C6 C 0.6415(4) 0.1913(3) 0.5152(4)
C7 C 0.5088(4) 0.1871(3) 0.4686(3)
C8 C 0.4203(3) 0.1418(3) 0.5340(3)
C9 C 0.4610(3) 0.0997(3) 0.6488(3)
C10 C 0.5965(3) 0.1008(3) 0.6945(3)
N1 N 0.2349(3) 0.0564(3) 0.6760(2)
C11 C 0.1491(4) -0.0344(4) 0.7241(4)
C12 C 0.1801(3) 0.1847(3) 0.6572(3)
C13 C 0.1456(4) 0.2413(5) 0.7701(4)
C14 C 0.0631(4) 0.1853(5) 0.5587(3)
N2 N 0.7670(3) 0.0455(4) 0.8666(3)
O1 O 0.8436(3) 0.1214(4) 0.8383(3)
O2 O 0.7955(3) -0.0225(3) 0.9520(3)
H1 H 0.34660 -0.07430 0.85800
H2 H 0.53060 -0.07620 0.93590
H3 H 0.78740 0.15340 0.65530
H4 H 0.71130 0.22860 0.46390
H5 H 0.47680 0.21940 0.38100
H6 H 0.31790 0.13810 0.49760
H7 H 0.04860 -0.01740 0.68680
H8 H 0.15980 -0.02380 0.81720
H9 H 0.17630 -0.12850 0.70310
H10? H 0.23540 0.24890 0.71730
H11? H 0.07910 0.18430 0.67030
H12? H 0.18570 0.21380 0.56850
H13 H 0.10600 0.33440 0.75310
H14 H 0.23310 0.24670 0.83460
H15 H 0.07430 0.18300 0.80340
H16 H 0.02490 0.27950 0.54660
#END
