
#######################################################################
#
#                 Cambridge Crystallographic Data Centre
#                                CCDC
#
#######################################################################
#
# If this CIF has been generated from an entry in the Cambridge
# Structural Database, then it will include bibliographic, chemical,
# crystal, experimental, refinement or atomic coordinate data resulting
# from the CCDC's data processing and validation procedures.
#
#######################################################################

data_CSD_CIF_GEPPUN
_audit_creation_date 2006-11-07
_audit_creation_method CSD-ConQuest-V1
_database_code_CSD GEPPUN
_database_code_depnum_ccdc_archive 'CCDC 624178'
_chemical_formula_sum 'C16 H16 N2 O4'
_chemical_formula_moiety
;
C16 H16 N2 O4
;
_journal_coeditor_code "IUCr CI2170"
_journal_coden_Cambridge 1370
_journal_volume 62
_journal_year 2006
_journal_page_first o4581
_journal_name_full 'Acta Crystallogr.,Sect.E:Struct.Rep.Online '
loop_
_publ_author_name
"Yang-Jun Ding"
"Guang Chen"
"Yu-Xia Liu"
_chemical_name_systematic
;
N-Ethyl-2-(4-nitrophenoxy)-N-phenylacetamide
;
_cell_volume   1533.881
_exptl_crystal_colour 'yellow'
_exptl_crystal_density_diffrn 1.3
_exptl_crystal_description 'Block'
_exptl_crystal_preparation 'methanol'
_diffrn_ambient_temperature 298
#These two values have been output from a single CSD field.
_refine_ls_R_factor_gt 0.051
_refine_ls_wR_factor_gt 0.051
_symmetry_cell_setting triclinic
_symmetry_space_group_name_H-M 'P -1'
_symmetry_Int_Tables_number 2
loop_
_symmetry_equiv_pos_site_id
_symmetry_equiv_pos_as_xyz
1 x,y,z
2 -x,-y,-z
_cell_length_a 9.106(2)
_cell_length_b 13.544(3)
_cell_length_c 14.530(2)
_cell_angle_alpha 110.318(2)
_cell_angle_beta 101.901(2)
_cell_angle_gamma 105.017(2)
_cell_formula_units_Z 4
loop_
_atom_type_symbol
_atom_type_radius_bond
C 0.68
H 0.23
N 0.68
O 0.68
loop_
_atom_site_label
_atom_site_type_symbol
_atom_site_fract_x
_atom_site_fract_y
_atom_site_fract_z
N1 N 0.7609(3) 0.15118(18) 0.87180(18)
N2 N 0.4785(5) 0.3356(3) 0.4442(3)
N3 N 0.5513(3) 0.55267(18) 0.88746(17)
N4 N -0.1753(3) 0.2806(2) 0.3650(2)
O1 O 0.5307(2) 0.18443(17) 0.83486(16)
O2 O 0.4284(2) 0.04202(15) 0.63298(15)
O3 O 0.3548(4) 0.3259(3) 0.3848(3)
O4 O 0.6100(4) 0.4063(2) 0.4636(2)
O5 O 0.2884(2) 0.48829(17) 0.87138(15)
O6 O 0.2237(2) 0.28839(15) 0.71409(16)
O7 O -0.3010(3) 0.1994(2) 0.31728(19)
O8 O -0.1374(3) 0.3577(2) 0.33915(18)
C1 C 0.6164(4) 0.1324(2) 0.8087(2)
C2 C 0.5642(3) 0.0402(2) 0.6997(2)
H1 H 0.65240 0.05010 0.67200
H2 H 0.53830 -0.03270 0.70240
C3 C 0.4503(3) 0.1190(2) 0.5925(2)
C4 C 0.5954(3) 0.2025(2) 0.6164(2)
H3 H 0.68700 0.21080 0.66520
C5 C 0.6030(4) 0.2734(2) 0.5672(2)
H4 H 0.70040 0.32940 0.58250
C6 C 0.4690(4) 0.2616(2) 0.4965(2)
C7 C 0.3229(4) 0.1796(2) 0.4731(2)
H5 H 0.23130 0.17210 0.42480
C8 C 0.3149(3) 0.1099(2) 0.5217(2)
H6 H 0.21650 0.05510 0.50700
C9 C 0.8598(3) 0.0879(2) 0.8398(2)
C10 C 0.8279(4) -0.0188(3) 0.8352(2)
H7 H 0.73940 -0.05200 0.85110
C11 C 0.9275(5) -0.0766(3) 0.8071(3)
H8 H 0.90590 -0.14910 0.80340
C12 C 1.0586(5) -0.0272(4) 0.7843(3)
H9 H 1.12630 -0.06610 0.76610
C13 C 1.0900(4) 0.0783(3) 0.7884(3)
H10 H 1.17880 0.11140 0.77270
C14 C 0.9909(4) 0.1357(3) 0.8154(2)
H11 H 1.01200 0.20750 0.81740
C15 C 0.8159(4) 0.2316(3) 0.9806(2)
H12 H 0.76430 0.28680 0.98700
H13 H 0.93100 0.27130 1.00270
C16 C 0.7808(6) 0.1774(4) 1.0497(3)
H14 H 0.81900 0.23380 1.11990
H15 H 0.83370 0.12390 1.04500
H16 H 0.66680 0.13910 1.02910
C17 C 0.4028(3) 0.4738(2) 0.8450(2)
C18 C 0.3861(3) 0.3629(2) 0.7626(2)
H17 H 0.42900 0.37660 0.71060
H18 H 0.44870 0.32780 0.79380
C19 C 0.1325(3) 0.2953(2) 0.6318(2)
C20 C 0.1721(3) 0.3827(2) 0.6022(2)
H19 H 0.26650 0.44510 0.64160
C21 C 0.0716(4) 0.3773(2) 0.5146(2)
H20 H 0.09800 0.43580 0.49430
C22 C -0.0678(3) 0.2855(2) 0.4571(2)
C23 C -0.1103(3) 0.1985(2) 0.4865(2)
H21 H -0.20590 0.13710 0.44760
C24 C -0.0101(3) 0.2037(2) 0.5736(2)
H22 H -0.03770 0.14540 0.59390
C25 C 0.6821(3) 0.5335(2) 0.8527(2)
C26 C 0.7150(3) 0.5656(2) 0.7766(2)
H23 H 0.65080 0.59710 0.74670
C27 C 0.8436(4) 0.5508(3) 0.7450(2)
H24 H 0.86730 0.57330 0.69450
C28 C 0.9360(4) 0.5031(3) 0.7880(3)
H25 H 1.02240 0.49290 0.76630
C29 C 0.9027(3) 0.4700(3) 0.8627(2)
H26 H 0.96560 0.43670 0.89090
C30 C 0.7757(3) 0.4861(2) 0.8964(2)
H27 H 0.75400 0.46500 0.94810
C31 C 0.5841(4) 0.6623(2) 0.9719(2)
H28 H 0.67900 0.67900 1.02800
H29 H 0.49430 0.65710 0.99850
C32 C 0.6102(6) 0.7571(3) 0.9398(3)
H30 H 0.63210 0.82620 0.99850
H31 H 0.51540 0.74250 0.88600
H32 H 0.69990 0.76350 0.91430
#END
