
#######################################################################
#
#                 Cambridge Crystallographic Data Centre
#                                CCDC
#
#######################################################################
#
# If this CIF has been generated from an entry in the Cambridge
# Structural Database, then it will include bibliographic, chemical,
# crystal, experimental, refinement or atomic coordinate data resulting
# from the CCDC's data processing and validation procedures.
#
#######################################################################

data_CSD_CIF_GEQQAU
_audit_creation_date 1999-04-16
_audit_creation_method CSD-ConQuest-V1
_database_code_CSD GEQQAU
_database_code_depnum_ccdc_archive 'CCDC 114761'
_chemical_formula_sum 'C21 H21 N1 O7'
_chemical_formula_moiety
;
C21 H21 N1 O7
;
_journal_coden_Cambridge 156
_journal_volume 306
_journal_year 1998
_journal_page_first 45
_journal_name_full 'Carbohydr.Res. '
loop_
_publ_author_name
"D.-P.Pham-Huu"
"M.Petrusova"
"J.N.BeMiller"
"P.Koll"
"J.Kopf"
"L.Petrus"
_chemical_name_systematic
;
2,6-Anhydro-1-deoxy-(exo-3,4):5,7-di-O-benzylidene-1-nitro-D-glycero-D-galacto
-heptitol
;
_chemical_melting_point 468
_cell_volume    950.165
_exptl_crystal_colour 'colorless'
_exptl_crystal_density_diffrn 1.396
_exptl_special_details
;
Melting point range 468-471K

;
_exptl_crystal_description 'blocks'
_diffrn_ambient_temperature 293
#These two values have been output from a single CSD field.
_refine_ls_R_factor_gt 0.0502
_refine_ls_wR_factor_gt 0.0502
_symmetry_cell_setting monoclinic
_symmetry_space_group_name_H-M 'P 21'
_symmetry_Int_Tables_number 4
loop_
_symmetry_equiv_pos_site_id
_symmetry_equiv_pos_as_xyz
1 x,y,z
2 -x,1/2+y,-z
_cell_length_a 5.454(1)
_cell_length_b 11.238(1)
_cell_length_c 15.575(1)
_cell_angle_alpha 90
_cell_angle_beta 95.54(1)
_cell_angle_gamma 90
_cell_formula_units_Z 2
loop_
_atom_type_symbol
_atom_type_radius_bond
C 0.68
H 0.23
N 0.68
O 0.68
loop_
_atom_site_label
_atom_site_type_symbol
_atom_site_fract_x
_atom_site_fract_y
_atom_site_fract_z
O1 O 0.6515(3) -0.00619(12) 0.33495(9)
O2 O 0.7881(2) 0.25780(12) 0.34736(10)
O3 O 0.4439(3) 0.32480(12) 0.26649(10)
O4 O 0.1740(3) 0.11412(13) 0.18011(9)
O5 O 0.2013(3) -0.09020(14) 0.15737(11)
O6 O 0.7824(3) -0.1143(2) 0.52202(15)
O7 O 1.1260(3) -0.10485(17) 0.46578(12)
N1 N 0.9340(3) -0.06118(16) 0.48492(11)
C1 C 0.8807(4) 0.06547(18) 0.46000(14)
H1 H 1.01100 0.09610 0.42800
H2 H 0.87460 0.11360 0.51140
C2 C 0.6378(3) 0.07282(16) 0.40535(11)
H3 H 0.50810 0.04470 0.43980
C3 C 0.5796(3) 0.20085(16) 0.37800(11)
H4 H 0.52890 0.24530 0.42740
C4 C 0.3823(3) 0.21379(17) 0.30201(12)
H5 H 0.21820 0.21750 0.32260
C5 C 0.3941(4) 0.11394(16) 0.23695(12)
H6 H 0.53480 0.12740 0.20350
C6 C 0.4241(4) -0.00629(17) 0.28182(12)
H7 H 0.28750 -0.01970 0.31720
C7 C 0.4241(5) -0.1019(2) 0.21287(16)
H8 H 0.56540 -0.09210 0.18020
H9 H 0.43290 -0.18020 0.23930
C8 C 0.7053(3) 0.33247(16) 0.27597(12)
H10 H 0.77000 0.30220 0.22360
C9 C 0.1847(4) 0.0228(2) 0.11791(13)
H11 H 0.33030 0.03530 0.08670
C10 C 0.7794(4) 0.46047(17) 0.28909(12)
C11 C 0.6571(5) 0.5333(2) 0.34287(15)
H12 H 0.53220 0.50290 0.37310
C12 C 0.7240(6) 0.6526(2) 0.3509(2)
H13 H 0.64570 0.70170 0.38780
C13 C 0.9051(6) 0.6986(2) 0.3047(2)
H14 H 0.94640 0.77870 0.30960
C14 C 1.0241(6) 0.6258(3) 0.2516(3)
H15 H 1.14670 0.65700 0.22060
C15 C 0.9629(4) 0.5052(2) 0.24346(18)
H16 H 1.04500 0.45590 0.20770
C16 C -0.0416(4) 0.0295(2) 0.05508(13)
C17 C -0.1434(6) -0.0722(3) 0.01571(18)
H17 H -0.08080 -0.14670 0.03190
C18 C -0.3395(7) -0.0625(4) -0.0481(2)
H18 H -0.40430 -0.13070 -0.07540
C19 C -0.4376(6) 0.0459(4) -0.07096(17)
H19 H -0.56750 0.05160 -0.11400
C20 C -0.3433(7) 0.1471(4) -0.0300(2)
H20 H -0.41140 0.22100 -0.04490
C21 C -0.1481(6) 0.1390(3) 0.03309(16)
H21 H -0.08720 0.20740 0.06110
#END
