
#######################################################################
#
#                 Cambridge Crystallographic Data Centre
#                                CCDC
#
#######################################################################
#
# If this CIF has been generated from an entry in the Cambridge
# Structural Database, then it will include bibliographic, chemical,
# crystal, experimental, refinement or atomic coordinate data resulting
# from the CCDC's data processing and validation procedures.
#
#######################################################################

data_CSD_CIF_GEQZUX
_audit_creation_date 1999-04-16
_audit_creation_method CSD-ConQuest-V1
_database_code_CSD GEQZUX
_database_code_depnum_ccdc_archive 'CCDC 1166217'
_database_code_depnum_ccdc_fiz 'CSD 402657'
_chemical_formula_sum 'C30 H42 N2 O6'
_chemical_formula_moiety
;
C30 H42 N2 O6
;
_journal_coden_Cambridge 1267
_journal_volume 212
_journal_year 1997
_journal_page_first 139
_journal_name_full 'Z.Kristallogr.-New Cryst.Struct. '
loop_
_publ_author_name
"K.Peters"
"E.-M.Peters"
"A.Simon"
"I.Badou"
"L.Dulog"
_chemical_name_systematic
;
1,4-Phenylene-bis(acryloyloxy-2,2,6,6-tetramethylpiperidine-N-oxyl)
;
_cell_volume   1491.789
_exptl_crystal_colour 'colorless'
_exptl_crystal_description 'needle'
_diffrn_ambient_temperature ?
_diffrn_special_details
;
The study was carried out at room temperature,in the range 283-303K

;
#These two values have been output from a single CSD field.
_refine_ls_R_factor_gt 0.0626
_refine_ls_wR_factor_gt 0.0626
_symmetry_cell_setting monoclinic
_symmetry_space_group_name_H-M 'P 21/a'
_symmetry_Int_Tables_number 14
loop_
_symmetry_equiv_pos_site_id
_symmetry_equiv_pos_as_xyz
1 x,y,z
2 1/2-x,1/2+y,-z
3 -x,-y,-z
4 -1/2+x,-1/2-y,z
_cell_length_a 15.5138(77)
_cell_length_b 11.8933(67)
_cell_length_c 8.1263(44)
_cell_angle_alpha 90
_cell_angle_beta 95.770(42)
_cell_angle_gamma 90
_cell_formula_units_Z 2
loop_
_atom_type_symbol
_atom_type_radius_bond
C 0.68
H 0.23
N 0.68
O 0.68
loop_
_atom_site_label
_atom_site_type_symbol
_atom_site_fract_x
_atom_site_fract_y
_atom_site_fract_z
C1 C 0.41231(18) -0.29272(22) -0.44439(33)
H1 H 0.35825(18) -0.28204(22) -0.51107(33)
C2 C 0.43633(18) -0.21182(22) -0.34082(35)
H2 H 0.49032(18) -0.21841(22) -0.27261(35)
C3 C 0.38311(19) -0.11068(24) -0.32600(39)
O1 O 0.32026(16) -0.08593(18) -0.4123(3)
O2 O 0.41401(13) -0.05015(18) -0.19462(31)
C4 C 0.36658(20) 0.05098(24) -0.15686(44)
H3 H 0.31463(20) 0.06038(24) -0.23032(44)
C5 C 0.42582(19) 0.14992(24) -0.17042(37)
H4 H 0.47707(19) 0.13918(24) -0.09552(37)
H5 H 0.44135(19) 0.15382(24) -0.28169(37)
C6 C 0.38366(18) 0.26197(23) -0.12925(34)
N1 N 0.34230(13) 0.24733(17) 0.02942(27)
O3 O 0.31688(12) 0.33889(15) 0.09274(24)
C7 C 0.29820(17) 0.14261(22) 0.07915(41)
C8 C 0.34588(19) 0.04028(22) 0.02127(44)
H6 H 0.31027(19) -0.02498(22) 0.03053(44)
H7 H 0.39911(19) 0.03151(22) 0.09122(44)
C9 C 0.45821(17) -0.39829(20) -0.47046(31)
C10 C 0.41610(18) -0.48255(23) -0.56768(35)
H8 H 0.3625(17) -0.4692(23) -0.6139(33)
C11 C 0.54256(18) -0.41801(22) -0.40224(34)
H9 H 0.5748(16) -0.3656(22) -0.3326(32)
C12 C 0.31517(21) 0.29904(28) -0.26705(39)
H10 H 0.34150(21) 0.30842(28) -0.36814(39)
H11 H 0.29048(21) 0.36916(28) -0.23679(39)
H12 H 0.27045(21) 0.24313(28) -0.28241(39)
C13 C 0.45293(20) 0.35192(25) -0.09695(41)
H13 H 0.48099(20) 0.36359(25) -0.19560(41)
H14 H 0.49491(20) 0.32796(25) -0.00909(41)
H15 H 0.42674(20) 0.42092(25) -0.06617(41)
C14 C 0.30419(21) 0.14205(28) 0.26736(43)
H16 H 0.27635(21) 0.07573(28) 0.30372(43)
H17 H 0.27601(21) 0.20753(28) 0.30561(43)
H18 H 0.36397(21) 0.14208(28) 0.31140(43)
C15 C 0.20354(17) 0.14552(27) 0.00717(49)
H19 H 0.17465(17) 0.07870(27) 0.03881(49)
H20 H 0.20069(17) 0.14947(27) -0.11124(49)
H21 H 0.17576(17) 0.21035(27) 0.04839(49)
C11B C 0.45744(18) -0.58199(22) -0.59776(34)
C9B C 0.54179(17) -0.60171(20) -0.52954(31)
C1B C 0.58769(18) -0.70728(22) -0.55561(33)
H1B H 0.64175(18) -0.71796(22) -0.48893(33)
C2B C 0.56367(18) -0.78818(22) -0.65918(35)
H2B H 0.50968(18) -0.78159(22) -0.72739(35)
C3B C 0.61689(19) -0.88932(24) -0.67400(39)
O1B O 0.67974(16) -0.91407(18) -0.5877(3)
O2B O 0.58599(13) -0.94985(18) -0.80538(31)
C4B C 0.63342(20) -1.05098(24) -0.84314(44)
H3B H 0.68537(20) -1.06038(24) -0.76968(44)
C5B C 0.57418(19) -1.14992(24) -0.82958(37)
H4B H 0.52293(19) -1.13918(24) -0.90448(37)
H5B H 0.55865(19) -1.15382(24) -0.71831(37)
C6B C 0.61634(18) -1.26197(23) -0.87075(34)
N1B N 0.65770(13) -1.24733(17) -1.02942(27)
O3B O 0.68312(12) -1.33889(15) -1.09274(24)
C7B C 0.70180(17) -1.14261(22) -1.07915(41)
C8B C 0.65412(19) -1.04028(22) -1.02127(44)
H6B H 0.68973(19) -0.97502(22) -1.03053(44)
H7B H 0.60089(19) -1.03151(22) -1.09122(44)
C14B C 0.69581(21) -1.14205(28) -1.26736(43)
H16B H 0.72365(21) -1.07573(28) -1.30372(43)
H17B H 0.72399(21) -1.20753(28) -1.30561(43)
H18B H 0.63603(21) -1.14208(28) -1.31140(43)
C15B C 0.79646(17) -1.14552(27) -1.00717(49)
H19B H 0.82535(17) -1.07870(27) -1.03881(49)
H20B H 0.79931(17) -1.14947(27) -0.88876(49)
H21B H 0.82424(17) -1.21035(27) -1.04839(49)
C12B C 0.68483(21) -1.29904(28) -0.73295(39)
H10B H 0.65850(21) -1.30842(28) -0.63186(39)
H11B H 0.70952(21) -1.36916(28) -0.76321(39)
H12B H 0.72955(21) -1.24313(28) -0.71759(39)
C13B C 0.54707(20) -1.35192(25) -0.90305(41)
H13B H 0.51901(20) -1.36359(25) -0.80440(41)
H14B H 0.50509(20) -1.32796(25) -0.99091(41)
H15B H 0.57326(20) -1.42092(25) -0.93383(41)
C10B C 0.58390(18) -0.51745(23) -0.43232(35)
H8B H 0.6375(17) -0.5308(23) -0.3861(33)
H9B H 0.4252(16) -0.6344(22) -0.6674(32)
#END
