
#######################################################################
#
#                 Cambridge Crystallographic Data Centre
#                                CCDC
#
#######################################################################
#
# If this CIF has been generated from an entry in the Cambridge
# Structural Database, then it will include bibliographic, chemical,
# crystal, experimental, refinement or atomic coordinate data resulting
# from the CCDC's data processing and validation procedures.
#
#######################################################################

data_CSD_CIF_GERCOV
_audit_creation_date 1999-04-16
_audit_creation_method CSD-ConQuest-V1
_database_code_CSD GERCOV
_database_code_depnum_ccdc_archive 'CCDC 1166227'
_database_code_depnum_ccdc_fiz 'CSD 402658'
_chemical_formula_sum 'C22 H31 N2 O4'
_chemical_formula_moiety
;
C22 H31 N2 O4
;
_journal_coden_Cambridge 1267
_journal_volume 212
_journal_year 1997
_journal_page_first 141
_journal_name_full 'Z.Kristallogr.-New Cryst.Struct. '
loop_
_publ_author_name
"K.Peters"
"E.-M.Peters"
"A.Simon"
"I.Badou"
"L.Dulog"
_chemical_name_systematic
;
4-Cinnamoyloxybutanoylamino-2,2,6,6-tetramethyl-piperidine-N-oxyl
;
_cell_volume   4495.082
_exptl_crystal_colour 'red'
_exptl_crystal_description 'lath'
_diffrn_ambient_temperature ?
_diffrn_special_details
;
The study was carried out at room temperature,in the range 283-303K

;
#These two values have been output from a single CSD field.
_refine_ls_R_factor_gt 0.0631
_refine_ls_wR_factor_gt 0.0631
_symmetry_cell_setting monoclinic
_symmetry_space_group_name_H-M 'C c'
_symmetry_Int_Tables_number 9
loop_
_symmetry_equiv_pos_site_id
_symmetry_equiv_pos_as_xyz
1 x,y,z
2 x,-y,1/2+z
3 1/2+x,1/2+y,z
4 1/2+x,1/2-y,1/2+z
_cell_length_a 10.4265(32)
_cell_length_b 47.9705(28)
_cell_length_c 9.3980(22)
_cell_angle_alpha 90
_cell_angle_beta 107.003(22)
_cell_angle_gamma 90
_cell_formula_units_Z 8
loop_
_atom_type_symbol
_atom_type_radius_bond
C 0.59
H 0.23
N 0.68
O 0.68
loop_
_atom_site_label
_atom_site_type_symbol
_atom_site_fract_x
_atom_site_fract_y
_atom_site_fract_z
C1 C 0.08193(83) 0.66176(27) -0.2656(21)
C2 C 0.1524(32) 0.66149(36) -0.2037(14)
C3 C 0.2703(22) 0.65584(23) -0.0725(14)
O1 O 0.3688(24) 0.66403(29) -0.0635(17)
O2 O 0.23410(76) 0.64207(11) 0.03078(68)
C4 C 0.34111(81) 0.63298(14) 0.15602(82)
H1 H 0.38647(81) 0.61741(14) 0.12820(82)
H2 H 0.40380(81) 0.64788(14) 0.19131(82)
C5 C 0.27969(73) 0.62442(11) 0.27630(82)
H3 H 0.34243(73) 0.61288(11) 0.34696(82)
H4 H 0.19956(73) 0.61398(11) 0.23121(82)
C6 C 0.24408(74) 0.64875(11) 0.35625(82)
H5 H 0.19924(74) 0.66252(11) 0.28487(82)
H6 H 0.18538(74) 0.64263(11) 0.41192(82)
C7 C 0.36921(73) 0.66166(10) 0.46318(75)
O3 O 0.45172(63) 0.64733(8) 0.54753(67)
N1 N 0.38101(65) 0.68945(9) 0.45584(72)
H7 H 0.31820 0.70080 0.38290
C8 C 0.49324(71) 0.70380(11) 0.56055(75)
H8 H 0.57174(71) 0.69234(11) 0.57727(75)
C9 C 0.46489(88) 0.70861(12) 0.70619(89)
H9 H 0.38526(88) 0.71974(12) 0.68850(89)
H10 H 0.45027(88) 0.69085(12) 0.74595(89)
C10 C 0.57734(90) 0.72320(12) 0.82073(84)
N2 N 0.61981(70) 0.74804(10) 0.75418(77)
O4 O 0.68582(70) 0.76697(9) 0.84212(72)
C11 C 0.62966(88) 0.74867(14) 0.5991(9)
C12 C 0.51470(91) 0.73170(13) 0.49615(92)
H11 H 0.53608(91) 0.72841(13) 0.40492(92)
H12 H 0.43339(91) 0.74235(13) 0.47598(92)
C13 C 0.5304(13) 0.73338(21) 0.9505(12)
H13 H 0.5012(13) 0.71786(21) 0.9976(12)
H14 H 0.4568(13) 0.74597(21) 0.9124(12)
H15 H 0.6018(13) 0.74291(21) 1.0218(12)
C14 C 0.6963(12) 0.70339(16) 0.8833(10)
H16 H 0.6670(12) 0.68730(16) 0.926(1)
H17 H 0.7645(12) 0.71295(16) 0.9586(10)
H18 H 0.7322(12) 0.69763(16) 0.8048(10)
C15 C 0.76811(94) 0.73660(22) 0.6006(12)
H19 H 0.77680(94) 0.73680(22) 0.5017(12)
H20 H 0.77477(94) 0.71777(22) 0.6366(12)
H21 H 0.83828(94) 0.74763(22) 0.6649(12)
C16 C 0.6184(13) 0.77884(16) 0.5483(13)
H22 H 0.6240(13) 0.77973(16) 0.4482(13)
H23 H 0.6905(13) 0.78937(16) 0.6127(13)
H24 H 0.5342(13) 0.78649(16) 0.5516(13)
C17 C -0.03035(97) 0.66724(16) -0.4159(14)
C18 C -0.0157(14) 0.68467(28) -0.5192(22)
H25 H 0.0663(14) 0.69488(28) -0.5043(22)
C19 C -0.1189(21) 0.68847(24) -0.6482(20)
H26 H -0.1065(21) 0.70080(24) -0.7235(20)
C20 C -0.2427(13) 0.67522(18) -0.6770(11)
H27 H -0.3144(13) 0.67807(18) -0.7669(11)
C21 C -0.25503(94) 0.65762(16) -0.5668(10)
H28 H -0.33751(94) 0.64770(16) -0.5788(10)
C22 C -0.15032(92) 0.65408(16) -0.4405(10)
H29 H -0.16105(92) 0.64172(16) -0.3645(10)
C23 C 0.66925(71) 0.59227(10) 0.62322(70)
H30 H 0.58118(71) 0.59977(10) 0.57915(70)
C24 C 0.71886(73) 0.57721(11) 0.53664(79)
H31 H 0.80478(73) 0.56854(11) 0.57742(79)
C25 C 0.64560(81) 0.57297(11) 0.37536(81)
O5 O 0.53165(74) 0.58065(12) 0.31944(72)
O6 O 0.71923 0.55942(8) 0.30592
C26 C 0.65970(76) 0.55447(12) 0.14754(76)
H32 H 0.57115(76) 0.54691(12) 0.12983(76)
H33 H 0.65500(76) 0.57155(12) 0.09299(76)
C27 C 0.74766(72) 0.53412(11) 0.10083(70)
H34 H 0.71957(72) 0.53300(11) -0.00582(70)
H35 H 0.83850(72) 0.54070(11) 0.13453(70)
C28 C 0.74227(64) 0.50543(11) 0.16249(67)
H36 H 0.81366(64) 0.49449(11) 0.14595(67)
H37 H 0.75421(64) 0.50692(11) 0.26743(67)
C29 C 0.61104(61) 0.49088(9) 0.09081(62)
O7 O 0.57049(57) 0.48677(7) -0.04523(53)
N3 N 0.54285(57) 0.48261(8) 0.18340(57)
H38 H 0.56270 0.49230 0.27000
C30 C 0.41752(65) 0.46711(10) 0.13553(64)
H39 H 0.42157(65) 0.45414(10) 0.05915(64)
C31 C 0.39953(71) 0.45247(11) 0.27299(71)
H40 H 0.40132(71) 0.46637(11) 0.34704(71)
H41 H 0.47317(71) 0.43983(11) 0.30982(71)
C32 C 0.27064(74) 0.43615(11) 0.24583(78)
N4 N 0.15574(64) 0.45369(11) 0.15417(69)
O8 O 0.03822(64) 0.44591(14) 0.15493(81)
C33 C 0.16417(70) 0.47060(13) 0.02687(78)
C34 C 0.29907(65) 0.48599(11) 0.07137(72)
H42 H 0.29689(65) 0.49976(11) 0.14479(72)
H43 H 0.31065(65) 0.49504(11) -0.01516(72)
C35 C 0.2753(11) 0.40852(15) 0.1675(12)
H44 H 0.3488(11) 0.39757(15) 0.2264(12)
H45 H 0.2874(11) 0.41195(15) 0.0716(12)
H46 H 0.1928(11) 0.39861(15) 0.1555(12)
C36 C 0.24169(84) 0.43100(17) 0.39614(91)
H47 H 0.31191(84) 0.41983(17) 0.45932(91)
H48 H 0.15748(84) 0.42151(17) 0.37915(91)
H49 H 0.23775(84) 0.44860(17) 0.44328(91)
C37 C 0.14711(92) 0.45267(17) -0.11210(82)
H50 H 0.15356(92) 0.46418(17) -0.19328(82)
H51 H 0.06071(92) 0.44385(17) -0.13765(82)
H52 H 0.21588(92) 0.43868(17) -0.09243(82)
C38 C 0.05069(76) 0.49202(18) -0.00331(93)
H53 H 0.05301(76) 0.50356(18) -0.08594(93)
H54 H 0.06215(76) 0.50340(18) 0.08353(93)
H55 H -0.03407(76) 0.48258(18) -0.02583(93)
C39 C 0.73304(71) 0.59903(10) 0.78097(73)
C40 C 0.67142(85) 0.61755(12) 0.85072(86)
H56 H 0.58605(85) 0.62526(12) 0.79689(86)
C41 C 0.7308(11) 0.62516(14) 0.99767(95)
H57 H 0.6860(11) 0.63801(14) 1.04533(95)
C42 C 0.85339(97) 0.61419(16) 1.07472(87)
H58 H 0.89541(97) 0.61961(16) 1.17600(87)
C43 C 0.91566(83) 0.59589(15) 1.00694(90)
H59 H 1.00091(83) 0.58824(15) 1.06157(90)
C44 C 0.85711(73) 0.58802(13) 0.86014(79)
H60 H 0.90166(73) 0.57498(13) 0.81318(79)
#END
