
#######################################################################
#
#                 Cambridge Crystallographic Data Centre
#                                CCDC
#
#######################################################################
#
# If this CIF has been generated from an entry in the Cambridge
# Structural Database, then it will include bibliographic, chemical,
# crystal, experimental, refinement or atomic coordinate data resulting
# from the CCDC's data processing and validation procedures.
#
#######################################################################

data_CSD_CIF_GERFIU
_audit_creation_date 2013-04-24
_audit_creation_method CSD-ConQuest-V1
_database_code_CSD GERFIU
_database_code_depnum_ccdc_archive 'CCDC 916487'
_chemical_formula_sum 'C14 H17 N1 O5'
_chemical_formula_moiety
;
C14 H17 N1 O5
;
_journal_coden_Cambridge 4
_journal_volume 134
_journal_year 2012
_journal_page_first 13565
_journal_name_full 'J.Am.Chem.Soc. '
loop_
_publ_author_name
"Wai-Wing Chan"
"Siu-Fung Lo"
"Zhongyuan Zhou"
"Wing-Yiu Yu"
_chemical_name_systematic
;
Dimethyl (2-(N-methoxyethanimidoyl)phenyl)malonate
;
_cell_volume   1448.076
_exptl_crystal_colour 'colorless'
_exptl_crystal_density_diffrn 1.281
_exptl_crystal_description 'block'
_diffrn_ambient_temperature 296
#These two values have been output from a single CSD field.
_refine_ls_R_factor_gt 0.0468
_refine_ls_wR_factor_gt 0.0468
_symmetry_cell_setting monoclinic
_symmetry_space_group_name_H-M 'P 21/c'
_symmetry_Int_Tables_number 14
loop_
_symmetry_equiv_pos_site_id
_symmetry_equiv_pos_as_xyz
1 x,y,z
2 -x,1/2+y,1/2-z
3 -x,-y,-z
4 x,-1/2-y,-1/2+z
_cell_length_a 12.5062(4)
_cell_length_b 14.9297(4)
_cell_length_c 7.8289(2)
_cell_angle_alpha 90
_cell_angle_beta 97.847(2)
_cell_angle_gamma 90
_cell_formula_units_Z 4
loop_
_atom_type_symbol
_atom_type_radius_bond
C 0.68
H 0.23
N 0.68
O 0.68
loop_
_atom_site_label
_atom_site_type_symbol
_atom_site_fract_x
_atom_site_fract_y
_atom_site_fract_z
O1 O 0.52265(8) 0.39155(8) 0.66517(15)
O2 O 0.28128(12) 0.57283(9) 0.77351(15)
O3 O 0.16657(9) 0.45864(7) 0.72670(12)
O4 O 0.11781(10) 0.63940(8) 0.45365(16)
O5 O 0.21837(10) 0.60869(7) 0.24777(13)
N1 N 0.41122(9) 0.38994(8) 0.60191(16)
C1 C 0.27714(11) 0.35734(9) 0.37363(16)
C2 C 0.20483(10) 0.42698(8) 0.39871(15)
C3 C 0.09601(11) 0.41583(10) 0.33725(17)
H1 H 0.0461(12) 0.4644(10) 0.3573(19)
C4 C 0.05834(12) 0.3384(1) 0.25127(18)
H2 H -0.0192(14) 0.3354(12) 0.203(2)
C5 C 0.12930(14) 0.27167(10) 0.22126(18)
H3 H 0.1047(12) 0.2203(11) 0.156(2)
C6 C 0.23737(13) 0.28107(9) 0.28273(18)
H4 H 0.2866(13) 0.2350(12) 0.267(2)
C7 C 0.39303(11) 0.36040(9) 0.44838(18)
C8 C 0.47916(15) 0.32845(15) 0.3468(3)
H5 H 0.44620 0.29990 0.24290
H6 H 0.52510 0.28640 0.41450
H7 H 0.52130 0.37860 0.31800
C9 C 0.53521(17) 0.42536(16) 0.8360(2)
H8 H 0.50700 0.48520 0.83550
H9 H 0.61040 0.42600 0.88200
H10 H 0.49670 0.38780 0.90630
C10 C 0.24224(10) 0.51434(9) 0.48743(16)
H11 H 0.3125(12) 0.5224(10) 0.4764(19)
C11 C 0.23303(12) 0.51914(9) 0.67829(17)
C12 C 0.15393(19) 0.45710(14) 0.9070(2)
H12 H 0.12460 0.51320 0.93840
H13 H 0.22290 0.44760 0.97480
H14 H 0.10580 0.40940 0.92780
C13 C 0.18425(11) 0.59434(9) 0.39796(17)
C14 C 0.17642(19) 0.68715(13) 0.1515(2)
H15 H 0.2016(19) 0.7422(17) 0.212(3)
H16 H 0.2033(18) 0.6814(16) 0.046(3)
H17 H 0.098(2) 0.6818(16) 0.128(3)
#END
