
#######################################################################
#
#                 Cambridge Crystallographic Data Centre
#                                CCDC
#
#######################################################################
#
# If this CIF has been generated from an entry in the Cambridge
# Structural Database, then it will include bibliographic, chemical,
# crystal, experimental, refinement or atomic coordinate data resulting
# from the CCDC's data processing and validation procedures.
#
#######################################################################

data_CSD_CIF_GERPOJ03
_audit_creation_date 2015-10-01
_audit_creation_method CSD-ConQuest-V1
_database_code_CSD GERPOJ03
_database_code_depnum_ccdc_archive 'CCDC 1429100'
_chemical_formula_sum 'C10 H14 N4 O6'
_chemical_formula_moiety
;
C10 H14 N4 O6
;
_journal_coden_Cambridge 1277
_journal_volume 113
_journal_year 2009
_journal_page_first 11354
_journal_name_full 'J.Phys.Chem.A '
loop_
_publ_author_name
"P.Naumov"
"Sang Cheol Lee"
"N.Ishizawa"
"Young Gyu Jeong"
"Ihn Hee Chung"
"Shunichi Fukuzumi"
_chemical_name_systematic
;
2,2'-((4,6-dinitro-1,3-phenylene)diimino)diethanol
;
_cell_volume   1212.543
_exptl_crystal_colour 'yellow'
_exptl_crystal_density_diffrn 1.568
_exptl_crystal_description 'block'
_diffrn_ambient_temperature 293
_refine_special_details
;
C10A,C9A and C10B,C9B disordered over two sites with occupancies 0.663:0.337.

;
#These two values have been output from a single CSD field.
_refine_ls_R_factor_gt 0.0463
_refine_ls_wR_factor_gt 0.0463
_symmetry_cell_setting monoclinic
_symmetry_space_group_name_H-M 'P 21/n'
_symmetry_Int_Tables_number 14
loop_
_symmetry_equiv_pos_site_id
_symmetry_equiv_pos_as_xyz
1 x,y,z
2 1/2-x,1/2+y,1/2-z
3 -x,-y,-z
4 -1/2+x,-1/2-y,-1/2+z
_cell_length_a 10.453(5)
_cell_length_b 9.464(5)
_cell_length_c 12.557(5)
_cell_angle_alpha 90
_cell_angle_beta 102.551(5)
_cell_angle_gamma 90
_cell_formula_units_Z 4
loop_
_atom_type_symbol
_atom_type_radius_bond
C 0.68
H 0.23
N 0.68
O 0.68
loop_
_atom_site_label
_atom_site_type_symbol
_atom_site_fract_x
_atom_site_fract_y
_atom_site_fract_z
O1 O 0.75201(15) -0.22889(15) -0.18808(12)
O2 O 0.50552(17) 0.27148(18) 0.34938(12)
N1 N 0.72515(15) -0.06382(17) 0.00020(13)
O3 O 0.61813(17) -0.25225(15) 0.10960(14)
O4 O 0.56476(16) 0.45054(16) 0.26573(13)
O5 O 0.7950(3) 0.4895(2) -0.14851(17)
N2 N 0.55094(15) 0.32162(18) 0.27507(12)
O6 O 0.5048(2) -0.18490(18) 0.22355(16)
N3 N 0.57438(17) -0.15785(17) 0.15967(14)
C1 C 0.59091(17) 0.22824(19) 0.19851(14)
C2 C 0.67835(17) 0.02829(18) 0.06346(14)
C3 C 0.56489(17) 0.0867(2) 0.20764(14)
H1 H 0.51910 0.05770 0.25950
C4 C 0.60494(17) -0.01298(18) 0.14199(14)
C5 C 0.6993(2) 0.1729(2) 0.05403(17)
H2 H 0.74430 0.20210 0.00160
C6 C 0.6578(2) 0.2766(2) 0.11735(16)
N4 N 0.6827(3) 0.4142(2) 0.1024(2)
C7 C 0.8081(2) -0.0226(2) -0.07293(17)
H3 H 0.88240 0.03080 -0.03300
H4 H 0.75920 0.03750 -0.13010
C8 C 0.85612(19) -0.1512(2) -0.12305(17)
H5 H 0.91630 -0.12190 -0.16770
H6 H 0.90370 -0.21160 -0.06550
H7 H 0.859(2) 0.489(3) -0.121(2)
C9 C 0.7752(3) 0.4627(3) 0.0385(3)
H8 H 0.84620 0.39550 0.04260
H9 H 0.81170 0.55380 0.06440
C10 C 0.6951(4) 0.4737(4) -0.0763(3)
H10 H 0.63750 0.55510 -0.08380
H11 H 0.64240 0.38940 -0.09590
H12 H 0.724(3) -0.181(4) -0.241(3)
H13 H 0.704(2) -0.150(3) 0.009(2)
H14 H 0.658(3) 0.467(3) 0.143(2)
H15? H 0.787(4) 0.588(4) -0.169(3)
C11? C 0.6768(7) 0.4607(6) -0.0207(5)
H16? H 0.62950 0.39150 -0.07140
H17? H 0.63410 0.55180 -0.03590
C12? C 0.8196(6) 0.4692(6) -0.0296(5)
H18? H 0.86500 0.54880 0.01030
H19? H 0.86710 0.38260 -0.00640
#END
