
#######################################################################
#
#                 Cambridge Crystallographic Data Centre
#                                CCDC
#
#######################################################################
#
# If this CIF has been generated from an entry in the Cambridge
# Structural Database, then it will include bibliographic, chemical,
# crystal, experimental, refinement or atomic coordinate data resulting
# from the CCDC's data processing and validation procedures.
#
#######################################################################

data_CSD_CIF_GERPOJ02
_audit_creation_date 2015-10-01
_audit_creation_method CSD-ConQuest-V1
_database_code_CSD GERPOJ02
_database_code_depnum_ccdc_archive 'CCDC 1429099'
_chemical_formula_sum 'C10 H14 N4 O6'
_chemical_formula_moiety
;
C10 H14 N4 O6
;
_journal_coden_Cambridge 1277
_journal_volume 113
_journal_year 2009
_journal_page_first 11354
_journal_name_full 'J.Phys.Chem.A '
loop_
_publ_author_name
"P.Naumov"
"Sang Cheol Lee"
"N.Ishizawa"
"Young Gyu Jeong"
"Ihn Hee Chung"
"Shunichi Fukuzumi"
_chemical_name_systematic
;
2,2'-((4,6-dinitro-1,3-phenylene)diimino)diethanol
;
_cell_volume   2364.385
_exptl_crystal_colour 'yellow'
_exptl_crystal_density_diffrn 1.608
_exptl_crystal_description 'prism'
_diffrn_ambient_temperature 293
#These two values have been output from a single CSD field.
_refine_ls_R_factor_gt 0.0367
_refine_ls_wR_factor_gt 0.0367
_symmetry_cell_setting orthorhombic
_symmetry_space_group_name_H-M 'P b c a'
_symmetry_Int_Tables_number 61
loop_
_symmetry_equiv_pos_site_id
_symmetry_equiv_pos_as_xyz
1 x,y,z
2 1/2-x,-y,1/2+z
3 -x,1/2+y,1/2-z
4 1/2+x,1/2-y,-z
5 -x,-y,-z
6 -1/2+x,y,-1/2-z
7 x,-1/2-y,-1/2+z
8 -1/2-x,-1/2+y,z
_cell_length_a 17.4174(2)
_cell_length_b 7.0176(1)
_cell_length_c 19.3440(2)
_cell_angle_alpha 90
_cell_angle_beta 90
_cell_angle_gamma 90
_cell_formula_units_Z 8
loop_
_atom_type_symbol
_atom_type_radius_bond
C 0.68
H 0.23
N 0.68
O 0.68
loop_
_atom_site_label
_atom_site_type_symbol
_atom_site_fract_x
_atom_site_fract_y
_atom_site_fract_z
H1 H -0.2265(10) 0.222(3) 0.5707(9)
H2 H 0.1256(10) 0.328(3) 0.5436(10)
H3 H -0.0790(13) 0.370(4) 0.7585(12)
H4 H 0.0189(12) 0.152(3) 0.7094(10)
N1 N 0.07642(7) 0.22445(18) 0.41968(6)
C1 C 0.01897(7) 0.28477(19) 0.53751(7)
O1 O 0.05980(7) 0.10430(16) 0.69644(6)
O2 O 0.14185(6) 0.24461(19) 0.44285(6)
N2 N -0.19304(7) 0.12871(19) 0.44313(6)
N3 N 0.08617(7) 0.33070(19) 0.56714(6)
O3 O 0.06535(7) 0.2022(2) 0.35771(6)
N4 N -0.18447(7) 0.2493(2) 0.58843(6)
O4 O -0.19544(7) 0.1305(2) 0.37959(6)
C2 C -0.12347(8) 0.1830(2) 0.47731(7)
C3 C -0.05772(8) 0.1816(2) 0.43825(7)
H5 H -0.06060 0.14710 0.39190
O5 O -0.24903(6) 0.0807(2) 0.47805(6)
C4 C -0.12128(8) 0.24051(19) 0.54865(7)
C5 C -0.04958(8) 0.2894(2) 0.57489(7)
H6 H -0.04710 0.32820 0.62080
C6 C 0.01248(8) 0.22985(19) 0.46588(7)
O6 O -0.08132(7) 0.26543(19) 0.73535(6)
C7 C 0.09588(9) 0.4021(2) 0.63717(7)
H7 H 0.04870 0.46390 0.65150
H8 H 0.13610 0.49770 0.63710
C8 C 0.11605(9) 0.2498(2) 0.68963(8)
H9 H 0.16440 0.19170 0.67640
H10 H 0.12340 0.30980 0.73430
C9 C -0.18900(9) 0.3406(2) 0.65560(8)
H11 H -0.24230 0.37110 0.66480
H12 H -0.16100 0.46000 0.65340
C10 C -0.15798(10) 0.2255(3) 0.71638(8)
H13 H -0.19070 0.24830 0.75610
H14 H -0.16180 0.09120 0.70500
#END
