
#######################################################################
#
#                 Cambridge Crystallographic Data Centre
#                                CCDC
#
#######################################################################
#
# If this CIF has been generated from an entry in the Cambridge
# Structural Database, then it will include bibliographic, chemical,
# crystal, experimental, refinement or atomic coordinate data resulting
# from the CCDC's data processing and validation procedures.
#
#######################################################################

data_CSD_CIF_GERPOJ04
_audit_creation_date 2015-10-01
_audit_creation_method CSD-ConQuest-V1
_database_code_CSD GERPOJ04
_database_code_depnum_ccdc_archive 'CCDC 718310'
_chemical_formula_sum 'C10 H14 N4 O6'
_chemical_formula_moiety
;
C10 H14 N4 O6
;
_journal_coden_Cambridge 1277
_journal_volume 113
_journal_year 2009
_journal_page_first 11354
_journal_name_full 'J.Phys.Chem.A '
loop_
_publ_author_name
"P.Naumov"
"Sang Cheol Lee"
"N.Ishizawa"
"Young Gyu Jeong"
"Ihn Hee Chung"
"Shunichi Fukuzumi"
_chemical_name_systematic
;
2,2'-((4,6-dinitro-1,3-phenylene)diimino)diethanol
;
_cell_volume   4950.268
_exptl_crystal_colour 'yellow'
_exptl_crystal_density_diffrn 1.536
_exptl_crystal_description 'plate'
_diffrn_ambient_temperature 293
_refine_special_details
;
O24A and O24B disordered over two sites with occupancies 0.898:0.102.

;
#These two values have been output from a single CSD field.
_refine_ls_R_factor_gt 0.0443
_refine_ls_wR_factor_gt 0.0443
_symmetry_cell_setting monoclinic
_symmetry_space_group_name_H-M 'P 21/n'
_symmetry_Int_Tables_number 14
loop_
_symmetry_equiv_pos_site_id
_symmetry_equiv_pos_as_xyz
1 x,y,z
2 1/2-x,1/2+y,1/2-z
3 -x,-y,-z
4 -1/2+x,-1/2-y,-1/2+z
_cell_length_a 13.9814(3)
_cell_length_b 15.9511(3)
_cell_length_c 22.2275(4)
_cell_angle_alpha 90
_cell_angle_beta 93.019(1)
_cell_angle_gamma 90
_cell_formula_units_Z 16
loop_
_atom_type_symbol
_atom_type_radius_bond
C 0.68
H 0.23
N 0.68
O 0.68
loop_
_atom_site_label
_atom_site_type_symbol
_atom_site_fract_x
_atom_site_fract_y
_atom_site_fract_z
O1 O 1.22185(15) 0.31610(11) 0.22839(8)
O2 O 1.26951(16) 0.25531(11) 0.49475(8)
N1 N 1.22900(14) 0.31521(11) 0.28390(9)
O3 O 1.21841(17) 0.37913(10) 0.31282(9)
C1 C 1.25864(14) 0.24212(13) 0.37602(10)
H1 H 1.24930 0.29320 0.39500
N2 N 1.24595(14) 0.15122(12) 0.22436(9)
N3 N 1.28837(14) 0.18665(12) 0.47466(8)
C2 C 1.25083(17) 0.07155(14) 0.19337(10)
H2 H 1.21460 0.03010 0.21450
H3 H 1.31700 0.05310 0.19400
C3 C 1.28083(14) 0.17362(12) 0.41058(9)
N4 N 1.32420(15) 0.02617(11) 0.41610(9)
O4 O 1.27219(15) 0.12239(13) 0.09238(9)
O5 O 1.31326(16) 0.12897(11) 0.50796(8)
C4 C 1.29657(14) 0.09347(12) 0.38324(9)
C5 C 1.28264(14) 0.09080(12) 0.32059(9)
H4 H 1.28960 0.03920 0.30180
C6 C 1.25916(13) 0.15949(12) 0.28413(9)
C7 C 1.24951(14) 0.23861(12) 0.31442(9)
C8 C 1.21200(18) 0.07712(16) 0.12936(10)
H5 H 1.20340 0.02090 0.11330
H6 H 1.14970 0.10390 0.12840
C9 C 1.34293(18) -0.05819(13) 0.39508(11)
H7 H 1.40370 -0.07750 0.41310
H8 H 1.34790 -0.05730 0.35170
C10 C 1.26675(19) -0.11697(15) 0.41045(13)
H9 H 1.25210 -0.10960 0.45230
H10 H 1.20910 -0.10550 0.38560
O6 O 1.29674(15) -0.20078(11) 0.40093(9)
H11 H 1.2342(14) 0.1935(13) 0.2054(10)
H12 H 1.3288(18) 0.0384(16) 0.4539(12)
H13 H 1.295(3) 0.081(2) 0.0720(18)
H14 H 1.267(2) -0.2333(19) 0.4195(14)
C11 C 0.70089(19) 0.44482(15) 0.11838(10)
H15 H 0.69220 0.50400 0.10960
H16 H 0.75720 0.42540 0.09880
O7 O 0.62004(16) 0.39945(13) 0.09728(9)
C12 C 0.73638(17) 0.48635(12) 0.40013(10)
H17 H 0.68570 0.49950 0.37020
H18 H 0.79610 0.50810 0.38610
C13 C 0.71556(18) 0.52638(14) 0.45883(11)
H19 H 0.71660 0.58680 0.45430
H20 H 0.65190 0.51030 0.46980
O8 O 0.78286(17) 0.50264(12) 0.50552(8)
O9 O 0.74041(12) 0.18429(10) 0.16691(7)
N5 N 0.72813(13) 0.34372(11) 0.19792(9)
N6 N 0.74342(13) 0.39615(11) 0.40785(9)
N7 N 0.75207(12) 0.16316(10) 0.22033(8)
C14 C 0.73854(14) 0.36697(12) 0.30312(9)
H21 H 0.73260 0.42420 0.29570
C15 C 0.74686(13) 0.34081(12) 0.36303(9)
C16 C 0.76153(14) 0.19833(12) 0.32501(9)
H22 H 0.77030 0.14140 0.33240
O10 O 0.76583(14) 0.08982(9) 0.23475(7)
C17 C 0.75042(13) 0.22554(12) 0.26656(9)
O11 O 0.77369(14) 0.2624(1) 0.47632(7)
C18 C 0.73859(13) 0.31352(12) 0.25381(9)
N8 N 0.77438(15) 0.21672(12) 0.43165(8)
C19 C 0.76014(14) 0.25262(12) 0.37296(9)
C20 C 0.71293(17) 0.43148(13) 0.18435(10)
H23 H 0.76720 0.46380 0.20040
H24 H 0.65620 0.45100 0.20340
O12 O 0.78784(19) 0.14158(11) 0.43654(8)
H25 H 0.7250(15) 0.3100(14) 0.1716(10)
H26 H 0.7437(16) 0.3760(15) 0.4426(11)
H27 H 0.827(2) 0.5359(19) 0.5077(14)
H28 H 0.611(3) 0.411(2) 0.0648(16)
O13 O 0.54724(15) 0.38596(12) 0.49055(9)
O14 O 0.54804(15) -0.06216(9) 0.24744(8)
O15 O 0.55212(18) 0.13748(11) 0.47718(8)
N9 N 0.49503(14) 0.18267(12) 0.19494(9)
C21 C 0.51625(13) 0.20127(12) 0.35976(9)
C22 C 0.50295(13) 0.22026(12) 0.29874(9)
H29 H 0.48950 0.27550 0.28800
N10 N 0.50824(13) 0.26028(10) 0.40196(9)
C23 C 0.50858(14) 0.16136(12) 0.25281(9)
C24 C 0.53905(14) 0.11575(12) 0.37485(9)
C25 C 0.52920(15) 0.07625(12) 0.27066(10)
O16 O 0.52919(16) 0.02363(10) 0.17401(8)
O17 O 0.58016(14) 0.0144(1) 0.44505(8)
N11 N 0.55809(14) 0.08765(11) 0.43563(9)
C26 C 0.54410(14) 0.05676(12) 0.33056(10)
H30 H 0.55810 0.00160 0.34140
N12 N 0.53551(14) 0.00906(11) 0.22856(9)
C27 C 0.48933(15) 0.34789(12) 0.39040(9)
H31 H 0.43460 0.35350 0.36200
H32 H 0.54430 0.37340 0.37280
C28 C 0.47144(16) 0.26525(13) 0.17203(10)
H33 H 0.52130 0.30450 0.18500
H34 H 0.41170 0.28390 0.18790
C29 C 0.46937(18) 0.39174(14) 0.44788(10)
H35 H 0.45570 0.45030 0.43950
H36 H 0.41310 0.36720 0.46460
O18 O 0.54516(15) 0.23557(12) 0.07832(8)
C30 C 0.46195(17) 0.26308(14) 0.10468(10)
H37 H 0.40940 0.22620 0.09230
H38 H 0.44620 0.31890 0.08990
H39 H 0.5210(17) 0.2445(15) 0.4364(11)
H40 H 0.5027(16) 0.1462(15) 0.1713(11)
H41 H 0.585(2) 0.271(2) 0.0823(15)
H42 H 0.524(3) 0.353(2) 0.5189(18)
O19? O 0.4504(13) 0.1794(9) 0.0812(8)
H43? H 0.40190 0.15840 0.09400
H44? H 0.40710 0.29660 0.09110
H45? H 0.51850 0.28800 0.08870
N13 N 0.98167(13) 0.18569(11) 0.19992(8)
O20 O 0.99513(13) 0.02457(10) 0.17688(7)
C31 C 1.01747(13) 0.19974(12) 0.36450(9)
C32 C 1.00205(13) 0.22032(12) 0.30382(9)
H46 H 0.99360 0.27660 0.29390
N14 N 1.01678(14) 0.25862(11) 0.40743(9)
C33 C 1.01259(14) 0.07569(12) 0.27384(9)
C34 C 0.99845(13) 0.16190(11) 0.25719(9)
O21 O 1.02717(17) -0.06235(10) 0.24825(8)
N15 N 1.05656(14) 0.08200(12) 0.43738(8)
C35 C 1.03327(14) 0.11259(12) 0.37794(9)
O22 O 1.02233(15) 0.22913(11) 0.08089(8)
C36 C 1.03010(14) 0.05385(12) 0.33296(9)
H47 H 1.04010 -0.00220 0.34280
C37 C 1.00608(16) 0.34774(12) 0.39654(10)
H48 H 0.95170 0.35750 0.36850
H49 H 1.06290 0.36920 0.37860
O23 O 1.05899(17) 0.13185(11) 0.47951(8)
N16 N 1.01143(14) 0.00901(11) 0.23103(8)
O24 O 1.07583(14) 0.00873(11) 0.44596(8)
O25 O 1.07156(14) 0.38696(12) 0.49514(9)
C38 C 0.97528(15) 0.27158(12) 0.17920(9)
H50 H 1.03540 0.30020 0.18870
H51 H 0.92510 0.30060 0.19940
C39 C 0.95355(17) 0.27274(14) 0.11238(10)
H52 H 0.89110 0.24770 0.10360
H53 H 0.95090 0.33040 0.09850
C40 C 0.99134(17) 0.39282(14) 0.45431(10)
H54 H 0.97810 0.45140 0.44570
H55 H 0.93600 0.36940 0.47280
H56 H 0.9832(15) 0.1494(14) 0.1752(10)
H57 H 1.0285(17) 0.2398(15) 0.4420(12)
H58 H 1.066(2) 0.353(2) 0.5210(15)
H59 H 1.078(2) 0.2547(19) 0.0863(14)
#END
