
#######################################################################
#
#                 Cambridge Crystallographic Data Centre
#                                CCDC
#
#######################################################################
#
# If this CIF has been generated from an entry in the Cambridge
# Structural Database, then it will include bibliographic, chemical,
# crystal, experimental, refinement or atomic coordinate data resulting
# from the CCDC's data processing and validation procedures.
#
#######################################################################

data_CSD_CIF_GESWUX
_audit_creation_date 2007-02-15
_audit_creation_method CSD-ConQuest-V1
_database_code_CSD GESWUX
_database_code_depnum_ccdc_archive 'CCDC 605465'
_chemical_formula_sum 'C21 H19 N1 O4'
_chemical_formula_moiety
;
C21 H19 N1 O4
;
_journal_coden_Cambridge 1048
_journal_volume 8
_journal_year 2006
_journal_page_first 1042
_journal_name_full 'Green Chemistry '
loop_
_publ_author_name
"A.E.Rosamilia"
"M.A.Giarrusso"
"J.L.Scott"
"C.R.Strauss"
_chemical_name_systematic
;
(E,E)-2-(4-Methoxybenzylidene)-6-(4-nitrobenzylidene)cyclohexanone
;
_chemical_melting_point 470.15
_cell_volume    839.250
_exptl_crystal_colour 'yellow'
_exptl_crystal_density_diffrn 1.383
_exptl_special_details
;
Melting point range 470.15-471.15K

;
_exptl_crystal_description 'block'
_diffrn_ambient_temperature 123
#These two values have been output from a single CSD field.
_refine_ls_R_factor_gt 0.04
_refine_ls_wR_factor_gt 0.04
_symmetry_cell_setting triclinic
_symmetry_space_group_name_H-M 'P -1'
_symmetry_Int_Tables_number 2
loop_
_symmetry_equiv_pos_site_id
_symmetry_equiv_pos_as_xyz
1 x,y,z
2 -x,-y,-z
_cell_length_a 7.8646(3)
_cell_length_b 9.6830(3)
_cell_length_c 11.3746(5)
_cell_angle_alpha 95.587(1)
_cell_angle_beta 102.801(1)
_cell_angle_gamma 91.992(2)
_cell_formula_units_Z 2
loop_
_atom_type_symbol
_atom_type_radius_bond
C 0.68
H 0.23
N 0.68
O 0.68
loop_
_atom_site_label
_atom_site_type_symbol
_atom_site_fract_x
_atom_site_fract_y
_atom_site_fract_z
O1 O 1.09975(15) -0.10826(11) 0.91272(10)
C1 C -0.0103(2) 0.65761(16) 0.10201(15)
H1 H -0.00390 0.73710 0.06000
C2 C 0.1315(2) 0.47759(16) 0.21632(14)
C3 C -0.1839(2) 0.48448(16) 0.17268(14)
H2 H -0.29500 0.44740 0.17800
C4 C -0.0335(2) 0.42268(16) 0.22288(14)
H3 H -0.04150 0.34160 0.26260
C5 C 0.8341(2) -0.04018(16) 0.80382(14)
H4 H 0.77890 -0.08330 0.85820
C6 C 0.4402(2) 0.21769(16) 0.59702(15)
H5 H 0.51020 0.22610 0.68150
H6 H 0.37150 0.12750 0.58150
C7 C -0.1694(2) 0.60182(16) 0.11426(14)
C8 C 1.0145(2) -0.04321(15) 0.81798(14)
C9 C 0.2121(2) 0.33023(16) 0.45321(15)
H7 H 0.14300 0.24050 0.42960
H8 H 0.12970 0.40560 0.44700
C10 C 0.7348(2) 0.02474(16) 0.71176(15)
H9 H 0.61190 0.02530 0.70360
C11 C 0.5084(2) 0.28763(16) 0.39731(15)
C12 C 0.3315(2) 0.34692(16) 0.36755(15)
C13 C 1.0942(2) 0.01675(16) 0.73609(15)
H10 H 1.21670 0.01370 0.74350
C14 C 0.9923(2) 0.08120(16) 0.64337(15)
H11 H 1.04760 0.12060 0.58720
C15 C 0.5621(2) 0.21899(16) 0.51126(14)
C16 C 0.8122(2) 0.09054(16) 0.62922(14)
C17 C 0.3156(2) 0.33470(16) 0.58345(15)
H12 H 0.23420 0.32600 0.63770
H13 H 0.38280 0.42520 0.60780
C18 C 0.1386(2) 0.59378(16) 0.15292(14)
H14 H 0.24890 0.62970 0.14470
O2 O -0.32143(16) 0.76067(13) -0.00272(12)
O3 O 0.60686(15) 0.29419(12) 0.32714(11)
N1 N -0.32882(18) 0.67007(14) 0.06475(12)
C19 C 0.2941(2) 0.41461(16) 0.26801(15)
H15 H 0.38490 0.42260 0.22580
O4 O -0.46432(16) 0.63478(14) 0.09346(13)
C20 C 0.7205(2) 0.16457(15) 0.53094(15)
H16 H 0.78310 0.17680 0.46990
C21 C 1.2849(2) -0.11740(18) 0.92877(16)
H17 H 1.31030 -0.16710 0.85600
H18 H 1.32940 -0.16770 0.99890
H19 H 1.34150 -0.02360 0.94240
#END
