
#######################################################################
#
#                 Cambridge Crystallographic Data Centre
#                                CCDC
#
#######################################################################
#
# If this CIF has been generated from an entry in the Cambridge
# Structural Database, then it will include bibliographic, chemical,
# crystal, experimental, refinement or atomic coordinate data resulting
# from the CCDC's data processing and validation procedures.
#
#######################################################################

data_CSD_CIF_GETBOW
_audit_creation_date 1989-05-23
_audit_creation_method CSD-ConQuest-V1
_database_code_CSD GETBOW
_chemical_formula_sum 'C37 H53 N1 O8'
_chemical_formula_moiety
;
C37 H53 N1 O8
;
_journal_coden_Cambridge 24
_journal_volume 29
_journal_year 1988
_journal_page_first 2595
_journal_name_full 'Tetrahedron Lett. '
loop_
_publ_author_name
"N.E.Beddall"
"P.D.Howes"
"M.V.J.Ramsay"
"S.M.Roberts"
"A.M.Z.Slawin"
"D.R.Sutherland"
"E.P.Tiley"
"D.J.Williams"
_chemical_name_systematic
;
Ivermectin-23(E)-methoxyimine
;
_cell_volume   3785.951
_exptl_crystal_density_diffrn 1.12
_exptl_special_details
;
potent antiparasitic activity

;
_diffrn_ambient_temperature ?
_diffrn_special_details
;
The study was carried out at room temperature,in the range 283-303K

;
#These two values have been output from a single CSD field.
_refine_ls_R_factor_gt 0.11
_refine_ls_wR_factor_gt 0.11
_symmetry_cell_setting orthorhombic
_symmetry_space_group_name_H-M 'P 21 21 21'
_symmetry_Int_Tables_number 19
loop_
_symmetry_equiv_pos_site_id
_symmetry_equiv_pos_as_xyz
1 x,y,z
2 1/2+x,1/2-y,-z
3 -x,1/2+y,1/2-z
4 1/2-x,-y,1/2+z
_cell_length_a 9.598(3)
_cell_length_b 16.299(8)
_cell_length_c 24.201(8)
_cell_angle_alpha 90
_cell_angle_beta 90
_cell_angle_gamma 90
_cell_formula_units_Z 4
loop_
_atom_type_symbol
_atom_type_radius_bond
C 0.68
H 0.23
N 0.68
O 0.68
loop_
_atom_site_label
_atom_site_type_symbol
_atom_site_fract_x
_atom_site_fract_y
_atom_site_fract_z
O1 O -0.2173(10) 0.2877(5) 0.8928(4)
C1 C -0.1822(11) 0.3066(7) 0.8473(5)
C2 C -0.1883(13) 0.2553(7) 0.7975(6)
C3 C -0.3301(13) 0.2500(8) 0.7719(6)
C4 C -0.3665(13) 0.1868(8) 0.7379(6)
C5 C -0.2719(15) 0.1161(10) 0.7296(6)
O2 O -0.2539(12) 0.0949(10) 0.6730(5)
C6 C -0.1351(13) 0.1153(7) 0.7589(6)
O3 O -0.0277(10) 0.1493(7) 0.7260(4)
C7 C -0.1299(13) 0.1672(7) 0.8110(5)
O4 O -0.1973(9) 0.1295(5) 0.8558(4)
C8 C 0.0302(16) 0.1781(7) 0.8179(5)
C9 C 0.0939(15) 0.1937(8) 0.8631(6)
C10 C 0.2455(13) 0.2113(7) 0.8741(6)
C11 C 0.2960(14) 0.2276(8) 0.9220(5)
C12 C 0.4486(11) 0.2450(7) 0.9308(5)
C13 C 0.4669(14) 0.3234(7) 0.9650(5)
C14 C 0.4070(14) 0.4014(7) 0.9381(4)
C15 C 0.3081(13) 0.4419(8) 0.9688(5)
C16 C 0.2386(13) 0.5193(7) 0.9497(5)
C17 C 0.0776(12) 0.5058(7) 0.9395(6)
O5 O 0.0251(8) 0.5845(4) 0.9203(4)
C18 C 0.0463(14) 0.4417(7) 0.8958(5)
C19 C -0.1030(13) 0.4358(6) 0.8825(6)
O6 O -0.1269(9) 0.3811(4) 0.8383(4)
C20 C -0.1550(13) 0.5193(8) 0.8669(6)
C21 C -0.1214(14) 0.5836(7) 0.9119(5)
O7 O -0.1958(9) 0.5548(5) 0.9577(3)
C22 C -0.1609(20) 0.6721(8) 0.8935(7)
C23 C -0.2239(13) 0.7236(8) 0.9415(5)
N1 N -0.2304(15) 0.8028(6) 0.9331(7)
O8 O -0.1873(14) 0.8280(6) 0.8811(6)
C24 C -0.2676(17) 0.6868(8) 0.9923(7)
C25 C -0.1885(15) 0.6068(7) 1.0049(6)
C26 C -0.2354(14) 0.5612(7) 1.0538(5)
C27 C -0.1716(18) 0.5597(9) 1.1012(5)
C28 C -0.2124(22) 0.5226(11) 1.1548(7)
C29 C -0.3098(31) 0.5849(15) 1.1895(8)
C30 C -0.0825(31) 0.5005(23) 1.1898(10)
C31 C -0.4986(14) 0.1874(13) 0.7043(8)
C32 C 0.0845(18) 0.1702(13) 0.7604(7)
C33 C 0.5098(17) 0.1727(10) 0.9634(7)
C34 C 0.4447(15) 0.4209(11) 0.8833(6)
C35 C -0.2113(21) 0.9138(8) 0.8772(9)
C36 C -0.2686(30) 0.751(1) 1.0421(9)
C37 C -0.3744(20) 0.5169(14) 1.0468(8)
H1 H -0.13100 0.28170 0.77030
H2 H -0.39710 0.29220 0.77950
H3 H -0.32380 0.07430 0.74840
H4 H -0.12280 0.05810 0.76720
H5 H 0.03550 0.19450 0.89530
H6 H 0.30840 0.21020 0.84330
H7 H 0.23460 0.22870 0.95330
H8 H 0.49420 0.25190 0.89580
H9 H 0.42130 0.31540 0.99990
H10 H 0.56470 0.33170 0.97090
H11 H 0.28250 0.41970 1.00420
H12 H 0.25080 0.56100 0.97730
H13 H 0.28110 0.53680 0.91580
H14 H 0.03520 0.48660 0.97300
H15 H 0.07760 0.38930 0.90900
H16 H 0.09610 0.45580 0.86280
H17 H -0.15110 0.41550 0.91450
H18 H -0.11210 0.53570 0.83280
H19 H -0.25420 0.51680 0.86210
H20 H -0.22800 0.66870 0.86410
H21 H -0.07860 0.69920 0.88030
H22 H -0.36290 0.67040 0.98760
H23 H -0.09480 0.62320 1.01330
H24 H -0.08320 0.58720 1.10170
H25 H -0.26000 0.47090 1.14540
H26 H -0.38700 0.59400 1.16810
H27 H -0.25300 0.63000 1.19610
H28 H -0.33010 0.55520 1.22290
H29 H -0.02410 0.46790 1.17270
H30 H -0.11650 0.48080 1.22540
H31 H -0.03940 0.55560 1.19850
H32 H -0.48540 0.20420 0.66590
H33 H -0.56760 0.22870 0.71940
H34 H -0.54740 0.13590 0.70430
H35 H 0.15420 0.12800 0.75890
H36 H 0.12440 0.22130 0.74870
H37 H 0.61110 0.17430 0.96130
H38 H 0.47720 0.12620 0.94320
H39 H 0.48290 0.16870 1.00130
H40 H 0.42040 0.47620 0.87450
H41 H 0.40460 0.38410 0.85680
H42 H 0.54780 0.41640 0.87920
H43 H -0.25530 0.92860 0.84420
H44 H -0.12360 0.94390 0.88110
H45 H -0.27020 0.93280 0.90860
H46 H -0.28940 0.72430 1.07610
H47 H -0.31640 0.79770 1.03570
H48 H -0.16360 0.76870 1.04770
H49 H -0.40550 0.48120 1.07600
H50 H -0.36630 0.48640 1.01320
H51 H -0.44640 0.55890 1.04150
#END
