
#######################################################################
#
#                 Cambridge Crystallographic Data Centre
#                                CCDC
#
#######################################################################
#
# If this CIF has been generated from an entry in the Cambridge
# Structural Database, then it will include bibliographic, chemical,
# crystal, experimental, refinement or atomic coordinate data resulting
# from the CCDC's data processing and validation procedures.
#
#######################################################################

data_CSD_CIF_GETGIV
_audit_creation_date 1989-05-23
_audit_creation_method CSD-ConQuest-V1
_database_code_CSD GETGIV
_chemical_formula_sum 'C10 H14 N2 O2'
_chemical_formula_moiety
;
C10 H14 N2 O2
;
_journal_coden_Cambridge 119
_journal_volume 172
_journal_year 1988
_journal_page_first 413
_journal_name_full 'J.Mol.Struct. '
loop_
_publ_author_name
"J.Maurin"
"T.M.Krygowski"
_chemical_name_systematic
;
N,N-Diethyl-p-nitroaniline
;
_cell_volume   2094.163
_exptl_crystal_density_diffrn 1.225
_exptl_special_details
;
z(C101) is 0.4241 not 1.3241

;
_diffrn_ambient_temperature ?
_diffrn_special_details
;
The study was carried out at room temperature,in the range 283-303K

;
#These two values have been output from a single CSD field.
_refine_ls_R_factor_gt 0.0575
_refine_ls_wR_factor_gt 0.0575
_symmetry_cell_setting monoclinic
_symmetry_space_group_name_H-M 'P 21/n'
_symmetry_Int_Tables_number 14
loop_
_symmetry_equiv_pos_site_id
_symmetry_equiv_pos_as_xyz
1 x,y,z
2 1/2-x,1/2+y,1/2-z
3 -x,-y,-z
4 -1/2+x,-1/2-y,-1/2+z
_cell_length_a 13.258(2)
_cell_length_b 10.122(1)
_cell_length_c 15.618(3)
_cell_angle_alpha 90
_cell_angle_beta 92.33(1)
_cell_angle_gamma 90
_cell_formula_units_Z 8
loop_
_atom_type_symbol
_atom_type_radius_bond
C 0.68
N 0.68
O 0.68
loop_
_atom_site_label
_atom_site_type_symbol
_atom_site_fract_x
_atom_site_fract_y
_atom_site_fract_z
C1 C 0.3537(2) 0.2790(3) 0.3685(2)
C2 C 0.3763(2) 0.1678(3) 0.3174(2)
C3 C 0.4335(2) 0.1790(3) 0.2475(2)
C4 C 0.4715(2) 0.3014(4) 0.2241(2)
C5 C 0.4503(3) 0.4124(3) 0.2716(2)
C6 C 0.3929(3) 0.4029(3) 0.3421(2)
N1 N 0.2983(2) 0.2690(3) 0.4389(2)
N2 N 0.5320(2) 0.3130(4) 0.1501(2)
O1 O 0.5439(2) 0.2144(3) 0.1051(2)
O2 O 0.5704(2) 0.4195(3) 0.1336(2)
C7 C 0.2583(3) 0.1421(4) 0.4682(3)
C8 C 0.2644(3) 0.3838(4) 0.4868(3)
C9 C 0.3471(5) 0.4278(5) 0.5550(3)
C10 C 0.1595(3) 0.1071(4) 0.4241(3)
C11 C 0.2222(2) 0.2787(3) 0.9685(2)
C12 C 0.2621(2) 0.2634(3) 1.0536(2)
C13 C 0.2021(3) 0.2769(3) 1.1225(2)
C14 C 0.1005(3) 0.3064(3) 1.1100(2)
C15 C 0.0588(3) 0.3198(3) 1.0276(2)
C16 C 0.1177(2) 0.3066(3) 0.9582(2)
N3 N 0.2816(2) 0.2657(3) 0.9003(2)
N4 N 0.0385(3) 0.3216(3) 1.1821(2)
C17 C 0.3912(2) 0.2553(3) 0.9102(2)
C18 C 0.2388(3) 0.2631(4) 0.8116(2)
C19 C 0.4282(3) 0.1139(4) 0.9189(2)
C20 C 0.2276(4) 0.3998(5) 0.7742(3)
O3 O -0.0507(2) 0.3492(3) 1.1707(2)
O4 O 0.0778(3) 0.3102(4) 1.2545(2)
#END
