
#######################################################################
#
#                 Cambridge Crystallographic Data Centre
#                                CCDC
#
#######################################################################
#
# If this CIF has been generated from an entry in the Cambridge
# Structural Database, then it will include bibliographic, chemical,
# crystal, experimental, refinement or atomic coordinate data resulting
# from the CCDC's data processing and validation procedures.
#
#######################################################################

data_CSD_CIF_GETHET
_audit_creation_date 2007-02-15
_audit_creation_method CSD-ConQuest-V1
_database_code_CSD GETHET
_database_code_depnum_ccdc_archive 'CCDC 290091'
_chemical_formula_sum 'C21 H25 N1 O5'
_chemical_formula_moiety
;
C21 H25 N1 O5
;
_journal_coden_Cambridge 1291
_journal_year 2006
_journal_page_first 4618
_journal_name_full 'Eur.J.Org.Chem. '
loop_
_publ_author_name
"J.Marco-Contelles"
"N.Arroyo"
"S.Anjum"
"E.Mainetti"
"N.Marion"
"K.Cariou"
"G.Lemiere"
"V.Mouries"
"L.Fensterbank"
"M.Malacria"
_chemical_name_systematic
;
2-(10,10-Dimethyl-2-oxatetracyclo[5.4.0.0^4,6^.0^7,9^]undecan-1-yl)ethyl 
4-nitrobenzoate
;
_cell_volume   1868.628
_exptl_crystal_colour 'colorless'
_exptl_crystal_density_diffrn 1.32
_exptl_crystal_description 'stick'
_diffrn_ambient_temperature 295
#These two values have been output from a single CSD field.
_refine_ls_R_factor_gt 0.0594
_refine_ls_wR_factor_gt 0.0594
_symmetry_cell_setting monoclinic
_symmetry_space_group_name_H-M 'P 21/c'
_symmetry_Int_Tables_number 14
loop_
_symmetry_equiv_pos_site_id
_symmetry_equiv_pos_as_xyz
1 x,y,z
2 -x,1/2+y,1/2-z
3 -x,-y,-z
4 x,-1/2-y,-1/2+z
_cell_length_a 6.304(2)
_cell_length_b 14.432(4)
_cell_length_c 20.644(6)
_cell_angle_alpha 90
_cell_angle_beta 95.78(2)
_cell_angle_gamma 90
_cell_formula_units_Z 4
loop_
_atom_type_symbol
_atom_type_radius_bond
C 0.68
H 0.23
N 0.68
O 0.68
loop_
_atom_site_label
_atom_site_type_symbol
_atom_site_fract_x
_atom_site_fract_y
_atom_site_fract_z
C1 C 0.8924(6) 0.7316(2) 0.2746(2)
C2 C 0.9033(5) 0.5865(2) 0.38505(16)
C3 C 0.6608(5) 0.4481(2) 0.39151(14)
C4 C 0.7966(5) 0.41205(19) 0.33796(15)
C5 C 1.0516(6) 0.5784(3) 0.2373(2)
C6 C 0.7485(6) 0.4140(3) 0.45884(17)
C7 C 0.4269(5) 0.4179(2) 0.38027(18)
C8 C 0.5957(5) 0.4737(2) 0.23326(15)
C9 C 0.6043(5) 0.3859(2) 0.19451(16)
C10 C 0.4066(6) 0.3271(2) 0.09970(16)
C11 C 0.2076(6) 0.3398(2) 0.05508(15)
C12 C 0.0479(6) 0.3982(2) 0.07054(17)
C13 C -0.1377(6) 0.4101(3) 0.02803(19)
C14 C -0.1495(7) 0.3617(3) -0.02959(17)
C15 C 0.0066(8) 0.3031(3) -0.04630(17)
C16 C 0.1870(6) 0.2918(3) -0.00341(17)
C17 C 0.7282(5) 0.6577(2) 0.27724(15)
C18 C 0.6811(5) 0.5533(2) 0.38539(15)
C19 C 0.7871(4) 0.48671(19) 0.28493(14)
C20 C 0.8834(6) 0.6540(2) 0.22710(17)
C21 C 0.7640(4) 0.57631(19) 0.32205(15)
N1 N -0.3456(7) 0.3730(3) -0.07443(19)
O1 O 0.9748(3) 0.48763(15) 0.25122(10)
O2 O 0.4181(4) 0.38856(15) 0.14794(10)
O3 O 0.5409(5) 0.27018(19) 0.09270(14)
O4 O -0.4771(7) 0.4292(3) -0.06178(19)
O5 O -0.3654(6) 0.3238(3) -0.12277(16)
H1 H 1.01400 0.73730 0.30950
H2 H 0.84850 0.79760 0.26030
H3 H 0.94700 0.64950 0.40320
H4 H 1.02510 0.54220 0.39760
H5 H 0.94920 0.40070 0.35670
H6 H 0.73820 0.35120 0.31940
H7 H 1.15920 0.59800 0.27410
H8 H 1.13030 0.57360 0.19650
H9 H 0.66110 0.43810 0.49340
H10 H 0.90110 0.43620 0.47010
H11 H 0.75000 0.34420 0.46120
H12 H 0.34510 0.44280 0.41490
H13 H 0.36240 0.44160 0.33650
H14 H 0.41730 0.34830 0.37960
H15 H 0.58890 0.52780 0.20210
H16 H 0.46040 0.47310 0.25530
H17 H 0.74160 0.38340 0.17190
H18 H 0.60610 0.32950 0.22370
H19 H 0.06100 0.43230 0.11400
H20 H -0.25720 0.45370 0.03830
H21 H -0.00980 0.26830 -0.08910
H22 H 0.30890 0.24770 -0.01460
H23 H 0.56820 0.66310 0.28100
H24 H 0.55740 0.57500 0.40980
H25 H 0.86990 0.65150 0.17700
#END
