
#######################################################################
#
#                 Cambridge Crystallographic Data Centre
#                                CCDC
#
#######################################################################
#
# If this CIF has been generated from an entry in the Cambridge
# Structural Database, then it will include bibliographic, chemical,
# crystal, experimental, refinement or atomic coordinate data resulting
# from the CCDC's data processing and validation procedures.
#
#######################################################################

data_CSD_CIF_GEVKIC
_audit_creation_date 2007-02-15
_audit_creation_method CSD-ConQuest-V1
_database_code_CSD GEVKIC
_database_code_depnum_ccdc_archive 'CCDC 633981'
_chemical_formula_sum 'C16 H14 N4 O1'
_chemical_formula_moiety
;
C16 H14 N4 O1
;
_journal_coeditor_code "IUCr OM2077"
_journal_coden_Cambridge 1370
_journal_volume 63
_journal_year 2007
_journal_page_first o195
_journal_name_full 'Acta Crystallogr.,Sect.E:Struct.Rep.Online '
loop_
_publ_author_name
"K.Okuda"
"H.Watanabe"
"T.Hirota"
"H.Ishida"
_chemical_name_systematic
;
N-(5-(1-Naphthyl)pyrimidin-4-yl)acetamide oxime
;
_chemical_melting_point 412
_cell_volume   1393.997
_exptl_crystal_colour 'colorless'
_exptl_crystal_density_diffrn 1.326
_exptl_special_details
;
Melting point range 412-416K

;
_exptl_crystal_description 'plate'
_exptl_crystal_preparation 'methanol'
_diffrn_ambient_temperature 250
#These two values have been output from a single CSD field.
_refine_ls_R_factor_gt 0.0591
_refine_ls_wR_factor_gt 0.0591
_symmetry_cell_setting triclinic
_symmetry_space_group_name_H-M 'P -1'
_symmetry_Int_Tables_number 2
loop_
_symmetry_equiv_pos_site_id
_symmetry_equiv_pos_as_xyz
1 x,y,z
2 -x,-y,-z
_cell_length_a 10.8011(6)
_cell_length_b 11.6051(6)
_cell_length_c 12.8489(8)
_cell_angle_alpha 63.3951(16)
_cell_angle_beta 76.8282(16)
_cell_angle_gamma 89.5278(19)
_cell_formula_units_Z 4
loop_
_atom_type_symbol
_atom_type_radius_bond
C 0.68
H 0.23
N 0.68
O 0.68
loop_
_atom_site_label
_atom_site_type_symbol
_atom_site_fract_x
_atom_site_fract_y
_atom_site_fract_z
O1 O -0.04449(11) 0.72598(12) -0.02991(10)
O2 O 0.47007(12) 0.21978(13) 0.44912(11)
N1 N 0.33828(15) 0.35923(14) 0.27913(13)
N2 N 0.30864(12) 0.49534(13) 0.08461(12)
N3 N 0.11721(12) 0.58780(12) 0.06085(10)
N4 N 0.04303(12) 0.69267(13) -0.11028(10)
N5 N 0.78779(15) -0.16030(14) 0.83121(14)
N6 N 0.78593(12) -0.03469(14) 0.62523(13)
N7 N 0.61025(13) 0.07402(13) 0.57141(11)
N8 N 0.57076(13) 0.18216(13) 0.38248(11)
C1 C 0.01803(16) 0.48307(15) 0.31973(12)
C2 C -0.07889(19) 0.38326(17) 0.38622(14)
H1 H -0.06440 0.30070 0.39500
C3 C -0.1996(2) 0.4038(2) 0.44119(17)
H2 H -0.26370 0.33490 0.48600
C4 C -0.22295(18) 0.5247(2) 0.42895(15)
H3 H -0.30380 0.53780 0.46340
C5 C -0.14543(18) 0.75530(18) 0.35143(15)
H4 H -0.22590 0.77060 0.38460
C6 C -0.04983(19) 0.85490(18) 0.29153(16)
H5 H -0.06500 0.93660 0.28490
C7 C 0.07051(18) 0.83380(17) 0.24039(16)
H6 H 0.13590 0.90170 0.20030
C8 C 0.09417(15) 0.71536(15) 0.24816(14)
H7 H 0.17520 0.70390 0.21240
C9 C -0.00263(15) 0.60869(15) 0.30991(12)
C10 C -0.12578(15) 0.62982(16) 0.36463(13)
C11 C 0.14374(15) 0.45955(14) 0.26067(13)
C12 C 0.22162(17) 0.38127(15) 0.32642(14)
H8 H 0.19180 0.34040 0.40970
C13 C 0.37459(17) 0.41987(16) 0.16029(16)
H9 H 0.45610 0.40820 0.12560
C14 C 0.19194(14) 0.51403(14) 0.13353(12)
C15 C 0.12498(14) 0.62361(13) -0.05942(12)
C16 C 0.22325(16) 0.58013(17) -0.13202(14)
H10 H 0.22320 0.48780 -0.08940
H11 H 0.30600 0.62170 -0.14570
H12 H 0.20400 0.60280 -0.20780
C17 C 0.47810(15) -0.01293(14) 0.82413(12)
C18 C 0.37447(17) -0.10496(16) 0.88365(14)
H13 H 0.38440 -0.18940 0.89580
C19 C 0.25289(18) -0.07460(18) 0.92704(16)
H14 H 0.18410 -0.13890 0.96780
C20 C 0.23632(16) 0.04897(17) 0.90920(14)
H15 H 0.15570 0.06860 0.93690
C21 C 0.32672(16) 0.27622(16) 0.82942(14)
H16 H 0.24630 0.29790 0.85470
C22 C 0.42834(17) 0.36959(17) 0.77440(16)
H17 H 0.41700 0.45370 0.76260
C23 C 0.54950(17) 0.33825(16) 0.73590(16)
H18 H 0.61880 0.40190 0.69940
C24 C 0.56796(15) 0.21627(15) 0.75083(14)
H19 H 0.64950 0.19790 0.72410
C25 C 0.46377(13) 0.11615(14) 0.80699(12)
C26 C 0.34032(14) 0.14759(15) 0.84902(12)
C27 C 0.60582(14) -0.04808(14) 0.78141(13)
C28 C 0.67047(17) -0.12698(16) 0.86208(15)
H20 H 0.63090 -0.15970 0.94350
C29 C 0.83767(17) -0.11026(17) 0.71363(18)
H21 H 0.91930 -0.13080 0.69010
C30 C 0.66898(14) -0.00305(14) 0.65795(13)
C31 C 0.63956(15) 0.10959(14) 0.44876(12)
C32 C 0.74810(18) 0.06245(19) 0.38940(15)
H22 H 0.73960 -0.03060 0.42960
H23 H 0.82720 0.09520 0.39360
H24 H 0.74750 0.09230 0.30670
H25 H -0.099(2) 0.757(2) -0.072(2)
H26 H 0.0453(18) 0.6067(18) 0.0991(17)
H27 H 0.434(2) 0.265(2) 0.390(2)
H28 H 0.5380(17) 0.0975(18) 0.5978(17)
#END
