
#######################################################################
#
#                 Cambridge Crystallographic Data Centre
#                                CCDC
#
#######################################################################
#
# If this CIF has been generated from an entry in the Cambridge
# Structural Database, then it will include bibliographic, chemical,
# crystal, experimental, refinement or atomic coordinate data resulting
# from the CCDC's data processing and validation procedures.
#
#######################################################################

data_CSD_CIF_GEVSOS
_audit_creation_date 2018-04-19
_audit_creation_method CSD-ConQuest-V1
_database_code_CSD GEVSOS
_database_code_depnum_ccdc_archive 'CCDC 1545192'
_chemical_formula_sum 'C7 H10 N2 O4'
_chemical_formula_moiety
;
C7 H10 N2 O4
;
_journal_coden_Cambridge 16
_journal_volume 74
_journal_year 2018
_journal_page_first 2596
_journal_name_full 'Tetrahedron '
loop_
_publ_author_name
"B.Vigante"
"A.Plotniece"
"M.Rucins"
"M.Petrova"
"R.Muhamadejev"
"K.Pajuste"
"S.Belyakov"
"Y.G.Shermolovich"
"A.Sobolev"
_chemical_name_systematic
;
methyl (E)-3-amino-2-(2-nitroethenyl)but-2-enoate
;
_cell_volume   1714.512
_exptl_crystal_colour 'colorless'
_exptl_crystal_density_diffrn 1.442
_exptl_crystal_description 'Plate'
_diffrn_ambient_temperature 293
#These two values have been output from a single CSD field.
_refine_ls_R_factor_gt 0.0711
_refine_ls_wR_factor_gt 0.0711
_symmetry_cell_setting monoclinic
_symmetry_space_group_name_H-M 'P 21/c'
_symmetry_Int_Tables_number 14
loop_
_symmetry_equiv_pos_site_id
_symmetry_equiv_pos_as_xyz
1 x,y,z
2 -x,1/2+y,1/2-z
3 -x,-y,-z
4 x,-1/2-y,-1/2+z
_cell_length_a 9.8402(8)
_cell_length_b 13.0239(12)
_cell_length_c 13.7002(14)
_cell_angle_alpha 90
_cell_angle_beta 102.448(4)
_cell_angle_gamma 90
_cell_formula_units_Z 8
loop_
_atom_type_symbol
_atom_type_radius_bond
C 0.68
H 0.23
N 0.68
O 0.68
loop_
_atom_site_label
_atom_site_type_symbol
_atom_site_fract_x
_atom_site_fract_y
_atom_site_fract_z
O1 O 0.0397(3) 0.12330(19) 0.6323(2)
C1 C 0.1376(4) 0.0531(3) 0.6280(3)
O2 O 0.1101(3) -0.03808(18) 0.6216(2)
C2 C 0.3010(4) 0.2065(3) 0.6384(3)
H1 H 0.40370 0.22560 0.63120
N1 N 0.3738(3) -0.0688(2) 0.6247(2)
H2 H 0.44350 -0.11700 0.64180
H3 H 0.28460 -0.10420 0.63830
C3 C 0.3877(4) 0.0321(3) 0.6283(3)
C4 C 0.2745(4) 0.0983(3) 0.6310(3)
N2 N 0.2732(4) 0.3872(2) 0.6547(3)
O3 O 0.1947(4) 0.4581(2) 0.6658(3)
C5 C 0.5309(4) 0.0707(3) 0.6277(3)
H4 H 0.52180 0.12220 0.56250
H5 H 0.56580 0.10700 0.68900
H6 H 0.59070 0.01350 0.62290
O4 O 0.3937(3) 0.4045(2) 0.6520(3)
C6 C 0.2167(4) 0.2853(3) 0.6469(3)
H7 H 0.12020 0.27840 0.66520
C7 C -0.0987(4) 0.0862(3) 0.6301(3)
H8 H -0.12820 0.04930 0.56390
H9 H -0.16190 0.14510 0.64670
H10 H -0.09910 0.03220 0.68390
O5 O 0.4654(3) 0.13024(18) 0.8918(2)
O6 O 0.3936(3) 0.29245(19) 0.8969(2)
C8 C 0.3663(4) 0.2004(3) 0.8935(3)
C9 C 0.2302(4) 0.1551(3) 0.8902(3)
N3 N 0.2289(4) -0.1312(2) 0.8500(3)
C10 C 0.2042(4) 0.0465(3) 0.8798(3)
H11 H 0.11410 0.01990 0.88250
N4 N 0.1275(3) 0.3225(2) 0.8885(2)
H12 H 0.05810 0.36970 0.91180
H13 H 0.23110 0.34770 0.88930
O7 O 0.3014(4) -0.1988(2) 0.8257(3)
C11 C 0.1162(4) 0.2215(3) 0.8909(3)
C12 C 0.2851(4) -0.0310(3) 0.8663(3)
H14 H 0.38370 -0.02400 0.87160
O8 O 0.1123(4) -0.1496(2) 0.8609(3)
C13 C -0.0262(4) 0.1843(3) 0.8956(4)
H15 H -0.09130 0.20510 0.82630
H16 H -0.02350 0.11180 0.90850
H17 H -0.05750 0.21960 0.94820
C14 C 0.6035(4) 0.1689(3) 0.8968(3)
H18 H 0.66580 0.11260 0.89510
H19 H 0.63370 0.20660 0.95790
H20 H 0.60320 0.21340 0.84090
#END
