
#######################################################################
#
#                 Cambridge Crystallographic Data Centre
#                                CCDC
#
#######################################################################
#
# If this CIF has been generated from an entry in the Cambridge
# Structural Database, then it will include bibliographic, chemical,
# crystal, experimental, refinement or atomic coordinate data resulting
# from the CCDC's data processing and validation procedures.
#
#######################################################################

data_CSD_CIF_GEWXUE
_audit_creation_date 2018-04-20
_audit_creation_method CSD-ConQuest-V1
_database_code_CSD GEWXUE
_database_code_depnum_ccdc_archive 'CCDC 1838633'
_chemical_formula_sum 'C18 H21 N1 O4'
_chemical_formula_moiety
;
C18 H21 N1 O4
;
_journal_coden_Cambridge 1200
_journal_volume 23
_journal_year 2015
_journal_page_first 5681
_journal_name_full 'Bioorg.Med.Chem. '
loop_
_publ_author_name
"Y.A.Mostafa"
"B.Kralt"
"P.P.N.Rao"
"S.D.Taylor"
_chemical_name_systematic
;
3-hydroxy-4-nitroestra-1,3,5(10)-trien-17-one
;
_cell_volume   1565.739
_exptl_crystal_density_diffrn 1.338
_diffrn_ambient_temperature 296
#These two values have been output from a single CSD field.
_refine_ls_R_factor_gt 0.0483
_refine_ls_wR_factor_gt 0.0483
_symmetry_cell_setting monoclinic
_symmetry_space_group_name_H-M 'P 21'
_symmetry_Int_Tables_number 4
loop_
_symmetry_equiv_pos_site_id
_symmetry_equiv_pos_as_xyz
1 x,y,z
2 -x,1/2+y,-z
_cell_length_a 7.4969(3)
_cell_length_b 11.1551(4)
_cell_length_c 18.7251(6)
_cell_angle_alpha 90
_cell_angle_beta 90.953(2)
_cell_angle_gamma 90
_cell_formula_units_Z 4
loop_
_atom_type_symbol
_atom_type_radius_bond
C 0.68
H 0.23
N 0.68
O 0.68
loop_
_atom_site_label
_atom_site_type_symbol
_atom_site_fract_x
_atom_site_fract_y
_atom_site_fract_z
C1 C 0.1404(4) 0.3077(3) 0.2306(2)
C2 C 0.1525(5) 0.3651(3) 0.1654(2)
C3 C 0.3139(5) 0.3668(3) 0.1310(2)
C4 C 0.4539(4) 0.3070(3) 0.1630(2)
C5 C 0.4442(4) 0.2459(3) 0.2274(2)
C6 C 0.6046(5) 0.1779(4) 0.2557(2)
C7 C 0.5793(5) 0.1140(4) 0.3261(2)
C8 C 0.3863(4) 0.0732(3) 0.3360(2)
C9 C 0.2661(4) 0.1841(3) 0.3344(2)
C10 C 0.2821(4) 0.2476(3) 0.2627(2)
C11 C 0.0727(5) 0.1591(3) 0.3554(2)
C12 C 0.0575(5) 0.0855(3) 0.4242(2)
C13 C 0.1672(4) -0.0275(3) 0.4187(2)
C14 C 0.3622(4) 0.0050(3) 0.4054(2)
C15 C 0.4648(5) -0.1113(3) 0.4193(2)
C16 C 0.3681(5) -0.1660(3) 0.4829(2)
C17 C 0.1860(5) -0.1074(3) 0.4833(2)
C18 C 0.0866(5) -0.1138(4) 0.3617(2)
O1 O 0.3413(3) 0.4224(2) 0.0673(1)
N1 N 0.6248(5) 0.3113(4) 0.1260(2)
O2 O 0.6607(5) 0.2333(4) 0.0842(2)
O3 O 0.7225(4) 0.3971(4) 0.1393(2)
O4 O 0.0725(4) -0.1247(2) 0.5280(1)
H1 H 0.03200 0.30950 0.25400
H2 H 0.05290 0.40210 0.14490
H3 H 0.70310 0.23370 0.26130
H4 H 0.63840 0.11910 0.22030
H5 H 0.61310 0.16740 0.36490
H6 H 0.65730 0.04470 0.32830
H7 H 0.35220 0.02080 0.29610
H8 H 0.31480 0.23920 0.37050
H9 H 0.01140 0.23490 0.36150
H10 H 0.01310 0.11630 0.31670
H11 H 0.09960 0.13280 0.46450
H12 H -0.06640 0.06500 0.43190
H13 H 0.39780 0.06010 0.44380
H14 H 0.58900 -0.09530 0.43110
H15 H 0.45860 -0.16400 0.37810
H16 H 0.35690 -0.25210 0.47730
H17 H 0.43280 -0.14950 0.52710
H18 H 0.06880 -0.07130 0.31760
H19 H 0.16700 -0.17950 0.35440
H20 H -0.02570 -0.14390 0.37790
H21 H 0.24860 0.45470 0.05370
C19 C 0.0244(4) 0.6039(3) 0.2754(2)
C20 C 0.0433(5) 0.5481(3) 0.3402(2)
C21 C 0.2123(5) 0.5276(3) 0.3683(2)
C22 C 0.3547(4) 0.5659(3) 0.3292(2)
C23 C 0.3384(4) 0.6242(3) 0.2642(2)
C24 C 0.5019(5) 0.6669(4) 0.2257(2)
C25 C 0.4723(5) 0.7542(4) 0.1664(2)
C26 C 0.2870(4) 0.8107(3) 0.1621(2)
C27 C 0.1474(5) 0.7094(3) 0.1652(2)
C28 C 0.1677(4) 0.6445(3) 0.2362(2)
C29 C -0.0433(5) 0.7508(4) 0.1485(2)
C30 C -0.0588(4) 0.8267(3) 0.0805(2)
C31 C 0.0701(4) 0.9314(3) 0.0853(2)
C32 C 0.2606(4) 0.8822(3) 0.0944(2)
C33 C 0.3779(5) 0.9914(4) 0.0802(2)
C34 C 0.2788(5) 1.0559(3) 0.0182(2)
C35 C 0.0905(5) 1.0079(3) 0.0194(2)
C36 C 0.0173(6) 1.0210(4) 0.1437(2)
O5 O 0.2416(3) 0.4718(2) 0.4323(1)
N2 N 0.5341(4) 0.5390(3) 0.3585(2)
O6 O 0.5963(4) 0.6027(3) 0.4048(2)
O7 O 0.6112(4) 0.4524(3) 0.3359(2)
O8 O -0.0234(3) 1.0271(2) -0.0258(1)
H22 H -0.09010 0.61520 0.25670
H23 H -0.05680 0.52410 0.36520
H24 H 0.58220 0.70330 0.26060
H25 H 0.56210 0.59730 0.20650
H26 H 0.49450 0.71370 0.12160
H27 H 0.55960 0.81790 0.17140
H28 H 0.27170 0.86380 0.20330
H29 H 0.17850 0.65160 0.12800
H30 H -0.08620 0.79730 0.18850
H31 H -0.11950 0.68090 0.14340
H32 H -0.03160 0.77780 0.03920
H33 H -0.17980 0.85630 0.07480
H34 H 0.27900 0.82660 0.05470
H35 H 0.49670 0.96730 0.06630
H36 H 0.38710 1.04240 0.12200
H37 H 0.27970 1.14200 0.02550
H38 H 0.33400 1.03820 -0.02710
H39 H 0.00150 0.97910 0.18790
H40 H 0.10970 1.07990 0.14960
H41 H -0.09230 1.05990 0.13010
H42 H 0.27780 0.40350 0.42540
#END
