
#######################################################################
#
#                 Cambridge Crystallographic Data Centre
#                                CCDC
#
#######################################################################
#
# If this CIF has been generated from an entry in the Cambridge
# Structural Database, then it will include bibliographic, chemical,
# crystal, experimental, refinement or atomic coordinate data resulting
# from the CCDC's data processing and validation procedures.
#
#######################################################################

data_CSD_CIF_GEXQEI
_audit_creation_date 2018-04-21
_audit_creation_method CSD-ConQuest-V1
_database_code_CSD GEXQEI
_database_code_depnum_ccdc_archive 'CCDC 1831551'
_chemical_formula_sum 'C19 H19 N3 O2'
_chemical_formula_moiety
;
C19 H19 N3 O2
;
_journal_coden_Cambridge 1336
_journal_volume 20
_journal_year 2018
_journal_page_first 2745
_journal_name_full 'Org.Lett. '
loop_
_publ_author_name
"Danqing Ji"
"Jiangtao Sun"
_chemical_name_systematic
;
4-(3-benzyloxy-5,5-dimethyl-4-oxoimidazolidin-1-yl)benzonitrile
;
_cell_volume   1698.482
_exptl_crystal_density_diffrn 1.257
_diffrn_ambient_temperature 296
#These two values have been output from a single CSD field.
_refine_ls_R_factor_gt 0.0508
_refine_ls_wR_factor_gt 0.0508
_symmetry_cell_setting triclinic
_symmetry_space_group_name_H-M 'P -1'
_symmetry_Int_Tables_number 2
loop_
_symmetry_equiv_pos_site_id
_symmetry_equiv_pos_as_xyz
1 x,y,z
2 -x,-y,-z
_cell_length_a 9.577(8)
_cell_length_b 12.616(10)
_cell_length_c 15.326(12)
_cell_angle_alpha 67.151(15)
_cell_angle_beta 85.142(14)
_cell_angle_gamma 85.675(14)
_cell_formula_units_Z 4
loop_
_atom_type_symbol
_atom_type_radius_bond
C 0.68
H 0.23
N 0.68
O 0.68
loop_
_atom_site_label
_atom_site_type_symbol
_atom_site_fract_x
_atom_site_fract_y
_atom_site_fract_z
C1 C 0.2456(2) 0.8759(2) 0.76362(19)
H1 H 0.24384 0.83135 0.82831
C2 C 0.1423(3) 0.9588(3) 0.7287(2)
H2 H 0.06912 0.96896 0.76905
C3 C 0.1467(3) 1.0256(3) 0.6358(3)
H3 H 0.07767 1.08354 0.61208
C4 C 0.2525(3) 1.0089(3) 0.5757(2)
H4 H 0.25527 1.05539 0.51141
C5 C 0.3528(3) 0.9245(2) 0.61025(18)
H5 H 0.42332 0.91211 0.56919
C6 C 0.3515(2) 0.8573(2) 0.70519(17)
C7 C 0.4633(2) 0.7678(2) 0.7429(2)
H6 H 0.44540 0.72541 0.81041
H7 H 0.46896 0.71420 0.71123
C8 C 0.7869(2) 0.7444(2) 0.82096(16)
H8 H 0.73704 0.70718 0.88200
H9 H 0.81391 0.81961 0.81508
C9 C 0.9126(2) 0.66717(19) 0.71422(14)
C10 C 0.7719(2) 0.7194(2) 0.67900(17)
C11 C 1.01276(19) 0.64725(18) 0.86813(13)
C12 C 1.0026(2) 0.6814(2) 0.94455(14)
H10 H 0.92379 0.72483 0.95331
C13 C 1.1052(2) 0.6527(2) 1.00654(15)
H11 H 1.09516 0.67601 1.05742
C14 C 1.2241(2) 0.5896(2) 0.99543(15)
C15 C 1.2365(2) 0.55646(19) 0.91932(15)
H12 H 1.31641 0.51429 0.91034
C16 C 1.1335(2) 0.58457(19) 0.85704(15)
H13 H 1.14428 0.56131 0.80614
C17 C 1.3316(2) 0.5589(2) 1.06087(17)
C18 C 1.0224(3) 0.7419(2) 0.64585(17)
H14 H 1.00967 0.81878 0.64439
H15 H 1.01300 0.74330 0.58353
H16 H 1.11412 0.71107 0.66623
C19 C 0.9237(3) 0.5458(2) 0.71829(17)
H17 H 1.01877 0.51591 0.72821
H18 H 0.89635 0.54522 0.65963
H19 H 0.86299 0.49865 0.76963
N1 N 0.70549(19) 0.75243(18) 0.74483(14)
N2 N 0.90625(17) 0.67469(16) 0.80796(12)
N3 N 1.4167(2) 0.5348(2) 1.11366(17)
O1 O 0.59132(15) 0.82780(14) 0.72463(12)
O2 O 0.7260(2) 0.72940(19) 0.60516(13)
C20 C -0.1374(3) 0.8992(3) 0.08451(17)
H20 H -0.07420 0.95430 0.07891
C21 C -0.2366(4) 0.9240(4) 0.0196(2)
H21 H -0.24071 0.99585 -0.02988
C22 C -0.3283(4) 0.8450(5) 0.0269(3)
H22 H -0.39473 0.86278 -0.01813
C23 C -0.3255(3) 0.7393(4) 0.0992(3)
H23 H -0.38998 0.68523 0.10442
C24 C -0.2235(2) 0.7144(2) 0.16502(19)
H24 H -0.21917 0.64242 0.21442
C25 C -0.1305(2) 0.7935(2) 0.15800(15)
C26 C -0.0218(2) 0.7696(2) 0.22762(15)
H25 H -0.03511 0.82267 0.25979
H26 H -0.02785 0.69168 0.27474
C27 C 0.2520(2) 0.8776(2) 0.24253(15)
C28 C 0.3843(2) 0.84656(19) 0.29662(15)
C29 C 0.3101(2) 0.6860(2) 0.26658(16)
H27 H 0.35612 0.66635 0.21563
H28 H 0.26154 0.61998 0.31135
C30 C 0.4986(2) 0.9220(2) 0.23315(18)
H29 H 0.58199 0.90838 0.26727
H30 H 0.46762 1.00151 0.21412
H31 H 0.51833 0.90380 0.17794
C31 C 0.3527(3) 0.8677(2) 0.38746(17)
H32 H 0.28063 0.81824 0.42572
H33 H 0.32130 0.94663 0.37216
H34 H 0.43603 0.85169 0.42192
C32 C 0.5174(2) 0.65365(19) 0.35573(14)
C33 C 0.6202(2) 0.6883(2) 0.39795(16)
H35 H 0.61645 0.76353 0.39488
C34 C 0.7247(2) 0.6138(2) 0.44309(15)
H36 H 0.79148 0.63854 0.47078
C35 C 0.7335(2) 0.5020(2) 0.44855(15)
C36 C 0.6339(2) 0.4675(2) 0.40643(16)
H37 H 0.63929 0.39238 0.40918
C37 C 0.5282(2) 0.5408(2) 0.36104(15)
H38 H 0.46238 0.51532 0.33323
C38 C 0.8400(2) 0.4233(2) 0.49954(16)
N4 N 0.21804(19) 0.78330(18) 0.23152(14)
N5 N 0.40810(17) 0.72500(16) 0.31239(13)
N6 N 0.9235(2) 0.3599(2) 0.54111(16)
O3 O 0.11270(14) 0.78370(15) 0.17568(11)
O4 O 0.18920(17) 0.96917(15) 0.21540(12)
#END
