
#######################################################################
#
#                 Cambridge Crystallographic Data Centre
#                                CCDC
#
#######################################################################
#
# If this CIF has been generated from an entry in the Cambridge
# Structural Database, then it will include bibliographic, chemical,
# crystal, experimental, refinement or atomic coordinate data resulting
# from the CCDC's data processing and validation procedures.
#
#######################################################################

data_CSD_CIF_GEYJAY
_audit_creation_date 2018-04-23
_audit_creation_method CSD-ConQuest-V1
_database_code_CSD GEYJAY
_database_code_depnum_ccdc_archive 'CCDC 1824263'
_chemical_formula_sum 'C19 H17 N3 O5'
_chemical_formula_moiety
;
C19 H17 N3 O5
;
_journal_coden_Cambridge 1350
_journal_volume 20
_journal_year 2018
_journal_page_first 3318
_journal_name_full 'CrystEngComm '
loop_
_publ_author_name
"V.K.Seiler"
"K.Callebaut"
"K.Robeyns"
"N.Tumanov"
"J.Wouters"
"B.Champagne"
"T.Leyssens"
_chemical_name_systematic
;
1',3',3'-trimethyl-5',6-dinitro-1',3'-dihydrospiro[1-benzopyran-2,2'-indole]
;
_cell_volume   1666.643
_exptl_crystal_colour 'pale green'
_exptl_crystal_density_diffrn 1.464
_exptl_crystal_description 'block'
_exptl_crystal_preparation 'Re-crystallisation from solvent'
_diffrn_ambient_temperature 150
_diffrn_special_details
;
twin

;
#These two values have been output from a single CSD field.
_refine_ls_R_factor_gt 0.0713
_refine_ls_wR_factor_gt 0.0713
_symmetry_cell_setting monoclinic
_symmetry_space_group_name_H-M 'P 21/c'
_symmetry_Int_Tables_number 14
loop_
_symmetry_equiv_pos_site_id
_symmetry_equiv_pos_as_xyz
1 x,y,z
2 -x,1/2+y,1/2-z
3 -x,-y,-z
4 x,-1/2-y,-1/2+z
_cell_length_a 18.8741(12)
_cell_length_b 6.2632(3)
_cell_length_c 14.2571(7)
_cell_angle_alpha 90
_cell_angle_beta 98.548(6)
_cell_angle_gamma 90
_cell_formula_units_Z 4
loop_
_atom_type_symbol
_atom_type_radius_bond
C 0.68
H 0.23
N 0.68
O 0.68
loop_
_atom_site_label
_atom_site_type_symbol
_atom_site_fract_x
_atom_site_fract_y
_atom_site_fract_z
O1 O 0.69871(12) 0.6024(4) 0.44209(16)
C1 C 0.62916(17) 0.5459(5) 0.4198(2)
C2 C 0.58242(18) 0.6965(6) 0.3736(2)
H1 H 0.59964 0.83335 0.35922
C3 C 0.51091(18) 0.6466(6) 0.3486(2)
H2 H 0.47860 0.74804 0.31643
C4 C 0.48684(18) 0.4468(6) 0.3710(2)
C5 C 0.53200(19) 0.2986(6) 0.4196(2)
H3 H 0.51376 0.16436 0.43581
C6 C 0.60399(18) 0.3451(5) 0.4448(2)
C7 C 0.6544(2) 0.2042(6) 0.5010(2)
H4 H 0.63782 0.07933 0.52871
C8 C 0.72364(19) 0.2499(6) 0.5138(2)
H5 H 0.75541 0.15829 0.55306
C9 C 0.75444(18) 0.4383(6) 0.4694(2)
C10 C 0.79305(18) 0.3822(6) 0.3808(2)
C11 C 0.8176(2) 0.1496(6) 0.3852(3)
H6 H 0.84819 0.12407 0.33650
H7 H 0.77571 0.05559 0.37411
H8 H 0.84476 0.11986 0.44797
C12 C 0.74629(19) 0.4273(7) 0.2860(2)
H9 H 0.72990 0.57591 0.28463
H10 H 0.70473 0.33167 0.27839
H11 H 0.77420 0.40332 0.23428
C13 C 0.85862(18) 0.5247(5) 0.3989(2)
C14 C 0.91056(18) 0.5601(5) 0.3430(2)
H12 H 0.90573 0.50809 0.27977
C15 C 0.97097(17) 0.6757(5) 0.3828(2)
C16 C 0.97898(18) 0.7523(6) 0.4744(2)
H13 H 1.02152 0.82620 0.49967
C17 C 0.92568(19) 0.7226(6) 0.5296(2)
H14 H 0.92981 0.77981 0.59185
N1 N 0.80875(15) 0.5449(5) 0.53379(19)
C18 C 0.7964(2) 0.6213(7) 0.6265(2)
H15 H 0.83881 0.59240 0.67337
H16 H 0.75487 0.54758 0.64515
H17 H 0.78726 0.77536 0.62343
N2 N 0.41104(17) 0.3924(6) 0.3439(2)
O2 O 0.39028(16) 0.2182(6) 0.3670(2)
O3 O 0.37225(15) 0.5234(5) 0.2976(2)
N3 N 1.02965(15) 0.7003(5) 0.3282(2)
O4 O 1.02375(14) 0.6252(5) 0.24771(19)
O5 O 1.08448(13) 0.7954(4) 0.36477(19)
C19 C 0.86572(18) 0.6060(5) 0.4910(2)
#END
