
#######################################################################
#
#                 Cambridge Crystallographic Data Centre
#                                CCDC
#
#######################################################################
#
# If this CIF has been generated from an entry in the Cambridge
# Structural Database, then it will include bibliographic, chemical,
# crystal, experimental, refinement or atomic coordinate data resulting
# from the CCDC's data processing and validation procedures.
#
#######################################################################

data_CSD_CIF_GEYQUZ
_audit_creation_date 2018-04-23
_audit_creation_method CSD-ConQuest-V1
_database_code_CSD GEYQUZ
_database_code_depnum_ccdc_archive 'CCDC 1818129'
_chemical_formula_sum 'C9 H6 N8 O8'
_chemical_formula_moiety
;
C9 H6 N8 O8
;
_journal_coden_Cambridge 1699
_journal_volume 6
_journal_year 2018
_journal_page_first 8382
_journal_name_full 'J.Mater.Chem.A '
loop_
_publ_author_name
"Yongxing Tang"
"Chunlin He"
"G.H.Imler"
"D.A.Parrish"
"J.M.Shreeve"
_chemical_name_systematic
;
1,2,10,11-tetranitro-6,7-dihydro-5H-dipyrazolo[1,5-a:5',1'-c][1,4]diazepine
;
_cell_volume   1411.034
_exptl_crystal_colour 'colorless'
_exptl_crystal_density_diffrn 1.667
_exptl_crystal_description 'plate'
_diffrn_ambient_temperature 293
_refine_special_details
;
O18A,O19A,O22A and O18B,O19B,O22B disordered over two sites with occupancies 
0.782:0.218.
;
#These two values have been output from a single CSD field.
_refine_ls_R_factor_gt 0.0481
_refine_ls_wR_factor_gt 0.0481
_symmetry_cell_setting monoclinic
_symmetry_space_group_name_H-M 'P 21/n'
_symmetry_Int_Tables_number 14
loop_
_symmetry_equiv_pos_site_id
_symmetry_equiv_pos_as_xyz
1 x,y,z
2 1/2-x,1/2+y,1/2-z
3 -x,-y,-z
4 -1/2+x,-1/2-y,-1/2+z
_cell_length_a 9.4365(10)
_cell_length_b 11.5612(12)
_cell_length_c 12.9442(14)
_cell_angle_alpha 90
_cell_angle_beta 92.305(3)
_cell_angle_gamma 90
_cell_formula_units_Z 4
loop_
_atom_type_symbol
_atom_type_radius_bond
C 0.68
H 0.23
N 0.68
O 0.68
loop_
_atom_site_label
_atom_site_type_symbol
_atom_site_fract_x
_atom_site_fract_y
_atom_site_fract_z
O1 O 0.3763(2) 0.42685(18) 0.45603(15)
O2 O 0.4704(3) 0.2833(2) 0.37866(17)
N1 N 0.4575(2) 0.3448(2) 0.45372(17)
C1 C 0.5418(3) 0.3192(2) 0.54544(18)
C2 C 0.6742(3) 0.2665(2) 0.55348(19)
N2 N 0.7674(3) 0.2353(2) 0.47155(18)
O3 O 0.7664(3) 0.2973(3) 0.39609(19)
O4 O 0.8411(2) 0.1510(2) 0.48286(16)
N3 N 0.7203(2) 0.2537(2) 0.65015(16)
N4 N 0.6165(2) 0.29921(19) 0.70526(15)
C3 C 0.6254(3) 0.2997(2) 0.81929(18)
H1 H 0.70430 0.25140 0.84300
H2 H 0.53930 0.26630 0.84490
C4 C 0.6452(3) 0.4200(3) 0.8641(2)
H3 H 0.74540 0.43880 0.86600
H4 H 0.61480 0.41960 0.93480
C5 C 0.5645(3) 0.5142(2) 0.8046(2)
H5 H 0.55680 0.58160 0.84870
H6 H 0.61790 0.53660 0.74530
N5 N 0.4216(2) 0.47800(18) 0.76873(16)
N6 N 0.3052(3) 0.5242(2) 0.80865(19)
C6 C 0.1997(3) 0.4738(2) 0.7579(2)
N7 N 0.0562(3) 0.5085(3) 0.7837(3)
O5 O 0.0313(4) 0.5130(5) 0.8755(3)
O6 O -0.0265(4) 0.5294(4) 0.7142(4)
C7 C 0.2444(3) 0.3952(2) 0.6848(2)
N8 N 0.1623(2) 0.3183(2) 0.6203(2)
O7 O 0.0362(3) 0.3060(4) 0.6427(3)
O8 O 0.2213(2) 0.2573(2) 0.56054(18)
C8 C 0.3908(2) 0.3997(2) 0.69372(18)
C9 C 0.5066(2) 0.3403(2) 0.64576(18)
O9? O -0.0351(15) 0.4360(13) 0.7581(15)
O10? O 0.0297(12) 0.6003(8) 0.8076(11)
O11? O 0.0604(14) 0.3674(13) 0.5689(12)
#END
