
#######################################################################
#
#                 Cambridge Crystallographic Data Centre
#                                CCDC
#
#######################################################################
#
# If this CIF has been generated from an entry in the Cambridge
# Structural Database, then it will include bibliographic, chemical,
# crystal, experimental, refinement or atomic coordinate data resulting
# from the CCDC's data processing and validation procedures.
#
#######################################################################

data_CSD_CIF_GEYSAH
_audit_creation_date 2018-04-23
_audit_creation_method CSD-ConQuest-V1
_database_code_CSD GEYSAH
_database_code_depnum_ccdc_archive 'CCDC 1823712'
_chemical_formula_sum 'C18 H26 N3 O2'
_chemical_formula_moiety
;
C18 H26 N3 O2
;
_journal_coden_Cambridge 155
_journal_volume 479
_journal_year 2018
_journal_page_first 1
_journal_name_full 'Inorg.Chim.Acta '
loop_
_publ_author_name
"N.Cosquer"
"E.Lefebvre"
"B.Douziech"
"S.Houille"
"F.Michaud"
"C.J.Gomez-Garcia"
"F.Conan"
_chemical_name_systematic
;
1-{6-[N-(1-oxyl-2,2,6,6-tetramethylpiperidin-4-yl)ethanimidoyl]pyridin-2-yl}et
han-1-one
;
_cell_volume   3503.560
_exptl_crystal_colour 'orange'
_exptl_crystal_density_diffrn 1.2
_exptl_crystal_description 'tip of arrow, axis y, flat face (1 0 0)'
_diffrn_ambient_temperature 170
#These two values have been output from a single CSD field.
_refine_ls_R_factor_gt 0.0444
_refine_ls_wR_factor_gt 0.0444
_symmetry_cell_setting orthorhombic
_symmetry_space_group_name_H-M 'P b c a'
_symmetry_Int_Tables_number 61
loop_
_symmetry_equiv_pos_site_id
_symmetry_equiv_pos_as_xyz
1 x,y,z
2 1/2-x,-y,1/2+z
3 -x,1/2+y,1/2-z
4 1/2+x,1/2-y,-z
5 -x,-y,-z
6 -1/2+x,y,-1/2-z
7 x,-1/2-y,-1/2+z
8 -1/2-x,-1/2+y,z
_cell_length_a 11.1296(11)
_cell_length_b 14.4974(13)
_cell_length_c 21.714(2)
_cell_angle_alpha 90
_cell_angle_beta 90
_cell_angle_gamma 90
_cell_formula_units_Z 8
loop_
_atom_type_symbol
_atom_type_radius_bond
C 0.68
H 0.23
N 0.68
O 0.68
loop_
_atom_site_label
_atom_site_type_symbol
_atom_site_fract_x
_atom_site_fract_y
_atom_site_fract_z
C1 C 0.51536(12) 0.37310(9) -0.06190(6)
C2 C 0.47404(12) 0.40951(10) -0.11675(6)
H1 H 0.51840 0.40160 -0.15380
C3 C 0.36712(13) 0.45757(11) -0.11675(6)
H2 H 0.33570 0.48250 -0.15390
C4 C 0.30648(12) 0.46877(10) -0.06158(6)
H3 H 0.23260 0.50160 -0.06040
C5 C 0.35480(11) 0.43151(8) -0.00783(6)
C6 C 0.29265(11) 0.44394(8) 0.05290(5)
C7 C 0.34909(12) 0.39768(9) 0.10810(6)
H4 H 0.33670 0.43600 0.14470
H5 H 0.43540 0.38980 0.10090
H6 H 0.31180 0.33720 0.11450
C8 C 0.62991(13) 0.31858(9) -0.06095(7)
C9 C 0.67785(16) 0.28680(12) -0.00055(8)
H7 H 0.75960 0.26300 -0.00610
H8 H 0.62620 0.23780 0.01580
H9 H 0.67930 0.33870 0.02840
C10 C 0.12950(11) 0.50516(9) 0.10940(6)
H10 H 0.18690 0.51020 0.14470
C11 C 0.04484(12) 0.42373(9) 0.11968(6)
H11 H 0.09210 0.36590 0.11900
H12 H -0.01350 0.42110 0.08530
C12 C -0.02377(11) 0.42960(9) 0.18045(6)
C13 C -0.01122(11) 0.61182(8) 0.16690(6)
C14 C 0.05253(12) 0.59177(9) 0.10579(6)
H13 H -0.00830 0.58410 0.07290
H14 H 0.10400 0.64500 0.09470
C15 C 0.05792(13) 0.40456(11) 0.23501(6)
H15 H 0.12830 0.44520 0.23510
H16 H 0.08410 0.34030 0.23110
H17 H 0.01340 0.41230 0.27360
C16 C -0.13075(13) 0.36322(10) 0.17893(7)
H18 H -0.17010 0.36270 0.21930
H19 H -0.10240 0.30100 0.16900
H20 H -0.18820 0.38350 0.14750
C17 C 0.07734(13) 0.64704(10) 0.21573(6)
H21 H 0.13980 0.60060 0.22270
H22 H 0.03420 0.65860 0.25430
H23 H 0.11450 0.70440 0.20140
C18 C -0.10867(13) 0.68499(9) 0.15753(7)
H24 H -0.15180 0.69480 0.19630
H25 H -0.16520 0.66400 0.12590
H26 H -0.07140 0.74300 0.14440
O1 O 0.67986(10) 0.30079(7) -0.10943(5)
O2 O -0.14463(9) 0.53533(7) 0.23523(5)
N1 N 0.45763(9) 0.38367(7) -0.00764(5)
N2 N 0.19612(10) 0.49174(7) 0.05202(5)
N3 N -0.07151(10) 0.52541(7) 0.18972(5)
#END
