
#######################################################################
#
#                 Cambridge Crystallographic Data Centre
#                                CCDC
#
#######################################################################
#
# If this CIF has been generated from an entry in the Cambridge
# Structural Database, then it will include bibliographic, chemical,
# crystal, experimental, refinement or atomic coordinate data resulting
# from the CCDC's data processing and validation procedures.
#
#######################################################################

data_CSD_CIF_GEYWOW
_audit_creation_date 1989-06-08
_audit_creation_method CSD-ConQuest-V1
_database_code_CSD GEYWOW
_chemical_formula_sum 'C12 H13 N3 O4'
_chemical_formula_moiety
;
C12 H13 N3 O4
;
_journal_coden_Cambridge 582
_journal_volume 18
_journal_year 1988
_journal_page_first 165
_journal_name_full 'J.Crystallogr.Spectrosc.Res. '
loop_
_publ_author_name
"T.J.Bartczak"
"Z.Galdecki"
"W.Wolf"
"T.C.W.Mak"
_chemical_name_systematic
;
2-(N-(2-Hydroxyethyl)carboxamide)-3-methylquinoxaline 1,4-dioxide
;
_chemical_name_common
;
Olaquindox
;
_cell_volume    571.282
_exptl_crystal_colour 'pale yellow'
_exptl_crystal_density_diffrn 1.53
_exptl_special_details
;
antibacterial agent

;
_diffrn_ambient_temperature ?
_diffrn_special_details
;
The study was carried out at room temperature,in the range 283-303K

;
#These two values have been output from a single CSD field.
_refine_ls_R_factor_gt 0.052
_refine_ls_wR_factor_gt 0.052
_symmetry_cell_setting triclinic
_symmetry_space_group_name_H-M 'P -1'
_symmetry_Int_Tables_number 2
loop_
_symmetry_equiv_pos_site_id
_symmetry_equiv_pos_as_xyz
1 x,y,z
2 -x,-y,-z
_cell_length_a 7.469(2)
_cell_length_b 8.111(2)
_cell_length_c 10.357(3)
_cell_angle_alpha 80.11(2)
_cell_angle_beta 88.90(2)
_cell_angle_gamma 67.73(2)
_cell_formula_units_Z 2
loop_
_atom_type_symbol
_atom_type_radius_bond
C 0.68
H 0.23
N 0.68
O 0.68
loop_
_atom_site_label
_atom_site_type_symbol
_atom_site_fract_x
_atom_site_fract_y
_atom_site_fract_z
O1 O 0.3378(2) 0.5073(1) 0.3082(1)
O2 O 0.2181(1) -0.0616(1) 0.5885(1)
O3 O 0.2269(1) 0.2799(2) 0.0931(1)
O4 O 0.9200(1) 0.1586(2) 0.1033(1)
N1 N 0.3039(1) 0.3736(1) 0.3742(1)
N2 N 0.2373(1) 0.0798(1) 0.5182(1)
N3 N 0.5425(2) 0.1952(2) 0.1537(1)
C1 C 0.3119(2) 0.2319(2) 0.3202(1)
C2 C 0.2765(2) 0.0844(2) 0.3903(1)
C3 C 0.2167(2) 0.2290(2) 0.5762(1)
C4 C 0.2528(2) 0.3757(2) 0.5050(1)
C5 C 0.2385(2) 0.5225(2) 0.5637(1)
C6 C 0.1866(2) 0.5230(2) 0.6908(1)
C7 C 0.1461(2) 0.3793(2) 0.7617(1)
C8 C 0.1607(2) 0.2328(2) 0.7064(1)
C9 C 0.3573(2) 0.2399(2) 0.1767(1)
C10 C 0.6165(2) 0.1869(2) 0.0220(1)
C11 C 0.7741(2) 0.2603(2) 0.0043(1)
C12 C 0.2833(2) -0.0722(2) 0.3306(1)
H1 H 1.0123(3) 0.1974(3) 0.0989(3)
H2 H 0.6200(3) 0.1714(3) 0.2177(3)
H3 H 0.26500 0.62210 0.51520
H4 H 0.17780 0.62310 0.73190
H5 H 0.10710 0.38320 0.85040
H6 H 0.13320 0.13440 0.75590
H7 H 0.66740 0.06320 0.00950
H8 H 0.51230 0.25730 -0.04190
H9 H 0.72350 0.38570 0.01240
H10 H 0.82610 0.24790 -0.08060
H11 H 0.31240 -0.05290 0.23990
H12 H 0.16000 -0.08360 0.33720
H13 H 0.38190 -0.18090 0.37630
#END
