
#######################################################################
#
#                 Cambridge Crystallographic Data Centre
#                                CCDC
#
#######################################################################
#
# If this CIF has been generated from an entry in the Cambridge
# Structural Database, then it will include bibliographic, chemical,
# crystal, experimental, refinement or atomic coordinate data resulting
# from the CCDC's data processing and validation procedures.
#
#######################################################################

data_CSD_CIF_GEZGAT
_audit_creation_date 1989-06-08
_audit_creation_method CSD-ConQuest-V1
_database_code_CSD GEZGAT
_chemical_formula_sum 'C10 H13 N5 O11'
_chemical_formula_moiety
;
C10 H13 N5 O11
;
_journal_coden_Cambridge 24
_journal_volume 29
_journal_year 1988
_journal_page_first 1999
_journal_name_full 'Tetrahedron Lett. '
loop_
_publ_author_name
"M.P.Hartshorn"
"W.T.Robinson"
"A.G.Waller"
"G.J.Wright"
_chemical_name_systematic
;
3-Isopropyl-6-methyl-t-5-nitrato-1,r-3,c-4,t-6-tetranitrocyclohexene
;
_chemical_melting_point 400.65
_cell_volume   1532.000
_exptl_crystal_colour 'colorless'
_exptl_crystal_density_diffrn 1.64
_exptl_special_details
;
Melting point range 400.65-402.15K

;
_diffrn_ambient_temperature 163
#These two values have been output from a single CSD field.
_refine_ls_R_factor_gt 0.036
_refine_ls_wR_factor_gt 0.036
loop_
_citation_database_id_CSD
_citation_special_details
KEDVUK "is a stereoisomer of this entry"
KEDWAR "is a stereoisomer of this entry"
_symmetry_cell_setting monoclinic
_symmetry_space_group_name_H-M 'P 21/c'
_symmetry_Int_Tables_number 14
loop_
_symmetry_equiv_pos_site_id
_symmetry_equiv_pos_as_xyz
1 x,y,z
2 -x,1/2+y,1/2-z
3 -x,-y,-z
4 x,-1/2-y,-1/2+z
_cell_length_a 10.670(2)
_cell_length_b 11.325(2)
_cell_length_c 14.266(3)
_cell_angle_alpha 90
_cell_angle_beta 117.29(1)
_cell_angle_gamma 90
_cell_formula_units_Z 4
loop_
_atom_type_symbol
_atom_type_radius_bond
C 0.68
N 0.68
O 0.68
loop_
_atom_site_label
_atom_site_type_symbol
_atom_site_fract_x
_atom_site_fract_y
_atom_site_fract_z
C1 C -0.2965(2) -0.1777(1) 0.6916(1)
C2 C -0.2766(2) -0.1010(2) 0.6304(1)
C3 C -0.2320(2) 0.0243(1) 0.6624(1)
C4 C -0.1629(2) 0.0289(1) 0.7839(1)
C5 C -0.2586(2) -0.0220(1) 0.8261(1)
C6 C -0.2968(2) -0.1533(1) 0.7952(1)
C7 C -0.1393(2) 0.0724(2) 0.6145(1)
C8 C -0.2176(2) 0.0789(2) 0.4946(1)
C9 C -0.0057(2) -0.0016(2) 0.6497(2)
C10 C -0.4350(2) -0.1832(2) 0.7957(2)
N1 N -0.3231(2) -0.3019(1) 0.6550(1)
O1 O -0.3125(1) -0.3764(1) 0.7201(1)
O2 O -0.3493(2) -0.3230(1) 0.5643(1)
N2 N -0.3668(2) 0.1018(1) 0.6222(1)
O3 O -0.4768(1) 0.0537(1) 0.6075(1)
O4 O -0.3546(2) 0.2060(1) 0.6109(1)
N3 N -0.1224(2) 0.1534(1) 0.8232(1)
O5 O -0.0064(2) 0.1866(1) 0.8380(1)
O6 O -0.2082(2) 0.2120(1) 0.8365(1)
O7 O -0.1869(1) -0.0126(1) 0.9386(1)
N4 N -0.2627(2) 0.0526(1) 0.9854(1)
O8 O -0.1902(1) 0.0667(1) 1.0768(1)
O9 O -0.3805(2) 0.0813(2) 0.9292(1)
N5 N -0.1749(2) -0.2245(1) 0.8810(1)
O10 O -0.1976(2) -0.2812(1) 0.9431(1)
O11 O -0.0611(1) -0.2156(1) 0.8811(1)
#END
