
#######################################################################
#
#                 Cambridge Crystallographic Data Centre
#                                CCDC
#
#######################################################################
#
# If this CIF has been generated from an entry in the Cambridge
# Structural Database, then it will include bibliographic, chemical,
# crystal, experimental, refinement or atomic coordinate data resulting
# from the CCDC's data processing and validation procedures.
#
#######################################################################

data_CSD_CIF_GEZKII
_audit_creation_date 2018-04-24
_audit_creation_method CSD-ConQuest-V1
_database_code_CSD GEZKII
_database_code_depnum_ccdc_archive 'CCDC 1400572'
_chemical_formula_sum 'C18 H14 N2 O4'
_chemical_formula_moiety
;
C18 H14 N2 O4
;
_journal_coden_Cambridge 1500
_journal_volume 8
_journal_year 2018
_journal_page_first 15448
_journal_name_full 'RSC Advances '
loop_
_publ_author_name
"Anoop Singh"
"N.A.Mir"
"S.Choudhary"
"Deepika Singh"
"P.Sharma"
"R.Kant"
"I.Kumar"
_chemical_name_systematic
;
1-(4-methoxyphenyl)-2-(4-nitrophenyl)-1H-pyrrole-3-carbaldehyde
;
_cell_volume   1557.202
_exptl_crystal_colour 'white'
_exptl_crystal_density_diffrn 1.375
_exptl_crystal_description 'block'
_diffrn_ambient_temperature 293
#These two values have been output from a single CSD field.
_refine_ls_R_factor_gt 0.0511
_refine_ls_wR_factor_gt 0.0511
_symmetry_cell_setting orthorhombic
_symmetry_space_group_name_H-M 'P 21 21 21'
_symmetry_Int_Tables_number 19
loop_
_symmetry_equiv_pos_site_id
_symmetry_equiv_pos_as_xyz
1 x,y,z
2 1/2-x,-y,1/2+z
3 -x,1/2+y,1/2-z
4 1/2+x,1/2-y,-z
_cell_length_a 8.0230(6)
_cell_length_b 10.5211(8)
_cell_length_c 18.4479(16)
_cell_angle_alpha 90
_cell_angle_beta 90
_cell_angle_gamma 90
_cell_formula_units_Z 4
loop_
_atom_type_symbol
_atom_type_radius_bond
C 0.68
H 0.23
N 0.68
O 0.68
loop_
_atom_site_label
_atom_site_type_symbol
_atom_site_fract_x
_atom_site_fract_y
_atom_site_fract_z
N1 N 0.8515(4) 0.6305(3) 0.28095(17)
C1 C 0.7556(5) 0.5252(3) 0.29505(19)
C2 C 0.6261(4) 0.5262(4) 0.2453(2)
C3 C 0.6474(5) 0.6319(3) 0.1993(2)
H1 H 0.57910 0.65500 0.16080
C4 C 0.7868(5) 0.6936(4) 0.2220(2)
H2 H 0.83120 0.76660 0.20110
C5 C 0.4828(5) 0.4425(4) 0.2446(2)
H3 H 0.47940 0.37680 0.27830
O1 O 0.3668(3) 0.4528(3) 0.20255(17)
C6 C 0.9933(4) 0.6777(4) 0.3204(2)
C7 C 1.1327(5) 0.6051(3) 0.3305(2)
H4 H 1.13580 0.52260 0.31250
C8 C 1.2700(5) 0.6536(4) 0.3674(2)
H5 H 1.36310 0.60290 0.37580
C9 C 1.2662(5) 0.7788(4) 0.3915(2)
O2 O 1.3923(3) 0.8364(3) 0.42831(17)
C10 C 1.1266(5) 0.8516(4) 0.3793(2)
H6 H 1.12480 0.93570 0.39480
C11 C 0.9905(5) 0.8023(4) 0.3446(2)
H7 H 0.89630 0.85230 0.33730
C12 C 1.5459(5) 0.7691(5) 0.4365(3)
H8 H 1.52860 0.69600 0.46680
H9 H 1.62720 0.82380 0.45850
H10 H 1.58510 0.74210 0.38980
C13 C 0.7904(4) 0.4317(3) 0.3517(2)
C14 C 0.7807(5) 0.3024(3) 0.3330(2)
H11 H 0.75790 0.27990 0.28530
C15 C 0.8044(5) 0.2085(4) 0.3838(2)
H12 H 0.79540 0.12320 0.37110
C16 C 0.8414(5) 0.2429(4) 0.4535(2)
N2 N 0.8660(5) 0.1424(4) 0.5078(2)
O3 O 0.8693(6) 0.0338(3) 0.48736(19)
O4 O 0.8841(6) 0.1707(3) 0.56998(19)
C17 C 0.8522(5) 0.3690(4) 0.4744(2)
H13 H 0.87600 0.39030 0.52230
C18 C 0.8273(5) 0.4623(4) 0.4234(2)
H14 H 0.83520 0.54720 0.43690
#END
