
#######################################################################
#
#                 Cambridge Crystallographic Data Centre
#                                CCDC
#
#######################################################################
#
# If this CIF has been generated from an entry in the Cambridge
# Structural Database, then it will include bibliographic, chemical,
# crystal, experimental, refinement or atomic coordinate data resulting
# from the CCDC's data processing and validation procedures.
#
#######################################################################

data_CSD_CIF_GEZMOP
_audit_creation_date 2013-05-23
_audit_creation_method CSD-ConQuest-V1
_database_code_CSD GEZMOP
_database_code_depnum_ccdc_archive 'CCDC 880884'
_chemical_formula_sum 'C32 H26 N2 O4'
_chemical_formula_moiety
;
C32 H26 N2 O4
;
_journal_coden_Cambridge 16
_journal_volume 69
_journal_year 2013
_journal_page_first 3593
_journal_name_full 'Tetrahedron '
loop_
_publ_author_name
"Yuan-Liang Yang"
"Yin Wei"
"Qin Xu"
"Min Shi"
_chemical_name_systematic
;
Ethyl 
3-(((1-benzyl-2-oxo-1,2-dihydro-3H-indol-3-ylidene)amino)oxy)-2-(2-naphthylmet
hylene)but-3-enoate
;
_cell_volume   2676.806
_exptl_crystal_colour 'green'
_exptl_crystal_density_diffrn 1.247
_exptl_crystal_description 'prismatic'
_diffrn_ambient_temperature 293
_refine_special_details
;
C31,C32,O4 and C31A,C32A,O4A disordered over two sites with occupancies 
0.50:0.50; C32' and C32'' disordered over two sites with occupancies 
0.55:0.45.
;
#These two values have been output from a single CSD field.
_refine_ls_R_factor_gt 0.0765
_refine_ls_wR_factor_gt 0.0765
_symmetry_cell_setting triclinic
_symmetry_space_group_name_H-M 'P -1'
_symmetry_Int_Tables_number 2
loop_
_symmetry_equiv_pos_site_id
_symmetry_equiv_pos_as_xyz
1 x,y,z
2 -x,-y,-z
_cell_length_a 12.1553(14)
_cell_length_b 15.5375(18)
_cell_length_c 15.9901(19)
_cell_angle_alpha 108.533(3)
_cell_angle_beta 109.669(2)
_cell_angle_gamma 90.004(3)
_cell_formula_units_Z 4
loop_
_atom_type_symbol
_atom_type_radius_bond
C 0.68
H 0.23
N 0.68
O 0.68
loop_
_atom_site_label
_atom_site_type_symbol
_atom_site_fract_x
_atom_site_fract_y
_atom_site_fract_z
N1 N 0.6914(3) 0.1114(2) 0.0065(2)
N2 N 0.6453(3) 0.17632(19) 0.2202(2)
O1 O 0.7151(3) 0.26019(18) 0.10611(18)
O2 O 0.6047(2) 0.11709(15) 0.25678(16)
O3 O 0.6174(3) -0.0287(2) 0.4403(2)
O4 O 0.720(3) 0.0117(17) 0.371(2)
C1 C 0.6919(3) 0.1785(3) 0.0865(3)
C2 C 0.6579(3) 0.1288(2) 0.1430(2)
C3 C 0.6439(3) 0.0314(2) 0.0902(2)
C4 C 0.6642(3) 0.0247(2) 0.0080(2)
C5 C 0.6573(3) -0.0590(3) -0.0599(3)
H1 H 0.67150 -0.06310 -0.11460
C6 C 0.6283(4) -0.1362(3) -0.0426(3)
H2 H 0.62400 -0.19350 -0.08640
C7 C 0.6056(4) -0.1303(3) 0.0382(3)
H3 H 0.58480 -0.18340 0.04710
C8 C 0.6136(3) -0.0464(2) 0.1058(3)
H4 H 0.59890 -0.04230 0.16030
C9 C 0.7112(3) 0.1292(3) -0.0712(2)
H5 H 0.70460 0.19320 -0.06400
H6 H 0.65000 0.09320 -0.12970
C10 C 0.8300(3) 0.1076(2) -0.0786(3)
C11 C 0.8405(4) 0.0735(3) -0.1647(3)
H7 H 0.77370 0.05950 -0.21900
C12 C 0.9498(5) 0.0596(4) -0.1723(4)
H8 H 0.95620 0.03680 -0.23150
C13 C 1.0480(5) 0.0794(3) -0.0929(4)
H9 H 1.12160 0.07060 -0.09770
C14 C 1.0375(4) 0.1119(3) -0.0071(4)
H10 H 1.10430 0.12500 0.04710
C15 C 0.9294(4) 0.1257(3) 0.0008(3)
H11 H 0.92330 0.14750 0.06020
C16 C 0.6059(3) 0.1600(3) 0.3473(2)
C17 C 0.6445(4) 0.2454(3) 0.3994(3)
H12 H 0.67490 0.28380 0.37600
H13 H 0.64150 0.26790 0.45980
C18 C 0.5582(4) 0.0913(3) 0.3772(2)
C19 C 0.4537(4) 0.0882(3) 0.3864(3)
H14 H 0.44280 0.04610 0.41420
C20 C 0.3518(3) 0.1384(3) 0.3613(2)
C21 C 0.3409(4) 0.1965(3) 0.3071(3)
H15 H 0.40240 0.20720 0.28810
C22 C 0.2415(4) 0.2364(3) 0.2826(3)
H16 H 0.23600 0.27400 0.24660
C23 C 0.1463(3) 0.2227(3) 0.3102(3)
C24 C 0.1541(3) 0.1646(3) 0.3636(3)
C25 C 0.2588(4) 0.1232(3) 0.3869(3)
H17 H 0.26470 0.08390 0.42120
C26 C 0.0413(4) 0.2640(3) 0.2864(3)
H18 H 0.03490 0.30330 0.25210
C27 C -0.0496(4) 0.2477(3) 0.3120(3)
H19 H -0.11710 0.27600 0.29570
C28 C -0.0423(4) 0.1884(3) 0.3631(3)
H20 H -0.10530 0.17650 0.38010
C29 C 0.0581(4) 0.1478(3) 0.3882(3)
H21 H 0.06250 0.10840 0.42220
C30 C 0.6351(4) 0.0221(3) 0.4022(3)
C31 C 0.7994(18) -0.0554(12) 0.3884(13)
H22 H 0.75550 -0.11200 0.37860
H23 H 0.85490 -0.03310 0.45280
C32 C 0.8633(11) -0.0708(9) 0.3203(11)
H24 H 0.81000 -0.10410 0.25770
H25 H 0.92740 -0.10530 0.33770
H26 H 0.89320 -0.01290 0.32180
O5? O 0.736(3) 0.0341(17) 0.383(3)
C33? C 0.8274(19) -0.0227(11) 0.4097(12)
H27? H 0.81920 -0.04210 0.45950
H28? H 0.90450 0.01180 0.43300
C34? C 0.8153(15) -0.1043(11) 0.3250(13)
H29? H 0.74210 -0.14130 0.30610
H30? H 0.87930 -0.13950 0.34020
H31? H 0.81670 -0.08450 0.27420
N3 N 0.8029(3) 0.6010(2) 0.9891(2)
N4 N 0.8444(3) 0.5260(2) 0.7735(2)
O6 O 0.7702(3) 0.68204(19) 0.8873(2)
O7 O 0.8884(2) 0.44449(17) 0.73844(17)
O8 O 0.8985(3) 0.1760(2) 0.5827(3)
O9 O 0.7765(3) 0.26754(19) 0.63391(19)
C35 C 0.7978(4) 0.6148(3) 0.9083(3)
C36 C 0.8347(3) 0.5297(2) 0.8522(2)
C37 C 0.8554(3) 0.4675(2) 0.9064(2)
C38 C 0.8349(3) 0.5142(3) 0.9887(3)
C39 C 0.8467(3) 0.4756(3) 1.0571(3)
H32 H 0.83180 0.50660 1.11170
C40 C 0.8815(4) 0.3887(3) 1.0420(3)
H33 H 0.89090 0.36130 1.08750
C41 C 0.9024(4) 0.3424(3) 0.9613(3)
H34 H 0.92550 0.28410 0.95280
C42 C 0.8895(3) 0.3812(3) 0.8917(3)
H35 H 0.90350 0.34970 0.83690
C43 C 0.7850(4) 0.6699(3) 1.0675(3)
H36 H 0.78810 0.72870 1.05870
H37 H 0.84910 0.67380 1.12510
C44 C 0.6694(4) 0.6520(2) 1.0796(3)
C45 C 0.6662(4) 0.6611(3) 1.1665(3)
H38 H 0.73600 0.67500 1.21820
C46 C 0.5599(5) 0.6498(4) 1.1785(4)
H39 H 0.55810 0.65690 1.23800
C47 C 0.4570(5) 0.6279(4) 1.1012(4)
H40 H 0.38520 0.62090 1.10860
C48 C 0.4601(4) 0.6166(3) 1.0149(4)
H41 H 0.39060 0.60130 0.96290
C49 C 0.5664(4) 0.6277(3) 1.0038(3)
H42 H 0.56790 0.61850 0.94380
C50 C 0.8840(3) 0.4247(3) 0.6463(3)
C51 C 0.8420(4) 0.4733(3) 0.5918(3)
H43 H 0.81100 0.52700 0.61410
H44 H 0.84300 0.45420 0.53070
C52 C 0.9352(4) 0.3380(3) 0.6194(2)
C53 C 1.0375(4) 0.3300(3) 0.6048(3)
H45 H 1.05020 0.26990 0.57850
C54 C 1.1333(4) 0.3988(3) 0.6229(3)
C55 C 1.1517(4) 0.4892(3) 0.6864(3)
H46 H 1.09460 0.51080 0.71190
C56 C 1.2515(5) 0.5449(3) 0.7107(3)
H47 H 1.26200 0.60370 0.75370
C57 C 1.3405(4) 0.5162(3) 0.6724(3)
C58 C 1.3218(4) 0.4268(3) 0.6056(3)
C59 C 1.2185(4) 0.3699(3) 0.5846(3)
H48 H 1.20760 0.31030 0.54320
C60 C 1.4474(5) 0.5708(3) 0.6991(4)
H49 H 1.46190 0.62920 0.74350
C61 C 1.5294(5) 0.5387(4) 0.6604(4)
H50 H 1.59930 0.57560 0.67840
C62 C 1.5104(5) 0.4516(4) 0.5945(5)
H51 H 1.56790 0.43040 0.56930
C63 C 1.4084(5) 0.3972(4) 0.5665(4)
H52 H 1.39560 0.33970 0.52090
C64 C 0.8706(4) 0.2510(3) 0.6091(3)
C65 C 0.7127(5) 0.1908(4) 0.6374(4)
H53 H 0.76810 0.15600 0.66870
H54 H 0.66850 0.15090 0.57370
C66 C 0.6313(13) 0.2225(18) 0.6887(10)
H55 H 0.67570 0.25800 0.75320
H56 H 0.58630 0.17060 0.68660
H57 H 0.57910 0.25950 0.65960
H58? H 0.68860 0.14160 0.57800
H59? H 0.75900 0.17060 0.68790
C67? C 0.6021(16) 0.222(2) 0.6493(14)
H60? H 0.61930 0.28000 0.69870
H61? H 0.56540 0.17790 0.66570
H62? H 0.55000 0.22720 0.59140
#END
