
#######################################################################
#
#                 Cambridge Crystallographic Data Centre
#                                CCDC
#
#######################################################################
#
# If this CIF has been generated from an entry in the Cambridge
# Structural Database, then it will include bibliographic, chemical,
# crystal, experimental, refinement or atomic coordinate data resulting
# from the CCDC's data processing and validation procedures.
#
#######################################################################

data_CSD_CIF_GEZNAA
_audit_creation_date 1999-04-16
_audit_creation_method CSD-ConQuest-V1
_database_code_CSD GEZNAA
_chemical_formula_sum 'C26 H33 N1 O12'
_chemical_formula_moiety
;
C26 H33 N1 O12
;
_journal_coden_Cambridge 1090
_journal_volume 9
_journal_year 1998
_journal_page_first 449
_journal_name_full 'Tetrahedron:Asymm. '
loop_
_publ_author_name
"E.Roman"
"M.Banos"
"F.J.Higes"
"J.A.Serrano"
_chemical_name_systematic
;
(1R,2S,6S,7R,10R)-1-Nitro-10-(1',2',3',4',5'-penta-O-acetyl-D-mannopentitol-1'
-yl)-tricyclo(5.2.2.0^2,6^)undeca-3,8-diene
;
_chemical_melting_point 436.15
_cell_volume   2839.698
_exptl_crystal_density_diffrn 1.291
_exptl_special_details
;
Melting point range 436.15-437.15K

;
_diffrn_ambient_temperature ?
_diffrn_special_details
;
The study was carried out at room temperature,in the range 283-303K

;
#These two values have been output from a single CSD field.
_refine_ls_R_factor_gt 0.049
_refine_ls_wR_factor_gt 0.049
_symmetry_cell_setting orthorhombic
_symmetry_space_group_name_H-M 'P 21 21 21'
_symmetry_Int_Tables_number 19
loop_
_symmetry_equiv_pos_site_id
_symmetry_equiv_pos_as_xyz
1 x,y,z
2 1/2-x,-y,1/2+z
3 1/2+x,1/2-y,-z
4 -x,1/2+y,1/2-z
_cell_length_a 8.338(2)
_cell_length_b 15.2881(2)
_cell_length_c 22.277(2)
_cell_angle_alpha 90
_cell_angle_beta 90
_cell_angle_gamma 90
_cell_formula_units_Z 4
loop_
_atom_type_symbol
_atom_type_radius_bond
C 0.68
H 0.23
N 0.68
O 0.68
loop_
_atom_site_label
_atom_site_type_symbol
_atom_site_fract_x
_atom_site_fract_y
_atom_site_fract_z
C1 C 0.9382(5) -0.0044(3) 0.1311(2)
O1 O 1.2930(3) -0.0585(1) -0.1214(1)
O2 O 1.1191(3) 0.1575(1) -0.1346(1)
C2 C 1.3207(4) 0.0652(2) -0.0525(1)
O3 O 1.4761(3) 0.0820(1) -0.0791(1)
C3 C 1.0224(6) 0.0802(3) 0.1118(2)
C4 C 1.1696(6) 0.0921(3) 0.1489(2)
C5 C 1.2182(6) -0.1360(2) -0.1080(2)
C6 C 1.0596(5) -0.0798(3) 0.1284(2)
O4 O 0.9558(3) -0.0001(2) -0.1809(1)
C7 C 1.1025(5) 0.0368(3) -0.2046(1)
C8 C 1.2753(5) 0.0293(2) 0.1452(1)
C9 C 1.2215(4) -0.0436(2) 0.1058(1)
C10 C 1.2193(4) 0.0213(2) -0.0994(1)
O5 O 1.4384(3) -0.0624(1) -0.0036(1)
C11 C 1.5517(5) 0.1556(2) -0.0618(2)
C12 C 1.1974(4) 0.0791(2) -0.1550(1)
C13 C 0.9154(7) -0.0815(3) -0.1992(2)
C14 C 1.7125(6) 0.1632(3) -0.0886(2)
C15 C 1.3470(4) 0.0171(2) 0.0080(1)
O6 O 1.4919(4) 0.2082(2) -0.0276(1)
O7 O 1.1041(4) -0.1416(2) -0.0776(1)
O8 O 1.3066(4) 0.2397(2) -0.1788(2)
C16 C 1.3070(7) -0.2096(3) -0.1369(2)
C17 C 1.0968(6) 0.3097(2) -0.1240(2)
C18 C 1.1877(5) 0.2350(2) -0.1493(2)
N1 N 1.3412(6) -0.1193(3) 0.1069(2)
O9 O 1.4723(6) -0.1071(3) 0.1284(2)
O10 O 1.2985(6) -0.1873(2) 0.0837(2)
C19 C 1.1947(4) -0.0082(2) 0.0401(1)
C20 C 1.0758(5) 0.0692(2) 0.0464(2)
C21 C 0.9632(6) -0.0755(3) 0.2258(2)
O11 O 0.9952(6) -0.1210(2) -0.2350(2)
C22 C 1.0640(6) -0.1159(3) 0.1907(2)
C23 C 0.7702(8) -0.1133(4) -0.1692(3)
C24 C 0.8741(6) -0.0032(4) 0.1962(2)
O12 O 1.6709(4) 0.0048(2) 0.0183(2)
C25 C 1.5986(5) -0.0600(3) 0.0048(2)
C26 C 1.6685(7) -0.1482(3) -0.0040(2)
H1 H 0.85180 -0.01600 0.10370
H2 H 1.27210 0.12080 -0.04380
H3 H 0.95170 0.12940 0.11600
H4 H 1.18570 0.14300 0.17350
H5 H 1.02170 -0.12380 0.10110
H6 H 1.07690 0.07950 -0.23470
H7 H 1.16490 -0.00860 -0.22320
H8 H 1.37650 0.03020 0.16580
H9 H 1.11570 0.00760 -0.08310
H10 H 1.30110 0.09460 -0.17040
H11 H 1.76380 0.10700 -0.08940
H12 H 1.77770 0.20330 -0.06610
H13 H 1.70270 0.18480 -0.12890
H14 H 1.40870 0.05410 0.03410
H15 H 1.42000 -0.20780 -0.12880
H16 H 1.28680 -0.20480 -0.17920
H17 H 1.26160 -0.26390 -0.12350
H18 H 1.08910 0.30400 -0.08120
H19 H 0.99140 0.31070 -0.14140
H20 H 1.14940 0.36360 -0.13410
H21 H 1.14290 -0.05330 0.01720
H22 H 1.12790 0.12190 0.03340
H23 H 0.98380 0.05980 0.02130
H24 H 0.94740 -0.09090 0.26720
H25 H 1.13200 -0.16310 0.20340
H26 H 0.79720 -0.15200 -0.13680
H27 H 0.70240 -0.14430 -0.19680
H28 H 0.71530 -0.06270 -0.15400
H29 H 0.76050 -0.01340 0.19710
H30 H 0.89690 0.05190 0.21520
H31 H 1.77720 -0.15060 0.01010
H32 H 1.66390 -0.16210 -0.04600
H33 H 1.60350 -0.19010 0.01700
#END
