
#######################################################################
#
#                 Cambridge Crystallographic Data Centre
#                                CCDC
#
#######################################################################
#
# If this CIF has been generated from an entry in the Cambridge
# Structural Database, then it will include bibliographic, chemical,
# crystal, experimental, refinement or atomic coordinate data resulting
# from the CCDC's data processing and validation procedures.
#
#######################################################################

data_CSD_CIF_GEZVUF
_audit_creation_date 2018-04-24
_audit_creation_method CSD-ConQuest-V1
_database_code_CSD GEZVUF
_database_code_depnum_ccdc_archive 'CCDC 1814083'
_chemical_formula_sum 'C16 H14 N2 O6'
_chemical_formula_moiety
;
C16 H14 N2 O6
;
_journal_coden_Cambridge 35
_journal_volume 83
_journal_year 2018
_journal_page_first 4427
_journal_name_full 'J.Org.Chem. '
loop_
_publ_author_name
"S.Maryamdokht Taimoory"
"S.Iraj Sadraei"
"R.A.Fayoumi"
"S.Nasri"
"M.Revington"
"J.F.Trant"
_chemical_name_systematic
;
rac-(3aS*,4R*,7R*,7aR*)-2-benzyl-4-(hydroxymethyl)-7-nitro-3a,4,7,7a-tetrahydr
o-1H-4,7-epoxyisoindole-1,3(2H)-dione
;
_cell_volume   1450.947
_exptl_crystal_colour 'colorless'
_exptl_crystal_density_diffrn 1.512
_exptl_special_details
;
Heat-sensitive

;
_exptl_crystal_description 'plate'
_exptl_crystal_preparation 'diethyl ether/methanol'
_diffrn_ambient_temperature 170
#These two values have been output from a single CSD field.
_refine_ls_R_factor_gt 0.0292
_refine_ls_wR_factor_gt 0.0292
loop_
_citation_database_id_CSD
_citation_special_details
GEZWAM "is a stereoisomer of this entry"
_symmetry_cell_setting orthorhombic
_symmetry_space_group_name_H-M 'P n a 21'
_symmetry_Int_Tables_number 33
loop_
_symmetry_equiv_pos_site_id
_symmetry_equiv_pos_as_xyz
1 x,y,z
2 -x,-y,1/2+z
3 1/2-x,1/2+y,1/2+z
4 1/2+x,1/2-y,z
_cell_length_a 32.259(6)
_cell_length_b 7.365(2)
_cell_length_c 6.107(2)
_cell_angle_alpha 90
_cell_angle_beta 90
_cell_angle_gamma 90
_cell_formula_units_Z 4
loop_
_atom_type_symbol
_atom_type_radius_bond
C 0.68
H 0.23
N 0.68
O 0.68
loop_
_atom_site_label
_atom_site_type_symbol
_atom_site_fract_x
_atom_site_fract_y
_atom_site_fract_z
O1 O 0.74419(4) 0.4542(2) 0.5135(3)
O2 O 0.68772(6) 0.4269(2) 0.3278(3)
O3 O 0.65449(4) 0.72126(16) 0.5010(2)
O4 O 0.61293(6) 1.0778(2) 0.3776(3)
H1 H 0.60690 0.99910 0.28330
O5 O 0.67495(4) 0.33833(17) 0.8494(2)
O6 O 0.59753(4) 0.8240(2) 1.0527(3)
N1 N 0.70978(5) 0.5046(2) 0.4567(3)
N2 N 0.62959(4) 0.5561(2) 0.9696(3)
C1 C 0.69528(5) 0.6753(2) 0.5617(3)
C2 C 0.72023(6) 0.8419(2) 0.5054(4)
H2 H 0.74800 0.84810 0.45470
C3 C 0.69435(6) 0.9772(3) 0.5433(4)
H3 H 0.69990 1.10300 0.52520
C4 C 0.65418(6) 0.8933(2) 0.6209(3)
C5 C 0.66343(5) 0.8235(2) 0.8598(3)
H4 H 0.67750 0.91750 0.95160
C6 C 0.69160(5) 0.6598(2) 0.8127(3)
H5 H 0.71890 0.66600 0.88980
C7 C 0.66586(5) 0.4952(2) 0.8763(3)
C8 C 0.62622(5) 0.7423(3) 0.9724(3)
C9 C 0.61451(7) 0.9964(3) 0.5854(4)
H6 H 0.6134(9) 1.101(4) 0.693(6)
H7 H 0.5893(7) 0.915(3) 0.606(4)
C10 C 0.59892(6) 0.4361(3) 1.0679(3)
H8 H 0.58550 0.50020 1.19150
H9 H 0.61330 0.32830 1.12820
C11 C 0.56588(5) 0.3734(2) 0.9108(3)
C12 C 0.56024(6) 0.4496(3) 0.7068(3)
H10 H 0.57840 0.54280 0.65790
C13 C 0.52819(6) 0.3910(3) 0.5721(3)
H11 H 0.52440 0.44470 0.43210
C14 C 0.50195(6) 0.2557(3) 0.6412(4)
H12 H 0.48000 0.21600 0.54930
C15 C 0.50759(6) 0.1774(3) 0.8442(4)
H13 H 0.48950 0.08350 0.89160
C16 C 0.53947(6) 0.2351(3) 0.9792(4)
H14 H 0.54330 0.18020 1.11850
#END
