
#######################################################################
#
#                 Cambridge Crystallographic Data Centre
#                                CCDC
#
#######################################################################
#
# If this CIF has been generated from an entry in the Cambridge
# Structural Database, then it will include bibliographic, chemical,
# crystal, experimental, refinement or atomic coordinate data resulting
# from the CCDC's data processing and validation procedures.
#
#######################################################################

data_CSD_CIF_GIBBAX
_audit_creation_date 2018-04-24
_audit_creation_method CSD-ConQuest-V1
_database_code_CSD GIBBAX
_database_code_depnum_ccdc_archive 'CCDC 1839222'
_chemical_formula_sum 'C10 H14 N2 O5'
_chemical_formula_moiety
;
C10 H14 N2 O5
;
_journal_coden_Cambridge 35
_journal_volume 83
_journal_year 2018
_journal_page_first 4525
_journal_name_full 'J.Org.Chem. '
loop_
_publ_author_name
"M.B.Richardson"
"D.B.Brown"
"C.A.Vasquez"
"J.W.Ziller"
"K.M.Johnston"
"G.A.Weiss"
_chemical_name_systematic
;
ethyl {[(t-butoxycarbonyl)oxy]imino}(cyano)acetate
;
_cell_volume   1233.154
_exptl_crystal_colour 'colorless'
_exptl_crystal_density_diffrn 1.305
_exptl_crystal_description 'prism'
_diffrn_ambient_temperature 88
#These two values have been output from a single CSD field.
_refine_ls_R_factor_gt 0.0253
_refine_ls_wR_factor_gt 0.0253
_symmetry_cell_setting orthorhombic
_symmetry_space_group_name_H-M 'P 21 21 21'
_symmetry_Int_Tables_number 19
loop_
_symmetry_equiv_pos_site_id
_symmetry_equiv_pos_as_xyz
1 x,y,z
2 1/2-x,-y,1/2+z
3 -x,1/2+y,1/2-z
4 1/2+x,1/2-y,-z
_cell_length_a 5.6312(2)
_cell_length_b 13.6957(6)
_cell_length_c 15.9894(6)
_cell_angle_alpha 90
_cell_angle_beta 90
_cell_angle_gamma 90
_cell_formula_units_Z 4
loop_
_atom_type_symbol
_atom_type_radius_bond
C 0.68
H 0.23
N 0.68
O 0.68
loop_
_atom_site_label
_atom_site_type_symbol
_atom_site_fract_x
_atom_site_fract_y
_atom_site_fract_z
O1 O 0.27087(17) 0.55777(6) 1.03476(5)
O2 O 0.59936(19) 0.48007(7) 0.98822(6)
O3 O 0.64480(16) 0.71214(6) 0.82448(5)
O4 O 0.94364(17) 0.64298(7) 0.74675(6)
O5 O 0.81923(15) 0.80079(6) 0.73413(5)
N1 N 0.6499(2) 0.62797(7) 0.87349(6)
N2 N 0.1575(2) 0.76678(9) 0.92381(7)
C1 C 0.0268(3) 0.51130(12) 1.15027(9)
C2 C 0.2417(3) 0.48347(10) 1.10005(9)
C3 C 0.4590(2) 0.54588(9) 0.98613(8)
C4 C 0.4736(2) 0.62955(9) 0.92453(7)
C5 C 0.8246(2) 0.71166(9) 0.76428(8)
C6 C 0.9699(2) 0.82777(9) 0.66058(7)
C7 C 1.2303(3) 0.80914(12) 0.67966(10)
C8 C 0.8821(3) 0.77127(10) 0.58499(9)
C9 C 0.9183(3) 0.93584(10) 0.65237(9)
C10 C 0.2969(2) 0.70606(9) 0.92563(7)
H1 H 0.001(4) 0.4621(15) 1.1963(12)
H2 H -0.109(4) 0.5088(15) 1.1134(13)
H3 H 0.050(3) 0.5740(15) 1.1767(10)
H4 H 0.385(4) 0.4857(13) 1.1340(12)
H5 H 0.222(3) 0.4222(13) 1.0715(10)
H6 H 1.270(4) 0.7381(15) 0.6815(11)
H7 H 1.275(4) 0.8381(14) 0.7350(13)
H8 H 1.324(4) 0.8396(15) 0.6373(13)
H9 H 0.715(4) 0.7853(12) 0.5766(11)
H10 H 0.904(4) 0.7022(14) 0.5918(12)
H11 H 0.969(3) 0.7950(13) 0.5367(11)
H12 H 0.746(4) 0.9445(13) 0.6473(11)
H13 H 0.995(3) 0.9606(13) 0.6003(12)
H14 H 0.976(3) 0.9736(14) 0.7012(11)
#END
