
#######################################################################
#
#                 Cambridge Crystallographic Data Centre
#                                CCDC
#
#######################################################################
#
# If this CIF has been generated from an entry in the Cambridge
# Structural Database, then it will include bibliographic, chemical,
# crystal, experimental, refinement or atomic coordinate data resulting
# from the CCDC's data processing and validation procedures.
#
#######################################################################

data_CSD_CIF_GIBDAY
_audit_creation_date 2013-05-23
_audit_creation_method CSD-ConQuest-V1
_database_code_CSD GIBDAY
_database_code_depnum_ccdc_archive 'CCDC 880531'
_chemical_formula_sum 'C18 H20 N2 O5'
_chemical_formula_moiety
;
C18 H20 N2 O5
;
_journal_coden_Cambridge 16
_journal_volume 69
_journal_year 2013
_journal_page_first 527
_journal_name_full 'Tetrahedron '
loop_
_publ_author_name
"T.Ponpandian"
"S.Muthusubramanian"
_chemical_name_systematic
;
Ethyl 2-(hexahydro-3H-pyrrolizin-3-ylidene)-3-(2-nitrophenyl)-3-oxopropanoate
;
_chemical_melting_point 380
_cell_volume   1712.288
_exptl_crystal_colour 'colorless'
_exptl_crystal_density_diffrn 1.336
_exptl_special_details
;
Melting point range 380-381K

;
_exptl_crystal_description 'block'
_diffrn_ambient_temperature 293
_refine_special_details
;
C10,C11 and C10',C11' disordered over two sites with occupancies 0.599:0.401; 
C28',C29' and C28,C29 disordered over two sites with occupancies 0.604:0.396.
;
#These two values have been output from a single CSD field.
_refine_ls_R_factor_gt 0.0553
_refine_ls_wR_factor_gt 0.0553
_symmetry_cell_setting triclinic
_symmetry_space_group_name_H-M 'P -1'
_symmetry_Int_Tables_number 2
loop_
_symmetry_equiv_pos_site_id
_symmetry_equiv_pos_as_xyz
1 x,y,z
2 -x,-y,-z
_cell_length_a 8.081(3)
_cell_length_b 8.123(3)
_cell_length_c 26.136(6)
_cell_angle_alpha 87.437(10)
_cell_angle_beta 87.531(10)
_cell_angle_gamma 89.59(3)
_cell_formula_units_Z 4
loop_
_atom_type_symbol
_atom_type_radius_bond
C 0.68
H 0.23
N 0.68
O 0.68
loop_
_atom_site_label
_atom_site_type_symbol
_atom_site_fract_x
_atom_site_fract_y
_atom_site_fract_z
C1 C 0.8507(3) 0.2627(3) 0.68769(11)
C2 C 0.7855(4) 0.2791(4) 0.73639(13)
H1 H 0.85380 0.29790 0.76330
C3 C 0.6166(4) 0.2674(5) 0.74475(14)
H2 H 0.56930 0.27870 0.77750
C4 C 0.5185(4) 0.2389(5) 0.70465(14)
H3 H 0.40440 0.23070 0.71030
C5 C 0.5874(4) 0.2223(4) 0.65631(13)
H4 H 0.51870 0.20310 0.62960
C6 C 0.7575(3) 0.2334(3) 0.64624(11)
C7 C 0.8307(3) 0.2420(4) 0.59258(11)
C8 C 0.7745(3) 0.1299(3) 0.55501(12)
C9 C 0.7326(4) -0.0394(4) 0.57154(13)
O1 O 0.7951(3) -0.0821(3) 0.61656(9)
C10 C 0.7303(15) -0.2402(17) 0.6378(6)
H5 H 0.76180 -0.32950 0.61590
H6 H 0.61060 -0.23690 0.64240
C11 C 0.8100(15) -0.2579(10) 0.6875(4)
H7 H 0.92820 -0.25550 0.68190
H8 H 0.77820 -0.36090 0.70440
H9 H 0.77550 -0.16900 0.70860
C12 C 0.7804(3) 0.1730(3) 0.50274(11)
C13 C 0.7759(4) 0.0522(4) 0.46070(12)
H10 H 0.67950 -0.01810 0.46560
H11 H 0.87460 -0.01640 0.46030
C14 C 0.7676(5) 0.1557(4) 0.41117(13)
H12 H 0.85290 0.12170 0.38650
H13 H 0.66040 0.14420 0.39640
C15 C 0.7943(4) 0.3317(4) 0.42500(12)
C16 C 0.6646(4) 0.4617(4) 0.41464(13)
H14 H 0.55400 0.41560 0.41820
H15 H 0.68100 0.51240 0.38050
C17 C 0.6919(4) 0.5848(4) 0.45548(12)
H16 H 0.58940 0.64170 0.46430
H17 H 0.77400 0.66570 0.44340
C18 C 0.7526(4) 0.4838(3) 0.50171(12)
H18 H 0.85020 0.53300 0.51490
H19 H 0.66700 0.47480 0.52890
N1 N 1.0323(3) 0.2719(3) 0.68086(10)
N2 N 0.7917(3) 0.3225(3) 0.48131(9)
O2 O 1.0985(3) 0.3905(3) 0.69713(10)
O3 O 1.1064(3) 0.1601(3) 0.66075(10)
O4 O 0.9303(3) 0.3520(3) 0.58206(8)
O5 O 0.6545(4) -0.1366(3) 0.54883(10)
H20 H 0.905(4) 0.376(3) 0.4117(10)
C19? C 0.7897(19) -0.248(2) 0.6416(9)
H21? H 0.88970 -0.27040 0.66000
H22? H 0.77760 -0.33100 0.61660
C20? C 0.6412(17) -0.2440(16) 0.6780(5)
H23? H 0.65040 -0.15360 0.70010
H24? H 0.63520 -0.34550 0.69820
H25? H 0.54270 -0.23060 0.65890
C21 C 0.2467(3) -0.0949(3) 0.81117(11)
C22 C 0.2381(4) -0.1443(4) 0.76195(13)
H26 H 0.22330 -0.06800 0.73490
C23 C 0.2520(5) -0.3104(5) 0.75364(15)
H27 H 0.24680 -0.34770 0.72060
C24 C 0.2733(5) -0.4198(4) 0.79390(15)
H28 H 0.28140 -0.53180 0.78810
C25 C 0.2830(4) -0.3677(4) 0.84297(13)
H29 H 0.29860 -0.44460 0.86980
C26 C 0.2696(3) -0.2014(3) 0.85298(11)
C27 C 0.2548(3) -0.1470(3) 0.90716(11)
C28 C 0.3676(3) -0.2115(3) 0.94481(11)
C29 C 0.5385(4) -0.2486(4) 0.92855(12)
O6 O 0.5821(2) -0.1719(3) 0.88386(9)
C30 C 0.7421(18) -0.2298(15) 0.8627(7)
H30 H 0.82970 -0.21300 0.88620
H31 H 0.73790 -0.34580 0.85550
C31 C 0.7675(10) -0.1276(14) 0.8154(4)
H32 H 0.68750 -0.15630 0.79120
H33 H 0.87710 -0.14620 0.80100
H34 H 0.75470 -0.01350 0.82290
C32 C 0.3247(3) -0.2192(3) 0.99733(11)
C33 C 0.4456(4) -0.2321(4) 1.03929(12)
H35 H 0.50900 -0.13140 1.04010
H36 H 0.52170 -0.32330 1.03410
C34 C 0.3434(4) -0.2603(4) 1.08861(12)
H37 H 0.37730 -0.18630 1.11430
H38 H 0.35580 -0.37300 1.10190
C35 C 0.1658(4) -0.2261(4) 1.07511(11)
C36 C 0.0358(4) -0.3552(4) 1.08662(13)
H39 H -0.01450 -0.34530 1.12070
H40 H 0.08180 -0.46520 1.08370
C37 C -0.0880(3) -0.3172(4) 1.04588(12)
H41 H -0.16810 -0.23590 1.05740
H42 H -0.14650 -0.41620 1.03800
C38 C 0.0127(3) -0.2504(4) 0.99905(12)
H43 H 0.02210 -0.33140 0.97290
H44 H -0.03740 -0.15080 0.98460
N3 N 0.2355(4) 0.0840(3) 0.81838(10)
N4 N 0.1738(3) -0.2160(3) 1.01896(9)
O7 O 0.1298(4) 0.1595(3) 0.79571(12)
O8 O 0.3320(3) 0.1473(3) 0.84461(10)
O9 O 0.1371(3) -0.0543(3) 0.91734(8)
O10 O 0.6354(3) -0.3357(3) 0.95131(10)
H45 H 0.123(3) -0.119(4) 1.0889(10)
C39? C 0.748(2) -0.172(2) 0.8581(10)
H46? H 0.83300 -0.19160 0.88290
H47? H 0.76980 -0.06780 0.83960
C40? C 0.7455(15) -0.3093(19) 0.8219(5)
H48? H 0.71980 -0.41080 0.84070
H49? H 0.85200 -0.31850 0.80450
H50? H 0.66280 -0.28660 0.79720
#END
