
#######################################################################
#
#                 Cambridge Crystallographic Data Centre
#                                CCDC
#
#######################################################################
#
# If this CIF has been generated from an entry in the Cambridge
# Structural Database, then it will include bibliographic, chemical,
# crystal, experimental, refinement or atomic coordinate data resulting
# from the CCDC's data processing and validation procedures.
#
#######################################################################

data_CSD_CIF_GIBVEU
_audit_creation_date 2013-05-23
_audit_creation_method CSD-ConQuest-V1
_database_code_CSD GIBVEU
_database_code_depnum_ccdc_archive 'CCDC 911344'
_chemical_formula_sum 'C18 H20 N4 O4'
_chemical_formula_moiety
;
C18 H20 N4 O4
;
_journal_coden_Cambridge 1137
_journal_volume 26
_journal_year 2013
_journal_page_first 492
_journal_name_full 'J.Phys.Org.Chem. '
loop_
_publ_author_name
"V.A.Ozeryanskii"
"E.A.Filatova"
"A.F.Pozharskii"
"D.A.Shevchuk"
"V.I.Sorokin"
_chemical_name_systematic
;
1,1'-(4,5-Dinitronaphthalene-1,8-diyl)dipyrrolidine
;
_cell_volume   1609.055
_exptl_crystal_colour 'red'
_exptl_crystal_density_diffrn 1.471
_exptl_crystal_description 'plate'
_diffrn_ambient_temperature 100
#These two values have been output from a single CSD field.
_refine_ls_R_factor_gt 0.0445
_refine_ls_wR_factor_gt 0.0445
_symmetry_cell_setting monoclinic
_symmetry_space_group_name_H-M 'C 2/c'
_symmetry_Int_Tables_number 15
loop_
_symmetry_equiv_pos_site_id
_symmetry_equiv_pos_as_xyz
1 x,y,z
2 -x,y,1/2-z
3 1/2+x,1/2+y,z
4 1/2-x,1/2+y,1/2-z
5 -x,-y,-z
6 x,-y,-1/2+z
7 -1/2-x,-1/2-y,-z
8 -1/2+x,-1/2-y,-1/2+z
_cell_length_a 13.0257(13)
_cell_length_b 9.7142(13)
_cell_length_c 13.0509(15)
_cell_angle_alpha 90
_cell_angle_beta 103.001(3)
_cell_angle_gamma 90
_cell_formula_units_Z 4
loop_
_atom_type_symbol
_atom_type_radius_bond
C 0.68
H 0.23
N 0.68
O 0.68
loop_
_atom_site_label
_atom_site_type_symbol
_atom_site_fract_x
_atom_site_fract_y
_atom_site_fract_z
O1 O 0.07381(9) 0.42988(11) 0.44012(8)
O2 O -0.06759(9) 0.44221(11) 0.31549(8)
N1 N 0.01425(10) 0.49345(12) 0.36807(9)
N2 N 0.11421(9) 1.04193(12) 0.31533(9)
C1 C 0.03906(11) 0.63439(14) 0.34944(10)
C2 C 0.00000 0.69908(19) 0.25000
C3 C 0.00000 0.8469(2) 0.25000
C4 C 0.07523(11) 0.91703(14) 0.33206(10)
C5 C 0.11096(11) 0.84753(15) 0.4291(1)
H1 H 0.14960 0.89600 0.48860
C6 C 0.08948(11) 0.70941(15) 0.43681(10)
H2 H 0.10950 0.66480 0.50310
C7 C 0.11229(11) 1.10078(15) 0.21063(10)
H3 H 0.05460 1.16870 0.19020
H4 H 0.10360 1.02790 0.15640
C8 C 0.21963(11) 1.16975(16) 0.22571(11)
H5 H 0.21790 1.24610 0.17510
H6 H 0.27440 1.10280 0.21720
C9 C 0.23968(12) 1.22336(16) 0.33823(12)
H7 H 0.20170 1.31080 0.34190
H8 H 0.31590 1.23810 0.36750
C10 C 0.19666(12) 1.10807(16) 0.39693(11)
H9 H 0.25290 1.04160 0.42730
H10 H 0.16640 1.14600 0.45410
O1A O -0.07381(9) 0.42988(11) 0.05988(8)
O2A O 0.06759(9) 0.44221(11) 0.18451(8)
N1A N -0.01425(10) 0.49345(12) 0.13193(9)
N2A N -0.11421(9) 1.04193(12) 0.18467(9)
C1A C -0.03906(11) 0.63439(14) 0.15056(10)
C4A C -0.07523(11) 0.91703(14) 0.16794(10)
C5A C -0.11096(11) 0.84753(15) 0.0709(1)
H1A H -0.14960 0.89600 0.01140
C6A C -0.08948(11) 0.70941(15) 0.06319(10)
H2A H -0.10950 0.66480 -0.00310
C7A C -0.11229(11) 1.10078(15) 0.28937(10)
H3A H -0.05460 1.16870 0.30980
H4A H -0.10360 1.02790 0.34360
C8A C -0.21963(11) 1.16975(16) 0.27429(11)
H5A H -0.21790 1.24610 0.32490
H6A H -0.27440 1.10280 0.28280
C9A C -0.23968(12) 1.22336(16) 0.16177(12)
H7A H -0.20170 1.31080 0.15810
H8A H -0.31590 1.23810 0.13250
C10A C -0.19666(12) 1.10807(16) 0.10307(11)
H9A H -0.25290 1.04160 0.07270
H10A H -0.16640 1.14600 0.04590
#END
