
#######################################################################
#
#                 Cambridge Crystallographic Data Centre
#                                CCDC
#
#######################################################################
#
# If this CIF has been generated from an entry in the Cambridge
# Structural Database, then it will include bibliographic, chemical,
# crystal, experimental, refinement or atomic coordinate data resulting
# from the CCDC's data processing and validation procedures.
#
#######################################################################

data_CSD_CIF_GIBVOE
_audit_creation_date 2013-05-23
_audit_creation_method CSD-ConQuest-V1
_database_code_CSD GIBVOE
_database_code_depnum_ccdc_archive 'CCDC 911342'
_chemical_formula_sum 'C11 H6 N4 O5'
_chemical_formula_moiety
;
C11 H6 N4 O5
;
_journal_coden_Cambridge 1137
_journal_volume 26
_journal_year 2013
_journal_page_first 492
_journal_name_full 'J.Phys.Org.Chem. '
loop_
_publ_author_name
"V.A.Ozeryanskii"
"E.A.Filatova"
"A.F.Pozharskii"
"D.A.Shevchuk"
"V.I.Sorokin"
_chemical_name_systematic
;
4,9-Dinitro-1H-perimidin-2(3H)-one
;
_cell_volume   1062.016
_exptl_crystal_colour 'brown'
_exptl_crystal_density_diffrn 1.715
_exptl_crystal_description 'needle'
_diffrn_ambient_temperature 295
#These two values have been output from a single CSD field.
_refine_ls_R_factor_gt 0.049
_refine_ls_wR_factor_gt 0.049
_symmetry_cell_setting triclinic
_symmetry_space_group_name_H-M 'P -1'
_symmetry_Int_Tables_number 2
loop_
_symmetry_equiv_pos_site_id
_symmetry_equiv_pos_as_xyz
1 x,y,z
2 -x,-y,-z
_cell_length_a 4.9626(6)
_cell_length_b 13.4805(16)
_cell_length_c 15.946(2)
_cell_angle_alpha 90.016(3)
_cell_angle_beta 95.406(3)
_cell_angle_gamma 90.012(3)
_cell_formula_units_Z 4
loop_
_atom_type_symbol
_atom_type_radius_bond
C 0.68
H 0.23
N 0.68
O 0.68
loop_
_atom_site_label
_atom_site_type_symbol
_atom_site_fract_x
_atom_site_fract_y
_atom_site_fract_z
N1 N 0.5580(3) 0.97481(12) 0.14033(11)
H1 H 0.58310 1.02800 0.17210
N2 N 0.3124(3) 0.88941(12) 0.03233(11)
H2 H 0.18020 0.88840 -0.00850
N3 N 0.2441(4) 0.71252(16) -0.07632(13)
N4 N 1.0070(4) 0.98806(14) 0.27007(12)
O1 O 0.1915(3) 1.04500(11) 0.07040(11)
O2 O 0.1078(4) 0.78474(15) -0.09897(13)
O3 O 0.2088(4) 0.63133(14) -0.10969(12)
O4 O 1.2066(4) 0.98780(13) 0.32184(12)
O5 O 0.8613(4) 1.06209(12) 0.26006(11)
C1 C 0.3420(4) 0.97392(16) 0.07987(14)
C2 C 0.4818(4) 0.80821(15) 0.04159(13)
C3 C 0.4545(4) 0.72265(16) -0.00717(13)
C4 C 0.6302(5) 0.64175(16) 0.00796(15)
H3 H 0.60710 0.58570 -0.02590
C5 C 0.8329(5) 0.64387(16) 0.07101(15)
H4 H 0.94630 0.58930 0.08030
C6 C 0.8726(4) 0.72842(15) 0.12266(13)
C7 C 1.0818(4) 0.73461(16) 0.18916(14)
H5 H 1.19500 0.68040 0.20080
C8 C 1.1200(4) 0.81778(16) 0.23600(14)
H6 H 1.26020 0.82040 0.27900
C9 C 0.9497(4) 0.90055(15) 0.22035(13)
C10 C 0.7348(4) 0.89760(14) 0.15739(13)
C11 C 0.6975(4) 0.81070(14) 0.10748(13)
N5 N 1.1875(3) 0.38930(12) 0.46774(11)
H7 H 1.31820 0.38940 0.50910
N6 N 0.9421(3) 0.47476(12) 0.35968(11)
H8 H 0.91890 0.52800 0.32800
N7 N 0.4929(4) 0.48821(14) 0.22990(12)
N8 N 1.2556(4) 0.21269(16) 0.57638(12)
O6 O 1.3086(3) 0.54482(11) 0.42948(11)
O7 O 0.6389(4) 0.56177(12) 0.23997(11)
O8 O 0.2932(4) 0.48742(13) 0.17792(12)
O9 O 1.2915(4) 0.13134(14) 0.60949(12)
O10 O 1.3914(4) 0.28482(15) 0.59916(13)
C12 C 1.1580(4) 0.47399(16) 0.42013(13)
C13 C 0.7646(4) 0.39781(14) 0.34266(12)
C14 C 0.5504(4) 0.40030(15) 0.27951(13)
C15 C 0.3798(4) 0.31767(16) 0.26397(14)
H9 H 0.23980 0.32020 0.22100
C16 C 0.4176(4) 0.23456(16) 0.31105(14)
H10 H 0.30380 0.18040 0.29970
C17 C 0.6277(4) 0.22860(15) 0.37741(13)
C18 C 0.6672(5) 0.14392(16) 0.42908(15)
H11 H 0.55340 0.08940 0.41980
C19 C 0.8698(5) 0.14177(16) 0.49202(15)
H12 H 0.89310 0.08560 0.52580
C20 C 1.0457(4) 0.22286(16) 0.50725(13)
C21 C 1.0182(4) 0.30811(15) 0.45834(13)
C22 C 0.8024(4) 0.31073(14) 0.39256(13)
#END
