
#######################################################################
#
#                 Cambridge Crystallographic Data Centre
#                                CCDC
#
#######################################################################
#
# If this CIF has been generated from an entry in the Cambridge
# Structural Database, then it will include bibliographic, chemical,
# crystal, experimental, refinement or atomic coordinate data resulting
# from the CCDC's data processing and validation procedures.
#
#######################################################################

data_CSD_CIF_GIBXEU
_audit_creation_date 1999-04-16
_audit_creation_method CSD-ConQuest-V1
_database_code_CSD GIBXEU
_chemical_formula_sum 'C18 H25 N1 O3'
_chemical_formula_moiety
;
C18 H25 N1 O3
;
_journal_coden_Cambridge 24
_journal_volume 39
_journal_year 1998
_journal_page_first 6819
_journal_name_full 'Tetrahedron Lett. '
loop_
_publ_author_name
"S.W.Baldwin"
"B.G.Young"
"A.T.McPhail"
_chemical_name_systematic
;
(2R,6R,8S)-2-Phenyl-8-hexyl-1-aza-4,9-dioxabicyclo(4.3.0)nonan-5-one
;
_cell_volume    855.128
_exptl_crystal_density_diffrn 1.178
_diffrn_ambient_temperature ?
_diffrn_special_details
;
The study was carried out at room temperature,in the range 283-303K

;
#These two values have been output from a single CSD field.
_refine_ls_R_factor_gt 0.074
_refine_ls_wR_factor_gt 0.074
_symmetry_cell_setting monoclinic
_symmetry_space_group_name_H-M 'P 21'
_symmetry_Int_Tables_number 4
loop_
_symmetry_equiv_pos_site_id
_symmetry_equiv_pos_as_xyz
1 x,y,z
2 -x,1/2+y,-z
_cell_length_a 14.104(2)
_cell_length_b 5.067(1)
_cell_length_c 13.176(2)
_cell_angle_alpha 90
_cell_angle_beta 114.75(1)
_cell_angle_gamma 90
_cell_formula_units_Z 2
loop_
_atom_type_symbol
_atom_type_radius_bond
C 0.68
H 0.23
N 0.68
O 0.68
loop_
_atom_site_label
_atom_site_type_symbol
_atom_site_fract_x
_atom_site_fract_y
_atom_site_fract_z
N1 N 0.1602(3) 0.096(1) -0.0813(3)
C1 C 0.2122(3) 0.341(1) -0.0262(4)
C2 C 0.1527(3) 0.435(1) 0.0360(4)
O1 O 0.0480(2) 0.511(1) -0.0329(3)
C3 C -0.0025(3) 0.370(1) -0.1225(4)
C4 C 0.0512(3) 0.151(1) -0.1591(4)
C5 C 0.0570(5) 0.224(2) -0.2702(5)
C6 C 0.1640(4) 0.146(2) -0.2553(5)
O2 O 0.2041(3) 0.00000 -0.1543(3)
O3 O -0.0942(3) 0.419(1) -0.1846(3)
C7 C 0.3270(3) 0.284(1) 0.0538(4)
C8 C 0.4044(3) 0.439(2) 0.0459(4)
C9 C 0.5064(4) 0.392(2) 0.1192(5)
C10 C 0.5317(5) 0.195(2) 0.1970(5)
C11 C 0.4567(5) 0.046(2) 0.2022(5)
C12 C 0.3530(4) 0.088(1) 0.1332(4)
C13 C 0.1664(6) -0.021(3) -0.3505(5)
C14 C 0.1535(6) 0.113(4) -0.4465(6)
C15 C 0.2419(8) 0.211(4) -0.4542(9)
C16 C 0.2566(8) 0.324(3) -0.5431(7)
C17 C 0.3376(9) 0.458(6) -0.5427(9)
C18 C 0.3529(9) 0.568(4) -0.6407(8)
H1 H 0.21360 0.48310 -0.08350
H2 H 0.19180 0.59890 0.08410
H3 H 0.15070 0.28270 0.08910
H4 H 0.00490 -0.01520 -0.16430
H5 H 0.04570 0.42760 -0.28530
H6 H 0.00030 0.11990 -0.33700
H7 H 0.20800 0.31420 -0.25410
H8 H 0.38670 0.58160 -0.01160
H9 H 0.56310 0.50430 0.11540
H10 H 0.60620 0.16360 0.24960
H11 H 0.47590 -0.10120 0.25780
H12 H 0.29750 -0.02220 0.14070
H13 H 0.10640 -0.16160 -0.37190
H14 H 0.23890 -0.11750 -0.32080
H15 H 0.10390 0.27370 -0.45430
H16 H 0.11720 -0.01670 -0.51390
H17 H 0.29370 0.05040 -0.43060
H18 H 0.26890 0.35650 -0.39180
H19 H 0.19330 0.45400 -0.57970
H20 H 0.24800 0.16560 -0.59760
H21 H 0.40180 0.33240 -0.50280
H22 H 0.34410 0.62220 -0.49160
H23 H 0.42550 0.66380 -0.61220
H24 H 0.35080 0.41360 -0.69480
H25 H 0.29310 0.70350 -0.68360
#END
