
#######################################################################
#
#                 Cambridge Crystallographic Data Centre
#                                CCDC
#
#######################################################################
#
# If this CIF has been generated from an entry in the Cambridge
# Structural Database, then it will include bibliographic, chemical,
# crystal, experimental, refinement or atomic coordinate data resulting
# from the CCDC's data processing and validation procedures.
#
#######################################################################

data_CSD_CIF_GIBZAV
_audit_creation_date 2018-04-24
_audit_creation_method CSD-ConQuest-V1
_database_code_CSD GIBZAV
_database_code_depnum_ccdc_archive 'CCDC 1590389'
_chemical_formula_sum 'C15 H13 N3 O3'
_chemical_formula_moiety
;
C15 H13 N3 O3
;
_journal_coden_Cambridge 1267
_journal_volume 233
_journal_year 2018
_journal_page_first 213
_journal_name_full 'Z.Kristallogr.-New Cryst.Struct. '
loop_
_publ_author_name
"Wang Li-Hua"
"Liu Qing-Yun"
"Tai Xi-Shi"
_chemical_name_systematic
;
N'-[(2-nitrophenyl)methylidene]-2-phenylacetohydrazide
;
_cell_volume   1416.569
_exptl_crystal_colour 'brown'
_exptl_crystal_density_diffrn 1.328
_exptl_crystal_description 'block'
_diffrn_ambient_temperature 293
#These two values have been output from a single CSD field.
_refine_ls_R_factor_gt 0.0453
_refine_ls_wR_factor_gt 0.0453
_symmetry_cell_setting orthorhombic
_symmetry_space_group_name_H-M 'P 21 21 21'
_symmetry_Int_Tables_number 19
loop_
_symmetry_equiv_pos_site_id
_symmetry_equiv_pos_as_xyz
1 x,y,z
2 1/2-x,-y,1/2+z
3 -x,1/2+y,1/2-z
4 1/2+x,1/2-y,-z
_cell_length_a 8.6321(17)
_cell_length_b 12.120(2)
_cell_length_c 13.540(3)
_cell_angle_alpha 90
_cell_angle_beta 90
_cell_angle_gamma 90
_cell_formula_units_Z 4
loop_
_atom_type_symbol
_atom_type_radius_bond
C 0.68
H 0.23
N 0.68
O 0.68
loop_
_atom_site_label
_atom_site_type_symbol
_atom_site_fract_x
_atom_site_fract_y
_atom_site_fract_z
C1 C 1.5870(4) 0.3848(2) 1.1606(2)
C2 C 1.6584(5) 0.3218(3) 1.2329(3)
H1 H 1.66420 0.24550 1.22640
C3 C 1.7202(4) 0.3731(5) 1.3137(4)
H2 H 1.76790 0.33140 1.36280
C4 C 1.7122(4) 0.4851(4) 1.3228(3)
H3 H 1.75740 0.51970 1.37690
C5 C 1.6370(3) 0.5474(3) 1.2516(2)
H4 H 1.62820 0.62330 1.26030
C6 C 1.5747(3) 0.4991(2) 1.1678(2)
C7 C 1.4966(3) 0.5689(2) 1.09399(19)
H5 H 1.40600 0.54590 1.06310
C8 C 1.5430(3) 0.8217(2) 0.97722(17)
C9 C 1.4421(3) 0.8898(2) 0.9095(2)
H6 H 1.38400 0.84070 0.86670
H7 H 1.36830 0.93100 0.94900
C10 C 1.5333(3) 0.9687(2) 0.84706(19)
C11 C 1.5631(4) 1.0745(3) 0.8793(2)
H8 H 1.52420 1.09730 0.94010
C12 C 1.6492(4) 1.1470(3) 0.8235(3)
H9 H 1.66700 1.21820 0.84640
C13 C 1.7083(4) 1.1147(3) 0.7348(3)
H10 H 1.76840 1.16350 0.69810
C14 C 1.6799(4) 1.0116(3) 0.6997(2)
H11 H 1.71870 0.99020 0.63860
C15 C 1.5918(3) 0.9376(2) 0.7562(2)
H12 H 1.57270 0.86700 0.73240
O1 O 1.5219(5) 0.3756(2) 0.9957(2)
O2 O 1.4837(6) 0.2321(2) 1.0827(3)
O3 O 1.67276(18) 0.85139(14) 1.00245(14)
N1 N 1.5276(5) 0.3274(2) 1.0737(3)
N2 N 1.5573(2) 0.66140(16) 1.07404(15)
N3 N 1.4785(2) 0.72674(15) 1.00734(16)
H13 H 1.38920 0.70690 0.98540
#END
