
#######################################################################
#
#                 Cambridge Crystallographic Data Centre
#                                CCDC
#
#######################################################################
#
# If this CIF has been generated from an entry in the Cambridge
# Structural Database, then it will include bibliographic, chemical,
# crystal, experimental, refinement or atomic coordinate data resulting
# from the CCDC's data processing and validation procedures.
#
#######################################################################

data_CSD_CIF_GIDDOP
_audit_creation_date 2018-04-24
_audit_creation_method CSD-ConQuest-V1
_database_code_CSD GIDDOP
_database_code_depnum_ccdc_archive 'CCDC 1533341'
_chemical_formula_sum 'C4 H4 N8 O7'
_chemical_formula_moiety
;
C4 H4 N8 O7
;
_journal_coden_Cambridge 34
_journal_volume 55
_journal_year 2018
_journal_page_first 852
_journal_name_full 'J.Heterocycl.Chem. '
loop_
_publ_author_name
"T.S.Hermann"
"T.M.Klapotke"
"B.Krumm"
"J.Stierstorfer"
_chemical_name_systematic
;
N,N'-(1,2,5-oxadiazole-3,4-diyl)bis(N'-nitrourea)
;
_chemical_name_common
;
4,5-dinitraminoureanylfurazane
;
_cell_volume    479.196
_exptl_crystal_colour 'colorless'
_exptl_crystal_density_diffrn 1.914
_exptl_crystal_description 'block'
_diffrn_ambient_temperature 123
#These two values have been output from a single CSD field.
_refine_ls_R_factor_gt 0.0385
_refine_ls_wR_factor_gt 0.0385
_symmetry_cell_setting triclinic
_symmetry_space_group_name_H-M 'P -1'
_symmetry_Int_Tables_number 2
loop_
_symmetry_equiv_pos_site_id
_symmetry_equiv_pos_as_xyz
1 x,y,z
2 -x,-y,-z
_cell_length_a 7.8096(7)
_cell_length_b 8.0528(6)
_cell_length_c 8.1807(8)
_cell_angle_alpha 110.746(8)
_cell_angle_beta 92.503(7)
_cell_angle_gamma 93.290(7)
_cell_formula_units_Z 2
loop_
_atom_type_symbol
_atom_type_radius_bond
C 0.68
H 0.23
N 0.68
O 0.68
loop_
_atom_site_label
_atom_site_type_symbol
_atom_site_fract_x
_atom_site_fract_y
_atom_site_fract_z
O1 O 0.40026(17) 1.01379(18) 0.64819(18)
O2 O 0.49261(16) 0.66305(16) 0.89940(17)
O3 O 0.14138(19) 0.54801(18) 1.26099(18)
O4 O 0.0508(2) 0.7357(2) 1.1492(2)
O5 O -0.10191(17) 0.86083(17) 0.86437(17)
O6 O -0.25733(18) 0.63694(19) 0.35085(18)
O7 O -0.51456(17) 0.64647(18) 0.44446(18)
N1 N 0.2385(2) 0.9587(2) 0.5617(2)
N2 N 0.4171(2) 0.9629(2) 0.7919(2)
N3 N 0.2394(2) 0.7943(2) 0.9132(2)
H1 H 0.14690 0.80250 0.95470
N4 N 0.3026(2) 0.6184(2) 1.0789(2)
H2 H 0.36740 0.55140 1.10240
N5 N 0.1558(2) 0.6351(2) 1.1671(2)
N6 N -0.0040(2) 0.7905(2) 0.5920(2)
H3 H -0.03460 0.74400 0.48160
N7 N -0.2934(2) 0.7343(2) 0.6380(2)
H4 H -0.37600 0.73440 0.71530
N8 N -0.3579(2) 0.6684(2) 0.4668(2)
C1 C 0.2719(2) 0.8755(2) 0.7925(2)
C2 C 0.1599(2) 0.8741(2) 0.6489(2)
C3 C 0.3523(2) 0.6949(2) 0.9581(2)
C4 C -0.1266(2) 0.7998(2) 0.7058(2)
#END
