
#######################################################################
#
#                 Cambridge Crystallographic Data Centre
#                                CCDC
#
#######################################################################
#
# If this CIF has been generated from an entry in the Cambridge
# Structural Database, then it will include bibliographic, chemical,
# crystal, experimental, refinement or atomic coordinate data resulting
# from the CCDC's data processing and validation procedures.
#
#######################################################################

data_CSD_CIF_GIDFAD
_audit_creation_date 2018-04-24
_audit_creation_method CSD-ConQuest-V1
_database_code_CSD GIDFAD
_database_code_depnum_ccdc_archive 'CCDC 1533343'
_chemical_formula_sum 'C3 H3 N5 O4'
_chemical_formula_moiety
;
C3 H3 N5 O4
;
_journal_coden_Cambridge 34
_journal_volume 55
_journal_year 2018
_journal_page_first 852
_journal_name_full 'J.Heterocycl.Chem. '
loop_
_publ_author_name
"T.S.Hermann"
"T.M.Klapotke"
"B.Krumm"
"J.Stierstorfer"
_chemical_name_systematic
;
N-(4-nitro-1,2,5-oxadiazol-3-yl)urea
;
_chemical_name_common
;
nitrofurazanylurea
;
_cell_volume    668.328
_exptl_crystal_colour 'colorless'
_exptl_crystal_density_diffrn 1.72
_exptl_crystal_description 'block'
_diffrn_ambient_temperature 173
#These two values have been output from a single CSD field.
_refine_ls_R_factor_gt 0.0328
_refine_ls_wR_factor_gt 0.0328
_symmetry_cell_setting orthorhombic
_symmetry_space_group_name_H-M 'P 21 21 21'
_symmetry_Int_Tables_number 19
loop_
_symmetry_equiv_pos_site_id
_symmetry_equiv_pos_as_xyz
1 x,y,z
2 1/2-x,-y,1/2+z
3 1/2+x,1/2-y,-z
4 -x,1/2+y,1/2-z
_cell_length_a 5.4926(5)
_cell_length_b 8.6852(7)
_cell_length_c 14.0098(13)
_cell_angle_alpha 90
_cell_angle_beta 90
_cell_angle_gamma 90
_cell_formula_units_Z 4
loop_
_atom_type_symbol
_atom_type_radius_bond
C 0.68
H 0.23
N 0.68
O 0.68
loop_
_atom_site_label
_atom_site_type_symbol
_atom_site_fract_x
_atom_site_fract_y
_atom_site_fract_z
O1 O 0.9164(2) 0.07022(13) 0.70780(7)
N1 N 1.1199(3) 0.29445(17) 0.68516(11)
O2 O 0.3224(2) 0.06492(14) 0.87933(8)
N2 N 0.7961(3) 0.28805(16) 0.78733(9)
C1 C 0.9469(3) 0.20807(18) 0.72404(10)
N3 N 0.4406(3) 0.45028(16) 0.93387(9)
O3 O 0.6072(2) 0.53107(13) 0.90428(9)
N4 N 0.5273(3) 0.07880(17) 0.82048(10)
N5 N 0.2718(3) 0.19895(17) 0.92567(9)
C2 C 0.4370(3) 0.29436(19) 0.89693(10)
C3 C 0.6008(3) 0.22215(18) 0.83122(10)
O4 O 0.2849(3) 0.48836(14) 0.99038(9)
H1 H 0.829(4) 0.384(3) 0.7964(14)
H2 H 1.203(4) 0.252(2) 0.6429(14)
H3 H 1.137(4) 0.397(2) 0.7026(12)
#END
