
#######################################################################
#
#                 Cambridge Crystallographic Data Centre
#                                CCDC
#
#######################################################################
#
# If this CIF has been generated from an entry in the Cambridge
# Structural Database, then it will include bibliographic, chemical,
# crystal, experimental, refinement or atomic coordinate data resulting
# from the CCDC's data processing and validation procedures.
#
#######################################################################

data_CSD_CIF_GIFKUD
_audit_creation_date 2013-05-23
_audit_creation_method CSD-ConQuest-V1
_database_code_CSD GIFKUD
_database_code_depnum_ccdc_archive 'CCDC 921636'
_chemical_formula_sum 'C20 H19 N1 O3'
_chemical_formula_moiety
;
C20 H19 N1 O3
;
_journal_coden_Cambridge 692
_journal_volume 45
_journal_year 2013
_journal_page_first 1414
_journal_name_full 'Synthesis '
loop_
_publ_author_name
"P.Quadrelli"
"M.Mella"
"S.Carosso"
"B.Bovio"
_chemical_name_systematic
;
N-Hydroxy-N-(1-hydroxy-3-methylbut-3-en-2-yl)anthracene-9-carboamide
;
_cell_volume   3313.157
_exptl_crystal_colour 'colorless'
_exptl_crystal_density_diffrn 1.289
_exptl_crystal_description 'Prisms'
_diffrn_ambient_temperature 293
#These two values have been output from a single CSD field.
_refine_ls_R_factor_gt 0.0491
_refine_ls_wR_factor_gt 0.0491
_symmetry_cell_setting orthorhombic
_symmetry_space_group_name_H-M 'P b c a'
_symmetry_Int_Tables_number 61
loop_
_symmetry_equiv_pos_site_id
_symmetry_equiv_pos_as_xyz
1 x,y,z
2 1/2-x,-y,1/2+z
3 -x,1/2+y,1/2-z
4 1/2+x,1/2-y,-z
5 -x,-y,-z
6 -1/2+x,y,-1/2-z
7 x,-1/2-y,-1/2+z
8 -1/2-x,-1/2+y,z
_cell_length_a 7.867(1)
_cell_length_b 19.388(2)
_cell_length_c 21.722(1)
_cell_angle_alpha 90
_cell_angle_beta 90
_cell_angle_gamma 90
_cell_formula_units_Z 8
loop_
_atom_type_symbol
_atom_type_radius_bond
C 0.68
H 0.23
N 0.68
O 0.68
loop_
_atom_site_label
_atom_site_type_symbol
_atom_site_fract_x
_atom_site_fract_y
_atom_site_fract_z
C1 C 0.70885(40) -0.09921(18) -0.02471(13)
C2 C 0.69699(40) -0.17630(18) -0.03645(17)
C3 C 0.61564(70) -0.19574(28) -0.09031(23)
C4 C 0.76768(96) -0.22392(28) 0.00595(32)
C5 C 0.85833(44) -0.06744(22) -0.05887(16)
O1 O 0.86637(27) 0.00583(13) -0.05084(9)
N1 N 0.71654(26) -0.08112(11) 0.04062(10)
C6 C 0.57794(37) -0.06833(14) 0.07438(13)
O2 O 0.43767(24) -0.06594(11) 0.04968(8)
O3 O 0.87087(23) -0.09311(10) 0.07099(8)
C7 C 0.72274(37) 0.05822(17) 0.12562(18)
C8 C 0.79549(46) 0.11730(19) 0.15104(24)
C9 C 0.81323(46) 0.12367(21) 0.21435(24)
C10 C 0.76215(42) 0.07383(19) 0.25324(21)
C11 C 0.68876(32) 0.01153(15) 0.23014(14)
C12 C 0.49923(40) -0.1516(2) 0.28707(17)
C13 C 0.43068(44) -0.21028(20) 0.26455(20)
C14 C 0.41746(39) -0.22096(18) 0.20183(18)
C15 C 0.47219(37) -0.17228(17) 0.16154(16)
C16 C 0.60247(30) -0.05748(14) 0.14192(12)
C17 C 0.67205(31) 0.00376(15) 0.16480(14)
C18 C 0.63108(35) -0.03935(16) 0.26975(14)
C19 C 0.56050(32) -0.09852(14) 0.24653(13)
H1 H 0.596(3) -0.077(1) -0.038(1)
H2 H 0.557(7) -0.163(2) -0.104(1)
H3 H 0.566(3) -0.225(1) -0.087(1)
H4 H 0.744(5) -0.209(2) 0.047(4)
H5 H 0.716(3) -0.268(2) -0.001(2)
H6 H 0.899(2) -0.227(2) 0.003(1)
H7 H 0.975(4) -0.089(2) -0.034(1)
H8 H 0.840(3) -0.083(1) -0.106(1)
H9 H 0.724(6) 0.026(2) -0.057(2)
H10 H 0.969(5) -0.051(2) 0.058(2)
H11 H 0.714(3) 0.051(1) 0.080(1)
H12 H 0.832(3) 0.154(1) 0.124(1)
H13 H 0.862(3) 0.165(1) 0.232(1)
H14 H 0.773(3) 0.079(1) 0.292(1)
H15 H 0.500(3) -0.142(1) 0.328(1)
H16 H 0.389(3) -0.242(1) 0.295(1)
H17 H 0.359(4) -0.270(2) 0.188(1)
H18 H 0.642(2) -0.0311(7) 0.3161(7)
C20 C 0.54475(31) -0.10884(14) 0.18268(13)
H19? H 0.472(3) -0.172(1) 0.1615(9)
#END
