
#######################################################################
#
#                 Cambridge Crystallographic Data Centre
#                                CCDC
#
#######################################################################
#
# If this CIF has been generated from an entry in the Cambridge
# Structural Database, then it will include bibliographic, chemical,
# crystal, experimental, refinement or atomic coordinate data resulting
# from the CCDC's data processing and validation procedures.
#
#######################################################################

data_CSD_CIF_GIFSOE01
_audit_creation_date 2007-09-03
_audit_creation_method CSD-ConQuest-V1
_database_code_CSD GIFSOE01
_database_code_depnum_ccdc_archive 'CCDC 616836'
_chemical_formula_sum 'C19 H25 N1 O4'
_chemical_formula_moiety
;
C19 H25 N1 O4
;
_journal_coden_Cambridge 692
_journal_volume 2007
_journal_year 2007
_journal_page_first 1517
_journal_name_full 'Synthesis '
loop_
_publ_author_name
"A.Woschek"
"M.Mahout"
"K.Mereiter"
"F.Hammerschmidt"
_chemical_name_systematic
;
N-Ethoxycarbonyloxy-2-n-heptyl-4(1H)-quinolone
;
_chemical_melting_point 431.15
_cell_volume   3577.560
_exptl_crystal_colour 'colorless'
_exptl_crystal_density_diffrn 1.231
_exptl_special_details
;
Melting point range 431.15-432.15K
C2/c polymorph

;
_exptl_crystal_description 'oval'
_diffrn_ambient_temperature 173
_refine_special_details
;
Four C atoms are disordered over two sites with occupancies of 0.623:0.377.

;
#These two values have been output from a single CSD field.
_refine_ls_R_factor_gt 0.0521
_refine_ls_wR_factor_gt 0.0521
_symmetry_cell_setting monoclinic
_symmetry_space_group_name_H-M 'C 2/c'
_symmetry_Int_Tables_number 15
loop_
_symmetry_equiv_pos_site_id
_symmetry_equiv_pos_as_xyz
1 x,y,z
2 1/2+x,1/2+y,z
3 -x,y,1/2-z
4 1/2-x,1/2+y,1/2-z
5 -x,-y,-z
6 -1/2-x,-1/2-y,-z
7 x,-y,-1/2+z
8 -1/2+x,-1/2-y,-1/2+z
_cell_length_a 13.8037(7)
_cell_length_b 11.5567(6)
_cell_length_c 22.6319(11)
_cell_angle_alpha 90
_cell_angle_beta 97.729(1)
_cell_angle_gamma 90
_cell_formula_units_Z 8
loop_
_atom_type_symbol
_atom_type_radius_bond
C 0.68
H 0.23
N 0.68
O 0.68
loop_
_atom_site_label
_atom_site_type_symbol
_atom_site_fract_x
_atom_site_fract_y
_atom_site_fract_z
O1 O 0.07020(7) 0.40106(8) 0.12618(4)
N1 N 0.14942(7) 0.28963(8) 0.29440(4)
C1 C 0.14245(7) 0.40622(9) 0.28453(4)
C2 C 0.11628(7) 0.44380(9) 0.22775(4)
H1 H 0.11280 0.52480 0.22060
C3 C 0.09364(8) 0.36671(10) 0.17794(5)
C4 C 0.09864(7) 0.24266(9) 0.19268(5)
C5 C 0.07413(9) 0.15801(12) 0.14858(5)
H2 H 0.05340 0.18110 0.10860
C6 C 0.07982(10) 0.04220(12) 0.16267(6)
H3 H 0.06280 -0.01410 0.13250
C7 C 0.11047(9) 0.00741(11) 0.22099(6)
H4 H 0.11500 -0.07280 0.23020
C8 C 0.13430(8) 0.08748(10) 0.26539(6)
H5 H 0.15490 0.06310 0.30520
C9 C 0.12787(7) 0.20553(9) 0.25134(5)
C10 C 0.16083(8) 0.48268(10) 0.33848(5)
H6 H 0.22910 0.47110 0.35740
H7 H 0.11730 0.45790 0.36750
C11 C 0.14471(8) 0.61105(10) 0.32600(5)
H8 H 0.18740 0.63640 0.29660
H9 H 0.07600 0.62370 0.30820
C12 C 0.16628(10) 0.68430(13) 0.38204(6)
H10 H 0.23320 0.66830 0.40200
H11 H 0.11950 0.66560 0.41020
C13 C 0.1562(2) 0.8202(2) 0.36273(12)
H12 H 0.19730 0.83490 0.33090
H13 H 0.08750 0.83610 0.34600
C14 C 0.18644(18) 0.90412(17) 0.41435(10)
H14 H 0.25540 0.88860 0.43070
H15 H 0.18290 0.98410 0.39850
C15 C 0.12497(18) 0.89683(19) 0.4645(1)
H16 H 0.14190 0.82510 0.48750
H17 H 0.05520 0.89190 0.44740
C16 C 0.1393(5) 1.0004(3) 0.5066(2)
H18 H 0.20340 0.99510 0.53100
H19 H 0.08800 1.00050 0.53270
H20 H 0.13560 1.07210 0.48330
O2 O 0.17972(6) 0.25137(7) 0.35252(3)
O3 O 0.33374(6) 0.24763(7) 0.32584(4)
O4 O 0.29900(6) 0.19664(8) 0.41715(3)
C17 C 0.28014(8) 0.23280(9) 0.36195(5)
C18 C 0.40197(9) 0.16794(13) 0.43682(6)
H21 H 0.44400 0.23570 0.43200
H22 H 0.42290 0.10330 0.41280
C19 C 0.41023(14) 0.13404(18) 0.50083(7)
H23 H 0.47840 0.11470 0.51550
H24 H 0.36870 0.06650 0.50500
H25 H 0.38910 0.19860 0.52410
C20? C 0.1470(3) 0.7947(3) 0.38498(18)
H26? H 0.07870 0.80640 0.36620
H27? H 0.18940 0.83590 0.35990
C21? C 0.1582(3) 0.8547(3) 0.44522(15)
H28? H 0.10410 0.82960 0.46690
H29? H 0.22010 0.82880 0.46860
C22? C 0.1582(3) 0.9832(3) 0.44231(15)
H30? H 0.09970 1.00880 0.41540
H31? H 0.21650 1.00870 0.42460
C23? C 0.1588(7) 1.0421(5) 0.5018(3)
H32? H 0.22630 1.04930 0.52140
H33? H 0.12090 0.99600 0.52690
H34? H 0.12970 1.11920 0.49570
#END
