
#######################################################################
#
#                 Cambridge Crystallographic Data Centre
#                                CCDC
#
#######################################################################
#
# If this CIF has been generated from an entry in the Cambridge
# Structural Database, then it will include bibliographic, chemical,
# crystal, experimental, refinement or atomic coordinate data resulting
# from the CCDC's data processing and validation procedures.
#
#######################################################################

data_CSD_CIF_GIFSOE
_audit_creation_date 2007-09-03
_audit_creation_method CSD-ConQuest-V1
_database_code_CSD GIFSOE
_database_code_depnum_ccdc_archive 'CCDC 616835'
_chemical_formula_sum 'C19 H25 N1 O4'
_chemical_formula_moiety
;
C19 H25 N1 O4
;
_journal_coden_Cambridge 692
_journal_volume 2007
_journal_year 2007
_journal_page_first 1517
_journal_name_full 'Synthesis '
loop_
_publ_author_name
"A.Woschek"
"M.Mahout"
"K.Mereiter"
"F.Hammerschmidt"
_chemical_name_systematic
;
N-Ethoxycarbonyloxy-2-n-heptyl-4(1H)-quinolone
;
_chemical_melting_point 431.15
_cell_volume   3521.318
_exptl_crystal_colour 'colorless'
_exptl_crystal_density_diffrn 1.25
_exptl_special_details
;
Melting point range 431.15-432.15K
P-1 polymorph

;
_exptl_crystal_description 'oval'
_diffrn_ambient_temperature 100
#These two values have been output from a single CSD field.
_refine_ls_R_factor_gt 0.0564
_refine_ls_wR_factor_gt 0.0564
_symmetry_cell_setting triclinic
_symmetry_space_group_name_H-M 'P -1'
_symmetry_Int_Tables_number 2
loop_
_symmetry_equiv_pos_site_id
_symmetry_equiv_pos_as_xyz
1 x,y,z
2 -x,-y,-z
_cell_length_a 8.9481(5)
_cell_length_b 17.9486(10)
_cell_length_c 22.3840(12)
_cell_angle_alpha 85.109(1)
_cell_angle_beta 84.633(1)
_cell_angle_gamma 80.510(1)
_cell_formula_units_Z 8
loop_
_atom_type_symbol
_atom_type_radius_bond
C 0.68
H 0.23
N 0.68
O 0.68
loop_
_atom_site_label
_atom_site_type_symbol
_atom_site_fract_x
_atom_site_fract_y
_atom_site_fract_z
O1 O 0.33508(12) 0.00381(6) 0.12183(4)
O2 O 0.06345(10) 0.04484(5) 0.34670(4)
O3 O -0.09190(11) -0.03588(6) 0.32258(4)
O4 O -0.10337(11) 0.01059(5) 0.41436(4)
N1 N 0.13498(12) 0.03582(6) 0.28896(5)
C1 C 0.25783(14) -0.01989(7) 0.28221(6)
C2 C 0.32525(15) -0.03101(7) 0.22596(6)
H1 H 0.40910 -0.07060 0.22120
C3 C 0.27524(15) 0.01455(8) 0.17331(6)
C4 C 0.14829(15) 0.07670(7) 0.18500(6)
C5 C 0.09536(17) 0.12841(8) 0.13806(6)
H2 H 0.14210 0.12350 0.09840
C6 C -0.02326(18) 0.18612(8) 0.14884(7)
H3 H -0.05710 0.22120 0.11680
C7 C -0.09436(17) 0.19315(8) 0.20708(7)
H4 H -0.17730 0.23270 0.21420
C8 C -0.04518(15) 0.14336(7) 0.25409(6)
H5 H -0.09410 0.14810 0.29340
C9 C 0.07756(14) 0.08573(7) 0.24322(6)
C10 C 0.31114(15) -0.06238(7) 0.33895(6)
H6 H 0.22950 -0.08970 0.35800
H7 H 0.32730 -0.02530 0.36710
C11 C 0.45646(15) -0.11905(7) 0.33070(6)
H8 H 0.53930 -0.09280 0.31130
H9 H 0.44080 -0.15800 0.30420
C12 C 0.50133(15) -0.15681(8) 0.39153(6)
H10 H 0.51990 -0.11750 0.41720
H11 H 0.41550 -0.18040 0.41150
C13 C 0.64190(16) -0.21677(8) 0.38684(6)
H12 H 0.72680 -0.19400 0.36510
H13 H 0.62170 -0.25770 0.36330
C14 C 0.68870(17) -0.25038(8) 0.44846(6)
H14 H 0.72400 -0.21090 0.46940
H15 H 0.59850 -0.26540 0.47260
C15 C 0.81317(16) -0.31849(8) 0.44559(6)
H16 H 0.90140 -0.30450 0.41960
H17 H 0.77590 -0.35930 0.42700
C16 C 0.8643(2) -0.34799(10) 0.50714(7)
H18 H 0.94460 -0.39190 0.50300
H19 H 0.77780 -0.36290 0.53280
H20 H 0.90350 -0.30810 0.52540
C17 C -0.05262(14) 0.00128(7) 0.35804(6)
C18 C -0.23031(16) -0.03002(8) 0.43576(6)
H21 H -0.20030 -0.08500 0.43120
H22 H -0.31920 -0.01130 0.41240
C19 C -0.26879(19) -0.01556(10) 0.50074(7)
H23 H -0.35330 -0.04180 0.51680
H24 H -0.29840 0.03900 0.50460
H25 H -0.17990 -0.03440 0.52330
O5 O 0.47202(12) 0.08675(6) 0.37333(4)
O6 O 0.4162(1) 0.21859(5) 0.14699(4)
O7 O 0.57386(11) 0.29825(6) 0.17095(4)
O8 O 0.46889(11) 0.30701(5) 0.08166(4)
N2 N 0.43102(12) 0.18491(6) 0.20526(5)
C20 C 0.54098(14) 0.12323(7) 0.21343(6)
C21 C 0.55655(15) 0.09056(7) 0.27028(6)
H26 H 0.63570 0.04900 0.27630
C22 C 0.45827(15) 0.11629(7) 0.32163(6)
C23 C 0.33673(15) 0.18004(7) 0.30840(6)
C24 C 0.22860(16) 0.20810(8) 0.35392(6)
H27 H 0.23320 0.18530 0.39370
C25 C 0.11622(16) 0.26797(9) 0.34177(7)
H28 H 0.04360 0.28620 0.37300
C26 C 0.10890(16) 0.30211(8) 0.28326(7)
H29 H 0.03150 0.34380 0.27520
C27 C 0.21245(15) 0.27602(8) 0.23735(6)
H30 H 0.20700 0.29940 0.19780
C28 C 0.32628(14) 0.21432(7) 0.24984(6)
C29 C 0.63249(15) 0.09551(7) 0.15781(6)
H31 H 0.68990 0.13560 0.13970
H32 H 0.56170 0.08730 0.12840
C30 C 0.74410(15) 0.02277(7) 0.16788(6)
H33 H 0.68820 -0.01810 0.18570
H34 H 0.81700 0.03050 0.19650
C31 C 0.83042(16) -0.00070(7) 0.10879(6)
H35 H 0.75670 -0.00900 0.08070
H36 H 0.88300 0.04120 0.09070
C32 C 0.94674(15) -0.07210(8) 0.11583(6)
H37 H 0.89550 -0.11340 0.13610
H38 H 1.02450 -0.06290 0.14180
C33 C 1.02497(16) -0.09719(8) 0.05577(6)
H39 H 0.94820 -0.11070 0.03130
H40 H 1.06770 -0.05410 0.03390
C34 C 1.15129(16) -0.16421(8) 0.06201(6)
H41 H 1.11220 -0.20490 0.08860
H42 H 1.23500 -0.14860 0.08150
C35 C 1.21389(19) -0.19538(9) 0.00200(7)
H43 H 1.29500 -0.23840 0.00870
H44 H 1.25480 -0.15570 -0.02420
H45 H 1.13220 -0.21220 -0.01710
C36 C 0.49711(14) 0.27889(7) 0.13623(6)
C37 C 0.54384(16) 0.37259(8) 0.06026(6)
H46 H 0.65530 0.35920 0.06200
H47 H 0.50660 0.41540 0.08570
C38 C 0.50547(19) 0.39386(9) -0.00349(6)
H48 H 0.55340 0.43750 -0.01940
H49 H 0.39490 0.40690 -0.00450
H50 H 0.54300 0.35100 -0.02810
O9 O 0.32119(11) 0.52068(6) 0.12745(4)
O10 O 0.07726(10) 0.53054(5) 0.35864(4)
O11 O -0.08764(11) 0.46110(5) 0.32523(4)
O12 O -0.10458(10) 0.49837(5) 0.42015(4)
N3 N 0.14524(12) 0.53071(6) 0.29978(5)
C39 C 0.26754(14) 0.47646(7) 0.28692(6)
C40 C 0.32702(14) 0.47303(7) 0.22875(6)
H51 H 0.41160 0.43510 0.21970
C41 C 0.26766(14) 0.52418(7) 0.18036(6)
C42 C 0.13852(14) 0.58229(7) 0.19815(5)
C43 C 0.07308(15) 0.63707(7) 0.15571(6)
H52 H 0.11370 0.63720 0.11490
C44 C -0.04900(15) 0.69055(7) 0.17226(6)
H53 H -0.09250 0.72710 0.14300
C45 C -0.10939(15) 0.69112(7) 0.23243(6)
H54 H -0.19410 0.72800 0.24360
C46 C -0.04692(15) 0.63871(7) 0.27548(6)
H55 H -0.08760 0.63940 0.31620
C47 C 0.07762(14) 0.58429(7) 0.25831(5)
C48 C 0.32971(14) 0.42687(7) 0.33938(6)
H56 H 0.25060 0.39750 0.35780
H57 H 0.35110 0.45960 0.36990
C49 C 0.47419(15) 0.37177(7) 0.32349(6)
H58 H 0.45490 0.34030 0.29170
H59 H 0.55550 0.40090 0.30710
C50 C 0.52883(15) 0.32006(8) 0.37739(6)
H60 H 0.44750 0.29120 0.39420
H61 H 0.55050 0.35120 0.40900
C51 C 0.67206(16) 0.26486(8) 0.35962(6)
H62 H 0.65100 0.23700 0.32580
H63 H 0.75360 0.29450 0.34470
C52 C 0.73102(17) 0.20726(8) 0.40943(6)
H64 H 0.64960 0.17750 0.42450
H65 H 0.81750 0.17170 0.39210
C53 C 0.78267(16) 0.24161(8) 0.46235(6)
H66 H 0.69230 0.26230 0.48840
H67 H 0.83680 0.28410 0.44710
C54 C 0.88742(18) 0.18375(9) 0.49979(7)
H68 H 0.91800 0.20820 0.53320
H69 H 0.97790 0.16380 0.47440
H70 H 0.83350 0.14210 0.51580
C55 C -0.04732(14) 0.49203(7) 0.36437(5)
C56 C -0.24349(16) 0.46433(8) 0.43532(6)
H71 H -0.22520 0.41070 0.42530
H72 H -0.32710 0.49190 0.41220
C57 C -0.2846(2) 0.46943(12) 0.50108(7)
H73 H -0.37690 0.44710 0.51260
H74 H -0.30290 0.52270 0.51040
H75 H -0.20110 0.44190 0.52350
O13 O 0.47212(12) 0.59386(6) 0.37691(4)
O14 O 0.44132(10) 0.71316(5) 0.14635(4)
O15 O 0.59115(11) 0.79233(5) 0.17711(4)
O16 O 0.52206(11) 0.79617(5) 0.08193(4)
N4 N 0.44258(12) 0.68004(6) 0.20515(4)
C58 C 0.55151(14) 0.61861(7) 0.21669(5)
C59 C 0.56118(14) 0.58932(7) 0.27452(5)
H76 H 0.63680 0.54680 0.28260
C60 C 0.46189(15) 0.61986(7) 0.32409(6)
C61 C 0.34441(14) 0.68410(7) 0.30771(5)
C62 C 0.23548(15) 0.71691(8) 0.35125(6)
H77 H 0.23730 0.69730 0.39200
C63 C 0.12618(16) 0.77712(8) 0.33566(6)
H78 H 0.05270 0.79850 0.36550
C64 C 0.12352(15) 0.80686(7) 0.27573(6)
H79 H 0.04870 0.84880 0.26530
C65 C 0.22787(15) 0.77608(7) 0.23187(6)
H80 H 0.22550 0.79650 0.19130
C66 C 0.33800(14) 0.71410(7) 0.24772(5)
C67 C 0.64664(14) 0.58705(7) 0.16293(6)
H81 H 0.70340 0.62650 0.14300
H82 H 0.57820 0.57540 0.13400
C68 C 0.75959(15) 0.51595(7) 0.17734(6)
H83 H 0.70330 0.47550 0.19560
H84 H 0.82660 0.52680 0.20720
C69 C 0.85701(15) 0.48804(7) 0.12163(6)
H85 H 0.79030 0.47660 0.09190
H86 H 0.91280 0.52860 0.10310
C70 C 0.97057(16) 0.41729(8) 0.13681(6)
H87 H 0.91330 0.37610 0.15270
H88 H 1.03020 0.42800 0.16930
C71 C 1.08081(16) 0.38915(9) 0.08439(7)
H89 H 1.13840 0.43020 0.06850
H90 H 1.15470 0.34610 0.09960
C72 C 1.00533(16) 0.36403(8) 0.03307(6)
H91 H 0.95820 0.40930 0.00920
H92 H 0.92340 0.33560 0.05000
C73 C 1.11717(19) 0.31437(9) -0.00820(7)
H93 H 1.06350 0.29970 -0.04040
H94 H 1.16260 0.26890 0.01500
H95 H 1.19740 0.34270 -0.02570
C74 C 0.52781(14) 0.77141(7) 0.13861(5)
C75 C 0.59911(16) 0.86191(8) 0.06436(6)
H96 H 0.71000 0.84770 0.06720
H97 H 0.56070 0.90320 0.09120
C76 C 0.56615(19) 0.88721(9) 0.00094(7)
H98 H 0.61590 0.93110 -0.01240
H99 H 0.45610 0.90120 -0.00130
H100 H 0.60480 0.84590 -0.02510
#END
