
#######################################################################
#
#                 Cambridge Crystallographic Data Centre
#                                CCDC
#
#######################################################################
#
# If this CIF has been generated from an entry in the Cambridge
# Structural Database, then it will include bibliographic, chemical,
# crystal, experimental, refinement or atomic coordinate data resulting
# from the CCDC's data processing and validation procedures.
#
#######################################################################

data_CSD_CIF_GIFYEC
_audit_creation_date 2018-04-25
_audit_creation_method CSD-ConQuest-V1
_database_code_CSD GIFYEC
_database_code_depnum_ccdc_archive 'CCDC 1813383'
_chemical_formula_sum 'C14 H10 N2 O2'
_chemical_formula_moiety
;
C14 H10 N2 O2
;
_journal_coden_Cambridge 182
_journal_volume 54
_journal_year 2018
_journal_page_first 4822
_journal_name_full 'Chem.Commun. '
loop_
_publ_author_name
"Lijing Zhou"
"Hongji Li"
"Wenge Zhang"
"Lei Wang"
_chemical_name_systematic
;
5-phenoxy-3-phenyl-1,2,4-oxadiazole
;
_cell_volume   1162.709
_exptl_crystal_density_diffrn 1.361
_diffrn_ambient_temperature 289
#These two values have been output from a single CSD field.
_refine_ls_R_factor_gt 0.0438
_refine_ls_wR_factor_gt 0.0438
_symmetry_cell_setting monoclinic
_symmetry_space_group_name_H-M 'P 21/c'
_symmetry_Int_Tables_number 14
loop_
_symmetry_equiv_pos_site_id
_symmetry_equiv_pos_as_xyz
1 x,y,z
2 -x,1/2+y,1/2-z
3 -x,-y,-z
4 x,-1/2-y,-1/2+z
_cell_length_a 14.660(3)
_cell_length_b 5.7506(12)
_cell_length_c 14.623(3)
_cell_angle_alpha 90
_cell_angle_beta 109.41(3)
_cell_angle_gamma 90
_cell_formula_units_Z 4
loop_
_atom_type_symbol
_atom_type_radius_bond
C 0.68
H 0.23
N 0.68
O 0.68
loop_
_atom_site_label
_atom_site_type_symbol
_atom_site_fract_x
_atom_site_fract_y
_atom_site_fract_z
O1 O 0.81262(7) 0.6921(2) 0.38449(8)
O2 O 0.68333(7) 0.48002(18) 0.37214(7)
N1 N 0.86523(9) 0.8806(3) 0.44227(10)
N2 N 0.73414(7) 0.79127(18) 0.48396(7)
C1 C 0.80863(10) 1.1130(2) 0.64871(10)
H1 H 0.76520 0.99870 0.65270
C2 C 0.83785(11) 1.2824(3) 0.71956(11)
H2 H 0.81430 1.28120 0.77130
C3 C 0.90165(11) 1.4528(3) 0.71372(12)
H3 H 0.92100 1.56680 0.76140
C4 C 0.93671(11) 1.4542(3) 0.63740(13)
H4 H 0.97960 1.56980 0.63350
C5 C 0.90868(10) 1.2851(3) 0.56650(11)
H5 H 0.93300 1.28640 0.51530
C6 C 0.84391(8) 1.1129(2) 0.57166(9)
C7 C 0.56049(10) 0.2754(2) 0.41322(9)
H6 H 0.60470 0.15740 0.44000
C8 C 0.4657(1) 0.2571(2) 0.40964(9)
H7 H 0.44550 0.12530 0.43440
C9 C 0.40056(10) 0.4320(2) 0.36984(9)
H8 H 0.33670 0.41820 0.36780
C10 C 0.43019(9) 0.6282(2) 0.33286(9)
H9 H 0.38610 0.74620 0.30590
C11 C 0.52472(9) 0.6501(2) 0.33561(8)
H10 H 0.54510 0.78150 0.31080
C12 C 0.58796(9) 0.4725(2) 0.37610(8)
C13 C 0.81483(8) 0.9292(2) 0.49799(9)
C14 C 0.73890(9) 0.6561(2) 0.41595(9)
#END
