
#######################################################################
#
#                 Cambridge Crystallographic Data Centre
#                                CCDC
#
#######################################################################
#
# If this CIF has been generated from an entry in the Cambridge
# Structural Database, then it will include bibliographic, chemical,
# crystal, experimental, refinement or atomic coordinate data resulting
# from the CCDC's data processing and validation procedures.
#
#######################################################################

data_CSD_CIF_GIGLEN
_audit_creation_date 1989-06-23
_audit_creation_method CSD-ConQuest-V1
_database_code_CSD GIGLEN
_database_code_depnum_ccdc_archive 'CCDC 1167663'
_chemical_formula_sum 'C26 H20 N6 O10'
_chemical_formula_moiety
;
C26 H20 N6 O10
;
_journal_coden_Cambridge 24
_journal_volume 29
_journal_year 1988
_journal_page_first 3331
_journal_name_full 'Tetrahedron Lett. '
loop_
_publ_author_name
"R.N.Butler"
"D.Cunningham"
"E.G.Marren"
"P.McArdle"
_chemical_name_systematic
;
1-(4-Cyanobutyl)-4,12-bis(4-nitrophenyl)-7,9-dioxa-4,8,12-triazatetracyclo(6.6
.0.0^2,6^.0^10,14^)tetradeca-3,5,11,13-tetraone
;
_chemical_melting_point 451.15
_cell_volume   5906.248
_exptl_special_details
;
Melting point range 451.15-453.15K

;
_diffrn_ambient_temperature ?
_diffrn_special_details
;
The study was carried out at room temperature,in the range 283-303K

;
#These two values have been output from a single CSD field.
_refine_ls_R_factor_gt 0.1372
_refine_ls_wR_factor_gt 0.1372
_symmetry_cell_setting monoclinic
_symmetry_space_group_name_H-M 'C 2/c'
_symmetry_Int_Tables_number 15
loop_
_symmetry_equiv_pos_site_id
_symmetry_equiv_pos_as_xyz
1 x,y,z
2 1/2+x,1/2+y,z
3 -x,y,1/2-z
4 1/2-x,1/2+y,1/2-z
5 -x,-y,-z
6 -1/2-x,-1/2-y,-z
7 x,-y,-1/2+z
8 -1/2+x,-1/2-y,-1/2+z
_cell_length_a 27.524(6)
_cell_length_b 10.35(3)
_cell_length_c 20.745(5)
_cell_angle_alpha 90
_cell_angle_beta 91.958(4)
_cell_angle_gamma 90
_cell_formula_units_Z 8
loop_
_atom_type_symbol
_atom_type_radius_bond
C 0.68
H 0.23
N 0.68
O 0.68
loop_
_atom_site_label
_atom_site_type_symbol
_atom_site_fract_x
_atom_site_fract_y
_atom_site_fract_z
O1 O 0.2244(3) 0.2778(7) 0.2291(3)
O2 O 0.2761(3) 0.4511(8) 0.2300(3)
O3 O -0.0663(4) 0.3636(15) 0.4489(6)
O4 O -0.0412(4) 0.5640(13) 0.4579(5)
O5 O 0.1481(3) 0.1921(8) 0.3178(4)
O6 O 0.0870(3) 0.5109(8) 0.1879(3)
O7 O 0.3499(3) 0.2681(9) 0.1806(4)
O8 O 0.2087(3) 0.2511(8) 0.0598(4)
O9 O 0.3037(4) -0.3505(9) 0.0437(4)
O10 O 0.3769(4) -0.2900(9) 0.0251(5)
N1 N 0.2269(4) 0.4222(9) 0.2360(4)
N2 N -0.0397(5) 0.4531(17) 0.4363(5)
N3 N 0.1082(3) 0.3573(8) 0.2619(4)
N4 N 0.2854(3) 0.2393(8) 0.1088(4)
N5 N 0.3349(6) -0.270(1) 0.0420(5)
N6 N 0.0843(6) 1.0575(16) 0.1856(8)
C1 C 0.1744(4) 0.2579(9) 0.2118(4)
C2 C 0.1579(4) 0.3733(9) 0.1711(4)
C3 C 0.2019(4) 0.4619(10) 0.1739(4)
C4 C 0.2415(4) 0.4315(10) 0.1240(4)
C5 C 0.2893(4) 0.4344(10) 0.1644(5)
C6 C 0.0005(5) 0.4273(15) 0.3891(6)
C7 C 0.0041(5) 0.3067(15) 0.3664(6)
C8 C 0.0408(4) 0.2854(12) 0.3241(6)
C9 C 0.0707(4) 0.3826(11) 0.3058(5)
C10 C 0.0665(4) 0.5010(12) 0.3306(5)
C11 C 0.0302(5) 0.5224(14) 0.3745(6)
C12 C 0.1431(4) 0.2620(9) 0.2697(5)
C13 C 0.1143(4) 0.4225(10) 0.2059(5)
C14 C 0.3131(5) 0.3070(11) 0.1524(5)
C15 C 0.2411(4) 0.2998(10) 0.0917(4)
C16 C 0.2971(4) 0.1103(10) 0.0897(5)
C17 C 0.2673(5) 0.0106(12) 0.1065(6)
C18 C 0.2783(5) -0.1135(12) 0.0882(6)
C19 C 0.3217(5) -0.1354(11) 0.0594(5)
C20 C 0.3517(4) -0.0382(11) 0.0442(5)
C21 C 0.3395(4) 0.0854(11) 0.0597(5)
C22 C 0.1929(4) 0.6063(11) 0.1808(5)
C23 C 0.1684(4) 0.6692(9) 0.1198(5)
C24 C 0.1524(5) 0.8102(11) 0.1326(5)
C25 C 0.1038(5) 0.8195(12) 0.1649(7)
C26 C 0.0924(6) 0.9529(16) 0.1768(8)
H1 H 0.17100 0.16600 0.18800
H2 H 0.14700 0.35900 0.12100
H3 H 0.23600 0.50000 0.08500
H4 H 0.31400 0.51100 0.15300
H5 H -0.02000 0.23100 0.38000
H6 H 0.04600 0.19000 0.30500
H7 H 0.09100 0.57800 0.31700
H8 H 0.02600 0.61600 0.39600
H9 H 0.23500 0.02900 0.13400
H10 H 0.25300 -0.19200 0.09600
H11 H 0.38500 -0.05800 0.02000
H12 H 0.36400 0.16400 0.04800
H13 H 0.17000 0.62100 0.22100
H14 H 0.22700 0.65300 0.19000
H15 H 0.13700 0.61300 0.10500
H16 H 0.19400 0.66900 0.08100
H17 H 0.15000 0.86100 0.08700
H18 H 0.18000 0.85600 0.16300
H19 H 0.10600 0.76800 0.21000
H20 H 0.07600 0.77800 0.13400
#END
