
#######################################################################
#
#                 Cambridge Crystallographic Data Centre
#                                CCDC
#
#######################################################################
#
# If this CIF has been generated from an entry in the Cambridge
# Structural Database, then it will include bibliographic, chemical,
# crystal, experimental, refinement or atomic coordinate data resulting
# from the CCDC's data processing and validation procedures.
#
#######################################################################

data_CSD_CIF_GIGQUI
_audit_creation_date 2001-04-02
_audit_creation_method CSD-ConQuest-V1
_database_code_CSD GIGQUI
_chemical_formula_sum 'C9 H9 N3 O9'
_chemical_formula_moiety
;
C9 H9 N3 O9
;
_journal_coden_Cambridge 456
_journal_volume 73
_journal_year 1999
_journal_page_first 1895
_journal_name_full 'Pol.J.Chem. '
loop_
_publ_author_name
"R.Anulewicz-Ostrowska"
"T.M.Krygowski"
"M.K.Cyranski"
"M.P.Matuszewska"
_chemical_name_systematic
;
1,3,5-Trimethoxy-2,4,6-trinitrobenzene
;
_chemical_melting_point 346.15
_cell_volume    633.813
_exptl_crystal_colour 'pale yellow'
_exptl_crystal_density_diffrn 1.589
_exptl_special_details
;
Melting point range 346.15-348.15K

;
_exptl_crystal_description 'prism'
_exptl_crystal_preparation 'toluene'
_diffrn_ambient_temperature ?
_diffrn_special_details
;
The study was carried out at room temperature,in the range 283-303K

;
#These two values have been output from a single CSD field.
_refine_ls_R_factor_gt 0.0629
_refine_ls_wR_factor_gt 0.0629
_symmetry_cell_setting triclinic
_symmetry_space_group_name_H-M 'P -1'
_symmetry_Int_Tables_number 2
loop_
_symmetry_equiv_pos_site_id
_symmetry_equiv_pos_as_xyz
1 x,y,z
2 -x,-y,-z
_cell_length_a 7.507(2)
_cell_length_b 9.218(2)
_cell_length_c 10.426(2)
_cell_angle_alpha 108.58(3)
_cell_angle_beta 90.24(3)
_cell_angle_gamma 110.77(3)
_cell_formula_units_Z 2
loop_
_atom_type_symbol
_atom_type_radius_bond
C 0.68
N 0.68
O 0.68
loop_
_atom_site_label
_atom_site_type_symbol
_atom_site_fract_x
_atom_site_fract_y
_atom_site_fract_z
C1 C 0.4003(4) 0.3455(3) 0.6987(2)
C2 C 0.5725(4) 0.3966(3) 0.7810(2)
C3 C 0.6994(3) 0.5612(3) 0.8317(2)
C4 C 0.6448(3) 0.6749(3) 0.8000(2)
C5 C 0.4733(3) 0.6323(3) 0.7199(2)
C6 C 0.3544(3) 0.4659(3) 0.6699(2)
O1 O 0.2806(3) 0.1854(2) 0.6586(2)
C7 C 0.2774(6) 0.0866(4) 0.5207(4)
O2 O 0.8709(3) 0.6012(3) 0.9017(2)
C8 C 0.8974(5) 0.6845(5) 1.0458(3)
O3 O 0.4356(3) 0.7501(2) 0.6898(2)
C9 C 0.2860(6) 0.7964(5) 0.7508(5)
N1 N 0.6199(3) 0.2749(3) 0.8197(3)
O4 O 0.6231(4) 0.2887(3) 0.9397(3)
O5 O 0.6540(4) 0.1702(3) 0.7319(3)
N2 N 0.7748(3) 0.8499(3) 0.8480(2)
O6 O 0.7417(5) 0.9412(3) 0.9453(3)
O7 O 0.9067(4) 0.8900(3) 0.7860(3)
N3 N 0.1739(3) 0.4156(3) 0.5830(2)
O8 O 0.0255(3) 0.3557(4) 0.6245(3)
O9 O 0.1874(4) 0.4387(4) 0.4752(2)
#END
