
#######################################################################
#
#                 Cambridge Crystallographic Data Centre
#                                CCDC
#
#######################################################################
#
# If this CIF has been generated from an entry in the Cambridge
# Structural Database, then it will include bibliographic, chemical,
# crystal, experimental, refinement or atomic coordinate data resulting
# from the CCDC's data processing and validation procedures.
#
#######################################################################

data_CSD_CIF_GIHDAC
_audit_creation_date 1989-07-11
_audit_creation_method CSD-ConQuest-V1
_database_code_CSD GIHDAC
_chemical_formula_sum 'C24 H23 N5 O6'
_chemical_formula_moiety
;
C24 H23 N5 O6
;
_journal_coden_Cambridge 93
_journal_volume 296
_journal_year 1987
_journal_page_first 605
_journal_name_full 'Dokl.Akad.Nauk SSSR(Russ.)(Proc.Nat.Acad.Sci.USSR) '
loop_
_publ_author_name
"A.A.Dvorkin"
"S.A.Andronati"
"A.S.Yavorskii"
"T.Sh.Gifeisman"
"Yu.A.Simonov"
"V.I.Pavlovskii"
"T.I.Malinovskii"
_chemical_name_systematic
;
6-Methyl-2,3-dihydro-3-(2',4'-dinitroanilino)-4-phenyl-4-isopropoxyquinazolin-
2-one
;
_chemical_melting_point 486.15
_cell_volume   2319.008
_exptl_crystal_colour 'bright yellow'
_exptl_crystal_density_diffrn 1.364
_exptl_special_details
;
y(O321) is 0.6527 not 0.6257

;
_diffrn_ambient_temperature ?
_diffrn_special_details
;
The study was carried out at room temperature,in the range 283-303K

;
#These two values have been output from a single CSD field.
_refine_ls_R_factor_gt 0.076
_refine_ls_wR_factor_gt 0.076
_symmetry_cell_setting monoclinic
_symmetry_space_group_name_H-M 'P 1 1 21/n'
_symmetry_Int_Tables_number 14
loop_
_symmetry_equiv_pos_site_id
_symmetry_equiv_pos_as_xyz
1 x,y,z
2 1/2-x,1/2-y,1/2+z
3 -x,-y,-z
4 -1/2+x,-1/2+y,-1/2-z
_cell_length_a 22.186(17)
_cell_length_b 11.543(8)
_cell_length_c 9.059(7)
_cell_angle_alpha 90
_cell_angle_beta 90
_cell_angle_gamma 91.63(2)
_cell_formula_units_Z 4
loop_
_atom_type_symbol
_atom_type_radius_bond
C 0.68
H 0.23
N 0.68
O 0.68
loop_
_atom_site_label
_atom_site_type_symbol
_atom_site_fract_x
_atom_site_fract_y
_atom_site_fract_z
N1 N 0.0711(1) 0.0143(2) 0.1150(2)
C1 C 0.0526(1) 0.1247(2) 0.1100(3)
N2 N 0.0887(1) 0.2046(2) 0.1872(2)
C2 C 0.1278(1) 0.1774(2) 0.3169(2)
C3 C 0.1451(1) 0.0519(2) 0.3064(2)
C4 C 0.1165(1) -0.0240(2) 0.2083(3)
C5 C 0.1313(2) -0.1404(2) 0.2064(4)
C6 C 0.1726(2) -0.1808(3) 0.3043(4)
C7 C 0.2016(1) -0.1075(2) 0.4068(3)
C8 C 0.1875(1) 0.0085(2) 0.4047(3)
C9 C 0.2448(2) -0.1537(3) 0.5197(5)
O1 O 0.0091(1) 0.1541(2) 0.0375(2)
N3 N 0.0683(1) 0.3163(2) 0.1907(2)
C10 C 0.0855(1) 0.3949(2) 0.0872(3)
C11 C 0.0667(1) 0.5107(2) 0.0898(3)
C12 C 0.0814(1) 0.5877(2) -0.0217(3)
C13 C 0.1163(1) 0.5525(2) -0.1371(3)
C14 C 0.1371(1) 0.4399(3) -0.1433(3)
C15 C 0.1223(1) 0.3634(2) -0.0342(3)
N4 N 0.0299(1) 0.5544(2) 0.2103(3)
O2 O 0.0132(1) 0.6527(2) 0.2031(3)
O3 O 0.0152(1) 0.4893(2) 0.3120(2)
N5 N 0.1327(1) 0.6349(3) -0.2542(3)
O4 O 0.1226(1) 0.7365(2) -0.2340(3)
O5 O 0.1551(2) 0.5971(3) -0.3657(3)
C16 C 0.1824(1) 0.2624(2) 0.3151(2)
C17 C 0.2318(1) 0.2390(2) 0.2294(3)
C18 C 0.2821(1) 0.3142(3) 0.2298(3)
C19 C 0.2820(2) 0.4138(3) 0.3111(4)
C20 C 0.2320(1) 0.4404(3) 0.3950(4)
C21 C 0.1822(1) 0.3643(2) 0.3975(3)
C22 C 0.0458(1) 0.1312(2) 0.4955(3)
C23 C -0.0118(1) 0.1950(3) 0.4657(4)
C24 C 0.0549(2) 0.1057(3) 0.6569(3)
O6 O 0.0978(1) 0.2028(1) 0.4512(2)
H1 H 0.0523(12) -0.0412(21) 0.0634(26)
H2 H 0.0429(13) 0.3410(22) 0.2673(29)
#END
