
#######################################################################
#
#                 Cambridge Crystallographic Data Centre
#                                CCDC
#
#######################################################################
#
# If this CIF has been generated from an entry in the Cambridge
# Structural Database, then it will include bibliographic, chemical,
# crystal, experimental, refinement or atomic coordinate data resulting
# from the CCDC's data processing and validation procedures.
#
#######################################################################

data_CSD_CIF_GIHFEI
_audit_creation_date 1989-06-23
_audit_creation_method CSD-ConQuest-V1
_database_code_CSD GIHFEI
_chemical_formula_sum 'C14 H4 N4 O7'
_chemical_formula_moiety
;
C14 H4 N4 O7
;
_journal_coden_Cambridge 444
_journal_volume 57
_journal_year 1987
_journal_page_first 415
_journal_name_full 'Zh.Obshch.Khim.(Russ.)(Russ.J.Gen.Chem.) '
loop_
_publ_author_name
"O.V.Semidetko"
"L.A.Chetkina"
"V.K.Bel'skii"
"D.D.Mysyk"
"I.F.Perepichka"
"A.M.Andrievskii"
_chemical_name_systematic
;
2,5,7-Trinitro-4-cyanofluoren-9-one
;
_cell_volume   1329.583
_exptl_crystal_colour 'yellow'
_exptl_crystal_density_diffrn 1.7
_diffrn_ambient_temperature ?
_diffrn_special_details
;
The study was carried out at room temperature,in the range 283-303K

;
#These two values have been output from a single CSD field.
_refine_ls_R_factor_gt 0.044
_refine_ls_wR_factor_gt 0.044
_symmetry_cell_setting monoclinic
_symmetry_space_group_name_H-M 'P 1 1 21/n'
_symmetry_Int_Tables_number 14
loop_
_symmetry_equiv_pos_site_id
_symmetry_equiv_pos_as_xyz
1 x,y,z
2 1/2-x,1/2-y,1/2+z
3 -x,-y,-z
4 -1/2+x,-1/2+y,-1/2-z
_cell_length_a 13.835(2)
_cell_length_b 16.631(2)
_cell_length_c 6.261(1)
_cell_angle_alpha 90
_cell_angle_beta 90
_cell_angle_gamma 112.64(1)
_cell_formula_units_Z 4
loop_
_atom_type_symbol
_atom_type_radius_bond
C 0.68
H 0.23
N 0.68
O 0.68
loop_
_atom_site_label
_atom_site_type_symbol
_atom_site_fract_x
_atom_site_fract_y
_atom_site_fract_z
O1 O 0.5409(2) 0.0617(1) 0.2873(3)
O2 O 0.7063(2) 0.2351(2) 1.0008(4)
O3 O 0.6101(2) 0.2850(2) 1.1835(4)
O4 O 0.1300(2) 0.0526(1) 0.7297(4)
O5 O 0.0608(2) 0.0947(1) 0.4638(4)
O6 O 0.0628(2) -0.1277(2) -0.0820(4)
O7 O 0.2136(2) -0.1001(2) -0.2298(4)
N1 N 0.6255(2) 0.2454(2) 1.0319(4)
N2 N 0.2185(2) 0.2404(2) 0.8015(4)
N3 N 0.1247(2) 0.0685(2) 0.5366(4)
N4 N 0.1584(2) -0.0914(2) -0.0887(5)
C1 C 0.5560(2) 0.1626(2) 0.7037(5)
C2 C 0.5394(2) 0.2067(2) 0.8776(2)
C3 C 0.4480(2) 0.2194(2) 0.9075(5)
C4 C 0.3645(2) 0.1832(2) 0.7650(4)
C5 C 0.1959(2) 0.0492(2) 0.3917(4)
C6 C 0.1490(2) -0.0043(2) 0.2191(5)
C7 C 0.2100(2) -0.0322(2) 0.0889(4)
C8 C 0.3162(2) -0.0074(2) 0.1190(5)
C9 C 0.4692(2) 0.0753(2) 0.3688(4)
C10 C 0.4722(2) 0.1245(2) 0.5686(4)
C11 C 0.3744(2) 0.1305(2) 0.5991(4)
C12 C 0.3021(2) 0.0767(2) 0.4310(4)
C13 C 0.3596(2) 0.0457(2) 0.2906(4)
C14 C 0.2788(2) 0.2106(2) 0.7877(5)
H1 H 0.622(2) 0.157(2) 0.685(4)
H2 H 0.444(2) 0.253(2) 1.030(5)
H3 H 0.073(2) -0.025(2) 0.196(4)
H4 H 0.356(2) -0.025(2) 0.039(4)
#END
