
#######################################################################
#
#                 Cambridge Crystallographic Data Centre
#                                CCDC
#
#######################################################################
#
# If this CIF has been generated from an entry in the Cambridge
# Structural Database, then it will include bibliographic, chemical,
# crystal, experimental, refinement or atomic coordinate data resulting
# from the CCDC's data processing and validation procedures.
#
#######################################################################

data_CSD_CIF_GIHKAJ
_audit_creation_date 1989-06-23
_audit_creation_method CSD-ConQuest-V1
_database_code_CSD GIHKAJ
_chemical_formula_sum 'C13 H15 N5 O1'
_chemical_formula_moiety
;
C13 H15 N5 O1
;
_journal_coden_Cambridge 361
_journal_year 1987
_journal_page_first 1807
_journal_name_full 'Nippon Kagaku Kaishi(Jap.)(J.Chem.Soc.Jpn.) '
loop_
_publ_author_name
"M.Yasumoto"
"K.Yanagiya"
"I.Shibuya"
"M.Goto"
_chemical_name_systematic
;
5-(1-Amino-1-(1-pyrrolidinyl)methyleneamino)-3-phenyl-1,2,4-oxadiazole
;
_chemical_melting_point 493.15
_cell_volume   2552.810
_exptl_crystal_density_diffrn 1.34
_exptl_special_details
;
x(N2) is 0.8283 not 0.8233

;
_diffrn_ambient_temperature ?
_diffrn_special_details
;
The study was carried out at room temperature,in the range 283-303K

;
#These two values have been output from a single CSD field.
_refine_ls_R_factor_gt 0.054
_refine_ls_wR_factor_gt 0.054
_symmetry_cell_setting orthorhombic
_symmetry_space_group_name_H-M 'P b c a'
_symmetry_Int_Tables_number 61
loop_
_symmetry_equiv_pos_site_id
_symmetry_equiv_pos_as_xyz
1 x,y,z
2 1/2-x,1/2+y,z
3 x,1/2-y,1/2+z
4 1/2-x,-y,1/2+z
5 -x,-y,-z
6 -1/2+x,-1/2-y,-z
7 -x,-1/2+y,-1/2-z
8 -1/2+x,y,-1/2-z
_cell_length_a 10.889(1)
_cell_length_b 10.367(1)
_cell_length_c 22.614(1)
_cell_angle_alpha 90
_cell_angle_beta 90
_cell_angle_gamma 90
_cell_formula_units_Z 8
loop_
_atom_type_symbol
_atom_type_radius_bond
C 0.68
N 0.68
O 0.68
loop_
_atom_site_label
_atom_site_type_symbol
_atom_site_fract_x
_atom_site_fract_y
_atom_site_fract_z
N1 N 0.6788(3) 0.5505(3) -0.0381(1)
N2 N 0.8283(3) 0.4564(3) 0.0172(1)
N3 N 0.7711(3) 0.6729(3) 0.0337(2)
N4 N 0.9337(3) 0.5434(3) 0.1039(1)
N5 N 1.0548(3) 0.3687(3) 0.1169(2)
O1 O 0.9790(2) 0.3518(2) 0.0663(1)
C1 C 0.5919(4) 0.6512(4) -0.0554(2)
C2 C 0.4982(5) 0.5795(5) -0.0918(2)
C3 C 0.5700(5) 0.4729(6) -0.1202(2)
C4 C 0.6658(4) 0.4332(4) -0.0745(2)
C5 C 0.7602(3) 0.5612(3) 0.0051(1)
C6 C 0.9088(3) 0.4593(3) 0.0616(2)
C7 C 1.0233(3) 0.4824(3) 0.1363(2)
C8 C 1.0776(3) 0.5378(4) 0.1896(2)
C9 C 1.0440(4) 0.6587(4) 0.2088(2)
C10 C 1.0959(4) 0.7122(5) 0.2587(2)
C11 C 1.1817(5) 0.6450(6) 0.2901(2)
C12 C 1.2142(4) 0.5227(6) 0.2729(2)
C13 C 1.1630(4) 0.4682(5) 0.2225(2)
#END
