
#######################################################################
#
#                 Cambridge Crystallographic Data Centre
#                                CCDC
#
#######################################################################
#
# If this CIF has been generated from an entry in the Cambridge
# Structural Database, then it will include bibliographic, chemical,
# crystal, experimental, refinement or atomic coordinate data resulting
# from the CCDC's data processing and validation procedures.
#
#######################################################################

data_CSD_CIF_GIHPUI
_audit_creation_date 1989-04-05
_audit_creation_method CSD-ConQuest-V1
_database_code_CSD GIHPUI
_chemical_formula_sum 'C16 H16 N4 O6'
_chemical_formula_moiety
;
C16 H16 N4 O6
;
_journal_coden_Cambridge 580
_journal_volume 4
_journal_year 1985
_journal_page_first 1941
_journal_name_full 'Polyhedron '
loop_
_publ_author_name
"Kwok W.Chiu"
"P.D.Savage"
"G.Wilkinson"
"D.J.Williams"
_chemical_name_systematic
;
bis(1-Nitroso-2-nitro-1-phenylethane)
;
_chemical_name_common
;
2,2'-Dinitro-1,1'-diphenylazoethane N,N'-dioxide
;
_chemical_melting_point 381.55
_cell_volume    419.708
_exptl_crystal_density_diffrn 1.43
_diffrn_ambient_temperature ?
_diffrn_special_details
;
The study was carried out at room temperature,in the range 283-303K

;
#These two values have been output from a single CSD field.
_refine_ls_R_factor_gt 0.053
_refine_ls_wR_factor_gt 0.053
_symmetry_cell_setting triclinic
_symmetry_space_group_name_H-M 'P -1'
_symmetry_Int_Tables_number 2
loop_
_symmetry_equiv_pos_site_id
_symmetry_equiv_pos_as_xyz
1 x,y,z
2 -x,-y,-z
_cell_length_a 5.494(3)
_cell_length_b 8.742(8)
_cell_length_c 9.507(4)
_cell_angle_alpha 70.20(6)
_cell_angle_beta 78.28(4)
_cell_angle_gamma 89.60(6)
_cell_formula_units_Z 1
loop_
_atom_type_symbol
_atom_type_radius_bond
C 0.68
H 0.23
N 0.68
O 0.68
loop_
_atom_site_label
_atom_site_type_symbol
_atom_site_fract_x
_atom_site_fract_y
_atom_site_fract_z
C1 C -0.2176(6) 0.1512(3) -0.3554(3)
C2 C -0.1388(7) 0.1784(4) -0.5107(4)
C3 C 0.0831(7) 0.2618(4) -0.5899(3)
C4 C 0.2288(6) 0.3200(4) -0.5161(4)
C5 C 0.1510(5) 0.2932(4) -0.3619(3)
C6 C -0.0716(4) 0.2069(3) -0.2809(3)
C7 C -0.1622(4) 0.1754(3) -0.1114(3)
N1 N 0.0161(4) 0.0791(2) -0.0253(2)
O1 O 0.1975(4) 0.1488(2) -0.0013(2)
C8 C -0.1936(5) 0.3309(3) -0.0803(3)
N2 N -0.2981(4) 0.3080(3) 0.0839(3)
O2 O -0.3593(4) 0.1712(3) 0.1740(2)
O3 O -0.3177(4) 0.4299(3) 0.1184(3)
H1 H -0.37630 0.09470 -0.30090
H2 H -0.24030 0.13680 -0.56250
H3 H 0.13710 0.28020 -0.69720
H4 H 0.38530 0.37920 -0.57140
H5 H 0.25230 0.33580 -0.31070
H6 H -0.32170 0.11580 -0.07880
H7 H -0.03310 0.38880 -0.10990
H8 H -0.30320 0.39440 -0.14090
N1A N -0.0161(4) -0.0791(2) 0.0253(2)
C7A C 0.1622(4) -0.1754(3) 0.1114(3)
O1A O -0.1975(4) -0.1488(2) 0.0013(2)
C6A C 0.0716(4) -0.2069(3) 0.2809(3)
C8A C 0.1936(5) -0.3309(3) 0.0803(3)
H6A H 0.32170 -0.11580 0.07880
C1A C 0.2176(6) -0.1512(3) 0.3554(3)
C5A C -0.1510(5) -0.2932(4) 0.3619(3)
N2A N 0.2981(4) -0.3080(3) -0.0839(3)
H7A H 0.03310 -0.38880 0.10990
H8A H 0.30320 -0.39440 0.14090
C2A C 0.1388(7) -0.1784(4) 0.5107(4)
H1A H 0.37630 -0.09470 0.30090
C4A C -0.2288(6) -0.3200(4) 0.5161(4)
H5A H -0.25230 -0.33580 0.31070
O2A O 0.3593(4) -0.1712(3) -0.1740(2)
O3A O 0.3177(4) -0.4299(3) -0.1184(3)
C3A C -0.0831(7) -0.2618(4) 0.5899(3)
H2A H 0.24030 -0.13680 0.56250
H4A H -0.38530 -0.37920 0.57140
H3A H -0.13710 -0.28020 0.69720
#END
