
#######################################################################
#
#                 Cambridge Crystallographic Data Centre
#                                CCDC
#
#######################################################################
#
# If this CIF has been generated from an entry in the Cambridge
# Structural Database, then it will include bibliographic, chemical,
# crystal, experimental, refinement or atomic coordinate data resulting
# from the CCDC's data processing and validation procedures.
#
#######################################################################

data_CSD_CIF_GIHSOF
_audit_creation_date 1989-04-05
_audit_creation_method CSD-ConQuest-V1
_database_code_CSD GIHSOF
_database_code_depnum_ccdc_archive 'CCDC 1167792'
_chemical_formula_sum 'C19 H21 N3 O5'
_chemical_formula_moiety
;
C19 H21 N3 O5
;
_journal_coden_Cambridge 10
_journal_volume 71
_journal_year 1988
_journal_page_first 822
_journal_name_full 'Helv.Chim.Acta '
loop_
_publ_author_name
"H.Fritz"
"J.-M.Henlin"
"A.Riesen"
"T.Tschamber"
"M.Zehnder"
"J.Streith"
_chemical_name_systematic
;
Ethyl 
4-benzoyl-1,2\a,5\a,5a\a,6\b,7-hexahydro-6\a,9-dimethyl-7-oxo-4H-2\b,5\b-ethen
oazetidino(2,1-d)(1,2,5,6) oxatriazepine-1-carboxylate
;
_chemical_melting_point 422.15
_cell_volume   1834.153
_exptl_crystal_colour 'colorless'
_diffrn_ambient_temperature ?
_diffrn_special_details
;
The study was carried out at room temperature,in the range 283-303K

;
#These two values have been output from a single CSD field.
_refine_ls_R_factor_gt 0.049
_refine_ls_wR_factor_gt 0.049
_symmetry_cell_setting monoclinic
_symmetry_space_group_name_H-M 'P 21/n'
_symmetry_Int_Tables_number 14
loop_
_symmetry_equiv_pos_site_id
_symmetry_equiv_pos_as_xyz
1 x,y,z
2 1/2-x,1/2+y,1/2-z
3 -x,-y,-z
4 -1/2+x,-1/2-y,-1/2+z
_cell_length_a 8.170(3)
_cell_length_b 23.568(4)
_cell_length_c 9.964(3)
_cell_angle_alpha 90
_cell_angle_beta 107.06(3)
_cell_angle_gamma 90
_cell_formula_units_Z 4
loop_
_atom_type_symbol
_atom_type_radius_bond
C 0.68
H 0.23
N 0.68
O 0.68
loop_
_atom_site_label
_atom_site_type_symbol
_atom_site_fract_x
_atom_site_fract_y
_atom_site_fract_z
N1 N 0.6660(6) 0.6603(2) 0.3680(5)
N2 N 0.6883(6) 0.6177(2) 0.4671(4)
C1 C 0.5425(8) 0.5798(3) 0.4424(6)
C2 C 0.3783(8) 0.6111(3) 0.4138(7)
C3 C 0.3114(7) 0.6343(2) 0.2853(7)
C4 C 0.4120(7) 0.6217(2) 0.1844(6)
C5 C 0.5795(9) 0.6544(3) 0.2162(6)
C6 C 0.566(1) 0.7201(3) 0.2123(7)
C7 C 0.6352(9) 0.7172(3) 0.3739(7)
O1 O 0.5428(5) 0.5406(2) 0.3285(4)
N3 N 0.4489(6) 0.5605(2) 0.1913(4)
C8 C 0.8565(8) 0.6015(3) 0.5299(6)
O2 O 0.9774(6) 0.6301(2) 0.5305(4)
O3 O 0.8635(5) 0.5506(2) 0.5911(4)
C9 C 1.0354(8) 0.5328(3) 0.6720(7)
C10 C 1.0242(10) 0.4745(3) 0.7247(8)
C11 C 0.1461(10) 0.6660(4) 0.2398(10)
C12 C 0.6761(14) 0.7509(4) 0.1386(10)
O4 O 0.6627(7) 0.7499(2) 0.4700(5)
C13 C 0.3298(7) 0.5240(2) 0.1107(6)
O5 O 0.2124(5) 0.5421(2) 0.0141(4)
C14 C 0.3553(7) 0.4616(3) 0.1379(5)
C15 C 0.5167(9) 0.4375(3) 0.1805(6)
C16 C 0.5369(12) 0.3801(4) 0.1978(8)
C17 C 0.3970(14) 0.3465(4) 0.1781(8)
C18 C 0.2323(12) 0.3692(6) 0.1411(7)
C19 C 0.2107(9) 0.4273(3) 0.1088(6)
H1 H 0.5545(55) 0.5528(20) 0.5243(48)
H2 H 0.31990 0.6143(26) 0.4832(62)
H3 H 0.3336(68) 0.6332(23) 0.0881(56)
H4 H 0.6607(64) 0.6398(20) 0.1743(40)
H5 H 0.4466(64) 0.7304(20) 0.1902(47)
H6 H 1.0806(59) 0.5633(19) 0.7475(49)
H7 H 1.1160(67) 0.5345(22) 0.6084(55)
H8 H 0.9712(72) 0.4467(24) 0.6549(58)
H9 H 0.9405(78) 0.4731(25) 0.7877(65)
H10 H 1.1404(70) 0.4621(23) 0.7620(53)
H11 H 0.1008(81) 0.6723(26) 0.3133(68)
H12 H 0.1466(82) 0.7032(28) 0.1986(67)
H13 H 0.0651(94) 0.6447(30) 0.1606(75)
H14 H 0.6720(69) 0.7921(27) 0.1577(54)
H15 H 0.6367(87) 0.7432(30) 0.0269(79)
H16 H 0.800(12) 0.7426(39) 0.1735(96)
H17 H 0.6151(64) 0.4621(20) 0.1932(47)
H18 H 0.6532(94) 0.3612(30) 0.2236(71)
H19 H 0.3953(74) 0.3078(25) 0.1980(58)
H20 H 0.1417(98) 0.3488(31) 0.1279(75)
H21 H 0.1010(69) 0.4460(23) 0.0634(53)
#END
