
#######################################################################
#
#                 Cambridge Crystallographic Data Centre
#                                CCDC
#
#######################################################################
#
# If this CIF has been generated from an entry in the Cambridge
# Structural Database, then it will include bibliographic, chemical,
# crystal, experimental, refinement or atomic coordinate data resulting
# from the CCDC's data processing and validation procedures.
#
#######################################################################

data_CSD_CIF_GIJBEJ
_audit_creation_date 2018-09-21
_audit_creation_method CSD-ConQuest-V1
_database_code_CSD GIJBEJ
_database_code_depnum_ccdc_archive 'CCDC 1847720'
_chemical_formula_sum 'C17 H12 N2 O4'
_chemical_formula_moiety
;
C17 H12 N2 O4
;
_journal_coden_Cambridge 177
_journal_volume 16
_journal_year 2018
_journal_page_first 6998
_journal_name_full 'Org.Biomol.Chem. '
loop_
_publ_author_name
"Dalong Pan"
"Jinpeng Chu"
"Xianrui Gao"
"Cuiping Wang"
"Qingtao Meng"
"Haijun Chi"
"Yan Dong"
"Chunying Duan"
"Zhiqiang Zhang"
_chemical_name_systematic
;
1-(3-methyl-1H-indol-1-yl)-2-(4-nitrophenyl)ethane-1,2-dione
;
_cell_volume   2935.234
_exptl_crystal_colour 'colorless'
_exptl_crystal_density_diffrn 1.395
_exptl_crystal_description 'Bloc'
_diffrn_ambient_temperature 293
#These two values have been output from a single CSD field.
_refine_ls_R_factor_gt 0.0875
_refine_ls_wR_factor_gt 0.0875
_symmetry_cell_setting monoclinic
_symmetry_space_group_name_H-M 'P 21/n'
_symmetry_Int_Tables_number 14
loop_
_symmetry_equiv_pos_site_id
_symmetry_equiv_pos_as_xyz
1 x,y,z
2 1/2-x,1/2+y,1/2-z
3 -x,-y,-z
4 -1/2+x,-1/2-y,-1/2+z
_cell_length_a 14.457(8)
_cell_length_b 7.977(4)
_cell_length_c 25.613(14)
_cell_angle_alpha 90
_cell_angle_beta 96.424(9)
_cell_angle_gamma 90
_cell_formula_units_Z 8
loop_
_atom_type_symbol
_atom_type_radius_bond
C 0.68
H 0.23
N 0.68
O 0.68
loop_
_atom_site_label
_atom_site_type_symbol
_atom_site_fract_x
_atom_site_fract_y
_atom_site_fract_z
O1 O 0.32587(17) 0.2885(3) 0.24216(9)
O2 O 0.10938(19) 0.2801(4) 0.26608(10)
O3 O -0.0203(3) 0.6582(4) 0.02725(13)
O4 O 0.1251(3) 0.7059(4) 0.01824(11)
N1 N 0.28876(18) 0.4364(3) 0.31319(9)
N2 N 0.0641(3) 0.6492(4) 0.04231(13)
C1 C 0.3795(2) 0.4559(3) 0.34030(11)
C2 C 0.4660(2) 0.4149(4) 0.32553(12)
H1 H 0.47217 0.36377 0.29346
C3 C 0.5429(3) 0.4534(4) 0.36063(15)
H2 H 0.60207 0.42951 0.35167
C4 C 0.5338(3) 0.5267(5) 0.40875(15)
H3 H 0.58671 0.55003 0.43167
C5 C 0.4476(3) 0.5654(4) 0.42312(13)
H4 H 0.44199 0.61446 0.45555
C6 C 0.3688(2) 0.5302(4) 0.38844(11)
C7 C 0.2705(2) 0.5589(4) 0.39101(12)
C8 C 0.2296(3) 0.6331(5) 0.43691(15)
H5 H 0.27870 0.66231 0.46375
H6 H 0.19477 0.73173 0.42586
H7 H 0.18911 0.55274 0.45057
C9 C 0.2251(2) 0.5028(4) 0.34608(13)
H8 H 0.16088 0.50677 0.33759
C10 C 0.2677(2) 0.3581(4) 0.26607(12)
C11 C 0.1662(3) 0.3524(4) 0.24210(13)
C12 C 0.1429(2) 0.4237(4) 0.18899(12)
C13 C 0.0512(3) 0.4105(4) 0.16549(15)
H9 H 0.00711 0.35354 0.18254
C14 C 0.0261(3) 0.4822(4) 0.11690(15)
H10 H -0.03457 0.47346 0.10074
C15 C 0.0922(3) 0.5662(4) 0.09301(13)
C16 C 0.1837(3) 0.5795(4) 0.11460(13)
H11 H 0.22747 0.63472 0.09690
C17 C 0.2082(2) 0.5082(4) 0.16334(13)
H12 H 0.26921 0.51698 0.17906
O5 O 0.83972(18) 0.7052(3) 0.21637(9)
O6 O 0.68294(18) 0.7415(3) 0.29626(9)
O7 O 1.0633(3) 0.2801(5) 0.43346(15)
O8 O 0.9652(2) 0.3313(4) 0.48979(12)
N3 N 0.69868(17) 0.5843(3) 0.19270(9)
N4 N 0.9901(3) 0.3388(4) 0.44573(15)
C18 C 0.7041(2) 0.5659(3) 0.13825(11)
C19 C 0.7748(2) 0.6056(4) 0.10805(12)
H13 H 0.82993 0.65529 0.12268
C20 C 0.7594(3) 0.5677(5) 0.05487(14)
H14 H 0.80537 0.59175 0.03335
C21 C 0.6773(3) 0.4951(5) 0.03327(14)
H15 H 0.66906 0.47157 -0.00251
C22 C 0.6076(2) 0.4569(4) 0.06340(13)
H16 H 0.55243 0.40837 0.04840
C23 C 0.6209(2) 0.4920(3) 0.11641(12)
C24 C 0.5631(2) 0.4651(4) 0.15894(13)
C25 C 0.4690(3) 0.3868(5) 0.15218(16)
H17 H 0.45227 0.36003 0.11580
H18 H 0.46970 0.28611 0.17277
H19 H 0.42431 0.46368 0.16362
C26 C 0.6117(2) 0.5203(4) 0.20284(13)
H20 H 0.59085 0.51699 0.23589
C27 C 0.7671(2) 0.6493(4) 0.22803(12)
C28 C 0.7484(2) 0.6582(4) 0.28523(12)
C29 C 0.8141(2) 0.5757(4) 0.32571(12)
C30 C 0.7980(2) 0.5928(4) 0.37874(12)
H21 H 0.74808 0.65633 0.38756
C31 C 0.8564(3) 0.5148(4) 0.41731(13)
H22 H 0.84635 0.52491 0.45241
C32 C 0.9291(3) 0.4230(4) 0.40361(13)
C33 C 0.9470(2) 0.4042(4) 0.35228(15)
H23 H 0.99732 0.34071 0.34411
C34 C 0.8888(2) 0.4814(4) 0.31326(13)
H24 H 0.89982 0.47002 0.27835
#END
