
#######################################################################
#
#                 Cambridge Crystallographic Data Centre
#                                CCDC
#
#######################################################################
#
# If this CIF has been generated from an entry in the Cambridge
# Structural Database, then it will include bibliographic, chemical,
# crystal, experimental, refinement or atomic coordinate data resulting
# from the CCDC's data processing and validation procedures.
#
#######################################################################

data_CSD_CIF_GIJHAL
_audit_creation_date 2018-09-21
_audit_creation_method CSD-ConQuest-V1
_database_code_CSD GIJHAL
_database_code_depnum_ccdc_archive 'CCDC 1842365'
_chemical_formula_sum 'C20 H22 N2 O3'
_chemical_formula_moiety
;
C20 H22 N2 O3
;
_journal_coden_Cambridge 1291
_journal_year 2018
_journal_name_full 'Eur.J.Org.Chem. '
loop_
_publ_author_name
"Wanzhi Chen"
"Feifei Wu"
"Miaochang Liu"
"Huayue Wu"
_chemical_name_systematic
;
N-(2-{[(benzoyl)oxy]imino}-2-phenylethyl)-2,2-dimethylpropanamide
;
_cell_volume   1879.727
_exptl_crystal_colour 'block'
_exptl_crystal_density_diffrn 1.196
_diffrn_ambient_temperature 293
#These two values have been output from a single CSD field.
_refine_ls_R_factor_gt 0.06
_refine_ls_wR_factor_gt 0.06
_symmetry_cell_setting monoclinic
_symmetry_space_group_name_H-M 'P 21'
_symmetry_Int_Tables_number 4
loop_
_symmetry_equiv_pos_site_id
_symmetry_equiv_pos_as_xyz
1 x,y,z
2 -x,1/2+y,-z
_cell_length_a 9.466(1)
_cell_length_b 9.7865(12)
_cell_length_c 20.308(2)
_cell_angle_alpha 90
_cell_angle_beta 92.353(10)
_cell_angle_gamma 90
_cell_formula_units_Z 4
loop_
_atom_type_symbol
_atom_type_radius_bond
C 0.68
H 0.23
N 0.68
O 0.68
loop_
_atom_site_label
_atom_site_type_symbol
_atom_site_fract_x
_atom_site_fract_y
_atom_site_fract_z
O1 O 0.4352(5) 1.0958(5) 0.1393(2)
N1 N 0.5944(4) 1.0213(5) 0.04499(19)
C1 C 0.5355(5) 1.0297(5) 0.1549(2)
C2 C 0.6941(4) 0.9848(5) 0.0088(2)
C3 C 0.5706(5) 0.9764(5) 0.2222(2)
C4 C 0.4702(5) 0.9887(7) 0.2690(3)
H1 H 0.38650 1.03530 0.25890
C5 C 0.6627(5) 1.0099(5) -0.0627(2)
C6 C 0.6949(5) 0.9113(6) 0.2389(3)
H2 H 0.76440 0.90380 0.20810
C7 C 0.6870(6) 0.9063(7) -0.1074(3)
H3 H 0.72490 0.82340 -0.09280
C8 C 0.7183(6) 0.8568(7) 0.3009(3)
H4 H 0.80300 0.81260 0.31180
C9 C 0.6085(6) 1.1317(6) -0.0853(3)
H5 H 0.59210 1.20210 -0.05580
C10 C 0.5780(8) 1.1501(7) -0.1520(4)
H6 H 0.54100 1.23260 -0.16750
C11 C 0.6151(7) 0.8682(8) 0.3468(3)
H7 H 0.63000 0.83160 0.38880
C12 C 0.6025(8) 1.0471(9) -0.1946(3)
H8 H 0.58280 1.06030 -0.23940
C13 C 0.4925(7) 0.9327(8) 0.3304(3)
H9 H 0.42260 0.93930 0.36110
C14 C 0.6545(7) 0.9268(8) -0.1738(3)
H10 H 0.66870 0.85700 -0.20390
O2 O 0.6326(3) 0.9870(4) 0.11237(14)
N2 N 0.9482(4) 0.9669(4) -0.0045(2)
C15 C 1.0366(4) 0.8811(5) -0.0331(2)
C16 C 0.8295(4) 0.9212(6) 0.0323(2)
H11 H 0.84690 0.94320 0.07850
H12 H 0.82150 0.82270 0.02850
O3 O 1.0211(4) 0.7567(3) -0.02874(18)
C17 C 1.1588(5) 0.9461(4) -0.0680(2)
C18 C 1.2406(6) 0.8363(6) -0.1024(3)
H13 H 1.27530 0.77060 -0.07060
H14 H 1.31880 0.87690 -0.12380
H15 H 1.17950 0.79160 -0.13460
C19 C 1.2547(5) 1.0192(7) -0.0168(3)
H16 H 1.20330 1.09220 0.00280
H17 H 1.33550 1.05570 -0.03780
H18 H 1.28550 0.95550 0.01680
C20 C 1.1007(6) 1.0482(6) -0.1196(3)
H19 H 1.03430 1.00280 -0.14910
H20 H 1.17710 1.08390 -0.14400
H21 H 1.05420 1.12170 -0.09790
H22 H 0.958(5) 1.056(2) -0.007(2)
C21 C -0.1234(5) 0.3499(5) 0.6503(2)
C22 C -0.1004(4) 0.4186(5) 0.7143(2)
C23 C -0.1681(4) 0.4082(5) 0.4248(2)
C24 C -0.1194(4) 0.4474(4) 0.4925(2)
C25 C -0.2186(5) 0.2792(5) 0.4107(2)
H23 H -0.22000 0.21410 0.44400
C26 C -0.1041(6) 0.4073(7) 0.8322(2)
H24 H -0.11510 0.35700 0.87050
C27 C -0.0668(5) 0.5548(5) 0.7201(2)
H25 H -0.05130 0.60560 0.68240
C28 C -0.1164(5) 0.3439(6) 0.7714(2)
H26 H -0.13550 0.25080 0.76880
C29 C -0.1666(6) 0.5041(6) 0.3752(3)
H27 H -0.13420 0.59230 0.38370
C30 C -0.0759(6) 0.5428(8) 0.8359(3)
H28 H -0.07030 0.58570 0.87680
C31 C -0.2666(6) 0.2454(7) 0.3487(3)
H29 H -0.30050 0.15770 0.34010
C32 C -0.2141(8) 0.4667(9) 0.3124(3)
H30 H -0.21080 0.53030 0.27840
C33 C -0.2653(7) 0.3397(9) 0.2989(3)
H31 H -0.29880 0.31720 0.25660
C34 C -0.0559(6) 0.6168(6) 0.7804(3)
H32 H -0.03470 0.70940 0.78340
O4 O -0.1320(5) 0.2288(4) 0.64347(18)
C35 C -0.0048(5) 0.5535(4) 0.5018(2)
H33 H -0.04270 0.64240 0.48940
H34 H 0.02550 0.55740 0.54790
O5 O -0.1310(3) 0.4411(3) 0.60162(14)
N3 N -0.1796(4) 0.3861(4) 0.53873(16)
N4 N 0.1159(4) 0.5241(4) 0.46273(19)
O6 O 0.1693(3) 0.3382(3) 0.52230(17)
C36 C 0.1961(4) 0.4139(5) 0.4762(2)
C37 C 0.3201(5) 0.3903(5) 0.4323(2)
C38 C 0.4212(8) 0.5058(10) 0.4366(6)
H35 H 0.37550 0.58740 0.42040
H36 H 0.50100 0.48580 0.41060
H37 H 0.45260 0.51890 0.48170
C39 C 0.2652(9) 0.3767(13) 0.3620(3)
H38 H 0.24030 0.46540 0.34490
H39 H 0.18310 0.31900 0.36030
H40 H 0.33700 0.33720 0.33590
C40 C 0.3877(9) 0.2542(8) 0.4500(5)
H41 H 0.45050 0.22800 0.41630
H42 H 0.31550 0.18610 0.45360
H43 H 0.44010 0.26220 0.49130
H44 H 0.138(5) 0.581(4) 0.4336(16)
#END
