
#######################################################################
#
#                 Cambridge Crystallographic Data Centre
#                                CCDC
#
#######################################################################
#
# If this CIF has been generated from an entry in the Cambridge
# Structural Database, then it will include bibliographic, chemical,
# crystal, experimental, refinement or atomic coordinate data resulting
# from the CCDC's data processing and validation procedures.
#
#######################################################################

data_CSD_CIF_GIJHEP
_audit_creation_date 2018-09-21
_audit_creation_method CSD-ConQuest-V1
_database_code_CSD GIJHEP
_database_code_depnum_ccdc_archive 'CCDC 1842366'
_chemical_formula_sum 'C20 H22 N2 O3'
_chemical_formula_moiety
;
C20 H22 N2 O3
;
_journal_coden_Cambridge 1291
_journal_year 2018
_journal_name_full 'Eur.J.Org.Chem. '
loop_
_publ_author_name
"Wanzhi Chen"
"Feifei Wu"
"Miaochang Liu"
"Huayue Wu"
_chemical_name_systematic
;
N-(2-{[(2,2-dimethylpropanoyl)oxy]imino}-2-phenylethyl)benzamide
;
_cell_volume   3828.834
_exptl_crystal_colour 'block'
_exptl_crystal_density_diffrn 1.174
_diffrn_ambient_temperature 293
#These two values have been output from a single CSD field.
_refine_ls_R_factor_gt 0.0668
_refine_ls_wR_factor_gt 0.0668
_symmetry_cell_setting orthorhombic
_symmetry_space_group_name_H-M 'P c c n'
_symmetry_Int_Tables_number 56
loop_
_symmetry_equiv_pos_site_id
_symmetry_equiv_pos_as_xyz
1 x,y,z
2 1/2-x,1/2-y,z
3 -x,1/2+y,1/2-z
4 1/2+x,-y,1/2-z
5 -x,-y,-z
6 -1/2+x,-1/2+y,-z
7 x,-1/2-y,-1/2+z
8 -1/2-x,y,-1/2+z
_cell_length_a 16.7625(11)
_cell_length_b 23.3302(16)
_cell_length_c 9.7906(5)
_cell_angle_alpha 90
_cell_angle_beta 90
_cell_angle_gamma 90
_cell_formula_units_Z 8
loop_
_atom_type_symbol
_atom_type_radius_bond
C 0.68
H 0.23
N 0.68
O 0.68
loop_
_atom_site_label
_atom_site_type_symbol
_atom_site_fract_x
_atom_site_fract_y
_atom_site_fract_z
O1 O 0.13877(12) 0.37741(8) 0.69791(19)
O2 O 0.02142(13) 0.21883(9) 0.79109(18)
N1 N 0.05283(13) 0.24318(10) 1.0050(2)
C1 C 0.11223(15) 0.32220(11) 0.8770(3)
C2 C 0.04965(15) 0.36306(11) 0.9189(3)
C3 C 0.00297(16) 0.22149(10) 0.9127(3)
C4 C -0.07626(17) 0.19977(11) 0.9603(3)
N2 N 0.15692(14) 0.32527(10) 0.7717(2)
C5 C 0.12692(16) 0.26978(12) 0.9640(3)
H1 H 0.15860 0.24240 0.91280
H2 H 0.15690 0.28070 1.04460
C6 C 0.19195(17) 0.39061(12) 0.6025(3)
C7 C 0.16612(18) 0.44213(12) 0.5201(3)
C8 C -0.01162(17) 0.37789(15) 0.8312(3)
H3 H -0.01290 0.36310 0.74300
C9 C 0.04888(19) 0.38511(13) 1.0490(3)
H4 H 0.08900 0.37480 1.10980
O3 O 0.25051(19) 0.36422(15) 0.5855(3)
C10 C -0.0715(2) 0.41500(19) 0.8753(5)
H5 H -0.11310 0.42480 0.81690
C11 C -0.1186(2) 0.16355(14) 0.8757(3)
H6 H -0.09770 0.15300 0.79140
C12 C -0.1926(2) 0.14276(17) 0.9163(5)
H7 H -0.22080 0.11830 0.85890
C13 C -0.0098(2) 0.42199(17) 1.0912(4)
H8 H -0.00900 0.43670 1.17950
C14 C -0.10973(19) 0.21530(16) 1.0844(3)
H9 H -0.08260 0.24020 1.14220
C15 C -0.2239(2) 0.1576(2) 1.0381(6)
H10 H -0.27330 0.14320 1.06480
C16 C -0.0688(3) 0.43696(17) 1.0046(5)
H11 H -0.10810 0.46250 1.03310
C17 C -0.1831(2) 0.1939(2) 1.1222(5)
H12 H -0.20500 0.20420 1.20590
C18 C 0.1139(5) 0.4211(3) 0.4104(6)
H13 H 0.09900 0.45250 0.35230
H14 H 0.06680 0.40440 0.44960
H15 H 0.14170 0.39280 0.35770
C19 C 0.2392(3) 0.4712(2) 0.4644(7)
H16 H 0.27120 0.44370 0.41620
H17 H 0.26960 0.48710 0.53840
H18 H 0.22360 0.50130 0.40320
C20 C 0.1197(4) 0.4840(2) 0.6046(5)
H19 H 0.09780 0.51320 0.54640
H20 H 0.15440 0.50130 0.67080
H21 H 0.07720 0.46430 0.65060
H22 H 0.0390(17) 0.2458(12) 1.088(2)
#END
