
#######################################################################
#
#                 Cambridge Crystallographic Data Centre
#                                CCDC
#
#######################################################################
#
# If this CIF has been generated from an entry in the Cambridge
# Structural Database, then it will include bibliographic, chemical,
# crystal, experimental, refinement or atomic coordinate data resulting
# from the CCDC's data processing and validation procedures.
#
#######################################################################

data_CSD_CIF_GIJXIJ
_audit_creation_date 2018-09-21
_audit_creation_method CSD-ConQuest-V1
_database_code_CSD GIJXIJ
_database_code_depnum_ccdc_archive 'CCDC 1860104'
_chemical_formula_sum 'C24 H20 N4 O5'
_chemical_formula_moiety
;
C24 H20 N4 O5
;
_journal_coden_Cambridge 1748
_journal_year 2018
_journal_name_full 'Org.Chem.Front. '
loop_
_publ_author_name
"Shaobing Qiu"
"Chunlei Guo"
"Mingkang Wang"
"Zhenglong Sun"
"Hui Li"
"Xuhong Qian"
"Youjun Yang"
_chemical_name_systematic
;
3',6'-bis[ethyl(nitroso)amino]-3H-spiro[2-benzofuran-1,9'-xanthen]-3-one
;
_cell_volume   2169.474
_exptl_crystal_colour 'colorless'
_exptl_crystal_density_diffrn 1.361
_exptl_crystal_description 'prismatic'
_diffrn_ambient_temperature 173
#These two values have been output from a single CSD field.
_refine_ls_R_factor_gt 0.0411
_refine_ls_wR_factor_gt 0.0411
_symmetry_cell_setting monoclinic
_symmetry_space_group_name_H-M 'P 21/c'
_symmetry_Int_Tables_number 14
loop_
_symmetry_equiv_pos_site_id
_symmetry_equiv_pos_as_xyz
1 x,y,z
2 -x,1/2+y,1/2-z
3 -x,-y,-z
4 x,-1/2-y,-1/2+z
_cell_length_a 13.1450(5)
_cell_length_b 14.0218(6)
_cell_length_c 12.9264(5)
_cell_angle_alpha 90
_cell_angle_beta 114.416(1)
_cell_angle_gamma 90
_cell_formula_units_Z 4
loop_
_atom_type_symbol
_atom_type_radius_bond
C 0.68
H 0.23
N 0.68
O 0.68
loop_
_atom_site_label
_atom_site_type_symbol
_atom_site_fract_x
_atom_site_fract_y
_atom_site_fract_z
N1 N 0.28064(11) 0.56794(10) 0.15217(11)
N2 N 0.17371(13) 0.58405(12) 0.08379(13)
N3 N 0.82031(11) 0.1928(1) 0.72824(12)
N4 N 0.89452(12) 0.25471(12) 0.71976(12)
O1 O 0.29582(12) 0.41059(10) 0.75329(12)
O2 O 0.37436(9) 0.39445(8) 0.63082(9)
O3 O 0.53602(8) 0.38043(8) 0.45268(9)
O4 O 0.16025(11) 0.63435(12) 0.00053(12)
O5 O 0.99201(10) 0.22648(11) 0.76390(11)
C1 C 0.30069(14) 0.36748(13) 0.67452(15)
C2 C 0.23846(13) 0.28455(13) 0.61121(14)
C3 C 0.15225(15) 0.23455(15) 0.62176(18)
H1 H 0.12540 0.25170 0.67710
C4 C 0.10726(15) 0.15926(16) 0.54909(19)
H2 H 0.04790 0.12360 0.55390
C5 C 0.14721(15) 0.13448(15) 0.46874(17)
H3 H 0.11440 0.08210 0.41960
C6 C 0.23375(14) 0.18416(13) 0.45833(15)
H4 H 0.26120 0.16670 0.40360
C7 C 0.27822(12) 0.26011(12) 0.53098(13)
C8 C 0.36988(12) 0.32795(11) 0.53826(13)
C9 C 0.34414(13) 0.38751(11) 0.43383(13)
C10 C 0.42699(12) 0.41125(11) 0.39849(13)
C11 C 0.40640(13) 0.46947(11) 0.30504(13)
H5 H 0.46440 0.48330 0.28160
C12 C 0.30099(13) 0.50696(11) 0.24665(13)
C13 C 0.21562(14) 0.48557(12) 0.28112(14)
H6 H 0.14310 0.51190 0.24190
C14 C 0.23801(13) 0.42601(12) 0.37228(14)
H7 H 0.17940 0.41050 0.39420
C15 C 0.48428(12) 0.28377(11) 0.57892(13)
C16 C 0.56236(13) 0.31659(11) 0.54064(13)
C17 C 0.67278(12) 0.28678(11) 0.58828(13)
H8 H 0.72440 0.31110 0.56080
C18 C 0.70695(12) 0.22139(11) 0.67608(13)
C19 C 0.62946(13) 0.18365(12) 0.71315(14)
H9 H 0.65180 0.13670 0.77130
C20 C 0.52046(13) 0.21499(12) 0.66489(14)
H10 H 0.46830 0.18910 0.69080
C21 C 0.37020(14) 0.60807(12) 0.12649(14)
H11 H 0.43770 0.61610 0.19820
H12 H 0.34730 0.67200 0.09220
C22 C 0.39892(17) 0.54656(14) 0.04641(16)
H13 H 0.42520 0.48420 0.08140
H14 H 0.45780 0.57750 0.03060
H15 H 0.33240 0.53810 -0.02480
C23 C 0.85581(16) 0.10111(14) 0.78488(19)
H16 H 0.91750 0.07580 0.76790
H17 H 0.79280 0.05560 0.75420
C24 C 0.8946(2) 0.1080(2) 0.9125(2)
H18 H 0.96070 0.14910 0.94420
H19 H 0.91350 0.04420 0.94610
H20 H 0.83470 0.13510 0.92990
#END
