
#######################################################################
#
#                 Cambridge Crystallographic Data Centre
#                                CCDC
#
#######################################################################
#
# If this CIF has been generated from an entry in the Cambridge
# Structural Database, then it will include bibliographic, chemical,
# crystal, experimental, refinement or atomic coordinate data resulting
# from the CCDC's data processing and validation procedures.
#
#######################################################################

data_CSD_CIF_GIJXAB
_audit_creation_date 2018-09-21
_audit_creation_method CSD-ConQuest-V1
_database_code_CSD GIJXAB
_database_code_depnum_ccdc_archive 'CCDC 1860102'
_chemical_formula_sum 'C24 H22 N4 O4'
_chemical_formula_moiety
;
C24 H22 N4 O4
;
_journal_coden_Cambridge 1748
_journal_year 2018
_journal_name_full 'Org.Chem.Front. '
loop_
_publ_author_name
"Shaobing Qiu"
"Chunlei Guo"
"Mingkang Wang"
"Zhenglong Sun"
"Hui Li"
"Xuhong Qian"
"Youjun Yang"
_chemical_name_systematic
;
N^3'^,N^6'^-diethyl-N^3'^,N^6'^-dinitroso-3H-spiro[2-benzofuran-1,9'-xanthene]
-3',6'-diamine
;
_cell_volume   2124.270
_exptl_crystal_colour 'colorless'
_exptl_crystal_density_diffrn 1.346
_exptl_crystal_description 'prismatic'
_diffrn_ambient_temperature 296
#These two values have been output from a single CSD field.
_refine_ls_R_factor_gt 0.0494
_refine_ls_wR_factor_gt 0.0494
_symmetry_cell_setting monoclinic
_symmetry_space_group_name_H-M 'P 21/c'
_symmetry_Int_Tables_number 14
loop_
_symmetry_equiv_pos_site_id
_symmetry_equiv_pos_as_xyz
1 x,y,z
2 -x,1/2+y,1/2-z
3 -x,-y,-z
4 x,-1/2-y,-1/2+z
_cell_length_a 18.2546(6)
_cell_length_b 9.1982(3)
_cell_length_c 13.3199(4)
_cell_angle_alpha 90
_cell_angle_beta 108.231(1)
_cell_angle_gamma 90
_cell_formula_units_Z 4
loop_
_atom_type_symbol
_atom_type_radius_bond
C 0.68
H 0.23
N 0.68
O 0.68
loop_
_atom_site_label
_atom_site_type_symbol
_atom_site_fract_x
_atom_site_fract_y
_atom_site_fract_z
N1 N 0.93957(10) 0.56237(19) 0.18419(14)
N2 N 0.97448(11) 0.6916(2) 0.19350(16)
N3 N 0.55082(11) 0.0043(2) 0.32649(15)
N4 N 0.49086(14) 0.0170(3) 0.3624(2)
O1 O 0.74904(9) 0.29916(18) 0.27840(11)
O2 O 0.84587(8) 0.37298(17) 0.58881(10)
O3 O 1.00364(10) 0.7169(2) 0.12283(15)
O4 O 0.43842(14) -0.0697(3) 0.32258(19)
C1 C 0.80787(11) 0.3992(2) 0.31185(15)
C2 C 0.84368(11) 0.4319(2) 0.23745(16)
H1 H 0.82710 0.38870 0.17100
C3 C 0.90389(11) 0.5287(2) 0.26208(16)
C4 C 0.92889(13) 0.5907(2) 0.36218(17)
H2 H 0.97060 0.65420 0.38030
C5 C 0.89164(13) 0.5575(2) 0.43388(17)
H3 H 0.90850 0.60060 0.50040
C6 C 0.82923(12) 0.4614(2) 0.41096(15)
C7 C 0.78918(12) 0.4259(2) 0.49144(15)
C8 C 0.72856(11) 0.3100(2) 0.44900(14)
C9 C 0.71161(12) 0.2557(2) 0.34761(15)
C10 C 0.65458(12) 0.1539(2) 0.30796(16)
H4 H 0.64490 0.11860 0.23960
C11 C 0.61214(12) 0.1046(2) 0.36969(16)
C12 C 0.62866(13) 0.1540(2) 0.47314(17)
H5 H 0.60140 0.11870 0.51650
C13 C 0.68548(13) 0.2551(2) 0.51003(16)
H6 H 0.69580 0.28870 0.57890
C14 C 0.75553(12) 0.5573(2) 0.52929(16)
C15 C 0.69501(15) 0.6457(3) 0.4707(2)
H7 H 0.67190 0.63100 0.39860
C16 C 0.67062(17) 0.7553(3) 0.5229(3)
H8 H 0.63000 0.81500 0.48590
C17 C 0.70625(18) 0.7776(3) 0.6306(3)
H9 H 0.68940 0.85290 0.66450
C18 C 0.76538(16) 0.6911(3) 0.6873(2)
H10 H 0.78870 0.70620 0.75930
C19 C 0.79018(13) 0.5795(2) 0.63493(17)
C20 C 0.85174(14) 0.4700(3) 0.67503(17)
H11 H 0.90200 0.51640 0.69770
H12 H 0.84450 0.41770 0.73450
C21 C 0.93516(14) 0.4660(3) 0.09538(19)
H13 H 0.92700 0.36720 0.11510
H14 H 0.98400 0.46860 0.08100
C22 C 0.87145(18) 0.5059(3) -0.0041(2)
H15 H 0.82320 0.50920 0.01050
H16 H 0.86860 0.43440 -0.05770
H17 H 0.88200 0.59940 -0.02840
C23 C 0.55296(16) -0.1045(3) 0.2463(2)
H18 H 0.53050 -0.19450 0.26100
H19 H 0.60630 -0.12390 0.25170
C24 C 0.51090(19) -0.0578(4) 0.1367(2)
H20 H 0.45740 -0.04390 0.12950
H21 H 0.51580 -0.13100 0.08790
H22 H 0.53230 0.03200 0.12180
#END
