
#######################################################################
#
#                 Cambridge Crystallographic Data Centre
#                                CCDC
#
#######################################################################
#
# If this CIF has been generated from an entry in the Cambridge
# Structural Database, then it will include bibliographic, chemical,
# crystal, experimental, refinement or atomic coordinate data resulting
# from the CCDC's data processing and validation procedures.
#
#######################################################################

data_CSD_CIF_GIJXEF
_audit_creation_date 2018-09-21
_audit_creation_method CSD-ConQuest-V1
_database_code_CSD GIJXEF
_database_code_depnum_ccdc_archive 'CCDC 1860103'
_chemical_formula_sum 'C12 H12 N2 O3'
_chemical_formula_moiety
;
C12 H12 N2 O3
;
_journal_coden_Cambridge 1748
_journal_year 2018
_journal_name_full 'Org.Chem.Front. '
loop_
_publ_author_name
"Shaobing Qiu"
"Chunlei Guo"
"Mingkang Wang"
"Zhenglong Sun"
"Hui Li"
"Xuhong Qian"
"Youjun Yang"
_chemical_name_systematic
;
7-[ethyl(nitroso)amino]-4-methyl-2H-1-benzopyran-2-one
;
_cell_volume   1095.980
_exptl_crystal_colour 'yellow'
_exptl_crystal_density_diffrn 1.407
_exptl_crystal_description 'prismatic'
_diffrn_ambient_temperature 173
#These two values have been output from a single CSD field.
_refine_ls_R_factor_gt 0.0387
_refine_ls_wR_factor_gt 0.0387
_symmetry_cell_setting monoclinic
_symmetry_space_group_name_H-M 'P 21/c'
_symmetry_Int_Tables_number 14
loop_
_symmetry_equiv_pos_site_id
_symmetry_equiv_pos_as_xyz
1 x,y,z
2 -x,1/2+y,1/2-z
3 -x,-y,-z
4 x,-1/2-y,-1/2+z
_cell_length_a 11.2278(5)
_cell_length_b 13.7389(6)
_cell_length_c 7.4364(3)
_cell_angle_alpha 90
_cell_angle_beta 107.173(1)
_cell_angle_gamma 90
_cell_formula_units_Z 4
loop_
_atom_type_symbol
_atom_type_radius_bond
C 0.68
H 0.23
N 0.68
O 0.68
loop_
_atom_site_label
_atom_site_type_symbol
_atom_site_fract_x
_atom_site_fract_y
_atom_site_fract_z
N1 N 0.87114(10) 0.71962(9) 0.75006(16)
N2 N 0.95088(12) 0.79447(10) 0.77870(19)
O1 O 0.29923(10) 0.54689(8) 0.18893(17)
O2 O 0.47516(9) 0.60817(7) 0.36879(14)
O3 O 1.05852(10) 0.77443(9) 0.87148(17)
C1 C 0.35621(13) 0.62057(11) 0.2485(2)
C2 C 0.31231(13) 0.71843(11) 0.2044(2)
H1 H 0.23030 0.72810 0.12300
C3 C 0.38270(13) 0.79706(10) 0.27381(19)
C4 C 0.50742(12) 0.7819(1) 0.39934(19)
C5 C 0.54943(12) 0.68711(10) 0.44246(19)
C6 C 0.66747(13) 0.66485(10) 0.55831(19)
H2 H 0.69270 0.59910 0.58440
C7 C 0.74802(13) 0.74049(10) 0.63532(19)
C8 C 0.70840(13) 0.83713(11) 0.59823(19)
H3 H 0.76270 0.88910 0.65320
C9 C 0.59084(13) 0.85639(11) 0.4822(2)
H4 H 0.56530 0.92220 0.45720
C10 C 0.33394(14) 0.89831(11) 0.2242(2)
H5 H 0.25630 0.89560 0.12040
H6 H 0.39580 0.93680 0.18580
H7 H 0.31790 0.92870 0.33400
C11 C 0.91213(14) 0.62194(11) 0.8227(2)
H8 H 0.84070 0.58650 0.84380
H9 H 0.97710 0.62810 0.94550
C12 C 0.96387(17) 0.56337(13) 0.6897(3)
H10 H 0.89990 0.55690 0.56790
H11 H 0.98840 0.49860 0.74300
H12 H 1.03680 0.59680 0.67220
#END
