
#######################################################################
#
#                 Cambridge Crystallographic Data Centre
#                                CCDC
#
#######################################################################
#
# If this CIF has been generated from an entry in the Cambridge
# Structural Database, then it will include bibliographic, chemical,
# crystal, experimental, refinement or atomic coordinate data resulting
# from the CCDC's data processing and validation procedures.
#
#######################################################################

data_CSD_CIF_GIKDUC
_audit_creation_date 2018-09-21
_audit_creation_method CSD-ConQuest-V1
_database_code_CSD GIKDUC
_database_code_depnum_ccdc_archive 'CCDC 1854061'
_chemical_formula_sum 'C7 H4 N4 O4'
_chemical_formula_moiety
;
C7 H4 N4 O4
;
_journal_coden_Cambridge 1699
_journal_volume 6
_journal_year 2018
_journal_page_first 18669
_journal_name_full 'J.Mater.Chem.A '
loop_
_publ_author_name
"I.L.Dalinger"
"O.V.Serushkina"
"N.V.Muravyev"
"D.B.Meerov"
"E.A.Miroshnichenko"
"T.S.Kon'kova"
"K.Yu.Suponitsky"
"M.V.Vener"
"A.B.Sheremetev"
_chemical_name_systematic
;
3-(3-nitrophenyl)-1,2,3,4-oxatriazol-3-ium-5-olate
;
_cell_volume    808.362
_exptl_crystal_colour 'colorless'
_exptl_crystal_density_diffrn 1.71
_exptl_crystal_description 'prizm'
_diffrn_ambient_temperature 100
#These two values have been output from a single CSD field.
_refine_ls_R_factor_gt 0.035
_refine_ls_wR_factor_gt 0.035
_symmetry_cell_setting monoclinic
_symmetry_space_group_name_H-M 'P 21/n'
_symmetry_Int_Tables_number 14
loop_
_symmetry_equiv_pos_site_id
_symmetry_equiv_pos_as_xyz
1 x,y,z
2 1/2-x,1/2+y,1/2-z
3 -x,-y,-z
4 -1/2+x,-1/2-y,-1/2+z
_cell_length_a 5.3726(12)
_cell_length_b 17.510(4)
_cell_length_c 8.6127(19)
_cell_angle_alpha 90
_cell_angle_beta 93.895(5)
_cell_angle_gamma 90
_cell_formula_units_Z 4
loop_
_atom_type_symbol
_atom_type_radius_bond
C 0.68
H 0.23
N 0.68
O 0.68
loop_
_atom_site_label
_atom_site_type_symbol
_atom_site_fract_x
_atom_site_fract_y
_atom_site_fract_z
O1 O 0.13336(18) 0.12812(6) 0.59356(11)
O2 O -0.01501(19) 0.04459(6) 0.76834(12)
O3 O 0.0307(2) 0.23871(6) -0.08106(13)
O4 O -0.2736(2) 0.20679(6) -0.24629(12)
N1 N 0.0606(2) 0.14985(7) 0.44669(14)
N2 N -0.1372(2) 0.10985(6) 0.41307(13)
N3 N -0.2123(2) 0.06266(7) 0.52072(14)
N4 N -0.1666(2) 0.20574(7) -0.11593(14)
C1 C -0.0397(3) 0.07301(8) 0.64147(16)
C2 C -0.2647(2) 0.11535(7) 0.26121(16)
C3 C -0.1579(2) 0.15996(7) 0.15062(15)
H1 H -0.00820 0.18780 0.17370
C4 C -0.2815(2) 0.16154(8) 0.00536(16)
C5 C -0.5011(3) 0.12240(8) -0.03132(17)
H2 H -0.58130 0.12530 -0.13290
C6 C -0.6019(3) 0.07882(8) 0.08318(17)
H3 H -0.75340 0.05180 0.06030
C7 C -0.4830(2) 0.07436(8) 0.23093(17)
H4 H -0.54970 0.04390 0.30940
#END
