
#######################################################################
#
#                 Cambridge Crystallographic Data Centre
#                                CCDC
#
#######################################################################
#
# If this CIF has been generated from an entry in the Cambridge
# Structural Database, then it will include bibliographic, chemical,
# crystal, experimental, refinement or atomic coordinate data resulting
# from the CCDC's data processing and validation procedures.
#
#######################################################################

data_CSD_CIF_GIKFAK
_audit_creation_date 2018-09-21
_audit_creation_method CSD-ConQuest-V1
_database_code_CSD GIKFAK
_database_code_depnum_ccdc_archive 'CCDC 1854062'
_chemical_formula_sum 'C7 H3 N5 O6'
_chemical_formula_moiety
;
C7 H3 N5 O6
;
_journal_coden_Cambridge 1699
_journal_volume 6
_journal_year 2018
_journal_page_first 18669
_journal_name_full 'J.Mater.Chem.A '
loop_
_publ_author_name
"I.L.Dalinger"
"O.V.Serushkina"
"N.V.Muravyev"
"D.B.Meerov"
"E.A.Miroshnichenko"
"T.S.Kon'kova"
"K.Yu.Suponitsky"
"M.V.Vener"
"A.B.Sheremetev"
_chemical_name_systematic
;
3-(3,5-dinitrophenyl)-1,2,3,4-oxatriazol-3-ium-5-olate
;
_cell_volume   1828.232
_exptl_crystal_colour 'pale yellow'
_exptl_crystal_density_diffrn 1.839
_exptl_crystal_description 'needle'
_diffrn_ambient_temperature 100
_refine_special_details
;
C1.

;
#These two values have been output from a single CSD field.
_refine_ls_R_factor_gt 0.0566
_refine_ls_wR_factor_gt 0.0566
_symmetry_cell_setting orthorhombic
_symmetry_space_group_name_H-M 'P c a 21'
_symmetry_Int_Tables_number 29
loop_
_symmetry_equiv_pos_site_id
_symmetry_equiv_pos_as_xyz
1 x,y,z
2 -x,-y,1/2+z
3 1/2+x,-y,z
4 1/2-x,y,1/2+z
_cell_length_a 9.893(3)
_cell_length_b 18.586(6)
_cell_length_c 9.943(3)
_cell_angle_alpha 90
_cell_angle_beta 90
_cell_angle_gamma 90
_cell_formula_units_Z 8
loop_
_atom_type_symbol
_atom_type_radius_bond
C 0.68
H 0.23
N 0.68
O 0.68
loop_
_atom_site_label
_atom_site_type_symbol
_atom_site_fract_x
_atom_site_fract_y
_atom_site_fract_z
N1 N 0.4783(5) 0.8000(2) 1.1942(4)
N2 N 0.5359(4) 0.8570(2) 1.1496(4)
N3 N 0.6040(4) 0.8979(2) 1.2345(4)
N4 N 0.3535(5) 0.8066(2) 0.7059(4)
N5 N 0.6510(4) 1.0126(2) 0.7763(4)
O1 O 0.5095(4) 0.8003(2) 1.3262(4)
O2 O 0.6343(4) 0.8734(2) 1.4635(4)
O3 O 0.3058(4) 0.7516(2) 0.7526(4)
O4 O 0.3376(4) 0.8268(2) 0.5908(3)
O5 O 0.6624(4) 1.01923(18) 0.6540(3)
O6 O 0.6932(4) 1.0563(2) 0.8575(4)
C1 C 0.5912(6) 0.8620(3) 1.3532(6)
C2 C 0.5247(5) 0.8748(3) 1.0093(5)
C3 C 0.4460(5) 0.8319(3) 0.9288(5)
H1 H 0.39930 0.79120 0.96330
C4 C 0.4385(5) 0.8510(3) 0.7947(5)
C5 C 0.5045(5) 0.9091(2) 0.7414(5)
H2 H 0.49790 0.92080 0.64870
C6 C 0.5807(5) 0.9495(3) 0.8284(5)
C7 C 0.5930(5) 0.9340(3) 0.9637(5)
H3 H 0.64610 0.96290 1.02210
O7? O 1.2970(17) 0.2702(7) 0.5870(16)
O8? O 1.2190(8) 0.2227(4) 0.7726(8)
N6? N 1.2484(17) 0.3076(8) 0.4743(12)
N7? N 1.1205(16) 0.3161(8) 0.5087(16)
N8? N 1.083(3) 0.2862(14) 0.6201(19)
C8? C 1.1976(16) 0.2552(7) 0.6746(14)
C9? C 1.0342(8) 0.3534(5) 0.4255(8)
C10? C 0.8955(8) 0.3507(6) 0.4472(8)
H4? H 0.86040 0.32450 0.52140
C11? C 0.8083(7) 0.3865(6) 0.3604(10)
C12? C 0.8597(8) 0.4249(5) 0.2519(9)
H5? H 0.80000 0.44930 0.19260
C13? C 0.9984(9) 0.4275(4) 0.2302(7)
C14? C 1.0857(7) 0.3917(5) 0.3170(8)
H6? H 1.18050 0.39350 0.30210
N9? N 0.6670(19) 0.3833(11) 0.380(2)
O9? O 0.627(2) 0.3493(17) 0.479(3)
O10? O 0.5943(15) 0.4138(11) 0.299(2)
N10? N 1.060(3) 0.4631(9) 0.1194(19)
O11? O 0.9706(12) 0.4968(6) 0.0447(12)
O12? O 1.1784(16) 0.4625(6) 0.0972(11)
O13 O 0.5400(11) 0.3527(5) 0.4682(10)
O14 O 0.4231(10) 0.4109(4) 0.3002(9)
N11 N 0.669(2) 0.346(2) 0.497(4)
N12 N 0.7292(16) 0.3781(10) 0.4010(18)
N13 N 0.6545(19) 0.4114(10) 0.309(3)
C15 C 0.532(2) 0.3966(8) 0.3449(15)
C16 C 1.0889(11) 0.3421(6) 0.4671(12)
C17 C 0.9491(11) 0.3427(5) 0.4804(9)
H7 H 0.90730 0.31780 0.55270
C18 C 0.8702(8) 0.3798(5) 0.3877(10)
C19 C 0.9313(12) 0.4163(5) 0.2818(9)
H8 H 0.87740 0.44160 0.21850
C20 C 1.0711(13) 0.4157(5) 0.2686(11)
C21 C 1.1500(9) 0.3786(6) 0.3613(14)
H9 H 1.24560 0.37820 0.35230
N14 N 1.169(2) 0.3032(9) 0.557(2)
O15 O 1.111(3) 0.2706(12) 0.6533(19)
O16 O 1.291(2) 0.3002(10) 0.549(2)
N15 N 1.1332(19) 0.4533(9) 0.1521(19)
O17 O 1.051(3) 0.4852(9) 0.0836(19)
O18 O 1.259(2) 0.4425(9) 0.151(2)
#END
