
#######################################################################
#
#                 Cambridge Crystallographic Data Centre
#                                CCDC
#
#######################################################################
#
# If this CIF has been generated from an entry in the Cambridge
# Structural Database, then it will include bibliographic, chemical,
# crystal, experimental, refinement or atomic coordinate data resulting
# from the CCDC's data processing and validation procedures.
#
#######################################################################

data_CSD_CIF_GIKFIS
_audit_creation_date 2018-09-21
_audit_creation_method CSD-ConQuest-V1
_database_code_CSD GIKFIS
_database_code_depnum_ccdc_archive 'CCDC 1854064'
_chemical_formula_sum 'C7 H5 N5 O2'
_chemical_formula_moiety
;
C7 H5 N5 O2
;
_journal_coden_Cambridge 1699
_journal_volume 6
_journal_year 2018
_journal_page_first 18669
_journal_name_full 'J.Mater.Chem.A '
loop_
_publ_author_name
"I.L.Dalinger"
"O.V.Serushkina"
"N.V.Muravyev"
"D.B.Meerov"
"E.A.Miroshnichenko"
"T.S.Kon'kova"
"K.Yu.Suponitsky"
"M.V.Vener"
"A.B.Sheremetev"
_chemical_name_systematic
;
1-(3-nitrophenyl)-1H-tetrazole
;
_cell_volume   2399.640
_exptl_crystal_colour 'pale yellow'
_exptl_crystal_density_diffrn 1.587
_exptl_crystal_description 'needle'
_diffrn_ambient_temperature 100
_refine_special_details
;
C1A,C2A,C3A,C4A,C5A,C6A,C7A,N1A,N2A,N3A,N4A,N5A,O1A,O2A and 
C1B,C2B,C3B,C4B,C5B,C6B,C7B,N1B,N2B,N3B,N4B,N5B,O1B,O2B disordered over two 
sites with occupancies 0.504:0.496.
;
#These two values have been output from a single CSD field.
_refine_ls_R_factor_gt 0.0528
_refine_ls_wR_factor_gt 0.0528
_symmetry_cell_setting monoclinic
_symmetry_space_group_name_H-M 'P 21/n'
_symmetry_Int_Tables_number 14
loop_
_symmetry_equiv_pos_site_id
_symmetry_equiv_pos_as_xyz
1 x,y,z
2 1/2-x,1/2+y,1/2-z
3 -x,-y,-z
4 -1/2+x,-1/2-y,-1/2+z
_cell_length_a 11.1512(5)
_cell_length_b 17.2780(7)
_cell_length_c 12.9735(5)
_cell_angle_alpha 90
_cell_angle_beta 106.259(1)
_cell_angle_gamma 90
_cell_formula_units_Z 12
loop_
_atom_type_symbol
_atom_type_radius_bond
C 0.68
H 0.23
N 0.68
O 0.68
loop_
_atom_site_label
_atom_site_type_symbol
_atom_site_fract_x
_atom_site_fract_y
_atom_site_fract_z
O1 O 0.37542(14) -0.10149(8) 0.50650(12)
O2 O 0.22556(14) -0.11980(8) 0.36060(12)
N1 N 0.02574(14) 0.13481(8) 0.25835(12)
N2 N -0.04158(14) 0.08599(9) 0.18185(12)
N3 N -0.12566(15) 0.12727(10) 0.11804(13)
N4 N -0.11847(16) 0.20297(9) 0.14929(14)
N5 N 0.28962(15) -0.07798(9) 0.43197(13)
C1 C 0.13188(16) 0.10823(10) 0.34102(14)
C2 C 0.15759(16) 0.02976(10) 0.34652(14)
H1 H 0.10650 -0.00580 0.29760
C3 C 0.26064(16) 0.00556(10) 0.42610(14)
C4 C 0.33848(17) 0.05470(11) 0.49865(15)
H2 H 0.40840 0.03540 0.55260
C5 C 0.31127(18) 0.13319(11) 0.49027(15)
H3 H 0.36340 0.16850 0.53880
C6 C 0.20771(17) 0.16067(10) 0.41097(15)
H4 H 0.18940 0.21450 0.40500
C7 C -0.02388(19) 0.20564(11) 0.23611(16)
H5 H 0.00510 0.25090 0.27710
O3 O -0.03454(14) 0.08572(8) -0.11493(12)
O4 O -0.02638(15) 0.20996(8) -0.09816(14)
C8 C 0.28191(16) 0.05839(10) 0.13331(14)
C9 C 0.17561(16) 0.06434(10) 0.04696(14)
H6 H 0.13830 0.02000 0.00760
C10 C 0.12619(16) 0.13758(10) 0.02062(14)
C11 C 0.17758(18) 0.20379(10) 0.07629(15)
H7 H 0.14210 0.25330 0.05560
C12 C 0.28268(18) 0.19510(11) 0.16332(15)
H8 H 0.31880 0.23940 0.20360
C13 C 0.33553(17) 0.1232(1) 0.19230(15)
H9 H 0.40760 0.11800 0.25180
C14 C 0.31785(18) -0.08409(11) 0.11027(15)
H10 H 0.26160 -0.09260 0.04120
N6 N 0.33655(13) -0.01585(9) 0.16269(12)
N7 N 0.42433(15) -0.02742(10) 0.25831(13)
N8 N 0.45456(16) -0.09988(10) 0.26145(13)
N9 N 0.38933(16) -0.13676(10) 0.16943(13)
N10 N 0.01382(15) 0.14522(9) -0.07111(13)
O5 O 0.4171(9) -0.0907(5) 0.8862(7)
O6 O 0.3099(5) -0.1089(3) 0.7270(4)
N11 N 0.0817(11) 0.1398(6) 0.626(1)
N12 N 0.0078(4) 0.0869(2) 0.5502(4)
N13 N -0.0469(19) 0.2060(12) 0.4978(18)
N14 N -0.0675(6) 0.1285(3) 0.4776(6)
N15 N 0.3499(4) -0.0698(3) 0.8055(3)
C15 C 0.1779(4) 0.1121(3) 0.7099(4)
C16 C 0.2134(4) 0.0360(3) 0.7128(4)
H11 H 0.17530 0.00300 0.65420
C17 C 0.293(2) 0.0099(13) 0.7896(14)
C18 C 0.3665(4) 0.0600(3) 0.8841(3)
H12 H 0.43150 0.04000 0.94190
C19 C 0.3298(5) 0.1363(3) 0.8780(4)
H13 H 0.36980 0.17110 0.93380
C20 C 0.2353(7) 0.1632(4) 0.7916(6)
H14 H 0.21000 0.21590 0.78820
C21 C 0.0456(5) 0.2104(3) 0.5841(4)
H15 H 0.08340 0.25750 0.61430
O7? O -0.0614(4) 0.0901(3) 0.4856(4)
O8? O -0.0592(18) 0.2160(11) 0.4970(18)
N16? N 0.3028(17) -0.0006(12) 0.7945(14)
N17? N 0.3704(4) -0.0151(3) 0.8863(3)
N18? N 0.4212(17) -0.0849(11) 0.8922(15)
N19? N 0.3648(4) -0.1210(3) 0.7894(5)
N20? N -0.0206(4) 0.1506(3) 0.5335(3)
C22? C 0.2314(4) 0.0695(3) 0.7570(4)
C23? C 0.1323(4) 0.0724(2) 0.6632(3)
H16? H 0.10250 0.02670 0.62350
C24? C 0.0785(13) 0.1442(8) 0.6296(12)
C25? C 0.1155(4) 0.2112(2) 0.6945(3)
H17? H 0.07510 0.25940 0.67380
C26? C 0.2119(5) 0.2045(3) 0.7886(4)
H18? H 0.23760 0.24890 0.83250
C27? C 0.2712(6) 0.1349(4) 0.8196(5)
H19? H 0.33860 0.13160 0.88320
C28? C 0.2908(5) -0.0674(4) 0.7285(4)
H20? H 0.24090 -0.07290 0.65640
#END
