
#######################################################################
#
#                 Cambridge Crystallographic Data Centre
#                                CCDC
#
#######################################################################
#
# If this CIF has been generated from an entry in the Cambridge
# Structural Database, then it will include bibliographic, chemical,
# crystal, experimental, refinement or atomic coordinate data resulting
# from the CCDC's data processing and validation procedures.
#
#######################################################################

data_CSD_CIF_GIKFUE
_audit_creation_date 2018-09-21
_audit_creation_method CSD-ConQuest-V1
_database_code_CSD GIKFUE
_database_code_depnum_ccdc_archive 'CCDC 1854066'
_chemical_formula_sum 'C6 H4 N4 O2'
_chemical_formula_moiety
;
C6 H4 N4 O2
;
_journal_coden_Cambridge 1699
_journal_volume 6
_journal_year 2018
_journal_page_first 18669
_journal_name_full 'J.Mater.Chem.A '
loop_
_publ_author_name
"I.L.Dalinger"
"O.V.Serushkina"
"N.V.Muravyev"
"D.B.Meerov"
"E.A.Miroshnichenko"
"T.S.Kon'kova"
"K.Yu.Suponitsky"
"M.V.Vener"
"A.B.Sheremetev"
_chemical_name_systematic
;
1-azido-3-nitrobenzene
;
_cell_volume    687.592
_exptl_crystal_colour 'yellow'
_exptl_crystal_density_diffrn 1.586
_exptl_crystal_description 'needle'
_diffrn_ambient_temperature 100
#These two values have been output from a single CSD field.
_refine_ls_R_factor_gt 0.0377
_refine_ls_wR_factor_gt 0.0377
_symmetry_cell_setting triclinic
_symmetry_space_group_name_H-M 'P -1'
_symmetry_Int_Tables_number 2
loop_
_symmetry_equiv_pos_site_id
_symmetry_equiv_pos_as_xyz
1 x,y,z
2 -x,-y,-z
_cell_length_a 3.7040(2)
_cell_length_b 10.7498(5)
_cell_length_c 17.5309(9)
_cell_angle_alpha 98.171(1)
_cell_angle_beta 94.550(1)
_cell_angle_gamma 92.658(1)
_cell_formula_units_Z 4
loop_
_atom_type_symbol
_atom_type_radius_bond
C 0.68
H 0.23
N 0.68
O 0.68
loop_
_atom_site_label
_atom_site_type_symbol
_atom_site_fract_x
_atom_site_fract_y
_atom_site_fract_z
O1 O 0.0900(2) 0.94155(7) 0.41559(4)
O2 O 0.1075(2) 0.93961(8) 0.29202(4)
N1 N 0.6976(2) 1.36193(8) 0.53861(5)
N2 N 0.5589(2) 1.31974(8) 0.59311(5)
N3 N 0.4499(3) 1.29344(9) 0.64730(5)
N4 N 0.1724(2) 0.99052(8) 0.35940(5)
C1 C 0.6020(2) 1.29331(9) 0.46340(5)
C2 C 0.4269(2) 1.17374(8) 0.45021(5)
H1 H 0.35840 1.13260 0.49180
C3 C 0.3565(2) 1.11702(8) 0.37376(5)
C4 C 0.4487(3) 1.17335(9) 0.31101(5)
H2 H 0.39420 1.13190 0.25950
C5 C 0.6245(3) 1.29294(9) 0.32619(6)
H3 H 0.69120 1.33400 0.28440
C6 C 0.7031(3) 1.35273(9) 0.40167(6)
H4 H 0.82520 1.43380 0.41140
O3 O 0.4121(2) 0.69696(7) -0.13420(4)
O4 O 0.7678(2) 0.86619(7) -0.10341(4)
N5 N 0.1796(2) 0.54645(8) 0.11075(5)
N6 N 0.1296(2) 0.54113(8) 0.17973(5)
N7 N 0.0652(3) 0.52295(9) 0.23907(5)
N8 N 0.5760(2) 0.77900(8) -0.08633(5)
C7 C 0.3481(2) 0.66036(8) 0.09435(5)
C8 C 0.3779(2) 0.66551(8) 0.01616(5)
H5 H 0.28950 0.59720 -0.02220
C9 C 0.5408(2) 0.77361(8) -0.00378(5)
C10 C 0.6729(2) 0.87629(9) 0.05043(5)
H6 H 0.78260 0.94920 0.03490
C11 C 0.6389(3) 0.86866(9) 0.12790(5)
H7 H 0.72630 0.93750 0.16610
C12 C 0.4783(3) 0.76145(9) 0.15062(5)
H8 H 0.45750 0.75710 0.20380
#END
