
#######################################################################
#
#                 Cambridge Crystallographic Data Centre
#                                CCDC
#
#######################################################################
#
# If this CIF has been generated from an entry in the Cambridge
# Structural Database, then it will include bibliographic, chemical,
# crystal, experimental, refinement or atomic coordinate data resulting
# from the CCDC's data processing and validation procedures.
#
#######################################################################

data_CSD_CIF_GIKFUB
_audit_creation_date 1999-04-16
_audit_creation_method CSD-ConQuest-V1
_database_code_CSD GIKFUB
_database_code_depnum_ccdc_archive 'CCDC 102848'
_chemical_formula_sum 'C14 H14 N2 O2'
_chemical_formula_moiety
;
C14 H14 N2 O2
;
_journal_coden_Cambridge 1291
_journal_year 1999
_journal_page_first 141
_journal_name_full 'Eur.J.Org.Chem. '
loop_
_publ_author_name
"A.G.Giumanini"
"N.Toniutti"
"G.Verardo"
"M.Merli"
_chemical_name_systematic
;
N'-(4-Methoxyphenyl)-N-phenyl-N-oxyformamidinium
;
_chemical_melting_point 408
_cell_volume   2488.782
_exptl_crystal_colour 'light yellow'
_exptl_crystal_density_diffrn 1.302
_diffrn_ambient_temperature ?
_diffrn_special_details
;
The study was carried out at room temperature,in the range 283-303K

;
#These two values have been output from a single CSD field.
_refine_ls_R_factor_gt 0.055
_refine_ls_wR_factor_gt 0.055
_symmetry_cell_setting orthorhombic
_symmetry_space_group_name_H-M 'P b c a'
_symmetry_Int_Tables_number 61
loop_
_symmetry_equiv_pos_site_id
_symmetry_equiv_pos_as_xyz
1 x,y,z
2 1/2-x,-y,1/2+z
3 1/2+x,1/2-y,-z
4 -x,1/2+y,1/2-z
5 -x,-y,-z
6 -1/2+x,y,-1/2-z
7 -1/2-x,-1/2+y,z
8 x,-1/2-y,-1/2+z
_cell_length_a 9.982(3)
_cell_length_b 25.413(11)
_cell_length_c 9.811(4)
_cell_angle_alpha 90
_cell_angle_beta 90
_cell_angle_gamma 90
_cell_formula_units_Z 8
loop_
_atom_type_symbol
_atom_type_radius_bond
C 0.68
H 0.23
N 0.68
O 0.68
loop_
_atom_site_label
_atom_site_type_symbol
_atom_site_fract_x
_atom_site_fract_y
_atom_site_fract_z
N1 N 0.60125(30) 0.08381(10) 0.5944(3)
C1 C 0.81483(30) -0.0301(1) 0.5715(3)
O1 O 1.11751(20) -0.1418(1) 0.5897(3)
C2 C 0.92282(40) -0.1087(1) 0.49063(40)
C3 C 0.60171(30) 0.13994(10) 0.61167(30)
C4 C 0.91411(40) -0.0244(1) 0.66832(40)
C5 C 0.70569(40) 0.16566(10) 0.67691(40)
C6 C 1.02139(30) -0.1029(1) 0.5897(4)
C7 C 0.82111(40) -0.0726(1) 0.48179(40)
C8 C 1.01723(40) -0.0608(1) 0.67728(40)
C9 C 0.49604(40) 0.16786(10) 0.55903(40)
C10 C 0.49395(50) 0.22251(20) 0.56823(50)
C11 C 0.70314(40) 0.21992(10) 0.68655(50)
C12 C 0.59745(50) 0.24808(20) 0.63184(50)
C13 C 1.21893(40) -0.1397(2) 0.69076(40)
N2 N 0.70412(30) 0.00453(10) 0.56325(30)
O2 O 0.48384(30) 0.06134(10) 0.56701(30)
C14 C 0.70954(30) 0.05531(10) 0.59464(30)
H1 H 0.9251(4) -0.1381(1) 0.42912(40)
H2 H 0.91178(40) 0.00504(10) 0.72971(40)
H3 H 0.77881(40) 0.14602(10) 0.71594(40)
H4 H 0.75381(40) -0.0763(1) 0.41211(40)
H5 H 1.08616(40) -0.0567(1) 0.74514(40)
H6 H 0.42246(40) 0.14972(10) 0.51622(40)
H7 H 0.42069(50) 0.2422(2) 0.52964(50)
H8 H 0.77555(40) 0.23801(10) 0.7315(5)
H9 H 0.59676(50) 0.28577(20) 0.63831(50)
H10 H 0.61949(30) -0.0094(1) 0.53219(30)
H11 H 0.79446(30) 0.07091(10) 0.61854(30)
H12 H 1.27957(40) -0.1688(2) 0.67931(40)
H13 H 1.26839(40) -0.1073(2) 0.68456(40)
H14 H 1.17639(40) -0.1420(2) 0.77845(40)
#END
