
#######################################################################
#
#                 Cambridge Crystallographic Data Centre
#                                CCDC
#
#######################################################################
#
# If this CIF has been generated from an entry in the Cambridge
# Structural Database, then it will include bibliographic, chemical,
# crystal, experimental, refinement or atomic coordinate data resulting
# from the CCDC's data processing and validation procedures.
#
#######################################################################

data_CSD_CIF_GIKGAL
_audit_creation_date 2018-09-21
_audit_creation_method CSD-ConQuest-V1
_database_code_CSD GIKGAL
_database_code_depnum_ccdc_archive 'CCDC 1854067'
_chemical_formula_sum 'C6 H3 N5 O4'
_chemical_formula_moiety
;
C6 H3 N5 O4
;
_journal_coden_Cambridge 1699
_journal_volume 6
_journal_year 2018
_journal_page_first 18669
_journal_name_full 'J.Mater.Chem.A '
loop_
_publ_author_name
"I.L.Dalinger"
"O.V.Serushkina"
"N.V.Muravyev"
"D.B.Meerov"
"E.A.Miroshnichenko"
"T.S.Kon'kova"
"K.Yu.Suponitsky"
"M.V.Vener"
"A.B.Sheremetev"
_chemical_name_systematic
;
1-azido-3,5-dinitrobenzene
;
_cell_volume    794.774
_exptl_crystal_colour 'yellow'
_exptl_crystal_density_diffrn 1.748
_exptl_crystal_description 'prizm'
_diffrn_ambient_temperature 100
#These two values have been output from a single CSD field.
_refine_ls_R_factor_gt 0.028
_refine_ls_wR_factor_gt 0.028
_symmetry_cell_setting orthorhombic
_symmetry_space_group_name_H-M 'P n a 21'
_symmetry_Int_Tables_number 33
loop_
_symmetry_equiv_pos_site_id
_symmetry_equiv_pos_as_xyz
1 x,y,z
2 -x,-y,1/2+z
3 1/2+x,1/2-y,z
4 1/2-x,1/2+y,1/2+z
_cell_length_a 9.7268(6)
_cell_length_b 8.3199(5)
_cell_length_c 9.8210(6)
_cell_angle_alpha 90
_cell_angle_beta 90
_cell_angle_gamma 90
_cell_formula_units_Z 4
loop_
_atom_type_symbol
_atom_type_radius_bond
C 0.68
H 0.23
N 0.68
O 0.68
loop_
_atom_site_label
_atom_site_type_symbol
_atom_site_fract_x
_atom_site_fract_y
_atom_site_fract_z
O1 O 0.82707(15) 0.09397(17) 0.25880(16)
O2 O 0.64428(15) 0.06359(16) 0.38305(17)
O3 O 0.40603(16) 0.5176(2) 0.55856(16)
O4 O 0.49323(15) 0.75647(17) 0.54304(15)
N1 N 0.90483(18) 0.6975(2) 0.24861(18)
N2 N 1.00077(18) 0.64164(19) 0.17880(17)
N3 N 1.09241(19) 0.6116(2) 0.11353(18)
N4 N 0.73175(17) 0.14713(19) 0.32647(17)
N5 N 0.49439(17) 0.6116(2) 0.51887(16)
C1 C 0.81084(19) 0.5852(2) 0.30479(18)
C2 C 0.82064(19) 0.4194(2) 0.28483(18)
C3 C 0.7215(2) 0.3231(2) 0.34353(18)
C4 C 0.6129(2) 0.3815(2) 0.41888(18)
C5 C 0.6084(2) 0.5465(2) 0.43709(19)
C6 C 0.70498(19) 0.6506(2) 0.3833(2)
H1 H 0.891(2) 0.374(3) 0.234(2)
H2 H 0.697(2) 0.757(3) 0.397(2)
H3 H 0.547(3) 0.311(3) 0.458(3)
#END
