
#######################################################################
#
#                 Cambridge Crystallographic Data Centre
#                                CCDC
#
#######################################################################
#
# If this CIF has been generated from an entry in the Cambridge
# Structural Database, then it will include bibliographic, chemical,
# crystal, experimental, refinement or atomic coordinate data resulting
# from the CCDC's data processing and validation procedures.
#
#######################################################################

data_CSD_CIF_GIKKIV
_audit_creation_date 2007-12-14
_audit_creation_method CSD-ConQuest-V1
_database_code_CSD GIKKIV
_database_code_depnum_ccdc_archive 'CCDC 609224'
_chemical_formula_sum 'C15 H12 N4 O8'
_chemical_formula_moiety
;
C15 H12 N4 O8
;
_journal_coden_Cambridge 1093
_journal_volume 18
_journal_year 2007
_journal_page_first 421
_journal_name_full 'Heteroat.Chem. '
loop_
_publ_author_name
"Yu.G.Gololobov"
"O.A.Linchenko"
"P.V.Petrovskii"
"V.N.Khrustalev"
"I.A.Garbuzova"
_chemical_name_systematic
;
1-(Ethoxycarbonyl(pyridinio)methylidene)-2,4,6-trinitrocyclohexadienide
;
_chemical_melting_point 400.15
_cell_volume   3130.920
_exptl_crystal_colour 'black'
_exptl_crystal_density_diffrn 1.597
_exptl_special_details
;
Melting point range 400.15-401.15K

;
_exptl_crystal_description 'plate'
_exptl_crystal_preparation 'acetonitrile/ether'
_diffrn_ambient_temperature 100.0
#These two values have been output from a single CSD field.
_refine_ls_R_factor_gt 0.0396
_refine_ls_wR_factor_gt 0.0396
_symmetry_cell_setting monoclinic
_symmetry_space_group_name_H-M 'C 2/c'
_symmetry_Int_Tables_number 15
loop_
_symmetry_equiv_pos_site_id
_symmetry_equiv_pos_as_xyz
1 x,y,z
2 1/2+x,1/2+y,z
3 -x,y,1/2-z
4 1/2-x,1/2+y,1/2-z
5 -x,-y,-z
6 -1/2-x,-1/2-y,-z
7 x,-y,-1/2+z
8 -1/2+x,-1/2-y,-1/2+z
_cell_length_a 24.360(2)
_cell_length_b 7.4337(7)
_cell_length_c 17.9945(17)
_cell_angle_alpha 90
_cell_angle_beta 106.088(5)
_cell_angle_gamma 90
_cell_formula_units_Z 8
loop_
_atom_type_symbol
_atom_type_radius_bond
C 0.68
H 0.23
N 0.68
O 0.68
loop_
_atom_site_label
_atom_site_type_symbol
_atom_site_fract_x
_atom_site_fract_y
_atom_site_fract_z
O1 O 0.46919(5) 0.13789(18) 0.11933(8)
O2 O 0.38608(5) 0.13227(18) 0.15135(7)
O3 O 0.32342(5) 0.24274(18) -0.10991(8)
O4 O 0.27291(6) 0.4761(2) -0.15904(8)
O5 O 0.13982(6) 0.6487(2) -0.02480(8)
O6 O 0.16388(6) 0.6529(2) 0.10049(9)
O7 O 0.41306(6) 0.5156(2) 0.18851(8)
O8 O 0.34981(6) 0.4175(2) 0.24291(8)
N1 N 0.41896(6) 0.3407(2) -0.01098(9)
N2 N 0.29765(6) 0.3819(2) -0.10390(9)
N3 N 0.17411(7) 0.6215(2) 0.03881(10)
N4 N 0.36503(7) 0.4589(2) 0.18631(9)
C1 C 0.39004(7) 0.3083(3) 0.04710(11)
C2 C 0.44347(7) 0.2056(3) -0.04037(11)
H1 H 0.44060 0.08580 -0.02350
C3 C 0.47254(8) 0.2387(3) -0.09447(11)
H2 H 0.49160 0.14370 -0.11250
C4 C 0.47383(8) 0.4119(3) -0.12243(11)
H3 H 0.49280 0.43620 -0.16090
C5 C 0.44710(8) 0.5491(3) -0.09367(11)
H4 H 0.44670 0.66790 -0.11330
C6 C 0.42131(7) 0.5122(2) -0.03676(11)
H5 H 0.40480 0.60730 -0.01500
C7 C 0.41987(8) 0.1895(2) 0.10829(11)
C8 C 0.41128(8) 0.0074(3) 0.21343(12)
H6 H 0.44010 0.06940 0.25530
H7 H 0.43020 -0.09280 0.19390
C9 C 0.36361(9) -0.0624(3) 0.24296(13)
H8 H 0.37890 -0.14780 0.28510
H9 H 0.33540 -0.12330 0.20100
H10 H 0.34530 0.03800 0.26210
C10 C 0.33747(8) 0.3949(2) 0.04240(11)
C11 C 0.29354(8) 0.4352(2) -0.02700(11)
C12 C 0.24146(8) 0.5097(2) -0.02831(11)
H11 H 0.21390 0.53320 -0.07620
C13 C 0.22988(8) 0.5498(2) 0.04043(12)
C14 C 0.27017(8) 0.5222(2) 0.11070(12)
H12 H 0.26210 0.55170 0.15800
C15 C 0.32197(8) 0.4513(2) 0.11026(11)
#END
