
#######################################################################
#
#                 Cambridge Crystallographic Data Centre
#                                CCDC
#
#######################################################################
#
# If this CIF has been generated from an entry in the Cambridge
# Structural Database, then it will include bibliographic, chemical,
# crystal, experimental, refinement or atomic coordinate data resulting
# from the CCDC's data processing and validation procedures.
#
#######################################################################

data_CSD_CIF_GIKNUL
_audit_creation_date 2013-09-13
_audit_creation_method CSD-ConQuest-V1
_database_code_CSD GIKNUL
_database_code_depnum_ccdc_archive 'CCDC 933373'
_chemical_formula_sum 'C16 H19 N1 O6'
_chemical_formula_moiety
;
C16 H19 N1 O6
;
_journal_coden_Cambridge 16
_journal_volume 69
_journal_year 2013
_journal_page_first 5273
_journal_name_full 'Tetrahedron '
loop_
_publ_author_name
"M.Yoshida"
"H.Takai"
"S.Yodokawa"
"Kozo Shishido"
_chemical_name_systematic
;
Methyl 
6a-hydroxy-2-methyl-2-(4-nitrophenyl)hexahydro-3aH-cyclopenta[b]furan-3a-carbo
xylate
;
_cell_volume    759.420
_exptl_crystal_colour 'colorless'
_exptl_crystal_density_diffrn 1.405
_exptl_crystal_description 'block'
_diffrn_ambient_temperature 173.1
#These two values have been output from a single CSD field.
_refine_ls_R_factor_gt 0.051
_refine_ls_wR_factor_gt 0.051
_symmetry_cell_setting triclinic
_symmetry_space_group_name_H-M 'P -1'
_symmetry_Int_Tables_number 2
loop_
_symmetry_equiv_pos_site_id
_symmetry_equiv_pos_as_xyz
1 x,y,z
2 -x,-y,-z
_cell_length_a 8.0609(6)
_cell_length_b 8.7798(7)
_cell_length_c 12.3468(9)
_cell_angle_alpha 77.003(2)
_cell_angle_beta 83.918(2)
_cell_angle_gamma 63.118(2)
_cell_formula_units_Z 2
loop_
_atom_type_symbol
_atom_type_radius_bond
C 0.68
H 0.23
N 0.68
O 0.68
loop_
_atom_site_label
_atom_site_type_symbol
_atom_site_fract_x
_atom_site_fract_y
_atom_site_fract_z
O1 O 0.47574(9) 0.56109(8) 0.34440(5)
O2 O 0.4282(1) 0.34758(8) 0.47701(5)
O3 O 0.4616(1) 0.12808(9) 0.29538(7)
O4 O 0.1908(1) 0.22803(9) 0.38760(6)
O5 O 0.8781(1) 0.9247(1) -0.13536(7)
O6 O 0.7776(1) 1.1002(1) -0.01931(7)
N1 N 0.8048(1) 0.9643(1) -0.04702(8)
C1 C 0.3458(1) 0.4921(1) 0.39041(7)
C2 C 0.1693(1) 0.6413(1) 0.42326(8)
C3 C 0.0573(1) 0.7281(1) 0.31583(9)
C4 C 0.0832(1) 0.5699(1) 0.26900(8)
C5 C 0.2914(1) 0.4389(1) 0.29048(7)
C6 C 0.3262(1) 0.2482(1) 0.32271(8)
C7 C 0.4194(1) 0.4680(1) 0.19485(7)
C8 C 0.5723(1) 0.4856(1) 0.24873(7)
C9 C 0.7417(1) 0.3118(1) 0.28720(8)
C10 C 0.6323(1) 0.6148(1) 0.17307(7)
C11 C 0.6033(1) 0.7712(1) 0.20043(8)
C12 C 0.6604(1) 0.8861(1) 0.12896(8)
C13 C 0.7456(1) 0.8429(1) 0.02941(8)
C14 C 0.7759(1) 0.6892(1) -0.00107(8)
C15 C 0.7199(1) 0.5754(1) 0.07171(8)
C16 C 0.2226(2) 0.0492(1) 0.4278(1)
H1 H 0.43990 0.39200 0.54180
H2 H 0.20450 0.71500 0.46030
H3 H 0.09950 0.59100 0.47630
H4 H 0.11420 0.79640 0.26260
H5 H -0.07280 0.79840 0.32460
H6 H 0.05440 0.59830 0.18850
H7 H -0.00460 0.52730 0.30650
H8 H 0.34660 0.58350 0.14400
H9 H 0.46760 0.37350 0.15500
H10 H 0.80700 0.26150 0.21950
H11 H 0.82900 0.33450 0.32850
H12 H 0.69700 0.23450 0.33650
H13 H 0.54340 0.80060 0.26930
H14 H 0.64380 0.99850 0.14870
H15 H 0.83980 0.66230 -0.07440
H16 H 0.74280 0.46160 0.05150
H17 H 0.34330 -0.02350 0.46880
H18 H 0.22430 0.01150 0.36180
H19 H 0.12030 0.05250 0.47380
#END
