
#######################################################################
#
#                 Cambridge Crystallographic Data Centre
#                                CCDC
#
#######################################################################
#
# If this CIF has been generated from an entry in the Cambridge
# Structural Database, then it will include bibliographic, chemical,
# crystal, experimental, refinement or atomic coordinate data resulting
# from the CCDC's data processing and validation procedures.
#
#######################################################################

data_CSD_CIF_GILFIS
_audit_creation_date 2013-09-13
_audit_creation_method CSD-ConQuest-V1
_database_code_CSD GILFIS
_database_code_depnum_ccdc_archive 'CCDC 908420'
_chemical_formula_sum 'C11 H15 N1 O7'
_chemical_formula_moiety
;
C11 H15 N1 O7
;
_journal_coden_Cambridge 16
_journal_volume 69
_journal_year 2013
_journal_page_first 5989
_journal_name_full 'Tetrahedron '
loop_
_publ_author_name
"J.A.Griffen"
"J.C.White"
"G.Kociok-Kohn"
"M.D.Lloyd"
"A.Wells"
"T.C.Arnot"
"S.E.Lewis"
_chemical_name_systematic
;
12-(Hydroxymethyl)-10,10-dimethyl-3,5,9,11,13-pentaoxa-14-azatetracyclo[5.5.2.
0^2,6^.0^8,12^]tetradecan-4-one
;
_cell_volume   1191.127
_exptl_crystal_colour 'colorless'
_exptl_crystal_density_diffrn 1.524
_exptl_crystal_description 'block'
_diffrn_ambient_temperature 150
#These two values have been output from a single CSD field.
_refine_ls_R_factor_gt 0.0347
_refine_ls_wR_factor_gt 0.0347
_symmetry_cell_setting orthorhombic
_symmetry_space_group_name_H-M 'P 21 21 21'
_symmetry_Int_Tables_number 19
loop_
_symmetry_equiv_pos_site_id
_symmetry_equiv_pos_as_xyz
1 x,y,z
2 1/2-x,-y,1/2+z
3 1/2+x,1/2-y,-z
4 -x,1/2+y,1/2-z
_cell_length_a 5.8882(1)
_cell_length_b 14.2027(3)
_cell_length_c 14.2431(2)
_cell_angle_alpha 90
_cell_angle_beta 90
_cell_angle_gamma 90
_cell_formula_units_Z 4
loop_
_atom_type_symbol
_atom_type_radius_bond
C 0.68
H 0.23
N 0.68
O 0.68
loop_
_atom_site_label
_atom_site_type_symbol
_atom_site_fract_x
_atom_site_fract_y
_atom_site_fract_z
N1 N 0.19314(19) 0.52397(9) 0.35189(9)
H1 H 0.129(4) 0.4803(13) 0.3110(14)
O1 O 0.45393(16) 0.66648(7) 0.16341(7)
O2 O 0.77573(14) 0.58974(6) 0.20515(6)
O3 O 0.8245(2) 0.38897(7) 0.22925(8)
H2 H 0.919(5) 0.3774(16) 0.1823(17)
O4 O 0.40724(17) 0.47593(6) 0.37829(7)
O5 O 0.58793(16) 0.61693(6) 0.48833(6)
O6 O 0.27642(18) 0.69358(8) 0.44638(7)
O7 O 0.33962(18) 0.66255(8) 0.59770(7)
C1 C 0.6861(2) 0.65481(9) 0.13732(8)
C2 C 0.8082(3) 0.74789(9) 0.14950(11)
H3 H 0.79450 0.76870 0.21490
H4 H 0.73990 0.79510 0.10800
H5 H 0.96900 0.74010 0.13360
C3 C 0.7059(3) 0.61598(12) 0.03841(9)
H6 H 0.60740 0.56080 0.03190
H7 H 0.86370 0.59780 0.02620
H8 H 0.65950 0.66430 -0.00680
C4 C 0.5970(2) 0.53013(8) 0.23763(8)
C5 C 0.6188(2) 0.43120(9) 0.19716(9)
H9 H 0.48750 0.39250 0.21710
H10 H 0.61900 0.43430 0.12770
C6 C 0.6036(2) 0.52480(8) 0.34526(8)
H11 H 0.74310 0.49010 0.36540
C7 C 0.6067(2) 0.62292(8) 0.38716(8)
H12 H 0.74510 0.65870 0.36770
C8 C 0.3963(2) 0.65757(9) 0.51693(9)
C9 C 0.3884(2) 0.67392(9) 0.35799(8)
H13 H 0.42390 0.73350 0.32370
C10 C 0.2451(2) 0.60872(9) 0.29780(9)
H14 H 0.10070 0.64110 0.28000
C11 C 0.3784(2) 0.58310(9) 0.20895(9)
H15 H 0.28380 0.54390 0.16560
#END
