
#######################################################################
#
#                 Cambridge Crystallographic Data Centre
#                                CCDC
#
#######################################################################
#
# If this CIF has been generated from an entry in the Cambridge
# Structural Database, then it will include bibliographic, chemical,
# crystal, experimental, refinement or atomic coordinate data resulting
# from the CCDC's data processing and validation procedures.
#
#######################################################################

data_CSD_CIF_GILHUF
_audit_creation_date 2007-12-14
_audit_creation_method CSD-ConQuest-V1
_database_code_CSD GILHUF
_database_code_depnum_ccdc_archive 'CCDC 661831'
_chemical_formula_sum 'C35 H43 N1 O3'
_chemical_formula_moiety
;
C35 H43 N1 O3
;
_journal_coden_Cambridge 172
_journal_volume 40
_journal_year 2007
_journal_page_first 6224
_journal_name_full 'Macromolecules '
loop_
_publ_author_name
"A.Debuigne"
"D.Chan-Seng"
"Lichun Li"
"G.K.Hamer"
"M.K.Georges"
_chemical_name_systematic
;
2-(Benzoyloxy)-1-phenyl-1-(1,1'-diadamantylaminoxy)ethane
;
_chemical_melting_point 385.15
_cell_volume   1372.568
_exptl_crystal_density_diffrn 1.272
_exptl_special_details
;
Melting point range 385.15-386.15K

;
_exptl_crystal_description 'needle'
_exptl_crystal_preparation '2-propanol'
_diffrn_ambient_temperature 150
#These two values have been output from a single CSD field.
_refine_ls_R_factor_gt 0.0558
_refine_ls_wR_factor_gt 0.0558
_symmetry_cell_setting triclinic
_symmetry_space_group_name_H-M 'P -1'
_symmetry_Int_Tables_number 2
loop_
_symmetry_equiv_pos_site_id
_symmetry_equiv_pos_as_xyz
1 x,y,z
2 -x,-y,-z
_cell_length_a 6.3916(3)
_cell_length_b 14.6153(9)
_cell_length_c 15.2826(8)
_cell_angle_alpha 75.722(3)
_cell_angle_beta 84.056(3)
_cell_angle_gamma 84.580(3)
_cell_formula_units_Z 2
loop_
_atom_type_symbol
_atom_type_radius_bond
C 0.68
H 0.23
N 0.68
O 0.68
loop_
_atom_site_label
_atom_site_type_symbol
_atom_site_fract_x
_atom_site_fract_y
_atom_site_fract_z
N1 N 0.3808(3) 0.22425(13) 0.27609(12)
O1 O 0.2870(2) 0.27976(11) 0.19351(10)
O2 O 0.2448(3) 0.47441(11) 0.10197(10)
O3 O -0.0916(3) 0.44070(12) 0.09923(11)
C1 C 0.3297(3) 0.28433(15) 0.34483(14)
C2 C 0.4774(3) 0.36572(16) 0.31777(15)
H1 H 0.62530 0.33900 0.31370
H2 H 0.44690 0.40510 0.25720
C3 C 0.4518(3) 0.42818(16) 0.38588(15)
H3 H 0.55110 0.47970 0.36620
C4 C 0.2246(3) 0.47162(16) 0.38909(16)
H4 H 0.20490 0.51210 0.43300
H5 H 0.19450 0.51150 0.32870
C5 C 0.0736(3) 0.39235(16) 0.41760(15)
H6 H -0.07490 0.42080 0.41960
C6 C 0.1190(3) 0.33263(17) 0.51194(15)
H7 H 0.09760 0.37260 0.55620
H8 H 0.02130 0.28140 0.53130
C7 C 0.3469(3) 0.29022(16) 0.50871(15)
H9 H 0.37670 0.25090 0.57020
C8 C 0.3829(3) 0.22761(16) 0.44031(14)
H10 H 0.29330 0.17340 0.46050
H11 H 0.53200 0.20220 0.43790
C9 C 0.1009(3) 0.32836(16) 0.35038(15)
H12 H 0.06630 0.36600 0.28970
H13 H 0.00250 0.27740 0.37020
C10 C 0.4978(3) 0.36888(17) 0.48073(15)
H14 H 0.64540 0.34140 0.47990
H15 H 0.47840 0.40940 0.52460
C11 C 0.3100(3) 0.12433(15) 0.29603(14)
C12 C 0.3161(3) 0.09387(16) 0.20625(15)
H16 H 0.21080 0.13440 0.16810
H17 H 0.45710 0.10380 0.17340
C13 C 0.2703(3) -0.00980(16) 0.22035(16)
H18 H 0.27290 -0.02500 0.15990
C14 C 0.4406(3) -0.07319(17) 0.27429(16)
H19 H 0.58060 -0.06400 0.24040
H20 H 0.41160 -0.14060 0.28460
C15 C 0.4379(3) -0.04604(16) 0.36510(16)
H21 H 0.54870 -0.08650 0.40150
C16 C 0.2211(3) -0.06235(17) 0.41725(16)
H22 H 0.21920 -0.04590 0.47640
H23 H 0.19310 -0.12990 0.42880
C17 C 0.0497(3) -0.00090(16) 0.36192(15)
H24 H -0.09130 -0.01250 0.39600
C18 C 0.0888(3) 0.10474(16) 0.34530(15)
H25 H 0.07800 0.12290 0.40400
H26 H -0.02030 0.14360 0.30810
C19 C 0.4814(3) 0.05831(15) 0.34976(15)
H27 H 0.62110 0.06910 0.31590
H28 H 0.48520 0.07380 0.40900
C20 C 0.0530(3) -0.02758(17) 0.27090(16)
H29 H 0.02550 -0.09510 0.28100
H30 H -0.05790 0.01120 0.23470
C21 C 0.4438(3) 0.32026(16) 0.12268(15)
H31 H 0.54970 0.34890 0.14970
C22 C 0.3228(4) 0.39823(17) 0.05862(16)
H32 H 0.41620 0.42360 0.00380
H33 H 0.20260 0.37200 0.03950
C23 C 0.0346(4) 0.48943(17) 0.11606(15)
C24 C -0.0253(4) 0.57218(17) 0.15600(15)
C25 C 0.1169(4) 0.63775(18) 0.15816(17)
H34 H 0.25800 0.63120 0.13280
C26 C 0.0520(4) 0.71259(18) 0.19736(17)
H35 H 0.14900 0.75760 0.19850
C27 C -0.1522(4) 0.72246(19) 0.23475(17)
H36 H -0.19440 0.77350 0.26250
C28 C -0.2952(4) 0.65854(19) 0.23201(18)
H37 H -0.43630 0.66580 0.25710
C29 C -0.2319(4) 0.58337(18) 0.19237(16)
H38 H -0.33050 0.53940 0.19010
C30 C 0.5577(3) 0.25166(16) 0.07115(15)
C31 C 0.4586(4) 0.21846(17) 0.00887(15)
H39 H 0.32050 0.24340 -0.00590
C32 C 0.5599(4) 0.14960(18) -0.03137(16)
H40 H 0.49050 0.12730 -0.07330
C33 C 0.7612(4) 0.11286(19) -0.01107(17)
H41 H 0.82840 0.06390 -0.03720
C34 C 0.8637(4) 0.14788(19) 0.04750(16)
H42 H 1.00380 0.12440 0.06020
C35 C 0.7635(4) 0.21721(17) 0.08798(15)
H43 H 0.83620 0.24140 0.12760
#END
