
#######################################################################
#
#                 Cambridge Crystallographic Data Centre
#                                CCDC
#
#######################################################################
#
# If this CIF has been generated from an entry in the Cambridge
# Structural Database, then it will include bibliographic, chemical,
# crystal, experimental, refinement or atomic coordinate data resulting
# from the CCDC's data processing and validation procedures.
#
#######################################################################

data_CSD_CIF_GILJAN
_audit_creation_date 2007-12-14
_audit_creation_method CSD-ConQuest-V1
_database_code_CSD GILJAN
_database_code_depnum_ccdc_archive 'CCDC 661832'
_chemical_formula_sum 'C24 H31 N1 O3'
_chemical_formula_moiety
;
C24 H31 N1 O3
;
_journal_coden_Cambridge 172
_journal_volume 40
_journal_year 2007
_journal_page_first 6224
_journal_name_full 'Macromolecules '
loop_
_publ_author_name
"A.Debuigne"
"D.Chan-Seng"
"Lichun Li"
"G.K.Hamer"
"M.K.Georges"
_chemical_name_systematic
;
2-(Benzoyloxy)-1-phenyl-1-(2',2',6',6'-tetramethyl-1'-piperidyloxy)ethane
;
_cell_volume   2106.440
_exptl_crystal_colour 'colorless'
_exptl_crystal_density_diffrn 1.203
_exptl_crystal_description 'plate'
_exptl_crystal_preparation '2-propanol'
_diffrn_ambient_temperature 150
#These two values have been output from a single CSD field.
_refine_ls_R_factor_gt 0.0678
_refine_ls_wR_factor_gt 0.0678
_symmetry_cell_setting triclinic
_symmetry_space_group_name_H-M 'P -1'
_symmetry_Int_Tables_number 2
loop_
_symmetry_equiv_pos_site_id
_symmetry_equiv_pos_as_xyz
1 x,y,z
2 -x,-y,-z
_cell_length_a 6.3039(2)
_cell_length_b 15.2176(4)
_cell_length_c 22.4312(5)
_cell_angle_alpha 80.1900(16)
_cell_angle_beta 85.7520(15)
_cell_angle_gamma 84.3440(15)
_cell_formula_units_Z 4
loop_
_atom_type_symbol
_atom_type_radius_bond
C 0.68
H 0.23
N 0.68
O 0.68
loop_
_atom_site_label
_atom_site_type_symbol
_atom_site_fract_x
_atom_site_fract_y
_atom_site_fract_z
O1 O 0.5900(3) 0.34561(14) 0.68457(9)
O2 O 0.7554(4) 0.37729(15) 0.82931(9)
O3 O 1.0940(4) 0.41443(18) 0.82128(11)
N1 N 0.3792(4) 0.35243(17) 0.65995(11)
C1 C 0.3822(5) 0.2799(2) 0.62198(14)
C2 C 0.1696(5) 0.2934(2) 0.59101(15)
H1 H 0.17110 0.24920 0.56320
H2 H 0.05230 0.28120 0.62230
C3 C 0.1236(6) 0.3873(2) 0.55518(15)
H3 H 0.23340 0.39900 0.52160
H4 H -0.01780 0.39280 0.53770
C4 C 0.1265(5) 0.4540(2) 0.59805(15)
H5 H 0.00840 0.44440 0.62940
H6 H 0.10040 0.51530 0.57510
C5 C 0.3383(5) 0.4470(2) 0.62940(14)
C6 C 0.5731(5) 0.2743(2) 0.57582(15)
H7 H 0.70500 0.27830 0.59530
H8 H 0.55560 0.32370 0.54190
H9 H 0.58060 0.21710 0.56080
C7 C 0.3853(6) 0.1905(2) 0.66504(16)
H10 H 0.27710 0.19490 0.69830
H11 H 0.52660 0.17580 0.68150
H12 H 0.35420 0.14340 0.64290
C8 C 0.5174(6) 0.4841(2) 0.58493(15)
H13 H 0.52980 0.45350 0.54960
H14 H 0.65260 0.47390 0.60500
H15 H 0.48400 0.54840 0.57180
C9 C 0.3042(6) 0.5061(2) 0.67896(15)
H16 H 0.20080 0.48080 0.71050
H17 H 0.24970 0.56670 0.66120
H18 H 0.44020 0.50840 0.69690
C10 C 0.5773(5) 0.3358(2) 0.75007(13)
H19 H 0.43640 0.36350 0.76440
C11 C 0.6078(5) 0.2388(2) 0.77982(14)
C12 C 0.4445(6) 0.1986(2) 0.81635(15)
H20 H 0.31480 0.23300 0.82460
C13 C 0.4709(6) 0.1079(2) 0.84085(16)
H21 H 0.35910 0.08050 0.86580
C14 C 0.6580(6) 0.0582(2) 0.82895(16)
H22 H 0.67440 -0.00390 0.84500
C15 C 0.8224(6) 0.0980(2) 0.79389(15)
H23 H 0.95310 0.06360 0.78670
C16 C 0.7978(5) 0.1877(2) 0.76923(14)
H24 H 0.91130 0.21470 0.74490
C17 C 0.7568(5) 0.3886(2) 0.76394(13)
H25 H 0.89600 0.36500 0.74690
H26 H 0.73070 0.45270 0.74640
C18 C 0.9373(5) 0.3926(2) 0.85202(15)
C19 C 0.9216(5) 0.3806(2) 0.91953(14)
C20 C 1.1004(6) 0.3964(2) 0.94817(16)
H27 H 1.22530 0.41410 0.92460
C21 C 1.0963(7) 0.3865(3) 1.01036(17)
H28 H 1.21910 0.39630 1.02960
C22 C 0.9144(7) 0.3623(3) 1.04478(17)
H29 H 0.91130 0.35630 1.08770
C23 C 0.7366(7) 0.3467(3) 1.01688(17)
H30 H 0.61210 0.32940 1.04070
C24 C 0.7391(6) 0.3562(2) 0.95378(16)
H31 H 0.61640 0.34600 0.93460
O4 O 0.4478(3) 0.15173(14) 0.31813(9)
O5 O 0.6686(3) 0.09674(15) 0.17400(9)
O6 O 1.0079(4) 0.13048(17) 0.17639(11)
N2 N 0.2306(4) 0.16059(17) 0.34573(11)
C25 C 0.2199(5) 0.2369(2) 0.38091(14)
C26 C 0.0008(5) 0.2398(2) 0.41579(15)
H32 H -0.00640 0.28650 0.44180
H33 H -0.11140 0.25720 0.38630
C27 C -0.0460(6) 0.1517(2) 0.45505(16)
H34 H -0.19130 0.15700 0.47490
H35 H 0.05790 0.13550 0.48700
C28 C -0.0295(5) 0.0802(2) 0.41476(16)
H36 H -0.14180 0.09510 0.38510
H37 H -0.05690 0.02200 0.44010
C29 C 0.1879(5) 0.0703(2) 0.38038(14)
C30 C 0.4009(6) 0.2335(2) 0.42314(16)
H38 H 0.53760 0.21860 0.40180
H39 H 0.37880 0.18780 0.45890
H40 H 0.40240 0.29200 0.43580
C31 C 0.2249(6) 0.3235(2) 0.33503(16)
H41 H 0.12150 0.32380 0.30450
H42 H 0.36840 0.32730 0.31520
H43 H 0.18810 0.37490 0.35600
C32 C 0.3603(6) 0.0251(2) 0.42390(15)
H44 H 0.35210 0.05490 0.45950
H45 H 0.50190 0.02970 0.40300
H46 H 0.33620 -0.03820 0.43680
C33 C 0.1710(6) 0.0090(2) 0.33362(15)
H47 H 0.07460 0.03900 0.30260
H48 H 0.11490 -0.04690 0.35390
H49 H 0.31280 -0.00410 0.31450
C34 C 0.4512(5) 0.1593(2) 0.25277(13)
H50 H 0.31450 0.14110 0.24060
C35 C 0.4874(5) 0.2529(2) 0.22097(14)
C36 C 0.3345(6) 0.3022(2) 0.18488(14)
H51 H 0.21040 0.27560 0.17780
C37 C 0.3612(6) 0.3904(2) 0.15889(15)
H52 H 0.25480 0.42420 0.13460
C38 C 0.5432(6) 0.4288(2) 0.16848(16)
H53 H 0.56050 0.48940 0.15120
C39 C 0.7001(6) 0.3792(2) 0.20318(16)
H54 H 0.82650 0.40520 0.20900
C40 C 0.6720(5) 0.2919(2) 0.22922(15)
H55 H 0.77960 0.25790 0.25300
C41 C 0.6358(5) 0.0917(2) 0.23909(14)
H56 H 0.76730 0.10510 0.25610
H57 H 0.60260 0.03060 0.25800
C42 C 0.8621(5) 0.1169(2) 0.14829(15)
C43 C 0.8763(5) 0.1181(2) 0.08147(14)
C44 C 1.0649(6) 0.1420(2) 0.04945(16)
H58 H 1.17970 0.15630 0.07020
C45 C 1.0853(7) 0.1448(3) -0.01283(17)
H59 H 1.21370 0.16140 -0.03480
C46 C 0.9191(7) 0.1234(3) -0.04279(17)
H60 H 0.93400 0.12500 -0.08540
C47 C 0.7312(7) 0.0998(3) -0.01129(17)
H61 H 0.61770 0.08530 -0.03240
C48 C 0.7070(6) 0.0971(2) 0.05106(15)
H62 H 0.57730 0.08130 0.07270
#END
