
#######################################################################
#
#                 Cambridge Crystallographic Data Centre
#                                CCDC
#
#######################################################################
#
# If this CIF has been generated from an entry in the Cambridge
# Structural Database, then it will include bibliographic, chemical,
# crystal, experimental, refinement or atomic coordinate data resulting
# from the CCDC's data processing and validation procedures.
#
#######################################################################

data_CSD_CIF_GILRUQ
_audit_creation_date 2013-09-13
_audit_creation_method CSD-ConQuest-V1
_database_code_CSD GILRUQ
_database_code_depnum_ccdc_archive 'CCDC 916960'
_chemical_formula_sum 'C12 H15 N1 O5'
_chemical_formula_moiety
;
C12 H15 N1 O5
;
_journal_coden_Cambridge 24
_journal_volume 54
_journal_year 2013
_journal_page_first 3194
_journal_name_full 'Tetrahedron Lett. '
loop_
_publ_author_name
"Meng-Yang Chang"
"Chung-Han Lin"
"Hang-Yi Tai"
_chemical_name_systematic
;
1,3,5-Trimethoxy-2-(2-nitroprop-1-en-1-yl)benzene
;
_cell_volume   1233.582
_exptl_crystal_colour 'yellow'
_exptl_crystal_density_diffrn 1.364
_exptl_crystal_description 'tabular'
_diffrn_ambient_temperature 100
#These two values have been output from a single CSD field.
_refine_ls_R_factor_gt 0.0325
_refine_ls_wR_factor_gt 0.0325
_symmetry_cell_setting orthorhombic
_symmetry_space_group_name_H-M 'P c a 21'
_symmetry_Int_Tables_number 29
loop_
_symmetry_equiv_pos_site_id
_symmetry_equiv_pos_as_xyz
1 x,y,z
2 -x,-y,1/2+z
3 1/2-x,y,1/2+z
4 1/2+x,-y,z
_cell_length_a 16.0963(9)
_cell_length_b 4.0501(2)
_cell_length_c 18.9224(10)
_cell_angle_alpha 90
_cell_angle_beta 90
_cell_angle_gamma 90
_cell_formula_units_Z 4
loop_
_atom_type_symbol
_atom_type_radius_bond
C 0.68
H 0.23
N 0.68
O 0.68
loop_
_atom_site_label
_atom_site_type_symbol
_atom_site_fract_x
_atom_site_fract_y
_atom_site_fract_z
C1 C 0.53983(13) 0.4414(6) -0.06742(10)
H1 H 0.56680 0.64930 -0.05420
H2 H 0.49390 0.48700 -0.09990
H3 H 0.58030 0.29680 -0.09060
C2 C 0.70976(10) -0.0086(4) 0.28805(9)
C3 C 0.72131(10) -0.0449(4) 0.21859(9)
H4 H 0.77210 -0.14430 0.20440
C4 C 0.66452(9) 0.0512(4) 0.16204(8)
C5 C 0.57921(10) -0.0282(4) 0.16166(9)
C6 C 0.52903(10) 0.0536(4) 0.10508(9)
H5 H 0.47150 0.00160 0.10580
C7 C 0.56357(10) 0.2127(5) 0.04703(9)
C8 C 0.46552(11) -0.2765(5) 0.22300(12)
H6 H 0.43230 -0.07380 0.22090
H7 H 0.45420 -0.39200 0.26750
H8 H 0.45080 -0.41960 0.18320
C9 C 0.64732(10) 0.2902(4) 0.04414(8)
H9 H 0.67030 0.39800 0.00410
C10 C 0.69666(9) 0.2056(4) 0.10149(9)
C11 C 0.81751(11) 0.4221(6) 0.04422(10)
H10 H 0.81030 0.27900 0.00290
H11 H 0.87690 0.45460 0.05320
H12 H 0.79120 0.63620 0.03520
C12 C 0.64195(11) 0.1638(5) 0.32603(10)
H13 H 0.61060 0.30080 0.29270
H14 H 0.66570 0.30410 0.36310
H15 H 0.60470 0.00070 0.34750
N1 N 0.77498(9) -0.1445(4) 0.33406(8)
O1 O 0.83418(9) -0.2875(5) 0.30865(8)
O2 O 0.50862(7) 0.2833(4) -0.00572(7)
O3 O 0.55126(7) -0.1951(3) 0.21928(6)
O4 O 0.77990(7) 0.2714(3) 0.10443(7)
O5 O 0.76563(11) -0.1148(5) 0.39776(7)
#END
