
#######################################################################
#
#                 Cambridge Crystallographic Data Centre
#                                CCDC
#
#######################################################################
#
# If this CIF has been generated from an entry in the Cambridge
# Structural Database, then it will include bibliographic, chemical,
# crystal, experimental, refinement or atomic coordinate data resulting
# from the CCDC's data processing and validation procedures.
#
#######################################################################

data_CSD_CIF_GILYUV
_audit_creation_date 1989-05-23
_audit_creation_method CSD-ConQuest-V1
_database_code_CSD GILYUV
_chemical_formula_sum 'C12 H12 N2 O4'
_chemical_formula_moiety
;
C12 H12 N2 O4
;
_journal_coeditor_code "IUCr CN0300"
_journal_coden_Cambridge 591
_journal_volume 44
_journal_year 1988
_journal_page_first 1059
_journal_name_full 'Acta Crystallogr.,Sect.C:Cryst.Struct.Commun. '
loop_
_publ_author_name
"H.L.Ammon"
"Z.Du"
_chemical_name_systematic
;
5,11-Dinitrohexacyclo(5.4.1.0^2,6^.0^3,10^.0^4,8^.0^9,12^)dodecane
;
_cell_volume   3197.876
_exptl_crystal_colour 'colorless'
_exptl_crystal_density_diffrn 1.547
_diffrn_ambient_temperature ?
_diffrn_special_details
;
The study was carried out at room temperature,in the range 283-303K

;
#These two values have been output from a single CSD field.
_refine_ls_R_factor_gt 0.045
_refine_ls_wR_factor_gt 0.045
_symmetry_cell_setting monoclinic
_symmetry_space_group_name_H-M 'C 2/c'
_symmetry_Int_Tables_number 15
loop_
_symmetry_equiv_pos_site_id
_symmetry_equiv_pos_as_xyz
1 x,y,z
2 1/2+x,1/2+y,z
3 -x,y,1/2-z
4 1/2-x,1/2+y,1/2-z
5 -x,-y,-z
6 -1/2-x,-1/2-y,-z
7 x,-y,-1/2+z
8 -1/2+x,-1/2-y,-1/2+z
_cell_length_a 25.448(2)
_cell_length_b 9.165(1)
_cell_length_c 17.248(5)
_cell_angle_alpha 90
_cell_angle_beta 127.35(2)
_cell_angle_gamma 90
_cell_formula_units_Z 12
loop_
_atom_type_symbol
_atom_type_radius_bond
C 0.68
H 0.23
N 0.68
O 0.68
loop_
_atom_site_label
_atom_site_type_symbol
_atom_site_fract_x
_atom_site_fract_y
_atom_site_fract_z
O1 O 0.2084(2) 0.4074(4) -0.1027(2)
O2 O 0.2861(2) 0.5618(4) -0.0117(3)
O3 O 0.0478(2) 0.4493(5) 0.1921(3)
O4 O 0.1388(2) 0.3352(4) 0.2595(2)
O5 O 0.3799(2) 0.4634(4) 0.3478(3)
O6 O 0.4730(2) 0.3542(3) 0.4442(2)
N1 N 0.2322(2) 0.5088(4) -0.0448(3)
N2 N 0.0995(2) 0.4289(4) 0.2046(3)
N3 N 0.4367(2) 0.4408(4) 0.3791(3)
C1 C 0.1925(2) 0.5741(5) -0.0156(3)
C2 C 0.2302(2) 0.5705(5) 0.0949(3)
C3 C 0.1775(2) 0.6238(5) 0.1048(3)
C4 C 0.1856(2) 0.5369(5) 0.1878(3)
C5 C 0.1137(2) 0.5215(5) 0.1478(3)
C6 C 0.0899(2) 0.4479(5) 0.0513(3)
C7 C 0.1114(2) 0.5607(5) 0.0107(3)
C8 C 0.1342(2) 0.4811(4) -0.0420(3)
C9 C 0.2328(2) 0.4078(5) 0.1164(3)
C10 C 0.2053(2) 0.3873(5) 0.1739(3)
C11 C 0.1394(2) 0.3265(5) 0.0811(3)
C12 C 0.1673(2) 0.3473(5) 0.0232(3)
C13 C 0.4266(2) 0.4888(6) 0.2281(3)
C14 C 0.4616(2) 0.5287(5) 0.3338(3)
C15 C 0.5301(2) 0.4879(5) 0.3671(3)
C16 C 0.5219(2) 0.3362(6) 0.3272(4)
C17 C 0.4512(2) 0.3364(6) 0.2325(3)
C18 C 0.4641(2) 0.5784(5) 0.2022(3)
H1 H 0.179(2) 0.672(5) -0.054(3)
H2 H 0.272(2) 0.621(4) 0.134(3)
H3 H 0.174(2) 0.724(4) 0.104(3)
H4 H 0.216(2) 0.576(5) 0.250(3)
H5 H 0.089(2) 0.624(4) 0.139(2)
H6 H 0.042(2) 0.423(4) 0.008(2)
H7 H 0.080(2) 0.638(4) -0.026(3)
H8 H 0.098(2) 0.461(4) -0.118(3)
H9 H 0.273(2) 0.360(4) 0.138(3)
H10 H 0.226(2) 0.331(5) 0.231(3)
H11 H 0.125(2) 0.239(4) 0.087(3)
H12 H 0.170(2) 0.265(5) -0.005(3)
H13 H 0.384(2) 0.498(4) 0.189(3)
H14 H 0.460(2) 0.628(4) 0.351(3)
H15 H 0.564(2) 0.498(5) 0.436(3)
H16 H 0.531(2) 0.268(6) 0.371(3)
H17 H 0.420(2) 0.264(5) 0.221(3)
H18 H 0.451(2) 0.680(5) 0.184(3)
C18B C 0.5359(2) 0.5784(5) 0.2978(3)
C17B C 0.5488(2) 0.3364(6) 0.2675(3)
C16B C 0.4781(2) 0.3362(6) 0.1728(4)
C15B C 0.4699(2) 0.4879(5) 0.1329(3)
C13B C 0.5734(2) 0.4888(6) 0.2719(3)
H18B H 0.549(2) 0.680(5) 0.316(3)
H17B H 0.580(2) 0.264(5) 0.279(3)
H16B H 0.469(2) 0.268(6) 0.129(3)
C14B C 0.5384(2) 0.5287(5) 0.1662(3)
H15B H 0.436(2) 0.498(5) 0.064(3)
H13B H 0.616(2) 0.498(4) 0.311(3)
N3B N 0.5633(2) 0.4408(4) 0.1209(3)
H14B H 0.540(2) 0.628(4) 0.149(3)
O5B O 0.6201(2) 0.4634(4) 0.1522(3)
O6B O 0.5270(2) 0.3542(3) 0.0558(2)
#END
