
#######################################################################
#
#                 Cambridge Crystallographic Data Centre
#                                CCDC
#
#######################################################################
#
# If this CIF has been generated from an entry in the Cambridge
# Structural Database, then it will include bibliographic, chemical,
# crystal, experimental, refinement or atomic coordinate data resulting
# from the CCDC's data processing and validation procedures.
#
#######################################################################

data_CSD_CIF_GILYEG
_audit_creation_date 2007-12-14
_audit_creation_method CSD-ConQuest-V1
_database_code_CSD GILYEG
_database_code_depnum_ccdc_archive 'CCDC 655418'
_chemical_formula_sum 'C28 H29 N3 O3'
_chemical_formula_moiety
;
C28 H29 N3 O3
;
_journal_coden_Cambridge 16
_journal_volume 63
_journal_year 2007
_journal_page_first 10581
_journal_name_full 'Tetrahedron '
loop_
_publ_author_name
"K.Karthikeyan"
"P.T.Perumal"
"S.Etti"
"G.Shanmugam"
_chemical_name_systematic
;
exo-5-Ethoxy-3-(3-(4-ethoxyphenyl)-1-phenyl-1H-pyrazol-4-yl)-2-phenylisoxazoli
dine
;
_chemical_melting_point 377.15
_cell_volume   2383.480
_exptl_crystal_colour 'yellow'
_exptl_crystal_density_diffrn 1.269
_exptl_crystal_description 'block'
_diffrn_ambient_temperature 293
#These two values have been output from a single CSD field.
_refine_ls_R_factor_gt 0.0957
_refine_ls_wR_factor_gt 0.0957
_symmetry_cell_setting monoclinic
_symmetry_space_group_name_H-M 'P 21'
_symmetry_Int_Tables_number 4
loop_
_symmetry_equiv_pos_site_id
_symmetry_equiv_pos_as_xyz
1 x,y,z
2 -x,1/2+y,-z
_cell_length_a 8.8384(10)
_cell_length_b 27.251(3)
_cell_length_c 9.9448(11)
_cell_angle_alpha 90
_cell_angle_beta 95.684(7)
_cell_angle_gamma 90
_cell_formula_units_Z 4
loop_
_atom_type_symbol
_atom_type_radius_bond
C 0.68
H 0.23
N 0.68
O 0.68
loop_
_atom_site_label
_atom_site_type_symbol
_atom_site_fract_x
_atom_site_fract_y
_atom_site_fract_z
N1 N 0.0911(11) 0.1417(4) 0.9055(8)
N2 N 0.0295(9) 0.1255(4) 0.7803(8)
C1 C 0.0805(13) 0.1538(5) 0.6895(11)
H1 H 0.05660 0.14990 0.59690
C2 C 0.1717(12) 0.1895(5) 0.7450(11)
C3 C 0.1736(11) 0.1794(5) 0.8848(8)
C4 C 0.2549(11) 0.2278(5) 0.6711(10)
H2 H 0.35110 0.23490 0.72530
N3 N 0.1721(11) 0.2723(4) 0.6529(7)
O1 O 0.0590(8) 0.2578(3) 0.5352(7)
C5 C 0.1555(12) 0.2317(6) 0.4399(12)
H3 H 0.18800 0.25400 0.37110
C6 C 0.2909(13) 0.2124(6) 0.5322(10)
H4 H 0.29880 0.17700 0.52590
H5 H 0.38520 0.22710 0.50980
C7 C -0.0706(13) 0.0851(5) 0.7722(11)
C8 C -0.0996(14) 0.0624(5) 0.6482(13)
H6 H -0.05520 0.07310 0.57250
C9 C -0.1979(15) 0.0228(5) 0.6422(14)
H7 H -0.21550 0.00630 0.56020
C10 C -0.2707(17) 0.0063(6) 0.7474(17)
H8 H -0.33720 -0.02020 0.73690
C11 C -0.2434(13) 0.0296(6) 0.8699(14)
H9 H -0.29250 0.02030 0.94430
C12 C -0.1349(12) 0.0694(5) 0.8775(14)
H10 H -0.10940 0.08440 0.96050
C13 C 0.2386(12) 0.3155(5) 0.6220(12)
C14 C 0.1844(16) 0.3475(5) 0.5179(12)
H11 H 0.09730 0.33900 0.46270
C15 C 0.255(2) 0.3905(6) 0.4952(15)
H12 H 0.21020 0.41180 0.42990
C16 C 0.388(2) 0.4033(7) 0.5647(18)
H13 H 0.44050 0.43130 0.54270
C17 C 0.4399(17) 0.3756(6) 0.6610(12)
H14 H 0.52140 0.38690 0.71880
C18 C 0.3840(15) 0.3305(6) 0.6852(11)
H15 H 0.44050 0.30910 0.74320
O2 O 0.0668(10) 0.1935(4) 0.3819(8)
C19 C -0.0350(15) 0.2079(6) 0.2727(11)
H16 H 0.02070 0.22080 0.20120
H17 H -0.10100 0.23350 0.30090
C20 C -0.1293(18) 0.1644(7) 0.2206(14)
H18 H -0.20000 0.17450 0.14630
H19 H -0.18400 0.15160 0.29160
H20 H -0.06370 0.13940 0.19080
C21 C 0.2608(10) 0.2040(5) 0.9972(9)
C22 C 0.2842(13) 0.2539(5) 1.0020(11)
H21 H 0.23470 0.27370 0.93540
C23 C 0.3858(13) 0.2764(6) 1.1106(11)
H22 H 0.40420 0.31000 1.11200
C24 C 0.4530(12) 0.2461(5) 1.2101(10)
C25 C 0.4265(12) 0.1964(5) 1.2051(9)
H23 H 0.47130 0.17650 1.27370
C26 C 0.3340(14) 0.1755(5) 1.0996(10)
H24 H 0.32080 0.14160 1.09730
O3 O 0.5478(8) 0.2629(4) 1.3181(7)
C27 C 0.5665(14) 0.3145(6) 1.3257(12)
H25 H 0.47370 0.33040 1.34680
H26 H 0.59580 0.32760 1.24140
C28 C 0.6995(15) 0.3216(7) 1.4455(13)
H27 H 0.72230 0.35590 1.45660
H28 H 0.78880 0.30440 1.42390
H29 H 0.66730 0.30870 1.52790
N4 N 0.5906(10) 0.5865(4) 0.4224(9)
N5 N 0.5325(11) 0.6020(4) 0.2983(9)
C29 C 0.5861(11) 0.5750(6) 0.1905(10)
H30 H 0.56300 0.57990 0.09820
C30 C 0.6809(11) 0.5397(5) 0.2542(9)
C31 C 0.6777(13) 0.5470(5) 0.3990(13)
C32 C 0.7655(11) 0.5018(5) 0.1801(11)
H31 H 0.86110 0.49270 0.23250
N6 N 0.6633(10) 0.4563(4) 0.1504(10)
O4 O 0.5696(7) 0.4703(4) 0.0379(7)
C33 C 0.6530(13) 0.4983(5) -0.0519(10)
H32 H 0.68320 0.47720 -0.12450
C34 C 0.7930(11) 0.5161(5) 0.0353(11)
H33 H 0.80400 0.55140 0.02740
H34 H 0.88400 0.50040 0.00890
C35 C 0.4346(10) 0.6429(5) 0.2829(11)
C36 C 0.3570(11) 0.6591(5) 0.3939(9)
H35 H 0.36480 0.64160 0.47460
C37 C 0.2745(15) 0.6990(5) 0.3802(14)
H36 H 0.23870 0.71220 0.45720
C38 C 0.2373(11) 0.7227(6) 0.2591(12)
H37 H 0.16790 0.74850 0.25220
C39 C 0.3083(16) 0.7066(7) 0.1463(15)
H38 H 0.29000 0.72280 0.06380
C40 C 0.4025(15) 0.6680(6) 0.1583(10)
H39 H 0.44790 0.65730 0.08300
C41 C 0.7513(13) 0.4119(5) 0.1220(11)
C42 C 0.6818(17) 0.3817(6) 0.0194(15)
H40 H 0.58930 0.39070 -0.02680
C43 C 0.7529(18) 0.3380(6) -0.0127(14)
H41 H 0.71120 0.31870 -0.08420
C44 C 0.8857(14) 0.3235(6) 0.0625(13)
H42 H 0.93200 0.29390 0.04450
C45 C 0.9526(18) 0.3558(6) 0.1718(16)
H43 H 1.04470 0.34760 0.22000
C46 C 0.8784(12) 0.3980(5) 0.2018(12)
H44 H 0.91440 0.41700 0.27590
O5 O 0.5661(9) 0.5361(4) -0.1050(7)
C47 C 0.4537(17) 0.5204(6) -0.2129(13)
H45 H 0.50310 0.50370 -0.28290
H46 H 0.38210 0.49790 -0.17800
C48 C 0.377(2) 0.5626(9) -0.266(2)
H47 H 0.30410 0.55340 -0.33970
H48 H 0.44950 0.58500 -0.29840
H49 H 0.32620 0.57820 -0.19690
C49 C 0.7784(14) 0.5242(5) 0.5125(9)
C50 C 0.8013(13) 0.4751(5) 0.5128(9)
H50 H 0.75740 0.45650 0.44090
C51 C 0.8848(15) 0.4529(6) 0.6132(11)
H51 H 0.89820 0.41910 0.61240
C52 C 0.9529(14) 0.4814(5) 0.7211(10)
C53 C 0.9270(15) 0.5307(5) 0.7249(11)
H52 H 0.97300 0.54940 0.79580
C54 C 0.8312(12) 0.5532(6) 0.6224(9)
H53 H 0.80410 0.58600 0.62760
O6 O 1.0549(11) 0.4646(3) 0.8229(9)
C55 C 1.0926(15) 0.4143(5) 0.8389(13)
H54 H 1.13160 0.40240 0.75720
H55 H 1.00140 0.39580 0.85210
C56 C 1.2035(18) 0.4063(6) 0.9512(17)
H56 H 1.22360 0.37170 0.96070
H57 H 1.16590 0.41850 1.03210
H58 H 1.29580 0.42310 0.93630
#END
