
#######################################################################
#
#                 Cambridge Crystallographic Data Centre
#                                CCDC
#
#######################################################################
#
# If this CIF has been generated from an entry in the Cambridge
# Structural Database, then it will include bibliographic, chemical,
# crystal, experimental, refinement or atomic coordinate data resulting
# from the CCDC's data processing and validation procedures.
#
#######################################################################

data_CSD_CIF_GILYAD
_audit_creation_date 2013-09-13
_audit_creation_method CSD-ConQuest-V1
_database_code_CSD GILYAD
_database_code_depnum_ccdc_archive 'CCDC 926513'
_chemical_formula_sum 'C26 H29 N3 O9'
_chemical_formula_moiety
;
C26 H29 N3 O9
;
_journal_coden_Cambridge 24
_journal_volume 54
_journal_year 2013
_journal_page_first 3846
_journal_name_full 'Tetrahedron Lett. '
loop_
_publ_author_name
"Hongbao Sun"
"Xiaoyan Wang"
"Miao Zhan"
"Jie Liu"
"Yongmei Xie"
_chemical_name_systematic
;
Dimethyl 
3-benzyl-5-(((t-butoxycarbonyl)oxy)(4-nitrophenyl)methyl)-4,5-dihydro-3H-pyraz
ole-3,5-dicarboxylate
;
_cell_volume   2673.968
_exptl_crystal_colour 'colorless'
_exptl_crystal_density_diffrn 1.31
_exptl_crystal_description 'block'
_diffrn_ambient_temperature 293.1
#These two values have been output from a single CSD field.
_refine_ls_R_factor_gt 0.0451
_refine_ls_wR_factor_gt 0.0451
_symmetry_cell_setting triclinic
_symmetry_space_group_name_H-M 'P -1'
_symmetry_Int_Tables_number 2
loop_
_symmetry_equiv_pos_site_id
_symmetry_equiv_pos_as_xyz
1 x,y,z
2 -x,-y,-z
_cell_length_a 10.8003(4)
_cell_length_b 13.2507(7)
_cell_length_c 20.1596(10)
_cell_angle_alpha 77.136(4)
_cell_angle_beta 74.787(4)
_cell_angle_gamma 77.315(4)
_cell_formula_units_Z 4
loop_
_atom_type_symbol
_atom_type_radius_bond
C 0.68
H 0.23
N 0.68
O 0.68
loop_
_atom_site_label
_atom_site_type_symbol
_atom_site_fract_x
_atom_site_fract_y
_atom_site_fract_z
O1 O 0.87267(10) 0.23477(9) 0.35532(6)
O2 O 1.03005(14) 0.17884(14) 0.41500(7)
O3 O 0.82131(12) 0.23808(11) 0.46517(6)
O4 O 0.75189(15) 0.45810(13) 0.24499(9)
O5 O 0.92583(14) 0.43752(11) 0.28888(9)
O6 O 0.91512(18) 0.51176(12) 0.08258(10)
O7 O 0.76458(14) 0.44065(11) 0.06213(8)
O8 O 1.0278(2) -0.25125(14) 0.26023(13)
O9 O 1.22412(18) -0.23174(13) 0.22037(11)
N1 N 0.80905(13) 0.26014(12) 0.21866(8)
N2 N 0.81629(15) 0.26998(12) 0.15547(8)
N3 N 1.1117(2) -0.19842(14) 0.24568(10)
C1 C 1.07612(18) -0.08997(13) 0.25805(9)
C2 C 0.94783(18) -0.05255(14) 0.28495(10)
H1 H 0.88500 -0.09520 0.29530
C3 C 0.91430(17) 0.04949(14) 0.2962(1)
H2 H 0.82800 0.07600 0.31480
C4 C 1.00818(15) 0.11361(13) 0.28001(8)
C5 C 1.13679(16) 0.07283(14) 0.25290(9)
H3 H 1.20000 0.11530 0.24210
C6 C 1.17242(17) -0.02923(14) 0.24176(9)
H4 H 1.25880 -0.05660 0.22380
C7 C 0.97180(15) 0.22605(13) 0.29161(8)
H5 H 1.04940 0.24910 0.29560
C8 C 0.91471(15) 0.30279(13) 0.23376(9)
C9 C 1.01174(16) 0.31835(14) 0.16316(9)
H6 H 1.04610 0.38280 0.15550
H7 H 1.08340 0.25960 0.15980
C10 C 0.92831(17) 0.32403(14) 0.11195(9)
C11 C 0.9931(2) 0.27263(16) 0.04708(10)
H8 H 0.92590 0.27240 0.02330
H9 H 1.05270 0.31650 0.01570
C12 C 1.0669(2) 0.16209(17) 0.05965(10)
C13 C 1.2000(2) 0.1434(2) 0.05307(12)
H10 H 1.24410 0.19980 0.04330
C14 C 1.2688(3) 0.0422(3) 0.06085(14)
H11 H 1.35840 0.03090 0.05640
C15 C 1.2054(4) -0.0411(2) 0.07503(14)
H12 H 1.25200 -0.10920 0.07950
C16 C 1.0743(4) -0.0248(2) 0.08261(15)
H13 H 1.03130 -0.08180 0.09270
C17 C 1.0045(3) 0.0762(2) 0.07536(13)
H14 H 0.91460 0.08660 0.08110
C18 C 0.91987(18) 0.21372(14) 0.41326(9)
C19 C 0.8434(2) 0.22004(17) 0.53697(10)
C20 C 0.7117(3) 0.2617(3) 0.57807(13)
H15 H 0.68620 0.33410 0.55880
H16 H 0.71540 0.25580 0.62590
H17 H 0.64920 0.22170 0.57580
C21 C 0.9420(3) 0.2821(2) 0.53876(14)
H18 H 1.02550 0.25470 0.51210
H19 H 0.94720 0.27710 0.58620
H20 H 0.91670 0.35430 0.51910
C22 C 0.8845(3) 0.1041(2) 0.55968(13)
H21 H 0.82510 0.06660 0.55140
H22 H 0.88390 0.08980 0.60860
H23 H 0.97070 0.08200 0.53360
C23 C 0.85231(18) 0.40808(15) 0.25678(10)
C24 C 0.8828(3) 0.5377(2) 0.31149(18)
H24 H 0.87400 0.59220 0.27190
H25 H 0.94550 0.55010 0.33350
H26 H 0.80020 0.53760 0.34420
C25 C 0.86912(19) 0.43720(16) 0.08529(10)
C26 C 0.7030(2) 0.54272(19) 0.03229(15)
H27 H 0.76310 0.57240 -0.00770
H28 H 0.67750 0.58810 0.06640
H29 H 0.62740 0.53560 0.01830
O10 O 1.47434(11) 0.08743(9) 0.22662(7)
O11 O 1.66681(15) -0.00867(12) 0.24134(9)
O12 O 1.53144(13) -0.06203(10) 0.19310(8)
O13 O 1.38903(15) 0.54846(14) 0.12118(9)
O14 O 1.18174(13) 0.54458(10) 0.17422(7)
O15 O 1.35163(15) 0.30083(14) 0.11178(8)
O16 O 1.56158(13) 0.24081(13) 0.10798(7)
O17 O 1.2760(2) 0.1017(2) 0.57979(9)
O18 O 1.4634(2) 0.12994(16) 0.57781(9)
N4 N 1.28837(13) 0.28400(12) 0.25116(8)
N5 N 1.24026(14) 0.37369(12) 0.26295(8)
N6 N 1.3830(2) 0.11983(16) 0.5489(1)
C27 C 1.41685(19) 0.12927(15) 0.4724(1)
C28 C 1.53151(18) 0.16263(15) 0.43543(10)
H30 H 1.58940 0.17550 0.45830
C29 C 1.55820(17) 0.17644(14) 0.36376(9)
H31 H 1.63440 0.20030 0.33790
C30 C 1.47370(16) 0.15547(13) 0.32943(9)
C31 C 1.35995(18) 0.12032(16) 0.36864(10)
H32 H 1.30320 0.10470 0.34620
C32 C 1.33050(19) 0.10850(16) 0.44005(11)
H33 H 1.25320 0.08670 0.46620
C33 C 1.50619(16) 0.17212(13) 0.25064(9)
H34 H 1.59970 0.17320 0.23360
C34 C 1.43075(16) 0.27361(13) 0.21637(9)
C35 C 1.46886(16) 0.37403(13) 0.22425(10)
H35 H 1.50970 0.36180 0.26350
H36 H 1.52750 0.40220 0.18220
C36 C 1.33850(17) 0.44698(14) 0.23686(10)
C37 C 1.3188(2) 0.52118(15) 0.28910(11)
H37 H 1.37610 0.57250 0.26860
H38 H 1.23010 0.55910 0.29510
C38 C 1.3432(2) 0.47015(15) 0.36016(11)
C39 C 1.2469(2) 0.43073(19) 0.41285(12)
H39 H 1.16710 0.43040 0.40360
C40 C 1.2676(3) 0.3916(2) 0.47950(14)
H40 H 1.20140 0.36590 0.51480
C41 C 1.3845(3) 0.3907(2) 0.49349(15)
H41 H 1.39780 0.36540 0.53840
C42 C 1.4819(3) 0.4267(2) 0.44172(15)
H42 H 1.56230 0.42450 0.45110
C43 C 1.4620(2) 0.46661(17) 0.37538(13)
H43 H 1.52930 0.49140 0.34040
C44 C 1.56935(18) 0.00262(15) 0.22219(10)
C45 C 1.6108(2) -0.16715(18) 0.18627(14)
C46 C 1.5406(3) -0.2071(3) 0.1439(2)
H44 H 1.45080 -0.20530 0.16760
H45 H 1.58040 -0.27790 0.13850
H46 H 1.54620 -0.16320 0.09870
C47 C 1.7473(2) -0.1583(3) 0.14620(17)
H47 H 1.79140 -0.22510 0.13400
H48 H 1.79280 -0.13730 0.17450
H49 H 1.74510 -0.10690 0.10440
C48 C 1.6051(4) -0.2307(2) 0.25783(19)
H50 H 1.51590 -0.22680 0.28320
H51 H 1.65280 -0.20360 0.28190
H52 H 1.64270 -0.30260 0.25440
C49 C 1.44090(18) 0.27266(15) 0.13973(10)
C50 C 1.5877(3) 0.2425(3) 0.03414(12)
H53 H 1.56790 0.31340 0.01060
H54 H 1.53460 0.20010 0.02500
H55 H 1.67790 0.21500 0.01760
C51 C 1.30831(19) 0.51761(15) 0.16978(11)
C52 C 1.1402(2) 0.61975(18) 0.11698(12)
H56 H 1.17570 0.59220 0.07440
H57 H 1.17040 0.68430 0.11280
H58 H 1.04680 0.63260 0.12570
#END
