
#######################################################################
#
#                 Cambridge Crystallographic Data Centre
#                                CCDC
#
#######################################################################
#
# If this CIF has been generated from an entry in the Cambridge
# Structural Database, then it will include bibliographic, chemical,
# crystal, experimental, refinement or atomic coordinate data resulting
# from the CCDC's data processing and validation procedures.
#
#######################################################################

data_CSD_CIF_GILZOR
_audit_creation_date 2007-12-14
_audit_creation_method CSD-ConQuest-V1
_database_code_CSD GILZOR
_database_code_depnum_ccdc_archive 'CCDC 639716'
_chemical_formula_sum 'C38 H38 N6 O4'
_chemical_formula_moiety
;
C38 H38 N6 O4
;
_journal_coden_Cambridge 16
_journal_volume 63
_journal_year 2007
_journal_page_first 10003
_journal_name_full 'Tetrahedron '
loop_
_publ_author_name
"G.Bruno"
"G.Cafeo"
"H.F.Kohnke"
"F.Nicolo"
_chemical_name_systematic
;
5,10,15,20,22,24-hexahydro-5,5,10,15,15,20-hexamethyl-10\a,20beta 
-bis(4-nitrophenyl)calix(4)pyrrole
;
_chemical_melting_point 523.15
_cell_volume   1625.454
_exptl_crystal_colour 'orange'
_exptl_crystal_density_diffrn 1.313
_exptl_special_details
;
Melts with decomposition.

;
_exptl_crystal_description 'plate'
_exptl_crystal_preparation 'ethanol'
_diffrn_ambient_temperature 298
#These two values have been output from a single CSD field.
_refine_ls_R_factor_gt 0.1111
_refine_ls_wR_factor_gt 0.1111
_symmetry_cell_setting monoclinic
_symmetry_space_group_name_H-M 'P 21/n'
_symmetry_Int_Tables_number 14
loop_
_symmetry_equiv_pos_site_id
_symmetry_equiv_pos_as_xyz
1 x,y,z
2 1/2-x,1/2+y,1/2-z
3 -x,-y,-z
4 -1/2+x,-1/2-y,-1/2+z
_cell_length_a 11.778(3)
_cell_length_b 10.390(2)
_cell_length_c 13.322(3)
_cell_angle_alpha 90
_cell_angle_beta 94.400(6)
_cell_angle_gamma 90
_cell_formula_units_Z 2
loop_
_atom_type_symbol
_atom_type_radius_bond
C 0.68
H 0.23
N 0.68
O 0.68
loop_
_atom_site_label
_atom_site_type_symbol
_atom_site_fract_x
_atom_site_fract_y
_atom_site_fract_z
C1 C 0.2817(5) 0.3553(7) -0.0322(5)
C2 C 0.3451(6) 0.3850(8) -0.1264(5)
H1 H 0.29700 0.43530 -0.17270
H2 H 0.36460 0.30590 -0.15800
H3 H 0.41330 0.43240 -0.10710
C3 C 0.3483(6) 0.2630(7) 0.0400(5)
C4 C 0.3028(6) 0.2181(8) 0.1251(5)
H4 H 0.23020 0.24510 0.13840
C5 C 0.3594(6) 0.1355(8) 0.1910(6)
H5 H 0.32690 0.10900 0.24900
C6 C 0.4645(7) 0.0924(7) 0.1703(6)
C7 C 0.5154(7) 0.1347(10) 0.0892(7)
H6 H 0.58810 0.10670 0.07710
C8 C 0.4571(6) 0.2216(10) 0.0236(6)
H7 H 0.49200 0.25200 -0.03200
N1 N 0.5251(7) 0.0035(7) 0.2407(6)
O1 O 0.6192(6) -0.0335(7) 0.2209(5)
O2 O 0.4805(6) -0.0271(6) 0.3162(5)
C9 C 0.1685(6) 0.2920(7) -0.0668(5)
C10 C 0.1413(6) 0.2152(7) -0.1486(5)
H8 H 0.18810 0.19550 -0.19960
C11 C 0.0295(6) 0.1719(7) -0.1411(5)
H9 H -0.01070 0.11880 -0.18750
C12 C -0.0112(5) 0.2193(6) -0.0559(5)
N2 N 0.0746(4) 0.2930(5) -0.0107(4)
H10 H 0.07060 0.33410 0.04490
C13 C -0.1272(6) 0.1992(6) -0.0117(5)
C14 C -0.1816(6) 0.0798(8) -0.0597(6)
H11 H -0.25020 0.06010 -0.02820
H12 H -0.12960 0.00880 -0.05090
H13 H -0.19940 0.09480 -0.13020
C15 C -0.1080(6) 0.1768(7) 0.1027(5)
H14 H -0.06550 0.24750 0.13300
H15 H -0.06640 0.09830 0.11510
H16 H -0.18030 0.17080 0.13110
C16 C -0.2016(5) 0.3133(7) -0.0344(5)
C17 C -0.2907(6) 0.3319(7) -0.1060(5)
H17 H -0.32110 0.27060 -0.15130
C18 C -0.3274(5) 0.4602(7) -0.0986(5)
H18 H -0.38500 0.49900 -0.13970
C19 C 0.2648(5) 0.4819(6) 0.0213(5)
N3 N -0.1885(4) 0.4283(6) 0.0170(4)
H19 H -0.13880 0.44170 0.06660
C1B C -0.2817(5) 0.6447(7) 0.0322(5)
C2B C -0.3451(6) 0.6150(8) 0.1264(5)
H1B H -0.29700 0.56470 0.17270
H2B H -0.36460 0.69410 0.15800
H3B H -0.41330 0.56760 0.10710
C3B C -0.3483(6) 0.7370(7) -0.0400(5)
C4B C -0.3028(6) 0.7819(8) -0.1251(5)
H4B H -0.23020 0.75490 -0.13840
C5B C -0.3594(6) 0.8645(8) -0.1910(6)
H5B H -0.32690 0.89100 -0.24900
C6B C -0.4645(7) 0.9076(7) -0.1703(6)
C7B C -0.5154(7) 0.8653(10) -0.0892(7)
H6B H -0.58810 0.89330 -0.07710
C8B C -0.4571(6) 0.7784(10) -0.0236(6)
H7B H -0.49200 0.74800 0.03200
N1B N -0.5251(7) 0.9965(7) -0.2407(6)
O1B O -0.6192(6) 1.0335(7) -0.2209(5)
O2B O -0.4805(6) 1.0271(6) -0.3162(5)
C9B C -0.1685(6) 0.7080(7) 0.0668(5)
C10B C -0.1413(6) 0.7848(7) 0.1486(5)
H8B H -0.18810 0.80450 0.19960
C11B C -0.0295(6) 0.8281(7) 0.1411(5)
H9B H 0.01070 0.88120 0.18750
C12B C 0.0112(5) 0.7807(6) 0.0559(5)
N2B N -0.0746(4) 0.7070(5) 0.0107(4)
H10B H -0.07060 0.66590 -0.04490
C13B C 0.1272(6) 0.8008(6) 0.0117(5)
C14B C 0.1816(6) 0.9202(8) 0.0597(6)
H11B H 0.25020 0.93990 0.02820
H12B H 0.12960 0.99120 0.05090
H13B H 0.19940 0.90520 0.13020
C15B C 0.1080(6) 0.8232(7) -0.1027(5)
H14B H 0.06550 0.75250 -0.13300
H15B H 0.06640 0.90170 -0.11510
H16B H 0.18030 0.82920 -0.13110
C16B C 0.2016(5) 0.6867(7) 0.0344(5)
C17B C 0.2907(6) 0.6681(7) 0.1060(5)
H17B H 0.32110 0.72940 0.15130
C18B C 0.3274(5) 0.5398(7) 0.0986(5)
H18B H 0.38500 0.50100 0.13970
C19B C -0.2648(5) 0.5181(6) -0.0213(5)
N3B N 0.1885(4) 0.5717(6) -0.0170(4)
H19B H 0.13880 0.55830 -0.06660
#END
