
#######################################################################
#
#                 Cambridge Crystallographic Data Centre
#                                CCDC
#
#######################################################################
#
# If this CIF has been generated from an entry in the Cambridge
# Structural Database, then it will include bibliographic, chemical,
# crystal, experimental, refinement or atomic coordinate data resulting
# from the CCDC's data processing and validation procedures.
#
#######################################################################

data_CSD_CIF_GIMQUP
_audit_creation_date 2007-12-14
_audit_creation_method CSD-ConQuest-V1
_database_code_CSD GIMQUP
_database_code_depnum_ccdc_archive 'CCDC 669186'
_chemical_formula_sum 'C13 H12 N2 O2'
_chemical_formula_moiety
;
C13 H12 N2 O2
;
_journal_coeditor_code "IUCr FA3106"
_journal_coden_Cambridge 591
_journal_volume 63
_journal_year 2007
_journal_page_first o643
_journal_name_full 'Acta Crystallogr.,Sect.C:Cryst.Struct.Commun. '
loop_
_publ_author_name
"J.Sopkova-de Oliveira Santos"
"P.Verhaeghe"
"J.-F.Lohier"
"P.Rathelot"
"P.Vanelle"
"S.Rault"
_chemical_name_systematic
;
2-(2-Methylprop-1-enyl)-8-nitroquinoline
;
_chemical_melting_point 363
_cell_volume   1115.476
_exptl_crystal_colour 'pale orange'
_exptl_crystal_density_diffrn 1.359
_exptl_crystal_description 'prism'
_diffrn_ambient_temperature 150
#These two values have been output from a single CSD field.
_refine_ls_R_factor_gt 0.0395
_refine_ls_wR_factor_gt 0.0395
_symmetry_cell_setting orthorhombic
_symmetry_space_group_name_H-M 'P n m a'
_symmetry_Int_Tables_number 62
loop_
_symmetry_equiv_pos_site_id
_symmetry_equiv_pos_as_xyz
1 x,y,z
2 1/2-x,-y,1/2+z
3 -x,1/2+y,-z
4 1/2+x,1/2-y,1/2-z
5 -x,-y,-z
6 -1/2+x,y,-1/2-z
7 x,-1/2-y,z
8 -1/2-x,-1/2+y,-1/2+z
_cell_length_a 11.5578(5)
_cell_length_b 6.8987(3)
_cell_length_c 13.9900(6)
_cell_angle_alpha 90
_cell_angle_beta 90
_cell_angle_gamma 90
_cell_formula_units_Z 4
loop_
_atom_type_symbol
_atom_type_radius_bond
C 0.68
H 0.23
N 0.68
O 0.68
loop_
_atom_site_label
_atom_site_type_symbol
_atom_site_fract_x
_atom_site_fract_y
_atom_site_fract_z
N1 N 0.78011(7) 0.25000 0.47854(6)
C1 C 0.74002(8) 0.25000 0.56744(6)
C2 C 0.81541(8) 0.25000 0.64820(7)
H1 H 0.7777(15) 0.25000 0.7138(12)
C3 C 0.93238(8) 0.25000 0.63549(7)
H2 H 0.9854(16) 0.25000 0.6928(13)
C4 C 0.97806(8) 0.25000 0.54161(7)
C5 C 1.09778(8) 0.25000 0.52090(7)
H3 H 1.1507(16) 0.25000 0.5747(13)
C6 C 1.13621(8) 0.25000 0.42820(7)
H4 H 1.2220(16) 0.25000 0.4085(13)
C7 C 1.05655(9) 0.25000 0.35169(7)
H5 H 1.0837(15) 0.25000 0.2831(13)
C8 C 0.94126(8) 0.25000 0.37234(6)
C9 C 0.89640(8) 0.25000 0.46641(6)
C10 C 0.61516(8) 0.25000 0.58622(7)
H6 H 0.5940(15) 0.25000 0.6555(13)
C11 C 0.52460(8) 0.25000 0.52559(7)
C12 C 0.53000(9) 0.25000 0.41864(8)
H7 H 0.4861(14) 0.137(3) 0.3953(11)
H8 H 0.6076(19) 0.25000 0.3924(15)
C13 C 0.40412(9) 0.25000 0.56518(9)
H9 H 0.3640(12) 0.134(2) 0.5456(9)
H10 H 0.4061(18) 0.25000 0.6342(15)
N2 N 0.85661(8) 0.25000 0.29425(6)
O1 O 0.82404(8) 0.09482(13) 0.26381(6)
H7F H 0.4861(14) 0.363(3) 0.3953(11)
H9F H 0.3640(12) 0.366(2) 0.5456(9)
O1F O 0.82404(8) 0.40518(13) 0.26381(6)
#END
