
#######################################################################
#
#                 Cambridge Crystallographic Data Centre
#                                CCDC
#
#######################################################################
#
# If this CIF has been generated from an entry in the Cambridge
# Structural Database, then it will include bibliographic, chemical,
# crystal, experimental, refinement or atomic coordinate data resulting
# from the CCDC's data processing and validation procedures.
#
#######################################################################

data_CSD_CIF_GIMSUR
_audit_creation_date 2007-12-14
_audit_creation_method CSD-ConQuest-V1
_database_code_CSD GIMSUR
_database_code_depnum_ccdc_archive 'CCDC 669198'
_chemical_formula_sum 'C9 H10 N4 O3'
_chemical_formula_moiety
;
C9 H10 N4 O3
;
_journal_coeditor_code "IUCr SF3047"
_journal_coden_Cambridge 591
_journal_volume 63
_journal_year 2007
_journal_page_first o671
_journal_name_full 'Acta Crystallogr.,Sect.C:Cryst.Struct.Commun. '
loop_
_publ_author_name
"Xue-Qin Cao"
"Zhan-Xiong Li"
"Guo-Qiang Chen"
"De-Chun Zhang"
_chemical_name_systematic
;
(5Z)-4-Amino-2-(4-hydroxyphenyl)-1H-imidazol-5(2H)-one oxime 3-oxide
;
_cell_volume    488.102
_exptl_crystal_colour 'colorless'
_exptl_crystal_density_diffrn 1.512
_exptl_crystal_description 'block'
_exptl_crystal_preparation 'dimethyl sulfoxide'
_diffrn_ambient_temperature 193
#These two values have been output from a single CSD field.
_refine_ls_R_factor_gt 0.0456
_refine_ls_wR_factor_gt 0.0456
_symmetry_cell_setting triclinic
_symmetry_space_group_name_H-M 'P -1'
_symmetry_Int_Tables_number 2
loop_
_symmetry_equiv_pos_site_id
_symmetry_equiv_pos_as_xyz
1 x,y,z
2 -x,-y,-z
_cell_length_a 6.6739(11)
_cell_length_b 7.5697(16)
_cell_length_c 10.899(2)
_cell_angle_alpha 85.036(18)
_cell_angle_beta 75.039(15)
_cell_angle_gamma 66.596(11)
_cell_formula_units_Z 2
loop_
_atom_type_symbol
_atom_type_radius_bond
C 0.68
H 0.23
N 0.68
O 0.68
loop_
_atom_site_label
_atom_site_type_symbol
_atom_site_fract_x
_atom_site_fract_y
_atom_site_fract_z
O1 O 0.2456(2) 0.46350(18) 0.13373(12)
O2 O 0.8072(2) -0.33332(19) 0.14069(14)
H1 H 0.93710 -0.41680 0.13780
O3 O -0.3049(3) 0.3475(2) 0.70012(13)
H2 H -0.25310 0.39940 0.74230
N1 N 0.4195(3) -0.0379(2) 0.18426(16)
H3 H 0.40510 -0.14750 0.20650
N2 N 0.3539(2) 0.2737(2) 0.14515(14)
N3 N 0.7165(3) 0.2593(2) 0.05181(16)
H4 H 0.66920 0.38460 0.04140
H5 H 0.86080 0.18650 0.02690
N4 N 0.8202(3) -0.1529(2) 0.10520(15)
C1 C 0.2318(3) 0.1486(3) 0.19970(18)
H6 H 0.13040 0.15210 0.14530
C2 C 0.5708(3) 0.1805(3) 0.10475(17)
C3 C 0.6191(3) -0.0226(3) 0.13160(17)
C4 C 0.0956(3) 0.2036(3) 0.33409(18)
C5 C 0.1896(3) 0.2197(3) 0.4294(2)
H7 H 0.34530 0.19630 0.41020
C6 C 0.0600(4) 0.2696(3) 0.5526(2)
H8 H 0.12570 0.28250 0.61720
C7 C -0.1651(3) 0.3004(3) 0.58040(18)
C8 C -0.2589(4) 0.2828(4) 0.4868(2)
H9 H -0.41370 0.30280 0.50650
C9 C -0.1298(3) 0.2362(3) 0.3638(2)
H10 H -0.19710 0.22650 0.29910
#END
