
#######################################################################
#
#                 Cambridge Crystallographic Data Centre
#                                CCDC
#
#######################################################################
#
# If this CIF has been generated from an entry in the Cambridge
# Structural Database, then it will include bibliographic, chemical,
# crystal, experimental, refinement or atomic coordinate data resulting
# from the CCDC's data processing and validation procedures.
#
#######################################################################

data_CSD_CIF_GIMVAB
_audit_creation_date 2013-09-13
_audit_creation_method CSD-ConQuest-V1
_database_code_CSD GIMVAB
_database_code_depnum_ccdc_archive 'CCDC 858966'
_chemical_formula_sum 'C27 H24 N4 O5'
_chemical_formula_moiety
;
C27 H24 N4 O5
;
_journal_coden_Cambridge 24
_journal_volume 54
_journal_year 2013
_journal_page_first 3896
_journal_name_full 'Tetrahedron Lett. '
loop_
_publ_author_name
"K.Chandraprakash"
"M.Sankaran"
"C.Uvarani"
"R.Shankar"
"A.Ata"
"F.Dallemer"
"P.S.Mohan"
_chemical_name_systematic
;
4'-(4-Methoxyphenyl)-1'-methyl-8''-nitro-2''H-dispiro[indole-3,2'-pyrrolidine-
3',3''-quinoline]-2,4''(1H,1''H)-dione
;
_cell_volume   2330.461
_exptl_crystal_colour 'orange'
_exptl_crystal_density_diffrn 1.381
_exptl_crystal_description 'prism'
_diffrn_ambient_temperature 293
_refine_special_details
;
C48,C49,C50,C51,C52,C53,O8 and C490,C500,C510,C511, C520,C530,O800 disordered 
over two sites with occupancies 0.5:0.5.
;
#These two values have been output from a single CSD field.
_refine_ls_R_factor_gt 0.0635
_refine_ls_wR_factor_gt 0.0635
_symmetry_cell_setting triclinic
_symmetry_space_group_name_H-M 'P -1'
_symmetry_Int_Tables_number 2
loop_
_symmetry_equiv_pos_site_id
_symmetry_equiv_pos_as_xyz
1 x,y,z
2 -x,-y,-z
_cell_length_a 12.1313(2)
_cell_length_b 14.8533(2)
_cell_length_c 15.2002(3)
_cell_angle_alpha 116.470(1)
_cell_angle_beta 96.201(1)
_cell_angle_gamma 102.276(1)
_cell_formula_units_Z 4
loop_
_atom_type_symbol
_atom_type_radius_bond
C 0.68
H 0.23
N 0.68
O 0.68
loop_
_atom_site_label
_atom_site_type_symbol
_atom_site_fract_x
_atom_site_fract_y
_atom_site_fract_z
C1 C 0.66205(16) 0.72013(14) 0.55759(15)
C2 C 0.79234(16) 0.72672(15) 0.59769(15)
C3 C 0.6847(2) 0.6994(2) 0.70777(19)
H1 H 0.70890 0.77200 0.76110
H2 H 0.65790 0.65360 0.73570
C4 C 0.59222(17) 0.68158(17) 0.62107(16)
H3 H 0.55900 0.60520 0.57920
C5 C 0.61959(16) 0.64143(15) 0.44432(15)
C6 C 0.65348(16) 0.68045(15) 0.37392(15)
C7 C 0.63643(19) 0.60942(17) 0.27301(17)
H4 H 0.59810 0.53890 0.24980
C8 C 0.6749(2) 0.6403(2) 0.20515(18)
H5 H 0.66130 0.59160 0.13710
C9 C 0.7336(2) 0.74418(19) 0.24019(18)
H6 H 0.76050 0.76570 0.19550
C10 C 0.75318(17) 0.81704(16) 0.34096(16)
C11 C 0.71115(16) 0.78909(15) 0.41188(15)
C12 C 0.64903(17) 0.82387(15) 0.56643(16)
H7 H 0.56860 0.81500 0.54050
H8 H 0.67170 0.87770 0.63690
C13 C 0.86208(16) 0.68055(15) 0.52111(15)
C14 C 0.8457(2) 0.57887(18) 0.44794(19)
H9 H 0.78000 0.52590 0.43630
C15 C 0.9281(2) 0.5562(2) 0.3917(2)
H10 H 0.91780 0.48750 0.34210
C16 C 1.0246(2) 0.6342(3) 0.4085(2)
H11 H 1.07840 0.61760 0.36920
C17 C 1.0442(2) 0.7370(2) 0.4826(2)
H12 H 1.11030 0.78970 0.49430
C18 C 0.96158(17) 0.75795(17) 0.53819(17)
C19 C 0.87152(18) 0.84283(16) 0.66087(17)
C20 C 0.49217(17) 0.72502(16) 0.65121(16)
C21 C 0.50525(19) 0.82386(18) 0.73116(17)
H13 H 0.57960 0.86760 0.76790
C22 C 0.4105(2) 0.85952(18) 0.75802(17)
H14 H 0.42170 0.92630 0.81160
C23 C 0.29956(19) 0.79482(18) 0.70437(17)
C24 C 0.28418(18) 0.69609(18) 0.62418(18)
H15 H 0.20980 0.65250 0.58760
C25 C 0.37938(18) 0.66225(17) 0.59853(17)
H16 H 0.36780 0.59560 0.54450
C26 C 0.2113(3) 0.9171(2) 0.8103(2)
H17 H 0.25290 0.91950 0.86910
H18 H 0.13570 0.92400 0.81880
H19 H 0.25310 0.97380 0.80120
C27 C 0.8842(2) 0.6873(3) 0.7244(2)
H20 H 0.94060 0.66740 0.68570
H21 H 0.86760 0.64450 0.75630
H22 H 0.91420 0.76000 0.77520
N1 N 0.77804(9) 0.67238(7) 0.65780(6)
N2 N 0.72163(9) 0.85638(7) 0.50938(6)
H23 H 0.75260 0.92890 0.53490
N3 N 0.96417(15) 0.85267(14) 0.62069(15)
H24 H 1.02340 0.91130 0.64250
N4 N 0.81969(17) 0.92338(16) 0.37223(17)
O1 O 0.56219(14) 0.55087(11) 0.41236(12)
O2 O 0.85540(16) 0.91236(13) 0.73673(13)
O3 O 0.19998(15) 0.82041(15) 0.72476(14)
O4 O 0.84818(18) 0.98976(14) 0.46204(16)
O5 O 0.8485(2) 0.94475(17) 0.30695(17)
C28 C 0.6251(3) 1.27944(19) 0.92994(17)
C29 C 0.7457(3) 1.2590(2) 0.95017(18)
C30 C 0.6862(4) 1.3082(3) 1.1018(2)
H25 H 0.70110 1.36170 1.17180
H26 H 0.66470 1.23930 1.09740
C31 C 0.5914(3) 1.3192(2) 1.03503(18)
H27 H 0.60260 1.39480 1.06220
C32 C 0.6401(2) 1.36615(19) 0.89894(18)
C33 C 0.6346(2) 1.33360(18) 0.79110(17)
C34 C 0.6637(2) 1.4101(2) 0.76240(19)
H28 H 0.67510 1.48010 0.80950
C35 C 0.6761(2) 1.3858(2) 0.6661(2)
H29 H 0.69250 1.43790 0.64730
C36 C 0.6639(2) 1.2825(2) 0.59813(19)
H30 H 0.67540 1.26530 0.53370
C37 C 0.63464(19) 1.20424(19) 0.62448(17)
C38 C 0.61247(19) 1.22543(18) 0.72035(16)
C39 C 0.5341(2) 1.18395(19) 0.84223(18)
H31 H 0.51940 1.12590 0.85700
H32 H 0.46210 1.20100 0.83430
C40 C 0.8351(3) 1.2828(2) 0.89536(19)
C41 C 0.8954(3) 1.3766(3) 0.9016(3)
H33 H 0.88460 1.43990 0.94630
C42 C 0.9727(3) 1.3743(4) 0.8395(4)
H34 H 1.01360 1.43650 0.84250
C43 C 0.9885(4) 1.2815(5) 0.7745(4)
H35 H 1.03870 1.28140 0.73230
C44 C 0.9323(4) 1.1877(4) 0.7693(3)
H36 H 0.94440 1.12480 0.72510
C45 C 0.8573(3) 1.1903(2) 0.8319(2)
C46 C 0.7297(3) 1.1389(2) 0.9119(2)
C47 C 0.4680(3) 1.2718(2) 1.0319(2)
C48 C 0.88847(9) 1.30622(7) 1.10433(6)
H37 H 0.91900 1.36130 1.17290
H38 H 0.94630 1.30740 1.06610
H39 H 0.86730 1.23950 1.10300
C49 C 0.45701(9) 1.18172(7) 1.03884(6)
H40 H 0.51790 1.15500 1.04680
C50 C 0.34041(9) 1.13531(7) 1.03223(6)
H41 H 0.31990 1.07390 1.03700
C51 C 0.25720(9) 1.18032(7) 1.01887(6)
C52 C 0.28786(9) 1.27585(7) 1.01748(6)
H42 H 0.23090 1.30670 1.01000
C53 C 0.40481(9) 1.32567(7) 1.02738(6)
H43 H 0.43100 1.39070 1.03020
O6 O 0.14586(9) 1.12187(7) 1.00725(6)
C54 C 0.05637(9) 1.13834(7) 0.95413(6)
H44 H 0.06980 1.21240 0.97850
H45 H -0.01680 1.10960 0.96440
H46 H 0.05510 1.10420 0.88340
N5 N 0.7859(3) 1.3222(2) 1.06000(16)
N6 N 0.7946(2) 1.10745(19) 0.84341(17)
H47 H 0.79750 1.04020 0.81620
N7 N 0.57381(19) 1.15271(15) 0.74876(14)
H48 H 0.54610 1.07750 0.70130
N8 N 0.62834(19) 1.09938(18) 0.54985(16)
O7 O 0.6592(2) 1.45839(15) 0.96063(14)
O8 O 0.6708(2) 1.08345(18) 0.93962(18)
O9 O 0.6128(2) 1.02887(16) 0.57354(15)
O10 O 0.6400(2) 1.08302(18) 0.46551(15)
C55? C 0.39687(9) 1.17099(7) 1.02772(6)
H49? H 0.43800 1.12560 1.03000
C56? C 0.27489(9) 1.13795(7) 1.02081(6)
H50? H 0.24260 1.07530 1.02090
C57? C 0.24988(9) 1.29238(7) 1.01504(6)
H51? H 0.20380 1.33390 1.01170
C58? C 0.20446(9) 1.19738(7) 1.01406(6)
C59? C 0.36847(9) 1.32108(7) 1.02133(6)
H52? H 0.39450 1.38320 1.01870
O11? O 0.08627(9) 1.17212(7) 1.00800(6)
C60? C 0.03123(9) 1.07418(7) 1.00177(6)
H53? H 0.03660 1.01780 0.94010
H54? H -0.04890 1.06850 1.00280
H55? H 0.06880 1.07010 1.05830
#END
