
#######################################################################
#
#                 Cambridge Crystallographic Data Centre
#                                CCDC
#
#######################################################################
#
# If this CIF has been generated from an entry in the Cambridge
# Structural Database, then it will include bibliographic, chemical,
# crystal, experimental, refinement or atomic coordinate data resulting
# from the CCDC's data processing and validation procedures.
#
#######################################################################

data_CSD_CIF_GINSAY
_audit_creation_date 2007-12-14
_audit_creation_method CSD-ConQuest-V1
_database_code_CSD GINSAY
_database_code_depnum_ccdc_archive 'CCDC 669199'
_chemical_formula_sum 'C26 H16 N2 O2'
_chemical_formula_moiety
;
C26 H16 N2 O2
;
_journal_coeditor_code "IUCr LN3064"
_journal_coden_Cambridge 591
_journal_volume 63
_journal_year 2007
_journal_page_first o673
_journal_name_full 'Acta Crystallogr.,Sect.C:Cryst.Struct.Commun. '
loop_
_publ_author_name
"Chun-Sen Liu"
_chemical_name_systematic
;
9,9'-Biacridine N,N'-dioxide
;
_chemical_melting_point 573
_cell_volume   3743.637
_exptl_crystal_colour 'yellow'
_exptl_crystal_density_diffrn 1.378
_exptl_crystal_description 'prism'
_exptl_crystal_preparation 'methanol'
_diffrn_ambient_temperature 293
#These two values have been output from a single CSD field.
_refine_ls_R_factor_gt 0.061
_refine_ls_wR_factor_gt 0.061
_symmetry_cell_setting monoclinic
_symmetry_space_group_name_H-M 'C 2/c'
_symmetry_Int_Tables_number 15
loop_
_symmetry_equiv_pos_site_id
_symmetry_equiv_pos_as_xyz
1 x,y,z
2 1/2+x,1/2+y,z
3 -x,y,1/2-z
4 1/2-x,1/2+y,1/2-z
5 -x,-y,-z
6 -1/2-x,-1/2-y,-z
7 x,-y,-1/2+z
8 -1/2+x,-1/2-y,-1/2+z
_cell_length_a 9.251(3)
_cell_length_b 14.972(5)
_cell_length_c 27.35(1)
_cell_angle_alpha 90
_cell_angle_beta 98.791(6)
_cell_angle_gamma 90
_cell_formula_units_Z 8
loop_
_atom_type_symbol
_atom_type_radius_bond
C 0.68
H 0.23
N 0.68
O 0.68
loop_
_atom_site_label
_atom_site_type_symbol
_atom_site_fract_x
_atom_site_fract_y
_atom_site_fract_z
C1 C 0.4259(4) 0.5903(4) 0.30375(13)
C2 C 0.3417(5) 0.6578(5) 0.27816(16)
H1 H 0.26490 0.64300 0.25340
C3 C 0.3714(6) 0.7442(5) 0.28919(19)
H2 H 0.31230 0.78840 0.27270
C4 C 0.4903(6) 0.7688(4) 0.32515(17)
H3 H 0.51180 0.82870 0.33170
C5 C 0.5728(4) 0.7038(3) 0.35004(14)
H4 H 0.65100 0.72010 0.37390
C6 C 0.5443(4) 0.6114(3) 0.34108(12)
C7 C 0.5874(4) 0.4556(3) 0.35737(12)
C8 C 0.6614(4) 0.3833(3) 0.38325(14)
H5 H 0.73800 0.39470 0.40870
C9 C 0.6233(5) 0.2975(3) 0.37177(17)
H6 H 0.67310 0.25060 0.38920
C10 C 0.5084(6) 0.2800(4) 0.3335(2)
H7 H 0.48340 0.22100 0.32550
C11 C 0.4333(5) 0.3459(4) 0.30779(18)
H8 H 0.35660 0.33260 0.28270
C12 C 0.4716(4) 0.4352(3) 0.31908(14)
C13 C 0.6242(3) 0.5452(3) 0.36816(11)
C14 C 0.7468(4) 0.5678(2) 0.40817(12)
C15 C 0.8922(4) 0.5595(2) 0.39983(12)
C16 C 0.9306(4) 0.5316(2) 0.35341(13)
H9 H 0.85720 0.51890 0.32710
C17 C 1.0728(4) 0.5237(3) 0.34734(15)
H10 H 1.09620 0.50560 0.31700
C18 C 1.1846(4) 0.5425(3) 0.38668(16)
H11 H 1.28160 0.53570 0.38210
C19 C 1.1546(4) 0.5704(3) 0.43116(15)
H12 H 1.23030 0.58350 0.45660
C20 C 1.0081(4) 0.5795(2) 0.43852(13)
C21 C 0.8372(4) 0.6182(2) 0.49243(12)
C22 C 0.8115(5) 0.6490(2) 0.53895(13)
H13 H 0.88960 0.66260 0.56350
C23 C 0.6726(5) 0.6588(3) 0.54779(14)
H14 H 0.65610 0.67940 0.57850
C24 C 0.5530(4) 0.6386(3) 0.51159(14)
H15 H 0.45810 0.64600 0.51820
C25 C 0.5767(4) 0.6079(3) 0.46647(13)
H16 H 0.49680 0.59360 0.44280
C26 C 0.7196(4) 0.5972(2) 0.45475(12)
N1 N 0.9788(3) 0.6082(2) 0.48401(10)
N2 N 0.3938(3) 0.5018(3) 0.29254(11)
O1 O 1.0863(3) 0.6257(2) 0.51898(9)
O2 O 0.2880(3) 0.4824(2) 0.25739(10)
#END
