
#######################################################################
#
#                 Cambridge Crystallographic Data Centre
#                                CCDC
#
#######################################################################
#
# If this CIF has been generated from an entry in the Cambridge
# Structural Database, then it will include bibliographic, chemical,
# crystal, experimental, refinement or atomic coordinate data resulting
# from the CCDC's data processing and validation procedures.
#
#######################################################################

data_CSD_CIF_GINXUY
_audit_creation_date 2013-09-16
_audit_creation_method CSD-ConQuest-V1
_database_code_CSD GINXUY
_database_code_depnum_ccdc_archive 'CCDC 930840'
_chemical_formula_sum 'C20 H17 N1 O5'
_chemical_formula_moiety
;
C20 H17 N1 O5
;
_journal_coden_Cambridge 1366
_journal_volume 355
_journal_year 2013
_journal_page_first 2375
_journal_name_full 'Adv.Synth.Catal. '
loop_
_publ_author_name
"A.O.Terent'ev"
"I.B.Krylov"
"V.P.Timofeev"
"Z.A.Starikova"
"V.M.Merkulova"
"A.I.Ilovaisky"
"G.I.Nikishin"
_chemical_name_systematic
;
2-((3-Benzyl-2,4-dioxopentan-3-yl)oxy)-1H-isoindole-1,3(2H)-dione
;
_cell_volume   3454.917
_exptl_crystal_colour 'colorless'
_exptl_crystal_density_diffrn 1.351
_exptl_crystal_description 'prism'
_diffrn_ambient_temperature 100
#These two values have been output from a single CSD field.
_refine_ls_R_factor_gt 0.0382
_refine_ls_wR_factor_gt 0.0382
_symmetry_cell_setting orthorhombic
_symmetry_space_group_name_H-M 'P b c a'
_symmetry_Int_Tables_number 61
loop_
_symmetry_equiv_pos_site_id
_symmetry_equiv_pos_as_xyz
1 x,y,z
2 1/2-x,-y,1/2+z
3 -x,1/2+y,1/2-z
4 1/2+x,1/2-y,-z
5 -x,-y,-z
6 -1/2+x,y,-1/2-z
7 x,-1/2-y,-1/2+z
8 -1/2-x,-1/2+y,z
_cell_length_a 11.8512(5)
_cell_length_b 14.4247(6)
_cell_length_c 20.2101(8)
_cell_angle_alpha 90
_cell_angle_beta 90
_cell_angle_gamma 90
_cell_formula_units_Z 8
loop_
_atom_type_symbol
_atom_type_radius_bond
C 0.68
H 0.23
N 0.68
O 0.68
loop_
_atom_site_label
_atom_site_type_symbol
_atom_site_fract_x
_atom_site_fract_y
_atom_site_fract_z
N1 N 0.81923(8) 0.32317(6) 0.69919(4)
O1 O 0.71560(7) 0.22212(5) 0.63341(4)
O2 O 0.94184(8) 0.44020(6) 0.73179(4)
O3 O 0.85825(7) 0.25574(5) 0.74240(4)
O4 O 0.84641(8) 0.14917(7) 0.89176(5)
O5 O 0.79089(8) 0.39153(6) 0.87137(5)
C1 C 0.76073(9) 0.29601(7) 0.64124(5)
C2 C 0.76796(9) 0.37843(7) 0.59735(5)
C3 C 0.72164(10) 0.39249(8) 0.53545(5)
H1 H 0.67560 0.34690 0.51490
C4 C 0.74553(10) 0.47696(8) 0.50426(5)
H2 H 0.71500 0.48920 0.46170
C5 C 0.81324(11) 0.54320(8) 0.53465(6)
H3 H 0.82740 0.60010 0.51250
C6 C 0.86099(10) 0.52803(8) 0.59699(6)
H4 H 0.90810 0.57300 0.61740
C7 C 0.83669(9) 0.44479(7) 0.62756(5)
C8 C 0.87667(9) 0.40825(7) 0.69208(5)
C9 C 0.79755(9) 0.25332(8) 0.80556(5)
C10 C 0.66910(9) 0.26246(8) 0.79559(5)
H5 H 0.65160 0.32820 0.78600
H6 H 0.64750 0.22580 0.75610
C11 C 0.59649(9) 0.23129(8) 0.85337(5)
C12 C 0.55587(10) 0.14049(9) 0.85627(6)
H7 H 0.57750 0.09720 0.82320
C13 C 0.48399(11) 0.11278(9) 0.90707(6)
H8 H 0.45640 0.05100 0.90830
C14 C 0.4525(1) 0.17520(9) 0.95597(6)
H9 H 0.40350 0.15620 0.99060
C15 C 0.49288(9) 0.26542(9) 0.95396(6)
H10 H 0.47200 0.30820 0.98760
C16 C 0.56407(9) 0.29363(8) 0.90282(5)
H11 H 0.59080 0.35570 0.90160
C17 C 0.82669(9) 0.15667(8) 0.83313(6)
C18 C 0.82680(12) 0.07660(8) 0.78578(7)
H12 H 0.80600 0.01980 0.80940
H13 H 0.90230 0.06940 0.76670
H14 H 0.77220 0.08830 0.75030
C19 C 0.84946(10) 0.32990(8) 0.84964(5)
C20 C 0.97467(11) 0.32572(10) 0.86141(6)
H15 H 1.00310 0.38810 0.87100
H16 H 1.01220 0.30150 0.82180
H17 H 0.99030 0.28490 0.89900
#END
